# vtk DataFile Version 3.0
vtk output at time 0.4
ASCII
DATASET UNSTRUCTURED_GRID
POINTS 2586 float
-1.84029e-05 0.000489375 0 1.84029e-05 0.000489375 0 -0.000414597 0.000260625 0 
-0.00041175 0.00025 0 -0.000433 0.00022875 0 -0.000433 -0.00022875 0 
-0.00041175 -0.00025 0 -0.000414597 -0.000260625 0 -1.84029e-05 -0.000489375 0 
1.84029e-05 -0.000489375 0 0.000414597 -0.000260625 0 0.000433 -0.00022875 0 
0.000433 0.00022875 0 0.000414597 0.000260625 0 4.25e-05 0 0 
2.125e-05 0.0005 0 5.90898e-17 0.00052125 0 5.90919e-17 0.00097875 0 
2.125e-05 0.001 0 1.84029e-05 0.00101063 0 0.000414597 0.00123937 0 
0.000451403 0.00123937 0 0.000847597 0.00101063 0 0.000866 0.00097875 0 
0.000866 0.00052125 0 0.000847597 0.000489375 0 0.000451403 0.000260625 0 
0.0004755 0.00075 0 0.00045425 0.00025 0 0.000884403 0.000489375 0 
0.0012806 0.000260625 0 0.001299 0.00022875 0 0.001299 -0.00022875 0 
0.0012806 -0.000260625 0 0.000884403 -0.000489375 0 0.000847597 -0.000489375 0 
0.000451403 -0.000260625 0 0.00045425 -0.00025 0 0.0009085 0 0 
0.000866 -0.00052125 0 0.000866 -0.00097875 0 0.000847597 -0.00101063 0 
0.000451403 -0.00123937 0 0.000414597 -0.00123937 0 1.84029e-05 -0.00101063 0 
2.125e-05 -0.001 0 5.90898e-17 -0.00097875 0 5.90919e-17 -0.00052125 0 
2.125e-05 -0.0005 0 0.0004755 -0.00075 0 -1.84029e-05 -0.00101063 0 
-0.000414597 -0.00123937 0 -0.000451403 -0.00123937 0 -0.000847597 -0.00101063 0 
-0.00084475 -0.001 0 -0.000866 -0.00097875 0 -0.000866 -0.00052125 0 
-0.00084475 -0.0005 0 -0.000847597 -0.000489375 0 -0.000451403 -0.000260625 0 
-0.0003905 -0.00075 0 -0.000884403 -0.000489375 0 -0.0012806 -0.000260625 0 
-0.00127775 -0.00025 0 -0.001299 -0.00022875 0 -0.001299 0.00022875 0 
-0.00127775 0.00025 0 -0.0012806 0.000260625 0 -0.000884403 0.000489375 0 
-0.000847597 0.000489375 0 -0.000451403 0.000260625 0 -0.0008235 0 0 
-0.00084475 0.0005 0 -0.000866 0.00052125 0 -0.000866 0.00097875 0 
-0.00084475 0.001 0 -0.000847597 0.00101063 0 -0.000451403 0.00123937 0 
-0.000414597 0.00123937 0 -1.84029e-05 0.00101063 0 -0.0003905 0.00075 0 
-1.84029e-05 0.000489375 -0.0005 1.84029e-05 0.000489375 -0.0005 -0.000414597 0.000260625 -0.0005 
-0.00041175 0.00025 -0.0005 -0.000433 0.00022875 -0.0005 -0.000433 -0.00022875 -0.0005 
-0.00041175 -0.00025 -0.0005 -0.000414597 -0.000260625 -0.0005 -1.84029e-05 -0.000489375 -0.0005 
1.84029e-05 -0.000489375 -0.0005 0.000414597 -0.000260625 -0.0005 0.000433 -0.00022875 -0.0005 
0.000433 0.00022875 -0.0005 0.000414597 0.000260625 -0.0005 4.25e-05 0 -0.0005 
2.125e-05 0.0005 -0.0005 5.90898e-17 0.00052125 -0.0005 5.90919e-17 0.00097875 -0.0005 
2.125e-05 0.001 -0.0005 1.84029e-05 0.00101063 -0.0005 0.000414597 0.00123937 -0.0005 
0.000451403 0.00123937 -0.0005 0.000847597 0.00101063 -0.0005 0.000866 0.00097875 -0.0005 
0.000866 0.00052125 -0.0005 0.000847597 0.000489375 -0.0005 0.000451403 0.000260625 -0.0005 
0.0004755 0.00075 -0.0005 0.00045425 0.00025 -0.0005 0.000884403 0.000489375 -0.0005 
0.0012806 0.000260625 -0.0005 0.001299 0.00022875 -0.0005 0.001299 -0.00022875 -0.0005 
0.0012806 -0.000260625 -0.0005 0.000884403 -0.000489375 -0.0005 0.000847597 -0.000489375 -0.0005 
0.000451403 -0.000260625 -0.0005 0.00045425 -0.00025 -0.0005 0.0009085 0 -0.0005 
0.000866 -0.00052125 -0.0005 0.000866 -0.00097875 -0.0005 0.000847597 -0.00101063 -0.0005 
0.000451403 -0.00123937 -0.0005 0.000414597 -0.00123937 -0.0005 1.84029e-05 -0.00101063 -0.0005 
2.125e-05 -0.001 -0.0005 5.90898e-17 -0.00097875 -0.0005 5.90919e-17 -0.00052125 -0.0005 
2.125e-05 -0.0005 -0.0005 0.0004755 -0.00075 -0.0005 -1.84029e-05 -0.00101063 -0.0005 
-0.000414597 -0.00123937 -0.0005 -0.000451403 -0.00123937 -0.0005 -0.000847597 -0.00101063 -0.0005 
-0.00084475 -0.001 -0.0005 -0.000866 -0.00097875 -0.0005 -0.000866 -0.00052125 -0.0005 
-0.00084475 -0.0005 -0.0005 -0.000847597 -0.000489375 -0.0005 -0.000451403 -0.000260625 -0.0005 
-0.0003905 -0.00075 -0.0005 -0.000884403 -0.000489375 -0.0005 -0.0012806 -0.000260625 -0.0005 
-0.00127775 -0.00025 -0.0005 -0.001299 -0.00022875 -0.0005 -0.001299 0.00022875 -0.0005 
-0.00127775 0.00025 -0.0005 -0.0012806 0.000260625 -0.0005 -0.000884403 0.000489375 -0.0005 
-0.000847597 0.000489375 -0.0005 -0.000451403 0.000260625 -0.0005 -0.0008235 0 -0.0005 
-0.00084475 0.0005 -0.0005 -0.000866 0.00052125 -0.0005 -0.000866 0.00097875 -0.0005 
-0.00084475 0.001 -0.0005 -0.000847597 0.00101063 -0.0005 -0.000451403 0.00123937 -0.0005 
-0.000414597 0.00123937 -0.0005 -1.84029e-05 0.00101063 -0.0005 -0.0003905 0.00075 -0.0005 
-9.82724e-20 0.00047875 0 -0.000335358 0.000306375 0 -0.000256119 0.000352125 0 
-0.000176881 0.000397875 0 -9.76417e-05 0.000443625 0 -0.000412474 0.0002555 0 
-0.000417974 0.000234974 0 -0.000433 -0.00013725 0 -0.000433 -4.575e-05 0 
-0.000433 4.575e-05 0 -0.000433 0.00013725 0 -0.000417974 -0.000234974 0 
-0.000412474 -0.0002555 0 -9.76417e-05 -0.000443625 0 -0.000176881 -0.000397875 0 
-0.000256119 -0.000352125 0 -0.000335358 -0.000306375 0 -1.07223e-19 -0.00047875 0 
0.000335358 -0.000306375 0 0.000256119 -0.000352125 0 0.000176881 -0.000397875 0 
9.76417e-05 -0.000443625 0 0.000414597 -0.000239375 0 0.000433 0.00013725 0 
0.000433 4.575e-05 0 0.000433 -4.575e-05 0 0.000433 -0.00013725 0 
0.000414597 0.000239375 0 9.76417e-05 0.000443625 0 0.000176881 0.000397875 0 
0.000256119 0.000352125 0 0.000335358 0.000306375 0 -1.29514e-19 4.25e-05 0 
-4.25e-05 -3.53397e-19 0 4.07417e-19 -4.25e-05 0 2.05259e-05 0.0004945 0 
1.5026e-05 0.000515026 0 0 0.00061275 0 0 0.00070425 0 
0 0.00079575 0 0 0.00088725 0 1.5026e-05 0.000984974 0 
2.05259e-05 0.0010055 0 9.76417e-05 0.00105638 0 0.000176881 0.00110213 0 
0.000256119 0.00114787 0 0.000335358 0.00119362 0 0.000433 0.00122875 0 
0.000530642 0.00119362 0 0.000609881 0.00114787 0 0.000689119 0.00110213 0 
0.000768358 0.00105638 0 0.000847597 0.000989375 0 0.000866 0.00088725 0 
0.000866 0.00079575 0 0.000866 0.00070425 0 0.000866 0.00061275 0 
0.000847597 0.000510625 0 0.000530642 0.000306375 0 0.000609881 0.000352125 0 
0.000689119 0.000397875 0 0.000768358 0.000443625 0 0.000433 0.00027125 0 
0.000433 0.0007925 0 0.0003905 0.00075 0 0.000433 0.0007075 0 
0.000448026 0.000234974 0 0.000453526 0.0002555 0 0.000866 0.00047875 0 
0.000963642 0.000443625 0 0.00104288 0.000397875 0 0.00112212 0.000352125 0 
0.00120136 0.000306375 0 0.0012806 0.000239375 0 0.001299 0.00013725 0 
0.001299 4.575e-05 0 0.001299 -4.575e-05 0 0.001299 -0.00013725 0 
0.0012806 -0.000239375 0 0.00120136 -0.000306375 0 0.00112212 -0.000352125 0 
0.00104288 -0.000397875 0 0.000963642 -0.000443625 0 0.000866 -0.00047875 0 
0.000530642 -0.000306375 0 0.000609881 -0.000352125 0 0.000689119 -0.000397875 0 
0.000768358 -0.000443625 0 0.000453526 -0.0002555 0 0.000448026 -0.000234974 0 
0.000866 4.25e-05 0 0.0008235 -3.53397e-19 0 0.000866 -4.25e-05 0 
0.000433 -0.00027125 0 0.000847597 -0.000510625 0 0.000866 -0.00061275 0 
0.000866 -0.00070425 0 0.000866 -0.00079575 0 0.000866 -0.00088725 0 
0.000847597 -0.000989375 0 0.000768358 -0.00105638 0 0.000689119 -0.00110213 0 
0.000609881 -0.00114787 0 0.000530642 -0.00119362 0 0.000433 -0.00122875 0 
0.000335358 -0.00119362 0 0.000256119 -0.00114787 0 0.000176881 -0.00110213 0 
9.76417e-05 -0.00105638 0 2.05259e-05 -0.0010055 0 1.5026e-05 -0.000984974 0 
0 -0.00061275 0 0 -0.00070425 0 0 -0.00079575 0 
0 -0.00088725 0 1.5026e-05 -0.000515026 0 2.05259e-05 -0.0004945 0 
0.000433 -0.0007075 0 0.0003905 -0.00075 0 0.000433 -0.0007925 0 
-1.84031e-05 -0.000510625 0 -1.84031e-05 -0.000989375 0 -9.76417e-05 -0.00105638 0 
-0.000176881 -0.00110213 0 -0.000256119 -0.00114787 0 -0.000335358 -0.00119362 0 
-0.000433 -0.00122875 0 -0.000530642 -0.00119362 0 -0.000609881 -0.00114787 0 
-0.000689119 -0.00110213 0 -0.000768358 -0.00105638 0 -0.000845474 -0.0010055 0 
-0.000850974 -0.000984974 0 -0.000866 -0.00088725 0 -0.000866 -0.00079575 0 
-0.000866 -0.00070425 0 -0.000866 -0.00061275 0 -0.000850974 -0.000515026 0 
-0.000845474 -0.0004945 0 -0.000530642 -0.000306375 0 -0.000609881 -0.000352125 0 
-0.000689119 -0.000397875 0 -0.000768358 -0.000443625 0 -0.000433 -0.00027125 0 
-0.000433 -0.0007075 0 -0.0004755 -0.00075 0 -0.000433 -0.0007925 0 
-0.000451403 -0.000239375 0 -0.000866 -0.00047875 0 -0.000963642 -0.000443625 0 
-0.00104288 -0.000397875 0 -0.00112212 -0.000352125 0 -0.00120136 -0.000306375 0 
-0.00127847 -0.0002555 0 -0.00128397 -0.000234974 0 -0.001299 -0.00013725 0 
-0.001299 -4.575e-05 0 -0.001299 4.575e-05 0 -0.001299 0.00013725 0 
-0.00128397 0.000234974 0 -0.00127847 0.0002555 0 -0.00120136 0.000306375 0 
-0.00112212 0.000352125 0 -0.00104288 0.000397875 0 -0.000963642 0.000443625 0 
-0.000866 0.00047875 0 -0.000530642 0.000306375 0 -0.000609881 0.000352125 0 
-0.000689119 0.000397875 0 -0.000768358 0.000443625 0 -0.000451403 0.000239375 0 
-0.000866 4.25e-05 0 -0.0009085 -3.53397e-19 0 -0.000866 -4.25e-05 0 
-0.000433 0.00027125 0 -0.000845474 0.0004945 0 -0.000850974 0.000515026 0 
-0.000866 0.00061275 0 -0.000866 0.00070425 0 -0.000866 0.00079575 0 
-0.000866 0.00088725 0 -0.000850974 0.000984974 0 -0.000845474 0.0010055 0 
-0.000768358 0.00105638 0 -0.000689119 0.00110213 0 -0.000609881 0.00114787 0 
-0.000530642 0.00119362 0 -0.000433 0.00122875 0 -0.000335358 0.00119362 0 
-0.000256119 0.00114787 0 -0.000176881 0.00110213 0 -9.76417e-05 0.00105638 0 
-1.84031e-05 0.000989375 0 -1.84031e-05 0.000510625 0 -0.000433 0.0007925 0 
-0.0004755 0.00075 0 -0.000433 0.0007075 0 -9.82724e-20 0.00047875 -0.0005 
-0.000335358 0.000306375 -0.0005 -0.000256119 0.000352125 -0.0005 -0.000176881 0.000397875 -0.0005 
-9.76417e-05 0.000443625 -0.0005 -0.000412474 0.0002555 -0.0005 -0.000417974 0.000234974 -0.0005 
-0.000433 -0.00013725 -0.0005 -0.000433 -4.575e-05 -0.0005 -0.000433 4.575e-05 -0.0005 
-0.000433 0.00013725 -0.0005 -0.000417974 -0.000234974 -0.0005 -0.000412474 -0.0002555 -0.0005 
-9.76417e-05 -0.000443625 -0.0005 -0.000176881 -0.000397875 -0.0005 -0.000256119 -0.000352125 -0.0005 
-0.000335358 -0.000306375 -0.0005 -1.07223e-19 -0.00047875 -0.0005 0.000335358 -0.000306375 -0.0005 
0.000256119 -0.000352125 -0.0005 0.000176881 -0.000397875 -0.0005 9.76417e-05 -0.000443625 -0.0005 
0.000414597 -0.000239375 -0.0005 0.000433 0.00013725 -0.0005 0.000433 4.575e-05 -0.0005 
0.000433 -4.575e-05 -0.0005 0.000433 -0.00013725 -0.0005 0.000414597 0.000239375 -0.0005 
9.76417e-05 0.000443625 -0.0005 0.000176881 0.000397875 -0.0005 0.000256119 0.000352125 -0.0005 
0.000335358 0.000306375 -0.0005 -1.29514e-19 4.25e-05 -0.0005 -4.25e-05 -3.53397e-19 -0.0005 
4.07417e-19 -4.25e-05 -0.0005 2.05259e-05 0.0004945 -0.0005 1.5026e-05 0.000515026 -0.0005 
0 0.00061275 -0.0005 0 0.00070425 -0.0005 0 0.00079575 -0.0005 
0 0.00088725 -0.0005 1.5026e-05 0.000984974 -0.0005 2.05259e-05 0.0010055 -0.0005 
9.76417e-05 0.00105638 -0.0005 0.000176881 0.00110213 -0.0005 0.000256119 0.00114787 -0.0005 
0.000335358 0.00119362 -0.0005 0.000433 0.00122875 -0.0005 0.000530642 0.00119362 -0.0005 
0.000609881 0.00114787 -0.0005 0.000689119 0.00110213 -0.0005 0.000768358 0.00105638 -0.0005 
0.000847597 0.000989375 -0.0005 0.000866 0.00088725 -0.0005 0.000866 0.00079575 -0.0005 
0.000866 0.00070425 -0.0005 0.000866 0.00061275 -0.0005 0.000847597 0.000510625 -0.0005 
0.000530642 0.000306375 -0.0005 0.000609881 0.000352125 -0.0005 0.000689119 0.000397875 -0.0005 
0.000768358 0.000443625 -0.0005 0.000433 0.00027125 -0.0005 0.000433 0.0007925 -0.0005 
0.0003905 0.00075 -0.0005 0.000433 0.0007075 -0.0005 0.000448026 0.000234974 -0.0005 
0.000453526 0.0002555 -0.0005 0.000866 0.00047875 -0.0005 0.000963642 0.000443625 -0.0005 
0.00104288 0.000397875 -0.0005 0.00112212 0.000352125 -0.0005 0.00120136 0.000306375 -0.0005 
0.0012806 0.000239375 -0.0005 0.001299 0.00013725 -0.0005 0.001299 4.575e-05 -0.0005 
0.001299 -4.575e-05 -0.0005 0.001299 -0.00013725 -0.0005 0.0012806 -0.000239375 -0.0005 
0.00120136 -0.000306375 -0.0005 0.00112212 -0.000352125 -0.0005 0.00104288 -0.000397875 -0.0005 
0.000963642 -0.000443625 -0.0005 0.000866 -0.00047875 -0.0005 0.000530642 -0.000306375 -0.0005 
0.000609881 -0.000352125 -0.0005 0.000689119 -0.000397875 -0.0005 0.000768358 -0.000443625 -0.0005 
0.000453526 -0.0002555 -0.0005 0.000448026 -0.000234974 -0.0005 0.000866 4.25e-05 -0.0005 
0.0008235 -3.53397e-19 -0.0005 0.000866 -4.25e-05 -0.0005 0.000433 -0.00027125 -0.0005 
0.000847597 -0.000510625 -0.0005 0.000866 -0.00061275 -0.0005 0.000866 -0.00070425 -0.0005 
0.000866 -0.00079575 -0.0005 0.000866 -0.00088725 -0.0005 0.000847597 -0.000989375 -0.0005 
0.000768358 -0.00105638 -0.0005 0.000689119 -0.00110213 -0.0005 0.000609881 -0.00114787 -0.0005 
0.000530642 -0.00119362 -0.0005 0.000433 -0.00122875 -0.0005 0.000335358 -0.00119362 -0.0005 
0.000256119 -0.00114787 -0.0005 0.000176881 -0.00110213 -0.0005 9.76417e-05 -0.00105638 -0.0005 
2.05259e-05 -0.0010055 -0.0005 1.5026e-05 -0.000984974 -0.0005 0 -0.00061275 -0.0005 
0 -0.00070425 -0.0005 0 -0.00079575 -0.0005 0 -0.00088725 -0.0005 
1.5026e-05 -0.000515026 -0.0005 2.05259e-05 -0.0004945 -0.0005 0.000433 -0.0007075 -0.0005 
0.0003905 -0.00075 -0.0005 0.000433 -0.0007925 -0.0005 -1.84031e-05 -0.000510625 -0.0005 
-1.84031e-05 -0.000989375 -0.0005 -9.76417e-05 -0.00105638 -0.0005 -0.000176881 -0.00110213 -0.0005 
-0.000256119 -0.00114787 -0.0005 -0.000335358 -0.00119362 -0.0005 -0.000433 -0.00122875 -0.0005 
-0.000530642 -0.00119362 -0.0005 -0.000609881 -0.00114787 -0.0005 -0.000689119 -0.00110213 -0.0005 
-0.000768358 -0.00105638 -0.0005 -0.000845474 -0.0010055 -0.0005 -0.000850974 -0.000984974 -0.0005 
-0.000866 -0.00088725 -0.0005 -0.000866 -0.00079575 -0.0005 -0.000866 -0.00070425 -0.0005 
-0.000866 -0.00061275 -0.0005 -0.000850974 -0.000515026 -0.0005 -0.000845474 -0.0004945 -0.0005 
-0.000530642 -0.000306375 -0.0005 -0.000609881 -0.000352125 -0.0005 -0.000689119 -0.000397875 -0.0005 
-0.000768358 -0.000443625 -0.0005 -0.000433 -0.00027125 -0.0005 -0.000433 -0.0007075 -0.0005 
-0.0004755 -0.00075 -0.0005 -0.000433 -0.0007925 -0.0005 -0.000451403 -0.000239375 -0.0005 
-0.000866 -0.00047875 -0.0005 -0.000963642 -0.000443625 -0.0005 -0.00104288 -0.000397875 -0.0005 
-0.00112212 -0.000352125 -0.0005 -0.00120136 -0.000306375 -0.0005 -0.00127847 -0.0002555 -0.0005 
-0.00128397 -0.000234974 -0.0005 -0.001299 -0.00013725 -0.0005 -0.001299 -4.575e-05 -0.0005 
-0.001299 4.575e-05 -0.0005 -0.001299 0.00013725 -0.0005 -0.00128397 0.000234974 -0.0005 
-0.00127847 0.0002555 -0.0005 -0.00120136 0.000306375 -0.0005 -0.00112212 0.000352125 -0.0005 
-0.00104288 0.000397875 -0.0005 -0.000963642 0.000443625 -0.0005 -0.000866 0.00047875 -0.0005 
-0.000530642 0.000306375 -0.0005 -0.000609881 0.000352125 -0.0005 -0.000689119 0.000397875 -0.0005 
-0.000768358 0.000443625 -0.0005 -0.000451403 0.000239375 -0.0005 -0.000866 4.25e-05 -0.0005 
-0.0009085 -3.53397e-19 -0.0005 -0.000866 -4.25e-05 -0.0005 -0.000433 0.00027125 -0.0005 
-0.000845474 0.0004945 -0.0005 -0.000850974 0.000515026 -0.0005 -0.000866 0.00061275 -0.0005 
-0.000866 0.00070425 -0.0005 -0.000866 0.00079575 -0.0005 -0.000866 0.00088725 -0.0005 
-0.000850974 0.000984974 -0.0005 -0.000845474 0.0010055 -0.0005 -0.000768358 0.00105638 -0.0005 
-0.000689119 0.00110213 -0.0005 -0.000609881 0.00114787 -0.0005 -0.000530642 0.00119362 -0.0005 
-0.000433 0.00122875 -0.0005 -0.000335358 0.00119362 -0.0005 -0.000256119 0.00114787 -0.0005 
-0.000176881 0.00110213 -0.0005 -9.76417e-05 0.00105638 -0.0005 -1.84031e-05 0.000989375 -0.0005 
-1.84031e-05 0.000510625 -0.0005 -0.000433 0.0007925 -0.0005 -0.0004755 0.00075 -0.0005 
-0.000433 0.0007075 -0.0005 0.000166833 -0.000159585 0 0.000165961 0.000165961 0 
-0.000162277 0.000168837 0 -0.000162539 -0.000168697 0 -0.000316174 -0.000207462 0 
-0.000316174 0.000207462 0 -1.7625e-06 0.00020878 0 -0.000200494 5.10348e-06 0 
0.000198022 -6.49099e-06 0 -3.82827e-06 -0.000208798 0 -0.0003642 0.000214286 0 
-0.0003642 -0.000214286 0 0.000301049 0.000166193 0 0.000312424 -0.000170987 0 
-7.30908e-06 -0.00035148 0 7.30908e-06 0.00035148 0 0.000109232 0.000285545 0 
-0.000107519 -0.000286192 0 -0.000304808 7.69979e-05 0 -0.000308572 -7.52569e-05 0 
0.000106639 -0.000294843 0 -0.00010493 0.000296588 0 8.50608e-05 -8.41794e-05 0 
8.82006e-05 9.78925e-05 0 -9.29688e-05 8.1944e-05 0 -9.5784e-05 -8.5049e-05 0 
-0.00037448 0.000247295 0 -0.00037448 -0.000247295 0 -0.000226807 0.000247375 0 
-0.00022696 -0.000246565 0 0.000318161 -5.24395e-05 0 0.00030573 6.09258e-05 0 
-0.000251653 -0.000142326 0 -0.000251653 0.000142326 0 3.07451e-05 -0.00041094 0 
-3.07451e-05 0.00041094 0 0.00022921 -0.000246251 0 0.000229478 0.000241816 0 
2.27436e-05 0.000133221 0 1.86722e-05 -0.000131409 0 -0.000131489 -2.16615e-05 0 
0.00013003 -1.62999e-05 0 -0.00037383 0.000149154 0 -0.00037383 -0.000149154 0 
0.000234918 -9.03863e-05 0 0.000328799 0.000234244 0 0.000330695 -0.000235043 0 
0.000223602 9.28059e-05 0 -8.24081e-05 0.000181543 0 -7.93229e-05 -0.000178683 0 
-0.000174487 7.88274e-05 0 9.06107e-05 -0.000168878 0 9.31592e-05 0.000169495 0 
-0.000165177 -7.38619e-05 0 -9.20929e-05 -0.000358769 0 9.20929e-05 0.000358769 0 
3.47644e-05 0.000422113 0 -3.47644e-05 -0.000422113 0 -0.00039524 0.000187946 0 
-0.00039524 -0.000187946 0 -0.00036071 1.92365e-06 0 0.000388959 -0.000188051 0 
0.000390003 0.000186364 0 6.43444e-05 -0.000355671 0 -6.37768e-05 0.000356891 0 
2.80563e-05 -0.000283426 0 -2.80563e-05 0.000283426 0 0.000158032 5.64575e-05 0 
4.0579e-05 0.000286843 0 -4.0579e-05 -0.000286843 0 0.000187449 0.000307262 0 
0.000159892 -7.91024e-05 0 -0.000184905 -0.00030951 0 0.000358611 0.000105752 0 
0.000363074 -0.00011688 0 -0.000325009 0.000251333 0 -0.000325009 -0.000251333 0 
-0.000240838 -7.12684e-05 0 -0.000314691 -0.000147697 0 -0.000314417 0.000147824 0 
-0.000404578 0.00024054 0 -0.000403308 0.000218831 0 -0.000404578 -0.00024054 0 
-0.000403308 -0.000218831 0 0.000191925 -0.0003084 0 -0.000260053 0.000200474 0 
-0.000260078 -0.000200417 0 -2.84262e-05 0.000450764 0 2.84262e-05 -0.000450764 0 
-0.000189066 0.000311072 0 -0.000240999 7.45278e-05 0 -0.000278935 4.78174e-06 0 
0.000354779 1.89656e-05 0 0.000162497 0.000232229 0 0.000376671 0.000245397 0 
0.000376841 -0.000245894 0 0.000157204 -0.000230896 0 0.000234792 0.000171119 0 
-0.000151291 -0.000232673 0 -2.32986e-05 8.92785e-05 0 -3.11926e-05 -8.95957e-05 0 
-9.03847e-05 2.2115e-05 0 9.12302e-05 3.30279e-05 0 -0.000152334 0.000235849 0 
0.000239556 -0.000175069 0 -0.000374753 9.03378e-05 0 -0.000376425 -8.91537e-05 0 
4.61669e-05 -4.59906e-05 0 6.62281e-05 0.000232832 0 3.85868e-05 8.10868e-05 0 
-7.69579e-05 -3.79434e-05 0 0.000127486 -0.000360083 0 7.07506e-05 -0.00023716 0 
0.000272535 3.89675e-06 0 -7.65081e-05 -0.000238638 0 0.00014561 0.000112396 0 
-0.000352537 0.000183264 0 -0.000352576 -0.000183245 0 -0.000270615 -0.000285639 0 
-0.000269954 0.000283517 0 -7.38981e-05 0.000241237 0 0.00028245 0.000113194 0 
-0.000128597 0.00035529 0 0.000277733 0.00021912 0 0.000279019 -0.000221334 0 
0.000293419 -0.000117053 0 -4.98304e-05 4.71675e-05 0 -3.82924e-05 0.000144636 0 
-3.82924e-05 -0.000144636 0 -0.000137965 3.32657e-05 0 -0.00012318 0.000133204 0 
-0.000120047 -0.000136339 0 -0.000206789 -0.00019438 0 0.000125599 -0.000122936 0 
-0.000206748 0.000194842 0 -0.000279599 0.000238032 0 -0.000279767 -0.000238283 0 
-0.000195529 0.000130609 0 -0.000197761 -0.000129013 0 2.37414e-05 -7.8735e-05 0 
7.89976e-05 -2.26884e-05 0 0.000279552 0.000278672 0 0.000279873 -0.000279044 0 
4.48012e-06 0.00044547 0 -4.48012e-06 -0.00044547 0 0.000598961 0.000584039 0 
0.000602744 0.00091226 0 0.000270474 0.000918651 0 0.000270149 0.000581615 0 
0.000116826 0.000957462 0 0.000116826 0.000542538 0 0.000429172 0.000958798 0 
0.000232505 0.000755103 0 0.000636012 0.000747201 0 0.000434763 0.00054122 0 
6.87997e-05 0.000964286 0 6.87997e-05 0.000535714 0 0.000745424 0.000920987 0 
0.000734049 0.000583807 0 0.000425691 0.00039852 0 0.000425691 0.00110148 0 
0.000325481 0.00103619 0 0.00032556 0.000464273 0 0.000128192 0.000826998 0 
0.000124428 0.000674743 0 0.000539639 0.00104484 0 0.000539618 0.000454793 0 
0.000520463 0.000653783 0 0.000521988 0.00084822 0 0.000340031 0.000831944 0 
0.00034624 0.000661734 0 5.85195e-05 0.000997295 0 5.85195e-05 0.000502705 0 
0.00020604 0.000996565 0 0.00020604 0.000503435 0 0.000751161 0.00080244 0 
0.00073873 0.000689074 0 0.000181347 0.000607674 0 0.000181347 0.000892326 0 
0.000463745 0.00033906 0 0.000463745 0.00116094 0 0.00066221 0.000996251 0 
0.000655871 0.000515061 0 0.000455531 0.000883279 0 0.0004137 0.000617913 0 
0.000302544 0.000731006 0 0.000569409 0.000742828 0 5.91695e-05 0.000899154 0 
5.91695e-05 0.000600846 0 0.000666622 0.000847886 0 0.000763695 0.000985043 0 
0.000761799 0.000515756 0 0.000662952 0.000664982 0 0.000353677 0.000928683 0 
0.000512323 0.000571317 0 0.000258513 0.000828827 0 0.000526529 0.000920143 0 
0.000348994 0.000575642 0 0.000269055 0.00067649 0 0.000340907 0.000391231 0 
0.000340907 0.00110877 0 0.000398236 0.00117211 0 0.000398236 0.000327887 0 
3.77595e-05 0.000937946 0 3.77595e-05 0.000562054 0 7.22902e-05 0.000751924 0 
0.000821959 0.000938051 0 0.000823003 0.000563636 0 0.000497344 0.00110567 0 
0.000497341 0.000394268 0 0.000595975 0.000808208 0 0.000461056 0.000466574 0 
0.000461056 0.00103343 0 0.000392421 0.00103684 0 0.000392458 0.000463164 0 
0.000248106 0.000440556 0 0.000248095 0.00105951 0 0.000791611 0.000644248 0 
0.000796074 0.00086688 0 0.000107991 0.00100133 0 0.000107991 0.000498667 0 
0.000192237 0.000678753 0 0.000118309 0.000602303 0 0.000118584 0.000897824 0 
2.84222e-05 0.00099054 0 2.96921e-05 0.000968831 0 2.84222e-05 0.00050946 0 
2.96921e-05 0.000531169 0 0.000584827 0.000674445 0 0.000624925 0.0010584 0 
0.000620086 0.000439056 0 0.000172934 0.000950423 0 0.000172922 0.000549583 0 
0.000461426 0.00120076 0 0.000461426 0.000299236 0 0.000192001 0.000824528 0 
0.000154074 0.000754784 0 0.000787779 0.000731034 0 0.000809841 0.000995894 0 
0.000809671 0.000504603 0 0.000589469 0.00097835 0 0.000571747 0.000512487 0 
0.000673596 0.000588147 0 0.000281249 0.000518091 0 0.00028171 0.000982668 0 
0.000409676 0.000839285 0 0.000465934 0.000658411 0 0.000524589 0.000782934 0 
0.000342119 0.000777068 0 0.000672682 0.000926159 0 5.82468e-05 0.000840338 0 
5.65752e-05 0.000660846 0 0.000386493 0.000703192 0 0.000361584 0.000514775 0 
0.000471587 0.000831087 0 0.000510532 0.000709986 0 0.000559513 0.000389323 0 
0.000560486 0.00111008 0 0.000503751 0.00098716 0 0.000707209 0.000747103 0 
0.000356492 0.000988637 0 8.04633e-05 0.000933264 0 8.04241e-05 0.000566755 0 
0.000162386 0.000464369 0 0.000162385 0.00103564 0 0.000578393 0.000862613 0 
0.000503901 0.000509278 0 0.000714127 0.000640342 0 0.000712044 0.000971552 0 
0.000710619 0.000533186 0 0.000726252 0.00086828 0 0.000383065 0.000798159 0 
0.000471292 0.000605364 0 0.000394708 0.000894636 0 0.000295143 0.00078479 0 
0.000311567 0.000884914 0 0.000544105 0.000613927 0 0.000226145 0.000555712 0 
0.000226234 0.0009443 0 0.000307419 0.000615421 0 0.000153235 0.000988284 0 
0.000153233 0.000511718 0 0.000237647 0.000880726 0 0.000238317 0.000620115 0 
0.000410377 0.000668704 0 0.000352297 0.000726325 0 0.000712874 0.00102905 0 
0.000708438 0.00047242 0 0.00042852 0.00030453 0 0.00042852 0.00119547 0 
0.00103283 -0.000159585 0 0.00103196 0.000165961 0 0.00070371 0.000168883 0 
0.000703474 -0.000168651 0 0.000549826 0.000207462 0 0.000549826 -0.000207462 0 
0.000864237 0.00020878 0 0.000665505 -1.75358e-06 0 0.00106402 -6.49099e-06 0 
0.000862172 -0.000208798 0 0.0005018 0.000214286 0 0.0005018 -0.000214286 0 
0.00117842 -0.000170987 0 0.00116705 0.000166193 0 0.000858691 -0.00035148 0 
0.000873309 0.00035148 0 0.000975232 0.000285545 0 0.000758481 -0.000286192 0 
0.000561503 7.6703e-05 0 0.000555269 -7.65899e-05 0 0.000972639 -0.000294843 0 
0.00076107 0.000296588 0 0.000951061 -8.41794e-05 0 0.000954201 9.78925e-05 0 
0.000770216 8.5049e-05 0 0.000773031 -8.1944e-05 0 0.00049152 0.000247295 0 
0.00049152 -0.000247295 0 0.000639193 0.000247375 0 0.00063904 -0.000246565 0 
0.00118416 -5.24395e-05 0 0.00117173 6.09258e-05 0 0.000614347 -0.000142326 0 
0.000614347 0.000142326 0 0.000896745 -0.00041094 0 0.000835255 0.00041094 0 
0.00109521 -0.000246251 0 0.00109548 0.000241816 0 0.000888744 0.000133221 0 
0.000884672 -0.000131409 0 0.000734511 2.22198e-05 0 0.00099603 -1.62999e-05 0 
0.00049217 0.000149154 0 0.00049217 -0.000149154 0 0.00110092 -9.03863e-05 0 
0.0011967 -0.000235043 0 0.0011948 0.000234244 0 0.0010896 9.28059e-05 0 
0.000783591 0.000181545 0 0.000786677 -0.000178683 0 0.000691513 -7.86239e-05 0 
0.000956611 -0.000168878 0 0.000959159 0.000169495 0 0.000700823 7.45132e-05 0 
0.000773907 -0.000358769 0 0.000958093 0.000358769 0 0.000900764 0.000422113 0 
0.000831236 -0.000422113 0 0.00047076 0.000187946 0 0.00047076 -0.000187946 0 
0.000506327 1.20793e-06 0 0.00125496 -0.000188051 0 0.001256 0.000186364 0 
0.000930344 -0.000355671 0 0.000802223 0.000356891 0 0.000894056 -0.000283426 0 
0.000837944 0.000283426 0 0.00102403 5.64575e-05 0 0.000906579 0.000286843 0 
0.000825421 -0.000286843 0 0.00105345 0.000307262 0 0.00102589 -7.91024e-05 0 
0.000681095 -0.00030951 0 0.00122461 0.000105752 0 0.00122907 -0.00011688 0 
0.000540991 0.000251333 0 0.000540991 -0.000251333 0 0.000624479 7.32103e-05 0 
0.000551152 -0.000147794 0 0.000551606 0.000147802 0 0.000461422 0.00024054 0 
0.000462692 0.000218831 0 0.000461422 -0.00024054 0 0.000462692 -0.000218831 0 
0.00105793 -0.0003084 0 0.000605948 0.000200473 0 0.000605915 -0.000200421 0 
0.000894426 -0.000450764 0 0.000837574 0.000450764 0 0.000676934 0.000311072 0 
0.000626182 -7.08972e-05 0 0.000584992 5.90258e-06 0 0.00122078 1.89656e-05 0 
0.0010285 0.000232229 0 0.00124284 -0.000245894 0 0.00124267 0.000245397 0 
0.0010232 -0.000230896 0 0.00110079 0.000171119 0 0.00071471 -0.000232668 0 
0.000834965 9.05283e-05 0 0.000842673 -8.85226e-05 0 0.00095723 3.30279e-05 0 
0.000775615 -2.20485e-05 0 0.000713665 0.000235853 0 0.00110556 -0.000175069 0 
0.000491363 9.025e-05 0 0.000488571 -8.87482e-05 0 0.000912167 -4.59906e-05 0 
0.000932228 0.000232832 0 0.000904587 8.10868e-05 0 0.000789049 3.8011e-05 0 
0.000993486 -0.000360083 0 0.000936751 -0.00023716 0 0.00113854 3.89675e-06 0 
0.000789492 -0.000238637 0 0.00101161 0.000112396 0 0.000513466 0.00018326 0 
0.000513402 -0.000183259 0 0.000596046 0.000283517 0 0.000595385 -0.000285639 0 
0.000792102 0.000241238 0 0.00114845 0.000113194 0 0.000737403 0.00035529 0 
0.00114502 -0.000221334 0 0.00114373 0.00021912 0 0.00115942 -0.000117053 0 
0.000816164 -4.7003e-05 0 0.000827708 0.000144636 0 0.000827708 -0.000144636 0 
0.000728035 -3.243e-05 0 0.00074578 0.000136564 0 0.000744567 -0.000134897 0 
0.000659232 -0.0001943 0 0.000991599 -0.000122936 0 0.00065923 0.000194923 0 
0.000586401 0.000238032 0 0.000586231 -0.000238284 0 0.000670788 -0.000130267 0 
0.000668203 0.000129229 0 0.000889614 -8.00602e-05 0 0.000944998 -2.26884e-05 0 
0.00114587 -0.000279044 0 0.00114555 0.000278672 0 0.00087048 0.00044547 0 
0.00086152 -0.00044547 0 0.000598961 -0.000915961 0 0.000603317 -0.000588209 0 
0.000270723 -0.000581163 0 0.000270149 -0.000918385 0 0.000116826 -0.000542538 0 
0.000116826 -0.000957462 0 0.000431238 -0.00054122 0 0.000232505 -0.000744897 0 
0.000636012 -0.000752799 0 0.000434763 -0.00095878 0 6.87997e-05 -0.000535714 0 
6.87997e-05 -0.000964286 0 0.000745424 -0.000579013 0 0.000734049 -0.000916193 0 
0.000425691 -0.00110148 0 0.000440309 -0.00039852 0 0.000542232 -0.000464455 0 
0.00032556 -0.00103573 0 0.000128192 -0.000673002 0 0.000124428 -0.000825257 0 
0.000539618 -0.00104521 0 0.00032807 -0.000453412 0 0.000520463 -0.000846217 0 
0.000521988 -0.00065178 0 0.000340031 -0.000668056 0 0.00034624 -0.000838266 0 
5.85195e-05 -0.000502705 0 5.85195e-05 -0.000997295 0 0.000206193 -0.000502625 0 
0.00020604 -0.000996565 0 0.000751161 -0.00069756 0 0.00073873 -0.000810926 0 
0.000181347 -0.000892326 0 0.000181347 -0.000607674 0 0.000463745 -0.00116094 0 
0.000402255 -0.00033906 0 0.000662471 -0.000504287 0 0.000655871 -0.000984939 0 
0.000455875 -0.000616724 0 0.0004137 -0.000882087 0 0.000302544 -0.000768994 0 
0.000569409 -0.000757172 0 5.91695e-05 -0.000600846 0 5.91695e-05 -0.000899154 0 
0.000666622 -0.000652114 0 0.000763695 -0.000514957 0 0.000761799 -0.000984244 0 
0.000662952 -0.000835018 0 0.000350592 -0.000568457 0 0.000512323 -0.000928683 0 
0.000258513 -0.000671173 0 0.000526882 -0.000581015 0 0.000348994 -0.000924358 0 
0.000269055 -0.00082351 0 0.000340907 -0.00110877 0 0.000525093 -0.000391231 0 
0.000398236 -0.00117211 0 0.000467764 -0.000327887 0 3.77595e-05 -0.000562054 0 
3.77595e-05 -0.000937946 0 7.22902e-05 -0.000748076 0 0.000821959 -0.000561949 0 
0.000823003 -0.000936364 0 0.000497341 -0.00110573 0 0.000369223 -0.000393109 0 
0.000595975 -0.000691792 0 0.000461056 -0.00103343 0 0.000404944 -0.000466574 0 
0.000473579 -0.000463157 0 0.000392458 -0.00103684 0 0.000620449 -0.000442181 0 
0.000248106 -0.00105944 0 0.000791611 -0.000855752 0 0.000796074 -0.00063312 0 
0.000107991 -0.000498667 0 0.000107991 -0.00100133 0 0.000192237 -0.000821247 0 
0.000118309 -0.000897697 0 0.000118584 -0.000602176 0 2.84222e-05 -0.00050946 0 
2.96921e-05 -0.000531169 0 2.84222e-05 -0.00099054 0 2.96921e-05 -0.000968831 0 
0.000584827 -0.000825555 0 0.000620086 -0.00106094 0 0.000172947 -0.000549526 0 
0.000172922 -0.000950417 0 0.000461426 -0.00120076 0 0.000404574 -0.000299236 0 
0.000243934 -0.000438928 0 0.000192001 -0.000675472 0 0.000154074 -0.000745216 0 
0.000787779 -0.000768966 0 0.000588723 -0.000523989 0 0.000809841 -0.000504106 0 
0.000809671 -0.000995397 0 0.000571747 -0.000987513 0 0.000673596 -0.000911853 0 
0.000281249 -0.000981909 0 0.000409717 -0.000660715 0 0.000465934 -0.000841589 0 
0.000524589 -0.000717066 0 0.000342119 -0.000722933 0 0.000280666 -0.000514151 0 
0.000672694 -0.000574319 0 5.82468e-05 -0.000659662 0 5.65752e-05 -0.000839154 0 
0.000386493 -0.000796808 0 0.000361584 -0.000985225 0 0.000499228 -0.000517168 0 
0.000471587 -0.000668913 0 0.000510532 -0.000790014 0 0.000559513 -0.00111068 0 
0.000707209 -0.000752897 0 8.04633e-05 -0.000566736 0 8.04241e-05 -0.000933245 0 
0.000163046 -0.000466483 0 0.000162386 -0.00103563 0 0.000578393 -0.000637387 0 
0.000503901 -0.000990722 0 0.000359102 -0.000508763 0 0.000714127 -0.000859658 0 
0.000304403 -0.00039471 0 0.000712099 -0.000528651 0 0.000710619 -0.000966814 0 
0.000726254 -0.000631789 0 0.000383073 -0.000701841 0 0.000471292 -0.000894636 0 
0.000394708 -0.000605364 0 0.000295143 -0.00071521 0 0.000544105 -0.000886073 0 
0.00030982 -0.000616796 0 0.000226145 -0.000944288 0 0.000307419 -0.000884579 0 
0.000226252 -0.000555158 0 0.000153401 -0.000511968 0 0.000153233 -0.000988282 0 
0.000237471 -0.000619391 0 0.000238317 -0.000879885 0 0.000410377 -0.000831296 0 
0.000352297 -0.000773675 0 0.00071621 -0.000470678 0 0.000708438 -0.00102758 0 
0.00043748 -0.00030453 0 0.00042852 -0.00119547 0 -0.000266167 -0.000909585 0 
-0.00026339 -0.000582669 0 -0.000595526 -0.000581349 0 -0.000595539 -0.000918697 0 
-0.000749174 -0.000957462 0 -0.000749174 -0.000542538 0 -0.000436828 -0.000541202 0 
-0.000633495 -0.000748246 0 -0.000234978 -0.000756491 0 -0.000436828 -0.000958798 0 
-0.0007972 -0.000964286 0 -0.0007972 -0.000535714 0 -0.000131951 -0.000583807 0 
-0.000120576 -0.000920987 0 -0.000440309 -0.00110148 0 -0.000440309 -0.00039852 0 
-0.000540519 -0.000463808 0 -0.000540519 -0.00103619 0 -0.000737497 -0.000826703 0 
-0.000743731 -0.00067341 0 -0.000326361 -0.000455157 0 -0.000326361 -0.00104484 0 
-0.000347939 -0.000834179 0 -0.000344799 -0.000652107 0 -0.000525969 -0.000668056 0 
-0.000528784 -0.000835049 0 -0.00080748 -0.000997295 0 -0.00080748 -0.000502705 0 
-0.00065996 -0.000996565 0 -0.00065996 -0.000503435 0 -0.000114839 -0.00080244 0 
-0.00012727 -0.000689074 0 -0.000684653 -0.000892326 0 -0.000684653 -0.000607674 0 
-0.000402255 -0.00033906 0 -0.000402255 -0.00116094 0 -0.00020379 -0.000996251 0 
-0.000209694 -0.000514898 0 -0.000410601 -0.000616776 0 -0.000414328 -0.000881409 0 
-0.000564489 -0.00077222 0 -0.00030297 -0.0007663 0 -0.000806831 -0.000899154 0 
-0.000806831 -0.000600846 0 -0.000198082 -0.000840386 0 -0.000104201 -0.000515756 0 
-0.000102305 -0.000985043 0 -0.000210482 -0.000662469 0 -0.000512323 -0.000571317 0 
-0.000512323 -0.000928683 0 -0.000607487 -0.000671376 0 -0.000342389 -0.000918878 0 
-0.000339591 -0.000579218 0 -0.000598177 -0.000824513 0 -0.000525093 -0.00110877 0 
-0.000525093 -0.000391231 0 -0.000467764 -0.00117211 0 -0.000467764 -0.000327887 0 
-0.00082824 -0.000937946 0 -0.00082824 -0.000562054 0 -0.000792673 -0.000751208 0 
-4.40406e-05 -0.000938051 0 -4.29968e-05 -0.000563636 0 -0.000368656 -0.000394329 0 
-0.000368656 -0.00110567 0 -0.000404944 -0.000466574 0 -0.000404944 -0.00103343 0 
-0.000274968 -0.000693542 0 -0.000473579 -0.000463157 0 -0.000473579 -0.00103684 0 
-0.000273108 -0.000829102 0 -0.000617905 -0.00105951 0 -0.000617905 -0.00044049 0 
-7.4389e-05 -0.000644248 0 -6.99258e-05 -0.00086688 0 -0.000758009 -0.00100133 0 
-0.000758009 -0.000498667 0 -0.000674521 -0.00082321 0 -0.000747394 -0.000897802 0 
-0.000747848 -0.000602206 0 -0.000837578 -0.00099054 0 -0.000836308 -0.000968831 0 
-0.000837578 -0.00050946 0 -0.000836308 -0.000531169 0 -0.00024589 -0.000439066 0 
-0.000241075 -0.0010584 0 -0.000693065 -0.000950422 0 -0.000693085 -0.000549579 0 
-0.000404574 -0.00120076 0 -0.000404574 -0.000299236 0 -0.000672818 -0.000679103 0 
-0.000714008 -0.000755903 0 -7.82213e-05 -0.000731034 0 -5.6329e-05 -0.000504603 0 
-5.61586e-05 -0.000995894 0 -0.000275796 -0.000980896 0 -0.000285676 -0.000513219 0 
-0.000186165 -0.000585602 0 -0.000584291 -0.000982673 0 -0.00058429 -0.000517332 0 
-0.00045634 -0.000660721 0 -0.000464193 -0.000839596 0 -0.00034177 -0.000716972 0 
-0.000523385 -0.000727952 0 -0.000193444 -0.000925069 0 -0.000807637 -0.00084025 0 
-0.000810429 -0.000661252 0 -0.000386833 -0.000795991 0 -0.000394413 -0.000668913 0 
-0.000509958 -0.000787971 0 -0.000305514 -0.00111008 0 -0.000306477 -0.00038941 0 
-0.000362249 -0.00098716 0 -0.00035868 -0.000511074 0 -0.000160645 -0.000746982 0 
-0.000509508 -0.000511363 0 -0.000509508 -0.000988638 0 -0.00028739 -0.000637604 0 
-0.000785534 -0.00093326 0 -0.000785598 -0.000566741 0 -0.000703615 -0.00103564 0 
-0.000703615 -0.000464361 0 -0.000148903 -0.000636616 0 -0.00015636 -0.000534148 0 
-0.000153981 -0.000971334 0 -0.000139581 -0.000867053 0 -0.000482839 -0.000702846 0 
-0.000471292 -0.000605364 0 -0.000471292 -0.000894636 0 -0.000570965 -0.00071757 0 
-0.000554433 -0.000615103 0 -0.000553903 -0.000884892 0 -0.000639788 -0.00094438 0 
-0.000639768 -0.0005557 0 -0.000307401 -0.000872936 0 -0.000712765 -0.000988284 0 
-0.000712769 -0.000511716 0 -0.000628213 -0.000619733 0 -0.000630855 -0.000879083 0 
-0.000409259 -0.000828735 0 -0.000354002 -0.000772688 0 -0.000155373 -0.000471972 0 
-0.000153127 -0.00102904 0 -0.00043748 -0.00030453 0 -0.00043748 -0.00119547 0 
-0.000699167 -0.000159585 0 -0.00102828 0.000168837 0 -0.000700039 0.000165961 0 
-0.00102854 -0.000168697 0 -0.00118217 0.000207462 0 -0.00118217 -0.000207462 0 
-0.000867762 0.00020878 0 -0.00106649 5.10348e-06 0 -0.000667978 -6.49099e-06 0 
-0.000869828 -0.000208798 0 -0.0012302 0.000214286 0 -0.0012302 -0.000214286 0 
-0.000564951 0.000166193 0 -0.000553576 -0.000170987 0 -0.000873309 -0.00035148 0 
-0.000858691 0.00035148 0 -0.000756768 0.000285545 0 -0.000973519 -0.000286192 0 
-0.00117081 7.69979e-05 0 -0.00117457 -7.52569e-05 0 -0.000759361 -0.000294843 0 
-0.00097093 0.000296588 0 -0.000780939 -8.41794e-05 0 -0.000958969 8.1944e-05 0 
-0.000777799 9.78925e-05 0 -0.000961784 -8.5049e-05 0 -0.00124048 0.000247295 0 
-0.00124048 -0.000247295 0 -0.00109281 0.000247375 0 -0.00109296 -0.000246565 0 
-0.000547839 -5.24395e-05 0 -0.00056027 6.09258e-05 0 -0.00111765 0.000142326 0 
-0.00111765 -0.000142326 0 -0.000835255 -0.00041094 0 -0.000896745 0.00041094 0 
-0.00063679 -0.000246251 0 -0.000636522 0.000241816 0 -0.000843256 0.000133221 0 
-0.000847328 -0.000131409 0 -0.000997489 -2.16615e-05 0 -0.00073597 -1.62999e-05 0 
-0.00123983 0.000149154 0 -0.00123983 -0.000149154 0 -0.000631082 -9.03863e-05 0 
-0.000535305 -0.000235043 0 -0.000537201 0.000234244 0 -0.000642398 9.28059e-05 0 
-0.000948408 0.000181543 0 -0.000945323 -0.000178683 0 -0.00104049 7.88274e-05 0 
-0.000775389 -0.000168878 0 -0.000772841 0.000169495 0 -0.00103118 -7.38619e-05 0 
-0.000958093 -0.000358769 0 -0.000773907 0.000358769 0 -0.000900764 -0.000422113 0 
-0.000831236 0.000422113 0 -0.00126124 0.000187946 0 -0.00126124 -0.000187946 0 
-0.00122671 1.92365e-06 0 -0.000477041 -0.000188051 0 -0.000475997 0.000186364 0 
-0.000801656 -0.000355671 0 -0.000929777 0.000356891 0 -0.000837944 -0.000283426 0 
-0.000894056 0.000283426 0 -0.000707968 5.64575e-05 0 -0.000825421 0.000286843 0 
-0.000906579 -0.000286843 0 -0.000678551 0.000307262 0 -0.000706108 -7.91024e-05 0 
-0.0010509 -0.00030951 0 -0.000507389 0.000105752 0 -0.000502926 -0.00011688 0 
-0.00119101 0.000251333 0 -0.00119101 -0.000251333 0 -0.00110684 -7.12684e-05 0 
-0.00118042 0.000147824 0 -0.00118069 -0.000147697 0 -0.00127058 0.00024054 0 
-0.00126931 0.000218831 0 -0.00127058 -0.00024054 0 -0.00126931 -0.000218831 0 
-0.000674075 -0.0003084 0 -0.00112605 0.000200474 0 -0.00112608 -0.000200417 0 
-0.000837574 -0.000450764 0 -0.000894426 0.000450764 0 -0.00105507 0.000311072 0 
-0.001107 7.45278e-05 0 -0.00114494 4.78174e-06 0 -0.000511221 1.89656e-05 0 
-0.000703503 0.000232229 0 -0.000489329 0.000245397 0 -0.000489159 -0.000245894 0 
-0.000708796 -0.000230896 0 -0.000631208 0.000171119 0 -0.00101729 -0.000232673 0 
-0.000889299 8.92785e-05 0 -0.000897193 -8.95957e-05 0 -0.00077477 3.30279e-05 0 
-0.000956385 2.2115e-05 0 -0.00101833 0.000235849 0 -0.000626444 -0.000175069 0 
-0.00124075 9.03378e-05 0 -0.00124242 -8.91537e-05 0 -0.000819833 -4.59906e-05 0 
-0.000799772 0.000232832 0 -0.000827413 8.10868e-05 0 -0.000942958 -3.79434e-05 0 
-0.000738514 -0.000360083 0 -0.000795249 -0.00023716 0 -0.000593465 3.89675e-06 0 
-0.000942508 -0.000238638 0 -0.00072039 0.000112396 0 -0.00121854 0.000183264 0 
-0.00121858 -0.000183245 0 -0.00113595 0.000283517 0 -0.00113662 -0.000285639 0 
-0.000939898 0.000241237 0 -0.00058355 0.000113194 0 -0.000994597 0.00035529 0 
-0.000586981 -0.000221334 0 -0.000588267 0.00021912 0 -0.000572581 -0.000117053 0 
-0.00091583 4.71675e-05 0 -0.000904292 -0.000144636 0 -0.000904292 0.000144636 0 
-0.00100396 3.32657e-05 0 -0.00098918 0.000133204 0 -0.000986047 -0.000136339 0 
-0.00107279 -0.00019438 0 -0.000740401 -0.000122936 0 -0.00107275 0.000194842 0 
-0.0011456 0.000238032 0 -0.00114577 -0.000238283 0 -0.00106153 0.000130609 0 
-0.00106376 -0.000129013 0 -0.000842259 -7.8735e-05 0 -0.000787002 -2.26884e-05 0 
-0.000586448 0.000278672 0 -0.000586127 -0.000279044 0 -0.00087048 -0.00044547 0 
-0.00086152 0.00044547 0 -0.000266167 0.000590415 0 -0.000267039 0.000915961 0 
-0.000595277 0.000918837 0 -0.000595539 0.000581303 0 -0.000749174 0.000542538 0 
-0.000749174 0.000957462 0 -0.000434763 0.00095878 0 -0.000633495 0.000751754 0 
-0.000234978 0.000743509 0 -0.000436828 0.000541202 0 -0.0007972 0.000535714 0 
-0.0007972 0.000964286 0 -0.000131951 0.000916193 0 -0.000120576 0.000579013 0 
-0.000440309 0.00039852 0 -0.000425691 0.00110148 0 -0.000323768 0.00103554 0 
-0.000540519 0.000463808 0 -0.000737497 0.000673297 0 -0.000743731 0.00082659 0 
-0.000326361 0.000455157 0 -0.00053793 0.00104659 0 -0.000347939 0.000665821 0 
-0.000344799 0.000847893 0 -0.000525969 0.000831944 0 -0.000528784 0.000664951 0 
-0.00080748 0.000502705 0 -0.00080748 0.000997295 0 -0.00065996 0.000503435 0 
-0.000659807 0.000997375 0 -0.000114839 0.00069756 0 -0.00012727 0.000810926 0 
-0.000684653 0.000607674 0 -0.000684653 0.000892326 0 -0.000402255 0.00033906 0 
-0.000463745 0.00116094 0 -0.00020379 0.000503749 0 -0.000203522 0.000991815 0 
-0.000410256 0.000883221 0 -0.000414328 0.000618591 0 -0.000564489 0.00072778 0 
-0.00030297 0.0007337 0 -0.000806831 0.000600846 0 -0.000806831 0.000899154 0 
-0.000198082 0.000659614 0 -0.000104201 0.000984244 0 -0.000102305 0.000514957 0 
-0.000209398 0.000842806 0 -0.000515408 0.000931543 0 -0.000512323 0.000571317 0 
-0.000607487 0.000828624 0 -0.000342389 0.000581122 0 -0.000339841 0.000919495 0 
-0.000598177 0.000675487 0 -0.000525093 0.000391231 0 -0.000340907 0.00110877 0 
-0.000398236 0.00117211 0 -0.000467764 0.000327887 0 -0.00082824 0.000562054 0 
-0.00082824 0.000937946 0 -0.000792673 0.000748792 0 -4.40406e-05 0.000561949 0 
-4.29968e-05 0.000936364 0 -0.000368656 0.000394329 0 -0.000496777 0.00110689 0 
-0.000404944 0.000466574 0 -0.000461056 0.00103343 0 -0.000274968 0.000806458 0 
-0.000392421 0.00103684 0 -0.000473579 0.000463157 0 -0.000245551 0.00105726 0 
-0.000273108 0.000670898 0 -0.000617905 0.00044049 0 -7.4389e-05 0.000855752 0 
-6.99258e-05 0.00063312 0 -0.000758009 0.000498667 0 -0.000758009 0.00100133 0 
-0.000674521 0.00067679 0 -0.000747394 0.000602198 0 -0.000747848 0.000897794 0 
-0.000837578 0.00050946 0 -0.000836308 0.000531169 0 -0.000837578 0.00099054 0 
-0.000836308 0.000968831 0 -0.000241075 0.0004416 0 -0.000693065 0.000549578 0 
-0.000693072 0.000950473 0 -0.000404574 0.000299236 0 -0.000461426 0.00120076 0 
-0.000622066 0.00106107 0 -0.000672818 0.000820897 0 -0.000714008 0.000744097 0 
-7.82213e-05 0.000768966 0 -0.000270503 0.000982229 0 -5.6329e-05 0.000995397 0 
-5.61586e-05 0.000504106 0 -0.000275796 0.000519104 0 -0.000198208 0.000921119 0 
-0.000584291 0.000517327 0 -0.000456299 0.000839279 0 -0.000464193 0.000660404 0 
-0.00034177 0.000783028 0 -0.000523385 0.000772048 0 -0.000585334 0.000985849 0 
-0.000193444 0.000574931 0 -0.000807637 0.00065975 0 -0.000810429 0.000838748 0 
-0.000386833 0.000704009 0 -0.000366772 0.000982832 0 -0.000394413 0.000831087 0 
-0.000509958 0.000712029 0 -0.000305514 0.000389917 0 -0.000362249 0.00051284 0 
-0.000160465 0.000753897 0 -0.000509508 0.000511362 0 -0.00028739 0.000862396 0 
-0.000785534 0.00056674 0 -0.000785598 0.000933259 0 -0.000703615 0.000464361 0 
-0.000702954 0.00103352 0 -0.000506898 0.000991237 0 -0.00015055 0.000863194 0 
-0.000561597 0.00110529 0 -0.000153981 0.000528666 0 -0.000155267 0.00096912 0 
-0.000139581 0.000632947 0 -0.00048283 0.000797154 0 -0.000471292 0.000894636 0 
-0.000471292 0.000605364 0 -0.000570965 0.00078243 0 -0.00055618 0.00088318 0 
-0.000553903 0.000615108 0 -0.000639788 0.00055562 0 -0.000307401 0.000627064 0 
-0.00063975 0.000944842 0 -0.000712765 0.000511716 0 -0.000712603 0.000988032 0 
-0.000628389 0.00088015 0 -0.000630855 0.000620917 0 -0.000409259 0.000671265 0 
-0.000354002 0.000727312 0 -0.000153448 0.00102867 0 -0.000153127 0.000470956 0 
-0.00042852 0.00119547 0 -0.00043748 0.00030453 0 0.000166833 -0.000159585 -0.0005 
0.000165961 0.000165961 -0.0005 -0.000162277 0.000168837 -0.0005 -0.000162539 -0.000168697 -0.0005 
-0.000316174 -0.000207462 -0.0005 -0.000316174 0.000207462 -0.0005 -1.7625e-06 0.00020878 -0.0005 
-0.000200494 5.10348e-06 -0.0005 0.000198022 -6.49099e-06 -0.0005 -3.82827e-06 -0.000208798 -0.0005 
-0.0003642 0.000214286 -0.0005 -0.0003642 -0.000214286 -0.0005 0.000301049 0.000166193 -0.0005 
0.000312424 -0.000170987 -0.0005 -7.30908e-06 -0.00035148 -0.0005 7.30908e-06 0.00035148 -0.0005 
0.000109232 0.000285545 -0.0005 -0.000107519 -0.000286192 -0.0005 -0.000304808 7.69979e-05 -0.0005 
-0.000308572 -7.52569e-05 -0.0005 0.000106639 -0.000294843 -0.0005 -0.00010493 0.000296588 -0.0005 
8.50608e-05 -8.41794e-05 -0.0005 8.82006e-05 9.78925e-05 -0.0005 -9.29688e-05 8.1944e-05 -0.0005 
-9.5784e-05 -8.5049e-05 -0.0005 -0.00037448 0.000247295 -0.0005 -0.00037448 -0.000247295 -0.0005 
-0.000226807 0.000247375 -0.0005 -0.00022696 -0.000246565 -0.0005 0.000318161 -5.24395e-05 -0.0005 
0.00030573 6.09258e-05 -0.0005 -0.000251653 -0.000142326 -0.0005 -0.000251653 0.000142326 -0.0005 
3.07451e-05 -0.00041094 -0.0005 -3.07451e-05 0.00041094 -0.0005 0.00022921 -0.000246251 -0.0005 
0.000229478 0.000241816 -0.0005 2.27436e-05 0.000133221 -0.0005 1.86722e-05 -0.000131409 -0.0005 
-0.000131489 -2.16615e-05 -0.0005 0.00013003 -1.62999e-05 -0.0005 -0.00037383 0.000149154 -0.0005 
-0.00037383 -0.000149154 -0.0005 0.000234918 -9.03863e-05 -0.0005 0.000328799 0.000234244 -0.0005 
0.000330695 -0.000235043 -0.0005 0.000223602 9.28059e-05 -0.0005 -8.24081e-05 0.000181543 -0.0005 
-7.93229e-05 -0.000178683 -0.0005 -0.000174487 7.88274e-05 -0.0005 9.06107e-05 -0.000168878 -0.0005 
9.31592e-05 0.000169495 -0.0005 -0.000165177 -7.38619e-05 -0.0005 -9.20929e-05 -0.000358769 -0.0005 
9.20929e-05 0.000358769 -0.0005 3.47644e-05 0.000422113 -0.0005 -3.47644e-05 -0.000422113 -0.0005 
-0.00039524 0.000187946 -0.0005 -0.00039524 -0.000187946 -0.0005 -0.00036071 1.92365e-06 -0.0005 
0.000388959 -0.000188051 -0.0005 0.000390003 0.000186364 -0.0005 6.43444e-05 -0.000355671 -0.0005 
-6.37768e-05 0.000356891 -0.0005 2.80563e-05 -0.000283426 -0.0005 -2.80563e-05 0.000283426 -0.0005 
0.000158032 5.64575e-05 -0.0005 4.0579e-05 0.000286843 -0.0005 -4.0579e-05 -0.000286843 -0.0005 
0.000187449 0.000307262 -0.0005 0.000159892 -7.91024e-05 -0.0005 -0.000184905 -0.00030951 -0.0005 
0.000358611 0.000105752 -0.0005 0.000363074 -0.00011688 -0.0005 -0.000325009 0.000251333 -0.0005 
-0.000325009 -0.000251333 -0.0005 -0.000240838 -7.12684e-05 -0.0005 -0.000314691 -0.000147697 -0.0005 
-0.000314417 0.000147824 -0.0005 -0.000404578 0.00024054 -0.0005 -0.000403308 0.000218831 -0.0005 
-0.000404578 -0.00024054 -0.0005 -0.000403308 -0.000218831 -0.0005 0.000191925 -0.0003084 -0.0005 
-0.000260053 0.000200474 -0.0005 -0.000260078 -0.000200417 -0.0005 -2.84262e-05 0.000450764 -0.0005 
2.84262e-05 -0.000450764 -0.0005 -0.000189066 0.000311072 -0.0005 -0.000240999 7.45278e-05 -0.0005 
-0.000278935 4.78174e-06 -0.0005 0.000354779 1.89656e-05 -0.0005 0.000162497 0.000232229 -0.0005 
0.000376671 0.000245397 -0.0005 0.000376841 -0.000245894 -0.0005 0.000157204 -0.000230896 -0.0005 
0.000234792 0.000171119 -0.0005 -0.000151291 -0.000232673 -0.0005 -2.32986e-05 8.92785e-05 -0.0005 
-3.11926e-05 -8.95957e-05 -0.0005 -9.03847e-05 2.2115e-05 -0.0005 9.12302e-05 3.30279e-05 -0.0005 
-0.000152334 0.000235849 -0.0005 0.000239556 -0.000175069 -0.0005 -0.000374753 9.03378e-05 -0.0005 
-0.000376425 -8.91537e-05 -0.0005 4.61669e-05 -4.59906e-05 -0.0005 6.62281e-05 0.000232832 -0.0005 
3.85868e-05 8.10868e-05 -0.0005 -7.69579e-05 -3.79434e-05 -0.0005 0.000127486 -0.000360083 -0.0005 
7.07506e-05 -0.00023716 -0.0005 0.000272535 3.89675e-06 -0.0005 -7.65081e-05 -0.000238638 -0.0005 
0.00014561 0.000112396 -0.0005 -0.000352537 0.000183264 -0.0005 -0.000352576 -0.000183245 -0.0005 
-0.000270615 -0.000285639 -0.0005 -0.000269954 0.000283517 -0.0005 -7.38981e-05 0.000241237 -0.0005 
0.00028245 0.000113194 -0.0005 -0.000128597 0.00035529 -0.0005 0.000277733 0.00021912 -0.0005 
0.000279019 -0.000221334 -0.0005 0.000293419 -0.000117053 -0.0005 -4.98304e-05 4.71675e-05 -0.0005 
-3.82924e-05 0.000144636 -0.0005 -3.82924e-05 -0.000144636 -0.0005 -0.000137965 3.32657e-05 -0.0005 
-0.00012318 0.000133204 -0.0005 -0.000120047 -0.000136339 -0.0005 -0.000206789 -0.00019438 -0.0005 
0.000125599 -0.000122936 -0.0005 -0.000206748 0.000194842 -0.0005 -0.000279599 0.000238032 -0.0005 
-0.000279767 -0.000238283 -0.0005 -0.000195529 0.000130609 -0.0005 -0.000197761 -0.000129013 -0.0005 
2.37414e-05 -7.8735e-05 -0.0005 7.89976e-05 -2.26884e-05 -0.0005 0.000279552 0.000278672 -0.0005 
0.000279873 -0.000279044 -0.0005 4.48012e-06 0.00044547 -0.0005 -4.48012e-06 -0.00044547 -0.0005 
0.000598961 0.000584039 -0.0005 0.000602744 0.00091226 -0.0005 0.000270474 0.000918651 -0.0005 
0.000270149 0.000581615 -0.0005 0.000116826 0.000957462 -0.0005 0.000116826 0.000542538 -0.0005 
0.000429172 0.000958798 -0.0005 0.000232505 0.000755103 -0.0005 0.000636012 0.000747201 -0.0005 
0.000434763 0.00054122 -0.0005 6.87997e-05 0.000964286 -0.0005 6.87997e-05 0.000535714 -0.0005 
0.000745424 0.000920987 -0.0005 0.000734049 0.000583807 -0.0005 0.000425691 0.00039852 -0.0005 
0.000425691 0.00110148 -0.0005 0.000325481 0.00103619 -0.0005 0.00032556 0.000464273 -0.0005 
0.000128192 0.000826998 -0.0005 0.000124428 0.000674743 -0.0005 0.000539639 0.00104484 -0.0005 
0.000539618 0.000454793 -0.0005 0.000520463 0.000653783 -0.0005 0.000521988 0.00084822 -0.0005 
0.000340031 0.000831944 -0.0005 0.00034624 0.000661734 -0.0005 5.85195e-05 0.000997295 -0.0005 
5.85195e-05 0.000502705 -0.0005 0.00020604 0.000996565 -0.0005 0.00020604 0.000503435 -0.0005 
0.000751161 0.00080244 -0.0005 0.00073873 0.000689074 -0.0005 0.000181347 0.000607674 -0.0005 
0.000181347 0.000892326 -0.0005 0.000463745 0.00033906 -0.0005 0.000463745 0.00116094 -0.0005 
0.00066221 0.000996251 -0.0005 0.000655871 0.000515061 -0.0005 0.000455531 0.000883279 -0.0005 
0.0004137 0.000617913 -0.0005 0.000302544 0.000731006 -0.0005 0.000569409 0.000742828 -0.0005 
5.91695e-05 0.000899154 -0.0005 5.91695e-05 0.000600846 -0.0005 0.000666622 0.000847886 -0.0005 
0.000763695 0.000985043 -0.0005 0.000761799 0.000515756 -0.0005 0.000662952 0.000664982 -0.0005 
0.000353677 0.000928683 -0.0005 0.000512323 0.000571317 -0.0005 0.000258513 0.000828827 -0.0005 
0.000526529 0.000920143 -0.0005 0.000348994 0.000575642 -0.0005 0.000269055 0.00067649 -0.0005 
0.000340907 0.000391231 -0.0005 0.000340907 0.00110877 -0.0005 0.000398236 0.00117211 -0.0005 
0.000398236 0.000327887 -0.0005 3.77595e-05 0.000937946 -0.0005 3.77595e-05 0.000562054 -0.0005 
7.22902e-05 0.000751924 -0.0005 0.000821959 0.000938051 -0.0005 0.000823003 0.000563636 -0.0005 
0.000497344 0.00110567 -0.0005 0.000497341 0.000394268 -0.0005 0.000595975 0.000808208 -0.0005 
0.000461056 0.000466574 -0.0005 0.000461056 0.00103343 -0.0005 0.000392421 0.00103684 -0.0005 
0.000392458 0.000463164 -0.0005 0.000248106 0.000440556 -0.0005 0.000248095 0.00105951 -0.0005 
0.000791611 0.000644248 -0.0005 0.000796074 0.00086688 -0.0005 0.000107991 0.00100133 -0.0005 
0.000107991 0.000498667 -0.0005 0.000192237 0.000678753 -0.0005 0.000118309 0.000602303 -0.0005 
0.000118584 0.000897824 -0.0005 2.84222e-05 0.00099054 -0.0005 2.96921e-05 0.000968831 -0.0005 
2.84222e-05 0.00050946 -0.0005 2.96921e-05 0.000531169 -0.0005 0.000584827 0.000674445 -0.0005 
0.000624925 0.0010584 -0.0005 0.000620086 0.000439056 -0.0005 0.000172934 0.000950423 -0.0005 
0.000172922 0.000549583 -0.0005 0.000461426 0.00120076 -0.0005 0.000461426 0.000299236 -0.0005 
0.000192001 0.000824528 -0.0005 0.000154074 0.000754784 -0.0005 0.000787779 0.000731034 -0.0005 
0.000809841 0.000995894 -0.0005 0.000809671 0.000504603 -0.0005 0.000589469 0.00097835 -0.0005 
0.000571747 0.000512487 -0.0005 0.000673596 0.000588147 -0.0005 0.000281249 0.000518091 -0.0005 
0.00028171 0.000982668 -0.0005 0.000409676 0.000839285 -0.0005 0.000465934 0.000658411 -0.0005 
0.000524589 0.000782934 -0.0005 0.000342119 0.000777068 -0.0005 0.000672682 0.000926159 -0.0005 
5.82468e-05 0.000840338 -0.0005 5.65752e-05 0.000660846 -0.0005 0.000386493 0.000703192 -0.0005 
0.000361584 0.000514775 -0.0005 0.000471587 0.000831087 -0.0005 0.000510532 0.000709986 -0.0005 
0.000559513 0.000389323 -0.0005 0.000560486 0.00111008 -0.0005 0.000503751 0.00098716 -0.0005 
0.000707209 0.000747103 -0.0005 0.000356492 0.000988637 -0.0005 8.04633e-05 0.000933264 -0.0005 
8.04241e-05 0.000566755 -0.0005 0.000162386 0.000464369 -0.0005 0.000162385 0.00103564 -0.0005 
0.000578393 0.000862613 -0.0005 0.000503901 0.000509278 -0.0005 0.000714127 0.000640342 -0.0005 
0.000712044 0.000971552 -0.0005 0.000710619 0.000533186 -0.0005 0.000726252 0.00086828 -0.0005 
0.000383065 0.000798159 -0.0005 0.000471292 0.000605364 -0.0005 0.000394708 0.000894636 -0.0005 
0.000295143 0.00078479 -0.0005 0.000311567 0.000884914 -0.0005 0.000544105 0.000613927 -0.0005 
0.000226145 0.000555712 -0.0005 0.000226234 0.0009443 -0.0005 0.000307419 0.000615421 -0.0005 
0.000153235 0.000988284 -0.0005 0.000153233 0.000511718 -0.0005 0.000237647 0.000880726 -0.0005 
0.000238317 0.000620115 -0.0005 0.000410377 0.000668704 -0.0005 0.000352297 0.000726325 -0.0005 
0.000712874 0.00102905 -0.0005 0.000708438 0.00047242 -0.0005 0.00042852 0.00030453 -0.0005 
0.00042852 0.00119547 -0.0005 0.00103283 -0.000159585 -0.0005 0.00103196 0.000165961 -0.0005 
0.00070371 0.000168883 -0.0005 0.000703474 -0.000168651 -0.0005 0.000549826 0.000207462 -0.0005 
0.000549826 -0.000207462 -0.0005 0.000864237 0.00020878 -0.0005 0.000665505 -1.75358e-06 -0.0005 
0.00106402 -6.49099e-06 -0.0005 0.000862172 -0.000208798 -0.0005 0.0005018 0.000214286 -0.0005 
0.0005018 -0.000214286 -0.0005 0.00117842 -0.000170987 -0.0005 0.00116705 0.000166193 -0.0005 
0.000858691 -0.00035148 -0.0005 0.000873309 0.00035148 -0.0005 0.000975232 0.000285545 -0.0005 
0.000758481 -0.000286192 -0.0005 0.000561503 7.6703e-05 -0.0005 0.000555269 -7.65899e-05 -0.0005 
0.000972639 -0.000294843 -0.0005 0.00076107 0.000296588 -0.0005 0.000951061 -8.41794e-05 -0.0005 
0.000954201 9.78925e-05 -0.0005 0.000770216 8.5049e-05 -0.0005 0.000773031 -8.1944e-05 -0.0005 
0.00049152 0.000247295 -0.0005 0.00049152 -0.000247295 -0.0005 0.000639193 0.000247375 -0.0005 
0.00063904 -0.000246565 -0.0005 0.00118416 -5.24395e-05 -0.0005 0.00117173 6.09258e-05 -0.0005 
0.000614347 -0.000142326 -0.0005 0.000614347 0.000142326 -0.0005 0.000896745 -0.00041094 -0.0005 
0.000835255 0.00041094 -0.0005 0.00109521 -0.000246251 -0.0005 0.00109548 0.000241816 -0.0005 
0.000888744 0.000133221 -0.0005 0.000884672 -0.000131409 -0.0005 0.000734511 2.22198e-05 -0.0005 
0.00099603 -1.62999e-05 -0.0005 0.00049217 0.000149154 -0.0005 0.00049217 -0.000149154 -0.0005 
0.00110092 -9.03863e-05 -0.0005 0.0011967 -0.000235043 -0.0005 0.0011948 0.000234244 -0.0005 
0.0010896 9.28059e-05 -0.0005 0.000783591 0.000181545 -0.0005 0.000786677 -0.000178683 -0.0005 
0.000691513 -7.86239e-05 -0.0005 0.000956611 -0.000168878 -0.0005 0.000959159 0.000169495 -0.0005 
0.000700823 7.45132e-05 -0.0005 0.000773907 -0.000358769 -0.0005 0.000958093 0.000358769 -0.0005 
0.000900764 0.000422113 -0.0005 0.000831236 -0.000422113 -0.0005 0.00047076 0.000187946 -0.0005 
0.00047076 -0.000187946 -0.0005 0.000506327 1.20793e-06 -0.0005 0.00125496 -0.000188051 -0.0005 
0.001256 0.000186364 -0.0005 0.000930344 -0.000355671 -0.0005 0.000802223 0.000356891 -0.0005 
0.000894056 -0.000283426 -0.0005 0.000837944 0.000283426 -0.0005 0.00102403 5.64575e-05 -0.0005 
0.000906579 0.000286843 -0.0005 0.000825421 -0.000286843 -0.0005 0.00105345 0.000307262 -0.0005 
0.00102589 -7.91024e-05 -0.0005 0.000681095 -0.00030951 -0.0005 0.00122461 0.000105752 -0.0005 
0.00122907 -0.00011688 -0.0005 0.000540991 0.000251333 -0.0005 0.000540991 -0.000251333 -0.0005 
0.000624479 7.32103e-05 -0.0005 0.000551152 -0.000147794 -0.0005 0.000551606 0.000147802 -0.0005 
0.000461422 0.00024054 -0.0005 0.000462692 0.000218831 -0.0005 0.000461422 -0.00024054 -0.0005 
0.000462692 -0.000218831 -0.0005 0.00105793 -0.0003084 -0.0005 0.000605948 0.000200473 -0.0005 
0.000605915 -0.000200421 -0.0005 0.000894426 -0.000450764 -0.0005 0.000837574 0.000450764 -0.0005 
0.000676934 0.000311072 -0.0005 0.000626182 -7.08972e-05 -0.0005 0.000584992 5.90258e-06 -0.0005 
0.00122078 1.89656e-05 -0.0005 0.0010285 0.000232229 -0.0005 0.00124284 -0.000245894 -0.0005 
0.00124267 0.000245397 -0.0005 0.0010232 -0.000230896 -0.0005 0.00110079 0.000171119 -0.0005 
0.00071471 -0.000232668 -0.0005 0.000834965 9.05283e-05 -0.0005 0.000842673 -8.85226e-05 -0.0005 
0.00095723 3.30279e-05 -0.0005 0.000775615 -2.20485e-05 -0.0005 0.000713665 0.000235853 -0.0005 
0.00110556 -0.000175069 -0.0005 0.000491363 9.025e-05 -0.0005 0.000488571 -8.87482e-05 -0.0005 
0.000912167 -4.59906e-05 -0.0005 0.000932228 0.000232832 -0.0005 0.000904587 8.10868e-05 -0.0005 
0.000789049 3.8011e-05 -0.0005 0.000993486 -0.000360083 -0.0005 0.000936751 -0.00023716 -0.0005 
0.00113854 3.89675e-06 -0.0005 0.000789492 -0.000238637 -0.0005 0.00101161 0.000112396 -0.0005 
0.000513466 0.00018326 -0.0005 0.000513402 -0.000183259 -0.0005 0.000596046 0.000283517 -0.0005 
0.000595385 -0.000285639 -0.0005 0.000792102 0.000241238 -0.0005 0.00114845 0.000113194 -0.0005 
0.000737403 0.00035529 -0.0005 0.00114502 -0.000221334 -0.0005 0.00114373 0.00021912 -0.0005 
0.00115942 -0.000117053 -0.0005 0.000816164 -4.7003e-05 -0.0005 0.000827708 0.000144636 -0.0005 
0.000827708 -0.000144636 -0.0005 0.000728035 -3.243e-05 -0.0005 0.00074578 0.000136564 -0.0005 
0.000744567 -0.000134897 -0.0005 0.000659232 -0.0001943 -0.0005 0.000991599 -0.000122936 -0.0005 
0.00065923 0.000194923 -0.0005 0.000586401 0.000238032 -0.0005 0.000586231 -0.000238284 -0.0005 
0.000670788 -0.000130267 -0.0005 0.000668203 0.000129229 -0.0005 0.000889614 -8.00602e-05 -0.0005 
0.000944998 -2.26884e-05 -0.0005 0.00114587 -0.000279044 -0.0005 0.00114555 0.000278672 -0.0005 
0.00087048 0.00044547 -0.0005 0.00086152 -0.00044547 -0.0005 0.000598961 -0.000915961 -0.0005 
0.000603317 -0.000588209 -0.0005 0.000270723 -0.000581163 -0.0005 0.000270149 -0.000918385 -0.0005 
0.000116826 -0.000542538 -0.0005 0.000116826 -0.000957462 -0.0005 0.000431238 -0.00054122 -0.0005 
0.000232505 -0.000744897 -0.0005 0.000636012 -0.000752799 -0.0005 0.000434763 -0.00095878 -0.0005 
6.87997e-05 -0.000535714 -0.0005 6.87997e-05 -0.000964286 -0.0005 0.000745424 -0.000579013 -0.0005 
0.000734049 -0.000916193 -0.0005 0.000425691 -0.00110148 -0.0005 0.000440309 -0.00039852 -0.0005 
0.000542232 -0.000464455 -0.0005 0.00032556 -0.00103573 -0.0005 0.000128192 -0.000673002 -0.0005 
0.000124428 -0.000825257 -0.0005 0.000539618 -0.00104521 -0.0005 0.00032807 -0.000453412 -0.0005 
0.000520463 -0.000846217 -0.0005 0.000521988 -0.00065178 -0.0005 0.000340031 -0.000668056 -0.0005 
0.00034624 -0.000838266 -0.0005 5.85195e-05 -0.000502705 -0.0005 5.85195e-05 -0.000997295 -0.0005 
0.000206193 -0.000502625 -0.0005 0.00020604 -0.000996565 -0.0005 0.000751161 -0.00069756 -0.0005 
0.00073873 -0.000810926 -0.0005 0.000181347 -0.000892326 -0.0005 0.000181347 -0.000607674 -0.0005 
0.000463745 -0.00116094 -0.0005 0.000402255 -0.00033906 -0.0005 0.000662471 -0.000504287 -0.0005 
0.000655871 -0.000984939 -0.0005 0.000455875 -0.000616724 -0.0005 0.0004137 -0.000882087 -0.0005 
0.000302544 -0.000768994 -0.0005 0.000569409 -0.000757172 -0.0005 5.91695e-05 -0.000600846 -0.0005 
5.91695e-05 -0.000899154 -0.0005 0.000666622 -0.000652114 -0.0005 0.000763695 -0.000514957 -0.0005 
0.000761799 -0.000984244 -0.0005 0.000662952 -0.000835018 -0.0005 0.000350592 -0.000568457 -0.0005 
0.000512323 -0.000928683 -0.0005 0.000258513 -0.000671173 -0.0005 0.000526882 -0.000581015 -0.0005 
0.000348994 -0.000924358 -0.0005 0.000269055 -0.00082351 -0.0005 0.000340907 -0.00110877 -0.0005 
0.000525093 -0.000391231 -0.0005 0.000398236 -0.00117211 -0.0005 0.000467764 -0.000327887 -0.0005 
3.77595e-05 -0.000562054 -0.0005 3.77595e-05 -0.000937946 -0.0005 7.22902e-05 -0.000748076 -0.0005 
0.000821959 -0.000561949 -0.0005 0.000823003 -0.000936364 -0.0005 0.000497341 -0.00110573 -0.0005 
0.000369223 -0.000393109 -0.0005 0.000595975 -0.000691792 -0.0005 0.000461056 -0.00103343 -0.0005 
0.000404944 -0.000466574 -0.0005 0.000473579 -0.000463157 -0.0005 0.000392458 -0.00103684 -0.0005 
0.000620449 -0.000442181 -0.0005 0.000248106 -0.00105944 -0.0005 0.000791611 -0.000855752 -0.0005 
0.000796074 -0.00063312 -0.0005 0.000107991 -0.000498667 -0.0005 0.000107991 -0.00100133 -0.0005 
0.000192237 -0.000821247 -0.0005 0.000118309 -0.000897697 -0.0005 0.000118584 -0.000602176 -0.0005 
2.84222e-05 -0.00050946 -0.0005 2.96921e-05 -0.000531169 -0.0005 2.84222e-05 -0.00099054 -0.0005 
2.96921e-05 -0.000968831 -0.0005 0.000584827 -0.000825555 -0.0005 0.000620086 -0.00106094 -0.0005 
0.000172947 -0.000549526 -0.0005 0.000172922 -0.000950417 -0.0005 0.000461426 -0.00120076 -0.0005 
0.000404574 -0.000299236 -0.0005 0.000243934 -0.000438928 -0.0005 0.000192001 -0.000675472 -0.0005 
0.000154074 -0.000745216 -0.0005 0.000787779 -0.000768966 -0.0005 0.000588723 -0.000523989 -0.0005 
0.000809841 -0.000504106 -0.0005 0.000809671 -0.000995397 -0.0005 0.000571747 -0.000987513 -0.0005 
0.000673596 -0.000911853 -0.0005 0.000281249 -0.000981909 -0.0005 0.000409717 -0.000660715 -0.0005 
0.000465934 -0.000841589 -0.0005 0.000524589 -0.000717066 -0.0005 0.000342119 -0.000722933 -0.0005 
0.000280666 -0.000514151 -0.0005 0.000672694 -0.000574319 -0.0005 5.82468e-05 -0.000659662 -0.0005 
5.65752e-05 -0.000839154 -0.0005 0.000386493 -0.000796808 -0.0005 0.000361584 -0.000985225 -0.0005 
0.000499228 -0.000517168 -0.0005 0.000471587 -0.000668913 -0.0005 0.000510532 -0.000790014 -0.0005 
0.000559513 -0.00111068 -0.0005 0.000707209 -0.000752897 -0.0005 8.04633e-05 -0.000566736 -0.0005 
8.04241e-05 -0.000933245 -0.0005 0.000163046 -0.000466483 -0.0005 0.000162386 -0.00103563 -0.0005 
0.000578393 -0.000637387 -0.0005 0.000503901 -0.000990722 -0.0005 0.000359102 -0.000508763 -0.0005 
0.000714127 -0.000859658 -0.0005 0.000304403 -0.00039471 -0.0005 0.000712099 -0.000528651 -0.0005 
0.000710619 -0.000966814 -0.0005 0.000726254 -0.000631789 -0.0005 0.000383073 -0.000701841 -0.0005 
0.000471292 -0.000894636 -0.0005 0.000394708 -0.000605364 -0.0005 0.000295143 -0.00071521 -0.0005 
0.000544105 -0.000886073 -0.0005 0.00030982 -0.000616796 -0.0005 0.000226145 -0.000944288 -0.0005 
0.000307419 -0.000884579 -0.0005 0.000226252 -0.000555158 -0.0005 0.000153401 -0.000511968 -0.0005 
0.000153233 -0.000988282 -0.0005 0.000237471 -0.000619391 -0.0005 0.000238317 -0.000879885 -0.0005 
0.000410377 -0.000831296 -0.0005 0.000352297 -0.000773675 -0.0005 0.00071621 -0.000470678 -0.0005 
0.000708438 -0.00102758 -0.0005 0.00043748 -0.00030453 -0.0005 0.00042852 -0.00119547 -0.0005 
-0.000266167 -0.000909585 -0.0005 -0.00026339 -0.000582669 -0.0005 -0.000595526 -0.000581349 -0.0005 
-0.000595539 -0.000918697 -0.0005 -0.000749174 -0.000957462 -0.0005 -0.000749174 -0.000542538 -0.0005 
-0.000436828 -0.000541202 -0.0005 -0.000633495 -0.000748246 -0.0005 -0.000234978 -0.000756491 -0.0005 
-0.000436828 -0.000958798 -0.0005 -0.0007972 -0.000964286 -0.0005 -0.0007972 -0.000535714 -0.0005 
-0.000131951 -0.000583807 -0.0005 -0.000120576 -0.000920987 -0.0005 -0.000440309 -0.00110148 -0.0005 
-0.000440309 -0.00039852 -0.0005 -0.000540519 -0.000463808 -0.0005 -0.000540519 -0.00103619 -0.0005 
-0.000737497 -0.000826703 -0.0005 -0.000743731 -0.00067341 -0.0005 -0.000326361 -0.000455157 -0.0005 
-0.000326361 -0.00104484 -0.0005 -0.000347939 -0.000834179 -0.0005 -0.000344799 -0.000652107 -0.0005 
-0.000525969 -0.000668056 -0.0005 -0.000528784 -0.000835049 -0.0005 -0.00080748 -0.000997295 -0.0005 
-0.00080748 -0.000502705 -0.0005 -0.00065996 -0.000996565 -0.0005 -0.00065996 -0.000503435 -0.0005 
-0.000114839 -0.00080244 -0.0005 -0.00012727 -0.000689074 -0.0005 -0.000684653 -0.000892326 -0.0005 
-0.000684653 -0.000607674 -0.0005 -0.000402255 -0.00033906 -0.0005 -0.000402255 -0.00116094 -0.0005 
-0.00020379 -0.000996251 -0.0005 -0.000209694 -0.000514898 -0.0005 -0.000410601 -0.000616776 -0.0005 
-0.000414328 -0.000881409 -0.0005 -0.000564489 -0.00077222 -0.0005 -0.00030297 -0.0007663 -0.0005 
-0.000806831 -0.000899154 -0.0005 -0.000806831 -0.000600846 -0.0005 -0.000198082 -0.000840386 -0.0005 
-0.000104201 -0.000515756 -0.0005 -0.000102305 -0.000985043 -0.0005 -0.000210482 -0.000662469 -0.0005 
-0.000512323 -0.000571317 -0.0005 -0.000512323 -0.000928683 -0.0005 -0.000607487 -0.000671376 -0.0005 
-0.000342389 -0.000918878 -0.0005 -0.000339591 -0.000579218 -0.0005 -0.000598177 -0.000824513 -0.0005 
-0.000525093 -0.00110877 -0.0005 -0.000525093 -0.000391231 -0.0005 -0.000467764 -0.00117211 -0.0005 
-0.000467764 -0.000327887 -0.0005 -0.00082824 -0.000937946 -0.0005 -0.00082824 -0.000562054 -0.0005 
-0.000792673 -0.000751208 -0.0005 -4.40406e-05 -0.000938051 -0.0005 -4.29968e-05 -0.000563636 -0.0005 
-0.000368656 -0.000394329 -0.0005 -0.000368656 -0.00110567 -0.0005 -0.000404944 -0.000466574 -0.0005 
-0.000404944 -0.00103343 -0.0005 -0.000274968 -0.000693542 -0.0005 -0.000473579 -0.000463157 -0.0005 
-0.000473579 -0.00103684 -0.0005 -0.000273108 -0.000829102 -0.0005 -0.000617905 -0.00105951 -0.0005 
-0.000617905 -0.00044049 -0.0005 -7.4389e-05 -0.000644248 -0.0005 -6.99258e-05 -0.00086688 -0.0005 
-0.000758009 -0.00100133 -0.0005 -0.000758009 -0.000498667 -0.0005 -0.000674521 -0.00082321 -0.0005 
-0.000747394 -0.000897802 -0.0005 -0.000747848 -0.000602206 -0.0005 -0.000837578 -0.00099054 -0.0005 
-0.000836308 -0.000968831 -0.0005 -0.000837578 -0.00050946 -0.0005 -0.000836308 -0.000531169 -0.0005 
-0.00024589 -0.000439066 -0.0005 -0.000241075 -0.0010584 -0.0005 -0.000693065 -0.000950422 -0.0005 
-0.000693085 -0.000549579 -0.0005 -0.000404574 -0.00120076 -0.0005 -0.000404574 -0.000299236 -0.0005 
-0.000672818 -0.000679103 -0.0005 -0.000714008 -0.000755903 -0.0005 -7.82213e-05 -0.000731034 -0.0005 
-5.6329e-05 -0.000504603 -0.0005 -5.61586e-05 -0.000995894 -0.0005 -0.000275796 -0.000980896 -0.0005 
-0.000285676 -0.000513219 -0.0005 -0.000186165 -0.000585602 -0.0005 -0.000584291 -0.000982673 -0.0005 
-0.00058429 -0.000517332 -0.0005 -0.00045634 -0.000660721 -0.0005 -0.000464193 -0.000839596 -0.0005 
-0.00034177 -0.000716972 -0.0005 -0.000523385 -0.000727952 -0.0005 -0.000193444 -0.000925069 -0.0005 
-0.000807637 -0.00084025 -0.0005 -0.000810429 -0.000661252 -0.0005 -0.000386833 -0.000795991 -0.0005 
-0.000394413 -0.000668913 -0.0005 -0.000509958 -0.000787971 -0.0005 -0.000305514 -0.00111008 -0.0005 
-0.000306477 -0.00038941 -0.0005 -0.000362249 -0.00098716 -0.0005 -0.00035868 -0.000511074 -0.0005 
-0.000160645 -0.000746982 -0.0005 -0.000509508 -0.000511363 -0.0005 -0.000509508 -0.000988638 -0.0005 
-0.00028739 -0.000637604 -0.0005 -0.000785534 -0.00093326 -0.0005 -0.000785598 -0.000566741 -0.0005 
-0.000703615 -0.00103564 -0.0005 -0.000703615 -0.000464361 -0.0005 -0.000148903 -0.000636616 -0.0005 
-0.00015636 -0.000534148 -0.0005 -0.000153981 -0.000971334 -0.0005 -0.000139581 -0.000867053 -0.0005 
-0.000482839 -0.000702846 -0.0005 -0.000471292 -0.000605364 -0.0005 -0.000471292 -0.000894636 -0.0005 
-0.000570965 -0.00071757 -0.0005 -0.000554433 -0.000615103 -0.0005 -0.000553903 -0.000884892 -0.0005 
-0.000639788 -0.00094438 -0.0005 -0.000639768 -0.0005557 -0.0005 -0.000307401 -0.000872936 -0.0005 
-0.000712765 -0.000988284 -0.0005 -0.000712769 -0.000511716 -0.0005 -0.000628213 -0.000619733 -0.0005 
-0.000630855 -0.000879083 -0.0005 -0.000409259 -0.000828735 -0.0005 -0.000354002 -0.000772688 -0.0005 
-0.000155373 -0.000471972 -0.0005 -0.000153127 -0.00102904 -0.0005 -0.00043748 -0.00030453 -0.0005 
-0.00043748 -0.00119547 -0.0005 -0.000699167 -0.000159585 -0.0005 -0.00102828 0.000168837 -0.0005 
-0.000700039 0.000165961 -0.0005 -0.00102854 -0.000168697 -0.0005 -0.00118217 0.000207462 -0.0005 
-0.00118217 -0.000207462 -0.0005 -0.000867762 0.00020878 -0.0005 -0.00106649 5.10348e-06 -0.0005 
-0.000667978 -6.49099e-06 -0.0005 -0.000869828 -0.000208798 -0.0005 -0.0012302 0.000214286 -0.0005 
-0.0012302 -0.000214286 -0.0005 -0.000564951 0.000166193 -0.0005 -0.000553576 -0.000170987 -0.0005 
-0.000873309 -0.00035148 -0.0005 -0.000858691 0.00035148 -0.0005 -0.000756768 0.000285545 -0.0005 
-0.000973519 -0.000286192 -0.0005 -0.00117081 7.69979e-05 -0.0005 -0.00117457 -7.52569e-05 -0.0005 
-0.000759361 -0.000294843 -0.0005 -0.00097093 0.000296588 -0.0005 -0.000780939 -8.41794e-05 -0.0005 
-0.000958969 8.1944e-05 -0.0005 -0.000777799 9.78925e-05 -0.0005 -0.000961784 -8.5049e-05 -0.0005 
-0.00124048 0.000247295 -0.0005 -0.00124048 -0.000247295 -0.0005 -0.00109281 0.000247375 -0.0005 
-0.00109296 -0.000246565 -0.0005 -0.000547839 -5.24395e-05 -0.0005 -0.00056027 6.09258e-05 -0.0005 
-0.00111765 0.000142326 -0.0005 -0.00111765 -0.000142326 -0.0005 -0.000835255 -0.00041094 -0.0005 
-0.000896745 0.00041094 -0.0005 -0.00063679 -0.000246251 -0.0005 -0.000636522 0.000241816 -0.0005 
-0.000843256 0.000133221 -0.0005 -0.000847328 -0.000131409 -0.0005 -0.000997489 -2.16615e-05 -0.0005 
-0.00073597 -1.62999e-05 -0.0005 -0.00123983 0.000149154 -0.0005 -0.00123983 -0.000149154 -0.0005 
-0.000631082 -9.03863e-05 -0.0005 -0.000535305 -0.000235043 -0.0005 -0.000537201 0.000234244 -0.0005 
-0.000642398 9.28059e-05 -0.0005 -0.000948408 0.000181543 -0.0005 -0.000945323 -0.000178683 -0.0005 
-0.00104049 7.88274e-05 -0.0005 -0.000775389 -0.000168878 -0.0005 -0.000772841 0.000169495 -0.0005 
-0.00103118 -7.38619e-05 -0.0005 -0.000958093 -0.000358769 -0.0005 -0.000773907 0.000358769 -0.0005 
-0.000900764 -0.000422113 -0.0005 -0.000831236 0.000422113 -0.0005 -0.00126124 0.000187946 -0.0005 
-0.00126124 -0.000187946 -0.0005 -0.00122671 1.92365e-06 -0.0005 -0.000477041 -0.000188051 -0.0005 
-0.000475997 0.000186364 -0.0005 -0.000801656 -0.000355671 -0.0005 -0.000929777 0.000356891 -0.0005 
-0.000837944 -0.000283426 -0.0005 -0.000894056 0.000283426 -0.0005 -0.000707968 5.64575e-05 -0.0005 
-0.000825421 0.000286843 -0.0005 -0.000906579 -0.000286843 -0.0005 -0.000678551 0.000307262 -0.0005 
-0.000706108 -7.91024e-05 -0.0005 -0.0010509 -0.00030951 -0.0005 -0.000507389 0.000105752 -0.0005 
-0.000502926 -0.00011688 -0.0005 -0.00119101 0.000251333 -0.0005 -0.00119101 -0.000251333 -0.0005 
-0.00110684 -7.12684e-05 -0.0005 -0.00118042 0.000147824 -0.0005 -0.00118069 -0.000147697 -0.0005 
-0.00127058 0.00024054 -0.0005 -0.00126931 0.000218831 -0.0005 -0.00127058 -0.00024054 -0.0005 
-0.00126931 -0.000218831 -0.0005 -0.000674075 -0.0003084 -0.0005 -0.00112605 0.000200474 -0.0005 
-0.00112608 -0.000200417 -0.0005 -0.000837574 -0.000450764 -0.0005 -0.000894426 0.000450764 -0.0005 
-0.00105507 0.000311072 -0.0005 -0.001107 7.45278e-05 -0.0005 -0.00114494 4.78174e-06 -0.0005 
-0.000511221 1.89656e-05 -0.0005 -0.000703503 0.000232229 -0.0005 -0.000489329 0.000245397 -0.0005 
-0.000489159 -0.000245894 -0.0005 -0.000708796 -0.000230896 -0.0005 -0.000631208 0.000171119 -0.0005 
-0.00101729 -0.000232673 -0.0005 -0.000889299 8.92785e-05 -0.0005 -0.000897193 -8.95957e-05 -0.0005 
-0.00077477 3.30279e-05 -0.0005 -0.000956385 2.2115e-05 -0.0005 -0.00101833 0.000235849 -0.0005 
-0.000626444 -0.000175069 -0.0005 -0.00124075 9.03378e-05 -0.0005 -0.00124242 -8.91537e-05 -0.0005 
-0.000819833 -4.59906e-05 -0.0005 -0.000799772 0.000232832 -0.0005 -0.000827413 8.10868e-05 -0.0005 
-0.000942958 -3.79434e-05 -0.0005 -0.000738514 -0.000360083 -0.0005 -0.000795249 -0.00023716 -0.0005 
-0.000593465 3.89675e-06 -0.0005 -0.000942508 -0.000238638 -0.0005 -0.00072039 0.000112396 -0.0005 
-0.00121854 0.000183264 -0.0005 -0.00121858 -0.000183245 -0.0005 -0.00113595 0.000283517 -0.0005 
-0.00113662 -0.000285639 -0.0005 -0.000939898 0.000241237 -0.0005 -0.00058355 0.000113194 -0.0005 
-0.000994597 0.00035529 -0.0005 -0.000586981 -0.000221334 -0.0005 -0.000588267 0.00021912 -0.0005 
-0.000572581 -0.000117053 -0.0005 -0.00091583 4.71675e-05 -0.0005 -0.000904292 -0.000144636 -0.0005 
-0.000904292 0.000144636 -0.0005 -0.00100396 3.32657e-05 -0.0005 -0.00098918 0.000133204 -0.0005 
-0.000986047 -0.000136339 -0.0005 -0.00107279 -0.00019438 -0.0005 -0.000740401 -0.000122936 -0.0005 
-0.00107275 0.000194842 -0.0005 -0.0011456 0.000238032 -0.0005 -0.00114577 -0.000238283 -0.0005 
-0.00106153 0.000130609 -0.0005 -0.00106376 -0.000129013 -0.0005 -0.000842259 -7.8735e-05 -0.0005 
-0.000787002 -2.26884e-05 -0.0005 -0.000586448 0.000278672 -0.0005 -0.000586127 -0.000279044 -0.0005 
-0.00087048 -0.00044547 -0.0005 -0.00086152 0.00044547 -0.0005 -0.000266167 0.000590415 -0.0005 
-0.000267039 0.000915961 -0.0005 -0.000595277 0.000918837 -0.0005 -0.000595539 0.000581303 -0.0005 
-0.000749174 0.000542538 -0.0005 -0.000749174 0.000957462 -0.0005 -0.000434763 0.00095878 -0.0005 
-0.000633495 0.000751754 -0.0005 -0.000234978 0.000743509 -0.0005 -0.000436828 0.000541202 -0.0005 
-0.0007972 0.000535714 -0.0005 -0.0007972 0.000964286 -0.0005 -0.000131951 0.000916193 -0.0005 
-0.000120576 0.000579013 -0.0005 -0.000440309 0.00039852 -0.0005 -0.000425691 0.00110148 -0.0005 
-0.000323768 0.00103554 -0.0005 -0.000540519 0.000463808 -0.0005 -0.000737497 0.000673297 -0.0005 
-0.000743731 0.00082659 -0.0005 -0.000326361 0.000455157 -0.0005 -0.00053793 0.00104659 -0.0005 
-0.000347939 0.000665821 -0.0005 -0.000344799 0.000847893 -0.0005 -0.000525969 0.000831944 -0.0005 
-0.000528784 0.000664951 -0.0005 -0.00080748 0.000502705 -0.0005 -0.00080748 0.000997295 -0.0005 
-0.00065996 0.000503435 -0.0005 -0.000659807 0.000997375 -0.0005 -0.000114839 0.00069756 -0.0005 
-0.00012727 0.000810926 -0.0005 -0.000684653 0.000607674 -0.0005 -0.000684653 0.000892326 -0.0005 
-0.000402255 0.00033906 -0.0005 -0.000463745 0.00116094 -0.0005 -0.00020379 0.000503749 -0.0005 
-0.000203522 0.000991815 -0.0005 -0.000410256 0.000883221 -0.0005 -0.000414328 0.000618591 -0.0005 
-0.000564489 0.00072778 -0.0005 -0.00030297 0.0007337 -0.0005 -0.000806831 0.000600846 -0.0005 
-0.000806831 0.000899154 -0.0005 -0.000198082 0.000659614 -0.0005 -0.000104201 0.000984244 -0.0005 
-0.000102305 0.000514957 -0.0005 -0.000209398 0.000842806 -0.0005 -0.000515408 0.000931543 -0.0005 
-0.000512323 0.000571317 -0.0005 -0.000607487 0.000828624 -0.0005 -0.000342389 0.000581122 -0.0005 
-0.000339841 0.000919495 -0.0005 -0.000598177 0.000675487 -0.0005 -0.000525093 0.000391231 -0.0005 
-0.000340907 0.00110877 -0.0005 -0.000398236 0.00117211 -0.0005 -0.000467764 0.000327887 -0.0005 
-0.00082824 0.000562054 -0.0005 -0.00082824 0.000937946 -0.0005 -0.000792673 0.000748792 -0.0005 
-4.40406e-05 0.000561949 -0.0005 -4.29968e-05 0.000936364 -0.0005 -0.000368656 0.000394329 -0.0005 
-0.000496777 0.00110689 -0.0005 -0.000404944 0.000466574 -0.0005 -0.000461056 0.00103343 -0.0005 
-0.000274968 0.000806458 -0.0005 -0.000392421 0.00103684 -0.0005 -0.000473579 0.000463157 -0.0005 
-0.000245551 0.00105726 -0.0005 -0.000273108 0.000670898 -0.0005 -0.000617905 0.00044049 -0.0005 
-7.4389e-05 0.000855752 -0.0005 -6.99258e-05 0.00063312 -0.0005 -0.000758009 0.000498667 -0.0005 
-0.000758009 0.00100133 -0.0005 -0.000674521 0.00067679 -0.0005 -0.000747394 0.000602198 -0.0005 
-0.000747848 0.000897794 -0.0005 -0.000837578 0.00050946 -0.0005 -0.000836308 0.000531169 -0.0005 
-0.000837578 0.00099054 -0.0005 -0.000836308 0.000968831 -0.0005 -0.000241075 0.0004416 -0.0005 
-0.000693065 0.000549578 -0.0005 -0.000693072 0.000950473 -0.0005 -0.000404574 0.000299236 -0.0005 
-0.000461426 0.00120076 -0.0005 -0.000622066 0.00106107 -0.0005 -0.000672818 0.000820897 -0.0005 
-0.000714008 0.000744097 -0.0005 -7.82213e-05 0.000768966 -0.0005 -0.000270503 0.000982229 -0.0005 
-5.6329e-05 0.000995397 -0.0005 -5.61586e-05 0.000504106 -0.0005 -0.000275796 0.000519104 -0.0005 
-0.000198208 0.000921119 -0.0005 -0.000584291 0.000517327 -0.0005 -0.000456299 0.000839279 -0.0005 
-0.000464193 0.000660404 -0.0005 -0.00034177 0.000783028 -0.0005 -0.000523385 0.000772048 -0.0005 
-0.000585334 0.000985849 -0.0005 -0.000193444 0.000574931 -0.0005 -0.000807637 0.00065975 -0.0005 
-0.000810429 0.000838748 -0.0005 -0.000386833 0.000704009 -0.0005 -0.000366772 0.000982832 -0.0005 
-0.000394413 0.000831087 -0.0005 -0.000509958 0.000712029 -0.0005 -0.000305514 0.000389917 -0.0005 
-0.000362249 0.00051284 -0.0005 -0.000160465 0.000753897 -0.0005 -0.000509508 0.000511362 -0.0005 
-0.00028739 0.000862396 -0.0005 -0.000785534 0.00056674 -0.0005 -0.000785598 0.000933259 -0.0005 
-0.000703615 0.000464361 -0.0005 -0.000702954 0.00103352 -0.0005 -0.000506898 0.000991237 -0.0005 
-0.00015055 0.000863194 -0.0005 -0.000561597 0.00110529 -0.0005 -0.000153981 0.000528666 -0.0005 
-0.000155267 0.00096912 -0.0005 -0.000139581 0.000632947 -0.0005 -0.00048283 0.000797154 -0.0005 
-0.000471292 0.000894636 -0.0005 -0.000471292 0.000605364 -0.0005 -0.000570965 0.00078243 -0.0005 
-0.00055618 0.00088318 -0.0005 -0.000553903 0.000615108 -0.0005 -0.000639788 0.00055562 -0.0005 
-0.000307401 0.000627064 -0.0005 -0.00063975 0.000944842 -0.0005 -0.000712765 0.000511716 -0.0005 
-0.000712603 0.000988032 -0.0005 -0.000628389 0.00088015 -0.0005 -0.000630855 0.000620917 -0.0005 
-0.000409259 0.000671265 -0.0005 -0.000354002 0.000727312 -0.0005 -0.000153448 0.00102867 -0.0005 
-0.000153127 0.000470956 -0.0005 -0.00042852 0.00119547 -0.0005 -0.00043748 0.00030453 -0.0005 

CELLS 2380 16660
6 649 608 664 1664 1623 1679 
6 570 610 625 1585 1625 1640 
6 571 611 624 1586 1626 1639 
6 603 587 669 1618 1602 1684 
6 564 603 669 1579 1618 1684 
6 610 570 613 1625 1585 1628 
6 611 571 612 1626 1586 1627 
6 600 564 669 1615 1579 1684 
6 586 187 630 1601 384 1645 
6 579 594 608 1594 1609 1623 
6 595 578 607 1610 1593 1622 
6 596 581 609 1611 1596 1624 
6 183 590 619 380 1605 1634 
6 166 591 620 363 1606 1635 
6 572 649 664 1587 1664 1679 
6 572 611 626 1587 1626 1641 
6 590 570 619 1605 1585 1634 
6 591 571 620 1606 1586 1635 
6 633 575 647 1648 1590 1662 
6 594 562 608 1609 1577 1623 
6 565 595 607 1580 1610 1622 
6 563 596 609 1578 1611 1624 
6 557 608 649 1572 1623 1664 
6 564 600 627 1579 1615 1642 
6 557 649 653 1572 1664 1668 
6 654 605 670 1669 1620 1685 
6 586 600 669 1601 1615 1684 
6 594 579 665 1609 1594 1680 
6 587 629 648 1602 1644 1663 
6 581 596 666 1596 1611 1681 
6 570 590 613 1585 1605 1628 
6 571 591 612 1586 1606 1627 
6 189 618 650 386 1633 1665 
6 617 184 651 1632 381 1666 
6 597 564 627 1612 1579 1642 
6 649 593 653 1664 1608 1668 
6 568 601 618 1583 1616 1633 
6 602 569 617 1617 1584 1632 
6 629 186 648 1644 383 1663 
6 559 605 654 1574 1620 1669 
6 600 556 627 1615 1571 1642 
6 187 586 648 384 1601 1663 
6 607 556 652 1622 1571 1667 
6 607 652 668 1622 1667 1683 
6 573 610 628 1588 1625 1643 
6 627 556 689 1642 1571 1704 
6 14 194 665 95 391 1680 
6 195 196 666 392 393 1681 
6 183 619 667 380 1634 1682 
6 196 656 666 393 1671 1681 
6 658 14 665 1673 95 1680 
6 561 566 631 1576 1581 1646 
6 567 560 632 1582 1575 1647 
6 575 616 647 1590 1631 1662 
6 566 561 672 1581 1576 1687 
6 560 567 673 1575 1582 1688 
6 573 654 670 1588 1669 1685 
6 12 185 618 93 382 1633 
6 188 11 617 385 92 1632 
6 635 561 641 1650 1576 1656 
6 560 634 642 1575 1649 1657 
6 578 597 627 1593 1612 1642 
6 8 175 613 89 372 1628 
6 1 190 612 82 387 1627 
6 604 558 659 1619 1573 1674 
6 578 595 695 1593 1610 1710 
6 597 578 696 1612 1593 1711 
6 610 573 625 1625 1588 1640 
6 611 572 624 1626 1587 1639 
6 168 3 636 365 84 1651 
6 6 173 638 87 370 1653 
6 611 191 626 1626 388 1641 
6 575 588 634 1590 1603 1649 
6 589 574 635 1604 1589 1650 
6 593 626 697 1608 1641 1712 
6 166 620 678 363 1635 1693 
6 564 597 623 1579 1612 1638 
6 603 564 623 1618 1579 1638 
6 568 618 629 1583 1633 1644 
6 11 184 617 92 381 1632 
6 189 12 618 386 93 1633 
6 579 608 671 1594 1623 1686 
6 556 600 660 1571 1615 1675 
6 588 575 633 1603 1590 1648 
6 8 613 700 89 1628 1715 
6 1 612 699 82 1627 1714 
6 617 569 630 1632 1584 1645 
6 619 570 621 1634 1585 1636 
6 620 571 622 1635 1586 1637 
6 574 616 661 1589 1631 1676 
6 616 575 662 1631 1590 1677 
6 580 606 686 1595 1621 1701 
6 563 633 647 1578 1648 1662 
6 598 635 661 1613 1650 1676 
6 634 599 662 1649 1614 1677 
6 574 589 646 1589 1604 1661 
6 604 659 676 1619 1674 1691 
6 635 574 661 1650 1589 1676 
6 575 634 662 1590 1649 1677 
6 600 586 681 1615 1601 1696 
6 585 628 674 1600 1643 1689 
6 557 603 671 1572 1618 1686 
6 626 192 697 1641 389 1712 
6 610 176 628 1625 373 1643 
6 563 609 633 1578 1624 1648 
6 569 660 681 1584 1675 1696 
6 587 603 677 1602 1618 1692 
6 608 557 671 1623 1572 1686 
6 603 557 653 1618 1572 1668 
6 622 571 624 1637 1586 1639 
6 621 570 625 1636 1585 1640 
6 606 580 685 1621 1595 1700 
6 640 592 698 1655 1607 1713 
6 558 604 686 1573 1619 1701 
6 605 559 687 1620 1574 1702 
6 660 600 681 1675 1615 1696 
6 187 188 630 384 385 1645 
6 185 186 629 382 383 1644 
6 608 562 664 1623 1577 1679 
6 652 556 660 1667 1571 1675 
6 562 594 683 1577 1609 1698 
6 595 565 684 1610 1580 1699 
6 596 563 685 1611 1578 1700 
6 609 581 687 1624 1596 1702 
6 686 606 693 1701 1621 1708 
6 162 1 699 359 82 1714 
6 179 8 700 376 89 1715 
6 606 563 646 1621 1578 1661 
6 573 628 654 1588 1643 1669 
6 616 574 647 1631 1589 1662 
6 565 607 668 1580 1622 1683 
6 175 176 610 372 373 1625 
6 190 191 611 387 388 1626 
6 645 584 675 1660 1599 1690 
6 628 177 674 1643 374 1689 
6 572 626 649 1587 1641 1664 
6 170 171 616 367 368 1631 
6 609 687 694 1624 1702 1709 
6 181 640 698 378 1655 1713 
6 687 559 694 1702 1574 1709 
6 607 578 689 1622 1593 1704 
6 592 652 660 1607 1667 1675 
6 604 562 683 1619 1577 1698 
6 565 605 684 1580 1620 1699 
6 563 606 685 1578 1621 1700 
6 558 686 693 1573 1701 1708 
6 565 621 625 1580 1636 1640 
6 562 622 624 1577 1637 1639 
6 683 580 686 1698 1595 1701 
6 581 684 687 1596 1699 1702 
6 616 171 661 1631 368 1676 
6 170 616 662 367 1631 1677 
6 628 585 654 1643 1600 1669 
6 182 183 667 379 380 1682 
6 653 593 679 1668 1608 1694 
6 579 623 658 1594 1638 1673 
6 605 565 670 1620 1580 1685 
6 634 560 673 1649 1575 1688 
6 561 635 672 1576 1650 1687 
6 589 635 641 1604 1650 1656 
6 634 588 642 1649 1603 1657 
6 194 655 665 391 1670 1680 
6 657 195 666 1672 392 1681 
6 562 604 676 1577 1619 1691 
6 566 614 637 1581 1629 1652 
6 615 567 639 1630 1582 1654 
6 688 588 694 1703 1603 1709 
6 623 597 658 1638 1612 1673 
6 646 563 647 1661 1578 1662 
6 576 619 621 1591 1634 1636 
6 577 620 622 1592 1635 1637 
6 556 607 689 1571 1622 1704 
6 164 645 675 361 1660 1690 
6 589 690 693 1604 1705 1708 
6 191 192 626 388 389 1641 
6 175 610 613 372 1625 1628 
6 190 611 612 387 1626 1627 
6 584 645 659 1599 1660 1674 
6 626 593 649 1641 1608 1664 
6 603 623 671 1618 1638 1686 
6 176 177 628 373 374 1643 
6 652 576 668 1667 1591 1683 
6 562 624 664 1577 1639 1679 
6 642 588 688 1657 1603 1703 
6 565 625 670 1580 1640 1685 
6 165 166 678 362 363 1693 
6 663 578 695 1678 1593 1710 
6 578 663 696 1593 1678 1711 
6 589 641 690 1604 1656 1705 
6 574 646 647 1589 1661 1662 
6 638 173 639 1653 370 1654 
6 168 636 637 365 1651 1652 
6 645 577 659 1660 1592 1674 
6 618 601 650 1633 1616 1665 
6 602 617 651 1617 1632 1666 
6 587 648 669 1602 1663 1684 
6 181 182 640 378 379 1655 
6 656 581 666 1671 1596 1681 
6 579 658 665 1594 1673 1680 
6 655 580 683 1670 1595 1698 
6 581 656 684 1596 1671 1699 
6 580 657 685 1595 1672 1700 
6 164 165 645 361 362 1660 
6 655 594 665 1670 1609 1680 
6 596 657 666 1611 1672 1681 
6 590 183 644 1605 380 1659 
6 591 166 643 1606 363 1658 
6 568 629 677 1583 1644 1692 
6 186 187 648 383 384 1663 
6 604 683 686 1619 1698 1701 
6 684 605 687 1699 1620 1702 
6 648 586 669 1663 1601 1684 
6 659 577 676 1674 1592 1691 
6 614 566 672 1629 1581 1687 
6 567 615 673 1582 1630 1688 
6 568 653 679 1583 1668 1694 
6 592 640 652 1607 1655 1667 
6 629 587 677 1644 1602 1692 
6 623 579 671 1638 1594 1686 
6 640 576 652 1655 1591 1667 
6 196 14 663 393 95 1678 
6 621 565 668 1636 1580 1683 
6 622 562 676 1637 1577 1691 
6 612 591 699 1627 1606 1714 
6 613 590 700 1628 1605 1715 
6 171 172 661 368 369 1676 
6 169 170 662 366 367 1677 
6 569 602 680 1584 1617 1695 
6 601 568 679 1616 1583 1694 
6 180 602 651 377 1617 1666 
6 601 193 650 1616 390 1665 
6 583 638 639 1598 1653 1654 
6 636 582 637 1651 1597 1652 
6 163 164 675 360 361 1690 
6 177 178 674 374 375 1689 
6 588 633 694 1603 1648 1709 
6 576 621 668 1591 1636 1683 
6 577 622 676 1592 1637 1691 
6 578 627 689 1593 1642 1704 
6 646 589 693 1661 1604 1708 
6 624 572 664 1639 1587 1679 
6 559 688 694 1574 1703 1709 
6 180 181 698 377 378 1713 
6 192 193 697 389 390 1712 
6 690 558 693 1705 1573 1708 
6 630 569 681 1645 1584 1696 
6 9 179 644 90 376 1659 
6 0 162 643 81 359 1658 
6 620 577 678 1635 1592 1693 
6 653 568 677 1668 1583 1692 
6 618 185 629 1633 382 1644 
6 580 655 682 1595 1670 1697 
6 657 580 682 1672 1595 1697 
6 172 598 661 369 1613 1676 
6 599 169 662 1614 366 1677 
6 188 617 630 385 1632 1645 
6 625 573 670 1640 1588 1685 
6 633 609 694 1648 1624 1709 
6 641 561 691 1656 1576 1706 
6 560 642 692 1575 1657 1707 
6 184 10 651 381 91 1666 
6 13 189 650 94 386 1665 
6 577 645 678 1592 1660 1693 
6 603 653 677 1618 1668 1692 
6 599 634 673 1614 1649 1688 
6 635 598 672 1650 1613 1687 
6 619 576 667 1634 1591 1682 
6 640 182 667 1655 379 1682 
6 194 195 682 391 392 1697 
6 193 601 697 390 1616 1712 
6 602 180 698 1617 377 1713 
6 576 640 667 1591 1655 1682 
6 606 646 693 1621 1661 1708 
6 660 569 680 1675 1584 1695 
6 601 679 697 1616 1694 1712 
6 680 602 698 1695 1617 1713 
6 586 630 681 1601 1645 1696 
6 169 599 615 366 1614 1630 
6 598 172 614 1613 369 1629 
6 644 179 700 1659 376 1715 
6 643 162 699 1658 359 1714 
6 656 196 695 1671 393 1710 
6 14 658 696 95 1673 1711 
6 675 584 691 1690 1599 1706 
6 585 674 692 1600 1689 1707 
6 645 165 678 1660 362 1693 
6 655 194 682 1670 391 1697 
6 195 657 682 392 1672 1697 
6 4 168 637 85 365 1652 
6 173 5 639 370 86 1654 
6 592 660 680 1607 1675 1695 
6 659 558 690 1674 1573 1705 
6 584 641 691 1599 1656 1706 
6 642 585 692 1657 1600 1707 
6 584 659 690 1599 1674 1705 
6 559 654 688 1574 1669 1703 
6 594 655 683 1609 1670 1698 
6 656 595 684 1671 1610 1699 
6 657 596 685 1672 1611 1700 
6 654 585 688 1669 1600 1703 
6 595 656 695 1610 1671 1710 
6 658 597 696 1673 1612 1711 
6 631 675 691 1646 1690 1706 
6 674 632 692 1689 1647 1707 
6 561 631 691 1576 1646 1706 
6 632 560 692 1647 1575 1707 
6 196 663 695 393 1678 1710 
6 663 14 696 1678 95 1711 
6 585 642 688 1600 1657 1703 
6 641 584 690 1656 1599 1705 
6 590 644 700 1605 1659 1715 
6 591 643 699 1606 1658 1714 
6 631 163 675 1646 360 1690 
6 178 632 674 375 1647 1689 
6 598 614 672 1613 1629 1687 
6 615 599 673 1630 1614 1688 
6 679 593 697 1694 1608 1712 
6 592 680 698 1607 1695 1713 
6 166 0 643 363 81 1658 
6 172 4 614 369 85 1629 
6 614 4 637 1629 85 1652 
6 5 169 615 86 366 1630 
6 5 615 639 86 1630 1654 
6 183 9 644 380 90 1659 
6 10 180 651 91 377 1666 
6 193 13 650 390 94 1665 
6 2 163 167 83 360 364 
6 3 167 636 84 364 1651 
6 174 6 638 371 87 1653 
6 174 178 7 371 375 88 
6 167 163 582 364 360 1597 
6 582 163 631 1597 360 1646 
6 167 582 636 364 1597 1651 
6 178 174 583 375 371 1598 
6 583 174 638 1598 371 1653 
6 178 583 632 375 1598 1647 
6 566 582 631 1581 1597 1646 
6 582 566 637 1597 1581 1652 
6 583 567 632 1598 1582 1647 
6 567 583 639 1582 1598 1654 
6 715 755 770 1730 1770 1785 
6 756 716 769 1771 1731 1784 
6 732 748 815 1747 1763 1830 
6 748 709 815 1763 1724 1830 
6 755 715 758 1770 1730 1773 
6 716 756 757 1731 1771 1772 
6 709 745 815 1724 1760 1830 
6 216 731 774 413 1746 1789 
6 724 739 752 1739 1754 1767 
6 726 740 753 1741 1755 1768 
6 741 726 754 1756 1741 1769 
6 736 210 764 1751 407 1779 
6 220 735 765 417 1750 1780 
6 738 701 798 1753 1716 1813 
6 716 736 764 1731 1751 1779 
6 735 715 765 1750 1730 1780 
6 777 720 792 1792 1735 1807 
6 739 707 752 1754 1722 1767 
6 740 710 753 1755 1725 1768 
6 708 741 754 1723 1756 1769 
6 799 753 809 1814 1768 1824 
6 749 800 816 1764 1815 1831 
6 745 731 815 1760 1746 1830 
6 739 724 810 1754 1739 1825 
6 773 732 793 1788 1747 1808 
6 715 735 758 1730 1750 1773 
6 736 716 757 1751 1731 1772 
6 214 762 794 411 1777 1809 
6 763 219 795 1778 416 1810 
6 701 738 797 1716 1753 1812 
6 750 701 797 1765 1716 1812 
6 742 709 784 1757 1724 1799 
6 713 746 762 1728 1761 1777 
6 747 714 763 1762 1729 1778 
6 217 773 793 414 1788 1808 
6 749 703 800 1764 1718 1815 
6 731 216 793 1746 413 1808 
6 748 701 784 1763 1716 1799 
6 702 752 796 1717 1767 1811 
6 745 709 766 1760 1724 1781 
6 709 748 784 1724 1763 1799 
6 796 752 814 1811 1767 1829 
6 756 717 772 1771 1732 1787 
6 718 755 771 1733 1770 1786 
6 750 797 822 1765 1812 1837 
6 704 753 799 1719 1768 1814 
6 27 225 810 108 422 1825 
6 227 27 811 424 108 1826 
6 764 210 813 1779 407 1828 
6 220 765 812 417 1780 1827 
6 718 799 809 1733 1814 1824 
6 802 227 811 1817 424 1826 
6 803 27 810 1818 108 1825 
6 705 711 775 1720 1726 1790 
6 712 706 776 1727 1721 1791 
6 720 761 792 1735 1776 1807 
6 711 705 817 1726 1720 1832 
6 706 712 818 1721 1727 1833 
6 800 717 816 1815 1732 1831 
6 23 215 762 104 412 1777 
6 218 24 763 415 105 1778 
6 779 705 787 1794 1720 1802 
6 706 778 788 1721 1793 1803 
6 208 20 757 405 101 1772 
6 13 193 758 94 390 1773 
6 740 726 840 1755 1741 1855 
6 726 741 841 1741 1756 1856 
6 755 718 770 1770 1733 1785 
6 717 756 769 1732 1771 1784 
6 203 18 780 400 99 1795 
6 15 198 782 96 395 1797 
6 702 745 821 1717 1760 1836 
6 720 733 778 1735 1748 1793 
6 734 719 779 1749 1734 1794 
6 763 714 773 1778 1729 1788 
6 709 742 766 1724 1757 1781 
6 24 219 763 105 416 1778 
6 214 23 762 411 104 1777 
6 745 702 805 1760 1717 1820 
6 733 720 777 1748 1735 1792 
6 724 752 821 1739 1767 1836 
6 757 20 845 1772 101 1860 
6 13 758 844 94 1773 1859 
6 713 762 774 1728 1777 1789 
6 765 715 767 1780 1730 1782 
6 716 764 768 1731 1779 1783 
6 719 761 806 1734 1776 1821 
6 761 720 807 1776 1735 1822 
6 725 751 831 1740 1766 1846 
6 708 777 792 1723 1792 1807 
6 778 744 807 1793 1759 1822 
6 743 779 806 1758 1794 1821 
6 719 734 791 1734 1749 1806 
6 779 719 806 1794 1734 1821 
6 720 778 807 1735 1793 1822 
6 731 745 826 1746 1760 1841 
6 784 701 832 1799 1716 1847 
6 730 771 819 1745 1786 1834 
6 772 729 820 1787 1744 1835 
6 207 756 772 404 1771 1787 
6 755 192 771 1770 389 1786 
6 708 754 777 1723 1769 1792 
6 784 723 811 1799 1738 1826 
6 805 713 826 1820 1728 1841 
6 748 732 823 1763 1747 1838 
6 742 784 811 1757 1799 1826 
6 701 748 798 1716 1763 1813 
6 716 768 769 1731 1783 1784 
6 767 715 770 1782 1730 1785 
6 752 702 821 1767 1717 1836 
6 751 725 830 1766 1740 1845 
6 737 785 842 1752 1800 1857 
6 786 738 843 1801 1753 1858 
6 703 749 831 1718 1764 1846 
6 701 750 832 1716 1765 1847 
6 745 805 826 1760 1820 1841 
6 215 216 774 412 413 1789 
6 217 218 773 414 415 1788 
6 753 710 809 1768 1725 1824 
6 702 796 805 1717 1811 1820 
6 707 739 829 1722 1754 1844 
6 710 740 828 1725 1755 1843 
6 741 708 830 1756 1723 1845 
6 831 751 838 1846 1766 1853 
6 224 13 844 421 94 1859 
6 20 209 845 101 406 1860 
6 745 766 821 1760 1781 1836 
6 751 708 791 1766 1723 1806 
6 724 766 803 1739 1781 1818 
6 772 717 800 1787 1732 1815 
6 718 771 799 1733 1786 1814 
6 761 719 792 1776 1734 1807 
6 752 707 814 1767 1722 1829 
6 207 208 756 404 405 1771 
6 193 192 755 390 389 1770 
6 726 753 835 1741 1768 1850 
6 754 726 835 1769 1741 1850 
6 766 742 803 1781 1757 1818 
6 771 191 819 1786 388 1834 
6 206 772 820 403 1787 1835 
6 200 201 761 397 398 1776 
6 785 212 842 1800 409 1857 
6 222 786 843 419 1801 1858 
6 796 737 805 1811 1752 1820 
6 749 707 829 1764 1722 1844 
6 750 710 828 1765 1725 1843 
6 708 751 830 1723 1766 1845 
6 703 831 838 1718 1846 1853 
6 710 767 770 1725 1782 1785 
6 768 707 769 1783 1722 1784 
6 828 723 832 1843 1738 1847 
6 829 725 831 1844 1740 1846 
6 200 761 807 397 1776 1822 
6 761 201 806 1776 398 1821 
6 729 772 800 1744 1787 1815 
6 771 730 799 1786 1745 1814 
6 210 211 813 407 408 1828 
6 221 220 812 418 417 1827 
6 738 798 825 1753 1813 1840 
6 707 749 816 1722 1764 1831 
6 778 706 818 1793 1721 1833 
6 705 779 817 1720 1794 1832 
6 734 834 838 1749 1849 1853 
6 734 779 787 1749 1794 1802 
6 778 733 788 1793 1748 1803 
6 225 801 810 422 1816 1825 
6 753 704 835 1768 1719 1850 
6 27 803 811 108 1818 1826 
6 710 750 822 1725 1765 1837 
6 711 759 781 1726 1774 1796 
6 760 712 783 1775 1727 1798 
6 833 733 839 1848 1748 1854 
6 791 708 792 1806 1723 1807 
6 754 835 839 1769 1850 1854 
6 764 721 768 1779 1736 1783 
6 722 765 767 1737 1780 1782 
6 193 755 758 390 1770 1773 
6 756 208 757 1771 405 1772 
6 192 191 771 389 388 1786 
6 206 207 772 403 404 1787 
6 721 796 814 1736 1811 1829 
6 710 770 809 1725 1785 1824 
6 734 787 834 1749 1802 1849 
6 788 733 833 1803 1748 1848 
6 835 704 839 1850 1719 1854 
6 797 722 822 1812 1737 1837 
6 769 707 816 1784 1722 1831 
6 726 808 840 1741 1823 1855 
6 808 726 841 1823 1741 1856 
6 723 784 832 1738 1799 1847 
6 719 791 792 1734 1806 1807 
6 203 780 781 400 1795 1796 
6 782 198 783 1797 395 1798 
6 762 746 794 1777 1761 1809 
6 747 763 795 1762 1778 1810 
6 793 732 815 1808 1747 1830 
6 222 221 786 419 418 1801 
6 211 212 785 408 409 1800 
6 723 802 811 1738 1817 1826 
6 724 803 810 1739 1818 1825 
6 801 725 829 1816 1740 1844 
6 802 723 828 1817 1738 1843 
6 725 804 830 1740 1819 1845 
6 766 724 821 1781 1739 1836 
6 801 739 810 1816 1754 1825 
6 803 742 811 1818 1757 1826 
6 210 736 789 407 1751 1804 
6 735 220 790 1750 417 1805 
6 773 714 823 1788 1729 1838 
6 216 217 793 413 414 1808 
6 750 828 832 1765 1843 1847 
6 749 829 831 1764 1844 1846 
6 731 793 815 1746 1808 1830 
6 759 711 817 1774 1726 1832 
6 712 760 818 1727 1775 1833 
6 798 714 825 1813 1729 1840 
6 785 737 796 1800 1752 1811 
6 738 786 797 1753 1801 1812 
6 732 773 823 1747 1788 1838 
6 721 785 796 1736 1800 1811 
6 786 722 797 1801 1737 1812 
6 226 227 808 423 424 1823 
6 707 768 814 1722 1783 1829 
6 767 710 822 1782 1725 1837 
6 736 757 845 1751 1772 1860 
6 758 735 844 1773 1750 1859 
6 201 202 806 398 399 1821 
6 199 200 807 396 397 1822 
6 746 713 824 1761 1728 1839 
6 714 747 825 1729 1762 1840 
6 746 213 794 1761 410 1809 
6 223 747 795 420 1762 1810 
6 728 782 783 1743 1797 1798 
6 780 727 781 1795 1742 1796 
6 191 190 819 388 387 1834 
6 205 206 820 402 403 1835 
6 733 777 839 1748 1792 1854 
6 768 721 814 1783 1736 1829 
6 834 703 838 1849 1718 1853 
6 722 767 822 1737 1782 1837 
6 791 734 838 1806 1749 1853 
6 770 718 809 1785 1733 1824 
6 704 833 839 1719 1848 1854 
6 212 213 842 409 410 1857 
6 223 222 843 420 419 1858 
6 713 774 826 1728 1789 1841 
6 209 21 789 406 102 1804 
6 26 224 790 107 421 1805 
6 714 798 823 1729 1813 1838 
6 218 763 773 415 1778 1788 
6 725 801 827 1740 1816 1842 
6 804 725 827 1819 1740 1842 
6 202 743 806 399 1758 1821 
6 744 199 807 1759 396 1822 
6 762 215 774 1777 412 1789 
6 717 769 816 1732 1784 1831 
6 777 754 839 1792 1769 1854 
6 787 705 836 1802 1720 1851 
6 706 788 837 1721 1803 1852 
6 22 214 794 103 411 1809 
6 219 25 795 416 106 1810 
6 798 748 823 1813 1763 1838 
6 744 778 818 1759 1793 1833 
6 779 743 817 1794 1758 1832 
6 765 722 812 1780 1737 1827 
6 721 764 813 1736 1779 1828 
6 211 785 813 408 1800 1828 
6 786 221 812 1801 418 1827 
6 225 226 827 422 423 1842 
6 213 746 842 410 1761 1857 
6 747 223 843 1762 420 1858 
6 785 721 813 1800 1736 1828 
6 722 786 812 1737 1801 1827 
6 751 791 838 1766 1806 1853 
6 713 805 824 1728 1820 1839 
6 746 824 842 1761 1839 1857 
6 825 747 843 1840 1762 1858 
6 774 731 826 1789 1746 1841 
6 743 202 759 1758 399 1774 
6 199 744 760 396 1759 1775 
6 790 224 844 1805 421 1859 
6 209 789 845 406 1804 1860 
6 227 802 840 424 1817 1855 
6 804 226 841 1819 423 1856 
6 730 819 837 1745 1834 1852 
6 820 729 836 1835 1744 1851 
6 801 225 827 1816 422 1842 
6 226 804 827 423 1819 1842 
6 17 203 781 98 400 1796 
6 198 16 783 395 97 1798 
6 805 737 824 1820 1752 1839 
6 788 730 837 1803 1745 1852 
6 729 787 836 1744 1802 1851 
6 704 799 833 1719 1814 1848 
6 800 703 834 1815 1718 1849 
6 739 801 829 1754 1816 1844 
6 740 802 828 1755 1817 1843 
6 804 741 830 1819 1756 1845 
6 799 730 833 1814 1745 1848 
6 729 800 834 1744 1815 1849 
6 802 740 840 1817 1755 1855 
6 741 804 841 1756 1819 1856 
6 775 820 836 1790 1835 1851 
6 819 776 837 1834 1791 1852 
6 705 775 836 1720 1790 1851 
6 776 706 837 1791 1721 1852 
6 808 227 840 1823 424 1855 
6 226 808 841 423 1823 1856 
6 730 788 833 1745 1803 1848 
6 787 729 834 1802 1744 1849 
6 789 736 845 1804 1751 1860 
6 735 790 844 1750 1805 1859 
6 775 205 820 1790 402 1835 
6 190 776 819 387 1791 1834 
6 743 759 817 1758 1774 1832 
6 760 744 818 1775 1759 1833 
6 824 737 842 1839 1752 1857 
6 738 825 843 1753 1840 1858 
6 16 199 760 97 396 1775 
6 16 760 783 97 1775 1798 
6 202 17 759 399 98 1774 
6 759 17 781 1774 98 1796 
6 21 210 789 102 407 1804 
6 213 22 794 410 103 1809 
6 25 223 795 106 420 1810 
6 220 26 790 417 107 1805 
6 1 197 190 82 394 387 
6 197 15 782 394 96 1797 
6 18 204 780 99 401 1795 
6 19 205 204 100 402 401 
6 190 197 728 387 394 1743 
6 190 728 776 387 1743 1791 
6 728 197 782 1743 394 1797 
6 204 205 727 401 402 1742 
6 204 727 780 401 1742 1795 
6 727 205 775 1742 402 1790 
6 711 727 775 1726 1742 1790 
6 727 711 781 1742 1726 1796 
6 728 712 776 1743 1727 1791 
6 712 728 783 1727 1743 1798 
6 939 898 954 1954 1913 1969 
6 860 900 915 1875 1915 1930 
6 861 901 914 1876 1916 1929 
6 893 877 959 1908 1892 1974 
6 854 893 959 1869 1908 1974 
6 900 860 903 1915 1875 1918 
6 901 861 902 1916 1876 1917 
6 890 854 959 1905 1869 1974 
6 876 238 920 1891 435 1935 
6 869 884 898 1884 1899 1913 
6 885 868 897 1900 1883 1912 
6 870 886 899 1885 1901 1914 
6 244 880 909 441 1895 1924 
6 223 881 910 420 1896 1925 
6 862 939 954 1877 1954 1969 
6 862 901 916 1877 1916 1931 
6 880 860 909 1895 1875 1924 
6 881 861 910 1896 1876 1925 
6 936 865 937 1951 1880 1952 
6 884 852 898 1899 1867 1913 
6 855 885 897 1870 1900 1912 
6 886 853 899 1901 1868 1914 
6 847 898 939 1862 1913 1954 
6 854 890 917 1869 1905 1932 
6 847 939 943 1862 1954 1958 
6 944 895 960 1959 1910 1975 
6 876 890 959 1891 1905 1974 
6 884 869 955 1899 1884 1970 
6 877 919 938 1892 1934 1953 
6 886 870 956 1901 1885 1971 
6 860 880 903 1875 1895 1918 
6 861 881 902 1876 1896 1917 
6 907 240 940 1922 437 1955 
6 235 908 941 432 1923 1956 
6 887 854 917 1902 1869 1932 
6 939 883 943 1954 1898 1958 
6 891 858 907 1906 1873 1922 
6 859 892 908 1874 1907 1923 
6 919 237 938 1934 434 1953 
6 849 895 944 1864 1910 1959 
6 890 846 917 1905 1861 1932 
6 238 876 938 435 1891 1953 
6 897 846 942 1912 1861 1957 
6 897 942 958 1912 1957 1973 
6 863 900 918 1878 1915 1933 
6 917 846 979 1932 1861 1994 
6 38 252 955 119 449 1970 
6 252 253 956 449 450 1971 
6 244 909 957 441 1924 1972 
6 945 252 956 1960 449 1971 
6 947 38 955 1962 119 1970 
6 850 856 921 1865 1871 1936 
6 857 851 922 1872 1866 1937 
6 865 906 937 1880 1921 1952 
6 856 850 962 1871 1865 1977 
6 851 857 963 1866 1872 1978 
6 863 944 960 1878 1959 1975 
6 239 32 907 436 113 1922 
6 31 236 908 112 433 1923 
6 925 850 931 1940 1865 1946 
6 851 924 932 1866 1939 1947 
6 868 887 917 1883 1902 1932 
6 29 231 902 110 428 1917 
6 35 249 903 116 446 1918 
6 894 848 949 1909 1863 1964 
6 868 885 985 1883 1900 2000 
6 887 868 986 1902 1883 2001 
6 900 863 915 1915 1878 1930 
6 901 862 914 1916 1877 1929 
6 228 28 926 425 109 1941 
6 37 251 928 118 448 1943 
6 901 232 916 1916 429 1931 
6 865 878 924 1880 1893 1939 
6 879 864 925 1894 1879 1940 
6 883 916 988 1898 1931 2003 
6 223 910 968 420 1925 1983 
6 854 887 913 1869 1902 1928 
6 853 936 937 1868 1951 1952 
6 893 854 913 1908 1869 1928 
6 859 908 919 1874 1923 1934 
6 235 31 908 432 112 1923 
6 32 240 907 113 437 1922 
6 869 898 961 1884 1913 1976 
6 846 890 950 1861 1905 1965 
6 864 879 923 1879 1894 1938 
6 29 902 989 110 1917 2004 
6 35 903 990 116 1918 2005 
6 907 858 920 1922 1873 1935 
6 909 860 911 1924 1875 1926 
6 910 861 912 1925 1876 1927 
6 864 906 951 1879 1921 1966 
6 906 865 952 1921 1880 1967 
6 896 871 977 1911 1886 1992 
6 888 925 951 1903 1940 1966 
6 924 889 952 1939 1904 1967 
6 878 865 936 1893 1880 1951 
6 894 949 966 1909 1964 1981 
6 925 864 951 1940 1879 1966 
6 865 924 952 1880 1939 1967 
6 890 876 971 1905 1891 1986 
6 875 918 965 1890 1933 1980 
6 847 893 961 1862 1908 1976 
6 916 233 988 1931 430 2003 
6 900 248 918 1915 445 1933 
6 899 853 923 1914 1868 1938 
6 858 950 971 1873 1965 1986 
6 877 893 967 1892 1908 1982 
6 898 847 961 1913 1862 1976 
6 893 847 943 1908 1862 1958 
6 912 861 914 1927 1876 1929 
6 911 860 915 1926 1875 1930 
6 871 896 975 1886 1911 1990 
6 930 882 987 1945 1897 2002 
6 848 894 976 1863 1909 1991 
6 895 849 977 1910 1864 1992 
6 950 890 971 1965 1905 1986 
6 238 239 920 435 436 1935 
6 236 237 919 433 434 1934 
6 898 852 954 1913 1867 1969 
6 942 846 950 1957 1861 1965 
6 852 884 973 1867 1899 1988 
6 885 855 974 1900 1870 1989 
6 853 886 975 1868 1901 1990 
6 870 899 976 1885 1914 1991 
6 896 977 983 1911 1992 1998 
6 245 35 990 442 116 2005 
6 230 29 989 427 110 2004 
6 853 896 936 1868 1911 1951 
6 863 918 944 1878 1933 1959 
6 906 864 937 1921 1879 1952 
6 855 897 958 1870 1912 1973 
6 231 232 901 428 429 1916 
6 249 248 900 446 445 1915 
6 935 874 964 1950 1889 1979 
6 918 247 965 1933 444 1980 
6 862 916 939 1877 1931 1954 
6 187 186 906 384 383 1921 
6 976 899 984 1991 1914 1999 
6 242 930 987 439 1945 2002 
6 848 976 984 1863 1991 1999 
6 897 868 979 1912 1883 1994 
6 882 942 950 1897 1957 1965 
6 894 852 973 1909 1867 1988 
6 855 895 974 1870 1910 1989 
6 896 853 975 1911 1868 1990 
6 977 849 983 1992 1864 1998 
6 855 911 915 1870 1926 1930 
6 852 912 914 1867 1927 1929 
6 973 870 976 1988 1885 1991 
6 871 974 977 1886 1989 1992 
6 906 186 951 1921 383 1966 
6 187 906 952 384 1921 1967 
6 918 875 944 1933 1890 1959 
6 243 244 957 440 441 1972 
6 943 883 970 1958 1898 1985 
6 869 913 947 1884 1928 1962 
6 895 855 960 1910 1870 1975 
6 924 851 963 1939 1866 1978 
6 850 925 962 1865 1940 1977 
6 978 878 983 1993 1893 1998 
6 879 925 931 1894 1940 1946 
6 924 878 932 1939 1893 1947 
6 252 945 955 449 1960 1970 
6 253 948 956 450 1963 1971 
6 852 894 966 1867 1909 1981 
6 856 904 927 1871 1919 1942 
6 905 857 929 1920 1872 1944 
6 913 887 947 1928 1902 1962 
6 866 909 911 1881 1924 1926 
6 867 910 912 1882 1925 1927 
6 846 897 979 1861 1912 1994 
6 221 935 964 418 1950 1979 
6 232 233 916 429 430 1931 
6 249 900 903 446 1915 1918 
6 231 901 902 428 1916 1917 
6 874 935 949 1889 1950 1964 
6 916 883 939 1931 1898 1954 
6 879 980 984 1894 1995 1999 
6 893 913 961 1908 1928 1976 
6 923 853 937 1938 1868 1952 
6 248 247 918 445 444 1933 
6 942 866 958 1957 1881 1973 
6 852 914 954 1867 1929 1969 
6 932 878 978 1947 1893 1993 
6 855 915 960 1870 1930 1975 
6 222 223 968 419 420 1983 
6 953 868 985 1968 1883 2000 
6 868 953 986 1883 1968 2001 
6 864 923 937 1879 1938 1952 
6 879 931 980 1894 1946 1995 
6 228 926 927 425 1941 1942 
6 928 251 929 1943 448 1944 
6 935 867 949 1950 1882 1964 
6 891 907 940 1906 1922 1955 
6 908 892 941 1923 1907 1956 
6 877 938 959 1892 1953 1974 
6 242 243 930 439 440 1945 
6 870 945 956 1885 1960 1971 
6 869 947 955 1884 1962 1970 
6 945 870 973 1960 1885 1988 
6 871 946 974 1886 1961 1989 
6 948 871 975 1963 1886 1990 
6 221 222 935 418 419 1950 
6 945 884 955 1960 1899 1970 
6 948 886 956 1963 1901 1971 
6 880 244 933 1895 441 1948 
6 881 223 934 1896 420 1949 
6 859 919 967 1874 1934 1982 
6 237 238 938 434 435 1953 
6 974 895 977 1989 1910 1992 
6 894 973 976 1909 1988 1991 
6 938 876 959 1953 1891 1974 
6 949 867 966 1964 1882 1981 
6 904 856 962 1919 1871 1977 
6 857 905 963 1872 1920 1978 
6 859 943 970 1874 1958 1985 
6 882 930 942 1897 1945 1957 
6 919 877 967 1934 1892 1982 
6 913 869 961 1928 1884 1976 
6 930 866 942 1945 1881 1957 
6 254 38 953 451 119 1968 
6 911 855 958 1926 1870 1973 
6 912 852 966 1927 1867 1981 
6 902 881 989 1917 1896 2004 
6 903 880 990 1918 1895 2005 
6 186 185 951 383 382 1966 
6 188 187 952 385 384 1967 
6 858 891 969 1873 1906 1984 
6 892 859 970 1907 1874 1985 
6 241 891 940 438 1906 1955 
6 892 234 941 1907 431 1956 
6 926 872 927 1941 1887 1942 
6 873 928 929 1888 1943 1944 
6 220 221 964 417 418 1979 
6 247 246 965 444 443 1980 
6 923 879 984 1938 1894 1999 
6 866 911 958 1881 1926 1973 
6 849 978 983 1864 1993 1998 
6 867 912 966 1882 1927 1981 
6 868 917 979 1883 1932 1994 
6 878 936 983 1893 1951 1998 
6 914 862 954 1929 1877 1969 
6 241 242 987 438 439 2002 
6 233 234 988 430 431 2003 
6 920 858 971 1935 1873 1986 
6 34 245 933 115 442 1948 
6 25 230 934 106 427 1949 
6 910 867 968 1925 1882 1983 
6 943 859 967 1958 1874 1982 
6 908 236 919 1923 433 1934 
6 980 848 984 1995 1863 1999 
6 946 871 972 1961 1886 1987 
6 871 948 972 1886 1963 1987 
6 185 888 951 382 1903 1966 
6 889 188 952 1904 385 1967 
6 239 907 920 436 1922 1935 
6 915 863 960 1930 1878 1975 
6 899 923 984 1914 1938 1999 
6 931 850 981 1946 1865 1996 
6 851 932 982 1866 1947 1997 
6 240 33 940 437 114 1955 
6 30 235 941 111 432 1956 
6 867 935 968 1882 1950 1983 
6 893 943 967 1908 1958 1982 
6 889 924 963 1904 1939 1978 
6 925 888 962 1940 1903 1977 
6 909 866 957 1924 1881 1972 
6 930 243 957 1945 440 1972 
6 253 254 972 450 451 1987 
6 891 241 987 1906 438 2002 
6 234 892 988 431 1907 2003 
6 866 930 957 1881 1945 1972 
6 936 896 983 1951 1911 1998 
6 950 858 969 1965 1873 1984 
6 969 891 987 1984 1906 2002 
6 892 970 988 1907 1985 2003 
6 876 920 971 1891 1935 1986 
6 888 185 904 1903 382 1919 
6 188 889 905 385 1904 1920 
6 933 245 990 1948 442 2005 
6 934 230 989 1949 427 2004 
6 946 254 985 1961 451 2000 
6 38 947 986 119 1962 2001 
6 875 965 982 1890 1980 1997 
6 964 874 981 1979 1889 1996 
6 935 222 968 1950 419 1983 
6 254 946 972 451 1961 1987 
6 948 253 972 1963 450 1987 
6 251 11 929 448 92 1944 
6 12 228 927 93 425 1942 
6 882 950 969 1897 1965 1984 
6 949 848 980 1964 1863 1995 
6 932 875 982 1947 1890 1997 
6 874 931 981 1889 1946 1996 
6 874 949 980 1889 1964 1995 
6 849 944 978 1864 1959 1993 
6 884 945 973 1899 1960 1988 
6 946 885 974 1961 1900 1989 
6 886 948 975 1901 1963 1990 
6 944 875 978 1959 1890 1993 
6 885 946 985 1900 1961 2000 
6 947 887 986 1962 1902 2001 
6 921 964 981 1936 1979 1996 
6 965 922 982 1980 1937 1997 
6 850 921 981 1865 1936 1996 
6 922 851 982 1937 1866 1997 
6 254 953 985 451 1968 2000 
6 953 38 986 1968 119 2001 
6 875 932 978 1890 1947 1993 
6 931 874 980 1946 1889 1995 
6 880 933 990 1895 1948 2005 
6 881 934 989 1896 1949 2004 
6 921 220 964 1936 417 1979 
6 246 922 965 443 1937 1980 
6 888 904 962 1903 1919 1977 
6 905 889 963 1920 1904 1978 
6 882 969 987 1897 1984 2002 
6 970 883 988 1985 1898 2003 
6 11 188 905 92 385 1920 
6 11 905 929 92 1920 1944 
6 185 12 904 382 93 1919 
6 904 12 927 1919 93 1942 
6 223 25 934 420 106 1949 
6 234 30 941 431 111 1956 
6 33 241 940 114 438 1955 
6 244 34 933 441 115 1948 
6 26 220 229 107 417 426 
6 28 229 926 109 426 1941 
6 36 250 246 117 447 443 
6 250 37 928 447 118 1943 
6 229 220 872 426 417 1887 
6 872 220 921 1887 417 1936 
6 229 872 926 426 1887 1941 
6 246 250 873 443 447 1888 
6 246 873 922 443 1888 1937 
6 873 250 928 1888 447 1943 
6 856 872 921 1871 1887 1936 
6 872 856 927 1887 1871 1942 
6 873 857 922 1888 1872 1937 
6 857 873 929 1872 1888 1944 
6 1084 1042 1100 2099 2057 2115 
6 1005 1045 1060 2020 2060 2075 
6 1006 1046 1059 2021 2061 2074 
6 1022 1038 1104 2037 2053 2119 
6 1038 999 1104 2053 2014 2119 
6 1045 1005 1047 2060 2020 2062 
6 1046 1006 1048 2061 2021 2063 
6 999 1035 1104 2014 2050 2119 
6 258 1021 1064 455 2036 2079 
6 1014 1029 1042 2029 2044 2057 
6 1016 1030 1043 2031 2045 2058 
6 1031 1016 1044 2046 2031 2059 
6 180 1026 1055 377 2041 2070 
6 265 1025 1054 462 2040 2069 
6 1028 991 1088 2043 2006 2103 
6 1007 1084 1100 2022 2099 2115 
6 1007 1046 1061 2022 2061 2076 
6 1026 1006 1055 2041 2021 2070 
6 1025 1005 1054 2040 2020 2069 
6 1067 1010 1082 2082 2025 2097 
6 1029 997 1042 2044 2012 2057 
6 1030 1000 1043 2045 2015 2058 
6 998 1031 1044 2013 2046 2059 
6 1089 1043 1099 2104 2058 2114 
6 992 1042 1084 2007 2057 2099 
6 1035 1021 1104 2050 2036 2119 
6 1029 1014 1101 2044 2029 2116 
6 1063 1022 1083 2078 2037 2098 
6 1005 1025 1047 2020 2040 2062 
6 1006 1026 1048 2021 2041 2063 
6 256 1052 1085 453 2067 2100 
6 1053 261 1086 2068 458 2101 
6 991 1028 1087 2006 2043 2102 
6 1040 991 1087 2055 2006 2102 
6 1032 999 1074 2047 2014 2089 
6 1003 1036 1052 2018 2051 2067 
6 1037 1004 1053 2052 2019 2068 
6 259 1063 1083 456 2078 2098 
6 1021 258 1083 2036 455 2098 
6 1038 991 1074 2053 2006 2089 
6 1035 999 1056 2050 2014 2071 
6 999 1038 1074 2014 2053 2089 
6 1008 1045 1062 2023 2060 2077 
6 1040 1087 1110 2055 2102 2125 
6 994 1043 1089 2009 2058 2104 
6 49 279 1101 130 476 2116 
6 281 49 1102 478 130 2117 
6 265 1054 1103 462 2069 2118 
6 1008 1089 1099 2023 2104 2114 
6 1091 281 1102 2106 478 2117 
6 1092 49 1101 2107 130 2116 
6 995 1001 1065 2010 2016 2080 
6 1002 996 1066 2017 2011 2081 
6 1010 1051 1082 2025 2066 2097 
6 1001 995 1105 2016 2010 2120 
6 996 1002 1106 2011 2017 2121 
6 39 257 1052 120 454 2067 
6 260 40 1053 457 121 2068 
6 1069 995 1076 2084 2010 2091 
6 996 1068 1077 2011 2083 2092 
6 43 267 1047 124 464 2062 
6 36 246 1048 117 443 2063 
6 1039 993 1094 2054 2008 2109 
6 1030 1016 1130 2045 2031 2145 
6 1016 1031 1131 2031 2046 2146 
6 1045 1008 1060 2060 2023 2075 
6 1046 1007 1059 2061 2022 2074 
6 277 48 1070 474 129 2085 
6 45 272 1072 126 469 2087 
6 992 1035 1109 2007 2050 2124 
6 1046 247 1061 2061 444 2076 
6 1010 1023 1068 2025 2038 2083 
6 1024 1009 1069 2039 2024 2084 
6 1027 1061 1132 2042 2076 2147 
6 180 1055 1113 377 2070 2128 
6 1053 1004 1063 2068 2019 2078 
6 999 1032 1056 2014 2047 2071 
6 40 261 1053 121 458 2068 
6 256 39 1052 453 120 2067 
6 1035 992 1095 2050 2007 2110 
6 1023 1010 1067 2038 2025 2082 
6 1014 1042 1109 2029 2057 2124 
6 36 1048 1134 117 2063 2149 
6 43 1047 1135 124 2062 2150 
6 1003 1052 1064 2018 2067 2079 
6 1054 1005 1057 2069 2020 2072 
6 1055 1006 1058 2070 2021 2073 
6 1051 1010 1097 2066 2025 2112 
6 1009 1051 1096 2024 2066 2111 
6 1015 1041 1122 2030 2056 2137 
6 998 1067 1082 2013 2082 2097 
6 1033 1069 1096 2048 2084 2111 
6 1068 1034 1097 2083 2049 2112 
6 1009 1024 1081 2024 2039 2096 
6 1039 1094 1111 2054 2109 2126 
6 1069 1009 1096 2084 2024 2111 
6 1010 1068 1097 2025 2083 2112 
6 1021 1035 1116 2036 2050 2131 
6 1074 991 1121 2089 2006 2136 
6 1020 1062 1108 2035 2077 2123 
6 1061 248 1132 2076 445 2147 
6 1045 268 1062 2060 465 2077 
6 998 1044 1067 2013 2059 2082 
6 1074 1013 1102 2089 2028 2117 
6 1095 1003 1116 2110 2018 2131 
6 1038 1022 1112 2053 2037 2127 
6 1032 1074 1102 2047 2089 2117 
6 991 1038 1088 2006 2053 2103 
6 1058 1006 1059 2073 2021 2074 
6 1057 1005 1060 2072 2020 2075 
6 1042 992 1109 2057 2007 2124 
6 1041 1015 1120 2056 2030 2135 
6 1075 1028 1133 2090 2043 2148 
6 993 1039 1122 2008 2054 2137 
6 991 1040 1121 2006 2055 2136 
6 1035 1095 1116 2050 2110 2131 
6 257 258 1064 454 455 2079 
6 259 260 1063 456 457 2078 
6 1042 997 1100 2057 2012 2115 
6 1043 1000 1099 2058 2015 2114 
6 997 1029 1119 2012 2044 2134 
6 1000 1030 1118 2015 2045 2133 
6 1031 998 1120 2046 2013 2135 
6 1122 1041 1128 2137 2056 2143 
6 255 36 1134 452 117 2149 
6 266 43 1135 463 124 2150 
6 1035 1056 1109 2050 2071 2124 
6 1041 998 1081 2056 2013 2096 
6 1014 1056 1092 2029 2071 2107 
6 1008 1062 1089 2023 2077 2104 
6 1051 1009 1082 2066 2024 2097 
6 246 247 1046 443 444 2061 
6 267 268 1045 464 465 2060 
6 1016 1043 1124 2031 2058 2139 
6 1044 1016 1124 2059 2031 2139 
6 1080 1019 1107 2095 2034 2122 
6 1056 1032 1092 2071 2047 2107 
6 1062 269 1108 2077 466 2123 
6 1007 1061 1084 2022 2076 2099 
6 275 274 1051 472 471 2066 
6 263 1075 1133 460 2090 2148 
6 992 1084 1095 2007 2099 2110 
6 1039 997 1119 2054 2012 2134 
6 1040 1000 1118 2055 2015 2133 
6 998 1041 1120 2013 2056 2135 
6 993 1122 1128 2008 2137 2143 
6 1000 1057 1060 2015 2072 2075 
6 997 1058 1059 2012 2073 2074 
6 1119 1015 1122 2134 2030 2137 
6 1118 1013 1121 2133 2028 2136 
6 275 1051 1097 472 2066 2112 
6 1051 274 1096 2066 471 2111 
6 1062 1020 1089 2077 2035 2104 
6 264 265 1103 461 462 2118 
6 1028 1088 1115 2043 2103 2130 
6 1068 996 1106 2083 2011 2121 
6 995 1069 1105 2010 2084 2120 
6 1024 1069 1076 2039 2084 2091 
6 1068 1023 1077 2083 2038 2092 
6 279 1090 1101 476 2105 2116 
6 1043 994 1124 2058 2009 2139 
6 49 1092 1102 130 2107 2117 
6 1084 1027 1095 2099 2042 2110 
6 997 1039 1111 2012 2054 2126 
6 1000 1040 1110 2015 2055 2125 
6 1001 1049 1071 2016 2064 2086 
6 1050 1002 1073 2065 2017 2088 
6 1123 1023 1129 2138 2038 2144 
6 1081 998 1082 2096 2013 2097 
6 1044 1124 1129 2059 2139 2144 
6 1011 1054 1057 2026 2069 2072 
6 1012 1055 1058 2027 2070 2073 
6 182 1080 1107 379 2095 2122 
6 1024 1125 1128 2039 2140 2143 
6 247 248 1061 444 445 2076 
6 267 1045 1047 464 2060 2062 
6 246 1046 1048 443 2061 2063 
6 1019 1080 1094 2034 2095 2109 
6 1061 1027 1084 2076 2042 2099 
6 268 269 1062 465 466 2077 
6 1000 1060 1099 2015 2075 2114 
6 997 1059 1100 2012 2074 2115 
6 1077 1023 1123 2092 2038 2138 
6 1124 994 1129 2139 2009 2144 
6 1087 1011 1110 2102 2026 2125 
6 181 180 1113 378 377 2128 
6 1016 1098 1130 2031 2113 2145 
6 1098 1016 1131 2113 2031 2146 
6 1013 1074 1121 2028 2089 2136 
6 1024 1076 1125 2039 2091 2140 
6 1009 1081 1082 2024 2096 2097 
6 1072 272 1073 2087 469 2088 
6 277 1070 1071 474 2085 2086 
6 1080 1012 1094 2095 2027 2109 
6 1052 1036 1085 2067 2051 2100 
6 1037 1053 1086 2052 2068 2101 
6 1083 1022 1104 2098 2037 2119 
6 263 264 1075 460 461 2090 
6 1013 1091 1102 2028 2106 2117 
6 1014 1092 1101 2029 2107 2116 
6 1090 1015 1119 2105 2030 2134 
6 1091 1013 1118 2106 2028 2133 
6 1015 1093 1120 2030 2108 2135 
6 1056 1014 1109 2071 2029 2124 
6 182 181 1080 379 378 2095 
6 1090 1029 1101 2105 2044 2116 
6 1092 1032 1102 2107 2047 2117 
6 1025 265 1078 2040 462 2093 
6 1026 180 1079 2041 377 2094 
6 1063 1004 1112 2078 2019 2127 
6 258 259 1083 455 456 2098 
6 1040 1118 1121 2055 2133 2136 
6 1039 1119 1122 2054 2134 2137 
6 1021 1083 1104 2036 2098 2119 
6 1094 1012 1111 2109 2027 2126 
6 1049 1001 1105 2064 2016 2120 
6 1002 1050 1106 2017 2065 2121 
6 1088 1004 1115 2103 2019 2130 
6 1028 1075 1087 2043 2090 2102 
6 1022 1063 1112 2037 2078 2127 
6 1075 1011 1087 2090 2026 2102 
6 280 281 1098 477 478 2113 
6 1058 997 1111 2073 2012 2126 
6 1057 1000 1110 2072 2015 2125 
6 1047 1025 1135 2062 2040 2150 
6 1048 1026 1134 2063 2041 2149 
6 274 273 1096 471 470 2111 
6 276 275 1097 473 472 2112 
6 1036 1003 1114 2051 2018 2129 
6 1004 1037 1115 2019 2052 2130 
6 1036 249 1085 2051 446 2100 
6 262 1037 1086 459 2052 2101 
6 1070 1017 1071 2085 2032 2086 
6 1018 1072 1073 2033 2087 2088 
6 183 182 1107 380 379 2122 
6 269 270 1108 466 467 2123 
6 1023 1067 1129 2038 2082 2144 
6 1011 1057 1110 2026 2072 2125 
6 1012 1058 1111 2027 2073 2126 
6 1081 1024 1128 2096 2039 2143 
6 1059 1007 1100 2074 2022 2115 
6 1060 1008 1099 2075 2023 2114 
6 994 1123 1129 2009 2138 2144 
6 248 249 1132 445 446 2147 
6 262 263 1133 459 460 2148 
6 1125 993 1128 2140 2008 2143 
6 1003 1064 1116 2018 2079 2131 
6 42 266 1078 123 463 2093 
6 10 255 1079 91 452 2094 
6 1055 1012 1113 2070 2027 2128 
6 1004 1088 1112 2019 2103 2127 
6 260 1053 1063 457 2068 2078 
6 1015 1090 1117 2030 2105 2132 
6 1093 1015 1117 2108 2030 2132 
6 273 1033 1096 470 2048 2111 
6 1034 276 1097 2049 473 2112 
6 1052 257 1064 2067 454 2079 
6 1067 1044 1129 2082 2059 2144 
6 1076 995 1126 2091 2010 2141 
6 996 1077 1127 2011 2092 2142 
6 35 256 1085 116 453 2100 
6 261 41 1086 458 122 2101 
6 1012 1080 1113 2027 2095 2128 
6 1088 1038 1112 2103 2053 2127 
6 1034 1068 1106 2049 2083 2121 
6 1069 1033 1105 2084 2048 2120 
6 1054 1011 1103 2069 2026 2118 
6 1075 264 1103 2090 461 2118 
6 279 280 1117 476 477 2132 
6 249 1036 1132 446 2051 2147 
6 1037 262 1133 2052 459 2148 
6 1011 1075 1103 2026 2090 2118 
6 1041 1081 1128 2056 2096 2143 
6 1003 1095 1114 2018 2110 2129 
6 1036 1114 1132 2051 2129 2147 
6 1115 1037 1133 2130 2052 2148 
6 1064 1021 1116 2079 2036 2131 
6 276 1034 1050 473 2049 2065 
6 1033 273 1049 2048 470 2064 
6 1078 266 1135 2093 463 2150 
6 1079 255 1134 2094 452 2149 
6 281 1091 1130 478 2106 2145 
6 1093 280 1131 2108 477 2146 
6 1107 1019 1126 2122 2034 2141 
6 1020 1108 1127 2035 2123 2142 
6 1080 181 1113 2095 378 2128 
6 1090 279 1117 2105 476 2132 
6 280 1093 1117 477 2108 2132 
6 272 46 1073 469 127 2088 
6 47 277 1071 128 474 2086 
6 1095 1027 1114 2110 2042 2129 
6 1094 993 1125 2109 2008 2140 
6 1019 1076 1126 2034 2091 2141 
6 1077 1020 1127 2092 2035 2142 
6 1019 1094 1125 2034 2109 2140 
6 994 1089 1123 2009 2104 2138 
6 1030 1091 1118 2045 2106 2133 
6 1029 1090 1119 2044 2105 2134 
6 1093 1031 1120 2108 2046 2135 
6 1089 1020 1123 2104 2035 2138 
6 1091 1030 1130 2106 2045 2145 
6 1031 1093 1131 2046 2108 2146 
6 1065 1107 1126 2080 2122 2141 
6 1108 1066 1127 2123 2081 2142 
6 995 1065 1126 2010 2080 2141 
6 1066 996 1127 2081 2011 2142 
6 1098 281 1130 2113 478 2145 
6 280 1098 1131 477 2113 2146 
6 1020 1077 1123 2035 2092 2138 
6 1076 1019 1125 2091 2034 2140 
6 1025 1078 1135 2040 2093 2150 
6 1026 1079 1134 2041 2094 2149 
6 1065 183 1107 2080 380 2122 
6 270 1066 1108 467 2081 2123 
6 1033 1049 1105 2048 2064 2120 
6 1050 1034 1106 2065 2049 2121 
6 1114 1027 1132 2129 2042 2147 
6 1028 1115 1133 2043 2130 2148 
6 180 10 1079 377 91 2094 
6 249 35 1085 446 116 2100 
6 41 262 1086 122 459 2101 
6 265 42 1078 462 123 2093 
6 46 276 1050 127 473 2065 
6 46 1050 1073 127 2065 2088 
6 273 47 1049 470 128 2064 
6 1049 47 1071 2064 128 2086 
6 9 183 278 90 380 475 
6 44 271 270 125 468 467 
6 271 45 1072 468 126 2087 
6 48 278 1070 129 475 2085 
6 278 183 1017 475 380 2032 
6 1017 183 1065 2032 380 2080 
6 270 271 1018 467 468 2033 
6 270 1018 1066 467 2033 2081 
6 1018 271 1072 2033 468 2087 
6 278 1017 1070 475 2032 2085 
6 1001 1017 1065 2016 2032 2080 
6 1017 1001 1071 2032 2016 2086 
6 1018 1002 1066 2033 2017 2081 
6 1002 1018 1073 2017 2033 2088 
6 1150 1190 1205 2165 2205 2220 
6 1191 1151 1204 2206 2166 2219 
6 1183 1167 1250 2198 2182 2265 
6 1144 1183 1250 2159 2198 2265 
6 1190 1150 1192 2205 2165 2207 
6 1151 1191 1193 2166 2206 2208 
6 1180 1144 1250 2195 2159 2265 
6 1166 275 1210 2181 472 2225 
6 1175 1158 1187 2190 2173 2202 
6 1159 1174 1188 2174 2189 2203 
6 1176 1161 1189 2191 2176 2204 
6 1170 178 1199 2185 375 2214 
6 287 1171 1200 484 2186 2215 
6 1137 1173 1233 2152 2188 2248 
6 1151 1170 1199 2166 2185 2214 
6 1171 1150 1200 2186 2165 2215 
6 1155 1226 1227 2170 2241 2242 
6 1174 1142 1188 2189 2157 2203 
6 1145 1175 1187 2160 2190 2202 
6 1143 1176 1189 2158 2191 2204 
6 1144 1180 1206 2159 2195 2221 
6 1234 1185 1252 2249 2200 2267 
6 1184 1235 1251 2199 2250 2266 
6 1166 1180 1250 2181 2195 2265 
6 1174 1159 1244 2189 2174 2259 
6 1167 1209 1228 2182 2224 2243 
6 1161 1176 1245 2176 2191 2260 
6 1150 1171 1192 2165 2186 2207 
6 1170 1151 1193 2185 2166 2208 
6 1197 283 1230 2212 480 2245 
6 282 1198 1229 479 2213 2244 
6 1177 1144 1206 2192 2159 2221 
6 1173 1137 1232 2188 2152 2247 
6 1148 1181 1198 2163 2196 2213 
6 1182 1149 1197 2197 2164 2212 
6 1209 274 1228 2224 471 2243 
6 1139 1185 1234 2154 2200 2249 
6 1184 1138 1235 2199 2153 2250 
6 1180 1136 1206 2195 2151 2221 
6 275 1166 1228 472 2181 2243 
6 1137 1188 1232 2152 2203 2247 
6 1187 1136 1231 2202 2151 2246 
6 1232 1188 1249 2247 2203 2264 
6 1187 1231 1248 2202 2246 2263 
6 1191 1152 1208 2206 2167 2223 
6 1153 1190 1207 2168 2205 2222 
6 1206 1136 1270 2221 2151 2285 
6 60 306 1244 141 503 2259 
6 307 308 1245 504 505 2260 
6 1199 178 1247 2214 375 2262 
6 287 1200 1246 484 2215 2261 
6 308 1237 1245 505 2252 2260 
6 1238 60 1244 2253 141 2259 
6 1146 1140 1211 2161 2155 2226 
6 1141 1147 1212 2156 2162 2227 
6 1196 1155 1227 2211 2170 2242 
6 1140 1146 1254 2155 2161 2269 
6 1147 1141 1255 2162 2156 2270 
6 1153 1234 1252 2168 2249 2267 
6 1235 1152 1251 2250 2167 2266 
6 47 273 1198 128 470 2213 
6 276 46 1197 473 127 2212 
6 1140 1214 1222 2155 2229 2237 
6 1215 1141 1223 2230 2156 2238 
6 1158 1177 1206 2173 2192 2221 
6 52 289 1192 133 486 2207 
6 301 59 1193 498 140 2208 
6 1158 1175 1275 2173 2190 2290 
6 1177 1158 1276 2192 2173 2291 
6 1190 1153 1205 2205 2168 2220 
6 1152 1191 1204 2167 2206 2219 
6 54 294 1216 135 491 2231 
6 299 57 1218 496 138 2233 
6 1154 1168 1214 2169 2183 2229 
6 1169 1155 1215 2184 2170 2230 
6 1144 1177 1203 2159 2192 2218 
6 1226 1143 1227 2241 2158 2242 
6 1183 1144 1203 2198 2159 2218 
6 1148 1198 1209 2163 2213 2224 
6 46 283 1197 127 480 2212 
6 282 47 1198 479 128 2213 
6 1159 1188 1253 2174 2203 2268 
6 1136 1180 1240 2151 2195 2255 
6 1168 1154 1213 2183 2169 2228 
6 1193 59 1279 2208 140 2294 
6 52 1192 1280 133 2207 2295 
6 1197 1149 1210 2212 2164 2225 
6 1151 1199 1201 2166 2214 2216 
6 1200 1150 1202 2215 2165 2217 
6 1196 1154 1241 2211 2169 2256 
6 1155 1196 1242 2170 2211 2257 
6 1160 1186 1266 2175 2201 2281 
6 1214 1178 1241 2229 2193 2256 
6 1179 1215 1242 2194 2230 2257 
6 1155 1169 1226 2170 2184 2241 
6 1154 1214 1241 2169 2229 2256 
6 1215 1155 1242 2230 2170 2257 
6 1180 1166 1261 2195 2181 2276 
6 1164 1207 1256 2179 2222 2271 
6 1208 1165 1257 2223 2180 2272 
6 1137 1183 1253 2152 2198 2268 
6 302 1191 1208 499 2206 2223 
6 1190 290 1207 2205 487 2222 
6 1143 1189 1213 2158 2204 2228 
6 1149 1240 1261 2164 2255 2276 
6 1167 1183 1258 2182 2198 2273 
6 1188 1137 1253 2203 2152 2268 
6 1183 1137 1233 2198 2152 2248 
6 1151 1201 1204 2166 2216 2219 
6 1202 1150 1205 2217 2165 2220 
6 1186 1160 1265 2201 2175 2280 
6 1221 1172 1278 2236 2187 2293 
6 1173 1220 1277 2188 2235 2292 
6 1138 1184 1266 2153 2199 2281 
6 1185 1139 1267 2200 2154 2282 
6 1240 1180 1261 2255 2195 2276 
6 275 276 1210 472 473 2225 
6 273 274 1209 470 471 2224 
6 1231 1136 1240 2246 2151 2255 
6 1142 1174 1263 2157 2189 2278 
6 1175 1145 1264 2190 2160 2279 
6 1176 1143 1265 2191 2158 2280 
6 1189 1161 1267 2204 2176 2282 
6 1266 1186 1273 2281 2201 2288 
6 59 305 1279 140 502 2294 
6 288 52 1280 485 133 2295 
6 1186 1143 1226 2201 2158 2241 
6 1153 1207 1234 2168 2222 2249 
6 1208 1152 1235 2223 2167 2250 
6 1154 1196 1227 2169 2211 2242 
6 1188 1142 1249 2203 2157 2264 
6 1145 1187 1248 2160 2202 2263 
6 289 290 1190 486 487 2205 
6 302 301 1191 499 498 2206 
6 1207 291 1256 2222 488 2271 
6 303 1208 1257 500 2223 2272 
6 296 297 1196 493 494 2211 
6 1189 1267 1274 2204 2282 2289 
6 1220 176 1277 2235 373 2292 
6 285 1221 1278 482 2236 2293 
6 1267 1139 1274 2282 2154 2289 
6 1187 1158 1270 2202 2173 2285 
6 1172 1231 1240 2187 2246 2255 
6 1184 1142 1263 2199 2157 2278 
6 1145 1185 1264 2160 2200 2279 
6 1143 1186 1265 2158 2201 2280 
6 1138 1266 1273 2153 2281 2288 
6 1145 1202 1205 2160 2217 2220 
6 1201 1142 1204 2216 2157 2219 
6 1263 1160 1266 2278 2175 2281 
6 1161 1264 1267 2176 2279 2282 
6 296 1196 1241 493 2211 2256 
6 1196 297 1242 2211 494 2257 
6 1207 1164 1234 2222 2179 2249 
6 1165 1208 1235 2180 2223 2250 
6 178 177 1247 375 374 2262 
6 286 287 1246 483 484 2261 
6 1233 1173 1259 2248 2188 2274 
6 1159 1203 1238 2174 2218 2253 
6 1142 1184 1251 2157 2199 2266 
6 1185 1145 1252 2200 2160 2267 
6 1214 1140 1254 2229 2155 2269 
6 1141 1215 1255 2156 2230 2270 
6 1169 1269 1273 2184 2284 2288 
6 1214 1168 1222 2229 2183 2237 
6 1169 1215 1223 2184 2230 2238 
6 306 1236 1244 503 2251 2259 
6 1239 307 1245 2254 504 2260 
6 1194 1146 1217 2209 2161 2232 
6 1147 1195 1219 2162 2210 2234 
6 1268 1168 1274 2283 2183 2289 
6 1203 1177 1238 2218 2192 2253 
6 1199 1156 1201 2214 2171 2216 
6 1157 1200 1202 2172 2215 2217 
6 1136 1187 1270 2151 2202 2285 
6 289 1190 1192 486 2205 2207 
6 1191 301 1193 2206 498 2208 
6 1183 1203 1253 2198 2218 2268 
6 1143 1213 1227 2158 2228 2242 
6 290 291 1207 487 488 2222 
6 303 302 1208 500 499 2223 
6 1156 1232 1249 2171 2247 2264 
6 1231 1157 1248 2246 2172 2263 
6 1222 1168 1268 2237 2183 2283 
6 1169 1223 1269 2184 2238 2284 
6 1145 1205 1252 2160 2220 2267 
6 1204 1142 1251 2219 2157 2266 
6 1243 1158 1275 2258 2173 2290 
6 1158 1243 1276 2173 2258 2291 
6 1213 1154 1227 2228 2169 2242 
6 1216 294 1217 2231 491 2232 
6 299 1218 1219 496 2233 2234 
6 1182 1197 1230 2197 2212 2245 
6 1198 1181 1229 2213 2196 2244 
6 1167 1228 1250 2182 2243 2265 
6 177 176 1220 374 373 2235 
6 285 286 1221 482 483 2236 
6 1237 1161 1245 2252 2176 2260 
6 1159 1238 1244 2174 2253 2259 
6 1236 1160 1263 2251 2175 2278 
6 1161 1237 1264 2176 2252 2279 
6 1160 1239 1265 2175 2254 2280 
6 1236 1174 1244 2251 2189 2259 
6 1176 1239 1245 2191 2254 2260 
6 1171 287 1224 2186 484 2239 
6 178 1170 1225 375 2185 2240 
6 1148 1209 1258 2163 2224 2273 
6 274 275 1228 471 472 2243 
6 1184 1263 1266 2199 2278 2281 
6 1264 1185 1267 2279 2200 2282 
6 1228 1166 1250 2243 2181 2265 
6 1146 1194 1254 2161 2209 2269 
6 1195 1147 1255 2210 2162 2270 
6 1148 1233 1259 2163 2248 2274 
6 1172 1221 1231 2187 2236 2246 
6 1220 1173 1232 2235 2188 2247 
6 1209 1167 1258 2224 2182 2273 
6 1203 1159 1253 2218 2174 2268 
6 1221 1157 1231 2236 2172 2246 
6 1156 1220 1232 2171 2235 2247 
6 308 60 1243 505 141 2258 
6 1202 1145 1248 2217 2160 2263 
6 1142 1201 1249 2157 2216 2264 
6 1192 1171 1280 2207 2186 2295 
6 1170 1193 1279 2185 2208 2294 
6 295 296 1241 492 493 2256 
6 297 298 1242 494 495 2257 
6 1181 1148 1259 2196 2163 2274 
6 1149 1182 1260 2164 2197 2275 
6 1181 175 1229 2196 372 2244 
6 284 1182 1230 481 2197 2245 
6 1162 1216 1217 2177 2231 2232 
6 1218 1163 1219 2233 2178 2234 
6 291 292 1256 488 489 2271 
6 304 303 1257 501 500 2272 
6 1168 1213 1274 2183 2228 2289 
6 1201 1156 1249 2216 2171 2264 
6 1157 1202 1248 2172 2217 2263 
6 1269 1138 1273 2284 2153 2288 
6 1158 1206 1270 2173 2221 2285 
6 1226 1169 1273 2241 2184 2288 
6 1139 1268 1274 2154 2283 2289 
6 284 285 1278 481 482 2293 
6 176 175 1277 373 372 2292 
6 1210 1149 1261 2225 2164 2276 
6 51 288 1224 132 485 2239 
6 305 7 1225 502 88 2240 
6 1233 1148 1258 2248 2163 2273 
6 1198 273 1209 2213 470 2224 
6 1160 1236 1262 2175 2251 2277 
6 1239 1160 1262 2254 2175 2277 
6 1178 295 1241 2193 492 2256 
6 298 1179 1242 495 2194 2257 
6 276 1197 1210 473 2212 2225 
6 1152 1204 1251 2167 2219 2266 
6 1205 1153 1252 2220 2168 2267 
6 1213 1189 1274 2228 2204 2289 
6 1140 1222 1271 2155 2237 2286 
6 1223 1141 1272 2238 2156 2287 
6 8 282 1229 89 479 2244 
6 283 50 1230 480 131 2245 
6 1183 1233 1258 2198 2248 2273 
6 1178 1214 1254 2193 2229 2269 
6 1215 1179 1255 2230 2194 2270 
6 1200 1157 1246 2215 2172 2261 
6 1156 1199 1247 2171 2214 2262 
6 177 1220 1247 374 2235 2262 
6 1221 286 1246 2236 483 2261 
6 306 307 1262 503 504 2277 
6 175 1181 1277 372 2196 2292 
6 1182 284 1278 2197 481 2293 
6 1157 1221 1246 2172 2236 2261 
6 1220 1156 1247 2235 2171 2262 
6 1186 1226 1273 2201 2241 2288 
6 1240 1149 1260 2255 2164 2275 
6 1181 1259 1277 2196 2274 2292 
6 1260 1182 1278 2275 2197 2293 
6 1166 1210 1261 2181 2225 2276 
6 295 1178 1194 492 2193 2209 
6 1179 298 1195 2194 495 2210 
6 1224 288 1280 2239 485 2295 
6 305 1225 1279 502 2240 2294 
6 1237 308 1275 2252 505 2290 
6 60 1238 1276 141 2253 2291 
6 1164 1256 1271 2179 2271 2286 
6 1257 1165 1272 2272 2180 2287 
6 1236 306 1262 2251 503 2277 
6 307 1239 1262 504 2254 2277 
6 56 299 1219 137 496 2234 
6 294 55 1217 491 136 2232 
6 1172 1240 1260 2187 2255 2275 
6 1222 1164 1271 2237 2179 2286 
6 1165 1223 1272 2180 2238 2287 
6 1139 1234 1268 2154 2249 2283 
6 1235 1138 1269 2250 2153 2284 
6 1174 1236 1263 2189 2251 2278 
6 1237 1175 1264 2252 2190 2279 
6 1239 1176 1265 2254 2191 2280 
6 1234 1164 1268 2249 2179 2283 
6 1165 1235 1269 2180 2250 2284 
6 1175 1237 1275 2190 2252 2290 
6 1238 1177 1276 2253 2192 2291 
6 1256 1211 1271 2271 2226 2286 
6 1212 1257 1272 2227 2272 2287 
6 1211 1140 1271 2226 2155 2286 
6 1141 1212 1272 2156 2227 2287 
6 308 1243 1275 505 2258 2290 
6 1243 60 1276 2258 141 2291 
6 1164 1222 1268 2179 2237 2283 
6 1223 1165 1269 2238 2180 2284 
6 1225 1170 1279 2240 2185 2294 
6 1171 1224 1280 2186 2239 2295 
6 292 1211 1256 489 2226 2271 
6 1212 304 1257 2227 501 2272 
6 1194 1178 1254 2209 2193 2269 
6 1179 1195 1255 2194 2210 2270 
6 1259 1173 1277 2274 2188 2292 
6 1172 1260 1278 2187 2275 2293 
6 7 178 1225 88 375 2240 
6 175 8 1229 372 89 2244 
6 50 284 1230 131 481 2245 
6 287 51 1224 484 132 2239 
6 55 295 1194 136 492 2209 
6 55 1194 1217 136 2209 2232 
6 298 56 1195 495 137 2210 
6 1195 56 1219 2210 137 2234 
6 53 293 292 134 490 489 
6 293 54 1216 490 135 2231 
6 57 300 1218 138 497 2233 
6 58 304 300 139 501 497 
6 292 293 1162 489 490 2177 
6 292 1162 1211 489 2177 2226 
6 1162 293 1216 2177 490 2231 
6 300 304 1163 497 501 2178 
6 300 1163 1218 497 2178 2233 
6 1163 304 1212 2178 501 2227 
6 1162 1146 1211 2177 2161 2226 
6 1146 1162 1217 2161 2177 2232 
6 1147 1163 1212 2162 2178 2227 
6 1163 1147 1219 2178 2162 2234 
6 1374 1333 1389 2389 2348 2404 
6 1295 1335 1350 2310 2350 2365 
6 1296 1336 1349 2311 2351 2364 
6 1328 1312 1394 2343 2327 2409 
6 1289 1328 1394 2304 2343 2409 
6 1335 1295 1337 2350 2310 2352 
6 1336 1296 1338 2351 2311 2353 
6 1325 1289 1394 2340 2304 2409 
6 1311 170 1355 2326 367 2370 
6 1305 1319 1333 2320 2334 2348 
6 1320 1303 1332 2335 2318 2347 
6 1321 1306 1334 2336 2321 2349 
6 304 1315 1344 501 2330 2359 
6 326 1316 1345 523 2331 2360 
6 1297 1374 1389 2312 2389 2404 
6 1297 1336 1351 2312 2351 2366 
6 1315 1295 1344 2330 2310 2359 
6 1316 1296 1345 2331 2311 2360 
6 1358 1300 1372 2373 2315 2387 
6 1319 1287 1333 2334 2302 2348 
6 1290 1320 1332 2305 2335 2347 
6 1288 1321 1334 2303 2336 2349 
6 1283 1333 1374 2298 2348 2389 
6 1289 1325 1352 2304 2340 2367 
6 1283 1374 1378 2298 2389 2393 
6 1379 1330 1395 2394 2345 2410 
6 1311 1325 1394 2326 2340 2409 
6 1319 1305 1390 2334 2320 2405 
6 1312 1354 1373 2327 2369 2388 
6 1306 1321 1391 2321 2336 2406 
6 1295 1315 1337 2310 2330 2352 
6 1296 1316 1338 2311 2331 2353 
6 332 1343 1375 529 2358 2390 
6 1342 309 1376 2357 506 2391 
6 1322 1289 1352 2337 2304 2367 
6 1374 1318 1378 2389 2333 2393 
6 1293 1327 1343 2308 2342 2358 
6 1326 1294 1342 2341 2309 2357 
6 1354 171 1373 2369 368 2388 
6 1284 1330 1379 2299 2345 2394 
6 1325 1281 1352 2340 2296 2367 
6 170 1311 1373 367 2326 2388 
6 1332 1281 1377 2347 2296 2392 
6 1332 1377 1393 2347 2392 2408 
6 1298 1335 1353 2313 2350 2368 
6 1352 1281 1414 2367 2296 2429 
6 71 333 1390 152 530 2405 
6 334 335 1391 531 532 2406 
6 304 1344 1392 501 2359 2407 
6 335 1381 1391 532 2396 2406 
6 1382 71 1390 2397 152 2405 
6 1285 1291 1356 2300 2306 2371 
6 1292 1286 1357 2307 2301 2372 
6 1300 1341 1372 2315 2356 2387 
6 1291 1285 1397 2306 2300 2412 
6 1286 1292 1398 2301 2307 2413 
6 1298 1379 1395 2313 2394 2410 
6 4 172 1343 85 369 2358 
6 169 5 1342 366 86 2357 
6 1359 1285 1366 2374 2300 2381 
6 1286 1360 1367 2301 2375 2382 
6 1303 1322 1352 2318 2337 2367 
6 69 331 1338 150 528 2353 
6 61 311 1337 142 508 2352 
6 1329 1282 1384 2344 2297 2399 
6 1303 1320 1420 2318 2335 2435 
6 1322 1303 1421 2337 2318 2436 
6 1335 1298 1350 2350 2313 2365 
6 1336 1297 1349 2351 2312 2364 
6 321 66 1361 518 147 2376 
6 63 316 1363 144 513 2378 
6 1336 330 1351 2351 527 2366 
6 1313 1299 1359 2328 2314 2374 
6 1300 1314 1360 2315 2329 2375 
6 1318 1351 1422 2333 2366 2437 
6 326 1345 1403 523 2360 2418 
6 1289 1322 1348 2304 2337 2363 
6 1328 1289 1348 2343 2304 2363 
6 1293 1343 1354 2308 2358 2369 
6 5 309 1342 86 506 2357 
6 332 4 1343 529 85 2358 
6 1305 1333 1396 2320 2348 2411 
6 1281 1325 1385 2296 2340 2400 
6 1314 1300 1358 2329 2315 2373 
6 61 1337 1424 142 2352 2439 
6 69 1338 1425 150 2353 2440 
6 1342 1294 1355 2357 2309 2370 
6 1344 1295 1346 2359 2310 2361 
6 1345 1296 1347 2360 2311 2362 
6 1299 1341 1386 2314 2356 2401 
6 1341 1300 1387 2356 2315 2402 
6 1304 1331 1411 2319 2346 2426 
6 1288 1358 1372 2303 2373 2387 
6 1323 1359 1386 2338 2374 2401 
6 1360 1324 1387 2375 2339 2402 
6 1299 1313 1371 2314 2328 2386 
6 1329 1384 1401 2344 2399 2416 
6 1359 1299 1386 2374 2314 2401 
6 1300 1360 1387 2315 2375 2402 
6 1325 1311 1406 2340 2326 2421 
6 1310 1353 1400 2325 2368 2415 
6 1283 1328 1396 2298 2343 2411 
6 1351 329 1422 2366 526 2437 
6 1335 312 1353 2350 509 2368 
6 1288 1334 1358 2303 2349 2373 
6 1294 1385 1406 2309 2400 2421 
6 1312 1328 1402 2327 2343 2417 
6 1333 1283 1396 2348 2298 2411 
6 1328 1283 1378 2343 2298 2393 
6 1347 1296 1349 2362 2311 2364 
6 1346 1295 1350 2361 2310 2365 
6 1331 1304 1410 2346 2319 2425 
6 1365 1317 1423 2380 2332 2438 
6 1282 1329 1411 2297 2344 2426 
6 1330 1284 1412 2345 2299 2427 
6 1385 1325 1406 2400 2340 2421 
6 170 169 1355 367 366 2370 
6 172 171 1354 369 368 2369 
6 1333 1287 1389 2348 2302 2404 
6 1377 1281 1385 2392 2296 2400 
6 1287 1319 1409 2302 2334 2424 
6 1320 1290 1408 2335 2305 2423 
6 1321 1288 1410 2336 2303 2425 
6 1334 1306 1412 2349 2321 2427 
6 1411 1331 1418 2426 2346 2433 
6 310 61 1424 507 142 2439 
6 327 69 1425 524 150 2440 
6 1331 1288 1371 2346 2303 2386 
6 1298 1353 1379 2313 2368 2394 
6 1341 1299 1372 2356 2314 2387 
6 1290 1332 1393 2305 2347 2408 
6 311 312 1335 508 509 2350 
6 331 330 1336 528 527 2351 
6 1370 1309 1399 2385 2324 2414 
6 1353 313 1400 2368 510 2415 
6 1297 1351 1374 2312 2366 2389 
6 318 319 1341 515 516 2356 
6 1334 1412 1419 2349 2427 2434 
6 302 1365 1423 499 2380 2438 
6 1412 1284 1419 2427 2299 2434 
6 1332 1303 1414 2347 2318 2429 
6 1317 1377 1385 2332 2392 2400 
6 1329 1287 1409 2344 2302 2424 
6 1290 1330 1408 2305 2345 2423 
6 1288 1331 1410 2303 2346 2425 
6 1282 1411 1418 2297 2426 2433 
6 1290 1346 1350 2305 2361 2365 
6 1287 1347 1349 2302 2362 2364 
6 1409 1304 1411 2424 2319 2426 
6 1306 1408 1412 2321 2423 2427 
6 1341 319 1386 2356 516 2401 
6 318 1341 1387 515 2356 2402 
6 1353 1310 1379 2368 2325 2394 
6 303 304 1392 500 501 2407 
6 1378 1318 1405 2393 2333 2420 
6 1305 1348 1382 2320 2363 2397 
6 1330 1290 1395 2345 2305 2410 
6 1285 1359 1397 2300 2374 2412 
6 1360 1286 1398 2375 2301 2413 
6 1313 1359 1366 2328 2374 2381 
6 1360 1314 1367 2375 2329 2382 
6 333 1380 1390 530 2395 2405 
6 1383 334 1391 2398 531 2406 
6 1287 1329 1401 2302 2344 2416 
6 1291 1339 1362 2306 2354 2377 
6 1340 1292 1364 2355 2307 2379 
6 1413 1314 1419 2428 2329 2434 
6 1348 1322 1382 2363 2337 2397 
6 1371 1288 1372 2386 2303 2387 
6 1301 1344 1346 2316 2359 2361 
6 1302 1345 1347 2317 2360 2362 
6 1281 1332 1414 2296 2347 2429 
6 324 1370 1399 521 2385 2414 
6 1313 1415 1418 2328 2430 2433 
6 330 329 1351 527 526 2366 
6 311 1335 1337 508 2350 2352 
6 331 1336 1338 528 2351 2353 
6 1309 1370 1384 2324 2385 2399 
6 1351 1318 1374 2366 2333 2389 
6 1328 1348 1396 2343 2363 2411 
6 312 313 1353 509 510 2368 
6 1377 1301 1393 2392 2316 2408 
6 1287 1349 1389 2302 2364 2404 
6 1367 1314 1413 2382 2329 2428 
6 1290 1350 1395 2305 2365 2410 
6 325 326 1403 522 523 2418 
6 1388 1303 1420 2403 2318 2435 
6 1303 1388 1421 2318 2403 2436 
6 1313 1366 1415 2328 2381 2430 
6 1299 1371 1372 2314 2386 2387 
6 321 1361 1362 518 2376 2377 
6 1363 316 1364 2378 513 2379 
6 1370 1302 1384 2385 2317 2399 
6 1343 1327 1375 2358 2342 2390 
6 1326 1342 1376 2341 2357 2391 
6 1312 1373 1394 2327 2388 2409 
6 302 303 1365 499 500 2380 
6 1381 1306 1391 2396 2321 2406 
6 1305 1382 1390 2320 2397 2405 
6 1380 1304 1409 2395 2319 2424 
6 1306 1381 1408 2321 2396 2423 
6 1304 1383 1410 2319 2398 2425 
6 324 325 1370 521 522 2385 
6 1380 1319 1390 2395 2334 2405 
6 1321 1383 1391 2336 2398 2406 
6 1315 304 1368 2330 501 2383 
6 1316 326 1369 2331 523 2384 
6 1293 1354 1402 2308 2369 2417 
6 171 170 1373 368 367 2388 
6 1408 1330 1412 2423 2345 2427 
6 1329 1409 1411 2344 2424 2426 
6 1373 1311 1394 2388 2326 2409 
6 1384 1302 1401 2399 2317 2416 
6 1339 1291 1397 2354 2306 2412 
6 1292 1340 1398 2307 2355 2413 
6 1293 1378 1405 2308 2393 2420 
6 1317 1365 1377 2332 2380 2392 
6 1354 1312 1402 2369 2327 2417 
6 1348 1305 1396 2363 2320 2411 
6 1365 1301 1377 2380 2316 2392 
6 335 71 1388 532 152 2403 
6 1346 1290 1393 2361 2305 2408 
6 1347 1287 1401 2362 2302 2416 
6 1337 1315 1424 2352 2330 2439 
6 1338 1316 1425 2353 2331 2440 
6 319 320 1386 516 517 2401 
6 317 318 1387 514 515 2402 
6 1327 1293 1405 2342 2308 2420 
6 1294 1326 1404 2309 2341 2419 
6 1327 328 1375 2342 525 2390 
6 301 1326 1376 498 2341 2391 
6 1361 1307 1362 2376 2322 2377 
6 1308 1363 1364 2323 2378 2379 
6 323 324 1399 520 521 2414 
6 313 314 1400 510 511 2415 
6 1314 1358 1419 2329 2373 2434 
6 1301 1346 1393 2316 2361 2408 
6 1302 1347 1401 2317 2362 2416 
6 1303 1352 1414 2318 2367 2429 
6 1371 1313 1418 2386 2328 2433 
6 1349 1297 1389 2364 2312 2404 
6 1284 1413 1419 2299 2428 2434 
6 301 302 1423 498 499 2438 
6 329 328 1422 526 525 2437 
6 1415 1282 1418 2430 2297 2433 
6 1355 1294 1406 2370 2309 2421 
6 58 310 1368 139 507 2383 
6 68 327 1369 149 524 2384 
6 1345 1302 1403 2360 2317 2418 
6 1378 1293 1402 2393 2308 2417 
6 1343 172 1354 2358 369 2369 
6 1304 1380 1407 2319 2395 2422 
6 1383 1304 1407 2398 2319 2422 
6 320 1323 1386 517 2338 2401 
6 1324 317 1387 2339 514 2402 
6 169 1342 1355 366 2357 2370 
6 1350 1298 1395 2365 2313 2410 
6 1358 1334 1419 2373 2349 2434 
6 1366 1285 1416 2381 2300 2431 
6 1286 1367 1417 2301 2382 2432 
6 70 332 1375 151 529 2390 
6 309 59 1376 506 140 2391 
6 1302 1370 1403 2317 2385 2418 
6 1328 1378 1402 2343 2393 2417 
6 1359 1323 1397 2374 2338 2412 
6 1324 1360 1398 2339 2375 2413 
6 1344 1301 1392 2359 2316 2407 
6 1365 303 1392 2380 500 2407 
6 333 334 1407 530 531 2422 
6 328 1327 1422 525 2342 2437 
6 1326 301 1423 2341 498 2438 
6 1301 1365 1392 2316 2380 2407 
6 1331 1371 1418 2346 2386 2433 
6 1385 1294 1404 2400 2309 2419 
6 1327 1405 1422 2342 2420 2437 
6 1404 1326 1423 2419 2341 2438 
6 1311 1355 1406 2326 2370 2421 
6 1323 320 1339 2338 517 2354 
6 317 1324 1340 514 2339 2355 
6 1368 310 1424 2383 507 2439 
6 1369 327 1425 2384 524 2440 
6 1381 335 1420 2396 532 2435 
6 71 1382 1421 152 2397 2436 
6 1399 1309 1416 2414 2324 2431 
6 1310 1400 1417 2325 2415 2432 
6 1370 325 1403 2385 522 2418 
6 1380 333 1407 2395 530 2422 
6 334 1383 1407 531 2398 2422 
6 316 64 1364 513 145 2379 
6 65 321 1362 146 518 2377 
6 1317 1385 1404 2332 2400 2419 
6 1384 1282 1415 2399 2297 2430 
6 1309 1366 1416 2324 2381 2431 
6 1367 1310 1417 2382 2325 2432 
6 1309 1384 1415 2324 2399 2430 
6 1284 1379 1413 2299 2394 2428 
6 1319 1380 1409 2334 2395 2424 
6 1381 1320 1408 2396 2335 2423 
6 1383 1321 1410 2398 2336 2425 
6 1379 1310 1413 2394 2325 2428 
6 1320 1381 1420 2335 2396 2435 
6 1382 1322 1421 2397 2337 2436 
6 1356 1399 1416 2371 2414 2431 
6 1400 1357 1417 2415 2372 2432 
6 1285 1356 1416 2300 2371 2431 
6 1357 1286 1417 2372 2301 2432 
6 335 1388 1420 532 2403 2435 
6 1388 71 1421 2403 152 2436 
6 1310 1367 1413 2325 2382 2428 
6 1366 1309 1415 2381 2324 2430 
6 1315 1368 1424 2330 2383 2439 
6 1316 1369 1425 2331 2384 2440 
6 1356 323 1399 2371 520 2414 
6 314 1357 1400 511 2372 2415 
6 1323 1339 1397 2338 2354 2412 
6 1340 1324 1398 2355 2339 2413 
6 1317 1404 1423 2332 2419 2438 
6 1405 1318 1422 2420 2333 2437 
6 304 58 1368 501 139 2383 
6 59 301 1376 140 498 2391 
6 64 317 1340 145 514 2355 
6 64 1340 1364 145 2355 2379 
6 320 65 1339 517 146 2354 
6 1339 65 1362 2354 146 2377 
6 326 68 1369 523 149 2384 
6 328 70 1375 525 151 2390 
6 62 315 314 143 512 511 
6 315 63 1363 512 144 2378 
6 66 322 1361 147 519 2376 
6 67 323 322 148 520 519 
6 314 315 1308 511 512 2323 
6 314 1308 1357 511 2323 2372 
6 1308 315 1363 2323 512 2378 
6 322 323 1307 519 520 2322 
6 322 1307 1361 519 2322 2376 
6 1307 323 1356 2322 520 2371 
6 1291 1307 1356 2306 2322 2371 
6 1307 1291 1362 2322 2306 2377 
6 1308 1292 1357 2323 2307 2372 
6 1292 1308 1364 2307 2323 2379 
6 1519 1478 1534 2534 2493 2549 
6 1440 1480 1495 2455 2495 2510 
6 1441 1481 1494 2456 2496 2509 
6 1473 1457 1539 2488 2472 2554 
6 1434 1473 1539 2449 2488 2554 
6 1480 1440 1483 2495 2455 2498 
6 1481 1441 1482 2496 2456 2497 
6 1470 1434 1539 2485 2449 2554 
6 1456 200 1500 2471 397 2515 
6 1449 1464 1478 2464 2479 2493 
6 1465 1448 1477 2480 2463 2492 
6 1466 1451 1479 2481 2466 2494 
6 163 1460 1489 360 2475 2504 
6 348 1461 1490 545 2476 2505 
6 1442 1519 1534 2457 2534 2549 
6 1442 1481 1496 2457 2496 2511 
6 1461 1441 1490 2476 2456 2505 
6 1460 1440 1489 2475 2455 2504 
6 1445 1516 1517 2460 2531 2532 
6 1464 1432 1478 2479 2447 2493 
6 1435 1465 1477 2450 2480 2492 
6 1433 1466 1479 2448 2481 2494 
6 1427 1478 1519 2442 2493 2534 
6 1434 1470 1497 2449 2485 2512 
6 1427 1519 1523 2442 2534 2538 
6 1524 1475 1540 2539 2490 2555 
6 1456 1470 1539 2471 2485 2554 
6 1464 1449 1535 2479 2464 2550 
6 1457 1499 1518 2472 2514 2533 
6 1451 1466 1536 2466 2481 2551 
6 1440 1460 1483 2455 2475 2498 
6 1441 1461 1482 2456 2476 2497 
6 1487 355 1521 2502 552 2536 
6 354 1488 1520 551 2503 2535 
6 1467 1434 1497 2482 2449 2512 
6 1519 1463 1523 2534 2478 2538 
6 1438 1471 1488 2453 2486 2503 
6 1472 1439 1487 2487 2454 2502 
6 1499 201 1518 2514 398 2533 
6 1429 1475 1524 2444 2490 2539 
6 1470 1426 1497 2485 2441 2512 
6 200 1456 1518 397 2471 2533 
6 1477 1426 1522 2492 2441 2537 
6 1477 1522 1538 2492 2537 2553 
6 1443 1480 1498 2458 2495 2513 
6 1497 1426 1559 2512 2441 2574 
6 80 356 1535 161 553 2550 
6 357 358 1536 554 555 2551 
6 163 1489 1537 360 2504 2552 
6 358 1526 1536 555 2541 2551 
6 1527 80 1535 2542 161 2550 
6 1436 1430 1501 2451 2445 2516 
6 1431 1437 1502 2446 2452 2517 
6 1486 1445 1517 2501 2460 2532 
6 1430 1436 1542 2445 2451 2557 
6 1437 1431 1543 2452 2446 2558 
6 1443 1524 1540 2458 2539 2555 
6 199 16 1487 396 97 2502 
6 17 202 1488 98 399 2503 
6 1430 1504 1511 2445 2519 2526 
6 1505 1431 1512 2520 2446 2527 
6 1448 1467 1497 2463 2482 2512 
6 70 328 1483 151 525 2498 
6 78 350 1482 159 547 2497 
6 1474 1428 1529 2489 2443 2544 
6 1448 1465 1565 2463 2480 2580 
6 1467 1448 1566 2482 2463 2581 
6 1480 1443 1495 2495 2458 2510 
6 1481 1442 1494 2496 2457 2509 
6 72 338 1506 153 535 2521 
6 343 75 1508 540 156 2523 
6 1481 351 1496 2496 548 2511 
6 1444 1458 1504 2459 2473 2519 
6 1459 1445 1505 2474 2460 2520 
6 1463 1496 1567 2478 2511 2582 
6 348 1490 1548 545 2505 2563 
6 1434 1467 1493 2449 2482 2508 
6 1516 1433 1517 2531 2448 2532 
6 1473 1434 1493 2488 2449 2508 
6 1438 1488 1499 2453 2503 2514 
6 354 17 1488 551 98 2503 
6 16 355 1487 97 552 2502 
6 1449 1478 1541 2464 2493 2556 
6 1426 1470 1530 2441 2485 2545 
6 1458 1444 1503 2473 2459 2518 
6 78 1482 1569 159 2497 2584 
6 70 1483 1570 151 2498 2585 
6 1487 1439 1500 2502 2454 2515 
6 1489 1440 1491 2504 2455 2506 
6 1490 1441 1492 2505 2456 2507 
6 1486 1444 1531 2501 2459 2546 
6 1445 1486 1532 2460 2501 2547 
6 1450 1476 1556 2465 2491 2571 
6 1504 1468 1531 2519 2483 2546 
6 1469 1505 1532 2484 2520 2547 
6 1445 1459 1516 2460 2474 2531 
6 1474 1529 1546 2489 2544 2561 
6 1444 1504 1531 2459 2519 2546 
6 1505 1445 1532 2520 2460 2547 
6 1470 1456 1551 2485 2471 2566 
6 1454 1498 1544 2469 2513 2559 
6 1427 1473 1541 2442 2488 2556 
6 1496 352 1567 2511 549 2582 
6 1480 329 1498 2495 526 2513 
6 1433 1479 1503 2448 2494 2518 
6 1439 1530 1551 2454 2545 2566 
6 1457 1473 1547 2472 2488 2562 
6 1478 1427 1541 2493 2442 2556 
6 1473 1427 1523 2488 2442 2538 
6 1492 1441 1494 2507 2456 2509 
6 1491 1440 1495 2506 2455 2510 
6 1476 1450 1555 2491 2465 2570 
6 1510 1462 1568 2525 2477 2583 
6 1428 1474 1556 2443 2489 2571 
6 1475 1429 1557 2490 2444 2572 
6 1530 1470 1551 2545 2485 2566 
6 200 199 1500 397 396 2515 
6 202 201 1499 399 398 2514 
6 1478 1432 1534 2493 2447 2549 
6 1522 1426 1530 2537 2441 2545 
6 1432 1464 1553 2447 2479 2568 
6 1465 1435 1554 2480 2450 2569 
6 1466 1433 1555 2481 2448 2570 
6 1479 1451 1557 2494 2466 2572 
6 1556 1476 1563 2571 2491 2578 
6 349 78 1569 546 159 2584 
6 336 70 1570 533 151 2585 
6 1476 1433 1516 2491 2448 2531 
6 1443 1498 1524 2458 2513 2539 
6 1444 1486 1517 2459 2501 2532 
6 1435 1477 1538 2450 2492 2553 
6 350 351 1481 547 548 2496 
6 328 329 1480 525 526 2495 
6 1515 1455 1545 2530 2470 2560 
6 1498 330 1544 2513 527 2559 
6 1442 1496 1519 2457 2511 2534 
6 340 341 1486 537 538 2501 
6 1479 1557 1564 2494 2572 2579 
6 165 1510 1568 362 2525 2583 
6 1557 1429 1564 2572 2444 2579 
6 1477 1448 1559 2492 2463 2574 
6 1462 1522 1530 2477 2537 2545 
6 1474 1432 1553 2489 2447 2568 
6 1435 1475 1554 2450 2490 2569 
6 1433 1476 1555 2448 2491 2570 
6 1428 1556 1563 2443 2571 2578 
6 1432 1492 1494 2447 2507 2509 
6 1435 1491 1495 2450 2506 2510 
6 1553 1450 1556 2568 2465 2571 
6 1451 1554 1557 2466 2569 2572 
6 340 1486 1531 537 2501 2546 
6 1486 341 1532 2501 538 2547 
6 1498 1454 1524 2513 2469 2539 
6 164 163 1537 361 360 2552 
6 1523 1463 1550 2538 2478 2565 
6 1449 1493 1527 2464 2508 2542 
6 1475 1435 1540 2490 2450 2555 
6 1504 1430 1542 2519 2445 2557 
6 1431 1505 1543 2446 2520 2558 
6 1504 1458 1511 2519 2473 2526 
6 1459 1505 1512 2474 2520 2527 
6 356 1525 1535 553 2540 2550 
6 1528 357 1536 2543 554 2551 
6 1432 1474 1546 2447 2489 2561 
6 1484 1436 1507 2499 2451 2522 
6 1437 1485 1509 2452 2500 2524 
6 1558 1458 1564 2573 2473 2579 
6 1493 1467 1527 2508 2482 2542 
6 1446 1489 1491 2461 2504 2506 
6 1447 1490 1492 2462 2505 2507 
6 1426 1477 1559 2441 2492 2574 
6 346 1515 1545 543 2530 2560 
6 1459 1560 1563 2474 2575 2578 
6 351 352 1496 548 549 2511 
6 328 1480 1483 525 2495 2498 
6 350 1481 1482 547 2496 2497 
6 1455 1515 1529 2470 2530 2544 
6 1496 1463 1519 2511 2478 2534 
6 1473 1493 1541 2488 2508 2556 
6 1433 1503 1517 2448 2518 2532 
6 329 330 1498 526 527 2513 
6 1522 1446 1538 2537 2461 2553 
6 1432 1494 1534 2447 2509 2549 
6 1511 1458 1558 2526 2473 2573 
6 1435 1495 1540 2450 2510 2555 
6 347 348 1548 544 545 2563 
6 1533 1448 1565 2548 2463 2580 
6 1448 1533 1566 2463 2548 2581 
6 1503 1444 1517 2518 2459 2532 
6 1459 1512 1560 2474 2527 2575 
6 1506 338 1507 2521 535 2522 
6 343 1508 1509 540 2523 2524 
6 1515 1447 1529 2530 2462 2544 
6 1472 1487 1521 2487 2502 2536 
6 1488 1471 1520 2503 2486 2535 
6 1457 1518 1539 2472 2533 2554 
6 165 164 1510 362 361 2525 
6 1526 1451 1536 2541 2466 2551 
6 1449 1527 1535 2464 2542 2550 
6 1525 1450 1553 2540 2465 2568 
6 1451 1526 1554 2466 2541 2569 
6 1450 1528 1555 2465 2543 2570 
6 346 347 1515 543 544 2530 
6 1525 1464 1535 2540 2479 2550 
6 1466 1528 1536 2481 2543 2551 
6 1461 348 1514 2476 545 2529 
6 1460 163 1513 2475 360 2528 
6 1438 1499 1547 2453 2514 2562 
6 201 200 1518 398 397 2533 
6 1474 1553 1556 2489 2568 2571 
6 1554 1475 1557 2569 2490 2572 
6 1518 1456 1539 2533 2471 2554 
6 1529 1447 1546 2544 2462 2561 
6 1436 1484 1542 2451 2499 2557 
6 1485 1437 1543 2500 2452 2558 
6 1438 1523 1550 2453 2538 2565 
6 1462 1510 1522 2477 2525 2537 
6 1499 1457 1547 2514 2472 2562 
6 1493 1449 1541 2508 2464 2556 
6 1510 1446 1522 2525 2461 2537 
6 358 80 1533 555 161 2548 
6 1491 1435 1538 2506 2450 2553 
6 1492 1432 1546 2507 2447 2561 
6 1482 1461 1569 2497 2476 2584 
6 1483 1460 1570 2498 2475 2585 
6 339 340 1531 536 537 2546 
6 341 342 1532 538 539 2547 
6 1471 1438 1550 2486 2453 2565 
6 1439 1472 1549 2454 2487 2564 
6 1471 353 1520 2486 550 2535 
6 166 1472 1521 363 2487 2536 
6 1452 1506 1507 2467 2521 2522 
6 1508 1453 1509 2523 2468 2524 
6 330 331 1544 527 528 2559 
6 345 346 1545 542 543 2560 
6 1458 1503 1564 2473 2518 2579 
6 1446 1491 1538 2461 2506 2553 
6 1447 1492 1546 2462 2507 2561 
6 1448 1497 1559 2463 2512 2574 
6 1516 1459 1563 2531 2474 2578 
6 1494 1442 1534 2509 2457 2549 
6 1429 1558 1564 2444 2573 2579 
6 352 353 1567 549 550 2582 
6 166 165 1568 363 362 2583 
6 1560 1428 1563 2575 2443 2578 
6 1500 1439 1551 2515 2454 2566 
6 2 336 1513 83 533 2528 
6 77 349 1514 158 546 2529 
6 1490 1447 1548 2505 2462 2563 
6 1523 1438 1547 2538 2453 2562 
6 1488 202 1499 2503 399 2514 
6 1450 1525 1552 2465 2540 2567 
6 1528 1450 1552 2543 2465 2567 
6 1468 339 1531 2483 536 2546 
6 342 1469 1532 539 2484 2547 
6 199 1487 1500 396 2502 2515 
6 1495 1443 1540 2510 2458 2555 
6 1503 1479 1564 2518 2494 2579 
6 1430 1511 1561 2445 2526 2576 
6 1512 1431 1562 2527 2446 2577 
6 355 0 1521 552 81 2536 
6 79 354 1520 160 551 2535 
6 1447 1515 1548 2462 2530 2563 
6 1473 1523 1547 2488 2538 2562 
6 1468 1504 1542 2483 2519 2557 
6 1505 1469 1543 2520 2484 2558 
6 1489 1446 1537 2504 2461 2552 
6 1510 164 1537 2525 361 2552 
6 356 357 1552 553 554 2567 
6 353 1471 1567 550 2486 2582 
6 1472 166 1568 2487 363 2583 
6 1446 1510 1537 2461 2525 2552 
6 1476 1516 1563 2491 2531 2578 
6 1530 1439 1549 2545 2454 2564 
6 1471 1550 1567 2486 2565 2582 
6 1549 1472 1568 2564 2487 2583 
6 1456 1500 1551 2471 2515 2566 
6 339 1468 1484 536 2483 2499 
6 1469 342 1485 2484 539 2500 
6 1513 336 1570 2528 533 2585 
6 1514 349 1569 2529 546 2584 
6 1526 358 1565 2541 555 2580 
6 80 1527 1566 161 2542 2581 
6 1454 1544 1561 2469 2559 2576 
6 1545 1455 1562 2560 2470 2577 
6 1515 347 1548 2530 544 2563 
6 1525 356 1552 2540 553 2567 
6 357 1528 1552 554 2543 2567 
6 74 343 1509 155 540 2524 
6 338 73 1507 535 154 2522 
6 1462 1530 1549 2477 2545 2564 
6 1529 1428 1560 2544 2443 2575 
6 1511 1454 1561 2526 2469 2576 
6 1455 1512 1562 2470 2527 2577 
6 1455 1529 1560 2470 2544 2575 
6 1429 1524 1558 2444 2539 2573 
6 1464 1525 1553 2479 2540 2568 
6 1526 1465 1554 2541 2480 2569 
6 1528 1466 1555 2543 2481 2570 
6 1524 1454 1558 2539 2469 2573 
6 1465 1526 1565 2480 2541 2580 
6 1527 1467 1566 2542 2482 2581 
6 1544 1501 1561 2559 2516 2576 
6 1502 1545 1562 2517 2560 2577 
6 1501 1430 1561 2516 2445 2576 
6 1431 1502 1562 2446 2517 2577 
6 358 1533 1565 555 2548 2580 
6 1533 80 1566 2548 161 2581 
6 1454 1511 1558 2469 2526 2573 
6 1512 1455 1560 2527 2470 2575 
6 1460 1513 1570 2475 2528 2585 
6 1461 1514 1569 2476 2529 2584 
6 331 1501 1544 528 2516 2559 
6 1502 345 1545 2517 542 2560 
6 1484 1468 1542 2499 2483 2557 
6 1469 1485 1543 2484 2500 2558 
6 1550 1463 1567 2565 2478 2582 
6 1462 1549 1568 2477 2564 2583 
6 0 166 1521 81 363 2536 
6 163 2 1513 360 83 2528 
6 73 339 1484 154 536 2499 
6 73 1484 1507 154 2499 2522 
6 342 74 1485 539 155 2500 
6 1485 74 1509 2500 155 2524 
6 348 77 1514 545 158 2529 
6 353 79 1520 550 160 2535 
6 69 337 331 150 534 528 
6 337 72 1506 534 153 2521 
6 75 344 1508 156 541 2523 
6 76 345 344 157 542 541 
6 331 337 1452 528 534 2467 
6 331 1452 1501 528 2467 2516 
6 1452 337 1506 2467 534 2521 
6 344 345 1453 541 542 2468 
6 344 1453 1508 541 2468 2523 
6 1453 345 1502 2468 542 2517 
6 1452 1436 1501 2467 2451 2516 
6 1436 1452 1507 2451 2467 2522 
6 1437 1453 1502 2452 2468 2517 
6 1453 1437 1509 2468 2452 2524 

CELL_TYPES 2380
13
13
13
13
13
13
13
13
13
13
13
13
13
13
13
13
13
13
13
13
13
13
13
13
13
13
13
13
13
13
13
13
13
13
13
13
13
13
13
13
13
13
13
13
13
13
13
13
13
13
13
13
13
13
13
13
13
13
13
13
13
13
13
13
13
13
13
13
13
13
13
13
13
13
13
13
13
13
13
13
13
13
13
13
13
13
13
13
13
13
13
13
13
13
13
13
13
13
13
13
13
13
13
13
13
13
13
13
13
13
13
13
13
13
13
13
13
13
13
13
13
13
13
13
13
13
13
13
13
13
13
13
13
13
13
13
13
13
13
13
13
13
13
13
13
13
13
13
13
13
13
13
13
13
13
13
13
13
13
13
13
13
13
13
13
13
13
13
13
13
13
13
13
13
13
13
13
13
13
13
13
13
13
13
13
13
13
13
13
13
13
13
13
13
13
13
13
13
13
13
13
13
13
13
13
13
13
13
13
13
13
13
13
13
13
13
13
13
13
13
13
13
13
13
13
13
13
13
13
13
13
13
13
13
13
13
13
13
13
13
13
13
13
13
13
13
13
13
13
13
13
13
13
13
13
13
13
13
13
13
13
13
13
13
13
13
13
13
13
13
13
13
13
13
13
13
13
13
13
13
13
13
13
13
13
13
13
13
13
13
13
13
13
13
13
13
13
13
13
13
13
13
13
13
13
13
13
13
13
13
13
13
13
13
13
13
13
13
13
13
13
13
13
13
13
13
13
13
13
13
13
13
13
13
13
13
13
13
13
13
13
13
13
13
13
13
13
13
13
13
13
13
13
13
13
13
13
13
13
13
13
13
13
13
13
13
13
13
13
13
13
13
13
13
13
13
13
13
13
13
13
13
13
13
13
13
13
13
13
13
13
13
13
13
13
13
13
13
13
13
13
13
13
13
13
13
13
13
13
13
13
13
13
13
13
13
13
13
13
13
13
13
13
13
13
13
13
13
13
13
13
13
13
13
13
13
13
13
13
13
13
13
13
13
13
13
13
13
13
13
13
13
13
13
13
13
13
13
13
13
13
13
13
13
13
13
13
13
13
13
13
13
13
13
13
13
13
13
13
13
13
13
13
13
13
13
13
13
13
13
13
13
13
13
13
13
13
13
13
13
13
13
13
13
13
13
13
13
13
13
13
13
13
13
13
13
13
13
13
13
13
13
13
13
13
13
13
13
13
13
13
13
13
13
13
13
13
13
13
13
13
13
13
13
13
13
13
13
13
13
13
13
13
13
13
13
13
13
13
13
13
13
13
13
13
13
13
13
13
13
13
13
13
13
13
13
13
13
13
13
13
13
13
13
13
13
13
13
13
13
13
13
13
13
13
13
13
13
13
13
13
13
13
13
13
13
13
13
13
13
13
13
13
13
13
13
13
13
13
13
13
13
13
13
13
13
13
13
13
13
13
13
13
13
13
13
13
13
13
13
13
13
13
13
13
13
13
13
13
13
13
13
13
13
13
13
13
13
13
13
13
13
13
13
13
13
13
13
13
13
13
13
13
13
13
13
13
13
13
13
13
13
13
13
13
13
13
13
13
13
13
13
13
13
13
13
13
13
13
13
13
13
13
13
13
13
13
13
13
13
13
13
13
13
13
13
13
13
13
13
13
13
13
13
13
13
13
13
13
13
13
13
13
13
13
13
13
13
13
13
13
13
13
13
13
13
13
13
13
13
13
13
13
13
13
13
13
13
13
13
13
13
13
13
13
13
13
13
13
13
13
13
13
13
13
13
13
13
13
13
13
13
13
13
13
13
13
13
13
13
13
13
13
13
13
13
13
13
13
13
13
13
13
13
13
13
13
13
13
13
13
13
13
13
13
13
13
13
13
13
13
13
13
13
13
13
13
13
13
13
13
13
13
13
13
13
13
13
13
13
13
13
13
13
13
13
13
13
13
13
13
13
13
13
13
13
13
13
13
13
13
13
13
13
13
13
13
13
13
13
13
13
13
13
13
13
13
13
13
13
13
13
13
13
13
13
13
13
13
13
13
13
13
13
13
13
13
13
13
13
13
13
13
13
13
13
13
13
13
13
13
13
13
13
13
13
13
13
13
13
13
13
13
13
13
13
13
13
13
13
13
13
13
13
13
13
13
13
13
13
13
13
13
13
13
13
13
13
13
13
13
13
13
13
13
13
13
13
13
13
13
13
13
13
13
13
13
13
13
13
13
13
13
13
13
13
13
13
13
13
13
13
13
13
13
13
13
13
13
13
13
13
13
13
13
13
13
13
13
13
13
13
13
13
13
13
13
13
13
13
13
13
13
13
13
13
13
13
13
13
13
13
13
13
13
13
13
13
13
13
13
13
13
13
13
13
13
13
13
13
13
13
13
13
13
13
13
13
13
13
13
13
13
13
13
13
13
13
13
13
13
13
13
13
13
13
13
13
13
13
13
13
13
13
13
13
13
13
13
13
13
13
13
13
13
13
13
13
13
13
13
13
13
13
13
13
13
13
13
13
13
13
13
13
13
13
13
13
13
13
13
13
13
13
13
13
13
13
13
13
13
13
13
13
13
13
13
13
13
13
13
13
13
13
13
13
13
13
13
13
13
13
13
13
13
13
13
13
13
13
13
13
13
13
13
13
13
13
13
13
13
13
13
13
13
13
13
13
13
13
13
13
13
13
13
13
13
13
13
13
13
13
13
13
13
13
13
13
13
13
13
13
13
13
13
13
13
13
13
13
13
13
13
13
13
13
13
13
13
13
13
13
13
13
13
13
13
13
13
13
13
13
13
13
13
13
13
13
13
13
13
13
13
13
13
13
13
13
13
13
13
13
13
13
13
13
13
13
13
13
13
13
13
13
13
13
13
13
13
13
13
13
13
13
13
13
13
13
13
13
13
13
13
13
13
13
13
13
13
13
13
13
13
13
13
13
13
13
13
13
13
13
13
13
13
13
13
13
13
13
13
13
13
13
13
13
13
13
13
13
13
13
13
13
13
13
13
13
13
13
13
13
13
13
13
13
13
13
13
13
13
13
13
13
13
13
13
13
13
13
13
13
13
13
13
13
13
13
13
13
13
13
13
13
13
13
13
13
13
13
13
13
13
13
13
13
13
13
13
13
13
13
13
13
13
13
13
13
13
13
13
13
13
13
13
13
13
13
13
13
13
13
13
13
13
13
13
13
13
13
13
13
13
13
13
13
13
13
13
13
13
13
13
13
13
13
13
13
13
13
13
13
13
13
13
13
13
13
13
13
13
13
13
13
13
13
13
13
13
13
13
13
13
13
13
13
13
13
13
13
13
13
13
13
13
13
13
13
13
13
13
13
13
13
13
13
13
13
13
13
13
13
13
13
13
13
13
13
13
13
13
13
13
13
13
13
13
13
13
13
13
13
13
13
13
13
13
13
13
13
13
13
13
13
13
13
13
13
13
13
13
13
13
13
13
13
13
13
13
13
13
13
13
13
13
13
13
13
13
13
13
13
13
13
13
13
13
13
13
13
13
13
13
13
13
13
13
13
13
13
13
13
13
13
13
13
13
13
13
13
13
13
13
13
13
13
13
13
13
13
13
13
13
13
13
13
13
13
13
13
13
13
13
13
13
13
13
13
13
13
13
13
13
13
13
13
13
13
13
13
13
13
13
13
13
13
13
13
13
13
13
13
13
13
13
13
13
13
13
13
13
13
13
13
13
13
13
13
13
13
13
13
13
13
13
13
13
13
13
13
13
13
13
13
13
13
13
13
13
13
13
13
13
13
13
13
13
13
13
13
13
13
13
13
13
13
13
13
13
13
13
13
13
13
13
13
13
13
13
13
13
13
13
13
13
13
13
13
13
13
13
13
13
13
13
13
13
13
13
13
13
13
13
13
13
13
13
13
13
13
13
13
13
13
13
13
13
13
13
13
13
13
13
13
13
13
13
13
13
13
13
13
13
13
13
13
13
13
13
13
13
13
13
13
13
13
13
13
13
13
13
13
13
13
13
13
13
13
13
13
13
13
13
13
13
13
13
13
13
13
13
13
13
13
13
13
13
13
13
13
13
13
13
13
13
13
13
13
13
13
13
13
13
13
13
13
13
13
13
13
13
13
13
13
13
13
13
13
13
13
13
13
13
13
13
13
13
13
13
13
13
13
13
13
13
13
13
13
13
13
13
13
13
13
13
13
13
13
13
13
13
13
13
13
13
13
13
13
13
13
13
13
13
13
13
13
13
13
13
13
13
13
13
13
13
13
13
13
13
13
13
13
13
13
13
13
13
13
13
13
13
13
13
13
13
13
13
13
13
13
13
13
13
13
13
13
13
13
13
13
13
13
13
13
13
13
13
13
13
13
13
13
13
13
13
13
13
13
13
13
13
13
13
13
13
13
13
13
13
13
13
13
13
13
13
13
13
13
13
13
13
13
13
13
13
13
13
13
13
13
13
13
13
13
13
13
13
13
13
13
13
13
13
13
13
13
13
13
13
13
13
13
13
13
13
13
13
13
13
13
13
13
13
13
13
13
13
13
13
13
13
13
13
13
13
13
13
13
13
13
13
13
13
13
13
13
13
13
13
13
13
13
13
13
13
13
13
13
13
13
13
13
13
13
13
13
13
13
13
13
13
13
13
13
13
13
13
13
13
13
13
13
13
13
13
13
13
13
13
13
13
13
13
13
13
13
13
13
13
13
13
13
13
13
13
13
13
13
13
13
13
13
13
13
13
13
13
13
13
13
13
13
13
13
13
13
13
13
13
13
13
13
13
13
13
13
13
13
13
13
13
13
13
13
13
13
13
13
13
13
13
13
13
13
13
13
13
13
13
13
13
13
13
13
13
13
13
13
13
13
13
13
13
13
13
13
13
13
13
13
13
13
13
13
13
13
13
13
13
13
13
13
13
13
13
13
13
13
13
13
13
13
13
13
13
13
13
13
13
13
13
13
13
13
13
13
13
13
13
13
13
13
13
13
13
13
13
13
13
13
13
13
13
13
13
13
13
13
13
13
13
13
13
13
13
13
13
13
13
13
13
13
13
13
13
13
13
13
13
13
13
13
13
13
13
13
13
13
13
13
13
13
13
13
13
13
13
13
13
13
13
13
13
13
13
13
13
13
13
13
13
13
13
13
13
13
13
13
13
13
13
13
13
13
13
13
13
13
13
13
13
13
13
13
13
13
13
13
13
13
13
13
13
13
13
13
13
13
13
13
13
13
13
13
13
13
13
13
13
13
13
13
13
13
13
13
13
13
13
13
13
13
13
13
13
13
13
13
13
13
13
13
13
13
13
13
13
13
13
13
13
13
13
13
13
13
13
13
13
13
13
13
13
13
13
13
13
13
13
13
13
13
13
13
13
13
13
13
13
13
13
13
13
13
13
13
13
13
13
13
13
13
13
13
13
13
13
13
13
13

POINT_DATA 2586
VECTORS displacement float
-1.32264e-09 1.02476e-07 6.4085e-08
7.94826e-09 1.01794e-07 6.41453e-08
-8.55011e-08 6.37171e-08 6.73408e-08
-8.46877e-08 6.07255e-08 6.73717e-08
-8.97758e-08 5.59078e-08 6.9318e-08
-8.98687e-08 -5.59622e-08 6.93251e-08
-8.47821e-08 -6.07825e-08 6.73829e-08
-8.55948e-08 -6.37744e-08 6.73528e-08
-1.33026e-09 -1.02273e-07 6.42764e-08
7.92382e-09 -1.01895e-07 6.39752e-08
8.46647e-08 -5.29147e-08 6.39152e-08
8.92773e-08 -4.49811e-08 6.40796e-08
8.93924e-08 4.50371e-08 6.41086e-08
8.47507e-08 5.3101e-08 6.41055e-08
0 0 0
8.69555e-09 1.04423e-07 6.39929e-08
3.96381e-09 1.10399e-07 6.42298e-08
1.32104e-08 2.04136e-07 6.42812e-08
1.7175e-08 2.10698e-07 6.38471e-08
1.65974e-08 2.14231e-07 6.39396e-08
9.44623e-08 2.54678e-07 6.35098e-08
1.06783e-07 2.54317e-07 6.32149e-08
1.8346e-07 2.04584e-07 6.32665e-08
1.89226e-07 1.93743e-07 6.33508e-08
1.83577e-07 1.05914e-07 6.40447e-08
1.76621e-07 9.78561e-08 6.39664e-08
9.41145e-08 5.28392e-08 6.39247e-08
9.98452e-08 1.49909e-07 2.55172e-08
9.46513e-08 5.03215e-08 6.38253e-08
1.87208e-07 9.95155e-08 6.41766e-08
2.6397e-07 5.64415e-08 6.33246e-08
2.70135e-07 4.58441e-08 6.34074e-08
2.70066e-07 -4.59371e-08 6.33614e-08
2.63899e-07 -5.65527e-08 6.32876e-08
1.87138e-07 -9.97296e-08 6.37827e-08
1.76613e-07 -9.78066e-08 6.40724e-08
9.40428e-08 -5.29732e-08 6.40963e-08
9.45562e-08 -5.04079e-08 6.39394e-08
1.82543e-07 3.95079e-11 2.54455e-08
1.83542e-07 -1.05918e-07 6.40474e-08
1.89196e-07 -1.93814e-07 6.34269e-08
1.8341e-07 -2.04638e-07 6.33358e-08
1.06716e-07 -2.54302e-07 6.32068e-08
9.43942e-08 -2.54668e-07 6.35038e-08
1.65176e-08 -2.14193e-07 6.39232e-08
1.70927e-08 -2.10659e-07 6.38297e-08
1.3107e-08 -2.04086e-07 6.42531e-08
3.98956e-09 -1.10328e-07 6.42616e-08
8.69375e-09 -1.04479e-07 6.38809e-08
9.97392e-08 -1.50656e-07 2.55194e-08
1.0481e-08 -2.14521e-07 6.41771e-08
-5.49887e-08 -2.73083e-07 6.34888e-08
-6.72827e-08 -2.74623e-07 6.37756e-08
-1.55918e-07 -2.47005e-07 6.37182e-08
-1.56009e-07 -2.43368e-07 6.36223e-08
-1.63823e-07 -2.36662e-07 6.39232e-08
-1.8999e-07 -1.49855e-07 6.82882e-08
-1.86038e-07 -1.41739e-07 6.95543e-08
-1.88253e-07 -1.39225e-07 7.04574e-08
-9.52541e-08 -6.57752e-08 6.93336e-08
-7.31061e-08 -1.66538e-07 2.57397e-08
-2.0145e-07 -1.43261e-07 7.26805e-08
-3.33716e-07 -8.22129e-08 7.69836e-08
-3.32993e-07 -7.87791e-08 7.69732e-08
-3.40065e-07 -7.20412e-08 7.70434e-08
-3.4005e-07 7.20105e-08 7.7044e-08
-3.32974e-07 7.87473e-08 7.69739e-08
-3.33696e-07 8.21815e-08 7.69842e-08
-2.01213e-07 1.43174e-07 7.25916e-08
-1.88419e-07 1.39159e-07 7.05759e-08
-9.51716e-08 6.57082e-08 6.93255e-08
-2.00159e-07 -2.24527e-11 7.26747e-08
-1.8617e-07 1.41675e-07 6.96465e-08
-1.90068e-07 1.49806e-07 6.83404e-08
-1.63721e-07 2.36593e-07 6.39263e-08
-1.5591e-07 2.43296e-07 6.36272e-08
-1.55818e-07 2.46934e-07 6.37233e-08
-6.76807e-08 2.74561e-07 6.35044e-08
-5.53884e-08 2.73103e-07 6.3794e-08
1.05639e-08 2.14559e-07 6.42108e-08
-7.30495e-08 1.66727e-07 2.5726e-08
-1.32264e-09 1.02476e-07 -6.4085e-08
7.94826e-09 1.01794e-07 -6.41453e-08
-8.55011e-08 6.37171e-08 -6.73408e-08
-8.46877e-08 6.07255e-08 -6.73717e-08
-8.97758e-08 5.59078e-08 -6.9318e-08
-8.98687e-08 -5.59622e-08 -6.93251e-08
-8.47821e-08 -6.07825e-08 -6.73829e-08
-8.55948e-08 -6.37744e-08 -6.73528e-08
-1.33026e-09 -1.02273e-07 -6.42764e-08
7.92382e-09 -1.01895e-07 -6.39752e-08
8.46647e-08 -5.29147e-08 -6.39152e-08
8.92773e-08 -4.49811e-08 -6.40796e-08
8.93924e-08 4.50371e-08 -6.41086e-08
8.47507e-08 5.3101e-08 -6.41055e-08
0 0 0
8.69555e-09 1.04423e-07 -6.39929e-08
3.96381e-09 1.10399e-07 -6.42298e-08
1.32104e-08 2.04136e-07 -6.42812e-08
1.7175e-08 2.10698e-07 -6.38471e-08
1.65974e-08 2.14231e-07 -6.39396e-08
9.44623e-08 2.54678e-07 -6.35098e-08
1.06783e-07 2.54317e-07 -6.32149e-08
1.8346e-07 2.04584e-07 -6.32665e-08
1.89226e-07 1.93743e-07 -6.33508e-08
1.83577e-07 1.05914e-07 -6.40447e-08
1.76621e-07 9.78561e-08 -6.39664e-08
9.41145e-08 5.28392e-08 -6.39247e-08
9.98452e-08 1.49909e-07 -2.55172e-08
9.46513e-08 5.03215e-08 -6.38253e-08
1.87208e-07 9.95155e-08 -6.41766e-08
2.6397e-07 5.64415e-08 -6.33246e-08
2.70135e-07 4.58441e-08 -6.34074e-08
2.70066e-07 -4.59371e-08 -6.33614e-08
2.63899e-07 -5.65527e-08 -6.32876e-08
1.87138e-07 -9.97296e-08 -6.37827e-08
1.76613e-07 -9.78066e-08 -6.40724e-08
9.40428e-08 -5.29732e-08 -6.40963e-08
9.45562e-08 -5.04079e-08 -6.39394e-08
1.82543e-07 3.95079e-11 -2.54455e-08
1.83542e-07 -1.05918e-07 -6.40474e-08
1.89196e-07 -1.93814e-07 -6.34269e-08
1.8341e-07 -2.04638e-07 -6.33358e-08
1.06716e-07 -2.54302e-07 -6.32068e-08
9.43942e-08 -2.54668e-07 -6.35038e-08
1.65176e-08 -2.14193e-07 -6.39232e-08
1.70927e-08 -2.10659e-07 -6.38297e-08
1.3107e-08 -2.04086e-07 -6.42531e-08
3.98956e-09 -1.10328e-07 -6.42616e-08
8.69375e-09 -1.04479e-07 -6.38809e-08
9.97392e-08 -1.50656e-07 -2.55194e-08
1.0481e-08 -2.14521e-07 -6.41771e-08
-5.49887e-08 -2.73083e-07 -6.34888e-08
-6.72827e-08 -2.74623e-07 -6.37756e-08
-1.55918e-07 -2.47005e-07 -6.37182e-08
-1.56009e-07 -2.43368e-07 -6.36223e-08
-1.63823e-07 -2.36662e-07 -6.39232e-08
-1.8999e-07 -1.49855e-07 -6.82882e-08
-1.86038e-07 -1.41739e-07 -6.95543e-08
-1.88253e-07 -1.39225e-07 -7.04574e-08
-9.52541e-08 -6.57752e-08 -6.93336e-08
-7.31061e-08 -1.66538e-07 -2.57397e-08
-2.0145e-07 -1.43261e-07 -7.26805e-08
-3.33716e-07 -8.22129e-08 -7.69836e-08
-3.32993e-07 -7.87791e-08 -7.69732e-08
-3.40065e-07 -7.20412e-08 -7.70434e-08
-3.4005e-07 7.20105e-08 -7.7044e-08
-3.32974e-07 7.87473e-08 -7.69739e-08
-3.33696e-07 8.21815e-08 -7.69842e-08
-2.01213e-07 1.43174e-07 -7.25916e-08
-1.88419e-07 1.39159e-07 -7.05759e-08
-9.51716e-08 6.57082e-08 -6.93255e-08
-2.00159e-07 -2.24527e-11 -7.26747e-08
-1.8617e-07 1.41675e-07 -6.96465e-08
-1.90068e-07 1.49806e-07 -6.83404e-08
-1.63721e-07 2.36593e-07 -6.39263e-08
-1.5591e-07 2.43296e-07 -6.36272e-08
-1.55818e-07 2.46934e-07 -6.37233e-08
-6.76807e-08 2.74561e-07 -6.35044e-08
-5.53884e-08 2.73103e-07 -6.3794e-08
1.05639e-08 2.14559e-07 -6.42108e-08
-7.30495e-08 1.66727e-07 -2.5726e-08
3.21891e-09 9.97531e-08 6.38355e-08
-6.57309e-08 7.29907e-08 6.17977e-08
-5.02116e-08 7.96073e-08 5.73812e-08
-3.58629e-08 8.58733e-08 5.68684e-08
-2.06896e-08 9.27301e-08 6.01677e-08
-8.48326e-08 6.2183e-08 6.73815e-08
-8.61583e-08 5.71655e-08 6.80859e-08
-8.99779e-08 -3.15635e-08 6.73557e-08
-8.96411e-08 -1.02864e-08 6.56327e-08
-8.95972e-08 1.02439e-08 6.55703e-08
-8.99203e-08 3.15119e-08 6.73754e-08
-8.62523e-08 -5.72214e-08 6.80947e-08
-8.49269e-08 -6.22402e-08 6.73933e-08
-2.06607e-08 -9.274e-08 6.01481e-08
-3.59225e-08 -8.58445e-08 5.70592e-08
-5.03009e-08 -7.96258e-08 5.74145e-08
-6.58255e-08 -7.30362e-08 6.18163e-08
3.12508e-09 -9.96942e-08 6.38468e-08
6.63316e-08 -6.40188e-08 5.97297e-08
5.24444e-08 -7.24796e-08 5.60519e-08
3.96656e-08 -8.07077e-08 5.60611e-08
2.59763e-08 -8.96704e-08 5.97786e-08
8.46833e-08 -4.77451e-08 6.38309e-08
8.86345e-08 2.36952e-08 5.96819e-08
8.84965e-08 7.48984e-09 5.61141e-08
8.84375e-08 -7.48023e-09 5.62505e-08
8.86195e-08 -2.36596e-08 5.96284e-08
8.4799e-08 4.7858e-08 6.39174e-08
2.59808e-08 8.97873e-08 5.97274e-08
3.97131e-08 8.07956e-08 5.62359e-08
5.25331e-08 7.25937e-08 5.6234e-08
6.64625e-08 6.40247e-08 5.97015e-08
0 0 0
0 0 0
0 0 0
8.64268e-09 1.03176e-07 6.4155e-08
7.15414e-09 1.08085e-07 6.38804e-08
5.28977e-09 1.32134e-07 5.98755e-08
7.08302e-09 1.48795e-07 5.65619e-08
9.02008e-09 1.64357e-07 5.64457e-08
1.08901e-08 1.81418e-07 5.99662e-08
1.587e-08 2.06249e-07 6.38664e-08
1.70267e-08 2.12496e-07 6.39637e-08
3.81019e-08 2.19182e-07 6.01431e-08
5.31188e-08 2.21968e-07 5.71289e-08
6.49732e-08 2.2833e-07 5.71536e-08
7.69641e-08 2.39244e-07 5.98283e-08
1.00278e-07 2.51777e-07 6.31054e-08
1.2309e-07 2.37431e-07 5.99148e-08
1.34474e-07 2.24952e-07 5.68264e-08
1.46063e-07 2.17208e-07 5.68862e-08
1.61414e-07 2.1225e-07 5.96841e-08
1.83977e-07 1.97739e-07 6.31537e-08
1.82782e-07 1.70863e-07 5.97476e-08
1.77152e-07 1.55262e-07 5.72573e-08
1.76065e-07 1.41703e-07 5.71494e-08
1.79125e-07 1.26785e-07 6.02685e-08
1.77804e-07 1.02958e-07 6.38524e-08
1.13171e-07 6.35802e-08 5.98177e-08
1.27792e-07 7.13297e-08 5.61578e-08
1.41535e-07 7.86978e-08 5.62052e-08
1.56624e-07 8.67796e-08 5.98545e-08
8.94792e-08 5.52183e-08 6.37451e-08
9.53884e-08 1.56804e-07 2.5891e-08
8.80171e-08 1.50862e-07 2.55987e-08
9.35392e-08 1.44433e-07 2.52619e-08
9.2755e-08 4.70046e-08 6.37642e-08
9.47265e-08 5.14858e-08 6.39575e-08
1.81586e-07 9.6215e-08 6.37876e-08
2.0252e-07 8.44339e-08 6.02548e-08
2.13609e-07 7.35994e-08 5.7335e-08
2.25496e-07 6.69988e-08 5.70565e-08
2.41368e-07 6.31275e-08 5.97662e-08
2.64742e-07 4.96084e-08 6.32154e-08
2.64798e-07 2.29289e-08 5.9798e-08
2.60602e-07 6.89216e-09 5.68771e-08
2.60411e-07 -7.16526e-09 5.71236e-08
2.64805e-07 -2.29925e-08 5.97108e-08
2.64681e-07 -4.97061e-08 6.31706e-08
2.41276e-07 -6.32437e-08 5.97596e-08
2.25389e-07 -6.70851e-08 5.70463e-08
2.13489e-07 -7.35426e-08 5.7113e-08
2.02422e-07 -8.44478e-08 6.03707e-08
1.81284e-07 -9.64107e-08 6.36734e-08
1.1306e-07 -6.35215e-08 5.97741e-08
1.27709e-07 -7.13379e-08 5.6344e-08
1.41476e-07 -7.87109e-08 5.63724e-08
1.56574e-07 -8.67934e-08 5.97732e-08
9.46392e-08 -5.15987e-08 6.41068e-08
9.26371e-08 -4.70079e-08 6.37839e-08
1.76867e-07 5.65124e-09 2.56599e-08
1.69807e-07 3.97426e-10 2.5846e-08
1.76254e-07 -5.97708e-09 2.56981e-08
8.95056e-08 -5.51806e-08 6.3737e-08
1.77776e-07 -1.02941e-07 6.38729e-08
1.7912e-07 -1.26823e-07 6.01812e-08
1.75845e-07 -1.41596e-07 5.74127e-08
1.77297e-07 -1.55098e-07 5.7021e-08
1.82705e-07 -1.70941e-07 5.98595e-08
1.83932e-07 -1.978e-07 6.323e-08
1.6133e-07 -2.12227e-07 5.97459e-08
1.45963e-07 -2.17211e-07 5.69134e-08
1.34379e-07 -2.24929e-07 5.67859e-08
1.23017e-07 -2.37412e-07 5.98941e-08
1.0021e-07 -2.51765e-07 6.30983e-08
7.68858e-08 -2.39237e-07 5.98325e-08
6.48898e-08 -2.28299e-07 5.71626e-08
5.30479e-08 -2.21921e-07 5.71324e-08
3.80355e-08 -2.19139e-07 6.0138e-08
1.69461e-08 -2.12457e-07 6.3947e-08
1.57787e-08 -2.06205e-07 6.3844e-08
5.23968e-09 -1.32091e-07 5.99291e-08
7.08817e-09 -1.48795e-07 5.64318e-08
8.9155e-09 -1.64342e-07 5.65795e-08
1.08586e-08 -1.81381e-07 5.99171e-08
7.17749e-09 -1.08066e-07 6.38633e-08
8.63329e-09 -1.03257e-07 6.40074e-08
9.39659e-08 -1.44116e-07 2.57905e-08
8.79531e-08 -1.50515e-07 2.55973e-08
9.48346e-08 -1.5652e-07 2.53679e-08
-7.81941e-10 -1.07717e-07 6.41219e-08
9.58303e-09 -2.07901e-07 6.40722e-08
-8.49121e-09 -2.22703e-07 6.04654e-08
-2.12457e-08 -2.29053e-07 5.74954e-08
-3.07239e-08 -2.38831e-07 5.72902e-08
-4.03046e-08 -2.53717e-07 6.02646e-08
-6.18218e-08 -2.71132e-07 6.33782e-08
-8.61731e-08 -2.61764e-07 6.01213e-08
-9.97013e-08 -2.53561e-07 5.74522e-08
-1.13451e-07 -2.49941e-07 5.73578e-08
-1.3103e-07 -2.49701e-07 6.01795e-08
-1.5573e-07 -2.45189e-07 6.37402e-08
-1.59091e-07 -2.38697e-07 6.35898e-08
-1.62356e-07 -2.13872e-07 6.06401e-08
-1.62345e-07 -1.98446e-07 5.85122e-08
-1.67043e-07 -1.85061e-07 5.92935e-08
-1.76821e-07 -1.706e-07 6.30141e-08
-1.86203e-07 -1.46139e-07 6.83345e-08
-1.86926e-07 -1.40391e-07 7.01043e-08
-1.15393e-07 -8.08154e-08 6.7607e-08
-1.33014e-07 -9.43923e-08 6.59868e-08
-1.50323e-07 -1.0772e-07 6.60712e-08
-1.6842e-07 -1.21763e-07 6.81221e-08
-9.04618e-08 -6.74077e-08 6.78418e-08
-7.99612e-08 -1.61867e-07 2.66065e-08
-8.56149e-08 -1.70844e-07 2.66133e-08
-7.8019e-08 -1.74775e-07 2.58515e-08
-9.47368e-08 -5.99211e-08 6.98564e-08
-1.95921e-07 -1.38499e-07 7.19642e-08
-2.29708e-07 -1.32594e-07 7.38668e-08
-2.56267e-07 -1.20727e-07 7.45234e-08
-2.82183e-07 -1.08271e-07 7.52763e-08
-3.07844e-07 -9.54403e-08 7.62121e-08
-3.33125e-07 -8.05523e-08 7.69895e-08
-3.35224e-07 -7.39786e-08 7.69852e-08
-3.40569e-07 -4.30082e-08 7.66149e-08
-3.40839e-07 -1.43356e-08 7.62962e-08
-3.40838e-07 1.42991e-08 7.62942e-08
-3.40561e-07 4.29733e-08 7.66152e-08
-3.35207e-07 7.39468e-08 7.69858e-08
-3.33106e-07 8.05207e-08 7.69902e-08
-3.07816e-07 9.54015e-08 7.62131e-08
-2.82147e-07 1.08214e-07 7.52702e-08
-2.56251e-07 1.20681e-07 7.44919e-08
-2.29704e-07 1.32605e-07 7.3881e-08
-1.9567e-07 1.38409e-07 7.19026e-08
-1.15319e-07 8.07266e-08 6.7607e-08
-1.3295e-07 9.42882e-08 6.60007e-08
-1.50267e-07 1.0761e-07 6.61467e-08
-1.68364e-07 1.2169e-07 6.81213e-08
-9.4665e-08 5.98585e-08 6.9851e-08
-2.11987e-07 1.21507e-08 7.32523e-08
-2.24189e-07 -1.26882e-11 7.38872e-08
-2.11972e-07 -1.21985e-08 7.3281e-08
-9.03732e-08 6.73452e-08 6.78307e-08
-1.87081e-07 1.4032e-07 7.02114e-08
-1.8629e-07 1.46082e-07 6.8394e-08
-1.76852e-07 1.70543e-07 6.30448e-08
-1.67033e-07 1.85056e-07 5.93024e-08
-1.62282e-07 1.98434e-07 5.8531e-08
-1.62269e-07 2.13814e-07 6.06416e-08
-1.58991e-07 2.38627e-07 6.35935e-08
-1.5563e-07 2.45118e-07 6.37451e-08
-1.3094e-07 2.49606e-07 6.01945e-08
-1.13362e-07 2.49844e-07 5.73548e-08
-9.9662e-08 2.53276e-07 5.72342e-08
-8.61327e-08 2.61646e-07 6.02647e-08
-6.17144e-08 2.71111e-07 6.33951e-08
-4.02758e-08 2.5377e-07 6.01551e-08
-3.06897e-08 2.39079e-07 5.75346e-08
-2.11692e-08 2.29141e-07 5.75321e-08
-8.39535e-09 2.22751e-07 6.04901e-08
9.65422e-09 2.07944e-07 6.41093e-08
-8.1023e-10 1.07843e-07 6.40321e-08
-7.72836e-08 1.74986e-07 2.6269e-08
-8.55527e-08 1.69989e-07 2.66234e-08
-8.05394e-08 1.62122e-07 2.61818e-08
3.21891e-09 9.97531e-08 -6.38355e-08
-6.57309e-08 7.29907e-08 -6.17977e-08
-5.02116e-08 7.96073e-08 -5.73812e-08
-3.58629e-08 8.58733e-08 -5.68684e-08
-2.06896e-08 9.27301e-08 -6.01677e-08
-8.48326e-08 6.2183e-08 -6.73815e-08
-8.61583e-08 5.71655e-08 -6.80859e-08
-8.99779e-08 -3.15635e-08 -6.73557e-08
-8.96411e-08 -1.02864e-08 -6.56327e-08
-8.95972e-08 1.02439e-08 -6.55703e-08
-8.99203e-08 3.15119e-08 -6.73754e-08
-8.62523e-08 -5.72214e-08 -6.80947e-08
-8.49269e-08 -6.22402e-08 -6.73933e-08
-2.06607e-08 -9.274e-08 -6.01481e-08
-3.59225e-08 -8.58445e-08 -5.70592e-08
-5.03009e-08 -7.96258e-08 -5.74145e-08
-6.58255e-08 -7.30362e-08 -6.18163e-08
3.12508e-09 -9.96942e-08 -6.38468e-08
6.63316e-08 -6.40188e-08 -5.97297e-08
5.24444e-08 -7.24796e-08 -5.60519e-08
3.96656e-08 -8.07077e-08 -5.60611e-08
2.59763e-08 -8.96704e-08 -5.97786e-08
8.46833e-08 -4.77451e-08 -6.38309e-08
8.86345e-08 2.36952e-08 -5.96819e-08
8.84965e-08 7.48984e-09 -5.61141e-08
8.84375e-08 -7.48023e-09 -5.62505e-08
8.86195e-08 -2.36596e-08 -5.96284e-08
8.4799e-08 4.7858e-08 -6.39174e-08
2.59808e-08 8.97873e-08 -5.97274e-08
3.97131e-08 8.07956e-08 -5.62359e-08
5.25331e-08 7.25937e-08 -5.6234e-08
6.64625e-08 6.40247e-08 -5.97015e-08
0 0 0
0 0 0
0 0 0
8.64268e-09 1.03176e-07 -6.4155e-08
7.15414e-09 1.08085e-07 -6.38804e-08
5.28977e-09 1.32134e-07 -5.98755e-08
7.08302e-09 1.48795e-07 -5.65619e-08
9.02008e-09 1.64357e-07 -5.64457e-08
1.08901e-08 1.81418e-07 -5.99662e-08
1.587e-08 2.06249e-07 -6.38664e-08
1.70267e-08 2.12496e-07 -6.39637e-08
3.81019e-08 2.19182e-07 -6.01431e-08
5.31188e-08 2.21968e-07 -5.71289e-08
6.49732e-08 2.2833e-07 -5.71536e-08
7.69641e-08 2.39244e-07 -5.98283e-08
1.00278e-07 2.51777e-07 -6.31054e-08
1.2309e-07 2.37431e-07 -5.99148e-08
1.34474e-07 2.24952e-07 -5.68264e-08
1.46063e-07 2.17208e-07 -5.68862e-08
1.61414e-07 2.1225e-07 -5.96841e-08
1.83977e-07 1.97739e-07 -6.31537e-08
1.82782e-07 1.70863e-07 -5.97476e-08
1.77152e-07 1.55262e-07 -5.72573e-08
1.76065e-07 1.41703e-07 -5.71494e-08
1.79125e-07 1.26785e-07 -6.02685e-08
1.77804e-07 1.02958e-07 -6.38524e-08
1.13171e-07 6.35802e-08 -5.98177e-08
1.27792e-07 7.13297e-08 -5.61578e-08
1.41535e-07 7.86978e-08 -5.62052e-08
1.56624e-07 8.67796e-08 -5.98545e-08
8.94792e-08 5.52183e-08 -6.37451e-08
9.53884e-08 1.56804e-07 -2.5891e-08
8.80171e-08 1.50862e-07 -2.55987e-08
9.35392e-08 1.44433e-07 -2.52619e-08
9.2755e-08 4.70046e-08 -6.37642e-08
9.47265e-08 5.14858e-08 -6.39575e-08
1.81586e-07 9.6215e-08 -6.37876e-08
2.0252e-07 8.44339e-08 -6.02548e-08
2.13609e-07 7.35994e-08 -5.7335e-08
2.25496e-07 6.69988e-08 -5.70565e-08
2.41368e-07 6.31275e-08 -5.97662e-08
2.64742e-07 4.96084e-08 -6.32154e-08
2.64798e-07 2.29289e-08 -5.9798e-08
2.60602e-07 6.89216e-09 -5.68771e-08
2.60411e-07 -7.16526e-09 -5.71236e-08
2.64805e-07 -2.29925e-08 -5.97108e-08
2.64681e-07 -4.97061e-08 -6.31706e-08
2.41276e-07 -6.32437e-08 -5.97596e-08
2.25389e-07 -6.70851e-08 -5.70463e-08
2.13489e-07 -7.35426e-08 -5.7113e-08
2.02422e-07 -8.44478e-08 -6.03707e-08
1.81284e-07 -9.64107e-08 -6.36734e-08
1.1306e-07 -6.35215e-08 -5.97741e-08
1.27709e-07 -7.13379e-08 -5.6344e-08
1.41476e-07 -7.87109e-08 -5.63724e-08
1.56574e-07 -8.67934e-08 -5.97732e-08
9.46392e-08 -5.15987e-08 -6.41068e-08
9.26371e-08 -4.70079e-08 -6.37839e-08
1.76867e-07 5.65124e-09 -2.56599e-08
1.69807e-07 3.97426e-10 -2.5846e-08
1.76254e-07 -5.97708e-09 -2.56981e-08
8.95056e-08 -5.51806e-08 -6.3737e-08
1.77776e-07 -1.02941e-07 -6.38729e-08
1.7912e-07 -1.26823e-07 -6.01812e-08
1.75845e-07 -1.41596e-07 -5.74127e-08
1.77297e-07 -1.55098e-07 -5.7021e-08
1.82705e-07 -1.70941e-07 -5.98595e-08
1.83932e-07 -1.978e-07 -6.323e-08
1.6133e-07 -2.12227e-07 -5.97459e-08
1.45963e-07 -2.17211e-07 -5.69134e-08
1.34379e-07 -2.24929e-07 -5.67859e-08
1.23017e-07 -2.37412e-07 -5.98941e-08
1.0021e-07 -2.51765e-07 -6.30983e-08
7.68858e-08 -2.39237e-07 -5.98325e-08
6.48898e-08 -2.28299e-07 -5.71626e-08
5.30479e-08 -2.21921e-07 -5.71324e-08
3.80355e-08 -2.19139e-07 -6.0138e-08
1.69461e-08 -2.12457e-07 -6.3947e-08
1.57787e-08 -2.06205e-07 -6.3844e-08
5.23968e-09 -1.32091e-07 -5.99291e-08
7.08817e-09 -1.48795e-07 -5.64318e-08
8.9155e-09 -1.64342e-07 -5.65795e-08
1.08586e-08 -1.81381e-07 -5.99171e-08
7.17749e-09 -1.08066e-07 -6.38633e-08
8.63329e-09 -1.03257e-07 -6.40074e-08
9.39659e-08 -1.44116e-07 -2.57905e-08
8.79531e-08 -1.50515e-07 -2.55973e-08
9.48346e-08 -1.5652e-07 -2.53679e-08
-7.81941e-10 -1.07717e-07 -6.41219e-08
9.58303e-09 -2.07901e-07 -6.40722e-08
-8.49121e-09 -2.22703e-07 -6.04654e-08
-2.12457e-08 -2.29053e-07 -5.74954e-08
-3.07239e-08 -2.38831e-07 -5.72902e-08
-4.03046e-08 -2.53717e-07 -6.02646e-08
-6.18218e-08 -2.71132e-07 -6.33782e-08
-8.61731e-08 -2.61764e-07 -6.01213e-08
-9.97013e-08 -2.53561e-07 -5.74522e-08
-1.13451e-07 -2.49941e-07 -5.73578e-08
-1.3103e-07 -2.49701e-07 -6.01795e-08
-1.5573e-07 -2.45189e-07 -6.37402e-08
-1.59091e-07 -2.38697e-07 -6.35898e-08
-1.62356e-07 -2.13872e-07 -6.06401e-08
-1.62345e-07 -1.98446e-07 -5.85122e-08
-1.67043e-07 -1.85061e-07 -5.92935e-08
-1.76821e-07 -1.706e-07 -6.30141e-08
-1.86203e-07 -1.46139e-07 -6.83345e-08
-1.86926e-07 -1.40391e-07 -7.01043e-08
-1.15393e-07 -8.08154e-08 -6.7607e-08
-1.33014e-07 -9.43923e-08 -6.59868e-08
-1.50323e-07 -1.0772e-07 -6.60712e-08
-1.6842e-07 -1.21763e-07 -6.81221e-08
-9.04618e-08 -6.74077e-08 -6.78418e-08
-7.99612e-08 -1.61867e-07 -2.66065e-08
-8.56149e-08 -1.70844e-07 -2.66133e-08
-7.8019e-08 -1.74775e-07 -2.58515e-08
-9.47368e-08 -5.99211e-08 -6.98564e-08
-1.95921e-07 -1.38499e-07 -7.19642e-08
-2.29708e-07 -1.32594e-07 -7.38668e-08
-2.56267e-07 -1.20727e-07 -7.45234e-08
-2.82183e-07 -1.08271e-07 -7.52763e-08
-3.07844e-07 -9.54403e-08 -7.62121e-08
-3.33125e-07 -8.05523e-08 -7.69895e-08
-3.35224e-07 -7.39786e-08 -7.69852e-08
-3.40569e-07 -4.30082e-08 -7.66149e-08
-3.40839e-07 -1.43356e-08 -7.62962e-08
-3.40838e-07 1.42991e-08 -7.62942e-08
-3.40561e-07 4.29733e-08 -7.66152e-08
-3.35207e-07 7.39468e-08 -7.69858e-08
-3.33106e-07 8.05207e-08 -7.69902e-08
-3.07816e-07 9.54015e-08 -7.62131e-08
-2.82147e-07 1.08214e-07 -7.52702e-08
-2.56251e-07 1.20681e-07 -7.44919e-08
-2.29704e-07 1.32605e-07 -7.3881e-08
-1.9567e-07 1.38409e-07 -7.19026e-08
-1.15319e-07 8.07266e-08 -6.7607e-08
-1.3295e-07 9.42882e-08 -6.60007e-08
-1.50267e-07 1.0761e-07 -6.61467e-08
-1.68364e-07 1.2169e-07 -6.81213e-08
-9.4665e-08 5.98585e-08 -6.9851e-08
-2.11987e-07 1.21507e-08 -7.32523e-08
-2.24189e-07 -1.26882e-11 -7.38872e-08
-2.11972e-07 -1.21985e-08 -7.3281e-08
-9.03732e-08 6.73452e-08 -6.78307e-08
-1.87081e-07 1.4032e-07 -7.02114e-08
-1.8629e-07 1.46082e-07 -6.8394e-08
-1.76852e-07 1.70543e-07 -6.30448e-08
-1.67033e-07 1.85056e-07 -5.93024e-08
-1.62282e-07 1.98434e-07 -5.8531e-08
-1.62269e-07 2.13814e-07 -6.06416e-08
-1.58991e-07 2.38627e-07 -6.35935e-08
-1.5563e-07 2.45118e-07 -6.37451e-08
-1.3094e-07 2.49606e-07 -6.01945e-08
-1.13362e-07 2.49844e-07 -5.73548e-08
-9.9662e-08 2.53276e-07 -5.72342e-08
-8.61327e-08 2.61646e-07 -6.02647e-08
-6.17144e-08 2.71111e-07 -6.33951e-08
-4.02758e-08 2.5377e-07 -6.01551e-08
-3.06897e-08 2.39079e-07 -5.75346e-08
-2.11692e-08 2.29141e-07 -5.75321e-08
-8.39535e-09 2.22751e-07 -6.04901e-08
9.65422e-09 2.07944e-07 -6.41093e-08
-8.1023e-10 1.07843e-07 -6.40321e-08
-7.72836e-08 1.74986e-07 -2.6269e-08
-8.55527e-08 1.69989e-07 -2.66234e-08
-8.05394e-08 1.62122e-07 -2.61818e-08
2.65394e-08 -2.56059e-08 4.32635e-08
2.67954e-08 2.7053e-08 4.38689e-08
-2.57466e-08 2.99347e-08 4.51142e-08
-2.5912e-08 -3.00003e-08 4.52038e-08
-5.96064e-08 -4.58693e-08 6.07539e-08
-5.95065e-08 4.5804e-08 6.07318e-08
2.47056e-10 3.28176e-08 4.08909e-08
-3.01577e-08 8.49326e-10 4.17371e-08
2.94626e-08 -9.32988e-10 3.89358e-08
-8.89786e-11 -3.27758e-08 4.08829e-08
-7.12099e-08 4.91932e-08 6.46928e-08
-7.13065e-08 -4.92533e-08 6.4707e-08
5.50017e-08 2.98077e-08 5.51558e-08
5.76935e-08 -3.08673e-08 5.61344e-08
1.15691e-10 -6.62407e-08 5.60965e-08
3.12297e-09 6.61192e-08 5.60662e-08
2.12578e-08 5.16189e-08 5.10584e-08
-1.90882e-08 -5.40861e-08 5.16232e-08
-5.52996e-08 1.55983e-08 5.60185e-08
-5.63156e-08 -1.53512e-08 5.64057e-08
2.11307e-08 -5.36034e-08 5.15257e-08
-1.88325e-08 5.64772e-08 5.22219e-08
9.63394e-09 -9.66839e-09 2.53863e-08
1.09673e-08 1.2193e-08 2.82604e-08
-1.07518e-08 1.05431e-08 2.73677e-08
-1.14038e-08 -1.12492e-08 2.8375e-08
-7.42967e-08 5.85668e-08 6.54469e-08
-7.43923e-08 -5.86224e-08 6.54603e-08
-4.09668e-08 5.12731e-08 5.4872e-08
-4.10688e-08 -5.11465e-08 5.48704e-08
5.81403e-08 -8.62235e-09 5.22099e-08
5.50548e-08 1.00438e-08 5.137e-08
-4.36441e-08 -2.81697e-08 5.26824e-08
-4.35156e-08 2.80946e-08 5.26296e-08
9.51706e-09 -8.06764e-08 6.02607e-08
-4.92626e-09 8.15963e-08 6.04096e-08
4.21239e-08 -4.60436e-08 5.34436e-08
4.20789e-08 4.51307e-08 5.33246e-08
3.07154e-09 1.70641e-08 2.91683e-08
2.35189e-09 -1.65507e-08 2.8504e-08
-1.60997e-08 -3.02873e-09 2.98647e-08
1.55745e-08 -1.86981e-09 2.7692e-08
-7.36212e-08 3.30996e-08 6.39755e-08
-7.37088e-08 -3.31563e-08 6.39882e-08
3.85913e-08 -1.44869e-08 4.57752e-08
6.28039e-08 4.54988e-08 5.95258e-08
6.31299e-08 -4.57167e-08 5.96152e-08
3.60983e-08 1.47374e-08 4.46262e-08
-1.20106e-08 2.90606e-08 4.00386e-08
-1.15165e-08 -2.83904e-08 3.95125e-08
-2.54787e-08 1.29749e-08 4.00242e-08
1.36147e-08 -2.52325e-08 3.83313e-08
1.41065e-08 2.55804e-08 3.86107e-08
-2.36848e-08 -1.19214e-08 3.84613e-08
-1.76816e-08 -7.09725e-08 5.64274e-08
2.09394e-08 6.8611e-08 5.59758e-08
1.07653e-08 8.35394e-08 6.09644e-08
-5.91693e-09 -8.448e-08 6.1127e-08
-7.93304e-08 4.32341e-08 6.64974e-08
-7.94182e-08 -4.32921e-08 6.65032e-08
-6.95983e-08 3.88448e-10 6.03712e-08
7.68001e-08 -3.45857e-08 6.1476e-08
7.71628e-08 3.42987e-08 6.15092e-08
1.50566e-08 -6.73187e-08 5.60731e-08
-1.16816e-08 6.9314e-08 5.65043e-08
6.08423e-09 -4.98025e-08 4.98082e-08
-4.09325e-09 5.04479e-08 4.99614e-08
2.1628e-08 7.79508e-09 3.45998e-08
8.48111e-09 5.08087e-08 5.0276e-08
-6.45631e-09 -5.16272e-08 5.04799e-08
3.69801e-08 5.91241e-08 5.39289e-08
2.26635e-08 -1.13618e-08 3.63402e-08
-3.47138e-08 -6.41418e-08 5.50102e-08
6.86957e-08 1.78558e-08 5.61684e-08
6.9874e-08 -1.98835e-08 5.67402e-08
-6.2337e-08 5.76223e-08 6.18669e-08
-6.24317e-08 -5.76776e-08 6.18833e-08
-4.00013e-08 -1.33556e-08 4.88006e-08
-5.84901e-08 -3.1324e-08 5.90287e-08
-5.83157e-08 3.12765e-08 5.89687e-08
-8.23983e-08 5.78101e-08 6.72676e-08
-8.15671e-08 5.18631e-08 6.73943e-08
-8.24928e-08 -5.78667e-08 6.72782e-08
-8.16605e-08 -5.19202e-08 6.74029e-08
3.78086e-08 -5.94294e-08 5.41283e-08
-4.66453e-08 4.1672e-08 5.57164e-08
-4.67596e-08 -4.17314e-08 5.57508e-08
-4.30335e-09 9.18997e-08 6.259e-08
9.89448e-09 -9.10089e-08 6.2461e-08
-3.55011e-08 6.47444e-08 5.52745e-08
-3.99696e-08 1.3898e-08 4.88233e-08
-4.85024e-08 9.12141e-10 5.22898e-08
6.74703e-08 3.10161e-09 5.35985e-08
2.87241e-08 4.08165e-08 4.88606e-08
7.43941e-08 4.88141e-08 6.2531e-08
7.43225e-08 -4.88614e-08 6.24634e-08
2.76024e-08 -4.02329e-08 4.83975e-08
4.06473e-08 2.97534e-08 5.007e-08
-2.5743e-08 -4.36755e-08 4.9526e-08
-1.83424e-09 8.72655e-09 1.92501e-08
-2.92073e-09 -9.02997e-09 2.02462e-08
-8.31212e-09 2.17305e-09 1.98719e-08
8.69675e-09 3.30726e-09 2.04763e-08
-2.59557e-08 4.44153e-08 4.97419e-08
4.16257e-08 -3.06223e-08 5.05942e-08
-7.36044e-08 1.95656e-08 6.25454e-08
-7.41197e-08 -1.93735e-08 6.26668e-08
3.36546e-09 -3.48718e-09 1.19786e-08
1.18345e-08 3.87643e-08 4.49871e-08
3.7958e-09 7.78102e-09 1.84941e-08
-6.82464e-09 -3.90758e-09 1.79331e-08
2.80285e-08 -6.9818e-08 5.55684e-08
1.26548e-08 -3.96992e-08 4.5541e-08
4.65302e-08 6.35171e-10 4.75841e-08
-1.24212e-08 -4.16296e-08 4.62719e-08
2.11601e-08 1.65513e-08 3.72171e-08
-6.81101e-08 4.0822e-08 6.31997e-08
-6.82178e-08 -4.08818e-08 6.32208e-08
-5.1299e-08 -6.35401e-08 5.83036e-08
-5.10142e-08 6.29049e-08 5.82547e-08
-1.19448e-08 4.215e-08 4.64603e-08
4.99002e-08 1.91692e-08 5.12082e-08
-2.49404e-08 7.21764e-08 5.60049e-08
5.11255e-08 4.11505e-08 5.55544e-08
5.14009e-08 -4.15646e-08 5.56586e-08
5.24953e-08 -1.9945e-08 5.22647e-08
-3.79539e-09 4.00235e-09 1.31315e-08
-4.69723e-09 1.97669e-08 3.18435e-08
-4.83529e-09 -1.97898e-08 3.1854e-08
-1.73285e-08 4.62477e-09 3.13755e-08
-1.74726e-08 2.09127e-08 3.77889e-08
-1.7111e-08 -2.15207e-08 3.79241e-08
-3.53933e-08 -3.77798e-08 5.09059e-08
1.76503e-08 -1.75418e-08 3.57377e-08
-3.52818e-08 3.78049e-08 5.08698e-08
-5.18695e-08 5.18497e-08 5.83405e-08
-5.2006e-08 -5.1988e-08 5.83724e-08
-3.11956e-08 2.3532e-08 4.59861e-08
-3.17599e-08 -2.33736e-08 4.62228e-08
1.84525e-09 -6.91078e-09 1.64791e-08
6.61583e-09 -1.74709e-09 1.62322e-08
5.37423e-08 5.54003e-08 5.70095e-08
5.37171e-08 -5.54159e-08 5.6988e-08
3.73805e-09 8.99516e-08 6.25536e-08
1.72924e-09 -9.00217e-08 6.25815e-08
1.18184e-07 1.23482e-07 4.53793e-08
1.22656e-07 1.7499e-07 4.56885e-08
7.21899e-08 1.78331e-07 4.56555e-08
6.65941e-08 1.25257e-07 4.52901e-08
4.07674e-08 1.93737e-07 5.83729e-08
3.36604e-08 1.14844e-07 5.81299e-08
9.67844e-08 1.81802e-07 4.29224e-08
6.48188e-08 1.53251e-07 4.1837e-08
1.2354e-07 1.4912e-07 4.22352e-08
9.2074e-08 1.19378e-07 4.26456e-08
2.97648e-08 1.97908e-07 6.14583e-08
2.23183e-08 1.13546e-07 6.1375e-08
1.53485e-07 1.80072e-07 5.65196e-08
1.46164e-07 1.19682e-07 5.57976e-08
8.90479e-08 8.78781e-08 5.61428e-08
9.78037e-08 2.155e-07 5.62458e-08
8.04187e-08 2.01203e-07 5.19792e-08
7.13257e-08 1.01522e-07 5.14731e-08
4.21481e-08 1.6717e-07 5.25246e-08
3.86017e-08 1.41554e-07 5.26745e-08
1.16633e-07 2.01298e-07 5.24118e-08
1.11013e-07 9.82702e-08 5.19712e-08
1.03736e-07 1.38097e-07 3.38363e-08
1.06421e-07 1.62072e-07 3.42069e-08
8.46521e-08 1.61022e-07 3.32111e-08
8.27308e-08 1.40619e-07 3.28646e-08
2.72642e-08 2.07237e-07 6.25469e-08
1.88968e-08 1.05135e-07 6.25201e-08
5.93623e-08 1.97156e-07 5.42541e-08
5.07898e-08 1.07175e-07 5.36719e-08
1.50095e-07 1.58191e-07 5.32877e-08
1.4572e-07 1.3904e-07 5.25064e-08
4.9912e-08 1.28981e-07 5.08393e-08
5.4698e-08 1.77245e-07 5.10693e-08
9.72848e-08 7.33255e-08 6.02674e-08
1.0653e-07 2.30968e-07 6.00668e-08
1.37817e-07 1.9334e-07 5.42055e-08
1.31132e-07 1.07265e-07 5.31057e-08
9.89026e-08 1.67054e-07 3.46229e-08
9.01881e-08 1.34022e-07 3.41496e-08
7.77485e-08 1.49318e-07 3.41046e-08
1.10929e-07 1.48813e-07 3.47435e-08
2.62306e-08 1.82998e-07 5.91837e-08
2.07482e-08 1.28383e-07 5.91036e-08
1.3252e-07 1.65101e-07 4.74875e-08
1.60415e-07 1.946e-07 5.95817e-08
1.5415e-07 1.04716e-07 5.97441e-08
1.29031e-07 1.35956e-07 4.66695e-08
8.57987e-08 1.77304e-07 4.15821e-08
1.03839e-07 1.23777e-07 4.11868e-08
7.06286e-08 1.63518e-07 4.10406e-08
1.09839e-07 1.74561e-07 4.12859e-08
7.97725e-08 1.25742e-07 4.09988e-08
7.01904e-08 1.41566e-07 3.96102e-08
7.12504e-08 8.4927e-08 5.61236e-08
8.20312e-08 2.1805e-07 5.65167e-08
9.20427e-08 2.34417e-07 6.07237e-08
8.16265e-08 7.07827e-08 6.09508e-08
2.18632e-08 1.92399e-07 6.18948e-08
1.48084e-08 1.20265e-07 6.18368e-08
2.70485e-08 1.55549e-07 5.44835e-08
1.73922e-07 1.84161e-07 6.12195e-08
1.69103e-07 1.15507e-07 6.17809e-08
1.11132e-07 2.16001e-07 5.64372e-08
1.03893e-07 8.57157e-08 5.62258e-08
1.17114e-07 1.57678e-07 3.904e-08
9.61959e-08 1.03024e-07 5.03197e-08
1.02921e-07 1.98499e-07 5.06355e-08
9.17585e-08 1.99968e-07 5.10759e-08
8.36777e-08 1.02385e-07 5.07604e-08
5.56659e-08 9.36822e-08 5.42225e-08
6.65573e-08 2.08644e-07 5.50356e-08
1.58849e-07 1.31172e-07 5.70327e-08
1.63532e-07 1.69294e-07 5.72571e-08
3.90534e-08 2.04723e-07 5.98923e-08
3.02868e-08 1.04088e-07 5.96011e-08
5.43841e-08 1.41706e-07 4.7125e-08
3.55065e-08 1.28008e-07 5.57813e-08
4.06392e-08 1.80745e-07 5.59106e-08
1.93876e-08 2.07363e-07 6.36143e-08
2.02217e-08 2.01045e-07 6.32559e-08
1.09662e-08 1.07017e-07 6.36881e-08
1.21218e-08 1.12571e-07 6.32436e-08
1.13588e-07 1.39344e-07 3.84949e-08
1.32621e-07 2.05278e-07 5.50521e-08
1.26699e-07 9.14614e-08 5.43873e-08
5.29111e-08 1.8918e-07 5.43542e-08
4.6088e-08 1.16908e-07 5.39869e-08
1.07285e-07 2.42141e-07 6.198e-08
9.686e-08 6.33213e-08 6.24309e-08
5.67636e-08 1.64932e-07 4.73231e-08
4.72944e-08 1.54523e-07 4.93783e-08
1.57027e-07 1.45918e-07 5.47606e-08
1.7263e-07 1.98724e-07 6.20122e-08
1.66266e-07 1.01759e-07 6.25703e-08
1.22845e-07 1.87422e-07 4.94177e-08
1.15307e-07 1.09806e-07 4.89334e-08
1.32845e-07 1.21707e-07 5.10457e-08
6.57188e-08 1.12411e-07 4.91671e-08
7.35782e-08 1.90717e-07 4.97248e-08
9.30371e-08 1.60567e-07 2.97658e-08
9.67252e-08 1.3988e-07 3.00665e-08
1.0474e-07 1.53611e-07 3.02142e-08
8.47541e-08 1.54314e-07 2.99885e-08
1.37221e-07 1.79431e-07 5.16164e-08
2.50159e-08 1.71288e-07 5.67343e-08
2.1234e-08 1.40083e-07 5.67193e-08
8.90694e-08 1.46289e-07 2.70992e-08
7.95679e-08 1.13339e-07 4.64589e-08
9.9344e-08 1.58901e-07 2.93137e-08
1.01503e-07 1.45967e-07 2.87105e-08
1.16629e-07 8.23891e-08 5.5781e-08
1.23221e-07 2.164e-07 5.62495e-08
1.08723e-07 1.88189e-07 4.69871e-08
1.3871e-07 1.48917e-07 4.92138e-08
8.58859e-08 1.89768e-07 4.72464e-08
3.21353e-08 1.89832e-07 5.96783e-08
2.56993e-08 1.2078e-07 5.95634e-08
4.02547e-08 9.66873e-08 5.67929e-08
5.06394e-08 2.08355e-07 5.74484e-08
1.16051e-07 1.65759e-07 4.03105e-08
1.03519e-07 1.11263e-07 4.69037e-08
1.40598e-07 1.30763e-07 5.20499e-08
1.47682e-07 1.89797e-07 5.61265e-08
1.42078e-07 1.09411e-07 5.5916e-08
1.4668e-07 1.69583e-07 5.31479e-08
9.03795e-08 1.55549e-07 2.75507e-08
9.75737e-08 1.31206e-07 3.60441e-08
9.15478e-08 1.69769e-07 3.62791e-08
7.71912e-08 1.56177e-07 3.54026e-08
7.96499e-08 1.70542e-07 4.00006e-08
1.08e-07 1.30712e-07 3.91289e-08
5.70901e-08 1.19136e-07 4.99836e-08
6.37051e-08 1.85288e-07 5.03957e-08
7.47429e-08 1.3228e-07 4.00049e-08
4.87102e-08 1.98482e-07 5.69734e-08
4.04663e-08 1.07938e-07 5.65316e-08
6.6287e-08 1.72847e-07 4.58485e-08
6.21333e-08 1.31868e-07 4.54775e-08
9.06856e-08 1.4175e-07 2.8808e-08
8.51348e-08 1.48552e-07 2.89331e-08
1.49374e-07 2.02323e-07 5.74572e-08
1.43196e-07 9.56876e-08 5.70072e-08
8.87827e-08 6.48232e-08 6.24779e-08
9.90467e-08 2.41245e-07 6.20169e-08
2.03048e-07 -2.39075e-08 4.52764e-08
2.03196e-07 2.50392e-08 4.56978e-08
1.51117e-07 2.65055e-08 4.53163e-08
1.51046e-07 -2.64713e-08 4.53649e-08
1.18814e-07 3.86997e-08 5.8101e-08
1.18734e-07 -3.86924e-08 5.81193e-08
1.76376e-07 3.01833e-08 4.28246e-08
1.4623e-07 -2.52062e-10 4.17308e-08
2.05955e-07 -9.82868e-10 4.17585e-08
1.76041e-07 -3.02603e-08 4.28975e-08
1.0757e-07 4.06753e-08 6.13146e-08
1.07469e-07 -4.06826e-08 6.13334e-08
2.34997e-07 -3.08599e-08 5.65458e-08
2.32136e-07 2.95193e-08 5.56409e-08
1.76414e-07 -6.23409e-08 5.63753e-08
1.79291e-07 6.2146e-08 5.64165e-08
1.96501e-07 4.74593e-08 5.21014e-08
1.57814e-07 -4.96122e-08 5.16065e-08
1.22138e-07 1.26386e-08 5.23164e-08
1.20575e-07 -1.26402e-08 5.27435e-08
1.96242e-07 -4.93809e-08 5.26057e-08
1.581e-07 5.19175e-08 5.21467e-08
1.86668e-07 -9.34894e-09 3.26073e-08
1.87643e-07 1.14666e-08 3.4164e-08
1.64551e-07 1.01878e-08 3.35832e-08
1.65052e-07 -9.59605e-09 3.31226e-08
1.04863e-07 4.90791e-08 6.24522e-08
1.04748e-07 -4.90928e-08 6.25006e-08
1.36773e-07 4.52816e-08 5.37206e-08
1.36692e-07 -4.51011e-08 5.37316e-08
2.33217e-07 -9.03059e-09 5.32033e-08
2.3048e-07 1.02364e-08 5.23833e-08
1.33791e-07 -2.38767e-08 5.08163e-08
1.33856e-07 2.39027e-08 5.07948e-08
1.86089e-07 -7.6996e-08 6.0488e-08
1.72218e-07 7.73319e-08 6.03672e-08
2.18274e-07 -4.30488e-08 5.43248e-08
2.18263e-07 4.20808e-08 5.41431e-08
1.79364e-07 1.60084e-08 3.45805e-08
1.78767e-07 -1.5795e-08 3.43364e-08
1.5965e-07 2.69512e-09 3.42422e-08
1.92981e-07 -1.92175e-09 3.40856e-08
1.04555e-07 2.63225e-08 5.89874e-08
1.045e-07 -2.63204e-08 5.8981e-08
2.14924e-07 -1.41767e-08 4.73743e-08
2.41152e-07 -4.55551e-08 5.96308e-08
2.40771e-07 4.51517e-08 5.95238e-08
2.12533e-07 1.42209e-08 4.63446e-08
1.6435e-07 2.64718e-08 4.17446e-08
1.64839e-07 -2.58261e-08 4.14078e-08
1.50858e-07 -1.1307e-08 4.08771e-08
1.8988e-07 -2.32631e-08 4.11275e-08
1.90311e-07 2.34579e-08 4.12728e-08
1.52774e-07 1.04242e-08 3.97274e-08
1.59347e-07 -6.60291e-08 5.62184e-08
1.9594e-07 6.37119e-08 5.67643e-08
1.87422e-07 7.96725e-08 6.11909e-08
1.71326e-07 -8.01577e-08 6.10073e-08
9.94016e-08 3.46123e-08 6.17323e-08
9.93275e-08 -3.4615e-08 6.17256e-08
1.08157e-07 2.01421e-10 5.424e-08
2.55279e-07 -3.57991e-08 6.12202e-08
2.55536e-07 3.53192e-08 6.12607e-08
1.90431e-07 -6.30893e-08 5.67243e-08
1.65202e-07 6.47793e-08 5.64459e-08
1.81922e-07 -4.6261e-08 5.07155e-08
1.72179e-07 4.67617e-08 5.05297e-08
1.98602e-07 7.40132e-09 3.84648e-08
1.84197e-07 4.70144e-08 5.11399e-08
1.69924e-07 -4.78934e-08 5.09629e-08
2.11597e-07 5.38239e-08 5.4982e-08
1.99341e-07 -1.07632e-08 3.97363e-08
1.42811e-07 -5.79967e-08 5.43096e-08
2.44336e-07 1.84446e-08 5.6715e-08
2.45821e-07 -2.06119e-08 5.72196e-08
1.16355e-07 4.93985e-08 5.96021e-08
1.16261e-07 -4.93728e-08 5.96183e-08
1.36838e-07 1.15504e-08 4.71612e-08
1.1935e-07 -2.57671e-08 5.57391e-08
1.19521e-07 2.57626e-08 5.56888e-08
9.67361e-08 4.7692e-08 6.35643e-08
9.74031e-08 4.22862e-08 6.31421e-08
9.66209e-08 -4.77445e-08 6.36279e-08
9.72927e-08 -4.23021e-08 6.31542e-08
2.12408e-07 -5.432e-08 5.52273e-08
1.31158e-07 3.59148e-08 5.3978e-08
1.31081e-07 -3.58922e-08 5.40047e-08
1.87389e-07 -8.78383e-08 6.24983e-08
1.73386e-07 8.7434e-08 6.24825e-08
1.4205e-07 5.85178e-08 5.44938e-08
1.37215e-07 -1.1126e-08 4.69305e-08
1.27977e-07 9.71247e-10 4.94028e-08
2.41224e-07 3.15461e-09 5.45906e-08
2.04525e-07 3.73915e-08 5.00865e-08
2.53248e-07 -5.02265e-08 6.20439e-08
2.53273e-07 4.99783e-08 6.20622e-08
2.03426e-07 -3.69932e-08 4.97384e-08
2.17344e-07 2.82904e-08 5.10882e-08
1.51344e-07 -3.92426e-08 4.93079e-08
1.72897e-07 9.80593e-09 3.00406e-08
1.73722e-07 -9.33438e-09 2.96902e-08
1.8702e-07 3.4784e-09 3.03182e-08
1.65965e-07 -2.45124e-09 2.9742e-08
1.51128e-07 3.99611e-08 4.94825e-08
2.18404e-07 -2.92785e-08 5.16159e-08
1.04258e-07 1.51623e-08 5.65028e-08
1.03484e-07 -1.48654e-08 5.65633e-08
1.80953e-07 -4.17193e-09 2.7193e-08
1.87649e-07 3.56036e-08 4.65049e-08
1.80506e-07 8.19308e-09 2.92462e-08
1.68097e-07 3.80229e-09 2.88177e-08
2.02576e-07 -6.43077e-08 5.65373e-08
1.88442e-07 -3.65542e-08 4.70667e-08
2.22133e-07 5.64075e-10 4.90308e-08
1.64147e-07 -3.81425e-08 4.70256e-08
1.97693e-07 1.53823e-08 4.0352e-08
1.10309e-07 3.34115e-08 5.94902e-08
1.10214e-07 -3.34155e-08 5.95036e-08
1.27204e-07 5.53988e-08 5.67632e-08
1.26935e-07 -5.59241e-08 5.6852e-08
1.64603e-07 3.86297e-08 4.71447e-08
2.26236e-07 1.90046e-08 5.21547e-08
1.52249e-07 6.65283e-08 5.56077e-08
2.28512e-07 -4.01058e-08 5.61894e-08
2.28208e-07 3.95595e-08 5.60474e-08
2.2888e-07 -2.00181e-08 5.31291e-08
1.71294e-07 -4.22098e-09 2.74696e-08
1.71391e-07 1.84786e-08 3.61425e-08
1.71346e-07 -1.84764e-08 3.62064e-08
1.58186e-07 -4.10175e-09 3.52718e-08
1.59385e-07 1.9211e-08 3.98107e-08
1.59164e-07 -1.88884e-08 3.9817e-08
1.41998e-07 -3.3035e-08 5.00297e-08
1.94309e-07 -1.6435e-08 3.94096e-08
1.42051e-07 3.31651e-08 5.00225e-08
1.26311e-07 4.49243e-08 5.6521e-08
1.26197e-07 -4.49796e-08 5.65619e-08
1.4573e-07 -2.04072e-08 4.55707e-08
1.4527e-07 2.02364e-08 4.56935e-08
1.79017e-07 -8.27991e-09 2.90075e-08
1.85197e-07 -2.32521e-09 2.88039e-08
2.29548e-07 -5.26037e-08 5.75589e-08
2.29546e-07 5.24146e-08 5.75278e-08
1.81444e-07 8.63467e-08 6.25666e-08
1.79352e-07 -8.62713e-08 6.24994e-08
1.21946e-07 -1.75406e-07 4.55819e-08
1.18897e-07 -1.23977e-07 4.5537e-08
6.65793e-08 -1.25125e-07 4.5281e-08
7.21037e-08 -1.78259e-07 4.56394e-08
3.36344e-08 -1.14795e-07 5.8119e-08
4.07019e-08 -1.93703e-07 5.83684e-08
9.14197e-08 -1.19445e-07 4.2613e-08
6.4592e-08 -1.51698e-07 4.18257e-08
1.2355e-07 -1.49921e-07 4.22434e-08
9.75126e-08 -1.81811e-07 4.29448e-08
2.23215e-08 -1.13519e-07 6.13602e-08
2.96901e-08 -1.97875e-07 6.14459e-08
1.48918e-07 -1.18612e-07 5.67259e-08
1.50507e-07 -1.78947e-07 5.56629e-08
9.77385e-08 -2.15493e-07 5.62383e-08
9.19217e-08 -8.77899e-08 5.61434e-08
1.1115e-07 -1.00339e-07 5.15255e-08
8.03705e-08 -2.01076e-07 5.19728e-08
3.94386e-08 -1.41182e-07 5.24376e-08
4.11587e-08 -1.66943e-07 5.27527e-08
1.16579e-07 -2.01359e-07 5.23762e-08
7.12054e-08 -9.90155e-08 5.20429e-08
1.06109e-07 -1.61802e-07 3.3985e-08
1.03836e-07 -1.37786e-07 3.4065e-08
8.1987e-08 -1.41321e-07 3.30579e-08
8.5439e-08 -1.61603e-07 3.30222e-08
1.89094e-08 -1.05111e-07 6.24759e-08
2.71869e-08 -2.07197e-07 6.25342e-08
5.07159e-08 -1.0691e-07 5.36848e-08
5.93104e-08 -1.97106e-07 5.42474e-08
1.48547e-07 -1.40394e-07 5.3391e-08
1.47413e-07 -1.59513e-07 5.24328e-08
5.46431e-08 -1.7721e-07 5.10742e-08
4.98662e-08 -1.28931e-07 5.08188e-08
1.06461e-07 -2.30954e-07 6.00533e-08
8.27303e-08 -7.35017e-08 6.02601e-08
1.3278e-07 -1.04622e-07 5.3936e-08
1.35957e-07 -1.90646e-07 5.3387e-08
9.53333e-08 -1.33637e-07 3.44166e-08
9.38644e-08 -1.67207e-07 3.43718e-08
7.83213e-08 -1.53863e-07 3.41376e-08
1.11044e-07 -1.50658e-07 3.47612e-08
2.07246e-08 -1.28361e-07 5.91091e-08
2.61719e-08 -1.8297e-07 5.91716e-08
1.29903e-07 -1.33688e-07 4.74923e-08
1.54536e-07 -1.04467e-07 5.98636e-08
1.5991e-07 -1.94337e-07 5.9514e-08
1.3122e-07 -1.62888e-07 4.66869e-08
7.96164e-08 -1.24189e-07 4.16711e-08
1.07954e-07 -1.76142e-07 4.14585e-08
6.79532e-08 -1.40608e-07 4.08902e-08
1.05824e-07 -1.25371e-07 4.09648e-08
8.50944e-08 -1.76455e-07 4.13124e-08
7.25516e-08 -1.62324e-07 3.97455e-08
8.19555e-08 -2.18044e-07 5.65287e-08
1.09602e-07 -8.41681e-08 5.61372e-08
9.19704e-08 -2.34408e-07 6.07213e-08
9.82095e-08 -7.05369e-08 6.09603e-08
1.47984e-08 -1.20245e-07 6.18451e-08
2.17926e-08 -1.92367e-07 6.18722e-08
2.69292e-08 -1.54875e-07 5.44825e-08
1.68843e-07 -1.15146e-07 6.17584e-08
1.74076e-07 -1.83811e-07 6.12922e-08
1.11061e-07 -2.15997e-07 5.64151e-08
7.71021e-08 -8.59482e-08 5.6313e-08
1.15552e-07 -1.4157e-07 3.89981e-08
1.02864e-07 -1.98488e-07 5.05994e-08
8.59485e-08 -1.03302e-07 5.03213e-08
9.83965e-08 -1.01954e-07 5.0765e-08
9.16935e-08 -1.99979e-07 5.1088e-08
1.26608e-07 -9.21634e-08 5.42491e-08
6.64944e-08 -2.08582e-07 5.50401e-08
1.61839e-07 -1.67294e-07 5.67849e-08
1.6018e-07 -1.29155e-07 5.75605e-08
3.02682e-08 -1.04012e-07 5.95932e-08
3.89846e-08 -2.04683e-07 5.98857e-08
5.67259e-08 -1.64373e-07 4.72404e-08
4.05082e-08 -1.80707e-07 5.59309e-08
3.55447e-08 -1.27954e-07 5.57495e-08
1.09842e-08 -1.0704e-07 6.36271e-08
1.21402e-08 -1.12562e-07 6.32339e-08
1.93027e-08 -2.07323e-07 6.3596e-08
2.01358e-08 -2.01007e-07 6.32347e-08
1.15452e-07 -1.59947e-07 3.8584e-08
1.31713e-07 -2.05737e-07 5.50098e-08
4.60417e-08 -1.16833e-07 5.39746e-08
5.28526e-08 -1.89139e-07 5.43513e-08
1.07215e-07 -2.42127e-07 6.1969e-08
8.25416e-08 -6.34511e-08 6.24137e-08
5.47336e-08 -9.30899e-08 5.44185e-08
5.42007e-08 -1.41148e-07 4.71953e-08
4.70776e-08 -1.52919e-07 4.93705e-08
1.57529e-07 -1.52182e-07 5.47226e-08
1.17948e-07 -1.11698e-07 4.89013e-08
1.6628e-07 -1.01624e-07 6.25927e-08
1.72535e-07 -1.98613e-07 6.20672e-08
1.20017e-07 -1.89054e-07 4.93021e-08
1.36795e-07 -1.76787e-07 5.11075e-08
7.34581e-08 -1.905e-07 4.96749e-08
9.03742e-08 -1.40649e-07 2.96118e-08
9.91272e-08 -1.60663e-07 3.0228e-08
1.03773e-07 -1.46289e-07 3.01682e-08
8.3811e-08 -1.48037e-07 2.99396e-08
6.53328e-08 -1.11441e-07 4.94242e-08
1.32922e-07 -1.19099e-07 5.15362e-08
2.16168e-08 -1.39804e-07 5.66821e-08
2.45003e-08 -1.71067e-07 5.67689e-08
9.04745e-08 -1.55252e-07 2.71798e-08
8.66221e-08 -1.88879e-07 4.6832e-08
1.0254e-07 -1.13092e-07 4.61727e-08
9.70517e-08 -1.41603e-07 2.91715e-08
1.02525e-07 -1.54095e-07 2.87847e-08
1.22989e-07 -2.16533e-07 5.62561e-08
1.38712e-07 -1.49834e-07 4.92267e-08
2.56963e-08 -1.2075e-07 5.95551e-08
3.20566e-08 -1.89801e-07 5.96715e-08
4.04374e-08 -9.71375e-08 5.6719e-08
5.05765e-08 -2.08305e-07 5.74462e-08
1.13227e-07 -1.33517e-07 4.01946e-08
1.08785e-07 -1.88958e-07 4.72288e-08
7.88898e-08 -1.11911e-07 4.7023e-08
1.43522e-07 -1.67882e-07 5.19842e-08
6.40654e-08 -8.45437e-08 5.54979e-08
1.42471e-07 -1.08481e-07 5.6121e-08
1.47126e-07 -1.88814e-07 5.59458e-08
1.43429e-07 -1.29104e-07 5.32699e-08
8.87987e-08 -1.46037e-07 2.74666e-08
1.01196e-07 -1.69277e-07 3.62743e-08
8.72402e-08 -1.31707e-07 3.60413e-08
7.59751e-08 -1.4717e-07 3.53363e-08
1.11196e-07 -1.68883e-07 3.93245e-08
7.5027e-08 -1.32557e-07 3.97104e-08
6.36377e-08 -1.85235e-07 5.03913e-08
7.90266e-08 -1.70642e-07 4.02603e-08
5.70185e-08 -1.18942e-07 4.99943e-08
4.04635e-08 -1.07933e-07 5.65043e-08
4.86492e-08 -1.98439e-07 5.69692e-08
6.18618e-08 -1.31642e-07 4.55847e-08
6.639e-08 -1.72612e-07 4.57287e-08
9.29894e-08 -1.59489e-07 2.89516e-08
8.58404e-08 -1.53603e-07 2.89718e-08
1.44813e-07 -9.50336e-08 5.74096e-08
1.48289e-07 -2.01736e-07 5.72755e-08
9.06966e-08 -6.47695e-08 6.24744e-08
9.89766e-08 -2.41233e-07 6.20101e-08
-4.87805e-08 -1.87558e-07 4.54788e-08
-5.6418e-08 -1.34715e-07 4.65067e-08
-1.13109e-07 -1.48424e-07 4.8474e-08
-9.86809e-08 -2.03171e-07 4.62427e-08
-1.31307e-07 -2.2417e-07 5.86528e-08
-1.52942e-07 -1.4519e-07 6.25708e-08
-8.64845e-08 -1.36056e-07 4.47462e-08
-1.09362e-07 -1.77965e-07 4.34518e-08
-4.93189e-08 -1.62487e-07 4.18358e-08
-7.27558e-08 -2.00759e-07 4.32721e-08
-1.43474e-07 -2.29632e-07 6.15058e-08
-1.66946e-07 -1.4679e-07 6.57535e-08
-2.87878e-08 -1.28597e-07 5.59623e-08
-1.80619e-08 -1.90015e-07 5.69323e-08
-6.82059e-08 -2.34923e-07 5.65665e-08
-9.06138e-08 -1.02469e-07 5.95122e-08
-1.10138e-07 -1.21254e-07 5.60655e-08
-8.74962e-08 -2.23992e-07 5.23274e-08
-1.30255e-07 -1.97561e-07 5.39059e-08
-1.39061e-07 -1.71324e-07 5.55554e-08
-6.67879e-08 -1.1012e-07 5.35696e-08
-5.12402e-08 -2.16907e-07 5.28012e-08
-6.66148e-08 -1.75174e-07 3.27363e-08
-7.07816e-08 -1.52368e-07 3.47589e-08
-9.36395e-08 -1.62462e-07 3.46521e-08
-8.80136e-08 -1.83603e-07 3.44191e-08
-1.45285e-07 -2.38828e-07 6.24339e-08
-1.73843e-07 -1.39504e-07 6.79451e-08
-1.10416e-07 -2.24281e-07 5.45941e-08
-1.3421e-07 -1.32911e-07 5.89652e-08
-2.03194e-08 -1.67554e-07 5.30499e-08
-2.60782e-08 -1.48665e-07 5.23016e-08
-1.17155e-07 -2.05656e-07 5.18498e-08
-1.30529e-07 -1.5605e-07 5.40769e-08
-8.21532e-08 -8.53537e-08 6.3158e-08
-5.77488e-08 -2.49286e-07 6.03778e-08
-3.2067e-08 -2.05426e-07 5.47251e-08
-4.51389e-08 -1.16888e-07 5.38532e-08
-8.05707e-08 -1.50089e-07 3.57131e-08
-7.26402e-08 -1.84685e-07 3.46302e-08
-9.50522e-08 -1.77421e-07 3.54405e-08
-6.21941e-08 -1.65617e-07 3.4222e-08
-1.4681e-07 -2.15456e-07 5.98175e-08
-1.62233e-07 -1.61844e-07 6.24403e-08
-3.85274e-08 -1.75028e-07 4.74619e-08
-2.26199e-08 -1.11884e-07 6.00679e-08
-1.13271e-08 -2.04889e-07 6.02986e-08
-4.57402e-08 -1.46877e-07 4.62047e-08
-9.79344e-08 -1.44626e-07 4.381e-08
-8.4478e-08 -1.98968e-07 4.20279e-08
-1.08411e-07 -1.649e-07 4.30072e-08
-6.10026e-08 -1.89801e-07 4.13385e-08
-7.00746e-08 -1.38831e-07 4.21901e-08
-1.00068e-07 -1.87197e-07 4.0894e-08
-8.37647e-08 -2.40303e-07 5.68304e-08
-1.10405e-07 -1.03123e-07 6.17843e-08
-7.18044e-08 -2.54847e-07 6.10124e-08
-9.87114e-08 -8.51823e-08 6.57302e-08
-1.5234e-07 -2.25103e-07 6.20134e-08
-1.72806e-07 -1.55519e-07 6.55075e-08
-1.45816e-07 -1.8782e-07 5.67577e-08
7.06801e-10 -1.93675e-07 6.18401e-08
-7.21995e-09 -1.22031e-07 6.18287e-08
-7.4891e-08 -9.77272e-08 5.84392e-08
-5.49288e-08 -2.3315e-07 5.6793e-08
-8.22776e-08 -1.17449e-07 5.27158e-08
-6.49634e-08 -2.16583e-07 5.09753e-08
-5.85967e-08 -1.5474e-07 3.86924e-08
-9.59721e-08 -1.19447e-07 5.41276e-08
-7.60022e-08 -2.20381e-07 5.14169e-08
-5.42575e-08 -1.73986e-07 3.98435e-08
-1.01088e-07 -2.34119e-07 5.53409e-08
-1.29306e-07 -1.17084e-07 6.09106e-08
-1.37127e-08 -1.39534e-07 5.67184e-08
-7.46391e-09 -1.78453e-07 5.72897e-08
-1.32193e-07 -2.35054e-07 5.99717e-08
-1.59983e-07 -1.35257e-07 6.53633e-08
-1.15937e-07 -1.92603e-07 4.86149e-08
-1.31726e-07 -2.11558e-07 5.66333e-08
-1.46512e-07 -1.57975e-07 5.91796e-08
-1.5449e-07 -2.39744e-07 6.33977e-08
-1.54675e-07 -2.33512e-07 6.30911e-08
-1.82498e-07 -1.43625e-07 6.87072e-08
-1.79306e-07 -1.48945e-07 6.74373e-08
-5.075e-08 -1.0086e-07 5.54525e-08
-3.55081e-08 -2.18563e-07 5.55531e-08
-1.18283e-07 -2.17743e-07 5.47979e-08
-1.37955e-07 -1.44275e-07 5.82806e-08
-5.57494e-08 -2.60577e-07 6.2274e-08
-8.27629e-08 -7.46479e-08 6.55269e-08
-1.22011e-07 -1.68726e-07 4.93847e-08
-1.26932e-07 -1.83906e-07 5.14839e-08
-1.28925e-08 -1.54787e-07 5.42344e-08
-1.12923e-08 -1.0747e-07 6.28508e-08
-8.91185e-11 -2.08837e-07 6.28584e-08
-4.65004e-08 -2.01776e-07 5.00022e-08
-5.98854e-08 -1.21152e-07 5.03688e-08
-4.07172e-08 -1.31108e-07 5.19853e-08
-9.58962e-08 -2.15095e-07 5.01414e-08
-1.15773e-07 -1.34553e-07 5.3383e-08
-8.48973e-08 -1.5918e-07 3.08255e-08
-7.97103e-08 -1.80373e-07 3.05163e-08
-6.95793e-08 -1.61055e-07 3.06444e-08
-9.02164e-08 -1.69923e-07 3.08597e-08
-3.37535e-08 -1.90603e-07 5.19143e-08
-1.47127e-07 -2.04061e-07 5.81282e-08
-1.56696e-07 -1.73558e-07 5.96749e-08
-7.33215e-08 -1.71114e-07 2.73523e-08
-7.75432e-08 -1.57747e-07 3.00607e-08
-8.61741e-08 -1.75996e-07 2.96612e-08
-4.29571e-08 -2.31651e-07 5.66681e-08
-6.16261e-08 -9.25622e-08 5.73631e-08
-6.03166e-08 -2.04674e-07 4.73113e-08
-7.3231e-08 -1.25153e-07 4.8548e-08
-3.29718e-08 -1.59193e-07 4.8931e-08
-1.01046e-07 -1.31586e-07 5.01819e-08
-8.31098e-08 -2.11404e-07 4.76234e-08
-6.10292e-08 -1.46395e-07 4.07706e-08
-1.40875e-07 -2.21556e-07 6.00067e-08
-1.60183e-07 -1.53017e-07 6.33839e-08
-1.18525e-07 -2.36844e-07 5.76482e-08
-1.48723e-07 -1.24742e-07 6.37669e-08
-3.20937e-08 -1.39773e-07 5.24257e-08
-3.42176e-08 -1.18345e-07 5.62373e-08
-2.32321e-08 -2.00614e-07 5.66731e-08
-2.43364e-08 -1.79374e-07 5.32624e-08
-8.55615e-08 -1.66089e-07 2.84671e-08
-8.94905e-08 -1.50293e-07 3.78517e-08
-7.9307e-08 -1.89824e-07 3.66818e-08
-9.86498e-08 -1.70554e-07 3.679e-08
-1.02382e-07 -1.54113e-07 4.21081e-08
-9.15457e-08 -1.93715e-07 4.05828e-08
-1.07006e-07 -2.11822e-07 5.0914e-08
-1.2484e-07 -1.44067e-07 5.39097e-08
-5.81249e-08 -1.81189e-07 3.95648e-08
-1.22019e-07 -2.27501e-07 5.72314e-08
-1.46598e-07 -1.36432e-07 6.18501e-08
-1.16796e-07 -1.56512e-07 4.83901e-08
-1.05902e-07 -1.98818e-07 4.6762e-08
-7.41182e-08 -1.76319e-07 2.90803e-08
-6.98088e-08 -1.6783e-07 2.89752e-08
-3.32816e-08 -1.03228e-07 5.76879e-08
-2.04711e-08 -2.13542e-07 5.81164e-08
-9.1156e-08 -7.76042e-08 6.64693e-08
-6.41011e-08 -2.60724e-07 6.23004e-08
-1.63656e-07 -4.35045e-08 7.14748e-08
-2.57913e-07 5.09572e-08 7.47926e-08
-1.6374e-07 4.52295e-08 7.14372e-08
-2.57998e-07 -5.09679e-08 7.47937e-08
-3.03699e-07 6.43223e-08 7.62334e-08
-3.03713e-07 -6.4364e-08 7.62322e-08
-2.10076e-07 6.02568e-08 7.30698e-08
-2.70625e-07 1.52717e-09 7.51204e-08
-1.5611e-07 -1.75458e-09 7.14201e-08
-2.10668e-07 -6.03522e-08 7.30835e-08
-3.18454e-07 6.68909e-08 7.66633e-08
-3.18468e-07 -6.69278e-08 7.66624e-08
-1.2681e-07 4.26692e-08 7.06485e-08
-1.23691e-07 -4.37545e-08 7.05669e-08
-2.0635e-07 -1.01488e-07 7.2814e-08
-2.01958e-07 1.00835e-07 7.25469e-08
-1.75626e-07 7.93091e-08 7.09291e-08
-2.3891e-07 -8.53619e-08 7.41733e-08
-3.01651e-07 2.3774e-08 7.59276e-08
-3.02802e-07 -2.3289e-08 7.59486e-08
-1.75922e-07 -8.20244e-08 7.08003e-08
-2.37813e-07 8.83939e-08 7.41394e-08
-1.87572e-07 -2.35875e-08 7.24023e-08
-2.3863e-07 2.42876e-08 7.41755e-08
-1.86497e-07 2.73645e-08 7.23547e-08
-2.3942e-07 -2.52798e-08 7.42023e-08
-3.21199e-07 7.73997e-08 7.67466e-08
-3.21218e-07 -7.74352e-08 7.67459e-08
-2.75746e-07 7.56974e-08 7.53504e-08
-2.75827e-07 -7.55016e-08 7.5352e-08
-1.22161e-07 -1.30131e-08 6.98492e-08
-1.25761e-07 1.52153e-08 7.00586e-08
-2.85005e-07 4.36678e-08 7.56075e-08
-2.85014e-07 -4.37159e-08 7.56071e-08
-1.91193e-07 -1.16661e-07 7.1562e-08
-2.10323e-07 1.19791e-07 7.31504e-08
-1.44611e-07 -6.61392e-08 7.0053e-08
-1.44647e-07 6.48612e-08 7.01346e-08
-2.04606e-07 3.81373e-08 7.29557e-08
-2.05795e-07 -3.77267e-08 7.29943e-08
-2.50201e-07 -6.51644e-09 7.4546e-08
-1.75243e-07 -4.51641e-09 7.20324e-08
-3.22169e-07 4.64678e-08 7.65141e-08
-3.22177e-07 -4.65049e-08 7.65127e-08
-1.45516e-07 -2.37825e-08 7.11085e-08
-1.18194e-07 -6.08292e-08 7.01768e-08
-1.18645e-07 6.0548e-08 7.0195e-08
-1.48686e-07 2.4504e-08 7.12013e-08
-2.3414e-07 5.36927e-08 7.39954e-08
-2.33292e-07 -5.28572e-08 7.39631e-08
-2.6261e-07 2.38256e-08 7.4912e-08
-1.84686e-07 -4.73443e-08 7.21333e-08
-1.83949e-07 4.73926e-08 7.21162e-08
-2.59899e-07 -2.23306e-08 7.48292e-08
-2.3174e-07 -1.06749e-07 7.39802e-08
-1.76505e-07 9.97193e-08 7.02309e-08
-2.10982e-07 -1.23341e-07 7.3195e-08
-1.89231e-07 1.19379e-07 7.13628e-08
-3.28438e-07 5.8805e-08 7.67882e-08
-3.2845e-07 -5.88398e-08 7.67874e-08
-3.18841e-07 5.76598e-10 7.61281e-08
-1.02547e-07 -4.60131e-08 7.00035e-08
-1.02174e-07 4.5479e-08 6.99622e-08
-1.84848e-07 -1.00014e-07 7.11051e-08
-2.23158e-07 1.05128e-07 7.36634e-08
-1.98988e-07 -8.09806e-08 7.24048e-08
-2.15411e-07 8.24275e-08 7.32589e-08
-1.67231e-07 1.5329e-08 7.17839e-08
-1.95209e-07 8.1555e-08 7.21912e-08
-2.19008e-07 -8.38406e-08 7.34074e-08
-1.53175e-07 8.35546e-08 6.89527e-08
-1.6653e-07 -2.15924e-08 7.17539e-08
-2.61556e-07 -9.40653e-08 7.48419e-08
-1.10844e-07 2.54723e-08 6.93818e-08
-1.09668e-07 -2.82486e-08 6.93716e-08
-3.05682e-07 7.81162e-08 7.62956e-08
-3.05702e-07 -7.81573e-08 7.62947e-08
-2.82417e-07 -2.18419e-08 7.54585e-08
-3.03967e-07 4.57609e-08 7.6139e-08
-3.04059e-07 -4.57638e-08 7.61398e-08
-3.30835e-07 7.56093e-08 7.69406e-08
-3.30699e-07 6.86678e-08 7.69192e-08
-3.30852e-07 -7.56421e-08 7.69399e-08
-3.30714e-07 -6.87011e-08 7.69185e-08
-1.51948e-07 -8.38462e-08 6.88946e-08
-2.86703e-07 6.16533e-08 7.57107e-08
-2.86725e-07 -6.1684e-08 7.57098e-08
-1.88924e-07 -1.27815e-07 7.11029e-08
-2.07103e-07 1.31621e-07 7.29551e-08
-2.62727e-07 9.45554e-08 7.4871e-08
-2.82447e-07 2.27925e-08 7.54615e-08
-2.94071e-07 1.44765e-09 7.57042e-08
-1.11789e-07 4.51631e-09 6.86316e-08
-1.62995e-07 6.35555e-08 7.085e-08
-1.05692e-07 6.23313e-08 6.9983e-08
-1.05713e-07 -6.25412e-08 6.99759e-08
-1.64524e-07 -6.33712e-08 7.09296e-08
-1.44793e-07 4.54056e-08 7.09537e-08
-2.53412e-07 -7.01279e-08 7.46488e-08
-2.18339e-07 2.5895e-08 7.34794e-08
-2.20624e-07 -2.61104e-08 7.35585e-08
-1.8616e-07 9.18153e-09 7.23485e-08
-2.38168e-07 6.51642e-09 7.41997e-08
-2.53641e-07 7.10586e-08 7.46587e-08
-1.43473e-07 -4.64645e-08 7.09047e-08
-3.22873e-07 2.81131e-08 7.63149e-08
-3.23395e-07 -2.77885e-08 7.63168e-08
-1.98839e-07 -1.30755e-08 7.27703e-08
-1.89806e-07 6.56806e-08 7.20956e-08
-2.00732e-07 2.30494e-08 7.28526e-08
-2.34196e-07 -1.12312e-08 7.40833e-08
-1.66373e-07 -9.90682e-08 6.90165e-08
-1.88415e-07 -6.69001e-08 7.19866e-08
-1.35158e-07 9.54931e-10 7.05157e-08
-2.3107e-07 -7.05366e-08 7.38841e-08
-1.70168e-07 3.07961e-08 7.18077e-08
-3.15232e-07 5.70461e-08 7.65018e-08
-3.15255e-07 -5.70788e-08 7.65009e-08
-2.88091e-07 8.73947e-08 7.56751e-08
-2.88274e-07 -8.81059e-08 7.56747e-08
-2.30237e-07 7.11983e-08 7.38541e-08
-1.32149e-07 2.90612e-08 7.06179e-08
-2.42934e-07 1.06653e-07 7.4266e-08
-1.3207e-07 -5.82661e-08 7.03035e-08
-1.32431e-07 5.76291e-08 7.03401e-08
-1.29118e-07 -2.99278e-08 7.05393e-08
-2.26303e-07 1.37802e-08 7.38059e-08
-2.2197e-07 -4.22813e-08 7.35699e-08
-2.21972e-07 4.22212e-08 7.35731e-08
-2.52075e-07 9.95298e-09 7.45978e-08
-2.46905e-07 3.98106e-08 7.44316e-08
-2.45939e-07 -4.07679e-08 7.43988e-08
-2.70777e-07 -5.92739e-08 7.5206e-08
-1.75651e-07 -3.39813e-08 7.19574e-08
-2.70744e-07 5.93656e-08 7.52069e-08
-2.91976e-07 7.34575e-08 7.58701e-08
-2.92041e-07 -7.35835e-08 7.58704e-08
-2.68338e-07 3.96696e-08 7.51033e-08
-2.69026e-07 -3.92536e-08 7.51227e-08
-2.04977e-07 -2.25578e-08 7.30026e-08
-1.89655e-07 -6.3853e-09 7.24499e-08
-1.30343e-07 7.40351e-08 6.88808e-08
-1.30308e-07 -7.42107e-08 6.88765e-08
-1.99892e-07 -1.28671e-07 7.23802e-08
-1.97034e-07 1.27955e-07 7.21063e-08
-5.70245e-08 1.36477e-07 4.56319e-08
-4.84045e-08 1.88916e-07 4.59813e-08
-9.84992e-08 2.03022e-07 4.61958e-08
-1.13144e-07 1.48293e-07 4.85307e-08
-1.52982e-07 1.45114e-07 6.26044e-08
-1.31204e-07 2.2409e-07 5.86562e-08
-7.24287e-08 2.00559e-07 4.32725e-08
-1.09163e-07 1.78478e-07 4.34389e-08
-4.9606e-08 1.60541e-07 4.18179e-08
-8.64122e-08 1.35952e-07 4.47273e-08
-1.67006e-07 1.46709e-07 6.57924e-08
-1.43373e-07 2.29559e-07 6.15099e-08
-2.07738e-08 1.8904e-07 5.60157e-08
-2.61424e-08 1.27225e-07 5.684e-08
-9.05219e-08 1.02405e-07 5.9492e-08
-6.55898e-08 2.34283e-07 5.65822e-08
-5.12852e-08 2.14853e-07 5.23636e-08
-1.1008e-07 1.21147e-07 5.60826e-08
-1.37573e-07 1.70895e-07 5.51448e-08
-1.31649e-07 1.97896e-07 5.43397e-08
-6.6705e-08 1.10117e-07 5.35112e-08
-8.67744e-08 2.26013e-07 5.29103e-08
-7.13992e-08 1.5485e-07 3.30076e-08
-6.51123e-08 1.77425e-07 3.44433e-08
-8.73534e-08 1.82732e-07 3.3849e-08
-9.44612e-08 1.61874e-07 3.52765e-08
-1.73925e-07 1.39417e-07 6.79965e-08
-1.45187e-07 2.38751e-07 6.24405e-08
-1.34202e-07 1.32818e-07 5.90082e-08
-1.10267e-07 2.24324e-07 5.46202e-08
-2.27823e-08 1.49858e-07 5.30347e-08
-2.30782e-08 1.69182e-07 5.23121e-08
-1.3055e-07 1.5596e-07 5.41228e-08
-1.17052e-07 2.05563e-07 5.1827e-08
-8.2059e-08 8.53024e-08 6.31371e-08
-7.12807e-08 2.51768e-07 6.03953e-08
-4.37308e-08 1.1386e-07 5.4566e-08
-3.21913e-08 2.04549e-07 5.45779e-08
-7.20167e-08 1.84716e-07 3.49688e-08
-8.09694e-08 1.50446e-07 3.53889e-08
-9.67684e-08 1.71702e-07 3.56934e-08
-6.30228e-08 1.61507e-07 3.42478e-08
-1.62282e-07 1.61788e-07 6.24752e-08
-1.467e-07 2.15397e-07 5.98151e-08
-4.3025e-08 1.45828e-07 4.74605e-08
-1.16759e-08 2.04676e-07 6.02005e-08
-2.22432e-08 1.1161e-07 6.01364e-08
-4.0818e-08 1.75521e-07 4.6474e-08
-8.48321e-08 1.99549e-07 4.24413e-08
-9.79027e-08 1.44466e-07 4.38358e-08
-1.01664e-07 1.8851e-07 4.20051e-08
-7.04818e-08 1.39423e-07 4.18663e-08
-6.05529e-08 1.89978e-07 4.15779e-08
-1.06296e-07 1.6526e-07 4.18396e-08
-1.1033e-07 1.03029e-07 6.17893e-08
-4.95776e-08 2.32733e-07 5.68609e-08
-5.63476e-08 2.51988e-07 6.10347e-08
-9.86249e-08 8.5111e-08 6.57214e-08
-1.72858e-07 1.5545e-07 6.55475e-08
-1.52241e-07 2.25034e-07 6.20148e-08
-1.45893e-07 1.87358e-07 5.67906e-08
-7.54097e-09 1.21759e-07 6.17942e-08
1.01725e-09 1.93318e-07 6.18566e-08
-7.47978e-08 9.76931e-08 5.84004e-08
-7.84697e-08 2.38681e-07 5.68921e-08
-8.21842e-08 1.17406e-07 5.26678e-08
-7.40452e-08 2.1884e-07 5.09848e-08
-5.55307e-08 1.70543e-07 3.86144e-08
-6.27852e-08 2.16978e-07 5.14259e-08
-9.58933e-08 1.19355e-07 5.41181e-08
-3.63322e-08 2.18366e-07 5.53323e-08
-5.84276e-08 1.51067e-07 3.99486e-08
-1.29259e-07 1.16981e-07 6.09487e-08
-8.81796e-09 1.7641e-07 5.67341e-08
-1.27595e-08 1.37361e-07 5.72561e-08
-1.60015e-07 1.35182e-07 6.53941e-08
-1.32092e-07 2.34974e-07 5.99789e-08
-1.22555e-07 1.68308e-07 4.97021e-08
-1.46429e-07 1.5788e-07 5.91756e-08
-1.31737e-07 2.11526e-07 5.66654e-08
-1.82597e-07 1.43552e-07 6.87773e-08
-1.79378e-07 1.48875e-07 6.74881e-08
-1.54391e-07 2.39672e-07 6.34023e-08
-1.54575e-07 2.33441e-07 6.30943e-08
-4.98009e-08 1.01159e-07 5.5382e-08
-1.37974e-07 1.44185e-07 5.83213e-08
-1.1817e-07 2.17653e-07 5.47921e-08
-8.2671e-08 7.45933e-08 6.55116e-08
-7.00703e-08 2.62872e-07 6.22878e-08
-1.01771e-07 2.347e-07 5.55789e-08
-1.15523e-07 1.92001e-07 4.8359e-08
-1.27445e-07 1.81826e-07 5.15901e-08
-1.19721e-08 1.61196e-07 5.42313e-08
-4.53983e-08 2.02106e-07 5.04141e-08
-6.3278e-11 2.08736e-07 6.28781e-08
-1.12934e-08 1.07418e-07 6.2776e-08
-5.80803e-08 1.21943e-07 5.01979e-08
-3.47734e-08 1.89849e-07 5.14143e-08
-1.15754e-07 1.34438e-07 5.34201e-08
-7.8775e-08 1.7966e-07 3.01897e-08
-8.58198e-08 1.59189e-07 3.11904e-08
-6.76381e-08 1.68673e-07 3.05315e-08
-8.85373e-08 1.75186e-07 3.06613e-08
-9.59453e-08 2.15689e-07 5.03568e-08
-4.22967e-08 1.29295e-07 5.18605e-08
-1.56143e-07 1.73017e-07 5.9666e-08
-1.47758e-07 2.03852e-07 5.81916e-08
-7.60111e-08 1.61948e-07 2.75812e-08
-6.11908e-08 2.03901e-07 4.68241e-08
-7.25143e-08 1.75883e-07 2.96427e-08
-8.88595e-08 1.67848e-07 3e-08
-6.13506e-08 9.26018e-08 5.7268e-08
-7.38017e-08 1.25763e-07 4.82444e-08
-3.27325e-08 1.60311e-07 4.89348e-08
-1.0099e-07 1.31461e-07 5.01946e-08
-5.49661e-08 1.79444e-07 4.05751e-08
-1.60213e-07 1.52942e-07 6.34133e-08
-1.40791e-07 2.21495e-07 6.00128e-08
-1.48697e-07 1.24658e-07 6.38106e-08
-1.18373e-07 2.36203e-07 5.76171e-08
-8.25528e-08 2.11648e-07 4.77959e-08
-2.69058e-08 1.7874e-07 5.22977e-08
-9.05516e-08 2.40986e-07 5.64627e-08
-3.3688e-08 1.17097e-07 5.64939e-08
-2.3544e-08 2.00215e-07 5.65513e-08
-2.99562e-08 1.38849e-07 5.3218e-08
-8.22478e-08 1.75266e-07 2.8101e-08
-7.92354e-08 1.89638e-07 3.66916e-08
-8.94424e-08 1.5012e-07 3.78573e-08
-9.59768e-08 1.79235e-07 3.64292e-08
-9.18018e-08 1.93363e-07 4.05571e-08
-1.0231e-07 1.53908e-07 4.213e-08
-1.24865e-07 1.43953e-07 5.39658e-08
-6.47602e-08 1.4588e-07 3.98255e-08
-1.0687e-07 2.11792e-07 5.09093e-08
-1.46613e-07 1.36347e-07 6.18887e-08
-1.21889e-07 2.27326e-07 5.72249e-08
-1.05269e-07 1.98739e-07 4.65712e-08
-1.17293e-07 1.56758e-07 4.85958e-08
-7.90279e-08 1.58541e-07 2.95271e-08
-7.10554e-08 1.62797e-07 2.90573e-08
-2.04736e-08 2.13512e-07 5.81094e-08
-3.27994e-08 1.02872e-07 5.77313e-08
-6.21447e-08 2.6034e-07 6.23187e-08
-9.10671e-08 7.7541e-08 6.64573e-08
2.65394e-08 -2.56059e-08 -4.32635e-08
2.67954e-08 2.7053e-08 -4.38689e-08
-2.57466e-08 2.99347e-08 -4.51142e-08
-2.5912e-08 -3.00003e-08 -4.52038e-08
-5.96064e-08 -4.58693e-08 -6.07539e-08
-5.95065e-08 4.5804e-08 -6.07318e-08
2.47056e-10 3.28176e-08 -4.08909e-08
-3.01577e-08 8.49326e-10 -4.17371e-08
2.94626e-08 -9.32988e-10 -3.89358e-08
-8.89786e-11 -3.27758e-08 -4.08829e-08
-7.12099e-08 4.91932e-08 -6.46928e-08
-7.13065e-08 -4.92533e-08 -6.4707e-08
5.50017e-08 2.98077e-08 -5.51558e-08
5.76935e-08 -3.08673e-08 -5.61344e-08
1.15691e-10 -6.62407e-08 -5.60965e-08
3.12297e-09 6.61192e-08 -5.60662e-08
2.12578e-08 5.16189e-08 -5.10584e-08
-1.90882e-08 -5.40861e-08 -5.16232e-08
-5.52996e-08 1.55983e-08 -5.60185e-08
-5.63156e-08 -1.53512e-08 -5.64057e-08
2.11307e-08 -5.36034e-08 -5.15257e-08
-1.88325e-08 5.64772e-08 -5.22219e-08
9.63394e-09 -9.66839e-09 -2.53863e-08
1.09673e-08 1.2193e-08 -2.82604e-08
-1.07518e-08 1.05431e-08 -2.73677e-08
-1.14038e-08 -1.12492e-08 -2.8375e-08
-7.42967e-08 5.85668e-08 -6.54469e-08
-7.43923e-08 -5.86224e-08 -6.54603e-08
-4.09668e-08 5.12731e-08 -5.4872e-08
-4.10688e-08 -5.11465e-08 -5.48704e-08
5.81403e-08 -8.62235e-09 -5.22099e-08
5.50548e-08 1.00438e-08 -5.137e-08
-4.36441e-08 -2.81697e-08 -5.26824e-08
-4.35156e-08 2.80946e-08 -5.26296e-08
9.51706e-09 -8.06764e-08 -6.02607e-08
-4.92626e-09 8.15963e-08 -6.04096e-08
4.21239e-08 -4.60436e-08 -5.34436e-08
4.20789e-08 4.51307e-08 -5.33246e-08
3.07154e-09 1.70641e-08 -2.91683e-08
2.35189e-09 -1.65507e-08 -2.8504e-08
-1.60997e-08 -3.02873e-09 -2.98647e-08
1.55745e-08 -1.86981e-09 -2.7692e-08
-7.36212e-08 3.30996e-08 -6.39755e-08
-7.37088e-08 -3.31563e-08 -6.39882e-08
3.85913e-08 -1.44869e-08 -4.57752e-08
6.28039e-08 4.54988e-08 -5.95258e-08
6.31299e-08 -4.57167e-08 -5.96152e-08
3.60983e-08 1.47374e-08 -4.46262e-08
-1.20106e-08 2.90606e-08 -4.00386e-08
-1.15165e-08 -2.83904e-08 -3.95125e-08
-2.54787e-08 1.29749e-08 -4.00242e-08
1.36147e-08 -2.52325e-08 -3.83313e-08
1.41065e-08 2.55804e-08 -3.86107e-08
-2.36848e-08 -1.19214e-08 -3.84613e-08
-1.76816e-08 -7.09725e-08 -5.64274e-08
2.09394e-08 6.8611e-08 -5.59758e-08
1.07653e-08 8.35394e-08 -6.09644e-08
-5.91693e-09 -8.448e-08 -6.1127e-08
-7.93304e-08 4.32341e-08 -6.64974e-08
-7.94182e-08 -4.32921e-08 -6.65032e-08
-6.95983e-08 3.88448e-10 -6.03712e-08
7.68001e-08 -3.45857e-08 -6.1476e-08
7.71628e-08 3.42987e-08 -6.15092e-08
1.50566e-08 -6.73187e-08 -5.60731e-08
-1.16816e-08 6.9314e-08 -5.65043e-08
6.08423e-09 -4.98025e-08 -4.98082e-08
-4.09325e-09 5.04479e-08 -4.99614e-08
2.1628e-08 7.79508e-09 -3.45998e-08
8.48111e-09 5.08087e-08 -5.0276e-08
-6.45631e-09 -5.16272e-08 -5.04799e-08
3.69801e-08 5.91241e-08 -5.39289e-08
2.26635e-08 -1.13618e-08 -3.63402e-08
-3.47138e-08 -6.41418e-08 -5.50102e-08
6.86957e-08 1.78558e-08 -5.61684e-08
6.9874e-08 -1.98835e-08 -5.67402e-08
-6.2337e-08 5.76223e-08 -6.18669e-08
-6.24317e-08 -5.76776e-08 -6.18833e-08
-4.00013e-08 -1.33556e-08 -4.88006e-08
-5.84901e-08 -3.1324e-08 -5.90287e-08
-5.83157e-08 3.12765e-08 -5.89687e-08
-8.23983e-08 5.78101e-08 -6.72676e-08
-8.15671e-08 5.18631e-08 -6.73943e-08
-8.24928e-08 -5.78667e-08 -6.72782e-08
-8.16605e-08 -5.19202e-08 -6.74029e-08
3.78086e-08 -5.94294e-08 -5.41283e-08
-4.66453e-08 4.1672e-08 -5.57164e-08
-4.67596e-08 -4.17314e-08 -5.57508e-08
-4.30335e-09 9.18997e-08 -6.259e-08
9.89448e-09 -9.10089e-08 -6.2461e-08
-3.55011e-08 6.47444e-08 -5.52745e-08
-3.99696e-08 1.3898e-08 -4.88233e-08
-4.85024e-08 9.12141e-10 -5.22898e-08
6.74703e-08 3.10161e-09 -5.35985e-08
2.87241e-08 4.08165e-08 -4.88606e-08
7.43941e-08 4.88141e-08 -6.2531e-08
7.43225e-08 -4.88614e-08 -6.24634e-08
2.76024e-08 -4.02329e-08 -4.83975e-08
4.06473e-08 2.97534e-08 -5.007e-08
-2.5743e-08 -4.36755e-08 -4.9526e-08
-1.83424e-09 8.72655e-09 -1.92501e-08
-2.92073e-09 -9.02997e-09 -2.02462e-08
-8.31212e-09 2.17305e-09 -1.98719e-08
8.69675e-09 3.30726e-09 -2.04763e-08
-2.59557e-08 4.44153e-08 -4.97419e-08
4.16257e-08 -3.06223e-08 -5.05942e-08
-7.36044e-08 1.95656e-08 -6.25454e-08
-7.41197e-08 -1.93735e-08 -6.26668e-08
3.36546e-09 -3.48718e-09 -1.19786e-08
1.18345e-08 3.87643e-08 -4.49871e-08
3.7958e-09 7.78102e-09 -1.84941e-08
-6.82464e-09 -3.90758e-09 -1.79331e-08
2.80285e-08 -6.9818e-08 -5.55684e-08
1.26548e-08 -3.96992e-08 -4.5541e-08
4.65302e-08 6.35171e-10 -4.75841e-08
-1.24212e-08 -4.16296e-08 -4.62719e-08
2.11601e-08 1.65513e-08 -3.72171e-08
-6.81101e-08 4.0822e-08 -6.31997e-08
-6.82178e-08 -4.08818e-08 -6.32208e-08
-5.1299e-08 -6.35401e-08 -5.83036e-08
-5.10142e-08 6.29049e-08 -5.82547e-08
-1.19448e-08 4.215e-08 -4.64603e-08
4.99002e-08 1.91692e-08 -5.12082e-08
-2.49404e-08 7.21764e-08 -5.60049e-08
5.11255e-08 4.11505e-08 -5.55544e-08
5.14009e-08 -4.15646e-08 -5.56586e-08
5.24953e-08 -1.9945e-08 -5.22647e-08
-3.79539e-09 4.00235e-09 -1.31315e-08
-4.69723e-09 1.97669e-08 -3.18435e-08
-4.83529e-09 -1.97898e-08 -3.1854e-08
-1.73285e-08 4.62477e-09 -3.13755e-08
-1.74726e-08 2.09127e-08 -3.77889e-08
-1.7111e-08 -2.15207e-08 -3.79241e-08
-3.53933e-08 -3.77798e-08 -5.09059e-08
1.76503e-08 -1.75418e-08 -3.57377e-08
-3.52818e-08 3.78049e-08 -5.08698e-08
-5.18695e-08 5.18497e-08 -5.83405e-08
-5.2006e-08 -5.1988e-08 -5.83724e-08
-3.11956e-08 2.3532e-08 -4.59861e-08
-3.17599e-08 -2.33736e-08 -4.62228e-08
1.84525e-09 -6.91078e-09 -1.64791e-08
6.61583e-09 -1.74709e-09 -1.62322e-08
5.37423e-08 5.54003e-08 -5.70095e-08
5.37171e-08 -5.54159e-08 -5.6988e-08
3.73805e-09 8.99516e-08 -6.25536e-08
1.72924e-09 -9.00217e-08 -6.25815e-08
1.18184e-07 1.23482e-07 -4.53793e-08
1.22656e-07 1.7499e-07 -4.56885e-08
7.21899e-08 1.78331e-07 -4.56555e-08
6.65941e-08 1.25257e-07 -4.52901e-08
4.07674e-08 1.93737e-07 -5.83729e-08
3.36604e-08 1.14844e-07 -5.81299e-08
9.67844e-08 1.81802e-07 -4.29224e-08
6.48188e-08 1.53251e-07 -4.1837e-08
1.2354e-07 1.4912e-07 -4.22352e-08
9.2074e-08 1.19378e-07 -4.26456e-08
2.97648e-08 1.97908e-07 -6.14583e-08
2.23183e-08 1.13546e-07 -6.1375e-08
1.53485e-07 1.80072e-07 -5.65196e-08
1.46164e-07 1.19682e-07 -5.57976e-08
8.90479e-08 8.78781e-08 -5.61428e-08
9.78037e-08 2.155e-07 -5.62458e-08
8.04187e-08 2.01203e-07 -5.19792e-08
7.13257e-08 1.01522e-07 -5.14731e-08
4.21481e-08 1.6717e-07 -5.25246e-08
3.86017e-08 1.41554e-07 -5.26745e-08
1.16633e-07 2.01298e-07 -5.24118e-08
1.11013e-07 9.82702e-08 -5.19712e-08
1.03736e-07 1.38097e-07 -3.38363e-08
1.06421e-07 1.62072e-07 -3.42069e-08
8.46521e-08 1.61022e-07 -3.32111e-08
8.27308e-08 1.40619e-07 -3.28646e-08
2.72642e-08 2.07237e-07 -6.25469e-08
1.88968e-08 1.05135e-07 -6.25201e-08
5.93623e-08 1.97156e-07 -5.42541e-08
5.07898e-08 1.07175e-07 -5.36719e-08
1.50095e-07 1.58191e-07 -5.32877e-08
1.4572e-07 1.3904e-07 -5.25064e-08
4.9912e-08 1.28981e-07 -5.08393e-08
5.4698e-08 1.77245e-07 -5.10693e-08
9.72848e-08 7.33255e-08 -6.02674e-08
1.0653e-07 2.30968e-07 -6.00668e-08
1.37817e-07 1.9334e-07 -5.42055e-08
1.31132e-07 1.07265e-07 -5.31057e-08
9.89026e-08 1.67054e-07 -3.46229e-08
9.01881e-08 1.34022e-07 -3.41496e-08
7.77485e-08 1.49318e-07 -3.41046e-08
1.10929e-07 1.48813e-07 -3.47435e-08
2.62306e-08 1.82998e-07 -5.91837e-08
2.07482e-08 1.28383e-07 -5.91036e-08
1.3252e-07 1.65101e-07 -4.74875e-08
1.60415e-07 1.946e-07 -5.95817e-08
1.5415e-07 1.04716e-07 -5.97441e-08
1.29031e-07 1.35956e-07 -4.66695e-08
8.57987e-08 1.77304e-07 -4.15821e-08
1.03839e-07 1.23777e-07 -4.11868e-08
7.06286e-08 1.63518e-07 -4.10406e-08
1.09839e-07 1.74561e-07 -4.12859e-08
7.97725e-08 1.25742e-07 -4.09988e-08
7.01904e-08 1.41566e-07 -3.96102e-08
7.12504e-08 8.4927e-08 -5.61236e-08
8.20312e-08 2.1805e-07 -5.65167e-08
9.20427e-08 2.34417e-07 -6.07237e-08
8.16265e-08 7.07827e-08 -6.09508e-08
2.18632e-08 1.92399e-07 -6.18948e-08
1.48084e-08 1.20265e-07 -6.18368e-08
2.70485e-08 1.55549e-07 -5.44835e-08
1.73922e-07 1.84161e-07 -6.12195e-08
1.69103e-07 1.15507e-07 -6.17809e-08
1.11132e-07 2.16001e-07 -5.64372e-08
1.03893e-07 8.57157e-08 -5.62258e-08
1.17114e-07 1.57678e-07 -3.904e-08
9.61959e-08 1.03024e-07 -5.03197e-08
1.02921e-07 1.98499e-07 -5.06355e-08
9.17585e-08 1.99968e-07 -5.10759e-08
8.36777e-08 1.02385e-07 -5.07604e-08
5.56659e-08 9.36822e-08 -5.42225e-08
6.65573e-08 2.08644e-07 -5.50356e-08
1.58849e-07 1.31172e-07 -5.70327e-08
1.63532e-07 1.69294e-07 -5.72571e-08
3.90534e-08 2.04723e-07 -5.98923e-08
3.02868e-08 1.04088e-07 -5.96011e-08
5.43841e-08 1.41706e-07 -4.7125e-08
3.55065e-08 1.28008e-07 -5.57813e-08
4.06392e-08 1.80745e-07 -5.59106e-08
1.93876e-08 2.07363e-07 -6.36143e-08
2.02217e-08 2.01045e-07 -6.32559e-08
1.09662e-08 1.07017e-07 -6.36881e-08
1.21218e-08 1.12571e-07 -6.32436e-08
1.13588e-07 1.39344e-07 -3.84949e-08
1.32621e-07 2.05278e-07 -5.50521e-08
1.26699e-07 9.14614e-08 -5.43873e-08
5.29111e-08 1.8918e-07 -5.43542e-08
4.6088e-08 1.16908e-07 -5.39869e-08
1.07285e-07 2.42141e-07 -6.198e-08
9.686e-08 6.33213e-08 -6.24309e-08
5.67636e-08 1.64932e-07 -4.73231e-08
4.72944e-08 1.54523e-07 -4.93783e-08
1.57027e-07 1.45918e-07 -5.47606e-08
1.7263e-07 1.98724e-07 -6.20122e-08
1.66266e-07 1.01759e-07 -6.25703e-08
1.22845e-07 1.87422e-07 -4.94177e-08
1.15307e-07 1.09806e-07 -4.89334e-08
1.32845e-07 1.21707e-07 -5.10457e-08
6.57188e-08 1.12411e-07 -4.91671e-08
7.35782e-08 1.90717e-07 -4.97248e-08
9.30371e-08 1.60567e-07 -2.97658e-08
9.67252e-08 1.3988e-07 -3.00665e-08
1.0474e-07 1.53611e-07 -3.02142e-08
8.47541e-08 1.54314e-07 -2.99885e-08
1.37221e-07 1.79431e-07 -5.16164e-08
2.50159e-08 1.71288e-07 -5.67343e-08
2.1234e-08 1.40083e-07 -5.67193e-08
8.90694e-08 1.46289e-07 -2.70992e-08
7.95679e-08 1.13339e-07 -4.64589e-08
9.9344e-08 1.58901e-07 -2.93137e-08
1.01503e-07 1.45967e-07 -2.87105e-08
1.16629e-07 8.23891e-08 -5.5781e-08
1.23221e-07 2.164e-07 -5.62495e-08
1.08723e-07 1.88189e-07 -4.69871e-08
1.3871e-07 1.48917e-07 -4.92138e-08
8.58859e-08 1.89768e-07 -4.72464e-08
3.21353e-08 1.89832e-07 -5.96783e-08
2.56993e-08 1.2078e-07 -5.95634e-08
4.02547e-08 9.66873e-08 -5.67929e-08
5.06394e-08 2.08355e-07 -5.74484e-08
1.16051e-07 1.65759e-07 -4.03105e-08
1.03519e-07 1.11263e-07 -4.69037e-08
1.40598e-07 1.30763e-07 -5.20499e-08
1.47682e-07 1.89797e-07 -5.61265e-08
1.42078e-07 1.09411e-07 -5.5916e-08
1.4668e-07 1.69583e-07 -5.31479e-08
9.03795e-08 1.55549e-07 -2.75507e-08
9.75737e-08 1.31206e-07 -3.60441e-08
9.15478e-08 1.69769e-07 -3.62791e-08
7.71912e-08 1.56177e-07 -3.54026e-08
7.96499e-08 1.70542e-07 -4.00006e-08
1.08e-07 1.30712e-07 -3.91289e-08
5.70901e-08 1.19136e-07 -4.99836e-08
6.37051e-08 1.85288e-07 -5.03957e-08
7.47429e-08 1.3228e-07 -4.00049e-08
4.87102e-08 1.98482e-07 -5.69734e-08
4.04663e-08 1.07938e-07 -5.65316e-08
6.6287e-08 1.72847e-07 -4.58485e-08
6.21333e-08 1.31868e-07 -4.54775e-08
9.06856e-08 1.4175e-07 -2.8808e-08
8.51348e-08 1.48552e-07 -2.89331e-08
1.49374e-07 2.02323e-07 -5.74572e-08
1.43196e-07 9.56876e-08 -5.70072e-08
8.87827e-08 6.48232e-08 -6.24779e-08
9.90467e-08 2.41245e-07 -6.20169e-08
2.03048e-07 -2.39075e-08 -4.52764e-08
2.03196e-07 2.50392e-08 -4.56978e-08
1.51117e-07 2.65055e-08 -4.53163e-08
1.51046e-07 -2.64713e-08 -4.53649e-08
1.18814e-07 3.86997e-08 -5.8101e-08
1.18734e-07 -3.86924e-08 -5.81193e-08
1.76376e-07 3.01833e-08 -4.28246e-08
1.4623e-07 -2.52062e-10 -4.17308e-08
2.05955e-07 -9.82868e-10 -4.17585e-08
1.76041e-07 -3.02603e-08 -4.28975e-08
1.0757e-07 4.06753e-08 -6.13146e-08
1.07469e-07 -4.06826e-08 -6.13334e-08
2.34997e-07 -3.08599e-08 -5.65458e-08
2.32136e-07 2.95193e-08 -5.56409e-08
1.76414e-07 -6.23409e-08 -5.63753e-08
1.79291e-07 6.2146e-08 -5.64165e-08
1.96501e-07 4.74593e-08 -5.21014e-08
1.57814e-07 -4.96122e-08 -5.16065e-08
1.22138e-07 1.26386e-08 -5.23164e-08
1.20575e-07 -1.26402e-08 -5.27435e-08
1.96242e-07 -4.93809e-08 -5.26057e-08
1.581e-07 5.19175e-08 -5.21467e-08
1.86668e-07 -9.34894e-09 -3.26073e-08
1.87643e-07 1.14666e-08 -3.4164e-08
1.64551e-07 1.01878e-08 -3.35832e-08
1.65052e-07 -9.59605e-09 -3.31226e-08
1.04863e-07 4.90791e-08 -6.24522e-08
1.04748e-07 -4.90928e-08 -6.25006e-08
1.36773e-07 4.52816e-08 -5.37206e-08
1.36692e-07 -4.51011e-08 -5.37316e-08
2.33217e-07 -9.03059e-09 -5.32033e-08
2.3048e-07 1.02364e-08 -5.23833e-08
1.33791e-07 -2.38767e-08 -5.08163e-08
1.33856e-07 2.39027e-08 -5.07948e-08
1.86089e-07 -7.6996e-08 -6.0488e-08
1.72218e-07 7.73319e-08 -6.03672e-08
2.18274e-07 -4.30488e-08 -5.43248e-08
2.18263e-07 4.20808e-08 -5.41431e-08
1.79364e-07 1.60084e-08 -3.45805e-08
1.78767e-07 -1.5795e-08 -3.43364e-08
1.5965e-07 2.69512e-09 -3.42422e-08
1.92981e-07 -1.92175e-09 -3.40856e-08
1.04555e-07 2.63225e-08 -5.89874e-08
1.045e-07 -2.63204e-08 -5.8981e-08
2.14924e-07 -1.41767e-08 -4.73743e-08
2.41152e-07 -4.55551e-08 -5.96308e-08
2.40771e-07 4.51517e-08 -5.95238e-08
2.12533e-07 1.42209e-08 -4.63446e-08
1.6435e-07 2.64718e-08 -4.17446e-08
1.64839e-07 -2.58261e-08 -4.14078e-08
1.50858e-07 -1.1307e-08 -4.08771e-08
1.8988e-07 -2.32631e-08 -4.11275e-08
1.90311e-07 2.34579e-08 -4.12728e-08
1.52774e-07 1.04242e-08 -3.97274e-08
1.59347e-07 -6.60291e-08 -5.62184e-08
1.9594e-07 6.37119e-08 -5.67643e-08
1.87422e-07 7.96725e-08 -6.11909e-08
1.71326e-07 -8.01577e-08 -6.10073e-08
9.94016e-08 3.46123e-08 -6.17323e-08
9.93275e-08 -3.4615e-08 -6.17256e-08
1.08157e-07 2.01421e-10 -5.424e-08
2.55279e-07 -3.57991e-08 -6.12202e-08
2.55536e-07 3.53192e-08 -6.12607e-08
1.90431e-07 -6.30893e-08 -5.67243e-08
1.65202e-07 6.47793e-08 -5.64459e-08
1.81922e-07 -4.6261e-08 -5.07155e-08
1.72179e-07 4.67617e-08 -5.05297e-08
1.98602e-07 7.40132e-09 -3.84648e-08
1.84197e-07 4.70144e-08 -5.11399e-08
1.69924e-07 -4.78934e-08 -5.09629e-08
2.11597e-07 5.38239e-08 -5.4982e-08
1.99341e-07 -1.07632e-08 -3.97363e-08
1.42811e-07 -5.79967e-08 -5.43096e-08
2.44336e-07 1.84446e-08 -5.6715e-08
2.45821e-07 -2.06119e-08 -5.72196e-08
1.16355e-07 4.93985e-08 -5.96021e-08
1.16261e-07 -4.93728e-08 -5.96183e-08
1.36838e-07 1.15504e-08 -4.71612e-08
1.1935e-07 -2.57671e-08 -5.57391e-08
1.19521e-07 2.57626e-08 -5.56888e-08
9.67361e-08 4.7692e-08 -6.35643e-08
9.74031e-08 4.22862e-08 -6.31421e-08
9.66209e-08 -4.77445e-08 -6.36279e-08
9.72927e-08 -4.23021e-08 -6.31542e-08
2.12408e-07 -5.432e-08 -5.52273e-08
1.31158e-07 3.59148e-08 -5.3978e-08
1.31081e-07 -3.58922e-08 -5.40047e-08
1.87389e-07 -8.78383e-08 -6.24983e-08
1.73386e-07 8.7434e-08 -6.24825e-08
1.4205e-07 5.85178e-08 -5.44938e-08
1.37215e-07 -1.1126e-08 -4.69305e-08
1.27977e-07 9.71247e-10 -4.94028e-08
2.41224e-07 3.15461e-09 -5.45906e-08
2.04525e-07 3.73915e-08 -5.00865e-08
2.53248e-07 -5.02265e-08 -6.20439e-08
2.53273e-07 4.99783e-08 -6.20622e-08
2.03426e-07 -3.69932e-08 -4.97384e-08
2.17344e-07 2.82904e-08 -5.10882e-08
1.51344e-07 -3.92426e-08 -4.93079e-08
1.72897e-07 9.80593e-09 -3.00406e-08
1.73722e-07 -9.33438e-09 -2.96902e-08
1.8702e-07 3.4784e-09 -3.03182e-08
1.65965e-07 -2.45124e-09 -2.9742e-08
1.51128e-07 3.99611e-08 -4.94825e-08
2.18404e-07 -2.92785e-08 -5.16159e-08
1.04258e-07 1.51623e-08 -5.65028e-08
1.03484e-07 -1.48654e-08 -5.65633e-08
1.80953e-07 -4.17193e-09 -2.7193e-08
1.87649e-07 3.56036e-08 -4.65049e-08
1.80506e-07 8.19308e-09 -2.92462e-08
1.68097e-07 3.80229e-09 -2.88177e-08
2.02576e-07 -6.43077e-08 -5.65373e-08
1.88442e-07 -3.65542e-08 -4.70667e-08
2.22133e-07 5.64075e-10 -4.90308e-08
1.64147e-07 -3.81425e-08 -4.70256e-08
1.97693e-07 1.53823e-08 -4.0352e-08
1.10309e-07 3.34115e-08 -5.94902e-08
1.10214e-07 -3.34155e-08 -5.95036e-08
1.27204e-07 5.53988e-08 -5.67632e-08
1.26935e-07 -5.59241e-08 -5.6852e-08
1.64603e-07 3.86297e-08 -4.71447e-08
2.26236e-07 1.90046e-08 -5.21547e-08
1.52249e-07 6.65283e-08 -5.56077e-08
2.28512e-07 -4.01058e-08 -5.61894e-08
2.28208e-07 3.95595e-08 -5.60474e-08
2.2888e-07 -2.00181e-08 -5.31291e-08
1.71294e-07 -4.22098e-09 -2.74696e-08
1.71391e-07 1.84786e-08 -3.61425e-08
1.71346e-07 -1.84764e-08 -3.62064e-08
1.58186e-07 -4.10175e-09 -3.52718e-08
1.59385e-07 1.9211e-08 -3.98107e-08
1.59164e-07 -1.88884e-08 -3.9817e-08
1.41998e-07 -3.3035e-08 -5.00297e-08
1.94309e-07 -1.6435e-08 -3.94096e-08
1.42051e-07 3.31651e-08 -5.00225e-08
1.26311e-07 4.49243e-08 -5.6521e-08
1.26197e-07 -4.49796e-08 -5.65619e-08
1.4573e-07 -2.04072e-08 -4.55707e-08
1.4527e-07 2.02364e-08 -4.56935e-08
1.79017e-07 -8.27991e-09 -2.90075e-08
1.85197e-07 -2.32521e-09 -2.88039e-08
2.29548e-07 -5.26037e-08 -5.75589e-08
2.29546e-07 5.24146e-08 -5.75278e-08
1.81444e-07 8.63467e-08 -6.25666e-08
1.79352e-07 -8.62713e-08 -6.24994e-08
1.21946e-07 -1.75406e-07 -4.55819e-08
1.18897e-07 -1.23977e-07 -4.5537e-08
6.65793e-08 -1.25125e-07 -4.5281e-08
7.21037e-08 -1.78259e-07 -4.56394e-08
3.36344e-08 -1.14795e-07 -5.8119e-08
4.07019e-08 -1.93703e-07 -5.83684e-08
9.14197e-08 -1.19445e-07 -4.2613e-08
6.4592e-08 -1.51698e-07 -4.18257e-08
1.2355e-07 -1.49921e-07 -4.22434e-08
9.75126e-08 -1.81811e-07 -4.29448e-08
2.23215e-08 -1.13519e-07 -6.13602e-08
2.96901e-08 -1.97875e-07 -6.14459e-08
1.48918e-07 -1.18612e-07 -5.67259e-08
1.50507e-07 -1.78947e-07 -5.56629e-08
9.77385e-08 -2.15493e-07 -5.62383e-08
9.19217e-08 -8.77899e-08 -5.61434e-08
1.1115e-07 -1.00339e-07 -5.15255e-08
8.03705e-08 -2.01076e-07 -5.19728e-08
3.94386e-08 -1.41182e-07 -5.24376e-08
4.11587e-08 -1.66943e-07 -5.27527e-08
1.16579e-07 -2.01359e-07 -5.23762e-08
7.12054e-08 -9.90155e-08 -5.20429e-08
1.06109e-07 -1.61802e-07 -3.3985e-08
1.03836e-07 -1.37786e-07 -3.4065e-08
8.1987e-08 -1.41321e-07 -3.30579e-08
8.5439e-08 -1.61603e-07 -3.30222e-08
1.89094e-08 -1.05111e-07 -6.24759e-08
2.71869e-08 -2.07197e-07 -6.25342e-08
5.07159e-08 -1.0691e-07 -5.36848e-08
5.93104e-08 -1.97106e-07 -5.42474e-08
1.48547e-07 -1.40394e-07 -5.3391e-08
1.47413e-07 -1.59513e-07 -5.24328e-08
5.46431e-08 -1.7721e-07 -5.10742e-08
4.98662e-08 -1.28931e-07 -5.08188e-08
1.06461e-07 -2.30954e-07 -6.00533e-08
8.27303e-08 -7.35017e-08 -6.02601e-08
1.3278e-07 -1.04622e-07 -5.3936e-08
1.35957e-07 -1.90646e-07 -5.3387e-08
9.53333e-08 -1.33637e-07 -3.44166e-08
9.38644e-08 -1.67207e-07 -3.43718e-08
7.83213e-08 -1.53863e-07 -3.41376e-08
1.11044e-07 -1.50658e-07 -3.47612e-08
2.07246e-08 -1.28361e-07 -5.91091e-08
2.61719e-08 -1.8297e-07 -5.91716e-08
1.29903e-07 -1.33688e-07 -4.74923e-08
1.54536e-07 -1.04467e-07 -5.98636e-08
1.5991e-07 -1.94337e-07 -5.9514e-08
1.3122e-07 -1.62888e-07 -4.66869e-08
7.96164e-08 -1.24189e-07 -4.16711e-08
1.07954e-07 -1.76142e-07 -4.14585e-08
6.79532e-08 -1.40608e-07 -4.08902e-08
1.05824e-07 -1.25371e-07 -4.09648e-08
8.50944e-08 -1.76455e-07 -4.13124e-08
7.25516e-08 -1.62324e-07 -3.97455e-08
8.19555e-08 -2.18044e-07 -5.65287e-08
1.09602e-07 -8.41681e-08 -5.61372e-08
9.19704e-08 -2.34408e-07 -6.07213e-08
9.82095e-08 -7.05369e-08 -6.09603e-08
1.47984e-08 -1.20245e-07 -6.18451e-08
2.17926e-08 -1.92367e-07 -6.18722e-08
2.69292e-08 -1.54875e-07 -5.44825e-08
1.68843e-07 -1.15146e-07 -6.17584e-08
1.74076e-07 -1.83811e-07 -6.12922e-08
1.11061e-07 -2.15997e-07 -5.64151e-08
7.71021e-08 -8.59482e-08 -5.6313e-08
1.15552e-07 -1.4157e-07 -3.89981e-08
1.02864e-07 -1.98488e-07 -5.05994e-08
8.59485e-08 -1.03302e-07 -5.03213e-08
9.83965e-08 -1.01954e-07 -5.0765e-08
9.16935e-08 -1.99979e-07 -5.1088e-08
1.26608e-07 -9.21634e-08 -5.42491e-08
6.64944e-08 -2.08582e-07 -5.50401e-08
1.61839e-07 -1.67294e-07 -5.67849e-08
1.6018e-07 -1.29155e-07 -5.75605e-08
3.02682e-08 -1.04012e-07 -5.95932e-08
3.89846e-08 -2.04683e-07 -5.98857e-08
5.67259e-08 -1.64373e-07 -4.72404e-08
4.05082e-08 -1.80707e-07 -5.59309e-08
3.55447e-08 -1.27954e-07 -5.57495e-08
1.09842e-08 -1.0704e-07 -6.36271e-08
1.21402e-08 -1.12562e-07 -6.32339e-08
1.93027e-08 -2.07323e-07 -6.3596e-08
2.01358e-08 -2.01007e-07 -6.32347e-08
1.15452e-07 -1.59947e-07 -3.8584e-08
1.31713e-07 -2.05737e-07 -5.50098e-08
4.60417e-08 -1.16833e-07 -5.39746e-08
5.28526e-08 -1.89139e-07 -5.43513e-08
1.07215e-07 -2.42127e-07 -6.1969e-08
8.25416e-08 -6.34511e-08 -6.24137e-08
5.47336e-08 -9.30899e-08 -5.44185e-08
5.42007e-08 -1.41148e-07 -4.71953e-08
4.70776e-08 -1.52919e-07 -4.93705e-08
1.57529e-07 -1.52182e-07 -5.47226e-08
1.17948e-07 -1.11698e-07 -4.89013e-08
1.6628e-07 -1.01624e-07 -6.25927e-08
1.72535e-07 -1.98613e-07 -6.20672e-08
1.20017e-07 -1.89054e-07 -4.93021e-08
1.36795e-07 -1.76787e-07 -5.11075e-08
7.34581e-08 -1.905e-07 -4.96749e-08
9.03742e-08 -1.40649e-07 -2.96118e-08
9.91272e-08 -1.60663e-07 -3.0228e-08
1.03773e-07 -1.46289e-07 -3.01682e-08
8.3811e-08 -1.48037e-07 -2.99396e-08
6.53328e-08 -1.11441e-07 -4.94242e-08
1.32922e-07 -1.19099e-07 -5.15362e-08
2.16168e-08 -1.39804e-07 -5.66821e-08
2.45003e-08 -1.71067e-07 -5.67689e-08
9.04745e-08 -1.55252e-07 -2.71798e-08
8.66221e-08 -1.88879e-07 -4.6832e-08
1.0254e-07 -1.13092e-07 -4.61727e-08
9.70517e-08 -1.41603e-07 -2.91715e-08
1.02525e-07 -1.54095e-07 -2.87847e-08
1.22989e-07 -2.16533e-07 -5.62561e-08
1.38712e-07 -1.49834e-07 -4.92267e-08
2.56963e-08 -1.2075e-07 -5.95551e-08
3.20566e-08 -1.89801e-07 -5.96715e-08
4.04374e-08 -9.71375e-08 -5.6719e-08
5.05765e-08 -2.08305e-07 -5.74462e-08
1.13227e-07 -1.33517e-07 -4.01946e-08
1.08785e-07 -1.88958e-07 -4.72288e-08
7.88898e-08 -1.11911e-07 -4.7023e-08
1.43522e-07 -1.67882e-07 -5.19842e-08
6.40654e-08 -8.45437e-08 -5.54979e-08
1.42471e-07 -1.08481e-07 -5.6121e-08
1.47126e-07 -1.88814e-07 -5.59458e-08
1.43429e-07 -1.29104e-07 -5.32699e-08
8.87987e-08 -1.46037e-07 -2.74666e-08
1.01196e-07 -1.69277e-07 -3.62743e-08
8.72402e-08 -1.31707e-07 -3.60413e-08
7.59751e-08 -1.4717e-07 -3.53363e-08
1.11196e-07 -1.68883e-07 -3.93245e-08
7.5027e-08 -1.32557e-07 -3.97104e-08
6.36377e-08 -1.85235e-07 -5.03913e-08
7.90266e-08 -1.70642e-07 -4.02603e-08
5.70185e-08 -1.18942e-07 -4.99943e-08
4.04635e-08 -1.07933e-07 -5.65043e-08
4.86492e-08 -1.98439e-07 -5.69692e-08
6.18618e-08 -1.31642e-07 -4.55847e-08
6.639e-08 -1.72612e-07 -4.57287e-08
9.29894e-08 -1.59489e-07 -2.89516e-08
8.58404e-08 -1.53603e-07 -2.89718e-08
1.44813e-07 -9.50336e-08 -5.74096e-08
1.48289e-07 -2.01736e-07 -5.72755e-08
9.06966e-08 -6.47695e-08 -6.24744e-08
9.89766e-08 -2.41233e-07 -6.20101e-08
-4.87805e-08 -1.87558e-07 -4.54788e-08
-5.6418e-08 -1.34715e-07 -4.65067e-08
-1.13109e-07 -1.48424e-07 -4.8474e-08
-9.86809e-08 -2.03171e-07 -4.62427e-08
-1.31307e-07 -2.2417e-07 -5.86528e-08
-1.52942e-07 -1.4519e-07 -6.25708e-08
-8.64845e-08 -1.36056e-07 -4.47462e-08
-1.09362e-07 -1.77965e-07 -4.34518e-08
-4.93189e-08 -1.62487e-07 -4.18358e-08
-7.27558e-08 -2.00759e-07 -4.32721e-08
-1.43474e-07 -2.29632e-07 -6.15058e-08
-1.66946e-07 -1.4679e-07 -6.57535e-08
-2.87878e-08 -1.28597e-07 -5.59623e-08
-1.80619e-08 -1.90015e-07 -5.69323e-08
-6.82059e-08 -2.34923e-07 -5.65665e-08
-9.06138e-08 -1.02469e-07 -5.95122e-08
-1.10138e-07 -1.21254e-07 -5.60655e-08
-8.74962e-08 -2.23992e-07 -5.23274e-08
-1.30255e-07 -1.97561e-07 -5.39059e-08
-1.39061e-07 -1.71324e-07 -5.55554e-08
-6.67879e-08 -1.1012e-07 -5.35696e-08
-5.12402e-08 -2.16907e-07 -5.28012e-08
-6.66148e-08 -1.75174e-07 -3.27363e-08
-7.07816e-08 -1.52368e-07 -3.47589e-08
-9.36395e-08 -1.62462e-07 -3.46521e-08
-8.80136e-08 -1.83603e-07 -3.44191e-08
-1.45285e-07 -2.38828e-07 -6.24339e-08
-1.73843e-07 -1.39504e-07 -6.79451e-08
-1.10416e-07 -2.24281e-07 -5.45941e-08
-1.3421e-07 -1.32911e-07 -5.89652e-08
-2.03194e-08 -1.67554e-07 -5.30499e-08
-2.60782e-08 -1.48665e-07 -5.23016e-08
-1.17155e-07 -2.05656e-07 -5.18498e-08
-1.30529e-07 -1.5605e-07 -5.40769e-08
-8.21532e-08 -8.53537e-08 -6.3158e-08
-5.77488e-08 -2.49286e-07 -6.03778e-08
-3.2067e-08 -2.05426e-07 -5.47251e-08
-4.51389e-08 -1.16888e-07 -5.38532e-08
-8.05707e-08 -1.50089e-07 -3.57131e-08
-7.26402e-08 -1.84685e-07 -3.46302e-08
-9.50522e-08 -1.77421e-07 -3.54405e-08
-6.21941e-08 -1.65617e-07 -3.4222e-08
-1.4681e-07 -2.15456e-07 -5.98175e-08
-1.62233e-07 -1.61844e-07 -6.24403e-08
-3.85274e-08 -1.75028e-07 -4.74619e-08
-2.26199e-08 -1.11884e-07 -6.00679e-08
-1.13271e-08 -2.04889e-07 -6.02986e-08
-4.57402e-08 -1.46877e-07 -4.62047e-08
-9.79344e-08 -1.44626e-07 -4.381e-08
-8.4478e-08 -1.98968e-07 -4.20279e-08
-1.08411e-07 -1.649e-07 -4.30072e-08
-6.10026e-08 -1.89801e-07 -4.13385e-08
-7.00746e-08 -1.38831e-07 -4.21901e-08
-1.00068e-07 -1.87197e-07 -4.0894e-08
-8.37647e-08 -2.40303e-07 -5.68304e-08
-1.10405e-07 -1.03123e-07 -6.17843e-08
-7.18044e-08 -2.54847e-07 -6.10124e-08
-9.87114e-08 -8.51823e-08 -6.57302e-08
-1.5234e-07 -2.25103e-07 -6.20134e-08
-1.72806e-07 -1.55519e-07 -6.55075e-08
-1.45816e-07 -1.8782e-07 -5.67577e-08
7.06801e-10 -1.93675e-07 -6.18401e-08
-7.21995e-09 -1.22031e-07 -6.18287e-08
-7.4891e-08 -9.77272e-08 -5.84392e-08
-5.49288e-08 -2.3315e-07 -5.6793e-08
-8.22776e-08 -1.17449e-07 -5.27158e-08
-6.49634e-08 -2.16583e-07 -5.09753e-08
-5.85967e-08 -1.5474e-07 -3.86924e-08
-9.59721e-08 -1.19447e-07 -5.41276e-08
-7.60022e-08 -2.20381e-07 -5.14169e-08
-5.42575e-08 -1.73986e-07 -3.98435e-08
-1.01088e-07 -2.34119e-07 -5.53409e-08
-1.29306e-07 -1.17084e-07 -6.09106e-08
-1.37127e-08 -1.39534e-07 -5.67184e-08
-7.46391e-09 -1.78453e-07 -5.72897e-08
-1.32193e-07 -2.35054e-07 -5.99717e-08
-1.59983e-07 -1.35257e-07 -6.53633e-08
-1.15937e-07 -1.92603e-07 -4.86149e-08
-1.31726e-07 -2.11558e-07 -5.66333e-08
-1.46512e-07 -1.57975e-07 -5.91796e-08
-1.5449e-07 -2.39744e-07 -6.33977e-08
-1.54675e-07 -2.33512e-07 -6.30911e-08
-1.82498e-07 -1.43625e-07 -6.87072e-08
-1.79306e-07 -1.48945e-07 -6.74373e-08
-5.075e-08 -1.0086e-07 -5.54525e-08
-3.55081e-08 -2.18563e-07 -5.55531e-08
-1.18283e-07 -2.17743e-07 -5.47979e-08
-1.37955e-07 -1.44275e-07 -5.82806e-08
-5.57494e-08 -2.60577e-07 -6.2274e-08
-8.27629e-08 -7.46479e-08 -6.55269e-08
-1.22011e-07 -1.68726e-07 -4.93847e-08
-1.26932e-07 -1.83906e-07 -5.14839e-08
-1.28925e-08 -1.54787e-07 -5.42344e-08
-1.12923e-08 -1.0747e-07 -6.28508e-08
-8.91185e-11 -2.08837e-07 -6.28584e-08
-4.65004e-08 -2.01776e-07 -5.00022e-08
-5.98854e-08 -1.21152e-07 -5.03688e-08
-4.07172e-08 -1.31108e-07 -5.19853e-08
-9.58962e-08 -2.15095e-07 -5.01414e-08
-1.15773e-07 -1.34553e-07 -5.3383e-08
-8.48973e-08 -1.5918e-07 -3.08255e-08
-7.97103e-08 -1.80373e-07 -3.05163e-08
-6.95793e-08 -1.61055e-07 -3.06444e-08
-9.02164e-08 -1.69923e-07 -3.08597e-08
-3.37535e-08 -1.90603e-07 -5.19143e-08
-1.47127e-07 -2.04061e-07 -5.81282e-08
-1.56696e-07 -1.73558e-07 -5.96749e-08
-7.33215e-08 -1.71114e-07 -2.73523e-08
-7.75432e-08 -1.57747e-07 -3.00607e-08
-8.61741e-08 -1.75996e-07 -2.96612e-08
-4.29571e-08 -2.31651e-07 -5.66681e-08
-6.16261e-08 -9.25622e-08 -5.73631e-08
-6.03166e-08 -2.04674e-07 -4.73113e-08
-7.3231e-08 -1.25153e-07 -4.8548e-08
-3.29718e-08 -1.59193e-07 -4.8931e-08
-1.01046e-07 -1.31586e-07 -5.01819e-08
-8.31098e-08 -2.11404e-07 -4.76234e-08
-6.10292e-08 -1.46395e-07 -4.07706e-08
-1.40875e-07 -2.21556e-07 -6.00067e-08
-1.60183e-07 -1.53017e-07 -6.33839e-08
-1.18525e-07 -2.36844e-07 -5.76482e-08
-1.48723e-07 -1.24742e-07 -6.37669e-08
-3.20937e-08 -1.39773e-07 -5.24257e-08
-3.42176e-08 -1.18345e-07 -5.62373e-08
-2.32321e-08 -2.00614e-07 -5.66731e-08
-2.43364e-08 -1.79374e-07 -5.32624e-08
-8.55615e-08 -1.66089e-07 -2.84671e-08
-8.94905e-08 -1.50293e-07 -3.78517e-08
-7.9307e-08 -1.89824e-07 -3.66818e-08
-9.86498e-08 -1.70554e-07 -3.679e-08
-1.02382e-07 -1.54113e-07 -4.21081e-08
-9.15457e-08 -1.93715e-07 -4.05828e-08
-1.07006e-07 -2.11822e-07 -5.0914e-08
-1.2484e-07 -1.44067e-07 -5.39097e-08
-5.81249e-08 -1.81189e-07 -3.95648e-08
-1.22019e-07 -2.27501e-07 -5.72314e-08
-1.46598e-07 -1.36432e-07 -6.18501e-08
-1.16796e-07 -1.56512e-07 -4.83901e-08
-1.05902e-07 -1.98818e-07 -4.6762e-08
-7.41182e-08 -1.76319e-07 -2.90803e-08
-6.98088e-08 -1.6783e-07 -2.89752e-08
-3.32816e-08 -1.03228e-07 -5.76879e-08
-2.04711e-08 -2.13542e-07 -5.81164e-08
-9.1156e-08 -7.76042e-08 -6.64693e-08
-6.41011e-08 -2.60724e-07 -6.23004e-08
-1.63656e-07 -4.35045e-08 -7.14748e-08
-2.57913e-07 5.09572e-08 -7.47926e-08
-1.6374e-07 4.52295e-08 -7.14372e-08
-2.57998e-07 -5.09679e-08 -7.47937e-08
-3.03699e-07 6.43223e-08 -7.62334e-08
-3.03713e-07 -6.4364e-08 -7.62322e-08
-2.10076e-07 6.02568e-08 -7.30698e-08
-2.70625e-07 1.52717e-09 -7.51204e-08
-1.5611e-07 -1.75458e-09 -7.14201e-08
-2.10668e-07 -6.03522e-08 -7.30835e-08
-3.18454e-07 6.68909e-08 -7.66633e-08
-3.18468e-07 -6.69278e-08 -7.66624e-08
-1.2681e-07 4.26692e-08 -7.06485e-08
-1.23691e-07 -4.37545e-08 -7.05669e-08
-2.0635e-07 -1.01488e-07 -7.2814e-08
-2.01958e-07 1.00835e-07 -7.25469e-08
-1.75626e-07 7.93091e-08 -7.09291e-08
-2.3891e-07 -8.53619e-08 -7.41733e-08
-3.01651e-07 2.3774e-08 -7.59276e-08
-3.02802e-07 -2.3289e-08 -7.59486e-08
-1.75922e-07 -8.20244e-08 -7.08003e-08
-2.37813e-07 8.83939e-08 -7.41394e-08
-1.87572e-07 -2.35875e-08 -7.24023e-08
-2.3863e-07 2.42876e-08 -7.41755e-08
-1.86497e-07 2.73645e-08 -7.23547e-08
-2.3942e-07 -2.52798e-08 -7.42023e-08
-3.21199e-07 7.73997e-08 -7.67466e-08
-3.21218e-07 -7.74352e-08 -7.67459e-08
-2.75746e-07 7.56974e-08 -7.53504e-08
-2.75827e-07 -7.55016e-08 -7.5352e-08
-1.22161e-07 -1.30131e-08 -6.98492e-08
-1.25761e-07 1.52153e-08 -7.00586e-08
-2.85005e-07 4.36678e-08 -7.56075e-08
-2.85014e-07 -4.37159e-08 -7.56071e-08
-1.91193e-07 -1.16661e-07 -7.1562e-08
-2.10323e-07 1.19791e-07 -7.31504e-08
-1.44611e-07 -6.61392e-08 -7.0053e-08
-1.44647e-07 6.48612e-08 -7.01346e-08
-2.04606e-07 3.81373e-08 -7.29557e-08
-2.05795e-07 -3.77267e-08 -7.29943e-08
-2.50201e-07 -6.51644e-09 -7.4546e-08
-1.75243e-07 -4.51641e-09 -7.20324e-08
-3.22169e-07 4.64678e-08 -7.65141e-08
-3.22177e-07 -4.65049e-08 -7.65127e-08
-1.45516e-07 -2.37825e-08 -7.11085e-08
-1.18194e-07 -6.08292e-08 -7.01768e-08
-1.18645e-07 6.0548e-08 -7.0195e-08
-1.48686e-07 2.4504e-08 -7.12013e-08
-2.3414e-07 5.36927e-08 -7.39954e-08
-2.33292e-07 -5.28572e-08 -7.39631e-08
-2.6261e-07 2.38256e-08 -7.4912e-08
-1.84686e-07 -4.73443e-08 -7.21333e-08
-1.83949e-07 4.73926e-08 -7.21162e-08
-2.59899e-07 -2.23306e-08 -7.48292e-08
-2.3174e-07 -1.06749e-07 -7.39802e-08
-1.76505e-07 9.97193e-08 -7.02309e-08
-2.10982e-07 -1.23341e-07 -7.3195e-08
-1.89231e-07 1.19379e-07 -7.13628e-08
-3.28438e-07 5.8805e-08 -7.67882e-08
-3.2845e-07 -5.88398e-08 -7.67874e-08
-3.18841e-07 5.76598e-10 -7.61281e-08
-1.02547e-07 -4.60131e-08 -7.00035e-08
-1.02174e-07 4.5479e-08 -6.99622e-08
-1.84848e-07 -1.00014e-07 -7.11051e-08
-2.23158e-07 1.05128e-07 -7.36634e-08
-1.98988e-07 -8.09806e-08 -7.24048e-08
-2.15411e-07 8.24275e-08 -7.32589e-08
-1.67231e-07 1.5329e-08 -7.17839e-08
-1.95209e-07 8.1555e-08 -7.21912e-08
-2.19008e-07 -8.38406e-08 -7.34074e-08
-1.53175e-07 8.35546e-08 -6.89527e-08
-1.6653e-07 -2.15924e-08 -7.17539e-08
-2.61556e-07 -9.40653e-08 -7.48419e-08
-1.10844e-07 2.54723e-08 -6.93818e-08
-1.09668e-07 -2.82486e-08 -6.93716e-08
-3.05682e-07 7.81162e-08 -7.62956e-08
-3.05702e-07 -7.81573e-08 -7.62947e-08
-2.82417e-07 -2.18419e-08 -7.54585e-08
-3.03967e-07 4.57609e-08 -7.6139e-08
-3.04059e-07 -4.57638e-08 -7.61398e-08
-3.30835e-07 7.56093e-08 -7.69406e-08
-3.30699e-07 6.86678e-08 -7.69192e-08
-3.30852e-07 -7.56421e-08 -7.69399e-08
-3.30714e-07 -6.87011e-08 -7.69185e-08
-1.51948e-07 -8.38462e-08 -6.88946e-08
-2.86703e-07 6.16533e-08 -7.57107e-08
-2.86725e-07 -6.1684e-08 -7.57098e-08
-1.88924e-07 -1.27815e-07 -7.11029e-08
-2.07103e-07 1.31621e-07 -7.29551e-08
-2.62727e-07 9.45554e-08 -7.4871e-08
-2.82447e-07 2.27925e-08 -7.54615e-08
-2.94071e-07 1.44765e-09 -7.57042e-08
-1.11789e-07 4.51631e-09 -6.86316e-08
-1.62995e-07 6.35555e-08 -7.085e-08
-1.05692e-07 6.23313e-08 -6.9983e-08
-1.05713e-07 -6.25412e-08 -6.99759e-08
-1.64524e-07 -6.33712e-08 -7.09296e-08
-1.44793e-07 4.54056e-08 -7.09537e-08
-2.53412e-07 -7.01279e-08 -7.46488e-08
-2.18339e-07 2.5895e-08 -7.34794e-08
-2.20624e-07 -2.61104e-08 -7.35585e-08
-1.8616e-07 9.18153e-09 -7.23485e-08
-2.38168e-07 6.51642e-09 -7.41997e-08
-2.53641e-07 7.10586e-08 -7.46587e-08
-1.43473e-07 -4.64645e-08 -7.09047e-08
-3.22873e-07 2.81131e-08 -7.63149e-08
-3.23395e-07 -2.77885e-08 -7.63168e-08
-1.98839e-07 -1.30755e-08 -7.27703e-08
-1.89806e-07 6.56806e-08 -7.20956e-08
-2.00732e-07 2.30494e-08 -7.28526e-08
-2.34196e-07 -1.12312e-08 -7.40833e-08
-1.66373e-07 -9.90682e-08 -6.90165e-08
-1.88415e-07 -6.69001e-08 -7.19866e-08
-1.35158e-07 9.54931e-10 -7.05157e-08
-2.3107e-07 -7.05366e-08 -7.38841e-08
-1.70168e-07 3.07961e-08 -7.18077e-08
-3.15232e-07 5.70461e-08 -7.65018e-08
-3.15255e-07 -5.70788e-08 -7.65009e-08
-2.88091e-07 8.73947e-08 -7.56751e-08
-2.88274e-07 -8.81059e-08 -7.56747e-08
-2.30237e-07 7.11983e-08 -7.38541e-08
-1.32149e-07 2.90612e-08 -7.06179e-08
-2.42934e-07 1.06653e-07 -7.4266e-08
-1.3207e-07 -5.82661e-08 -7.03035e-08
-1.32431e-07 5.76291e-08 -7.03401e-08
-1.29118e-07 -2.99278e-08 -7.05393e-08
-2.26303e-07 1.37802e-08 -7.38059e-08
-2.2197e-07 -4.22813e-08 -7.35699e-08
-2.21972e-07 4.22212e-08 -7.35731e-08
-2.52075e-07 9.95298e-09 -7.45978e-08
-2.46905e-07 3.98106e-08 -7.44316e-08
-2.45939e-07 -4.07679e-08 -7.43988e-08
-2.70777e-07 -5.92739e-08 -7.5206e-08
-1.75651e-07 -3.39813e-08 -7.19574e-08
-2.70744e-07 5.93656e-08 -7.52069e-08
-2.91976e-07 7.34575e-08 -7.58701e-08
-2.92041e-07 -7.35835e-08 -7.58704e-08
-2.68338e-07 3.96696e-08 -7.51033e-08
-2.69026e-07 -3.92536e-08 -7.51227e-08
-2.04977e-07 -2.25578e-08 -7.30026e-08
-1.89655e-07 -6.3853e-09 -7.24499e-08
-1.30343e-07 7.40351e-08 -6.88808e-08
-1.30308e-07 -7.42107e-08 -6.88765e-08
-1.99892e-07 -1.28671e-07 -7.23802e-08
-1.97034e-07 1.27955e-07 -7.21063e-08
-5.70245e-08 1.36477e-07 -4.56319e-08
-4.84045e-08 1.88916e-07 -4.59813e-08
-9.84992e-08 2.03022e-07 -4.61958e-08
-1.13144e-07 1.48293e-07 -4.85307e-08
-1.52982e-07 1.45114e-07 -6.26044e-08
-1.31204e-07 2.2409e-07 -5.86562e-08
-7.24287e-08 2.00559e-07 -4.32725e-08
-1.09163e-07 1.78478e-07 -4.34389e-08
-4.9606e-08 1.60541e-07 -4.18179e-08
-8.64122e-08 1.35952e-07 -4.47273e-08
-1.67006e-07 1.46709e-07 -6.57924e-08
-1.43373e-07 2.29559e-07 -6.15099e-08
-2.07738e-08 1.8904e-07 -5.60157e-08
-2.61424e-08 1.27225e-07 -5.684e-08
-9.05219e-08 1.02405e-07 -5.9492e-08
-6.55898e-08 2.34283e-07 -5.65822e-08
-5.12852e-08 2.14853e-07 -5.23636e-08
-1.1008e-07 1.21147e-07 -5.60826e-08
-1.37573e-07 1.70895e-07 -5.51448e-08
-1.31649e-07 1.97896e-07 -5.43397e-08
-6.6705e-08 1.10117e-07 -5.35112e-08
-8.67744e-08 2.26013e-07 -5.29103e-08
-7.13992e-08 1.5485e-07 -3.30076e-08
-6.51123e-08 1.77425e-07 -3.44433e-08
-8.73534e-08 1.82732e-07 -3.3849e-08
-9.44612e-08 1.61874e-07 -3.52765e-08
-1.73925e-07 1.39417e-07 -6.79965e-08
-1.45187e-07 2.38751e-07 -6.24405e-08
-1.34202e-07 1.32818e-07 -5.90082e-08
-1.10267e-07 2.24324e-07 -5.46202e-08
-2.27823e-08 1.49858e-07 -5.30347e-08
-2.30782e-08 1.69182e-07 -5.23121e-08
-1.3055e-07 1.5596e-07 -5.41228e-08
-1.17052e-07 2.05563e-07 -5.1827e-08
-8.2059e-08 8.53024e-08 -6.31371e-08
-7.12807e-08 2.51768e-07 -6.03953e-08
-4.37308e-08 1.1386e-07 -5.4566e-08
-3.21913e-08 2.04549e-07 -5.45779e-08
-7.20167e-08 1.84716e-07 -3.49688e-08
-8.09694e-08 1.50446e-07 -3.53889e-08
-9.67684e-08 1.71702e-07 -3.56934e-08
-6.30228e-08 1.61507e-07 -3.42478e-08
-1.62282e-07 1.61788e-07 -6.24752e-08
-1.467e-07 2.15397e-07 -5.98151e-08
-4.3025e-08 1.45828e-07 -4.74605e-08
-1.16759e-08 2.04676e-07 -6.02005e-08
-2.22432e-08 1.1161e-07 -6.01364e-08
-4.0818e-08 1.75521e-07 -4.6474e-08
-8.48321e-08 1.99549e-07 -4.24413e-08
-9.79027e-08 1.44466e-07 -4.38358e-08
-1.01664e-07 1.8851e-07 -4.20051e-08
-7.04818e-08 1.39423e-07 -4.18663e-08
-6.05529e-08 1.89978e-07 -4.15779e-08
-1.06296e-07 1.6526e-07 -4.18396e-08
-1.1033e-07 1.03029e-07 -6.17893e-08
-4.95776e-08 2.32733e-07 -5.68609e-08
-5.63476e-08 2.51988e-07 -6.10347e-08
-9.86249e-08 8.5111e-08 -6.57214e-08
-1.72858e-07 1.5545e-07 -6.55475e-08
-1.52241e-07 2.25034e-07 -6.20148e-08
-1.45893e-07 1.87358e-07 -5.67906e-08
-7.54097e-09 1.21759e-07 -6.17942e-08
1.01725e-09 1.93318e-07 -6.18566e-08
-7.47978e-08 9.76931e-08 -5.84004e-08
-7.84697e-08 2.38681e-07 -5.68921e-08
-8.21842e-08 1.17406e-07 -5.26678e-08
-7.40452e-08 2.1884e-07 -5.09848e-08
-5.55307e-08 1.70543e-07 -3.86144e-08
-6.27852e-08 2.16978e-07 -5.14259e-08
-9.58933e-08 1.19355e-07 -5.41181e-08
-3.63322e-08 2.18366e-07 -5.53323e-08
-5.84276e-08 1.51067e-07 -3.99486e-08
-1.29259e-07 1.16981e-07 -6.09487e-08
-8.81796e-09 1.7641e-07 -5.67341e-08
-1.27595e-08 1.37361e-07 -5.72561e-08
-1.60015e-07 1.35182e-07 -6.53941e-08
-1.32092e-07 2.34974e-07 -5.99789e-08
-1.22555e-07 1.68308e-07 -4.97021e-08
-1.46429e-07 1.5788e-07 -5.91756e-08
-1.31737e-07 2.11526e-07 -5.66654e-08
-1.82597e-07 1.43552e-07 -6.87773e-08
-1.79378e-07 1.48875e-07 -6.74881e-08
-1.54391e-07 2.39672e-07 -6.34023e-08
-1.54575e-07 2.33441e-07 -6.30943e-08
-4.98009e-08 1.01159e-07 -5.5382e-08
-1.37974e-07 1.44185e-07 -5.83213e-08
-1.1817e-07 2.17653e-07 -5.47921e-08
-8.2671e-08 7.45933e-08 -6.55116e-08
-7.00703e-08 2.62872e-07 -6.22878e-08
-1.01771e-07 2.347e-07 -5.55789e-08
-1.15523e-07 1.92001e-07 -4.8359e-08
-1.27445e-07 1.81826e-07 -5.15901e-08
-1.19721e-08 1.61196e-07 -5.42313e-08
-4.53983e-08 2.02106e-07 -5.04141e-08
-6.3278e-11 2.08736e-07 -6.28781e-08
-1.12934e-08 1.07418e-07 -6.2776e-08
-5.80803e-08 1.21943e-07 -5.01979e-08
-3.47734e-08 1.89849e-07 -5.14143e-08
-1.15754e-07 1.34438e-07 -5.34201e-08
-7.8775e-08 1.7966e-07 -3.01897e-08
-8.58198e-08 1.59189e-07 -3.11904e-08
-6.76381e-08 1.68673e-07 -3.05315e-08
-8.85373e-08 1.75186e-07 -3.06613e-08
-9.59453e-08 2.15689e-07 -5.03568e-08
-4.22967e-08 1.29295e-07 -5.18605e-08
-1.56143e-07 1.73017e-07 -5.9666e-08
-1.47758e-07 2.03852e-07 -5.81916e-08
-7.60111e-08 1.61948e-07 -2.75812e-08
-6.11908e-08 2.03901e-07 -4.68241e-08
-7.25143e-08 1.75883e-07 -2.96427e-08
-8.88595e-08 1.67848e-07 -3e-08
-6.13506e-08 9.26018e-08 -5.7268e-08
-7.38017e-08 1.25763e-07 -4.82444e-08
-3.27325e-08 1.60311e-07 -4.89348e-08
-1.0099e-07 1.31461e-07 -5.01946e-08
-5.49661e-08 1.79444e-07 -4.05751e-08
-1.60213e-07 1.52942e-07 -6.34133e-08
-1.40791e-07 2.21495e-07 -6.00128e-08
-1.48697e-07 1.24658e-07 -6.38106e-08
-1.18373e-07 2.36203e-07 -5.76171e-08
-8.25528e-08 2.11648e-07 -4.77959e-08
-2.69058e-08 1.7874e-07 -5.22977e-08
-9.05516e-08 2.40986e-07 -5.64627e-08
-3.3688e-08 1.17097e-07 -5.64939e-08
-2.3544e-08 2.00215e-07 -5.65513e-08
-2.99562e-08 1.38849e-07 -5.3218e-08
-8.22478e-08 1.75266e-07 -2.8101e-08
-7.92354e-08 1.89638e-07 -3.66916e-08
-8.94424e-08 1.5012e-07 -3.78573e-08
-9.59768e-08 1.79235e-07 -3.64292e-08
-9.18018e-08 1.93363e-07 -4.05571e-08
-1.0231e-07 1.53908e-07 -4.213e-08
-1.24865e-07 1.43953e-07 -5.39658e-08
-6.47602e-08 1.4588e-07 -3.98255e-08
-1.0687e-07 2.11792e-07 -5.09093e-08
-1.46613e-07 1.36347e-07 -6.18887e-08
-1.21889e-07 2.27326e-07 -5.72249e-08
-1.05269e-07 1.98739e-07 -4.65712e-08
-1.17293e-07 1.56758e-07 -4.85958e-08
-7.90279e-08 1.58541e-07 -2.95271e-08
-7.10554e-08 1.62797e-07 -2.90573e-08
-2.04736e-08 2.13512e-07 -5.81094e-08
-3.27994e-08 1.02872e-07 -5.77313e-08
-6.21447e-08 2.6034e-07 -6.23187e-08
-9.10671e-08 7.7541e-08 -6.64573e-08
SCALARS effective_fluid_pressure_TPM float
LOOKUP_TABLE default
53.2
53.2
53.2
53.2
53.2
53.2
53.2
53.2
53.2
53.2
53.2
53.2
53.2
53.2
0.4
53.2
53.2
53.2
53.2
53.2
53.2
53.2
53.2
53.2
53.2
53.2
53.2
0.4
53.2
53.2
53.2
53.2
53.2
53.2
53.2
53.2
53.2
53.2
0.4
53.2
53.2
53.2
53.2
53.2
53.2
53.2
53.2
53.2
53.2
0.4
53.2
53.2
53.2
53.2
53.2
53.2
53.2
53.2
53.2
53.2
0.4
53.2
53.2
53.2
53.2
53.2
53.2
53.2
53.2
53.2
53.2
48.0406
53.2
53.2
53.2
53.2
53.2
53.2
53.2
53.2
0.4
53.2
53.2
53.2
53.2
53.2
53.2
53.2
53.2
53.2
53.2
53.2
53.2
53.2
53.2
0.4
53.2
53.2
53.2
53.2
53.2
53.2
53.2
53.2
53.2
53.2
53.2
53.2
0.4
53.2
53.2
53.2
53.2
53.2
53.2
53.2
53.2
53.2
53.2
0.4
53.2
53.2
53.2
53.2
53.2
53.2
53.2
53.2
53.2
53.2
0.4
53.2
53.2
53.2
53.2
53.2
53.2
53.2
53.2
53.2
53.2
0.4
53.2
53.2
53.2
53.2
53.2
53.2
53.2
53.2
53.2
53.2
48.0406
53.2
53.2
53.2
53.2
53.2
53.2
53.2
53.2
0.4
53.2
42.2489
38.6088
38.3237
41.5425
53.2
53.2
45.5934
43.6748
43.6365
45.6207
53.2
53.2
41.5791
38.4423
38.6181
42.2516
53.2
41.1399
37.6322
37.642
41.139
53.2
41.0597
37.6241
37.6979
41.0116
53.2
41.1479
37.7531
37.7495
41.1714
0.4
0.4
0.4
53.2
53.2
41.1181
37.7933
37.6824
41.0845
53.2
53.2
40.8453
37.5108
37.6661
41.1517
53.2
41.149
37.5248
37.59
41.0478
53.2
41.0681
37.7196
37.5827
41.1619
53.2
41.004
37.5
37.5448
41.1137
53.2
0.4
0.4
0.4
53.2
53.2
53.2
41.1753
37.7289
37.6298
41.0848
53.2
41.1701
37.6012
37.7404
41.0871
53.2
41.0724
37.6168
37.5492
41.1641
53.2
41.0162
37.6236
37.6577
41.0965
53.2
53.2
0.4
0.4
0.4
53.2
53.2
41.0764
37.7272
37.5889
41.166
53.2
41.1003
37.6067
37.4972
41.1384
53.2
41.1569
37.6749
37.516
40.845
53.2
53.2
41.1657
37.7164
37.7626
41.0381
53.2
53.2
0.4
0.4
0.4
53.2
53.2
41.1371
37.71
37.6541
41.2588
53.2
41.3033
37.8938
37.7846
41.1031
53.2
53.2
41.3658
38.4104
38.7406
42.2199
53.2
53.2
45.7941
43.9426
44.0551
46.16
53.2
0.4
0.4
0.4
53.2
53.2
50.3324
50.1202
50.472
51.2315
53.2
53.2
51.4736
51.0662
51.0646
51.474
53.2
53.2
51.2333
50.4708
50.0908
50.3212
53.2
45.802
43.955
44.1143
46.1832
53.2
48.5218
49.0332
48.5448
53.2
53.2
53.2
42.235
38.745
38.4204
41.3632
53.2
53.2
41.1089
37.7703
37.7093
41.2785
53.2
41.2851
37.8569
37.7466
41.1638
53.2
53.2
0.4
0.4
0.4
53.2
42.2489
38.6088
38.3237
41.5425
53.2
53.2
45.5934
43.6748
43.6365
45.6207
53.2
53.2
41.5791
38.4423
38.6181
42.2516
53.2
41.1399
37.6322
37.642
41.139
53.2
41.0597
37.6241
37.6979
41.0116
53.2
41.1479
37.7531
37.7495
41.1714
0.4
0.4
0.4
53.2
53.2
41.1181
37.7933
37.6824
41.0845
53.2
53.2
40.8453
37.5108
37.6661
41.1517
53.2
41.149
37.5248
37.59
41.0478
53.2
41.0681
37.7196
37.5827
41.1619
53.2
41.004
37.5
37.5448
41.1137
53.2
0.4
0.4
0.4
53.2
53.2
53.2
41.1753
37.7289
37.6298
41.0848
53.2
41.1701
37.6012
37.7404
41.0871
53.2
41.0724
37.6168
37.5492
41.1641
53.2
41.0162
37.6236
37.6577
41.0965
53.2
53.2
0.4
0.4
0.4
53.2
53.2
41.0764
37.7272
37.5889
41.166
53.2
41.1003
37.6067
37.4972
41.1384
53.2
41.1569
37.6749
37.516
40.845
53.2
53.2
41.1657
37.7164
37.7626
41.0381
53.2
53.2
0.4
0.4
0.4
53.2
53.2
41.1371
37.71
37.6541
41.2588
53.2
41.3033
37.8938
37.7846
41.1031
53.2
53.2
41.3658
38.4104
38.7406
42.2199
53.2
53.2
45.7941
43.9426
44.0551
46.16
53.2
0.4
0.4
0.4
53.2
53.2
50.3324
50.1202
50.472
51.2315
53.2
53.2
51.4736
51.0662
51.0646
51.474
53.2
53.2
51.2333
50.4708
50.0908
50.3212
53.2
45.802
43.955
44.1143
46.1832
53.2
48.5218
49.0332
48.5448
53.2
53.2
53.2
42.235
38.745
38.4204
41.3632
53.2
53.2
41.1089
37.7703
37.7093
41.2785
53.2
41.2851
37.8569
37.7466
41.1638
53.2
53.2
0.4
0.4
0.4
29.9036
30.2579
31.1863
31.2272
41.7511
41.7487
28.5416
29.1344
27.2183
28.5385
45.8643
45.8634
37.7684
38.5851
38.6311
38.6006
34.6714
35.1473
37.9327
38.1536
34.9846
35.5411
18.6575
20.515
20.0138
20.65
47.9049
47.9048
37.239
37.2269
35.327
34.8236
35.9464
35.9268
42.9964
43.1294
36.2508
36.1827
21.1502
20.7114
21.6327
20.1264
43.8322
43.8262
31.4349
41.9991
42.13
30.7226
28.0525
27.716
28.075
26.9063
27.0625
27.0944
38.4307
38.0306
43.6527
43.7988
47.2091
47.2025
40.4327
44.6517
44.5325
38.4061
38.7764
34.0967
34.226
24.5304
34.3647
34.5427
36.2842
25.6437
37.1184
38.1825
38.7171
42.8783
42.8781
33.4606
40.1937
40.1681
51.6093
50.0417
51.6088
50.0395
36.4284
37.9651
37.9744
47.3501
47.2524
37.3042
33.4899
35.5573
36.059
33.2722
47.3352
47.3631
33.0015
34.1623
33.8276
14.5304
15.1927
14.9473
15.3142
33.9688
34.5132
42.0957
42.1514
9.34613
30.9942
13.9614
13.5789
37.5493
31.3346
32.4484
31.86
26.1726
43.7839
43.7862
39.5019
39.4889
31.9841
34.8899
37.9404
38.0553
38.1398
35.6099
10.1806
22.8952
22.8857
22.6036
26.6587
26.7303
34.769
25.2594
34.7597
39.8047
39.8155
31.7569
31.8874
12.5539
12.3581
38.7822
38.7643
47.3342
47.3498
30.0259
30.0777
30.0005
30.0434
40.029
40.1313
28.0521
27.3721
27.4753
28.0817
44.3858
44.4615
38.5139
37.7006
38.2652
38.2662
34.3806
34.4395
35.0858
35.2712
34.7508
34.7176
19.9608
20.2573
19.2803
19.134
47.053
47.1405
35.9416
36.0576
35.277
34.7387
34.1163
34.0503
42.7956
42.8339
36.1157
35.5277
20.748
20.4061
20.2579
20.8128
40.8894
40.9367
31.4156
42.0666
41.9282
30.8441
26.9395
26.8574
26.6415
26.7784
26.8463
25.6334
37.8935
37.845
43.5186
43.5215
45.1859
45.2261
36.3085
44.6428
44.5393
38.1834
38.1484
24.8873
33.6974
33.7219
33.9917
34.0307
36.2548
36.1351
38.1612
38.6962
41.519
41.6743
31.3734
37.917
37.837
51.2771
49.1595
51.2985
49.1876
24.6441
36.3027
36.2453
36.3722
36.4696
47.1815
47.1453
31.3981
32.869
36.005
47.3318
47.3083
32.6695
32.5719
34.0723
32.836
32.7913
14.1481
15.0671
14.8705
14.8573
34.4345
38.178
38.2294
9.45034
30.918
13.6724
13.1094
37.388
37.3959
31.024
32.44
31.1408
41.6992
41.7703
38.4017
38.2146
25.9346
31.1735
34.6483
38.0501
37.8835
35.5475
9.99969
22.3248
22.3072
21.543
25.6871
25.0818
33.4576
33.379
25.9082
38.3623
38.4955
30.2528
30.2129
12.6907
12.7878
38.673
38.4753
47.2038
47.215
29.7705
30.0706
29.9981
30.0318
40.0588
40.0671
28.0451
27.3563
27.1137
28.1021
44.4084
44.4086
38.5441
37.7005
38.2809
38.2756
34.442
34.4114
35.0538
35.3449
34.7871
34.8059
18.5477
20.2541
19.7501
19.2982
47.0911
47.0944
35.9883
35.9958
35.2898
34.7688
34.0661
34.0527
42.8431
42.8391
36.157
36.0524
20.7765
20.4172
20.5312
20.0135
40.8814
40.8647
31.3521
42.089
41.939
30.6052
27.2471
26.9924
26.6329
26.691
26.7818
25.715
37.8485
37.8717
43.5304
43.5082
45.1856
45.1729
36.2269
44.6577
44.5437
38.205
38.2746
33.7539
33.7075
24.3819
34.0193
34.0212
36.1467
25.5291
36.1809
38.1706
38.7183
41.5844
41.5955
31.4089
37.8728
37.8378
51.285
49.1649
51.2848
49.1611
36.3274
36.3957
36.4129
47.1861
47.1781
36.3222
31.2391
32.9512
36.0308
33.0825
47.3433
47.3082
32.8475
34.0387
32.8304
14.6226
14.3094
15.1603
14.2898
32.9521
34.4267
38.1426
38.1663
9.28961
30.6646
13.5941
12.9431
37.4209
31.0623
32.3799
31.1811
25.978
41.7095
41.7127
38.2481
38.3064
31.2716
34.8136
37.2357
38.0751
37.9607
35.5606
9.8763
22.268
22.3957
21.4585
25.7133
25.7165
33.4154
25.1166
33.4117
38.3929
38.4235
30.242
30.3392
12.7707
12.2781
38.7031
38.6792
47.2192
47.2134
30.0319
30.0984
30.0408
29.9895
40.1268
40.0273
28.056
27.3727
27.482
28.0681
44.4627
44.3809
38.5238
37.7066
38.2634
38.2581
34.3885
34.385
35.1176
35.2372
34.7317
34.8493
19.9611
20.2629
19.2909
19.116
47.1387
47.0512
36.0633
35.9413
35.2851
34.7451
34.0553
34.1031
42.8278
42.8376
36.1249
35.5398
20.7616
20.3926
20.2519
20.8174
40.9504
40.8739
31.4261
42.0859
41.9314
30.8502
27.3019
26.857
26.6677
26.7177
26.8141
25.61
37.8559
37.8037
43.5198
43.4754
45.2385
45.1722
36.3095
44.6507
44.5419
38.1715
38.2945
24.8958
33.6949
33.7193
34.0029
34.0069
36.1333
36.143
38.1665
38.7047
41.6674
41.518
31.3445
37.8511
37.8983
51.299
49.1916
51.2758
49.1545
24.6481
36.2688
36.4606
36.373
47.1779
47.1776
36.4041
31.4247
32.8697
36.0118
32.5431
47.3446
47.3078
32.5813
34.0796
32.7674
14.1575
15.0636
14.8741
14.8609
33.0069
34.4279
38.2219
38.1854
9.44446
30.8825
30.664
13.6748
13.1105
37.4153
32.4472
41.7711
41.6949
38.3505
38.2162
25.9473
31.1751
31.3084
34.6546
37.2907
38.0548
37.892
35.5548
10.0041
22.3192
22.3357
21.5511
25.0836
25.6946
33.3795
25.8736
33.4631
38.4722
38.3623
30.2954
30.1662
12.6828
12.7831
38.8373
38.4908
47.1992
47.214
29.8934
31.043
32.137
30.3986
40.3492
42.4792
29.6309
28.2794
27.3748
28.2628
44.608
46.0851
38.0777
38.6178
38.4221
40.3884
37.5109
34.6282
35.7362
36.6903
35.9954
34.9069
18.634
20.8861
20.2513
20.1892
47.1946
48.7848
36.2647
39.4526
35.4196
35.0086
34.5375
36.0144
44.1696
42.9355
36.2542
36.2919
21.7207
20.5332
21.1711
20.2332
41.2586
42.258
31.505
42.2945
42.1443
30.7874
28.7424
27.235
27.9455
26.8142
27.7742
26.3105
38.0406
41.5022
43.6299
45.8523
45.3986
46.2376
37.1768
44.6713
44.6653
39.6351
38.3207
35.4306
33.8982
24.7714
36.3373
34.2001
25.6923
36.4055
40.6338
38.3526
38.7669
41.7766
44.7576
32.0942
38.2823
39.6435
51.3237
49.2639
51.7215
49.8204
37.2279
36.4308
36.7465
39.0642
47.2404
47.9676
32.608
33.9142
36.185
47.4894
47.3694
32.9626
33.7908
35.0112
33.1063
35.652
14.8596
14.9622
15.4894
14.8451
34.5335
38.7429
39.4021
9.33087
14.2537
13.3178
37.5301
38.6292
31.1952
32.4915
32.5902
33.4772
31.3971
26.5728
42.0115
43.4104
38.5033
42.7861
35.2596
38.3163
38.1574
35.6663
10.2743
23.5955
22.5547
22.3377
27.2848
26.0565
33.7673
35.9757
25.2401
38.677
41.6791
32.0458
30.8346
12.4672
12.4029
39.212
38.7842
48.3771
47.2796
47.2116
49.8769
47.1952
49.8792
51.2328
51.2316
48.5493
50.0543
47.0542
48.5653
51.891
51.8901
47.1179
47.2216
49.1307
48.9102
47.1209
49.6424
50.7568
50.7736
47.0713
49.6527
47.8384
49.2968
47.8121
49.3215
52.2561
52.2554
50.4363
50.4353
46.1498
46.2819
50.5308
50.531
49.2808
50.3604
46.5095
46.5617
48.3351
48.3674
49.5826
47.5182
51.4536
51.4519
46.9056
47.9786
47.9478
46.9582
49.2545
49.2272
49.9007
47.7233
47.7066
49.8319
49.8542
47.0121
50.542
49.2498
52.0449
52.0442
50.9059
48.8161
48.7166
47.7899
49.7351
48.2863
48.9522
47.3362
48.1222
49.0851
45.7484
47.326
50.1417
46.2267
46.3507
51.3861
51.3848
50.3511
51.0301
51.0311
52.9106
52.6087
52.9104
52.6083
45.7188
50.689
50.6883
50.584
51.5187
50.1749
50.3551
50.542
45.3643
46.8977
50.1676
50.1815
46.9467
46.9588
49.8588
48.7293
48.7959
47.7779
49.2959
49.8701
46.9495
51.123
51.1228
48.1234
47.8354
48.2062
49.2004
46.0597
47.7708
46.4764
49.2846
47.3962
51.5314
51.5307
50.7484
50.7468
49.2644
46.7383
49.9425
46.9884
46.9997
46.7474
48.9757
48.859
48.859
49.6279
49.5467
49.5253
50.2458
47.5243
50.2465
50.8921
50.8921
50.0944
50.1097
48.3304
47.8592
46.0533
46.0495
51.2226
51.0889
30.3936
30.2396
30.3605
32.18
42.5003
40.3475
28.2709
28.2688
27.3794
29.6092
46.0993
44.6064
37.7954
38.8625
40.3811
38.4258
34.5979
37.5232
36.433
36.0171
35.9662
35.0324
18.9807
20.4787
19.5769
20.905
48.7956
47.1952
39.4824
36.2758
35.4952
34.9084
36.0453
34.5209
44.1638
42.9571
36.8113
36.1766
20.9781
21.2826
21.376
20.2861
42.2806
41.2469
31.7092
42.0058
42.4222
30.7779
27.5542
28.7638
27.182
27.5509
26.9731
27.0386
41.5089
38.0072
43.6251
45.8531
46.25
45.3949
37.1936
44.7826
44.5494
39.6186
38.4461
35.4055
33.9109
24.5972
34.1942
36.3333
36.2799
25.9485
40.6604
38.2337
38.886
44.7789
41.7785
32.8303
39.6373
38.3058
51.7247
49.8269
51.3236
49.2626
37.1971
39.0913
36.7402
47.9654
47.25
36.5655
31.9103
33.9771
36.1589
33.2353
47.3383
47.5161
33.6922
34.1747
35.6773
14.3304
15.5203
15.3558
14.6826
33.2437
34.9217
39.4132
38.7609
9.49944
30.8506
13.8938
13.6046
38.571
32.2879
32.5862
33.4857
26.1749
43.4237
42.0125
42.8206
38.4865
31.5246
34.941
37.4288
38.5446
38.0628
35.8608
9.99904
22.5641
23.6018
22.0502
26.0142
27.3183
36.0144
25.6995
33.7599
41.7063
38.6654
30.6913
32.1913
12.8313
12.4878
38.7803
39.2616
47.2825
48.3762
29.9036
30.2579
31.1863
31.2272
41.7511
41.7487
28.5416
29.1344
27.2183
28.5385
45.8643
45.8634
37.7684
38.5851
38.6311
38.6006
34.6714
35.1473
37.9327
38.1536
34.9846
35.5411
18.6575
20.515
20.0138
20.65
47.9049
47.9048
37.239
37.2269
35.327
34.8236
35.9464
35.9268
42.9964
43.1294
36.2508
36.1827
21.1502
20.7114
21.6327
20.1264
43.8322
43.8262
31.4349
41.9991
42.13
30.7226
28.0525
27.716
28.075
26.9063
27.0625
27.0944
38.4307
38.0306
43.6527
43.7988
47.2091
47.2025
40.4327
44.6517
44.5325
38.4061
38.7764
34.0967
34.226
24.5304
34.3647
34.5427
36.2842
25.6437
37.1184
38.1825
38.7171
42.8783
42.8781
33.4606
40.1937
40.1681
51.6093
50.0417
51.6088
50.0395
36.4284
37.9651
37.9744
47.3501
47.2524
37.3042
33.4899
35.5573
36.059
33.2722
47.3352
47.3631
33.0015
34.1623
33.8276
14.5304
15.1927
14.9473
15.3142
33.9688
34.5132
42.0957
42.1514
9.34613
30.9942
13.9614
13.5789
37.5493
31.3346
32.4484
31.86
26.1726
43.7839
43.7862
39.5019
39.4889
31.9841
34.8899
37.9404
38.0553
38.1398
35.6099
10.1806
22.8952
22.8857
22.6036
26.6587
26.7303
34.769
25.2594
34.7597
39.8047
39.8155
31.7569
31.8874
12.5539
12.3581
38.7822
38.7643
47.3342
47.3498
30.0259
30.0777
30.0005
30.0434
40.029
40.1313
28.0521
27.3721
27.4753
28.0817
44.3858
44.4615
38.5139
37.7006
38.2652
38.2662
34.3806
34.4395
35.0858
35.2712
34.7508
34.7176
19.9608
20.2573
19.2803
19.134
47.053
47.1405
35.9416
36.0576
35.277
34.7387
34.1163
34.0503
42.7956
42.8339
36.1157
35.5277
20.748
20.4061
20.2579
20.8128
40.8894
40.9367
31.4156
42.0666
41.9282
30.8441
26.9395
26.8574
26.6415
26.7784
26.8463
25.6334
37.8935
37.845
43.5186
43.5215
45.1859
45.2261
36.3085
44.6428
44.5393
38.1834
38.1484
24.8873
33.6974
33.7219
33.9917
34.0307
36.2548
36.1351
38.1612
38.6962
41.519
41.6743
31.3734
37.917
37.837
51.2771
49.1595
51.2985
49.1876
24.6441
36.3027
36.2453
36.3722
36.4696
47.1815
47.1453
31.3981
32.869
36.005
47.3318
47.3083
32.6695
32.5719
34.0723
32.836
32.7913
14.1481
15.0671
14.8705
14.8573
34.4345
38.178
38.2294
9.45034
30.918
13.6724
13.1094
37.388
37.3959
31.024
32.44
31.1408
41.6992
41.7703
38.4017
38.2146
25.9346
31.1735
34.6483
38.0501
37.8835
35.5475
9.99969
22.3248
22.3072
21.543
25.6871
25.0818
33.4576
33.379
25.9082
38.3623
38.4955
30.2528
30.2129
12.6907
12.7878
38.673
38.4753
47.2038
47.215
29.7705
30.0706
29.9981
30.0318
40.0588
40.0671
28.0451
27.3563
27.1137
28.1021
44.4084
44.4086
38.5441
37.7005
38.2809
38.2756
34.442
34.4114
35.0538
35.3449
34.7871
34.8059
18.5477
20.2541
19.7501
19.2982
47.0911
47.0944
35.9883
35.9958
35.2898
34.7688
34.0661
34.0527
42.8431
42.8391
36.157
36.0524
20.7765
20.4172
20.5312
20.0135
40.8814
40.8647
31.3521
42.089
41.939
30.6052
27.2471
26.9924
26.6329
26.691
26.7818
25.715
37.8485
37.8717
43.5304
43.5082
45.1856
45.1729
36.2269
44.6577
44.5437
38.205
38.2746
33.7539
33.7075
24.3819
34.0193
34.0212
36.1467
25.5291
36.1809
38.1706
38.7183
41.5844
41.5955
31.4089
37.8728
37.8378
51.285
49.1649
51.2848
49.1611
36.3274
36.3957
36.4129
47.1861
47.1781
36.3222
31.2391
32.9512
36.0308
33.0825
47.3433
47.3082
32.8475
34.0387
32.8304
14.6226
14.3094
15.1603
14.2898
32.9521
34.4267
38.1426
38.1663
9.28961
30.6646
13.5941
12.9431
37.4209
31.0623
32.3799
31.1811
25.978
41.7095
41.7127
38.2481
38.3064
31.2716
34.8136
37.2357
38.0751
37.9607
35.5606
9.8763
22.268
22.3957
21.4585
25.7133
25.7165
33.4154
25.1166
33.4117
38.3929
38.4235
30.242
30.3392
12.7707
12.2781
38.7031
38.6792
47.2192
47.2134
30.0319
30.0984
30.0408
29.9895
40.1268
40.0273
28.056
27.3727
27.482
28.0681
44.4627
44.3809
38.5238
37.7066
38.2634
38.2581
34.3885
34.385
35.1176
35.2372
34.7317
34.8493
19.9611
20.2629
19.2909
19.116
47.1387
47.0512
36.0633
35.9413
35.2851
34.7451
34.0553
34.1031
42.8278
42.8376
36.1249
35.5398
20.7616
20.3926
20.2519
20.8174
40.9504
40.8739
31.4261
42.0859
41.9314
30.8502
27.3019
26.857
26.6677
26.7177
26.8141
25.61
37.8559
37.8037
43.5198
43.4754
45.2385
45.1722
36.3095
44.6507
44.5419
38.1715
38.2945
24.8958
33.6949
33.7193
34.0029
34.0069
36.1333
36.143
38.1665
38.7047
41.6674
41.518
31.3445
37.8511
37.8983
51.299
49.1916
51.2758
49.1545
24.6481
36.2688
36.4606
36.373
47.1779
47.1776
36.4041
31.4247
32.8697
36.0118
32.5431
47.3446
47.3078
32.5813
34.0796
32.7674
14.1575
15.0636
14.8741
14.8609
33.0069
34.4279
38.2219
38.1854
9.44446
30.8825
30.664
13.6748
13.1105
37.4153
32.4472
41.7711
41.6949
38.3505
38.2162
25.9473
31.1751
31.3084
34.6546
37.2907
38.0548
37.892
35.5548
10.0041
22.3192
22.3357
21.5511
25.0836
25.6946
33.3795
25.8736
33.4631
38.4722
38.3623
30.2954
30.1662
12.6828
12.7831
38.8373
38.4908
47.1992
47.214
29.8934
31.043
32.137
30.3986
40.3492
42.4792
29.6309
28.2794
27.3748
28.2628
44.608
46.0851
38.0777
38.6178
38.4221
40.3884
37.5109
34.6282
35.7362
36.6903
35.9954
34.9069
18.634
20.8861
20.2513
20.1892
47.1946
48.7848
36.2647
39.4526
35.4196
35.0086
34.5375
36.0144
44.1696
42.9355
36.2542
36.2919
21.7207
20.5332
21.1711
20.2332
41.2586
42.258
31.505
42.2945
42.1443
30.7874
28.7424
27.235
27.9455
26.8142
27.7742
26.3105
38.0406
41.5022
43.6299
45.8523
45.3986
46.2376
37.1768
44.6713
44.6653
39.6351
38.3207
35.4306
33.8982
24.7714
36.3373
34.2001
25.6923
36.4055
40.6338
38.3526
38.7669
41.7766
44.7576
32.0942
38.2823
39.6435
51.3237
49.2639
51.7215
49.8204
37.2279
36.4308
36.7465
39.0642
47.2404
47.9676
32.608
33.9142
36.185
47.4894
47.3694
32.9626
33.7908
35.0112
33.1063
35.652
14.8596
14.9622
15.4894
14.8451
34.5335
38.7429
39.4021
9.33087
14.2537
13.3178
37.5301
38.6292
31.1952
32.4915
32.5902
33.4772
31.3971
26.5728
42.0115
43.4104
38.5033
42.7861
35.2596
38.3163
38.1574
35.6663
10.2743
23.5955
22.5547
22.3377
27.2848
26.0565
33.7673
35.9757
25.2401
38.677
41.6791
32.0458
30.8346
12.4672
12.4029
39.212
38.7842
48.3771
47.2796
47.2116
49.8769
47.1952
49.8792
51.2328
51.2316
48.5493
50.0543
47.0542
48.5653
51.891
51.8901
47.1179
47.2216
49.1307
48.9102
47.1209
49.6424
50.7568
50.7736
47.0713
49.6527
47.8384
49.2968
47.8121
49.3215
52.2561
52.2554
50.4363
50.4353
46.1498
46.2819
50.5308
50.531
49.2808
50.3604
46.5095
46.5617
48.3351
48.3674
49.5826
47.5182
51.4536
51.4519
46.9056
47.9786
47.9478
46.9582
49.2545
49.2272
49.9007
47.7233
47.7066
49.8319
49.8542
47.0121
50.542
49.2498
52.0449
52.0442
50.9059
48.8161
48.7166
47.7899
49.7351
48.2863
48.9522
47.3362
48.1222
49.0851
45.7484
47.326
50.1417
46.2267
46.3507
51.3861
51.3848
50.3511
51.0301
51.0311
52.9106
52.6087
52.9104
52.6083
45.7188
50.689
50.6883
50.584
51.5187
50.1749
50.3551
50.542
45.3643
46.8977
50.1676
50.1815
46.9467
46.9588
49.8588
48.7293
48.7959
47.7779
49.2959
49.8701
46.9495
51.123
51.1228
48.1234
47.8354
48.2062
49.2004
46.0597
47.7708
46.4764
49.2846
47.3962
51.5314
51.5307
50.7484
50.7468
49.2644
46.7383
49.9425
46.9884
46.9997
46.7474
48.9757
48.859
48.859
49.6279
49.5467
49.5253
50.2458
47.5243
50.2465
50.8921
50.8921
50.0944
50.1097
48.3304
47.8592
46.0533
46.0495
51.2226
51.0889
30.3936
30.2396
30.3605
32.18
42.5003
40.3475
28.2709
28.2688
27.3794
29.6092
46.0993
44.6064
37.7954
38.8625
40.3811
38.4258
34.5979
37.5232
36.433
36.0171
35.9662
35.0324
18.9807
20.4787
19.5769
20.905
48.7956
47.1952
39.4824
36.2758
35.4952
34.9084
36.0453
34.5209
44.1638
42.9571
36.8113
36.1766
20.9781
21.2826
21.376
20.2861
42.2806
41.2469
31.7092
42.0058
42.4222
30.7779
27.5542
28.7638
27.182
27.5509
26.9731
27.0386
41.5089
38.0072
43.6251
45.8531
46.25
45.3949
37.1936
44.7826
44.5494
39.6186
38.4461
35.4055
33.9109
24.5972
34.1942
36.3333
36.2799
25.9485
40.6604
38.2337
38.886
44.7789
41.7785
32.8303
39.6373
38.3058
51.7247
49.8269
51.3236
49.2626
37.1971
39.0913
36.7402
47.9654
47.25
36.5655
31.9103
33.9771
36.1589
33.2353
47.3383
47.5161
33.6922
34.1747
35.6773
14.3304
15.5203
15.3558
14.6826
33.2437
34.9217
39.4132
38.7609
9.49944
30.8506
13.8938
13.6046
38.571
32.2879
32.5862
33.4857
26.1749
43.4237
42.0125
42.8206
38.4865
31.5246
34.941
37.4288
38.5446
38.0628
35.8608
9.99904
22.5641
23.6018
22.0502
26.0142
27.3183
36.0144
25.6995
33.7599
41.7063
38.6654
30.6913
32.1913
12.8313
12.4878
38.7803
39.2616
47.2825
48.3762
VECTORS nodal_fluid_flux_TPM float
-0.000298248 7.0703e-06 -5.30321e-20
0.000245426 -0.000101667 5.65278e-20
0.000140967 0.000234476 2.93736e-20
0.000536619 7.06443e-05 1.73323e-19
-7.70125e-05 -0.000133374 -2.74558e-20
-7.65381e-05 0.000132553 -1.8912e-20
0.000536776 -7.06651e-05 1.47385e-21
0.000140964 -0.000234362 3.94083e-20
-0.000297854 -7.98971e-06 2.18683e-20
0.000245606 0.000101743 -1.88164e-20
-0.000146173 -0.000273922 -1.32624e-19
0.000203478 0.000205051 1.20839e-19
0.000203408 -0.000204493 -1.12342e-19
-0.000192977 0.000334271 -1.46265e-19
-0.000434937 0.000354305 4.80711e-21
0.000641456 -8.44383e-05 5.7749e-20
-0.000146946 0.00025452 7.20778e-20
-0.000148597 -0.000257334 4.04616e-20
0.000648671 8.53907e-05 -5.53703e-20
0.000251597 0.000104203 -5.47842e-20
-0.000192611 -0.000333631 -3.82656e-20
0.000146022 -0.000273755 3.69193e-20
-0.000309099 -4.26383e-06 -1.23559e-20
-0.000149396 -0.000258736 1.38957e-19
-0.000148751 0.000257652 8.6409e-20
-0.000146964 -0.00027369 1.54396e-19
0.000248357 0.000102878 -2.20191e-20
-0.000639843 7.50395e-05 -5.98047e-20
0.000646 8.50227e-05 -5.16453e-20
0.000192494 -0.000333413 -1.86338e-20
-0.000308597 -5.01605e-06 -1.22612e-19
-0.000148683 -0.00025751 -1.21362e-19
-0.000149131 0.000258285 4.86572e-20
-0.000308484 4.2783e-06 3.32409e-20
0.000145744 0.000273592 1.34013e-21
-0.000308205 -4.82799e-06 6.36296e-20
0.000193127 -0.000334524 -2.87152e-20
0.000646059 -8.50292e-05 -1.66697e-19
-0.000431944 0.000352128 2.74988e-20
-0.000149248 -0.000258512 -1.54762e-19
-0.000148717 0.000257561 1.37268e-19
-0.000308449 5.43289e-06 2.94621e-19
0.000146213 0.000273892 -3.40725e-19
-0.000192645 0.000333691 4.7848e-20
0.000251601 -0.000104205 -7.80689e-21
0.000649127 -8.54506e-05 -1.5113e-19
-0.000148906 0.000257868 -1.20814e-19
-0.00014659 -0.000253903 -4.67395e-20
0.00064129 8.44179e-05 -1.39021e-19
-0.000639959 7.49732e-05 -6.87096e-20
-0.000307007 4.52218e-06 6.4201e-21
0.000144828 0.000271017 -8.21274e-20
-0.000190545 0.000330027 6.89941e-20
0.000246346 -0.000102016 -7.1927e-20
0.000632953 -8.3272e-05 5.87938e-20
0.000198794 0.000198314 9.17501e-20
0.000164451 -0.000188988 2.8324e-19
0.000498766 6.57297e-05 -2.763e-20
0.000116949 0.000105115 3.20049e-20
-0.000170749 -2.79344e-05 4.64464e-20
-0.000437983 0.000353424 1.04348e-19
-6.36462e-05 0.000110224 -3.08156e-20
4.00825e-05 -1.66025e-05 -1.0857e-19
9.76903e-05 -1.28597e-05 -6.4201e-20
3.02806e-05 2.86133e-05 -1.35367e-20
3.02601e-05 -2.85967e-05 3.0943e-20
9.76202e-05 1.28504e-05 6.8338e-20
4.00461e-05 1.65874e-05 -8.76768e-20
-2.63217e-05 -8.02257e-05 -1.65652e-20
0.000142872 -5.92049e-05 6.47529e-21
-0.000155235 0.000268908 5.66467e-20
1.28098e-05 4.62213e-06 -6.92405e-20
0.000497674 -6.55879e-05 1.87527e-19
0.00016412 0.000188684 6.09346e-20
0.000198835 -0.000198454 -1.848e-19
0.000633005 8.32788e-05 2.22828e-19
0.000246227 0.000101966 -3.72437e-19
-0.000144603 -0.000270571 4.95682e-20
0.000190424 -0.000329881 -1.4453e-19
-0.000306849 -5.41783e-06 -4.31971e-21
-0.000438052 0.000360773 5.38168e-20
-0.000298248 7.0703e-06 -4.88313e-20
0.000245426 -0.000101667 -4.38345e-21
0.000140967 0.000234476 -6.33303e-21
0.000536619 7.06443e-05 1.5652e-19
-7.70125e-05 -0.000133374 5.65597e-20
-7.65381e-05 0.000132553 1.05011e-19
0.000536776 -7.06651e-05 5.18832e-20
0.000140964 -0.000234362 -7.82134e-20
-0.000297854 -7.98971e-06 -8.73519e-20
0.000245606 0.000101743 3.57937e-20
-0.000146173 -0.000273922 -1.30523e-19
0.000203478 0.000205051 -4.92923e-20
0.000203408 -0.000204493 -2.83265e-20
-0.000192977 0.000334271 -8.53534e-20
-0.000434937 0.000354305 -3.59445e-21
0.000641456 -8.44383e-05 -8.92782e-20
-0.000146946 0.00025452 8.67806e-20
-0.000148597 -0.000257334 3.83612e-20
0.000648671 8.53907e-05 -3.43665e-20
0.000251597 0.000104203 2.08298e-20
-0.000192611 -0.000333631 -1.09679e-19
0.000146022 -0.000273755 -3.44939e-20
-0.000309099 -4.26383e-06 -8.58695e-20
-0.000149396 -0.000258736 1.0115e-19
-0.000148751 0.000257652 -5.85178e-20
-0.000146964 -0.00027369 1.12389e-19
0.000248357 0.000102878 1.16607e-19
-0.000639843 7.50395e-05 -6.08549e-20
0.000646 8.50227e-05 -1.38383e-20
0.000192494 -0.000333413 -1.65334e-20
-0.000308597 -5.01605e-06 -2.65439e-19
-0.000148683 -0.00025751 -5.20488e-20
-0.000149131 0.000258285 1.92518e-20
-0.000308484 4.2783e-06 7.10479e-20
0.000145744 0.000273592 -9.10769e-20
-0.000308205 -4.82799e-06 -3.08878e-20
0.000193127 -0.000334524 -7.07229e-20
0.000646059 -8.50292e-05 -1.58296e-19
-0.000431944 0.000352128 3.22247e-20
-0.000149248 -0.000258512 -7.73461e-21
-0.000148717 0.000257561 1.24666e-19
-0.000308449 5.43289e-06 2.54714e-19
0.000146213 0.000273892 -3.6383e-19
-0.000192645 0.000333691 1.25562e-19
0.000251601 -0.000104205 -2.25096e-20
0.000649127 -8.54506e-05 -2.39346e-19
-0.000148906 0.000257868 -2.0903e-19
-0.00014659 -0.000253903 3.09749e-20
0.00064129 8.44179e-05 -5.5005e-20
-0.000639959 7.49732e-05 -4.77057e-20
-0.000307007 4.52218e-06 -1.24834e-20
0.000144828 0.000271017 -1.64043e-19
-0.000190545 0.000330027 1.61411e-19
0.000246346 -0.000102016 -1.16035e-19
0.000632953 -8.3272e-05 1.13404e-19
0.000198794 0.000198314 7.07463e-20
0.000164451 -0.000188988 1.82421e-19
0.000498766 6.57297e-05 2.27793e-20
0.000116949 0.000105115 6.80023e-21
-0.000170749 -2.79344e-05 -5.8573e-20
-0.000437983 0.000353424 1.01198e-19
-6.36462e-05 0.000110224 -6.86225e-20
4.00825e-05 -1.66025e-05 1.18272e-19
9.76903e-05 -1.28597e-05 1.24834e-19
3.02806e-05 2.86133e-05 -1.10155e-19
3.02601e-05 -2.85967e-05 -2.36671e-20
9.76202e-05 1.28504e-05 -8.28899e-20
4.00461e-05 1.65874e-05 1.73426e-20
-2.63217e-05 -8.02257e-05 4.43864e-21
0.000142872 -5.92049e-05 2.74792e-20
-0.000155235 0.000268908 -1.05657e-20
1.28098e-05 4.62213e-06 -6.29394e-20
0.000497674 -6.55879e-05 1.03511e-19
0.00016412 0.000188684 2.12372e-21
0.000198835 -0.000198454 -1.59595e-19
0.000633005 8.32788e-05 2.81639e-19
0.000246227 0.000101966 -3.43032e-19
-0.000144603 -0.000270571 7.89737e-20
0.000190424 -0.000329881 1.72003e-20
-0.000306849 -5.41783e-06 1.0383e-20
-0.000438052 0.000360773 4.01643e-20
-5.69665e-05 -0.000360073 -1.9031e-20
0.000140967 0.000234476 -3.04525e-20
2.00331e-05 2.81793e-05 5.63133e-20
-8.17493e-05 9.08048e-07 1.50544e-19
-0.000298248 7.0703e-06 5.07809e-20
0.000262689 -7.3945e-05 -2.23036e-20
0.000117719 -0.00028421 6.37082e-20
4.67858e-05 8.62804e-05 -4.70325e-20
4.38778e-05 8.36914e-07 4.02665e-21
4.38778e-05 8.36914e-07 1.1825e-20
5.08144e-05 -8.15487e-05 5.76534e-20
0.000117802 0.000284409 -6.21239e-20
0.000262679 7.40128e-05 -1.4766e-19
-0.000297854 -7.98971e-06 -4.25706e-20
-8.06865e-05 -2.64787e-06 -1.11433e-20
2.21848e-05 -2.93631e-05 -1.36595e-19
0.000140964 -0.000234362 4.72067e-20
6.38367e-05 0.000360067 -6.07923e-20
-0.000146173 -0.000273922 -4.60259e-20
-9.6186e-06 -2.69412e-05 -2.28749e-20
8.63831e-05 3.23467e-06 4.58113e-20
0.000216254 5.98612e-05 1.58664e-20
-0.000309109 -2.66749e-09 -4.0003e-20
0.0001377 -0.0002653 -4.71196e-20
3.94787e-05 -7.50836e-05 -7.04299e-20
3.91737e-05 7.24175e-05 1.07165e-20
0.000137236 0.000266352 4.55905e-20
-0.000309193 2.23582e-09 7.46392e-20
0.000216054 -5.97531e-05 1.41144e-19
8.51189e-05 -9.53649e-07 9.0204e-20
2.06868e-05 3.56704e-05 -4.0708e-20
-0.000103477 8.40097e-05 7.87062e-21
0.000352353 -0.000428552 3.31305e-21
0.000448169 -0.000345001 2.05472e-21
-0.000354338 0.000438571 -4.68817e-21
0.000297972 9.68681e-05 -3.46043e-20
0.000149579 0.000361057 8.81355e-21
-1.74119e-05 0.000159333 3.60611e-21
-3.97729e-05 2.42457e-06 -8.17239e-20
-3.97729e-05 2.42457e-06 -3.85906e-20
-1.23321e-05 -0.000151859 -2.52599e-20
0.000150622 -0.000363574 -9.1234e-20
0.000302466 -9.73368e-05 1.09505e-19
0.000218327 6.55188e-05 -7.01835e-20
8.2284e-05 3.22545e-06 -5.15224e-21
1.69732e-05 -3.61836e-05 1.50584e-19
-0.00010426 -8.47383e-05 -1.17454e-19
6.12015e-05 -0.000367798 -3.26866e-20
0.000146022 -0.000273755 -1.17825e-19
1.38908e-05 -2.49771e-05 1.35525e-19
-8.63549e-05 1.56818e-06 3.16115e-19
-0.000309099 -4.26383e-06 3.58527e-19
-0.000310761 -4.60557e-09 1.59929e-19
-2.14353e-05 -0.000159275 1.28455e-19
-4.13551e-05 -2.99065e-06 9.53881e-20
-4.13551e-05 -2.99065e-06 1.84649e-19
-1.63734e-05 0.000151837 6.40012e-20
-0.000310604 1.43303e-08 9.67795e-21
0.000217513 6.19828e-05 8.81992e-20
8.58269e-05 4.49945e-06 -7.24409e-21
-1.07146e-05 -2.66599e-05 -1.27036e-19
-0.000146964 -0.00027369 -3.08793e-20
6.28676e-05 0.000368708 -1.00421e-19
0.000336899 -0.000419702 -4.97155e-19
0.000431739 0.00034972 8.2326e-20
0.000349375 0.000429827 -1.36646e-19
0.000150418 -0.000363108 1.09615e-19
0.000300464 -9.736e-05 -8.14161e-20
-6.16342e-05 -0.000367612 -1.59791e-20
0.000103851 -8.46433e-05 -2.22836e-19
-1.89308e-05 -3.71224e-05 -1.26648e-19
-8.66559e-05 9.24344e-07 -9.33429e-20
-0.000308597 -5.01605e-06 -2.67087e-19
-0.000310608 -8.20752e-09 -6.31328e-19
-1.63965e-05 -0.000151698 -1.16653e-19
-4.11845e-05 3.04279e-06 -3.34155e-19
-4.11845e-05 3.04279e-06 -4.77202e-19
-2.13974e-05 0.000159087 -3.80386e-19
-0.00031015 8.34219e-09 -3.63322e-19
-0.000308484 4.2783e-06 -3.41923e-20
-8.62223e-05 -1.69881e-06 1.36642e-20
1.3908e-05 2.49651e-05 -3.81e-20
0.000145744 0.000273592 9.66087e-21
6.08384e-05 0.000367854 -1.01373e-19
0.000106488 -8.26648e-05 -2.69716e-20
-2.14157e-05 -3.56016e-05 1.98783e-20
-8.66988e-05 1.39085e-07 3.24487e-20
-0.000308205 -4.82799e-06 2.12099e-20
0.00030026 9.74913e-05 -1.27259e-19
0.000150561 0.00036345 -9.37401e-20
-5.56506e-05 -0.000628169 -6.83528e-20
0.000424967 0.000336874 3.85911e-20
-0.000352023 0.00043734 -5.79698e-20
-6.06204e-05 -0.000368682 -3.26547e-20
-0.000310083 -1.40135e-08 1.14767e-19
-2.14297e-05 -0.000159263 -2.80005e-19
-4.13485e-05 -3.02173e-06 -6.3328e-20
-4.13485e-05 -3.02173e-06 2.27475e-20
-1.63687e-05 0.000151767 -3.05225e-20
-0.000310629 4.67134e-09 -4.49469e-20
-0.000308449 5.43289e-06 -1.68377e-19
-8.7571e-05 -1.02315e-06 -2.54977e-20
1.62107e-05 2.63546e-05 -1.36024e-19
0.000146213 0.000273892 -2.43475e-19
6.1369e-05 0.000367884 2.08989e-19
-0.000104081 8.45945e-05 1.67466e-19
1.6872e-05 3.6167e-05 1.18191e-19
8.21978e-05 -3.13653e-06 -2.5129e-19
0.000218299 -6.54858e-05 -7.41464e-20
0.000302528 9.74854e-05 -1.55174e-19
0.000150811 0.000364032 -3.94669e-19
-1.11515e-05 -0.000152244 -1.21132e-19
-3.94894e-05 1.00828e-06 3.15843e-20
-3.94894e-05 1.00828e-06 1.11811e-19
-1.8597e-05 0.000159123 4.33627e-20
0.000149429 -0.000360699 1.02212e-19
0.000298095 -9.67379e-05 2.16537e-20
0.000337067 -0.000420314 -1.1764e-20
0.000431633 0.00034949 -1.878e-19
0.000349142 0.00042956 1.81293e-19
-0.000301061 -4.89955e-09 5.72329e-20
-0.000308778 -1.59845e-08 1.64803e-19
-0.000307007 4.52218e-06 2.29834e-19
-8.55728e-05 -1.58262e-06 1.87843e-19
1.40839e-05 2.49707e-05 -1.33662e-19
0.000144828 0.000271017 -3.87909e-19
6.09018e-05 0.000363883 -1.2958e-19
-0.00010259 8.35888e-05 2.44902e-19
1.76085e-05 3.5278e-05 1.72784e-19
8.15267e-05 -3.83847e-06 3.01239e-19
0.000213707 -6.46317e-05 1.08687e-19
0.000295566 9.47728e-05 -2.49201e-20
0.000146716 0.0003542 6.86225e-20
0.000133645 0.000258604 3.72104e-19
3.78481e-05 6.45893e-05 2.38403e-19
3.50343e-05 -7.60349e-05 2.68845e-20
0.000109418 -0.000239932 1.83674e-19
0.00012601 -0.000304109 3.35425e-20
0.00021408 -8.45863e-05 6.14103e-20
-0.000170749 -2.79344e-05 1.07126e-19
-1.65415e-05 -5.22667e-05 1.64803e-19
4.66938e-05 -4.50268e-05 1.42888e-19
0.000116949 0.000105115 1.52319e-19
7.30932e-05 -0.000299588 2.03455e-20
0.000355067 -0.000440994 7.29358e-20
0.000442137 -0.000349966 4.51556e-20
-0.00035408 0.000433999 2.18842e-19
-0.00015985 2.37093e-09 -3.91534e-20
5.91836e-05 0.000126769 -3.44939e-20
-1.07614e-05 1.19709e-05 -1.69772e-20
9.07206e-06 3.36269e-07 1.04786e-20
1.64662e-05 -4.67313e-06 -1.2003e-19
3.42074e-05 -1.19966e-05 -1.7453e-20
4.66707e-05 1.40687e-05 2.25119e-21
2.20529e-05 5.3241e-05 5.80335e-20
2.04347e-05 3.77245e-05 1.16415e-19
4.82831e-06 8.90162e-06 2.93353e-19
4.84251e-06 -8.94721e-06 5.20382e-19
2.04074e-05 -3.77142e-05 4.79912e-19
2.20385e-05 -5.32062e-05 3.3258e-20
4.66347e-05 -1.40599e-05 -6.60902e-21
3.41823e-05 1.1977e-05 1.26023e-20
1.64894e-05 4.7631e-06 -9.54752e-20
6.98441e-06 9.558e-07 -8.28728e-20
-2.63217e-05 -8.02257e-05 -1.79924e-20
5.83489e-06 -0.000126047 -6.81468e-20
-3.70616e-05 0.000103586 8.63048e-20
4.96686e-05 7.90579e-05 -8.5243e-20
8.54236e-05 5.75256e-05 -6.67281e-20
0.000163984 2.01647e-05 1.39314e-19
-0.000159867 -2.29092e-09 -9.30032e-20
1.8235e-05 2.13365e-07 -5.37372e-20
1.30289e-05 4.45922e-06 -1.07506e-19
1.8257e-05 1.31759e-07 -8.86983e-20
7.31842e-05 0.000299653 4.02875e-20
0.000213545 8.44352e-05 2.23036e-20
0.00012577 0.000303531 -3.02932e-20
0.000109115 0.000239602 -2.159e-19
3.52644e-05 7.62679e-05 -1.05977e-19
3.75045e-05 -6.43132e-05 -1.3403e-20
0.000133776 -0.000258661 6.95655e-20
0.000146765 -0.000354317 3.22916e-19
0.000295524 -9.48153e-05 -5.53703e-20
0.000213667 6.44825e-05 -1.18159e-19
8.1713e-05 4.39569e-06 1.28597e-19
-1.0345e-05 -2.48944e-05 2.61308e-19
-0.000144603 -0.000270571 1.35453e-19
-6.04861e-05 -0.000363644 8.4918e-20
0.000103145 -8.3993e-05 -8.23992e-22
-1.85587e-05 -3.69628e-05 2.51551e-19
-8.57904e-05 7.75515e-07 3.40163e-19
-0.000306849 -5.41783e-06 2.62228e-19
-0.000309032 1.61678e-08 3.03888e-20
-0.000301005 4.39019e-09 2.10995e-20
0.000345689 -0.000423363 -3.26983e-20
0.000440551 -0.000338641 1.95172e-21
-0.000360127 0.000450132 2.23026e-19
-5.69665e-05 -0.000360073 1.11193e-19
0.000140967 0.000234476 1.4808e-19
2.00331e-05 2.81793e-05 7.1016e-20
-8.17493e-05 9.08048e-07 1.8415e-19
-0.000298248 7.0703e-06 8.01863e-20
0.000262689 -7.3945e-05 2.90105e-21
0.000117719 -0.00028421 7.21097e-20
4.67858e-05 8.62804e-05 3.37678e-21
4.38778e-05 8.36914e-07 -3.79811e-20
4.38778e-05 8.36914e-07 7.06359e-20
5.08144e-05 -8.15487e-05 -2.0061e-20
0.000117802 0.000284409 5.96986e-20
0.000262679 7.40128e-05 -3.4239e-20
-0.000297854 -7.98971e-06 4.98465e-20
-8.06865e-05 -2.64787e-06 -8.46568e-20
2.21848e-05 -2.93631e-05 -5.25797e-20
0.000140964 -0.000234362 3.04036e-20
6.38367e-05 0.000360067 5.4729e-20
-0.000146173 -0.000273922 -6.1185e-21
-9.6186e-06 -2.69412e-05 9.68472e-20
8.63831e-05 3.23467e-06 8.15179e-20
0.000216254 5.98612e-05 1.81797e-19
-0.000309109 -2.66749e-09 1.09125e-19
0.0001377 -0.0002653 -1.35134e-20
3.94787e-05 -7.50836e-05 -1.11706e-21
3.91737e-05 7.24175e-05 -8.59014e-20
0.000137236 0.000266352 -7.83323e-20
-0.000309193 2.23582e-09 -8.91911e-20
0.000216054 -5.97531e-05 1.1594e-19
8.51189e-05 -9.53649e-07 1.51115e-19
2.06868e-05 3.56704e-05 6.01106e-20
-0.000103477 8.40097e-05 -2.36352e-20
0.000352353 -0.000428552 -8.87728e-22
0.000448169 -0.000345001 1.09814e-20
-0.000354338 0.000438571 -2.58778e-21
0.000297972 9.68681e-05 -4.30059e-20
0.000149579 0.000361057 1.30143e-20
-1.74119e-05 0.000159333 2.67104e-20
-3.97729e-05 2.42457e-06 -5.65193e-20
-3.97729e-05 2.42457e-06 -1.14205e-19
-1.23321e-05 -0.000151859 -1.47579e-20
0.000150622 -0.000363574 -2.04655e-19
0.000302466 -9.73368e-05 4.4853e-21
0.000218327 6.55188e-05 -9.95889e-20
8.2284e-05 3.22545e-06 5.36586e-20
1.69732e-05 -3.61836e-05 7.49704e-20
-0.00010426 -8.47383e-05 -8.38476e-20
6.12015e-05 -0.000367798 7.22076e-21
0.000146022 -0.000273755 -2.14443e-19
1.38908e-05 -2.49771e-05 1.0822e-19
-8.63549e-05 1.56818e-06 3.58123e-19
-0.000309099 -4.26383e-06 4.23639e-19
-0.000310761 -4.60557e-09 1.03218e-19
-2.14353e-05 -0.000159275 1.11652e-19
-4.13551e-05 -2.99065e-06 7.43842e-20
-4.13551e-05 -2.99065e-06 1.8885e-19
-1.63734e-05 0.000151837 9.97078e-20
-0.000310604 1.43303e-08 -5.33337e-20
0.000217513 6.19828e-05 8.39984e-20
8.58269e-05 4.49945e-06 -3.03484e-20
-1.07146e-05 -2.66599e-05 -9.97312e-20
-0.000146964 -0.00027369 -2.24777e-20
6.28676e-05 0.000368708 -2.69078e-20
0.000336899 -0.000419702 -4.82977e-19
0.000431739 0.00034972 1.00179e-19
0.000349375 0.000429827 -1.35596e-19
0.000150418 -0.000363108 8.44104e-20
0.000300464 -9.736e-05 1.20221e-19
-6.16342e-05 -0.000367612 5.96349e-20
0.000103851 -8.46433e-05 -1.95531e-19
-1.89308e-05 -3.71224e-05 -1.4135e-19
-8.66559e-05 9.24344e-07 -1.16447e-19
-0.000308597 -5.01605e-06 -2.08276e-19
-0.000310608 -8.20752e-09 -5.70417e-19
-1.63965e-05 -0.000151698 -1.04051e-19
-4.11845e-05 3.04279e-06 -4.05568e-19
-4.11845e-05 3.04279e-06 -4.22592e-19
-2.13974e-05 0.000159087 -4.22394e-19
-0.00031015 8.34219e-09 -3.88527e-19
-0.000308484 4.2783e-06 -2.159e-20
-8.62223e-05 -1.69881e-06 1.7865e-20
1.3908e-05 2.49651e-05 1.02089e-20
0.000145744 0.000273592 1.18881e-19
6.08384e-05 0.000367854 2.255e-20
0.000106488 -8.26648e-05 -5.42766e-20
-2.14157e-05 -3.56016e-05 -5.32637e-21
-8.66988e-05 1.39085e-07 5.1437e-21
-0.000308205 -4.82799e-06 -1.02959e-20
0.00030026 9.74913e-05 6.17757e-20
0.000150561 0.00036345 1.12793e-20
-5.56506e-05 -0.000628169 -6.62524e-20
0.000424967 0.000336874 3.38653e-20
-0.000352023 0.00043734 -7.05721e-20
-6.06204e-05 -0.000368682 -1.58516e-20
-0.000310083 -1.40135e-08 3.07518e-20
-2.14297e-05 -0.000159263 -2.86307e-19
-4.13485e-05 -3.02173e-06 -2.76214e-20
-4.13485e-05 -3.02173e-06 -4.55758e-21
-1.63687e-05 0.000151767 -4.10244e-20
-0.000310629 4.67134e-09 -1.47866e-19
-0.000308449 5.43289e-06 -2.20887e-19
-8.7571e-05 -1.02315e-06 -2.39345e-21
1.62107e-05 2.63546e-05 -1.46526e-19
0.000146213 0.000273892 -2.79181e-19
6.1369e-05 0.000367884 2.29993e-19
-0.000104081 8.45945e-05 1.61165e-19
1.6872e-05 3.6167e-05 1.09789e-19
8.21978e-05 -3.13653e-06 -2.15584e-19
0.000218299 -6.54858e-05 -1.07753e-19
0.000302528 9.74854e-05 -2.91505e-20
0.000150811 0.000364032 -4.72383e-19
-1.11515e-05 -0.000152244 2.16941e-20
-3.94894e-05 1.00828e-06 7.14917e-20
-3.94894e-05 1.00828e-06 1.30929e-20
-1.8597e-05 0.000159123 1.60576e-20
0.000149429 -0.000360699 1.69424e-19
0.000298095 -9.67379e-05 -1.19525e-20
0.000337067 -0.000420314 -1.49145e-20
0.000431633 0.00034949 -1.85699e-19
0.000349142 0.00042956 1.81293e-19
-0.000301061 -4.89955e-09 4.46305e-20
-0.000308778 -1.59845e-08 1.71104e-19
-0.000307007 4.52218e-06 3.24351e-19
-8.55728e-05 -1.58262e-06 1.94144e-19
1.40839e-05 2.49707e-05 -9.79557e-20
0.000144828 0.000271017 -3.31198e-19
6.09018e-05 0.000363883 -9.59742e-20
-0.00010259 8.35888e-05 2.04995e-19
1.76085e-05 3.5278e-05 2.27394e-19
8.15267e-05 -3.83847e-06 3.39046e-19
0.000213707 -6.46317e-05 1.96903e-19
0.000295566 9.47728e-05 1.3891e-19
0.000146716 0.0003542 3.08156e-20
0.000133645 0.000258604 4.24614e-19
3.78481e-05 6.45893e-05 1.14481e-19
3.50343e-05 -7.60349e-05 3.73865e-20
0.000109418 -0.000239932 1.75273e-19
0.00012601 -0.000304109 1.25386e-20
0.00021408 -8.45863e-05 -2.26052e-20
-0.000170749 -2.79344e-05 1.2813e-19
-1.65415e-05 -5.22667e-05 1.71104e-19
4.66938e-05 -4.50268e-05 1.32386e-19
0.000116949 0.000105115 1.77524e-19
7.30932e-05 -0.000299588 5.60521e-20
0.000355067 -0.000440994 8.50131e-20
0.000442137 -0.000349966 5.67078e-20
-0.00035408 0.000433999 2.1044e-19
-0.00015985 2.37093e-09 -1.06366e-19
5.91836e-05 0.000126769 3.69193e-20
-1.07614e-05 1.19709e-05 -1.69772e-20
9.07206e-06 3.36269e-07 -7.35369e-20
1.64662e-05 -4.67313e-06 -5.70183e-20
3.42074e-05 -1.19966e-05 7.75169e-21
4.66707e-05 1.40687e-05 -3.1355e-20
2.20529e-05 5.3241e-05 2.44273e-20
2.04347e-05 3.77245e-05 1.16415e-19
4.82831e-06 8.90162e-06 2.13538e-19
4.84251e-06 -8.94721e-06 4.90976e-19
2.04074e-05 -3.77142e-05 5.38722e-19
2.20385e-05 -5.32062e-05 -1.01167e-19
4.66347e-05 -1.40599e-05 -1.70439e-19
3.41823e-05 1.1977e-05 -1.26023e-20
1.64894e-05 4.7631e-06 -9.12744e-20
6.98441e-06 9.558e-07 -1.03877e-19
-2.63217e-05 -8.02257e-05 7.86254e-20
5.83489e-06 -0.000126047 -5.55445e-20
-3.70616e-05 0.000103586 9.68068e-20
4.96686e-05 7.90579e-05 -6.63395e-20
8.54236e-05 5.75256e-05 -4.36239e-20
0.000163984 2.01647e-05 8.26031e-20
-0.000159867 -2.29092e-09 3.72209e-20
1.8235e-05 2.13365e-07 -9.78453e-20
1.30289e-05 4.45922e-06 -1.72618e-19
1.8257e-05 1.31759e-07 -1.22304e-19
7.31842e-05 0.000299653 4.5809e-21
0.000213545 8.44352e-05 -2.90105e-21
0.00012577 0.000303531 3.27185e-20
0.000109115 0.000239602 -3.41923e-19
3.52644e-05 7.62679e-05 -8.07725e-20
3.75045e-05 -6.43132e-05 3.28055e-20
0.000133776 -0.000258661 6.74651e-20
0.000146765 -0.000354317 3.90128e-19
0.000295524 -9.48153e-05 -3.43665e-20
0.000213667 6.44825e-05 -1.32862e-19
8.1713e-05 4.39569e-06 1.68504e-19
-1.0345e-05 -2.48944e-05 3.15918e-19
-0.000144603 -0.000270571 2.40472e-19
-6.04861e-05 -0.000363644 6.18138e-20
0.000103145 -8.3993e-05 -4.28318e-20
-1.85587e-05 -3.69628e-05 2.66254e-19
-8.57904e-05 7.75515e-07 3.71669e-19
-0.000306849 -5.41783e-06 2.89533e-19
-0.000309032 1.61678e-08 -1.01936e-19
-0.000301005 4.39019e-09 -9.02211e-20
0.000345689 -0.000423363 -2.42967e-20
0.000440551 -0.000338641 5.6274e-21
-0.000360127 0.000450132 2.17775e-19
-9.63116e-05 0.000145026 2.26285e-20
-0.000107997 -7.23939e-05 1.28635e-20
0.000103165 -9.83318e-05 -6.4201e-21
0.00010242 9.92764e-05 3.82065e-21
0.000127972 2.55923e-05 4.82685e-20
0.000127801 -2.57464e-05 4.04616e-20
3.19761e-05 -0.000141003 3.95739e-20
0.000163849 -2.98511e-05 -2.23907e-20
-0.000174653 -2.55725e-05 5.0885e-21
-2.18886e-05 0.000139572 -6.03143e-21
0.000206696 -5.92306e-05 -6.56111e-20
0.00020662 5.93037e-05 8.98005e-20
-0.00011393 -6.86157e-05 -1.99972e-20
-0.00011502 5.86279e-05 4.00496e-20
6.52661e-06 0.000129836 2.19149e-20
2.4217e-06 -0.000129793 5.57419e-20
-1.1396e-05 -0.00013019 7.36302e-21
1.92799e-05 0.000125647 -5.17324e-20
0.000138594 -1.61135e-05 -4.31248e-20
0.000108143 4.71744e-05 -3.30434e-20
-2.24965e-05 7.14149e-05 9.93914e-21
2.99037e-05 -6.96658e-05 -1.49002e-20
-0.00019589 0.000135723 4.46943e-20
-0.000172547 -9.70152e-05 4.17062e-20
0.000330826 -0.000155042 3.53285e-21
0.000186923 0.000255374 -2.73719e-20
0.000206696 -5.92306e-05 1.6332e-19
0.00020662 5.93037e-05 -1.15353e-19
0.000114906 -5.04919e-05 5.28261e-20
0.000114623 4.98657e-05 -2.59735e-20
-8.93e-05 4.29548e-05 -9.9264e-20
-9.06326e-05 -4.29065e-05 -1.72703e-20
0.00013853 4.88628e-05 4.45753e-20
0.000138088 -5.01686e-05 4.215e-20
3.99162e-05 0.000211363 1.16534e-19
-3.28222e-05 -0.000210005 1.15226e-19
-8.60206e-05 2.03625e-05 2.10039e-21
-8.78108e-05 -2.1724e-05 -2.60799e-21
6.94799e-07 -0.000301963 -2.28345e-20
3.55059e-05 0.000306263 3.05979e-20
0.000322389 2.66526e-06 1.28359e-20
-0.000299335 -4.03757e-05 2.12651e-20
0.000150386 -9.10569e-05 -6.23743e-21
0.000150056 9.12078e-05 -8.6496e-20
-0.000112375 6.65316e-05 -7.96639e-20
-0.000148542 -1.98669e-05 4.1738e-20
-0.00014924 1.94252e-05 2.18831e-20
-0.000116964 -7.11124e-05 1.39021e-20
0.000108772 -0.000149401 -5.83585e-20
0.000109437 0.000151795 -3.79174e-20
0.000167578 -7.40788e-05 -5.77024e-21
-9.63116e-05 0.000145026 5.3682e-20
-2.45283e-05 -0.000134555 -5.06705e-20
0.000170743 7.28936e-05 5.00144e-21
-9.81699e-05 8.06093e-05 -6.99541e-20
0.000107184 -8.04675e-05 1.40027e-19
3.09343e-05 -0.000275046 1.09725e-19
-2.24053e-05 0.000274937 1.1258e-19
0.000165886 -0.000140049 -9.67282e-20
0.000165946 0.000140315 -3.57299e-20
7.31074e-05 2.51188e-05 -3.5611e-20
-1.9061e-05 0.000159802 -2.28345e-20
-1.27502e-05 -0.000152548 2.00291e-20
3.33706e-05 8.92684e-05 3.69745e-20
-2.35412e-05 -9.12135e-05 1.45139e-19
-4.62806e-06 0.000123644 -8.95945e-20
1.34995e-05 -0.000120927 7.11668e-20
-0.000172547 -9.70152e-05 2.71542e-20
-1.1396e-05 -0.00013019 3.98436e-20
1.92799e-05 0.000125647 -2.45781e-20
-7.9169e-05 -5.3936e-05 -2.8129e-20
-0.00019589 0.000135723 1.22137e-20
2.29335e-05 3.20383e-05 -1.76186e-20
-1.27502e-05 -0.000152548 -9.9763e-20
-8.93e-05 4.29548e-05 -3.04036e-20
0.00020796 -5.88367e-05 -3.35425e-20
0.000207971 5.88828e-05 1.48768e-20
0.000170743 7.28936e-05 3.60549e-20
0.000121012 7.30998e-05 5.61943e-21
0.000121671 -7.31304e-05 -1.06754e-19
0.000262689 -7.3945e-05 1.21266e-20
0.000206696 -5.92306e-05 1.92284e-20
0.000262679 7.40128e-05 -1.77375e-20
0.00020662 5.93037e-05 -8.09233e-20
-2.24965e-05 7.14149e-05 1.06476e-19
0.000114906 -5.04919e-05 -9.99434e-21
0.000114623 4.98657e-05 1.27013e-19
-0.000140297 -0.00026651 1.45203e-19
0.000148828 0.000269358 1.89413e-19
-4.30717e-06 -2.28817e-05 1.51466e-20
0.000167578 -7.40788e-05 -3.22109e-20
0.000138594 -1.61135e-05 7.2845e-21
-9.27388e-05 2.70599e-05 -6.46676e-21
-7.9169e-05 -5.3936e-05 6.66496e-20
-0.000306871 -5.78084e-06 6.87415e-20
-0.00030718 4.94107e-06 -1.53207e-19
-2.13126e-05 7.88614e-05 -2.70034e-20
-0.000116964 -7.11124e-05 4.69051e-20
7.80755e-05 6.39928e-05 1.96171e-20
6.94799e-07 -0.000301963 1.65652e-21
3.55059e-05 0.000306263 -2.20222e-20
0.000322389 2.66526e-06 8.57995e-21
-0.000299335 -4.03757e-05 -5.62797e-22
7.77922e-05 -6.46631e-05 3.15058e-20
-0.000108111 6.45213e-05 -2.68845e-20
7.25402e-05 -6.0172e-05 4.70877e-20
7.1565e-05 5.89084e-05 6.05778e-20
-0.000434937 0.000354305 1.03947e-20
-1.1396e-05 -0.00013019 -2.77808e-20
-1.88709e-05 -0.000281464 3.90748e-20
0.00030188 2.19238e-05 -1.15797e-20
-2.24965e-05 7.14149e-05 9.60146e-20
-4.62806e-06 0.000123644 -8.5586e-22
-9.27388e-05 2.70599e-05 -2.97218e-20
1.92799e-05 0.000125647 -1.1189e-19
-0.000172547 -9.70152e-05 -3.31942e-20
0.000150386 -9.10569e-05 3.40415e-20
0.000150056 9.12078e-05 -7.58433e-20
9.81238e-05 -4.12079e-05 -7.78799e-20
9.88713e-05 4.14561e-05 4.81496e-20
1.34995e-05 -0.000120927 -8.86875e-21
-0.000116964 -7.11124e-05 2.8454e-20
-4.30717e-06 -2.28817e-05 7.06911e-20
-8.78108e-05 -2.1724e-05 4.70877e-20
-8.60206e-05 2.03625e-05 1.50801e-22
-8.93e-05 4.29548e-05 -1.12389e-20
0.000448169 -0.000345001 1.26597e-20
6.94799e-07 -0.000301963 -5.61943e-21
1.17777e-05 0.000277968 -1.65058e-20
0.000322389 2.66526e-06 5.32105e-20
0.000108772 -0.000149401 1.51147e-20
0.000109437 0.000151795 -9.29395e-20
0.000114623 4.98657e-05 -5.50773e-20
-0.00019589 0.000135723 -3.88667e-22
0.000114906 -5.04919e-05 -3.46766e-20
0.000127801 -2.57464e-05 -5.5553e-20
0.000127972 2.55923e-05 4.24198e-20
0.000167578 -7.40788e-05 1.74848e-20
0.000170743 7.28936e-05 -7.57477e-20
-0.000354338 0.000438571 5.88459e-20
-0.000434937 0.000354305 -2.96231e-20
-8.78108e-05 -2.1724e-05 -1.69687e-20
-8.60206e-05 2.03625e-05 -3.83698e-20
-3.28222e-05 -0.000210005 2.34929e-20
3.99162e-05 0.000211363 6.02762e-20
-9.58638e-05 0.00015483 3.9249e-20
-0.000104796 -9.94655e-05 2.65953e-19
9.27255e-05 -0.000103445 2.04084e-19
9.37564e-05 0.000104283 -1.50595e-20
0.000127316 -4.22749e-05 -9.98122e-22
0.00012762 4.46229e-05 1.48681e-19
-2.61569e-05 -0.000140739 1.06412e-19
0.000140277 -3.41183e-05 5.32933e-20
-0.000197107 -4.45257e-05 9.34067e-20
-2.37923e-05 0.000142052 3.25591e-20
0.000233756 -8.87611e-05 2.09168e-20
0.000231146 9.02855e-05 1.56108e-19
-0.000116289 -5.84241e-05 2.31348e-19
-0.00011517 6.73674e-05 -1.76356e-20
3.1248e-06 0.000132585 3.70171e-21
1.24473e-06 -0.000132868 5.01948e-20
1.2858e-05 -0.00012784 2.95625e-21
1.43556e-05 0.000129184 -4.69136e-20
0.000114774 -2.02483e-05 9.58872e-20
7.34866e-05 6.68245e-05 4.86572e-20
-2.47553e-05 -7.31583e-05 7.25217e-20
-2.33994e-05 7.44463e-05 8.89999e-20
-0.000157593 0.00025767 3.15284e-19
-0.000176863 -9.56457e-05 1.54887e-19
0.000314098 -0.000149231 3.09196e-19
0.000308505 0.000167541 9.53127e-20
0.000233756 -8.87611e-05 1.33955e-19
0.000231146 9.02855e-05 1.1388e-19
0.000105722 -5.71923e-05 -3.57851e-20
0.000106422 5.85165e-05 7.87273e-20
-9.10251e-05 -4.26516e-05 1.40558e-19
-9.28256e-05 4.31583e-05 1.38385e-19
0.000124314 5.8116e-05 9.70128e-20
0.00012273 -5.89386e-05 1.15107e-19
3.83267e-05 0.000216162 1.07372e-19
3.68068e-05 -0.000216142 -8.78106e-20
-8.77257e-05 -2.03936e-05 3.86435e-19
-9.36019e-05 2.28306e-05 8.37924e-20
-3.98373e-06 -0.000295842 3.61991e-19
-2.9613e-05 0.000301819 1.52541e-19
0.000298198 -2.17494e-05 9.81702e-20
-0.000262973 2.40542e-06 2.69797e-19
0.000147918 -0.000139825 5.47717e-21
0.000146507 0.000140236 7.66758e-20
-0.000138094 -8.31177e-05 8.63686e-20
-0.000150395 -1.94879e-05 2.47644e-19
-0.000149562 2.48378e-05 -4.52571e-21
-0.000115923 6.79524e-05 1.85592e-19
9.91339e-05 -0.000152598 2.71818e-19
-9.37348e-05 0.000153242 2.38775e-19
0.000148141 -7.95798e-05 1.98757e-19
-2.79e-05 -0.000136156 3.82701e-19
9.19319e-05 0.000143238 -2.08935e-20
0.000151758 7.96825e-05 1.18342e-19
-0.000103477 8.40097e-05 4.30144e-20
-0.00010426 -8.47383e-05 -2.962e-20
-2.70821e-05 -0.000281312 -2.62022e-19
-2.58823e-05 0.000281663 2.87556e-20
0.00020394 -0.000203987 -3.10705e-21
0.000202156 0.000203667 3.37166e-20
1.36852e-05 -4.01088e-05 -1.0795e-20
-2.14353e-05 -0.000159275 1.75487e-19
-1.63734e-05 0.000151837 1.2435e-19
3.1301e-05 -9.10723e-05 -5.98556e-20
3.17138e-05 9.11954e-05 7.77502e-21
-0.000176863 -9.56457e-05 3.73357e-19
-7.16115e-06 0.000125367 3.21471e-20
-8.1472e-06 -0.000124121 4.318e-20
1.2858e-05 -0.00012784 2.07397e-19
1.43556e-05 0.000129184 -2.24225e-20
2.06868e-05 3.56704e-05 9.57768e-20
1.69732e-05 -3.61836e-05 5.19065e-20
-1.63734e-05 0.000151837 1.49363e-19
-9.10251e-05 -4.26516e-05 1.17825e-19
0.000230978 -8.96263e-05 6.02847e-20
0.000228369 9.11502e-05 1.53248e-19
0.000151758 7.96825e-05 9.11873e-20
9.9365e-05 0.000110844 1.08394e-19
0.000100256 -0.000110068 5.33252e-20
0.000302466 -9.73368e-05 4.06443e-20
0.000233756 -8.87611e-05 2.67656e-20
0.000297972 9.68681e-05 1.41446e-19
0.000231146 9.02855e-05 7.94494e-20
-0.000191509 0.000143325 2.09259e-19
-2.47553e-05 -7.31583e-05 2.96127e-19
-2.33994e-05 7.44463e-05 9.23767e-20
0.000105722 -5.71923e-05 -3.49572e-21
0.000106422 5.85165e-05 1.24524e-19
0.000146022 -0.000273755 3.99136e-20
0.000149073 0.000274839 3.58807e-20
0.000148141 -7.95798e-05 1.88818e-19
0.000114774 -2.02483e-05 7.28233e-20
-9.40237e-05 -2.78294e-05 2.71406e-19
-0.000309099 -4.26383e-06 3.71843e-19
-0.000308302 5.74855e-06 -1.40138e-19
-2.36218e-05 -8.02882e-05 2.6738e-19
-2.11154e-05 8.61221e-05 1.60547e-19
-0.000115923 6.79524e-05 8.78191e-20
7.16427e-05 7.18935e-05 8.86875e-21
7.02233e-05 -7.09082e-05 1.38504e-19
-3.98373e-06 -0.000295842 4.28188e-19
-2.9613e-05 0.000301819 1.10169e-20
-0.000262973 2.40542e-06 2.22242e-19
0.000298198 -2.17494e-05 6.64032e-20
-0.000109494 -6.43168e-05 2.57441e-19
2.52159e-05 -9.25744e-05 3.77751e-20
2.44968e-05 9.12843e-05 2.52513e-20
0.000431739 0.00034972 1.39916e-19
1.43556e-05 0.000129184 1.7334e-20
-2.14117e-05 -0.000277678 1.52617e-19
-0.000262973 2.40542e-06 2.28664e-20
-2.33994e-05 7.44463e-05 5.58057e-20
-2.47553e-05 -7.31583e-05 1.77762e-19
-8.1472e-06 -0.000124121 1.27828e-19
-9.40237e-05 -2.78294e-05 2.01832e-19
1.2858e-05 -0.00012784 1.43863e-19
0.000147918 -0.000139825 -1.05089e-19
0.000146507 0.000140236 6.79727e-20
9.67724e-05 -3.73216e-05 1.32656e-19
9.48021e-05 4.22969e-05 -5.30406e-20
-0.000176863 -9.56457e-05 2.17185e-19
-7.16115e-06 0.000125367 1.11469e-19
-0.000115923 6.79524e-05 1.20108e-19
-8.77257e-05 -2.03936e-05 3.38689e-19
-9.36019e-05 2.28306e-05 1.75952e-20
-9.10251e-05 -4.26516e-05 1.39845e-19
0.000409968 -0.000335361 4.90453e-20
-7.16387e-06 0.000272866 1.03211e-19
-3.98373e-06 -0.000295842 2.57916e-19
0.000283149 -8.81833e-06 1.64997e-19
9.91339e-05 -0.000152598 5.79613e-20
-9.37348e-05 0.000153242 2.18897e-19
0.000106422 5.85165e-05 1.2381e-19
0.000105722 -5.71923e-05 1.26949e-19
0.000131343 9.97873e-05 1.15385e-19
0.000127316 -4.22749e-05 -2.159e-20
0.00012762 4.46229e-05 1.59334e-19
0.000148141 -7.95798e-05 1.43213e-19
0.000151758 7.96825e-05 1.22241e-19
0.000349375 0.000429827 8.52706e-20
0.000431739 0.00034972 -8.43074e-20
-8.77257e-05 -2.03936e-05 3.26609e-19
-9.36019e-05 2.28306e-05 4.01367e-20
3.83267e-05 0.000216162 2.05833e-20
3.68068e-05 -0.000216142 -4.04245e-19
-9.82641e-05 0.000143362 -4.16424e-20
-0.000109879 -7.1965e-05 1.37181e-19
9.36677e-05 -0.000102122 -4.00496e-20
9.28056e-05 0.0001037 1.01396e-19
0.000127697 -4.38136e-05 3.04354e-20
0.00012751 4.39804e-05 3.57937e-20
2.51757e-05 -0.000142812 2.461e-20
0.000135731 -3.38132e-05 2.48479e-20
-0.000175931 -2.49872e-05 -4.52528e-20
-2.60036e-05 0.000140324 1.24197e-20
0.000232724 -9.002e-05 6.2298e-20
0.000232489 9.02839e-05 -6.38038e-20
-0.00011626 5.85135e-05 -2.23628e-19
-0.000115588 -6.83497e-05 -1.14854e-19
1.19308e-06 0.00013239 1.20149e-19
-2.46585e-06 -0.000132936 -7.63657e-20
-1.47943e-05 -0.00013122 -1.31014e-20
1.28926e-05 0.000127414 -6.15526e-20
0.000114545 -2.13831e-05 -5.08128e-20
7.24046e-05 6.68054e-05 -4.78884e-20
-2.45273e-05 7.28848e-05 3.2385e-20
2.34101e-05 -7.33252e-05 -7.39404e-20
-0.000195664 0.000134262 -4.95449e-20
-0.000175129 -9.59452e-05 1.80391e-20
0.000180221 -0.000258381 -2.36628e-20
0.000312272 0.000153744 1.40167e-20
0.000232724 -9.002e-05 1.44283e-19
0.000232489 9.02839e-05 -6.50398e-20
0.000105968 -5.77451e-05 1.39789e-19
0.000105773 5.78543e-05 2.52365e-20
-9.07517e-05 4.31319e-05 -2.33803e-20
-9.23195e-05 -4.28351e-05 -2.15029e-20
0.000122922 5.87728e-05 5.69631e-20
0.000123685 -5.83586e-05 4.30059e-20
3.63976e-05 0.000215932 1.02632e-19
-3.71949e-05 -0.000215685 -7.30612e-20
-8.7242e-05 2.0467e-05 7.63276e-21
-8.91405e-05 -2.13996e-05 9.76393e-20
-4.08083e-06 -0.000283103 1.01335e-20
1.20762e-05 0.000296621 4.68658e-20
0.00030168 -1.82117e-06 2.17775e-19
-0.00029836 -3.7941e-05 1.09343e-19
0.000147325 -0.000140551 -5.22314e-20
0.000146744 0.000141075 -3.72527e-20
-0.000113585 6.63758e-05 -1.84192e-20
-0.000150126 1.9536e-05 -2.76614e-19
-0.000149984 -1.95404e-05 2.96433e-20
-0.000118487 -7.07349e-05 -1.36642e-20
9.90088e-05 -0.000151408 -7.66354e-20
9.77011e-05 0.000152225 1.52018e-20
0.000150373 7.93974e-05 -6.10535e-20
-9.82641e-05 0.000143362 -7.21734e-20
-2.92721e-05 -0.00013503 5.92143e-20
0.000150484 -7.92764e-05 9.54433e-20
-0.000105235 8.34172e-05 -4.16424e-20
0.000103851 -8.46433e-05 -7.12772e-20
2.68226e-05 -0.000280992 -1.40106e-19
-2.76779e-05 0.000281293 8.78743e-20
0.000203408 -0.000204493 -4.73808e-20
0.000203478 0.000205051 -1.74672e-19
1.43152e-05 4.02871e-05 -1.62403e-20
-2.13974e-05 0.000159087 -2.96452e-19
-1.63965e-05 -0.000151698 1.18933e-21
3.11669e-05 9.06829e-05 1.20973e-19
-2.97084e-05 -9.47414e-05 -4.51717e-21
-8.27857e-06 0.000123968 9.10684e-20
7.42036e-06 -0.000123519 -9.7773e-20
-0.000175129 -9.59452e-05 -9.30499e-20
-1.47943e-05 -0.00013122 -1.11518e-20
1.28926e-05 0.000127414 3.51757e-20
-8.08175e-05 -5.47791e-05 -6.45407e-20
-0.000195664 0.000134262 1.65357e-19
1.94527e-05 3.51833e-05 3.97884e-20
-1.63965e-05 -0.000151698 -1.97402e-19
-9.07517e-05 4.31319e-05 -3.84897e-19
0.000229985 -9.08729e-05 4.17932e-20
0.000229695 9.11542e-05 5.75578e-20
0.000150484 -7.92764e-05 6.51035e-20
9.8859e-05 0.000111262 1.79839e-20
9.98654e-05 -0.000110914 -7.57477e-20
0.000300464 -9.736e-05 -4.37491e-21
0.000232724 -9.002e-05 -5.16453e-20
0.00030026 9.74913e-05 9.5301e-20
0.000232489 9.02839e-05 1.0383e-20
-2.45273e-05 7.28848e-05 3.1149e-20
0.000105968 -5.77451e-05 2.65596e-20
0.000105773 5.78543e-05 1.04558e-19
0.000145744 0.000273592 -1.039e-19
-0.000146964 -0.00027369 1.27765e-20
-1.07146e-05 -2.66599e-05 -1.86104e-20
0.000150373 7.93974e-05 -4.96872e-20
0.000114545 -2.13831e-05 -1.05835e-19
-9.37711e-05 2.73362e-05 -2.69718e-19
-8.08175e-05 -5.47791e-05 1.73808e-19
-0.000308484 4.2783e-06 -4.34179e-20
-0.000308597 -5.01605e-06 -1.28844e-19
-2.35161e-05 7.92451e-05 8.19851e-20
-0.000118487 -7.07349e-05 -5.39468e-22
7.05188e-05 7.1475e-05 3.99626e-20
-4.08083e-06 -0.000283103 -2.40355e-20
1.20762e-05 0.000296621 1.2557e-19
-0.00029836 -3.7941e-05 -2.30384e-20
0.00030168 -1.82117e-06 -1.73616e-20
7.04909e-05 -7.12974e-05 -2.77489e-20
-0.00010926 6.44847e-05 -1.20648e-19
2.48001e-05 -9.33127e-05 -6.74503e-21
2.3211e-05 9.07083e-05 -7.63424e-20
-0.000431944 0.000352128 -1.15666e-19
-1.47943e-05 -0.00013122 4.9719e-20
-8.15695e-06 -0.000277969 3.35265e-20
0.00028361 -1.85999e-05 1.91113e-19
-2.45273e-05 7.28848e-05 -2.38731e-20
-8.27857e-06 0.000123968 4.01367e-20
-9.37711e-05 2.73362e-05 -4.27362e-20
1.28926e-05 0.000127414 6.59423e-21
-0.000175129 -9.59452e-05 6.24084e-20
0.000147325 -0.000140551 1.16543e-19
0.000146744 0.000141075 -5.08998e-20
9.80692e-05 3.95233e-05 6.19094e-20
9.62282e-05 -3.91354e-05 -4.34497e-20
7.42036e-06 -0.000123519 -1.45519e-20
-0.000118487 -7.07349e-05 -2.29785e-21
-1.07146e-05 -2.66599e-05 -1.30929e-20
-8.7242e-05 2.0467e-05 -1.07024e-19
-8.91405e-05 -2.13996e-05 8.89361e-20
-9.07517e-05 4.31319e-05 -1.16209e-19
0.000424967 0.000336874 -2.32926e-19
-4.08083e-06 -0.000283103 1.43894e-20
2.7063e-06 0.000287445 1.54513e-20
0.00030168 -1.82117e-06 8.08638e-20
9.90088e-05 -0.000151408 6.69341e-20
9.77011e-05 0.000152225 5.42448e-20
0.000105773 5.78543e-05 3.88836e-20
-0.000195664 0.000134262 6.6348e-20
0.000105968 -5.77451e-05 -3.35977e-20
0.000127697 -4.38136e-05 8.06535e-20
0.00012751 4.39804e-05 9.47149e-20
0.000150373 7.93974e-05 4.9513e-20
0.000150484 -7.92764e-05 9.08305e-20
-0.000352023 0.00043734 -4.77695e-20
-0.000431944 0.000352128 1.33179e-19
-8.7242e-05 2.0467e-05 -5.44741e-20
-8.91405e-05 -2.13996e-05 5.45059e-20
-3.71949e-05 -0.000215685 -6.38356e-20
3.63976e-05 0.000215932 -8.53067e-20
-9.60131e-05 0.000154837 -1.073e-19
-0.000104774 -9.99277e-05 4.2562e-20
9.39719e-05 -0.000102445 8.31659e-20
9.30008e-05 0.000103692 -1.82192e-19
0.000127658 -4.45045e-05 1.41992e-19
0.000127264 4.23137e-05 -7.34094e-20
2.60215e-05 -0.000142541 -3.58722e-20
0.000140285 -3.48587e-05 -1.12246e-19
-0.000197163 -4.46264e-05 -1.38787e-20
-2.41556e-05 0.000142218 -3.13159e-19
0.000231313 -9.00482e-05 1.11628e-19
0.000233722 8.89589e-05 -5.14308e-20
-0.000116377 -5.83843e-05 -2.35715e-20
-0.000115128 6.73712e-05 -1.50521e-19
2.484e-06 0.000132935 -1.73767e-19
-1.66461e-06 -0.000132492 -9.28928e-21
-1.36884e-05 -0.000130114 1.37513e-20
1.34393e-05 0.000129086 -1.34367e-19
0.000114905 -2.10567e-05 5.71777e-20
7.33674e-05 6.59563e-05 -6.59827e-20
-2.35656e-05 7.47978e-05 -9.67749e-20
2.43208e-05 -7.33519e-05 1.37513e-20
-0.000157741 0.000257569 -1.94973e-19
-0.000177059 -9.58688e-05 -3.24931e-21
0.00031413 -0.000149472 -1.84948e-19
0.000308304 0.000167161 -1.82716e-19
0.000231313 -9.00482e-05 8.33782e-21
0.000233722 8.89589e-05 -1.28994e-19
0.000106271 -5.83909e-05 3.51586e-20
0.00010587 5.72725e-05 -1.88264e-19
-9.10198e-05 -4.26691e-05 -1.07079e-19
-9.28016e-05 4.31363e-05 -3.27651e-20
0.000123997 5.7263e-05 -2.66405e-19
0.00012321 -5.96303e-05 -1.83726e-20
3.69789e-05 0.000216257 -2.61903e-19
-3.60282e-05 -0.000215812 3.99626e-20
-8.79468e-05 -2.07496e-05 -7.02791e-20
-9.35457e-05 2.30615e-05 -2.53541e-19
-3.59395e-06 -0.00029643 2.50379e-20
-2.98211e-05 0.000301586 -1.0694e-19
0.000298118 -2.20881e-05 -1.16784e-19
-0.000263065 2.34491e-06 -1.18223e-19
0.000147014 -0.000139888 9.18605e-20
0.000147522 0.000140137 -8.75175e-20
-0.000138068 -8.32681e-05 6.18223e-21
-0.000151918 -1.62111e-05 -1.32624e-19
-0.000149274 2.50603e-05 -3.72271e-20
-0.000115916 6.79831e-05 -4.43927e-20
9.93661e-05 -0.000150296 1.4932e-20
-9.39474e-05 0.000153297 -1.89413e-19
0.000148177 -7.98731e-05 -6.56026e-20
-2.85959e-05 -0.00013598 3.71486e-20
9.13463e-05 0.00014275 -2.20768e-19
0.000151591 7.89488e-05 -2.0299e-19
-0.000104081 8.45945e-05 -1.11706e-21
0.000106488 -8.26648e-05 2.84585e-21
-2.68729e-05 0.00028139 -2.32839e-19
2.85803e-05 -0.000281719 9.08943e-20
0.000202061 -0.000203147 3.18137e-20
0.000204111 0.0002045 1.53216e-19
1.40474e-05 -4.10212e-05 7.43842e-20
-2.14297e-05 -0.000159263 -9.20665e-20
-1.63687e-05 0.000151767 1.7746e-20
3.16021e-05 9.15643e-05 -2.69297e-19
-2.86294e-05 -9.47014e-05 7.93857e-20
-0.000177059 -9.58688e-05 6.49862e-22
-7.55914e-06 0.000125568 -2.60127e-19
8.28498e-06 -0.000123269 1.05571e-20
-1.36884e-05 -0.000130114 5.54574e-20
1.34393e-05 0.000129086 -2.09077e-19
-8.21854e-05 -5.58769e-05 4.21819e-20
1.6872e-05 3.6167e-05 -1.24579e-19
-1.63687e-05 0.000151767 -7.82686e-20
-9.10198e-05 -4.26691e-05 -1.53207e-19
0.000228558 -9.09061e-05 8.61859e-20
0.000230962 8.98185e-05 -3.62609e-20
0.000151591 7.89488e-05 -1.59857e-19
9.94802e-05 0.000110182 -2.02633e-19
0.000100238 -0.000110686 1.77144e-19
0.000298095 -9.67379e-05 -7.77377e-20
0.000231313 -9.00482e-05 2.96433e-20
0.000302528 9.74854e-05 -1.00865e-19
0.000233722 8.89589e-05 -1.23878e-20
-0.000191628 0.000143327 -7.71112e-20
-2.35656e-05 7.47978e-05 -1.5641e-19
0.000106271 -5.83909e-05 1.06682e-19
0.00010587 5.72725e-05 -7.23709e-20
0.000146213 0.000273892 -1.51551e-19
-0.000146173 -0.000273922 8.99622e-21
-9.6186e-06 -2.69412e-05 2.62984e-20
0.000148177 -7.98731e-05 -6.09898e-20
0.000114905 -2.10567e-05 4.19122e-20
-9.40213e-05 -2.7867e-05 -7.76648e-21
-8.21854e-05 -5.58769e-05 1.22931e-19
-0.000308205 -4.82799e-06 -1.2236e-19
-0.000308449 5.43289e-06 -1.62528e-19
-2.12987e-05 8.63881e-05 -2.41264e-19
-0.000115916 6.79831e-05 -9.53244e-20
7.05766e-05 7.08459e-05 -1.34875e-19
-3.59395e-06 -0.00029643 -9.07594e-20
-2.98211e-05 0.000301586 -1.82624e-19
-0.000263065 2.34491e-06 -1.24785e-19
0.000298118 -2.20881e-05 -1.33024e-19
7.09393e-05 -7.18827e-05 6.7378e-20
-0.000109384 -6.44184e-05 2.98493e-20
2.60199e-05 -9.31712e-05 -4.46072e-20
2.37812e-05 9.06263e-05 1.8689e-20
0.000431633 0.00034949 -2.6881e-19
1.34393e-05 0.000129086 -1.70225e-19
-1.36884e-05 -0.000130114 -3.913e-20
-2.12269e-05 -0.000277929 1.5943e-20
-0.000263065 2.34491e-06 -1.46613e-19
-2.35656e-05 7.47978e-05 -5.96815e-20
-9.40213e-05 -2.7867e-05 -1.6413e-19
0.000147014 -0.000139888 1.56822e-19
0.000147522 0.000140137 -8.75175e-20
9.84312e-05 3.77042e-05 7.25536e-20
9.4736e-05 -4.22569e-05 -2.30698e-19
-0.000177059 -9.58688e-05 -1.38307e-19
-7.55914e-06 0.000125568 -4.36177e-19
8.28498e-06 -0.000123269 6.34384e-20
-0.000115916 6.79831e-05 -1.47683e-19
-9.6186e-06 -2.69412e-05 2.89616e-20
-8.79468e-05 -2.07496e-05 -1.09322e-19
-9.35457e-05 2.30615e-05 -2.3295e-19
-9.10198e-05 -4.26691e-05 7.30612e-20
0.000409984 -0.0003356 -1.60386e-19
-7.46404e-06 0.000272753 -2.77862e-19
-3.59395e-06 -0.00029643 -6.28916e-20
0.000283252 -9.31533e-06 -7.99718e-20
-9.39474e-05 0.000153297 -2.40344e-19
9.93661e-05 -0.000150296 2.0972e-20
0.00010587 5.72725e-05 -2.32442e-19
0.000130944 9.90969e-05 -1.42293e-19
0.000106271 -5.83909e-05 1.6898e-19
0.000127658 -4.45045e-05 9.70998e-20
0.000127264 4.23137e-05 -1.44219e-19
0.000148177 -7.98731e-05 -1.20077e-20
0.000151591 7.89488e-05 -1.93051e-19
0.000349142 0.00042956 1.04895e-19
0.000431633 0.00034949 -4.95566e-20
-8.79468e-05 -2.07496e-05 -1.25938e-20
-9.35457e-05 2.30615e-05 -1.10494e-19
-3.60282e-05 -0.000215812 4.82833e-20
3.69789e-05 0.000216257 1.79981e-19
-9.82606e-05 0.000143337 1.36032e-19
-0.000105649 -7.64548e-05 6.59827e-20
9.97036e-05 -0.00012728 1.86448e-19
9.35542e-05 0.000101081 6.52776e-20
0.000125506 3.97836e-05 3.55666e-19
0.000112653 -8.11447e-05 1.44988e-19
-1.5897e-05 -0.0001486 3.49572e-21
0.000137414 2.6554e-05 2.3597e-19
-0.000173332 -2.74208e-05 8.7439e-20
-2.53193e-05 0.000140176 -2.71838e-21
0.000228081 8.56495e-05 1.9214e-19
0.000178436 -0.000107941 1.03978e-20
-0.000110743 -7.11566e-05 5.88023e-20
-0.00011534 5.82368e-05 9.09495e-20
2.22999e-06 0.000131756 5.1297e-20
1.96774e-05 -0.000135442 8.56635e-20
3.64795e-05 -0.000145819 1.07895e-19
1.40159e-05 0.000126718 1.79624e-19
0.000114896 1.3341e-05 2.1919e-19
6.68891e-05 -7.9062e-05 1.19285e-19
-1.55436e-05 -7.53975e-05 -1.83919e-21
-2.41788e-05 7.26707e-05 1.63686e-19
-0.000197711 0.000134042 -6.20516e-20
-0.000172142 -0.000102624 4.2793e-21
0.000328417 -0.000166313 4.08785e-19
0.0001796 0.000252681 2.15723e-19
0.000228081 8.56495e-05 3.83787e-19
0.000178436 -0.000107941 1.11216e-19
0.000105586 5.4881e-05 2.24223e-19
0.000105223 -9.23572e-05 1.87185e-19
-8.91096e-05 4.17565e-05 7.60256e-22
-8.76784e-05 -4.57309e-05 1.12072e-19
0.000124723 5.24052e-05 3.57679e-19
0.00012464 -7.47009e-05 1.66309e-19
5.50531e-05 -0.000187481 5.87705e-20
3.67961e-05 0.000213995 -2.24302e-19
-8.66273e-05 2.04331e-05 8.22549e-20
-8.58031e-05 -2.74398e-05 8.32382e-20
2.57897e-06 -0.00031487 3.71529e-20
3.0857e-05 0.000303245 -1.53136e-19
0.000313692 -5.50327e-06 3.08903e-19
-0.000301235 -4.4648e-05 4.82569e-20
0.000143868 0.000133985 3.02254e-19
0.000117132 -0.000140472 5.89998e-20
-0.000112444 6.53499e-05 4.28232e-20
-0.000143149 -2.6529e-05 -2.3374e-20
-0.000149094 1.95064e-05 9.33662e-20
-0.000114265 -7.37292e-05 1.19609e-19
0.000108791 -0.000171178 5.00992e-20
0.000102594 0.000151235 -3.82656e-20
0.000154166 -9.68821e-05 2.08998e-19
-9.82606e-05 0.000143337 -2.35163e-20
-1.78886e-05 -0.000143435 1.25855e-19
0.000152747 7.43102e-05 3.20586e-19
-0.00010259 8.35888e-05 9.86693e-20
-3.72834e-05 -0.000103571 6.20198e-20
-2.62907e-05 0.000278342 3.61738e-19
1.1881e-05 -0.000231524 3.57851e-20
0.000198794 0.000198314 3.56157e-19
0.000164451 -0.000188988 -5.04093e-20
1.2557e-05 -4.69875e-05 1.57147e-19
-1.8597e-05 0.000159123 9.55304e-20
-1.11515e-05 -0.000152244 -2.75896e-20
3.96365e-05 -9.20856e-05 7.71128e-21
3.13508e-05 9.04179e-05 -4.48365e-20
4.19183e-06 -0.000127714 2.46652e-20
-7.67187e-06 0.000123893 9.30094e-20
-0.000172142 -0.000102624 2.13524e-19
3.64795e-05 -0.000145819 7.95046e-20
1.40159e-05 0.000126718 2.54021e-20
-0.000197711 0.000134042 -5.74389e-20
1.76085e-05 3.5278e-05 2.04028e-19
4.86183e-05 -7.92837e-05 1.39099e-19
-1.11515e-05 -0.000152244 6.11491e-20
-8.91096e-05 4.17565e-05 1.14704e-19
0.00022601 8.62943e-05 1.03694e-19
0.00017175 -0.000110025 6.35574e-20
0.000152747 7.43102e-05 3.36374e-19
9.77263e-05 0.00010517 4.04727e-19
8.58475e-05 -0.000120999 1.84205e-19
0.000295566 9.47728e-05 1.19554e-19
0.000228081 8.56495e-05 1.61609e-19
0.00021408 -8.45863e-05 1.87051e-19
0.000178436 -0.000107941 1.44219e-19
-1.55436e-05 -7.53975e-05 5.38965e-20
-2.41788e-05 7.26707e-05 8.94989e-20
0.000105586 5.4881e-05 3.34076e-19
0.000105223 -9.23572e-05 3.09831e-19
0.000144828 0.000271017 -1.52415e-19
0.000140964 -0.000234362 1.7413e-22
0.000154166 -9.68821e-05 1.93732e-19
0.000114896 1.3341e-05 1.66309e-19
-9.2208e-05 2.58503e-05 4.9307e-20
-0.000297854 -7.98971e-06 5.17557e-21
-0.000307007 4.52218e-06 2.02871e-19
-2.3156e-05 7.91057e-05 1.69233e-19
-1.35401e-05 -8.54131e-05 6.91768e-20
-0.000114265 -7.37292e-05 7.13409e-20
7.09234e-05 6.82792e-05 1.77991e-19
8.18076e-05 -0.000101406 1.57979e-19
2.57897e-06 -0.00031487 3.14697e-20
3.0857e-05 0.000303245 -2.54499e-20
-0.000301235 -4.4648e-05 -6.52341e-20
0.000313692 -5.50327e-06 1.10503e-19
-0.00010847 6.40968e-05 1.15086e-20
2.08595e-05 8.56864e-05 2.28099e-19
1.79576e-05 -9.56065e-05 -2.57356e-20
-0.000437983 0.000353424 -7.09756e-21
-1.90909e-05 -0.000292319 -5.60043e-20
0.000292164 1.44848e-05 1.84649e-19
-2.41788e-05 7.26707e-05 -2.4006e-19
-1.55436e-05 -7.53975e-05 -3.48422e-20
-7.67187e-06 0.000123893 2.03054e-19
4.19183e-06 -0.000127714 8.16369e-20
-9.2208e-05 2.58503e-05 1.04138e-19
3.64795e-05 -0.000145819 1.27773e-19
1.40159e-05 0.000126718 7.97106e-20
-0.000172142 -0.000102624 1.90224e-20
0.000143868 0.000133985 4.83439e-19
0.000117132 -0.000140472 2.38949e-19
9.37837e-05 -4.20915e-05 3.2718e-19
9.35108e-05 -3.33527e-05 1.0627e-19
-0.000114265 -7.37292e-05 8.90784e-20
-8.58031e-05 -2.74398e-05 -1.08269e-20
-8.66273e-05 2.04331e-05 9.41436e-20
-8.91096e-05 4.17565e-05 5.0456e-20
0.000442137 -0.000349966 6.68051e-20
2.57897e-06 -0.00031487 6.61611e-20
7.11127e-06 0.000274926 -1.44533e-19
0.000313692 -5.50327e-06 3.46615e-19
0.000108791 -0.000171178 1.48777e-19
0.000102594 0.000151235 1.09725e-19
0.000105586 5.4881e-05 1.81995e-19
0.000105223 -9.23572e-05 2.68648e-19
-0.000197711 0.000134042 2.98726e-20
0.000125506 3.97836e-05 1.82993e-19
0.000112653 -8.11447e-05 1.98392e-19
0.000154166 -9.68821e-05 1.09607e-19
0.000152747 7.43102e-05 2.425e-19
-0.00035408 0.000433999 1.17596e-19
-0.000437983 0.000353424 -1.33452e-19
-8.58031e-05 -2.74398e-05 5.53703e-20
-8.66273e-05 2.04331e-05 2.6948e-19
5.50531e-05 -0.000187481 1.97275e-20
3.67961e-05 0.000213995 2.46495e-19
1.36338e-05 -1.72086e-06 4.45987e-20
1.53986e-05 -2.08002e-06 -6.52458e-20
6.94284e-06 -1.00725e-06 -2.02186e-21
1.5366e-05 2.06431e-06 -1.22264e-19
2.09426e-05 -2.77269e-06 2.80687e-19
2.09784e-05 2.75547e-06 -1.01753e-19
1.77837e-05 -4.52733e-06 -1.31247e-20
1.24375e-05 -1.40772e-06 -2.08119e-19
1.21986e-05 -1.20825e-06 3.97247e-20
2.20364e-05 1.94124e-06 1.91316e-19
3.5407e-05 -1.10902e-05 2.38586e-19
3.54317e-05 1.10918e-05 -1.01231e-19
-5.71759e-06 -1.2315e-05 -5.36586e-20
-7.21364e-06 -4.47506e-06 3.57851e-20
2.26196e-05 1.30547e-05 1.91243e-19
2.47565e-05 -1.16339e-05 -3.47233e-20
2.92247e-05 3.25737e-06 -1.20442e-19
1.66873e-05 4.16187e-06 3.37678e-21
1.25297e-05 -1.45784e-06 1.44457e-19
8.98884e-06 6.34843e-06 -6.96377e-20
2.82117e-05 -2.19847e-05 2.03219e-19
1.15073e-05 -5.22969e-06 -1.53967e-19
1.381e-05 -1.75799e-06 4.95768e-20
1.53924e-05 6.33246e-07 -2.25733e-20
1.42294e-05 1.01733e-06 3.42475e-20
1.62839e-05 1.93081e-07 -9.02911e-20
3.5407e-05 -1.10902e-05 4.65568e-20
3.54317e-05 1.10918e-05 -1.35367e-20
1.65002e-05 -9.24346e-07 -2.27156e-20
1.64996e-05 8.83486e-07 -1.10677e-19
1.13514e-05 1.41467e-05 8.66383e-20
1.22581e-05 -1.19974e-05 8.52663e-20
1.49558e-05 -2.83041e-06 1.70358e-19
1.49398e-05 2.78703e-06 -1.21568e-19
4.88641e-05 6.25885e-05 2.31595e-19
1.66051e-05 -5.91228e-05 -4.04064e-20
-2.92736e-06 -3.2573e-05 1.26537e-19
-3.15917e-06 3.18691e-05 -1.9855e-20
1.71521e-05 -3.85749e-08 3.8631e-20
1.6989e-05 -2.29116e-07 -1.87527e-20
1.39501e-05 -3.25316e-09 -2.23843e-19
1.33641e-05 -1.54711e-08 8.40303e-20
2.20352e-05 -1.8315e-05 2.19103e-19
2.20422e-05 1.8359e-05 1.06604e-19
6.03016e-06 1.36876e-06 8.50922e-20
-4.71266e-05 -3.32279e-05 3.28841e-20
-4.69562e-05 3.32079e-05 9.46193e-20
7.86622e-06 -1.1392e-06 9.00936e-20
1.64386e-05 -1.7813e-06 -8.68358e-20
1.64743e-05 1.76851e-06 -1.51971e-19
1.37811e-05 -1.87795e-06 -1.63274e-20
1.36338e-05 -1.72086e-06 1.02093e-19
1.95008e-05 4.22628e-06 4.39659e-20
1.37878e-05 1.92758e-06 -2.14966e-19
-1.07614e-05 1.19709e-05 8.48862e-20
9.29087e-05 1.34472e-05 -1.42856e-19
2.33797e-05 8.85835e-05 3.3415e-20
4.97406e-05 -9.29303e-05 6.95103e-20
3.02601e-05 -2.85967e-05 2.37142e-19
3.02806e-05 2.86133e-05 1.16003e-19
1.45874e-06 4.50951e-06 1.64858e-19
4.67858e-05 8.62804e-05 -2.18279e-20
5.08144e-05 -8.15487e-05 1.2775e-19
5.38215e-05 -1.37996e-05 3.20801e-19
6.57513e-06 -7.21806e-06 -7.73086e-20
3.01138e-05 -5.51231e-06 1.94588e-19
1.74987e-05 -4.2176e-06 -1.01515e-19
1.42294e-05 1.01733e-06 9.84952e-20
2.92247e-05 3.25737e-06 1.72788e-20
1.66873e-05 4.16187e-06 4.42156e-21
5.93166e-06 2.86549e-05 -6.68471e-20
1.381e-05 -1.75799e-06 4.88632e-20
9.07206e-06 3.36269e-07 -9.81384e-20
5.08144e-05 -8.15487e-05 -1.05986e-19
1.13514e-05 1.41467e-05 -2.00291e-20
3.60483e-05 -1.08905e-05 1.88177e-19
3.6075e-05 1.08914e-05 -8.60755e-20
1.37878e-05 1.92758e-06 -1.47532e-19
1.39547e-05 -1.32704e-05 2.52059e-19
1.38991e-05 1.32819e-05 6.59127e-20
4.66347e-05 -1.40599e-05 -5.59735e-20
3.5407e-05 -1.10902e-05 4.37024e-20
4.66707e-05 1.40687e-05 7.11116e-20
3.54317e-05 1.10918e-05 4.46709e-20
2.82117e-05 -2.19847e-05 3.01375e-19
1.65002e-05 -9.24346e-07 1.27594e-20
1.64996e-05 8.83486e-07 -1.45107e-19
0.000116949 0.000105115 8.48862e-20
-2.63217e-05 -8.02257e-05 -3.50163e-20
6.98441e-06 9.558e-07 -8.81992e-20
1.37811e-05 -1.87795e-06 8.16369e-20
1.25297e-05 -1.45784e-06 1.3276e-19
2.5393e-05 8.97375e-06 -3.73358e-21
5.93166e-06 2.86549e-05 -5.22952e-20
-0.000170865 2.73876e-05 5.61306e-20
-0.000170749 -2.79344e-05 -8.20489e-20
2.87162e-05 -1.88101e-05 1.80956e-19
7.86622e-06 -1.1392e-06 5.49498e-20
1.49615e-05 1.47798e-06 -1.22328e-19
1.71521e-05 -3.85749e-08 -3.41286e-20
1.6989e-05 -2.29116e-07 -8.08595e-20
1.33641e-05 -1.54711e-08 7.7468e-20
1.39501e-05 -3.25316e-09 -1.24452e-19
1.49684e-05 -1.50919e-06 -1.09551e-19
-1.40618e-05 -1.03165e-05 8.83734e-20
2.96056e-06 -1.12838e-05 3.51845e-19
2.96273e-06 1.10961e-05 1.81551e-19
1.28098e-05 4.62213e-06 -5.34526e-20
2.92247e-05 3.25737e-06 -3.96928e-20
1.6927e-05 1.97347e-07 -8.81122e-20
1.39973e-05 -4.75694e-08 -1.0925e-19
2.82117e-05 -2.19847e-05 3.0456e-19
3.01138e-05 -5.51231e-06 8.5449e-20
2.5393e-05 8.97375e-06 2.67974e-20
1.66873e-05 4.16187e-06 1.40295e-20
1.42294e-05 1.01733e-06 7.59537e-20
2.20352e-05 -1.8315e-05 2.49634e-19
2.20422e-05 1.8359e-05 7.74998e-20
1.79437e-05 8.9241e-06 4.95216e-20
1.78254e-05 -8.91666e-06 -1.41684e-19
1.74987e-05 -4.2176e-06 -9.33344e-20
7.86622e-06 -1.1392e-06 -5.94665e-22
6.98441e-06 9.558e-07 -8.81992e-20
-2.92736e-06 -3.2573e-05 6.08623e-20
-3.15917e-06 3.18691e-05 7.22605e-20
1.13514e-05 1.41467e-05 4.29826e-20
1.30289e-05 4.45922e-06 -4.22138e-20
1.72397e-05 6.98074e-08 4.27305e-21
1.71521e-05 -3.85749e-08 -9.64266e-20
1.39501e-05 -3.25316e-09 -8.75494e-20
1.64386e-05 -1.7813e-06 1.25557e-20
1.64743e-05 1.76851e-06 -1.83547e-19
1.64996e-05 8.83486e-07 -1.26656e-19
1.381e-05 -1.75799e-06 6.27015e-20
1.65002e-05 -9.24346e-07 -5.71458e-20
2.09426e-05 -2.77269e-06 1.20616e-19
2.09784e-05 2.75547e-06 -8.96731e-20
1.37811e-05 -1.87795e-06 -1.79253e-19
1.37878e-05 1.92758e-06 -1.55331e-19
1.8257e-05 1.31759e-07 2.7717e-20
1.28098e-05 4.62213e-06 4.66524e-20
-3.15917e-06 3.18691e-05 6.03718e-20
-2.92736e-06 -3.2573e-05 1.35763e-19
4.88641e-05 6.25885e-05 -1.12707e-19
1.66051e-05 -5.91228e-05 -5.10592e-20
-9.30322e-05 0.000151438 -5.37138e-20
-0.000108987 -7.11577e-05 -1.13958e-19
9.43445e-05 -0.000100035 -1.41414e-19
9.96617e-05 0.000126823 -6.95421e-20
0.000112367 8.12108e-05 -8.78424e-20
0.000125378 -3.99757e-05 1.56996e-19
2.6393e-05 -0.000141784 -2.03109e-19
0.000137346 4.64983e-05 -6.43899e-20
-0.000175626 -2.31869e-05 -6.81383e-20
-1.52254e-05 0.000148795 -2.10039e-21
0.000178049 0.000107855 1.00152e-19
0.000228078 -8.57819e-05 2.18108e-20
-0.000114294 -6.75813e-05 5.42766e-20
-0.000111575 6.14059e-05 2.66552e-20
2.02816e-05 0.000135654 8.16602e-20
-1.69657e-06 -0.000131774 1.66999e-19
-1.42321e-05 -0.00013054 -1.68116e-20
3.69661e-05 0.000145664 1.38679e-21
0.000112617 3.19917e-05 1.29273e-20
7.12888e-05 -6.01519e-05 5.17324e-20
-1.70287e-05 7.43891e-05 6.93595e-20
2.40495e-05 -7.19312e-05 3.28693e-20
-0.000195809 0.00014184 -1.78331e-20
-0.000174379 -9.51166e-05 -1.89268e-20
0.000323454 -0.000149459 -4.24643e-19
0.000185699 0.000269644 -9.95846e-20
0.000178049 0.000107855 1.23929e-19
0.000228078 -8.57819e-05 1.15405e-20
0.000105016 9.22792e-05 -9.43667e-20
0.000105912 -5.5325e-05 8.03605e-20
-8.69499e-05 4.46137e-05 -1.95856e-19
-9.05072e-05 -4.15561e-05 -2.68363e-19
0.000124855 7.47015e-05 -1.0012e-19
0.000124755 -5.24134e-05 6.27652e-20
5.51622e-05 0.000187658 3.10534e-20
-3.63143e-05 -0.000213422 5.99831e-20
-8.14078e-05 2.36367e-05 4.90373e-20
-8.82209e-05 -2.13931e-05 1.5144e-19
-3.87108e-06 -0.000298467 -1.77167e-19
3.51361e-05 0.000317457 -1.96922e-19
0.000312334 1.23321e-05 -1.94081e-19
-0.000300961 -3.68524e-05 -2.01171e-19
0.000116966 0.00014004 -1.57678e-19
0.000143816 -0.000134433 1.53422e-19
-0.000110069 6.98294e-05 -1.86932e-19
-0.000148604 -1.95462e-05 4.52167e-20
-0.000144016 2.271e-05 4.2475e-20
-0.000117212 -6.99821e-05 -6.08942e-20
0.000101395 -0.000149164 -3.27418e-19
0.000110083 0.000170514 4.36005e-20
0.000153457 -7.39373e-05 -1.15583e-19
-9.30322e-05 0.000151438 -4.37747e-20
-2.83115e-05 -0.00013445 -3.85713e-19
0.000153351 9.69707e-05 9.38824e-20
-3.70616e-05 0.000103586 -4.5376e-20
0.000103145 -8.3993e-05 8.64875e-20
2.7018e-05 -0.00027803 1.88644e-19
1.20679e-05 0.000231622 1.18887e-20
0.00016412 0.000188684 5.02818e-20
0.000198835 -0.000198454 3.78826e-19
1.27555e-05 -3.23232e-05 1.55586e-20
-1.74119e-05 0.000159333 -3.9336e-20
-1.23321e-05 -0.000151859 4.67861e-20
3.96436e-05 9.24982e-05 5.07257e-20
-2.9078e-05 -9.3349e-05 1.26711e-19
4.6877e-06 0.000130418 1.98146e-21
8.26281e-06 -0.000122083 -4.58199e-20
-0.000174379 -9.51166e-05 -1.35342e-19
-1.42321e-05 -0.00013054 1.30848e-19
3.69661e-05 0.000145664 1.93155e-20
-8.00036e-05 -5.45267e-05 2.85506e-19
-0.000195809 0.00014184 -9.32559e-20
4.96686e-05 7.90579e-05 -1.52154e-19
-1.23321e-05 -0.000151859 -6.28756e-20
-8.69499e-05 4.46137e-05 -1.52914e-19
0.000171318 0.000109952 -2.1048e-19
0.000225969 -8.64387e-05 -3.07635e-19
0.000153351 9.69707e-05 -3.77984e-20
8.61818e-05 0.00012082 9.04806e-22
9.72651e-05 -0.00010545 1.39163e-19
0.000213545 8.44352e-05 1.41191e-19
0.000178049 0.000107855 2.4957e-19
0.000295524 -9.48153e-05 1.59009e-19
0.000228078 -8.57819e-05 2.09941e-19
-1.70287e-05 7.43891e-05 5.00036e-20
0.000105016 9.22792e-05 -1.13863e-19
0.000105912 -5.5325e-05 1.22067e-19
0.000140967 0.000234476 1.69044e-19
-0.000144603 -0.000270571 6.28842e-20
-1.0345e-05 -2.48944e-05 1.24492e-19
0.000153457 -7.39373e-05 9.34448e-21
0.000112617 3.19917e-05 6.2623e-20
-9.21087e-05 2.86543e-05 -8.31022e-20
-8.00036e-05 -5.45267e-05 8.44423e-20
-0.000306849 -5.41783e-06 6.06415e-20
-0.000298248 7.0703e-06 5.22081e-20
-1.55898e-05 8.34372e-05 2.8335e-20
-0.000117212 -6.99821e-05 8.48862e-21
8.19724e-05 0.000101189 -2.27156e-20
-3.87108e-06 -0.000298467 -3.85507e-19
3.51361e-05 0.000317457 1.83492e-21
-0.000300961 -3.68524e-05 -5.39634e-20
0.000312334 1.23321e-05 -1.07483e-19
7.07658e-05 -6.87428e-05 -9.18053e-20
-0.000103672 6.81465e-05 -5.77877e-21
1.81022e-05 9.7586e-05 -8.33952e-20
2.07347e-05 -8.35283e-05 3.94316e-20
-0.000438052 0.000360773 1.68901e-19
-1.42321e-05 -0.00013054 -1.29659e-19
-2.27867e-05 -0.000278647 3.39545e-20
0.000293578 2.97494e-05 3.07922e-20
-1.70287e-05 7.43891e-05 6.54603e-20
4.6877e-06 0.000130418 7.83022e-21
-9.21087e-05 2.86543e-05 -2.5863e-19
3.69661e-05 0.000145664 1.08035e-20
-0.000174379 -9.51166e-05 -1.44045e-19
0.000116966 0.00014004 -1.08696e-19
0.000143816 -0.000134433 -6.02443e-20
9.31184e-05 3.34968e-05 2.9484e-20
9.49177e-05 4.2163e-05 -5.05749e-20
8.26281e-06 -0.000122083 -1.52818e-19
-0.000117212 -6.99821e-05 -1.47683e-19
-1.0345e-05 -2.48944e-05 1.65484e-19
-8.14078e-05 2.36367e-05 3.5199e-20
-8.82209e-05 -2.13931e-05 9.25189e-20
-8.69499e-05 4.46137e-05 -1.39076e-19
0.000440551 -0.000338641 -2.28216e-19
-3.87108e-06 -0.000298467 -3.10798e-19
1.3656e-05 0.000291844 -1.74302e-19
0.000312334 1.23321e-05 -5.00144e-21
0.000101395 -0.000149164 -2.44719e-19
0.000110083 0.000170514 -8.80803e-20
0.000105016 9.22792e-05 -4.32437e-20
-0.000195809 0.00014184 -6.75288e-20
0.000105912 -5.5325e-05 1.48768e-20
0.000112367 8.12108e-05 -1.17061e-20
0.000125378 -3.99757e-05 -2.49031e-20
0.000153457 -7.39373e-05 -9.05693e-20
0.000153351 9.69707e-05 1.57964e-20
-0.000360127 0.000450132 -1.42103e-19
-0.000438052 0.000360773 -9.24159e-20
-8.82209e-05 -2.13931e-05 2.36611e-19
-8.14078e-05 2.36367e-05 8.80803e-20
-3.63143e-05 -0.000213422 -1.28669e-19
5.51622e-05 0.000187658 1.03813e-19
-9.63116e-05 0.000145026 1.62466e-21
-0.000107997 -7.23939e-05 3.80682e-20
0.000103165 -9.83318e-05 1.24834e-20
0.00010242 9.92764e-05 -4.86891e-20
0.000127972 2.55923e-05 6.08708e-20
0.000127801 -2.57464e-05 3.83612e-20
3.19761e-05 -0.000141003 4.16743e-20
0.000163849 -2.98511e-05 -1.39891e-20
-0.000174653 -2.55725e-05 -7.51382e-21
-2.18886e-05 0.000139572 -2.91357e-20
0.000206696 -5.92306e-05 2.6806e-20
0.00020662 5.93037e-05 4.3592e-20
-0.00011393 -6.86157e-05 1.15086e-20
-0.00011502 5.86279e-05 1.69454e-20
6.52661e-06 0.000129836 3.8718e-20
2.4217e-06 -0.000129793 1.64962e-19
-1.1396e-05 -0.00013019 2.41661e-20
1.92799e-05 0.000125647 -3.07285e-20
0.000138594 -1.61135e-05 -2.84221e-20
0.000108143 4.71744e-05 2.57675e-20
-2.24965e-05 7.14149e-05 -2.66319e-21
2.99037e-05 -6.96658e-05 -8.21126e-20
-0.00019589 0.000135723 1.10881e-20
-0.000172547 -9.70152e-05 1.65015e-20
0.000330826 -0.000155042 1.98109e-20
0.000186923 0.000255374 -4.4175e-20
0.000206696 -5.92306e-05 2.05328e-19
0.00020662 5.93037e-05 -8.5948e-20
0.000114906 -5.04919e-05 3.81234e-20
0.000114623 4.98657e-05 2.23355e-20
-8.93e-05 4.29548e-05 -6.56577e-20
-9.06326e-05 -4.29065e-05 -4.45753e-20
0.00013853 4.88628e-05 1.72703e-20
0.000138088 -5.01686e-05 1.4845e-20
3.99162e-05 0.000211363 1.10233e-19
-3.28222e-05 -0.000210005 1.78238e-19
-8.60206e-05 2.03625e-05 -2.10039e-21
-8.78108e-05 -2.1724e-05 4.99017e-20
6.94799e-07 -0.000301963 -1.23326e-20
3.55059e-05 0.000306263 2.63971e-20
0.000322389 2.66526e-06 1.80869e-20
-0.000299335 -4.03757e-05 2.96666e-20
0.000150386 -9.10569e-05 -3.98436e-20
0.000150056 9.12078e-05 4.16276e-20
-0.000112375 6.65316e-05 5.05601e-20
-0.000148542 -1.98669e-05 -6.5709e-21
-0.00014924 1.94252e-05 6.17904e-20
-0.000116964 -7.11124e-05 5.5005e-21
0.000108772 -0.000149401 -2.8953e-20
0.000109437 0.000151795 -4.21182e-20
0.000167578 -7.40788e-05 2.15348e-20
-9.63116e-05 0.000145026 5.78827e-20
-2.45283e-05 -0.000134555 -2.61195e-22
0.000170743 7.28936e-05 -2.4404e-20
-9.81699e-05 8.06093e-05 -2.5846e-20
0.000107184 -8.04675e-05 4.55097e-20
3.09343e-05 -0.000275046 1.64336e-19
-2.24053e-05 0.000274937 1.5962e-20
0.000165886 -0.000140049 1.66927e-20
0.000165946 0.000140315 -2.73284e-20
7.31074e-05 2.51188e-05 -3.35106e-20
-1.9061e-05 0.000159802 -1.23326e-20
-1.27502e-05 -0.000152548 -3.4581e-20
3.33706e-05 8.92684e-05 5.46863e-21
-2.35412e-05 -9.12135e-05 1.01031e-19
-4.62806e-06 0.000123644 -3.28841e-20
1.34995e-05 -0.000120927 2.70586e-20
-0.000172547 -9.70152e-05 1.94959e-21
-1.1396e-05 -0.00013019 6.23743e-21
1.92799e-05 0.000125647 -2.87789e-20
-7.9169e-05 -5.3936e-05 -1.55267e-20
-0.00019589 0.000135723 2.90168e-20
2.29335e-05 3.20383e-05 -1.12136e-19
-1.27502e-05 -0.000152548 -1.03964e-19
-8.93e-05 4.29548e-05 -4.72067e-20
0.00020796 -5.88367e-05 -1.25386e-20
0.000207971 5.88828e-05 1.90776e-20
0.000170743 7.28936e-05 3.18541e-20
0.000121012 7.30998e-05 7.71982e-21
0.000121671 -7.31304e-05 2.46573e-21
0.000262689 -7.3945e-05 1.21266e-20
0.000206696 -5.92306e-05 -1.43778e-20
0.000262679 7.40128e-05 -1.05954e-19
0.00020662 5.93037e-05 -7.67225e-20
-2.24965e-05 7.14149e-05 1.19079e-19
0.000114906 -5.04919e-05 -3.72994e-20
0.000114623 4.98657e-05 3.66962e-20
-0.000140297 -0.00026651 5.48861e-20
0.000148828 0.000269358 1.7681e-19
-4.30717e-06 -2.28817e-05 -1.63592e-20
0.000167578 -7.40788e-05 -1.75082e-20
0.000138594 -1.61135e-05 -7.88314e-20
-9.27388e-05 2.70599e-05 -1.13587e-19
-7.9169e-05 -5.3936e-05 -5.93737e-20
-0.000306871 -5.78084e-06 2.46333e-20
-0.00030718 4.94107e-06 -1.74211e-19
-2.13126e-05 7.88614e-05 -3.12042e-20
-0.000116964 -7.11124e-05 8.89128e-20
7.80755e-05 6.39928e-05 -5.59969e-20
6.94799e-07 -0.000301963 -4.43864e-22
3.55059e-05 0.000306263 -1.01833e-21
0.000322389 2.66526e-06 -1.76749e-20
-0.000299335 -4.03757e-05 7.83876e-21
7.77922e-05 -6.46631e-05 -3.15058e-20
-0.000108111 6.45213e-05 -3.73865e-20
7.25402e-05 -6.0172e-05 3.65858e-20
7.1565e-05 5.89084e-05 2.06704e-20
-0.000434937 0.000354305 2.71978e-20
-1.1396e-05 -0.00013019 5.2034e-20
-1.88709e-05 -0.000281464 3.36824e-21
0.00030188 2.19238e-05 -8.42915e-21
-2.24965e-05 7.14149e-05 2.04007e-20
-4.62806e-06 0.000123644 -1.97594e-20
-9.27388e-05 2.70599e-05 -6.12276e-20
1.92799e-05 0.000125647 -1.1609e-19
-0.000172547 -9.70152e-05 5.50221e-20
0.000150386 -9.10569e-05 5.08446e-20
0.000150056 9.12078e-05 1.87106e-21
9.81238e-05 -4.12079e-05 -4.21734e-20
9.88713e-05 4.14561e-05 6.70531e-20
1.34995e-05 -0.000120927 -5.29769e-20
-0.000116964 -7.11124e-05 2.00524e-20
-4.30717e-06 -2.28817e-05 5.17876e-20
-8.78108e-05 -2.1724e-05 3.65858e-20
-8.60206e-05 2.03625e-05 -2.92546e-20
-8.93e-05 4.29548e-05 -1.54396e-20
0.000448169 -0.000345001 5.8334e-21
6.94799e-07 -0.000301963 -7.71982e-21
1.17777e-05 0.000277968 1.34753e-21
0.000322389 2.66526e-06 3.9558e-20
0.000108772 -0.000149401 6.71316e-21
0.000109437 0.000151795 -8.92394e-21
0.000114623 4.98657e-05 -6.76836e-21
-0.00019589 0.000135723 4.16191e-20
0.000114906 -5.04919e-05 8.92463e-20
0.000127801 -2.57464e-05 1.79606e-20
0.000127972 2.55923e-05 -2.05919e-20
0.000167578 -7.40788e-05 -3.08241e-20
0.000170743 7.28936e-05 -6.73461e-20
-0.000354338 0.000438571 3.57416e-20
-0.000434937 0.000354305 -1.282e-20
-8.78108e-05 -2.1724e-05 -1.03085e-19
-8.60206e-05 2.03625e-05 4.56457e-20
-3.28222e-05 -0.000210005 -6.47234e-20
3.99162e-05 0.000211363 7.91797e-20
-9.58638e-05 0.00015483 3.71486e-20
-0.000104796 -9.94655e-05 3.10061e-19
9.27255e-05 -0.000103445 1.8518e-19
9.37564e-05 0.000104283 3.32494e-20
0.000127316 -4.22749e-05 -7.66121e-20
0.00012762 4.46229e-05 1.73886e-19
-2.61569e-05 -0.000140739 1.65223e-19
0.000140277 -3.41183e-05 9.95018e-20
-0.000197107 -4.45257e-05 7.03024e-20
-2.37923e-05 0.000142052 8.50688e-20
0.000233756 -8.87611e-05 -3.7894e-20
0.000231146 9.02855e-05 1.51907e-19
-0.000116289 -5.84241e-05 2.67055e-19
-0.00011517 6.73674e-05 6.00787e-20
3.1248e-06 0.000132585 -4.25068e-20
1.24473e-06 -0.000132868 2.49901e-20
1.2858e-05 -0.00012784 1.7659e-20
1.43556e-05 0.000129184 -2.80545e-21
0.000114774 -2.02483e-05 1.1269e-19
7.34866e-05 6.68245e-05 1.92518e-20
-2.47553e-05 -7.31583e-05 8.5124e-20
-2.33994e-05 7.44463e-05 6.37952e-20
-0.000157593 0.00025767 2.4072e-19
-0.000176863 -9.56457e-05 2.36802e-19
0.000314098 -0.000149231 3.32301e-19
0.000308505 0.000167541 8.90115e-20
0.000233756 -8.87611e-05 1.25554e-19
0.000231146 9.02855e-05 3.40649e-20
0.000105722 -5.71923e-05 -6.72909e-20
0.000106422 5.85165e-05 1.4804e-19
-9.10251e-05 -4.26516e-05 6.07434e-20
-9.28256e-05 4.31583e-05 1.95096e-19
0.000124314 5.8116e-05 9.70128e-20
0.00012273 -5.89386e-05 1.8442e-19
3.83267e-05 0.000216162 2.96581e-20
3.68068e-05 -0.000216142 -1.25618e-19
-8.77257e-05 -2.03936e-05 2.79315e-19
-9.36019e-05 2.28306e-05 7.74913e-20
-3.98373e-06 -0.000295842 3.93496e-19
-2.9613e-05 0.000301819 1.76696e-19
0.000298198 -2.17494e-05 5.82629e-20
-0.000262973 2.40542e-06 3.24407e-19
0.000147918 -0.000139825 -4.91329e-20
0.000146507 0.000140236 -4.51467e-20
-0.000138094 -8.31177e-05 5.0662e-20
-0.000150395 -1.94879e-05 2.98053e-19
-0.000149562 2.48378e-05 -3.24931e-22
-0.000115923 6.79524e-05 2.25499e-19
9.91339e-05 -0.000152598 2.19309e-19
-9.37348e-05 0.000153242 2.45076e-19
0.000148141 -7.95798e-05 2.05058e-19
-2.79e-05 -0.000136156 3.44894e-19
9.19319e-05 0.000143238 1.00929e-19
0.000151758 7.96825e-05 8.05346e-20
-0.000103477 8.40097e-05 -5.1503e-20
-0.00010426 -8.47383e-05 1.04805e-19
-2.70821e-05 -0.000281312 -2.78825e-19
-2.58823e-05 0.000281663 -3.84568e-20
0.00020394 -0.000203987 1.15957e-20
0.000202156 0.000203667 4.63189e-20
1.36852e-05 -4.01088e-05 -1.70962e-20
-2.14353e-05 -0.000159275 1.08275e-19
-1.63734e-05 0.000151837 4.66353e-20
3.1301e-05 -9.10723e-05 -1.43871e-19
3.17138e-05 9.11954e-05 4.5582e-20
-0.000176863 -9.56457e-05 3.16646e-19
-7.16115e-06 0.000125367 6.3653e-20
-8.1472e-06 -0.000124121 6.83847e-20
1.2858e-05 -0.00012784 1.84292e-19
1.43556e-05 0.000129184 9.08328e-21
2.06868e-05 3.56704e-05 3.27651e-20
1.69732e-05 -3.61836e-05 6.45088e-20
-1.63734e-05 0.000151837 1.59865e-19
-9.10251e-05 -4.26516e-05 2.14443e-19
0.000230978 -8.96263e-05 -6.9277e-21
0.000228369 9.11502e-05 6.50312e-20
0.000151758 7.96825e-05 7.8585e-20
9.9365e-05 0.000110844 1.69305e-19
0.000100256 -0.000110068 7.64294e-20
0.000302466 -9.73368e-05 -1.39658e-20
0.000233756 -8.87611e-05 4.35687e-20
0.000297972 9.68681e-05 5.74303e-20
0.000231146 9.02855e-05 2.48393e-20
-0.000191509 0.000143325 1.94556e-19
-2.47553e-05 -7.31583e-05 2.83524e-19
-2.33994e-05 7.44463e-05 1.67627e-20
0.000105722 -5.71923e-05 5.32148e-20
0.000106422 5.85165e-05 8.04157e-20
0.000146022 -0.000273755 1.95342e-19
0.000149073 0.000274839 -1.92626e-21
0.000148141 -7.95798e-05 2.07722e-19
0.000114774 -2.02483e-05 2.66148e-20
-9.40237e-05 -2.78294e-05 1.97893e-19
-0.000309099 -4.26383e-06 3.73943e-19
-0.000308302 5.74855e-06 -1.25435e-19
-2.36218e-05 -8.02882e-05 2.35874e-19
-2.11154e-05 8.61221e-05 1.35342e-19
-0.000115923 6.79524e-05 3.95102e-20
7.16427e-05 7.18935e-05 5.29769e-20
7.02233e-05 -7.09082e-05 1.88914e-19
-3.98373e-06 -0.000295842 4.21887e-19
-2.9613e-05 0.000301819 1.62679e-20
-0.000262973 2.40542e-06 2.26442e-19
0.000298198 -2.17494e-05 3.90982e-20
-0.000109494 -6.43168e-05 2.38537e-19
2.52159e-05 -9.25744e-05 -1.47346e-20
2.44968e-05 9.12843e-05 1.00865e-19
0.000431739 0.00034972 1.26263e-19
1.43556e-05 0.000129184 -1.56946e-21
-2.14117e-05 -0.000277678 1.62068e-19
-0.000262973 2.40542e-06 -1.07398e-20
-2.33994e-05 7.44463e-05 1.18817e-19
-2.47553e-05 -7.31583e-05 1.39955e-19
-8.1472e-06 -0.000124121 1.65635e-19
-9.40237e-05 -2.78294e-05 2.16535e-19
1.2858e-05 -0.00012784 1.45963e-19
0.000147918 -0.000139825 -8.40855e-20
0.000146507 0.000140236 2.17641e-20
9.67724e-05 -3.73216e-05 1.07451e-19
9.48021e-05 4.22969e-05 3.72761e-20
-0.000176863 -9.56457e-05 2.10884e-19
-7.16115e-06 0.000125367 1.80782e-19
-0.000115923 6.79524e-05 1.60016e-19
-8.77257e-05 -2.03936e-05 3.19785e-19
-9.36019e-05 2.28306e-05 4.91011e-20
-9.10251e-05 -4.26516e-05 9.78368e-20
0.000409968 -0.000335361 5.79719e-20
-7.16387e-06 0.000272866 8.53576e-20
-3.98373e-06 -0.000295842 2.13808e-19
0.000283149 -8.81833e-06 1.50294e-19
9.91339e-05 -0.000152598 1.56679e-19
-9.37348e-05 0.000153242 2.50403e-19
0.000106422 5.85165e-05 1.17509e-19
0.000105722 -5.71923e-05 8.2841e-20
0.000131343 9.97873e-05 6.28756e-20
0.000127316 -4.22749e-05 -3.41923e-20
0.00012762 4.46229e-05 1.34129e-19
0.000148141 -7.95798e-05 1.36912e-19
0.000151758 7.96825e-05 1.34843e-19
0.000349375 0.000429827 8.63208e-20
0.000431739 0.00034972 -1.04261e-19
-8.77257e-05 -2.03936e-05 4.33729e-19
-9.36019e-05 2.28306e-05 3.38355e-20
3.83267e-05 0.000216162 4.36876e-20
3.68068e-05 -0.000216142 -2.53017e-19
-9.82641e-05 0.000143362 -6.26463e-20
-0.000109879 -7.1965e-05 1.07776e-19
9.36677e-05 -0.000102122 -1.69454e-20
9.28056e-05 0.0001037 4.0485e-20
0.000127697 -4.38136e-05 2.41343e-20
0.00012751 4.39804e-05 -1.88164e-20
2.51757e-05 -0.000142812 5.7065e-21
0.000135731 -3.38132e-05 -6.65796e-21
-0.000175931 -2.49872e-05 -4.6303e-20
-2.60036e-05 0.000140324 3.97247e-20
0.000232724 -9.002e-05 -2.59183e-20
0.000232489 9.02839e-05 -2.89251e-21
-0.00011626 5.85135e-05 -2.61435e-19
-0.000115588 -6.83497e-05 -4.7642e-20
1.19308e-06 0.00013239 5.08361e-20
-2.46585e-06 -0.000132936 -9.947e-20
-1.47943e-05 -0.00013122 -2.57037e-20
1.28926e-05 0.000127414 -3.42475e-20
0.000114545 -2.13831e-05 -5.71139e-20
7.24046e-05 6.68054e-05 -1.63826e-20
-2.45273e-05 7.28848e-05 5.12885e-20
2.34101e-05 -7.33252e-05 -9.70446e-20
-0.000195664 0.000134262 -1.59387e-20
-0.000175129 -9.59452e-05 4.74445e-20
0.000180221 -0.000258381 -1.21107e-20
0.000312272 0.000153744 4.2372e-20
0.000232724 -9.002e-05 8.12715e-20
0.000232489 9.02839e-05 -6.71401e-20
0.000105968 -5.77451e-05 5.78742e-20
0.000105773 5.78543e-05 -4.82771e-20
-9.07517e-05 4.31319e-05 -1.76709e-19
-9.23195e-05 -4.28351e-05 -1.73022e-20
0.000122922 5.87728e-05 8.00674e-20
0.000123685 -5.83586e-05 3.46043e-20
3.63976e-05 0.000215932 1.04733e-19
-3.71949e-05 -0.000215685 -1.42503e-20
-8.7242e-05 2.0467e-05 -1.12707e-20
-8.91405e-05 -2.13996e-05 4.30292e-20
-4.08083e-06 -0.000283103 -2.34727e-20
1.20762e-05 0.000296621 3.7414e-20
0.00030168 -1.82117e-06 2.23026e-19
-0.00029836 -3.7941e-05 1.41374e-19
0.000147325 -0.000140551 -6.90345e-20
0.000146744 0.000141075 1.16076e-19
-0.000113585 6.63758e-05 -9.19328e-20
-0.000150126 1.9536e-05 -1.84197e-19
-0.000149984 -1.95404e-05 -4.17699e-20
-0.000118487 -7.07349e-05 -1.7865e-20
9.90088e-05 -0.000151408 -6.40331e-20
9.77011e-05 0.000152225 2.36033e-20
0.000150373 7.93974e-05 4.05851e-21
-9.82641e-05 0.000143362 -1.75634e-20
-2.92721e-05 -0.00013503 4.87124e-20
0.000150484 -7.92764e-05 1.14347e-19
-0.000105235 8.34172e-05 -6.26463e-20
0.000103851 -8.46433e-05 -1.06984e-19
2.68226e-05 -0.000280992 -1.48507e-19
-2.76779e-05 0.000281293 7.94727e-20
0.000203408 -0.000204493 -6.41839e-20
0.000203478 0.000205051 2.06642e-20
1.43152e-05 4.02871e-05 8.96435e-21
-2.13974e-05 0.000159087 -2.8805e-19
-1.63965e-05 -0.000151698 -6.18223e-20
3.11669e-05 9.06829e-05 9.36679e-20
-2.97084e-05 -9.47414e-05 -8.64323e-20
-8.27857e-06 0.000123968 8.47672e-20
7.42036e-06 -0.000123519 -1.85989e-19
-0.000175129 -9.59452e-05 -8.88491e-20
-1.47943e-05 -0.00013122 1.45053e-21
1.28926e-05 0.000127414 -5.09402e-20
-8.08175e-05 -5.47791e-05 -2.88341e-20
-0.000195664 0.000134262 2.49373e-19
1.94527e-05 3.51833e-05 -3.37251e-20
-1.63965e-05 -0.000151698 -1.46993e-19
-9.07517e-05 4.31319e-05 -2.73577e-19
0.000229985 -9.08729e-05 3.33917e-20
0.000229695 9.11542e-05 4.91562e-20
0.000150484 -7.92764e-05 2.09953e-20
9.8859e-05 0.000111262 7.48196e-21
9.98654e-05 -0.000110914 -6.73461e-20
0.000300464 -9.736e-05 -2.95796e-20
0.000232724 -9.002e-05 -1.38383e-20
0.00030026 9.74913e-05 5.74941e-20
0.000232489 9.02839e-05 -4.31971e-21
-2.45273e-05 7.28848e-05 -1.29591e-20
0.000105968 -5.77451e-05 3.28607e-20
0.000105773 5.78543e-05 6.88519e-20
0.000145744 0.000273592 -1.45908e-19
-0.000146964 -0.00027369 2.1178e-20
-1.07146e-05 -2.66599e-05 4.65016e-20
0.000150373 7.93974e-05 -7.27914e-20
0.000114545 -2.13831e-05 -2.39197e-20
-9.37711e-05 2.73362e-05 -2.21409e-19
-8.08175e-05 -5.47791e-05 4.56839e-20
-0.000308484 4.2783e-06 -5.60202e-20
-0.000308597 -5.01605e-06 -7.00327e-20
-2.35161e-05 7.92451e-05 1.0719e-19
-0.000118487 -7.07349e-05 7.08737e-20
7.05188e-05 7.1475e-05 5.5197e-23
-4.08083e-06 -0.000283103 1.79722e-20
1.20762e-05 0.000296621 1.22419e-19
-0.00029836 -3.7941e-05 -4.45674e-20
0.00030168 -1.82117e-06 -1.84118e-20
7.04909e-05 -7.12974e-05 2.89616e-20
-0.00010926 6.44847e-05 -8.91421e-20
2.48001e-05 -9.33127e-05 7.95769e-21
2.3211e-05 9.07083e-05 -3.6435e-20
-0.000431944 0.000352128 -1.39296e-19
-1.47943e-05 -0.00013122 4.9719e-20
-8.15695e-06 -0.000277969 2.40748e-20
0.00028361 -1.85999e-05 1.84812e-19
-2.45273e-05 7.28848e-05 2.02351e-20
-8.27857e-06 0.000123968 3.38355e-20
-9.37711e-05 2.73362e-05 -7.00412e-20
1.28926e-05 0.000127414 2.12969e-20
-0.000175129 -9.59452e-05 5.40069e-20
0.000147325 -0.000140551 2.41257e-20
0.000146744 0.000141075 -7.40041e-20
9.80692e-05 3.95233e-05 1.57008e-20
9.62282e-05 -3.91354e-05 -3.29478e-20
7.42036e-06 -0.000123519 -1.45519e-20
-0.000118487 -7.07349e-05 -9.47149e-20
-1.07146e-05 -2.66599e-05 -1.11811e-19
-8.7242e-05 2.0467e-05 3.79026e-20
-8.91405e-05 -2.13996e-05 1.0994e-19
-9.07517e-05 4.31319e-05 -1.05707e-19
0.000424967 0.000336874 -2.43953e-19
-4.08083e-06 -0.000283103 1.22891e-20
2.7063e-06 0.000287445 4.27564e-20
0.00030168 -1.82117e-06 7.98136e-20
9.90088e-05 -0.000151408 5.43318e-20
9.77011e-05 0.000152225 5.0044e-20
0.000105773 5.78543e-05 1.41803e-19
-0.000195664 0.000134262 -8.64399e-22
0.000105968 -5.77451e-05 -5.25012e-20
0.000127697 -4.38136e-05 1.12159e-19
0.00012751 4.39804e-05 2.29785e-21
0.000150373 7.93974e-05 3.90111e-20
0.000150484 -7.92764e-05 9.71317e-20
-0.000352023 0.00043734 -2.25648e-20
-0.000431944 0.000352128 1.28453e-19
-8.7242e-05 2.0467e-05 -1.23787e-19
-8.91405e-05 -2.13996e-05 1.00714e-19
-3.71949e-05 -0.000215685 2.01799e-20
3.63976e-05 0.000215932 -2.01947e-20
-9.60131e-05 0.000154837 -1.6191e-19
-0.000104774 -9.99277e-05 3.62609e-20
9.39719e-05 -0.000102445 1.31475e-19
9.30008e-05 0.000103692 -2.09497e-19
0.000127658 -4.45045e-05 2.21806e-19
0.000127264 4.23137e-05 -8.1811e-20
2.60215e-05 -0.000142541 -8.41811e-20
0.000140285 -3.48587e-05 -9.75437e-20
-0.000197163 -4.46264e-05 5.75345e-20
-2.41556e-05 0.000142218 -3.40464e-19
0.000231313 -9.00482e-05 6.54199e-20
0.000233722 8.89589e-05 -8.92378e-20
-0.000116377 -5.83843e-05 -3.82742e-20
-0.000115128 6.73712e-05 -1.21115e-19
2.484e-06 0.000132935 -1.54864e-19
-1.66461e-06 -0.000132492 1.17146e-20
-1.36884e-05 -0.000130114 3.47551e-20
1.34393e-05 0.000129086 -1.4697e-19
0.000114905 -2.10567e-05 4.66797e-21
7.33674e-05 6.59563e-05 -1.0379e-19
-2.35656e-05 7.47978e-05 -1.09377e-19
2.43208e-05 -7.33519e-05 3.47551e-20
-0.000157741 0.000257569 -1.87621e-19
-0.000177059 -9.58688e-05 -4.52571e-20
0.00031413 -0.000149472 -2.32207e-19
0.000308304 0.000167161 -1.5016e-19
0.000231313 -9.00482e-05 3.77432e-20
0.000233722 8.89589e-05 -4.0778e-20
0.000106271 -5.83909e-05 1.21275e-19
0.00010587 5.72725e-05 -1.29453e-19
-9.10198e-05 -4.26691e-05 -2.05998e-21
-9.28016e-05 4.31363e-05 -9.57768e-20
0.000123997 5.7263e-05 -2.22297e-19
0.00012321 -5.96303e-05 3.41371e-20
3.69789e-05 0.000216257 -2.85007e-19
-3.60282e-05 -0.000215812 5.5197e-23
-8.79468e-05 -2.07496e-05 -3.03717e-20
-9.35457e-05 2.30615e-05 -1.84229e-19
-3.59395e-06 -0.00029643 1.55862e-20
-2.98211e-05 0.000301586 -6.28321e-20
0.000298118 -2.20881e-05 -1.29386e-19
-0.000263065 2.34491e-06 -8.67168e-20
0.000147014 -0.000139888 1.50671e-19
0.000147522 0.000140137 -9.80194e-20
-0.000138068 -8.32681e-05 -1.18933e-22
-0.000151918 -1.62111e-05 -1.30523e-19
-0.000149274 2.50603e-05 -1.42247e-19
-0.000115916 6.79831e-05 -6.95973e-20
9.93661e-05 -0.000150296 5.90402e-20
-9.39474e-05 0.000153297 -1.7681e-19
0.000148177 -7.98731e-05 -5.93014e-20
-2.85959e-05 -0.00013598 3.9249e-20
9.13463e-05 0.00014275 -1.74559e-19
0.000151591 7.89488e-05 -1.77785e-19
-0.000104081 8.45945e-05 -7.04299e-20
0.000106488 -8.26648e-05 -6.22662e-20
-2.68729e-05 0.00028139 -1.46723e-19
2.85803e-05 -0.000281719 5.09869e-20
0.000202061 -0.000203147 1.45235e-19
0.000204111 0.0002045 8.81036e-20
1.40474e-05 -4.10212e-05 9.53881e-20
-2.14297e-05 -0.000159263 -1.61379e-19
-1.63687e-05 0.000151767 1.98464e-20
3.16021e-05 9.15643e-05 -2.86101e-19
-2.86294e-05 -9.47014e-05 7.09841e-20
-0.000177059 -9.58688e-05 9.05141e-21
-7.55914e-06 0.000125568 -2.91633e-19
8.28498e-06 -0.000123269 2.94606e-20
-1.36884e-05 -0.000130114 5.12566e-20
1.34393e-05 0.000129086 -2.46884e-19
-8.21854e-05 -5.58769e-05 -8.22742e-21
1.6872e-05 3.6167e-05 -1.20378e-19
-1.63687e-05 0.000151767 -5.54258e-22
-9.10198e-05 -4.26691e-05 -1.74211e-19
0.000228558 -9.09061e-05 1.02989e-19
0.000230962 8.98185e-05 -4.2562e-20
0.000151591 7.89488e-05 -2.35471e-19
9.94802e-05 0.000110182 -1.96332e-19
0.000100238 -0.000110686 1.07831e-19
0.000298095 -9.67379e-05 1.46794e-20
0.000231313 -9.00482e-05 -4.17699e-20
0.000302528 9.74854e-05 -2.52513e-20
0.000233722 8.89589e-05 -6.27971e-20
-0.000191628 0.000143327 -3.93042e-20
-2.35656e-05 7.47978e-05 -9.33981e-20
0.000106271 -5.83909e-05 1.29786e-19
0.00010587 5.72725e-05 -1.14379e-19
0.000146213 0.000273892 -1.74655e-19
-0.000146173 -0.000273922 -3.93127e-20
-9.6186e-06 -2.69412e-05 -1.78098e-20
0.000148177 -7.98731e-05 -4.20863e-20
0.000114905 -2.10567e-05 2.72094e-20
-9.40213e-05 -2.7867e-05 -1.31689e-19
-8.21854e-05 -5.58769e-05 3.47147e-20
-0.000308205 -4.82799e-06 -1.28661e-19
-0.000308449 5.43289e-06 -1.39424e-19
-2.12987e-05 8.63881e-05 -2.01357e-19
-0.000115916 6.79831e-05 -1.20529e-19
7.05766e-05 7.08459e-05 -9.91684e-20
-3.59395e-06 -0.00029643 -6.87053e-20
-2.98211e-05 0.000301586 -1.76323e-19
-0.000263065 2.34491e-06 -1.31086e-19
0.000298118 -2.20881e-05 -1.20422e-19
7.09393e-05 -7.18827e-05 5.26753e-20
-0.000109384 -6.44184e-05 -3.1062e-20
2.60199e-05 -9.31712e-05 5.8021e-21
2.37812e-05 9.06263e-05 5.64959e-20
0.000431633 0.00034949 -2.79312e-19
1.34393e-05 0.000129086 -8.20085e-20
-1.36884e-05 -0.000130114 -4.33308e-20
-2.12269e-05 -0.000277929 6.49123e-21
-0.000263065 2.34491e-06 -1.52914e-19
-2.35656e-05 7.47978e-05 -1.10091e-19
-9.40213e-05 -2.7867e-05 -9.90176e-20
0.000147014 -0.000139888 1.14814e-19
0.000147522 0.000140137 -9.80194e-20
9.84312e-05 3.77042e-05 6.20516e-20
9.4736e-05 -4.22569e-05 -2.58003e-19
-0.000177059 -9.58688e-05 -9.20984e-20
-7.55914e-06 0.000125568 -3.92069e-19
8.28498e-06 -0.000123269 1.07547e-19
-0.000115916 6.79831e-05 -9.7274e-20
-9.6186e-06 -2.69412e-05 -2.77489e-20
-8.79468e-05 -2.07496e-05 -5.68123e-20
-9.35457e-05 2.30615e-05 -2.26648e-19
-9.10198e-05 -4.26691e-05 1.42503e-20
0.000409984 -0.0003356 -1.91892e-19
-7.46404e-06 0.000272753 -2.79962e-19
-3.59395e-06 -0.00029643 -1.03849e-19
0.000283252 -9.31533e-06 -1.2618e-19
-9.39474e-05 0.000153297 -2.27742e-19
9.93661e-05 -0.000150296 2.06852e-21
0.00010587 5.72725e-05 -2.7445e-19
0.000130944 9.90969e-05 -1.63297e-19
0.000106271 -5.83909e-05 1.03868e-19
0.000127658 -4.45045e-05 1.13903e-19
0.000127264 4.23137e-05 -1.27416e-19
0.000148177 -7.98731e-05 -1.83088e-20
0.000151591 7.89488e-05 -1.80448e-19
0.000349142 0.00042956 1.04895e-19
0.000431633 0.00034949 -4.74562e-20
-8.79468e-05 -2.07496e-05 -7.3505e-20
-9.35457e-05 2.30615e-05 -1.67205e-19
-3.60282e-05 -0.000215812 2.10013e-19
3.69789e-05 0.000216257 1.31672e-19
-9.82606e-05 0.000143337 6.04184e-20
-0.000105649 -7.64548e-05 1.0379e-19
9.97036e-05 -0.00012728 2.45259e-19
9.35542e-05 0.000101081 5.47757e-20
0.000125506 3.97836e-05 3.36763e-19
0.000112653 -8.11447e-05 1.30286e-19
-1.5897e-05 -0.0001486 -5.32148e-20
0.000137414 2.6554e-05 1.98163e-19
-0.000173332 -2.74208e-05 -4.97811e-21
-2.53193e-05 0.000140176 -3.00234e-20
0.000228081 8.56495e-05 1.20726e-19
0.000178436 -0.000107941 1.44823e-19
-0.000110743 -7.11566e-05 2.72965e-20
-0.00011534 5.82368e-05 9.09495e-20
2.22999e-06 0.000131756 -5.37224e-20
1.96774e-05 -0.000135442 1.64798e-21
3.64795e-05 -0.000145819 1.30999e-19
1.40159e-05 0.000126718 1.50219e-19
0.000114896 1.3341e-05 2.78001e-19
6.68891e-05 -7.9062e-05 1.17184e-19
-1.55436e-05 -7.53975e-05 5.27709e-20
-2.41788e-05 7.26707e-05 1.00674e-19
-0.000197711 0.000134042 -7.25536e-20
-0.000172142 -0.000102624 9.87968e-20
0.000328417 -0.000166313 4.02484e-19
0.0001796 0.000252681 1.90518e-19
0.000228081 8.56495e-05 4.38397e-19
0.000178436 -0.000107941 4.4004e-20
0.000105586 5.4881e-05 2.30524e-19
0.000105223 -9.23572e-05 2.712e-19
-8.91096e-05 4.17565e-05 8.89766e-20
-8.76784e-05 -4.57309e-05 6.37634e-20
0.000124723 5.24052e-05 3.17772e-19
0.00012464 -7.47009e-05 1.99915e-19
5.50531e-05 -0.000187481 5.03689e-20
3.67961e-05 0.000213995 -3.33522e-19
-8.66273e-05 2.04331e-05 7.17529e-20
-8.58031e-05 -2.74398e-05 -7.77334e-22
2.57897e-06 -0.00031487 -3.80471e-21
3.0857e-05 0.000303245 -1.45785e-19
0.000313692 -5.50327e-06 3.04702e-19
-0.000301235 -4.4648e-05 2.93534e-20
0.000143868 0.000133985 2.43443e-19
0.000117132 -0.000140472 1.24112e-19
-0.000112444 6.53499e-05 8.69314e-20
-0.000143149 -2.6529e-05 5.85411e-20
-0.000149094 1.95064e-05 1.79482e-19
-0.000114265 -7.37292e-05 1.2171e-19
0.000108791 -0.000171178 9.42073e-20
0.000102594 0.000151235 -1.09679e-19
0.000154166 -9.68821e-05 1.43886e-19
-9.82606e-05 0.000143337 1.68839e-21
-1.78886e-05 -0.000143435 7.54461e-20
0.000152747 7.43102e-05 3.18486e-19
-0.00010259 8.35888e-05 9.65689e-20
-3.72834e-05 -0.000103571 9.5626e-20
-2.62907e-05 0.000278342 2.56719e-19
1.1881e-05 -0.000231524 6.72909e-20
0.000198794 0.000198314 4.61176e-19
0.000164451 -0.000188988 5.04093e-20
1.2557e-05 -4.69875e-05 1.1934e-19
-1.8597e-05 0.000159123 1.31237e-19
-1.11515e-05 -0.000152244 -8.64004e-20
3.96365e-05 -9.20856e-05 9.17268e-20
3.13508e-05 9.04179e-05 -6.79408e-20
4.19183e-06 -0.000127714 4.56691e-20
-7.67187e-06 0.000123893 1.98029e-19
-0.000172142 -0.000102624 1.44211e-19
3.64795e-05 -0.000145819 6.48019e-20
1.40159e-05 0.000126718 7.16107e-20
-0.000197711 0.000134042 -5.53385e-20
1.76085e-05 3.5278e-05 1.45218e-19
4.86183e-05 -7.92837e-05 1.58003e-19
-1.11515e-05 -0.000152244 -7.32757e-20
-8.91096e-05 4.17565e-05 7.68966e-20
0.00022601 8.62943e-05 1.352e-19
0.00017175 -0.000110025 1.01364e-19
0.000152747 7.43102e-05 3.97285e-19
9.77263e-05 0.00010517 4.63538e-19
8.58475e-05 -0.000120999 1.90506e-19
0.000295566 9.47728e-05 8.17473e-20
0.000228081 8.56495e-05 1.65809e-19
0.00021408 -8.45863e-05 1.2824e-19
0.000178436 -0.000107941 1.27416e-19
-1.55436e-05 -7.53975e-05 -1.75167e-20
-2.41788e-05 7.26707e-05 1.02101e-19
0.000105586 5.4881e-05 3.0257e-19
0.000105223 -9.23572e-05 1.9221e-19
0.000144828 0.000271017 -1.08307e-19
0.000140964 -0.000234362 3.37803e-20
0.000154166 -9.68821e-05 1.66427e-19
0.000114896 1.3341e-05 1.99915e-19
-9.2208e-05 2.58503e-05 2.83032e-20
-0.000297854 -7.98971e-06 9.37635e-21
-0.000307007 4.52218e-06 1.83967e-19
-2.3156e-05 7.91057e-05 2.40646e-19
-1.35401e-05 -8.54131e-05 1.09084e-19
-0.000114265 -7.37292e-05 6.0839e-20
7.09234e-05 6.82792e-05 2.13698e-19
8.18076e-05 -0.000101406 7.60641e-20
2.57897e-06 -0.00031487 3.46203e-20
3.0857e-05 0.000303245 -3.70021e-20
-0.000301235 -4.4648e-05 -4.63306e-20
0.000313692 -5.50327e-06 8.10974e-20
-0.00010847 6.40968e-05 -1.99972e-20
2.08595e-05 8.56864e-05 2.21798e-19
1.79576e-05 -9.56065e-05 9.97101e-21
-0.000437983 0.000353424 -1.65493e-20
-1.90909e-05 -0.000292319 -5.49541e-20
0.000292164 1.44848e-05 1.8885e-19
-2.41788e-05 7.26707e-05 -1.14037e-19
-1.55436e-05 -7.53975e-05 -3.06414e-20
-7.67187e-06 0.000123893 1.3164e-19
4.19183e-06 -0.000127714 3.96291e-20
-9.2208e-05 2.58503e-05 1.33543e-19
3.64795e-05 -0.000145819 1.25673e-19
1.40159e-05 0.000126718 7.55098e-20
-0.000172142 -0.000102624 -2.50857e-20
0.000143868 0.000133985 4.62435e-19
0.000117132 -0.000140472 2.78857e-19
9.37837e-05 -4.20915e-05 3.39783e-19
9.35108e-05 -3.33527e-05 1.08371e-19
-0.000114265 -7.37292e-05 1.66793e-19
-8.58031e-05 -2.74398e-05 5.97623e-21
-8.66273e-05 2.04331e-05 9.6244e-20
-8.91096e-05 4.17565e-05 7.56606e-20
0.000442137 -0.000349966 8.7809e-20
2.57897e-06 -0.00031487 9.45163e-20
7.11127e-06 0.000274926 -1.00425e-19
0.000313692 -5.50327e-06 3.36113e-19
0.000108791 -0.000171178 1.04669e-19
0.000102594 0.000151235 1.64336e-19
0.000105586 5.4881e-05 1.12682e-19
0.000105223 -9.23572e-05 2.77049e-19
-0.000197711 0.000134042 3.1973e-20
0.000125506 3.97836e-05 1.89294e-19
0.000112653 -8.11447e-05 3.09712e-19
0.000154166 -9.68821e-05 1.70518e-19
0.000152747 7.43102e-05 2.65604e-19
-0.00035408 0.000433999 1.407e-19
-0.000437983 0.000353424 -1.30301e-19
-8.58031e-05 -2.74398e-05 3.43665e-20
-8.66273e-05 2.04331e-05 2.33774e-19
5.50531e-05 -0.000187481 2.39283e-20
3.67961e-05 0.000213995 2.50696e-19
1.36338e-05 -1.72086e-06 8.03053e-20
1.53986e-05 -2.08002e-06 -7.78481e-20
6.94284e-06 -1.00725e-06 1.05098e-19
1.5366e-05 2.06431e-06 -1.97878e-19
2.09426e-05 -2.77269e-06 2.72286e-19
2.09784e-05 2.75547e-06 -2.19383e-20
1.77837e-05 -4.52733e-06 -8.87387e-20
1.24375e-05 -1.40772e-06 -6.10916e-20
1.21986e-05 -1.20825e-06 1.24197e-20
2.20364e-05 1.94124e-06 7.78947e-20
3.5407e-05 -1.10902e-05 6.21535e-20
3.54317e-05 1.10918e-05 7.94027e-20
-5.71759e-06 -1.2315e-05 5.15224e-21
-7.21364e-06 -4.47506e-06 6.72909e-20
2.26196e-05 1.30547e-05 2.10147e-19
2.47565e-05 -1.16339e-05 -3.68237e-20
2.92247e-05 3.25737e-06 -7.84342e-20
1.66873e-05 4.16187e-06 -4.70325e-20
1.25297e-05 -1.45784e-06 1.15052e-19
8.98884e-06 6.34843e-06 6.47871e-20
2.82117e-05 -2.19847e-05 2.51528e-19
1.15073e-05 -5.22969e-06 -2.63188e-19
1.381e-05 -1.75799e-06 -7.1337e-21
1.53924e-05 6.33246e-07 3.83379e-20
1.42294e-05 1.01733e-06 6.15526e-20
1.62839e-05 1.93081e-07 -1.68005e-19
3.5407e-05 -1.10902e-05 2.13521e-20
3.54317e-05 1.10918e-05 -1.10155e-19
1.65002e-05 -9.24346e-07 -1.85148e-20
1.64996e-05 8.83486e-07 -1.14878e-19
1.13514e-05 1.41467e-05 1.52251e-20
1.22581e-05 -1.19974e-05 1.29374e-19
1.49558e-05 -2.83041e-06 2.24969e-19
1.49398e-05 2.78703e-06 -6.27567e-20
4.88641e-05 6.25885e-05 1.68583e-19
1.66051e-05 -5.91228e-05 1.60133e-21
-2.92736e-06 -3.2573e-05 6.14251e-20
-3.15917e-06 3.18691e-05 6.83613e-20
1.71521e-05 -3.85749e-08 5.02477e-21
1.6989e-05 -2.29116e-07 -1.03511e-20
1.39501e-05 -3.25316e-09 -1.86036e-19
1.33641e-05 -1.54711e-08 6.51268e-20
2.20352e-05 -1.8315e-05 2.6111e-19
2.20422e-05 1.8359e-05 2.67889e-20
6.03016e-06 1.36876e-06 9.55941e-20
-4.71266e-05 -3.32279e-05 8.95945e-20
-4.69562e-05 3.32079e-05 7.15151e-20
7.86622e-06 -1.1392e-06 7.11901e-20
1.64386e-05 -1.7813e-06 -1.1204e-19
1.64743e-05 1.76851e-06 -1.09963e-19
1.37811e-05 -1.87795e-06 -7.92582e-21
1.36338e-05 -1.72086e-06 1.75606e-19
1.95008e-05 4.22628e-06 -1.00961e-19
1.37878e-05 1.92758e-06 -2.19166e-19
-1.07614e-05 1.19709e-05 8.48862e-20
9.29087e-05 1.34472e-05 -1.55458e-19
2.33797e-05 8.85835e-05 1.04828e-19
4.97406e-05 -9.29303e-05 2.75025e-20
3.02601e-05 -2.85967e-05 3.08555e-19
3.02806e-05 2.86133e-05 9.49994e-20
1.45874e-06 4.50951e-06 2.11067e-19
4.67858e-05 8.62804e-05 -2.18279e-20
5.08144e-05 -8.15487e-05 6.26378e-20
5.38215e-05 -1.37996e-05 2.43086e-19
6.57513e-06 -7.21806e-06 -1.36119e-19
3.01138e-05 -5.51231e-06 1.86187e-19
1.74987e-05 -4.2176e-06 -3.43027e-20
1.42294e-05 1.01733e-06 6.27886e-20
2.92247e-05 3.25737e-06 -4.1532e-20
1.66873e-05 4.16187e-06 1.5565e-19
5.93166e-06 2.86549e-05 -3.74416e-20
1.381e-05 -1.75799e-06 2.99597e-20
9.07206e-06 3.36269e-07 -8.13353e-20
5.08144e-05 -8.15487e-05 5.33491e-21
1.13514e-05 1.41467e-05 3.4581e-20
3.60483e-05 -1.08905e-05 1.12563e-19
3.6075e-05 1.08914e-05 -2.30639e-20
1.37878e-05 1.92758e-06 -1.26529e-19
1.39547e-05 -1.32704e-05 2.18453e-19
1.38991e-05 1.32819e-05 -8.53152e-20
4.66347e-05 -1.40599e-05 8.26521e-20
3.5407e-05 -1.10902e-05 1.69726e-19
4.66707e-05 1.40687e-05 -1.29039e-20
3.54317e-05 1.10918e-05 -5.19469e-20
2.82117e-05 -2.19847e-05 1.60649e-19
1.65002e-05 -9.24346e-07 1.93393e-19
1.64996e-05 8.83486e-07 -1.24103e-19
0.000116949 0.000105115 8.48862e-20
-2.63217e-05 -8.02257e-05 -6.44218e-20
6.98441e-06 9.558e-07 -8.39984e-20
1.37811e-05 -1.87795e-06 3.96291e-20
1.25297e-05 -1.45784e-06 -4.78736e-20
2.5393e-05 8.97375e-06 6.55792e-20
5.93166e-06 2.86549e-05 -2.28897e-20
-0.000170865 2.73876e-05 1.23343e-19
-0.000170749 -2.79344e-05 -6.1045e-20
2.87162e-05 -1.88101e-05 1.45249e-19
7.86622e-06 -1.1392e-06 9.9058e-20
1.49615e-05 1.47798e-06 -1.51733e-19
1.71521e-05 -3.85749e-08 -6.77348e-20
1.6989e-05 -2.29116e-07 -1.22867e-19
1.33641e-05 -1.54711e-08 2.07575e-20
1.39501e-05 -3.25316e-09 -2.12668e-19
1.49684e-05 -1.50919e-06 -1.30555e-19
-1.40618e-05 -1.03165e-05 1.17779e-19
2.96056e-06 -1.12838e-05 3.85452e-19
2.96273e-06 1.10961e-05 1.14338e-19
1.28098e-05 4.62213e-06 1.58602e-20
2.92247e-05 3.25737e-06 -3.54921e-20
1.6927e-05 1.97347e-07 -6.71083e-20
1.39973e-05 -4.75694e-08 -1.89064e-19
2.82117e-05 -2.19847e-05 2.52051e-19
3.01138e-05 -5.51231e-06 7.70474e-20
2.5393e-05 8.97375e-06 2.04963e-20
1.66873e-05 4.16187e-06 -8.67891e-20
1.42294e-05 1.01733e-06 7.80541e-20
2.20352e-05 -1.8315e-05 2.16028e-19
2.20422e-05 1.8359e-05 -2.31493e-21
1.79437e-05 8.9241e-06 -4.70963e-20
1.78254e-05 -8.91666e-06 -4.50659e-20
1.74987e-05 -4.2176e-06 -2.02555e-19
7.86622e-06 -1.1392e-06 3.09112e-20
6.98441e-06 9.558e-07 -8.39984e-20
-2.92736e-06 -3.2573e-05 1.34376e-19
-3.15917e-06 3.18691e-05 3.44535e-20
1.13514e-05 1.41467e-05 -2.84306e-20
1.30289e-05 4.45922e-06 3.12998e-20
1.72397e-05 6.98074e-08 -1.36453e-19
1.71521e-05 -3.85749e-08 -4.18166e-20
1.39501e-05 -3.25316e-09 -7.4947e-20
1.64386e-05 -1.7813e-06 -1.38672e-19
1.64743e-05 1.76851e-06 -2.67562e-19
1.64996e-05 8.83486e-07 -5.52429e-20
1.381e-05 -1.75799e-06 8.1605e-20
1.65002e-05 -9.24346e-07 -2.77404e-20
2.09426e-05 -2.77269e-06 1.12215e-19
2.09784e-05 2.75547e-06 -1.35882e-19
1.37811e-05 -1.87795e-06 -1.96233e-20
1.37878e-05 1.92758e-06 -2.35146e-19
1.8257e-05 1.31759e-07 -5.88917e-21
1.28098e-05 4.62213e-06 -4.78651e-20
-3.15917e-06 3.18691e-05 9.96247e-21
-2.92736e-06 -3.2573e-05 9.58553e-20
4.88641e-05 6.25885e-05 7.63276e-20
1.66051e-05 -5.91228e-05 4.13579e-20
-9.30322e-05 0.000151438 -3.48103e-20
-0.000108987 -7.11577e-05 -1.37062e-19
9.43445e-05 -0.000100035 -8.05027e-20
9.96617e-05 0.000126823 -4.4301e-21
0.000112367 8.12108e-05 -1.02545e-19
0.000125378 -3.99757e-05 1.48594e-19
2.6393e-05 -0.000141784 -1.71603e-19
0.000137346 4.64983e-05 -5.80887e-20
-0.000175626 -2.31869e-05 -1.41652e-19
-1.52254e-05 0.000148795 2.10039e-21
0.000178049 0.000107855 6.23447e-20
0.000228078 -8.57819e-05 1.94043e-19
-0.000114294 -6.75813e-05 2.69716e-20
-0.000111575 6.14059e-05 -3.63565e-20
2.02816e-05 0.000135654 1.02664e-19
-1.69657e-06 -0.000131774 9.97863e-20
-1.42321e-05 -0.00013054 1.0291e-19
3.69661e-05 0.000145664 3.4993e-20
0.000112617 3.19917e-05 -8.07662e-21
7.12888e-05 -6.01519e-05 3.07285e-20
-1.70287e-05 7.43891e-05 5.67571e-20
2.40495e-05 -7.19312e-05 -5.95478e-20
-0.000195809 0.00014184 -3.67366e-20
-0.000174379 -9.51166e-05 -4.41315e-20
0.000323454 -0.000149459 -4.50898e-19
0.000185699 0.000269644 -1.13237e-19
0.000178049 0.000107855 1.11327e-19
0.000228078 -8.57819e-05 -4.30696e-20
0.000105016 9.22792e-05 6.52628e-20
0.000105912 -5.5325e-05 8.45612e-20
-8.69499e-05 4.46137e-05 -2.27362e-19
-9.05072e-05 -4.15561e-05 -1.63344e-19
0.000124855 7.47015e-05 -8.54171e-20
0.000124755 -5.24134e-05 3.54602e-20
5.51622e-05 0.000187658 5.62581e-20
-3.63143e-05 -0.000213422 5.15816e-20
-8.14078e-05 2.36367e-05 6.374e-20
-8.82209e-05 -2.13931e-05 9.47297e-20
-3.87108e-06 -0.000298467 -1.70866e-19
3.51361e-05 0.000317457 -2.14776e-19
0.000312334 1.23321e-05 -2.33988e-19
-0.000300961 -3.68524e-05 -1.75966e-19
0.000116966 0.00014004 -1.34573e-19
0.000143816 -0.000134433 9.88116e-20
-0.000110069 6.98294e-05 -1.34423e-19
-0.000148604 -1.95462e-05 1.12429e-19
-0.000144016 2.271e-05 1.93707e-20
-0.000117212 -6.99821e-05 -1.11303e-19
0.000101395 -0.000149164 -3.27418e-19
0.000110083 0.000170514 3.69318e-21
0.000153457 -7.39373e-05 -1.59691e-19
-9.30322e-05 0.000151438 -3.74735e-20
-2.83115e-05 -0.00013445 -4.02516e-19
0.000153351 9.69707e-05 4.55735e-20
-3.70616e-05 0.000103586 2.93292e-21
0.000103145 -8.3993e-05 4.44797e-20
2.7018e-05 -0.00027803 1.73941e-19
1.20679e-05 0.000231622 2.44911e-20
0.00016412 0.000188684 4.18803e-20
0.000198835 -0.000198454 3.53621e-19
1.27555e-05 -3.23232e-05 5.05664e-21
-1.74119e-05 0.000159333 -5.40388e-20
-1.23321e-05 -0.000151859 9.5095e-20
3.96436e-05 9.24982e-05 4.02238e-20
-2.9078e-05 -9.3349e-05 9.52054e-20
4.6877e-06 0.000130418 4.08184e-21
8.26281e-06 -0.000122083 4.58944e-21
-0.000174379 -9.51166e-05 -1.60547e-19
-1.42321e-05 -0.00013054 1.37149e-19
3.69661e-05 0.000145664 2.51238e-21
-8.00036e-05 -5.45267e-05 3.00209e-19
-0.000195809 0.00014184 -9.9557e-20
4.96686e-05 7.90579e-05 -5.76363e-20
-1.23321e-05 -0.000151859 -1.15385e-19
-8.69499e-05 4.46137e-05 -1.46613e-19
0.000171318 0.000109952 -1.09662e-19
0.000225969 -8.64387e-05 -2.63527e-19
0.000153351 9.69707e-05 -4.83004e-20
8.61818e-05 0.00012082 -1.75528e-19
9.72651e-05 -0.00010545 1.11858e-19
0.000213545 8.44352e-05 2.4201e-19
0.000178049 0.000107855 2.62172e-19
0.000295524 -9.48153e-05 1.29604e-19
0.000228078 -8.57819e-05 1.80535e-19
-1.70287e-05 7.43891e-05 1.63425e-19
0.000105016 9.22792e-05 -2.0628e-19
0.000105912 -5.5325e-05 1.01063e-19
0.000140967 0.000234476 5.77234e-20
-0.000144603 -0.000270571 2.9278e-20
-1.0345e-05 -2.48944e-05 1.03488e-19
0.000153457 -7.39373e-05 2.8248e-20
0.000112617 3.19917e-05 -2.13925e-20
-9.21087e-05 2.86543e-05 -1.7762e-19
-8.00036e-05 -5.45267e-05 8.65427e-20
-0.000306849 -5.41783e-06 -2.54744e-20
-0.000298248 7.0703e-06 5.99956e-21
-1.55898e-05 8.34372e-05 2.62346e-20
-0.000117212 -6.99821e-05 8.48862e-21
8.19724e-05 0.000101189 -1.85148e-20
-3.87108e-06 -0.000298467 -3.91808e-19
3.51361e-05 0.000317457 -9.71721e-21
-0.000300961 -3.68524e-05 -5.39634e-20
0.000312334 1.23321e-05 -1.09583e-19
7.07658e-05 -6.87428e-05 -1.10709e-19
-0.000103672 6.81465e-05 1.07642e-19
1.81022e-05 9.7586e-05 -2.05218e-19
2.07347e-05 -8.35283e-05 -1.51784e-20
-0.000438052 0.000360773 1.61549e-19
-1.42321e-05 -0.00013054 -1.98972e-19
-2.27867e-05 -0.000278647 3.39545e-20
0.000293578 2.97494e-05 5.58757e-21
-1.70287e-05 7.43891e-05 2.44865e-21
4.6877e-06 0.000130418 8.55446e-20
-9.21087e-05 2.86543e-05 -1.76715e-19
3.69661e-05 0.000145664 -6.90112e-20
-0.000174379 -9.51166e-05 -9.3636e-20
0.000116966 0.00014004 -1.10796e-19
0.000143816 -0.000134433 -1.02252e-19
9.31184e-05 3.34968e-05 7.35921e-20
9.49177e-05 4.2163e-05 -6.94784e-20
8.26281e-06 -0.000122083 -2.1583e-19
-0.000117212 -6.99821e-05 -9.7274e-20
-1.0345e-05 -2.48944e-05 1.57083e-19
-8.14078e-05 2.36367e-05 1.20947e-20
-8.82209e-05 -2.13931e-05 7.36154e-20
-8.69499e-05 4.46137e-05 -9.49676e-20
0.000440551 -0.000338641 -2.37142e-19
-3.87108e-06 -0.000298467 -2.91894e-19
1.3656e-05 0.000291844 -1.27044e-19
0.000312334 1.23321e-05 2.4404e-20
0.000101395 -0.000149164 -2.57322e-19
0.000110083 0.000170514 -9.01807e-20
0.000105016 9.22792e-05 -2.22399e-20
-0.000195809 0.00014184 -2.34207e-20
0.000105912 -5.5325e-05 1.90776e-20
0.000112367 8.12108e-05 -7.68181e-20
0.000125378 -3.99757e-05 -3.33046e-20
0.000153457 -7.39373e-05 -4.64612e-20
0.000153351 9.69707e-05 -7.30783e-21
-0.000360127 0.000450132 -1.41053e-19
-0.000438052 0.000360773 -6.82615e-20
-8.82209e-05 -2.13931e-05 2.93321e-19
-8.14078e-05 2.36367e-05 9.01807e-20
-3.63143e-05 -0.000213422 -3.62523e-20
5.51622e-05 0.000187658 1.29018e-19

CELL_DATA 2380
TENSORS stress float
0.0161509 2.56212 -1.83997e-11
2.56212 3.52428 8.57336e-12
-1.83997e-11 8.57336e-12 0.0933012

-1.14511 1.70475 2.277e-11
1.70475 1.73905 -1.45451e-11
2.277e-11 -1.45451e-11 -0.482914

-1.18998 1.36769 2.55256e-12
1.36769 1.58034 -6.45358e-12
2.55256e-12 -6.45358e-12 -0.493158

3.30305 0.748019 3.66092e-12
0.748019 -2.85299 -1.49963e-11
3.66092e-12 -1.49963e-11 -0.376167

4.42455 0.296521 1.4547e-11
0.296521 -1.39461 -9.68949e-12
1.4547e-11 -9.68949e-12 0.00438885

-3.79709 1.61244 7.85068e-12
1.61244 -0.870294 1.42576e-11
7.85068e-12 1.42576e-11 -1.96791

-3.86585 1.49522 2.87742e-12
1.49522 -0.904036 -1.02111e-11
2.87742e-12 -1.02111e-11 -1.95884

4.55261 -0.374872 3.01551e-11
-0.374872 -1.20951 1.57911e-11
3.01551e-11 1.57911e-11 0.0775787

2.99804 0.0623127 -7.61056e-12
0.0623127 -4.42598 2.17703e-11
-7.61056e-12 2.17703e-11 -0.621741

1.23551 2.48884 -1.86672e-11
2.48884 5.07684 -1.45979e-11
-1.86672e-11 -1.45979e-11 0.316331

1.56504 -2.66154 -3.87727e-12
-2.66154 5.34018 -1.4803e-16
-3.87727e-12 -1.4803e-16 0.416735

4.74088 2.57476 2.06194e-11
2.57476 2.00193 -1.35596e-11
2.06194e-11 -1.35596e-11 0.360692

-2.15315 -2.10977 -4.26244e-12
-2.10977 -0.32887 -2.6978e-12
-4.26244e-12 -2.6978e-12 -1.53979

-2.19575 -2.38695 -8.64595e-12
-2.38695 -0.126807 8.86306e-12
-8.64595e-12 8.86306e-12 -1.56029

-1.85392 2.42358 -1.90487e-11
2.42358 2.28219 1.7341e-11
-1.90487e-11 1.7341e-11 -0.392583

-2.65365 2.90256 5.53804e-12
2.90256 1.43674 -1.87847e-11
5.53804e-12 -1.87847e-11 -0.592687

-3.91944 -1.10364 -3.73515e-11
-1.10364 -0.98729 1.10781e-11
-3.73515e-11 1.10781e-11 -2.01285

-3.90474 -1.1914 2.16701e-12
-1.1914 -0.965059 -2.4468e-11
2.16701e-12 -2.4468e-11 -2.02684

2.25147 1.104 5.77908e-13
1.104 -1.39559 1.86116e-11
5.77908e-13 1.86116e-11 -0.277206

1.07525 0.963124 -9.07989e-12
0.963124 6.19668 7.22474e-12
-9.07989e-12 7.22474e-12 0.585473

1.18789 -0.92117 8.45376e-12
-0.92117 6.37938 -1.97025e-11
8.45376e-12 -1.97025e-11 0.63735

5.80977 0.789825 1.47901e-11
0.789825 2.24795 4.60025e-12
1.47901e-11 4.60025e-12 0.706754

0.0359798 2.86153 1.31488e-11
2.86153 2.79583 -1.81116e-11
1.31488e-11 -1.81116e-11 -0.0500309

3.941 -1.46296 -5.8721e-11
-1.46296 -0.759519 9.82792e-12
-5.8721e-11 9.82792e-12 -0.0914375

0.540497 2.62592 -1.57998e-11
2.62592 1.42687 -1.45467e-11
-1.57998e-11 -1.45467e-11 -0.116447

0.0532728 2.86055 1.34625e-11
2.86055 3.62892 -2.57228e-11
1.34625e-11 -2.57228e-11 0.0864789

3.47308 -0.618978 2.35063e-11
-0.618978 -3.06133 1.783e-11
2.35063e-11 1.783e-11 -0.362065

4.4609 2.21495 1.8198e-11
2.21495 8.67817 2.65216e-11
1.8198e-11 2.65216e-11 1.62167

2.70092 0.274602 5.30816e-11
0.274602 -4.43854 -1.40639e-11
5.30816e-11 -1.40639e-11 -0.68934

7.98249 2.21999 3.48076e-11
2.21999 5.24227 9.04314e-13
3.48076e-11 9.04314e-13 1.62524

-1.95054 0.350116 9.1746e-12
0.350116 -0.645757 3.41e-11
9.1746e-12 3.41e-11 -1.95721

-1.94883 0.120014 1.65319e-11
0.120014 -0.697841 -2.1193e-12
1.65319e-11 -2.1193e-12 -1.9644

-3.75 1.24791 2.11911e-11
1.24791 -6.05719 -8.09005e-12
2.11911e-11 -8.09005e-12 -5.93359

-3.76792 -1.19695 -4.16118e-11
-1.19695 -6.05038 -2.98482e-12
-4.16118e-11 -2.98482e-12 -5.99022

6.50086 -0.926939 4.0466e-11
-0.926939 1.60079 -1.8787e-11
4.0466e-11 -1.8787e-11 0.744973

-1.21092 2.82317 1.50287e-11
2.82317 0.920925 3.00091e-11
1.50287e-11 3.00091e-11 -0.493276

-1.19048 0.516788 -1.40638e-11
0.516788 -2.39658 2.14807e-11
-1.40638e-11 2.14807e-11 -2.10202

-1.41135 -0.469549 8.28304e-12
-0.469549 -2.54641 1.76275e-11
8.28304e-12 1.76275e-11 -2.2517

3.33451 0.0057753 -1.38723e-11
0.0057753 -4.822 9.40396e-12
-1.38723e-11 9.40396e-12 -0.567755

-0.208145 3.09622 -6.26351e-13
3.09622 3.57729 -9.34497e-12
-6.26351e-13 -9.34497e-12 0.00817018

3.595 -1.89405 -4.0802e-11
-1.89405 0.922702 3.24661e-11
-4.0802e-11 3.24661e-11 0.215041

3.51595 -0.182353 -1.66662e-11
-0.182353 -4.82328 3.86512e-12
-1.66662e-11 3.86512e-12 -0.484342

0.0335852 -2.86741 -2.00847e-11
-2.86741 2.94656 -1.52214e-11
-2.00847e-11 -1.52214e-11 -0.0436941

0.0388297 -2.45735 1.30036e-11
-2.45735 3.59422 4.52794e-11
1.30036e-11 4.52794e-11 0.10396

-2.39279 3.2633 4.19054e-12
3.2633 1.71928 7.80339e-12
4.19054e-12 7.80339e-12 -0.546879

2.92881 -3.05998 3.81023e-11
-3.05998 1.787 2.94312e-11
3.81023e-11 2.94312e-11 0.15268

4.02852 6.24974 4.70823e-12
6.24974 8.33172 -1.32506e-11
4.70823e-12 -1.32506e-11 1.98643

7.84215 6.17571 -3.28149e-11
6.17571 4.48471 9.0797e-12
-3.28149e-11 9.0797e-12 1.98159

-3.42673 -2.91777 -2.13379e-11
-2.91777 0.199097 1.99413e-11
-2.13379e-11 1.99413e-11 -1.22381

5.78579 2.62204 -4.23479e-11
2.62204 11.0578 7.29742e-12
-4.23479e-11 7.29742e-12 2.62486

10.0035 2.34995 2.60165e-11
2.34995 6.17059 -2.71242e-11
2.60165e-11 -2.71242e-11 2.49553

-2.46919 -2.04655 2.62959e-11
-2.04655 -0.697924 1.30986e-11
2.62959e-11 1.30986e-11 -1.77826

-2.47936 2.03889 -3.6122e-11
2.03889 -0.721446 -3.48718e-11
-3.6122e-11 -3.48718e-11 -1.7782

2.49384 0.0589727 2.71658e-11
0.0589727 -2.04132 -4.85835e-12
2.71658e-11 -4.85835e-12 -0.211439

-2.76598 -1.78307 -1.73202e-12
-1.78307 -1.54983 1.57004e-11
-1.73202e-12 1.57004e-11 -2.01141

-2.77376 1.77758 -2.92826e-11
1.77758 -1.55748 -3.08337e-12
-2.92826e-11 -3.08337e-12 -2.00758

-1.73027 2.8615 -1.49074e-11
2.8615 2.60745 -1.84019e-11
-1.49074e-11 -1.84019e-11 -0.347439

-2.25865 1.1703 4.93198e-11
1.1703 -5.84194 9.72914e-12
4.93198e-11 9.72914e-12 -4.69074

-2.24827 -1.16158 3.44845e-11
-1.16158 -5.88352 1.87825e-11
3.44845e-11 1.87825e-11 -4.7266

-1.48008 -2.36207 -1.05915e-12
-2.36207 -0.247695 7.03273e-12
-1.05915e-12 7.03273e-12 -0.949388

-1.50429 2.34767 5.23059e-11
2.34767 -0.261316 2.93345e-11
5.23059e-11 2.93345e-11 -0.948874

5.16874 -2.54109 1.2045e-11
-2.54109 1.82773 -4.4319e-11
1.2045e-11 -4.4319e-11 0.431087

-5.3034 1.14224 1.26486e-12
1.14224 -2.32967 -3.62189e-11
1.26486e-12 -3.62189e-11 -4.52089

-5.31438 0.903285 2.54006e-12
0.903285 -2.296 5.20175e-12
2.54006e-12 5.20175e-12 -4.496

-0.269942 -3.1549 -3.47291e-11
-3.1549 3.58937 1.01178e-11
-3.47291e-11 1.01178e-11 -0.00225378

4.349 -2.08848 2.20862e-11
-2.08848 9.40241 1.15493e-12
2.20862e-11 1.15493e-12 1.74495

8.97991 -2.06991 -6.73732e-11
-2.06991 4.60925 -9.92932e-12
-6.73732e-11 -9.92932e-12 1.72761

-2.50748 2.49267 -6.14037e-13
2.49267 1.82966 -6.26195e-12
-6.14037e-13 -6.26195e-12 -0.635894

-2.57105 2.31776 4.06745e-11
2.31776 1.51128 -2.69734e-11
4.06745e-11 -2.69734e-11 -0.663867

-5.7069 -3.45647 6.37664e-11
-3.45647 -8.02248 -6.40561e-11
6.37664e-11 -6.40561e-11 -7.34006

-5.708 3.45547 2.29638e-10
3.45547 -8.01629 2.27038e-10
2.29638e-10 2.27038e-10 -7.33485

-2.60025 3.53275 1.09813e-11
3.53275 1.22696 -7.80244e-12
1.09813e-11 -7.80244e-12 -0.550873

0.22509 1.73574 -5.20169e-12
1.73574 -1.17444 1.23299e-11
-5.20169e-12 1.23299e-11 -0.648083

0.299159 -1.76615 1.44514e-12
-1.76615 -1.18384 1.0837e-11
1.44514e-12 1.0837e-11 -0.648533

-2.60459 3.37632 1.73409e-12
3.37632 0.520541 3.08279e-12
1.73409e-12 3.08279e-12 -0.779147

-3.30337 -3.08642 -2.59598e-11
-3.08642 0.460375 -2.04212e-11
-2.59598e-11 -2.04212e-11 -1.21263

6.14593 -0.035155 4.91399e-12
-0.035155 0.436896 -4.57763e-13
4.91399e-12 -4.57763e-13 0.432146

4.90327 1.37852 3.22261e-11
1.37852 -0.257122 -7.39322e-12
3.22261e-11 -7.39322e-12 0.181571

-0.711139 0.559645 1.57986e-11
0.559645 -4.45661 -1.89769e-11
1.57986e-11 -1.89769e-11 -2.10128

-7.04804 -0.864286 -4.83546e-11
-0.864286 -7.49355 2.254e-11
-4.83546e-11 2.254e-11 -7.88671

-6.99941 0.743794 3.66066e-12
0.743794 -7.3853 3.51578e-11
3.66066e-12 3.51578e-11 -7.8117

3.22132 2.55343 1.0453e-11
2.55343 4.5137 -5.68449e-12
1.0453e-11 -5.68449e-12 0.66858

0.915362 -2.22849 -4.52749e-12
-2.22849 -0.185178 -5.87663e-12
-4.52749e-12 -5.87663e-12 -0.417309

2.35321 1.33612 -1.05967e-12
1.33612 -0.491754 6.74359e-12
-1.05967e-12 6.74359e-12 -0.101817

-6.32435 0.730971 -2.10117e-11
0.730971 -4.26006 -1.40639e-11
-2.10117e-11 -1.40639e-11 -5.94128

-6.30642 0.623 -2.04187e-11
0.623 -4.24 3.96855e-11
-2.04187e-11 3.96855e-11 -5.94419

-0.948003 -0.409999 8.67269e-13
-0.409999 -4.48687 1.64235e-11
8.67269e-13 1.64235e-11 -2.24679

-1.30886 -0.871983 -2.49493e-11
-0.871983 1.57838 -4.43171e-12
-2.49493e-11 -4.43171e-12 -0.590232

-1.30593 -1.18603 1.44012e-11
-1.18603 1.68255 3.94869e-12
1.44012e-11 3.94869e-12 -0.588885

1.39588 -0.820109 1.44514e-12
-0.820109 -2.484 4.52728e-12
1.44514e-12 4.52728e-12 -0.46873

1.37591 0.829385 1.23298e-11
0.829385 -2.55041 -1.31243e-11
1.23298e-11 -1.31243e-11 -0.473601

4.15859 -2.53388 -1.3537e-11
-2.53388 4.08049 -2.88362e-13
-1.3537e-11 -2.88362e-13 0.715421

3.72313 0.157973 -3.44881e-11
0.157973 -0.193684 -1.26916e-11
-3.44881e-11 -1.26916e-11 0.107429

-0.177198 -1.24315 1.11261e-11
-1.24315 -2.42653 -2.38172e-11
1.11261e-11 -2.38172e-11 -1.02601

-0.218163 1.23141 7.12815e-12
1.23141 -2.41924 -6.64611e-12
7.12815e-12 -6.64611e-12 -1.02197

2.39058 -1.38658 -6.16507e-12
-1.38658 -0.376252 1.55091e-11
-6.16507e-12 1.55091e-11 -0.0846136

-0.00575783 -2.87314 2.34565e-11
-2.87314 3.76611 3.28501e-11
2.34565e-11 3.28501e-11 0.105641

1.49737 -0.922816 6.35847e-12
-0.922816 -1.91553 9.62859e-13
6.35847e-12 9.62859e-13 -0.468798

1.46466 0.931248 3.85315e-11
0.931248 -1.98968 1.69057e-11
3.85315e-11 1.69057e-11 -0.47489

2.65875 -0.605164 1.82079e-11
-0.605164 -2.05956 5.42339e-11
1.82079e-11 5.42339e-11 -0.333523

-2.28148 4.03234 3.90134e-11
4.03234 1.44167 1.97501e-11
3.90134e-11 1.97501e-11 -0.528048

2.89125 2.22153 2.01359e-11
2.22153 1.89738 1.65232e-11
2.01359e-11 1.65232e-11 0.279403

-2.80422 3.41278 5.10334e-12
3.41278 1.29044 -3.94961e-11
5.10334e-12 -3.94961e-11 -0.591144

-2.53794 3.8111 1.90243e-11
3.8111 1.67573 -7.12724e-12
1.90243e-11 -7.12724e-12 -0.519773

3.68172 1.64882 8.65382e-13
1.64882 0.0745127 -1.1874e-11
8.65382e-13 -1.1874e-11 0.00355446

-0.270972 -1.36376 1.01151e-11
-1.36376 -2.27878 -4.23809e-12
1.01151e-11 -4.23809e-12 -1.06572

2.82521 0.745721 -8.28522e-12
0.745721 -1.54599 -1.87847e-11
-8.28522e-12 -1.87847e-11 -0.216096

1.29736 2.81109 1.17526e-11
2.81109 2.03098 -9.58663e-12
1.17526e-11 -9.58663e-12 -0.0817481

0.739523 2.28182 -2.55299e-11
2.28182 -0.166052 5.58712e-12
-2.55299e-11 5.58712e-12 -0.449054

-3.17898 0.197596 -9.51178e-13
0.197596 1.06398 7.41807e-12
-9.51178e-13 7.41807e-12 -1.03369

-3.14926 0.312562 1.87368e-11
0.312562 1.07358 -2.19639e-11
1.87368e-11 -2.19639e-11 -1.0309

4.58962 -2.86568 1.4211e-11
-2.86568 2.31518 -1.81608e-11
1.4211e-11 -1.81608e-11 0.4053

-2.63484 -3.40284 1.41622e-11
-3.40284 0.520527 -3.89196e-11
1.41622e-11 -3.89196e-11 -0.784534

1.37209 -3.35905 2.46177e-11
-3.35905 3.66054 -6.60431e-11
2.46177e-11 -6.60431e-11 0.210164

1.38419 3.44054 -1.2478e-11
3.44054 3.6166 -6.28636e-11
-1.2478e-11 -6.28636e-11 0.208486

2.13595 -1.24998 1.83083e-12
-1.24998 -0.931727 2.40881e-13
1.83083e-12 2.40881e-13 -0.265075

1.85799 -0.186585 9.24777e-12
-0.186585 -5.69476 -1.09323e-11
9.24777e-12 -1.09323e-11 -1.25224

2.0171 0.208879 1.15601e-11
0.208879 -5.50345 -1.81576e-11
1.15601e-11 -1.81576e-11 -1.15732

-0.660787 1.82559 -4.09352e-12
1.82559 3.8453 2.92879e-11
-4.09352e-12 2.92879e-11 -0.093304

0.629006 -2.76212 9.92299e-12
-2.76212 1.45117 -2.01348e-11
9.92299e-12 -2.01348e-11 -0.111613

-0.463683 -0.0616421 8.18928e-12
-0.0616421 6.08492 2.31282e-12
8.18928e-12 2.31282e-12 0.187405

-0.393044 0.135641 -4.66064e-12
0.135641 6.24297 1.92365e-13
-4.66064e-12 1.92365e-13 0.235237

5.91652 -0.0221486 2.3991e-11
-0.0221486 0.474911 -9.53813e-12
2.3991e-11 -9.53813e-12 0.327868

4.21375 2.69064 2.51454e-11
2.69064 4.27296 6.30091e-11
2.51454e-11 6.30091e-11 0.763495

2.12354 -3.15466 1.83047e-11
-3.15466 1.75642 -9.15379e-13
1.83047e-11 -9.15379e-13 -0.0245838

-8.82213 -1.55018 -3.04113e-11
-1.55018 -5.46382 6.24205e-11
-3.04113e-11 6.24205e-11 -8.21969

-8.7867 -1.43061 -1.99542e-12
-1.43061 -5.4488 -6.35693e-12
-1.99542e-12 -6.35693e-12 -8.19002

3.70535 -1.61548 2.32184e-11
-1.61548 -0.0794701 7.56206e-12
2.32184e-11 7.56206e-12 -0.0132887

-1.55973 3.74661 1.01146e-11
3.74661 2.54442 -5.00888e-12
1.01146e-11 -5.00888e-12 -0.213991

2.5585 -0.0987206 1.65687e-11
-0.0987206 -2.01605 -1.44894e-11
1.65687e-11 -1.44894e-11 -0.200844

-0.71691 -1.79654 9.47205e-14
-1.79654 3.98178 4.21977e-11
9.47205e-14 4.21977e-11 -0.0779719

-3.26754 3.35503 1.34837e-12
3.35503 0.692896 -7.3204e-12
1.34837e-12 -7.3204e-12 -1.07001

-3.52704 3.15803 6.02077e-12
3.15803 0.435926 9.64784e-14
6.02077e-12 9.64784e-14 -1.09482

-2.27781 -4.0246 -2.47569e-11
-4.0246 1.42338 1.09832e-11
-2.47569e-11 1.09832e-11 -0.539031

-2.60914 3.88148 -1.30049e-11
3.88148 1.92166 -3.92086e-11
-1.30049e-11 -3.92086e-11 -0.43711

-1.70875 3.27587 -1.20272e-12
3.27587 2.11116 2.16761e-11
-1.20272e-12 2.16761e-11 -0.264966

1.48477 0.00736479 -4.43071e-12
0.00736479 -2.89335 -1.37513e-11
-4.43071e-12 -1.37513e-11 -0.306463

2.33893 3.09585 -1.03081e-11
3.09585 1.64959 1.51245e-11
-1.03081e-11 1.51245e-11 -0.00582075

-2.80768 -3.44202 1.35824e-11
-3.44202 1.26451 2.79324e-12
1.35824e-11 2.79324e-12 -0.599377

1.70025 2.70585 -3.7282e-11
2.70585 2.93157 -5.35656e-11
-3.7282e-11 -5.35656e-11 0.19425

3.24568 -2.33658 -4.73033e-11
-2.33658 4.86468 -1.31505e-11
-4.73033e-11 -1.31505e-11 0.711833

-1.23727 -2.86046 -1.64736e-11
-2.86046 1.04091 1.09834e-11
-1.64736e-11 1.09834e-11 -0.480288

1.07934 -1.63025 2.99257e-11
-1.63025 6.33632 9.10368e-12
2.99257e-11 9.10368e-12 0.613703

1.04717 1.58917 9.38113e-12
1.58917 6.2774 4.09945e-11
9.38113e-12 4.09945e-11 0.595592

5.62439 -1.11955 -9.10472e-12
-1.11955 2.31524 -7.49064e-12
-9.10472e-12 -7.49064e-12 0.702279

1.7612 -2.77991 1.17575e-11
-2.77991 3.0008 -7.48564e-11
1.17575e-11 -7.48564e-11 0.207403

-0.342623 0.430968 8.694e-12
0.430968 3.95448 -1.41618e-11
8.694e-12 -1.41618e-11 0.098102

-0.350494 -0.00472666 -7.10525e-13
-0.00472666 3.90155 -7.03245e-12
-7.10525e-13 -7.03245e-12 0.089387

2.70258 -3.20904 3.17894e-12
-3.20904 4.72343 1.27169e-11
3.17894e-12 1.27169e-11 0.498966

2.36038 3.24871 5.1255e-11
3.24871 4.64988 4.41774e-11
5.1255e-11 4.41774e-11 0.429803

1.53224 -0.285852 -7.70591e-12
-0.285852 -3.43841 1.8253e-11
-7.70591e-12 1.8253e-11 -0.501156

1.52909 0.299707 -3.25589e-11
0.299707 -3.45363 5.61104e-12
-3.25589e-11 5.61104e-12 -0.499165

-1.55647 3.53139 1.49377e-12
3.53139 2.25361 2.78407e-11
1.49377e-12 2.78407e-11 -0.2549

-3.35243 -3.21351 3.80418e-12
-3.21351 0.703435 5.58698e-12
3.80418e-12 5.58698e-12 -0.956884

-1.49299 2.33837 -1.59901e-11
2.33837 -0.257044 2.27337e-11
-1.59901e-11 2.27337e-11 -0.850238

6.60506 2.58937 -2.25452e-11
2.58937 3.23015 9.03189e-12
-2.25452e-11 9.03189e-12 1.00203

-0.701186 2.21538 1.20897e-11
2.21538 4.45239 6.74349e-13
1.20897e-11 6.74349e-13 0.00685714

-1.20233 1.54465 -1.26192e-11
1.54465 -1.38385 2.66343e-11
-1.26192e-11 2.66343e-11 -1.2807

-1.17779 -1.55587 4.48878e-11
-1.55587 -1.36242 1.19416e-11
4.48878e-11 1.19416e-11 -1.27922

0.519734 -2.10911 -1.24265e-11
-2.10911 0.104871 1.25279e-12
-1.24265e-11 1.25279e-12 -0.393748

0.480776 2.09255 -1.11747e-11
2.09255 0.081046 -2.91882e-11
-1.11747e-11 -2.91882e-11 -0.39756

7.28719 0.691934 -1.86199e-11
0.691934 15.5965 7.41777e-12
-1.86199e-11 7.41777e-12 3.83123

14.6634 0.716235 -2.42831e-11
0.716235 8.06235 -1.84623e-11
-2.42831e-11 -1.84623e-11 3.80107

-0.919877 -2.10208 -1.27761e-12
-2.10208 4.41944 5.68418e-11
-1.27761e-12 5.68418e-11 -0.039948

-3.50862 -1.67697 7.43612e-11
-1.67697 -3.06682 -9.305e-11
7.43612e-11 -9.305e-11 -3.4813

-3.51664 1.68244 5.72148e-11
1.68244 -3.06671 8.21646e-11
5.72148e-11 8.21646e-11 -3.47713

1.09846 2.57345 -2.4949e-11
2.57345 1.21166 4.91286e-11
-2.4949e-11 4.91286e-11 -0.0963173

7.616 1.41058 -5.16676e-11
1.41058 2.08646 1.80516e-11
-5.16676e-11 1.80516e-11 0.977487

3.72482 -0.268362 6.16544e-12
-0.268362 -0.177562 -2.34182e-11
6.16544e-12 -2.34182e-11 0.108152

-2.69684 -1.84926 -2.37466e-11
-1.84926 1.3225 2.3699e-11
-2.37466e-11 2.3699e-11 -0.797968

-2.6051 -2.0229 2.82941e-12
-2.0229 1.44893 1.55096e-11
2.82941e-12 1.55096e-11 -0.795102

1.67174 -3.05821 -4.47472e-11
-3.05821 2.79892 -6.48851e-11
-4.47472e-11 -6.48851e-11 0.116411

-2.63235 -3.89788 -1.50262e-11
-3.89788 1.93448 -2.26371e-11
-1.50262e-11 -2.26371e-11 -0.447611

1.14523 -2.60127 8.18908e-12
-2.60127 1.29847 -1.74372e-11
8.18908e-12 -1.74372e-11 -0.0811152

-3.0094 3.73371 -1.70507e-11
3.73371 1.26764 -1.13679e-11
-1.70507e-11 -1.13679e-11 -0.533822

-2.38647 2.69988 -3.14219e-12
2.69988 -0.217122 7.2247e-12
-3.14219e-12 7.2247e-12 -1.60584

-2.32929 2.45266 1.76776e-11
2.45266 -0.506175 2.60092e-11
1.76776e-11 2.60092e-11 -1.59443

-1.63567 -3.54692 7.27252e-12
-3.54692 2.27154 -6.74794e-13
7.27252e-12 -6.74794e-13 -0.27079

-1.57109 3.20157 2.89e-11
3.20157 1.8344 1.57034e-11
2.89e-11 1.57034e-11 -0.293214

3.89992 2.21571 8.33496e-12
2.21571 0.541505 2.19179e-11
8.33496e-12 2.19179e-11 0.120833

-2.61261 4.10859 -1.37751e-11
4.10859 1.70564 -7.0336e-12
-1.37751e-11 -7.0336e-12 -0.434712

-1.91936 -2.51103 3.22965e-11
-2.51103 2.35768 -2.88049e-11
3.22965e-11 -2.88049e-11 -0.392871

-1.68147 0.97798 2.30717e-11
0.97798 3.46396 -3.30441e-11
2.30717e-11 -3.30441e-11 -0.280178

-0.65322 2.98103 -5.81845e-11
2.98103 0.658154 -5.7823e-12
-5.81845e-11 -5.7823e-12 -0.505551

-1.46723 1.25646 2.11935e-11
1.25646 3.48938 -1.01146e-11
2.11935e-11 -1.01146e-11 -0.24324

-3.03578 -3.48709 -9.48794e-12
-3.48709 1.0003 -2.51423e-11
-9.48794e-12 -2.51423e-11 -0.912204

5.74922 -2.99445 1.23438e-11
-2.99445 6.08017 2.31715e-11
1.23438e-11 2.31715e-11 1.43177

5.90357 -3.02713 -1.52727e-11
-3.02713 5.9196 1.82879e-11
-1.52727e-11 1.82879e-11 1.43675

-0.640633 -2.99877 7.61028e-12
-2.99877 0.67287 4.14148e-12
7.61028e-12 4.14148e-12 -0.508897

2.25405 -1.13289 -1.49273e-12
-1.13289 -1.35997 -2.25792e-11
-1.49273e-12 -2.25792e-11 -0.279789

-4.46993 3.55971 -1.05764e-10
3.55971 -6.08278 -9.49803e-11
-1.05764e-10 -9.49803e-11 -6.06604

-4.46962 -3.56004 -6.39596e-11
-3.56004 -6.08248 1.49395e-10
-6.39596e-11 1.49395e-10 -6.0702

-1.6795 -3.72367 3.56482e-12
-3.72367 2.50412 -9.34497e-12
3.56482e-12 -9.34497e-12 -0.246435

-4.24186 0.781356 -4.71993e-11
0.781356 -3.57 -3.59306e-11
-4.71993e-11 -3.59306e-11 -3.87815

-4.28372 -0.718122 7.71272e-13
-0.718122 -3.61208 -4.62351e-12
7.71272e-13 -4.62351e-12 -3.95207

4.03134 0.0485005 1.21379e-11
0.0485005 -3.40015 -3.33799e-11
1.21379e-11 -3.33799e-11 -0.212371

-3.00106 -3.75176 1.24262e-11
-3.75176 1.34407 -3.17955e-12
1.24262e-11 -3.17955e-12 -0.521011

4.75643 3.64864 -4.79328e-12
3.64864 5.07619 9.97247e-12
-4.79328e-12 9.97247e-12 0.953154

4.25904 3.45619 2.86529e-11
3.45619 4.95226 -4.79372e-12
2.86529e-11 -4.79372e-12 0.84518

3.36116 -2.59686 -2.27685e-12
-2.59686 8.13495 1.37298e-11
-2.27685e-12 1.37298e-11 1.26866

3.38485 2.72293 -1.19942e-11
2.72293 8.11355 -8.04586e-12
-1.19942e-11 -8.04586e-12 1.27968

7.77394 -2.16021 -1.10756e-12
-2.16021 4.21649 -1.52465e-11
-1.10756e-12 -1.52465e-11 1.36299

-2.61683 -4.1263 2.18656e-11
-4.1263 1.80851 1.7724e-11
2.18656e-11 1.7724e-11 -0.421211

1.26231 0.956839 -9.64691e-12
0.956839 8.5784 3.70481e-11
-9.64691e-12 3.70481e-11 0.958365

8.05424 1.22178 6.91402e-12
1.22178 2.24702 1.92892e-13
6.91402e-12 1.92892e-13 1.04803

-3.76589 -1.27484 -2.55014e-11
-1.27484 -1.67025 -3.14031e-11
-2.55014e-11 -3.14031e-11 -3.04941

-3.7203 -1.54286 3.4569e-11
-1.54286 -1.68426 1.01913e-10
3.4569e-11 1.01913e-10 -3.08116

2.12265 0.483914 2.40804e-12
0.483914 -1.85638 -1.27629e-11
2.40804e-12 -1.27629e-11 -0.458344

3.38143 0.0301087 -1.36801e-11
0.0301087 -5.3627 1.33291e-11
-1.36801e-11 1.33291e-11 -0.558497

0.775853 -2.35626 9.34541e-12
-2.35626 4.97358 -5.25073e-11
9.34541e-12 -5.25073e-11 0.243965

0.714904 2.30449 4.69649e-11
2.30449 4.94789 1.60915e-11
4.69649e-11 1.60915e-11 0.230885

3.89686 7.21405e-05 2.91898e-11
7.21405e-05 -3.62917 -1.07677e-11
2.91898e-11 -1.07677e-11 -0.273797

-1.8375 -2.84566 4.23828e-12
-2.84566 2.61227 -5.00966e-12
4.23828e-12 -5.00966e-12 -0.366138

-2.07092 -1.21738 -5.05692e-11
-1.21738 -2.34767 2.55281e-11
-5.05692e-11 2.55281e-11 -2.35673

-2.09515 1.21494 -1.99389e-11
1.21494 -2.35778 -3.27991e-11
-1.99389e-11 -3.27991e-11 -2.35705

-0.304556 1.67737 3.2759e-12
1.67737 -0.00590728 1.96511e-11
3.2759e-12 1.96511e-11 -0.635932

-1.65052 -3.18742 -3.63167e-11
-3.18742 1.84399 -7.99483e-12
-3.63167e-11 -7.99483e-12 -0.314782

2.28663 0.483885 1.35834e-11
0.483885 -3.83047 -2.22521e-11
1.35834e-11 -2.22521e-11 -0.735153

3.41683 2.65959 -8.238e-12
2.65959 2.92252 -1.63884e-12
-8.238e-12 -1.63884e-12 0.361624

-1.73796 -3.27443 -4.82494e-13
-3.27443 2.07001 1.65699e-11
-4.82494e-13 1.65699e-11 -0.289268

6.54127 -5.74944 1.79856e-11
-5.74944 6.74553 -4.6051e-11
1.79856e-11 -4.6051e-11 2.22634

-1.54719 -0.784702 -3.80512e-11
-0.784702 3.33396 -2.74575e-11
-3.80512e-11 -2.74575e-11 -0.282772

-1.3622 -1.07467 -1.3631e-11
-1.07467 3.36625 1.15574e-12
-1.3631e-11 1.15574e-12 -0.251826

-4.33981 -0.254062 5.55275e-12
-0.254062 -2.82958 1.88796e-11
5.55275e-12 1.88796e-11 -3.75158

-4.3045 -0.146354 -6.36913e-12
-0.146354 -2.86467 4.18063e-11
-6.36913e-12 4.18063e-11 -3.75173

0.686987 -0.892206 1.67608e-11
-0.892206 -3.04735 1.24246e-11
1.67608e-11 1.24246e-11 -0.697084

0.662585 0.893665 -1.96504e-11
0.893665 -3.05523 1.15826e-11
-1.96504e-11 1.15826e-11 -0.695023

-2.43999 -1.75625 -2.5336e-11
-1.75625 -2.03969 3.51571e-16
-2.5336e-11 3.51571e-16 -1.82778

-2.19714 1.81216 3.80504e-11
1.81216 -2.09113 1.05008e-11
3.80504e-11 1.05008e-11 -1.73919

-3.54815 -1.55835 5.85661e-11
-1.55835 -1.84547 5.78855e-13
5.85661e-11 5.78855e-13 -2.98202

-3.54756 1.62217 -4.50806e-11
1.62217 -1.82475 -2.75498e-11
-4.50806e-11 -2.75498e-11 -2.95896

-4.46374 2.42391 -4.12306e-11
2.42391 -4.6583 -1.28688e-10
-4.12306e-11 -1.28688e-10 -5.07127

-4.46259 -2.4203 -3.87253e-11
-2.4203 -4.65737 1.87347e-10
-3.87253e-11 1.87347e-10 -5.07576

-2.66707 -3.99939 -1.18471e-11
-3.99939 0.86872 -3.96871e-11
-1.18471e-11 -3.96871e-11 -0.787917

-2.66088 4.01321 -7.12867e-12
4.01321 0.822694 -5.36562e-11
-7.12867e-12 -5.36562e-11 -0.787464

1.30814 2.38879 3.85469e-13
2.38879 0.189684 1.4065e-11
3.85469e-13 1.4065e-11 -0.277312

-0.829294 -1.8845 2.28932e-12
-1.8845 2.90985 -3.72822e-11
2.28932e-12 -3.72822e-11 -0.0958635

-0.882926 -2.3523 3.06088e-11
-2.3523 3.21244 -2.03282e-11
3.06088e-11 -2.03282e-11 -0.0776678

4.58573 -2.37755 -8.96009e-12
-2.37755 3.91113 8.33459e-12
-8.96009e-12 8.33459e-12 0.77635

1.32516 -2.38501 -2.60214e-12
-2.38501 0.293745 3.12129e-11
-2.60214e-12 3.12129e-11 -0.264511

-0.802476 1.77829 3.37636e-11
1.77829 2.86836 -3.2176e-11
3.37636e-11 -3.2176e-11 -0.0953471

0.530774 3.34553 3.02495e-11
3.34553 1.80856 1.65709e-11
3.02495e-11 1.65709e-11 -0.142689

-3.41102 -3.46481 -4.32522e-11
-3.46481 0.0324747 -3.17749e-12
-4.32522e-11 -3.17749e-12 -1.16263

-3.41078 3.40111 -1.21393e-11
3.40111 -0.0120566 -4.2001e-11
-1.21393e-11 -4.2001e-11 -1.18147

0.519013 -3.39562 4.04417e-12
-3.39562 1.82554 2.89018e-11
4.04417e-12 2.89018e-11 -0.153756

1.8061 -0.336481 2.68769e-11
-0.336481 -2.09815 8.47692e-12
2.68769e-11 8.47692e-12 -0.637071

-8.5982 0.961055 -4.70067e-11
0.961055 -6.94982 7.87922e-11
-4.70067e-11 7.87922e-11 -8.48889

-8.52972 0.844958 -3.08722e-11
0.844958 -7.01154 -2.21547e-11
-3.08722e-11 -2.21547e-11 -8.47679

-1.69037 -2.98336 -1.56541e-11
-2.98336 1.81624 2.30242e-11
-1.56541e-11 2.30242e-11 -0.4771

-0.173933 1.46001 -1.59911e-11
1.46001 -2.07031 -1.27165e-11
-1.59911e-11 -1.27165e-11 -0.96794

0.793854 -0.359746 1.34905e-12
-0.359746 -4.20838 -2.43699e-11
1.34905e-12 -2.43699e-11 -1.80674

5.77264 -3.21049 -3.37101e-12
-3.21049 6.26509 -2.78474e-11
-3.37101e-12 -2.78474e-11 1.42696

5.7989 -3.13576 7.27418e-12
-3.13576 6.22766 -2.8231e-11
7.27418e-12 -2.8231e-11 1.42412

0.409129 -1.00561 1.06922e-11
-1.00561 -3.42072 -2.37438e-11
1.06922e-11 -2.37438e-11 -1.07884

0.363937 1.02239 5.78045e-12
1.02239 -3.41989 3.05824e-11
5.78045e-12 3.05824e-11 -1.07695

0.698151 0.296239 1.3776e-11
0.296239 -4.22035 1.49308e-11
1.3776e-11 1.49308e-11 -1.88483

-0.820989 2.33508 -3.76179e-11
2.33508 3.14571 -5.60695e-11
-3.76179e-11 -5.60695e-11 -0.0741682

3.49087 1.84037 4.43127e-12
1.84037 1.51332 -3.37134e-12
4.43127e-12 -3.37134e-12 0.299836

-1.31246 -2.65928 -1.70498e-11
-2.65928 0.54174 -3.99756e-11
-1.70498e-11 -3.99756e-11 -0.769177

-1.33227 2.63864 5.41375e-11
2.63864 0.530013 -1.05942e-11
5.41375e-11 -1.05942e-11 -0.768196

-7.01176 -0.48143 -2.65856e-11
-0.48143 -9.59288 -1.16372e-12
-2.65856e-11 -1.16372e-12 -8.7319

-6.92508 0.486816 3.54475e-11
0.486816 -9.19536 8.84821e-11
3.54475e-11 8.84821e-11 -8.5837

-2.57971 -3.41899 1.38708e-11
-3.41899 1.68288 1.64723e-11
1.38708e-11 1.64723e-11 -0.550666

2.47783 1.46601 -1.55111e-11
1.46601 -0.452008 -2.85147e-11
-1.55111e-11 -2.85147e-11 -0.107778

-0.413171 1.01589 1.90727e-11
1.01589 -1.6742 2.33588e-11
1.90727e-11 2.33588e-11 -1.16548

-0.379896 -1.02113 8.47537e-12
-1.02113 -1.66692 -1.03555e-11
8.47537e-12 -1.03555e-11 -1.1655

-1.74979 -2.65401 -1.04529e-11
-2.65401 1.47387 1.1078e-11
-1.04529e-11 1.1078e-11 -0.502003

-2.69502 -3.64877 1.64245e-11
-3.64877 1.37629 -1.34872e-11
1.64245e-11 -1.34872e-11 -0.501271

6.60273 -5.96128 -2.34673e-11
-5.96128 6.91919 2.26225e-11
-2.34673e-11 2.26225e-11 2.26012

-3.49382 2.48778 -1.88803e-11
2.48778 -0.00207734 -1.42567e-11
-1.88803e-11 -1.42567e-11 -1.60797

-3.5375 -2.52537 -6.19376e-11
-2.52537 0.0086555 -9.34206e-12
-6.19376e-11 -9.34206e-12 -1.61804

-2.81343 -3.16129 -1.5124e-11
-3.16129 1.39554 1.05993e-12
-1.5124e-11 1.05993e-12 -0.593542

3.59291 -1.98568 2.73594e-11
-1.98568 1.42004 1.52206e-11
2.73594e-11 1.52206e-11 0.305358

-0.256613 -1.58249 -7.89883e-12
-1.58249 -0.153155 -2.69725e-12
-7.89883e-12 -2.69725e-12 -0.69225

-2.44675 2.15348 3.99774e-11
2.15348 -0.680968 3.64136e-11
3.99774e-11 3.64136e-11 -1.46326

-2.5327 -2.23505 -1.47385e-11
-2.23505 -0.650894 -1.31006e-11
-1.47385e-11 -1.31006e-11 -1.491

1.98265 -0.32198 2.53357e-11
-0.32198 -4.21896 5.75082e-11
2.53357e-11 5.75082e-11 -0.896433

-0.885018 0.789996 -1.07877e-11
0.789996 -3.01602 -2.81259e-11
-1.07877e-11 -2.81259e-11 -1.74566

-0.849937 -0.782273 -1.71447e-11
-0.782273 -3.02493 8.66918e-12
-1.71447e-11 8.66918e-12 -1.74825

-6.75349 0.349658 -1.20112e-11
0.349658 -2.90427 -5.77969e-12
-1.20112e-11 -5.77969e-12 -6.32698

-6.72533 0.233021 -3.79384e-11
0.233021 -2.92127 3.46777e-11
-3.79384e-11 3.46777e-11 -6.32924

6.80889 0.250462 -1.86437e-11
0.250462 15.5993 1.87651e-11
-1.86437e-11 1.87651e-11 3.74949

14.4614 0.222713 1.39509e-11
0.222713 6.89127 -1.82703e-11
1.39509e-11 -1.82703e-11 3.55098

-1.98099 -3.41521 -8.57274e-12
-3.41521 1.66959 2.9669e-11
-8.57274e-12 2.9669e-11 -0.522437

-1.98028 3.40551 2.76461e-11
3.40551 1.64852 5.49098e-11
2.76461e-11 5.49098e-11 -0.518305

-2.64945 -3.88804 1.31481e-11
-3.88804 1.84916 1.47382e-11
1.31481e-11 1.47382e-11 -0.46921

5.54391 -2.80192 -5.60065e-11
-2.80192 12.0161 -2.79169e-11
-5.60065e-11 -2.79169e-11 2.80767

11.3667 -2.6785 -1.88171e-11
-2.6785 6.10448 3.64458e-11
-1.88171e-11 3.64458e-11 2.78949

-7.48913 -3.57124 -1.09227e-10
-3.57124 -4.70913 7.42677e-11
-1.09227e-10 7.42677e-11 -6.44421

-7.49192 3.57063 1.14609e-10
3.57063 -4.70729 -2.65363e-10
1.14609e-10 -2.65363e-10 -6.44068

-1.57374 -2.35907 1.99412e-11
-2.35907 -0.332039 5.97241e-12
1.99412e-11 5.97241e-12 -0.882558

0.00122683 -3.27848 -2.03273e-11
-3.27848 2.28234 1.85935e-11
-2.03273e-11 1.85935e-11 -0.10811

-1.84103 -3.4512 1.74356e-11
-3.4512 0.765074 -2.11e-11
1.74356e-11 -2.11e-11 -0.708407

-1.85078 3.43774 -7.12674e-12
3.43774 0.747337 1.67605e-11
-7.12674e-12 1.67605e-11 -0.706876

-1.23015 -3.70325 -7.31933e-12
-3.70325 1.99243 -2.33128e-11
-7.31933e-12 -2.33128e-11 -0.323226

0.0230713 3.27947 5.6548e-11
3.27947 2.20503 1.00225e-11
5.6548e-11 1.00225e-11 -0.113014

2.68717 -1.06307 -5.69652e-12
-1.06307 8.81546 -2.02283e-12
-5.69652e-12 -2.02283e-12 1.28255

2.29361 1.28737 -2.28816e-11
1.28737 8.3108 -3.18057e-12
-2.28816e-11 -3.18057e-12 1.10571

8.12635 -0.809815 -1.73406e-11
-0.809815 3.75747 -8.98377e-12
-1.73406e-11 -8.98377e-12 1.35057

-1.19229 3.68407 2.65867e-11
3.68407 1.98234 -4.62392e-11
2.65867e-11 -4.62392e-11 -0.313037

1.37584 -0.661336 -3.13434e-13
-0.661336 9.0738 5.4919e-12
-3.13434e-13 5.4919e-12 1.09271

8.57272 -0.64057 -5.16467e-11
-0.64057 1.75104 4.64279e-12
-5.16467e-11 4.64279e-12 1.08895

-2.38929 -3.3725 -1.90728e-11
-3.3725 0.276446 1.46428e-11
-1.90728e-11 1.46428e-11 -1.07897

-2.38209 3.35312 -5.77993e-12
3.35312 0.260381 3.61233e-11
-5.77993e-12 3.61233e-11 -1.07252

-2.62121 -2.93483 -7.6194e-11
-2.93483 0.226548 6.0713e-12
-7.6194e-11 6.0713e-12 -1.2575

-2.62231 2.92326 3.02465e-11
2.92326 0.20435 -3.1209e-11
3.02465e-11 -3.1209e-11 -1.25537

5.81636 -2.81723 3.92289e-11
-2.81723 12.1444 3.33215e-13
3.92289e-11 3.33215e-13 2.9271

11.6501 -2.60614 -6.94852e-13
-2.60614 6.05947 -5.98373e-11
-6.94852e-13 -5.98373e-11 2.88312

-0.737083 3.11181 -5.69302e-11
3.11181 1.5717 -1.35857e-11
-5.69302e-11 -1.35857e-11 -0.304522

-0.721235 -3.13694 8.383e-12
-3.13694 1.61655 -1.99417e-11
8.383e-12 -1.99417e-11 -0.300278

-4.69881 -0.502925 7.20029e-12
-0.502925 -3.49461 -1.15585e-11
7.20029e-12 -1.15585e-11 -4.46988

-4.70419 -0.667143 -3.81291e-11
-0.667143 -3.44273 8.70795e-11
-3.81291e-11 8.70795e-11 -4.47035

-3.1931 -3.38666 4.43127e-12
-3.38666 0.975372 -3.01519e-11
4.43127e-12 -3.01519e-11 -1.12853

-3.20601 3.40223 -2.24434e-11
3.40223 0.944802 -1.06101e-12
-2.24434e-11 -1.06101e-12 -1.12914

-1.83253 -1.32959 -6.41529e-11
-1.32959 -3.29826 3.23673e-11
-6.41529e-11 3.23673e-11 -2.1878

-1.85145 1.32995 -9.16039e-11
1.32995 -3.28816 -1.8161e-11
-9.16039e-11 -1.8161e-11 -2.18223

-2.13256 2.80324 -2.63931e-11
2.80324 0.631932 4.84539e-11
-2.63931e-11 4.84539e-11 -0.800421

-2.17883 -2.79169 -6.93586e-12
-2.79169 0.716514 -2.19639e-11
-6.93586e-12 -2.19639e-11 -0.792853

-6.44982 -1.0486 4.74973e-11
-1.0486 -2.32111 -2.11936e-11
4.74973e-11 -2.11936e-11 -5.27967

-2.85595 -1.9135 3.25571e-11
-1.9135 -3.83149 -2.02296e-11
3.25571e-11 -2.02296e-11 -3.47344

-4.53132 -1.96578 -1.92643e-10
-1.96578 -5.30205 -1.09605e-10
-1.92643e-10 -1.09605e-10 -4.98424

-2.87538 1.92414 4.70054e-11
1.92414 -3.82481 9.64469e-13
4.70054e-11 9.64469e-13 -3.4701

-4.53711 1.97051 -3.50603e-11
1.97051 -5.3015 1.07393e-10
-3.50603e-11 1.07393e-10 -4.98066

-6.50281 -0.813746 -1.59058e-11
-0.813746 -2.23754 5.664e-11
-1.59058e-11 5.664e-11 -5.25691

-4.73926 -2.14635 -1.54139e-11
-2.14635 -4.81996 3.15939e-11
-1.54139e-11 3.15939e-11 -5.457

-4.83219 2.22001 3.69915e-11
2.22001 -4.78492 7.43641e-11
3.69915e-11 7.43641e-11 -5.43867

-5.38568 -2.78516 -1.15778e-10
-2.78516 -3.83929 7.09971e-11
-1.15778e-10 7.09971e-11 -5.39333

0.126407 -2.08127 1.17649e-09
-2.08127 -7.23087 2.22986e-10
1.17649e-09 2.22986e-10 -6.11072

0.126899 2.07974 1.41287e-09
2.07974 -7.22396 -4.51715e-10
1.41287e-09 -4.51715e-10 -6.10467

-5.39338 2.78654 8.30351e-11
2.78654 -3.84401 7.61931e-11
8.30351e-11 7.61931e-11 -5.39071

-3.146 -2.95493 6.5471e-12
-2.95493 -3.25139 2.49472e-11
6.5471e-12 2.49472e-11 -4.02095

-2.82587 -2.38241 3.59271e-11
-2.38241 -0.459865 -7.70718e-12
3.59271e-11 -7.70718e-12 -2.06806

-5.57225 -2.2752 -5.58842e-12
-2.2752 -5.58165 -7.27226e-11
-5.58842e-12 -7.27226e-11 -6.11593

-3.15159 2.95639 -1.54377e-12
2.95639 -3.26519 -4.91236e-11
-1.54377e-12 -4.91236e-11 -4.01951

-5.57421 2.27715 -1.0557e-10
2.27715 -5.57948 9.62205e-11
-1.0557e-10 9.62205e-11 -6.111

-2.82794 2.38176 3.92034e-11
2.38176 -0.478007 -1.46396e-11
3.92034e-11 -1.46396e-11 -2.06612

-3.91664 -2.45676 4.09393e-11
-2.45676 -1.59004 -3.79539e-11
4.09393e-11 -3.79539e-11 -2.84965

-3.80588 -2.00084 1.22906e-10
-2.00084 -3.05119 -1.63774e-11
1.22906e-10 -1.63774e-11 -3.8168

-3.9168 2.45506 5.92389e-11
2.45506 -1.60266 5.28853e-11
5.92389e-11 5.28853e-11 -2.84607

-3.81601 1.99799 7.32018e-12
1.99799 -3.06415 2.79323e-11
7.32018e-12 2.79323e-11 -3.81593

-1.17291 1.60965 1.42575e-11
1.60965 0.840708 3.8534e-12
1.42575e-11 3.8534e-12 -0.381682

-3.20142 -0.464708 -1.61833e-11
-0.464708 1.72095 -2.19639e-11
-1.61833e-11 -2.19639e-11 -0.485631

1.86394 -0.517964 -1.92671e-11
-0.517964 -2.84822 8.86276e-12
-1.92671e-11 8.86276e-12 -0.0275142

2.94388 0.016564 2.33129e-11
0.016564 -1.54093 -1.67633e-11
2.33129e-11 -1.67633e-11 0.534348

-3.84386 1.61469 3.73757e-11
1.61469 -1.46376 3.44869e-11
3.73757e-11 3.44869e-11 -1.91735

-5.53584 -0.702644 -1.8687e-11
-0.702644 1.10929 -8.8631e-12
-1.8687e-11 -8.8631e-12 -1.69542

2.79444 0.906569 2.23503e-11
0.906569 -1.67031 1.02121e-11
2.23503e-11 1.02121e-11 0.47328

0.488973 1.15428 -1.58925e-11
1.15428 -4.12927 3.73764e-11
-1.58925e-11 3.73764e-11 -0.707209

1.12825 2.29879 9.05772e-12
2.29879 4.36743 -2.69681e-12
9.05772e-12 -2.69681e-12 2.21788

1.75025 2.22719 1.93808e-13
2.22719 4.88271 1.90784e-11
1.93808e-13 1.90784e-11 2.44454

4.77345 2.00388 -1.66681e-11
2.00388 1.84709 1.84958e-11
-1.66681e-11 1.84958e-11 2.52335

-2.46669 1.01203 2.56231e-11
1.01203 0.186288 -2.9669e-11
2.56231e-11 -2.9669e-11 -1.38357

-2.0958 -1.9531 3.86654e-13
-1.9531 -0.996339 1.09817e-11
3.86654e-13 1.09817e-11 -1.51644

0.0112576 -2.48497 -8.14164e-16
-2.48497 0.705572 -1.5413e-11
-8.14164e-16 -1.5413e-11 0.143628

-5.52771 0.843414 2.27348e-11
0.843414 1.2428 -6.93501e-12
2.27348e-11 -6.93501e-12 -1.69594

-3.87767 -0.934477 -1.52205e-11
-0.934477 -1.5861 1.65679e-11
-1.52205e-11 1.65679e-11 -1.93172

2.62176 0.641193 -2.63973e-11
0.641193 -2.92538 -1.88795e-11
-2.63973e-11 -1.88795e-11 -0.0848261

0.514401 1.05984 4.04726e-12
1.05984 4.99929 1.34871e-11
4.04726e-12 1.34871e-11 1.82337

1.24083 0.806917 2.12891e-11
0.806917 4.7059 1.91624e-13
2.12891e-11 1.91624e-13 1.8206

5.2045 0.619021 2.77495e-11
0.619021 1.37963 2.54293e-11
2.77495e-11 2.54293e-11 2.06352

-0.0465195 2.47802 2.01342e-11
2.47802 2.77816 -8.47715e-12
2.01342e-11 -8.47715e-12 0.632624

-1.01974 -1.48654 2.35053e-11
-1.48654 2.66166 -2.6206e-11
2.35053e-11 -2.6206e-11 0.617604

1.81555 1.42925 5.39369e-12
1.42925 -3.20323 -1.81113e-11
5.39369e-12 -1.81113e-11 -0.117108

4.22787 1.68057 7.70828e-13
1.68057 6.66393 -1.42562e-11
7.70828e-13 -1.42562e-11 4.32322

1.07825 -0.640253 2.0036e-11
-0.640253 -4.73077 -2.71651e-11
2.0036e-11 -2.71651e-11 -0.618375

-1.92408 0.43253 -7.8987e-12
0.43253 -1.40293 3.84356e-11
-7.8987e-12 3.84356e-11 -1.95067

-2.98983 -0.11461 3.08249e-11
-0.11461 0.588733 1.46428e-11
3.08249e-11 1.46428e-11 -1.81623

-0.225461 2.50673 -8.09284e-12
2.50673 -4.57921 -4.23562e-12
-8.09284e-12 -4.23562e-12 -5.16523

-0.731091 -1.12322 1.3871e-11
-1.12322 -6.85111 3.81427e-11
1.3871e-11 3.81427e-11 -5.4524

-0.562653 -2.83973 1.23307e-11
-2.83973 0.763497 -3.29458e-11
1.23307e-11 -3.29458e-11 0.0592934

-0.364781 -2.39261 -3.06358e-11
-2.39261 2.52657 -2.63964e-11
-3.06358e-11 -2.63964e-11 0.597919

4.78197 -0.028029 2.89022e-11
-0.028029 0.481032 -4.47035e-11
2.89022e-11 -4.47035e-11 1.85532

-0.10517 1.55167 7.32114e-12
1.55167 -2.89269 1.50269e-11
7.32114e-12 1.50269e-11 -2.01859

-0.391449 -0.42506 6.54913e-12
-0.42506 -3.18909 -1.57992e-11
6.54913e-12 -1.57992e-11 -1.92353

0.356492 -0.251626 1.00195e-11
-0.251626 -5.4507 -1.56056e-11
1.00195e-11 -1.56056e-11 -0.856962

-1.03206 -1.81678 3.80521e-11
-1.81678 1.92082 -1.54133e-11
3.80521e-11 -1.54133e-11 0.483261

0.650842 0.353703 1.3485e-12
0.353703 -5.45935 9.05499e-12
1.3485e-12 9.05499e-12 -0.734704

2.77865 -1.78506 2.85189e-11
-1.78506 0.839999 4.62345e-12
2.85189e-11 4.62345e-12 1.01736

-0.322743 2.62596 6.74024e-12
2.62596 1.44466 -5.39531e-11
6.74024e-12 -5.39531e-11 0.495011

3.57941 1.94982 -2.6591e-11
1.94982 -0.558782 -7.7451e-13
-2.6591e-11 -7.7451e-13 1.00786

3.20289 -1.12763 1.27171e-11
-1.12763 -0.585774 -1.63764e-11
1.27171e-11 -1.63764e-11 0.90859

-0.537028 2.21424 -8.09195e-12
2.21424 2.67992 -1.61869e-11
-8.09195e-12 -1.61869e-11 0.682742

-4.08736 -1.64664 8.57352e-12
-1.64664 1.13832 2.69748e-11
8.57352e-12 2.69748e-11 -0.471289

-2.6659 2.94124 -6.93666e-12
2.94124 0.981071 -1.65699e-11
-6.93666e-12 -1.65699e-11 -0.49234

-0.0205685 -2.07261 -3.27518e-12
-2.07261 2.59123 2.11668e-12
-3.27518e-12 2.11668e-12 0.653144

-0.247374 2.72036 -1.21378e-11
2.72036 2.71654 6.35825e-12
-1.21378e-11 6.35825e-12 0.59941

12.6887 -2.29686 4.20092e-11
-2.29686 13.0714 -2.54363e-11
4.20092e-11 -2.54363e-11 13.0171

12.6772 2.63864 -2.40876e-11
2.63864 13.6336 -1.16573e-15
-2.40876e-11 -1.16573e-15 13.0755

-4.88911 2.25756 -3.39063e-11
2.25756 0.18425 1.54123e-11
-3.39063e-11 1.54123e-11 -1.28823

-3.36732 -2.63754 -2.63931e-11
-2.63754 -0.351766 -8.0909e-12
-2.63931e-11 -8.0909e-12 -1.15721

-1.87629 2.48606 3.15017e-11
2.48606 1.89665 3.2948e-11
3.15017e-11 3.2948e-11 -0.0329299

7.86325 0.849019 -1.81144e-11
0.849019 7.96221 -1.46463e-11
-1.81144e-11 -1.46463e-11 8.65156

7.75623 -0.0140128 -1.85014e-11
-0.0140128 8.61671 3.86876e-13
-1.85014e-11 3.86876e-13 8.82181

-3.11828 -1.8953 -5.81296e-11
-1.8953 -2.31335 4.4703e-11
-5.81296e-11 4.4703e-11 -2.32684

-2.86473 0.923509 1.76263e-11
0.923509 -1.62235 -4.39267e-11
1.76263e-11 -4.39267e-11 -2.28711

3.08852 -0.0546211 6.16514e-12
-0.0546211 -3.41705 5.00873e-12
6.16514e-12 5.00873e-12 -0.0969446

-3.11859 -1.76625 -2.30437e-11
-1.76625 -2.28772 -2.88964e-11
-2.30437e-11 -2.88964e-11 -2.38635

-3.07652 0.633422 -1.89755e-11
0.633422 -2.87822 -5.20306e-12
-1.89755e-11 -5.20306e-12 -2.60453

-2.79059 -1.56459 1.6956e-11
-1.56459 1.83551 4.50855e-11
1.6956e-11 4.50855e-11 -0.00495708

-1.18394 2.37047 4.61994e-12
2.37047 -3.88038 -3.77594e-11
4.61994e-12 -3.77594e-11 -4.23881

-1.03135 -1.95397 2.23483e-11
-1.95397 -6.07695 -1.15511e-12
2.23483e-11 -1.15511e-12 -4.40854

-1.68291 -1.89559 -1.15863e-12
-1.89559 -1.78779 -5.34948e-12
-1.15863e-12 -5.34948e-12 -1.07138

-1.60603 1.44238 2.06143e-11
1.44238 -1.46481 1.03094e-11
2.06143e-11 1.03094e-11 -1.14602

-5.10757 0.151111 8.28282e-12
0.151111 0.104735 3.46813e-12
8.28282e-12 3.46813e-12 -4.05233

-5.37291 1.14407 -2.69705e-11
1.14407 -2.91512 -2.50453e-11
-2.69705e-11 -2.50453e-11 -4.62037

3.92458 0.785872 2.00424e-11
0.785872 6.4341 1.71498e-11
2.00424e-11 1.71498e-11 4.39684

6.30785 0.803601 -6.55801e-12
0.803601 4.01954 -5.3905e-12
-6.55801e-12 -5.3905e-12 4.4115

-2.61285 2.36084 5.0863e-11
2.36084 1.1698 -1.27158e-11
5.0863e-11 -1.27158e-11 -0.460249

-4.10775 -1.43987 3.84988e-13
-1.43987 1.47362 7.32255e-12
3.84988e-13 7.32255e-12 -0.50706

-6.33415 -3.10841 7.3746e-11
-3.10841 -2.79458 4.27704e-11
7.3746e-11 4.27704e-11 -7.87312

-5.96727 1.8538 1.09185e-10
1.8538 -9.10851 2.58188e-11
1.09185e-10 2.58188e-11 -9.03412

2.10334 2.50442 -1.1947e-11
2.50442 0.619131 -1.54138e-11
-1.1947e-11 -1.54138e-11 0.847465

0.472718 0.961327 -2.02291e-11
0.961327 -2.81521 -7.3239e-12
-2.02291e-11 -7.3239e-12 -0.703187

0.380951 -1.25997 1.1272e-11
-1.25997 -2.82497 -1.23325e-11
1.1272e-11 -1.23325e-11 -0.62924

-0.416804 -1.35433 -1.42575e-11
-1.35433 -5.25768 2.31006e-12
-1.42575e-11 2.31006e-12 -1.94917

4.61356 0.572662 2.27348e-11
0.572662 0.384269 2.27362e-11
2.27348e-11 2.27362e-11 1.82628

-0.71068 0.175379 9.09306e-11
0.175379 -7.09932 3.23624e-11
9.09306e-11 3.23624e-11 -6.48079

-1.03901 -0.354186 -5.58669e-11
-0.354186 -2.67695 2.65862e-11
-5.58669e-11 2.65862e-11 -5.944

0.549604 3.00584 -1.92677e-11
3.00584 -0.986576 -1.34846e-11
-1.92677e-11 -1.34846e-11 0.0217439

2.65999 0.794855 -1.60867e-11
0.794855 -1.57147 1.98474e-11
-1.60867e-11 1.98474e-11 0.138419

2.65001 2.44721 5.39731e-12
2.44721 3.57337 -5.58657e-12
5.39731e-12 -5.58657e-12 2.08356

-4.85273 -1.3923 -4.85457e-11
-1.3923 -0.458975 5.78461e-12
-4.85457e-11 5.78461e-12 -5.03609

-6.2901 0.87125 3.48695e-11
0.87125 -4.80012 -2.77402e-11
3.48695e-11 -2.77402e-11 -6.01764

-0.084294 2.52486 -1.34884e-11
2.52486 -4.16537 -1.69544e-11
-1.34884e-11 -1.69544e-11 -1.90384

-1.27792 -0.792146 -4.14315e-12
-0.792146 0.727976 1.15552e-12
-4.14315e-12 1.15552e-12 -0.454581

-3.33186 0.560064 1.91701e-11
0.560064 1.76372 6.16692e-12
1.91701e-11 6.16692e-12 -0.586132

1.91103 -0.386664 -1.30015e-12
-0.386664 -4.26429 -1.65706e-11
-1.30015e-12 -1.65706e-11 -0.566659

2.20005 0.284182 1.82068e-11
0.284182 -4.43316 -7.32271e-12
1.82068e-11 -7.32271e-12 -0.572088

3.91538 -1.61174 -1.70567e-11
-1.61174 2.90648 3.27566e-11
-1.70567e-11 3.27566e-11 2.26892

3.83135 0.0828632 -3.41978e-12
0.0828632 -1.43803 9.247e-12
-3.41978e-12 9.247e-12 0.590698

0.381281 0.321988 -9.00835e-12
0.321988 -4.16466 -3.06312e-11
-9.00835e-12 -3.06312e-11 -1.30797

-0.0971938 -0.691582 2.01088e-11
-0.691582 -3.70145 -1.38738e-11
2.01088e-11 -1.38738e-11 -1.24535

2.45241 -0.943903 -3.88242e-11
-0.943903 -1.88604 6.39666e-11
-3.88242e-11 6.39666e-11 0.116557

1.77125 -0.444244 1.00423e-11
-0.444244 -3.11958 -2.67811e-11
1.00423e-11 -2.67811e-11 -0.481599

2.13836 0.190334 -1.15351e-11
0.190334 -3.12074 -2.31174e-12
-1.15351e-11 -2.31174e-12 -0.471157

1.66257 1.99087 8.47796e-12
1.99087 -2.30146 3.89164e-11
8.47796e-12 3.89164e-11 -0.0650913

1.84383 -2.64128 -2.60102e-11
-2.64128 1.56128 8.097e-12
-2.60102e-11 8.097e-12 1.12281

-2.71065 3.44194 1.72417e-11
3.44194 0.65361 -3.00547e-11
1.72417e-11 -3.00547e-11 -0.610125

-3.45093 -2.9286 9.2516e-12
-2.9286 -0.751638 -1.38716e-11
9.2516e-12 -1.38716e-11 -0.680863

-4.18177 -2.18625 2.90917e-11
-2.18625 -0.913914 8.09181e-12
2.90917e-11 8.09181e-12 -0.868264

-2.64123 3.63403 -1.48339e-11
3.63403 1.1357 1.50272e-11
-1.48339e-11 1.50272e-11 -0.484664

3.73462 1.26192 1.85005e-11
1.26192 -0.992036 2.21575e-11
1.85005e-11 2.21575e-11 0.806683

5.70066 -1.50794 2.17747e-11
-1.50794 3.9363 -3.98889e-11
2.17747e-11 -3.98889e-11 3.85106

0.296713 2.87128 4.16138e-11
2.87128 -2.70475 -6.93331e-12
4.16138e-11 -6.93331e-12 -0.689739

1.837 -0.961217 -3.7762e-11
-0.961217 -1.88581 3.84729e-13
-3.7762e-11 3.84729e-13 0.0954382

5.87069 -1.17264 2.46615e-11
-1.17264 3.4714 -4.41259e-11
2.46615e-11 -4.41259e-11 3.74257

0.618075 -2.33214 -3.48756e-11
-2.33214 -0.788108 2.46624e-11
-3.48756e-11 2.46624e-11 0.0460322

-4.56688 0.0155626 -3.50643e-11
0.0155626 2.25765 5.39683e-12
-3.50643e-11 5.39683e-12 -0.609737

-3.10187 0.361753 -9.24699e-12
0.361753 0.356888 -1.73397e-11
-9.24699e-12 -1.73397e-11 -0.797335

1.18321 2.9894 1.61871e-11
2.9894 1.28127 -2.15822e-11
1.61871e-11 -2.15822e-11 0.89735

4.50172 -1.73306 -1.76297e-11
-1.73306 1.55494 3.50698e-11
-1.76297e-11 3.50698e-11 2.33234

-2.31887 3.1857 7.6796e-13
3.1857 -1.34681 -2.27344e-11
7.6796e-13 -2.27344e-11 -0.736836

-2.15901 -3.05283 -7.89961e-12
-3.05283 -0.0605517 1.96528e-11
-7.89961e-12 1.96528e-11 -0.574257

0.812327 -2.2547 3.01594e-11
-2.2547 2.67284 -7.32208e-11
3.01594e-11 -7.32208e-11 1.12789

1.34504 -2.48637 -7.70628e-12
-2.48637 2.66002 -2.11925e-11
-7.70628e-12 -2.11925e-11 1.15859

1.63577 2.32041 2.83213e-11
2.32041 -1.75844 -1.75333e-11
2.83213e-11 -1.75333e-11 -0.0160528

0.600083 1.42835 -1.11741e-11
1.42835 -6.63587 1.34854e-11
-1.11741e-11 1.34854e-11 -1.48412

0.708256 -0.973793 -8.08992e-12
-0.973793 -7.23496 -4.08422e-11
-8.08992e-12 -4.08422e-11 -1.44136

-0.562037 1.84471 1.3006e-11
1.84471 3.40199 -1.15615e-11
1.3006e-11 -1.15615e-11 0.736573

0.577494 2.83646 -1.88849e-11
2.83646 0.0306841 -5.66419e-11
-1.88849e-11 -5.66419e-11 0.2369

-0.408403 0.266681 1.94164e-13
0.266681 5.29694 1.46452e-11
1.94164e-13 1.46452e-11 1.92581

0.330914 0.147886 1.96523e-11
0.147886 5.17191 -4.04617e-12
1.96523e-11 -4.04617e-12 1.97625

5.66238 0.120992 1.95537e-11
0.120992 0.307352 -3.42984e-11
1.95537e-11 -3.42984e-11 2.19839

1.85262 -2.13138 -5.10418e-12
-2.13138 0.36203 8.86384e-12
-5.10418e-12 8.86384e-12 0.836695

-8.61169 -1.46501 -6.1631e-12
-1.46501 -5.90117 -4.04767e-12
-6.1631e-12 -4.04767e-12 -8.26632

-0.77533 0.754007 -5.95256e-11
0.754007 -0.750464 -9.24707e-12
-5.95256e-11 -9.24707e-12 -5.90043

3.09959 2.55813 -3.71855e-11
2.55813 -0.18216 3.50662e-11
-3.71855e-11 3.50662e-11 1.03901

3.6305 -1.06515 2.72621e-11
-1.06515 -1.19457 -3.08301e-11
2.72621e-11 -3.08301e-11 0.755772

5.42222 1.79627 -1.89478e-13
1.79627 2.7638 1.77293e-11
-1.89478e-13 1.77293e-11 3.42316

-3.13055 -1.86472 3.93035e-11
-1.86472 0.673429 5.04795e-11
3.93035e-11 5.04795e-11 -0.266645

-1.68521 3.3779 -4.1422e-11
3.3779 1.74655 1.91402e-13
-4.1422e-11 1.91402e-13 -0.0582884

3.13521 -0.0496832 3.85536e-12
-0.0496832 -3.39762 3.31363e-11
3.85536e-12 3.31363e-11 -0.06659

-1.68165 1.69951 -3.27558e-11
1.69951 3.19098 -2.42795e-11
-3.27558e-11 -2.42795e-11 0.614507

-5.66405 -2.25926 1.47405e-11
-2.25926 0.192342 -2.54324e-11
1.47405e-11 -2.54324e-11 -1.30878

-3.4975 3.17083 1.07884e-11
3.17083 0.116942 -1.54129e-11
1.07884e-11 -1.54129e-11 -1.11318

2.68393 1.99025 -6.38734e-11
1.99025 3.88096 1.57968e-11
-6.38734e-11 1.57968e-11 2.1104

3.86827 2.09841 2.21726e-12
2.09841 3.50237 -2.69768e-11
2.21726e-12 -2.69768e-11 2.32909

5.4486 1.61223 8.48077e-12
1.61223 2.78204 3.85446e-11
8.48077e-12 3.85446e-11 3.39244

-2.92668 3.48773 9.34199e-12
3.48773 1.44497 -2.83218e-11
9.34199e-12 -2.83218e-11 -0.492911

-4.25185 -2.52078 3.37264e-12
-2.52078 -1.70751 3.96901e-11
3.37264e-12 3.96901e-11 -0.962851

2.77689 0.101173 -1.78702e-11
0.101173 -4.89856 -1.19443e-11
-1.78702e-11 -1.19443e-11 -0.463612

-3.40662 2.38195 -1.34861e-11
2.38195 -1.78066 1.15544e-12
-1.34861e-11 1.15544e-12 -0.97869

-2.64065 -2.97033 3.0817e-12
-2.97033 0.794906 2.79358e-11
3.0817e-12 2.79358e-11 -0.490306

-1.2019 2.88273 1.83055e-11
2.88273 -0.650401 1.50292e-11
1.83055e-11 1.50292e-11 -0.328209

0.166079 -0.624397 -1.56054e-11
-0.624397 4.68014 6.93719e-12
-1.56054e-11 6.93719e-12 1.60594

0.985211 -0.827552 8.09158e-12
-0.827552 4.58604 -1.67636e-11
8.09158e-12 -1.67636e-11 1.63693

4.6465 -0.508296 -2.38955e-11
-0.508296 0.90644 -2.5046e-11
-2.38955e-11 -2.5046e-11 1.76218

1.31186 -1.76065 1.1664e-11
-1.76065 1.28074 5.78097e-12
1.1664e-11 5.78097e-12 0.855092

-0.33474 0.306677 -1.21367e-11
0.306677 2.70558 -8.28485e-12
-1.21367e-11 -8.28485e-12 0.464303

-2.10996 0.101285 -3.29463e-11
0.101285 3.28663 -3.31408e-11
-3.29463e-11 -3.31408e-11 0.355514

2.45649 -1.97083 7.70802e-12
-1.97083 4.44159 -5.79989e-11
7.70802e-12 -5.79989e-11 2.43405

2.30098 -1.87535 -7.90301e-12
-1.87535 3.91475 2.69735e-11
-7.90301e-12 2.69735e-11 2.38044

2.91001 -0.11166 -1.52686e-11
-0.11166 -4.64642 -5.58701e-12
-1.52686e-11 -5.58701e-12 -0.459664

2.6203 0.124163 -8.88712e-12
0.124163 -4.45784 -6.93579e-12
-8.88712e-12 -6.93579e-12 -0.460869

-2.49424 -2.3293 1.02133e-11
-2.3293 -0.230566 -6.1661e-12
1.02133e-11 -6.1661e-12 -0.329385

-1.83864 3.06047 1.9265e-12
3.06047 1.66512 -1.67626e-11
1.9265e-12 -1.67626e-11 -0.136032

-5.48058 1.97414 -4.00733e-11
1.97414 0.0527111 3.46813e-12
-4.00733e-11 3.46813e-12 -1.24901

-3.28284 -2.90074 2.73574e-11
-2.90074 0.0808831 -2.35071e-11
2.73574e-11 -2.35071e-11 -0.933179

-1.02277 -2.32231 3.52588e-11
-2.32231 -1.39259 -4.58551e-11
3.52588e-11 -4.58551e-11 -0.650677

-1.62876 -1.2195 3.65902e-12
-1.2195 3.47881 -3.54519e-11
3.65902e-12 -3.54519e-11 0.701018

-1.25966 0.365553 -1.81586e-11
0.365553 -2.48373 1.68584e-11
-1.81586e-11 1.68584e-11 -1.59822

-1.70362 -1.16148 -2.91908e-11
-1.16148 -2.92491 -2.24453e-11
-2.91908e-11 -2.24453e-11 -1.65942

0.90082 -1.79304 -2.71636e-11
-1.79304 -0.465271 -6.93545e-12
-2.71636e-11 -6.93545e-12 0.181039

0.323566 -1.52228 1.33902e-11
-1.52228 -1.69579 -3.2751e-11
1.33902e-11 -3.2751e-11 -0.428761

0.617166 1.28209 -1.89785e-11
1.28209 -0.844564 -4.93222e-11
-1.89785e-11 -4.93222e-11 -0.345552

7.05532 -0.701749 -9.05973e-12
-0.701749 4.53829 7.32266e-12
-9.05973e-12 7.32266e-12 8.00105

1.22749 3.0237 5.20236e-12
3.0237 2.42309 5.00976e-11
5.20236e-12 5.00976e-11 1.00087

5.46802 1.4481 -5.26053e-11
1.4481 7.41218 -3.84256e-13
-5.26053e-11 -3.84256e-13 8.15588

-0.630934 -1.62644 1.52206e-11
-1.62644 3.26785 3.85321e-12
1.52206e-11 3.85321e-12 0.726994

-4.69014 -1.59314 4.60186e-11
-1.59314 -2.87318 -5.50984e-11
4.60186e-11 -5.50984e-11 -4.39674

-3.74966 0.638174 -1.08592e-11
0.638174 -4.43903 2.21556e-11
-1.08592e-11 2.21556e-11 -4.57093

1.1334 1.96694 5.03839e-11
1.96694 0.324526 -8.66962e-12
5.03839e-11 -8.66962e-12 0.229328

3.78571 -0.107121 8.52836e-12
-0.107121 -1.62582 -2.73608e-11
8.52836e-12 -2.73608e-11 0.565521

2.47848 2.45251 -2.89265e-12
2.45251 0.597429 -2.62034e-11
-2.89265e-12 -2.62034e-11 0.934736

-4.00747 1.18797 -6.9358e-12
1.18797 1.95735 4.20039e-11
-6.9358e-12 4.20039e-11 -0.489795

-2.6492 -1.64027 -8.86427e-12
-1.64027 0.626793 -2.31004e-12
-8.86427e-12 -2.31004e-12 -0.594661

-2.32738 2.72034 -4.35406e-11
2.72034 -0.841882 -1.16573e-11
-4.35406e-11 -1.16573e-11 -1.59768

-2.42061 -1.50591 -2.88751e-12
-1.50591 -0.259844 -3.61241e-11
-2.88751e-12 -3.61241e-11 -1.44675

-3.01929 3.7033 1.93401e-13
3.7033 1.09858 1.59915e-11
1.93401e-13 1.59915e-11 -0.524559

-5.78005 -3.50969 -2.82242e-11
-3.50969 -0.897919 1.65719e-11
-2.82242e-11 1.65719e-11 -1.03598

-2.56485 1.91943 -1.36791e-11
1.91943 1.66094 -2.38924e-11
-1.36791e-11 -2.38924e-11 -0.03891

-1.62886 0.97319 3.78602e-11
0.97319 2.61378 -3.27559e-11
3.78602e-11 -3.27559e-11 0.229059

-0.86262 -2.15364 -5.1051e-12
-2.15364 -1.21083 -2.08115e-11
-5.1051e-12 -2.08115e-11 -0.411556

-0.766854 2.27776 -1.9557e-11
2.27776 -0.545747 -4.50852e-11
-1.9557e-11 -4.50852e-11 -0.442493

1.85917 2.32247 6.73905e-13
2.32247 2.03834 4.23904e-11
6.73905e-13 4.23904e-11 0.9734

-1.89535 -2.27834 -1.25228e-11
-2.27834 1.67118 -1.9255e-13
-1.25228e-11 -1.9255e-13 -0.0412262

-2.59623 -0.404359 3.56442e-11
-0.404359 3.35558 -7.32407e-12
3.56442e-11 -7.32407e-12 0.336995

6.58038 1.64064 1.02101e-11
1.64064 7.72022 6.16499e-12
1.02101e-11 6.16499e-12 6.437

7.51633 1.6979 1.07903e-11
1.6979 6.63717 -5.3945e-12
1.07903e-11 -5.3945e-12 6.40486

2.97169 -1.96938 2.23542e-11
-1.96938 3.62738 -5.782e-12
2.23542e-11 -5.782e-12 2.23687

2.46506 -0.738083 -6.26668e-11
-0.738083 -2.91843 1.81139e-11
-6.26668e-11 1.81139e-11 -0.0761392

-5.94563 -2.47275 -9.26749e-11
-2.47275 -4.53672 1.26769e-10
-9.26749e-11 1.26769e-10 -7.41346

-3.86809 2.56829 1.60405e-10
2.56829 -7.6245 -2.42674e-11
1.60405e-10 -2.42674e-11 -7.61509

-2.19564 2.5116 -1.27156e-11
2.5116 -2.15173 2.69205e-12
-1.27156e-11 2.69205e-12 -3.32129

-3.39246 -0.65767 -2.73547e-11
-0.65767 -4.77263 2.92842e-11
-2.73547e-11 2.92842e-11 -3.86

1.37913 -0.0276885 4.8163e-12
-0.0276885 -3.59668 2.23506e-11
4.8163e-12 2.23506e-11 -0.228592

-2.83097 -3.29093 -4.62427e-12
-3.29093 0.740564 -2.8903e-12
-4.62427e-12 -2.8903e-12 -0.457187

-5.17983 3.43748 -1.94593e-11
3.43748 -1.007 -1.69567e-11
-1.94593e-11 -1.69567e-11 -1.03269

5.28476 -1.60011 -1.31005e-11
-1.60011 6.0497 -9.05483e-12
-1.31005e-11 -9.05483e-12 4.98315

5.25026 2.06361 1.21407e-11
2.06361 5.28735 2.61109e-11
1.21407e-11 2.61109e-11 4.84071

2.84421 -0.745379 -9.82607e-12
-0.745379 6.18591 -2.69266e-12
-9.82607e-12 -2.69266e-12 3.88772

3.32078 -0.91744 -1.73324e-12
-0.91744 6.0944 -2.54362e-11
-1.73324e-12 -2.54362e-11 3.73319

6.4229 -0.641428 3.95061e-11
-0.641428 3.0727 -5.29879e-11
3.95061e-11 -5.29879e-11 3.90461

2.89161 2.42792 2.1196e-11
2.42792 2.42538 -7.68829e-13
2.1196e-11 -7.68829e-13 1.98145

3.22711 0.723395 7.32148e-12
0.723395 7.32571 -6.55172e-12
7.32148e-12 -6.55172e-12 4.88582

7.01679 0.15927 -2.60144e-11
0.15927 3.29592 -4.23963e-12
-2.60144e-11 -4.23963e-12 4.78839

-3.53883 -0.288117 -4.2382e-12
-0.288117 0.341224 4.04591e-11
-4.2382e-12 4.04591e-11 -2.62928

-3.68479 -1.05684 -2.94753e-11
-1.05684 -2.307 -5.34611e-11
-2.94753e-11 -5.34611e-11 -3.06966

0.903412 -0.820976 2.65881e-11
-0.820976 -2.58741 -2.81269e-11
2.65881e-11 -2.81269e-11 -0.468936

0.751347 0.363771 -9.63318e-12
0.363771 -7.51806 -2.89046e-12
-9.63318e-12 -2.89046e-12 -1.07285

0.693416 -1.60164 -8.86398e-12
-1.60164 3.98942 -2.582e-11
-8.86398e-12 -2.582e-11 1.59093

0.349893 -1.15276 -1.01178e-11
-1.15276 3.80003 3.46745e-12
-1.01178e-11 3.46745e-12 1.5506

1.69789 0.767822 -3.27605e-12
0.767822 -3.42291 -1.09817e-11
-3.27605e-12 -1.09817e-11 -0.133788

-3.21479 -0.762305 -6.98256e-13
-0.762305 -2.73124 1.27174e-11
-6.98256e-13 1.27174e-11 -3.05708

-2.26576 -0.0115568 2.60807e-11
-0.0115568 -3.54503 1.81079e-11
2.60807e-11 1.81079e-11 -3.10161

-0.358959 -1.61993 -7.51532e-12
-1.61993 -0.980406 -4.60483e-11
-7.51532e-12 -4.60483e-11 -0.511836

-1.42464 2.68364 4.6233e-12
2.68364 -0.371916 7.32026e-12
4.6233e-12 7.32026e-12 -0.233125

-1.74122 -2.82296 2.27338e-11
-2.82296 1.28533 4.48922e-11
2.27338e-11 4.48922e-11 -0.116269

1.12992 -0.730362 3.64164e-11
-0.730362 -4.26026 -1.57993e-11
3.64164e-11 -1.57993e-11 -0.603733

-2.64938 2.25318 1.19466e-11
2.25318 0.427114 1.42599e-11
1.19466e-11 1.42599e-11 -0.284049

-1.60205 -2.99133 -1.27162e-11
-2.99133 1.22115 -1.46433e-11
-1.27162e-11 -1.46433e-11 -0.0903348

13.2939 -3.34566 -1.36837e-11
-3.34566 13.5384 2.50528e-11
-1.36837e-11 2.50528e-11 13.7079

-2.44779 0.715716 -1.56071e-11
0.715716 3.35454 -4.43155e-11
-1.56071e-11 -4.43155e-11 0.35059

-1.34095 -0.650188 2.48547e-11
-0.650188 2.41064 1.32955e-11
2.48547e-11 1.32955e-11 0.262129

-4.80403 0.352334 2.1162e-12
0.352334 1.21746 -1.15559e-12
2.1162e-12 -1.15559e-12 -3.07531

-4.281 -0.0399612 3.50614e-11
-0.0399612 -3.31268 -3.56419e-11
3.50614e-11 -3.56419e-11 -3.748

1.35907 -0.137895 -1.6617e-11
-0.137895 -4.6818 1.73402e-11
-1.6617e-11 1.73402e-11 -0.982857

1.85983 0.220859 -1.28124e-11
0.220859 -5.05965 6.54939e-12
-1.28124e-11 6.54939e-12 -0.996129

-0.975469 3.22303 4.45031e-11
3.22303 -2.59417 -7.70554e-12
4.45031e-11 -7.70554e-12 -1.49194

-1.67999 -1.83742 -2.08061e-11
-1.83742 -2.97518 -3.7759e-11
-2.08061e-11 -3.7759e-11 -1.58755

-0.487149 1.17944 -1.77221e-11
1.17944 -2.16178 -2.85141e-11
-1.77221e-11 -2.85141e-11 -2.46699

-2.01343 -0.643357 -3.62202e-11
-0.643357 -2.18767 6.55008e-12
-3.62202e-11 6.55008e-12 -2.63915

-4.90377 1.34341 -9.39748e-11
1.34341 -6.21616 -1.34832e-11
-9.39748e-11 -1.34832e-11 -6.50893

-4.56455 -3.80716 -7.04566e-13
-3.80716 -2.88413 8.09083e-11
-7.04566e-13 8.09083e-11 -5.75288

-3.29277 3.35577 -2.23006e-11
3.35577 0.161751 -2.15792e-11
-2.23006e-11 -2.15792e-11 -1.06819

-4.7924 -4.14914 -3.08728e-11
-4.14914 -2.01854 3.58421e-11
-3.08728e-11 3.58421e-11 -1.39514

1.39655 1.79429 3.32364e-11
1.79429 -1.14706 -4.81852e-12
3.32364e-11 -4.81852e-12 0.0240155

-2.48284 1.42694 -1.73405e-12
1.42694 2.144 -1.61839e-11
-1.73405e-12 -1.61839e-11 0.0256989

0.0850797 -2.32351 -3.57395e-11
-2.32351 0.0136811 -1.00146e-11
-3.57395e-11 -1.00146e-11 0.202738

-0.867036 -1.78546 -9.82769e-12
-1.78546 1.97915 4.35444e-11
-9.82769e-12 4.35444e-11 0.185312

1.20038 -1.67113 -8.76706e-12
-1.67113 -1.40156 5.54894e-11
-8.76706e-12 5.54894e-11 0.0407639

-0.897965 1.98691 4.46494e-11
1.98691 2.18552 -1.31004e-11
4.46494e-11 -1.31004e-11 0.193528

0.553096 2.82199 -3.34289e-11
2.82199 0.695406 9.63218e-12
-3.34289e-11 9.63218e-12 0.263046

-3.49107 3.72803 1.9403e-13
3.72803 -1.87158 -2.23506e-11
1.9403e-13 -2.23506e-11 -1.34623

-2.87784 -2.775 -3.46874e-12
-2.775 -0.534874 2.19627e-11
-3.46874e-12 2.19627e-11 -1.04922

1.00922 1.70124 3.15948e-11
1.70124 -2.58322 1.15726e-12
3.15948e-11 1.15726e-12 -0.624391

-0.897976 1.25701 -9.82613e-12
1.25701 -1.61047 -4.62322e-11
-9.82613e-12 -4.62322e-11 -6.13419

-8.49956 1.20154 -5.79866e-11
1.20154 -7.62269 9.49743e-11
-5.79866e-11 9.49743e-11 -8.60646

-0.0507844 -1.71959 3.1985e-11
-1.71959 -2.53398 -2.27371e-11
3.1985e-11 -2.27371e-11 -0.628367

0.115215 0.112086 2.69732e-11
0.112086 -4.60789 -5.00711e-12
2.69732e-11 -5.00711e-12 -1.81016

6.17643 -1.46066 9.8247e-12
-1.46066 7.30683 4.58616e-11
9.8247e-12 4.58616e-11 6.07692

7.07786 -1.20212 -2.58216e-11
-1.20212 5.85563 -2.37022e-11
-2.58216e-11 -2.37022e-11 5.8548

0.407585 0.134906 7.44129e-12
0.134906 -4.30796 -2.69729e-11
7.44129e-12 -2.69729e-11 -1.37528

1.2376 -0.200092 2.98382e-11
-0.200092 -4.69747 -4.10354e-11
2.98382e-11 -4.10354e-11 -1.33854

0.267043 0.346294 1.15572e-11
0.346294 -2.71792 -3.85313e-11
1.15572e-11 -3.85313e-11 -1.62558

-2.49072 -1.04655 2.07358e-11
-1.04655 2.30227 2.46613e-11
2.07358e-11 2.46613e-11 0.0880477

3.49728 1.39223 3.17909e-11
1.39223 0.467321 -2.3701e-11
3.17909e-11 -2.3701e-11 0.967591

-1.87525 -2.17126 -1.54633e-11
-2.17126 -1.79469 2.65863e-11
-1.54633e-11 2.65863e-11 -1.07472

-1.55311 1.79634 2.14315e-11
1.79634 -0.22652 3.85319e-11
2.14315e-11 3.85319e-11 -0.903878

-2.43253 0.216567 1.96472e-11
0.216567 -0.285708 2.33685e-11
1.96472e-11 2.33685e-11 -6.18859

-4.73033 2.04706 1.65655e-11
2.04706 -9.33494 -1.31904e-11
1.65655e-11 -1.31904e-11 -8.18979

1.5028 -1.36155 -3.44879e-11
-1.36155 -1.23995 1.92679e-12
-3.44879e-11 1.92679e-12 0.0964185

-0.0814825 -0.0608875 -1.43303e-11
-0.0608875 -2.87564 2.92821e-11
-1.43303e-11 2.92821e-11 -1.4726

-0.559839 -0.48107 1.5267e-11
-0.48107 -2.39658 1.27148e-11
1.5267e-11 1.27148e-11 -1.38954

-1.71026 -2.46451 -5.72217e-11
-2.46451 0.703421 3.02508e-11
-5.72217e-11 3.02508e-11 -0.40267

-3.20743 1.2761 -2.87036e-11
1.2761 0.631191 4.50835e-11
-2.87036e-11 4.50835e-11 -0.582133

-3.87356 2.35903 -5.7804e-12
2.35903 -1.1402 1.92689e-12
-5.7804e-12 1.92689e-12 -0.844291

-2.61802 -3.33953 3.02476e-11
-3.33953 0.833224 -1.40661e-11
3.02476e-11 -1.40661e-11 -0.421267

14.1561 4.26996 3.23693e-11
4.26996 13.761 -9.17266e-11
3.23693e-11 -9.17266e-11 13.9588

-3.18971 2.44823 2.1193e-11
2.44823 -0.98265 -2.6586e-11
2.1193e-11 -2.6586e-11 -1.64522

-3.03787 -1.87583 -1.54103e-12
-1.87583 -0.639708 -2.23489e-11
-1.54103e-12 -2.23489e-11 -1.5079

-3.7048 2.23584 -8.86187e-12
2.23584 0.257832 2.65892e-11
-8.86187e-12 2.65892e-11 -0.564295

-2.68364 -2.82157 -1.04048e-11
-2.82157 0.744329 2.71663e-11
-1.04048e-11 2.71663e-11 -0.453089

3.31853 -1.32831 2.96734e-11
-1.32831 -0.145511 1.04029e-11
2.96734e-11 1.04029e-11 0.861242

-0.0505188 2.41711 2.73598e-11
2.41711 -1.55994 1.77255e-11
2.73598e-11 1.77255e-11 -0.634343

-0.535125 2.59038 1.21352e-11
2.59038 -2.40328 -3.46656e-12
1.21352e-11 -3.46656e-12 -1.27274

-1.56781 -1.71416 1.32911e-11
-1.71416 -1.60753 2.582e-11
1.32911e-11 2.582e-11 -1.28579

1.2375 1.62734 2.10018e-11
1.62734 -4.54229 3.27525e-11
2.10018e-11 3.27525e-11 -0.753041

-1.08996 0.316644 -3.79271e-11
0.316644 -2.95085 3.93022e-11
-3.79271e-11 3.93022e-11 -2.11831

-0.444762 -0.463015 2.64173e-11
-0.463015 -4.02737 -2.50492e-12
2.64173e-11 -2.50492e-12 -2.25923

-6.71477 0.549194 4.71986e-11
0.549194 -3.27799 -4.5266e-12
4.71986e-11 -4.5266e-12 -6.37461

-5.66699 -0.866999 2.79326e-11
-0.866999 0.156585 1.54086e-12
2.79326e-11 1.54086e-12 -5.69547

8.21831 -0.40125 1.35018e-12
-0.40125 5.6952 -4.50922e-11
1.35018e-12 -4.50922e-11 8.36616

4.79831 -0.0841521 3.52652e-11
-0.0841521 8.17626 2.23562e-11
3.52652e-11 2.23562e-11 8.25218

-2.28261 2.79535 -3.58805e-11
2.79535 1.0341 1.71472e-11
-3.58805e-11 1.71472e-11 -0.589327

-2.78767 -2.40672 -1.23821e-11
-2.40672 -1.24051 -2.50449e-11
-1.23821e-11 -2.50449e-11 -0.833531

8.77246 1.5013 3.23744e-11
1.5013 8.62531 5.62711e-11
3.23744e-11 5.62711e-11 9.66106

8.81904 1.94107 -1.40709e-11
1.94107 8.03721 -8.7485e-11
-1.40709e-11 -8.7485e-11 9.40163

-12.4084 -3.07676 7.86531e-11
-3.07676 -2.63977 3.86441e-13
7.86531e-11 3.86441e-13 -8.62165

-8.94711 2.29817 4.09265e-11
2.29817 -4.22726 1.80319e-10
4.09265e-11 1.80319e-10 -8.25949

-0.330369 2.93838 3.10223e-11
2.93838 -1.6224 2.11961e-11
3.10223e-11 2.11961e-11 -0.531138

-2.1953 2.67746 -2.08536e-11
2.67746 -0.22055 8.70846e-11
-2.08536e-11 8.70846e-11 -0.80973

-2.29703 -2.68113 -3.43412e-11
-2.68113 -1.2587 1.65746e-11
-3.43412e-11 1.65746e-11 -0.782717

-0.133436 2.70329 -4.20019e-11
2.70329 1.27593 3.65837e-12
-4.20019e-11 3.65837e-12 0.208617

-0.492668 -2.15727 -1.67624e-11
-2.15727 0.771336 6.55402e-12
-1.67624e-11 6.55402e-12 0.247245

2.7242 -0.342153 -2.02339e-11
-0.342153 6.08356 1.00186e-11
-2.02339e-11 1.00186e-11 3.73778

3.11564 -0.694557 3.39134e-11
-0.694557 5.99757 -2.11999e-11
3.39134e-11 -2.11999e-11 3.62547

6.36676 -0.294183 4.89428e-11
-0.294183 3.19466 -5.81929e-11
4.89428e-11 -5.81929e-11 3.84124

-1.38895 3.11632 -6.06507e-12
3.11632 1.04401 7.20592e-11
-6.06507e-12 7.20592e-11 -0.175322

-1.88991 -2.41624 -2.14831e-11
-2.41624 0.0454083 -3.54521e-11
-2.14831e-11 -3.54521e-11 -0.220192

4.03024 0.482855 -4.04593e-12
0.482855 7.35485 1.5803e-11
-4.04593e-12 1.5803e-11 5.04271

7.32949 0.745914 -3.68071e-11
0.745914 4.16285 1.73465e-11
-3.68071e-11 1.73465e-11 5.11664

-3.04615 -3.08937 1.04555e-11
-3.08937 -2.26001 -6.74298e-11
1.04555e-11 -6.74298e-11 -1.45385

-2.91627 2.54457 -4.18534e-11
2.54457 -0.522879 1.92671e-11
-4.18534e-11 1.92671e-11 -1.36105

-3.09076 -2.73283 5.50529e-11
-2.73283 -1.2803 3.82194e-13
5.50529e-11 3.82194e-13 -1.50698

-3.02177 2.03156 -5.76049e-11
2.03156 -0.791481 -2.77426e-11
-5.76049e-11 -2.77426e-11 -1.6038

8.6905 -1.26895 -4.1241e-11
-1.26895 8.9672 -4.04673e-11
-4.1241e-11 -4.04673e-11 9.84278

8.67346 -1.27628 3.28561e-11
-1.27628 8.94898 9.05848e-12
3.28561e-11 9.05848e-12 9.87787

-0.909653 2.46343 -2.82222e-11
2.46343 0.82235 4.66254e-11
-2.82222e-11 4.66254e-11 -0.208743

-1.14624 -2.25669 2.69573e-12
-2.25669 -0.632902 5.00984e-12
2.69573e-12 5.00984e-12 -0.306876

-3.97028 0.645249 2.7163e-11
0.645249 -1.09443 1.38702e-11
2.7163e-11 1.38702e-11 -3.93633

-4.69122 -0.365422 7.01245e-11
-0.365422 -4.13899 -2.89923e-11
7.01245e-11 -2.89923e-11 -4.52316

-4.56793 -2.83483 -4.25761e-11
-2.83483 -0.744332 1.34925e-11
-4.25761e-11 1.34925e-11 -1.52971

-3.72056 2.66365 -2.32139e-11
2.66365 0.212831 -5.20287e-12
-2.32139e-11 -5.20287e-12 -1.47984

-2.75119 -0.592683 -2.81442e-12
-0.592683 -4.4379 2.31209e-11
-2.81442e-12 2.31209e-11 -2.90865

-1.79134 0.0557711 -7.94775e-12
0.0557711 -4.96433 1.83011e-11
-7.94775e-12 1.83011e-11 -2.88753

-1.93631 2.62392 -1.90755e-11
2.62392 -1.41438 -5.77903e-12
-1.90755e-11 -5.77903e-12 -0.880454

-1.69364 -2.57702 -1.57996e-11
-2.57702 -0.142246 2.75502e-11
-1.57996e-11 2.75502e-11 -0.621752

-2.89083 0.794522 9.77673e-12
0.794522 -5.72297 -3.22577e-11
9.77673e-12 -3.22577e-11 -4.85818

-5.31827 0.235471 3.67362e-11
0.235471 -6.75036 1.71442e-11
3.67362e-11 1.71442e-11 -6.71475

-4.22425 -0.715162 4.35392e-11
-0.715162 -4.91308 -2.04895e-11
4.35392e-11 -2.04895e-11 -4.9213

-7.92115 -0.0931129 -3.72891e-11
-0.0931129 -4.78412 -5.97178e-11
-3.72891e-11 -5.97178e-11 -6.81204

-5.94085 0.459864 1.32902e-11
0.459864 0.105662 -5.35553e-11
1.32902e-11 -5.35553e-11 -4.81164

-1.65929 2.60419 2.35028e-11
2.60419 -3.57064 2.70075e-12
2.35028e-11 2.70075e-12 -4.72012

-4.05403 -1.01904 7.70558e-12
-1.01904 -5.43951 -2.81268e-11
7.70558e-12 -2.81268e-11 -5.38997

-6.46493 -0.613107 -4.27677e-11
-0.613107 -2.8544 5.04769e-11
-4.27677e-11 5.04769e-11 -5.32963

-7.37965 1.52467 -1.30248e-10
1.52467 -5.59282 -5.65048e-10
-1.30248e-10 -5.65048e-10 -7.053

1.37806 1.54982 -2.23257e-10
1.54982 -11.2098 4.61517e-10
-2.23257e-10 4.61517e-10 -7.95023

0.111441 -1.01994 -5.17683e-10
-1.01994 -0.617567 3.10163e-10
-5.17683e-10 3.10163e-10 -6.13782

-5.31381 -3.50515 4.28455e-11
-3.50515 -2.31209 -2.8552e-10
4.28455e-11 -2.8552e-10 -5.922

-4.39563 1.97709 3.74214e-11
1.97709 -4.53225 -2.36954e-11
3.74214e-11 -2.36954e-11 -5.24872

-3.50478 1.43524 4.57056e-11
1.43524 -1.27548 -1.81104e-11
4.57056e-11 -1.81104e-11 -2.71996

-6.69365 0.421285 3.80072e-12
0.421285 -7.33249 1.90143e-10
3.80072e-12 1.90143e-10 -7.77115

-2.96754 -3.27053 3.04129e-11
-3.27053 -4.07504 -6.55752e-12
3.04129e-11 -6.55752e-12 -4.76061

-5.52111 -3.75653 8.58852e-12
-3.75653 -2.25761 1.21365e-10
8.58852e-12 1.21365e-10 -6.53329

-3.24823 -1.83481 -1.47372e-11
-1.83481 -2.14654 2.35085e-11
-1.47372e-11 2.35085e-11 -2.63581

-3.81989 -3.063 -2.78842e-11
-3.063 -2.00827 4.35423e-11
-2.78842e-11 4.35423e-11 -3.25583

-5.42064 -2.03675 4.55879e-11
-2.03675 -3.48384 5.4711e-11
4.55879e-11 5.4711e-11 -4.9515

-4.71346 1.28318 -1.6348e-12
1.28318 -2.86954 3.67956e-11
-1.6348e-12 3.67956e-11 -3.72354

-4.24198 0.767647 3.52574e-11
0.767647 -4.38376 3.8723e-11
3.52574e-11 3.8723e-11 -4.95038

-0.0247768 2.18335 -3.23696e-11
2.18335 2.03112 -1.94624e-11
-3.23696e-11 -1.94624e-11 0.667152

-1.80306 1.09625 1.29087e-11
1.09625 1.06623 -1.28128e-11
1.29087e-11 -1.28128e-11 -0.384138

-2.58919 0.937933 2.31185e-11
0.937933 0.65776 5.29595e-12
2.31185e-11 5.29595e-12 -0.52418

2.30549 1.23969 -2.00391e-11
1.23969 -2.9601 -3.99037e-11
-2.00391e-11 -3.99037e-11 0.00807529

3.2435 0.420314 1.1175e-11
0.420314 -1.95039 -3.49657e-12
1.1175e-11 -3.49657e-12 0.513365

-4.28225 0.67231 -4.43247e-12
0.67231 -0.815824 1.27161e-11
-4.43247e-12 1.27161e-11 -1.81582

-5.09739 1.54788 -1.34838e-12
1.54788 -0.402856 1.00177e-11
-1.34838e-12 1.00177e-11 -1.80151

3.46206 -0.493636 1.7725e-11
-0.493636 -1.68832 -2.1799e-11
1.7725e-11 -2.1799e-11 0.597177

0.53311 -0.99166 1.53185e-11
-0.99166 -4.0421 4.38244e-12
1.53185e-11 4.38244e-12 -0.726185

1.77375 1.98784 -1.57997e-11
1.98784 3.83598 -1.61371e-11
-1.57997e-11 -1.61371e-11 2.22184

2.13446 -1.98613 -2.77466e-11
-1.98613 4.09629 -7.61243e-12
-2.77466e-11 -7.61243e-12 2.51807

4.854 -1.82105 -1.03621e-15
-1.82105 1.51025 3.76453e-11
-1.03621e-15 3.76453e-11 2.40755

-3.14431 -1.87262 5.85664e-11
-1.87262 -0.780614 2.56234e-11
5.85664e-11 2.56234e-11 -1.56618

-2.04001 -1.29573 -9.63328e-12
-1.29573 -0.627889 -1.87833e-11
-9.63328e-12 -1.87833e-11 -1.44006

-1.94762 1.86032 -1.15739e-12
1.86032 0.820445 2.88865e-12
-1.15739e-12 2.88865e-12 -0.0489608

-3.46182 2.23951 -1.84929e-11
2.23951 0.125726 -1.25374e-12
-1.84929e-11 -1.25374e-12 -0.526433

-4.96869 -1.45158 1.34839e-11
-1.45158 -0.323546 6.33857e-11
1.34839e-11 6.33857e-11 -1.79465

-4.54699 -0.424723 -6.01079e-11
-0.424723 -0.821798 1.67626e-11
-6.01079e-11 1.67626e-11 -1.86968

2.84755 0.570048 2.37955e-11
0.570048 -3.16971 1.25896e-11
2.37955e-11 1.25896e-11 -0.106324

1.20299 0.715135 2.15819e-11
0.715135 4.492 -2.4469e-11
2.15819e-11 -2.4469e-11 1.83421

1.21569 -0.584243 1.54154e-11
-0.584243 4.41862 7.22829e-13
1.54154e-11 7.22829e-13 1.85855

5.51977 -0.504719 -3.62257e-11
-0.504719 1.10615 2.64213e-11
-3.62257e-11 2.64213e-11 2.02377

0.127103 2.50911 2.89158e-12
2.50911 0.927041 -2.73635e-11
2.89158e-12 -2.73635e-11 0.488165

3.64019 -1.66817 4.20046e-11
-1.66817 -1.20919 5.39248e-12
4.20046e-11 5.39248e-12 0.860808

0.831896 2.65837 3.19836e-11
2.65837 -0.427165 -8.71899e-12
3.19836e-11 -8.71899e-12 0.214191

-0.304923 2.11912 3.89169e-11
2.11912 2.53691 -5.36594e-11
3.89169e-11 -5.36594e-11 0.600831

2.09662 -1.05204 -1.38726e-11
-1.05204 -3.3223 -8.48842e-12
-1.38726e-11 -8.48842e-12 -0.113281

4.93125 1.39795 -1.54174e-11
1.39795 6.34246 -4.8405e-12
-1.54174e-11 -4.8405e-12 4.38981

1.33917 1.30501 -1.27158e-11
1.30501 -4.05226 1.10774e-12
-1.27158e-11 1.10774e-12 -0.525156

7.00374 -1.20839 9.63614e-12
-1.20839 4.55299 4.07185e-11
9.63614e-12 4.07185e-11 4.54692

-2.68181 -0.460324 -1.92649e-11
-0.460324 -0.861204 3.85324e-11
-1.92649e-11 3.85324e-11 -1.93591

-2.73422 0.817037 -1.61789e-11
0.817037 -0.789792 4.16131e-11
-1.61789e-11 4.16131e-11 -1.92084

-0.219114 -2.48902 2.00358e-11
-2.48902 -4.55806 -1.02109e-11
2.00358e-11 -1.02109e-11 -5.15847

-0.239446 2.57538 -1.04024e-11
2.57538 -4.57681 -3.46517e-12
-1.04024e-11 -3.46517e-12 -5.12263

5.23858 -0.664022 2.63994e-11
-0.664022 0.710635 6.11557e-12
2.63994e-11 6.11557e-12 2.06191

-0.812336 2.90546 -2.23516e-11
2.90546 -1.05193 -7.69706e-11
-2.23516e-11 -7.69706e-11 -0.310954

-0.0604381 -1.50735 -2.46597e-11
-1.50735 -2.95868 -1.24255e-11
-2.46597e-11 -1.24255e-11 -2.0262

0.0120191 1.5018 -8.09031e-12
1.5018 -2.84779 2.33109e-11
-8.09031e-12 2.33109e-11 -1.89731

0.410641 0.523148 -6.16536e-11
0.523148 -4.78125 1.23788e-11
-6.16536e-11 1.23788e-11 -0.824419

-0.474261 2.39422 5.3932e-12
2.39422 2.55922 2.5242e-11
5.3932e-12 2.5242e-11 0.580093

3.08899 -2.07123 3.77638e-11
-2.07123 -0.402853 -1.68132e-11
3.77638e-11 -1.68132e-11 0.848988

0.752896 -0.128676 -4.04619e-12
-0.128676 -5.08165 -1.7159e-11
-4.04619e-12 -1.7159e-11 -0.702456

0.0602669 -2.51817 3.21755e-11
-2.51817 1.01238 2.31008e-12
3.21755e-11 2.31008e-12 0.495217

-0.0437516 -2.06484 3.08418e-12
-2.06484 2.02622 -3.52629e-11
3.08418e-12 -3.52629e-11 0.657122

-2.74768 2.35932 -9.63831e-13
2.35932 1.08719 -3.68003e-11
-9.63831e-13 -3.68003e-11 -0.416038

2.80704 -2.88021 -6.55157e-12
-2.88021 0.704963 -1.93647e-11
-6.55157e-12 -1.93647e-11 1.20037

13.5796 -2.19595 3.0063e-11
-2.19595 12.3323 -2.41115e-12
3.0063e-11 -2.41115e-12 13.0137

13.6309 3.05046 -2.46652e-11
3.05046 13.2156 2.63775e-11
-2.46652e-11 2.63775e-11 13.327

-4.9367 -2.8168 -1.19469e-11
-2.8168 -0.426519 5.2018e-12
-1.19469e-11 5.2018e-12 -1.29475

9.25383 0.400081 -3.23753e-11
0.400081 7.90774 1.07907e-11
-3.23753e-11 1.07907e-11 9.10474

7.93798 -0.737256 -4.58644e-11
-0.737256 7.53924 1.52945e-11
-4.58644e-11 1.52945e-11 8.59576

-2.80899 -0.659122 1.61835e-11
-0.659122 -2.00082 -1.07895e-11
1.61835e-11 -1.07895e-11 -2.32023

-2.78374 0.684415 -1.52206e-11
0.684415 -2.04956 -8.20725e-11
-1.52206e-11 -8.20725e-11 -2.32172

3.51398 -0.0471803 -4.14251e-11
-0.0471803 -3.73251 2.00275e-11
-4.14251e-11 2.00275e-11 -0.109827

-3.03405 -0.357068 2.98617e-11
-0.357068 -3.29129 4.52262e-11
2.98617e-11 4.52262e-11 -2.66293

-2.99752 0.392666 -6.47328e-11
0.392666 -3.28364 2.91847e-11
-6.47328e-11 2.91847e-11 -2.64969

-2.02664 2.19672 6.01119e-11
2.19672 1.91269 2.68822e-11
6.01119e-11 2.68822e-11 0.00639893

-1.15647 -2.33027 -2.19629e-11
-2.33027 -3.80989 -1.1568e-12
-2.19629e-11 -1.1568e-12 -4.22941

-1.21371 2.34122 2.58142e-11
2.34122 -3.845 2.16823e-12
2.58142e-11 2.16823e-12 -4.2185

-1.5382 -1.16664 -5.83776e-11
-1.16664 -1.79738 1.81125e-11
-5.83776e-11 1.81125e-11 -1.17111

-1.53772 1.1767 6.6662e-11
1.1767 -1.81576 2.67349e-11
6.6662e-11 2.67349e-11 -1.1741

5.08221 -1.985 4.12362e-11
-1.985 1.49655 1.74636e-11
4.12362e-11 1.74636e-11 2.68206

-6.3445 1.15457 -5.08589e-11
1.15457 -0.791471 -1.50243e-11
-5.08589e-11 -1.50243e-11 -4.27765

-4.90781 -0.222097 -1.96498e-11
-0.222097 -2.86664 -2.04213e-11
-1.96498e-11 -2.04213e-11 -4.48743

-0.460766 -2.42 8.67066e-12
-2.42 2.55581 3.05376e-11
8.67066e-12 3.05376e-11 0.5752

4.16798 -0.608591 -1.619e-11
-0.608591 6.08706 -8.43029e-13
-1.619e-11 -8.43029e-13 4.4924

6.80768 -0.628643 -1.77277e-11
-0.628643 3.47226 1.01746e-11
-1.77277e-11 1.01746e-11 4.61614

-2.99918 1.88687 1.11758e-11
1.88687 1.2542 9.64044e-13
1.11758e-11 9.64044e-13 -0.446634

-3.318 1.88147 -1.92551e-12
1.88147 0.396842 -1.04035e-11
-1.92551e-12 -1.04035e-11 -0.529734

-5.97748 -1.87632 -1.53734e-10
-1.87632 -10.5307 2.75547e-11
-1.53734e-10 2.75547e-11 -9.37188

-5.89402 1.73479 -7.91772e-11
1.73479 -10.0005 -1.25126e-10
-7.91772e-11 -1.25126e-10 -9.22295

-4.0041 2.46906 -7.70645e-12
2.46906 -1.34081 -1.05978e-12
-7.70645e-12 -1.05978e-12 -0.888261

0.567225 0.751457 -1.42573e-11
0.751457 -3.15013 -1.0693e-11
-1.42573e-11 -1.0693e-11 -0.746596

0.624068 -0.781425 7.32077e-12
-0.781425 -3.15493 3.06811e-11
7.32077e-12 3.06811e-11 -0.734728

-2.26896 3.31312 2.96697e-11
3.31312 -1.60873 3.19846e-11
2.96697e-11 3.19846e-11 -0.744783

-3.58346 -2.23266 3.04405e-11
-2.23266 -0.213302 -8.76577e-12
3.04405e-11 -8.76577e-12 -1.17831

5.13392 -0.0382752 2.19675e-11
-0.0382752 0.119438 -4.06306e-11
2.19675e-11 -4.06306e-11 1.98289

4.15415 0.0475848 -3.75722e-11
0.0475848 -1.62978 -1.8382e-11
-3.75722e-11 -1.8382e-11 0.593634

4.17876 1.48868 -6.55113e-12
1.48868 -0.62442 -5.70785e-12
-6.55113e-12 -5.70785e-12 1.15767

0.0891295 2.47763 -1.96511e-11
2.47763 -4.2606 -1.26664e-11
-1.96511e-11 -1.26664e-11 -1.7842

-0.945302 -0.368425 6.81959e-11
-0.368425 -2.84027 -2.64915e-11
6.81959e-11 -2.64915e-11 -5.91682

-1.03783 0.366387 3.96834e-11
0.366387 -2.66019 -2.7545e-11
3.96834e-11 -2.7545e-11 -5.93965

3.2705 2.16382 -6.74423e-11
2.16382 3.02504 -1.35887e-11
-6.74423e-11 -1.35887e-11 2.08733

1.12853 -2.75704 6.16681e-12
-2.75704 -1.24152 -1.75335e-11
6.16681e-12 -1.75335e-11 0.0921423

2.85341 -0.683775 -5.39394e-12
-0.683775 -1.75272 2.91892e-11
-5.39394e-12 2.91892e-11 0.141138

-6.13756 2.66512 1.38319e-10
2.66512 -1.37576 2.44667e-11
1.38319e-10 2.44667e-11 -5.25479

-5.81058 -0.699467 3.81444e-11
-0.699467 -4.89932 -2.75474e-11
3.81444e-11 -2.75474e-11 -5.93495

0.0158163 -2.42321 -2.58173e-11
-2.42321 -4.10523 1.90737e-11
-2.58173e-11 1.90737e-11 -1.88668

-2.58052 -0.701265 -7.99637e-12
-0.701265 0.762158 7.99701e-12
-7.99637e-12 7.99701e-12 -0.583618

-2.1347 -0.734399 -3.28506e-11
-0.734399 1.00276 6.35951e-12
-3.28506e-11 6.35951e-12 -0.506404

2.49346 -0.192859 2.11934e-12
-0.192859 -4.7798 -3.92781e-11
2.11934e-12 -3.92781e-11 -0.614518

2.53251 0.181555 -5.51041e-11
0.181555 -4.88693 4.1904e-12
-5.51041e-11 4.1904e-12 -0.626164

4.20767 1.86441 -2.61084e-11
1.86441 3.0297 2.70725e-11
-2.61084e-11 2.70725e-11 2.28614

0.605953 -0.14638 4.91237e-12
-0.14638 -4.58305 1.70499e-11
4.91237e-12 1.70499e-11 -1.35903

0.60522 0.132639 -2.64825e-12
0.132639 -4.54952 4.72974e-11
-2.64825e-12 4.72974e-11 -1.34701

2.91898 0.678573 3.21761e-11
0.678573 -1.79529 2.69018e-11
3.21761e-11 2.69018e-11 0.147812

-0.356248 -2.15363 -1.81107e-11
-2.15363 2.55291 -8.67062e-12
-1.81107e-11 -8.67062e-12 0.584368

2.47679 -0.0706788 1.65694e-11
-0.0706788 -3.36329 3.38584e-11
1.65694e-11 3.38584e-11 -0.464167

2.50317 0.0901169 -7.2829e-11
0.0901169 -3.44686 -2.50208e-11
-7.2829e-11 -2.50208e-11 -0.473953

1.99215 -1.65123 7.32385e-12
-1.65123 -2.32523 -5.92306e-12
7.32385e-12 -5.92306e-12 -0.0253015

-2.71264 3.04046 3.27536e-12
3.04046 0.415134 1.29087e-11
3.27536e-12 1.29087e-11 -0.584484

2.63505 2.31308 2.85174e-11
2.31308 0.342598 -1.2619e-11
2.85174e-11 -1.2619e-11 0.907808

-3.3339 2.46714 -1.156e-11
2.46714 -1.86313 4.81635e-12
-1.156e-11 4.81635e-12 -0.935858

-2.72394 3.02601 1.61839e-11
3.02601 0.809372 1.39689e-11
1.61839e-11 1.39689e-11 -0.481517

3.91278 -1.17529 -1.88839e-11
-1.17529 -1.16442 9.77838e-12
-1.88839e-11 9.77838e-12 0.793823

0.544258 -2.70125 2.30786e-12
-2.70125 -2.7793 4.91181e-12
2.30786e-12 4.91181e-12 -0.661342

2.20151 1.6489 -4.04602e-11
1.6489 -1.91362 -6.27617e-11
-4.04602e-11 -6.27617e-11 0.125681

1.63528 2.69797 1.73661e-12
2.69797 0.822264 1.27641e-11
1.73661e-12 1.27641e-11 0.893035

1.13489 2.77147 1.34884e-11
2.77147 -1.22576 1.29565e-11
1.34884e-11 1.29565e-11 0.112234

-3.72849 0.253745 7.31774e-12
0.253745 0.910399 -1.35811e-11
7.31774e-12 -1.35811e-11 -0.698716

-3.65296 0.0901086 -1.1543e-12
0.0901086 0.890897 -1.99384e-11
-1.1543e-12 -1.99384e-11 -0.70257

4.76162 1.94956 -4.96196e-11
1.94956 1.43648 -5.69046e-11
-4.96196e-11 -5.69046e-11 2.32463

-2.30247 -3.30998 -8.86106e-12
-3.30998 -1.65065 -3.92066e-11
-8.86106e-12 -3.92066e-11 -0.760708

1.20782 -2.63745 1.83036e-11
-2.63745 2.51659 -1.84017e-11
1.83036e-11 -1.84017e-11 1.06051

1.17689 2.67012 -5.75392e-13
2.67012 2.66186 2.81342e-11
-5.75392e-13 2.81342e-11 1.08937

1.8088 -1.99048 4.23872e-12
-1.99048 -2.20345 1.04515e-11
4.23872e-12 1.04515e-11 -0.0764163

0.654821 -1.31936 -3.19845e-11
-1.31936 -6.38574 1.81084e-11
-3.19845e-11 1.81084e-11 -1.4633

0.690456 1.32991 7.70667e-12
1.32991 -6.00599 3.8483e-11
7.70667e-12 3.8483e-11 -1.34791

-0.777236 1.46065 3.66027e-11
1.46065 2.48122 -2.10037e-11
3.66027e-11 -2.10037e-11 0.647005

0.97168 -2.77764 -5.39572e-12
-2.77764 -0.369048 -9.63333e-12
-5.39572e-12 -9.63333e-12 0.250959

0.234028 -0.113384 4.08525e-11
-0.113384 4.77808 -5.53912e-12
4.08525e-11 -5.53912e-12 1.91715

0.260929 0.0453296 -1.4256e-11
0.0453296 4.82896 1.23296e-11
-1.4256e-11 1.23296e-11 1.95333

5.9066 0.140508 -1.40664e-11
0.140508 0.184009 -1.91396e-12
-1.40664e-11 -1.91396e-12 2.17464

4.11466 -1.93417 4.21977e-11
-1.93417 3.22948 2.78424e-11
4.21977e-11 2.78424e-11 2.30868

2.09108 2.35118 -2.73617e-11
2.35118 0.4367 1.99415e-11
-2.73617e-11 1.99415e-11 0.813945

-6.46119 -4.78852 3.89128e-11
-4.78852 -4.32755 -2.31106e-12
3.89128e-11 -2.31106e-12 -7.53555

-4.6779 2.06934 -9.43926e-11
2.06934 -3.31767 6.33725e-11
-9.43926e-11 6.33725e-11 -6.94065

3.85192 1.07079 -1.69564e-11
1.07079 -1.25329 -4.53511e-11
-1.69564e-11 -4.53511e-11 0.736684

-1.92303 2.92807 1.31009e-11
2.92807 1.55485 -2.05203e-11
1.31009e-11 -2.05203e-11 -0.0744096

3.57404 0.043337 -3.54518e-11
0.043337 -3.68242 -9.92166e-12
-3.54518e-11 -9.92166e-12 -0.0864665

-0.85894 -1.41261 -1.15606e-11
-1.41261 2.50904 -5.10562e-12
-1.15606e-11 -5.10562e-12 0.628657

-5.93659 2.91604 -5.39703e-12
2.91604 -0.444241 -2.37939e-11
-5.39703e-12 -2.37939e-11 -1.39906

-3.35903 2.38799 1.84958e-11
2.38799 0.00963825 1.22341e-11
1.84958e-11 1.22341e-11 -1.02393

-2.70733 -3.03318 1.15791e-12
-3.03318 0.386073 -1.82946e-12
1.15791e-12 -1.82946e-12 -0.593099

-2.96154 3.06528 -9.62841e-13
3.06528 0.991837 2.60102e-11
-9.62841e-13 2.60102e-11 -0.496713

-2.45823 2.32308 -3.46776e-12
2.32308 -0.154516 5.01099e-12
-3.46776e-12 5.01099e-12 -0.313304

3.34186 0.026285 2.77449e-11
0.026285 -5.39675 1.32821e-11
2.77449e-11 1.32821e-11 -0.521317

2.37789 -2.32067 8.4777e-12
-2.32067 0.527164 3.71387e-11
8.4777e-12 3.71387e-11 0.916514

-3.38158 -2.47878 -7.70621e-12
-2.47878 -1.89475 4.64339e-11
-7.70621e-12 4.64339e-11 -0.954613

1.69636 -1.98525 3.08277e-11
-1.98525 1.87104 -5.15908e-11
3.08277e-11 -5.15908e-11 0.936614

3.30071 -1.92485 7.55298e-11
-1.92485 3.35288 -1.97501e-11
7.55298e-11 -1.97501e-11 2.33845

-0.926597 -2.86742 1.07894e-11
-2.86742 -0.999959 -2.4518e-11
1.07894e-11 -2.4518e-11 -0.326795

0.882382 -1.17606 -2.46639e-11
-1.17606 4.32597 2.89483e-11
-2.46639e-11 2.89483e-11 1.61643

0.851294 1.11564 1.65727e-11
1.11564 4.34199 5.29976e-12
1.65727e-11 5.29976e-12 1.60077

4.8371 0.672613 -2.52425e-11
0.672613 0.972362 -4.5243e-11
-2.52425e-11 -4.5243e-11 1.78184

1.66654 2.07024 -4.60495e-11
2.07024 1.854 1.0643e-11
-4.60495e-11 1.0643e-11 0.930261

-1.06884 0.366595 3.46868e-12
0.366595 2.66937 1.05054e-11
3.46868e-12 1.05054e-11 0.410216

-1.06641 -0.0789772 1.19474e-11
-0.0789772 2.65783 9.53867e-12
1.19474e-11 9.53867e-12 0.418569

2.60767 -2.26697 -2.7745e-11
-2.26697 3.76167 1.06489e-11
-2.7745e-11 1.06489e-11 2.32577

2.754 2.27104 2.67835e-11
2.27104 3.7943 8.71081e-13
2.67835e-11 8.71081e-13 2.37374

3.39091 0.182565 -2.06155e-11
0.182565 -4.97742 -2.31181e-11
-2.06155e-11 -2.31181e-11 -0.483114

3.43899 -0.173206 2.89007e-11
-0.173206 -5.03265 8.25982e-12
2.89007e-11 8.25982e-12 -0.477841

-1.91714 2.66927 -4.9899e-11
2.66927 1.43027 -1.60888e-11
-4.9899e-11 -1.60888e-11 -0.132017

-6.17017 -2.60336 3.85095e-12
-2.60336 -0.57529 9.34565e-12
3.85095e-12 9.34565e-12 -1.38785

-0.119771 2.9354 -6.93619e-12
2.9354 -1.93923 -4.59467e-11
-6.93619e-12 -4.59467e-11 -0.531819

5.89546 1.36186 -1.50329e-11
1.36186 2.28009 1.29089e-11
-1.50329e-11 1.29089e-11 3.39632

-0.850031 1.77085 5.7824e-12
1.77085 3.36851 -5.57829e-11
5.7824e-12 -5.57829e-11 0.749981

-1.11014 0.172311 -1.31e-11
0.172311 -2.8272 4.12756e-11
-1.31e-11 4.12756e-11 -1.61874

-1.10918 -0.15387 6.24214e-11
-0.15387 -2.7926 2.89951e-11
6.24214e-11 2.89951e-11 -1.61327

1.21221 1.70869 1.84956e-11
1.70869 0.0894374 1.35835e-11
1.84956e-11 1.35835e-11 0.226255

0.771137 -1.05555 -4.4309e-12
-1.05555 -1.09623 -3.41966e-11
-4.4309e-12 -3.41966e-11 -0.341146

0.761479 1.0759 2.11979e-12
1.0759 -1.09417 -4.0266e-11
2.11979e-12 -4.0266e-11 -0.342678

7.7244 -1.07201 2.15862e-11
-1.07201 5.30056 -2.91293e-12
2.15862e-11 -2.91293e-12 8.20474

4.63854 1.35115 6.93838e-12
1.35115 7.13854 2.24268e-11
6.93838e-12 2.24268e-11 8.07997

-0.998996 -1.74033 -8.85909e-12
-1.74033 3.32585 -5.5879e-12
-8.85909e-12 -5.5879e-12 0.70506

-3.65153 -0.391732 1.34834e-11
-0.391732 -4.91702 6.50191e-11
1.34834e-11 6.50191e-11 -4.65903

-3.62179 0.44663 -3.67962e-11
0.44663 -4.86508 -2.24442e-11
-3.67962e-11 -2.24442e-11 -4.63623

6.12551 1.17053 3.54566e-11
1.17053 2.20202 -3.02514e-11
3.54566e-11 -3.02514e-11 3.4644

-3.50173 -1.44255 2.65866e-11
-1.44255 0.799727 8.86376e-12
2.65866e-11 8.86376e-12 -0.563269

-3.05461 -1.40865 -2.9285e-11
-1.40865 1.10373 2.63027e-11
-2.9285e-11 2.63027e-11 -0.544611

1.92019 -2.83464 1.54083e-11
-2.83464 1.37511 4.89389e-11
1.54083e-11 4.89389e-11 1.10996

-2.93706 -3.08469 1.5605e-11
-3.08469 0.981464 8.18778e-12
1.5605e-11 8.18778e-12 -0.497861

-5.3061 3.68008 4.08442e-11
3.68008 -1.22515 -1.49292e-11
4.08442e-11 -1.49292e-11 -1.03797

-2.13821 1.6679 -1.54123e-12
1.6679 -0.914659 2.0421e-11
-1.54123e-12 2.0421e-11 -1.51803

-3.21139 2.30128 -6.04961e-11
2.30128 -1.02558 -3.52572e-11
-6.04961e-11 -3.52572e-11 -1.61809

-1.97947 -2.69578 1.15689e-12
-2.69578 1.42001 -2.09046e-11
1.15689e-12 -2.09046e-11 -0.151326

-1.1563 2.82969 -3.96887e-11
2.82969 -0.796626 6.16522e-12
-3.96887e-11 6.16522e-12 -0.231674

1.17898 -1.73478 1.17515e-11
-1.73478 0.101708 1.11732e-11
1.17515e-11 1.11732e-11 0.218596

3.64307 2.07117 3.19848e-11
2.07117 -0.48876 -1.86879e-11
3.19848e-11 -1.86879e-11 1.11753

4.07582 -0.063218 -3.73816e-11
-0.063218 -1.69389 -1.78251e-11
-3.73816e-11 -1.78251e-11 0.561922

-2.97114 3.21644 1.84955e-11
3.21644 0.853254 -1.25222e-11
1.84955e-11 -1.25222e-11 -0.460393

-2.08772 -1.93621 1.92694e-12
-1.93621 0.788328 -2.78427e-11
1.92694e-12 -2.78427e-11 -0.089311

-1.87664 0.706455 2.73613e-11
0.706455 2.45459 -1.36783e-11
2.73613e-11 -1.36783e-11 0.288615

-0.762432 1.98128 -3.54516e-11
1.98128 -0.792754 -1.81138e-11
-3.54516e-11 -1.81138e-11 -0.455667

-1.77088 0.87845 -3.46815e-11
0.87845 2.71072 -3.28064e-12
-3.46815e-11 -3.28064e-12 0.301319

-3.01693 -2.48397 5.01001e-12
-2.48397 0.291613 -4.82114e-13
5.01001e-12 -4.82114e-13 -0.850282

6.91167 -1.39267 -7.32174e-12
-1.39267 7.21207 4.1415e-12
-7.32174e-12 4.1415e-12 6.53992

8.19856 -1.40161 -2.50511e-11
-1.40161 6.13674 1.13357e-12
-2.50511e-11 1.13357e-12 6.65361

2.76081 -0.559153 1.81123e-11
-0.559153 -3.16163 -2.47416e-12
1.81123e-11 -2.47416e-12 -0.123933

-0.77413 -1.98625 5.00942e-11
-1.98625 -0.814659 -2.86131e-11
5.00942e-11 -2.86131e-11 -0.462892

-3.7437 -2.66255 -1.53155e-10
-2.66255 -8.45497 -2.06021e-10
-1.53155e-10 -2.06021e-10 -7.79441

-3.65595 2.55015 7.3016e-11
2.55015 -8.23586 1.47662e-10
7.3016e-11 1.47662e-10 -7.7196

-1.98982 -2.888 1.84944e-11
-2.888 1.50241 -1.92727e-12
1.84944e-11 -1.92727e-12 -0.110029

-2.15818 -2.47604 -4.31503e-11
-2.47604 -2.1385 4.72235e-12
-4.31503e-11 4.72235e-12 -3.31008

-2.19372 2.51652 -2.27333e-11
2.51652 -2.11397 -2.90892e-11
-2.27333e-11 -2.90892e-11 -3.25884

1.60266 0.544163 -1.73414e-11
0.544163 -3.43641 -3.04603e-11
-1.73414e-11 -3.04603e-11 -0.214495

-5.38379 -3.68475 -8.4784e-12
-3.68475 -1.32686 2.68793e-11
-8.4784e-12 2.68793e-11 -1.06969

5.76548 -1.65822 -4.49e-11
-1.65822 5.61362 4.65635e-11
-4.49e-11 4.65635e-11 5.13355

5.95783 1.66428 -3.04466e-11
1.66428 4.77938 3.39613e-11
-3.04466e-11 3.39613e-11 4.83808

3.6058 -1.23609 -1.90745e-11
-1.23609 5.93227 -4.95709e-11
-1.90745e-11 -4.95709e-11 3.87616

3.30292 1.14962 1.54151e-12
1.14962 6.01967 1.68228e-12
1.54151e-12 1.68228e-12 3.86102

6.54359 0.708232 -1.05998e-11
0.708232 2.98032 5.9475e-12
-1.05998e-11 5.9475e-12 3.97503

-2.94826 -3.2413 -3.85349e-13
-3.2413 0.910122 -1.01154e-11
-3.85349e-13 -1.01154e-11 -0.447946

3.59764 0.368037 3.93087e-11
0.368037 6.77346 8.19345e-13
3.93087e-11 8.19345e-13 4.78651

7.64442 -0.400664 3.8927e-11
-0.400664 3.63371 1.70643e-11
3.8927e-11 1.70643e-11 5.07168

-4.78624 -1.02157 -9.63278e-12
-1.02157 -0.692844 -7.84124e-11
-9.63278e-12 -7.84124e-11 -2.9049

-3.16744 -0.062466 -2.38883e-11
-0.062466 -1.99635 -4.73902e-11
-2.38883e-11 -4.73902e-11 -2.91639

1.26942 1.60883 2.69806e-12
1.60883 -2.56009 5.49016e-12
2.69806e-12 5.49016e-12 -0.474569

0.811032 -0.114071 -4.73982e-11
-0.114071 -6.96782 -2.62734e-11
-4.73982e-11 -2.62734e-11 -1.04077

0.85635 1.6341 3.48775e-11
1.6341 3.84885 4.774e-11
3.48775e-11 4.774e-11 1.56998

0.821432 -1.71006 -2.83256e-11
-1.71006 3.84357 3.406e-11
-2.83256e-11 3.406e-11 1.57271

1.9034 -0.306675 7.77156e-16
-0.306675 -3.34501 -1.03415e-12
7.77156e-16 -1.03415e-12 -0.131132

-2.10691 -2.19097 -1.23335e-11
-2.19097 1.95878 3.4488e-11
-1.23335e-11 3.4488e-11 -0.0107354

-2.08453 0.231246 3.10176e-11
0.231246 -4.00967 6.77173e-11
3.10176e-11 6.77173e-11 -3.15906

-2.09713 -0.200125 -3.1403e-11
-0.200125 -3.99733 3.78553e-11
-3.1403e-11 3.78553e-11 -3.15384

0.133968 2.44502 -3.17912e-11
2.44502 -1.57762 -4.5661e-11
-3.17912e-11 -4.5661e-11 -0.539108

-1.22883 -2.75975 7.73307e-13
-2.75975 -0.823086 -2.69743e-11
7.73307e-13 -2.69743e-11 -0.251009

1.49367 1.46726 2.31196e-11
1.46726 -4.18751 -3.38602e-11
2.31196e-11 -3.38602e-11 -0.602296

3.63406 2.1609 -6.05035e-11
2.1609 1.95091 -1.50325e-11
-6.05035e-11 -1.50325e-11 2.05126

-2.45645 -2.39204 2.75537e-11
-2.39204 -0.0801469 -1.5894e-11
2.75537e-11 -1.5894e-11 -0.30279

13.8497 3.7185 -1.58011e-11
3.7185 13.0356 -7.93774e-12
-1.58011e-11 -7.93774e-12 13.8008

-1.78004 -0.527967 3.86256e-13
-0.527967 2.4014 -9.6354e-12
3.86256e-13 -9.6354e-12 0.287454

-1.64312 -0.786987 4.62314e-12
-0.786987 2.60844 -1.42579e-11
4.62314e-12 -1.42579e-11 0.310914

-5.09665 1.08995 2.42693e-11
1.08995 -1.25416 -8.05309e-11
2.42693e-11 -8.05309e-11 -3.45623

-4.52098 -1.63031 -1.46392e-11
-1.63031 -1.76872 -2.08029e-11
-1.46392e-11 -2.08029e-11 -3.45653

2.21104 -0.0862547 -9.24806e-12
-0.0862547 -5.43577 -1.8591e-11
-9.24806e-12 -1.8591e-11 -1.05252

2.22671 0.0805392 2.87076e-11
0.0805392 -5.46984 -1.17291e-11
2.87076e-11 -1.17291e-11 -1.04699

-0.881945 -3.1954 -1.92627e-12
-3.1954 -2.66476 5.29708e-12
-1.92627e-12 5.29708e-12 -1.48446

-0.697354 3.22298 2.89011e-11
3.22298 -2.91198 -5.29541e-12
2.89011e-11 -5.29541e-12 -1.42897

-0.470761 -1.16394 -3.46745e-12
-1.16394 -2.19321 2.21567e-11
-3.46745e-12 2.21567e-11 -2.4609

-0.521155 1.16123 -5.9722e-11
1.16123 -2.15326 -2.25406e-11
-5.9722e-11 -2.25406e-11 -2.43936

-4.93677 -1.01662 1.36014e-10
-1.01662 -7.01018 -1.87735e-10
1.36014e-10 -1.87735e-10 -6.69609

-4.88378 1.09433 4.2193e-11
1.09433 -6.82747 1.80416e-10
4.2193e-11 1.80416e-10 -6.63234

-3.28284 -3.0592 5.78648e-13
-3.0592 -0.18042 -1.99413e-11
5.78648e-13 -1.99413e-11 -1.02667

-3.27096 3.04341 -1.07879e-11
3.04341 -0.204986 3.93991e-11
-1.07879e-11 3.93991e-11 -1.03723

1.43709 -1.58423 3.69941e-11
-1.58423 -1.38707 2.61536e-11
3.69941e-11 2.61536e-11 -0.00781913

-1.7537 -1.33911 -1.50292e-11
-1.33911 1.45893 -1.69568e-11
-1.50292e-11 -1.69568e-11 0.0602629

0.447175 2.57714 -4.08482e-11
2.57714 0.420063 2.71647e-11
-4.08482e-11 2.71647e-11 0.220332

-1.47398 -1.87884 -3.9691e-11
-1.87884 2.16096 2.14862e-11
-3.9691e-11 2.14862e-11 0.14453

4.24936 -1.99633 4.7596e-11
-1.99633 2.71973 -5.14484e-11
4.7596e-11 -5.14484e-11 2.44859

1.47329 1.56386 2.21572e-11
1.56386 -1.37349 9.53735e-12
2.21572e-11 9.53735e-12 0.0086219

-1.54898 1.33138 -4.86177e-12
1.33138 1.50547 -4.67214e-11
-4.86177e-12 -4.67214e-11 0.120504

-3.53117 -3.80318 -3.85329e-12
-3.80318 -2.01661 2.77439e-11
-3.85329e-12 2.77439e-11 -1.35461

-3.52284 3.80578 -2.50464e-11
3.80578 -2.04272 1.41612e-11
-2.50464e-11 1.41612e-11 -1.36034

1.07598 -1.52845 -1.04058e-11
-1.52845 -2.70952 1.29555e-11
-1.04058e-11 1.29555e-11 -0.653375

-4.52383 -2.8478 8.39906e-11
-2.8478 -2.14122 -8.88178e-16
8.39906e-11 -8.88178e-16 -6.74505

-6.36119 2.91313 3.58355e-11
2.91313 -8.17597 2.15823e-11
3.58355e-11 2.15823e-11 -8.27833

-1.91258 -2.15461 2.83206e-11
-2.15461 1.03429 -2.22545e-11
2.83206e-11 -2.22545e-11 -0.359816

0.611628 2.68991 -1.23297e-11
2.68991 -2.60752 1.52197e-11
-1.23297e-11 1.52197e-11 -0.538315

0.213356 0.172985 -8.09218e-12
0.172985 -2.81731 5.34728e-12
-8.09218e-12 5.34728e-12 -1.61156

0.432154 -2.52014 -1.46446e-11
-2.52014 0.541316 -2.23477e-11
-1.46446e-11 -2.23477e-11 0.238539

6.61912 1.61387 1.42567e-11
1.61387 7.20359 -6.44572e-11
1.42567e-11 -6.44572e-11 6.10091

7.36922 1.59601 -3.46843e-11
1.59601 5.77539 8.83956e-12
-3.46843e-11 8.83956e-12 5.97616

1.55847 0.319209 5.202e-12
0.319209 -5.05658 9.56039e-12
5.202e-12 9.56039e-12 -1.37619

1.50405 -0.322212 9.24835e-12
-0.322212 -5.07605 3.25571e-11
9.24835e-12 3.25571e-11 -1.38266

0.255093 -0.281114 -3.73774e-11
-0.281114 -2.70451 1.45928e-11
-3.73774e-11 1.45928e-11 -1.64629

-1.3714 1.78924 6.78834e-12
1.78924 2.12529 4.59537e-11
6.78834e-12 4.59537e-11 0.162065

3.64572 -1.2584 1.25322e-12
-1.2584 0.301711 6.21852e-11
1.25322e-12 6.21852e-11 0.964681

-1.48217 -1.52856 -2.94766e-11
-1.52856 -0.575916 6.84025e-12
-2.94766e-11 6.84025e-12 -0.916112

-1.47475 1.53075 6.26132e-11
1.53075 -0.573795 1.92859e-12
6.26132e-11 1.92859e-12 -0.913979

-2.41909 -0.210386 -1.00162e-11
-0.210386 -0.275807 -4.46605e-11
-1.00162e-11 -4.46605e-11 -6.17696

-2.39998 0.207455 -4.35369e-11
0.207455 -0.325364 7.63114e-11
-4.35369e-11 7.63114e-11 -6.16267

-2.91938 -2.61225 1.13688e-11
-2.61225 0.988349 -5.1539e-11
1.13688e-11 -5.1539e-11 -0.43956

2.01103 2.06838 -2.23495e-11
2.06838 -1.80441 -8.38222e-12
-2.23495e-11 -8.38222e-12 0.0829645

0.134169 -0.255563 -4.52523e-12
-0.255563 -3.29491 2.11438e-11
-4.52523e-12 2.11438e-11 -1.50843

0.139632 0.278372 -9.43915e-12
0.278372 -3.30129 -2.81761e-11
-9.43915e-12 -2.81761e-11 -1.51194

-3.2688 -1.65858 -2.00388e-11
-1.65858 -0.11017 -3.85562e-12
-2.00388e-11 -3.85562e-12 -0.656672

-3.96521 -2.65032 -1.54312e-12
-2.65032 -1.41228 1.86885e-11
-1.54312e-12 1.86885e-11 -0.831913

13.8228 -3.85713 7.90114e-11
-3.85713 13.94 -2.64043e-11
7.90114e-11 -2.64043e-11 13.9491

-3.16882 -2.47565 -1.38704e-11
-2.47565 -1.02266 1.01157e-11
-1.38704e-11 1.01157e-11 -1.63432

-3.13035 2.49746 -1.77251e-11
2.49746 -1.03486 -1.87847e-11
-1.77251e-11 -1.87847e-11 -1.61427

-3.5768 -2.54765 1.23291e-11
-2.54765 -0.401329 7.51591e-12
1.23291e-11 7.51591e-12 -0.600127

3.65059 1.3346 9.0535e-12
1.3346 0.2111 -2.88884e-12
9.0535e-12 -2.88884e-12 0.923401

0.205753 -2.34734 -1.74342e-11
-2.34734 -1.73643 1.54001e-12
-1.74342e-11 1.54001e-12 -0.616069

-0.477372 -2.60687 3.15958e-11
-2.60687 -2.55441 -2.84201e-11
3.15958e-11 -2.84201e-11 -1.27842

-0.346093 2.54375 2.46615e-11
2.54375 -2.60213 2.85141e-11
2.46615e-11 2.85141e-11 -1.24134

1.36152 -1.45724 9.63192e-12
-1.45724 -4.45306 8.23578e-12
9.63192e-12 8.23578e-12 -0.738784

-0.186854 0.639544 1.44494e-11
0.639544 -4.50445 -3.62177e-11
1.44494e-11 -3.62177e-11 -2.32736

-0.210826 -0.6275 -1.65662e-11
-0.6275 -4.45204 -1.9267e-11
-1.65662e-11 -1.9267e-11 -2.31504

-7.09934 -1.01164 7.43582e-11
-1.01164 -1.70583 -2.81263e-11
7.43582e-11 -2.81263e-11 -6.14519

-6.05908 2.20883 -1.84895e-11
2.20883 -2.09908 1.07111e-10
-1.84895e-11 1.07111e-10 -5.99345

8.42377 0.327841 1.92561e-12
0.327841 4.63496 4.82732e-11
1.92561e-12 4.82732e-11 8.36545

5.83856 0.613131 -1.61879e-11
0.613131 7.69643 5.99621e-12
-1.61879e-11 5.99621e-12 8.41189

-2.30852 2.43804 2.31111e-12
2.43804 0.644612 -6.16579e-12
2.31111e-12 -6.16579e-12 -0.606582

-2.30074 -2.43954 3.29456e-11
-2.43954 0.655469 -1.89787e-11
3.29456e-11 -1.89787e-11 -0.602332

-2.85461 -3.11605 -1.38715e-11
-3.11605 0.939697 -9.63328e-12
-1.38715e-11 -9.63328e-12 -0.443741

8.52073 -1.6265 6.20505e-11
-1.6265 8.19501 -7.15887e-12
6.20505e-11 -7.15887e-12 9.47054

8.89543 -1.34266 -2.0043e-11
-1.34266 8.37124 3.75775e-11
-2.0043e-11 3.75775e-11 9.61119

-8.76215 2.1518 9.28653e-11
2.1518 -4.46637 1.83305e-10
9.28653e-11 1.83305e-10 -8.30977

-8.8207 -2.26195 5.79906e-11
-2.26195 -4.69429 -9.1796e-11
5.79906e-11 -9.1796e-11 -8.36812

-0.180368 -2.9521 -5.3947e-11
-2.9521 -1.95604 1.42606e-11
-5.3947e-11 1.42606e-11 -0.555312

-0.228142 -2.38468 -2.94798e-11
-2.38468 1.24724 2.74566e-11
-2.94798e-11 2.74566e-11 0.229689

-2.19071 2.34981 2.79366e-11
2.34981 -0.477833 4.15215e-11
2.79366e-11 4.15215e-11 -0.807707

-2.19022 -2.34885 1.48338e-11
-2.34885 -0.482036 2.30226e-11
1.48338e-11 2.30226e-11 -0.807868

-1.52362 -2.77526 6.35795e-12
-2.77526 0.824127 -3.85462e-12
6.35795e-12 -3.85462e-12 -0.192631

-0.169098 2.41792 -4.75894e-11
2.41792 1.21671 1.61867e-11
-4.75894e-11 1.61867e-11 0.236435

3.20695 -0.889273 6.31997e-11
-0.889273 5.72202 -5.00933e-12
6.31997e-11 -5.00933e-12 3.68195

3.3809 0.747929 -2.8521e-11
0.747929 6.03804 2.52383e-11
-2.8521e-11 2.52383e-11 3.81815

6.31586 0.639636 1.09844e-11
0.639636 3.11905 -2.13048e-11
1.09844e-11 -2.13048e-11 3.85975

-1.49588 2.76837 -4.25776e-11
2.76837 0.83254 2.29274e-11
-4.25776e-11 2.29274e-11 -0.18412

4.33682 -0.420115 -1.46487e-11
-0.420115 7.07261 1.66015e-13
-1.46487e-11 1.66015e-13 5.1823

7.5114 -0.252564 3.81555e-11
-0.252564 3.56962 -3.26433e-11
3.81555e-11 -3.26433e-11 5.14887

-2.92421 -2.27182 1.46433e-11
-2.27182 -0.870353 7.89845e-12
1.46433e-11 7.89845e-12 -1.36801

-2.89792 2.26054 -6.74349e-12
2.26054 -0.863905 -2.57205e-11
-6.74349e-12 -2.57205e-11 -1.36203

-3.02302 -1.72544 -1.07876e-11
-1.72544 -1.14626 -4.11323e-11
-1.07876e-11 -4.11323e-11 -1.62701

-3.0076 1.72501 -1.46435e-11
1.72501 -1.19134 -1.02399e-10
-1.46435e-11 -1.02399e-10 -1.63287

9.27169 1.49419 -1.13701e-11
1.49419 8.36805 2.85442e-11
-1.13701e-11 2.85442e-11 9.95258

9.22685 1.42514 -2.50526e-11
1.42514 8.54349 -3.03147e-11
-2.50526e-11 -3.03147e-11 10.0164

-0.892575 2.15762 -8.28415e-12
2.15762 0.59388 -1.6395e-12
-8.28415e-12 -1.6395e-12 -0.202329

-0.888851 -2.17197 4.18066e-11
-2.17197 0.614202 2.31115e-12
4.18066e-11 2.31115e-12 -0.197826

-5.03171 -2.09112 7.01256e-11
-2.09112 -2.05785 -8.36134e-11
7.01256e-11 -8.36134e-11 -4.15382

-4.40045 0.941777 -2.73585e-11
0.941777 -3.90461 -1.11729e-11
-2.73585e-11 -1.11729e-11 -4.40461

-3.70637 -2.34275 5.20158e-12
-2.34275 -0.158766 -1.56059e-11
5.20158e-12 -1.56059e-11 -1.46547

-3.72285 2.34391 1.93031e-13
2.34391 -0.239141 -1.53166e-11
1.93031e-13 -1.53166e-11 -1.49297

-1.60381 0.1524 2.10014e-11
0.1524 -5.38441 1.18482e-11
2.10014e-11 1.18482e-11 -2.94179

-1.60816 -0.13051 -3.06306e-11
-0.13051 -5.36337 -1.7823e-11
-3.06306e-11 -1.7823e-11 -2.93318

-1.78592 -2.65309 -1.15452e-12
-2.65309 -1.54566 -1.99405e-11
-1.15452e-12 -1.99405e-11 -0.858084

-1.68862 2.68699 5.6644e-11
2.68699 -1.62242 2.24485e-11
5.6644e-11 2.24485e-11 -0.85264

-2.71643 0.646945 5.12457e-11
0.646945 -6.12382 2.06155e-11
5.12457e-11 2.06155e-11 -4.93919

-5.17262 0.11158 1.10582e-10
0.11158 -7.2357 -1.32444e-10
1.10582e-10 -1.32444e-10 -6.81338

-2.71641 -0.656069 -4.27692e-11
-0.656069 -6.11337 1.02112e-11
-4.27692e-11 1.02112e-11 -4.93739

-5.18105 -0.176914 1.13281e-10
-0.176914 -7.36216 9.50685e-11
1.13281e-10 9.50685e-11 -6.84048

-5.99999 0.109154 -5.00611e-12
0.109154 -3.09508 2.60093e-11
-5.00611e-12 2.60093e-11 -5.296

-1.65994 2.60922 1.50284e-11
2.60922 -3.58251 6.35761e-11
1.50284e-11 6.35761e-11 -4.69998

-1.65345 -2.5991 2.31167e-11
-2.5991 -3.57116 -5.20151e-12
2.31167e-11 -5.20151e-12 -4.70921

-7.15514 -1.39791 -5.43253e-11
-1.39791 -0.416403 2.42733e-11
-5.43253e-11 2.42733e-11 -4.957

-7.2902 -1.23377 1.80707e-10
-1.23377 -6.56515 -7.552e-11
1.80707e-10 -7.552e-11 -7.24424

1.48703 -1.78767 4.37152e-10
-1.78767 -13.1569 6.61164e-11
4.37152e-10 6.61164e-11 -8.37992

-7.41751 1.29935 -2.00319e-11
1.29935 -6.33262 2.21314e-12
-2.00319e-11 2.21314e-12 -7.18871

1.51157 1.65283 -3.04203e-10
1.65283 -12.6126 9.59921e-11
-3.04203e-10 9.59921e-11 -8.22265

-4.36137 -1.6905 2.29262e-11
-1.6905 -5.07321 -1.32923e-11
2.29262e-11 -1.32923e-11 -5.33459

-3.50027 -1.17912 -2.98612e-11
-1.17912 -1.70822 -1.26184e-11
-2.98612e-11 -1.26184e-11 -2.74571

-6.80018 -0.0982036 4.77789e-11
-0.0982036 -8.45759 8.91956e-11
4.77789e-11 8.91956e-11 -8.05648

-4.41941 1.77462 -8.0926e-12
1.77462 -5.04173 -3.3328e-11
-8.0926e-12 -3.3328e-11 -5.32246

-3.47816 1.21942 7.70698e-12
1.21942 -1.78562 -2.98658e-12
7.70698e-12 -2.98658e-12 -2.75928

-6.75123 0.110815 7.70983e-12
0.110815 -8.12667 -1.33214e-10
7.70983e-12 -1.33214e-10 -7.9464

-4.75169 -0.973389 1.02104e-11
-0.973389 -3.32138 2.98562e-12
1.02104e-11 2.98562e-12 -3.79991

-4.15902 -0.546055 -1.05958e-11
-0.546055 -4.90906 -1.76269e-11
-1.05958e-11 -1.76269e-11 -5.04432

-4.70349 1.01933 1.25229e-11
1.01933 -3.31598 -4.71054e-11
1.25229e-11 -4.71054e-11 -3.78101

-4.12975 0.57075 -9.24714e-11
0.57075 -4.88562 1.46398e-11
-9.24714e-11 1.46398e-11 -5.02317

0.0974827 2.29866 4.75913e-11
2.29866 2.75171 3.25673e-11
4.75913e-11 3.25673e-11 0.713221

-3.20235 0.464328 1.75326e-11
0.464328 1.68532 -1.15594e-11
1.75326e-11 -1.15594e-11 -0.495364

-1.15379 1.23817 -3.0248e-11
1.23817 0.758616 2.33114e-11
-3.0248e-11 2.33114e-11 -0.366787

2.08084 -1.50451 -1.46435e-11
-1.50451 -2.91818 9.63278e-12
-1.46435e-11 9.63278e-12 -0.0078795

2.89159 -0.919767 2.6398e-11
-0.919767 -1.66896 6.93442e-12
2.6398e-11 6.93442e-12 0.499452

-5.52645 0.705167 8.28373e-12
0.705167 1.10587 5.78019e-12
8.28373e-12 5.78019e-12 -1.6958

-3.81943 1.27887 -2.08072e-11
1.27887 -1.51197 -2.40826e-12
-2.08072e-11 -2.40826e-12 -1.89032

2.80491 -0.00865036 4.5279e-11
-0.00865036 -1.54126 2.23531e-11
4.5279e-11 2.23531e-11 0.499739

0.327519 0.581725 2.27345e-11
0.581725 -4.99771 -1.11735e-11
2.27345e-11 -1.11735e-11 -0.842905

1.65996 1.98806 -3.93092e-11
1.98806 4.57539 -6.10848e-11
-3.93092e-11 -6.10848e-11 2.28482

1.19296 1.57315 1.44531e-11
1.57315 4.79763 -4.23713e-12
1.44531e-11 -4.23713e-12 2.42135

4.61823 1.57641 3.41052e-11
1.57641 1.80447 1.92694e-11
3.41052e-11 1.92694e-11 2.53673

-2.14835 -2.4028 3.93013e-11
-2.4028 -0.807702 1.38703e-11
3.93013e-11 1.38703e-11 -1.55518

-2.46611 -1.00945 -2.69711e-11
-1.00945 0.196935 2.7357e-11
-2.69711e-11 2.7357e-11 -1.38309

0.121397 -2.7747 -2.9479e-11
-2.7747 -0.234277 -4.23857e-12
-2.9479e-11 -4.23857e-12 0.0454932

-1.81342 2.23128 5.51044e-11
2.23128 1.68428 1.32978e-11
5.51044e-11 1.32978e-11 -0.00971841

-2.53235 2.60623 -4.45079e-11
2.60623 0.721662 -3.23696e-11
-4.45079e-11 -3.23696e-11 -0.452644

-3.91585 -1.25973 4.81646e-11
-1.25973 -1.55069 1.15622e-12
4.81646e-11 1.15622e-12 -1.95775

-5.53388 -0.83515 -2.71639e-11
-0.83515 1.24531 2.58159e-11
-2.71639e-11 2.58159e-11 -1.69822

2.52092 0.700919 -2.3411e-11
0.700919 -2.93301 -1.38724e-11
-2.3411e-11 -1.38724e-11 -0.0693233

1.16016 0.653562 -2.17737e-11
0.653562 4.89122 -4.35485e-11
-2.17737e-11 -4.35485e-11 1.82796

0.394385 0.288963 1.49335e-11
0.288963 4.84817 -2.08093e-11
1.49335e-11 -2.08093e-11 1.80302

5.17454 0.271907 6.64698e-12
0.271907 1.16896 2.31212e-11
6.64698e-12 2.31212e-11 2.0421

-0.983701 1.57102 -4.5855e-11
1.57102 2.83619 9.24564e-12
-4.5855e-11 9.24564e-12 0.643433

0.0171531 2.56786 3.66064e-11
2.56786 2.20549 3.68012e-11
3.66064e-11 3.68012e-11 0.616451

1.64627 0.436774 -6.35725e-12
0.436774 -3.16889 1.34867e-11
-6.35725e-12 1.34867e-11 -0.13309

4.49049 1.18827 1.59936e-11
1.18827 6.73185 5.18365e-11
1.59936e-11 5.18365e-11 4.31961

1.20934 -1.60776 7.70828e-13
-1.60776 -4.24931 -1.07874e-11
7.70828e-13 -1.07874e-11 -0.54761

-2.98719 0.122038 9.2477e-12
0.122038 0.583898 1.31011e-11
9.2477e-12 1.31011e-11 -1.81823

-1.92787 0.0344765 -2.3504e-11
0.0344765 -1.43131 -9.43856e-12
-2.3504e-11 -9.43856e-12 -1.95446

-0.718463 1.07889 -7.89863e-11
1.07889 -6.79876 4.00691e-11
-7.89863e-11 4.00691e-11 -5.46625

-0.239693 -2.59788 7.74458e-11
-2.59788 -4.59789 -5.78069e-12
7.74458e-11 -5.78069e-12 -5.11963

-0.472964 -2.94446 8.28511e-12
-2.94446 0.310008 -3.08413e-12
8.28511e-12 -3.08413e-12 0.0947213

-0.732815 -2.38156 -7.32144e-12
-2.38156 1.91236 1.96532e-11
-7.32144e-12 1.96532e-11 0.510975

4.76039 -0.819775 1.94641e-11
-0.819775 0.355419 -4.39358e-11
1.94641e-11 -4.39358e-11 1.83817

-0.439321 0.422511 -6.01086e-11
0.422511 -3.36408 2.60082e-11
-6.01086e-11 2.60082e-11 -2.05006

-0.0438953 -1.53793 1.15759e-12
-1.53793 -2.77531 -4.23804e-12
1.15759e-12 -4.23804e-12 -1.88751

0.419303 -0.683498 1.84964e-11
-0.683498 -4.92845 3.08311e-12
1.84964e-11 3.08311e-12 -0.79893

0.72597 -0.203211 2.04235e-11
-0.203211 -5.34053 1.11745e-11
2.04235e-11 1.11745e-11 -0.671039

2.86774 -2.4284 1.31032e-11
-2.4284 0.487898 -2.3505e-11
1.31032e-11 -2.3505e-11 1.00278

3.55222 1.12249 -5.78293e-12
1.12249 -0.506205 2.62025e-11
-5.78293e-12 2.62025e-11 1.00397

3.29735 -1.98157 -5.20199e-12
-1.98157 -0.619668 3.47108e-12
-5.20199e-12 3.47108e-12 0.932622

-4.10099 1.6326 -1.75314e-11
1.6326 1.13238 -3.46799e-11
-1.75314e-11 -3.46799e-11 -0.478492

-0.745772 -1.97297 -1.44507e-11
-1.97297 2.65875 3.27548e-11
-1.44507e-11 3.27548e-11 0.648252

-0.905061 1.89709 3.37608e-12
1.89709 1.92672 -1.92682e-11
3.37608e-12 -1.92682e-11 0.49715

13.1813 -3.01255 -1.52232e-11
-3.01255 13.3143 -1.75349e-11
-1.52232e-11 -1.75349e-11 13.1315

12.3326 1.85351 -1.75404e-11
1.85351 13.2963 -3.66147e-11
-1.75404e-11 -3.66147e-11 12.9633

-4.91502 -2.25849 -8.86278e-12
-2.25849 0.181531 1.57999e-11
-8.86278e-12 1.57999e-11 -1.29814

-2.83092 1.49869 -1.41617e-11
1.49869 1.87448 -7.70817e-12
-1.41617e-11 -7.70817e-12 -0.012394

7.55529 0.313393 -1.29096e-11
0.313393 7.83077 -2.89072e-11
-1.29096e-11 -2.89072e-11 8.60976

7.84318 -0.609587 2.38958e-11
-0.609587 8.77436 -5.78278e-13
2.38958e-11 -5.78278e-13 8.84471

-2.90943 -0.897104 -6.26073e-12
-0.897104 -1.55709 4.81544e-12
-6.26073e-12 4.81544e-12 -2.28544

-3.10037 1.89802 -3.5735e-11
1.89802 -2.32366 3.35238e-11
-3.5735e-11 3.35238e-11 -2.32694

3.09491 0.0203313 2.10023e-11
0.0203313 -3.43939 -2.71654e-11
2.10023e-11 -2.71654e-11 -0.0844383

-3.13407 -0.600847 9.89904e-12
-0.600847 -2.86955 1.13671e-11
9.89904e-12 1.13671e-11 -2.61833

-3.10115 1.77159 -5.43799e-11
1.77159 -2.29966 -5.27874e-11
-5.43799e-11 -5.27874e-11 -2.38624

-0.984735 1.94575 4.3155e-11
1.94575 -6.03533 1.86861e-11
4.3155e-11 1.86861e-11 -4.41032

-1.25456 -2.38037 -5.50968e-11
-2.38037 -3.89824 -1.84937e-11
-5.50968e-11 -1.84937e-11 -4.22112

-1.63719 -1.43633 -5.53842e-12
-1.43633 -1.4283 -3.35716e-11
-5.53842e-12 -3.35716e-11 -1.14581

-1.67044 1.89824 4.64786e-11
1.89824 -1.80204 -7.46235e-12
4.64786e-11 -7.46235e-12 -1.07267

-5.09831 -0.151095 -7.12974e-12
-0.151095 0.103371 -2.54303e-11
-7.12974e-12 -2.54303e-11 -4.0526

-5.29072 0.681923 6.55009e-12
0.681923 -2.91508 3.14991e-11
6.55009e-12 3.14991e-11 -4.55394

-0.410474 -2.7125 -2.31363e-12
-2.7125 2.68385 4.43034e-12
-2.31363e-12 4.43034e-12 0.558087

3.60792 0.285983 -8.09412e-12
0.285983 6.46347 -6.32054e-11
-8.09412e-12 -6.32054e-11 4.41708

6.27395 0.368453 2.00397e-11
0.368453 3.93213 -6.93789e-12
2.00397e-11 -6.93789e-12 4.42357

-4.12167 1.42593 3.85332e-11
1.42593 1.4667 -2.4275e-11
3.85332e-11 -2.4275e-11 -0.514962

-2.54732 2.09334 1.84945e-11
2.09334 0.880948 -3.66118e-12
1.84945e-11 -3.66118e-12 -0.461717

-6.05829 -1.98423 -3.44489e-11
-1.98423 -9.60042 2.23503e-11
-3.44489e-11 2.23503e-11 -9.17603

-6.29959 3.07956 -6.19662e-11
3.07956 -2.76442 -5.818e-11
-6.19662e-11 -5.818e-11 -7.86765

2.08857 1.91782 8.67136e-12
1.91782 1.06823 -7.70724e-12
8.67136e-12 -7.70724e-12 0.890485

-2.55773 3.23791 -1.29086e-11
3.23791 0.689671 -3.27538e-12
-1.29086e-11 -3.27538e-12 -0.46958

0.374567 1.23035 -2.67352e-11
1.23035 -2.82591 1.84936e-11
-2.67352e-11 1.84936e-11 -0.631088

0.468662 -0.978729 9.39293e-12
-0.978729 -2.79468 -1.56083e-11
9.39293e-12 -1.56083e-11 -0.701293

-2.31549 3.0754 1.92657e-11
3.0754 -0.251893 -1.71465e-11
1.92657e-11 -1.71465e-11 -0.667463

-3.38501 -3.03464 -5.2987e-12
-3.03464 -0.0696212 -3.46774e-12
-5.2987e-12 -3.46774e-12 -1.17919

-0.041067 -2.59636 -1.23275e-11
-2.59636 -4.32899 -2.88961e-11
-1.23275e-11 -2.88961e-11 -1.80747

4.64134 -0.231799 -1.95584e-11
-0.231799 0.470691 2.36978e-11
-1.95584e-11 2.36978e-11 1.84302

-0.936161 0.36192 -1.07865e-11
0.36192 -2.84092 -5.93334e-11
-1.07865e-11 -5.93334e-11 -5.90602

-0.80718 -0.224727 1.08657e-10
-0.224727 -6.96116 2.17664e-11
1.08657e-10 2.17664e-11 -6.49465

0.430773 2.36068 4.62278e-12
2.36068 -0.613361 -1.04023e-11
4.62278e-12 -1.04023e-11 0.0374346

2.47523 0.897466 -2.2637e-11
0.897466 -1.98438 -8.86402e-12
-2.2637e-11 -8.86402e-12 0.100902

2.77803 2.01444 -1.65711e-11
2.01444 3.70168 -4.66324e-11
-1.65711e-11 -4.66324e-11 2.06615

-6.30427 0.479499 6.66555e-11
0.479499 -4.81804 4.03622e-11
6.66555e-11 4.03622e-11 -6.01434

-4.85048 1.3941 2.77394e-11
1.3941 -0.459219 -2.88982e-11
2.77394e-11 -2.88982e-11 -5.03774

-0.483145 1.28858 -4.08446e-11
1.28858 -5.27199 -5.76761e-13
-4.08446e-11 -5.76761e-13 -2.0701

-3.33061 -0.54548 -3.34255e-11
-0.54548 1.77052 -1.50295e-11
-3.34255e-11 -1.50295e-11 -0.584925

-1.30503 -1.16682 3.39096e-11
-1.16682 0.79799 -7.71309e-13
3.39096e-11 -7.71309e-13 -0.46628

1.93888 0.374697 1.51974e-11
0.374697 -4.3424 -2.00357e-11
1.51974e-11 -2.00357e-11 -0.573817

2.16068 -0.292447 -2.93361e-11
-0.292447 -4.36902 1.98419e-11
-2.93361e-11 1.98419e-11 -0.571727

4.08705 -2.02029 4.81911e-13
-2.02029 3.14731 2.00368e-11
4.81911e-13 2.00368e-11 2.26334

3.79063 0.00589214 1.73893e-11
0.00589214 -1.64373 5.20276e-12
1.73893e-11 5.20276e-12 0.559774

0.370943 -0.328056 -2.15296e-11
-0.328056 -4.1795 -7.70595e-12
-2.15296e-11 -7.70595e-12 -1.31895

-0.0973764 0.665687 -2.71888e-11
0.665687 -3.68109 -5.00933e-12
-2.71888e-11 -5.00933e-12 -1.23682

2.62669 -0.840708 -2.87094e-11
-0.840708 -1.44552 3.37151e-11
-2.87094e-11 3.37151e-11 0.155128

-0.158628 -2.39449 1.42579e-11
-2.39449 2.60618 -2.33157e-11
1.42579e-11 -2.33157e-11 0.571401

2.11798 -0.192238 -2.34094e-11
-0.192238 -3.03109 3.27396e-12
-2.34094e-11 3.27396e-12 -0.462074

1.78799 0.428497 7.08026e-12
0.428497 -3.19575 1.19444e-11
7.08026e-12 1.19444e-11 -0.490396

1.47093 0.97593 -1.75361e-11
0.97593 -2.4095 -2.2927e-11
-1.75361e-11 -2.2927e-11 -0.0994721

1.64711 -3.04776 4.72057e-11
-3.04776 1.24368 3.83471e-13
4.72057e-11 3.83471e-13 1.08261

-3.44833 2.93888 -1.45463e-11
2.93888 -0.747494 -2.08079e-11
-1.45463e-11 -2.08079e-11 -0.68193

-2.63859 2.88754 2.09999e-11
2.88754 0.787945 -7.51326e-12
2.09999e-11 -7.51326e-12 -0.506429

-4.18517 2.17876 -3.66159e-12
2.17876 -0.905396 -1.5416e-12
-3.66159e-12 -1.5416e-12 -0.869367

3.6736 1.06333 -1.37799e-11
1.06333 -1.01104 2.19672e-11
-1.37799e-11 2.19672e-11 0.832926

5.65672 -2.10206 1.77256e-11
-2.10206 3.81237 2.08125e-11
1.77256e-11 2.08125e-11 3.85805

-0.272786 1.77533 1.40644e-11
1.77533 -2.73642 3.62187e-11
1.40644e-11 3.62187e-11 -0.778883

2.021 -1.89118 3.85632e-12
-1.89118 -1.85463 -3.35236e-11
3.85632e-12 -3.35236e-11 0.118424

5.75229 -1.82171 8.479e-12
-1.82171 3.41116 -3.12166e-11
8.479e-12 -3.12166e-11 3.72907

0.934303 -3.03665 -7.12922e-12
-3.03665 -1.10101 3.0802e-12
-7.12922e-12 3.0802e-12 0.0803747

-3.12655 0.0774524 -1.48356e-11
0.0774524 0.357093 2.69726e-11
-1.48356e-11 2.69726e-11 -0.7987

-4.54257 0.000339343 -1.13654e-11
0.000339343 2.25419 -3.66068e-11
-1.13654e-11 -3.66068e-11 -0.606838

1.2765 2.58876 4.16202e-11
2.58876 1.50455 -1.23301e-11
4.16202e-11 -1.23301e-11 0.887652

4.6365 -2.15593 1.04028e-11
-2.15593 1.61708 3.62247e-11
1.04028e-11 3.62247e-11 2.31342

-2.16061 -3.15054 1.11748e-11
-3.15054 -1.07704 2.88981e-11
1.11748e-11 2.88981e-11 -0.6317

1.24298 -2.81702 3.85514e-12
-2.81702 2.69596 -4.816e-12
3.85514e-12 -4.816e-12 1.05975

1.21481 -2.84822 2.23535e-11
-2.84822 2.49546 -7.70621e-12
2.23535e-11 -7.70621e-12 1.18746

1.37978 1.45714 -3.79582e-11
1.45714 -1.36423 -1.15573e-11
-3.79582e-11 -1.15573e-11 0.0155611

0.71388 0.920581 2.38908e-11
0.920581 -7.53096 -1.61825e-11
2.38908e-11 -1.61825e-11 -1.52616

0.627787 -1.4501 -2.31476e-12
-1.4501 -6.22937 5.70247e-11
-2.31476e-12 5.70247e-11 -1.36427

-0.569856 1.61833 1.25259e-11
1.61833 3.11638 -5.78049e-12
1.25259e-11 -5.78049e-12 0.71264

-1.63249 1.10524 3.56431e-11
1.10524 3.4991 1.54157e-11
3.56431e-11 1.54157e-11 0.689731

0.223055 -0.234992 1.21421e-11
-0.234992 5.0992 -3.77699e-11
1.21421e-11 -3.77699e-11 1.90285

-0.243951 -0.312782 -2.38925e-11
-0.312782 5.39267 1.96544e-11
-2.38925e-11 1.96544e-11 2.01217

5.66822 -0.206988 2.60051e-12
-0.206988 0.350397 -4.62643e-12
2.60051e-12 -4.62643e-12 2.20166

2.09575 -2.56781 -1.97513e-11
-2.56781 0.603255 3.81509e-11
-1.97513e-11 3.81509e-11 0.824294

-8.79325 -1.89306 -2.90903e-11
-1.89306 -5.92878 7.22437e-11
-2.90903e-11 7.22437e-11 -8.30997

-0.772796 -0.75249 1.39469e-10
-0.75249 -0.750248 -6.70439e-11
1.39469e-10 -6.70439e-11 -5.90232

2.94235 1.80984 -2.65904e-11
1.80984 -0.0949092 1.0212e-11
-2.65904e-11 1.0212e-11 0.998327

3.67642 -1.23415 4.4124e-11
-1.23415 -1.11917 -4.06566e-11
4.4124e-11 -4.06566e-11 0.730714

5.48272 1.13121 -1.84972e-11
1.13121 2.8711 1.75362e-11
-1.84972e-11 1.75362e-11 3.42254

-3.13015 1.85619 -1.48356e-11
1.85619 0.716797 5.00873e-12
-1.48356e-11 5.00873e-12 -0.262496

3.13461 0.0303558 2.13378e-11
0.0303558 -3.36154 -3.85308e-12
2.13378e-11 -3.85308e-12 -0.0789905

-3.4603 2.82904 -3.64132e-11
2.82904 -0.139993 -7.03141e-16
-3.64132e-11 -7.03141e-16 -1.0567

-5.66238 2.24789 -1.75315e-11
2.24789 0.188303 6.55059e-12
-1.75315e-11 6.55059e-12 -1.3109

2.27982 1.45673 -2.46639e-11
1.45673 3.84984 2.68803e-11
-2.46639e-11 2.68803e-11 2.13726

3.64964 1.62131 1.18473e-11
1.62131 3.21131 -2.54324e-11
1.18473e-11 -2.54324e-11 2.31551

-2.72576 -3.41851 -5.25967e-11
-3.41851 0.61987 1.19468e-11
-5.25967e-11 1.19468e-11 -0.622658

5.52819 0.913991 -3.1219e-11
0.913991 2.75961 4.12362e-11
-3.1219e-11 4.12362e-11 3.39118

-4.25543 2.5252 9.15168e-12
2.5252 -1.71134 -7.7057e-12
9.15168e-12 -7.7057e-12 -0.966487

-1.53744 3.07779 -3.62208e-11
3.07779 1.34392 -2.00377e-11
-3.62208e-11 -2.00377e-11 -0.0409525

2.78565 -0.0438939 1.96526e-11
-0.0438939 -4.91488 -4.62333e-12
1.96526e-11 -4.62333e-12 -0.465609

-3.52411 -2.33268 3.02486e-11
-2.33268 -1.67509 -1.42583e-11
3.02486e-11 -1.42583e-11 -0.967379

0.334214 2.51803 1.88442e-13
2.51803 0.498446 1.52201e-11
1.88442e-13 1.52201e-11 0.204532

1.07482 -1.2342 -1.40621e-11
-1.2342 4.51077 -5.29889e-11
-1.40621e-11 -5.29889e-11 1.61364

0.213908 -1.17504 -5.60687e-11
-1.17504 4.6447 2.15819e-11
-5.60687e-11 2.15819e-11 1.60517

4.69061 -0.875684 1.81143e-11
-0.875684 1.16953 -1.50309e-11
1.81143e-11 -1.50309e-11 1.78619

1.70823 -2.30608 -1.04037e-11
-2.30608 2.04744 -5.56843e-11
-1.04037e-11 -5.56843e-11 0.945635

-2.10454 -0.151702 -2.35021e-11
-0.151702 3.18936 6.16418e-12
-2.35021e-11 6.16418e-12 0.336103

-0.327692 -0.0220524 -2.29302e-11
-0.0220524 2.79654 3.56439e-11
-2.29302e-11 3.56439e-11 0.486699

2.8227 -2.46961 -2.70028e-12
-2.46961 3.95755 2.46643e-11
-2.70028e-12 2.46643e-11 2.39313

2.11316 -2.39966 -1.38778e-11
-2.39966 4.3342 -5.78212e-12
-1.38778e-11 -5.78212e-12 2.42124

2.67287 -0.122532 4.55192e-12
-0.122532 -4.5089 -1.07884e-11
4.55192e-12 -1.07884e-11 -0.455975

2.86111 0.126989 3.0923e-11
0.126989 -4.59951 1.23302e-11
3.0923e-11 1.23302e-11 -0.465781

-2.4749 2.35308 -2.98717e-12
2.35308 -0.197624 3.47022e-12
-2.98717e-12 3.47022e-12 -0.322631

-5.49017 -1.98267 1.50273e-11
-1.98267 0.0647215 1.34864e-11
1.50273e-11 1.34864e-11 -1.25204

-0.247655 -3.04825 -4.27706e-11
-3.04825 -1.94103 -1.54118e-11
-4.27706e-11 -1.54118e-11 -0.561281

-1.70095 1.16116 -3.13027e-12
1.16116 -2.94841 1.47421e-11
-3.13027e-12 1.47421e-11 -1.66402

-1.28001 -0.353494 2.90924e-11
-0.353494 -2.43436 4.52891e-12
2.90924e-11 4.52891e-12 -1.59471

0.588893 -1.27145 -2.36233e-12
-1.27145 -0.81293 -8.47837e-12
-2.36233e-12 -8.47837e-12 -0.34528

0.339987 1.52999 -2.69681e-12
1.52999 -1.70891 -3.08271e-11
-2.69681e-12 -3.08271e-11 -0.429099

7.32103 -1.27836 -9.44159e-12
-1.27836 4.52689 -1.27182e-11
-9.44159e-12 -1.27182e-11 7.99662

0.754633 2.4252 8.86868e-12
2.4252 2.27925 2.65915e-11
8.86868e-12 2.65915e-11 1.02419

5.55062 0.882373 -1.61851e-11
0.882373 7.38469 1.07893e-11
-1.61851e-11 1.07893e-11 8.17004

-1.20247 2.72785 -1.63757e-11
2.72785 0.32662 2.88989e-11
-1.63757e-11 2.88989e-11 -0.223735

-0.718454 -1.91139 -2.05192e-11
-1.91139 3.38016 -1.11765e-11
-2.05192e-11 -1.11765e-11 0.69724

-1.67336 -1.70395 -2.38904e-11
-1.70395 3.32596 3.89218e-11
-2.38904e-11 3.89218e-11 0.652145

-3.79443 -0.585769 -2.7672e-11
-0.585769 -4.47763 2.36957e-11
-2.7672e-11 2.36957e-11 -4.59326

-4.66297 1.60665 7.28215e-11
1.60665 -2.8812 3.81462e-11
7.28215e-11 3.81462e-11 -4.39566

0.950501 1.81003 2.36058e-11
1.81003 -0.450017 -6.28094e-11
2.36058e-11 -6.28094e-11 0.194343

3.83465 -0.184642 1.97501e-12
-0.184642 -1.38984 -2.73581e-11
1.97501e-12 -2.73581e-11 0.597246

2.28543 2.02819 1.83059e-11
2.02819 0.409321 -4.00793e-11
1.83059e-11 -4.00793e-11 0.965077

-3.99433 -1.17054 1.67613e-11
-1.17054 1.97236 -3.86691e-13
1.67613e-11 -3.86691e-13 -0.485072

-2.68358 -1.93016 -9.82506e-12
-1.93016 0.763613 -1.83032e-11
-9.82506e-12 -1.83032e-11 -0.612786

-2.91116 -3.50723 -2.35526e-11
-3.50723 1.45429 -4.43059e-12
-2.35526e-11 -4.43059e-12 -0.49233

1.07021 -1.94963 1.84972e-11
-1.94963 0.317561 4.42949e-12
1.84972e-11 4.42949e-12 0.213318

-2.86287 3.2651 1.57282e-16
3.2651 0.669238 7.12848e-12
1.57282e-16 7.12848e-12 -0.474058

-2.41635 1.50828 7.51305e-12
1.50828 -0.263888 -1.53995e-12
7.51305e-12 -1.53995e-12 -1.44834

-2.2776 2.28457 4.2387e-12
2.28457 -1.10323 1.71478e-11
4.2387e-12 1.71478e-11 -1.56894

-1.93734 -3.07071 6.74375e-12
-3.07071 1.64722 -4.62456e-12
6.74375e-12 -4.62456e-12 -0.162465

-1.4676 2.78834 3.65874e-12
2.78834 1.20343 -4.48928e-11
3.65874e-12 -4.48928e-11 -0.0813318

-5.78817 3.51239 -2.15801e-11
3.51239 -0.887749 -1.04053e-11
-2.15801e-11 -1.04053e-11 -1.03769

-2.71247 0.330078 5.33723e-11
0.330078 3.3501 -3.85277e-12
5.33723e-11 -3.85277e-12 0.307482

-1.65549 0.764678 -1.86899e-11
0.764678 2.61583 1.90731e-11
-1.86899e-11 1.90731e-11 0.243823

-0.854639 2.166 3.22726e-11
2.166 -1.225 -4.35427e-11
3.22726e-11 -4.35427e-11 -0.414356

1.53432 1.8212 5.40027e-12
1.8212 1.31081 1.31035e-11
5.40027e-12 1.31035e-11 0.904224

-2.65559 -1.88662 -1.61832e-11
-1.88662 1.73645 -2.31224e-11
-1.61832e-11 -2.31224e-11 -0.0387007

-3.23088 -3.29651 -1.30051e-11
-3.29651 0.370667 1.07892e-11
-1.30051e-11 1.07892e-11 -0.962679

6.29408 1.09266 -5.58764e-12
1.09266 7.84691 -2.00403e-11
-5.58764e-12 -2.00403e-11 6.46237

7.46497 1.13913 -1.37788e-11
1.13913 6.57592 5.005e-12
-1.37788e-11 5.005e-12 6.425

2.81728 -2.43998 5.85772e-11
-2.43998 3.42153 -3.854e-11
5.85772e-11 -3.854e-11 2.22143

-0.80484 -2.26722 -1.14641e-11
-2.26722 -0.520371 1.07876e-11
-1.14641e-11 1.07876e-11 -0.444599

2.54994 -0.6773 -1.35338e-11
-0.6773 -2.90107 -6.1654e-12
-1.35338e-11 -6.1654e-12 -0.0972469

-5.89805 2.45636 5.36621e-11
2.45636 -4.53062 -1.04014e-11
5.36621e-11 -1.04014e-11 -7.40969

-3.9605 -2.67346 -4.00458e-11
-2.67346 -7.82093 3.66471e-12
-4.00458e-11 3.66471e-12 -7.6854

-1.83832 -3.35296 9.73009e-12
-3.35296 1.62203 -1.59918e-11
9.73009e-12 -1.59918e-11 -0.123547

-3.31588 0.622096 -8.47679e-11
0.622096 -4.76417 2.04207e-11
-8.47679e-11 2.04207e-11 -3.88821

-2.22199 -2.54633 -2.35036e-11
-2.54633 -2.13522 -2.31056e-12
-2.35036e-11 -2.31056e-12 -3.2632

1.44808 -0.885327 -2.50489e-11
-0.885327 -3.47293 -4.23787e-12
-2.50489e-11 -4.23787e-12 -0.207335

-5.12371 -3.48036 6.39649e-11
-3.48036 -1.06307 -6.16714e-12
6.39649e-11 -6.16714e-12 -1.03113

4.9878 -2.13126 -4.31644e-11
-2.13126 5.90209 -3.08265e-12
-4.31644e-11 -3.08265e-12 4.94596

5.55212 1.55357 2.46626e-11
1.55357 5.46879 -1.32927e-11
2.46626e-11 -1.32927e-11 4.891

3.13163 -1.27021 -6.74438e-12
-1.27021 6.19667 4.10435e-11
-6.74438e-12 4.10435e-11 3.86495

3.06771 -1.39352 -3.96908e-11
-1.39352 6.05442 -8.86254e-12
-3.96908e-11 -8.86254e-12 3.74841

6.50528 -1.05798 2.16793e-11
-1.05798 3.18069 -7.80635e-12
2.16793e-11 -7.80635e-12 3.90242

3.11502 1.88503 -1.59922e-11
1.88503 2.73663 -2.11764e-12
-1.59922e-11 -2.11764e-12 2.04303

-3.00433 -3.72816 -3.37351e-12
-3.72816 1.19812 2.75513e-11
-3.37351e-12 2.75513e-11 -0.507275

3.51346 0.189466 7.90106e-12
0.189466 7.36956 5.18379e-11
7.90106e-12 5.18379e-11 4.87975

7.00084 -0.564911 -3.83478e-11
-0.564911 3.32356 2.23535e-11
-3.83478e-11 2.23535e-11 4.795

-3.54023 0.291057 -4.8546e-11
0.291057 0.342618 5.12443e-11
-4.8546e-11 5.12443e-11 -2.63123

-3.71896 -1.51688 2.1192e-11
-1.51688 -2.27656 -3.88208e-11
2.1192e-11 -3.88208e-11 -3.12746

1.12566 -1.74025 -2.62006e-11
-1.74025 -2.49487 1.04048e-11
-2.62006e-11 1.04048e-11 -0.469316

0.708316 -0.108711 2.46621e-11
-0.108711 -7.59824 8.4774e-12
2.46621e-11 8.4774e-12 -1.10305

0.271504 -1.87059 -1.02076e-11
-1.87059 3.73412 -1.54163e-11
-1.02076e-11 -1.54163e-11 1.54937

0.817642 -1.86601 1.23331e-11
-1.86601 3.97337 5.39635e-12
1.23331e-11 5.39635e-12 1.54047

1.67133 -0.103493 2.6991e-12
-0.103493 -3.7391 -5.008e-12
2.6991e-12 -5.008e-12 -0.196273

-1.91964 -2.56343 7.12878e-12
-2.56343 1.86932 -1.34867e-11
7.12878e-12 -1.34867e-11 -0.0560379

-2.26908 0.0388816 -2.6106e-11
0.0388816 -3.53977 5.68332e-11
-2.6106e-11 5.68332e-11 -3.10608

-3.21114 0.765827 -1.07862e-11
0.765827 -2.74246 -4.77797e-11
-1.07862e-11 -4.77797e-11 -3.05957

0.0369504 -2.41495 -4.0441e-12
-2.41495 -1.58915 -3.85336e-11
-4.0441e-12 -3.85336e-11 -0.564472

-1.9605 -2.46694 4.20016e-11
-2.46694 -0.297294 2.7358e-11
4.20016e-11 2.7358e-11 -0.315705

1.3715 -1.73435 -2.10019e-11
-1.73435 -4.13922 -5.39613e-12
-2.10019e-11 -5.39613e-12 -0.586494

-2.62957 -2.17252 -3.06347e-11
-2.17252 0.663489 -5.77849e-12
-3.06347e-11 -5.77849e-12 -0.230404

13.4321 -4.13793 -1.9274e-11
-4.13793 13.8337 5.85851e-11
-1.9274e-11 5.85851e-11 13.8203

-1.35685 -0.952912 -1.2525e-11
-0.952912 2.47872 3.68021e-11
-1.2525e-11 3.68021e-11 0.258101

-2.33677 -0.717749 -1.92032e-13
-0.717749 3.34236 2.27363e-11
-1.92032e-13 2.27363e-11 0.372658

-4.79855 -0.350218 2.02295e-11
-0.350218 1.21711 -1.73386e-11
2.02295e-11 -1.73386e-11 -3.0761

-4.28693 -0.414181 -1.13644e-11
-0.414181 -3.30122 -2.48516e-11
-1.13644e-11 -2.48516e-11 -3.74532

1.85167 -0.232743 5.32717e-11
-0.232743 -5.00641 -4.04565e-12
5.32717e-11 -4.04565e-12 -0.994897

1.36563 0.115067 -9.24768e-12
0.115067 -4.71162 -1.61834e-11
-9.24768e-12 -1.61834e-11 -0.979868

-1.90329 1.81055 2.56246e-11
1.81055 -2.9772 1.75339e-11
2.56246e-11 1.75339e-11 -1.69625

-0.830616 -3.25021 8.86565e-12
-3.25021 -2.82091 -1.65672e-11
8.86565e-12 -1.65672e-11 -1.43524

-1.95166 0.646926 -8.09071e-12
0.646926 -2.29462 -1.44508e-11
-8.09071e-12 -1.44508e-11 -2.67547

-0.536969 -1.15924 -5.27878e-11
-1.15924 -2.17509 -1.73358e-11
-5.27878e-11 -1.73358e-11 -2.45171

-4.96625 -1.26655 1.25058e-10
-1.26655 -6.3789 -5.49045e-11
1.25058e-10 -5.49045e-11 -6.56977

-4.53886 3.80314 -5.48799e-11
3.80314 -2.88452 -4.08465e-11
-5.48799e-11 -4.08465e-11 -5.75315

-3.32435 -3.35793 2.76474e-11
-3.35793 0.202206 -3.62217e-11
2.76474e-11 -3.62217e-11 -1.05843

-4.79287 4.15684 -2.13864e-11
4.15684 -2.01822 -1.38743e-11
-2.13864e-11 -1.38743e-11 -1.39698

1.26393 1.67951 -1.13691e-11
1.67951 -1.45612 1.15576e-12
-1.13691e-11 1.15576e-12 0.0432757

-2.51489 -1.43294 7.67395e-13
-1.43294 2.15234 1.73404e-11
7.67395e-13 1.73404e-11 0.022565

-0.931009 -2.17385 3.34265e-11
-2.17385 2.17369 3.46808e-11
3.34265e-11 3.46808e-11 0.179325

1.33617 -1.76711 2.071e-11
-1.76711 -1.05635 3.46812e-11
2.071e-11 3.46812e-11 0.0268651

-0.780314 1.63605 4.49393e-11
1.63605 1.99852 2.15795e-11
4.49393e-11 2.15795e-11 0.215745

-2.43772 0.965574 3.19813e-11
0.965574 2.37852 -4.43126e-11
3.19813e-11 -4.43126e-11 0.107177

0.151285 2.32083 -4.00749e-11
2.32083 0.0390837 -1.19501e-11
-4.00749e-11 -1.19501e-11 0.221744

-2.98632 2.78545 4.23813e-12
2.78545 -0.633683 -1.25222e-11
4.23813e-12 -1.25222e-11 -1.11716

-3.41402 -3.7226 3.8571e-13
-3.7226 -1.90792 -6.55121e-12
3.8571e-13 -6.55121e-12 -1.32783

0.446661 -2.84211 -4.77842e-11
-2.84211 0.682776 -2.65873e-11
-4.77842e-11 -2.65873e-11 0.236658

0.770311 0.82334 2.89023e-11
0.82334 -2.77221 5.5099e-11
2.89023e-11 5.5099e-11 -0.630844

-0.896296 -1.25615 -6.97367e-11
-1.25615 -1.61183 3.46708e-11
-6.97367e-11 3.46708e-11 -6.13692

-8.33628 0.76486 8.20679e-11
0.76486 -7.6081 -3.49619e-11
8.20679e-11 -3.49619e-11 -8.58201

-1.76889 -2.81671 4.33387e-12
-2.81671 1.00778 -1.92365e-13
4.33387e-12 -1.92365e-13 -0.406264

0.442516 -2.79006 -4.8167e-12
-2.79006 -2.53433 -5.00988e-12
-4.8167e-12 -5.00988e-12 -0.552288

0.217964 -0.24099 -6.16497e-11
-0.24099 -2.8162 -3.54498e-11
-6.16497e-11 -3.54498e-11 -1.5867

6.43747 -1.95944 -1.3298e-11
-1.95944 7.19287 4.20094e-11
-1.3298e-11 4.20094e-11 6.04927

7.14586 -1.74892 -4.00834e-11
-1.74892 5.94805 2.44742e-11
-4.00834e-11 2.44742e-11 5.84499

1.27193 0.192967 2.93806e-11
0.192967 -4.67667 1.00175e-11
2.93806e-11 1.00175e-11 -1.33537

0.359694 -0.151418 1.14395e-11
-0.151418 -4.34432 -2.19625e-11
1.14395e-11 -2.19625e-11 -1.38477

0.136005 -0.0368437 -3.85969e-13
-0.0368437 -4.5862 -2.19625e-11
-3.85969e-13 -2.19625e-11 -1.85991

3.32977 1.1891 -3.81547e-13
1.1891 -0.0551197 -3.81522e-11
-3.81547e-13 -3.81522e-11 0.916422

-1.58694 -1.79385 1.80585e-11
-1.79385 -0.207763 3.54508e-11
1.80585e-11 3.54508e-11 -0.906231

-1.86014 2.17879 1.70033e-11
2.17879 -1.80314 5.78121e-12
1.70033e-11 5.78121e-12 -1.07477

-4.73493 -1.99391 -2.3891e-11
-1.99391 -9.18529 -1.67071e-12
-2.3891e-11 -1.67071e-12 -8.14824

-2.39861 -0.212646 1.73396e-11
-0.212646 -0.303622 8.02058e-11
1.73396e-11 8.02058e-11 -6.15388

-2.81814 -3.16373 1.2909e-11
-3.16373 1.05734 -3.0832e-12
1.2909e-11 -3.0832e-12 -0.480126

1.77474 -2.22015 7.70162e-13
-2.22015 -1.6244 6.54806e-12
7.70162e-13 6.54806e-12 0.0718074

-0.566582 0.485949 -1.14839e-11
0.485949 -2.4059 4.77772e-11
-1.14839e-11 4.77772e-11 -1.39143

-0.088223 0.0772476 -2.47095e-11
0.0772476 -2.86825 -7.0896e-11
-2.47095e-11 -7.0896e-11 -1.47624

-3.20016 -1.2721 -1.4449e-11
-1.2721 0.64809 -9.24775e-12
-1.4449e-11 -9.24775e-12 -0.581795

-3.90779 -2.33227 -9.6304e-12
-2.33227 -1.08313 -2.92857e-11
-9.6304e-12 -2.92857e-11 -0.841456

14.0395 3.4994 8.6719e-12
3.4994 13.4824 -1.9655e-11
8.6719e-12 -1.9655e-11 13.8542

-3.0819 1.86697 1.54106e-12
1.86697 -0.776976 -1.84958e-11
1.54106e-12 -1.84958e-11 -1.58597

-3.06667 -2.42983 -1.44488e-11
-2.42983 -0.982264 1.52206e-11
-1.44488e-11 1.52206e-11 -1.59253

-3.78575 -2.20658 -3.2174e-11
-2.20658 0.315772 7.32351e-12
-3.2174e-11 7.32351e-12 -0.571678

3.45538 -1.48896 2.43719e-11
-1.48896 0.376898 4.60484e-11
2.43719e-11 4.60484e-11 0.901618

-0.403695 1.61829 -6.16544e-12
1.61829 -0.931807 -3.12118e-11
-6.16544e-12 -3.12118e-11 -0.564909

-1.58795 1.69933 4.23862e-11
1.69933 -1.30522 2.42775e-11
4.23862e-11 2.42775e-11 -1.27085

-0.422404 -2.61722 -3.46689e-12
-2.61722 -2.62152 -2.697e-11
-3.46689e-12 -2.697e-11 -1.25592

1.02372 0.653589 1.96521e-11
0.653589 -4.60278 6.1661e-12
1.96521e-11 6.1661e-12 -0.742164

-1.1083 -0.301878 -3.00987e-12
-0.301878 -2.94084 2.65842e-11
-3.00987e-12 2.65842e-11 -2.11604

-0.435636 0.47277 4.79966e-11
0.47277 -4.0668 -7.86015e-11
4.79966e-11 -7.86015e-11 -2.27105

-5.66636 0.86793 3.33248e-11
0.86793 0.156936 -5.70254e-11
3.33248e-11 -5.70254e-11 -5.69768

-6.72089 0.164339 -5.99123e-11
0.164339 -3.25865 7.28219e-11
-5.99123e-11 7.28219e-11 -6.38135

7.93351 -0.89513 3.75799e-11
-0.89513 5.64411 -3.46882e-11
3.75799e-11 -3.46882e-11 8.35609

4.80308 -0.594696 2.81372e-11
-0.594696 8.19882 1.77279e-11
2.81372e-11 1.77279e-11 8.25632

-2.30876 -2.78575 -2.41331e-11
-2.78575 1.05993 4.3158e-11
-2.41331e-11 4.3158e-11 -0.587382

-2.77159 2.41611 -3.18876e-11
2.41611 -1.24713 -3.86432e-13
-3.18876e-11 -3.86432e-13 -0.833649

-2.75276 -3.72837 -1.62809e-11
-3.72837 1.33037 1.67627e-11
-1.62809e-11 1.67627e-11 -0.435337

8.7845 0.954152 3.75781e-11
0.954152 8.6487 -9.63292e-12
3.75781e-11 -9.63292e-12 9.62024

8.83919 1.43877 1.23337e-11
1.43877 7.89517 -2.79424e-11
1.23337e-11 -2.79424e-11 9.35776

-12.3334 3.04834 -5.25908e-11
3.04834 -2.62054 1.56053e-10
-5.25908e-11 1.56053e-10 -8.61135

-9.022 -2.4057 3.32029e-11
-2.4057 -4.43701 1.10968e-10
3.32029e-11 1.10968e-10 -8.31648

-1.14124 2.2525 -7.9762e-11
2.2525 -1.04354 2.35025e-11
-7.9762e-11 2.35025e-11 -0.626239

-0.214928 -2.68769 -5.14437e-11
-2.68769 1.37306 1.04026e-11
-5.14437e-11 1.04026e-11 0.211435

-2.22496 -2.67008 -3.04377e-11
-2.67008 -0.19795 -4.12293e-11
-3.04377e-11 -4.12293e-11 -0.809374

-2.28207 2.68795 -2.98186e-11
2.68795 -1.2668 -1.38745e-11
-2.98186e-11 -1.38745e-11 -0.783284

-1.46647 -3.11785 -6.35299e-12
-3.11785 1.02162 -5.72237e-11
-6.35299e-12 -5.72237e-11 -0.194334

-0.468857 2.16721 -3.48713e-11
2.16721 0.698327 -2.81306e-11
-3.48713e-11 -2.81306e-11 0.234875

2.4747 -1.13671 -1.54412e-12
-1.13671 5.87858 7.68644e-13
-1.54412e-12 7.68644e-13 3.55991

3.33745 -0.977683 -2.23543e-11
-0.977683 6.0746 9.05727e-12
-2.23543e-11 9.05727e-12 3.7685

6.39635 -0.795804 9.35008e-12
-0.795804 3.18135 -8.66927e-12
9.35008e-12 -8.66927e-12 3.83238

-1.87204 2.43185 2.69869e-12
2.43185 0.0476717 3.31408e-11
2.69869e-12 3.31408e-11 -0.219577

3.71177 -0.125226 1.7148e-11
-0.125226 7.36251 -6.16661e-11
1.7148e-11 -6.16661e-11 5.05585

7.29676 0.249188 -1.05062e-11
0.249188 4.18699 1.27143e-11
-1.05062e-11 1.27143e-11 5.11939

-2.96531 -2.54879 2.22025e-11
-2.54879 -0.51118 2.79342e-11
2.22025e-11 2.79342e-11 -1.36673

-3.03226 3.09646 5.55842e-11
3.09646 -2.26791 2.04249e-11
5.55842e-11 2.04249e-11 -1.4545

-3.06389 -2.02969 2.7211e-11
-2.02969 -0.732057 3.89161e-11
2.7211e-11 3.89161e-11 -1.59952

-3.07614 2.73871 7.21016e-11
2.73871 -1.29396 -2.08018e-11
7.21016e-11 -2.08018e-11 -1.50831

8.71291 -1.82641 3.06399e-11
-1.82641 8.98462 1.27186e-11
3.06399e-11 1.27186e-11 9.89751

8.65159 -1.78068 3.82498e-11
-1.78068 9.14306 4.20077e-11
3.82498e-11 4.20077e-11 9.93014

-1.13338 2.26818 1.6568e-11
2.26818 -0.631173 4.97078e-11
1.6568e-11 4.97078e-11 -0.306022

-0.944685 -2.46125 9.54096e-12
-2.46125 0.851051 -5.78033e-11
9.54096e-12 -5.78033e-11 -0.208943

-3.96724 -0.641826 3.79518e-11
-0.641826 -1.09403 1.5414e-12
3.79518e-11 1.5414e-12 -3.93766

-4.7054 -0.768838 -1.04021e-11
-0.768838 -4.07421 -7.18597e-11
-1.04021e-11 -7.18597e-11 -4.53072

-3.7271 -2.65253 3.40033e-11
-2.65253 0.306519 2.83202e-11
3.40033e-11 2.83202e-11 -1.45307

-4.56292 2.83649 -2.38394e-11
2.83649 -0.751627 -2.89041e-11
-2.38394e-11 -2.89041e-11 -1.53206

-1.80279 -0.0357399 -6.09342e-12
-0.0357399 -4.9731 -9.78658e-11
-6.09342e-12 -9.78658e-11 -2.89621

-2.74221 0.601629 -2.21325e-11
0.601629 -4.43402 3.62197e-11
-2.21325e-11 3.62197e-11 -2.9049

-2.02269 2.5222 -5.20185e-11
2.5222 -0.222773 2.88977e-11
-5.20185e-11 2.88977e-11 -0.738266

-1.56298 -2.67234 -4.35419e-11
-2.67234 -1.46895 -7.68959e-13
-4.35419e-11 -7.68959e-13 -0.790719

-6.49461 -1.10207 2.98603e-11
-1.10207 -2.88044 -4.45039e-11
2.98603e-11 -4.45039e-11 -5.38971

-3.97031 1.07262 -3.85344e-12
1.07262 -5.3999 1.04029e-11
-3.85344e-12 1.04029e-11 -5.36286

-1.6637 -2.6099 2.38868e-11
-2.6099 -3.60432 -7.35925e-11
2.38868e-11 -7.35925e-11 -4.70865

-5.94303 -0.459766 -4.04578e-11
-0.459766 0.106581 8.93898e-11
-4.04578e-11 8.93898e-11 -4.81436

-4.21011 0.73446 -2.1408e-11
0.73446 -4.91259 -2.79684e-12
-2.1408e-11 -2.79684e-12 -4.91966

-7.86991 0.0942075 -8.35232e-11
0.0942075 -4.78126 5.58671e-11
-8.35232e-11 5.58671e-11 -6.80705

-2.9046 -0.803392 -5.54362e-11
-0.803392 -5.70654 1.49428e-11
-5.54362e-11 1.49428e-11 -4.85715

-5.34165 -0.296605 -5.52327e-11
-0.296605 -6.85867 3.14015e-11
-5.52327e-11 3.14015e-11 -6.74026

-7.27357 -1.45223 1.10911e-10
-1.45223 -5.80178 -2.16159e-10
1.10911e-10 -2.16159e-10 -7.10728

-5.30706 3.5007 -1.15867e-10
3.5007 -2.30915 -1.96131e-10
-1.15867e-10 -1.96131e-10 -5.92509

0.117556 1.00693 9.26411e-12
1.00693 -0.611363 2.71995e-10
9.26411e-12 2.71995e-10 -6.14205

1.36001 -1.67276 -2.20176e-10
-1.67276 -11.7195 -1.32123e-10
-2.20176e-10 -1.32123e-10 -8.09849

-4.35334 -1.88868 -8.64272e-13
-1.88868 -4.54625 -2.0998e-11
-8.64272e-13 -2.0998e-11 -5.25966

-3.54439 -1.38914 -5.69764e-11
-1.38914 -1.18442 1.17531e-11
-5.69764e-11 1.17531e-11 -2.70627

-2.95729 3.26676 -4.41613e-11
3.26676 -4.07856 -9.32459e-11
-4.41613e-11 -9.32459e-11 -4.76345

-3.23151 1.83207 2.50688e-12
1.83207 -2.14866 -6.55015e-11
2.50688e-12 -6.55015e-11 -2.63554

-5.50123 3.74039 -3.21417e-11
3.74039 -2.24661 1.15198e-10
-3.21417e-11 1.15198e-10 -6.53285

-6.75472 -0.402436 3.33424e-11
-0.402436 -7.63663 1.72996e-10
3.33424e-11 1.72996e-10 -7.87754

-4.7772 -1.23682 -4.63326e-11
-1.23682 -2.85929 3.50637e-11
-4.63326e-11 3.50637e-11 -3.74165

-4.28473 -0.742011 9.04199e-12
-0.742011 -4.38989 7.68667e-11
9.04199e-12 7.68667e-11 -4.96998

-3.80442 3.06398 4.60442e-11
3.06398 -2.02258 6.70495e-11
4.60442e-11 6.70495e-11 -3.25828

-5.39037 2.03154 6.45628e-11
2.03154 -3.49021 7.5134e-11
6.45628e-11 7.5134e-11 -4.95054

-3.32279 0.715933 -3.46946e-12
0.715933 1.76374 -1.1175e-11
-3.46946e-12 -1.1175e-11 -0.48342

-0.462664 -0.277576 3.17867e-11
-0.277576 0.984234 1.36803e-11
3.17867e-11 1.36803e-11 -0.167988

2.93953 0.686195 -3.99666e-12
0.686195 -2.69908 5.587e-12
-3.99666e-12 5.587e-12 0.0175476

3.96055 0.165766 -1.77269e-11
0.165766 -1.25941 -9.24821e-12
-1.77269e-11 -9.24821e-12 0.642282

-5.60655 0.810735 -2.19618e-11
0.810735 1.13905 6.16459e-12
-2.19618e-11 6.16459e-12 -1.67326

-2.86387 0.208565 1.44477e-11
0.208565 -0.781713 2.62019e-11
1.44477e-11 2.62019e-11 -1.35898

3.91918 -0.264843 -1.24271e-11
-0.264843 -1.39628 -1.65682e-11
-1.24271e-11 -1.65682e-11 0.630622

2.29871 -0.157985 -1.62562e-11
-0.157985 -3.9107 -6.55095e-12
-1.62562e-11 -6.55095e-12 -0.470933

1.49396 -1.58842 -1.9942e-11
-1.58842 5.01091 1.34857e-11
-1.9942e-11 1.34857e-11 2.59221

2.21061 2.57302 7.90005e-12
2.57302 4.95611 3.56495e-11
7.90005e-12 3.56495e-11 2.37153

4.47492 2.43544 2.71685e-11
2.43544 1.84168 1.77279e-11
2.71685e-11 1.77279e-11 2.48958

-1.65526 2.94514 -1.77235e-11
2.94514 0.113535 5.77205e-13
-1.77235e-11 5.77205e-13 -1.08263

-2.70466 -0.998796 5.8788e-12
-0.998796 0.283134 -1.31004e-11
5.8788e-12 -1.31004e-11 -1.34611

0.213365 2.50817 -4.28539e-12
2.50817 1.54078 3.661e-12
-4.28539e-12 3.661e-12 0.181558

-3.26492 2.21499 -2.41765e-11
2.21499 -0.289176 -5.20251e-12
-2.41765e-11 -5.20251e-12 -1.41868

-5.85232 -0.79677 -1.81068e-11
-0.79677 1.27634 2.31089e-12
-1.81068e-11 2.31089e-12 -1.70155

2.26831 -0.493936 4.71062e-11
-0.493936 -3.12877 1.04069e-11
4.71062e-11 1.04069e-11 0.0292862

1.56358 1.1741 8.8618e-12
1.1741 5.18895 1.02132e-11
8.8618e-12 1.02132e-11 1.86999

0.395071 -0.306891 -2.91526e-13
-0.306891 5.15757 3.08605e-12
-2.91526e-13 3.08605e-12 1.8794

5.1487 1.19664 1.31006e-11
1.19664 1.14448 4.81713e-11
1.31006e-11 4.81713e-11 2.06993

3.4847 -1.24101 -2.98619e-11
-1.24101 -0.702347 -1.84991e-11
-2.98619e-11 -1.84991e-11 0.85181

-0.705075 2.13669 -8.66834e-12
2.13669 2.6882 1.69544e-11
-8.66834e-12 1.69544e-11 0.67747

1.25256 -1.62338 3.85577e-12
-1.62338 2.47033 -2.42755e-11
3.85577e-12 -2.42755e-11 0.808189

2.93202 -0.799334 2.94809e-11
-0.799334 -2.9867 4.04659e-12
2.94809e-11 4.04659e-12 -3.23703e-05

4.97675 1.61694 -1.73421e-12
1.61694 6.83061 -2.58214e-11
-1.73421e-12 -2.58214e-11 4.38794

2.27562 0.168927 4.69653e-11
0.168927 -4.1035 5.01062e-12
4.69653e-11 5.01062e-12 -0.521481

6.55392 1.74687 -4.21965e-11
1.74687 4.83933 -1.92838e-12
-4.21965e-11 -1.92838e-12 4.60696

-3.19116 0.192692 7.70669e-12
0.192692 0.663469 1.34853e-11
7.70669e-12 1.34853e-11 -1.79273

-1.52186 1.01377 -1.7916e-11
1.01377 -0.583945 -5.39546e-12
-1.7916e-11 -5.39546e-12 -1.40229

-4.79271 -2.6082 6.55263e-11
-2.6082 -4.52277 -1.92654e-11
6.55263e-11 -1.92654e-11 -5.7617

-3.75415 1.13432 6.38634e-11
1.13432 -5.56689 2.13856e-11
6.38634e-11 2.13856e-11 -5.78152

5.46367 -0.371165 -2.36986e-11
-0.371165 1.37521 -2.35054e-11
-2.36986e-11 -2.35054e-11 2.15362

-0.584222 3.05351 1.64728e-11
3.05351 1.1204 9.82655e-12
1.64728e-11 9.82655e-12 -0.0330022

-1.35655 0.453521 3.15232e-11
0.453521 -1.94609 2.11949e-12
3.15232e-11 2.11949e-12 -1.97055

-2.40656 -1.38951 6.61301e-12
-1.38951 -2.69307 -1.27164e-11
6.61301e-12 -1.27164e-11 -2.24729

2.80006 -0.182241 -2.83705e-11
-0.182241 -4.4988 -3.66076e-12
-2.83705e-11 -3.66076e-12 -0.487325

-0.815868 2.52511 -7.692e-13
2.52511 1.72167 -3.46749e-12
-7.692e-13 -3.46749e-12 0.478005

0.392206 -2.30265 -1.53799e-12
-2.30265 2.20141 -4.93223e-11
-1.53799e-12 -4.93223e-11 0.623118

3.03207 -1.62426 -3.37634e-12
-1.62426 0.331415 1.77266e-11
-3.37634e-12 1.77266e-11 0.949454

2.76056 -0.385618 -2.14824e-11
-0.385618 -4.45749 -7.32184e-12
-2.14824e-11 -7.32184e-12 -0.378341

0.208023 2.9776 -3.12129e-11
2.9776 3.2227 5.75651e-13
-3.12129e-11 5.75651e-13 0.695771

-0.764744 -2.05399 -5.58686e-12
-2.05399 1.87464 -2.5821e-11
-5.58686e-12 -2.5821e-11 0.520641

0.235228 2.75422 2.50538e-12
2.75422 3.14477 -3.54517e-11
2.50538e-12 -3.54517e-11 0.667815

-1.07959 -1.65039 -1.10782e-11
-1.65039 2.96465 -2.54332e-11
-1.10782e-11 -2.54332e-11 0.659257

-0.719994 -1.36725 -3.46575e-12
-1.36725 0.429452 -2.11868e-12
-3.46575e-12 -2.11868e-12 -0.169704

-3.73563 1.92013 -1.44495e-11
1.92013 1.07301 -6.47365e-11
-1.44495e-11 -6.47365e-11 -0.428011

2.33263 -2.39492 2.02313e-11
-2.39492 1.35542 7.51932e-12
2.02313e-11 7.51932e-12 1.21553

13.4798 -2.11966 4.74074e-11
-2.11966 13.1767 -3.4497e-11
4.74074e-11 -3.4497e-11 13.3046

12.7972 -2.27765 -1.00209e-11
-2.27765 13.9399 -4.62375e-12
-1.00209e-11 -4.62375e-12 13.4705

-2.98011 3.57062 -4.91272e-12
3.57062 0.806441 -3.661e-12
-4.91272e-12 -3.661e-12 -0.872138

-5.38297 -2.32767 7.90146e-12
-2.32767 0.164973 -5.3945e-12
7.90146e-12 -5.3945e-12 -1.31727

8.07623 -0.457834 -6.3588e-12
-0.457834 8.09855 -2.42797e-11
-6.3588e-12 -2.42797e-11 8.96596

7.98758 -0.491355 -4.7596e-11
-0.491355 8.34141 -3.1798e-11
-4.7596e-11 -3.1798e-11 8.75949

-0.513963 2.04261 -3.0441e-11
2.04261 -2.68322 -3.85611e-12
-3.0441e-11 -3.85611e-12 -1.98641

0.110018 -1.55511 -2.00394e-11
-1.55511 -2.94663 5.1991e-12
-2.00394e-11 5.1991e-12 -1.42661

1.21732 -0.0707489 -1.09816e-11
-0.0707489 -3.96054 -1.77256e-11
-1.09816e-11 -1.77256e-11 -0.278814

-0.955982 2.87103 -5.85673e-11
2.87103 -3.06054 -7.55251e-11
-5.85673e-11 -7.55251e-11 -2.19245

-0.0882714 -2.07159 -7.7246e-12
-2.07159 -4.26199 1.30805e-10
-7.7246e-12 1.30805e-10 -1.72306

-2.52828 2.02744 -2.21587e-11
2.02744 1.76243 -1.54295e-12
-2.21587e-11 -1.54295e-12 0.0210884

-0.826133 -1.60051 7.89705e-12
-1.60051 1.62438 2.0038e-11
7.89705e-12 2.0038e-11 0.102021

-2.4162 1.00211 2.69229e-11
1.00211 -5.44163 2.02337e-11
2.69229e-11 2.02337e-11 -4.59412

-3.79128 -1.31831 5.27149e-11
-1.31831 -4.68375 8.59931e-12
5.27149e-11 8.59931e-12 -4.69431

-0.400075 3.09656 3.85316e-11
3.09656 -2.49066 4.38547e-12
3.85316e-11 4.38547e-12 -0.99097

0.487184 -2.44796 5.97281e-12
-2.44796 -2.77317 9.82484e-12
5.97281e-12 9.82484e-12 -0.707321

4.91142 -1.65538 1.07914e-11
-1.65538 2.25617 -1.30983e-11
1.07914e-11 -1.30983e-11 2.75555

-5.20287 -0.0851622 4.62332e-11
-0.0851622 0.122307 2.08072e-11
4.62332e-11 2.08072e-11 -4.00758

-3.96186 0.619946 6.16452e-12
0.619946 -2.22971 6.35717e-12
6.16452e-12 6.35717e-12 -3.20678

3.88376 -0.291765 2.12249e-12
-0.291765 6.95302 -3.77685e-11
2.12249e-12 -3.77685e-11 4.69497

6.93879 -0.362801 -1.35136e-12
-0.362801 4.30489 5.77867e-12
-1.35136e-12 5.77867e-12 4.78079

-4.05891 1.72022 4.29638e-11
1.72022 1.36678 -2.77413e-11
4.29638e-11 -2.77413e-11 -0.515423

-1.74617 -1.00568 -6.35601e-12
-1.00568 0.960143 -9.05542e-12
-6.35601e-12 -9.05542e-12 -0.312589

-1.55892 -0.594994 2.56965e-10
-0.594994 0.476035 1.24844e-10
2.56965e-10 1.24844e-10 -6.37096

-1.37984 -1.89026 -4.85234e-11
-1.89026 -7.10447 -1.18869e-10
-4.85234e-11 -1.18869e-10 -5.79911

0.892302 2.75072 1.7365e-12
2.75072 -3.04197 -5.39176e-12
1.7365e-12 -5.39176e-12 -0.50291

1.29245 -1.81369 2.48567e-11
-1.81369 -3.28061 -2.94757e-11
2.48567e-11 -2.94757e-11 -0.373707

5.42352 0.0457233 1.94141e-13
0.0457233 0.972872 -1.32948e-11
1.94141e-13 -1.32948e-11 2.09603

3.18966 0.0891704 -2.50777e-12
0.0891704 -1.55607 9.24836e-12
-2.50777e-12 9.24836e-12 0.598013

4.29939 1.33646 -3.40071e-11
1.33646 -0.156509 7.74029e-13
-3.40071e-11 7.74029e-13 1.13064

-0.865449 0.488613 1.6979e-11
0.488613 -4.13734 -1.17523e-11
1.6979e-11 -1.17523e-11 -1.96754

-10.0126 -0.971194 -5.65427e-12
-0.971194 -4.23533 -2.38903e-11
-5.65427e-12 -2.38903e-11 -7.72825

-7.11852 0.498921 -7.45786e-11
0.498921 -6.69478 6.95447e-11
-7.45786e-11 6.95447e-11 -7.63394

3.25573 2.32011 -1.51261e-11
2.32011 4.17732 4.73978e-11
-1.51261e-11 4.73978e-11 2.12794

0.354799 -2.01301 -6.45199e-12
-2.01301 -0.741467 -8.47467e-12
-6.45199e-12 -8.47467e-12 0.0393501

1.89873 2.20645 -1.91069e-13
2.20645 -2.22125 -1.34875e-11
-1.91069e-13 -1.34875e-11 0.0321589

-5.23046 0.943944 -9.1312e-11
0.943944 -3.40329 4.51735e-11
-9.1312e-11 4.51735e-11 -4.3632

-5.00475 1.40135 -1.5797e-11
1.40135 -0.464243 2.2731e-11
-1.5797e-11 2.2731e-11 -4.99107

-1.69439 -1.16713 7.71938e-13
-1.16713 -3.79214 1.61849e-11
7.71938e-13 1.61849e-11 -2.04949

-0.894805 1.81216 -2.61072e-11
1.81216 1.36157 2.5037e-12
-2.61072e-11 2.5037e-12 -0.257619

-3.61578 -0.329257 -2.48511e-11
-0.329257 1.926 -2.27364e-11
-2.48511e-11 -2.27364e-11 -0.56898

1.09592 1.36729 3.66054e-11
1.36729 -5.00656 4.93225e-11
3.66054e-11 4.93225e-11 -0.621982

1.28193 -0.275154 8.86472e-12
-0.275154 -5.38813 -3.6988e-11
8.86472e-12 -3.6988e-11 -0.55802

4.4169 -1.80181 4.44023e-12
-1.80181 3.26133 -1.83056e-11
4.44023e-12 -1.83056e-11 2.40016

0.610779 2.46773 2.62474e-11
2.46773 -4.34843 5.7818e-12
2.62474e-11 5.7818e-12 -1.14283

0.863686 -1.55816 -7.66235e-12
-1.55816 -5.3274 5.58703e-11
-7.66235e-12 5.58703e-11 -0.997378

1.92689 -1.20468 2.73586e-11
-1.20468 -2.06841 -2.13825e-11
2.73586e-11 -2.13825e-11 0.0981707

0.896477 1.7915 2.1193e-11
1.7915 -3.60484 1.92701e-12
2.1193e-11 1.92701e-12 -0.619609

0.722311 -0.912958 2.62024e-11
-0.912958 -3.98568 -2.36926e-11
2.62024e-11 -2.36926e-11 -0.560579

2.10423 -0.766803 -6.11999e-12
-0.766803 -2.11704 3.23654e-11
-6.11999e-12 3.23654e-11 -0.0300243

-2.6757 3.22651 1.83024e-11
3.22651 -1.1032 -2.00337e-11
1.83024e-11 -2.00337e-11 -0.660167

0.322392 -2.76927 2.1969e-11
-2.76927 -1.01888 -5.39405e-11
2.1969e-11 -5.39405e-11 -0.245945

2.69677 2.17347 -1.44322e-12
2.17347 1.9245 1.29104e-11
-1.44322e-12 1.29104e-11 1.03114

-1.59919 -2.02697 -1.71467e-11
-2.02697 -0.093091 2.52361e-11
-1.71467e-11 2.52361e-11 -0.415204

-4.12483 2.24914 1.1366e-11
2.24914 -1.00471 1.73411e-11
1.1366e-11 1.73411e-11 -0.8916

3.36721 1.98487 -1.75345e-11
1.98487 -0.994168 9.24881e-12
-1.75345e-11 9.24881e-12 0.856364

-0.665271 -1.77427 9.05857e-12
-1.77427 -2.44084 -2.81309e-11
9.05857e-12 -2.81309e-11 -0.783593

2.57204 0.742786 5.97374e-12
0.742786 -1.16846 -3.39086e-11
5.97374e-12 -3.39086e-11 0.181485

1.40515 2.83028 -1.61847e-11
2.83028 1.89471 1.21377e-11
-1.61847e-11 1.21377e-11 0.83501

0.879301 2.2849 9.19901e-12
2.2849 -0.390132 1.88824e-11
9.19901e-12 1.88824e-11 0.0111855

-2.47683 0.90909 9.43832e-12
0.90909 1.09891 1.32943e-11
9.43832e-12 1.32943e-11 -0.540646

-4.70003 0.255592 -4.1999e-11
0.255592 2.33568 -1.96559e-11
-4.1999e-11 -1.96559e-11 -0.59548

5.07606 -1.74006 4.5289e-12
-1.74006 1.54293 2.1003e-11
4.5289e-12 2.1003e-11 2.46955

-3.60228 -3.15984 1.85933e-11
-3.15984 -1.03657 -4.62434e-12
1.85933e-11 -4.62434e-12 -0.783043

-2.40366 3.46686 -5.68368e-12
3.46686 0.900856 -5.39407e-12
-5.68368e-12 -5.39407e-12 -0.59588

2.38373 -2.55922 -1.63848e-11
-2.55922 2.63149 -1.04051e-11
-1.63848e-11 -1.04051e-11 1.279

1.09785 3.08172 6.35388e-12
3.08172 2.65835 -1.96509e-11
6.35388e-12 -1.96509e-11 1.18458

1.56884 -1.43317 1.25163e-12
-1.43317 -1.59478 1.7625e-11
1.25163e-12 1.7625e-11 -0.00663752

0.820655 -0.369306 3.75729e-12
-0.369306 -4.9787 -1.3486e-11
3.75729e-12 -1.3486e-11 -1.18907

1.63512 0.106436 -3.08274e-12
0.106436 -5.09214 6.16431e-12
-3.08274e-12 6.16431e-12 -1.07661

0.0955413 -2.40058 -3.04411e-11
-2.40058 0.517491 -3.44886e-11
-3.04411e-11 -3.44886e-11 0.285952

0.660057 0.491327 -3.04431e-11
0.491327 5.52607 -3.08317e-11
-3.04431e-11 -3.08317e-11 2.01474

-0.241576 0.422262 3.83411e-11
0.422262 5.54592 3.47056e-12
3.83411e-11 3.47056e-12 2.06143

5.38895 0.446484 5.78175e-12
0.446484 0.358087 2.04269e-11
5.78175e-12 2.04269e-11 2.20874

3.69552 2.55045 8.6738e-12
2.55045 3.10047 5.40049e-12
8.6738e-12 5.40049e-12 2.29323

2.86889 -2.50393 2.42803e-11
-2.50393 0.423963 -3.02506e-11
2.42803e-11 -3.02506e-11 0.994344

-7.79206 2.85875 -1.91868e-10
2.85875 -4.24672 4.05399e-11
-1.91868e-10 4.05399e-11 -6.23283

-0.863868 -0.751547 1.84929e-11
-0.751547 -0.709781 3.15911e-11
1.84929e-11 3.15911e-11 -5.81339

3.672 -0.850082 -1.0409e-11
-0.850082 -1.23664 2.27354e-11
-1.0409e-11 2.27354e-11 0.82304

-2.92595 2.2542 -3.79566e-11
2.2542 0.438183 -2.08097e-11
-3.79566e-11 -2.08097e-11 -0.296892

-0.220233 -2.54879 1.77228e-11
-2.54879 0.65672 2.69733e-11
1.77228e-11 2.69733e-11 0.0269755

1.63667 1.16709 7.71235e-13
1.16709 -3.79436 -2.31217e-12
7.71235e-13 -2.31217e-12 -0.1907

-0.15469 2.38016 1.02125e-11
2.38016 3.78244 -6.51264e-11
1.02125e-11 -6.51264e-11 0.800504

-1.75172 -1.05876 1.83057e-11
-1.05876 3.50741 -5.0482e-11
1.83057e-11 -5.0482e-11 0.67698

-5.65775 2.39665 -2.00358e-11
2.39665 0.166951 5.78139e-12
-2.00358e-11 5.78139e-12 -1.30705

-1.76272 -0.990771 -4.08432e-11
-0.990771 -0.336307 1.36772e-11
-4.08432e-11 1.36772e-11 -0.637115

-3.6943 2.42512 2.11924e-11
2.42512 -1.76613 1.65729e-11
2.11924e-11 1.65729e-11 -0.93203

-0.87063 -2.45705 -1.02101e-11
-2.45705 -0.578803 -1.00179e-11
-1.02101e-11 -1.00179e-11 -0.370802

0.907245 0.196235 8.47729e-12
0.196235 -8.28224 7.70625e-12
8.47729e-12 7.70625e-12 -1.07987

2.29537 3.09143 -2.83222e-11
3.09143 0.590977 -2.35083e-11
-2.83222e-11 -2.35083e-11 1.02655

-2.6027 3.70164 -1.6713e-11
3.70164 1.77257 -8.28561e-12
-1.6713e-11 -8.28561e-12 -0.464739

-4.42044 -2.74364 2.12905e-11
-2.74364 -1.96851 1.07896e-11
2.12905e-11 1.07896e-11 -1.05492

1.45352 2.61839 -2.73572e-11
2.61839 1.11363 3.27551e-11
-2.73572e-11 3.27551e-11 0.857533

2.77906 -1.5909 -2.60118e-12
-1.5909 4.28047 -2.5245e-11
-2.60118e-12 -2.5245e-11 2.41894

-1.93498 -2.38774 1.15596e-11
-2.38774 -0.301498 -5.0094e-12
1.15596e-11 -5.0094e-12 -0.324305

1.83601 -0.509011 -1.23341e-11
-0.509011 4.79765 -3.95002e-11
-1.23341e-11 -3.95002e-11 1.77823

0.258593 1.35495 -5.78439e-12
1.35495 4.83218 4.20075e-11
-5.78439e-12 4.20075e-11 1.66368

4.70067 -0.521782 2.62046e-11
-0.521782 1.16661 1.75347e-11
2.62046e-11 1.75347e-11 1.88568

2.23648 -2.24515 6.73469e-12
-2.24515 1.68141 2.8708e-11
6.73469e-12 2.8708e-11 1.009

-2.26931 0.369927 -4.00747e-11
0.369927 3.41173 -1.38764e-11
-4.00747e-11 -1.38764e-11 0.366866

0.249445 0.515858 3.56431e-11
0.515858 3.06833 1.65692e-11
3.56431e-11 1.65692e-11 0.582935

3.51621 -2.12643 -4.23594e-12
-2.12643 4.14201 -1.05957e-11
-4.23594e-12 -1.05957e-11 2.57949

2.30235 2.64348 1.75335e-11
2.64348 4.08264 6.9383e-12
1.75335e-11 6.9383e-12 2.40119

-0.0365144 0.508586 2.1578e-11
0.508586 -5.45631 3.77612e-11
2.1578e-11 3.77612e-11 -0.85952

-0.183024 0.00455431 -3.3521e-11
0.00455431 -5.9897 -6.08801e-11
-3.3521e-11 -6.08801e-11 -0.883151

-1.79342 2.6974 8.47629e-12
2.6974 -0.434685 -4.4311e-11
8.47629e-12 -4.4311e-11 -0.270466

-0.0801509 -2.24048 -4.08434e-11
-2.24048 0.512259 -2.89206e-12
-4.08434e-11 -2.89206e-12 0.0238702

-2.97131 3.65718 4.14221e-12
3.65718 1.14639 5.55112e-16
4.14221e-12 5.55112e-16 -0.735468

-5.99698 -2.07697 -1.18448e-11
-2.07697 0.066598 -3.12123e-11
-1.18448e-11 -3.12123e-11 -1.25994

-1.48916 2.40842 2.38433e-11
2.40842 -0.557596 1.31032e-11
2.38433e-11 1.31032e-11 -0.736873

5.92594 1.50406 4.83613e-13
1.50406 3.2557 -3.66255e-12
4.83613e-13 -3.66255e-12 3.48029

0.0277165 -1.36917 -3.21742e-11
-1.36917 3.40704 -3.54532e-11
-3.21742e-11 -3.54532e-11 0.804603

-1.6658 1.84603 -2.29277e-11
1.84603 3.43976 3.04425e-11
-2.29277e-11 3.04425e-11 0.689482

0.225729 2.20326 -1.04047e-11
2.20326 -3.44214 2.18662e-11
-1.04047e-11 2.18662e-11 -1.41575

0.584625 -1.26498 5.04787e-11
-1.26498 -3.62913 -2.31052e-12
5.04787e-11 -2.31052e-12 -1.04879

1.68176 -2.09587 -5.95331e-11
-2.09587 -0.364224 -1.58056e-11
-5.95331e-11 -1.58056e-11 0.293423

0.915702 2.60275 -2.1176e-12
2.60275 -2.12989 -5.39282e-12
-2.1176e-12 -5.39282e-12 -0.399319

1.12656 -1.81831 2.4858e-11
-1.81831 -1.8045 -1.5604e-11
2.4858e-11 -1.5604e-11 -0.223907

7.91623 -0.692696 1.00206e-11
-0.692696 4.72224 3.12215e-11
1.00206e-11 3.12215e-11 8.28746

4.76396 -0.859078 -3.44929e-11
-0.859078 7.71669 -2.70075e-12
-3.44929e-11 -2.70075e-12 8.39827

-0.678165 2.93618 7.70561e-12
2.93618 -3.3642 -2.65828e-11
7.70561e-12 -2.65828e-11 -3.8012

-0.133761 -2.06424 7.01241e-11
-2.06424 -5.65906 1.19538e-11
7.01241e-11 1.19538e-11 -3.11529

1.2684 2.86075 2.46648e-11
2.86075 -0.734064 4.62386e-12
2.46648e-11 4.62386e-12 0.203886

6.18244 1.36097 2.36066e-11
1.36097 2.91263 4.43373e-12
2.36066e-11 4.43373e-12 3.52206

-2.32174 2.55318 2.466e-11
2.55318 1.62108 -1.40627e-11
2.466e-11 -1.40627e-11 -0.403537

-4.45971 -0.987827 -2.909e-11
-0.987827 2.0815 -2.27358e-11
-2.909e-11 -2.27358e-11 -0.504784

1.1089 -2.42899 -3.04418e-11
-2.42899 2.24167 -1.57999e-11
-3.04418e-11 -1.57999e-11 1.12282

-2.57748 1.57293 6.4154e-11
1.57293 -0.284854 9.82634e-12
6.4154e-11 9.82634e-12 -1.45557

-1.9811 -0.892621 3.79505e-11
-0.892621 -0.861253 5.58738e-12
3.79505e-11 5.58738e-12 -1.20204

3.79846 1.91251 -5.49124e-12
1.91251 0.483677 -3.85351e-11
-5.49124e-12 -3.85351e-11 1.177

3.00818 1.03264 1.17547e-11
1.03264 -1.82549 2.35067e-11
1.17547e-11 2.35067e-11 0.508122

-5.46704 3.57844 -8.86298e-12
3.57844 -0.947417 2.62034e-11
-8.86298e-12 2.62034e-11 -1.02683

-0.226934 -1.84011 2.48508e-11
-1.84011 -0.32874 2.69688e-11
2.48508e-11 2.69688e-11 -0.127959

-1.64513 2.95926 2.00372e-11
2.95926 2.52989 5.4529e-11
2.00372e-11 5.4529e-11 0.0402807

-3.08577 -1.58471 -1.80175e-11
-1.58471 1.83273 6.08861e-11
-1.80175e-11 6.08861e-11 -0.0598607

-0.11869 3.23155 -2.29275e-11
3.23155 -1.60022 -1.6571e-11
-2.29275e-11 -1.6571e-11 -0.358672

0.993457 -2.75117 -1.90715e-11
-2.75117 -1.38373 -1.31029e-11
-1.90715e-11 -1.31029e-11 -0.134566

-2.47989 0.916838 1.48373e-11
0.916838 3.4129 -4.12336e-11
1.48373e-11 -4.12336e-11 0.378822

-0.595258 -0.0696843 1.15534e-12
-0.0696843 2.8548 -7.68052e-13
1.15534e-12 -7.68052e-13 0.424754

6.68832 -1.04805 -5.9717e-12
-1.04805 8.38729 -8.4787e-12
-5.9717e-12 -8.4787e-12 6.81351

8.13051 -1.01711 -8.96165e-12
-1.01711 6.99654 -2.69666e-12
-8.96165e-12 -2.69666e-12 6.82264

1.92749 1.6778 -1.10762e-11
1.6778 -2.99483 3.85081e-12
-1.10762e-11 3.85081e-12 -0.0406941

0.516601 0.510653 2.02658e-10
0.510653 -3.4108 1.33309e-10
2.02658e-10 1.33309e-10 -6.01564

-0.480114 -1.83199 1.53348e-10
-1.83199 -7.11976 1.50393e-11
1.53348e-10 1.50393e-11 -5.22806

-4.36215 -2.42814 -5.63386e-12
-2.42814 -1.72027 1.04013e-11
-5.63386e-12 1.04013e-11 -3.40574

-4.27135 0.759854 3.04864e-11
0.759854 -3.10079 -2.02269e-11
3.04864e-11 -2.02269e-11 -3.74948

3.44596 -0.144673 9.87447e-12
-0.144673 -3.077 1.88825e-11
9.87447e-12 1.88825e-11 0.0329802

-2.83647 3.97899 -2.34073e-11
3.97899 1.68257 7.69625e-13
-2.34073e-11 7.69625e-13 -0.447014

-6.1268 -3.73486 -2.02237e-12
-3.73486 -1.02682 -8.09236e-12
-2.02237e-12 -8.09236e-12 -1.09167

5.35373 1.98696 6.16796e-12
1.98696 6.18772 -1.65714e-11
6.16796e-12 -1.65714e-11 5.22247

6.04426 2.08644 -1.83037e-11
2.08644 5.75028 -2.31225e-11
-1.83037e-11 -2.31225e-11 4.95648

3.43702 -0.762621 -4.06573e-11
-0.762621 6.59473 6.16322e-12
-4.06573e-11 6.16322e-12 4.03639

3.16587 1.57598 9.05546e-12
1.57598 6.23933 -2.31792e-12
9.05546e-12 -2.31792e-12 3.88311

6.62512 -0.381375 1.73458e-11
-0.381375 3.29115 -1.05856e-12
1.73458e-11 -1.05856e-12 4.13093

3.9576 0.928324 -7.90136e-12
0.928324 7.69332 -1.81143e-11
-7.90136e-12 -1.81143e-11 5.03813

7.30722 1.08818 -1.77269e-11
1.08818 4.07153 3.85728e-12
-1.77269e-11 3.85728e-12 5.19884

-3.78303 0.279121 4.12271e-11
0.279121 0.360165 4.93221e-11
4.12271e-11 4.93221e-11 -2.60117

-3.04529 2.09273 -2.88928e-12
2.09273 -0.777601 4.55611e-11
-2.88928e-12 4.55611e-11 -2.26177

1.74968 0.334828 1.60402e-11
0.334828 -1.67615 3.65941e-12
1.60402e-11 3.65941e-12 -0.323804

2.80901 -0.0644782 -3.75731e-12
-0.0644782 -4.88481 1.96507e-11
-3.75731e-12 1.96507e-11 -0.463089

1.35303 -1.26656 2.00387e-11
-1.26656 4.10481 -1.8883e-11
2.00387e-11 -1.8883e-11 1.66111

0.429773 1.90068 9.82555e-12
1.90068 3.76613 1.61871e-11
9.82555e-12 1.61871e-11 1.56787

3.26638 -0.0951449 5.73393e-12
-0.0951449 -3.40128 -2.96667e-11
5.73393e-12 -2.96667e-11 -0.0502153

-0.557048 1.62139 -5.97207e-11
1.62139 -3.1826 -6.16489e-11
-5.97207e-11 -6.16489e-11 -2.7

-0.0938389 -1.15282 -8.48518e-12
-1.15282 -4.3869 8.24529e-11
-8.48518e-12 8.24529e-11 -2.11013

-0.359841 1.57021 -5.87252e-12
1.57021 0.0951603 4.54678e-11
-5.87252e-12 4.54678e-11 -0.457176

-2.43668 -2.60316 -1.01156e-11
-2.60316 -0.255574 2.35041e-11
-1.01156e-11 2.35041e-11 -0.310211

-1.58242 3.34381 6.45369e-12
3.34381 2.26519 3.66152e-12
6.45369e-12 3.66152e-12 -0.0495123

1.95806 0.331496 2.45187e-11
0.331496 -3.61797 -1.15524e-12
2.45187e-11 -1.15524e-12 -0.543717

3.70019 2.39006 -1.09802e-11
2.39006 3.02546 -6.55009e-12
-1.09802e-11 -6.55009e-12 2.12124

-3.33325 -1.98122 1.11733e-11
-1.98122 0.789937 2.62043e-11
1.11733e-11 2.62043e-11 -0.267205

-1.45671 3.57455 -1.76277e-11
3.57455 2.01863 1.81098e-11
-1.76277e-11 1.81098e-11 -0.0521238

13.9125 4.17503 3.56501e-11
4.17503 14.2244 3.16073e-11
3.56501e-11 3.16073e-11 14.1236

-2.74386 -0.249759 4.40235e-11
-0.249759 3.47503 1.58037e-11
4.40235e-11 1.58037e-11 0.338889

-1.15092 1.36152 -5.49099e-11
1.36152 3.02375 2.25386e-11
-5.49099e-11 2.25386e-11 0.320323

-4.97414 -0.329096 1.90708e-11
-0.329096 1.22479 1.69532e-11
1.90708e-11 1.69532e-11 -3.0457

-3.455 1.65294 -2.56245e-11
1.65294 -2.09705 -3.41968e-11
-2.56245e-11 -3.41968e-11 -2.76283

0.69719 1.35169 -5.00979e-12
1.35169 -6.98513 4.23892e-12
-5.00979e-12 4.23892e-12 -1.33948

0.857974 -0.922042 -1.07856e-11
-0.922042 -8.37283 -3.46789e-11
-1.07856e-11 -3.46789e-11 -1.32702

-2.17219 1.81082 -6.69486e-11
1.81082 -1.7166 1.42563e-11
-6.69486e-11 1.42563e-11 -1.56195

-2.61456 -2.72807 -3.06783e-11
-2.72807 -2.06265 -4.54658e-11
-3.06783e-11 -4.54658e-11 -1.54765

-3.60106 1.53289 2.39846e-11
1.53289 -1.32639 3.06326e-11
2.39846e-11 3.06326e-11 -2.86734

-3.46487 -2.143 -1.25727e-11
-2.143 -2.6222 3.6795e-11
-1.25727e-11 3.6795e-11 -2.88243

-1.14789 2.814 -1.57943e-11
2.814 -2.68108 2.69695e-11
-1.57943e-11 2.69695e-11 -5.15425

-0.491377 -1.98523 -3.08185e-11
-1.98523 -6.04669 -6.55002e-12
-3.08185e-11 -6.55002e-12 -4.18401

-3.82701 3.94328 -7.89863e-12
3.94328 -2.05899 1.8494e-11
-7.89863e-12 1.8494e-11 -1.31253

0.66755 -2.1184 -1.86863e-11
-2.1184 -1.70428 -2.31185e-11
-1.86863e-11 -2.31185e-11 -0.433664

1.46084 2.91985 5.22144e-11
2.91985 -1.52894 -1.46415e-11
5.22144e-11 -1.46415e-11 0.111954

-0.530515 2.52314 1.05958e-11
2.52314 2.61239 4.62404e-11
1.05958e-11 4.62404e-11 0.264102

-2.81905 -1.0079 -1.19496e-11
-1.0079 2.4673 6.89796e-11
-1.19496e-11 6.89796e-11 0.0626867

1.522 -2.95694 -1.54095e-12
-2.95694 0.056986 -2.88862e-12
-1.54095e-12 -2.88862e-12 0.375012

4.08224 -1.59403 1.28127e-11
-1.59403 3.44397 -5.00796e-12
1.28127e-11 -5.00796e-12 2.53746

2.21206 -2.1249 -3.12107e-11
-2.1249 -1.39227 -1.69612e-11
-3.12107e-11 -1.69612e-11 0.264946

0.371291 3.21644 -1.81094e-11
3.21644 -0.164138 5.77956e-12
-1.81094e-11 5.77956e-12 0.219592

-5.1658 -4.31301 -3.26566e-11
-4.31301 -1.95124 4.93249e-11
-3.26566e-11 4.93249e-11 -1.48778

-3.34443 3.43686 -6.4063e-12
3.43686 0.389846 -2.08075e-11
-6.4063e-12 -2.08075e-11 -1.13434

1.02174 -0.758979 3.27077e-11
-0.758979 -2.35497 -1.88812e-11
3.27077e-11 -1.88812e-11 -0.560388

-0.981925 -1.27139 5.70201e-11
-1.27139 -1.59828 3.19811e-11
5.70201e-11 3.19811e-11 -6.04833

-6.37074 1.09209 8.95762e-11
1.09209 -4.48387 2.12906e-11
8.95762e-11 2.12906e-11 -6.30376

-0.195261 1.31737 -9.77862e-12
1.31737 -1.98041 3.41e-11
-9.77862e-12 3.41e-11 -0.735114

0.472432 -0.526119 -1.39441e-11
-0.526119 -3.7674 5.97145e-12
-1.39441e-11 5.97145e-12 -1.71588

7.0826 -1.4878 -2.38947e-11
-1.4878 8.01717 -7.13252e-12
-2.38947e-11 -7.13252e-12 6.46389

8.0827 -1.41071 -4.75939e-11
-1.41071 6.33377 2.79354e-12
-4.75939e-11 2.79354e-12 6.33477

0.661035 0.432515 -7.70772e-12
0.432515 -5.0659 3.42924e-11
-7.70772e-12 3.42924e-11 -1.35939

0.538474 0.110236 3.19763e-11
0.110236 -6.19617 5.76066e-11
3.19763e-11 5.76066e-11 -1.24067

-0.309628 0.0430646 2.02048e-11
0.0430646 -3.09833 2.6201e-11
2.02048e-11 2.6201e-11 -1.72099

0.194387 -1.17166 -5.76206e-12
-1.17166 1.96543 4.46979e-11
-5.76206e-12 4.46979e-11 0.336125

-2.42858 1.5227 5.71711e-11
1.5227 2.2834 2.73643e-11
5.71711e-11 2.73643e-11 0.0962033

3.03534 2.34516 -1.57001e-11
2.34516 -0.19145 -4.00787e-11
-1.57001e-11 -4.00787e-11 0.880282

-0.286805 2.67843 3.73734e-11
2.67843 -2.21238 -1.19411e-11
3.73734e-11 -1.19411e-11 -0.91203

0.425907 -2.0963 9.05849e-12
-2.0963 -1.61585 -1.54109e-11
9.05849e-12 -1.54109e-11 -0.539949

-6.79487 0.348259 2.65416e-11
0.348259 -8.19906 -1.37366e-10
2.65416e-11 -1.37366e-10 -8.29693

-6.28748 -2.96678 8.80847e-12
-2.96678 -2.2851 9.78134e-11
8.80847e-12 9.78134e-11 -7.00914

2.1518 1.17578 -2.15801e-11
1.17578 -0.300124 4.41196e-11
-2.15801e-11 4.41196e-11 0.228352

0.246684 1.88768 2.21486e-12
1.88768 -2.86802 -3.19789e-11
2.21486e-12 -3.19789e-11 -1.32368

0.369531 -1.40564 -1.00098e-11
-1.40564 -3.73211 -6.49221e-11
-1.00098e-11 -6.49221e-11 -1.08545

-3.60683 -1.14351 -1.40621e-11
-1.14351 0.896332 -2.11934e-11
-1.40621e-11 -2.11934e-11 -0.539483

-1.37593 3.23999 1.91695e-11
3.23999 1.59473 -1.71459e-11
1.91695e-11 -1.71459e-11 -0.240819

-2.27051 4.12518 9.44013e-12
4.12518 1.82065 -9.24697e-12
9.44013e-12 -9.24697e-12 -0.303286

-4.41702 -2.47845 1.01145e-11
-2.47845 -1.15441 6.93889e-16
1.01145e-11 6.93889e-16 -0.849755

15.2228 4.76637 -5.62707e-11
4.76637 15.3536 9.56938e-13
-5.62707e-11 9.56938e-13 14.7882

-3.35558 2.55573 1.37745e-11
2.55573 0.447361 1.02119e-11
1.37745e-11 1.02119e-11 -1.49517

-4.69067 -2.91469 -8.71766e-12
-2.91469 -1.02281 1.75337e-11
-8.71766e-12 1.75337e-11 -1.72134

-4.53526 -2.26045 9.92401e-12
-2.26045 0.335943 -4.8168e-11
9.92401e-12 -4.8168e-11 -0.623955

-2.56513 3.5423 -6.93591e-12
3.5423 1.7484 -9.63326e-12
-6.93591e-12 -9.63326e-12 -0.363936

3.37808 -1.56916 -1.67596e-11
-1.56916 0.0816123 -4.81697e-11
-1.67596e-11 -4.81697e-11 0.932162

-0.889849 -1.89941 -1.42812e-13
-1.89941 -1.27188 -2.81291e-11
-1.42812e-13 -2.81291e-11 -0.63899

-2.5347 2.07951 -3.92541e-11
2.07951 -0.513805 -2.29275e-11
-3.92541e-11 -2.29275e-11 -1.39118

-2.73991 -2.83195 -2.47078e-11
-2.83195 -2.31287 -1.57961e-11
-2.47078e-11 -1.57961e-11 -1.49821

1.28673 -0.742248 1.73396e-11
-0.742248 -4.0661 2.38911e-11
1.73396e-11 2.38911e-11 -0.726601

-0.217289 0.780317 -2.92851e-11
0.780317 -2.31329 -3.9301e-11
-2.92851e-11 -3.9301e-11 -1.79939

-0.272798 -0.798595 1.84922e-11
-0.798595 -4.5202 8.86535e-12
1.84922e-11 8.86535e-12 -1.65889

-5.84476 0.870375 1.50245e-11
0.870375 0.16275 2.50435e-11
1.50245e-11 2.50435e-11 -5.64119

-5.54171 1.15252 6.95419e-11
1.15252 -1.91635 2.31352e-12
6.95419e-11 2.31352e-12 -4.77764

8.22713 0.900945 -2.87147e-11
0.900945 5.85793 -5.7836e-12
-2.87147e-11 -5.7836e-12 8.64101

5.97084 0.897484 -6.06975e-11
0.897484 8.64456 1.0792e-11
-6.06975e-11 1.0792e-11 8.64256

-1.71987 2.60263 -3.50637e-11
2.60263 -1.64299 2.69729e-12
-3.50637e-11 2.69729e-12 -0.779744

-0.1105 -2.67308 -7.61317e-13
-2.67308 -0.769551 -6.39591e-11
-7.61317e-13 -6.39591e-11 -0.366667

9.51684 1.77516 -2.00427e-11
1.77516 9.27256 -1.88872e-11
-2.00427e-11 -1.88872e-11 10.1007

9.16228 1.94242 -3.00653e-11
1.94242 9.27185 2.23515e-11
-3.00653e-11 2.23515e-11 10.038

-1.88421 -0.696544 6.89446e-11
-0.696544 -3.73036 1.10966e-10
6.89446e-11 1.10966e-10 -5.18327

-1.33824 -0.449945 5.35626e-11
-0.449945 -0.364934 3.73709e-11
5.35626e-11 3.73709e-11 -6.08329

-1.79684 -2.56213 4.81752e-12
-2.56213 -1.34988 -2.08106e-11
4.81752e-12 -2.08106e-11 -0.656886

-1.11377 3.30187 -3.08265e-11
3.30187 -1.82435 4.62359e-11
-3.08265e-11 4.62359e-11 -0.723086

0.529223 -2.77731 1.11745e-11
-2.77731 -1.67203 1.54365e-12
1.11745e-11 1.54365e-12 -0.405203

0.0932315 2.90585 9.82773e-12
2.90585 0.649513 3.89947e-13
9.82773e-12 3.89947e-13 0.322352

1.36475 -2.30627 7.70869e-12
-2.30627 0.829266 -2.56253e-11
7.70869e-12 -2.56253e-11 0.441542

3.89905 -0.426976 -3.25652e-11
-0.426976 6.53936 2.54362e-11
-3.25652e-11 2.54362e-11 3.96505

2.5958 1.19896 1.52244e-11
1.19896 6.14603 -5.77797e-12
1.52244e-11 -5.77797e-12 3.70977

6.56233 -0.177646 7.75084e-13
-0.177646 3.51329 -3.31391e-11
7.75084e-13 -3.31391e-11 4.08381

-1.38528 3.08115 1.48358e-11
3.08115 -0.31593 4.62571e-12
1.48358e-11 4.62571e-12 -0.227125

0.439539 -3.03235 -2.81298e-11
-3.03235 -0.066775 1.59875e-11
-2.81298e-11 1.59875e-11 0.0114352

3.9492 0.192979 -5.39149e-12
0.192979 7.71851 -3.777e-11
-5.39149e-12 -3.777e-11 5.29978

7.61494 -0.0213554 -8.37952e-12
-0.0213554 4.47841 1.58014e-11
-8.37952e-12 1.58014e-11 5.30092

-1.25735 3.14343 2.0807e-11
3.14343 -2.56752 3.85905e-12
2.0807e-11 3.85905e-12 -1.25867

0.368683 -2.24134 1.54669e-12
-2.24134 -2.08099 -1.88783e-11
1.54669e-12 -1.88783e-11 -0.742271

-1.61842 3.10769 4.4889e-11
3.10769 -2.02309 -2.23421e-11
4.4889e-11 -2.23421e-11 -1.45765

-0.0119956 -2.72246 1.86902e-11
-2.72246 -2.52138 -5.41313e-11
1.86902e-11 -5.41313e-11 -1.00423

9.35009 1.82053 4.62508e-11
1.82053 9.43341 -1.57998e-11
4.62508e-11 -1.57998e-11 10.2851

9.38376 1.68074 -4.23013e-11
1.68074 9.68396 3.46826e-12
-4.23013e-11 3.46826e-12 10.3258

-0.254207 2.94372 -3.25611e-11
2.94372 -0.992994 -4.2395e-12
-3.25611e-11 -4.2395e-12 -0.2444

0.604365 -2.43334 5.39072e-12
-2.43334 -0.305476 2.85156e-11
5.39072e-12 2.85156e-11 -0.0336297

-3.75377 1.90349 5.06666e-11
1.90349 -2.38893 4.01679e-11
5.06666e-11 4.01679e-11 -3.33131

-4.15541 -0.615342 1.56008e-11
-0.615342 -1.05715 7.45555e-11
1.56008e-11 7.45555e-11 -3.89254

-3.50279 2.47818 -1.1749e-11
2.47818 -0.944392 1.54003e-12
-1.1749e-11 1.54003e-12 -1.47575

-0.140614 -2.81712 9.24301e-12
-2.81712 -1.79259 2.35011e-11
9.24301e-12 2.35011e-11 -0.847682

-0.285139 2.22331 -5.6642e-11
2.22331 -4.71608 -3.15951e-11
-5.6642e-11 -3.15951e-11 -2.5066

0.338013 -1.44354 -5.58637e-11
-1.44354 -5.92573 -3.91128e-11
-5.58637e-11 -3.91128e-11 -2.0067

-1.8006 2.99138 -1.39696e-12
2.99138 0.962672 -2.50456e-11
-1.39696e-12 -2.50456e-11 -0.576289

-3.05656 -2.50878 1.47395e-11
-2.50878 -1.06092 -1.54125e-11
1.47395e-11 -1.54125e-11 -0.875168

-5.34564 1.81899 1.15448e-12
1.81899 -1.02224 -5.58775e-12
1.15448e-12 -5.58775e-12 -4.01883

-4.88458 2.1071 2.042e-11
2.1071 -4.22733 2.77413e-11
2.042e-11 2.77413e-11 -5.32536

-3.74733 -3.7513 1.30246e-11
-3.7513 -3.85572 7.70566e-12
1.30246e-11 7.70566e-12 -4.88145

-6.1579 -0.510527 2.33104e-11
-0.510527 0.0895596 1.965e-11
2.33104e-11 1.965e-11 -4.76971

-0.997626 2.20727 5.66401e-11
2.20727 -4.13851 1.77271e-11
5.66401e-11 1.77271e-11 -4.16306

-0.453027 0.467779 1.34467e-10
0.467779 -3.94629 3.69921e-11
1.34467e-10 3.69921e-11 -5.27023

-0.38266 -2.03771 5.00728e-12
-2.03771 -6.45013 1.48352e-11
5.00728e-12 1.48352e-11 -3.47744

-0.372034 -0.669965 1.84887e-11
-0.669965 -6.63445 4.97022e-11
1.84887e-11 4.97022e-11 -4.44422

-3.93164 2.5932 7.43507e-11
2.5932 -1.71039 1.11752e-10
7.43507e-11 1.11752e-10 -5.63171

0.838914 -0.518809 9.46639e-10
-0.518809 -0.594792 -2.80419e-10
9.46639e-10 -2.80419e-10 -6.08586

-0.221953 -1.81304 2.97714e-10
-1.81304 -7.28337 4.03039e-10
2.97714e-10 4.03039e-10 -5.36777

-0.16577 -2.22914 -7.28218e-11
-2.22914 -5.61181 6.68546e-11
-7.28218e-11 6.68546e-11 -3.86708

-1.34466 2.49342 -1.54099e-11
2.49342 -3.68343 -5.50973e-11
-1.54099e-11 -5.50973e-11 -4.47811

-0.967561 1.11328 1.69575e-11
1.11328 -1.88156 -3.85276e-12
1.69575e-11 -3.85276e-12 -2.25839

-2.7201 1.24792 -3.08223e-11
1.24792 -0.96921 1.9223e-12
-3.08223e-11 1.9223e-12 -5.82774

0.537169 -1.74979 -1.42533e-11
-1.74979 -5.24415 -1.96526e-11
-1.42533e-11 -1.96526e-11 -3.10414

-1.28504 -2.07459 -4.31298e-11
-2.07459 -6.16443 -8.74603e-11
-4.31298e-11 -8.74603e-11 -4.6872

0.0314738 -1.42527 -2.85105e-11
-1.42527 -2.54171 -1.6376e-11
-2.85105e-11 -1.6376e-11 -1.607

-1.68257 2.9034 2.3886e-11
2.9034 -2.84137 5.97201e-11
2.3886e-11 5.97201e-11 -3.11781

-0.709449 1.4047 -3.1211e-11
1.4047 -3.50212 7.51286e-11
-3.1211e-11 7.51286e-11 -4.13845

-0.296834 -2.18697 2.3132e-11
-2.18697 -4.33699 -7.35892e-11
2.3132e-11 -7.35892e-11 -2.33177

-0.326102 -1.28617 4.35499e-11
-1.28617 -4.98198 -8.64885e-11
4.35499e-11 -8.64885e-11 -3.20357

-0.810692 0.237224 1.04022e-11
0.237224 -0.690966 -1.14622e-11
1.04022e-11 -1.14622e-11 -0.137445

0.521924 -0.124556 -6.93344e-12
-0.124556 -0.38195 -2.94732e-11
-6.93344e-12 -2.94732e-11 -0.251928

0.55826 0.45035 2.79348e-11
0.45035 -0.851508 4.78689e-11
2.79348e-11 4.78689e-11 -0.229726

-0.512077 -0.46628 -2.65849e-11
-0.46628 -2.36129 -4.19408e-11
-2.65849e-11 -4.19408e-11 -0.304096

-0.420179 0.0789096 4.23811e-11
0.0789096 -1.77448 4.36598e-12
4.23811e-11 4.36598e-12 -0.141751

0.234823 -0.662593 2.08033e-11
-0.662593 -0.502358 1.7145e-11
2.08033e-11 1.7145e-11 -0.653277

-0.0793038 1.19557 8.09158e-12
1.19557 -1.54976 1.73364e-12
8.09158e-12 1.73364e-12 -0.832612

-0.389214 -0.111855 1.84936e-11
-0.111855 -1.97627 3.19705e-11
1.84936e-11 3.19705e-11 -0.177704

0.354334 0.539175 1.8976e-11
0.539175 -2.96671 1.20396e-12
1.8976e-11 1.20396e-12 -0.465343

-0.455513 0.113314 -8.47601e-12
0.113314 -0.836876 1.74818e-11
-8.47601e-12 1.74818e-11 -0.0636929

-0.432815 -0.105623 1.38698e-11
-0.105623 -0.773308 2.89195e-13
1.38698e-11 2.89195e-13 -0.0477743

-0.314652 0.0627284 2.19601e-11
0.0627284 0.0859476 -1.84685e-11
2.19601e-11 -1.84685e-11 -0.00914241

1.43397 -0.682216 5.39672e-12
-0.682216 -1.71011 -2.62942e-11
5.39672e-12 -2.62942e-11 -0.62023

1.01212 0.0450203 1.30989e-11
0.0450203 -0.103242 -2.89628e-13
1.30989e-11 -2.89628e-13 -0.502461

-0.78573 0.884276 6.55059e-12
0.884276 -1.08705 2.65843e-11
6.55059e-12 2.65843e-11 -0.252482

-0.986367 1.25392 2.46601e-11
1.25392 -0.903234 4.73892e-11
2.46601e-11 4.73892e-11 -0.362183

-0.132764 -1.1838 -6.16394e-12
-1.1838 -1.58867 -9.24708e-12
-6.16394e-12 -9.24708e-12 -0.878509

0.174634 0.61561 -2.27313e-11
0.61561 -0.471207 -1.24235e-11
-2.27313e-11 -1.24235e-11 -0.63848

-0.181854 0.034577 -2.53309e-11
0.034577 0.380398 1.90373e-11
-2.53309e-11 1.90373e-11 -0.039748

-0.696842 0.120742 1.46402e-11
0.120742 -0.359828 -6.11639e-12
1.46402e-11 -6.11639e-12 -0.068923

-0.707112 -0.135805 2.15753e-11
-0.135805 -0.344652 3.51588e-12
2.15753e-11 3.51588e-12 -0.0716975

-0.445358 -0.142752 -6.39537e-11
-0.142752 0.230598 3.37106e-11
-6.39537e-11 3.37106e-11 -0.0307511

-0.724102 0.395259 5.29796e-12
0.395259 -0.986609 1.43514e-11
5.29796e-12 1.43514e-11 -0.13877

-0.704609 0.321345 -3.42901e-11
0.321345 -1.71805 1.34362e-11
-3.42901e-11 1.34362e-11 -0.194235

-1.12955 0.309668 7.89801e-12
0.309668 -0.942582 1.17027e-11
7.89801e-12 1.17027e-11 -0.216135

-0.0560456 -0.208137 -1.84935e-11
-0.208137 -0.15384 2.95686e-11
-1.84935e-11 2.95686e-11 -0.0763395

-0.256912 0.391342 -9.43963e-12
0.391342 -2.26577 3.80234e-11
-9.43963e-12 3.80234e-11 -0.237329

-0.68513 0.0690288 -4.3536e-11
0.0690288 -0.401614 -1.56514e-11
-4.3536e-11 -1.56514e-11 -0.0245145

-0.0720906 -0.531862 3.93002e-11
-0.531862 -3.52808 -1.51465e-11
3.93002e-11 -1.51465e-11 -0.573671

-0.476696 -0.141712 -1.57953e-11
-0.141712 -0.0182877 -7.66321e-11
-1.57953e-11 -7.66321e-11 -0.0352944

1.00388 -0.117798 6.16377e-12
-0.117798 -0.882105 1.92637e-12
6.16377e-12 1.92637e-12 -0.782895

1.02773 0.177243 3.12077e-11
0.177243 -1.31354 7.12615e-12
3.12077e-11 7.12615e-12 -0.845665

-2.747 -0.596814 2.33093e-11
-0.596814 -3.65821 8.76453e-12
2.33093e-11 8.76453e-12 -3.74899

-2.76193 0.600199 5.37467e-11
0.600199 -3.63059 -4.1223e-11
5.37467e-11 -4.1223e-11 -3.76391

-0.457234 -0.137955 3.66016e-11
-0.137955 -1.25255 -3.60954e-11
3.66016e-11 -3.60954e-11 -0.0514091

-1.31122 0.113596 1.27135e-11
0.113596 -1.06121 -2.65845e-11
1.27135e-11 -2.65845e-11 -0.322832

-1.93398 -0.961184 -1.98422e-11
-0.961184 -1.92475 -5.07596e-11
-1.98422e-11 -5.07596e-11 -1.44401

-2.07018 1.01905 -4.56557e-11
1.01905 -1.98048 5.77796e-12
-4.56557e-11 5.77796e-12 -1.537

0.733812 -0.469416 -1.42558e-11
-0.469416 -2.7967 -1.09504e-11
-1.42558e-11 -1.09504e-11 -0.335044

-0.318375 -0.265933 -1.0402e-11
-0.265933 0.295547 -1.3966e-11
-1.0402e-11 -1.3966e-11 -0.0368382

-0.732308 0.00891361 -3.69869e-11
0.00891361 -1.15151 1.93116e-11
-3.69869e-11 1.93116e-11 -0.11082

0.605159 0.406803 1.07884e-11
0.406803 -2.94908 1.45697e-12
1.07884e-11 1.45697e-12 -0.312866

-0.709627 -0.367423 -9.82428e-12
-0.367423 -0.932625 -9.53565e-12
-9.82428e-12 -9.53565e-12 -0.123639

-0.848323 -0.242701 1.38695e-11
-0.242701 -0.66675 1.05956e-11
1.38695e-11 1.05956e-11 -0.142

0.318482 -0.505579 -5.04687e-11
-0.505579 0.0184421 -2.54284e-11
-5.04687e-11 -2.54284e-11 -0.154397

-0.645764 0.0186876 1.48329e-11
0.0186876 -1.26087 2.43208e-11
1.48329e-11 2.43208e-11 -0.126145

-0.628423 0.195574 2.69688e-12
0.195574 -0.673966 -6.42919e-12
2.69688e-12 -6.42919e-12 -0.0685406

-0.583384 0.252892 6.93503e-12
0.252892 -0.371298 2.35375e-11
6.93503e-12 2.35375e-11 -0.072125

0.12723 -1.8716 6.16363e-12
-1.8716 -2.14953 1.02103e-11
6.16363e-12 1.02103e-11 -0.663344

-0.549667 -0.104823 1.23285e-11
-0.104823 -0.224193 1.08478e-11
1.23285e-11 1.08478e-11 -0.0323031

-0.655897 0.113936 4.16094e-11
0.113936 -0.52912 2.81721e-12
4.16094e-11 2.81721e-12 -0.0165981

0.0272726 0.33731 4.19939e-11
0.33731 0.271663 5.88481e-11
4.19939e-11 5.88481e-11 -0.311659

0.027115 -0.335959 7.16569e-11
-0.335959 0.273201 4.65203e-11
7.16569e-11 4.65203e-11 -0.311118

-0.0951274 -0.136004 4.23777e-12
-0.136004 0.412379 -9.5253e-13
4.23777e-12 -9.5253e-13 -0.0379038

-0.0510095 0.143079 1.04012e-11
0.143079 0.369018 -4.79161e-11
1.04012e-11 -4.79161e-11 -0.309459

-0.0513713 -0.142414 2.58121e-11
-0.142414 0.369336 -1.08834e-11
2.58121e-11 -1.08834e-11 -0.309322

-0.123364 -0.418235 -1.65667e-11
-0.418235 0.147647 1.15574e-11
-1.65667e-11 1.15574e-11 -0.0846941

-2.29268 -0.779086 4.12255e-11
-0.779086 -3.97201 -2.15758e-11
4.12255e-11 -2.15758e-11 -3.22914

-2.31681 0.804479 1.69529e-11
0.804479 -3.99205 5.78741e-13
1.69529e-11 5.78741e-13 -3.24858

-0.108783 0.192675 3.08228e-12
0.192675 0.428242 5.15313e-12
3.08228e-12 5.15313e-12 -0.143425

-0.108561 -0.193003 -2.08035e-11
-0.193003 0.431808 -3.03396e-11
-2.08035e-11 -3.03396e-11 -0.142676

-0.654214 0.128471 2.98589e-11
0.128471 -1.14142 -2.80525e-11
2.98589e-11 -2.80525e-11 -0.0946711

-0.41773 1.11261 -8.48066e-12
1.11261 -2.31944 -5.60553e-11
-8.48066e-12 -5.60553e-11 -2.29035

0.767784 -0.900692 -2.69516e-12
-0.900692 -0.336066 -1.52168e-11
-2.69516e-12 -1.52168e-11 -1.45689

-0.329804 0.260893 -1.42543e-11
0.260893 0.300129 1.15582e-11
-1.42543e-11 1.15582e-11 -0.0399726

-0.733404 -0.124118 -2.04198e-11
-0.124118 -0.371505 3.96108e-11
-2.04198e-11 3.96108e-11 -0.0332626

-0.509074 -0.181827 -2.31154e-12
-0.181827 -0.779711 -8.09667e-12
-2.31154e-12 -8.09667e-12 -0.00746658

-0.0331749 -0.417615 2.23464e-11
-0.417615 0.230418 -2.70646e-11
2.23464e-11 -2.70646e-11 -0.161857

-0.183906 1.14269 2.19628e-11
1.14269 -1.34969 3.46743e-11
2.19628e-11 3.46743e-11 -0.334801

-0.084699 0.239666 -3.77528e-11
0.239666 0.256344 9.31352e-11
-3.77528e-11 9.31352e-11 -1.07066

-0.0865808 -0.237949 5.35518e-11
-0.237949 0.252362 -1.34452e-10
5.35518e-11 -1.34452e-10 -1.07204

0.295011 1.53331 -3.19801e-11
1.53331 -1.15361 -2.28269e-11
-3.19801e-11 -2.28269e-11 -0.191563

-0.13655 0.0897838 1.23281e-11
0.0897838 0.424399 -1.63736e-11
1.23281e-11 -1.63736e-11 -0.0772641

-0.139695 -0.0885159 3.62142e-11
-0.0885159 0.435245 1.46883e-11
3.62142e-11 1.46883e-11 -0.0764848

-2.0587 0.739016 -1.34841e-11
0.739016 -0.830838 1.84941e-11
-1.34841e-11 1.84941e-11 -0.543755

0.413348 0.507626 -2.69823e-12
0.507626 0.467762 -3.27473e-11
-2.69823e-12 -3.27473e-11 -0.275723

-0.571936 0.136063 3.66014e-12
0.136063 -1.31173 1.39903e-11
3.66014e-12 1.39903e-11 -0.0841911

-0.524264 -0.231347 3.27476e-12
-0.231347 -1.78586 -4.5271e-12
3.27476e-12 -4.5271e-12 -0.16798

-1.64607 -1.14102 -4.62345e-11
-1.14102 -3.16927 1.06076e-12
-4.62345e-11 1.06076e-12 -1.3989

-5.48174 1.24892 2.5052e-12
1.24892 -3.79711 -1.0258e-10
2.5052e-12 -1.0258e-10 -5.03133

-5.42467 -1.30335 -5.29751e-11
-1.30335 -3.88737 1.35841e-11
-5.29751e-11 1.35841e-11 -5.02521

-0.72657 0.212165 2.31167e-11
0.212165 -0.716163 3.03402e-11
2.31167e-11 3.03402e-11 -0.0586974

-1.06389 0.311643 -1.73378e-11
0.311643 -1.63564 9.19822e-12
-1.73378e-11 9.19822e-12 -0.311529

-0.150945 -0.252962 -3.27472e-11
-0.252962 0.333663 2.88937e-12
-3.27472e-11 2.88937e-12 -0.0536441

0.178537 -0.0113057 -2.50401e-11
-0.0113057 -0.184709 -2.83178e-11
-2.50401e-11 -2.83178e-11 -1.92059

0.912252 0.94073 1.73398e-11
0.94073 -3.36879 -5.01053e-12
1.73398e-11 -5.01053e-12 -2.68546

-1.7964 1.20362 -3.06307e-11
1.20362 -3.16344 4.23732e-12
-3.06307e-11 4.23732e-12 -1.5

0.444176 -0.386333 -7.22372e-12
-0.386333 -0.829326 -1.1562e-12
-7.22372e-12 -1.1562e-12 -0.300235

0.435632 0.116204 -6.54945e-12
0.116204 -0.477992 5.39456e-12
-6.54945e-12 5.39456e-12 -0.291348

-0.109702 -0.00171538 2.08039e-11
-0.00171538 0.481988 1.84683e-11
2.08039e-11 1.84683e-11 -0.0613131

-0.106617 0.00672198 -2.31152e-12
0.00672198 0.476093 -1.20393e-11
-2.31152e-12 -1.20393e-11 -0.0621401

-0.393824 0.245335 -2.50374e-12
0.245335 0.08088 3.17364e-11
-2.50374e-12 3.17364e-11 -0.0353988

-0.264361 -0.156029 1.00167e-11
-0.156029 0.33547 2.01104e-11
1.00167e-11 2.01104e-11 -0.031534

-0.0415299 0.0937635 1.56031e-11
0.0937635 0.427292 2.43211e-12
1.56031e-11 2.43211e-12 -0.143389

-0.0405611 -0.0919062 -1.38694e-11
-0.0919062 0.4281 1.00887e-11
-1.38694e-11 1.00887e-11 -0.142701

-0.166763 0.255535 1.46399e-11
0.255535 0.334377 3.34703e-12
1.46399e-11 3.34703e-12 -0.056405

-0.0691659 0.188953 -2.11893e-11
0.188953 -0.144087 9.15058e-12
-2.11893e-11 9.15058e-12 -0.0790501

-0.0505651 0.240762 2.42711e-11
0.240762 0.364266 -7.53663e-12
2.42711e-11 -7.53663e-12 -0.0964209

-0.0392515 -0.233407 -3.54437e-11
-0.233407 0.36075 7.10317e-12
-3.54437e-11 7.10317e-12 -0.0952339

-0.502741 0.518204 -9.05417e-12
0.518204 -2.4443 -1.24251e-11
-9.05417e-12 -1.24251e-11 -0.373203

0.291762 -0.298861 1.19426e-11
-0.298861 0.279976 1.25212e-11
1.19426e-11 1.25212e-11 -0.0621452

-0.673775 0.0896512 -8.09152e-12
0.0896512 -1.09031 -4.30065e-11
-8.09152e-12 -4.30065e-11 -0.0936814

-1.0414 1.19351 -1.90709e-11
1.19351 -0.498182 1.84943e-11
-1.90709e-11 1.84943e-11 -0.303095

0.425386 -0.315051 1.73359e-11
-0.315051 0.410073 2.76429e-11
1.73359e-11 2.76429e-11 -0.103825

-0.276963 0.0496729 -1.00169e-11
0.0496729 0.254866 2.20803e-11
-1.00169e-11 2.20803e-11 -0.0245572

-1.62283 0.729545 7.09885e-11
0.729545 -2.24757 1.54274e-12
7.09885e-11 1.54274e-12 -0.712534

-0.520306 -0.411595 -1.44481e-11
-0.411595 -2.24856 -9.96907e-12
-1.44481e-11 -9.96907e-12 -0.322037

-0.918018 -0.0854878 -2.40854e-12
-0.0854878 -1.13659 -4.1369e-11
-2.40854e-12 -4.1369e-11 -0.179642

-1.18285 -0.297611 2.88973e-12
-0.297611 -1.60461 2.13828e-11
2.88973e-12 2.13828e-11 -0.324298

-0.276915 0.792482 -8.09102e-12
0.792482 -0.910246 -5.39312e-12
-8.09102e-12 -5.39312e-12 -0.393245

-0.146934 -0.715331 9.6313e-12
-0.715331 -0.712591 7.32056e-12
9.6313e-12 7.32056e-12 -0.347546

-0.372617 -0.056778 -2.45607e-11
-0.056778 0.113371 -1.55791e-11
-2.45607e-11 -1.55791e-11 -0.0187731

-2.10827 -0.786681 -3.46759e-11
-0.786681 -0.802791 -4.43134e-12
-3.46759e-11 -4.43134e-12 -0.550114

-0.243997 0.0765545 2.27299e-11
0.0765545 0.0125214 -5.11924e-11
2.27299e-11 -5.11924e-11 -0.0457936

-0.254454 -0.0749052 -5.779e-12
-0.0749052 -0.00719835 -4.62333e-12
-5.779e-12 -4.62333e-12 -0.0510712

-0.876854 0.353003 2.17683e-11
0.353003 -1.49329 1.06438e-11
2.17683e-11 1.06438e-11 -0.277458

0.119191 1.00008 -4.04558e-12
1.00008 -4.05534 1.10284e-11
-4.04558e-12 1.10284e-11 -0.950618

0.173231 -0.864537 -9.44006e-12
-0.864537 -4.01933 1.03545e-11
-9.44006e-12 1.03545e-11 -0.909946

-0.279052 0.431499 1.00176e-11
0.431499 -0.871255 9.15003e-12
1.00176e-11 9.15003e-12 -0.10216

-1.24717 -0.270967 -2.77403e-11
-0.270967 -0.9271 -2.6974e-12
-2.77403e-11 -2.6974e-12 -0.238685

-0.420906 0.342406 -3.54451e-11
0.342406 -0.415747 -1.08353e-11
-3.54451e-11 -1.08353e-11 -0.061569

-0.396258 -0.33542 8.47594e-12
-0.33542 -0.414712 6.01371e-17
8.47594e-12 6.01371e-17 -0.0595658

-0.244019 0.0227778 -5.08549e-11
0.0227778 0.0489439 1.42066e-11
-5.08549e-11 1.42066e-11 -0.0168017

-0.432845 -0.244578 1.81072e-11
-0.244578 0.0674343 1.92152e-11
1.81072e-11 1.92152e-11 -0.0445862

-0.303715 0.030483 2.69684e-11
0.030483 0.235624 -5.68276e-12
2.69684e-11 -5.68276e-12 -0.0225576

2.03424 0.362573 -1.44088e-10
0.362573 -0.993954 -1.2144e-11
-1.44088e-10 -1.2144e-11 -2.40767

1.82269 -1.80015 5.12391e-11
-1.80015 -2.09963 -5.39429e-11
5.12391e-11 -5.39429e-11 -2.969

-0.242619 -0.0220415 5.39357e-12
-0.0220415 0.248698 -3.12544e-11
5.39357e-12 -3.12544e-11 -0.0220795

0.116422 -0.164572 -5.54778e-11
-0.164572 0.272944 -4.23897e-12
-5.54778e-11 -4.23897e-12 -0.0557782

-0.116231 0.140017 1.9263e-11
0.140017 0.409887 7.54577e-12
1.9263e-11 7.54577e-12 -0.042054

-0.284601 -0.414875 4.23811e-12
-0.414875 -0.826343 2.98582e-12
4.23811e-12 2.98582e-12 -0.0983421

0.909137 -0.792969 -1.15576e-11
-0.792969 0.349448 -1.25232e-12
-1.15576e-11 -1.25232e-12 -0.187395

-0.606551 2.11885 -1.54135e-11
2.11885 -1.66917 -1.76268e-11
-1.54135e-11 -1.76268e-11 -0.67244

0.305049 0.32705 -4.62237e-12
0.32705 0.269602 2.8028e-11
-4.62237e-12 2.8028e-11 -0.0649724

0.240834 -0.386008 -6.16451e-12
-0.386008 0.412879 1.71445e-11
-6.16451e-12 1.71445e-11 -0.0632021

-0.528403 0.720183 4.08406e-11
0.720183 -0.7319 2.69689e-11
4.08406e-11 2.69689e-11 -0.131109

-0.0853172 -0.00393862 -1.11724e-11
-0.00393862 0.635708 8.35079e-12
-1.11724e-11 8.35079e-12 -0.0296388

-0.272666 -0.0232605 5.00837e-12
-0.0232605 0.176286 2.88945e-12
5.00837e-12 2.88945e-12 -0.0260342

-1.10516 -1.19445 -1.29058e-11
-1.19445 -0.465103 -2.90893e-11
-1.29058e-11 -2.90893e-11 -0.310209

-0.305583 -0.26752 -2.35007e-11
-0.26752 0.332667 -2.73059e-11
-2.35007e-11 -2.73059e-11 -0.0155866

-0.905169 -0.13494 3.08235e-12
-0.13494 -0.710963 -5.24942e-12
3.08235e-12 -5.24942e-12 -0.0990323

-1.22407 -0.149282 -1.25205e-11
-0.149282 -1.05957 -4.32961e-11
-1.25205e-11 -4.32961e-11 -0.309414

-0.248493 0.100708 -3.85311e-12
0.100708 -0.345354 -2.26825e-11
-3.85311e-12 -2.26825e-11 -0.0586076

-0.241921 -0.111141 -1.57953e-11
-0.111141 -0.358116 -3.42892e-11
-1.57953e-11 -3.42892e-11 -0.0604975

-0.445958 0.12805 -3.00504e-11
0.12805 0.269227 -5.91135e-12
-3.00504e-11 -5.91135e-12 -0.0280573

-0.305111 0.27472 2.61984e-11
0.27472 0.307498 2.73053e-11
2.61984e-11 2.73053e-11 -0.0196239

0.00477818 -0.162543 -5.77935e-12
-0.162543 -0.424496 1.19431e-11
-5.77935e-12 1.19431e-11 -0.110613

0.0255874 0.192725 -4.12236e-11
0.192725 -0.413658 1.25226e-11
-4.12236e-11 1.25226e-11 -0.0917317

-0.350632 -0.0275405 -3.00501e-11
-0.0275405 -0.034099 4.77253e-11
-3.00501e-11 4.77253e-11 -0.0195562

-0.362099 0.0216093 -4.54619e-11
0.0216093 0.0062567 3.96819e-11
-4.54619e-11 3.96819e-11 -0.0156948

0.0534816 0.0796949 -7.7052e-12
0.0796949 0.48239 4.55092e-12
-7.7052e-12 4.55092e-12 -0.0414175

0.0572415 -0.075938 -1.07872e-11
-0.075938 0.482346 -2.74497e-12
-1.07872e-11 -2.74497e-12 -0.0404387

0.0452081 -0.442371 -1.00168e-11
-0.442371 0.380232 -4.4306e-12
-1.00168e-11 -4.4306e-12 -0.0502747

-0.65391 -1.92617 -2.63917e-11
-1.92617 -1.27218 -4.52804e-12
-2.63917e-11 -4.52804e-12 -0.56719

-2.17492 0.0281287 -4.41149e-11
0.0281287 -1.32818 -1.97446e-11
-4.41149e-11 -1.97446e-11 -0.637005

-0.708696 0.0709359 -5.00899e-12
0.0709359 -0.755013 -4.72683e-11
-5.00899e-12 -4.72683e-11 -0.0373818

-0.411447 -0.196959 -8.0913e-12
-0.196959 0.0404957 2.84132e-11
-8.0913e-12 2.84132e-11 -0.0580774

0.0401657 0.278592 3.12057e-11
0.278592 0.282607 -1.77218e-11
3.12057e-11 -1.77218e-11 -0.206009

0.0409768 -0.276641 2.19598e-11
-0.276641 0.28527 -1.54587e-11
2.19598e-11 -1.54587e-11 -0.205323

-0.0944451 0.345286 1.29057e-11
0.345286 0.321257 -4.28603e-11
1.29057e-11 -4.28603e-11 -0.104775

-0.0971205 -0.346789 5.00831e-11
-0.346789 0.322397 3.18805e-11
5.00831e-11 3.18805e-11 -0.105251

-0.633182 -0.0526298 -6.16436e-12
-0.0526298 -0.242271 5.20122e-12
-6.16436e-12 5.20122e-12 -0.0139197

-0.396167 -0.0349819 5.00846e-11
-0.0349819 -0.0574171 1.15098e-11
5.00846e-11 1.15098e-11 -1.753e-05

-0.410009 0.227656 -7.70505e-12
0.227656 0.0571805 1.4453e-12
-7.70505e-12 1.4453e-12 -0.0542071

0.0162308 0.0109775 1.92624e-12
0.0109775 0.261795 -1.05973e-12
1.92624e-12 -1.05973e-12 -0.5662

0.0158773 -0.010329 -6.24113e-11
-0.010329 0.259621 -2.7161e-11
-6.24113e-11 -2.7161e-11 -0.566632

-0.127789 -0.303674 -1.38694e-11
-0.303674 0.285538 -3.03396e-12
-1.38694e-11 -3.03396e-12 -0.0483074

-0.519699 -0.12411 -5.77912e-12
-0.12411 -1.23151 2.81973e-11
-5.77912e-12 2.81973e-11 -0.078907

-0.267635 0.160372 2.04188e-11
0.160372 0.339014 -1.4327e-11
2.04188e-11 -1.4327e-11 -0.0318785

-0.350361 -1.04578 2.31148e-11
-1.04578 -1.09657 3.71796e-11
2.31148e-11 3.71796e-11 -0.368321

0.0479145 0.524072 2.23455e-11
0.524072 -0.142849 -1.92679e-12
2.23455e-11 -1.92679e-12 -0.238332

-0.952987 0.0670749 -2.0034e-11
0.0670749 -0.899896 -1.87825e-11
-2.0034e-11 -1.87825e-11 -0.14441

0.26093 0.383307 -7.32024e-12
0.383307 0.398232 -3.94868e-12
-7.32024e-12 -3.94868e-12 -0.0657006

-0.143526 0.31072 -3.62144e-11
0.31072 0.291671 1.15613e-12
-3.62144e-11 1.15613e-12 -0.0496513

-1.62573 1.90806 -3.27766e-12
1.90806 -0.840442 -3.85289e-11
-3.27766e-12 -3.85289e-11 -0.464339

1.05775 -0.0194102 1.61806e-11
-0.0194102 0.116363 1.3292e-11
1.61806e-11 1.3292e-11 -0.465679

1.52138 0.954263 -2.5047e-11
0.954263 -2.10203 -4.32456e-11
-2.5047e-11 -4.32456e-11 -0.666913

0.0249425 0.459787 -3.85289e-13
0.459787 0.369006 -1.08836e-11
-3.85289e-13 -1.08836e-11 -0.0606373

-1.30778 0.92394 -1.59887e-11
0.92394 -0.882837 1.97468e-11
-1.59887e-11 1.97468e-11 -0.310825

-0.845859 -0.113281 -1.92639e-11
-0.113281 -1.16903 1.27624e-11
-1.92639e-11 1.27624e-11 -0.125816

0.753856 -0.577532 -1.15579e-12
-0.577532 0.309929 3.08219e-12
-1.15579e-12 3.08219e-12 -0.00924064

-0.693507 -0.909781 -2.0033e-11
-0.909781 -1.04767 -2.18644e-11
-2.0033e-11 -2.18644e-11 -0.234217

-0.541575 0.618655 3.46675e-12
0.618655 -0.664277 -2.01309e-11
3.46675e-12 -2.01309e-11 -0.186462

-0.163059 -0.159234 -1.81077e-11
-0.159234 0.413996 3.08207e-11
-1.81077e-11 3.08207e-11 -0.0673079

-0.145384 -0.452255 -7.70504e-13
-0.452255 -0.337992 2.98562e-12
-7.70504e-13 2.98562e-12 -0.126102

1.09846 0.690292 -3.39035e-11
0.690292 0.315805 -1.36762e-11
-3.39035e-11 -1.36762e-11 -0.130079

-0.701626 0.0768299 -2.81247e-11
0.0768299 -0.653339 -3.43375e-11
-2.81247e-11 -3.43375e-11 -0.0642112

-0.589309 -0.0413791 2.69689e-12
-0.0413791 -0.89685 -1.10463e-11
2.69689e-12 -1.10463e-11 -0.0697367

-0.161191 0.161136 1.4254e-11
0.161136 0.413744 -5.12398e-11
1.4254e-11 -5.12398e-11 -0.066926

-0.180136 -0.023417 3.66006e-12
-0.023417 0.389796 -6.48312e-12
3.66006e-12 -6.48312e-12 -0.0373645

0.151349 0.16757 -3.69854e-11
0.16757 -0.0121416 -7.51235e-11
-3.69854e-11 -7.51235e-11 -0.966042

0.149772 -0.16577 1.65659e-10
-0.16577 -0.0148989 -1.15562e-11
1.65659e-10 -1.15562e-11 -0.967055

0.126603 0.197428 -3.46755e-12
0.197428 0.243709 -1.05946e-11
-3.46755e-12 -1.05946e-11 -0.0698347

-3.41735 -1.09812 2.06125e-11
-1.09812 -2.67086 -1.07882e-11
2.06125e-11 -1.07882e-11 -2.58845

-3.47117 1.11753 -2.87033e-11
1.11753 -2.66404 -1.7338e-11
-2.87033e-11 -1.7338e-11 -2.62461

0.246844 -0.145315 -1.54101e-12
-0.145315 -2.46636 -5.47996e-11
-1.54101e-12 -5.47996e-11 -0.1968

-1.65327 -1.87929 5.20017e-12
-1.87929 -0.766645 3.9589e-11
5.20017e-12 3.9589e-11 -0.454486

-0.444553 0.111262 -1.09799e-11
0.111262 -0.0737908 -3.90205e-11
-1.09799e-11 -3.90205e-11 -0.0140231

-0.563105 0.00866108 -2.58137e-11
0.00866108 -0.91474 -3.6047e-11
-2.58137e-11 -3.6047e-11 -0.0719683

-0.466708 0.213602 -2.44638e-11
0.213602 -0.222606 5.38414e-11
-2.44638e-11 5.38414e-11 -0.0436014

-0.473159 -0.2177 -4.54619e-11
-0.2177 -0.246466 2.24898e-11
-4.54619e-11 2.24898e-11 -0.0542716

-0.34009 0.0960746 2.31162e-12
0.0960746 -0.0503455 4.23789e-12
2.31162e-12 4.23789e-12 -0.0187874

0.764098 0.557026 -1.73364e-11
0.557026 0.324888 9.53519e-12
-1.73364e-11 9.53519e-12 -0.00584028

-0.573719 0.194347 -3.85252e-12
0.194347 -0.507928 1.58925e-11
-3.85252e-12 1.58925e-11 -0.0572569

-0.335725 0.055749 -2.00338e-11
0.055749 -0.120589 2.4621e-11
-2.00338e-11 2.4621e-11 -0.0227896

0.54648 -0.656499 1.65663e-11
-0.656499 -1.72788 6.55021e-12
1.65663e-11 6.55021e-12 -1.36067

1.25964 0.711127 3.84936e-12
0.711127 -0.440403 -4.50746e-11
3.84936e-12 -4.50746e-11 -0.971795

-0.481825 -0.783176 3.6217e-11
-0.783176 -1.79308 6.62671e-11
3.6217e-11 6.62671e-11 -0.408122

0.879106 -0.130216 4.43101e-12
-0.130216 -4.04902 -1.33283e-11
4.43101e-12 -1.33283e-11 -0.544884

-0.418817 -0.28769 -4.27641e-11
-0.28769 0.0260316 -2.49467e-11
-4.27641e-11 -2.49467e-11 -0.0360727

-0.432043 0.284461 -9.63217e-12
0.284461 0.0448372 -3.18326e-11
-9.63217e-12 -3.18326e-11 -0.0355759

0.134347 -0.0983829 -2.69695e-12
-0.0983829 -3.01369 9.52504e-12
-2.69695e-12 9.52504e-12 -0.330038

-0.12714 0.43477 6.54918e-12
0.43477 0.1841 -1.32917e-11
6.54918e-12 -1.32917e-11 -0.0856271

-0.0882026 0.261451 -3.7755e-11
0.261451 0.257962 -9.48689e-12
-3.7755e-11 -9.48689e-12 -0.427739

-0.0873766 -0.260062 8.47509e-12
-0.260062 0.25735 -3.75642e-12
8.47509e-12 -3.75642e-12 -0.427581

-1.34691 -0.298387 1.25211e-11
-0.298387 -1.26676 -3.11115e-11
1.25211e-11 -3.11115e-11 -0.502234

-1.34972 -0.943073 -2.38862e-11
-0.943073 -0.887361 -3.78544e-11
-2.38862e-11 -3.78544e-11 -0.321559

-0.480782 -0.821998 1.46407e-11
-0.821998 -2.55994 -1.54141e-12
1.46407e-11 -1.54141e-12 -0.472333

-0.613437 0.0227136 2.81254e-11
0.0227136 -1.23847 2.98586e-11
2.81254e-11 2.98586e-11 -0.110549

-0.659179 -0.703979 6.1656e-12
-0.703979 -0.721445 -3.21705e-11
6.1656e-12 -3.21705e-11 -0.163374

-0.732211 -0.148758 -3.31337e-11
-0.148758 -0.730093 3.18451e-11
-3.31337e-11 3.18451e-11 -0.095675

-0.580443 -0.582011 -3.08207e-11
-0.582011 -0.576334 -2.99553e-11
-3.08207e-11 -2.99553e-11 -0.184015

-0.112801 0.442171 8.09131e-12
0.442171 -0.482953 1.30028e-11
8.09131e-12 1.30028e-11 -0.140328

0.70055 -0.684533 -2.89008e-11
-0.684533 -0.845208 8.86095e-11
-2.89008e-11 8.86095e-11 -1.31269

0.391191 0.494462 2.00342e-11
0.494462 -0.965998 5.77353e-13
2.00342e-11 5.77353e-13 -1.39821

-0.0596141 0.0125579 -1.00167e-11
0.0125579 0.544813 5.00865e-12
-1.00167e-11 5.00865e-12 -0.100389

-0.0657083 -0.0137393 1.46399e-11
-0.0137393 0.541329 -3.03406e-12
1.46399e-11 -3.03406e-12 -0.102

-2.38012 -0.509668 1.29064e-11
-0.509668 -1.90831 -7.26259e-11
1.29064e-11 -7.26259e-11 -1.1358

-2.48994 0.536098 -4.62342e-12
0.536098 -1.89019 -2.50431e-12
-4.62342e-12 -2.50431e-12 -1.19697

-2.97709 -0.272729 2.90897e-11
-0.272729 -1.56984 3.1015e-11
2.90897e-11 3.1015e-11 -2.01095

-3.01082 0.304584 -3.62175e-11
0.304584 -1.61371 2.97644e-11
-3.62175e-11 2.97644e-11 -2.03721

0.0246032 0.00918486 1.0786e-11
0.00918486 0.163946 -9.39058e-11
1.0786e-11 -9.39058e-11 -0.799088

0.0229624 -0.00811887 -4.31488e-11
-0.00811887 0.161457 1.01123e-11
-4.31488e-11 1.01123e-11 -0.799935

0.509064 0.368239 2.11886e-11
0.368239 0.218989 -2.16707e-11
2.11886e-11 -2.16707e-11 -0.0850508

0.50802 -0.372345 7.69583e-13
-0.372345 0.226274 3.75627e-11
7.69583e-13 3.75627e-11 -0.0827363

-0.269262 -0.0799998 -2.92797e-11
-0.0799998 0.387911 -1.46402e-11
-2.92797e-11 -1.46402e-11 -0.04356

-0.0137487 -0.418746 2.11911e-11
-0.418746 -0.757716 -1.75297e-11
2.11911e-11 -1.75297e-11 -0.112165

0.00718451 0.0956119 2.6966e-12
0.0956119 -0.0688176 -8.95719e-12
2.6966e-12 -8.95719e-12 -0.11205

-0.579805 -0.194401 1.84931e-11
-0.194401 -1.04675 9.53561e-12
1.84931e-11 9.53561e-12 -0.0721124

-0.262646 0.0852765 -4.73867e-11
0.0852765 0.392709 2.47054e-11
-4.73867e-11 2.47054e-11 -0.0410984

-0.191329 0.347685 1.88298e-11
0.347685 -0.60913 -2.50519e-12
1.88298e-11 -2.50519e-12 -0.10474

-0.312633 -0.14268 -2.27305e-11
-0.14268 0.330762 -3.80468e-12
-2.27305e-11 -3.80468e-12 -0.0540737

-2.76615 -1.1974 -2.11794e-12
-1.1974 -0.770168 -2.16721e-11
-2.11794e-12 -2.16721e-11 -0.889546

-2.76149 1.20137 1.8688e-11
1.20137 -0.81003 2.05167e-11
1.8688e-11 2.05167e-11 -0.898997

-0.320824 0.147035 1.15583e-11
0.147035 0.326944 1.5844e-11
1.15583e-11 1.5844e-11 -0.0556732

-0.638947 0.883717 1.15579e-12
0.883717 -1.85562 -3.35191e-11
1.15579e-12 -3.35191e-11 -0.522107

2.21155 0.204005 1.69917e-10
0.204005 -5.09504 -8.89651e-11
1.69917e-10 -8.89651e-11 -3.5298

1.83139 -0.429442 3.47278e-12
-0.429442 0.177966 7.3776e-11
3.47278e-12 7.3776e-11 -2.21686

0.498455 0.188645 -1.84916e-11
0.188645 0.0296841 2.69688e-11
-1.84916e-11 2.69688e-11 -0.177972

-1.57007 -0.678029 6.7427e-12
-0.678029 -2.19189 4.10803e-11
6.7427e-12 4.10803e-11 -0.642252

-0.667744 -1.29012 7.12798e-12
-1.29012 -2.5792 -2.24427e-11
7.12798e-12 -2.24427e-11 -1.222

-0.424127 -0.0713151 6.93443e-12
-0.0713151 -0.262341 -6.51828e-11
6.93443e-12 -6.51828e-11 -0.0354032

-0.577554 0.0215606 8.8612e-12
0.0215606 0.0242738 9.92056e-12
8.8612e-12 9.92056e-12 -0.0262705

0.149259 0.140607 -1.15554e-12
0.140607 0.375127 2.24654e-11
-1.15554e-12 2.24654e-11 -0.14115

0.153413 -0.134356 3.08196e-12
-0.134356 0.373838 1.32398e-12
3.08196e-12 1.32398e-12 -0.140074

-0.709049 1.28833 1.65669e-11
1.28833 -2.57922 1.57487e-11
1.65669e-11 1.57487e-11 -1.26801

0.0203416 -0.13509 -9.14935e-13
-0.13509 -0.143048 -1.92603e-13
-9.14935e-13 -1.92603e-13 -0.124527

-0.306877 -0.256758 1.4447e-12
-0.256758 0.295786 1.1606e-11
1.4447e-12 1.1606e-11 -0.0331446

-0.0424319 0.391098 -6.4763e-16
0.391098 0.329297 -4.59419e-11
-6.4763e-16 -4.59419e-11 -0.158123

-0.041918 -0.390112 -3.39022e-11
-0.390112 0.332388 -7.99443e-12
-3.39022e-11 -7.99443e-12 -0.157272

-4.94931 -1.888 2.92839e-11
-1.888 -5.92355 -7.33576e-12
2.92839e-11 -7.33576e-12 -5.62365

-5.00042 1.92291 -1.29074e-11
1.92291 -5.91801 7.04701e-12
-1.29074e-11 7.04701e-12 -5.6347

0.266047 0.557893 -3.15908e-11
0.557893 0.303603 2.34055e-11
-3.15908e-11 2.34055e-11 -0.0968418

-0.730883 -0.239701 -3.48678e-11
-0.239701 -1.42736 1.59894e-11
-3.48678e-11 1.59894e-11 -0.216314

-0.130131 0.294492 4.77726e-11
0.294492 0.416014 6.429e-11
4.77726e-11 6.429e-11 -0.22019

-0.128227 -0.293404 -1.74324e-11
-0.293404 0.415715 -3.03874e-11
-1.74324e-11 -3.03874e-11 -0.219806

0.449137 -0.835866 3.46717e-12
-0.835866 -0.942826 2.26358e-11
3.46717e-12 2.26358e-11 -0.183623

0.152832 -1.61622 -4.62436e-12
-1.61622 -0.936767 4.16102e-11
-4.62436e-12 4.16102e-11 -0.147825

-0.683106 -0.231026 -2.11897e-11
-0.231026 -0.324378 2.05878e-11
-2.11897e-11 2.05878e-11 -0.0738587

-2.49809 0.116224 2.9475e-11
0.116224 -0.533692 2.97626e-11
2.9475e-11 2.97626e-11 -1.0316

-2.53008 -0.116626 1.09798e-11
-0.116626 -0.556087 1.23296e-11
1.09798e-11 1.23296e-11 -1.04928

-0.963585 -1.59572 8.861e-12
-1.59572 -1.26275 2.54284e-11
8.861e-12 2.54284e-11 -0.409637

-0.294195 0.257237 -2.81241e-11
0.257237 0.265565 -6.0196e-12
-2.81241e-11 -6.0196e-12 -0.0393084

-1.39119 0.31807 6.00074e-11
0.31807 -1.27022 -7.6079e-12
6.00074e-11 -7.6079e-12 -0.550711

-2.50139 0.100633 -7.70793e-13
0.100633 -1.31077 -1.95531e-11
-7.70793e-13 -1.95531e-11 -1.06308

-2.55415 -0.119448 2.31068e-12
-0.119448 -1.28852 3.12086e-11
2.31068e-12 3.12086e-11 -1.08019

-0.636785 1.0091 6.4763e-17
1.0091 -2.83835 -4.67134e-12
6.4763e-17 -4.67134e-12 -0.599021

-0.0855375 0.18779 -1.96477e-11
0.18779 0.459313 3.31319e-11
-1.96477e-11 3.31319e-11 -0.292734

-0.0839925 -0.186273 3.39019e-11
-0.186273 0.456798 3.39985e-11
3.39019e-11 3.39985e-11 -0.292682

0.422633 -0.0399023 2.85094e-11
-0.0399023 -0.880069 -4.23424e-12
2.85094e-11 -4.23424e-12 -2.39326

0.0477006 0.906256 3.65951e-11
0.906256 -1.10079 -7.62826e-11
3.65951e-11 -7.62826e-11 -2.47051

-0.609104 0.0640084 4.00683e-11
0.0640084 -0.222147 -5.27337e-11
4.00683e-11 -5.27337e-11 -0.013559

-0.163636 -0.0405806 -3.85275e-12
-0.0405806 -0.832956 3.17428e-11
-3.85275e-12 3.17428e-11 0.0368252

-0.00485513 0.364234 3.42887e-11
0.364234 0.43615 2.81237e-11
3.42887e-11 2.81237e-11 -0.104082

0.00279386 -0.362754 5.39331e-12
-0.362754 0.438343 4.14181e-12
5.39331e-12 4.14181e-12 -0.10142

0.390138 0.40006 5.39338e-12
0.40006 0.400783 -1.43512e-11
5.39338e-12 -1.43512e-11 -0.0933767

-0.528787 0.0924777 -2.00344e-11
0.0924777 -0.270535 -4.35114e-11
-2.00344e-11 -4.35114e-11 -0.0257789

-0.342468 -0.032993 3.23624e-11
-0.032993 -0.342215 8.98119e-12
3.23624e-11 8.98119e-12 -0.0381426

-0.184024 -0.207966 3.27458e-11
-0.207966 0.187858 6.80939e-11
3.27458e-11 6.80939e-11 -1.03742

-0.182298 0.209633 -7.70433e-12
0.209633 0.190244 3.72731e-11
-7.70433e-12 3.72731e-11 -1.03641

-2.22498 -0.035918 6.33798e-11
-0.035918 -1.35937 -6.24144e-11
6.33798e-11 -6.24144e-11 -0.660977

-0.027346 0.278808 -7.70078e-13
0.278808 0.142148 1.34844e-11
-7.70078e-13 1.34844e-11 -0.0482971

0.0485043 0.244046 3.19762e-11
0.244046 0.36032 -1.71443e-11
3.19762e-11 -1.71443e-11 -0.0919429

0.0492209 -0.242386 3.50585e-11
-0.242386 0.36263 3.37138e-12
3.50585e-11 3.37138e-12 -0.0908788

-0.100719 0.174611 1.15629e-12
0.174611 0.343365 2.196e-11
1.15629e-12 2.196e-11 -0.0604368

-0.0268643 -0.265371 -1.81071e-11
-0.265371 0.131082 -2.42719e-11
-1.81071e-11 -2.42719e-11 -0.0497932

-0.571533 -0.0142034 -4.43057e-11
-0.0142034 -0.172431 1.81564e-11
-4.43057e-11 1.81564e-11 -0.0245085

-0.572107 -0.0194416 -1.54136e-12
-0.0194416 -0.124311 1.89747e-11
-1.54136e-12 1.89747e-11 -0.0195758

-0.466579 -0.0686999 -4.9314e-11
-0.0686999 0.136331 1.49773e-11
-4.9314e-11 1.49773e-11 -0.014624

-0.104079 -0.170361 -1.23283e-11
-0.170361 0.349033 -1.70479e-11
-1.23283e-11 -1.70479e-11 -0.0586423

-0.513629 -0.175899 2.35015e-11
-0.175899 -0.515967 7.24808e-12
2.35015e-11 7.24808e-12 -0.0558619

-0.608454 0.101712 -1.34847e-11
0.101712 -0.882884 2.53981e-11
-1.34847e-11 2.53981e-11 -0.0429764

0.157434 0.335887 -8.7452e-11
0.335887 0.261485 6.01982e-11
-8.7452e-11 6.01982e-11 -0.170787

0.158784 -0.337722 1.11724e-11
-0.337722 0.262618 6.74251e-12
1.11724e-11 6.74251e-12 -0.169847

-0.0117445 0.225235 -5.27798e-11
0.225235 0.446021 7.99497e-12
-5.27798e-11 7.99497e-12 -0.19032

-0.0104152 -0.224172 7.70083e-13
-0.224172 0.447817 4.07411e-11
7.70083e-13 4.07411e-11 -0.189445

-0.722911 -0.177675 -2.83171e-11
-0.177675 -0.408172 -5.0856e-11
-2.83171e-11 -5.0856e-11 -0.043837

-0.528775 -0.159829 -2.42725e-11
-0.159829 -0.533118 4.03575e-11
-2.42725e-11 4.03575e-11 0.0108023

-0.0947567 -0.388032 1.69525e-11
-0.388032 0.355793 -4.9795e-11
1.69525e-11 -4.9795e-11 -0.0801303

-0.0987088 0.391721 -1.19423e-11
0.391721 0.349644 2.61018e-11
-1.19423e-11 2.61018e-11 -0.0825793

0.906072 -0.219033 3.54474e-11
-0.219033 -2.85615 -4.48798e-11
3.54474e-11 -4.48798e-11 -1.9604

0.51737 -0.0239963 7.89749e-11
-0.0239963 -0.758335 -7.01213e-11
7.89749e-11 -7.01213e-11 -1.57363

0.187824 0.235011 7.31886e-12
0.235011 0.454316 -5.82704e-11
7.31886e-12 -5.82704e-11 -0.148837

0.198914 -0.229852 1.54104e-11
-0.229852 0.454281 -1.44445e-12
1.54104e-11 -1.44445e-12 -0.145992

-0.00222952 0.121901 -2.42706e-11
0.121901 0.331308 6.73237e-11
-2.42706e-11 6.73237e-11 -0.328236

-0.00114614 -0.121519 2.35001e-11
-0.121519 0.330576 3.15428e-11
2.35001e-11 3.15428e-11 -0.327959

-1.66507 -0.287205 1.54022e-12
-0.287205 -0.708875 2.62963e-11
1.54022e-12 2.62963e-11 -0.509254

-1.61493 0.288895 -2.25388e-11
0.288895 -0.759233 -2.83174e-11
-2.25388e-11 -2.83174e-11 -0.506438

-0.444457 -1.59693 -8.47193e-12
-1.59693 -2.60331 -2.23466e-11
-8.47193e-12 -2.23466e-11 -2.66514

-4.43612 0.0756818 6.14507e-11
0.0756818 -3.02743 3.00534e-11
6.14507e-11 3.00534e-11 -3.76181

-0.0986181 0.0511895 3.35163e-11
0.0511895 0.21242 3.58289e-11
3.35163e-11 3.58289e-11 -0.623665

0.0593937 -0.142929 4.23774e-11
-0.142929 0.0110743 -4.43011e-12
4.23774e-11 -4.43011e-12 -0.81906

-0.099633 -0.0502295 2.61973e-11
-0.0502295 0.216659 -9.15027e-12
2.61973e-11 -9.15027e-12 -0.623043

0.060303 0.143834 4.27635e-11
0.143834 0.0137482 -2.89273e-13
4.27635e-11 -2.89273e-13 -0.818285

0.527369 0.971182 -3.46662e-12
0.971182 -0.146602 1.38702e-11
-3.46662e-12 1.38702e-11 -1.70226

-4.42483 -0.0659802 -2.793e-11
-0.0659802 -3.03662 4.10329e-11
-2.793e-11 4.10329e-11 -3.7603

-0.00949102 0.00626079 -3.08972e-10
0.00626079 -0.00413087 -1.9292e-10
-3.08972e-10 -1.9292e-10 -0.86676

0.164384 -0.153279 -2.84706e-10
-0.153279 -0.0299868 2.05428e-10
-2.84706e-10 2.05428e-10 -1.07773

0.164613 0.154432 -4.77654e-11
0.154432 -0.0266255 3.06466e-10
-4.77654e-11 3.06466e-10 -1.0768

-0.00647943 -0.00427404 7.31911e-11
-0.00427404 -0.00282021 -3.00498e-10
7.31911e-11 -3.00498e-10 -0.865958

0.183484 -0.0945293 -2.23445e-11
-0.0945293 -0.0498858 -1.78182e-11
-2.23445e-11 -1.78182e-11 -0.679916

0.153894 -0.369612 6.16396e-12
-0.369612 0.147612 1.14616e-11
6.16396e-12 1.14616e-11 -0.375546

-0.174746 -0.107817 -6.55063e-12
-0.107817 0.232206 8.17698e-11
-6.55063e-12 8.17698e-11 -0.934275

0.185313 0.0970236 1.81064e-11
0.0970236 -0.0487654 -2.0322e-11
1.81064e-11 -2.0322e-11 -0.679511

-0.172912 0.108883 5.04704e-11
0.108883 0.235152 1.64599e-10
5.04704e-11 1.64599e-10 -0.933231

0.154343 0.371837 4.50735e-11
0.371837 0.148983 -6.58792e-11
4.50735e-11 -6.58792e-11 -0.375596

0.0839954 0.122422 3.23617e-11
0.122422 0.280577 3.52508e-11
3.23617e-11 3.52508e-11 -0.435047

-0.0186309 0.25513 -2.1574e-11
0.25513 0.0459758 2.34045e-11
-2.1574e-11 2.34045e-11 -0.664086

0.0833117 -0.121635 -3.92953e-11
-0.121635 0.280393 -3.42883e-11
-3.92953e-11 -3.42883e-11 -0.434985

-0.0190512 -0.253422 -3.69846e-11
-0.253422 0.0448285 1.2424e-11
-3.69846e-11 1.2424e-11 -0.664325

-1.05755 1.77134 2.27311e-11
1.77134 2.94381 -3.23703e-11
2.27311e-11 -3.23703e-11 0.663954

-0.445337 0.289079 7.72086e-13
0.289079 0.964073 2.88983e-11
7.72086e-13 2.88983e-11 -0.170922

-3.42799 0.499384 -1.40653e-11
0.499384 1.81569 -2.69747e-12
-1.40653e-11 -2.69747e-12 -0.479583

2.76864 0.908993 -1.54251e-12
0.908993 -2.75166 -1.31037e-11
-1.54251e-12 -1.31037e-11 0.0334465

3.86213 0.261452 -4.18134e-11
0.261452 -1.53444 -1.61815e-11
-4.18134e-11 -1.61815e-11 0.603447

-2.84312 -0.194066 -1.63744e-11
-0.194066 -0.780131 3.85351e-12
-1.63744e-11 3.85351e-12 -1.35776

-5.75689 0.758726 7.89629e-12
0.758726 1.15028 -4.27729e-11
7.89629e-12 -4.27729e-11 -1.68502

3.94875 -0.250601 -1.18974e-11
-0.250601 -1.02467 2.27377e-11
-1.18974e-11 2.27377e-11 0.667724

2.50306 0.206573 1.84966e-11
0.206573 -4.03249 2.11819e-12
1.84966e-11 2.11819e-12 -0.508419

1.16957 1.59031 1.53194e-11
1.59031 4.63777 -2.31644e-12
1.53194e-11 -2.31644e-12 2.26744

2.5384 -2.57172 1.43548e-11
-2.57172 5.29489 8.28367e-12
1.43548e-11 8.28367e-12 2.69859

5.03226 1.60248 -7.51458e-12
1.60248 1.72525 2.30963e-12
-7.51458e-12 2.30963e-12 2.52179

-1.64461 -2.93816 5.80843e-11
-2.93816 0.140952 3.77568e-11
5.80843e-11 3.77568e-11 -1.08043

-2.67929 -1.02708 1.15491e-12
-1.02708 0.231287 5.7779e-12
1.15491e-12 5.7779e-12 -1.36922

-2.94429 1.52252 2.90268e-13
1.52252 1.84243 1.42578e-11
2.90268e-13 1.42578e-11 -0.02176

-4.30826 1.76684 -2.40835e-11
1.76684 1.16621 1.84972e-11
-2.40835e-11 1.84972e-11 -0.478174

-5.78497 -0.841555 7.12916e-12
-0.841555 1.26935 1.19458e-11
7.12916e-12 1.19458e-11 -1.70202

-3.25447 -2.19889 5.47117e-11
-2.19889 -0.275349 9.63081e-12
5.47117e-11 9.63081e-12 -1.41856

1.99241 -1.56581 -8.57359e-12
-1.56581 -3.02195 -2.50394e-12
-8.57359e-12 -2.50394e-12 -0.0272982

0.351385 0.502176 -1.4469e-12
0.502176 5.2264 1.57966e-11
-1.4469e-12 1.57966e-11 1.8391

1.5515 -1.00308 3.2366e-11
-1.00308 5.12702 3.27257e-12
3.2366e-11 3.27257e-12 1.90303

5.19118 0.377199 -1.00238e-11
0.377199 1.34739 -1.8881e-11
-1.00238e-11 -1.8881e-11 2.0924

-0.700313 2.05303 7.22389e-12
2.05303 1.73792 -3.89188e-11
7.22389e-12 -3.89188e-11 0.504312

3.74942 -1.4103 3.25665e-11
-1.4103 -0.606787 1.02113e-11
3.25665e-11 1.02113e-11 0.84215

-0.025823 2.25494 -3.20791e-11
2.25494 0.397494 -2.38937e-11
-3.20791e-11 -2.38937e-11 0.240882

1.26982 1.59924 -4.43201e-12
1.59924 2.39985 -2.71688e-11
-4.43201e-12 -2.71688e-11 0.796579

3.07736 -0.481839 -2.79365e-12
-0.481839 -2.9413 -6.93572e-12
-2.79365e-12 -6.93572e-12 -0.0188414

4.41783 1.07891 -1.75335e-11
1.07891 6.90391 3.54552e-11
-1.75335e-11 3.54552e-11 4.39602

2.04606 0.541119 2.2974e-11
0.541119 -3.9757 -2.46581e-11
2.2974e-11 -2.46581e-11 -0.489669

6.83376 1.00681 -1.31032e-11
1.00681 5.02309 -4.63237e-12
-1.31032e-11 -4.63237e-12 4.65115

-1.50744 -0.999613 -3.23652e-11
-0.999613 -0.579765 -6.16211e-12
-3.23652e-11 -6.16211e-12 -1.40276

-3.21547 0.127262 -2.29254e-11
0.127262 0.68414 -8.08994e-12
-2.29254e-11 -8.08994e-12 -1.79017

-3.75389 -1.07324 -1.22826e-11
-1.07324 -5.55904 -1.32925e-11
-1.22826e-11 -1.32925e-11 -5.83525

-4.82042 2.5983 -9.27058e-12
2.5983 -4.54946 1.69554e-11
-9.27058e-12 1.69554e-11 -5.73217

5.50539 -0.683693 2.51461e-11
-0.683693 1.73174 4.58569e-11
2.51461e-11 4.58569e-11 2.18547

-1.86585 2.39234 6.06678e-12
2.39234 -0.323128 2.08078e-11
6.06678e-12 2.08078e-11 -0.313417

-2.16961 1.36714 -1.99629e-11
1.36714 -2.58265 3.96854e-11
-1.99629e-11 3.96854e-11 -2.09417

-1.57522 -0.383256 2.85342e-12
-0.383256 -2.11606 3.77607e-11
2.85342e-12 3.77607e-11 -2.13283

2.58318 0.206483 2.69006e-11
0.206483 -4.38614 -3.19814e-11
2.69006e-11 -3.19814e-11 -0.46879

0.433111 2.25474 -2.69999e-12
2.25474 2.17121 -2.36998e-11
-2.69999e-12 -2.36998e-11 0.623247

3.30667 -1.78504 5.0077e-12
-1.78504 0.993288 -1.869e-11
5.0077e-12 -1.869e-11 0.978561

3.01826 -0.0206439 1.18981e-11
-0.0206439 -4.51395 -6.55063e-12
1.18981e-11 -6.55063e-12 -0.358991

0.181524 -3.07172 -2.49509e-11
-3.07172 3.08556 4.62523e-12
-2.49509e-11 4.62523e-12 0.674948

0.282842 -2.67858 -7.99568e-12
-2.67858 3.2253 1.56065e-11
-7.99568e-12 1.56065e-11 0.692223

-0.715631 1.35966 1.02113e-11
1.35966 0.401745 5.97167e-12
1.02113e-11 5.97167e-12 -0.175477

2.85472 -3.07471 2.40837e-12
-3.07471 1.90842 -2.6398e-11
2.40837e-12 -2.6398e-11 1.25622

13.5431 -3.06431 4.37436e-11
-3.06431 13.3082 3.0805e-12
4.37436e-11 3.0805e-12 13.3129

13.4705 -3.24733 -6.55398e-12
-3.24733 14.3145 1.67663e-11
-6.55398e-12 1.67663e-11 13.7131

-2.97346 -3.57071 -2.86089e-11
-3.57071 0.839582 2.6974e-11
-2.86089e-11 2.6974e-11 -0.868997

8.63844 -1.21214 -1.15642e-11
-1.21214 8.38597 -4.79832e-11
-1.15642e-11 -4.79832e-11 9.14578

7.84809 -0.993513 -1.69564e-11
-0.993513 8.51545 -4.23935e-12
-1.69564e-11 -4.23935e-12 8.79253

0.144471 1.54863 1.54192e-11
1.54863 -2.95457 5.02757e-11
1.54192e-11 5.02757e-11 -1.41889

-0.508629 -2.05127 5.85646e-11
-2.05127 -2.68295 1.15009e-12
5.85646e-11 1.15009e-12 -1.98304

1.36891 -1.07104 3.27571e-12
-1.07104 -3.9086 3.85263e-12
3.27571e-12 3.85263e-12 -0.262844

-0.0496052 2.08549 3.08217e-11
2.08549 -4.22888 -6.93875e-12
3.08217e-11 -6.93875e-12 -1.70489

-0.956003 -2.87823 8.86532e-12
-2.87823 -3.0866 -1.15597e-11
8.86532e-12 -1.15597e-11 -2.19539

-0.796427 1.57919 -1.05938e-11
1.57919 1.5941 4.04654e-12
-1.05938e-11 4.04654e-12 0.101604

-2.40268 -0.996798 -1.79654e-11
-0.996798 -5.49129 -9.90819e-12
-1.79654e-11 -9.90819e-12 -4.63129

-3.78873 1.34066 5.24973e-12
1.34066 -4.64633 -2.13878e-11
5.24973e-12 -2.13878e-11 -4.65871

0.508027 2.44299 -1.92633e-11
2.44299 -2.77208 3.70992e-12
-1.92633e-11 3.70992e-12 -0.702004

-0.386199 -3.10792 4.81548e-12
-3.10792 -2.50779 -1.46917e-11
4.81548e-12 -1.46917e-11 -0.990739

5.23971 -2.12163 -2.82282e-11
-2.12163 2.32565 -1.54092e-12
-2.82282e-11 -1.54092e-12 2.7574

-3.94831 -0.604393 -2.38862e-11
-0.604393 -2.22867 8.9582e-12
-2.38862e-11 8.9582e-12 -3.20786

-5.27212 -0.100864 3.391e-11
-0.100864 0.117406 2.5044e-11
3.391e-11 2.5044e-11 -4.00786

-0.910617 -2.59501 3.66237e-12
-2.59501 1.68472 -1.7725e-11
3.66237e-12 -1.7725e-11 0.445453

4.37827 -0.894285 -1.48348e-11
-0.894285 7.00416 3.60338e-11
-1.48348e-11 3.60338e-11 4.70872

6.98252 -0.836432 -2.17738e-11
-0.836432 4.51665 -3.66059e-12
-2.17738e-11 -3.66059e-12 4.78547

-1.72038 1.00827 -1.30999e-11
1.00827 0.949051 1.6954e-11
-1.30999e-11 1.6954e-11 -0.310953

-4.31463 1.51464 1.40645e-11
1.51464 1.4574 1.92667e-11
1.40645e-11 1.92667e-11 -0.524386

-1.32167 1.97258 -1.67606e-10
1.97258 -7.08645 -5.66208e-11
-1.67606e-10 -5.66208e-11 -5.75499

-1.56472 0.588313 -1.09031e-10
0.588313 0.472806 1.73455e-11
-1.09031e-10 1.73455e-11 -6.37097

-4.40044 2.2792 -2.60089e-12
2.2792 -0.980301 1.84956e-11
-2.60089e-12 1.84956e-11 -0.888679

1.35472 1.80296 -3.85414e-12
1.80296 -3.27654 3.27638e-12
-3.85414e-12 3.27638e-12 -0.363031

0.85517 -2.74558 -1.40646e-11
-2.74558 -3.02132 5.77978e-12
-1.40646e-11 5.77978e-12 -0.504743

-3.55803 3.12812 2.2878e-11
3.12812 -0.985268 1.69546e-11
2.2878e-11 1.69546e-11 -0.767389

-4.98918 -2.37948 1.67612e-11
-2.37948 0.151935 1.07877e-11
1.67612e-11 1.07877e-11 -1.26413

5.42601 -0.225008 3.21791e-11
-0.225008 0.767269 -3.31423e-11
3.21791e-11 -3.31423e-11 2.06942

3.2939 -0.909624 -3.4693e-12
-0.909624 -1.75407 -2.13853e-11
-3.4693e-12 -2.13853e-11 0.584143

4.07936 1.11727 3.94818e-12
1.11727 -0.198264 -1.65703e-11
3.94818e-12 -1.65703e-11 1.13729

-1.44855 1.23997 -1.03314e-11
1.23997 -3.84965 1.42563e-11
-1.03314e-11 1.42563e-11 -1.91014

-9.97559 0.842583 3.77819e-11
0.842583 -4.41813 -3.86432e-13
3.77819e-11 -3.86432e-13 -7.72208

-7.14599 -0.621354 -3.00422e-11
-0.621354 -6.79856 -1.40641e-11
-3.00422e-11 -1.40641e-11 -7.70445

2.81817 1.79377 6.84667e-12
1.79377 3.85581 5.20302e-12
6.84667e-12 5.20302e-12 2.14799

0.90455 -2.30513 2.99583e-11
-2.30513 -0.0112191 -3.21786e-11
2.99583e-11 -3.21786e-11 0.0894768

1.92809 1.24813 2.5238e-11
1.24813 -2.04999 -7.8995e-12
2.5238e-11 -7.8995e-12 0.0966036

-5.01349 1.39258 -5.95258e-11
1.39258 -0.459558 -1.42532e-11
-5.95258e-11 -1.42532e-11 -4.98365

-5.21403 -0.928649 1.50263e-11
-0.928649 -3.39984 -1.5028e-11
1.50263e-11 -1.5028e-11 -4.36305

-1.10343 -0.338577 -1.86154e-11
-0.338577 -4.13487 -1.9843e-11
-1.86154e-11 -1.9843e-11 -2.11788

-0.877885 -1.79431 5.87598e-11
-1.79431 1.38402 1.53884e-12
5.87598e-11 1.53884e-12 -0.254236

-3.55949 -0.580662 5.68407e-12
-0.580662 1.92327 1.11762e-11
5.68407e-12 1.11762e-11 -0.570116

1.27249 0.398226 3.81487e-11
0.398226 -5.30368 2.63933e-11
3.81487e-11 2.63933e-11 -0.548632

1.10057 -1.2506 -1.19458e-11
-1.2506 -5.12131 -4.23779e-12
-1.19458e-11 -4.23779e-12 -0.636515

3.96668 -2.54821 -7.70598e-12
-2.54821 2.87762 -1.73406e-11
-7.70598e-12 -1.73406e-11 2.32814

0.876055 1.57337 -3.12649e-11
1.57337 -5.33743 -4.91255e-11
-3.12649e-11 -4.91255e-11 -0.999492

0.609564 -2.44708 1.06934e-11
-2.44708 -4.30418 3.86728e-13
1.06934e-11 3.86728e-13 -1.12776

1.92345 -2.17833 -1.13675e-11
-2.17833 -2.26393 -2.42743e-11
-1.13675e-11 -2.42743e-11 0.0331274

-0.827688 -2.1704 5.97365e-12
-2.1704 2.69792 3.85588e-12
5.97365e-12 3.85588e-12 0.644773

0.752753 0.945874 -1.15744e-12
0.945874 -3.82147 3.85654e-13
-1.15744e-12 3.85654e-13 -0.527614

0.872359 -1.75442 -1.54151e-12
-1.75442 -3.76149 -1.91958e-13
-1.54151e-12 -1.91958e-13 -0.6497

2.34607 -0.572252 2.57686e-11
-0.572252 -1.76284 -2.89008e-11
2.57686e-11 -2.89008e-11 -0.0140186

0.307545 2.73776 5.00655e-12
2.73776 -1.03909 -2.71635e-11
5.00655e-12 -2.71635e-11 -0.254513

2.33611 1.81389 1.66672e-11
1.81389 1.10258 5.04834e-11
1.66672e-11 5.04834e-11 0.976951

-4.37783 2.71843 4.95948e-12
2.71843 -1.90819 -3.81486e-11
4.95948e-12 -3.81486e-11 -1.03614

-1.58852 2.02449 -1.40636e-11
2.02449 -0.0972708 -1.54029e-12
-1.40636e-11 -1.54029e-12 -0.415471

3.71824 1.00982 -2.69754e-11
1.00982 -1.11091 6.93882e-12
-2.69754e-11 6.93882e-12 0.881494

-0.388722 -1.351 1.83525e-11
-1.351 -2.03374 -7.12774e-12
1.83525e-11 -7.12774e-12 -0.837987

2.21738 0.844797 3.56433e-12
0.844797 -1.71949 4.08423e-11
3.56433e-12 4.08423e-11 0.106478

0.763945 2.1717 8.96176e-12
2.1717 1.54665 3.19894e-11
8.96176e-12 3.19894e-11 0.860369

0.255187 2.05151 -3.7666e-11
2.05151 -0.69066 2.00356e-11
-3.7666e-11 2.00356e-11 0.0463027

-4.76144 0.0238914 2.56225e-11
0.0238914 2.34947 1.50275e-11
2.56225e-11 1.50275e-11 -0.602565

-2.44536 -0.883354 9.05548e-12
-0.883354 1.10692 2.08082e-11
9.05548e-12 2.08082e-11 -0.535818

4.54186 -2.5578 -1.53929e-12
-2.5578 1.65111 5.20236e-11
-1.53929e-12 5.20236e-11 2.44097

-2.5497 -3.49117 2.05165e-11
-3.49117 0.779588 2.56228e-11
2.05165e-11 2.56228e-11 -0.665649

1.08874 -3.07759 -2.85159e-11
-3.07759 2.66417 -1.65653e-11
-2.85159e-11 -1.65653e-11 1.18152

2.38569 2.49763 -2.81332e-11
2.49763 2.46713 1.92609e-12
-2.81332e-11 1.92609e-12 1.24087

1.84969 -1.13898 1.3101e-11
-1.13898 -0.77952 -1.96541e-11
1.3101e-11 -1.96541e-11 0.0415935

1.51283 -0.0882471 5.39552e-12
-0.0882471 -5.29561 1.07888e-11
5.39552e-12 1.07888e-11 -1.17247

1.04096 0.366892 3.85823e-11
0.366892 -4.77518 2.04206e-11
3.85823e-11 2.04206e-11 -1.07623

-1.71554 1.14444 -5.20117e-12
1.14444 3.48896 2.31223e-11
-5.20117e-12 2.31223e-11 0.683102

0.524221 -2.74914 2.24458e-11
-2.74914 1.45369 -1.58005e-11
2.24458e-11 -1.58005e-11 0.274146

-0.39654 -0.377511 -6.55171e-12
-0.377511 5.48069 -1.27176e-11
-6.55171e-12 -1.27176e-11 1.97141

0.832147 -0.477101 3.75719e-11
-0.477101 5.58615 1.98438e-11
3.75719e-11 1.98438e-11 2.10694

5.42245 -0.631646 -6.5569e-12
-0.631646 0.343601 -7.01381e-11
-6.5569e-12 -7.01381e-11 2.21509

4.14372 1.81868 -5.39472e-12
1.81868 3.36717 -2.42761e-11
-5.39472e-12 -2.42761e-11 2.34119

2.09809 -3.15742 -1.05952e-11
-3.15742 0.368749 -1.77225e-11
-1.05952e-11 -1.77225e-11 0.924681

-0.863819 -0.750233 -2.42761e-11
-0.750233 -0.713359 -5.12406e-11
-2.42761e-11 -5.12406e-11 -5.80755

-7.75906 -2.84652 1.54689e-10
-2.84652 -4.2381 -7.84155e-11
1.54689e-10 -7.84155e-11 -6.22848

3.33534 -1.86956 4.68222e-11
-1.86956 -1.17782 2.54298e-11
4.68222e-11 2.54298e-11 0.790051

-0.210045 2.52867 1.3104e-11
2.52867 0.631377 2.75505e-11
1.3104e-11 2.75505e-11 0.0233914

1.48693 0.168478 6.55283e-12
0.168478 -3.84822 1.23276e-11
6.55283e-12 1.23276e-11 -0.20314

-0.0753892 -2.29116 1.51253e-11
-2.29116 3.84046 3.02504e-11
1.51253e-11 3.02504e-11 0.831606

-5.91734 2.38587 -1.85916e-11
2.38587 0.163487 -9.63265e-12
-1.85916e-11 -9.63265e-12 -1.32233

-1.75822 0.996916 1.40643e-11
0.996916 -0.347939 5.97159e-12
1.40643e-11 5.97159e-12 -0.641436

-2.61787 -3.25046 1.07892e-11
-3.25046 -1.14598 3.12087e-11
1.07892e-11 3.12087e-11 -0.657007

-0.880789 2.43477 2.31426e-12
2.43477 -0.569144 2.8706e-11
2.31426e-12 2.8706e-11 -0.374039

-3.39746 1.92692 -2.80313e-11
1.92692 0.653494 3.39117e-11
-2.80313e-11 3.39117e-11 -0.302678

0.915031 -0.229135 -2.31199e-11
-0.229135 -8.29467 1.04049e-11
-2.31199e-11 1.04049e-11 -1.07896

3.08868 2.37719 -1.95325e-13
2.37719 0.543557 -1.21371e-11
-1.95325e-13 -1.21371e-11 1.08254

-2.59038 -3.6941 3.32815e-11
-3.6941 1.79638 -1.31033e-11
3.32815e-11 -1.31033e-11 -0.466598

2.20885 2.14006 6.16944e-12
2.14006 1.6613 -2.67818e-11
6.16944e-12 -2.67818e-11 0.992928

3.31079 -2.09955 -5.16394e-11
-2.09955 4.57525 -8.28708e-12
-5.16394e-11 -8.28708e-12 2.41667

-1.1411 -3.02282 -6.54969e-12
-3.02282 1.24877 1.15597e-11
-6.54969e-12 1.15597e-11 -0.193478

0.228557 -1.36427 3.69912e-11
-1.36427 4.88712 -5.27981e-11
3.69912e-11 -5.27981e-11 1.65773

1.86548 0.521352 -1.6765e-11
0.521352 4.71488 -2.77448e-11
-1.6765e-11 -2.77448e-11 1.76806

4.59385 -1.28408 -5.29893e-11
-1.28408 0.937011 4.43171e-11
-5.29893e-11 4.43171e-11 1.84751

1.57303 -2.75385 -1.31018e-11
-2.75385 1.16452 8.87024e-12
-1.31018e-11 8.87024e-12 0.901248

-2.29084 -0.130803 2.67788e-11
-0.130803 3.45744 8.85965e-12
2.67788e-11 8.85965e-12 0.371219

0.274227 -0.493275 -2.13869e-11
-0.493275 3.03287 -2.92855e-11
-2.13869e-11 -2.92855e-11 0.580823

2.49964 -2.75558 6.74464e-12
-2.75558 4.18695 -2.5051e-11
6.74464e-12 -2.5051e-11 2.51247

3.39526 2.04366 -2.27333e-11
2.04366 4.07096 1.53958e-12
-2.27333e-11 1.53958e-12 2.48923

-0.122566 0.0101298 -1.19436e-11
0.0101298 -5.92995 2.67807e-11
-1.19436e-11 2.67807e-11 -0.861215

-0.100681 -0.48835 -1.46434e-11
-0.48835 -5.50598 -1.38705e-11
-1.46434e-11 -1.38705e-11 -0.875877

-0.0767476 2.21016 2.94797e-11
2.21016 0.493641 1.83017e-11
2.94797e-11 1.83017e-11 0.0202291

-2.95087 -3.65012 -4.78737e-11
-3.65012 1.17694 2.19665e-11
-4.78737e-11 2.19665e-11 -0.73079

-1.72741 2.50293 1.57977e-11
2.50293 -1.31299 2.11653e-12
1.57977e-11 2.11653e-12 -0.63184

5.72558 1.1503 -1.42579e-11
1.1503 3.15486 6.54787e-12
-1.42579e-11 6.54787e-12 3.4957

0.0524401 1.37484 -1.44478e-11
1.37484 3.35216 3.66041e-12
-1.44478e-11 3.66041e-12 0.799558

0.608432 1.26728 1.1946e-11
1.26728 -3.60265 7.79517e-12
1.1946e-11 7.79517e-12 -1.03654

0.220304 -2.21157 -4.2378e-12
-2.21157 -3.48163 -1.19464e-11
-4.2378e-12 -1.19464e-11 -1.42372

1.12678 1.80781 5.01314e-12
1.80781 -1.8109 4.21925e-11
5.01314e-12 4.21925e-11 -0.224505

0.92574 -2.61336 -3.66114e-11
-2.61336 -2.14838 1.11754e-11
-3.66114e-11 1.11754e-11 -0.400645

7.24217 -1.30688 -1.00206e-11
-1.30688 4.79587 3.89247e-11
-1.00206e-11 3.89247e-11 8.15985

4.72702 -1.5292 4.27766e-11
-1.5292 7.80875 7.51339e-12
4.27766e-11 7.51339e-12 8.40445

-1.87595 -1.73616 1.6958e-11
-1.73616 3.37464 3.46824e-11
1.6958e-11 3.46824e-11 0.62158

-0.109717 2.0752 -1.80996e-11
2.0752 -5.64803 6.18381e-11
-1.80996e-11 6.18381e-11 -3.09763

-0.674855 -2.93566 -5.43291e-11
-2.93566 -3.36825 -3.62113e-11
-5.43291e-11 -3.62113e-11 -3.79889

1.66019 2.10308 -1.1753e-11
2.10308 -0.390774 1.29073e-11
-1.1753e-11 1.29073e-11 0.281759

6.0224 0.849824 -1.84044e-11
0.849824 2.96799 -3.08654e-12
-1.84044e-11 -3.08654e-12 3.53014

-2.31541 -2.53412 -3.0829e-12
-2.53412 1.6511 -3.46767e-12
-3.0829e-12 -3.46767e-12 -0.401453

-4.23419 -1.21693 -4.45041e-11
-1.21693 2.07351 -2.69655e-12
-4.45041e-11 -2.69655e-12 -0.485068

1.78838 -3.01689 -7.80305e-12
-3.01689 2.57884 -3.42977e-11
-7.80305e-12 -3.42977e-11 1.11203

-3.75235 -2.4444 -2.89019e-12
-2.4444 -1.76625 8.09175e-12
-2.89019e-12 8.09175e-12 -0.942312

1.29982 -2.83914 3.98829e-11
-2.83914 -0.742934 -2.00393e-11
3.98829e-11 -2.00393e-11 0.212791

-6.03374 3.69953 -1.27168e-11
3.69953 -0.866601 -1.50286e-11
-1.27168e-11 -1.50286e-11 -1.05073

-1.96718 0.904635 1.13657e-11
0.904635 -0.869244 -5.49039e-12
1.13657e-11 -5.49039e-12 -1.20445

-2.62564 1.55179 4.64289e-11
1.55179 -0.244324 -9.24881e-12
4.64289e-11 -9.24881e-12 -1.43426

-1.86898 -2.7205 1.44506e-11
-2.7205 -0.445926 4.00734e-11
1.44506e-11 4.00734e-11 -0.285667

-2.36083 2.65498 -1.5991e-11
2.65498 -0.201479 -2.31167e-12
-1.5991e-11 -2.31167e-12 -0.287237

3.45303 1.7666 2.25423e-11
1.7666 0.277674 3.85221e-12
2.25423e-11 3.85221e-12 1.18263

2.91454 -0.00470921 -7.12911e-12
-0.00470921 -1.62504 -8.86189e-12
-7.12911e-12 -8.86189e-12 0.529014

-0.255547 1.83586 2.61997e-11
1.83586 -0.354118 -5.00885e-12
2.61997e-11 -5.00885e-12 -0.141428

-1.61418 -2.93842 2.8888e-13
-2.93842 2.60936 -8.86239e-12
2.8888e-13 -8.86239e-12 0.0576632

-2.84993 0.44536 -1.84016e-11
0.44536 3.54919 2.0426e-11
-1.84016e-11 2.0426e-11 0.33578

0.989839 2.7453 6.30063e-11
2.7453 -1.40183 2.58125e-11
6.30063e-11 2.58125e-11 -0.139257

-0.564395 0.0780592 -3.50656e-11
0.0780592 2.82852 -5.97174e-12
-3.50656e-11 -5.97174e-12 0.42706

-5.76943 -2.04763 -3.98799e-11
-2.04763 -0.0255813 3.73792e-11
-3.98799e-11 3.73792e-11 -1.26243

7.25065 -1.72836 -3.86469e-13
-1.72836 8.24602 -1.90766e-11
-3.86469e-13 -1.90766e-11 6.84796

8.33981 -1.76694 2.02305e-12
-1.76694 7.15647 2.58192e-11
2.02305e-12 2.58192e-11 6.854

2.20738 0.60631 -9.4591e-14
0.60631 -3.09695 -3.46728e-12
-9.4591e-14 -3.46728e-12 0.0196007

-0.0928843 -3.23599 -2.69743e-11
-3.23599 -1.60597 1.84957e-11
-2.69743e-11 1.84957e-11 -0.35304

-0.508845 1.83718 -1.04819e-10
1.83718 -7.09917 -1.13452e-10
-1.04819e-10 -1.13452e-10 -5.20757

0.509823 -0.516353 -2.08048e-11
-0.516353 -3.41724 4.23986e-12
-2.08048e-11 4.23986e-12 -6.01644

-2.94282 -2.28042 3.19824e-11
-2.28042 0.459248 3.89182e-11
3.19824e-11 3.89182e-11 -0.298389

-4.28618 -0.690402 2.9427e-11
-0.690402 -3.14111 -2.48538e-11
2.9427e-11 -2.48538e-11 -3.82033

-4.35843 2.39157 5.61281e-12
2.39157 -1.70932 2.61994e-11
5.61281e-12 2.61994e-11 -3.35269

3.3643 0.214896 -1.92642e-12
0.214896 -3.36013 -2.54308e-11
-1.92642e-12 -2.54308e-11 -0.0123435

-2.82624 -3.95989 3.18842e-11
-3.95989 1.70724 -9.65246e-13
3.18842e-11 -9.65246e-13 -0.447535

6.12804 1.33066 1.81138e-11
1.33066 6.23815 -1.56087e-11
1.81138e-11 -1.56087e-11 5.32434

5.52475 1.28274 -9.82707e-12
1.28274 5.55482 -6.55183e-12
-9.82707e-12 -6.55183e-12 4.88102

2.83931 -1.54014 -8.09386e-12
-1.54014 6.42725 -3.85499e-12
-8.09386e-12 -3.85499e-12 3.98422

3.76899 0.767039 1.98497e-11
0.767039 6.38682 4.64393e-11
1.98497e-11 4.64393e-11 3.92956

6.41017 -1.30784 6.60948e-11
-1.30784 3.18415 -6.65279e-12
6.60948e-11 -6.65279e-12 4.10997

-5.57236 -3.6351 -2.71653e-11
-3.6351 -1.12623 2.27357e-11
-2.71653e-11 2.27357e-11 -1.07357

3.32749 0.0730819 -2.50493e-11
0.0730819 7.53334 1.6957e-11
-2.50493e-11 1.6957e-11 4.96703

7.57849 0.108914 -2.98695e-11
0.108914 4.00345 -1.21407e-11
-2.98695e-11 -1.21407e-11 5.22599

-3.72981 0.244745 1.83009e-11
0.244745 0.365118 -1.54214e-12
1.83009e-11 -1.54214e-12 -2.59558

-3.03804 -2.08525 -8.67051e-12
-2.08525 -0.766862 -2.26348e-11
-8.67051e-12 -2.26348e-11 -2.26331

1.33339 0.83527 -5.32257e-11
0.83527 -2.1879 -2.15779e-11
-5.32257e-11 -2.15779e-11 -0.373002

2.69496 0.139523 2.51911e-11
0.139523 -4.88859 -1.73401e-11
2.51911e-11 -1.73401e-11 -0.481651

0.333075 -1.96605 2.00359e-11
-1.96605 3.74698 -5.35689e-11
2.00359e-11 -5.35689e-11 1.54039

1.39767 1.25852 -6.36206e-12
1.25852 4.04091 -3.12138e-11
-6.36206e-12 -3.12138e-11 1.65212

3.26836 0.165646 -8.17679e-13
0.165646 -3.29862 4.62281e-12
-8.17679e-13 4.62281e-12 -0.0403546

-2.69255 -2.00077 3.46891e-12
-2.00077 1.6928 4.04631e-11
3.46891e-12 4.04631e-11 -0.030193

-0.0850463 1.16556 -5.3938e-12
1.16556 -4.34967 4.02658e-11
-5.3938e-12 4.02658e-11 -2.09452

-0.553213 -1.61813 2.69696e-11
-1.61813 -3.20179 -6.54985e-11
2.69696e-11 -6.54985e-11 -2.70069

-0.893499 1.90419 -1.29045e-11
1.90419 -1.03509 3.0439e-11
-1.29045e-11 3.0439e-11 -0.542092

-1.61761 -3.34371 -1.33908e-11
-3.34371 2.19294 3.10204e-11
-1.33908e-11 3.10204e-11 -0.0862053

1.59721 0.862874 -3.97853e-11
0.862874 -3.72405 3.08172e-12
-3.97853e-11 3.08172e-12 -0.542959

3.16209 1.74741 1.44492e-12
1.74741 2.58954 8.86184e-12
1.44492e-12 8.86184e-12 2.04408

-1.456 -3.60694 -1.72428e-11
-3.60694 2.12121 1.96533e-11
-1.72428e-11 1.96533e-11 -0.0396921

13.9102 3.19796 2.83273e-11
3.19796 13.9658 -2.69808e-12
2.83273e-11 -2.69808e-12 14.1105

-1.17837 -1.31851 4.91534e-12
-1.31851 3.05919 -3.08398e-12
4.91534e-12 -3.08398e-12 0.322673

-2.44949 -0.779487 -5.59002e-12
-0.779487 3.50528 -7.71605e-13
-5.59002e-12 -7.71605e-13 0.399556

-5.02079 -0.349802 -4.04506e-11
-0.349802 1.23015 9.74874e-11
-4.04506e-11 9.74874e-11 -3.05016

-3.44111 -1.63889 -7.90096e-12
-1.63889 -2.08909 -1.3484e-12
-7.90096e-12 -1.3484e-12 -2.76282

0.814554 0.914484 -1.96528e-11
0.914484 -8.33167 4.62791e-12
-1.96528e-11 4.62791e-12 -1.32952

0.725243 -1.3496 3.08281e-12
-1.3496 -7.03433 1.57981e-11
3.08281e-12 1.57981e-11 -1.33764

-2.41412 2.75817 -7.60891e-12
2.75817 -2.28786 2.19668e-11
-7.60891e-12 2.19668e-11 -1.49278

-2.44732 -1.7661 8.52422e-12
-1.7661 -1.71212 3.06313e-11
8.52422e-12 3.06313e-11 -1.68408

-3.50681 2.12122 -7.46396e-12
2.12122 -2.58016 2.0034e-11
-7.46396e-12 2.0034e-11 -2.86096

-3.57813 -1.47555 5.16057e-11
-1.47555 -1.32959 1.86857e-11
5.16057e-11 1.86857e-11 -2.88521

-0.398761 2.01633 -1.00951e-10
2.01633 -6.00294 -3.79396e-11
-1.00951e-10 -3.79396e-11 -4.1379

-1.15256 -2.82235 -3.00478e-11
-2.82235 -2.68746 1.52191e-10
-3.00478e-11 1.52191e-10 -5.15436

0.609807 2.08485 -2.27314e-11
2.08485 -1.71082 2.08062e-11
-2.27314e-11 2.08062e-11 -0.454156

-3.83319 -3.93558 -7.89776e-12
-3.93558 -2.08384 -2.31205e-11
-7.89776e-12 -2.31205e-11 -1.31625

2.14282 2.17703 1.54217e-12
2.17703 -1.44 5.39657e-12
1.54217e-12 5.39657e-12 0.23761

-0.456533 -2.46404 -1.23302e-11
-2.46404 2.69702 -2.11936e-11
-1.23302e-11 -2.11936e-11 0.292778

-2.77567 -1.48864 -3.27474e-12
-1.48864 2.26415 -4.23942e-12
-3.27474e-12 -4.23942e-12 0.0175438

4.44259 -2.1874 -1.82142e-11
-2.1874 3.94593 -2.33126e-11
-1.82142e-11 -2.33126e-11 2.58214

1.53341 -2.88962 3.62256e-11
-2.88962 -1.49265 3.46193e-12
3.62256e-11 3.46193e-12 0.139937

-2.5622 0.994623 -1.49503e-12
0.994623 2.51986 -1.23321e-11
-1.49503e-12 -1.23321e-11 0.132895

1.47256 2.89444 1.77264e-11
2.89444 0.124473 -1.61824e-11
1.77264e-11 -1.61824e-11 0.375593

-5.14968 4.29668 3.45809e-11
4.29668 -1.95325 -2.61998e-11
3.45809e-11 -2.61998e-11 -1.48959

-3.3888 -3.49055 -4.06505e-11
-3.49055 0.424888 6.36004e-12
-4.06505e-11 6.36004e-12 -1.13209

0.387492 -3.29161 -1.31007e-11
-3.29161 -0.225574 -8.47467e-12
-1.31007e-11 -8.47467e-12 0.216041

1.50069 -0.233516 -3.2176e-11
-0.233516 -1.75009 -2.73562e-11
-3.2176e-11 -2.73562e-11 -0.478292

-6.34739 -1.0847 -6.4535e-11
-1.0847 -4.4787 -2.12868e-11
-6.4535e-11 -2.12868e-11 -6.30273

-0.983446 -1.26624 -1.49104e-10
-1.26624 -1.60014 7.85986e-11
-1.49104e-10 7.85986e-11 -6.04477

-3.53183 -1.28104 -5.77977e-12
-1.28104 0.818021 -1.61852e-11
-5.77977e-12 -1.61852e-11 -0.569705

-0.554415 1.77716 -1.57481e-11
1.77716 -2.28128 1.5798e-11
-1.57481e-11 1.5798e-11 -0.665347

-0.22425 -0.132486 2.4805e-11
-0.132486 -3.1901 -1.07899e-11
2.4805e-11 -1.07899e-11 -1.66572

6.31823 -2.23881 2.87103e-11
-2.23881 7.8918 3.73826e-11
2.87103e-11 3.73826e-11 6.34135

7.53919 -2.01094 2.52457e-11
-2.01094 6.17741 2.02316e-12
2.52457e-11 2.02316e-12 6.2351

0.545664 -0.0839851 -8.86873e-12
-0.0839851 -6.0187 -3.48691e-11
-8.86873e-12 -3.48691e-11 -1.20601

0.653514 -0.4159 8.47818e-12
-0.4159 -5.25352 1.77241e-11
8.47818e-12 1.77241e-11 -1.39079

0.392407 0.449883 5.53892e-12
0.449883 -3.77418 -1.36781e-11
5.53892e-12 -1.36781e-11 -1.79403

0.209003 1.17058 -6.18614e-12
1.17058 1.91087 2.65881e-11
-6.18614e-12 2.65881e-11 0.32752

3.2291 1.51386 -2.598e-12
1.51386 0.202355 3.00541e-11
-2.598e-12 3.00541e-11 0.948501

0.442922 2.07033 -4.89336e-11
2.07033 -1.62801 1.05974e-11
-4.89336e-11 1.05974e-11 -0.539044

-0.275911 -2.71 3.84892e-12
-2.71 -2.24501 -3.31397e-11
3.84892e-12 -3.31397e-11 -0.913621

-6.86483 -0.342787 -6.0705e-11
-0.342787 -8.60638 1.27417e-10
-6.0705e-11 1.27417e-10 -8.44504

-6.33121 2.97149 2.14658e-12
2.97149 -2.31194 1.10446e-10
2.14658e-12 1.10446e-10 -7.00496

-3.92318 -2.31914 -1.00192e-11
-2.31914 0.218051 -9.63263e-12
-1.00192e-11 -9.63263e-12 -0.566414

1.8722 1.52138 7.03223e-12
1.52138 -1.15396 7.31955e-12
7.03223e-12 7.31955e-12 0.177703

0.395201 1.40469 -5.04646e-11
1.40469 -3.69417 4.73959e-11
-5.04646e-11 4.73959e-11 -1.07066

0.229273 -1.89568 1.3677e-11
-1.89568 -2.89449 5.39465e-12
1.3677e-11 5.39465e-12 -1.33022

-1.36386 -3.23294 -1.89771e-11
-3.23294 1.65871 -6.93523e-12
-1.89771e-11 -6.93523e-12 -0.230441

-2.28982 -4.13703 -5.80857e-11
-4.13703 1.84926 -1.88451e-13
-5.80857e-11 -1.88451e-13 -0.30824

14.4944 3.82178 -5.80045e-11
3.82178 14.9059 -1.46446e-11
-5.80045e-11 -1.46446e-11 14.5157

-4.64361 2.92043 1.7773e-11
2.92043 -1.00796 4.52777e-11
1.7773e-11 4.52777e-11 -1.6965

-3.42952 -2.57856 -3.15945e-11
-2.57856 0.4617 2.5047e-11
-3.15945e-11 2.5047e-11 -1.51772

-2.56563 -3.55818 -4.63343e-11
-3.55818 1.80055 -5.97008e-12
-4.63343e-11 -5.97008e-12 -0.359805

3.18202 -2.4176 5.0486e-11
-2.4176 -0.280736 1.15382e-12
5.0486e-11 1.15382e-12 0.871365

-0.387413 -1.59602 -5.10029e-12
-1.59602 0.19409 5.60659e-11
-5.10029e-12 5.60659e-11 -0.493243

-2.63433 2.76075 1.19441e-11
2.76075 -2.34161 1.04067e-11
1.19441e-11 1.04067e-11 -1.46563

-2.56557 -2.21171 3.40031e-11
-2.21171 -0.263589 -2.10011e-11
3.40031e-11 -2.10011e-11 -1.37946

1.67641 -0.220602 -2.45652e-11
-0.220602 -3.99685 -1.48339e-11
-2.45652e-11 -1.48339e-11 -0.72525

-0.306392 0.811169 5.7821e-12
0.811169 -4.50796 1.25188e-11
5.7821e-12 1.25188e-11 -1.65915

-0.1745 -0.78141 1.46401e-11
-0.78141 -2.32371 -1.65683e-11
1.46401e-11 -1.65683e-11 -1.78927

-5.53144 -1.14047 5.9718e-12
-1.14047 -1.91271 -8.77514e-11
5.9718e-12 -8.77514e-11 -4.77935

-5.83178 0.871599 3.10155e-11
0.871599 0.15907 -8.09134e-12
3.10155e-11 -8.09134e-12 -5.63533

8.84247 0.293559 2.04233e-11
0.293559 5.83394 -5.76207e-11
2.04233e-11 -5.76207e-11 8.76814

5.96568 0.264706 4.52712e-12
0.264706 8.63096 -1.4647e-11
4.52712e-12 -1.4647e-11 8.64265

-0.100869 2.63274 2.02295e-11
2.63274 -0.789828 -2.60075e-11
2.02295e-11 -2.60075e-11 -0.370397

-1.74297 -2.63016 1.34887e-11
-2.63016 -1.67455 3.58304e-11
1.34887e-11 3.58304e-11 -0.788726

-4.03947 -2.51946 -4.54678e-11
-2.51946 -1.10336 2.04257e-11
-4.54678e-11 2.04257e-11 -0.813252

8.97466 0.937244 -4.95234e-11
0.937244 9.01638 4.08536e-11
-4.95234e-11 4.08536e-11 9.92354

8.96187 1.02176 5.45346e-11
1.02176 9.00101 -7.71473e-12
5.45346e-11 -7.71473e-12 9.95754

-1.34691 0.444183 -1.23289e-10
0.444183 -0.370359 -1.02486e-10
-1.23289e-10 -1.02486e-10 -6.0845

-1.90207 0.713171 8.3214e-11
0.713171 -3.74961 -9.17015e-11
8.3214e-11 -9.17015e-11 -5.17031

-1.58352 -2.36469 -5.03316e-11
-2.36469 -0.15993 1.86925e-11
-5.03316e-11 1.86925e-11 -0.695463

0.08847 -2.93145 5.3945e-11
-2.93145 0.685355 -1.54184e-11
5.3945e-11 -1.54184e-11 0.33199

0.547665 2.75391 3.85425e-12
2.75391 -1.69092 -5.39454e-12
3.85425e-12 -5.39454e-12 -0.405822

-1.10026 -3.3166 2.25387e-11
-3.3166 -1.83715 1.0397e-11
2.25387e-11 1.0397e-11 -0.719724

-1.40946 -3.11128 7.32181e-12
-3.11128 -0.348271 4.81668e-11
7.32181e-12 4.81668e-11 -0.235096

1.34052 2.25811 -3.66544e-12
2.25811 0.780683 -1.19457e-11
-3.66544e-12 -1.19457e-11 0.425554

2.76671 -1.01825 -1.04037e-11
-1.01825 6.42492 6.93786e-12
-1.04037e-11 6.93786e-12 3.83813

3.70613 0.605199 1.1757e-11
0.605199 6.3313 3.27549e-11
1.1757e-11 3.27549e-11 3.84529

6.26399 -0.941363 5.04853e-11
-0.941363 3.54722 -6.24326e-11
5.04853e-11 -6.24326e-11 4.03916

0.44168 2.99984 -2.88606e-12
2.99984 -0.0840892 3.04399e-11
-2.88606e-12 3.04399e-11 0.00777256

4.56836 -0.731156 -7.70752e-12
-0.731156 7.83503 1.1754e-11
-7.70752e-12 1.1754e-11 5.3629

7.70043 -0.500737 -1.70575e-11
-0.500737 4.38515 -1.40677e-11
-1.70575e-11 -1.40677e-11 5.29787

0.408185 2.20084 1.34857e-11
2.20084 -2.09292 -1.27142e-11
1.34857e-11 -1.27142e-11 -0.738302

-1.28003 -3.20113 4.43282e-12
-3.20113 -2.57 -1.23334e-11
4.43282e-12 -1.23334e-11 -1.26245

0.0173879 2.70189 1.07907e-11
2.70189 -2.52663 1.73342e-11
1.07907e-11 1.73342e-11 -0.99962

-1.62229 -3.13173 -2.63964e-11
-3.13173 -2.03024 -4.50795e-11
-2.63964e-11 -4.50795e-11 -1.457

9.41642 1.15084 4.47079e-11
1.15084 9.54117 -1.4066e-11
4.47079e-11 -1.4066e-11 10.3474

9.43654 1.12496 8.47966e-12
1.12496 9.49494 -6.7419e-12
8.47966e-12 -6.7419e-12 10.2876

0.604789 2.40711 2.50456e-11
2.40711 -0.32952 6.54795e-12
2.50456e-11 6.54795e-12 -0.0388698

-0.239172 -2.97195 1.92694e-11
-2.97195 -0.97756 3.23634e-11
1.92694e-11 3.23634e-11 -0.235701

-3.73993 -1.8899 1.38698e-11
-1.8899 -2.37773 -7.99512e-12
1.38698e-11 -7.99512e-12 -3.33094

-4.16247 -0.6486 -1.73389e-11
-0.6486 -1.06231 1.48356e-11
-1.73389e-11 1.48356e-11 -3.89523

-0.158252 2.74304 -1.04048e-11
2.74304 -1.81568 -2.77412e-11
-1.04048e-11 -2.77412e-11 -0.861827

-3.41968 -2.44981 1.3681e-11
-2.44981 -0.93695 2.08046e-11
1.3681e-11 2.08046e-11 -1.45705

0.34671 1.44266 -4.43043e-11
1.44266 -5.89532 2.04257e-11
-4.43043e-11 2.04257e-11 -1.99468

-0.282015 -2.23092 2.23463e-11
-2.23092 -4.73497 -1.54078e-11
2.23463e-11 -1.54078e-11 -2.50621

-2.95313 2.51635 -2.98817e-12
2.51635 -1.09871 -1.92775e-12
-2.98817e-12 -1.92775e-12 -0.863556

-2.06826 -2.92432 -1.5798e-11
-2.92432 1.08348 -2.50455e-11
-1.5798e-11 -2.50455e-11 -0.630266

-4.77477 -2.03436 -2.84643e-11
-2.03436 -4.2539 4.83566e-11
-2.84643e-11 4.83566e-11 -5.33959

-5.33971 -1.8161 -1.04012e-11
-1.8161 -1.01683 -3.33264e-11
-1.04012e-11 -3.33264e-11 -4.0217

-0.376237 2.04096 5.24011e-11
2.04096 -6.4611 1.11665e-11
5.24011e-11 1.11665e-11 -3.46751

-0.370429 0.665733 1.61901e-11
0.665733 -6.6132 7.56978e-11
1.61901e-11 7.56978e-11 -4.42438

-0.988422 -2.20639 -5.66402e-11
-2.20639 -4.14633 1.38737e-11
-5.66402e-11 1.38737e-11 -4.16075

-0.458964 -0.470936 -5.47127e-11
-0.470936 -3.95495 8.24561e-11
-5.47127e-11 8.24561e-11 -5.27113

-6.10941 -0.507673 -7.89583e-12
-0.507673 0.0928337 8.16851e-11
-7.89583e-12 8.16851e-11 -4.76133

-3.76154 3.74698 2.06409e-11
3.74698 -3.84133 1.03262e-10
2.06409e-11 1.03262e-10 -4.87013

0.172183 2.23809 1.42544e-11
2.23809 -5.61525 -2.04363e-11
1.42544e-11 -2.04363e-11 -3.77496

-0.296195 1.85303 -9.78581e-11
1.85303 -7.11897 4.61792e-10
-9.78581e-11 4.61792e-10 -5.3145

0.836514 0.516109 -4.46597e-10
0.516109 -0.590444 -7.09648e-10
-4.46597e-10 -7.09648e-10 -6.08352

-3.94857 -2.60436 7.86179e-11
-2.60436 -1.71775 1.61048e-10
7.86179e-11 1.61048e-10 -5.6344

0.754214 1.69821 -2.11936e-11
1.69821 -5.2401 -3.024e-11
-2.11936e-11 -3.024e-11 -3.04578

0.111263 1.36194 -7.70591e-12
1.36194 -2.54243 -1.30999e-11
-7.70591e-12 -1.30999e-11 -1.59144

-1.14142 2.18781 -9.62977e-11
2.18781 -6.11592 1.54117e-10
-9.62977e-11 1.54117e-10 -4.62117

-1.35592 -2.50634 3.23629e-11
-2.50634 -3.70329 -2.11942e-11
3.23629e-11 -2.11942e-11 -4.48209

-2.72447 -1.25649 2.73549e-11
-1.25649 -0.973272 -1.15589e-11
2.73549e-11 -1.15589e-11 -5.82736

-0.9701 -1.12119 -5.31701e-11
-1.12119 -1.91328 -6.93041e-12
-5.31701e-11 -6.93041e-12 -2.26308

-0.188998 2.21158 -2.62072e-11
2.21158 -4.31031 -3.3901e-11
-2.62072e-11 -3.3901e-11 -2.29803

-0.296654 1.29685 1.42514e-11
1.29685 -4.95164 -9.05491e-12
1.42514e-11 -9.05491e-12 -3.17911

-1.68092 -2.90658 -7.68496e-13
-2.90658 -2.85828 4.66218e-11
-7.68496e-13 4.66218e-11 -3.11866

-0.712126 -1.40986 -3.31362e-11
-1.40986 -3.52052 7.70605e-11
-3.31362e-11 7.70605e-11 -4.14035

VECTORS fluid_flux_TPM float
-4.82206e-05 -0.000144628 1.03076e-20
-1.49447e-05 0.000118785 -2.36469e-20
2.36634e-05 -0.00011886 7.63976e-20
-0.000107815 -2.05244e-05 -1.21266e-20
-0.000135373 -3.56925e-05 0
-1.7909e-05 0.000153248 -3.03165e-21
2.66305e-05 -0.000153368 8.73115e-20
-0.000145441 3.65341e-05 -4.85064e-21
-4.55586e-05 7.34436e-05 -4.54747e-20
-7.64268e-05 -0.000177552 -6.66963e-21
-7.3262e-05 0.000189941 2.48595e-20
0.00019875 8.09498e-05 4.85064e-21
0.000105365 0.000102021 8.36735e-20
-9.71212e-05 -0.000101685 1.1399e-19
-4.79441e-05 -0.000100374 1.63709e-20
-1.4796e-05 -9.51921e-05 2.54659e-20
1.54454e-05 0.000156681 5.3357e-20
-6.99293e-06 -0.000156766 1.13384e-19
0.000137724 1.38642e-05 -2.12215e-20
-5.75162e-05 -0.000214259 1.39456e-20
-5.80645e-05 0.000219117 9.09495e-21
0.00023876 5.51274e-05 6.0633e-22
-9.24181e-05 -9.57794e-05 1.87962e-20
-0.000149091 3.49289e-05 1.63709e-20
-0.00010619 -9.64988e-05 2.66785e-20
6.38674e-05 0.000141207 -4.66874e-20
-0.000102296 1.93191e-05 -2.36469e-20
-0.000154805 -0.000322768 9.09495e-22
-8.88565e-05 -4.50019e-05 -5.76013e-20
0.000343913 0.000162718 -1.39456e-20
-4.94364e-07 0.000146479 3.88051e-20
9.0156e-06 -0.000146521 1.19447e-19
-0.000336321 -0.000170883 3.63798e-20
-0.000337497 0.00016443 -4.12304e-20
-0.000218895 7.15865e-05 2.18279e-20
-7.78717e-05 -6.29977e-05 2.84975e-20
-0.000136475 -6.86555e-05 9.70128e-21
-0.000142909 6.9888e-05 1.94026e-20
-2.361e-05 -4.78835e-05 -5.03254e-20
9.61527e-05 9.81747e-05 -3.09228e-20
-0.000140245 9.37408e-05 1.57646e-20
-4.1321e-05 6.89923e-07 -4.9719e-20
-9.0715e-05 9.91127e-05 2.18279e-20
-4.89809e-05 0.000143924 0
2.22442e-05 9.51846e-05 -6.18456e-20
-0.000142031 9.35868e-05 1.87962e-20
-0.000351398 -0.000351398 5.45697e-21
0.000363997 0.000363997 -4.24431e-21
3.23293e-05 7.43691e-05 7.70039e-20
0.000365307 0.000386148 -7.88229e-21
-0.000373144 -0.000352446 1.21266e-20
0.000168864 -1.74767e-05 3.75924e-20
0.000168741 1.73818e-05 2.24342e-20
0.000118474 2.09923e-05 -1.69772e-20
0.000160888 -7.35925e-05 3.88051e-20
0.000160751 7.36016e-05 2.18279e-20
6.04849e-05 9.87769e-05 -5.57823e-20
-0.000141533 -0.000265298 1.21266e-20
-0.000141958 0.00026635 -2.00089e-20
0.000128677 -4.92004e-05 -2.24342e-20
0.000128475 4.89141e-05 1.94026e-20
-0.000192395 8.41878e-05 2.91038e-20
-0.000153442 0.000242141 3.88051e-20
0.000163176 -0.000244119 7.63976e-20
9.38787e-05 -9.69543e-05 -2.42532e-21
-0.000170091 0.000326043 3.3045e-20
-0.000326004 0.000172704 5.45697e-21
1.89778e-05 9.44904e-05 -5.09317e-20
-1.07165e-05 -9.42374e-05 4.00178e-20
0.000286769 -0.000118784 4.60811e-20
0.000286853 0.000118818 -5.57823e-20
2.03987e-05 -3.0036e-05 6.85153e-20
0.000130866 4.52547e-05 1.27329e-20
0.000131148 -4.53161e-05 -9.09495e-21
-6.89369e-05 -4.73659e-05 -1.45519e-20
-2.39872e-05 -7.31305e-05 8.97368e-20
-0.000202342 -4.31644e-05 2.18279e-20
-0.000174653 -2.55725e-05 2.66785e-20
-0.000127594 -0.000107822 -1.03076e-20
-0.000149234 0.000258477 9.09495e-21
-0.000148874 -0.000257851 2.30405e-20
-0.000153549 -0.000172209 6.0633e-22
-0.00011258 6.65204e-05 1.21266e-21
0.000135636 4.93032e-05 2.36469e-20
-2.32794e-05 0.000273803 9.82254e-20
2.97594e-05 -0.000276569 4.60811e-20
-0.000132023 0.000118715 -1.45519e-20
1.36584e-05 0.00012613 8.48862e-21
-4.65875e-06 -0.000126114 1.0247e-19
0.000115327 -1.92915e-05 -1.21266e-20
0.000114109 1.80436e-05 1.33393e-20
0.000203068 -0.000139526 -6.0633e-22
0.000163617 2.68358e-05 -1.15203e-20
0.000121945 -6.09469e-05 6.0633e-22
0.000121309 6.10591e-05 -6.0633e-22
0.00013727 -5.02972e-05 -5.45697e-21
6.02302e-05 -0.000140277 -6.0633e-22
0.000109811 -4.8211e-05 -1.21266e-20
0.000108143 4.71744e-05 0
-0.000118096 5.3982e-05 -2.06152e-20
6.71368e-05 4.14096e-05 -2.36469e-20
-0.000141459 -9.876e-05 2.30405e-20
-5.05085e-05 1.20024e-05 1.81899e-21
-1.29997e-05 2.87765e-05 -4.12304e-20
0.000169067 2.39567e-05 -1.21266e-20
-0.000115632 6.9555e-05 2.00089e-20
-0.00012191 -5.68378e-05 0
-9.34478e-05 -0.000117002 1.21266e-20
-0.000107997 -7.23939e-05 2.18279e-20
2.4217e-06 -0.000129793 5.3357e-20
6.52661e-06 0.000129836 -1.94026e-20
0.000200764 -7.91926e-05 7.27596e-21
-6.8791e-05 4.69794e-05 2.66785e-20
0.000101205 -0.000143018 -6.66963e-21
0.000101692 0.000144347 -1.81899e-20
-0.000112375 6.65316e-05 -3.63798e-21
-4.45147e-05 7.24173e-05 -4.91127e-20
-4.55475e-05 -7.50835e-05 -3.63798e-20
-2.45283e-05 -0.000134555 3.63798e-21
-0.000105222 0.000101071 -3.63798e-21
2.19168e-05 -0.000188499 2.2131e-20
3.14901e-05 0.000193082 -9.09495e-21
0.00021343 -1.01814e-05 8.48862e-21
0.000208046 0.000138625 -2.78912e-20
0.000143903 -8.36998e-05 1.21266e-21
0.000188777 -0.000326997 -2.36469e-20
-0.000188286 0.000326126 6.91216e-20
0.000164688 -2.93616e-05 -1.39456e-20
2.89377e-05 7.29762e-05 -4.54747e-20
0.000120004 -2.27742e-05 -3.94114e-20
-2.30962e-05 0.000136396 -2.06152e-20
-3.50039e-05 7.64776e-05 -2.18279e-20
4.16837e-05 -7.61815e-05 1.06108e-19
6.85349e-05 -4.26513e-05 3.94114e-20
5.13197e-05 -1.53917e-05 -4.91127e-20
-2.08682e-05 -7.3326e-05 1.45519e-20
8.91198e-05 8.36893e-07 -1.09139e-20
0.000141207 9.03448e-05 -2.18279e-20
-4.79756e-05 -1.53841e-05 2.24342e-20
0.000141384 9.22272e-05 -2.60722e-20
-0.000148789 0.000184989 2.60722e-20
-7.74221e-05 6.00621e-05 4.85064e-21
5.85892e-05 -0.000209382 -1.06108e-20
6.17057e-05 0.000209311 -3.39545e-20
0.000232906 -5.34268e-05 1.51582e-21
0.000144333 -9.56987e-05 -6.0633e-22
5.45966e-06 0.000151256 -3.09228e-20
3.47963e-06 -0.000151041 5.27507e-20
0.000114473 -0.000191742 3.63798e-21
0.000112678 0.000183742 -3.75924e-20
7.28246e-05 -2.60429e-05 4.24431e-21
7.31074e-05 2.51188e-05 -1.81899e-21
8.05741e-05 5.03869e-05 -2.54659e-20
4.86842e-05 6.85275e-05 9.45875e-20
-0.000108297 -6.52836e-05 3.39545e-20
-0.000216102 -0.000170423 1.63709e-20
3.39797e-05 0.000139805 -5.3357e-20
0.00014407 4.85268e-05 -7.27596e-21
0.000144349 -4.87383e-05 1.69772e-20
0.000130631 -5.12183e-05 -9.70128e-21
0.000130385 5.08936e-05 1.57646e-20
-6.59141e-05 -0.000636852 1.66741e-20
0.000653967 0.000100638 1.21266e-20
3.39861e-05 -0.000136537 1.57646e-20
0.000198285 -0.000131586 1.45519e-20
0.000198182 0.000131895 -2.18279e-20
0.000133375 6.97266e-05 -7.27596e-21
-0.00026985 -1.71814e-05 2.27374e-20
0.000163849 -2.98511e-05 -2.54659e-20
-5.67819e-06 0.000116418 6.0633e-21
1.41799e-05 -0.000116954 5.45697e-20
-9.63116e-05 0.000145026 2.78912e-20
4.86091e-05 1.58491e-05 4.48684e-20
0.000133931 -7.00797e-05 7.27596e-21
-1.99677e-05 -3.4742e-05 3.51671e-20
-9.81699e-05 8.06093e-05 -1.39456e-20
0.000107184 -8.04675e-05 1.14596e-19
8.01361e-05 -4.95246e-05 3.63798e-20
-7.9169e-05 -5.3936e-05 1.09139e-20
-0.000139159 -8.96022e-05 1.87962e-20
2.29335e-05 3.20383e-05 -5.1538e-20
-4.56625e-05 9.81139e-05 2.42532e-21
-2.39618e-05 -0.000136157 2.60722e-20
0.000114241 5.32354e-05 2.06152e-20
3.49865e-05 0.000137353 -5.57823e-20
-4.28119e-05 -6.65344e-05 9.64064e-20
-0.000171234 0.000313174 3.18323e-20
-0.000307351 0.000174544 1.27329e-20
0.000114584 -5.35369e-05 6.0633e-22
0.000138594 -1.61135e-05 -2.24342e-20
0.000290476 0.000127539 -6.30583e-20
0.000290343 -0.000127385 2.66785e-20
2.90788e-05 -7.4456e-05 8.48862e-21
-0.000190726 -0.000138003 3.39545e-20
-0.000195101 0.0001346 -3.15291e-20
-8.11806e-05 -3.60284e-05 -4.18368e-20
-1.70689e-05 2.9988e-05 4.18368e-20
0.000184876 0.000226284 -2.5769e-20
-0.000206566 -0.000169978 7.88229e-21
0.000183946 -0.000252329 7.27596e-21
0.000186923 0.000255374 -3.15291e-20
0.000284963 -0.000157025 1.06108e-20
2.25822e-05 -2.66553e-05 6.73026e-20
-1.88709e-05 -0.000281464 7.88229e-21
0.00030188 2.19238e-05 -4.54747e-21
0.000155503 0.000204636 1.31574e-19
-0.000146807 -0.000203368 9.82254e-20
-9.38334e-05 -7.56687e-05 2.42532e-21
-4.05569e-05 1.61365e-06 -4.36557e-20
0.000108772 -0.000149401 -1.09139e-20
0.000109437 0.000151795 -3.63798e-20
-9.27388e-05 2.70599e-05 -5.63887e-20
5.72191e-05 -9.64174e-05 -7.27596e-21
0.000151932 -7.69596e-05 2.48595e-20
0.000151619 7.70212e-05 1.21266e-20
-0.000113346 -6.07668e-05 3.75924e-20
-7.89169e-05 5.30536e-05 2.36469e-20
-9.06326e-05 -4.29065e-05 -1.27329e-20
-0.000172547 -9.70152e-05 1.81899e-20
-2.13126e-05 7.88614e-05 2.91038e-20
-0.000360264 0.000360264 1.0156e-20
-2.18886e-05 0.000139572 -2.97102e-20
3.19761e-05 -0.000141003 2.84975e-20
3.09343e-05 -0.000275046 9.21621e-20
-2.24053e-05 0.000274937 8.85242e-20
8.60802e-05 -4.33603e-05 1.03076e-20
8.60013e-05 4.19267e-05 1.51582e-20
-0.000135274 7.20659e-05 2.06152e-20
-0.000133764 -6.97609e-05 1.45519e-20
-0.000236922 -4.32454e-05 -2.00089e-20
-0.000233164 4.41522e-05 2.91038e-20
0.000274896 0.00012845 -8.85242e-20
0.000274885 -0.00012829 3.51671e-20
8.72001e-05 8.06882e-06 2.66785e-20
8.7338e-05 -7.54002e-06 -4.12304e-20
0.00013853 4.88628e-05 5.45697e-21
-4.62806e-06 0.000123644 -1.87962e-20
1.34995e-05 -0.000120927 1.63709e-20
-0.00019589 0.000135723 2.30405e-20
0.000138088 -5.01686e-05 1.15203e-20
-1.1396e-05 -0.00013019 1.69772e-20
0.000118369 7.17996e-05 -3.21355e-20
-8.69494e-05 -2.71885e-06 3.63798e-21
-8.59514e-05 6.97738e-07 1.09139e-20
0.000118067 -7.2851e-05 -3.03165e-21
-8.93888e-05 7.88027e-05 -1.33393e-20
0.000154633 0.000267851 7.57912e-20
-0.0001521 -0.000263446 1.63709e-20
-2.35412e-05 -9.12135e-05 6.60899e-20
-0.00011393 -6.86157e-05 1.51582e-20
-1.27502e-05 -0.000152548 -4.36557e-20
0.000191849 -0.000327431 6.51805e-21
0.000330826 -0.000155042 1.0156e-20
7.25402e-05 -6.0172e-05 1.63709e-20
7.1565e-05 5.89084e-05 3.03165e-21
-1.9061e-05 0.000159802 -1.87962e-20
1.92799e-05 0.000125647 -6.0633e-20
0.000170743 7.28936e-05 -1.57646e-20
0.000131106 -2.9701e-05 4.24431e-21
0.000130961 2.91232e-05 4.24431e-20
-0.000309109 -2.66749e-09 -8.18545e-20
-0.000309193 2.23582e-09 2.91038e-20
2.99037e-05 -6.96658e-05 3.39545e-20
-0.000116964 -7.11124e-05 3.39545e-20
0.000121012 7.30998e-05 -1.75836e-20
0.000121671 -7.31304e-05 1.21266e-20
3.33706e-05 8.92684e-05 5.8814e-20
1.50633e-05 2.45871e-05 6.73026e-20
0.000358883 -0.000358883 -1.06108e-21
-0.000101583 3.21841e-05 -3.03165e-21
-0.000102586 -3.44601e-05 9.09495e-21
-2.24965e-05 7.14149e-05 5.82077e-20
0.000167578 -7.40788e-05 -7.88229e-21
-0.00011502 5.86279e-05 6.0633e-22
-0.000148542 -1.98669e-05 6.0633e-22
-0.00014924 1.94252e-05 9.09495e-21
-8.93e-05 4.29548e-05 -4.48684e-20
8.52568e-05 0.000126971 -1.21266e-20
8.59115e-05 -0.000126642 -1.03076e-20
6.38367e-05 0.000360067 1.12171e-19
-5.69665e-05 -0.000360073 2.30405e-20
-3.23624e-05 0.000649508 6.97279e-21
-0.000634516 3.32192e-05 5.1538e-21
9.84141e-05 -6.98346e-06 1.39456e-20
9.89438e-05 5.8769e-06 -4.85064e-21
-4.30717e-06 -2.28817e-05 6.97279e-20
0.000352353 -0.000428552 2.42532e-21
0.000448169 -0.000345001 1.66741e-21
0.000117719 -0.00028421 2.66785e-20
0.000117802 0.000284409 8.48862e-21
-0.000108111 6.45213e-05 -4.24431e-21
0.000103165 -9.83318e-05 4.24431e-21
0.000104851 -4.33646e-05 6.0633e-22
0.000104727 4.2764e-05 4.12304e-20
7.77922e-05 -6.46631e-05 2.18279e-20
0.00010242 9.92764e-05 -2.84975e-20
6.94799e-07 -0.000301963 -7.88229e-21
1.17777e-05 0.000277968 3.03165e-22
0.000322389 2.66526e-06 1.90994e-20
7.80755e-05 6.39928e-05 -1.45519e-20
3.55059e-05 0.000306263 2.24342e-20
-0.000299335 -4.03757e-05 1.09139e-20
0.000131257 -1.39471e-05 1.94026e-20
0.000131827 1.22309e-05 -2.42532e-21
0.000127801 -2.57464e-05 3.33481e-20
0.000127972 2.55923e-05 1.81899e-20
-0.000354338 0.000438571 1.81899e-20
-0.000434937 0.000354305 -6.0633e-22
0.000114623 4.98657e-05 1.63709e-20
0.000114906 -5.04919e-05 1.63709e-20
3.99162e-05 0.000211363 1.19447e-19
-3.28222e-05 -0.000210005 7.88229e-20
9.88713e-05 4.14561e-05 4.42621e-20
9.81238e-05 -4.12079e-05 -1.27329e-20
0.000150386 -9.10569e-05 1.57646e-20
0.000150056 9.12078e-05 -2.12215e-20
-8.78108e-05 -2.1724e-05 1.81899e-21
-8.60206e-05 2.03625e-05 -3.63798e-21
-0.000140297 -0.00026651 4.54747e-20
0.000138248 -0.000165624 -7.88229e-21
0.000165886 -0.000140049 1.09139e-20
0.000137951 0.000166221 6.66963e-21
0.000165946 0.000140315 -2.66785e-20
0.000148828 0.000269358 7.88229e-20
-0.00030718 4.94107e-06 -6.91216e-20
-0.000306871 -5.78084e-06 2.60722e-20
0.000223007 9.23762e-05 3.15291e-20
0.000536619 7.06443e-05 6.79089e-20
0.000536776 -7.06651e-05 -7.76102e-20
0.000222951 -9.23534e-05 -3.27418e-20
0.000279964 6.03769e-06 7.03343e-20
0.000198255 6.01436e-05 6.4271e-20
0.000262689 -7.3945e-05 4.60811e-20
0.00027995 -5.95257e-06 -7.27596e-20
0.000262679 7.40128e-05 -8.36735e-20
0.00019827 -6.00389e-05 -6.66963e-21
0.00020796 -5.88367e-05 6.66963e-20
0.000206696 -5.92306e-05 5.57823e-20
0.000207971 5.88828e-05 -1.69772e-20
0.00020662 5.93037e-05 -3.75924e-20
-1.91809e-05 0.000121119 -2.00089e-20
-2.03996e-05 -0.000121728 5.5176e-20
-0.000109106 1.99431e-05 2.25555e-19
-0.000139384 3.62616e-05 1.55827e-19
-2.23067e-05 0.00015747 2.42532e-21
-2.35031e-05 -0.000157821 -7.57912e-20
-0.000139484 -3.58455e-05 1.26117e-19
-4.68111e-05 -7.34711e-05 1.04289e-19
-7.82745e-05 -0.00017636 3.03771e-19
8.03255e-05 0.000181701 6.12393e-20
0.000184422 8.38824e-05 7.88229e-20
0.000102203 -0.000106117 -1.18234e-19
0.000104672 0.000104621 5.6995e-20
-0.000112096 6.69992e-05 8.48862e-20
1.17333e-05 -0.000161108 -5.21444e-20
1.27883e-05 0.000160533 5.03254e-20
0.000113885 1.78305e-05 6.79089e-20
-5.87748e-05 -0.000213913 2.81337e-19
5.7902e-05 0.000216026 3.69861e-20
0.000223675 5.97673e-05 6.91216e-20
5.37179e-05 0.000144871 4.06241e-20
5.55222e-05 -0.000142727 1.87356e-19
-0.000102621 -2.10003e-05 1.07927e-19
-0.000153092 -0.000318182 1.77958e-19
-9.06928e-05 4.56745e-05 1.94026e-19
-3.45098e-06 0.00015014 1.27329e-20
-4.77713e-06 -0.000150542 -1.23691e-19
-0.000339068 -0.000163978 2.62541e-19
-0.000337595 0.000170031 -2.66785e-20
-7.32825e-05 9.90219e-05 8.97368e-20
-8.85211e-05 0.000104817 1.6189e-19
-0.000204362 6.59638e-05 1.89175e-19
-0.000144585 -6.96522e-05 2.66785e-19
-0.000138346 6.78031e-05 3.03165e-21
-2.36792e-05 4.86345e-05 1.99483e-19
8.5891e-05 -0.000102245 2.20098e-19
-4.26159e-05 -1.46652e-06 1.60071e-19
-0.000147054 9.60442e-05 1.84324e-19
-9.66806e-05 -9.78358e-05 3.11047e-19
-0.000169824 -2.66202e-05 1.47338e-19
-0.000154912 3.11733e-05 1.75229e-19
-5.3269e-05 -0.000144777 2.80124e-19
1.55746e-05 -9.87558e-05 4.79001e-20
1.68265e-05 9.8091e-05 1.45519e-20
-4.81013e-05 0.000145644 1.77655e-19
8.89175e-05 0.000103438 2.72848e-20
-0.000343946 -0.000343926 -8.00355e-20
-0.000338681 0.000338688 9.21621e-20
3.04543e-05 -7.89516e-05 -2.48595e-20
3.05474e-05 7.65361e-05 6.00266e-20
5.19637e-05 0.000102357 2.24342e-20
-0.000339674 0.000369627 9.79223e-20
-0.000358294 -0.000344618 5.1538e-20
0.000176801 -3.23103e-05 8.48862e-21
0.000175307 3.50185e-05 1.50976e-19
8.30709e-05 2.92447e-05 4.91127e-20
0.000165632 -0.000110887 -6.66963e-20
0.000164399 0.000111787 1.24298e-19
5.22832e-05 -0.000102131 1.00044e-19
-0.000143514 -0.000265101 1.42488e-19
-0.00014342 0.000263061 1.09139e-19
0.000121543 -6.99114e-05 4.18368e-20
0.000121597 7.10628e-05 1.32786e-19
-0.000160382 -0.000248778 -1.2066e-19
-0.000159869 0.000248824 -2.72848e-20
0.000166697 0.00031466 8.0945e-20
0.000315945 0.000166843 2.66785e-20
1.38305e-05 9.74616e-05 -2.36469e-20
1.25692e-05 -9.81171e-05 9.09495e-20
0.000346654 -0.000143576 9.70128e-21
0.000342806 0.000141995 4.00178e-20
-0.000140564 -9.79209e-05 1.92207e-19
0.000115164 6.33028e-05 1.00651e-19
0.000115202 -6.20477e-05 1.21872e-19
-0.000129261 0.00010787 5.76013e-20
-0.000197107 -4.45257e-05 2.38288e-19
-0.000148751 0.000257652 4.79001e-20
-0.000149396 -0.000258736 1.34605e-19
-0.000110944 -6.85293e-05 1.90994e-19
0.000111386 6.0097e-05 7.88229e-20
-0.000157543 -0.000171353 2.63147e-19
-2.71894e-05 -0.000281173 -3.45608e-19
-2.61189e-05 0.000281356 -1.75836e-20
-0.000133709 -0.000118432 2.59509e-19
1.08899e-05 0.00012855 3.21355e-20
9.82096e-06 -0.000128412 -2.18279e-20
8.28434e-05 -2.91243e-05 5.57823e-20
8.14116e-05 2.81237e-05 4.9719e-20
0.000185992 -0.000141913 2.29799e-19
0.000140013 3.09453e-05 6.36646e-20
9.97666e-05 9.45375e-05 6.18456e-20
0.000100622 -9.37587e-05 3.39545e-20
0.000113218 -6.04333e-05 1.67953e-19
7.55376e-05 -6.74283e-05 8.24609e-20
7.34866e-05 6.68245e-05 7.15469e-20
-0.000120191 -5.36854e-05 1.18841e-19
-0.000126111 9.9319e-05 2.02514e-19
6.36515e-05 4.88497e-05 1.00651e-19
6.17054e-05 -4.73743e-05 2.42532e-21
-1.93876e-05 -3.28831e-05 9.03431e-20
-1.82246e-05 3.21467e-05 2.42532e-20
0.000150165 2.55904e-05 8.06419e-20
-0.000211742 0.000206357 1.97664e-19
-0.000117107 -6.99375e-05 2.33437e-19
-0.00012101 5.73878e-05 1.88569e-19
-0.000287916 4.71252e-05 1.84931e-19
-0.000112177 6.84715e-05 1.21872e-19
1.24473e-06 -0.000132868 7.51849e-20
3.1248e-06 0.000132585 -1.33393e-20
-9.88073e-05 -0.000118403 3.04984e-19
0.000183581 -7.88095e-05 2.21614e-19
-6.98889e-05 -4.79414e-05 3.22567e-19
-7.00537e-05 5.18591e-05 4.9719e-20
9.10199e-05 -0.000144792 2.14641e-19
-9.58638e-05 0.00015483 1.94632e-19
-0.000115227 -6.81975e-05 1.30967e-19
-4.65113e-05 -7.31764e-05 1.05501e-19
-4.75406e-05 7.82188e-05 1.21872e-19
2.71373e-05 0.000139374 6.00266e-20
-0.000104796 -9.94655e-05 2.72242e-19
1.62029e-05 -0.000187746 2.3465e-19
-2.44795e-05 0.000193404 5.24475e-20
0.000195949 -2.08184e-05 9.88318e-20
0.000128462 -8.74918e-05 1.87356e-19
-0.000192977 0.000334271 -8.79178e-20
-0.000192611 -0.000333631 -1.29755e-19
-0.000138094 -8.31177e-05 2.00695e-19
0.000145025 -3.13481e-05 1.69772e-19
-0.000219085 -0.000173721 2.47686e-19
2.20165e-05 -7.73808e-05 1.0247e-19
2.28581e-05 7.83954e-05 4.06241e-20
8.51719e-05 -3.08583e-05 5.27507e-20
-2.79e-05 -0.000136156 2.43745e-19
-4.14086e-05 -8.06256e-05 2.18279e-20
-4.02383e-05 7.98718e-05 1.69772e-20
0.000130261 0.000183297 8.00355e-20
0.000193321 0.000130437 7.94292e-20
-0.000276206 -1.23825e-05 2.47383e-19
4.75423e-05 -9.1424e-06 1.07927e-19
4.53744e-05 1.12725e-05 4.06241e-20
3.9469e-05 2.42289e-06 -5.03254e-20
-4.93575e-05 1.35946e-05 3.32875e-19
-4.54984e-05 -1.31682e-05 -1.63709e-20
-7.9987e-05 -5.99097e-05 2.55871e-19
5.33898e-05 -0.000207721 2.02211e-19
-4.88769e-05 0.000207297 1.40062e-19
0.000212164 -5.50347e-05 1.64012e-19
0.000129082 -9.8432e-05 1.86143e-19
2.19905e-06 0.000151207 1.87962e-20
2.89935e-07 -0.000152038 1.10958e-19
-9.90198e-05 0.000198189 1.95845e-19
0.000103092 -0.000186459 2.2131e-19
1.49602e-05 3.95919e-05 -6.66963e-21
1.36852e-05 -4.01088e-05 -2.60722e-20
7.31427e-05 -5.50158e-05 5.8814e-20
7.46942e-05 5.62367e-05 8.48862e-20
4.98791e-05 -7.2014e-05 4.9719e-20
4.76781e-05 7.05741e-05 3.69861e-20
-0.000107885 6.59781e-05 4.54747e-20
2.69282e-05 -0.000141384 1.916e-19
0.00013705 7.06788e-05 8.30672e-20
0.000138042 -6.94252e-05 9.70128e-21
0.000119015 -7.69622e-05 1.47944e-19
0.000115096 -6.32495e-05 8.54925e-20
0.000115078 6.43095e-05 1.1399e-19
-6.68811e-05 -0.000621004 4.60811e-20
9.19319e-05 0.000143238 6.54836e-20
-0.000639843 7.50395e-05 1.22175e-19
-2.36654e-05 0.000142327 1.39456e-19
0.000220875 -0.000199564 7.27596e-21
0.000218466 0.000199406 8.24609e-20
0.000119957 7.80659e-05 1.17022e-19
0.000140277 -3.41183e-05 9.45875e-20
0.000130756 9.11352e-05 9.58001e-20
-8.88918e-06 -0.000119014 -1.69772e-20
-8.11402e-06 0.000119014 7.21532e-20
-0.000103477 8.40097e-05 -1.39456e-20
-0.00010426 -8.47383e-05 -8.85242e-20
2.06868e-05 3.56704e-05 6.66963e-20
1.69732e-05 -3.61836e-05 8.73115e-20
-4.85616e-05 -9.8976e-05 1.5522e-19
2.78934e-05 0.000137282 1.15203e-20
0.000104856 -6.47325e-05 9.27685e-20
0.000105596 6.5685e-05 1.13384e-19
0.000131343 9.97873e-05 6.36646e-20
-4.59412e-05 9.99462e-05 1.41275e-19
2.78897e-05 -0.000139043 1.27329e-19
0.000167843 0.000304119 9.06463e-20
0.000308505 0.000167541 4.79001e-20
-0.000191509 0.000143325 2.5284e-19
0.000114774 -2.02483e-05 1.10352e-19
0.000359295 -0.000174002 4.18368e-20
0.000355928 0.000173579 4.60811e-20
-0.00019659 -0.000134133 2.83156e-19
-0.000192723 0.000137313 -1.09139e-20
-8.15066e-05 3.49356e-05 2.20704e-19
-1.90877e-05 3.11015e-05 -3.09228e-20
-1.92848e-05 -3.05534e-05 2.41926e-19
-0.00016119 0.000215291 1.22782e-19
-0.000202428 -0.000173058 1.86446e-19
0.000173487 -0.000247852 3.27418e-19
-0.000157593 0.00025767 1.51279e-19
0.000259725 -0.000151299 1.68257e-19
-0.000176863 -9.56457e-05 2.51627e-19
-2.14117e-05 -0.000277678 2.57387e-19
-0.000262973 2.40542e-06 1.75836e-19
0.000152663 -0.0002094 -1.2551e-19
0.000155829 0.00020932 5.63887e-20
-9.44144e-05 7.46821e-05 8.73115e-20
-4.13551e-05 -2.99065e-06 1.80686e-19
-9.37348e-05 0.000153242 1.87356e-19
9.91339e-05 -0.000152598 2.41926e-19
-9.40237e-05 -2.78294e-05 1.9827e-19
0.000150467 -0.000116588 -2.97102e-20
0.000149006 0.000117552 7.33659e-20
-0.000115645 6.07509e-05 2.78912e-20
-8.12545e-05 -5.47596e-05 3.04378e-19
-7.18675e-05 5.27129e-05 8.18545e-20
-9.28256e-05 4.31583e-05 1.60677e-19
-2.36218e-05 -8.02882e-05 1.99483e-19
-2.11154e-05 8.61221e-05 9.94381e-20
0.000356192 0.000356185 1.77351e-20
-2.61569e-05 -0.000140739 1.26117e-19
-2.37923e-05 0.000142052 7.21532e-20
-2.70821e-05 -0.000281312 -2.0979e-19
-2.58823e-05 0.000281663 -2.42532e-21
3.98936e-05 -7.435e-05 -2.18279e-20
4.03282e-05 7.26598e-05 -9.70128e-21
-0.000136704 -7.19005e-05 2.93464e-19
-0.000134378 6.94212e-05 -9.70128e-21
-0.000238517 4.41498e-05 3.14685e-19
-0.000234951 -4.39455e-05 -3.94114e-20
0.000315718 0.000175933 6.66963e-20
0.000320183 -0.000176291 1.22479e-19
8.51189e-05 -9.53649e-07 1.19447e-19
8.2284e-05 3.22545e-06 -2.42532e-21
0.000124314 5.8116e-05 9.58001e-20
-8.1472e-06 -0.000124121 1.00651e-19
0.00010681 -7.91534e-05 1.80686e-19
-7.16115e-06 0.000125367 1.15809e-19
0.00012273 -5.89386e-05 1.52189e-19
1.43556e-05 0.000129184 -7.88229e-21
0.000107842 8.03561e-05 7.21532e-20
-8.63549e-05 1.56818e-06 3.832e-19
-8.89615e-05 -1.90656e-06 -6.4271e-20
-9.17569e-05 -7.91598e-05 1.87962e-19
0.000156467 -0.000271044 1.39456e-20
0.00015742 0.000272672 1.15203e-20
-0.00011517 6.73674e-05 6.97279e-20
-1.63734e-05 0.000151837 1.0732e-19
0.000180965 -0.000318807 2.84217e-19
0.000314098 -0.000149231 1.52189e-19
2.52159e-05 -9.25744e-05 3.21355e-20
2.44968e-05 9.12843e-05 -4.85064e-21
-2.14353e-05 -0.000159275 1.23691e-19
1.2858e-05 -0.00012784 1.17022e-19
0.000151758 7.96825e-05 1.04289e-19
0.000125309 -3.99043e-05 1.33393e-20
0.000125267 4.18438e-05 1.34605e-19
-0.000310761 -4.60557e-09 1.74017e-19
-0.000310604 1.43303e-08 8.00355e-20
-0.000115923 6.79524e-05 1.36424e-19
9.9365e-05 0.000110844 7.57912e-20
0.000100256 -0.000110068 4.24431e-21
3.17138e-05 9.11954e-05 7.88229e-20
3.1301e-05 -9.10723e-05 4.00178e-20
1.38908e-05 -2.49771e-05 1.437e-19
1.55236e-05 2.70396e-05 2.84975e-20
0.000345325 -0.000345336 -1.43094e-19
-0.000102962 3.52888e-05 3.32269e-19
-0.000103417 -3.19837e-05 -1.57646e-20
-2.47553e-05 -7.31583e-05 1.75836e-19
-2.33994e-05 7.44463e-05 7.27596e-20
0.000148141 -7.95798e-05 1.8008e-19
-0.000116289 -5.84241e-05 3.00133e-19
-0.000150395 -1.94879e-05 3.49246e-19
-0.000149562 2.48378e-05 1.33393e-20
-9.10251e-05 -4.26516e-05 1.28542e-19
4.60329e-05 -0.000196055 -1.15203e-20
4.5557e-05 0.000195956 4.36557e-20
6.28676e-05 0.000368708 -5.45697e-21
6.12015e-05 -0.000367798 -1.0732e-19
2.87515e-05 0.000616803 5.5176e-20
0.000621739 4.31399e-05 -3.75924e-20
9.45601e-05 1.43127e-05 1.19447e-19
9.35221e-05 -1.18308e-05 -4.12304e-20
0.000336899 -0.000419702 -1.83415e-20
0.000409968 -0.000335361 -9.35264e-20
0.000150622 -0.000363574 -2.66785e-20
0.000149579 0.000361057 5.45697e-20
-0.000109494 -6.43168e-05 3.01346e-19
0.000100868 5.45314e-05 1.23691e-19
9.9988e-05 -5.30782e-05 -2.97102e-20
9.37564e-05 0.000104283 6.73026e-20
9.27255e-05 -0.000103445 1.72804e-19
-3.98373e-06 -0.000295842 3.46214e-19
-7.16387e-06 0.000272866 5.85108e-20
0.000283149 -8.81833e-06 9.70128e-20
7.16427e-05 7.18935e-05 8.91305e-20
7.02233e-05 -7.09082e-05 7.27596e-20
-2.9613e-05 0.000301819 1.04592e-19
0.000298198 -2.17494e-05 4.54747e-20
0.000133851 -1.9623e-05 -2.60722e-20
0.000134156 2.19651e-05 1.3885e-19
0.000127316 -4.22749e-05 -1.21266e-21
0.00012762 4.46229e-05 1.29755e-19
0.000349375 0.000429827 1.51582e-21
0.000431739 0.00034972 4.33526e-20
0.000106422 5.85165e-05 1.12171e-19
0.000105722 -5.71923e-05 2.60722e-20
3.68068e-05 -0.000216142 -1.66134e-19
3.83267e-05 0.000216162 2.60722e-20
9.48021e-05 4.22969e-05 -2.12215e-20
9.67724e-05 -3.73216e-05 1.27329e-19
0.000147918 -0.000139825 -2.18279e-20
0.000146507 0.000140236 4.24431e-20
-8.77257e-05 -2.03936e-05 3.47427e-19
-9.36019e-05 2.28306e-05 5.03254e-20
0.00013694 0.00026402 2.18279e-20
0.000202156 0.000203667 4.72937e-20
0.000138267 -0.000264758 -4.85064e-21
0.00020394 -0.000203987 1.39456e-20
0.000146022 -0.000273755 -1.57646e-20
-0.000309099 -4.26383e-06 2.38288e-19
-0.000308302 5.74855e-06 4.54747e-20
0.000149073 0.000274839 5.57823e-20
0.000245426 -0.000101667 2.48595e-20
0.000641456 -8.44383e-05 -2.06152e-20
0.000648671 8.53907e-05 2.30405e-20
0.000251597 0.000104203 -4.85064e-20
0.000317314 7.29558e-06 6.30583e-20
0.000216054 -5.97531e-05 8.97368e-20
0.000297972 9.68681e-05 4.60811e-20
0.000322714 -3.61044e-06 2.42532e-21
0.000302466 -9.73368e-05 7.39722e-20
0.000218327 6.55188e-05 -2.06152e-20
0.000230978 -8.96263e-05 3.15291e-20
0.000233756 -8.87611e-05 5.21444e-20
0.000228369 9.11502e-05 1.23691e-19
0.000231146 9.02855e-05 9.33748e-20
-5.11249e-05 -0.000144321 5.5176e-20
-2.06173e-05 0.000121164 3.27418e-20
1.99622e-05 -0.000121393 -5.45697e-20
-0.000109207 -2.01925e-05 -1.81899e-20
-0.000136416 -3.5168e-05 -2.72848e-20
-2.3716e-05 0.000157194 4.9719e-20
2.30864e-05 -0.000157731 -9.33748e-20
-0.000146423 3.66239e-05 -5.1538e-20
-4.6961e-05 7.36555e-05 -2.81943e-19
-7.94635e-05 -0.000176795 4.24431e-20
-7.68783e-05 0.000187218 6.0633e-21
0.000183985 -7.96948e-05 1.16415e-19
0.000101905 0.000105856 8.00355e-20
-0.000103251 -0.000105766 -3.39545e-20
-5.08591e-05 -0.000101798 3.69861e-20
-1.65002e-05 -9.75152e-05 -5.82077e-20
1.15241e-05 0.000160794 1.21872e-19
-1.23132e-05 -0.000161341 -5.94203e-20
0.000114422 1.6795e-05 -1.57646e-20
-6.12169e-05 -0.000212214 3.69861e-20
-6.16338e-05 0.000216486 3.33481e-20
0.000217875 -5.78611e-05 1.19447e-19
-9.49839e-05 -9.58454e-05 8.79178e-20
-0.000149917 3.50873e-05 6.66963e-21
-0.000108038 -9.65275e-05 8.85242e-20
5.54551e-05 0.000142306 2.48595e-20
-0.000103466 1.9484e-05 -5.63887e-20
-0.000158771 -0.000323736 1.33393e-20
-9.02156e-05 -4.53172e-05 -1.49157e-19
0.000324402 -0.000159493 1.25813e-19
-5.28994e-06 0.000150033 9.58001e-20
4.5733e-06 -0.000150535 -6.36646e-20
-0.000338411 0.000163726 -2.74667e-19
-0.000337571 -0.000169869 -1.51582e-19
-0.00021912 7.14292e-05 2.78912e-20
-7.96489e-05 -6.29414e-05 6.48773e-20
-0.000144218 6.95159e-05 -2.74061e-19
-0.000138374 -6.81095e-05 -3.75924e-20
-2.36195e-05 -4.82598e-05 -2.56478e-19
8.53926e-05 0.000102399 6.4271e-20
-0.000141175 9.3203e-05 -1.39456e-20
-4.27382e-05 1.16478e-06 -2.7588e-19
-9.28341e-05 9.88138e-05 -4.24431e-21
-5.16525e-05 0.000143032 2.84975e-20
1.61501e-05 9.8128e-05 -2.72848e-20
-0.000142984 9.3047e-05 2.42532e-20
-0.000341905 -0.000341906 -1.45519e-20
0.000346167 -0.000346181 7.06374e-20
3.03336e-05 7.87569e-05 4.12304e-20
0.000347422 -0.000367701 5.00222e-20
-0.000372986 -0.000343406 3.51671e-20
0.000176257 -3.40345e-05 3.27418e-20
0.000175892 3.42371e-05 -1.03076e-20
8.15529e-05 2.8639e-05 -2.42532e-21
0.000165203 -0.000111818 4.48684e-20
0.000164826 0.000112109 -2.84975e-20
5.22208e-05 0.000101769 7.88229e-21
-0.000143214 0.000264689 -2.53446e-19
-0.000143395 -0.000262875 -5.39634e-20
0.000121695 -7.08081e-05 -4.85064e-21
0.000121378 7.08347e-05 4.36557e-20
-0.000192269 8.41975e-05 5.39634e-20
0.000159925 -0.000248544 -1.18841e-19
-0.000161802 0.000248744 7.27596e-21
8.48432e-05 -0.00010081 -2.72848e-20
-0.000166969 0.000313852 -8.79178e-21
-0.000324625 0.000171885 2.92554e-20
1.2601e-05 9.73738e-05 -3.27418e-20
-1.41466e-05 -9.69644e-05 -4.30494e-20
0.000345231 -0.000143011 5.82077e-20
0.000345262 0.000143024 4.72937e-20
1.84779e-05 -3.27609e-05 -9.33748e-20
0.000114879 6.43493e-05 3.39545e-20
0.000115194 -6.22615e-05 -4.00178e-20
-6.97855e-05 -4.76949e-05 2.97102e-20
-3.01408e-05 -7.72202e-05 -6.12393e-20
-0.000202754 -4.20282e-05 -4.51716e-20
0.000141947 3.15586e-05 -2.12215e-20
-0.000175931 -2.49872e-05 -1.42487e-20
-0.0001294 -0.000107685 -1.10958e-19
-0.000148683 -0.00025751 -9.51938e-20
-0.000149131 0.000258285 -1.72198e-19
-0.000156043 -0.00017149 4.72937e-20
-0.000113893 6.63589e-05 -5.63887e-20
0.000112402 -6.00128e-05 3.94114e-20
2.68982e-05 -0.000280894 -3.81988e-20
-2.76027e-05 0.00028139 7.27596e-21
-0.000133325 0.000118373 -2.874e-19
9.60705e-06 0.000128018 9.76191e-20
-9.8579e-06 -0.000129095 -6.00266e-20
8.24186e-05 -2.91708e-05 -2.78912e-20
7.95869e-05 2.74021e-05 -1.69772e-20
0.00018572 0.000142538 9.70128e-21
0.000100242 -9.43454e-05 -4.72937e-20
9.92286e-05 9.52372e-05 2.12215e-20
0.000110892 6.07663e-05 -1.45519e-20
5.26095e-05 -0.000142312 -4.36557e-20
7.49457e-05 -6.78643e-05 -3.15291e-20
7.24046e-05 6.68054e-05 -1.15203e-20
-0.000119213 5.40303e-05 -9.51938e-20
6.29354e-05 4.79253e-05 -3.63798e-21
-0.00014333 -9.83225e-05 4.72937e-20
-5.11829e-05 1.22404e-05 1.33393e-20
-1.91147e-05 3.16825e-05 -6.66963e-21
0.000149579 -2.62336e-05 9.09495e-20
-0.000116871 6.94264e-05 -1.5037e-19
-0.000123362 -5.66617e-05 -5.57823e-20
-9.5977e-05 -0.000116314 8.12482e-20
-0.000109879 -7.1965e-05 5.21444e-20
-2.46585e-06 -0.000132936 -7.94292e-20
1.19308e-06 0.00013239 6.73026e-20
0.000183142 7.91888e-05 -4.24431e-21
-6.98248e-05 4.73734e-05 4.85064e-21
9.19169e-05 -0.000145446 -2.24342e-20
9.05729e-05 0.00014537 4.48684e-20
-0.000113585 6.63758e-05 -6.12393e-20
-4.64319e-05 7.31354e-05 -3.9654e-19
-4.76009e-05 -7.7992e-05 -2.15247e-19
-2.92721e-05 -0.00013503 4.42621e-20
-0.000106587 0.00010067 -2.42532e-20
1.37234e-05 -0.00018791 1.66741e-20
2.5035e-05 0.000191289 5.39634e-20
0.000193974 1.0943e-05 7.73071e-20
0.00019312 -0.000139868 1.00309e-36
0.000128192 8.82994e-05 -8.48862e-21
-0.00019265 0.000333725 1.51582e-20
0.000192494 -0.000333413 -5.1538e-20
0.000144541 3.0083e-05 -1.51582e-20
2.24019e-05 7.73843e-05 -1.33393e-20
8.51206e-05 -3.11457e-05 -2.91038e-20
-2.76305e-05 0.000136046 1.94026e-20
4.04954e-05 -8.04964e-05 -1.43094e-19
-4.10416e-05 7.92184e-05 -4.24431e-21
6.41209e-05 -4.84708e-05 4.66874e-20
4.67054e-05 -1.03547e-05 -2.42532e-20
-2.30307e-05 -7.39977e-05 2.42532e-21
3.90787e-05 1.6136e-06 -3.33481e-20
0.000127996 -9.26836e-05 3.33481e-20
-4.94594e-05 -1.36474e-05 -1.57646e-20
0.000128484 -9.78489e-05 -4.24431e-21
-0.000149592 0.000182451 6.0633e-22
-7.90848e-05 6.00998e-05 -2.42532e-21
5.08022e-05 -0.000209026 -3.03165e-21
5.28754e-05 0.000206242 4.82032e-20
0.000215069 5.39452e-05 -9.39811e-21
0.000128849 9.87724e-05 1.75836e-20
2.39406e-07 0.000151536 5.45697e-20
-1.50622e-06 -0.00015221 -3.57735e-20
0.000102124 -0.000183033 9.09495e-21
0.000101847 0.000187624 3.75924e-20
1.3328e-05 -4.07828e-05 -1.45519e-20
1.43152e-05 4.02871e-05 -3.63798e-20
7.35428e-05 5.5012e-05 1.15203e-20
4.97576e-05 7.18195e-05 -2.42532e-21
-0.00010974 -6.52024e-05 3.94114e-20
-0.000217402 -0.000167193 -6.4271e-20
2.68356e-05 0.000140963 2.97102e-20
0.000137168 7.04837e-05 -1.81899e-20
0.000137591 -7.03337e-05 4.24431e-21
0.000118891 7.76401e-05 1.75836e-20
0.000115047 -6.39495e-05 -6.66963e-21
0.000114901 6.40947e-05 4.54747e-20
-5.56506e-05 -0.000628169 -2.91038e-20
0.00062368 -9.46685e-05 -2.66785e-20
2.7041e-05 -0.000138667 -1.03076e-20
0.000219922 -0.00020018 -1.69772e-20
0.000219642 0.000200829 -1.87962e-20
-0.000270438 -1.59773e-05 -1.54614e-20
-9.052e-06 0.000118645 8.24609e-20
7.94803e-06 -0.000120438 -7.70039e-20
-9.82641e-05 0.000143362 -2.78912e-20
4.31467e-05 1.3104e-05 2.06152e-20
-1.89308e-05 -3.71224e-05 -7.33659e-20
-0.000105235 8.34172e-05 1.57646e-20
0.000103851 -8.46433e-05 -1.47338e-19
7.31919e-05 -5.38451e-05 1.63709e-20
-8.08175e-05 -5.47791e-05 5.03254e-20
0.00011909 -7.72522e-05 1.51582e-20
-0.00014082 -8.83273e-05 -1.94026e-20
0.000135731 -3.38132e-05 4.54747e-20
1.94527e-05 3.51833e-05 -3.03165e-21
-4.84605e-05 9.89682e-05 3.21355e-20
-2.83437e-05 -0.000137654 2.06152e-20
0.000104889 6.5548e-05 3.69861e-20
2.78282e-05 0.000138546 2.48595e-20
-4.93683e-05 -7.04829e-05 -7.15469e-20
-0.000166905 0.000314804 -3.03165e-21
-0.000305368 0.000173784 3.06197e-20
0.000114545 -2.13831e-05 6.66963e-21
0.000105173 -6.5376e-05 2.97102e-20
0.000358232 -0.000174307 4.60811e-20
0.000358393 0.000174631 2.42532e-20
2.25022e-05 -7.85978e-05 -4.91127e-20
-0.000196168 0.000133929 -2.09184e-19
-0.000192319 -0.000137068 -5.21444e-20
-8.21809e-05 -3.59246e-05 -1.00651e-19
-1.93486e-05 3.05554e-05 -1.94026e-20
0.000176852 -0.000218572 2.88007e-20
-0.000211887 -0.000166935 -1.87962e-20
0.000180221 -0.000258381 -1.66741e-20
0.000166283 0.00024382 6.2452e-20
0.000267314 0.000155684 -1.21266e-21
1.64635e-05 -3.0474e-05 -3.81988e-20
-8.15695e-06 -0.000277969 3.03165e-22
0.00028361 -1.85999e-05 1.75836e-19
0.000152389 0.000209183 4.00178e-20
-0.000153645 -0.000208903 1.27329e-20
-9.55006e-05 -7.53998e-05 -9.88318e-20
-4.11845e-05 3.04279e-06 -3.35907e-19
9.77011e-05 0.000152225 3.51671e-20
9.90088e-05 -0.000151408 -2.42532e-21
-9.37711e-05 2.73362e-05 -1.47338e-19
4.96932e-05 -9.982e-05 -6.18456e-20
0.000149844 -0.000117594 1.21266e-21
0.00014929 0.000117919 -3.69861e-20
-0.000115004 -6.0493e-05 -4.24431e-21
-8.04408e-05 5.37421e-05 5.8814e-20
-9.23195e-05 -4.28351e-05 -8.24609e-20
-0.000175129 -9.59452e-05 0
-2.35161e-05 7.92451e-05 3.63798e-20
-0.000358017 0.000358019 1.39456e-20
-2.60036e-05 0.000140324 5.76013e-20
2.51757e-05 -0.000142812 -4.42621e-20
2.68226e-05 -0.000280992 -6.66963e-20
-2.76779e-05 0.000281293 8.00355e-20
3.94787e-05 -7.50836e-05 -1.15203e-20
3.91737e-05 7.24175e-05 -5.3357e-20
-0.000136263 7.17853e-05 -1.33999e-19
-0.000135217 -6.9397e-05 -1.45519e-20
-0.000238025 -4.40517e-05 -1.64315e-19
-0.000234747 4.50208e-05 1.63709e-20
0.000318259 -0.000176646 7.15469e-20
0.000318102 0.000176989 1.81899e-21
8.58269e-05 4.49945e-06 2.60722e-20
8.43782e-05 -2.14244e-06 -1.03076e-20
0.000123685 -5.83586e-05 4.48684e-20
-8.27857e-06 0.000123968 5.03254e-20
0.000106632 7.98526e-05 6.12393e-20
7.42036e-06 -0.000123519 -7.27596e-20
-0.000195664 0.000134262 6.91216e-20
0.000122922 5.87728e-05 -2.12215e-20
-1.47943e-05 -0.00013122 8.48862e-21
-8.62223e-05 -1.69881e-06 -7.76102e-20
-8.66559e-05 9.24344e-07 5.03254e-20
-9.08392e-05 7.86002e-05 -2.33437e-19
0.000156364 0.000270836 -7.39722e-20
-0.000156557 -0.0002712 4.79001e-20
-2.97084e-05 -9.47414e-05 -8.18545e-20
-0.000115588 -6.83497e-05 -5.3357e-20
-1.63965e-05 -0.000151698 -1.04289e-19
0.000107283 -7.88652e-05 -6.0633e-22
0.000173908 0.000324546 1.84931e-20
0.000312272 0.000153744 -2.72848e-20
2.48001e-05 -9.33127e-05 -2.97102e-20
2.3211e-05 9.07083e-05 -4.54747e-20
-2.13974e-05 0.000159087 -3.55309e-19
1.28926e-05 0.000127414 -1.39456e-20
0.000150484 -7.92764e-05 8.06419e-20
0.000125399 -4.10641e-05 6.00266e-20
0.000125106 4.11401e-05 1.51582e-20
-0.00031015 8.34219e-09 -7.88229e-20
-0.000310608 -8.20752e-09 -3.4864e-19
2.34101e-05 -7.33252e-05 -5.63887e-20
-0.000118487 -7.07349e-05 -9.70128e-21
9.8859e-05 0.000111262 1.81899e-21
9.98654e-05 -0.000110914 -1.57646e-20
3.11669e-05 9.06829e-05 6.00266e-20
1.3908e-05 2.49651e-05 -2.60722e-20
0.000348763 0.000348764 -8.41283e-20
-0.000102732 -3.52095e-05 -1.01257e-19
-0.000102584 3.30053e-05 9.51938e-20
-2.45273e-05 7.28848e-05 1.63709e-20
0.000150373 7.93974e-05 -1.51582e-20
-0.00011626 5.85135e-05 -1.28542e-19
-0.000150126 1.9536e-05 -9.70128e-20
-0.000149984 -1.95404e-05 5.3357e-20
-9.07517e-05 4.31319e-05 -1.8008e-19
4.55992e-05 -0.000196697 -4.12304e-20
4.46774e-05 0.000197409 -2.84975e-20
6.08384e-05 0.000367854 -5.1538e-20
-6.16342e-05 -0.000367612 1.81899e-20
-4.77785e-05 0.000628631 3.63798e-21
-0.000629268 3.47132e-05 -4.85064e-20
9.39976e-05 1.32236e-05 2.91038e-20
9.3457e-05 -1.34503e-05 8.48862e-20
-1.07146e-05 -2.66599e-05 -5.39634e-20
0.000341299 0.000431417 -1.95541e-20
0.000424967 0.000336874 -4.89611e-20
0.000150561 0.00036345 3.03165e-20
0.000150418 -0.000363108 1.94026e-20
-0.00010926 6.44847e-05 -3.69861e-20
9.36677e-05 -0.000102122 -2.60722e-20
0.000100389 5.39897e-05 5.5176e-20
0.000100625 -5.39576e-05 8.85242e-20
7.04909e-05 -7.12974e-05 2.12215e-20
9.28056e-05 0.0001037 7.45786e-20
-4.08083e-06 -0.000283103 1.21266e-21
2.7063e-06 0.000287445 6.54836e-20
0.00030168 -1.82117e-06 9.42843e-20
7.05188e-05 7.1475e-05 3.81988e-20
1.20762e-05 0.000296621 3.60766e-20
-0.00029836 -3.7941e-05 6.92732e-20
0.00013407 -2.20611e-05 6.4271e-20
0.000134145 2.09827e-05 9.70128e-21
0.000127697 -4.38136e-05 3.45608e-20
0.00012751 4.39804e-05 9.70128e-21
-0.000352023 0.00043734 -3.03165e-20
-0.000431944 0.000352128 1.10655e-20
0.000105773 5.78543e-05 5.5176e-20
0.000105968 -5.77451e-05 2.84975e-20
3.63976e-05 0.000215932 9.09495e-21
-3.71949e-05 -0.000215685 -2.18279e-20
9.80692e-05 3.95233e-05 3.39545e-20
9.62282e-05 -3.91354e-05 -2.00089e-20
0.000147325 -0.000140551 2.42532e-21
0.000146744 0.000141075 -2.48595e-20
-8.7242e-05 2.0467e-05 -4.18368e-20
-8.91405e-05 -2.13996e-05 8.24609e-20
0.000137236 0.000266352 -1.27329e-20
0.000203478 0.000205051 6.0633e-22
0.0001377 -0.0002653 -2.42532e-20
0.000203408 -0.000204493 -4.60811e-20
-0.000146964 -0.00027369 4.12304e-20
-0.000308597 -5.01605e-06 -1.77048e-19
-0.000308484 4.2783e-06 -8.48862e-21
0.000145744 0.000273592 -3.51671e-20
0.000248357 0.000102878 3.27418e-20
0.000646 8.50227e-05 1.34605e-19
0.000248108 -0.000102774 -1.51582e-20
0.000646059 -8.50292e-05 3.15291e-20
0.000320192 -6.00844e-06 7.51849e-20
0.000217513 6.19828e-05 3.75924e-20
0.000300464 -9.736e-05 7.51849e-20
0.000319981 6.17023e-06 -2.91038e-20
0.000217207 -6.18838e-05 -3.45608e-20
0.00030026 9.74913e-05 -1.81899e-20
0.000229985 -9.08729e-05 4.9719e-20
0.000232724 -9.002e-05 3.27418e-20
0.000229695 9.11542e-05 -2.42532e-20
0.000232489 9.02839e-05 -3.21355e-20
-5.31583e-05 -0.000146618 4.60811e-20
-2.00449e-05 0.000121353 -1.34605e-19
2.11026e-05 -0.000120773 2.24342e-20
-0.000109108 1.99124e-05 -5.82077e-20
-0.000139399 3.62371e-05 -4.12304e-20
-2.31796e-05 0.000157808 -1.63103e-19
2.42277e-05 -0.000157112 2.78912e-20
-0.000139498 -3.59203e-05 -6.79089e-20
-4.68011e-05 -7.34906e-05 -8.30672e-20
-7.87392e-05 -0.00017695 7.27596e-21
7.99672e-05 0.00018136 -1.18841e-19
0.000184185 8.33938e-05 -1.41275e-19
-0.000102313 -0.000105546 3.09228e-20
0.000102434 0.00010631 -2.40107e-19
-0.000112139 6.71415e-05 -1.45519e-19
-4.96645e-05 -0.000100765 3.15291e-20
-1.6915e-05 -9.72184e-05 1.69772e-20
-1.12477e-05 -0.000161197 3.27418e-20
1.21326e-05 0.000161253 -2.5284e-19
0.000113784 1.70031e-05 -8.91305e-20
-6.06266e-05 -0.000212964 1.21266e-20
5.74079e-05 0.000215891 -2.18279e-19
0.000223647 5.91519e-05 -1.50976e-19
5.28828e-05 0.000144595 -1.64922e-19
-9.76969e-05 -9.83196e-05 5.94203e-20
-0.000102594 -2.10575e-05 -6.85153e-20
-0.000153375 -0.000317712 7.27596e-21
-9.0681e-05 4.56382e-05 -5.8814e-20
-4.55952e-06 0.000150571 -2.29193e-19
6.12773e-06 -0.000150077 2.30405e-20
-0.000338397 -0.000164017 -2.08577e-19
-0.000337602 0.000169919 -5.8814e-20
-7.33517e-05 9.91435e-05 -1.79474e-19
-8.86922e-05 0.000104977 -1.81293e-19
-0.000204423 6.59258e-05 -6.18456e-20
-0.00014446 -6.99846e-05 -1.2066e-19
-0.00013828 6.77417e-05 -1.00651e-19
-2.36749e-05 4.85999e-05 -1.21266e-20
-4.26078e-05 -1.49951e-06 -7.21532e-20
-0.000147103 9.60783e-05 -2.60722e-20
-0.000169841 -2.6695e-05 -1.03076e-20
-0.00015497 3.11344e-05 -2.18279e-20
1.53038e-05 9.82312e-05 -5.21444e-20
-4.83384e-05 0.000145738 -3.0074e-19
8.8327e-05 0.000102876 -1.62496e-19
-0.000344003 -0.000343996 -3.85019e-20
-0.000338714 0.000338706 -4.82032e-20
3.06104e-05 7.90945e-05 -1.8675e-19
5.11339e-05 0.000102199 -1.12777e-19
-0.000339701 0.000369464 -4.24431e-20
-0.000358394 -0.000344691 -1.08836e-19
0.000175571 -3.48545e-05 1.05501e-19
0.000176658 3.23673e-05 -5.8814e-20
8.31045e-05 2.83662e-05 3.03165e-21
0.00016467 -0.000111573 9.70128e-20
0.000165472 0.000111057 -2.72848e-20
-0.000143317 -0.00026493 -1.69772e-19
-0.000143392 0.000262963 1.21266e-20
0.000121768 -7.11254e-05 1.27329e-19
0.00012149 6.97954e-05 -1.34605e-19
-0.000160251 0.000248775 3.33481e-20
0.000163506 -0.000249307 -6.0633e-22
8.46489e-05 -0.000101062 5.94203e-20
0.000166406 0.000314427 -1.27936e-19
0.000315856 0.000166453 -1.57343e-19
1.29204e-05 9.77304e-05 -9.03431e-20
-1.30499e-05 -9.63138e-05 1.39456e-20
0.000342718 -0.000141959 -8.48862e-21
0.000346898 0.000143678 -1.43094e-19
-0.00014046 -9.75995e-05 -4.24431e-21
1.85098e-05 -3.09179e-05 2.06152e-20
0.000115084 6.24327e-05 -1.66134e-19
0.000115404 -6.28489e-05 5.82077e-20
-7.07961e-05 -4.81711e-05 3.63798e-21
-2.90677e-05 -7.6946e-05 6.0633e-21
-0.000129192 0.000107823 -8.30672e-20
-0.000197163 -4.46264e-05 -6.54836e-20
-0.000148717 0.000257561 3.63798e-21
-0.000149248 -0.000258512 -1.15203e-19
-0.00011107 -6.84853e-05 1.45519e-20
0.000111287 5.92103e-05 -1.80686e-19
-0.000157762 -0.000171485 -2.12215e-20
2.81925e-05 -0.000282222 5.21444e-20
-2.70394e-05 0.000281174 -1.09139e-20
-0.000133657 -0.00011844 -1.18234e-19
1.02139e-05 0.000128918 -2.24342e-19
-8.78076e-06 -0.000128794 4.00178e-20
8.13142e-05 2.71566e-05 7.27596e-21
8.30083e-05 -3.00654e-05 5.3357e-20
0.000186304 -0.000140002 -7.88229e-20
0.000140019 3.0173e-05 -8.79178e-20
0.000100604 -9.43399e-05 5.82077e-20
9.98815e-05 9.39181e-05 -8.85242e-20
0.000113352 -6.11797e-05 6.66963e-21
5.30365e-05 -0.000141766 3.33481e-20
7.57302e-05 -6.82321e-05 4.60811e-20
7.33674e-05 6.59563e-05 -8.24609e-20
-0.000120139 -5.36968e-05 -1.45519e-20
-0.000126252 9.9339e-05 -1.33393e-19
6.15859e-05 4.76143e-05 -1.84324e-19
-5.26515e-05 1.28072e-05 1.39456e-20
-1.94332e-05 3.28786e-05 -6.66963e-21
0.000150001 2.49084e-05 -1.58252e-19
-0.000211844 0.000206307 -1.15203e-19
-0.000117123 -6.99468e-05 1.57646e-20
-0.00012102 5.73824e-05 -8.24609e-20
-0.000288015 4.70765e-05 -1.03986e-19
-0.000112213 6.84962e-05 -7.03343e-20
-1.66461e-06 -0.000132492 1.33393e-20
2.484e-06 0.000132935 -2.10396e-19
-9.95786e-05 -0.000118318 -6.0633e-22
0.000183984 -7.92931e-05 -1.22782e-19
-6.99722e-05 5.21215e-05 -1.54008e-19
9.14135e-05 -0.000143589 6.0633e-20
-9.60131e-05 0.000154837 -1.89175e-19
-0.000115208 -6.81622e-05 1.63709e-20
-4.64984e-05 -7.3193e-05 -1.47338e-19
-4.7526e-05 7.81698e-05 -7.88229e-21
-2.85959e-05 -0.00013598 -9.09495e-21
2.66128e-05 0.000139161 -2.29799e-19
1.65876e-05 -0.000187769 -1.97057e-20
-2.47719e-05 0.000193322 -2.52233e-19
0.00019596 -2.13311e-05 -1.14899e-19
0.000130284 -8.71447e-05 -1.33393e-20
0.000193127 -0.000334524 7.15469e-20
-0.000192645 0.000333691 9.51938e-20
-0.000138068 -8.32681e-05 -2.48595e-20
0.000145086 -3.20571e-05 -5.76013e-20
-0.000219196 -0.00017379 -7.79134e-20
2.15483e-05 7.78409e-05 -9.58001e-20
8.52065e-05 -3.17023e-05 4.72937e-20
4.03845e-05 -7.83406e-05 1.09139e-20
-4.1395e-05 8.04926e-05 6.97279e-20
0.000129813 0.000182954 -1.84931e-19
0.000193079 0.000129924 -1.76442e-19
6.48473e-05 -4.91148e-05 6.79089e-20
-0.000276315 -1.24636e-05 -1.01863e-19
4.52532e-05 -1.11895e-05 -1.84324e-19
-2.20473e-05 -7.91995e-05 4.54747e-20
3.95255e-05 1.00985e-06 6.66963e-20
-4.58188e-05 -1.18421e-05 -8.73115e-20
-0.000104774 -9.99277e-05 4.42621e-20
5.14211e-05 -0.000207605 -3.39545e-20
-4.91933e-05 0.000207229 -3.51974e-19
0.000212276 -5.5759e-05 -1.08836e-19
0.00013076 -0.000100416 3.15291e-20
1.57174e-06 0.00015128 -2.47383e-19
-6.95407e-07 -0.000151952 2.00089e-20
0.000104475 -0.000188233 -8.00355e-20
-9.92213e-05 0.000198144 -2.46776e-19
1.47042e-05 3.86496e-05 4.12304e-20
1.40474e-05 -4.10212e-05 3.88051e-20
7.35454e-05 5.56153e-05 -1.30361e-19
5.01418e-05 7.2298e-05 -1.67347e-19
-0.000107788 6.60865e-05 -1.87356e-19
0.000137756 6.93918e-05 -8.67052e-20
0.000137445 -7.0663e-05 1.21266e-19
0.000115267 -6.44129e-05 9.21621e-20
0.000115027 6.30992e-05 -1.82505e-19
-6.67235e-05 -0.00062128 1.03076e-20
9.13463e-05 0.00014275 -1.87962e-19
-0.000639959 7.49732e-05 -1.2551e-19
-8.10097e-05 -6.02771e-05 6.66963e-21
2.79772e-05 -0.000138194 7.27596e-21
-2.40518e-05 0.000142442 -3.5349e-19
0.000218675 -0.000198807 1.94026e-20
0.000220797 0.000200141 -7.63976e-20
0.000119652 7.71546e-05 -2.28586e-19
0.000140285 -3.48587e-05 -4.42621e-20
0.000130362 9.05242e-05 -1.69772e-19
-8.46222e-06 0.000119546 -2.17672e-19
8.80296e-06 -0.000120244 3.81988e-20
4.41121e-05 1.17559e-05 4.60811e-20
0.000119427 -7.77473e-05 4.42621e-20
-2.14157e-05 -3.56016e-05 2.54659e-20
-0.000104081 8.45945e-05 -2.60722e-20
0.000106488 -8.26648e-05 4.24431e-21
7.36559e-05 -5.43334e-05 5.09317e-20
-8.21854e-05 -5.58769e-05 3.75924e-20
1.6872e-05 3.6167e-05 -8.12482e-20
2.72652e-05 0.000137356 -2.62541e-19
-2.82284e-05 -0.000137019 -1.15203e-20
0.000105031 6.45489e-05 -1.82505e-19
0.000130944 9.90969e-05 -1.78261e-19
-4.6187e-05 0.000100246 -2.2798e-19
-4.7903e-05 -7.03465e-05 2.00089e-20
0.00016756 0.000303811 -1.88569e-19
0.000308304 0.000167161 -1.77351e-19
-0.000191628 0.000143327 -1.49157e-19
0.000105486 -6.58263e-05 8.12482e-20
0.000114905 -2.10567e-05 9.09495e-21
0.000359631 0.000174326 -1.93419e-19
0.000355726 -0.000173269 -3.27418e-20
2.3367e-05 -7.88909e-05 2.84975e-20
-0.000196288 -0.000134246 -1.66741e-19
-0.000192598 0.000137175 -9.33748e-20
-8.15026e-05 3.49089e-05 -9.21621e-20
-2.04643e-05 3.06581e-05 -9.09495e-20
-0.000161334 0.000215234 -1.76139e-19
-0.00020253 -0.000173126 -5.45697e-20
0.00017348 -0.000248411 -9.64064e-20
-0.000157741 0.000257569 -2.50717e-19
0.000259874 -0.000151537 -1.57949e-19
-0.000177059 -9.58688e-05 -4.48684e-20
1.80417e-05 -3.08224e-05 2.66785e-20
-2.12269e-05 -0.000277929 -6.21488e-20
-0.000263065 2.34491e-06 -1.26723e-19
0.000152855 0.000209514 -2.35256e-19
-0.000152866 -0.00020901 -1.39456e-20
-9.43915e-05 7.46797e-05 -1.36424e-19
-4.13485e-05 -3.02173e-06 -2.36469e-20
-9.39474e-05 0.000153297 -2.31618e-19
9.93661e-05 -0.000150296 -1.15203e-20
-9.40213e-05 -2.7867e-05 -8.67052e-20
5.01541e-05 -9.97956e-05 3.51671e-20
0.000149493 -0.00011728 9.58001e-20
0.000150093 0.000116816 6.0633e-22
-0.000115598 6.08253e-05 -1.71591e-19
-7.19427e-05 5.30491e-05 -2.00695e-19
-9.28016e-05 4.31363e-05 -1.06714e-19
-2.12987e-05 8.63881e-05 -1.71591e-19
0.000355956 0.000355964 -4.72937e-20
2.60215e-05 -0.000142541 2.72848e-20
-2.41556e-05 0.000142218 -3.42576e-19
-2.68729e-05 0.00028139 -1.33999e-19
2.85803e-05 -0.000281719 7.45786e-20
4.03475e-05 -7.53798e-05 1.75836e-20
3.99686e-05 7.15848e-05 3.63798e-20
-0.000137087 -7.20878e-05 -8.85242e-20
-0.000134167 6.94193e-05 -1.62496e-19
-0.000238036 4.32988e-05 -1.00044e-19
-0.000234904 -4.43964e-05 -8.54925e-20
0.000315797 -0.000175607 -3.63798e-21
0.000320286 0.000176628 -1.48551e-19
8.63831e-05 3.23467e-06 8.91305e-20
8.21978e-05 -3.13653e-06 -2.0312e-19
0.000123997 5.7263e-05 -2.17672e-19
-7.55914e-06 0.000125568 -2.69817e-19
8.28498e-06 -0.000123269 4.54747e-20
0.00012321 -5.96303e-05 -4.24431e-21
-1.36884e-05 -0.000130114 1.21266e-20
1.34393e-05 0.000129086 -1.64922e-19
0.000107243 7.94999e-05 -2.19491e-19
-8.66988e-05 1.39085e-07 -7.88229e-21
-8.7571e-05 -1.02315e-06 -5.5176e-20
0.000107162 -7.98901e-05 5.39634e-20
-9.17157e-05 -7.91764e-05 -4.42621e-20
0.000156561 0.000271206 -1.30361e-19
-0.000156579 -0.00027122 -4.9719e-20
-2.86294e-05 -9.47014e-05 1.94026e-20
-0.000115128 6.73712e-05 -1.62496e-19
-1.63687e-05 0.000151767 -1.87962e-20
0.000180933 -0.000319169 -1.28542e-19
0.00031413 -0.000149472 -1.3794e-19
2.60199e-05 -9.31712e-05 3.39545e-20
2.37812e-05 9.06263e-05 -2.30405e-20
-2.14297e-05 -0.000159263 -2.00695e-19
0.000151591 7.89488e-05 -1.916e-19
0.000125417 -4.18233e-05 1.30361e-19
0.000125243 3.99269e-05 -9.27685e-20
-0.000310083 -1.40135e-08 -5.09317e-20
-0.000310629 4.67134e-09 -3.81988e-20
2.43208e-05 -7.33519e-05 1.21266e-21
-0.000115916 6.79831e-05 -9.58001e-20
9.94802e-05 0.000110182 -1.06108e-19
0.000100238 -0.000110686 1.15809e-19
3.16021e-05 9.15643e-05 -1.58858e-19
1.62107e-05 2.63546e-05 -1.13384e-19
0.000345539 -0.000345536 -2.19795e-20
-0.000104563 3.4572e-05 -4.85064e-20
-0.000102637 -3.237e-05 -7.76102e-20
-2.35656e-05 7.47978e-05 -1.04289e-19
0.000148177 -7.98731e-05 -4.30494e-20
-0.000116377 -5.83843e-05 -4.91127e-20
-0.000151918 -1.62111e-05 -1.04895e-19
-0.000149274 2.50603e-05 -1.3218e-19
-9.10198e-05 -4.26691e-05 -5.82077e-20
4.51112e-05 0.000196658 -3.94114e-20
4.65737e-05 -0.000195326 5.3357e-20
6.1369e-05 0.000367884 -4.85064e-21
-6.06204e-05 -0.000368682 3.88051e-20
2.853e-05 0.000616519 -5.63887e-20
0.000621698 4.282e-05 -1.42184e-19
9.38127e-05 -1.45358e-05 1.06714e-19
9.35419e-05 1.19091e-05 -1.84931e-19
-9.6186e-06 -2.69412e-05 1.39456e-20
0.000337067 -0.000420314 -1.23994e-19
0.000409984 -0.0003356 -6.03298e-20
0.000150811 0.000364032 -3.15898e-19
0.000149429 -0.000360699 -4.85064e-21
-0.000109384 -6.44184e-05 -4.30494e-20
9.39719e-05 -0.000102445 8.54925e-20
0.000100899 -5.45833e-05 1.26117e-19
9.99939e-05 5.30557e-05 -1.3885e-19
7.09393e-05 -7.18827e-05 7.09406e-20
9.30008e-05 0.000103692 -1.57039e-19
-7.46404e-06 0.000272753 -2.15853e-19
-3.59395e-06 -0.00029643 -4.75969e-20
0.000283252 -9.31533e-06 -1.15203e-19
7.05766e-05 7.08459e-05 -1.77655e-19
-2.98211e-05 0.000301586 -1.0247e-19
0.000298118 -2.20881e-05 -1.42488e-19
0.000133944 -2.3044e-05 1.01257e-19
0.000133792 1.96899e-05 -1.43094e-19
0.000127658 -4.45045e-05 1.12777e-19
0.000127264 4.23137e-05 -8.24609e-20
0.000349142 0.00042956 -7.57912e-20
0.000431633 0.00034949 -1.69772e-19
0.00010587 5.72725e-05 -1.6856e-19
0.000106271 -5.83909e-05 1.10958e-19
3.69789e-05 0.000216257 -6.85153e-20
-3.60282e-05 -0.000215812 4.54747e-20
9.84312e-05 3.77042e-05 1.0732e-19
9.4736e-05 -4.22569e-05 -1.33999e-19
0.000147014 -0.000139888 1.11565e-19
0.000147522 0.000140137 -5.27507e-20
-8.79468e-05 -2.07496e-05 -5.8814e-20
-9.35457e-05 2.30615e-05 -1.95845e-19
-0.000146173 -0.000273922 -5.76013e-20
-0.000308205 -4.82799e-06 -3.45608e-20
-0.000308449 5.43289e-06 -2.36469e-20
0.000146213 0.000273892 -2.58903e-19
0.000137897 0.000265771 -6.30583e-20
0.000204111 0.0002045 -9.51938e-20
0.000137406 -0.000262981 2.48595e-20
0.000202061 -0.000203147 2.06152e-20
0.000245606 0.000101743 2.78912e-20
0.000251601 -0.000104205 -8.67052e-20
0.000649127 -8.54506e-05 -1.39456e-19
0.00064129 8.44179e-05 -7.03343e-20
0.000317442 -7.13984e-06 3.03165e-20
0.000216254 5.98612e-05 7.94292e-20
0.000322786 3.71016e-06 -6.4271e-20
0.000218299 -6.54858e-05 -5.09317e-20
0.000302528 9.74854e-05 -8.24609e-20
0.000298095 -9.67379e-05 2.42532e-21
0.000228558 -9.09061e-05 5.09317e-20
0.000231313 -9.00482e-05 3.51671e-20
0.000230962 8.98185e-05 -4.79001e-20
0.000233722 8.89589e-05 -6.4271e-20
-1.93741e-05 0.000120636 8.79178e-20
1.48408e-05 -0.000132952 5.03254e-20
-0.000108194 -2.11496e-05 9.45875e-20
-0.000135528 -3.72699e-05 7.15469e-20
-2.2428e-05 0.000156137 1.62496e-19
1.34222e-05 -0.000149458 4.00178e-20
-0.000144745 3.47789e-05 4.91127e-20
-4.50179e-05 7.24905e-05 6.4271e-20
-7.66223e-05 0.000188103 -2.42532e-21
-7.32822e-05 -0.000183729 5.3357e-20
0.000187853 7.55116e-05 2.66785e-19
0.000106005 -9.96116e-05 2.78912e-20
0.000101528 0.000105239 -1.75836e-19
-0.000105454 -7.13126e-05 7.39722e-20
2.95732e-05 -0.000146076 4.24431e-20
1.21568e-05 0.000159559 -1.12171e-19
0.000112976 -2.65774e-05 1.49763e-19
-5.04867e-05 -0.000226823 6.0633e-21
-6.12934e-05 0.000217535 -1.87962e-20
0.000224097 5.21629e-05 2.73455e-19
-0.000150037 3.24512e-05 1.75836e-20
5.69783e-05 0.00014149 8.85242e-20
7.10249e-05 -0.000161245 6.97279e-20
-0.000102093 1.76842e-05 5.03254e-20
-0.000154089 -0.000334234 -6.2452e-20
-8.73783e-05 -4.6085e-05 5.63887e-20
0.000333728 0.000158419 2.46473e-19
-4.23626e-06 0.000149067 5.3357e-20
2.6758e-05 -0.000144274 2.84975e-20
-0.000337071 0.000163869 1.04289e-19
-0.000328003 -0.00016974 -3.15291e-20
-0.000220018 6.91991e-05 3.63798e-21
-6.80451e-05 -0.00010095 5.57823e-20
-0.000132203 -6.99903e-05 -4.85064e-21
-0.000142682 6.93777e-05 1.16415e-19
-2.2382e-05 -4.8954e-05 5.27507e-20
8.8026e-05 0.000100109 1.01863e-19
9.68741e-05 -0.000126784 1.27329e-19
-0.000141051 9.2209e-05 2.18279e-20
-4.07633e-05 -5.3169e-07 6.36646e-20
-9.06732e-05 -0.000108211 7.76102e-20
-9.28039e-05 9.85848e-05 8.54925e-20
-3.9976e-05 -0.000149622 7.45786e-20
-5.12571e-05 0.000143197 9.82254e-20
4.46952e-05 -0.000119455 9.64064e-20
1.65294e-05 9.75268e-05 1.72804e-19
-0.000143921 9.19613e-05 3.39545e-20
-0.000358987 -0.000359005 -2.00089e-20
0.000356661 0.000356692 7.85197e-20
3.82002e-05 -7.39423e-05 1.81899e-20
3.05079e-05 7.83467e-05 -1.26723e-19
0.000358101 0.00038117 6.73026e-20
-0.000375376 -0.000359797 -9.3678e-20
0.00017301 3.02188e-05 2.29799e-19
0.000139359 -7.57635e-05 1.23691e-19
8.06501e-05 -3.82275e-05 1.36424e-19
0.000162187 0.000106348 3.31056e-19
0.000132688 -0.00012274 1.51582e-19
5.37368e-05 0.000100818 1.60677e-19
6.81447e-05 -0.000125168 1.29755e-19
-0.000137637 -0.000262985 -8.18545e-20
-0.00014161 0.000265764 -4.91127e-20
0.000120142 6.56916e-05 3.52278e-19
0.000110124 -9.25703e-05 1.83112e-19
-0.000194146 8.15023e-05 -2.00089e-20
-0.000158162 0.000246006 1.82505e-19
-7.06906e-05 -0.000201223 5.76013e-20
-0.000172461 0.000322803 -2.395e-20
-0.000328145 0.000170271 -3.54703e-20
1.37276e-05 9.69313e-05 1.23691e-19
3.62046e-05 -0.000117651 7.27596e-20
0.00033824 0.000140129 9.33748e-20
0.00026655 -0.000110379 9.82254e-20
0.000114486 5.56739e-05 3.35907e-19
0.000108194 -7.66699e-05 1.64922e-19
-0.000203328 -4.64786e-05 6.66963e-20
0.000144055 -4.32452e-05 1.80686e-19
-0.000173332 -2.74208e-05 8.60988e-20
-0.000123469 -0.000108505 -1.21266e-21
-0.000148906 0.000257868 -9.70128e-21
-0.00014659 -0.000253903 -3.57735e-20
-0.000153089 -0.000178026 7.57912e-20
-0.000113683 6.5282e-05 4.66874e-20
0.000112628 5.4178e-05 3.24993e-19
2.18098e-06 -0.000218948 1.63709e-20
-2.6537e-05 0.000278023 2.02514e-19
-0.000131858 0.000117925 7.94292e-20
2.86768e-05 -0.000130765 4.60811e-20
1.02869e-05 0.00012757 3.15291e-20
8.15689e-05 2.14639e-05 2.15247e-19
7.49793e-05 -3.46604e-05 9.70128e-20
0.000195283 -0.000160621 2.05546e-19
9.81465e-05 8.67444e-05 3.20142e-19
8.63378e-05 -9.9673e-05 9.88318e-20
0.000108906 -7.73093e-05 1.3218e-19
7.38676e-05 6.13274e-05 2.94676e-19
6.68891e-05 -7.9062e-05 1.03682e-19
-0.000118132 5.28699e-05 5.45697e-20
6.1656e-05 4.56688e-05 2.15853e-19
7.45321e-05 -8.73099e-05 1.70379e-19
-0.000142108 -0.000100629 6.12393e-20
2.20955e-05 -7.68769e-05 1.18841e-19
-1.82338e-05 3.20234e-05 1.65528e-19
0.000151802 1.86801e-05 2.97102e-19
-0.000115919 6.8576e-05 5.82077e-20
-0.000120361 -5.92099e-05 1.12171e-19
-9.13334e-05 -0.00012281 6.00266e-20
-0.000105649 -7.64548e-05 9.70128e-20
1.96774e-05 -0.000135442 3.63798e-20
2.22999e-06 0.000131756 7.39722e-20
0.00019243 -9.05996e-05 3.07712e-19
-6.92762e-05 4.72387e-05 1.22479e-19
-6.38849e-05 -5.51736e-05 4.06241e-20
0.000101367 -0.000164039 1.40062e-19
9.30733e-05 0.000142195 3.94114e-20
-0.000112444 6.53499e-05 5.5176e-20
-4.40949e-05 7.1583e-05 5.39634e-20
-4.36958e-05 -7.53815e-05 2.06152e-20
-0.000106207 0.000100394 8.42798e-20
2.39913e-05 -0.000200974 9.70128e-21
2.63586e-05 0.000192056 -3.51671e-20
0.00019936 -1.9057e-05 2.586e-19
0.000197045 0.000136088 2.5769e-19
0.000135584 -0.000104341 1.84324e-19
-0.000155207 -0.000268859 1.81899e-21
-0.000190545 0.000330027 9.94381e-20
0.000147583 -4.12386e-05 1.78867e-19
2.30921e-05 7.57533e-05 1.74623e-19
4.79496e-05 -0.000108654 1.40669e-19
8.43289e-05 2.34814e-05 1.99483e-19
-1.78886e-05 -0.000143435 4.48684e-20
-2.68673e-05 0.000136105 1.27329e-20
-4.01361e-05 7.95041e-05 1.5522e-19
1.12487e-05 -0.000100396 9.76191e-20
4.56968e-05 -1.16516e-05 2.60722e-19
6.47753e-05 -5.22812e-05 1.33999e-19
3.80211e-05 -7.21479e-06 8.24609e-20
0.000130758 8.74771e-05 2.72242e-19
-4.05592e-05 8.99816e-06 2.42532e-21
-4.90147e-05 -1.34628e-05 1.46125e-19
0.000131332 9.50795e-05 1.85537e-19
-0.000150671 0.000183247 9.09495e-21
-7.86635e-05 5.97662e-05 1.17022e-19
6.55475e-05 -0.000223293 2.51627e-20
5.56559e-05 0.000207793 -9.06463e-20
0.000222712 -6.66536e-05 2.60722e-19
0.000136636 -0.000121098 1.77655e-19
1.24464e-06 0.000151526 9.88318e-20
1.82959e-05 -0.000163207 1.27329e-20
0.000112753 -0.00020499 1.87962e-19
0.000106205 0.000181865 1.27936e-19
1.36693e-05 3.28737e-05 1.76442e-19
1.2557e-05 -4.69875e-05 5.09317e-20
7.36093e-05 5.36556e-05 2.17672e-19
8.33182e-05 -9.31793e-05 1.61284e-19
5.17152e-05 -6.92419e-05 -2.78912e-20
4.96816e-05 7.14996e-05 -1.44306e-19
-0.000101115 -6.98687e-05 5.1538e-20
-0.000215952 -0.000176466 6.18456e-20
4.0217e-05 -0.0001598 3.57735e-20
2.86802e-05 0.000140161 -7.27596e-21
0.000134838 6.52532e-05 4.07454e-19
0.000112602 -9.2515e-05 1.99483e-19
0.00011897 -0.000101244 2.26767e-19
0.000114151 5.9505e-05 3.34694e-19
0.000107092 -8.94162e-05 1.93419e-19
-6.65784e-05 -0.0006514 8.12482e-20
0.000646437 9.37549e-05 2.02211e-19
0.000215488 0.000193953 2.76486e-19
0.000169169 -0.000187755 3.03165e-20
0.00011954 7.34536e-05 2.54659e-19
-0.000270634 -2.05756e-05 5.06285e-20
2.7418e-06 -0.000117739 4.72937e-20
-8.50926e-06 0.000118128 7.03343e-20
-9.82606e-05 0.000143337 2.18279e-20
-0.00010259 8.35888e-05 2.15247e-19
-3.72834e-05 -0.000103571 5.21444e-20
-0.000140481 -9.55932e-05 9.45875e-20
0.000137414 2.6554e-05 2.41319e-19
1.76085e-05 3.5278e-05 2.18279e-19
4.86183e-05 -7.92837e-05 1.42488e-19
-3.86085e-05 -0.000102978 5.27507e-20
-4.80375e-05 9.87773e-05 1.39456e-19
0.00010491 6.0843e-05 2.54659e-19
0.000105535 -8.96424e-05 2.40713e-19
2.94704e-05 0.000138236 5.27507e-20
4.37367e-05 -0.000151227 4.42621e-20
-0.000173563 0.000310385 -2.69817e-20
-0.000309302 0.00017213 -4.63842e-20
0.000114896 1.3341e-05 2.38894e-19
0.000350327 0.000169225 1.79474e-19
0.000286462 -0.000158296 1.66134e-19
-0.000194871 0.000134084 1.04289e-19
-0.000184962 -0.000137433 -2.72848e-20
-7.99657e-05 -3.74191e-05 8.06419e-20
-1.50442e-05 -3.37421e-05 -3.69861e-20
-1.90437e-05 3.05379e-05 3.88051e-20
0.000177367 0.000220941 1.39153e-19
-0.000207671 -0.000176079 -2.09184e-20
0.000182895 -0.000266157 1.68257e-19
0.0001796 0.000252681 4.06241e-20
0.00027814 -0.000168485 2.64057e-19
-1.90909e-05 -0.000292319 -1.72804e-20
0.000292164 1.44848e-05 2.06152e-19
0.000151402 0.000207329 -2.51021e-19
0.000146345 -0.000182165 4.85064e-20
-9.09327e-05 -7.75156e-05 5.1538e-20
-3.94894e-05 1.00828e-06 5.76013e-20
0.000108791 -0.000171178 9.15558e-20
0.000102594 0.000151235 2.30405e-20
-9.2208e-05 2.58503e-05 5.57823e-20
0.000146244 0.000112343 3.26205e-19
0.000118496 -0.000128048 8.30672e-20
-0.000110975 -6.41577e-05 5.3357e-20
-7.99674e-05 5.36518e-05 1.22479e-19
-6.70698e-05 -5.66938e-05 2.91038e-20
-8.76784e-05 -4.57309e-05 7.94292e-20
-0.000172142 -0.000102624 7.57912e-20
-2.3156e-05 7.91057e-05 1.15203e-19
-1.35401e-05 -8.54131e-05 4.18368e-20
-0.000359694 0.000359666 6.73026e-20
-2.53193e-05 0.000140176 9.27685e-20
-1.5897e-05 -0.0001486 1.75836e-20
-2.62907e-05 0.000278342 3.27418e-20
1.1881e-05 -0.000231524 3.94114e-20
3.78481e-05 6.45893e-05 2.74667e-19
3.50343e-05 -7.60349e-05 4.79001e-20
-0.000127086 -7.20769e-05 -1.81899e-21
-0.000135305 7.14823e-05 9.39811e-20
-0.000226402 4.04183e-05 -1.51582e-20
-0.000236683 -4.37107e-05 2.24948e-19
0.000312762 0.000171422 3.2378e-19
0.000231356 -0.000161527 1.12777e-19
8.15267e-05 -3.83847e-06 2.40107e-19
8.597e-05 -5.69006e-05 1.49157e-19
0.000124723 5.24052e-05 3.1711e-19
4.19183e-06 -0.000127714 4.12304e-20
-7.67187e-06 0.000123893 1.38243e-19
0.000114309 -0.000102086 2.2798e-19
-0.000197711 0.000134042 -3.09228e-20
0.00012464 -7.47009e-05 1.80686e-19
0.000108734 7.49318e-05 1.72804e-19
-8.55728e-05 -1.58262e-06 2.38288e-19
-8.06865e-05 -2.64787e-06 6.0633e-22
-8.91998e-05 7.79922e-05 6.79089e-20
0.000154927 0.000268396 -6.66963e-20
0.000136054 -0.000235637 2.48595e-20
-0.000110743 -7.11566e-05 8.42798e-20
-1.11515e-05 -0.000152244 -3.75924e-20
0.000190405 -0.000337426 1.28845e-19
0.000328417 -0.000166313 1.77351e-19
2.08595e-05 8.56864e-05 3.28024e-19
1.79576e-05 -9.56065e-05 8.06419e-20
-1.8597e-05 0.000159123 4.30494e-20
3.64795e-05 -0.000145819 1.06108e-19
1.40159e-05 0.000126718 9.70128e-20
0.000152747 7.43102e-05 3.13473e-19
0.000123668 3.76113e-05 2.4617e-19
0.000111699 -8.00179e-05 1.95238e-19
-0.000301061 -4.89955e-09 0
-0.000308778 -1.59845e-08 1.30361e-19
-0.000114265 -7.37292e-05 1.04895e-19
9.77263e-05 0.00010517 4.09879e-19
8.58475e-05 -0.000120999 1.76442e-19
3.13508e-05 9.04179e-05 -2.72848e-20
3.96365e-05 -9.20856e-05 3.75924e-20
2.21848e-05 -2.93631e-05 -2.91038e-20
1.40839e-05 2.49707e-05 -5.8814e-20
0.000362402 -0.000362373 9.21621e-20
-9.60132e-05 2.85618e-05 -1.81899e-21
-0.000101987 -3.49025e-05 2.17066e-19
-2.41788e-05 7.26707e-05 1.69772e-20
-1.55436e-05 -7.53975e-05 3.63798e-21
0.000154166 -9.68821e-05 1.65528e-19
-0.00011534 5.82368e-05 5.82077e-20
-0.000143149 -2.6529e-05 -3.03165e-21
-0.000149094 1.95064e-05 1.40062e-19
-8.91096e-05 4.17565e-05 6.79089e-20
4.18972e-05 0.000190265 3.1711e-19
3.60045e-05 -0.000185263 4.48684e-20
6.09018e-05 0.000363883 -1.20053e-19
7.30932e-05 -0.000299588 1.63709e-20
-3.61947e-05 0.000642305 6.00266e-20
-0.0006393 2.95666e-05 -5.57823e-20
9.30146e-05 1.06388e-05 2.32831e-19
9.44996e-05 -6.49989e-05 1.59465e-19
0.000355067 -0.000440994 1.7432e-20
0.000442137 -0.000349966 6.09361e-20
0.00012601 -0.000304109 1.00651e-19
0.000146716 0.0003542 1.39456e-19
-0.00010847 6.40968e-05 5.1538e-20
9.92341e-05 5.03231e-05 2.09184e-19
9.79744e-05 -8.71544e-05 2.19491e-19
9.35542e-05 0.000101081 1.8008e-19
9.97036e-05 -0.00012728 1.98876e-19
2.57897e-06 -0.00031487 4.33526e-20
7.11127e-06 0.000274926 -8.12482e-20
0.000313692 -5.50327e-06 2.47989e-19
7.09234e-05 6.82792e-05 1.93419e-19
8.18076e-05 -0.000101406 1.95845e-19
3.0857e-05 0.000303245 -2.88007e-20
-0.000301235 -4.4648e-05 -9.70128e-21
0.000131755 1.81253e-05 2.31618e-19
0.000116105 -6.91732e-05 1.60071e-19
0.000125506 3.97836e-05 2.2131e-19
0.000112653 -8.11447e-05 1.67953e-19
-0.00035408 0.000433999 3.81988e-20
-0.000437983 0.000353424 -1.36424e-20
0.000105586 5.4881e-05 2.31012e-19
0.000105223 -9.23572e-05 2.51021e-19
5.50531e-05 -0.000187481 3.63798e-20
3.67961e-05 0.000213995 -5.94203e-20
9.37837e-05 -4.20915e-05 2.34043e-19
9.35108e-05 -3.33527e-05 1.2551e-19
0.000143868 0.000133985 3.56522e-19
0.000117132 -0.000140472 1.33999e-19
-8.58031e-05 -2.74398e-05 2.78912e-20
-8.66273e-05 2.04331e-05 1.41275e-19
0.000140964 -0.000234362 1.21266e-20
-0.000297854 -7.98971e-06 -7.27596e-21
-0.000307007 4.52218e-06 1.55827e-19
0.000144828 0.000271017 -2.04333e-19
0.000133645 0.000258604 2.60115e-19
0.000198794 0.000198314 2.17066e-19
0.000109418 -0.000239932 4.9719e-20
0.000164451 -0.000188988 1.16415e-19
0.000246346 -0.000102016 -6.0633e-22
0.000632953 -8.3272e-05 1.54008e-19
0.000498766 6.57297e-05 1.916e-19
0.000143346 5.9401e-05 8.00355e-20
0.000315447 2.75209e-06 1.28542e-19
0.000213707 -6.46317e-05 2.98314e-19
0.000295566 9.47728e-05 1.90388e-19
0.000220063 -5.6871e-05 9.45875e-20
0.00021408 -8.45863e-05 1.04289e-19
0.000164398 -2.00164e-05 1.35818e-19
0.00022601 8.62943e-05 2.00695e-19
0.000228081 8.56495e-05 2.43745e-19
0.00017175 -0.000110025 4.85064e-20
0.000178436 -0.000107941 9.70128e-20
1.95002e-05 4.22603e-06 -4.48684e-20
1.62224e-05 9.76156e-06 1.14596e-19
4.48733e-05 -1.28036e-06 -8.42798e-20
1.55881e-05 -2.25549e-06 7.70039e-20
1.58035e-05 -2.13695e-06 4.18368e-20
1.40971e-05 3.44712e-05 1.06714e-19
4.71651e-05 -2.7949e-05 -3.63798e-20
1.50753e-05 3.08686e-06 3.03165e-20
4.10611e-05 3.48542e-05 1.09139e-20
1.69333e-05 1.77433e-06 6.0633e-21
1.70691e-05 -1.59704e-06 2.18279e-20
1.47135e-05 5.26041e-08 -2.0979e-19
9.22329e-05 -2.12681e-06 2.12822e-19
-9.60718e-06 -1.72611e-05 -1.69772e-20
1.95438e-05 1.11558e-05 -4.60811e-20
3.21695e-05 1.04991e-05 -6.79089e-20
3.91753e-05 3.01245e-05 2.22523e-19
2.04852e-05 -3.5654e-05 -3.75924e-20
1.24012e-05 1.19418e-06 -1.21266e-21
1.77942e-05 1.03078e-07 -5.76013e-20
1.78592e-05 -7.98618e-08 4.9719e-20
1.38928e-05 5.82294e-07 -1.98876e-19
1.45183e-05 9.73257e-06 -2.66785e-20
1.14271e-05 1.4824e-06 2.84975e-20
6.1709e-06 9.2964e-06 1.94026e-20
1.55631e-05 2.64606e-06 -1.33393e-19
1.71181e-05 2.27181e-06 2.42532e-20
1.59164e-05 -1.09735e-07 -2.30405e-20
1.96671e-05 -2.07382e-05 2.60722e-20
1.38885e-05 -4.12154e-07 -1.51582e-19
3.39261e-05 2.67646e-05 1.58858e-19
3.80582e-05 -2.44084e-05 6.0633e-21
-0.000173907 -8.84202e-05 6.54836e-20
-0.000174305 8.3714e-05 -3.15291e-20
1.35939e-05 3.44539e-07 4.18368e-20
8.33557e-06 1.18572e-05 1.87962e-20
-3.35034e-05 -1.07206e-05 6.54836e-20
-3.88595e-05 1.25441e-05 1.63709e-20
5.17501e-05 -2.2155e-05 1.09139e-20
1.59257e-05 2.16272e-06 -1.63709e-19
1.09184e-05 -1.90022e-06 4.9719e-20
4.30979e-05 -1.05851e-07 1.27329e-20
1.45695e-05 -9.39441e-06 1.07927e-19
1.93682e-05 -4.24157e-06 1.24904e-19
1.04715e-05 8.06e-06 -3.15291e-20
1.36866e-05 -1.66145e-06 4.48684e-20
1.94951e-05 -3.14119e-06 -6.73026e-20
1.66612e-05 -6.31567e-06 -9.09495e-20
5.36154e-05 -1.67501e-05 2.26767e-19
1.69997e-05 -5.97732e-07 -6.91216e-20
1.31168e-05 -3.44896e-06 -3.45608e-20
2.71864e-05 -1.51544e-06 1.60071e-19
2.72002e-05 1.50265e-06 -3.27418e-20
8.80955e-06 2.52408e-06 8.97368e-20
2.54691e-05 -1.36004e-05 1.80686e-19
2.54796e-05 1.36104e-05 -3.63798e-21
1.57336e-05 4.78381e-06 -8.73115e-20
-4.5222e-05 -0.000165624 -9.09495e-21
-4.54259e-05 0.000166221 3.03165e-21
1.85952e-05 -6.24693e-06 2.03727e-19
1.8582e-05 6.24533e-06 -4.48684e-20
1.36651e-05 3.78356e-07 3.69861e-20
0.000127101 -8.65162e-05 4.60811e-20
-3.11103e-05 7.14406e-05 6.0633e-21
1.5924e-05 -2.15798e-06 -9.94381e-20
1.60302e-05 -1.36854e-07 -1.63709e-20
1.32831e-05 6.31369e-07 3.88051e-20
1.67381e-05 9.3922e-06 2.06152e-20
2.93494e-05 9.83919e-06 -8.24609e-20
5.21671e-05 -2.16092e-05 0
5.22045e-05 2.16247e-05 -1.09139e-20
4.90654e-05 4.17768e-05 -7.39722e-20
1.54132e-05 -5.62423e-06 1.6856e-19
1.53689e-05 5.80955e-06 -1.09139e-20
1.36479e-06 2.57224e-05 5.45697e-21
6.6662e-06 -1.09079e-05 -6.91216e-20
1.3682e-05 -2.65838e-07 6.54836e-20
1.21986e-05 -1.20825e-06 7.57912e-20
-2.40556e-05 -5.23916e-05 4.30494e-20
-7.65381e-05 0.000132553 -1.39456e-20
-7.70125e-05 -0.000133374 1.09139e-20
1.39866e-05 1.97844e-06 2.91038e-20
7.51334e-06 1.45e-06 7.09406e-20
1.22836e-05 3.19126e-06 -4.12304e-20
1.96923e-05 8.38019e-05 3.51671e-20
3.79701e-05 -0.00010819 1.21266e-20
-2.85284e-05 5.88876e-05 6.66963e-21
3.77189e-05 5.20887e-06 2.09184e-19
2.24075e-05 -1.04131e-05 -6.66963e-20
9.83029e-06 -3.34836e-06 2.48595e-19
9.65512e-06 3.09529e-06 1.3218e-19
1.48499e-05 -9.9434e-07 -2.54659e-20
1.24268e-05 1.20698e-06 -7.39722e-20
1.39953e-05 -1.1457e-05 3.17717e-19
1.39413e-05 1.15708e-05 8.36735e-20
1.24613e-05 -3.22237e-06 9.58001e-20
1.56139e-05 -2.55725e-06 -1.12777e-19
9.23642e-06 -6.46211e-06 2.70423e-19
8.98884e-06 6.34843e-06 6.79089e-20
1.17796e-05 1.39827e-05 2.54659e-20
1.41507e-05 1.28647e-07 -9.70128e-20
1.19715e-05 2.95489e-06 7.03343e-20
1.23325e-05 6.10509e-05 -8.48862e-21
6.23575e-06 7.86148e-08 -4.00178e-20
1.37393e-05 5.1365e-07 -1.60071e-19
-8.28599e-06 1.46599e-05 4.42621e-20
1.17121e-05 -1.22406e-05 6.79089e-20
1.4149e-05 2.12757e-06 2.36469e-20
6.94284e-06 -1.00725e-06 6.85153e-20
2.47565e-05 -1.16339e-05 -8.42798e-20
2.26196e-05 1.30547e-05 1.59465e-19
1.48157e-05 -9.75778e-08 -6.30583e-20
1.21834e-06 -2.6168e-05 1.5037e-19
1.5775e-05 -1.22161e-06 -8.73115e-20
1.58007e-05 1.12065e-06 -1.84324e-19
6.03016e-06 1.36876e-06 5.8814e-20
3.38669e-05 4.19268e-05 8.48862e-21
3.46462e-05 -4.33605e-05 -4.85064e-21
1.95008e-05 4.22628e-06 -6.2452e-20
5.46619e-06 -8.16543e-06 8.60988e-20
1.71389e-05 -1.0946e-07 -4.85064e-20
1.72321e-05 1.02455e-07 -1.15203e-20
1.3652e-05 -3.83975e-08 -1.51582e-19
1.48531e-05 9.18533e-07 -1.84324e-19
1.51828e-05 -1.30839e-06 -5.94203e-20
-6.36462e-05 0.000110224 -3.75924e-20
6.79272e-05 -0.000117693 -3.15291e-20
1.3703e-05 -6.69403e-07 -7.51849e-20
1.23041e-05 1.9788e-06 -7.03343e-20
8.993e-06 -2.72491e-06 1.26117e-19
1.96536e-05 -4.32458e-06 1.18234e-19
1.10821e-06 1.11953e-05 -2.18279e-20
6.11719e-05 1.55251e-05 -1.45519e-20
1.42589e-05 -2.43165e-07 -4.48684e-20
1.25773e-05 -5.52112e-06 -9.45875e-20
2.92854e-05 2.08875e-05 -3.81988e-20
4.40945e-06 3.52169e-08 3.4197e-19
1.51422e-05 1.12736e-06 -1.96451e-19
1.31517e-05 -6.19162e-05 1.64922e-19
1.52142e-05 1.89079e-06 -1.67347e-19
1.37563e-05 -1.81416e-06 7.39722e-20
9.21798e-06 -1.36995e-05 1.28542e-19
1.76119e-05 -3.78861e-07 -7.03343e-20
1.76642e-05 3.3457e-07 -6.18456e-20
1.39803e-05 -7.67219e-07 -1.05501e-19
1.52022e-05 -1.85011e-06 -5.82077e-20
2.31496e-05 2.41691e-06 1.03076e-19
2.42887e-05 -2.23613e-06 -7.76102e-20
1.62236e-05 -1.84784e-07 -2.42532e-20
1.63177e-05 2.25707e-07 -1.37031e-19
1.56193e-06 -4.66165e-06 3.55309e-19
1.45874e-06 4.50951e-06 2.19491e-19
1.50935e-05 7.58607e-07 -1.22479e-19
6.51694e-05 -2.08768e-05 2.01908e-19
-1.33376e-05 1.02285e-05 4.54747e-20
1.33703e-05 -4.30602e-07 4.66874e-20
1.8644e-05 2.79078e-06 -5.6995e-20
2.05376e-05 -6.18971e-06 2.20704e-19
2.05476e-05 6.19656e-06 -4.85064e-21
1.56271e-05 -3.18221e-06 1.57646e-19
1.55953e-05 3.15141e-06 -6.18456e-20
1.68369e-05 -4.82978e-07 -4.79001e-20
1.05963e-05 -8.07912e-07 -1.26117e-19
1.84859e-05 -2.96675e-06 -8.48862e-20
3.347e-05 -2.77582e-05 1.6856e-19
3.3493e-05 2.77742e-05 1.21266e-21
1.51157e-05 2.07534e-06 -1.04289e-19
1.32548e-05 -1.01436e-07 7.09406e-20
1.24375e-05 -1.40772e-06 -4.00178e-20
3.11951e-05 1.93165e-06 2.40107e-19
1.58956e-05 -1.35791e-05 -1.17628e-19
1.36338e-05 -1.72086e-06 8.67052e-20
1.22633e-05 5.61539e-06 -6.30583e-20
1.51093e-05 -2.09537e-06 1.09139e-20
2.66321e-05 3.91617e-05 -6.12393e-20
-1.07614e-05 1.19709e-05 4.60811e-20
9.29087e-05 1.34472e-05 -3.27418e-20
1.50883e-05 -7.34622e-07 -8.48862e-20
5.93166e-06 2.86549e-05 -6.0633e-21
1.13227e-05 3.71894e-07 9.03431e-20
9.07206e-06 3.36269e-07 -8.48862e-20
1.992e-05 -1.18552e-05 1.82505e-19
2.11926e-05 -5.56639e-07 -5.8814e-20
1.62534e-05 3.05598e-06 -9.45875e-20
1.77544e-05 4.95724e-06 4.12304e-20
-1.08397e-06 -8.19169e-06 -7.03343e-20
1.61803e-05 1.55395e-06 -1.33393e-20
1.5488e-05 8.48786e-07 2.66785e-20
1.62715e-05 -3.08914e-06 6.0633e-20
1.25297e-05 -1.45784e-06 7.39722e-20
5.34418e-05 -2.46771e-05 3.15291e-20
5.34788e-05 2.46915e-05 3.63798e-21
1.20236e-05 -2.23103e-06 -1.41881e-19
-7.72057e-05 -6.65812e-05 7.03343e-20
-8.03951e-05 6.40405e-05 6.0633e-21
2.88664e-05 -9.98446e-06 4.12304e-20
2.69189e-05 -4.17031e-05 1.70379e-19
1.6177e-05 -1.32675e-06 -8.48862e-20
1.59838e-05 -3.08556e-07 1.81899e-20
1.63157e-05 -2.65109e-07 -7.88229e-21
1.62839e-05 1.93081e-07 -1.03682e-19
1.40861e-05 5.76834e-07 -9.70128e-20
9.21829e-06 6.42146e-07 -1.12777e-19
1.6927e-05 1.97347e-07 -3.88051e-20
1.39973e-05 -4.75694e-08 -1.70985e-19
0.000121775 5.83483e-05 1.18841e-19
-2.87699e-05 -5.64777e-05 -2.30405e-20
1.1632e-05 -1.84038e-05 9.09495e-21
4.38778e-05 8.36914e-07 2.06152e-20
1.64743e-05 1.76851e-06 -1.52795e-19
1.64386e-05 -1.7813e-06 -5.3357e-20
2.5393e-05 8.97375e-06 3.45608e-20
1.57936e-05 -5.17348e-06 -1.47944e-19
2.24268e-05 -1.47441e-05 1.84324e-19
2.24401e-05 1.47487e-05 2.18279e-20
-4.62099e-06 2.43045e-06 4.42621e-20
5.95373e-06 -2.90086e-05 1.67347e-19
1.22581e-05 -1.19974e-05 2.72848e-20
1.42294e-05 1.01733e-06 6.85153e-20
2.87162e-05 -1.88101e-05 2.00695e-19
1.86316e-05 5.08634e-06 -4.00178e-20
2.20364e-05 1.94124e-06 1.52795e-19
1.77837e-05 -4.52733e-06 -8.00355e-20
2.33797e-05 8.85835e-05 1.05501e-19
4.97406e-05 -9.29303e-05 -1.21266e-20
4.84251e-06 -8.94721e-06 4.76575e-19
4.82831e-06 8.90162e-06 2.19491e-19
-3.40083e-05 -1.05147e-05 6.66963e-20
-3.4668e-05 1.37397e-05 6.18456e-20
-0.000108877 6.93811e-05 9.82254e-20
-0.000111563 -6.85264e-05 1.57646e-20
4.90749e-05 -2.49325e-05 6.4271e-20
4.91122e-05 2.49469e-05 -9.70128e-21
1.64894e-05 4.7631e-06 6.0633e-21
1.64662e-05 -4.67313e-06 -7.88229e-20
1.49398e-05 2.78703e-06 -1.33393e-19
3.01138e-05 -5.51231e-06 1.80686e-19
1.74987e-05 -4.2176e-06 -1.1399e-19
1.381e-05 -1.75799e-06 4.42621e-20
1.49558e-05 -2.83041e-06 4.24431e-20
2.92247e-05 3.25737e-06 -4.9719e-20
1.53809e-05 2.03872e-06 -1.60071e-19
-1.65415e-05 -5.22667e-05 1.23085e-19
-1.67042e-05 5.17893e-05 1.09139e-20
1.54215e-05 -2.04085e-06 -4.85064e-20
1.13328e-05 2.1573e-05 9.09495e-21
6.79974e-05 0.000117818 9.70128e-21
-4.37163e-05 -7.57088e-05 1.21266e-21
6.57513e-06 -7.21806e-06 -1.18841e-19
-5.71759e-06 -1.2315e-05 2.42532e-20
5.08144e-05 -8.15487e-05 2.12215e-20
1.61254e-05 1.54253e-06 -2.97102e-20
1.53924e-05 6.33246e-07 -6.60899e-20
2.96056e-06 -1.12838e-05 3.88051e-19
2.96273e-06 1.10961e-05 1.1399e-19
4.67858e-05 8.62804e-05 3.63798e-21
1.66873e-05 4.16187e-06 7.27596e-21
1.37878e-05 1.92758e-06 -1.83112e-19
1.92762e-05 -7.78837e-07 1.43094e-19
1.92733e-05 7.41223e-07 -1.05501e-19
-0.000159867 -2.29092e-09 4.24431e-20
-0.00015985 2.37093e-09 -4.36557e-20
1.15073e-05 -5.22969e-06 -1.18841e-19
7.86622e-06 -1.1392e-06 5.76013e-20
1.39547e-05 -1.32704e-05 2.59509e-19
1.38991e-05 1.32819e-05 3.15291e-20
5.38215e-05 -1.37996e-05 2.67391e-19
4.66938e-05 -4.50268e-05 2.04333e-19
1.87155e-05 5.343e-06 -9.09495e-20
-2.14917e-05 6.14334e-05 7.39722e-20
-2.16546e-05 -6.26471e-05 7.76102e-20
2.82117e-05 -2.19847e-05 2.45564e-19
1.37811e-05 -1.87795e-06 -1.69772e-20
-7.21364e-06 -4.47506e-06 7.57912e-20
-4.69562e-05 3.32079e-05 6.97279e-20
-4.71266e-05 -3.32279e-05 8.79178e-20
1.13514e-05 1.41467e-05 2.18279e-20
6.14008e-06 -2.70875e-05 3.51671e-19
6.18471e-06 2.71108e-05 8.97368e-20
5.91836e-05 0.000126769 4.9719e-20
5.83489e-06 -0.000126047 -5.45697e-20
1.70713e-05 -6.45116e-07 -6.4271e-20
1.03396e-05 6.48558e-07 -1.03076e-20
1.67728e-05 2.75792e-06 4.00178e-20
1.68419e-05 -2.87788e-06 -1.01863e-19
6.98441e-06 9.558e-07 -8.85242e-20
1.8235e-05 2.13365e-07 -4.79001e-20
1.30289e-05 4.45922e-06 -1.10958e-19
2.20529e-05 5.3241e-05 2.42532e-20
2.20385e-05 -5.32062e-05 2.66785e-20
-1.40618e-05 -1.03165e-05 7.88229e-20
1.53986e-05 -2.08002e-06 -7.39722e-20
1.7557e-05 -1.67349e-06 4.9719e-20
1.75499e-05 1.63727e-06 -1.18841e-19
1.49684e-05 -1.50919e-06 -7.63976e-20
1.5366e-05 2.06431e-06 -1.23691e-19
1.71521e-05 -3.85749e-08 -3.27418e-20
1.72397e-05 6.98074e-08 -6.48773e-20
1.39501e-05 -3.25316e-09 -1.51582e-19
1.49615e-05 1.47798e-06 -1.3218e-19
1.6989e-05 -2.29116e-07 -5.45697e-20
1.33641e-05 -1.54711e-08 5.63887e-20
2.2224e-05 1.60182e-06 7.63976e-20
2.22992e-05 -1.82307e-06 -6.30583e-20
2.09426e-05 -2.77269e-06 1.74623e-19
2.09784e-05 2.75547e-06 -6.18456e-20
1.8257e-05 1.31759e-07 -2.54659e-20
1.28098e-05 4.62213e-06 -2.84975e-20
1.64996e-05 8.83486e-07 -1.12777e-19
1.65002e-05 -9.24346e-07 1.33393e-20
4.88641e-05 6.25885e-05 7.63976e-20
1.66051e-05 -5.91228e-05 -2.42532e-20
1.79437e-05 8.9241e-06 8.60988e-20
1.78254e-05 -8.91666e-06 -5.21444e-20
2.20352e-05 -1.8315e-05 2.32831e-19
2.20422e-05 1.8359e-05 4.9719e-20
-2.92736e-06 -3.2573e-05 1.0247e-19
-3.15917e-06 3.18691e-05 3.75924e-20
0.000116949 0.000105115 8.97368e-20
-0.000170749 -2.79344e-05 1.33393e-20
2.04347e-05 3.77245e-05 5.82077e-20
3.02806e-05 2.86133e-05 1.81899e-20
2.04074e-05 -3.77142e-05 2.40107e-19
3.02601e-05 -2.85967e-05 1.12777e-19
-2.63217e-05 -8.02257e-05 -8.48862e-21
-0.000170865 2.73876e-05 5.57823e-20
4.00825e-05 -1.66025e-05 -2.66785e-20
9.76903e-05 -1.28597e-05 -3.03165e-20
9.76202e-05 1.28504e-05 -5.82077e-20
4.00461e-05 1.65874e-05 6.0633e-21
5.00361e-05 -1.5145e-06 -3.27418e-20
3.42074e-05 -1.19966e-05 -3.15291e-20
4.66707e-05 1.40687e-05 0
4.99961e-05 1.50487e-06 2.06152e-20
4.66347e-05 -1.40599e-05 1.57646e-20
3.41823e-05 1.1977e-05 8.00355e-20
3.60483e-05 -1.08905e-05 1.11565e-19
3.5407e-05 -1.10902e-05 9.70128e-20
3.6075e-05 1.08914e-05 -3.27418e-20
3.54317e-05 1.10918e-05 -2.54659e-20
-5.04392e-05 -0.000143857 -1.29755e-19
1.51634e-05 0.00013302 -3.03165e-21
2.02285e-05 -0.000120491 1.0247e-19
-0.000107813 -1.8666e-05 -1.72804e-19
-0.000135032 -3.36465e-05 -1.53401e-19
1.37417e-05 0.000149562 2.66785e-20
2.33009e-05 -0.000156242 9.45875e-20
-0.000145205 3.93405e-05 -1.47944e-19
-4.43394e-05 7.43126e-05 -1.46732e-19
-7.96624e-05 -0.000175848 -1.86143e-19
-7.12764e-05 0.000197662 -8.42798e-20
0.000190947 9.35119e-05 -4.18368e-20
0.000106077 9.99526e-05 4.12304e-20
-0.000101428 -0.000104897 1.01863e-19
-5.01711e-05 -0.000101219 -3.33481e-20
-1.61059e-05 -9.68647e-05 1.10352e-19
-1.16018e-05 -0.000159793 9.33748e-20
2.98448e-05 0.000146296 5.6995e-20
0.00011516 -7.95697e-06 -7.88229e-21
-6.06913e-05 -0.000212676 -2.3465e-19
-5.39894e-05 0.000230847 -9.21621e-20
0.000224679 7.17781e-05 -2.18279e-20
-9.43512e-05 -9.53205e-05 -1.03076e-19
-0.000147786 3.82054e-05 -9.88318e-20
-0.000107127 -9.59876e-05 -8.48862e-21
7.14337e-05 0.00016083 -3.63798e-20
-0.000100795 2.16195e-05 -1.81293e-19
-0.000157195 -0.000319484 -6.69994e-20
-8.85256e-05 -4.38939e-05 -1.32786e-19
0.000335769 0.000175805 -8.79178e-20
2.69345e-05 0.000144433 3.51671e-20
5.04061e-06 -0.000149143 6.79089e-20
-0.000329223 0.000163469 -1.21266e-20
-0.000336077 -0.000170349 2.30405e-20
-0.000219559 7.5899e-05 -1.00651e-19
-7.8856e-05 -6.25442e-05 6.79089e-20
-0.000136374 -6.80954e-05 6.97279e-20
-0.00013871 7.15539e-05 -1.03076e-20
-2.29225e-05 -4.67927e-05 -1.06108e-19
9.72599e-05 0.000126401 2.42532e-21
-0.000138718 9.84781e-05 -8.54925e-20
-4.01285e-05 1.9947e-06 -1.46125e-19
-8.72851e-05 0.000104278 -1.27329e-20
-4.34384e-05 0.000151354 -3.63798e-21
4.50866e-05 0.000119384 -2.42532e-20
-0.000140222 9.83484e-05 -2.30405e-20
-0.000349689 -0.000349656 -1.06108e-19
0.000364611 0.000364587 -6.66963e-21
3.83724e-05 7.43211e-05 1.94026e-20
0.000366651 0.000399202 -4.12304e-20
-0.00037592 -0.000350922 3.24386e-20
0.000139061 7.58322e-05 -2.30405e-20
0.000172993 -3.03884e-05 1.21266e-20
8.05357e-05 -2.04317e-05 -3.03165e-21
0.000132415 0.000122628 -3.69861e-20
0.000162169 -0.000106523 6.0633e-20
6.85788e-05 0.000125047 -1.21266e-20
-0.000138163 0.000264024 2.78912e-20
-0.000141286 -0.000264751 -5.09317e-20
0.000109859 9.26683e-05 -9.88318e-20
0.000120373 -6.57491e-05 8.36735e-20
-0.000192221 8.88976e-05 -8.60988e-20
-7.04736e-05 0.000201252 2.72848e-20
0.000158581 -0.000246054 -3.15291e-20
8.5968e-05 -9.87921e-05 -1.61284e-19
-0.000170584 0.000337259 -1.15809e-19
-0.000327951 0.000178826 -9.51938e-20
3.66922e-05 0.0001176 -4.24431e-21
-1.35829e-05 -9.62744e-05 5.76013e-20
0.000265966 0.000110136 1.18841e-19
0.000338267 -0.000140141 1.74623e-19
1.85941e-05 -3.26326e-05 1.72804e-19
0.000107926 7.50858e-05 -4.72937e-20
0.000114764 -5.76386e-05 4.60811e-20
-6.90231e-05 -4.74761e-05 2.2131e-19
-2.94861e-05 -7.68084e-05 1.00651e-19
-0.00020278 -4.04373e-05 -1.38243e-19
0.000143991 -2.34223e-05 -2.00089e-20
-0.000175626 -2.31869e-05 -1.24298e-19
-0.000127557 -0.000106983 -6.0633e-21
-0.000148597 -0.000257334 -3.21355e-20
-0.000146946 0.00025452 6.0633e-22
-0.00015531 -0.000170605 -1.56433e-19
-0.000109628 6.98536e-05 -4.66874e-20
0.000110131 7.68611e-05 -1.15203e-20
2.70043e-05 -0.000278048 2.72848e-20
2.29531e-06 0.000218952 2.12215e-20
-0.000128115 0.000119071 -7.63976e-20
2.89579e-05 0.000131146 2.06152e-20
-9.17173e-06 -0.00012789 7.39722e-20
7.78597e-05 3.67565e-05 -3.94114e-20
7.87374e-05 -1.93002e-05 -1.69772e-20
0.000192161 -0.000137928 -2.80731e-19
8.66875e-05 9.85173e-05 -1.09139e-19
9.7666e-05 -8.81117e-05 5.3357e-20
0.000111411 -5.46243e-05 -1.03076e-20
5.34783e-05 -0.000140621 -1.63709e-19
6.94243e-05 8.04488e-05 -6.30583e-20
7.12888e-05 -6.01519e-05 2.78912e-20
-0.000116419 5.58997e-05 -1.62496e-19
7.47226e-05 8.7336e-05 -4.00178e-20
-0.000142525 -9.75821e-05 -1.0732e-19
-5.05561e-05 1.20137e-05 2.99527e-19
2.23671e-05 7.65805e-05 -4.48684e-20
0.000152348 3.82866e-05 1.81899e-21
-0.000112155 7.17656e-05 -3.39545e-20
-0.000122173 -5.56599e-05 -1.40669e-19
-9.53318e-05 -0.000115515 -1.63709e-19
-0.000108987 -7.11577e-05 -7.45786e-20
-1.69657e-06 -0.000131774 7.76102e-20
2.02816e-05 0.000135654 5.3357e-20
0.000189495 -7.23283e-05 -1.93116e-19
-6.38695e-05 5.07289e-05 8.67052e-20
9.28295e-05 -0.000141943 -2.29799e-19
0.000101586 0.000162447 -7.88229e-21
-0.000110069 6.98294e-05 -8.30672e-20
-4.266e-05 7.26615e-05 -8.06419e-20
-4.5148e-05 -7.43482e-05 -4.00178e-20
-2.83115e-05 -0.00013445 -2.35256e-19
-0.000101877 0.000106248 1.09139e-20
1.68843e-05 -0.00018752 -2.11003e-19
3.37394e-05 0.000205339 -1.36424e-19
0.000199375 -1.04963e-06 -7.85197e-20
0.000200475 0.000156255 -2.36469e-20
0.000132964 -8.22501e-05 -1.14596e-19
0.000190424 -0.000329881 -7.09406e-20
-0.000155235 0.000268908 4.24431e-20
0.000147266 -2.15594e-05 -7.51849e-20
4.83619e-05 0.000108514 -2.36469e-20
8.423e-05 4.1412e-05 1.81899e-20
-1.71592e-05 0.000143711 -1.09139e-20
4.03856e-05 -7.98832e-05 1.27936e-19
1.13738e-05 0.000100417 -1.63709e-20
6.33743e-05 -4.66498e-05 2.30405e-20
6.51911e-05 5.3116e-05 -3.27418e-20
-2.25558e-05 -7.3634e-05 1.19447e-19
3.79973e-05 7.0927e-06 -4.66874e-20
0.000134786 0.00010809 -1.33393e-20
-4.30439e-05 -1.16709e-05 1.09139e-19
0.000135716 0.000120408 -4.66874e-20
-0.000147193 0.000192687 -5.63887e-20
-7.30306e-05 6.36933e-05 2.91038e-20
5.23859e-05 -0.000207739 -3.12563e-19
6.65599e-05 0.000222966 -8.85242e-20
0.000221807 -4.67824e-05 -8.76147e-20
0.000133592 -9.72513e-05 -9.64064e-20
-7.23309e-07 -0.000151334 -2.24342e-20
1.89023e-05 0.000163374 1.39456e-20
0.000106678 -0.00018833 -3.43789e-19
0.000113569 0.000200058 -1.11565e-19
1.34004e-05 4.75949e-05 -6.73026e-20
1.27555e-05 -3.23232e-05 7.88229e-21
8.34456e-05 9.31633e-05 -4.66874e-20
5.16984e-05 6.95609e-05 3.39545e-20
-0.000108627 -6.47805e-05 6.4271e-20
-0.000217681 -0.000168092 -7.79134e-20
4.1205e-05 0.000159412 -3.15291e-20
0.00011242 9.25916e-05 -6.79089e-20
0.000134867 -6.54271e-05 4.06241e-20
0.000106679 8.93852e-05 -6.91216e-20
0.000114583 -5.97282e-05 8.54925e-20
-6.93186e-05 -0.000630055 -2.41319e-19
0.000646567 0.000108705 -3.00927e-36
2.85179e-05 -0.000137062 -2.40713e-19
0.000168806 0.000187459 9.33748e-20
0.000215483 -0.000194105 2.48595e-19
0.000118415 0.000100866 -4.54747e-20
-0.000271762 -1.38853e-05 -1.2642e-19
2.89033e-06 0.000118053 2.66785e-20
8.76157e-06 -0.000119172 5.76013e-20
-9.30322e-05 0.000151438 -3.94114e-20
4.33555e-05 1.21315e-05 7.33659e-20
0.000120135 -7.37533e-05 2.30405e-20
-1.85587e-05 -3.69628e-05 2.90432e-19
-3.70616e-05 0.000103586 1.75836e-20
0.000103145 -8.3993e-05 2.91038e-20
7.32782e-05 -5.25183e-05 3.27418e-20
-8.00036e-05 -5.45267e-05 1.76442e-19
-0.000139988 -8.74815e-05 -1.24298e-19
0.000137346 4.64983e-05 -1.87962e-20
4.96686e-05 7.90579e-05 -6.97279e-20
-3.99137e-05 0.00010267 1.81899e-20
-2.74711e-05 -0.000136826 -9.33748e-20
0.000105322 8.95819e-05 -9.03431e-20
4.45338e-05 0.000151304 -1.51582e-20
-4.98446e-05 -6.96748e-05 1.81899e-19
-0.000172002 0.000321288 2.72848e-21
-0.00031017 0.000180578 -3.33481e-20
0.000112617 3.19917e-05 8.48862e-21
0.000105305 -6.10715e-05 7.70039e-20
0.000285872 0.000158037 1.35818e-19
0.000350392 -0.000169327 1.5037e-19
2.31801e-05 -7.69792e-05 4.00178e-20
-0.000189176 0.000134128 1.27329e-20
-0.000190687 -0.00013752 6.79089e-20
-8.05308e-05 -3.45481e-05 -2.00695e-19
-1.2205e-05 3.35987e-05 1.09746e-19
0.000183383 0.000236753 -8.85242e-20
-0.000208616 -0.000167669 -9.09495e-21
0.000176845 -0.000249527 -3.70164e-19
0.000185699 0.000269644 -1.22782e-19
0.000276583 -0.00015148 -2.13125e-19
1.82261e-05 -2.89049e-05 2.0312e-19
-2.27867e-05 -0.000278647 -1.5037e-19
0.000293578 2.97494e-05 -1.56433e-19
-0.000151187 -0.000206731 1.3885e-19
0.00014634 0.000182349 6.97279e-20
-9.37545e-05 -7.47902e-05 -3.27418e-20
-3.97729e-05 2.42457e-06 -1.09139e-19
0.000101395 -0.000149164 -3.01952e-19
0.000110083 0.000170514 -8.54925e-20
-9.21087e-05 2.86543e-05 -1.89781e-19
5.05781e-05 -9.83629e-05 -4.91127e-20
0.000118293 0.00012794 -2.60722e-20
0.000146229 -0.000112483 1.63709e-19
-0.000113745 -6.02015e-05 3.09228e-20
-7.4443e-05 5.7072e-05 6.54836e-20
-9.05072e-05 -4.15561e-05 -1.04289e-19
-0.000174379 -9.51166e-05 -9.94381e-20
-1.55898e-05 8.34372e-05 6.00266e-20
-0.000366452 0.000366477 5.00222e-20
-1.52254e-05 0.000148795 1.81899e-20
2.6393e-05 -0.000141784 -1.00044e-19
2.7018e-05 -0.00027803 5.5176e-20
1.20679e-05 0.000231622 6.54836e-20
3.52644e-05 7.62679e-05 -1.28542e-19
3.75045e-05 -6.43132e-05 3.75924e-20
-0.00013393 -6.90925e-05 7.63976e-20
-0.000130429 7.39157e-05 1.94026e-20
-0.000233107 4.45412e-05 1.32786e-19
-0.000230056 -3.97008e-05 3.09228e-20
0.000230796 0.000161266 2.19491e-19
0.000312735 -0.000171529 1.03076e-19
8.54236e-05 5.75256e-05 2.97102e-20
8.1713e-05 4.39569e-06 -3.57735e-20
0.000124855 7.47015e-05 -4.54747e-20
4.6877e-06 0.000130418 4.06241e-20
8.26281e-06 -0.000122083 -6.30583e-20
-0.000195809 0.00014184 -5.63887e-20
0.000124755 -5.24134e-05 -5.45697e-21
-1.42321e-05 -0.00013054 4.24431e-21
0.000114408 0.000101414 -7.27596e-21
-8.57904e-05 7.75515e-07 2.95283e-19
-8.17493e-05 9.08048e-07 1.09139e-19
0.000108522 -7.57925e-05 -1.81899e-21
-8.70382e-05 8.06156e-05 -1.08533e-19
0.000136111 0.000235736 7.45786e-20
-0.000154699 -0.00026795 5.57823e-20
-2.9078e-05 -9.3349e-05 9.64064e-20
-0.000114294 -6.75813e-05 -2.97102e-20
-1.23321e-05 -0.000151859 -1.27329e-20
0.00018445 -0.000321804 -3.13321e-19
0.000323454 -0.000149459 -2.44351e-19
1.81022e-05 9.7586e-05 -1.3218e-19
2.07347e-05 -8.35283e-05 8.97368e-20
-1.74119e-05 0.000159333 -4.06241e-20
3.69661e-05 0.000145664 0
0.000153351 9.69707e-05 1.03076e-20
0.000111434 8.01091e-05 -7.51849e-20
0.000123818 -3.81095e-05 8.79178e-20
-0.000301005 4.39019e-09 -4.54747e-20
-0.000309032 1.61678e-08 1.03076e-20
2.40495e-05 -7.19312e-05 9.70128e-20
-0.000117212 -6.99821e-05 -6.66963e-20
8.61818e-05 0.00012082 -1.16415e-19
9.72651e-05 -0.00010545 8.54925e-20
3.96436e-05 9.24982e-05 2.72848e-20
2.00331e-05 2.81793e-05 7.09406e-20
0.000352322 -0.000352349 -8.95852e-20
-0.00010158 3.25787e-05 2.21917e-19
-9.74858e-05 -3.10341e-05 6.0633e-20
-1.70287e-05 7.43891e-05 6.79089e-20
0.000153457 -7.39373e-05 -6.2452e-20
-0.000111575 6.14059e-05 3.03165e-20
-0.000148604 -1.95462e-05 1.5037e-19
-0.000144016 2.271e-05 4.91127e-20
-8.69499e-05 4.46137e-05 -1.59465e-19
3.56811e-05 0.000184917 -1.12777e-19
4.22514e-05 -0.000190488 2.13428e-19
7.31842e-05 0.000299653 6.85153e-20
-6.04861e-05 -0.000363644 6.66963e-21
-3.34031e-05 0.000664197 6.57868e-20
-0.000639099 3.73987e-05 -2.5769e-20
9.44516e-05 6.52914e-05 4.85064e-21
9.25868e-05 -1.17796e-05 -3.03165e-21
-1.0345e-05 -2.48944e-05 1.87962e-19
0.000345689 -0.000423363 -1.81596e-19
0.000440551 -0.000338641 -1.85689e-19
0.000146765 -0.000354317 1.89175e-19
0.00012577 0.000303531 4.9719e-20
-0.000103672 6.81465e-05 4.36557e-20
9.43445e-05 -0.000100035 -3.81988e-20
9.7882e-05 8.71618e-05 -4.18368e-20
9.9482e-05 -5.07638e-05 5.27507e-20
7.07658e-05 -6.87428e-05 3.03165e-21
9.96617e-05 0.000126823 -2.48595e-20
-3.87108e-06 -0.000298467 -2.88007e-19
1.3656e-05 0.000291844 -1.69469e-19
0.000312334 1.23321e-05 -1.04289e-19
8.19724e-05 0.000101189 -3.03165e-20
3.51361e-05 0.000317457 -9.79223e-20
-0.000300961 -3.68524e-05 -1.11565e-19
0.00011577 6.94084e-05 -4.79001e-20
0.000131237 -1.99804e-05 -8.12482e-20
0.000112367 8.12108e-05 -7.21532e-20
0.000125378 -3.99757e-05 -2.91038e-20
-0.000360127 0.000450132 5.42665e-20
-0.000438052 0.000360773 4.39589e-20
0.000105016 9.22792e-05 -6.91216e-20
0.000105912 -5.5325e-05 7.03343e-20
5.51622e-05 0.000187658 7.27596e-20
-3.63143e-05 -0.000213422 9.70128e-21
9.31184e-05 3.34968e-05 6.66963e-21
9.49177e-05 4.2163e-05 -1.14596e-19
0.000116966 0.00014004 -6.48773e-20
0.000143816 -0.000134433 1.24904e-19
-8.82209e-05 -2.13931e-05 1.57039e-19
-8.14078e-05 2.36367e-05 5.63887e-20
-0.000298248 7.0703e-06 1.45519e-20
0.000140967 0.000234476 6.12393e-20
0.000109115 0.000239602 -9.58001e-20
0.00016412 0.000188684 9.21621e-20
0.000133776 -0.000258661 1.67953e-19
0.000198835 -0.000198454 1.79474e-19
-0.000144603 -0.000270571 9.94381e-20
-0.000306849 -5.41783e-06 9.88318e-20
0.000142872 -5.92049e-05 4.48684e-20
0.000497674 -6.55879e-05 1.96451e-19
0.000633005 8.32788e-05 6.0633e-20
0.000246227 0.000101966 -1.37031e-19
0.000219486 5.69119e-05 1.00651e-19
0.000163984 2.01647e-05 6.00266e-20
0.000213545 8.44352e-05 1.28542e-19
0.000315385 -2.88711e-06 -8.54925e-20
0.000295524 -9.48153e-05 3.03165e-20
0.000213667 6.44825e-05 -7.09406e-20
0.000171318 0.000109952 4.36557e-20
0.000178049 0.000107855 1.51582e-19
0.000225969 -8.64387e-05 -4.91127e-20
0.000228078 -8.57819e-05 9.58001e-20
VECTORS seepage_velocity_TPM float
-1.44854e-05 -4.34462e-05 3.09644e-21
-4.49041e-06 3.56912e-05 -7.10513e-21
7.11003e-06 -3.57135e-05 2.29549e-20
-3.23888e-05 -6.16578e-06 -3.64303e-21
-4.0665e-05 -1.07218e-05 -6.38959e-26
-5.38128e-06 4.6048e-05 -9.10978e-22
8.00186e-06 -4.60836e-05 2.62351e-20
-4.369e-05 1.09747e-05 -1.45716e-21
-1.36886e-05 2.20669e-05 -1.36634e-20
-2.29522e-05 -5.33219e-05 -2.00304e-21
-2.20013e-05 5.7041e-05 7.46557e-21
5.96888e-05 2.4311e-05 1.45676e-21
3.16619e-05 3.06571e-05 2.51438e-20
-2.91851e-05 -3.05567e-05 3.42543e-20
-1.44032e-05 -3.0154e-05 4.91814e-21
-4.44547e-06 -2.86005e-05 7.65126e-21
4.64096e-06 4.70787e-05 1.60325e-20
-2.10122e-06 -4.71045e-05 3.40692e-20
4.13795e-05 4.16555e-06 -6.37604e-21
-1.72753e-05 -6.43538e-05 4.18865e-21
-1.74399e-05 6.58128e-05 2.7316e-21
7.17148e-05 1.65583e-05 1.82015e-22
-2.77617e-05 -2.87714e-05 5.64631e-21
-4.47819e-05 1.04915e-05 4.91723e-21
-3.19014e-05 -2.899e-05 8.0147e-21
1.91863e-05 4.24198e-05 -1.40253e-20
-3.07314e-05 5.80379e-06 -7.10395e-21
-4.64872e-05 -9.69257e-05 2.73121e-22
-2.66968e-05 -1.35207e-05 -1.73062e-20
0.000103276 4.88637e-05 -4.18779e-21
-1.4856e-07 4.40182e-05 1.16613e-20
2.70926e-06 -4.40306e-05 3.58947e-20
-0.000101079 -5.13578e-05 1.09337e-20
-0.000101433 4.94184e-05 -1.23915e-20
-6.57438e-05 2.15005e-05 6.55574e-21
-2.33951e-05 -1.89265e-05 8.56159e-21
-4.10104e-05 -2.06309e-05 2.91518e-21
-4.29443e-05 2.10014e-05 5.83042e-21
-7.09388e-06 -1.43871e-05 -1.51208e-20
2.88846e-05 2.94921e-05 -9.28933e-21
-4.21275e-05 2.81584e-05 4.7354e-21
-1.24149e-05 2.07288e-07 -1.49381e-20
-2.72498e-05 2.97724e-05 6.55689e-21
-1.47138e-05 4.32345e-05 -1.70769e-26
6.68348e-06 2.85992e-05 -1.85821e-20
-4.26603e-05 2.81097e-05 5.64557e-21
-0.000105462 -0.000105462 1.63777e-21
0.000109243 0.000109243 -1.27383e-21
9.71408e-06 2.23459e-05 2.31376e-20
0.000109667 0.000115923 -2.36632e-21
-0.000112019 -0.000105805 3.6405e-21
5.07482e-05 -5.25224e-06 1.12976e-20
5.07113e-05 5.22371e-06 6.74216e-21
3.55992e-05 6.30778e-06 -5.10133e-21
4.83509e-05 -2.21164e-05 1.16619e-20
4.83096e-05 2.21191e-05 6.55986e-21
1.81712e-05 2.96751e-05 -1.67584e-20
-4.25349e-05 -7.97297e-05 3.64443e-21
-4.26626e-05 8.00461e-05 -6.01322e-21
3.86665e-05 -1.47843e-05 -6.74134e-21
3.86056e-05 1.46983e-05 5.8303e-21
-5.77767e-05 2.52817e-05 8.73996e-21
-4.61142e-05 7.27708e-05 1.16622e-20
4.90392e-05 -7.33647e-05 2.29596e-20
2.82017e-05 -2.91256e-05 -7.28505e-22
-5.10754e-05 9.79053e-05 9.92282e-21
-9.78923e-05 5.18593e-05 1.6387e-21
5.70187e-06 2.83895e-05 -1.53024e-20
-3.21968e-06 -2.83129e-05 1.20231e-20
8.61957e-05 -3.57034e-05 1.38508e-20
8.6221e-05 3.57139e-05 -1.67668e-20
6.12905e-06 -9.02471e-06 2.05863e-20
3.93217e-05 1.35978e-05 3.82586e-21
3.94065e-05 -1.36163e-05 -2.73281e-21
-2.07125e-05 -1.42313e-05 -4.37223e-21
-7.20767e-06 -2.19742e-05 2.69641e-20
-6.07697e-05 -1.29636e-05 6.55555e-21
-5.24598e-05 -7.68112e-06 8.01336e-21
-3.83388e-05 -3.2398e-05 -3.09717e-21
-4.48509e-05 7.76826e-05 2.7334e-21
-4.47427e-05 -7.74948e-05 6.92466e-21
-4.61177e-05 -5.17221e-05 1.82076e-22
-3.38194e-05 1.9983e-05 3.64278e-22
4.07532e-05 1.48136e-05 7.10484e-21
-6.99633e-06 8.22881e-05 2.95204e-20
8.94377e-06 -8.31191e-05 1.3849e-20
-3.96703e-05 3.56715e-05 -4.37257e-21
4.10387e-06 3.78978e-05 2.55063e-21
-1.39981e-06 -3.78931e-05 3.0789e-20
3.46556e-05 -5.7971e-06 -3.64405e-21
3.42899e-05 5.42209e-06 4.00851e-21
6.09919e-05 -4.19069e-05 -1.82176e-22
4.91551e-05 8.06221e-06 -3.46102e-21
3.66461e-05 -1.83154e-05 1.82233e-22
3.64552e-05 1.83492e-05 -1.82222e-22
4.1244e-05 -1.51122e-05 -1.63955e-21
1.80938e-05 -4.21408e-05 -1.82119e-22
3.29984e-05 -1.44875e-05 -3.64405e-21
3.24972e-05 1.4176e-05 2.22446e-27
-3.54796e-05 1.62179e-05 -6.19345e-21
2.01728e-05 1.24424e-05 -7.10524e-21
-4.24926e-05 -2.96663e-05 6.92109e-21
-1.5176e-05 3.6063e-06 5.46554e-22
-3.90607e-06 8.64658e-06 -1.23886e-20
5.07865e-05 7.19641e-06 -3.64281e-21
-3.47406e-05 2.08972e-05 6.01153e-21
-3.66248e-05 -1.70756e-05 -4.6858e-26
-2.80684e-05 -3.51432e-05 3.6424e-21
-3.24423e-05 -2.17472e-05 6.5571e-21
7.27569e-07 -3.89946e-05 1.60305e-20
1.96084e-06 3.90076e-05 -5.82918e-21
6.0295e-05 -2.37837e-05 2.18517e-21
-2.06687e-05 1.41153e-05 8.01571e-21
3.04002e-05 -4.29603e-05 -2.00343e-21
3.05463e-05 4.33591e-05 -5.46388e-21
-3.3761e-05 1.99881e-05 -1.09295e-21
-1.33754e-05 2.17594e-05 -1.4757e-20
-1.36857e-05 -2.25605e-05 -1.09311e-20
-7.36774e-06 -4.04173e-05 1.09276e-21
-3.16107e-05 3.03635e-05 -1.0929e-21
6.58227e-06 -5.66117e-05 6.64668e-21
9.45737e-06 5.79881e-05 -2.73155e-21
6.41009e-05 -3.05784e-06 2.5494e-21
6.24869e-05 4.16363e-05 -8.37712e-21
4.32256e-05 -2.51417e-05 3.64306e-22
5.67371e-05 -9.82794e-05 -7.10708e-21
-5.65898e-05 9.80178e-05 2.07746e-20
4.94718e-05 -8.82012e-06 -4.18923e-21
8.69432e-06 2.19256e-05 -1.36629e-20
3.60587e-05 -6.8432e-06 -1.18424e-20
-6.93758e-06 4.09704e-05 -6.19236e-21
-1.05181e-05 2.29802e-05 -6.55885e-21
1.25249e-05 -2.28905e-05 3.18826e-20
2.05929e-05 -1.28156e-05 1.18421e-20
1.54205e-05 -4.62488e-06 -1.47574e-20
-6.26961e-06 -2.20299e-05 4.37189e-21
2.67831e-05 2.51511e-07 -3.27988e-21
4.24152e-05 2.71375e-05 -6.55661e-21
-1.4415e-05 -4.62237e-06 6.74067e-21
4.24714e-05 2.77048e-05 -7.83199e-21
-4.46865e-05 5.55587e-05 7.83042e-21
-2.32602e-05 1.80446e-05 1.4573e-21
1.75983e-05 -6.28916e-05 -3.1871e-21
1.85343e-05 6.287e-05 -1.01988e-20
6.99582e-05 -1.60479e-05 4.55302e-22
4.33573e-05 -2.87476e-05 -1.82148e-22
1.64021e-06 4.54408e-05 -9.28992e-21
1.04536e-06 -4.53761e-05 1.58476e-20
3.43792e-05 -5.7585e-05 1.09253e-21
3.38401e-05 5.51825e-05 -1.129e-20
2.18852e-05 -7.82642e-06 1.27551e-21
2.19702e-05 7.54869e-06 -5.46626e-22
2.4209e-05 1.51391e-05 -7.65135e-21
1.46283e-05 2.05907e-05 2.8421e-20
-3.25373e-05 -1.96141e-05 1.02014e-20
-6.48954e-05 -5.11779e-05 4.91617e-21
1.0207e-05 4.19954e-05 -1.60277e-20
4.32947e-05 1.45829e-05 -2.18656e-21
4.33785e-05 -1.46464e-05 5.10195e-21
3.92521e-05 -1.53901e-05 -2.91508e-21
3.91782e-05 1.52925e-05 4.73686e-21
-1.97896e-05 -0.000191204 5.00621e-21
0.000196342 3.02149e-05 3.64087e-21
1.0209e-05 -4.10138e-05 4.73546e-21
5.95963e-05 -3.95494e-05 4.37371e-21
5.95652e-05 3.96422e-05 -6.56057e-21
4.00713e-05 2.09487e-05 -2.18588e-21
-8.1035e-05 -5.15951e-06 6.82802e-21
4.92249e-05 -8.9681e-06 -7.65067e-21
-1.70597e-06 3.49768e-05 1.82173e-21
4.26031e-06 -3.51387e-05 1.63953e-20
-2.89285e-05 4.35605e-05 8.37749e-21
1.46061e-05 4.76233e-06 1.34821e-20
4.02381e-05 -2.10548e-05 2.186e-21
-5.99951e-06 -1.04386e-05 1.05663e-20
-2.95003e-05 2.42233e-05 -4.19065e-21
3.22086e-05 -2.41803e-05 3.44359e-20
2.40775e-05 -1.488e-05 1.09306e-20
-2.37859e-05 -1.62048e-05 3.27903e-21
-4.17981e-05 -2.6913e-05 5.64572e-21
6.89092e-06 9.62668e-06 -1.54858e-20
-1.37178e-05 2.94751e-05 7.28675e-22
-7.19814e-06 -4.09016e-05 7.83213e-21
3.43243e-05 1.59948e-05 6.19397e-21
1.05102e-05 4.12616e-05 -1.67574e-20
-1.28642e-05 -1.99924e-05 2.89685e-20
-5.14089e-05 9.40231e-05 9.55692e-21
-9.22746e-05 5.24024e-05 3.82272e-21
3.44272e-05 -1.60854e-05 1.82183e-22
4.16408e-05 -4.84134e-06 -6.74043e-21
8.73115e-05 3.83357e-05 -1.89541e-20
8.72714e-05 -3.82896e-05 8.01907e-21
8.73676e-06 -2.23704e-05 2.55045e-21
-5.73156e-05 -4.14716e-05 1.02038e-20
-5.86307e-05 4.0449e-05 -9.47501e-21
-2.43896e-05 -1.08242e-05 -1.25693e-20
-5.12852e-06 9.01019e-06 1.25703e-20
5.55097e-05 6.79423e-05 -7.73721e-21
-6.20216e-05 -5.10362e-05 2.36669e-21
5.52379e-05 -7.57731e-05 2.18492e-21
5.6133e-05 7.66888e-05 -9.46823e-21
8.55739e-05 -4.71541e-05 3.1864e-21
6.78537e-06 -8.00924e-06 2.02228e-20
-5.66605e-06 -8.45107e-05 2.36671e-21
9.06419e-05 6.58282e-06 -1.36542e-21
4.6731e-05 6.14964e-05 3.954e-20
-4.41183e-05 -6.11158e-05 2.95186e-20
-2.81936e-05 -2.27358e-05 7.28658e-22
-1.21856e-05 4.84832e-07 -1.31167e-20
3.26699e-05 -4.48728e-05 -3.27805e-21
3.28693e-05 4.55917e-05 -1.09267e-20
-2.78621e-05 8.12977e-06 -1.69412e-20
1.71902e-05 -2.89665e-05 -2.18594e-21
4.56627e-05 -2.31299e-05 7.47141e-21
4.55686e-05 2.31484e-05 3.64463e-21
-3.40558e-05 -1.82579e-05 1.12949e-20
-2.37101e-05 1.59396e-05 7.10452e-21
-2.723e-05 -1.2891e-05 -3.82557e-21
-5.18206e-05 -2.91363e-05 5.4629e-21
-6.40313e-06 2.3693e-05 8.74397e-21
-0.000108118 0.000108118 3.04797e-21
-6.57534e-06 4.19274e-05 -8.92499e-21
9.60579e-06 -4.23582e-05 8.56081e-21
9.29631e-06 -8.2656e-05 2.76963e-20
-6.73319e-06 8.26234e-05 2.66031e-20
2.58704e-05 -1.30315e-05 3.09779e-21
2.58468e-05 1.26006e-05 4.55562e-21
-4.06462e-05 2.16539e-05 6.19434e-21
-4.01921e-05 -2.0961e-05 4.3724e-21
-7.11982e-05 -1.29958e-05 -6.01303e-21
-7.00689e-05 1.32683e-05 8.74611e-21
8.2625e-05 3.86082e-05 -2.66076e-20
8.26218e-05 -3.85599e-05 1.05701e-20
2.62032e-05 2.42464e-06 8.01674e-21
2.62446e-05 -2.26573e-06 -1.23895e-20
4.16187e-05 1.46799e-05 1.63947e-21
-1.39041e-06 3.71465e-05 -5.64695e-21
4.05574e-06 -3.6331e-05 4.91847e-21
-5.88319e-05 4.07619e-05 6.91978e-21
4.1486e-05 -1.50722e-05 3.46106e-21
-3.42369e-06 -3.91128e-05 5.10045e-21
3.55605e-05 2.15701e-05 -9.6541e-21
-2.61261e-05 -8.16946e-07 1.09313e-21
-2.58262e-05 2.09653e-07 3.27936e-21
3.54695e-05 -2.18859e-05 -9.10732e-22
-2.68587e-05 2.36779e-05 -4.00804e-21
4.64741e-05 8.05011e-05 2.27786e-20
-4.57129e-05 -7.91774e-05 4.92016e-21
-7.07344e-06 -2.74069e-05 1.98581e-20
-3.42285e-05 -2.06146e-05 4.55405e-21
-3.83141e-06 -4.58405e-05 -1.31184e-20
5.76016e-05 -9.83094e-05 1.95704e-21
9.93293e-05 -4.65508e-05 3.04931e-21
2.18009e-05 -1.80838e-05 4.92002e-21
2.15078e-05 1.77041e-05 9.11061e-22
-5.72782e-06 4.80206e-05 -5.64827e-21
5.79239e-06 3.77488e-05 -1.82163e-20
5.1293e-05 2.1898e-05 -4.73583e-21
3.93967e-05 -8.92501e-06 1.27538e-21
3.93532e-05 8.75139e-06 1.2754e-20
-9.28996e-05 -8.01686e-10 -2.46005e-20
-9.29254e-05 6.71958e-10 8.7469e-21
8.98486e-06 -2.09317e-05 1.0202e-20
-3.51392e-05 -2.13641e-05 1.02009e-20
3.6367e-05 2.19682e-05 -5.28429e-21
3.65651e-05 -2.19774e-05 3.64439e-21
1.00266e-05 2.68218e-05 1.76714e-20
4.52593e-06 7.38748e-06 2.02218e-20
0.000107705 -0.000107705 -3.18458e-22
-3.05248e-05 9.67102e-06 -9.10952e-22
-3.08261e-05 -1.03549e-05 2.73297e-21
-6.75907e-06 2.14566e-05 1.74885e-20
5.03428e-05 -2.22543e-05 -2.36799e-21
-3.45592e-05 1.76155e-05 1.82214e-22
-4.46338e-05 -5.96961e-06 1.82181e-22
-4.48437e-05 5.83689e-06 2.73288e-21
-2.683e-05 1.29057e-05 -1.34806e-20
2.5624e-05 3.81613e-05 -3.64465e-21
2.58207e-05 -3.80622e-05 -3.09796e-21
1.91863e-05 0.00010822 3.37134e-20
-1.71215e-05 -0.000108221 6.92494e-21
-9.71611e-06 0.000195001 2.0934e-21
-0.000190496 9.97317e-06 1.54734e-21
2.95721e-05 -2.09843e-06 4.19041e-21
2.97312e-05 1.76593e-06 -1.45756e-21
-1.29418e-06 -6.87531e-06 2.09513e-20
0.000105773 -0.000128647 7.28077e-22
0.000134537 -0.000103567 5.00508e-22
3.53838e-05 -8.54274e-05 8.01897e-21
3.54087e-05 8.54874e-05 2.55151e-21
-3.24814e-05 1.93852e-05 -1.27517e-21
3.09937e-05 -2.95417e-05 1.27512e-21
3.15051e-05 -1.303e-05 1.82167e-22
3.14679e-05 1.28495e-05 1.23887e-20
2.33724e-05 -1.94278e-05 6.55816e-21
3.077e-05 2.98254e-05 -8.56146e-21
2.08648e-07 -9.06793e-05 -2.36707e-21
3.53681e-06 8.34726e-05 9.10413e-23
9.68147e-05 8.0039e-07 5.73569e-21
2.34575e-05 1.92264e-05 -4.37205e-21
1.06607e-05 9.1956e-05 6.7359e-21
-8.9875e-05 -1.21228e-05 3.27693e-21
3.94428e-05 -4.1911e-06 5.8305e-21
3.96139e-05 3.67537e-06 -7.28804e-22
3.8405e-05 -7.73698e-06 1.00214e-20
3.84564e-05 7.69067e-06 5.46619e-21
-0.000106366 0.000131651 5.46036e-21
-0.000130559 0.000106355 -1.82032e-22
3.44401e-05 1.49829e-05 4.91893e-21
3.4525e-05 -1.5171e-05 4.91886e-21
1.19958e-05 6.35199e-05 3.58968e-20
-9.86392e-06 -6.31119e-05 2.36883e-20
2.97118e-05 1.24579e-05 1.33012e-20
2.94871e-05 -1.23834e-05 -3.82632e-21
4.51963e-05 -2.73658e-05 4.73782e-21
4.5097e-05 2.74112e-05 -6.37782e-21
-2.63841e-05 -6.5273e-06 5.46511e-22
-2.58463e-05 6.11824e-06 -1.09309e-21
-4.21645e-05 -8.00964e-05 1.36669e-20
4.15532e-05 -4.97819e-05 -2.3692e-21
4.98602e-05 -4.20945e-05 3.28043e-21
4.1464e-05 4.99611e-05 2.00471e-21
4.98784e-05 4.21746e-05 -8.01874e-21
4.4728e-05 8.09517e-05 2.36891e-20
-9.23176e-05 1.48495e-06 -2.07733e-20
-9.22245e-05 -1.73733e-06 7.83557e-21
6.70275e-05 2.77649e-05 9.47648e-21
0.000161312 2.12363e-05 2.0414e-20
0.000161359 -2.12425e-05 -2.33303e-20
6.7011e-05 -2.7758e-05 -9.84102e-21
8.41456e-05 1.81468e-06 2.11395e-20
5.95828e-05 1.80754e-05 1.93158e-20
7.89562e-05 -2.22256e-05 1.38505e-20
8.41413e-05 -1.7891e-06 -2.18686e-20
7.89532e-05 2.2246e-05 -2.51497e-20
5.95875e-05 -1.80439e-05 -2.00454e-21
6.25002e-05 -1.76827e-05 2.00449e-20
6.21243e-05 -1.78023e-05 1.67659e-20
6.25034e-05 1.76966e-05 -5.10235e-21
6.21015e-05 1.78243e-05 -1.12988e-20
-5.76308e-06 3.63914e-05 -6.01183e-21
-6.12914e-06 -3.65737e-05 1.65778e-20
-3.27763e-05 5.99106e-06 6.77583e-20
-4.18694e-05 1.08926e-05 4.68088e-20
-6.70254e-06 4.73153e-05 7.2872e-22
-7.06214e-06 -4.74214e-05 -2.27737e-20
-4.18996e-05 -1.07677e-05 3.78843e-20
-1.40645e-05 -2.20745e-05 3.13336e-20
-2.35072e-05 -5.29639e-05 9.12279e-20
2.41231e-05 5.4568e-05 1.83912e-20
5.53839e-05 2.51909e-05 2.36715e-20
3.07117e-05 -3.1888e-05 -3.55291e-20
3.14531e-05 3.14379e-05 1.71265e-20
-3.36761e-05 2.0128e-05 2.55017e-20
3.52557e-06 -4.84092e-05 -1.56682e-20
3.84249e-06 4.82353e-05 1.51212e-20
3.4213e-05 5.35656e-06 2.0401e-20
-1.76529e-05 -6.42485e-05 8.44989e-20
1.73908e-05 6.48831e-05 1.11089e-20
6.71794e-05 1.79508e-05 2.07603e-20
1.61366e-05 4.35186e-05 1.22033e-20
1.66784e-05 -4.28738e-05 5.628e-20
-3.08283e-05 -6.3087e-06 3.24223e-20
-4.59727e-05 -9.55481e-05 5.34398e-20
-2.72477e-05 1.37224e-05 5.82929e-20
-1.03702e-06 4.51173e-05 3.82631e-21
-1.43556e-06 -4.52388e-05 -3.71701e-20
-0.000101913 -4.92864e-05 7.89113e-20
-0.000101466 5.11035e-05 -8.01837e-21
-2.20151e-05 2.97475e-05 2.69581e-20
-2.65906e-05 3.14858e-05 4.86297e-20
-6.13774e-05 1.98113e-05 5.68159e-20
-4.34485e-05 -2.09308e-05 8.01703e-20
-4.15727e-05 2.03747e-05 9.1103e-22
-7.11429e-06 1.4612e-05 5.99334e-20
2.58002e-05 -3.07128e-05 6.61134e-20
-1.28033e-05 -4.40593e-07 4.80909e-20
-4.41717e-05 2.88496e-05 5.5367e-20
-2.90412e-05 -2.93882e-05 9.3433e-20
-5.10098e-05 -7.99588e-06 4.42556e-20
-4.653e-05 9.3633e-06 5.26324e-20
-1.60016e-05 -4.34898e-05 8.4147e-20
4.67926e-06 -2.96703e-05 1.43912e-20
5.05546e-06 2.94711e-05 4.37206e-21
-1.44494e-05 4.37505e-05 5.33663e-20
2.67099e-05 3.10717e-05 8.1961e-21
-0.000103261 -0.000103255 -2.40284e-20
-0.00010168 0.000101682 2.76693e-20
9.15044e-06 -2.37222e-05 -7.46951e-21
9.17855e-06 2.29967e-05 1.80361e-20
1.56106e-05 3.07494e-05 6.73952e-21
-0.000101978 0.000110971 2.93985e-20
-0.00010757 -0.000103464 1.54734e-20
5.31281e-05 -9.70912e-06 2.55076e-21
5.268e-05 1.05231e-05 4.53686e-20
2.49576e-05 8.78619e-06 1.47553e-20
4.97718e-05 -3.33211e-05 -2.0042e-20
4.9401e-05 3.35915e-05 3.73508e-20
1.57063e-05 -3.06812e-05 3.00542e-20
-4.31323e-05 -7.96746e-05 4.28237e-20
-4.31026e-05 7.9059e-05 3.28002e-20
3.6519e-05 -2.10056e-05 1.25703e-20
3.65355e-05 2.13518e-05 3.98974e-20
-4.82013e-05 -7.47682e-05 -3.62632e-20
-4.80446e-05 7.47779e-05 -8.19983e-21
5.0056e-05 9.44865e-05 2.43062e-20
9.48722e-05 5.00999e-05 8.0111e-21
4.15523e-06 2.92813e-05 -7.10437e-21
3.77621e-06 -2.94776e-05 2.73241e-20
0.000104201 -4.31577e-05 2.91612e-21
0.000103034 4.26783e-05 1.20278e-20
-4.2223e-05 -2.94137e-05 5.77353e-20
3.45995e-05 1.90186e-05 3.02393e-20
3.46108e-05 -1.86414e-05 3.66148e-20
-3.88395e-05 3.24121e-05 1.73077e-20
-5.91984e-05 -1.33727e-05 7.15662e-20
-4.47107e-05 7.74434e-05 1.43975e-20
-4.49074e-05 -7.77743e-05 4.04615e-20
-3.33278e-05 -2.05863e-05 5.73748e-20
3.34636e-05 1.80549e-05 2.36806e-20
-4.73168e-05 -5.14643e-05 7.90342e-20
-8.17209e-06 -8.45096e-05 -1.03876e-19
-7.8496e-06 8.45568e-05 -5.2844e-21
-4.01778e-05 -3.55873e-05 7.79789e-20
3.27196e-06 3.8624e-05 9.65542e-21
2.95074e-06 -3.85818e-05 -6.55837e-21
2.48901e-05 -8.75034e-06 1.67597e-20
2.44601e-05 8.44976e-06 1.49381e-20
5.58605e-05 -4.2622e-05 6.90175e-20
4.20596e-05 9.29588e-06 1.91247e-20
2.99769e-05 2.84057e-05 1.85828e-20
3.02338e-05 -2.81717e-05 1.02023e-20
3.40135e-05 -1.81557e-05 5.04574e-20
2.2696e-05 -2.02595e-05 2.4776e-20
2.20799e-05 2.00782e-05 2.14971e-20
-3.61084e-05 -1.61285e-05 3.5703e-20
-3.78778e-05 2.98309e-05 6.08257e-20
1.91243e-05 1.46771e-05 3.02409e-20
1.85389e-05 -1.42333e-05 7.28684e-22
-5.82488e-06 -9.87953e-06 2.71431e-20
-5.47579e-06 9.65887e-06 7.28713e-21
4.5105e-05 7.68657e-06 2.42223e-20
-6.35859e-05 6.19689e-05 5.93584e-20
-3.5184e-05 -2.10122e-05 7.01345e-20
-3.63539e-05 1.72405e-05 5.665e-20
-8.64615e-05 1.41518e-05 5.55352e-20
-3.36978e-05 2.05687e-05 3.66102e-20
3.73958e-07 -3.9918e-05 2.2588e-20
9.38785e-07 3.98327e-05 -4.00753e-21
-2.9678e-05 -3.55637e-05 9.16055e-20
5.51329e-05 -2.3668e-05 6.65546e-20
-2.0998e-05 -1.44039e-05 9.69148e-20
-2.10477e-05 1.55811e-05 1.49381e-20
2.73393e-05 -4.34906e-05 6.44709e-20
-2.87942e-05 4.65056e-05 5.84606e-20
-3.46172e-05 -2.04883e-05 3.93459e-20
-1.39749e-05 -2.19867e-05 3.16992e-20
-1.42839e-05 2.35014e-05 3.66174e-20
8.15137e-06 4.18646e-05 1.80305e-20
-3.14819e-05 -2.98806e-05 8.17847e-20
4.86618e-06 -5.63854e-05 7.04714e-20
-7.35191e-06 5.80847e-05 1.57515e-20
5.88484e-05 -6.25228e-06 2.96816e-20
3.85849e-05 -2.6279e-05 5.62742e-20
-5.79992e-05 0.000100465 -2.64237e-20
-5.79016e-05 -0.000100294 -3.9006e-20
-4.14781e-05 -2.49654e-05 6.0281e-20
4.35614e-05 -9.4161e-06 5.0995e-20
-6.57914e-05 -5.21686e-05 7.43803e-20
6.61425e-06 -2.32469e-05 3.07842e-20
6.86738e-06 2.35527e-05 1.22049e-20
2.55888e-05 -9.27098e-06 1.58483e-20
-8.38031e-06 -4.0897e-05 7.32133e-20
-1.24417e-05 -2.42249e-05 6.55838e-21
-1.20905e-05 2.39992e-05 5.10117e-21
3.91225e-05 5.5051e-05 2.40377e-20
5.80615e-05 3.91751e-05 2.38556e-20
-8.29455e-05 -3.71851e-06 7.42899e-20
1.42848e-05 -2.74696e-06 3.24281e-20
1.36323e-05 3.38673e-06 1.22051e-20
1.18588e-05 7.2798e-07 -1.51207e-20
-1.48293e-05 4.08446e-06 1.00011e-19
-1.36705e-05 -3.95654e-06 -4.91887e-21
-2.403e-05 -1.79983e-05 7.68699e-20
1.60357e-05 -6.23892e-05 6.07343e-20
-1.46804e-05 6.22627e-05 4.20684e-20
6.37231e-05 -1.65296e-05 4.92608e-20
3.8773e-05 -2.95666e-05 5.59129e-20
6.60625e-07 4.54249e-05 5.64655e-21
8.7099e-08 -4.56735e-05 3.33328e-20
-2.97378e-05 5.95205e-05 5.88165e-20
3.09606e-05 -5.59972e-05 6.64635e-20
4.49499e-06 1.18959e-05 -2.00398e-21
4.11186e-06 -1.20512e-05 -7.83369e-21
2.19741e-05 -1.65283e-05 1.76692e-20
2.24412e-05 1.68958e-05 2.55033e-20
1.49867e-05 -2.16373e-05 1.49385e-20
1.43258e-05 2.12054e-05 1.11132e-20
-3.24129e-05 1.98224e-05 1.36624e-20
8.0885e-06 -4.24679e-05 5.75515e-20
4.1181e-05 2.12376e-05 2.49601e-20
4.14784e-05 -2.08606e-05 2.91493e-21
3.57537e-05 -2.31204e-05 4.44444e-20
3.45804e-05 -1.90031e-05 2.5686e-20
3.45755e-05 1.9322e-05 3.42487e-20
-2.00778e-05 -0.000186426 1.3834e-20
2.76133e-05 4.3024e-05 1.96692e-20
-0.000192086 2.25274e-05 3.66782e-20
-7.10852e-06 4.27516e-05 4.18891e-20
6.638e-05 -5.99754e-05 2.1867e-21
6.56556e-05 5.99274e-05 2.47819e-20
3.60373e-05 2.34524e-05 3.51554e-20
4.21386e-05 -1.0249e-05 2.84137e-20
3.92739e-05 2.73734e-05 2.87746e-20
-2.67064e-06 -3.57563e-05 -5.10071e-21
-2.43775e-06 3.57562e-05 2.16775e-20
-3.10944e-05 2.52445e-05 -4.19059e-21
-3.13298e-05 -2.54636e-05 -2.66014e-20
6.21553e-06 1.07175e-05 2.00395e-20
5.09933e-06 -1.08708e-05 2.62315e-20
-1.45884e-05 -2.97333e-05 4.66296e-20
8.37907e-06 4.12389e-05 3.46061e-21
3.15013e-05 -1.94473e-05 2.787e-20
3.17242e-05 1.97337e-05 3.40638e-20
3.94533e-05 2.99743e-05 1.91237e-20
-1.38013e-05 3.00251e-05 4.24407e-20
8.37795e-06 -4.17679e-05 3.82491e-20
5.03965e-05 9.1315e-05 2.72175e-20
9.26318e-05 5.0306e-05 1.43825e-20
-5.7516e-05 4.30446e-05 7.59353e-20
3.448e-05 -6.08291e-06 3.31514e-20
0.000107993 -5.22998e-05 1.25749e-20
0.00010698 5.21719e-05 1.38504e-20
-5.90815e-05 -4.03111e-05 8.50972e-20
-5.79155e-05 4.12641e-05 -3.27978e-21
-2.44865e-05 1.04955e-05 6.63047e-20
-5.73502e-06 9.34466e-06 -9.29099e-21
-5.79387e-06 -9.17941e-06 7.26835e-20
-4.84008e-05 6.46455e-05 3.6868e-20
-6.07831e-05 -5.19641e-05 5.59841e-20
5.20962e-05 -7.44272e-05 9.83197e-20
-4.73246e-05 7.73772e-05 4.54288e-20
7.79929e-05 -4.54337e-05 5.05259e-20
-5.3117e-05 -2.87252e-05 7.5571e-20
-6.42927e-06 -8.33779e-05 7.72853e-20
-7.89626e-05 7.2227e-07 5.27981e-20
4.58792e-05 -6.29301e-05 -3.77191e-20
4.68286e-05 6.29032e-05 1.69454e-20
-2.83673e-05 2.24386e-05 2.62332e-20
-1.24245e-05 -8.98496e-07 5.42844e-20
-2.81522e-05 4.60244e-05 5.62703e-20
2.97737e-05 -4.58312e-05 7.26595e-20
-2.82473e-05 -8.36073e-06 5.95658e-20
4.52174e-05 -3.50362e-05 -8.92827e-21
4.47786e-05 3.53261e-05 2.20475e-20
-3.47459e-05 1.82528e-05 8.37997e-21
-2.44115e-05 -1.64516e-05 9.14451e-20
-2.15916e-05 1.58369e-05 2.4592e-20
-2.78882e-05 1.29663e-05 4.82733e-20
-7.09659e-06 -2.41206e-05 5.99296e-20
-6.34375e-06 2.58739e-05 2.98744e-20
0.000106934 0.000106931 5.32433e-21
-7.85739e-06 -4.22772e-05 3.78847e-20
-7.1471e-06 4.2672e-05 2.16745e-20
-8.13907e-06 -8.45435e-05 -6.30489e-20
-7.77797e-06 8.46436e-05 -7.28876e-22
1.19869e-05 -2.23402e-05 -6.55863e-21
1.21176e-05 2.18324e-05 -2.91499e-21
-4.10765e-05 -2.16045e-05 8.81791e-20
-4.03762e-05 2.08588e-05 -2.91496e-21
-7.16806e-05 1.32682e-05 9.45713e-20
-7.06072e-05 -1.32065e-05 -1.18439e-20
9.48879e-05 5.2876e-05 2.00453e-20
9.62354e-05 -5.29867e-05 3.68126e-20
2.55761e-05 -2.86548e-07 3.58908e-20
2.47227e-05 9.69104e-07 -7.28722e-22
3.73444e-05 1.74582e-05 2.87786e-20
-2.44755e-06 -3.72879e-05 3.02371e-20
3.20852e-05 -2.37772e-05 5.42771e-20
-2.15138e-06 3.76632e-05 3.47918e-20
3.68682e-05 -1.77052e-05 4.57177e-20
4.31278e-06 3.881e-05 -2.36804e-21
3.23956e-05 2.4139e-05 2.16749e-20
-2.59466e-05 4.71184e-07 1.15138e-19
-2.67306e-05 -5.72871e-07 -1.93117e-20
-2.75697e-05 -2.37847e-05 5.6476e-20
4.70355e-05 -8.14783e-05 4.19215e-21
4.73113e-05 8.19491e-05 3.46231e-21
-3.46009e-05 2.02394e-05 2.09486e-20
-4.9201e-06 4.56261e-05 3.22491e-20
5.43375e-05 -9.57264e-05 8.53403e-20
9.43124e-05 -4.48087e-05 4.5697e-20
7.57695e-06 -2.7817e-05 9.65617e-21
7.36094e-06 2.74296e-05 -1.45759e-21
-6.44142e-06 -4.78629e-05 3.71699e-20
3.86276e-06 -3.84053e-05 3.51553e-20
4.55862e-05 2.39356e-05 3.1327e-20
3.76508e-05 -1.19897e-05 4.00793e-21
3.76392e-05 1.25729e-05 4.04451e-20
-9.34174e-05 -1.38447e-09 5.23108e-20
-9.33527e-05 4.30701e-09 2.40549e-20
-3.48256e-05 2.04142e-05 4.09845e-20
2.9858e-05 3.33072e-05 2.27743e-20
3.01256e-05 -3.30742e-05 1.27531e-21
9.52865e-06 2.74003e-05 2.36828e-20
9.4044e-06 -2.73627e-05 1.20233e-20
4.17339e-06 -7.50419e-06 4.31736e-20
4.66419e-06 8.12427e-06 8.56227e-21
0.000103674 -0.000103677 -4.29597e-20
-3.09388e-05 1.06038e-05 9.98425e-20
-3.10755e-05 -9.61073e-06 -4.73709e-21
-7.43744e-06 -2.19796e-05 5.28279e-20
-7.03024e-06 2.2367e-05 2.18603e-20
4.44997e-05 -2.39048e-05 5.40938e-20
-3.49398e-05 -1.75539e-05 9.01771e-20
-4.5191e-05 -5.85575e-06 1.04942e-19
-4.494e-05 7.46322e-06 4.00814e-21
-2.73479e-05 -1.28144e-05 3.86196e-20
1.38333e-05 -5.89163e-05 -3.46193e-21
1.36902e-05 5.88859e-05 1.31188e-20
1.88949e-05 0.000110815 -1.64012e-21
1.83955e-05 -0.00011055 -3.22576e-20
8.63154e-06 0.000185172 1.65646e-20
0.00018665 1.29509e-05 -1.12854e-20
2.84122e-05 4.3005e-06 3.58899e-20
2.80989e-05 -3.55459e-06 -1.23878e-20
0.000101143 -0.000126002 -5.50599e-21
0.000123079 -0.000100681 -2.8078e-20
4.527e-05 -0.000109274 -8.01833e-21
4.49579e-05 0.000108521 1.64017e-20
-3.28969e-05 -1.93237e-05 9.05381e-20
3.03061e-05 1.63841e-05 3.71634e-20
3.00411e-05 -1.59472e-05 -8.92635e-21
2.81654e-05 3.13278e-05 2.02185e-20
2.78553e-05 -3.10755e-05 5.19114e-20
-1.19629e-06 -8.88394e-05 1.03966e-19
-2.15128e-06 8.19405e-05 1.75706e-20
8.50279e-05 -2.64809e-06 2.91324e-20
2.15235e-05 2.15988e-05 2.67773e-20
2.10965e-05 -2.13023e-05 2.18583e-20
-8.89193e-06 9.06277e-05 3.1406e-20
8.95403e-05 -6.53072e-06 1.36548e-20
4.02179e-05 -5.89609e-06 -7.83382e-21
4.0311e-05 6.60004e-06 4.17212e-20
3.82559e-05 -1.27027e-05 -3.64347e-22
3.83475e-05 1.34084e-05 3.8989e-20
0.000104886 0.000129039 4.55159e-22
0.000129613 0.00010499 1.30148e-20
3.19737e-05 1.75809e-05 3.37011e-20
3.17626e-05 -1.71826e-05 7.83293e-21
1.10619e-05 -6.4959e-05 -4.99298e-20
1.1518e-05 6.49609e-05 7.83519e-21
2.84859e-05 1.27093e-05 -6.37661e-21
2.9079e-05 -1.12147e-05 3.8261e-20
4.44485e-05 -4.20168e-05 -6.55911e-21
4.4025e-05 4.21404e-05 1.2754e-20
-2.63577e-05 -6.12738e-06 1.04387e-19
-2.81236e-05 6.85968e-06 1.51207e-20
4.11545e-05 7.93459e-05 6.56001e-21
6.07561e-05 6.12103e-05 1.42137e-20
4.15528e-05 -7.95668e-05 -1.45766e-21
6.12917e-05 -6.13058e-05 4.19118e-21
4.3887e-05 -8.2277e-05 -4.73796e-21
-9.29006e-05 -1.28151e-06 7.16179e-20
-9.26546e-05 1.72763e-06 1.36667e-20
4.48013e-05 8.25979e-05 1.67644e-20
7.37593e-05 -3.05547e-05 7.47108e-21
0.000192814 -2.53811e-05 -6.19669e-21
0.000195013 2.56714e-05 6.92678e-21
7.56203e-05 3.13196e-05 -1.45791e-20
9.53639e-05 2.19258e-06 1.89511e-20
6.49273e-05 -1.79567e-05 2.69672e-20
8.95541e-05 2.91133e-05 1.38494e-20
9.69894e-05 -1.08509e-06 7.28949e-22
9.09143e-05 -2.92572e-05 2.22343e-20
6.56095e-05 1.96891e-05 -6.19504e-21
6.94136e-05 -2.69345e-05 9.47517e-21
7.02513e-05 -2.66756e-05 1.56711e-20
6.86279e-05 2.73918e-05 3.71708e-20
6.94673e-05 2.71339e-05 2.80623e-20
-1.53575e-05 -4.33527e-05 1.65744e-20
-6.19464e-06 3.64046e-05 9.83757e-21
5.99769e-06 -3.64729e-05 -1.63957e-20
-3.28067e-05 -6.066e-06 -5.46443e-21
-4.09773e-05 -1.0564e-05 -8.19597e-21
-7.12603e-06 4.72328e-05 1.49393e-20
6.93682e-06 -4.73938e-05 -2.80565e-20
-4.39843e-05 1.10015e-05 -1.54816e-20
-1.41095e-05 2.21299e-05 -8.47105e-20
-2.38643e-05 -5.30948e-05 1.27465e-20
-2.30875e-05 5.62239e-05 1.82084e-21
5.52534e-05 -2.39335e-05 3.49611e-20
3.06216e-05 3.18086e-05 2.40499e-20
-3.10266e-05 -3.17823e-05 -1.02032e-20
-1.52785e-05 -3.0581e-05 1.11109e-20
-4.95731e-06 -2.92974e-05 -1.74879e-20
3.46267e-06 4.83139e-05 3.66192e-20
-3.69978e-06 -4.84784e-05 -1.78541e-20
3.43742e-05 5.0455e-06 -4.73593e-21
-1.83864e-05 -6.37383e-05 1.11088e-20
-1.85116e-05 6.50209e-05 1.0016e-20
6.54379e-05 -1.73783e-05 3.58751e-20
-2.85317e-05 -2.87905e-05 2.64092e-20
-4.503e-05 1.05391e-05 2.0032e-21
-3.24557e-05 -2.89979e-05 2.65936e-20
1.66584e-05 4.27479e-05 7.46765e-21
-3.10822e-05 5.85321e-06 -1.69398e-20
-4.76783e-05 -9.72163e-05 4.0057e-21
-2.71047e-05 -1.36153e-05 -4.48134e-20
9.7415e-05 -4.78944e-05 3.77807e-20
-1.58963e-06 4.50849e-05 2.8788e-20
1.37428e-06 -4.52358e-05 -1.91313e-20
-0.000101716 4.92109e-05 -8.25562e-20
-0.000101463 -5.10573e-05 -4.55609e-20
-6.58103e-05 2.1453e-05 8.37688e-21
-2.39285e-05 -1.89091e-05 1.94907e-20
-4.33383e-05 2.08899e-05 -8.23568e-20
-4.15816e-05 -2.0467e-05 -1.12965e-20
-7.09644e-06 -1.44995e-05 -7.70581e-20
2.5651e-05 3.07596e-05 1.93063e-20
-4.24061e-05 2.79962e-05 -4.18894e-21
-1.28401e-05 3.49942e-07 -8.28847e-20
-2.78857e-05 2.96819e-05 -1.2748e-21
-1.5516e-05 4.29657e-05 8.56051e-21
4.85226e-06 2.94823e-05 -8.19764e-21
-4.29462e-05 2.79474e-05 7.28449e-21
-0.000102648 -0.000102648 -4.36879e-21
0.000103928 -0.000103933 2.12072e-20
9.11411e-06 2.36635e-05 1.23882e-20
0.000104306 -0.000110394 1.50179e-20
-0.000111979 -0.000103099 1.0558e-20
5.29651e-05 -1.02273e-05 9.83886e-21
5.28554e-05 1.02882e-05 -3.09745e-21
2.45016e-05 8.60424e-06 -7.28644e-22
4.96424e-05 -3.36004e-05 1.34826e-20
4.9529e-05 3.3688e-05 -8.5633e-21
1.56878e-05 3.05726e-05 2.36791e-21
-4.30422e-05 7.95509e-05 -7.61717e-20
-4.30965e-05 -7.90056e-05 -1.62183e-20
3.65645e-05 -2.12751e-05 -1.45742e-21
3.64693e-05 2.12831e-05 1.31169e-20
-5.77399e-05 2.52852e-05 1.62059e-20
4.80625e-05 -7.46954e-05 -3.57152e-20
-4.8626e-05 7.47544e-05 2.1866e-21
2.54861e-05 -3.02824e-05 -8.19608e-21
-5.01374e-05 9.42432e-05 -2.63994e-21
-9.7477e-05 5.16128e-05 8.78465e-21
3.7858e-06 2.92547e-05 -9.83689e-21
-4.2501e-06 -2.91312e-05 -1.29335e-20
0.00010376 -4.29826e-05 1.74945e-20
0.000103771 4.29869e-05 1.42145e-20
5.55157e-06 -9.84278e-06 -2.80538e-20
3.45138e-05 1.93329e-05 1.02012e-20
3.46085e-05 -1.87056e-05 -1.20228e-20
-2.09668e-05 -1.43297e-05 8.92634e-21
-9.05637e-06 -2.32023e-05 -1.84005e-20
-6.08932e-05 -1.26224e-05 -1.35666e-20
4.26405e-05 9.48014e-06 -6.37497e-21
-5.28434e-05 -7.50529e-06 -4.27983e-21
-3.88821e-05 -3.23574e-05 -3.33409e-20
-4.46932e-05 -7.74057e-05 -2.86146e-20
-4.4828e-05 7.76389e-05 -5.17615e-20
-4.68661e-05 -5.15056e-05 1.42043e-20
-3.42137e-05 1.99343e-05 -1.69393e-20
3.37686e-05 -1.80295e-05 1.18402e-20
8.08429e-06 -8.4423e-05 -1.14806e-20
-8.29557e-06 8.45675e-05 2.18671e-21
-4.00624e-05 3.55695e-05 -8.63601e-20
2.88647e-06 3.84633e-05 2.933e-20
-2.96187e-06 -3.87875e-05 -1.80353e-20
2.47625e-05 -8.76429e-06 -8.37979e-21
2.39118e-05 8.23291e-06 -5.10079e-21
5.57793e-05 4.28099e-05 2.91366e-21
3.01197e-05 -2.83478e-05 -1.42103e-20
2.98151e-05 2.86158e-05 6.37642e-21
3.33151e-05 1.82559e-05 -4.37175e-21
1.58037e-05 -4.27498e-05 -1.3114e-20
2.25182e-05 -2.03906e-05 -9.47326e-21
2.17548e-05 2.00725e-05 -3.46139e-21
-3.58148e-05 1.62322e-05 -2.85989e-20
1.89091e-05 1.43993e-05 -1.09304e-21
-4.30535e-05 -2.95341e-05 1.42061e-20
-1.53777e-05 3.67758e-06 4.00775e-21
-5.7432e-06 9.51929e-06 -2.00395e-21
4.49291e-05 -7.87978e-06 2.73185e-20
-3.51132e-05 2.08587e-05 -4.51779e-20
-3.70608e-05 -1.70225e-05 -1.67584e-20
-2.88279e-05 -3.49365e-05 2.44039e-20
-3.30075e-05 -2.16181e-05 1.5664e-20
-7.40818e-07 -3.99382e-05 -2.3863e-20
3.58438e-07 3.9774e-05 2.02198e-20
5.50009e-05 2.37819e-05 -1.27471e-21
-2.09787e-05 1.42332e-05 1.45735e-21
2.76089e-05 -4.36876e-05 -6.73853e-21
2.72052e-05 4.36646e-05 1.34771e-20
-3.41237e-05 1.99409e-05 -1.83977e-20
-1.39511e-05 2.19745e-05 -1.19146e-19
-1.43023e-05 -2.34337e-05 -6.46738e-20
-8.79243e-06 -4.05587e-05 1.3295e-20
-3.20199e-05 3.02425e-05 -7.28589e-21
4.12152e-06 -5.64347e-05 5.00768e-21
7.51871e-06 5.74492e-05 1.62067e-20
5.82553e-05 3.28646e-06 2.32172e-20
5.80015e-05 -4.20079e-05 9.01088e-27
3.85039e-05 2.65217e-05 -2.54965e-21
-5.79045e-05 0.000100307 4.55607e-21
5.78604e-05 -0.000100218 -1.54914e-20
4.34161e-05 9.0361e-06 -4.5532e-21
6.73026e-06 2.32488e-05 -4.00761e-21
2.55734e-05 -9.35731e-06 -8.74388e-21
-8.29939e-06 4.08643e-05 5.82795e-21
1.21672e-05 -2.41858e-05 -4.29937e-20
-1.23318e-05 2.38029e-05 -1.27526e-21
1.92653e-05 -1.45632e-05 1.40273e-20
1.40331e-05 -3.11118e-06 -7.28715e-21
-6.91895e-06 -2.22306e-05 7.28556e-22
1.17415e-05 4.84818e-07 -1.00197e-20
3.84448e-05 -2.78384e-05 1.00164e-20
-1.48599e-05 -4.10032e-06 -4.73643e-21
3.85941e-05 -2.93919e-05 -1.27484e-21
-4.49276e-05 5.47962e-05 1.82099e-22
-2.3759e-05 1.80555e-05 -7.28622e-22
1.52587e-05 -6.27817e-05 -9.10618e-22
1.58813e-05 6.19457e-05 1.4478e-20
6.45956e-05 1.62024e-05 -2.82275e-21
3.87037e-05 2.96692e-05 5.28173e-21
7.19203e-08 4.55231e-05 1.63933e-20
-4.52484e-07 -4.57256e-05 -1.07468e-20
3.067e-05 -5.49686e-05 2.73139e-21
3.05867e-05 5.63473e-05 1.12898e-20
4.00456e-06 -1.22537e-05 -4.3723e-21
4.30118e-06 1.21048e-05 -1.09308e-20
2.20951e-05 1.65277e-05 3.46107e-21
1.49499e-05 2.15784e-05 -7.28683e-22
-3.29705e-05 -1.95896e-05 1.18409e-20
-6.52857e-05 -5.0208e-05 -1.93006e-20
8.06078e-06 4.23419e-05 8.92423e-21
4.12161e-05 2.11789e-05 -5.46576e-21
4.13433e-05 -2.11338e-05 1.27541e-21
3.57167e-05 2.33244e-05 5.28244e-21
3.45661e-05 -1.92138e-05 -2.00393e-21
3.45222e-05 1.92574e-05 1.3663e-20
-1.67068e-05 -0.000188582 -8.73721e-21
0.000187229 -2.84194e-05 -8.00896e-21
8.12249e-06 -4.16523e-05 -3.09617e-21
6.60925e-05 -6.01595e-05 -5.10212e-21
6.60085e-05 6.03546e-05 -5.64875e-21
-8.12125e-05 -4.79797e-06 -4.64317e-21
-2.71953e-06 3.56452e-05 2.47741e-20
2.38789e-06 -3.61842e-05 -2.31349e-20
-2.95147e-05 4.30603e-05 -8.37747e-21
1.29639e-05 3.93725e-06 6.19407e-21
-5.6875e-06 -1.11529e-05 -2.20418e-20
-3.16227e-05 2.50665e-05 4.73726e-21
3.12063e-05 -2.54345e-05 -4.42737e-20
2.19897e-05 -1.61772e-05 4.9185e-21
-2.42803e-05 -1.64575e-05 1.51193e-20
3.57767e-05 -2.32079e-05 4.55375e-21
-4.22964e-05 -2.65298e-05 -5.82771e-21
4.07733e-05 -1.01574e-05 1.36605e-20
5.84471e-06 1.05711e-05 -9.10884e-22
-1.45579e-05 2.97309e-05 9.65379e-21
-8.51424e-06 -4.13503e-05 6.19259e-21
3.15116e-05 1.96924e-05 1.11116e-20
8.3595e-06 4.16187e-05 7.46766e-21
-1.48338e-05 -2.11781e-05 -2.14978e-20
-5.01145e-05 9.45223e-05 -9.10268e-22
-9.16887e-05 5.21797e-05 9.1937e-21
3.4411e-05 -6.42381e-06 2.00355e-21
3.15969e-05 -1.96408e-05 8.92582e-21
0.000107671 -5.23901e-05 1.38502e-20
0.00010772 5.24878e-05 7.28961e-21
6.76043e-06 -2.36135e-05 -1.47552e-20
-5.89545e-05 4.02498e-05 -6.28663e-20
-5.77976e-05 -4.1193e-05 -1.56709e-20
-2.46892e-05 -1.07926e-05 -3.02381e-20
-5.81301e-06 9.17992e-06 -5.82922e-21
5.31031e-05 -6.56301e-05 8.64792e-21
-6.36236e-05 -5.01259e-05 -5.64396e-21
5.41192e-05 -7.75904e-05 -5.00699e-21
4.99333e-05 7.32167e-05 1.87536e-20
8.02712e-05 4.67501e-05 -3.64144e-22
4.94659e-06 -9.15612e-06 -1.14771e-20
-2.44928e-06 -8.34655e-05 9.10175e-23
8.51595e-05 -5.58499e-06 5.27982e-20
4.57954e-05 6.28629e-05 1.20259e-20
-4.61731e-05 -6.27789e-05 3.82648e-21
-2.86939e-05 -2.26544e-05 -2.96948e-20
-1.23734e-05 9.14169e-07 -1.00919e-19
2.93437e-05 4.57196e-05 1.05622e-20
2.97365e-05 -4.54742e-05 -7.28461e-22
-2.81716e-05 8.2126e-06 -4.42648e-20
1.49286e-05 -2.99875e-05 -1.85794e-20
4.50301e-05 -3.53384e-05 3.64393e-22
4.48634e-05 3.54361e-05 -1.11148e-20
-3.45532e-05 -1.81753e-05 -1.27519e-21
-2.4167e-05 1.61459e-05 1.76697e-20
-2.77363e-05 -1.28693e-05 -2.47745e-20
-5.25962e-05 -2.88151e-05 -7.22056e-27
-7.06481e-06 2.38072e-05 1.09293e-20
-0.000107481 0.000107482 4.1867e-21
-7.81132e-06 4.21526e-05 1.73032e-20
7.56269e-06 -4.29002e-05 -1.32963e-20
8.06072e-06 -8.44438e-05 -2.00436e-20
-8.31776e-06 8.45341e-05 2.40523e-20
1.18623e-05 -2.25606e-05 -3.46153e-21
1.17706e-05 2.17595e-05 -1.60323e-20
-4.0944e-05 2.15699e-05 -4.02637e-20
-4.0629e-05 -2.08519e-05 -4.37247e-21
-7.15329e-05 -1.32387e-05 -4.93812e-20
-7.05475e-05 1.35299e-05 4.91985e-21
9.565e-05 -5.30895e-05 2.15028e-20
9.56032e-05 5.31928e-05 5.46696e-22
2.57885e-05 1.35196e-06 7.83398e-21
2.53533e-05 -6.43745e-07 -3.09714e-21
3.71554e-05 -1.75311e-05 1.34786e-20
-2.48703e-06 3.72422e-05 1.51186e-20
3.2032e-05 2.39876e-05 1.83962e-20
2.22924e-06 -3.7108e-05 -2.18587e-20
-5.87638e-05 4.03228e-05 2.07595e-20
3.6926e-05 1.76555e-05 -6.37489e-21
-4.44446e-06 -3.94207e-05 2.55007e-21
-2.59067e-05 -5.10431e-07 -2.33191e-20
-2.6037e-05 2.77732e-07 1.51211e-20
-2.7294e-05 2.36165e-05 -7.01396e-20
4.70013e-05 8.14103e-05 -2.22352e-20
-4.70531e-05 -8.15089e-05 1.43963e-20
-8.92612e-06 -2.84658e-05 -2.45939e-20
-3.47268e-05 -2.05348e-05 -1.60305e-20
-4.9272e-06 -4.55857e-05 -3.1339e-20
3.22277e-05 -2.3691e-05 -1.82131e-22
5.22186e-05 9.74502e-05 5.55292e-21
9.37637e-05 4.61637e-05 -8.1925e-21
7.45203e-06 -2.8039e-05 -8.92744e-21
6.97453e-06 2.72564e-05 -1.36644e-20
-6.43003e-06 4.78067e-05 -1.06772e-19
3.87322e-06 3.82781e-05 -4.1896e-21
4.52035e-05 -2.38137e-05 2.42238e-20
3.76787e-05 -1.23385e-05 1.80362e-20
3.75905e-05 1.23614e-05 4.55456e-21
-9.32337e-05 2.50773e-09 -2.36948e-20
-9.33714e-05 -2.46725e-09 -1.04804e-19
7.03345e-06 -2.20302e-05 -1.69417e-20
-3.55956e-05 -2.12501e-05 -2.91445e-21
2.97058e-05 3.34327e-05 5.46569e-22
3.00082e-05 -3.3328e-05 -4.73699e-21
9.364e-06 2.72454e-05 1.80348e-20
4.17854e-06 7.50055e-06 -7.83316e-21
0.000104706 0.000104706 -2.52571e-20
-3.08697e-05 -1.058e-05 -3.04265e-20
-3.08253e-05 9.91766e-06 2.86045e-20
-7.36889e-06 2.18973e-05 4.9184e-21
4.51705e-05 2.38502e-05 -4.55339e-21
-3.49312e-05 1.75808e-05 -3.86215e-20
-4.511e-05 5.8702e-06 -2.91506e-20
-4.50673e-05 -5.8715e-06 1.60327e-20
-2.72658e-05 1.29587e-05 -5.41041e-20
1.37028e-05 -5.91083e-05 -1.23899e-20
1.34257e-05 5.93222e-05 -8.56363e-21
1.82854e-05 0.000110561 -1.54901e-20
-1.85248e-05 -0.00011049 5.46717e-21
-1.43434e-05 0.000188718 1.09217e-21
-0.000188912 1.04212e-05 -1.4562e-20
2.82429e-05 3.97322e-06 8.74463e-21
2.80804e-05 -4.04131e-06 2.55052e-20
-3.21929e-06 -8.01014e-06 -1.62137e-20
0.000102462 0.000129517 -5.87036e-21
0.000127582 0.000101135 -1.46989e-20
4.52531e-05 0.000109239 9.11202e-21
4.521e-05 -0.000109136 5.83167e-21
-3.28266e-05 1.93741e-05 -1.11123e-20
2.81387e-05 -3.06784e-05 -7.83234e-21
3.01619e-05 1.62213e-05 1.65777e-20
3.02328e-05 -1.62116e-05 2.65972e-20
2.11773e-05 -2.14196e-05 6.37555e-21
2.78797e-05 3.11526e-05 2.24041e-20
-1.22545e-06 -8.50145e-05 3.64165e-22
8.1269e-07 8.63185e-05 1.96644e-20
9.05922e-05 -5.46883e-07 2.8313e-20
2.11857e-05 2.1473e-05 1.14759e-20
3.62612e-06 8.90661e-05 1.08327e-20
-8.95878e-05 -1.13924e-05 2.08005e-20
4.02846e-05 -6.62882e-06 1.93118e-20
4.03072e-05 6.30478e-06 2.91501e-21
3.83705e-05 -1.31651e-05 1.03848e-20
3.83143e-05 1.32152e-05 2.91501e-21
-0.000105681 0.000131294 -9.10131e-21
-0.000129673 0.000105712 3.32201e-21
3.17786e-05 1.73819e-05 1.65772e-20
3.18373e-05 -1.73491e-05 8.56192e-21
1.09385e-05 6.48939e-05 2.73325e-21
-1.11779e-05 -6.48185e-05 -6.55977e-21
2.94684e-05 1.18762e-05 1.02028e-20
2.89151e-05 -1.17596e-05 -6.01236e-21
4.42705e-05 -4.22349e-05 7.28801e-22
4.40959e-05 4.23923e-05 -7.47019e-21
-2.62125e-05 6.14944e-06 -1.25702e-20
-2.67828e-05 -6.42964e-06 2.47759e-20
4.12431e-05 8.00463e-05 -3.82657e-21
6.11531e-05 6.16258e-05 1.82259e-22
4.13827e-05 -7.973e-05 -7.28876e-21
6.11319e-05 -6.14581e-05 -1.38491e-20
-4.41678e-05 -8.22532e-05 1.23912e-20
-9.27497e-05 -1.50759e-06 -5.32124e-20
-9.27157e-05 1.28586e-06 -2.55125e-21
4.38023e-05 8.22259e-05 -1.05693e-20
7.46389e-05 3.0918e-05 9.83992e-21
0.000194173 2.5556e-05 4.04594e-20
7.45643e-05 -3.08868e-05 -4.55556e-21
0.000194193 -2.55582e-05 9.47706e-21
9.62277e-05 -1.80573e-06 2.25955e-20
6.5365e-05 1.86265e-05 1.1297e-20
9.03012e-05 -2.92605e-05 2.25959e-20
9.61644e-05 1.85435e-06 -8.74664e-21
6.52732e-05 -1.85968e-05 -1.03859e-20
9.02403e-05 2.93001e-05 -5.46679e-21
6.91127e-05 -2.73082e-05 1.49411e-20
6.9941e-05 -2.70539e-05 9.83994e-21
6.90255e-05 2.73927e-05 -7.28836e-21
6.98704e-05 2.71332e-05 -9.65773e-21
-1.59684e-05 -4.40429e-05 1.38424e-20
-6.02258e-06 3.64612e-05 -4.04427e-20
6.34048e-06 -3.62874e-05 6.74055e-21
-3.27769e-05 5.98185e-06 -1.74861e-20
-4.18738e-05 1.08852e-05 -1.23852e-20
-6.96493e-06 4.74176e-05 -4.90087e-20
7.27975e-06 -4.72078e-05 8.3805e-21
-4.19041e-05 -1.07902e-05 -2.03993e-20
-1.40612e-05 -2.208e-05 -2.49572e-20
-2.3647e-05 -5.31418e-05 2.18528e-21
2.40153e-05 5.44649e-05 -3.56895e-20
5.53128e-05 2.50441e-05 -4.24264e-20
-3.07444e-05 -3.17161e-05 9.29217e-21
3.07811e-05 3.19459e-05 -7.21514e-20
-3.36885e-05 2.01705e-05 -4.37167e-20
-1.49197e-05 -3.02708e-05 9.47167e-21
-5.08204e-06 -2.92088e-05 5.10075e-21
-3.37959e-06 -4.84349e-05 9.83798e-21
3.64554e-06 4.84527e-05 -7.59722e-20
3.41824e-05 5.10801e-06 -2.67762e-20
-1.82092e-05 -6.39637e-05 3.64227e-21
1.72422e-05 6.48418e-05 -6.55595e-20
6.71709e-05 1.77659e-05 -4.53446e-20
1.58855e-05 4.34349e-05 -4.95408e-20
-2.93469e-05 -2.95339e-05 1.78492e-20
-3.08203e-05 -6.32586e-06 -2.05827e-20
-4.60578e-05 -9.54073e-05 2.18498e-21
-2.72444e-05 1.37116e-05 -1.76702e-20
-1.37016e-06 4.52473e-05 -6.88738e-20
1.84139e-06 -4.50982e-05 6.92371e-21
-0.000101707 -4.92962e-05 -6.26891e-20
-0.000101472 5.10722e-05 -1.76776e-20
-2.20357e-05 2.97839e-05 -5.39161e-20
-2.66416e-05 3.15335e-05 -5.44572e-20
-6.13955e-05 1.97999e-05 -1.85744e-20
-4.34104e-05 -2.10305e-05 -3.62585e-20
-4.15534e-05 2.03565e-05 -3.02456e-20
-7.11306e-06 1.46017e-05 -3.64338e-21
-1.28009e-05 -4.50505e-07 -2.16774e-20
-4.41863e-05 2.88598e-05 -7.83156e-21
-5.1015e-05 -8.01835e-06 -3.09607e-21
-4.65473e-05 9.35165e-06 -6.55623e-21
4.5979e-06 2.95127e-05 -1.56663e-20
-1.45204e-05 4.37785e-05 -9.03397e-20
2.65319e-05 3.09021e-05 -4.88109e-20
-0.000103279 -0.000103277 -1.15593e-20
-0.000101689 0.000101687 -1.44717e-20
9.19735e-06 2.37651e-05 -5.61117e-20
1.5361e-05 3.07014e-05 -3.38791e-20
-0.000101985 0.000110921 -1.27425e-20
-0.0001076 -0.000103486 -3.26758e-20
5.27595e-05 -1.04738e-05 3.17034e-20
5.3085e-05 9.72627e-06 -1.76734e-20
2.49677e-05 8.52225e-06 9.1087e-22
4.94826e-05 -3.35271e-05 2.91518e-20
4.97239e-05 3.33724e-05 -8.19899e-21
-4.30719e-05 -7.96209e-05 -5.10225e-20
-4.30957e-05 7.90321e-05 3.64455e-21
3.65868e-05 -2.13706e-05 3.82578e-20
3.65031e-05 2.09708e-05 -4.04436e-20
-4.8162e-05 7.47671e-05 1.00224e-20
4.91375e-05 -7.49231e-05 -1.82217e-22
2.54278e-05 -3.03582e-05 1.78494e-20
4.99684e-05 9.44161e-05 -3.84166e-20
9.48454e-05 4.99826e-05 -4.72468e-20
3.8817e-06 2.93614e-05 -2.7142e-20
-3.92067e-06 -2.89363e-05 4.18974e-21
0.000103007 -4.26669e-05 -2.55131e-21
0.000104274 4.31882e-05 -4.30128e-20
-4.21919e-05 -2.93174e-05 -1.27488e-21
5.56143e-06 -9.28957e-06 6.194e-21
3.45754e-05 1.87571e-05 -4.99129e-20
3.46716e-05 -1.88821e-05 1.74878e-20
-2.12709e-05 -1.44732e-05 1.09303e-21
-8.73398e-06 -2.312e-05 1.82184e-21
-3.88195e-05 3.23986e-05 -2.49599e-20
-5.92153e-05 -1.34029e-05 -1.9667e-20
-4.47034e-05 7.74212e-05 1.09356e-21
-4.48602e-05 -7.77021e-05 -3.46269e-20
-3.33657e-05 -2.05731e-05 4.37138e-21
3.34334e-05 1.77883e-05 -5.42827e-20
-4.73826e-05 -5.15041e-05 -6.37373e-21
8.47277e-06 -8.48169e-05 1.56711e-20
-8.127e-06 8.45099e-05 -3.28027e-21
-4.01611e-05 -3.55886e-05 -3.55271e-20
3.06882e-06 3.87339e-05 -6.74044e-20
-2.63826e-06 -3.86973e-05 1.20236e-20
2.44307e-05 8.15917e-06 2.18609e-21
2.49398e-05 -9.03311e-06 1.60311e-20
5.59549e-05 -4.20485e-05 -2.36737e-20
4.20612e-05 9.06385e-06 -2.64101e-20
3.02285e-05 -2.83463e-05 1.74897e-20
3.00114e-05 2.82196e-05 -2.65988e-20
3.40543e-05 -1.83801e-05 2.00375e-21
1.5932e-05 -4.2586e-05 1.00177e-20
2.2754e-05 -2.05011e-05 1.38456e-20
2.20439e-05 1.98172e-05 -2.47761e-20
-3.60928e-05 -1.61319e-05 -4.37177e-21
-3.792e-05 2.98367e-05 -4.00646e-20
1.8503e-05 1.43054e-05 -5.5379e-20
-1.58198e-05 3.84811e-06 4.19014e-21
-5.8386e-06 9.8782e-06 -2.0038e-21
4.50555e-05 7.4817e-06 -4.7534e-20
-6.36164e-05 6.19536e-05 -3.45951e-20
-3.51885e-05 -2.10148e-05 4.73632e-21
-3.63571e-05 1.72389e-05 -2.47732e-20
-8.64909e-05 1.41371e-05 -3.12267e-20
-3.37087e-05 2.05762e-05 -2.11283e-20
-5.00098e-07 -3.98045e-05 4.0075e-21
7.46274e-07 3.99379e-05 -6.321e-20
-2.99097e-05 -3.55385e-05 -1.82098e-22
5.52541e-05 -2.38133e-05 -3.68737e-20
-2.1023e-05 1.56597e-05 -4.62712e-20
2.74579e-05 -4.31298e-05 1.82123e-20
-2.8839e-05 4.65077e-05 -5.68215e-20
-3.46116e-05 -2.04777e-05 4.91827e-21
-1.39709e-05 -2.19915e-05 -4.42691e-20
-1.42798e-05 2.34871e-05 -2.36832e-21
-8.58942e-06 -4.08446e-05 -2.73191e-21
7.99371e-06 4.18e-05 -6.9025e-20
4.98174e-06 -5.63925e-05 -5.91827e-21
-7.43968e-06 5.80599e-05 -7.57529e-20
5.88516e-05 -6.40627e-06 -3.45072e-20
3.91324e-05 -2.6175e-05 -4.0066e-21
5.8044e-05 -0.000100541 2.15033e-20
-5.79119e-05 0.000100312 2.86166e-20
-4.14703e-05 -2.50106e-05 -7.4668e-21
4.35799e-05 -9.62909e-06 -1.73018e-20
-6.58251e-05 -5.21894e-05 -2.33974e-20
6.47359e-06 2.33852e-05 -2.87805e-20
2.55992e-05 -9.52453e-06 1.42088e-20
1.21343e-05 -2.3539e-05 3.27927e-21
-1.24376e-05 2.41849e-05 2.09506e-20
3.89875e-05 5.49477e-05 -5.55415e-20
5.79884e-05 3.90207e-05 -5.29918e-20
1.94836e-05 -1.47567e-05 2.04035e-20
-8.29784e-05 -3.74287e-06 -3.05898e-20
1.35959e-05 -3.36179e-06 -5.53786e-20
-6.6237e-06 -2.37941e-05 1.36621e-20
1.18758e-05 3.03419e-07 2.00395e-20
-1.37661e-05 -3.55791e-06 -2.62324e-20
-3.14754e-05 -3.00195e-05 1.32969e-20
1.54447e-05 -6.23555e-05 -1.01983e-20
-1.47753e-05 6.22414e-05 -1.05716e-19
6.3757e-05 -1.67472e-05 -3.26888e-20
3.92779e-05 -3.01632e-05 9.47083e-21
4.72164e-07 4.54458e-05 -7.43157e-20
-2.08911e-07 -4.56485e-05 6.01104e-21
3.1376e-05 -5.65303e-05 -2.40362e-20
-2.97982e-05 5.95068e-05 -7.4112e-20
4.41805e-06 1.16127e-05 1.23882e-20
4.2207e-06 -1.23253e-05 1.16594e-20
2.20951e-05 1.67084e-05 -3.91641e-20
1.50656e-05 2.17226e-05 -5.02811e-20
-3.23839e-05 1.9855e-05 -5.62893e-20
4.13924e-05 2.08506e-05 -2.60527e-20
4.12996e-05 -2.12329e-05 3.64381e-20
3.46323e-05 -1.93531e-05 2.76904e-20
3.45595e-05 1.8958e-05 -5.48332e-20
-2.00305e-05 -0.000186509 3.09454e-21
2.74372e-05 4.28772e-05 -5.64572e-20
-0.000192121 2.25075e-05 -3.76793e-20
-2.43376e-05 -1.8109e-05 2.00368e-21
8.40374e-06 -4.15105e-05 2.18557e-21
-7.22447e-06 4.27856e-05 -1.06178e-19
6.57183e-05 -5.97474e-05 5.831e-21
6.63565e-05 6.0149e-05 -2.296e-20
3.59451e-05 2.31782e-05 -6.86703e-20
4.21412e-05 -1.04715e-05 -1.32961e-20
3.91553e-05 2.71897e-05 -5.09925e-20
-2.54237e-06 3.59161e-05 -6.5397e-20
2.64475e-06 -3.6126e-05 1.14764e-20
1.32541e-05 3.53221e-06 1.38457e-20
3.58781e-05 -2.33567e-05 1.32972e-20
-6.43449e-06 -1.06967e-05 7.65139e-21
-3.12762e-05 2.54204e-05 -7.83465e-21
3.19987e-05 -2.48402e-05 1.27544e-21
2.21293e-05 -1.6324e-05 1.53019e-20
-2.46917e-05 -1.67876e-05 1.12942e-20
5.06894e-06 1.08658e-05 -2.44098e-20
8.19031e-06 4.1261e-05 -7.88656e-20
-8.47965e-06 -4.11596e-05 -3.46062e-21
3.15541e-05 1.93921e-05 -5.48292e-20
3.93326e-05 2.97664e-05 -5.35455e-20
-1.3875e-05 3.0115e-05 -6.84872e-20
-1.43935e-05 -2.11371e-05 6.01214e-21
5.03115e-05 9.12224e-05 -5.66196e-20
9.25711e-05 5.01918e-05 -5.32515e-20
-5.75512e-05 4.30453e-05 -4.47961e-20
3.1691e-05 -1.97762e-05 2.44094e-20
3.45193e-05 -6.32575e-06 2.7323e-21
0.000108095 5.23972e-05 -5.81361e-20
0.000106918 -5.20785e-05 -9.841e-21
7.02031e-06 -2.37017e-05 8.56167e-21
-5.89871e-05 -4.03427e-05 -5.01077e-20
-5.78815e-05 4.12253e-05 -2.80619e-20
-2.44854e-05 1.04875e-05 -2.76877e-20
-6.14824e-06 9.21085e-06 -2.73246e-20
-4.84436e-05 6.46281e-05 -5.2889e-20
-6.08141e-05 -5.19849e-05 -1.63858e-20
5.20942e-05 -7.45953e-05 -2.89498e-20
-4.73688e-05 7.73466e-05 -7.52892e-20
7.80379e-05 -4.55053e-05 -4.74307e-20
-5.31764e-05 -2.87924e-05 -1.34755e-20
5.4208e-06 -9.26088e-06 8.01582e-21
-6.37381e-06 -8.34539e-05 -1.86614e-20
-7.899e-05 7.04104e-07 -3.80509e-20
4.5937e-05 6.29645e-05 -7.07005e-20
-4.59382e-05 -6.28103e-05 -4.19084e-21
-2.83606e-05 2.2438e-05 -4.09895e-20
-1.24225e-05 -9.07831e-07 -7.10432e-21
-2.82157e-05 4.60404e-05 -6.9563e-20
2.98439e-05 -4.51404e-05 -3.45995e-21
-2.82465e-05 -8.37198e-06 -2.60485e-20
1.50671e-05 -2.99802e-05 1.05647e-20
4.49247e-05 -3.52443e-05 2.87893e-20
4.51049e-05 3.51049e-05 1.82226e-22
-3.47317e-05 1.82751e-05 -5.1555e-20
-2.16136e-05 1.59374e-05 -6.02944e-20
-2.78811e-05 1.29598e-05 -3.20609e-20
-6.39867e-06 2.59532e-05 -5.15504e-20
0.000106864 0.000106866 -1.41984e-20
7.81677e-06 -4.28188e-05 8.19641e-21
-7.25625e-06 4.27217e-05 -1.02909e-19
-8.0762e-06 8.45669e-05 -4.0271e-20
8.58876e-06 -8.46604e-05 2.24119e-20
1.21234e-05 -2.26497e-05 5.28339e-21
1.20095e-05 2.15093e-05 1.09311e-20
-4.11906e-05 -2.16603e-05 -2.65989e-20
-4.03134e-05 2.08586e-05 -4.88256e-20
-7.15345e-05 1.30121e-05 -3.00652e-20
-7.05946e-05 -1.33423e-05 -2.56927e-20
9.49113e-05 -5.27777e-05 -1.09338e-21
9.62666e-05 5.30881e-05 -4.46491e-20
2.59559e-05 9.71937e-07 2.67815e-20
2.46968e-05 -9.42386e-07 -6.10286e-20
3.72488e-05 1.72019e-05 -6.5389e-20
-2.2709e-06 3.77227e-05 -8.10574e-20
2.48902e-06 -3.70332e-05 1.36617e-20
3.70127e-05 -1.79132e-05 -1.275e-21
-4.11229e-06 -3.90891e-05 3.64316e-21
4.0374e-06 3.87796e-05 -4.95454e-20
3.22152e-05 2.38813e-05 -6.59341e-20
-2.60507e-05 4.17913e-08 -2.36842e-21
-2.6312e-05 -3.07419e-07 -1.65784e-20
3.21913e-05 -2.3999e-05 1.62106e-20
-2.75572e-05 -2.37896e-05 -1.32992e-20
4.70635e-05 8.1527e-05 -3.91877e-20
-4.70586e-05 -8.15131e-05 -1.49427e-20
-8.60195e-06 -2.84539e-05 5.8297e-21
-3.45887e-05 2.02407e-05 -4.88197e-20
-4.91884e-06 4.56065e-05 -5.64829e-21
5.4328e-05 -9.58353e-05 -3.85967e-20
9.43222e-05 -4.48811e-05 -4.14186e-20
7.81861e-06 -2.79966e-05 1.02029e-20
7.14583e-06 2.72316e-05 -6.92329e-21
-6.43954e-06 -4.78579e-05 -6.03081e-20
4.55354e-05 2.37149e-05 -5.75536e-20
3.76842e-05 -1.25667e-05 3.91698e-20
3.76308e-05 1.19965e-05 -2.78734e-20
-9.31964e-05 -4.21182e-09 -1.53076e-20
-9.33778e-05 1.40424e-09 -1.14829e-20
7.3071e-06 -2.20383e-05 3.64322e-22
-3.48234e-05 2.04234e-05 -2.87802e-20
2.98926e-05 3.31085e-05 -3.1884e-20
3.01204e-05 -3.32599e-05 3.47992e-20
9.49485e-06 2.75105e-05 -4.77291e-20
4.87039e-06 7.91806e-06 -3.40653e-20
0.000103737 -0.000103737 -6.59868e-21
-3.14202e-05 1.03885e-05 -1.45757e-20
-3.08412e-05 -9.72675e-06 -2.33208e-20
-7.08002e-06 2.24721e-05 -3.13323e-20
4.4511e-05 -2.39932e-05 -1.29316e-20
-3.49665e-05 -1.7542e-05 -1.47563e-20
-4.56487e-05 -4.87115e-06 -3.15191e-20
-4.48538e-05 7.5301e-06 -3.97172e-20
-2.73462e-05 -1.28196e-05 -1.74881e-20
1.35563e-05 5.90972e-05 -1.18434e-20
1.39957e-05 -5.86968e-05 1.60342e-20
1.84459e-05 0.000110576 -1.45791e-21
-1.82195e-05 -0.000110808 1.16629e-20
8.56499e-06 0.000185085 -1.69286e-20
0.000186638 1.28549e-05 -4.26848e-20
2.81876e-05 -4.36753e-06 3.2064e-20
2.81049e-05 3.57811e-06 -5.55628e-20
-2.89e-06 -8.09476e-06 4.19009e-21
0.000101193 -0.000126185 -3.72253e-20
0.000123084 -0.000100752 -1.81121e-20
4.5327e-05 0.000109411 -9.49445e-20
4.49127e-05 -0.000108413 -1.4579e-21
-3.28638e-05 -1.93542e-05 -1.2934e-20
2.82302e-05 -3.07756e-05 2.56829e-20
3.03155e-05 -1.63997e-05 3.78921e-20
3.00428e-05 1.59404e-05 -4.17169e-20
2.13122e-05 -2.15956e-05 2.13126e-20
2.7938e-05 3.11498e-05 -4.71755e-20
-2.2414e-06 8.19057e-05 -6.48192e-20
-1.07925e-06 -8.90167e-05 -1.42931e-20
8.5059e-05 -2.79734e-06 -3.45947e-20
2.12026e-05 2.12835e-05 -5.33711e-20
-8.95437e-06 9.05573e-05 -3.07686e-20
8.95162e-05 -6.63241e-06 -4.27848e-20
4.02472e-05 -6.92421e-06 3.04255e-20
4.02001e-05 5.91617e-06 -4.2995e-20
3.8359e-05 -1.33728e-05 3.38876e-20
3.824e-05 1.27144e-05 -2.47777e-20
0.000104816 0.000128958 -2.27534e-20
0.000129581 0.000104921 -5.09676e-20
3.1807e-05 1.72067e-05 -5.06412e-20
3.19285e-05 -1.75432e-05 3.33367e-20
1.11136e-05 6.49937e-05 -2.05914e-20
-1.08272e-05 -6.48558e-05 1.36661e-20
2.95775e-05 1.13297e-05 3.22486e-20
2.84661e-05 -1.26972e-05 -4.02636e-20
4.41772e-05 -4.20359e-05 3.35248e-20
4.43296e-05 4.21105e-05 -1.58512e-20
-2.64247e-05 -6.23448e-06 -1.76714e-20
-2.81062e-05 6.92891e-06 -5.88423e-20
-4.39296e-05 -8.23223e-05 -1.73111e-20
-9.26257e-05 -1.45097e-06 -1.03867e-20
-9.27054e-05 1.63287e-06 -7.10695e-21
4.39442e-05 8.23181e-05 -7.78132e-20
4.14416e-05 7.98712e-05 -1.89509e-20
6.13431e-05 6.14599e-05 -2.86094e-20
4.12947e-05 -7.90337e-05 7.47102e-21
6.07274e-05 -6.10541e-05 6.19568e-21
7.38133e-05 3.05774e-05 8.38214e-21
7.56217e-05 -3.13202e-05 -2.60602e-20
0.00019515 -2.56894e-05 -4.19253e-20
0.000192762 2.53747e-05 -2.11414e-20
9.54024e-05 -2.14577e-06 9.11107e-21
6.49874e-05 1.79892e-05 2.38696e-20
9.7011e-05 1.11506e-06 -1.93162e-20
6.56009e-05 -1.96791e-05 -1.53055e-20
9.09328e-05 2.93018e-05 -2.47858e-20
8.95904e-05 -2.90739e-05 7.28906e-22
6.86845e-05 -2.73184e-05 1.53056e-20
6.95174e-05 -2.70626e-05 1.05689e-20
6.94088e-05 2.69923e-05 -1.4395e-20
7.02411e-05 2.6735e-05 -1.93155e-20
-5.82107e-06 3.62458e-05 2.64155e-20
4.45964e-06 -3.99519e-05 1.51227e-20
-3.2503e-05 -6.35366e-06 2.84154e-20
-4.07118e-05 -1.11957e-05 2.14925e-20
-6.73913e-06 4.69159e-05 4.88269e-20
4.03358e-06 -4.49146e-05 1.2026e-20
-4.34811e-05 1.04475e-05 1.47533e-20
-1.35262e-05 2.17806e-05 1.9311e-20
-2.30109e-05 5.64903e-05 -7.28208e-22
-2.20093e-05 -5.51805e-05 1.60251e-20
5.64161e-05 2.26778e-05 8.01213e-20
3.18565e-05 -2.99351e-05 8.38177e-21
3.05091e-05 3.16242e-05 -5.28385e-20
-3.16824e-05 -2.1425e-05 2.22241e-20
8.88677e-06 -4.3896e-05 1.27542e-20
3.65283e-06 4.79437e-05 -3.37049e-20
3.39413e-05 -7.98464e-06 4.49934e-20
-1.51646e-05 -6.81304e-05 1.82123e-21
-1.84094e-05 6.53364e-05 -5.64537e-21
6.73084e-05 1.56673e-05 8.2133e-20
-4.50667e-05 9.74738e-06 5.2816e-21
1.71161e-05 4.25031e-05 2.65927e-20
2.1338e-05 -4.84428e-05 2.09485e-20
-3.06706e-05 5.31265e-06 1.51186e-20
-4.62739e-05 -0.000100373 -1.87545e-20
-2.62528e-05 -1.38462e-05 1.69419e-20
0.000100217 4.75727e-05 7.40151e-20
-1.27303e-06 4.47957e-05 1.60342e-20
8.04167e-06 -4.33593e-05 8.56439e-21
-0.000101306 4.92503e-05 3.13437e-20
-9.85805e-05 -5.10148e-05 -9.47597e-21
-6.60815e-05 2.07836e-05 1.09259e-21
-2.04426e-05 -3.03282e-05 1.67585e-20
-3.97274e-05 -2.10323e-05 -1.45767e-21
-4.28752e-05 2.08477e-05 3.49824e-20
-6.72495e-06 -1.47088e-05 1.58496e-20
2.64419e-05 3.00715e-05 3.05988e-20
2.91028e-05 -3.80882e-05 3.82522e-20
-4.23693e-05 2.76981e-05 6.55684e-21
-1.22474e-05 -1.59747e-07 1.91281e-20
-2.72388e-05 -3.25074e-05 2.33146e-20
-2.78768e-05 2.96133e-05 2.56807e-20
-1.20093e-05 -4.49484e-05 2.24042e-20
-1.53973e-05 4.30155e-05 2.95065e-20
1.3431e-05 -3.58963e-05 2.89702e-20
4.96618e-06 2.93015e-05 5.19181e-20
-4.3228e-05 2.76215e-05 1.01986e-20
-0.000107779 -0.000107785 -6.00739e-21
0.00010708 0.000107089 2.35741e-20
1.14789e-05 -2.22192e-05 5.46592e-21
9.16654e-06 2.35404e-05 -3.80758e-20
0.000107511 0.000114437 2.02061e-20
-0.0001127 -0.000108023 -2.81252e-20
5.19914e-05 9.08106e-06 6.9057e-20
4.18833e-05 -2.27701e-05 3.71744e-20
2.42305e-05 -1.14851e-05 4.09873e-20
4.87383e-05 3.19584e-05 9.94847e-20
3.98764e-05 -3.68869e-05 4.55548e-20
1.61433e-05 3.02869e-05 4.82697e-20
2.04742e-05 -3.76068e-05 3.8985e-20
-4.13641e-05 -7.90353e-05 -2.45998e-20
-4.25577e-05 7.98696e-05 -1.47598e-20
3.60989e-05 1.97382e-05 1.05848e-19
3.30918e-05 -2.78171e-05 5.50244e-20
-5.83047e-05 2.44762e-05 -6.00898e-21
-4.75344e-05 7.39351e-05 5.48503e-20
-2.12474e-05 -6.04815e-05 1.73132e-20
-5.17868e-05 9.6932e-05 -7.19192e-21
-9.85362e-05 5.11294e-05 -1.06511e-20
4.12426e-06 2.91216e-05 3.71613e-20
1.08787e-05 -3.53517e-05 2.18628e-20
0.000101686 4.21273e-05 2.80714e-20
8.01259e-05 -3.31804e-05 2.95269e-20
3.43966e-05 1.67269e-05 1.00921e-19
3.25083e-05 -2.30364e-05 4.95527e-20
-6.10674e-05 -1.39594e-05 2.00315e-20
4.32753e-05 -1.29912e-05 5.42795e-20
-5.20638e-05 -8.23639e-06 2.58615e-20
-3.70999e-05 -3.26035e-05 -3.64443e-22
-4.47526e-05 7.75002e-05 -2.91568e-21
-4.40568e-05 -7.63091e-05 -1.07515e-20
-4.59813e-05 -5.34713e-05 2.27644e-20
-3.41504e-05 1.96108e-05 1.40249e-20
3.38367e-05 1.62766e-05 9.76371e-20
6.55527e-07 -6.5808e-05 4.92058e-21
-7.97599e-06 8.3563e-05 6.08679e-20
-3.96208e-05 3.54343e-05 2.3867e-20
8.61697e-06 -3.9293e-05 1.38467e-20
3.09074e-06 3.83291e-05 9.47285e-21
2.45074e-05 6.44884e-06 6.4671e-20
2.2528e-05 -1.04139e-05 2.91481e-20
5.86551e-05 -4.8244e-05 6.17374e-20
2.94907e-05 2.60646e-05 9.61951e-20
2.59434e-05 -2.99504e-05 2.96977e-20
3.272e-05 -2.3227e-05 3.97125e-20
2.21942e-05 1.84264e-05 8.85383e-20
2.00982e-05 -2.37558e-05 3.11534e-20
-3.54906e-05 1.58837e-05 1.63944e-20
1.85244e-05 1.37211e-05 6.48528e-20
2.23978e-05 -2.62377e-05 5.12009e-20
-4.26886e-05 -3.02283e-05 1.83961e-20
6.64016e-06 -2.31031e-05 3.57141e-20
-5.47829e-06 9.62131e-06 4.97323e-20
4.55979e-05 5.61107e-06 8.92427e-20
-3.48268e-05 2.0603e-05 1.7488e-20
-3.61601e-05 -1.77885e-05 3.36997e-20
-2.74344e-05 -3.68892e-05 1.80306e-20
-3.17379e-05 -2.29677e-05 2.91435e-20
5.91233e-06 -4.06952e-05 1.09308e-20
6.69967e-07 3.95841e-05 2.22237e-20
5.77933e-05 -2.72102e-05 9.24166e-20
-2.08137e-05 1.41926e-05 3.67982e-20
-1.91951e-05 -1.65777e-05 1.22061e-20
3.04504e-05 -4.92769e-05 4.20744e-20
2.79566e-05 4.27113e-05 1.18381e-20
-3.37813e-05 1.96329e-05 1.65764e-20
-1.32493e-05 2.15086e-05 1.62144e-20
-1.31294e-05 -2.26501e-05 6.19429e-21
-3.19058e-05 3.01596e-05 2.53188e-20
7.20578e-06 -6.03624e-05 2.91378e-21
7.9163e-06 5.76802e-05 -1.05618e-20
5.98749e-05 -5.72348e-06 7.76665e-20
5.91811e-05 4.08732e-05 7.73955e-20
4.07274e-05 -3.13424e-05 5.53682e-20
-4.66511e-05 -8.08118e-05 5.46752e-22
-5.72805e-05 9.9211e-05 2.98925e-20
4.4332e-05 -1.23875e-05 5.37293e-20
6.93747e-06 2.27582e-05 5.24612e-20
1.44079e-05 -3.26485e-05 4.22681e-20
2.53357e-05 7.05472e-06 5.99323e-20
-5.37368e-06 -4.30874e-05 1.34783e-20
-8.07019e-06 4.08823e-05 3.8247e-21
-1.20595e-05 2.38881e-05 4.66382e-20
3.38067e-06 -3.01729e-05 2.93385e-20
1.37294e-05 -3.50068e-06 7.8333e-20
1.94668e-05 -1.5712e-05 4.02704e-20
1.14232e-05 -2.16765e-06 2.47749e-20
3.92754e-05 2.62752e-05 8.17723e-20
-1.21871e-05 2.70374e-06 7.28755e-22
-1.47261e-05 -4.0448e-06 4.39024e-20
3.94495e-05 2.85601e-05 5.57318e-20
-4.5252e-05 5.50358e-05 2.73164e-21
-2.36325e-05 1.79553e-05 3.51562e-20
1.96891e-05 -6.70726e-05 7.5584e-21
1.67166e-05 6.24119e-05 -2.72262e-20
6.68945e-05 -2.00202e-05 7.83109e-20
4.10461e-05 -3.63783e-05 5.33684e-20
3.73905e-07 4.552e-05 2.96905e-20
5.49686e-06 -4.90344e-05 3.82567e-21
3.38643e-05 -6.15672e-05 5.64529e-20
3.18962e-05 5.46188e-05 3.84224e-20
4.10699e-06 9.87702e-06 5.30126e-20
3.7728e-06 -1.41176e-05 1.53026e-20
2.21147e-05 1.612e-05 6.53962e-20
2.50361e-05 -2.79993e-05 4.84639e-20
1.554e-05 -2.08066e-05 -8.38102e-21
1.49273e-05 2.14827e-05 -4.33583e-20
-3.038e-05 -2.0992e-05 1.54845e-20
-6.48526e-05 -5.29945e-05 1.85731e-20
1.20813e-05 -4.80046e-05 1.07465e-20
8.61481e-06 4.21009e-05 -2.18536e-21
4.0517e-05 1.96078e-05 1.22435e-19
3.3838e-05 -2.78017e-05 5.99465e-20
3.57437e-05 -3.04182e-05 6.81309e-20
3.4297e-05 1.78785e-05 1.0056e-19
3.21789e-05 -2.68676e-05 5.81183e-20
-1.99876e-05 -0.000195558 2.43918e-20
0.000194065 2.81459e-05 6.07054e-20
6.47654e-05 5.8293e-05 8.30986e-20
5.08453e-05 -5.64316e-05 9.11199e-21
3.5912e-05 2.20669e-05 7.65044e-20
-8.12733e-05 -6.17901e-06 1.52043e-20
8.23807e-07 -3.53761e-05 1.421e-20
-2.55651e-06 3.54903e-05 2.11309e-20
-2.95139e-05 4.3053e-05 6.55638e-21
-3.08281e-05 2.51183e-05 6.46815e-20
-1.12053e-05 -3.11276e-05 1.56716e-20
-4.21959e-05 -2.87131e-05 2.8411e-20
4.12797e-05 7.97689e-06 7.2493e-20
5.2903e-06 1.05989e-05 6.55796e-20
1.46116e-05 -2.38277e-05 4.28228e-20
-1.15993e-05 -3.09382e-05 1.58481e-20
-1.4431e-05 2.96737e-05 4.18941e-20
3.15183e-05 1.82792e-05 7.65077e-20
3.17094e-05 -2.69344e-05 7.23256e-20
8.85292e-06 4.15262e-05 1.58465e-20
1.31398e-05 -4.5433e-05 1.32977e-20
-5.21143e-05 9.31966e-05 -8.10165e-21
-9.28716e-05 5.1684e-05 -1.39274e-20
3.45173e-05 4.00795e-06 7.17691e-20
0.000105311 5.08706e-05 5.39513e-20
8.61095e-05 -4.75833e-05 4.99394e-20
-5.85634e-05 4.02955e-05 3.13412e-20
-5.55844e-05 -4.1301e-05 -8.19958e-21
-2.40247e-05 -1.12421e-05 2.42278e-20
-4.52039e-06 -1.01386e-05 -1.11134e-20
-5.72141e-06 9.17464e-06 1.16584e-20
5.32588e-05 6.6343e-05 4.1784e-20
-6.23599e-05 -5.28736e-05 -6.28142e-21
5.49245e-05 -7.99285e-05 5.05283e-20
5.39335e-05 7.58798e-05 1.21994e-20
8.35254e-05 -5.0596e-05 7.92964e-20
-5.73267e-06 -8.77785e-05 -5.18894e-21
8.77302e-05 4.34946e-06 6.19028e-20
4.55003e-05 6.23079e-05 -7.54384e-20
4.39824e-05 -5.47477e-05 1.45781e-20
-2.73224e-05 -2.3291e-05 1.54855e-20
-1.18649e-05 3.02945e-07 1.73068e-20
3.26769e-05 -5.14157e-05 2.75001e-20
3.08134e-05 4.54224e-05 6.92004e-21
-2.77027e-05 7.76638e-06 1.6759e-20
4.39504e-05 3.37621e-05 9.80337e-20
3.56131e-05 -3.8484e-05 2.49651e-20
-3.33441e-05 -1.92771e-05 1.60318e-20
-2.40247e-05 1.61187e-05 3.67963e-20
-2.01514e-05 -1.70338e-05 8.74431e-21
-2.63427e-05 -1.37397e-05 2.38642e-20
-5.17014e-05 -3.08222e-05 2.27632e-20
-6.95667e-06 2.37654e-05 3.46098e-20
-4.06815e-06 -2.56625e-05 1.25699e-20
-0.000107987 0.000107979 2.02056e-20
-7.60584e-06 4.21083e-05 2.78676e-20
-4.77577e-06 -4.46423e-05 5.28245e-21
-7.90123e-06 8.36513e-05 9.84007e-21
3.5708e-06 -6.95837e-05 1.1845e-20
1.13721e-05 1.94069e-05 8.25282e-20
1.05267e-05 -2.28461e-05 1.43925e-20
-3.81862e-05 -2.16574e-05 -5.46552e-22
-4.06554e-05 2.14785e-05 2.82388e-20
-6.80381e-05 1.21465e-05 -4.55535e-21
-7.11258e-05 -1.31356e-05 6.75995e-20
9.40111e-05 5.15265e-05 9.73228e-20
6.95423e-05 -4.85529e-05 3.38994e-20
2.44957e-05 -1.15332e-06 7.21431e-20
2.58385e-05 -1.71016e-05 4.48296e-20
3.74679e-05 1.5743e-05 9.52631e-20
1.25942e-06 -3.83713e-05 1.23875e-20
-2.30477e-06 3.72197e-05 4.15308e-20
3.43416e-05 -3.06695e-05 6.84919e-20
-5.93795e-05 4.02573e-05 -9.28713e-21
3.74453e-05 -2.24422e-05 5.42831e-20
3.26638e-05 2.25096e-05 5.19105e-20
-2.5711e-05 -4.75511e-07 7.15955e-20
-2.4245e-05 -7.95641e-07 1.82228e-22
-2.68016e-05 2.34341e-05 2.04044e-20
4.65725e-05 8.06823e-05 -2.00495e-20
4.08945e-05 -7.08269e-05 7.47218e-21
-3.32719e-05 -2.13785e-05 2.53212e-20
-3.35104e-06 -4.57493e-05 -1.12966e-20
5.71751e-05 -0.000101323 3.86901e-20
9.86164e-05 -4.99401e-05 5.3255e-20
6.26799e-06 2.57475e-05 9.85667e-20
5.3961e-06 -2.87289e-05 2.42322e-20
-5.58842e-06 4.78166e-05 1.29365e-20
1.09607e-05 -4.38129e-05 3.18813e-20
4.21068e-06 3.80686e-05 2.91447e-20
4.58838e-05 2.23221e-05 9.41642e-20
3.71587e-05 1.13011e-05 7.39672e-20
3.35666e-05 -2.40462e-05 5.8671e-20
-9.04834e-05 -1.47255e-09 1.75075e-26
-9.28126e-05 -4.80462e-09 3.91839e-20
-3.43289e-05 -2.21507e-05 3.15139e-20
2.93662e-05 3.16028e-05 1.23166e-19
2.57978e-05 -3.63613e-05 5.30222e-20
9.41941e-06 2.71662e-05 -8.19791e-21
1.191e-05 -2.76699e-05 1.12957e-20
6.66605e-06 -8.82297e-06 -8.74507e-21
4.2314e-06 7.50225e-06 -1.76702e-20
0.000108806 -0.000108798 2.76705e-20
-2.88518e-05 8.58277e-06 -5.46622e-22
-3.06453e-05 -1.04876e-05 6.52244e-20
-7.26421e-06 2.1833e-05 5.10047e-21
-4.67031e-06 -2.26543e-05 1.09306e-21
4.63126e-05 -2.91041e-05 4.97258e-20
-3.46546e-05 1.74976e-05 1.74889e-20
-4.30141e-05 -7.97155e-06 -9.10944e-22
-4.47987e-05 5.86115e-06 4.20849e-20
-2.67727e-05 1.25456e-05 2.0403e-20
1.25909e-05 5.71784e-05 9.52979e-20
1.08201e-05 -5.56755e-05 1.34839e-20
1.83054e-05 0.000109374 -3.60848e-20
2.19701e-05 -9.00491e-05 4.92071e-21
-1.08661e-05 0.000192828 1.80206e-20
-0.000191928 8.87637e-06 -1.67469e-20
2.79471e-05 3.19653e-06 6.99561e-20
2.83986e-05 -1.95332e-05 4.79215e-20
0.000106601 -0.000132399 5.23352e-21
0.000132741 -0.000105069 1.82947e-20
3.78799e-05 -9.14186e-05 3.02567e-20
4.4106e-05 0.00010648 4.19234e-20
-3.2589e-05 1.92573e-05 1.54842e-20
2.98153e-05 1.51198e-05 6.285e-20
2.94412e-05 -2.61898e-05 6.59568e-20
2.81049e-05 3.03661e-05 5.40985e-20
2.99556e-05 -3.82409e-05 5.97517e-20
7.74498e-07 -9.45597e-05 1.30194e-20
2.13549e-06 8.25592e-05 -2.43986e-20
9.42032e-05 -1.65266e-06 7.44724e-20
2.13072e-05 2.05128e-05 5.8108e-20
2.45806e-05 -3.04693e-05 5.88451e-20
9.26551e-06 9.10562e-05 -8.64821e-21
-9.04534e-05 -1.34067e-05 -2.91301e-21
3.95895e-05 5.44627e-06 6.95962e-20
3.48933e-05 -2.07888e-05 4.81065e-20
3.77129e-05 1.19544e-05 6.65007e-20
3.38552e-05 -2.43861e-05 5.04744e-20
-0.0001063 0.000130293 1.14678e-20
-0.00013149 0.000106104 -4.09577e-21
3.17226e-05 1.64886e-05 6.94057e-20
3.16176e-05 -2.77517e-05 7.54271e-20
1.65462e-05 -5.63475e-05 1.0934e-20
1.10587e-05 6.43138e-05 -1.7858e-20
2.81806e-05 -1.26479e-05 7.03265e-20
2.81047e-05 -1.00242e-05 3.77222e-20
4.32337e-05 4.02637e-05 1.07138e-19
3.52007e-05 -4.22151e-05 4.02696e-20
-2.57814e-05 -8.24488e-06 8.38052e-21
-2.60276e-05 6.13922e-06 4.24467e-20
4.2368e-05 -7.04397e-05 3.64472e-21
-8.95163e-05 -2.4012e-06 -2.18671e-21
-9.22687e-05 1.35911e-06 4.68325e-20
4.35281e-05 8.1454e-05 -6.14122e-20
4.0167e-05 7.77231e-05 7.81773e-20
5.97538e-05 5.96093e-05 6.52458e-20
3.28858e-05 -7.2112e-05 1.49431e-20
4.94306e-05 -5.68059e-05 3.49921e-20
7.40447e-05 -3.06631e-05 -1.82379e-22
0.00019029 -2.50347e-05 4.63006e-20
0.000149934 1.9759e-05 5.7597e-20
4.30898e-05 1.7856e-05 2.40587e-20
9.48091e-05 8.27153e-07 3.86338e-20
6.42244e-05 -1.94234e-05 8.9651e-20
8.88463e-05 2.84884e-05 5.72299e-20
6.61486e-05 -1.70948e-05 2.8432e-20
6.43515e-05 -2.54262e-05 3.13486e-20
4.94132e-05 -6.01632e-06 4.08227e-20
6.79225e-05 2.5934e-05 6.03148e-20
6.85514e-05 2.57426e-05 7.32593e-20
5.16207e-05 -3.30687e-05 1.45789e-20
5.36329e-05 -3.24442e-05 2.91593e-20
5.86159e-06 1.27031e-06 -1.34871e-20
4.8768e-06 2.93454e-06 3.44501e-20
1.3489e-05 -3.84879e-07 -2.53348e-20
4.68538e-06 -6.77942e-07 2.31453e-20
4.75022e-06 -6.42326e-07 1.25753e-20
4.23792e-06 1.03629e-05 3.20808e-20
1.41778e-05 -8.40146e-06 -1.09358e-20
4.53132e-06 9.27848e-07 9.11251e-21
1.23413e-05 1.04757e-05 3.2803e-21
5.09013e-06 5.33361e-07 1.82263e-21
5.13095e-06 -4.80069e-07 6.56143e-21
4.42324e-06 1.58141e-08 -6.30679e-20
2.7725e-05 -6.39315e-07 6.39738e-20
-2.88824e-06 -5.18925e-06 -5.10393e-21
5.8746e-06 3.3533e-06 -1.38514e-20
9.66945e-06 3.15581e-06 -2.0412e-20
1.17762e-05 9.05554e-06 6.68911e-20
6.15829e-06 -1.07184e-05 -1.13011e-20
3.72828e-06 3.59017e-07 -3.64567e-22
5.34899e-06 3.09857e-08 -1.73151e-20
5.36854e-06 -2.40067e-08 1.49457e-20
4.17654e-06 1.75053e-07 -5.97875e-20
4.36404e-06 2.92549e-06 -8.01924e-21
3.43479e-06 4.45585e-07 8.56585e-21
1.85487e-06 2.79434e-06 5.83209e-21
4.67862e-06 7.95466e-07 -4.01008e-20
5.14527e-06 6.82847e-07 7.2899e-21
4.7845e-06 -3.29864e-08 -6.92603e-21
5.91118e-06 -6.23312e-06 7.83631e-21
4.17515e-06 -1.23902e-07 -4.55687e-20
1.0199e-05 8.04606e-06 4.77565e-20
1.1441e-05 -7.33764e-06 1.82274e-21
-5.22759e-05 -2.65788e-05 1.96841e-20
-5.23955e-05 2.51642e-05 -9.47756e-21
4.08618e-06 1.03565e-07 1.25757e-20
2.50549e-06 3.56401e-06 5.64975e-21
-1.00705e-05 -3.22243e-06 1.96832e-20
-1.16805e-05 3.77052e-06 4.92079e-21
1.55539e-05 -6.65885e-06 3.28028e-21
4.78768e-06 6.5017e-07 -4.92151e-20
3.28192e-06 -5.71179e-07 1.49448e-20
1.29534e-05 -3.18141e-08 3.82698e-21
4.37943e-06 -2.82385e-06 3.24415e-20
5.8219e-06 -1.27498e-06 3.75451e-20
3.14805e-06 2.42307e-06 -9.4786e-21
4.11403e-06 -4.99411e-07 1.34869e-20
5.86027e-06 -9.4425e-07 -2.02313e-20
5.00857e-06 -1.89857e-06 -2.73405e-20
1.61156e-05 -5.03471e-06 6.81611e-20
5.11033e-06 -1.79685e-07 -2.07788e-20
3.94291e-06 -1.03676e-06 -1.0389e-20
8.17358e-06 -4.55615e-07 4.81252e-20
8.17772e-06 4.5177e-07 -9.84379e-21
2.64851e-06 7.58841e-07 2.69785e-20
7.65729e-06 -4.08894e-06 5.43233e-20
7.66045e-06 4.09198e-06 -1.09376e-21
4.72991e-06 1.43813e-06 -2.6248e-20
-1.35928e-05 -4.97833e-05 -2.73375e-21
-1.36541e-05 4.99626e-05 9.11252e-22
5.59054e-06 -1.8781e-06 6.12491e-20
5.58655e-06 1.87762e-06 -1.34894e-20
4.1076e-06 1.13731e-07 1.11177e-20
3.8207e-05 -2.60071e-05 1.38521e-20
-9.35309e-06 2.14781e-05 1.82289e-21
4.78716e-06 -6.48745e-07 -2.98936e-20
4.81873e-06 -4.11385e-08 -4.92115e-21
3.99286e-06 1.89787e-07 1.16647e-20
5.03189e-06 2.82352e-06 6.19744e-21
8.82213e-06 2.95756e-06 -2.47869e-20
1.56848e-05 -6.49713e-06 -1.03721e-28
1.56961e-05 6.50179e-06 -3.28144e-21
1.47476e-05 1.25569e-05 -2.22339e-20
4.63385e-06 -1.69087e-06 5.06759e-20
4.62051e-06 1.74659e-06 -3.28117e-21
4.1021e-07 7.7313e-06 1.6402e-21
2.00408e-06 -3.27928e-06 -2.07802e-20
4.11264e-06 -7.99077e-08 1.96836e-20
3.66669e-06 -3.63179e-07 2.27816e-20
-7.23041e-06 -1.57474e-05 1.29394e-20
-2.30067e-05 3.98442e-05 -4.19194e-21
-2.31493e-05 -4.00912e-05 3.28064e-21
4.2043e-06 5.94708e-07 8.74844e-21
2.25836e-06 4.35841e-07 2.13233e-20
3.69293e-06 9.59414e-07 -1.23954e-20
5.92035e-06 2.51944e-05 1.05727e-20
1.14147e-05 -3.25244e-05 3.64553e-21
-8.57482e-06 1.76999e-05 2.00469e-21
1.13386e-05 1.56582e-06 6.28821e-20
6.73611e-06 -3.13038e-06 -2.00502e-20
2.95541e-06 -1.00666e-06 7.47385e-20
2.90275e-06 9.30579e-07 3.9739e-20
4.46424e-06 -2.98922e-07 -7.65564e-21
3.73592e-06 3.62859e-07 -2.22386e-20
4.20764e-06 -3.44451e-06 9.55204e-20
4.19139e-06 3.47872e-06 2.51561e-20
3.74635e-06 -9.68767e-07 2.88011e-20
4.69388e-06 -7.68766e-07 -3.39034e-20
2.77687e-06 -1.94279e-06 8.13009e-20
2.70244e-06 1.90862e-06 2.04164e-20
3.54064e-06 4.20282e-06 7.65436e-21
4.25424e-06 3.86761e-08 -2.91657e-20
3.59847e-06 8.88202e-07 2.11416e-20
3.70669e-06 1.83496e-05 -2.55129e-21
1.87468e-06 2.36343e-08 -1.20307e-20
4.13046e-06 1.54419e-07 -4.81223e-20
-2.49054e-06 4.40635e-06 1.3304e-20
3.52036e-06 -3.67921e-06 2.04117e-20
4.25302e-06 6.39524e-07 7.10797e-21
2.08688e-06 -3.0276e-07 2.05943e-20
7.44195e-06 -3.49724e-06 -2.53351e-20
6.79968e-06 3.92438e-06 4.79367e-20
4.45395e-06 -2.93342e-08 -1.89568e-20
3.66192e-07 -7.86522e-06 4.51961e-20
4.74235e-06 -3.67244e-07 -2.62479e-20
4.75005e-06 3.36892e-07 -5.54121e-20
1.81254e-06 4.1142e-07 1.76783e-20
1.01787e-05 1.26011e-05 2.55126e-21
1.04129e-05 -1.30319e-05 -1.45788e-21
5.86193e-06 1.27042e-06 -1.87731e-20
1.64304e-06 -2.45439e-06 2.58798e-20
5.15209e-06 -3.29047e-08 -1.45814e-20
5.18013e-06 3.0799e-08 -3.4631e-21
4.10416e-06 -1.15433e-08 -4.55697e-20
4.46519e-06 2.76132e-07 -5.54121e-20
4.56437e-06 -3.93339e-07 -1.78634e-20
-1.91356e-05 3.31395e-05 -1.13024e-20
2.04222e-05 -3.53842e-05 -9.47919e-21
4.11955e-06 -2.01244e-07 -2.26029e-20
3.69899e-06 5.94887e-07 -2.11446e-20
2.70366e-06 -8.19218e-07 3.79158e-20
5.90788e-06 -1.29997e-06 3.55412e-20
3.33168e-07 3.3657e-06 -6.56225e-21
1.83861e-05 4.66628e-06 -4.37382e-21
4.28677e-06 -7.31047e-08 -1.34891e-20
3.78121e-06 -1.65986e-06 -2.84366e-20
8.80263e-06 6.27839e-06 -1.14818e-20
1.32568e-06 1.05878e-08 1.02812e-19
4.55217e-06 3.38915e-07 -5.90585e-20
3.95291e-06 -1.86097e-05 4.95693e-20
4.57381e-06 5.68423e-07 -5.03092e-20
4.13506e-06 -5.45326e-07 2.22356e-20
2.77073e-06 -4.11779e-06 3.8637e-20
5.29437e-06 -1.13891e-07 -2.11434e-20
5.3101e-06 1.00576e-07 -1.85917e-20
4.20286e-06 -2.30647e-07 -3.17166e-20
4.57021e-06 -5.56196e-07 -1.74989e-20
6.95901e-06 7.26549e-07 3.09858e-20
7.30144e-06 -6.72201e-07 -2.33304e-20
4.87712e-06 -5.55495e-08 -7.29098e-21
4.90542e-06 6.78517e-08 -4.1194e-20
4.69586e-07 -1.4015e-06 1.06822e-19
4.38563e-07 1.35576e-06 6.59891e-20
4.53762e-06 2.28063e-07 -3.68212e-20
1.95875e-05 -6.27479e-06 6.06859e-20
-4.00893e-06 3.07442e-06 1.36685e-20
4.01903e-06 -1.29437e-07 1.4034e-20
5.60467e-06 8.38953e-07 -1.71336e-20
6.17457e-06 -1.86092e-06 6.63539e-20
6.17757e-06 1.86298e-06 -1.45833e-21
4.69815e-06 -9.567e-07 4.73947e-20
4.68858e-06 9.47441e-07 -1.85933e-20
5.06129e-06 -1.45187e-07 -1.43991e-20
3.18544e-06 -2.42873e-07 -3.79129e-20
5.55716e-06 -8.91853e-07 -2.55182e-20
1.0063e-05 -8.3457e-06 5.06786e-20
1.00699e-05 8.35051e-06 3.64595e-22
4.54429e-06 6.23918e-07 -3.13528e-20
3.98429e-06 -3.04908e-08 2.13241e-20
3.73914e-06 -4.23209e-07 -1.20307e-20
9.37706e-06 5.80642e-07 7.21745e-20
4.77855e-06 -4.08216e-06 -3.53615e-20
4.09819e-06 -5.17274e-07 2.60627e-20
3.68681e-06 1.6882e-06 -1.89577e-20
4.54237e-06 -6.29941e-07 3.28112e-21
8.00429e-06 1.177e-05 -1.84055e-20
-3.23528e-06 3.59889e-06 1.38536e-20
2.79277e-05 4.04215e-06 -9.84202e-21
4.53605e-06 -2.20852e-07 -2.55196e-20
1.78291e-06 8.61292e-06 -1.82246e-21
3.40344e-06 1.11786e-07 2.71559e-20
2.7274e-06 1.01095e-07 -2.552e-20
5.9877e-06 -3.56351e-06 5.48588e-20
6.37052e-06 -1.67326e-07 -1.76796e-20
4.88638e-06 9.1874e-07 -2.84365e-20
5.33724e-06 1.49022e-06 1.23945e-20
-3.25882e-07 -2.46272e-06 -2.11451e-20
4.86381e-06 4.67118e-07 -4.00979e-21
4.65565e-06 2.55143e-07 8.0195e-21
4.89181e-06 -9.28709e-07 1.82285e-20
3.76689e-06 -4.38283e-07 2.22389e-20
1.6068e-05 -7.41951e-06 9.47966e-21
1.60791e-05 7.42382e-06 1.09381e-21
3.61466e-06 -6.70715e-07 -4.26538e-20
-2.32065e-05 -2.0013e-05 2.11411e-20
-2.41652e-05 1.92493e-05 1.82251e-21
8.67637e-06 -3.00103e-06 1.23927e-20
8.09047e-06 -1.25338e-05 5.12073e-20
4.86306e-06 -3.98844e-07 -2.55182e-20
4.80468e-06 -9.27512e-08 5.46783e-21
4.90473e-06 -7.96956e-08 -2.36952e-21
4.89518e-06 5.8043e-08 -3.11684e-20
4.23457e-06 1.73408e-07 -2.91641e-20
2.77137e-06 1.93053e-07 -3.39051e-20
5.08834e-06 5.93236e-08 -1.1665e-20
4.20788e-06 -1.43003e-08 -5.14015e-20
3.66058e-05 1.75397e-05 3.57238e-20
-8.64934e-06 -1.69794e-05 -6.92687e-21
3.49632e-06 -5.53176e-06 2.73374e-21
1.31871e-05 2.51528e-07 6.19574e-21
4.95248e-06 5.31647e-07 -4.5933e-20
4.94175e-06 -5.35492e-07 -1.60401e-20
7.63226e-06 2.69721e-06 1.03878e-20
4.74794e-06 -1.55528e-06 -4.44758e-20
6.74265e-06 -4.43286e-06 5.54175e-20
6.74665e-06 4.43423e-06 6.5626e-21
-1.38897e-06 7.30544e-07 1.33043e-20
1.78954e-06 -8.71924e-06 5.03001e-20
3.68441e-06 -3.60606e-06 8.20102e-21
4.27723e-06 3.05799e-07 2.0595e-20
8.63154e-06 -5.65395e-06 6.03251e-20
5.60068e-06 1.52896e-06 -1.20294e-20
6.62417e-06 5.83541e-07 4.59305e-20
5.34602e-06 -1.36098e-06 -2.40598e-20
7.0286e-06 2.66307e-05 3.17167e-20
1.49532e-05 -2.79371e-05 -3.64557e-21
1.45589e-06 -2.68995e-06 1.43281e-19
1.45162e-06 2.67625e-06 6.59895e-20
-1.0222e-05 -3.16046e-06 2.00472e-20
-1.04203e-05 4.1298e-06 1.85892e-20
-3.2726e-05 2.08544e-05 2.95243e-20
-3.35334e-05 -2.05974e-05 4.73844e-21
1.47549e-05 -7.49623e-06 1.93237e-20
1.47661e-05 7.50053e-06 -2.91679e-21
4.95743e-06 1.43199e-06 1.82291e-21
4.95044e-06 -1.40495e-06 -2.36976e-20
4.49143e-06 8.37878e-07 -4.01024e-20
9.05213e-06 -1.65699e-06 5.43138e-20
5.26046e-06 -1.2679e-06 -3.42677e-20
4.15118e-06 -5.28438e-07 1.33048e-20
4.49624e-06 -8.5092e-07 1.27599e-20
8.78487e-06 9.79156e-07 -1.49454e-20
4.62396e-06 6.12902e-07 -4.81223e-20
-4.97159e-06 -1.57089e-05 3.69934e-20
-5.02049e-06 1.55654e-05 3.28026e-21
4.63618e-06 -6.13543e-07 -1.45825e-20
3.40639e-06 6.48434e-06 2.73374e-21
2.04422e-05 3.54198e-05 2.91652e-21
-1.31439e-05 -2.27628e-05 3.646e-22
1.97667e-06 -2.16996e-06 -3.57269e-20
-1.71855e-06 -3.70157e-06 7.28986e-21
1.52734e-05 -2.45112e-05 6.37861e-21
4.84753e-06 4.63708e-07 -8.9313e-21
4.62722e-06 1.90365e-07 -1.98678e-20
8.90088e-07 -3.39247e-06 1.16667e-19
8.90741e-07 3.33602e-06 3.4271e-20
1.40625e-05 2.59335e-05 1.09348e-21
5.01656e-06 1.25114e-06 2.18729e-21
4.14503e-06 5.7949e-07 -5.50491e-20
5.79523e-06 -2.34151e-07 4.30201e-20
5.79436e-06 2.22843e-07 -3.17182e-20
-4.80543e-05 -6.88623e-10 1.27579e-20
-4.8049e-05 7.12673e-10 -1.31224e-20
3.45947e-06 -1.57221e-06 -3.57272e-20
2.36443e-06 -3.42421e-07 1.73139e-20
4.19544e-06 -3.98971e-06 7.80207e-20
4.17873e-06 3.99318e-06 9.47916e-21
1.61782e-05 -4.14801e-06 8.0375e-20
1.40346e-05 -1.35336e-05 6.14158e-20
5.6261e-06 1.60617e-06 -2.73404e-20
-6.45975e-06 1.8465e-05 2.22339e-20
-6.50872e-06 -1.88298e-05 2.33273e-20
8.47965e-06 -6.60798e-06 7.38096e-20
4.14304e-06 -5.64572e-07 -5.10388e-21
-2.16827e-06 -1.34511e-06 2.27813e-20
-1.41137e-05 9.98137e-06 2.09582e-20
-1.41649e-05 -9.98737e-06 2.64256e-20
3.41187e-06 4.25203e-06 6.56076e-21
1.84602e-06 -8.1439e-06 1.0573e-19
1.85944e-06 8.1509e-06 2.69795e-20
1.77929e-05 3.81117e-05 1.49475e-20
1.7542e-06 -3.78947e-05 -1.64058e-20
5.13178e-06 -1.93927e-07 -1.93204e-20
3.10809e-06 1.94956e-07 -3.09847e-21
5.04258e-06 8.29141e-07 1.2031e-20
5.06334e-06 -8.65208e-07 -3.06242e-20
2.09975e-06 2.87346e-07 -2.66134e-20
5.48165e-06 6.41398e-08 -1.43993e-20
3.91668e-06 1.34051e-06 -3.33558e-20
6.63051e-06 1.60076e-05 7.29205e-21
6.62617e-06 -1.59972e-05 8.02126e-21
-4.22658e-06 -3.10086e-06 2.3692e-20
4.62928e-06 -6.25316e-07 -2.22383e-20
5.27833e-06 -5.03118e-07 1.49475e-20
5.27621e-06 4.9223e-07 -3.57282e-20
4.50001e-06 -4.53712e-07 -2.29676e-20
4.61949e-06 6.20594e-07 -3.71853e-20
5.15609e-06 -1.1596e-08 -9.84252e-21
5.18243e-06 2.09848e-08 -1.95028e-20
4.19372e-06 -9.77973e-10 -4.55691e-20
4.49791e-06 4.44331e-07 -3.97377e-20
5.10702e-06 -6.88739e-08 -1.6404e-20
4.01719e-06 -4.65052e-09 1.69502e-20
6.68152e-06 4.81578e-07 2.29685e-20
6.70411e-06 -5.48096e-07 -1.89581e-20
6.29632e-06 -8.33599e-07 5.24997e-20
6.30709e-06 8.2842e-07 -1.85936e-20
5.48812e-06 3.96074e-08 -7.65515e-21
3.85062e-06 1.38942e-06 -8.56637e-21
4.96038e-06 2.65608e-07 -3.3905e-20
4.96057e-06 -2.77892e-07 4.01028e-21
1.46894e-05 1.88153e-05 2.29665e-20
4.99207e-06 -1.77744e-05 -7.29136e-21
5.39472e-06 2.683e-06 2.58853e-20
5.35914e-06 -2.68076e-06 -1.5677e-20
6.6249e-06 -5.50642e-06 7.00008e-20
6.62702e-06 5.51965e-06 1.49481e-20
-8.79889e-07 -9.7906e-06 3.07998e-20
-9.49566e-07 9.57904e-06 1.12993e-20
3.51555e-05 3.15981e-05 2.69754e-20
-5.13238e-05 -8.39651e-06 4.00945e-21
6.14383e-06 1.13421e-05 1.75005e-20
9.10416e-06 8.60289e-06 5.46897e-21
6.13562e-06 -1.1339e-05 7.21895e-20
9.09799e-06 -8.59788e-06 3.39076e-20
-7.91351e-06 -2.41195e-05 -2.55206e-21
-5.13584e-05 8.23214e-06 1.6767e-20
1.20512e-05 -4.99168e-06 -8.02113e-21
2.93721e-05 -3.86646e-06 -9.11512e-21
2.9351e-05 3.86368e-06 -1.7501e-20
1.20402e-05 4.98714e-06 1.82297e-21
1.50436e-05 -4.55344e-07 -9.84403e-21
1.02845e-05 -3.60677e-06 -9.47926e-21
1.40321e-05 4.22992e-06 4.89802e-28
1.50316e-05 4.5245e-07 6.19808e-21
1.40213e-05 -4.22729e-06 4.7398e-21
1.02769e-05 3.6009e-06 2.40627e-20
1.0838e-05 -3.27427e-06 3.35423e-20
1.06453e-05 -3.33434e-06 2.91675e-20
1.08461e-05 3.27455e-06 -9.84393e-21
1.06528e-05 3.33481e-06 -7.65646e-21
-1.51516e-05 -4.32135e-05 -3.89769e-20
4.55657e-06 3.99724e-05 -9.10986e-22
6.07777e-06 -3.62023e-05 3.07876e-20
-3.23885e-05 -5.6075e-06 -5.19126e-20
-4.05628e-05 -1.01072e-05 -4.60809e-20
4.1296e-06 4.49457e-05 8.01729e-21
7.0014e-06 -4.69472e-05 2.84214e-20
-4.36195e-05 1.18179e-05 -4.44426e-20
-1.33223e-05 2.23282e-05 -4.40874e-20
-2.39243e-05 -5.28109e-05 -5.59031e-20
-2.14064e-05 5.93635e-05 -2.53117e-20
5.73472e-05 2.80845e-05 -1.25647e-20
3.18782e-05 3.00376e-05 1.23905e-20
-3.04792e-05 -3.15215e-05 3.06099e-20
-1.50719e-05 -3.04072e-05 -1.00179e-20
-4.83888e-06 -2.91022e-05 3.31544e-20
-3.48607e-06 -4.80141e-05 2.8057e-20
8.9684e-06 4.3962e-05 1.7127e-20
3.45968e-05 -2.39046e-06 -2.36796e-21
-1.82287e-05 -6.38774e-05 -7.04775e-20
-1.62165e-05 6.93386e-05 -2.76821e-20
6.74841e-05 2.15591e-05 -6.55606e-21
-2.83418e-05 -2.8633e-05 -3.09622e-20
-4.4391e-05 1.14759e-05 -2.96866e-20
-3.21822e-05 -2.88359e-05 -2.55003e-21
2.14608e-05 4.8318e-05 -1.09295e-20
-3.02807e-05 6.49494e-06 -5.44639e-20
-4.72053e-05 -9.59406e-05 -2.012e-20
-2.65974e-05 -1.31879e-05 -3.98954e-20
0.000100833 5.27949e-05 -2.64022e-20
8.09472e-06 4.3407e-05 1.05688e-20
1.51474e-06 -4.48186e-05 2.0407e-20
-9.89472e-05 4.91304e-05 -3.64463e-21
-0.000101007 -5.11978e-05 6.92476e-21
-6.59442e-05 2.27962e-05 -3.02303e-20
-2.36903e-05 -1.87898e-05 2.04016e-20
-4.09796e-05 -2.04622e-05 2.09528e-20
-4.1683e-05 2.15023e-05 -3.09747e-21
-6.88734e-06 -1.40594e-05 -3.18812e-20
2.92188e-05 3.79734e-05 7.28637e-22
-4.16699e-05 2.9582e-05 -2.56813e-20
-1.20567e-05 5.9931e-07 -4.39036e-20
-2.62206e-05 3.13252e-05 -3.82487e-21
-1.30494e-05 4.54684e-05 -1.0928e-21
1.35486e-05 3.5875e-05 -7.28818e-21
-4.21184e-05 2.95409e-05 -6.92061e-21
-0.000104987 -0.000104977 -3.18568e-20
0.000109469 0.000109462 -2.0023e-21
1.15306e-05 2.2333e-05 5.83033e-21
0.000110081 0.000119854 -1.23789e-20
-0.000112863 -0.000105357 9.73913e-21
4.17937e-05 2.27908e-05 -6.9246e-21
5.19863e-05 -9.13205e-06 3.6442e-21
2.4196e-05 -6.13846e-06 -9.10846e-22
3.97945e-05 3.68533e-05 -1.11153e-20
4.8733e-05 -3.20108e-05 1.82207e-20
2.06046e-05 3.75706e-05 -3.64345e-21
-4.15224e-05 7.93477e-05 8.38213e-21
-4.24605e-05 -7.9565e-05 -1.53064e-20
3.30123e-05 2.78465e-05 -2.96986e-20
3.61682e-05 -1.97555e-05 2.51412e-20
-5.77272e-05 2.66975e-05 -2.5857e-20
-2.11822e-05 6.04901e-05 8.20099e-21
4.76601e-05 -7.39495e-05 -9.47588e-21
2.58238e-05 -2.9676e-05 -4.84474e-20
-5.12247e-05 0.000101276 -3.47765e-20
-9.8479e-05 5.36988e-05 -2.85854e-20
1.10253e-05 3.53366e-05 -1.27534e-21
-4.08078e-06 -2.89241e-05 1.73054e-20
7.99506e-05 3.31075e-05 3.57241e-20
0.000101694 -4.21307e-05 5.24971e-20
5.58649e-06 -9.8043e-06 5.1918e-20
3.24276e-05 2.25604e-05 -1.42099e-20
3.44804e-05 -1.73173e-05 1.38449e-20
-2.07376e-05 -1.42639e-05 6.64916e-20
-8.85958e-06 -2.30784e-05 3.02422e-20
-6.09026e-05 -1.21449e-05 -4.15197e-20
4.32554e-05 -7.03617e-06 -6.01074e-21
-5.27526e-05 -6.96462e-06 -3.73351e-20
-3.83278e-05 -3.21457e-05 -1.82186e-21
-4.46596e-05 -7.73394e-05 -9.65805e-21
-4.41637e-05 7.64947e-05 1.82271e-22
-4.66467e-05 -5.12407e-05 -4.69843e-20
-3.29335e-05 2.09848e-05 -1.40253e-20
3.3088e-05 2.30923e-05 -3.46116e-21
8.11644e-06 -8.35705e-05 8.20081e-21
6.89888e-07 6.58092e-05 6.37841e-21
-3.84964e-05 3.57789e-05 -2.29562e-20
8.70143e-06 3.94074e-05 6.19458e-21
-2.7557e-06 -3.84253e-05 2.22255e-20
2.33934e-05 1.10437e-05 -1.18414e-20
2.36567e-05 -5.79877e-06 -5.10084e-21
5.77145e-05 -4.1426e-05 -8.43156e-20
2.60485e-05 2.96031e-05 -3.27949e-20
2.93464e-05 -2.64755e-05 1.60325e-20
3.3471e-05 -1.64107e-05 -3.0966e-21
1.60648e-05 -4.22422e-05 -4.91776e-20
2.08599e-05 2.41725e-05 -1.89472e-20
2.14194e-05 -1.80732e-05 8.38015e-21
-3.49764e-05 1.67942e-05 -4.88196e-20
2.24551e-05 2.62455e-05 -1.20258e-20
-4.28125e-05 -2.93122e-05 -3.22374e-20
-1.51892e-05 3.60942e-06 8.99908e-20
6.72179e-06 2.3014e-05 -1.34839e-20
4.57629e-05 1.15007e-05 5.4637e-22
-3.36965e-05 2.15618e-05 -1.02015e-20
-3.6704e-05 -1.67216e-05 -4.22604e-20
-2.86342e-05 -3.46964e-05 -4.91722e-20
-3.27396e-05 -2.13756e-05 -2.24032e-20
-5.09709e-07 -3.95896e-05 2.33169e-20
6.09386e-06 4.07592e-05 1.60319e-20
5.691e-05 -2.1722e-05 -5.79974e-20
-1.91906e-05 1.52423e-05 2.60519e-20
2.78835e-05 -4.26357e-05 -6.90253e-20
3.05162e-05 4.87986e-05 -2.3677e-21
-3.30687e-05 2.09792e-05 -2.49562e-20
-1.28182e-05 2.18329e-05 -2.42307e-20
-1.35657e-05 -2.23395e-05 -1.20241e-20
-8.50398e-06 -4.03849e-05 -7.06642e-20
-3.06064e-05 3.19195e-05 3.27891e-21
5.0709e-06 -5.63182e-05 -6.33708e-20
1.01336e-05 6.16733e-05 -4.09746e-20
5.98792e-05 -3.15242e-07 -2.35821e-20
6.02141e-05 4.69323e-05 -7.10254e-21
3.99379e-05 -2.47052e-05 -3.44208e-20
5.72443e-05 -9.91669e-05 -2.13258e-20
-4.66596e-05 8.08266e-05 1.27573e-20
4.42357e-05 -6.476e-06 -2.25841e-20
1.45318e-05 3.26063e-05 -7.10543e-21
2.53062e-05 1.24419e-05 5.46494e-21
-5.15453e-06 4.31701e-05 -3.27842e-21
1.21343e-05 -2.40019e-05 3.84398e-20
3.41829e-06 3.01793e-05 -4.92e-21
1.90408e-05 -1.40159e-05 6.92244e-21
1.95918e-05 1.59629e-05 -9.83982e-21
-6.77633e-06 -2.21215e-05 3.58849e-20
1.14161e-05 2.13097e-06 -1.4027e-20
4.04873e-05 3.24685e-05 -4.00694e-21
-1.29337e-05 -3.50684e-06 3.27938e-20
4.07697e-05 3.61714e-05 -1.40251e-20
-4.4209e-05 5.78729e-05 -1.69361e-20
-2.19415e-05 1.91362e-05 8.74401e-21
1.57345e-05 -6.23959e-05 -9.38805e-20
1.99932e-05 6.69744e-05 -2.65907e-20
6.66211e-05 -1.40514e-05 -2.63156e-20
4.01285e-05 -2.92125e-05 -2.89585e-20
-2.1729e-07 -4.54624e-05 -6.73899e-21
5.67906e-06 4.90845e-05 4.18991e-21
3.20382e-05 -5.65601e-05 -1.03248e-19
3.41097e-05 6.00862e-05 -3.35077e-20
4.02623e-06 1.43001e-05 -2.02215e-20
3.83243e-06 -9.71162e-06 2.36826e-21
2.50744e-05 2.79945e-05 -1.40291e-20
1.55349e-05 2.09024e-05 1.0203e-20
-3.26358e-05 -1.94626e-05 1.93096e-20
-6.5371e-05 -5.04791e-05 -2.33981e-20
1.23781e-05 4.7888e-05 -9.47146e-21
3.37833e-05 2.78248e-05 -2.04074e-20
4.05258e-05 -1.966e-05 1.2207e-20
3.20547e-05 2.68583e-05 -2.07696e-20
3.44269e-05 -1.79455e-05 2.56865e-20
-2.08098e-05 -0.000189146 -7.24452e-20
0.000194105 3.26341e-05 -6.02509e-26
8.56608e-06 -4.11701e-05 -7.23043e-20
5.07363e-05 5.63428e-05 2.80647e-20
6.4764e-05 -5.83386e-05 7.47158e-20
3.55771e-05 3.03046e-05 -1.36626e-20
-8.16116e-05 -4.16982e-06 -3.79646e-20
8.68433e-07 3.54705e-05 8.01592e-21
2.63233e-06 -3.58039e-05 1.73057e-20
-2.79445e-05 4.54882e-05 -1.18382e-20
1.3026e-05 3.64488e-06 2.20425e-20
3.60909e-05 -2.21569e-05 6.9219e-21
-5.57572e-06 -1.1105e-05 8.72564e-20
-1.11386e-05 3.1132e-05 5.28468e-21
3.09949e-05 -2.52397e-05 8.74563e-21
2.20153e-05 -1.57783e-05 9.83689e-21
-2.40357e-05 -1.63816e-05 5.30089e-20
-4.20473e-05 -2.62762e-05 -3.73344e-20
4.12597e-05 1.39684e-05 -5.64644e-21
1.49273e-05 2.37599e-05 -2.09558e-20
-1.19914e-05 3.08456e-05 5.46487e-21
-8.25221e-06 -4.11019e-05 -2.8049e-20
3.16454e-05 2.69162e-05 -2.7145e-20
1.33793e-05 4.54561e-05 -4.55391e-21
-1.49763e-05 -2.09345e-05 5.46532e-20
-5.16467e-05 9.64723e-05 8.19205e-22
-9.31336e-05 5.42215e-05 -1.00134e-20
3.38335e-05 9.61127e-06 2.55023e-21
3.1637e-05 -1.83479e-05 2.31345e-20
8.5932e-05 4.75052e-05 4.08264e-20
0.000105331 -5.0901e-05 4.52024e-20
6.96396e-06 -2.31268e-05 1.20226e-20
-5.6851e-05 4.0308e-05 3.82648e-21
-5.73059e-05 -4.13278e-05 2.04082e-20
-2.41943e-05 -1.03795e-05 -6.02959e-20
-3.66726e-06 1.00955e-05 3.29756e-20
5.50669e-05 7.10931e-05 -2.65825e-20
-6.26424e-05 -5.0347e-05 -2.73105e-21
5.31053e-05 -7.49311e-05 -1.11158e-19
5.57675e-05 8.09771e-05 -3.68729e-20
8.30563e-05 -4.54886e-05 -6.4e-20
5.47581e-06 -8.68414e-06 6.10251e-20
-6.84223e-06 -8.36702e-05 -4.51521e-20
8.81554e-05 8.93312e-06 -4.69737e-20
-4.54359e-05 -6.21284e-05 4.17281e-20
4.3981e-05 5.48029e-05 2.0956e-20
-2.81696e-05 -2.24715e-05 -9.83758e-21
-1.19501e-05 7.28481e-07 -3.27917e-20
3.04534e-05 -4.48004e-05 -9.06894e-20
3.3065e-05 5.12163e-05 -2.56788e-20
-2.76729e-05 8.60884e-06 -5.70174e-20
1.51944e-05 -2.95497e-05 -1.47541e-20
3.5552e-05 3.84516e-05 -7.83576e-21
4.3946e-05 -3.38042e-05 4.91991e-20
-3.41749e-05 -1.80877e-05 9.29088e-21
-2.23667e-05 1.71475e-05 1.96749e-20
-2.71922e-05 -1.24852e-05 -3.13328e-20
-5.23717e-05 -2.85666e-05 -2.98645e-20
-4.68398e-06 2.50688e-05 1.80351e-20
-0.000110016 0.000110024 1.50176e-20
-4.574e-06 4.47006e-05 5.4646e-21
7.92844e-06 -4.25918e-05 -3.00532e-20
8.1198e-06 -8.35574e-05 1.65822e-20
3.62697e-06 6.96131e-05 1.96809e-20
1.05959e-05 2.29161e-05 -3.86228e-20
1.12688e-05 -1.93239e-05 1.12953e-20
-4.02417e-05 -2.07602e-05 2.29551e-20
-3.91912e-05 2.22101e-05 5.83009e-21
-7.00511e-05 1.33851e-05 3.99036e-20
-6.91364e-05 -1.19309e-05 9.29289e-21
6.93743e-05 4.84744e-05 6.59763e-20
9.40028e-05 -5.15586e-05 3.0983e-20
2.56743e-05 1.72895e-05 8.92952e-21
2.45517e-05 1.32074e-06 -1.07487e-20
3.75099e-05 2.24424e-05 -1.3662e-20
1.4084e-06 3.91837e-05 1.22054e-20
2.48231e-06 -3.66763e-05 -1.89438e-20
-5.88099e-05 4.26005e-05 -1.6936e-20
3.74775e-05 -1.57454e-05 -1.63927e-21
-4.27558e-06 -3.92166e-05 1.27526e-21
3.43716e-05 3.04679e-05 -2.18587e-21
-2.57764e-05 2.3301e-07 8.87201e-20
-2.45643e-05 2.72853e-07 3.27945e-20
3.26001e-05 -2.27681e-05 -5.46333e-22
-2.61527e-05 2.42229e-05 -3.26114e-20
4.09117e-05 7.08568e-05 2.24165e-20
-4.6504e-05 -8.05483e-05 1.67687e-20
-8.73655e-06 -2.80469e-05 2.89656e-20
-3.43377e-05 -2.03037e-05 -8.92589e-21
-3.70578e-06 -4.56334e-05 -3.82614e-21
5.53849e-05 -9.66283e-05 -9.40814e-20
9.71234e-05 -4.48781e-05 -7.33714e-20
5.43956e-06 2.93239e-05 -3.97191e-20
6.23045e-06 -2.5099e-05 2.69646e-20
-5.23233e-06 4.788e-05 -1.22076e-20
1.11069e-05 4.37664e-05 3.49515e-26
4.60675e-05 2.91305e-05 3.09635e-21
3.34872e-05 2.40736e-05 -2.25939e-20
3.72039e-05 -1.14508e-05 2.64169e-20
-9.0466e-05 1.31945e-09 -1.36673e-20
-9.28888e-05 4.85971e-09 3.09825e-21
7.22542e-06 -2.1611e-05 2.91466e-20
-3.52132e-05 -2.10243e-05 -2.00371e-20
2.58983e-05 3.63074e-05 -3.49838e-20
2.92276e-05 -3.16871e-05 2.56899e-20
1.19121e-05 2.77938e-05 8.19854e-21
6.0195e-06 8.46723e-06 2.1316e-20
0.000105777 -0.000105786 -2.68962e-20
-3.05229e-05 9.78928e-06 6.66818e-20
-2.92944e-05 -9.3257e-06 1.82201e-20
-5.11652e-06 2.23513e-05 2.04042e-20
4.60974e-05 -2.22103e-05 -1.876e-20
-3.35248e-05 1.84506e-05 9.10915e-21
-4.46514e-05 -5.87308e-06 4.51819e-20
-4.32748e-05 6.82407e-06 1.47577e-20
-2.61241e-05 1.34042e-05 -4.79112e-20
1.0723e-05 5.55717e-05 -3.3892e-20
1.26974e-05 -5.72456e-05 6.41394e-20
2.19975e-05 9.00687e-05 2.05941e-20
-1.81805e-05 -0.000109302 2.00473e-21
-1.00282e-05 0.000199405 1.97502e-20
-0.000191868 1.12277e-05 -7.73633e-21
2.83842e-05 1.96211e-05 1.45771e-21
2.78185e-05 -3.53928e-06 -9.10901e-22
-3.1081e-06 -7.47938e-06 5.64722e-20
0.000103783 -0.000127102 -5.4519e-20
0.000132263 -0.000101668 -5.5748e-20
4.41205e-05 -0.000106515 5.687e-20
3.78079e-05 9.12446e-05 1.49461e-20
-3.11486e-05 2.04748e-05 1.31165e-20
2.83424e-05 -3.00519e-05 -1.14753e-20
2.94134e-05 2.6192e-05 -1.25718e-20
2.98897e-05 -1.52522e-05 1.58491e-20
2.12598e-05 -2.06521e-05 9.10805e-22
2.99431e-05 3.81037e-05 -7.46896e-21
-1.16248e-06 -8.96289e-05 -8.64877e-20
4.10105e-06 8.76442e-05 -5.08937e-20
9.37946e-05 3.70337e-06 -3.13181e-20
2.46301e-05 3.04041e-05 -9.10917e-21
1.05508e-05 9.53269e-05 -2.94045e-20
-9.03712e-05 -1.10659e-05 -3.35002e-20
3.47928e-05 2.08595e-05 -1.43956e-20
3.9434e-05 -6.00366e-06 -2.44134e-20
3.37693e-05 2.4406e-05 -2.1684e-20
3.76743e-05 -1.20121e-05 -8.74535e-21
-0.000108117 0.000135138 1.62917e-20
-0.000131511 0.00010831 1.31972e-20
3.15554e-05 2.77283e-05 -2.07698e-20
3.18205e-05 -1.6622e-05 2.11314e-20
1.6579e-05 5.64007e-05 2.1868e-20
-1.09139e-05 -6.41417e-05 2.91559e-21
2.79867e-05 1.00675e-05 2.00458e-21
2.85214e-05 1.26694e-05 -3.44346e-20
3.5151e-05 4.20851e-05 -1.9497e-20
4.32178e-05 -4.03983e-05 3.75348e-20
-2.65063e-05 -6.42765e-06 4.71832e-20
-2.4461e-05 7.10224e-06 1.69434e-20
-8.96347e-05 2.12489e-06 4.37334e-21
4.23688e-05 7.04738e-05 1.8406e-20
3.27948e-05 7.20127e-05 -2.87927e-20
4.93311e-05 5.67145e-05 2.7702e-20
4.02062e-05 -7.77401e-05 5.04782e-20
5.97659e-05 -5.96514e-05 5.39462e-20
-4.34605e-05 -8.13201e-05 2.98861e-20
-9.22214e-05 -1.62829e-06 2.97031e-20
4.29476e-05 -1.77971e-05 1.34875e-20
0.000149606 -1.97164e-05 5.90552e-20
0.000190305 2.50368e-05 1.82286e-20
7.4009e-05 3.06483e-05 -4.11876e-20
6.59756e-05 1.71072e-05 3.02547e-20
4.92888e-05 6.06091e-06 1.80423e-20
6.41909e-05 2.53809e-05 3.86391e-20
9.47905e-05 -8.67734e-07 -2.56952e-20
8.88337e-05 -2.85012e-05 9.11306e-21
6.42122e-05 1.93786e-05 -2.13194e-20
5.14909e-05 3.3047e-05 1.31212e-20
5.35166e-05 3.24182e-05 4.55616e-20
6.79102e-05 -2.59773e-05 -1.47597e-20
6.85506e-05 -2.57824e-05 2.87934e-20
TENSORS solid_stress_TPM float
30.4591 2.56212 -1.83997e-11
2.56212 33.9672 8.57336e-12
-1.83997e-11 8.57336e-12 30.5362

36.0564 1.70475 2.277e-11
1.70475 38.9405 -1.45451e-11
2.277e-11 -1.45451e-11 36.7186

35.8087 1.36769 2.55256e-12
1.36769 38.579 -6.45358e-12
2.55256e-12 -6.45358e-12 36.5055

35.9679 0.748019 3.66092e-12
0.748019 29.8119 -1.49963e-11
3.66092e-12 -1.49963e-11 32.2887

34.5543 0.296521 1.4547e-11
0.296521 28.7352 -9.68949e-12
1.4547e-11 -9.68949e-12 30.1342

36.4898 1.61244 7.85068e-12
1.61244 39.4166 1.42576e-11
7.85068e-12 1.42576e-11 38.319

36.2288 1.49522 2.87742e-12
1.49522 39.1906 -1.02111e-11
2.87742e-12 -1.02111e-11 38.1358

34.9198 -0.374872 3.01551e-11
-0.374872 29.1577 1.57911e-11
3.01551e-11 1.57911e-11 30.4448

40.2454 0.0623127 -7.61056e-12
0.0623127 32.8213 2.17703e-11
-7.61056e-12 2.17703e-11 36.6256

24.1447 2.48884 -1.86672e-11
2.48884 27.9861 -1.45979e-11
-1.86672e-11 -1.45979e-11 23.2256

23.6568 -2.66154 -3.87727e-12
-2.66154 27.4319 -1.4803e-16
-3.87727e-12 -1.4803e-16 22.5085

27.8666 2.57476 2.06194e-11
2.57476 25.1276 -1.35596e-11
2.06194e-11 -1.35596e-11 23.4864

38.694 -2.10977 -4.26244e-12
-2.10977 40.5183 -2.6978e-12
-4.26244e-12 -2.6978e-12 39.3074

38.9537 -2.38695 -8.64595e-12
-2.38695 41.0226 8.86306e-12
-8.64595e-12 8.86306e-12 39.5891

31.1253 2.42358 -1.90487e-11
2.42358 35.2614 1.7341e-11
-1.90487e-11 1.7341e-11 32.5867

33.6751 2.90256 5.53804e-12
2.90256 37.7655 -1.87847e-11
5.53804e-12 -1.87847e-11 35.7361

36.0918 -1.10364 -3.73515e-11
-1.10364 39.0239 1.10781e-11
-3.73515e-11 1.10781e-11 37.9984

36.2641 -1.1914 2.16701e-12
-1.1914 39.2038 -2.4468e-11
2.16701e-12 -2.4468e-11 38.142

37.9753 1.104 5.77908e-13
1.104 34.3283 1.86116e-11
5.77908e-13 1.86116e-11 35.4467

26.66 0.963124 -9.07989e-12
0.963124 31.7814 7.22474e-12
-9.07989e-12 7.22474e-12 26.1702

26.5733 -0.92117 8.45376e-12
-0.92117 31.7648 -1.97025e-11
8.45376e-12 -1.97025e-11 26.0228

31.7636 0.789825 1.47901e-11
0.789825 28.2018 4.60025e-12
1.47901e-11 4.60025e-12 26.6606

30.2335 2.86153 1.31488e-11
2.86153 32.9933 -1.81116e-11
1.31488e-11 -1.81116e-11 30.1475

32.0399 -1.46296 -5.8721e-11
-1.46296 27.3394 9.82792e-12
-5.8721e-11 9.82792e-12 28.0075

33.1046 2.62592 -1.57998e-11
2.62592 33.991 -1.45467e-11
-1.57998e-11 -1.45467e-11 32.4477

31.1878 2.86055 1.34625e-11
2.86055 34.7634 -2.57228e-11
1.34625e-11 -2.57228e-11 31.221

36.5432 -0.618978 2.35063e-11
-0.618978 30.0087 1.783e-11
2.35063e-11 1.783e-11 32.708

23.0031 2.21495 1.8198e-11
2.21495 27.2204 2.65216e-11
1.8198e-11 2.65216e-11 20.1639

39.056 0.274602 5.30816e-11
0.274602 31.9165 -1.40639e-11
5.30816e-11 -1.40639e-11 35.6657

26.603 2.21999 3.48076e-11
2.21999 23.8628 9.04314e-13
3.48076e-11 9.04314e-13 20.2458

39.8582 0.350116 9.1746e-12
0.350116 41.163 3.41e-11
9.1746e-12 3.41e-11 39.8516

39.8454 0.120014 1.65319e-11
0.120014 41.0964 -2.1193e-12
1.65319e-11 -2.1193e-12 39.8299

44.6059 1.24791 2.11911e-11
1.24791 42.2987 -8.09005e-12
2.11911e-11 -8.09005e-12 42.4223

44.637 -1.19695 -4.16118e-11
-1.19695 42.3545 -2.98482e-12
-4.16118e-11 -2.98482e-12 42.4147

30.8303 -0.926939 4.0466e-11
-0.926939 25.9303 -1.8787e-11
4.0466e-11 -1.8787e-11 25.0744

33.3281 2.82317 1.50287e-11
2.82317 35.46 3.00091e-11
1.50287e-11 3.00091e-11 34.0458

40.2429 0.516788 -1.40638e-11
0.516788 39.0368 2.14807e-11
-1.40638e-11 2.14807e-11 39.3313

40.3776 -0.469549 8.28304e-12
-0.469549 39.2425 1.76275e-11
8.28304e-12 1.76275e-11 39.5372

40.623 0.0057753 -1.38723e-11
0.0057753 32.4665 9.40396e-12
-1.38723e-11 9.40396e-12 36.7208

30.7154 3.09622 -6.26351e-13
3.09622 34.5009 -9.34497e-12
-6.26351e-13 -9.34497e-12 30.9318

32.589 -1.89405 -4.0802e-11
-1.89405 29.9167 3.24661e-11
-4.0802e-11 3.24661e-11 29.2091

39.8773 -0.182353 -1.66662e-11
-0.182353 31.538 3.86512e-12
-1.66662e-11 3.86512e-12 35.877

29.9707 -2.86741 -2.00847e-11
-2.86741 32.8837 -1.52214e-11
-2.00847e-11 -1.52214e-11 29.8934

30.453 -2.45735 1.30036e-11
-2.45735 34.0084 4.52794e-11
1.30036e-11 4.52794e-11 30.5181

34.506 3.2633 4.19054e-12
3.2633 38.6181 7.80339e-12
4.19054e-12 7.80339e-12 36.3519

29.8644 -3.05998 3.81023e-11
-3.05998 28.7226 2.94312e-11
3.81023e-11 2.94312e-11 27.0882

8.94898 6.24974 4.70823e-12
6.24974 13.2522 -1.32506e-11
4.70823e-12 -1.32506e-11 6.90689

12.6351 6.17571 -3.28149e-11
6.17571 9.27766 9.0797e-12
-3.28149e-11 9.0797e-12 6.77455

35.6047 -2.91777 -2.13379e-11
-2.91777 39.2306 1.99413e-11
-2.13379e-11 1.99413e-11 37.8077

15.5096 2.62204 -4.23479e-11
2.62204 20.7817 7.29742e-12
-4.23479e-11 7.29742e-12 12.3487

19.8953 2.34995 2.60165e-11
2.34995 16.0624 -2.71242e-11
2.60165e-11 -2.71242e-11 12.3874

41.0279 -2.04655 2.62959e-11
-2.04655 42.7992 1.30986e-11
2.62959e-11 1.30986e-11 41.7188

41.0181 2.03889 -3.6122e-11
2.03889 42.7761 -3.48718e-11
-3.6122e-11 -3.48718e-11 41.7193

40.5417 0.0589727 2.71658e-11
0.0589727 36.0066 -4.85835e-12
2.71658e-11 -4.85835e-12 37.8364

41.033 -1.78307 -1.73202e-12
-1.78307 42.2491 1.57004e-11
-1.73202e-12 1.57004e-11 41.7876

41.0264 1.77758 -2.92826e-11
1.77758 42.2427 -3.08337e-12
-2.92826e-11 -3.08337e-12 41.7926

31.8814 2.8615 -1.49074e-11
2.8615 36.2191 -1.84019e-11
-1.49074e-11 -1.84019e-11 33.2642

44.0054 1.1703 4.93198e-11
1.1703 40.4221 9.72914e-12
4.93198e-11 9.72914e-12 41.5733

44.0395 -1.16158 3.44845e-11
-1.16158 40.4042 1.87825e-11
3.44845e-11 1.87825e-11 41.5612

38.4805 -2.36207 -1.05915e-12
-2.36207 39.7129 7.03273e-12
-1.05915e-12 7.03273e-12 39.0112

38.4687 2.34767 5.23059e-11
2.34767 39.7117 2.93345e-11
5.23059e-11 2.93345e-11 39.0242

26.6446 -2.54109 1.2045e-11
-2.54109 23.3036 -4.4319e-11
1.2045e-11 -4.4319e-11 21.9069

40.8892 1.14224 1.26486e-12
1.14224 43.863 -3.62189e-11
1.26486e-12 -3.62189e-11 41.6717

40.6858 0.903285 2.54006e-12
0.903285 43.7042 5.20175e-12
2.54006e-12 5.20175e-12 41.5042

30.7993 -3.1549 -3.47291e-11
-3.1549 34.6586 1.01178e-11
-3.47291e-11 1.01178e-11 31.067

21.6566 -2.08848 2.20862e-11
-2.08848 26.71 1.15493e-12
2.20862e-11 1.15493e-12 19.0526

26.0273 -2.06991 -6.73732e-11
-2.06991 21.6566 -9.92932e-12
-6.73732e-11 -9.92932e-12 18.7749

33.5327 2.49267 -6.14037e-13
2.49267 37.8699 -6.26195e-12
-6.14037e-13 -6.26195e-12 35.4043

33.1179 2.31776 4.06745e-11
2.31776 37.2002 -2.69734e-11
4.06745e-11 -2.69734e-11 35.025

46.9629 -3.45647 6.37664e-11
-3.45647 44.6473 -6.40561e-11
6.37664e-11 -6.40561e-11 45.3297

46.9616 3.45547 2.29638e-10
3.45547 44.6533 2.27038e-10
2.29638e-10 2.27038e-10 45.3348

34.7558 3.53275 1.09813e-11
3.53275 38.583 -7.80244e-12
1.09813e-11 -7.80244e-12 36.8051

38.323 1.73574 -5.20169e-12
1.73574 36.9234 1.23299e-11
-5.20169e-12 1.23299e-11 37.4498

38.3083 -1.76615 1.44514e-12
-1.76615 36.8253 1.0837e-11
1.44514e-12 1.0837e-11 37.3606

34.4785 3.37632 1.73409e-12
3.37632 37.6036 3.08279e-12
1.73409e-12 3.08279e-12 36.3039

36.1164 -3.08642 -2.59598e-11
-3.08642 39.8801 -2.04212e-11
-2.59598e-11 -2.04212e-11 38.2071

30.1043 -0.035155 4.91399e-12
-0.035155 24.3953 -4.57763e-13
4.91399e-12 -4.57763e-13 24.3905

32.3937 1.37852 3.22261e-11
1.37852 27.2333 -7.39322e-12
3.22261e-11 -7.39322e-12 27.672

39.45 0.559645 1.57986e-11
0.559645 35.7045 -1.89769e-11
1.57986e-11 -1.89769e-11 38.0598

43.3025 -0.864286 -4.83546e-11
-0.864286 42.857 2.254e-11
-4.83546e-11 2.254e-11 42.4639

43.3114 0.743794 3.66066e-12
0.743794 42.9255 3.51578e-11
3.66066e-12 3.51578e-11 42.4991

27.8047 2.55343 1.0453e-11
2.55343 29.0971 -5.68449e-12
1.0453e-11 -5.68449e-12 25.2519

32.8659 -2.22849 -4.52749e-12
-2.22849 31.7654 -5.87663e-12
-4.52749e-12 -5.87663e-12 31.5332

38.2067 1.33612 -1.05967e-12
1.33612 35.3618 6.74359e-12
-1.05967e-12 6.74359e-12 35.7517

41.7918 0.730971 -2.10117e-11
0.730971 43.8561 -1.40639e-11
-2.10117e-11 -1.40639e-11 42.1749

41.7559 0.623 -2.04187e-11
0.623 43.8223 3.96855e-11
-2.04187e-11 3.96855e-11 42.1181

39.7033 -0.409999 8.67269e-13
-0.409999 36.1644 1.64235e-11
8.67269e-13 1.64235e-11 38.4045

35.7358 -0.871983 -2.49493e-11
-0.871983 38.623 -4.43171e-12
-2.49493e-11 -4.43171e-12 36.4544

35.8951 -1.18603 1.44012e-11
-1.18603 38.8836 3.94869e-12
1.44012e-11 3.94869e-12 36.6121

41.5496 -0.820109 1.44514e-12
-0.820109 37.6697 4.52728e-12
1.44514e-12 4.52728e-12 39.685

41.6218 0.829385 1.23298e-11
0.829385 37.6955 -1.31243e-11
1.23298e-11 -1.31243e-11 39.7723

29.0744 -2.53388 -1.3537e-11
-2.53388 28.9963 -2.88362e-13
-1.3537e-11 -2.88362e-13 25.6313

36.4406 0.157973 -3.44881e-11
0.157973 32.5238 -1.26916e-11
-3.44881e-11 -1.26916e-11 32.8249

41.8548 -1.24315 1.11261e-11
-1.24315 39.6055 -2.38172e-11
1.11261e-11 -2.38172e-11 41.006

41.8389 1.23141 7.12815e-12
1.23141 39.6379 -6.64611e-12
7.12815e-12 -6.64611e-12 41.0351

38.1737 -1.38658 -6.16507e-12
-1.38658 35.4069 1.55091e-11
-6.16507e-12 1.55091e-11 35.6985

31.3294 -2.87314 2.34565e-11
-2.87314 35.1012 3.28501e-11
2.34565e-11 3.28501e-11 31.4408

41.5629 -0.922816 6.35847e-12
-0.922816 38.1499 9.62859e-13
6.35847e-12 9.62859e-13 39.5967

41.6309 0.931248 3.85315e-11
0.931248 38.1766 1.69057e-11
3.85315e-11 1.69057e-11 39.6913

36.7827 -0.605164 1.82079e-11
-0.605164 32.0644 5.42339e-11
1.82079e-11 5.42339e-11 33.7904

35.6676 4.03234 3.90134e-11
4.03234 39.3907 1.97501e-11
3.90134e-11 1.97501e-11 37.421

31.9423 2.22153 2.01359e-11
2.22153 30.9484 1.65232e-11
2.01359e-11 1.65232e-11 29.3304

34.8011 3.41278 5.10334e-12
3.41278 38.8958 -3.94961e-11
5.10334e-12 -3.94961e-11 37.0142

35.4592 3.8111 1.90243e-11
3.8111 39.6729 -7.12724e-12
1.90243e-11 -7.12724e-12 37.4774

33.5782 1.64882 8.65382e-13
1.64882 29.971 -1.1874e-11
8.65382e-13 -1.1874e-11 29.9

35.9651 -1.36376 1.01151e-11
-1.36376 33.9573 -4.23809e-12
1.01151e-11 -4.23809e-12 35.1703

36.3039 0.745721 -8.28522e-12
0.745721 31.9327 -1.87847e-11
-8.28522e-12 -1.87847e-11 33.2626

29.1284 2.81109 1.17526e-11
2.81109 29.862 -9.58663e-12
1.17526e-11 -9.58663e-12 27.7493

32.4538 2.28182 -2.55299e-11
2.28182 31.5482 5.58712e-12
-2.55299e-11 5.58712e-12 31.2652

32.5514 0.197596 -9.51178e-13
0.197596 36.7944 7.41807e-12
-9.51178e-13 7.41807e-12 34.6967

32.6076 0.312562 1.87368e-11
0.312562 36.8304 -2.19639e-11
1.87368e-11 -2.19639e-11 34.7259

28.1537 -2.86568 1.4211e-11
-2.86568 25.8793 -1.81608e-11
1.4211e-11 -1.81608e-11 23.9694

34.513 -3.40284 1.41622e-11
-3.40284 37.6684 -3.89196e-11
1.41622e-11 -3.89196e-11 36.3633

30.0046 -3.35905 2.46177e-11
-3.35905 32.293 -6.60431e-11
2.46177e-11 -6.60431e-11 28.8427

29.942 3.44054 -1.2478e-11
3.44054 32.1744 -6.28636e-11
-1.2478e-11 -6.28636e-11 28.7663

35.9886 -1.24998 1.83083e-12
-1.24998 32.9209 2.40881e-13
1.83083e-12 2.40881e-13 33.5876

41.0002 -0.186585 9.24777e-12
-0.186585 33.4474 -1.09323e-11
9.24777e-12 -1.09323e-11 37.89

40.9725 0.208879 1.15601e-11
0.208879 33.452 -1.81576e-11
1.15601e-11 -1.81576e-11 37.7981

28.2053 1.82559 -4.09352e-12
1.82559 32.7114 2.92879e-11
-4.09352e-12 2.92879e-11 28.7728

33.1018 -2.76212 9.92299e-12
-2.76212 33.9239 -2.01348e-11
9.92299e-12 -2.01348e-11 32.3612

23.732 -0.0616421 8.18928e-12
-0.0616421 30.2806 2.31282e-12
8.18928e-12 2.31282e-12 24.3831

23.6522 0.135641 -4.66064e-12
0.135641 30.2882 1.92365e-13
-4.66064e-12 1.92365e-13 24.2805

30.3734 -0.0221486 2.3991e-11
-0.0221486 24.9318 -9.53813e-12
2.3991e-11 -9.53813e-12 24.7848

29.0386 2.69064 2.51454e-11
2.69064 29.0979 6.30091e-11
2.51454e-11 6.30091e-11 25.5884

30.9537 -3.15466 1.83047e-11
-3.15466 30.5866 -9.15379e-13
1.83047e-11 -9.15379e-13 28.8056

42.4226 -1.55018 -3.04113e-11
-1.55018 45.7809 6.24205e-11
-3.04113e-11 6.24205e-11 43.0251

42.4632 -1.43061 -1.99542e-12
-1.43061 45.8011 -6.35693e-12
-1.99542e-12 -6.35693e-12 43.0599

33.9384 -1.61548 2.32184e-11
-1.61548 30.1536 7.56206e-12
2.32184e-11 7.56206e-12 30.2198

33.8047 3.74661 1.01146e-11
3.74661 37.9089 -5.00888e-12
1.01146e-11 -5.00888e-12 35.1505

40.5327 -0.0987206 1.65687e-11
-0.0987206 35.9582 -1.44894e-11
1.65687e-11 -1.44894e-11 37.7734

28.2096 -1.79654 9.47205e-14
-1.79654 32.9083 4.21977e-11
9.47205e-14 4.21977e-11 28.8485

36.2165 3.35503 1.34837e-12
3.35503 40.1769 -7.3204e-12
1.34837e-12 -7.3204e-12 38.414

35.4502 3.15803 6.02077e-12
3.15803 39.4132 9.64784e-14
6.02077e-12 9.64784e-14 37.8824

35.7329 -4.0246 -2.47569e-11
-4.0246 39.434 1.09832e-11
-2.47569e-11 1.09832e-11 37.4716

35.8037 3.88148 -1.30049e-11
3.88148 40.3345 -3.92086e-11
-1.30049e-11 -3.92086e-11 37.9757

33.0339 3.27587 -1.20272e-12
3.27587 36.8538 2.16761e-11
-1.20272e-12 2.16761e-11 34.4776

44.0661 0.00736479 -4.43071e-12
0.00736479 39.688 -1.37513e-11
-4.43071e-12 -1.37513e-11 42.2748

30.9096 3.09585 -1.03081e-11
3.09585 30.2203 1.51245e-11
-1.03081e-11 1.51245e-11 28.5649

34.8006 -3.44202 1.35824e-11
-3.44202 38.8728 2.79324e-12
1.35824e-11 2.79324e-12 37.009

31.6486 2.70585 -3.7282e-11
2.70585 32.8799 -5.35656e-11
-3.7282e-11 -5.35656e-11 30.1425

26.8534 -2.33658 -4.73033e-11
-2.33658 28.4724 -1.31505e-11
-4.73033e-11 -1.31505e-11 24.3196

33.3512 -2.86046 -1.64736e-11
-2.86046 35.6294 1.09834e-11
-1.64736e-11 1.09834e-11 34.1082

27.5758 -1.63025 2.99257e-11
-1.63025 32.8328 9.10368e-12
2.99257e-11 9.10368e-12 27.1102

27.4272 1.58917 9.38113e-12
1.58917 32.6575 4.09945e-11
9.38113e-12 4.09945e-11 26.9757

32.2287 -1.11955 -9.10472e-12
-1.11955 28.9195 -7.49064e-12
-9.10472e-12 -7.49064e-12 27.3066

31.6285 -2.77991 1.17575e-11
-2.77991 32.8681 -7.48564e-11
1.17575e-11 -7.48564e-11 30.0747

32.05 0.430968 8.694e-12
0.430968 36.3471 -1.41618e-11
8.694e-12 -1.41618e-11 32.4907

32.0269 -0.00472666 -7.10525e-13
-0.00472666 36.279 -7.03245e-12
-7.10525e-13 -7.03245e-12 32.4668

25.8918 -3.20904 3.17894e-12
-3.20904 27.9127 1.27169e-11
3.17894e-12 1.27169e-11 23.6882

25.7824 3.24871 5.1255e-11
3.24871 28.0719 4.41774e-11
5.1255e-11 4.41774e-11 23.8518

43.5872 -0.285852 -7.70591e-12
-0.285852 38.6165 1.8253e-11
-7.70591e-12 1.8253e-11 41.5538

43.6154 0.299707 -3.25589e-11
0.299707 38.6326 5.61104e-12
-3.25589e-11 5.61104e-12 41.5871

34.5011 3.53139 1.49377e-12
3.53139 38.3112 2.78407e-11
1.49377e-12 2.78407e-11 35.8027

35.4243 -3.21351 3.80418e-12
-3.21351 39.4802 5.58698e-12
3.80418e-12 5.58698e-12 37.8199

34.6404 2.33837 -1.59901e-11
2.33837 35.8764 2.27337e-11
-1.59901e-11 2.27337e-11 35.2832

26.7249 2.58937 -2.25452e-11
2.58937 23.35 9.03189e-12
-2.25452e-11 9.03189e-12 21.1219

28.6703 2.21538 1.20897e-11
2.21538 33.8239 6.74349e-13
1.20897e-11 6.74349e-13 29.3784

40.708 1.54465 -1.26192e-11
1.54465 40.5265 2.66343e-11
-1.26192e-11 2.66343e-11 40.6296

40.7224 -1.55587 4.48878e-11
-1.55587 40.5378 1.19416e-11
4.48878e-11 1.19416e-11 40.621

38.5397 -2.10911 -1.24265e-11
-2.10911 38.1249 1.25279e-12
-1.24265e-11 1.25279e-12 37.6262

38.5189 2.09255 -1.11747e-11
2.09255 38.1192 -2.91882e-11
-1.11747e-11 -2.91882e-11 37.6406

16.9178 0.691934 -1.86199e-11
0.691934 25.2271 7.41777e-12
-1.86199e-11 7.41777e-12 13.4618

24.3055 0.716235 -2.42831e-11
0.716235 17.7044 -1.84623e-11
-2.42831e-11 -1.84623e-11 13.4431

28.6062 -2.10208 -1.27761e-12
-2.10208 33.9455 5.68418e-11
-1.27761e-12 5.68418e-11 29.4861

44.1964 -1.67697 7.43612e-11
-1.67697 44.6382 -9.305e-11
7.43612e-11 -9.305e-11 44.2237

44.1852 1.68244 5.72148e-11
1.68244 44.6351 8.21646e-11
5.72148e-11 8.21646e-11 44.2247

35.2994 2.57345 -2.4949e-11
2.57345 35.4126 4.91286e-11
-2.4949e-11 4.91286e-11 34.1046

27.6063 1.41058 -5.16676e-11
1.41058 22.0768 1.80516e-11
-5.16676e-11 1.80516e-11 20.9678

36.452 -0.268362 6.16544e-12
-0.268362 32.5497 -2.34182e-11
6.16544e-12 -2.34182e-11 32.8354

33.1323 -1.84926 -2.37466e-11
-1.84926 37.1516 2.3699e-11
-2.37466e-11 2.3699e-11 35.0312

33.5761 -2.0229 2.82941e-12
-2.0229 37.6301 1.55096e-11
2.82941e-12 1.55096e-11 35.3861

29.0282 -3.05821 -4.47472e-11
-3.05821 30.1553 -6.48851e-11
-4.47472e-11 -6.48851e-11 27.4728

35.8349 -3.89788 -1.50262e-11
-3.89788 40.4017 -2.26371e-11
-1.50262e-11 -2.26371e-11 38.0197

35.293 -2.60127 8.18908e-12
-2.60127 35.4462 -1.74372e-11
8.18908e-12 -1.74372e-11 34.0667

34.2529 3.73371 -1.70507e-11
3.73371 38.5299 -1.13679e-11
-1.70507e-11 -1.13679e-11 36.7285

38.883 2.69988 -3.14219e-12
2.69988 41.0524 7.2247e-12
-3.14219e-12 7.2247e-12 39.6637

38.6145 2.45266 1.76776e-11
2.45266 40.4376 2.60092e-11
1.76776e-11 2.60092e-11 39.3493

34.535 -3.54692 7.27252e-12
-3.54692 38.4422 -6.74794e-13
7.27252e-12 -6.74794e-13 35.8999

33.6753 3.20157 2.89e-11
3.20157 37.0808 1.57034e-11
2.89e-11 1.57034e-11 34.9532

31.0418 2.21571 8.33496e-12
2.21571 27.6834 2.19179e-11
8.33496e-12 2.19179e-11 27.2627

35.447 4.10859 -1.37751e-11
4.10859 39.7653 -7.0336e-12
-1.37751e-11 -7.0336e-12 37.6249

31.1876 -2.51103 3.22965e-11
-2.51103 35.4646 -2.88049e-11
3.22965e-11 -2.88049e-11 32.7141

29.6187 0.97798 2.30717e-11
0.97798 34.7641 -3.30441e-11
2.30717e-11 -3.30441e-11 31.02

35.5767 2.98103 -5.81845e-11
2.98103 36.8881 -5.7823e-12
-5.81845e-11 -5.7823e-12 35.7244

30.1798 1.25646 2.11935e-11
1.25646 35.1365 -1.01146e-11
2.11935e-11 -1.01146e-11 31.4038

36.2331 -3.48709 -9.48794e-12
-3.48709 40.2692 -2.51423e-11
-9.48794e-12 -2.51423e-11 38.3567

19.2684 -2.99445 1.23438e-11
-2.99445 19.5993 2.31715e-11
1.23438e-11 2.31715e-11 14.9509

19.3575 -3.02713 -1.52727e-11
-3.02713 19.3735 1.82879e-11
-1.52727e-11 1.82879e-11 14.8907

35.5766 -2.99877 7.61028e-12
-2.99877 36.8901 4.14148e-12
7.61028e-12 4.14148e-12 35.7083

37.914 -1.13289 -1.49273e-12
-1.13289 34.3 -2.25792e-11
-1.49273e-12 -2.25792e-11 35.3802

47.1462 3.55971 -1.05764e-10
3.55971 45.5333 -9.49803e-11
-1.05764e-10 -9.49803e-11 45.55

47.1474 -3.56004 -6.39596e-11
-3.56004 45.5345 1.49395e-10
-6.39596e-11 1.49395e-10 45.5468

33.9252 -3.72367 3.56482e-12
-3.72367 38.1088 -9.34497e-12
3.56482e-12 -9.34497e-12 35.3583

40.3804 0.781356 -4.71993e-11
0.781356 41.0523 -3.59306e-11
-4.71993e-11 -3.59306e-11 40.7441

40.4312 -0.718122 7.71272e-13
-0.718122 41.1028 -4.62351e-12
7.71272e-13 -4.62351e-12 40.7628

38.475 0.0485005 1.21379e-11
0.0485005 31.0435 -3.33799e-11
1.21379e-11 -3.33799e-11 34.2313

34.2332 -3.75176 1.24262e-11
-3.75176 38.5783 -3.17955e-12
1.24262e-11 -3.17955e-12 36.7132

21.2303 3.64864 -4.79328e-12
3.64864 21.55 9.97247e-12
-4.79328e-12 9.97247e-12 17.427

20.8559 3.45619 2.86529e-11
3.45619 21.5491 -4.79372e-12
2.86529e-11 -4.79372e-12 17.442

22.5076 -2.59686 -2.27685e-12
-2.59686 27.2814 1.37298e-11
-2.27685e-12 1.37298e-11 20.4151

22.961 2.72293 -1.19942e-11
2.72293 27.6897 -8.04586e-12
-1.19942e-11 -8.04586e-12 20.8558

26.9622 -2.16021 -1.10756e-12
-2.16021 23.4047 -1.52465e-11
-1.10756e-12 -1.52465e-11 20.5512

35.4621 -4.1263 2.18656e-11
-4.1263 39.8874 1.7724e-11
2.18656e-11 1.7724e-11 37.6577

17.8096 0.956839 -9.64691e-12
0.956839 25.1257 3.70481e-11
-9.64691e-12 3.70481e-11 17.5057

24.7739 1.22178 6.91402e-12
1.22178 18.9667 1.92892e-13
6.91402e-12 1.92892e-13 17.7677

40.0301 -1.27484 -2.55014e-11
-1.27484 42.1257 -3.14031e-11
-2.55014e-11 -3.14031e-11 40.7465

40.287 -1.54286 3.4569e-11
-1.54286 42.3231 1.01913e-10
3.4569e-11 1.01913e-10 40.9262

39.0696 0.483914 2.40804e-12
0.483914 35.0906 -1.27629e-11
2.40804e-12 -1.27629e-11 36.4886

40.5084 0.0301087 -1.36801e-11
0.0301087 31.7643 1.33291e-11
-1.36801e-11 1.33291e-11 36.5685

26.6447 -2.35626 9.34541e-12
-2.35626 30.8424 -5.25073e-11
9.34541e-12 -5.25073e-11 26.1128

26.4922 2.30449 4.69649e-11
2.30449 30.7252 1.60915e-11
4.69649e-11 1.60915e-11 26.0082

38.5083 7.21405e-05 2.91898e-11
7.21405e-05 30.9823 -1.07677e-11
2.91898e-11 -1.07677e-11 34.3377

31.9938 -2.84566 4.23828e-12
-2.84566 36.4436 -5.00966e-12
4.23828e-12 -5.00966e-12 33.4652

43.5482 -1.21738 -5.05692e-11
-1.21738 43.2714 2.55281e-11
-5.05692e-11 2.55281e-11 43.2624

43.5222 1.21494 -1.99389e-11
1.21494 43.2596 -3.27991e-11
-1.99389e-11 -3.27991e-11 43.2603

36.3574 1.67737 3.2759e-12
1.67737 36.6561 1.96511e-11
3.2759e-12 1.96511e-11 36.026

33.5764 -3.18742 -3.63167e-11
-3.18742 37.0709 -7.99483e-12
-3.63167e-11 -7.99483e-12 34.9122

38.252 0.483885 1.35834e-11
0.483885 32.1349 -2.22521e-11
1.35834e-11 -2.22521e-11 35.2302

27.1562 2.65959 -8.238e-12
2.65959 26.6619 -1.63884e-12
-8.238e-12 -1.63884e-12 24.101

33.0669 -3.27443 -4.82494e-13
-3.27443 36.8749 1.65699e-11
-4.82494e-13 1.65699e-11 34.5156

9.92331 -5.74944 1.79856e-11
-5.74944 10.1276 -4.6051e-11
1.79856e-11 -4.6051e-11 5.60838

29.7761 -0.784702 -3.80512e-11
-0.784702 34.6572 -2.74575e-11
-3.80512e-11 -2.74575e-11 31.0405

30.2217 -1.07467 -1.3631e-11
-1.07467 34.9501 1.15574e-12
-1.3631e-11 1.15574e-12 31.3321

40.3656 -0.254062 5.55275e-12
-0.254062 41.8759 1.88796e-11
5.55275e-12 1.88796e-11 40.9539

40.4105 -0.146354 -6.36913e-12
-0.146354 41.8503 4.18063e-11
-6.36913e-12 4.18063e-11 40.9633

44.4713 -0.892206 1.67608e-11
-0.892206 40.7369 1.24246e-11
1.67608e-11 1.24246e-11 43.0872

44.4691 0.893665 -1.96504e-11
0.893665 40.7513 1.15826e-11
-1.96504e-11 1.15826e-11 43.1115

37.1783 -1.75625 -2.5336e-11
-1.75625 37.5786 3.51571e-16
-2.5336e-11 3.51571e-16 37.7905

37.0771 1.81216 3.80504e-11
1.81216 37.1831 1.05008e-11
3.80504e-11 1.05008e-11 37.5351

39.9962 -1.55835 5.85661e-11
-1.55835 41.6989 5.78855e-13
5.85661e-11 5.78855e-13 40.5623

39.9544 1.62217 -4.50806e-11
1.62217 41.6772 -2.75498e-11
-4.50806e-11 -2.75498e-11 40.543

45.3873 2.42391 -4.12306e-11
2.42391 45.1927 -1.28688e-10
-4.12306e-11 -1.28688e-10 44.7798

45.3894 -2.4203 -3.87253e-11
-2.4203 45.1946 1.87347e-10
-3.87253e-11 1.87347e-10 44.7762

37.4484 -3.99939 -1.18471e-11
-3.99939 40.9842 -3.96871e-11
-1.18471e-11 -3.96871e-11 39.3276

37.463 4.01321 -7.12867e-12
4.01321 40.9466 -5.36562e-11
-7.12867e-12 -5.36562e-11 39.3364

35.0729 2.38879 3.85469e-13
2.38879 33.9545 1.4065e-11
3.85469e-13 1.4065e-11 33.4875

32.6427 -1.8845 2.28932e-12
-1.8845 36.3818 -3.72822e-11
2.28932e-12 -3.72822e-11 33.3761

33.0341 -2.3523 3.06088e-11
-2.3523 37.1295 -2.03282e-11
3.06088e-11 -2.03282e-11 33.8394

27.7726 -2.37755 -8.96009e-12
-2.37755 27.098 8.33459e-12
-8.96009e-12 8.33459e-12 23.9632

35.0497 -2.38501 -2.60214e-12
-2.38501 34.0183 3.12129e-11
-2.60214e-12 3.12129e-11 33.46

32.5409 1.77829 3.37636e-11
1.77829 36.2118 -3.2176e-11
3.37636e-11 -3.2176e-11 33.2481

33.1587 3.34553 3.02495e-11
3.34553 34.4364 1.65709e-11
3.02495e-11 1.65709e-11 32.4852

35.7678 -3.46481 -4.32522e-11
-3.46481 39.2113 -3.17749e-12
-4.32522e-11 -3.17749e-12 38.0162

35.8236 3.40111 -1.21393e-11
3.40111 39.2223 -4.2001e-11
-1.21393e-11 -4.2001e-11 38.0529

33.0866 -3.39562 4.04417e-12
-3.39562 34.3931 2.89018e-11
4.04417e-12 2.89018e-11 32.4138

39.4435 -0.336481 2.68769e-11
-0.336481 35.5392 8.47692e-12
2.68769e-11 8.47692e-12 37.0003

42.6193 0.961055 -4.70067e-11
0.961055 44.2677 7.87922e-11
-4.70067e-11 7.87922e-11 42.7286

42.7203 0.844958 -3.08722e-11
0.844958 44.2385 -2.21547e-11
-3.08722e-11 -2.21547e-11 42.7733

35.7289 -2.98336 -1.56541e-11
-2.98336 39.2355 2.30242e-11
-1.56541e-11 2.30242e-11 36.9422

35.4329 1.46001 -1.59911e-11
1.46001 33.5366 -1.27165e-11
-1.59911e-11 -1.27165e-11 34.6389

42.0521 -0.359746 1.34905e-12
-0.359746 37.0499 -2.43699e-11
1.34905e-12 -2.43699e-11 39.4515

20.6809 -3.21049 -3.37101e-12
-3.21049 21.1734 -2.78474e-11
-3.37101e-12 -2.78474e-11 16.3352

20.8461 -3.13576 7.27418e-12
-3.13576 21.2749 -2.8231e-11
7.27418e-12 -2.8231e-11 16.4714

44.2587 -1.00561 1.06922e-11
-1.00561 40.4288 -2.37438e-11
1.06922e-11 -2.37438e-11 42.7707

44.2209 1.02239 5.78045e-12
1.02239 40.4371 3.05824e-11
5.78045e-12 3.05824e-11 42.7801

42.1583 0.296239 1.3776e-11
0.296239 37.2398 1.49308e-11
1.3776e-11 1.49308e-11 39.5753

33.029 2.33508 -3.76179e-11
2.33508 36.9957 -5.60695e-11
-3.76179e-11 -5.60695e-11 33.7758

34.305 1.84037 4.43127e-12
1.84037 32.3274 -3.37134e-12
4.43127e-12 -3.37134e-12 31.114

38.527 -2.65928 -1.70498e-11
-2.65928 40.3812 -3.99756e-11
-1.70498e-11 -3.99756e-11 39.0703

38.5147 2.63864 5.41375e-11
2.63864 40.377 -1.05942e-11
5.41375e-11 -1.05942e-11 39.0788

44.2426 -0.48143 -2.65856e-11
-0.48143 41.6615 -1.16372e-12
-2.65856e-11 -1.16372e-12 42.5225

44.32 0.486816 3.54475e-11
0.486816 42.0497 8.84821e-11
3.54475e-11 8.84821e-11 42.6614

34.3488 -3.41899 1.38708e-11
-3.41899 38.6114 1.64723e-11
1.38708e-11 1.64723e-11 36.3779

35.7361 1.46601 -1.55111e-11
1.46601 32.8062 -2.85147e-11
-1.55111e-11 -2.85147e-11 33.1505

42.1889 1.01589 1.90727e-11
1.01589 40.9278 2.33588e-11
1.90727e-11 2.33588e-11 41.4365

42.2148 -1.02113 8.47537e-12
-1.02113 40.9278 -1.03555e-11
8.47537e-12 -1.03555e-11 41.4292

35.2302 -2.65401 -1.04529e-11
-2.65401 38.4539 1.1078e-11
-1.04529e-11 1.1078e-11 36.478

34.5116 -3.64877 1.64245e-11
-3.64877 38.5829 -1.34872e-11
1.64245e-11 -1.34872e-11 36.7053

10.2629 -5.96128 -2.34673e-11
-5.96128 10.5794 2.26225e-11
-2.34673e-11 2.26225e-11 5.92032

37.1571 2.48778 -1.88803e-11
2.48778 40.6489 -1.42567e-11
-1.88803e-11 -1.42567e-11 39.043

37.1406 -2.52537 -6.19376e-11
-2.52537 40.6867 -9.34206e-12
-6.19376e-11 -9.34206e-12 39.06

33.5074 -3.16129 -1.5124e-11
-3.16129 37.7163 1.05993e-12
-1.5124e-11 1.05993e-12 35.7273

34.7002 -1.98568 2.73594e-11
-1.98568 32.5273 1.52206e-11
2.73594e-11 1.52206e-11 31.4126

36.8227 -1.58249 -7.89883e-12
-1.58249 36.9262 -2.69725e-12
-7.89883e-12 -2.69725e-12 36.3871

37.1655 2.15348 3.99774e-11
2.15348 38.9312 3.64136e-11
3.99774e-11 3.64136e-11 38.149

37.1453 -2.23505 -1.47385e-11
-2.23505 39.0271 -1.31006e-11
-1.47385e-11 -1.31006e-11 38.187

38.534 -0.32198 2.53357e-11
-0.32198 32.3324 5.75082e-11
2.53357e-11 5.75082e-11 35.6549

44.6557 0.789996 -1.07877e-11
0.789996 42.5247 -2.81259e-11
-1.07877e-11 -2.81259e-11 43.7951

44.7041 -0.782273 -1.71447e-11
-0.782273 42.5291 8.66918e-12
-1.71447e-11 8.66918e-12 43.8058

42.5139 0.349658 -1.20112e-11
0.349658 46.3631 -5.77969e-12
-1.20112e-11 -5.77969e-12 42.9404

42.5695 0.233021 -3.79384e-11
0.233021 46.3735 3.46777e-11
-3.79384e-11 3.46777e-11 42.9655

16.1911 0.250462 -1.86437e-11
0.250462 24.9814 1.87651e-11
-1.86437e-11 1.87651e-11 13.1317

23.8189 0.222713 1.39509e-11
0.222713 16.2487 -1.82703e-11
1.39509e-11 -1.82703e-11 12.9084

36.8632 -3.41521 -8.57274e-12
-3.41521 40.5138 2.9669e-11
-8.57274e-12 2.9669e-11 38.3217

36.8678 3.40551 2.76461e-11
3.40551 40.4966 5.49098e-11
2.76461e-11 5.49098e-11 38.3298

35.2066 -3.88804 1.31481e-11
-3.88804 39.7053 1.47382e-11
1.31481e-11 1.47382e-11 37.3869

13.9142 -2.80192 -5.60065e-11
-2.80192 20.3865 -2.79169e-11
-5.60065e-11 -2.79169e-11 11.178

19.876 -2.6785 -1.88171e-11
-2.6785 14.6138 3.64458e-11
-1.88171e-11 3.64458e-11 11.2988

44.6581 -3.57124 -1.09227e-10
-3.57124 47.4381 7.42677e-11
-1.09227e-10 7.42677e-11 45.703

44.6546 3.57063 1.14609e-10
3.57063 47.4392 -2.65363e-10
1.14609e-10 -2.65363e-10 45.7058

34.7275 -2.35907 1.99412e-11
-2.35907 35.9692 5.97241e-12
1.99412e-11 5.97241e-12 35.4187

33.3061 -3.27848 -2.03273e-11
-3.27848 35.5873 1.85935e-11
-2.03273e-11 1.85935e-11 33.1968

36.4952 -3.4512 1.74356e-11
-3.4512 39.1013 -2.11e-11
1.74356e-11 -2.11e-11 37.6278

36.4881 3.43774 -7.12674e-12
3.43774 39.0863 1.67605e-11
-7.12674e-12 1.67605e-11 37.632

34.0923 -3.70325 -7.31933e-12
-3.70325 37.3149 -2.33128e-11
-7.31933e-12 -2.33128e-11 34.9993

33.2977 3.27947 5.6548e-11
3.27947 35.4797 1.00225e-11
5.6548e-11 1.00225e-11 33.1616

22.2124 -1.06307 -5.69652e-12
-1.06307 28.3407 -2.02283e-12
-5.69652e-12 -2.02283e-12 20.8078

21.8902 1.28737 -2.28816e-11
1.28737 27.9074 -3.18057e-12
-2.28816e-11 -3.18057e-12 20.7023

27.8542 -0.809815 -1.73406e-11
-0.809815 23.4853 -8.98377e-12
-1.73406e-11 -8.98377e-12 21.0784

34.0822 3.68407 2.65867e-11
3.68407 37.2568 -4.62392e-11
2.65867e-11 -4.62392e-11 34.9614

17.5285 -0.661336 -3.13434e-13
-0.661336 25.2265 5.4919e-12
-3.13434e-13 5.4919e-12 17.2454

24.5056 -0.64057 -5.16467e-11
-0.64057 17.6839 4.64279e-12
-5.16467e-11 4.64279e-12 17.0218

38.3347 -3.3725 -1.90728e-11
-3.3725 41.0004 1.46428e-11
-1.90728e-11 1.46428e-11 39.645

38.3497 3.35312 -5.77993e-12
3.35312 40.9922 3.61233e-11
-5.77993e-12 3.61233e-11 39.6593

38.856 -2.93483 -7.6194e-11
-2.93483 41.7038 6.0713e-12
-7.6194e-11 6.0713e-12 40.2197

38.8592 2.92326 3.02465e-11
2.92326 41.6859 -3.1209e-11
3.02465e-11 -3.1209e-11 40.2262

13.2497 -2.81723 3.92289e-11
-2.81723 19.5777 3.33215e-13
3.92289e-11 3.33215e-13 10.3604

19.0182 -2.60614 -6.94852e-13
-2.60614 13.4276 -5.98373e-11
-6.94852e-13 -5.98373e-11 10.2512

35.9197 3.11181 -5.69302e-11
3.11181 38.2285 -1.35857e-11
-5.69302e-11 -1.35857e-11 36.3522

35.9333 -3.13694 8.383e-12
-3.13694 38.2711 -1.99417e-11
8.383e-12 -1.99417e-11 36.3543

41.1674 -0.502925 7.20029e-12
-0.502925 42.3716 -1.15585e-11
7.20029e-12 -1.15585e-11 41.3963

41.2337 -0.667143 -3.81291e-11
-0.667143 42.4952 8.70795e-11
-3.81291e-11 8.70795e-11 41.4676

38.3456 -3.38666 4.43127e-12
-3.38666 42.5141 -3.01519e-11
4.43127e-12 -3.01519e-11 40.4102

38.3378 3.40223 -2.24434e-11
3.40223 42.4886 -1.06101e-12
-2.24434e-11 -1.06101e-12 40.4147

43.1092 -1.32959 -6.41529e-11
-1.32959 41.6435 3.23673e-11
-6.41529e-11 3.23673e-11 42.7539

43.0869 1.32995 -9.16039e-11
1.32995 41.6502 -1.8161e-11
-9.16039e-11 -1.8161e-11 42.7561

35.5409 2.80324 -2.63931e-11
2.80324 38.3053 4.84539e-11
-2.63931e-11 4.84539e-11 36.873

35.5395 -2.79169 -6.93586e-12
-2.79169 38.4348 -2.19639e-11
-6.93586e-12 -2.19639e-11 36.9255

40.9144 -1.0486 4.74973e-11
-1.0486 45.0431 -2.11936e-11
4.74973e-11 -2.11936e-11 42.0845

45.8206 -1.9135 3.25571e-11
-1.9135 44.8451 -2.02296e-11
3.25571e-11 -2.02296e-11 45.2032

45.6189 -1.96578 -1.92643e-10
-1.96578 44.8482 -1.09605e-10
-1.92643e-10 -1.09605e-10 45.166

45.7899 1.92414 4.70054e-11
1.92414 44.8405 9.64469e-13
4.70054e-11 9.64469e-13 45.1952

45.6102 1.97051 -3.50603e-11
1.97051 44.8458 1.07393e-10
-3.50603e-11 1.07393e-10 45.1667

40.6943 -0.813746 -1.59058e-11
-0.813746 44.9596 5.664e-11
-1.59058e-11 5.664e-11 41.9402

42.4951 -2.14635 -1.54139e-11
-2.14635 42.4144 3.15939e-11
-1.54139e-11 3.15939e-11 41.7773

42.4033 2.22001 3.69915e-11
2.22001 42.4506 7.43641e-11
3.69915e-11 7.43641e-11 41.7969

44.1639 -2.78516 -1.15778e-10
-2.78516 45.7103 7.09971e-11
-1.15778e-10 7.09971e-11 44.1563

52.7962 -2.08127 1.17649e-09
-2.08127 45.4389 2.22986e-10
1.17649e-09 2.22986e-10 46.559

52.7965 2.07974 1.41287e-09
2.07974 45.4456 -4.51715e-10
1.41287e-09 -4.51715e-10 46.5649

44.1571 2.78654 8.30351e-11
2.78654 45.7065 7.61931e-11
8.30351e-11 7.61931e-11 44.1598

44.6386 -2.95493 6.5471e-12
-2.95493 44.5332 2.49472e-11
6.5471e-12 2.49472e-11 43.7636

41.5182 -2.38241 3.59271e-11
-2.38241 43.8842 -7.70718e-12
3.59271e-11 -7.70718e-12 42.276

45.3325 -2.2752 -5.58842e-12
-2.2752 45.3231 -7.27226e-11
-5.58842e-12 -7.27226e-11 44.7888

44.6339 2.95639 -1.54377e-12
2.95639 44.5203 -4.91236e-11
-1.54377e-12 -4.91236e-11 43.7659

45.3303 2.27715 -1.0557e-10
2.27715 45.3251 9.62205e-11
-1.0557e-10 9.62205e-11 44.7935

41.5169 2.38176 3.92034e-11
2.38176 43.8668 -1.46396e-11
3.92034e-11 -1.46396e-11 42.2787

41.6325 -2.45676 4.09393e-11
-2.45676 43.9591 -3.79539e-11
4.09393e-11 -3.79539e-11 42.6995

44.1311 -2.00084 1.22906e-10
-2.00084 44.8858 -1.63774e-11
1.22906e-10 -1.63774e-11 44.1201

41.6319 2.45506 5.92389e-11
2.45506 43.9461 5.28853e-11
5.92389e-11 5.28853e-11 42.7027

44.1199 1.99799 7.32018e-12
1.99799 44.8717 2.79323e-11
7.32018e-12 2.79323e-11 44.1199

35.5569 1.60965 1.42575e-11
1.60965 37.5705 3.8534e-12
1.42575e-11 3.8534e-12 36.3482

33.4996 -0.464708 -1.61833e-11
-0.464708 38.4219 -2.19639e-11
-1.61833e-11 -2.19639e-11 36.2153

34.5382 -0.517964 -1.92671e-11
-0.517964 29.8261 8.86276e-12
-1.92671e-11 8.86276e-12 32.6468

33.197 0.016564 2.33129e-11
0.016564 28.7122 -1.67633e-11
2.33129e-11 -1.67633e-11 30.7875

36.0496 1.61469 3.73757e-11
1.61469 38.4297 3.44869e-11
3.73757e-11 3.44869e-11 37.9761

34.3408 -0.702644 -1.8687e-11
-0.702644 40.9859 -8.8631e-12
-1.8687e-11 -8.8631e-12 38.1812

33.2381 0.906569 2.23503e-11
0.906569 28.7733 1.02121e-11
2.23503e-11 1.02121e-11 30.9169

37.7199 1.15428 -1.58925e-11
1.15428 33.1016 3.73764e-11
-1.58925e-11 3.73764e-11 36.5237

23.7228 2.29879 9.05772e-12
2.29879 26.962 -2.69681e-12
9.05772e-12 -2.69681e-12 24.8124

23.879 2.22719 1.93808e-13
2.22719 27.0115 1.90784e-11
1.93808e-13 1.90784e-11 24.5733

26.4485 2.00388 -1.66681e-11
2.00388 23.5222 1.84958e-11
-1.66681e-11 1.84958e-11 24.1984

38.2554 1.01203 2.56231e-11
1.01203 40.9084 -2.9669e-11
2.56231e-11 -2.9669e-11 39.3385

38.5536 -1.9531 3.86654e-13
-1.9531 39.653 1.09817e-11
3.86654e-13 1.09817e-11 39.1329

33.2199 -2.48497 -8.14164e-16
-2.48497 33.9142 -1.5413e-11
-8.14164e-16 -1.5413e-11 33.3523

34.2334 0.843414 2.27348e-11
0.843414 41.0039 -6.93501e-12
2.27348e-11 -6.93501e-12 38.0652

35.8588 -0.934477 -1.52205e-11
-0.934477 38.1503 1.65679e-11
-1.52205e-11 1.65679e-11 37.8047

35.7929 0.641193 -2.63973e-11
0.641193 30.2458 -1.88795e-11
-2.63973e-11 -1.88795e-11 33.0864

25.7072 1.05984 4.04726e-12
1.05984 30.1921 1.34871e-11
4.04726e-12 1.34871e-11 27.0162

26.3522 0.806917 2.12891e-11
0.806917 29.8173 1.91624e-13
2.12891e-11 1.91624e-13 26.9319

29.6256 0.619021 2.77495e-11
0.619021 25.8008 2.54293e-11
2.77495e-11 2.54293e-11 26.4846

30.1536 2.47802 2.01342e-11
2.47802 32.9783 -8.47715e-12
2.01342e-11 -8.47715e-12 30.8327

29.2708 -1.48654 2.35053e-11
-1.48654 32.9522 -2.6206e-11
2.35053e-11 -2.6206e-11 30.9081

34.8597 1.42925 5.39369e-12
1.42925 29.841 -1.81113e-11
5.39369e-12 -1.81113e-11 32.9271

22.4538 1.68057 7.70828e-13
1.68057 24.8898 -1.42562e-11
7.70828e-13 -1.42562e-11 22.5491

37.3799 -0.640253 2.0036e-11
-0.640253 31.5708 -2.71651e-11
2.0036e-11 -2.71651e-11 35.6832

39.6034 0.43253 -7.8987e-12
0.43253 40.1245 3.84356e-11
-7.8987e-12 3.84356e-11 39.5768

38.5497 -0.11461 3.08249e-11
-0.11461 42.1283 1.46428e-11
3.08249e-11 1.46428e-11 39.7233

48.166 2.50673 -8.09284e-12
2.50673 43.8123 -4.23562e-12
-8.09284e-12 -4.23562e-12 43.2263

47.6181 -1.12322 1.3871e-11
-1.12322 41.4981 3.81427e-11
1.3871e-11 3.81427e-11 42.8968

32.1459 -2.83973 1.23307e-11
-2.83973 33.472 -3.29458e-11
1.23307e-11 -3.29458e-11 32.7678

29.4536 -2.39261 -3.06358e-11
-2.39261 32.345 -2.63964e-11
-3.06358e-11 -2.63964e-11 30.4163

29.0927 -0.028029 2.89022e-11
-0.028029 24.7918 -4.47035e-11
2.89022e-11 -4.47035e-11 26.1661

41.6359 1.55167 7.32114e-12
1.55167 38.8484 1.50269e-11
7.32114e-12 1.50269e-11 39.7225

40.9979 -0.42506 6.54913e-12
-0.42506 38.2003 -1.57992e-11
6.54913e-12 -1.57992e-11 39.4658

37.6061 -0.251626 1.00195e-11
-0.251626 31.7989 -1.56056e-11
1.00195e-11 -1.56056e-11 36.3927

28.8784 -1.81678 3.80521e-11
-1.81678 31.8312 -1.54133e-11
3.80521e-11 -1.54133e-11 30.3937

36.9847 0.353703 1.3485e-12
0.353703 30.8745 9.05499e-12
1.3485e-12 9.05499e-12 35.5992

31.2834 -1.78506 2.85189e-11
-1.78506 29.3447 4.62345e-12
2.85189e-11 4.62345e-12 29.5221

29.5191 2.62596 6.74024e-12
2.62596 31.2865 -5.39531e-11
6.74024e-12 -5.39531e-11 30.3369

31.5055 1.94982 -2.6591e-11
1.94982 27.3673 -7.7451e-13
-2.6591e-11 -7.7451e-13 28.9339

30.8574 -1.12763 1.27171e-11
-1.12763 27.0687 -1.63764e-11
1.27171e-11 -1.63764e-11 28.5631

29.6203 2.21424 -8.09195e-12
2.21424 32.8372 -1.61869e-11
-8.09195e-12 -1.61869e-11 30.84

32.0329 -1.64664 8.57352e-12
-1.64664 37.2586 2.69748e-11
8.57352e-12 2.69748e-11 35.649

33.53 2.94124 -6.93666e-12
2.94124 37.177 -1.65699e-11
-6.93666e-12 -1.65699e-11 35.7036

30.1804 -2.07261 -3.27518e-12
-2.07261 32.7922 2.11668e-12
-3.27518e-12 2.11668e-12 30.8541

29.6612 2.72036 -1.21378e-11
2.72036 32.6251 6.35825e-12
-1.21378e-11 6.35825e-12 30.508

17.5129 -2.29686 4.20092e-11
-2.29686 17.8956 -2.54363e-11
4.20092e-11 -2.54363e-11 17.8412

17.3136 2.63864 -2.40876e-11
2.63864 18.27 -1.16573e-15
-2.40876e-11 -1.16573e-15 17.712

34.0203 2.25756 -3.39063e-11
2.25756 39.0937 1.54123e-11
-3.39063e-11 1.54123e-11 37.6212

35.4795 -2.63754 -2.63931e-11
-2.63754 38.495 -8.0909e-12
-2.63931e-11 -8.0909e-12 37.6896

30.8549 2.48606 3.15017e-11
2.48606 34.6278 3.2948e-11
3.15017e-11 3.2948e-11 32.6982

17.3888 0.849019 -1.81144e-11
0.849019 17.4877 -1.46463e-11
-1.81144e-11 -1.46463e-11 18.1771

17.4039 -0.0140128 -1.85014e-11
-0.0140128 18.2643 3.86876e-13
-1.85014e-11 3.86876e-13 18.4694

38.8597 -1.8953 -5.81296e-11
-1.8953 39.6646 4.4703e-11
-5.81296e-11 4.4703e-11 39.6511

39.2243 0.923509 1.76263e-11
0.923509 40.4667 -4.39267e-11
1.76263e-11 -4.39267e-11 39.8019

37.9048 -0.0546211 6.16514e-12
-0.0546211 31.3992 5.00873e-12
6.16514e-12 5.00873e-12 34.7193

38.9194 -1.76625 -2.30437e-11
-1.76625 39.7503 -2.88964e-11
-2.30437e-11 -2.88964e-11 39.6516

39.0445 0.633422 -1.89755e-11
0.633422 39.2428 -5.20306e-12
-1.89755e-11 -5.20306e-12 39.5165

29.9803 -1.56459 1.6956e-11
-1.56459 34.6064 4.50855e-11
1.6956e-11 4.50855e-11 32.7659

45.1197 2.37047 4.61994e-12
2.37047 42.4233 -3.77594e-11
4.61994e-12 -3.77594e-11 42.0648

45.2691 -1.95397 2.23483e-11
-1.95397 40.2235 -1.15511e-12
2.23483e-11 -1.15511e-12 41.8919

36.3965 -1.89559 -1.15863e-12
-1.89559 36.2916 -5.34948e-12
-1.15863e-12 -5.34948e-12 37.008

36.5666 1.44238 2.06143e-11
1.44238 36.7078 1.03094e-11
2.06143e-11 1.03094e-11 37.0266

40.8492 0.151111 8.28282e-12
0.151111 46.0615 3.46813e-12
8.28282e-12 3.46813e-12 41.9044

40.5914 1.14407 -2.69705e-11
1.14407 43.0492 -2.50453e-11
-2.69705e-11 -2.50453e-11 41.3439

21.3348 0.785872 2.00424e-11
0.785872 23.8444 1.71498e-11
2.00424e-11 1.71498e-11 21.8071

23.7011 0.803601 -6.55801e-12
0.803601 21.4128 -5.3905e-12
-6.55801e-12 -5.3905e-12 21.8047

32.8417 2.36084 5.0863e-11
2.36084 36.6244 -1.27158e-11
5.0863e-11 -1.27158e-11 34.9943

31.298 -1.43987 3.84988e-13
-1.43987 36.8794 7.32255e-12
3.84988e-13 7.32255e-12 34.8987

46.2249 -3.10841 7.3746e-11
-3.10841 49.7645 4.27704e-11
7.3746e-11 4.27704e-11 44.6859

46.5989 1.8538 1.09185e-10
1.8538 43.4576 2.58188e-11
1.09185e-10 2.58188e-11 43.532

31.246 2.50442 -1.1947e-11
2.50442 29.7618 -1.54138e-11
-1.1947e-11 -1.54138e-11 29.9901

36.2409 0.961327 -2.02291e-11
0.961327 32.953 -7.3239e-12
-2.02291e-11 -7.3239e-12 35.065

36.0387 -1.25997 1.1272e-11
-1.25997 32.8327 -1.23325e-11
1.1272e-11 -1.23325e-11 35.0285

39.7169 -1.35433 -1.42575e-11
-1.35433 34.876 2.31006e-12
-1.42575e-11 2.31006e-12 38.1845

29.0054 0.572662 2.27348e-11
0.572662 24.7761 2.27362e-11
2.27348e-11 2.27362e-11 26.2181

49.6024 0.175379 9.09306e-11
0.175379 43.2138 3.23624e-11
9.09306e-11 3.23624e-11 43.8323

49.3086 -0.354186 -5.58669e-11
-0.354186 47.6706 2.65862e-11
-5.58669e-11 2.65862e-11 44.4036

32.5255 3.00584 -1.92677e-11
3.00584 30.9893 -1.34846e-11
-1.92677e-11 -1.34846e-11 31.9977

36.247 0.794855 -1.60867e-11
0.794855 32.0155 1.98474e-11
-1.60867e-11 1.98474e-11 33.7254

26.9735 2.44721 5.39731e-12
2.44721 27.8968 -5.58657e-12
5.39731e-12 -5.58657e-12 26.407

43.1251 -1.3923 -4.85457e-11
-1.3923 47.5189 5.78461e-12
-4.85457e-11 5.78461e-12 42.9418

41.685 0.87125 3.48695e-11
0.87125 43.175 -2.77402e-11
3.48695e-11 -2.77402e-11 41.9575

40.5333 2.52486 -1.34884e-11
2.52486 36.4522 -1.69544e-11
-1.34884e-11 -1.69544e-11 38.7138

35.4258 -0.792146 -4.14315e-12
-0.792146 37.4317 1.15552e-12
-4.14315e-12 1.15552e-12 36.2491

33.3919 0.560064 1.91701e-11
0.560064 38.4875 6.16692e-12
1.91701e-11 6.16692e-12 36.1377

38.4351 -0.386664 -1.30015e-12
-0.386664 32.2598 -1.65706e-11
-1.30015e-12 -1.65706e-11 35.9575

38.8031 0.284182 1.82068e-11
0.284182 32.1699 -7.32271e-12
1.82068e-11 -7.32271e-12 36.031

27.785 -1.61174 -1.70567e-11
-1.61174 26.7761 3.27566e-11
-1.70567e-11 3.27566e-11 26.1385

34.3695 0.0828632 -3.41978e-12
0.0828632 29.1001 9.247e-12
-3.41978e-12 9.247e-12 31.1288

39.409 0.321988 -9.00835e-12
0.321988 34.863 -3.06312e-11
-9.00835e-12 -3.06312e-11 37.7197

38.871 -0.691582 2.01088e-11
-0.691582 35.2667 -1.38738e-11
2.01088e-11 -1.38738e-11 37.7228

35.9638 -0.943903 -3.88242e-11
-0.943903 31.6253 6.39666e-11
-3.88242e-11 6.39666e-11 33.6279

38.8049 -0.444244 1.00423e-11
-0.444244 33.914 -2.67811e-11
1.00423e-11 -2.67811e-11 36.552

39.2776 0.190334 -1.15351e-11
0.190334 34.0185 -2.31174e-12
-1.15351e-11 -2.31174e-12 36.668

35.7426 1.99087 8.47796e-12
1.99087 31.7785 3.89164e-11
8.47796e-12 3.89164e-11 34.0149

28.4278 -2.64128 -2.60102e-11
-2.64128 28.1452 8.097e-12
-2.60102e-11 8.097e-12 27.7068

34.1941 3.44194 1.72417e-11
3.44194 37.5583 -3.00547e-11
1.72417e-11 -3.00547e-11 36.2946

33.3128 -2.9286 9.2516e-12
-2.9286 36.0121 -1.38716e-11
9.2516e-12 -1.38716e-11 36.0829

33.0336 -2.18625 2.90917e-11
-2.18625 36.3015 8.09181e-12
2.90917e-11 8.09181e-12 36.3471

34.6581 3.63403 -1.48339e-11
3.63403 38.435 1.50272e-11
-1.48339e-11 1.50272e-11 36.8146

31.8609 1.26192 1.85005e-11
1.26192 27.1343 2.21575e-11
1.85005e-11 2.21575e-11 28.933

24.9388 -1.50794 2.17747e-11
-1.50794 23.1744 -3.98889e-11
2.17747e-11 -3.98889e-11 23.0892

36.462 2.87128 4.16138e-11
2.87128 33.4605 -6.93331e-12
4.16138e-11 -6.93331e-12 35.4755

35.2474 -0.961217 -3.7762e-11
-0.961217 31.5246 3.84729e-13
-3.7762e-11 3.84729e-13 33.5058

25.3928 -1.17264 2.46615e-11
-1.17264 22.9935 -4.41259e-11
2.46615e-11 -4.41259e-11 23.2647

32.2656 -2.33214 -3.48756e-11
-2.33214 30.8594 2.46624e-11
-3.48756e-11 2.46624e-11 31.6935

30.7597 0.0155626 -3.50643e-11
0.0155626 37.5842 5.39683e-12
-3.50643e-11 5.39683e-12 34.7169

32.2293 0.361753 -9.24699e-12
0.361753 35.688 -1.73397e-11
-9.24699e-12 -1.73397e-11 34.5338

28.7801 2.9894 1.61871e-11
2.9894 28.8782 -2.15822e-11
1.61871e-11 -2.15822e-11 28.4942

26.99 -1.73306 -1.76297e-11
-1.73306 24.0432 3.50698e-11
-1.76297e-11 3.50698e-11 24.8206

34.7116 3.1857 7.6796e-13
3.1857 35.6837 -2.27344e-11
7.6796e-13 -2.27344e-11 36.2936

34.5904 -3.05283 -7.89961e-12
-3.05283 36.6888 1.96528e-11
-7.89961e-12 1.96528e-11 36.1751

28.3547 -2.2547 3.01594e-11
-2.2547 30.2152 -7.32208e-11
3.01594e-11 -7.32208e-11 28.6702

28.6667 -2.48637 -7.70628e-12
-2.48637 29.9817 -2.11925e-11
-7.70628e-12 -2.11925e-11 28.4803

35.4349 2.32041 2.83213e-11
2.32041 32.0407 -1.75333e-11
2.83213e-11 -1.75333e-11 33.7831

39.7614 1.42835 -1.11741e-11
1.42835 32.5254 1.34854e-11
-1.11741e-11 1.34854e-11 37.6772

39.6769 -0.973793 -8.08992e-12
-0.973793 31.7336 -4.08422e-11
-8.08992e-12 -4.08422e-11 37.5272

28.0533 1.84471 1.3006e-11
1.84471 32.0173 -1.15615e-11
1.3006e-11 -1.15615e-11 29.3519

32.9714 2.83646 -1.88849e-11
2.83646 32.4246 -5.66419e-11
-1.88849e-11 -5.66419e-11 32.6308

23.294 0.266681 1.94164e-13
0.266681 28.9994 1.46452e-11
1.94164e-13 1.46452e-11 25.6282

23.9351 0.147886 1.96523e-11
0.147886 28.7761 -4.04617e-12
1.96523e-11 -4.04617e-12 25.5804

28.72 0.120992 1.95537e-11
0.120992 23.365 -3.42984e-11
1.95537e-11 -3.42984e-11 25.256

29.3797 -2.13138 -5.10418e-12
-2.13138 27.8891 8.86384e-12
-5.10418e-12 8.86384e-12 28.3638

42.5896 -1.46501 -6.1631e-12
-1.46501 45.3001 -4.04767e-12
-6.1631e-12 -4.04767e-12 42.9349

50.4297 0.754007 -5.95256e-11
0.754007 50.4545 -9.24707e-12
-5.95256e-11 -9.24707e-12 45.3046

30.5121 2.55813 -3.71855e-11
2.55813 27.2303 3.50662e-11
-3.71855e-11 3.50662e-11 28.4515

32.101 -1.06515 2.72621e-11
-1.06515 27.276 -3.08301e-11
2.72621e-11 -3.08301e-11 29.2263

25.4273 1.79627 -1.89478e-13
1.79627 22.7688 1.77293e-11
-1.89478e-13 1.77293e-11 23.4282

31.3051 -1.86472 3.93035e-11
-1.86472 35.1091 5.04795e-11
3.93035e-11 5.04795e-11 34.169

32.8249 3.3779 -4.1422e-11
3.3779 36.2566 1.91402e-13
-4.1422e-11 1.91402e-13 34.4518

37.8896 -0.0496832 3.85536e-12
-0.0496832 31.3568 3.31363e-11
3.85536e-12 3.31363e-11 34.6878

26.9365 1.69951 -3.27558e-11
1.69951 31.8091 -2.42795e-11
-3.27558e-11 -2.42795e-11 29.2327

33.2235 -2.25926 1.47405e-11
-2.25926 39.0799 -2.54324e-11
1.47405e-11 -2.54324e-11 37.5788

35.4407 3.17083 1.07884e-11
3.17083 39.0551 -1.54129e-11
1.07884e-11 -1.54129e-11 37.825

26.6468 1.99025 -6.38734e-11
1.99025 27.8438 1.57968e-11
-6.38734e-11 1.57968e-11 26.0732

27.4268 2.09841 2.21726e-12
2.09841 27.0609 -2.69768e-11
2.21726e-12 -2.69768e-11 25.8876

25.6388 1.61223 8.48077e-12
1.61223 22.9722 3.85446e-11
8.48077e-12 3.85446e-11 23.5826

34.5432 3.48773 9.34199e-12
3.48773 38.9149 -2.83218e-11
9.34199e-12 -2.83218e-11 36.977

33.035 -2.52078 3.37264e-12
-2.52078 35.5793 3.96901e-11
3.37264e-12 3.96901e-11 36.324

40.0383 0.101173 -1.78702e-11
0.101173 32.3628 -1.19443e-11
-1.78702e-11 -1.19443e-11 36.7978

34.1153 2.38195 -1.34861e-11
2.38195 35.7412 1.15544e-12
-1.34861e-11 1.15544e-12 36.5432

34.7811 -2.97033 3.0817e-12
-2.97033 38.2167 2.79358e-11
3.0817e-12 2.79358e-11 36.9315

33.2047 2.88273 1.83055e-11
2.88273 33.7562 1.50292e-11
1.83055e-11 1.50292e-11 34.0784

25.9324 -0.624397 -1.56054e-11
-0.624397 30.4464 6.93719e-12
-1.56054e-11 6.93719e-12 27.3722

26.7398 -0.827552 8.09158e-12
-0.827552 30.3407 -1.67636e-11
8.09158e-12 -1.67636e-11 27.3916

29.832 -0.508296 -2.38955e-11
-0.508296 26.092 -2.5046e-11
-2.38955e-11 -2.5046e-11 26.9477

29.9586 -1.76065 1.1664e-11
-1.76065 29.9275 5.78097e-12
1.1664e-11 5.78097e-12 29.5019

31.6019 0.306677 -1.21367e-11
0.306677 34.6422 -8.28485e-12
-1.21367e-11 -8.28485e-12 32.4009

29.812 0.101285 -3.29463e-11
0.101285 35.2085 -3.31408e-11
-3.29463e-11 -3.31408e-11 32.2774

24.9123 -1.97083 7.70802e-12
-1.97083 26.8974 -5.79989e-11
7.70802e-12 -5.79989e-11 24.8899

24.7258 -1.87535 -7.90301e-12
-1.87535 26.3396 2.69735e-11
-7.90301e-12 2.69735e-11 24.8053

40.3537 -0.11166 -1.52686e-11
-0.11166 32.7973 -5.58701e-12
-1.52686e-11 -5.58701e-12 36.9841

40.0099 0.124163 -8.88712e-12
0.124163 32.9318 -6.93579e-12
-8.88712e-12 -6.93579e-12 36.9288

32.4618 -2.3293 1.02133e-11
-2.3293 34.7254 -6.1661e-12
1.02133e-11 -6.1661e-12 34.6266

33.2108 3.06047 1.9265e-12
3.06047 36.7146 -1.67626e-11
1.9265e-12 -1.67626e-11 34.9134

33.2093 1.97414 -4.00733e-11
1.97414 38.7426 3.46813e-12
-4.00733e-11 3.46813e-12 37.4409

35.3478 -2.90074 2.73574e-11
-2.90074 38.7115 -2.35071e-11
2.73574e-11 -2.35071e-11 37.6975

34.8051 -2.32231 3.52588e-11
-2.32231 34.4352 -4.58551e-11
3.52588e-11 -4.58551e-11 35.1772

27.0821 -1.2195 3.65902e-12
-1.2195 32.1896 -3.54519e-11
3.65902e-12 -3.54519e-11 29.4118

38.6799 0.365553 -1.81586e-11
0.365553 37.4558 1.68584e-11
-1.81586e-11 1.68584e-11 38.3413

38.1514 -1.16148 -2.91908e-11
-1.16148 36.9302 -2.24453e-11
-2.91908e-11 -2.24453e-11 38.1957

33.4615 -1.79304 -2.71636e-11
-1.79304 32.0954 -6.93545e-12
-2.71636e-11 -6.93545e-12 32.7417

36.4101 -1.52228 1.33902e-11
-1.52228 34.3907 -3.2751e-11
1.33902e-11 -3.2751e-11 35.6578

36.7848 1.28209 -1.89785e-11
1.28209 35.3231 -4.93222e-11
-1.89785e-11 -4.93222e-11 35.8221

16.4621 -0.701749 -9.05973e-12
-0.701749 13.9451 7.32266e-12
-9.05973e-12 7.32266e-12 17.4079

28.8268 3.0237 5.20236e-12
3.0237 30.0224 5.00976e-11
5.20236e-12 5.00976e-11 28.6002

14.928 1.4481 -5.26053e-11
1.4481 16.8721 -3.84256e-13
-5.26053e-11 -3.84256e-13 17.6158

28.0733 -1.62644 1.52206e-11
-1.62644 31.972 3.85321e-12
1.52206e-11 3.85321e-12 29.4312

41.5536 -1.59314 4.60186e-11
-1.59314 43.3706 -5.50984e-11
4.60186e-11 -5.50984e-11 41.847

42.5421 0.638174 -1.08592e-11
0.638174 41.8527 2.21556e-11
-1.08592e-11 2.21556e-11 41.7208

33.729 1.96694 5.03839e-11
1.96694 32.9201 -8.66962e-12
5.03839e-11 -8.66962e-12 32.8249

34.3321 -0.107121 8.52836e-12
-0.107121 28.9205 -2.73608e-11
8.52836e-12 -2.73608e-11 31.1119

29.73 2.45251 -2.89265e-12
2.45251 27.8489 -2.62034e-11
-2.89265e-12 -2.62034e-11 28.1863

31.5445 1.18797 -6.9358e-12
1.18797 37.5094 4.20039e-11
-6.9358e-12 4.20039e-11 35.0622

32.8719 -1.64027 -8.86427e-12
-1.64027 36.1479 -2.31004e-12
-8.86427e-12 -2.31004e-12 34.9265

38.5348 2.72034 -4.35406e-11
2.72034 40.0203 -1.16573e-11
-4.35406e-11 -1.16573e-11 39.2645

38.4178 -1.50591 -2.88751e-12
-1.50591 40.5786 -3.61241e-11
-2.88751e-12 -3.61241e-11 39.3917

34.2332 3.7033 1.93401e-13
3.7033 38.3511 1.59915e-11
1.93401e-13 1.59915e-11 36.7279

31.324 -3.50969 -2.82242e-11
-3.50969 36.2061 1.65719e-11
-2.82242e-11 1.65719e-11 36.068

30.2499 1.91943 -1.36791e-11
1.91943 34.4757 -2.38924e-11
-1.36791e-11 -2.38924e-11 32.7758

29.3813 0.97319 3.78602e-11
0.97319 33.6239 -3.27559e-11
3.78602e-11 -3.27559e-11 31.2392

33.7379 -2.15364 -5.1051e-12
-2.15364 33.3897 -2.08115e-11
-5.1051e-12 -2.08115e-11 34.189

33.9143 2.27776 -1.9557e-11
2.27776 34.1354 -4.50852e-11
-1.9557e-11 -4.50852e-11 34.2387

30.5807 2.32247 6.73905e-13
2.32247 30.7598 4.23904e-11
6.73905e-13 4.23904e-11 29.6949

30.9257 -2.27834 -1.25228e-11
-2.27834 34.4922 -1.9255e-13
-1.25228e-11 -1.9255e-13 32.7798

28.4653 -0.404359 3.56442e-11
-0.404359 34.4171 -7.32407e-12
3.56442e-11 -7.32407e-12 31.3985

20.3387 1.64064 1.02101e-11
1.64064 21.4786 6.16499e-12
1.02101e-11 6.16499e-12 20.1953

21.307 1.6979 1.07903e-11
1.6979 20.4279 -5.3945e-12
1.07903e-11 -5.3945e-12 20.1956

26.2006 -1.96938 2.23542e-11
-1.96938 26.8563 -5.782e-12
2.23542e-11 -5.782e-12 25.4658

35.5827 -0.738083 -6.26668e-11
-0.738083 30.1992 1.81139e-11
-6.26668e-11 1.81139e-11 33.0415

45.2666 -2.47275 -9.26749e-11
-2.47275 46.6755 1.26769e-10
-9.26749e-11 1.26769e-10 43.7988

47.3606 2.56829 1.60405e-10
2.56829 43.6042 -2.42674e-11
1.60405e-10 -2.42674e-11 43.6136

42.4848 2.5116 -1.27156e-11
2.5116 42.5287 2.69205e-12
-1.27156e-11 2.69205e-12 41.3591

41.1995 -0.65767 -2.73547e-11
-0.65767 39.8193 2.92842e-11
-2.73547e-11 2.92842e-11 40.732

35.7737 -0.0276885 4.8163e-12
-0.0276885 30.7979 2.23506e-11
4.8163e-12 2.23506e-11 34.166

34.2657 -3.29093 -4.62427e-12
-3.29093 37.8373 -2.8903e-12
-4.62427e-12 -2.8903e-12 36.6395

31.9593 3.43748 -1.94593e-11
3.43748 36.1321 -1.69567e-11
-1.94593e-11 -1.69567e-11 36.1065

21.3305 -1.60011 -1.31005e-11
-1.60011 22.0955 -9.05483e-12
-1.31005e-11 -9.05483e-12 21.0289

21.517 2.06361 1.21407e-11
2.06361 21.5541 2.61109e-11
1.21407e-11 2.61109e-11 21.1074

21.4227 -0.745379 -9.82607e-12
-0.745379 24.7644 -2.69266e-12
-9.82607e-12 -2.69266e-12 22.4662

22.4384 -0.91744 -1.73324e-12
-0.91744 25.212 -2.54362e-11
-1.73324e-12 -2.54362e-11 22.8508

24.9831 -0.641428 3.95061e-11
-0.641428 21.6329 -5.29879e-11
3.95061e-11 -5.29879e-11 22.4648

26.5847 2.42792 2.1196e-11
2.42792 26.1185 -7.68829e-13
2.1196e-11 -7.68829e-13 25.6745

19.4166 0.723395 7.32148e-12
0.723395 23.5152 -6.55172e-12
7.32148e-12 -6.55172e-12 21.0753

23.281 0.15927 -2.60144e-11
0.15927 19.5602 -4.23963e-12
-2.60144e-11 -4.23963e-12 21.0526

40.1826 -0.288117 -4.2382e-12
-0.288117 44.0627 4.04591e-11
-4.2382e-12 4.04591e-11 41.0922

39.9635 -1.05684 -2.94753e-11
-1.05684 41.3413 -5.34611e-11
-2.94753e-11 -5.34611e-11 40.5787

37.7401 -0.820976 2.65881e-11
-0.820976 34.2493 -2.81269e-11
2.65881e-11 -2.81269e-11 36.3677

37.8538 0.363771 -9.63318e-12
0.363771 29.5844 -2.89046e-12
-9.63318e-12 -2.89046e-12 36.0296

25.4481 -1.60164 -8.86398e-12
-1.60164 28.7441 -2.582e-11
-8.86398e-12 -2.582e-11 26.3456

25.3278 -1.15276 -1.01178e-11
-1.15276 28.778 3.46745e-12
-1.01178e-11 3.46745e-12 26.5285

36.2719 0.767822 -3.27605e-12
0.767822 31.1511 -1.09817e-11
-3.27605e-12 -1.09817e-11 34.4402

40.5422 -0.762305 -6.98256e-13
-0.762305 41.0257 1.27174e-11
-6.98256e-13 1.27174e-11 40.6999

41.5535 -0.0115568 2.60807e-11
-0.0115568 40.2742 1.81079e-11
2.60807e-11 1.81079e-11 40.7177

36.1932 -1.61993 -7.51532e-12
-1.61993 35.5717 -4.60483e-11
-7.51532e-12 -4.60483e-11 36.0403

33.6047 2.68364 4.6233e-12
2.68364 34.6574 7.32026e-12
4.6233e-12 7.32026e-12 34.7962

33.0404 -2.82296 2.27338e-11
-2.82296 36.0669 4.48922e-11
2.27338e-11 4.48922e-11 34.6653

36.9793 -0.730362 3.64164e-11
-0.730362 31.5891 -1.57993e-11
3.64164e-11 -1.57993e-11 35.2457

31.925 2.25318 1.19466e-11
2.25318 35.0014 1.42599e-11
1.19466e-11 1.42599e-11 34.2903

32.9095 -2.99133 -1.27162e-11
-2.99133 35.7327 -1.46433e-11
-1.27162e-11 -1.46433e-11 34.4212

16.7107 -3.34566 -1.36837e-11
-3.34566 16.9552 2.50528e-11
-1.36837e-11 2.50528e-11 17.1247

28.4849 0.715716 -1.56071e-11
0.715716 34.2872 -4.43155e-11
-1.56071e-11 -4.43155e-11 31.2832

29.6432 -0.650188 2.48547e-11
-0.650188 33.3948 1.32955e-11
2.48547e-11 1.32955e-11 31.2463

39.7185 0.352334 2.1162e-12
0.352334 45.74 -1.15559e-12
2.1162e-12 -1.15559e-12 41.4472

40.226 -0.0399612 3.50614e-11
-0.0399612 41.1943 -3.56419e-11
3.50614e-11 -3.56419e-11 40.759

40.3407 -0.137895 -1.6617e-11
-0.137895 34.2998 1.73402e-11
-1.6617e-11 1.73402e-11 37.9988

40.9068 0.220859 -1.28124e-11
0.220859 33.9873 6.54939e-12
-1.28124e-11 6.54939e-12 38.0508

38.5681 3.22303 4.45031e-11
3.22303 36.9494 -7.70554e-12
4.45031e-11 -7.70554e-12 38.0516

37.4908 -1.83742 -2.08061e-11
-1.83742 36.1956 -3.7759e-11
-2.08061e-11 -3.7759e-11 37.5832

42.9949 1.17944 -1.77221e-11
1.17944 41.3203 -2.85141e-11
-1.77221e-11 -2.85141e-11 41.0151

41.4366 -0.643357 -3.62202e-11
-0.643357 41.2624 6.55008e-12
-3.62202e-11 6.55008e-12 40.8109

44.3051 1.34341 -9.39748e-11
1.34341 42.9927 -1.34832e-11
-9.39748e-11 -1.34832e-11 42.6999

44.5987 -3.80716 -7.04566e-13
-3.80716 46.2791 8.09083e-11
-7.04566e-13 8.09083e-11 43.4103

35.8082 3.35577 -2.23006e-11
3.35577 39.2627 -2.15792e-11
-2.23006e-11 -2.15792e-11 38.0327

34.0645 -4.14914 -3.08728e-11
-4.14914 36.8384 3.58421e-11
-3.08728e-11 3.58421e-11 37.4618

33.2974 1.79429 3.32364e-11
1.79429 30.7538 -4.81852e-12
3.32364e-11 -4.81852e-12 31.9249

30.6827 1.42694 -1.73405e-12
1.42694 35.3095 -1.61839e-11
-1.73405e-12 -1.61839e-11 33.1912

31.2958 -2.32351 -3.57395e-11
-2.32351 31.2244 -1.00146e-11
-3.57395e-11 -1.00146e-11 31.4135

32.3291 -1.78546 -9.82769e-12
-1.78546 35.1753 4.35444e-11
-9.82769e-12 4.35444e-11 33.3815

33.1008 -1.67113 -8.76706e-12
-1.67113 30.4988 5.54894e-11
-8.76706e-12 5.54894e-11 31.9411

32.2314 1.98691 4.46494e-11
1.98691 35.3149 -1.31004e-11
4.46494e-11 -1.31004e-11 33.3229

31.7911 2.82199 -3.34289e-11
2.82199 31.9334 9.63218e-12
-3.34289e-11 9.63218e-12 31.501

35.6125 3.72803 1.9403e-13
3.72803 37.232 -2.23506e-11
1.9403e-13 -2.23506e-11 37.7574

36.1668 -2.775 -3.46874e-12
-2.775 38.5097 2.19627e-11
-3.46874e-12 2.19627e-11 37.9954

38.5951 1.70124 3.15948e-11
1.70124 35.0026 1.15726e-12
3.15948e-11 1.15726e-12 36.9615

50.2959 1.25701 -9.82613e-12
1.25701 49.5834 -4.62322e-11
-9.82613e-12 -4.62322e-11 45.0596

42.6822 1.20154 -5.79866e-11
1.20154 43.5591 9.49743e-11
-5.79866e-11 9.49743e-11 42.5753

35.423 -1.71959 3.1985e-11
-1.71959 32.9398 -2.27371e-11
3.1985e-11 -2.27371e-11 34.8454

41.4027 0.112086 2.69732e-11
0.112086 36.6796 -5.00711e-12
2.69732e-11 -5.00711e-12 39.4773

20.6524 -1.46066 9.8247e-12
-1.46066 21.7828 4.58616e-11
9.8247e-12 4.58616e-11 20.5529

21.7903 -1.20212 -2.58216e-11
-1.20212 20.568 -2.37022e-11
-2.58216e-11 -2.37022e-11 20.5672

40.4582 0.134906 7.44129e-12
0.134906 35.7427 -2.69729e-11
7.44129e-12 -2.69729e-11 38.6754

41.3323 -0.200092 2.98382e-11
-0.200092 35.3973 -4.10354e-11
2.98382e-11 -4.10354e-11 38.7562

41.7361 0.346294 1.15572e-11
0.346294 38.7511 -3.85313e-11
1.15572e-11 -3.85313e-11 39.8434

30.6803 -1.04655 2.07358e-11
-1.04655 35.4733 2.46613e-11
2.07358e-11 2.46613e-11 33.2591

32.5705 1.39223 3.17909e-11
1.39223 29.5406 -2.3701e-11
3.17909e-11 -2.3701e-11 30.0408

36.3793 -2.17126 -1.54633e-11
-2.17126 36.4598 2.65863e-11
-1.54633e-11 2.65863e-11 37.1798

36.8124 1.79634 2.14315e-11
1.79634 38.139 3.85319e-11
2.14315e-11 3.85319e-11 37.4616

48.8114 0.216567 1.96472e-11
0.216567 50.9582 2.33685e-11
1.96472e-11 2.33685e-11 45.0553

46.5058 2.04706 1.65655e-11
2.04706 41.9012 -1.31904e-11
1.65655e-11 -1.31904e-11 43.0463

34.6911 -1.36155 -3.44879e-11
-1.36155 31.9483 1.92679e-12
-3.44879e-11 1.92679e-12 33.2847

40.1265 -0.0608875 -1.43303e-11
-0.0608875 37.3324 2.92821e-11
-1.43303e-11 2.92821e-11 38.7354

39.582 -0.48107 1.5267e-11
-0.48107 37.7453 1.27148e-11
1.5267e-11 1.27148e-11 38.7523

35.0411 -2.46451 -5.72217e-11
-2.46451 37.4547 3.02508e-11
-5.72217e-11 3.02508e-11 36.3486

33.5692 1.2761 -2.87036e-11
1.2761 37.4079 4.50835e-11
-2.87036e-11 4.50835e-11 36.1945

33.2009 2.35903 -5.7804e-12
2.35903 35.9343 1.92689e-12
-5.7804e-12 1.92689e-12 36.2302

34.4264 -3.33953 3.02476e-11
-3.33953 37.8776 -1.40661e-11
3.02476e-11 -1.40661e-11 36.6231

17.756 4.26996 3.23693e-11
4.26996 17.3609 -9.17266e-11
3.23693e-11 -9.17266e-11 17.5587

37.4061 2.44823 2.1193e-11
2.44823 39.6132 -2.6586e-11
2.1193e-11 -2.6586e-11 38.9506

37.4679 -1.87583 -1.54103e-12
-1.87583 39.866 -2.23489e-11
-1.54103e-12 -2.23489e-11 38.9978

32.445 2.23584 -8.86187e-12
2.23584 36.4076 2.65892e-11
-8.86187e-12 2.65892e-11 35.5855

33.4333 -2.82157 -1.04048e-11
-2.82157 36.8613 2.71663e-11
-1.04048e-11 2.71663e-11 35.6638

32.7493 -1.32831 2.96734e-11
-1.32831 29.2853 1.04029e-11
2.96734e-11 1.04029e-11 30.292

36.949 2.41711 2.73598e-11
2.41711 35.4396 1.77255e-11
2.73598e-11 1.77255e-11 36.3652

39.0615 2.59038 1.21352e-11
2.59038 37.1933 -3.46656e-12
1.21352e-11 -3.46656e-12 38.3239

37.8612 -1.71416 1.32911e-11
-1.71416 37.8215 2.582e-11
1.32911e-11 2.582e-11 38.1432

37.7444 1.62734 2.10018e-11
1.62734 31.9646 3.27525e-11
2.10018e-11 3.27525e-11 35.7538

41.2966 0.316644 -3.79271e-11
0.316644 39.4357 3.93022e-11
-3.79271e-11 3.93022e-11 40.2683

41.9822 -0.463015 2.64173e-11
-0.463015 38.3996 -2.50492e-12
2.64173e-11 -2.50492e-12 40.1677

42.4683 0.549194 4.71986e-11
0.549194 45.905 -4.5266e-12
4.71986e-11 -4.5266e-12 42.8084

43.5318 -0.866999 2.79326e-11
-0.866999 49.3554 1.54086e-12
2.79326e-11 1.54086e-12 43.5034

17.6043 -0.40125 1.35018e-12
-0.40125 15.0811 -4.50922e-11
1.35018e-12 -4.50922e-11 17.7521

14.1467 -0.0841521 3.52652e-11
-0.0841521 17.5246 2.23562e-11
3.52652e-11 2.23562e-11 17.6005

35.369 2.79535 -3.58805e-11
2.79535 38.6857 1.71472e-11
-3.58805e-11 1.71472e-11 37.0623

34.7185 -2.40672 -1.23821e-11
-2.40672 36.2657 -2.50449e-11
-1.23821e-11 -2.50449e-11 36.6726

16.955 1.5013 3.23744e-11
1.5013 16.8079 5.62711e-11
3.23744e-11 5.62711e-11 17.8436

17.238 1.94107 -1.40709e-11
1.94107 16.4562 -8.7485e-11
-1.40709e-11 -8.7485e-11 17.8206

39.4448 -3.07676 7.86531e-11
-3.07676 49.2134 3.86441e-13
7.86531e-11 3.86441e-13 43.2315

42.9154 2.29817 4.09265e-11
2.29817 47.6353 1.80319e-10
4.09265e-11 1.80319e-10 43.603

35.8697 2.93838 3.10223e-11
2.93838 34.5777 2.11961e-11
3.10223e-11 2.11961e-11 35.669

34.8123 2.67746 -2.08536e-11
2.67746 36.787 8.70846e-11
-2.08536e-11 8.70846e-11 36.1979

34.595 -2.68113 -3.43412e-11
-2.68113 35.6334 1.65746e-11
-3.43412e-11 1.65746e-11 36.1093

31.9789 2.70329 -4.20019e-11
2.70329 33.3882 3.65837e-12
-4.20019e-11 3.65837e-12 32.3209

31.5642 -2.15727 -1.67624e-11
-2.15727 32.8282 6.55402e-12
-1.67624e-11 6.55402e-12 32.3041

21.7919 -0.342153 -2.02339e-11
-0.342153 25.1513 1.00186e-11
-2.02339e-11 1.00186e-11 22.8055

22.3816 -0.694557 3.39134e-11
-0.694557 25.2636 -2.11999e-11
3.39134e-11 -2.11999e-11 22.8915

25.2528 -0.294183 4.89428e-11
-0.294183 22.0807 -5.81929e-11
4.89428e-11 -5.81929e-11 22.7273

32.7281 3.11632 -6.06507e-12
3.11632 35.1611 7.20592e-11
-6.06507e-12 7.20592e-11 33.9417

32.1474 -2.41624 -2.14831e-11
-2.41624 34.0827 -3.54521e-11
-2.14831e-11 -3.54521e-11 33.8171

20.0849 0.482855 -4.04593e-12
0.482855 23.4095 1.5803e-11
-4.04593e-12 1.5803e-11 21.0974

23.2972 0.745914 -3.68071e-11
0.745914 20.1305 1.73465e-11
-3.68071e-11 1.73465e-11 21.0843

36.3192 -3.08937 1.04555e-11
-3.08937 37.1053 -6.74298e-11
1.04555e-11 -6.74298e-11 37.9115

36.6076 2.54457 -4.18534e-11
2.54457 39.001 1.92671e-11
-4.18534e-11 1.92671e-11 38.1628

36.8794 -2.73283 5.50529e-11
-2.73283 38.6898 3.82194e-13
5.50529e-11 3.82194e-13 38.4631

37.0786 2.03156 -5.76049e-11
2.03156 39.3089 -2.77426e-11
-5.76049e-11 -2.77426e-11 38.4966

16.2042 -1.26895 -4.1241e-11
-1.26895 16.4809 -4.04673e-11
-4.1241e-11 -4.04673e-11 17.3565

16.2195 -1.27628 3.28561e-11
-1.27628 16.495 9.05848e-12
3.28561e-11 9.05848e-12 17.4239

34.4186 2.46343 -2.82222e-11
2.46343 36.1506 4.66254e-11
-2.82222e-11 4.66254e-11 35.1195

34.0847 -2.25669 2.69573e-12
-2.25669 34.598 5.00984e-12
2.69573e-12 5.00984e-12 34.9241

41.7732 0.645249 2.7163e-11
0.645249 44.649 1.38702e-11
2.7163e-11 1.38702e-11 41.8071

41.0237 -0.365422 7.01245e-11
-0.365422 41.5759 -2.89923e-11
7.01245e-11 -2.89923e-11 41.1918

35.625 -2.83483 -4.25761e-11
-2.83483 39.4486 1.34925e-11
-4.25761e-11 1.34925e-11 38.6632

36.6874 2.66365 -2.32139e-11
2.66365 40.6208 -5.20287e-12
-2.32139e-11 -5.20287e-12 38.9281

39.8403 -0.592683 -2.81442e-12
-0.592683 38.1536 2.31209e-11
-2.81442e-12 2.31209e-11 39.6828

40.853 0.0557711 -7.94775e-12
0.0557711 37.68 1.83011e-11
-7.94775e-12 1.83011e-11 39.7568

35.6767 2.62392 -1.90755e-11
2.62392 36.1986 -5.77903e-12
-1.90755e-11 -5.77903e-12 36.7325

35.6018 -2.57702 -1.57996e-11
-2.57702 37.1532 2.75502e-11
-1.57996e-11 2.75502e-11 36.6737

43.6239 0.794522 9.77673e-12
0.794522 40.7918 -3.22577e-11
9.77673e-12 -3.22577e-11 41.6566

43.8863 0.235471 3.67362e-11
0.235471 42.4542 1.71442e-11
3.67362e-11 1.71442e-11 42.4898

42.2659 -0.715162 4.35392e-11
-0.715162 41.577 -2.04895e-11
4.35392e-11 -2.04895e-11 41.5688

41.2607 -0.0931129 -3.72891e-11
-0.0931129 44.3977 -5.97178e-11
-3.72891e-11 -5.97178e-11 42.3698

41.236 0.459864 1.32902e-11
0.459864 47.2825 -5.35553e-11
1.32902e-11 -5.35553e-11 42.3652

45.5339 2.60419 2.35028e-11
2.60419 43.6226 2.70075e-12
2.35028e-11 2.70075e-12 42.4731

43.1533 -1.01904 7.70558e-12
-1.01904 41.7678 -2.81268e-11
7.70558e-12 -2.81268e-11 41.8174

40.6515 -0.613107 -4.27677e-11
-0.613107 44.262 5.04769e-11
-4.27677e-11 5.04769e-11 41.7868

41.803 1.52467 -1.30248e-10
1.52467 43.5898 -5.65048e-10
-1.30248e-10 -5.65048e-10 42.1296

53.9442 1.54982 -2.23257e-10
1.54982 41.3563 4.61517e-10
-2.23257e-10 4.61517e-10 44.6159

52.6705 -1.01994 -5.17683e-10
-1.01994 51.9415 3.10163e-10
-5.17683e-10 3.10163e-10 46.4212

43.7679 -3.50515 4.28455e-11
-3.50515 46.7697 -2.8552e-10
4.28455e-11 -2.8552e-10 43.1598

42.7672 1.97709 3.74214e-11
1.97709 42.6305 -2.36954e-11
3.74214e-11 -2.36954e-11 41.9141

39.8161 1.43524 4.57056e-11
1.43524 42.0454 -1.81104e-11
4.57056e-11 -1.81104e-11 40.6009

43.8527 0.421285 3.80072e-12
0.421285 43.2138 1.90143e-10
3.80072e-12 1.90143e-10 42.7752

44.0652 -3.27053 3.04129e-11
-3.27053 42.9577 -6.55752e-12
3.04129e-11 -6.55752e-12 42.2722

44.9889 -3.75653 8.58852e-12
-3.75653 48.2524 1.21365e-10
8.58852e-12 1.21365e-10 43.9767

39.8909 -1.83481 -1.47372e-11
-1.83481 40.9926 2.35085e-11
-1.47372e-11 2.35085e-11 40.5033

40.4994 -3.063 -2.78842e-11
-3.063 42.311 4.35423e-11
-2.78842e-11 4.35423e-11 41.0634

41.4455 -2.03675 4.55879e-11
-2.03675 43.3823 5.4711e-11
4.55879e-11 5.4711e-11 41.9146

39.712 1.28318 -1.6348e-12
1.28318 41.5559 3.67956e-11
-1.6348e-12 3.67956e-11 40.7019

42.6879 0.767647 3.52574e-11
0.767647 42.5461 3.8723e-11
3.52574e-11 3.8723e-11 41.9795

30.1515 2.18335 -3.23696e-11
2.18335 32.2074 -1.94624e-11
-3.23696e-11 -1.94624e-11 30.8435

34.9138 1.09625 1.29087e-11
1.09625 37.7831 -1.28128e-11
1.29087e-11 -1.28128e-11 36.3327

34.133 0.937933 2.31185e-11
0.937933 37.3799 5.29595e-12
2.31185e-11 5.29595e-12 36.198

34.8901 1.23969 -2.00391e-11
1.23969 29.6245 -3.99037e-11
-2.00391e-11 -3.99037e-11 32.5927

33.2765 0.420314 1.1175e-11
0.420314 28.0826 -3.49657e-12
1.1175e-11 -3.49657e-12 30.5463

35.597 0.67231 -4.43247e-12
0.67231 39.0634 1.27161e-11
-4.43247e-12 1.27161e-11 38.0634

34.7952 1.54788 -1.34838e-12
1.54788 39.4897 1.00177e-11
-1.34838e-12 1.00177e-11 38.0911

33.744 -0.493636 1.7725e-11
-0.493636 28.5936 -2.1799e-11
1.7725e-11 -2.1799e-11 30.8791

37.7826 -0.99166 1.53185e-11
-0.99166 33.2074 4.38244e-12
1.53185e-11 4.38244e-12 36.5233

24.3779 1.98784 -1.57997e-11
1.98784 26.4401 -1.61371e-11
-1.57997e-11 -1.61371e-11 24.826

24.0198 -1.98613 -2.77466e-11
-1.98613 25.9816 -7.61243e-12
-2.77466e-11 -7.61243e-12 24.4034

26.8528 -1.82105 -1.03621e-15
-1.82105 23.509 3.76453e-11
-1.03621e-15 3.76453e-11 24.4063

37.5931 -1.87262 5.85664e-11
-1.87262 39.9568 2.56234e-11
5.85664e-11 2.56234e-11 39.1712

38.7025 -1.29573 -9.63328e-12
-1.29573 40.1146 -1.87833e-11
-9.63328e-12 -1.87833e-11 39.3024

30.7821 1.86032 -1.15739e-12
1.86032 33.5502 2.88865e-12
-1.15739e-12 2.88865e-12 32.6808

32.6917 2.23951 -1.84929e-11
2.23951 36.2792 -1.25374e-12
-1.84929e-11 -1.25374e-12 35.627

34.8076 -1.45158 1.34839e-11
-1.45158 39.4528 6.33857e-11
1.34839e-11 6.33857e-11 37.9817

35.2494 -0.424723 -6.01079e-11
-0.424723 38.9746 1.67626e-11
-6.01079e-11 1.67626e-11 37.9267

36.0259 0.570048 2.37955e-11
0.570048 30.0087 1.25896e-11
2.37955e-11 1.25896e-11 33.0721

26.4041 0.715135 2.15819e-11
0.715135 29.6931 -2.4469e-11
2.15819e-11 -2.4469e-11 27.0354

26.2858 -0.584243 1.54154e-11
-0.584243 29.4887 7.22829e-13
1.54154e-11 7.22829e-13 26.9287

30.054 -0.504719 -3.62257e-11
-0.504719 25.6404 2.64213e-11
-3.62257e-11 2.64213e-11 26.558

30.1054 2.50911 2.89158e-12
2.50911 30.9054 -2.73635e-11
2.89158e-12 -2.73635e-11 30.4665

31.6385 -1.66817 4.20046e-11
-1.66817 26.7891 5.39248e-12
4.20046e-11 5.39248e-12 28.8591

33.2292 2.65837 3.19836e-11
2.65837 31.9701 -8.71899e-12
3.19836e-11 -8.71899e-12 32.6115

30.0297 2.11912 3.89169e-11
2.11912 32.8715 -5.36594e-11
3.89169e-11 -5.36594e-11 30.9354

35.1039 -1.05204 -1.38726e-11
-1.05204 29.685 -8.48842e-12
-1.38726e-11 -8.48842e-12 32.894

23.1395 1.39795 -1.54174e-11
1.39795 24.5507 -4.8405e-12
-1.54174e-11 -4.8405e-12 22.598

37.6626 1.30501 -1.27158e-11
1.30501 32.2711 1.10774e-12
-1.27158e-11 1.10774e-12 35.7983

24.7452 -1.20839 9.63614e-12
-1.20839 22.2945 4.07185e-11
9.63614e-12 4.07185e-11 22.2884

38.8623 -0.460324 -1.92649e-11
-0.460324 40.6829 3.85324e-11
-1.92649e-11 3.85324e-11 39.6082

38.8142 0.817037 -1.61789e-11
0.817037 40.7586 4.16131e-11
-1.61789e-11 4.16131e-11 39.6275

48.1812 -2.48902 2.00358e-11
-2.48902 43.8423 -1.02109e-11
2.00358e-11 -1.02109e-11 43.2419

48.1112 2.57538 -1.04024e-11
2.57538 43.7738 -3.46517e-12
-1.04024e-11 -3.46517e-12 43.228

29.4573 -0.664022 2.63994e-11
-0.664022 24.9294 6.11557e-12
2.63994e-11 6.11557e-12 26.2807

33.5788 2.90546 -2.23516e-11
2.90546 33.3392 -7.69706e-11
-2.23516e-11 -7.69706e-11 34.0802

41.7032 -1.50735 -2.46597e-11
-1.50735 38.8049 -1.24255e-11
-2.46597e-11 -1.24255e-11 39.7374

41.4064 1.5018 -8.09031e-12
1.5018 38.5466 2.33109e-11
-8.09031e-12 2.33109e-11 39.4971

37.6782 0.523148 -6.16536e-11
0.523148 32.4863 1.23788e-11
-6.16536e-11 1.23788e-11 36.4431

29.4772 2.39422 5.3932e-12
2.39422 32.5107 2.5242e-11
5.3932e-12 2.5242e-11 30.5316

31.9729 -2.07123 3.77638e-11
-2.07123 28.4811 -1.68132e-11
3.77638e-11 -1.68132e-11 29.7329

37.1066 -0.128676 -4.04619e-12
-0.128676 31.272 -1.7159e-11
-4.04619e-12 -1.7159e-11 35.6512

29.8299 -2.51817 3.21755e-11
-2.51817 30.7821 2.31008e-12
3.21755e-11 2.31008e-12 30.2649

30.1565 -2.06484 3.08418e-12
-2.06484 32.2265 -3.52629e-11
3.08418e-12 -3.52629e-11 30.8574

33.3992 2.35932 -9.63831e-13
2.35932 37.2341 -3.68003e-11
-9.63831e-13 -3.68003e-11 35.7309

29.6125 -2.88021 -6.55157e-12
-2.88021 27.5104 -1.93647e-11
-6.55157e-12 -1.93647e-11 28.0058

18.3777 -2.19595 3.0063e-11
-2.19595 17.1304 -2.41115e-12
3.0063e-11 -2.41115e-12 17.8118

18.212 3.05046 -2.46652e-11
3.05046 17.7966 2.63775e-11
-2.46652e-11 2.63775e-11 17.9081

33.9933 -2.8168 -1.19469e-11
-2.8168 38.5035 5.2018e-12
-1.19469e-11 5.2018e-12 37.6352

18.5757 0.400081 -3.23753e-11
0.400081 17.2296 1.07907e-11
-3.23753e-11 1.07907e-11 18.4266

17.6561 -0.737256 -4.58644e-11
-0.737256 17.2574 1.52945e-11
-4.58644e-11 1.52945e-11 18.3139

39.2082 -0.659122 1.61835e-11
-0.659122 40.0164 -1.07895e-11
1.61835e-11 -1.07895e-11 39.697

39.24 0.684415 -1.52206e-11
0.684415 39.9742 -8.20725e-11
-1.52206e-11 -8.20725e-11 39.702

38.355 -0.0471803 -4.14251e-11
-0.0471803 31.1085 2.00275e-11
-4.14251e-11 2.00275e-11 34.7311

39.0249 -0.357068 2.98617e-11
-0.357068 38.7676 4.52262e-11
2.98617e-11 4.52262e-11 39.396

39.0653 0.392666 -6.47328e-11
0.392666 38.7791 2.91847e-11
-6.47328e-11 2.91847e-11 39.4131

30.781 2.19672 6.01119e-11
2.19672 34.7203 2.68822e-11
6.01119e-11 2.68822e-11 32.814

45.1585 -2.33027 -2.19629e-11
-2.33027 42.505 -1.1568e-12
-2.19629e-11 -1.1568e-12 42.0855

45.0909 2.34122 2.58142e-11
2.34122 42.4596 2.16823e-12
2.58142e-11 2.16823e-12 42.0861

36.5592 -1.16664 -5.83776e-11
-1.16664 36.3 1.81125e-11
-5.83776e-11 1.81125e-11 36.9263

36.5799 1.1767 6.6662e-11
1.1767 36.3018 2.67349e-11
6.6662e-11 2.67349e-11 36.9435

26.4456 -1.985 4.12362e-11
-1.985 22.86 1.74636e-11
4.12362e-11 1.74636e-11 24.0455

39.6241 1.15457 -5.08589e-11
1.15457 45.1771 -1.50243e-11
-5.08589e-11 -1.50243e-11 41.6909

41.0271 -0.222097 -1.96498e-11
-0.222097 43.0683 -2.04213e-11
-1.96498e-11 -2.04213e-11 41.4475

29.605 -2.42 8.67066e-12
-2.42 32.6216 3.05376e-11
8.67066e-12 3.05376e-11 30.641

21.4132 -0.608591 -1.619e-11
-0.608591 23.3323 -8.43029e-13
-1.619e-11 -8.43029e-13 21.7376

23.7541 -0.628643 -1.77277e-11
-0.628643 20.4187 1.01746e-11
-1.77277e-11 1.01746e-11 21.5626

32.4278 1.88687 1.11758e-11
1.88687 36.6812 9.64044e-13
1.11758e-11 9.64044e-13 34.9804

32.1263 1.88147 -1.92551e-12
1.88147 35.8412 -1.04035e-11
-1.92551e-12 -1.04035e-11 34.9146

46.5842 -1.87632 -1.53734e-10
-1.87632 42.031 2.75547e-11
-1.53734e-10 2.75547e-11 43.1898

46.6676 1.73479 -7.91772e-11
1.73479 42.5611 -1.25126e-10
-7.91772e-11 -1.25126e-10 43.3387

33.245 2.46906 -7.70645e-12
2.46906 35.9083 -1.05978e-12
-7.70645e-12 -1.05978e-12 36.3608

36.3285 0.751457 -1.42573e-11
0.751457 32.6112 -1.0693e-11
-1.42573e-11 -1.0693e-11 35.0147

36.2722 -0.781425 7.32077e-12
-0.781425 32.4932 3.06811e-11
7.32077e-12 3.06811e-11 34.9134

34.6904 3.31312 2.96697e-11
3.31312 35.3507 3.19846e-11
2.96697e-11 3.19846e-11 36.2146

35.2912 -2.23266 3.04405e-11
-2.23266 38.6614 -8.76577e-12
3.04405e-11 -8.76577e-12 37.6964

28.9703 -0.0382752 2.19675e-11
-0.0382752 23.9558 -4.06306e-11
2.19675e-11 -4.06306e-11 25.8193

34.6697 0.0475848 -3.75722e-11
0.0475848 28.8858 -1.8382e-11
-3.75722e-11 -1.8382e-11 31.1092

31.5457 1.48868 -6.55113e-12
1.48868 26.7425 -5.70785e-12
-6.55113e-12 -5.70785e-12 28.5246

40.2274 2.47763 -1.96511e-11
2.47763 35.8777 -1.26664e-11
-1.96511e-11 -1.26664e-11 38.3541

49.3693 -0.368425 6.81959e-11
-0.368425 47.4743 -2.64915e-11
6.81959e-11 -2.64915e-11 44.3977

49.3147 0.366387 3.96834e-11
0.366387 47.6924 -2.7545e-11
3.96834e-11 -2.7545e-11 44.4129

27.6085 2.16382 -6.74423e-11
2.16382 27.363 -1.35887e-11
-6.74423e-11 -1.35887e-11 26.4253

32.9783 -2.75704 6.16681e-12
-2.75704 30.6083 -1.75335e-11
6.16681e-12 -1.75335e-11 31.9419

36.3586 -0.683775 -5.39394e-12
-0.683775 31.7524 2.91892e-11
-5.39394e-12 2.91892e-11 33.6463

41.8456 2.66512 1.38319e-10
2.66512 46.6074 2.44667e-11
1.38319e-10 2.44667e-11 42.7284

42.1633 -0.699467 3.81444e-11
-0.699467 43.0745 -2.75474e-11
3.81444e-11 -2.75474e-11 42.0389

40.6558 -2.42321 -2.58173e-11
-2.42321 36.5348 1.90737e-11
-2.58173e-11 1.90737e-11 38.7533

34.1661 -0.701265 -7.99637e-12
-0.701265 37.5087 7.99701e-12
-7.99637e-12 7.99701e-12 36.163

34.6178 -0.734399 -3.28506e-11
-0.734399 37.7553 6.35951e-12
-3.28506e-11 6.35951e-12 36.2461

38.9679 -0.192859 2.11934e-12
-0.192859 31.6946 -3.92781e-11
2.11934e-12 -3.92781e-11 35.8599

39.1119 0.181555 -5.51041e-11
0.181555 31.6924 4.1904e-12
-5.51041e-11 4.1904e-12 35.9532

28.0902 1.86441 -2.61084e-11
1.86441 26.9122 2.70725e-11
-2.61084e-11 2.70725e-11 26.1687

39.5599 -0.14638 4.91237e-12
-0.14638 34.3709 1.70499e-11
4.91237e-12 1.70499e-11 37.5949

39.5732 0.132639 -2.64825e-12
0.132639 34.4184 4.72974e-11
-2.64825e-12 4.72974e-11 37.621

36.469 0.678573 3.21761e-11
0.678573 31.7548 2.69018e-11
3.21761e-11 2.69018e-11 33.6979

30.134 -2.15363 -1.81107e-11
-2.15363 33.0432 -8.67062e-12
-1.81107e-11 -8.67062e-12 31.0746

39.4882 -0.0706788 1.65694e-11
-0.0706788 33.6481 3.38584e-11
1.65694e-11 3.38584e-11 36.5472

39.6312 0.0901169 -7.2829e-11
0.0901169 33.6812 -2.50208e-11
-7.2829e-11 -2.50208e-11 36.6541

36.0596 -1.65123 7.32385e-12
-1.65123 31.7423 -5.92306e-12
7.32385e-12 -5.92306e-12 34.0422

34.1151 3.04046 3.27536e-12
3.04046 37.2428 1.29087e-11
3.27536e-12 1.29087e-11 36.2432

31.5197 2.31308 2.85174e-11
2.31308 29.2272 -1.2619e-11
2.85174e-11 -1.2619e-11 29.7924

34.1513 2.46714 -1.156e-11
2.46714 35.6221 4.81635e-12
-1.156e-11 4.81635e-12 36.5493

34.5051 3.02601 1.61839e-11
3.02601 38.0384 1.39689e-11
1.61839e-11 1.39689e-11 36.7475

32.0729 -1.17529 -1.88839e-11
-1.17529 26.9957 9.77838e-12
-1.88839e-11 9.77838e-12 28.9539

36.7214 -2.70125 2.30786e-12
-2.70125 33.3978 4.91181e-12
2.30786e-12 4.91181e-12 35.5158

35.5974 1.6489 -4.04602e-11
1.6489 31.4823 -6.27617e-11
-4.04602e-11 -6.27617e-11 33.5215

29.2454 2.69797 1.73661e-12
2.69797 28.4324 1.27641e-11
1.73661e-12 1.27641e-11 28.5032

32.7064 2.77147 1.34884e-11
2.77147 30.3458 1.29565e-11
1.34884e-11 1.29565e-11 31.6837

31.6056 0.253745 7.31774e-12
0.253745 36.2445 -1.35811e-11
7.31774e-12 -1.35811e-11 34.6354

31.699 0.0901086 -1.1543e-12
0.0901086 36.2429 -1.99384e-11
-1.1543e-12 -1.99384e-11 34.6494

27.2248 1.94956 -4.96196e-11
1.94956 23.8997 -5.69046e-11
-4.96196e-11 -5.69046e-11 24.7878

34.7601 -3.30998 -8.86106e-12
-3.30998 35.4119 -3.92066e-11
-8.86106e-12 -3.92066e-11 36.3018

28.8607 -2.63745 1.83036e-11
-2.63745 30.1694 -1.84017e-11
1.83036e-11 -1.84017e-11 28.7133

28.7571 2.67012 -5.75392e-13
2.67012 30.2421 2.81342e-11
-5.75392e-13 2.81342e-11 28.6696

35.5886 -1.99048 4.23872e-12
-1.99048 31.5763 1.04515e-11
4.23872e-12 1.04515e-11 33.7034

39.8368 -1.31936 -3.19845e-11
-1.31936 32.7962 1.81084e-11
-3.19845e-11 1.81084e-11 37.7186

39.6711 1.32991 7.70667e-12
1.32991 32.9747 3.8483e-11
7.70667e-12 3.8483e-11 37.6327

27.72 1.46065 3.66027e-11
1.46065 30.9784 -2.10037e-11
3.66027e-11 -2.10037e-11 29.1442

33.3199 -2.77764 -5.39572e-12
-2.77764 31.9792 -9.63333e-12
-5.39572e-12 -9.63333e-12 32.5992

23.9306 -0.113384 4.08525e-11
-0.113384 28.4746 -5.53912e-12
4.08525e-11 -5.53912e-12 25.6137

23.8993 0.0453296 -1.4256e-11
0.0453296 28.4673 1.23296e-11
-1.4256e-11 1.23296e-11 25.5917

29.022 0.140508 -1.40664e-11
0.140508 23.2994 -1.91396e-12
-1.40664e-11 -1.91396e-12 25.29

27.8408 -1.93417 4.21977e-11
-1.93417 26.9556 2.78424e-11
4.21977e-11 2.78424e-11 26.0348

29.6216 2.35118 -2.73617e-11
2.35118 27.9672 1.99415e-11
-2.73617e-11 1.99415e-11 28.3444

44.7433 -4.78852 3.89128e-11
-4.78852 46.8769 -2.31106e-12
3.89128e-11 -2.31106e-12 43.6689

46.5285 2.06934 -9.43926e-11
2.06934 47.8887 6.33725e-11
-9.43926e-11 6.33725e-11 44.2657

32.2614 1.07079 -1.69564e-11
1.07079 27.1561 -4.53511e-11
-1.69564e-11 -4.53511e-11 29.1461

32.5512 2.92807 1.31009e-11
2.92807 36.0291 -2.05203e-11
1.31009e-11 -2.05203e-11 34.3998

38.318 0.043337 -3.54518e-11
0.043337 31.0615 -9.92166e-12
-3.54518e-11 -9.92166e-12 34.6575

27.7595 -1.41261 -1.15606e-11
-1.41261 31.1275 -5.10562e-12
-1.15606e-11 -5.10562e-12 29.2471

32.9887 2.91604 -5.39703e-12
2.91604 38.4811 -2.37939e-11
-5.39703e-12 -2.37939e-11 37.5262

35.5085 2.38799 1.84958e-11
2.38799 38.8772 1.22341e-11
1.84958e-11 1.22341e-11 37.8437

34.1455 -3.03318 1.15791e-12
-3.03318 37.2389 -1.82946e-12
1.15791e-12 -1.82946e-12 36.2598

34.4088 3.06528 -9.62841e-13
3.06528 38.3621 2.60102e-11
-9.62841e-13 2.60102e-11 36.8736

32.0988 2.32308 -3.46776e-12
2.32308 34.4026 5.01099e-12
-3.46776e-12 5.01099e-12 34.2438

40.5248 0.026285 2.77449e-11
0.026285 31.7862 1.32821e-11
2.77449e-11 1.32821e-11 36.6616

29.6337 -2.32067 8.4777e-12
-2.32067 27.783 3.71387e-11
8.4777e-12 3.71387e-11 28.1724

34.1676 -2.47878 -7.70621e-12
-2.47878 35.6544 4.64339e-11
-7.70621e-12 4.64339e-11 36.5945

30.3799 -1.98525 3.08277e-11
-1.98525 30.5546 -5.15908e-11
3.08277e-11 -5.15908e-11 29.6202

26.7525 -1.92485 7.55298e-11
-1.92485 26.8047 -1.97501e-11
7.55298e-11 -1.97501e-11 25.7902

33.5505 -2.86742 1.07894e-11
-2.86742 33.4771 -2.4518e-11
1.07894e-11 -2.4518e-11 34.1503

26.7358 -1.17606 -2.46639e-11
-1.17606 30.1794 2.89483e-11
-2.46639e-11 2.89483e-11 27.4698

26.6814 1.11564 1.65727e-11
1.11564 30.172 5.29976e-12
1.65727e-11 5.29976e-12 27.4308

29.9863 0.672613 -2.52425e-11
0.672613 26.1216 -4.5243e-11
-2.52425e-11 -4.5243e-11 26.9311

30.33 2.07024 -4.60495e-11
2.07024 30.5174 1.0643e-11
-4.60495e-11 1.0643e-11 29.5937

30.8902 0.366595 3.46868e-12
0.366595 34.6284 1.05054e-11
3.46868e-12 1.05054e-11 32.3693

30.8576 -0.0789772 1.19474e-11
-0.0789772 34.5818 9.53867e-12
1.19474e-11 9.53867e-12 32.3425

25.1848 -2.26697 -2.7745e-11
-2.26697 26.3388 1.06489e-11
-2.7745e-11 1.06489e-11 24.9029

25.2242 2.27104 2.67835e-11
2.27104 26.2645 8.71081e-13
2.67835e-11 8.71081e-13 24.8439

40.7221 0.182565 -2.06155e-11
0.182565 32.3538 -2.31181e-11
-2.06155e-11 -2.31181e-11 36.8481

40.8027 -0.173206 2.89007e-11
-0.173206 32.331 8.25982e-12
2.89007e-11 8.25982e-12 36.8859

33.0852 2.66927 -4.9899e-11
2.66927 36.4326 -1.60888e-11
-4.9899e-11 -1.60888e-11 34.8703

32.5412 -2.60336 3.85095e-12
-2.60336 38.1361 9.34565e-12
3.85095e-12 9.34565e-12 37.3235

35.8975 2.9354 -6.93619e-12
2.9354 34.078 -4.59467e-11
-6.93619e-12 -4.59467e-11 35.4854

25.8275 1.36186 -1.50329e-11
1.36186 22.2122 1.29089e-11
-1.50329e-11 1.29089e-11 23.3284

27.9085 1.77085 5.7824e-12
1.77085 32.127 -5.57829e-11
5.7824e-12 -5.57829e-11 29.5085

38.774 0.172311 -1.31e-11
0.172311 37.057 4.12756e-11
-1.31e-11 4.12756e-11 38.2655

38.7595 -0.15387 6.24214e-11
-0.15387 37.0761 2.89951e-11
6.24214e-11 2.89951e-11 38.2554

33.7867 1.70869 1.84956e-11
1.70869 32.664 1.35835e-11
1.84956e-11 1.35835e-11 32.8008

36.8665 -1.05555 -4.4309e-12
-1.05555 34.9992 -3.41966e-11
-4.4309e-12 -3.41966e-11 35.7543

36.8788 1.0759 2.11979e-12
1.0759 35.0231 -4.0266e-11
2.11979e-12 -4.0266e-11 35.7746

17.2633 -1.07201 2.15862e-11
-1.07201 14.8394 -2.91293e-12
2.15862e-11 -2.91293e-12 17.7436

13.8495 1.35115 6.93838e-12
1.35115 16.3495 2.24268e-11
6.93838e-12 2.24268e-11 17.2909

27.8556 -1.74033 -8.85909e-12
-1.74033 32.1804 -5.5879e-12
-8.85909e-12 -5.5879e-12 29.5597

42.6014 -0.391732 1.34834e-11
-0.391732 41.3359 6.50191e-11
1.34834e-11 6.50191e-11 41.5939

42.6257 0.44663 -3.67962e-11
0.44663 41.3824 -2.24442e-11
-3.67962e-11 -2.24442e-11 41.6113

25.9774 1.17053 3.54566e-11
1.17053 22.0539 -3.02514e-11
3.54566e-11 -3.02514e-11 23.3163

32.0803 -1.44255 2.65866e-11
-1.44255 36.3817 8.86376e-12
2.65866e-11 8.86376e-12 35.0187

32.5414 -1.40865 -2.9285e-11
-1.40865 36.6997 2.63027e-11
-2.9285e-11 2.63027e-11 35.0514

29.1129 -2.83464 1.54083e-11
-2.83464 28.5678 4.89389e-11
1.54083e-11 4.89389e-11 28.3027

34.4197 -3.08469 1.5605e-11
-3.08469 38.3382 8.18778e-12
1.5605e-11 8.18778e-12 36.8589

31.8623 3.68008 4.08442e-11
3.68008 35.9433 -1.49292e-11
4.08442e-11 -1.49292e-11 36.1305

38.6795 1.6679 -1.54123e-12
1.6679 39.9031 2.0421e-11
-1.54123e-12 2.0421e-11 39.2997

37.6478 2.30128 -6.04961e-11
2.30128 39.8336 -3.52572e-11
-6.04961e-11 -3.52572e-11 39.2411

33.1081 -2.69578 1.15689e-12
-2.69578 36.5075 -2.09046e-11
1.15689e-12 -2.09046e-11 34.9362

33.9375 2.82969 -3.96887e-11
2.82969 34.2972 6.16522e-12
-3.96887e-11 6.16522e-12 34.8622

33.7802 -1.73478 1.17515e-11
-1.73478 32.7029 1.11732e-11
1.17515e-11 1.11732e-11 32.8198

30.6315 2.07117 3.19848e-11
2.07117 26.4996 -1.86879e-11
3.19848e-11 -1.86879e-11 28.1059

34.6479 -0.063218 -3.73816e-11
-0.063218 28.8782 -1.78251e-11
-3.73816e-11 -1.78251e-11 31.1341

34.1829 3.21644 1.84955e-11
3.21644 38.0073 -1.25222e-11
1.84955e-11 -1.25222e-11 36.6937

30.8113 -1.93621 1.92694e-12
-1.93621 33.6873 -2.78427e-11
1.92694e-12 -2.78427e-11 32.8097

29.033 0.706455 2.73613e-11
0.706455 33.3643 -1.36783e-11
2.73613e-11 -1.36783e-11 31.1983

33.869 1.98128 -3.54516e-11
1.98128 33.8387 -1.81138e-11
-3.54516e-11 -1.81138e-11 34.1758

29.3306 0.87845 -3.46815e-11
0.87845 33.8122 -3.28064e-12
-3.46815e-11 -3.28064e-12 31.4028

35.6145 -2.48397 5.01001e-12
-2.48397 38.923 -4.82114e-13
5.01001e-12 -4.82114e-13 37.7811

20.4477 -1.39267 -7.32174e-12
-1.39267 20.7481 4.1415e-12
-7.32174e-12 4.1415e-12 20.0759

21.5704 -1.40161 -2.50511e-11
-1.40161 19.5085 1.13357e-12
-2.50511e-11 1.13357e-12 20.0254

35.8988 -0.559153 1.81123e-11
-0.559153 29.9763 -2.47416e-12
1.81123e-11 -2.47416e-12 33.014

33.8459 -1.98625 5.00942e-11
-1.98625 33.8054 -2.86131e-11
5.00942e-11 -2.86131e-11 34.1571

47.4729 -2.66255 -1.53155e-10
-2.66255 42.7616 -2.06021e-10
-1.53155e-10 -2.06021e-10 43.4222

47.5593 2.55015 7.3016e-11
2.55015 42.9794 1.47662e-10
7.3016e-11 1.47662e-10 43.4957

32.7036 -2.888 1.84944e-11
-2.888 36.1958 -1.92727e-12
1.84944e-11 -1.92727e-12 34.5834

42.5385 -2.47604 -4.31503e-11
-2.47604 42.5582 4.72235e-12
-4.31503e-11 4.72235e-12 41.3866

42.4033 2.51652 -2.27333e-11
2.51652 42.483 -2.90892e-11
-2.27333e-11 -2.90892e-11 41.3381

35.9958 0.544163 -1.73414e-11
0.544163 30.9568 -3.04603e-11
-1.73414e-11 -3.04603e-11 34.1787

31.7807 -3.68475 -8.4784e-12
-3.68475 35.8376 2.68793e-11
-8.4784e-12 2.68793e-11 36.0948

21.5374 -1.65822 -4.49e-11
-1.65822 21.3855 4.65635e-11
-4.49e-11 4.65635e-11 20.9055

22.294 1.66428 -3.04466e-11
1.66428 21.1155 3.39613e-11
-3.04466e-11 3.39613e-11 21.1742

22.486 -1.23609 -1.90745e-11
-1.23609 24.8125 -4.95709e-11
-1.90745e-11 -4.95709e-11 22.7564

21.9707 1.14962 1.54151e-12
1.14962 24.6874 1.68228e-12
1.54151e-12 1.68228e-12 22.5288

24.8924 0.708232 -1.05998e-11
0.708232 21.3292 5.9475e-12
-1.05998e-11 5.9475e-12 22.3239

34.1741 -3.2413 -3.85349e-13
-3.2413 38.0325 -1.01154e-11
-3.85349e-13 -1.01154e-11 36.6744

19.9287 0.368037 3.93087e-11
0.368037 23.1045 8.19345e-13
3.93087e-11 8.19345e-13 21.1176

23.5658 -0.400664 3.8927e-11
-0.400664 19.5551 1.70643e-11
3.8927e-11 1.70643e-11 20.9931

38.9449 -1.02157 -9.63278e-12
-1.02157 43.0383 -7.84124e-11
-9.63278e-12 -7.84124e-11 40.8262

40.5429 -0.062466 -2.38883e-11
-0.062466 41.714 -4.73902e-11
-2.38883e-11 -4.73902e-11 40.7939

38.1643 1.60883 2.69806e-12
1.60883 34.3348 5.49016e-12
2.69806e-12 5.49016e-12 36.4203

37.9352 -0.114071 -4.73982e-11
-0.114071 30.1563 -2.62734e-11
-4.73982e-11 -2.62734e-11 36.0834

25.8912 1.6341 3.48775e-11
1.6341 28.8837 4.774e-11
3.48775e-11 4.774e-11 26.6049

25.8976 -1.71006 -2.83256e-11
-1.71006 28.9197 3.406e-11
-2.83256e-11 3.406e-11 26.6489

36.4702 -0.306675 7.77156e-16
-0.306675 31.2218 -1.03415e-12
7.77156e-16 -1.03415e-12 34.4357

30.903 -2.19097 -1.23335e-11
-2.19097 34.9687 3.4488e-11
-1.23335e-11 3.4488e-11 32.9991

41.6833 0.231246 3.10176e-11
0.231246 39.7582 6.77173e-11
3.10176e-11 6.77173e-11 40.6088

41.6676 -0.200125 -3.1403e-11
-0.200125 39.7674 3.78553e-11
-3.1403e-11 3.78553e-11 40.6109

36.7006 2.44502 -3.17912e-11
2.44502 34.989 -4.5661e-11
-3.17912e-11 -4.5661e-11 36.0275

33.8818 -2.75975 7.73307e-13
-2.75975 34.2876 -2.69743e-11
7.73307e-13 -2.69743e-11 34.8596

37.4113 1.46726 2.31196e-11
1.46726 31.7302 -3.38602e-11
2.31196e-11 -3.38602e-11 35.3154

27.1721 2.1609 -6.05035e-11
2.1609 25.4889 -1.50325e-11
-6.05035e-11 -1.50325e-11 25.5893

32.1976 -2.39204 2.75537e-11
-2.39204 34.5739 -1.5894e-11
2.75537e-11 -1.5894e-11 34.3512

17.2129 3.7185 -1.58011e-11
3.7185 16.3988 -7.93774e-12
-1.58011e-11 -7.93774e-12 17.164

29.1927 -0.527967 3.86256e-13
-0.527967 33.3742 -9.6354e-12
3.86256e-13 -9.6354e-12 31.2602

29.3649 -0.786987 4.62314e-12
-0.786987 33.6165 -1.42579e-11
4.62314e-12 -1.42579e-11 31.319

39.4329 1.08995 2.42693e-11
1.08995 43.2754 -8.05309e-11
2.42693e-11 -8.05309e-11 41.0734

40.0006 -1.63031 -1.46392e-11
-1.63031 42.7529 -2.08029e-11
-1.46392e-11 -2.08029e-11 41.0651

41.1532 -0.0862547 -9.24806e-12
-0.0862547 33.5064 -1.8591e-11
-9.24806e-12 -1.8591e-11 37.8896

41.1853 0.0805392 2.87076e-11
0.0805392 33.4888 -1.17291e-11
2.87076e-11 -1.17291e-11 37.9116

38.6875 -3.1954 -1.92627e-12
-3.1954 36.9046 5.29708e-12
-1.92627e-12 5.29708e-12 38.0849

38.5027 3.22298 2.89011e-11
3.22298 36.2881 -5.29541e-12
2.89011e-11 -5.29541e-12 37.7711

43.0308 -1.16394 -3.46745e-12
-1.16394 41.3084 2.21567e-11
-3.46745e-12 2.21567e-11 41.0407

42.9229 1.16123 -5.9722e-11
1.16123 41.2908 -2.25406e-11
-5.9722e-11 -2.25406e-11 41.0047

44.2435 -1.01662 1.36014e-10
-1.01662 42.1701 -1.87735e-10
1.36014e-10 -1.87735e-10 42.4842

44.2963 1.09433 4.2193e-11
1.09433 42.3526 1.80416e-10
4.2193e-11 1.80416e-10 42.5478

35.6345 -3.0592 5.78648e-13
-3.0592 38.7369 -1.99413e-11
5.78648e-13 -1.99413e-11 37.8907

35.7111 3.04341 -1.07879e-11
3.04341 38.7771 3.93991e-11
-1.07879e-11 3.93991e-11 37.9449

33.3707 -1.58423 3.69941e-11
-1.58423 30.5465 2.61536e-11
3.69941e-11 2.61536e-11 31.9258

31.4474 -1.33911 -1.50292e-11
-1.33911 34.66 -1.69568e-11
-1.50292e-11 -1.69568e-11 33.2614

31.6769 2.57714 -4.08482e-11
2.57714 31.6498 2.71647e-11
-4.08482e-11 2.71647e-11 31.4501

31.7877 -1.87884 -3.9691e-11
-1.87884 35.4226 2.14862e-11
-3.9691e-11 2.14862e-11 33.4062

27.3138 -1.99633 4.7596e-11
-1.99633 25.7842 -5.14484e-11
4.7596e-11 -5.14484e-11 25.5131

33.3224 1.56386 2.21572e-11
1.56386 30.4756 9.53735e-12
2.21572e-11 9.53735e-12 31.8577

31.493 1.33138 -4.86177e-12
1.33138 34.5475 -4.67214e-11
-4.86177e-12 -4.67214e-11 33.1625

35.5996 -3.80318 -3.85329e-12
-3.80318 37.1142 2.77439e-11
-3.85329e-12 2.77439e-11 37.7762

35.6084 3.80578 -2.50464e-11
3.80578 37.0885 1.41612e-11
-2.50464e-11 1.41612e-11 37.7709

38.6836 -1.52845 -1.04058e-11
-1.52845 34.8981 1.29555e-11
-1.04058e-11 1.29555e-11 36.9543

46.6715 -2.8478 8.39906e-11
-2.8478 49.0541 -8.88178e-16
8.39906e-11 -8.88178e-16 44.4503

44.8315 2.91313 3.58355e-11
2.91313 43.0167 2.15823e-11
3.58355e-11 2.15823e-11 42.9144

34.8595 -2.15461 2.83206e-11
-2.15461 37.8064 -2.22545e-11
2.83206e-11 -2.22545e-11 36.4123

36.1292 2.68991 -1.23297e-11
2.68991 32.9101 1.52197e-11
-1.23297e-11 1.52197e-11 34.9793

41.5082 0.172985 -8.09218e-12
0.172985 38.4775 5.34728e-12
-8.09218e-12 5.34728e-12 39.6832

31.6818 -2.52014 -1.46446e-11
-2.52014 31.791 -2.23477e-11
-1.46446e-11 -2.23477e-11 31.4882

21.1138 1.61387 1.42567e-11
1.61387 21.6982 -6.44572e-11
1.42567e-11 -6.44572e-11 20.5955

21.8573 1.59601 -3.46843e-11
1.59601 20.2635 8.83956e-12
-3.46843e-11 8.83956e-12 20.4643

41.5864 0.319209 5.202e-12
0.319209 34.9713 9.56039e-12
5.202e-12 9.56039e-12 38.6517

41.5183 -0.322212 9.24835e-12
-0.322212 34.9382 3.25571e-11
9.24835e-12 3.25571e-11 38.6316

41.7428 -0.281114 -3.73774e-11
-0.281114 38.7832 1.45928e-11
-3.73774e-11 1.45928e-11 39.8414

31.8331 1.78924 6.78834e-12
1.78924 35.3298 4.59537e-11
6.78834e-12 4.59537e-11 33.3666

32.8001 -1.2584 1.25322e-12
-1.2584 29.4561 6.21852e-11
1.25322e-12 6.21852e-11 30.119

36.8003 -1.52856 -2.94766e-11
-1.52856 37.7065 6.84025e-12
-2.94766e-11 6.84025e-12 37.3663

36.8264 1.53075 6.26132e-11
1.53075 37.7274 1.92859e-12
6.26132e-11 1.92859e-12 37.3872

48.8287 -0.210386 -1.00162e-11
-0.210386 50.972 -4.46605e-11
-1.00162e-11 -4.46605e-11 45.0708

48.8361 0.207455 -4.35369e-11
0.207455 50.9107 7.63114e-11
-4.35369e-11 7.63114e-11 45.0734

33.2019 -2.61225 1.13688e-11
-2.61225 37.1096 -5.1539e-11
1.13688e-11 -5.1539e-11 35.6817

35.1635 2.06838 -2.23495e-11
2.06838 31.3481 -8.38222e-12
-2.23495e-11 -8.38222e-12 33.2355

40.2842 -0.255563 -4.52523e-12
-0.255563 36.8552 2.11438e-11
-4.52523e-12 2.11438e-11 38.6417

40.2825 0.278372 -9.43915e-12
0.278372 36.8416 -2.81761e-11
-9.43915e-12 -2.81761e-11 38.631

33.5355 -1.65858 -2.00388e-11
-1.65858 36.6942 -3.85562e-12
-2.00388e-11 -3.85562e-12 36.1476

33.134 -2.65032 -1.54312e-12
-2.65032 35.6869 1.86885e-11
-1.54312e-12 1.86885e-11 36.2673

17.3815 -3.85713 7.90114e-11
-3.85713 17.4988 -2.64043e-11
7.90114e-11 -2.64043e-11 17.5079

37.4527 -2.47565 -1.38704e-11
-2.47565 39.5989 1.01157e-11
-1.38704e-11 1.01157e-11 38.9872

37.4373 2.49746 -1.77251e-11
2.49746 39.5328 -1.87847e-11
-1.77251e-11 -1.87847e-11 38.9534

32.6017 -2.54765 1.23291e-11
-2.54765 35.7772 7.51591e-12
1.23291e-11 7.51591e-12 35.5784

33.0219 1.3346 9.0535e-12
1.3346 29.5824 -2.88884e-12
9.0535e-12 -2.88884e-12 30.2947

37.221 -2.34734 -1.74342e-11
-2.34734 35.2789 1.54001e-12
-1.74342e-11 1.54001e-12 36.3992

39.1451 -2.60687 3.15958e-11
-2.60687 37.068 -2.84201e-11
3.15958e-11 -2.84201e-11 38.344

39.1802 2.54375 2.46615e-11
2.54375 36.9242 2.85141e-11
2.46615e-11 2.85141e-11 38.285

37.8844 -1.45724 9.63192e-12
-1.45724 32.0698 8.23578e-12
9.63192e-12 8.23578e-12 35.7841

42.1887 0.639544 1.44494e-11
0.639544 37.8711 -3.62177e-11
1.44494e-11 -3.62177e-11 40.0482

42.1389 -0.6275 -1.65662e-11
-0.6275 37.8977 -1.9267e-11
-1.65662e-11 -1.9267e-11 40.0347

42.1005 -1.01164 7.43582e-11
-1.01164 47.494 -2.81263e-11
7.43582e-11 -2.81263e-11 43.0546

43.14 2.20883 -1.84895e-11
2.20883 47.1 1.07111e-10
-1.84895e-11 1.07111e-10 43.2056

17.5838 0.327841 1.92561e-12
0.327841 13.795 4.82732e-11
1.92561e-12 4.82732e-11 17.5255

15.118 0.613131 -1.61879e-11
0.613131 16.9759 5.99621e-12
-1.61879e-11 5.99621e-12 17.6913

35.2667 2.43804 2.31111e-12
2.43804 38.2199 -6.16579e-12
2.31111e-12 -6.16579e-12 36.9687

35.2424 -2.43954 3.29456e-11
-2.43954 38.1986 -1.89787e-11
3.29456e-11 -1.89787e-11 36.9408

34.1796 -3.11605 -1.38715e-11
-3.11605 37.9739 -9.63328e-12
-1.38715e-11 -9.63328e-12 36.5905

16.716 -1.6265 6.20505e-11
-1.6265 16.3902 -7.15887e-12
6.20505e-11 -7.15887e-12 17.6658

17.0841 -1.34266 -2.0043e-11
-1.34266 16.5599 3.75775e-11
-2.0043e-11 3.75775e-11 17.7999

43.0915 2.1518 9.28653e-11
2.1518 47.3873 1.83305e-10
9.28653e-11 1.83305e-10 43.5439

43.0343 -2.26195 5.79906e-11
-2.26195 47.1607 -9.1796e-11
5.79906e-11 -9.1796e-11 43.4868

36.0392 -2.9521 -5.3947e-11
-2.9521 34.2636 1.42606e-11
-5.3947e-11 1.42606e-11 35.6643

31.8925 -2.38468 -2.94798e-11
-2.38468 33.3679 2.74566e-11
-2.94798e-11 2.74566e-11 32.3503

34.7534 2.34981 2.79366e-11
2.34981 36.4662 4.15215e-11
2.79366e-11 4.15215e-11 36.1364

34.7354 -2.34885 1.48338e-11
-2.34885 36.4436 2.30226e-11
1.48338e-11 2.30226e-11 36.1178

32.5937 -2.77526 6.35795e-12
-2.77526 34.9415 -3.85462e-12
6.35795e-12 -3.85462e-12 33.9247

31.9234 2.41792 -4.75894e-11
2.41792 33.3092 1.61867e-11
-4.75894e-11 1.61867e-11 32.329

22.4293 -0.889273 6.31997e-11
-0.889273 24.9444 -5.00933e-12
6.31997e-11 -5.00933e-12 22.9043

22.4217 0.747929 -2.8521e-11
0.747929 25.0788 2.52383e-11
-2.8521e-11 2.52383e-11 22.8589

25.0757 0.639636 1.09844e-11
0.639636 21.8789 -2.13048e-11
1.09844e-11 -2.13048e-11 22.6196

32.5846 2.76837 -4.25776e-11
2.76837 34.9131 2.29274e-11
-4.25776e-11 2.29274e-11 33.8964

20.1692 -0.420115 -1.46487e-11
-0.420115 22.905 1.66015e-13
-1.46487e-11 1.66015e-13 21.0147

23.3287 -0.252564 3.81555e-11
-0.252564 19.3869 -3.26433e-11
3.81555e-11 -3.26433e-11 20.9661

36.4842 -2.27182 1.46433e-11
-2.27182 38.5381 7.89845e-12
1.46433e-11 7.89845e-12 38.0404

36.5439 2.26054 -6.74349e-12
2.26054 38.5779 -2.57205e-11
-6.74349e-12 -2.57205e-11 38.0798

36.989 -1.72544 -1.07876e-11
-1.72544 38.8658 -4.11323e-11
-1.07876e-11 -4.11323e-11 38.385

37.0211 1.72501 -1.46435e-11
1.72501 38.8373 -1.02399e-10
-1.46435e-11 -1.02399e-10 38.3958

16.7584 1.49419 -1.13701e-11
1.49419 15.8548 2.85442e-11
-1.13701e-11 2.85442e-11 17.4393

16.5494 1.42514 -2.50526e-11
1.42514 15.866 -3.03147e-11
-2.50526e-11 -3.03147e-11 17.339

34.3821 2.15762 -8.28415e-12
2.15762 35.8686 -1.6395e-12
-8.28415e-12 -1.6395e-12 35.0724

34.3764 -2.17197 4.18066e-11
-2.17197 35.8794 2.31115e-12
4.18066e-11 2.31115e-12 35.0674

40.7158 -2.09112 7.01256e-11
-2.09112 43.6897 -8.36134e-11
7.01256e-11 -8.36134e-11 41.5937

41.345 0.941777 -2.73585e-11
0.941777 41.8408 -1.11729e-11
-2.73585e-11 -1.11729e-11 41.3408

36.5725 -2.34275 5.20158e-12
-2.34275 40.1201 -1.56059e-11
5.20158e-12 -1.56059e-11 38.8134

36.5832 2.34391 1.93031e-13
2.34391 40.0669 -1.53166e-11
1.93031e-13 -1.53166e-11 38.8131

40.9883 0.1524 2.10014e-11
0.1524 37.2077 1.18482e-11
2.10014e-11 1.18482e-11 39.6504

40.9753 -0.13051 -3.06306e-11
-0.13051 37.2201 -1.7823e-11
-3.06306e-11 -1.7823e-11 39.6503

35.8592 -2.65309 -1.15452e-12
-2.65309 36.0994 -1.99405e-11
-1.15452e-12 -1.99405e-11 36.787

35.8755 2.68699 5.6644e-11
2.68699 35.9417 2.24485e-11
5.6644e-11 2.24485e-11 36.7114

43.7451 0.646945 5.12457e-11
0.646945 40.3377 2.06155e-11
5.12457e-11 2.06155e-11 41.5223

44.0054 0.11158 1.10582e-10
0.11158 41.9423 -1.32444e-10
1.10582e-10 -1.32444e-10 42.3646

43.7654 -0.656069 -4.27692e-11
-0.656069 40.3684 1.02112e-11
-4.27692e-11 1.02112e-11 41.5444

44.0024 -0.176914 1.13281e-10
-0.176914 41.8213 9.50685e-11
1.13281e-10 9.50685e-11 42.343

41.1639 0.109154 -5.00611e-12
0.109154 44.0688 2.60093e-11
-5.00611e-12 2.60093e-11 41.8679

45.5377 2.60922 1.50284e-11
2.60922 43.6152 6.35761e-11
1.50284e-11 6.35761e-11 42.4977

45.5518 -2.5991 2.31167e-11
-2.5991 43.6341 -5.20151e-12
2.31167e-11 -5.20151e-12 42.496

40.0282 -1.39791 -5.43253e-11
-1.39791 46.767 2.42733e-11
-5.43253e-11 2.42733e-11 42.2264

41.8445 -1.23377 1.80707e-10
-1.23377 42.5695 -7.552e-11
1.80707e-10 -7.552e-11 41.8904

54.0487 -1.78767 4.37152e-10
-1.78767 39.4048 6.61164e-11
4.37152e-10 6.61164e-11 44.1817

41.7212 1.29935 -2.00319e-11
1.29935 42.8061 2.21314e-12
-2.00319e-11 2.21314e-12 41.95

54.0732 1.65283 -3.04203e-10
1.65283 39.949 9.59921e-11
-3.04203e-10 9.59921e-11 44.339

42.737 -1.6905 2.29262e-11
-1.6905 42.0252 -1.32923e-11
2.29262e-11 -1.32923e-11 41.7638

39.7262 -1.17912 -2.98612e-11
-1.17912 41.5183 -1.26184e-11
-2.98612e-11 -1.26184e-11 40.4808

43.7252 -0.0982036 4.77789e-11
-0.0982036 42.0678 8.91956e-11
4.77789e-11 8.91956e-11 42.4689

42.6842 1.77462 -8.0926e-12
1.77462 42.0618 -3.3328e-11
-8.0926e-12 -3.3328e-11 41.7811

39.7572 1.21942 7.70698e-12
1.21942 41.4498 -2.98658e-12
7.70698e-12 -2.98658e-12 40.4761

43.7752 0.110815 7.70983e-12
0.110815 42.3997 -1.33214e-10
7.70983e-12 -1.33214e-10 42.58

39.6096 -0.973389 1.02104e-11
-0.973389 41.0399 2.98562e-12
1.02104e-11 2.98562e-12 40.5614

42.7291 -0.546055 -1.05958e-11
-0.546055 41.9791 -1.76269e-11
-1.05958e-11 -1.76269e-11 41.8438

39.6627 1.01933 1.25229e-11
1.01933 41.0502 -4.71054e-11
1.25229e-11 -4.71054e-11 40.5852

42.7583 0.57075 -9.24714e-11
0.57075 42.0024 1.46398e-11
-9.24714e-11 1.46398e-11 41.8649

30.0724 2.29866 4.75913e-11
2.29866 32.7266 3.25673e-11
4.75913e-11 3.25673e-11 30.6881

33.5064 0.464328 1.75326e-11
0.464328 38.394 -1.15594e-11
1.75326e-11 -1.15594e-11 36.2133

35.5345 1.23817 -3.0248e-11
1.23817 37.4469 2.33114e-11
-3.0248e-11 2.33114e-11 36.3215

34.7617 -1.50451 -1.46435e-11
-1.50451 29.7627 9.63278e-12
-1.46435e-11 9.63278e-12 32.673

33.1514 -0.919767 2.6398e-11
-0.919767 28.5908 6.93442e-12
2.6398e-11 6.93442e-12 30.7592

34.3532 0.705167 8.28373e-12
0.705167 40.9855 5.78019e-12
8.28373e-12 5.78019e-12 38.1839

36.0263 1.27887 -2.08072e-11
1.27887 38.3338 -2.40826e-12
-2.08072e-11 -2.40826e-12 37.9554

33.2567 -0.00865036 4.5279e-11
-0.00865036 28.9105 2.23531e-11
4.5279e-11 2.23531e-11 30.9515

37.5665 0.581725 2.27345e-11
0.581725 32.2413 -1.11735e-11
2.27345e-11 -1.11735e-11 36.3961

24.2407 1.98806 -3.93092e-11
1.98806 27.1561 -6.10848e-11
-3.93092e-11 -6.10848e-11 24.8655

23.3005 1.57315 1.44531e-11
1.57315 26.9052 -4.23713e-12
1.44531e-11 -4.23713e-12 24.5289

26.2775 1.57641 3.41052e-11
1.57641 23.4638 1.92694e-11
3.41052e-11 1.92694e-11 24.196

38.609 -2.4028 3.93013e-11
-2.4028 39.9496 1.38703e-11
3.93013e-11 1.38703e-11 39.2022

38.2464 -1.00945 -2.69711e-11
-1.00945 40.9095 2.7357e-11
-2.69711e-11 2.7357e-11 39.3294

33.3385 -2.7747 -2.9479e-11
-2.7747 32.9828 -4.23857e-12
-2.9479e-11 -4.23857e-12 33.2626

30.7185 2.23128 5.51044e-11
2.23128 34.2161 1.32978e-11
5.51044e-11 1.32978e-11 32.5222

33.5762 2.60623 -4.45079e-11
2.60623 36.8302 -3.23696e-11
-4.45079e-11 -3.23696e-11 35.6559

35.8809 -1.25973 4.81646e-11
-1.25973 38.246 1.15622e-12
4.81646e-11 1.15622e-12 37.839

34.2203 -0.83515 -2.71639e-11
-0.83515 40.9995 2.58159e-11
-2.71639e-11 2.58159e-11 38.056

35.6714 0.700919 -2.3411e-11
0.700919 30.2175 -1.38724e-11
-2.3411e-11 -1.38724e-11 33.0812

26.3386 0.653562 -2.17737e-11
0.653562 30.0696 -4.35485e-11
-2.17737e-11 -4.35485e-11 27.0064

25.486 0.288963 1.49335e-11
0.288963 29.9398 -2.08093e-11
1.49335e-11 -2.08093e-11 26.8946

29.5861 0.271907 6.64698e-12
0.271907 25.5805 2.31212e-11
6.64698e-12 2.31212e-11 26.4537

29.171 1.57102 -4.5855e-11
1.57102 32.9909 9.24564e-12
-4.5855e-11 9.24564e-12 30.7981

29.8035 2.56786 3.66064e-11
2.56786 31.9919 3.68012e-11
3.66064e-11 3.68012e-11 30.4028

34.6991 0.436774 -6.35725e-12
0.436774 29.8839 1.34867e-11
-6.35725e-12 1.34867e-11 32.9197

22.7236 1.18827 1.59936e-11
1.18827 24.965 5.18365e-11
1.59936e-11 5.18365e-11 22.5527

37.5172 -1.60776 7.70828e-13
-1.60776 32.0585 -1.07874e-11
7.70828e-13 -1.07874e-11 35.7602

38.5498 0.122038 9.2477e-12
0.122038 42.1209 1.31011e-11
9.2477e-12 1.31011e-11 39.7187

39.5958 0.0344765 -2.3504e-11
0.0344765 40.0924 -9.43856e-12
-2.3504e-11 -9.43856e-12 39.5692

47.68 1.07889 -7.89863e-11
1.07889 41.5997 4.00691e-11
-7.89863e-11 4.00691e-11 42.9322

48.1102 -2.59788 7.74458e-11
-2.59788 43.752 -5.78069e-12
7.74458e-11 -5.78069e-12 43.2303

32.2447 -2.94446 8.28511e-12
-2.94446 33.0277 -3.08413e-12
8.28511e-12 -3.08413e-12 32.8124

29.0906 -2.38156 -7.32144e-12
-2.38156 31.7358 1.96532e-11
-7.32144e-12 1.96532e-11 30.3344

29.0762 -0.819775 1.94641e-11
-0.819775 24.6712 -4.39358e-11
1.94641e-11 -4.39358e-11 26.154

41.3142 0.422511 -6.01086e-11
0.422511 38.3894 2.60082e-11
-6.01086e-11 2.60082e-11 39.7034

41.3494 -1.53793 1.15759e-12
-1.53793 38.618 -4.23804e-12
1.15759e-12 -4.23804e-12 39.5058

37.6751 -0.683498 1.84964e-11
-0.683498 32.3273 3.08311e-12
1.84964e-11 3.08311e-12 36.4568

37.0673 -0.203211 2.04235e-11
-0.203211 31.0008 1.11745e-11
2.04235e-11 1.11745e-11 35.6703

31.3778 -2.4284 1.31032e-11
-2.4284 28.9979 -2.3505e-11
1.31032e-11 -2.3505e-11 29.5128

31.4868 1.12249 -5.78293e-12
1.12249 27.4284 2.62025e-11
-5.78293e-12 2.62025e-11 28.9386

30.9574 -1.98157 -5.20199e-12
-1.98157 27.0404 3.47108e-12
-5.20199e-12 3.47108e-12 28.5927

32.027 1.6326 -1.75314e-11
1.6326 37.2603 -3.46799e-11
-1.75314e-11 -3.46799e-11 35.6495

29.4587 -1.97297 -1.44507e-11
-1.97297 32.8632 3.27548e-11
-1.44507e-11 3.27548e-11 30.8528

28.952 1.89709 3.37608e-12
1.89709 31.7837 -1.92682e-11
3.37608e-12 -1.92682e-11 30.3542

18.0062 -3.01255 -1.52232e-11
-3.01255 18.1393 -1.75349e-11
-1.52232e-11 -1.75349e-11 17.9565

16.9694 1.85351 -1.75404e-11
1.85351 17.9331 -3.66147e-11
-1.75404e-11 -3.66147e-11 17.6001

33.9934 -2.25849 -8.86278e-12
-2.25849 39.0899 1.57999e-11
-8.86278e-12 1.57999e-11 37.6102

29.8474 1.49869 -1.41617e-11
1.49869 34.5528 -7.70817e-12
-1.41617e-11 -7.70817e-12 32.6659

17.08 0.313393 -1.29096e-11
0.313393 17.3555 -2.89072e-11
-1.29096e-11 -2.89072e-11 18.1345

17.4928 -0.609587 2.38958e-11
-0.609587 18.424 -5.78278e-13
2.38958e-11 -5.78278e-13 18.4943

39.1762 -0.897104 -6.26073e-12
-0.897104 40.5285 4.81544e-12
-6.26073e-12 4.81544e-12 39.8002

38.8751 1.89802 -3.5735e-11
1.89802 39.6518 3.35238e-11
-3.5735e-11 3.35238e-11 39.6485

37.9004 0.0203313 2.10023e-11
0.0203313 31.3661 -2.71654e-11
2.10023e-11 -2.71654e-11 34.721

38.9861 -0.600847 9.89904e-12
-0.600847 39.2506 1.13671e-11
9.89904e-12 1.13671e-11 39.5019

38.9332 1.77159 -5.43799e-11
1.77159 39.7347 -5.27874e-11
-5.43799e-11 -5.27874e-11 39.6481

45.3243 1.94575 4.3155e-11
1.94575 40.2737 1.86861e-11
4.3155e-11 1.86861e-11 41.8987

45.048 -2.38037 -5.50968e-11
-2.38037 42.4044 -1.84937e-11
-5.50968e-11 -1.84937e-11 42.0815

36.5247 -1.43633 -5.53842e-12
-1.43633 36.7336 -3.35716e-11
-5.53842e-12 -3.35716e-11 37.0161

36.4134 1.89824 4.64786e-11
1.89824 36.2818 -7.46235e-12
4.64786e-11 -7.46235e-12 37.0112

40.8606 -0.151095 -7.12974e-12
-0.151095 46.0623 -2.54303e-11
-7.12974e-12 -2.54303e-11 41.9063

40.6065 0.681923 6.55009e-12
0.681923 42.9821 3.14991e-11
6.55009e-12 3.14991e-11 41.3433

29.706 -2.7125 -2.31363e-12
-2.7125 32.8004 4.43034e-12
-2.31363e-12 4.43034e-12 30.6746

21.005 0.285983 -8.09412e-12
0.285983 23.8606 -6.32054e-11
-8.09412e-12 -6.32054e-11 21.8142

23.6576 0.368453 2.00397e-11
0.368453 21.3158 -6.93789e-12
2.00397e-11 -6.93789e-12 21.8072

31.2943 1.42593 3.85332e-11
1.42593 36.8826 -2.4275e-11
3.85332e-11 -2.4275e-11 34.901

32.8511 2.09334 1.84945e-11
2.09334 36.2793 -3.66118e-12
1.84945e-11 -3.66118e-12 34.9367

46.508 -1.98423 -3.44489e-11
-1.98423 42.9659 2.23503e-11
-3.44489e-11 2.23503e-11 43.3903

46.259 3.07956 -6.19662e-11
3.07956 49.7942 -5.818e-11
-6.19662e-11 -5.818e-11 44.6909

31.2458 1.91782 8.67136e-12
1.91782 30.2255 -7.70724e-12
8.67136e-12 -7.70724e-12 30.0477

34.6292 3.23791 -1.29086e-11
3.23791 37.8765 -3.27538e-12
-1.29086e-11 -3.27538e-12 36.7173

36.0891 1.23035 -2.67352e-11
1.23035 32.8886 1.84936e-11
-2.67352e-11 1.84936e-11 35.0835

36.175 -0.978729 9.39293e-12
-0.978729 32.9116 -1.56083e-11
9.39293e-12 -1.56083e-11 35.005

34.7163 3.0754 1.92657e-11
3.0754 36.7799 -1.71465e-11
1.92657e-11 -1.71465e-11 36.3644

35.5234 -3.03464 -5.2987e-12
-3.03464 38.8388 -3.46774e-12
-5.2987e-12 -3.46774e-12 37.7292

40.0973 -2.59636 -1.23275e-11
-2.59636 35.8093 -2.88961e-11
-1.23275e-11 -2.88961e-11 38.3309

29.0397 -0.231799 -1.95584e-11
-0.231799 24.8691 2.36978e-11
-1.95584e-11 2.36978e-11 26.2414

49.3778 0.36192 -1.07865e-11
0.36192 47.473 -5.93334e-11
-1.07865e-11 -5.93334e-11 44.4079

49.543 -0.224727 1.08657e-10
-0.224727 43.3891 2.17664e-11
1.08657e-10 2.17664e-11 43.8556

32.4149 2.36068 4.62278e-12
2.36068 31.3708 -1.04023e-11
4.62278e-12 -1.04023e-11 32.0215

36.0209 0.897466 -2.2637e-11
0.897466 31.5613 -8.86402e-12
-2.2637e-11 -8.86402e-12 33.6466

27.0873 2.01444 -1.65711e-11
2.01444 28.011 -4.66324e-11
-1.65711e-11 -4.66324e-11 26.3754

41.6539 0.479499 6.66555e-11
0.479499 43.1402 4.03622e-11
6.66555e-11 4.03622e-11 41.9439

43.1274 1.3941 2.77394e-11
1.3941 47.5187 -2.88982e-11
2.77394e-11 -2.88982e-11 42.9402

40.1432 1.28858 -4.08446e-11
1.28858 35.3544 -5.76761e-13
-4.08446e-11 -5.76761e-13 38.5563

33.3793 -0.54548 -3.34255e-11
-0.54548 38.4804 -1.50295e-11
-3.34255e-11 -1.50295e-11 36.125

35.4523 -1.16682 3.39096e-11
-1.16682 37.5553 -7.71309e-13
3.39096e-11 -7.71309e-13 36.291

38.5163 0.374697 1.51974e-11
0.374697 32.235 -2.00357e-11
1.51974e-11 -2.00357e-11 36.0036

38.7103 -0.292447 -2.93361e-11
-0.292447 32.1806 1.98419e-11
-2.93361e-11 1.98419e-11 35.9779

27.9714 -2.02029 4.81911e-13
-2.02029 27.0317 2.00368e-11
4.81911e-13 2.00368e-11 26.1477

34.3196 0.00589214 1.73893e-11
0.00589214 28.8853 5.20276e-12
1.73893e-11 5.20276e-12 31.0888

39.3945 -0.328056 -2.15296e-11
-0.328056 34.844 -7.70595e-12
-2.15296e-11 -7.70595e-12 37.7046

38.8728 0.665687 -2.71888e-11
0.665687 35.289 -5.00933e-12
-2.71888e-11 -5.00933e-12 37.7333

36.1752 -0.840708 -2.87094e-11
-0.840708 32.1029 3.37151e-11
-2.87094e-11 3.37151e-11 33.7036

30.3804 -2.39449 1.42579e-11
-2.39449 33.1452 -2.33157e-11
1.42579e-11 -2.33157e-11 31.1105

39.1972 -0.192238 -2.34094e-11
-0.192238 34.0482 3.27396e-12
-2.34094e-11 3.27396e-12 36.6172

38.8792 0.428497 7.08026e-12
0.428497 33.8955 1.19444e-11
7.08026e-12 1.19444e-11 36.6009

35.5596 0.97593 -1.75361e-11
0.97593 31.6791 -2.2927e-11
-1.75361e-11 -2.2927e-11 33.9892

28.235 -3.04776 4.72057e-11
-3.04776 27.8315 3.83471e-13
4.72057e-11 3.83471e-13 27.6705

33.3185 2.93888 -1.45463e-11
2.93888 36.0193 -2.08079e-11
-1.45463e-11 -2.08079e-11 36.0849

34.9042 2.88754 2.09999e-11
2.88754 38.3307 -7.51326e-12
2.09999e-11 -7.51326e-12 37.0363

33.0394 2.17876 -3.66159e-12
2.17876 36.3192 -1.5416e-12
-3.66159e-12 -1.5416e-12 36.3552

31.7827 1.06333 -1.37799e-11
1.06333 27.098 2.19672e-11
-1.37799e-11 2.19672e-11 28.942

24.8966 -2.10206 1.77256e-11
-2.10206 23.0522 2.08125e-11
1.77256e-11 2.08125e-11 23.0979

35.896 1.77533 1.40644e-11
1.77533 33.4324 3.62187e-11
1.40644e-11 3.62187e-11 35.3899

35.4376 -1.89118 3.85632e-12
-1.89118 31.562 -3.35236e-11
3.85632e-12 -3.35236e-11 33.535

25.2776 -1.82171 8.479e-12
-1.82171 22.9365 -3.12166e-11
8.479e-12 -3.12166e-11 23.2544

32.5882 -3.03665 -7.12922e-12
-3.03665 30.5529 3.0802e-12
-7.12922e-12 3.0802e-12 31.7343

32.2002 0.0774524 -1.48356e-11
0.0774524 35.6839 2.69726e-11
-1.48356e-11 2.69726e-11 34.5281

30.7791 0.000339343 -1.13654e-11
0.000339343 37.5759 -3.66068e-11
-1.13654e-11 -3.66068e-11 34.7149

28.8643 2.58876 4.16202e-11
2.58876 29.0923 -1.23301e-11
4.16202e-11 -1.23301e-11 28.4754

27.1397 -2.15593 1.04028e-11
-2.15593 24.1203 3.62247e-11
1.04028e-11 3.62247e-11 24.8166

34.6058 -3.15054 1.11748e-11
-3.15054 35.6894 2.88981e-11
1.11748e-11 2.88981e-11 36.1348

28.9221 -2.81702 3.85514e-12
-2.81702 30.375 -4.816e-12
3.85514e-12 -4.816e-12 28.7388

28.539 -2.84822 2.23535e-11
-2.84822 29.8196 -7.70621e-12
2.23535e-11 -7.70621e-12 28.5116

35.1827 1.45714 -3.79582e-11
1.45714 32.4387 -1.15573e-11
-3.79582e-11 -1.15573e-11 33.8185

39.8833 0.920581 2.38908e-11
0.920581 31.6384 -1.61825e-11
2.38908e-11 -1.61825e-11 37.6432

39.6016 -1.4501 -2.31476e-12
-1.4501 32.7444 5.70247e-11
-2.31476e-12 5.70247e-11 37.6095

27.9094 1.61833 1.25259e-11
1.61833 31.5956 -5.78049e-12
1.25259e-11 -5.78049e-12 29.1919

26.9558 1.10524 3.56431e-11
1.10524 32.0873 1.54157e-11
3.56431e-11 1.54157e-11 29.278

23.9408 -0.234992 1.21421e-11
-0.234992 28.817 -3.77699e-11
1.21421e-11 -3.77699e-11 25.6206

23.3494 -0.312782 -2.38925e-11
-0.312782 28.986 1.96544e-11
-2.38925e-11 1.96544e-11 25.6055

28.7268 -0.206988 2.60051e-12
-0.206988 23.409 -4.62643e-12
2.60051e-12 -4.62643e-12 25.2602

29.6483 -2.56781 -1.97513e-11
-2.56781 28.1558 3.81509e-11
-1.97513e-11 3.81509e-11 28.3769

42.4065 -1.89306 -2.90903e-11
-1.89306 45.2709 7.22437e-11
-2.90903e-11 7.22437e-11 42.8898

50.4319 -0.75249 1.39469e-10
-0.75249 50.4544 -6.70439e-11
1.39469e-10 -6.70439e-11 45.3023

30.3654 1.80984 -2.65904e-11
1.80984 27.3281 1.0212e-11
-2.65904e-11 1.0212e-11 28.4214

32.1648 -1.23415 4.4124e-11
-1.23415 27.3692 -4.06566e-11
4.4124e-11 -4.06566e-11 29.2191

25.4936 1.13121 -1.84972e-11
1.13121 22.882 1.75362e-11
-1.84972e-11 1.75362e-11 23.4335

31.3017 1.85619 -1.48356e-11
1.85619 35.1486 5.00873e-12
-1.48356e-11 5.00873e-12 34.1693

37.9002 0.0303558 2.13378e-11
0.0303558 31.4041 -3.85308e-12
2.13378e-11 -3.85308e-12 34.6866

35.3542 2.82904 -3.64132e-11
2.82904 38.6745 -7.03141e-16
-3.64132e-11 -7.03141e-16 37.7578

33.2335 2.24789 -1.75315e-11
2.24789 39.0842 6.55059e-12
-1.75315e-11 6.55059e-12 37.585

26.2144 1.45673 -2.46639e-11
1.45673 27.7844 2.68803e-11
-2.46639e-11 2.68803e-11 26.0718

27.1828 1.62131 1.18473e-11
1.62131 26.7445 -2.54324e-11
1.18473e-11 -2.54324e-11 25.8487

34.2135 -3.41851 -5.25967e-11
-3.41851 37.5592 1.19468e-11
-5.25967e-11 1.19468e-11 36.3166

25.724 0.913991 -3.1219e-11
0.913991 22.9554 4.12362e-11
-3.1219e-11 4.12362e-11 23.5869

33.0363 2.5252 9.15168e-12
2.5252 35.5804 -7.7057e-12
9.15168e-12 -7.7057e-12 36.3252

32.8175 3.07779 -3.62208e-11
3.07779 35.6989 -2.00377e-11
-3.62208e-11 -2.00377e-11 34.314

40.0485 -0.0438939 1.96526e-11
-0.0438939 32.3479 -4.62333e-12
1.96526e-11 -4.62333e-12 36.7972

33.9313 -2.33268 3.02486e-11
-2.33268 35.7803 -1.42583e-11
3.02486e-11 -1.42583e-11 36.4881

32.6907 2.51803 1.88442e-13
2.51803 32.8549 1.52201e-11
1.88442e-13 1.52201e-11 32.561

26.9727 -1.2342 -1.40621e-11
-1.2342 30.4086 -5.29889e-11
-1.40621e-11 -5.29889e-11 27.5115

25.962 -1.17504 -5.60687e-11
-1.17504 30.3928 2.15819e-11
-5.60687e-11 2.15819e-11 27.3533

29.8878 -0.875684 1.81143e-11
-0.875684 26.3667 -1.50309e-11
1.81143e-11 -1.50309e-11 26.9833

30.3852 -2.30608 -1.04037e-11
-2.30608 30.7244 -5.56843e-11
-1.04037e-11 -5.56843e-11 29.6226

29.8188 -0.151702 -2.35021e-11
-0.151702 35.1127 6.16418e-12
-2.35021e-11 6.16418e-12 32.2594

31.5984 -0.0220524 -2.29302e-11
-0.0220524 34.7226 3.56439e-11
-2.29302e-11 3.56439e-11 32.4128

25.2631 -2.46961 -2.70028e-12
-2.46961 26.3979 2.46643e-11
-2.70028e-12 2.46643e-11 24.8335

24.5678 -2.39966 -1.38778e-11
-2.39966 26.7888 -5.78212e-12
-1.38778e-11 -5.78212e-12 24.8758

40.092 -0.122532 4.55192e-12
-0.122532 32.9102 -1.07884e-11
4.55192e-12 -1.07884e-11 36.9632

40.277 0.126989 3.0923e-11
0.126989 32.8164 1.23302e-11
3.0923e-11 1.23302e-11 36.9501

32.4757 2.35308 -2.98717e-12
2.35308 34.753 3.47022e-12
-2.98717e-12 3.47022e-12 34.628

33.1935 -1.98267 1.50273e-11
-1.98267 38.7484 1.34864e-11
1.50273e-11 1.34864e-11 37.4316

35.5895 -3.04825 -4.27706e-11
-3.04825 33.8961 -1.54118e-11
-4.27706e-11 -1.54118e-11 35.2758

38.1568 1.16116 -3.13027e-12
1.16116 36.9094 1.47421e-11
-3.13027e-12 1.47421e-11 38.1938

38.652 -0.353494 2.90924e-11
-0.353494 37.4977 4.52891e-12
2.90924e-11 4.52891e-12 38.3373

36.7429 -1.27145 -2.36233e-12
-1.27145 35.3411 -8.47837e-12
-2.36233e-12 -8.47837e-12 35.8087

36.4331 1.52999 -2.69681e-12
1.52999 34.3842 -3.08271e-11
-2.69681e-12 -3.08271e-11 35.664

16.7318 -1.27836 -9.44159e-12
-1.27836 13.9377 -1.27182e-11
-9.44159e-12 -1.27182e-11 17.4074

28.3137 2.4252 8.86868e-12
2.4252 29.8383 2.65915e-11
8.86868e-12 2.65915e-11 28.5832

15.0121 0.882373 -1.61851e-11
0.882373 16.8462 1.07893e-11
-1.61851e-11 1.07893e-11 17.6316

33.1628 2.72785 -1.63757e-11
2.72785 34.6919 2.88989e-11
-1.63757e-11 2.88989e-11 34.1415

28.1703 -1.91139 -2.05192e-11
-1.91139 32.2689 -1.11765e-11
-2.05192e-11 -1.11765e-11 29.586

27.0267 -1.70395 -2.38904e-11
-1.70395 32.0261 3.89218e-11
-2.38904e-11 3.89218e-11 29.3522

42.5032 -0.585769 -2.7672e-11
-0.585769 41.82 2.36957e-11
-2.7672e-11 2.36957e-11 41.7043

41.5729 1.60665 7.28215e-11
1.60665 43.3547 3.81462e-11
7.28215e-11 3.81462e-11 41.8402

33.4841 1.81003 2.36058e-11
1.81003 32.0836 -6.28094e-11
2.36058e-11 -6.28094e-11 32.728

34.3904 -0.184642 1.97501e-12
-0.184642 29.1659 -2.73581e-11
1.97501e-12 -2.73581e-11 31.153

29.502 2.02819 1.83059e-11
2.02819 27.6259 -4.00793e-11
1.83059e-11 -4.00793e-11 28.1817

31.5384 -1.17054 1.67613e-11
-1.17054 37.5051 -3.86691e-13
1.67613e-11 -3.86691e-13 35.0476

32.9375 -1.93016 -9.82506e-12
-1.93016 36.3847 -1.83032e-11
-9.82506e-12 -1.83032e-11 35.0083

34.5543 -3.50723 -2.35526e-11
-3.50723 38.9198 -4.43059e-12
-2.35526e-11 -4.43059e-12 36.9732

33.6908 -1.94963 1.84972e-11
-1.94963 32.9381 4.42949e-12
1.84972e-11 4.42949e-12 32.8339

34.2753 3.2651 1.57282e-16
3.2651 37.8074 7.12848e-12
1.57282e-16 7.12848e-12 36.6641

38.4278 1.50828 7.51305e-12
1.50828 40.5803 -1.53995e-12
7.51305e-12 -1.53995e-12 39.3959

38.4875 2.28457 4.2387e-12
2.28457 39.6619 1.71478e-11
4.2387e-12 1.71478e-11 39.1962

33.2208 -3.07071 6.74375e-12
-3.07071 36.8053 -4.62456e-12
6.74375e-12 -4.62456e-12 34.9956

33.4662 2.78834 3.65874e-12
2.78834 36.1372 -4.48928e-11
3.65874e-12 -4.48928e-11 34.8524

31.3232 3.51239 -2.15801e-11
3.51239 36.2236 -1.04053e-11
-2.15801e-11 -1.04053e-11 36.0736

28.2734 0.330078 5.33723e-11
0.330078 34.336 -3.85277e-12
5.33723e-11 -3.85277e-12 31.2933

29.2521 0.764678 -1.86899e-11
0.764678 33.5235 1.90731e-11
-1.86899e-11 1.90731e-11 31.1515

33.748 2.166 3.22726e-11
2.166 33.3776 -4.35427e-11
3.22726e-11 -4.35427e-11 34.1882

30.2107 1.8212 5.40027e-12
1.8212 29.9872 1.31035e-11
5.40027e-12 1.31035e-11 29.5806

30.1738 -1.88662 -1.61832e-11
-1.88662 34.5658 -2.31224e-11
-1.61832e-11 -2.31224e-11 32.7907

35.4567 -3.29651 -1.30051e-11
-3.29651 39.0583 1.07892e-11
-1.30051e-11 1.07892e-11 37.7249

20.0418 1.09266 -5.58764e-12
1.09266 21.5947 -2.00403e-11
-5.58764e-12 -2.00403e-11 20.2101

21.2461 1.13913 -1.37788e-11
1.13913 20.3571 5.005e-12
-1.37788e-11 5.005e-12 20.2062

26.0482 -2.43998 5.85772e-11
-2.43998 26.6524 -3.854e-11
5.85772e-11 -3.854e-11 25.4523

33.8708 -2.26722 -1.14641e-11
-2.26722 34.1552 1.07876e-11
-1.14641e-11 1.07876e-11 34.231

35.6873 -0.6773 -1.35338e-11
-0.6773 30.2363 -6.1654e-12
-1.35338e-11 -6.1654e-12 33.0401

45.312 2.45636 5.36621e-11
2.45636 46.6795 -1.04014e-11
5.36621e-11 -1.04014e-11 43.8004

47.2697 -2.67346 -4.00458e-11
-2.67346 43.4092 3.66471e-12
-4.00458e-11 3.66471e-12 43.5448

32.9151 -3.35296 9.73009e-12
-3.35296 36.3754 -1.59918e-11
9.73009e-12 -1.59918e-11 34.6299

41.3778 0.622096 -8.47679e-11
0.622096 39.9296 2.04207e-11
-8.47679e-11 2.04207e-11 40.8055

42.3717 -2.54633 -2.35036e-11
-2.54633 42.4585 -2.31056e-12
-2.35036e-11 -2.31056e-12 41.3305

35.8495 -0.885327 -2.50489e-11
-0.885327 30.9285 -4.23787e-12
-2.50489e-11 -4.23787e-12 34.1941

32.0005 -3.48036 6.39649e-11
-3.48036 36.0612 -6.16714e-12
6.39649e-11 -6.16714e-12 36.0931

21.0329 -2.13126 -4.31644e-11
-2.13126 21.9471 -3.08265e-12
-4.31644e-11 -3.08265e-12 20.991

21.8227 1.55357 2.46626e-11
1.55357 21.7394 -1.32927e-11
2.46626e-11 -1.32927e-11 21.1616

21.7263 -1.27021 -6.74438e-12
-1.27021 24.7913 4.10435e-11
-6.74438e-12 4.10435e-11 22.4596

22.1823 -1.39352 -3.96908e-11
-1.39352 25.1691 -8.86254e-12
-3.96908e-11 -8.86254e-12 22.863

25.0729 -1.05798 2.16793e-11
-1.05798 21.7483 -7.80635e-12
2.16793e-11 -7.80635e-12 22.47

26.817 1.88503 -1.59922e-11
1.88503 26.4386 -2.11764e-12
-1.59922e-11 -2.11764e-12 25.745

34.2218 -3.72816 -3.37351e-12
-3.72816 38.4242 2.75513e-11
-3.37351e-12 2.75513e-11 36.7188

19.7114 0.189466 7.90106e-12
0.189466 23.5675 5.18379e-11
7.90106e-12 5.18379e-11 21.0777

23.2682 -0.564911 -3.83478e-11
-0.564911 19.5909 2.23535e-11
-3.83478e-11 2.23535e-11 21.0623

40.1744 0.291057 -4.8546e-11
0.291057 44.0573 5.12443e-11
-4.8546e-11 5.12443e-11 41.0834

39.9994 -1.51688 2.1192e-11
-1.51688 41.4418 -3.88208e-11
2.1192e-11 -3.88208e-11 40.5909

37.9682 -1.74025 -2.62006e-11
-1.74025 34.3477 1.04048e-11
-2.62006e-11 1.04048e-11 36.3732

37.8176 -0.108711 2.46621e-11
-0.108711 29.5111 8.4774e-12
2.46621e-11 8.4774e-12 36.0063

25.0248 -1.87059 -1.02076e-11
-1.87059 28.4874 -1.54163e-11
-1.02076e-11 -1.54163e-11 26.3026

25.9284 -1.86601 1.23331e-11
-1.86601 29.0841 5.39635e-12
1.23331e-11 5.39635e-12 26.6512

36.2527 -0.103493 2.6991e-12
-0.103493 30.8423 -5.008e-12
2.6991e-12 -5.008e-12 34.3851

31.1352 -2.56343 7.12878e-12
-2.56343 34.9242 -1.34867e-11
7.12878e-12 -1.34867e-11 32.9988

41.555 0.0388816 -2.6106e-11
0.0388816 40.2843 5.68332e-11
-2.6106e-11 5.68332e-11 40.718

40.5382 0.765827 -1.07862e-11
0.765827 41.0069 -4.77797e-11
-1.07862e-11 -4.77797e-11 40.6898

36.5963 -2.41495 -4.0441e-12
-2.41495 34.9702 -3.85336e-11
-4.0441e-12 -3.85336e-11 35.9949

32.8361 -2.46694 4.20016e-11
-2.46694 34.4993 2.7358e-11
4.20016e-11 2.7358e-11 34.4809

37.2269 -1.73435 -2.10019e-11
-1.73435 31.7162 -5.39613e-12
-2.10019e-11 -5.39613e-12 35.2689

31.8977 -2.17252 -3.06347e-11
-2.17252 35.1908 -5.77849e-12
-3.06347e-11 -5.77849e-12 34.2969

16.8469 -4.13793 -1.9274e-11
-4.13793 17.2485 5.85851e-11
-1.9274e-11 5.85851e-11 17.2352

29.6711 -0.952912 -1.2525e-11
-0.952912 33.5066 3.68021e-11
-1.2525e-11 3.68021e-11 31.286

28.6426 -0.717749 -1.92032e-13
-0.717749 34.3217 2.27363e-11
-1.92032e-13 2.27363e-11 31.352

39.722 -0.350218 2.02295e-11
-0.350218 45.7376 -1.73386e-11
2.02295e-11 -1.73386e-11 41.4444

40.2171 -0.414181 -1.13644e-11
-0.414181 41.2028 -2.48516e-11
-1.13644e-11 -2.48516e-11 40.7587

40.8863 -0.232743 5.32717e-11
-0.232743 34.0282 -4.04565e-12
5.32717e-11 -4.04565e-12 38.0397

40.361 0.115067 -9.24768e-12
0.115067 34.2837 -1.61834e-11
-9.24768e-12 -1.61834e-11 38.0155

37.6516 1.81055 2.56246e-11
1.81055 36.5777 1.75339e-11
2.56246e-11 1.75339e-11 37.8586

38.346 -3.25021 8.86565e-12
-3.25021 36.3557 -1.65672e-11
8.86565e-12 -1.65672e-11 37.7414

41.5573 0.646926 -8.09071e-12
0.646926 41.2144 -1.44508e-11
-8.09071e-12 -1.44508e-11 40.8335

42.9095 -1.15924 -5.27878e-11
-1.15924 41.2714 -1.73358e-11
-5.27878e-11 -1.73358e-11 40.9948

44.2435 -1.26655 1.25058e-10
-1.26655 42.8308 -5.49045e-11
1.25058e-10 -5.49045e-11 42.64

44.6216 3.80314 -5.48799e-11
3.80314 46.276 -4.08465e-11
-5.48799e-11 -4.08465e-11 43.4073

35.7195 -3.35793 2.76474e-11
-3.35793 39.246 -3.62217e-11
2.76474e-11 -3.62217e-11 37.9854

34.0662 4.15684 -2.13864e-11
4.15684 36.8409 -1.38743e-11
-2.13864e-11 -1.38743e-11 37.4621

33.1192 1.67951 -1.13691e-11
1.67951 30.3992 1.15576e-12
-1.13691e-11 1.15576e-12 31.8986

30.6857 -1.43294 7.67395e-13
-1.43294 35.3529 1.73404e-11
7.67395e-13 1.73404e-11 33.2231

32.3613 -2.17385 3.34265e-11
-2.17385 35.466 3.46808e-11
3.34265e-11 3.46808e-11 33.4717

33.2773 -1.76711 2.071e-11
-1.76711 30.8847 3.46812e-11
2.071e-11 3.46812e-11 31.9679

32.2382 1.63605 4.49393e-11
1.63605 35.017 2.15795e-11
4.49393e-11 2.15795e-11 33.2342

30.6537 0.965574 3.19813e-11
0.965574 35.47 -4.43126e-11
3.19813e-11 -4.43126e-11 33.1987

31.3297 2.32083 -4.00749e-11
2.32083 31.2175 -1.19501e-11
-4.00749e-11 -1.19501e-11 31.4001

36.2108 2.78545 4.23813e-12
2.78545 38.5635 -1.25222e-11
4.23813e-12 -1.25222e-11 38.08

35.6519 -3.7226 3.8571e-13
-3.7226 37.158 -6.55121e-12
3.8571e-13 -6.55121e-12 37.7381

31.7131 -2.84211 -4.77842e-11
-2.84211 31.9492 -2.65873e-11
-4.77842e-11 -2.65873e-11 31.5031

38.3647 0.82334 2.89023e-11
0.82334 34.8222 5.5099e-11
2.89023e-11 5.5099e-11 36.9636

50.2963 -1.25615 -6.97367e-11
-1.25615 49.5808 3.46708e-11
-6.97367e-11 3.46708e-11 45.0557

42.8563 0.76486 8.20679e-11
0.76486 43.5844 -3.49619e-11
8.20679e-11 -3.49619e-11 42.6105

35.0426 -2.81671 4.33387e-12
-2.81671 37.8193 -1.92365e-13
4.33387e-12 -1.92365e-13 36.4052

35.9228 -2.79006 -4.8167e-12
-2.79006 32.9459 -5.00988e-12
-4.8167e-12 -5.00988e-12 34.928

41.5094 -0.24099 -6.16497e-11
-0.24099 38.4753 -3.54498e-11
-6.16497e-11 -3.54498e-11 39.7048

20.9216 -1.95944 -1.3298e-11
-1.95944 21.677 4.20094e-11
-1.3298e-11 4.20094e-11 20.5334

21.8645 -1.74892 -4.00834e-11
-1.74892 20.6667 2.44742e-11
-4.00834e-11 2.44742e-11 20.5636

41.3846 0.192967 2.93806e-11
0.192967 35.436 1.00175e-11
2.93806e-11 1.00175e-11 38.7773

40.3922 -0.151418 1.14395e-11
-0.151418 35.6881 -2.19625e-11
1.14395e-11 -2.19625e-11 38.6477

41.6132 -0.0368437 -3.85969e-13
-0.0368437 36.891 -2.19625e-11
-3.85969e-13 -2.19625e-11 39.6173

32.37 1.1891 -3.81547e-13
1.1891 28.9851 -3.81522e-11
-3.81547e-13 -3.81522e-11 29.9567

36.7663 -1.79385 1.80585e-11
-1.79385 38.1454 3.54508e-11
1.80585e-11 3.54508e-11 37.447

36.3941 2.17879 1.70033e-11
2.17879 36.4511 5.78121e-12
1.70033e-11 5.78121e-12 37.1795

46.5133 -1.99391 -2.3891e-11
-1.99391 42.0629 -1.67071e-12
-2.3891e-11 -1.67071e-12 43.1

48.8373 -0.212646 1.73396e-11
-0.212646 50.9323 8.02058e-11
1.73396e-11 8.02058e-11 45.0821

33.3632 -3.16373 1.2909e-11
-3.16373 37.2387 -3.0832e-12
1.2909e-11 -3.0832e-12 35.7012

34.9695 -2.22015 7.70162e-13
-2.22015 31.5704 6.54806e-12
7.70162e-13 6.54806e-12 33.2666

39.5734 0.485949 -1.14839e-11
0.485949 37.7341 4.77772e-11
-1.14839e-11 4.77772e-11 38.7485

40.1184 0.0772476 -2.47095e-11
0.0772476 37.3383 -7.0896e-11
-2.47095e-11 -7.0896e-11 38.7304

33.5727 -1.2721 -1.4449e-11
-1.2721 37.4209 -9.24775e-12
-1.4449e-11 -9.24775e-12 36.191

33.1526 -2.33227 -9.6304e-12
-2.33227 35.9773 -2.92857e-11
-9.6304e-12 -2.92857e-11 36.219

17.6409 3.4994 8.6719e-12
3.4994 17.0838 -1.9655e-11
8.6719e-12 -1.9655e-11 17.4555

37.5913 1.86697 1.54106e-12
1.86697 39.8963 -1.84958e-11
1.54106e-12 -1.84958e-11 39.0873

37.4408 -2.42983 -1.44488e-11
-2.42983 39.5252 1.52206e-11
-1.44488e-11 1.52206e-11 38.915

32.3528 -2.20658 -3.2174e-11
-2.20658 36.4544 7.32351e-12
-3.2174e-11 7.32351e-12 35.5669

32.918 -1.48896 2.43719e-11
-1.48896 29.8395 4.60484e-11
2.43719e-11 4.60484e-11 30.3642

36.5985 1.61829 -6.16544e-12
1.61829 36.0704 -3.12118e-11
-6.16544e-12 -3.12118e-11 36.4372

38.0714 1.69933 4.23862e-11
1.69933 38.3541 2.42775e-11
4.23862e-11 2.42775e-11 38.3885

39.0156 -2.61722 -3.46689e-12
-2.61722 36.8165 -2.697e-11
-3.46689e-12 -2.697e-11 38.1821

37.5386 0.653589 1.96521e-11
0.653589 31.9121 6.1661e-12
1.96521e-11 6.1661e-12 35.7727

41.2531 -0.301878 -3.00987e-12
-0.301878 39.4206 2.65842e-11
-3.00987e-12 2.65842e-11 40.2454

42.0159 0.47277 4.79966e-11
0.47277 38.3847 -7.86015e-11
4.79966e-11 -7.86015e-11 40.1805

43.5309 0.86793 3.33248e-11
0.86793 49.3542 -5.70254e-11
3.33248e-11 -5.70254e-11 43.4996

42.4714 0.164339 -5.99123e-11
0.164339 45.9336 7.28219e-11
-5.99123e-11 7.28219e-11 42.8109

17.3157 -0.89513 3.75799e-11
-0.89513 15.0263 -3.46882e-11
3.75799e-11 -3.46882e-11 17.7382

14.1511 -0.594696 2.81372e-11
-0.594696 17.5468 1.77279e-11
2.81372e-11 1.77279e-11 17.6043

35.3199 -2.78575 -2.41331e-11
-2.78575 38.6886 4.3158e-11
-2.41331e-11 4.3158e-11 37.0413

34.735 2.41611 -3.18876e-11
2.41611 36.2595 -3.86432e-13
-3.18876e-11 -3.86432e-13 36.673

34.3562 -3.72837 -1.62809e-11
-3.72837 38.4394 1.67627e-11
-1.62809e-11 1.67627e-11 36.6737

16.9717 0.954152 3.75781e-11
0.954152 16.8359 -9.63292e-12
3.75781e-11 -9.63292e-12 17.8074

17.2609 1.43877 1.23337e-11
1.43877 16.3168 -2.79424e-11
1.23337e-11 -2.79424e-11 17.7794

39.5181 3.04834 -5.25908e-11
3.04834 49.2309 1.56053e-10
-5.25908e-11 1.56053e-10 43.2401

42.8419 -2.4057 3.32029e-11
-2.4057 47.4269 1.10968e-10
3.32029e-11 1.10968e-10 43.5474

35.0613 2.2525 -7.9762e-11
2.2525 35.159 2.35025e-11
-7.9762e-11 2.35025e-11 35.5763

31.9553 -2.68769 -5.14437e-11
-2.68769 33.5433 1.04026e-11
-5.14437e-11 1.04026e-11 32.3817

34.7738 -2.67008 -3.04377e-11
-2.67008 36.8008 -4.12293e-11
-3.04377e-11 -4.12293e-11 36.1893

34.6102 2.68795 -2.98186e-11
2.68795 35.6254 -1.38745e-11
-2.98186e-11 -1.38745e-11 36.109

32.7113 -3.11785 -6.35299e-12
-3.11785 35.1994 -5.72237e-11
-6.35299e-12 -5.72237e-11 33.9834

31.5766 2.16721 -3.48713e-11
2.16721 32.7438 -2.81306e-11
-3.48713e-11 -2.81306e-11 32.2804

21.7332 -1.13671 -1.54412e-12
-1.13671 25.1371 7.68644e-13
-1.54412e-12 7.68644e-13 22.8184

22.4224 -0.977683 -2.23543e-11
-0.977683 25.1595 9.05727e-12
-2.23543e-11 9.05727e-12 22.8534

25.2843 -0.795804 9.35008e-12
-0.795804 22.0693 -8.66927e-12
9.35008e-12 -8.66927e-12 22.7204

32.1574 2.43185 2.69869e-12
2.43185 34.0771 3.31408e-11
2.69869e-12 3.31408e-11 33.8098

19.7581 -0.125226 1.7148e-11
-0.125226 23.4089 -6.16661e-11
1.7148e-11 -6.16661e-11 21.1022

23.2621 0.249188 -1.05062e-11
0.249188 20.1523 1.27143e-11
-1.05062e-11 1.27143e-11 21.0847

36.5314 -2.54879 2.22025e-11
-2.54879 38.9855 2.79342e-11
2.22025e-11 2.79342e-11 38.13

36.3332 3.09646 5.55842e-11
3.09646 37.0976 2.04249e-11
5.55842e-11 2.04249e-11 37.911

37.0249 -2.02969 2.7211e-11
-2.02969 39.3567 3.89161e-11
2.7211e-11 3.89161e-11 38.4893

36.8931 2.73871 7.21016e-11
2.73871 38.6753 -2.08018e-11
7.21016e-11 -2.08018e-11 38.4609

16.222 -1.82641 3.06399e-11
-1.82641 16.4937 1.27186e-11
3.06399e-11 1.27186e-11 17.4066

16.1941 -1.78068 3.82498e-11
-1.78068 16.6856 4.20077e-11
3.82498e-11 4.20077e-11 17.4726

34.0979 2.26818 1.6568e-11
2.26818 34.6001 4.97078e-11
1.6568e-11 4.97078e-11 34.9253

34.3843 -2.46125 9.54096e-12
-2.46125 36.1801 -5.78033e-11
9.54096e-12 -5.78033e-11 35.1201

41.7726 -0.641826 3.79518e-11
-0.641826 44.6458 1.5414e-12
3.79518e-11 1.5414e-12 41.8022

41.0327 -0.768838 -1.04021e-11
-0.768838 41.6639 -7.18597e-11
-1.04021e-11 -7.18597e-11 41.2074

36.6585 -2.65253 3.40033e-11
-2.65253 40.6921 2.83202e-11
3.40033e-11 2.83202e-11 38.9325

35.6302 2.83649 -2.38394e-11
2.83649 39.4414 -2.89041e-11
-2.38394e-11 -2.89041e-11 38.661

40.8505 -0.0357399 -6.09342e-12
-0.0357399 37.6802 -9.78658e-11
-6.09342e-12 -9.78658e-11 39.7571

39.8381 0.601629 -2.21325e-11
0.601629 38.1463 3.62197e-11
-2.21325e-11 3.62197e-11 39.6754

35.6496 2.5222 -5.20185e-11
2.5222 37.4495 2.88977e-11
-5.20185e-11 2.88977e-11 36.934

35.7445 -2.67234 -4.35419e-11
-2.67234 35.8386 -7.68959e-13
-4.35419e-11 -7.68959e-13 36.5168

40.6779 -1.10207 2.98603e-11
-1.10207 44.2921 -4.45039e-11
2.98603e-11 -4.45039e-11 41.7828

43.2434 1.07262 -3.85344e-12
1.07262 41.8138 1.04029e-11
-3.85344e-12 1.04029e-11 41.8508

45.539 -2.6099 2.38868e-11
-2.6099 43.5984 -7.35925e-11
2.38868e-11 -7.35925e-11 42.494

41.2291 -0.459766 -4.04578e-11
-0.459766 47.2787 8.93898e-11
-4.04578e-11 8.93898e-11 42.3577

42.26 0.73446 -2.1408e-11
0.73446 41.5575 -2.79684e-12
-2.1408e-11 -2.79684e-12 41.5504

41.3056 0.0942075 -8.35232e-11
0.0942075 44.3943 5.58671e-11
-8.35232e-11 5.58671e-11 42.3685

43.6301 -0.803392 -5.54362e-11
-0.803392 40.8282 1.49428e-11
-5.54362e-11 1.49428e-11 41.6776

43.8684 -0.296605 -5.52327e-11
-0.296605 42.3514 3.14015e-11
-5.52327e-11 3.14015e-11 42.4698

41.9061 -1.45223 1.10911e-10
-1.45223 43.3779 -2.16159e-10
1.10911e-10 -2.16159e-10 42.0724

43.7746 3.5007 -1.15867e-10
3.5007 46.7725 -1.96131e-10
-1.15867e-10 -1.96131e-10 43.1566

52.6762 1.00693 9.26411e-12
1.00693 51.9472 2.71995e-10
9.26411e-12 2.71995e-10 46.4165

53.9263 -1.67276 -2.20176e-10
-1.67276 40.8468 -1.32123e-10
-2.20176e-10 -1.32123e-10 44.4678

42.8059 -1.88868 -8.64272e-13
-1.88868 42.613 -2.0998e-11
-8.64272e-13 -2.0998e-11 41.8996

39.7706 -1.38914 -5.69764e-11
-1.38914 42.1306 1.17531e-11
-5.69764e-11 1.17531e-11 40.6087

44.0748 3.26676 -4.41613e-11
3.26676 42.9535 -9.32459e-11
-4.41613e-11 -9.32459e-11 42.2686

39.9066 1.83207 2.50688e-12
1.83207 40.9894 -6.55015e-11
2.50688e-12 -6.55015e-11 40.5026

45.0078 3.74039 -3.21417e-11
3.74039 48.2624 1.15198e-10
-3.21417e-11 1.15198e-10 43.9762

43.7912 -0.402436 3.33424e-11
-0.402436 42.9092 1.72996e-10
3.33424e-11 1.72996e-10 42.6683

39.6457 -1.23682 -4.63326e-11
-1.23682 41.5636 3.50637e-11
-4.63326e-11 3.50637e-11 40.6813

42.6463 -0.742011 9.04199e-12
-0.742011 42.5411 7.68667e-11
9.04199e-12 7.68667e-11 41.961

40.5123 3.06398 4.60442e-11
3.06398 42.2941 6.70495e-11
4.60442e-11 6.70495e-11 41.0584

41.4718 2.03154 6.45628e-11
2.03154 43.372 7.5134e-11
6.45628e-11 7.5134e-11 41.9117

33.5648 0.715933 -3.46946e-12
0.715933 38.6513 -1.1175e-11
-3.46946e-12 -1.1175e-11 36.4042

38.9466 -0.277576 3.17867e-11
-0.277576 40.3935 1.36803e-11
3.17867e-11 1.36803e-11 39.2413

35.7349 0.686195 -3.99666e-12
0.686195 30.0963 5.587e-12
-3.99666e-12 5.587e-12 32.8129

34.2113 0.165766 -1.77269e-11
0.165766 28.9914 -9.24821e-12
-1.77269e-11 -9.24821e-12 30.8931

34.4243 0.810735 -2.19618e-11
0.810735 41.1699 6.16459e-12
-2.19618e-11 6.16459e-12 38.3576

39.7171 0.208565 1.44477e-11
0.208565 41.7992 2.62019e-11
1.44477e-11 2.62019e-11 41.222

34.4092 -0.264843 -1.24271e-11
-0.264843 29.0937 -1.65682e-11
-1.24271e-11 -1.65682e-11 31.1206

39.615 -0.157985 -1.62562e-11
-0.157985 33.4056 -6.55095e-12
-1.62562e-11 -6.55095e-12 36.8454

23.4878 -1.58842 -1.9942e-11
-1.58842 27.0047 1.34857e-11
-1.9942e-11 1.34857e-11 24.586

25.6709 2.57302 7.90005e-12
2.57302 28.4164 3.56495e-11
7.90005e-12 3.56495e-11 25.8318

27.0318 2.43544 2.71685e-11
2.43544 24.3986 1.77279e-11
2.71685e-11 1.77279e-11 25.0465

40.3635 2.94514 -1.77235e-11
2.94514 42.1323 5.77205e-13
-1.77235e-11 5.77205e-13 40.9361

38.1337 -0.998796 5.8788e-12
-0.998796 41.1215 -1.31004e-11
5.8788e-12 -1.31004e-11 39.4922

34.3287 2.50817 -4.28539e-12
2.50817 35.6561 3.661e-12
-4.28539e-12 3.661e-12 34.2969

38.1328 2.21499 -2.41765e-11
2.21499 41.1085 -5.20251e-12
-2.41765e-11 -5.20251e-12 39.979

34.0405 -0.79677 -1.81068e-11
-0.79677 41.1691 2.31089e-12
-1.81068e-11 2.31089e-12 38.1912

36.6725 -0.493936 4.71062e-11
-0.493936 31.2754 1.04069e-11
4.71062e-11 1.04069e-11 34.4334

27.9388 1.1741 8.8618e-12
1.1741 31.5642 1.02132e-11
8.8618e-12 1.02132e-11 28.2452

25.5985 -0.306891 -2.91526e-13
-0.306891 30.361 3.08605e-12
-2.91526e-13 3.08605e-12 27.0828

30.4024 1.19664 1.31006e-11
1.19664 26.3981 4.81713e-11
1.31006e-11 4.81713e-11 27.3236

31.6754 -1.24101 -2.98619e-11
-1.24101 27.4883 -1.84991e-11
-2.98619e-11 -1.84991e-11 29.0425

29.8744 2.13669 -8.66834e-12
2.13669 33.2677 1.69544e-11
-8.66834e-12 1.69544e-11 31.2569

33.8764 -1.62338 3.85577e-12
-1.62338 35.0942 -2.42755e-11
3.85577e-12 -2.42755e-11 33.432

36.1036 -0.799334 2.94809e-11
-0.799334 30.1849 4.04659e-12
2.94809e-11 4.04659e-12 33.1716

23.9302 1.61694 -1.73421e-12
1.61694 25.7841 -2.58214e-11
-1.73421e-12 -2.58214e-11 23.3414

38.791 0.168927 4.69653e-11
0.168927 32.4119 5.01062e-12
4.69653e-11 5.01062e-12 35.9939

24.7799 1.74687 -4.21965e-11
1.74687 23.0653 -1.92838e-12
-4.21965e-11 -1.92838e-12 22.833

38.4714 0.192692 7.70669e-12
0.192692 42.326 1.34853e-11
7.70669e-12 1.34853e-11 39.8698

41.9482 1.01377 -1.7916e-11
1.01377 42.8862 -5.39546e-12
-1.7916e-11 -5.39546e-12 42.0678

43.6209 -2.6082 6.55263e-11
-2.6082 43.8908 -1.92654e-11
6.55263e-11 -1.92654e-11 42.6519

44.6974 1.13432 6.38634e-11
1.13432 42.8847 2.13856e-11
6.38634e-11 2.13856e-11 42.67

29.8971 -0.371165 -2.36986e-11
-0.371165 25.8086 -2.35054e-11
-2.36986e-11 -2.35054e-11 26.587

33.1243 3.05351 1.64728e-11
3.05351 34.829 9.82655e-12
1.64728e-11 9.82655e-12 33.6756

40.3226 0.453521 3.15232e-11
0.453521 39.7331 2.11949e-12
3.15232e-11 2.11949e-12 39.7086

39.4046 -1.38951 6.61301e-12
-1.38951 39.1181 -1.27164e-11
6.61301e-12 -1.27164e-11 39.5639

40.2181 -0.182241 -2.83705e-11
-0.182241 32.9192 -3.66076e-12
-2.83705e-11 -3.66076e-12 36.9307

29.4307 2.52511 -7.692e-13
2.52511 31.9683 -3.46749e-12
-7.692e-13 -3.46749e-12 30.7246

32.5693 -2.30265 -1.53799e-12
-2.30265 34.3785 -4.93223e-11
-1.53799e-12 -4.93223e-11 32.8002

32.0623 -1.62426 -3.37634e-12
-1.62426 29.3616 1.77266e-11
-3.37634e-12 1.77266e-11 29.9797

39.2163 -0.385618 -2.14824e-11
-0.385618 31.9982 -7.32184e-12
-2.14824e-11 -7.32184e-12 36.0774

31.0774 2.9776 -3.12129e-11
2.9776 34.092 5.75651e-13
-3.12129e-11 5.75651e-13 31.5651

29.1253 -2.05399 -5.58686e-12
-2.05399 31.7647 -2.5821e-11
-5.58686e-12 -2.5821e-11 30.4107

31.5874 2.75422 2.50538e-12
2.75422 34.4969 -3.54517e-11
2.50538e-12 -3.54517e-11 32.02

29.2444 -1.65039 -1.10782e-11
-1.65039 33.2887 -2.54332e-11
-1.10782e-11 -2.54332e-11 30.9833

39.1623 -1.36725 -3.46575e-12
-1.36725 40.3117 -2.11868e-12
-3.46575e-12 -2.11868e-12 39.7126

32.6225 1.92013 -1.44495e-11
1.92013 37.4311 -6.47365e-11
-1.44495e-11 -6.47365e-11 35.9301

29.2746 -2.39492 2.02313e-11
-2.39492 28.2974 7.51932e-12
2.02313e-11 7.51932e-12 28.1575

18.4977 -2.11966 4.74074e-11
-2.11966 18.1946 -3.4497e-11
4.74074e-11 -3.4497e-11 18.3225

17.5031 -2.27765 -1.00209e-11
-2.27765 18.6458 -4.62375e-12
-1.00209e-11 -4.62375e-12 18.1764

37.1919 3.57062 -4.91272e-12
3.57062 40.9784 -3.661e-12
-4.91272e-12 -3.661e-12 39.2998

33.6536 -2.32767 7.90146e-12
-2.32767 39.2015 -5.3945e-12
7.90146e-12 -5.3945e-12 37.7193

17.6362 -0.457834 -6.3588e-12
-0.457834 17.6585 -2.42797e-11
-6.3588e-12 -2.42797e-11 18.526

18.0353 -0.491355 -4.7596e-11
-0.491355 18.3891 -3.1798e-11
-4.7596e-11 -3.1798e-11 18.8072

41.7306 2.04261 -3.0441e-11
2.04261 39.5614 -3.85611e-12
-3.0441e-11 -3.85611e-12 40.2582

44.5506 -1.55511 -2.00394e-11
-1.55511 41.494 5.1991e-12
-2.00394e-11 5.1991e-12 43.014

37.1444 -0.0707489 -1.09816e-11
-0.0707489 31.9666 -1.77256e-11
-1.09816e-11 -1.77256e-11 35.6483

41.3669 2.87103 -5.85673e-11
2.87103 39.2624 -7.55251e-11
-5.85673e-11 -7.55251e-11 40.1305

43.9033 -2.07159 -7.7246e-12
-2.07159 39.7296 1.30805e-10
-7.7246e-12 1.30805e-10 42.2685

30.5156 2.02744 -2.21587e-11
2.02744 34.8063 -1.54295e-12
-2.21587e-11 -1.54295e-12 33.065

34.7206 -1.60051 7.89705e-12
-1.60051 37.1711 2.0038e-11
7.89705e-12 2.0038e-11 35.6487

43.9274 1.00211 2.69229e-11
1.00211 40.902 2.02337e-11
2.69229e-11 2.02337e-11 41.7495

42.5119 -1.31831 5.27149e-11
-1.31831 41.6194 8.59931e-12
5.27149e-11 8.59931e-12 41.6088

38.0593 3.09656 3.85316e-11
3.09656 35.9687 4.38547e-12
3.85316e-11 4.38547e-12 37.4684

40.8828 -2.44796 5.97281e-12
-2.44796 37.6225 9.82484e-12
5.97281e-12 9.82484e-12 39.6883

26.4312 -1.65538 1.07914e-11
-1.65538 23.776 -1.30983e-11
1.07914e-11 -1.30983e-11 24.2754

40.8415 -0.0851622 4.62332e-11
-0.0851622 46.1667 2.08072e-11
4.62332e-11 2.08072e-11 42.0368

44.3203 0.619946 6.16452e-12
0.619946 46.0524 6.35717e-12
6.16452e-12 6.35717e-12 45.0753

21.0952 -0.291765 2.12249e-12
-0.291765 24.1645 -3.77685e-11
2.12249e-12 -3.77685e-11 21.9064

24.0288 -0.362801 -1.35136e-12
-0.362801 21.3949 5.77867e-12
-1.35136e-12 5.77867e-12 21.8708

31.5641 1.72022 4.29638e-11
1.72022 36.9898 -2.77413e-11
4.29638e-11 -2.77413e-11 35.1076

36.704 -1.00568 -6.35601e-12
-1.00568 39.4103 -9.05542e-12
-6.35601e-12 -9.05542e-12 38.1376

51.0157 -0.594994 2.56965e-10
-0.594994 53.0506 1.24844e-10
2.56965e-10 1.24844e-10 46.2036

51.3273 -1.89026 -4.85234e-11
-1.89026 45.6027 -1.18869e-10
-4.85234e-11 -1.18869e-10 46.908

37.0776 2.75072 1.7365e-12
2.75072 33.1434 -5.39176e-12
1.7365e-12 -5.39176e-12 35.6824

38.7419 -1.81369 2.48567e-11
-1.81369 34.1688 -2.94757e-11
2.48567e-11 -2.94757e-11 37.0757

29.55 0.0457233 1.94141e-13
0.0457233 25.0993 -1.32948e-11
1.94141e-13 -1.32948e-11 26.2225

34.7902 0.0891704 -2.50777e-12
0.0891704 30.0445 9.24836e-12
-2.50777e-12 9.24836e-12 32.1985

31.9439 1.33646 -3.40071e-11
1.33646 27.488 7.74029e-13
-3.40071e-11 7.74029e-13 28.7752

39.4997 0.488613 1.6979e-11
0.488613 36.2278 -1.17523e-11
1.6979e-11 -1.17523e-11 38.3976

40.3445 -0.971194 -5.65427e-12
-0.971194 46.1218 -2.38903e-11
-5.65427e-12 -2.38903e-11 42.6289

43.2366 0.498921 -7.45786e-11
0.498921 43.6603 6.95447e-11
-7.45786e-11 6.95447e-11 42.7211

28.3334 2.32011 -1.51261e-11
2.32011 29.255 4.73978e-11
-1.51261e-11 4.73978e-11 27.2056

32.3321 -2.01301 -6.45199e-12
-2.01301 31.2358 -8.47467e-12
-6.45199e-12 -8.47467e-12 32.0166

36.0213 2.20645 -1.91069e-13
2.20645 31.9014 -1.34875e-11
-1.91069e-13 -1.34875e-11 34.1548

43.9127 0.943944 -9.1312e-11
0.943944 45.7398 4.51735e-11
-9.1312e-11 4.51735e-11 44.7799

43.0317 1.40135 -1.5797e-11
1.40135 47.5723 2.2731e-11
-1.5797e-11 2.2731e-11 43.0454

38.9909 -1.16713 7.71938e-13
-1.16713 36.8932 1.61849e-11
7.71938e-13 1.61849e-11 38.6358

37.5899 1.81216 -2.61072e-11
1.81216 39.8463 2.5037e-12
-2.61072e-11 2.5037e-12 38.2271

33.2645 -0.329257 -2.48511e-11
-0.329257 38.8063 -2.27364e-11
-2.48511e-11 -2.27364e-11 36.3113

38.3145 1.36729 3.66054e-11
1.36729 32.2121 4.93225e-11
3.66054e-11 4.93225e-11 36.5966

39.0383 -0.275154 8.86472e-12
-0.275154 32.3683 -3.6988e-11
8.86472e-12 -3.6988e-11 37.1984

29.5774 -1.80181 4.44023e-12
-1.80181 28.4219 -1.83056e-11
4.44023e-12 -1.83056e-11 27.5607

40.0387 2.46773 2.62474e-11
2.46773 35.0795 5.7818e-12
2.62474e-11 5.7818e-12 38.2851

41.2982 -1.55816 -7.66235e-12
-1.55816 35.1071 5.58703e-11
-7.66235e-12 5.58703e-11 39.4372

37.0311 -1.20468 2.73586e-11
-1.20468 33.0358 -2.13825e-11
2.73586e-11 -2.13825e-11 35.2024

38.4836 1.7915 2.1193e-11
1.7915 33.9823 1.92701e-12
2.1193e-11 1.92701e-12 36.9675

39.3009 -0.912958 2.62024e-11
-0.912958 34.5929 -2.36926e-11
2.62024e-11 -2.36926e-11 38.018

36.3012 -0.766803 -6.11999e-12
-0.766803 32.0799 3.23654e-11
-6.11999e-12 3.23654e-11 34.1669

34.3821 3.22651 1.83024e-11
3.22651 35.9546 -2.00337e-11
1.83024e-11 -2.00337e-11 36.3977

41.2799 -2.76927 2.1969e-11
-2.76927 39.9386 -5.39405e-11
2.1969e-11 -5.39405e-11 40.7116

32.1645 2.17347 -1.44322e-12
2.17347 31.3922 1.29104e-11
-1.44322e-12 1.29104e-11 30.4988

40.427 -2.02697 -1.71467e-11
-2.02697 41.9331 2.52361e-11
-1.71467e-11 2.52361e-11 41.611

33.3218 2.24914 1.1366e-11
2.24914 36.442 1.73411e-11
1.1366e-11 1.73411e-11 36.5551

32.2619 1.98487 -1.75345e-11
1.98487 27.9005 9.24881e-12
-1.75345e-11 9.24881e-12 29.7511

35.6072 -1.77427 9.05857e-12
-1.77427 33.8317 -2.81309e-11
9.05857e-12 -2.81309e-11 35.4889

36.2572 0.742786 5.97374e-12
0.742786 32.5167 -3.39086e-11
5.97374e-12 -3.39086e-11 33.8667

29.8685 2.83028 -1.61847e-11
2.83028 30.358 1.21377e-11
-1.61847e-11 1.21377e-11 29.2983

33.1598 2.2849 9.19901e-12
2.2849 31.8904 1.88824e-11
9.19901e-12 1.88824e-11 32.2917

34.9086 0.90909 9.43832e-12
0.90909 38.4844 1.32943e-11
9.43832e-12 1.32943e-11 36.8448

30.8067 0.255592 -4.1999e-11
0.255592 37.8425 -1.96559e-11
-4.1999e-11 -1.96559e-11 34.9113

28.5876 -1.74006 4.5289e-12
-1.74006 25.0544 2.1003e-11
4.5289e-12 2.1003e-11 25.9811

33.5541 -3.15984 1.85933e-11
-3.15984 36.1199 -4.62434e-12
1.85933e-11 -4.62434e-12 36.3734

35.1736 3.46686 -5.68368e-12
3.46686 38.4781 -5.39407e-12
-5.68368e-12 -5.39407e-12 36.9814

31.7718 -2.55922 -1.63848e-11
-2.55922 32.0195 -1.04051e-11
-1.63848e-11 -1.04051e-11 30.6671

28.9945 3.08172 6.35388e-12
3.08172 30.555 -1.96509e-11
6.35388e-12 -1.96509e-11 29.0812

35.4704 -1.43317 1.25163e-12
-1.43317 32.3068 1.7625e-11
1.25163e-12 1.7625e-11 33.8949

40.0098 -0.369306 3.75729e-12
-0.369306 34.2105 -1.3486e-11
3.75729e-12 -1.3486e-11 38.0001

40.7133 0.106436 -3.08274e-12
0.106436 33.9861 6.16431e-12
-3.08274e-12 6.16431e-12 38.0016

32.5587 -2.40058 -3.04411e-11
-2.40058 32.9806 -3.44886e-11
-3.04411e-11 -3.44886e-11 32.7491

25.6424 0.491327 -3.04431e-11
0.491327 30.5084 -3.08317e-11
-3.04431e-11 -3.08317e-11 26.9971

23.542 0.422262 3.83411e-11
0.422262 29.3295 3.47056e-12
3.83411e-11 3.47056e-12 25.845

29.3184 0.446484 5.78175e-12
0.446484 24.2875 2.04269e-11
5.78175e-12 2.04269e-11 26.1381

27.8809 2.55045 8.6738e-12
2.55045 27.2859 5.40049e-12
8.6738e-12 5.40049e-12 26.4786

31.9609 -2.50393 2.42803e-11
-2.50393 29.516 -3.02506e-11
2.42803e-11 -3.02506e-11 30.0864

43.8003 2.85875 -1.91868e-10
2.85875 47.3456 4.05399e-11
-1.91868e-10 4.05399e-11 45.3595

50.3627 -0.751547 1.84929e-11
-0.751547 50.5167 3.15911e-11
1.84929e-11 3.15911e-11 45.4131

33.2829 -0.850082 -1.0409e-11
-0.850082 28.3743 2.27354e-11
-1.0409e-11 2.27354e-11 30.434

31.7874 2.2542 -3.79566e-11
2.2542 35.1515 -2.08097e-11
-3.79566e-11 -2.08097e-11 34.4164

37.712 -2.54879 1.77228e-11
-2.54879 38.5889 2.69733e-11
1.77228e-11 2.69733e-11 37.9592

37.2457 1.16709 7.71235e-13
1.16709 31.8147 -2.31217e-12
7.71235e-13 -2.31217e-12 35.4184

29.8108 2.38016 1.02125e-11
2.38016 33.748 -6.51264e-11
1.02125e-11 -6.51264e-11 30.766

27.0057 -1.05876 1.83057e-11
-1.05876 32.2648 -5.0482e-11
1.83057e-11 -5.0482e-11 29.4344

33.4215 2.39665 -2.00358e-11
2.39665 39.2462 5.78139e-12
-2.00358e-11 5.78139e-12 37.7722

41.9836 -0.990771 -4.08432e-11
-0.990771 43.41 1.36772e-11
-4.08432e-11 1.36772e-11 43.1092

33.8701 2.42512 2.11924e-11
2.42512 35.7983 1.65729e-11
2.11924e-11 1.65729e-11 36.6324

41.621 -2.45705 -1.02101e-11
-2.45705 41.9129 -1.00179e-11
-1.02101e-11 -1.00179e-11 42.1209

39.0165 0.196235 8.47729e-12
0.196235 29.827 7.70625e-12
8.47729e-12 7.70625e-12 37.0294

30.0292 3.09143 -2.83222e-11
3.09143 28.3248 -2.35083e-11
-2.83222e-11 -2.35083e-11 28.7604

35.6914 3.70164 -1.6713e-11
3.70164 40.0666 -8.28561e-12
-1.6713e-11 -8.28561e-12 37.8293

33.2213 -2.74364 2.12905e-11
-2.74364 35.6732 1.07896e-11
2.12905e-11 1.07896e-11 36.5868

30.5501 2.61839 -2.73572e-11
2.61839 30.2102 3.27551e-11
-2.73572e-11 3.27551e-11 29.9541

26.3418 -1.5909 -2.60118e-12
-1.5909 27.8432 -2.5245e-11
-2.60118e-12 -2.5245e-11 25.9817

32.6484 -2.38774 1.15596e-11
-2.38774 34.2819 -5.0094e-12
1.15596e-11 -5.0094e-12 34.2591

29.159 -0.509011 -1.23341e-11
-0.509011 32.1206 -3.95002e-11
-1.23341e-11 -3.95002e-11 29.1012

26.2761 1.35495 -5.78439e-12
1.35495 30.8497 4.20075e-11
-5.78439e-12 4.20075e-11 27.6812

30.8882 -0.521782 2.62046e-11
-0.521782 27.3542 1.75347e-11
2.62046e-11 1.75347e-11 28.0732

32.7257 -2.24515 6.73469e-12
-2.24515 32.1706 2.8708e-11
6.73469e-12 2.8708e-11 31.4982

29.851 0.369927 -4.00747e-11
0.369927 35.5321 -1.38764e-11
-4.00747e-11 -1.38764e-11 32.4872

34.0491 0.515858 3.56431e-11
0.515858 36.868 1.65692e-11
3.56431e-11 1.65692e-11 34.3826

27.2267 -2.12643 -4.23594e-12
-2.12643 27.8525 -1.05957e-11
-4.23594e-12 -1.05957e-11 26.29

25.2358 2.64348 1.75335e-11
2.64348 27.0161 6.9383e-12
1.75335e-11 6.9383e-12 25.3346

38.0735 0.508586 2.1578e-11
0.508586 32.6537 3.77612e-11
2.1578e-11 3.77612e-11 37.2505

38.2568 0.00455431 -3.3521e-11
0.00455431 32.4501 -6.08801e-11
-3.3521e-11 -6.08801e-11 37.5567

33.4654 2.6974 8.47629e-12
2.6974 34.8242 -4.4311e-11
8.47629e-12 -4.4311e-11 34.9884

38.4993 -2.24048 -4.08434e-11
-2.24048 39.0917 -2.89206e-12
-4.08434e-11 -2.89206e-12 38.6033

36.8617 3.65718 4.14221e-12
3.65718 40.9794 5.55112e-16
4.14221e-12 5.55112e-16 39.0975

32.8174 -2.07697 -1.18448e-11
-2.07697 38.8809 -3.12123e-11
-1.18448e-11 -3.12123e-11 37.5544

35.0507 2.40842 2.38433e-11
2.40842 35.9822 1.31032e-11
2.38433e-11 1.31032e-11 35.8029

26.3082 1.50406 4.83613e-13
1.50406 23.638 -3.66255e-12
4.83613e-13 -3.66255e-12 23.8626

30.6445 -1.36917 -3.21742e-11
-1.36917 34.0239 -3.54532e-11
-3.21742e-11 -3.54532e-11 31.4214

27.2992 1.84603 -2.29277e-11
1.84603 32.4047 3.04425e-11
-2.29277e-11 3.04425e-11 29.6545

40.4401 2.20326 -1.04047e-11
2.20326 36.7722 2.18662e-11
-1.04047e-11 2.18662e-11 38.7986

42.429 -1.26498 5.04787e-11
-1.26498 38.2153 -2.31052e-12
5.04787e-11 -2.31052e-12 40.7956

36.3604 -2.09587 -5.95331e-11
-2.09587 34.3144 -1.58056e-11
-5.95331e-11 -1.58056e-11 34.9721

37.4378 2.60275 -2.1176e-12
2.60275 34.3922 -5.39282e-12
-2.1176e-12 -5.39282e-12 36.1228

39.3673 -1.81831 2.4858e-11
-1.81831 36.4362 -1.5604e-11
2.4858e-11 -1.5604e-11 38.0168

17.754 -0.692696 1.00206e-11
-0.692696 14.56 3.12215e-11
1.00206e-11 3.12215e-11 18.1252

14.2849 -0.859078 -3.44929e-11
-0.859078 17.2377 -2.70075e-12
-3.44929e-11 -2.70075e-12 17.9192

45.7453 2.93618 7.70561e-12
2.93618 43.0593 -2.65828e-11
7.70561e-12 -2.65828e-11 42.6223

47.2473 -2.06424 7.01241e-11
-2.06424 41.722 1.19538e-11
7.01241e-11 1.19538e-11 44.2657

34.3148 2.86075 2.46648e-11
2.86075 32.3124 4.62386e-12
2.46648e-11 4.62386e-12 33.2503

26.3471 1.36097 2.36066e-11
1.36097 23.0773 4.43373e-12
2.36066e-11 4.43373e-12 23.6867

34.6986 2.55318 2.466e-11
2.55318 38.6415 -1.40627e-11
2.466e-11 -1.40627e-11 36.6168

31.2489 -0.987827 -2.909e-11
-0.987827 37.7901 -2.27358e-11
-2.909e-11 -2.27358e-11 35.2038

28.4248 -2.42899 -3.04418e-11
-2.42899 29.5576 -1.57999e-11
-3.04418e-11 -1.57999e-11 28.4388

38.4138 1.57293 6.4154e-11
1.57293 40.7064 9.82634e-12
6.4154e-11 9.82634e-12 39.5357

42.4017 -0.892621 3.79505e-11
-0.892621 43.5216 5.58738e-12
3.79505e-11 5.58738e-12 43.1808

31.1756 1.91251 -5.49124e-12
1.91251 27.8608 -3.85351e-11
-5.49124e-12 -3.85351e-11 28.5542

34.4375 1.03264 1.17547e-11
1.03264 29.6038 2.35067e-11
1.17547e-11 2.35067e-11 31.9374

31.8943 3.57844 -8.86298e-12
3.57844 36.4139 2.62034e-11
-8.86298e-12 2.62034e-11 36.3345

42.6502 -1.84011 2.48508e-11
-1.84011 42.5484 2.69688e-11
2.48508e-11 2.69688e-11 42.7492

32.4475 2.95926 2.00372e-11
2.95926 36.6225 5.4529e-11
2.00372e-11 5.4529e-11 34.1329

29.9358 -1.58471 -1.80175e-11
-1.58471 34.8543 6.08861e-11
-1.80175e-11 6.08861e-11 32.9617

34.8984 3.23155 -2.29275e-11
3.23155 33.4169 -1.6571e-11
-2.29275e-11 -1.6571e-11 34.6584

38.0116 -2.75117 -1.90715e-11
-2.75117 35.6344 -1.31029e-11
-1.90715e-11 -1.31029e-11 36.8835

28.8068 0.916838 1.48373e-11
0.916838 34.6996 -4.12336e-11
1.48373e-11 -4.12336e-11 31.6655

32.5532 -0.0696843 1.15534e-12
-0.0696843 36.0033 -7.68052e-13
1.15534e-12 -7.68052e-13 33.5732

20.1657 -1.04805 -5.9717e-12
-1.04805 21.8646 -8.4787e-12
-5.9717e-12 -8.4787e-12 20.2908

21.5864 -1.01711 -8.96165e-12
-1.01711 20.4525 -2.69666e-12
-8.96165e-12 -2.69666e-12 20.2786

35.8424 1.6778 -1.10762e-11
1.6778 30.92 3.85081e-12
-1.10762e-11 3.85081e-12 33.8742

51.7791 0.510653 2.02658e-10
0.510653 47.8517 1.33309e-10
2.02658e-10 1.33309e-10 45.2469

51.1005 -1.83199 1.53348e-10
-1.83199 44.4609 1.50393e-11
1.53348e-10 1.50393e-11 46.3526

40.3662 -2.42814 -5.63386e-12
-2.42814 43.0081 1.04013e-11
-5.63386e-12 1.04013e-11 41.3226

40.545 0.759854 3.04864e-11
0.759854 41.7156 -2.02269e-11
3.04864e-11 -2.02269e-11 41.0669

38.0406 -0.144673 9.87447e-12
-0.144673 31.5176 1.88825e-11
9.87447e-12 1.88825e-11 34.6276

35.2596 3.97899 -2.34073e-11
3.97899 39.7787 7.69625e-13
-2.34073e-11 7.69625e-13 37.6491

31.1382 -3.73486 -2.02237e-12
-3.73486 36.2382 -8.09236e-12
-2.02237e-12 -8.09236e-12 36.1733

21.5101 1.98696 6.16796e-12
1.98696 22.3441 -1.65714e-11
6.16796e-12 -1.65714e-11 21.3788

22.9206 2.08644 -1.83037e-11
2.08644 22.6267 -2.31225e-11
-1.83037e-11 -2.31225e-11 21.8329

23.0058 -0.762621 -4.06573e-11
-0.762621 26.1636 6.16322e-12
-4.06573e-11 6.16322e-12 23.6052

22.4012 1.57598 9.05546e-12
1.57598 25.4747 -2.31792e-12
9.05546e-12 -2.31792e-12 23.1185

25.7698 -0.381375 1.73458e-11
-0.381375 22.4359 -1.05856e-12
1.73458e-11 -1.05856e-12 23.2756

20.9023 0.928324 -7.90136e-12
0.928324 24.638 -1.81143e-11
-7.90136e-12 -1.81143e-11 21.9828

23.7519 1.08818 -1.77269e-11
1.08818 20.5162 3.85728e-12
-1.77269e-11 3.85728e-12 21.6435

40.0286 0.279121 4.12271e-11
0.279121 44.1717 4.93221e-11
4.12271e-11 4.93221e-11 41.2104

41.751 2.09273 -2.88928e-12
2.09273 44.0187 4.55611e-11
-2.88928e-12 4.55611e-11 42.5345

38.9796 0.334828 1.60402e-11
0.334828 35.5538 3.65941e-12
1.60402e-11 3.65941e-12 36.9062

40.0303 -0.0644782 -3.75731e-12
-0.0644782 32.3365 1.96507e-11
-3.75731e-12 1.96507e-11 36.7582

27.8939 -1.26656 2.00387e-11
-1.26656 30.6457 -1.8883e-11
2.00387e-11 -1.8883e-11 28.202

25.7118 1.90068 9.82555e-12
1.90068 29.0482 1.61871e-11
9.82555e-12 1.61871e-11 26.8499

37.998 -0.0951449 5.73393e-12
-0.0951449 31.3303 -2.96667e-11
5.73393e-12 -2.96667e-11 34.6814

43.449 1.62139 -5.97207e-11
1.62139 40.8234 -6.16489e-11
-5.97207e-11 -6.16489e-11 41.306

45.1505 -1.15282 -8.48518e-12
-1.15282 40.8574 8.24529e-11
-8.48518e-12 8.24529e-11 43.1342

36.7752 1.57021 -5.87252e-12
1.57021 37.2302 4.54678e-11
-5.87252e-12 4.54678e-11 36.6779

32.7792 -2.60316 -1.01156e-11
-2.60316 34.9603 2.35041e-11
-1.01156e-11 2.35041e-11 34.9057

34.1878 3.34381 6.45369e-12
3.34381 38.0354 3.66152e-12
6.45369e-12 3.66152e-12 35.7207

38.165 0.331496 2.45187e-11
0.331496 32.5889 -1.15524e-12
2.45187e-11 -1.15524e-12 35.6632

27.7769 2.39006 -1.09802e-11
2.39006 27.1022 -6.55009e-12
-1.09802e-11 -6.55009e-12 26.198

31.4335 -1.98122 1.11733e-11
-1.98122 35.5567 2.62043e-11
1.11733e-11 2.62043e-11 34.4996

34.2147 3.57455 -1.76277e-11
3.57455 37.69 1.81098e-11
-1.76277e-11 1.81098e-11 35.6193

17.2894 4.17503 3.56501e-11
4.17503 17.6014 3.16073e-11
3.56501e-11 3.16073e-11 17.5006

28.3749 -0.249759 4.40235e-11
-0.249759 34.5938 1.58037e-11
4.40235e-11 1.58037e-11 31.4576

31.3668 1.36152 -5.49099e-11
1.36152 35.5414 2.25386e-11
-5.49099e-11 2.25386e-11 32.838

39.6409 -0.329096 1.90708e-11
-0.329096 45.8398 1.69532e-11
1.90708e-11 1.69532e-11 41.5693

42.678 1.65294 -2.56245e-11
1.65294 44.036 -3.41968e-11
-2.56245e-11 -3.41968e-11 43.3702

40.2036 1.35169 -5.00979e-12
1.35169 32.5212 4.23892e-12
-5.00979e-12 4.23892e-12 38.1669

40.9788 -0.922042 -1.07856e-11
-0.922042 31.748 -3.46789e-11
-1.07856e-11 -3.46789e-11 38.7938

37.3907 1.81082 -6.69486e-11
1.81082 37.8463 1.42563e-11
-6.69486e-11 1.42563e-11 38.0009

37.0253 -2.72807 -3.06783e-11
-2.72807 37.5772 -4.54658e-11
-3.06783e-11 -4.54658e-11 38.0922

40.1866 1.53289 2.39846e-11
1.53289 42.4613 3.06326e-11
2.39846e-11 3.06326e-11 40.9203

40.0854 -2.143 -1.25727e-11
-2.143 40.9281 3.6795e-11
-1.25727e-11 3.6795e-11 40.6679

48.1128 2.814 -1.57943e-11
2.814 46.5796 2.69695e-11
-1.57943e-11 2.69695e-11 44.1065

49.6175 -1.98523 -3.08185e-11
-1.98523 44.0622 -6.55002e-12
-3.08185e-11 -6.55002e-12 45.9249

35.3033 3.94328 -7.89863e-12
3.94328 37.0713 1.8494e-11
-7.89863e-12 1.8494e-11 37.8178

45.0013 -2.1184 -1.86863e-11
-2.1184 42.6295 -2.31185e-11
-1.86863e-11 -2.31185e-11 43.9001

33.9496 2.91985 5.22144e-11
2.91985 30.9598 -1.46415e-11
5.22144e-11 -1.46415e-11 32.6007

34.1087 2.52314 1.05958e-11
2.52314 37.2516 4.62404e-11
1.05958e-11 4.62404e-11 34.9033

30.5144 -1.0079 -1.19496e-11
-1.0079 35.8008 6.89796e-11
-1.19496e-11 6.89796e-11 33.3961

34.9082 -2.95694 -1.54095e-12
-2.95694 33.4431 -2.88862e-12
-1.54095e-12 -2.88862e-12 33.7612

27.271 -1.59403 1.28127e-11
-1.59403 26.6328 -5.00796e-12
1.28127e-11 -5.00796e-12 25.7263

35.7681 -2.1249 -3.12107e-11
-2.1249 32.1638 -1.69612e-11
-3.12107e-11 -1.69612e-11 33.821

32.0381 3.21644 -1.81094e-11
3.21644 31.5027 5.77956e-12
-1.81094e-11 5.77956e-12 31.8864

34.0446 -4.31301 -3.26566e-11
-4.31301 37.2592 4.93249e-11
-3.26566e-11 4.93249e-11 37.7227

36.4 3.43686 -6.4063e-12
3.43686 40.1343 -2.08075e-11
-6.4063e-12 -2.08075e-11 38.6101

38.7054 -0.758979 3.27077e-11
-0.758979 35.3287 -1.88812e-11
3.27077e-11 -1.88812e-11 37.1233

50.2315 -1.27139 5.70201e-11
-1.27139 49.6152 3.19811e-11
5.70201e-11 3.19811e-11 45.1651

45.0851 1.09209 8.95762e-11
1.09209 46.972 2.12906e-11
8.95762e-11 2.12906e-11 45.1521

35.9209 1.31737 -9.77862e-12
1.31737 34.1358 3.41e-11
-9.77862e-12 3.41e-11 35.3811

41.8669 -0.526119 -1.39441e-11
-0.526119 37.6271 5.97145e-12
-1.39441e-11 5.97145e-12 39.6786

22.211 -1.4878 -2.38947e-11
-1.4878 23.1456 -7.13252e-12
-2.38947e-11 -7.13252e-12 21.5923

23.2063 -1.41071 -4.75939e-11
-1.41071 21.4573 2.79354e-12
-4.75939e-11 2.79354e-12 21.4583

41.1168 0.432515 -7.70772e-12
0.432515 35.3899 3.42924e-11
-7.70772e-12 3.42924e-11 39.0964

41.8318 0.110236 3.19763e-11
0.110236 35.0972 5.76066e-11
3.19763e-11 5.76066e-11 40.0527

41.1825 0.0430646 2.02048e-11
0.0430646 38.3938 2.6201e-11
2.02048e-11 2.6201e-11 39.7711

35.9695 -1.17166 -5.76206e-12
-1.17166 37.7406 4.46979e-11
-5.76206e-12 4.46979e-11 36.1113

30.9799 1.5227 5.71711e-11
1.5227 35.6919 2.73643e-11
5.71711e-11 2.73643e-11 33.5047

32.7818 2.34516 -1.57001e-11
2.34516 29.555 -4.00787e-11
-1.57001e-11 -4.00787e-11 30.6267

38.3041 2.67843 3.73734e-11
2.67843 36.3785 -1.19411e-11
3.73734e-11 -1.19411e-11 37.6789

41.5001 -2.0963 9.05849e-12
-2.0963 39.4583 -1.54109e-11
9.05849e-12 -1.54109e-11 40.5342

44.5016 0.348259 2.65416e-11
0.348259 43.0974 -1.37366e-10
2.65416e-11 -1.37366e-10 42.9995

44.969 -2.96678 8.80847e-12
-2.96678 48.9714 9.78134e-11
8.80847e-12 9.78134e-11 44.2473

35.8379 1.17578 -2.15801e-11
1.17578 33.3859 4.41196e-11
-2.15801e-11 4.41196e-11 33.9144

40.7642 1.88768 2.21486e-12
1.88768 37.6495 -3.19789e-11
2.21486e-12 -3.19789e-11 39.1938

42.1402 -1.40564 -1.00098e-11
-1.40564 38.0385 -6.49221e-11
-1.00098e-11 -6.49221e-11 40.6852

33.3124 -1.14351 -1.40621e-11
-1.14351 37.8156 -2.11934e-11
-1.40621e-11 -2.11934e-11 36.3798

36.7107 3.23999 1.91695e-11
3.23999 39.6813 -1.71459e-11
1.91695e-11 -1.71459e-11 37.8458

35.8879 4.12518 9.44013e-12
4.12518 39.9791 -9.24697e-12
9.44013e-12 -9.24697e-12 37.8551

32.788 -2.47845 1.01145e-11
-2.47845 36.0506 6.93889e-16
1.01145e-11 6.93889e-16 36.3553

18.9143 4.76637 -5.62707e-11
4.76637 19.045 9.56938e-13
-5.62707e-11 9.56938e-13 18.4796

37.673 2.55573 1.37745e-11
2.55573 41.4759 1.02119e-11
1.37745e-11 1.02119e-11 39.5334

35.9979 -2.91469 -8.71766e-12
-2.91469 39.6657 1.75337e-11
-8.71766e-12 1.75337e-11 38.9672

31.754 -2.26045 9.92401e-12
-2.26045 36.6252 -4.8168e-11
9.92401e-12 -4.8168e-11 35.6653

34.7191 3.5423 -6.93591e-12
3.5423 39.0326 -9.63326e-12
-6.93591e-12 -9.63326e-12 36.9203

34.2445 -1.56916 -1.67596e-11
-1.56916 30.948 -4.81697e-11
-1.67596e-11 -4.81697e-11 31.7986

36.213 -1.89941 -1.42812e-13
-1.89941 35.831 -2.81291e-11
-1.42812e-13 -2.81291e-11 36.4639

37.4062 2.07951 -3.92541e-11
2.07951 39.4271 -2.29275e-11
-3.92541e-11 -2.29275e-11 38.5498

36.9554 -2.83195 -2.47078e-11
-2.83195 37.3824 -1.57961e-11
-2.47078e-11 -1.57961e-11 38.1971

37.9043 -0.742248 1.73396e-11
-0.742248 32.5515 2.38911e-11
1.73396e-11 2.38911e-11 35.891

42.4571 0.780317 -2.92851e-11
0.780317 40.3611 -3.9301e-11
-2.92851e-11 -3.9301e-11 40.875

43.299 -0.798595 1.84922e-11
-0.798595 39.0516 8.86535e-12
1.84922e-11 8.86535e-12 41.9129

43.3952 0.870375 1.50245e-11
0.870375 49.4027 2.50435e-11
1.50245e-11 2.50435e-11 43.5988

44.3065 1.15252 6.95419e-11
1.15252 47.9319 2.31352e-12
6.95419e-11 2.31352e-12 45.0706

17.5036 0.900945 -2.87147e-11
0.900945 15.1344 -5.7836e-12
-2.87147e-11 -5.7836e-12 17.9175

15.4016 0.897484 -6.06975e-11
0.897484 18.0753 1.0792e-11
-6.06975e-11 1.0792e-11 18.0733

36.0951 2.60263 -3.50637e-11
2.60263 36.172 2.69729e-12
-3.50637e-11 2.69729e-12 37.0353

41.1955 -2.67308 -7.61317e-13
-2.67308 40.5364 -6.39591e-11
-7.61317e-13 -6.39591e-11 40.9393

18.0282 1.77516 -2.00427e-11
1.77516 17.7839 -1.88872e-11
-2.00427e-11 -1.88872e-11 18.612

17.6688 1.94242 -3.00653e-11
1.94242 17.7783 2.23515e-11
-3.00653e-11 2.23515e-11 18.5445

50.1893 -0.696544 6.89446e-11
-0.696544 48.3431 1.10966e-10
6.89446e-11 1.10966e-10 46.8902

50.5497 -0.449945 5.35626e-11
-0.449945 51.523 3.73709e-11
5.35626e-11 3.73709e-11 45.8047

34.5182 -2.56213 4.81752e-12
-2.56213 34.9651 -2.08106e-11
4.81752e-12 -2.08106e-11 35.6581

36.1156 3.30187 -3.08265e-11
3.30187 35.4051 4.62359e-11
-3.08265e-11 4.62359e-11 36.5063

40.5945 -2.77731 1.11745e-11
-2.77731 38.3933 1.54365e-12
1.11745e-11 1.54365e-12 39.6601

32.5173 2.90585 9.82773e-12
2.90585 33.0736 3.89947e-13
9.82773e-12 3.89947e-13 32.7464

35.953 -2.30627 7.70869e-12
-2.30627 35.4175 -2.56253e-11
7.70869e-12 -2.56253e-11 35.0298

23.9576 -0.426976 -3.25652e-11
-0.426976 26.598 2.54362e-11
-3.25652e-11 2.54362e-11 24.0237

21.9458 1.19896 1.52244e-11
1.19896 25.4961 -5.77797e-12
1.52244e-11 -5.77797e-12 23.0598

26.0136 -0.177646 7.75084e-13
-0.177646 22.9646 -3.31391e-11
7.75084e-13 -3.31391e-11 23.5351

32.9941 3.08115 1.48358e-11
3.08115 34.0635 4.62571e-12
1.48358e-11 4.62571e-12 34.1523

37.4663 -3.03235 -2.81298e-11
-3.03235 36.96 1.59875e-11
-2.81298e-11 1.59875e-11 37.0382

19.9367 0.192979 -5.39149e-12
0.192979 23.706 -3.777e-11
-5.39149e-12 -3.777e-11 21.2873

23.6568 -0.0213554 -8.37952e-12
-0.0213554 20.5202 1.58014e-11
-8.37952e-12 1.58014e-11 21.3427

38.395 3.14343 2.0807e-11
3.14343 37.0848 3.85905e-12
2.0807e-11 3.85905e-12 38.3936

43.443 -2.24134 1.54669e-12
-2.24134 40.9933 -1.88783e-11
1.54669e-12 -1.88783e-11 42.332

38.6492 3.10769 4.4889e-11
3.10769 38.2445 -2.23421e-11
4.4889e-11 -2.23421e-11 38.81

42.96 -2.72246 1.86902e-11
-2.72246 40.4506 -5.41313e-11
1.86902e-11 -5.41313e-11 41.9677

16.7494 1.82053 4.62508e-11
1.82053 16.8328 -1.57998e-11
4.62508e-11 -1.57998e-11 17.6844

16.7617 1.68074 -4.23013e-11
1.68074 17.0619 3.46826e-12
-4.23013e-11 3.46826e-12 17.7038

35.3386 2.94372 -3.25611e-11
2.94372 34.5998 -4.2395e-12
-3.25611e-11 -4.2395e-12 35.3484

38.7685 -2.43334 5.39072e-12
-2.43334 37.8587 2.85156e-11
5.39072e-12 2.85156e-11 38.1305

43.0843 1.90349 5.06666e-11
1.90349 44.4492 4.01679e-11
5.06666e-11 4.01679e-11 43.5068

41.6631 -0.615342 1.56008e-11
-0.615342 44.7614 7.45555e-11
1.56008e-11 7.45555e-11 41.926

36.9582 2.47818 -1.1749e-11
2.47818 39.5166 1.54003e-12
-1.1749e-11 1.54003e-12 38.9852

44.4273 -2.81712 9.24301e-12
-2.81712 42.7753 2.35011e-11
9.24301e-12 2.35011e-11 43.7202

42.6044 2.22331 -5.6642e-11
2.22331 38.1735 -3.15951e-11
-5.6642e-11 -3.15951e-11 40.383

44.3067 -1.44354 -5.58637e-11
-1.44354 38.0429 -3.91128e-11
-5.58637e-11 -3.91128e-11 41.962

36.1395 2.99138 -1.39696e-12
2.99138 38.9027 -2.50456e-11
-1.39696e-12 -2.50456e-11 37.3638

34.6754 -2.50878 1.47395e-11
-2.50878 36.671 -1.54125e-11
1.47395e-11 -1.54125e-11 36.8568

42.4607 1.81899 1.15448e-12
1.81899 46.7841 -5.58775e-12
1.15448e-12 -5.58775e-12 43.7876

42.5383 2.1071 2.042e-11
2.1071 43.1955 2.77413e-11
2.042e-11 2.77413e-11 42.0975

43.4882 -3.7513 1.30246e-11
-3.7513 43.3798 7.70566e-12
1.30246e-11 7.70566e-12 42.3541

41.0752 -0.510527 2.33104e-11
-0.510527 47.3226 1.965e-11
2.33104e-11 1.965e-11 42.4634

45.6572 2.20727 5.66401e-11
2.20727 42.5163 1.77271e-11
5.66401e-11 1.77271e-11 42.4917

48.8345 0.467779 1.34467e-10
0.467779 45.3412 3.69921e-11
1.34467e-10 3.69921e-11 44.0173

46.8365 -2.03771 5.00728e-12
-2.03771 40.769 1.48352e-11
5.00728e-12 1.48352e-11 43.7417

49.3806 -0.669965 1.84887e-11
-0.669965 43.1182 4.97022e-11
1.84887e-11 4.97022e-11 45.3084

45.2361 2.5932 7.43507e-11
2.5932 47.4573 1.11752e-10
7.43507e-11 1.11752e-10 43.536

53.4135 -0.518809 9.46639e-10
-0.518809 51.9798 -2.80419e-10
9.46639e-10 -2.80419e-10 46.4887

52.4852 -1.81304 2.97714e-10
-1.81304 45.4238 4.03039e-10
2.97714e-10 4.03039e-10 47.3394

50.6876 -2.22914 -7.28218e-11
-2.22914 45.2415 6.68546e-11
-7.28218e-11 6.68546e-11 46.9862

45.8212 2.49342 -1.54099e-11
2.49342 43.4825 -5.50973e-11
-1.54099e-11 -5.50973e-11 42.6878

42.3905 1.11328 1.69575e-11
1.11328 41.4765 -3.85276e-12
1.69575e-11 -3.85276e-12 41.0997

47.8527 1.24792 -3.08223e-11
1.24792 49.6035 1.9223e-12
-3.08223e-11 1.9223e-12 44.745

49.9188 -1.74979 -1.42533e-11
-1.74979 44.1374 -1.96526e-11
-1.42533e-11 -1.96526e-11 46.2775

49.9504 -2.07459 -4.31298e-11
-2.07459 45.071 -8.74603e-11
-4.31298e-11 -8.74603e-11 46.5482

46.5989 -1.42527 -2.85105e-11
-1.42527 44.0257 -1.6376e-11
-2.85105e-11 -1.6376e-11 44.9604

42.8438 2.9034 2.3886e-11
2.9034 41.685 5.97201e-11
2.3886e-11 5.97201e-11 41.4086

46.3127 1.4047 -3.1211e-11
1.4047 43.52 7.51286e-11
-3.1211e-11 7.51286e-11 42.8837

46.2456 -2.18697 2.3132e-11
-2.18697 42.2055 -7.35892e-11
2.3132e-11 -7.35892e-11 44.2107

47.904 -1.28617 4.35499e-11
-1.28617 43.2481 -8.64885e-11
4.35499e-11 -8.64885e-11 45.0265

46.6692 0.237224 1.04022e-11
0.237224 46.7889 -1.14622e-11
1.04022e-11 -1.14622e-11 47.3424

49.8786 -0.124556 -6.93344e-12
-0.124556 48.9747 -2.94732e-11
-6.93344e-12 -2.94732e-11 49.1047

48.5731 0.45035 2.79348e-11
0.45035 47.1633 4.78689e-11
2.79348e-11 4.78689e-11 47.7851

46.0601 -0.46628 -2.65849e-11
-0.46628 44.2109 -4.19408e-11
-2.65849e-11 -4.19408e-11 46.2681

46.4094 0.0789096 4.23811e-11
0.0789096 45.0551 4.36598e-12
4.23811e-11 4.36598e-12 46.6878

50.0771 -0.662593 2.08033e-11
-0.662593 49.3399 1.7145e-11
2.08033e-11 1.7145e-11 49.189

48.3114 1.19557 8.09158e-12
1.19557 46.8409 1.73364e-12
8.09158e-12 1.73364e-12 47.5581

46.4228 -0.111855 1.84936e-11
-0.111855 44.8358 3.19705e-11
1.84936e-11 3.19705e-11 46.6343

45.7461 0.539175 1.8976e-11
0.539175 42.425 1.20396e-12
1.8976e-11 1.20396e-12 44.9264

47.4958 0.113314 -8.47601e-12
0.113314 47.1144 1.74818e-11
-8.47601e-12 1.74818e-11 47.8876

47.5435 -0.105623 1.38698e-11
-0.105623 47.2031 2.89195e-13
1.38698e-11 2.89195e-13 47.9286

49.264 0.0627284 2.19601e-11
0.0627284 49.6646 -1.84685e-11
2.19601e-11 -1.84685e-11 49.5695

49.1775 -0.682216 5.39672e-12
-0.682216 46.0335 -2.62942e-11
5.39672e-12 -2.62942e-11 47.1233

51.151 0.0450203 1.30989e-11
0.0450203 50.0357 -2.89628e-13
1.30989e-11 -2.89628e-13 49.6364

46.4989 0.884276 6.55059e-12
0.884276 46.1976 2.65843e-11
6.55059e-12 2.65843e-11 47.0322

45.6407 1.25392 2.46601e-11
1.25392 45.7239 4.73892e-11
2.46601e-11 4.73892e-11 46.2649

48.601 -1.1838 -6.16394e-12
-1.1838 47.1451 -9.24708e-12
-6.16394e-12 -9.24708e-12 47.8553

49.8432 0.61561 -2.27313e-11
0.61561 49.1974 -1.24235e-11
-2.27313e-11 -1.24235e-11 49.0301

50.3737 0.034577 -2.53309e-11
0.034577 50.936 1.90373e-11
-2.53309e-11 1.90373e-11 50.5158

47.5002 0.120742 1.46402e-11
0.120742 47.8372 -6.11639e-12
1.46402e-11 -6.11639e-12 48.1281

47.5116 -0.135805 2.15753e-11
-0.135805 47.874 3.51588e-12
2.15753e-11 3.51588e-12 48.147

49.3776 -0.142752 -6.39537e-11
-0.142752 50.0535 3.37106e-11
-6.39537e-11 3.37106e-11 49.7922

46.5424 0.395259 5.29796e-12
0.395259 46.2799 1.43514e-11
5.29796e-12 1.43514e-11 47.1277

46.3906 0.321345 -3.42901e-11
0.321345 45.3772 1.34362e-11
-3.42901e-11 1.34362e-11 46.901

45.8877 0.309668 7.89801e-12
0.309668 46.0746 1.17027e-11
7.89801e-12 1.17027e-11 46.8011

49.4008 -0.208137 -1.84935e-11
-0.208137 49.3031 2.95686e-11
-1.84935e-11 2.95686e-11 49.3806

46.2537 0.391342 -9.43963e-12
0.391342 44.2448 3.80234e-11
-9.43963e-12 3.80234e-11 46.2732

47.4327 0.0690288 -4.3536e-11
0.0690288 47.7162 -1.56514e-11
-4.3536e-11 -1.56514e-11 48.0933

45.8855 -0.531862 3.93002e-11
-0.531862 42.4295 -1.51465e-11
3.93002e-11 -1.51465e-11 45.3839

48.8915 -0.141712 -1.57953e-11
-0.141712 49.3499 -7.66321e-11
-1.57953e-11 -7.66321e-11 49.3329

50.6551 -0.117798 6.16377e-12
-0.117798 48.7691 1.92637e-12
6.16377e-12 1.92637e-12 48.8683

50.5345 0.177243 3.12077e-11
0.177243 48.1933 7.12615e-12
3.12077e-11 7.12615e-12 48.6612

47.9477 -0.596814 2.33093e-11
-0.596814 47.0365 8.76453e-12
2.33093e-11 8.76453e-12 46.9457

47.9706 0.600199 5.37467e-11
0.600199 47.102 -4.1223e-11
5.37467e-11 -4.1223e-11 46.9686

46.8422 -0.137955 3.66016e-11
-0.137955 46.0469 -3.60954e-11
3.66016e-11 -3.60954e-11 47.2481

45.4948 0.113596 1.27135e-11
0.113596 45.7448 -2.65845e-11
1.27135e-11 -2.65845e-11 46.4832

45.9934 -0.961184 -1.98422e-11
-0.961184 46.0026 -5.07596e-11
-1.98422e-11 -5.07596e-11 46.4834

45.9352 1.01905 -4.56557e-11
1.01905 46.0249 5.77796e-12
-4.56557e-11 5.77796e-12 46.4684

45.8096 -0.469416 -1.42558e-11
-0.469416 42.2791 -1.09504e-11
-1.42558e-11 -1.09504e-11 44.7408

49.3367 -0.265933 -1.0402e-11
-0.265933 49.9506 -1.3966e-11
-1.0402e-11 -1.3966e-11 49.6183

46.4154 0.00891361 -3.69869e-11
0.00891361 45.9962 1.93116e-11
-3.69869e-11 1.93116e-11 47.0369

45.6681 0.406803 1.07884e-11
0.406803 42.1138 1.45697e-12
1.07884e-11 1.45697e-12 44.7501

46.5842 -0.367423 -9.82428e-12
-0.367423 46.3612 -9.53565e-12
-9.82428e-12 -9.53565e-12 47.1702

46.632 -0.242701 1.38695e-11
-0.242701 46.8135 1.05956e-11
1.38695e-11 1.05956e-11 47.3383

50.1979 -0.505579 -5.04687e-11
-0.505579 49.8979 -2.54284e-11
-5.04687e-11 -2.54284e-11 49.7251

46.7082 0.0186876 1.48329e-11
0.0186876 46.0931 2.43208e-11
1.48329e-11 2.43208e-11 47.2278

47.6278 0.195574 2.69688e-12
0.195574 47.5822 -6.42919e-12
2.69688e-12 -6.42919e-12 48.1876

48.3427 0.252892 6.93503e-12
0.252892 48.5548 2.35375e-11
6.93503e-12 2.35375e-11 48.854

46.7971 -1.8716 6.16363e-12
-1.8716 44.5203 1.02103e-11
6.16363e-12 1.02103e-11 46.0065

48.2974 -0.104823 1.23285e-11
-0.104823 48.6228 1.08478e-11
1.23285e-11 1.08478e-11 48.8147

47.3523 0.113936 4.16094e-11
0.113936 47.4791 2.81721e-12
4.16094e-11 2.81721e-12 47.9916

51.5306 0.33731 4.19939e-11
0.33731 51.775 5.88481e-11
4.19939e-11 5.88481e-11 51.1916

51.5293 -0.335959 7.16569e-11
-0.335959 51.7754 4.65203e-11
7.16569e-11 4.65203e-11 51.191

50.6454 -0.136004 4.23777e-12
-0.136004 51.1529 -9.5253e-13
4.23777e-12 -9.5253e-13 50.7026

51.5007 0.143079 1.04012e-11
0.143079 51.9207 -4.79161e-11
1.04012e-11 -4.79161e-11 51.2422

51.4994 -0.142414 2.58121e-11
-0.142414 51.9201 -1.08834e-11
2.58121e-11 -1.08834e-11 51.2415

49.4719 -0.418235 -1.65667e-11
-0.418235 49.743 1.15574e-11
-1.65667e-11 1.15574e-11 49.5106

46.8864 -0.779086 4.12255e-11
-0.779086 45.2071 -2.15758e-11
4.12255e-11 -2.15758e-11 45.9499

46.8863 0.804479 1.69529e-11
0.804479 45.2111 5.78741e-13
1.69529e-11 5.78741e-13 45.9546

50.8752 0.192675 3.08228e-12
0.192675 51.4122 5.15313e-12
3.08228e-12 5.15313e-12 50.8405

50.8751 -0.193003 -2.08035e-11
-0.193003 51.4155 -3.03396e-11
-2.08035e-11 -3.03396e-11 50.841

46.9066 0.128471 2.98589e-11
0.128471 46.4194 -2.80525e-11
2.98589e-11 -2.80525e-11 47.4662

49.1266 1.11261 -8.48066e-12
1.11261 47.2249 -5.60553e-11
-8.48066e-12 -5.60553e-11 47.254

52.1259 -0.900692 -2.69516e-12
-0.900692 51.0221 -1.52168e-11
-2.69516e-12 -1.52168e-11 49.9012

49.3374 0.260893 -1.42543e-11
0.260893 49.9673 1.15582e-11
-1.42543e-11 1.15582e-11 49.6272

47.4453 -0.124118 -2.04198e-11
-0.124118 47.8072 3.96108e-11
-2.04198e-11 3.96108e-11 48.1454

47.2295 -0.181827 -2.31154e-12
-0.181827 46.9589 -8.09667e-12
-2.31154e-12 -8.09667e-12 47.7311

49.4941 -0.417615 2.23464e-11
-0.417615 49.7577 -2.70646e-11
2.23464e-11 -2.70646e-11 49.3654

47.2345 1.14269 2.19628e-11
1.14269 46.0687 3.46743e-11
2.19628e-11 3.46743e-11 47.0836

53.0188 0.239666 -3.77528e-11
0.239666 53.3599 9.31352e-11
-3.77528e-11 9.31352e-11 52.0329

53.0169 -0.237949 5.35518e-11
-0.237949 53.3558 -1.34452e-10
5.35518e-11 -1.34452e-10 52.0314

45.9199 1.53331 -3.19801e-11
1.53331 44.4713 -2.28269e-11
-3.19801e-11 -2.28269e-11 45.4334

50.636 0.0897838 1.23281e-11
0.0897838 51.197 -1.63736e-11
1.23281e-11 -1.63736e-11 50.6953

50.6389 -0.0885159 3.62142e-11
-0.0885159 51.2138 1.46883e-11
3.62142e-11 1.46883e-11 50.7021

44.0624 0.739016 -1.34841e-11
0.739016 45.2903 1.84941e-11
-1.34841e-11 1.84941e-11 45.5774

50.4129 0.507626 -2.69823e-12
0.507626 50.4674 -3.27473e-11
-2.69823e-12 -3.27473e-11 49.7239

46.731 0.136063 3.66014e-12
0.136063 45.9912 1.39903e-11
3.66014e-12 1.39903e-11 47.2187

46.5919 -0.231347 3.27476e-12
-0.231347 45.3304 -4.5271e-12
3.27476e-12 -4.5271e-12 46.9482

45.7076 -1.14102 -4.62345e-11
-1.14102 44.1844 1.06076e-12
-4.62345e-11 1.06076e-12 45.9548

46.257 1.24892 2.5052e-12
1.24892 47.9416 -1.0258e-10
2.5052e-12 -1.0258e-10 46.7074

46.2808 -1.30335 -5.29751e-11
-1.30335 47.8181 1.35841e-11
-5.29751e-11 1.35841e-11 46.6803

46.9117 0.212165 2.31167e-11
0.212165 46.9221 3.03402e-11
2.31167e-11 3.03402e-11 47.5796

45.9583 0.311643 -1.73378e-11
0.311643 45.3866 9.19822e-12
-1.73378e-11 9.19822e-12 46.7107

50.401 -0.252962 -3.27472e-11
-0.252962 50.8856 2.88937e-12
-3.27472e-11 2.88937e-12 50.4983

51.8334 -0.0113057 -2.50401e-11
-0.0113057 51.4702 -2.83178e-11
-2.50401e-11 -2.83178e-11 49.7343

52.0918 0.94073 1.73398e-11
0.94073 47.8108 -5.01053e-12
1.73398e-11 -5.01053e-12 48.4941

45.6664 1.20362 -3.06307e-11
1.20362 44.2994 4.23732e-12
-3.06307e-11 4.23732e-12 45.9628

48.8465 -0.386333 -7.22372e-12
-0.386333 47.573 -1.1562e-12
-7.22372e-12 -1.1562e-12 48.102

49.6348 0.116204 -6.54945e-12
0.116204 48.7212 5.39456e-12
-6.54945e-12 5.39456e-12 48.9078

50.8189 -0.00171538 2.08039e-11
-0.00171538 51.4106 1.84683e-11
2.08039e-11 1.84683e-11 50.8673

50.8275 0.00672198 -2.31152e-12
0.00672198 51.4102 -1.20393e-11
-2.31152e-12 -1.20393e-11 50.872

49.1876 0.245335 -2.50374e-12
0.245335 49.6623 3.17364e-11
-2.50374e-12 3.17364e-11 49.546

50.0514 -0.156029 1.00167e-11
-0.156029 50.6513 2.01104e-11
1.00167e-11 2.01104e-11 50.2843

51.1607 0.0937635 1.56031e-11
0.0937635 51.6295 2.43211e-12
1.56031e-11 2.43211e-12 51.0589

51.1614 -0.0919062 -1.38694e-11
-0.0919062 51.6301 1.00887e-11
-1.38694e-11 1.00887e-11 51.0593

50.3808 0.255535 1.46399e-11
0.255535 50.8819 3.34703e-12
1.46399e-11 3.34703e-12 50.4912

49.3938 0.188953 -2.11893e-11
0.188953 49.3189 9.15058e-12
-2.11893e-11 9.15058e-12 49.3839

50.9194 0.240762 2.42711e-11
0.240762 51.3342 -7.53663e-12
2.42711e-11 -7.53663e-12 50.8736

50.9366 -0.233407 -3.54437e-11
-0.233407 51.3366 7.10317e-12
-3.54437e-11 7.10317e-12 50.8806

46.0982 0.518204 -9.05417e-12
0.518204 44.1566 -1.24251e-11
-9.05417e-12 -1.24251e-11 46.2277

50.7331 -0.298861 1.19426e-11
-0.298861 50.7213 1.25212e-11
1.19426e-11 1.25212e-11 50.3792

46.5094 0.0896512 -8.09152e-12
0.0896512 46.0929 -4.30065e-11
-8.09152e-12 -4.30065e-11 47.0895

44.2109 1.19351 -1.90709e-11
1.19351 44.7541 1.84943e-11
-1.90709e-11 1.84943e-11 44.9492

50.4641 -0.315051 1.73359e-11
-0.315051 50.4488 2.76429e-11
1.73359e-11 2.76429e-11 49.9349

49.8021 0.0496729 -1.00169e-11
0.0496729 50.334 2.20803e-11
-1.00169e-11 2.20803e-11 50.0545

45.35 0.729545 7.09885e-11
0.729545 44.7253 1.54274e-12
7.09885e-11 1.54274e-12 46.2603

46.1391 -0.411595 -1.44481e-11
-0.411595 44.4109 -9.96907e-12
-1.44481e-11 -9.96907e-12 46.3374

46.5146 -0.0854878 -2.40854e-12
-0.0854878 46.2961 -4.1369e-11
-2.40854e-12 -4.1369e-11 47.253

45.8545 -0.297611 2.88973e-12
-0.297611 45.4328 2.13828e-11
2.88973e-12 2.13828e-11 46.7131

48.3846 0.792482 -8.09102e-12
0.792482 47.7513 -5.39312e-12
-8.09102e-12 -5.39312e-12 48.2683

48.6871 -0.715331 9.6313e-12
-0.715331 48.1214 7.32056e-12
9.6313e-12 7.32056e-12 48.4865

49.2358 -0.056778 -2.45607e-11
-0.056778 49.7218 -1.55791e-11
-2.45607e-11 -1.55791e-11 49.5897

43.9843 -0.786681 -3.46759e-11
-0.786681 45.2898 -4.43134e-12
-3.46759e-11 -4.43134e-12 45.5425

49.3154 0.0765545 2.27299e-11
0.0765545 49.5719 -5.11924e-11
2.27299e-11 -5.11924e-11 49.5136

49.2895 -0.0749052 -5.779e-12
-0.0749052 49.5367 -4.62333e-12
-5.779e-12 -4.62333e-12 49.4928

45.9906 0.353003 2.17683e-11
0.353003 45.3742 1.06438e-11
2.17683e-11 1.06438e-11 46.59

45.3255 1.00008 -4.04558e-12
1.00008 41.1509 1.10284e-11
-4.04558e-12 1.10284e-11 44.2557

45.3345 -0.864537 -9.44006e-12
-0.864537 41.1419 1.03545e-11
-9.44006e-12 1.03545e-11 44.2513

47.7514 0.431499 1.00176e-11
0.431499 47.1592 9.15003e-12
1.00176e-11 9.15003e-12 47.9283

45.7888 -0.270967 -2.77403e-11
-0.270967 46.1088 -2.6974e-12
-2.77403e-11 -2.6974e-12 46.7972

48.1602 0.342406 -3.54451e-11
0.342406 48.1654 -1.08353e-11
-3.54451e-11 -1.08353e-11 48.5196

48.201 -0.33542 8.47594e-12
-0.33542 48.1825 6.01371e-17
8.47594e-12 6.01371e-17 48.5377

49.5109 0.0227778 -5.08549e-11
0.0227778 49.8039 1.42066e-11
-5.08549e-11 1.42066e-11 49.7381

49.1267 -0.244578 1.81072e-11
-0.244578 49.627 1.92152e-11
1.81072e-11 1.92152e-11 49.515

49.5435 0.030483 2.69684e-11
0.030483 50.0829 -5.68276e-12
2.69684e-11 -5.68276e-12 49.8247

54.5751 0.362573 -1.44088e-10
0.362573 51.5469 -1.2144e-11
-1.44088e-10 -1.2144e-11 50.1332

54.319 -1.80015 5.12391e-11
-1.80015 50.3967 -5.39429e-11
5.12391e-11 -5.39429e-11 49.5273

49.8608 -0.0220415 5.39357e-12
-0.0220415 50.3521 -3.12544e-11
5.39357e-12 -3.12544e-11 50.0813

49.9974 -0.164572 -5.54778e-11
-0.164572 50.1539 -4.23897e-12
-5.54778e-11 -4.23897e-12 49.8252

50.6187 0.140017 1.9263e-11
0.140017 51.1448 7.54577e-12
1.9263e-11 7.54577e-12 50.6928

47.7352 -0.414875 4.23811e-12
-0.414875 47.1935 2.98582e-12
4.23811e-12 2.98582e-12 47.9215

51.0114 -0.792969 -1.15576e-11
-0.792969 50.4517 -1.25232e-12
-1.15576e-11 -1.25232e-12 49.9149

45.1633 2.11885 -1.54135e-11
2.11885 44.1007 -1.76268e-11
-1.54135e-11 -1.76268e-11 45.0974

50.7582 0.32705 -4.62237e-12
0.32705 50.7228 2.8028e-11
-4.62237e-12 2.8028e-11 50.3882

50.6944 -0.386008 -6.16451e-12
-0.386008 50.8664 1.71445e-11
-6.16451e-12 1.71445e-11 50.3903

46.0606 0.720183 4.08406e-11
0.720183 45.8571 2.69689e-11
4.08406e-11 2.69689e-11 46.4579

50.9269 -0.00393862 -1.11724e-11
-0.00393862 51.6479 8.35079e-12
-1.11724e-11 8.35079e-12 50.9826

49.5496 -0.0232605 5.00837e-12
-0.0232605 49.9986 2.88945e-12
5.00837e-12 2.88945e-12 49.7963

44.1318 -1.19445 -1.29058e-11
-1.19445 44.7719 -2.90893e-11
-1.29058e-11 -2.90893e-11 44.9268

49.5325 -0.26752 -2.35007e-11
-0.26752 50.1708 -2.73059e-11
-2.35007e-11 -2.73059e-11 49.8225

46.7902 -0.13494 3.08235e-12
-0.13494 46.9844 -5.24942e-12
3.08235e-12 -5.24942e-12 47.5963

45.5778 -0.149282 -1.25205e-11
-0.149282 45.7423 -4.32961e-11
-1.25205e-11 -4.32961e-11 46.4925

48.6391 0.100708 -3.85311e-12
0.100708 48.5422 -2.26825e-11
-3.85311e-12 -2.26825e-11 48.829

48.6419 -0.111141 -1.57953e-11
-0.111141 48.5257 -3.42892e-11
-1.57953e-11 -3.42892e-11 48.8233

49.415 0.12805 -3.00504e-11
0.12805 50.1302 -5.91135e-12
-3.00504e-11 -5.91135e-12 49.8329

49.5342 0.27472 2.61984e-11
0.27472 50.1468 2.73053e-11
2.61984e-11 2.73053e-11 49.8197

48.6503 -0.162543 -5.77935e-12
-0.162543 48.2211 1.19431e-11
-5.77935e-12 1.19431e-11 48.5349

48.5668 0.192725 -4.12236e-11
0.192725 48.1276 1.25226e-11
-4.12236e-11 1.25226e-11 48.4495

48.8835 -0.0275405 -3.00501e-11
-0.0275405 49.2001 4.77253e-11
-3.00501e-11 4.77253e-11 49.2146

48.8732 0.0216093 -4.54619e-11
0.0216093 49.2415 3.96819e-11
-4.54619e-11 3.96819e-11 49.2196

51.0847 0.0796949 -7.7052e-12
0.0796949 51.5136 4.55092e-12
-7.7052e-12 4.55092e-12 50.9898

51.0889 -0.075938 -1.07872e-11
-0.075938 51.514 -2.74497e-12
-1.07872e-11 -2.74497e-12 50.9912

50.1905 -0.442371 -1.00168e-11
-0.442371 50.5255 -4.4306e-12
-1.00168e-11 -4.4306e-12 50.095

44.771 -1.92617 -2.63917e-11
-1.92617 44.1528 -4.52804e-12
-2.63917e-11 -4.52804e-12 44.8578

44.6651 0.0281287 -4.41149e-11
0.0281287 45.5118 -1.97446e-11
-4.41149e-11 -1.97446e-11 46.203

46.9334 0.0709359 -5.00899e-12
0.0709359 46.8871 -4.72683e-11
-5.00899e-12 -4.72683e-11 47.6047

48.6143 -0.196959 -8.0913e-12
-0.196959 49.0662 2.84132e-11
-8.0913e-12 2.84132e-11 48.9676

51.3049 0.278592 3.12057e-11
0.278592 51.5474 -1.77218e-11
3.12057e-11 -1.77218e-11 51.0587

51.3054 -0.276641 2.19598e-11
-0.276641 51.5497 -1.54587e-11
2.19598e-11 -1.54587e-11 51.0591

50.6555 0.345286 1.29057e-11
0.345286 51.0712 -4.28603e-11
1.29057e-11 -4.28603e-11 50.6452

50.653 -0.346789 5.00831e-11
-0.346789 51.0725 3.18805e-11
5.00831e-11 3.18805e-11 50.6449

47.8526 -0.0526298 -6.16436e-12
-0.0526298 48.2435 5.20122e-12
-6.16436e-12 5.20122e-12 48.4718

48.7803 -0.0349819 5.00846e-11
-0.0349819 49.1191 1.15098e-11
5.00846e-11 1.15098e-11 49.1765

48.6127 0.227656 -7.70505e-12
0.227656 49.0799 1.4453e-12
-7.70505e-12 1.4453e-12 48.9685

52.1978 0.0109775 1.92624e-12
0.0109775 52.4433 -1.05973e-12
1.92624e-12 -1.05973e-12 51.6153

52.1968 -0.010329 -6.24113e-11
-0.010329 52.4405 -2.7161e-11
-6.24113e-11 -2.7161e-11 51.6142

50.1677 -0.303674 -1.38694e-11
-0.303674 50.5811 -3.03396e-12
-1.38694e-11 -3.03396e-12 50.2472

47.0244 -0.12411 -5.77912e-12
-0.12411 46.3126 2.81973e-11
-5.77912e-12 2.81973e-11 47.4652

50.0495 0.160372 2.04188e-11
0.160372 50.6561 -1.4327e-11
2.04188e-11 -1.4327e-11 50.2853

47.3654 -1.04578 2.31148e-11
-1.04578 46.6192 3.71796e-11
2.31148e-11 3.71796e-11 47.3475

49.4946 0.524072 2.23455e-11
0.524072 49.3038 -1.92679e-12
2.23455e-11 -1.92679e-12 49.2083

46.5334 0.0670749 -2.0034e-11
0.0670749 46.5865 -1.87825e-11
-2.0034e-11 -1.87825e-11 47.342

50.7256 0.383307 -7.32024e-12
0.383307 50.8629 -3.94868e-12
-7.32024e-12 -3.94868e-12 50.399

50.147 0.31072 -3.62144e-11
0.31072 50.5822 1.15613e-12
-3.62144e-11 1.15613e-12 50.2409

42.9802 1.90806 -3.27766e-12
1.90806 43.7655 -3.85289e-11
-3.27766e-12 -3.85289e-11 44.1416

51.3006 -0.0194102 1.61806e-11
-0.0194102 50.3592 1.3292e-11
1.61806e-11 1.3292e-11 49.7772

49.0031 0.954263 -2.5047e-11
0.954263 45.3797 -4.32456e-11
-2.5047e-11 -4.32456e-11 46.8148

50.1853 0.459787 -3.85289e-13
0.459787 50.5294 -1.08836e-11
-3.85289e-13 -1.08836e-11 50.0998

45.0948 0.92394 -1.59887e-11
0.92394 45.5198 1.97468e-11
-1.59887e-11 1.97468e-11 46.0918

46.3843 -0.113281 -1.92639e-11
-0.113281 46.0612 1.27624e-11
-1.92639e-11 1.27624e-11 47.1044

50.9985 -0.577532 -1.15579e-12
-0.577532 50.5546 3.08219e-12
-1.15579e-12 3.08219e-12 50.2354

46.5694 -0.909781 -2.0033e-11
-0.909781 46.2153 -2.18644e-11
-2.0033e-11 -2.18644e-11 47.0287

47.6274 0.618655 3.46675e-12
0.618655 47.5047 -2.01309e-11
3.46675e-12 -2.01309e-11 47.9825

50.3253 -0.159234 -1.81077e-11
-0.159234 50.9024 3.08207e-11
-1.81077e-11 3.08207e-11 50.421

48.8329 -0.452255 -7.70504e-13
-0.452255 48.6403 2.98562e-12
-7.70504e-13 2.98562e-12 48.8522

51.2166 0.690292 -3.39035e-11
0.690292 50.434 -1.36762e-11
-3.39035e-11 -1.36762e-11 49.9881

47.3958 0.0768299 -2.81247e-11
0.0768299 47.4441 -3.43375e-11
-2.81247e-11 -3.43375e-11 48.0332

47.351 -0.0413791 2.69689e-12
-0.0413791 47.0435 -1.10463e-11
2.69689e-12 -1.10463e-11 47.8706

50.3276 0.161136 1.4254e-11
0.161136 50.9025 -5.12398e-11
1.4254e-11 -5.12398e-11 50.4218

50.3712 -0.023417 3.66006e-12
-0.023417 50.9411 -6.48312e-12
3.66006e-12 -6.48312e-12 50.5139

53.0578 0.16757 -3.69854e-11
0.16757 52.8943 -7.51235e-11
-3.69854e-11 -7.51235e-11 51.9404

53.056 -0.16577 1.65659e-10
-0.16577 52.8914 -1.15562e-11
1.65659e-10 -1.15562e-11 51.9392

50.0258 0.197428 -3.46755e-12
0.197428 50.1429 -1.05946e-11
-3.46755e-12 -1.05946e-11 49.8294

45.5266 -1.09812 2.06125e-11
-1.09812 46.2731 -1.07882e-11
2.06125e-11 -1.07882e-11 46.3555

45.5209 1.11753 -2.87033e-11
1.11753 46.328 -1.7338e-11
-2.87033e-11 -1.7338e-11 46.3675

46.2877 -0.145315 -1.54101e-12
-0.145315 43.5745 -5.47996e-11
-1.54101e-12 -5.47996e-11 45.8441

42.9189 -1.87929 5.20017e-12
-1.87929 43.8055 3.9589e-11
5.20017e-12 3.9589e-11 44.1177

48.6614 0.111262 -1.09799e-11
0.111262 49.0322 -3.90205e-11
-1.09799e-11 -3.90205e-11 49.0919

47.369 0.00866108 -2.58137e-11
0.00866108 47.0173 -3.6047e-11
-2.58137e-11 -3.6047e-11 47.8601

48.495 0.213602 -2.44638e-11
0.213602 48.7391 5.38414e-11
-2.44638e-11 5.38414e-11 48.9181

48.519 -0.2177 -4.54619e-11
-0.2177 48.7457 2.24898e-11
-4.54619e-11 2.24898e-11 48.9379

49.0668 0.0960746 2.31162e-12
0.0960746 49.3565 4.23789e-12
2.31162e-12 4.23789e-12 49.3881

51.0096 0.557026 -1.73364e-11
0.557026 50.5704 9.53519e-12
-1.73364e-11 9.53519e-12 50.2397

47.8498 0.194347 -3.85252e-12
0.194347 47.9156 1.58925e-11
-3.85252e-12 1.58925e-11 48.3663

49.0239 0.055749 -2.00338e-11
0.055749 49.239 2.4621e-11
-2.00338e-11 2.4621e-11 49.3368

49.2214 -0.656499 1.65663e-11
-0.656499 46.9471 6.55021e-12
1.65663e-11 6.55021e-12 47.3143

51.9931 0.711127 3.84936e-12
0.711127 50.293 -4.50746e-11
3.84936e-12 -4.50746e-11 49.7617

46.2124 -0.783176 3.6217e-11
-0.783176 44.9012 6.62671e-11
3.6217e-11 6.62671e-11 46.2862

45.1043 -0.130216 4.43101e-12
-0.130216 40.1761 -1.33283e-11
4.43101e-12 -1.33283e-11 43.6803

48.785 -0.28769 -4.27641e-11
-0.28769 49.2299 -2.49467e-11
-4.27641e-11 -2.49467e-11 49.1678

48.788 0.284461 -9.63217e-12
0.284461 49.2649 -3.18326e-11
-9.63217e-12 -3.18326e-11 49.1845

46.1311 -0.0983829 -2.69695e-12
-0.0983829 42.9831 9.52504e-12
-2.69695e-12 9.52504e-12 45.6668

49.4686 0.43477 6.54918e-12
0.43477 49.7798 -1.32917e-11
6.54918e-12 -1.32917e-11 49.5101

51.7342 0.261451 -3.7755e-11
0.261451 52.0804 -9.48689e-12
-3.7755e-11 -9.48689e-12 51.3947

51.7343 -0.260062 8.47509e-12
-0.260062 52.079 -3.75642e-12
8.47509e-12 -3.75642e-12 51.3941

45.6785 -0.298387 1.25211e-11
-0.298387 45.7587 -3.11115e-11
1.25211e-11 -3.11115e-11 46.5232

45.042 -0.943073 -2.38862e-11
-0.943073 45.5043 -3.78544e-11
-2.38862e-11 -3.78544e-11 46.0701

45.9348 -0.821998 1.46407e-11
-0.821998 43.8557 -1.54141e-12
1.46407e-11 -1.54141e-12 45.9433

46.9014 0.0227136 2.81254e-11
0.0227136 46.2764 2.98586e-11
2.81254e-11 2.98586e-11 47.4043

45.9197 -0.703979 6.1656e-12
-0.703979 45.8575 -3.21705e-11
6.1656e-12 -3.21705e-11 46.4156

47.5041 -0.148758 -3.31337e-11
-0.148758 47.5062 3.18451e-11
-3.31337e-11 3.18451e-11 48.1406

47.627 -0.582011 -3.08207e-11
-0.582011 47.6311 -2.99553e-11
-3.08207e-11 -2.99553e-11 48.0234

48.8092 0.442171 8.09131e-12
0.442171 48.439 1.30028e-11
8.09131e-12 1.30028e-11 48.7816

51.049 -0.684533 -2.89008e-11
-0.684533 49.5033 8.86095e-11
-2.89008e-11 8.86095e-11 49.0358

50.6242 0.494462 2.00342e-11
0.494462 49.267 5.77353e-13
2.00342e-11 5.77353e-13 48.8348

51.1609 0.0125579 -1.00167e-11
0.0125579 51.7654 5.00865e-12
-1.00167e-11 5.00865e-12 51.1202

51.1551 -0.0137393 1.46399e-11
-0.0137393 51.7622 -3.03406e-12
1.46399e-11 -3.03406e-12 51.1189

44.975 -0.509668 1.29064e-11
-0.509668 45.4468 -7.26259e-11
1.29064e-11 -7.26259e-11 46.2193

44.9062 0.536098 -4.62342e-12
0.536098 45.506 -2.50431e-12
-4.62342e-12 -2.50431e-12 46.1992

44.9954 -0.272729 2.90897e-11
-0.272729 46.4026 3.1015e-11
2.90897e-11 3.1015e-11 45.9615

44.9739 0.304584 -3.62175e-11
0.304584 46.371 2.97644e-11
-3.62175e-11 2.97644e-11 45.9475

52.6164 0.00918486 1.0786e-11
0.00918486 52.7558 -9.39058e-11
1.0786e-11 -9.39058e-11 51.7927

52.6143 -0.00811887 -4.31488e-11
-0.00811887 52.7528 1.01123e-11
-4.31488e-11 1.01123e-11 51.7915

51.3266 0.368239 2.11886e-11
0.368239 51.0365 -2.16707e-11
2.11886e-11 -2.16707e-11 50.7325

51.3248 -0.372345 7.69583e-13
-0.372345 51.0431 3.75627e-11
7.69583e-13 3.75627e-11 50.7341

50.0614 -0.0799998 -2.92797e-11
-0.0799998 50.7185 -1.46402e-11
-2.92797e-11 -1.46402e-11 50.2871

47.6957 -0.418746 2.11911e-11
-0.418746 46.9517 -1.75297e-11
2.11911e-11 -1.75297e-11 47.5973

49.297 0.0956119 2.6966e-12
0.0956119 49.221 -8.95719e-12
2.6966e-12 -8.95719e-12 49.1777

46.9831 -0.194401 1.84931e-11
-0.194401 46.5161 9.53561e-12
1.84931e-11 9.53561e-12 47.4908

50.0641 0.0852765 -4.73867e-11
0.0852765 50.7195 2.47054e-11
-4.73867e-11 2.47054e-11 50.2857

47.5015 0.347685 1.88298e-11
0.347685 47.0837 -2.50519e-12
1.88298e-11 -2.50519e-12 47.5881

49.7656 -0.14268 -2.27305e-11
-0.14268 50.409 -3.80468e-12
-2.27305e-11 -3.80468e-12 50.0242

42.4959 -1.1974 -2.11794e-12
-1.1974 44.4919 -2.16721e-11
-2.11794e-12 -2.16721e-11 44.3725

42.5087 1.20137 1.8688e-11
1.20137 44.4601 2.05167e-11
1.8688e-11 2.05167e-11 44.3711

49.7518 0.147035 1.15583e-11
0.147035 50.3995 1.5844e-11
1.15583e-11 1.5844e-11 50.0169

46.1343 0.883717 1.15579e-12
0.883717 44.9176 -3.35191e-11
1.15579e-12 -3.35191e-11 46.2511

54.5396 0.204005 1.69917e-10
0.204005 47.233 -8.89651e-11
1.69917e-10 -8.89651e-11 48.7982

54.471 -0.429442 3.47278e-12
-0.429442 52.8175 7.3776e-11
3.47278e-12 7.3776e-11 50.4227

50.2752 0.188645 -1.84916e-11
0.188645 49.8065 2.69688e-11
-1.84916e-11 2.69688e-11 49.5988

45.3682 -0.678029 6.7427e-12
-0.678029 44.7464 4.10803e-11
6.7427e-12 4.10803e-11 46.296

46.1869 -1.29012 7.12798e-12
-1.29012 44.2754 -2.24427e-11
7.12798e-12 -2.24427e-11 45.6326

48.5765 -0.0713151 6.93443e-12
-0.0713151 48.7383 -6.51828e-11
6.93443e-12 -6.51828e-11 48.9652

48.6119 0.0215606 8.8612e-12
0.0215606 49.2137 9.92056e-12
8.8612e-12 9.92056e-12 49.1632

51.4995 0.140607 -1.15554e-12
0.140607 51.7253 2.24654e-11
-1.15554e-12 2.24654e-11 51.2091

51.5028 -0.134356 3.08196e-12
-0.134356 51.7233 1.32398e-12
3.08196e-12 1.32398e-12 51.2094

46.211 1.28833 1.65669e-11
1.28833 44.3408 1.57487e-11
1.65669e-11 1.57487e-11 45.652

49.3577 -0.13509 -9.14935e-13
-0.13509 49.1943 -1.92603e-13
-9.14935e-13 -1.92603e-13 49.2129

49.7907 -0.256758 1.4447e-12
-0.256758 50.3934 1.1606e-11
1.4447e-12 1.1606e-11 50.0644

50.8955 0.391098 -6.4763e-16
0.391098 51.2672 -4.59419e-11
-6.4763e-16 -4.59419e-11 50.7798

50.8954 -0.390112 -3.39022e-11
-0.390112 51.2697 -7.99443e-12
-3.39022e-11 -7.99443e-12 50.78

47.2399 -1.888 2.92839e-11
-1.888 46.2656 -7.33576e-12
2.92839e-11 -7.33576e-12 46.5655

47.1934 1.92291 -1.29074e-11
1.92291 46.2758 7.04701e-12
-1.29074e-11 7.04701e-12 46.5591

50.1894 0.557893 -3.15908e-11
0.557893 50.227 2.34055e-11
-3.15908e-11 2.34055e-11 49.8265

46.1542 -0.239701 -3.48678e-11
-0.239701 45.4577 1.59894e-11
-3.48678e-11 1.59894e-11 46.6687

51.2082 0.294492 4.77726e-11
0.294492 51.7544 6.429e-11
4.77726e-11 6.429e-11 51.1182

51.2097 -0.293404 -1.74324e-11
-0.293404 51.7536 -3.03874e-11
-1.74324e-11 -3.03874e-11 51.1181

47.4227 -0.835866 3.46717e-12
-0.835866 46.0308 2.26358e-11
3.46717e-12 2.26358e-11 46.79

45.4307 -1.61622 -4.62436e-12
-1.61622 44.3411 4.16102e-11
-4.62436e-12 4.16102e-11 45.1301

48.1604 -0.231026 -2.11897e-11
-0.231026 48.5192 2.05878e-11
-2.11897e-11 2.05878e-11 48.7697

44.103 0.116224 2.9475e-11
0.116224 46.0674 2.97626e-11
2.9475e-11 2.97626e-11 45.5694

44.0773 -0.116626 1.09798e-11
-0.116626 46.0513 1.23296e-11
1.09798e-11 1.23296e-11 45.5581

45.3197 -1.59572 8.861e-12
-1.59572 45.0205 2.54284e-11
8.861e-12 2.54284e-11 45.8736

49.8225 0.257237 -2.81241e-11
0.257237 50.3823 -6.0196e-12
-2.81241e-11 -6.0196e-12 50.0774

45.662 0.31807 6.00074e-11
0.31807 45.7829 -7.6079e-12
6.00074e-11 -7.6079e-12 46.5024

44.4989 0.100633 -7.70793e-13
0.100633 45.6895 -1.95531e-11
-7.70793e-13 -1.95531e-11 45.9372

44.4513 -0.119448 2.31068e-12
-0.119448 45.7169 3.12086e-11
2.31068e-12 3.12086e-11 45.9253

45.7792 1.0091 6.4763e-17
1.0091 43.5776 -4.67134e-12
6.4763e-17 -4.67134e-12 45.8169

51.572 0.18779 -1.96477e-11
0.18779 52.1168 3.31319e-11
-1.96477e-11 3.31319e-11 51.3648

51.5726 -0.186273 3.39019e-11
-0.186273 52.1134 3.39985e-11
3.39019e-11 3.39985e-11 51.3639

52.0915 -0.0399023 2.85094e-11
-0.0399023 50.7888 -4.23424e-12
2.85094e-11 -4.23424e-12 49.2756

51.9836 0.906256 3.65951e-11
0.906256 50.8351 -7.62826e-11
3.65951e-11 -7.62826e-11 49.4654

47.9479 0.0640084 4.00683e-11
0.0640084 48.3349 -5.27337e-11
4.00683e-11 -5.27337e-11 48.5434

47.729 -0.0405806 -3.85275e-12
-0.0405806 47.0596 3.17428e-11
-3.85275e-12 3.17428e-11 47.9294

50.6874 0.364234 3.42887e-11
0.364234 51.1284 2.81237e-11
3.42887e-11 2.81237e-11 50.5882

50.6942 -0.362754 5.39331e-12
-0.362754 51.1298 4.14181e-12
5.39331e-12 4.14181e-12 50.59

50.4595 0.40006 5.39338e-12
0.40006 50.4702 -1.43512e-11
5.39338e-12 -1.43512e-11 49.976

48.2135 0.0924777 -2.00344e-11
0.0924777 48.4717 -4.35114e-11
-2.00344e-11 -4.35114e-11 48.7165

48.7591 -0.032993 3.23624e-11
-0.032993 48.7594 8.98119e-12
3.23624e-11 8.98119e-12 49.0634

52.8188 -0.207966 3.27458e-11
-0.207966 53.1906 6.80939e-11
3.27458e-11 6.80939e-11 51.9654

52.8206 0.209633 -7.70433e-12
0.209633 53.1932 3.72731e-11
-7.70433e-12 3.72731e-11 51.9665

44.5908 -0.035918 6.33798e-11
-0.035918 45.4564 -6.24144e-11
6.33798e-11 -6.24144e-11 46.1548

49.9705 0.278808 -7.70078e-13
0.278808 50.14 1.34844e-11
-7.70078e-13 1.34844e-11 49.9495

50.7209 0.244046 3.19762e-11
0.244046 51.0328 -1.71443e-11
3.19762e-11 -1.71443e-11 50.5805

50.7211 -0.242386 3.50585e-11
-0.242386 51.0345 3.37138e-12
3.50585e-11 3.37138e-12 50.581

50.0836 0.174611 1.15629e-12
0.174611 50.5276 2.196e-11
1.15629e-12 2.196e-11 50.1238

49.9678 -0.265371 -1.81071e-11
-0.265371 50.1257 -2.42719e-11
-1.81071e-11 -2.42719e-11 49.9448

48.0696 -0.0142034 -4.43057e-11
-0.0142034 48.4687 1.81564e-11
-4.43057e-11 1.81564e-11 48.6166

48.102 -0.0194416 -1.54136e-12
-0.0194416 48.5498 1.89747e-11
-1.54136e-12 1.89747e-11 48.6545

49.0355 -0.0686999 -4.9314e-11
-0.0686999 49.6384 1.49773e-11
-4.9314e-11 1.49773e-11 49.4875

50.0759 -0.170361 -1.23283e-11
-0.170361 50.529 -1.70479e-11
-1.23283e-11 -1.70479e-11 50.1214

47.9843 -0.175899 2.35015e-11
-0.175899 47.9819 7.24808e-12
2.35015e-11 7.24808e-12 48.442

47.11 0.101712 -1.34847e-11
0.101712 46.8356 2.53981e-11
-1.34847e-11 2.53981e-11 47.6755

51.1663 0.335887 -8.7452e-11
0.335887 51.2703 6.01982e-11
-8.7452e-11 6.01982e-11 50.8381

51.1667 -0.337722 1.11724e-11
-0.337722 51.2705 6.74251e-12
1.11724e-11 6.74251e-12 50.838

51.1586 0.225235 -5.27798e-11
0.225235 51.6163 7.99497e-12
-5.27798e-11 7.99497e-12 50.98

51.1591 -0.224172 7.70083e-13
-0.224172 51.6173 4.07411e-11
7.70083e-13 4.07411e-11 50.98

47.6099 -0.177675 -2.83171e-11
-0.177675 47.9247 -5.0856e-11
-2.83171e-11 -5.0856e-11 48.289

47.479 -0.159829 -2.42725e-11
-0.159829 47.4746 4.03575e-11
-2.42725e-11 4.03575e-11 48.0186

50.3617 -0.388032 1.69525e-11
-0.388032 50.8123 -4.9795e-11
1.69525e-11 -4.9795e-11 50.3763

50.3585 0.391721 -1.19423e-11
0.391721 50.8069 2.61018e-11
-1.19423e-11 2.61018e-11 50.3747

51.2686 -0.219033 3.54474e-11
-0.219033 47.5064 -4.48798e-11
3.54474e-11 -4.48798e-11 48.4021

51.5067 -0.0239963 7.89749e-11
-0.0239963 50.231 -7.01213e-11
7.89749e-11 -7.01213e-11 49.4157

51.3104 0.235011 7.31886e-12
0.235011 51.5769 -5.82704e-11
7.31886e-12 -5.82704e-11 50.9738

51.32 -0.229852 1.54104e-11
-0.229852 51.5753 -1.44445e-12
1.54104e-11 -1.44445e-12 50.975

51.6744 0.121901 -2.42706e-11
0.121901 52.0079 6.73237e-11
-2.42706e-11 6.73237e-11 51.3484

51.6744 -0.121519 2.35001e-11
-0.121519 52.0062 3.15428e-11
2.35001e-11 3.15428e-11 51.3476

44.8507 -0.287205 1.54022e-12
-0.287205 45.8069 2.62963e-11
1.54022e-12 2.62963e-11 46.0065

44.9233 0.288895 -2.25388e-11
0.288895 45.779 -2.83174e-11
-2.25388e-11 -2.83174e-11 46.0318

49.5369 -1.59693 -8.47193e-12
-1.59693 47.378 -2.23466e-11
-8.47193e-12 -2.23466e-11 47.3162

45.2891 0.0756818 6.14507e-11
0.0756818 46.6978 3.00534e-11
6.14507e-11 3.00534e-11 45.9634

52.1406 0.0511895 3.35163e-11
0.0511895 52.4517 3.58289e-11
3.35163e-11 3.58289e-11 51.6156

52.6769 -0.142929 4.23774e-11
-0.142929 52.6286 -4.43011e-12
4.23774e-11 -4.43011e-12 51.7985

52.14 -0.0502295 2.61973e-11
-0.0502295 52.4563 -9.15027e-12
2.61973e-11 -9.15027e-12 51.6166

52.6782 0.143834 4.27635e-11
0.143834 52.6316 -2.89273e-13
4.27635e-11 -2.89273e-13 51.7996

52.2073 0.971182 -3.46662e-12
0.971182 51.5334 1.38702e-11
-3.46662e-12 1.38702e-11 49.9777

45.2984 -0.0659802 -2.793e-11
-0.0659802 46.6866 4.10329e-11
-2.793e-11 4.10329e-11 45.9629

52.5344 0.00626079 -3.08972e-10
0.00626079 52.5397 -1.9292e-10
-3.08972e-10 -1.9292e-10 51.6771

53.2679 -0.153279 -2.84706e-10
-0.153279 53.0735 2.05428e-10
-2.84706e-10 2.05428e-10 52.0257

53.2682 0.154432 -4.77654e-11
0.154432 53.0769 3.06466e-10
-4.77654e-11 3.06466e-10 52.0267

52.538 -0.00427404 7.31911e-11
-0.00427404 52.5416 -3.00498e-10
7.31911e-11 -3.00498e-10 51.6785

52.4125 -0.0945293 -2.23445e-11
-0.0945293 52.1791 -1.78182e-11
-2.23445e-11 -1.78182e-11 51.5491

51.7778 -0.369612 6.16396e-12
-0.369612 51.7715 1.14616e-11
6.16396e-12 1.14616e-11 51.2484

52.6139 -0.107817 -6.55063e-12
-0.107817 53.0208 8.17698e-11
-6.55063e-12 8.17698e-11 51.8543

52.4151 0.0970236 1.81064e-11
0.0970236 52.181 -2.0322e-11
1.81064e-11 -2.0322e-11 51.5503

52.616 0.108883 5.04704e-11
0.108883 53.0241 1.64599e-10
5.04704e-11 1.64599e-10 51.8557

51.7795 0.371837 4.50735e-11
0.371837 51.7742 -6.58792e-11
4.50735e-11 -6.58792e-11 51.2496

51.9284 0.122422 3.23617e-11
0.122422 52.125 3.52508e-11
3.23617e-11 3.52508e-11 51.4094

52.2333 0.25513 -2.1574e-11
0.25513 52.2979 2.34045e-11
-2.1574e-11 2.34045e-11 51.5879

51.9267 -0.121635 -3.92953e-11
-0.121635 52.1238 -3.42883e-11
-3.92953e-11 -3.42883e-11 51.4084

52.2322 -0.253422 -3.69846e-11
-0.253422 52.2961 1.2424e-11
-3.69846e-11 1.2424e-11 51.587

29.2954 1.77134 2.27311e-11
1.77134 33.2968 -3.23703e-11
2.27311e-11 -3.23703e-11 31.0169

38.9624 0.289079 7.72086e-13
0.289079 40.3718 2.88983e-11
7.72086e-13 2.88983e-11 39.2368

33.4478 0.499384 -1.40653e-11
0.499384 38.6914 -2.69747e-12
-1.40653e-11 -2.69747e-12 36.3962

35.5261 0.908993 -1.54251e-12
0.908993 30.0058 -1.31037e-11
-1.54251e-12 -1.31037e-11 32.7909

34.11 0.261452 -4.18134e-11
0.261452 28.7134 -1.61815e-11
-4.18134e-11 -1.61815e-11 30.8513

39.7379 -0.194066 -1.63744e-11
-0.194066 41.8009 3.85351e-12
-1.63744e-11 3.85351e-12 41.2233

34.2625 0.758726 7.89629e-12
0.758726 41.1697 -4.27729e-11
7.89629e-12 -4.27729e-11 38.3344

34.507 -0.250601 -1.18974e-11
-0.250601 29.5336 2.27377e-11
-1.18974e-11 2.27377e-11 31.226

39.8946 0.206573 1.84966e-11
0.206573 33.359 2.11819e-12
1.84966e-11 2.11819e-12 36.8831

23.9795 1.59031 1.53194e-11
1.59031 27.4477 -2.31644e-12
1.53194e-11 -2.31644e-12 25.0774

25.1431 -2.57172 1.43548e-11
-2.57172 27.8996 8.28367e-12
1.43548e-11 8.28367e-12 25.3033

28.1388 1.60248 -7.51458e-12
1.60248 24.8318 2.30963e-12
-7.51458e-12 2.30963e-12 25.6283

40.3658 -2.93816 5.80843e-11
-2.93816 42.1514 3.77568e-11
5.80843e-11 3.77568e-11 40.93

38.2146 -1.02708 1.15491e-12
-1.02708 41.1252 5.7779e-12
1.15491e-12 5.7779e-12 39.5247

29.9503 1.52252 2.90268e-13
1.52252 34.737 1.42578e-11
2.90268e-13 1.42578e-11 32.8728

31.9867 1.76684 -2.40835e-11
1.76684 37.4612 1.84972e-11
-2.40835e-11 1.84972e-11 35.8168

34.158 -0.841555 7.12916e-12
-0.841555 41.2124 1.19458e-11
7.12916e-12 1.19458e-11 38.241

38.1334 -2.19889 5.47117e-11
-2.19889 41.1125 9.63081e-12
5.47117e-11 9.63081e-12 39.9693

35.9606 -1.56581 -8.57359e-12
-1.56581 30.9462 -2.50394e-12
-8.57359e-12 -2.50394e-12 33.9409

25.7587 0.502176 -1.4469e-12
0.502176 30.6337 1.57966e-11
-1.4469e-12 1.57966e-11 27.2464

27.6991 -1.00308 3.2366e-11
-1.00308 31.2746 3.27257e-12
3.2366e-11 3.27257e-12 28.0506

30.7523 0.377199 -1.00238e-11
0.377199 26.9086 -1.8881e-11
-1.00238e-11 -1.8881e-11 27.6536

29.449 2.05303 7.22389e-12
2.05303 31.8872 -3.89188e-11
7.22389e-12 -3.89188e-11 30.6536

32.0951 -1.4103 3.25665e-11
-1.4103 27.7389 1.02113e-11
3.25665e-11 1.02113e-11 29.1879

32.524 2.25494 -3.20791e-11
2.25494 32.9474 -2.38937e-11
-3.20791e-11 -2.38937e-11 32.7908

33.9121 1.59924 -4.43201e-12
1.59924 35.0421 -2.71688e-11
-4.43201e-12 -2.71688e-11 33.4389

36.3409 -0.481839 -2.79365e-12
-0.481839 30.3222 -6.93572e-12
-2.79365e-12 -6.93572e-12 33.2447

22.868 1.07891 -1.75335e-11
1.07891 25.3541 3.54552e-11
-1.75335e-11 3.54552e-11 22.8462

38.4797 0.541119 2.2974e-11
0.541119 32.458 -2.46581e-11
2.2974e-11 -2.46581e-11 35.944

25.4623 1.00681 -1.31032e-11
1.00681 23.6517 -4.63237e-12
-1.31032e-11 -4.63237e-12 23.2797

41.9586 -0.999613 -3.23652e-11
-0.999613 42.8862 -6.16211e-12
-3.23652e-11 -6.16211e-12 42.0632

38.4539 0.127262 -2.29254e-11
0.127262 42.3535 -8.08994e-12
-2.29254e-11 -8.08994e-12 39.8792

44.7457 -1.07324 -1.22826e-11
-1.07324 42.9405 -1.32925e-11
-1.22826e-11 -1.32925e-11 42.6643

43.5421 2.5983 -9.27058e-12
2.5983 43.8131 1.69554e-11
-9.27058e-12 1.69554e-11 42.6304

30.0434 -0.683693 2.51461e-11
-0.683693 26.2697 4.58569e-11
2.51461e-11 4.58569e-11 26.7235

32.663 2.39234 6.06678e-12
2.39234 34.2057 2.08078e-11
6.06678e-12 2.08078e-11 34.2155

39.2806 1.36714 -1.99629e-11
1.36714 38.8676 3.96854e-11
-1.99629e-11 3.96854e-11 39.356

40.4472 -0.383256 2.85342e-12
-0.383256 39.9064 3.77607e-11
2.85342e-12 3.77607e-11 39.8896

39.9415 0.206483 2.69006e-11
0.206483 32.9722 -3.19814e-11
2.69006e-11 -3.19814e-11 36.8895

32.6402 2.25474 -2.69999e-12
2.25474 34.3783 -2.36998e-11
-2.69999e-12 -2.36998e-11 32.8303

32.6571 -1.78504 5.0077e-12
-1.78504 30.3437 -1.869e-11
5.0077e-12 -1.869e-11 30.329

39.5007 -0.0206439 1.18981e-11
-0.0206439 31.9685 -6.55063e-12
1.18981e-11 -6.55063e-12 36.1235

30.7271 -3.07172 -2.49509e-11
-3.07172 33.6311 4.62523e-12
-2.49509e-11 4.62523e-12 31.2205

31.4598 -2.67858 -7.99568e-12
-2.67858 34.4023 1.56065e-11
-7.99568e-12 1.56065e-11 31.8692

39.1819 1.35966 1.02113e-11
1.35966 40.2992 5.97167e-12
1.02113e-11 5.97167e-12 39.722

30.2019 -3.07471 2.40837e-12
-3.07471 29.2556 -2.6398e-11
2.40837e-12 -2.6398e-11 28.6034

18.441 -3.06431 4.37436e-11
-3.06431 18.2061 3.0805e-12
4.37436e-11 3.0805e-12 18.2109

18.2721 -3.24733 -6.55398e-12
-3.24733 19.1161 1.67663e-11
-6.55398e-12 1.67663e-11 18.5146

37.1727 -3.57071 -2.86089e-11
-3.57071 40.9857 2.6974e-11
-2.86089e-11 2.6974e-11 39.2772

18.4801 -1.21214 -1.15642e-11
-1.21214 18.2276 -4.79832e-11
-1.15642e-11 -4.79832e-11 18.9874

17.7313 -0.993513 -1.69564e-11
-0.993513 18.3986 -4.23935e-12
-1.69564e-11 -4.23935e-12 18.6757

44.604 1.54863 1.54192e-11
1.54863 41.5049 5.02757e-11
1.54192e-11 5.02757e-11 43.0406

41.7355 -2.05127 5.85646e-11
-2.05127 39.5612 1.15009e-12
5.85646e-11 1.15009e-12 40.2611

37.0982 -1.07104 3.27571e-12
-1.07104 31.8207 3.85263e-12
3.27571e-12 3.85263e-12 35.4664

43.9582 2.08549 3.08217e-11
2.08549 39.7789 -6.93875e-12
3.08217e-11 -6.93875e-12 42.3029

41.3662 -2.87823 8.86532e-12
-2.87823 39.2356 -1.15597e-11
8.86532e-12 -1.15597e-11 40.1268

34.7656 1.57919 -1.05938e-11
1.57919 37.1562 4.04654e-12
-1.05938e-11 4.04654e-12 35.6637

43.9642 -0.996798 -1.79654e-11
-0.996798 40.8756 -9.90819e-12
-1.79654e-11 -9.90819e-12 41.7356

42.4892 1.34066 5.24973e-12
1.34066 41.6316 -2.13878e-11
5.24973e-12 -2.13878e-11 41.6193

40.9177 2.44299 -1.92633e-11
2.44299 37.6376 3.70992e-12
-1.92633e-11 3.70992e-12 39.7077

38.0783 -3.10792 4.81548e-12
-3.10792 35.9567 -1.46917e-11
4.81548e-12 -1.46917e-11 37.4737

26.9781 -2.12163 -2.82282e-11
-2.12163 24.0641 -1.54092e-12
-2.82282e-11 -1.54092e-12 24.4958

44.3367 -0.604393 -2.38862e-11
-0.604393 46.0564 8.9582e-12
-2.38862e-11 8.9582e-12 45.0772

40.7646 -0.100864 3.391e-11
-0.100864 46.1541 2.5044e-11
3.391e-11 2.5044e-11 42.0289

29.4755 -2.59501 3.66237e-12
-2.59501 32.0709 -1.7725e-11
3.66237e-12 -1.7725e-11 30.8316

22.0765 -0.894285 -1.48348e-11
-0.894285 24.7024 3.60338e-11
-1.48348e-11 3.60338e-11 22.4069

24.234 -0.836432 -2.17738e-11
-0.836432 21.7682 -3.66059e-12
-2.17738e-11 -3.66059e-12 22.037

36.7347 1.00827 -1.30999e-11
1.00827 39.4042 1.6954e-11
-1.30999e-11 1.6954e-11 38.1442

31.2851 1.51464 1.40645e-11
1.51464 37.0572 1.92667e-11
1.40645e-11 1.92667e-11 35.0754

51.3866 1.97258 -1.67606e-10
1.97258 45.6218 -5.66208e-11
-1.67606e-10 -5.66208e-11 46.9532

51.0098 0.588313 -1.09031e-10
0.588313 53.0473 1.73455e-11
-1.09031e-10 1.73455e-11 46.2036

32.9809 2.2792 -2.60089e-12
2.2792 36.401 1.84956e-11
-2.60089e-12 1.84956e-11 36.4927

38.7266 1.80296 -3.85414e-12
1.80296 34.0953 3.27638e-12
-3.85414e-12 3.27638e-12 37.0088

37.1364 -2.74558 -1.40646e-11
-2.74558 33.2599 5.77978e-12
-1.40646e-11 5.77978e-12 35.7765

33.5209 3.12812 2.2878e-11
3.12812 36.0937 1.69546e-11
2.2878e-11 1.69546e-11 36.3115

34.062 -2.37948 1.67612e-11
-2.37948 39.2031 1.07877e-11
1.67612e-11 1.07877e-11 37.787

29.5136 -0.225008 3.21791e-11
-0.225008 24.8548 -3.31423e-11
3.21791e-11 -3.31423e-11 26.157

34.6793 -0.909624 -3.4693e-12
-0.909624 29.6314 -2.13853e-11
-3.4693e-12 -2.13853e-11 31.9696

31.6642 1.11727 3.94818e-12
1.11727 27.3866 -1.65703e-11
3.94818e-12 -1.65703e-11 28.7221

38.7443 1.23997 -1.03314e-11
1.23997 36.3432 1.42563e-11
-1.03314e-11 1.42563e-11 38.2827

40.3409 0.842583 3.77819e-11
0.842583 45.8983 -3.86432e-13
3.77819e-11 -3.86432e-13 42.5944

43.2482 -0.621354 -3.00422e-11
-0.621354 43.5956 -1.40641e-11
-3.00422e-11 -1.40641e-11 42.6897

27.3604 1.79377 6.84667e-12
1.79377 28.398 5.20302e-12
6.84667e-12 5.20302e-12 26.6902

33.2461 -2.30513 2.99583e-11
-2.30513 32.3303 -3.21786e-11
2.99583e-11 -3.21786e-11 32.431

37.0309 1.24813 2.5238e-11
1.24813 33.0529 -7.8995e-12
2.5238e-11 -7.8995e-12 35.1995

43.0224 1.39258 -5.95258e-11
1.39258 47.5763 -1.42532e-11
-5.95258e-11 -1.42532e-11 43.0522

43.9291 -0.928649 1.50263e-11
-0.928649 45.7433 -1.5028e-11
1.50263e-11 -1.5028e-11 44.7801

39.7402 -0.338577 -1.86154e-11
-0.338577 36.7088 -1.9843e-11
-1.86154e-11 -1.9843e-11 38.7258

37.5905 -1.79431 5.87598e-11
-1.79431 39.8524 1.53884e-12
5.87598e-11 1.53884e-12 38.2142

33.3681 -0.580662 5.68407e-12
-0.580662 38.8509 1.11762e-11
5.68407e-12 1.11762e-11 36.3575

38.9524 0.398226 3.81487e-11
0.398226 32.3762 2.63933e-11
3.81487e-11 2.63933e-11 37.1313

38.4244 -1.2506 -1.19458e-11
-1.2506 32.2025 -4.23779e-12
-1.19458e-11 -4.23779e-12 36.6873

28.2244 -2.54821 -7.70598e-12
-2.54821 27.1353 -1.73406e-11
-7.70598e-12 -1.73406e-11 26.5858

41.3198 1.57337 -3.12649e-11
1.57337 35.1063 -4.91255e-11
-3.12649e-11 -4.91255e-11 39.4442

40.0474 -2.44708 1.06934e-11
-2.44708 35.1337 3.86728e-13
1.06934e-11 3.86728e-13 38.3101

36.0729 -2.17833 -1.13675e-11
-2.17833 31.8855 -2.42743e-11
-1.13675e-11 -2.42743e-11 34.1826

29.9465 -2.1704 5.97365e-12
-2.1704 33.4721 3.85588e-12
5.97365e-12 3.85588e-12 31.419

39.2473 0.945874 -1.15744e-12
0.945874 34.673 3.85654e-13
-1.15744e-12 3.85654e-13 37.9669

38.567 -1.75442 -1.54151e-12
-1.75442 33.9331 -1.91958e-13
-1.54151e-12 -1.91958e-13 37.0449

36.7011 -0.572252 2.57686e-11
-0.572252 32.5922 -2.89008e-11
2.57686e-11 -2.89008e-11 34.341

41.2953 2.73776 5.00655e-12
2.73776 39.9487 -2.71635e-11
5.00655e-12 -2.71635e-11 40.7333

31.4002 1.81389 1.66672e-11
1.81389 30.1667 5.04834e-11
1.66672e-11 5.04834e-11 30.0411

33.2244 2.71843 4.95948e-12
2.71843 35.6941 -3.81486e-11
4.95948e-12 -3.81486e-11 36.5661

40.4529 2.02449 -1.40636e-11
2.02449 41.9442 -1.54029e-12
-1.40636e-11 -1.54029e-12 41.6259

33.0975 1.00982 -2.69754e-11
1.00982 28.2683 6.93882e-12
-2.69754e-11 6.93882e-12 30.2607

36.1596 -1.351 1.83525e-11
-1.351 34.5146 -7.12774e-12
1.83525e-11 -7.12774e-12 35.7103

35.7598 0.844797 3.56433e-12
0.844797 31.8229 4.08423e-11
3.56433e-12 4.08423e-11 33.6489

28.5598 2.1717 8.96176e-12
2.1717 29.3425 3.19894e-11
8.96176e-12 3.19894e-11 28.6562

31.9859 2.05151 -3.7666e-11
2.05151 31.0401 2.00356e-11
-3.7666e-11 2.00356e-11 31.777

30.7489 0.0238914 2.56225e-11
0.0238914 37.8598 1.50275e-11
2.56225e-11 1.50275e-11 34.9077

34.9279 -0.883354 9.05548e-12
-0.883354 38.4802 2.08082e-11
9.05548e-12 2.08082e-11 36.8375

27.4782 -2.5578 -1.53929e-12
-2.5578 24.5875 5.20236e-11
-1.53929e-12 5.20236e-11 25.3773

35.207 -3.49117 2.05165e-11
-3.49117 38.5363 2.56228e-11
2.05165e-11 2.56228e-11 37.091

29.065 -3.07759 -2.85159e-11
-3.07759 30.6405 -1.65653e-11
-2.85159e-11 -1.65653e-11 29.1578

31.8064 2.49763 -2.81332e-11
2.49763 31.8878 1.92609e-12
-2.81332e-11 1.92609e-12 30.6616

36.0136 -1.13898 1.3101e-11
-1.13898 33.3844 -1.96541e-11
1.3101e-11 -1.96541e-11 34.2055

40.7786 -0.0882471 5.39552e-12
-0.0882471 33.9702 1.07888e-11
5.39552e-12 1.07888e-11 38.0933

40.0411 0.366892 3.85823e-11
0.366892 34.225 2.04206e-11
3.85823e-11 2.04206e-11 37.924

26.9826 1.14444 -5.20117e-12
1.14444 32.1871 2.31223e-11
-5.20117e-12 2.31223e-11 29.3813

33.5267 -2.74914 2.24458e-11
-2.74914 34.4562 -1.58005e-11
2.24458e-11 -1.58005e-11 33.2766

23.5411 -0.377511 -6.55171e-12
-0.377511 29.4184 -1.27176e-11
-6.55171e-12 -1.27176e-11 25.9091

25.6633 -0.477101 3.75719e-11
-0.477101 30.4173 1.98438e-11
3.75719e-11 1.98438e-11 26.9381

29.3208 -0.631646 -6.5569e-12
-0.631646 24.242 -7.01381e-11
-6.5569e-12 -7.01381e-11 26.1134

29.2311 1.81868 -5.39472e-12
1.81868 28.4545 -2.42761e-11
-5.39472e-12 -2.42761e-11 27.4285

30.0606 -3.15742 -1.05952e-11
-3.15742 28.3312 -1.77225e-11
-1.05952e-11 -1.77225e-11 28.8872

50.3637 -0.750233 -2.42761e-11
-0.750233 50.5141 -5.12406e-11
-2.42761e-11 -5.12406e-11 45.4199

43.833 -2.84652 1.54689e-10
-2.84652 47.354 -7.84155e-11
1.54689e-10 -7.84155e-11 45.3636

32.4557 -1.86956 4.68222e-11
-1.86956 27.9426 2.54298e-11
4.68222e-11 2.54298e-11 29.9104

37.7436 2.52867 1.3104e-11
2.52867 38.585 2.75505e-11
1.3104e-11 2.75505e-11 37.977

37.3548 0.168478 6.55283e-12
0.168478 32.0197 1.23276e-11
6.55283e-12 1.23276e-11 35.6648

29.7406 -2.29116 1.51253e-11
-2.29116 33.6565 3.02504e-11
1.51253e-11 3.02504e-11 30.6476

33.1324 2.38587 -1.85916e-11
2.38587 39.2132 -9.63265e-12
-1.85916e-11 -9.63265e-12 37.7274

41.9971 0.996916 1.40643e-11
0.996916 43.4074 5.97159e-12
1.40643e-11 5.97159e-12 43.1139

34.4914 -3.25046 1.07892e-11
-3.25046 35.9633 3.12087e-11
1.07892e-11 3.12087e-11 36.4523

41.651 2.43477 2.31426e-12
2.43477 41.9626 2.8706e-11
2.31426e-12 2.8706e-11 42.1577

31.3069 1.92692 -2.80313e-11
1.92692 35.3579 3.39117e-11
-2.80313e-11 3.39117e-11 34.4017

39.0347 -0.229135 -2.31199e-11
-0.229135 29.825 1.04049e-11
-2.31199e-11 1.04049e-11 37.0407

31.9381 2.37719 -1.95325e-13
2.37719 29.393 -1.21371e-11
-1.95325e-13 -1.21371e-11 29.9319

35.6704 -3.6941 3.32815e-11
-3.6941 40.0572 -1.31033e-11
3.32815e-11 -1.31033e-11 37.7942

32.772 2.14006 6.16944e-12
2.14006 32.2245 -2.67818e-11
6.16944e-12 -2.67818e-11 31.5561

27.3878 -2.09955 -5.16394e-11
-2.09955 28.6523 -8.28708e-12
-5.16394e-11 -8.28708e-12 26.4937

34.0006 -3.02282 -6.54969e-12
-3.02282 36.3905 1.15597e-11
-6.54969e-12 1.15597e-11 34.9483

26.3583 -1.36427 3.69912e-11
-1.36427 31.0169 -5.27981e-11
3.69912e-11 -5.27981e-11 27.7875

29.1904 0.521352 -1.6765e-11
0.521352 32.0398 -2.77448e-11
-1.6765e-11 -2.77448e-11 29.093

30.4275 -1.28408 -5.29893e-11
-1.28408 26.7707 4.43171e-11
-5.29893e-11 4.43171e-11 27.6812

30.595 -2.75385 -1.31018e-11
-2.75385 30.1865 8.87024e-12
-1.31018e-11 8.87024e-12 29.9232

29.8345 -0.130803 2.67788e-11
-0.130803 35.5828 8.85965e-12
2.67788e-11 8.85965e-12 32.4965

34.0569 -0.493275 -2.13869e-11
-0.493275 36.8155 -2.92855e-11
-2.13869e-11 -2.92855e-11 34.3635

25.218 -2.75558 6.74464e-12
-2.75558 26.9053 -2.5051e-11
6.74464e-12 -2.5051e-11 25.2309

27.337 2.04366 -2.27333e-11
2.04366 28.0127 1.53958e-12
-2.27333e-11 1.53958e-12 26.4309

38.328 0.0101298 -1.19436e-11
0.0101298 32.5206 2.67807e-11
-1.19436e-11 2.67807e-11 37.5894

38.0243 -0.48835 -1.46434e-11
-0.48835 32.619 -1.38705e-11
-1.46434e-11 -1.38705e-11 37.2491

38.5299 2.21016 2.94797e-11
2.21016 39.1003 1.83017e-11
2.94797e-11 1.83017e-11 38.6269

36.8587 -3.65012 -4.78737e-11
-3.65012 40.9865 2.19665e-11
-4.78737e-11 2.19665e-11 39.0788

34.4106 2.50293 1.57977e-11
2.50293 34.825 2.11653e-12
1.57977e-11 2.11653e-12 35.5062

25.8694 1.1503 -1.42579e-11
1.1503 23.2987 6.54787e-12
-1.42579e-11 6.54787e-12 23.6396

30.672 1.37484 -1.44478e-11
1.37484 33.9717 3.66041e-12
-1.44478e-11 3.66041e-12 31.4191

42.4622 1.26728 1.1946e-11
1.26728 38.2511 7.79517e-12
1.1946e-11 7.79517e-12 40.8172

40.4422 -2.21157 -4.2378e-12
-2.21157 36.7403 -1.19464e-11
-4.2378e-12 -1.19464e-11 38.7982

39.3848 1.80781 5.01314e-12
1.80781 36.4471 4.21925e-11
5.01314e-12 4.21925e-11 38.0335

37.448 -2.61336 -3.66114e-11
-2.61336 34.3739 1.11754e-11
-3.66114e-11 1.11754e-11 36.1216

16.7836 -1.30688 -1.00206e-11
-1.30688 14.3373 3.89247e-11
-1.00206e-11 3.89247e-11 17.7012

14.2894 -1.5292 4.27766e-11
-1.5292 17.3712 7.51339e-12
4.27766e-11 7.51339e-12 17.9669

27.2406 -1.73616 1.6958e-11
-1.73616 32.4912 3.46824e-11
1.6958e-11 3.46824e-11 29.7382

47.2823 2.0752 -1.80996e-11
2.0752 41.744 6.18381e-11
-1.80996e-11 6.18381e-11 44.2944

45.7465 -2.93566 -5.43291e-11
-2.93566 43.0531 -3.62113e-11
-5.43291e-11 -3.62113e-11 42.6224

36.4105 2.10308 -1.1753e-11
2.10308 34.3596 1.29073e-11
-1.1753e-11 1.29073e-11 35.0321

26.1021 0.849824 -1.84044e-11
0.849824 23.0477 -3.08654e-12
-1.84044e-11 -3.08654e-12 23.6098

34.6813 -2.53412 -3.0829e-12
-2.53412 38.6479 -3.46767e-12
-3.0829e-12 -3.46767e-12 36.5953

31.5623 -1.21693 -4.45041e-11
-1.21693 37.87 -2.69655e-12
-4.45041e-11 -2.69655e-12 35.3114

29.6697 -3.01689 -7.80305e-12
-3.01689 30.4602 -3.42977e-11
-7.80305e-12 -3.42977e-11 28.9934

33.8551 -2.4444 -2.89019e-12
-2.4444 35.8412 8.09175e-12
-2.89019e-12 8.09175e-12 36.6651

34.2905 -2.83914 3.98829e-11
-2.83914 32.2478 -2.00393e-11
3.98829e-11 -2.00393e-11 33.2035

31.2607 3.69953 -1.27168e-11
3.69953 36.4279 -1.50286e-11
-1.27168e-11 -1.50286e-11 36.2437

42.4208 0.904635 1.13657e-11
0.904635 43.5188 -5.49039e-12
1.13657e-11 -5.49039e-12 43.1836

38.3468 1.55179 4.64289e-11
1.55179 40.7282 -9.24881e-12
4.64289e-11 -9.24881e-12 39.5382

33.4927 -2.7205 1.44506e-11
-2.7205 34.9158 4.00734e-11
1.44506e-11 4.00734e-11 35.076

32.8698 2.65498 -1.5991e-11
2.65498 35.0291 -2.31167e-12
-1.5991e-11 -2.31167e-12 34.9434

30.6363 1.7666 2.25423e-11
1.7666 27.461 3.85221e-12
2.25423e-11 3.85221e-12 28.3659

34.6066 -0.00470921 -7.12911e-12
-0.00470921 30.0671 -8.86189e-12
-7.12911e-12 -8.86189e-12 32.2211

42.6544 1.83586 2.61997e-11
1.83586 42.5558 -5.00885e-12
2.61997e-11 -5.00885e-12 42.7685

32.3679 -2.93842 2.8888e-13
-2.93842 36.5915 -8.86239e-12
2.8888e-13 -8.86239e-12 34.0398

28.2553 0.44536 -1.84016e-11
0.44536 34.6544 2.0426e-11
-1.84016e-11 2.0426e-11 31.441

38.0402 2.7453 6.30063e-11
2.7453 35.6485 2.58125e-11
6.30063e-11 2.58125e-11 36.9111

32.5783 0.0780592 -3.50656e-11
0.0780592 35.9712 -5.97174e-12
-3.50656e-11 -5.97174e-12 33.5698

33.0361 -2.04763 -3.98799e-11
-2.04763 38.78 3.73792e-11
-3.98799e-11 3.73792e-11 37.5431

21.0211 -1.72836 -3.86469e-13
-1.72836 22.0165 -1.90766e-11
-3.86469e-13 -1.90766e-11 20.6184

21.9958 -1.76694 2.02305e-12
-1.76694 20.8124 2.58192e-11
2.02305e-12 2.58192e-11 20.51

36.6209 0.60631 -9.4591e-14
0.60631 31.3165 -3.46728e-12
-9.4591e-14 -3.46728e-12 34.4331

34.9141 -3.23599 -2.69743e-11
-3.23599 33.401 1.84957e-11
-2.69743e-11 1.84957e-11 34.654

51.075 1.83718 -1.04819e-10
1.83718 44.4847 -1.13452e-10
-1.04819e-10 -1.13452e-10 46.3763

51.7719 -0.516353 -2.08048e-11
-0.516353 47.8448 4.23986e-12
-2.08048e-11 4.23986e-12 45.2456

32.0044 -2.28042 3.19824e-11
-2.28042 35.4065 3.89182e-11
3.19824e-11 3.89182e-11 34.6488

40.6208 -0.690402 2.9427e-11
-0.690402 41.7659 -2.48538e-11
2.9427e-11 -2.48538e-11 41.0866

40.2727 2.39157 5.61281e-12
2.39157 42.9218 2.61994e-11
5.61281e-12 2.61994e-11 41.2785

37.9155 0.214896 -1.92642e-12
0.214896 31.191 -2.54308e-11
-1.92642e-12 -2.54308e-11 34.5388

35.217 -3.95989 3.18842e-11
-3.95989 39.7505 -9.65246e-13
3.18842e-11 -9.65246e-13 37.5957

22.8047 1.33066 1.81138e-11
1.33066 22.9148 -1.56087e-11
1.81138e-11 -1.56087e-11 22.001

22.1008 1.28274 -9.82707e-12
1.28274 22.1309 -6.55183e-12
-9.82707e-12 -6.55183e-12 21.4571

21.6631 -1.54014 -8.09386e-12
-1.54014 25.2511 -3.85499e-12
-8.09386e-12 -3.85499e-12 22.808

23.778 0.767039 1.98497e-11
0.767039 26.3958 4.64393e-11
1.98497e-11 4.64393e-11 23.9386

25.1801 -1.30784 6.60948e-11
-1.30784 21.9541 -6.65279e-12
6.60948e-11 -6.65279e-12 22.8799

31.776 -3.6351 -2.71653e-11
-3.6351 36.2221 2.27357e-11
-2.71653e-11 2.27357e-11 36.2748

19.7282 0.0730819 -2.50493e-11
0.0730819 23.9341 1.6957e-11
-2.50493e-11 1.6957e-11 21.3678

24.1329 0.108914 -2.98695e-11
0.108914 20.5579 -1.21407e-11
-2.98695e-11 -1.21407e-11 21.7804

40.0987 0.244745 1.83009e-11
0.244745 44.1937 -1.54214e-12
1.83009e-11 -1.54214e-12 41.233

41.7546 -2.08525 -8.67051e-12
-2.08525 44.0258 -2.26348e-11
-8.67051e-12 -2.26348e-11 42.5294

38.3234 0.83527 -5.32257e-11
0.83527 34.8021 -2.15779e-11
-5.32257e-11 -2.15779e-11 36.617

39.9065 0.139523 2.51911e-11
0.139523 32.3229 -1.73401e-11
2.51911e-11 -1.73401e-11 36.7299

25.7106 -1.96605 2.00359e-11
-1.96605 29.1245 -5.35689e-11
2.00359e-11 -5.35689e-11 26.9179

27.959 1.25852 -6.36206e-12
1.25852 30.6022 -3.12138e-11
-6.36206e-12 -3.12138e-11 28.2134

38.0151 0.165646 -8.17679e-13
0.165646 31.4481 4.62281e-12
-8.17679e-13 4.62281e-12 34.7064

30.5744 -2.00077 3.46891e-12
-2.00077 34.9597 4.04631e-11
3.46891e-12 4.04631e-11 33.2367

45.1726 1.16556 -5.3938e-12
1.16556 40.908 4.02658e-11
-5.3938e-12 4.02658e-11 43.1632

43.4514 -1.61813 2.69696e-11
-1.61813 40.8028 -6.54985e-11
2.69696e-11 -6.54985e-11 41.3039

35.7841 1.90419 -1.29045e-11
1.90419 35.6426 3.0439e-11
-1.29045e-11 3.0439e-11 36.1356

34.2826 -3.34371 -1.33908e-11
-3.34371 38.0931 3.10204e-11
-1.33908e-11 3.10204e-11 35.814

37.6249 0.862874 -3.97853e-11
0.862874 32.3036 3.08172e-12
-3.97853e-11 3.08172e-12 35.4847

26.9123 1.74741 1.44492e-12
1.74741 26.3398 8.86184e-12
1.44492e-12 8.86184e-12 25.7943

34.1625 -3.60694 -1.72428e-11
-3.60694 37.7397 1.96533e-11
-1.72428e-11 1.96533e-11 35.5788

17.3434 3.19796 2.83273e-11
3.19796 17.3989 -2.69808e-12
2.83273e-11 -2.69808e-12 17.5437

31.2558 -1.31851 4.91534e-12
-1.31851 35.4934 -3.08398e-12
4.91534e-12 -3.08398e-12 32.7569

28.786 -0.779487 -5.59002e-12
-0.779487 34.7407 -7.71605e-13
-5.59002e-12 -7.71605e-13 31.635

39.6008 -0.349802 -4.04506e-11
-0.349802 45.8517 9.74874e-11
-4.04506e-11 9.74874e-11 41.5714

42.6899 -1.63889 -7.90096e-12
-1.63889 44.0419 -1.3484e-12
-7.90096e-12 -1.3484e-12 43.3682

40.9456 0.914484 -1.96528e-11
0.914484 31.7994 4.62791e-12
-1.96528e-11 4.62791e-12 38.8016

40.2401 -1.3496 3.08281e-12
-1.3496 32.4805 1.57981e-11
3.08281e-12 1.57981e-11 38.1772

36.8739 2.75817 -7.60891e-12
2.75817 37.0001 2.19668e-11
-7.60891e-12 2.19668e-11 37.7952

37.4958 -1.7661 8.52422e-12
-1.7661 38.231 3.06313e-11
8.52422e-12 3.06313e-11 38.259

39.9958 2.12122 -7.46396e-12
2.12122 40.9225 2.0034e-11
-7.46396e-12 2.0034e-11 40.6417

40.2488 -1.47555 5.16057e-11
-1.47555 42.4973 1.86857e-11
5.16057e-11 1.86857e-11 40.9417

49.7169 2.01633 -1.00951e-10
2.01633 44.1128 -3.79396e-11
-1.00951e-10 -3.79396e-11 45.9778

48.1079 -2.82235 -3.00478e-11
-2.82235 46.573 1.52191e-10
-3.00478e-11 1.52191e-10 44.1061

44.9825 2.08485 -2.27314e-11
2.08485 42.6619 2.08062e-11
-2.27314e-11 2.08062e-11 43.9186

35.2887 -3.93558 -7.89776e-12
-3.93558 37.0381 -2.31205e-11
-7.89776e-12 -2.31205e-11 37.8057

35.8318 2.17703 1.54217e-12
2.17703 32.2489 5.39657e-12
1.54217e-12 5.39657e-12 33.9266

34.0967 -2.46404 -1.23302e-11
-2.46404 37.2502 -2.11936e-11
-1.23302e-11 -2.11936e-11 34.846

30.7136 -1.48864 -3.27474e-12
-1.48864 35.7535 -4.23942e-12
-3.27474e-12 -4.23942e-12 33.5069

27.9855 -2.1874 -1.82142e-11
-2.1874 27.4888 -2.33126e-11
-1.82142e-11 -2.33126e-11 26.125

33.9076 -2.88962 3.62256e-11
-2.88962 30.8815 3.46193e-12
3.62256e-11 3.46193e-12 32.5141

30.652 0.994623 -1.49503e-12
0.994623 35.7341 -1.23321e-11
-1.49503e-12 -1.23321e-11 33.3471

34.9345 2.89444 1.77264e-11
2.89444 33.5864 -1.61824e-11
1.77264e-11 -1.61824e-11 33.8375

34.0806 4.29668 3.45809e-11
4.29668 37.277 -2.61998e-11
3.45809e-11 -2.61998e-11 37.7406

36.3205 -3.49055 -4.06505e-11
-3.49055 40.1342 6.36004e-12
-4.06505e-11 6.36004e-12 38.5772

31.9914 -3.29161 -1.31007e-11
-3.29161 31.3783 -8.47467e-12
-1.31007e-11 -8.47467e-12 31.8199

39.3704 -0.233516 -3.2176e-11
-0.233516 36.1197 -2.73562e-11
-3.2176e-11 -2.73562e-11 37.3915

45.1077 -1.0847 -6.4535e-11
-1.0847 46.9764 -2.12868e-11
-6.4535e-11 -2.12868e-11 45.1524

50.2332 -1.26624 -1.49104e-10
-1.26624 49.6165 7.85986e-11
-1.49104e-10 7.85986e-11 45.1719

33.4373 -1.28104 -5.77977e-12
-1.28104 37.7871 -1.61852e-11
-5.77977e-12 -1.61852e-11 36.3994

35.0826 1.77716 -1.57481e-11
1.77716 33.3558 1.5798e-11
-1.57481e-11 1.5798e-11 34.9717

41.0649 -0.132486 2.4805e-11
-0.132486 38.0991 -1.07899e-11
2.4805e-11 -1.07899e-11 39.6235

20.9537 -2.23881 2.87103e-11
-2.23881 22.5273 3.73826e-11
2.87103e-11 3.73826e-11 20.9768

22.292 -2.01094 2.52457e-11
-2.01094 20.9303 2.02316e-12
2.52457e-11 2.02316e-12 20.9879

41.8553 -0.0839851 -8.86873e-12
-0.0839851 35.2909 -3.48691e-11
-8.86873e-12 -3.48691e-11 40.1036

41.1105 -0.4159 8.47818e-12
-0.4159 35.2035 1.77241e-11
8.47818e-12 1.77241e-11 39.0662

41.988 0.449883 5.53892e-12
0.449883 37.8214 -1.36781e-11
5.53892e-12 -1.36781e-11 39.8015

35.9897 1.17058 -6.18614e-12
1.17058 37.6916 2.65881e-11
-6.18614e-12 2.65881e-11 36.1082

33.9158 1.51386 -2.598e-12
1.51386 30.8891 3.00541e-11
-2.598e-12 3.00541e-11 31.6352

41.5422 2.07033 -4.89336e-11
2.07033 39.4713 1.05974e-11
-4.89336e-11 1.05974e-11 40.5603

38.3085 -2.71 3.84892e-12
-2.71 36.3394 -3.31397e-11
3.84892e-12 -3.31397e-11 37.6707

44.4405 -0.342787 -6.0705e-11
-0.342787 42.699 1.27417e-10
-6.0705e-11 1.27417e-10 42.8603

44.9149 2.97149 2.14658e-12
2.97149 48.9342 1.10446e-10
2.14658e-12 1.10446e-10 44.2411

32.4191 -2.31914 -1.00192e-11
-2.31914 36.5603 -9.63263e-12
-1.00192e-11 -9.63263e-12 35.7759

35.17 1.52138 7.03223e-12
1.52138 32.1439 7.31955e-12
7.03223e-12 7.31955e-12 33.4756

42.1758 1.40469 -5.04646e-11
1.40469 38.0864 4.73959e-11
-5.04646e-11 4.73959e-11 40.7099

40.751 -1.89568 1.3677e-11
-1.89568 37.6272 5.39465e-12
1.3677e-11 5.39465e-12 39.1915

36.6881 -3.23294 -1.89771e-11
-3.23294 39.7106 -6.93523e-12
-1.89771e-11 -6.93523e-12 37.8215

35.8358 -4.13703 -5.80857e-11
-4.13703 39.9749 -1.88451e-13
-5.80857e-11 -1.88451e-13 37.8174

18.0941 3.82178 -5.80045e-11
3.82178 18.5055 -1.46446e-11
-5.80045e-11 -1.46446e-11 18.1154

36.0064 2.92043 1.7773e-11
2.92043 39.642 4.52777e-11
1.7773e-11 4.52777e-11 38.9535

37.6459 -2.57856 -3.15945e-11
-2.57856 41.5371 2.5047e-11
-3.15945e-11 2.5047e-11 39.5577

34.6792 -3.55818 -4.63343e-11
-3.55818 39.0453 -5.97008e-12
-4.63343e-11 -5.97008e-12 36.885

33.1099 -2.4176 5.0486e-11
-2.4176 29.6471 1.15382e-12
5.0486e-11 1.15382e-12 30.7992

37.0555 -1.59602 -5.10029e-12
-1.59602 37.637 5.60659e-11
-5.10029e-12 5.60659e-11 36.9497

36.9819 2.76075 1.19441e-11
2.76075 37.2747 1.04067e-11
1.19441e-11 1.04067e-11 38.1507

37.5106 -2.21171 3.40031e-11
-2.21171 39.8126 -2.10011e-11
3.40031e-11 -2.10011e-11 38.6967

38.4237 -0.220602 -2.45652e-11
-0.220602 32.7505 -1.48339e-11
-2.45652e-11 -1.48339e-11 36.0221

43.2822 0.811169 5.7821e-12
0.811169 39.0806 1.25188e-11
5.7821e-12 1.25188e-11 41.9294

42.4939 -0.78141 1.46401e-11
-0.78141 40.3446 -1.65683e-11
1.46401e-11 -1.65683e-11 40.8791

44.3158 -1.14047 5.9718e-12
-1.14047 47.9345 -8.77514e-11
5.9718e-12 -8.77514e-11 45.0678

43.4124 0.871599 3.10155e-11
0.871599 49.4032 -8.09134e-12
3.10155e-11 -8.09134e-12 43.6088

18.4263 0.293559 2.04233e-11
0.293559 15.4178 -5.76207e-11
2.04233e-11 -5.76207e-11 18.352

15.3802 0.264706 4.52712e-12
0.264706 18.0455 -1.4647e-11
4.52712e-12 -1.4647e-11 18.0572

41.2356 2.63274 2.02295e-11
2.63274 40.5466 -2.60075e-11
2.02295e-11 -2.60075e-11 40.966

36.0663 -2.63016 1.34887e-11
-2.63016 36.1347 3.58304e-11
1.34887e-11 3.58304e-11 37.0205

33.1951 -2.51946 -4.54678e-11
-2.51946 36.1312 2.04257e-11
-4.54678e-11 2.04257e-11 36.4213

17.2178 0.937244 -4.95234e-11
0.937244 17.2595 4.08536e-11
-4.95234e-11 4.08536e-11 18.1667

17.3224 1.02176 5.45346e-11
1.02176 17.3616 -7.71473e-12
5.45346e-11 -7.71473e-12 18.3181

50.5406 0.444183 -1.23289e-10
0.444183 51.5172 -1.02486e-10
-1.23289e-10 -1.02486e-10 45.803

50.1735 0.713171 8.3214e-11
0.713171 48.326 -9.17015e-11
8.3214e-11 -9.17015e-11 46.9053

35.1757 -2.36469 -5.03316e-11
-2.36469 36.5993 1.86925e-11
-5.03316e-11 1.86925e-11 36.0637

32.5432 -2.93145 5.3945e-11
-2.93145 33.1401 -1.54184e-11
5.3945e-11 -1.54184e-11 32.7867

40.641 2.75391 3.85425e-12
2.75391 38.4024 -5.39454e-12
3.85425e-12 -5.39454e-12 39.6875

36.1269 -3.3166 2.25387e-11
-3.3166 35.39 1.0397e-11
2.25387e-11 1.0397e-11 36.5074

33.017 -3.11128 7.32181e-12
-3.11128 34.0782 4.81668e-11
7.32181e-12 4.81668e-11 34.1914

35.9644 2.25811 -3.66544e-12
2.25811 35.4046 -1.19457e-11
-3.66544e-12 -1.19457e-11 35.0495

22.0576 -1.01825 -1.04037e-11
-1.01825 25.7158 6.93786e-12
-1.04037e-11 6.93786e-12 23.129

23.841 0.605199 1.1757e-11
0.605199 26.4662 3.27549e-11
1.1757e-11 3.27549e-11 23.9802

25.6336 -0.941363 5.04853e-11
-0.941363 22.9168 -6.24326e-11
5.04853e-11 -6.24326e-11 23.4088

37.4997 2.99984 -2.88606e-12
2.99984 36.974 3.04399e-11
-2.88606e-12 3.04399e-11 37.0658

21.1131 -0.731156 -7.70752e-12
-0.731156 24.3798 1.1754e-11
-7.70752e-12 1.1754e-11 21.9076

23.7436 -0.500737 -1.70575e-11
-0.500737 20.4284 -1.40677e-11
-1.70575e-11 -1.40677e-11 21.3411

43.5101 2.20084 1.34857e-11
2.20084 41.009 -1.27142e-11
1.34857e-11 -1.27142e-11 42.3636

38.3634 -3.20113 4.43282e-12
-3.20113 37.0735 -1.23334e-11
4.43282e-12 -1.23334e-11 38.381

43.0126 2.70189 1.07907e-11
2.70189 40.4685 1.73342e-11
1.07907e-11 1.73342e-11 41.9956

38.6415 -3.13173 -2.63964e-11
-3.13173 38.2336 -4.50795e-11
-2.63964e-11 -4.50795e-11 38.8068

16.9933 1.15084 4.47079e-11
1.15084 17.1181 -1.4066e-11
4.47079e-11 -1.4066e-11 17.9243

16.8989 1.12496 8.47966e-12
1.12496 16.9573 -6.7419e-12
8.47966e-12 -6.7419e-12 17.75

38.8008 2.40711 2.50456e-11
2.40711 37.8665 6.54795e-12
2.50456e-11 6.54795e-12 38.1572

35.3528 -2.97195 1.92694e-11
-2.97195 34.6144 3.23634e-11
1.92694e-11 3.23634e-11 35.3562

43.0952 -1.8899 1.38698e-11
-1.8899 44.4574 -7.99512e-12
1.38698e-11 -7.99512e-12 43.5042

41.6674 -0.6486 -1.73389e-11
-0.6486 44.7676 1.48356e-11
-1.73389e-11 1.48356e-11 41.9346

44.436 2.74304 -1.04048e-11
2.74304 42.7786 -2.77412e-11
-1.04048e-11 -2.77412e-11 43.7324

37.0383 -2.44981 1.3681e-11
-2.44981 39.521 2.08046e-11
1.3681e-11 2.08046e-11 39.0009

44.3315 1.44266 -4.43043e-11
1.44266 38.0895 2.04257e-11
-4.43043e-11 2.04257e-11 41.9901

42.6028 -2.23092 2.23463e-11
-2.23092 38.1498 -1.54078e-11
2.23463e-11 -1.54078e-11 40.3786

34.7201 2.51635 -2.98817e-12
2.51635 36.5745 -1.92775e-12
-2.98817e-12 -1.92775e-12 36.8097

36.1376 -2.92432 -1.5798e-11
-2.92432 39.2893 -2.50455e-11
-1.5798e-11 -2.50455e-11 37.5756

42.6448 -2.03436 -2.84643e-11
-2.03436 43.1656 4.83566e-11
-2.84643e-11 4.83566e-11 42.0799

42.465 -1.8161 -1.04012e-11
-1.8161 46.7879 -3.33264e-11
-1.04012e-11 -3.33264e-11 43.783

46.8521 2.04096 5.24011e-11
2.04096 40.7673 1.11665e-11
5.24011e-11 1.11665e-11 43.7608

49.3885 0.665733 1.61901e-11
0.665733 43.1458 7.56978e-11
1.61901e-11 7.56978e-11 45.3346

45.6643 -2.20639 -5.66402e-11
-2.20639 42.5064 1.38737e-11
-5.66402e-11 1.38737e-11 42.492

48.8269 -0.470936 -5.47127e-11
-0.470936 45.3309 8.24561e-11
-5.47127e-11 8.24561e-11 44.0147

41.1334 -0.507673 -7.89583e-12
-0.507673 47.3357 8.16851e-11
-7.89583e-12 8.16851e-11 42.4815

43.4725 3.74698 2.06409e-11
3.74698 43.3927 1.03262e-10
2.06409e-11 1.03262e-10 42.3639

51.0333 2.23809 1.42544e-11
2.23809 45.2458 -2.04363e-11
1.42544e-11 -2.04363e-11 47.0861

52.412 1.85303 -9.78581e-11
1.85303 45.5893 4.61792e-10
-9.78581e-11 4.61792e-10 47.3937

53.411 0.516109 -4.46597e-10
0.516109 51.9841 -7.09648e-10
-4.46597e-10 -7.09648e-10 46.491

45.2211 -2.60436 7.86179e-11
-2.60436 47.4519 1.61048e-10
7.86179e-11 1.61048e-10 43.5353

50.1472 1.69821 -2.11936e-11
1.69821 44.1528 -3.024e-11
-2.11936e-11 -3.024e-11 46.3472

46.6972 1.36194 -7.70591e-12
1.36194 44.0435 -1.30999e-11
-7.70591e-12 -1.30999e-11 44.9945

50.0987 2.18781 -9.62977e-11
2.18781 45.1242 1.54117e-10
-9.62977e-11 1.54117e-10 46.6189

45.8121 -2.50634 3.23629e-11
-2.50634 43.4647 -2.11942e-11
3.23629e-11 -2.11942e-11 42.6859

47.8484 -1.25649 2.73549e-11
-1.25649 49.5996 -1.15589e-11
2.73549e-11 -1.15589e-11 44.7456

42.3908 -1.12119 -5.31701e-11
-1.12119 41.4476 -6.93041e-12
-5.31701e-11 -6.93041e-12 41.0978

46.3689 2.21158 -2.62072e-11
2.21158 42.2476 -3.3901e-11
-2.62072e-11 -3.3901e-11 44.2599

47.9439 1.29685 1.42514e-11
1.29685 43.2889 -9.05491e-12
1.42514e-11 -9.05491e-12 45.0615

42.8458 -2.90658 -7.68496e-13
-2.90658 41.6684 4.66218e-11
-7.68496e-13 4.66218e-11 41.408

46.3093 -1.40986 -3.31362e-11
-1.40986 43.5009 7.70605e-11
-3.31362e-11 7.70605e-11 42.8811

TENSORS Lagrange_strain float
0.00017568 3.07714e-05 8.20977e-08
3.07714e-05 0.000217826 -6.93298e-08
8.20977e-08 -6.93298e-08 0.000176603

0.000209399 2.05314e-05 -1.22004e-07
2.05314e-05 0.000244065 5.15248e-08
-1.22004e-07 5.15248e-08 0.000217347

0.000208092 1.63314e-05 -9.98572e-08
1.63314e-05 0.000241215 5.58323e-08
-9.98572e-08 5.58323e-08 0.000216463

0.000235698 9.012e-06 -9.8012e-08
9.012e-06 0.000161704 -1.87621e-07
-9.8012e-08 -1.87621e-07 0.000191471

0.000227975 3.56182e-06 1.22029e-07
3.56182e-06 0.000158044 -6.65146e-08
1.22029e-07 -6.65146e-08 0.000174874

0.000209585 1.94215e-05 -1.13863e-07
1.94215e-05 0.000244813 -4.31924e-08
-1.13863e-07 -4.31924e-08 0.00023155

0.000207815 1.78505e-05 -1.01084e-07
1.78505e-05 0.000243218 7.00814e-08
-1.01084e-07 7.00814e-08 0.000230693

0.000230157 -4.46798e-06 1.17665e-07
-4.46798e-06 0.000160953 -3.52062e-08
1.17665e-07 -3.52062e-08 0.000176377

0.000263753 7.83973e-07 4.8488e-08
7.83973e-07 0.000174642 7.23812e-08
4.8488e-08 7.23812e-08 0.000220287

0.000139082 2.98814e-05 -4.17584e-08
2.98814e-05 0.000185225 1.69024e-07
-4.17584e-08 1.69024e-07 0.000128063

0.000136743 -3.1992e-05 2.1067e-08
-3.1992e-05 0.000182066 1.05549e-07
2.1067e-08 1.05549e-07 0.000122995

0.00018167 3.09496e-05 1.49238e-07
3.09496e-05 0.000148619 -9.61157e-09
1.49238e-07 -9.61157e-09 0.000128931

0.000227449 -2.53411e-05 -4.15609e-08
-2.53411e-05 0.000249394 4.04557e-08
-4.15609e-08 4.04557e-08 0.000234821

0.000228577 -2.85567e-05 3.51654e-08
-2.85567e-05 0.000253231 3.09829e-09
3.51654e-08 3.09829e-09 0.000236166

0.000175659 2.90981e-05 8.26369e-08
2.90981e-05 0.000225524 1.64426e-08
8.26369e-08 1.64426e-08 0.000193209

0.000189825 3.47238e-05 8.18343e-08
3.47238e-05 0.000238624 -8.41505e-08
8.18343e-08 -8.41505e-08 0.000214628

0.000207003 -1.3256e-05 1.18142e-07
-1.3256e-05 0.000242256 -5.66313e-08
1.18142e-07 -5.66313e-08 0.000229921

0.000208169 -1.43299e-05 9.44806e-08
-1.43299e-05 0.000243464 -3.31521e-08
9.44806e-08 -3.31521e-08 0.000230675

0.000240368 1.31608e-05 7.27087e-08
1.31608e-05 0.000196615 2.5688e-08
7.27087e-08 2.5688e-08 0.000209987

0.000150803 1.1564e-05 5.47025e-09
1.1564e-05 0.00021217 7.73448e-08
5.47025e-09 7.73448e-08 0.000144867

0.000150233 -1.10896e-05 -8.62461e-08
-1.10896e-05 0.000212603 -1.00488e-07
-8.62461e-08 -1.00488e-07 0.000143651

0.000208091 9.56017e-06 3.23946e-08
9.56017e-06 0.000165222 6.57967e-08
3.23946e-08 6.57967e-08 0.000146767

0.00017608 3.43871e-05 -1.24965e-07
3.43871e-05 0.000209344 1.59531e-07
-1.24965e-07 1.59531e-07 0.00017512

0.000209933 -1.74889e-05 5.43265e-09
-1.74889e-05 0.000153411 -8.45632e-08
5.43265e-09 -8.45632e-08 0.00016139

0.000198322 3.16245e-05 1.00029e-07
3.16245e-05 0.000208995 1.71296e-07
1.00029e-07 1.71296e-07 0.000190407

0.000180038 3.42711e-05 1.6206e-08
3.42711e-05 0.00022301 -2.9747e-08
1.6206e-08 -2.9747e-08 0.000180445

0.000240252 -7.41619e-06 -1.03329e-07
-7.41619e-06 0.000161698 5.29665e-08
-1.03329e-07 5.29665e-08 0.000194078

0.000135301 2.66232e-05 -9.05257e-08
2.66232e-05 0.000186131 7.86622e-08
-9.05257e-08 7.86622e-08 0.000101261

0.000255214 3.277e-06 1.02369e-07
3.277e-06 0.00016985 2.05379e-08
1.02369e-07 2.05379e-08 0.000214899

0.000177797 2.66461e-05 -2.8209e-08
2.66461e-05 0.000144999 -1.09562e-07
-2.8209e-08 -1.09562e-07 0.000101544

0.000236731 4.25915e-06 4.35408e-08
4.25915e-06 0.000252499 -1.04376e-07
4.35408e-08 -1.04376e-07 0.000236668

0.000236788 1.28e-06 1.20939e-07
1.28e-06 0.000251723 -1.62196e-08
1.20939e-07 -1.62196e-08 0.000236599

0.000277267 1.51935e-05 -5.00061e-08
1.51935e-05 0.000249095 1.25293e-07
-5.00061e-08 1.25293e-07 0.000250638

0.000277098 -1.43513e-05 -2.04261e-07
-1.43513e-05 0.000249639 5.21613e-08
-2.04261e-07 5.21613e-08 0.000250397

0.000206529 -1.10869e-05 5.13657e-08
-1.10869e-05 0.000147627 -1.08682e-07
5.13657e-08 -1.08682e-07 0.000137301

0.000194451 3.3925e-05 -6.39991e-08
3.3925e-05 0.000219857 -2.27546e-08
-6.39991e-08 -2.27546e-08 0.000202999

0.000245743 6.23506e-06 2.33127e-08
6.23506e-06 0.000231553 6.68112e-09
2.33127e-08 6.68112e-09 0.00023499

0.000246603 -5.69346e-06 -3.61707e-08
-5.69346e-06 0.000232898 3.53944e-08
-3.61707e-08 3.53944e-08 0.000236301

0.000268276 5.46156e-08 3.23171e-08
5.46156e-08 0.00017011 2.36314e-08
3.23171e-08 2.36314e-08 0.000221206

0.000176445 3.71577e-05 3.29048e-08
3.71577e-05 0.000221699 -5.20064e-08
3.29048e-08 -5.20064e-08 0.000179034

0.00020784 -2.27701e-05 1.99823e-08
-2.27701e-05 0.000175719 1.21759e-08
1.99823e-08 1.21759e-08 0.000167147

0.00026415 -2.30954e-06 5.60892e-08
-2.30954e-06 0.000163992 -5.81121e-08
5.60892e-08 -5.81121e-08 0.000216096

0.000174329 -3.44582e-05 1.47697e-07
-3.44582e-05 0.000209218 -6.10767e-08
1.47697e-07 -6.10767e-08 0.000173328

0.000175648 -2.95353e-05 2.62844e-08
-2.95353e-05 0.00021827 -1.91446e-07
2.62844e-08 -1.91446e-07 0.000176361

0.000195391 3.92556e-05 -2.91711e-09
3.92556e-05 0.000244982 -1.08077e-07
-2.91711e-09 -1.08077e-07 0.000217424

0.000187079 -3.69469e-05 1.21984e-07
-3.69469e-05 0.000173428 2.09727e-08
1.21984e-07 2.09727e-08 0.000153779

4.91735e-05 7.49827e-05 -5.14745e-08
7.49827e-05 0.000100792 -5.14745e-08
-5.14745e-08 -5.14745e-08 2.46698e-05

9.427e-05 7.41208e-05 -1.77207e-08
7.41208e-05 5.39716e-05 -1.77207e-08
-1.77207e-08 -1.77207e-08 2.39077e-05

0.00020215 -3.5071e-05 -1.54721e-07
-3.5071e-05 0.000245652 -2.38471e-09
-1.54721e-07 -2.38471e-09 0.000228587

8.88762e-05 3.14777e-05 -1.30127e-08
3.14777e-05 0.000152145 6.18038e-08
-1.30127e-08 6.18038e-08 5.09103e-05

0.000142074 2.82084e-05 -3.16428e-08
2.82084e-05 9.6061e-05 -5.05188e-08
-3.16428e-08 -5.05188e-08 5.1981e-05

0.000241405 -2.45169e-05 -3.92929e-08
-2.45169e-05 0.000262671 -1.73682e-07
-3.92929e-08 -1.73682e-07 0.000249728

0.000241405 2.45169e-05 4.6317e-08
2.45169e-05 0.000262671 -1.43182e-07
4.6317e-08 -1.43182e-07 0.000249841

0.000257635 6.81299e-07 2.74246e-08
6.81299e-07 0.00020349 4.24564e-08
2.74246e-08 4.24564e-08 0.000225427

0.000242322 -2.16613e-05 3.04306e-08
-2.16613e-05 0.000257428 3.17001e-07
3.04306e-08 3.17001e-07 0.00025151

0.000242418 2.13327e-05 -5.3684e-09
2.13327e-05 0.000257315 2.20557e-07
-5.3684e-09 2.20557e-07 0.000251626

0.000179981 3.42697e-05 1.91914e-08
3.42697e-05 0.000231842 7.67891e-09
1.91914e-08 7.67891e-09 0.000196593

0.000276177 1.40261e-05 2.14346e-07
1.40261e-05 0.000233335 8.1752e-09
2.14346e-07 8.1752e-09 0.00024708

0.000276778 -1.3966e-05 -1.1876e-08
-1.3966e-05 0.000233017 8.4024e-08
-1.1876e-08 8.4024e-08 0.000246926

0.000227588 -2.83813e-05 -3.41505e-08
-2.83813e-05 0.000242509 6.9751e-08
-3.41505e-08 6.9751e-08 0.000233892

0.000227211 2.80697e-05 1.20839e-09
2.80697e-05 0.000242198 8.79839e-08
1.20839e-09 8.79839e-08 0.000234086

0.000176038 -3.05201e-05 4.38047e-08
-3.05201e-05 0.00013604 -1.12275e-07
4.38047e-08 -1.12275e-07 0.000119224

0.000238099 1.37979e-05 -3.15934e-08
1.37979e-05 0.000273622 -3.06407e-08
-3.15934e-08 -3.06407e-08 0.000247403

0.000236677 1.08768e-05 -2.96794e-08
1.08768e-05 0.00027324 -8.3562e-08
-2.96794e-08 -8.3562e-08 0.000246461

0.000176607 -3.79371e-05 -1.9261e-08
-3.79371e-05 0.000222977 -1.04824e-07
-1.9261e-08 -1.04824e-07 0.000179896

0.000125106 -2.50857e-05 1.56786e-08
-2.50857e-05 0.000185645 1.13119e-07
1.56786e-08 1.13119e-07 9.38327e-05

0.000179458 -2.4874e-05 -2.65288e-08
-2.4874e-05 0.000127058 -6.56771e-08
-2.65288e-08 -6.56771e-08 9.24281e-05

0.000188858 2.98362e-05 7.70939e-08
2.98362e-05 0.000241273 -9.10704e-08
7.70939e-08 -9.10704e-08 0.000211376

0.000186919 2.78556e-05 9.2204e-08
2.78556e-05 0.000235568 -8.17229e-08
9.2204e-08 -8.17229e-08 0.000209786

0.000289961 -4.18932e-05 -4.3145e-07
-4.18932e-05 0.000263341 8.86443e-07
-4.3145e-07 8.86443e-07 0.000270345

0.000291613 4.07805e-05 7.38687e-08
4.07805e-05 0.000261001 2.51844e-07
7.38687e-08 2.51844e-07 0.000270404

0.000196903 4.24635e-05 1.01994e-07
4.24635e-05 0.000243021 -4.68302e-08
1.01994e-07 -4.68302e-08 0.000221535

0.00023461 2.09272e-05 -5.472e-09
2.09272e-05 0.000217929 -1.21938e-08
-5.472e-09 -1.21938e-08 0.000224172

0.000235105 -2.11958e-05 1.63909e-08
-2.11958e-05 0.000217026 -6.25364e-08
1.63909e-08 -6.25364e-08 0.000223489

0.000197288 4.06875e-05 1.79715e-08
4.06875e-05 0.000234717 9.63916e-08
1.79715e-08 9.63916e-08 0.000219002

0.000205126 -3.69864e-05 -9.32808e-08
-3.69864e-05 0.000250223 -4.70532e-08
-9.32808e-08 -4.70532e-08 0.000230279

0.000203721 -4.4935e-07 1.71371e-08
-4.4935e-07 0.000135059 1.28577e-07
1.71371e-08 1.28577e-07 0.000134976

0.000214412 1.64996e-05 -1.71094e-07
1.64996e-05 0.000152279 8.99863e-09
-1.71094e-07 8.99863e-09 0.000157561

0.000246997 6.79982e-06 3.82101e-08
6.79982e-06 0.000202173 -5.90174e-08
3.82101e-08 -5.90174e-08 0.0002305

0.000262837 -1.03259e-05 9.83873e-08
-1.03259e-05 0.00025722 2.03342e-07
9.83873e-08 2.03342e-07 0.000252561

0.000261621 9.27344e-06 2.24382e-07
9.27344e-06 0.000257956 -2.00385e-09
2.24382e-07 -2.00385e-09 0.000252738

0.000169448 3.06836e-05 1.83156e-07
3.06836e-05 0.000184968 1.5345e-07
1.83156e-07 1.5345e-07 0.000138785

0.000202071 -2.66486e-05 -4.37371e-09
-2.66486e-05 0.000188936 3.61407e-08
-4.37371e-09 3.61407e-08 0.000186161

0.00023999 1.61002e-05 7.11123e-08
1.61002e-05 0.000205862 5.27995e-08
7.11123e-08 5.27995e-08 0.000210521

0.000246035 8.94995e-06 -2.90878e-08
8.94995e-06 0.000270793 -3.00313e-08
-2.90878e-08 -3.00313e-08 0.000250656

0.000245896 7.24485e-06 3.40115e-07
7.24485e-06 0.000270928 6.39033e-09
3.40115e-07 6.39033e-09 0.000250248

0.000248298 -4.93525e-06 -6.58767e-08
-4.93525e-06 0.0002056 -9.7843e-08
-6.58767e-08 -9.7843e-08 0.000232482

0.000207332 -1.0448e-05 1.17492e-07
-1.0448e-05 0.000242106 -6.77009e-08
1.17492e-07 -6.77009e-08 0.000216003

0.00020817 -1.4296e-05 9.14391e-08
-1.4296e-05 0.000244278 -7.309e-08
9.14391e-08 -7.309e-08 0.000216722

0.000261001 -9.89242e-06 1.65241e-07
-9.89242e-06 0.000214409 -8.0263e-08
1.65241e-07 -8.0263e-08 0.000238605

0.000261568 1.00634e-05 7.77581e-08
1.00634e-05 0.000214371 7.64588e-08
7.77581e-08 7.64588e-08 0.000239294

0.000181593 -3.0434e-05 9.77525e-08
-3.0434e-05 0.000180644 6.75155e-08
9.77525e-08 6.75155e-08 0.000140251

0.000234125 1.88357e-06 -5.42614e-08
1.88357e-06 0.000186884 -3.79169e-08
-5.42614e-08 -3.79169e-08 0.000190425

0.000257592 -1.51192e-05 -7.9606e-10
-1.51192e-05 0.000230646 1.40726e-07
-7.9606e-10 1.40726e-07 0.000247362

0.000257305 1.47068e-05 -4.57941e-08
1.47068e-05 0.000230664 -1.72225e-07
-4.57941e-08 -1.72225e-07 0.000247608

0.000239607 -1.66012e-05 -1.37235e-07
-1.66012e-05 0.000206568 6.2464e-08
-1.37235e-07 6.2464e-08 0.000209971

0.00018037 -3.44448e-05 1.11081e-07
-3.44448e-05 0.000225732 6.30063e-08
1.11081e-07 6.30063e-08 0.000181686

0.000260343 -1.11514e-05 1.72665e-07
-1.11514e-05 0.000219286 -4.13373e-08
1.72665e-07 -4.13373e-08 0.000236739

0.000260877 1.12384e-05 9.76996e-08
1.12384e-05 0.000219378 -2.09092e-08
9.76996e-08 -2.09092e-08 0.000237506

0.000236402 -7.27525e-06 -1.03212e-07
-7.27525e-06 0.000179606 5.27077e-08
-1.03212e-07 5.27077e-08 0.000200343

0.000203331 4.85116e-05 5.57294e-08
4.85116e-05 0.000248107 -5.56464e-08
5.57294e-08 -5.56464e-08 0.000224295

0.000199055 2.65907e-05 -1.66347e-07
2.65907e-05 0.00018704 -1.32941e-07
-1.66347e-07 -1.32941e-07 0.000167641

0.00019648 4.10259e-05 -3.52539e-08
4.10259e-05 0.000245287 -7.50686e-08
-3.52539e-08 -7.50686e-08 0.000222883

0.000200541 4.57421e-05 3.85893e-08
4.57421e-05 0.000251146 -2.98735e-08
3.85893e-08 -2.98735e-08 0.000224658

0.000216135 1.99035e-05 -1.2085e-07
1.99035e-05 0.000172866 -2.74023e-09
-1.2085e-07 -2.74023e-09 0.000172006

0.000221506 -1.62351e-05 4.25618e-08
-1.62351e-05 0.000197418 -1.14714e-07
4.25618e-08 -1.14714e-07 0.000211995

0.000232908 9.04808e-06 -1.74516e-09
9.04808e-06 0.000180406 6.0375e-08
-1.74516e-09 6.0375e-08 0.000196332

0.000176072 3.37134e-05 -1.39655e-07
3.37134e-05 0.000184945 -1.4308e-07
-1.39655e-07 -1.4308e-07 0.000159594

0.000199075 2.73804e-05 1.06704e-07
2.73804e-05 0.000188272 8.22059e-08
1.06704e-07 8.22059e-08 0.000184789

0.000182646 2.49785e-06 -1.28388e-07
2.49785e-06 0.000233716 4.11462e-08
-1.28388e-07 4.11462e-08 0.000208416

0.00018312 3.81601e-06 -1.16945e-07
3.81601e-06 0.00023382 5.41278e-08
-1.16945e-07 5.41278e-08 0.000208547

0.000181933 -3.43839e-05 1.02277e-07
-3.43839e-05 0.000154627 -5.08447e-08
1.02277e-07 -5.08447e-08 0.000131706

0.000197335 -4.08279e-05 3.64259e-09
-4.08279e-05 0.000235124 5.33337e-08
3.64259e-09 5.33337e-08 0.000219433

0.000177791 -4.02602e-05 -2.21475e-08
-4.02602e-05 0.000205381 -8.66757e-08
-2.21475e-08 -8.66757e-08 0.000163931

0.0001777 4.13573e-05 3.08252e-08
4.13573e-05 0.000204495 -6.93312e-08
3.08252e-08 -6.93312e-08 0.000163575

0.000227206 -1.49621e-05 -1.13487e-07
-1.49621e-05 0.000190141 3.01653e-08
-1.13487e-07 3.01653e-08 0.000198178

0.000267519 -2.19763e-06 1.27282e-07
-2.19763e-06 0.000176865 -5.07786e-09
1.27282e-07 -5.07786e-09 0.000230163

0.000267495 2.37553e-06 5.09015e-08
2.37553e-06 0.000177064 4.66716e-08
5.09015e-08 4.66716e-08 0.000229299

0.000159223 2.19733e-05 -8.4562e-08
2.19733e-05 0.000213319 -1.40193e-07
-8.4562e-08 -1.40193e-07 0.000165972

0.000198447 -3.30841e-05 -2.02451e-08
-3.30841e-05 0.000208407 -3.84002e-08
-2.02451e-08 -3.84002e-08 0.000189656

0.000128067 -6.62835e-07 2.51627e-08
-6.62835e-07 0.000206631 8.3731e-08
2.51627e-08 8.3731e-08 0.000135853

0.000127451 1.68743e-06 -1.20226e-07
1.68743e-06 0.000207099 -9.06069e-08
-1.20226e-07 -9.06069e-08 0.000134985

0.00020434 -3.4776e-07 2.43131e-09
-3.4776e-07 0.000139063 -1.14545e-08
2.43131e-09 -1.14545e-08 0.000137307

0.000181242 3.23032e-05 1.80396e-07
3.23032e-05 0.000181888 1.83654e-07
1.80396e-07 1.83654e-07 0.000139699

0.000190868 -3.7898e-05 3.0021e-08
-3.7898e-05 0.000186472 1.31428e-07
3.0021e-08 1.31428e-07 0.000165085

0.000246881 -1.78004e-05 2.30214e-07
-1.78004e-05 0.000286713 4.12419e-08
2.30214e-07 4.12419e-08 0.000254103

0.000247108 -1.68098e-05 -3.40415e-07
-1.68098e-05 0.000287023 6.86945e-08
-3.40415e-07 6.86945e-08 0.000254294

0.00021883 -1.9465e-05 -3.17702e-08
-1.9465e-05 0.000173314 -7.3199e-08
-3.17702e-08 -7.3199e-08 0.00017415

0.000192196 4.50996e-05 -2.65296e-08
4.50996e-05 0.000241386 -2.97154e-08
-2.65296e-08 -2.97154e-08 0.000208242

0.000257762 -1.12912e-06 2.81459e-08
-1.12912e-06 0.000203154 2.18197e-08
2.81459e-08 2.18197e-08 0.000224897

0.000158666 -2.15883e-05 -5.81864e-08
-2.15883e-05 0.000215084 -1.66875e-07
-5.81864e-08 -1.66875e-07 0.000166343

0.000205218 4.0305e-05 1.91602e-08
4.0305e-05 0.000252734 1.22526e-08
1.91602e-08 1.22526e-08 0.0002315

0.000200047 3.79559e-05 4.60724e-08
3.79559e-05 0.000247789 7.44186e-08
4.60724e-08 7.44186e-08 0.000229283

0.00020373 -4.82443e-05 -3.64504e-08
-4.82443e-05 0.000247986 2.25274e-09
-3.64504e-08 2.25274e-09 0.000224595

0.000201542 4.64123e-05 2.87994e-08
4.64123e-05 0.0002561 -1.5234e-07
2.87994e-08 -1.5234e-07 0.00022766

0.000187748 3.91649e-05 6.01431e-08
3.91649e-05 0.000233572 -6.03032e-09
6.01431e-08 -6.03032e-09 0.000205109

0.000277218 -1.63764e-09 2.52064e-08
-1.63764e-09 0.000224387 1.47757e-07
2.52064e-08 1.47757e-07 0.000255456

0.000191708 3.71344e-05 -1.09106e-07
3.71344e-05 0.000183407 -2.54643e-08
-1.09106e-07 -2.54643e-08 0.000163515

0.000196502 -4.1254e-05 1.79649e-08
-4.1254e-05 0.00024515 1.04258e-08
1.79649e-08 1.04258e-08 0.000222919

0.000190632 3.24699e-05 -9.73729e-08
3.24699e-05 0.000205537 9.90125e-08
-9.73729e-08 9.90125e-08 0.000172512

0.000163096 -2.79437e-05 4.32348e-08
-2.79437e-05 0.000182484 1.07002e-07
4.32348e-08 1.07002e-07 0.00013263

0.000194164 -3.43888e-05 -5.85997e-08
-3.43888e-05 0.000221576 1.81767e-08
-5.85997e-08 1.81767e-08 0.000203236

0.000156005 -1.96156e-05 1.02357e-07
-1.96156e-05 0.000219157 3.97702e-08
1.02357e-07 3.97702e-08 0.000150359

0.000155128 1.91138e-05 1.19976e-07
1.91138e-05 0.000217835 3.8416e-08
1.19976e-07 3.8416e-08 0.00014966

0.00020985 -1.34771e-05 4.19519e-08
-1.34771e-05 0.000170206 -9.92037e-08
4.19519e-08 -9.92037e-08 0.000150873

0.000190511 -3.3267e-05 3.55727e-08
-3.3267e-05 0.000205413 -2.33438e-08
3.55727e-08 -2.33438e-08 0.000171855

0.000182977 5.24011e-06 -1.18175e-07
5.24011e-06 0.000234593 7.88675e-08
-1.18175e-07 7.88675e-08 0.000188234

0.000182887 7.10029e-08 -1.22542e-07
7.10029e-08 0.000233948 -7.62024e-08
-1.22542e-07 -7.62024e-08 0.000188167

0.000155861 -3.85499e-05 -2.35533e-08
-3.85499e-05 0.000180016 -3.97788e-09
-2.35533e-08 -3.97788e-09 0.000129324

0.000154099 3.90439e-05 1.47681e-07
3.90439e-05 0.000181585 1.99128e-07
1.47681e-07 1.99128e-07 0.000130869

0.000276065 -3.47426e-06 -1.42684e-07
-3.47426e-06 0.000216068 -1.29174e-07
-1.42684e-07 -1.29174e-07 0.00025134

0.000275948 3.67837e-06 7.1514e-08
3.67837e-06 0.000216146 7.75373e-08
7.1514e-08 7.75373e-08 0.000251618

0.000196881 4.24147e-05 4.66337e-08
4.24147e-05 0.000242839 -6.17223e-08
4.66337e-08 -6.17223e-08 0.000212581

0.000199872 -3.85762e-05 7.30144e-08
-3.85762e-05 0.000248447 -8.37409e-08
7.30144e-08 -8.37409e-08 0.000228579

0.0002044 2.81922e-05 8.72834e-08
2.81922e-05 0.000218938 -1.13832e-08
8.72834e-08 -1.13832e-08 0.000211926

0.000178369 3.10878e-05 1.58345e-07
3.10878e-05 0.000137908 -5.32153e-08
1.58345e-07 -5.32153e-08 0.000111133

0.000160404 2.66247e-05 9.42493e-08
2.66247e-05 0.000222336 -2.60826e-08
9.42493e-08 -2.60826e-08 0.000168899

0.000244954 1.83672e-05 -9.20222e-08
1.83672e-05 0.000242669 9.02989e-08
-9.20222e-08 9.02989e-08 0.000244035

0.000244659 -1.86392e-05 1.90559e-07
-1.86392e-05 0.000243069 7.63747e-08
1.90559e-07 7.63747e-08 0.000243889

0.000234284 -2.5352e-05 2.28251e-08
-2.5352e-05 0.000229115 1.09211e-08
2.28251e-08 1.09211e-08 0.000223094

0.000233811 2.51466e-05 -1.27728e-08
2.51466e-05 0.000229061 7.35e-08
-1.27728e-08 7.35e-08 0.000223309

9.18099e-05 8.29814e-06 -9.23336e-09
8.29814e-06 0.000191525 -9.37183e-08
-9.23336e-09 -9.37183e-08 5.03486e-05

0.000180791 8.61362e-06 -9.58085e-08
8.61362e-06 0.000101595 5.31929e-08
-9.58085e-08 5.31929e-08 5.03891e-05

0.000159332 -2.52825e-05 9.3674e-08
-2.52825e-05 0.000223547 6.54869e-08
9.3674e-08 6.54869e-08 0.000169846

0.000264569 -2.01065e-05 1.9223e-07
-2.01065e-05 0.000269847 -2.28356e-07
1.9223e-07 -2.28356e-07 0.000264789

0.000264569 2.01065e-05 -9.49686e-08
2.01065e-05 0.000269847 -1.90707e-07
-9.49686e-08 -1.90707e-07 0.000264886

0.000214247 3.08728e-05 -2.44107e-08
3.08728e-05 0.000215462 1.24639e-07
-2.44107e-08 1.24639e-07 0.000199778

0.000190034 1.69499e-05 1.06671e-07
1.69499e-05 0.000123693 9.41155e-08
1.06671e-07 9.41155e-08 0.000110366

0.000234167 -3.22471e-06 -5.40634e-08
-3.22471e-06 0.000187043 -8.62065e-08
-5.40634e-08 -8.62065e-08 0.000190479

0.000187083 -2.22636e-05 8.13806e-08
-2.22636e-05 0.000235345 -8.58386e-08
8.13806e-08 -8.58386e-08 0.000209889

0.000189837 -2.44727e-05 1.20813e-08
-2.44727e-05 0.000238715 -1.11675e-07
1.20813e-08 -1.11675e-07 0.000211597

0.000175192 -3.67596e-05 1.35796e-07
-3.67596e-05 0.000188896 3.65128e-08
1.35796e-07 3.65128e-08 0.000156465

0.000201597 -4.65648e-05 -3.77846e-08
-4.65648e-05 0.000256499 6.16883e-09
-3.77846e-08 6.16883e-09 0.000227937

0.000213884 -3.13301e-05 -4.09564e-08
-3.13301e-05 0.00021592 -2.96828e-08
-4.09564e-08 -2.96828e-08 0.000199328

0.000192184 4.48506e-05 -4.26781e-08
4.48506e-05 0.000243642 -6.37045e-08
-4.26781e-08 -6.37045e-08 0.000221862

0.000227649 3.24841e-05 -4.77651e-08
3.24841e-05 0.000253661 1.6629e-08
-4.77651e-08 1.6629e-08 0.00023693

0.000226791 2.95099e-05 -8.66987e-08
2.95099e-05 0.00024878 8.31012e-08
-8.66987e-08 8.31012e-08 0.00023558

0.000196701 -4.26868e-05 -2.68141e-08
-4.26868e-05 0.000243868 -3.45666e-09
-2.68141e-08 -3.45666e-09 0.000213251

0.000192901 3.83603e-05 -7.27171e-08
3.83603e-05 0.000233538 3.81531e-08
-7.27171e-08 3.81531e-08 0.000208134

0.000200745 2.65995e-05 -1.43291e-07
2.65995e-05 0.000160316 -4.1156e-08
-1.43291e-07 -4.1156e-08 0.000155251

0.000199639 4.92895e-05 -4.02031e-08
4.92895e-05 0.000251797 -3.70286e-08
-4.02031e-08 -3.70286e-08 0.000225976

0.000175694 -3.017e-05 8.66553e-09
-3.017e-05 0.00022709 5.17165e-08
8.66553e-09 5.17165e-08 0.00019393

0.000164802 1.17357e-05 -1.03559e-07
1.17357e-05 0.000226615 -8.64978e-08
-1.03559e-07 -8.64978e-08 0.000181551

0.000210962 3.58277e-05 -7.35245e-08
3.58277e-05 0.000226443 8.23103e-08
-7.35245e-08 8.23103e-08 0.000212497

0.000168807 1.51446e-05 9.17459e-08
1.51446e-05 0.000228407 -1.99822e-08
9.17459e-08 -1.99822e-08 0.000183509

0.000205102 -4.19699e-05 -1.5622e-08
-4.19699e-05 0.000253719 -7.42671e-08
-1.5622e-08 -7.42671e-08 0.000230755

0.000123636 -3.59395e-05 -6.5137e-09
-3.59395e-05 0.000127597 -1.36828e-07
-6.5137e-09 -1.36828e-07 7.17933e-05

0.000125063 -3.63266e-05 7.29822e-08
-3.63266e-05 0.000125328 -5.58637e-08
7.29822e-08 -5.58637e-08 7.14735e-05

0.000210736 -3.61613e-05 -7.23615e-08
-3.61613e-05 0.000226483 -2.83006e-09
-7.23615e-08 -2.83006e-09 0.000212298

0.00023986 -1.35281e-05 -1.41157e-07
-1.35281e-05 0.000196567 -3.88369e-08
-1.41157e-07 -3.88369e-08 0.000209511

0.000291001 4.20122e-05 8.90176e-09
4.20122e-05 0.000270477 9.5485e-08
8.90176e-09 9.5485e-08 0.000270417

0.000288879 -4.20743e-05 -1.33647e-08
-4.20743e-05 0.000270477 -1.19786e-07
-1.33647e-08 -1.19786e-07 0.000270399

0.000192568 -4.46639e-05 1.06852e-07
-4.46639e-05 0.000242922 6.18132e-08
1.06852e-07 6.18132e-08 0.000209699

0.000240267 9.29271e-06 1.5175e-07
9.29271e-06 0.000248317 1.70858e-07
1.5175e-07 1.70858e-07 0.000244799

0.000241029 -8.66728e-06 -1.82667e-08
-8.66728e-06 0.000248841 1.31957e-08
-1.82667e-08 1.31957e-08 0.000244752

0.000254175 6.64351e-07 -8.31226e-08
6.64351e-07 0.000165162 -1.96291e-07
-8.31226e-08 -1.96291e-07 0.000203431

0.000191909 -4.5013e-05 -1.07138e-08
-4.5013e-05 0.000244015 -3.16783e-08
-1.07138e-08 -3.16783e-08 0.000221679

0.000134358 4.37808e-05 -1.51025e-07
4.37808e-05 0.000138242 -6.04758e-08
-1.51025e-07 -6.04758e-08 8.87277e-05

0.000130614 4.15255e-05 -4.26741e-08
4.15255e-05 0.000138987 -6.26029e-08
-4.26741e-08 -6.26029e-08 8.96832e-05

0.00012979 -3.11862e-05 -1.02869e-07
-3.11862e-05 0.000187002 6.51966e-08
-1.02869e-07 6.51966e-08 0.000104622

0.000132543 3.26844e-05 -1.53187e-07
3.26844e-05 0.00018938 -9.11601e-08
-1.53187e-07 -9.11601e-08 0.000107285

0.000181903 -2.59596e-05 1.01215e-07
-2.59596e-05 0.000139079 -4.9864e-08
1.01215e-07 -4.9864e-08 0.000104802

0.000199595 -4.93327e-05 -2.08798e-09
-4.93327e-05 0.000252798 6.44729e-08
-2.08798e-09 6.44729e-08 0.000226081

9.2847e-05 1.151e-05 1.79477e-08
1.151e-05 0.000180866 1.11625e-07
1.79477e-08 1.11625e-07 8.92382e-05

0.000174254 1.46864e-05 2.86982e-08
1.46864e-05 0.000104637 8.1031e-08
2.86982e-08 8.1031e-08 9.02087e-05

0.000234733 -1.53178e-05 -2.50815e-08
-1.53178e-05 0.00025991 7.41855e-08
-2.50815e-08 7.41855e-08 0.00024335

0.000236622 -1.84269e-05 1.12439e-07
-1.84269e-05 0.000260997 1.61256e-07
1.12439e-07 1.61256e-07 0.000244261

0.000247414 5.75739e-06 3.51473e-08
5.75739e-06 0.00019981 -6.1933e-08
3.51473e-08 -6.1933e-08 0.000216761

0.000268825 3.63172e-07 5.90728e-08
3.63172e-07 0.000163623 -5.45064e-08
5.90728e-08 -5.45064e-08 0.0002213

0.000152687 -2.83176e-05 -1.11697e-08
-2.83176e-05 0.000203094 -9.59331e-08
-1.11697e-08 -9.59331e-08 0.000146234

0.000151578 2.76788e-05 1.30131e-07
2.76788e-05 0.000202347 2.61777e-08
1.30131e-07 2.61777e-08 0.000145747

0.000254478 -8.05378e-08 -1.25502e-07
-8.05378e-08 0.000164249 3.50103e-08
-1.25502e-07 3.50103e-08 0.000204534

0.000180279 -3.40634e-05 1.11409e-07
-3.40634e-05 0.000233861 5.82548e-08
1.11409e-07 5.82548e-08 0.000197922

0.000262936 -1.48215e-05 -1.97747e-07
-1.48215e-05 0.000259658 2.31215e-07
-1.97747e-07 2.31215e-07 0.000259197

0.000262546 1.45538e-05 1.91468e-07
1.45538e-05 0.000259569 1.46846e-07
1.91468e-07 1.46846e-07 0.000259302

0.000218515 2.01449e-05 -1.24588e-07
2.01449e-05 0.00022204 1.78155e-07
-1.24588e-07 1.78155e-07 0.000214389

0.000191979 -3.82001e-05 -4.48938e-08
-3.82001e-05 0.000233899 8.24514e-08
-4.48938e-08 8.24514e-08 0.00020796

0.000247653 5.7483e-06 4.93193e-08
5.7483e-06 0.000174542 8.312e-08
4.93193e-08 8.312e-08 0.000211714

0.000170134 3.19495e-05 2.12366e-07
3.19495e-05 0.000164202 3.78193e-08
2.12366e-07 3.78193e-08 0.000133433

0.000188021 -3.92542e-05 -3.55159e-08
-3.92542e-05 0.000233749 8.66525e-08
-3.55159e-08 8.66525e-08 0.0002054

6.77717e-05 -6.90171e-05 -6.11178e-08
-6.90171e-05 7.02626e-05 6.11178e-08
-6.11178e-08 6.11178e-08 1.59797e-05

0.000166449 -9.46056e-06 6.50393e-08
-9.46056e-06 0.000225049 1.57145e-07
6.50393e-08 1.57145e-07 0.000181642

0.000169812 -1.30038e-05 5.8639e-08
-1.30038e-05 0.000226359 -1.23811e-08
5.8639e-08 -1.23811e-08 0.000183061

0.000238189 -3.2491e-06 1.57472e-07
-3.2491e-06 0.000256673 -2.30418e-07
1.57472e-07 -2.30418e-07 0.000245273

0.000238655 -1.65389e-06 2.00052e-08
-1.65389e-06 0.000255702 3.36214e-08
2.00052e-08 3.36214e-08 0.0002453

0.000277532 -1.06764e-05 -2.42863e-07
-1.06764e-05 0.000232381 1.68944e-09
-2.42863e-07 1.68944e-09 0.000260669

0.000277156 1.07694e-05 -6.14773e-08
1.07694e-05 0.000232579 -9.58124e-08
-6.14773e-08 -9.58124e-08 0.000260934

0.000221189 -2.12247e-05 5.15892e-09
-2.12247e-05 0.000226105 4.71831e-08
5.15892e-09 4.71831e-08 0.00022854

0.000221348 2.17803e-05 -2.5563e-07
2.17803e-05 0.000222931 1.20431e-07
-2.5563e-07 1.20431e-07 0.000227021

0.000235916 -1.868e-05 -2.01089e-08
-1.868e-05 0.000256153 5.36101e-09
-2.01089e-08 5.36101e-09 0.000242423

0.000235131 1.94209e-05 1.94797e-07
1.94209e-05 0.000256 -1.39193e-08
1.94797e-07 -1.39193e-08 0.00024239

0.000273693 2.89713e-05 -8.85132e-08
2.89713e-05 0.000272062 1.01183e-07
-8.85132e-08 1.01183e-07 0.000266914

0.000273693 -2.89713e-05 3.70571e-07
-2.89713e-05 0.000272062 -9.73262e-08
3.70571e-07 -9.73262e-08 0.000266853

0.000213825 -4.80022e-05 2.67313e-08
-4.80022e-05 0.000256582 -6.84049e-09
2.67313e-08 -6.84049e-09 0.000236634

0.000214285 4.81735e-05 -2.55956e-08
4.81735e-05 0.000256262 -1.64201e-07
-2.55956e-08 -1.64201e-07 0.00023674

0.000216056 2.88053e-05 -9.70222e-09
2.88053e-05 0.000202549 6.50983e-08
-9.70222e-09 6.50983e-08 0.000196938

0.000187024 -2.27119e-05 1.10578e-07
-2.27119e-05 0.000231985 1.15124e-07
1.10578e-07 1.15124e-07 0.000195841

0.000188534 -2.83706e-05 3.37181e-08
-2.83706e-05 0.00023765 1.46986e-08
3.37181e-08 1.46986e-08 0.000198185

0.000175634 -2.86059e-05 2.9876e-08
-2.86059e-05 0.000167381 9.30295e-08
2.9876e-08 9.30295e-08 0.000129944

0.000215559 -2.86276e-05 -1.77998e-08
-2.86276e-05 0.000203382 8.12312e-08
-1.77998e-08 8.12312e-08 0.000196605

0.000186675 2.13579e-05 9.3886e-08
2.13579e-05 0.000230821 7.26551e-09
9.3886e-08 7.26551e-09 0.000195123

0.000197784 3.99922e-05 -6.25687e-08
3.99922e-05 0.000213257 1.29907e-07
-6.25687e-08 1.29907e-07 0.000189824

0.000203238 -4.16458e-05 2.99131e-08
-4.16458e-05 0.000244693 6.5424e-09
2.99131e-08 6.5424e-09 0.00023038

0.000203898 4.07481e-05 -1.41903e-07
4.07481e-05 0.000244355 -1.09092e-07
-1.41903e-07 -1.09092e-07 0.000230613

0.000197635 -4.079e-05 2.88443e-08
-4.079e-05 0.000213111 -1.74911e-08
2.88443e-08 -1.74911e-08 0.00018931

0.000249495 -3.90907e-06 -2.31258e-08
-3.90907e-06 0.000202629 -1.37861e-07
-2.31258e-08 -1.37861e-07 0.000220207

0.000252431 1.07861e-05 1.38345e-07
1.07861e-05 0.00027335 -4.11599e-08
1.38345e-07 -4.11599e-08 0.000253741

0.000253408 9.27207e-06 -2.56268e-07
9.27207e-06 0.000272565 -5.23842e-08
-2.56268e-07 -5.23842e-08 0.000254048

0.000205069 -3.57839e-05 -9.34627e-08
-3.57839e-05 0.00024706 -3.96495e-08
-9.34627e-08 -3.96495e-08 0.000219663

0.000218248 1.73493e-05 -1.37921e-07
1.73493e-05 0.000195266 -1.19673e-09
-1.37921e-07 -1.19673e-09 0.000208619

0.000267681 -4.33077e-06 1.06995e-07
-4.33077e-06 0.000207706 -8.58042e-08
1.06995e-07 -8.58042e-08 0.000236507

0.000131891 -3.85723e-05 -1.07343e-07
-3.85723e-05 0.000137729 1.07724e-07
-1.07343e-07 1.07724e-07 7.96888e-05

0.000133029 -3.76947e-05 -2.4649e-07
-3.76947e-05 0.000138156 -6.48801e-08
-2.4649e-07 -6.48801e-08 8.04915e-05

0.000276459 -1.20815e-05 -1.29257e-07
-1.20815e-05 0.000230546 1.42743e-07
-1.29257e-07 1.42743e-07 0.000258557

0.000276029 1.23478e-05 1.73788e-09
1.23478e-05 0.000230425 -1.70171e-07
1.73788e-09 -1.70171e-07 0.000258711

0.000268128 3.54968e-06 1.19948e-07
3.54968e-06 0.000209149 -3.02581e-08
1.19948e-07 -3.02581e-08 0.000237141

0.000188821 2.79312e-05 7.76828e-08
2.79312e-05 0.00023635 -3.04651e-08
7.76828e-08 -3.04651e-08 0.00019785

0.000216267 2.21641e-05 -1.21381e-07
2.21641e-05 0.000192523 -1.82135e-08
-1.21381e-07 -1.82135e-08 0.000177986

0.000226659 -3.17311e-05 -4.15363e-08
-3.17311e-05 0.000248646 1.04342e-08
-4.15363e-08 1.04342e-08 0.000233046

0.000226223 3.15828e-05 1.51189e-08
3.15828e-05 0.000248907 -2.27827e-08
1.51189e-08 -2.27827e-08 0.000233221

0.000274223 -5.46316e-06 -1.42171e-07
-5.46316e-06 0.000243131 -3.0745e-07
-1.42171e-07 -3.0745e-07 0.000253654

0.000274327 5.78545e-06 -4.46757e-08
5.78545e-06 0.00024724 1.58867e-07
-4.46757e-08 1.58867e-07 0.000254077

0.000193752 -4.10792e-05 1.03023e-07
-4.10792e-05 0.00024463 3.95694e-08
1.03023e-07 3.95694e-08 0.000218028

0.000225787 1.75722e-05 -1.53507e-08
1.75722e-05 0.000190529 9.96461e-08
-1.53507e-08 9.96461e-08 0.000194573

0.000257434 1.19629e-05 -5.11913e-08
1.19629e-05 0.000242146 4.67841e-08
-5.11913e-08 4.67841e-08 0.000248327

0.000257722 -1.20993e-05 -6.99588e-09
-1.20993e-05 0.000242025 -1.36124e-07
-6.99588e-09 -1.36124e-07 0.000248225

0.000202615 -3.18953e-05 -1.49342e-07
-3.18953e-05 0.00024123 7.45872e-08
-1.49342e-07 7.45872e-08 0.000217572

0.000194729 -4.38178e-05 9.8763e-08
-4.38178e-05 0.000243533 -5.00861e-08
9.8763e-08 -5.00861e-08 0.000221047

6.963e-05 -7.15325e-05 1.07472e-07
-7.15325e-05 7.3435e-05 -1.07472e-07
1.07472e-07 -1.07472e-07 1.75244e-05

0.000212268 2.98509e-05 -2.07301e-07
2.98509e-05 0.000254292 2.26431e-08
-2.07301e-07 2.26431e-08 0.000235021

0.000211858 -3.04271e-05 3.09762e-08
-3.04271e-05 0.00025472 8.7004e-09
3.09762e-08 8.7004e-09 0.000235124

0.000188313 -3.79328e-05 -3.14459e-08
-3.79328e-05 0.000238832 1.1226e-07
-3.14459e-08 1.1226e-07 0.000214995

0.000219315 -2.38607e-05 -4.30781e-08
-2.38607e-05 0.000193183 1.01725e-07
-4.30781e-08 1.01725e-07 0.000179817

0.000221743 -1.90699e-05 3.45864e-08
-1.90699e-05 0.000223002 2.76579e-08
3.45864e-08 2.76579e-08 0.000216509

0.000217504 2.58828e-05 -2.21882e-07
2.58828e-05 0.000239062 6.47837e-09
-2.21882e-07 6.47837e-09 0.000229461

0.000217141 -2.70338e-05 3.39979e-09
-2.70338e-05 0.000239833 4.05519e-08
3.39979e-09 4.05519e-08 0.000229692

0.000249495 -3.87112e-06 -2.35221e-08
-3.87112e-06 0.000175079 2.21926e-08
-2.35221e-08 2.21926e-08 0.00021499

0.000274143 9.49512e-06 8.626e-08
9.49512e-06 0.000248679 2.49934e-07
8.626e-08 2.49934e-07 0.000263831

0.000274585 -9.22824e-06 -1.12595e-07
-9.22824e-06 0.000248464 5.99245e-08
-1.12595e-07 5.99245e-08 0.000263793

0.000246783 4.14333e-06 -1.31802e-08
4.14333e-06 0.00029267 1.12746e-07
-1.31802e-08 1.12746e-07 0.00025188

0.000247258 2.71494e-06 -2.80727e-07
2.71494e-06 0.00029223 -2.75404e-08
-2.80727e-07 -2.75404e-08 0.000252018

8.57181e-05 2.99624e-06 7.36982e-08
2.99624e-06 0.000191258 4.3729e-09
7.36982e-08 4.3729e-09 4.89708e-05

0.000179896 2.68272e-06 -5.92545e-08
2.68272e-06 8.90496e-05 -9.77956e-09
-5.92545e-08 -9.77956e-09 4.89595e-05

0.000211118 -4.10235e-05 -1.40653e-07
-4.10235e-05 0.000254697 -1.22148e-07
-1.40653e-07 -1.22148e-07 0.000228657

0.000211343 4.11437e-05 -3.76674e-08
4.11437e-05 0.000254569 4.86992e-08
-3.76674e-08 4.86992e-08 0.000228788

0.000198 -4.67129e-05 9.47542e-08
-4.67129e-05 0.000252094 5.08785e-08
9.47542e-08 5.08785e-08 0.000224232

7.60267e-05 -3.36288e-05 1.14537e-07
-3.36288e-05 0.000153675 -3.20723e-08
1.14537e-07 -3.20723e-08 4.32031e-05

0.000146927 -3.21567e-05 -1.91466e-07
-3.21567e-05 8.38071e-05 -1.53934e-07
-1.91466e-07 -1.53934e-07 4.40057e-05

0.000261134 -4.20486e-05 -8.60854e-08
-4.20486e-05 0.000293424 -1.85853e-07
-8.60854e-08 -1.85853e-07 0.000273125

0.000260269 4.33432e-05 -6.63468e-08
4.33432e-05 0.000293424 1.63848e-07
-6.63468e-08 1.63848e-07 0.000273141

0.000204575 -2.83803e-05 1.15224e-08
-2.83803e-05 0.00021961 7.98497e-09
1.15224e-08 7.98497e-09 0.000212929

0.000195787 -3.94756e-05 -2.19894e-08
-3.94756e-05 0.000223012 -1.0442e-07
-2.19894e-08 -1.0442e-07 0.000194337

0.000211546 -4.11882e-05 -1.53778e-07
-4.11882e-05 0.000242895 -4.7979e-08
-1.53778e-07 -4.7979e-08 0.000225257

0.000211688 4.13137e-05 -4.40524e-08
4.13137e-05 0.000242717 7.9847e-09
-4.40524e-08 7.9847e-09 0.000225378

0.000196361 -4.44566e-05 -3.89558e-08
-4.44566e-05 0.00023522 -8.19083e-08
-3.89558e-08 -8.19083e-08 0.000207365

0.000195718 3.92781e-05 4.20767e-08
3.92781e-05 0.000221848 -5.03947e-08
4.20767e-08 -5.03947e-08 0.000194238

0.000123894 -1.2675e-05 2.83426e-08
-1.2675e-05 0.000197462 1.00736e-07
2.83426e-08 1.00736e-07 0.000107026

0.000121744 1.54974e-05 -1.19072e-07
1.54974e-05 0.000193993 -9.55608e-08
-1.19072e-07 -9.55608e-08 0.000107487

0.0001896 -9.77558e-06 1.13279e-07
-9.77558e-06 0.000137045 1.61468e-09
1.13279e-07 1.61468e-09 0.000108136

0.000196499 4.42163e-05 4.40336e-08
4.42163e-05 0.000234521 -4.75601e-08
4.40336e-08 -4.75601e-08 0.000207127

9.03825e-05 -7.95099e-06 5.291e-08
-7.95099e-06 0.000182668 1.09535e-07
5.291e-08 1.09535e-07 8.69905e-05

0.000175677 -7.6931e-06 -3.27988e-08
-7.6931e-06 9.3809e-05 -1.55887e-08
-3.27988e-08 -1.55887e-08 8.58945e-05

0.000222381 -4.0716e-05 8.39879e-08
-4.0716e-05 0.00025406 -1.69786e-07
8.39879e-08 -1.69786e-07 0.000237979

0.000222197 4.03772e-05 -1.12013e-07
4.03772e-05 0.000253868 3.43314e-08
-1.12013e-07 3.43314e-08 0.000238122

0.00022519 -3.51923e-05 9.05039e-08
-3.51923e-05 0.000259029 -1.47542e-07
9.05039e-08 -1.47542e-07 0.000241262

0.000224824 3.50688e-05 -6.74173e-08
3.50688e-05 0.000259094 -1.20277e-07
-6.74173e-08 -1.20277e-07 0.000241386

7.26452e-05 -3.38259e-05 -7.266e-08
-3.38259e-05 0.000148618 -9.15216e-08
-7.266e-08 -9.15216e-08 3.79483e-05

0.000142816 -3.12582e-05 -1.27847e-08
-3.12582e-05 7.58066e-05 6.49729e-08
-1.27847e-08 6.49729e-08 3.76284e-05

0.000210463 3.73883e-05 -6.35211e-08
3.73883e-05 0.000237714 -5.98731e-09
-6.35211e-08 -5.98731e-09 0.000215431

0.0002103 -3.75953e-05 -8.24716e-08
-3.75953e-05 0.000238428 -9.85243e-08
-8.24716e-08 -9.85243e-08 0.000215307

0.000244368 -6.08728e-06 -1.94361e-08
-6.08728e-06 0.000258802 7.3857e-08
-1.94361e-08 7.3857e-08 0.000247083

0.000244635 -8.05088e-06 -2.46987e-07
-8.05088e-06 0.000259762 1.82186e-07
-2.46987e-07 1.82186e-07 0.000247443

0.000217604 -4.06401e-05 1.25141e-08
-4.06401e-05 0.00026778 -4.75203e-08
1.25141e-08 -4.75203e-08 0.000242614

0.000217631 4.11189e-05 -9.68722e-08
4.11189e-05 0.000267698 5.8339e-08
-9.68722e-08 5.8339e-08 0.000242708

0.000262888 -1.58599e-05 -2.23226e-07
-1.58599e-05 0.000244707 -1.13578e-09
-2.23226e-07 -1.13578e-09 0.000258253

0.000262418 1.59269e-05 1.86186e-07
1.59269e-05 0.000245151 1.94782e-07
1.86186e-07 1.94782e-07 0.000258318

0.000205329 3.38005e-05 9.11877e-08
3.38005e-05 0.000238589 -3.08342e-09
9.11877e-08 -3.08342e-09 0.000221172

0.000204791 -3.36063e-05 -4.70872e-09
-3.36063e-05 0.000239641 4.04317e-08
-4.70872e-09 4.04317e-08 0.000221462

0.000235143 -1.25014e-05 1.45224e-07
-1.25014e-05 0.000285101 -1.5661e-07
1.45224e-07 -1.5661e-07 0.000249157

0.000278464 -2.29424e-05 1.01454e-07
-2.29424e-05 0.000266741 -9.95029e-08
1.01454e-07 -9.95029e-08 0.000270927

0.000276321 -2.37049e-05 -1.28252e-07
-2.37049e-05 0.000267165 -3.12073e-07
-1.28252e-07 -3.12073e-07 0.000270978

0.00027812 2.31015e-05 -2.139e-07
2.31015e-05 0.000266741 2.6371e-08
-2.139e-07 2.6371e-08 0.000270961

0.000276321 2.37049e-05 6.61628e-08
2.37049e-05 0.000267165 -2.32799e-07
6.61628e-08 -2.32799e-07 0.000271032

0.000233323 -9.79051e-06 -1.73539e-08
-9.79051e-06 0.000285321 -7.41017e-10
-1.73539e-08 -7.41017e-10 0.000248311

0.000256643 -2.55227e-05 -2.01183e-08
-2.55227e-05 0.000255789 5.36741e-09
-2.01183e-08 5.36741e-09 0.000248163

0.000255776 2.69742e-05 6.10798e-08
2.69742e-05 0.000256758 -1.04513e-07
6.10798e-08 -1.04513e-07 0.000248471

0.000262445 -3.24796e-05 -4.31513e-07
-3.24796e-05 0.0002775 6.74443e-07
-4.31513e-07 6.74443e-07 0.000262093

0.000345774 -2.60801e-05 -5.44766e-06
-2.60801e-05 0.000255237 -2.91663e-06
-5.44766e-06 -2.91663e-06 0.000269409

0.000345773 1.94002e-05 1.24321e-06
1.94002e-05 0.000262289 -6.34703e-07
1.24321e-06 -6.34703e-07 0.000269471

0.000262148 3.2541e-05 -4.20842e-07
3.2541e-05 0.0002775 -6.91691e-07
-4.20842e-07 -6.91691e-07 0.000262121

0.000270099 -3.55699e-05 2.23662e-07
-3.55699e-05 0.000269281 -3.18662e-07
2.23662e-07 -3.18662e-07 0.000259549

0.000243095 -2.83144e-05 -1.4194e-07
-2.83144e-05 0.000271514 -7.6562e-08
-1.4194e-07 -7.6562e-08 0.000252184

0.000273181 -2.79853e-05 3.20059e-07
-2.79853e-05 0.000273451 1.27722e-07
3.20059e-07 1.27722e-07 0.000266845

0.000270006 3.57855e-05 -5.1252e-08
3.57855e-05 0.000269281 -1.31472e-07
-5.1252e-08 -1.31472e-07 0.000259617

0.000273181 2.79853e-05 -9.51287e-08
2.79853e-05 0.000273451 7.17092e-08
-9.51287e-08 7.17092e-08 0.000266908

0.000243138 2.85748e-05 1.61908e-07
2.85748e-05 0.000271514 9.68213e-09
1.61908e-07 9.68213e-09 0.000252255

0.000243264 -2.93211e-05 -1.42965e-07
-2.93211e-05 0.000270755 -6.40093e-08
-1.42965e-07 -6.40093e-08 0.000256016

0.00026365 -2.3924e-05 2.24631e-07
-2.3924e-05 0.000272139 5.04715e-08
2.24631e-07 5.04715e-08 0.00026339

0.000243264 2.93211e-05 1.59177e-07
2.93211e-05 0.000270755 -2.37893e-08
1.59177e-07 -2.37893e-08 0.000256123

0.00026365 2.3924e-05 -1.24636e-07
2.3924e-05 0.000272139 6.45993e-08
-1.24636e-07 6.45993e-08 0.000263492

0.000208069 1.91894e-05 -1.20277e-07
1.91894e-05 0.000232245 5.78778e-08
-1.20277e-07 5.78778e-08 0.000217401

0.000185896 -5.61436e-06 5.33737e-08
-5.61436e-06 0.00024431 -6.85123e-08
5.33737e-08 -6.85123e-08 0.000218447

0.000219993 -6.06587e-06 1.57646e-08
-6.06587e-06 0.000163427 1.17302e-07
1.57646e-08 1.17302e-07 0.00019786

0.000213407 -1.93862e-07 1.8208e-07
-1.93862e-07 0.000159011 2.76686e-08
1.8208e-07 2.76686e-08 0.000184181

0.000208021 1.92924e-05 -1.08254e-07
1.92924e-05 0.000236318 -8.19858e-08
-1.08254e-07 -8.19858e-08 0.000230989

0.000185246 -8.47264e-06 6.00329e-08
-8.47264e-06 0.000265829 8.93384e-09
6.00329e-08 8.93384e-09 0.000231323

0.000213438 1.08403e-05 1.82012e-07
1.08403e-05 0.000159345 -2.16758e-08
1.82012e-07 -2.16758e-08 0.000185269

0.000237668 1.34501e-05 -1.07934e-07
1.34501e-05 0.000182258 -1.06956e-07
-1.07934e-07 -1.06956e-07 0.000223768

0.000133731 2.7626e-05 3.24155e-08
2.7626e-05 0.000173011 1.22537e-07
3.24155e-08 1.22537e-07 0.00014684

0.000135671 2.65985e-05 -6.67435e-08
2.65985e-05 0.00017356 -1.27964e-07
-6.67435e-08 -1.27964e-07 0.000144041

0.000169107 2.39505e-05 -1.76795e-07
2.39505e-05 0.000133724 -4.78375e-08
-1.76795e-07 -4.78375e-08 0.000142115

0.00022256 1.24341e-05 2.99215e-08
1.24341e-05 0.000255205 1.12062e-07
2.99215e-08 1.12062e-07 0.000235258

0.000227861 -2.32091e-05 -1.65062e-07
-2.32091e-05 0.000241293 -1.42243e-08
-1.65062e-07 -1.42243e-08 0.000235109

0.000197924 -2.98223e-05 7.30552e-08
-2.98223e-05 0.000205958 -9.53019e-08
7.30552e-08 -9.53019e-08 0.000199397

0.000183964 9.77831e-06 -1.45034e-07
9.77831e-06 0.000266239 5.70141e-09
-1.45034e-07 5.70141e-09 0.000230367

0.000206815 -1.11635e-05 7.70091e-08
-1.11635e-05 0.000234427 -1.6153e-07
7.70091e-08 -1.6153e-07 0.000230213

0.000231305 7.41653e-06 -7.85786e-08
7.41653e-06 0.000165166 9.67946e-08
-7.85786e-08 9.67946e-08 0.000198929

0.00014286 1.27739e-05 3.18292e-08
1.27739e-05 0.000196356 1.23668e-07
3.18292e-08 1.23668e-07 0.000158435

0.000150202 9.68672e-06 -1.31711e-07
9.68672e-06 0.000191286 -2.85157e-08
-1.31711e-07 -2.85157e-08 0.000157083

0.000191598 7.13279e-06 -1.73058e-08
7.13279e-06 0.000145899 -1.45813e-07
-1.73058e-08 -1.45813e-07 0.000154075

0.000174084 2.97695e-05 8.85133e-08
2.97695e-05 0.000207888 6.52463e-08
8.85133e-08 6.52463e-08 0.000182175

0.000165141 -1.77248e-05 -9.96072e-08
-1.77248e-05 0.000209158 -1.62224e-07
-9.96072e-08 -1.62224e-07 0.000184742

0.00022341 1.76076e-05 7.70129e-08
1.76076e-05 0.000163178 -6.39623e-08
7.70129e-08 -6.39623e-08 0.000199975

0.000129616 1.996e-05 -1.27314e-09
1.996e-05 0.000158735 5.86752e-08
-1.27314e-09 5.86752e-08 0.000130902

0.000240155 -7.56684e-06 -7.33556e-08
-7.56684e-06 0.000169483 -9.207e-09
-7.33556e-08 -9.207e-09 0.000219104

0.000236823 5.12295e-06 8.43311e-08
5.12295e-06 0.000242982 -1.56845e-07
8.43311e-08 -1.56845e-07 0.000236508

0.000221601 -1.74139e-06 -7.06904e-08
-1.74139e-06 0.000265569 -4.1879e-08
-7.06904e-08 -4.1879e-08 0.000236058

0.000307996 3.0934e-05 -1.27852e-07
3.0934e-05 0.00025569 1.29261e-07
-1.27852e-07 1.29261e-07 0.000248542

0.00030887 -1.3165e-05 -7.1038e-09
-1.3165e-05 0.000233833 1.09658e-07
-7.1038e-09 1.09658e-07 0.000250957

0.000189203 -3.40638e-05 1.19209e-07
-3.40638e-05 0.000204895 -5.72223e-08
1.19209e-07 -5.72223e-08 0.000196592

0.000168867 -2.88314e-05 6.55033e-09
-2.88314e-05 0.000203857 -1.43729e-08
6.55033e-09 -1.43729e-08 0.000180726

0.000188518 -2.38896e-07 -5.67762e-08
-2.38896e-07 0.000137702 -1.08488e-07
-5.67762e-08 -1.08488e-07 0.000153984

0.000259363 1.84677e-05 -3.08915e-08
1.84677e-05 0.000226413 -8.03655e-08
-3.08915e-08 -8.03655e-08 0.000236481

0.000254838 -5.13367e-06 1.00059e-07
-5.13367e-06 0.000221078 -1.3024e-07
1.00059e-07 -1.3024e-07 0.000236443

0.00023987 -3.18151e-06 5.6052e-09
-3.18151e-06 0.000169871 -5.72027e-09
5.6052e-09 -5.72027e-09 0.000225305

0.000164569 -2.18395e-05 5.85439e-09
-2.18395e-05 0.000199205 -2.16341e-08
5.85439e-09 -2.16341e-08 0.000182595

0.00023663 4.00556e-06 -9.63081e-08
4.00556e-06 0.000163647 9.26175e-08
-9.63081e-08 9.26175e-08 0.000220435

0.00019575 -2.13087e-05 -9.21329e-08
-2.13087e-05 0.000172292 1.02634e-07
-9.21329e-08 1.02634e-07 0.000174084

0.00017188 3.12713e-05 -6.9117e-08
3.12713e-05 0.000193594 9.15803e-10
-6.9117e-08 9.15803e-10 0.000181865

0.000202629 2.34595e-05 8.83393e-09
2.34595e-05 0.000152671 3.09738e-08
8.83393e-09 3.09738e-08 0.000171732

0.000197913 -1.36181e-05 -1.12921e-07
-1.36181e-05 0.000151877 -6.89917e-08
-1.12921e-07 -6.89917e-08 0.000169892

0.000168538 2.63372e-05 -4.37635e-08
2.63372e-05 0.000208171 -2.64995e-08
-4.37635e-08 -2.64995e-08 0.000183585

0.000174618 -1.96411e-05 8.43339e-08
-1.96411e-05 0.000237842 -2.71911e-08
8.43339e-08 -2.71911e-08 0.000218087

0.000189613 3.53377e-05 1.29207e-07
3.53377e-05 0.000233372 4.79462e-08
1.29207e-07 4.79462e-08 0.000215781

0.000175036 -2.46648e-05 -2.55327e-08
-2.46648e-05 0.000205979 -4.678e-08
-2.55327e-08 -4.678e-08 0.000182752

0.000170528 3.25417e-05 5.86144e-08
3.25417e-05 0.000206289 1.00441e-07
5.86144e-08 1.00441e-07 0.00018062

0.000103305 -2.79098e-05 6.11769e-08
-2.79098e-05 0.000108649 -1.36407e-07
6.11769e-08 -1.36407e-07 0.000107643

0.000101344 3.19731e-05 4.33142e-08
3.19731e-05 0.000112071 8.87562e-08
4.33142e-08 8.87562e-08 0.000105968

0.000187189 2.77415e-05 1.74872e-07
2.77415e-05 0.000248684 5.7186e-08
1.74872e-07 5.7186e-08 0.000230151

0.00020279 -3.14367e-05 9.068e-08
-3.14367e-05 0.000238658 8.26709e-08
9.068e-08 8.26709e-08 0.000229129

0.000174067 2.97939e-05 8.17054e-08
2.97939e-05 0.000219272 -9.97078e-08
8.17054e-08 -9.97078e-08 0.000196146

0.000102722 1.06157e-05 4.09394e-08
1.06157e-05 0.00010386 1.62836e-07
4.09394e-08 1.62836e-07 0.000112067

0.000100109 -2.14055e-07 2.85501e-09
-2.14055e-07 0.00011133 -1.39222e-07
2.85501e-09 -1.39222e-07 0.000113397

0.000230118 -2.28875e-05 3.09842e-09
-2.28875e-05 0.000241454 3.4563e-08
3.09842e-09 3.4563e-08 0.000239674

0.00023194 1.08173e-05 -2.20974e-07
1.08173e-05 0.00024719 -4.71524e-08
-2.20974e-07 -4.71524e-08 0.000238836

0.000246937 -4.56838e-07 5.06231e-08
-4.56838e-07 0.000168853 4.89423e-08
5.06231e-08 4.89423e-08 0.000208726

0.000230547 -2.14197e-05 -3.15684e-08
-2.14197e-05 0.000240894 -2.09407e-07
-3.15684e-08 -2.09407e-07 0.000239377

0.000233132 7.48464e-06 -2.31781e-07
7.48464e-06 0.000235076 2.89009e-08
-2.31781e-07 2.89009e-08 0.000238772

0.000165223 -1.86834e-05 -1.14173e-07
-1.86834e-05 0.000220343 2.02563e-08
-1.14173e-07 2.02563e-08 0.000198622

0.000282388 2.81743e-05 2.18019e-07
2.81743e-05 0.000250041 -1.5496e-08
2.18019e-07 -1.5496e-08 0.000245766

0.000288842 -2.32537e-05 -1.72235e-08
-2.32537e-05 0.000227769 1.99623e-08
-1.72235e-08 1.99623e-08 0.000248115

0.000217537 -2.26073e-05 -1.52899e-09
-2.26073e-05 0.000216089 7.36315e-08
-1.52899e-09 7.36315e-08 0.000224908

0.000218358 1.71065e-05 1.94363e-07
1.71065e-05 0.00021992 1.54108e-07
1.94363e-07 1.54108e-07 0.000223871

0.000233142 2.12493e-06 7.25135e-08
2.12493e-06 0.000295108 -4.69872e-08
7.25135e-08 -4.69872e-08 0.00024544

0.000237277 1.38001e-05 1.12588e-07
1.38001e-05 0.000266617 -1.53014e-08
1.12588e-07 -1.53014e-08 0.00024637

0.000121962 9.19833e-06 6.22059e-08
9.19833e-06 0.000152474 7.05452e-08
6.22059e-08 7.05452e-08 0.000127802

0.000150742 9.58613e-06 5.45343e-08
9.58613e-06 0.00012291 9.80792e-08
5.45343e-08 9.80792e-08 0.000127894

0.000185141 2.84888e-05 -5.29971e-08
2.84888e-05 0.000230691 9.66214e-09
-5.29971e-08 9.66214e-09 0.000211144

0.000169708 -1.66577e-05 1.04949e-07
-1.66577e-05 0.000236795 -3.15729e-08
1.04949e-07 -3.15729e-08 0.000212769

0.000273564 -3.98738e-05 -2.7427e-07
-3.98738e-05 0.000316528 -2.08503e-07
-2.7427e-07 -2.08503e-07 0.000255137

0.000292353 2.32835e-05 -3.65597e-07
2.32835e-05 0.000255684 -8.66348e-08
-3.65597e-07 -8.66348e-08 0.000255409

0.000193036 2.95446e-05 6.3591e-08
2.95446e-05 0.000174829 8.44346e-08
6.3591e-08 8.44346e-08 0.000178026

0.000226546 1.17016e-05 2.90639e-08
1.17016e-05 0.000187261 -7.78018e-08
2.90639e-08 -7.78018e-08 0.00021239

0.000224922 -1.50505e-05 1.79022e-07
-1.50505e-05 0.000186169 -1.46085e-07
1.79022e-07 -1.46085e-07 0.000212685

0.00025121 -1.62322e-05 1.16405e-07
-1.62322e-05 0.000193739 -5.81522e-08
1.16405e-07 -5.81522e-08 0.00023285

0.000187601 6.75619e-06 -6.28455e-08
6.75619e-06 0.00013722 -1.60671e-08
-6.28455e-08 -1.60671e-08 0.000154735

0.000322031 2.19969e-06 1.37191e-07
2.19969e-06 0.000245257 1.76601e-07
1.37191e-07 1.76601e-07 0.000252911

0.000308914 -5.50229e-06 2.66106e-07
-5.50229e-06 0.000291863 -6.75299e-08
2.66106e-07 -6.75299e-08 0.000250327

0.000199333 3.60449e-05 -3.15088e-08
3.60449e-05 0.00018153 -9.9315e-09
-3.15088e-08 -9.9315e-09 0.000193094

0.000231034 9.27208e-06 -6.36036e-08
9.27208e-06 0.000179906 -1.56443e-07
-6.36036e-08 -1.56443e-07 0.000200874

0.00016174 2.97752e-05 -6.93334e-08
2.97752e-05 0.000172628 1.28961e-07
-6.93334e-08 1.28961e-07 0.000154436

0.000249845 -1.81634e-05 1.56342e-07
-1.81634e-05 0.00030399 -6.73785e-08
1.56342e-07 -6.73785e-08 0.000248335

0.000247083 1.03228e-05 9.84238e-08
1.03228e-05 0.000264345 -1.87469e-08
9.84238e-08 -1.87469e-08 0.000250045

0.000255015 3.04041e-05 -5.67389e-08
3.04041e-05 0.000206799 3.55651e-08
-5.67389e-08 3.55651e-08 0.000233378

0.000207015 -9.56473e-06 9.58326e-08
-9.56473e-06 0.000231323 1.55706e-07
9.58326e-08 1.55706e-07 0.000216943

0.000184412 6.55763e-06 -1.45087e-07
6.55763e-06 0.000245691 6.63392e-09
-1.45087e-07 6.63392e-09 0.00021779

0.000248022 -4.74699e-06 1.34686e-07
-4.74699e-06 0.000174324 -3.30763e-08
1.34686e-07 -3.30763e-08 0.000218344

0.000251864 3.34761e-06 -9.46978e-08
3.34761e-06 0.000171745 -4.9227e-08
-9.46978e-08 -4.9227e-08 0.000218512

0.000172176 -1.94173e-05 -9.60193e-08
-1.94173e-05 0.000160433 1.2526e-07
-9.60193e-08 1.2526e-07 0.000152354

0.000223333 9.49253e-07 -1.04068e-07
9.49253e-07 0.000160682 8.39985e-08
-1.04068e-07 8.39985e-08 0.000184484

0.000249132 3.6075e-06 -1.88767e-08
3.6075e-06 0.000194507 8.30443e-09
-1.88767e-08 8.30443e-09 0.000228788

0.000242882 -8.44759e-06 -5.61636e-08
-8.44759e-06 0.000199468 2.05922e-08
-5.61636e-08 2.05922e-08 0.00022917

0.000229436 -1.11264e-05 -7.97828e-08
-1.11264e-05 0.000176795 6.44945e-08
-7.97828e-08 6.44945e-08 0.000201214

0.000247244 -5.44694e-06 1.11383e-07
-5.44694e-06 0.000188364 -1.55262e-07
1.11383e-07 -1.55262e-07 0.000220266

0.000251635 2.17036e-06 -9.09213e-08
2.17036e-06 0.000188693 -6.76669e-08
-9.09213e-08 -6.76669e-08 0.000220231

0.000225849 2.38158e-05 7.99538e-08
2.38158e-05 0.000177839 -5.84925e-08
7.99538e-08 -5.84925e-08 0.000205237

0.000172707 -3.20899e-05 -1.09791e-07
-3.20899e-05 0.000169484 9.98723e-08
-1.09791e-07 9.98723e-08 0.000164011

0.00019451 4.12712e-05 9.73967e-09
4.12712e-05 0.000234513 1.31834e-07
9.73967e-09 1.31834e-07 0.000219634

0.000189065 -3.52843e-05 -4.87454e-08
-3.52843e-05 0.000220479 -9.99992e-08
-4.87454e-08 -9.99992e-08 0.00022236

0.00018539 -2.61833e-05 3.7934e-08
-2.61833e-05 0.000224254 6.02344e-08
3.7934e-08 6.02344e-08 0.000224992

0.000196143 4.37005e-05 5.77198e-08
4.37005e-05 0.000241725 -8.65498e-08
5.77198e-08 -8.65498e-08 0.000222138

0.000206747 1.52692e-05 1.68166e-07
1.52692e-05 0.00015019 -5.95837e-08
1.68166e-07 -5.95837e-08 0.00017145

0.0001566 -1.7826e-05 1.22932e-08
-1.7826e-05 0.000136627 -1.36172e-08
1.22932e-08 -1.36172e-08 0.000134697

0.000227387 3.44793e-05 4.47096e-08
3.44793e-05 0.000191748 -3.71119e-08
4.47096e-08 -3.71119e-08 0.000215075

0.000221909 -1.15531e-05 8.10783e-08
-1.15531e-05 0.000178995 -8.81285e-08
8.10783e-08 -8.81285e-08 0.000201653

0.000161258 -1.38351e-05 -3.02259e-08
-1.38351e-05 0.000132957 -1.025e-07
-3.02259e-08 -1.025e-07 0.000135923

0.000197756 -2.76091e-05 6.9179e-08
-2.76091e-05 0.000181 -2.48937e-08
6.9179e-08 -2.48937e-08 0.000190836

0.000162907 -2.97902e-08 -1.18978e-07
-2.97902e-08 0.000244652 2.02012e-08
-1.18978e-07 2.02012e-08 0.000210605

0.000181942 4.22413e-06 8.29939e-08
4.22413e-06 0.000223763 1.62376e-07
8.29939e-08 1.62376e-07 0.00020965

0.000172965 3.5496e-05 -5.44883e-08
3.5496e-05 0.00017382 1.42347e-07
-5.44883e-08 1.42347e-07 0.000169738

0.000172306 -2.06625e-05 -8.67074e-08
-2.06625e-05 0.000136668 -1.18294e-07
-8.67074e-08 -1.18294e-07 0.000146222

0.000203171 3.79674e-05 2.16527e-08
3.79674e-05 0.000214086 -9.39457e-08
2.16527e-08 -9.39457e-08 0.000222306

0.000200052 -3.66993e-05 3.52578e-09
-3.66993e-05 0.000225562 -5.04962e-09
3.52578e-09 -5.04962e-09 0.000219315

0.000166063 -2.73746e-05 -3.98587e-09
-2.73746e-05 0.000188235 5.99732e-08
-3.98587e-09 5.99732e-08 0.000169629

0.000169625 -3.01681e-05 -3.13635e-08
-3.01681e-05 0.000186921 2.43817e-07
-3.13635e-08 2.43817e-07 0.00016763

0.000222779 2.74686e-05 6.59253e-08
2.74686e-05 0.000182717 -1.74746e-08
6.59253e-08 -1.74746e-08 0.000203036

0.000257589 1.72644e-05 1.27498e-07
1.72644e-05 0.000170504 1.2449e-07
1.27498e-07 1.2449e-07 0.000232384

0.000258329 -1.17998e-05 7.59925e-08
-1.17998e-05 0.000162868 -9.29843e-08
7.59925e-08 -9.29843e-08 0.000232626

0.000158009 2.22591e-05 -1.10615e-07
2.22591e-05 0.000205469 2.40547e-08
-1.10615e-07 2.40547e-08 0.00017348

0.000199598 3.41758e-05 -3.50254e-08
3.41758e-05 0.000193643 7.76389e-09
-3.50254e-08 7.76389e-09 0.000195662

0.000123377 2.88169e-06 -9.36594e-08
2.88169e-06 0.000191824 7.98675e-08
-9.36594e-08 7.98675e-08 0.000151758

0.000130819 1.90381e-06 1.49001e-07
1.90381e-06 0.000188473 4.85764e-08
1.49001e-07 4.85764e-08 0.000150481

0.000189974 1.33112e-06 6.38252e-08
1.33112e-06 0.000125898 8.9995e-08
6.38252e-08 8.9995e-08 0.000148475

0.000181547 -2.5415e-05 1.0897e-07
-2.5415e-05 0.000163395 -6.86453e-08
1.0897e-07 -6.86453e-08 0.000169203

0.000248531 -1.78079e-05 -1.94484e-07
-1.78079e-05 0.00028204 7.41379e-08
-1.94484e-07 7.41379e-08 0.000253772

0.00031368 9.58701e-06 -3.1127e-08
9.58701e-06 0.000315171 -1.26828e-07
-3.1127e-08 -1.26828e-07 0.000251515

0.000193972 3.0652e-05 4.4166e-08
3.0652e-05 0.000154503 -3.19353e-08
4.4166e-08 -3.19353e-08 0.000169168

0.000208169 -1.30294e-05 1.09974e-08
-1.30294e-05 0.000150111 5.90066e-08
1.09974e-08 5.90066e-08 0.000173623

0.000162249 2.17375e-05 -4.37263e-08
2.17375e-05 0.000129731 -9.23317e-08
-4.37263e-08 -9.23317e-08 0.000137979

0.000174534 -2.24312e-05 5.65581e-08
-2.24312e-05 0.000220246 -1.19365e-07
5.65581e-08 -1.19365e-07 0.000209017

0.000186996 4.04299e-05 1.55751e-07
4.04299e-05 0.000228021 -3.87452e-08
1.55751e-07 -3.87452e-08 0.000206523

0.000246935 -4.16842e-07 5.13207e-08
-4.16842e-07 0.000168478 2.8998e-08
5.13207e-08 2.8998e-08 0.00020851

0.000147599 2.08235e-05 -2.53028e-08
2.08235e-05 0.000206842 -2.02249e-08
-2.53028e-08 -2.02249e-08 0.000174907

0.000179229 -2.70767e-05 1.71092e-09
-2.70767e-05 0.000249341 -1.83038e-08
1.71092e-09 -1.83038e-08 0.000231371

0.000200848 3.80439e-05 -2.51496e-08
3.80439e-05 0.000244136 9.31258e-08
-2.51496e-08 9.31258e-08 0.00022944

0.000158975 2.36031e-05 -9.73487e-08
2.36031e-05 0.000173344 -1.28944e-07
-9.73487e-08 -1.28944e-07 0.000151827

0.000168559 2.53784e-05 -1.79187e-07
2.53784e-05 0.000163634 -6.03442e-08
-1.79187e-07 -6.03442e-08 0.000149969

0.000163849 1.9256e-05 -7.20524e-08
1.9256e-05 0.000130983 -1.23254e-08
-7.20524e-08 -1.23254e-08 0.000138686

0.000193959 4.19163e-05 -5.65395e-08
4.19163e-05 0.000246301 -1.06755e-07
-5.65395e-08 -1.06755e-07 0.000223052

0.000186734 -3.06838e-05 -1.14726e-07
-3.06838e-05 0.000217501 1.36906e-07
-1.14726e-07 1.36906e-07 0.000226179

0.000262307 1.07108e-06 5.86309e-08
1.07108e-06 0.000170503 4.66034e-10
5.86309e-08 4.66034e-10 0.000223367

0.000196827 2.8896e-05 7.36054e-08
2.8896e-05 0.000216695 6.17503e-08
7.36054e-08 6.17503e-08 0.000225879

0.00019754 -3.59181e-05 -6.17254e-08
-3.59181e-05 0.000239046 1.67738e-07
-6.17254e-08 1.67738e-07 0.000223478

0.000196981 3.50938e-05 2.52009e-08
3.50938e-05 0.00020322 1.03789e-07
2.52009e-08 1.03789e-07 0.000207008

0.000143759 -7.67066e-06 -8.49218e-09
-7.67066e-06 0.00019728 3.41207e-08
-8.49218e-09 3.41207e-08 0.000161017

0.000151898 -1.01285e-05 -8.10667e-08
-1.01285e-05 0.000195342 1.79601e-07
-8.10667e-08 1.79601e-07 0.000159869

0.000192204 -6.06556e-06 9.20673e-08
-6.06556e-06 0.000147184 3.04068e-08
9.20673e-08 3.04068e-08 0.000157718

0.000181003 -2.11237e-05 9.48602e-08
-2.11237e-05 0.000181297 1.80375e-07
9.48602e-08 1.80375e-07 0.000175346

0.000181997 3.79807e-06 9.75097e-08
3.79807e-06 0.000218605 -1.29647e-07
9.75097e-08 -1.29647e-07 0.000191645

0.000163048 9.77117e-07 -1.22134e-07
9.77117e-07 0.00022844 -4.32151e-08
-1.22134e-07 -4.32151e-08 0.000192833

0.000145121 -2.33747e-05 -3.56019e-09
-2.33747e-05 0.000168484 2.45667e-08
-3.56019e-09 2.45667e-08 0.000145327

0.000145117 -2.24635e-05 -8.74133e-09
-2.24635e-05 0.000164973 1.72158e-07
-8.74133e-09 1.72158e-07 0.000145997

0.000264208 -1.17301e-06 1.15298e-07
-1.17301e-06 0.000172938 -8.54611e-08
1.15298e-07 -8.54611e-08 0.000223704

0.000260593 1.30249e-06 2.80244e-08
1.30249e-06 0.000175929 -5.00184e-08
2.80244e-08 -5.00184e-08 0.000223598

0.000186087 -2.84919e-05 1.04393e-08
-2.84919e-05 0.000212732 -1.39541e-07
1.04393e-08 -1.39541e-07 0.000212048

0.000189044 3.66966e-05 -8.89097e-08
3.66966e-05 0.000230838 6.5835e-08
-8.89097e-08 6.5835e-08 0.000209465

0.000179469 2.3143e-05 -1.75596e-08
2.3143e-05 0.000246384 -1.1558e-08
-1.75596e-08 -1.1558e-08 0.000230644

0.000200351 -3.45738e-05 -5.39191e-08
-3.45738e-05 0.000241137 1.33001e-07
-5.39191e-08 1.33001e-07 0.000229044

0.00020904 -2.79654e-05 -1.79997e-07
-2.79654e-05 0.000204403 -3.39325e-08
-1.79997e-07 -3.39325e-08 0.000213448

0.00014753 -1.47175e-05 7.30629e-08
-1.47175e-05 0.000208915 -1.7033e-07
7.30629e-08 -1.7033e-07 0.000175665

0.000235381 4.34141e-06 -1.42915e-07
4.34141e-06 0.000220544 1.6248e-07
-1.42915e-07 1.6248e-07 0.000231316

0.000231342 -1.39298e-05 -2.15721e-07
-1.39298e-05 0.000216589 6.7319e-08
-2.15721e-07 6.7319e-08 0.00023199

0.000204999 -2.1697e-05 -1.7991e-07
-2.1697e-05 0.000188832 -4.74291e-09
-1.7991e-07 -4.74291e-09 0.000196444

0.000224258 -1.8241e-05 1.81686e-07
-1.8241e-05 0.00019989 -1.15685e-07
1.81686e-07 -1.15685e-07 0.000215147

0.000225737 1.55342e-05 2.43137e-08
1.55342e-05 0.000208744 -2.20459e-08
2.43137e-08 -2.20459e-08 0.000214119

0.000101578 -8.7391e-06 -1.68248e-07
-8.7391e-06 7.20346e-05 9.30179e-08
-1.68248e-07 9.30179e-08 0.000113309

0.000171195 3.61827e-05 5.31527e-08
3.61827e-05 0.000186292 2.83528e-08
5.31527e-08 2.83528e-08 0.000168378

7.98999e-05 1.7554e-05 -7.85292e-08
1.7554e-05 0.00010326 -1.79151e-08
-7.85292e-08 -1.79151e-08 0.000112568

0.000157734 -1.95018e-05 8.5762e-09
-1.95018e-05 0.000204897 -5.14098e-08
8.5762e-09 -5.14098e-08 0.000174368

0.000245349 -1.91745e-05 9.8231e-09
-1.91745e-05 0.000267997 -2.87678e-07
9.8231e-09 -2.87678e-07 0.000248846

0.000258417 7.9202e-06 2.97848e-07
7.9202e-06 0.000249785 3.13696e-07
2.97848e-07 3.13696e-07 0.000248627

0.000205962 2.34162e-05 -6.10235e-08
2.34162e-05 0.000195661 1.44048e-07
-6.10235e-08 1.44048e-07 0.00019507

0.000223352 -1.29474e-06 -1.03694e-07
-1.29474e-06 0.000158635 -7.90765e-09
-1.03694e-07 -7.90765e-09 0.000184732

0.000185238 2.99065e-05 -2.82667e-10
2.99065e-05 0.000162741 5.20434e-08
-2.82667e-10 5.20434e-08 0.000166762

0.00017078 1.41519e-05 1.13623e-07
1.41519e-05 0.000241501 -1.23313e-07
1.13623e-07 -1.23313e-07 0.000212672

0.000186629 -1.9745e-05 -1.08327e-07
-1.9745e-05 0.000226239 5.32541e-08
-1.08327e-07 5.32541e-08 0.000211366

0.000227013 3.25416e-05 7.77934e-08
3.25416e-05 0.000244744 8.63948e-08
7.77934e-08 8.63948e-08 0.00023573

0.000224746 -1.78008e-05 8.41708e-08
-1.78008e-05 0.000250359 -1.29117e-08
8.41708e-08 -1.29117e-08 0.000236119

0.000192398 4.4535e-05 -6.21389e-08
4.4535e-05 0.000241907 -9.74106e-08
-6.21389e-08 -9.74106e-08 0.000222291

0.000168813 -4.2699e-05 -1.50374e-07
-4.2699e-05 0.00022739 7.73345e-08
-1.50374e-07 7.73345e-08 0.000225788

0.000167728 2.29006e-05 -3.37794e-08
2.29006e-05 0.000218035 7.06376e-08
-3.37794e-08 7.06376e-08 0.000198417

0.000164258 1.18808e-05 -9.22351e-08
1.18808e-05 0.000215055 -2.68091e-08
-9.22351e-08 -2.68091e-08 0.000186509

0.000202429 -2.59602e-05 -1.79773e-08
-2.59602e-05 0.000198112 -1.44598e-07
-1.79773e-08 -1.44598e-07 0.000207782

0.000202517 2.7747e-05 -2.13648e-07
2.7747e-05 0.00020569 1.24671e-08
-2.13648e-07 1.24671e-08 0.000206411

0.000184912 2.83306e-05 1.94319e-09
2.83306e-05 0.000186932 8.48104e-08
1.94319e-09 8.48104e-08 0.000174353

0.000175264 -2.73268e-05 -2.61798e-08
-2.73268e-05 0.00021694 -3.31074e-08
-2.61798e-08 -3.31074e-08 0.000197123

0.000153025 -4.64891e-06 1.8454e-07
-4.64891e-06 0.000225364 1.01194e-07
1.8454e-07 1.01194e-07 0.000188322

0.000119993 1.92857e-05 8.02115e-08
1.92857e-05 0.000133547 -9.51395e-08
8.02115e-08 -9.51395e-08 0.000118405

0.000131554 2.00777e-05 -1.37318e-07
2.00777e-05 0.000121111 1.16069e-07
-1.37318e-07 1.16069e-07 0.000118566

0.00015715 -2.31581e-05 -5.39506e-10
-2.31581e-05 0.000164508 2.63586e-08
-5.39506e-10 2.63586e-08 0.000148591

0.000229644 -8.66315e-06 -8.30205e-08
-8.66315e-06 0.000164788 -1.91511e-08
-8.30205e-08 -1.91511e-08 0.000198961

0.000271948 -3.18377e-05 -3.94867e-07
-3.18377e-05 0.000287208 8.17447e-08
-3.94867e-07 8.17447e-08 0.000254354

0.000299478 3.13364e-05 -4.95146e-07
3.13364e-05 0.000253171 -3.9843e-07
-4.95146e-07 -3.9843e-07 0.000254444

0.000257448 2.97885e-05 1.92269e-07
2.97885e-05 0.000257429 1.96325e-07
1.92269e-07 1.96325e-07 0.000243792

0.000250993 -7.88848e-06 -1.04892e-07
-7.88848e-06 0.000234402 1.31742e-07
-1.04892e-07 1.31742e-07 0.000245462

0.000228324 1.16667e-07 -1.18972e-07
1.16667e-07 0.000167686 4.41165e-08
-1.18972e-07 4.41165e-08 0.00020865

0.00019424 -3.9339e-05 -9.69092e-08
-3.9339e-05 0.000236849 1.08757e-07
-9.69092e-08 1.08757e-07 0.000222368

0.000175227 4.1754e-05 5.58434e-08
4.1754e-05 0.000225496 8.78271e-08
5.58434e-08 8.78271e-08 0.000225031

0.000127205 -1.91722e-05 2.05515e-07
-1.91722e-05 0.000137069 2.05258e-08
2.05515e-07 2.05258e-08 0.000123489

0.00012978 2.46011e-05 4.88068e-08
2.46011e-05 0.00013001 -8.86442e-08
4.88068e-08 -8.86442e-08 0.000125013

0.000119772 -8.57436e-06 1.67606e-07
-8.57436e-06 0.000160024 1.83562e-08
1.67606e-07 1.83562e-08 0.000132342

0.00012834 -1.14406e-05 1.89244e-07
-1.14406e-05 0.00016155 -1.71228e-07
1.89244e-07 -1.71228e-07 0.000133269

0.000161845 -7.57906e-06 -3.21928e-08
-7.57906e-06 0.000121238 -1.70187e-07
-3.21928e-08 -1.70187e-07 0.000131479

0.000162809 2.966e-05 -2.27598e-08
2.966e-05 0.000157117 -5.35628e-08
-2.27598e-08 -5.35628e-08 0.000151464

0.000104703 8.4884e-06 -1.80083e-07
8.4884e-06 0.000154035 3.66643e-09
-1.80083e-07 3.66643e-09 0.000124952

0.000152029 1.7706e-06 -7.72707e-08
1.7706e-06 0.000106665 -1.8158e-08
-7.72707e-08 -1.8158e-08 0.000124891

0.000232123 -3.02568e-06 1.0499e-07
-3.02568e-06 0.000278428 -4.15815e-08
1.0499e-07 -4.15815e-08 0.000242642

0.000235783 -1.24873e-05 -9.20341e-09
-1.24873e-05 0.000251996 3.04777e-07
-9.20341e-09 3.04777e-07 0.0002434

0.000236689 -9.61638e-06 -8.09647e-08
-9.61638e-06 0.000194308 1.29817e-07
-8.09647e-08 1.29817e-07 0.000219879

0.000247285 3.94242e-06 -4.11679e-10
3.94242e-06 0.000148234 -2.3292e-08
-4.11679e-10 -2.3292e-08 0.00022561

0.000143924 -1.92515e-05 -2.9151e-08
-1.92515e-05 0.000184934 2.42164e-07
-2.9151e-08 2.42164e-07 0.000155157

0.000142847 -1.38525e-05 5.43707e-09
-1.38525e-05 0.000183705 5.09068e-08
5.43707e-09 5.09068e-08 0.000157128

0.000231975 9.55646e-06 -1.10779e-07
9.55646e-06 0.000170565 8.5195e-08
-1.10779e-07 8.5195e-08 0.000209676

0.00024221 -9.06745e-06 -5.05409e-08
-9.06745e-06 0.000248534 -2.16541e-07
-5.05409e-08 -2.16541e-07 0.000244054

0.000253701 4.18862e-08 -1.32621e-08
4.18862e-08 0.000237765 -5.29324e-08
-1.32621e-08 -5.29324e-08 0.000243689

0.000219021 -1.97174e-05 -8.52006e-08
-1.97174e-05 0.000210986 2.99234e-08
-8.52006e-08 2.99234e-08 0.000217068

0.000197987 3.23178e-05 6.71463e-08
3.23178e-05 0.000209173 -6.66516e-08
6.71463e-08 -6.66516e-08 0.000211589

0.000189165 -3.37534e-05 1.19282e-07
-3.37534e-05 0.000225202 -5.95503e-08
1.19282e-07 -5.95503e-08 0.000208575

0.000236634 -8.50701e-06 -7.39225e-08
-8.50701e-06 0.000172166 -9.87598e-09
-7.39225e-08 -9.87598e-09 0.000215472

0.000180296 2.7098e-05 -1.11433e-07
2.7098e-05 0.000217267 1.24465e-08
-1.11433e-07 1.24465e-08 0.000209189

0.000189311 -3.59742e-05 7.43804e-08
-3.59742e-05 0.000222215 -8.91082e-08
7.43804e-08 -8.91082e-08 0.000207081

9.92393e-05 -4.0215e-05 1.30977e-07
-4.0215e-05 0.000102487 5.77412e-08
1.30977e-07 5.77412e-08 0.000103977

0.000154153 9.11362e-06 3.92178e-09
9.11362e-06 0.000223111 -9.70717e-08
3.92178e-09 -9.70717e-08 0.00018739

0.000166764 -8.05403e-06 -5.18787e-08
-8.05403e-06 0.000212146 -1.82268e-07
-5.18787e-08 -1.82268e-07 0.000186512

0.000222609 3.58524e-06 -3.31392e-08
3.58524e-06 0.00029338 1.78297e-07
-3.31392e-08 1.78297e-07 0.000243749

0.000238573 -6.29133e-07 6.75957e-08
-6.29133e-07 0.000250251 -5.87171e-08
6.75957e-08 -5.87171e-08 0.000244924

0.000258991 -1.66223e-06 -6.90468e-08
-1.66223e-06 0.000186409 7.67893e-08
-6.90468e-08 7.67893e-08 0.000230903

0.000265213 2.94128e-06 1.8975e-07
2.94128e-06 0.000181955 1.1583e-08
1.8975e-07 1.1583e-08 0.00023091

0.000236179 3.8873e-05 -1.69596e-07
3.8873e-05 0.000216658 -4.08003e-08
-1.69596e-07 -4.08003e-08 0.000229669

0.000227069 -2.23241e-05 1.85529e-07
-2.23241e-05 0.000211675 -9.53843e-08
1.85529e-07 -9.53843e-08 0.000228651

0.000265747 1.36662e-05 2.05147e-07
1.36662e-05 0.00024445 1.41559e-07
2.05147e-07 1.41559e-07 0.00024172

0.000250156 -8.07864e-06 -1.33541e-07
-8.07864e-06 0.000248196 8.77057e-09
-1.33541e-07 8.77057e-09 0.000242897

0.000271854 1.53747e-05 -1.26385e-07
1.53747e-05 0.000255133 -4.20001e-07
-1.26385e-07 -4.20001e-07 0.000252644

0.000266858 -4.54234e-05 -1.83937e-07
-4.54234e-05 0.000285636 9.40835e-08
-1.83937e-07 9.40835e-08 0.000252621

0.000203586 4.02497e-05 -5.88185e-08
4.02497e-05 0.000245117 -1.07252e-07
-5.88185e-08 -1.07252e-07 0.000230371

0.000192158 -4.98413e-05 -2.84002e-08
-4.98413e-05 0.000225597 1.18085e-07
-2.84002e-08 1.18085e-07 0.000232961

0.000207812 2.12434e-05 6.96082e-09
2.12434e-05 0.000176783 -1.67252e-07
6.96082e-09 -1.67252e-07 0.000191262

0.000170275 1.71469e-05 9.72907e-08
1.71469e-05 0.000224208 -1.09107e-08
9.72907e-08 -1.09107e-08 0.000200044

0.000187478 -2.7418e-05 2.24792e-07
-2.7418e-05 0.000187343 6.79119e-08
2.24792e-07 6.79119e-08 0.000189225

0.000186219 -2.15992e-05 -1.31644e-07
-2.15992e-05 0.000219741 -1.02242e-07
-1.31644e-07 -1.02242e-07 0.00019894

0.000206159 -2.03606e-05 -1.68516e-07
-2.03606e-05 0.000174468 5.05501e-08
-1.68516e-07 5.05501e-08 0.000192338

0.000184993 2.39405e-05 -5.3214e-08
2.39405e-05 0.000222063 -3.4663e-09
-5.3214e-08 -3.4663e-09 0.000198256

0.000191063 3.40445e-05 4.85417e-08
3.40445e-05 0.000192176 1.2334e-07
4.85417e-08 1.2334e-07 0.000187682

0.000206491 4.44535e-05 4.23555e-08
4.44535e-05 0.000225788 5.15917e-08
4.23555e-08 5.15917e-08 0.000232034

0.000208911 -3.35076e-05 4.67314e-08
-3.35076e-05 0.000237032 1.39633e-07
4.67314e-08 1.39633e-07 0.000230772

0.000241783 2.0562e-05 -8.42616e-08
2.0562e-05 0.000199968 9.79961e-09
-8.42616e-08 9.79961e-09 0.000222601

0.000313186 1.52813e-05 -1.22578e-07
1.52813e-05 0.000306787 4.92627e-08
-1.22578e-07 4.92627e-08 0.0002511

0.000255664 1.46715e-05 -6.73651e-08
1.46715e-05 0.000264942 -2.32574e-07
-6.73651e-08 -2.32574e-07 0.000253503

0.000218963 -2.09316e-05 -7.79519e-08
-2.09316e-05 0.000188535 1.30877e-07
-7.79519e-08 1.30877e-07 0.000211889

0.000261667 1.21965e-06 8.56744e-08
1.21965e-06 0.000205746 -7.012e-08
8.56744e-08 -7.012e-08 0.000238781

0.000121804 -1.69581e-05 1.79693e-07
-1.69581e-05 0.000136221 -9.63245e-08
1.79693e-07 -9.63245e-08 0.000120701

0.000135358 -1.43961e-05 1.26446e-07
-1.43961e-05 0.000120758 -1.64149e-07
1.26446e-07 -1.64149e-07 0.000121005

0.000255935 1.57166e-06 -1.13583e-07
1.57166e-06 0.000199151 2.14931e-08
-1.13583e-07 2.14931e-08 0.000234553

0.00026522 -2.17282e-06 1.85042e-07
-2.17282e-06 0.000193977 1.71213e-08
1.85042e-07 1.71213e-08 0.000234273

0.000260518 4.29061e-06 1.78307e-07
4.29061e-06 0.000225066 -4.99219e-08
1.78307e-07 -4.99219e-08 0.000237666

0.000169619 -1.20307e-05 1.03064e-07
-1.20307e-05 0.00022715 1.61922e-07
1.03064e-07 1.61922e-07 0.000200416

0.000206825 1.68779e-05 1.6874e-07
1.68779e-05 0.000170531 -4.0117e-08
1.6874e-07 -4.0117e-08 0.000176284

0.000216663 -2.59643e-05 -1.16099e-08
-2.59643e-05 0.000218141 -6.72087e-09
-1.16099e-08 -6.72087e-09 0.000226315

0.000217106 2.12614e-05 2.14138e-07
2.12614e-05 0.000233102 -3.35248e-09
2.14138e-07 -3.35248e-09 0.000224876

0.000296419 2.77054e-06 -1.57634e-07
2.77054e-06 0.000317794 -4.32271e-08
-1.57634e-07 -4.32271e-08 0.000251265

0.00029633 2.57496e-05 5.66043e-09
2.57496e-05 0.000241077 2.92649e-08
5.66043e-09 2.92649e-08 0.00025389

0.000215926 -1.66347e-05 1.14551e-07
-1.66347e-05 0.000183692 -1.86083e-08
1.14551e-07 -1.86083e-08 0.000199709

0.000249346 -1.00611e-06 -1.94331e-08
-1.00611e-06 0.000216081 3.08819e-08
-1.94331e-08 3.08819e-08 0.000232586

0.000242987 -5.86834e-06 -5.11531e-08
-5.86834e-06 0.000220458 2.44334e-07
-5.11531e-08 2.44334e-07 0.000233074

0.000203105 -2.97214e-05 7.79889e-08
-2.97214e-05 0.000232138 -7.68883e-08
7.79889e-08 -7.68883e-08 0.000218657

0.000188938 1.57114e-05 1.8406e-07
1.57114e-05 0.000234891 -7.43387e-08
1.8406e-07 -7.43387e-08 0.000220141

0.000187418 2.78587e-05 -7.65658e-08
2.78587e-05 0.000220479 6.55634e-08
-7.65658e-08 6.55634e-08 0.00022418

0.00019495 -3.97796e-05 -7.38246e-08
-3.97796e-05 0.000236943 1.06047e-07
-7.38246e-08 1.06047e-07 0.000221775

0.00010828 5.14657e-05 -1.33324e-07
5.14657e-05 0.000102451 1.41046e-07
-1.33324e-07 1.41046e-07 0.000105396

0.000217349 2.92848e-05 -8.83329e-09
2.92848e-05 0.000242615 1.55546e-07
-8.83329e-09 1.55546e-07 0.000235655

0.000217236 -2.27384e-05 -1.07926e-08
-2.27384e-05 0.000245803 1.99317e-08
-1.07926e-08 1.99317e-08 0.000235461

0.000180145 2.66589e-05 -1.12713e-07
2.66589e-05 0.000228793 2.04933e-08
-1.12713e-07 2.04933e-08 0.000218286

0.000189735 -3.40568e-05 7.66942e-08
-3.40568e-05 0.000230738 -7.72815e-08
7.66942e-08 -7.72815e-08 0.000216189

0.000208527 -1.63223e-05 2.15222e-08
-1.63223e-05 0.000166346 -1.03805e-07
2.15222e-08 -1.03805e-07 0.000178975

0.000226526 2.89969e-05 5.4988e-08
2.89969e-05 0.000207825 1.07453e-07
5.4988e-08 1.07453e-07 0.00021904

0.000240066 3.13685e-05 -1.71744e-07
3.13685e-05 0.000217135 -3.25783e-08
-1.71744e-07 -3.25783e-08 0.000230915

0.000226479 -2.0644e-05 1.55194e-07
-2.0644e-05 0.000226629 -1.8446e-07
1.55194e-07 -1.8446e-07 0.000230234

0.000241743 1.92891e-05 -8.68953e-08
1.92891e-05 0.000172139 -1.21618e-07
-8.68953e-08 -1.21618e-07 0.000218272

0.000253752 3.82803e-06 -1.37501e-07
3.82803e-06 0.000230659 1.40369e-07
-1.37501e-07 1.40369e-07 0.000241409

0.000262884 -5.32376e-06 1.66489e-07
-5.32376e-06 0.000220376 -7.51013e-08
1.66489e-07 -7.51013e-08 0.000241102

0.000247137 7.25135e-06 -3.48869e-07
7.25135e-06 0.000288813 5.33545e-08
-3.48869e-07 5.33545e-08 0.000251568

0.000249686 -9.71208e-06 -2.64952e-07
-9.71208e-06 0.000321527 -9.535e-08
-2.64952e-07 -9.535e-08 0.000249486

0.000110165 -4.71826e-06 -8.445e-08
-4.71826e-06 7.99347e-05 7.8713e-08
-8.445e-08 7.8713e-08 0.000112209

7.1194e-05 -7.83697e-07 -1.17501e-07
-7.83697e-07 0.000111887 1.41827e-08
-1.17501e-07 1.41827e-08 0.000112698

0.000202255 3.36605e-05 -1.12839e-08
3.36605e-05 0.000241851 1.55326e-07
-1.12839e-08 1.55326e-07 0.000222688

0.000201441 -2.84303e-05 7.22728e-08
-2.84303e-05 0.000220347 3.52058e-08
7.22728e-08 3.52058e-08 0.000224933

0.000100822 1.83854e-05 -1.37002e-07
1.83854e-05 9.92674e-05 1.08595e-07
-1.37002e-07 1.08595e-07 0.00011093

0.000103724 2.32414e-05 -3.83192e-08
2.32414e-05 9.38448e-05 1.55714e-07
-3.83192e-08 1.55714e-07 0.000110845

0.000209751 -3.76988e-05 -2.2046e-07
-3.76988e-05 0.000327893 2.40192e-07
-2.2046e-07 2.40192e-07 0.000255226

0.000246908 2.72101e-05 -2.56325e-07
2.72101e-05 0.000304058 -6.15398e-07
-2.56325e-07 -6.15398e-07 0.000255154

0.000218095 3.5508e-05 5.42125e-08
3.5508e-05 0.000202873 1.08125e-07
5.42125e-08 1.08125e-07 0.000215945

0.00020218 3.21625e-05 -1.72972e-08
3.21625e-05 0.000225801 1.16989e-07
-1.72972e-08 1.16989e-07 0.000218915

0.000202635 -3.18795e-05 7.20237e-08
-3.18795e-05 0.000215783 3.67922e-08
7.20237e-08 3.67922e-08 0.000220813

0.000188485 3.22694e-05 6.17039e-08
3.22694e-05 0.000205645 1.00982e-07
6.17039e-08 1.00982e-07 0.000192627

0.000185257 -2.56879e-05 1.57451e-07
-2.56879e-05 0.000199919 -4.8242e-08
1.57451e-07 -4.8242e-08 0.000194371

0.000121729 -4.29833e-06 -1.19648e-07
-4.29833e-06 0.000162194 -5.93258e-08
-1.19648e-07 -5.93258e-08 0.000134215

0.000127587 -8.37652e-06 9.91217e-08
-8.37652e-06 0.000162177 -1.80333e-07
9.91217e-08 -1.80333e-07 0.00013371

0.000163094 -3.46393e-06 9.34422e-09
-3.46393e-06 0.000125087 8.24958e-08
9.34422e-09 8.24958e-08 0.000132657

0.000189227 3.73785e-05 -6.07938e-08
3.73785e-05 0.000219021 -7.84438e-08
-6.07938e-08 -7.84438e-08 0.000203805

0.000185795 -2.9542e-05 5.45331e-08
-2.9542e-05 0.000209938 1.00567e-07
5.45331e-08 1.00567e-07 0.000205849

0.000111603 5.84602e-06 -8.77828e-08
5.84602e-06 0.00015208 6.07315e-08
-8.77828e-08 6.07315e-08 0.000124073

0.000150738 9.08426e-06 4.97972e-08
9.08426e-06 0.000112646 4.77391e-08
4.97972e-08 4.77391e-08 0.000124036

0.00021333 -3.74435e-05 -3.09261e-08
-3.74435e-05 0.000223386 5.5146e-08
-3.09261e-08 5.5146e-08 0.000232458

0.000211871 3.05885e-05 3.81659e-08
3.05885e-05 0.000240304 1.64887e-07
3.81659e-08 1.64887e-07 0.0002306

0.000214603 -3.31352e-05 -3.93265e-08
-3.31352e-05 0.000237956 2.60194e-08
-3.93265e-08 2.60194e-08 0.000233695

0.000215375 2.42039e-05 1.1909e-07
2.42039e-05 0.00024247 -1.15633e-07
1.1909e-07 -1.15633e-07 0.000232385

9.46827e-05 -1.53951e-05 1.41224e-07
-1.53951e-05 9.76512e-05 -5.28848e-08
1.41224e-07 -5.28848e-08 0.000108252

9.42981e-05 -1.51954e-05 -1.59927e-07
-1.51954e-05 9.82394e-05 8.26427e-08
-1.59927e-07 8.26427e-08 0.00010887

0.000201777 2.99708e-05 -2.09779e-07
2.99708e-05 0.000222863 -2.11454e-08
-2.09779e-07 -2.11454e-08 0.000210201

0.000202003 -2.71705e-05 8.12608e-09
-2.71705e-05 0.000209351 8.26365e-08
8.12608e-09 8.26365e-08 0.000212041

0.000244977 8.2904e-06 -2.70087e-07
8.2904e-06 0.000279702 -6.34222e-08
-2.70087e-07 -6.34222e-08 0.000245441

0.000244494 -4.00589e-06 -3.05644e-07
-4.00589e-06 0.000250979 3.22039e-07
-3.05644e-07 3.22039e-07 0.00024692

0.00020021 -3.40607e-05 -4.26203e-08
-3.40607e-05 0.000245641 7.36876e-08
-4.26203e-08 7.36876e-08 0.000236667

0.000207846 3.20228e-05 -8.39573e-08
3.20228e-05 0.000254979 -2.87928e-08
-8.39573e-08 -2.87928e-08 0.000234866

0.000242973 -7.04826e-06 -3.27875e-09
-7.04826e-06 0.000221936 2.14449e-07
-3.27875e-09 2.14449e-07 0.000241023

0.000253813 7.07544e-07 -2.23003e-08
7.07544e-07 0.000216481 2.90947e-08
-2.23003e-08 2.90947e-08 0.000240661

0.000210465 3.1346e-05 -1.66313e-08
3.1346e-05 0.000217141 -3.48156e-08
-1.66313e-08 -3.48156e-08 0.000223721

0.000208406 -3.0812e-05 -1.33597e-07
-3.0812e-05 0.000227382 -1.74092e-07
-1.33597e-07 -1.74092e-07 0.000221383

0.000271626 9.30157e-06 9.53806e-08
9.30157e-06 0.000237312 -1.28065e-07
9.53806e-08 -1.28065e-07 0.000247936

0.000269194 2.57702e-06 -6.49371e-07
2.57702e-06 0.000251841 5.61126e-07
-6.49371e-07 5.61126e-07 0.000252433

0.000256621 -9.39591e-06 2.32471e-08
-9.39591e-06 0.000248766 2.06419e-08
2.32471e-08 2.06419e-08 0.000248186

0.000239274 -1.94383e-06 -4.35684e-07
-1.94383e-06 0.000277413 -4.04053e-07
-4.35684e-07 -4.04053e-07 0.000252592

0.000233705 6.13521e-06 1.20879e-07
6.13521e-06 0.000307395 1.12463e-07
1.20879e-07 1.12463e-07 0.000246837

0.00028343 3.07695e-05 -1.37922e-07
3.07695e-05 0.000259593 -9.37468e-08
-1.37922e-07 -9.37468e-08 0.000246623

0.000264517 -1.25447e-05 -3.05785e-08
-1.25447e-05 0.000247656 -6.09865e-08
-3.05785e-08 -6.09865e-08 0.000248546

0.000234466 -7.43926e-06 4.93424e-08
-7.43926e-06 0.000277851 -2.62869e-07
4.93424e-08 -2.62869e-07 0.000248284

0.000246694 1.88202e-05 2.37247e-07
1.88202e-05 0.000270708 3.78754e-07
2.37247e-07 3.78754e-07 0.000250724

0.000368098 2.41795e-05 -1.48979e-06
2.41795e-05 0.000210786 7.65684e-07
-1.48979e-06 7.65684e-07 0.000255786

0.000330505 -2.30778e-05 1.1728e-08
-2.30778e-05 0.000309266 8.32819e-09
1.1728e-08 8.32819e-09 0.000255279

0.00025809 -4.23316e-05 -8.10561e-07
-4.23316e-05 0.000296119 1.33247e-06
-8.10561e-07 1.33247e-06 0.000250736

0.00025881 2.33016e-05 -2.8411e-08
2.33016e-05 0.000256456 -2.39262e-08
-2.8411e-08 -2.39262e-08 0.000248553

0.000233153 1.72195e-05 -4.64193e-08
1.72195e-05 0.000259651 -3.58512e-08
-4.64193e-08 -3.58512e-08 0.000242489

0.000266759 4.5419e-06 -3.28607e-08
4.5419e-06 0.00025975 -3.32135e-09
-3.28607e-08 -3.32135e-09 0.000253834

0.000270404 -3.89201e-05 -8.09139e-08
-3.89201e-05 0.000257483 2.2648e-07
-8.09139e-08 2.2648e-07 0.000248915

0.000265658 -4.4849e-05 -1.46002e-07
-4.4849e-05 0.00030435 -7.49254e-08
-1.46002e-07 -7.49254e-08 0.000253558

0.00023607 -2.12818e-05 1.07262e-07
-2.12818e-05 0.000249179 1.0187e-07
1.07262e-07 1.0187e-07 0.000243483

0.000238419 -3.61244e-05 1.23117e-07
-3.61244e-05 0.000260171 -9.24031e-08
1.23117e-07 -9.24031e-08 0.000245253

0.000244104 -2.46003e-05 2.91131e-08
-2.46003e-05 0.000266798 -1.21679e-07
2.91131e-08 -1.21679e-07 0.000249747

0.000232881 1.53918e-05 -3.09343e-08
1.53918e-05 0.000255816 1.5389e-07
-3.09343e-08 1.5389e-07 0.000244674

0.000257986 9.3466e-06 3.29461e-07
9.3466e-06 0.000257147 4.16526e-08
3.29461e-07 4.16526e-08 0.000249549

0.000175564 2.61136e-05 8.03685e-08
2.61136e-05 0.000200305 8.00115e-09
8.03685e-08 8.00115e-09 0.000183817

0.000200957 1.29666e-05 -5.05182e-08
1.29666e-05 0.000235384 -2.22644e-08
-5.05182e-08 -2.22644e-08 0.000218143

0.000194277 1.14112e-05 -1.59568e-08
1.14112e-05 0.000233381 1.38312e-07
-1.59568e-08 1.38312e-07 0.000219118

0.000224626 1.51792e-05 -6.96767e-08
1.51792e-05 0.000161424 -6.27678e-08
-6.96767e-08 -6.27678e-08 0.000197013

0.000215615 5.33663e-06 -8.27609e-09
5.33663e-06 0.000153319 -2.89743e-08
-8.27609e-09 -2.89743e-08 0.000182825

0.000201682 8.40506e-06 -4.36571e-08
8.40506e-06 0.000243388 -1.02076e-07
-4.36571e-08 -1.02076e-07 0.000231516

0.000192896 1.87423e-05 -4.63571e-09
1.87423e-05 0.000249631 6.63169e-09
-4.63571e-09 6.63169e-09 0.000232496

0.000218679 -5.89189e-06 -2.35098e-08
-5.89189e-06 0.00015676 8.02999e-08
-2.35098e-08 8.02999e-08 0.000184211

0.000239009 -1.24174e-05 4.26142e-08
-1.24174e-05 0.00018362 3.0059e-08
4.26142e-08 3.0059e-08 0.000223404

0.000142047 2.39151e-05 -1.99425e-08
2.39151e-05 0.000166073 2.75702e-08
-1.99425e-08 2.75702e-08 0.000146697

0.000139632 -2.38433e-05 -1.12379e-08
-2.38433e-05 0.000163101 1.06471e-07
-1.12379e-08 1.06471e-07 0.000144119

0.000172523 -2.19083e-05 1.14183e-07
-2.19083e-05 0.000132641 -1.39441e-07
1.14183e-07 -1.39441e-07 0.000143424

0.000218289 -2.23806e-05 -6.79788e-08
-2.23806e-05 0.0002463 -1.3261e-07
-6.79788e-08 -1.3261e-07 0.000236811

0.000228626 -1.54834e-05 5.09082e-09
-1.54834e-05 0.00024529 9.56574e-08
5.09082e-09 9.56574e-08 0.00023558

0.000175515 2.22899e-05 8.01656e-08
2.22899e-05 0.000208777 -2.45326e-08
8.01656e-08 -2.45326e-08 0.000198256

0.000183768 2.67069e-05 -9.52068e-08
2.67069e-05 0.000226102 -7.13201e-10
-9.52068e-08 -7.13201e-10 0.000218492

0.000193534 -1.73209e-05 -1.06864e-08
-1.73209e-05 0.000249297 -1.67439e-07
-1.06864e-08 -1.67439e-07 0.000231507

0.000198848 -4.96228e-06 1.03829e-07
-4.96228e-06 0.000243552 3.53136e-08
1.03829e-07 3.53136e-08 0.000230997

0.00023431 7.12275e-06 3.41702e-08
7.12275e-06 0.000161989 -8.14052e-08
3.41702e-08 -8.14052e-08 0.000198784

0.00015122 8.80969e-06 2.63578e-08
8.80969e-06 0.000190151 -6.23086e-08
2.63578e-08 -6.23086e-08 0.000158255

0.000150221 -7.0383e-06 -6.46771e-08
-7.0383e-06 0.000188599 3.87082e-09
-6.46771e-08 3.87082e-09 0.00015785

0.000196524 -5.9081e-06 1.20403e-07
-5.9081e-06 0.000143295 -1.35436e-07
1.20403e-07 -1.35436e-07 0.00015429

0.000177388 3.0641e-05 8.48026e-09
3.0641e-05 0.000188069 8.74574e-08
8.48026e-09 8.74574e-08 0.000182735

0.000205463 -1.99429e-05 6.00513e-08
-1.99429e-05 0.000146958 1.17048e-07
6.00513e-08 1.17048e-07 0.000171842

0.000203984 3.24008e-05 -8.96476e-08
3.24008e-05 0.00018818 8.23287e-08
-8.96476e-08 8.23287e-08 0.000195839

0.000172833 2.5535e-05 -3.1563e-08
2.5535e-05 0.000206832 1.16536e-07
-3.1563e-08 1.16536e-07 0.000183657

0.000225745 -1.25352e-05 -9.04549e-09
-1.25352e-05 0.000160937 7.453e-08
-9.04549e-09 7.453e-08 0.000199488

0.000137705 1.66602e-05 -1.05847e-07
1.66602e-05 0.000154095 -1.31594e-07
-1.05847e-07 -1.31594e-07 0.000130645

0.000240293 1.58485e-05 4.62211e-08
1.58485e-05 0.000175931 8.14051e-08
4.62211e-08 8.14051e-08 0.00021827

0.000158278 -1.45849e-05 -3.54566e-08
-1.45849e-05 0.000128917 -5.44013e-08
-3.54566e-08 -5.44013e-08 0.000128854

0.000228492 -5.48143e-06 4.03942e-08
-5.48143e-06 0.000250133 -1.34748e-07
4.03942e-08 -1.34748e-07 0.000237197

0.000227326 1.00903e-05 3.49632e-08
1.00903e-05 0.000251155 -8.76058e-09
3.49632e-08 -8.76058e-09 0.000237305

0.000310271 -2.95458e-05 1.49359e-07
-2.95458e-05 0.000255947 -6.91655e-08
1.49359e-07 -6.91655e-08 0.000248613

0.00030588 3.1274e-05 -8.42663e-08
3.1274e-05 0.000255249 -7.57365e-08
-8.42663e-08 -7.57365e-08 0.000248721

0.000191386 -7.60022e-06 1.66838e-07
-7.60022e-06 0.000137877 6.09689e-08
1.66838e-07 6.09689e-08 0.000154132

0.000201061 3.49394e-05 -8.02132e-08
3.49394e-05 0.000198278 9.3492e-08
-8.02132e-08 9.3492e-08 0.000207099

0.000260172 -1.72562e-05 -1.40867e-07
-1.72562e-05 0.000225421 -4.04447e-08
-1.40867e-07 -4.04447e-08 0.000236532

0.000258256 1.78296e-05 1.14139e-07
1.78296e-05 0.000223831 -1.08999e-07
1.14139e-07 -1.08999e-07 0.000235263

0.000239796 6.46223e-06 2.43213e-08
6.46223e-06 0.000176761 8.23726e-08
2.43213e-08 8.23726e-08 0.000224255

0.000168842 2.8772e-05 1.03657e-08
2.8772e-05 0.000205295 6.06417e-08
1.03657e-08 6.06417e-08 0.000181424

0.000203623 -2.49628e-05 3.81044e-08
-2.49628e-05 0.000161547 -2.88775e-08
3.81044e-08 -2.88775e-08 0.000176555

0.000237791 -1.48006e-06 4.77743e-08
-1.48006e-06 0.00016732 -5.85261e-08
4.77743e-08 -5.85261e-08 0.000219904

0.000176099 -2.99834e-05 7.05691e-08
-2.99834e-05 0.000187693 -1.4358e-07
7.05691e-08 -1.4358e-07 0.000181543

0.000175198 -2.46051e-05 1.55359e-07
-2.46051e-05 0.000200282 -5.2537e-08
1.55359e-07 -5.2537e-08 0.00018394

0.000188531 2.80862e-05 -6.43581e-08
2.80862e-05 0.000234216 -6.0376e-08
-6.43581e-08 -6.0376e-08 0.000216224

0.000184788 -3.47854e-05 -1.11152e-07
-3.47854e-05 0.000159993 -4.17494e-08
-1.11152e-07 -4.17494e-08 0.000165927

0.000113195 -2.636e-05 1.69434e-07
-2.636e-05 9.89593e-05 6.11585e-08
1.69434e-07 6.11585e-08 0.000107124

0.000110951 3.70009e-05 -4.62018e-08
3.70009e-05 0.000105744 -2.11816e-08
-4.62018e-08 -2.11816e-08 0.000107106

0.000187189 -3.39693e-05 1.78774e-07
-3.39693e-05 0.000241983 -3.91944e-08
1.78774e-07 -3.91944e-08 0.000231537

0.000114779 4.40826e-06 -5.01515e-08
4.40826e-06 9.83934e-05 4.65203e-08
-5.01515e-08 4.65203e-08 0.000112697

0.000105557 -8.84917e-06 -1.17998e-07
-8.84917e-06 0.000100667 4.72878e-08
-1.17998e-07 4.72878e-08 0.000113335

0.000232682 -7.81801e-06 -7.56297e-08
-7.81801e-06 0.000242466 -8.53359e-08
-7.56297e-08 -8.53359e-08 0.000238699

0.000233736 8.57998e-06 2.32017e-07
8.57998e-06 0.00024172 3.50463e-08
2.32017e-07 3.50463e-08 0.000238774

0.000252391 -3.34714e-07 -1.51868e-08
-3.34714e-07 0.000165016 -6.36221e-08
-1.51868e-08 -6.36221e-08 0.000208549

0.000233911 -4.31531e-06 -4.29615e-08
-4.31531e-06 0.000230913 1.44568e-07
-4.29615e-08 1.44568e-07 0.000238547

0.000235118 4.45852e-06 2.1052e-07
4.45852e-06 0.000231298 1.86336e-07
2.1052e-07 1.86336e-07 0.00023862

0.000172906 2.65281e-05 -3.1842e-08
2.65281e-05 0.00022035 1.13047e-07
-3.1842e-08 1.13047e-07 0.000197289

0.000282838 -2.79005e-05 -2.94588e-08
-2.79005e-05 0.000250835 4.50898e-08
-2.94588e-08 4.50898e-08 0.000245788

0.000282042 2.75962e-05 -4.17457e-08
2.75962e-05 0.000250358 1.47581e-09
-4.17457e-08 1.47581e-09 0.000245942

0.00021926 -1.38885e-05 5.71278e-08
-1.38885e-05 0.000216191 1.09187e-07
5.71278e-08 1.09187e-07 0.000223706

0.000219419 1.39188e-05 -1.51742e-07
1.39188e-05 0.000216081 -2.13944e-07
-1.51742e-07 -2.13944e-07 0.000223848

0.000170113 -2.33757e-05 -9.74963e-08
-2.33757e-05 0.000127684 -6.47174e-08
-9.74963e-08 -6.47174e-08 0.000141937

0.000222462 1.35488e-05 3.10057e-08
1.35488e-05 0.000289411 -1.45222e-07
3.10057e-08 -1.45222e-07 0.000247528

0.000241118 -2.74918e-06 1.97169e-08
-2.74918e-06 0.000265802 7.87347e-08
1.97169e-08 7.87347e-08 0.000246511

0.000170163 -2.91516e-05 9.91342e-08
-2.91516e-05 0.000205923 1.10272e-07
9.91342e-08 1.10272e-07 0.000182082

0.00012455 -7.50472e-06 -2.82134e-08
-7.50472e-06 0.000146968 1.30331e-07
-2.82134e-08 1.30331e-07 0.000127926

0.000153915 -7.40126e-06 -6.35095e-08
-7.40126e-06 0.000113628 -8.72314e-08
-6.35095e-08 -8.72314e-08 0.000127352

0.000181046 2.23722e-05 -1.26503e-08
2.23722e-05 0.000232125 -4.93852e-08
-1.26503e-08 -4.93852e-08 0.00021178

0.00018041 2.26548e-05 1.10824e-07
2.26548e-05 0.000224389 4.75103e-08
1.10824e-07 4.75103e-08 0.000213368

0.000296374 -2.30019e-05 -1.09036e-07
-2.30019e-05 0.000241193 -8.75284e-07
-1.09036e-07 -8.75284e-07 0.000254904

0.000295401 2.06655e-05 9.25437e-08
2.06655e-05 0.000246039 -6.12036e-07
9.25437e-08 -6.12036e-07 0.000255152

0.000188504 2.94973e-05 -6.18218e-08
2.94973e-05 0.000220202 6.10947e-08
-6.18218e-08 6.10947e-08 0.000225475

0.000229035 8.98823e-06 8.91187e-08
8.98823e-06 0.000183647 1.04215e-07
8.91187e-08 1.04215e-07 0.000212431

0.000228743 -9.26241e-06 -1.96945e-08
-9.26241e-06 0.000182645 -1.57233e-08
-1.96945e-08 -1.57233e-08 0.000211788

0.000203828 4.00217e-05 9.47102e-08
4.00217e-05 0.000211689 -7.00331e-08
9.47102e-08 -7.00331e-08 0.000222226

0.000199883 -2.67599e-05 -1.35565e-07
-2.67599e-05 0.000240866 4.07378e-08
-1.35565e-07 4.07378e-08 0.000229223

0.000189513 -5.42534e-07 1.78819e-07
-5.42534e-07 0.000130021 -2.20831e-08
1.78819e-07 -2.20831e-08 0.000152431

0.000226471 7.3596e-07 2.70949e-08
7.3596e-07 0.000157394 -8.51985e-08
2.70949e-08 -8.51985e-08 0.000184105

0.000205349 1.81609e-05 1.17125e-07
1.81609e-05 0.000147393 -6.12788e-08
1.17125e-07 -6.12788e-08 0.000168755

0.000254079 2.95374e-05 9.3888e-08
2.95374e-05 0.000201796 -1.96901e-08
9.3888e-08 -1.96901e-08 0.000231488

0.000308565 -4.21166e-06 1.34356e-07
-4.21166e-06 0.000287597 -1.77163e-07
1.34356e-07 -1.77163e-07 0.000250511

0.000308233 3.85575e-06 -3.789e-07
3.85575e-06 0.000289826 -3.33044e-07
-3.789e-07 -3.33044e-07 0.000250385

0.000167895 2.60586e-05 7.31753e-08
2.60586e-05 0.000165652 2.11218e-08
7.31753e-08 2.11218e-08 0.000154388

0.000204936 -3.31565e-05 -1.31483e-08
-3.31565e-05 0.000176399 2.15509e-08
-1.31483e-08 2.15509e-08 0.000192394

0.000233387 -8.10917e-06 9.41424e-08
-8.10917e-06 0.000177777 -1.07392e-07
9.41424e-08 -1.07392e-07 0.000200396

0.000240432 3.21469e-05 7.13401e-08
3.21469e-05 0.000297396 -1.35411e-07
7.13401e-08 -1.35411e-07 0.000250622

0.000251764 -8.50161e-06 -1.46536e-07
-8.50161e-06 0.000262373 3.82939e-08
-1.46536e-07 3.82939e-08 0.000250153

0.000255906 -2.89099e-05 -1.30134e-07
-2.89099e-05 0.000206697 7.69208e-09
-1.30134e-07 7.69208e-09 0.000233332

0.000194584 -8.7805e-06 8.43262e-09
-8.7805e-06 0.000234456 1.59431e-07
8.43262e-09 1.59431e-07 0.00021847

0.000198279 -8.99467e-06 9.939e-08
-8.99467e-06 0.000235862 -2.29832e-08
9.939e-08 -2.29832e-08 0.000217878

0.000254611 -2.33874e-06 1.28377e-08
-2.33874e-06 0.000167428 -1.8455e-08
1.28377e-08 -1.8455e-08 0.000217462

0.000255492 2.14932e-06 8.25203e-08
2.14932e-06 0.000166915 -2.1565e-09
8.25203e-08 -2.1565e-09 0.000218097

0.000174978 2.27999e-05 -3.87139e-08
2.27999e-05 0.000160686 1.85453e-08
-3.87139e-08 1.85453e-08 0.000151753

0.000251752 -1.87071e-06 -1.60268e-07
-1.87071e-06 0.000189572 1.71712e-07
-1.60268e-07 1.71712e-07 0.000228271

0.000251715 1.80293e-06 -1.68474e-07
1.80293e-06 0.000190025 -1.39441e-07
-1.68474e-07 -1.39441e-07 0.000228418

0.000234103 7.79233e-06 2.39696e-08
7.79233e-06 0.000177404 4.5664e-08
2.39696e-08 4.5664e-08 0.000200658

0.000173614 -2.602e-05 -2.65728e-08
-2.602e-05 0.000208265 -5.15865e-08
-2.65728e-08 -5.15865e-08 0.000184505

0.000254534 -8.92626e-07 1.42787e-08
-8.92626e-07 0.000184476 -1.09946e-08
1.42787e-08 -1.09946e-08 0.000219398

0.000255297 1.0825e-06 6.28532e-08
1.0825e-06 0.000184474 1.05734e-07
6.28532e-08 1.05734e-07 0.000220106

0.000229207 -2.00718e-05 -3.97429e-09
-2.00718e-05 0.000177345 6.34057e-08
-3.97429e-09 6.34057e-08 0.000204976

0.000193747 3.64107e-05 7.26161e-08
3.64107e-05 0.000231894 6.50153e-08
7.26161e-08 6.50153e-08 0.000219888

0.000197858 2.74076e-05 -1.81518e-08
2.74076e-05 0.000169832 -3.6488e-08
-1.81518e-08 -3.6488e-08 0.000176521

0.000196956 2.94629e-05 1.22641e-07
2.94629e-05 0.000214978 1.99424e-08
1.22641e-07 1.99424e-08 0.000226109

0.000195891 3.59721e-05 -7.43026e-08
3.59721e-05 0.000237805 -7.91125e-08
-7.43026e-08 -7.91125e-08 0.000222546

0.000209111 -1.38939e-05 -1.35349e-07
-1.38939e-05 0.000147992 -1.70051e-08
-1.35349e-07 -1.70051e-08 0.00017152

0.000230349 -3.28257e-05 1.46441e-07
-3.28257e-05 0.000189745 -1.36601e-07
1.46441e-07 -1.36601e-07 0.000215079

0.000225275 1.89757e-05 -4.51955e-08
1.89757e-05 0.000176678 2.99481e-10
-4.51955e-08 2.99481e-10 0.000201191

0.000177598 3.23415e-05 2.08926e-09
3.23415e-05 0.000169007 -4.41777e-08
2.08926e-09 -4.41777e-08 0.000169763

0.00020398 3.29354e-05 -7.72536e-08
3.29354e-05 0.000174743 -8.30566e-08
-7.72536e-08 -8.30566e-08 0.00019086

0.000174025 2.931e-06 -1.1394e-07
2.931e-06 0.000230017 8.78768e-08
-1.1394e-07 8.78768e-08 0.000210808

0.000175249 8.23713e-07 1.54752e-07
8.23713e-07 0.000229695 8.33926e-08
1.54752e-07 8.33926e-08 0.000210786

0.000175072 2.34241e-05 -4.19541e-08
2.34241e-05 0.000135089 -6.10182e-08
-4.19541e-08 -6.10182e-08 0.000145695

0.000204237 -4.00492e-05 -3.6628e-08
-4.00492e-05 0.000211984 1.38301e-07
-3.6628e-08 1.38301e-07 0.000222842

0.000171341 -3.13406e-05 1.21235e-07
-3.13406e-05 0.00018662 -2.91752e-08
1.21235e-07 -2.91752e-08 0.000169191

0.000169796 3.16714e-05 -1.14695e-08
3.16714e-05 0.000187711 -1.20443e-07
-1.14695e-08 -1.20443e-07 0.00016877

0.000225655 -2.39678e-05 -2.33062e-08
-2.39678e-05 0.000177344 2.09948e-08
-2.33062e-08 2.09948e-08 0.00020287

0.000257318 -1.59999e-05 -1.61992e-08
-1.59999e-05 0.000172969 8.78773e-08
-1.61992e-08 8.78773e-08 0.00023209

0.000256071 1.59679e-05 -1.89713e-08
1.59679e-05 0.000175315 2.87001e-08
-1.89713e-08 2.87001e-08 0.000231182

0.000157382 1.75238e-05 5.01376e-08
1.75238e-05 0.000196288 -4.85293e-09
5.01376e-08 -4.85293e-09 0.000174162

0.000204409 -3.31566e-05 -4.49865e-08
-3.31566e-05 0.000188034 -1.27979e-07
-4.49865e-08 -1.27979e-07 0.000195523

0.000131275 -1.25834e-06 2.78498e-08
-1.25834e-06 0.000185719 -6.18242e-08
2.78498e-08 -6.18242e-08 0.000151419

0.000130372 7.93991e-07 -3.09651e-08
7.93991e-07 0.000185722 -5.93067e-09
-3.09651e-08 -5.93067e-09 0.000151269

0.00019359 1.59358e-06 4.63986e-08
1.59358e-06 0.000124418 7.75791e-08
4.63986e-08 7.75791e-08 0.000148331

0.000172314 -2.34368e-05 8.7243e-08
-2.34368e-05 0.000161854 3.80035e-08
8.7243e-08 3.80035e-08 0.000150863

0.000183087 2.82573e-05 3.56008e-08
2.82573e-05 0.000163769 8.86103e-08
3.56008e-08 8.86103e-08 0.000168359

0.000265748 -5.82562e-05 1.46303e-07
-5.82562e-05 0.000292523 -5.45697e-08
1.46303e-07 -5.45697e-08 0.000253716

0.000278975 2.56419e-05 -2.26871e-07
2.56419e-05 0.000297646 -4.08453e-08
-2.26871e-07 -4.08453e-08 0.000254101

0.000210664 1.27551e-05 -7.05846e-09
1.27551e-05 0.000148835 -6.5774e-08
-7.05846e-09 -6.5774e-08 0.000172715

0.000184897 3.52627e-05 -9.98555e-08
3.52627e-05 0.000226617 5.74286e-08
-9.98555e-08 5.74286e-08 0.000206997

0.000252315 3.07833e-07 -1.92833e-08
3.07833e-07 0.000164785 5.0207e-09
-1.92833e-08 5.0207e-09 0.000207992

0.000156996 -1.68999e-05 -6.83365e-08
-1.68999e-05 0.000197339 1.25254e-08
-6.83365e-08 1.25254e-08 0.000174838

0.000178343 3.50343e-05 -3.1952e-08
3.50343e-05 0.00024396 -3.66878e-09
-3.1952e-08 -3.66878e-09 0.000232484

0.000201676 2.8708e-05 -1.08466e-07
2.8708e-05 0.000242112 -5.04114e-09
-1.08466e-07 -5.04114e-09 0.000229838

0.000194821 -3.66187e-05 -2.48827e-08
-3.66187e-05 0.00023165 7.97501e-08
-2.48827e-08 7.97501e-08 0.000219983

0.000193308 3.68865e-05 4.04058e-08
3.68865e-05 0.00024097 -5.06373e-08
4.04058e-08 -5.06373e-08 0.000223376

0.000184235 2.79185e-05 -5.19455e-08
2.79185e-05 0.00021132 -1.56518e-07
-5.19455e-08 -1.56518e-07 0.000209576

0.000268332 3.07027e-07 -7.20721e-08
3.07027e-07 0.000163623 -5.45065e-08
-7.20721e-08 -5.45065e-08 0.000222155

0.000184188 -2.80546e-05 -2.35133e-08
-2.80546e-05 0.000162312 1.18251e-07
-2.35133e-08 1.18251e-07 0.00016701

0.000196812 -2.9491e-05 2.5051e-08
-2.9491e-05 0.000215364 -4.64826e-08
2.5051e-08 -4.64826e-08 0.000226481

0.000183226 -2.406e-05 4.76105e-09
-2.406e-05 0.000185436 -1.80789e-07
4.76105e-09 -1.80789e-07 0.000174463

0.000162132 -2.29394e-05 5.71679e-08
-2.29394e-05 0.000163123 1.10954e-07
5.71679e-08 1.10954e-07 0.000150878

0.000201081 -3.4572e-05 -6.31908e-08
-3.4572e-05 0.000199451 -1.01128e-07
-6.31908e-08 -1.01128e-07 0.000207572

0.000151469 -1.37586e-05 -8.05156e-08
-1.37586e-05 0.000193407 -1.1088e-10
-8.05156e-08 -1.1088e-10 0.000160969

0.00015157 1.37053e-05 -9.41681e-08
1.37053e-05 0.000193477 -3.98797e-08
-9.41681e-08 -3.98797e-08 0.000160681

0.00019431 7.98359e-06 -2.72858e-08
7.98359e-06 0.000147478 -7.26165e-08
-2.72858e-08 -7.26165e-08 0.000157179

0.000182569 2.48088e-05 2.0073e-08
2.48088e-05 0.00018549 -1.58845e-07
2.0073e-08 -1.58845e-07 0.00017434

0.00017492 4.36803e-06 1.58555e-07
4.36803e-06 0.000220174 6.9618e-09
1.58555e-07 6.9618e-09 0.000192794

0.000174454 -1.12064e-06 -1.11227e-07
-1.12064e-06 0.000219608 3.34278e-08
-1.11227e-07 3.34278e-08 0.000192701

0.000149301 -2.73636e-05 -2.90335e-09
-2.73636e-05 0.000163307 -4.75696e-09
-2.90335e-09 -4.75696e-09 0.000146066

0.000150682 2.75434e-05 -5.12456e-09
2.75434e-05 0.000162606 4.89943e-10
-5.12456e-09 4.89943e-10 0.000145534

0.000268775 2.16488e-06 -5.73366e-08
2.16488e-06 0.000168541 -3.02482e-08
-5.73366e-08 -3.02482e-08 0.000222517

0.000269673 -2.16218e-06 -1.32816e-07
-2.16218e-06 0.000168064 4.03484e-08
-1.32816e-07 4.03484e-08 0.000222765

0.00018856 3.22059e-05 -2.48956e-09
3.22059e-05 0.00022859 1.4835e-08
-2.48956e-09 1.4835e-08 0.000209812

0.000174841 -3.1452e-05 -1.0191e-08
-3.1452e-05 0.00024176 2.83115e-08
-1.0191e-08 2.83115e-08 0.000232029

0.000219023 3.53524e-05 -4.02776e-08
3.53524e-05 0.000198239 9.64947e-08
-4.02776e-08 9.64947e-08 0.000215071

0.000167212 1.64723e-05 -1.46322e-08
1.64723e-05 0.000123885 1.50655e-08
-1.46322e-08 1.50655e-08 0.000137287

0.000155609 2.13611e-05 -3.17795e-08
2.13611e-05 0.000206478 1.16525e-07
-3.17795e-08 1.16525e-07 0.000175114

0.000237911 1.68216e-06 -5.6854e-08
1.68216e-06 0.000216616 -2.16054e-07
-5.6854e-08 -2.16054e-07 0.000231163

0.000236849 -1.85585e-06 -1.79213e-08
-1.85585e-06 0.000216893 1.06948e-07
-1.79213e-08 1.06948e-07 0.000231069

0.00020699 2.05458e-05 -5.16712e-08
2.05458e-05 0.000193624 9.90722e-08
-5.16712e-08 9.90722e-08 0.000195264

0.000227947 -1.28567e-05 -3.34699e-09
-1.28567e-05 0.000204815 1.71578e-07
-3.34699e-09 1.71578e-07 0.000213983

0.000228165 1.30965e-05 9.44784e-08
1.30965e-05 0.0002049 4.22701e-08
9.44784e-08 4.22701e-08 0.000214126

0.000107619 -1.33249e-05 9.21327e-08
-1.33249e-05 7.84654e-05 1.38461e-07
9.21327e-08 1.38461e-07 0.000113254

7.10352e-05 1.64315e-05 7.70063e-09
1.64315e-05 0.000101247 2.76726e-08
7.70063e-09 2.76726e-08 0.000112544

0.000154833 -2.10736e-05 -6.49819e-08
-2.10736e-05 0.000207236 -4.61102e-08
-6.49819e-08 -4.61102e-08 0.000175641

0.000260211 -4.47887e-06 2.44219e-07
-4.47887e-06 0.000244987 1.67062e-07
2.44219e-07 1.67062e-07 0.000248294

0.000259985 5.42274e-06 -1.33509e-07
5.42274e-06 0.000245473 2.50443e-07
-1.33509e-07 2.50443e-07 0.00024831

0.000169331 1.37848e-05 -2.9757e-08
1.37848e-05 0.000121982 5.81885e-08
-2.9757e-08 5.81885e-08 0.000137196

0.000178014 -1.76454e-05 -8.09417e-08
-1.76454e-05 0.000229731 1.14538e-07
-8.09417e-08 1.14538e-07 0.000213434

0.00018214 -1.69157e-05 3.20121e-08
-1.69157e-05 0.000231974 -5.57432e-08
3.20121e-08 -5.57432e-08 0.000212197

0.000177327 -3.40128e-05 3.77298e-08
-3.40128e-05 0.000171177 1.2576e-07
3.77298e-08 1.2576e-07 0.000167786

0.00019395 -3.69713e-05 3.34567e-08
-3.69713e-05 0.000241225 -9.15074e-08
3.34567e-08 -9.15074e-08 0.000223238

0.000174213 4.39942e-05 8.45987e-08
4.39942e-05 0.000223778 7.81729e-08
8.45987e-08 7.81729e-08 0.000225864

0.000228074 2.01959e-05 5.19676e-08
2.01959e-05 0.000243113 -1.55323e-08
5.19676e-08 -1.55323e-08 0.000236033

0.000218149 2.74878e-05 -1.70908e-08
2.74878e-05 0.000244776 -4.6406e-09
-1.70908e-08 -4.6406e-09 0.000237617

0.000187804 -3.25404e-05 4.33607e-08
-3.25404e-05 0.00022928 3.93145e-08
4.33607e-08 3.93145e-08 0.000210276

0.000201136 3.41751e-05 -4.40543e-08
3.41751e-05 0.00020529 -1.59143e-07
-4.40543e-08 -1.59143e-07 0.000212295

0.000206656 -2.1176e-05 1.21671e-07
-2.1176e-05 0.000193859 9.88363e-08
1.21671e-07 9.88363e-08 0.000195365

0.000197937 2.47778e-05 1.97453e-08
2.47778e-05 0.00014764 1.14389e-07
1.97453e-08 1.14389e-07 0.000166886

0.000226192 -7.37316e-07 4.28537e-08
-7.37316e-07 0.000157277 8.05243e-08
4.28537e-08 8.05243e-08 0.000184414

0.000192579 3.83071e-05 5.06552e-08
3.83071e-05 0.000238256 -6.77653e-08
5.06552e-08 -6.77653e-08 0.000222707

0.000174961 -2.33202e-05 1.47805e-07
-2.33202e-05 0.000209924 5.17491e-08
1.47805e-07 5.17491e-08 0.00019924

0.000161795 8.31277e-06 7.16946e-08
8.31277e-06 0.000213099 -6.57893e-08
7.16946e-08 -6.57893e-08 0.000187339

0.000203245 2.39385e-05 -8.69536e-08
2.39385e-05 0.000202277 6.86031e-08
-8.69536e-08 6.86031e-08 0.000206515

0.000162692 1.0565e-05 -2.16322e-08
1.0565e-05 0.000217049 9.18098e-08
-2.16322e-08 9.18098e-08 0.000187889

0.000202765 -2.98064e-05 1.64552e-07
-2.98064e-05 0.000242647 -6.4432e-08
1.64552e-07 -6.4432e-08 0.000228907

0.000123466 -1.62836e-05 -4.01271e-08
-1.62836e-05 0.000126474 -4.73927e-08
-4.01271e-08 -4.73927e-08 0.00011839

0.000136668 -1.66835e-05 -8.09293e-08
-1.66835e-05 0.000111965 -8.89483e-08
-8.09293e-08 -8.89483e-08 0.000118138

0.000233563 -6.95248e-06 1.0262e-07
-6.95248e-06 0.000162032 4.54633e-08
1.0262e-07 4.54633e-08 0.000198537

0.000202453 -2.41941e-05 3.06729e-08
-2.41941e-05 0.000202071 1.76491e-07
3.06729e-08 1.76491e-07 0.000206401

0.000303132 -3.20763e-05 -5.30485e-07
-3.20763e-05 0.000245728 1.39042e-07
-5.30485e-07 1.39042e-07 0.000253983

0.000303132 3.03627e-05 3.00831e-07
3.03627e-05 0.00024794 -1.10737e-07
3.00831e-07 -1.10737e-07 0.000254124

0.000185798 -3.46738e-05 -5.74799e-08
-3.46738e-05 0.000227675 -9.92766e-09
-5.74799e-08 -9.92766e-09 0.000208179

0.000258201 -2.92098e-05 -1.72005e-07
-2.92098e-05 0.000258092 -1.83994e-09
-1.72005e-07 -1.83994e-09 0.000243885

0.000257836 3.07092e-05 1.88324e-07
3.07092e-05 0.000257444 -1.41734e-08
1.88324e-07 -1.41734e-08 0.000243814

0.000229736 6.87023e-06 -7.46427e-08
6.87023e-06 0.000169365 -5.98784e-08
-7.46427e-08 -5.98784e-08 0.000208022

0.000173472 -4.40356e-05 1.13517e-08
-4.40356e-05 0.000222964 -6.65949e-08
1.13517e-08 -6.65949e-08 0.000225873

0.000130527 -1.99976e-05 3.36377e-08
-1.99976e-05 0.000129032 -2.67373e-08
3.36377e-08 -2.67373e-08 0.000123258

0.000138777 2.01268e-05 -1.5333e-07
2.01268e-05 0.000124288 8.58719e-09
-1.5333e-07 8.58719e-09 0.00012497

0.000129459 -1.49003e-05 3.48613e-08
-1.49003e-05 0.000157728 -4.11934e-08
3.48613e-08 -4.11934e-08 0.000133032

0.000125403 1.38893e-05 7.7179e-09
1.38893e-05 0.000158017 1.16903e-08
7.7179e-09 1.16903e-08 0.000132029

0.000161055 8.16096e-06 3.84889e-09
8.16096e-06 0.000118923 -1.93941e-08
3.84889e-09 -1.93941e-08 0.000130858

0.000192841 -3.86562e-05 2.58708e-08
-3.86562e-05 0.000238679 -1.03897e-07
2.58708e-08 -1.03897e-07 0.000222517

0.000111079 4.21371e-06 6.24469e-08
4.21371e-06 0.000148989 -8.04504e-08
6.24469e-08 -8.04504e-08 0.00012514

0.000154383 -4.61215e-06 -6.38546e-08
-4.61215e-06 0.000106491 4.3678e-08
-6.38546e-08 4.3678e-08 0.000123731

0.000222487 -1.21263e-05 7.72128e-08
-1.21263e-05 0.000270688 1.64556e-07
7.72128e-08 1.64556e-07 0.000244504

0.000240656 -8.93187e-07 1.87061e-08
-8.93187e-07 0.000254617 1.23525e-07
1.87061e-08 1.23525e-07 0.000243603

0.000241158 1.95262e-05 6.10014e-08
1.95262e-05 0.000194447 -5.10092e-08
6.10014e-08 -5.10092e-08 0.000219361

0.000247702 -1.13187e-06 6.53101e-08
-1.13187e-06 0.000153682 -3.73313e-08
6.53101e-08 -3.73313e-08 0.000224799

0.000148503 1.94932e-05 -2.02837e-08
1.94932e-05 0.000183981 -1.28918e-07
-2.02837e-08 -1.28918e-07 0.00015657

0.000147631 -1.9917e-05 -1.14905e-08
-1.9917e-05 0.000184168 8.23938e-08
-1.14905e-08 8.23938e-08 0.000156941

0.000233494 -3.4876e-06 -8.76113e-08
-3.4876e-06 0.000170509 1.09013e-08
-8.76113e-08 1.09013e-08 0.000209113

0.000173588 -2.63049e-05 -2.78454e-08
-2.63049e-05 0.00022205 -3.30576e-08
-2.78454e-08 -3.30576e-08 0.000198388

0.000256494 2.77492e-06 1.89217e-07
2.77492e-06 0.000233052 2.31877e-07
1.89217e-07 2.31877e-07 0.000243414

0.000255416 -2.33281e-06 -9.19353e-08
-2.33281e-06 0.000233539 2.99434e-07
-9.19353e-08 2.99434e-07 0.000243431

0.000224975 2.9103e-05 4.87442e-08
2.9103e-05 0.000204656 1.68571e-08
4.87442e-08 1.68571e-08 0.000217079

0.000201199 -3.36599e-05 -1.49127e-08
-3.36599e-05 0.000205411 1.25273e-07
-1.49127e-08 1.25273e-07 0.000212387

0.000240911 1.71653e-05 7.10739e-08
1.71653e-05 0.000171964 5.2086e-08
7.10739e-08 5.2086e-08 0.000215015

0.000169125 2.56706e-05 4.80273e-08
2.56706e-05 0.000149457 1.20667e-07
4.80273e-08 1.20667e-07 0.000150653

0.000184983 -2.9081e-05 2.96035e-08
-2.9081e-05 0.000212768 1.45215e-07
2.96035e-08 1.45215e-07 0.000210115

0.000105351 4.44348e-05 -1.01575e-07
4.44348e-05 9.5286e-05 -1.49455e-08
-1.01575e-07 -1.49455e-08 0.000104423

0.000162737 -6.32414e-06 -1.14882e-07
-6.32414e-06 0.000213261 -1.09864e-07
-1.14882e-07 -1.09864e-07 0.000187596

0.00016369 -9.47084e-06 -1.37434e-08
-9.47084e-06 0.000215061 6.77662e-08
-1.37434e-08 6.77662e-08 0.000187359

0.000225788 1.28279e-05 5.92397e-08
1.28279e-05 0.000271917 -1.51099e-07
5.92397e-08 -1.51099e-07 0.00024552

0.000232878 -1.963e-05 -1.76248e-08
-1.963e-05 0.000265264 2.05436e-07
-1.76248e-08 2.05436e-07 0.000245356

0.000268845 -1.13018e-06 -1.15986e-07
-1.13018e-06 0.000177064 4.66716e-08
-1.15986e-07 4.66716e-08 0.000229755

0.000269325 1.01731e-06 -1.67966e-07
1.01731e-06 0.000176865 -5.07786e-09
-1.67966e-07 -5.07786e-09 0.000229929

0.000236125 -3.77852e-05 3.74379e-08
-3.77852e-05 0.000215666 1.04154e-08
3.74379e-08 1.04154e-08 0.0002298

0.000237414 3.84511e-05 -6.81794e-08
3.84511e-05 0.000210479 -3.46503e-08
-6.81794e-08 -3.46503e-08 0.000228332

0.000265719 -1.47583e-05 -1.35888e-07
-1.47583e-05 0.000245042 1.51753e-07
-1.35888e-07 1.51753e-07 0.000241941

0.000266437 1.3673e-05 1.81158e-07
1.3673e-05 0.000245228 1.65846e-08
1.81158e-07 1.65846e-08 0.000241847

0.000274117 -1.22823e-05 -8.81406e-08
-1.22823e-05 0.000248143 1.64918e-07
-8.81406e-08 1.64918e-07 0.000252254

0.000274117 1.29825e-05 -1.95736e-07
1.29825e-05 0.000250072 -8.16894e-08
-1.95736e-07 -8.16894e-08 0.000252414

0.000203153 -3.69106e-05 8.12719e-08
-3.69106e-05 0.000240826 -1.0115e-07
8.12719e-08 -1.0115e-07 0.000230359

0.000204278 3.67559e-05 -2.44261e-08
3.67559e-05 0.000240392 -6.47729e-08
-2.44261e-08 -6.47729e-08 0.000230669

0.000208859 -1.89237e-05 7.06799e-08
-1.89237e-05 0.000175133 -1.1083e-07
7.06799e-08 -1.1083e-07 0.000191556

0.000178742 -1.60257e-05 -1.13703e-07
-1.60257e-05 0.000217537 -1.10954e-07
-1.13703e-07 -1.10954e-07 0.000200551

0.000190106 3.09189e-05 2.57439e-07
3.09189e-05 0.00019043 4.32893e-08
2.57439e-07 4.32893e-08 0.00018798

0.000180406 -2.2662e-05 4.2664e-08
-2.2662e-05 0.000223991 6.47294e-09
4.2664e-08 6.47294e-09 0.000199785

0.000170089 -2.40234e-05 -9.83774e-08
-2.40234e-05 0.000152151 -5.17416e-08
-9.83774e-08 -5.17416e-08 0.000149019

0.000208731 1.85099e-05 -4.2617e-08
1.85099e-05 0.000174549 5.66963e-08
-4.2617e-08 5.66963e-08 0.000191101

0.000180156 1.58807e-05 1.09014e-07
1.58807e-05 0.000216146 -4.80679e-08
1.09014e-07 -4.80679e-08 0.000199696

0.000207039 -4.56169e-05 -5.9616e-08
-4.56169e-05 0.000224766 -1.89638e-08
-5.9616e-08 -1.89638e-08 0.00023253

0.000205684 4.53829e-05 -1.14241e-07
4.53829e-05 0.000224247 -5.56263e-08
-1.14241e-07 -5.56263e-08 0.000232482

0.000244112 -1.87287e-05 5.74899e-08
-1.87287e-05 0.000197971 -1.67945e-07
5.74899e-08 -1.67945e-07 0.000222542

0.000280888 -3.395e-05 -9.67386e-08
-3.395e-05 0.000307847 6.77562e-10
-9.67386e-08 6.77562e-10 0.000253328

0.000278231 3.45919e-05 -1.4555e-07
3.45919e-05 0.000254703 -1.53605e-07
-1.4555e-07 -1.53605e-07 0.000253672

0.000199833 -2.56863e-05 -1.36013e-07
-2.56863e-05 0.000235705 5.89217e-08
-1.36013e-07 5.89217e-08 0.00021896

0.000225611 3.27244e-05 4.41383e-08
3.27244e-05 0.000187098 -4.50911e-08
4.41383e-08 -4.50911e-08 0.000211883

0.000259557 1.85718e-06 -1.67203e-08
1.85718e-06 0.000222524 2.3384e-08
-1.67203e-08 2.3384e-08 0.000237016

0.000190333 -3.06675e-05 -2.50721e-07
-3.06675e-05 0.000191571 4.79711e-08
-2.50721e-07 4.79711e-08 0.000188064

0.000126619 1.91741e-05 1.74289e-09
1.91741e-05 0.000133667 -5.15601e-08
1.74289e-09 -5.15601e-08 0.000120382

0.0001374 1.88473e-05 -2.53342e-08
1.88473e-05 0.000118045 -1.81349e-08
-2.53342e-08 -1.81349e-08 0.000120456

0.000268836 3.83668e-06 -1.68711e-08
3.83668e-06 0.000189412 1.69751e-07
-1.68711e-08 1.69751e-07 0.000233573

0.000268022 -3.66972e-06 -5.6516e-08
-3.66972e-06 0.000189315 -1.32772e-07
-5.6516e-08 -1.32772e-07 0.000233574

0.000260392 -3.1708e-06 -2.8824e-08
-3.1708e-06 0.000224827 4.45393e-08
-2.8824e-08 4.45393e-08 0.000237578

0.000181032 2.16039e-05 -1.11999e-08
2.16039e-05 0.000223316 9.95864e-08
-1.11999e-08 9.95864e-08 0.000199518

0.000209144 -1.5063e-05 -1.36509e-07
-1.5063e-05 0.000168933 5.08883e-08
-1.36509e-07 5.08883e-08 0.000176802

0.000218012 -1.81061e-05 3.04469e-08
-1.81061e-05 0.000228913 -1.05068e-07
3.04469e-08 -1.05068e-07 0.000224805

0.000218049 1.85553e-05 -1.94547e-07
1.85553e-05 0.000229156 1.27066e-07
-1.94547e-07 1.27066e-07 0.00022494

0.00029868 -1.67366e-06 1.38572e-07
-1.67366e-06 0.000321905 -6.68835e-09
1.38572e-07 -6.68835e-09 0.000251351

0.000294771 1.52602e-06 -8.5703e-08
1.52602e-06 0.00032122 -8.47839e-08
-8.5703e-08 -8.47839e-08 0.000251495

0.000186861 -3.10892e-05 -3.88868e-08
-3.10892e-05 0.000233457 9.80808e-08
-3.88868e-08 9.80808e-08 0.000216339

0.00022132 2.46708e-05 -1.31427e-08
2.46708e-05 0.00017675 -9.22177e-08
-1.31427e-08 -9.22177e-08 0.000199474

0.000251924 -2.96339e-06 -1.69472e-07
-2.96339e-06 0.000210629 -9.618e-08
-1.69472e-07 -9.618e-08 0.00023232

0.000251982 3.44064e-06 -1.6535e-07
3.44064e-06 0.000210778 -5.163e-08
-1.6535e-07 -5.163e-08 0.000232243

0.000189193 -2.01278e-05 1.76983e-07
-2.01278e-05 0.000227778 -6.48017e-08
1.76983e-07 -6.48017e-08 0.000221197

0.000188372 -3.15656e-05 -7.20722e-08
-3.15656e-05 0.000218349 -5.25677e-08
-7.20722e-08 -5.25677e-08 0.000225184

0.000103656 -4.65756e-05 1.64751e-07
-4.65756e-05 0.000105232 7.33908e-09
1.64751e-07 7.33908e-09 0.00010534

0.000217325 -3.06424e-05 2.98106e-08
-3.06424e-05 0.000243172 1.62584e-07
2.98106e-08 1.62584e-07 0.000235962

0.000216483 2.993e-05 -1.65748e-07
2.993e-05 0.000242684 4.81283e-08
-1.65748e-07 4.81283e-08 0.000235796

0.000184339 -3.03988e-05 -1.34528e-08
-3.03988e-05 0.00022171 -1.25654e-07
-1.34528e-08 -1.25654e-07 0.00021919

0.000211112 1.58523e-05 1.23064e-08
1.58523e-05 0.000169212 9.79597e-08
1.23064e-08 9.79597e-08 0.000177837

0.000229772 -2.81227e-05 1.42095e-07
-2.81227e-05 0.00020564 -5.90234e-08
1.42095e-07 -5.90234e-08 0.000219138

0.000239454 -3.15116e-05 6.65484e-08
-3.15116e-05 0.000215659 1.20149e-07
6.65484e-08 1.20149e-07 0.000231174

0.000241473 3.10181e-05 -1.1075e-07
3.10181e-05 0.00021439 1.09091e-07
-1.1075e-07 1.09091e-07 0.000230832

0.000244108 -1.79017e-05 5.69745e-08
-1.79017e-05 0.000173498 4.00676e-08
5.69745e-08 4.00676e-08 0.000218101

0.000266246 7.74059e-06 7.2863e-08
7.74059e-06 0.000214588 -2.76261e-07
7.2863e-08 -2.76261e-07 0.000240554

0.000265361 -7.71758e-06 -3.70889e-08
-7.71758e-06 0.000214832 -3.6211e-08
-3.70889e-08 -3.6211e-08 0.000240432

0.000240048 -1.20224e-05 -2.02692e-08
-1.20224e-05 0.000305436 -7.69934e-08
-2.02692e-08 -7.69934e-08 0.000251619

0.000250404 2.71322e-05 -2.53089e-07
2.71322e-05 0.000298565 -4.43748e-08
-2.53089e-07 -4.43748e-08 0.000251807

0.00011204 3.92965e-06 6.62426e-08
3.92965e-06 6.77632e-05 9.80275e-08
6.62426e-08 9.80275e-08 0.000112499

8.22703e-05 7.14724e-06 -1.0421e-07
7.14724e-06 0.000104157 2.69447e-08
-1.0421e-07 2.69447e-08 0.000112769

0.000202043 2.89723e-05 1.07837e-07
2.89723e-05 0.000238159 2.56657e-08
1.07837e-07 2.56657e-08 0.000222903

0.000202693 -2.94662e-05 -4.11655e-08
-2.94662e-05 0.000237509 6.03114e-08
-4.11655e-08 6.03114e-08 0.000222693

0.000193191 -3.71714e-05 1.18299e-07
-3.71714e-05 0.000238255 -1.16872e-07
1.18299e-07 -1.16872e-07 0.000221762

9.88994e-05 -1.98019e-05 1.60893e-07
-1.98019e-05 9.51961e-05 5.0053e-08
1.60893e-07 5.0053e-08 0.000110464

0.000102419 -1.64042e-05 5.62759e-09
-1.64042e-05 9.58437e-05 3.21748e-08
5.62759e-09 3.21748e-08 0.000110753

0.000248685 2.61926e-05 -7.09257e-09
2.61926e-05 0.000300455 1.69009e-07
-7.09257e-09 1.69009e-07 0.000254736

0.000250092 -2.70967e-05 -1.28295e-07
-2.70967e-05 0.000298552 5.04428e-07
-1.28295e-07 5.04428e-07 0.000254695

0.000220946 -3.55878e-05 7.00313e-08
-3.55878e-05 0.000199327 -1.20492e-07
7.00313e-08 -1.20492e-07 0.000216182

0.000187819 -2.87618e-05 -1.89162e-07
-2.87618e-05 0.000205417 1.53129e-07
-1.89162e-07 1.53129e-07 0.000193113

0.000202193 2.82897e-05 9.97464e-08
2.82897e-05 0.00022332 -2.59287e-08
9.97464e-08 -2.59287e-08 0.000219103

0.000202591 -2.78867e-05 -8.32581e-09
-2.78867e-05 0.00022291 -1.25246e-07
-8.32581e-09 -1.25246e-07 0.000218973

0.000187948 -3.30542e-05 1.82828e-08
-3.30542e-05 0.000216606 -1.22767e-07
1.82828e-08 -1.22767e-07 0.000204306

0.000187505 2.89973e-05 2.2549e-07
2.89973e-05 0.000204799 9.84002e-08
2.2549e-07 9.84002e-08 0.000192956

0.000128656 -1.07713e-05 3.16263e-08
-1.07713e-05 0.00015885 -4.16274e-08
3.16263e-08 -4.16274e-08 0.000134356

0.000127819 9.24059e-06 -3.78798e-08
9.24059e-06 0.000160325 2.38511e-08
-3.78798e-08 2.38511e-08 0.000133653

0.000161074 7.62403e-06 -1.90003e-08
7.62403e-06 0.000123445 8.53273e-08
-1.90003e-08 8.53273e-08 0.000132342

0.000188413 3.37129e-05 3.32191e-08
3.37129e-05 0.000216537 -1.79611e-07
3.32191e-08 -1.79611e-07 0.000204124

0.000112746 -5.13666e-06 6.19851e-08
-5.13666e-06 0.000146622 1.21649e-07
6.19851e-08 1.21649e-07 0.000124041

0.000153002 -3.23644e-06 -7.70561e-08
-3.23644e-06 0.000105307 2.09831e-08
-7.70561e-08 2.09831e-08 0.000124312

0.000211692 -2.74458e-05 3.44871e-08
-2.74458e-05 0.000236247 4.42694e-08
3.44871e-08 4.42694e-08 0.000230535

0.000212785 2.68239e-05 -1.56497e-07
2.68239e-05 0.000236927 -2.54288e-08
-1.56497e-07 -2.54288e-08 0.000230749

0.000215611 -2.04901e-05 1.04737e-09
-2.04901e-05 0.000238055 -6.98943e-08
1.04737e-09 -6.98943e-08 0.00023232

0.000216136 2.09389e-05 -1.98975e-07
2.09389e-05 0.000237456 1.21839e-07
-1.98975e-07 1.21839e-07 0.000232409

0.000101447 1.84228e-05 -1.00983e-07
1.84228e-05 9.01742e-05 -7.10837e-09
-1.00983e-07 -7.10837e-09 0.000109165

9.95437e-05 1.69315e-05 -1.31745e-07
1.69315e-05 9.09372e-05 -1.7351e-08
-1.31745e-07 -1.7351e-08 0.000108589

0.000202482 2.62319e-05 -6.27105e-08
2.62319e-05 0.000220217 -1.42549e-07
-6.27105e-08 -1.42549e-07 0.0002104

0.000201938 -2.57207e-05 -1.27912e-09
-2.57207e-05 0.000220167 -1.3024e-07
-1.27912e-09 -1.3024e-07 0.000210292

0.000236744 -2.49699e-05 1.91328e-08
-2.49699e-05 0.000272135 1.67939e-07
1.91328e-08 1.67939e-07 0.00024736

0.00024653 1.14404e-05 -2.23806e-07
1.14404e-05 0.000253161 1.37647e-07
-2.23806e-07 1.37647e-07 0.000247236

0.000207833 -2.84453e-05 9.55742e-08
-2.84453e-05 0.000250959 -6.02284e-08
9.55742e-08 -6.02284e-08 0.000234946

0.000208844 2.79994e-05 -7.72642e-08
2.79994e-05 0.000250562 1.00199e-07
-7.72642e-08 1.00199e-07 0.000235026

0.000256551 1.82608e-06 1.37369e-07
1.82608e-06 0.000211013 -2.40659e-07
1.37369e-07 -2.40659e-07 0.000240309

0.000255513 -1.5387e-06 -5.62011e-08
-1.5387e-06 0.000211012 -2.56627e-08
-5.62011e-08 -2.56627e-08 0.000240271

0.000213205 -3.19339e-05 -4.94891e-08
-3.19339e-05 0.000215652 1.18432e-07
-4.94891e-08 1.18432e-07 0.000224104

0.000213057 3.27885e-05 -3.54362e-08
3.27885e-05 0.000214308 1.0679e-07
-3.54362e-08 1.0679e-07 0.000223635

0.000273858 7.6542e-06 1.2434e-07
7.6542e-06 0.000233017 8.4024e-08
1.2434e-07 8.4024e-08 0.000247247

0.000271216 1.43515e-06 -2.48128e-08
1.43515e-06 0.00024679 2.22051e-07
-2.48128e-08 2.22051e-07 0.000251966

0.000274119 -7.77601e-06 -3.09026e-07
-7.77601e-06 0.000233335 8.1752e-09
-3.09026e-07 8.1752e-09 0.000247384

0.00027298 -1.69107e-06 -2.87391e-07
-1.69107e-06 0.000245572 2.81974e-08
-2.87391e-07 2.81974e-08 0.000252021

0.000240102 7.49938e-07 5.25938e-08
7.49938e-07 0.000274843 -2.05041e-07
5.25938e-08 -2.05041e-07 0.000248409

0.000281704 3.0015e-05 -6.06297e-08
3.0015e-05 0.000260363 -1.47227e-07
-6.06297e-08 -1.47227e-07 0.000246905

0.000284257 -3.21877e-05 1.29397e-07
-3.21877e-05 0.00026023 -3.02017e-08
1.29397e-07 -3.02017e-08 0.000246825

0.000223188 -1.71911e-05 9.93659e-08
-1.71911e-05 0.000303035 -5.02306e-08
9.93659e-08 -5.02306e-08 0.000248913

0.000249443 -1.54635e-05 -6.60452e-07
-1.54635e-05 0.000260721 9.66495e-07
-6.60452e-07 9.66495e-07 0.000250311

0.00037898 -2.03996e-05 2.40524e-06
-2.03996e-05 0.000197656 1.03094e-06
2.40524e-06 1.03094e-06 0.000255188

0.000249146 1.64143e-05 2.01387e-07
1.64143e-05 0.000259984 4.30012e-07
2.01387e-07 4.30012e-07 0.000250651

0.000374067 1.89553e-05 -1.38881e-06
1.89553e-05 0.000203414 5.11068e-07
-1.38881e-06 5.11068e-07 0.000255562

0.00026036 -2.08382e-05 3.46404e-08
-2.08382e-05 0.000251931 -8.71179e-08
3.46404e-08 -8.71179e-08 0.000248359

0.000232987 -1.43671e-05 1.64904e-08
-1.43671e-05 0.000255363 -7.50987e-08
1.64904e-08 -7.50987e-08 0.000242543

0.000269052 -1.06185e-06 2.17433e-09
-1.06185e-06 0.000248696 -2.37463e-07
2.17433e-09 -2.37463e-07 0.000253341

0.00025969 2.17614e-05 -1.92021e-07
2.17614e-05 0.000251969 -1.66313e-07
-1.92021e-07 -1.66313e-07 0.000248539

0.000232987 1.49254e-05 1.4682e-07
1.49254e-05 0.000254625 5.80664e-08
1.4682e-07 5.80664e-08 0.000242557

0.000268662 1.01484e-06 -2.03157e-07
1.01484e-06 0.000251719 -1.14751e-07
-2.03157e-07 -1.14751e-07 0.000253671

0.000232526 -1.13233e-05 2.61096e-08
-1.13233e-05 0.000250058 -1.92966e-07
2.61096e-08 -1.92966e-07 0.000244512

0.000259732 -6.21258e-06 2.09001e-07
-6.21258e-06 0.000250602 -1.36009e-07
2.09001e-07 -1.36009e-07 0.00024924

0.000232526 1.19147e-05 1.36713e-07
1.19147e-05 0.000250131 -6.57763e-08
1.36713e-07 -6.57763e-08 0.000244645

0.000259732 6.186e-06 -1.0553e-07
6.186e-06 0.00025106 9.66584e-09
-1.0553e-07 9.66584e-09 0.000249371

0.00017356 2.77147e-05 -1.22562e-08
2.77147e-05 0.000205945 1.02258e-07
-1.22562e-08 1.02258e-07 0.000181396

0.000185868 5.78014e-06 1.07629e-08
5.78014e-06 0.000244278 -1.03005e-07
1.07629e-08 -1.03005e-07 0.000218497

0.000208153 1.47173e-05 1.57951e-07
1.47173e-05 0.000230995 -5.36795e-08
1.57951e-07 -5.36795e-08 0.000217414

0.000223567 -1.80989e-05 -4.14944e-08
-1.80989e-05 0.000162641 -4.27164e-08
-4.14944e-08 -4.27164e-08 0.000197831

0.000212554 -1.06273e-05 -5.85015e-09
-1.06273e-05 0.000157786 -6.19252e-08
-5.85015e-09 -6.19252e-08 0.000184245

0.000185246 8.47264e-06 2.28846e-09
8.47264e-06 0.000265829 -4.43639e-09
2.28846e-09 -4.43639e-09 0.000231325

0.00020803 1.52475e-05 1.44839e-07
1.52475e-05 0.000235274 9.88565e-08
1.44839e-07 9.88565e-08 0.000231005

0.000212584 1.24585e-07 -5.72683e-09
1.24585e-07 0.000160744 2.7178e-08
-5.72683e-09 2.7178e-08 0.000185325

0.000238586 6.96108e-06 6.55217e-09
6.96108e-06 0.000174675 -8.79167e-08
6.55217e-09 -8.79167e-08 0.000224492

0.00013831 2.38624e-05 -5.73974e-08
2.38624e-05 0.000173191 -9.11445e-08
-5.73974e-08 -9.11445e-08 0.000145928

0.000130026 1.85604e-05 -1.14961e-07
1.85604e-05 0.000173348 9.36435e-08
-1.14961e-07 9.36435e-08 0.000144969

0.000167585 1.91073e-05 1.13575e-07
1.91073e-05 0.000134122 1.05802e-07
1.13575e-07 1.05802e-07 0.000142527

0.000228282 -2.86086e-05 -3.2205e-10
-2.86086e-05 0.000244046 -5.08886e-08
-3.2205e-10 -5.08886e-08 0.000235065

0.000221873 -1.15224e-05 9.35161e-08
-1.15224e-05 0.000254606 7.39818e-08
9.35161e-08 7.39818e-08 0.000235182

0.000200963 -3.35932e-05 -1.2136e-08
-3.35932e-05 0.000197541 -2.90606e-08
-1.2136e-08 -2.90606e-08 0.000200111

0.000173397 2.70208e-05 -1.96464e-08
2.70208e-05 0.000215707 5.30955e-09
-1.96464e-08 5.30955e-09 0.000195463

0.000190635 3.10952e-05 -4.86578e-08
3.10952e-05 0.000230148 3.38639e-08
-4.86578e-08 3.38639e-08 0.000215882

0.00020675 -1.48834e-05 -1.82532e-07
-1.48834e-05 0.000235312 6.04683e-08
-1.82532e-07 6.04683e-08 0.000230306

0.000184341 -9.78521e-06 1.48678e-08
-9.78521e-06 0.00026639 1.21841e-07
1.48678e-08 1.21841e-07 0.000230299

0.000230322 8.36079e-06 -1.52373e-07
8.36079e-06 0.000164896 3.71342e-08
-1.52373e-07 3.71342e-08 0.000199169

0.000149246 7.69731e-06 -7.31347e-08
7.69731e-06 0.000194235 -5.98537e-08
-7.31347e-08 -5.98537e-08 0.000157333

0.000141285 3.19944e-06 -1.59145e-08
3.19944e-06 0.000193995 -5.79758e-08
-1.59145e-08 -5.79758e-08 0.000158222

0.000191783 3.39753e-06 2.07832e-07
3.39753e-06 0.000144292 4.79031e-08
2.07832e-07 4.79031e-08 0.000154296

0.000164139 1.90184e-05 -1.51778e-07
1.90184e-05 0.000209702 1.02424e-08
-1.51778e-07 1.02424e-08 0.000183787

0.000173624 3.05629e-05 1.02636e-07
3.05629e-05 0.000199692 -2.23384e-08
1.02636e-07 -2.23384e-08 0.000180546

0.000221396 5.32424e-06 9.46245e-08
5.32424e-06 0.000163503 6.75918e-08
9.46245e-08 6.75918e-08 0.000200172

0.000132208 1.44636e-05 8.6246e-09
1.44636e-05 0.000159442 3.33698e-08
8.6246e-09 3.33698e-08 0.000130187

0.000238771 -1.93814e-05 1.82495e-08
-1.93814e-05 0.000174412 9.63615e-08
1.82495e-08 9.63615e-08 0.000218631

0.000222077 1.64889e-06 -1.1264e-07
1.64889e-06 0.000265569 4.02368e-08
-1.1264e-07 4.02368e-08 0.000236043

0.000236427 3.06326e-07 -2.15148e-08
3.06326e-07 0.000242599 1.6352e-07
-2.15148e-08 1.6352e-07 0.00023651

0.000307228 1.25583e-05 1.20276e-08
1.25583e-05 0.000234545 8.62871e-08
1.20276e-08 8.62871e-08 0.000250971

0.000307667 -3.0913e-05 3.41836e-09
-3.0913e-05 0.000254764 -7.81853e-08
3.41836e-09 -7.81853e-08 0.000248794

0.000191006 -3.56645e-05 3.06753e-08
-3.56645e-05 0.000200901 6.26087e-09
3.06753e-08 6.26087e-09 0.000197703

0.000166621 -2.85077e-05 -3.12416e-08
-2.85077e-05 0.000198985 2.98104e-08
-3.12416e-08 2.98104e-08 0.000181793

0.000189309 -9.82294e-06 -1.02637e-07
-9.82294e-06 0.000136545 4.57605e-08
-1.02637e-07 4.57605e-08 0.000154138

0.000257625 5.41293e-06 4.41795e-08
5.41293e-06 0.000221935 1.93351e-07
4.41795e-08 1.93351e-07 0.000237826

0.00025764 -1.8408e-05 -6.06506e-08
-1.8408e-05 0.000224148 -5.92362e-08
-6.06506e-08 -5.92362e-08 0.000235292

0.000239665 -8.48052e-06 -6.38159e-08
-8.48052e-06 0.000175373 9.27382e-08
-6.38159e-08 9.27382e-08 0.000224757

0.00023753 -2.41469e-06 1.35381e-08
-2.41469e-06 0.000164123 3.20118e-08
1.35381e-08 3.20118e-08 0.000220698

0.000196925 -2.91223e-05 3.48418e-08
-2.91223e-05 0.000167992 -3.03983e-08
3.48418e-08 -3.03983e-08 0.000174484

0.000202757 1.31367e-05 -3.46658e-08
1.31367e-05 0.00015374 3.59757e-08
-3.46658e-08 3.59757e-08 0.000171674

0.000198578 -2.33297e-05 3.2547e-08
-2.33297e-05 0.000150962 -4.93431e-08
3.2547e-08 -4.93431e-08 0.000170046

0.000174608 2.00116e-05 6.91244e-08
2.00116e-05 0.000237946 -3.93556e-08
6.91244e-08 -3.93556e-08 0.000218094

0.000167293 -2.37028e-05 -8.09239e-08
-2.37028e-05 0.000208006 -2.03737e-08
-8.09239e-08 -2.03737e-08 0.000183978

0.000165575 2.26854e-05 -6.86606e-08
2.26854e-05 0.000199079 -8.75967e-08
-6.86606e-08 -8.75967e-08 0.000182177

0.000107776 -3.60462e-05 7.47239e-08
-3.60462e-05 0.000109136 -4.25073e-08
7.47239e-08 -4.25073e-08 0.000107289

9.85546e-05 2.25902e-05 -6.46774e-08
2.25902e-05 0.000110341 2.71154e-07
-6.46774e-08 2.71154e-07 0.000106244

0.000186774 -2.73408e-05 6.76915e-08
-2.73408e-05 0.000247658 6.41972e-08
6.76915e-08 6.41972e-08 0.000230088

0.000164025 1.78759e-05 -1.51522e-07
1.78759e-05 0.000221084 1.64918e-08
-1.51522e-07 1.64918e-08 0.000197998

9.97728e-05 3.70712e-06 -5.0179e-08
3.70712e-06 0.00010313 -1.81077e-07
-5.0179e-08 -1.81077e-07 0.000112527

0.000101289 -7.1492e-06 -8.25197e-09
-7.1492e-06 0.00011194 -4.65119e-08
-8.25197e-09 -4.65119e-08 0.000113118

0.000231316 -1.08801e-05 6.61821e-08
-1.08801e-05 0.00024719 -2.1001e-07
6.61821e-08 -2.1001e-07 0.000238775

0.000230274 2.24419e-05 4.3236e-08
2.24419e-05 0.000238973 -3.12856e-08
4.3236e-08 -3.12856e-08 0.000239659

0.000246989 4.16128e-07 3.23563e-08
4.16128e-07 0.000168495 -3.12848e-08
3.23563e-08 -3.12848e-08 0.000208811

0.000232569 -7.32129e-06 1.02178e-07
-7.32129e-06 0.00023523 4.3313e-08
1.02178e-07 4.3313e-08 0.00023871

0.000230697 2.09289e-05 4.71786e-09
2.09289e-05 0.000239315 2.39788e-07
4.71786e-09 2.39788e-07 0.000239361

0.000288426 2.3069e-05 4.53117e-08
2.3069e-05 0.000228405 6.70523e-08
4.53117e-08 6.70523e-08 0.000248004

0.000281056 -2.85103e-05 1.10527e-09
-2.85103e-05 0.000250041 1.13171e-07
1.10527e-09 1.13171e-07 0.000246134

0.000217893 -1.72096e-05 -3.04755e-08
-1.72096e-05 0.000220343 1.716e-07
-3.04755e-08 1.716e-07 0.000223796

0.000217725 2.30943e-05 -6.94405e-09
2.30943e-05 0.000215851 3.04515e-08
-6.94405e-09 3.04515e-08 0.000224916

0.000232715 -2.17692e-06 4.41259e-08
-2.17692e-06 0.000295108 5.33956e-08
4.41259e-08 5.33956e-08 0.000245437

0.000237497 8.16488e-06 -7.24515e-08
8.16488e-06 0.000266354 -4.42776e-08
-7.24515e-08 -4.42776e-08 0.000246457

0.000170253 -3.26307e-05 -9.47825e-09
-3.26307e-05 0.000207309 4.03536e-08
-9.47825e-09 4.03536e-08 0.000181854

0.00011856 3.28071e-06 -1.21789e-08
3.28071e-06 0.000153477 2.51865e-07
-1.21789e-08 2.51865e-07 0.000128461

0.000150161 3.96649e-06 -2.29279e-07
3.96649e-06 0.000121954 -1.10463e-07
-2.29279e-07 -1.10463e-07 0.000128163

0.000169481 1.68417e-05 -4.46842e-08
1.68417e-05 0.00023684 -6.32684e-08
-4.46842e-08 -6.32684e-08 0.000212819

0.000186542 2.4912e-05 1.49362e-08
2.4912e-05 0.000227478 4.87484e-08
1.49362e-08 4.87484e-08 0.000211229

0.000292711 -2.3233e-05 -2.23074e-07
-2.3233e-05 0.000251004 3.85894e-07
-2.23074e-07 3.85894e-07 0.000255166

0.000273916 3.63389e-05 -2.23146e-07
3.63389e-05 0.00032154 1.46077e-07
-2.23146e-07 1.46077e-07 0.000255098

0.000192447 2.32651e-05 9.24879e-08
2.32651e-05 0.000179913 1.84324e-07
9.24879e-08 1.84324e-07 0.000177657

0.00019719 3.88977e-05 -7.22076e-08
3.88977e-05 0.000236393 -1.02097e-08
-7.22076e-08 -1.02097e-08 0.000222316

0.00022515 1.516e-05 1.23982e-07
1.516e-05 0.000187042 6.96932e-08
1.23982e-07 6.96932e-08 0.000213009

0.000226158 -1.18538e-05 6.64466e-08
-1.18538e-05 0.000186654 -1.17194e-08
6.64466e-08 -1.17194e-08 0.000212042

0.000201222 3.70358e-05 8.96457e-08
3.70358e-05 0.000225338 1.49427e-07
8.96457e-08 1.49427e-07 0.000220821

0.000202286 -3.63633e-05 2.02969e-09
-3.63633e-05 0.000241954 -4.99701e-08
2.02969e-09 -4.99701e-08 0.000228706

0.00025282 -3.16082e-05 -7.13161e-08
-3.16082e-05 0.000201476 -1.06272e-07
-7.13161e-08 -1.06272e-07 0.000231687

0.000188445 -3.30408e-06 -9.92129e-08
-3.30408e-06 0.000138325 -6.38509e-09
-9.92129e-08 -6.38509e-09 0.000154686

0.000309076 3.71892e-06 -3.48467e-07
3.71892e-06 0.000286594 -2.41436e-07
-3.48467e-07 -2.41436e-07 0.000250633

0.000320846 -2.85366e-06 4.08345e-08
-2.85366e-06 0.000246545 7.18976e-08
4.08345e-08 7.18976e-08 0.000252912

0.000197515 2.8451e-05 -3.93741e-09
2.8451e-05 0.000185213 8.88054e-08
-3.93741e-09 8.88054e-08 0.000192749

0.000230006 1.07052e-05 -1.41e-07
1.07052e-05 0.000175983 -1.55184e-07
-1.41e-07 -1.55184e-07 0.000201431

0.000161879 2.39798e-05 -1.57479e-07
2.39798e-05 0.000173062 -8.42245e-08
-1.57479e-07 -8.42245e-08 0.000153662

0.00024649 5.3937e-06 -3.25988e-08
5.3937e-06 0.000264473 -3.45836e-08
-3.25988e-08 -3.45836e-08 0.000250043

0.000251029 1.83073e-05 1.23988e-07
1.83073e-05 0.00030399 7.28223e-08
1.23988e-07 7.28223e-08 0.000248325

0.000254347 1.56041e-05 8.90217e-08
1.56041e-05 0.000196456 -7.7747e-09
8.90217e-08 -7.7747e-09 0.000234776

0.000184822 -6.34935e-06 8.93086e-09
-6.34935e-06 0.000245586 2.1793e-08
8.93086e-09 2.1793e-08 0.000217668

0.000206905 -1.39837e-05 -1.79658e-07
-1.39837e-05 0.000232187 9.81915e-08
-1.79658e-07 9.81915e-08 0.00021708

0.000248762 4.57139e-06 1.00673e-08
4.57139e-06 0.0001733 -4.63423e-08
1.00673e-08 -4.63423e-08 0.000218674

0.00025093 -3.21368e-06 1.02602e-08
-3.21368e-06 0.00017272 -3.31761e-08
1.02602e-08 -3.31761e-08 0.000218173

0.000173381 -2.41599e-05 -1.00293e-07
-2.41599e-05 0.000162763 2.2981e-08
-1.00293e-07 2.2981e-08 0.000151531

0.00022347 1.00598e-07 -1.15042e-07
1.00598e-07 0.00015833 5.58703e-08
-1.15042e-07 5.58703e-08 0.000184625

0.000248998 -3.92124e-06 -1.71525e-07
-3.92124e-06 0.000194803 1.74668e-07
-1.71525e-07 1.74668e-07 0.000228745

0.000242826 7.57957e-06 7.57737e-08
7.57957e-06 0.000199328 1.78433e-07
7.57737e-08 1.78433e-07 0.000229199

0.000230426 -1.03694e-05 -1.19483e-08
-1.03694e-05 0.000181413 5.20669e-08
-1.19483e-08 5.20669e-08 0.000200632

0.000175482 -2.87412e-05 -4.61558e-08
-2.87412e-05 0.000208657 -6.8729e-09
-4.61558e-08 -6.8729e-09 0.00018418

0.000250792 -2.034e-06 1.29688e-08
-2.034e-06 0.000188865 -1.89743e-08
1.29688e-08 -1.89743e-08 0.000219872

0.000247886 5.14678e-06 -1.61216e-08
5.14678e-06 0.000188571 8.15288e-08
-1.61216e-08 8.15288e-08 0.00022061

0.000224105 1.1725e-05 6.10269e-08
1.1725e-05 0.000177941 5.09264e-09
6.10269e-08 5.09264e-09 0.000205546

0.000171651 -3.67911e-05 1.24178e-07
-3.67911e-05 0.000166212 -1.64312e-08
1.24178e-07 -1.64312e-08 0.000164685

0.000189123 3.48692e-05 -4.01021e-08
3.48692e-05 0.000221807 6.13884e-08
-4.01021e-08 6.13884e-08 0.000222357

0.000198714 3.49676e-05 6.28997e-08
3.49676e-05 0.000239758 5.95494e-08
6.28997e-08 5.95494e-08 0.000224037

0.000185082 2.61821e-05 5.20152e-08
2.61821e-05 0.00022409 -7.15459e-08
5.20152e-08 -7.15459e-08 0.000225009

0.000205961 1.27167e-05 4.42588e-08
1.27167e-05 0.000149893 -2.81482e-08
4.42588e-08 -2.81482e-08 0.000171804

0.000156448 -2.55178e-05 2.89378e-08
-2.55178e-05 0.0001352 -8.29221e-08
2.89378e-08 -8.29221e-08 0.000135177

0.00022083 2.11275e-05 -1.7557e-07
2.11275e-05 0.000191726 -1.0895e-07
-1.7557e-07 -1.0895e-07 0.000215395

0.000225004 -2.28169e-05 -3.23711e-08
-2.28169e-05 0.000178108 -7.14129e-08
-3.23711e-08 -7.14129e-08 0.000201494

0.000160738 -2.16396e-05 1.13844e-07
-2.16396e-05 0.000132669 9.45666e-08
1.13844e-07 9.45666e-08 0.000136199

0.000201362 -3.66576e-05 -1.41962e-08
-3.66576e-05 0.000177133 8.3696e-09
-1.41962e-08 8.3696e-09 0.000191179

0.000181843 7.76629e-07 1.35162e-07
7.76629e-07 0.000223614 -6.54087e-08
1.35162e-07 -6.54087e-08 0.000209693

0.000162975 2.42482e-07 1.30564e-07
2.42482e-07 0.000244635 -4.14157e-08
1.30564e-07 -4.14157e-08 0.000210584

0.00017398 3.13619e-05 1.20739e-07
3.13619e-05 0.000176449 1.70004e-07
1.20739e-07 1.70004e-07 0.000168957

0.00017353 -2.56073e-05 -1.01428e-07
-2.56073e-05 0.000136578 5.26992e-08
-1.01428e-07 5.26992e-08 0.000145704

0.000202711 -3.79023e-05 -2.56416e-08
-3.79023e-05 0.000214683 3.50168e-08
-2.56416e-08 3.50168e-08 0.000220912

0.000171085 -3.36718e-05 1.38904e-08
-3.36718e-05 0.000187541 -1.06543e-07
1.38904e-08 -1.06543e-07 0.000168896

0.000168702 -3.45258e-05 7.10265e-09
-3.45258e-05 0.000184462 -2.31308e-07
7.10265e-09 -2.31308e-07 0.000168503

0.000219048 1.76386e-05 3.34884e-08
1.76386e-05 0.00018677 8.58851e-08
3.34884e-08 8.58851e-08 0.000203067

0.000260193 1.09292e-05 2.51507e-08
1.09292e-05 0.000161596 -6.96339e-08
2.51507e-08 -6.96339e-08 0.000233561

0.000255892 -1.76019e-05 1.08981e-07
-1.76019e-05 0.000173049 -1.2149e-07
1.08981e-07 -1.2149e-07 0.000231598

0.000157837 1.96105e-05 -4.24137e-09
1.96105e-05 0.000201874 1.05728e-07
-4.24137e-09 1.05728e-07 0.000173012

0.00014714 1.33194e-05 2.62437e-08
1.33194e-05 0.000208072 4.70672e-08
2.62437e-08 4.70672e-08 0.000174836

0.000130528 -2.84431e-06 1.52547e-08
-2.84431e-06 0.000189349 -3.10116e-08
1.52547e-08 -3.10116e-08 0.000150751

0.000124378 -3.65543e-06 1.71421e-07
-3.65543e-06 0.000191505 -6.52732e-09
1.71421e-07 -6.52732e-09 0.000151486

0.000189852 -2.5182e-06 1.61026e-07
-2.5182e-06 0.000126212 -8.81357e-08
1.61026e-07 -8.81357e-08 0.000148406

0.000183591 -3.05891e-05 1.95115e-08
-3.05891e-05 0.000165805 -9.00623e-08
1.95115e-08 -9.00623e-08 0.000168228

0.000248158 -2.25355e-05 1.99812e-07
-2.25355e-05 0.000282019 -1.08284e-07
1.99812e-07 -1.08284e-07 0.000253758

0.000313212 -9.18116e-06 -4.76973e-08
-9.18116e-06 0.000315171 1.27266e-07
-4.76973e-08 1.27266e-07 0.000251502

0.000192609 2.17047e-05 4.4266e-08
2.17047e-05 0.0001554 -1.04563e-07
4.4266e-08 -1.04563e-07 0.00016895

0.000208584 -1.49239e-05 1.39674e-07
-1.49239e-05 0.000150681 1.33927e-07
1.39674e-07 1.33927e-07 0.000173235

0.00016212 1.35182e-05 -5.6851e-08
1.35182e-05 0.000130962 -1.44559e-08
-5.6851e-08 -1.44559e-08 0.000137632

0.000174639 2.24834e-05 1.10395e-08
2.24834e-05 0.000221476 1.50337e-07
1.10395e-08 1.50337e-07 0.000208944

0.000246983 4.9454e-07 3.30151e-08
4.9454e-07 0.000169386 -5.01194e-08
3.30151e-08 -5.01194e-08 0.000208407

0.000200919 3.38947e-05 -3.6999e-08
3.38947e-05 0.000240559 -8.65492e-08
-3.6999e-08 -8.65492e-08 0.000229688

0.000179038 2.69114e-05 -6.78094e-11
2.69114e-05 0.000249341 4.13795e-08
-6.78094e-11 4.13795e-08 0.000231387

0.000154942 1.81016e-05 1.23564e-07
1.81016e-05 0.000173293 1.01274e-07
1.23564e-07 1.01274e-07 0.000152816

0.000166868 1.98899e-05 1.14209e-07
1.98899e-05 0.000161915 1.09114e-07
1.14209e-07 1.09114e-07 0.000150723

0.000194446 -4.10664e-05 -7.93557e-08
-4.10664e-05 0.000234821 -4.32178e-08
-7.93557e-08 -4.32178e-08 0.000219763

0.00016405 1.08063e-05 -5.30708e-08
1.08063e-05 0.000130886 -2.51332e-08
-5.30708e-08 -2.51332e-08 0.000138562

0.000186771 2.99857e-05 -3.54885e-08
2.99857e-05 0.000217122 7.79973e-08
-3.54885e-08 7.79973e-08 0.000226222

0.000187772 3.71689e-05 -3.67273e-08
3.71689e-05 0.000222791 -8.02887e-09
-3.67273e-08 -8.02887e-09 0.000206244

0.000262378 -7.72354e-07 -5.36765e-08
-7.72354e-07 0.000169866 7.35848e-08
-5.36765e-08 7.35848e-08 0.00022333

0.000195077 -2.8306e-05 -3.17889e-08
-2.8306e-05 0.000217388 5.1295e-08
-3.17889e-08 5.1295e-08 0.000225631

0.00019637 3.00051e-05 2.19835e-08
3.00051e-05 0.000198264 -4.06672e-08
2.19835e-08 -4.06672e-08 0.00019462

0.000153846 -1.47601e-05 4.98281e-08
-1.47601e-05 0.000195358 -5.07013e-08
4.98281e-08 -5.07013e-08 0.00016044

0.00014446 -1.44183e-05 6.67567e-08
-1.44183e-05 0.00019725 5.30798e-08
6.67567e-08 5.30798e-08 0.000160908

0.000191939 -1.02226e-05 3.89429e-08
-1.02226e-05 0.000149435 1.69459e-07
3.89429e-08 1.69459e-07 0.000157411

0.000183325 -2.7257e-05 1.98675e-08
-2.7257e-05 0.000186882 -9.9985e-08
1.98675e-08 -9.9985e-08 0.000174106

0.000163196 -1.56067e-06 1.31107e-07
-1.56067e-06 0.000227612 -5.23694e-08
1.31107e-07 -5.23694e-08 0.000192871

0.000181962 -3.14761e-07 1.35087e-07
-3.14761e-07 0.000219438 -6.39512e-08
1.35087e-07 -6.39512e-08 0.000191628

0.000150352 -2.98003e-05 -1.58558e-08
-2.98003e-05 0.000164113 7.27445e-08
-1.58558e-08 7.27445e-08 0.000145077

0.000142137 -2.84771e-05 -1.22464e-07
-2.84771e-05 0.000168308 2.5533e-08
-1.22464e-07 2.5533e-08 0.000146137

0.000261376 -1.73825e-06 2.7383e-08
-1.73825e-06 0.000175102 -4.93303e-08
2.7383e-08 -4.93303e-08 0.000223787

0.000263429 1.2983e-06 -1.32111e-07
1.2983e-06 0.000173838 -5.579e-08
-1.32111e-07 -5.579e-08 0.000223476

0.000186105 2.83184e-05 6.09595e-08
2.83184e-05 0.000214392 1.28999e-07
6.09595e-08 1.28999e-07 0.000211974

0.000180206 -2.37571e-05 -1.55008e-07
-2.37571e-05 0.000245959 1.41712e-07
-1.55008e-07 1.41712e-07 0.000230607

0.000217966 -3.66226e-05 2.6394e-10
-3.66226e-05 0.000198011 -3.20682e-08
2.6394e-10 -3.20682e-08 0.00021393

0.000231476 1.38592e-05 -1.3247e-07
1.38592e-05 0.000216301 3.35674e-08
-1.3247e-07 3.35674e-08 0.000231996

0.000234994 -4.43565e-06 1.58954e-08
-4.43565e-06 0.000221081 1.72968e-07
1.58954e-08 1.72968e-07 0.000231243

0.000225371 -1.53835e-05 7.31331e-08
-1.53835e-05 0.000208599 6.46182e-08
7.31331e-08 6.46182e-08 0.000214076

0.000224439 1.87915e-05 1.16437e-07
1.87915e-05 0.000199731 1.58261e-07
1.16437e-07 1.58261e-07 0.000215162

0.000104894 -1.57374e-05 9.41845e-08
-1.57374e-05 7.14008e-05 -6.19677e-08
9.41845e-08 -6.19677e-08 0.000112773

0.000166622 2.89999e-05 -6.96498e-08
2.89999e-05 0.000183315 -1.00665e-07
-6.96498e-08 -1.00665e-07 0.00016965

8.11237e-05 1.08376e-05 -1.63393e-07
1.08376e-05 0.000103122 1.84733e-07
-1.63393e-07 1.84733e-07 0.000112627

0.000194372 3.26772e-05 -5.45054e-08
3.26772e-05 0.000212742 -1.68284e-07
-5.45054e-08 -1.68284e-07 0.000205848

0.000157889 -2.27645e-05 3.91321e-08
-2.27645e-05 0.00020731 -1.90314e-08
3.91321e-08 -1.90314e-08 0.000175098

0.000147594 -2.04423e-05 1.05058e-07
-2.04423e-05 0.000207484 -4.56205e-08
1.05058e-07 -4.56205e-08 0.000175508

0.000258242 -6.70406e-06 -8.11372e-08
-6.70406e-06 0.000250186 -8.71249e-08
-8.11372e-08 -8.71249e-08 0.000248578

0.000245635 1.94562e-05 -2.57679e-07
1.94562e-05 0.000266052 -1.24901e-07
-2.57679e-07 -1.24901e-07 0.00024877

0.000205303 2.17166e-05 -2.17259e-07
2.17166e-05 0.000188674 1.75417e-08
-2.17259e-07 1.75417e-08 0.000196287

0.000223489 -2.17714e-06 -1.14756e-07
-2.17714e-06 0.000160481 -1.45149e-08
-1.14756e-07 -1.45149e-08 0.000184557

0.000183446 2.4073e-05 1.43612e-08
2.4073e-05 0.000160629 4.63909e-08
1.43612e-08 4.63909e-08 0.000167695

0.000170694 -1.43798e-05 -9.23522e-08
-1.43798e-05 0.000241084 -2.90327e-08
-9.23522e-08 -2.90327e-08 0.000212531

0.00018649 -2.31922e-05 -8.4483e-08
-2.31922e-05 0.000228059 1.44466e-07
-8.4483e-08 1.44466e-07 0.00021159

0.000193825 -4.21528e-05 -7.75347e-08
-4.21528e-05 0.000246555 -4.85642e-08
-7.75347e-08 -4.85642e-08 0.000222939

0.000205409 -2.35825e-05 9.02999e-09
-2.35825e-05 0.00019715 -5.35632e-08
9.02999e-09 -5.35632e-08 0.000195212

0.000194375 3.93676e-05 9.52305e-08
3.93676e-05 0.000236542 9.43899e-09
9.52305e-08 9.43899e-09 0.000222628

0.000224392 1.76409e-05 4.93416e-08
1.76409e-05 0.000250359 3.81487e-08
4.93416e-08 3.81487e-08 0.000236128

0.000227327 2.73123e-05 -5.84685e-08
2.73123e-05 0.000241307 -8.51458e-08
-5.84685e-08 -8.51458e-08 0.000235832

0.000188838 -3.69571e-05 -4.7933e-08
-3.69571e-05 0.00023192 -6.18352e-08
-4.7933e-08 -6.18352e-08 0.000210047

0.000192951 3.37435e-05 -1.04321e-07
3.37435e-05 0.000224669 1.81843e-08
-1.04321e-07 1.81843e-08 0.000209481

0.000168978 4.18538e-05 5.40148e-08
4.18538e-05 0.000227063 -7.13648e-08
5.40148e-08 -7.13648e-08 0.000225838

0.000151967 3.50683e-06 4.53898e-08
3.50683e-06 0.000225417 -5.9128e-09
4.53898e-08 -5.9128e-09 0.000187875

0.000163717 9.03838e-06 3.69544e-08
9.03838e-06 0.00021466 -1.07241e-08
3.69544e-08 -1.07241e-08 0.000186067

0.000202454 2.59629e-05 -2.94912e-08
2.59629e-05 0.000198114 1.79425e-07
-2.94912e-08 1.79425e-07 0.000207781

0.000183019 2.15789e-05 -7.85774e-10
2.15789e-05 0.000179748 -1.76587e-07
-7.85774e-10 -1.76587e-07 0.000175545

0.000167186 -2.28655e-05 -8.6396e-08
-2.28655e-05 0.00022068 9.52909e-08
-8.6396e-08 9.52909e-08 0.000198555

0.000201057 -3.96803e-05 7.789e-08
-3.96803e-05 0.00024443 -7.65537e-08
7.789e-08 -7.65537e-08 0.000228377

0.000116643 1.30677e-05 3.28821e-08
1.30677e-05 0.000135635 -1.62765e-07
3.28821e-08 -1.62765e-07 0.000118853

0.000131785 1.36105e-05 1.28158e-09
1.36105e-05 0.000120307 -1.32083e-07
1.28158e-09 -1.32083e-07 0.000118906

0.000155826 -2.89916e-05 -2.45274e-08
-2.89916e-05 0.000162881 8.36288e-08
-2.45274e-08 8.36288e-08 0.000149229

0.000201986 -2.7117e-05 -9.99415e-08
-2.7117e-05 0.000205697 3.96146e-08
-9.99415e-08 3.96146e-08 0.000206396

0.000230604 -8.38291e-06 -1.65921e-08
-8.38291e-06 0.000165126 -6.78985e-08
-1.65921e-08 -6.78985e-08 0.000198696

0.000272444 2.80821e-05 -6.13758e-08
2.80821e-05 0.000290323 5.35419e-07
-6.13758e-08 5.35419e-07 0.000254274

0.000299081 -3.1348e-05 5.6819e-09
-3.1348e-05 0.000253171 -1.64667e-07
5.6819e-09 -1.64667e-07 0.000254307

0.000187457 -4.01475e-05 2.83864e-08
-4.01475e-05 0.000229133 -2.45678e-08
2.83864e-08 -2.45678e-08 0.000207865

0.00025279 7.63271e-06 -5.3193e-08
7.63271e-06 0.000234871 7.2623e-08
-5.3193e-08 7.2623e-08 0.000245619

0.00025659 -3.06926e-05 -5.63958e-08
-3.06926e-05 0.00025727 -6.46762e-08
-5.63958e-08 -6.46762e-08 0.000243832

0.000228075 -1.08803e-05 8.05255e-08
-1.08803e-05 0.000169153 2.35631e-08
8.05255e-08 2.35631e-08 0.000208546

0.000175904 -4.21521e-05 -1.2767e-08
-4.21521e-05 0.000224846 8.31825e-08
-1.2767e-08 8.31825e-08 0.000224994

0.000124521 -2.60116e-05 -1.31009e-07
-2.60116e-05 0.000136022 -1.11184e-07
-1.31009e-07 -1.11184e-07 0.000124017

0.000132456 1.88589e-05 2.37903e-08
1.88589e-05 0.000131435 -1.12432e-08
2.37903e-08 -1.12432e-08 0.000124521

0.000122711 -1.48627e-05 -5.3647e-08
-1.48627e-05 0.000159083 1.05703e-07
-5.3647e-08 1.05703e-07 0.000131629

0.000125876 -1.69379e-05 -1.1965e-07
-1.69379e-05 0.000161641 2.26767e-08
-1.1965e-07 2.26767e-08 0.000133978

0.000162815 -1.2874e-05 7.0435e-08
-1.2874e-05 0.000122045 -1.10906e-07
7.0435e-08 -1.10906e-07 0.000131106

0.000163591 2.24325e-05 -1.37316e-07
2.24325e-05 0.000158901 -1.63243e-07
-1.37316e-07 -1.63243e-07 0.000151031

0.000192018 -4.47671e-05 -3.8127e-08
-4.47671e-05 0.000242835 1.58013e-08
-3.8127e-08 1.58013e-08 0.000222067

0.000108153 2.04359e-06 1.10899e-07
2.04359e-06 0.000154144 6.41598e-08
1.10899e-07 6.41598e-08 0.000124268

0.00015187 -6.59112e-06 9.08783e-08
-6.59112e-06 0.000107212 1.35735e-07
9.08783e-08 1.35735e-07 0.00012496

0.000231277 3.89661e-06 7.12349e-08
3.89661e-06 0.00027833 2.83774e-08
7.12349e-08 2.83774e-08 0.000242612

0.000236182 -1.82885e-05 2.3566e-08
-1.82885e-05 0.000253196 -1.99687e-09
2.3566e-08 -1.99687e-09 0.000243208

0.000237913 -2.10205e-05 -9.4229e-08
-2.10205e-05 0.000194829 -8.4448e-08
-9.4229e-08 -8.4448e-08 0.00021927

0.000247593 -1.66035e-06 -5.58793e-08
-1.66035e-06 0.000147598 1.15916e-07
-5.58793e-08 1.15916e-07 0.000225564

0.000140607 -2.28113e-05 -1.01814e-07
-2.28113e-05 0.000182617 -1.50066e-07
-1.01814e-07 -1.50066e-07 0.000156087

0.000148009 -2.25203e-05 7.57162e-09
-2.25203e-05 0.000185146 -1.01212e-07
7.57162e-09 -1.01212e-07 0.000156564

0.000232075 -1.07499e-06 9.0034e-08
-1.07499e-06 0.000166931 7.12393e-08
9.0034e-08 7.12393e-08 0.000209806

0.000175696 -3.07459e-05 -4.90949e-08
-3.07459e-05 0.000221622 3.59036e-08
-4.90949e-08 3.59036e-08 0.000198005

0.000253794 9.09525e-07 -1.20712e-07
9.09525e-07 0.000238419 -4.04872e-08
-1.20712e-07 -4.04872e-08 0.000243679

0.000242261 9.17197e-06 4.04361e-08
9.17197e-06 0.000246498 2.26413e-07
4.04361e-08 2.26413e-07 0.000244026

0.000224587 -2.90779e-05 6.35206e-08
-2.90779e-05 0.000205171 1.05417e-08
6.35206e-08 1.05417e-08 0.000216961

0.00019064 -2.98228e-05 3.06061e-08
-2.98228e-05 0.000209751 8.53379e-09
3.06061e-08 8.53379e-09 0.000210278

0.000237931 -2.06391e-05 -9.65182e-08
-2.06391e-05 0.000172614 -3.9029e-08
-9.65182e-08 -3.9029e-08 0.000214981

0.000180117 -2.56641e-05 4.83822e-08
-2.56641e-05 0.000219786 2.02357e-08
4.83822e-08 2.02357e-08 0.000208944

9.90455e-05 -4.9871e-05 -3.51685e-08
-4.9871e-05 0.000103915 -5.49927e-08
-3.51685e-08 -5.49927e-08 0.000104217

0.000166984 -1.12429e-05 -2.95699e-09
-1.12429e-05 0.000213598 -1.12577e-07
-2.95699e-09 -1.12577e-07 0.000186649

0.000155212 -8.4377e-06 9.62736e-08
-8.4377e-06 0.000223758 -6.46388e-08
9.62736e-08 -6.46388e-08 0.000187697

0.000223147 -3.85964e-06 -7.43408e-08
-3.85964e-06 0.00029338 -1.84326e-07
-7.43408e-08 -1.84326e-07 0.000243734

0.000238115 -5.33477e-06 4.14652e-09
-5.33477e-06 0.000250733 1.30594e-08
4.14652e-09 1.30594e-08 0.000244923

0.000264933 -3.03454e-06 -6.32007e-08
-3.03454e-06 0.000182592 -1.45811e-07
-6.32007e-08 -1.45811e-07 0.000230756

0.000259238 1.20619e-06 2.38515e-08
1.20619e-06 0.000186409 -5.39341e-08
2.38515e-08 -5.39341e-08 0.000231021

0.000227367 2.20586e-05 3.18975e-08
2.20586e-05 0.0002149 1.96853e-07
3.18975e-08 1.96853e-07 0.000230302

0.000234802 -3.84164e-05 8.55071e-08
-3.84164e-05 0.000211627 3.65667e-10
8.55071e-08 3.65667e-10 0.000228156

0.000251987 7.81267e-06 -9.7098e-09
7.81267e-06 0.000247867 -1.12301e-07
-9.7098e-09 -1.12301e-07 0.000242976

0.000264797 -1.44377e-05 -4.1487e-08
-1.44377e-05 0.000245598 -6.80947e-10
-4.1487e-08 -6.80947e-10 0.000241753

0.000271735 -1.53782e-05 1.43247e-07
-1.53782e-05 0.000255133 -1.5662e-07
1.43247e-07 -1.5662e-07 0.000252451

0.000267078 4.56722e-05 4.79507e-07
4.56722e-05 0.000288284 5.03778e-07
4.79507e-07 5.03778e-07 0.000252508

0.000202948 -4.03798e-05 6.98657e-08
-4.03798e-05 0.000245469 -7.82872e-08
6.98657e-08 -7.82872e-08 0.000230084

0.000192194 4.99432e-05 -7.70425e-08
4.99432e-05 0.000225565 6.89398e-08
-7.70425e-08 6.89398e-08 0.000232998

0.000206678 2.02134e-05 -1.80871e-07
2.02134e-05 0.000173618 -1.49074e-07
-1.80871e-07 -1.49074e-07 0.00019209

0.000170126 -1.73556e-05 -7.23241e-08
-1.73556e-05 0.00022664 1.04516e-07
-7.23241e-08 1.04516e-07 0.000200273

0.000185637 -2.60527e-05 -1.08801e-07
-2.60527e-05 0.00022376 2.43058e-09
-1.08801e-07 2.43058e-09 0.000199224

0.00020711 -2.14537e-05 3.25428e-08
-2.14537e-05 0.000178505 5.90579e-08
3.25428e-08 5.90579e-08 0.000191483

0.000186338 1.94501e-05 1.36011e-08
1.94501e-05 0.000219447 -2.18145e-08
1.36011e-08 -2.18145e-08 0.000197948

0.00016929 1.10117e-05 -4.46256e-08
1.10117e-05 0.000228197 -5.97604e-08
-4.46256e-08 -5.97604e-08 0.00019991

0.000187919 2.79524e-05 1.5005e-07
2.79524e-05 0.000186938 -5.18758e-08
1.5005e-07 -5.18758e-08 0.000189053

0.000208829 3.35047e-05 -1.07861e-07
3.35047e-05 0.000237269 -3.99273e-09
-1.07861e-07 -3.99273e-09 0.000231408

0.00020687 -4.45599e-05 1.13695e-07
-4.45599e-05 0.00022502 1.35938e-08
1.13695e-07 1.35938e-08 0.000231933

0.000190689 -3.444e-05 -2.63902e-08
-3.444e-05 0.000193807 -5.97493e-08
-2.63902e-08 -5.97493e-08 0.000187833

0.00024044 9.64288e-06 -6.28125e-08
9.64288e-06 0.000197482 -1.49909e-07
-6.28125e-08 -1.49909e-07 0.000223449

0.000314562 -1.34657e-05 -1.43241e-07
-1.34657e-05 0.000302736 -6.28119e-08
-1.43241e-07 -6.28119e-08 0.000251082

0.000255969 9.15749e-06 -8.1637e-08
9.15749e-06 0.000265182 -5.56113e-08
-8.1637e-08 -5.56113e-08 0.000253441

0.00020217 -3.39223e-05 -1.37345e-09
-3.39223e-05 0.000235402 8.77509e-08
-1.37345e-09 8.77509e-08 0.000218457

0.000224059 -3.33796e-05 6.0618e-08
-3.33796e-05 0.000187839 -2.98812e-08
6.0618e-08 -2.98812e-08 0.00021168

0.00025916 -3.25297e-06 1.52297e-07
-3.25297e-06 0.000222599 -1.91913e-08
1.52297e-07 -1.91913e-08 0.00023728

0.000124779 -2.33747e-05 -3.97948e-08
-2.33747e-05 0.00013431 -2.57869e-08
-3.97948e-08 -2.57869e-08 0.000120207

0.00013607 -2.12301e-05 -1.12055e-07
-2.12301e-05 0.000121448 -1.17847e-07
-1.12055e-07 -1.17847e-07 0.00012062

0.000265644 2.24446e-06 1.90343e-07
2.24446e-06 0.000194606 1.68992e-07
1.90343e-07 1.68992e-07 0.000234327

0.000255454 -1.70812e-06 -1.64847e-07
-1.70812e-06 0.000198502 1.68031e-07
-1.64847e-07 1.68031e-07 0.000234496

0.000262926 -3.65836e-07 -2.57377e-09
-3.65836e-07 0.000206938 2.55391e-08
-2.57377e-09 2.55391e-08 0.00023937

0.000206038 1.4244e-05 4.59475e-08
1.4244e-05 0.00016463 2.91688e-08
4.59475e-08 2.91688e-08 0.000177007

0.000216632 -2.14605e-05 -8.32929e-08
-2.14605e-05 0.000233376 -2.52585e-07
-8.32929e-08 -2.52585e-07 0.000224803

0.000216843 2.63921e-05 -4.6933e-09
2.63921e-05 0.000219212 1.25291e-08
-4.6933e-09 1.25291e-08 0.000226307

0.000294299 -2.40837e-05 -7.04778e-08
-2.40837e-05 0.000243817 -3.91563e-07
-7.04778e-08 -3.91563e-07 0.000254067

0.000296946 -2.58911e-06 -2.89213e-08
-2.58911e-06 0.000323274 1.25504e-07
-2.89213e-08 1.25504e-07 0.000251515

0.000188032 -3.80261e-05 5.13838e-08
-3.80261e-05 0.000234391 1.09021e-07
5.13838e-08 1.09021e-07 0.000215952

0.000220873 -2.67717e-05 7.49018e-09
-2.67717e-05 0.000179497 1.1374e-08
7.49018e-09 1.1374e-08 0.000199718

0.000242922 5.35954e-06 8.50574e-08
5.35954e-06 0.000221417 -1.98259e-07
8.50574e-08 -1.98259e-07 0.000233075

0.000249206 9.72377e-07 -1.76191e-07
9.72377e-07 0.000216272 -3.36474e-08
-1.76191e-07 -3.36474e-08 0.000232563

0.000188727 -1.56054e-05 5.22432e-08
-1.56054e-05 0.000233998 -1.30034e-07
5.22432e-08 -1.30034e-07 0.000220068

0.000187523 -2.78955e-05 -1.83435e-07
-2.78955e-05 0.000221338 1.03218e-07
-1.83435e-07 1.03218e-07 0.00022409

0.000107637 4.20132e-05 6.45582e-08
4.20132e-05 0.000100766 4.45111e-08
6.45582e-08 4.45111e-08 0.000105156

0.000218076 2.2297e-05 -5.31466e-08
2.2297e-05 0.000246118 -1.09461e-07
-5.31466e-08 -1.09461e-07 0.000236065

0.000217426 -2.91821e-05 1.13613e-07
-2.91821e-05 0.000243308 1.34221e-08
1.13613e-07 1.34221e-08 0.000235375

0.000179639 -2.60339e-05 1.68928e-08
-2.60339e-05 0.000228499 -1.40776e-07
1.68928e-08 -1.40776e-07 0.0002182

0.0002089 -1.80533e-05 1.50708e-07
-1.80533e-05 0.000171814 -3.67503e-08
1.50708e-07 -3.67503e-08 0.000178226

0.000220526 1.95126e-05 -1.64209e-07
1.95126e-05 0.000214526 6.70864e-08
-1.64209e-07 6.70864e-08 0.000219198

0.000227166 2.02611e-05 7.63405e-08
2.02611e-05 0.000231298 2.94023e-08
7.63405e-08 2.94023e-08 0.000231184

0.000239643 -3.09204e-05 9.69437e-08
-3.09204e-05 0.000213902 3.39471e-08
9.69437e-08 3.39471e-08 0.000230318

0.000240379 7.80045e-06 -6.07361e-08
7.80045e-06 0.000172634 -4.10186e-08
-6.07361e-08 -4.10186e-08 0.000218974

0.000253412 -3.41087e-06 -2.05769e-07
-3.41087e-06 0.000232009 -3.53605e-08
-2.05769e-07 -3.53605e-08 0.000241315

0.000263263 5.70497e-06 2.01616e-07
5.70497e-06 0.000219025 1.1297e-07
2.01616e-07 1.1297e-07 0.000241185

0.00024983 1.01591e-05 -2.97297e-07
1.01591e-05 0.000321527 9.36652e-08
-2.97297e-07 9.36652e-08 0.000249469

0.000247261 2.02804e-06 -2.91113e-09
2.02804e-06 0.000288649 -1.35574e-07
-2.91113e-09 -1.35574e-07 0.00025151

0.000107665 -1.0818e-05 -5.24605e-08
-1.0818e-05 8.00884e-05 -1.82608e-07
-5.24605e-08 -1.82608e-07 0.000112716

7.12809e-05 -7.07741e-06 -9.0157e-08
-7.07741e-06 0.00011236 1.61707e-07
-9.0157e-08 1.61707e-07 0.000112691

0.000201757 -3.37459e-05 1.20005e-07
-3.37459e-05 0.00024188 1.94787e-07
1.20005e-07 1.94787e-07 0.000222551

0.000201719 2.94093e-05 5.85821e-08
2.94093e-05 0.000218281 -4.8883e-08
5.85821e-08 -4.8883e-08 0.000224924

0.000193372 -4.47535e-05 1.37589e-07
-4.47535e-05 0.000242805 -8.86489e-09
1.37589e-07 -8.86489e-09 0.000221303

0.000100705 1.13598e-05 4.99963e-08
1.13598e-05 9.94086e-05 -8.39581e-08
4.99963e-08 -8.39581e-08 0.000110511

0.000104222 1.69825e-05 -1.76522e-07
1.69825e-05 9.31272e-05 7.33462e-09
-1.76522e-07 7.33462e-09 0.000110678

0.000210451 3.70073e-05 1.252e-07
3.70073e-05 0.000325273 3.65918e-07
1.252e-07 3.65918e-07 0.000255139

0.000246704 -2.99491e-05 1.60828e-07
-2.99491e-05 0.000298942 -2.37184e-08
1.60828e-07 -2.37184e-08 0.000255157

0.000209695 2.64602e-05 8.49777e-08
2.64602e-05 0.000210601 -1.47923e-07
8.49777e-08 -1.47923e-07 0.000215475

0.00018809 -3.28131e-05 2.88243e-08
-3.28131e-05 0.000206971 3.46709e-08
2.88243e-08 3.46709e-08 0.000192954

0.000201754 -3.23412e-05 1.75356e-07
-3.23412e-05 0.000226081 -1.17978e-07
1.75356e-07 -1.17978e-07 0.000218897

0.00020289 3.29739e-05 6.27166e-08
3.29739e-05 0.000216139 -2.2523e-08
6.27166e-08 -2.2523e-08 0.000220804

0.000188999 -3.75248e-05 -2.24635e-08
-3.75248e-05 0.000217875 1.02729e-07
-2.24635e-08 1.02729e-07 0.000204147

0.000185726 2.60739e-05 1.48719e-07
2.60739e-05 0.000199648 -4.96136e-08
1.48719e-07 -4.96136e-08 0.000194285

0.000121541 -1.33342e-05 1.84476e-07
-1.33342e-05 0.000162413 5.33992e-08
1.84476e-07 5.33992e-08 0.000134508

0.000128294 -1.15394e-05 4.5646e-08
-1.15394e-05 0.000160474 1.32628e-07
4.5646e-08 1.32628e-07 0.000133428

0.00016379 -9.68949e-06 7.21682e-08
-9.68949e-06 0.000124732 -1.00363e-07
7.21682e-08 -1.00363e-07 0.000132525

0.000185908 2.93611e-05 1.07524e-07
2.93611e-05 0.000208888 -1.09956e-07
1.07524e-07 -1.09956e-07 0.000205769

0.000108672 -1.35245e-06 2.8532e-08
-1.35245e-06 0.000152913 2.54528e-07
2.8532e-08 2.54528e-07 0.000124735

0.000150043 2.92453e-06 -2.05851e-07
2.92453e-06 0.000113204 1.38503e-07
-2.05851e-07 1.38503e-07 0.000124051

0.000211351 -3.05189e-05 4.06223e-08
-3.05189e-05 0.00024008 2.11623e-07
4.06223e-08 2.11623e-07 0.00023045

0.000213487 3.65749e-05 -1.59484e-08
3.65749e-05 0.000220612 -6.32911e-08
-1.59484e-08 -6.32911e-08 0.000232449

0.000214845 -2.42012e-05 -9.22202e-08
-2.42012e-05 0.000242493 -2.41907e-07
-9.22202e-08 -2.41907e-07 0.000232315

0.000214785 3.21512e-05 -2.94012e-08
3.21512e-05 0.000235691 -1.66579e-08
-2.94012e-08 -1.66579e-08 0.000233685

9.39454e-05 -2.20611e-05 -2.16856e-08
-2.20611e-05 9.78659e-05 -2.00553e-07
-2.16856e-08 -2.00553e-07 0.000108666

9.41339e-05 -2.13995e-05 4.85792e-08
-2.13995e-05 9.9077e-05 -6.21617e-08
4.85792e-08 -6.21617e-08 0.000109026

0.000202048 2.71442e-05 -9.72885e-10
2.71442e-05 0.000208206 -6.8229e-08
-9.72885e-10 -6.8229e-08 0.000212031

0.000201305 -2.9468e-05 -9.62505e-08
-2.9468e-05 0.000222233 7.45555e-08
-9.62505e-08 7.45555e-08 0.000210209

0.000244977 -8.2904e-06 -3.04281e-07
-8.2904e-06 0.000279702 5.02436e-08
-3.04281e-07 5.02436e-08 0.00024542

0.000244561 -9.30294e-06 1.86235e-08
-9.30294e-06 0.000252121 -1.70907e-09
1.86235e-08 -1.70907e-09 0.000246863

0.000207559 -3.19375e-05 1.22336e-07
-3.19375e-05 0.000256029 7.18421e-08
1.22336e-07 7.18421e-08 0.000234807

0.000200328 3.40329e-05 -2.83663e-08
3.40329e-05 0.000245648 -8.29852e-08
-2.83663e-08 -8.29852e-08 0.000236658

0.000253876 3.38691e-08 -1.23564e-07
3.38691e-08 0.000215624 -6.65024e-08
-1.23564e-07 -6.65024e-08 0.000240664

0.000242994 7.10899e-06 8.70894e-08
7.10899e-06 0.000223571 -1.96994e-07
8.70894e-08 -1.96994e-07 0.000240996

0.000208356 2.98654e-05 1.68812e-07
2.98654e-05 0.00023003 2.28437e-08
1.68812e-07 2.28437e-08 0.000223312

0.000213032 -3.18173e-05 -2.30167e-08
-3.18173e-05 0.000214 3.82528e-08
-2.30167e-08 3.82528e-08 0.000222157

0.000234848 -1.31082e-05 3.21421e-08
-1.31082e-05 0.000278166 -8.51475e-08
3.21421e-08 -8.51475e-08 0.000248091

0.000264776 1.27986e-05 -1.43605e-07
1.27986e-05 0.000248691 -2.04139e-07
-1.43605e-07 -2.04139e-07 0.000248616

0.000283518 -3.18836e-05 -7.14402e-08
-3.18836e-05 0.000260644 1.96122e-08
-7.14402e-08 1.96122e-08 0.000246863

0.000232841 -4.99889e-06 8.67996e-08
-4.99889e-06 0.000303847 -1.22529e-07
8.67996e-08 -1.22529e-07 0.000246811

0.000256581 8.59063e-06 -4.98893e-08
8.59063e-06 0.000248129 8.07424e-08
-4.98893e-08 8.07424e-08 0.00024808

0.000239781 1.35462e-06 3.41452e-07
1.35462e-06 0.000275909 -2.81405e-07
3.41452e-07 -2.81405e-07 0.000252505

0.000271551 -1.00851e-05 2.60948e-07
-1.00851e-05 0.000237948 6.87805e-08
2.60948e-07 6.87805e-08 0.000248076

0.00026926 -4.24546e-06 1.60754e-07
-4.24546e-06 0.000250718 -2.39393e-08
1.60754e-07 -2.39393e-08 0.000252453

0.000248368 -1.62385e-05 -6.04576e-07
-1.62385e-05 0.000262523 1.01633e-06
-6.04576e-07 1.01633e-06 0.000250391

0.000258073 4.27506e-05 -7.84766e-07
4.27506e-05 0.000295628 -1.35009e-06
-7.84766e-07 -1.35009e-06 0.000250711

0.000330198 2.3098e-05 2.96437e-08
2.3098e-05 0.000309266 -4.55767e-08
2.96437e-08 -4.55767e-08 0.000255244

0.000369363 -1.98462e-05 -4.37631e-06
-1.98462e-05 0.000212079 -2.76292e-06
-4.37631e-06 -2.76292e-06 0.000255378

0.000259285 -2.27871e-05 2.15146e-07
-2.27871e-05 0.000257292 -2.26196e-07
2.15146e-07 -2.26196e-07 0.000248382

0.000232408 -1.66204e-05 -1.55921e-07
-1.66204e-05 0.000260911 1.9523e-08
-1.55921e-07 1.9523e-08 0.000242488

0.000270564 3.9067e-05 2.35932e-07
3.9067e-05 0.000255759 1.97074e-07
2.35932e-07 1.97074e-07 0.000248853

0.000236287 2.24205e-05 -1.51914e-07
2.24205e-05 0.000248743 -5.97556e-08
-1.51914e-07 -5.97556e-08 0.000243428

0.000265849 4.47376e-05 3.21612e-07
4.47376e-05 0.00030435 -1.99684e-07
3.21612e-07 -1.99684e-07 0.000253488

0.000267017 -4.99549e-06 1.87549e-07
-4.99549e-06 0.00025627 -3.53997e-07
1.87549e-07 -3.53997e-07 0.00025351

0.000232146 -1.4752e-05 -1.56407e-07
-1.4752e-05 0.000254454 2.54637e-08
-1.56407e-07 2.54637e-08 0.000244591

0.000257723 -8.61131e-06 -6.47362e-08
-8.61131e-06 0.000255798 5.4013e-08
-6.47362e-08 5.4013e-08 0.000249425

0.000238643 3.73626e-05 -1.67812e-07
3.73626e-05 0.000261176 -2.54552e-07
-1.67812e-07 -2.54552e-07 0.000245193

0.000244428 2.44986e-05 -2.45422e-07
2.44986e-05 0.000268628 -2.30383e-07
-2.45422e-07 -2.30383e-07 0.000249638

0.000185455 8.59099e-06 -9.76261e-08
8.59099e-06 0.000246757 6.93645e-08
-9.76261e-08 6.93645e-08 0.000219757

0.000230746 -3.30663e-06 3.81002e-09
-3.30663e-06 0.00024769 1.12322e-07
3.81002e-09 1.12322e-07 0.000233897

0.000231684 8.20465e-06 -4.41767e-08
8.20465e-06 0.000164194 1.83618e-09
-4.41767e-08 1.83618e-09 0.000196643

0.000222413 2.13501e-06 -2.2553e-08
2.13501e-06 0.000160259 1.45871e-08
-2.2553e-08 1.45871e-08 0.000182678

0.000185154 9.50073e-06 -8.78641e-08
9.50073e-06 0.000266218 -4.41921e-08
-8.78641e-08 -4.41921e-08 0.00023256

0.000231652 2.32912e-06 -9.2823e-09
2.32912e-06 0.000256287 -3.99578e-08
-9.2823e-09 -3.99578e-08 0.000249358

0.000223729 -2.97869e-06 -5.80758e-09
-2.97869e-06 0.000159822 -1.16319e-07
-5.80758e-09 -1.16319e-07 0.000184332

0.000255862 -1.69375e-06 -4.62327e-08
-1.69375e-06 0.00018135 4.17232e-09
-4.62327e-08 4.17232e-09 0.000222558

0.000131791 -1.90092e-05 7.17855e-08
-1.90092e-05 0.000174488 4.15476e-08
7.17855e-08 4.15476e-08 0.00014493

0.000148089 3.10023e-05 9.49785e-08
3.10023e-05 0.000181583 -7.34024e-08
9.49785e-08 -7.34024e-08 0.000150246

0.00017142 2.92742e-05 1.57698e-07
2.92742e-05 0.000139831 -1.53319e-08
1.57698e-07 -1.53319e-08 0.000147693

0.000237796 3.52479e-05 -1.50268e-08
3.52479e-05 0.000258838 8.73923e-09
-1.50268e-08 8.73923e-09 0.00024458

0.000220188 -1.21271e-05 -4.90534e-08
-1.21271e-05 0.000255141 -1.24698e-07
-4.90534e-08 -1.24698e-07 0.000236596

0.000203731 3.01472e-05 2.40275e-08
3.01472e-05 0.000219222 2.65665e-08
2.40275e-08 2.65665e-08 0.000203137

0.000219264 2.64699e-05 -8.62555e-08
2.64699e-05 0.000255014 -3.45624e-08
-8.62555e-08 -3.45624e-08 0.000241491

0.000182151 -9.84637e-06 -2.9967e-08
-9.84637e-06 0.000266425 -1.363e-07
-2.9967e-08 -1.363e-07 0.000231685

0.000235562 -6.05837e-06 -3.16958e-09
-6.05837e-06 0.000170369 -1.04572e-08
-3.16958e-09 -1.04572e-08 0.000208535

0.000159786 1.39803e-05 3.13581e-08
1.39803e-05 0.000204135 4.68865e-08
3.13581e-08 4.68865e-08 0.000163581

0.000141234 -3.74561e-06 3.77324e-09
-3.74561e-06 0.00019829 -8.90352e-08
3.77324e-09 -8.90352e-08 0.000158979

0.000196754 1.41396e-05 -8.46044e-08
1.41396e-05 0.000148817 1.40765e-07
-8.46044e-08 1.40765e-07 0.000159731

0.000203632 -1.49598e-05 1.65015e-07
-1.49598e-05 0.000153171 -4.11921e-08
1.65015e-07 -4.11921e-08 0.000172218

0.000169329 2.61333e-05 -5.30436e-08
2.61333e-05 0.000210915 -3.38578e-08
-5.30436e-08 -3.38578e-08 0.000186384

0.00020181 -1.92578e-05 -8.01375e-09
-1.92578e-05 0.000216449 1.13951e-07
-8.01375e-09 1.13951e-07 0.000196524

0.000234518 -9.75366e-06 6.65302e-08
-9.75366e-06 0.00016352 -1.45314e-07
6.65302e-08 -1.45314e-07 0.000199261

0.000140947 1.92745e-05 5.61379e-10
1.92745e-05 0.00016267 -2.49239e-07
5.61379e-10 -2.49239e-07 0.000134047

0.000251231 2.10855e-06 1.52191e-07
2.10855e-06 0.000174644 1.06257e-07
1.52191e-07 1.06257e-07 0.000217708

0.000156664 2.07558e-05 -1.28019e-07
2.07558e-05 0.000134915 -1.777e-07
-1.28019e-07 -1.777e-07 0.000132713

0.000220585 2.41318e-06 3.76946e-08
2.41318e-06 0.000266375 -9.29978e-08
3.76946e-08 -9.29978e-08 0.000237293

0.00024977 1.19864e-05 -5.19264e-08
1.19864e-05 0.000261057 -5.65338e-08
-5.19264e-08 -5.65338e-08 0.000251205

0.000263305 -3.14587e-05 -8.13199e-08
-3.14587e-05 0.000267178 1.44454e-07
-8.13199e-08 1.44454e-07 0.000251724

0.000276112 1.30153e-05 -8.28206e-08
1.30153e-05 0.000253908 -1.27119e-07
-8.28206e-08 -1.27119e-07 0.000251783

0.000194352 -4.83603e-06 -5.25573e-08
-4.83603e-06 0.000145098 7.30602e-08
-5.25573e-08 7.30602e-08 0.000154579

0.000194498 3.66116e-05 -2.48633e-08
3.66116e-05 0.000214774 6.5303e-08
-2.48633e-08 6.5303e-08 0.000200972

0.000244498 5.5052e-06 -1.4119e-08
5.5052e-06 0.000237301 -9.38237e-08
-1.4119e-08 -9.38237e-08 0.00023715

0.000236839 -1.66534e-05 7.31461e-08
-1.66534e-05 0.000233859 5.92259e-08
7.31461e-08 5.92259e-08 0.000238774

0.000262694 -2.17298e-06 1.02466e-07
-2.17298e-06 0.000175 1.08454e-07
1.02466e-07 1.08454e-07 0.000223179

0.000169014 3.02381e-05 -7.25698e-08
3.02381e-05 0.000200531 -7.82923e-09
-7.25698e-08 -7.82923e-09 0.000184531

0.000190996 -2.77782e-05 -3.19234e-08
-2.77782e-05 0.00021295 8.20772e-08
-3.19234e-08 8.20772e-08 0.000194259

0.000201888 -1.95267e-05 1.51047e-07
-1.95267e-05 0.000169524 -1.34072e-07
1.51047e-07 -1.34072e-07 0.000177053

0.00025622 -4.4262e-06 -3.94437e-08
-4.4262e-06 0.000169871 -1.12372e-07
-3.94437e-08 -1.12372e-07 0.000218503

0.000179496 3.58743e-05 3.41722e-08
3.58743e-05 0.000215846 8.42461e-08
3.41722e-08 8.42461e-08 0.000185433

0.000167013 -2.43995e-05 1.79475e-08
-2.43995e-05 0.00019843 5.6499e-08
1.79475e-08 5.6499e-08 0.000182422

0.000182755 3.32483e-05 5.77147e-08
3.32483e-05 0.000217962 6.50146e-08
5.77147e-08 6.50146e-08 0.000188153

0.000163775 -1.9783e-05 3.32295e-08
-1.9783e-05 0.000212077 7.29083e-08
3.32295e-08 7.29083e-08 0.000184886

0.000231462 -1.65021e-05 -2.79832e-08
-1.65021e-05 0.000245561 5.57546e-08
-2.79832e-08 5.57546e-08 0.000238334

0.000179969 2.31695e-05 6.07671e-08
2.31695e-05 0.000237216 -5.95219e-08
6.07671e-08 -5.95219e-08 0.000219353

0.000179954 -2.84552e-05 8.87411e-08
-2.84552e-05 0.000168147 -1.39444e-07
8.87411e-08 -1.39444e-07 0.000166548

0.000111771 -2.52002e-05 8.29951e-08
-2.52002e-05 0.000108342 4.62518e-08
8.29951e-08 4.62518e-08 0.000109853

0.000100938 -2.75516e-05 1.12348e-07
-2.75516e-05 0.000115843 1.42382e-07
1.12348e-07 1.42382e-07 0.000109511

0.00021166 4.29083e-05 1.23399e-07
4.29083e-05 0.000256783 -4.36658e-08
1.23399e-07 -4.36658e-08 0.000236835

0.000182684 -2.78137e-05 -4.21999e-08
-2.78137e-05 0.000248639 -1.22103e-07
-4.21999e-08 -1.22103e-07 0.000231677

0.000103589 -5.37789e-06 9.76107e-08
-5.37789e-06 0.00010408 -1.08021e-07
9.76107e-08 -1.08021e-07 0.000114713

0.000105789 -5.93311e-06 4.81294e-08
-5.93311e-06 0.000110216 4.45694e-08
4.81294e-08 4.45694e-08 0.000115223

0.000257895 2.44877e-05 2.75407e-08
2.44877e-05 0.000231827 -2.23761e-07
2.75407e-08 -2.23761e-07 0.000240217

0.000276199 -1.78424e-05 9.90846e-08
-1.78424e-05 0.000239268 1.12459e-08
9.90846e-08 1.12459e-08 0.000258302

0.000236091 -4.99171e-07 7.47048e-08
-4.99171e-07 0.000174306 1.76015e-08
7.47048e-08 1.76015e-08 0.000218381

0.000254969 3.48939e-05 -2.17831e-08
3.48939e-05 0.000230268 1.23358e-07
-2.17831e-08 1.23358e-07 0.00024028

0.000274584 -2.4506e-05 8.25548e-08
-2.4506e-05 0.000225435 -1.05082e-07
8.25548e-08 -1.05082e-07 0.000255662

0.000169009 2.45036e-05 -4.35475e-08
2.45036e-05 0.000220465 8.5208e-08
-4.35475e-08 8.5208e-08 0.000200121

0.000201691 -1.91179e-05 -8.23336e-10
-1.91179e-05 0.000231731 2.38604e-08
-8.23336e-10 2.38604e-08 0.000212846

0.000274246 1.19543e-05 -1.36236e-07
1.19543e-05 0.000237948 6.87805e-08
-1.36236e-07 6.87805e-08 0.000248065

0.000258913 -1.59446e-05 -1.05765e-07
-1.59446e-05 0.000248129 8.07424e-08
-1.05765e-07 8.07424e-08 0.00024802

0.000234144 3.71002e-05 1.92117e-07
3.71002e-05 0.000208139 6.85423e-08
1.92117e-07 6.85423e-08 0.000226804

0.000254897 -3.0006e-05 8.44169e-08
-3.0006e-05 0.000215593 6.57052e-08
8.44169e-08 6.57052e-08 0.000240074

0.000168458 -2.00646e-05 -1.75595e-07
-2.00646e-05 0.00013647 1.45564e-08
-1.75595e-07 1.45564e-08 0.000142419

0.000231871 -5.24064e-07 2.98573e-08
-5.24064e-07 0.000296617 1.21697e-07
2.98573e-08 1.21697e-07 0.000246587

0.000260716 7.57126e-06 -5.83818e-08
7.57126e-06 0.000282065 -6.19231e-09
-5.83818e-08 -6.19231e-09 0.000270231

0.000118943 -3.39581e-06 1.81923e-07
-3.39581e-06 0.00015598 -1.1327e-07
1.81923e-07 -1.1327e-07 0.000128606

0.000154047 -4.40609e-06 5.73578e-08
-4.40609e-06 0.000122048 -1.39771e-07
5.73578e-08 -1.39771e-07 0.000127915

0.000171607 2.06842e-05 7.73958e-08
2.06842e-05 0.000236537 -5.59871e-08
7.73958e-08 -5.59871e-08 0.000214097

0.000211799 -1.22264e-05 -6.43731e-08
-1.22264e-05 0.000244632 6.34888e-08
-6.43731e-08 6.34888e-08 0.000229308

0.000311633 -5.65048e-06 -1.79573e-07
-5.65048e-06 0.000344615 3.5214e-07
-1.79573e-07 3.5214e-07 0.000254153

0.000330122 -2.09713e-05 5.50551e-07
-2.09713e-05 0.000259998 -2.69672e-07
5.50551e-07 -2.69672e-07 0.000275488

0.000233011 3.32058e-05 -4.48516e-08
3.32058e-05 0.000186412 3.56307e-08
-4.48516e-08 3.56307e-08 0.000216549

0.000245502 -2.18152e-05 6.48014e-08
-2.18152e-05 0.000189931 -1.46932e-07
6.48014e-08 -1.46932e-07 0.000225101

0.000192989 2.61293e-07 -3.84075e-08
2.61293e-07 0.00013992 -2.50207e-08
-3.84075e-08 -2.50207e-08 0.000153036

0.000223636 1.22429e-06 2.89235e-09
1.22429e-06 0.000165988 -1.37083e-08
2.89235e-09 -1.37083e-08 0.000192391

0.000206906 1.58805e-05 1.04174e-08
1.58805e-05 0.000154149 5.99707e-09
1.04174e-08 5.99707e-09 0.00016902

0.00024587 5.93418e-06 -2.9593e-08
5.93418e-06 0.000206834 -2.5582e-08
-2.9593e-08 -2.5582e-08 0.000232666

0.000226181 -1.12384e-05 -1.73661e-08
-1.12384e-05 0.000296643 1.76401e-07
-1.73661e-08 1.76401e-07 0.000253585

0.000259859 6.83405e-06 1.74622e-07
6.83405e-06 0.000263141 -2.46555e-07
1.74622e-07 -2.46555e-07 0.000253655

0.000170501 2.79456e-05 8.93559e-08
2.79456e-05 0.000181905 -7.3001e-08
8.93559e-08 -7.3001e-08 0.000156956

0.000196817 -2.44156e-05 -7.00157e-08
-2.44156e-05 0.000184054 8.34345e-08
-7.00157e-08 8.34345e-08 0.000193136

0.000228278 2.6448e-05 1.8863e-08
2.6448e-05 0.000178598 8.69371e-08
1.8863e-08 8.69371e-08 0.000205846

0.000258719 1.16637e-05 -1.58809e-07
1.16637e-05 0.000280192 1.82366e-08
-1.58809e-07 1.82366e-08 0.000268735

0.000249843 1.58612e-05 1.84545e-07
1.58612e-05 0.000303525 1.59325e-07
1.84545e-07 1.59325e-07 0.000249476

0.000238984 -1.41267e-05 5.65203e-08
-1.41267e-05 0.000213357 -1.53428e-08
5.65203e-08 -1.53428e-08 0.000234749

0.000219833 2.18394e-05 -9.49092e-08
2.18394e-05 0.000247166 1.1341e-07
-9.49092e-08 1.1341e-07 0.000227581

0.000182883 -4.06794e-06 -2.20154e-08
-4.06794e-06 0.000250047 -3.60062e-10
-2.20154e-08 -3.60062e-10 0.000219166

0.000245771 1.66992e-05 8.39482e-08
1.66992e-05 0.000172374 6.01414e-08
8.39482e-08 6.01414e-08 0.000225088

0.000251453 -3.04904e-06 5.49435e-08
-3.04904e-06 0.000171435 3.00337e-08
5.49435e-08 3.00337e-08 0.000229315

0.000183371 -2.16259e-05 7.96794e-08
-2.16259e-05 0.000169614 6.82453e-08
7.96794e-08 6.82453e-08 0.00015968

0.000253734 2.93719e-05 7.23532e-08
2.93719e-05 0.000194538 -4.4242e-09
7.23532e-08 -4.4242e-09 0.000232828

0.000264017 -1.88781e-05 -7.34632e-09
-1.88781e-05 0.00019053 -1.18042e-07
-7.34632e-09 -1.18042e-07 0.00024177

0.000234094 -1.45729e-05 -8.8142e-09
-1.45729e-05 0.000186128 -8.07713e-08
-8.8142e-09 -8.07713e-08 0.000212011

0.000243285 2.14848e-05 9.23714e-08
2.14848e-05 0.000189476 1.65305e-08
9.23714e-08 1.65305e-08 0.000224927

0.000248003 -1.07111e-05 2.22361e-08
-1.07111e-05 0.000191207 -1.49394e-07
2.22361e-08 -1.49394e-07 0.00023256

0.000230804 -9.44539e-06 -4.31887e-08
-9.44539e-06 0.000180044 9.53744e-08
-4.31887e-08 9.53744e-08 0.000205021

0.000198876 3.82299e-05 -1.19838e-07
3.82299e-05 0.00021654 -4.08598e-08
-1.19838e-07 -4.08598e-08 0.000223467

0.000251819 -3.29149e-05 1.60265e-07
-3.29149e-05 0.000235188 -9.4526e-09
1.60265e-07 -9.4526e-09 0.000244889

0.000197986 2.61294e-05 -1.40823e-07
2.61294e-05 0.00018895 -5.88681e-08
-1.40823e-07 -5.88681e-08 0.000177984

0.000237024 -2.44018e-05 7.43791e-08
-2.44018e-05 0.000255584 -1.37112e-07
7.43791e-08 -1.37112e-07 0.000251587

0.00018756 2.70355e-05 7.20996e-08
2.70355e-05 0.000224836 -3.81709e-08
7.20996e-08 -3.81709e-08 0.000226186

0.000207727 2.38167e-05 -1.20817e-07
2.38167e-05 0.000155426 1.23999e-07
-1.20817e-07 1.23999e-07 0.000177287

0.000217721 -2.08809e-05 4.15934e-08
-2.08809e-05 0.000195674 1.38003e-09
4.15934e-08 1.38003e-09 0.000216168

0.000229976 8.90381e-06 -3.79787e-08
8.90381e-06 0.00018527 2.12221e-08
-3.79787e-08 2.12221e-08 0.000201302

0.000179388 3.39982e-05 2.44222e-08
3.39982e-05 0.000185624 -1.31058e-07
2.44222e-08 -1.31058e-07 0.000172629

0.000203567 2.74046e-05 2.49569e-08
2.74046e-05 0.000188187 5.1045e-08
2.49569e-08 5.1045e-08 0.000192953

0.000198795 1.09255e-05 -4.6837e-08
1.09255e-05 0.000241504 1.3839e-07
-4.6837e-08 1.3839e-07 0.000221833

0.000162544 3.54255e-06 -1.27046e-07
3.54255e-06 0.000247629 5.42206e-08
-1.27046e-07 5.42206e-08 0.000211972

0.000183338 -2.06352e-05 8.22366e-08
-2.06352e-05 0.000141397 5.44397e-09
8.22366e-08 5.44397e-09 0.000152602

0.000190674 -3.77637e-05 2.98248e-08
-3.77637e-05 0.000219654 -7.07103e-08
2.98248e-08 -7.07103e-08 0.000224513

0.000201056 4.162e-05 3.42285e-08
4.162e-05 0.000240392 -8.42711e-08
3.42285e-08 -8.42711e-08 0.000222686

0.00019199 -3.08598e-05 9.61413e-09
-3.08598e-05 0.000195664 -2.62401e-07
9.61413e-09 -2.62401e-07 0.000179212

0.000170675 3.64648e-05 -7.30573e-08
3.64648e-05 0.000188996 -1.18985e-08
-7.30573e-08 -1.18985e-08 0.000171793

0.000222667 -1.72969e-05 -4.80831e-08
-1.72969e-05 0.000184756 8.46366e-08
-4.80831e-08 8.46366e-08 0.000203527

0.000255893 -4.28175e-06 1.28742e-08
-4.28175e-06 0.000186409 -5.39341e-08
1.28742e-08 -5.39341e-08 0.000231718

0.000263396 1.3241e-06 -1.02624e-07
1.3241e-06 0.000182592 -1.45811e-07
-1.02624e-07 -1.45811e-07 0.00023078

0.000194163 -2.90373e-05 -7.31324e-08
-2.90373e-05 0.000199187 6.87983e-08
-7.31324e-08 6.87983e-08 0.000196537

0.000141702 5.59397e-06 -1.82991e-07
5.59397e-06 0.000200492 -2.75028e-08
-1.82991e-07 -2.75028e-08 0.000157777

0.000125103 4.93825e-06 -4.55473e-08
4.93825e-06 0.000194604 -7.46949e-08
-4.55473e-08 -7.46949e-08 0.00015277

0.000192509 5.11366e-06 -1.21523e-07
5.11366e-06 0.000132026 3.44941e-08
-1.21523e-07 3.44941e-08 0.000154239

0.000171357 3.09341e-05 1.53145e-07
3.09341e-05 0.000164427 -4.533e-08
1.53145e-07 -4.533e-08 0.000154537

0.000200874 -3.06101e-05 6.26814e-09
-3.06101e-05 0.000170997 1.3746e-07
6.26814e-09 1.3746e-07 0.000178

0.000253405 3.43467e-05 -5.60557e-07
3.43467e-05 0.000295112 -1.09163e-07
-5.60557e-07 -1.09163e-07 0.000271579

0.000312467 -8.42399e-06 1.25679e-08
-8.42399e-06 0.00031263 2.13862e-07
1.25679e-08 2.13862e-07 0.000252645

0.000215615 -9.85802e-06 -1.16353e-07
-9.85802e-06 0.000155977 -8.15254e-08
-1.16353e-07 -8.15254e-08 0.000181111

0.000179089 2.74445e-05 5.15244e-09
2.74445e-05 0.000218533 1.2504e-07
5.15244e-09 1.2504e-07 0.000210429

0.000224069 -3.03419e-05 -3.03237e-08
-3.03419e-05 0.000235122 4.79856e-08
-3.03237e-08 4.79856e-08 0.000227142

0.000237862 1.43037e-05 7.69376e-08
1.43037e-05 0.000173098 5.50177e-08
7.69376e-08 5.50177e-08 0.000216194

0.000169335 2.85908e-05 3.60757e-08
2.85908e-05 0.000216406 5.89525e-08
3.60757e-08 5.89525e-08 0.000180677

0.000146897 -1.28016e-05 -7.8407e-08
-1.28016e-05 0.000209444 1.05377e-07
-7.8407e-08 1.05377e-07 0.000175896

0.000180596 2.85106e-05 1.84549e-08
2.85106e-05 0.000251177 7.81408e-08
1.84549e-08 7.81408e-08 0.000232556

0.000246952 -1.17019e-05 1.44557e-07
-1.17019e-05 0.000263986 1.50436e-08
1.44557e-07 1.50436e-08 0.000260516

0.000193623 2.89922e-05 -1.16187e-07
2.89922e-05 0.000217927 -2.77506e-08
-1.16187e-07 -2.77506e-08 0.000227134

0.00024879 -2.98095e-05 1.29685e-07
-2.98095e-05 0.00025194 1.0035e-07
1.29685e-07 1.0035e-07 0.000254363

0.000256776 2.03104e-06 2.75393e-08
2.03104e-06 0.000146326 -9.18678e-08
2.75393e-08 -9.18678e-08 0.000232779

0.000185754 3.7275e-05 -4.43442e-08
3.7275e-05 0.000165985 -1.90149e-07
-4.43442e-08 -1.90149e-07 0.000170995

0.000201351 4.44501e-05 8.84593e-08
4.44501e-05 0.000253733 6.49056e-08
8.84593e-08 6.49056e-08 0.000226958

0.000187788 -3.32825e-05 -4.28989e-08
-3.32825e-05 0.000218707 1.47162e-07
-4.28989e-08 1.47162e-07 0.000228223

0.000184778 3.1344e-05 -3.44763e-08
3.1344e-05 0.000180218 -5.94168e-08
-3.44763e-08 -5.94168e-08 0.000178093

0.000156019 -1.93872e-05 -2.25511e-07
-1.93872e-05 0.000174335 2.20675e-08
-2.25511e-07 2.20675e-08 0.000151519

0.000189562 -2.91629e-05 1.49082e-08
-2.91629e-05 0.000209569 -6.10732e-08
1.49082e-08 -6.10732e-08 0.000208874

0.000169606 -5.99282e-06 8.4171e-08
-5.99282e-06 0.000204889 -1.71009e-07
8.4171e-08 -1.71009e-07 0.000168571

0.000145434 1.61135e-05 6.66882e-08
1.61135e-05 0.000200744 -1.44086e-08
6.66882e-08 -1.44086e-08 0.000162631

0.000197818 -6.03759e-06 -5.43094e-08
-6.03759e-06 0.000155429 -1.02514e-07
-5.43094e-08 -1.02514e-07 0.00016433

0.000200288 -2.66513e-05 2.98167e-08
-2.66513e-05 0.000193612 -2.37807e-07
2.98167e-08 -2.37807e-07 0.000185293

0.000162472 4.6994e-06 -1.2803e-07
4.6994e-06 0.000230413 7.40267e-08
-1.2803e-07 7.40267e-08 0.000194219

0.000198338 6.09303e-06 -5.33855e-08
6.09303e-06 0.000231593 6.85775e-09
-5.33855e-08 6.85775e-09 0.000202167

0.000164073 -2.5279e-05 -2.32658e-08
-2.5279e-05 0.000171263 1.29088e-08
-2.32658e-08 1.29088e-08 0.000152788

0.000147942 3.19414e-05 4.50358e-10
3.19414e-05 0.000169358 3.16215e-08
4.50358e-10 3.16215e-08 0.000148895

0.000240929 6.03281e-06 -8.17085e-08
6.03281e-06 0.000176096 8.79812e-08
-8.17085e-08 8.79812e-08 0.000231226

0.000242995 -2.26703e-07 1.12934e-07
-2.26703e-07 0.000172879 4.14804e-08
1.12934e-07 4.14804e-08 0.000234331

0.000195516 3.27636e-05 7.96744e-08
3.27636e-05 0.000210735 9.24393e-08
7.96744e-08 9.24393e-08 0.000213454

0.000230078 -2.69579e-05 3.28986e-08
-2.69579e-05 0.000236933 7.5643e-08
3.28986e-08 7.5643e-08 0.000231016

0.000208727 4.379e-05 2.40453e-08
4.379e-05 0.000257752 -7.8223e-08
2.40453e-08 -7.8223e-08 0.000235453

0.000175316 -2.54187e-05 7.66045e-08
-2.54187e-05 0.000247868 -1.64545e-07
7.66045e-08 -1.64545e-07 0.000232319

0.000207235 2.88974e-05 -5.12243e-09
2.88974e-05 0.000218002 1.68659e-08
-5.12243e-09 1.68659e-08 0.000216107

0.000168395 1.83896e-05 -1.3346e-07
1.83896e-05 0.000135927 -7.64188e-08
-1.3346e-07 -7.64188e-08 0.00013879

0.000175723 -1.59148e-05 -2.99085e-08
-1.59148e-05 0.000216193 1.14978e-07
-2.99085e-08 1.14978e-07 0.000185021

0.000148868 2.23851e-05 6.10682e-08
2.23851e-05 0.000210608 -2.85001e-08
6.10682e-08 -2.85001e-08 0.000177223

0.000253011 2.62681e-05 -5.33914e-08
2.62681e-05 0.000208769 7.58695e-08
-5.33914e-08 7.58695e-08 0.00023377

0.000266216 -1.51564e-05 -2.92487e-08
-1.51564e-05 0.000216247 6.31796e-08
-2.92487e-08 6.31796e-08 0.000246892

0.000224225 -2.5175e-05 7.23449e-08
-2.5175e-05 0.00020081 -2.64985e-08
7.23449e-08 -2.64985e-08 0.000208503

0.000233253 3.13484e-05 -2.78979e-08
3.13484e-05 0.000197212 -1.58618e-07
-2.78979e-08 -1.58618e-07 0.000217726

0.000245312 -2.20722e-05 8.32997e-08
-2.20722e-05 0.00020946 6.6866e-08
8.32997e-08 6.6866e-08 0.000228743

0.000112333 -8.23028e-06 1.93964e-07
-8.23028e-06 7.38402e-05 -6.47164e-08
1.93964e-07 -6.47164e-08 0.000116659

7.22133e-05 -1.0572e-05 8.9443e-08
-1.0572e-05 0.000108682 1.6317e-07
8.9443e-08 1.6317e-07 0.000116187

0.000285728 3.54375e-05 -1.17699e-07
3.54375e-05 0.000255006 2.59833e-07
-1.17699e-07 2.59833e-07 0.000248847

0.000300396 -2.42247e-05 -1.94824e-08
-2.42247e-05 0.000234511 -4.04591e-07
-1.94824e-08 -4.04591e-07 0.000264981

0.000212928 3.40914e-05 1.28142e-07
3.40914e-05 0.000187812 1.31863e-07
1.28142e-07 1.31863e-07 0.000199394

0.000170288 1.66064e-05 -1.69133e-07
1.66064e-05 0.000130702 2.52911e-08
-1.69133e-07 2.52911e-08 0.000138083

0.000196525 3.07527e-05 1.23158e-07
3.07527e-05 0.000244092 3.87696e-09
1.23158e-07 3.87696e-09 0.000219659

0.000166403 -1.20436e-05 7.5114e-08
-1.20436e-05 0.000246192 4.84268e-08
7.5114e-08 4.84268e-08 0.000214133

0.000168368 -2.894e-05 4.7495e-08
-2.894e-05 0.000181723 -1.85851e-07
4.7495e-08 -1.85851e-07 0.000168515

0.000223598 1.91617e-05 4.53602e-08
1.91617e-05 0.000252216 7.63818e-08
4.53602e-08 7.63818e-08 0.000237298

0.000250445 -1.0507e-05 -5.55936e-08
-1.0507e-05 0.000264128 1.95546e-09
-5.55936e-08 1.95546e-09 0.000260151

0.000199042 2.29017e-05 -6.75427e-08
2.29017e-05 0.000158875 1.67787e-07
-6.75427e-08 1.67787e-07 0.000167573

0.000221542 1.23359e-05 -4.12966e-09
1.23359e-05 0.000163855 6.01373e-08
-4.12966e-09 6.01373e-08 0.000191373

0.00017334 4.2971e-05 -1.00569e-07
4.2971e-05 0.000227848 -5.38508e-08
-1.00569e-07 -5.38508e-08 0.000226887

0.000256739 -2.22431e-05 -7.93923e-09
-2.22431e-05 0.000255029 -1.29637e-07
-7.93923e-09 -1.29637e-07 0.000257318

0.00018288 3.56035e-05 5.69073e-08
3.56035e-05 0.000232844 3.7504e-08
5.69073e-08 3.7504e-08 0.000203309

0.000163578 -1.88172e-05 4.23559e-08
-1.88172e-05 0.000222837 -5.30379e-08
4.23559e-08 -5.30379e-08 0.000200175

0.000213324 3.87194e-05 -1.8285e-07
3.87194e-05 0.000195495 -1.36179e-07
-1.8285e-07 -1.36179e-07 0.000210109

0.000234854 -3.30546e-05 -1.86313e-08
-3.30546e-05 0.000206492 5.20711e-08
-1.86313e-08 5.20711e-08 0.000221697

0.000155668 1.09331e-05 5.42069e-08
1.09331e-05 0.000226051 -1.17869e-08
5.42069e-08 -1.17869e-08 0.000189733

0.000186351 -5.49173e-07 -7.93109e-08
-5.49173e-07 0.000227996 -5.35032e-09
-7.93109e-08 -5.35032e-09 0.00019877

0.000117525 -1.22301e-05 1.92606e-07
-1.22301e-05 0.000136895 7.06727e-09
1.92606e-07 7.06727e-09 0.000118902

0.000133965 -1.17639e-05 4.74738e-08
-1.17639e-05 0.000120792 -1.40745e-07
4.74738e-08 -1.40745e-07 0.000118755

0.000229017 2.00092e-05 1.95779e-08
2.00092e-05 0.000170286 7.40465e-08
1.95779e-08 7.40465e-08 0.00020533

0.000331911 5.73738e-06 -3.90793e-07
5.73738e-06 0.000281972 -1.56216e-07
-3.90793e-07 -1.56216e-07 0.00025345

0.000331365 -2.07589e-05 2.0579e-07
-2.07589e-05 0.000251777 5.60083e-07
2.0579e-07 5.60083e-07 0.000272679

0.000235267 -2.92366e-05 2.18389e-08
-2.92366e-05 0.000267478 1.22842e-07
2.18389e-08 1.22842e-07 0.000246684

0.00024011 9.24957e-06 -3.10121e-08
9.24957e-06 0.000254043 -1.15418e-07
-3.10121e-08 -1.15418e-07 0.000246363

0.000248309 -1.59803e-06 2.75139e-08
-1.59803e-06 0.000169971 -3.94824e-08
2.75139e-08 -3.94824e-08 0.000207353

0.000197809 4.78474e-05 5.29746e-08
4.78474e-05 0.000252291 1.24355e-07
5.29746e-08 1.24355e-07 0.000226582

0.000166736 -4.51554e-05 -1.12784e-07
-4.51554e-05 0.00022922 4.45604e-08
-1.12784e-07 4.45604e-08 0.000227129

0.000127619 2.38768e-05 -2.66928e-08
2.38768e-05 0.000137063 -2.18217e-07
-2.66928e-08 -2.18217e-07 0.000126131

0.00014012 2.49119e-05 -5.91535e-08
2.49119e-05 0.000136598 -7.29474e-08
-5.91535e-08 -7.29474e-08 0.000127252

0.000130849 -9.34318e-06 -1.6983e-07
-9.34318e-06 0.000168737 1.40733e-07
-1.6983e-07 1.40733e-07 0.000137775

0.000126754 1.86623e-05 -9.80261e-09
1.86623e-05 0.000163458 2.17287e-08
-9.80261e-09 2.17287e-08 0.000135469

0.000166458 -4.58772e-06 4.50895e-08
-4.58772e-06 0.00012617 3.92003e-08
4.50895e-08 3.92003e-08 0.000136391

0.000115995 1.13215e-05 1.76795e-07
1.13215e-05 0.000160137 -1.94521e-07
1.76795e-07 -1.94521e-07 0.000128824

0.000153648 1.2658e-05 -3.7782e-08
1.2658e-05 0.000115 1.3471e-07
-3.7782e-08 1.3471e-07 0.000127972

0.00022981 3.67003e-06 8.50941e-08
3.67003e-06 0.000279499 1.49864e-07
8.50941e-08 1.49864e-07 0.0002439

0.000244637 2.50408e-05 4.20437e-08
2.50408e-05 0.000271959 -1.08068e-07
4.20437e-08 -1.08068e-07 0.000254042

0.00024494 3.97251e-06 1.62035e-07
3.97251e-06 0.000203941 1.5692e-07
1.62035e-07 1.5692e-07 0.000220146

0.000262317 -7.43391e-07 1.14406e-07
-7.43391e-07 0.000169866 7.35848e-08
1.14406e-07 7.35848e-08 0.000223009

0.000161439 -1.5375e-05 8.90363e-09
-1.5375e-05 0.000194136 -2.61714e-07
8.90363e-09 -2.61714e-07 0.000165026

0.000145499 2.25192e-05 3.94046e-09
2.25192e-05 0.000185211 6.12092e-08
3.94046e-09 6.12092e-08 0.000159053

0.000248159 -1.07368e-06 5.05459e-08
-1.07368e-06 0.000168553 -1.58518e-07
5.05459e-08 -1.58518e-07 0.000208318

0.000270433 1.9814e-05 -1.8229e-07
1.9814e-05 0.000239422 1.83715e-07
-1.8229e-07 1.83715e-07 0.000244733

0.000284006 -1.3614e-05 -1.87837e-07
-1.3614e-05 0.000232264 -2.06191e-07
-1.87837e-07 -2.06191e-07 0.000259561

0.000220164 1.88102e-05 8.81609e-08
1.88102e-05 0.00022535 -3.71688e-08
8.81609e-08 -3.71688e-08 0.000218911

0.000188202 -3.19278e-05 1.47783e-08
-3.19278e-05 0.000213542 -6.1683e-08
1.47783e-08 -6.1683e-08 0.000213707

0.000194637 4.0037e-05 -2.88342e-08
4.0037e-05 0.000240344 -1.14371e-07
-2.88342e-08 -1.14371e-07 0.000212915

0.000245207 3.97774e-06 1.56344e-07
3.97774e-06 0.000178617 1.01357e-07
1.56344e-07 1.01357e-07 0.000215299

0.000171278 2.88123e-05 2.34242e-08
2.88123e-05 0.000162869 1.87983e-07
2.34242e-08 1.87983e-07 0.000152295

0.000174494 -2.3672e-05 3.93609e-08
-2.3672e-05 0.00022369 -5.06699e-08
3.93609e-08 -5.06699e-08 0.000211143

0.000195647 4.29729e-05 -1.03027e-07
4.29729e-05 0.000236903 -7.45637e-08
-1.03027e-07 -7.45637e-08 0.000212532

0.000103091 5.00888e-05 -6.17323e-08
5.00888e-05 0.00010697 8.8694e-08
-6.17323e-08 8.8694e-08 0.000105254

0.00015198 -3.02163e-06 -8.30177e-08
-3.02163e-06 0.000225731 9.32574e-08
-8.30177e-08 9.32574e-08 0.000188764

0.000177228 1.63777e-05 7.7762e-08
1.63777e-05 0.000226658 -4.91748e-08
7.7762e-08 -4.91748e-08 0.000194721

0.000221867 -4.10725e-06 2.90463e-08
-4.10725e-06 0.000298775 -4.22895e-08
2.90463e-08 -4.22895e-08 0.000244921

0.000252292 2.0073e-05 -6.08387e-08
2.0073e-05 0.000269189 -1.08787e-07
-6.08387e-08 -1.08787e-07 0.000260502

0.000260338 1.59001e-05 -9.52097e-08
1.59001e-05 0.000168594 7.02749e-08
-9.52097e-08 7.02749e-08 0.000236415

0.000269178 -1.13063e-05 1.54827e-07
-1.13063e-05 0.000157783 -1.26608e-08
1.54827e-07 -1.26608e-08 0.000242695

0.000222263 2.17592e-05 -2.12127e-08
2.17592e-05 0.000227742 -9.09302e-08
-2.12127e-08 -9.09302e-08 0.000229696

0.000218922 -3.24191e-05 9.76983e-08
-3.24191e-05 0.000226322 6.6229e-08
9.76983e-08 6.6229e-08 0.000231913

0.000235339 1.85314e-05 -7.72465e-08
1.85314e-05 0.000262277 8.30409e-08
-7.72465e-08 8.30409e-08 0.000244116

0.000237935 -2.58613e-05 -6.54441e-10
-2.58613e-05 0.000247934 2.71825e-08
-6.54441e-10 2.71825e-08 0.000244875

0.000299875 3.2062e-05 -3.05735e-07
3.2062e-05 0.000279001 -1.61191e-07
-3.05735e-07 -1.61191e-07 0.000251942

0.000315242 -2.5037e-05 -1.65934e-07
-2.5037e-05 0.000251332 5.38337e-07
-1.65934e-07 5.38337e-07 0.000272147

0.000203512 4.7774e-05 1.08309e-07
4.7774e-05 0.000225647 2.1196e-08
1.08309e-07 2.1196e-08 0.000233582

0.000276746 -2.55266e-05 -1.34213e-07
-2.55266e-05 0.000248744 1.57889e-07
-1.34213e-07 1.57889e-07 0.000263985

0.000213268 3.47951e-05 1.43707e-07
3.47951e-05 0.000176473 6.86359e-08
1.43707e-07 6.86359e-08 0.000196309

0.00019687 3.02766e-05 1.23896e-07
3.02766e-05 0.000234328 -1.21376e-09
1.23896e-07 -1.21376e-09 0.000206465

0.000166724 -1.21155e-05 6.21612e-08
-1.21155e-05 0.000229959 -4.07156e-08
6.21612e-08 -4.07156e-08 0.000201484

0.000215617 -3.54018e-05 -1.67498e-07
-3.54018e-05 0.000197399 -6.97802e-08
-1.67498e-07 -6.97802e-08 0.000201041

0.000168247 -1.93415e-05 -1.7938e-07
-1.93415e-05 0.000161053 7.03183e-08
-1.7938e-07 7.03183e-08 0.000149552

0.000224925 -2.54641e-05 6.33016e-08
-2.54641e-05 0.000182771 -6.88217e-08
6.33016e-08 -6.88217e-08 0.000202459

0.000193678 3.90166e-05 1.73172e-07
3.90166e-05 0.000186824 1.25701e-07
1.73172e-07 1.25701e-07 0.00019189

0.00019067 -5.18386e-05 -8.92476e-08
-5.18386e-05 0.000230465 1.62228e-07
-8.92476e-08 1.62228e-07 0.000234798

0.000206661 4.11627e-05 4.17291e-08
4.11627e-05 0.000251377 5.13419e-08
4.17291e-08 5.13419e-08 0.000233195

0.000242238 -9.0371e-06 3.94592e-08
-9.0371e-06 0.000200977 6.27938e-10
3.94592e-08 6.27938e-10 0.000223324

0.00031304 -1.5821e-05 -4.32142e-08
-1.5821e-05 0.000307516 6.02734e-08
-4.32142e-08 6.02734e-08 0.000252242

0.00026643 1.32111e-05 3.43024e-07
1.32111e-05 0.000289836 2.28484e-07
3.43024e-07 2.28484e-07 0.000267689

0.000220399 1.57001e-05 8.08735e-08
1.57001e-05 0.000198941 1.82972e-07
8.08735e-08 1.82972e-07 0.000213846

0.000264309 -6.31421e-06 -1.78004e-07
-6.31421e-06 0.000213577 3.2213e-08
-1.78004e-07 3.2213e-08 0.000237989

0.000132958 -1.80029e-05 -1.47196e-07
-1.80029e-05 0.000143097 -7.41093e-08
-1.47196e-07 -7.41093e-08 0.000125269

0.000146449 -1.688e-05 -5.94358e-08
-1.688e-05 0.000125147 3.46904e-08
-5.94358e-08 3.46904e-08 0.000125292

0.000262223 4.55733e-06 -3.38838e-08
4.55733e-06 0.000193857 -5.87811e-09
-3.38838e-08 -5.87811e-09 0.000238178

0.000268598 1.5811e-06 5.93825e-08
1.5811e-06 0.000188076 -1.22017e-07
5.93825e-08 -1.22017e-07 0.000246889

0.000255726 5.93659e-07 2.02762e-08
5.93659e-07 0.00022185 -2.85251e-08
2.02762e-08 -2.85251e-08 0.000238719

0.000211836 -1.40724e-05 -6.35879e-08
-1.40724e-05 0.000233996 -1.70698e-08
-6.35879e-08 -1.70698e-08 0.000213848

0.000171556 1.80377e-05 7.79978e-08
1.80377e-05 0.000227815 5.94461e-09
7.79978e-08 5.94461e-09 0.000201825

0.000207866 2.80044e-05 -1.25352e-07
2.80044e-05 0.000169158 -1.41643e-07
-1.25352e-07 -1.41643e-07 0.000181707

0.000235433 3.17734e-05 2.04732e-07
3.17734e-05 0.000211171 -3.20009e-08
2.04732e-07 -3.20009e-08 0.000227591

0.00025571 -2.58178e-05 4.66356e-08
-2.58178e-05 0.000230718 -2.35287e-07
4.66356e-08 -2.35287e-07 0.00024364

0.000273069 3.72032e-06 8.55912e-09
3.72032e-06 0.000257515 4.48422e-07
8.55912e-09 4.48422e-07 0.000255046

0.000263451 -3.57758e-05 -7.98962e-08
-3.57758e-05 0.000312315 1.36207e-07
-7.98962e-08 1.36207e-07 0.000254874

0.000224016 1.40451e-05 -6.2056e-08
1.40451e-05 0.000194593 7.85724e-08
-6.2056e-08 7.85724e-08 0.000200858

0.00025403 2.2624e-05 7.3635e-08
2.2624e-05 0.000215429 -6.07637e-08
7.3635e-08 -6.07637e-08 0.000235323

0.000264078 -1.7293e-05 -2.51064e-09
-1.7293e-05 0.000214121 9.16405e-08
-2.51064e-09 9.16405e-08 0.000246728

0.000184699 -1.37092e-05 -2.54016e-08
-1.37092e-05 0.000239663 1.18318e-07
-2.54016e-08 1.18318e-07 0.000221732

0.000212309 3.91511e-05 1.19821e-07
3.91511e-05 0.00024814 1.55607e-09
1.19821e-07 1.55607e-09 0.000225824

0.00020318 4.94454e-05 -1.11608e-07
4.94454e-05 0.000252593 1.04991e-07
-1.11608e-07 1.04991e-07 0.000226979

0.000183117 -2.96293e-05 1.96768e-07
-2.96293e-05 0.000223536 -7.48879e-09
1.96768e-07 -7.48879e-09 0.000226034

0.000114495 5.69937e-05 6.36352e-09
5.69937e-05 0.000116001 -4.61791e-08
6.36352e-09 -4.61791e-08 0.000108907

0.000214829 3.0669e-05 3.09979e-08
3.0669e-05 0.000260239 7.31978e-08
3.09979e-08 7.31978e-08 0.000237219

0.000202935 -3.53547e-05 -1.60929e-07
-3.53547e-05 0.000246842 1.67051e-08
-1.60929e-07 1.67051e-08 0.00023853

0.000173219 -2.69922e-05 7.11258e-08
-2.69922e-05 0.000232346 1.49163e-07
7.11258e-08 1.49163e-07 0.000220052

0.000195359 4.26242e-05 -1.33573e-07
4.26242e-05 0.00024759 7.81902e-08
-1.33573e-07 7.81902e-08 0.000221853

0.000217517 -1.91717e-05 -1.35523e-07
-1.91717e-05 0.000177497 8.05581e-08
-1.35523e-07 8.05581e-08 0.000187703

0.000217852 -2.25563e-05 3.56548e-08
-2.25563e-05 0.000213706 1.07392e-07
3.56548e-08 1.07392e-07 0.000220733

0.000218178 2.49755e-05 -4.69592e-08
2.49755e-05 0.000242356 -1.7915e-08
-4.69592e-08 -1.7915e-08 0.000232011

0.000218445 -3.38134e-05 2.69828e-08
-3.38134e-05 0.00022259 -2.00339e-07
2.69828e-08 -2.00339e-07 0.000233478

0.000242237 -8.88789e-06 3.93026e-08
-8.88789e-06 0.000177941 6.37873e-08
3.93026e-08 6.37873e-08 0.000218134

0.000262257 8.93471e-06 -7.87505e-08
8.93471e-06 0.00023655 -2.28881e-07
-7.87505e-08 -2.28881e-07 0.000243331

0.000271737 -9.39825e-06 -1.58671e-08
-9.39825e-06 0.000219681 2.52002e-07
-1.58671e-08 2.52002e-07 0.00025466

0.000247366 1.17588e-05 -1.70202e-07
1.17588e-05 0.000319244 1.89257e-07
-1.70202e-07 1.89257e-07 0.000250635

0.000256941 1.36951e-05 -5.62383e-08
1.36951e-05 0.000300609 -1.77053e-07
-5.62383e-08 -1.77053e-07 0.000266518

0.000108901 1.10376e-05 -1.94421e-07
1.10376e-05 8.00046e-05 8.53987e-08
-1.94421e-07 8.53987e-08 0.000113938

8.15767e-05 1.08437e-05 -4.86503e-08
1.08437e-05 0.000113418 1.8736e-07
-4.86503e-08 1.8736e-07 0.000113801

0.000214317 3.04283e-05 -9.55127e-08
3.04283e-05 0.000214698 -6.8037e-08
-9.55127e-08 -6.8037e-08 0.00022597

0.000249304 -3.15319e-05 1.27492e-07
-3.15319e-05 0.000241417 -4.60679e-08
1.27492e-07 -4.60679e-08 0.000246175

0.000107863 2.09276e-05 -4.62025e-09
2.09276e-05 0.000104049 -1.63797e-07
-4.62025e-09 -1.63797e-07 0.000114549

0.000104062 2.3344e-05 -7.97944e-09
2.3344e-05 0.00010578 -4.84116e-08
-7.97944e-09 -4.84116e-08 0.000114576

0.000312141 -1.01622e-05 -2.57155e-07
-1.01622e-05 0.000286898 1.39502e-07
-2.57155e-07 1.39502e-07 0.000272128

0.000310505 -4.1106e-06 3.77291e-08
-4.1106e-06 0.000317533 -5.45525e-07
3.77291e-08 -5.45525e-07 0.00025415

0.000204371 -3.06589e-05 -1.36115e-07
-3.06589e-05 0.000209691 -3.91234e-08
-1.36115e-07 -3.91234e-08 0.000217786

0.000217108 3.88602e-05 -6.76381e-08
3.88602e-05 0.000208757 1.09711e-07
-6.76381e-08 1.09711e-07 0.000222167

0.000250325 -3.34414e-05 1.48831e-07
-3.34414e-05 0.000224247 -1.82157e-07
1.48831e-07 -1.82157e-07 0.000238829

0.000193713 3.47677e-05 2.20745e-07
3.47677e-05 0.000201361 4.37389e-08
2.20745e-07 4.37389e-08 0.000196395

0.000219236 -2.80023e-05 -7.50693e-08
-2.80023e-05 0.000212159 8.96511e-08
-7.50693e-08 8.96511e-08 0.000207708

0.00013865 -5.35983e-06 -1.50366e-07
-5.35983e-06 0.00017032 1.45991e-07
-1.50366e-07 1.45991e-07 0.00013922

0.000122392 1.42523e-05 -6.97303e-08
1.42523e-05 0.000164668 2.94589e-08
-6.97303e-08 2.94589e-08 0.000135765

0.000167319 -2.1245e-06 4.84573e-08
-2.1245e-06 0.000130664 5.46352e-08
4.84573e-08 5.46352e-08 0.00013746

0.000194017 3.71351e-05 1.16382e-07
3.71351e-05 0.000207585 -1.07515e-07
1.16382e-07 -1.07515e-07 0.000207553

0.000227049 -3.66779e-05 1.22774e-08
-3.66779e-05 0.000220912 -3.66455e-08
1.22774e-08 -3.66455e-08 0.000221691

0.00010938 2.41883e-06 -1.61684e-07
2.41883e-06 0.00015495 -8.02011e-08
-1.61684e-07 -8.02011e-08 0.000125651

0.000153115 -2.34049e-07 1.8244e-08
-2.34049e-07 0.000114834 1.72676e-07
1.8244e-08 1.72676e-07 0.000125123

0.000233439 3.80278e-05 -1.01682e-08
3.80278e-05 0.00021692 -5.15477e-08
-1.01682e-08 -5.15477e-08 0.000233126

0.000267027 -2.63741e-05 -1.14145e-07
-2.63741e-05 0.000238761 6.39238e-10
-1.14145e-07 6.39238e-10 0.000254711

0.000232963 3.73013e-05 4.02369e-08
3.73013e-05 0.000227678 -2.26316e-07
4.02369e-08 -2.26316e-07 0.000234495

0.00026409 -3.21538e-05 -1.24046e-07
-3.21538e-05 0.000233995 -3.36879e-08
-1.24046e-07 -3.36879e-08 0.000253098

9.88954e-05 2.20305e-05 -5.50789e-08
2.20305e-05 9.87052e-05 1.76696e-07
-5.50789e-08 1.76696e-07 0.000109732

9.77096e-05 2.03522e-05 -1.12501e-07
2.03522e-05 0.000102262 8.46466e-08
-1.12501e-07 8.46466e-08 0.000109433

0.000213893 3.56304e-05 -1.99968e-07
3.56304e-05 0.000205778 1.47709e-08
-1.99968e-07 1.47709e-08 0.000213763

0.000235525 -2.90375e-05 -3.07251e-08
-2.90375e-05 0.000225551 -5.32598e-08
-3.07251e-08 -5.32598e-08 0.000228217

0.000254835 2.25695e-05 -6.63201e-08
2.25695e-05 0.000271636 -1.14379e-07
-6.63201e-08 -1.14379e-07 0.00026025

0.000242714 -5.81272e-06 -1.7411e-07
-5.81272e-06 0.000280559 1.64958e-07
-1.7411e-07 1.64958e-07 0.000246616

0.000212922 3.01976e-05 8.3859e-08
3.01976e-05 0.000243668 9.75362e-08
8.3859e-08 9.75362e-08 0.000237072

0.000271133 -3.37804e-05 -1.60857e-07
-3.37804e-05 0.000251927 7.47007e-08
-1.60857e-07 7.47007e-08 0.000263047

0.000269199 2.67938e-05 -1.40774e-07
2.67938e-05 0.000214722 -1.94649e-07
-1.40774e-07 -1.94649e-07 0.000242482

0.000283429 -1.76267e-05 -1.45326e-07
-1.76267e-05 0.000207037 1.80552e-07
-1.45326e-07 1.80552e-07 0.000255139

0.000209138 3.58663e-05 -1.78429e-08
3.58663e-05 0.000242013 -1.8377e-08
-1.78429e-08 -1.8377e-08 0.000223714

0.000200011 -2.95592e-05 -5.48642e-08
-2.95592e-05 0.00022272 -2.01549e-07
-5.48642e-08 -2.01549e-07 0.000226036

0.000243735 2.19004e-05 6.94299e-08
2.19004e-05 0.000295877 1.57459e-07
6.94299e-08 1.57459e-07 0.000259634

0.000255052 2.52014e-05 1.05544e-07
2.52014e-05 0.000262266 2.06882e-07
1.05544e-07 2.06882e-07 0.000249717

0.000263623 -4.52762e-05 -9.67242e-08
-4.52762e-05 0.000262482 9.30755e-08
-9.67242e-08 9.30755e-08 0.000250062

0.000231604 -6.50551e-06 9.8119e-08
-6.50551e-06 0.000308167 2.35835e-08
9.8119e-08 2.35835e-08 0.00024807

0.000286538 2.66047e-05 1.42774e-07
2.66047e-05 0.000249402 -6.38871e-08
1.42774e-07 -6.38871e-08 0.000248786

0.00030966 5.23596e-06 -2.42182e-07
5.23596e-06 0.000269151 2.92351e-07
-2.42182e-07 2.92351e-07 0.00025205

0.000299442 -2.47241e-05 1.92508e-07
-2.47241e-05 0.000227141 9.68029e-08
1.92508e-07 9.68029e-08 0.000262441

0.000318681 -7.90934e-06 -4.79024e-07
-7.90934e-06 0.000241787 -5.24632e-07
-4.79024e-07 -5.24632e-07 0.000268341

0.000274938 3.6827e-05 5.29011e-07
3.6827e-05 0.000304632 8.5073e-07
5.29011e-07 8.5073e-07 0.000250231

0.000339888 1.2067e-05 4.46876e-07
1.2067e-05 0.000301509 -1.22802e-07
4.46876e-07 -1.22802e-07 0.00025437

0.000345781 -1.95011e-05 2.98818e-06
-1.95011e-05 0.000253226 1.57843e-06
2.98818e-06 1.57843e-06 0.000277833

0.000323912 -2.75392e-05 -1.06021e-07
-2.75392e-05 0.00025701 1.45722e-07
-1.06021e-07 1.45722e-07 0.000278239

0.000285577 2.89215e-05 -1.35281e-07
2.89215e-05 0.000256221 -1.56198e-07
-1.35281e-07 -1.56198e-07 0.000248521

0.00025907 1.40263e-05 2.11615e-07
1.40263e-05 0.000248118 7.35155e-08
2.11615e-07 7.35155e-08 0.000243485

0.000289646 1.32328e-05 -2.18312e-07
1.32328e-05 0.000314276 2.28299e-07
-2.18312e-07 2.28299e-07 0.000252801

0.000317793 -2.04661e-05 -2.97086e-08
-2.04661e-05 0.000249628 3.00489e-08
-2.97086e-08 3.00489e-08 0.000274894

0.000315305 -2.56178e-05 -4.05648e-08
-2.56178e-05 0.00025526 -2.02234e-08
-4.05648e-08 -2.02234e-08 0.000275673

0.000289324 -1.7043e-05 -1.11231e-07
-1.7043e-05 0.000257578 8.40322e-08
-1.11231e-07 8.40322e-08 0.000268589

0.000262561 3.54846e-05 2.02456e-07
3.54846e-05 0.000249873 -3.87211e-08
2.02456e-07 -3.87211e-08 0.000245262

0.000289957 1.70237e-05 -9.37245e-08
1.70237e-05 0.000258714 5.35185e-08
-9.37245e-08 5.35185e-08 0.000249438

0.00029098 -2.65173e-05 -1.24603e-07
-2.65173e-05 0.00024108 2.47883e-07
-1.24603e-07 2.47883e-07 0.000265457

0.000302138 -1.60305e-05 6.31329e-08
-1.60305e-05 0.00024653 3.06351e-07
6.31329e-08 3.06351e-07 0.000268237

0.000278939 2.72899e-06 9.05979e-08
2.72899e-06 0.000280204 -4.27224e-08
9.05979e-08 -4.27224e-08 0.000286801

0.000302857 -1.71053e-06 -9.20712e-09
-1.71053e-06 0.000291967 3.90803e-08
-9.20712e-09 3.90803e-08 0.000293644

0.000296607 5.39543e-06 -1.31701e-07
5.39543e-06 0.000279317 -4.31035e-08
-1.31701e-07 -4.31035e-08 0.000286661

0.000279275 -5.66044e-06 -1.60178e-07
-5.66044e-06 0.000257698 -1.2443e-07
-1.60178e-07 -1.2443e-07 0.000282397

0.000280887 1.07928e-06 8.88328e-08
1.07928e-06 0.000264628 1.2618e-08
8.88328e-08 1.2618e-08 0.000284197

0.000303864 -7.70861e-06 3.94377e-09
-7.70861e-06 0.000295203 -1.13882e-07
3.94377e-09 -1.13882e-07 0.000293347

0.000295094 1.43004e-05 -1.3383e-07
1.43004e-05 0.000276971 -1.83419e-08
-1.3383e-07 -1.83419e-08 0.000285565

0.000281602 -1.33981e-06 7.73324e-08
-1.33981e-06 0.000262529 9.51127e-08
7.73324e-08 9.51127e-08 0.000284097

0.000283194 6.3739e-06 -5.62563e-08
6.3739e-06 0.000243097 7.14206e-09
-5.62563e-08 7.14206e-09 0.0002732

0.000285243 1.43712e-06 -7.99608e-08
1.43712e-06 0.000280697 -1.4315e-08
-7.99608e-08 -1.4315e-08 0.00028993

0.000285975 -9.81659e-07 8.43552e-09
-9.81659e-07 0.000281281 -6.45654e-08
8.43552e-09 -6.45654e-08 0.000290077

0.000295594 1.18563e-06 4.91383e-08
1.18563e-06 0.000299272 5.56138e-09
4.91383e-08 5.56138e-09 0.000298185

0.000306267 -8.46983e-06 -1.00277e-07
-8.46983e-06 0.000268157 -1.62509e-07
-1.00277e-07 -1.62509e-07 0.000281079

0.000312721 8.09109e-07 -7.33682e-08
8.09109e-07 0.000299122 9.50724e-08
-7.33682e-08 9.50724e-08 0.000294322

0.00027904 1.0742e-05 9.03323e-08
1.0742e-05 0.000275031 -8.50547e-08
9.03323e-08 -8.50547e-08 0.000285233

0.00027217 1.50749e-05 7.71825e-09
1.50749e-05 0.000273595 2.80143e-09
7.71825e-09 2.80143e-09 0.00028024

0.000295992 -1.40552e-05 -8.29772e-08
-1.40552e-05 0.000278745 -1.73028e-07
-8.29772e-08 -1.73028e-07 0.000287352

0.000302165 7.80157e-06 1.6366e-07
7.80157e-06 0.000294518 -4.97863e-08
1.6366e-07 -4.97863e-08 0.00029254

0.00030096 4.56661e-07 1.29508e-07
4.56661e-07 0.000307918 -8.40738e-08
1.29508e-07 -8.40738e-08 0.000302871

0.000283447 1.45486e-06 -7.14277e-08
1.45486e-06 0.000287396 -3.08796e-08
-7.14277e-08 -3.08796e-08 0.000290873

0.000283365 -1.85905e-06 7.6258e-08
-1.85905e-06 0.000287532 6.56517e-08
7.6258e-08 6.56517e-08 0.000290997

0.000295634 -1.33335e-06 3.38464e-08
-1.33335e-06 0.000302507 1.54303e-08
3.38464e-08 1.54303e-08 0.000299419

0.00027874 4.8001e-06 6.61146e-08
4.8001e-06 0.000275869 -1.56617e-08
6.61146e-08 -1.56617e-08 0.000285896

0.000279614 3.8578e-06 -8.36817e-09
3.8578e-06 0.000267486 5.74228e-08
-8.36817e-09 5.74228e-08 0.000285776

0.000272953 3.78095e-06 -6.30127e-08
3.78095e-06 0.000275778 -2.24121e-08
-6.30127e-08 -2.24121e-08 0.000284344

0.000297103 -2.40342e-06 -3.919e-08
-2.40342e-06 0.000295795 -1.58294e-07
-3.919e-08 -1.58294e-07 0.000296688

0.000281542 4.77176e-06 7.97964e-09
4.77176e-06 0.000257662 1.22783e-07
7.97964e-09 1.22783e-07 0.000282001

0.000283283 1.17038e-06 5.24843e-08
1.17038e-06 0.000286438 2.31078e-07
5.24843e-08 2.31078e-07 0.000290926

0.000283885 -6.12007e-06 1.22811e-07
-6.12007e-06 0.000241992 -2.42589e-08
1.22811e-07 -2.42589e-08 0.000277481

0.000291955 -1.57846e-06 8.43531e-09
-1.57846e-06 0.000297313 -1.73659e-08
8.43531e-09 -1.73659e-08 0.000297183

0.00031156 -1.12357e-06 7.36231e-09
-1.12357e-06 0.000288921 -1.15211e-07
7.36231e-09 -1.15211e-07 0.000290104

0.000311572 2.39155e-06 8.18165e-08
2.39155e-06 0.00028374 -1.02165e-07
8.18165e-08 -1.02165e-07 0.000289453

0.000291876 -7.37672e-06 -9.24404e-08
-7.37672e-06 0.000280995 6.72539e-08
-9.24404e-08 6.72539e-08 0.000279757

0.000291735 7.26122e-06 2.25439e-09
7.26122e-06 0.000281477 -1.32716e-07
2.25439e-09 -1.32716e-07 0.000279822

0.000282385 -1.73634e-06 1.03129e-07
-1.73634e-06 0.000272597 -1.12733e-09
1.03129e-07 -1.12733e-09 0.000287013

0.000270514 1.48083e-06 -6.03296e-08
1.48083e-06 0.000273749 -1.9238e-08
-6.03296e-08 -1.9238e-08 0.000282622

0.000275259 -1.12546e-05 2.66069e-08
-1.12546e-05 0.000275435 3.38251e-08
2.66069e-08 3.38251e-08 0.000281129

0.000274929 1.24876e-05 -9.97722e-08
1.24876e-05 0.000275634 1.3104e-07
-9.97722e-08 1.3104e-07 0.000281051

0.000284324 -5.37783e-06 8.3468e-08
-5.37783e-06 0.000241925 -2.25215e-08
8.3468e-08 -2.25215e-08 0.000271461

0.000294315 -2.86637e-06 -6.2665e-08
-2.86637e-06 0.000301983 -1.27003e-07
-6.2665e-08 -1.27003e-07 0.000297915

0.000278394 2.42721e-07 -2.28696e-08
2.42721e-07 0.000273363 -3.89967e-08
-2.28696e-08 -3.89967e-08 0.000285852

0.000283389 4.77455e-06 -5.85533e-08
4.77455e-06 0.000240524 4.65745e-08
-5.85533e-08 4.65745e-08 0.000272202

0.000278816 -4.44008e-06 -6.99606e-08
-4.44008e-06 0.000276351 8.41477e-08
-6.99606e-08 8.41477e-08 0.000286102

0.000277991 -2.9387e-06 -3.55546e-08
-2.9387e-06 0.000280527 1.21092e-07
-3.55546e-08 1.21092e-07 0.000286792

0.000303674 -5.94967e-06 7.27787e-08
-5.94967e-06 0.000299504 7.90502e-08
7.27787e-08 7.90502e-08 0.00029737

0.000280868 2.71951e-07 -1.46807e-07
2.71951e-07 0.00027335 -4.96855e-08
-1.46807e-07 -4.96855e-08 0.000286961

0.000284623 2.28658e-06 -3.21717e-07
2.28658e-06 0.000284488 -5.18276e-09
-3.21717e-07 -5.18276e-09 0.000291764

0.000288249 2.63649e-06 5.2547e-08
2.63649e-06 0.000291438 1.9453e-07
5.2547e-08 1.9453e-07 0.000295043

0.000287716 -2.27412e-05 1.89263e-08
-2.27412e-05 0.00026001 -1.17381e-07
1.89263e-08 -1.17381e-07 0.000277712

0.000287761 -1.45529e-06 4.35737e-08
-1.45529e-06 0.000292375 4.29764e-08
4.35737e-08 4.29764e-08 0.000294629

0.000283506 1.33209e-06 1.08071e-07
1.33209e-06 0.000284398 1.55584e-08
1.08071e-07 1.55584e-08 0.000290579

0.00030787 3.83351e-06 -1.16989e-07
3.83351e-06 0.000312643 -5.12775e-10
-1.16989e-07 -5.12775e-10 0.000305656

0.000310366 -4.21661e-06 -1.18234e-07
-4.21661e-06 0.000312364 -6.1342e-10
-1.18234e-07 -6.1342e-10 0.000305654

0.000303389 -1.69481e-06 -4.95516e-08
-1.69481e-06 0.000309178 -1.77725e-08
-4.95516e-08 -1.77725e-08 0.000303783

0.0003075 2.64352e-06 -1.39421e-07
2.64352e-06 0.000314235 -1.58382e-07
-1.39421e-07 -1.58382e-07 0.00030591

0.000309438 -1.07994e-06 -1.40952e-07
-1.07994e-06 0.000314173 1.59259e-07
-1.40952e-07 1.59259e-07 0.000305908

0.00029659 -5.45311e-06 -2.44804e-08
-5.45311e-06 0.000299829 2.61279e-08
-2.44804e-08 2.61279e-08 0.000296944

0.000286826 -9.33506e-06 7.5279e-08
-9.33506e-06 0.000266741 -9.95034e-08
7.5279e-08 -9.95034e-08 0.000275566

0.000286331 9.5968e-06 1.38669e-07
9.5968e-06 0.000266741 2.63711e-08
1.38669e-07 2.63711e-08 0.000275624

0.000304507 2.06617e-06 -6.45845e-09
2.06617e-06 0.000310896 -9.25541e-08
-6.45845e-09 -9.25541e-08 0.000304179

0.000304722 -2.36355e-06 -6.15705e-09
-2.36355e-06 0.000311009 1.00734e-07
-6.15705e-09 1.00734e-07 0.000304178

0.000281207 1.3005e-06 -2.27884e-08
1.3005e-06 0.000275751 -6.0999e-08
-2.27884e-08 -6.0999e-08 0.000288328

0.000303026 1.33255e-05 3.3564e-08
1.33255e-05 0.000279881 1.12274e-07
3.3564e-08 1.12274e-07 0.000280088

0.000319207 -1.09454e-05 4.07563e-08
-1.09454e-05 0.000306327 1.91612e-07
4.07563e-08 1.91612e-07 0.000293027

0.000293642 2.59952e-06 6.74379e-08
2.59952e-06 0.000301979 -7.55534e-08
6.74379e-08 -7.55534e-08 0.000297982

0.000282922 -9.94278e-07 -7.03693e-08
-9.94278e-07 0.000287349 4.62063e-08
-7.03693e-08 4.62063e-08 0.000291239

0.000282546 -2.33026e-06 -4.34497e-08
-2.33026e-06 0.000279974 -4.73111e-08
-4.34497e-08 -4.73111e-08 0.000289258

0.000296212 -5.08432e-06 -3.34801e-08
-5.08432e-06 0.000300209 5.64647e-08
-3.34801e-08 5.64647e-08 0.000295443

0.000286813 1.38564e-05 -1.45668e-07
1.38564e-05 0.000272222 -3.31002e-08
-1.45668e-07 -3.31002e-08 0.000284534

0.000314552 3.06012e-06 -9.44103e-08
3.06012e-06 0.000324119 8.08237e-07
-9.44103e-08 8.08237e-07 0.000307921

0.000321163 -5.5661e-06 -9.47901e-08
-5.5661e-06 0.000324119 -8.08513e-07
-9.47901e-08 -8.08513e-07 0.000307919

0.000279141 1.84207e-05 8.01218e-08
1.84207e-05 0.000262092 1.36844e-07
8.01218e-08 1.36844e-07 0.000273829

0.000303104 9.89843e-07 -3.74677e-08
9.89843e-07 0.000309751 -8.06233e-08
-3.74677e-08 -8.06233e-08 0.000303596

0.000303592 -9.02056e-07 -3.03648e-08
-9.02056e-07 0.00030979 -5.45144e-08
-3.03648e-08 -5.45144e-08 0.000303649

0.000259554 8.81984e-06 1.24799e-07
8.81984e-06 0.000274015 1.20513e-08
1.24799e-07 1.20513e-08 0.000277335

0.000304284 6.15332e-06 -8.12758e-08
6.15332e-06 0.000304581 9.19851e-08
-8.12758e-08 9.19851e-08 0.000295804

0.00028139 1.73476e-06 8.66408e-08
1.73476e-06 0.000272302 1.13162e-07
8.66408e-08 1.13162e-07 0.000287033

0.000281873 -2.67901e-06 -2.53302e-08
-2.67901e-06 0.000266499 4.2028e-08
-2.53302e-08 4.2028e-08 0.000285897

0.000277329 -1.39226e-05 3.88578e-08
-1.39226e-05 0.000258704 -2.0202e-08
3.88578e-08 -2.0202e-08 0.000280043

0.000273126 1.49602e-05 -1.74352e-08
1.49602e-05 0.000293812 -1.42551e-07
-1.74352e-08 -1.42551e-07 0.000278961

0.000274096 -1.55105e-05 -8.6304e-08
-1.55105e-05 0.000292369 6.4407e-08
-8.6304e-08 6.4407e-08 0.000278886

0.000280821 2.64026e-06 -9.73705e-08
2.64026e-06 0.000280551 -1.31093e-08
-9.73705e-08 -1.31093e-08 0.000288427

0.000275872 3.82358e-06 2.32127e-08
3.82358e-06 0.000268758 -8.43377e-08
2.32127e-08 -8.43377e-08 0.000284703

0.000301402 -3.27142e-06 1.20241e-07
-3.27142e-06 0.000307346 7.32976e-08
1.20241e-07 7.32976e-08 0.000302729

0.000317203 -1.39062e-07 1.7315e-07
-1.39062e-07 0.000311703 2.23817e-07
1.7315e-07 2.23817e-07 0.000291026

0.00032859 1.12035e-05 2.33967e-07
1.12035e-05 0.000277336 1.61022e-07
2.33967e-07 1.61022e-07 0.000285424

0.000276579 1.44503e-05 -1.33193e-07
1.44503e-05 0.000260051 -1.8858e-08
-1.33193e-07 -1.8858e-08 0.000279971

0.000297077 -4.68627e-06 -7.10766e-08
-4.68627e-06 0.000282196 3.04347e-08
-7.10766e-08 3.04347e-08 0.000288496

0.000301228 1.49643e-06 1.73109e-07
1.49643e-06 0.000290533 7.43494e-08
1.73109e-07 7.43494e-08 0.00029269

0.000303623 3.33451e-07 8.08038e-08
3.33451e-07 0.000311068 4.73821e-08
8.08038e-08 4.73821e-08 0.000304526

0.000304265 -3.15144e-08 -6.41552e-08
-3.15144e-08 0.000311025 -2.76377e-08
-6.41552e-08 -2.76377e-08 0.00030458

0.000293775 3.02219e-06 6.69422e-08
3.02219e-06 0.000299515 -1.31198e-07
6.69422e-08 -1.31198e-07 0.000298069

0.000298367 -1.93788e-06 -5.17749e-09
-1.93788e-06 0.00030617 -1.51544e-07
-5.17749e-09 -1.51544e-07 0.000301775

0.000305871 1.15534e-06 1.32885e-07
1.15534e-06 0.00031211 -1.45224e-07
1.32885e-07 -1.45224e-07 0.000305351

0.000305362 -1.64407e-06 -9.76776e-08
-1.64407e-06 0.000312272 -9.27117e-08
-9.76776e-08 -9.27117e-08 0.000305313

0.000301447 3.10359e-06 -5.65449e-09
3.10359e-06 0.000307409 -1.06508e-07
-5.65449e-09 -1.06508e-07 0.000302678

0.000297471 2.71814e-06 4.05731e-08
2.71814e-06 0.000295937 -1.10145e-07
4.05731e-08 -1.10145e-07 0.000296735

0.000304574 2.74512e-06 5.88834e-08
2.74512e-06 0.000310201 -6.75525e-08
5.88834e-08 -6.75525e-08 0.000304533

0.000305387 -2.67215e-06 -5.91487e-08
-2.67215e-06 0.000310076 -5.2083e-08
-5.91487e-08 -5.2083e-08 0.000304588

0.000280531 6.00582e-06 5.93414e-08
6.00582e-06 0.000257114 1.01116e-08
5.93414e-08 1.01116e-08 0.000282056

0.000304985 -3.24106e-06 -8.31196e-08
-3.24106e-06 0.000305336 -1.10045e-07
-8.31196e-08 -1.10045e-07 0.000301227

0.000278852 8.51641e-07 1.38706e-07
8.51641e-07 0.000273918 1.19565e-07
1.38706e-07 1.19565e-07 0.000285963

0.000263419 1.43489e-05 1.01592e-07
1.43489e-05 0.000269532 -6.2706e-08
1.01592e-07 -6.2706e-08 0.000271822

0.000304277 -4.19595e-06 -1.6201e-08
-4.19595e-06 0.000303973 -8.86015e-08
-1.6201e-08 -8.86015e-08 0.000297836

0.000296905 5.56323e-07 -1.58453e-07
5.56323e-07 0.000303943 -7.05754e-08
-1.58453e-07 -7.05754e-08 0.000300609

0.00027189 8.88198e-06 4.54332e-08
8.88198e-06 0.000264358 -1.11949e-07
4.54332e-08 -1.11949e-07 0.000282709

0.000279833 -4.61283e-06 -5.58403e-08
-4.61283e-06 0.000259394 1.44357e-07
-5.58403e-08 1.44357e-07 0.000282542

0.000278152 -1.26527e-06 7.38758e-08
-1.26527e-06 0.000275628 1.44196e-07
7.38758e-08 1.44196e-07 0.000287194

0.000274137 -3.87879e-06 -6.18124e-08
-3.87879e-06 0.000269391 -3.84299e-08
-6.18124e-08 -3.84299e-08 0.000284811

0.000292041 9.47246e-06 1.3498e-07
9.47246e-06 0.000284724 9.41633e-08
1.3498e-07 9.41633e-08 0.000290699

0.000294021 -8.66129e-06 -4.86478e-08
-8.66129e-06 0.000287153 1.87792e-08
-4.86478e-08 1.87792e-08 0.000291545

0.000294106 -1.31758e-06 5.53745e-08
-1.31758e-06 0.0002999 1.71371e-07
5.53745e-08 1.71371e-07 0.000298296

0.000257807 -9.25607e-06 1.52316e-07
-9.25607e-06 0.000273884 -1.14766e-07
1.52316e-07 -1.14766e-07 0.000277161

0.000294176 1.20949e-06 3.59374e-08
1.20949e-06 0.000298378 1.2246e-07
3.59374e-08 1.2246e-07 0.000297675

0.000294664 -1.66176e-06 -3.09553e-08
-1.66176e-06 0.000297779 1.37241e-07
-3.09553e-08 1.37241e-07 0.000297593

0.000276561 4.31611e-06 1.61118e-08
4.31611e-06 0.00026881 -8.47265e-08
1.61118e-08 -8.47265e-08 0.000283458

0.00028251 1.20594e-05 4.84724e-08
1.20594e-05 0.000232579 -9.58132e-08
4.84724e-08 -9.58132e-08 0.000269868

0.000282431 -1.04012e-05 1.02997e-07
-1.04012e-05 0.000232381 1.68945e-09
1.02997e-07 1.68945e-09 0.000269769

0.000287557 5.0119e-06 -1.11978e-07
5.0119e-06 0.000280587 -1.28859e-07
-1.11978e-07 -1.28859e-07 0.000289756

0.000272549 -3.19491e-06 5.54804e-08
-3.19491e-06 0.000276129 6.72093e-08
5.54804e-08 6.72093e-08 0.000284467

0.000288166 4.12556e-06 9.81338e-08
4.12556e-06 0.000288632 2.41144e-08
9.81338e-08 2.41144e-08 0.000292815

0.000288033 -4.16104e-06 8.73898e-09
-4.16104e-06 0.000288476 8.52828e-08
8.73898e-09 8.52828e-08 0.000292925

0.000297409 4.40338e-07 1.74942e-08
4.40338e-07 0.000299849 -2.67289e-08
1.74942e-08 -2.67289e-08 0.000299109

0.00029437 -2.59559e-06 2.88767e-08
-2.59559e-06 0.000299458 -1.20121e-07
2.88767e-08 -1.20121e-07 0.000297971

0.000295753 5.85438e-07 -1.10085e-07
5.85438e-07 0.000302352 3.58376e-08
-1.10085e-07 3.58376e-08 0.000299309

0.000342588 4.01062e-06 4.74472e-07
4.01062e-06 0.000306518 1.28263e-07
4.74472e-07 1.28263e-07 0.000289391

0.000345375 -2.16636e-05 3.57561e-08
-2.16636e-05 0.000296493 2.23878e-07
3.57561e-08 2.23878e-07 0.000286133

0.000297331 -1.57191e-08 -1.04081e-07
-1.57191e-08 0.000304001 1.1982e-07
-1.04081e-07 1.1982e-07 0.000300705

0.000301126 -2.1321e-06 6.63424e-08
-2.1321e-06 0.000302228 1.0041e-07
6.63424e-08 1.0041e-07 0.000298243

0.000303142 1.82855e-06 -5.53728e-08
1.82855e-06 0.000309108 1.48781e-07
-5.53728e-08 1.48781e-07 0.00030373

0.000287174 -4.96999e-06 6.52116e-08
-4.96999e-06 0.000280932 9.1784e-08
6.52116e-08 9.1784e-08 0.000289665

0.000309475 -9.6012e-06 -5.46079e-08
-9.6012e-06 0.000302976 -5.32866e-09
-5.46079e-08 -5.32866e-09 0.000296526

0.000272904 2.5487e-05 8.58416e-08
2.5487e-05 0.000260769 1.24443e-07
8.58416e-08 1.24443e-07 0.000272692

0.000305772 4.04117e-06 -3.26585e-08
4.04117e-06 0.000305294 1.93953e-07
-3.26585e-08 1.93953e-07 0.000301246

0.000304194 -4.45018e-06 -6.59196e-08
-4.45018e-06 0.000306857 -4.82875e-08
-6.59196e-08 -4.82875e-08 0.000301099

0.000275825 8.47677e-06 4.47548e-08
8.47677e-06 0.000273714 -1.30588e-07
4.47548e-08 -1.30588e-07 0.000281041

0.00030441 -5.02735e-08 2.62477e-08
-5.02735e-08 0.000313034 -5.39866e-09
2.62477e-08 -5.39866e-09 0.00030503

0.000295701 -6.34329e-07 9.87972e-08
-6.34329e-07 0.000301597 -6.96146e-08
9.87972e-08 -6.96146e-08 0.000299206

0.000261743 -1.44479e-05 7.97719e-08
-1.44479e-05 0.000269669 1.02568e-07
7.97719e-08 1.02568e-07 0.000271732

0.00029506 -3.96459e-06 1.01856e-07
-3.96459e-06 0.000303145 -3.7161e-08
1.01856e-07 -3.7161e-08 0.000299143

0.000278186 -1.44846e-06 7.03598e-08
-1.44846e-06 0.000281253 -6.05077e-08
7.03598e-08 -6.05077e-08 0.000288686

0.000272186 -2.12459e-06 1.48488e-08
-2.12459e-06 0.000273761 1.27146e-07
1.48488e-08 1.27146e-07 0.000282587

0.000292606 8.14215e-07 -1.17127e-08
8.14215e-07 0.000290964 8.66718e-08
-1.17127e-08 8.66718e-08 0.000294207

0.000292407 -1.20187e-06 1.38939e-08
-1.20187e-06 0.000290393 8.80518e-08
1.38939e-08 8.80518e-08 0.000294231

0.000295851 1.42182e-06 -3.80114e-08
1.42182e-06 0.000303171 9.65127e-08
-3.80114e-08 9.65127e-08 0.000299586

0.0002955 4.10951e-06 -1.07545e-07
4.10951e-06 0.000303148 -3.4974e-08
-1.07545e-07 -3.4974e-08 0.000299151

0.000293308 -1.53274e-06 -4.34868e-08
-1.53274e-06 0.000288154 -8.48664e-08
-4.34868e-08 -8.48664e-08 0.000291919

0.000292762 2.16993e-06 1.44434e-07
2.16993e-06 0.000287425 -9.56859e-08
1.44434e-07 -9.56859e-08 0.000291397

0.000292698 -1.77141e-07 6.1339e-08
-1.77141e-07 0.000296118 -1.345e-07
6.1339e-08 -1.345e-07 0.000296283

0.000293038 6.16751e-07 -5.12059e-08
6.16751e-07 0.000296717 -8.22367e-08
-5.12059e-08 -8.22367e-08 0.000296277

0.00030681 1.41252e-06 5.58427e-08
1.41252e-06 0.000311331 4.34174e-08
5.58427e-08 4.34174e-08 0.000305042

0.000306395 -9.79652e-07 5.44047e-08
-9.79652e-07 0.000311289 -4.80946e-08
5.44047e-08 -4.80946e-08 0.000305045

0.000300056 -5.11073e-06 1.66374e-07
-5.11073e-06 0.000305039 5.66492e-08
1.66374e-07 5.66492e-08 0.000299844

0.000269194 -2.2968e-05 2.62227e-08
-2.2968e-05 0.000262536 -1.19987e-07
2.62227e-08 -1.19987e-07 0.000270979

0.000263832 5.53155e-07 1.58494e-07
5.53155e-07 0.000273648 -2.78941e-09
1.58494e-07 -2.78941e-09 0.000281932

0.000280522 7.6889e-07 5.62077e-08
7.6889e-07 0.000280067 2.64577e-08
5.62077e-08 2.64577e-08 0.000288683

0.000290695 -2.26551e-06 -8.52356e-08
-2.26551e-06 0.000295822 -1.60456e-07
-8.52356e-08 -1.60456e-07 0.000294635

0.000308353 3.0941e-06 -1.79827e-07
3.0941e-06 0.000310953 -9.76637e-08
-1.79827e-07 -9.76637e-08 0.000305211

0.00030769 -3.4295e-06 -1.77063e-07
-3.4295e-06 0.00031106 1.04976e-07
-1.77063e-07 1.04976e-07 0.00030521

0.000303593 3.72448e-06 -3.58542e-08
3.72448e-06 0.000308447 -6.22017e-08
-3.58542e-08 -6.22017e-08 0.000303334

0.00030411 -3.88633e-06 -4.05555e-08
-3.88633e-06 0.00030851 6.5101e-08
-4.05555e-08 6.5101e-08 0.000303334

0.000284921 -6.60833e-07 -1.97652e-07
-6.60833e-07 0.000290084 -1.29249e-07
-1.97652e-07 -1.29249e-07 0.000292805

0.00029093 -8.4865e-07 2.14032e-07
-8.4865e-07 0.000295556 4.78795e-08
2.14032e-07 4.78795e-08 0.000296276

0.000290443 3.1736e-06 5.54791e-08
3.1736e-06 0.00029595 -1.1227e-07
5.54791e-08 -1.1227e-07 0.000294588

0.000316433 -6.3829e-07 -1.38076e-07
-6.3829e-07 0.000317279 8.17628e-08
-1.38076e-07 8.17628e-08 0.000307179

0.000313362 1.03939e-06 -1.39612e-07
1.03939e-06 0.000317279 -8.22244e-08
-1.39612e-07 -8.22244e-08 0.000307178

0.000299611 -3.59152e-06 -6.53045e-08
-3.59152e-06 0.00030534 -8.69385e-08
-6.53045e-08 -8.69385e-08 0.000301311

0.000282656 -1.28533e-06 1.63029e-08
-1.28533e-06 0.000274439 1.40232e-07
1.63029e-08 1.40232e-07 0.000288274

0.000298333 2.21397e-06 -6.52402e-09
2.21397e-06 0.000306262 1.76738e-07
-6.52402e-09 1.76738e-07 0.000301777

0.00028657 -1.24801e-05 9.71745e-08
-1.24801e-05 0.000277018 1.14945e-07
9.71745e-08 1.14945e-07 0.000285795

0.000298354 6.36062e-06 -2.81063e-08
6.36062e-06 0.000295943 -2.34856e-08
-2.81063e-08 -2.34856e-08 0.000294838

0.000277543 6.55612e-07 -6.48816e-08
6.55612e-07 0.000278422 4.24894e-08
-6.48816e-08 4.24894e-08 0.000287447

0.000305283 4.54403e-06 3.25325e-08
4.54403e-06 0.000306559 2.58234e-09
3.25325e-08 2.58234e-09 0.000301115

0.000299643 3.36733e-06 8.02882e-08
3.36733e-06 0.000305476 -3.57979e-08
8.02882e-08 -3.57979e-08 0.00030126

0.000254629 2.30455e-05 -2.10656e-08
2.30455e-05 0.000263504 1.25041e-07
-2.10656e-08 1.25041e-07 0.000268174

0.000312412 -2.30131e-07 1.11859e-07
-2.30131e-07 0.000301738 -1.62142e-08
1.11859e-07 -1.62142e-08 0.000294748

0.000306384 1.1397e-05 2.81087e-08
1.1397e-05 0.000262468 1.28219e-07
2.81087e-08 1.28219e-07 0.000279664

0.000301124 5.5932e-06 4.54719e-08
5.5932e-06 0.000305087 1.4766e-07
4.54719e-08 1.4766e-07 0.000299908

0.000267872 1.07591e-05 -4.88475e-08
1.07591e-05 0.000273075 -9.94596e-08
-4.88475e-08 -9.94596e-08 0.000279967

0.000277862 -1.11962e-06 7.4153e-08
-1.11962e-06 0.000273926 -1.37434e-07
7.4153e-08 -1.37434e-07 0.000286427

0.000308875 -7.31787e-06 -4.04762e-08
-7.31787e-06 0.000303369 -9.08061e-08
-4.04762e-08 -9.08061e-08 0.000299555

0.000279221 -1.12298e-05 -1.4795e-08
-1.12298e-05 0.000275096 -1.65412e-07
-1.4795e-08 -1.65412e-07 0.000285011

0.000285473 7.36535e-06 -1.87381e-07
7.36535e-06 0.000283934 8.42911e-08
-1.87381e-07 8.42911e-08 0.000289845

0.000300875 -1.55943e-06 8.92561e-08
-1.55943e-06 0.000307904 4.62736e-08
8.92561e-08 4.62736e-08 0.00030209

0.000293862 -5.2397e-06 -1.33714e-07
-5.2397e-06 0.000291523 -4.23798e-08
-1.33714e-07 -4.23798e-08 0.000293876

0.000311239 8.51931e-06 6.997e-08
8.51931e-06 0.000302069 3.89842e-08
6.997e-08 3.89842e-08 0.000296899

0.00028322 5.31307e-07 -6.98714e-08
5.31307e-07 0.000283854 5.18137e-08
-6.98714e-08 5.18137e-08 0.000290934

0.000284451 -5.86968e-07 -1.80464e-07
-5.86968e-07 0.000280299 -6.08212e-08
-1.80464e-07 -6.08212e-08 0.000290216

0.000300661 1.52985e-06 8.99179e-08
1.52985e-06 0.000307874 -4.40319e-08
8.99179e-08 -4.40319e-08 0.000302092

0.000301196 -1.2455e-07 5.0659e-09
-1.2455e-07 0.000307959 1.70435e-07
5.0659e-09 1.70435e-07 0.00030282

0.000316133 2.16487e-06 4.0783e-07
2.16487e-06 0.000319271 -4.00531e-07
4.0783e-07 -4.00531e-07 0.000307846

0.00032462 -2.41316e-06 4.07405e-07
-2.41316e-06 0.000319271 4.00147e-07
4.07405e-07 4.00147e-07 0.000307844

0.000300635 2.36157e-06 -8.40071e-08
2.36157e-06 0.000302048 8.44338e-08
-8.40071e-08 8.44338e-08 0.000298285

0.00026968 -1.3238e-05 8.39176e-08
-1.3238e-05 0.00027948 1.07083e-07
8.39176e-08 1.07083e-07 0.000280219

0.000270791 1.33554e-05 1.35465e-07
1.33554e-05 0.000279842 -1.60624e-07
1.35465e-07 -1.60624e-07 0.000280269

0.000284025 -1.88732e-06 -2.84664e-08
-1.88732e-06 0.000251696 -2.01094e-07
-2.84664e-08 -2.01094e-07 0.000278975

0.000253707 -2.22391e-05 -4.02614e-08
-2.22391e-05 0.000264112 -7.3657e-08
-4.02614e-08 -7.3657e-08 0.000267998

0.000290769 1.41839e-06 -1.42831e-08
1.41839e-06 0.000295107 -8.28625e-09
-1.42831e-08 -8.28625e-09 0.000295865

0.000284797 2.66906e-08 1.20774e-07
2.66906e-08 0.000279988 2.94734e-08
1.20774e-07 2.94734e-08 0.000290133

0.000290212 2.83384e-06 1.87694e-08
2.83384e-06 0.000292757 -9.73735e-08
1.87694e-08 -9.73735e-08 0.000294988

0.000290197 -2.72207e-06 -1.71775e-08
-2.72207e-06 0.000292919 -4.94049e-08
-1.71775e-08 -4.94049e-08 0.000295173

0.000292338 1.08634e-06 8.30511e-08
1.08634e-06 0.000296968 1.45788e-07
8.30511e-08 1.45788e-07 0.000297355

0.000309382 6.99104e-06 -1.99588e-08
6.99104e-06 0.000303617 -8.31529e-08
-1.99588e-08 -8.31529e-08 0.000299549

0.000285836 2.59318e-06 -1.5844e-07
2.59318e-06 0.000287067 1.6698e-07
-1.5844e-07 1.6698e-07 0.000292413

0.000293184 2.75903e-07 1.46041e-08
2.75903e-07 0.000295946 3.29453e-09
1.46041e-08 3.29453e-09 0.000297182

0.000304616 -7.93795e-06 1.3378e-07
-7.93795e-06 0.000277248 3.1654e-07
1.3378e-07 3.1654e-07 0.000281077

0.000319976 8.29885e-06 -4.56276e-09
8.29885e-06 0.00029939 2.35898e-07
-4.56276e-09 2.35898e-07 0.000293345

0.000279929 -9.78552e-06 -5.59384e-08
-9.78552e-06 0.000264226 -1.10484e-07
-5.59384e-08 -1.10484e-07 0.000280907

0.000283821 -1.64002e-06 2.51608e-08
-1.64002e-06 0.000224387 1.47758e-07
2.51608e-08 1.47758e-07 0.000266476

0.000292192 -3.56595e-06 -2.87128e-08
-3.56595e-06 0.000296404 1.39398e-07
-2.87128e-08 1.39398e-07 0.000295962

0.000291841 2.93532e-06 2.55535e-08
2.93532e-06 0.000297127 1.31218e-07
2.55535e-08 1.31218e-07 0.000296047

0.000283937 -1.1665e-06 -7.54307e-08
-1.1665e-06 0.000246473 5.52295e-08
-7.54307e-08 5.52295e-08 0.00027868

0.000297135 5.02452e-06 3.35071e-08
5.02452e-06 0.000300023 -7.28186e-09
3.35071e-08 -7.28186e-09 0.000296947

0.000309757 4.21976e-06 1.60899e-08
4.21976e-06 0.000315101 -9.99145e-08
1.60899e-08 -9.99145e-08 0.000306629

0.000309583 -2.16832e-06 1.55652e-08
-2.16832e-06 0.000314967 1.00645e-07
1.55652e-08 1.00645e-07 0.000306628

0.000272574 -3.24217e-06 -4.03744e-08
-3.24217e-06 0.000273442 1.75117e-07
-4.03744e-08 1.75117e-07 0.000282624

0.000268169 -1.1625e-05 -1.52946e-08
-1.1625e-05 0.000272997 -1.42112e-08
-1.52946e-08 -1.42112e-08 0.000279927

0.000280088 -9.41956e-06 -2.99112e-08
-9.41956e-06 0.000255061 1.55906e-07
-2.99112e-08 1.55906e-07 0.000280126

0.000282257 5.66796e-07 -5.85201e-08
5.66796e-07 0.000274459 -1.66895e-07
-5.85201e-08 -1.66895e-07 0.000287973

0.000274896 -8.88914e-06 -1.37037e-07
-8.88914e-06 0.000274098 -6.87516e-08
-1.37037e-07 -6.87516e-08 0.000280891

0.000284497 -1.97453e-06 5.62362e-08
-1.97453e-06 0.000284045 -1.98972e-07
5.62362e-08 -1.98972e-07 0.000291689

0.000285194 -6.77028e-06 6.08584e-09
-6.77028e-06 0.00028516 -6.36864e-08
6.08584e-09 -6.36864e-08 0.00029004

0.000293463 5.04845e-06 4.75919e-08
5.04845e-06 0.000289366 -1.29799e-07
4.75919e-08 -1.29799e-07 0.000293631

0.000313926 -8.60006e-06 -9.96643e-09
-8.60006e-06 0.000295272 -1.36069e-08
-9.96643e-09 -1.36069e-08 0.000289504

0.000310093 5.8145e-06 7.26108e-08
5.8145e-06 0.000294458 -4.81891e-08
7.26108e-08 -4.81891e-08 0.000288887

0.000306917 5.5329e-07 2.6494e-08
5.5329e-07 0.000313392 8.17568e-08
2.6494e-08 8.17568e-08 0.000305677

0.000305774 -6.0763e-07 3.31832e-08
-6.0763e-07 0.000313313 -7.57561e-08
3.31832e-08 -7.57561e-08 0.00030568

0.000266662 -5.75271e-06 -1.74732e-07
-5.75271e-06 0.000272377 1.15929e-07
-1.74732e-07 1.15929e-07 0.000281614

0.000265549 6.59069e-06 -8.23722e-09
6.59069e-06 0.000273033 1.5715e-07
-8.23722e-09 1.5715e-07 0.000281445

0.000264862 -3.24301e-06 8.53876e-08
-3.24301e-06 0.00028244 1.00772e-07
8.53876e-08 1.00772e-07 0.000277057

0.000265917 3.27263e-06 1.34452e-07
3.27263e-06 0.000282245 -1.6493e-07
1.34452e-07 -1.6493e-07 0.00027704

0.000318118 3.15608e-07 4.13066e-07
3.15608e-07 0.000319048 -4.00225e-07
4.13066e-07 -4.00225e-07 0.000307492

0.000318118 -7.92987e-07 4.11926e-07
-7.92987e-07 0.000319104 3.99882e-07
4.11926e-07 3.99882e-07 0.00030749

0.000309306 4.44505e-06 -4.7393e-08
4.44505e-06 0.000306435 1.8699e-08
-4.7393e-08 1.8699e-08 0.000302902

0.000309672 -4.23867e-06 -3.86147e-08
-4.23867e-06 0.000306689 -4.23342e-08
-3.86147e-08 -4.23342e-08 0.000302905

0.000298299 -1.11145e-06 -1.13683e-07
-1.11145e-06 0.00030676 1.089e-07
-1.13683e-07 1.089e-07 0.000301634

0.000288676 -5.0843e-06 6.35198e-08
-5.0843e-06 0.000279083 -1.16687e-07
6.35198e-08 -1.16687e-07 0.000286965

0.000296425 6.76366e-07 -3.15797e-08
6.76366e-07 0.000295371 -4.37718e-08
-3.15797e-08 -4.37718e-08 0.000295082

0.000281648 -1.9687e-06 -1.66473e-08
-1.9687e-06 0.000276378 -1.51514e-07
-1.66473e-08 -1.51514e-07 0.000288201

0.000298571 9.38301e-07 6.79399e-08
9.38301e-07 0.000306799 -9.49436e-08
6.79399e-08 -9.49436e-08 0.000301585

0.000286445 4.22646e-06 -1.43049e-07
4.22646e-06 0.000280733 1.05343e-07
-1.43049e-07 1.05343e-07 0.00028702

0.000297796 -1.77677e-06 3.08175e-08
-1.77677e-06 0.000304873 -1.00214e-07
3.08175e-08 -1.00214e-07 0.000300225

0.000247988 -1.47078e-05 9.73178e-08
-1.47078e-05 0.000271291 9.68648e-08
9.73178e-08 9.68648e-08 0.000269981

0.000247625 1.43497e-05 6.67093e-08
1.43497e-05 0.000271139 -7.38338e-08
6.67093e-08 -7.38338e-08 0.000269993

0.000298883 1.63441e-06 -7.53473e-08
1.63441e-06 0.000304894 -6.29813e-08
-7.53473e-08 -6.29813e-08 0.000300173

0.000279154 1.07302e-05 -1.20956e-08
1.07302e-05 0.000264759 -1.3222e-07
-1.20956e-08 -1.3222e-07 0.000280677

0.000354078 1.98676e-06 -9.39198e-08
1.98676e-06 0.000265932 -3.18878e-07
-9.39198e-08 -3.18878e-07 0.000284727

0.000337825 -5.17749e-06 6.52905e-08
-5.17749e-06 0.000319504 -1.09173e-07
6.52905e-08 -1.09173e-07 0.000289945

0.000304486 2.15291e-06 -7.92855e-08
2.15291e-06 0.00029883 1.14404e-08
-7.92855e-08 1.14404e-08 0.00029617

0.000271836 -8.54225e-06 -6.14639e-08
-8.54225e-06 0.00026435 -1.08545e-07
-6.14639e-08 -1.08545e-07 0.000283004

0.000282047 -1.56553e-05 1.26761e-07
-1.56553e-05 0.000259338 -5.44337e-08
1.26761e-07 -5.44337e-08 0.000275648

0.000290985 -8.28716e-07 -6.12004e-09
-8.28716e-07 0.000292584 1.39049e-07
-6.12004e-09 1.39049e-07 0.000295299

0.000289917 2.48468e-07 -3.7088e-09
2.48468e-07 0.0002969 1.4204e-07
-3.7088e-09 1.4204e-07 0.000296284

0.000309499 1.63289e-06 -1.52709e-07
1.63289e-06 0.000312094 -1.40743e-07
-1.52709e-07 -1.40743e-07 0.000305979

0.000309307 -2.21894e-06 4.24472e-08
-2.21894e-06 0.000312215 -8.66533e-08
4.24472e-08 -8.66533e-08 0.000305941

0.000282097 1.5339e-05 9.50752e-08
1.5339e-05 0.000259967 6.41638e-08
9.50752e-08 6.41638e-08 0.000275694

0.000296275 -1.83955e-06 -3.37167e-08
-1.83955e-06 0.00029525 3.21512e-08
-3.37167e-08 3.21512e-08 0.000295301

0.00029664 -3.29967e-06 -1.53315e-07
-3.29967e-06 0.000304419 7.93356e-08
-1.53315e-07 7.93356e-08 0.000300611

0.000305318 5.24442e-06 4.35577e-08
5.24442e-06 0.000309637 3.09134e-07
4.35577e-08 3.09134e-07 0.000303805

0.000305205 -4.21171e-06 4.61823e-08
-4.21171e-06 0.000309814 -3.16033e-07
4.61823e-08 -3.16033e-07 0.000303804

0.000287184 -2.25467e-05 -1.06118e-07
-2.25467e-05 0.00027601 -1.88962e-08
-1.06118e-07 -1.88962e-08 0.000278905

0.000286395 2.3257e-05 -1.84802e-08
2.3257e-05 0.000275325 -1.26262e-08
-1.84802e-08 -1.26262e-08 0.000278909

0.000302091 6.65838e-06 -9.78621e-08
6.65838e-06 0.000302853 3.95077e-09
-9.78621e-08 3.95077e-09 0.000297752

0.000277701 -3.22368e-06 1.10956e-08
-3.22368e-06 0.000269131 -4.8847e-08
1.10956e-08 -4.8847e-08 0.000283722

0.000305945 2.82935e-06 1.41695e-07
2.82935e-06 0.00031317 2.48177e-07
1.41695e-07 2.48177e-07 0.000305592

0.000305434 -3.12022e-06 -1.0054e-07
-3.12022e-06 0.000312962 2.34227e-08
-1.0054e-07 2.34227e-08 0.000305553

0.00028943 -1.00444e-05 3.80319e-08
-1.00444e-05 0.000272248 1.56067e-07
3.80319e-08 1.56067e-07 0.000281284

0.00027526 -1.90449e-05 5.00514e-08
-1.90449e-05 0.000262429 -8.88428e-08
5.00514e-08 -8.88428e-08 0.000272037

0.00028742 -2.57986e-06 1.33632e-07
-2.57986e-06 0.000291638 -1.01816e-07
1.33632e-07 -1.01816e-07 0.000294606

0.000257943 1.34509e-06 -2.49495e-08
1.34509e-06 0.000281663 1.10804e-07
-2.49495e-08 1.10804e-07 0.000275585

0.000258261 -1.73535e-06 -3.71626e-08
-1.73535e-06 0.000281623 -1.76148e-07
-3.71626e-08 -1.76148e-07 0.00027557

0.000271771 -1.91871e-05 -1.08757e-07
-1.91871e-05 0.000268208 1.09161e-07
-1.08757e-07 1.09161e-07 0.000278335

0.000296917 3.17284e-06 -9.89451e-08
3.17284e-06 0.000304263 4.03646e-08
-9.89451e-08 4.03646e-08 0.000300655

0.000272432 3.78367e-06 3.18482e-08
3.78367e-06 0.000273728 1.30554e-07
3.18482e-08 1.30554e-07 0.000282396

0.000262128 1.30272e-06 -1.3657e-07
1.30272e-06 0.000276427 -1.29258e-08
-1.3657e-07 -1.29258e-08 0.000279232

0.000261113 -1.27559e-06 -8.27016e-08
-1.27559e-06 0.000276756 -1.2355e-07
-8.27016e-08 -1.2355e-07 0.000279192

0.000279148 1.19173e-05 -1.25163e-08
1.19173e-05 0.000252789 3.76277e-08
-1.25163e-08 3.76277e-08 0.000279733

0.000309188 2.04362e-06 -2.11142e-07
2.04362e-06 0.000315685 1.49691e-07
-2.11142e-07 1.49691e-07 0.000306605

0.000309188 -2.18831e-06 7.2908e-08
-2.18831e-06 0.00031547 6.4748e-08
7.2908e-08 6.4748e-08 0.000306565

0.00032041 -4.94782e-07 -4.16109e-07
-4.94782e-07 0.000305707 8.37381e-09
-4.16109e-07 8.37381e-09 0.00028729

0.000319459 1.09268e-05 -2.27692e-07
1.09268e-05 0.000305738 1.88414e-07
-2.27692e-07 1.88414e-07 0.000289311

0.000286405 2.81876e-07 1.20736e-07
2.81876e-07 0.000290669 -8.13047e-09
1.20736e-07 -8.13047e-09 0.000293171

0.000288327 -5.84503e-07 8.55426e-08
-5.84503e-07 0.000279558 4.8797e-08
8.55426e-08 4.8797e-08 0.000290039

0.000302981 3.98569e-06 -2.45271e-07
3.98569e-06 0.00030914 -5.98723e-08
-2.45271e-07 -5.98723e-08 0.000302572

0.00030521 -4.91463e-06 -2.39585e-07
-4.91463e-06 0.000308796 6.47627e-08
-2.39585e-07 6.47627e-08 0.000302573

0.00030357 5.13491e-06 -3.57925e-08
5.13491e-06 0.000304253 -8.09301e-08
-3.57925e-08 -8.09301e-08 0.00029822

0.000288134 1.20854e-06 1.47148e-07
1.20854e-06 0.000291149 4.24832e-08
1.47148e-07 4.24832e-08 0.000294062

0.000292236 -1.95792e-07 1.45769e-07
-1.95792e-07 0.000292262 -9.99296e-08
1.45769e-07 -9.99296e-08 0.000295897

0.000315492 -2.21253e-07 2.32251e-07
-2.21253e-07 0.000322822 5.59273e-07
2.32251e-07 5.59273e-07 0.000307991

0.000318952 5.39979e-06 2.32741e-07
5.39979e-06 0.000322822 -5.59599e-07
2.32741e-07 -5.59599e-07 0.000307992

0.000262606 -5.38952e-07 2.59593e-08
-5.38952e-07 0.000273503 1.25531e-07
2.59593e-08 1.25531e-07 0.000281743

0.00030107 2.6044e-06 -7.07123e-08
2.6044e-06 0.000301814 -5.50553e-08
-7.07123e-08 -5.50553e-08 0.000299605

0.000303313 3.14836e-06 -2.8071e-07
3.14836e-06 0.000307999 1.40377e-07
-2.8071e-07 1.40377e-07 0.000302634

0.00030592 -2.70913e-06 -2.73256e-07
-2.70913e-06 0.000308058 -1.49934e-07
-2.73256e-07 -1.49934e-07 0.000302635

0.000300032 2.0649e-06 -3.51907e-10
2.0649e-06 0.000305074 -1.48421e-07
-3.51907e-10 -1.48421e-07 0.000300365

0.000300014 -2.80398e-06 3.62701e-08
-2.80398e-06 0.000301829 -1.09609e-07
3.62701e-08 -1.09609e-07 0.000299559

0.000286553 8.44256e-08 7.84359e-08
8.44256e-08 0.000291536 -8.12125e-08
7.84359e-08 -8.12125e-08 0.00029336

0.000286003 -2.39005e-07 4.17787e-08
-2.39005e-07 0.000292348 -5.70098e-08
4.17787e-08 -5.70098e-08 0.000293552

0.000291303 -8.07963e-07 4.33347e-08
-8.07963e-07 0.00029964 -2.36824e-08
4.33347e-08 -2.36824e-08 0.000297874

0.000299038 -2.3516e-06 1.63141e-07
-2.3516e-06 0.000305192 7.42642e-08
1.63141e-07 7.42642e-08 0.00030032

0.000287259 -1.55708e-06 1.13492e-07
-1.55708e-06 0.000287417 2.8512e-08
1.13492e-07 2.8512e-08 0.000292786

0.00028166 1.26486e-06 -5.94664e-08
1.26486e-06 0.000279067 8.06338e-08
-5.94664e-08 8.06338e-08 0.000289183

0.000308163 3.54943e-06 1.77155e-07
3.54943e-06 0.000309092 -1.49452e-07
1.77155e-07 -1.49452e-07 0.000303823

0.000307379 -5.03758e-06 1.86357e-07
-5.03758e-06 0.000308667 1.47081e-07
1.86357e-07 1.47081e-07 0.000303823

0.000307483 2.85216e-06 2.41953e-07
2.85216e-06 0.000312264 7.17701e-08
2.41953e-07 7.17701e-08 0.000304584

0.000305863 -2.89202e-06 2.5037e-07
-2.89202e-06 0.000312014 -7.48421e-08
2.5037e-07 -7.48421e-08 0.000304582

0.000284373 -2.6606e-06 6.80555e-08
-2.6606e-06 0.000287686 -4.26473e-08
6.80555e-08 -4.26473e-08 0.000292102

0.00028472 -2.09792e-06 -7.4984e-08
-2.09792e-06 0.000284024 -2.09434e-07
-7.4984e-08 -2.09434e-07 0.000290592

0.000301679 -5.04987e-06 8.2556e-08
-5.04987e-06 0.000306883 1.05413e-07
8.2556e-08 1.05413e-07 0.000301765

0.000301332 4.65301e-06 8.22202e-08
4.65301e-06 0.000306861 -1.16893e-07
8.22202e-08 -1.16893e-07 0.000301765

0.000320433 -2.76366e-06 -3.61891e-07
-2.76366e-06 0.000276592 3.45405e-07
-3.61891e-07 3.45405e-07 0.000286751

0.000316042 -1.24612e-07 -2.18054e-07
-1.24612e-07 0.000300384 2.48328e-07
-2.18054e-07 2.48328e-07 0.000290997

0.000307773 3.1524e-06 -1.54603e-10
3.1524e-06 0.000311593 1.53861e-07
-1.54603e-10 1.53861e-07 0.000304285

0.000308514 -3.21608e-06 -3.08106e-09
-3.21608e-06 0.00031159 -1.53279e-07
-3.08106e-09 -1.53279e-07 0.000304283

0.000309029 8.59727e-07 5.98637e-08
8.59727e-07 0.000314427 2.99264e-07
5.98637e-08 2.99264e-07 0.000306452

0.000309334 -9.89888e-07 1.60637e-08
-9.89888e-07 0.000314103 9.61213e-08
1.60637e-08 9.61213e-08 0.000306411

0.000264468 -3.19969e-06 1.48847e-07
-3.19969e-06 0.000276698 -1.20125e-07
1.48847e-07 -1.20125e-07 0.000279032

0.000266073 3.55591e-06 1.49616e-07
3.55591e-06 0.000276286 -2.16663e-08
1.49616e-07 -2.16663e-08 0.000279152

0.000306992 -1.96162e-05 2.07382e-07
-1.96162e-05 0.000280321 -3.97093e-07
2.07382e-07 -3.97093e-07 0.000279603

0.000267521 9.06756e-07 -3.30731e-08
9.06756e-07 0.000284736 -5.00274e-08
-3.30731e-08 -5.00274e-08 0.000275896

0.000313856 9.05352e-07 1.22548e-07
9.05352e-07 0.000317489 1.0172e-07
1.22548e-07 1.0172e-07 0.000307307

0.000316106 -2.9936e-07 5.02603e-07
-2.9936e-07 0.000317792 -2.49982e-07
5.02603e-07 -2.49982e-07 0.000307704

0.000313856 -9.05352e-07 1.2492e-07
-9.05352e-07 0.000317489 -1.00613e-07
1.2492e-07 -1.00613e-07 0.000307308

0.000316106 2.9936e-07 5.02942e-07
2.9936e-07 0.000317792 2.49207e-07
5.02942e-07 2.49207e-07 0.000307705

0.000319186 1.147e-05 3.00844e-08
1.147e-05 0.000312117 -1.00033e-07
3.00844e-08 -1.00033e-07 0.000292584

0.000268138 -5.51028e-07 -1.02937e-07
-5.51028e-07 0.000284584 -2.68181e-08
-1.02937e-07 -2.68181e-08 0.000275895

0.000317361 -8.09848e-07 2.46732e-07
-8.09848e-07 0.000316999 1.89719e-07
2.46732e-07 1.89719e-07 0.000306978

0.000286038 9.90689e-06 -4.44516e-06
9.90689e-06 0.000320847 2.48974e-06
-4.44516e-06 2.48974e-06 0.000307922

0.000319834 2.9043e-06 -4.44581e-06
2.9043e-06 0.000320847 -2.49079e-06
-4.44581e-06 -2.49079e-06 0.000307924

0.000316175 5.64207e-07 2.47475e-07
5.64207e-07 0.000316999 -1.89065e-07
2.47475e-07 -1.89065e-07 0.00030698

0.000318979 -6.10747e-07 2.64821e-07
-6.10747e-07 0.000313886 2.17139e-07
2.64821e-07 2.17139e-07 0.000306626

0.000311351 -4.56331e-06 -2.30098e-07
-4.56331e-06 0.000311997 -1.10593e-07
-2.30098e-07 -1.10593e-07 0.000305696

0.000318318 1.14488e-08 3.16841e-07
1.14488e-08 0.0003223 -2.37531e-08
3.16841e-07 -2.37531e-08 0.000307615

0.000316297 1.20994e-06 2.65956e-07
1.20994e-06 0.000314761 -2.17079e-07
2.65956e-07 -2.17079e-07 0.000306627

0.000316756 3.03599e-06 3.17934e-07
3.03599e-06 0.000321844 2.36174e-08
3.17934e-07 2.36174e-08 0.000307617

0.000311351 4.8531e-06 -2.29181e-07
4.8531e-06 0.000312106 1.10798e-07
-2.29181e-07 1.10798e-07 0.000305698

0.000312 7.78227e-07 -2.2984e-07
7.78227e-07 0.000314485 1.18872e-07
-2.2984e-07 1.18872e-07 0.000306309

0.000317233 2.68135e-06 -1.30156e-07
2.68135e-06 0.000315163 1.49917e-07
-1.30156e-07 1.49917e-07 0.000307113

0.000311719 -2.17638e-06 -2.30845e-07
-2.17638e-06 0.000315167 -1.19743e-07
-2.30845e-07 -1.19743e-07 0.000306307

0.000314569 -4.08356e-06 -1.31663e-07
-4.08356e-06 0.000316078 -1.50632e-07
-1.31663e-07 -1.50632e-07 0.000307111

0.000164548 2.15229e-05 -4.87783e-08
2.15229e-05 0.000211602 8.76925e-09
-4.87783e-08 8.76925e-09 0.000185073

0.000230417 3.40495e-06 9.36023e-08
3.40495e-06 0.000247428 -2.43769e-08
9.36023e-08 -2.43769e-08 0.000233919

0.000184741 6.18239e-06 -2.71412e-08
6.18239e-06 0.000246495 -1.07457e-07
-2.71412e-08 -1.07457e-07 0.000219833

0.000229778 1.12311e-05 -9.97248e-08
1.12311e-05 0.000163738 6.37158e-08
-9.97248e-08 6.37158e-08 0.000196987

0.000222204 3.12848e-06 -1.48235e-07
3.12848e-06 0.000157113 3.70154e-08
-1.48235e-07 3.70154e-08 0.000182965

0.000231296 -2.1008e-06 9.50533e-08
-2.1008e-06 0.000256575 -4.12367e-08
9.50533e-08 -4.12367e-08 0.00024938

0.000184045 9.30025e-06 -2.83605e-08
9.30025e-06 0.000268106 -9.32815e-08
-2.83605e-08 -9.32815e-08 0.000232683

0.000223777 -2.99954e-06 -1.3619e-07
-2.99954e-06 0.000164113 -4.93905e-08
-1.3619e-07 -4.93905e-08 0.000184282

0.000258643 2.32114e-06 -5.50375e-08
2.32114e-06 0.000180194 6.92678e-08
-5.50375e-08 6.92678e-08 0.000222514

0.000134579 1.91493e-05 5.43261e-08
1.91493e-05 0.000176702 1.12296e-07
5.43261e-08 1.12296e-07 0.000148006

0.000145058 -3.10601e-05 4.11407e-08
-3.10601e-05 0.000178138 -3.00684e-08
4.11407e-08 -3.00684e-08 0.000147016

0.00018037 1.95702e-05 6.32482e-08
1.95702e-05 0.000141107 7.34245e-08
6.32482e-08 7.34245e-08 0.000150422

0.000238131 -3.52507e-05 6.03945e-08
-3.52507e-05 0.000259244 1.27851e-07
6.03945e-08 1.27851e-07 0.000244489

0.000221262 -1.22723e-05 -2.09483e-07
-1.22723e-05 0.000257072 -9.19328e-08
-2.09483e-07 -9.19328e-08 0.000236752

0.000164512 1.86705e-05 -5.00179e-08
1.86705e-05 0.000223489 -1.88782e-07
-5.00179e-08 -1.88782e-07 0.000199484

0.000173484 2.12833e-05 -1.33988e-08
2.12833e-05 0.000238245 4.92383e-08
-1.33988e-08 4.92383e-08 0.000219469

0.00018261 -1.01781e-05 -7.95177e-08
-1.01781e-05 0.000268949 -1.71359e-07
-7.95177e-08 -1.71359e-07 0.000231851

0.000219264 -2.62588e-05 5.7605e-08
-2.62588e-05 0.000255284 1.29546e-07
5.7605e-08 1.29546e-07 0.000241399

0.000229913 -1.89794e-05 4.21811e-08
-1.89794e-05 0.000169804 -1.19522e-07
4.21811e-08 -1.19522e-07 0.000205753

0.00014174 5.90744e-06 4.03163e-08
5.90744e-06 0.000201127 1.39495e-07
4.03163e-08 1.39495e-07 0.000159753

0.000158314 -1.22524e-05 1.25185e-08
-1.22524e-05 0.000201493 -8.50238e-08
1.25185e-08 -8.50238e-08 0.000162632

0.000198654 4.85442e-06 2.09767e-08
4.85442e-06 0.000152479 1.00658e-07
2.09767e-08 1.00658e-07 0.000161298

0.000169745 2.46758e-05 -6.84033e-08
2.46758e-05 0.000198284 3.04603e-08
-6.84033e-08 3.04603e-08 0.000183967

0.000207345 -1.68637e-05 1.28871e-08
-1.68637e-05 0.000155097 1.61715e-08
1.28871e-08 1.61715e-08 0.000172275

0.000193755 2.70172e-05 6.85786e-08
2.70172e-05 0.000198463 3.76218e-08
6.85786e-08 3.76218e-08 0.000197085

0.000202586 1.88788e-05 1.09738e-07
1.88788e-05 0.000216409 -5.40718e-08
1.09738e-07 -5.40718e-08 0.000196613

0.000236469 -5.44389e-06 7.39443e-09
-5.44389e-06 0.000164043 -1.06679e-07
7.39443e-09 -1.06679e-07 0.000199253

0.000132547 1.31042e-05 -9.71803e-08
1.31042e-05 0.000161274 -1.68413e-07
-9.71803e-08 -1.68413e-07 0.000132092

0.000248226 6.19671e-06 -8.54428e-09
6.19671e-06 0.000176311 1.11156e-10
-8.54428e-09 1.11156e-10 0.000217762

0.000159928 1.22852e-05 7.30939e-08
1.22852e-05 0.000139429 7.90191e-08
7.30939e-08 7.90191e-08 0.00013461

0.00024977 -1.17861e-05 -9.42635e-08
-1.17861e-05 0.000261313 3.23517e-08
-9.42635e-08 3.23517e-08 0.000251172

0.000220183 1.59835e-06 1.57122e-08
1.59835e-06 0.000268633 -1.10413e-07
1.57122e-08 -1.10413e-07 0.000237408

0.000276493 -1.24046e-05 -1.28829e-07
-1.24046e-05 0.000255238 -1.91475e-07
-1.28829e-07 -1.91475e-07 0.000251495

0.000262711 3.08899e-05 8.29604e-08
3.08899e-05 0.000266016 1.53969e-07
8.29604e-08 1.53969e-07 0.000251811

0.000194305 -8.2606e-06 8.59055e-09
-8.2606e-06 0.000149657 1.84273e-08
8.59055e-09 1.84273e-08 0.000154655

0.000189997 2.88299e-05 -8.13186e-08
2.88299e-05 0.000208012 -1.39713e-07
-8.13186e-08 -1.39713e-07 0.000208562

0.000236632 1.63185e-05 -1.12233e-07
1.63185e-05 0.000231154 2.33396e-08
-1.12233e-07 2.33396e-08 0.000237448

0.000245077 -4.56563e-06 -1.15915e-08
-4.56563e-06 0.000239293 -1.46586e-07
-1.15915e-08 -1.46586e-07 0.000238418

0.000259861 2.64637e-06 8.31455e-09
2.64637e-06 0.000176602 -6.33299e-10
8.31455e-09 -6.33299e-10 0.000223275

0.000192251 2.7067e-05 6.10031e-08
2.7067e-05 0.000212942 1.08917e-08
6.10031e-08 1.08917e-08 0.000194417

0.000205422 -2.16019e-05 2.0539e-08
-2.16019e-05 0.0001771 6.7048e-08
2.0539e-08 6.7048e-08 0.000177379

0.000259001 -4.01937e-07 -4.71508e-08
-4.01937e-07 0.000168118 -6.61195e-08
-4.71508e-08 -6.61195e-08 0.000218479

0.000177892 -3.65255e-05 -4.85263e-08
-3.65255e-05 0.000212741 -8.38617e-08
-4.85263e-08 -8.38617e-08 0.000183588

0.000182122 -3.22738e-05 8.96256e-08
-3.22738e-05 0.000216995 6.44806e-08
8.96256e-08 6.44806e-08 0.000187077

0.000232396 1.63771e-05 1.65368e-08
1.63771e-05 0.000245637 1.96034e-07
1.65368e-08 1.96034e-07 0.000238451

0.000186299 -3.6883e-05 -3.16614e-08
-3.6883e-05 0.000174606 6.25454e-08
-3.16614e-08 6.25454e-08 0.000167204

0.000111128 -3.66791e-05 -6.36426e-08
-3.66791e-05 0.000109315 4.85414e-08
-6.36426e-08 4.85414e-08 0.000108836

0.000107924 -3.9281e-05 -1.07505e-07
-3.9281e-05 0.000116902 9.34542e-08
-1.07505e-07 9.34542e-08 0.00011039

0.000211349 -4.29754e-05 -1.00061e-07
-4.29754e-05 0.000257233 6.71054e-08
-1.00061e-07 6.71054e-08 0.000236655

0.000110845 -1.47554e-05 -1.09607e-07
-1.47554e-05 0.000107219 5.77609e-08
-1.09607e-07 5.77609e-08 0.000116501

0.000103335 -1.18334e-05 -1.62083e-07
-1.18334e-05 0.000111731 4.3791e-08
-1.62083e-07 4.3791e-08 0.00011455

0.000277253 1.89268e-05 -1.95152e-07
1.89268e-05 0.000240383 -2.68224e-07
-1.95152e-07 -2.68224e-07 0.00025841

0.000257895 -2.45848e-05 2.67645e-08
-2.45848e-05 0.000230461 2.45637e-07
2.67645e-08 2.45637e-07 0.000240227

0.000236607 -1.31166e-05 1.1598e-07
-1.31166e-05 0.00017316 -9.29331e-08
1.1598e-07 -9.29331e-08 0.000217003

0.000275669 2.54438e-05 -2.5533e-07
2.54438e-05 0.000227091 1.55288e-07
-2.5533e-07 1.55288e-07 0.000255769

0.000255171 -3.41728e-05 -2.82672e-08
-3.41728e-05 0.000230438 -1.41652e-07
-2.82672e-08 -1.41652e-07 0.000240289

0.000202425 1.84346e-05 1.04825e-07
1.84346e-05 0.000230479 -1.15698e-07
1.04825e-07 -1.15698e-07 0.00021293

0.000274674 -1.19814e-05 1.60392e-07
-1.19814e-05 0.000237312 -1.28065e-07
1.60392e-07 -1.28065e-07 0.000247907

0.000258585 1.66595e-05 2.00817e-07
1.66595e-05 0.000248766 2.06419e-08
2.00817e-07 2.06419e-08 0.00024816

0.000254928 2.90564e-05 1.05443e-07
2.90564e-05 0.000214999 1.94877e-08
1.05443e-07 1.94877e-08 0.000240198

0.00023418 -3.75969e-05 1.66193e-07
-3.75969e-05 0.000208755 5.27818e-08
1.66193e-07 5.27818e-08 0.000226862

0.000172463 -2.53569e-05 4.50222e-08
-2.53569e-05 0.000138337 3.57498e-08
4.50222e-08 3.57498e-08 0.00014292

0.000261143 -7.45092e-06 -8.97114e-08
-7.45092e-06 0.000281665 -3.91181e-09
-8.97114e-08 -3.91181e-09 0.00027022

0.000231392 -1.37626e-06 1.62373e-07
-1.37626e-06 0.000295485 1.26697e-07
1.62373e-07 1.26697e-07 0.000246676

0.000169196 -3.12662e-05 7.565e-08
-3.12662e-05 0.000200601 9.40713e-08
7.565e-08 9.40713e-08 0.000185346

0.000126567 -1.094e-05 -4.09405e-08
-1.094e-05 0.00015811 8.53083e-08
-4.09405e-08 8.53083e-08 0.000130561

0.000154794 -9.94203e-06 4.43553e-08
-9.94203e-06 0.000125668 3.61907e-08
4.43553e-08 3.61907e-08 0.0001284

0.000212227 1.18708e-05 -1.61351e-07
1.18708e-05 0.000244632 1.58222e-07
-1.61351e-07 1.58222e-07 0.000229355

0.000168656 1.84451e-05 -1.88652e-07
1.84451e-05 0.00023718 8.21826e-09
-1.88652e-07 8.21826e-09 0.000214225

0.000326817 2.2224e-05 -3.10259e-07
2.2224e-05 0.000259998 3.38342e-07
-3.10259e-07 3.38342e-07 0.00027583

0.000313578 5.25538e-06 6.57341e-07
5.25538e-06 0.000335253 2.87625e-07
6.57341e-07 2.87625e-07 0.000254201

0.000184146 2.76837e-05 3.47906e-08
2.76837e-05 0.0002254 1.38453e-07
3.47906e-08 1.38453e-07 0.000226333

0.000245354 2.19648e-05 3.18777e-08
2.19648e-05 0.000189976 1.49525e-07
3.18777e-08 1.49525e-07 0.000224623

0.000233238 -3.25668e-05 2.02205e-07
-3.25668e-05 0.000186809 2.77071e-09
2.02205e-07 2.77071e-09 0.000217155

0.000190433 3.74556e-05 1.36893e-07
3.74556e-05 0.000221824 7.88411e-08
1.36893e-07 7.88411e-08 0.000224069

0.000187183 -2.88012e-05 8.43958e-08
-2.88012e-05 0.00024936 2.2812e-08
8.43958e-08 2.2812e-08 0.00023149

0.000193021 -2.91269e-06 1.13527e-08
-2.91269e-06 0.000137234 -7.18619e-10
1.13527e-08 -7.18619e-10 0.000152872

0.000223741 -1.1424e-05 2.64039e-09
-1.1424e-05 0.000163475 -9.83134e-08
2.64039e-09 -9.83134e-08 0.000191187

0.000204526 1.32193e-05 7.5697e-09
1.32193e-05 0.000153087 -3.12201e-09
7.5697e-09 -3.12201e-09 0.000169175

0.000238468 1.47478e-05 -1.1749e-07
1.47478e-05 0.000209303 4.65253e-08
-1.1749e-07 4.65253e-08 0.000232847

0.000226648 1.17973e-05 5.79427e-08
1.17973e-05 0.000291494 1.65576e-07
5.79427e-08 1.65576e-07 0.000253679

0.000260126 -7.34896e-06 2.99538e-07
-7.34896e-06 0.000264373 2.25034e-08
2.99538e-07 2.25034e-08 0.000253435

0.000163269 2.15393e-05 5.87924e-08
2.15393e-05 0.000176234 1.11988e-07
5.87924e-08 1.11988e-07 0.00015547

0.00020286 -2.79299e-05 1.65932e-08
-2.79299e-05 0.000192033 7.09317e-08
1.65932e-08 7.09317e-08 0.000193279

0.000233951 1.54536e-05 -1.18235e-07
1.54536e-05 0.000186884 2.86425e-08
-1.18235e-07 2.86425e-08 0.000211979

0.000248996 1.81491e-05 4.87696e-08
1.81491e-05 0.000303943 9.9063e-08
4.87696e-08 9.9063e-08 0.000249593

0.000258719 -1.12775e-05 -1.94532e-07
-1.12775e-05 0.000279947 -2.94096e-08
-1.94532e-07 -2.94096e-08 0.000268716

0.000246717 -4.12445e-06 2.47904e-08
-4.12445e-06 0.000210255 1.65932e-08
2.47904e-08 1.65932e-08 0.000234596

0.000219833 -2.16423e-05 4.56443e-08
-2.16423e-05 0.000246961 -7.49304e-08
4.56443e-08 -7.49304e-08 0.000227432

0.000183176 -7.24752e-06 -6.13918e-08
-7.24752e-06 0.00024835 6.67439e-08
-6.13918e-08 6.67439e-08 0.000219288

0.000251408 5.17938e-06 8.28781e-08
5.17938e-06 0.00017209 -7.93079e-08
8.28781e-08 -7.93079e-08 0.000228825

0.000245974 -1.49375e-05 -3.78351e-08
-1.49375e-05 0.000171744 3.8296e-09
-3.78351e-08 3.8296e-09 0.00022583

0.000174988 -3.05902e-05 -2.37012e-08
-3.05902e-05 0.000161923 5.51158e-08
-2.37012e-08 5.51158e-08 0.000155268

0.00026397 1.8727e-05 -1.66843e-07
1.8727e-05 0.000189784 -6.67737e-08
-1.66843e-07 -6.67737e-08 0.000241785

0.00025371 -2.92139e-05 -2.78189e-08
-2.92139e-05 0.000194425 -2.48004e-08
-2.78189e-08 -2.48004e-08 0.000232968

0.000228739 -2.59372e-05 6.21056e-08
-2.59372e-05 0.000178526 1.28678e-07
6.21056e-08 1.28678e-07 0.000206066

0.000169751 -2.63558e-05 8.14117e-10
-2.63558e-05 0.000212327 -2.28877e-09
8.14117e-10 -2.28877e-09 0.000187461

0.000248072 1.18214e-05 3.88682e-08
1.18214e-05 0.000192747 1.48553e-07
3.88682e-08 1.48553e-07 0.000232006

0.000243314 -2.07406e-05 -4.05871e-08
-2.07406e-05 0.000188143 -1.12674e-08
-4.05871e-08 -1.12674e-08 0.000225669

0.00023334 -6.71321e-06 -3.14753e-08
-6.71321e-06 0.000184671 -2.14121e-08
-3.14753e-08 -2.14121e-08 0.000204942

0.000251819 3.28645e-05 -6.15148e-08
3.28645e-05 0.000236045 -1.18824e-07
-6.15148e-08 -1.18824e-07 0.000245049

0.000193905 2.17132e-05 5.06954e-08
2.17132e-05 0.000179316 -5.24286e-08
5.06954e-08 -5.24286e-08 0.000177372

0.000187712 3.23151e-05 1.30388e-07
3.23151e-05 0.000216945 5.78868e-08
1.30388e-07 5.78868e-08 0.000227979

0.000237975 2.41885e-05 -7.30125e-08
2.41885e-05 0.000255268 2.73115e-08
-7.30125e-08 2.73115e-08 0.000251702

0.000213795 1.19256e-05 -1.3366e-08
1.19256e-05 0.000155782 8.47563e-08
-1.3366e-08 8.47563e-08 0.000179992

0.000221394 -1.60224e-05 -1.0017e-07
-1.60224e-05 0.000200969 1.73313e-07
-1.0017e-07 1.73313e-07 0.000215925

0.000226802 1.04797e-05 -5.2034e-08
1.04797e-05 0.000179612 1.86575e-07
-5.2034e-08 1.86575e-07 0.000201442

0.000169945 2.62776e-05 -7.01967e-08
2.62776e-05 0.000179306 -6.49903e-09
-7.01967e-08 -6.49903e-09 0.000170848

0.000194205 2.45745e-05 7.39532e-08
2.45745e-05 0.000183638 -3.41044e-08
7.39532e-08 -3.41044e-08 0.000191819

0.000162135 1.83435e-07 1.24061e-07
1.83435e-07 0.000246309 -2.96296e-08
1.24061e-07 -2.96296e-08 0.000211994

0.000198795 -1.07077e-05 2.06352e-08
-1.07077e-05 0.000241278 -6.19337e-08
2.06352e-08 -6.19337e-08 0.000221743

0.000175066 -3.11146e-05 -1.82095e-08
-3.11146e-05 0.000140639 -7.97215e-08
-1.82095e-08 -7.97215e-08 0.000149761

0.00020092 -4.18539e-05 -1.30521e-07
-4.18539e-05 0.000240682 7.40008e-08
-1.30521e-07 7.40008e-08 0.00022357

0.000171275 -3.69509e-05 8.41647e-08
-3.69509e-05 0.000189929 4.05406e-08
8.41647e-08 4.05406e-08 0.000172292

0.000193167 2.97226e-05 5.36184e-08
2.97226e-05 0.000193571 -5.06394e-08
5.36184e-08 -5.06394e-08 0.000179359

0.000225102 -1.37325e-05 1.04649e-08
-1.37325e-05 0.000193521 7.05968e-08
1.04649e-08 7.05968e-08 0.000203383

0.000263901 -1.1592e-06 3.64099e-09
-1.1592e-06 0.000181955 1.1583e-08
3.64099e-09 1.1583e-08 0.000231656

0.000256318 4.40578e-06 7.07639e-08
4.40578e-06 0.000186409 7.67893e-08
7.07639e-08 7.67893e-08 0.000230903

0.000146746 1.33506e-05 -6.31444e-09
1.33506e-05 0.000207871 2.68248e-08
-6.31444e-09 2.68248e-08 0.000175537

0.000199795 -3.30649e-05 -1.72648e-08
-3.30649e-05 0.000211408 -8.80842e-08
-1.72648e-08 -8.80842e-08 0.000196928

0.000125256 -4.79255e-06 -1.26468e-07
-4.79255e-06 0.00019592 8.5401e-08
-1.26468e-07 8.5401e-08 0.000153235

0.000141938 -5.50152e-06 -9.13456e-08
-5.50152e-06 0.000198952 -5.48254e-08
-9.13456e-08 -5.48254e-08 0.000157281

0.000192421 -7.81052e-06 -4.92479e-08
-7.81052e-06 0.000131214 -1.01478e-07
-4.92479e-08 -1.01478e-07 0.000154081

0.000180427 2.20587e-05 5.9058e-08
2.20587e-05 0.000171413 4.58224e-08
5.9058e-08 4.58224e-08 0.000159022

0.000186795 -3.76822e-05 -6.89948e-08
-3.76822e-05 0.000164819 9.7713e-08
-6.89948e-08 9.7713e-08 0.000172212

0.000311456 -9.72886e-06 -2.2324e-07
-9.72886e-06 0.000315343 1.85321e-07
-2.2324e-07 1.85321e-07 0.00025272

0.000253405 -3.43467e-05 3.74633e-07
-3.43467e-05 0.000295112 -2.099e-07
3.74633e-07 -2.099e-07 0.000271519

0.000208973 -2.28e-05 -2.20518e-08
-2.28e-05 0.000155312 -1.12355e-07
-2.20518e-08 -1.12355e-07 0.000178431

0.000224933 3.03716e-05 1.09355e-07
3.03716e-05 0.000234949 -1.11996e-07
1.09355e-07 -1.11996e-07 0.000227281

0.000238412 2.04279e-06 1.1834e-07
2.04279e-06 0.000174447 -5.33892e-08
1.1834e-07 -5.33892e-08 0.000218044

0.0001688 -2.7595e-05 -7.03461e-08
-2.7595e-05 0.0002154 1.11008e-07
-7.03461e-08 1.11008e-07 0.000179781

0.000177686 2.87873e-05 5.3227e-08
2.87873e-05 0.000250985 9.84809e-08
5.3227e-08 9.84809e-08 0.000232732

0.000247334 1.20325e-05 1.49683e-08
1.20325e-05 0.000263986 -1.63447e-07
1.49683e-08 -1.63447e-07 0.000260567

0.000200934 -3.9252e-05 4.81452e-08
-3.9252e-05 0.000217708 -1.49489e-07
4.81452e-08 -1.49489e-07 0.000223778

0.00024853 2.92274e-05 -3.89754e-08
2.92274e-05 0.000252328 -3.78948e-08
-3.89754e-08 -3.78948e-08 0.000254545

0.000173705 2.30052e-05 3.03863e-08
2.30052e-05 0.000222975 -1.08456e-07
3.03863e-08 -1.08456e-07 0.000210862

0.000257293 -2.47796e-06 -5.92483e-09
-2.47796e-06 0.000146326 -4.01084e-08
-5.92483e-09 -4.01084e-08 0.000232897

0.000200571 2.86519e-05 -1.63332e-08
2.86519e-05 0.000170251 -9.46103e-09
-1.63332e-08 -9.46103e-09 0.000176791

0.000201144 -4.43763e-05 -1.05554e-07
-4.43763e-05 0.000253789 -7.99016e-10
-1.05554e-07 -7.99016e-10 0.000226658

0.000200001 2.57364e-05 -1.32271e-08
2.57364e-05 0.000193024 3.16898e-08
-1.32271e-08 3.16898e-08 0.000185716

0.000163779 -2.50414e-05 1.64462e-08
-2.50414e-05 0.000178847 -3.16867e-08
1.64462e-08 -3.16867e-08 0.000152924

0.000197634 -3.64344e-05 -1.16816e-08
-3.64344e-05 0.00022605 -9.63213e-08
-1.16816e-08 -9.63213e-08 0.000208824

0.000145516 -1.59783e-05 5.71697e-08
-1.59783e-05 0.00020209 -1.918e-08
5.71697e-08 -1.918e-08 0.000163185

0.000169866 6.35675e-06 7.47241e-08
6.35675e-06 0.000203633 3.43781e-08
7.47241e-08 3.43781e-08 0.00016854

0.000195255 -1.58397e-05 -4.82644e-08
-1.58397e-05 0.000152172 -1.03485e-07
-4.82644e-08 -1.03485e-07 0.00016252

0.00018634 -3.26077e-05 -5.99638e-08
-3.26077e-05 0.000181341 -1.17495e-07
-5.99638e-08 -1.17495e-07 0.000177801

0.000162336 -1.46086e-06 1.25281e-07
-1.46086e-06 0.000231266 -5.41717e-08
1.25281e-07 -5.41717e-08 0.000194231

0.000198338 -5.88538e-06 1.16297e-08
-5.88538e-06 0.00023177 1.18913e-07
1.16297e-08 1.18913e-07 0.000202039

0.000147684 -3.296e-05 8.54454e-08
-3.296e-05 0.000168621 1.19473e-07
8.54454e-08 1.19473e-07 0.000148155

0.000164881 2.45815e-05 1.07629e-07
2.45815e-05 0.000172819 2.13441e-08
1.07629e-07 2.13441e-08 0.000153688

0.000243552 4.58686e-07 1.0498e-08
4.58686e-07 0.000173898 -6.71445e-08
1.0498e-08 -6.71445e-08 0.000234392

0.000241095 -5.7668e-06 3.09012e-08
-5.7668e-06 0.000175554 1.73974e-08
3.09012e-08 1.73974e-08 0.000231419

0.000230086 2.65487e-05 1.22706e-08
2.65487e-05 0.000237307 -6.9525e-08
1.22706e-08 -6.9525e-08 0.000231212

0.000208651 -4.40252e-05 5.89074e-09
-4.40252e-05 0.000258328 2.92553e-08
5.89074e-09 2.92553e-08 0.000235316

0.000203574 3.02884e-05 -9.56336e-08
3.02884e-05 0.000208154 -1.4079e-07
-9.56336e-08 -1.4079e-07 0.000216769

0.000164863 1.38621e-05 1.69441e-07
1.38621e-05 0.000133728 5.39419e-08
1.69441e-07 5.39419e-08 0.000138142

0.000176115 1.67084e-05 3.81012e-08
1.67084e-05 0.000216263 -5.74344e-08
3.81012e-08 -5.74344e-08 0.000184995

0.000266002 1.44446e-05 -3.3693e-07
1.44446e-05 0.000215862 3.26895e-08
-3.3693e-07 3.26895e-08 0.00024697

0.000254127 -2.63463e-05 -1.52751e-07
-2.63463e-05 0.000209245 4.56941e-08
-1.52751e-07 4.56941e-08 0.000233837

0.0002453 2.14222e-05 4.83704e-08
2.14222e-05 0.000209498 -3.94381e-08
4.83704e-08 -3.94381e-08 0.000228875

0.00023342 -3.11123e-05 2.03202e-07
-3.11123e-05 0.000196091 1.42964e-08
2.03202e-07 1.42964e-08 0.000217728

0.00010367 -1.59464e-05 1.23192e-07
-1.59464e-05 7.53079e-05 -1.38294e-07
1.23192e-07 -1.38294e-07 0.0001148

7.21051e-05 -1.86474e-05 1.33524e-07
-1.86474e-05 0.000108951 -1.25278e-07
1.33524e-07 -1.25278e-07 0.000116365

0.000147654 -2.06733e-05 5.40277e-08
-2.06733e-05 0.000211156 -9.87486e-09
5.40277e-08 -9.87486e-09 0.000178002

0.000301706 2.42287e-05 -3.14639e-08
2.42287e-05 0.000234912 -1.51893e-07
-3.14639e-08 -1.51893e-07 0.000265107

0.000287037 -3.55543e-05 -1.10029e-07
-3.55543e-05 0.000253463 -2.42699e-07
-1.10029e-07 -2.42699e-07 0.000248853

0.00022579 2.53631e-05 2.79492e-08
2.53631e-05 0.000200828 -6.06108e-08
2.79492e-08 -6.06108e-08 0.000208941

0.000167855 1.00836e-05 2.16274e-07
1.00836e-05 0.000130958 -7.95846e-08
2.16274e-07 -7.95846e-08 0.000137857

0.000196525 -3.03847e-05 8.25389e-08
-3.03847e-05 0.000244059 -5.63979e-08
8.25389e-08 -5.63979e-08 0.000219446

0.000169652 -1.40989e-05 1.46364e-09
-1.40989e-05 0.000244884 9.7305e-08
1.46364e-09 9.7305e-08 0.000214394

0.000178127 -3.59262e-05 -6.21883e-08
-3.59262e-05 0.000187104 2.81994e-08
-6.21883e-08 2.81994e-08 0.000169764

0.000194322 -2.94683e-05 -4.13051e-08
-2.94683e-05 0.000217245 1.13096e-07
-4.13051e-08 1.13096e-07 0.000227425

0.000211794 -3.4235e-05 -1.03068e-07
-3.4235e-05 0.000188176 -1.24083e-07
-1.03068e-07 -1.24083e-07 0.000199093

0.000167168 4.39604e-05 7.47115e-08
4.39604e-05 0.000229428 1.4311e-07
7.47115e-08 1.4311e-07 0.000227208

0.000250679 1.08425e-05 -3.62756e-08
1.08425e-05 0.000264128 -1.60096e-07
-3.62756e-08 -1.60096e-07 0.000260187

0.000223087 1.81693e-05 1.74743e-07
1.81693e-05 0.00025218 9.05353e-08
1.74743e-07 9.05353e-08 0.000237434

0.000195059 -3.25282e-05 -6.09103e-08
-3.25282e-05 0.000211803 -8.48713e-08
-6.09103e-08 -8.48713e-08 0.000214085

0.000188957 3.19384e-05 -9.15991e-08
3.19384e-05 0.000215347 -6.78897e-08
-9.15991e-08 -6.78897e-08 0.000213814

0.000194917 2.08876e-05 4.57704e-08
2.08876e-05 0.00015669 -7.2034e-08
4.57704e-08 -7.2034e-08 0.000167531

0.000221581 -2.24005e-07 -1.4845e-08
-2.24005e-07 0.000166748 8.55667e-08
-1.4845e-08 8.55667e-08 0.000192976

0.000256338 2.19889e-05 -7.77384e-08
2.19889e-05 0.000254717 2.68825e-08
-7.77384e-08 2.68825e-08 0.00025748

0.000182499 -3.54656e-05 9.8671e-08
-3.54656e-05 0.000233311 -6.03369e-08
9.8671e-08 -6.03369e-08 0.000202604

0.00015029 4.77244e-06 -2.10378e-09
4.77244e-06 0.000228048 1.49221e-08
-2.10378e-09 1.49221e-08 0.000188663

0.000235285 3.27096e-05 5.19197e-08
3.27096e-05 0.000206439 -3.99519e-08
5.19197e-08 -3.99519e-08 0.000221908

0.000186845 1.32903e-06 -4.53085e-08
1.32903e-06 0.000227524 1.45724e-07
-4.53085e-08 1.45724e-07 0.000198721

0.000177419 -2.4641e-05 -2.33569e-08
-2.4641e-05 0.000247644 6.05717e-08
-2.33569e-08 6.05717e-08 0.000231951

0.000124896 -2.13141e-05 -6.16999e-08
-2.13141e-05 0.000136424 -1.48507e-07
-6.16999e-08 -1.48507e-07 0.000120155

0.000137917 -2.09489e-05 1.2772e-07
-2.09489e-05 0.000123661 4.44104e-08
1.2772e-07 4.44104e-08 0.000119531

0.000234882 7.48985e-06 -1.18034e-07
7.48985e-06 0.000171221 2.50308e-08
-1.18034e-07 2.50308e-08 0.000208582

0.000213049 -3.84138e-05 -1.9712e-07
-3.84138e-05 0.000194404 -4.36666e-08
-1.9712e-07 -4.36666e-08 0.000210048

0.000327121 2.08828e-05 -2.08337e-07
2.08828e-05 0.000251777 5.8364e-07
-2.08337e-07 5.8364e-07 0.000272916

0.000330823 -5.51618e-06 6.79366e-07
-5.51618e-06 0.000287209 2.34615e-07
6.79366e-07 2.34615e-07 0.000253496

0.000179592 -2.77962e-05 1.87924e-08
-2.77962e-05 0.000220112 -4.59519e-08
1.87924e-08 -4.59519e-08 0.000211819

0.000240717 -8.21882e-06 5.58092e-08
-8.21882e-06 0.000255054 -2.30156e-07
5.58092e-08 -2.30156e-07 0.000246297

0.000234601 2.88587e-05 -3.00004e-08
2.88587e-05 0.000266533 1.28457e-07
-3.00004e-08 1.28457e-07 0.000246604

0.000247866 2.3897e-06 -2.52922e-09
2.3897e-06 0.000167902 7.14232e-09
-2.52922e-09 7.14232e-09 0.000207361

0.000197654 -4.74789e-05 -2.91588e-08
-4.74789e-05 0.000252201 1.11359e-07
-2.91588e-08 1.11359e-07 0.000226191

0.000138296 1.58999e-05 -3.62882e-08
1.58999e-05 0.000139997 1.22759e-07
-3.62882e-08 1.22759e-07 0.00012862

0.000134248 1.52266e-05 -1.67172e-07
1.52266e-05 0.000133922 3.82192e-08
-1.67172e-07 3.82192e-08 0.000126183

0.000120686 -1.81887e-05 8.35667e-09
-1.81887e-05 0.000163391 1.86702e-07
8.35667e-09 1.86702e-07 0.000134334

0.000137203 9.15005e-06 -5.44341e-08
9.15005e-06 0.000168806 -1.35018e-07
-5.44341e-08 -1.35018e-07 0.000139098

0.000162374 -1.55812e-05 -4.1102e-08
-1.55812e-05 0.000122888 -5.89164e-08
-4.1102e-08 -5.89164e-08 0.000134629

0.000173504 -4.35447e-05 -6.03927e-08
-4.35447e-05 0.0002268 8.19196e-08
-6.03927e-08 8.19196e-08 0.000226898

0.000106741 1.01709e-06 1.28276e-07
1.01709e-06 0.000156311 -9.9898e-08
1.28276e-07 -9.9898e-08 0.000126422

0.000155866 1.55195e-06 5.83334e-09
1.55195e-06 0.000113797 -1.53845e-07
5.83334e-09 -1.53845e-07 0.000128467

0.000230426 2.32651e-06 -7.10128e-08
2.32651e-06 0.000278443 1.9148e-07
-7.10128e-08 1.9148e-07 0.000243959

0.000245061 -2.50531e-05 -1.39917e-07
-2.50531e-05 0.000271959 -2.82131e-07
-1.39917e-07 -2.82131e-07 0.000253967

0.000240571 9.99499e-06 -1.48122e-07
9.99499e-06 0.000198343 1.73508e-08
-1.48122e-07 1.73508e-08 0.000220068

0.000261114 1.8611e-06 7.93812e-09
1.8611e-06 0.000170503 4.66034e-10
7.93812e-09 4.66034e-10 0.000223043

0.000144759 -2.32779e-05 9.76316e-08
-2.32779e-05 0.000185721 2.91861e-08
9.76316e-08 2.91861e-08 0.000159589

0.00016235 1.50747e-05 1.04881e-07
1.50747e-05 0.000193538 -1.96479e-09
1.04881e-07 -1.96479e-09 0.000165101

0.000247986 2.00197e-06 1.69132e-08
2.00197e-06 0.00016855 -9.89713e-08
1.69132e-08 -9.89713e-08 0.000208308

0.000169449 -2.44614e-05 2.96493e-09
-2.44614e-05 0.000221085 -3.35988e-08
2.96493e-09 -3.35988e-08 0.000201428

0.000284834 1.40537e-05 1.1199e-07
1.40537e-05 0.000234361 1.71613e-08
1.1199e-07 1.71613e-08 0.000259672

0.00026959 -1.93522e-05 -1.55425e-07
-1.93522e-05 0.000239506 -1.89201e-07
-1.55425e-07 -1.89201e-07 0.000244741

0.000214444 2.28713e-05 -5.16803e-09
2.28713e-05 0.000212726 -2.2172e-07
-5.16803e-09 -2.2172e-07 0.000218659

0.000195322 -4.02822e-05 7.04009e-09
-4.02822e-05 0.000240811 -8.5261e-09
7.04009e-09 -8.5261e-09 0.000213501

0.000240851 1.03701e-05 -1.35206e-07
1.03701e-05 0.000176727 1.49533e-07
-1.35206e-07 1.49533e-07 0.000215154

0.000164696 2.09894e-05 1.02119e-07
2.09894e-05 0.000158226 -5.95202e-08
1.02119e-07 -5.95202e-08 0.000151514

0.000195173 -4.34456e-05 2.37058e-08
-4.34456e-05 0.000238006 -1.05991e-09
2.37058e-08 -1.05991e-09 0.000212099

0.000103221 3.84371e-05 1.67486e-08
3.84371e-05 0.000104117 4.17311e-08
1.67486e-08 4.17311e-08 0.000106006

0.000176097 -1.57141e-05 -8.2663e-08
-1.57141e-05 0.000227432 7.86252e-08
-8.2663e-08 7.86252e-08 0.000194202

0.000154916 -9.07886e-06 1.69241e-08
-9.07886e-06 0.00022682 -9.234e-08
1.69241e-08 -9.234e-08 0.000189404

0.000221295 -3.79381e-06 -7.55846e-09
-3.79381e-06 0.000293609 2.60292e-08
-7.55846e-09 2.60292e-08 0.000245076

0.000252292 -1.9804e-05 -1.03795e-07
-1.9804e-05 0.00026864 8.82358e-08
-1.03795e-07 8.82358e-08 0.000260474

0.000268028 1.06079e-05 2.61523e-08
1.06079e-05 0.000158419 -4.6614e-08
2.61523e-08 -4.6614e-08 0.000242715

0.000261896 -1.62697e-05 1.24947e-08
-1.62697e-05 0.000167958 4.11863e-08
1.24947e-08 4.11863e-08 0.000236549

0.000219277 3.28365e-05 2.32248e-07
3.28365e-05 0.000220568 -1.17136e-07
2.32248e-07 -1.17136e-07 0.000230378

0.00022216 -2.1572e-05 1.34842e-07
-2.1572e-05 0.000231455 -1.04816e-07
1.34842e-07 -1.04816e-07 0.000231352

0.000237103 2.5682e-05 1.13191e-09
2.5682e-05 0.000247699 -5.17729e-09
1.13191e-09 -5.17729e-09 0.000244762

0.000235841 -1.77094e-05 1.34135e-07
-1.77094e-05 0.00026252 1.02948e-07
1.34135e-07 1.02948e-07 0.000244125

0.000317152 2.40266e-05 4.0607e-07
2.40266e-05 0.000251444 5.47698e-07
4.0607e-07 5.47698e-07 0.000272379

0.000299282 -3.32422e-05 -2.9321e-07
-3.32422e-05 0.000284073 1.7772e-07
-2.9321e-07 1.7772e-07 0.000251951

0.000276168 2.49601e-05 -3.4099e-09
2.49601e-05 0.000249153 -3.01407e-08
-3.4099e-09 -3.01407e-08 0.000264102

0.000203427 -4.7237e-05 -2.38968e-08
-4.7237e-05 0.000224041 1.09586e-07
-2.38968e-08 1.09586e-07 0.000233569

0.000226268 2.64859e-05 1.06278e-08
2.64859e-05 0.000183815 9.75286e-09
1.06278e-08 9.75286e-09 0.000203265

0.000196968 -2.95103e-05 8.03051e-08
-2.95103e-05 0.00023512 -7.17642e-08
8.03051e-08 -7.17642e-08 0.00020592

0.000168908 -1.76398e-05 -2.34882e-08
-1.76398e-05 0.000228904 -4.84294e-08
-2.34882e-08 -4.84294e-08 0.000202274

0.000172468 -2.63534e-05 4.74011e-08
-2.63534e-05 0.000166596 6.91219e-10
4.74011e-08 6.91219e-10 0.000150365

0.000212019 -3.50346e-05 -5.24733e-08
-3.50346e-05 0.00017597 1.09692e-07
-5.24733e-08 1.09692e-07 0.000195685

0.000168428 1.23659e-05 -1.90213e-07
1.23659e-05 0.00023117 -7.44079e-08
-1.90213e-07 -7.44079e-08 0.000200818

0.00021417 3.50628e-05 -9.75084e-08
3.50628e-05 0.000198392 -4.34463e-08
-9.75084e-08 -4.34463e-08 0.000201487

0.000190935 5.13354e-05 -2.95336e-08
5.13354e-05 0.000228753 6.86976e-09
-2.95336e-08 6.86976e-09 0.000234834

0.000205868 -4.20783e-05 -4.70639e-08
-4.20783e-05 0.000251796 -1.98101e-08
-4.70639e-08 -1.98101e-08 0.00023307

0.000194234 -3.92631e-05 -6.0918e-08
-3.92631e-05 0.000186951 -1.1668e-07
-6.0918e-08 -1.1668e-07 0.000191612

0.000246927 -2.61637e-06 -1.31016e-07
-2.61637e-06 0.000207247 1.62446e-07
-1.31016e-07 1.62446e-07 0.000223132

0.00026643 -1.32111e-05 -1.78349e-07
-1.32111e-05 0.000289836 2.62862e-07
-1.78349e-07 2.62862e-07 0.000267586

0.000313408 -1.34746e-05 6.4726e-08
-1.34746e-05 0.000303671 -5.3617e-08
6.4726e-08 -5.3617e-08 0.000252273

0.000186534 -1.5543e-05 8.39451e-08
-1.5543e-05 0.000238993 4.10182e-08
8.39451e-08 4.10182e-08 0.000221695

0.000214308 2.12504e-05 8.51931e-09
2.12504e-05 0.000193677 -3.76198e-08
8.51931e-09 -3.76198e-08 0.00021295

0.000255411 -1.50574e-06 1.2328e-07
-1.50574e-06 0.000219393 -4.72369e-08
1.2328e-07 -4.72369e-08 0.00023812

0.000122723 -2.67259e-05 3.45349e-08
-2.67259e-05 0.000141792 -6.19652e-08
3.45349e-08 -6.19652e-08 0.000122901

0.000139273 -2.43765e-05 3.98094e-08
-2.43765e-05 0.000122172 -5.5425e-08
3.98094e-08 -5.5425e-08 0.000123526

0.00026759 -1.52574e-06 4.01064e-08
-1.52574e-06 0.000189229 -6.39419e-08
4.01064e-08 -6.39419e-08 0.000246927

0.000263344 -5.15557e-06 -4.4244e-08
-5.15557e-06 0.000191525 -2.38221e-08
-4.4244e-08 -2.38221e-08 0.000238259

0.000264885 5.29971e-06 2.76717e-09
5.29971e-06 0.000214707 8.5833e-09
2.76717e-09 8.5833e-09 0.000238638

0.000212269 1.39238e-05 -1.62319e-07
1.39238e-05 0.000232176 5.85146e-08
-1.62319e-07 5.85146e-08 0.000213861

0.000213998 1.80537e-05 -1.49879e-08
1.80537e-05 0.000178129 -1.02668e-08
-1.49879e-08 -1.02668e-08 0.000186885

0.000255629 2.52386e-05 1.30297e-07
2.52386e-05 0.000231308 -1.78588e-07
1.30297e-07 -1.78588e-07 0.000243793

0.000235325 -3.27557e-05 1.60128e-07
-3.27557e-05 0.000212725 4.10192e-09
1.60128e-07 4.10192e-09 0.000227585

0.00027352 -3.51843e-06 -1.72746e-07
-3.51843e-06 0.000252035 6.2876e-08
-1.72746e-07 6.2876e-08 0.000254536

0.000263007 3.5497e-05 3.05704e-08
3.5497e-05 0.000312315 -1.76008e-07
3.05704e-08 -1.76008e-07 0.000254934

0.000179156 -2.82153e-05 3.00218e-08
-2.82153e-05 0.000229974 1.92775e-08
3.00218e-08 1.92775e-08 0.000219966

0.000220631 1.84809e-05 2.18411e-08
1.84809e-05 0.00018484 -2.66587e-08
2.18411e-08 -2.66587e-08 0.000200222

0.00026406 1.64809e-05 -1.64897e-07
1.64809e-05 0.000213728 -1.52355e-07
-1.64897e-07 -1.52355e-07 0.000246768

0.000253988 -2.29334e-05 -2.30083e-08
-2.29334e-05 0.000216668 1.83797e-07
-2.30083e-08 1.83797e-07 0.000235386

0.00021197 -3.88443e-05 -9.98288e-08
-3.88443e-05 0.000248356 7.04061e-08
-9.98288e-08 7.04061e-08 0.000225579

0.000203056 -4.97868e-05 5.75542e-08
-4.97868e-05 0.000252824 9.67794e-08
5.75542e-08 9.67794e-08 0.000226729

0.00010802 4.59413e-05 1.37734e-07
4.59413e-05 0.000113075 -1.68029e-07
1.37734e-07 -1.68029e-07 0.000107979

0.00020303 3.47911e-05 -2.47202e-08
3.47911e-05 0.000246325 -2.82655e-09
-2.47202e-08 -2.82655e-09 0.000238399

0.000214431 -3.11564e-05 9.38709e-09
-3.11564e-05 0.000260853 9.4793e-08
9.38709e-09 9.4793e-08 0.000237423

0.000195151 -4.27537e-05 4.22844e-08
-4.27537e-05 0.000247575 1.15817e-07
4.22844e-08 1.15817e-07 0.000221548

0.000210272 -2.90419e-05 -4.79084e-08
-2.90419e-05 0.000167965 1.06268e-07
-4.79084e-08 1.06268e-07 0.000182615

0.000221637 -1.89621e-05 -9.30606e-08
-1.89621e-05 0.000228222 4.63929e-08
-9.30606e-08 4.63929e-08 0.000220322

0.000219122 3.28491e-05 1.43251e-07
3.28491e-05 0.000222246 1.83368e-07
1.43251e-07 1.83368e-07 0.000233172

0.000218278 -2.69583e-05 1.4595e-07
-2.69583e-05 0.000246023 -6.29429e-08
1.4595e-07 -6.29429e-08 0.000232528

0.000246926 -2.367e-06 -1.30654e-07
-2.367e-06 0.00017935 1.65654e-08
-1.30654e-07 1.65654e-08 0.000218033

0.000270851 9.6426e-06 6.25158e-08
9.6426e-06 0.000219681 4.7439e-08
6.25158e-08 4.7439e-08 0.000254769

0.000263142 -9.26902e-06 -9.79158e-08
-9.26902e-06 0.000237413 2.42945e-07
-9.79158e-08 2.42945e-07 0.000243331

0.000256941 -1.36951e-05 2.97341e-07
-1.36951e-05 0.000300609 -2.20303e-07
2.97341e-07 -2.20303e-07 0.000266414

0.000248986 1.02868e-05 -1.76685e-07
1.02868e-05 0.000321864 1.91588e-07
-1.76685e-07 1.91588e-07 0.000250706

0.000117072 3.7338e-06 1.32726e-07
3.7338e-06 7.99952e-05 -1.02742e-07
1.32726e-07 -1.02742e-07 0.000115876

8.18477e-05 3.42037e-06 -1.51782e-08
3.42037e-06 0.000113494 -1.72956e-07
-1.51782e-08 -1.72956e-07 0.000113771

0.000249319 3.20409e-05 -1.39026e-07
3.20409e-05 0.000241006 -3.22271e-08
-1.39026e-07 -3.22271e-08 0.000246297

0.000215008 -3.20839e-05 8.72766e-08
-3.20839e-05 0.000214764 -1.02773e-07
8.72766e-08 -1.02773e-07 0.000225962

0.00018631 -3.05167e-05 -1.06826e-08
-3.05167e-05 0.00022289 7.49414e-08
-1.06826e-08 7.49414e-08 0.000225721

0.000101583 1.09947e-05 1.41357e-07
1.09947e-05 0.000102662 -1.29246e-07
1.41357e-07 -1.29246e-07 0.000112763

0.000101677 1.20214e-05 1.11996e-07
1.20214e-05 0.000102682 -1.72031e-07
1.11996e-07 -1.72031e-07 0.000113857

0.000312235 8.42986e-06 -3.89277e-07
8.42986e-06 0.00032789 -7.36238e-07
-3.89277e-07 -7.36238e-07 0.000254195

0.000311056 7.4439e-06 6.25835e-08
7.4439e-06 0.000289455 3.37511e-07
6.25835e-08 3.37511e-07 0.000272314

0.000206607 -2.81658e-05 -2.24168e-07
-2.81658e-05 0.000223457 -6.54386e-08
-2.24168e-07 -6.54386e-08 0.000217253

0.000194012 -3.52739e-05 6.33841e-08
-3.52739e-05 0.000201243 9.58925e-08
6.33841e-08 9.58925e-08 0.000196659

0.000250327 3.38986e-05 -1.39929e-07
3.38986e-05 0.000223732 -3.79916e-08
-1.39929e-07 -3.79916e-08 0.000238988

0.000218018 -4.0142e-05 7.60961e-08
-4.0142e-05 0.000209723 -3.9595e-08
7.60961e-08 -3.9595e-08 0.000222176

0.0001938 -3.70266e-05 -1.65221e-08
-3.70266e-05 0.00020627 2.0193e-07
-1.65221e-08 2.0193e-07 0.000207866

0.000218382 2.7411e-05 -1.1145e-07
2.7411e-05 0.000212256 -1.94275e-08
-1.1145e-07 -1.94275e-08 0.000207925

0.000123418 -1.24786e-05 -1.13703e-07
-1.24786e-05 0.000166284 1.53642e-07
-1.13703e-07 1.53642e-07 0.000135818

0.000137581 7.32681e-06 -7.3288e-08
7.32681e-06 0.00016927 -1.32586e-07
-7.3288e-08 -1.32586e-07 0.00013925

0.000163863 -1.1309e-05 -5.04185e-08
-1.1309e-05 0.000130786 -1.01615e-07
-5.04185e-08 -1.01615e-07 0.000137062

0.000227014 3.64704e-05 -2.0994e-08
3.64704e-05 0.000220385 1.1167e-07
-2.0994e-08 1.1167e-07 0.000221898

0.000118924 -8.63352e-06 9.81964e-08
-8.63352e-06 0.000157737 7.19179e-08
9.81964e-08 7.19179e-08 0.000128146

0.000153996 -6.03808e-06 7.29595e-08
-6.03808e-06 0.00011417 -1.92309e-07
7.29595e-08 -1.92309e-07 0.000125119

0.000268231 2.6565e-05 -6.6422e-08
2.6565e-05 0.000238184 -1.81991e-08
-6.6422e-08 -1.81991e-08 0.000254786

0.000232423 -3.78936e-05 -1.17755e-07
-3.78936e-05 0.000216445 -5.92782e-08
-1.17755e-07 -5.92782e-08 0.000233106

0.000265026 3.25222e-05 1.8071e-08
3.25222e-05 0.000235403 -3.11161e-07
1.8071e-08 -3.11161e-07 0.000253206

0.00023224 -3.67164e-05 -3.18953e-08
-3.67164e-05 0.000226615 2.33822e-07
-3.18953e-08 2.33822e-07 0.000234498

9.94881e-05 1.3617e-05 -7.88579e-10
1.3617e-05 0.000100495 -1.90221e-07
-7.88579e-10 -1.90221e-07 0.000111063

0.000100115 1.39931e-05 1.23575e-07
1.39931e-05 0.000100239 5.02486e-08
1.23575e-07 5.02486e-08 0.000109825

0.000235823 2.93062e-05 3.72808e-08
2.93062e-05 0.000224607 8.91448e-08
3.72808e-08 8.91448e-08 0.000228426

0.000213626 -3.51324e-05 -1.77685e-07
-3.51324e-05 0.000204826 1.404e-07
-1.77685e-07 1.404e-07 0.000213773

0.000254835 -2.25695e-05 2.83427e-07
-2.25695e-05 0.000271636 -3.06784e-07
2.83427e-07 -3.06784e-07 0.000260179

0.000244018 -8.54854e-06 -1.7572e-07
-8.54854e-06 0.000279663 1.97577e-07
-1.7572e-07 1.97577e-07 0.000246726

0.000270897 3.28349e-05 -2.71686e-08
3.28349e-05 0.000251364 4.40394e-08
-2.71686e-08 4.40394e-08 0.000263096

0.0002133 -2.96124e-05 -9.59505e-08
-2.96124e-05 0.000244074 -9.6579e-08
-9.59505e-08 -9.6579e-08 0.000237066

0.000284425 1.74208e-05 1.11642e-07
1.74208e-05 0.000206961 2.03255e-08
1.11642e-07 2.03255e-08 0.000255248

0.000268182 -2.70319e-05 -1.0857e-07
-2.70319e-05 0.00021627 2.37065e-07
-1.0857e-07 2.37065e-07 0.000242485

0.000200515 3.03894e-05 5.80442e-08
3.03894e-05 0.000222414 1.85969e-07
5.80442e-08 1.85969e-07 0.000225696

0.000207767 -3.49115e-05 -2.22691e-07
-3.49115e-05 0.00024579 -6.83946e-08
-2.22691e-07 -6.83946e-08 0.000225088

0.000256189 -2.38943e-05 -9.56226e-08
-2.38943e-05 0.000261431 2.60537e-07
-9.56226e-08 2.60537e-07 0.000249398

0.000244167 -2.19565e-05 -1.96617e-07
-2.19565e-05 0.000295877 2.67603e-07
-1.96617e-07 2.67603e-07 0.000259565

0.000298755 2.46151e-05 3.30797e-09
2.46151e-05 0.000226505 3.34004e-09
3.30797e-09 3.34004e-09 0.000262601

0.000315843 8.14835e-06 2.50704e-07
8.14835e-06 0.000242348 -2.256e-07
2.50704e-07 -2.256e-07 0.000268514

0.00028808 -2.61776e-05 1.36312e-07
-2.61776e-05 0.000248766 6.84893e-08
1.36312e-07 6.84893e-08 0.00024879

0.00030897 -6.61372e-06 -2.35333e-07
-6.61372e-06 0.000267086 -2.75431e-07
-2.35333e-07 -2.75431e-07 0.000252056

0.000231888 -6.15115e-06 -4.87729e-08
-6.15115e-06 0.000305362 -2.41529e-08
-4.87729e-08 -2.41529e-08 0.00024809

0.00026345 4.50711e-05 -2.965e-08
4.50711e-05 0.000261878 -2.6032e-08
-2.965e-08 -2.6032e-08 0.000250114

0.000326284 2.68998e-05 -3.71878e-07
2.68998e-05 0.000257133 -5.89952e-07
-3.71878e-07 -5.89952e-07 0.000278544

0.000328883 2.59059e-05 3.14516e-06
2.59059e-05 0.000253228 -2.2814e-06
3.14516e-06 -2.2814e-06 0.000278245

0.000349708 1.53017e-05 4.50857e-07
1.53017e-05 0.000329719 1.3108e-07
4.50857e-07 1.3108e-07 0.00025438

0.00026905 -2.70716e-05 5.51219e-07
-2.70716e-05 0.000286297 -8.35637e-07
5.51219e-07 -8.35637e-07 0.000250248

0.000320847 1.98682e-05 -1.10537e-08
1.98682e-05 0.000248309 -4.30192e-08
-1.10537e-08 -4.30192e-08 0.000275116

0.000289154 1.598e-05 8.77779e-08
1.598e-05 0.000257057 2.24268e-08
8.77779e-08 2.24268e-08 0.000268682

0.000317816 2.60366e-05 1.28468e-07
2.60366e-05 0.000256173 -6.89111e-07
1.28468e-07 -6.89111e-07 0.000276019

0.000286732 -3.11374e-05 -1.19492e-07
-3.11374e-05 0.000257997 1.8102e-07
-1.19492e-07 1.8102e-07 0.000248538

0.000290427 -1.67022e-05 -2.05037e-07
-1.67022e-05 0.00031245 -2.15116e-07
-2.05037e-07 -2.15116e-07 0.000252812

0.000259155 -1.45472e-05 2.12216e-07
-1.45472e-05 0.000248118 -3.86364e-08
2.12216e-07 -3.86364e-08 0.000243504

0.00029098 2.65173e-05 8.8551e-08
2.65173e-05 0.00024108 3.19025e-08
8.8551e-08 3.19025e-08 0.000265576

0.000303683 1.50177e-05 -5.81304e-08
1.50177e-05 0.000247011 7.75838e-08
-5.81304e-08 7.75838e-08 0.00026837

0.000262561 -3.54144e-05 2.04349e-07
-3.54144e-05 0.000248153 5.77732e-08
2.04349e-07 5.77732e-08 0.000245274

0.000291502 -1.61171e-05 -8.5606e-08
-1.61171e-05 0.000257365 -3.25274e-08
-8.5606e-08 -3.25274e-08 0.000249447

SCALARS pressure float
LOOKUP_TABLE default
-1.21124
-0.0370113
0.0342669
-0.0246315
-1.01144
2.21177
2.24291
-1.14023
0.683228
-2.20956
-2.44065
-2.36783
1.3406
1.29428
-0.0118966
0.6032
2.30652
2.29888
-0.192893
-2.61913
-2.73487
-2.92149
-0.927259
-1.03001
-0.616974
-1.25622
-0.0165594
-4.92025
0.808988
-4.95
1.51783
1.53702
5.24693
5.2695
-2.94888
0.261088
1.89636
2.06982
0.685082
-1.12577
-1.57758
0.597226
-0.978818
-1.24567
0.406797
-1.62283
-4.78222
-4.76948
1.48382
-6.48949
-6.2232
1.64846
1.65967
-0.0803601
2.10907
2.11294
-0.176581
4.26377
4.28613
0.892388
0.904826
-2.47585
4.05132
4.03546
-1.10572
-5.16545
-5.10559
0.437907
0.574543
7.02314
7.01971
0.641388
0.532477
0.511072
0.954399
1.35188
-2.33832
-1.60924
2.42301
7.4761
7.3988
-2.8012
-0.104292
-0.586545
5.50856
5.49687
2.56055
0.106904
0.0707535
0.518948
0.549368
-2.98483
-1.21229
1.20991
1.21979
-0.643237
-1.28866
0.295652
0.3333
-0.0885553
0.45595
-1.68935
0.70164
0.46066
-1.25326
1.20516
-0.354374
-1.0822
-0.0414725
1.04956
1.03552
-2.4367
0.966283
-1.7476
-1.73642
-0.313049
1.69634
1.54789
-1.0304
-0.656189
-1.93621
-2.02839
-2.23977
-3.0834
-1.28512
7.50188
7.47517
-1.2042
-0.256901
-0.113867
-1.0623
1.21488
1.39531
0.464485
0.374864
-0.0458151
0.571678
-1.32757
0.714181
-1.60869
-2.94073
0.22555
-2.67645
-2.64005
-2.88063
-1.65647
-1.23665
-1.21348
-2.64166
-2.48002
0.802442
0.807903
-0.147411
1.20196
0.866756
-3.61241
-1.25269
1.28896
1.27314
-0.0769522
-0.0547542
-8.90498
-8.84228
-1.1532
3.35225
3.35349
-0.737934
-3.55998
-1.21847
0.724102
0.650423
-1.52902
0.381827
-0.787527
0.758526
1.40314
1.47663
-0.121692
0.00996932
-1.52075
0.447228
-0.0151489
-0.50077
0.166872
-0.59297
0.982563
-4.42039
-4.41997
0.158887
-0.204764
5.53958
5.54077
-0.192728
3.89667
3.94929
-0.139607
0.726
-3.59526
-3.35216
-4.25492
-4.25936
-4.45114
0.409842
-3.59969
-3.7831
2.82852
2.82857
0.0640227
0.846586
-1.9978
-1.96456
0.00203563
-0.136213
2.25844
2.26999
0.315465
0.0404381
0.759663
-2.23366
-0.0142612
-5.17105
-0.501332
-0.584077
3.64032
3.6403
1.01915
1.02922
2.10249
2.00915
2.79188
2.77709
4.7311
4.73191
0.862089
0.875218
-0.406838
-0.661563
-0.750616
-3.09107
-0.451465
-0.656845
-0.732217
1.51372
1.53477
-0.730267
0.309709
8.01231
8.00602
0.117077
1.07073
1.74042
-4.48823
-4.48356
1.36348
1.37763
1.80234
-0.750185
-1.76801
0.513301
0.523484
8.44551
8.23471
0.4825
-0.639349
1.08429
1.07077
0.259308
0.606667
-5.26068
1.70129
1.71563
0.670479
-1.77277
0.367339
1.53032
1.5582
1.04425
1.88223
1.87437
5.32825
5.32528
-8.71922
-8.30123
0.277946
0.283353
0.423167
-6.78924
-6.75356
6.21416
6.2133
0.929444
-0.725151
0.594789
0.603438
-0.146351
-0.705031
-4.26172
-3.90337
-4.41147
-0.159003
-3.84745
-3.80423
1.06394
1.06474
1.21739
1.22444
-6.96261
-6.86424
-0.1767
-0.198345
4.2211
4.20576
1.11542
1.13012
2.43953
2.44061
0.767017
0.751722
4.68353
3.38696
4.9392
3.3901
4.93975
4.66576
5.00541
5.0186
4.87277
4.40506
4.40058
4.87604
3.47278
1.7846
5.75661
3.47876
5.7549
1.79069
2.78544
3.55796
2.78851
3.56536
0.237962
0.655367
0.337264
-0.645764
2.40832
2.04066
-0.532472
1.44917
-2.57119
-3.02583
-3.04796
1.22132
1.53619
-0.286819
1.99362
2.46516
0.129483
-2.44569
-2.58911
-2.88255
-1.12142
-0.753175
0.501597
-5.07167
1.42363
1.75923
1.40578
3.3233
4.34487
-0.0867125
-0.919903
-2.37277
1.67215
1.83469
1.98372
-0.457341
1.84774
-1.54534
-0.538974
-1.34283
-1.17523
-0.941879
1.14011
0.725723
-1.0746
-1.02286
-12.9257
-13.1287
1.9977
1.62543
0.00419047
-8.159
-8.39825
2.58616
2.25806
0.141825
2.59755
2.85309
0.320012
3.10104
3.83895
1.51402
1.40562
3.01839
4.3028
-4.91851
-4.91296
0.634432
1.04706
5.66728
8.03664
-1.18998
1.01523
1.02442
2.54122
-2.2747
4.7636
3.21999
0.138409
-0.40898
-2.76898
3.44927
5.70262
2.05117
0.334843
0.718092
0.973306
0.935066
-3.03026
-0.994673
1.69712
1.68133
-0.227644
0.609975
0.484512
0.234663
-1.5093
0.889054
1.62781
1.98798
0.663396
-1.18309
-4.49601
1.03259
-0.0155406
-4.36155
0.0413336
0.97299
1.18077
-1.12061
-2.79634
1.46751
0.931271
-1.53769
-1.72122
0.0462395
2.50663
2.65602
-1.19218
-0.281692
-2.27145
-2.49303
-2.72271
-1.01712
7.59306
2.47541
-1.31881
-1.0639
-3.86973
0.907922
-0.00101667
0.109667
-0.707946
2.26016
1.49791
-2.89176
-3.23324
-3.87436
0.658207
2.3074
0.86176
2.05532
0.778683
0.726835
-2.15072
-2.40273
-2.43837
-1.14923
-0.945049
-0.510728
-3.11071
-2.86539
0.732024
0.766134
1.01806
0.103184
2.22563
1.37838
1.02201
-0.850356
1.78054
2.09598
-0.205529
0.600329
0.190983
-6.53155
-1.55048
-7.01203
-1.1213
3.98669
4.2532
-0.562419
-0.90847
-1.33688
0.846637
0.872357
1.58898
1.37574
0.815091
2.57132
0.314274
-0.404659
0.828335
0.585032
-1.62364
0.0884625
-0.365448
-6.91254
-6.85279
-2.94531
0.176501
5.96527
6.36923
2.55622
4.00836
0.815382
0.849198
2.40651
-5.4392
-5.12611
-4.30595
-4.38279
-4.46674
-2.43282
-5.14621
-5.0337
1.94229
3.02048
0.717644
2.61319
-2.09126
-1.90018
0.619603
3.00104
2.9708
0.617067
0.676562
0.19072
1.24469
0.835437
0.157079
-13.5134
-0.419113
-0.443938
2.22062
3.78056
1.4352
1.39865
1.68719
2.0809
1.70531
2.28009
5.87629
4.40052
1.39974
2.73536
-0.091166
0.104379
-0.1005
-0.432476
0.0534704
-0.493693
-0.503849
2.23629
1.48731
0.732798
2.88088
8.2429
1.07104
2.10094
-6.52006
-6.26276
1.75855
1.59947
1.35882
0.0334705
-1.64406
1.58155
0.894504
2.96894
7.41835
-0.119754
1.47657
1.44865
0.469837
1.05279
1.95268
0.735355
-13.9587
1.93919
1.72849
1.33709
0.797467
-1.34475
0.748267
1.40371
1.48704
1.35261
2.05304
2.24379
5.45579
3.73529
-7.42655
-7.07558
0.612611
1.62057
-9.01961
-8.75263
7.88994
7.14462
0.827969
1.07519
1.44615
-0.450371
-0.175304
-4.18185
-4.24623
-4.46755
0.173423
0.688231
-5.47593
-5.53633
2.25334
1.60007
1.95935
1.80568
-9.16683
-9.16677
0.0986821
0.695341
3.00035
4.45112
2.28066
1.66252
3.36591
3.2144
1.41038
0.819212
4.49066
6.26113
4.68621
6.50577
3.54894
3.31668
4.96117
4.88299
6.67516
5.92734
2.21465
4.51597
4.72553
2.50007
7.26576
3.93439
4.77067
2.67686
3.028
4.61866
3.76885
4.52537
-0.891165
0.373653
0.818535
0.215514
-0.602158
2.30463
2.43392
-0.790305
1.41172
-2.61052
-2.91628
-2.92393
1.83037
1.36932
0.392046
1.28751
2.36229
2.41282
0.142829
-2.50973
-2.49762
-2.88323
-0.514103
-1.09727
-0.206307
-0.944274
0.446321
-5.22117
1.07942
-5.36788
1.82631
1.81495
3.31188
3.31296
-2.67038
0.725073
1.68177
1.57769
1.73168
-0.888349
-1.17837
1.67707
-0.52262
-0.879864
0.692177
-1.57079
-12.9752
-13.3912
2.21933
-8.75544
-8.02433
2.37668
2.38501
0.109451
2.99609
2.97695
0.0358506
3.06526
3.09241
1.50223
1.50919
-3.08694
3.80454
4.08729
-0.89008
-4.91581
-4.96536
0.730538
1.1503
8.62668
8.37248
2.07772
1.10983
1.08853
1.54083
1.65836
-2.41208
-1.03934
-1.57067
1.98522
3.23413
3.21255
-2.79429
0.00695032
-0.413941
4.25604
5.54828
1.99203
0.800661
0.546113
0.966954
0.993527
-3.1745
1.77871
1.76377
-0.423832
-0.927011
0.450221
0.47255
0.119458
0.960665
-1.29515
2.0443
0.798696
-1.18073
0.965462
-0.137858
-1.11686
-0.00712288
1.17227
1.15488
-2.84091
1.57128
-1.59497
-1.6427
0.157024
2.39807
2.22115
-0.783662
-0.28453
-2.30976
-2.34774
-2.75508
-3.21761
-1.11391
6.10809
4.97874
-1.11177
0.147528
0.0649481
-0.759584
2.5933
1.45777
0.971451
0.822138
0.975351
0.858737
-1.27386
2.07698
-1.50134
-2.99735
0.751117
-2.27493
-2.26468
-2.53044
-1.4836
-0.670248
-0.669995
-2.89837
-2.97401
0.689877
0.6905
0.206294
2.71111
0.863608
-3.85729
-1.08949
1.85203
1.83835
-0.5093
0.22208
0.225124
-7.07657
-6.61901
-1.01064
4.40919
4.37437
-3.93064
1.08842
0.831831
-1.46842
0.81782
2.52307
1.52363
1.95168
0.236928
0.728202
-0.499761
-1.42395
-0.981282
0.859425
0.462901
-0.288854
0.670285
-0.413718
1.19186
-6.88789
-6.99631
0.174915
0.683894
6.66436
6.53714
0.199147
2.53559
2.52218
0.682748
2.59345
-5.50422
-5.19176
-4.47141
-4.39454
-4.49965
0.828693
-5.05254
-5.44994
2.79466
2.69339
0.588414
2.39919
-2.09173
-2.07924
0.524249
0.0529543
3.08442
3.08277
0.660921
0.767643
1.09871
-2.54541
0.946464
-13.562
-0.302938
-0.425411
3.26901
3.24874
1.42575
1.43004
1.67706
1.67943
1.70829
1.70459
6.21435
6.11453
1.49664
1.50439
-0.0140667
0.0781687
-0.362523
-0.277169
-3.13923
-0.0361397
-0.0256661
2.3008
2.30863
0.762306
4.47004
7.60516
0.412701
0.844736
1.40517
-0.404003
-6.64121
-6.37359
1.62477
1.65155
1.36523
-0.305318
-1.63737
0.991398
0.987509
2.95729
2.96267
0.790197
-0.0965273
1.55639
1.55787
1.34521
2.0698
-13.9039
1.94193
1.92649
1.52609
-1.59503
0.715583
1.43673
1.39652
1.27677
2.33956
2.32597
4.98345
4.7172
-7.14139
-7.31563
0.75683
0.7492
0.786219
-8.72876
-8.95928
7.17943
7.29437
0.89724
-0.416262
1.15875
1.16004
0.297376
-0.428016
-4.20364
-4.41236
-4.43155
0.282488
-5.53058
-5.40996
1.72086
1.70795
1.9321
1.94394
-9.19744
-9.26226
0.167008
0.157492
3.74779
4.23656
1.77687
1.81832
3.31
3.30157
1.39655
1.38789
4.59315
6.40723
4.58906
6.46123
4.79702
3.31415
3.31127
4.17618
7.0332
6.68326
6.97961
6.44123
4.92306
2.6514
7.77142
4.92787
2.67435
7.6081
3.95766
4.70413
3.93349
4.67951
-1.18747
0.670798
0.253985
0.281741
-0.574029
2.0388
2.40724
-0.587797
1.8377
-2.84006
-2.80398
-2.98647
1.50374
1.21742
0.0224625
0.0462867
0.754443
2.47476
1.9956
0.160471
-2.62645
-2.34852
-2.7952
-0.831973
-0.946364
0.551904
-5.18065
1.19586
1.40718
1.77121
4.32782
3.31907
0.0227448
-0.563507
-2.31799
1.95115
1.56891
1.76936
1.76187
-1.45281
-1.35
-1.20343
1.14903
-0.853742
-0.506271
-13.209
-12.8641
2.01054
0.322945
-7.99861
-8.48742
2.25066
2.58366
0.142971
2.87398
2.59568
3.81013
3.12464
1.40376
1.51505
3.01585
4.25325
-0.943822
-4.82949
-4.87655
1.05665
0.709364
8.27824
5.64389
-1.34909
0.779212
1.02748
1.0091
1.07828
1.5446
2.05918
-2.31835
3.2277
4.75433
0.0483844
-0.197253
-2.84862
5.71222
3.44915
2.60841
0.715007
0.32444
0.992445
0.926689
-3.1659
-0.902224
1.70917
1.67176
-0.445433
-1.00632
0.458395
0.632719
0.346013
-1.32447
1.62592
0.785691
1.98664
-1.16516
-4.44238
1.2627
-0.0949304
-4.29751
0.0287766
1.18939
0.965075
-1.2229
-2.85567
1.28978
-1.66623
-1.63258
-0.0103698
2.78108
2.32195
-1.08639
-0.852115
-2.40837
-2.38697
-2.7401
-1.17443
7.67734
2.47512
-1.28192
-1.09599
-3.92545
0.891948
0.101974
1.55233
2.26166
-2.75564
-3.05882
0.909516
-3.89299
2.31108
0.0781575
0.864945
2.05552
-0.345731
-2.39974
-2.15459
-2.54877
-1.5671
-0.473643
-0.985181
-3.05779
-2.9562
0.763999
0.734727
0.998385
2.22583
0.916656
2.10446
1.7697
0.189773
0.59934
-6.61485
-1.35269
-7.03511
0.366529
-1.11965
-0.768247
4.28844
3.97994
-0.231609
-1.01402
-1.21994
0.835679
0.84425
0.649735
-0.533698
0.88923
1.37619
1.64992
0.15086
0.115169
2.5712
-0.315038
-0.401388
0.83133
-1.24979
0.319279
1.2743
-6.86779
-6.82196
-2.82008
0.589937
0.149462
5.94612
6.48895
0.113279
3.98942
2.54014
0.744061
2.40597
-5.27862
-5.30397
-4.39775
-4.29018
-4.52946
-2.63156
0.771159
-5.25426
-5.0398
1.94295
3.04099
0.612842
2.66432
-1.85166
-2.11049
0.754679
0.0354546
2.97165
3.00439
0.705558
0.857834
1.11807
0.732163
-13.6954
-0.459991
-0.459416
2.21918
3.77782
1.38321
1.44195
2.19225
1.69559
2.30725
1.72126
5.97164
4.39218
1.39352
2.73603
0.0496387
0.113327
-0.474001
-0.10223
-0.477983
-0.0159902
-0.137371
1.57906
2.21659
-0.455365
0.877583
2.88168
8.17546
0.389127
0.881367
1.39498
-6.55987
-6.31297
1.58004
1.7898
2.10337
-1.39702
0.900311
1.57935
7.35615
2.95204
0.746974
-0.0740509
1.45464
1.47757
1.04462
1.94413
-13.792
1.81495
1.88049
1.34722
-1.57796
0.63347
1.38801
1.43328
1.44041
2.05506
2.25783
3.7357
5.45363
-7.31124
-7.08607
0.612069
1.61746
0.619243
-9.01782
-8.69737
7.8551
7.25849
0.937007
-0.456522
1.07743
1.44405
0.213061
-0.154781
-3.97106
-4.39352
-4.47003
0.681314
-5.37671
-5.53438
1.6144
2.25156
1.79849
1.95947
-9.19835
-9.2416
0.690192
0.100859
2.99965
4.43677
1.62455
2.2822
3.22403
3.36037
0.994576
1.27422
4.92159
4.91102
3.32556
3.55027
4.68079
6.48607
4.48943
6.31353
6.72754
4.51377
2.21195
6.15266
4.71975
2.47836
3.9331
2.6719
4.76023
7.42297
3.79271
4.5482
3.02843
4.61037
0.680821
-0.117861
-0.086001
-1.11447
2.04692
1.66819
-1.05117
0.694307
-3.03236
-3.17942
-2.93539
0.874784
1.25588
-0.645235
1.65759
2.09251
0.277058
-2.87418
-2.47735
-2.7877
-1.21139
-0.886864
-1.51036
0.0182351
-5.39843
0.783122
-5.3334
1.44014
1.16936
5.02573
5.03419
-2.9975
-0.167725
1.75773
2.44897
0.728689
-0.461269
-1.07224
-1.43764
0.691758
-1.3755
-0.543511
-1.34927
-0.848106
0.153415
1.03021
-1.63453
-13.3204
-13.4025
1.01527
2.17842
-8.38025
-8.36283
1.72786
1.42108
1.00734
2.06966
2.02444
0.248252
-0.300088
4.15065
4.38978
1.2939
0.997769
-3.30771
3.02938
3.13279
-5.17725
-5.34149
1.06918
0.366205
2.48462
4.76114
0.884192
0.787288
-2.83081
-0.743868
-1.75784
2.32344
7.3254
7.14908
-3.187
0.115773
0.0967845
4.33232
3.48669
2.51201
-0.0697161
0.752919
1.51087
1.55474
-3.35947
1.62683
1.82036
0.0144483
1.10932
1.27465
0.0142753
1.47969
0.314143
-1.88414
0.702495
2.00705
-1.07647
1.29657
-0.528355
-1.37829
-0.166785
0.63952
0.986611
-3.02952
1.8073
0.699562
-2.09808
-1.64693
0.0108585
1.78237
1.51121
-0.299661
-2.73362
-2.45526
-2.65193
-3.02974
-1.42907
6.09054
2.46235
-1.08613
0.928219
-0.154488
0.782798
-1.47608
-0.810891
2.26595
0.912046
2.13082
0.606745
2.81829
-1.3043
0.431622
2.48129
-1.14156
-3.15949
0.853593
-2.80396
-2.25148
-2.58432
-1.6423
-0.503097
-1.30024
-3.41257
-2.92873
2.11745
2.35196
0.832858
-0.151993
0.853464
2.39677
0.927876
-4.22064
-1.41312
-0.821149
1.54405
1.36443
-0.536986
0.537835
0.300614
-6.97531
-6.95964
2.61452
2.96937
-0.246073
-4.20571
0.368065
0.960997
-1.49113
1.4393
1.34813
-1.81971
-0.563606
2.48043
0.227878
-0.308347
0.437633
0.692528
0.174947
-0.437277
-0.894766
-7.29637
-7.31656
0.369344
2.96995
4.27598
3.16272
3.70721
-0.133978
0.533639
2.74843
-5.58797
-5.58368
-4.68938
-4.42944
-4.6824
-5.56301
-5.52587
2.00801
2.02822
0.0834254
0.846298
-2.37298
-1.92126
0.0617062
2.14655
2.19695
0.240619
1.00082
-0.211084
0.73454
-2.94896
0.936839
-0.169932
-14.0868
-0.356687
-0.731051
2.26502
2.77162
2.54247
2.94729
1.81691
2.07495
2.59826
2.98983
2.99441
3.57403
2.39951
0.490132
-0.0146199
-0.781993
0.0963522
-0.651334
-3.35456
-0.361576
-0.142248
2.86827
1.36297
0.631205
2.87618
5.71946
0.970261
1.67028
-7.18789
-6.91708
1.92142
2.29945
1.70965
-0.83198
0.0163256
-1.24139
1.13707
0.576632
7.76362
5.19391
-0.693343
1.315
1.48268
1.08333
0.0073417
0.251047
2.14039
-15.1215
1.4678
2.47827
1.60776
0.393553
-1.46395
0.933573
1.47989
2.18366
1.16866
1.44332
2.15063
3.7744
4.07857
-7.57536
-7.75265
1.38087
0.415573
-9.63003
-9.49072
3.59928
2.59549
1.26787
1.2204
0.516004
-0.355032
-0.878519
-4.80115
-4.15053
-4.71981
0.64278
-0.128066
-5.65583
-5.79809
1.69451
0.818193
1.69972
1.1792
-9.68952
-9.79784
0.4972
-0.08842
3.158
3.03503
1.97431
0.926962
2.50261
2.53147
0.471405
1.66422
3.46224
4.81242
4.1615
3.61268
3.09973
3.22318
3.43674
3.8169
3.75791
1.94725
4.29103
3.21489
3.16873
1.7025
3.17235
2.60371
4.04556
1.37241
2.54725
2.78334
2.32186
2.83722
0.546368
0.0373178
0.174325
1.05916
0.778803
0.306937
0.820558
0.84773
1.02591
0.452027
0.417966
0.0792822
0.29879
-0.135471
0.708419
0.750595
0.866648
0.311684
-0.052932
0.375198
0.374487
0.0818373
0.616494
0.872298
0.762757
0.0954083
0.920003
0.37042
1.39128
0.176759
0.220372
0.377157
3.38473
3.38547
0.587065
0.898419
1.76758
1.86255
0.79931
0.0198886
0.664878
0.885596
0.58863
0.552358
-0.0608424
0.677591
0.456976
0.342269
0.895214
0.268721
0.400538
0.00424128
0.0036007
-0.0931158
-0.00284974
-0.00288089
0.0201371
3.16461
3.18582
-0.0586782
-0.0601902
0.630102
1.67584
0.341725
0.023216
0.37939
0.432084
-0.0117951
0.622798
0.29967
0.302087
0.350055
-0.0701948
-0.0730218
1.14443
-0.201795
0.655951
0.826035
2.07142
4.77006
4.77908
0.500477
1.00369
-0.0430248
0.642254
1.714
2.15328
0.228462
0.111236
-0.103658
-0.102445
0.116114
-0.0131916
-0.0807909
-0.0816126
-0.0370696
0.0974343
-0.0724266
-0.0754216
1.10675
-0.169864
0.619254
0.614227
-0.243878
0.0155514
1.52764
1.0303
0.744751
1.03725
0.526802
0.402357
0.092673
1.15372
0.092423
0.104241
0.882535
1.62892
1.58535
0.417489
0.804319
0.299407
0.290179
0.0706256
0.136666
0.0302161
0.455795
1.08198
0.00533345
-0.111196
-0.0838674
0.403095
-0.357063
0.98272
-0.169893
-0.196837
0.463804
-0.173584
0.0408048
0.626826
-0.00383223
0.571722
0.864349
0.217485
0.220178
0.0682626
0.00574579
0.176777
0.159934
0.134762
0.123846
-0.164818
-0.166383
-0.125055
0.831093
1.38004
0.500364
0.14301
-0.0389213
-0.0403081
-0.040679
-0.0400085
0.296457
0.1512
0.135679
0.0960582
0.0970446
-0.0364803
0.610038
-0.0131669
0.605083
0.111089
0.665765
-0.19782
-0.0328313
0.976836
-0.236145
0.415855
-0.111104
0.833813
0.713568
-0.351515
0.658463
0.464105
-0.0612095
0.203159
-0.428063
0.473059
0.518632
-0.0618756
-0.057432
0.275612
0.277394
-0.100159
2.89222
2.91994
0.80544
0.958133
0.177456
0.516604
0.244305
0.257965
0.136408
-0.361048
0.379635
0.159701
0.847357
0.0508524
0.894343
1.23827
0.142953
0.140927
1.06979
0.00955568
0.0859929
0.0858692
1.03863
0.85288
1.17102
0.654151
0.514666
0.519326
0.446931
0.245361
0.485783
0.657673
-0.12827
-0.12454
1.80808
1.85903
2.18596
2.22058
0.203513
0.205172
-0.214334
-0.217186
-0.0250296
0.294543
0.0578943
0.566222
-0.0296549
0.301733
0.0119815
1.47529
1.49017
0.0165175
1.00556
2.13776
0.0691698
-0.116722
1.46807
1.48965
0.240624
0.193184
-0.127745
-0.129059
1.51876
0.0824113
0.0147453
-0.0429142
-0.0443995
5.49884
5.51771
-0.157603
0.791518
-0.0218978
-0.0225606
0.225771
0.310587
0.360447
1.35446
1.37848
0.878657
0.022646
1.07071
1.62508
1.64095
1.35805
-0.0270138
-0.0267081
0.950232
1.17453
0.281603
0.319922
-0.109071
-0.113239
-0.232515
0.275034
0.240942
0.344527
0.342821
1.41511
-0.0221681
-0.105627
-0.106991
-0.0607363
-0.0181414
0.256158
0.238664
0.114957
-0.0621041
0.361819
0.511438
-0.0827108
-0.0838514
-0.0813188
-0.0826525
0.39164
0.350364
-0.0603019
-0.0561187
1.30349
0.604865
-0.164434
-0.169068
-0.000280718
-0.000490447
0.961065
0.960199
1.9043
3.74178
0.169954
0.249531
0.168672
0.248078
0.440498
3.74058
0.293461
0.314445
0.312938
0.291753
0.182106
0.02468
0.292272
0.180988
0.29033
0.0240901
0.0234917
0.212247
0.02376
0.212849
-0.85007
-0.115938
0.697292
-0.0168104
-0.977046
1.66034
2.09721
-1.19727
0.679283
-2.69159
-3.51063
-3.0931
0.861364
1.27241
0.374541
1.20674
2.07255
1.64946
0.35228
-2.47229
-2.86051
-2.87699
-0.513972
-1.32826
-0.204184
-1.48875
-0.0390732
-5.23925
0.806436
-5.50267
1.16332
1.4405
5.04939
5.03402
-3.14087
0.834132
2.28214
1.94137
0.75725
-1.07585
-1.75951
0.618228
-1.31401
-1.40012
0.163121
-2.00645
-13.3881
-13.8327
1.00096
-8.7234
-8.38536
1.40967
1.72487
0.934177
1.99446
2.07933
-0.299758
4.17509
4.36459
0.988685
1.29491
-3.44092
3.12828
3.05419
-0.406519
-5.36372
-5.42821
0.360761
1.1272
4.72104
2.48763
2.08981
0.761615
0.890299
1.77023
2.03379
-2.75423
-0.707989
-1.67279
2.40278
7.37193
7.21633
-2.94065
-0.327602
0.00843157
3.48557
4.32564
2.45206
-0.0839652
0.735445
1.52661
1.55242
-3.05748
1.82029
1.60746
0.102454
-0.838335
1.19878
1.17961
-0.189738
0.328686
-1.47188
2.44072
0.700422
-1.16294
1.08682
-0.201455
-1.05699
0.129723
1.00484
0.62475
-2.87798
0.811919
-1.64481
-2.03123
-0.370589
1.65175
1.60349
-0.818842
-0.750686
-2.35185
-2.84174
-2.66038
-3.28403
-1.13051
2.46158
6.07521
-0.982525
-0.148241
0.854812
-1.53223
2.35873
0.915863
1.47362
0.60799
1.01555
2.81953
-1.57159
0.420199
-1.62103
-3.43423
0.0286044
-2.2578
-2.78281
-2.45946
-1.21293
-0.512606
-1.29597
-3.06635
-3.31848
2.30458
2.16085
-0.145708
0.834905
1.22408
-4.12538
-1.40139
1.34359
1.56168
0.302873
0.541096
-6.73263
-6.98007
-0.706758
2.95179
2.614
-0.51706
-4.17351
0.355255
0.881916
-1.82642
2.15364
-0.256558
2.65036
1.34696
1.43474
0.866856
0.949847
-1.63778
-0.606173
0.250364
-0.350948
-0.345014
0.183748
-0.897061
2.35248
-7.44821
-7.45009
0.289989
0.683965
4.27186
2.97462
0.92732
3.74921
3.14015
0.00272564
0.522177
-5.89684
-5.32019
-4.41693
-4.69512
-4.5681
2.59072
-5.27595
-5.60264
1.98676
2.02274
0.40917
0.891759
-1.87348
-2.36357
0.0235376
0.343312
2.17641
2.1519
0.82356
-0.163042
0.889933
-2.59857
-0.208508
-13.9955
-0.734496
-0.485115
2.28027
2.76434
2.94888
2.54891
2.06492
1.94784
2.98264
2.59764
3.5132
2.99813
0.518391
2.41109
-0.313474
-0.844422
0.16466
-3.65689
-0.0602319
-0.0301876
-0.657543
2.86417
1.36533
-0.125986
0.242566
5.70961
2.87612
1.09451
1.16701
1.69336
-6.85046
-6.65056
2.22635
1.99693
1.72527
-0.815798
-1.45998
0.574712
1.14485
7.97208
5.21603
1.42385
-0.298646
1.45654
1.33181
-0.0214709
0.2496
-14.6387
2.44936
1.49518
0.37496
-1.25755
0.228855
2.14719
1.40287
1.01523
2.15783
1.42916
4.0745
3.76935
-7.81485
-7.74643
0.420365
1.40208
1.98536
-9.30486
-9.3068
2.60059
3.60733
0.81297
-0.368605
0.516358
1.21904
0.664277
-0.848921
-4.34325
-4.62757
-4.61679
-0.121788
-5.9221
-5.79448
0.80768
1.70416
1.16962
1.70318
-9.76833
-9.73968
-0.0787999
0.484144
3.14954
3.04
0.945253
1.93789
2.51443
2.50773
1.63846
0.538349
4.78942
3.45941
3.43495
3.80267
3.0985
3.22835
3.59263
4.15767
3.07268
4.24322
1.94582
3.7669
2.51056
1.34087
3.9595
3.18044
3.17503
1.71549
2.26578
2.80913
2.55262
2.791
