# vtk DataFile Version 3.0
vtk output at time 0
ASCII
DATASET UNSTRUCTURED_GRID
POINTS 2586 float
-1.84029e-05 0.000489375 0 1.84029e-05 0.000489375 0 -0.000414597 0.000260625 0 
-0.00041175 0.00025 0 -0.000433 0.00022875 0 -0.000433 -0.00022875 0 
-0.00041175 -0.00025 0 -0.000414597 -0.000260625 0 -1.84029e-05 -0.000489375 0 
1.84029e-05 -0.000489375 0 0.000414597 -0.000260625 0 0.000433 -0.00022875 0 
0.000433 0.00022875 0 0.000414597 0.000260625 0 4.25e-05 0 0 
2.125e-05 0.0005 0 5.90898e-17 0.00052125 0 5.90919e-17 0.00097875 0 
2.125e-05 0.001 0 1.84029e-05 0.00101063 0 0.000414597 0.00123937 0 
0.000451403 0.00123937 0 0.000847597 0.00101063 0 0.000866 0.00097875 0 
0.000866 0.00052125 0 0.000847597 0.000489375 0 0.000451403 0.000260625 0 
0.0004755 0.00075 0 0.00045425 0.00025 0 0.000884403 0.000489375 0 
0.0012806 0.000260625 0 0.001299 0.00022875 0 0.001299 -0.00022875 0 
0.0012806 -0.000260625 0 0.000884403 -0.000489375 0 0.000847597 -0.000489375 0 
0.000451403 -0.000260625 0 0.00045425 -0.00025 0 0.0009085 0 0 
0.000866 -0.00052125 0 0.000866 -0.00097875 0 0.000847597 -0.00101063 0 
0.000451403 -0.00123937 0 0.000414597 -0.00123937 0 1.84029e-05 -0.00101063 0 
2.125e-05 -0.001 0 5.90898e-17 -0.00097875 0 5.90919e-17 -0.00052125 0 
2.125e-05 -0.0005 0 0.0004755 -0.00075 0 -1.84029e-05 -0.00101063 0 
-0.000414597 -0.00123937 0 -0.000451403 -0.00123937 0 -0.000847597 -0.00101063 0 
-0.00084475 -0.001 0 -0.000866 -0.00097875 0 -0.000866 -0.00052125 0 
-0.00084475 -0.0005 0 -0.000847597 -0.000489375 0 -0.000451403 -0.000260625 0 
-0.0003905 -0.00075 0 -0.000884403 -0.000489375 0 -0.0012806 -0.000260625 0 
-0.00127775 -0.00025 0 -0.001299 -0.00022875 0 -0.001299 0.00022875 0 
-0.00127775 0.00025 0 -0.0012806 0.000260625 0 -0.000884403 0.000489375 0 
-0.000847597 0.000489375 0 -0.000451403 0.000260625 0 -0.0008235 0 0 
-0.00084475 0.0005 0 -0.000866 0.00052125 0 -0.000866 0.00097875 0 
-0.00084475 0.001 0 -0.000847597 0.00101063 0 -0.000451403 0.00123937 0 
-0.000414597 0.00123937 0 -1.84029e-05 0.00101063 0 -0.0003905 0.00075 0 
-1.84029e-05 0.000489375 -0.0005 1.84029e-05 0.000489375 -0.0005 -0.000414597 0.000260625 -0.0005 
-0.00041175 0.00025 -0.0005 -0.000433 0.00022875 -0.0005 -0.000433 -0.00022875 -0.0005 
-0.00041175 -0.00025 -0.0005 -0.000414597 -0.000260625 -0.0005 -1.84029e-05 -0.000489375 -0.0005 
1.84029e-05 -0.000489375 -0.0005 0.000414597 -0.000260625 -0.0005 0.000433 -0.00022875 -0.0005 
0.000433 0.00022875 -0.0005 0.000414597 0.000260625 -0.0005 4.25e-05 0 -0.0005 
2.125e-05 0.0005 -0.0005 5.90898e-17 0.00052125 -0.0005 5.90919e-17 0.00097875 -0.0005 
2.125e-05 0.001 -0.0005 1.84029e-05 0.00101063 -0.0005 0.000414597 0.00123937 -0.0005 
0.000451403 0.00123937 -0.0005 0.000847597 0.00101063 -0.0005 0.000866 0.00097875 -0.0005 
0.000866 0.00052125 -0.0005 0.000847597 0.000489375 -0.0005 0.000451403 0.000260625 -0.0005 
0.0004755 0.00075 -0.0005 0.00045425 0.00025 -0.0005 0.000884403 0.000489375 -0.0005 
0.0012806 0.000260625 -0.0005 0.001299 0.00022875 -0.0005 0.001299 -0.00022875 -0.0005 
0.0012806 -0.000260625 -0.0005 0.000884403 -0.000489375 -0.0005 0.000847597 -0.000489375 -0.0005 
0.000451403 -0.000260625 -0.0005 0.00045425 -0.00025 -0.0005 0.0009085 0 -0.0005 
0.000866 -0.00052125 -0.0005 0.000866 -0.00097875 -0.0005 0.000847597 -0.00101063 -0.0005 
0.000451403 -0.00123937 -0.0005 0.000414597 -0.00123937 -0.0005 1.84029e-05 -0.00101063 -0.0005 
2.125e-05 -0.001 -0.0005 5.90898e-17 -0.00097875 -0.0005 5.90919e-17 -0.00052125 -0.0005 
2.125e-05 -0.0005 -0.0005 0.0004755 -0.00075 -0.0005 -1.84029e-05 -0.00101063 -0.0005 
-0.000414597 -0.00123937 -0.0005 -0.000451403 -0.00123937 -0.0005 -0.000847597 -0.00101063 -0.0005 
-0.00084475 -0.001 -0.0005 -0.000866 -0.00097875 -0.0005 -0.000866 -0.00052125 -0.0005 
-0.00084475 -0.0005 -0.0005 -0.000847597 -0.000489375 -0.0005 -0.000451403 -0.000260625 -0.0005 
-0.0003905 -0.00075 -0.0005 -0.000884403 -0.000489375 -0.0005 -0.0012806 -0.000260625 -0.0005 
-0.00127775 -0.00025 -0.0005 -0.001299 -0.00022875 -0.0005 -0.001299 0.00022875 -0.0005 
-0.00127775 0.00025 -0.0005 -0.0012806 0.000260625 -0.0005 -0.000884403 0.000489375 -0.0005 
-0.000847597 0.000489375 -0.0005 -0.000451403 0.000260625 -0.0005 -0.0008235 0 -0.0005 
-0.00084475 0.0005 -0.0005 -0.000866 0.00052125 -0.0005 -0.000866 0.00097875 -0.0005 
-0.00084475 0.001 -0.0005 -0.000847597 0.00101063 -0.0005 -0.000451403 0.00123937 -0.0005 
-0.000414597 0.00123937 -0.0005 -1.84029e-05 0.00101063 -0.0005 -0.0003905 0.00075 -0.0005 
-9.82724e-20 0.00047875 0 -0.000335358 0.000306375 0 -0.000256119 0.000352125 0 
-0.000176881 0.000397875 0 -9.76417e-05 0.000443625 0 -0.000412474 0.0002555 0 
-0.000417974 0.000234974 0 -0.000433 -0.00013725 0 -0.000433 -4.575e-05 0 
-0.000433 4.575e-05 0 -0.000433 0.00013725 0 -0.000417974 -0.000234974 0 
-0.000412474 -0.0002555 0 -9.76417e-05 -0.000443625 0 -0.000176881 -0.000397875 0 
-0.000256119 -0.000352125 0 -0.000335358 -0.000306375 0 -1.07223e-19 -0.00047875 0 
0.000335358 -0.000306375 0 0.000256119 -0.000352125 0 0.000176881 -0.000397875 0 
9.76417e-05 -0.000443625 0 0.000414597 -0.000239375 0 0.000433 0.00013725 0 
0.000433 4.575e-05 0 0.000433 -4.575e-05 0 0.000433 -0.00013725 0 
0.000414597 0.000239375 0 9.76417e-05 0.000443625 0 0.000176881 0.000397875 0 
0.000256119 0.000352125 0 0.000335358 0.000306375 0 -1.29514e-19 4.25e-05 0 
-4.25e-05 -3.53397e-19 0 4.07417e-19 -4.25e-05 0 2.05259e-05 0.0004945 0 
1.5026e-05 0.000515026 0 0 0.00061275 0 0 0.00070425 0 
0 0.00079575 0 0 0.00088725 0 1.5026e-05 0.000984974 0 
2.05259e-05 0.0010055 0 9.76417e-05 0.00105638 0 0.000176881 0.00110213 0 
0.000256119 0.00114787 0 0.000335358 0.00119362 0 0.000433 0.00122875 0 
0.000530642 0.00119362 0 0.000609881 0.00114787 0 0.000689119 0.00110213 0 
0.000768358 0.00105638 0 0.000847597 0.000989375 0 0.000866 0.00088725 0 
0.000866 0.00079575 0 0.000866 0.00070425 0 0.000866 0.00061275 0 
0.000847597 0.000510625 0 0.000530642 0.000306375 0 0.000609881 0.000352125 0 
0.000689119 0.000397875 0 0.000768358 0.000443625 0 0.000433 0.00027125 0 
0.000433 0.0007925 0 0.0003905 0.00075 0 0.000433 0.0007075 0 
0.000448026 0.000234974 0 0.000453526 0.0002555 0 0.000866 0.00047875 0 
0.000963642 0.000443625 0 0.00104288 0.000397875 0 0.00112212 0.000352125 0 
0.00120136 0.000306375 0 0.0012806 0.000239375 0 0.001299 0.00013725 0 
0.001299 4.575e-05 0 0.001299 -4.575e-05 0 0.001299 -0.00013725 0 
0.0012806 -0.000239375 0 0.00120136 -0.000306375 0 0.00112212 -0.000352125 0 
0.00104288 -0.000397875 0 0.000963642 -0.000443625 0 0.000866 -0.00047875 0 
0.000530642 -0.000306375 0 0.000609881 -0.000352125 0 0.000689119 -0.000397875 0 
0.000768358 -0.000443625 0 0.000453526 -0.0002555 0 0.000448026 -0.000234974 0 
0.000866 4.25e-05 0 0.0008235 -3.53397e-19 0 0.000866 -4.25e-05 0 
0.000433 -0.00027125 0 0.000847597 -0.000510625 0 0.000866 -0.00061275 0 
0.000866 -0.00070425 0 0.000866 -0.00079575 0 0.000866 -0.00088725 0 
0.000847597 -0.000989375 0 0.000768358 -0.00105638 0 0.000689119 -0.00110213 0 
0.000609881 -0.00114787 0 0.000530642 -0.00119362 0 0.000433 -0.00122875 0 
0.000335358 -0.00119362 0 0.000256119 -0.00114787 0 0.000176881 -0.00110213 0 
9.76417e-05 -0.00105638 0 2.05259e-05 -0.0010055 0 1.5026e-05 -0.000984974 0 
0 -0.00061275 0 0 -0.00070425 0 0 -0.00079575 0 
0 -0.00088725 0 1.5026e-05 -0.000515026 0 2.05259e-05 -0.0004945 0 
0.000433 -0.0007075 0 0.0003905 -0.00075 0 0.000433 -0.0007925 0 
-1.84031e-05 -0.000510625 0 -1.84031e-05 -0.000989375 0 -9.76417e-05 -0.00105638 0 
-0.000176881 -0.00110213 0 -0.000256119 -0.00114787 0 -0.000335358 -0.00119362 0 
-0.000433 -0.00122875 0 -0.000530642 -0.00119362 0 -0.000609881 -0.00114787 0 
-0.000689119 -0.00110213 0 -0.000768358 -0.00105638 0 -0.000845474 -0.0010055 0 
-0.000850974 -0.000984974 0 -0.000866 -0.00088725 0 -0.000866 -0.00079575 0 
-0.000866 -0.00070425 0 -0.000866 -0.00061275 0 -0.000850974 -0.000515026 0 
-0.000845474 -0.0004945 0 -0.000530642 -0.000306375 0 -0.000609881 -0.000352125 0 
-0.000689119 -0.000397875 0 -0.000768358 -0.000443625 0 -0.000433 -0.00027125 0 
-0.000433 -0.0007075 0 -0.0004755 -0.00075 0 -0.000433 -0.0007925 0 
-0.000451403 -0.000239375 0 -0.000866 -0.00047875 0 -0.000963642 -0.000443625 0 
-0.00104288 -0.000397875 0 -0.00112212 -0.000352125 0 -0.00120136 -0.000306375 0 
-0.00127847 -0.0002555 0 -0.00128397 -0.000234974 0 -0.001299 -0.00013725 0 
-0.001299 -4.575e-05 0 -0.001299 4.575e-05 0 -0.001299 0.00013725 0 
-0.00128397 0.000234974 0 -0.00127847 0.0002555 0 -0.00120136 0.000306375 0 
-0.00112212 0.000352125 0 -0.00104288 0.000397875 0 -0.000963642 0.000443625 0 
-0.000866 0.00047875 0 -0.000530642 0.000306375 0 -0.000609881 0.000352125 0 
-0.000689119 0.000397875 0 -0.000768358 0.000443625 0 -0.000451403 0.000239375 0 
-0.000866 4.25e-05 0 -0.0009085 -3.53397e-19 0 -0.000866 -4.25e-05 0 
-0.000433 0.00027125 0 -0.000845474 0.0004945 0 -0.000850974 0.000515026 0 
-0.000866 0.00061275 0 -0.000866 0.00070425 0 -0.000866 0.00079575 0 
-0.000866 0.00088725 0 -0.000850974 0.000984974 0 -0.000845474 0.0010055 0 
-0.000768358 0.00105638 0 -0.000689119 0.00110213 0 -0.000609881 0.00114787 0 
-0.000530642 0.00119362 0 -0.000433 0.00122875 0 -0.000335358 0.00119362 0 
-0.000256119 0.00114787 0 -0.000176881 0.00110213 0 -9.76417e-05 0.00105638 0 
-1.84031e-05 0.000989375 0 -1.84031e-05 0.000510625 0 -0.000433 0.0007925 0 
-0.0004755 0.00075 0 -0.000433 0.0007075 0 -9.82724e-20 0.00047875 -0.0005 
-0.000335358 0.000306375 -0.0005 -0.000256119 0.000352125 -0.0005 -0.000176881 0.000397875 -0.0005 
-9.76417e-05 0.000443625 -0.0005 -0.000412474 0.0002555 -0.0005 -0.000417974 0.000234974 -0.0005 
-0.000433 -0.00013725 -0.0005 -0.000433 -4.575e-05 -0.0005 -0.000433 4.575e-05 -0.0005 
-0.000433 0.00013725 -0.0005 -0.000417974 -0.000234974 -0.0005 -0.000412474 -0.0002555 -0.0005 
-9.76417e-05 -0.000443625 -0.0005 -0.000176881 -0.000397875 -0.0005 -0.000256119 -0.000352125 -0.0005 
-0.000335358 -0.000306375 -0.0005 -1.07223e-19 -0.00047875 -0.0005 0.000335358 -0.000306375 -0.0005 
0.000256119 -0.000352125 -0.0005 0.000176881 -0.000397875 -0.0005 9.76417e-05 -0.000443625 -0.0005 
0.000414597 -0.000239375 -0.0005 0.000433 0.00013725 -0.0005 0.000433 4.575e-05 -0.0005 
0.000433 -4.575e-05 -0.0005 0.000433 -0.00013725 -0.0005 0.000414597 0.000239375 -0.0005 
9.76417e-05 0.000443625 -0.0005 0.000176881 0.000397875 -0.0005 0.000256119 0.000352125 -0.0005 
0.000335358 0.000306375 -0.0005 -1.29514e-19 4.25e-05 -0.0005 -4.25e-05 -3.53397e-19 -0.0005 
4.07417e-19 -4.25e-05 -0.0005 2.05259e-05 0.0004945 -0.0005 1.5026e-05 0.000515026 -0.0005 
0 0.00061275 -0.0005 0 0.00070425 -0.0005 0 0.00079575 -0.0005 
0 0.00088725 -0.0005 1.5026e-05 0.000984974 -0.0005 2.05259e-05 0.0010055 -0.0005 
9.76417e-05 0.00105638 -0.0005 0.000176881 0.00110213 -0.0005 0.000256119 0.00114787 -0.0005 
0.000335358 0.00119362 -0.0005 0.000433 0.00122875 -0.0005 0.000530642 0.00119362 -0.0005 
0.000609881 0.00114787 -0.0005 0.000689119 0.00110213 -0.0005 0.000768358 0.00105638 -0.0005 
0.000847597 0.000989375 -0.0005 0.000866 0.00088725 -0.0005 0.000866 0.00079575 -0.0005 
0.000866 0.00070425 -0.0005 0.000866 0.00061275 -0.0005 0.000847597 0.000510625 -0.0005 
0.000530642 0.000306375 -0.0005 0.000609881 0.000352125 -0.0005 0.000689119 0.000397875 -0.0005 
0.000768358 0.000443625 -0.0005 0.000433 0.00027125 -0.0005 0.000433 0.0007925 -0.0005 
0.0003905 0.00075 -0.0005 0.000433 0.0007075 -0.0005 0.000448026 0.000234974 -0.0005 
0.000453526 0.0002555 -0.0005 0.000866 0.00047875 -0.0005 0.000963642 0.000443625 -0.0005 
0.00104288 0.000397875 -0.0005 0.00112212 0.000352125 -0.0005 0.00120136 0.000306375 -0.0005 
0.0012806 0.000239375 -0.0005 0.001299 0.00013725 -0.0005 0.001299 4.575e-05 -0.0005 
0.001299 -4.575e-05 -0.0005 0.001299 -0.00013725 -0.0005 0.0012806 -0.000239375 -0.0005 
0.00120136 -0.000306375 -0.0005 0.00112212 -0.000352125 -0.0005 0.00104288 -0.000397875 -0.0005 
0.000963642 -0.000443625 -0.0005 0.000866 -0.00047875 -0.0005 0.000530642 -0.000306375 -0.0005 
0.000609881 -0.000352125 -0.0005 0.000689119 -0.000397875 -0.0005 0.000768358 -0.000443625 -0.0005 
0.000453526 -0.0002555 -0.0005 0.000448026 -0.000234974 -0.0005 0.000866 4.25e-05 -0.0005 
0.0008235 -3.53397e-19 -0.0005 0.000866 -4.25e-05 -0.0005 0.000433 -0.00027125 -0.0005 
0.000847597 -0.000510625 -0.0005 0.000866 -0.00061275 -0.0005 0.000866 -0.00070425 -0.0005 
0.000866 -0.00079575 -0.0005 0.000866 -0.00088725 -0.0005 0.000847597 -0.000989375 -0.0005 
0.000768358 -0.00105638 -0.0005 0.000689119 -0.00110213 -0.0005 0.000609881 -0.00114787 -0.0005 
0.000530642 -0.00119362 -0.0005 0.000433 -0.00122875 -0.0005 0.000335358 -0.00119362 -0.0005 
0.000256119 -0.00114787 -0.0005 0.000176881 -0.00110213 -0.0005 9.76417e-05 -0.00105638 -0.0005 
2.05259e-05 -0.0010055 -0.0005 1.5026e-05 -0.000984974 -0.0005 0 -0.00061275 -0.0005 
0 -0.00070425 -0.0005 0 -0.00079575 -0.0005 0 -0.00088725 -0.0005 
1.5026e-05 -0.000515026 -0.0005 2.05259e-05 -0.0004945 -0.0005 0.000433 -0.0007075 -0.0005 
0.0003905 -0.00075 -0.0005 0.000433 -0.0007925 -0.0005 -1.84031e-05 -0.000510625 -0.0005 
-1.84031e-05 -0.000989375 -0.0005 -9.76417e-05 -0.00105638 -0.0005 -0.000176881 -0.00110213 -0.0005 
-0.000256119 -0.00114787 -0.0005 -0.000335358 -0.00119362 -0.0005 -0.000433 -0.00122875 -0.0005 
-0.000530642 -0.00119362 -0.0005 -0.000609881 -0.00114787 -0.0005 -0.000689119 -0.00110213 -0.0005 
-0.000768358 -0.00105638 -0.0005 -0.000845474 -0.0010055 -0.0005 -0.000850974 -0.000984974 -0.0005 
-0.000866 -0.00088725 -0.0005 -0.000866 -0.00079575 -0.0005 -0.000866 -0.00070425 -0.0005 
-0.000866 -0.00061275 -0.0005 -0.000850974 -0.000515026 -0.0005 -0.000845474 -0.0004945 -0.0005 
-0.000530642 -0.000306375 -0.0005 -0.000609881 -0.000352125 -0.0005 -0.000689119 -0.000397875 -0.0005 
-0.000768358 -0.000443625 -0.0005 -0.000433 -0.00027125 -0.0005 -0.000433 -0.0007075 -0.0005 
-0.0004755 -0.00075 -0.0005 -0.000433 -0.0007925 -0.0005 -0.000451403 -0.000239375 -0.0005 
-0.000866 -0.00047875 -0.0005 -0.000963642 -0.000443625 -0.0005 -0.00104288 -0.000397875 -0.0005 
-0.00112212 -0.000352125 -0.0005 -0.00120136 -0.000306375 -0.0005 -0.00127847 -0.0002555 -0.0005 
-0.00128397 -0.000234974 -0.0005 -0.001299 -0.00013725 -0.0005 -0.001299 -4.575e-05 -0.0005 
-0.001299 4.575e-05 -0.0005 -0.001299 0.00013725 -0.0005 -0.00128397 0.000234974 -0.0005 
-0.00127847 0.0002555 -0.0005 -0.00120136 0.000306375 -0.0005 -0.00112212 0.000352125 -0.0005 
-0.00104288 0.000397875 -0.0005 -0.000963642 0.000443625 -0.0005 -0.000866 0.00047875 -0.0005 
-0.000530642 0.000306375 -0.0005 -0.000609881 0.000352125 -0.0005 -0.000689119 0.000397875 -0.0005 
-0.000768358 0.000443625 -0.0005 -0.000451403 0.000239375 -0.0005 -0.000866 4.25e-05 -0.0005 
-0.0009085 -3.53397e-19 -0.0005 -0.000866 -4.25e-05 -0.0005 -0.000433 0.00027125 -0.0005 
-0.000845474 0.0004945 -0.0005 -0.000850974 0.000515026 -0.0005 -0.000866 0.00061275 -0.0005 
-0.000866 0.00070425 -0.0005 -0.000866 0.00079575 -0.0005 -0.000866 0.00088725 -0.0005 
-0.000850974 0.000984974 -0.0005 -0.000845474 0.0010055 -0.0005 -0.000768358 0.00105638 -0.0005 
-0.000689119 0.00110213 -0.0005 -0.000609881 0.00114787 -0.0005 -0.000530642 0.00119362 -0.0005 
-0.000433 0.00122875 -0.0005 -0.000335358 0.00119362 -0.0005 -0.000256119 0.00114787 -0.0005 
-0.000176881 0.00110213 -0.0005 -9.76417e-05 0.00105638 -0.0005 -1.84031e-05 0.000989375 -0.0005 
-1.84031e-05 0.000510625 -0.0005 -0.000433 0.0007925 -0.0005 -0.0004755 0.00075 -0.0005 
-0.000433 0.0007075 -0.0005 0.000166833 -0.000159585 0 0.000165961 0.000165961 0 
-0.000162277 0.000168837 0 -0.000162539 -0.000168697 0 -0.000316174 -0.000207462 0 
-0.000316174 0.000207462 0 -1.7625e-06 0.00020878 0 -0.000200494 5.10348e-06 0 
0.000198022 -6.49099e-06 0 -3.82827e-06 -0.000208798 0 -0.0003642 0.000214286 0 
-0.0003642 -0.000214286 0 0.000301049 0.000166193 0 0.000312424 -0.000170987 0 
-7.30908e-06 -0.00035148 0 7.30908e-06 0.00035148 0 0.000109232 0.000285545 0 
-0.000107519 -0.000286192 0 -0.000304808 7.69979e-05 0 -0.000308572 -7.52569e-05 0 
0.000106639 -0.000294843 0 -0.00010493 0.000296588 0 8.50608e-05 -8.41794e-05 0 
8.82006e-05 9.78925e-05 0 -9.29688e-05 8.1944e-05 0 -9.5784e-05 -8.5049e-05 0 
-0.00037448 0.000247295 0 -0.00037448 -0.000247295 0 -0.000226807 0.000247375 0 
-0.00022696 -0.000246565 0 0.000318161 -5.24395e-05 0 0.00030573 6.09258e-05 0 
-0.000251653 -0.000142326 0 -0.000251653 0.000142326 0 3.07451e-05 -0.00041094 0 
-3.07451e-05 0.00041094 0 0.00022921 -0.000246251 0 0.000229478 0.000241816 0 
2.27436e-05 0.000133221 0 1.86722e-05 -0.000131409 0 -0.000131489 -2.16615e-05 0 
0.00013003 -1.62999e-05 0 -0.00037383 0.000149154 0 -0.00037383 -0.000149154 0 
0.000234918 -9.03863e-05 0 0.000328799 0.000234244 0 0.000330695 -0.000235043 0 
0.000223602 9.28059e-05 0 -8.24081e-05 0.000181543 0 -7.93229e-05 -0.000178683 0 
-0.000174487 7.88274e-05 0 9.06107e-05 -0.000168878 0 9.31592e-05 0.000169495 0 
-0.000165177 -7.38619e-05 0 -9.20929e-05 -0.000358769 0 9.20929e-05 0.000358769 0 
3.47644e-05 0.000422113 0 -3.47644e-05 -0.000422113 0 -0.00039524 0.000187946 0 
-0.00039524 -0.000187946 0 -0.00036071 1.92365e-06 0 0.000388959 -0.000188051 0 
0.000390003 0.000186364 0 6.43444e-05 -0.000355671 0 -6.37768e-05 0.000356891 0 
2.80563e-05 -0.000283426 0 -2.80563e-05 0.000283426 0 0.000158032 5.64575e-05 0 
4.0579e-05 0.000286843 0 -4.0579e-05 -0.000286843 0 0.000187449 0.000307262 0 
0.000159892 -7.91024e-05 0 -0.000184905 -0.00030951 0 0.000358611 0.000105752 0 
0.000363074 -0.00011688 0 -0.000325009 0.000251333 0 -0.000325009 -0.000251333 0 
-0.000240838 -7.12684e-05 0 -0.000314691 -0.000147697 0 -0.000314417 0.000147824 0 
-0.000404578 0.00024054 0 -0.000403308 0.000218831 0 -0.000404578 -0.00024054 0 
-0.000403308 -0.000218831 0 0.000191925 -0.0003084 0 -0.000260053 0.000200474 0 
-0.000260078 -0.000200417 0 -2.84262e-05 0.000450764 0 2.84262e-05 -0.000450764 0 
-0.000189066 0.000311072 0 -0.000240999 7.45278e-05 0 -0.000278935 4.78174e-06 0 
0.000354779 1.89656e-05 0 0.000162497 0.000232229 0 0.000376671 0.000245397 0 
0.000376841 -0.000245894 0 0.000157204 -0.000230896 0 0.000234792 0.000171119 0 
-0.000151291 -0.000232673 0 -2.32986e-05 8.92785e-05 0 -3.11926e-05 -8.95957e-05 0 
-9.03847e-05 2.2115e-05 0 9.12302e-05 3.30279e-05 0 -0.000152334 0.000235849 0 
0.000239556 -0.000175069 0 -0.000374753 9.03378e-05 0 -0.000376425 -8.91537e-05 0 
4.61669e-05 -4.59906e-05 0 6.62281e-05 0.000232832 0 3.85868e-05 8.10868e-05 0 
-7.69579e-05 -3.79434e-05 0 0.000127486 -0.000360083 0 7.07506e-05 -0.00023716 0 
0.000272535 3.89675e-06 0 -7.65081e-05 -0.000238638 0 0.00014561 0.000112396 0 
-0.000352537 0.000183264 0 -0.000352576 -0.000183245 0 -0.000270615 -0.000285639 0 
-0.000269954 0.000283517 0 -7.38981e-05 0.000241237 0 0.00028245 0.000113194 0 
-0.000128597 0.00035529 0 0.000277733 0.00021912 0 0.000279019 -0.000221334 0 
0.000293419 -0.000117053 0 -4.98304e-05 4.71675e-05 0 -3.82924e-05 0.000144636 0 
-3.82924e-05 -0.000144636 0 -0.000137965 3.32657e-05 0 -0.00012318 0.000133204 0 
-0.000120047 -0.000136339 0 -0.000206789 -0.00019438 0 0.000125599 -0.000122936 0 
-0.000206748 0.000194842 0 -0.000279599 0.000238032 0 -0.000279767 -0.000238283 0 
-0.000195529 0.000130609 0 -0.000197761 -0.000129013 0 2.37414e-05 -7.8735e-05 0 
7.89976e-05 -2.26884e-05 0 0.000279552 0.000278672 0 0.000279873 -0.000279044 0 
4.48012e-06 0.00044547 0 -4.48012e-06 -0.00044547 0 0.000598961 0.000584039 0 
0.000602744 0.00091226 0 0.000270474 0.000918651 0 0.000270149 0.000581615 0 
0.000116826 0.000957462 0 0.000116826 0.000542538 0 0.000429172 0.000958798 0 
0.000232505 0.000755103 0 0.000636012 0.000747201 0 0.000434763 0.00054122 0 
6.87997e-05 0.000964286 0 6.87997e-05 0.000535714 0 0.000745424 0.000920987 0 
0.000734049 0.000583807 0 0.000425691 0.00039852 0 0.000425691 0.00110148 0 
0.000325481 0.00103619 0 0.00032556 0.000464273 0 0.000128192 0.000826998 0 
0.000124428 0.000674743 0 0.000539639 0.00104484 0 0.000539618 0.000454793 0 
0.000520463 0.000653783 0 0.000521988 0.00084822 0 0.000340031 0.000831944 0 
0.00034624 0.000661734 0 5.85195e-05 0.000997295 0 5.85195e-05 0.000502705 0 
0.00020604 0.000996565 0 0.00020604 0.000503435 0 0.000751161 0.00080244 0 
0.00073873 0.000689074 0 0.000181347 0.000607674 0 0.000181347 0.000892326 0 
0.000463745 0.00033906 0 0.000463745 0.00116094 0 0.00066221 0.000996251 0 
0.000655871 0.000515061 0 0.000455531 0.000883279 0 0.0004137 0.000617913 0 
0.000302544 0.000731006 0 0.000569409 0.000742828 0 5.91695e-05 0.000899154 0 
5.91695e-05 0.000600846 0 0.000666622 0.000847886 0 0.000763695 0.000985043 0 
0.000761799 0.000515756 0 0.000662952 0.000664982 0 0.000353677 0.000928683 0 
0.000512323 0.000571317 0 0.000258513 0.000828827 0 0.000526529 0.000920143 0 
0.000348994 0.000575642 0 0.000269055 0.00067649 0 0.000340907 0.000391231 0 
0.000340907 0.00110877 0 0.000398236 0.00117211 0 0.000398236 0.000327887 0 
3.77595e-05 0.000937946 0 3.77595e-05 0.000562054 0 7.22902e-05 0.000751924 0 
0.000821959 0.000938051 0 0.000823003 0.000563636 0 0.000497344 0.00110567 0 
0.000497341 0.000394268 0 0.000595975 0.000808208 0 0.000461056 0.000466574 0 
0.000461056 0.00103343 0 0.000392421 0.00103684 0 0.000392458 0.000463164 0 
0.000248106 0.000440556 0 0.000248095 0.00105951 0 0.000791611 0.000644248 0 
0.000796074 0.00086688 0 0.000107991 0.00100133 0 0.000107991 0.000498667 0 
0.000192237 0.000678753 0 0.000118309 0.000602303 0 0.000118584 0.000897824 0 
2.84222e-05 0.00099054 0 2.96921e-05 0.000968831 0 2.84222e-05 0.00050946 0 
2.96921e-05 0.000531169 0 0.000584827 0.000674445 0 0.000624925 0.0010584 0 
0.000620086 0.000439056 0 0.000172934 0.000950423 0 0.000172922 0.000549583 0 
0.000461426 0.00120076 0 0.000461426 0.000299236 0 0.000192001 0.000824528 0 
0.000154074 0.000754784 0 0.000787779 0.000731034 0 0.000809841 0.000995894 0 
0.000809671 0.000504603 0 0.000589469 0.00097835 0 0.000571747 0.000512487 0 
0.000673596 0.000588147 0 0.000281249 0.000518091 0 0.00028171 0.000982668 0 
0.000409676 0.000839285 0 0.000465934 0.000658411 0 0.000524589 0.000782934 0 
0.000342119 0.000777068 0 0.000672682 0.000926159 0 5.82468e-05 0.000840338 0 
5.65752e-05 0.000660846 0 0.000386493 0.000703192 0 0.000361584 0.000514775 0 
0.000471587 0.000831087 0 0.000510532 0.000709986 0 0.000559513 0.000389323 0 
0.000560486 0.00111008 0 0.000503751 0.00098716 0 0.000707209 0.000747103 0 
0.000356492 0.000988637 0 8.04633e-05 0.000933264 0 8.04241e-05 0.000566755 0 
0.000162386 0.000464369 0 0.000162385 0.00103564 0 0.000578393 0.000862613 0 
0.000503901 0.000509278 0 0.000714127 0.000640342 0 0.000712044 0.000971552 0 
0.000710619 0.000533186 0 0.000726252 0.00086828 0 0.000383065 0.000798159 0 
0.000471292 0.000605364 0 0.000394708 0.000894636 0 0.000295143 0.00078479 0 
0.000311567 0.000884914 0 0.000544105 0.000613927 0 0.000226145 0.000555712 0 
0.000226234 0.0009443 0 0.000307419 0.000615421 0 0.000153235 0.000988284 0 
0.000153233 0.000511718 0 0.000237647 0.000880726 0 0.000238317 0.000620115 0 
0.000410377 0.000668704 0 0.000352297 0.000726325 0 0.000712874 0.00102905 0 
0.000708438 0.00047242 0 0.00042852 0.00030453 0 0.00042852 0.00119547 0 
0.00103283 -0.000159585 0 0.00103196 0.000165961 0 0.00070371 0.000168883 0 
0.000703474 -0.000168651 0 0.000549826 0.000207462 0 0.000549826 -0.000207462 0 
0.000864237 0.00020878 0 0.000665505 -1.75358e-06 0 0.00106402 -6.49099e-06 0 
0.000862172 -0.000208798 0 0.0005018 0.000214286 0 0.0005018 -0.000214286 0 
0.00117842 -0.000170987 0 0.00116705 0.000166193 0 0.000858691 -0.00035148 0 
0.000873309 0.00035148 0 0.000975232 0.000285545 0 0.000758481 -0.000286192 0 
0.000561503 7.6703e-05 0 0.000555269 -7.65899e-05 0 0.000972639 -0.000294843 0 
0.00076107 0.000296588 0 0.000951061 -8.41794e-05 0 0.000954201 9.78925e-05 0 
0.000770216 8.5049e-05 0 0.000773031 -8.1944e-05 0 0.00049152 0.000247295 0 
0.00049152 -0.000247295 0 0.000639193 0.000247375 0 0.00063904 -0.000246565 0 
0.00118416 -5.24395e-05 0 0.00117173 6.09258e-05 0 0.000614347 -0.000142326 0 
0.000614347 0.000142326 0 0.000896745 -0.00041094 0 0.000835255 0.00041094 0 
0.00109521 -0.000246251 0 0.00109548 0.000241816 0 0.000888744 0.000133221 0 
0.000884672 -0.000131409 0 0.000734511 2.22198e-05 0 0.00099603 -1.62999e-05 0 
0.00049217 0.000149154 0 0.00049217 -0.000149154 0 0.00110092 -9.03863e-05 0 
0.0011967 -0.000235043 0 0.0011948 0.000234244 0 0.0010896 9.28059e-05 0 
0.000783591 0.000181545 0 0.000786677 -0.000178683 0 0.000691513 -7.86239e-05 0 
0.000956611 -0.000168878 0 0.000959159 0.000169495 0 0.000700823 7.45132e-05 0 
0.000773907 -0.000358769 0 0.000958093 0.000358769 0 0.000900764 0.000422113 0 
0.000831236 -0.000422113 0 0.00047076 0.000187946 0 0.00047076 -0.000187946 0 
0.000506327 1.20793e-06 0 0.00125496 -0.000188051 0 0.001256 0.000186364 0 
0.000930344 -0.000355671 0 0.000802223 0.000356891 0 0.000894056 -0.000283426 0 
0.000837944 0.000283426 0 0.00102403 5.64575e-05 0 0.000906579 0.000286843 0 
0.000825421 -0.000286843 0 0.00105345 0.000307262 0 0.00102589 -7.91024e-05 0 
0.000681095 -0.00030951 0 0.00122461 0.000105752 0 0.00122907 -0.00011688 0 
0.000540991 0.000251333 0 0.000540991 -0.000251333 0 0.000624479 7.32103e-05 0 
0.000551152 -0.000147794 0 0.000551606 0.000147802 0 0.000461422 0.00024054 0 
0.000462692 0.000218831 0 0.000461422 -0.00024054 0 0.000462692 -0.000218831 0 
0.00105793 -0.0003084 0 0.000605948 0.000200473 0 0.000605915 -0.000200421 0 
0.000894426 -0.000450764 0 0.000837574 0.000450764 0 0.000676934 0.000311072 0 
0.000626182 -7.08972e-05 0 0.000584992 5.90258e-06 0 0.00122078 1.89656e-05 0 
0.0010285 0.000232229 0 0.00124284 -0.000245894 0 0.00124267 0.000245397 0 
0.0010232 -0.000230896 0 0.00110079 0.000171119 0 0.00071471 -0.000232668 0 
0.000834965 9.05283e-05 0 0.000842673 -8.85226e-05 0 0.00095723 3.30279e-05 0 
0.000775615 -2.20485e-05 0 0.000713665 0.000235853 0 0.00110556 -0.000175069 0 
0.000491363 9.025e-05 0 0.000488571 -8.87482e-05 0 0.000912167 -4.59906e-05 0 
0.000932228 0.000232832 0 0.000904587 8.10868e-05 0 0.000789049 3.8011e-05 0 
0.000993486 -0.000360083 0 0.000936751 -0.00023716 0 0.00113854 3.89675e-06 0 
0.000789492 -0.000238637 0 0.00101161 0.000112396 0 0.000513466 0.00018326 0 
0.000513402 -0.000183259 0 0.000596046 0.000283517 0 0.000595385 -0.000285639 0 
0.000792102 0.000241238 0 0.00114845 0.000113194 0 0.000737403 0.00035529 0 
0.00114502 -0.000221334 0 0.00114373 0.00021912 0 0.00115942 -0.000117053 0 
0.000816164 -4.7003e-05 0 0.000827708 0.000144636 0 0.000827708 -0.000144636 0 
0.000728035 -3.243e-05 0 0.00074578 0.000136564 0 0.000744567 -0.000134897 0 
0.000659232 -0.0001943 0 0.000991599 -0.000122936 0 0.00065923 0.000194923 0 
0.000586401 0.000238032 0 0.000586231 -0.000238284 0 0.000670788 -0.000130267 0 
0.000668203 0.000129229 0 0.000889614 -8.00602e-05 0 0.000944998 -2.26884e-05 0 
0.00114587 -0.000279044 0 0.00114555 0.000278672 0 0.00087048 0.00044547 0 
0.00086152 -0.00044547 0 0.000598961 -0.000915961 0 0.000603317 -0.000588209 0 
0.000270723 -0.000581163 0 0.000270149 -0.000918385 0 0.000116826 -0.000542538 0 
0.000116826 -0.000957462 0 0.000431238 -0.00054122 0 0.000232505 -0.000744897 0 
0.000636012 -0.000752799 0 0.000434763 -0.00095878 0 6.87997e-05 -0.000535714 0 
6.87997e-05 -0.000964286 0 0.000745424 -0.000579013 0 0.000734049 -0.000916193 0 
0.000425691 -0.00110148 0 0.000440309 -0.00039852 0 0.000542232 -0.000464455 0 
0.00032556 -0.00103573 0 0.000128192 -0.000673002 0 0.000124428 -0.000825257 0 
0.000539618 -0.00104521 0 0.00032807 -0.000453412 0 0.000520463 -0.000846217 0 
0.000521988 -0.00065178 0 0.000340031 -0.000668056 0 0.00034624 -0.000838266 0 
5.85195e-05 -0.000502705 0 5.85195e-05 -0.000997295 0 0.000206193 -0.000502625 0 
0.00020604 -0.000996565 0 0.000751161 -0.00069756 0 0.00073873 -0.000810926 0 
0.000181347 -0.000892326 0 0.000181347 -0.000607674 0 0.000463745 -0.00116094 0 
0.000402255 -0.00033906 0 0.000662471 -0.000504287 0 0.000655871 -0.000984939 0 
0.000455875 -0.000616724 0 0.0004137 -0.000882087 0 0.000302544 -0.000768994 0 
0.000569409 -0.000757172 0 5.91695e-05 -0.000600846 0 5.91695e-05 -0.000899154 0 
0.000666622 -0.000652114 0 0.000763695 -0.000514957 0 0.000761799 -0.000984244 0 
0.000662952 -0.000835018 0 0.000350592 -0.000568457 0 0.000512323 -0.000928683 0 
0.000258513 -0.000671173 0 0.000526882 -0.000581015 0 0.000348994 -0.000924358 0 
0.000269055 -0.00082351 0 0.000340907 -0.00110877 0 0.000525093 -0.000391231 0 
0.000398236 -0.00117211 0 0.000467764 -0.000327887 0 3.77595e-05 -0.000562054 0 
3.77595e-05 -0.000937946 0 7.22902e-05 -0.000748076 0 0.000821959 -0.000561949 0 
0.000823003 -0.000936364 0 0.000497341 -0.00110573 0 0.000369223 -0.000393109 0 
0.000595975 -0.000691792 0 0.000461056 -0.00103343 0 0.000404944 -0.000466574 0 
0.000473579 -0.000463157 0 0.000392458 -0.00103684 0 0.000620449 -0.000442181 0 
0.000248106 -0.00105944 0 0.000791611 -0.000855752 0 0.000796074 -0.00063312 0 
0.000107991 -0.000498667 0 0.000107991 -0.00100133 0 0.000192237 -0.000821247 0 
0.000118309 -0.000897697 0 0.000118584 -0.000602176 0 2.84222e-05 -0.00050946 0 
2.96921e-05 -0.000531169 0 2.84222e-05 -0.00099054 0 2.96921e-05 -0.000968831 0 
0.000584827 -0.000825555 0 0.000620086 -0.00106094 0 0.000172947 -0.000549526 0 
0.000172922 -0.000950417 0 0.000461426 -0.00120076 0 0.000404574 -0.000299236 0 
0.000243934 -0.000438928 0 0.000192001 -0.000675472 0 0.000154074 -0.000745216 0 
0.000787779 -0.000768966 0 0.000588723 -0.000523989 0 0.000809841 -0.000504106 0 
0.000809671 -0.000995397 0 0.000571747 -0.000987513 0 0.000673596 -0.000911853 0 
0.000281249 -0.000981909 0 0.000409717 -0.000660715 0 0.000465934 -0.000841589 0 
0.000524589 -0.000717066 0 0.000342119 -0.000722933 0 0.000280666 -0.000514151 0 
0.000672694 -0.000574319 0 5.82468e-05 -0.000659662 0 5.65752e-05 -0.000839154 0 
0.000386493 -0.000796808 0 0.000361584 -0.000985225 0 0.000499228 -0.000517168 0 
0.000471587 -0.000668913 0 0.000510532 -0.000790014 0 0.000559513 -0.00111068 0 
0.000707209 -0.000752897 0 8.04633e-05 -0.000566736 0 8.04241e-05 -0.000933245 0 
0.000163046 -0.000466483 0 0.000162386 -0.00103563 0 0.000578393 -0.000637387 0 
0.000503901 -0.000990722 0 0.000359102 -0.000508763 0 0.000714127 -0.000859658 0 
0.000304403 -0.00039471 0 0.000712099 -0.000528651 0 0.000710619 -0.000966814 0 
0.000726254 -0.000631789 0 0.000383073 -0.000701841 0 0.000471292 -0.000894636 0 
0.000394708 -0.000605364 0 0.000295143 -0.00071521 0 0.000544105 -0.000886073 0 
0.00030982 -0.000616796 0 0.000226145 -0.000944288 0 0.000307419 -0.000884579 0 
0.000226252 -0.000555158 0 0.000153401 -0.000511968 0 0.000153233 -0.000988282 0 
0.000237471 -0.000619391 0 0.000238317 -0.000879885 0 0.000410377 -0.000831296 0 
0.000352297 -0.000773675 0 0.00071621 -0.000470678 0 0.000708438 -0.00102758 0 
0.00043748 -0.00030453 0 0.00042852 -0.00119547 0 -0.000266167 -0.000909585 0 
-0.00026339 -0.000582669 0 -0.000595526 -0.000581349 0 -0.000595539 -0.000918697 0 
-0.000749174 -0.000957462 0 -0.000749174 -0.000542538 0 -0.000436828 -0.000541202 0 
-0.000633495 -0.000748246 0 -0.000234978 -0.000756491 0 -0.000436828 -0.000958798 0 
-0.0007972 -0.000964286 0 -0.0007972 -0.000535714 0 -0.000131951 -0.000583807 0 
-0.000120576 -0.000920987 0 -0.000440309 -0.00110148 0 -0.000440309 -0.00039852 0 
-0.000540519 -0.000463808 0 -0.000540519 -0.00103619 0 -0.000737497 -0.000826703 0 
-0.000743731 -0.00067341 0 -0.000326361 -0.000455157 0 -0.000326361 -0.00104484 0 
-0.000347939 -0.000834179 0 -0.000344799 -0.000652107 0 -0.000525969 -0.000668056 0 
-0.000528784 -0.000835049 0 -0.00080748 -0.000997295 0 -0.00080748 -0.000502705 0 
-0.00065996 -0.000996565 0 -0.00065996 -0.000503435 0 -0.000114839 -0.00080244 0 
-0.00012727 -0.000689074 0 -0.000684653 -0.000892326 0 -0.000684653 -0.000607674 0 
-0.000402255 -0.00033906 0 -0.000402255 -0.00116094 0 -0.00020379 -0.000996251 0 
-0.000209694 -0.000514898 0 -0.000410601 -0.000616776 0 -0.000414328 -0.000881409 0 
-0.000564489 -0.00077222 0 -0.00030297 -0.0007663 0 -0.000806831 -0.000899154 0 
-0.000806831 -0.000600846 0 -0.000198082 -0.000840386 0 -0.000104201 -0.000515756 0 
-0.000102305 -0.000985043 0 -0.000210482 -0.000662469 0 -0.000512323 -0.000571317 0 
-0.000512323 -0.000928683 0 -0.000607487 -0.000671376 0 -0.000342389 -0.000918878 0 
-0.000339591 -0.000579218 0 -0.000598177 -0.000824513 0 -0.000525093 -0.00110877 0 
-0.000525093 -0.000391231 0 -0.000467764 -0.00117211 0 -0.000467764 -0.000327887 0 
-0.00082824 -0.000937946 0 -0.00082824 -0.000562054 0 -0.000792673 -0.000751208 0 
-4.40406e-05 -0.000938051 0 -4.29968e-05 -0.000563636 0 -0.000368656 -0.000394329 0 
-0.000368656 -0.00110567 0 -0.000404944 -0.000466574 0 -0.000404944 -0.00103343 0 
-0.000274968 -0.000693542 0 -0.000473579 -0.000463157 0 -0.000473579 -0.00103684 0 
-0.000273108 -0.000829102 0 -0.000617905 -0.00105951 0 -0.000617905 -0.00044049 0 
-7.4389e-05 -0.000644248 0 -6.99258e-05 -0.00086688 0 -0.000758009 -0.00100133 0 
-0.000758009 -0.000498667 0 -0.000674521 -0.00082321 0 -0.000747394 -0.000897802 0 
-0.000747848 -0.000602206 0 -0.000837578 -0.00099054 0 -0.000836308 -0.000968831 0 
-0.000837578 -0.00050946 0 -0.000836308 -0.000531169 0 -0.00024589 -0.000439066 0 
-0.000241075 -0.0010584 0 -0.000693065 -0.000950422 0 -0.000693085 -0.000549579 0 
-0.000404574 -0.00120076 0 -0.000404574 -0.000299236 0 -0.000672818 -0.000679103 0 
-0.000714008 -0.000755903 0 -7.82213e-05 -0.000731034 0 -5.6329e-05 -0.000504603 0 
-5.61586e-05 -0.000995894 0 -0.000275796 -0.000980896 0 -0.000285676 -0.000513219 0 
-0.000186165 -0.000585602 0 -0.000584291 -0.000982673 0 -0.00058429 -0.000517332 0 
-0.00045634 -0.000660721 0 -0.000464193 -0.000839596 0 -0.00034177 -0.000716972 0 
-0.000523385 -0.000727952 0 -0.000193444 -0.000925069 0 -0.000807637 -0.00084025 0 
-0.000810429 -0.000661252 0 -0.000386833 -0.000795991 0 -0.000394413 -0.000668913 0 
-0.000509958 -0.000787971 0 -0.000305514 -0.00111008 0 -0.000306477 -0.00038941 0 
-0.000362249 -0.00098716 0 -0.00035868 -0.000511074 0 -0.000160645 -0.000746982 0 
-0.000509508 -0.000511363 0 -0.000509508 -0.000988638 0 -0.00028739 -0.000637604 0 
-0.000785534 -0.00093326 0 -0.000785598 -0.000566741 0 -0.000703615 -0.00103564 0 
-0.000703615 -0.000464361 0 -0.000148903 -0.000636616 0 -0.00015636 -0.000534148 0 
-0.000153981 -0.000971334 0 -0.000139581 -0.000867053 0 -0.000482839 -0.000702846 0 
-0.000471292 -0.000605364 0 -0.000471292 -0.000894636 0 -0.000570965 -0.00071757 0 
-0.000554433 -0.000615103 0 -0.000553903 -0.000884892 0 -0.000639788 -0.00094438 0 
-0.000639768 -0.0005557 0 -0.000307401 -0.000872936 0 -0.000712765 -0.000988284 0 
-0.000712769 -0.000511716 0 -0.000628213 -0.000619733 0 -0.000630855 -0.000879083 0 
-0.000409259 -0.000828735 0 -0.000354002 -0.000772688 0 -0.000155373 -0.000471972 0 
-0.000153127 -0.00102904 0 -0.00043748 -0.00030453 0 -0.00043748 -0.00119547 0 
-0.000699167 -0.000159585 0 -0.00102828 0.000168837 0 -0.000700039 0.000165961 0 
-0.00102854 -0.000168697 0 -0.00118217 0.000207462 0 -0.00118217 -0.000207462 0 
-0.000867762 0.00020878 0 -0.00106649 5.10348e-06 0 -0.000667978 -6.49099e-06 0 
-0.000869828 -0.000208798 0 -0.0012302 0.000214286 0 -0.0012302 -0.000214286 0 
-0.000564951 0.000166193 0 -0.000553576 -0.000170987 0 -0.000873309 -0.00035148 0 
-0.000858691 0.00035148 0 -0.000756768 0.000285545 0 -0.000973519 -0.000286192 0 
-0.00117081 7.69979e-05 0 -0.00117457 -7.52569e-05 0 -0.000759361 -0.000294843 0 
-0.00097093 0.000296588 0 -0.000780939 -8.41794e-05 0 -0.000958969 8.1944e-05 0 
-0.000777799 9.78925e-05 0 -0.000961784 -8.5049e-05 0 -0.00124048 0.000247295 0 
-0.00124048 -0.000247295 0 -0.00109281 0.000247375 0 -0.00109296 -0.000246565 0 
-0.000547839 -5.24395e-05 0 -0.00056027 6.09258e-05 0 -0.00111765 0.000142326 0 
-0.00111765 -0.000142326 0 -0.000835255 -0.00041094 0 -0.000896745 0.00041094 0 
-0.00063679 -0.000246251 0 -0.000636522 0.000241816 0 -0.000843256 0.000133221 0 
-0.000847328 -0.000131409 0 -0.000997489 -2.16615e-05 0 -0.00073597 -1.62999e-05 0 
-0.00123983 0.000149154 0 -0.00123983 -0.000149154 0 -0.000631082 -9.03863e-05 0 
-0.000535305 -0.000235043 0 -0.000537201 0.000234244 0 -0.000642398 9.28059e-05 0 
-0.000948408 0.000181543 0 -0.000945323 -0.000178683 0 -0.00104049 7.88274e-05 0 
-0.000775389 -0.000168878 0 -0.000772841 0.000169495 0 -0.00103118 -7.38619e-05 0 
-0.000958093 -0.000358769 0 -0.000773907 0.000358769 0 -0.000900764 -0.000422113 0 
-0.000831236 0.000422113 0 -0.00126124 0.000187946 0 -0.00126124 -0.000187946 0 
-0.00122671 1.92365e-06 0 -0.000477041 -0.000188051 0 -0.000475997 0.000186364 0 
-0.000801656 -0.000355671 0 -0.000929777 0.000356891 0 -0.000837944 -0.000283426 0 
-0.000894056 0.000283426 0 -0.000707968 5.64575e-05 0 -0.000825421 0.000286843 0 
-0.000906579 -0.000286843 0 -0.000678551 0.000307262 0 -0.000706108 -7.91024e-05 0 
-0.0010509 -0.00030951 0 -0.000507389 0.000105752 0 -0.000502926 -0.00011688 0 
-0.00119101 0.000251333 0 -0.00119101 -0.000251333 0 -0.00110684 -7.12684e-05 0 
-0.00118042 0.000147824 0 -0.00118069 -0.000147697 0 -0.00127058 0.00024054 0 
-0.00126931 0.000218831 0 -0.00127058 -0.00024054 0 -0.00126931 -0.000218831 0 
-0.000674075 -0.0003084 0 -0.00112605 0.000200474 0 -0.00112608 -0.000200417 0 
-0.000837574 -0.000450764 0 -0.000894426 0.000450764 0 -0.00105507 0.000311072 0 
-0.001107 7.45278e-05 0 -0.00114494 4.78174e-06 0 -0.000511221 1.89656e-05 0 
-0.000703503 0.000232229 0 -0.000489329 0.000245397 0 -0.000489159 -0.000245894 0 
-0.000708796 -0.000230896 0 -0.000631208 0.000171119 0 -0.00101729 -0.000232673 0 
-0.000889299 8.92785e-05 0 -0.000897193 -8.95957e-05 0 -0.00077477 3.30279e-05 0 
-0.000956385 2.2115e-05 0 -0.00101833 0.000235849 0 -0.000626444 -0.000175069 0 
-0.00124075 9.03378e-05 0 -0.00124242 -8.91537e-05 0 -0.000819833 -4.59906e-05 0 
-0.000799772 0.000232832 0 -0.000827413 8.10868e-05 0 -0.000942958 -3.79434e-05 0 
-0.000738514 -0.000360083 0 -0.000795249 -0.00023716 0 -0.000593465 3.89675e-06 0 
-0.000942508 -0.000238638 0 -0.00072039 0.000112396 0 -0.00121854 0.000183264 0 
-0.00121858 -0.000183245 0 -0.00113595 0.000283517 0 -0.00113662 -0.000285639 0 
-0.000939898 0.000241237 0 -0.00058355 0.000113194 0 -0.000994597 0.00035529 0 
-0.000586981 -0.000221334 0 -0.000588267 0.00021912 0 -0.000572581 -0.000117053 0 
-0.00091583 4.71675e-05 0 -0.000904292 -0.000144636 0 -0.000904292 0.000144636 0 
-0.00100396 3.32657e-05 0 -0.00098918 0.000133204 0 -0.000986047 -0.000136339 0 
-0.00107279 -0.00019438 0 -0.000740401 -0.000122936 0 -0.00107275 0.000194842 0 
-0.0011456 0.000238032 0 -0.00114577 -0.000238283 0 -0.00106153 0.000130609 0 
-0.00106376 -0.000129013 0 -0.000842259 -7.8735e-05 0 -0.000787002 -2.26884e-05 0 
-0.000586448 0.000278672 0 -0.000586127 -0.000279044 0 -0.00087048 -0.00044547 0 
-0.00086152 0.00044547 0 -0.000266167 0.000590415 0 -0.000267039 0.000915961 0 
-0.000595277 0.000918837 0 -0.000595539 0.000581303 0 -0.000749174 0.000542538 0 
-0.000749174 0.000957462 0 -0.000434763 0.00095878 0 -0.000633495 0.000751754 0 
-0.000234978 0.000743509 0 -0.000436828 0.000541202 0 -0.0007972 0.000535714 0 
-0.0007972 0.000964286 0 -0.000131951 0.000916193 0 -0.000120576 0.000579013 0 
-0.000440309 0.00039852 0 -0.000425691 0.00110148 0 -0.000323768 0.00103554 0 
-0.000540519 0.000463808 0 -0.000737497 0.000673297 0 -0.000743731 0.00082659 0 
-0.000326361 0.000455157 0 -0.00053793 0.00104659 0 -0.000347939 0.000665821 0 
-0.000344799 0.000847893 0 -0.000525969 0.000831944 0 -0.000528784 0.000664951 0 
-0.00080748 0.000502705 0 -0.00080748 0.000997295 0 -0.00065996 0.000503435 0 
-0.000659807 0.000997375 0 -0.000114839 0.00069756 0 -0.00012727 0.000810926 0 
-0.000684653 0.000607674 0 -0.000684653 0.000892326 0 -0.000402255 0.00033906 0 
-0.000463745 0.00116094 0 -0.00020379 0.000503749 0 -0.000203522 0.000991815 0 
-0.000410256 0.000883221 0 -0.000414328 0.000618591 0 -0.000564489 0.00072778 0 
-0.00030297 0.0007337 0 -0.000806831 0.000600846 0 -0.000806831 0.000899154 0 
-0.000198082 0.000659614 0 -0.000104201 0.000984244 0 -0.000102305 0.000514957 0 
-0.000209398 0.000842806 0 -0.000515408 0.000931543 0 -0.000512323 0.000571317 0 
-0.000607487 0.000828624 0 -0.000342389 0.000581122 0 -0.000339841 0.000919495 0 
-0.000598177 0.000675487 0 -0.000525093 0.000391231 0 -0.000340907 0.00110877 0 
-0.000398236 0.00117211 0 -0.000467764 0.000327887 0 -0.00082824 0.000562054 0 
-0.00082824 0.000937946 0 -0.000792673 0.000748792 0 -4.40406e-05 0.000561949 0 
-4.29968e-05 0.000936364 0 -0.000368656 0.000394329 0 -0.000496777 0.00110689 0 
-0.000404944 0.000466574 0 -0.000461056 0.00103343 0 -0.000274968 0.000806458 0 
-0.000392421 0.00103684 0 -0.000473579 0.000463157 0 -0.000245551 0.00105726 0 
-0.000273108 0.000670898 0 -0.000617905 0.00044049 0 -7.4389e-05 0.000855752 0 
-6.99258e-05 0.00063312 0 -0.000758009 0.000498667 0 -0.000758009 0.00100133 0 
-0.000674521 0.00067679 0 -0.000747394 0.000602198 0 -0.000747848 0.000897794 0 
-0.000837578 0.00050946 0 -0.000836308 0.000531169 0 -0.000837578 0.00099054 0 
-0.000836308 0.000968831 0 -0.000241075 0.0004416 0 -0.000693065 0.000549578 0 
-0.000693072 0.000950473 0 -0.000404574 0.000299236 0 -0.000461426 0.00120076 0 
-0.000622066 0.00106107 0 -0.000672818 0.000820897 0 -0.000714008 0.000744097 0 
-7.82213e-05 0.000768966 0 -0.000270503 0.000982229 0 -5.6329e-05 0.000995397 0 
-5.61586e-05 0.000504106 0 -0.000275796 0.000519104 0 -0.000198208 0.000921119 0 
-0.000584291 0.000517327 0 -0.000456299 0.000839279 0 -0.000464193 0.000660404 0 
-0.00034177 0.000783028 0 -0.000523385 0.000772048 0 -0.000585334 0.000985849 0 
-0.000193444 0.000574931 0 -0.000807637 0.00065975 0 -0.000810429 0.000838748 0 
-0.000386833 0.000704009 0 -0.000366772 0.000982832 0 -0.000394413 0.000831087 0 
-0.000509958 0.000712029 0 -0.000305514 0.000389917 0 -0.000362249 0.00051284 0 
-0.000160465 0.000753897 0 -0.000509508 0.000511362 0 -0.00028739 0.000862396 0 
-0.000785534 0.00056674 0 -0.000785598 0.000933259 0 -0.000703615 0.000464361 0 
-0.000702954 0.00103352 0 -0.000506898 0.000991237 0 -0.00015055 0.000863194 0 
-0.000561597 0.00110529 0 -0.000153981 0.000528666 0 -0.000155267 0.00096912 0 
-0.000139581 0.000632947 0 -0.00048283 0.000797154 0 -0.000471292 0.000894636 0 
-0.000471292 0.000605364 0 -0.000570965 0.00078243 0 -0.00055618 0.00088318 0 
-0.000553903 0.000615108 0 -0.000639788 0.00055562 0 -0.000307401 0.000627064 0 
-0.00063975 0.000944842 0 -0.000712765 0.000511716 0 -0.000712603 0.000988032 0 
-0.000628389 0.00088015 0 -0.000630855 0.000620917 0 -0.000409259 0.000671265 0 
-0.000354002 0.000727312 0 -0.000153448 0.00102867 0 -0.000153127 0.000470956 0 
-0.00042852 0.00119547 0 -0.00043748 0.00030453 0 0.000166833 -0.000159585 -0.0005 
0.000165961 0.000165961 -0.0005 -0.000162277 0.000168837 -0.0005 -0.000162539 -0.000168697 -0.0005 
-0.000316174 -0.000207462 -0.0005 -0.000316174 0.000207462 -0.0005 -1.7625e-06 0.00020878 -0.0005 
-0.000200494 5.10348e-06 -0.0005 0.000198022 -6.49099e-06 -0.0005 -3.82827e-06 -0.000208798 -0.0005 
-0.0003642 0.000214286 -0.0005 -0.0003642 -0.000214286 -0.0005 0.000301049 0.000166193 -0.0005 
0.000312424 -0.000170987 -0.0005 -7.30908e-06 -0.00035148 -0.0005 7.30908e-06 0.00035148 -0.0005 
0.000109232 0.000285545 -0.0005 -0.000107519 -0.000286192 -0.0005 -0.000304808 7.69979e-05 -0.0005 
-0.000308572 -7.52569e-05 -0.0005 0.000106639 -0.000294843 -0.0005 -0.00010493 0.000296588 -0.0005 
8.50608e-05 -8.41794e-05 -0.0005 8.82006e-05 9.78925e-05 -0.0005 -9.29688e-05 8.1944e-05 -0.0005 
-9.5784e-05 -8.5049e-05 -0.0005 -0.00037448 0.000247295 -0.0005 -0.00037448 -0.000247295 -0.0005 
-0.000226807 0.000247375 -0.0005 -0.00022696 -0.000246565 -0.0005 0.000318161 -5.24395e-05 -0.0005 
0.00030573 6.09258e-05 -0.0005 -0.000251653 -0.000142326 -0.0005 -0.000251653 0.000142326 -0.0005 
3.07451e-05 -0.00041094 -0.0005 -3.07451e-05 0.00041094 -0.0005 0.00022921 -0.000246251 -0.0005 
0.000229478 0.000241816 -0.0005 2.27436e-05 0.000133221 -0.0005 1.86722e-05 -0.000131409 -0.0005 
-0.000131489 -2.16615e-05 -0.0005 0.00013003 -1.62999e-05 -0.0005 -0.00037383 0.000149154 -0.0005 
-0.00037383 -0.000149154 -0.0005 0.000234918 -9.03863e-05 -0.0005 0.000328799 0.000234244 -0.0005 
0.000330695 -0.000235043 -0.0005 0.000223602 9.28059e-05 -0.0005 -8.24081e-05 0.000181543 -0.0005 
-7.93229e-05 -0.000178683 -0.0005 -0.000174487 7.88274e-05 -0.0005 9.06107e-05 -0.000168878 -0.0005 
9.31592e-05 0.000169495 -0.0005 -0.000165177 -7.38619e-05 -0.0005 -9.20929e-05 -0.000358769 -0.0005 
9.20929e-05 0.000358769 -0.0005 3.47644e-05 0.000422113 -0.0005 -3.47644e-05 -0.000422113 -0.0005 
-0.00039524 0.000187946 -0.0005 -0.00039524 -0.000187946 -0.0005 -0.00036071 1.92365e-06 -0.0005 
0.000388959 -0.000188051 -0.0005 0.000390003 0.000186364 -0.0005 6.43444e-05 -0.000355671 -0.0005 
-6.37768e-05 0.000356891 -0.0005 2.80563e-05 -0.000283426 -0.0005 -2.80563e-05 0.000283426 -0.0005 
0.000158032 5.64575e-05 -0.0005 4.0579e-05 0.000286843 -0.0005 -4.0579e-05 -0.000286843 -0.0005 
0.000187449 0.000307262 -0.0005 0.000159892 -7.91024e-05 -0.0005 -0.000184905 -0.00030951 -0.0005 
0.000358611 0.000105752 -0.0005 0.000363074 -0.00011688 -0.0005 -0.000325009 0.000251333 -0.0005 
-0.000325009 -0.000251333 -0.0005 -0.000240838 -7.12684e-05 -0.0005 -0.000314691 -0.000147697 -0.0005 
-0.000314417 0.000147824 -0.0005 -0.000404578 0.00024054 -0.0005 -0.000403308 0.000218831 -0.0005 
-0.000404578 -0.00024054 -0.0005 -0.000403308 -0.000218831 -0.0005 0.000191925 -0.0003084 -0.0005 
-0.000260053 0.000200474 -0.0005 -0.000260078 -0.000200417 -0.0005 -2.84262e-05 0.000450764 -0.0005 
2.84262e-05 -0.000450764 -0.0005 -0.000189066 0.000311072 -0.0005 -0.000240999 7.45278e-05 -0.0005 
-0.000278935 4.78174e-06 -0.0005 0.000354779 1.89656e-05 -0.0005 0.000162497 0.000232229 -0.0005 
0.000376671 0.000245397 -0.0005 0.000376841 -0.000245894 -0.0005 0.000157204 -0.000230896 -0.0005 
0.000234792 0.000171119 -0.0005 -0.000151291 -0.000232673 -0.0005 -2.32986e-05 8.92785e-05 -0.0005 
-3.11926e-05 -8.95957e-05 -0.0005 -9.03847e-05 2.2115e-05 -0.0005 9.12302e-05 3.30279e-05 -0.0005 
-0.000152334 0.000235849 -0.0005 0.000239556 -0.000175069 -0.0005 -0.000374753 9.03378e-05 -0.0005 
-0.000376425 -8.91537e-05 -0.0005 4.61669e-05 -4.59906e-05 -0.0005 6.62281e-05 0.000232832 -0.0005 
3.85868e-05 8.10868e-05 -0.0005 -7.69579e-05 -3.79434e-05 -0.0005 0.000127486 -0.000360083 -0.0005 
7.07506e-05 -0.00023716 -0.0005 0.000272535 3.89675e-06 -0.0005 -7.65081e-05 -0.000238638 -0.0005 
0.00014561 0.000112396 -0.0005 -0.000352537 0.000183264 -0.0005 -0.000352576 -0.000183245 -0.0005 
-0.000270615 -0.000285639 -0.0005 -0.000269954 0.000283517 -0.0005 -7.38981e-05 0.000241237 -0.0005 
0.00028245 0.000113194 -0.0005 -0.000128597 0.00035529 -0.0005 0.000277733 0.00021912 -0.0005 
0.000279019 -0.000221334 -0.0005 0.000293419 -0.000117053 -0.0005 -4.98304e-05 4.71675e-05 -0.0005 
-3.82924e-05 0.000144636 -0.0005 -3.82924e-05 -0.000144636 -0.0005 -0.000137965 3.32657e-05 -0.0005 
-0.00012318 0.000133204 -0.0005 -0.000120047 -0.000136339 -0.0005 -0.000206789 -0.00019438 -0.0005 
0.000125599 -0.000122936 -0.0005 -0.000206748 0.000194842 -0.0005 -0.000279599 0.000238032 -0.0005 
-0.000279767 -0.000238283 -0.0005 -0.000195529 0.000130609 -0.0005 -0.000197761 -0.000129013 -0.0005 
2.37414e-05 -7.8735e-05 -0.0005 7.89976e-05 -2.26884e-05 -0.0005 0.000279552 0.000278672 -0.0005 
0.000279873 -0.000279044 -0.0005 4.48012e-06 0.00044547 -0.0005 -4.48012e-06 -0.00044547 -0.0005 
0.000598961 0.000584039 -0.0005 0.000602744 0.00091226 -0.0005 0.000270474 0.000918651 -0.0005 
0.000270149 0.000581615 -0.0005 0.000116826 0.000957462 -0.0005 0.000116826 0.000542538 -0.0005 
0.000429172 0.000958798 -0.0005 0.000232505 0.000755103 -0.0005 0.000636012 0.000747201 -0.0005 
0.000434763 0.00054122 -0.0005 6.87997e-05 0.000964286 -0.0005 6.87997e-05 0.000535714 -0.0005 
0.000745424 0.000920987 -0.0005 0.000734049 0.000583807 -0.0005 0.000425691 0.00039852 -0.0005 
0.000425691 0.00110148 -0.0005 0.000325481 0.00103619 -0.0005 0.00032556 0.000464273 -0.0005 
0.000128192 0.000826998 -0.0005 0.000124428 0.000674743 -0.0005 0.000539639 0.00104484 -0.0005 
0.000539618 0.000454793 -0.0005 0.000520463 0.000653783 -0.0005 0.000521988 0.00084822 -0.0005 
0.000340031 0.000831944 -0.0005 0.00034624 0.000661734 -0.0005 5.85195e-05 0.000997295 -0.0005 
5.85195e-05 0.000502705 -0.0005 0.00020604 0.000996565 -0.0005 0.00020604 0.000503435 -0.0005 
0.000751161 0.00080244 -0.0005 0.00073873 0.000689074 -0.0005 0.000181347 0.000607674 -0.0005 
0.000181347 0.000892326 -0.0005 0.000463745 0.00033906 -0.0005 0.000463745 0.00116094 -0.0005 
0.00066221 0.000996251 -0.0005 0.000655871 0.000515061 -0.0005 0.000455531 0.000883279 -0.0005 
0.0004137 0.000617913 -0.0005 0.000302544 0.000731006 -0.0005 0.000569409 0.000742828 -0.0005 
5.91695e-05 0.000899154 -0.0005 5.91695e-05 0.000600846 -0.0005 0.000666622 0.000847886 -0.0005 
0.000763695 0.000985043 -0.0005 0.000761799 0.000515756 -0.0005 0.000662952 0.000664982 -0.0005 
0.000353677 0.000928683 -0.0005 0.000512323 0.000571317 -0.0005 0.000258513 0.000828827 -0.0005 
0.000526529 0.000920143 -0.0005 0.000348994 0.000575642 -0.0005 0.000269055 0.00067649 -0.0005 
0.000340907 0.000391231 -0.0005 0.000340907 0.00110877 -0.0005 0.000398236 0.00117211 -0.0005 
0.000398236 0.000327887 -0.0005 3.77595e-05 0.000937946 -0.0005 3.77595e-05 0.000562054 -0.0005 
7.22902e-05 0.000751924 -0.0005 0.000821959 0.000938051 -0.0005 0.000823003 0.000563636 -0.0005 
0.000497344 0.00110567 -0.0005 0.000497341 0.000394268 -0.0005 0.000595975 0.000808208 -0.0005 
0.000461056 0.000466574 -0.0005 0.000461056 0.00103343 -0.0005 0.000392421 0.00103684 -0.0005 
0.000392458 0.000463164 -0.0005 0.000248106 0.000440556 -0.0005 0.000248095 0.00105951 -0.0005 
0.000791611 0.000644248 -0.0005 0.000796074 0.00086688 -0.0005 0.000107991 0.00100133 -0.0005 
0.000107991 0.000498667 -0.0005 0.000192237 0.000678753 -0.0005 0.000118309 0.000602303 -0.0005 
0.000118584 0.000897824 -0.0005 2.84222e-05 0.00099054 -0.0005 2.96921e-05 0.000968831 -0.0005 
2.84222e-05 0.00050946 -0.0005 2.96921e-05 0.000531169 -0.0005 0.000584827 0.000674445 -0.0005 
0.000624925 0.0010584 -0.0005 0.000620086 0.000439056 -0.0005 0.000172934 0.000950423 -0.0005 
0.000172922 0.000549583 -0.0005 0.000461426 0.00120076 -0.0005 0.000461426 0.000299236 -0.0005 
0.000192001 0.000824528 -0.0005 0.000154074 0.000754784 -0.0005 0.000787779 0.000731034 -0.0005 
0.000809841 0.000995894 -0.0005 0.000809671 0.000504603 -0.0005 0.000589469 0.00097835 -0.0005 
0.000571747 0.000512487 -0.0005 0.000673596 0.000588147 -0.0005 0.000281249 0.000518091 -0.0005 
0.00028171 0.000982668 -0.0005 0.000409676 0.000839285 -0.0005 0.000465934 0.000658411 -0.0005 
0.000524589 0.000782934 -0.0005 0.000342119 0.000777068 -0.0005 0.000672682 0.000926159 -0.0005 
5.82468e-05 0.000840338 -0.0005 5.65752e-05 0.000660846 -0.0005 0.000386493 0.000703192 -0.0005 
0.000361584 0.000514775 -0.0005 0.000471587 0.000831087 -0.0005 0.000510532 0.000709986 -0.0005 
0.000559513 0.000389323 -0.0005 0.000560486 0.00111008 -0.0005 0.000503751 0.00098716 -0.0005 
0.000707209 0.000747103 -0.0005 0.000356492 0.000988637 -0.0005 8.04633e-05 0.000933264 -0.0005 
8.04241e-05 0.000566755 -0.0005 0.000162386 0.000464369 -0.0005 0.000162385 0.00103564 -0.0005 
0.000578393 0.000862613 -0.0005 0.000503901 0.000509278 -0.0005 0.000714127 0.000640342 -0.0005 
0.000712044 0.000971552 -0.0005 0.000710619 0.000533186 -0.0005 0.000726252 0.00086828 -0.0005 
0.000383065 0.000798159 -0.0005 0.000471292 0.000605364 -0.0005 0.000394708 0.000894636 -0.0005 
0.000295143 0.00078479 -0.0005 0.000311567 0.000884914 -0.0005 0.000544105 0.000613927 -0.0005 
0.000226145 0.000555712 -0.0005 0.000226234 0.0009443 -0.0005 0.000307419 0.000615421 -0.0005 
0.000153235 0.000988284 -0.0005 0.000153233 0.000511718 -0.0005 0.000237647 0.000880726 -0.0005 
0.000238317 0.000620115 -0.0005 0.000410377 0.000668704 -0.0005 0.000352297 0.000726325 -0.0005 
0.000712874 0.00102905 -0.0005 0.000708438 0.00047242 -0.0005 0.00042852 0.00030453 -0.0005 
0.00042852 0.00119547 -0.0005 0.00103283 -0.000159585 -0.0005 0.00103196 0.000165961 -0.0005 
0.00070371 0.000168883 -0.0005 0.000703474 -0.000168651 -0.0005 0.000549826 0.000207462 -0.0005 
0.000549826 -0.000207462 -0.0005 0.000864237 0.00020878 -0.0005 0.000665505 -1.75358e-06 -0.0005 
0.00106402 -6.49099e-06 -0.0005 0.000862172 -0.000208798 -0.0005 0.0005018 0.000214286 -0.0005 
0.0005018 -0.000214286 -0.0005 0.00117842 -0.000170987 -0.0005 0.00116705 0.000166193 -0.0005 
0.000858691 -0.00035148 -0.0005 0.000873309 0.00035148 -0.0005 0.000975232 0.000285545 -0.0005 
0.000758481 -0.000286192 -0.0005 0.000561503 7.6703e-05 -0.0005 0.000555269 -7.65899e-05 -0.0005 
0.000972639 -0.000294843 -0.0005 0.00076107 0.000296588 -0.0005 0.000951061 -8.41794e-05 -0.0005 
0.000954201 9.78925e-05 -0.0005 0.000770216 8.5049e-05 -0.0005 0.000773031 -8.1944e-05 -0.0005 
0.00049152 0.000247295 -0.0005 0.00049152 -0.000247295 -0.0005 0.000639193 0.000247375 -0.0005 
0.00063904 -0.000246565 -0.0005 0.00118416 -5.24395e-05 -0.0005 0.00117173 6.09258e-05 -0.0005 
0.000614347 -0.000142326 -0.0005 0.000614347 0.000142326 -0.0005 0.000896745 -0.00041094 -0.0005 
0.000835255 0.00041094 -0.0005 0.00109521 -0.000246251 -0.0005 0.00109548 0.000241816 -0.0005 
0.000888744 0.000133221 -0.0005 0.000884672 -0.000131409 -0.0005 0.000734511 2.22198e-05 -0.0005 
0.00099603 -1.62999e-05 -0.0005 0.00049217 0.000149154 -0.0005 0.00049217 -0.000149154 -0.0005 
0.00110092 -9.03863e-05 -0.0005 0.0011967 -0.000235043 -0.0005 0.0011948 0.000234244 -0.0005 
0.0010896 9.28059e-05 -0.0005 0.000783591 0.000181545 -0.0005 0.000786677 -0.000178683 -0.0005 
0.000691513 -7.86239e-05 -0.0005 0.000956611 -0.000168878 -0.0005 0.000959159 0.000169495 -0.0005 
0.000700823 7.45132e-05 -0.0005 0.000773907 -0.000358769 -0.0005 0.000958093 0.000358769 -0.0005 
0.000900764 0.000422113 -0.0005 0.000831236 -0.000422113 -0.0005 0.00047076 0.000187946 -0.0005 
0.00047076 -0.000187946 -0.0005 0.000506327 1.20793e-06 -0.0005 0.00125496 -0.000188051 -0.0005 
0.001256 0.000186364 -0.0005 0.000930344 -0.000355671 -0.0005 0.000802223 0.000356891 -0.0005 
0.000894056 -0.000283426 -0.0005 0.000837944 0.000283426 -0.0005 0.00102403 5.64575e-05 -0.0005 
0.000906579 0.000286843 -0.0005 0.000825421 -0.000286843 -0.0005 0.00105345 0.000307262 -0.0005 
0.00102589 -7.91024e-05 -0.0005 0.000681095 -0.00030951 -0.0005 0.00122461 0.000105752 -0.0005 
0.00122907 -0.00011688 -0.0005 0.000540991 0.000251333 -0.0005 0.000540991 -0.000251333 -0.0005 
0.000624479 7.32103e-05 -0.0005 0.000551152 -0.000147794 -0.0005 0.000551606 0.000147802 -0.0005 
0.000461422 0.00024054 -0.0005 0.000462692 0.000218831 -0.0005 0.000461422 -0.00024054 -0.0005 
0.000462692 -0.000218831 -0.0005 0.00105793 -0.0003084 -0.0005 0.000605948 0.000200473 -0.0005 
0.000605915 -0.000200421 -0.0005 0.000894426 -0.000450764 -0.0005 0.000837574 0.000450764 -0.0005 
0.000676934 0.000311072 -0.0005 0.000626182 -7.08972e-05 -0.0005 0.000584992 5.90258e-06 -0.0005 
0.00122078 1.89656e-05 -0.0005 0.0010285 0.000232229 -0.0005 0.00124284 -0.000245894 -0.0005 
0.00124267 0.000245397 -0.0005 0.0010232 -0.000230896 -0.0005 0.00110079 0.000171119 -0.0005 
0.00071471 -0.000232668 -0.0005 0.000834965 9.05283e-05 -0.0005 0.000842673 -8.85226e-05 -0.0005 
0.00095723 3.30279e-05 -0.0005 0.000775615 -2.20485e-05 -0.0005 0.000713665 0.000235853 -0.0005 
0.00110556 -0.000175069 -0.0005 0.000491363 9.025e-05 -0.0005 0.000488571 -8.87482e-05 -0.0005 
0.000912167 -4.59906e-05 -0.0005 0.000932228 0.000232832 -0.0005 0.000904587 8.10868e-05 -0.0005 
0.000789049 3.8011e-05 -0.0005 0.000993486 -0.000360083 -0.0005 0.000936751 -0.00023716 -0.0005 
0.00113854 3.89675e-06 -0.0005 0.000789492 -0.000238637 -0.0005 0.00101161 0.000112396 -0.0005 
0.000513466 0.00018326 -0.0005 0.000513402 -0.000183259 -0.0005 0.000596046 0.000283517 -0.0005 
0.000595385 -0.000285639 -0.0005 0.000792102 0.000241238 -0.0005 0.00114845 0.000113194 -0.0005 
0.000737403 0.00035529 -0.0005 0.00114502 -0.000221334 -0.0005 0.00114373 0.00021912 -0.0005 
0.00115942 -0.000117053 -0.0005 0.000816164 -4.7003e-05 -0.0005 0.000827708 0.000144636 -0.0005 
0.000827708 -0.000144636 -0.0005 0.000728035 -3.243e-05 -0.0005 0.00074578 0.000136564 -0.0005 
0.000744567 -0.000134897 -0.0005 0.000659232 -0.0001943 -0.0005 0.000991599 -0.000122936 -0.0005 
0.00065923 0.000194923 -0.0005 0.000586401 0.000238032 -0.0005 0.000586231 -0.000238284 -0.0005 
0.000670788 -0.000130267 -0.0005 0.000668203 0.000129229 -0.0005 0.000889614 -8.00602e-05 -0.0005 
0.000944998 -2.26884e-05 -0.0005 0.00114587 -0.000279044 -0.0005 0.00114555 0.000278672 -0.0005 
0.00087048 0.00044547 -0.0005 0.00086152 -0.00044547 -0.0005 0.000598961 -0.000915961 -0.0005 
0.000603317 -0.000588209 -0.0005 0.000270723 -0.000581163 -0.0005 0.000270149 -0.000918385 -0.0005 
0.000116826 -0.000542538 -0.0005 0.000116826 -0.000957462 -0.0005 0.000431238 -0.00054122 -0.0005 
0.000232505 -0.000744897 -0.0005 0.000636012 -0.000752799 -0.0005 0.000434763 -0.00095878 -0.0005 
6.87997e-05 -0.000535714 -0.0005 6.87997e-05 -0.000964286 -0.0005 0.000745424 -0.000579013 -0.0005 
0.000734049 -0.000916193 -0.0005 0.000425691 -0.00110148 -0.0005 0.000440309 -0.00039852 -0.0005 
0.000542232 -0.000464455 -0.0005 0.00032556 -0.00103573 -0.0005 0.000128192 -0.000673002 -0.0005 
0.000124428 -0.000825257 -0.0005 0.000539618 -0.00104521 -0.0005 0.00032807 -0.000453412 -0.0005 
0.000520463 -0.000846217 -0.0005 0.000521988 -0.00065178 -0.0005 0.000340031 -0.000668056 -0.0005 
0.00034624 -0.000838266 -0.0005 5.85195e-05 -0.000502705 -0.0005 5.85195e-05 -0.000997295 -0.0005 
0.000206193 -0.000502625 -0.0005 0.00020604 -0.000996565 -0.0005 0.000751161 -0.00069756 -0.0005 
0.00073873 -0.000810926 -0.0005 0.000181347 -0.000892326 -0.0005 0.000181347 -0.000607674 -0.0005 
0.000463745 -0.00116094 -0.0005 0.000402255 -0.00033906 -0.0005 0.000662471 -0.000504287 -0.0005 
0.000655871 -0.000984939 -0.0005 0.000455875 -0.000616724 -0.0005 0.0004137 -0.000882087 -0.0005 
0.000302544 -0.000768994 -0.0005 0.000569409 -0.000757172 -0.0005 5.91695e-05 -0.000600846 -0.0005 
5.91695e-05 -0.000899154 -0.0005 0.000666622 -0.000652114 -0.0005 0.000763695 -0.000514957 -0.0005 
0.000761799 -0.000984244 -0.0005 0.000662952 -0.000835018 -0.0005 0.000350592 -0.000568457 -0.0005 
0.000512323 -0.000928683 -0.0005 0.000258513 -0.000671173 -0.0005 0.000526882 -0.000581015 -0.0005 
0.000348994 -0.000924358 -0.0005 0.000269055 -0.00082351 -0.0005 0.000340907 -0.00110877 -0.0005 
0.000525093 -0.000391231 -0.0005 0.000398236 -0.00117211 -0.0005 0.000467764 -0.000327887 -0.0005 
3.77595e-05 -0.000562054 -0.0005 3.77595e-05 -0.000937946 -0.0005 7.22902e-05 -0.000748076 -0.0005 
0.000821959 -0.000561949 -0.0005 0.000823003 -0.000936364 -0.0005 0.000497341 -0.00110573 -0.0005 
0.000369223 -0.000393109 -0.0005 0.000595975 -0.000691792 -0.0005 0.000461056 -0.00103343 -0.0005 
0.000404944 -0.000466574 -0.0005 0.000473579 -0.000463157 -0.0005 0.000392458 -0.00103684 -0.0005 
0.000620449 -0.000442181 -0.0005 0.000248106 -0.00105944 -0.0005 0.000791611 -0.000855752 -0.0005 
0.000796074 -0.00063312 -0.0005 0.000107991 -0.000498667 -0.0005 0.000107991 -0.00100133 -0.0005 
0.000192237 -0.000821247 -0.0005 0.000118309 -0.000897697 -0.0005 0.000118584 -0.000602176 -0.0005 
2.84222e-05 -0.00050946 -0.0005 2.96921e-05 -0.000531169 -0.0005 2.84222e-05 -0.00099054 -0.0005 
2.96921e-05 -0.000968831 -0.0005 0.000584827 -0.000825555 -0.0005 0.000620086 -0.00106094 -0.0005 
0.000172947 -0.000549526 -0.0005 0.000172922 -0.000950417 -0.0005 0.000461426 -0.00120076 -0.0005 
0.000404574 -0.000299236 -0.0005 0.000243934 -0.000438928 -0.0005 0.000192001 -0.000675472 -0.0005 
0.000154074 -0.000745216 -0.0005 0.000787779 -0.000768966 -0.0005 0.000588723 -0.000523989 -0.0005 
0.000809841 -0.000504106 -0.0005 0.000809671 -0.000995397 -0.0005 0.000571747 -0.000987513 -0.0005 
0.000673596 -0.000911853 -0.0005 0.000281249 -0.000981909 -0.0005 0.000409717 -0.000660715 -0.0005 
0.000465934 -0.000841589 -0.0005 0.000524589 -0.000717066 -0.0005 0.000342119 -0.000722933 -0.0005 
0.000280666 -0.000514151 -0.0005 0.000672694 -0.000574319 -0.0005 5.82468e-05 -0.000659662 -0.0005 
5.65752e-05 -0.000839154 -0.0005 0.000386493 -0.000796808 -0.0005 0.000361584 -0.000985225 -0.0005 
0.000499228 -0.000517168 -0.0005 0.000471587 -0.000668913 -0.0005 0.000510532 -0.000790014 -0.0005 
0.000559513 -0.00111068 -0.0005 0.000707209 -0.000752897 -0.0005 8.04633e-05 -0.000566736 -0.0005 
8.04241e-05 -0.000933245 -0.0005 0.000163046 -0.000466483 -0.0005 0.000162386 -0.00103563 -0.0005 
0.000578393 -0.000637387 -0.0005 0.000503901 -0.000990722 -0.0005 0.000359102 -0.000508763 -0.0005 
0.000714127 -0.000859658 -0.0005 0.000304403 -0.00039471 -0.0005 0.000712099 -0.000528651 -0.0005 
0.000710619 -0.000966814 -0.0005 0.000726254 -0.000631789 -0.0005 0.000383073 -0.000701841 -0.0005 
0.000471292 -0.000894636 -0.0005 0.000394708 -0.000605364 -0.0005 0.000295143 -0.00071521 -0.0005 
0.000544105 -0.000886073 -0.0005 0.00030982 -0.000616796 -0.0005 0.000226145 -0.000944288 -0.0005 
0.000307419 -0.000884579 -0.0005 0.000226252 -0.000555158 -0.0005 0.000153401 -0.000511968 -0.0005 
0.000153233 -0.000988282 -0.0005 0.000237471 -0.000619391 -0.0005 0.000238317 -0.000879885 -0.0005 
0.000410377 -0.000831296 -0.0005 0.000352297 -0.000773675 -0.0005 0.00071621 -0.000470678 -0.0005 
0.000708438 -0.00102758 -0.0005 0.00043748 -0.00030453 -0.0005 0.00042852 -0.00119547 -0.0005 
-0.000266167 -0.000909585 -0.0005 -0.00026339 -0.000582669 -0.0005 -0.000595526 -0.000581349 -0.0005 
-0.000595539 -0.000918697 -0.0005 -0.000749174 -0.000957462 -0.0005 -0.000749174 -0.000542538 -0.0005 
-0.000436828 -0.000541202 -0.0005 -0.000633495 -0.000748246 -0.0005 -0.000234978 -0.000756491 -0.0005 
-0.000436828 -0.000958798 -0.0005 -0.0007972 -0.000964286 -0.0005 -0.0007972 -0.000535714 -0.0005 
-0.000131951 -0.000583807 -0.0005 -0.000120576 -0.000920987 -0.0005 -0.000440309 -0.00110148 -0.0005 
-0.000440309 -0.00039852 -0.0005 -0.000540519 -0.000463808 -0.0005 -0.000540519 -0.00103619 -0.0005 
-0.000737497 -0.000826703 -0.0005 -0.000743731 -0.00067341 -0.0005 -0.000326361 -0.000455157 -0.0005 
-0.000326361 -0.00104484 -0.0005 -0.000347939 -0.000834179 -0.0005 -0.000344799 -0.000652107 -0.0005 
-0.000525969 -0.000668056 -0.0005 -0.000528784 -0.000835049 -0.0005 -0.00080748 -0.000997295 -0.0005 
-0.00080748 -0.000502705 -0.0005 -0.00065996 -0.000996565 -0.0005 -0.00065996 -0.000503435 -0.0005 
-0.000114839 -0.00080244 -0.0005 -0.00012727 -0.000689074 -0.0005 -0.000684653 -0.000892326 -0.0005 
-0.000684653 -0.000607674 -0.0005 -0.000402255 -0.00033906 -0.0005 -0.000402255 -0.00116094 -0.0005 
-0.00020379 -0.000996251 -0.0005 -0.000209694 -0.000514898 -0.0005 -0.000410601 -0.000616776 -0.0005 
-0.000414328 -0.000881409 -0.0005 -0.000564489 -0.00077222 -0.0005 -0.00030297 -0.0007663 -0.0005 
-0.000806831 -0.000899154 -0.0005 -0.000806831 -0.000600846 -0.0005 -0.000198082 -0.000840386 -0.0005 
-0.000104201 -0.000515756 -0.0005 -0.000102305 -0.000985043 -0.0005 -0.000210482 -0.000662469 -0.0005 
-0.000512323 -0.000571317 -0.0005 -0.000512323 -0.000928683 -0.0005 -0.000607487 -0.000671376 -0.0005 
-0.000342389 -0.000918878 -0.0005 -0.000339591 -0.000579218 -0.0005 -0.000598177 -0.000824513 -0.0005 
-0.000525093 -0.00110877 -0.0005 -0.000525093 -0.000391231 -0.0005 -0.000467764 -0.00117211 -0.0005 
-0.000467764 -0.000327887 -0.0005 -0.00082824 -0.000937946 -0.0005 -0.00082824 -0.000562054 -0.0005 
-0.000792673 -0.000751208 -0.0005 -4.40406e-05 -0.000938051 -0.0005 -4.29968e-05 -0.000563636 -0.0005 
-0.000368656 -0.000394329 -0.0005 -0.000368656 -0.00110567 -0.0005 -0.000404944 -0.000466574 -0.0005 
-0.000404944 -0.00103343 -0.0005 -0.000274968 -0.000693542 -0.0005 -0.000473579 -0.000463157 -0.0005 
-0.000473579 -0.00103684 -0.0005 -0.000273108 -0.000829102 -0.0005 -0.000617905 -0.00105951 -0.0005 
-0.000617905 -0.00044049 -0.0005 -7.4389e-05 -0.000644248 -0.0005 -6.99258e-05 -0.00086688 -0.0005 
-0.000758009 -0.00100133 -0.0005 -0.000758009 -0.000498667 -0.0005 -0.000674521 -0.00082321 -0.0005 
-0.000747394 -0.000897802 -0.0005 -0.000747848 -0.000602206 -0.0005 -0.000837578 -0.00099054 -0.0005 
-0.000836308 -0.000968831 -0.0005 -0.000837578 -0.00050946 -0.0005 -0.000836308 -0.000531169 -0.0005 
-0.00024589 -0.000439066 -0.0005 -0.000241075 -0.0010584 -0.0005 -0.000693065 -0.000950422 -0.0005 
-0.000693085 -0.000549579 -0.0005 -0.000404574 -0.00120076 -0.0005 -0.000404574 -0.000299236 -0.0005 
-0.000672818 -0.000679103 -0.0005 -0.000714008 -0.000755903 -0.0005 -7.82213e-05 -0.000731034 -0.0005 
-5.6329e-05 -0.000504603 -0.0005 -5.61586e-05 -0.000995894 -0.0005 -0.000275796 -0.000980896 -0.0005 
-0.000285676 -0.000513219 -0.0005 -0.000186165 -0.000585602 -0.0005 -0.000584291 -0.000982673 -0.0005 
-0.00058429 -0.000517332 -0.0005 -0.00045634 -0.000660721 -0.0005 -0.000464193 -0.000839596 -0.0005 
-0.00034177 -0.000716972 -0.0005 -0.000523385 -0.000727952 -0.0005 -0.000193444 -0.000925069 -0.0005 
-0.000807637 -0.00084025 -0.0005 -0.000810429 -0.000661252 -0.0005 -0.000386833 -0.000795991 -0.0005 
-0.000394413 -0.000668913 -0.0005 -0.000509958 -0.000787971 -0.0005 -0.000305514 -0.00111008 -0.0005 
-0.000306477 -0.00038941 -0.0005 -0.000362249 -0.00098716 -0.0005 -0.00035868 -0.000511074 -0.0005 
-0.000160645 -0.000746982 -0.0005 -0.000509508 -0.000511363 -0.0005 -0.000509508 -0.000988638 -0.0005 
-0.00028739 -0.000637604 -0.0005 -0.000785534 -0.00093326 -0.0005 -0.000785598 -0.000566741 -0.0005 
-0.000703615 -0.00103564 -0.0005 -0.000703615 -0.000464361 -0.0005 -0.000148903 -0.000636616 -0.0005 
-0.00015636 -0.000534148 -0.0005 -0.000153981 -0.000971334 -0.0005 -0.000139581 -0.000867053 -0.0005 
-0.000482839 -0.000702846 -0.0005 -0.000471292 -0.000605364 -0.0005 -0.000471292 -0.000894636 -0.0005 
-0.000570965 -0.00071757 -0.0005 -0.000554433 -0.000615103 -0.0005 -0.000553903 -0.000884892 -0.0005 
-0.000639788 -0.00094438 -0.0005 -0.000639768 -0.0005557 -0.0005 -0.000307401 -0.000872936 -0.0005 
-0.000712765 -0.000988284 -0.0005 -0.000712769 -0.000511716 -0.0005 -0.000628213 -0.000619733 -0.0005 
-0.000630855 -0.000879083 -0.0005 -0.000409259 -0.000828735 -0.0005 -0.000354002 -0.000772688 -0.0005 
-0.000155373 -0.000471972 -0.0005 -0.000153127 -0.00102904 -0.0005 -0.00043748 -0.00030453 -0.0005 
-0.00043748 -0.00119547 -0.0005 -0.000699167 -0.000159585 -0.0005 -0.00102828 0.000168837 -0.0005 
-0.000700039 0.000165961 -0.0005 -0.00102854 -0.000168697 -0.0005 -0.00118217 0.000207462 -0.0005 
-0.00118217 -0.000207462 -0.0005 -0.000867762 0.00020878 -0.0005 -0.00106649 5.10348e-06 -0.0005 
-0.000667978 -6.49099e-06 -0.0005 -0.000869828 -0.000208798 -0.0005 -0.0012302 0.000214286 -0.0005 
-0.0012302 -0.000214286 -0.0005 -0.000564951 0.000166193 -0.0005 -0.000553576 -0.000170987 -0.0005 
-0.000873309 -0.00035148 -0.0005 -0.000858691 0.00035148 -0.0005 -0.000756768 0.000285545 -0.0005 
-0.000973519 -0.000286192 -0.0005 -0.00117081 7.69979e-05 -0.0005 -0.00117457 -7.52569e-05 -0.0005 
-0.000759361 -0.000294843 -0.0005 -0.00097093 0.000296588 -0.0005 -0.000780939 -8.41794e-05 -0.0005 
-0.000958969 8.1944e-05 -0.0005 -0.000777799 9.78925e-05 -0.0005 -0.000961784 -8.5049e-05 -0.0005 
-0.00124048 0.000247295 -0.0005 -0.00124048 -0.000247295 -0.0005 -0.00109281 0.000247375 -0.0005 
-0.00109296 -0.000246565 -0.0005 -0.000547839 -5.24395e-05 -0.0005 -0.00056027 6.09258e-05 -0.0005 
-0.00111765 0.000142326 -0.0005 -0.00111765 -0.000142326 -0.0005 -0.000835255 -0.00041094 -0.0005 
-0.000896745 0.00041094 -0.0005 -0.00063679 -0.000246251 -0.0005 -0.000636522 0.000241816 -0.0005 
-0.000843256 0.000133221 -0.0005 -0.000847328 -0.000131409 -0.0005 -0.000997489 -2.16615e-05 -0.0005 
-0.00073597 -1.62999e-05 -0.0005 -0.00123983 0.000149154 -0.0005 -0.00123983 -0.000149154 -0.0005 
-0.000631082 -9.03863e-05 -0.0005 -0.000535305 -0.000235043 -0.0005 -0.000537201 0.000234244 -0.0005 
-0.000642398 9.28059e-05 -0.0005 -0.000948408 0.000181543 -0.0005 -0.000945323 -0.000178683 -0.0005 
-0.00104049 7.88274e-05 -0.0005 -0.000775389 -0.000168878 -0.0005 -0.000772841 0.000169495 -0.0005 
-0.00103118 -7.38619e-05 -0.0005 -0.000958093 -0.000358769 -0.0005 -0.000773907 0.000358769 -0.0005 
-0.000900764 -0.000422113 -0.0005 -0.000831236 0.000422113 -0.0005 -0.00126124 0.000187946 -0.0005 
-0.00126124 -0.000187946 -0.0005 -0.00122671 1.92365e-06 -0.0005 -0.000477041 -0.000188051 -0.0005 
-0.000475997 0.000186364 -0.0005 -0.000801656 -0.000355671 -0.0005 -0.000929777 0.000356891 -0.0005 
-0.000837944 -0.000283426 -0.0005 -0.000894056 0.000283426 -0.0005 -0.000707968 5.64575e-05 -0.0005 
-0.000825421 0.000286843 -0.0005 -0.000906579 -0.000286843 -0.0005 -0.000678551 0.000307262 -0.0005 
-0.000706108 -7.91024e-05 -0.0005 -0.0010509 -0.00030951 -0.0005 -0.000507389 0.000105752 -0.0005 
-0.000502926 -0.00011688 -0.0005 -0.00119101 0.000251333 -0.0005 -0.00119101 -0.000251333 -0.0005 
-0.00110684 -7.12684e-05 -0.0005 -0.00118042 0.000147824 -0.0005 -0.00118069 -0.000147697 -0.0005 
-0.00127058 0.00024054 -0.0005 -0.00126931 0.000218831 -0.0005 -0.00127058 -0.00024054 -0.0005 
-0.00126931 -0.000218831 -0.0005 -0.000674075 -0.0003084 -0.0005 -0.00112605 0.000200474 -0.0005 
-0.00112608 -0.000200417 -0.0005 -0.000837574 -0.000450764 -0.0005 -0.000894426 0.000450764 -0.0005 
-0.00105507 0.000311072 -0.0005 -0.001107 7.45278e-05 -0.0005 -0.00114494 4.78174e-06 -0.0005 
-0.000511221 1.89656e-05 -0.0005 -0.000703503 0.000232229 -0.0005 -0.000489329 0.000245397 -0.0005 
-0.000489159 -0.000245894 -0.0005 -0.000708796 -0.000230896 -0.0005 -0.000631208 0.000171119 -0.0005 
-0.00101729 -0.000232673 -0.0005 -0.000889299 8.92785e-05 -0.0005 -0.000897193 -8.95957e-05 -0.0005 
-0.00077477 3.30279e-05 -0.0005 -0.000956385 2.2115e-05 -0.0005 -0.00101833 0.000235849 -0.0005 
-0.000626444 -0.000175069 -0.0005 -0.00124075 9.03378e-05 -0.0005 -0.00124242 -8.91537e-05 -0.0005 
-0.000819833 -4.59906e-05 -0.0005 -0.000799772 0.000232832 -0.0005 -0.000827413 8.10868e-05 -0.0005 
-0.000942958 -3.79434e-05 -0.0005 -0.000738514 -0.000360083 -0.0005 -0.000795249 -0.00023716 -0.0005 
-0.000593465 3.89675e-06 -0.0005 -0.000942508 -0.000238638 -0.0005 -0.00072039 0.000112396 -0.0005 
-0.00121854 0.000183264 -0.0005 -0.00121858 -0.000183245 -0.0005 -0.00113595 0.000283517 -0.0005 
-0.00113662 -0.000285639 -0.0005 -0.000939898 0.000241237 -0.0005 -0.00058355 0.000113194 -0.0005 
-0.000994597 0.00035529 -0.0005 -0.000586981 -0.000221334 -0.0005 -0.000588267 0.00021912 -0.0005 
-0.000572581 -0.000117053 -0.0005 -0.00091583 4.71675e-05 -0.0005 -0.000904292 -0.000144636 -0.0005 
-0.000904292 0.000144636 -0.0005 -0.00100396 3.32657e-05 -0.0005 -0.00098918 0.000133204 -0.0005 
-0.000986047 -0.000136339 -0.0005 -0.00107279 -0.00019438 -0.0005 -0.000740401 -0.000122936 -0.0005 
-0.00107275 0.000194842 -0.0005 -0.0011456 0.000238032 -0.0005 -0.00114577 -0.000238283 -0.0005 
-0.00106153 0.000130609 -0.0005 -0.00106376 -0.000129013 -0.0005 -0.000842259 -7.8735e-05 -0.0005 
-0.000787002 -2.26884e-05 -0.0005 -0.000586448 0.000278672 -0.0005 -0.000586127 -0.000279044 -0.0005 
-0.00087048 -0.00044547 -0.0005 -0.00086152 0.00044547 -0.0005 -0.000266167 0.000590415 -0.0005 
-0.000267039 0.000915961 -0.0005 -0.000595277 0.000918837 -0.0005 -0.000595539 0.000581303 -0.0005 
-0.000749174 0.000542538 -0.0005 -0.000749174 0.000957462 -0.0005 -0.000434763 0.00095878 -0.0005 
-0.000633495 0.000751754 -0.0005 -0.000234978 0.000743509 -0.0005 -0.000436828 0.000541202 -0.0005 
-0.0007972 0.000535714 -0.0005 -0.0007972 0.000964286 -0.0005 -0.000131951 0.000916193 -0.0005 
-0.000120576 0.000579013 -0.0005 -0.000440309 0.00039852 -0.0005 -0.000425691 0.00110148 -0.0005 
-0.000323768 0.00103554 -0.0005 -0.000540519 0.000463808 -0.0005 -0.000737497 0.000673297 -0.0005 
-0.000743731 0.00082659 -0.0005 -0.000326361 0.000455157 -0.0005 -0.00053793 0.00104659 -0.0005 
-0.000347939 0.000665821 -0.0005 -0.000344799 0.000847893 -0.0005 -0.000525969 0.000831944 -0.0005 
-0.000528784 0.000664951 -0.0005 -0.00080748 0.000502705 -0.0005 -0.00080748 0.000997295 -0.0005 
-0.00065996 0.000503435 -0.0005 -0.000659807 0.000997375 -0.0005 -0.000114839 0.00069756 -0.0005 
-0.00012727 0.000810926 -0.0005 -0.000684653 0.000607674 -0.0005 -0.000684653 0.000892326 -0.0005 
-0.000402255 0.00033906 -0.0005 -0.000463745 0.00116094 -0.0005 -0.00020379 0.000503749 -0.0005 
-0.000203522 0.000991815 -0.0005 -0.000410256 0.000883221 -0.0005 -0.000414328 0.000618591 -0.0005 
-0.000564489 0.00072778 -0.0005 -0.00030297 0.0007337 -0.0005 -0.000806831 0.000600846 -0.0005 
-0.000806831 0.000899154 -0.0005 -0.000198082 0.000659614 -0.0005 -0.000104201 0.000984244 -0.0005 
-0.000102305 0.000514957 -0.0005 -0.000209398 0.000842806 -0.0005 -0.000515408 0.000931543 -0.0005 
-0.000512323 0.000571317 -0.0005 -0.000607487 0.000828624 -0.0005 -0.000342389 0.000581122 -0.0005 
-0.000339841 0.000919495 -0.0005 -0.000598177 0.000675487 -0.0005 -0.000525093 0.000391231 -0.0005 
-0.000340907 0.00110877 -0.0005 -0.000398236 0.00117211 -0.0005 -0.000467764 0.000327887 -0.0005 
-0.00082824 0.000562054 -0.0005 -0.00082824 0.000937946 -0.0005 -0.000792673 0.000748792 -0.0005 
-4.40406e-05 0.000561949 -0.0005 -4.29968e-05 0.000936364 -0.0005 -0.000368656 0.000394329 -0.0005 
-0.000496777 0.00110689 -0.0005 -0.000404944 0.000466574 -0.0005 -0.000461056 0.00103343 -0.0005 
-0.000274968 0.000806458 -0.0005 -0.000392421 0.00103684 -0.0005 -0.000473579 0.000463157 -0.0005 
-0.000245551 0.00105726 -0.0005 -0.000273108 0.000670898 -0.0005 -0.000617905 0.00044049 -0.0005 
-7.4389e-05 0.000855752 -0.0005 -6.99258e-05 0.00063312 -0.0005 -0.000758009 0.000498667 -0.0005 
-0.000758009 0.00100133 -0.0005 -0.000674521 0.00067679 -0.0005 -0.000747394 0.000602198 -0.0005 
-0.000747848 0.000897794 -0.0005 -0.000837578 0.00050946 -0.0005 -0.000836308 0.000531169 -0.0005 
-0.000837578 0.00099054 -0.0005 -0.000836308 0.000968831 -0.0005 -0.000241075 0.0004416 -0.0005 
-0.000693065 0.000549578 -0.0005 -0.000693072 0.000950473 -0.0005 -0.000404574 0.000299236 -0.0005 
-0.000461426 0.00120076 -0.0005 -0.000622066 0.00106107 -0.0005 -0.000672818 0.000820897 -0.0005 
-0.000714008 0.000744097 -0.0005 -7.82213e-05 0.000768966 -0.0005 -0.000270503 0.000982229 -0.0005 
-5.6329e-05 0.000995397 -0.0005 -5.61586e-05 0.000504106 -0.0005 -0.000275796 0.000519104 -0.0005 
-0.000198208 0.000921119 -0.0005 -0.000584291 0.000517327 -0.0005 -0.000456299 0.000839279 -0.0005 
-0.000464193 0.000660404 -0.0005 -0.00034177 0.000783028 -0.0005 -0.000523385 0.000772048 -0.0005 
-0.000585334 0.000985849 -0.0005 -0.000193444 0.000574931 -0.0005 -0.000807637 0.00065975 -0.0005 
-0.000810429 0.000838748 -0.0005 -0.000386833 0.000704009 -0.0005 -0.000366772 0.000982832 -0.0005 
-0.000394413 0.000831087 -0.0005 -0.000509958 0.000712029 -0.0005 -0.000305514 0.000389917 -0.0005 
-0.000362249 0.00051284 -0.0005 -0.000160465 0.000753897 -0.0005 -0.000509508 0.000511362 -0.0005 
-0.00028739 0.000862396 -0.0005 -0.000785534 0.00056674 -0.0005 -0.000785598 0.000933259 -0.0005 
-0.000703615 0.000464361 -0.0005 -0.000702954 0.00103352 -0.0005 -0.000506898 0.000991237 -0.0005 
-0.00015055 0.000863194 -0.0005 -0.000561597 0.00110529 -0.0005 -0.000153981 0.000528666 -0.0005 
-0.000155267 0.00096912 -0.0005 -0.000139581 0.000632947 -0.0005 -0.00048283 0.000797154 -0.0005 
-0.000471292 0.000894636 -0.0005 -0.000471292 0.000605364 -0.0005 -0.000570965 0.00078243 -0.0005 
-0.00055618 0.00088318 -0.0005 -0.000553903 0.000615108 -0.0005 -0.000639788 0.00055562 -0.0005 
-0.000307401 0.000627064 -0.0005 -0.00063975 0.000944842 -0.0005 -0.000712765 0.000511716 -0.0005 
-0.000712603 0.000988032 -0.0005 -0.000628389 0.00088015 -0.0005 -0.000630855 0.000620917 -0.0005 
-0.000409259 0.000671265 -0.0005 -0.000354002 0.000727312 -0.0005 -0.000153448 0.00102867 -0.0005 
-0.000153127 0.000470956 -0.0005 -0.00042852 0.00119547 -0.0005 -0.00043748 0.00030453 -0.0005 

CELLS 2380 16660
6 649 608 664 1664 1623 1679 
6 570 610 625 1585 1625 1640 
6 571 611 624 1586 1626 1639 
6 603 587 669 1618 1602 1684 
6 564 603 669 1579 1618 1684 
6 610 570 613 1625 1585 1628 
6 611 571 612 1626 1586 1627 
6 600 564 669 1615 1579 1684 
6 586 187 630 1601 384 1645 
6 579 594 608 1594 1609 1623 
6 595 578 607 1610 1593 1622 
6 596 581 609 1611 1596 1624 
6 183 590 619 380 1605 1634 
6 166 591 620 363 1606 1635 
6 572 649 664 1587 1664 1679 
6 572 611 626 1587 1626 1641 
6 590 570 619 1605 1585 1634 
6 591 571 620 1606 1586 1635 
6 633 575 647 1648 1590 1662 
6 594 562 608 1609 1577 1623 
6 565 595 607 1580 1610 1622 
6 563 596 609 1578 1611 1624 
6 557 608 649 1572 1623 1664 
6 564 600 627 1579 1615 1642 
6 557 649 653 1572 1664 1668 
6 654 605 670 1669 1620 1685 
6 586 600 669 1601 1615 1684 
6 594 579 665 1609 1594 1680 
6 587 629 648 1602 1644 1663 
6 581 596 666 1596 1611 1681 
6 570 590 613 1585 1605 1628 
6 571 591 612 1586 1606 1627 
6 189 618 650 386 1633 1665 
6 617 184 651 1632 381 1666 
6 597 564 627 1612 1579 1642 
6 649 593 653 1664 1608 1668 
6 568 601 618 1583 1616 1633 
6 602 569 617 1617 1584 1632 
6 629 186 648 1644 383 1663 
6 559 605 654 1574 1620 1669 
6 600 556 627 1615 1571 1642 
6 187 586 648 384 1601 1663 
6 607 556 652 1622 1571 1667 
6 607 652 668 1622 1667 1683 
6 573 610 628 1588 1625 1643 
6 627 556 689 1642 1571 1704 
6 14 194 665 95 391 1680 
6 195 196 666 392 393 1681 
6 183 619 667 380 1634 1682 
6 196 656 666 393 1671 1681 
6 658 14 665 1673 95 1680 
6 561 566 631 1576 1581 1646 
6 567 560 632 1582 1575 1647 
6 575 616 647 1590 1631 1662 
6 566 561 672 1581 1576 1687 
6 560 567 673 1575 1582 1688 
6 573 654 670 1588 1669 1685 
6 12 185 618 93 382 1633 
6 188 11 617 385 92 1632 
6 635 561 641 1650 1576 1656 
6 560 634 642 1575 1649 1657 
6 578 597 627 1593 1612 1642 
6 8 175 613 89 372 1628 
6 1 190 612 82 387 1627 
6 604 558 659 1619 1573 1674 
6 578 595 695 1593 1610 1710 
6 597 578 696 1612 1593 1711 
6 610 573 625 1625 1588 1640 
6 611 572 624 1626 1587 1639 
6 168 3 636 365 84 1651 
6 6 173 638 87 370 1653 
6 611 191 626 1626 388 1641 
6 575 588 634 1590 1603 1649 
6 589 574 635 1604 1589 1650 
6 593 626 697 1608 1641 1712 
6 166 620 678 363 1635 1693 
6 564 597 623 1579 1612 1638 
6 603 564 623 1618 1579 1638 
6 568 618 629 1583 1633 1644 
6 11 184 617 92 381 1632 
6 189 12 618 386 93 1633 
6 579 608 671 1594 1623 1686 
6 556 600 660 1571 1615 1675 
6 588 575 633 1603 1590 1648 
6 8 613 700 89 1628 1715 
6 1 612 699 82 1627 1714 
6 617 569 630 1632 1584 1645 
6 619 570 621 1634 1585 1636 
6 620 571 622 1635 1586 1637 
6 574 616 661 1589 1631 1676 
6 616 575 662 1631 1590 1677 
6 580 606 686 1595 1621 1701 
6 563 633 647 1578 1648 1662 
6 598 635 661 1613 1650 1676 
6 634 599 662 1649 1614 1677 
6 574 589 646 1589 1604 1661 
6 604 659 676 1619 1674 1691 
6 635 574 661 1650 1589 1676 
6 575 634 662 1590 1649 1677 
6 600 586 681 1615 1601 1696 
6 585 628 674 1600 1643 1689 
6 557 603 671 1572 1618 1686 
6 626 192 697 1641 389 1712 
6 610 176 628 1625 373 1643 
6 563 609 633 1578 1624 1648 
6 569 660 681 1584 1675 1696 
6 587 603 677 1602 1618 1692 
6 608 557 671 1623 1572 1686 
6 603 557 653 1618 1572 1668 
6 622 571 624 1637 1586 1639 
6 621 570 625 1636 1585 1640 
6 606 580 685 1621 1595 1700 
6 640 592 698 1655 1607 1713 
6 558 604 686 1573 1619 1701 
6 605 559 687 1620 1574 1702 
6 660 600 681 1675 1615 1696 
6 187 188 630 384 385 1645 
6 185 186 629 382 383 1644 
6 608 562 664 1623 1577 1679 
6 652 556 660 1667 1571 1675 
6 562 594 683 1577 1609 1698 
6 595 565 684 1610 1580 1699 
6 596 563 685 1611 1578 1700 
6 609 581 687 1624 1596 1702 
6 686 606 693 1701 1621 1708 
6 162 1 699 359 82 1714 
6 179 8 700 376 89 1715 
6 606 563 646 1621 1578 1661 
6 573 628 654 1588 1643 1669 
6 616 574 647 1631 1589 1662 
6 565 607 668 1580 1622 1683 
6 175 176 610 372 373 1625 
6 190 191 611 387 388 1626 
6 645 584 675 1660 1599 1690 
6 628 177 674 1643 374 1689 
6 572 626 649 1587 1641 1664 
6 170 171 616 367 368 1631 
6 609 687 694 1624 1702 1709 
6 181 640 698 378 1655 1713 
6 687 559 694 1702 1574 1709 
6 607 578 689 1622 1593 1704 
6 592 652 660 1607 1667 1675 
6 604 562 683 1619 1577 1698 
6 565 605 684 1580 1620 1699 
6 563 606 685 1578 1621 1700 
6 558 686 693 1573 1701 1708 
6 565 621 625 1580 1636 1640 
6 562 622 624 1577 1637 1639 
6 683 580 686 1698 1595 1701 
6 581 684 687 1596 1699 1702 
6 616 171 661 1631 368 1676 
6 170 616 662 367 1631 1677 
6 628 585 654 1643 1600 1669 
6 182 183 667 379 380 1682 
6 653 593 679 1668 1608 1694 
6 579 623 658 1594 1638 1673 
6 605 565 670 1620 1580 1685 
6 634 560 673 1649 1575 1688 
6 561 635 672 1576 1650 1687 
6 589 635 641 1604 1650 1656 
6 634 588 642 1649 1603 1657 
6 194 655 665 391 1670 1680 
6 657 195 666 1672 392 1681 
6 562 604 676 1577 1619 1691 
6 566 614 637 1581 1629 1652 
6 615 567 639 1630 1582 1654 
6 688 588 694 1703 1603 1709 
6 623 597 658 1638 1612 1673 
6 646 563 647 1661 1578 1662 
6 576 619 621 1591 1634 1636 
6 577 620 622 1592 1635 1637 
6 556 607 689 1571 1622 1704 
6 164 645 675 361 1660 1690 
6 589 690 693 1604 1705 1708 
6 191 192 626 388 389 1641 
6 175 610 613 372 1625 1628 
6 190 611 612 387 1626 1627 
6 584 645 659 1599 1660 1674 
6 626 593 649 1641 1608 1664 
6 603 623 671 1618 1638 1686 
6 176 177 628 373 374 1643 
6 652 576 668 1667 1591 1683 
6 562 624 664 1577 1639 1679 
6 642 588 688 1657 1603 1703 
6 565 625 670 1580 1640 1685 
6 165 166 678 362 363 1693 
6 663 578 695 1678 1593 1710 
6 578 663 696 1593 1678 1711 
6 589 641 690 1604 1656 1705 
6 574 646 647 1589 1661 1662 
6 638 173 639 1653 370 1654 
6 168 636 637 365 1651 1652 
6 645 577 659 1660 1592 1674 
6 618 601 650 1633 1616 1665 
6 602 617 651 1617 1632 1666 
6 587 648 669 1602 1663 1684 
6 181 182 640 378 379 1655 
6 656 581 666 1671 1596 1681 
6 579 658 665 1594 1673 1680 
6 655 580 683 1670 1595 1698 
6 581 656 684 1596 1671 1699 
6 580 657 685 1595 1672 1700 
6 164 165 645 361 362 1660 
6 655 594 665 1670 1609 1680 
6 596 657 666 1611 1672 1681 
6 590 183 644 1605 380 1659 
6 591 166 643 1606 363 1658 
6 568 629 677 1583 1644 1692 
6 186 187 648 383 384 1663 
6 604 683 686 1619 1698 1701 
6 684 605 687 1699 1620 1702 
6 648 586 669 1663 1601 1684 
6 659 577 676 1674 1592 1691 
6 614 566 672 1629 1581 1687 
6 567 615 673 1582 1630 1688 
6 568 653 679 1583 1668 1694 
6 592 640 652 1607 1655 1667 
6 629 587 677 1644 1602 1692 
6 623 579 671 1638 1594 1686 
6 640 576 652 1655 1591 1667 
6 196 14 663 393 95 1678 
6 621 565 668 1636 1580 1683 
6 622 562 676 1637 1577 1691 
6 612 591 699 1627 1606 1714 
6 613 590 700 1628 1605 1715 
6 171 172 661 368 369 1676 
6 169 170 662 366 367 1677 
6 569 602 680 1584 1617 1695 
6 601 568 679 1616 1583 1694 
6 180 602 651 377 1617 1666 
6 601 193 650 1616 390 1665 
6 583 638 639 1598 1653 1654 
6 636 582 637 1651 1597 1652 
6 163 164 675 360 361 1690 
6 177 178 674 374 375 1689 
6 588 633 694 1603 1648 1709 
6 576 621 668 1591 1636 1683 
6 577 622 676 1592 1637 1691 
6 578 627 689 1593 1642 1704 
6 646 589 693 1661 1604 1708 
6 624 572 664 1639 1587 1679 
6 559 688 694 1574 1703 1709 
6 180 181 698 377 378 1713 
6 192 193 697 389 390 1712 
6 690 558 693 1705 1573 1708 
6 630 569 681 1645 1584 1696 
6 9 179 644 90 376 1659 
6 0 162 643 81 359 1658 
6 620 577 678 1635 1592 1693 
6 653 568 677 1668 1583 1692 
6 618 185 629 1633 382 1644 
6 580 655 682 1595 1670 1697 
6 657 580 682 1672 1595 1697 
6 172 598 661 369 1613 1676 
6 599 169 662 1614 366 1677 
6 188 617 630 385 1632 1645 
6 625 573 670 1640 1588 1685 
6 633 609 694 1648 1624 1709 
6 641 561 691 1656 1576 1706 
6 560 642 692 1575 1657 1707 
6 184 10 651 381 91 1666 
6 13 189 650 94 386 1665 
6 577 645 678 1592 1660 1693 
6 603 653 677 1618 1668 1692 
6 599 634 673 1614 1649 1688 
6 635 598 672 1650 1613 1687 
6 619 576 667 1634 1591 1682 
6 640 182 667 1655 379 1682 
6 194 195 682 391 392 1697 
6 193 601 697 390 1616 1712 
6 602 180 698 1617 377 1713 
6 576 640 667 1591 1655 1682 
6 606 646 693 1621 1661 1708 
6 660 569 680 1675 1584 1695 
6 601 679 697 1616 1694 1712 
6 680 602 698 1695 1617 1713 
6 586 630 681 1601 1645 1696 
6 169 599 615 366 1614 1630 
6 598 172 614 1613 369 1629 
6 644 179 700 1659 376 1715 
6 643 162 699 1658 359 1714 
6 656 196 695 1671 393 1710 
6 14 658 696 95 1673 1711 
6 675 584 691 1690 1599 1706 
6 585 674 692 1600 1689 1707 
6 645 165 678 1660 362 1693 
6 655 194 682 1670 391 1697 
6 195 657 682 392 1672 1697 
6 4 168 637 85 365 1652 
6 173 5 639 370 86 1654 
6 592 660 680 1607 1675 1695 
6 659 558 690 1674 1573 1705 
6 584 641 691 1599 1656 1706 
6 642 585 692 1657 1600 1707 
6 584 659 690 1599 1674 1705 
6 559 654 688 1574 1669 1703 
6 594 655 683 1609 1670 1698 
6 656 595 684 1671 1610 1699 
6 657 596 685 1672 1611 1700 
6 654 585 688 1669 1600 1703 
6 595 656 695 1610 1671 1710 
6 658 597 696 1673 1612 1711 
6 631 675 691 1646 1690 1706 
6 674 632 692 1689 1647 1707 
6 561 631 691 1576 1646 1706 
6 632 560 692 1647 1575 1707 
6 196 663 695 393 1678 1710 
6 663 14 696 1678 95 1711 
6 585 642 688 1600 1657 1703 
6 641 584 690 1656 1599 1705 
6 590 644 700 1605 1659 1715 
6 591 643 699 1606 1658 1714 
6 631 163 675 1646 360 1690 
6 178 632 674 375 1647 1689 
6 598 614 672 1613 1629 1687 
6 615 599 673 1630 1614 1688 
6 679 593 697 1694 1608 1712 
6 592 680 698 1607 1695 1713 
6 166 0 643 363 81 1658 
6 172 4 614 369 85 1629 
6 614 4 637 1629 85 1652 
6 5 169 615 86 366 1630 
6 5 615 639 86 1630 1654 
6 183 9 644 380 90 1659 
6 10 180 651 91 377 1666 
6 193 13 650 390 94 1665 
6 2 163 167 83 360 364 
6 3 167 636 84 364 1651 
6 174 6 638 371 87 1653 
6 174 178 7 371 375 88 
6 167 163 582 364 360 1597 
6 582 163 631 1597 360 1646 
6 167 582 636 364 1597 1651 
6 178 174 583 375 371 1598 
6 583 174 638 1598 371 1653 
6 178 583 632 375 1598 1647 
6 566 582 631 1581 1597 1646 
6 582 566 637 1597 1581 1652 
6 583 567 632 1598 1582 1647 
6 567 583 639 1582 1598 1654 
6 715 755 770 1730 1770 1785 
6 756 716 769 1771 1731 1784 
6 732 748 815 1747 1763 1830 
6 748 709 815 1763 1724 1830 
6 755 715 758 1770 1730 1773 
6 716 756 757 1731 1771 1772 
6 709 745 815 1724 1760 1830 
6 216 731 774 413 1746 1789 
6 724 739 752 1739 1754 1767 
6 726 740 753 1741 1755 1768 
6 741 726 754 1756 1741 1769 
6 736 210 764 1751 407 1779 
6 220 735 765 417 1750 1780 
6 738 701 798 1753 1716 1813 
6 716 736 764 1731 1751 1779 
6 735 715 765 1750 1730 1780 
6 777 720 792 1792 1735 1807 
6 739 707 752 1754 1722 1767 
6 740 710 753 1755 1725 1768 
6 708 741 754 1723 1756 1769 
6 799 753 809 1814 1768 1824 
6 749 800 816 1764 1815 1831 
6 745 731 815 1760 1746 1830 
6 739 724 810 1754 1739 1825 
6 773 732 793 1788 1747 1808 
6 715 735 758 1730 1750 1773 
6 736 716 757 1751 1731 1772 
6 214 762 794 411 1777 1809 
6 763 219 795 1778 416 1810 
6 701 738 797 1716 1753 1812 
6 750 701 797 1765 1716 1812 
6 742 709 784 1757 1724 1799 
6 713 746 762 1728 1761 1777 
6 747 714 763 1762 1729 1778 
6 217 773 793 414 1788 1808 
6 749 703 800 1764 1718 1815 
6 731 216 793 1746 413 1808 
6 748 701 784 1763 1716 1799 
6 702 752 796 1717 1767 1811 
6 745 709 766 1760 1724 1781 
6 709 748 784 1724 1763 1799 
6 796 752 814 1811 1767 1829 
6 756 717 772 1771 1732 1787 
6 718 755 771 1733 1770 1786 
6 750 797 822 1765 1812 1837 
6 704 753 799 1719 1768 1814 
6 27 225 810 108 422 1825 
6 227 27 811 424 108 1826 
6 764 210 813 1779 407 1828 
6 220 765 812 417 1780 1827 
6 718 799 809 1733 1814 1824 
6 802 227 811 1817 424 1826 
6 803 27 810 1818 108 1825 
6 705 711 775 1720 1726 1790 
6 712 706 776 1727 1721 1791 
6 720 761 792 1735 1776 1807 
6 711 705 817 1726 1720 1832 
6 706 712 818 1721 1727 1833 
6 800 717 816 1815 1732 1831 
6 23 215 762 104 412 1777 
6 218 24 763 415 105 1778 
6 779 705 787 1794 1720 1802 
6 706 778 788 1721 1793 1803 
6 208 20 757 405 101 1772 
6 13 193 758 94 390 1773 
6 740 726 840 1755 1741 1855 
6 726 741 841 1741 1756 1856 
6 755 718 770 1770 1733 1785 
6 717 756 769 1732 1771 1784 
6 203 18 780 400 99 1795 
6 15 198 782 96 395 1797 
6 702 745 821 1717 1760 1836 
6 720 733 778 1735 1748 1793 
6 734 719 779 1749 1734 1794 
6 763 714 773 1778 1729 1788 
6 709 742 766 1724 1757 1781 
6 24 219 763 105 416 1778 
6 214 23 762 411 104 1777 
6 745 702 805 1760 1717 1820 
6 733 720 777 1748 1735 1792 
6 724 752 821 1739 1767 1836 
6 757 20 845 1772 101 1860 
6 13 758 844 94 1773 1859 
6 713 762 774 1728 1777 1789 
6 765 715 767 1780 1730 1782 
6 716 764 768 1731 1779 1783 
6 719 761 806 1734 1776 1821 
6 761 720 807 1776 1735 1822 
6 725 751 831 1740 1766 1846 
6 708 777 792 1723 1792 1807 
6 778 744 807 1793 1759 1822 
6 743 779 806 1758 1794 1821 
6 719 734 791 1734 1749 1806 
6 779 719 806 1794 1734 1821 
6 720 778 807 1735 1793 1822 
6 731 745 826 1746 1760 1841 
6 784 701 832 1799 1716 1847 
6 730 771 819 1745 1786 1834 
6 772 729 820 1787 1744 1835 
6 207 756 772 404 1771 1787 
6 755 192 771 1770 389 1786 
6 708 754 777 1723 1769 1792 
6 784 723 811 1799 1738 1826 
6 805 713 826 1820 1728 1841 
6 748 732 823 1763 1747 1838 
6 742 784 811 1757 1799 1826 
6 701 748 798 1716 1763 1813 
6 716 768 769 1731 1783 1784 
6 767 715 770 1782 1730 1785 
6 752 702 821 1767 1717 1836 
6 751 725 830 1766 1740 1845 
6 737 785 842 1752 1800 1857 
6 786 738 843 1801 1753 1858 
6 703 749 831 1718 1764 1846 
6 701 750 832 1716 1765 1847 
6 745 805 826 1760 1820 1841 
6 215 216 774 412 413 1789 
6 217 218 773 414 415 1788 
6 753 710 809 1768 1725 1824 
6 702 796 805 1717 1811 1820 
6 707 739 829 1722 1754 1844 
6 710 740 828 1725 1755 1843 
6 741 708 830 1756 1723 1845 
6 831 751 838 1846 1766 1853 
6 224 13 844 421 94 1859 
6 20 209 845 101 406 1860 
6 745 766 821 1760 1781 1836 
6 751 708 791 1766 1723 1806 
6 724 766 803 1739 1781 1818 
6 772 717 800 1787 1732 1815 
6 718 771 799 1733 1786 1814 
6 761 719 792 1776 1734 1807 
6 752 707 814 1767 1722 1829 
6 207 208 756 404 405 1771 
6 193 192 755 390 389 1770 
6 726 753 835 1741 1768 1850 
6 754 726 835 1769 1741 1850 
6 766 742 803 1781 1757 1818 
6 771 191 819 1786 388 1834 
6 206 772 820 403 1787 1835 
6 200 201 761 397 398 1776 
6 785 212 842 1800 409 1857 
6 222 786 843 419 1801 1858 
6 796 737 805 1811 1752 1820 
6 749 707 829 1764 1722 1844 
6 750 710 828 1765 1725 1843 
6 708 751 830 1723 1766 1845 
6 703 831 838 1718 1846 1853 
6 710 767 770 1725 1782 1785 
6 768 707 769 1783 1722 1784 
6 828 723 832 1843 1738 1847 
6 829 725 831 1844 1740 1846 
6 200 761 807 397 1776 1822 
6 761 201 806 1776 398 1821 
6 729 772 800 1744 1787 1815 
6 771 730 799 1786 1745 1814 
6 210 211 813 407 408 1828 
6 221 220 812 418 417 1827 
6 738 798 825 1753 1813 1840 
6 707 749 816 1722 1764 1831 
6 778 706 818 1793 1721 1833 
6 705 779 817 1720 1794 1832 
6 734 834 838 1749 1849 1853 
6 734 779 787 1749 1794 1802 
6 778 733 788 1793 1748 1803 
6 225 801 810 422 1816 1825 
6 753 704 835 1768 1719 1850 
6 27 803 811 108 1818 1826 
6 710 750 822 1725 1765 1837 
6 711 759 781 1726 1774 1796 
6 760 712 783 1775 1727 1798 
6 833 733 839 1848 1748 1854 
6 791 708 792 1806 1723 1807 
6 754 835 839 1769 1850 1854 
6 764 721 768 1779 1736 1783 
6 722 765 767 1737 1780 1782 
6 193 755 758 390 1770 1773 
6 756 208 757 1771 405 1772 
6 192 191 771 389 388 1786 
6 206 207 772 403 404 1787 
6 721 796 814 1736 1811 1829 
6 710 770 809 1725 1785 1824 
6 734 787 834 1749 1802 1849 
6 788 733 833 1803 1748 1848 
6 835 704 839 1850 1719 1854 
6 797 722 822 1812 1737 1837 
6 769 707 816 1784 1722 1831 
6 726 808 840 1741 1823 1855 
6 808 726 841 1823 1741 1856 
6 723 784 832 1738 1799 1847 
6 719 791 792 1734 1806 1807 
6 203 780 781 400 1795 1796 
6 782 198 783 1797 395 1798 
6 762 746 794 1777 1761 1809 
6 747 763 795 1762 1778 1810 
6 793 732 815 1808 1747 1830 
6 222 221 786 419 418 1801 
6 211 212 785 408 409 1800 
6 723 802 811 1738 1817 1826 
6 724 803 810 1739 1818 1825 
6 801 725 829 1816 1740 1844 
6 802 723 828 1817 1738 1843 
6 725 804 830 1740 1819 1845 
6 766 724 821 1781 1739 1836 
6 801 739 810 1816 1754 1825 
6 803 742 811 1818 1757 1826 
6 210 736 789 407 1751 1804 
6 735 220 790 1750 417 1805 
6 773 714 823 1788 1729 1838 
6 216 217 793 413 414 1808 
6 750 828 832 1765 1843 1847 
6 749 829 831 1764 1844 1846 
6 731 793 815 1746 1808 1830 
6 759 711 817 1774 1726 1832 
6 712 760 818 1727 1775 1833 
6 798 714 825 1813 1729 1840 
6 785 737 796 1800 1752 1811 
6 738 786 797 1753 1801 1812 
6 732 773 823 1747 1788 1838 
6 721 785 796 1736 1800 1811 
6 786 722 797 1801 1737 1812 
6 226 227 808 423 424 1823 
6 707 768 814 1722 1783 1829 
6 767 710 822 1782 1725 1837 
6 736 757 845 1751 1772 1860 
6 758 735 844 1773 1750 1859 
6 201 202 806 398 399 1821 
6 199 200 807 396 397 1822 
6 746 713 824 1761 1728 1839 
6 714 747 825 1729 1762 1840 
6 746 213 794 1761 410 1809 
6 223 747 795 420 1762 1810 
6 728 782 783 1743 1797 1798 
6 780 727 781 1795 1742 1796 
6 191 190 819 388 387 1834 
6 205 206 820 402 403 1835 
6 733 777 839 1748 1792 1854 
6 768 721 814 1783 1736 1829 
6 834 703 838 1849 1718 1853 
6 722 767 822 1737 1782 1837 
6 791 734 838 1806 1749 1853 
6 770 718 809 1785 1733 1824 
6 704 833 839 1719 1848 1854 
6 212 213 842 409 410 1857 
6 223 222 843 420 419 1858 
6 713 774 826 1728 1789 1841 
6 209 21 789 406 102 1804 
6 26 224 790 107 421 1805 
6 714 798 823 1729 1813 1838 
6 218 763 773 415 1778 1788 
6 725 801 827 1740 1816 1842 
6 804 725 827 1819 1740 1842 
6 202 743 806 399 1758 1821 
6 744 199 807 1759 396 1822 
6 762 215 774 1777 412 1789 
6 717 769 816 1732 1784 1831 
6 777 754 839 1792 1769 1854 
6 787 705 836 1802 1720 1851 
6 706 788 837 1721 1803 1852 
6 22 214 794 103 411 1809 
6 219 25 795 416 106 1810 
6 798 748 823 1813 1763 1838 
6 744 778 818 1759 1793 1833 
6 779 743 817 1794 1758 1832 
6 765 722 812 1780 1737 1827 
6 721 764 813 1736 1779 1828 
6 211 785 813 408 1800 1828 
6 786 221 812 1801 418 1827 
6 225 226 827 422 423 1842 
6 213 746 842 410 1761 1857 
6 747 223 843 1762 420 1858 
6 785 721 813 1800 1736 1828 
6 722 786 812 1737 1801 1827 
6 751 791 838 1766 1806 1853 
6 713 805 824 1728 1820 1839 
6 746 824 842 1761 1839 1857 
6 825 747 843 1840 1762 1858 
6 774 731 826 1789 1746 1841 
6 743 202 759 1758 399 1774 
6 199 744 760 396 1759 1775 
6 790 224 844 1805 421 1859 
6 209 789 845 406 1804 1860 
6 227 802 840 424 1817 1855 
6 804 226 841 1819 423 1856 
6 730 819 837 1745 1834 1852 
6 820 729 836 1835 1744 1851 
6 801 225 827 1816 422 1842 
6 226 804 827 423 1819 1842 
6 17 203 781 98 400 1796 
6 198 16 783 395 97 1798 
6 805 737 824 1820 1752 1839 
6 788 730 837 1803 1745 1852 
6 729 787 836 1744 1802 1851 
6 704 799 833 1719 1814 1848 
6 800 703 834 1815 1718 1849 
6 739 801 829 1754 1816 1844 
6 740 802 828 1755 1817 1843 
6 804 741 830 1819 1756 1845 
6 799 730 833 1814 1745 1848 
6 729 800 834 1744 1815 1849 
6 802 740 840 1817 1755 1855 
6 741 804 841 1756 1819 1856 
6 775 820 836 1790 1835 1851 
6 819 776 837 1834 1791 1852 
6 705 775 836 1720 1790 1851 
6 776 706 837 1791 1721 1852 
6 808 227 840 1823 424 1855 
6 226 808 841 423 1823 1856 
6 730 788 833 1745 1803 1848 
6 787 729 834 1802 1744 1849 
6 789 736 845 1804 1751 1860 
6 735 790 844 1750 1805 1859 
6 775 205 820 1790 402 1835 
6 190 776 819 387 1791 1834 
6 743 759 817 1758 1774 1832 
6 760 744 818 1775 1759 1833 
6 824 737 842 1839 1752 1857 
6 738 825 843 1753 1840 1858 
6 16 199 760 97 396 1775 
6 16 760 783 97 1775 1798 
6 202 17 759 399 98 1774 
6 759 17 781 1774 98 1796 
6 21 210 789 102 407 1804 
6 213 22 794 410 103 1809 
6 25 223 795 106 420 1810 
6 220 26 790 417 107 1805 
6 1 197 190 82 394 387 
6 197 15 782 394 96 1797 
6 18 204 780 99 401 1795 
6 19 205 204 100 402 401 
6 190 197 728 387 394 1743 
6 190 728 776 387 1743 1791 
6 728 197 782 1743 394 1797 
6 204 205 727 401 402 1742 
6 204 727 780 401 1742 1795 
6 727 205 775 1742 402 1790 
6 711 727 775 1726 1742 1790 
6 727 711 781 1742 1726 1796 
6 728 712 776 1743 1727 1791 
6 712 728 783 1727 1743 1798 
6 939 898 954 1954 1913 1969 
6 860 900 915 1875 1915 1930 
6 861 901 914 1876 1916 1929 
6 893 877 959 1908 1892 1974 
6 854 893 959 1869 1908 1974 
6 900 860 903 1915 1875 1918 
6 901 861 902 1916 1876 1917 
6 890 854 959 1905 1869 1974 
6 876 238 920 1891 435 1935 
6 869 884 898 1884 1899 1913 
6 885 868 897 1900 1883 1912 
6 870 886 899 1885 1901 1914 
6 244 880 909 441 1895 1924 
6 223 881 910 420 1896 1925 
6 862 939 954 1877 1954 1969 
6 862 901 916 1877 1916 1931 
6 880 860 909 1895 1875 1924 
6 881 861 910 1896 1876 1925 
6 936 865 937 1951 1880 1952 
6 884 852 898 1899 1867 1913 
6 855 885 897 1870 1900 1912 
6 886 853 899 1901 1868 1914 
6 847 898 939 1862 1913 1954 
6 854 890 917 1869 1905 1932 
6 847 939 943 1862 1954 1958 
6 944 895 960 1959 1910 1975 
6 876 890 959 1891 1905 1974 
6 884 869 955 1899 1884 1970 
6 877 919 938 1892 1934 1953 
6 886 870 956 1901 1885 1971 
6 860 880 903 1875 1895 1918 
6 861 881 902 1876 1896 1917 
6 907 240 940 1922 437 1955 
6 235 908 941 432 1923 1956 
6 887 854 917 1902 1869 1932 
6 939 883 943 1954 1898 1958 
6 891 858 907 1906 1873 1922 
6 859 892 908 1874 1907 1923 
6 919 237 938 1934 434 1953 
6 849 895 944 1864 1910 1959 
6 890 846 917 1905 1861 1932 
6 238 876 938 435 1891 1953 
6 897 846 942 1912 1861 1957 
6 897 942 958 1912 1957 1973 
6 863 900 918 1878 1915 1933 
6 917 846 979 1932 1861 1994 
6 38 252 955 119 449 1970 
6 252 253 956 449 450 1971 
6 244 909 957 441 1924 1972 
6 945 252 956 1960 449 1971 
6 947 38 955 1962 119 1970 
6 850 856 921 1865 1871 1936 
6 857 851 922 1872 1866 1937 
6 865 906 937 1880 1921 1952 
6 856 850 962 1871 1865 1977 
6 851 857 963 1866 1872 1978 
6 863 944 960 1878 1959 1975 
6 239 32 907 436 113 1922 
6 31 236 908 112 433 1923 
6 925 850 931 1940 1865 1946 
6 851 924 932 1866 1939 1947 
6 868 887 917 1883 1902 1932 
6 29 231 902 110 428 1917 
6 35 249 903 116 446 1918 
6 894 848 949 1909 1863 1964 
6 868 885 985 1883 1900 2000 
6 887 868 986 1902 1883 2001 
6 900 863 915 1915 1878 1930 
6 901 862 914 1916 1877 1929 
6 228 28 926 425 109 1941 
6 37 251 928 118 448 1943 
6 901 232 916 1916 429 1931 
6 865 878 924 1880 1893 1939 
6 879 864 925 1894 1879 1940 
6 883 916 988 1898 1931 2003 
6 223 910 968 420 1925 1983 
6 854 887 913 1869 1902 1928 
6 853 936 937 1868 1951 1952 
6 893 854 913 1908 1869 1928 
6 859 908 919 1874 1923 1934 
6 235 31 908 432 112 1923 
6 32 240 907 113 437 1922 
6 869 898 961 1884 1913 1976 
6 846 890 950 1861 1905 1965 
6 864 879 923 1879 1894 1938 
6 29 902 989 110 1917 2004 
6 35 903 990 116 1918 2005 
6 907 858 920 1922 1873 1935 
6 909 860 911 1924 1875 1926 
6 910 861 912 1925 1876 1927 
6 864 906 951 1879 1921 1966 
6 906 865 952 1921 1880 1967 
6 896 871 977 1911 1886 1992 
6 888 925 951 1903 1940 1966 
6 924 889 952 1939 1904 1967 
6 878 865 936 1893 1880 1951 
6 894 949 966 1909 1964 1981 
6 925 864 951 1940 1879 1966 
6 865 924 952 1880 1939 1967 
6 890 876 971 1905 1891 1986 
6 875 918 965 1890 1933 1980 
6 847 893 961 1862 1908 1976 
6 916 233 988 1931 430 2003 
6 900 248 918 1915 445 1933 
6 899 853 923 1914 1868 1938 
6 858 950 971 1873 1965 1986 
6 877 893 967 1892 1908 1982 
6 898 847 961 1913 1862 1976 
6 893 847 943 1908 1862 1958 
6 912 861 914 1927 1876 1929 
6 911 860 915 1926 1875 1930 
6 871 896 975 1886 1911 1990 
6 930 882 987 1945 1897 2002 
6 848 894 976 1863 1909 1991 
6 895 849 977 1910 1864 1992 
6 950 890 971 1965 1905 1986 
6 238 239 920 435 436 1935 
6 236 237 919 433 434 1934 
6 898 852 954 1913 1867 1969 
6 942 846 950 1957 1861 1965 
6 852 884 973 1867 1899 1988 
6 885 855 974 1900 1870 1989 
6 853 886 975 1868 1901 1990 
6 870 899 976 1885 1914 1991 
6 896 977 983 1911 1992 1998 
6 245 35 990 442 116 2005 
6 230 29 989 427 110 2004 
6 853 896 936 1868 1911 1951 
6 863 918 944 1878 1933 1959 
6 906 864 937 1921 1879 1952 
6 855 897 958 1870 1912 1973 
6 231 232 901 428 429 1916 
6 249 248 900 446 445 1915 
6 935 874 964 1950 1889 1979 
6 918 247 965 1933 444 1980 
6 862 916 939 1877 1931 1954 
6 187 186 906 384 383 1921 
6 976 899 984 1991 1914 1999 
6 242 930 987 439 1945 2002 
6 848 976 984 1863 1991 1999 
6 897 868 979 1912 1883 1994 
6 882 942 950 1897 1957 1965 
6 894 852 973 1909 1867 1988 
6 855 895 974 1870 1910 1989 
6 896 853 975 1911 1868 1990 
6 977 849 983 1992 1864 1998 
6 855 911 915 1870 1926 1930 
6 852 912 914 1867 1927 1929 
6 973 870 976 1988 1885 1991 
6 871 974 977 1886 1989 1992 
6 906 186 951 1921 383 1966 
6 187 906 952 384 1921 1967 
6 918 875 944 1933 1890 1959 
6 243 244 957 440 441 1972 
6 943 883 970 1958 1898 1985 
6 869 913 947 1884 1928 1962 
6 895 855 960 1910 1870 1975 
6 924 851 963 1939 1866 1978 
6 850 925 962 1865 1940 1977 
6 978 878 983 1993 1893 1998 
6 879 925 931 1894 1940 1946 
6 924 878 932 1939 1893 1947 
6 252 945 955 449 1960 1970 
6 253 948 956 450 1963 1971 
6 852 894 966 1867 1909 1981 
6 856 904 927 1871 1919 1942 
6 905 857 929 1920 1872 1944 
6 913 887 947 1928 1902 1962 
6 866 909 911 1881 1924 1926 
6 867 910 912 1882 1925 1927 
6 846 897 979 1861 1912 1994 
6 221 935 964 418 1950 1979 
6 232 233 916 429 430 1931 
6 249 900 903 446 1915 1918 
6 231 901 902 428 1916 1917 
6 874 935 949 1889 1950 1964 
6 916 883 939 1931 1898 1954 
6 879 980 984 1894 1995 1999 
6 893 913 961 1908 1928 1976 
6 923 853 937 1938 1868 1952 
6 248 247 918 445 444 1933 
6 942 866 958 1957 1881 1973 
6 852 914 954 1867 1929 1969 
6 932 878 978 1947 1893 1993 
6 855 915 960 1870 1930 1975 
6 222 223 968 419 420 1983 
6 953 868 985 1968 1883 2000 
6 868 953 986 1883 1968 2001 
6 864 923 937 1879 1938 1952 
6 879 931 980 1894 1946 1995 
6 228 926 927 425 1941 1942 
6 928 251 929 1943 448 1944 
6 935 867 949 1950 1882 1964 
6 891 907 940 1906 1922 1955 
6 908 892 941 1923 1907 1956 
6 877 938 959 1892 1953 1974 
6 242 243 930 439 440 1945 
6 870 945 956 1885 1960 1971 
6 869 947 955 1884 1962 1970 
6 945 870 973 1960 1885 1988 
6 871 946 974 1886 1961 1989 
6 948 871 975 1963 1886 1990 
6 221 222 935 418 419 1950 
6 945 884 955 1960 1899 1970 
6 948 886 956 1963 1901 1971 
6 880 244 933 1895 441 1948 
6 881 223 934 1896 420 1949 
6 859 919 967 1874 1934 1982 
6 237 238 938 434 435 1953 
6 974 895 977 1989 1910 1992 
6 894 973 976 1909 1988 1991 
6 938 876 959 1953 1891 1974 
6 949 867 966 1964 1882 1981 
6 904 856 962 1919 1871 1977 
6 857 905 963 1872 1920 1978 
6 859 943 970 1874 1958 1985 
6 882 930 942 1897 1945 1957 
6 919 877 967 1934 1892 1982 
6 913 869 961 1928 1884 1976 
6 930 866 942 1945 1881 1957 
6 254 38 953 451 119 1968 
6 911 855 958 1926 1870 1973 
6 912 852 966 1927 1867 1981 
6 902 881 989 1917 1896 2004 
6 903 880 990 1918 1895 2005 
6 186 185 951 383 382 1966 
6 188 187 952 385 384 1967 
6 858 891 969 1873 1906 1984 
6 892 859 970 1907 1874 1985 
6 241 891 940 438 1906 1955 
6 892 234 941 1907 431 1956 
6 926 872 927 1941 1887 1942 
6 873 928 929 1888 1943 1944 
6 220 221 964 417 418 1979 
6 247 246 965 444 443 1980 
6 923 879 984 1938 1894 1999 
6 866 911 958 1881 1926 1973 
6 849 978 983 1864 1993 1998 
6 867 912 966 1882 1927 1981 
6 868 917 979 1883 1932 1994 
6 878 936 983 1893 1951 1998 
6 914 862 954 1929 1877 1969 
6 241 242 987 438 439 2002 
6 233 234 988 430 431 2003 
6 920 858 971 1935 1873 1986 
6 34 245 933 115 442 1948 
6 25 230 934 106 427 1949 
6 910 867 968 1925 1882 1983 
6 943 859 967 1958 1874 1982 
6 908 236 919 1923 433 1934 
6 980 848 984 1995 1863 1999 
6 946 871 972 1961 1886 1987 
6 871 948 972 1886 1963 1987 
6 185 888 951 382 1903 1966 
6 889 188 952 1904 385 1967 
6 239 907 920 436 1922 1935 
6 915 863 960 1930 1878 1975 
6 899 923 984 1914 1938 1999 
6 931 850 981 1946 1865 1996 
6 851 932 982 1866 1947 1997 
6 240 33 940 437 114 1955 
6 30 235 941 111 432 1956 
6 867 935 968 1882 1950 1983 
6 893 943 967 1908 1958 1982 
6 889 924 963 1904 1939 1978 
6 925 888 962 1940 1903 1977 
6 909 866 957 1924 1881 1972 
6 930 243 957 1945 440 1972 
6 253 254 972 450 451 1987 
6 891 241 987 1906 438 2002 
6 234 892 988 431 1907 2003 
6 866 930 957 1881 1945 1972 
6 936 896 983 1951 1911 1998 
6 950 858 969 1965 1873 1984 
6 969 891 987 1984 1906 2002 
6 892 970 988 1907 1985 2003 
6 876 920 971 1891 1935 1986 
6 888 185 904 1903 382 1919 
6 188 889 905 385 1904 1920 
6 933 245 990 1948 442 2005 
6 934 230 989 1949 427 2004 
6 946 254 985 1961 451 2000 
6 38 947 986 119 1962 2001 
6 875 965 982 1890 1980 1997 
6 964 874 981 1979 1889 1996 
6 935 222 968 1950 419 1983 
6 254 946 972 451 1961 1987 
6 948 253 972 1963 450 1987 
6 251 11 929 448 92 1944 
6 12 228 927 93 425 1942 
6 882 950 969 1897 1965 1984 
6 949 848 980 1964 1863 1995 
6 932 875 982 1947 1890 1997 
6 874 931 981 1889 1946 1996 
6 874 949 980 1889 1964 1995 
6 849 944 978 1864 1959 1993 
6 884 945 973 1899 1960 1988 
6 946 885 974 1961 1900 1989 
6 886 948 975 1901 1963 1990 
6 944 875 978 1959 1890 1993 
6 885 946 985 1900 1961 2000 
6 947 887 986 1962 1902 2001 
6 921 964 981 1936 1979 1996 
6 965 922 982 1980 1937 1997 
6 850 921 981 1865 1936 1996 
6 922 851 982 1937 1866 1997 
6 254 953 985 451 1968 2000 
6 953 38 986 1968 119 2001 
6 875 932 978 1890 1947 1993 
6 931 874 980 1946 1889 1995 
6 880 933 990 1895 1948 2005 
6 881 934 989 1896 1949 2004 
6 921 220 964 1936 417 1979 
6 246 922 965 443 1937 1980 
6 888 904 962 1903 1919 1977 
6 905 889 963 1920 1904 1978 
6 882 969 987 1897 1984 2002 
6 970 883 988 1985 1898 2003 
6 11 188 905 92 385 1920 
6 11 905 929 92 1920 1944 
6 185 12 904 382 93 1919 
6 904 12 927 1919 93 1942 
6 223 25 934 420 106 1949 
6 234 30 941 431 111 1956 
6 33 241 940 114 438 1955 
6 244 34 933 441 115 1948 
6 26 220 229 107 417 426 
6 28 229 926 109 426 1941 
6 36 250 246 117 447 443 
6 250 37 928 447 118 1943 
6 229 220 872 426 417 1887 
6 872 220 921 1887 417 1936 
6 229 872 926 426 1887 1941 
6 246 250 873 443 447 1888 
6 246 873 922 443 1888 1937 
6 873 250 928 1888 447 1943 
6 856 872 921 1871 1887 1936 
6 872 856 927 1887 1871 1942 
6 873 857 922 1888 1872 1937 
6 857 873 929 1872 1888 1944 
6 1084 1042 1100 2099 2057 2115 
6 1005 1045 1060 2020 2060 2075 
6 1006 1046 1059 2021 2061 2074 
6 1022 1038 1104 2037 2053 2119 
6 1038 999 1104 2053 2014 2119 
6 1045 1005 1047 2060 2020 2062 
6 1046 1006 1048 2061 2021 2063 
6 999 1035 1104 2014 2050 2119 
6 258 1021 1064 455 2036 2079 
6 1014 1029 1042 2029 2044 2057 
6 1016 1030 1043 2031 2045 2058 
6 1031 1016 1044 2046 2031 2059 
6 180 1026 1055 377 2041 2070 
6 265 1025 1054 462 2040 2069 
6 1028 991 1088 2043 2006 2103 
6 1007 1084 1100 2022 2099 2115 
6 1007 1046 1061 2022 2061 2076 
6 1026 1006 1055 2041 2021 2070 
6 1025 1005 1054 2040 2020 2069 
6 1067 1010 1082 2082 2025 2097 
6 1029 997 1042 2044 2012 2057 
6 1030 1000 1043 2045 2015 2058 
6 998 1031 1044 2013 2046 2059 
6 1089 1043 1099 2104 2058 2114 
6 992 1042 1084 2007 2057 2099 
6 1035 1021 1104 2050 2036 2119 
6 1029 1014 1101 2044 2029 2116 
6 1063 1022 1083 2078 2037 2098 
6 1005 1025 1047 2020 2040 2062 
6 1006 1026 1048 2021 2041 2063 
6 256 1052 1085 453 2067 2100 
6 1053 261 1086 2068 458 2101 
6 991 1028 1087 2006 2043 2102 
6 1040 991 1087 2055 2006 2102 
6 1032 999 1074 2047 2014 2089 
6 1003 1036 1052 2018 2051 2067 
6 1037 1004 1053 2052 2019 2068 
6 259 1063 1083 456 2078 2098 
6 1021 258 1083 2036 455 2098 
6 1038 991 1074 2053 2006 2089 
6 1035 999 1056 2050 2014 2071 
6 999 1038 1074 2014 2053 2089 
6 1008 1045 1062 2023 2060 2077 
6 1040 1087 1110 2055 2102 2125 
6 994 1043 1089 2009 2058 2104 
6 49 279 1101 130 476 2116 
6 281 49 1102 478 130 2117 
6 265 1054 1103 462 2069 2118 
6 1008 1089 1099 2023 2104 2114 
6 1091 281 1102 2106 478 2117 
6 1092 49 1101 2107 130 2116 
6 995 1001 1065 2010 2016 2080 
6 1002 996 1066 2017 2011 2081 
6 1010 1051 1082 2025 2066 2097 
6 1001 995 1105 2016 2010 2120 
6 996 1002 1106 2011 2017 2121 
6 39 257 1052 120 454 2067 
6 260 40 1053 457 121 2068 
6 1069 995 1076 2084 2010 2091 
6 996 1068 1077 2011 2083 2092 
6 43 267 1047 124 464 2062 
6 36 246 1048 117 443 2063 
6 1039 993 1094 2054 2008 2109 
6 1030 1016 1130 2045 2031 2145 
6 1016 1031 1131 2031 2046 2146 
6 1045 1008 1060 2060 2023 2075 
6 1046 1007 1059 2061 2022 2074 
6 277 48 1070 474 129 2085 
6 45 272 1072 126 469 2087 
6 992 1035 1109 2007 2050 2124 
6 1046 247 1061 2061 444 2076 
6 1010 1023 1068 2025 2038 2083 
6 1024 1009 1069 2039 2024 2084 
6 1027 1061 1132 2042 2076 2147 
6 180 1055 1113 377 2070 2128 
6 1053 1004 1063 2068 2019 2078 
6 999 1032 1056 2014 2047 2071 
6 40 261 1053 121 458 2068 
6 256 39 1052 453 120 2067 
6 1035 992 1095 2050 2007 2110 
6 1023 1010 1067 2038 2025 2082 
6 1014 1042 1109 2029 2057 2124 
6 36 1048 1134 117 2063 2149 
6 43 1047 1135 124 2062 2150 
6 1003 1052 1064 2018 2067 2079 
6 1054 1005 1057 2069 2020 2072 
6 1055 1006 1058 2070 2021 2073 
6 1051 1010 1097 2066 2025 2112 
6 1009 1051 1096 2024 2066 2111 
6 1015 1041 1122 2030 2056 2137 
6 998 1067 1082 2013 2082 2097 
6 1033 1069 1096 2048 2084 2111 
6 1068 1034 1097 2083 2049 2112 
6 1009 1024 1081 2024 2039 2096 
6 1039 1094 1111 2054 2109 2126 
6 1069 1009 1096 2084 2024 2111 
6 1010 1068 1097 2025 2083 2112 
6 1021 1035 1116 2036 2050 2131 
6 1074 991 1121 2089 2006 2136 
6 1020 1062 1108 2035 2077 2123 
6 1061 248 1132 2076 445 2147 
6 1045 268 1062 2060 465 2077 
6 998 1044 1067 2013 2059 2082 
6 1074 1013 1102 2089 2028 2117 
6 1095 1003 1116 2110 2018 2131 
6 1038 1022 1112 2053 2037 2127 
6 1032 1074 1102 2047 2089 2117 
6 991 1038 1088 2006 2053 2103 
6 1058 1006 1059 2073 2021 2074 
6 1057 1005 1060 2072 2020 2075 
6 1042 992 1109 2057 2007 2124 
6 1041 1015 1120 2056 2030 2135 
6 1075 1028 1133 2090 2043 2148 
6 993 1039 1122 2008 2054 2137 
6 991 1040 1121 2006 2055 2136 
6 1035 1095 1116 2050 2110 2131 
6 257 258 1064 454 455 2079 
6 259 260 1063 456 457 2078 
6 1042 997 1100 2057 2012 2115 
6 1043 1000 1099 2058 2015 2114 
6 997 1029 1119 2012 2044 2134 
6 1000 1030 1118 2015 2045 2133 
6 1031 998 1120 2046 2013 2135 
6 1122 1041 1128 2137 2056 2143 
6 255 36 1134 452 117 2149 
6 266 43 1135 463 124 2150 
6 1035 1056 1109 2050 2071 2124 
6 1041 998 1081 2056 2013 2096 
6 1014 1056 1092 2029 2071 2107 
6 1008 1062 1089 2023 2077 2104 
6 1051 1009 1082 2066 2024 2097 
6 246 247 1046 443 444 2061 
6 267 268 1045 464 465 2060 
6 1016 1043 1124 2031 2058 2139 
6 1044 1016 1124 2059 2031 2139 
6 1080 1019 1107 2095 2034 2122 
6 1056 1032 1092 2071 2047 2107 
6 1062 269 1108 2077 466 2123 
6 1007 1061 1084 2022 2076 2099 
6 275 274 1051 472 471 2066 
6 263 1075 1133 460 2090 2148 
6 992 1084 1095 2007 2099 2110 
6 1039 997 1119 2054 2012 2134 
6 1040 1000 1118 2055 2015 2133 
6 998 1041 1120 2013 2056 2135 
6 993 1122 1128 2008 2137 2143 
6 1000 1057 1060 2015 2072 2075 
6 997 1058 1059 2012 2073 2074 
6 1119 1015 1122 2134 2030 2137 
6 1118 1013 1121 2133 2028 2136 
6 275 1051 1097 472 2066 2112 
6 1051 274 1096 2066 471 2111 
6 1062 1020 1089 2077 2035 2104 
6 264 265 1103 461 462 2118 
6 1028 1088 1115 2043 2103 2130 
6 1068 996 1106 2083 2011 2121 
6 995 1069 1105 2010 2084 2120 
6 1024 1069 1076 2039 2084 2091 
6 1068 1023 1077 2083 2038 2092 
6 279 1090 1101 476 2105 2116 
6 1043 994 1124 2058 2009 2139 
6 49 1092 1102 130 2107 2117 
6 1084 1027 1095 2099 2042 2110 
6 997 1039 1111 2012 2054 2126 
6 1000 1040 1110 2015 2055 2125 
6 1001 1049 1071 2016 2064 2086 
6 1050 1002 1073 2065 2017 2088 
6 1123 1023 1129 2138 2038 2144 
6 1081 998 1082 2096 2013 2097 
6 1044 1124 1129 2059 2139 2144 
6 1011 1054 1057 2026 2069 2072 
6 1012 1055 1058 2027 2070 2073 
6 182 1080 1107 379 2095 2122 
6 1024 1125 1128 2039 2140 2143 
6 247 248 1061 444 445 2076 
6 267 1045 1047 464 2060 2062 
6 246 1046 1048 443 2061 2063 
6 1019 1080 1094 2034 2095 2109 
6 1061 1027 1084 2076 2042 2099 
6 268 269 1062 465 466 2077 
6 1000 1060 1099 2015 2075 2114 
6 997 1059 1100 2012 2074 2115 
6 1077 1023 1123 2092 2038 2138 
6 1124 994 1129 2139 2009 2144 
6 1087 1011 1110 2102 2026 2125 
6 181 180 1113 378 377 2128 
6 1016 1098 1130 2031 2113 2145 
6 1098 1016 1131 2113 2031 2146 
6 1013 1074 1121 2028 2089 2136 
6 1024 1076 1125 2039 2091 2140 
6 1009 1081 1082 2024 2096 2097 
6 1072 272 1073 2087 469 2088 
6 277 1070 1071 474 2085 2086 
6 1080 1012 1094 2095 2027 2109 
6 1052 1036 1085 2067 2051 2100 
6 1037 1053 1086 2052 2068 2101 
6 1083 1022 1104 2098 2037 2119 
6 263 264 1075 460 461 2090 
6 1013 1091 1102 2028 2106 2117 
6 1014 1092 1101 2029 2107 2116 
6 1090 1015 1119 2105 2030 2134 
6 1091 1013 1118 2106 2028 2133 
6 1015 1093 1120 2030 2108 2135 
6 1056 1014 1109 2071 2029 2124 
6 182 181 1080 379 378 2095 
6 1090 1029 1101 2105 2044 2116 
6 1092 1032 1102 2107 2047 2117 
6 1025 265 1078 2040 462 2093 
6 1026 180 1079 2041 377 2094 
6 1063 1004 1112 2078 2019 2127 
6 258 259 1083 455 456 2098 
6 1040 1118 1121 2055 2133 2136 
6 1039 1119 1122 2054 2134 2137 
6 1021 1083 1104 2036 2098 2119 
6 1094 1012 1111 2109 2027 2126 
6 1049 1001 1105 2064 2016 2120 
6 1002 1050 1106 2017 2065 2121 
6 1088 1004 1115 2103 2019 2130 
6 1028 1075 1087 2043 2090 2102 
6 1022 1063 1112 2037 2078 2127 
6 1075 1011 1087 2090 2026 2102 
6 280 281 1098 477 478 2113 
6 1058 997 1111 2073 2012 2126 
6 1057 1000 1110 2072 2015 2125 
6 1047 1025 1135 2062 2040 2150 
6 1048 1026 1134 2063 2041 2149 
6 274 273 1096 471 470 2111 
6 276 275 1097 473 472 2112 
6 1036 1003 1114 2051 2018 2129 
6 1004 1037 1115 2019 2052 2130 
6 1036 249 1085 2051 446 2100 
6 262 1037 1086 459 2052 2101 
6 1070 1017 1071 2085 2032 2086 
6 1018 1072 1073 2033 2087 2088 
6 183 182 1107 380 379 2122 
6 269 270 1108 466 467 2123 
6 1023 1067 1129 2038 2082 2144 
6 1011 1057 1110 2026 2072 2125 
6 1012 1058 1111 2027 2073 2126 
6 1081 1024 1128 2096 2039 2143 
6 1059 1007 1100 2074 2022 2115 
6 1060 1008 1099 2075 2023 2114 
6 994 1123 1129 2009 2138 2144 
6 248 249 1132 445 446 2147 
6 262 263 1133 459 460 2148 
6 1125 993 1128 2140 2008 2143 
6 1003 1064 1116 2018 2079 2131 
6 42 266 1078 123 463 2093 
6 10 255 1079 91 452 2094 
6 1055 1012 1113 2070 2027 2128 
6 1004 1088 1112 2019 2103 2127 
6 260 1053 1063 457 2068 2078 
6 1015 1090 1117 2030 2105 2132 
6 1093 1015 1117 2108 2030 2132 
6 273 1033 1096 470 2048 2111 
6 1034 276 1097 2049 473 2112 
6 1052 257 1064 2067 454 2079 
6 1067 1044 1129 2082 2059 2144 
6 1076 995 1126 2091 2010 2141 
6 996 1077 1127 2011 2092 2142 
6 35 256 1085 116 453 2100 
6 261 41 1086 458 122 2101 
6 1012 1080 1113 2027 2095 2128 
6 1088 1038 1112 2103 2053 2127 
6 1034 1068 1106 2049 2083 2121 
6 1069 1033 1105 2084 2048 2120 
6 1054 1011 1103 2069 2026 2118 
6 1075 264 1103 2090 461 2118 
6 279 280 1117 476 477 2132 
6 249 1036 1132 446 2051 2147 
6 1037 262 1133 2052 459 2148 
6 1011 1075 1103 2026 2090 2118 
6 1041 1081 1128 2056 2096 2143 
6 1003 1095 1114 2018 2110 2129 
6 1036 1114 1132 2051 2129 2147 
6 1115 1037 1133 2130 2052 2148 
6 1064 1021 1116 2079 2036 2131 
6 276 1034 1050 473 2049 2065 
6 1033 273 1049 2048 470 2064 
6 1078 266 1135 2093 463 2150 
6 1079 255 1134 2094 452 2149 
6 281 1091 1130 478 2106 2145 
6 1093 280 1131 2108 477 2146 
6 1107 1019 1126 2122 2034 2141 
6 1020 1108 1127 2035 2123 2142 
6 1080 181 1113 2095 378 2128 
6 1090 279 1117 2105 476 2132 
6 280 1093 1117 477 2108 2132 
6 272 46 1073 469 127 2088 
6 47 277 1071 128 474 2086 
6 1095 1027 1114 2110 2042 2129 
6 1094 993 1125 2109 2008 2140 
6 1019 1076 1126 2034 2091 2141 
6 1077 1020 1127 2092 2035 2142 
6 1019 1094 1125 2034 2109 2140 
6 994 1089 1123 2009 2104 2138 
6 1030 1091 1118 2045 2106 2133 
6 1029 1090 1119 2044 2105 2134 
6 1093 1031 1120 2108 2046 2135 
6 1089 1020 1123 2104 2035 2138 
6 1091 1030 1130 2106 2045 2145 
6 1031 1093 1131 2046 2108 2146 
6 1065 1107 1126 2080 2122 2141 
6 1108 1066 1127 2123 2081 2142 
6 995 1065 1126 2010 2080 2141 
6 1066 996 1127 2081 2011 2142 
6 1098 281 1130 2113 478 2145 
6 280 1098 1131 477 2113 2146 
6 1020 1077 1123 2035 2092 2138 
6 1076 1019 1125 2091 2034 2140 
6 1025 1078 1135 2040 2093 2150 
6 1026 1079 1134 2041 2094 2149 
6 1065 183 1107 2080 380 2122 
6 270 1066 1108 467 2081 2123 
6 1033 1049 1105 2048 2064 2120 
6 1050 1034 1106 2065 2049 2121 
6 1114 1027 1132 2129 2042 2147 
6 1028 1115 1133 2043 2130 2148 
6 180 10 1079 377 91 2094 
6 249 35 1085 446 116 2100 
6 41 262 1086 122 459 2101 
6 265 42 1078 462 123 2093 
6 46 276 1050 127 473 2065 
6 46 1050 1073 127 2065 2088 
6 273 47 1049 470 128 2064 
6 1049 47 1071 2064 128 2086 
6 9 183 278 90 380 475 
6 44 271 270 125 468 467 
6 271 45 1072 468 126 2087 
6 48 278 1070 129 475 2085 
6 278 183 1017 475 380 2032 
6 1017 183 1065 2032 380 2080 
6 270 271 1018 467 468 2033 
6 270 1018 1066 467 2033 2081 
6 1018 271 1072 2033 468 2087 
6 278 1017 1070 475 2032 2085 
6 1001 1017 1065 2016 2032 2080 
6 1017 1001 1071 2032 2016 2086 
6 1018 1002 1066 2033 2017 2081 
6 1002 1018 1073 2017 2033 2088 
6 1150 1190 1205 2165 2205 2220 
6 1191 1151 1204 2206 2166 2219 
6 1183 1167 1250 2198 2182 2265 
6 1144 1183 1250 2159 2198 2265 
6 1190 1150 1192 2205 2165 2207 
6 1151 1191 1193 2166 2206 2208 
6 1180 1144 1250 2195 2159 2265 
6 1166 275 1210 2181 472 2225 
6 1175 1158 1187 2190 2173 2202 
6 1159 1174 1188 2174 2189 2203 
6 1176 1161 1189 2191 2176 2204 
6 1170 178 1199 2185 375 2214 
6 287 1171 1200 484 2186 2215 
6 1137 1173 1233 2152 2188 2248 
6 1151 1170 1199 2166 2185 2214 
6 1171 1150 1200 2186 2165 2215 
6 1155 1226 1227 2170 2241 2242 
6 1174 1142 1188 2189 2157 2203 
6 1145 1175 1187 2160 2190 2202 
6 1143 1176 1189 2158 2191 2204 
6 1144 1180 1206 2159 2195 2221 
6 1234 1185 1252 2249 2200 2267 
6 1184 1235 1251 2199 2250 2266 
6 1166 1180 1250 2181 2195 2265 
6 1174 1159 1244 2189 2174 2259 
6 1167 1209 1228 2182 2224 2243 
6 1161 1176 1245 2176 2191 2260 
6 1150 1171 1192 2165 2186 2207 
6 1170 1151 1193 2185 2166 2208 
6 1197 283 1230 2212 480 2245 
6 282 1198 1229 479 2213 2244 
6 1177 1144 1206 2192 2159 2221 
6 1173 1137 1232 2188 2152 2247 
6 1148 1181 1198 2163 2196 2213 
6 1182 1149 1197 2197 2164 2212 
6 1209 274 1228 2224 471 2243 
6 1139 1185 1234 2154 2200 2249 
6 1184 1138 1235 2199 2153 2250 
6 1180 1136 1206 2195 2151 2221 
6 275 1166 1228 472 2181 2243 
6 1137 1188 1232 2152 2203 2247 
6 1187 1136 1231 2202 2151 2246 
6 1232 1188 1249 2247 2203 2264 
6 1187 1231 1248 2202 2246 2263 
6 1191 1152 1208 2206 2167 2223 
6 1153 1190 1207 2168 2205 2222 
6 1206 1136 1270 2221 2151 2285 
6 60 306 1244 141 503 2259 
6 307 308 1245 504 505 2260 
6 1199 178 1247 2214 375 2262 
6 287 1200 1246 484 2215 2261 
6 308 1237 1245 505 2252 2260 
6 1238 60 1244 2253 141 2259 
6 1146 1140 1211 2161 2155 2226 
6 1141 1147 1212 2156 2162 2227 
6 1196 1155 1227 2211 2170 2242 
6 1140 1146 1254 2155 2161 2269 
6 1147 1141 1255 2162 2156 2270 
6 1153 1234 1252 2168 2249 2267 
6 1235 1152 1251 2250 2167 2266 
6 47 273 1198 128 470 2213 
6 276 46 1197 473 127 2212 
6 1140 1214 1222 2155 2229 2237 
6 1215 1141 1223 2230 2156 2238 
6 1158 1177 1206 2173 2192 2221 
6 52 289 1192 133 486 2207 
6 301 59 1193 498 140 2208 
6 1158 1175 1275 2173 2190 2290 
6 1177 1158 1276 2192 2173 2291 
6 1190 1153 1205 2205 2168 2220 
6 1152 1191 1204 2167 2206 2219 
6 54 294 1216 135 491 2231 
6 299 57 1218 496 138 2233 
6 1154 1168 1214 2169 2183 2229 
6 1169 1155 1215 2184 2170 2230 
6 1144 1177 1203 2159 2192 2218 
6 1226 1143 1227 2241 2158 2242 
6 1183 1144 1203 2198 2159 2218 
6 1148 1198 1209 2163 2213 2224 
6 46 283 1197 127 480 2212 
6 282 47 1198 479 128 2213 
6 1159 1188 1253 2174 2203 2268 
6 1136 1180 1240 2151 2195 2255 
6 1168 1154 1213 2183 2169 2228 
6 1193 59 1279 2208 140 2294 
6 52 1192 1280 133 2207 2295 
6 1197 1149 1210 2212 2164 2225 
6 1151 1199 1201 2166 2214 2216 
6 1200 1150 1202 2215 2165 2217 
6 1196 1154 1241 2211 2169 2256 
6 1155 1196 1242 2170 2211 2257 
6 1160 1186 1266 2175 2201 2281 
6 1214 1178 1241 2229 2193 2256 
6 1179 1215 1242 2194 2230 2257 
6 1155 1169 1226 2170 2184 2241 
6 1154 1214 1241 2169 2229 2256 
6 1215 1155 1242 2230 2170 2257 
6 1180 1166 1261 2195 2181 2276 
6 1164 1207 1256 2179 2222 2271 
6 1208 1165 1257 2223 2180 2272 
6 1137 1183 1253 2152 2198 2268 
6 302 1191 1208 499 2206 2223 
6 1190 290 1207 2205 487 2222 
6 1143 1189 1213 2158 2204 2228 
6 1149 1240 1261 2164 2255 2276 
6 1167 1183 1258 2182 2198 2273 
6 1188 1137 1253 2203 2152 2268 
6 1183 1137 1233 2198 2152 2248 
6 1151 1201 1204 2166 2216 2219 
6 1202 1150 1205 2217 2165 2220 
6 1186 1160 1265 2201 2175 2280 
6 1221 1172 1278 2236 2187 2293 
6 1173 1220 1277 2188 2235 2292 
6 1138 1184 1266 2153 2199 2281 
6 1185 1139 1267 2200 2154 2282 
6 1240 1180 1261 2255 2195 2276 
6 275 276 1210 472 473 2225 
6 273 274 1209 470 471 2224 
6 1231 1136 1240 2246 2151 2255 
6 1142 1174 1263 2157 2189 2278 
6 1175 1145 1264 2190 2160 2279 
6 1176 1143 1265 2191 2158 2280 
6 1189 1161 1267 2204 2176 2282 
6 1266 1186 1273 2281 2201 2288 
6 59 305 1279 140 502 2294 
6 288 52 1280 485 133 2295 
6 1186 1143 1226 2201 2158 2241 
6 1153 1207 1234 2168 2222 2249 
6 1208 1152 1235 2223 2167 2250 
6 1154 1196 1227 2169 2211 2242 
6 1188 1142 1249 2203 2157 2264 
6 1145 1187 1248 2160 2202 2263 
6 289 290 1190 486 487 2205 
6 302 301 1191 499 498 2206 
6 1207 291 1256 2222 488 2271 
6 303 1208 1257 500 2223 2272 
6 296 297 1196 493 494 2211 
6 1189 1267 1274 2204 2282 2289 
6 1220 176 1277 2235 373 2292 
6 285 1221 1278 482 2236 2293 
6 1267 1139 1274 2282 2154 2289 
6 1187 1158 1270 2202 2173 2285 
6 1172 1231 1240 2187 2246 2255 
6 1184 1142 1263 2199 2157 2278 
6 1145 1185 1264 2160 2200 2279 
6 1143 1186 1265 2158 2201 2280 
6 1138 1266 1273 2153 2281 2288 
6 1145 1202 1205 2160 2217 2220 
6 1201 1142 1204 2216 2157 2219 
6 1263 1160 1266 2278 2175 2281 
6 1161 1264 1267 2176 2279 2282 
6 296 1196 1241 493 2211 2256 
6 1196 297 1242 2211 494 2257 
6 1207 1164 1234 2222 2179 2249 
6 1165 1208 1235 2180 2223 2250 
6 178 177 1247 375 374 2262 
6 286 287 1246 483 484 2261 
6 1233 1173 1259 2248 2188 2274 
6 1159 1203 1238 2174 2218 2253 
6 1142 1184 1251 2157 2199 2266 
6 1185 1145 1252 2200 2160 2267 
6 1214 1140 1254 2229 2155 2269 
6 1141 1215 1255 2156 2230 2270 
6 1169 1269 1273 2184 2284 2288 
6 1214 1168 1222 2229 2183 2237 
6 1169 1215 1223 2184 2230 2238 
6 306 1236 1244 503 2251 2259 
6 1239 307 1245 2254 504 2260 
6 1194 1146 1217 2209 2161 2232 
6 1147 1195 1219 2162 2210 2234 
6 1268 1168 1274 2283 2183 2289 
6 1203 1177 1238 2218 2192 2253 
6 1199 1156 1201 2214 2171 2216 
6 1157 1200 1202 2172 2215 2217 
6 1136 1187 1270 2151 2202 2285 
6 289 1190 1192 486 2205 2207 
6 1191 301 1193 2206 498 2208 
6 1183 1203 1253 2198 2218 2268 
6 1143 1213 1227 2158 2228 2242 
6 290 291 1207 487 488 2222 
6 303 302 1208 500 499 2223 
6 1156 1232 1249 2171 2247 2264 
6 1231 1157 1248 2246 2172 2263 
6 1222 1168 1268 2237 2183 2283 
6 1169 1223 1269 2184 2238 2284 
6 1145 1205 1252 2160 2220 2267 
6 1204 1142 1251 2219 2157 2266 
6 1243 1158 1275 2258 2173 2290 
6 1158 1243 1276 2173 2258 2291 
6 1213 1154 1227 2228 2169 2242 
6 1216 294 1217 2231 491 2232 
6 299 1218 1219 496 2233 2234 
6 1182 1197 1230 2197 2212 2245 
6 1198 1181 1229 2213 2196 2244 
6 1167 1228 1250 2182 2243 2265 
6 177 176 1220 374 373 2235 
6 285 286 1221 482 483 2236 
6 1237 1161 1245 2252 2176 2260 
6 1159 1238 1244 2174 2253 2259 
6 1236 1160 1263 2251 2175 2278 
6 1161 1237 1264 2176 2252 2279 
6 1160 1239 1265 2175 2254 2280 
6 1236 1174 1244 2251 2189 2259 
6 1176 1239 1245 2191 2254 2260 
6 1171 287 1224 2186 484 2239 
6 178 1170 1225 375 2185 2240 
6 1148 1209 1258 2163 2224 2273 
6 274 275 1228 471 472 2243 
6 1184 1263 1266 2199 2278 2281 
6 1264 1185 1267 2279 2200 2282 
6 1228 1166 1250 2243 2181 2265 
6 1146 1194 1254 2161 2209 2269 
6 1195 1147 1255 2210 2162 2270 
6 1148 1233 1259 2163 2248 2274 
6 1172 1221 1231 2187 2236 2246 
6 1220 1173 1232 2235 2188 2247 
6 1209 1167 1258 2224 2182 2273 
6 1203 1159 1253 2218 2174 2268 
6 1221 1157 1231 2236 2172 2246 
6 1156 1220 1232 2171 2235 2247 
6 308 60 1243 505 141 2258 
6 1202 1145 1248 2217 2160 2263 
6 1142 1201 1249 2157 2216 2264 
6 1192 1171 1280 2207 2186 2295 
6 1170 1193 1279 2185 2208 2294 
6 295 296 1241 492 493 2256 
6 297 298 1242 494 495 2257 
6 1181 1148 1259 2196 2163 2274 
6 1149 1182 1260 2164 2197 2275 
6 1181 175 1229 2196 372 2244 
6 284 1182 1230 481 2197 2245 
6 1162 1216 1217 2177 2231 2232 
6 1218 1163 1219 2233 2178 2234 
6 291 292 1256 488 489 2271 
6 304 303 1257 501 500 2272 
6 1168 1213 1274 2183 2228 2289 
6 1201 1156 1249 2216 2171 2264 
6 1157 1202 1248 2172 2217 2263 
6 1269 1138 1273 2284 2153 2288 
6 1158 1206 1270 2173 2221 2285 
6 1226 1169 1273 2241 2184 2288 
6 1139 1268 1274 2154 2283 2289 
6 284 285 1278 481 482 2293 
6 176 175 1277 373 372 2292 
6 1210 1149 1261 2225 2164 2276 
6 51 288 1224 132 485 2239 
6 305 7 1225 502 88 2240 
6 1233 1148 1258 2248 2163 2273 
6 1198 273 1209 2213 470 2224 
6 1160 1236 1262 2175 2251 2277 
6 1239 1160 1262 2254 2175 2277 
6 1178 295 1241 2193 492 2256 
6 298 1179 1242 495 2194 2257 
6 276 1197 1210 473 2212 2225 
6 1152 1204 1251 2167 2219 2266 
6 1205 1153 1252 2220 2168 2267 
6 1213 1189 1274 2228 2204 2289 
6 1140 1222 1271 2155 2237 2286 
6 1223 1141 1272 2238 2156 2287 
6 8 282 1229 89 479 2244 
6 283 50 1230 480 131 2245 
6 1183 1233 1258 2198 2248 2273 
6 1178 1214 1254 2193 2229 2269 
6 1215 1179 1255 2230 2194 2270 
6 1200 1157 1246 2215 2172 2261 
6 1156 1199 1247 2171 2214 2262 
6 177 1220 1247 374 2235 2262 
6 1221 286 1246 2236 483 2261 
6 306 307 1262 503 504 2277 
6 175 1181 1277 372 2196 2292 
6 1182 284 1278 2197 481 2293 
6 1157 1221 1246 2172 2236 2261 
6 1220 1156 1247 2235 2171 2262 
6 1186 1226 1273 2201 2241 2288 
6 1240 1149 1260 2255 2164 2275 
6 1181 1259 1277 2196 2274 2292 
6 1260 1182 1278 2275 2197 2293 
6 1166 1210 1261 2181 2225 2276 
6 295 1178 1194 492 2193 2209 
6 1179 298 1195 2194 495 2210 
6 1224 288 1280 2239 485 2295 
6 305 1225 1279 502 2240 2294 
6 1237 308 1275 2252 505 2290 
6 60 1238 1276 141 2253 2291 
6 1164 1256 1271 2179 2271 2286 
6 1257 1165 1272 2272 2180 2287 
6 1236 306 1262 2251 503 2277 
6 307 1239 1262 504 2254 2277 
6 56 299 1219 137 496 2234 
6 294 55 1217 491 136 2232 
6 1172 1240 1260 2187 2255 2275 
6 1222 1164 1271 2237 2179 2286 
6 1165 1223 1272 2180 2238 2287 
6 1139 1234 1268 2154 2249 2283 
6 1235 1138 1269 2250 2153 2284 
6 1174 1236 1263 2189 2251 2278 
6 1237 1175 1264 2252 2190 2279 
6 1239 1176 1265 2254 2191 2280 
6 1234 1164 1268 2249 2179 2283 
6 1165 1235 1269 2180 2250 2284 
6 1175 1237 1275 2190 2252 2290 
6 1238 1177 1276 2253 2192 2291 
6 1256 1211 1271 2271 2226 2286 
6 1212 1257 1272 2227 2272 2287 
6 1211 1140 1271 2226 2155 2286 
6 1141 1212 1272 2156 2227 2287 
6 308 1243 1275 505 2258 2290 
6 1243 60 1276 2258 141 2291 
6 1164 1222 1268 2179 2237 2283 
6 1223 1165 1269 2238 2180 2284 
6 1225 1170 1279 2240 2185 2294 
6 1171 1224 1280 2186 2239 2295 
6 292 1211 1256 489 2226 2271 
6 1212 304 1257 2227 501 2272 
6 1194 1178 1254 2209 2193 2269 
6 1179 1195 1255 2194 2210 2270 
6 1259 1173 1277 2274 2188 2292 
6 1172 1260 1278 2187 2275 2293 
6 7 178 1225 88 375 2240 
6 175 8 1229 372 89 2244 
6 50 284 1230 131 481 2245 
6 287 51 1224 484 132 2239 
6 55 295 1194 136 492 2209 
6 55 1194 1217 136 2209 2232 
6 298 56 1195 495 137 2210 
6 1195 56 1219 2210 137 2234 
6 53 293 292 134 490 489 
6 293 54 1216 490 135 2231 
6 57 300 1218 138 497 2233 
6 58 304 300 139 501 497 
6 292 293 1162 489 490 2177 
6 292 1162 1211 489 2177 2226 
6 1162 293 1216 2177 490 2231 
6 300 304 1163 497 501 2178 
6 300 1163 1218 497 2178 2233 
6 1163 304 1212 2178 501 2227 
6 1162 1146 1211 2177 2161 2226 
6 1146 1162 1217 2161 2177 2232 
6 1147 1163 1212 2162 2178 2227 
6 1163 1147 1219 2178 2162 2234 
6 1374 1333 1389 2389 2348 2404 
6 1295 1335 1350 2310 2350 2365 
6 1296 1336 1349 2311 2351 2364 
6 1328 1312 1394 2343 2327 2409 
6 1289 1328 1394 2304 2343 2409 
6 1335 1295 1337 2350 2310 2352 
6 1336 1296 1338 2351 2311 2353 
6 1325 1289 1394 2340 2304 2409 
6 1311 170 1355 2326 367 2370 
6 1305 1319 1333 2320 2334 2348 
6 1320 1303 1332 2335 2318 2347 
6 1321 1306 1334 2336 2321 2349 
6 304 1315 1344 501 2330 2359 
6 326 1316 1345 523 2331 2360 
6 1297 1374 1389 2312 2389 2404 
6 1297 1336 1351 2312 2351 2366 
6 1315 1295 1344 2330 2310 2359 
6 1316 1296 1345 2331 2311 2360 
6 1358 1300 1372 2373 2315 2387 
6 1319 1287 1333 2334 2302 2348 
6 1290 1320 1332 2305 2335 2347 
6 1288 1321 1334 2303 2336 2349 
6 1283 1333 1374 2298 2348 2389 
6 1289 1325 1352 2304 2340 2367 
6 1283 1374 1378 2298 2389 2393 
6 1379 1330 1395 2394 2345 2410 
6 1311 1325 1394 2326 2340 2409 
6 1319 1305 1390 2334 2320 2405 
6 1312 1354 1373 2327 2369 2388 
6 1306 1321 1391 2321 2336 2406 
6 1295 1315 1337 2310 2330 2352 
6 1296 1316 1338 2311 2331 2353 
6 332 1343 1375 529 2358 2390 
6 1342 309 1376 2357 506 2391 
6 1322 1289 1352 2337 2304 2367 
6 1374 1318 1378 2389 2333 2393 
6 1293 1327 1343 2308 2342 2358 
6 1326 1294 1342 2341 2309 2357 
6 1354 171 1373 2369 368 2388 
6 1284 1330 1379 2299 2345 2394 
6 1325 1281 1352 2340 2296 2367 
6 170 1311 1373 367 2326 2388 
6 1332 1281 1377 2347 2296 2392 
6 1332 1377 1393 2347 2392 2408 
6 1298 1335 1353 2313 2350 2368 
6 1352 1281 1414 2367 2296 2429 
6 71 333 1390 152 530 2405 
6 334 335 1391 531 532 2406 
6 304 1344 1392 501 2359 2407 
6 335 1381 1391 532 2396 2406 
6 1382 71 1390 2397 152 2405 
6 1285 1291 1356 2300 2306 2371 
6 1292 1286 1357 2307 2301 2372 
6 1300 1341 1372 2315 2356 2387 
6 1291 1285 1397 2306 2300 2412 
6 1286 1292 1398 2301 2307 2413 
6 1298 1379 1395 2313 2394 2410 
6 4 172 1343 85 369 2358 
6 169 5 1342 366 86 2357 
6 1359 1285 1366 2374 2300 2381 
6 1286 1360 1367 2301 2375 2382 
6 1303 1322 1352 2318 2337 2367 
6 69 331 1338 150 528 2353 
6 61 311 1337 142 508 2352 
6 1329 1282 1384 2344 2297 2399 
6 1303 1320 1420 2318 2335 2435 
6 1322 1303 1421 2337 2318 2436 
6 1335 1298 1350 2350 2313 2365 
6 1336 1297 1349 2351 2312 2364 
6 321 66 1361 518 147 2376 
6 63 316 1363 144 513 2378 
6 1336 330 1351 2351 527 2366 
6 1313 1299 1359 2328 2314 2374 
6 1300 1314 1360 2315 2329 2375 
6 1318 1351 1422 2333 2366 2437 
6 326 1345 1403 523 2360 2418 
6 1289 1322 1348 2304 2337 2363 
6 1328 1289 1348 2343 2304 2363 
6 1293 1343 1354 2308 2358 2369 
6 5 309 1342 86 506 2357 
6 332 4 1343 529 85 2358 
6 1305 1333 1396 2320 2348 2411 
6 1281 1325 1385 2296 2340 2400 
6 1314 1300 1358 2329 2315 2373 
6 61 1337 1424 142 2352 2439 
6 69 1338 1425 150 2353 2440 
6 1342 1294 1355 2357 2309 2370 
6 1344 1295 1346 2359 2310 2361 
6 1345 1296 1347 2360 2311 2362 
6 1299 1341 1386 2314 2356 2401 
6 1341 1300 1387 2356 2315 2402 
6 1304 1331 1411 2319 2346 2426 
6 1288 1358 1372 2303 2373 2387 
6 1323 1359 1386 2338 2374 2401 
6 1360 1324 1387 2375 2339 2402 
6 1299 1313 1371 2314 2328 2386 
6 1329 1384 1401 2344 2399 2416 
6 1359 1299 1386 2374 2314 2401 
6 1300 1360 1387 2315 2375 2402 
6 1325 1311 1406 2340 2326 2421 
6 1310 1353 1400 2325 2368 2415 
6 1283 1328 1396 2298 2343 2411 
6 1351 329 1422 2366 526 2437 
6 1335 312 1353 2350 509 2368 
6 1288 1334 1358 2303 2349 2373 
6 1294 1385 1406 2309 2400 2421 
6 1312 1328 1402 2327 2343 2417 
6 1333 1283 1396 2348 2298 2411 
6 1328 1283 1378 2343 2298 2393 
6 1347 1296 1349 2362 2311 2364 
6 1346 1295 1350 2361 2310 2365 
6 1331 1304 1410 2346 2319 2425 
6 1365 1317 1423 2380 2332 2438 
6 1282 1329 1411 2297 2344 2426 
6 1330 1284 1412 2345 2299 2427 
6 1385 1325 1406 2400 2340 2421 
6 170 169 1355 367 366 2370 
6 172 171 1354 369 368 2369 
6 1333 1287 1389 2348 2302 2404 
6 1377 1281 1385 2392 2296 2400 
6 1287 1319 1409 2302 2334 2424 
6 1320 1290 1408 2335 2305 2423 
6 1321 1288 1410 2336 2303 2425 
6 1334 1306 1412 2349 2321 2427 
6 1411 1331 1418 2426 2346 2433 
6 310 61 1424 507 142 2439 
6 327 69 1425 524 150 2440 
6 1331 1288 1371 2346 2303 2386 
6 1298 1353 1379 2313 2368 2394 
6 1341 1299 1372 2356 2314 2387 
6 1290 1332 1393 2305 2347 2408 
6 311 312 1335 508 509 2350 
6 331 330 1336 528 527 2351 
6 1370 1309 1399 2385 2324 2414 
6 1353 313 1400 2368 510 2415 
6 1297 1351 1374 2312 2366 2389 
6 318 319 1341 515 516 2356 
6 1334 1412 1419 2349 2427 2434 
6 302 1365 1423 499 2380 2438 
6 1412 1284 1419 2427 2299 2434 
6 1332 1303 1414 2347 2318 2429 
6 1317 1377 1385 2332 2392 2400 
6 1329 1287 1409 2344 2302 2424 
6 1290 1330 1408 2305 2345 2423 
6 1288 1331 1410 2303 2346 2425 
6 1282 1411 1418 2297 2426 2433 
6 1290 1346 1350 2305 2361 2365 
6 1287 1347 1349 2302 2362 2364 
6 1409 1304 1411 2424 2319 2426 
6 1306 1408 1412 2321 2423 2427 
6 1341 319 1386 2356 516 2401 
6 318 1341 1387 515 2356 2402 
6 1353 1310 1379 2368 2325 2394 
6 303 304 1392 500 501 2407 
6 1378 1318 1405 2393 2333 2420 
6 1305 1348 1382 2320 2363 2397 
6 1330 1290 1395 2345 2305 2410 
6 1285 1359 1397 2300 2374 2412 
6 1360 1286 1398 2375 2301 2413 
6 1313 1359 1366 2328 2374 2381 
6 1360 1314 1367 2375 2329 2382 
6 333 1380 1390 530 2395 2405 
6 1383 334 1391 2398 531 2406 
6 1287 1329 1401 2302 2344 2416 
6 1291 1339 1362 2306 2354 2377 
6 1340 1292 1364 2355 2307 2379 
6 1413 1314 1419 2428 2329 2434 
6 1348 1322 1382 2363 2337 2397 
6 1371 1288 1372 2386 2303 2387 
6 1301 1344 1346 2316 2359 2361 
6 1302 1345 1347 2317 2360 2362 
6 1281 1332 1414 2296 2347 2429 
6 324 1370 1399 521 2385 2414 
6 1313 1415 1418 2328 2430 2433 
6 330 329 1351 527 526 2366 
6 311 1335 1337 508 2350 2352 
6 331 1336 1338 528 2351 2353 
6 1309 1370 1384 2324 2385 2399 
6 1351 1318 1374 2366 2333 2389 
6 1328 1348 1396 2343 2363 2411 
6 312 313 1353 509 510 2368 
6 1377 1301 1393 2392 2316 2408 
6 1287 1349 1389 2302 2364 2404 
6 1367 1314 1413 2382 2329 2428 
6 1290 1350 1395 2305 2365 2410 
6 325 326 1403 522 523 2418 
6 1388 1303 1420 2403 2318 2435 
6 1303 1388 1421 2318 2403 2436 
6 1313 1366 1415 2328 2381 2430 
6 1299 1371 1372 2314 2386 2387 
6 321 1361 1362 518 2376 2377 
6 1363 316 1364 2378 513 2379 
6 1370 1302 1384 2385 2317 2399 
6 1343 1327 1375 2358 2342 2390 
6 1326 1342 1376 2341 2357 2391 
6 1312 1373 1394 2327 2388 2409 
6 302 303 1365 499 500 2380 
6 1381 1306 1391 2396 2321 2406 
6 1305 1382 1390 2320 2397 2405 
6 1380 1304 1409 2395 2319 2424 
6 1306 1381 1408 2321 2396 2423 
6 1304 1383 1410 2319 2398 2425 
6 324 325 1370 521 522 2385 
6 1380 1319 1390 2395 2334 2405 
6 1321 1383 1391 2336 2398 2406 
6 1315 304 1368 2330 501 2383 
6 1316 326 1369 2331 523 2384 
6 1293 1354 1402 2308 2369 2417 
6 171 170 1373 368 367 2388 
6 1408 1330 1412 2423 2345 2427 
6 1329 1409 1411 2344 2424 2426 
6 1373 1311 1394 2388 2326 2409 
6 1384 1302 1401 2399 2317 2416 
6 1339 1291 1397 2354 2306 2412 
6 1292 1340 1398 2307 2355 2413 
6 1293 1378 1405 2308 2393 2420 
6 1317 1365 1377 2332 2380 2392 
6 1354 1312 1402 2369 2327 2417 
6 1348 1305 1396 2363 2320 2411 
6 1365 1301 1377 2380 2316 2392 
6 335 71 1388 532 152 2403 
6 1346 1290 1393 2361 2305 2408 
6 1347 1287 1401 2362 2302 2416 
6 1337 1315 1424 2352 2330 2439 
6 1338 1316 1425 2353 2331 2440 
6 319 320 1386 516 517 2401 
6 317 318 1387 514 515 2402 
6 1327 1293 1405 2342 2308 2420 
6 1294 1326 1404 2309 2341 2419 
6 1327 328 1375 2342 525 2390 
6 301 1326 1376 498 2341 2391 
6 1361 1307 1362 2376 2322 2377 
6 1308 1363 1364 2323 2378 2379 
6 323 324 1399 520 521 2414 
6 313 314 1400 510 511 2415 
6 1314 1358 1419 2329 2373 2434 
6 1301 1346 1393 2316 2361 2408 
6 1302 1347 1401 2317 2362 2416 
6 1303 1352 1414 2318 2367 2429 
6 1371 1313 1418 2386 2328 2433 
6 1349 1297 1389 2364 2312 2404 
6 1284 1413 1419 2299 2428 2434 
6 301 302 1423 498 499 2438 
6 329 328 1422 526 525 2437 
6 1415 1282 1418 2430 2297 2433 
6 1355 1294 1406 2370 2309 2421 
6 58 310 1368 139 507 2383 
6 68 327 1369 149 524 2384 
6 1345 1302 1403 2360 2317 2418 
6 1378 1293 1402 2393 2308 2417 
6 1343 172 1354 2358 369 2369 
6 1304 1380 1407 2319 2395 2422 
6 1383 1304 1407 2398 2319 2422 
6 320 1323 1386 517 2338 2401 
6 1324 317 1387 2339 514 2402 
6 169 1342 1355 366 2357 2370 
6 1350 1298 1395 2365 2313 2410 
6 1358 1334 1419 2373 2349 2434 
6 1366 1285 1416 2381 2300 2431 
6 1286 1367 1417 2301 2382 2432 
6 70 332 1375 151 529 2390 
6 309 59 1376 506 140 2391 
6 1302 1370 1403 2317 2385 2418 
6 1328 1378 1402 2343 2393 2417 
6 1359 1323 1397 2374 2338 2412 
6 1324 1360 1398 2339 2375 2413 
6 1344 1301 1392 2359 2316 2407 
6 1365 303 1392 2380 500 2407 
6 333 334 1407 530 531 2422 
6 328 1327 1422 525 2342 2437 
6 1326 301 1423 2341 498 2438 
6 1301 1365 1392 2316 2380 2407 
6 1331 1371 1418 2346 2386 2433 
6 1385 1294 1404 2400 2309 2419 
6 1327 1405 1422 2342 2420 2437 
6 1404 1326 1423 2419 2341 2438 
6 1311 1355 1406 2326 2370 2421 
6 1323 320 1339 2338 517 2354 
6 317 1324 1340 514 2339 2355 
6 1368 310 1424 2383 507 2439 
6 1369 327 1425 2384 524 2440 
6 1381 335 1420 2396 532 2435 
6 71 1382 1421 152 2397 2436 
6 1399 1309 1416 2414 2324 2431 
6 1310 1400 1417 2325 2415 2432 
6 1370 325 1403 2385 522 2418 
6 1380 333 1407 2395 530 2422 
6 334 1383 1407 531 2398 2422 
6 316 64 1364 513 145 2379 
6 65 321 1362 146 518 2377 
6 1317 1385 1404 2332 2400 2419 
6 1384 1282 1415 2399 2297 2430 
6 1309 1366 1416 2324 2381 2431 
6 1367 1310 1417 2382 2325 2432 
6 1309 1384 1415 2324 2399 2430 
6 1284 1379 1413 2299 2394 2428 
6 1319 1380 1409 2334 2395 2424 
6 1381 1320 1408 2396 2335 2423 
6 1383 1321 1410 2398 2336 2425 
6 1379 1310 1413 2394 2325 2428 
6 1320 1381 1420 2335 2396 2435 
6 1382 1322 1421 2397 2337 2436 
6 1356 1399 1416 2371 2414 2431 
6 1400 1357 1417 2415 2372 2432 
6 1285 1356 1416 2300 2371 2431 
6 1357 1286 1417 2372 2301 2432 
6 335 1388 1420 532 2403 2435 
6 1388 71 1421 2403 152 2436 
6 1310 1367 1413 2325 2382 2428 
6 1366 1309 1415 2381 2324 2430 
6 1315 1368 1424 2330 2383 2439 
6 1316 1369 1425 2331 2384 2440 
6 1356 323 1399 2371 520 2414 
6 314 1357 1400 511 2372 2415 
6 1323 1339 1397 2338 2354 2412 
6 1340 1324 1398 2355 2339 2413 
6 1317 1404 1423 2332 2419 2438 
6 1405 1318 1422 2420 2333 2437 
6 304 58 1368 501 139 2383 
6 59 301 1376 140 498 2391 
6 64 317 1340 145 514 2355 
6 64 1340 1364 145 2355 2379 
6 320 65 1339 517 146 2354 
6 1339 65 1362 2354 146 2377 
6 326 68 1369 523 149 2384 
6 328 70 1375 525 151 2390 
6 62 315 314 143 512 511 
6 315 63 1363 512 144 2378 
6 66 322 1361 147 519 2376 
6 67 323 322 148 520 519 
6 314 315 1308 511 512 2323 
6 314 1308 1357 511 2323 2372 
6 1308 315 1363 2323 512 2378 
6 322 323 1307 519 520 2322 
6 322 1307 1361 519 2322 2376 
6 1307 323 1356 2322 520 2371 
6 1291 1307 1356 2306 2322 2371 
6 1307 1291 1362 2322 2306 2377 
6 1308 1292 1357 2323 2307 2372 
6 1292 1308 1364 2307 2323 2379 
6 1519 1478 1534 2534 2493 2549 
6 1440 1480 1495 2455 2495 2510 
6 1441 1481 1494 2456 2496 2509 
6 1473 1457 1539 2488 2472 2554 
6 1434 1473 1539 2449 2488 2554 
6 1480 1440 1483 2495 2455 2498 
6 1481 1441 1482 2496 2456 2497 
6 1470 1434 1539 2485 2449 2554 
6 1456 200 1500 2471 397 2515 
6 1449 1464 1478 2464 2479 2493 
6 1465 1448 1477 2480 2463 2492 
6 1466 1451 1479 2481 2466 2494 
6 163 1460 1489 360 2475 2504 
6 348 1461 1490 545 2476 2505 
6 1442 1519 1534 2457 2534 2549 
6 1442 1481 1496 2457 2496 2511 
6 1461 1441 1490 2476 2456 2505 
6 1460 1440 1489 2475 2455 2504 
6 1445 1516 1517 2460 2531 2532 
6 1464 1432 1478 2479 2447 2493 
6 1435 1465 1477 2450 2480 2492 
6 1433 1466 1479 2448 2481 2494 
6 1427 1478 1519 2442 2493 2534 
6 1434 1470 1497 2449 2485 2512 
6 1427 1519 1523 2442 2534 2538 
6 1524 1475 1540 2539 2490 2555 
6 1456 1470 1539 2471 2485 2554 
6 1464 1449 1535 2479 2464 2550 
6 1457 1499 1518 2472 2514 2533 
6 1451 1466 1536 2466 2481 2551 
6 1440 1460 1483 2455 2475 2498 
6 1441 1461 1482 2456 2476 2497 
6 1487 355 1521 2502 552 2536 
6 354 1488 1520 551 2503 2535 
6 1467 1434 1497 2482 2449 2512 
6 1519 1463 1523 2534 2478 2538 
6 1438 1471 1488 2453 2486 2503 
6 1472 1439 1487 2487 2454 2502 
6 1499 201 1518 2514 398 2533 
6 1429 1475 1524 2444 2490 2539 
6 1470 1426 1497 2485 2441 2512 
6 200 1456 1518 397 2471 2533 
6 1477 1426 1522 2492 2441 2537 
6 1477 1522 1538 2492 2537 2553 
6 1443 1480 1498 2458 2495 2513 
6 1497 1426 1559 2512 2441 2574 
6 80 356 1535 161 553 2550 
6 357 358 1536 554 555 2551 
6 163 1489 1537 360 2504 2552 
6 358 1526 1536 555 2541 2551 
6 1527 80 1535 2542 161 2550 
6 1436 1430 1501 2451 2445 2516 
6 1431 1437 1502 2446 2452 2517 
6 1486 1445 1517 2501 2460 2532 
6 1430 1436 1542 2445 2451 2557 
6 1437 1431 1543 2452 2446 2558 
6 1443 1524 1540 2458 2539 2555 
6 199 16 1487 396 97 2502 
6 17 202 1488 98 399 2503 
6 1430 1504 1511 2445 2519 2526 
6 1505 1431 1512 2520 2446 2527 
6 1448 1467 1497 2463 2482 2512 
6 70 328 1483 151 525 2498 
6 78 350 1482 159 547 2497 
6 1474 1428 1529 2489 2443 2544 
6 1448 1465 1565 2463 2480 2580 
6 1467 1448 1566 2482 2463 2581 
6 1480 1443 1495 2495 2458 2510 
6 1481 1442 1494 2496 2457 2509 
6 72 338 1506 153 535 2521 
6 343 75 1508 540 156 2523 
6 1481 351 1496 2496 548 2511 
6 1444 1458 1504 2459 2473 2519 
6 1459 1445 1505 2474 2460 2520 
6 1463 1496 1567 2478 2511 2582 
6 348 1490 1548 545 2505 2563 
6 1434 1467 1493 2449 2482 2508 
6 1516 1433 1517 2531 2448 2532 
6 1473 1434 1493 2488 2449 2508 
6 1438 1488 1499 2453 2503 2514 
6 354 17 1488 551 98 2503 
6 16 355 1487 97 552 2502 
6 1449 1478 1541 2464 2493 2556 
6 1426 1470 1530 2441 2485 2545 
6 1458 1444 1503 2473 2459 2518 
6 78 1482 1569 159 2497 2584 
6 70 1483 1570 151 2498 2585 
6 1487 1439 1500 2502 2454 2515 
6 1489 1440 1491 2504 2455 2506 
6 1490 1441 1492 2505 2456 2507 
6 1486 1444 1531 2501 2459 2546 
6 1445 1486 1532 2460 2501 2547 
6 1450 1476 1556 2465 2491 2571 
6 1504 1468 1531 2519 2483 2546 
6 1469 1505 1532 2484 2520 2547 
6 1445 1459 1516 2460 2474 2531 
6 1474 1529 1546 2489 2544 2561 
6 1444 1504 1531 2459 2519 2546 
6 1505 1445 1532 2520 2460 2547 
6 1470 1456 1551 2485 2471 2566 
6 1454 1498 1544 2469 2513 2559 
6 1427 1473 1541 2442 2488 2556 
6 1496 352 1567 2511 549 2582 
6 1480 329 1498 2495 526 2513 
6 1433 1479 1503 2448 2494 2518 
6 1439 1530 1551 2454 2545 2566 
6 1457 1473 1547 2472 2488 2562 
6 1478 1427 1541 2493 2442 2556 
6 1473 1427 1523 2488 2442 2538 
6 1492 1441 1494 2507 2456 2509 
6 1491 1440 1495 2506 2455 2510 
6 1476 1450 1555 2491 2465 2570 
6 1510 1462 1568 2525 2477 2583 
6 1428 1474 1556 2443 2489 2571 
6 1475 1429 1557 2490 2444 2572 
6 1530 1470 1551 2545 2485 2566 
6 200 199 1500 397 396 2515 
6 202 201 1499 399 398 2514 
6 1478 1432 1534 2493 2447 2549 
6 1522 1426 1530 2537 2441 2545 
6 1432 1464 1553 2447 2479 2568 
6 1465 1435 1554 2480 2450 2569 
6 1466 1433 1555 2481 2448 2570 
6 1479 1451 1557 2494 2466 2572 
6 1556 1476 1563 2571 2491 2578 
6 349 78 1569 546 159 2584 
6 336 70 1570 533 151 2585 
6 1476 1433 1516 2491 2448 2531 
6 1443 1498 1524 2458 2513 2539 
6 1444 1486 1517 2459 2501 2532 
6 1435 1477 1538 2450 2492 2553 
6 350 351 1481 547 548 2496 
6 328 329 1480 525 526 2495 
6 1515 1455 1545 2530 2470 2560 
6 1498 330 1544 2513 527 2559 
6 1442 1496 1519 2457 2511 2534 
6 340 341 1486 537 538 2501 
6 1479 1557 1564 2494 2572 2579 
6 165 1510 1568 362 2525 2583 
6 1557 1429 1564 2572 2444 2579 
6 1477 1448 1559 2492 2463 2574 
6 1462 1522 1530 2477 2537 2545 
6 1474 1432 1553 2489 2447 2568 
6 1435 1475 1554 2450 2490 2569 
6 1433 1476 1555 2448 2491 2570 
6 1428 1556 1563 2443 2571 2578 
6 1432 1492 1494 2447 2507 2509 
6 1435 1491 1495 2450 2506 2510 
6 1553 1450 1556 2568 2465 2571 
6 1451 1554 1557 2466 2569 2572 
6 340 1486 1531 537 2501 2546 
6 1486 341 1532 2501 538 2547 
6 1498 1454 1524 2513 2469 2539 
6 164 163 1537 361 360 2552 
6 1523 1463 1550 2538 2478 2565 
6 1449 1493 1527 2464 2508 2542 
6 1475 1435 1540 2490 2450 2555 
6 1504 1430 1542 2519 2445 2557 
6 1431 1505 1543 2446 2520 2558 
6 1504 1458 1511 2519 2473 2526 
6 1459 1505 1512 2474 2520 2527 
6 356 1525 1535 553 2540 2550 
6 1528 357 1536 2543 554 2551 
6 1432 1474 1546 2447 2489 2561 
6 1484 1436 1507 2499 2451 2522 
6 1437 1485 1509 2452 2500 2524 
6 1558 1458 1564 2573 2473 2579 
6 1493 1467 1527 2508 2482 2542 
6 1446 1489 1491 2461 2504 2506 
6 1447 1490 1492 2462 2505 2507 
6 1426 1477 1559 2441 2492 2574 
6 346 1515 1545 543 2530 2560 
6 1459 1560 1563 2474 2575 2578 
6 351 352 1496 548 549 2511 
6 328 1480 1483 525 2495 2498 
6 350 1481 1482 547 2496 2497 
6 1455 1515 1529 2470 2530 2544 
6 1496 1463 1519 2511 2478 2534 
6 1473 1493 1541 2488 2508 2556 
6 1433 1503 1517 2448 2518 2532 
6 329 330 1498 526 527 2513 
6 1522 1446 1538 2537 2461 2553 
6 1432 1494 1534 2447 2509 2549 
6 1511 1458 1558 2526 2473 2573 
6 1435 1495 1540 2450 2510 2555 
6 347 348 1548 544 545 2563 
6 1533 1448 1565 2548 2463 2580 
6 1448 1533 1566 2463 2548 2581 
6 1503 1444 1517 2518 2459 2532 
6 1459 1512 1560 2474 2527 2575 
6 1506 338 1507 2521 535 2522 
6 343 1508 1509 540 2523 2524 
6 1515 1447 1529 2530 2462 2544 
6 1472 1487 1521 2487 2502 2536 
6 1488 1471 1520 2503 2486 2535 
6 1457 1518 1539 2472 2533 2554 
6 165 164 1510 362 361 2525 
6 1526 1451 1536 2541 2466 2551 
6 1449 1527 1535 2464 2542 2550 
6 1525 1450 1553 2540 2465 2568 
6 1451 1526 1554 2466 2541 2569 
6 1450 1528 1555 2465 2543 2570 
6 346 347 1515 543 544 2530 
6 1525 1464 1535 2540 2479 2550 
6 1466 1528 1536 2481 2543 2551 
6 1461 348 1514 2476 545 2529 
6 1460 163 1513 2475 360 2528 
6 1438 1499 1547 2453 2514 2562 
6 201 200 1518 398 397 2533 
6 1474 1553 1556 2489 2568 2571 
6 1554 1475 1557 2569 2490 2572 
6 1518 1456 1539 2533 2471 2554 
6 1529 1447 1546 2544 2462 2561 
6 1436 1484 1542 2451 2499 2557 
6 1485 1437 1543 2500 2452 2558 
6 1438 1523 1550 2453 2538 2565 
6 1462 1510 1522 2477 2525 2537 
6 1499 1457 1547 2514 2472 2562 
6 1493 1449 1541 2508 2464 2556 
6 1510 1446 1522 2525 2461 2537 
6 358 80 1533 555 161 2548 
6 1491 1435 1538 2506 2450 2553 
6 1492 1432 1546 2507 2447 2561 
6 1482 1461 1569 2497 2476 2584 
6 1483 1460 1570 2498 2475 2585 
6 339 340 1531 536 537 2546 
6 341 342 1532 538 539 2547 
6 1471 1438 1550 2486 2453 2565 
6 1439 1472 1549 2454 2487 2564 
6 1471 353 1520 2486 550 2535 
6 166 1472 1521 363 2487 2536 
6 1452 1506 1507 2467 2521 2522 
6 1508 1453 1509 2523 2468 2524 
6 330 331 1544 527 528 2559 
6 345 346 1545 542 543 2560 
6 1458 1503 1564 2473 2518 2579 
6 1446 1491 1538 2461 2506 2553 
6 1447 1492 1546 2462 2507 2561 
6 1448 1497 1559 2463 2512 2574 
6 1516 1459 1563 2531 2474 2578 
6 1494 1442 1534 2509 2457 2549 
6 1429 1558 1564 2444 2573 2579 
6 352 353 1567 549 550 2582 
6 166 165 1568 363 362 2583 
6 1560 1428 1563 2575 2443 2578 
6 1500 1439 1551 2515 2454 2566 
6 2 336 1513 83 533 2528 
6 77 349 1514 158 546 2529 
6 1490 1447 1548 2505 2462 2563 
6 1523 1438 1547 2538 2453 2562 
6 1488 202 1499 2503 399 2514 
6 1450 1525 1552 2465 2540 2567 
6 1528 1450 1552 2543 2465 2567 
6 1468 339 1531 2483 536 2546 
6 342 1469 1532 539 2484 2547 
6 199 1487 1500 396 2502 2515 
6 1495 1443 1540 2510 2458 2555 
6 1503 1479 1564 2518 2494 2579 
6 1430 1511 1561 2445 2526 2576 
6 1512 1431 1562 2527 2446 2577 
6 355 0 1521 552 81 2536 
6 79 354 1520 160 551 2535 
6 1447 1515 1548 2462 2530 2563 
6 1473 1523 1547 2488 2538 2562 
6 1468 1504 1542 2483 2519 2557 
6 1505 1469 1543 2520 2484 2558 
6 1489 1446 1537 2504 2461 2552 
6 1510 164 1537 2525 361 2552 
6 356 357 1552 553 554 2567 
6 353 1471 1567 550 2486 2582 
6 1472 166 1568 2487 363 2583 
6 1446 1510 1537 2461 2525 2552 
6 1476 1516 1563 2491 2531 2578 
6 1530 1439 1549 2545 2454 2564 
6 1471 1550 1567 2486 2565 2582 
6 1549 1472 1568 2564 2487 2583 
6 1456 1500 1551 2471 2515 2566 
6 339 1468 1484 536 2483 2499 
6 1469 342 1485 2484 539 2500 
6 1513 336 1570 2528 533 2585 
6 1514 349 1569 2529 546 2584 
6 1526 358 1565 2541 555 2580 
6 80 1527 1566 161 2542 2581 
6 1454 1544 1561 2469 2559 2576 
6 1545 1455 1562 2560 2470 2577 
6 1515 347 1548 2530 544 2563 
6 1525 356 1552 2540 553 2567 
6 357 1528 1552 554 2543 2567 
6 74 343 1509 155 540 2524 
6 338 73 1507 535 154 2522 
6 1462 1530 1549 2477 2545 2564 
6 1529 1428 1560 2544 2443 2575 
6 1511 1454 1561 2526 2469 2576 
6 1455 1512 1562 2470 2527 2577 
6 1455 1529 1560 2470 2544 2575 
6 1429 1524 1558 2444 2539 2573 
6 1464 1525 1553 2479 2540 2568 
6 1526 1465 1554 2541 2480 2569 
6 1528 1466 1555 2543 2481 2570 
6 1524 1454 1558 2539 2469 2573 
6 1465 1526 1565 2480 2541 2580 
6 1527 1467 1566 2542 2482 2581 
6 1544 1501 1561 2559 2516 2576 
6 1502 1545 1562 2517 2560 2577 
6 1501 1430 1561 2516 2445 2576 
6 1431 1502 1562 2446 2517 2577 
6 358 1533 1565 555 2548 2580 
6 1533 80 1566 2548 161 2581 
6 1454 1511 1558 2469 2526 2573 
6 1512 1455 1560 2527 2470 2575 
6 1460 1513 1570 2475 2528 2585 
6 1461 1514 1569 2476 2529 2584 
6 331 1501 1544 528 2516 2559 
6 1502 345 1545 2517 542 2560 
6 1484 1468 1542 2499 2483 2557 
6 1469 1485 1543 2484 2500 2558 
6 1550 1463 1567 2565 2478 2582 
6 1462 1549 1568 2477 2564 2583 
6 0 166 1521 81 363 2536 
6 163 2 1513 360 83 2528 
6 73 339 1484 154 536 2499 
6 73 1484 1507 154 2499 2522 
6 342 74 1485 539 155 2500 
6 1485 74 1509 2500 155 2524 
6 348 77 1514 545 158 2529 
6 353 79 1520 550 160 2535 
6 69 337 331 150 534 528 
6 337 72 1506 534 153 2521 
6 75 344 1508 156 541 2523 
6 76 345 344 157 542 541 
6 331 337 1452 528 534 2467 
6 331 1452 1501 528 2467 2516 
6 1452 337 1506 2467 534 2521 
6 344 345 1453 541 542 2468 
6 344 1453 1508 541 2468 2523 
6 1453 345 1502 2468 542 2517 
6 1452 1436 1501 2467 2451 2516 
6 1436 1452 1507 2451 2467 2522 
6 1437 1453 1502 2452 2468 2517 
6 1453 1437 1509 2468 2452 2524 

CELL_TYPES 2380
13
13
13
13
13
13
13
13
13
13
13
13
13
13
13
13
13
13
13
13
13
13
13
13
13
13
13
13
13
13
13
13
13
13
13
13
13
13
13
13
13
13
13
13
13
13
13
13
13
13
13
13
13
13
13
13
13
13
13
13
13
13
13
13
13
13
13
13
13
13
13
13
13
13
13
13
13
13
13
13
13
13
13
13
13
13
13
13
13
13
13
13
13
13
13
13
13
13
13
13
13
13
13
13
13
13
13
13
13
13
13
13
13
13
13
13
13
13
13
13
13
13
13
13
13
13
13
13
13
13
13
13
13
13
13
13
13
13
13
13
13
13
13
13
13
13
13
13
13
13
13
13
13
13
13
13
13
13
13
13
13
13
13
13
13
13
13
13
13
13
13
13
13
13
13
13
13
13
13
13
13
13
13
13
13
13
13
13
13
13
13
13
13
13
13
13
13
13
13
13
13
13
13
13
13
13
13
13
13
13
13
13
13
13
13
13
13
13
13
13
13
13
13
13
13
13
13
13
13
13
13
13
13
13
13
13
13
13
13
13
13
13
13
13
13
13
13
13
13
13
13
13
13
13
13
13
13
13
13
13
13
13
13
13
13
13
13
13
13
13
13
13
13
13
13
13
13
13
13
13
13
13
13
13
13
13
13
13
13
13
13
13
13
13
13
13
13
13
13
13
13
13
13
13
13
13
13
13
13
13
13
13
13
13
13
13
13
13
13
13
13
13
13
13
13
13
13
13
13
13
13
13
13
13
13
13
13
13
13
13
13
13
13
13
13
13
13
13
13
13
13
13
13
13
13
13
13
13
13
13
13
13
13
13
13
13
13
13
13
13
13
13
13
13
13
13
13
13
13
13
13
13
13
13
13
13
13
13
13
13
13
13
13
13
13
13
13
13
13
13
13
13
13
13
13
13
13
13
13
13
13
13
13
13
13
13
13
13
13
13
13
13
13
13
13
13
13
13
13
13
13
13
13
13
13
13
13
13
13
13
13
13
13
13
13
13
13
13
13
13
13
13
13
13
13
13
13
13
13
13
13
13
13
13
13
13
13
13
13
13
13
13
13
13
13
13
13
13
13
13
13
13
13
13
13
13
13
13
13
13
13
13
13
13
13
13
13
13
13
13
13
13
13
13
13
13
13
13
13
13
13
13
13
13
13
13
13
13
13
13
13
13
13
13
13
13
13
13
13
13
13
13
13
13
13
13
13
13
13
13
13
13
13
13
13
13
13
13
13
13
13
13
13
13
13
13
13
13
13
13
13
13
13
13
13
13
13
13
13
13
13
13
13
13
13
13
13
13
13
13
13
13
13
13
13
13
13
13
13
13
13
13
13
13
13
13
13
13
13
13
13
13
13
13
13
13
13
13
13
13
13
13
13
13
13
13
13
13
13
13
13
13
13
13
13
13
13
13
13
13
13
13
13
13
13
13
13
13
13
13
13
13
13
13
13
13
13
13
13
13
13
13
13
13
13
13
13
13
13
13
13
13
13
13
13
13
13
13
13
13
13
13
13
13
13
13
13
13
13
13
13
13
13
13
13
13
13
13
13
13
13
13
13
13
13
13
13
13
13
13
13
13
13
13
13
13
13
13
13
13
13
13
13
13
13
13
13
13
13
13
13
13
13
13
13
13
13
13
13
13
13
13
13
13
13
13
13
13
13
13
13
13
13
13
13
13
13
13
13
13
13
13
13
13
13
13
13
13
13
13
13
13
13
13
13
13
13
13
13
13
13
13
13
13
13
13
13
13
13
13
13
13
13
13
13
13
13
13
13
13
13
13
13
13
13
13
13
13
13
13
13
13
13
13
13
13
13
13
13
13
13
13
13
13
13
13
13
13
13
13
13
13
13
13
13
13
13
13
13
13
13
13
13
13
13
13
13
13
13
13
13
13
13
13
13
13
13
13
13
13
13
13
13
13
13
13
13
13
13
13
13
13
13
13
13
13
13
13
13
13
13
13
13
13
13
13
13
13
13
13
13
13
13
13
13
13
13
13
13
13
13
13
13
13
13
13
13
13
13
13
13
13
13
13
13
13
13
13
13
13
13
13
13
13
13
13
13
13
13
13
13
13
13
13
13
13
13
13
13
13
13
13
13
13
13
13
13
13
13
13
13
13
13
13
13
13
13
13
13
13
13
13
13
13
13
13
13
13
13
13
13
13
13
13
13
13
13
13
13
13
13
13
13
13
13
13
13
13
13
13
13
13
13
13
13
13
13
13
13
13
13
13
13
13
13
13
13
13
13
13
13
13
13
13
13
13
13
13
13
13
13
13
13
13
13
13
13
13
13
13
13
13
13
13
13
13
13
13
13
13
13
13
13
13
13
13
13
13
13
13
13
13
13
13
13
13
13
13
13
13
13
13
13
13
13
13
13
13
13
13
13
13
13
13
13
13
13
13
13
13
13
13
13
13
13
13
13
13
13
13
13
13
13
13
13
13
13
13
13
13
13
13
13
13
13
13
13
13
13
13
13
13
13
13
13
13
13
13
13
13
13
13
13
13
13
13
13
13
13
13
13
13
13
13
13
13
13
13
13
13
13
13
13
13
13
13
13
13
13
13
13
13
13
13
13
13
13
13
13
13
13
13
13
13
13
13
13
13
13
13
13
13
13
13
13
13
13
13
13
13
13
13
13
13
13
13
13
13
13
13
13
13
13
13
13
13
13
13
13
13
13
13
13
13
13
13
13
13
13
13
13
13
13
13
13
13
13
13
13
13
13
13
13
13
13
13
13
13
13
13
13
13
13
13
13
13
13
13
13
13
13
13
13
13
13
13
13
13
13
13
13
13
13
13
13
13
13
13
13
13
13
13
13
13
13
13
13
13
13
13
13
13
13
13
13
13
13
13
13
13
13
13
13
13
13
13
13
13
13
13
13
13
13
13
13
13
13
13
13
13
13
13
13
13
13
13
13
13
13
13
13
13
13
13
13
13
13
13
13
13
13
13
13
13
13
13
13
13
13
13
13
13
13
13
13
13
13
13
13
13
13
13
13
13
13
13
13
13
13
13
13
13
13
13
13
13
13
13
13
13
13
13
13
13
13
13
13
13
13
13
13
13
13
13
13
13
13
13
13
13
13
13
13
13
13
13
13
13
13
13
13
13
13
13
13
13
13
13
13
13
13
13
13
13
13
13
13
13
13
13
13
13
13
13
13
13
13
13
13
13
13
13
13
13
13
13
13
13
13
13
13
13
13
13
13
13
13
13
13
13
13
13
13
13
13
13
13
13
13
13
13
13
13
13
13
13
13
13
13
13
13
13
13
13
13
13
13
13
13
13
13
13
13
13
13
13
13
13
13
13
13
13
13
13
13
13
13
13
13
13
13
13
13
13
13
13
13
13
13
13
13
13
13
13
13
13
13
13
13
13
13
13
13
13
13
13
13
13
13
13
13
13
13
13
13
13
13
13
13
13
13
13
13
13
13
13
13
13
13
13
13
13
13
13
13
13
13
13
13
13
13
13
13
13
13
13
13
13
13
13
13
13
13
13
13
13
13
13
13
13
13
13
13
13
13
13
13
13
13
13
13
13
13
13
13
13
13
13
13
13
13
13
13
13
13
13
13
13
13
13
13
13
13
13
13
13
13
13
13
13
13
13
13
13
13
13
13
13
13
13
13
13
13
13
13
13
13
13
13
13
13
13
13
13
13
13
13
13
13
13
13
13
13
13
13
13
13
13
13
13
13
13
13
13
13
13
13
13
13
13
13
13
13
13
13
13
13
13
13
13
13
13
13
13
13
13
13
13
13
13
13
13
13
13
13
13
13
13
13
13
13
13
13
13
13
13
13
13
13
13
13
13
13
13
13
13
13
13
13
13
13
13
13
13
13
13
13
13
13
13
13
13
13
13
13
13
13
13
13
13
13
13
13
13
13
13
13
13
13
13
13
13
13
13
13
13
13
13
13
13
13
13
13
13
13
13
13
13
13
13
13
13
13
13
13
13
13
13
13
13
13
13
13
13
13
13
13
13
13
13
13
13
13
13
13
13
13
13
13
13
13
13
13
13
13
13
13
13
13
13
13
13
13
13
13
13
13
13
13
13
13
13
13
13
13
13
13
13
13
13
13
13
13
13
13
13
13
13
13
13
13
13
13
13
13
13
13
13
13
13
13
13
13
13
13
13
13
13
13
13
13
13
13
13
13
13
13
13
13
13
13
13
13
13
13
13
13
13
13
13
13
13
13
13
13
13
13
13
13
13
13
13
13
13
13
13
13
13
13
13
13
13
13
13
13
13
13
13
13
13
13
13
13
13
13
13
13
13
13
13
13
13
13
13
13
13
13
13
13
13
13
13
13
13
13
13
13
13
13
13
13
13
13
13
13
13
13
13
13
13
13
13
13
13
13
13
13
13
13
13
13
13
13
13
13
13
13
13
13
13
13
13
13
13
13
13
13
13
13
13
13
13
13
13
13
13
13
13
13
13
13
13
13
13
13
13
13
13
13
13
13
13
13
13
13
13
13
13
13
13
13
13
13
13
13
13
13
13
13
13
13
13
13
13
13
13
13
13
13
13
13
13
13
13
13
13
13
13
13
13
13
13
13
13
13
13
13
13
13
13
13
13
13
13
13
13
13
13
13
13
13
13
13
13
13
13
13
13
13
13
13
13
13
13
13
13
13
13
13
13
13
13
13
13
13
13
13
13
13
13
13
13
13
13
13
13
13
13
13
13
13
13
13
13
13
13
13
13
13
13
13
13
13
13
13
13
13
13
13
13
13
13
13
13
13
13
13
13
13
13
13
13
13
13
13
13
13
13
13
13
13
13
13
13
13
13
13
13
13
13
13
13
13
13
13
13
13
13
13
13
13
13
13
13
13
13
13
13
13
13
13
13
13
13
13
13
13
13
13
13
13
13
13
13
13
13
13
13
13
13
13
13
13
13
13
13
13
13
13
13
13
13
13
13
13
13
13
13
13
13
13
13
13
13
13
13
13
13
13
13
13
13
13
13
13
13
13
13
13
13
13
13
13
13
13
13
13
13
13
13
13
13
13
13
13
13
13
13
13
13
13
13
13
13
13
13
13
13
13
13
13
13
13
13
13
13
13
13
13
13
13
13
13
13
13
13
13
13
13
13
13
13
13
13
13
13
13
13
13
13
13
13
13
13
13
13
13
13
13
13
13
13
13
13
13
13
13
13
13
13
13
13
13
13
13
13
13
13
13
13
13
13
13
13
13
13
13
13
13
13
13
13
13
13
13
13
13
13
13
13
13
13
13
13
13
13
13
13
13
13
13
13
13
13
13
13
13
13
13
13
13
13
13
13
13
13
13
13
13
13
13
13
13
13
13
13
13
13
13
13
13
13
13
13
13
13
13
13
13
13
13
13
13
13
13
13
13
13
13
13

POINT_DATA 2586
VECTORS displacement float
0 0 0
0 0 0
0 0 0
0 0 0
0 0 0
0 0 0
0 0 0
0 0 0
0 0 0
0 0 0
0 0 0
0 0 0
0 0 0
0 0 0
0 0 0
0 0 0
0 0 0
0 0 0
0 0 0
0 0 0
0 0 0
0 0 0
0 0 0
0 0 0
0 0 0
0 0 0
0 0 0
0 0 0
0 0 0
0 0 0
0 0 0
0 0 0
0 0 0
0 0 0
0 0 0
0 0 0
0 0 0
0 0 0
0 0 0
0 0 0
0 0 0
0 0 0
0 0 0
0 0 0
0 0 0
0 0 0
0 0 0
0 0 0
0 0 0
0 0 0
0 0 0
0 0 0
0 0 0
0 0 0
0 0 0
0 0 0
0 0 0
0 0 0
0 0 0
0 0 0
0 0 0
0 0 0
0 0 0
0 0 0
0 0 0
0 0 0
0 0 0
0 0 0
0 0 0
0 0 0
0 0 0
0 0 0
0 0 0
0 0 0
0 0 0
0 0 0
0 0 0
0 0 0
0 0 0
0 0 0
0 0 0
0 0 0
0 0 0
0 0 0
0 0 0
0 0 0
0 0 0
0 0 0
0 0 0
0 0 0
0 0 0
0 0 0
0 0 0
0 0 0
0 0 0
0 0 0
0 0 0
0 0 0
0 0 0
0 0 0
0 0 0
0 0 0
0 0 0
0 0 0
0 0 0
0 0 0
0 0 0
0 0 0
0 0 0
0 0 0
0 0 0
0 0 0
0 0 0
0 0 0
0 0 0
0 0 0
0 0 0
0 0 0
0 0 0
0 0 0
0 0 0
0 0 0
0 0 0
0 0 0
0 0 0
0 0 0
0 0 0
0 0 0
0 0 0
0 0 0
0 0 0
0 0 0
0 0 0
0 0 0
0 0 0
0 0 0
0 0 0
0 0 0
0 0 0
0 0 0
0 0 0
0 0 0
0 0 0
0 0 0
0 0 0
0 0 0
0 0 0
0 0 0
0 0 0
0 0 0
0 0 0
0 0 0
0 0 0
0 0 0
0 0 0
0 0 0
0 0 0
0 0 0
0 0 0
0 0 0
0 0 0
0 0 0
0 0 0
0 0 0
0 0 0
0 0 0
0 0 0
0 0 0
0 0 0
0 0 0
0 0 0
0 0 0
0 0 0
0 0 0
0 0 0
0 0 0
0 0 0
0 0 0
0 0 0
0 0 0
0 0 0
0 0 0
0 0 0
0 0 0
0 0 0
0 0 0
0 0 0
0 0 0
0 0 0
0 0 0
0 0 0
0 0 0
0 0 0
0 0 0
0 0 0
0 0 0
0 0 0
0 0 0
0 0 0
0 0 0
0 0 0
0 0 0
0 0 0
0 0 0
0 0 0
0 0 0
0 0 0
0 0 0
0 0 0
0 0 0
0 0 0
0 0 0
0 0 0
0 0 0
0 0 0
0 0 0
0 0 0
0 0 0
0 0 0
0 0 0
0 0 0
0 0 0
0 0 0
0 0 0
0 0 0
0 0 0
0 0 0
0 0 0
0 0 0
0 0 0
0 0 0
0 0 0
0 0 0
0 0 0
0 0 0
0 0 0
0 0 0
0 0 0
0 0 0
0 0 0
0 0 0
0 0 0
0 0 0
0 0 0
0 0 0
0 0 0
0 0 0
0 0 0
0 0 0
0 0 0
0 0 0
0 0 0
0 0 0
0 0 0
0 0 0
0 0 0
0 0 0
0 0 0
0 0 0
0 0 0
0 0 0
0 0 0
0 0 0
0 0 0
0 0 0
0 0 0
0 0 0
0 0 0
0 0 0
0 0 0
0 0 0
0 0 0
0 0 0
0 0 0
0 0 0
0 0 0
0 0 0
0 0 0
0 0 0
0 0 0
0 0 0
0 0 0
0 0 0
0 0 0
0 0 0
0 0 0
0 0 0
0 0 0
0 0 0
0 0 0
0 0 0
0 0 0
0 0 0
0 0 0
0 0 0
0 0 0
0 0 0
0 0 0
0 0 0
0 0 0
0 0 0
0 0 0
0 0 0
0 0 0
0 0 0
0 0 0
0 0 0
0 0 0
0 0 0
0 0 0
0 0 0
0 0 0
0 0 0
0 0 0
0 0 0
0 0 0
0 0 0
0 0 0
0 0 0
0 0 0
0 0 0
0 0 0
0 0 0
0 0 0
0 0 0
0 0 0
0 0 0
0 0 0
0 0 0
0 0 0
0 0 0
0 0 0
0 0 0
0 0 0
0 0 0
0 0 0
0 0 0
0 0 0
0 0 0
0 0 0
0 0 0
0 0 0
0 0 0
0 0 0
0 0 0
0 0 0
0 0 0
0 0 0
0 0 0
0 0 0
0 0 0
0 0 0
0 0 0
0 0 0
0 0 0
0 0 0
0 0 0
0 0 0
0 0 0
0 0 0
0 0 0
0 0 0
0 0 0
0 0 0
0 0 0
0 0 0
0 0 0
0 0 0
0 0 0
0 0 0
0 0 0
0 0 0
0 0 0
0 0 0
0 0 0
0 0 0
0 0 0
0 0 0
0 0 0
0 0 0
0 0 0
0 0 0
0 0 0
0 0 0
0 0 0
0 0 0
0 0 0
0 0 0
0 0 0
0 0 0
0 0 0
0 0 0
0 0 0
0 0 0
0 0 0
0 0 0
0 0 0
0 0 0
0 0 0
0 0 0
0 0 0
0 0 0
0 0 0
0 0 0
0 0 0
0 0 0
0 0 0
0 0 0
0 0 0
0 0 0
0 0 0
0 0 0
0 0 0
0 0 0
0 0 0
0 0 0
0 0 0
0 0 0
0 0 0
0 0 0
0 0 0
0 0 0
0 0 0
0 0 0
0 0 0
0 0 0
0 0 0
0 0 0
0 0 0
0 0 0
0 0 0
0 0 0
0 0 0
0 0 0
0 0 0
0 0 0
0 0 0
0 0 0
0 0 0
0 0 0
0 0 0
0 0 0
0 0 0
0 0 0
0 0 0
0 0 0
0 0 0
0 0 0
0 0 0
0 0 0
0 0 0
0 0 0
0 0 0
0 0 0
0 0 0
0 0 0
0 0 0
0 0 0
0 0 0
0 0 0
0 0 0
0 0 0
0 0 0
0 0 0
0 0 0
0 0 0
0 0 0
0 0 0
0 0 0
0 0 0
0 0 0
0 0 0
0 0 0
0 0 0
0 0 0
0 0 0
0 0 0
0 0 0
0 0 0
0 0 0
0 0 0
0 0 0
0 0 0
0 0 0
0 0 0
0 0 0
0 0 0
0 0 0
0 0 0
0 0 0
0 0 0
0 0 0
0 0 0
0 0 0
0 0 0
0 0 0
0 0 0
0 0 0
0 0 0
0 0 0
0 0 0
0 0 0
0 0 0
0 0 0
0 0 0
0 0 0
0 0 0
0 0 0
0 0 0
0 0 0
0 0 0
0 0 0
0 0 0
0 0 0
0 0 0
0 0 0
0 0 0
0 0 0
0 0 0
0 0 0
0 0 0
0 0 0
0 0 0
0 0 0
0 0 0
0 0 0
0 0 0
0 0 0
0 0 0
0 0 0
0 0 0
0 0 0
0 0 0
0 0 0
0 0 0
0 0 0
0 0 0
0 0 0
0 0 0
0 0 0
0 0 0
0 0 0
0 0 0
0 0 0
0 0 0
0 0 0
0 0 0
0 0 0
0 0 0
0 0 0
0 0 0
0 0 0
0 0 0
0 0 0
0 0 0
0 0 0
0 0 0
0 0 0
0 0 0
0 0 0
0 0 0
0 0 0
0 0 0
0 0 0
0 0 0
0 0 0
0 0 0
0 0 0
0 0 0
0 0 0
0 0 0
0 0 0
0 0 0
0 0 0
0 0 0
0 0 0
0 0 0
0 0 0
0 0 0
0 0 0
0 0 0
0 0 0
0 0 0
0 0 0
0 0 0
0 0 0
0 0 0
0 0 0
0 0 0
0 0 0
0 0 0
0 0 0
0 0 0
0 0 0
0 0 0
0 0 0
0 0 0
0 0 0
0 0 0
0 0 0
0 0 0
0 0 0
0 0 0
0 0 0
0 0 0
0 0 0
0 0 0
0 0 0
0 0 0
0 0 0
0 0 0
0 0 0
0 0 0
0 0 0
0 0 0
0 0 0
0 0 0
0 0 0
0 0 0
0 0 0
0 0 0
0 0 0
0 0 0
0 0 0
0 0 0
0 0 0
0 0 0
0 0 0
0 0 0
0 0 0
0 0 0
0 0 0
0 0 0
0 0 0
0 0 0
0 0 0
0 0 0
0 0 0
0 0 0
0 0 0
0 0 0
0 0 0
0 0 0
0 0 0
0 0 0
0 0 0
0 0 0
0 0 0
0 0 0
0 0 0
0 0 0
0 0 0
0 0 0
0 0 0
0 0 0
0 0 0
0 0 0
0 0 0
0 0 0
0 0 0
0 0 0
0 0 0
0 0 0
0 0 0
0 0 0
0 0 0
0 0 0
0 0 0
0 0 0
0 0 0
0 0 0
0 0 0
0 0 0
0 0 0
0 0 0
0 0 0
0 0 0
0 0 0
0 0 0
0 0 0
0 0 0
0 0 0
0 0 0
0 0 0
0 0 0
0 0 0
0 0 0
0 0 0
0 0 0
0 0 0
0 0 0
0 0 0
0 0 0
0 0 0
0 0 0
0 0 0
0 0 0
0 0 0
0 0 0
0 0 0
0 0 0
0 0 0
0 0 0
0 0 0
0 0 0
0 0 0
0 0 0
0 0 0
0 0 0
0 0 0
0 0 0
0 0 0
0 0 0
0 0 0
0 0 0
0 0 0
0 0 0
0 0 0
0 0 0
0 0 0
0 0 0
0 0 0
0 0 0
0 0 0
0 0 0
0 0 0
0 0 0
0 0 0
0 0 0
0 0 0
0 0 0
0 0 0
0 0 0
0 0 0
0 0 0
0 0 0
0 0 0
0 0 0
0 0 0
0 0 0
0 0 0
0 0 0
0 0 0
0 0 0
0 0 0
0 0 0
0 0 0
0 0 0
0 0 0
0 0 0
0 0 0
0 0 0
0 0 0
0 0 0
0 0 0
0 0 0
0 0 0
0 0 0
0 0 0
0 0 0
0 0 0
0 0 0
0 0 0
0 0 0
0 0 0
0 0 0
0 0 0
0 0 0
0 0 0
0 0 0
0 0 0
0 0 0
0 0 0
0 0 0
0 0 0
0 0 0
0 0 0
0 0 0
0 0 0
0 0 0
0 0 0
0 0 0
0 0 0
0 0 0
0 0 0
0 0 0
0 0 0
0 0 0
0 0 0
0 0 0
0 0 0
0 0 0
0 0 0
0 0 0
0 0 0
0 0 0
0 0 0
0 0 0
0 0 0
0 0 0
0 0 0
0 0 0
0 0 0
0 0 0
0 0 0
0 0 0
0 0 0
0 0 0
0 0 0
0 0 0
0 0 0
0 0 0
0 0 0
0 0 0
0 0 0
0 0 0
0 0 0
0 0 0
0 0 0
0 0 0
0 0 0
0 0 0
0 0 0
0 0 0
0 0 0
0 0 0
0 0 0
0 0 0
0 0 0
0 0 0
0 0 0
0 0 0
0 0 0
0 0 0
0 0 0
0 0 0
0 0 0
0 0 0
0 0 0
0 0 0
0 0 0
0 0 0
0 0 0
0 0 0
0 0 0
0 0 0
0 0 0
0 0 0
0 0 0
0 0 0
0 0 0
0 0 0
0 0 0
0 0 0
0 0 0
0 0 0
0 0 0
0 0 0
0 0 0
0 0 0
0 0 0
0 0 0
0 0 0
0 0 0
0 0 0
0 0 0
0 0 0
0 0 0
0 0 0
0 0 0
0 0 0
0 0 0
0 0 0
0 0 0
0 0 0
0 0 0
0 0 0
0 0 0
0 0 0
0 0 0
0 0 0
0 0 0
0 0 0
0 0 0
0 0 0
0 0 0
0 0 0
0 0 0
0 0 0
0 0 0
0 0 0
0 0 0
0 0 0
0 0 0
0 0 0
0 0 0
0 0 0
0 0 0
0 0 0
0 0 0
0 0 0
0 0 0
0 0 0
0 0 0
0 0 0
0 0 0
0 0 0
0 0 0
0 0 0
0 0 0
0 0 0
0 0 0
0 0 0
0 0 0
0 0 0
0 0 0
0 0 0
0 0 0
0 0 0
0 0 0
0 0 0
0 0 0
0 0 0
0 0 0
0 0 0
0 0 0
0 0 0
0 0 0
0 0 0
0 0 0
0 0 0
0 0 0
0 0 0
0 0 0
0 0 0
0 0 0
0 0 0
0 0 0
0 0 0
0 0 0
0 0 0
0 0 0
0 0 0
0 0 0
0 0 0
0 0 0
0 0 0
0 0 0
0 0 0
0 0 0
0 0 0
0 0 0
0 0 0
0 0 0
0 0 0
0 0 0
0 0 0
0 0 0
0 0 0
0 0 0
0 0 0
0 0 0
0 0 0
0 0 0
0 0 0
0 0 0
0 0 0
0 0 0
0 0 0
0 0 0
0 0 0
0 0 0
0 0 0
0 0 0
0 0 0
0 0 0
0 0 0
0 0 0
0 0 0
0 0 0
0 0 0
0 0 0
0 0 0
0 0 0
0 0 0
0 0 0
0 0 0
0 0 0
0 0 0
0 0 0
0 0 0
0 0 0
0 0 0
0 0 0
0 0 0
0 0 0
0 0 0
0 0 0
0 0 0
0 0 0
0 0 0
0 0 0
0 0 0
0 0 0
0 0 0
0 0 0
0 0 0
0 0 0
0 0 0
0 0 0
0 0 0
0 0 0
0 0 0
0 0 0
0 0 0
0 0 0
0 0 0
0 0 0
0 0 0
0 0 0
0 0 0
0 0 0
0 0 0
0 0 0
0 0 0
0 0 0
0 0 0
0 0 0
0 0 0
0 0 0
0 0 0
0 0 0
0 0 0
0 0 0
0 0 0
0 0 0
0 0 0
0 0 0
0 0 0
0 0 0
0 0 0
0 0 0
0 0 0
0 0 0
0 0 0
0 0 0
0 0 0
0 0 0
0 0 0
0 0 0
0 0 0
0 0 0
0 0 0
0 0 0
0 0 0
0 0 0
0 0 0
0 0 0
0 0 0
0 0 0
0 0 0
0 0 0
0 0 0
0 0 0
0 0 0
0 0 0
0 0 0
0 0 0
0 0 0
0 0 0
0 0 0
0 0 0
0 0 0
0 0 0
0 0 0
0 0 0
0 0 0
0 0 0
0 0 0
0 0 0
0 0 0
0 0 0
0 0 0
0 0 0
0 0 0
0 0 0
0 0 0
0 0 0
0 0 0
0 0 0
0 0 0
0 0 0
0 0 0
0 0 0
0 0 0
0 0 0
0 0 0
0 0 0
0 0 0
0 0 0
0 0 0
0 0 0
0 0 0
0 0 0
0 0 0
0 0 0
0 0 0
0 0 0
0 0 0
0 0 0
0 0 0
0 0 0
0 0 0
0 0 0
0 0 0
0 0 0
0 0 0
0 0 0
0 0 0
0 0 0
0 0 0
0 0 0
0 0 0
0 0 0
0 0 0
0 0 0
0 0 0
0 0 0
0 0 0
0 0 0
0 0 0
0 0 0
0 0 0
0 0 0
0 0 0
0 0 0
0 0 0
0 0 0
0 0 0
0 0 0
0 0 0
0 0 0
0 0 0
0 0 0
0 0 0
0 0 0
0 0 0
0 0 0
0 0 0
0 0 0
0 0 0
0 0 0
0 0 0
0 0 0
0 0 0
0 0 0
0 0 0
0 0 0
0 0 0
0 0 0
0 0 0
0 0 0
0 0 0
0 0 0
0 0 0
0 0 0
0 0 0
0 0 0
0 0 0
0 0 0
0 0 0
0 0 0
0 0 0
0 0 0
0 0 0
0 0 0
0 0 0
0 0 0
0 0 0
0 0 0
0 0 0
0 0 0
0 0 0
0 0 0
0 0 0
0 0 0
0 0 0
0 0 0
0 0 0
0 0 0
0 0 0
0 0 0
0 0 0
0 0 0
0 0 0
0 0 0
0 0 0
0 0 0
0 0 0
0 0 0
0 0 0
0 0 0
0 0 0
0 0 0
0 0 0
0 0 0
0 0 0
0 0 0
0 0 0
0 0 0
0 0 0
0 0 0
0 0 0
0 0 0
0 0 0
0 0 0
0 0 0
0 0 0
0 0 0
0 0 0
0 0 0
0 0 0
0 0 0
0 0 0
0 0 0
0 0 0
0 0 0
0 0 0
0 0 0
0 0 0
0 0 0
0 0 0
0 0 0
0 0 0
0 0 0
0 0 0
0 0 0
0 0 0
0 0 0
0 0 0
0 0 0
0 0 0
0 0 0
0 0 0
0 0 0
0 0 0
0 0 0
0 0 0
0 0 0
0 0 0
0 0 0
0 0 0
0 0 0
0 0 0
0 0 0
0 0 0
0 0 0
0 0 0
0 0 0
0 0 0
0 0 0
0 0 0
0 0 0
0 0 0
0 0 0
0 0 0
0 0 0
0 0 0
0 0 0
0 0 0
0 0 0
0 0 0
0 0 0
0 0 0
0 0 0
0 0 0
0 0 0
0 0 0
0 0 0
0 0 0
0 0 0
0 0 0
0 0 0
0 0 0
0 0 0
0 0 0
0 0 0
0 0 0
0 0 0
0 0 0
0 0 0
0 0 0
0 0 0
0 0 0
0 0 0
0 0 0
0 0 0
0 0 0
0 0 0
0 0 0
0 0 0
0 0 0
0 0 0
0 0 0
0 0 0
0 0 0
0 0 0
0 0 0
0 0 0
0 0 0
0 0 0
0 0 0
0 0 0
0 0 0
0 0 0
0 0 0
0 0 0
0 0 0
0 0 0
0 0 0
0 0 0
0 0 0
0 0 0
0 0 0
0 0 0
0 0 0
0 0 0
0 0 0
0 0 0
0 0 0
0 0 0
0 0 0
0 0 0
0 0 0
0 0 0
0 0 0
0 0 0
0 0 0
0 0 0
0 0 0
0 0 0
0 0 0
0 0 0
0 0 0
0 0 0
0 0 0
0 0 0
0 0 0
0 0 0
0 0 0
0 0 0
0 0 0
0 0 0
0 0 0
0 0 0
0 0 0
0 0 0
0 0 0
0 0 0
0 0 0
0 0 0
0 0 0
0 0 0
0 0 0
0 0 0
0 0 0
0 0 0
0 0 0
0 0 0
0 0 0
0 0 0
0 0 0
0 0 0
0 0 0
0 0 0
0 0 0
0 0 0
0 0 0
0 0 0
0 0 0
0 0 0
0 0 0
0 0 0
0 0 0
0 0 0
0 0 0
0 0 0
0 0 0
0 0 0
0 0 0
0 0 0
0 0 0
0 0 0
0 0 0
0 0 0
0 0 0
0 0 0
0 0 0
0 0 0
0 0 0
0 0 0
0 0 0
0 0 0
0 0 0
0 0 0
0 0 0
0 0 0
0 0 0
0 0 0
0 0 0
0 0 0
0 0 0
0 0 0
0 0 0
0 0 0
0 0 0
0 0 0
0 0 0
0 0 0
0 0 0
0 0 0
0 0 0
0 0 0
0 0 0
0 0 0
0 0 0
0 0 0
0 0 0
0 0 0
0 0 0
0 0 0
0 0 0
0 0 0
0 0 0
0 0 0
0 0 0
0 0 0
0 0 0
0 0 0
0 0 0
0 0 0
0 0 0
0 0 0
0 0 0
0 0 0
0 0 0
0 0 0
0 0 0
0 0 0
0 0 0
0 0 0
0 0 0
0 0 0
0 0 0
0 0 0
0 0 0
0 0 0
0 0 0
0 0 0
0 0 0
0 0 0
0 0 0
0 0 0
0 0 0
0 0 0
0 0 0
0 0 0
0 0 0
0 0 0
0 0 0
0 0 0
0 0 0
0 0 0
0 0 0
0 0 0
0 0 0
0 0 0
0 0 0
0 0 0
0 0 0
0 0 0
0 0 0
0 0 0
0 0 0
0 0 0
0 0 0
0 0 0
0 0 0
0 0 0
0 0 0
0 0 0
0 0 0
0 0 0
0 0 0
0 0 0
0 0 0
0 0 0
0 0 0
0 0 0
0 0 0
0 0 0
0 0 0
0 0 0
0 0 0
0 0 0
0 0 0
0 0 0
0 0 0
0 0 0
0 0 0
0 0 0
0 0 0
0 0 0
0 0 0
0 0 0
0 0 0
0 0 0
0 0 0
0 0 0
0 0 0
0 0 0
0 0 0
0 0 0
0 0 0
0 0 0
0 0 0
0 0 0
0 0 0
0 0 0
0 0 0
0 0 0
0 0 0
0 0 0
0 0 0
0 0 0
0 0 0
0 0 0
0 0 0
0 0 0
0 0 0
0 0 0
0 0 0
0 0 0
0 0 0
0 0 0
0 0 0
0 0 0
0 0 0
0 0 0
0 0 0
0 0 0
0 0 0
0 0 0
0 0 0
0 0 0
0 0 0
0 0 0
0 0 0
0 0 0
0 0 0
0 0 0
0 0 0
0 0 0
0 0 0
0 0 0
0 0 0
0 0 0
0 0 0
0 0 0
0 0 0
0 0 0
0 0 0
0 0 0
0 0 0
0 0 0
0 0 0
0 0 0
0 0 0
0 0 0
0 0 0
0 0 0
0 0 0
0 0 0
0 0 0
0 0 0
0 0 0
0 0 0
0 0 0
0 0 0
0 0 0
0 0 0
0 0 0
0 0 0
0 0 0
0 0 0
0 0 0
0 0 0
0 0 0
0 0 0
0 0 0
0 0 0
0 0 0
0 0 0
0 0 0
0 0 0
0 0 0
0 0 0
0 0 0
0 0 0
0 0 0
0 0 0
0 0 0
0 0 0
0 0 0
0 0 0
0 0 0
0 0 0
0 0 0
0 0 0
0 0 0
0 0 0
0 0 0
0 0 0
0 0 0
0 0 0
0 0 0
0 0 0
0 0 0
0 0 0
0 0 0
0 0 0
0 0 0
0 0 0
0 0 0
0 0 0
0 0 0
0 0 0
0 0 0
0 0 0
0 0 0
0 0 0
0 0 0
0 0 0
0 0 0
0 0 0
0 0 0
0 0 0
0 0 0
0 0 0
0 0 0
0 0 0
0 0 0
0 0 0
0 0 0
0 0 0
0 0 0
0 0 0
0 0 0
0 0 0
0 0 0
0 0 0
0 0 0
0 0 0
0 0 0
0 0 0
0 0 0
0 0 0
0 0 0
0 0 0
0 0 0
0 0 0
0 0 0
0 0 0
0 0 0
0 0 0
0 0 0
0 0 0
0 0 0
0 0 0
0 0 0
0 0 0
0 0 0
0 0 0
0 0 0
0 0 0
0 0 0
0 0 0
0 0 0
0 0 0
0 0 0
0 0 0
0 0 0
0 0 0
0 0 0
0 0 0
0 0 0
0 0 0
0 0 0
0 0 0
0 0 0
0 0 0
0 0 0
0 0 0
0 0 0
0 0 0
0 0 0
0 0 0
0 0 0
0 0 0
0 0 0
0 0 0
0 0 0
0 0 0
0 0 0
0 0 0
0 0 0
0 0 0
0 0 0
0 0 0
0 0 0
0 0 0
0 0 0
0 0 0
0 0 0
0 0 0
0 0 0
0 0 0
0 0 0
0 0 0
0 0 0
0 0 0
0 0 0
0 0 0
0 0 0
0 0 0
0 0 0
0 0 0
0 0 0
0 0 0
0 0 0
0 0 0
0 0 0
0 0 0
0 0 0
0 0 0
0 0 0
0 0 0
0 0 0
0 0 0
0 0 0
0 0 0
0 0 0
0 0 0
0 0 0
0 0 0
0 0 0
0 0 0
0 0 0
0 0 0
0 0 0
0 0 0
0 0 0
0 0 0
0 0 0
0 0 0
0 0 0
0 0 0
0 0 0
0 0 0
0 0 0
0 0 0
0 0 0
0 0 0
0 0 0
0 0 0
0 0 0
0 0 0
0 0 0
0 0 0
0 0 0
0 0 0
0 0 0
0 0 0
0 0 0
0 0 0
0 0 0
0 0 0
0 0 0
0 0 0
0 0 0
0 0 0
0 0 0
0 0 0
0 0 0
0 0 0
0 0 0
0 0 0
0 0 0
0 0 0
0 0 0
0 0 0
0 0 0
0 0 0
0 0 0
0 0 0
0 0 0
0 0 0
0 0 0
0 0 0
0 0 0
0 0 0
0 0 0
0 0 0
0 0 0
0 0 0
0 0 0
0 0 0
0 0 0
0 0 0
0 0 0
0 0 0
0 0 0
0 0 0
0 0 0
0 0 0
0 0 0
0 0 0
0 0 0
0 0 0
0 0 0
0 0 0
0 0 0
0 0 0
0 0 0
0 0 0
0 0 0
0 0 0
0 0 0
0 0 0
0 0 0
0 0 0
0 0 0
0 0 0
0 0 0
0 0 0
0 0 0
0 0 0
0 0 0
0 0 0
0 0 0
0 0 0
0 0 0
0 0 0
0 0 0
0 0 0
0 0 0
0 0 0
0 0 0
0 0 0
0 0 0
0 0 0
0 0 0
0 0 0
0 0 0
0 0 0
0 0 0
0 0 0
0 0 0
0 0 0
0 0 0
0 0 0
0 0 0
0 0 0
0 0 0
0 0 0
0 0 0
0 0 0
0 0 0
0 0 0
0 0 0
0 0 0
0 0 0
0 0 0
0 0 0
0 0 0
0 0 0
0 0 0
0 0 0
0 0 0
0 0 0
0 0 0
0 0 0
0 0 0
0 0 0
0 0 0
0 0 0
0 0 0
0 0 0
0 0 0
0 0 0
0 0 0
0 0 0
0 0 0
0 0 0
0 0 0
0 0 0
0 0 0
0 0 0
0 0 0
0 0 0
0 0 0
0 0 0
0 0 0
0 0 0
0 0 0
0 0 0
0 0 0
0 0 0
0 0 0
0 0 0
0 0 0
0 0 0
0 0 0
0 0 0
0 0 0
0 0 0
0 0 0
0 0 0
0 0 0
0 0 0
0 0 0
0 0 0
0 0 0
0 0 0
0 0 0
0 0 0
0 0 0
0 0 0
0 0 0
0 0 0
0 0 0
0 0 0
0 0 0
0 0 0
0 0 0
0 0 0
0 0 0
0 0 0
0 0 0
0 0 0
0 0 0
0 0 0
0 0 0
0 0 0
0 0 0
0 0 0
0 0 0
0 0 0
0 0 0
0 0 0
0 0 0
0 0 0
0 0 0
0 0 0
0 0 0
0 0 0
0 0 0
0 0 0
0 0 0
0 0 0
0 0 0
0 0 0
0 0 0
0 0 0
0 0 0
0 0 0
0 0 0
0 0 0
0 0 0
0 0 0
0 0 0
0 0 0
0 0 0
0 0 0
0 0 0
0 0 0
0 0 0
0 0 0
0 0 0
0 0 0
0 0 0
0 0 0
0 0 0
0 0 0
0 0 0
0 0 0
0 0 0
0 0 0
0 0 0
0 0 0
0 0 0
0 0 0
0 0 0
0 0 0
0 0 0
0 0 0
0 0 0
0 0 0
0 0 0
0 0 0
0 0 0
0 0 0
0 0 0
0 0 0
0 0 0
0 0 0
0 0 0
0 0 0
0 0 0
0 0 0
0 0 0
0 0 0
0 0 0
0 0 0
0 0 0
0 0 0
0 0 0
0 0 0
0 0 0
0 0 0
0 0 0
0 0 0
0 0 0
0 0 0
0 0 0
0 0 0
0 0 0
0 0 0
0 0 0
0 0 0
0 0 0
0 0 0
0 0 0
0 0 0
0 0 0
0 0 0
0 0 0
0 0 0
0 0 0
0 0 0
0 0 0
0 0 0
0 0 0
0 0 0
0 0 0
0 0 0
0 0 0
0 0 0
0 0 0
0 0 0
0 0 0
0 0 0
0 0 0
0 0 0
0 0 0
0 0 0
0 0 0
0 0 0
0 0 0
0 0 0
0 0 0
0 0 0
0 0 0
0 0 0
0 0 0
0 0 0
0 0 0
0 0 0
0 0 0
0 0 0
0 0 0
0 0 0
0 0 0
0 0 0
0 0 0
0 0 0
0 0 0
0 0 0
0 0 0
0 0 0
0 0 0
0 0 0
0 0 0
0 0 0
0 0 0
0 0 0
0 0 0
0 0 0
0 0 0
0 0 0
0 0 0
0 0 0
0 0 0
0 0 0
0 0 0
0 0 0
0 0 0
0 0 0
0 0 0
0 0 0
0 0 0
0 0 0
0 0 0
0 0 0
0 0 0
0 0 0
0 0 0
0 0 0
0 0 0
0 0 0
0 0 0
0 0 0
0 0 0
0 0 0
0 0 0
0 0 0
0 0 0
0 0 0
0 0 0
0 0 0
0 0 0
0 0 0
0 0 0
0 0 0
0 0 0
0 0 0
0 0 0
0 0 0
0 0 0
0 0 0
0 0 0
0 0 0
0 0 0
0 0 0
0 0 0
0 0 0
0 0 0
0 0 0
0 0 0
0 0 0
0 0 0
0 0 0
0 0 0
0 0 0
0 0 0
0 0 0
0 0 0
0 0 0
0 0 0
0 0 0
0 0 0
0 0 0
0 0 0
0 0 0
0 0 0
0 0 0
0 0 0
0 0 0
0 0 0
0 0 0
0 0 0
0 0 0
0 0 0
0 0 0
0 0 0
0 0 0
0 0 0
0 0 0
0 0 0
0 0 0
0 0 0
0 0 0
0 0 0
0 0 0
0 0 0
0 0 0
0 0 0
0 0 0
0 0 0
0 0 0
0 0 0
0 0 0
0 0 0
0 0 0
0 0 0
0 0 0
0 0 0
0 0 0
0 0 0
0 0 0
0 0 0
0 0 0
0 0 0
0 0 0
0 0 0
0 0 0
0 0 0
0 0 0
0 0 0
0 0 0
0 0 0
0 0 0
0 0 0
0 0 0
0 0 0
0 0 0
0 0 0
0 0 0
0 0 0
0 0 0
0 0 0
0 0 0
0 0 0
0 0 0
0 0 0
0 0 0
0 0 0
0 0 0
0 0 0
0 0 0
0 0 0
0 0 0
0 0 0
0 0 0
0 0 0
0 0 0
0 0 0
0 0 0
0 0 0
0 0 0
0 0 0
0 0 0
0 0 0
0 0 0
0 0 0
0 0 0
0 0 0
0 0 0
0 0 0
0 0 0
0 0 0
0 0 0
0 0 0
0 0 0
0 0 0
0 0 0
0 0 0
0 0 0
0 0 0
0 0 0
0 0 0
0 0 0
0 0 0
0 0 0
0 0 0
0 0 0
0 0 0
0 0 0
0 0 0
0 0 0
0 0 0
0 0 0
0 0 0
0 0 0
0 0 0
0 0 0
0 0 0
0 0 0
0 0 0
0 0 0
0 0 0
0 0 0
0 0 0
0 0 0
0 0 0
0 0 0
0 0 0
0 0 0
0 0 0
0 0 0
0 0 0
0 0 0
0 0 0
0 0 0
0 0 0
0 0 0
0 0 0
0 0 0
0 0 0
0 0 0
0 0 0
0 0 0
0 0 0
0 0 0
0 0 0
0 0 0
0 0 0
0 0 0
0 0 0
0 0 0
0 0 0
0 0 0
0 0 0
0 0 0
0 0 0
0 0 0
0 0 0
0 0 0
0 0 0
0 0 0
0 0 0
0 0 0
0 0 0
0 0 0
0 0 0
0 0 0
0 0 0
0 0 0
0 0 0
0 0 0
0 0 0
0 0 0
0 0 0
0 0 0
0 0 0
0 0 0
0 0 0
0 0 0
0 0 0
0 0 0
0 0 0
0 0 0
0 0 0
0 0 0
0 0 0
0 0 0
0 0 0
0 0 0
0 0 0
0 0 0
0 0 0
0 0 0
0 0 0
0 0 0
0 0 0
0 0 0
0 0 0
0 0 0
0 0 0
0 0 0
0 0 0
0 0 0
0 0 0
0 0 0
0 0 0
0 0 0
0 0 0
0 0 0
0 0 0
0 0 0
0 0 0
0 0 0
0 0 0
0 0 0
0 0 0
0 0 0
0 0 0
0 0 0
0 0 0
0 0 0
0 0 0
0 0 0
0 0 0
0 0 0
0 0 0
0 0 0
0 0 0
0 0 0
0 0 0
0 0 0
0 0 0
0 0 0
0 0 0
0 0 0
0 0 0
0 0 0
0 0 0
0 0 0
0 0 0
0 0 0
0 0 0
0 0 0
0 0 0
0 0 0
0 0 0
0 0 0
0 0 0
0 0 0
0 0 0
0 0 0
0 0 0
0 0 0
0 0 0
0 0 0
0 0 0
0 0 0
0 0 0
0 0 0
0 0 0
0 0 0
0 0 0
0 0 0
0 0 0
0 0 0
0 0 0
0 0 0
0 0 0
0 0 0
0 0 0
0 0 0
0 0 0
0 0 0
0 0 0
0 0 0
0 0 0
0 0 0
0 0 0
0 0 0
0 0 0
0 0 0
0 0 0
0 0 0
0 0 0
0 0 0
0 0 0
0 0 0
0 0 0
0 0 0
0 0 0
0 0 0
0 0 0
0 0 0
0 0 0
0 0 0
0 0 0
0 0 0
0 0 0
0 0 0
0 0 0
0 0 0
0 0 0
0 0 0
0 0 0
0 0 0
0 0 0
0 0 0
0 0 0
0 0 0
0 0 0
0 0 0
0 0 0
0 0 0
0 0 0
0 0 0
0 0 0
0 0 0
0 0 0
0 0 0
0 0 0
0 0 0
0 0 0
0 0 0
0 0 0
0 0 0
0 0 0
0 0 0
0 0 0
0 0 0
0 0 0
0 0 0
0 0 0
0 0 0
0 0 0
0 0 0
0 0 0
0 0 0
0 0 0
0 0 0
0 0 0
0 0 0
0 0 0
0 0 0
0 0 0
0 0 0
0 0 0
0 0 0
0 0 0
0 0 0
0 0 0
0 0 0
0 0 0
0 0 0
0 0 0
0 0 0
0 0 0
0 0 0
0 0 0
0 0 0
0 0 0
0 0 0
0 0 0
0 0 0
0 0 0
0 0 0
0 0 0
0 0 0
0 0 0
0 0 0
0 0 0
0 0 0
0 0 0
0 0 0
0 0 0
0 0 0
0 0 0
0 0 0
0 0 0
0 0 0
0 0 0
0 0 0
0 0 0
0 0 0
0 0 0
0 0 0
0 0 0
0 0 0
0 0 0
0 0 0
0 0 0
0 0 0
0 0 0
0 0 0
0 0 0
0 0 0
0 0 0
0 0 0
0 0 0
0 0 0
0 0 0
0 0 0
0 0 0
0 0 0
0 0 0
0 0 0
0 0 0
0 0 0
0 0 0
0 0 0
0 0 0
0 0 0
0 0 0
0 0 0
0 0 0
0 0 0
0 0 0
0 0 0
0 0 0
0 0 0
0 0 0
0 0 0
0 0 0
0 0 0
0 0 0
0 0 0
0 0 0
0 0 0
SCALARS effective_fluid_pressure_TPM float
LOOKUP_TABLE default
0
0
0
0
0
0
0
0
0
0
0
0
0
0
0
0
0
0
0
0
0
0
0
0
0
0
0
0
0
0
0
0
0
0
0
0
0
0
0
0
0
0
0
0
0
0
0
0
0
0
0
0
0
0
0
0
0
0
0
0
0
0
0
0
0
0
0
0
0
0
0
0
0
0
0
0
0
0
0
0
0
0
0
0
0
0
0
0
0
0
0
0
0
0
0
0
0
0
0
0
0
0
0
0
0
0
0
0
0
0
0
0
0
0
0
0
0
0
0
0
0
0
0
0
0
0
0
0
0
0
0
0
0
0
0
0
0
0
0
0
0
0
0
0
0
0
0
0
0
0
0
0
0
0
0
0
0
0
0
0
0
0
0
0
0
0
0
0
0
0
0
0
0
0
0
0
0
0
0
0
0
0
0
0
0
0
0
0
0
0
0
0
0
0
0
0
0
0
0
0
0
0
0
0
0
0
0
0
0
0
0
0
0
0
0
0
0
0
0
0
0
0
0
0
0
0
0
0
0
0
0
0
0
0
0
0
0
0
0
0
0
0
0
0
0
0
0
0
0
0
0
0
0
0
0
0
0
0
0
0
0
0
0
0
0
0
0
0
0
0
0
0
0
0
0
0
0
0
0
0
0
0
0
0
0
0
0
0
0
0
0
0
0
0
0
0
0
0
0
0
0
0
0
0
0
0
0
0
0
0
0
0
0
0
0
0
0
0
0
0
0
0
0
0
0
0
0
0
0
0
0
0
0
0
0
0
0
0
0
0
0
0
0
0
0
0
0
0
0
0
0
0
0
0
0
0
0
0
0
0
0
0
0
0
0
0
0
0
0
0
0
0
0
0
0
0
0
0
0
0
0
0
0
0
0
0
0
0
0
0
0
0
0
0
0
0
0
0
0
0
0
0
0
0
0
0
0
0
0
0
0
0
0
0
0
0
0
0
0
0
0
0
0
0
0
0
0
0
0
0
0
0
0
0
0
0
0
0
0
0
0
0
0
0
0
0
0
0
0
0
0
0
0
0
0
0
0
0
0
0
0
0
0
0
0
0
0
0
0
0
0
0
0
0
0
0
0
0
0
0
0
0
0
0
0
0
0
0
0
0
0
0
0
0
0
0
0
0
0
0
0
0
0
0
0
0
0
0
0
0
0
0
0
0
0
0
0
0
0
0
0
0
0
0
0
0
0
0
0
0
0
0
0
0
0
0
0
0
0
0
0
0
0
0
0
0
0
0
0
0
0
0
0
0
0
0
0
0
0
0
0
0
0
0
0
0
0
0
0
0
0
0
0
0
0
0
0
0
0
0
0
0
0
0
0
0
0
0
0
0
0
0
0
0
0
0
0
0
0
0
0
0
0
0
0
0
0
0
0
0
0
0
0
0
0
0
0
0
0
0
0
0
0
0
0
0
0
0
0
0
0
0
0
0
0
0
0
0
0
0
0
0
0
0
0
0
0
0
0
0
0
0
0
0
0
0
0
0
0
0
0
0
0
0
0
0
0
0
0
0
0
0
0
0
0
0
0
0
0
0
0
0
0
0
0
0
0
0
0
0
0
0
0
0
0
0
0
0
0
0
0
0
0
0
0
0
0
0
0
0
0
0
0
0
0
0
0
0
0
0
0
0
0
0
0
0
0
0
0
0
0
0
0
0
0
0
0
0
0
0
0
0
0
0
0
0
0
0
0
0
0
0
0
0
0
0
0
0
0
0
0
0
0
0
0
0
0
0
0
0
0
0
0
0
0
0
0
0
0
0
0
0
0
0
0
0
0
0
0
0
0
0
0
0
0
0
0
0
0
0
0
0
0
0
0
0
0
0
0
0
0
0
0
0
0
0
0
0
0
0
0
0
0
0
0
0
0
0
0
0
0
0
0
0
0
0
0
0
0
0
0
0
0
0
0
0
0
0
0
0
0
0
0
0
0
0
0
0
0
0
0
0
0
0
0
0
0
0
0
0
0
0
0
0
0
0
0
0
0
0
0
0
0
0
0
0
0
0
0
0
0
0
0
0
0
0
0
0
0
0
0
0
0
0
0
0
0
0
0
0
0
0
0
0
0
0
0
0
0
0
0
0
0
0
0
0
0
0
0
0
0
0
0
0
0
0
0
0
0
0
0
0
0
0
0
0
0
0
0
0
0
0
0
0
0
0
0
0
0
0
0
0
0
0
0
0
0
0
0
0
0
0
0
0
0
0
0
0
0
0
0
0
0
0
0
0
0
0
0
0
0
0
0
0
0
0
0
0
0
0
0
0
0
0
0
0
0
0
0
0
0
0
0
0
0
0
0
0
0
0
0
0
0
0
0
0
0
0
0
0
0
0
0
0
0
0
0
0
0
0
0
0
0
0
0
0
0
0
0
0
0
0
0
0
0
0
0
0
0
0
0
0
0
0
0
0
0
0
0
0
0
0
0
0
0
0
0
0
0
0
0
0
0
0
0
0
0
0
0
0
0
0
0
0
0
0
0
0
0
0
0
0
0
0
0
0
0
0
0
0
0
0
0
0
0
0
0
0
0
0
0
0
0
0
0
0
0
0
0
0
0
0
0
0
0
0
0
0
0
0
0
0
0
0
0
0
0
0
0
0
0
0
0
0
0
0
0
0
0
0
0
0
0
0
0
0
0
0
0
0
0
0
0
0
0
0
0
0
0
0
0
0
0
0
0
0
0
0
0
0
0
0
0
0
0
0
0
0
0
0
0
0
0
0
0
0
0
0
0
0
0
0
0
0
0
0
0
0
0
0
0
0
0
0
0
0
0
0
0
0
0
0
0
0
0
0
0
0
0
0
0
0
0
0
0
0
0
0
0
0
0
0
0
0
0
0
0
0
0
0
0
0
0
0
0
0
0
0
0
0
0
0
0
0
0
0
0
0
0
0
0
0
0
0
0
0
0
0
0
0
0
0
0
0
0
0
0
0
0
0
0
0
0
0
0
0
0
0
0
0
0
0
0
0
0
0
0
0
0
0
0
0
0
0
0
0
0
0
0
0
0
0
0
0
0
0
0
0
0
0
0
0
0
0
0
0
0
0
0
0
0
0
0
0
0
0
0
0
0
0
0
0
0
0
0
0
0
0
0
0
0
0
0
0
0
0
0
0
0
0
0
0
0
0
0
0
0
0
0
0
0
0
0
0
0
0
0
0
0
0
0
0
0
0
0
0
0
0
0
0
0
0
0
0
0
0
0
0
0
0
0
0
0
0
0
0
0
0
0
0
0
0
0
0
0
0
0
0
0
0
0
0
0
0
0
0
0
0
0
0
0
0
0
0
0
0
0
0
0
0
0
0
0
0
0
0
0
0
0
0
0
0
0
0
0
0
0
0
0
0
0
0
0
0
0
0
0
0
0
0
0
0
0
0
0
0
0
0
0
0
0
0
0
0
0
0
0
0
0
0
0
0
0
0
0
0
0
0
0
0
0
0
0
0
0
0
0
0
0
0
0
0
0
0
0
0
0
0
0
0
0
0
0
0
0
0
0
0
0
0
0
0
0
0
0
0
0
0
0
0
0
0
0
0
0
0
0
0
0
0
0
0
0
0
0
0
0
0
0
0
0
0
0
0
0
0
0
0
0
0
0
0
0
0
0
0
0
0
0
0
0
0
0
0
0
0
0
0
0
0
0
0
0
0
0
0
0
0
0
0
0
0
0
0
0
0
0
0
0
0
0
0
0
0
0
0
0
0
0
0
0
0
0
0
0
0
0
0
0
0
0
0
0
0
0
0
0
0
0
0
0
0
0
0
0
0
0
0
0
0
0
0
0
0
0
0
0
0
0
0
0
0
0
0
0
0
0
0
0
0
0
0
0
0
0
0
0
0
0
0
0
0
0
0
0
0
0
0
0
0
0
0
0
0
0
0
0
0
0
0
0
0
0
0
0
0
0
0
0
0
0
0
0
0
0
0
0
0
0
0
0
0
0
0
0
0
0
0
0
0
0
0
0
0
0
0
0
0
0
0
0
0
0
0
0
0
0
0
0
0
0
0
0
0
0
0
0
0
0
0
0
0
0
0
0
0
0
0
0
0
0
0
0
0
0
0
0
0
0
0
0
0
0
0
0
0
0
0
0
0
0
0
0
0
0
0
0
0
0
0
0
0
0
0
0
0
0
0
0
0
0
0
0
0
0
0
0
0
0
0
0
0
0
0
0
0
0
0
0
0
0
0
0
0
0
0
0
0
0
0
0
0
0
0
0
0
0
0
0
0
0
0
0
0
0
0
0
0
0
0
0
0
0
0
0
0
0
0
0
0
0
0
0
0
0
0
0
0
0
0
0
0
0
0
0
0
0
0
0
0
0
0
0
0
0
0
0
0
0
0
0
0
0
0
0
0
0
0
0
0
0
0
0
0
0
0
0
0
0
0
0
0
0
0
0
0
0
0
0
0
0
0
0
0
0
0
0
0
0
0
0
0
0
0
0
0
0
0
0
0
0
0
0
0
0
0
0
0
0
0
0
0
0
0
0
0
0
0
0
0
0
0
0
0
0
0
0
0
0
0
0
0
0
0
0
0
0
0
0
0
0
0
0
0
0
0
0
0
0
0
0
0
0
0
0
0
0
0
0
0
0
0
0
0
0
0
0
0
0
0
0
0
0
0
0
0
0
0
0
0
0
0
0
0
0
0
0
0
0
0
0
0
0
0
0
0
0
0
0
0
0
0
0
0
0
0
0
0
0
0
0
0
0
0
0
0
0
0
0
0
0
0
0
0
0
0
0
0
0
0
0
0
0
0
0
0
0
0
0
0
0
0
0
0
0
0
0
0
0
0
0
0
0
0
0
0
0
0
0
0
0
0
0
0
0
0
0
0
0
0
0
0
0
0
0
0
0
0
0
0
0
0
0
0
0
0
0
0
0
0
0
0
0
0
0
0
0
0
0
0
0
0
0
0
0
0
0
0
0
0
0
0
0
0
0
0
0
0
0
0
0
0
0
0
0
0
0
0
0
0
0
0
0
0
0
0
0
0
0
0
0
0
0
0
0
0
0
0
0
0
0
0
0
0
0
0
0
0
0
0
0
0
0
0
0
0
0
0
0
0
0
0
0
0
0
0
0
0
0
0
0
0
0
0
0
0
0
0
0
0
0
0
0
0
0
0
0
0
0
0
0
0
0
0
0
0
0
0
0
0
0
0
0
0
0
0
0
0
0
0
0
0
0
0
0
0
0
0
0
0
0
0
0
0
0
0
0
0
0
0
0
0
0
0
0
0
0
0
0
0
0
0
0
0
0
0
0
0
0
0
0
0
0
0
0
0
0
0
0
0
0
0
0
0
0
0
0
0
0
0
0
0
0
0
0
0
0
0
0
0
0
0
0
0
0
0
0
0
0
0
0
0
0
0
0
0
0
0
0
0
0
0
0
0
0
0
0
0
0
0
0
0
0
0
0
0
0
0
0
0
0
0
0
0
0
0
0
0
0
0
0
0
0
0
0
0
0
0
0
0
0
0
0
0
0
0
0
0
0
0
0
0
0
0
0
0
0
0
0
0
0
0
0
0
0
0
0
0
0
0
0
0
0
0
0
0
0
0
0
0
0
0
0
0
0
0
0
0
0
0
0
0
0
0
0
0
0
0
0
0
0
0
0
0
0
0
0
0
0
0
0
0
0
0
0
0
0
0
0
0
0
0
0
0
0
0
0
0
0
0
0
0
0
0
0
0
0
0
0
0
0
0
0
0
0
0
0
0
0
0
0
0
0
0
0
0
0
0
0
0
0
0
0
0
0
0
0
0
0
0
0
0
0
0
0
0
0
0
0
0
0
0
0
0
0
0
0
0
0
0
0
0
0
0
0
0
0
0
0
0
0
0
0
0
0
0
VECTORS nodal_fluid_flux_TPM float
0 0 0
0 0 0
0 0 0
0 0 0
0 0 0
0 0 0
0 0 0
0 0 0
0 0 0
0 0 0
0 0 0
0 0 0
0 0 0
0 0 0
0 0 0
0 0 0
0 0 0
0 0 0
0 0 0
0 0 0
0 0 0
0 0 0
0 0 0
0 0 0
0 0 0
0 0 0
0 0 0
0 0 0
0 0 0
0 0 0
0 0 0
0 0 0
0 0 0
0 0 0
0 0 0
0 0 0
0 0 0
0 0 0
0 0 0
0 0 0
0 0 0
0 0 0
0 0 0
0 0 0
0 0 0
0 0 0
0 0 0
0 0 0
0 0 0
0 0 0
0 0 0
0 0 0
0 0 0
0 0 0
0 0 0
0 0 0
0 0 0
0 0 0
0 0 0
0 0 0
0 0 0
0 0 0
0 0 0
0 0 0
0 0 0
0 0 0
0 0 0
0 0 0
0 0 0
0 0 0
0 0 0
0 0 0
0 0 0
0 0 0
0 0 0
0 0 0
0 0 0
0 0 0
0 0 0
0 0 0
0 0 0
0 0 0
0 0 0
0 0 0
0 0 0
0 0 0
0 0 0
0 0 0
0 0 0
0 0 0
0 0 0
0 0 0
0 0 0
0 0 0
0 0 0
0 0 0
0 0 0
0 0 0
0 0 0
0 0 0
0 0 0
0 0 0
0 0 0
0 0 0
0 0 0
0 0 0
0 0 0
0 0 0
0 0 0
0 0 0
0 0 0
0 0 0
0 0 0
0 0 0
0 0 0
0 0 0
0 0 0
0 0 0
0 0 0
0 0 0
0 0 0
0 0 0
0 0 0
0 0 0
0 0 0
0 0 0
0 0 0
0 0 0
0 0 0
0 0 0
0 0 0
0 0 0
0 0 0
0 0 0
0 0 0
0 0 0
0 0 0
0 0 0
0 0 0
0 0 0
0 0 0
0 0 0
0 0 0
0 0 0
0 0 0
0 0 0
0 0 0
0 0 0
0 0 0
0 0 0
0 0 0
0 0 0
0 0 0
0 0 0
0 0 0
0 0 0
0 0 0
0 0 0
0 0 0
0 0 0
0 0 0
0 0 0
0 0 0
0 0 0
0 0 0
0 0 0
0 0 0
0 0 0
0 0 0
0 0 0
0 0 0
0 0 0
0 0 0
0 0 0
0 0 0
0 0 0
0 0 0
0 0 0
0 0 0
0 0 0
0 0 0
0 0 0
0 0 0
0 0 0
0 0 0
0 0 0
0 0 0
0 0 0
0 0 0
0 0 0
0 0 0
0 0 0
0 0 0
0 0 0
0 0 0
0 0 0
0 0 0
0 0 0
0 0 0
0 0 0
0 0 0
0 0 0
0 0 0
0 0 0
0 0 0
0 0 0
0 0 0
0 0 0
0 0 0
0 0 0
0 0 0
0 0 0
0 0 0
0 0 0
0 0 0
0 0 0
0 0 0
0 0 0
0 0 0
0 0 0
0 0 0
0 0 0
0 0 0
0 0 0
0 0 0
0 0 0
0 0 0
0 0 0
0 0 0
0 0 0
0 0 0
0 0 0
0 0 0
0 0 0
0 0 0
0 0 0
0 0 0
0 0 0
0 0 0
0 0 0
0 0 0
0 0 0
0 0 0
0 0 0
0 0 0
0 0 0
0 0 0
0 0 0
0 0 0
0 0 0
0 0 0
0 0 0
0 0 0
0 0 0
0 0 0
0 0 0
0 0 0
0 0 0
0 0 0
0 0 0
0 0 0
0 0 0
0 0 0
0 0 0
0 0 0
0 0 0
0 0 0
0 0 0
0 0 0
0 0 0
0 0 0
0 0 0
0 0 0
0 0 0
0 0 0
0 0 0
0 0 0
0 0 0
0 0 0
0 0 0
0 0 0
0 0 0
0 0 0
0 0 0
0 0 0
0 0 0
0 0 0
0 0 0
0 0 0
0 0 0
0 0 0
0 0 0
0 0 0
0 0 0
0 0 0
0 0 0
0 0 0
0 0 0
0 0 0
0 0 0
0 0 0
0 0 0
0 0 0
0 0 0
0 0 0
0 0 0
0 0 0
0 0 0
0 0 0
0 0 0
0 0 0
0 0 0
0 0 0
0 0 0
0 0 0
0 0 0
0 0 0
0 0 0
0 0 0
0 0 0
0 0 0
0 0 0
0 0 0
0 0 0
0 0 0
0 0 0
0 0 0
0 0 0
0 0 0
0 0 0
0 0 0
0 0 0
0 0 0
0 0 0
0 0 0
0 0 0
0 0 0
0 0 0
0 0 0
0 0 0
0 0 0
0 0 0
0 0 0
0 0 0
0 0 0
0 0 0
0 0 0
0 0 0
0 0 0
0 0 0
0 0 0
0 0 0
0 0 0
0 0 0
0 0 0
0 0 0
0 0 0
0 0 0
0 0 0
0 0 0
0 0 0
0 0 0
0 0 0
0 0 0
0 0 0
0 0 0
0 0 0
0 0 0
0 0 0
0 0 0
0 0 0
0 0 0
0 0 0
0 0 0
0 0 0
0 0 0
0 0 0
0 0 0
0 0 0
0 0 0
0 0 0
0 0 0
0 0 0
0 0 0
0 0 0
0 0 0
0 0 0
0 0 0
0 0 0
0 0 0
0 0 0
0 0 0
0 0 0
0 0 0
0 0 0
0 0 0
0 0 0
0 0 0
0 0 0
0 0 0
0 0 0
0 0 0
0 0 0
0 0 0
0 0 0
0 0 0
0 0 0
0 0 0
0 0 0
0 0 0
0 0 0
0 0 0
0 0 0
0 0 0
0 0 0
0 0 0
0 0 0
0 0 0
0 0 0
0 0 0
0 0 0
0 0 0
0 0 0
0 0 0
0 0 0
0 0 0
0 0 0
0 0 0
0 0 0
0 0 0
0 0 0
0 0 0
0 0 0
0 0 0
0 0 0
0 0 0
0 0 0
0 0 0
0 0 0
0 0 0
0 0 0
0 0 0
0 0 0
0 0 0
0 0 0
0 0 0
0 0 0
0 0 0
0 0 0
0 0 0
0 0 0
0 0 0
0 0 0
0 0 0
0 0 0
0 0 0
0 0 0
0 0 0
0 0 0
0 0 0
0 0 0
0 0 0
0 0 0
0 0 0
0 0 0
0 0 0
0 0 0
0 0 0
0 0 0
0 0 0
0 0 0
0 0 0
0 0 0
0 0 0
0 0 0
0 0 0
0 0 0
0 0 0
0 0 0
0 0 0
0 0 0
0 0 0
0 0 0
0 0 0
0 0 0
0 0 0
0 0 0
0 0 0
0 0 0
0 0 0
0 0 0
0 0 0
0 0 0
0 0 0
0 0 0
0 0 0
0 0 0
0 0 0
0 0 0
0 0 0
0 0 0
0 0 0
0 0 0
0 0 0
0 0 0
0 0 0
0 0 0
0 0 0
0 0 0
0 0 0
0 0 0
0 0 0
0 0 0
0 0 0
0 0 0
0 0 0
0 0 0
0 0 0
0 0 0
0 0 0
0 0 0
0 0 0
0 0 0
0 0 0
0 0 0
0 0 0
0 0 0
0 0 0
0 0 0
0 0 0
0 0 0
0 0 0
0 0 0
0 0 0
0 0 0
0 0 0
0 0 0
0 0 0
0 0 0
0 0 0
0 0 0
0 0 0
0 0 0
0 0 0
0 0 0
0 0 0
0 0 0
0 0 0
0 0 0
0 0 0
0 0 0
0 0 0
0 0 0
0 0 0
0 0 0
0 0 0
0 0 0
0 0 0
0 0 0
0 0 0
0 0 0
0 0 0
0 0 0
0 0 0
0 0 0
0 0 0
0 0 0
0 0 0
0 0 0
0 0 0
0 0 0
0 0 0
0 0 0
0 0 0
0 0 0
0 0 0
0 0 0
0 0 0
0 0 0
0 0 0
0 0 0
0 0 0
0 0 0
0 0 0
0 0 0
0 0 0
0 0 0
0 0 0
0 0 0
0 0 0
0 0 0
0 0 0
0 0 0
0 0 0
0 0 0
0 0 0
0 0 0
0 0 0
0 0 0
0 0 0
0 0 0
0 0 0
0 0 0
0 0 0
0 0 0
0 0 0
0 0 0
0 0 0
0 0 0
0 0 0
0 0 0
0 0 0
0 0 0
0 0 0
0 0 0
0 0 0
0 0 0
0 0 0
0 0 0
0 0 0
0 0 0
0 0 0
0 0 0
0 0 0
0 0 0
0 0 0
0 0 0
0 0 0
0 0 0
0 0 0
0 0 0
0 0 0
0 0 0
0 0 0
0 0 0
0 0 0
0 0 0
0 0 0
0 0 0
0 0 0
0 0 0
0 0 0
0 0 0
0 0 0
0 0 0
0 0 0
0 0 0
0 0 0
0 0 0
0 0 0
0 0 0
0 0 0
0 0 0
0 0 0
0 0 0
0 0 0
0 0 0
0 0 0
0 0 0
0 0 0
0 0 0
0 0 0
0 0 0
0 0 0
0 0 0
0 0 0
0 0 0
0 0 0
0 0 0
0 0 0
0 0 0
0 0 0
0 0 0
0 0 0
0 0 0
0 0 0
0 0 0
0 0 0
0 0 0
0 0 0
0 0 0
0 0 0
0 0 0
0 0 0
0 0 0
0 0 0
0 0 0
0 0 0
0 0 0
0 0 0
0 0 0
0 0 0
0 0 0
0 0 0
0 0 0
0 0 0
0 0 0
0 0 0
0 0 0
0 0 0
0 0 0
0 0 0
0 0 0
0 0 0
0 0 0
0 0 0
0 0 0
0 0 0
0 0 0
0 0 0
0 0 0
0 0 0
0 0 0
0 0 0
0 0 0
0 0 0
0 0 0
0 0 0
0 0 0
0 0 0
0 0 0
0 0 0
0 0 0
0 0 0
0 0 0
0 0 0
0 0 0
0 0 0
0 0 0
0 0 0
0 0 0
0 0 0
0 0 0
0 0 0
0 0 0
0 0 0
0 0 0
0 0 0
0 0 0
0 0 0
0 0 0
0 0 0
0 0 0
0 0 0
0 0 0
0 0 0
0 0 0
0 0 0
0 0 0
0 0 0
0 0 0
0 0 0
0 0 0
0 0 0
0 0 0
0 0 0
0 0 0
0 0 0
0 0 0
0 0 0
0 0 0
0 0 0
0 0 0
0 0 0
0 0 0
0 0 0
0 0 0
0 0 0
0 0 0
0 0 0
0 0 0
0 0 0
0 0 0
0 0 0
0 0 0
0 0 0
0 0 0
0 0 0
0 0 0
0 0 0
0 0 0
0 0 0
0 0 0
0 0 0
0 0 0
0 0 0
0 0 0
0 0 0
0 0 0
0 0 0
0 0 0
0 0 0
0 0 0
0 0 0
0 0 0
0 0 0
0 0 0
0 0 0
0 0 0
0 0 0
0 0 0
0 0 0
0 0 0
0 0 0
0 0 0
0 0 0
0 0 0
0 0 0
0 0 0
0 0 0
0 0 0
0 0 0
0 0 0
0 0 0
0 0 0
0 0 0
0 0 0
0 0 0
0 0 0
0 0 0
0 0 0
0 0 0
0 0 0
0 0 0
0 0 0
0 0 0
0 0 0
0 0 0
0 0 0
0 0 0
0 0 0
0 0 0
0 0 0
0 0 0
0 0 0
0 0 0
0 0 0
0 0 0
0 0 0
0 0 0
0 0 0
0 0 0
0 0 0
0 0 0
0 0 0
0 0 0
0 0 0
0 0 0
0 0 0
0 0 0
0 0 0
0 0 0
0 0 0
0 0 0
0 0 0
0 0 0
0 0 0
0 0 0
0 0 0
0 0 0
0 0 0
0 0 0
0 0 0
0 0 0
0 0 0
0 0 0
0 0 0
0 0 0
0 0 0
0 0 0
0 0 0
0 0 0
0 0 0
0 0 0
0 0 0
0 0 0
0 0 0
0 0 0
0 0 0
0 0 0
0 0 0
0 0 0
0 0 0
0 0 0
0 0 0
0 0 0
0 0 0
0 0 0
0 0 0
0 0 0
0 0 0
0 0 0
0 0 0
0 0 0
0 0 0
0 0 0
0 0 0
0 0 0
0 0 0
0 0 0
0 0 0
0 0 0
0 0 0
0 0 0
0 0 0
0 0 0
0 0 0
0 0 0
0 0 0
0 0 0
0 0 0
0 0 0
0 0 0
0 0 0
0 0 0
0 0 0
0 0 0
0 0 0
0 0 0
0 0 0
0 0 0
0 0 0
0 0 0
0 0 0
0 0 0
0 0 0
0 0 0
0 0 0
0 0 0
0 0 0
0 0 0
0 0 0
0 0 0
0 0 0
0 0 0
0 0 0
0 0 0
0 0 0
0 0 0
0 0 0
0 0 0
0 0 0
0 0 0
0 0 0
0 0 0
0 0 0
0 0 0
0 0 0
0 0 0
0 0 0
0 0 0
0 0 0
0 0 0
0 0 0
0 0 0
0 0 0
0 0 0
0 0 0
0 0 0
0 0 0
0 0 0
0 0 0
0 0 0
0 0 0
0 0 0
0 0 0
0 0 0
0 0 0
0 0 0
0 0 0
0 0 0
0 0 0
0 0 0
0 0 0
0 0 0
0 0 0
0 0 0
0 0 0
0 0 0
0 0 0
0 0 0
0 0 0
0 0 0
0 0 0
0 0 0
0 0 0
0 0 0
0 0 0
0 0 0
0 0 0
0 0 0
0 0 0
0 0 0
0 0 0
0 0 0
0 0 0
0 0 0
0 0 0
0 0 0
0 0 0
0 0 0
0 0 0
0 0 0
0 0 0
0 0 0
0 0 0
0 0 0
0 0 0
0 0 0
0 0 0
0 0 0
0 0 0
0 0 0
0 0 0
0 0 0
0 0 0
0 0 0
0 0 0
0 0 0
0 0 0
0 0 0
0 0 0
0 0 0
0 0 0
0 0 0
0 0 0
0 0 0
0 0 0
0 0 0
0 0 0
0 0 0
0 0 0
0 0 0
0 0 0
0 0 0
0 0 0
0 0 0
0 0 0
0 0 0
0 0 0
0 0 0
0 0 0
0 0 0
0 0 0
0 0 0
0 0 0
0 0 0
0 0 0
0 0 0
0 0 0
0 0 0
0 0 0
0 0 0
0 0 0
0 0 0
0 0 0
0 0 0
0 0 0
0 0 0
0 0 0
0 0 0
0 0 0
0 0 0
0 0 0
0 0 0
0 0 0
0 0 0
0 0 0
0 0 0
0 0 0
0 0 0
0 0 0
0 0 0
0 0 0
0 0 0
0 0 0
0 0 0
0 0 0
0 0 0
0 0 0
0 0 0
0 0 0
0 0 0
0 0 0
0 0 0
0 0 0
0 0 0
0 0 0
0 0 0
0 0 0
0 0 0
0 0 0
0 0 0
0 0 0
0 0 0
0 0 0
0 0 0
0 0 0
0 0 0
0 0 0
0 0 0
0 0 0
0 0 0
0 0 0
0 0 0
0 0 0
0 0 0
0 0 0
0 0 0
0 0 0
0 0 0
0 0 0
0 0 0
0 0 0
0 0 0
0 0 0
0 0 0
0 0 0
0 0 0
0 0 0
0 0 0
0 0 0
0 0 0
0 0 0
0 0 0
0 0 0
0 0 0
0 0 0
0 0 0
0 0 0
0 0 0
0 0 0
0 0 0
0 0 0
0 0 0
0 0 0
0 0 0
0 0 0
0 0 0
0 0 0
0 0 0
0 0 0
0 0 0
0 0 0
0 0 0
0 0 0
0 0 0
0 0 0
0 0 0
0 0 0
0 0 0
0 0 0
0 0 0
0 0 0
0 0 0
0 0 0
0 0 0
0 0 0
0 0 0
0 0 0
0 0 0
0 0 0
0 0 0
0 0 0
0 0 0
0 0 0
0 0 0
0 0 0
0 0 0
0 0 0
0 0 0
0 0 0
0 0 0
0 0 0
0 0 0
0 0 0
0 0 0
0 0 0
0 0 0
0 0 0
0 0 0
0 0 0
0 0 0
0 0 0
0 0 0
0 0 0
0 0 0
0 0 0
0 0 0
0 0 0
0 0 0
0 0 0
0 0 0
0 0 0
0 0 0
0 0 0
0 0 0
0 0 0
0 0 0
0 0 0
0 0 0
0 0 0
0 0 0
0 0 0
0 0 0
0 0 0
0 0 0
0 0 0
0 0 0
0 0 0
0 0 0
0 0 0
0 0 0
0 0 0
0 0 0
0 0 0
0 0 0
0 0 0
0 0 0
0 0 0
0 0 0
0 0 0
0 0 0
0 0 0
0 0 0
0 0 0
0 0 0
0 0 0
0 0 0
0 0 0
0 0 0
0 0 0
0 0 0
0 0 0
0 0 0
0 0 0
0 0 0
0 0 0
0 0 0
0 0 0
0 0 0
0 0 0
0 0 0
0 0 0
0 0 0
0 0 0
0 0 0
0 0 0
0 0 0
0 0 0
0 0 0
0 0 0
0 0 0
0 0 0
0 0 0
0 0 0
0 0 0
0 0 0
0 0 0
0 0 0
0 0 0
0 0 0
0 0 0
0 0 0
0 0 0
0 0 0
0 0 0
0 0 0
0 0 0
0 0 0
0 0 0
0 0 0
0 0 0
0 0 0
0 0 0
0 0 0
0 0 0
0 0 0
0 0 0
0 0 0
0 0 0
0 0 0
0 0 0
0 0 0
0 0 0
0 0 0
0 0 0
0 0 0
0 0 0
0 0 0
0 0 0
0 0 0
0 0 0
0 0 0
0 0 0
0 0 0
0 0 0
0 0 0
0 0 0
0 0 0
0 0 0
0 0 0
0 0 0
0 0 0
0 0 0
0 0 0
0 0 0
0 0 0
0 0 0
0 0 0
0 0 0
0 0 0
0 0 0
0 0 0
0 0 0
0 0 0
0 0 0
0 0 0
0 0 0
0 0 0
0 0 0
0 0 0
0 0 0
0 0 0
0 0 0
0 0 0
0 0 0
0 0 0
0 0 0
0 0 0
0 0 0
0 0 0
0 0 0
0 0 0
0 0 0
0 0 0
0 0 0
0 0 0
0 0 0
0 0 0
0 0 0
0 0 0
0 0 0
0 0 0
0 0 0
0 0 0
0 0 0
0 0 0
0 0 0
0 0 0
0 0 0
0 0 0
0 0 0
0 0 0
0 0 0
0 0 0
0 0 0
0 0 0
0 0 0
0 0 0
0 0 0
0 0 0
0 0 0
0 0 0
0 0 0
0 0 0
0 0 0
0 0 0
0 0 0
0 0 0
0 0 0
0 0 0
0 0 0
0 0 0
0 0 0
0 0 0
0 0 0
0 0 0
0 0 0
0 0 0
0 0 0
0 0 0
0 0 0
0 0 0
0 0 0
0 0 0
0 0 0
0 0 0
0 0 0
0 0 0
0 0 0
0 0 0
0 0 0
0 0 0
0 0 0
0 0 0
0 0 0
0 0 0
0 0 0
0 0 0
0 0 0
0 0 0
0 0 0
0 0 0
0 0 0
0 0 0
0 0 0
0 0 0
0 0 0
0 0 0
0 0 0
0 0 0
0 0 0
0 0 0
0 0 0
0 0 0
0 0 0
0 0 0
0 0 0
0 0 0
0 0 0
0 0 0
0 0 0
0 0 0
0 0 0
0 0 0
0 0 0
0 0 0
0 0 0
0 0 0
0 0 0
0 0 0
0 0 0
0 0 0
0 0 0
0 0 0
0 0 0
0 0 0
0 0 0
0 0 0
0 0 0
0 0 0
0 0 0
0 0 0
0 0 0
0 0 0
0 0 0
0 0 0
0 0 0
0 0 0
0 0 0
0 0 0
0 0 0
0 0 0
0 0 0
0 0 0
0 0 0
0 0 0
0 0 0
0 0 0
0 0 0
0 0 0
0 0 0
0 0 0
0 0 0
0 0 0
0 0 0
0 0 0
0 0 0
0 0 0
0 0 0
0 0 0
0 0 0
0 0 0
0 0 0
0 0 0
0 0 0
0 0 0
0 0 0
0 0 0
0 0 0
0 0 0
0 0 0
0 0 0
0 0 0
0 0 0
0 0 0
0 0 0
0 0 0
0 0 0
0 0 0
0 0 0
0 0 0
0 0 0
0 0 0
0 0 0
0 0 0
0 0 0
0 0 0
0 0 0
0 0 0
0 0 0
0 0 0
0 0 0
0 0 0
0 0 0
0 0 0
0 0 0
0 0 0
0 0 0
0 0 0
0 0 0
0 0 0
0 0 0
0 0 0
0 0 0
0 0 0
0 0 0
0 0 0
0 0 0
0 0 0
0 0 0
0 0 0
0 0 0
0 0 0
0 0 0
0 0 0
0 0 0
0 0 0
0 0 0
0 0 0
0 0 0
0 0 0
0 0 0
0 0 0
0 0 0
0 0 0
0 0 0
0 0 0
0 0 0
0 0 0
0 0 0
0 0 0
0 0 0
0 0 0
0 0 0
0 0 0
0 0 0
0 0 0
0 0 0
0 0 0
0 0 0
0 0 0
0 0 0
0 0 0
0 0 0
0 0 0
0 0 0
0 0 0
0 0 0
0 0 0
0 0 0
0 0 0
0 0 0
0 0 0
0 0 0
0 0 0
0 0 0
0 0 0
0 0 0
0 0 0
0 0 0
0 0 0
0 0 0
0 0 0
0 0 0
0 0 0
0 0 0
0 0 0
0 0 0
0 0 0
0 0 0
0 0 0
0 0 0
0 0 0
0 0 0
0 0 0
0 0 0
0 0 0
0 0 0
0 0 0
0 0 0
0 0 0
0 0 0
0 0 0
0 0 0
0 0 0
0 0 0
0 0 0
0 0 0
0 0 0
0 0 0
0 0 0
0 0 0
0 0 0
0 0 0
0 0 0
0 0 0
0 0 0
0 0 0
0 0 0
0 0 0
0 0 0
0 0 0
0 0 0
0 0 0
0 0 0
0 0 0
0 0 0
0 0 0
0 0 0
0 0 0
0 0 0
0 0 0
0 0 0
0 0 0
0 0 0
0 0 0
0 0 0
0 0 0
0 0 0
0 0 0
0 0 0
0 0 0
0 0 0
0 0 0
0 0 0
0 0 0
0 0 0
0 0 0
0 0 0
0 0 0
0 0 0
0 0 0
0 0 0
0 0 0
0 0 0
0 0 0
0 0 0
0 0 0
0 0 0
0 0 0
0 0 0
0 0 0
0 0 0
0 0 0
0 0 0
0 0 0
0 0 0
0 0 0
0 0 0
0 0 0
0 0 0
0 0 0
0 0 0
0 0 0
0 0 0
0 0 0
0 0 0
0 0 0
0 0 0
0 0 0
0 0 0
0 0 0
0 0 0
0 0 0
0 0 0
0 0 0
0 0 0
0 0 0
0 0 0
0 0 0
0 0 0
0 0 0
0 0 0
0 0 0
0 0 0
0 0 0
0 0 0
0 0 0
0 0 0
0 0 0
0 0 0
0 0 0
0 0 0
0 0 0
0 0 0
0 0 0
0 0 0
0 0 0
0 0 0
0 0 0
0 0 0
0 0 0
0 0 0
0 0 0
0 0 0
0 0 0
0 0 0
0 0 0
0 0 0
0 0 0
0 0 0
0 0 0
0 0 0
0 0 0
0 0 0
0 0 0
0 0 0
0 0 0
0 0 0
0 0 0
0 0 0
0 0 0
0 0 0
0 0 0
0 0 0
0 0 0
0 0 0
0 0 0
0 0 0
0 0 0
0 0 0
0 0 0
0 0 0
0 0 0
0 0 0
0 0 0
0 0 0
0 0 0
0 0 0
0 0 0
0 0 0
0 0 0
0 0 0
0 0 0
0 0 0
0 0 0
0 0 0
0 0 0
0 0 0
0 0 0
0 0 0
0 0 0
0 0 0
0 0 0
0 0 0
0 0 0
0 0 0
0 0 0
0 0 0
0 0 0
0 0 0
0 0 0
0 0 0
0 0 0
0 0 0
0 0 0
0 0 0
0 0 0
0 0 0
0 0 0
0 0 0
0 0 0
0 0 0
0 0 0
0 0 0
0 0 0
0 0 0
0 0 0
0 0 0
0 0 0
0 0 0
0 0 0
0 0 0
0 0 0
0 0 0
0 0 0
0 0 0
0 0 0
0 0 0
0 0 0
0 0 0
0 0 0
0 0 0
0 0 0
0 0 0
0 0 0
0 0 0
0 0 0
0 0 0
0 0 0
0 0 0
0 0 0
0 0 0
0 0 0
0 0 0
0 0 0
0 0 0
0 0 0
0 0 0
0 0 0
0 0 0
0 0 0
0 0 0
0 0 0
0 0 0
0 0 0
0 0 0
0 0 0
0 0 0
0 0 0
0 0 0
0 0 0
0 0 0
0 0 0
0 0 0
0 0 0
0 0 0
0 0 0
0 0 0
0 0 0
0 0 0
0 0 0
0 0 0
0 0 0
0 0 0
0 0 0
0 0 0
0 0 0
0 0 0
0 0 0
0 0 0
0 0 0
0 0 0
0 0 0
0 0 0
0 0 0
0 0 0
0 0 0
0 0 0
0 0 0
0 0 0
0 0 0
0 0 0
0 0 0
0 0 0
0 0 0
0 0 0
0 0 0
0 0 0
0 0 0
0 0 0
0 0 0
0 0 0
0 0 0
0 0 0
0 0 0
0 0 0
0 0 0
0 0 0
0 0 0
0 0 0
0 0 0
0 0 0
0 0 0
0 0 0
0 0 0
0 0 0
0 0 0
0 0 0
0 0 0
0 0 0
0 0 0
0 0 0
0 0 0
0 0 0
0 0 0
0 0 0
0 0 0
0 0 0
0 0 0
0 0 0
0 0 0
0 0 0
0 0 0
0 0 0
0 0 0
0 0 0
0 0 0
0 0 0
0 0 0
0 0 0
0 0 0
0 0 0
0 0 0
0 0 0
0 0 0
0 0 0
0 0 0
0 0 0
0 0 0
0 0 0
0 0 0
0 0 0
0 0 0
0 0 0
0 0 0
0 0 0
0 0 0
0 0 0
0 0 0
0 0 0
0 0 0
0 0 0
0 0 0
0 0 0
0 0 0
0 0 0
0 0 0
0 0 0
0 0 0
0 0 0
0 0 0
0 0 0
0 0 0
0 0 0
0 0 0
0 0 0
0 0 0
0 0 0
0 0 0
0 0 0
0 0 0
0 0 0
0 0 0
0 0 0
0 0 0
0 0 0
0 0 0
0 0 0
0 0 0
0 0 0
0 0 0
0 0 0
0 0 0
0 0 0
0 0 0
0 0 0
0 0 0
0 0 0
0 0 0
0 0 0
0 0 0
0 0 0
0 0 0
0 0 0
0 0 0
0 0 0
0 0 0
0 0 0
0 0 0
0 0 0
0 0 0
0 0 0
0 0 0
0 0 0
0 0 0
0 0 0
0 0 0
0 0 0
0 0 0
0 0 0
0 0 0
0 0 0
0 0 0
0 0 0
0 0 0
0 0 0
0 0 0
0 0 0
0 0 0
0 0 0
0 0 0
0 0 0
0 0 0
0 0 0
0 0 0
0 0 0
0 0 0
0 0 0
0 0 0
0 0 0
0 0 0
0 0 0
0 0 0
0 0 0
0 0 0
0 0 0
0 0 0
0 0 0
0 0 0
0 0 0
0 0 0
0 0 0
0 0 0
0 0 0
0 0 0
0 0 0
0 0 0
0 0 0
0 0 0
0 0 0
0 0 0
0 0 0
0 0 0
0 0 0
0 0 0
0 0 0
0 0 0
0 0 0
0 0 0
0 0 0
0 0 0
0 0 0
0 0 0
0 0 0
0 0 0
0 0 0
0 0 0
0 0 0
0 0 0
0 0 0
0 0 0
0 0 0
0 0 0
0 0 0
0 0 0
0 0 0
0 0 0
0 0 0
0 0 0
0 0 0
0 0 0
0 0 0
0 0 0
0 0 0
0 0 0
0 0 0
0 0 0
0 0 0
0 0 0
0 0 0
0 0 0
0 0 0
0 0 0
0 0 0
0 0 0
0 0 0
0 0 0
0 0 0
0 0 0
0 0 0
0 0 0
0 0 0
0 0 0
0 0 0
0 0 0
0 0 0
0 0 0
0 0 0
0 0 0
0 0 0
0 0 0
0 0 0
0 0 0
0 0 0
0 0 0
0 0 0
0 0 0
0 0 0
0 0 0
0 0 0
0 0 0
0 0 0
0 0 0
0 0 0
0 0 0
0 0 0
0 0 0
0 0 0
0 0 0
0 0 0
0 0 0
0 0 0
0 0 0
0 0 0
0 0 0
0 0 0
0 0 0
0 0 0
0 0 0
0 0 0
0 0 0
0 0 0
0 0 0
0 0 0
0 0 0
0 0 0
0 0 0
0 0 0
0 0 0
0 0 0
0 0 0
0 0 0
0 0 0
0 0 0
0 0 0
0 0 0
0 0 0
0 0 0
0 0 0
0 0 0
0 0 0
0 0 0
0 0 0
0 0 0
0 0 0
0 0 0
0 0 0
0 0 0
0 0 0
0 0 0
0 0 0
0 0 0
0 0 0
0 0 0
0 0 0
0 0 0
0 0 0
0 0 0
0 0 0
0 0 0
0 0 0
0 0 0
0 0 0
0 0 0
0 0 0
0 0 0
0 0 0
0 0 0
0 0 0
0 0 0
0 0 0
0 0 0
0 0 0
0 0 0
0 0 0
0 0 0
0 0 0
0 0 0
0 0 0
0 0 0
0 0 0
0 0 0
0 0 0
0 0 0
0 0 0
0 0 0
0 0 0
0 0 0
0 0 0
0 0 0
0 0 0
0 0 0
0 0 0
0 0 0
0 0 0
0 0 0
0 0 0
0 0 0
0 0 0
0 0 0
0 0 0
0 0 0
0 0 0
0 0 0
0 0 0
0 0 0
0 0 0
0 0 0
0 0 0
0 0 0
0 0 0
0 0 0
0 0 0
0 0 0
0 0 0
0 0 0
0 0 0
0 0 0
0 0 0
0 0 0
0 0 0
0 0 0
0 0 0
0 0 0
0 0 0
0 0 0
0 0 0
0 0 0
0 0 0
0 0 0
0 0 0
0 0 0
0 0 0
0 0 0
0 0 0
0 0 0
0 0 0
0 0 0
0 0 0
0 0 0
0 0 0
0 0 0
0 0 0
0 0 0
0 0 0
0 0 0
0 0 0
0 0 0
0 0 0
0 0 0
0 0 0
0 0 0
0 0 0
0 0 0
0 0 0
0 0 0
0 0 0
0 0 0
0 0 0
0 0 0
0 0 0
0 0 0
0 0 0
0 0 0
0 0 0
0 0 0
0 0 0
0 0 0
0 0 0
0 0 0
0 0 0
0 0 0
0 0 0
0 0 0
0 0 0
0 0 0
0 0 0
0 0 0
0 0 0
0 0 0
0 0 0
0 0 0
0 0 0
0 0 0
0 0 0
0 0 0
0 0 0
0 0 0
0 0 0
0 0 0
0 0 0
0 0 0
0 0 0
0 0 0
0 0 0
0 0 0
0 0 0
0 0 0
0 0 0
0 0 0
0 0 0
0 0 0
0 0 0
0 0 0
0 0 0
0 0 0
0 0 0
0 0 0
0 0 0
0 0 0
0 0 0
0 0 0
0 0 0
0 0 0
0 0 0
0 0 0
0 0 0
0 0 0
0 0 0
0 0 0
0 0 0
0 0 0
0 0 0
0 0 0
0 0 0
0 0 0
0 0 0
0 0 0
0 0 0
0 0 0
0 0 0
0 0 0
0 0 0
0 0 0
0 0 0
0 0 0
0 0 0
0 0 0
0 0 0
0 0 0
0 0 0
0 0 0
0 0 0
0 0 0
0 0 0
0 0 0
0 0 0
0 0 0
0 0 0
0 0 0
0 0 0
0 0 0
0 0 0
0 0 0
0 0 0
0 0 0
0 0 0
0 0 0
0 0 0
0 0 0
0 0 0
0 0 0
0 0 0
0 0 0
0 0 0
0 0 0
0 0 0
0 0 0
0 0 0
0 0 0
0 0 0
0 0 0
0 0 0
0 0 0
0 0 0
0 0 0
0 0 0
0 0 0
0 0 0
0 0 0
0 0 0
0 0 0
0 0 0
0 0 0
0 0 0
0 0 0
0 0 0
0 0 0
0 0 0
0 0 0
0 0 0
0 0 0
0 0 0
0 0 0
0 0 0
0 0 0
0 0 0
0 0 0
0 0 0
0 0 0
0 0 0
0 0 0
0 0 0
0 0 0
0 0 0
0 0 0
0 0 0
0 0 0
0 0 0
0 0 0
0 0 0
0 0 0
0 0 0
0 0 0
0 0 0
0 0 0
0 0 0
0 0 0
0 0 0
0 0 0
0 0 0
0 0 0
0 0 0
0 0 0
0 0 0
0 0 0
0 0 0
0 0 0
0 0 0
0 0 0
0 0 0
0 0 0
0 0 0
0 0 0
0 0 0
0 0 0
0 0 0
0 0 0
0 0 0
0 0 0
0 0 0
0 0 0
0 0 0
0 0 0
0 0 0
0 0 0
0 0 0
0 0 0
0 0 0
0 0 0
0 0 0
0 0 0
0 0 0
0 0 0
0 0 0
0 0 0
0 0 0
0 0 0
0 0 0
0 0 0
0 0 0
0 0 0
0 0 0
0 0 0
0 0 0
0 0 0
0 0 0
0 0 0
0 0 0
0 0 0
0 0 0
0 0 0
0 0 0
0 0 0
0 0 0
0 0 0
0 0 0
0 0 0
0 0 0
0 0 0
0 0 0
0 0 0
0 0 0
0 0 0
0 0 0
0 0 0
0 0 0
0 0 0
0 0 0
0 0 0
0 0 0
0 0 0
0 0 0
0 0 0
0 0 0
0 0 0
0 0 0
0 0 0
0 0 0
0 0 0
0 0 0
0 0 0
0 0 0
0 0 0
0 0 0
0 0 0
0 0 0
0 0 0
0 0 0
0 0 0
0 0 0
0 0 0
0 0 0
0 0 0
0 0 0
0 0 0
0 0 0
0 0 0
0 0 0
0 0 0
0 0 0
0 0 0
0 0 0
0 0 0
0 0 0
0 0 0
0 0 0
0 0 0
0 0 0
0 0 0
0 0 0
0 0 0
0 0 0
0 0 0
0 0 0
0 0 0
0 0 0
0 0 0
0 0 0
0 0 0
0 0 0
0 0 0
0 0 0
0 0 0
0 0 0
0 0 0
0 0 0
0 0 0
0 0 0
0 0 0
0 0 0
0 0 0
0 0 0
0 0 0
0 0 0
0 0 0
0 0 0
0 0 0
0 0 0
0 0 0
0 0 0
0 0 0
0 0 0
0 0 0
0 0 0
0 0 0
0 0 0
0 0 0
0 0 0
0 0 0
0 0 0
0 0 0
0 0 0
0 0 0
0 0 0
0 0 0
0 0 0
0 0 0
0 0 0
0 0 0
0 0 0
0 0 0
0 0 0
0 0 0
0 0 0
0 0 0
0 0 0
0 0 0
0 0 0
0 0 0
0 0 0
0 0 0
0 0 0

CELL_DATA 2380
TENSORS stress float
0 0 0
0 0 0
0 0 0

0 0 0
0 0 0
0 0 0

0 0 0
0 0 0
0 0 0

0 0 0
0 0 0
0 0 0

0 0 0
0 0 0
0 0 0

0 0 0
0 0 0
0 0 0

0 0 0
0 0 0
0 0 0

0 0 0
0 0 0
0 0 0

0 0 0
0 0 0
0 0 0

0 0 0
0 0 0
0 0 0

0 0 0
0 0 0
0 0 0

0 0 0
0 0 0
0 0 0

0 0 0
0 0 0
0 0 0

0 0 0
0 0 0
0 0 0

0 0 0
0 0 0
0 0 0

0 0 0
0 0 0
0 0 0

0 0 0
0 0 0
0 0 0

0 0 0
0 0 0
0 0 0

0 0 0
0 0 0
0 0 0

0 0 0
0 0 0
0 0 0

0 0 0
0 0 0
0 0 0

0 0 0
0 0 0
0 0 0

0 0 0
0 0 0
0 0 0

0 0 0
0 0 0
0 0 0

0 0 0
0 0 0
0 0 0

0 0 0
0 0 0
0 0 0

0 0 0
0 0 0
0 0 0

0 0 0
0 0 0
0 0 0

0 0 0
0 0 0
0 0 0

0 0 0
0 0 0
0 0 0

0 0 0
0 0 0
0 0 0

0 0 0
0 0 0
0 0 0

0 0 0
0 0 0
0 0 0

0 0 0
0 0 0
0 0 0

0 0 0
0 0 0
0 0 0

0 0 0
0 0 0
0 0 0

0 0 0
0 0 0
0 0 0

0 0 0
0 0 0
0 0 0

0 0 0
0 0 0
0 0 0

0 0 0
0 0 0
0 0 0

0 0 0
0 0 0
0 0 0

0 0 0
0 0 0
0 0 0

0 0 0
0 0 0
0 0 0

0 0 0
0 0 0
0 0 0

0 0 0
0 0 0
0 0 0

0 0 0
0 0 0
0 0 0

0 0 0
0 0 0
0 0 0

0 0 0
0 0 0
0 0 0

0 0 0
0 0 0
0 0 0

0 0 0
0 0 0
0 0 0

0 0 0
0 0 0
0 0 0

0 0 0
0 0 0
0 0 0

0 0 0
0 0 0
0 0 0

0 0 0
0 0 0
0 0 0

0 0 0
0 0 0
0 0 0

0 0 0
0 0 0
0 0 0

0 0 0
0 0 0
0 0 0

0 0 0
0 0 0
0 0 0

0 0 0
0 0 0
0 0 0

0 0 0
0 0 0
0 0 0

0 0 0
0 0 0
0 0 0

0 0 0
0 0 0
0 0 0

0 0 0
0 0 0
0 0 0

0 0 0
0 0 0
0 0 0

0 0 0
0 0 0
0 0 0

0 0 0
0 0 0
0 0 0

0 0 0
0 0 0
0 0 0

0 0 0
0 0 0
0 0 0

0 0 0
0 0 0
0 0 0

0 0 0
0 0 0
0 0 0

0 0 0
0 0 0
0 0 0

0 0 0
0 0 0
0 0 0

0 0 0
0 0 0
0 0 0

0 0 0
0 0 0
0 0 0

0 0 0
0 0 0
0 0 0

0 0 0
0 0 0
0 0 0

0 0 0
0 0 0
0 0 0

0 0 0
0 0 0
0 0 0

0 0 0
0 0 0
0 0 0

0 0 0
0 0 0
0 0 0

0 0 0
0 0 0
0 0 0

0 0 0
0 0 0
0 0 0

0 0 0
0 0 0
0 0 0

0 0 0
0 0 0
0 0 0

0 0 0
0 0 0
0 0 0

0 0 0
0 0 0
0 0 0

0 0 0
0 0 0
0 0 0

0 0 0
0 0 0
0 0 0

0 0 0
0 0 0
0 0 0

0 0 0
0 0 0
0 0 0

0 0 0
0 0 0
0 0 0

0 0 0
0 0 0
0 0 0

0 0 0
0 0 0
0 0 0

0 0 0
0 0 0
0 0 0

0 0 0
0 0 0
0 0 0

0 0 0
0 0 0
0 0 0

0 0 0
0 0 0
0 0 0

0 0 0
0 0 0
0 0 0

0 0 0
0 0 0
0 0 0

0 0 0
0 0 0
0 0 0

0 0 0
0 0 0
0 0 0

0 0 0
0 0 0
0 0 0

0 0 0
0 0 0
0 0 0

0 0 0
0 0 0
0 0 0

0 0 0
0 0 0
0 0 0

0 0 0
0 0 0
0 0 0

0 0 0
0 0 0
0 0 0

0 0 0
0 0 0
0 0 0

0 0 0
0 0 0
0 0 0

0 0 0
0 0 0
0 0 0

0 0 0
0 0 0
0 0 0

0 0 0
0 0 0
0 0 0

0 0 0
0 0 0
0 0 0

0 0 0
0 0 0
0 0 0

0 0 0
0 0 0
0 0 0

0 0 0
0 0 0
0 0 0

0 0 0
0 0 0
0 0 0

0 0 0
0 0 0
0 0 0

0 0 0
0 0 0
0 0 0

0 0 0
0 0 0
0 0 0

0 0 0
0 0 0
0 0 0

0 0 0
0 0 0
0 0 0

0 0 0
0 0 0
0 0 0

0 0 0
0 0 0
0 0 0

0 0 0
0 0 0
0 0 0

0 0 0
0 0 0
0 0 0

0 0 0
0 0 0
0 0 0

0 0 0
0 0 0
0 0 0

0 0 0
0 0 0
0 0 0

0 0 0
0 0 0
0 0 0

0 0 0
0 0 0
0 0 0

0 0 0
0 0 0
0 0 0

0 0 0
0 0 0
0 0 0

0 0 0
0 0 0
0 0 0

0 0 0
0 0 0
0 0 0

0 0 0
0 0 0
0 0 0

0 0 0
0 0 0
0 0 0

0 0 0
0 0 0
0 0 0

0 0 0
0 0 0
0 0 0

0 0 0
0 0 0
0 0 0

0 0 0
0 0 0
0 0 0

0 0 0
0 0 0
0 0 0

0 0 0
0 0 0
0 0 0

0 0 0
0 0 0
0 0 0

0 0 0
0 0 0
0 0 0

0 0 0
0 0 0
0 0 0

0 0 0
0 0 0
0 0 0

0 0 0
0 0 0
0 0 0

0 0 0
0 0 0
0 0 0

0 0 0
0 0 0
0 0 0

0 0 0
0 0 0
0 0 0

0 0 0
0 0 0
0 0 0

0 0 0
0 0 0
0 0 0

0 0 0
0 0 0
0 0 0

0 0 0
0 0 0
0 0 0

0 0 0
0 0 0
0 0 0

0 0 0
0 0 0
0 0 0

0 0 0
0 0 0
0 0 0

0 0 0
0 0 0
0 0 0

0 0 0
0 0 0
0 0 0

0 0 0
0 0 0
0 0 0

0 0 0
0 0 0
0 0 0

0 0 0
0 0 0
0 0 0

0 0 0
0 0 0
0 0 0

0 0 0
0 0 0
0 0 0

0 0 0
0 0 0
0 0 0

0 0 0
0 0 0
0 0 0

0 0 0
0 0 0
0 0 0

0 0 0
0 0 0
0 0 0

0 0 0
0 0 0
0 0 0

0 0 0
0 0 0
0 0 0

0 0 0
0 0 0
0 0 0

0 0 0
0 0 0
0 0 0

0 0 0
0 0 0
0 0 0

0 0 0
0 0 0
0 0 0

0 0 0
0 0 0
0 0 0

0 0 0
0 0 0
0 0 0

0 0 0
0 0 0
0 0 0

0 0 0
0 0 0
0 0 0

0 0 0
0 0 0
0 0 0

0 0 0
0 0 0
0 0 0

0 0 0
0 0 0
0 0 0

0 0 0
0 0 0
0 0 0

0 0 0
0 0 0
0 0 0

0 0 0
0 0 0
0 0 0

0 0 0
0 0 0
0 0 0

0 0 0
0 0 0
0 0 0

0 0 0
0 0 0
0 0 0

0 0 0
0 0 0
0 0 0

0 0 0
0 0 0
0 0 0

0 0 0
0 0 0
0 0 0

0 0 0
0 0 0
0 0 0

0 0 0
0 0 0
0 0 0

0 0 0
0 0 0
0 0 0

0 0 0
0 0 0
0 0 0

0 0 0
0 0 0
0 0 0

0 0 0
0 0 0
0 0 0

0 0 0
0 0 0
0 0 0

0 0 0
0 0 0
0 0 0

0 0 0
0 0 0
0 0 0

0 0 0
0 0 0
0 0 0

0 0 0
0 0 0
0 0 0

0 0 0
0 0 0
0 0 0

0 0 0
0 0 0
0 0 0

0 0 0
0 0 0
0 0 0

0 0 0
0 0 0
0 0 0

0 0 0
0 0 0
0 0 0

0 0 0
0 0 0
0 0 0

0 0 0
0 0 0
0 0 0

0 0 0
0 0 0
0 0 0

0 0 0
0 0 0
0 0 0

0 0 0
0 0 0
0 0 0

0 0 0
0 0 0
0 0 0

0 0 0
0 0 0
0 0 0

0 0 0
0 0 0
0 0 0

0 0 0
0 0 0
0 0 0

0 0 0
0 0 0
0 0 0

0 0 0
0 0 0
0 0 0

0 0 0
0 0 0
0 0 0

0 0 0
0 0 0
0 0 0

0 0 0
0 0 0
0 0 0

0 0 0
0 0 0
0 0 0

0 0 0
0 0 0
0 0 0

0 0 0
0 0 0
0 0 0

0 0 0
0 0 0
0 0 0

0 0 0
0 0 0
0 0 0

0 0 0
0 0 0
0 0 0

0 0 0
0 0 0
0 0 0

0 0 0
0 0 0
0 0 0

0 0 0
0 0 0
0 0 0

0 0 0
0 0 0
0 0 0

0 0 0
0 0 0
0 0 0

0 0 0
0 0 0
0 0 0

0 0 0
0 0 0
0 0 0

0 0 0
0 0 0
0 0 0

0 0 0
0 0 0
0 0 0

0 0 0
0 0 0
0 0 0

0 0 0
0 0 0
0 0 0

0 0 0
0 0 0
0 0 0

0 0 0
0 0 0
0 0 0

0 0 0
0 0 0
0 0 0

0 0 0
0 0 0
0 0 0

0 0 0
0 0 0
0 0 0

0 0 0
0 0 0
0 0 0

0 0 0
0 0 0
0 0 0

0 0 0
0 0 0
0 0 0

0 0 0
0 0 0
0 0 0

0 0 0
0 0 0
0 0 0

0 0 0
0 0 0
0 0 0

0 0 0
0 0 0
0 0 0

0 0 0
0 0 0
0 0 0

0 0 0
0 0 0
0 0 0

0 0 0
0 0 0
0 0 0

0 0 0
0 0 0
0 0 0

0 0 0
0 0 0
0 0 0

0 0 0
0 0 0
0 0 0

0 0 0
0 0 0
0 0 0

0 0 0
0 0 0
0 0 0

0 0 0
0 0 0
0 0 0

0 0 0
0 0 0
0 0 0

0 0 0
0 0 0
0 0 0

0 0 0
0 0 0
0 0 0

0 0 0
0 0 0
0 0 0

0 0 0
0 0 0
0 0 0

0 0 0
0 0 0
0 0 0

0 0 0
0 0 0
0 0 0

0 0 0
0 0 0
0 0 0

0 0 0
0 0 0
0 0 0

0 0 0
0 0 0
0 0 0

0 0 0
0 0 0
0 0 0

0 0 0
0 0 0
0 0 0

0 0 0
0 0 0
0 0 0

0 0 0
0 0 0
0 0 0

0 0 0
0 0 0
0 0 0

0 0 0
0 0 0
0 0 0

0 0 0
0 0 0
0 0 0

0 0 0
0 0 0
0 0 0

0 0 0
0 0 0
0 0 0

0 0 0
0 0 0
0 0 0

0 0 0
0 0 0
0 0 0

0 0 0
0 0 0
0 0 0

0 0 0
0 0 0
0 0 0

0 0 0
0 0 0
0 0 0

0 0 0
0 0 0
0 0 0

0 0 0
0 0 0
0 0 0

0 0 0
0 0 0
0 0 0

0 0 0
0 0 0
0 0 0

0 0 0
0 0 0
0 0 0

0 0 0
0 0 0
0 0 0

0 0 0
0 0 0
0 0 0

0 0 0
0 0 0
0 0 0

0 0 0
0 0 0
0 0 0

0 0 0
0 0 0
0 0 0

0 0 0
0 0 0
0 0 0

0 0 0
0 0 0
0 0 0

0 0 0
0 0 0
0 0 0

0 0 0
0 0 0
0 0 0

0 0 0
0 0 0
0 0 0

0 0 0
0 0 0
0 0 0

0 0 0
0 0 0
0 0 0

0 0 0
0 0 0
0 0 0

0 0 0
0 0 0
0 0 0

0 0 0
0 0 0
0 0 0

0 0 0
0 0 0
0 0 0

0 0 0
0 0 0
0 0 0

0 0 0
0 0 0
0 0 0

0 0 0
0 0 0
0 0 0

0 0 0
0 0 0
0 0 0

0 0 0
0 0 0
0 0 0

0 0 0
0 0 0
0 0 0

0 0 0
0 0 0
0 0 0

0 0 0
0 0 0
0 0 0

0 0 0
0 0 0
0 0 0

0 0 0
0 0 0
0 0 0

0 0 0
0 0 0
0 0 0

0 0 0
0 0 0
0 0 0

0 0 0
0 0 0
0 0 0

0 0 0
0 0 0
0 0 0

0 0 0
0 0 0
0 0 0

0 0 0
0 0 0
0 0 0

0 0 0
0 0 0
0 0 0

0 0 0
0 0 0
0 0 0

0 0 0
0 0 0
0 0 0

0 0 0
0 0 0
0 0 0

0 0 0
0 0 0
0 0 0

0 0 0
0 0 0
0 0 0

0 0 0
0 0 0
0 0 0

0 0 0
0 0 0
0 0 0

0 0 0
0 0 0
0 0 0

0 0 0
0 0 0
0 0 0

0 0 0
0 0 0
0 0 0

0 0 0
0 0 0
0 0 0

0 0 0
0 0 0
0 0 0

0 0 0
0 0 0
0 0 0

0 0 0
0 0 0
0 0 0

0 0 0
0 0 0
0 0 0

0 0 0
0 0 0
0 0 0

0 0 0
0 0 0
0 0 0

0 0 0
0 0 0
0 0 0

0 0 0
0 0 0
0 0 0

0 0 0
0 0 0
0 0 0

0 0 0
0 0 0
0 0 0

0 0 0
0 0 0
0 0 0

0 0 0
0 0 0
0 0 0

0 0 0
0 0 0
0 0 0

0 0 0
0 0 0
0 0 0

0 0 0
0 0 0
0 0 0

0 0 0
0 0 0
0 0 0

0 0 0
0 0 0
0 0 0

0 0 0
0 0 0
0 0 0

0 0 0
0 0 0
0 0 0

0 0 0
0 0 0
0 0 0

0 0 0
0 0 0
0 0 0

0 0 0
0 0 0
0 0 0

0 0 0
0 0 0
0 0 0

0 0 0
0 0 0
0 0 0

0 0 0
0 0 0
0 0 0

0 0 0
0 0 0
0 0 0

0 0 0
0 0 0
0 0 0

0 0 0
0 0 0
0 0 0

0 0 0
0 0 0
0 0 0

0 0 0
0 0 0
0 0 0

0 0 0
0 0 0
0 0 0

0 0 0
0 0 0
0 0 0

0 0 0
0 0 0
0 0 0

0 0 0
0 0 0
0 0 0

0 0 0
0 0 0
0 0 0

0 0 0
0 0 0
0 0 0

0 0 0
0 0 0
0 0 0

0 0 0
0 0 0
0 0 0

0 0 0
0 0 0
0 0 0

0 0 0
0 0 0
0 0 0

0 0 0
0 0 0
0 0 0

0 0 0
0 0 0
0 0 0

0 0 0
0 0 0
0 0 0

0 0 0
0 0 0
0 0 0

0 0 0
0 0 0
0 0 0

0 0 0
0 0 0
0 0 0

0 0 0
0 0 0
0 0 0

0 0 0
0 0 0
0 0 0

0 0 0
0 0 0
0 0 0

0 0 0
0 0 0
0 0 0

0 0 0
0 0 0
0 0 0

0 0 0
0 0 0
0 0 0

0 0 0
0 0 0
0 0 0

0 0 0
0 0 0
0 0 0

0 0 0
0 0 0
0 0 0

0 0 0
0 0 0
0 0 0

0 0 0
0 0 0
0 0 0

0 0 0
0 0 0
0 0 0

0 0 0
0 0 0
0 0 0

0 0 0
0 0 0
0 0 0

0 0 0
0 0 0
0 0 0

0 0 0
0 0 0
0 0 0

0 0 0
0 0 0
0 0 0

0 0 0
0 0 0
0 0 0

0 0 0
0 0 0
0 0 0

0 0 0
0 0 0
0 0 0

0 0 0
0 0 0
0 0 0

0 0 0
0 0 0
0 0 0

0 0 0
0 0 0
0 0 0

0 0 0
0 0 0
0 0 0

0 0 0
0 0 0
0 0 0

0 0 0
0 0 0
0 0 0

0 0 0
0 0 0
0 0 0

0 0 0
0 0 0
0 0 0

0 0 0
0 0 0
0 0 0

0 0 0
0 0 0
0 0 0

0 0 0
0 0 0
0 0 0

0 0 0
0 0 0
0 0 0

0 0 0
0 0 0
0 0 0

0 0 0
0 0 0
0 0 0

0 0 0
0 0 0
0 0 0

0 0 0
0 0 0
0 0 0

0 0 0
0 0 0
0 0 0

0 0 0
0 0 0
0 0 0

0 0 0
0 0 0
0 0 0

0 0 0
0 0 0
0 0 0

0 0 0
0 0 0
0 0 0

0 0 0
0 0 0
0 0 0

0 0 0
0 0 0
0 0 0

0 0 0
0 0 0
0 0 0

0 0 0
0 0 0
0 0 0

0 0 0
0 0 0
0 0 0

0 0 0
0 0 0
0 0 0

0 0 0
0 0 0
0 0 0

0 0 0
0 0 0
0 0 0

0 0 0
0 0 0
0 0 0

0 0 0
0 0 0
0 0 0

0 0 0
0 0 0
0 0 0

0 0 0
0 0 0
0 0 0

0 0 0
0 0 0
0 0 0

0 0 0
0 0 0
0 0 0

0 0 0
0 0 0
0 0 0

0 0 0
0 0 0
0 0 0

0 0 0
0 0 0
0 0 0

0 0 0
0 0 0
0 0 0

0 0 0
0 0 0
0 0 0

0 0 0
0 0 0
0 0 0

0 0 0
0 0 0
0 0 0

0 0 0
0 0 0
0 0 0

0 0 0
0 0 0
0 0 0

0 0 0
0 0 0
0 0 0

0 0 0
0 0 0
0 0 0

0 0 0
0 0 0
0 0 0

0 0 0
0 0 0
0 0 0

0 0 0
0 0 0
0 0 0

0 0 0
0 0 0
0 0 0

0 0 0
0 0 0
0 0 0

0 0 0
0 0 0
0 0 0

0 0 0
0 0 0
0 0 0

0 0 0
0 0 0
0 0 0

0 0 0
0 0 0
0 0 0

0 0 0
0 0 0
0 0 0

0 0 0
0 0 0
0 0 0

0 0 0
0 0 0
0 0 0

0 0 0
0 0 0
0 0 0

0 0 0
0 0 0
0 0 0

0 0 0
0 0 0
0 0 0

0 0 0
0 0 0
0 0 0

0 0 0
0 0 0
0 0 0

0 0 0
0 0 0
0 0 0

0 0 0
0 0 0
0 0 0

0 0 0
0 0 0
0 0 0

0 0 0
0 0 0
0 0 0

0 0 0
0 0 0
0 0 0

0 0 0
0 0 0
0 0 0

0 0 0
0 0 0
0 0 0

0 0 0
0 0 0
0 0 0

0 0 0
0 0 0
0 0 0

0 0 0
0 0 0
0 0 0

0 0 0
0 0 0
0 0 0

0 0 0
0 0 0
0 0 0

0 0 0
0 0 0
0 0 0

0 0 0
0 0 0
0 0 0

0 0 0
0 0 0
0 0 0

0 0 0
0 0 0
0 0 0

0 0 0
0 0 0
0 0 0

0 0 0
0 0 0
0 0 0

0 0 0
0 0 0
0 0 0

0 0 0
0 0 0
0 0 0

0 0 0
0 0 0
0 0 0

0 0 0
0 0 0
0 0 0

0 0 0
0 0 0
0 0 0

0 0 0
0 0 0
0 0 0

0 0 0
0 0 0
0 0 0

0 0 0
0 0 0
0 0 0

0 0 0
0 0 0
0 0 0

0 0 0
0 0 0
0 0 0

0 0 0
0 0 0
0 0 0

0 0 0
0 0 0
0 0 0

0 0 0
0 0 0
0 0 0

0 0 0
0 0 0
0 0 0

0 0 0
0 0 0
0 0 0

0 0 0
0 0 0
0 0 0

0 0 0
0 0 0
0 0 0

0 0 0
0 0 0
0 0 0

0 0 0
0 0 0
0 0 0

0 0 0
0 0 0
0 0 0

0 0 0
0 0 0
0 0 0

0 0 0
0 0 0
0 0 0

0 0 0
0 0 0
0 0 0

0 0 0
0 0 0
0 0 0

0 0 0
0 0 0
0 0 0

0 0 0
0 0 0
0 0 0

0 0 0
0 0 0
0 0 0

0 0 0
0 0 0
0 0 0

0 0 0
0 0 0
0 0 0

0 0 0
0 0 0
0 0 0

0 0 0
0 0 0
0 0 0

0 0 0
0 0 0
0 0 0

0 0 0
0 0 0
0 0 0

0 0 0
0 0 0
0 0 0

0 0 0
0 0 0
0 0 0

0 0 0
0 0 0
0 0 0

0 0 0
0 0 0
0 0 0

0 0 0
0 0 0
0 0 0

0 0 0
0 0 0
0 0 0

0 0 0
0 0 0
0 0 0

0 0 0
0 0 0
0 0 0

0 0 0
0 0 0
0 0 0

0 0 0
0 0 0
0 0 0

0 0 0
0 0 0
0 0 0

0 0 0
0 0 0
0 0 0

0 0 0
0 0 0
0 0 0

0 0 0
0 0 0
0 0 0

0 0 0
0 0 0
0 0 0

0 0 0
0 0 0
0 0 0

0 0 0
0 0 0
0 0 0

0 0 0
0 0 0
0 0 0

0 0 0
0 0 0
0 0 0

0 0 0
0 0 0
0 0 0

0 0 0
0 0 0
0 0 0

0 0 0
0 0 0
0 0 0

0 0 0
0 0 0
0 0 0

0 0 0
0 0 0
0 0 0

0 0 0
0 0 0
0 0 0

0 0 0
0 0 0
0 0 0

0 0 0
0 0 0
0 0 0

0 0 0
0 0 0
0 0 0

0 0 0
0 0 0
0 0 0

0 0 0
0 0 0
0 0 0

0 0 0
0 0 0
0 0 0

0 0 0
0 0 0
0 0 0

0 0 0
0 0 0
0 0 0

0 0 0
0 0 0
0 0 0

0 0 0
0 0 0
0 0 0

0 0 0
0 0 0
0 0 0

0 0 0
0 0 0
0 0 0

0 0 0
0 0 0
0 0 0

0 0 0
0 0 0
0 0 0

0 0 0
0 0 0
0 0 0

0 0 0
0 0 0
0 0 0

0 0 0
0 0 0
0 0 0

0 0 0
0 0 0
0 0 0

0 0 0
0 0 0
0 0 0

0 0 0
0 0 0
0 0 0

0 0 0
0 0 0
0 0 0

0 0 0
0 0 0
0 0 0

0 0 0
0 0 0
0 0 0

0 0 0
0 0 0
0 0 0

0 0 0
0 0 0
0 0 0

0 0 0
0 0 0
0 0 0

0 0 0
0 0 0
0 0 0

0 0 0
0 0 0
0 0 0

0 0 0
0 0 0
0 0 0

0 0 0
0 0 0
0 0 0

0 0 0
0 0 0
0 0 0

0 0 0
0 0 0
0 0 0

0 0 0
0 0 0
0 0 0

0 0 0
0 0 0
0 0 0

0 0 0
0 0 0
0 0 0

0 0 0
0 0 0
0 0 0

0 0 0
0 0 0
0 0 0

0 0 0
0 0 0
0 0 0

0 0 0
0 0 0
0 0 0

0 0 0
0 0 0
0 0 0

0 0 0
0 0 0
0 0 0

0 0 0
0 0 0
0 0 0

0 0 0
0 0 0
0 0 0

0 0 0
0 0 0
0 0 0

0 0 0
0 0 0
0 0 0

0 0 0
0 0 0
0 0 0

0 0 0
0 0 0
0 0 0

0 0 0
0 0 0
0 0 0

0 0 0
0 0 0
0 0 0

0 0 0
0 0 0
0 0 0

0 0 0
0 0 0
0 0 0

0 0 0
0 0 0
0 0 0

0 0 0
0 0 0
0 0 0

0 0 0
0 0 0
0 0 0

0 0 0
0 0 0
0 0 0

0 0 0
0 0 0
0 0 0

0 0 0
0 0 0
0 0 0

0 0 0
0 0 0
0 0 0

0 0 0
0 0 0
0 0 0

0 0 0
0 0 0
0 0 0

0 0 0
0 0 0
0 0 0

0 0 0
0 0 0
0 0 0

0 0 0
0 0 0
0 0 0

0 0 0
0 0 0
0 0 0

0 0 0
0 0 0
0 0 0

0 0 0
0 0 0
0 0 0

0 0 0
0 0 0
0 0 0

0 0 0
0 0 0
0 0 0

0 0 0
0 0 0
0 0 0

0 0 0
0 0 0
0 0 0

0 0 0
0 0 0
0 0 0

0 0 0
0 0 0
0 0 0

0 0 0
0 0 0
0 0 0

0 0 0
0 0 0
0 0 0

0 0 0
0 0 0
0 0 0

0 0 0
0 0 0
0 0 0

0 0 0
0 0 0
0 0 0

0 0 0
0 0 0
0 0 0

0 0 0
0 0 0
0 0 0

0 0 0
0 0 0
0 0 0

0 0 0
0 0 0
0 0 0

0 0 0
0 0 0
0 0 0

0 0 0
0 0 0
0 0 0

0 0 0
0 0 0
0 0 0

0 0 0
0 0 0
0 0 0

0 0 0
0 0 0
0 0 0

0 0 0
0 0 0
0 0 0

0 0 0
0 0 0
0 0 0

0 0 0
0 0 0
0 0 0

0 0 0
0 0 0
0 0 0

0 0 0
0 0 0
0 0 0

0 0 0
0 0 0
0 0 0

0 0 0
0 0 0
0 0 0

0 0 0
0 0 0
0 0 0

0 0 0
0 0 0
0 0 0

0 0 0
0 0 0
0 0 0

0 0 0
0 0 0
0 0 0

0 0 0
0 0 0
0 0 0

0 0 0
0 0 0
0 0 0

0 0 0
0 0 0
0 0 0

0 0 0
0 0 0
0 0 0

0 0 0
0 0 0
0 0 0

0 0 0
0 0 0
0 0 0

0 0 0
0 0 0
0 0 0

0 0 0
0 0 0
0 0 0

0 0 0
0 0 0
0 0 0

0 0 0
0 0 0
0 0 0

0 0 0
0 0 0
0 0 0

0 0 0
0 0 0
0 0 0

0 0 0
0 0 0
0 0 0

0 0 0
0 0 0
0 0 0

0 0 0
0 0 0
0 0 0

0 0 0
0 0 0
0 0 0

0 0 0
0 0 0
0 0 0

0 0 0
0 0 0
0 0 0

0 0 0
0 0 0
0 0 0

0 0 0
0 0 0
0 0 0

0 0 0
0 0 0
0 0 0

0 0 0
0 0 0
0 0 0

0 0 0
0 0 0
0 0 0

0 0 0
0 0 0
0 0 0

0 0 0
0 0 0
0 0 0

0 0 0
0 0 0
0 0 0

0 0 0
0 0 0
0 0 0

0 0 0
0 0 0
0 0 0

0 0 0
0 0 0
0 0 0

0 0 0
0 0 0
0 0 0

0 0 0
0 0 0
0 0 0

0 0 0
0 0 0
0 0 0

0 0 0
0 0 0
0 0 0

0 0 0
0 0 0
0 0 0

0 0 0
0 0 0
0 0 0

0 0 0
0 0 0
0 0 0

0 0 0
0 0 0
0 0 0

0 0 0
0 0 0
0 0 0

0 0 0
0 0 0
0 0 0

0 0 0
0 0 0
0 0 0

0 0 0
0 0 0
0 0 0

0 0 0
0 0 0
0 0 0

0 0 0
0 0 0
0 0 0

0 0 0
0 0 0
0 0 0

0 0 0
0 0 0
0 0 0

0 0 0
0 0 0
0 0 0

0 0 0
0 0 0
0 0 0

0 0 0
0 0 0
0 0 0

0 0 0
0 0 0
0 0 0

0 0 0
0 0 0
0 0 0

0 0 0
0 0 0
0 0 0

0 0 0
0 0 0
0 0 0

0 0 0
0 0 0
0 0 0

0 0 0
0 0 0
0 0 0

0 0 0
0 0 0
0 0 0

0 0 0
0 0 0
0 0 0

0 0 0
0 0 0
0 0 0

0 0 0
0 0 0
0 0 0

0 0 0
0 0 0
0 0 0

0 0 0
0 0 0
0 0 0

0 0 0
0 0 0
0 0 0

0 0 0
0 0 0
0 0 0

0 0 0
0 0 0
0 0 0

0 0 0
0 0 0
0 0 0

0 0 0
0 0 0
0 0 0

0 0 0
0 0 0
0 0 0

0 0 0
0 0 0
0 0 0

0 0 0
0 0 0
0 0 0

0 0 0
0 0 0
0 0 0

0 0 0
0 0 0
0 0 0

0 0 0
0 0 0
0 0 0

0 0 0
0 0 0
0 0 0

0 0 0
0 0 0
0 0 0

0 0 0
0 0 0
0 0 0

0 0 0
0 0 0
0 0 0

0 0 0
0 0 0
0 0 0

0 0 0
0 0 0
0 0 0

0 0 0
0 0 0
0 0 0

0 0 0
0 0 0
0 0 0

0 0 0
0 0 0
0 0 0

0 0 0
0 0 0
0 0 0

0 0 0
0 0 0
0 0 0

0 0 0
0 0 0
0 0 0

0 0 0
0 0 0
0 0 0

0 0 0
0 0 0
0 0 0

0 0 0
0 0 0
0 0 0

0 0 0
0 0 0
0 0 0

0 0 0
0 0 0
0 0 0

0 0 0
0 0 0
0 0 0

0 0 0
0 0 0
0 0 0

0 0 0
0 0 0
0 0 0

0 0 0
0 0 0
0 0 0

0 0 0
0 0 0
0 0 0

0 0 0
0 0 0
0 0 0

0 0 0
0 0 0
0 0 0

0 0 0
0 0 0
0 0 0

0 0 0
0 0 0
0 0 0

0 0 0
0 0 0
0 0 0

0 0 0
0 0 0
0 0 0

0 0 0
0 0 0
0 0 0

0 0 0
0 0 0
0 0 0

0 0 0
0 0 0
0 0 0

0 0 0
0 0 0
0 0 0

0 0 0
0 0 0
0 0 0

0 0 0
0 0 0
0 0 0

0 0 0
0 0 0
0 0 0

0 0 0
0 0 0
0 0 0

0 0 0
0 0 0
0 0 0

0 0 0
0 0 0
0 0 0

0 0 0
0 0 0
0 0 0

0 0 0
0 0 0
0 0 0

0 0 0
0 0 0
0 0 0

0 0 0
0 0 0
0 0 0

0 0 0
0 0 0
0 0 0

0 0 0
0 0 0
0 0 0

0 0 0
0 0 0
0 0 0

0 0 0
0 0 0
0 0 0

0 0 0
0 0 0
0 0 0

0 0 0
0 0 0
0 0 0

0 0 0
0 0 0
0 0 0

0 0 0
0 0 0
0 0 0

0 0 0
0 0 0
0 0 0

0 0 0
0 0 0
0 0 0

0 0 0
0 0 0
0 0 0

0 0 0
0 0 0
0 0 0

0 0 0
0 0 0
0 0 0

0 0 0
0 0 0
0 0 0

0 0 0
0 0 0
0 0 0

0 0 0
0 0 0
0 0 0

0 0 0
0 0 0
0 0 0

0 0 0
0 0 0
0 0 0

0 0 0
0 0 0
0 0 0

0 0 0
0 0 0
0 0 0

0 0 0
0 0 0
0 0 0

0 0 0
0 0 0
0 0 0

0 0 0
0 0 0
0 0 0

0 0 0
0 0 0
0 0 0

0 0 0
0 0 0
0 0 0

0 0 0
0 0 0
0 0 0

0 0 0
0 0 0
0 0 0

0 0 0
0 0 0
0 0 0

0 0 0
0 0 0
0 0 0

0 0 0
0 0 0
0 0 0

0 0 0
0 0 0
0 0 0

0 0 0
0 0 0
0 0 0

0 0 0
0 0 0
0 0 0

0 0 0
0 0 0
0 0 0

0 0 0
0 0 0
0 0 0

0 0 0
0 0 0
0 0 0

0 0 0
0 0 0
0 0 0

0 0 0
0 0 0
0 0 0

0 0 0
0 0 0
0 0 0

0 0 0
0 0 0
0 0 0

0 0 0
0 0 0
0 0 0

0 0 0
0 0 0
0 0 0

0 0 0
0 0 0
0 0 0

0 0 0
0 0 0
0 0 0

0 0 0
0 0 0
0 0 0

0 0 0
0 0 0
0 0 0

0 0 0
0 0 0
0 0 0

0 0 0
0 0 0
0 0 0

0 0 0
0 0 0
0 0 0

0 0 0
0 0 0
0 0 0

0 0 0
0 0 0
0 0 0

0 0 0
0 0 0
0 0 0

0 0 0
0 0 0
0 0 0

0 0 0
0 0 0
0 0 0

0 0 0
0 0 0
0 0 0

0 0 0
0 0 0
0 0 0

0 0 0
0 0 0
0 0 0

0 0 0
0 0 0
0 0 0

0 0 0
0 0 0
0 0 0

0 0 0
0 0 0
0 0 0

0 0 0
0 0 0
0 0 0

0 0 0
0 0 0
0 0 0

0 0 0
0 0 0
0 0 0

0 0 0
0 0 0
0 0 0

0 0 0
0 0 0
0 0 0

0 0 0
0 0 0
0 0 0

0 0 0
0 0 0
0 0 0

0 0 0
0 0 0
0 0 0

0 0 0
0 0 0
0 0 0

0 0 0
0 0 0
0 0 0

0 0 0
0 0 0
0 0 0

0 0 0
0 0 0
0 0 0

0 0 0
0 0 0
0 0 0

0 0 0
0 0 0
0 0 0

0 0 0
0 0 0
0 0 0

0 0 0
0 0 0
0 0 0

0 0 0
0 0 0
0 0 0

0 0 0
0 0 0
0 0 0

0 0 0
0 0 0
0 0 0

0 0 0
0 0 0
0 0 0

0 0 0
0 0 0
0 0 0

0 0 0
0 0 0
0 0 0

0 0 0
0 0 0
0 0 0

0 0 0
0 0 0
0 0 0

0 0 0
0 0 0
0 0 0

0 0 0
0 0 0
0 0 0

0 0 0
0 0 0
0 0 0

0 0 0
0 0 0
0 0 0

0 0 0
0 0 0
0 0 0

0 0 0
0 0 0
0 0 0

0 0 0
0 0 0
0 0 0

0 0 0
0 0 0
0 0 0

0 0 0
0 0 0
0 0 0

0 0 0
0 0 0
0 0 0

0 0 0
0 0 0
0 0 0

0 0 0
0 0 0
0 0 0

0 0 0
0 0 0
0 0 0

0 0 0
0 0 0
0 0 0

0 0 0
0 0 0
0 0 0

0 0 0
0 0 0
0 0 0

0 0 0
0 0 0
0 0 0

0 0 0
0 0 0
0 0 0

0 0 0
0 0 0
0 0 0

0 0 0
0 0 0
0 0 0

0 0 0
0 0 0
0 0 0

0 0 0
0 0 0
0 0 0

0 0 0
0 0 0
0 0 0

0 0 0
0 0 0
0 0 0

0 0 0
0 0 0
0 0 0

0 0 0
0 0 0
0 0 0

0 0 0
0 0 0
0 0 0

0 0 0
0 0 0
0 0 0

0 0 0
0 0 0
0 0 0

0 0 0
0 0 0
0 0 0

0 0 0
0 0 0
0 0 0

0 0 0
0 0 0
0 0 0

0 0 0
0 0 0
0 0 0

0 0 0
0 0 0
0 0 0

0 0 0
0 0 0
0 0 0

0 0 0
0 0 0
0 0 0

0 0 0
0 0 0
0 0 0

0 0 0
0 0 0
0 0 0

0 0 0
0 0 0
0 0 0

0 0 0
0 0 0
0 0 0

0 0 0
0 0 0
0 0 0

0 0 0
0 0 0
0 0 0

0 0 0
0 0 0
0 0 0

0 0 0
0 0 0
0 0 0

0 0 0
0 0 0
0 0 0

0 0 0
0 0 0
0 0 0

0 0 0
0 0 0
0 0 0

0 0 0
0 0 0
0 0 0

0 0 0
0 0 0
0 0 0

0 0 0
0 0 0
0 0 0

0 0 0
0 0 0
0 0 0

0 0 0
0 0 0
0 0 0

0 0 0
0 0 0
0 0 0

0 0 0
0 0 0
0 0 0

0 0 0
0 0 0
0 0 0

0 0 0
0 0 0
0 0 0

0 0 0
0 0 0
0 0 0

0 0 0
0 0 0
0 0 0

0 0 0
0 0 0
0 0 0

0 0 0
0 0 0
0 0 0

0 0 0
0 0 0
0 0 0

0 0 0
0 0 0
0 0 0

0 0 0
0 0 0
0 0 0

0 0 0
0 0 0
0 0 0

0 0 0
0 0 0
0 0 0

0 0 0
0 0 0
0 0 0

0 0 0
0 0 0
0 0 0

0 0 0
0 0 0
0 0 0

0 0 0
0 0 0
0 0 0

0 0 0
0 0 0
0 0 0

0 0 0
0 0 0
0 0 0

0 0 0
0 0 0
0 0 0

0 0 0
0 0 0
0 0 0

0 0 0
0 0 0
0 0 0

0 0 0
0 0 0
0 0 0

0 0 0
0 0 0
0 0 0

0 0 0
0 0 0
0 0 0

0 0 0
0 0 0
0 0 0

0 0 0
0 0 0
0 0 0

0 0 0
0 0 0
0 0 0

0 0 0
0 0 0
0 0 0

0 0 0
0 0 0
0 0 0

0 0 0
0 0 0
0 0 0

0 0 0
0 0 0
0 0 0

0 0 0
0 0 0
0 0 0

0 0 0
0 0 0
0 0 0

0 0 0
0 0 0
0 0 0

0 0 0
0 0 0
0 0 0

0 0 0
0 0 0
0 0 0

0 0 0
0 0 0
0 0 0

0 0 0
0 0 0
0 0 0

0 0 0
0 0 0
0 0 0

0 0 0
0 0 0
0 0 0

0 0 0
0 0 0
0 0 0

0 0 0
0 0 0
0 0 0

0 0 0
0 0 0
0 0 0

0 0 0
0 0 0
0 0 0

0 0 0
0 0 0
0 0 0

0 0 0
0 0 0
0 0 0

0 0 0
0 0 0
0 0 0

0 0 0
0 0 0
0 0 0

0 0 0
0 0 0
0 0 0

0 0 0
0 0 0
0 0 0

0 0 0
0 0 0
0 0 0

0 0 0
0 0 0
0 0 0

0 0 0
0 0 0
0 0 0

0 0 0
0 0 0
0 0 0

0 0 0
0 0 0
0 0 0

0 0 0
0 0 0
0 0 0

0 0 0
0 0 0
0 0 0

0 0 0
0 0 0
0 0 0

0 0 0
0 0 0
0 0 0

0 0 0
0 0 0
0 0 0

0 0 0
0 0 0
0 0 0

0 0 0
0 0 0
0 0 0

0 0 0
0 0 0
0 0 0

0 0 0
0 0 0
0 0 0

0 0 0
0 0 0
0 0 0

0 0 0
0 0 0
0 0 0

0 0 0
0 0 0
0 0 0

0 0 0
0 0 0
0 0 0

0 0 0
0 0 0
0 0 0

0 0 0
0 0 0
0 0 0

0 0 0
0 0 0
0 0 0

0 0 0
0 0 0
0 0 0

0 0 0
0 0 0
0 0 0

0 0 0
0 0 0
0 0 0

0 0 0
0 0 0
0 0 0

0 0 0
0 0 0
0 0 0

0 0 0
0 0 0
0 0 0

0 0 0
0 0 0
0 0 0

0 0 0
0 0 0
0 0 0

0 0 0
0 0 0
0 0 0

0 0 0
0 0 0
0 0 0

0 0 0
0 0 0
0 0 0

0 0 0
0 0 0
0 0 0

0 0 0
0 0 0
0 0 0

0 0 0
0 0 0
0 0 0

0 0 0
0 0 0
0 0 0

0 0 0
0 0 0
0 0 0

0 0 0
0 0 0
0 0 0

0 0 0
0 0 0
0 0 0

0 0 0
0 0 0
0 0 0

0 0 0
0 0 0
0 0 0

0 0 0
0 0 0
0 0 0

0 0 0
0 0 0
0 0 0

0 0 0
0 0 0
0 0 0

0 0 0
0 0 0
0 0 0

0 0 0
0 0 0
0 0 0

0 0 0
0 0 0
0 0 0

0 0 0
0 0 0
0 0 0

0 0 0
0 0 0
0 0 0

0 0 0
0 0 0
0 0 0

0 0 0
0 0 0
0 0 0

0 0 0
0 0 0
0 0 0

0 0 0
0 0 0
0 0 0

0 0 0
0 0 0
0 0 0

0 0 0
0 0 0
0 0 0

0 0 0
0 0 0
0 0 0

0 0 0
0 0 0
0 0 0

0 0 0
0 0 0
0 0 0

0 0 0
0 0 0
0 0 0

0 0 0
0 0 0
0 0 0

0 0 0
0 0 0
0 0 0

0 0 0
0 0 0
0 0 0

0 0 0
0 0 0
0 0 0

0 0 0
0 0 0
0 0 0

0 0 0
0 0 0
0 0 0

0 0 0
0 0 0
0 0 0

0 0 0
0 0 0
0 0 0

0 0 0
0 0 0
0 0 0

0 0 0
0 0 0
0 0 0

0 0 0
0 0 0
0 0 0

0 0 0
0 0 0
0 0 0

0 0 0
0 0 0
0 0 0

0 0 0
0 0 0
0 0 0

0 0 0
0 0 0
0 0 0

0 0 0
0 0 0
0 0 0

0 0 0
0 0 0
0 0 0

0 0 0
0 0 0
0 0 0

0 0 0
0 0 0
0 0 0

0 0 0
0 0 0
0 0 0

0 0 0
0 0 0
0 0 0

0 0 0
0 0 0
0 0 0

0 0 0
0 0 0
0 0 0

0 0 0
0 0 0
0 0 0

0 0 0
0 0 0
0 0 0

0 0 0
0 0 0
0 0 0

0 0 0
0 0 0
0 0 0

0 0 0
0 0 0
0 0 0

0 0 0
0 0 0
0 0 0

0 0 0
0 0 0
0 0 0

0 0 0
0 0 0
0 0 0

0 0 0
0 0 0
0 0 0

0 0 0
0 0 0
0 0 0

0 0 0
0 0 0
0 0 0

0 0 0
0 0 0
0 0 0

0 0 0
0 0 0
0 0 0

0 0 0
0 0 0
0 0 0

0 0 0
0 0 0
0 0 0

0 0 0
0 0 0
0 0 0

0 0 0
0 0 0
0 0 0

0 0 0
0 0 0
0 0 0

0 0 0
0 0 0
0 0 0

0 0 0
0 0 0
0 0 0

0 0 0
0 0 0
0 0 0

0 0 0
0 0 0
0 0 0

0 0 0
0 0 0
0 0 0

0 0 0
0 0 0
0 0 0

0 0 0
0 0 0
0 0 0

0 0 0
0 0 0
0 0 0

0 0 0
0 0 0
0 0 0

0 0 0
0 0 0
0 0 0

0 0 0
0 0 0
0 0 0

0 0 0
0 0 0
0 0 0

0 0 0
0 0 0
0 0 0

0 0 0
0 0 0
0 0 0

0 0 0
0 0 0
0 0 0

0 0 0
0 0 0
0 0 0

0 0 0
0 0 0
0 0 0

0 0 0
0 0 0
0 0 0

0 0 0
0 0 0
0 0 0

0 0 0
0 0 0
0 0 0

0 0 0
0 0 0
0 0 0

0 0 0
0 0 0
0 0 0

0 0 0
0 0 0
0 0 0

0 0 0
0 0 0
0 0 0

0 0 0
0 0 0
0 0 0

0 0 0
0 0 0
0 0 0

0 0 0
0 0 0
0 0 0

0 0 0
0 0 0
0 0 0

0 0 0
0 0 0
0 0 0

0 0 0
0 0 0
0 0 0

0 0 0
0 0 0
0 0 0

0 0 0
0 0 0
0 0 0

0 0 0
0 0 0
0 0 0

0 0 0
0 0 0
0 0 0

0 0 0
0 0 0
0 0 0

0 0 0
0 0 0
0 0 0

0 0 0
0 0 0
0 0 0

0 0 0
0 0 0
0 0 0

0 0 0
0 0 0
0 0 0

0 0 0
0 0 0
0 0 0

0 0 0
0 0 0
0 0 0

0 0 0
0 0 0
0 0 0

0 0 0
0 0 0
0 0 0

0 0 0
0 0 0
0 0 0

0 0 0
0 0 0
0 0 0

0 0 0
0 0 0
0 0 0

0 0 0
0 0 0
0 0 0

0 0 0
0 0 0
0 0 0

0 0 0
0 0 0
0 0 0

0 0 0
0 0 0
0 0 0

0 0 0
0 0 0
0 0 0

0 0 0
0 0 0
0 0 0

0 0 0
0 0 0
0 0 0

0 0 0
0 0 0
0 0 0

0 0 0
0 0 0
0 0 0

0 0 0
0 0 0
0 0 0

0 0 0
0 0 0
0 0 0

0 0 0
0 0 0
0 0 0

0 0 0
0 0 0
0 0 0

0 0 0
0 0 0
0 0 0

0 0 0
0 0 0
0 0 0

0 0 0
0 0 0
0 0 0

0 0 0
0 0 0
0 0 0

0 0 0
0 0 0
0 0 0

0 0 0
0 0 0
0 0 0

0 0 0
0 0 0
0 0 0

0 0 0
0 0 0
0 0 0

0 0 0
0 0 0
0 0 0

0 0 0
0 0 0
0 0 0

0 0 0
0 0 0
0 0 0

0 0 0
0 0 0
0 0 0

0 0 0
0 0 0
0 0 0

0 0 0
0 0 0
0 0 0

0 0 0
0 0 0
0 0 0

0 0 0
0 0 0
0 0 0

0 0 0
0 0 0
0 0 0

0 0 0
0 0 0
0 0 0

0 0 0
0 0 0
0 0 0

0 0 0
0 0 0
0 0 0

0 0 0
0 0 0
0 0 0

0 0 0
0 0 0
0 0 0

0 0 0
0 0 0
0 0 0

0 0 0
0 0 0
0 0 0

0 0 0
0 0 0
0 0 0

0 0 0
0 0 0
0 0 0

0 0 0
0 0 0
0 0 0

0 0 0
0 0 0
0 0 0

0 0 0
0 0 0
0 0 0

0 0 0
0 0 0
0 0 0

0 0 0
0 0 0
0 0 0

0 0 0
0 0 0
0 0 0

0 0 0
0 0 0
0 0 0

0 0 0
0 0 0
0 0 0

0 0 0
0 0 0
0 0 0

0 0 0
0 0 0
0 0 0

0 0 0
0 0 0
0 0 0

0 0 0
0 0 0
0 0 0

0 0 0
0 0 0
0 0 0

0 0 0
0 0 0
0 0 0

0 0 0
0 0 0
0 0 0

0 0 0
0 0 0
0 0 0

0 0 0
0 0 0
0 0 0

0 0 0
0 0 0
0 0 0

0 0 0
0 0 0
0 0 0

0 0 0
0 0 0
0 0 0

0 0 0
0 0 0
0 0 0

0 0 0
0 0 0
0 0 0

0 0 0
0 0 0
0 0 0

0 0 0
0 0 0
0 0 0

0 0 0
0 0 0
0 0 0

0 0 0
0 0 0
0 0 0

0 0 0
0 0 0
0 0 0

0 0 0
0 0 0
0 0 0

0 0 0
0 0 0
0 0 0

0 0 0
0 0 0
0 0 0

0 0 0
0 0 0
0 0 0

0 0 0
0 0 0
0 0 0

0 0 0
0 0 0
0 0 0

0 0 0
0 0 0
0 0 0

0 0 0
0 0 0
0 0 0

0 0 0
0 0 0
0 0 0

0 0 0
0 0 0
0 0 0

0 0 0
0 0 0
0 0 0

0 0 0
0 0 0
0 0 0

0 0 0
0 0 0
0 0 0

0 0 0
0 0 0
0 0 0

0 0 0
0 0 0
0 0 0

0 0 0
0 0 0
0 0 0

0 0 0
0 0 0
0 0 0

0 0 0
0 0 0
0 0 0

0 0 0
0 0 0
0 0 0

0 0 0
0 0 0
0 0 0

0 0 0
0 0 0
0 0 0

0 0 0
0 0 0
0 0 0

0 0 0
0 0 0
0 0 0

0 0 0
0 0 0
0 0 0

0 0 0
0 0 0
0 0 0

0 0 0
0 0 0
0 0 0

0 0 0
0 0 0
0 0 0

0 0 0
0 0 0
0 0 0

0 0 0
0 0 0
0 0 0

0 0 0
0 0 0
0 0 0

0 0 0
0 0 0
0 0 0

0 0 0
0 0 0
0 0 0

0 0 0
0 0 0
0 0 0

0 0 0
0 0 0
0 0 0

0 0 0
0 0 0
0 0 0

0 0 0
0 0 0
0 0 0

0 0 0
0 0 0
0 0 0

0 0 0
0 0 0
0 0 0

0 0 0
0 0 0
0 0 0

0 0 0
0 0 0
0 0 0

0 0 0
0 0 0
0 0 0

0 0 0
0 0 0
0 0 0

0 0 0
0 0 0
0 0 0

0 0 0
0 0 0
0 0 0

0 0 0
0 0 0
0 0 0

0 0 0
0 0 0
0 0 0

0 0 0
0 0 0
0 0 0

0 0 0
0 0 0
0 0 0

0 0 0
0 0 0
0 0 0

0 0 0
0 0 0
0 0 0

0 0 0
0 0 0
0 0 0

0 0 0
0 0 0
0 0 0

0 0 0
0 0 0
0 0 0

0 0 0
0 0 0
0 0 0

0 0 0
0 0 0
0 0 0

0 0 0
0 0 0
0 0 0

0 0 0
0 0 0
0 0 0

0 0 0
0 0 0
0 0 0

0 0 0
0 0 0
0 0 0

0 0 0
0 0 0
0 0 0

0 0 0
0 0 0
0 0 0

0 0 0
0 0 0
0 0 0

0 0 0
0 0 0
0 0 0

0 0 0
0 0 0
0 0 0

0 0 0
0 0 0
0 0 0

0 0 0
0 0 0
0 0 0

0 0 0
0 0 0
0 0 0

0 0 0
0 0 0
0 0 0

0 0 0
0 0 0
0 0 0

0 0 0
0 0 0
0 0 0

0 0 0
0 0 0
0 0 0

0 0 0
0 0 0
0 0 0

0 0 0
0 0 0
0 0 0

0 0 0
0 0 0
0 0 0

0 0 0
0 0 0
0 0 0

0 0 0
0 0 0
0 0 0

0 0 0
0 0 0
0 0 0

0 0 0
0 0 0
0 0 0

0 0 0
0 0 0
0 0 0

0 0 0
0 0 0
0 0 0

0 0 0
0 0 0
0 0 0

0 0 0
0 0 0
0 0 0

0 0 0
0 0 0
0 0 0

0 0 0
0 0 0
0 0 0

0 0 0
0 0 0
0 0 0

0 0 0
0 0 0
0 0 0

0 0 0
0 0 0
0 0 0

0 0 0
0 0 0
0 0 0

0 0 0
0 0 0
0 0 0

0 0 0
0 0 0
0 0 0

0 0 0
0 0 0
0 0 0

0 0 0
0 0 0
0 0 0

0 0 0
0 0 0
0 0 0

0 0 0
0 0 0
0 0 0

0 0 0
0 0 0
0 0 0

0 0 0
0 0 0
0 0 0

0 0 0
0 0 0
0 0 0

0 0 0
0 0 0
0 0 0

0 0 0
0 0 0
0 0 0

0 0 0
0 0 0
0 0 0

0 0 0
0 0 0
0 0 0

0 0 0
0 0 0
0 0 0

0 0 0
0 0 0
0 0 0

0 0 0
0 0 0
0 0 0

0 0 0
0 0 0
0 0 0

0 0 0
0 0 0
0 0 0

0 0 0
0 0 0
0 0 0

0 0 0
0 0 0
0 0 0

0 0 0
0 0 0
0 0 0

0 0 0
0 0 0
0 0 0

0 0 0
0 0 0
0 0 0

0 0 0
0 0 0
0 0 0

0 0 0
0 0 0
0 0 0

0 0 0
0 0 0
0 0 0

0 0 0
0 0 0
0 0 0

0 0 0
0 0 0
0 0 0

0 0 0
0 0 0
0 0 0

0 0 0
0 0 0
0 0 0

0 0 0
0 0 0
0 0 0

0 0 0
0 0 0
0 0 0

0 0 0
0 0 0
0 0 0

0 0 0
0 0 0
0 0 0

0 0 0
0 0 0
0 0 0

0 0 0
0 0 0
0 0 0

0 0 0
0 0 0
0 0 0

0 0 0
0 0 0
0 0 0

0 0 0
0 0 0
0 0 0

0 0 0
0 0 0
0 0 0

0 0 0
0 0 0
0 0 0

0 0 0
0 0 0
0 0 0

0 0 0
0 0 0
0 0 0

0 0 0
0 0 0
0 0 0

0 0 0
0 0 0
0 0 0

0 0 0
0 0 0
0 0 0

0 0 0
0 0 0
0 0 0

0 0 0
0 0 0
0 0 0

0 0 0
0 0 0
0 0 0

0 0 0
0 0 0
0 0 0

0 0 0
0 0 0
0 0 0

0 0 0
0 0 0
0 0 0

0 0 0
0 0 0
0 0 0

0 0 0
0 0 0
0 0 0

0 0 0
0 0 0
0 0 0

0 0 0
0 0 0
0 0 0

0 0 0
0 0 0
0 0 0

0 0 0
0 0 0
0 0 0

0 0 0
0 0 0
0 0 0

0 0 0
0 0 0
0 0 0

0 0 0
0 0 0
0 0 0

0 0 0
0 0 0
0 0 0

0 0 0
0 0 0
0 0 0

0 0 0
0 0 0
0 0 0

0 0 0
0 0 0
0 0 0

0 0 0
0 0 0
0 0 0

0 0 0
0 0 0
0 0 0

0 0 0
0 0 0
0 0 0

0 0 0
0 0 0
0 0 0

0 0 0
0 0 0
0 0 0

0 0 0
0 0 0
0 0 0

0 0 0
0 0 0
0 0 0

0 0 0
0 0 0
0 0 0

0 0 0
0 0 0
0 0 0

0 0 0
0 0 0
0 0 0

0 0 0
0 0 0
0 0 0

0 0 0
0 0 0
0 0 0

0 0 0
0 0 0
0 0 0

0 0 0
0 0 0
0 0 0

0 0 0
0 0 0
0 0 0

0 0 0
0 0 0
0 0 0

0 0 0
0 0 0
0 0 0

0 0 0
0 0 0
0 0 0

0 0 0
0 0 0
0 0 0

0 0 0
0 0 0
0 0 0

0 0 0
0 0 0
0 0 0

0 0 0
0 0 0
0 0 0

0 0 0
0 0 0
0 0 0

0 0 0
0 0 0
0 0 0

0 0 0
0 0 0
0 0 0

0 0 0
0 0 0
0 0 0

0 0 0
0 0 0
0 0 0

0 0 0
0 0 0
0 0 0

0 0 0
0 0 0
0 0 0

0 0 0
0 0 0
0 0 0

0 0 0
0 0 0
0 0 0

0 0 0
0 0 0
0 0 0

0 0 0
0 0 0
0 0 0

0 0 0
0 0 0
0 0 0

0 0 0
0 0 0
0 0 0

0 0 0
0 0 0
0 0 0

0 0 0
0 0 0
0 0 0

0 0 0
0 0 0
0 0 0

0 0 0
0 0 0
0 0 0

0 0 0
0 0 0
0 0 0

0 0 0
0 0 0
0 0 0

0 0 0
0 0 0
0 0 0

0 0 0
0 0 0
0 0 0

0 0 0
0 0 0
0 0 0

0 0 0
0 0 0
0 0 0

0 0 0
0 0 0
0 0 0

0 0 0
0 0 0
0 0 0

0 0 0
0 0 0
0 0 0

0 0 0
0 0 0
0 0 0

0 0 0
0 0 0
0 0 0

0 0 0
0 0 0
0 0 0

0 0 0
0 0 0
0 0 0

0 0 0
0 0 0
0 0 0

0 0 0
0 0 0
0 0 0

0 0 0
0 0 0
0 0 0

0 0 0
0 0 0
0 0 0

0 0 0
0 0 0
0 0 0

0 0 0
0 0 0
0 0 0

0 0 0
0 0 0
0 0 0

0 0 0
0 0 0
0 0 0

0 0 0
0 0 0
0 0 0

0 0 0
0 0 0
0 0 0

0 0 0
0 0 0
0 0 0

0 0 0
0 0 0
0 0 0

0 0 0
0 0 0
0 0 0

0 0 0
0 0 0
0 0 0

0 0 0
0 0 0
0 0 0

0 0 0
0 0 0
0 0 0

0 0 0
0 0 0
0 0 0

0 0 0
0 0 0
0 0 0

0 0 0
0 0 0
0 0 0

0 0 0
0 0 0
0 0 0

0 0 0
0 0 0
0 0 0

0 0 0
0 0 0
0 0 0

0 0 0
0 0 0
0 0 0

0 0 0
0 0 0
0 0 0

0 0 0
0 0 0
0 0 0

0 0 0
0 0 0
0 0 0

0 0 0
0 0 0
0 0 0

0 0 0
0 0 0
0 0 0

0 0 0
0 0 0
0 0 0

0 0 0
0 0 0
0 0 0

0 0 0
0 0 0
0 0 0

0 0 0
0 0 0
0 0 0

0 0 0
0 0 0
0 0 0

0 0 0
0 0 0
0 0 0

0 0 0
0 0 0
0 0 0

0 0 0
0 0 0
0 0 0

0 0 0
0 0 0
0 0 0

0 0 0
0 0 0
0 0 0

0 0 0
0 0 0
0 0 0

0 0 0
0 0 0
0 0 0

0 0 0
0 0 0
0 0 0

0 0 0
0 0 0
0 0 0

0 0 0
0 0 0
0 0 0

0 0 0
0 0 0
0 0 0

0 0 0
0 0 0
0 0 0

0 0 0
0 0 0
0 0 0

0 0 0
0 0 0
0 0 0

0 0 0
0 0 0
0 0 0

0 0 0
0 0 0
0 0 0

0 0 0
0 0 0
0 0 0

0 0 0
0 0 0
0 0 0

0 0 0
0 0 0
0 0 0

0 0 0
0 0 0
0 0 0

0 0 0
0 0 0
0 0 0

0 0 0
0 0 0
0 0 0

0 0 0
0 0 0
0 0 0

0 0 0
0 0 0
0 0 0

0 0 0
0 0 0
0 0 0

0 0 0
0 0 0
0 0 0

0 0 0
0 0 0
0 0 0

0 0 0
0 0 0
0 0 0

0 0 0
0 0 0
0 0 0

0 0 0
0 0 0
0 0 0

0 0 0
0 0 0
0 0 0

0 0 0
0 0 0
0 0 0

0 0 0
0 0 0
0 0 0

0 0 0
0 0 0
0 0 0

0 0 0
0 0 0
0 0 0

0 0 0
0 0 0
0 0 0

0 0 0
0 0 0
0 0 0

0 0 0
0 0 0
0 0 0

0 0 0
0 0 0
0 0 0

0 0 0
0 0 0
0 0 0

0 0 0
0 0 0
0 0 0

0 0 0
0 0 0
0 0 0

0 0 0
0 0 0
0 0 0

0 0 0
0 0 0
0 0 0

0 0 0
0 0 0
0 0 0

0 0 0
0 0 0
0 0 0

0 0 0
0 0 0
0 0 0

0 0 0
0 0 0
0 0 0

0 0 0
0 0 0
0 0 0

0 0 0
0 0 0
0 0 0

0 0 0
0 0 0
0 0 0

0 0 0
0 0 0
0 0 0

0 0 0
0 0 0
0 0 0

0 0 0
0 0 0
0 0 0

0 0 0
0 0 0
0 0 0

0 0 0
0 0 0
0 0 0

0 0 0
0 0 0
0 0 0

0 0 0
0 0 0
0 0 0

0 0 0
0 0 0
0 0 0

0 0 0
0 0 0
0 0 0

0 0 0
0 0 0
0 0 0

0 0 0
0 0 0
0 0 0

0 0 0
0 0 0
0 0 0

0 0 0
0 0 0
0 0 0

0 0 0
0 0 0
0 0 0

0 0 0
0 0 0
0 0 0

0 0 0
0 0 0
0 0 0

0 0 0
0 0 0
0 0 0

0 0 0
0 0 0
0 0 0

0 0 0
0 0 0
0 0 0

0 0 0
0 0 0
0 0 0

0 0 0
0 0 0
0 0 0

0 0 0
0 0 0
0 0 0

0 0 0
0 0 0
0 0 0

0 0 0
0 0 0
0 0 0

0 0 0
0 0 0
0 0 0

0 0 0
0 0 0
0 0 0

0 0 0
0 0 0
0 0 0

0 0 0
0 0 0
0 0 0

0 0 0
0 0 0
0 0 0

0 0 0
0 0 0
0 0 0

0 0 0
0 0 0
0 0 0

0 0 0
0 0 0
0 0 0

0 0 0
0 0 0
0 0 0

0 0 0
0 0 0
0 0 0

0 0 0
0 0 0
0 0 0

0 0 0
0 0 0
0 0 0

0 0 0
0 0 0
0 0 0

0 0 0
0 0 0
0 0 0

0 0 0
0 0 0
0 0 0

0 0 0
0 0 0
0 0 0

0 0 0
0 0 0
0 0 0

0 0 0
0 0 0
0 0 0

0 0 0
0 0 0
0 0 0

0 0 0
0 0 0
0 0 0

0 0 0
0 0 0
0 0 0

0 0 0
0 0 0
0 0 0

0 0 0
0 0 0
0 0 0

0 0 0
0 0 0
0 0 0

0 0 0
0 0 0
0 0 0

0 0 0
0 0 0
0 0 0

0 0 0
0 0 0
0 0 0

0 0 0
0 0 0
0 0 0

0 0 0
0 0 0
0 0 0

0 0 0
0 0 0
0 0 0

0 0 0
0 0 0
0 0 0

0 0 0
0 0 0
0 0 0

0 0 0
0 0 0
0 0 0

0 0 0
0 0 0
0 0 0

0 0 0
0 0 0
0 0 0

0 0 0
0 0 0
0 0 0

0 0 0
0 0 0
0 0 0

0 0 0
0 0 0
0 0 0

0 0 0
0 0 0
0 0 0

0 0 0
0 0 0
0 0 0

0 0 0
0 0 0
0 0 0

0 0 0
0 0 0
0 0 0

0 0 0
0 0 0
0 0 0

0 0 0
0 0 0
0 0 0

0 0 0
0 0 0
0 0 0

0 0 0
0 0 0
0 0 0

0 0 0
0 0 0
0 0 0

0 0 0
0 0 0
0 0 0

0 0 0
0 0 0
0 0 0

0 0 0
0 0 0
0 0 0

0 0 0
0 0 0
0 0 0

0 0 0
0 0 0
0 0 0

0 0 0
0 0 0
0 0 0

0 0 0
0 0 0
0 0 0

0 0 0
0 0 0
0 0 0

0 0 0
0 0 0
0 0 0

0 0 0
0 0 0
0 0 0

0 0 0
0 0 0
0 0 0

0 0 0
0 0 0
0 0 0

0 0 0
0 0 0
0 0 0

0 0 0
0 0 0
0 0 0

0 0 0
0 0 0
0 0 0

0 0 0
0 0 0
0 0 0

0 0 0
0 0 0
0 0 0

0 0 0
0 0 0
0 0 0

0 0 0
0 0 0
0 0 0

0 0 0
0 0 0
0 0 0

0 0 0
0 0 0
0 0 0

0 0 0
0 0 0
0 0 0

0 0 0
0 0 0
0 0 0

0 0 0
0 0 0
0 0 0

0 0 0
0 0 0
0 0 0

0 0 0
0 0 0
0 0 0

0 0 0
0 0 0
0 0 0

0 0 0
0 0 0
0 0 0

0 0 0
0 0 0
0 0 0

0 0 0
0 0 0
0 0 0

0 0 0
0 0 0
0 0 0

0 0 0
0 0 0
0 0 0

0 0 0
0 0 0
0 0 0

0 0 0
0 0 0
0 0 0

0 0 0
0 0 0
0 0 0

0 0 0
0 0 0
0 0 0

0 0 0
0 0 0
0 0 0

0 0 0
0 0 0
0 0 0

0 0 0
0 0 0
0 0 0

0 0 0
0 0 0
0 0 0

0 0 0
0 0 0
0 0 0

0 0 0
0 0 0
0 0 0

0 0 0
0 0 0
0 0 0

0 0 0
0 0 0
0 0 0

0 0 0
0 0 0
0 0 0

0 0 0
0 0 0
0 0 0

0 0 0
0 0 0
0 0 0

0 0 0
0 0 0
0 0 0

0 0 0
0 0 0
0 0 0

0 0 0
0 0 0
0 0 0

0 0 0
0 0 0
0 0 0

0 0 0
0 0 0
0 0 0

0 0 0
0 0 0
0 0 0

0 0 0
0 0 0
0 0 0

0 0 0
0 0 0
0 0 0

0 0 0
0 0 0
0 0 0

0 0 0
0 0 0
0 0 0

0 0 0
0 0 0
0 0 0

0 0 0
0 0 0
0 0 0

0 0 0
0 0 0
0 0 0

0 0 0
0 0 0
0 0 0

0 0 0
0 0 0
0 0 0

0 0 0
0 0 0
0 0 0

0 0 0
0 0 0
0 0 0

0 0 0
0 0 0
0 0 0

0 0 0
0 0 0
0 0 0

0 0 0
0 0 0
0 0 0

0 0 0
0 0 0
0 0 0

0 0 0
0 0 0
0 0 0

0 0 0
0 0 0
0 0 0

0 0 0
0 0 0
0 0 0

0 0 0
0 0 0
0 0 0

0 0 0
0 0 0
0 0 0

0 0 0
0 0 0
0 0 0

0 0 0
0 0 0
0 0 0

0 0 0
0 0 0
0 0 0

0 0 0
0 0 0
0 0 0

0 0 0
0 0 0
0 0 0

0 0 0
0 0 0
0 0 0

0 0 0
0 0 0
0 0 0

0 0 0
0 0 0
0 0 0

0 0 0
0 0 0
0 0 0

0 0 0
0 0 0
0 0 0

0 0 0
0 0 0
0 0 0

0 0 0
0 0 0
0 0 0

0 0 0
0 0 0
0 0 0

0 0 0
0 0 0
0 0 0

0 0 0
0 0 0
0 0 0

0 0 0
0 0 0
0 0 0

0 0 0
0 0 0
0 0 0

0 0 0
0 0 0
0 0 0

0 0 0
0 0 0
0 0 0

0 0 0
0 0 0
0 0 0

0 0 0
0 0 0
0 0 0

0 0 0
0 0 0
0 0 0

0 0 0
0 0 0
0 0 0

0 0 0
0 0 0
0 0 0

0 0 0
0 0 0
0 0 0

0 0 0
0 0 0
0 0 0

0 0 0
0 0 0
0 0 0

0 0 0
0 0 0
0 0 0

0 0 0
0 0 0
0 0 0

0 0 0
0 0 0
0 0 0

0 0 0
0 0 0
0 0 0

0 0 0
0 0 0
0 0 0

0 0 0
0 0 0
0 0 0

0 0 0
0 0 0
0 0 0

0 0 0
0 0 0
0 0 0

0 0 0
0 0 0
0 0 0

0 0 0
0 0 0
0 0 0

0 0 0
0 0 0
0 0 0

0 0 0
0 0 0
0 0 0

0 0 0
0 0 0
0 0 0

0 0 0
0 0 0
0 0 0

0 0 0
0 0 0
0 0 0

0 0 0
0 0 0
0 0 0

0 0 0
0 0 0
0 0 0

0 0 0
0 0 0
0 0 0

0 0 0
0 0 0
0 0 0

0 0 0
0 0 0
0 0 0

0 0 0
0 0 0
0 0 0

0 0 0
0 0 0
0 0 0

0 0 0
0 0 0
0 0 0

0 0 0
0 0 0
0 0 0

0 0 0
0 0 0
0 0 0

0 0 0
0 0 0
0 0 0

0 0 0
0 0 0
0 0 0

0 0 0
0 0 0
0 0 0

0 0 0
0 0 0
0 0 0

0 0 0
0 0 0
0 0 0

0 0 0
0 0 0
0 0 0

0 0 0
0 0 0
0 0 0

0 0 0
0 0 0
0 0 0

0 0 0
0 0 0
0 0 0

0 0 0
0 0 0
0 0 0

0 0 0
0 0 0
0 0 0

0 0 0
0 0 0
0 0 0

0 0 0
0 0 0
0 0 0

0 0 0
0 0 0
0 0 0

0 0 0
0 0 0
0 0 0

0 0 0
0 0 0
0 0 0

0 0 0
0 0 0
0 0 0

0 0 0
0 0 0
0 0 0

0 0 0
0 0 0
0 0 0

0 0 0
0 0 0
0 0 0

0 0 0
0 0 0
0 0 0

0 0 0
0 0 0
0 0 0

0 0 0
0 0 0
0 0 0

0 0 0
0 0 0
0 0 0

0 0 0
0 0 0
0 0 0

0 0 0
0 0 0
0 0 0

0 0 0
0 0 0
0 0 0

0 0 0
0 0 0
0 0 0

0 0 0
0 0 0
0 0 0

0 0 0
0 0 0
0 0 0

0 0 0
0 0 0
0 0 0

0 0 0
0 0 0
0 0 0

0 0 0
0 0 0
0 0 0

0 0 0
0 0 0
0 0 0

0 0 0
0 0 0
0 0 0

0 0 0
0 0 0
0 0 0

0 0 0
0 0 0
0 0 0

0 0 0
0 0 0
0 0 0

0 0 0
0 0 0
0 0 0

0 0 0
0 0 0
0 0 0

0 0 0
0 0 0
0 0 0

0 0 0
0 0 0
0 0 0

0 0 0
0 0 0
0 0 0

0 0 0
0 0 0
0 0 0

0 0 0
0 0 0
0 0 0

0 0 0
0 0 0
0 0 0

0 0 0
0 0 0
0 0 0

0 0 0
0 0 0
0 0 0

0 0 0
0 0 0
0 0 0

0 0 0
0 0 0
0 0 0

0 0 0
0 0 0
0 0 0

0 0 0
0 0 0
0 0 0

0 0 0
0 0 0
0 0 0

0 0 0
0 0 0
0 0 0

0 0 0
0 0 0
0 0 0

0 0 0
0 0 0
0 0 0

0 0 0
0 0 0
0 0 0

0 0 0
0 0 0
0 0 0

0 0 0
0 0 0
0 0 0

0 0 0
0 0 0
0 0 0

0 0 0
0 0 0
0 0 0

0 0 0
0 0 0
0 0 0

0 0 0
0 0 0
0 0 0

0 0 0
0 0 0
0 0 0

0 0 0
0 0 0
0 0 0

0 0 0
0 0 0
0 0 0

0 0 0
0 0 0
0 0 0

0 0 0
0 0 0
0 0 0

0 0 0
0 0 0
0 0 0

0 0 0
0 0 0
0 0 0

0 0 0
0 0 0
0 0 0

0 0 0
0 0 0
0 0 0

0 0 0
0 0 0
0 0 0

0 0 0
0 0 0
0 0 0

0 0 0
0 0 0
0 0 0

0 0 0
0 0 0
0 0 0

0 0 0
0 0 0
0 0 0

0 0 0
0 0 0
0 0 0

0 0 0
0 0 0
0 0 0

0 0 0
0 0 0
0 0 0

0 0 0
0 0 0
0 0 0

0 0 0
0 0 0
0 0 0

0 0 0
0 0 0
0 0 0

0 0 0
0 0 0
0 0 0

0 0 0
0 0 0
0 0 0

0 0 0
0 0 0
0 0 0

0 0 0
0 0 0
0 0 0

0 0 0
0 0 0
0 0 0

0 0 0
0 0 0
0 0 0

0 0 0
0 0 0
0 0 0

0 0 0
0 0 0
0 0 0

0 0 0
0 0 0
0 0 0

0 0 0
0 0 0
0 0 0

0 0 0
0 0 0
0 0 0

0 0 0
0 0 0
0 0 0

0 0 0
0 0 0
0 0 0

0 0 0
0 0 0
0 0 0

0 0 0
0 0 0
0 0 0

0 0 0
0 0 0
0 0 0

0 0 0
0 0 0
0 0 0

0 0 0
0 0 0
0 0 0

0 0 0
0 0 0
0 0 0

0 0 0
0 0 0
0 0 0

0 0 0
0 0 0
0 0 0

0 0 0
0 0 0
0 0 0

0 0 0
0 0 0
0 0 0

0 0 0
0 0 0
0 0 0

0 0 0
0 0 0
0 0 0

0 0 0
0 0 0
0 0 0

0 0 0
0 0 0
0 0 0

0 0 0
0 0 0
0 0 0

0 0 0
0 0 0
0 0 0

0 0 0
0 0 0
0 0 0

0 0 0
0 0 0
0 0 0

0 0 0
0 0 0
0 0 0

0 0 0
0 0 0
0 0 0

0 0 0
0 0 0
0 0 0

0 0 0
0 0 0
0 0 0

0 0 0
0 0 0
0 0 0

0 0 0
0 0 0
0 0 0

0 0 0
0 0 0
0 0 0

0 0 0
0 0 0
0 0 0

0 0 0
0 0 0
0 0 0

0 0 0
0 0 0
0 0 0

0 0 0
0 0 0
0 0 0

0 0 0
0 0 0
0 0 0

0 0 0
0 0 0
0 0 0

0 0 0
0 0 0
0 0 0

0 0 0
0 0 0
0 0 0

0 0 0
0 0 0
0 0 0

0 0 0
0 0 0
0 0 0

0 0 0
0 0 0
0 0 0

0 0 0
0 0 0
0 0 0

0 0 0
0 0 0
0 0 0

0 0 0
0 0 0
0 0 0

0 0 0
0 0 0
0 0 0

0 0 0
0 0 0
0 0 0

0 0 0
0 0 0
0 0 0

0 0 0
0 0 0
0 0 0

0 0 0
0 0 0
0 0 0

0 0 0
0 0 0
0 0 0

0 0 0
0 0 0
0 0 0

0 0 0
0 0 0
0 0 0

0 0 0
0 0 0
0 0 0

0 0 0
0 0 0
0 0 0

0 0 0
0 0 0
0 0 0

0 0 0
0 0 0
0 0 0

0 0 0
0 0 0
0 0 0

0 0 0
0 0 0
0 0 0

0 0 0
0 0 0
0 0 0

0 0 0
0 0 0
0 0 0

0 0 0
0 0 0
0 0 0

0 0 0
0 0 0
0 0 0

0 0 0
0 0 0
0 0 0

0 0 0
0 0 0
0 0 0

0 0 0
0 0 0
0 0 0

0 0 0
0 0 0
0 0 0

0 0 0
0 0 0
0 0 0

0 0 0
0 0 0
0 0 0

0 0 0
0 0 0
0 0 0

0 0 0
0 0 0
0 0 0

0 0 0
0 0 0
0 0 0

0 0 0
0 0 0
0 0 0

0 0 0
0 0 0
0 0 0

0 0 0
0 0 0
0 0 0

0 0 0
0 0 0
0 0 0

0 0 0
0 0 0
0 0 0

0 0 0
0 0 0
0 0 0

0 0 0
0 0 0
0 0 0

0 0 0
0 0 0
0 0 0

0 0 0
0 0 0
0 0 0

0 0 0
0 0 0
0 0 0

0 0 0
0 0 0
0 0 0

0 0 0
0 0 0
0 0 0

0 0 0
0 0 0
0 0 0

0 0 0
0 0 0
0 0 0

0 0 0
0 0 0
0 0 0

0 0 0
0 0 0
0 0 0

0 0 0
0 0 0
0 0 0

0 0 0
0 0 0
0 0 0

0 0 0
0 0 0
0 0 0

0 0 0
0 0 0
0 0 0

0 0 0
0 0 0
0 0 0

0 0 0
0 0 0
0 0 0

0 0 0
0 0 0
0 0 0

0 0 0
0 0 0
0 0 0

0 0 0
0 0 0
0 0 0

0 0 0
0 0 0
0 0 0

0 0 0
0 0 0
0 0 0

0 0 0
0 0 0
0 0 0

0 0 0
0 0 0
0 0 0

0 0 0
0 0 0
0 0 0

0 0 0
0 0 0
0 0 0

0 0 0
0 0 0
0 0 0

0 0 0
0 0 0
0 0 0

0 0 0
0 0 0
0 0 0

0 0 0
0 0 0
0 0 0

0 0 0
0 0 0
0 0 0

0 0 0
0 0 0
0 0 0

0 0 0
0 0 0
0 0 0

0 0 0
0 0 0
0 0 0

0 0 0
0 0 0
0 0 0

0 0 0
0 0 0
0 0 0

0 0 0
0 0 0
0 0 0

0 0 0
0 0 0
0 0 0

0 0 0
0 0 0
0 0 0

0 0 0
0 0 0
0 0 0

0 0 0
0 0 0
0 0 0

0 0 0
0 0 0
0 0 0

0 0 0
0 0 0
0 0 0

0 0 0
0 0 0
0 0 0

0 0 0
0 0 0
0 0 0

0 0 0
0 0 0
0 0 0

0 0 0
0 0 0
0 0 0

0 0 0
0 0 0
0 0 0

0 0 0
0 0 0
0 0 0

0 0 0
0 0 0
0 0 0

0 0 0
0 0 0
0 0 0

0 0 0
0 0 0
0 0 0

0 0 0
0 0 0
0 0 0

0 0 0
0 0 0
0 0 0

0 0 0
0 0 0
0 0 0

0 0 0
0 0 0
0 0 0

0 0 0
0 0 0
0 0 0

0 0 0
0 0 0
0 0 0

0 0 0
0 0 0
0 0 0

0 0 0
0 0 0
0 0 0

0 0 0
0 0 0
0 0 0

0 0 0
0 0 0
0 0 0

0 0 0
0 0 0
0 0 0

0 0 0
0 0 0
0 0 0

0 0 0
0 0 0
0 0 0

0 0 0
0 0 0
0 0 0

0 0 0
0 0 0
0 0 0

0 0 0
0 0 0
0 0 0

0 0 0
0 0 0
0 0 0

0 0 0
0 0 0
0 0 0

0 0 0
0 0 0
0 0 0

0 0 0
0 0 0
0 0 0

0 0 0
0 0 0
0 0 0

0 0 0
0 0 0
0 0 0

0 0 0
0 0 0
0 0 0

0 0 0
0 0 0
0 0 0

0 0 0
0 0 0
0 0 0

0 0 0
0 0 0
0 0 0

0 0 0
0 0 0
0 0 0

0 0 0
0 0 0
0 0 0

0 0 0
0 0 0
0 0 0

0 0 0
0 0 0
0 0 0

0 0 0
0 0 0
0 0 0

0 0 0
0 0 0
0 0 0

0 0 0
0 0 0
0 0 0

0 0 0
0 0 0
0 0 0

0 0 0
0 0 0
0 0 0

0 0 0
0 0 0
0 0 0

0 0 0
0 0 0
0 0 0

0 0 0
0 0 0
0 0 0

0 0 0
0 0 0
0 0 0

0 0 0
0 0 0
0 0 0

0 0 0
0 0 0
0 0 0

0 0 0
0 0 0
0 0 0

0 0 0
0 0 0
0 0 0

0 0 0
0 0 0
0 0 0

0 0 0
0 0 0
0 0 0

0 0 0
0 0 0
0 0 0

0 0 0
0 0 0
0 0 0

0 0 0
0 0 0
0 0 0

0 0 0
0 0 0
0 0 0

0 0 0
0 0 0
0 0 0

0 0 0
0 0 0
0 0 0

0 0 0
0 0 0
0 0 0

0 0 0
0 0 0
0 0 0

0 0 0
0 0 0
0 0 0

0 0 0
0 0 0
0 0 0

0 0 0
0 0 0
0 0 0

0 0 0
0 0 0
0 0 0

0 0 0
0 0 0
0 0 0

0 0 0
0 0 0
0 0 0

0 0 0
0 0 0
0 0 0

0 0 0
0 0 0
0 0 0

0 0 0
0 0 0
0 0 0

0 0 0
0 0 0
0 0 0

0 0 0
0 0 0
0 0 0

0 0 0
0 0 0
0 0 0

0 0 0
0 0 0
0 0 0

0 0 0
0 0 0
0 0 0

0 0 0
0 0 0
0 0 0

0 0 0
0 0 0
0 0 0

0 0 0
0 0 0
0 0 0

0 0 0
0 0 0
0 0 0

0 0 0
0 0 0
0 0 0

0 0 0
0 0 0
0 0 0

0 0 0
0 0 0
0 0 0

0 0 0
0 0 0
0 0 0

0 0 0
0 0 0
0 0 0

0 0 0
0 0 0
0 0 0

0 0 0
0 0 0
0 0 0

0 0 0
0 0 0
0 0 0

0 0 0
0 0 0
0 0 0

0 0 0
0 0 0
0 0 0

0 0 0
0 0 0
0 0 0

0 0 0
0 0 0
0 0 0

0 0 0
0 0 0
0 0 0

0 0 0
0 0 0
0 0 0

0 0 0
0 0 0
0 0 0

0 0 0
0 0 0
0 0 0

0 0 0
0 0 0
0 0 0

0 0 0
0 0 0
0 0 0

0 0 0
0 0 0
0 0 0

0 0 0
0 0 0
0 0 0

0 0 0
0 0 0
0 0 0

0 0 0
0 0 0
0 0 0

0 0 0
0 0 0
0 0 0

0 0 0
0 0 0
0 0 0

0 0 0
0 0 0
0 0 0

0 0 0
0 0 0
0 0 0

0 0 0
0 0 0
0 0 0

0 0 0
0 0 0
0 0 0

0 0 0
0 0 0
0 0 0

0 0 0
0 0 0
0 0 0

0 0 0
0 0 0
0 0 0

0 0 0
0 0 0
0 0 0

0 0 0
0 0 0
0 0 0

0 0 0
0 0 0
0 0 0

0 0 0
0 0 0
0 0 0

0 0 0
0 0 0
0 0 0

0 0 0
0 0 0
0 0 0

0 0 0
0 0 0
0 0 0

0 0 0
0 0 0
0 0 0

0 0 0
0 0 0
0 0 0

0 0 0
0 0 0
0 0 0

0 0 0
0 0 0
0 0 0

0 0 0
0 0 0
0 0 0

0 0 0
0 0 0
0 0 0

0 0 0
0 0 0
0 0 0

0 0 0
0 0 0
0 0 0

0 0 0
0 0 0
0 0 0

0 0 0
0 0 0
0 0 0

0 0 0
0 0 0
0 0 0

0 0 0
0 0 0
0 0 0

0 0 0
0 0 0
0 0 0

0 0 0
0 0 0
0 0 0

0 0 0
0 0 0
0 0 0

0 0 0
0 0 0
0 0 0

0 0 0
0 0 0
0 0 0

0 0 0
0 0 0
0 0 0

0 0 0
0 0 0
0 0 0

0 0 0
0 0 0
0 0 0

0 0 0
0 0 0
0 0 0

0 0 0
0 0 0
0 0 0

0 0 0
0 0 0
0 0 0

0 0 0
0 0 0
0 0 0

0 0 0
0 0 0
0 0 0

0 0 0
0 0 0
0 0 0

0 0 0
0 0 0
0 0 0

0 0 0
0 0 0
0 0 0

0 0 0
0 0 0
0 0 0

0 0 0
0 0 0
0 0 0

0 0 0
0 0 0
0 0 0

0 0 0
0 0 0
0 0 0

0 0 0
0 0 0
0 0 0

0 0 0
0 0 0
0 0 0

0 0 0
0 0 0
0 0 0

0 0 0
0 0 0
0 0 0

0 0 0
0 0 0
0 0 0

0 0 0
0 0 0
0 0 0

0 0 0
0 0 0
0 0 0

0 0 0
0 0 0
0 0 0

0 0 0
0 0 0
0 0 0

0 0 0
0 0 0
0 0 0

0 0 0
0 0 0
0 0 0

0 0 0
0 0 0
0 0 0

0 0 0
0 0 0
0 0 0

0 0 0
0 0 0
0 0 0

0 0 0
0 0 0
0 0 0

0 0 0
0 0 0
0 0 0

0 0 0
0 0 0
0 0 0

0 0 0
0 0 0
0 0 0

0 0 0
0 0 0
0 0 0

0 0 0
0 0 0
0 0 0

0 0 0
0 0 0
0 0 0

0 0 0
0 0 0
0 0 0

0 0 0
0 0 0
0 0 0

0 0 0
0 0 0
0 0 0

0 0 0
0 0 0
0 0 0

0 0 0
0 0 0
0 0 0

0 0 0
0 0 0
0 0 0

0 0 0
0 0 0
0 0 0

0 0 0
0 0 0
0 0 0

0 0 0
0 0 0
0 0 0

0 0 0
0 0 0
0 0 0

0 0 0
0 0 0
0 0 0

0 0 0
0 0 0
0 0 0

0 0 0
0 0 0
0 0 0

0 0 0
0 0 0
0 0 0

0 0 0
0 0 0
0 0 0

0 0 0
0 0 0
0 0 0

0 0 0
0 0 0
0 0 0

0 0 0
0 0 0
0 0 0

0 0 0
0 0 0
0 0 0

0 0 0
0 0 0
0 0 0

0 0 0
0 0 0
0 0 0

0 0 0
0 0 0
0 0 0

0 0 0
0 0 0
0 0 0

0 0 0
0 0 0
0 0 0

0 0 0
0 0 0
0 0 0

0 0 0
0 0 0
0 0 0

0 0 0
0 0 0
0 0 0

0 0 0
0 0 0
0 0 0

0 0 0
0 0 0
0 0 0

0 0 0
0 0 0
0 0 0

0 0 0
0 0 0
0 0 0

0 0 0
0 0 0
0 0 0

0 0 0
0 0 0
0 0 0

0 0 0
0 0 0
0 0 0

0 0 0
0 0 0
0 0 0

0 0 0
0 0 0
0 0 0

0 0 0
0 0 0
0 0 0

0 0 0
0 0 0
0 0 0

0 0 0
0 0 0
0 0 0

0 0 0
0 0 0
0 0 0

0 0 0
0 0 0
0 0 0

0 0 0
0 0 0
0 0 0

0 0 0
0 0 0
0 0 0

0 0 0
0 0 0
0 0 0

0 0 0
0 0 0
0 0 0

0 0 0
0 0 0
0 0 0

0 0 0
0 0 0
0 0 0

0 0 0
0 0 0
0 0 0

0 0 0
0 0 0
0 0 0

0 0 0
0 0 0
0 0 0

0 0 0
0 0 0
0 0 0

0 0 0
0 0 0
0 0 0

0 0 0
0 0 0
0 0 0

0 0 0
0 0 0
0 0 0

0 0 0
0 0 0
0 0 0

0 0 0
0 0 0
0 0 0

0 0 0
0 0 0
0 0 0

0 0 0
0 0 0
0 0 0

0 0 0
0 0 0
0 0 0

0 0 0
0 0 0
0 0 0

0 0 0
0 0 0
0 0 0

0 0 0
0 0 0
0 0 0

0 0 0
0 0 0
0 0 0

0 0 0
0 0 0
0 0 0

0 0 0
0 0 0
0 0 0

0 0 0
0 0 0
0 0 0

0 0 0
0 0 0
0 0 0

0 0 0
0 0 0
0 0 0

0 0 0
0 0 0
0 0 0

0 0 0
0 0 0
0 0 0

0 0 0
0 0 0
0 0 0

0 0 0
0 0 0
0 0 0

0 0 0
0 0 0
0 0 0

0 0 0
0 0 0
0 0 0

0 0 0
0 0 0
0 0 0

0 0 0
0 0 0
0 0 0

0 0 0
0 0 0
0 0 0

0 0 0
0 0 0
0 0 0

0 0 0
0 0 0
0 0 0

0 0 0
0 0 0
0 0 0

0 0 0
0 0 0
0 0 0

0 0 0
0 0 0
0 0 0

0 0 0
0 0 0
0 0 0

0 0 0
0 0 0
0 0 0

0 0 0
0 0 0
0 0 0

0 0 0
0 0 0
0 0 0

0 0 0
0 0 0
0 0 0

0 0 0
0 0 0
0 0 0

0 0 0
0 0 0
0 0 0

0 0 0
0 0 0
0 0 0

0 0 0
0 0 0
0 0 0

0 0 0
0 0 0
0 0 0

0 0 0
0 0 0
0 0 0

0 0 0
0 0 0
0 0 0

0 0 0
0 0 0
0 0 0

0 0 0
0 0 0
0 0 0

0 0 0
0 0 0
0 0 0

0 0 0
0 0 0
0 0 0

0 0 0
0 0 0
0 0 0

0 0 0
0 0 0
0 0 0

0 0 0
0 0 0
0 0 0

0 0 0
0 0 0
0 0 0

0 0 0
0 0 0
0 0 0

0 0 0
0 0 0
0 0 0

0 0 0
0 0 0
0 0 0

0 0 0
0 0 0
0 0 0

0 0 0
0 0 0
0 0 0

0 0 0
0 0 0
0 0 0

0 0 0
0 0 0
0 0 0

0 0 0
0 0 0
0 0 0

0 0 0
0 0 0
0 0 0

0 0 0
0 0 0
0 0 0

0 0 0
0 0 0
0 0 0

0 0 0
0 0 0
0 0 0

0 0 0
0 0 0
0 0 0

0 0 0
0 0 0
0 0 0

0 0 0
0 0 0
0 0 0

0 0 0
0 0 0
0 0 0

0 0 0
0 0 0
0 0 0

0 0 0
0 0 0
0 0 0

0 0 0
0 0 0
0 0 0

0 0 0
0 0 0
0 0 0

0 0 0
0 0 0
0 0 0

0 0 0
0 0 0
0 0 0

0 0 0
0 0 0
0 0 0

0 0 0
0 0 0
0 0 0

0 0 0
0 0 0
0 0 0

0 0 0
0 0 0
0 0 0

0 0 0
0 0 0
0 0 0

0 0 0
0 0 0
0 0 0

0 0 0
0 0 0
0 0 0

0 0 0
0 0 0
0 0 0

0 0 0
0 0 0
0 0 0

0 0 0
0 0 0
0 0 0

0 0 0
0 0 0
0 0 0

0 0 0
0 0 0
0 0 0

0 0 0
0 0 0
0 0 0

0 0 0
0 0 0
0 0 0

0 0 0
0 0 0
0 0 0

0 0 0
0 0 0
0 0 0

0 0 0
0 0 0
0 0 0

0 0 0
0 0 0
0 0 0

0 0 0
0 0 0
0 0 0

0 0 0
0 0 0
0 0 0

0 0 0
0 0 0
0 0 0

0 0 0
0 0 0
0 0 0

0 0 0
0 0 0
0 0 0

0 0 0
0 0 0
0 0 0

0 0 0
0 0 0
0 0 0

0 0 0
0 0 0
0 0 0

0 0 0
0 0 0
0 0 0

0 0 0
0 0 0
0 0 0

0 0 0
0 0 0
0 0 0

0 0 0
0 0 0
0 0 0

0 0 0
0 0 0
0 0 0

0 0 0
0 0 0
0 0 0

0 0 0
0 0 0
0 0 0

0 0 0
0 0 0
0 0 0

0 0 0
0 0 0
0 0 0

0 0 0
0 0 0
0 0 0

0 0 0
0 0 0
0 0 0

0 0 0
0 0 0
0 0 0

0 0 0
0 0 0
0 0 0

0 0 0
0 0 0
0 0 0

0 0 0
0 0 0
0 0 0

0 0 0
0 0 0
0 0 0

0 0 0
0 0 0
0 0 0

0 0 0
0 0 0
0 0 0

0 0 0
0 0 0
0 0 0

0 0 0
0 0 0
0 0 0

0 0 0
0 0 0
0 0 0

0 0 0
0 0 0
0 0 0

0 0 0
0 0 0
0 0 0

0 0 0
0 0 0
0 0 0

0 0 0
0 0 0
0 0 0

0 0 0
0 0 0
0 0 0

0 0 0
0 0 0
0 0 0

0 0 0
0 0 0
0 0 0

0 0 0
0 0 0
0 0 0

0 0 0
0 0 0
0 0 0

0 0 0
0 0 0
0 0 0

0 0 0
0 0 0
0 0 0

0 0 0
0 0 0
0 0 0

0 0 0
0 0 0
0 0 0

0 0 0
0 0 0
0 0 0

0 0 0
0 0 0
0 0 0

0 0 0
0 0 0
0 0 0

0 0 0
0 0 0
0 0 0

0 0 0
0 0 0
0 0 0

0 0 0
0 0 0
0 0 0

0 0 0
0 0 0
0 0 0

0 0 0
0 0 0
0 0 0

0 0 0
0 0 0
0 0 0

0 0 0
0 0 0
0 0 0

0 0 0
0 0 0
0 0 0

0 0 0
0 0 0
0 0 0

0 0 0
0 0 0
0 0 0

0 0 0
0 0 0
0 0 0

0 0 0
0 0 0
0 0 0

0 0 0
0 0 0
0 0 0

0 0 0
0 0 0
0 0 0

0 0 0
0 0 0
0 0 0

0 0 0
0 0 0
0 0 0

0 0 0
0 0 0
0 0 0

0 0 0
0 0 0
0 0 0

0 0 0
0 0 0
0 0 0

0 0 0
0 0 0
0 0 0

0 0 0
0 0 0
0 0 0

0 0 0
0 0 0
0 0 0

0 0 0
0 0 0
0 0 0

0 0 0
0 0 0
0 0 0

0 0 0
0 0 0
0 0 0

0 0 0
0 0 0
0 0 0

0 0 0
0 0 0
0 0 0

0 0 0
0 0 0
0 0 0

0 0 0
0 0 0
0 0 0

0 0 0
0 0 0
0 0 0

0 0 0
0 0 0
0 0 0

0 0 0
0 0 0
0 0 0

0 0 0
0 0 0
0 0 0

0 0 0
0 0 0
0 0 0

0 0 0
0 0 0
0 0 0

0 0 0
0 0 0
0 0 0

0 0 0
0 0 0
0 0 0

0 0 0
0 0 0
0 0 0

0 0 0
0 0 0
0 0 0

0 0 0
0 0 0
0 0 0

0 0 0
0 0 0
0 0 0

0 0 0
0 0 0
0 0 0

0 0 0
0 0 0
0 0 0

0 0 0
0 0 0
0 0 0

0 0 0
0 0 0
0 0 0

0 0 0
0 0 0
0 0 0

0 0 0
0 0 0
0 0 0

0 0 0
0 0 0
0 0 0

0 0 0
0 0 0
0 0 0

0 0 0
0 0 0
0 0 0

0 0 0
0 0 0
0 0 0

0 0 0
0 0 0
0 0 0

0 0 0
0 0 0
0 0 0

0 0 0
0 0 0
0 0 0

0 0 0
0 0 0
0 0 0

0 0 0
0 0 0
0 0 0

0 0 0
0 0 0
0 0 0

0 0 0
0 0 0
0 0 0

0 0 0
0 0 0
0 0 0

0 0 0
0 0 0
0 0 0

0 0 0
0 0 0
0 0 0

0 0 0
0 0 0
0 0 0

0 0 0
0 0 0
0 0 0

0 0 0
0 0 0
0 0 0

0 0 0
0 0 0
0 0 0

0 0 0
0 0 0
0 0 0

0 0 0
0 0 0
0 0 0

0 0 0
0 0 0
0 0 0

0 0 0
0 0 0
0 0 0

0 0 0
0 0 0
0 0 0

0 0 0
0 0 0
0 0 0

0 0 0
0 0 0
0 0 0

0 0 0
0 0 0
0 0 0

0 0 0
0 0 0
0 0 0

0 0 0
0 0 0
0 0 0

0 0 0
0 0 0
0 0 0

0 0 0
0 0 0
0 0 0

0 0 0
0 0 0
0 0 0

0 0 0
0 0 0
0 0 0

0 0 0
0 0 0
0 0 0

0 0 0
0 0 0
0 0 0

0 0 0
0 0 0
0 0 0

0 0 0
0 0 0
0 0 0

0 0 0
0 0 0
0 0 0

0 0 0
0 0 0
0 0 0

0 0 0
0 0 0
0 0 0

0 0 0
0 0 0
0 0 0

0 0 0
0 0 0
0 0 0

0 0 0
0 0 0
0 0 0

0 0 0
0 0 0
0 0 0

0 0 0
0 0 0
0 0 0

0 0 0
0 0 0
0 0 0

0 0 0
0 0 0
0 0 0

0 0 0
0 0 0
0 0 0

0 0 0
0 0 0
0 0 0

0 0 0
0 0 0
0 0 0

0 0 0
0 0 0
0 0 0

0 0 0
0 0 0
0 0 0

0 0 0
0 0 0
0 0 0

0 0 0
0 0 0
0 0 0

0 0 0
0 0 0
0 0 0

0 0 0
0 0 0
0 0 0

0 0 0
0 0 0
0 0 0

0 0 0
0 0 0
0 0 0

0 0 0
0 0 0
0 0 0

0 0 0
0 0 0
0 0 0

0 0 0
0 0 0
0 0 0

0 0 0
0 0 0
0 0 0

0 0 0
0 0 0
0 0 0

0 0 0
0 0 0
0 0 0

0 0 0
0 0 0
0 0 0

0 0 0
0 0 0
0 0 0

0 0 0
0 0 0
0 0 0

0 0 0
0 0 0
0 0 0

0 0 0
0 0 0
0 0 0

0 0 0
0 0 0
0 0 0

0 0 0
0 0 0
0 0 0

0 0 0
0 0 0
0 0 0

0 0 0
0 0 0
0 0 0

0 0 0
0 0 0
0 0 0

0 0 0
0 0 0
0 0 0

0 0 0
0 0 0
0 0 0

0 0 0
0 0 0
0 0 0

0 0 0
0 0 0
0 0 0

0 0 0
0 0 0
0 0 0

0 0 0
0 0 0
0 0 0

0 0 0
0 0 0
0 0 0

0 0 0
0 0 0
0 0 0

0 0 0
0 0 0
0 0 0

0 0 0
0 0 0
0 0 0

0 0 0
0 0 0
0 0 0

0 0 0
0 0 0
0 0 0

0 0 0
0 0 0
0 0 0

0 0 0
0 0 0
0 0 0

0 0 0
0 0 0
0 0 0

0 0 0
0 0 0
0 0 0

0 0 0
0 0 0
0 0 0

0 0 0
0 0 0
0 0 0

0 0 0
0 0 0
0 0 0

0 0 0
0 0 0
0 0 0

0 0 0
0 0 0
0 0 0

0 0 0
0 0 0
0 0 0

0 0 0
0 0 0
0 0 0

0 0 0
0 0 0
0 0 0

0 0 0
0 0 0
0 0 0

0 0 0
0 0 0
0 0 0

0 0 0
0 0 0
0 0 0

0 0 0
0 0 0
0 0 0

0 0 0
0 0 0
0 0 0

0 0 0
0 0 0
0 0 0

0 0 0
0 0 0
0 0 0

0 0 0
0 0 0
0 0 0

0 0 0
0 0 0
0 0 0

0 0 0
0 0 0
0 0 0

0 0 0
0 0 0
0 0 0

0 0 0
0 0 0
0 0 0

0 0 0
0 0 0
0 0 0

0 0 0
0 0 0
0 0 0

0 0 0
0 0 0
0 0 0

0 0 0
0 0 0
0 0 0

0 0 0
0 0 0
0 0 0

0 0 0
0 0 0
0 0 0

0 0 0
0 0 0
0 0 0

0 0 0
0 0 0
0 0 0

0 0 0
0 0 0
0 0 0

0 0 0
0 0 0
0 0 0

0 0 0
0 0 0
0 0 0

0 0 0
0 0 0
0 0 0

0 0 0
0 0 0
0 0 0

0 0 0
0 0 0
0 0 0

0 0 0
0 0 0
0 0 0

0 0 0
0 0 0
0 0 0

0 0 0
0 0 0
0 0 0

0 0 0
0 0 0
0 0 0

0 0 0
0 0 0
0 0 0

0 0 0
0 0 0
0 0 0

0 0 0
0 0 0
0 0 0

0 0 0
0 0 0
0 0 0

0 0 0
0 0 0
0 0 0

0 0 0
0 0 0
0 0 0

0 0 0
0 0 0
0 0 0

VECTORS fluid_flux_TPM float
0 0 0
0 0 0
0 0 0
0 0 0
0 0 0
0 0 0
0 0 0
0 0 0
0 0 0
0 0 0
0 0 0
0 0 0
0 0 0
0 0 0
0 0 0
0 0 0
0 0 0
0 0 0
0 0 0
0 0 0
0 0 0
0 0 0
0 0 0
0 0 0
0 0 0
0 0 0
0 0 0
0 0 0
0 0 0
0 0 0
0 0 0
0 0 0
0 0 0
0 0 0
0 0 0
0 0 0
0 0 0
0 0 0
0 0 0
0 0 0
0 0 0
0 0 0
0 0 0
0 0 0
0 0 0
0 0 0
0 0 0
0 0 0
0 0 0
0 0 0
0 0 0
0 0 0
0 0 0
0 0 0
0 0 0
0 0 0
0 0 0
0 0 0
0 0 0
0 0 0
0 0 0
0 0 0
0 0 0
0 0 0
0 0 0
0 0 0
0 0 0
0 0 0
0 0 0
0 0 0
0 0 0
0 0 0
0 0 0
0 0 0
0 0 0
0 0 0
0 0 0
0 0 0
0 0 0
0 0 0
0 0 0
0 0 0
0 0 0
0 0 0
0 0 0
0 0 0
0 0 0
0 0 0
0 0 0
0 0 0
0 0 0
0 0 0
0 0 0
0 0 0
0 0 0
0 0 0
0 0 0
0 0 0
0 0 0
0 0 0
0 0 0
0 0 0
0 0 0
0 0 0
0 0 0
0 0 0
0 0 0
0 0 0
0 0 0
0 0 0
0 0 0
0 0 0
0 0 0
0 0 0
0 0 0
0 0 0
0 0 0
0 0 0
0 0 0
0 0 0
0 0 0
0 0 0
0 0 0
0 0 0
0 0 0
0 0 0
0 0 0
0 0 0
0 0 0
0 0 0
0 0 0
0 0 0
0 0 0
0 0 0
0 0 0
0 0 0
0 0 0
0 0 0
0 0 0
0 0 0
0 0 0
0 0 0
0 0 0
0 0 0
0 0 0
0 0 0
0 0 0
0 0 0
0 0 0
0 0 0
0 0 0
0 0 0
0 0 0
0 0 0
0 0 0
0 0 0
0 0 0
0 0 0
0 0 0
0 0 0
0 0 0
0 0 0
0 0 0
0 0 0
0 0 0
0 0 0
0 0 0
0 0 0
0 0 0
0 0 0
0 0 0
0 0 0
0 0 0
0 0 0
0 0 0
0 0 0
0 0 0
0 0 0
0 0 0
0 0 0
0 0 0
0 0 0
0 0 0
0 0 0
0 0 0
0 0 0
0 0 0
0 0 0
0 0 0
0 0 0
0 0 0
0 0 0
0 0 0
0 0 0
0 0 0
0 0 0
0 0 0
0 0 0
0 0 0
0 0 0
0 0 0
0 0 0
0 0 0
0 0 0
0 0 0
0 0 0
0 0 0
0 0 0
0 0 0
0 0 0
0 0 0
0 0 0
0 0 0
0 0 0
0 0 0
0 0 0
0 0 0
0 0 0
0 0 0
0 0 0
0 0 0
0 0 0
0 0 0
0 0 0
0 0 0
0 0 0
0 0 0
0 0 0
0 0 0
0 0 0
0 0 0
0 0 0
0 0 0
0 0 0
0 0 0
0 0 0
0 0 0
0 0 0
0 0 0
0 0 0
0 0 0
0 0 0
0 0 0
0 0 0
0 0 0
0 0 0
0 0 0
0 0 0
0 0 0
0 0 0
0 0 0
0 0 0
0 0 0
0 0 0
0 0 0
0 0 0
0 0 0
0 0 0
0 0 0
0 0 0
0 0 0
0 0 0
0 0 0
0 0 0
0 0 0
0 0 0
0 0 0
0 0 0
0 0 0
0 0 0
0 0 0
0 0 0
0 0 0
0 0 0
0 0 0
0 0 0
0 0 0
0 0 0
0 0 0
0 0 0
0 0 0
0 0 0
0 0 0
0 0 0
0 0 0
0 0 0
0 0 0
0 0 0
0 0 0
0 0 0
0 0 0
0 0 0
0 0 0
0 0 0
0 0 0
0 0 0
0 0 0
0 0 0
0 0 0
0 0 0
0 0 0
0 0 0
0 0 0
0 0 0
0 0 0
0 0 0
0 0 0
0 0 0
0 0 0
0 0 0
0 0 0
0 0 0
0 0 0
0 0 0
0 0 0
0 0 0
0 0 0
0 0 0
0 0 0
0 0 0
0 0 0
0 0 0
0 0 0
0 0 0
0 0 0
0 0 0
0 0 0
0 0 0
0 0 0
0 0 0
0 0 0
0 0 0
0 0 0
0 0 0
0 0 0
0 0 0
0 0 0
0 0 0
0 0 0
0 0 0
0 0 0
0 0 0
0 0 0
0 0 0
0 0 0
0 0 0
0 0 0
0 0 0
0 0 0
0 0 0
0 0 0
0 0 0
0 0 0
0 0 0
0 0 0
0 0 0
0 0 0
0 0 0
0 0 0
0 0 0
0 0 0
0 0 0
0 0 0
0 0 0
0 0 0
0 0 0
0 0 0
0 0 0
0 0 0
0 0 0
0 0 0
0 0 0
0 0 0
0 0 0
0 0 0
0 0 0
0 0 0
0 0 0
0 0 0
0 0 0
0 0 0
0 0 0
0 0 0
0 0 0
0 0 0
0 0 0
0 0 0
0 0 0
0 0 0
0 0 0
0 0 0
0 0 0
0 0 0
0 0 0
0 0 0
0 0 0
0 0 0
0 0 0
0 0 0
0 0 0
0 0 0
0 0 0
0 0 0
0 0 0
0 0 0
0 0 0
0 0 0
0 0 0
0 0 0
0 0 0
0 0 0
0 0 0
0 0 0
0 0 0
0 0 0
0 0 0
0 0 0
0 0 0
0 0 0
0 0 0
0 0 0
0 0 0
0 0 0
0 0 0
0 0 0
0 0 0
0 0 0
0 0 0
0 0 0
0 0 0
0 0 0
0 0 0
0 0 0
0 0 0
0 0 0
0 0 0
0 0 0
0 0 0
0 0 0
0 0 0
0 0 0
0 0 0
0 0 0
0 0 0
0 0 0
0 0 0
0 0 0
0 0 0
0 0 0
0 0 0
0 0 0
0 0 0
0 0 0
0 0 0
0 0 0
0 0 0
0 0 0
0 0 0
0 0 0
0 0 0
0 0 0
0 0 0
0 0 0
0 0 0
0 0 0
0 0 0
0 0 0
0 0 0
0 0 0
0 0 0
0 0 0
0 0 0
0 0 0
0 0 0
0 0 0
0 0 0
0 0 0
0 0 0
0 0 0
0 0 0
0 0 0
0 0 0
0 0 0
0 0 0
0 0 0
0 0 0
0 0 0
0 0 0
0 0 0
0 0 0
0 0 0
0 0 0
0 0 0
0 0 0
0 0 0
0 0 0
0 0 0
0 0 0
0 0 0
0 0 0
0 0 0
0 0 0
0 0 0
0 0 0
0 0 0
0 0 0
0 0 0
0 0 0
0 0 0
0 0 0
0 0 0
0 0 0
0 0 0
0 0 0
0 0 0
0 0 0
0 0 0
0 0 0
0 0 0
0 0 0
0 0 0
0 0 0
0 0 0
0 0 0
0 0 0
0 0 0
0 0 0
0 0 0
0 0 0
0 0 0
0 0 0
0 0 0
0 0 0
0 0 0
0 0 0
0 0 0
0 0 0
0 0 0
0 0 0
0 0 0
0 0 0
0 0 0
0 0 0
0 0 0
0 0 0
0 0 0
0 0 0
0 0 0
0 0 0
0 0 0
0 0 0
0 0 0
0 0 0
0 0 0
0 0 0
0 0 0
0 0 0
0 0 0
0 0 0
0 0 0
0 0 0
0 0 0
0 0 0
0 0 0
0 0 0
0 0 0
0 0 0
0 0 0
0 0 0
0 0 0
0 0 0
0 0 0
0 0 0
0 0 0
0 0 0
0 0 0
0 0 0
0 0 0
0 0 0
0 0 0
0 0 0
0 0 0
0 0 0
0 0 0
0 0 0
0 0 0
0 0 0
0 0 0
0 0 0
0 0 0
0 0 0
0 0 0
0 0 0
0 0 0
0 0 0
0 0 0
0 0 0
0 0 0
0 0 0
0 0 0
0 0 0
0 0 0
0 0 0
0 0 0
0 0 0
0 0 0
0 0 0
0 0 0
0 0 0
0 0 0
0 0 0
0 0 0
0 0 0
0 0 0
0 0 0
0 0 0
0 0 0
0 0 0
0 0 0
0 0 0
0 0 0
0 0 0
0 0 0
0 0 0
0 0 0
0 0 0
0 0 0
0 0 0
0 0 0
0 0 0
0 0 0
0 0 0
0 0 0
0 0 0
0 0 0
0 0 0
0 0 0
0 0 0
0 0 0
0 0 0
0 0 0
0 0 0
0 0 0
0 0 0
0 0 0
0 0 0
0 0 0
0 0 0
0 0 0
0 0 0
0 0 0
0 0 0
0 0 0
0 0 0
0 0 0
0 0 0
0 0 0
0 0 0
0 0 0
0 0 0
0 0 0
0 0 0
0 0 0
0 0 0
0 0 0
0 0 0
0 0 0
0 0 0
0 0 0
0 0 0
0 0 0
0 0 0
0 0 0
0 0 0
0 0 0
0 0 0
0 0 0
0 0 0
0 0 0
0 0 0
0 0 0
0 0 0
0 0 0
0 0 0
0 0 0
0 0 0
0 0 0
0 0 0
0 0 0
0 0 0
0 0 0
0 0 0
0 0 0
0 0 0
0 0 0
0 0 0
0 0 0
0 0 0
0 0 0
0 0 0
0 0 0
0 0 0
0 0 0
0 0 0
0 0 0
0 0 0
0 0 0
0 0 0
0 0 0
0 0 0
0 0 0
0 0 0
0 0 0
0 0 0
0 0 0
0 0 0
0 0 0
0 0 0
0 0 0
0 0 0
0 0 0
0 0 0
0 0 0
0 0 0
0 0 0
0 0 0
0 0 0
0 0 0
0 0 0
0 0 0
0 0 0
0 0 0
0 0 0
0 0 0
0 0 0
0 0 0
0 0 0
0 0 0
0 0 0
0 0 0
0 0 0
0 0 0
0 0 0
0 0 0
0 0 0
0 0 0
0 0 0
0 0 0
0 0 0
0 0 0
0 0 0
0 0 0
0 0 0
0 0 0
0 0 0
0 0 0
0 0 0
0 0 0
0 0 0
0 0 0
0 0 0
0 0 0
0 0 0
0 0 0
0 0 0
0 0 0
0 0 0
0 0 0
0 0 0
0 0 0
0 0 0
0 0 0
0 0 0
0 0 0
0 0 0
0 0 0
0 0 0
0 0 0
0 0 0
0 0 0
0 0 0
0 0 0
0 0 0
0 0 0
0 0 0
0 0 0
0 0 0
0 0 0
0 0 0
0 0 0
0 0 0
0 0 0
0 0 0
0 0 0
0 0 0
0 0 0
0 0 0
0 0 0
0 0 0
0 0 0
0 0 0
0 0 0
0 0 0
0 0 0
0 0 0
0 0 0
0 0 0
0 0 0
0 0 0
0 0 0
0 0 0
0 0 0
0 0 0
0 0 0
0 0 0
0 0 0
0 0 0
0 0 0
0 0 0
0 0 0
0 0 0
0 0 0
0 0 0
0 0 0
0 0 0
0 0 0
0 0 0
0 0 0
0 0 0
0 0 0
0 0 0
0 0 0
0 0 0
0 0 0
0 0 0
0 0 0
0 0 0
0 0 0
0 0 0
0 0 0
0 0 0
0 0 0
0 0 0
0 0 0
0 0 0
0 0 0
0 0 0
0 0 0
0 0 0
0 0 0
0 0 0
0 0 0
0 0 0
0 0 0
0 0 0
0 0 0
0 0 0
0 0 0
0 0 0
0 0 0
0 0 0
0 0 0
0 0 0
0 0 0
0 0 0
0 0 0
0 0 0
0 0 0
0 0 0
0 0 0
0 0 0
0 0 0
0 0 0
0 0 0
0 0 0
0 0 0
0 0 0
0 0 0
0 0 0
0 0 0
0 0 0
0 0 0
0 0 0
0 0 0
0 0 0
0 0 0
0 0 0
0 0 0
0 0 0
0 0 0
0 0 0
0 0 0
0 0 0
0 0 0
0 0 0
0 0 0
0 0 0
0 0 0
0 0 0
0 0 0
0 0 0
0 0 0
0 0 0
0 0 0
0 0 0
0 0 0
0 0 0
0 0 0
0 0 0
0 0 0
0 0 0
0 0 0
0 0 0
0 0 0
0 0 0
0 0 0
0 0 0
0 0 0
0 0 0
0 0 0
0 0 0
0 0 0
0 0 0
0 0 0
0 0 0
0 0 0
0 0 0
0 0 0
0 0 0
0 0 0
0 0 0
0 0 0
0 0 0
0 0 0
0 0 0
0 0 0
0 0 0
0 0 0
0 0 0
0 0 0
0 0 0
0 0 0
0 0 0
0 0 0
0 0 0
0 0 0
0 0 0
0 0 0
0 0 0
0 0 0
0 0 0
0 0 0
0 0 0
0 0 0
0 0 0
0 0 0
0 0 0
0 0 0
0 0 0
0 0 0
0 0 0
0 0 0
0 0 0
0 0 0
0 0 0
0 0 0
0 0 0
0 0 0
0 0 0
0 0 0
0 0 0
0 0 0
0 0 0
0 0 0
0 0 0
0 0 0
0 0 0
0 0 0
0 0 0
0 0 0
0 0 0
0 0 0
0 0 0
0 0 0
0 0 0
0 0 0
0 0 0
0 0 0
0 0 0
0 0 0
0 0 0
0 0 0
0 0 0
0 0 0
0 0 0
0 0 0
0 0 0
0 0 0
0 0 0
0 0 0
0 0 0
0 0 0
0 0 0
0 0 0
0 0 0
0 0 0
0 0 0
0 0 0
0 0 0
0 0 0
0 0 0
0 0 0
0 0 0
0 0 0
0 0 0
0 0 0
0 0 0
0 0 0
0 0 0
0 0 0
0 0 0
0 0 0
0 0 0
0 0 0
0 0 0
0 0 0
0 0 0
0 0 0
0 0 0
0 0 0
0 0 0
0 0 0
0 0 0
0 0 0
0 0 0
0 0 0
0 0 0
0 0 0
0 0 0
0 0 0
0 0 0
0 0 0
0 0 0
0 0 0
0 0 0
0 0 0
0 0 0
0 0 0
0 0 0
0 0 0
0 0 0
0 0 0
0 0 0
0 0 0
0 0 0
0 0 0
0 0 0
0 0 0
0 0 0
0 0 0
0 0 0
0 0 0
0 0 0
0 0 0
0 0 0
0 0 0
0 0 0
0 0 0
0 0 0
0 0 0
0 0 0
0 0 0
0 0 0
0 0 0
0 0 0
0 0 0
0 0 0
0 0 0
0 0 0
0 0 0
0 0 0
0 0 0
0 0 0
0 0 0
0 0 0
0 0 0
0 0 0
0 0 0
0 0 0
0 0 0
0 0 0
0 0 0
0 0 0
0 0 0
0 0 0
0 0 0
0 0 0
0 0 0
0 0 0
0 0 0
0 0 0
0 0 0
0 0 0
0 0 0
0 0 0
0 0 0
0 0 0
0 0 0
0 0 0
0 0 0
0 0 0
0 0 0
0 0 0
0 0 0
0 0 0
0 0 0
0 0 0
0 0 0
0 0 0
0 0 0
0 0 0
0 0 0
0 0 0
0 0 0
0 0 0
0 0 0
0 0 0
0 0 0
0 0 0
0 0 0
0 0 0
0 0 0
0 0 0
0 0 0
0 0 0
0 0 0
0 0 0
0 0 0
0 0 0
0 0 0
0 0 0
0 0 0
0 0 0
0 0 0
0 0 0
0 0 0
0 0 0
0 0 0
0 0 0
0 0 0
0 0 0
0 0 0
0 0 0
0 0 0
0 0 0
0 0 0
0 0 0
0 0 0
0 0 0
0 0 0
0 0 0
0 0 0
0 0 0
0 0 0
0 0 0
0 0 0
0 0 0
0 0 0
0 0 0
0 0 0
0 0 0
0 0 0
0 0 0
0 0 0
0 0 0
0 0 0
0 0 0
0 0 0
0 0 0
0 0 0
0 0 0
0 0 0
0 0 0
0 0 0
0 0 0
0 0 0
0 0 0
0 0 0
0 0 0
0 0 0
0 0 0
0 0 0
0 0 0
0 0 0
0 0 0
0 0 0
0 0 0
0 0 0
0 0 0
0 0 0
0 0 0
0 0 0
0 0 0
0 0 0
0 0 0
0 0 0
0 0 0
0 0 0
0 0 0
0 0 0
0 0 0
0 0 0
0 0 0
0 0 0
0 0 0
0 0 0
0 0 0
0 0 0
0 0 0
0 0 0
0 0 0
0 0 0
0 0 0
0 0 0
0 0 0
0 0 0
0 0 0
0 0 0
0 0 0
0 0 0
0 0 0
0 0 0
0 0 0
0 0 0
0 0 0
0 0 0
0 0 0
0 0 0
0 0 0
0 0 0
0 0 0
0 0 0
0 0 0
0 0 0
0 0 0
0 0 0
0 0 0
0 0 0
0 0 0
0 0 0
0 0 0
0 0 0
0 0 0
0 0 0
0 0 0
0 0 0
0 0 0
0 0 0
0 0 0
0 0 0
0 0 0
0 0 0
0 0 0
0 0 0
0 0 0
0 0 0
0 0 0
0 0 0
0 0 0
0 0 0
0 0 0
0 0 0
0 0 0
0 0 0
0 0 0
0 0 0
0 0 0
0 0 0
0 0 0
0 0 0
0 0 0
0 0 0
0 0 0
0 0 0
0 0 0
0 0 0
0 0 0
0 0 0
0 0 0
0 0 0
0 0 0
0 0 0
0 0 0
0 0 0
0 0 0
0 0 0
0 0 0
0 0 0
0 0 0
0 0 0
0 0 0
0 0 0
0 0 0
0 0 0
0 0 0
0 0 0
0 0 0
0 0 0
0 0 0
0 0 0
0 0 0
0 0 0
0 0 0
0 0 0
0 0 0
0 0 0
0 0 0
0 0 0
0 0 0
0 0 0
0 0 0
0 0 0
0 0 0
0 0 0
0 0 0
0 0 0
0 0 0
0 0 0
0 0 0
0 0 0
0 0 0
0 0 0
0 0 0
0 0 0
0 0 0
0 0 0
0 0 0
0 0 0
0 0 0
0 0 0
0 0 0
0 0 0
0 0 0
0 0 0
0 0 0
0 0 0
0 0 0
0 0 0
0 0 0
0 0 0
0 0 0
0 0 0
0 0 0
0 0 0
0 0 0
0 0 0
0 0 0
0 0 0
0 0 0
0 0 0
0 0 0
0 0 0
0 0 0
0 0 0
0 0 0
0 0 0
0 0 0
0 0 0
0 0 0
0 0 0
0 0 0
0 0 0
0 0 0
0 0 0
0 0 0
0 0 0
0 0 0
0 0 0
0 0 0
0 0 0
0 0 0
0 0 0
0 0 0
0 0 0
0 0 0
0 0 0
0 0 0
0 0 0
0 0 0
0 0 0
0 0 0
0 0 0
0 0 0
0 0 0
0 0 0
0 0 0
0 0 0
0 0 0
0 0 0
0 0 0
0 0 0
0 0 0
0 0 0
0 0 0
0 0 0
0 0 0
0 0 0
0 0 0
0 0 0
0 0 0
0 0 0
0 0 0
0 0 0
0 0 0
0 0 0
0 0 0
0 0 0
0 0 0
0 0 0
0 0 0
0 0 0
0 0 0
0 0 0
0 0 0
0 0 0
0 0 0
0 0 0
0 0 0
0 0 0
0 0 0
0 0 0
0 0 0
0 0 0
0 0 0
0 0 0
0 0 0
0 0 0
0 0 0
0 0 0
0 0 0
0 0 0
0 0 0
0 0 0
0 0 0
0 0 0
0 0 0
0 0 0
0 0 0
0 0 0
0 0 0
0 0 0
0 0 0
0 0 0
0 0 0
0 0 0
0 0 0
0 0 0
0 0 0
0 0 0
0 0 0
0 0 0
0 0 0
0 0 0
0 0 0
0 0 0
0 0 0
0 0 0
0 0 0
0 0 0
0 0 0
0 0 0
0 0 0
0 0 0
0 0 0
0 0 0
0 0 0
0 0 0
0 0 0
0 0 0
0 0 0
0 0 0
0 0 0
0 0 0
0 0 0
0 0 0
0 0 0
0 0 0
0 0 0
0 0 0
0 0 0
0 0 0
0 0 0
0 0 0
0 0 0
0 0 0
0 0 0
0 0 0
0 0 0
0 0 0
0 0 0
0 0 0
0 0 0
0 0 0
0 0 0
0 0 0
0 0 0
0 0 0
0 0 0
0 0 0
0 0 0
0 0 0
0 0 0
0 0 0
0 0 0
0 0 0
0 0 0
0 0 0
0 0 0
0 0 0
0 0 0
0 0 0
0 0 0
0 0 0
0 0 0
0 0 0
0 0 0
0 0 0
0 0 0
0 0 0
0 0 0
0 0 0
0 0 0
0 0 0
0 0 0
0 0 0
0 0 0
0 0 0
0 0 0
0 0 0
0 0 0
0 0 0
0 0 0
0 0 0
0 0 0
0 0 0
0 0 0
0 0 0
0 0 0
0 0 0
0 0 0
0 0 0
0 0 0
0 0 0
0 0 0
0 0 0
0 0 0
0 0 0
0 0 0
0 0 0
0 0 0
0 0 0
0 0 0
0 0 0
0 0 0
0 0 0
0 0 0
0 0 0
0 0 0
0 0 0
0 0 0
0 0 0
0 0 0
0 0 0
0 0 0
0 0 0
0 0 0
0 0 0
0 0 0
0 0 0
0 0 0
0 0 0
0 0 0
0 0 0
0 0 0
0 0 0
0 0 0
0 0 0
0 0 0
0 0 0
0 0 0
0 0 0
0 0 0
0 0 0
0 0 0
0 0 0
0 0 0
0 0 0
0 0 0
0 0 0
0 0 0
0 0 0
0 0 0
0 0 0
0 0 0
0 0 0
0 0 0
0 0 0
0 0 0
0 0 0
0 0 0
0 0 0
0 0 0
0 0 0
0 0 0
0 0 0
0 0 0
0 0 0
0 0 0
0 0 0
0 0 0
0 0 0
0 0 0
0 0 0
0 0 0
0 0 0
0 0 0
0 0 0
0 0 0
0 0 0
0 0 0
0 0 0
0 0 0
0 0 0
0 0 0
0 0 0
0 0 0
0 0 0
0 0 0
0 0 0
0 0 0
0 0 0
0 0 0
0 0 0
0 0 0
0 0 0
0 0 0
0 0 0
0 0 0
0 0 0
0 0 0
0 0 0
0 0 0
0 0 0
0 0 0
0 0 0
0 0 0
0 0 0
0 0 0
0 0 0
0 0 0
0 0 0
0 0 0
0 0 0
0 0 0
0 0 0
0 0 0
0 0 0
0 0 0
0 0 0
0 0 0
0 0 0
0 0 0
0 0 0
0 0 0
0 0 0
0 0 0
0 0 0
0 0 0
0 0 0
0 0 0
0 0 0
0 0 0
0 0 0
0 0 0
0 0 0
0 0 0
0 0 0
0 0 0
0 0 0
0 0 0
0 0 0
0 0 0
0 0 0
0 0 0
0 0 0
0 0 0
0 0 0
0 0 0
0 0 0
0 0 0
0 0 0
0 0 0
0 0 0
0 0 0
0 0 0
0 0 0
0 0 0
0 0 0
0 0 0
0 0 0
0 0 0
0 0 0
0 0 0
0 0 0
0 0 0
0 0 0
0 0 0
0 0 0
0 0 0
0 0 0
0 0 0
0 0 0
0 0 0
0 0 0
0 0 0
0 0 0
0 0 0
0 0 0
0 0 0
0 0 0
0 0 0
0 0 0
0 0 0
0 0 0
0 0 0
0 0 0
0 0 0
0 0 0
0 0 0
0 0 0
0 0 0
0 0 0
0 0 0
0 0 0
0 0 0
0 0 0
0 0 0
0 0 0
0 0 0
0 0 0
0 0 0
0 0 0
0 0 0
0 0 0
0 0 0
0 0 0
0 0 0
0 0 0
0 0 0
0 0 0
0 0 0
0 0 0
0 0 0
0 0 0
0 0 0
0 0 0
0 0 0
0 0 0
0 0 0
0 0 0
0 0 0
0 0 0
0 0 0
0 0 0
0 0 0
0 0 0
0 0 0
0 0 0
0 0 0
0 0 0
0 0 0
0 0 0
0 0 0
0 0 0
0 0 0
0 0 0
0 0 0
0 0 0
0 0 0
0 0 0
0 0 0
0 0 0
0 0 0
0 0 0
0 0 0
0 0 0
0 0 0
0 0 0
0 0 0
0 0 0
0 0 0
0 0 0
0 0 0
0 0 0
0 0 0
0 0 0
0 0 0
0 0 0
0 0 0
0 0 0
0 0 0
0 0 0
0 0 0
0 0 0
0 0 0
0 0 0
0 0 0
0 0 0
0 0 0
0 0 0
0 0 0
0 0 0
0 0 0
0 0 0
0 0 0
0 0 0
0 0 0
0 0 0
0 0 0
0 0 0
0 0 0
0 0 0
0 0 0
0 0 0
0 0 0
0 0 0
0 0 0
0 0 0
0 0 0
0 0 0
0 0 0
0 0 0
0 0 0
0 0 0
0 0 0
0 0 0
0 0 0
0 0 0
0 0 0
0 0 0
0 0 0
0 0 0
0 0 0
0 0 0
0 0 0
0 0 0
0 0 0
0 0 0
0 0 0
0 0 0
0 0 0
0 0 0
0 0 0
0 0 0
0 0 0
0 0 0
0 0 0
0 0 0
0 0 0
0 0 0
0 0 0
0 0 0
0 0 0
0 0 0
0 0 0
0 0 0
0 0 0
0 0 0
0 0 0
0 0 0
0 0 0
0 0 0
0 0 0
0 0 0
0 0 0
0 0 0
0 0 0
0 0 0
0 0 0
0 0 0
0 0 0
0 0 0
0 0 0
0 0 0
0 0 0
0 0 0
0 0 0
0 0 0
0 0 0
0 0 0
0 0 0
0 0 0
0 0 0
0 0 0
0 0 0
0 0 0
0 0 0
0 0 0
0 0 0
0 0 0
0 0 0
0 0 0
0 0 0
0 0 0
0 0 0
0 0 0
0 0 0
0 0 0
0 0 0
0 0 0
0 0 0
0 0 0
0 0 0
0 0 0
0 0 0
0 0 0
0 0 0
0 0 0
0 0 0
0 0 0
0 0 0
0 0 0
0 0 0
0 0 0
0 0 0
0 0 0
0 0 0
0 0 0
0 0 0
0 0 0
0 0 0
0 0 0
0 0 0
0 0 0
0 0 0
0 0 0
0 0 0
0 0 0
0 0 0
0 0 0
0 0 0
0 0 0
0 0 0
0 0 0
0 0 0
0 0 0
0 0 0
0 0 0
0 0 0
0 0 0
0 0 0
0 0 0
0 0 0
0 0 0
0 0 0
0 0 0
0 0 0
0 0 0
0 0 0
0 0 0
0 0 0
0 0 0
0 0 0
0 0 0
0 0 0
0 0 0
0 0 0
0 0 0
0 0 0
0 0 0
0 0 0
0 0 0
0 0 0
0 0 0
0 0 0
0 0 0
0 0 0
0 0 0
0 0 0
0 0 0
0 0 0
0 0 0
0 0 0
0 0 0
0 0 0
0 0 0
0 0 0
0 0 0
0 0 0
0 0 0
0 0 0
0 0 0
0 0 0
0 0 0
0 0 0
0 0 0
0 0 0
0 0 0
0 0 0
0 0 0
0 0 0
0 0 0
0 0 0
0 0 0
0 0 0
0 0 0
0 0 0
0 0 0
0 0 0
0 0 0
0 0 0
0 0 0
0 0 0
0 0 0
0 0 0
0 0 0
0 0 0
0 0 0
0 0 0
0 0 0
0 0 0
0 0 0
0 0 0
0 0 0
0 0 0
0 0 0
0 0 0
0 0 0
0 0 0
0 0 0
0 0 0
0 0 0
0 0 0
0 0 0
0 0 0
0 0 0
0 0 0
0 0 0
0 0 0
0 0 0
0 0 0
0 0 0
0 0 0
0 0 0
0 0 0
0 0 0
0 0 0
0 0 0
0 0 0
0 0 0
0 0 0
0 0 0
0 0 0
0 0 0
0 0 0
0 0 0
0 0 0
0 0 0
0 0 0
0 0 0
0 0 0
0 0 0
0 0 0
0 0 0
0 0 0
0 0 0
0 0 0
0 0 0
0 0 0
0 0 0
0 0 0
0 0 0
0 0 0
0 0 0
0 0 0
0 0 0
0 0 0
0 0 0
0 0 0
0 0 0
0 0 0
0 0 0
0 0 0
0 0 0
0 0 0
0 0 0
0 0 0
0 0 0
0 0 0
0 0 0
0 0 0
0 0 0
0 0 0
0 0 0
0 0 0
0 0 0
0 0 0
0 0 0
0 0 0
0 0 0
0 0 0
0 0 0
0 0 0
0 0 0
0 0 0
0 0 0
0 0 0
0 0 0
0 0 0
0 0 0
0 0 0
0 0 0
0 0 0
0 0 0
0 0 0
0 0 0
0 0 0
0 0 0
0 0 0
0 0 0
0 0 0
0 0 0
0 0 0
0 0 0
0 0 0
0 0 0
0 0 0
0 0 0
0 0 0
0 0 0
0 0 0
0 0 0
0 0 0
0 0 0
0 0 0
0 0 0
0 0 0
0 0 0
0 0 0
0 0 0
0 0 0
0 0 0
0 0 0
0 0 0
0 0 0
0 0 0
0 0 0
0 0 0
0 0 0
0 0 0
0 0 0
0 0 0
0 0 0
0 0 0
0 0 0
0 0 0
0 0 0
0 0 0
0 0 0
0 0 0
0 0 0
0 0 0
0 0 0
0 0 0
0 0 0
0 0 0
0 0 0
0 0 0
0 0 0
0 0 0
0 0 0
0 0 0
0 0 0
0 0 0
0 0 0
0 0 0
0 0 0
0 0 0
0 0 0
0 0 0
0 0 0
0 0 0
0 0 0
0 0 0
0 0 0
0 0 0
0 0 0
0 0 0
0 0 0
0 0 0
0 0 0
0 0 0
0 0 0
0 0 0
0 0 0
0 0 0
0 0 0
0 0 0
0 0 0
0 0 0
0 0 0
0 0 0
0 0 0
0 0 0
0 0 0
0 0 0
0 0 0
0 0 0
0 0 0
0 0 0
0 0 0
0 0 0
0 0 0
0 0 0
0 0 0
0 0 0
0 0 0
0 0 0
0 0 0
0 0 0
0 0 0
0 0 0
0 0 0
0 0 0
0 0 0
0 0 0
0 0 0
0 0 0
0 0 0
0 0 0
0 0 0
0 0 0
0 0 0
0 0 0
0 0 0
0 0 0
0 0 0
0 0 0
0 0 0
0 0 0
0 0 0
0 0 0
0 0 0
0 0 0
0 0 0
0 0 0
0 0 0
0 0 0
0 0 0
0 0 0
0 0 0
0 0 0
0 0 0
0 0 0
0 0 0
0 0 0
0 0 0
0 0 0
0 0 0
0 0 0
0 0 0
0 0 0
0 0 0
0 0 0
0 0 0
0 0 0
0 0 0
0 0 0
0 0 0
0 0 0
0 0 0
0 0 0
0 0 0
0 0 0
0 0 0
0 0 0
0 0 0
0 0 0
0 0 0
0 0 0
0 0 0
0 0 0
0 0 0
0 0 0
0 0 0
0 0 0
0 0 0
0 0 0
0 0 0
0 0 0
0 0 0
0 0 0
0 0 0
0 0 0
0 0 0
0 0 0
0 0 0
0 0 0
0 0 0
0 0 0
0 0 0
0 0 0
0 0 0
0 0 0
0 0 0
0 0 0
0 0 0
0 0 0
0 0 0
0 0 0
0 0 0
0 0 0
0 0 0
0 0 0
0 0 0
0 0 0
0 0 0
0 0 0
0 0 0
0 0 0
0 0 0
0 0 0
0 0 0
0 0 0
0 0 0
0 0 0
0 0 0
0 0 0
0 0 0
0 0 0
0 0 0
0 0 0
0 0 0
0 0 0
0 0 0
0 0 0
0 0 0
0 0 0
0 0 0
0 0 0
0 0 0
0 0 0
0 0 0
0 0 0
0 0 0
0 0 0
0 0 0
0 0 0
0 0 0
0 0 0
0 0 0
0 0 0
0 0 0
0 0 0
0 0 0
0 0 0
0 0 0
0 0 0
0 0 0
0 0 0
0 0 0
0 0 0
0 0 0
0 0 0
0 0 0
0 0 0
0 0 0
0 0 0
0 0 0
0 0 0
VECTORS seepage_velocity_TPM float
0 0 0
0 0 0
0 0 0
0 0 0
0 0 0
0 0 0
0 0 0
0 0 0
0 0 0
0 0 0
0 0 0
0 0 0
0 0 0
0 0 0
0 0 0
0 0 0
0 0 0
0 0 0
0 0 0
0 0 0
0 0 0
0 0 0
0 0 0
0 0 0
0 0 0
0 0 0
0 0 0
0 0 0
0 0 0
0 0 0
0 0 0
0 0 0
0 0 0
0 0 0
0 0 0
0 0 0
0 0 0
0 0 0
0 0 0
0 0 0
0 0 0
0 0 0
0 0 0
0 0 0
0 0 0
0 0 0
0 0 0
0 0 0
0 0 0
0 0 0
0 0 0
0 0 0
0 0 0
0 0 0
0 0 0
0 0 0
0 0 0
0 0 0
0 0 0
0 0 0
0 0 0
0 0 0
0 0 0
0 0 0
0 0 0
0 0 0
0 0 0
0 0 0
0 0 0
0 0 0
0 0 0
0 0 0
0 0 0
0 0 0
0 0 0
0 0 0
0 0 0
0 0 0
0 0 0
0 0 0
0 0 0
0 0 0
0 0 0
0 0 0
0 0 0
0 0 0
0 0 0
0 0 0
0 0 0
0 0 0
0 0 0
0 0 0
0 0 0
0 0 0
0 0 0
0 0 0
0 0 0
0 0 0
0 0 0
0 0 0
0 0 0
0 0 0
0 0 0
0 0 0
0 0 0
0 0 0
0 0 0
0 0 0
0 0 0
0 0 0
0 0 0
0 0 0
0 0 0
0 0 0
0 0 0
0 0 0
0 0 0
0 0 0
0 0 0
0 0 0
0 0 0
0 0 0
0 0 0
0 0 0
0 0 0
0 0 0
0 0 0
0 0 0
0 0 0
0 0 0
0 0 0
0 0 0
0 0 0
0 0 0
0 0 0
0 0 0
0 0 0
0 0 0
0 0 0
0 0 0
0 0 0
0 0 0
0 0 0
0 0 0
0 0 0
0 0 0
0 0 0
0 0 0
0 0 0
0 0 0
0 0 0
0 0 0
0 0 0
0 0 0
0 0 0
0 0 0
0 0 0
0 0 0
0 0 0
0 0 0
0 0 0
0 0 0
0 0 0
0 0 0
0 0 0
0 0 0
0 0 0
0 0 0
0 0 0
0 0 0
0 0 0
0 0 0
0 0 0
0 0 0
0 0 0
0 0 0
0 0 0
0 0 0
0 0 0
0 0 0
0 0 0
0 0 0
0 0 0
0 0 0
0 0 0
0 0 0
0 0 0
0 0 0
0 0 0
0 0 0
0 0 0
0 0 0
0 0 0
0 0 0
0 0 0
0 0 0
0 0 0
0 0 0
0 0 0
0 0 0
0 0 0
0 0 0
0 0 0
0 0 0
0 0 0
0 0 0
0 0 0
0 0 0
0 0 0
0 0 0
0 0 0
0 0 0
0 0 0
0 0 0
0 0 0
0 0 0
0 0 0
0 0 0
0 0 0
0 0 0
0 0 0
0 0 0
0 0 0
0 0 0
0 0 0
0 0 0
0 0 0
0 0 0
0 0 0
0 0 0
0 0 0
0 0 0
0 0 0
0 0 0
0 0 0
0 0 0
0 0 0
0 0 0
0 0 0
0 0 0
0 0 0
0 0 0
0 0 0
0 0 0
0 0 0
0 0 0
0 0 0
0 0 0
0 0 0
0 0 0
0 0 0
0 0 0
0 0 0
0 0 0
0 0 0
0 0 0
0 0 0
0 0 0
0 0 0
0 0 0
0 0 0
0 0 0
0 0 0
0 0 0
0 0 0
0 0 0
0 0 0
0 0 0
0 0 0
0 0 0
0 0 0
0 0 0
0 0 0
0 0 0
0 0 0
0 0 0
0 0 0
0 0 0
0 0 0
0 0 0
0 0 0
0 0 0
0 0 0
0 0 0
0 0 0
0 0 0
0 0 0
0 0 0
0 0 0
0 0 0
0 0 0
0 0 0
0 0 0
0 0 0
0 0 0
0 0 0
0 0 0
0 0 0
0 0 0
0 0 0
0 0 0
0 0 0
0 0 0
0 0 0
0 0 0
0 0 0
0 0 0
0 0 0
0 0 0
0 0 0
0 0 0
0 0 0
0 0 0
0 0 0
0 0 0
0 0 0
0 0 0
0 0 0
0 0 0
0 0 0
0 0 0
0 0 0
0 0 0
0 0 0
0 0 0
0 0 0
0 0 0
0 0 0
0 0 0
0 0 0
0 0 0
0 0 0
0 0 0
0 0 0
0 0 0
0 0 0
0 0 0
0 0 0
0 0 0
0 0 0
0 0 0
0 0 0
0 0 0
0 0 0
0 0 0
0 0 0
0 0 0
0 0 0
0 0 0
0 0 0
0 0 0
0 0 0
0 0 0
0 0 0
0 0 0
0 0 0
0 0 0
0 0 0
0 0 0
0 0 0
0 0 0
0 0 0
0 0 0
0 0 0
0 0 0
0 0 0
0 0 0
0 0 0
0 0 0
0 0 0
0 0 0
0 0 0
0 0 0
0 0 0
0 0 0
0 0 0
0 0 0
0 0 0
0 0 0
0 0 0
0 0 0
0 0 0
0 0 0
0 0 0
0 0 0
0 0 0
0 0 0
0 0 0
0 0 0
0 0 0
0 0 0
0 0 0
0 0 0
0 0 0
0 0 0
0 0 0
0 0 0
0 0 0
0 0 0
0 0 0
0 0 0
0 0 0
0 0 0
0 0 0
0 0 0
0 0 0
0 0 0
0 0 0
0 0 0
0 0 0
0 0 0
0 0 0
0 0 0
0 0 0
0 0 0
0 0 0
0 0 0
0 0 0
0 0 0
0 0 0
0 0 0
0 0 0
0 0 0
0 0 0
0 0 0
0 0 0
0 0 0
0 0 0
0 0 0
0 0 0
0 0 0
0 0 0
0 0 0
0 0 0
0 0 0
0 0 0
0 0 0
0 0 0
0 0 0
0 0 0
0 0 0
0 0 0
0 0 0
0 0 0
0 0 0
0 0 0
0 0 0
0 0 0
0 0 0
0 0 0
0 0 0
0 0 0
0 0 0
0 0 0
0 0 0
0 0 0
0 0 0
0 0 0
0 0 0
0 0 0
0 0 0
0 0 0
0 0 0
0 0 0
0 0 0
0 0 0
0 0 0
0 0 0
0 0 0
0 0 0
0 0 0
0 0 0
0 0 0
0 0 0
0 0 0
0 0 0
0 0 0
0 0 0
0 0 0
0 0 0
0 0 0
0 0 0
0 0 0
0 0 0
0 0 0
0 0 0
0 0 0
0 0 0
0 0 0
0 0 0
0 0 0
0 0 0
0 0 0
0 0 0
0 0 0
0 0 0
0 0 0
0 0 0
0 0 0
0 0 0
0 0 0
0 0 0
0 0 0
0 0 0
0 0 0
0 0 0
0 0 0
0 0 0
0 0 0
0 0 0
0 0 0
0 0 0
0 0 0
0 0 0
0 0 0
0 0 0
0 0 0
0 0 0
0 0 0
0 0 0
0 0 0
0 0 0
0 0 0
0 0 0
0 0 0
0 0 0
0 0 0
0 0 0
0 0 0
0 0 0
0 0 0
0 0 0
0 0 0
0 0 0
0 0 0
0 0 0
0 0 0
0 0 0
0 0 0
0 0 0
0 0 0
0 0 0
0 0 0
0 0 0
0 0 0
0 0 0
0 0 0
0 0 0
0 0 0
0 0 0
0 0 0
0 0 0
0 0 0
0 0 0
0 0 0
0 0 0
0 0 0
0 0 0
0 0 0
0 0 0
0 0 0
0 0 0
0 0 0
0 0 0
0 0 0
0 0 0
0 0 0
0 0 0
0 0 0
0 0 0
0 0 0
0 0 0
0 0 0
0 0 0
0 0 0
0 0 0
0 0 0
0 0 0
0 0 0
0 0 0
0 0 0
0 0 0
0 0 0
0 0 0
0 0 0
0 0 0
0 0 0
0 0 0
0 0 0
0 0 0
0 0 0
0 0 0
0 0 0
0 0 0
0 0 0
0 0 0
0 0 0
0 0 0
0 0 0
0 0 0
0 0 0
0 0 0
0 0 0
0 0 0
0 0 0
0 0 0
0 0 0
0 0 0
0 0 0
0 0 0
0 0 0
0 0 0
0 0 0
0 0 0
0 0 0
0 0 0
0 0 0
0 0 0
0 0 0
0 0 0
0 0 0
0 0 0
0 0 0
0 0 0
0 0 0
0 0 0
0 0 0
0 0 0
0 0 0
0 0 0
0 0 0
0 0 0
0 0 0
0 0 0
0 0 0
0 0 0
0 0 0
0 0 0
0 0 0
0 0 0
0 0 0
0 0 0
0 0 0
0 0 0
0 0 0
0 0 0
0 0 0
0 0 0
0 0 0
0 0 0
0 0 0
0 0 0
0 0 0
0 0 0
0 0 0
0 0 0
0 0 0
0 0 0
0 0 0
0 0 0
0 0 0
0 0 0
0 0 0
0 0 0
0 0 0
0 0 0
0 0 0
0 0 0
0 0 0
0 0 0
0 0 0
0 0 0
0 0 0
0 0 0
0 0 0
0 0 0
0 0 0
0 0 0
0 0 0
0 0 0
0 0 0
0 0 0
0 0 0
0 0 0
0 0 0
0 0 0
0 0 0
0 0 0
0 0 0
0 0 0
0 0 0
0 0 0
0 0 0
0 0 0
0 0 0
0 0 0
0 0 0
0 0 0
0 0 0
0 0 0
0 0 0
0 0 0
0 0 0
0 0 0
0 0 0
0 0 0
0 0 0
0 0 0
0 0 0
0 0 0
0 0 0
0 0 0
0 0 0
0 0 0
0 0 0
0 0 0
0 0 0
0 0 0
0 0 0
0 0 0
0 0 0
0 0 0
0 0 0
0 0 0
0 0 0
0 0 0
0 0 0
0 0 0
0 0 0
0 0 0
0 0 0
0 0 0
0 0 0
0 0 0
0 0 0
0 0 0
0 0 0
0 0 0
0 0 0
0 0 0
0 0 0
0 0 0
0 0 0
0 0 0
0 0 0
0 0 0
0 0 0
0 0 0
0 0 0
0 0 0
0 0 0
0 0 0
0 0 0
0 0 0
0 0 0
0 0 0
0 0 0
0 0 0
0 0 0
0 0 0
0 0 0
0 0 0
0 0 0
0 0 0
0 0 0
0 0 0
0 0 0
0 0 0
0 0 0
0 0 0
0 0 0
0 0 0
0 0 0
0 0 0
0 0 0
0 0 0
0 0 0
0 0 0
0 0 0
0 0 0
0 0 0
0 0 0
0 0 0
0 0 0
0 0 0
0 0 0
0 0 0
0 0 0
0 0 0
0 0 0
0 0 0
0 0 0
0 0 0
0 0 0
0 0 0
0 0 0
0 0 0
0 0 0
0 0 0
0 0 0
0 0 0
0 0 0
0 0 0
0 0 0
0 0 0
0 0 0
0 0 0
0 0 0
0 0 0
0 0 0
0 0 0
0 0 0
0 0 0
0 0 0
0 0 0
0 0 0
0 0 0
0 0 0
0 0 0
0 0 0
0 0 0
0 0 0
0 0 0
0 0 0
0 0 0
0 0 0
0 0 0
0 0 0
0 0 0
0 0 0
0 0 0
0 0 0
0 0 0
0 0 0
0 0 0
0 0 0
0 0 0
0 0 0
0 0 0
0 0 0
0 0 0
0 0 0
0 0 0
0 0 0
0 0 0
0 0 0
0 0 0
0 0 0
0 0 0
0 0 0
0 0 0
0 0 0
0 0 0
0 0 0
0 0 0
0 0 0
0 0 0
0 0 0
0 0 0
0 0 0
0 0 0
0 0 0
0 0 0
0 0 0
0 0 0
0 0 0
0 0 0
0 0 0
0 0 0
0 0 0
0 0 0
0 0 0
0 0 0
0 0 0
0 0 0
0 0 0
0 0 0
0 0 0
0 0 0
0 0 0
0 0 0
0 0 0
0 0 0
0 0 0
0 0 0
0 0 0
0 0 0
0 0 0
0 0 0
0 0 0
0 0 0
0 0 0
0 0 0
0 0 0
0 0 0
0 0 0
0 0 0
0 0 0
0 0 0
0 0 0
0 0 0
0 0 0
0 0 0
0 0 0
0 0 0
0 0 0
0 0 0
0 0 0
0 0 0
0 0 0
0 0 0
0 0 0
0 0 0
0 0 0
0 0 0
0 0 0
0 0 0
0 0 0
0 0 0
0 0 0
0 0 0
0 0 0
0 0 0
0 0 0
0 0 0
0 0 0
0 0 0
0 0 0
0 0 0
0 0 0
0 0 0
0 0 0
0 0 0
0 0 0
0 0 0
0 0 0
0 0 0
0 0 0
0 0 0
0 0 0
0 0 0
0 0 0
0 0 0
0 0 0
0 0 0
0 0 0
0 0 0
0 0 0
0 0 0
0 0 0
0 0 0
0 0 0
0 0 0
0 0 0
0 0 0
0 0 0
0 0 0
0 0 0
0 0 0
0 0 0
0 0 0
0 0 0
0 0 0
0 0 0
0 0 0
0 0 0
0 0 0
0 0 0
0 0 0
0 0 0
0 0 0
0 0 0
0 0 0
0 0 0
0 0 0
0 0 0
0 0 0
0 0 0
0 0 0
0 0 0
0 0 0
0 0 0
0 0 0
0 0 0
0 0 0
0 0 0
0 0 0
0 0 0
0 0 0
0 0 0
0 0 0
0 0 0
0 0 0
0 0 0
0 0 0
0 0 0
0 0 0
0 0 0
0 0 0
0 0 0
0 0 0
0 0 0
0 0 0
0 0 0
0 0 0
0 0 0
0 0 0
0 0 0
0 0 0
0 0 0
0 0 0
0 0 0
0 0 0
0 0 0
0 0 0
0 0 0
0 0 0
0 0 0
0 0 0
0 0 0
0 0 0
0 0 0
0 0 0
0 0 0
0 0 0
0 0 0
0 0 0
0 0 0
0 0 0
0 0 0
0 0 0
0 0 0
0 0 0
0 0 0
0 0 0
0 0 0
0 0 0
0 0 0
0 0 0
0 0 0
0 0 0
0 0 0
0 0 0
0 0 0
0 0 0
0 0 0
0 0 0
0 0 0
0 0 0
0 0 0
0 0 0
0 0 0
0 0 0
0 0 0
0 0 0
0 0 0
0 0 0
0 0 0
0 0 0
0 0 0
0 0 0
0 0 0
0 0 0
0 0 0
0 0 0
0 0 0
0 0 0
0 0 0
0 0 0
0 0 0
0 0 0
0 0 0
0 0 0
0 0 0
0 0 0
0 0 0
0 0 0
0 0 0
0 0 0
0 0 0
0 0 0
0 0 0
0 0 0
0 0 0
0 0 0
0 0 0
0 0 0
0 0 0
0 0 0
0 0 0
0 0 0
0 0 0
0 0 0
0 0 0
0 0 0
0 0 0
0 0 0
0 0 0
0 0 0
0 0 0
0 0 0
0 0 0
0 0 0
0 0 0
0 0 0
0 0 0
0 0 0
0 0 0
0 0 0
0 0 0
0 0 0
0 0 0
0 0 0
0 0 0
0 0 0
0 0 0
0 0 0
0 0 0
0 0 0
0 0 0
0 0 0
0 0 0
0 0 0
0 0 0
0 0 0
0 0 0
0 0 0
0 0 0
0 0 0
0 0 0
0 0 0
0 0 0
0 0 0
0 0 0
0 0 0
0 0 0
0 0 0
0 0 0
0 0 0
0 0 0
0 0 0
0 0 0
0 0 0
0 0 0
0 0 0
0 0 0
0 0 0
0 0 0
0 0 0
0 0 0
0 0 0
0 0 0
0 0 0
0 0 0
0 0 0
0 0 0
0 0 0
0 0 0
0 0 0
0 0 0
0 0 0
0 0 0
0 0 0
0 0 0
0 0 0
0 0 0
0 0 0
0 0 0
0 0 0
0 0 0
0 0 0
0 0 0
0 0 0
0 0 0
0 0 0
0 0 0
0 0 0
0 0 0
0 0 0
0 0 0
0 0 0
0 0 0
0 0 0
0 0 0
0 0 0
0 0 0
0 0 0
0 0 0
0 0 0
0 0 0
0 0 0
0 0 0
0 0 0
0 0 0
0 0 0
0 0 0
0 0 0
0 0 0
0 0 0
0 0 0
0 0 0
0 0 0
0 0 0
0 0 0
0 0 0
0 0 0
0 0 0
0 0 0
0 0 0
0 0 0
0 0 0
0 0 0
0 0 0
0 0 0
0 0 0
0 0 0
0 0 0
0 0 0
0 0 0
0 0 0
0 0 0
0 0 0
0 0 0
0 0 0
0 0 0
0 0 0
0 0 0
0 0 0
0 0 0
0 0 0
0 0 0
0 0 0
0 0 0
0 0 0
0 0 0
0 0 0
0 0 0
0 0 0
0 0 0
0 0 0
0 0 0
0 0 0
0 0 0
0 0 0
0 0 0
0 0 0
0 0 0
0 0 0
0 0 0
0 0 0
0 0 0
0 0 0
0 0 0
0 0 0
0 0 0
0 0 0
0 0 0
0 0 0
0 0 0
0 0 0
0 0 0
0 0 0
0 0 0
0 0 0
0 0 0
0 0 0
0 0 0
0 0 0
0 0 0
0 0 0
0 0 0
0 0 0
0 0 0
0 0 0
0 0 0
0 0 0
0 0 0
0 0 0
0 0 0
0 0 0
0 0 0
0 0 0
0 0 0
0 0 0
0 0 0
0 0 0
0 0 0
0 0 0
0 0 0
0 0 0
0 0 0
0 0 0
0 0 0
0 0 0
0 0 0
0 0 0
0 0 0
0 0 0
0 0 0
0 0 0
0 0 0
0 0 0
0 0 0
0 0 0
0 0 0
0 0 0
0 0 0
0 0 0
0 0 0
0 0 0
0 0 0
0 0 0
0 0 0
0 0 0
0 0 0
0 0 0
0 0 0
0 0 0
0 0 0
0 0 0
0 0 0
0 0 0
0 0 0
0 0 0
0 0 0
0 0 0
0 0 0
0 0 0
0 0 0
0 0 0
0 0 0
0 0 0
0 0 0
0 0 0
0 0 0
0 0 0
0 0 0
0 0 0
0 0 0
0 0 0
0 0 0
0 0 0
0 0 0
0 0 0
0 0 0
0 0 0
0 0 0
0 0 0
0 0 0
0 0 0
0 0 0
0 0 0
0 0 0
0 0 0
0 0 0
0 0 0
0 0 0
0 0 0
0 0 0
0 0 0
0 0 0
0 0 0
0 0 0
0 0 0
0 0 0
0 0 0
0 0 0
0 0 0
0 0 0
0 0 0
0 0 0
0 0 0
0 0 0
0 0 0
0 0 0
0 0 0
0 0 0
0 0 0
0 0 0
0 0 0
0 0 0
0 0 0
0 0 0
0 0 0
0 0 0
0 0 0
0 0 0
0 0 0
0 0 0
0 0 0
0 0 0
0 0 0
0 0 0
0 0 0
0 0 0
0 0 0
0 0 0
0 0 0
0 0 0
0 0 0
0 0 0
0 0 0
0 0 0
0 0 0
0 0 0
0 0 0
0 0 0
0 0 0
0 0 0
0 0 0
0 0 0
0 0 0
0 0 0
0 0 0
0 0 0
0 0 0
0 0 0
0 0 0
0 0 0
0 0 0
0 0 0
0 0 0
0 0 0
0 0 0
0 0 0
0 0 0
0 0 0
0 0 0
0 0 0
0 0 0
0 0 0
0 0 0
0 0 0
0 0 0
0 0 0
0 0 0
0 0 0
0 0 0
0 0 0
0 0 0
0 0 0
0 0 0
0 0 0
0 0 0
0 0 0
0 0 0
0 0 0
0 0 0
0 0 0
0 0 0
0 0 0
0 0 0
0 0 0
0 0 0
0 0 0
0 0 0
0 0 0
0 0 0
0 0 0
0 0 0
0 0 0
0 0 0
0 0 0
0 0 0
0 0 0
0 0 0
0 0 0
0 0 0
0 0 0
0 0 0
0 0 0
0 0 0
0 0 0
0 0 0
0 0 0
0 0 0
0 0 0
0 0 0
0 0 0
0 0 0
0 0 0
0 0 0
0 0 0
0 0 0
0 0 0
0 0 0
0 0 0
0 0 0
0 0 0
0 0 0
0 0 0
0 0 0
0 0 0
0 0 0
0 0 0
0 0 0
0 0 0
0 0 0
0 0 0
0 0 0
0 0 0
0 0 0
0 0 0
0 0 0
0 0 0
0 0 0
0 0 0
0 0 0
0 0 0
0 0 0
0 0 0
0 0 0
0 0 0
0 0 0
0 0 0
0 0 0
0 0 0
0 0 0
0 0 0
0 0 0
0 0 0
0 0 0
0 0 0
0 0 0
0 0 0
0 0 0
0 0 0
0 0 0
0 0 0
0 0 0
0 0 0
0 0 0
0 0 0
0 0 0
0 0 0
0 0 0
0 0 0
0 0 0
0 0 0
0 0 0
0 0 0
0 0 0
0 0 0
0 0 0
0 0 0
0 0 0
0 0 0
0 0 0
0 0 0
0 0 0
0 0 0
0 0 0
0 0 0
0 0 0
0 0 0
0 0 0
0 0 0
0 0 0
0 0 0
0 0 0
0 0 0
0 0 0
0 0 0
0 0 0
0 0 0
0 0 0
0 0 0
0 0 0
0 0 0
0 0 0
0 0 0
0 0 0
0 0 0
0 0 0
0 0 0
0 0 0
0 0 0
0 0 0
0 0 0
0 0 0
0 0 0
0 0 0
0 0 0
0 0 0
0 0 0
0 0 0
0 0 0
0 0 0
0 0 0
0 0 0
0 0 0
0 0 0
0 0 0
0 0 0
0 0 0
0 0 0
0 0 0
0 0 0
0 0 0
0 0 0
0 0 0
0 0 0
0 0 0
0 0 0
0 0 0
0 0 0
0 0 0
0 0 0
0 0 0
0 0 0
0 0 0
0 0 0
0 0 0
0 0 0
0 0 0
0 0 0
0 0 0
0 0 0
0 0 0
0 0 0
0 0 0
0 0 0
0 0 0
0 0 0
0 0 0
0 0 0
0 0 0
0 0 0
0 0 0
0 0 0
0 0 0
0 0 0
0 0 0
0 0 0
0 0 0
0 0 0
0 0 0
0 0 0
0 0 0
0 0 0
0 0 0
0 0 0
0 0 0
0 0 0
0 0 0
0 0 0
0 0 0
0 0 0
0 0 0
0 0 0
0 0 0
0 0 0
0 0 0
0 0 0
0 0 0
0 0 0
0 0 0
0 0 0
0 0 0
0 0 0
0 0 0
0 0 0
0 0 0
0 0 0
0 0 0
0 0 0
0 0 0
0 0 0
0 0 0
0 0 0
0 0 0
0 0 0
0 0 0
0 0 0
0 0 0
0 0 0
0 0 0
0 0 0
0 0 0
0 0 0
0 0 0
0 0 0
0 0 0
0 0 0
0 0 0
0 0 0
0 0 0
0 0 0
0 0 0
0 0 0
0 0 0
0 0 0
0 0 0
0 0 0
0 0 0
0 0 0
0 0 0
0 0 0
0 0 0
0 0 0
0 0 0
0 0 0
0 0 0
0 0 0
0 0 0
0 0 0
0 0 0
0 0 0
0 0 0
0 0 0
0 0 0
0 0 0
0 0 0
0 0 0
0 0 0
0 0 0
0 0 0
0 0 0
0 0 0
0 0 0
0 0 0
0 0 0
0 0 0
0 0 0
0 0 0
0 0 0
0 0 0
0 0 0
0 0 0
0 0 0
0 0 0
0 0 0
0 0 0
0 0 0
0 0 0
0 0 0
0 0 0
0 0 0
0 0 0
0 0 0
0 0 0
0 0 0
0 0 0
0 0 0
0 0 0
0 0 0
0 0 0
0 0 0
0 0 0
0 0 0
0 0 0
0 0 0
0 0 0
0 0 0
0 0 0
0 0 0
0 0 0
0 0 0
0 0 0
0 0 0
0 0 0
0 0 0
0 0 0
0 0 0
0 0 0
0 0 0
0 0 0
0 0 0
0 0 0
0 0 0
0 0 0
0 0 0
0 0 0
0 0 0
0 0 0
0 0 0
0 0 0
0 0 0
0 0 0
0 0 0
0 0 0
0 0 0
0 0 0
0 0 0
0 0 0
0 0 0
0 0 0
0 0 0
0 0 0
0 0 0
0 0 0
0 0 0
0 0 0
0 0 0
0 0 0
0 0 0
0 0 0
0 0 0
0 0 0
0 0 0
0 0 0
0 0 0
0 0 0
0 0 0
0 0 0
0 0 0
0 0 0
0 0 0
0 0 0
0 0 0
0 0 0
0 0 0
0 0 0
0 0 0
0 0 0
0 0 0
0 0 0
0 0 0
0 0 0
0 0 0
0 0 0
0 0 0
0 0 0
0 0 0
0 0 0
0 0 0
0 0 0
0 0 0
0 0 0
0 0 0
0 0 0
0 0 0
0 0 0
0 0 0
0 0 0
0 0 0
0 0 0
0 0 0
0 0 0
0 0 0
0 0 0
0 0 0
0 0 0
0 0 0
0 0 0
0 0 0
0 0 0
0 0 0
0 0 0
0 0 0
0 0 0
0 0 0
0 0 0
0 0 0
0 0 0
0 0 0
0 0 0
0 0 0
0 0 0
0 0 0
0 0 0
0 0 0
0 0 0
0 0 0
0 0 0
0 0 0
0 0 0
0 0 0
0 0 0
0 0 0
0 0 0
0 0 0
0 0 0
0 0 0
0 0 0
0 0 0
0 0 0
0 0 0
0 0 0
0 0 0
0 0 0
0 0 0
0 0 0
0 0 0
0 0 0
0 0 0
0 0 0
0 0 0
0 0 0
0 0 0
0 0 0
0 0 0
0 0 0
0 0 0
0 0 0
0 0 0
0 0 0
0 0 0
0 0 0
0 0 0
0 0 0
0 0 0
0 0 0
0 0 0
0 0 0
0 0 0
0 0 0
0 0 0
0 0 0
0 0 0
0 0 0
0 0 0
0 0 0
0 0 0
0 0 0
0 0 0
0 0 0
0 0 0
0 0 0
0 0 0
0 0 0
0 0 0
0 0 0
0 0 0
0 0 0
0 0 0
0 0 0
0 0 0
0 0 0
0 0 0
0 0 0
0 0 0
0 0 0
0 0 0
0 0 0
0 0 0
0 0 0
0 0 0
0 0 0
0 0 0
0 0 0
0 0 0
0 0 0
0 0 0
0 0 0
0 0 0
0 0 0
0 0 0
0 0 0
0 0 0
0 0 0
0 0 0
0 0 0
0 0 0
0 0 0
0 0 0
0 0 0
0 0 0
0 0 0
0 0 0
0 0 0
0 0 0
0 0 0
0 0 0
0 0 0
0 0 0
0 0 0
0 0 0
0 0 0
0 0 0
0 0 0
0 0 0
0 0 0
0 0 0
0 0 0
0 0 0
0 0 0
0 0 0
0 0 0
0 0 0
0 0 0
0 0 0
0 0 0
0 0 0
0 0 0
0 0 0
0 0 0
0 0 0
0 0 0
0 0 0
0 0 0
0 0 0
0 0 0
0 0 0
0 0 0
0 0 0
0 0 0
0 0 0
0 0 0
0 0 0
0 0 0
0 0 0
0 0 0
0 0 0
0 0 0
0 0 0
0 0 0
0 0 0
0 0 0
0 0 0
0 0 0
0 0 0
0 0 0
0 0 0
0 0 0
0 0 0
0 0 0
0 0 0
0 0 0
0 0 0
0 0 0
0 0 0
0 0 0
0 0 0
0 0 0
0 0 0
0 0 0
0 0 0
0 0 0
0 0 0
0 0 0
0 0 0
0 0 0
0 0 0
0 0 0
0 0 0
0 0 0
0 0 0
0 0 0
0 0 0
0 0 0
0 0 0
0 0 0
0 0 0
0 0 0
0 0 0
0 0 0
0 0 0
0 0 0
0 0 0
0 0 0
0 0 0
0 0 0
0 0 0
0 0 0
0 0 0
0 0 0
0 0 0
0 0 0
0 0 0
0 0 0
0 0 0
0 0 0
0 0 0
0 0 0
0 0 0
0 0 0
0 0 0
0 0 0
0 0 0
0 0 0
0 0 0
0 0 0
0 0 0
0 0 0
0 0 0
0 0 0
0 0 0
0 0 0
0 0 0
0 0 0
0 0 0
0 0 0
0 0 0
0 0 0
0 0 0
0 0 0
0 0 0
0 0 0
0 0 0
0 0 0
0 0 0
0 0 0
0 0 0
0 0 0
0 0 0
0 0 0
0 0 0
0 0 0
0 0 0
0 0 0
0 0 0
0 0 0
0 0 0
0 0 0
0 0 0
0 0 0
0 0 0
0 0 0
0 0 0
0 0 0
0 0 0
0 0 0
0 0 0
0 0 0
0 0 0
0 0 0
0 0 0
0 0 0
0 0 0
0 0 0
0 0 0
0 0 0
0 0 0
0 0 0
0 0 0
0 0 0
0 0 0
0 0 0
0 0 0
0 0 0
0 0 0
0 0 0
0 0 0
0 0 0
0 0 0
0 0 0
0 0 0
0 0 0
0 0 0
0 0 0
0 0 0
0 0 0
0 0 0
0 0 0
0 0 0
0 0 0
0 0 0
0 0 0
0 0 0
0 0 0
0 0 0
0 0 0
0 0 0
0 0 0
0 0 0
0 0 0
0 0 0
0 0 0
0 0 0
0 0 0
0 0 0
0 0 0
0 0 0
0 0 0
0 0 0
0 0 0
0 0 0
0 0 0
0 0 0
0 0 0
0 0 0
0 0 0
0 0 0
0 0 0
0 0 0
0 0 0
0 0 0
0 0 0
0 0 0
0 0 0
0 0 0
0 0 0
0 0 0
0 0 0
0 0 0
0 0 0
0 0 0
0 0 0
0 0 0
0 0 0
0 0 0
0 0 0
0 0 0
0 0 0
0 0 0
0 0 0
0 0 0
0 0 0
0 0 0
0 0 0
0 0 0
0 0 0
0 0 0
0 0 0
0 0 0
0 0 0
0 0 0
0 0 0
0 0 0
0 0 0
0 0 0
0 0 0
0 0 0
0 0 0
0 0 0
0 0 0
0 0 0
0 0 0
0 0 0
0 0 0
0 0 0
0 0 0
0 0 0
0 0 0
0 0 0
0 0 0
0 0 0
0 0 0
0 0 0
0 0 0
0 0 0
0 0 0
0 0 0
0 0 0
0 0 0
0 0 0
0 0 0
0 0 0
0 0 0
0 0 0
0 0 0
0 0 0
0 0 0
0 0 0
0 0 0
0 0 0
0 0 0
0 0 0
0 0 0
0 0 0
0 0 0
0 0 0
0 0 0
0 0 0
0 0 0
0 0 0
0 0 0
0 0 0
0 0 0
0 0 0
0 0 0
0 0 0
0 0 0
0 0 0
0 0 0
0 0 0
0 0 0
0 0 0
0 0 0
0 0 0
0 0 0
0 0 0
0 0 0
0 0 0
0 0 0
0 0 0
0 0 0
0 0 0
0 0 0
0 0 0
0 0 0
0 0 0
0 0 0
0 0 0
0 0 0
0 0 0
0 0 0
0 0 0
0 0 0
0 0 0
0 0 0
0 0 0
0 0 0
0 0 0
0 0 0
0 0 0
0 0 0
0 0 0
0 0 0
0 0 0
0 0 0
0 0 0
0 0 0
0 0 0
0 0 0
0 0 0
0 0 0
0 0 0
0 0 0
0 0 0
0 0 0
0 0 0
0 0 0
0 0 0
0 0 0
0 0 0
0 0 0
0 0 0
0 0 0
0 0 0
0 0 0
0 0 0
0 0 0
0 0 0
0 0 0
0 0 0
0 0 0
0 0 0
0 0 0
0 0 0
0 0 0
0 0 0
0 0 0
0 0 0
0 0 0
0 0 0
0 0 0
0 0 0
0 0 0
0 0 0
0 0 0
0 0 0
0 0 0
0 0 0
0 0 0
0 0 0
0 0 0
0 0 0
0 0 0
0 0 0
0 0 0
0 0 0
0 0 0
0 0 0
0 0 0
0 0 0
0 0 0
0 0 0
0 0 0
0 0 0
0 0 0
0 0 0
0 0 0
0 0 0
0 0 0
0 0 0
0 0 0
0 0 0
0 0 0
0 0 0
0 0 0
0 0 0
0 0 0
0 0 0
0 0 0
0 0 0
0 0 0
0 0 0
0 0 0
TENSORS solid_stress_TPM float
0 0 0
0 0 0
0 0 0

0 0 0
0 0 0
0 0 0

0 0 0
0 0 0
0 0 0

0 0 0
0 0 0
0 0 0

0 0 0
0 0 0
0 0 0

0 0 0
0 0 0
0 0 0

0 0 0
0 0 0
0 0 0

0 0 0
0 0 0
0 0 0

0 0 0
0 0 0
0 0 0

0 0 0
0 0 0
0 0 0

0 0 0
0 0 0
0 0 0

0 0 0
0 0 0
0 0 0

0 0 0
0 0 0
0 0 0

0 0 0
0 0 0
0 0 0

0 0 0
0 0 0
0 0 0

0 0 0
0 0 0
0 0 0

0 0 0
0 0 0
0 0 0

0 0 0
0 0 0
0 0 0

0 0 0
0 0 0
0 0 0

0 0 0
0 0 0
0 0 0

0 0 0
0 0 0
0 0 0

0 0 0
0 0 0
0 0 0

0 0 0
0 0 0
0 0 0

0 0 0
0 0 0
0 0 0

0 0 0
0 0 0
0 0 0

0 0 0
0 0 0
0 0 0

0 0 0
0 0 0
0 0 0

0 0 0
0 0 0
0 0 0

0 0 0
0 0 0
0 0 0

0 0 0
0 0 0
0 0 0

0 0 0
0 0 0
0 0 0

0 0 0
0 0 0
0 0 0

0 0 0
0 0 0
0 0 0

0 0 0
0 0 0
0 0 0

0 0 0
0 0 0
0 0 0

0 0 0
0 0 0
0 0 0

0 0 0
0 0 0
0 0 0

0 0 0
0 0 0
0 0 0

0 0 0
0 0 0
0 0 0

0 0 0
0 0 0
0 0 0

0 0 0
0 0 0
0 0 0

0 0 0
0 0 0
0 0 0

0 0 0
0 0 0
0 0 0

0 0 0
0 0 0
0 0 0

0 0 0
0 0 0
0 0 0

0 0 0
0 0 0
0 0 0

0 0 0
0 0 0
0 0 0

0 0 0
0 0 0
0 0 0

0 0 0
0 0 0
0 0 0

0 0 0
0 0 0
0 0 0

0 0 0
0 0 0
0 0 0

0 0 0
0 0 0
0 0 0

0 0 0
0 0 0
0 0 0

0 0 0
0 0 0
0 0 0

0 0 0
0 0 0
0 0 0

0 0 0
0 0 0
0 0 0

0 0 0
0 0 0
0 0 0

0 0 0
0 0 0
0 0 0

0 0 0
0 0 0
0 0 0

0 0 0
0 0 0
0 0 0

0 0 0
0 0 0
0 0 0

0 0 0
0 0 0
0 0 0

0 0 0
0 0 0
0 0 0

0 0 0
0 0 0
0 0 0

0 0 0
0 0 0
0 0 0

0 0 0
0 0 0
0 0 0

0 0 0
0 0 0
0 0 0

0 0 0
0 0 0
0 0 0

0 0 0
0 0 0
0 0 0

0 0 0
0 0 0
0 0 0

0 0 0
0 0 0
0 0 0

0 0 0
0 0 0
0 0 0

0 0 0
0 0 0
0 0 0

0 0 0
0 0 0
0 0 0

0 0 0
0 0 0
0 0 0

0 0 0
0 0 0
0 0 0

0 0 0
0 0 0
0 0 0

0 0 0
0 0 0
0 0 0

0 0 0
0 0 0
0 0 0

0 0 0
0 0 0
0 0 0

0 0 0
0 0 0
0 0 0

0 0 0
0 0 0
0 0 0

0 0 0
0 0 0
0 0 0

0 0 0
0 0 0
0 0 0

0 0 0
0 0 0
0 0 0

0 0 0
0 0 0
0 0 0

0 0 0
0 0 0
0 0 0

0 0 0
0 0 0
0 0 0

0 0 0
0 0 0
0 0 0

0 0 0
0 0 0
0 0 0

0 0 0
0 0 0
0 0 0

0 0 0
0 0 0
0 0 0

0 0 0
0 0 0
0 0 0

0 0 0
0 0 0
0 0 0

0 0 0
0 0 0
0 0 0

0 0 0
0 0 0
0 0 0

0 0 0
0 0 0
0 0 0

0 0 0
0 0 0
0 0 0

0 0 0
0 0 0
0 0 0

0 0 0
0 0 0
0 0 0

0 0 0
0 0 0
0 0 0

0 0 0
0 0 0
0 0 0

0 0 0
0 0 0
0 0 0

0 0 0
0 0 0
0 0 0

0 0 0
0 0 0
0 0 0

0 0 0
0 0 0
0 0 0

0 0 0
0 0 0
0 0 0

0 0 0
0 0 0
0 0 0

0 0 0
0 0 0
0 0 0

0 0 0
0 0 0
0 0 0

0 0 0
0 0 0
0 0 0

0 0 0
0 0 0
0 0 0

0 0 0
0 0 0
0 0 0

0 0 0
0 0 0
0 0 0

0 0 0
0 0 0
0 0 0

0 0 0
0 0 0
0 0 0

0 0 0
0 0 0
0 0 0

0 0 0
0 0 0
0 0 0

0 0 0
0 0 0
0 0 0

0 0 0
0 0 0
0 0 0

0 0 0
0 0 0
0 0 0

0 0 0
0 0 0
0 0 0

0 0 0
0 0 0
0 0 0

0 0 0
0 0 0
0 0 0

0 0 0
0 0 0
0 0 0

0 0 0
0 0 0
0 0 0

0 0 0
0 0 0
0 0 0

0 0 0
0 0 0
0 0 0

0 0 0
0 0 0
0 0 0

0 0 0
0 0 0
0 0 0

0 0 0
0 0 0
0 0 0

0 0 0
0 0 0
0 0 0

0 0 0
0 0 0
0 0 0

0 0 0
0 0 0
0 0 0

0 0 0
0 0 0
0 0 0

0 0 0
0 0 0
0 0 0

0 0 0
0 0 0
0 0 0

0 0 0
0 0 0
0 0 0

0 0 0
0 0 0
0 0 0

0 0 0
0 0 0
0 0 0

0 0 0
0 0 0
0 0 0

0 0 0
0 0 0
0 0 0

0 0 0
0 0 0
0 0 0

0 0 0
0 0 0
0 0 0

0 0 0
0 0 0
0 0 0

0 0 0
0 0 0
0 0 0

0 0 0
0 0 0
0 0 0

0 0 0
0 0 0
0 0 0

0 0 0
0 0 0
0 0 0

0 0 0
0 0 0
0 0 0

0 0 0
0 0 0
0 0 0

0 0 0
0 0 0
0 0 0

0 0 0
0 0 0
0 0 0

0 0 0
0 0 0
0 0 0

0 0 0
0 0 0
0 0 0

0 0 0
0 0 0
0 0 0

0 0 0
0 0 0
0 0 0

0 0 0
0 0 0
0 0 0

0 0 0
0 0 0
0 0 0

0 0 0
0 0 0
0 0 0

0 0 0
0 0 0
0 0 0

0 0 0
0 0 0
0 0 0

0 0 0
0 0 0
0 0 0

0 0 0
0 0 0
0 0 0

0 0 0
0 0 0
0 0 0

0 0 0
0 0 0
0 0 0

0 0 0
0 0 0
0 0 0

0 0 0
0 0 0
0 0 0

0 0 0
0 0 0
0 0 0

0 0 0
0 0 0
0 0 0

0 0 0
0 0 0
0 0 0

0 0 0
0 0 0
0 0 0

0 0 0
0 0 0
0 0 0

0 0 0
0 0 0
0 0 0

0 0 0
0 0 0
0 0 0

0 0 0
0 0 0
0 0 0

0 0 0
0 0 0
0 0 0

0 0 0
0 0 0
0 0 0

0 0 0
0 0 0
0 0 0

0 0 0
0 0 0
0 0 0

0 0 0
0 0 0
0 0 0

0 0 0
0 0 0
0 0 0

0 0 0
0 0 0
0 0 0

0 0 0
0 0 0
0 0 0

0 0 0
0 0 0
0 0 0

0 0 0
0 0 0
0 0 0

0 0 0
0 0 0
0 0 0

0 0 0
0 0 0
0 0 0

0 0 0
0 0 0
0 0 0

0 0 0
0 0 0
0 0 0

0 0 0
0 0 0
0 0 0

0 0 0
0 0 0
0 0 0

0 0 0
0 0 0
0 0 0

0 0 0
0 0 0
0 0 0

0 0 0
0 0 0
0 0 0

0 0 0
0 0 0
0 0 0

0 0 0
0 0 0
0 0 0

0 0 0
0 0 0
0 0 0

0 0 0
0 0 0
0 0 0

0 0 0
0 0 0
0 0 0

0 0 0
0 0 0
0 0 0

0 0 0
0 0 0
0 0 0

0 0 0
0 0 0
0 0 0

0 0 0
0 0 0
0 0 0

0 0 0
0 0 0
0 0 0

0 0 0
0 0 0
0 0 0

0 0 0
0 0 0
0 0 0

0 0 0
0 0 0
0 0 0

0 0 0
0 0 0
0 0 0

0 0 0
0 0 0
0 0 0

0 0 0
0 0 0
0 0 0

0 0 0
0 0 0
0 0 0

0 0 0
0 0 0
0 0 0

0 0 0
0 0 0
0 0 0

0 0 0
0 0 0
0 0 0

0 0 0
0 0 0
0 0 0

0 0 0
0 0 0
0 0 0

0 0 0
0 0 0
0 0 0

0 0 0
0 0 0
0 0 0

0 0 0
0 0 0
0 0 0

0 0 0
0 0 0
0 0 0

0 0 0
0 0 0
0 0 0

0 0 0
0 0 0
0 0 0

0 0 0
0 0 0
0 0 0

0 0 0
0 0 0
0 0 0

0 0 0
0 0 0
0 0 0

0 0 0
0 0 0
0 0 0

0 0 0
0 0 0
0 0 0

0 0 0
0 0 0
0 0 0

0 0 0
0 0 0
0 0 0

0 0 0
0 0 0
0 0 0

0 0 0
0 0 0
0 0 0

0 0 0
0 0 0
0 0 0

0 0 0
0 0 0
0 0 0

0 0 0
0 0 0
0 0 0

0 0 0
0 0 0
0 0 0

0 0 0
0 0 0
0 0 0

0 0 0
0 0 0
0 0 0

0 0 0
0 0 0
0 0 0

0 0 0
0 0 0
0 0 0

0 0 0
0 0 0
0 0 0

0 0 0
0 0 0
0 0 0

0 0 0
0 0 0
0 0 0

0 0 0
0 0 0
0 0 0

0 0 0
0 0 0
0 0 0

0 0 0
0 0 0
0 0 0

0 0 0
0 0 0
0 0 0

0 0 0
0 0 0
0 0 0

0 0 0
0 0 0
0 0 0

0 0 0
0 0 0
0 0 0

0 0 0
0 0 0
0 0 0

0 0 0
0 0 0
0 0 0

0 0 0
0 0 0
0 0 0

0 0 0
0 0 0
0 0 0

0 0 0
0 0 0
0 0 0

0 0 0
0 0 0
0 0 0

0 0 0
0 0 0
0 0 0

0 0 0
0 0 0
0 0 0

0 0 0
0 0 0
0 0 0

0 0 0
0 0 0
0 0 0

0 0 0
0 0 0
0 0 0

0 0 0
0 0 0
0 0 0

0 0 0
0 0 0
0 0 0

0 0 0
0 0 0
0 0 0

0 0 0
0 0 0
0 0 0

0 0 0
0 0 0
0 0 0

0 0 0
0 0 0
0 0 0

0 0 0
0 0 0
0 0 0

0 0 0
0 0 0
0 0 0

0 0 0
0 0 0
0 0 0

0 0 0
0 0 0
0 0 0

0 0 0
0 0 0
0 0 0

0 0 0
0 0 0
0 0 0

0 0 0
0 0 0
0 0 0

0 0 0
0 0 0
0 0 0

0 0 0
0 0 0
0 0 0

0 0 0
0 0 0
0 0 0

0 0 0
0 0 0
0 0 0

0 0 0
0 0 0
0 0 0

0 0 0
0 0 0
0 0 0

0 0 0
0 0 0
0 0 0

0 0 0
0 0 0
0 0 0

0 0 0
0 0 0
0 0 0

0 0 0
0 0 0
0 0 0

0 0 0
0 0 0
0 0 0

0 0 0
0 0 0
0 0 0

0 0 0
0 0 0
0 0 0

0 0 0
0 0 0
0 0 0

0 0 0
0 0 0
0 0 0

0 0 0
0 0 0
0 0 0

0 0 0
0 0 0
0 0 0

0 0 0
0 0 0
0 0 0

0 0 0
0 0 0
0 0 0

0 0 0
0 0 0
0 0 0

0 0 0
0 0 0
0 0 0

0 0 0
0 0 0
0 0 0

0 0 0
0 0 0
0 0 0

0 0 0
0 0 0
0 0 0

0 0 0
0 0 0
0 0 0

0 0 0
0 0 0
0 0 0

0 0 0
0 0 0
0 0 0

0 0 0
0 0 0
0 0 0

0 0 0
0 0 0
0 0 0

0 0 0
0 0 0
0 0 0

0 0 0
0 0 0
0 0 0

0 0 0
0 0 0
0 0 0

0 0 0
0 0 0
0 0 0

0 0 0
0 0 0
0 0 0

0 0 0
0 0 0
0 0 0

0 0 0
0 0 0
0 0 0

0 0 0
0 0 0
0 0 0

0 0 0
0 0 0
0 0 0

0 0 0
0 0 0
0 0 0

0 0 0
0 0 0
0 0 0

0 0 0
0 0 0
0 0 0

0 0 0
0 0 0
0 0 0

0 0 0
0 0 0
0 0 0

0 0 0
0 0 0
0 0 0

0 0 0
0 0 0
0 0 0

0 0 0
0 0 0
0 0 0

0 0 0
0 0 0
0 0 0

0 0 0
0 0 0
0 0 0

0 0 0
0 0 0
0 0 0

0 0 0
0 0 0
0 0 0

0 0 0
0 0 0
0 0 0

0 0 0
0 0 0
0 0 0

0 0 0
0 0 0
0 0 0

0 0 0
0 0 0
0 0 0

0 0 0
0 0 0
0 0 0

0 0 0
0 0 0
0 0 0

0 0 0
0 0 0
0 0 0

0 0 0
0 0 0
0 0 0

0 0 0
0 0 0
0 0 0

0 0 0
0 0 0
0 0 0

0 0 0
0 0 0
0 0 0

0 0 0
0 0 0
0 0 0

0 0 0
0 0 0
0 0 0

0 0 0
0 0 0
0 0 0

0 0 0
0 0 0
0 0 0

0 0 0
0 0 0
0 0 0

0 0 0
0 0 0
0 0 0

0 0 0
0 0 0
0 0 0

0 0 0
0 0 0
0 0 0

0 0 0
0 0 0
0 0 0

0 0 0
0 0 0
0 0 0

0 0 0
0 0 0
0 0 0

0 0 0
0 0 0
0 0 0

0 0 0
0 0 0
0 0 0

0 0 0
0 0 0
0 0 0

0 0 0
0 0 0
0 0 0

0 0 0
0 0 0
0 0 0

0 0 0
0 0 0
0 0 0

0 0 0
0 0 0
0 0 0

0 0 0
0 0 0
0 0 0

0 0 0
0 0 0
0 0 0

0 0 0
0 0 0
0 0 0

0 0 0
0 0 0
0 0 0

0 0 0
0 0 0
0 0 0

0 0 0
0 0 0
0 0 0

0 0 0
0 0 0
0 0 0

0 0 0
0 0 0
0 0 0

0 0 0
0 0 0
0 0 0

0 0 0
0 0 0
0 0 0

0 0 0
0 0 0
0 0 0

0 0 0
0 0 0
0 0 0

0 0 0
0 0 0
0 0 0

0 0 0
0 0 0
0 0 0

0 0 0
0 0 0
0 0 0

0 0 0
0 0 0
0 0 0

0 0 0
0 0 0
0 0 0

0 0 0
0 0 0
0 0 0

0 0 0
0 0 0
0 0 0

0 0 0
0 0 0
0 0 0

0 0 0
0 0 0
0 0 0

0 0 0
0 0 0
0 0 0

0 0 0
0 0 0
0 0 0

0 0 0
0 0 0
0 0 0

0 0 0
0 0 0
0 0 0

0 0 0
0 0 0
0 0 0

0 0 0
0 0 0
0 0 0

0 0 0
0 0 0
0 0 0

0 0 0
0 0 0
0 0 0

0 0 0
0 0 0
0 0 0

0 0 0
0 0 0
0 0 0

0 0 0
0 0 0
0 0 0

0 0 0
0 0 0
0 0 0

0 0 0
0 0 0
0 0 0

0 0 0
0 0 0
0 0 0

0 0 0
0 0 0
0 0 0

0 0 0
0 0 0
0 0 0

0 0 0
0 0 0
0 0 0

0 0 0
0 0 0
0 0 0

0 0 0
0 0 0
0 0 0

0 0 0
0 0 0
0 0 0

0 0 0
0 0 0
0 0 0

0 0 0
0 0 0
0 0 0

0 0 0
0 0 0
0 0 0

0 0 0
0 0 0
0 0 0

0 0 0
0 0 0
0 0 0

0 0 0
0 0 0
0 0 0

0 0 0
0 0 0
0 0 0

0 0 0
0 0 0
0 0 0

0 0 0
0 0 0
0 0 0

0 0 0
0 0 0
0 0 0

0 0 0
0 0 0
0 0 0

0 0 0
0 0 0
0 0 0

0 0 0
0 0 0
0 0 0

0 0 0
0 0 0
0 0 0

0 0 0
0 0 0
0 0 0

0 0 0
0 0 0
0 0 0

0 0 0
0 0 0
0 0 0

0 0 0
0 0 0
0 0 0

0 0 0
0 0 0
0 0 0

0 0 0
0 0 0
0 0 0

0 0 0
0 0 0
0 0 0

0 0 0
0 0 0
0 0 0

0 0 0
0 0 0
0 0 0

0 0 0
0 0 0
0 0 0

0 0 0
0 0 0
0 0 0

0 0 0
0 0 0
0 0 0

0 0 0
0 0 0
0 0 0

0 0 0
0 0 0
0 0 0

0 0 0
0 0 0
0 0 0

0 0 0
0 0 0
0 0 0

0 0 0
0 0 0
0 0 0

0 0 0
0 0 0
0 0 0

0 0 0
0 0 0
0 0 0

0 0 0
0 0 0
0 0 0

0 0 0
0 0 0
0 0 0

0 0 0
0 0 0
0 0 0

0 0 0
0 0 0
0 0 0

0 0 0
0 0 0
0 0 0

0 0 0
0 0 0
0 0 0

0 0 0
0 0 0
0 0 0

0 0 0
0 0 0
0 0 0

0 0 0
0 0 0
0 0 0

0 0 0
0 0 0
0 0 0

0 0 0
0 0 0
0 0 0

0 0 0
0 0 0
0 0 0

0 0 0
0 0 0
0 0 0

0 0 0
0 0 0
0 0 0

0 0 0
0 0 0
0 0 0

0 0 0
0 0 0
0 0 0

0 0 0
0 0 0
0 0 0

0 0 0
0 0 0
0 0 0

0 0 0
0 0 0
0 0 0

0 0 0
0 0 0
0 0 0

0 0 0
0 0 0
0 0 0

0 0 0
0 0 0
0 0 0

0 0 0
0 0 0
0 0 0

0 0 0
0 0 0
0 0 0

0 0 0
0 0 0
0 0 0

0 0 0
0 0 0
0 0 0

0 0 0
0 0 0
0 0 0

0 0 0
0 0 0
0 0 0

0 0 0
0 0 0
0 0 0

0 0 0
0 0 0
0 0 0

0 0 0
0 0 0
0 0 0

0 0 0
0 0 0
0 0 0

0 0 0
0 0 0
0 0 0

0 0 0
0 0 0
0 0 0

0 0 0
0 0 0
0 0 0

0 0 0
0 0 0
0 0 0

0 0 0
0 0 0
0 0 0

0 0 0
0 0 0
0 0 0

0 0 0
0 0 0
0 0 0

0 0 0
0 0 0
0 0 0

0 0 0
0 0 0
0 0 0

0 0 0
0 0 0
0 0 0

0 0 0
0 0 0
0 0 0

0 0 0
0 0 0
0 0 0

0 0 0
0 0 0
0 0 0

0 0 0
0 0 0
0 0 0

0 0 0
0 0 0
0 0 0

0 0 0
0 0 0
0 0 0

0 0 0
0 0 0
0 0 0

0 0 0
0 0 0
0 0 0

0 0 0
0 0 0
0 0 0

0 0 0
0 0 0
0 0 0

0 0 0
0 0 0
0 0 0

0 0 0
0 0 0
0 0 0

0 0 0
0 0 0
0 0 0

0 0 0
0 0 0
0 0 0

0 0 0
0 0 0
0 0 0

0 0 0
0 0 0
0 0 0

0 0 0
0 0 0
0 0 0

0 0 0
0 0 0
0 0 0

0 0 0
0 0 0
0 0 0

0 0 0
0 0 0
0 0 0

0 0 0
0 0 0
0 0 0

0 0 0
0 0 0
0 0 0

0 0 0
0 0 0
0 0 0

0 0 0
0 0 0
0 0 0

0 0 0
0 0 0
0 0 0

0 0 0
0 0 0
0 0 0

0 0 0
0 0 0
0 0 0

0 0 0
0 0 0
0 0 0

0 0 0
0 0 0
0 0 0

0 0 0
0 0 0
0 0 0

0 0 0
0 0 0
0 0 0

0 0 0
0 0 0
0 0 0

0 0 0
0 0 0
0 0 0

0 0 0
0 0 0
0 0 0

0 0 0
0 0 0
0 0 0

0 0 0
0 0 0
0 0 0

0 0 0
0 0 0
0 0 0

0 0 0
0 0 0
0 0 0

0 0 0
0 0 0
0 0 0

0 0 0
0 0 0
0 0 0

0 0 0
0 0 0
0 0 0

0 0 0
0 0 0
0 0 0

0 0 0
0 0 0
0 0 0

0 0 0
0 0 0
0 0 0

0 0 0
0 0 0
0 0 0

0 0 0
0 0 0
0 0 0

0 0 0
0 0 0
0 0 0

0 0 0
0 0 0
0 0 0

0 0 0
0 0 0
0 0 0

0 0 0
0 0 0
0 0 0

0 0 0
0 0 0
0 0 0

0 0 0
0 0 0
0 0 0

0 0 0
0 0 0
0 0 0

0 0 0
0 0 0
0 0 0

0 0 0
0 0 0
0 0 0

0 0 0
0 0 0
0 0 0

0 0 0
0 0 0
0 0 0

0 0 0
0 0 0
0 0 0

0 0 0
0 0 0
0 0 0

0 0 0
0 0 0
0 0 0

0 0 0
0 0 0
0 0 0

0 0 0
0 0 0
0 0 0

0 0 0
0 0 0
0 0 0

0 0 0
0 0 0
0 0 0

0 0 0
0 0 0
0 0 0

0 0 0
0 0 0
0 0 0

0 0 0
0 0 0
0 0 0

0 0 0
0 0 0
0 0 0

0 0 0
0 0 0
0 0 0

0 0 0
0 0 0
0 0 0

0 0 0
0 0 0
0 0 0

0 0 0
0 0 0
0 0 0

0 0 0
0 0 0
0 0 0

0 0 0
0 0 0
0 0 0

0 0 0
0 0 0
0 0 0

0 0 0
0 0 0
0 0 0

0 0 0
0 0 0
0 0 0

0 0 0
0 0 0
0 0 0

0 0 0
0 0 0
0 0 0

0 0 0
0 0 0
0 0 0

0 0 0
0 0 0
0 0 0

0 0 0
0 0 0
0 0 0

0 0 0
0 0 0
0 0 0

0 0 0
0 0 0
0 0 0

0 0 0
0 0 0
0 0 0

0 0 0
0 0 0
0 0 0

0 0 0
0 0 0
0 0 0

0 0 0
0 0 0
0 0 0

0 0 0
0 0 0
0 0 0

0 0 0
0 0 0
0 0 0

0 0 0
0 0 0
0 0 0

0 0 0
0 0 0
0 0 0

0 0 0
0 0 0
0 0 0

0 0 0
0 0 0
0 0 0

0 0 0
0 0 0
0 0 0

0 0 0
0 0 0
0 0 0

0 0 0
0 0 0
0 0 0

0 0 0
0 0 0
0 0 0

0 0 0
0 0 0
0 0 0

0 0 0
0 0 0
0 0 0

0 0 0
0 0 0
0 0 0

0 0 0
0 0 0
0 0 0

0 0 0
0 0 0
0 0 0

0 0 0
0 0 0
0 0 0

0 0 0
0 0 0
0 0 0

0 0 0
0 0 0
0 0 0

0 0 0
0 0 0
0 0 0

0 0 0
0 0 0
0 0 0

0 0 0
0 0 0
0 0 0

0 0 0
0 0 0
0 0 0

0 0 0
0 0 0
0 0 0

0 0 0
0 0 0
0 0 0

0 0 0
0 0 0
0 0 0

0 0 0
0 0 0
0 0 0

0 0 0
0 0 0
0 0 0

0 0 0
0 0 0
0 0 0

0 0 0
0 0 0
0 0 0

0 0 0
0 0 0
0 0 0

0 0 0
0 0 0
0 0 0

0 0 0
0 0 0
0 0 0

0 0 0
0 0 0
0 0 0

0 0 0
0 0 0
0 0 0

0 0 0
0 0 0
0 0 0

0 0 0
0 0 0
0 0 0

0 0 0
0 0 0
0 0 0

0 0 0
0 0 0
0 0 0

0 0 0
0 0 0
0 0 0

0 0 0
0 0 0
0 0 0

0 0 0
0 0 0
0 0 0

0 0 0
0 0 0
0 0 0

0 0 0
0 0 0
0 0 0

0 0 0
0 0 0
0 0 0

0 0 0
0 0 0
0 0 0

0 0 0
0 0 0
0 0 0

0 0 0
0 0 0
0 0 0

0 0 0
0 0 0
0 0 0

0 0 0
0 0 0
0 0 0

0 0 0
0 0 0
0 0 0

0 0 0
0 0 0
0 0 0

0 0 0
0 0 0
0 0 0

0 0 0
0 0 0
0 0 0

0 0 0
0 0 0
0 0 0

0 0 0
0 0 0
0 0 0

0 0 0
0 0 0
0 0 0

0 0 0
0 0 0
0 0 0

0 0 0
0 0 0
0 0 0

0 0 0
0 0 0
0 0 0

0 0 0
0 0 0
0 0 0

0 0 0
0 0 0
0 0 0

0 0 0
0 0 0
0 0 0

0 0 0
0 0 0
0 0 0

0 0 0
0 0 0
0 0 0

0 0 0
0 0 0
0 0 0

0 0 0
0 0 0
0 0 0

0 0 0
0 0 0
0 0 0

0 0 0
0 0 0
0 0 0

0 0 0
0 0 0
0 0 0

0 0 0
0 0 0
0 0 0

0 0 0
0 0 0
0 0 0

0 0 0
0 0 0
0 0 0

0 0 0
0 0 0
0 0 0

0 0 0
0 0 0
0 0 0

0 0 0
0 0 0
0 0 0

0 0 0
0 0 0
0 0 0

0 0 0
0 0 0
0 0 0

0 0 0
0 0 0
0 0 0

0 0 0
0 0 0
0 0 0

0 0 0
0 0 0
0 0 0

0 0 0
0 0 0
0 0 0

0 0 0
0 0 0
0 0 0

0 0 0
0 0 0
0 0 0

0 0 0
0 0 0
0 0 0

0 0 0
0 0 0
0 0 0

0 0 0
0 0 0
0 0 0

0 0 0
0 0 0
0 0 0

0 0 0
0 0 0
0 0 0

0 0 0
0 0 0
0 0 0

0 0 0
0 0 0
0 0 0

0 0 0
0 0 0
0 0 0

0 0 0
0 0 0
0 0 0

0 0 0
0 0 0
0 0 0

0 0 0
0 0 0
0 0 0

0 0 0
0 0 0
0 0 0

0 0 0
0 0 0
0 0 0

0 0 0
0 0 0
0 0 0

0 0 0
0 0 0
0 0 0

0 0 0
0 0 0
0 0 0

0 0 0
0 0 0
0 0 0

0 0 0
0 0 0
0 0 0

0 0 0
0 0 0
0 0 0

0 0 0
0 0 0
0 0 0

0 0 0
0 0 0
0 0 0

0 0 0
0 0 0
0 0 0

0 0 0
0 0 0
0 0 0

0 0 0
0 0 0
0 0 0

0 0 0
0 0 0
0 0 0

0 0 0
0 0 0
0 0 0

0 0 0
0 0 0
0 0 0

0 0 0
0 0 0
0 0 0

0 0 0
0 0 0
0 0 0

0 0 0
0 0 0
0 0 0

0 0 0
0 0 0
0 0 0

0 0 0
0 0 0
0 0 0

0 0 0
0 0 0
0 0 0

0 0 0
0 0 0
0 0 0

0 0 0
0 0 0
0 0 0

0 0 0
0 0 0
0 0 0

0 0 0
0 0 0
0 0 0

0 0 0
0 0 0
0 0 0

0 0 0
0 0 0
0 0 0

0 0 0
0 0 0
0 0 0

0 0 0
0 0 0
0 0 0

0 0 0
0 0 0
0 0 0

0 0 0
0 0 0
0 0 0

0 0 0
0 0 0
0 0 0

0 0 0
0 0 0
0 0 0

0 0 0
0 0 0
0 0 0

0 0 0
0 0 0
0 0 0

0 0 0
0 0 0
0 0 0

0 0 0
0 0 0
0 0 0

0 0 0
0 0 0
0 0 0

0 0 0
0 0 0
0 0 0

0 0 0
0 0 0
0 0 0

0 0 0
0 0 0
0 0 0

0 0 0
0 0 0
0 0 0

0 0 0
0 0 0
0 0 0

0 0 0
0 0 0
0 0 0

0 0 0
0 0 0
0 0 0

0 0 0
0 0 0
0 0 0

0 0 0
0 0 0
0 0 0

0 0 0
0 0 0
0 0 0

0 0 0
0 0 0
0 0 0

0 0 0
0 0 0
0 0 0

0 0 0
0 0 0
0 0 0

0 0 0
0 0 0
0 0 0

0 0 0
0 0 0
0 0 0

0 0 0
0 0 0
0 0 0

0 0 0
0 0 0
0 0 0

0 0 0
0 0 0
0 0 0

0 0 0
0 0 0
0 0 0

0 0 0
0 0 0
0 0 0

0 0 0
0 0 0
0 0 0

0 0 0
0 0 0
0 0 0

0 0 0
0 0 0
0 0 0

0 0 0
0 0 0
0 0 0

0 0 0
0 0 0
0 0 0

0 0 0
0 0 0
0 0 0

0 0 0
0 0 0
0 0 0

0 0 0
0 0 0
0 0 0

0 0 0
0 0 0
0 0 0

0 0 0
0 0 0
0 0 0

0 0 0
0 0 0
0 0 0

0 0 0
0 0 0
0 0 0

0 0 0
0 0 0
0 0 0

0 0 0
0 0 0
0 0 0

0 0 0
0 0 0
0 0 0

0 0 0
0 0 0
0 0 0

0 0 0
0 0 0
0 0 0

0 0 0
0 0 0
0 0 0

0 0 0
0 0 0
0 0 0

0 0 0
0 0 0
0 0 0

0 0 0
0 0 0
0 0 0

0 0 0
0 0 0
0 0 0

0 0 0
0 0 0
0 0 0

0 0 0
0 0 0
0 0 0

0 0 0
0 0 0
0 0 0

0 0 0
0 0 0
0 0 0

0 0 0
0 0 0
0 0 0

0 0 0
0 0 0
0 0 0

0 0 0
0 0 0
0 0 0

0 0 0
0 0 0
0 0 0

0 0 0
0 0 0
0 0 0

0 0 0
0 0 0
0 0 0

0 0 0
0 0 0
0 0 0

0 0 0
0 0 0
0 0 0

0 0 0
0 0 0
0 0 0

0 0 0
0 0 0
0 0 0

0 0 0
0 0 0
0 0 0

0 0 0
0 0 0
0 0 0

0 0 0
0 0 0
0 0 0

0 0 0
0 0 0
0 0 0

0 0 0
0 0 0
0 0 0

0 0 0
0 0 0
0 0 0

0 0 0
0 0 0
0 0 0

0 0 0
0 0 0
0 0 0

0 0 0
0 0 0
0 0 0

0 0 0
0 0 0
0 0 0

0 0 0
0 0 0
0 0 0

0 0 0
0 0 0
0 0 0

0 0 0
0 0 0
0 0 0

0 0 0
0 0 0
0 0 0

0 0 0
0 0 0
0 0 0

0 0 0
0 0 0
0 0 0

0 0 0
0 0 0
0 0 0

0 0 0
0 0 0
0 0 0

0 0 0
0 0 0
0 0 0

0 0 0
0 0 0
0 0 0

0 0 0
0 0 0
0 0 0

0 0 0
0 0 0
0 0 0

0 0 0
0 0 0
0 0 0

0 0 0
0 0 0
0 0 0

0 0 0
0 0 0
0 0 0

0 0 0
0 0 0
0 0 0

0 0 0
0 0 0
0 0 0

0 0 0
0 0 0
0 0 0

0 0 0
0 0 0
0 0 0

0 0 0
0 0 0
0 0 0

0 0 0
0 0 0
0 0 0

0 0 0
0 0 0
0 0 0

0 0 0
0 0 0
0 0 0

0 0 0
0 0 0
0 0 0

0 0 0
0 0 0
0 0 0

0 0 0
0 0 0
0 0 0

0 0 0
0 0 0
0 0 0

0 0 0
0 0 0
0 0 0

0 0 0
0 0 0
0 0 0

0 0 0
0 0 0
0 0 0

0 0 0
0 0 0
0 0 0

0 0 0
0 0 0
0 0 0

0 0 0
0 0 0
0 0 0

0 0 0
0 0 0
0 0 0

0 0 0
0 0 0
0 0 0

0 0 0
0 0 0
0 0 0

0 0 0
0 0 0
0 0 0

0 0 0
0 0 0
0 0 0

0 0 0
0 0 0
0 0 0

0 0 0
0 0 0
0 0 0

0 0 0
0 0 0
0 0 0

0 0 0
0 0 0
0 0 0

0 0 0
0 0 0
0 0 0

0 0 0
0 0 0
0 0 0

0 0 0
0 0 0
0 0 0

0 0 0
0 0 0
0 0 0

0 0 0
0 0 0
0 0 0

0 0 0
0 0 0
0 0 0

0 0 0
0 0 0
0 0 0

0 0 0
0 0 0
0 0 0

0 0 0
0 0 0
0 0 0

0 0 0
0 0 0
0 0 0

0 0 0
0 0 0
0 0 0

0 0 0
0 0 0
0 0 0

0 0 0
0 0 0
0 0 0

0 0 0
0 0 0
0 0 0

0 0 0
0 0 0
0 0 0

0 0 0
0 0 0
0 0 0

0 0 0
0 0 0
0 0 0

0 0 0
0 0 0
0 0 0

0 0 0
0 0 0
0 0 0

0 0 0
0 0 0
0 0 0

0 0 0
0 0 0
0 0 0

0 0 0
0 0 0
0 0 0

0 0 0
0 0 0
0 0 0

0 0 0
0 0 0
0 0 0

0 0 0
0 0 0
0 0 0

0 0 0
0 0 0
0 0 0

0 0 0
0 0 0
0 0 0

0 0 0
0 0 0
0 0 0

0 0 0
0 0 0
0 0 0

0 0 0
0 0 0
0 0 0

0 0 0
0 0 0
0 0 0

0 0 0
0 0 0
0 0 0

0 0 0
0 0 0
0 0 0

0 0 0
0 0 0
0 0 0

0 0 0
0 0 0
0 0 0

0 0 0
0 0 0
0 0 0

0 0 0
0 0 0
0 0 0

0 0 0
0 0 0
0 0 0

0 0 0
0 0 0
0 0 0

0 0 0
0 0 0
0 0 0

0 0 0
0 0 0
0 0 0

0 0 0
0 0 0
0 0 0

0 0 0
0 0 0
0 0 0

0 0 0
0 0 0
0 0 0

0 0 0
0 0 0
0 0 0

0 0 0
0 0 0
0 0 0

0 0 0
0 0 0
0 0 0

0 0 0
0 0 0
0 0 0

0 0 0
0 0 0
0 0 0

0 0 0
0 0 0
0 0 0

0 0 0
0 0 0
0 0 0

0 0 0
0 0 0
0 0 0

0 0 0
0 0 0
0 0 0

0 0 0
0 0 0
0 0 0

0 0 0
0 0 0
0 0 0

0 0 0
0 0 0
0 0 0

0 0 0
0 0 0
0 0 0

0 0 0
0 0 0
0 0 0

0 0 0
0 0 0
0 0 0

0 0 0
0 0 0
0 0 0

0 0 0
0 0 0
0 0 0

0 0 0
0 0 0
0 0 0

0 0 0
0 0 0
0 0 0

0 0 0
0 0 0
0 0 0

0 0 0
0 0 0
0 0 0

0 0 0
0 0 0
0 0 0

0 0 0
0 0 0
0 0 0

0 0 0
0 0 0
0 0 0

0 0 0
0 0 0
0 0 0

0 0 0
0 0 0
0 0 0

0 0 0
0 0 0
0 0 0

0 0 0
0 0 0
0 0 0

0 0 0
0 0 0
0 0 0

0 0 0
0 0 0
0 0 0

0 0 0
0 0 0
0 0 0

0 0 0
0 0 0
0 0 0

0 0 0
0 0 0
0 0 0

0 0 0
0 0 0
0 0 0

0 0 0
0 0 0
0 0 0

0 0 0
0 0 0
0 0 0

0 0 0
0 0 0
0 0 0

0 0 0
0 0 0
0 0 0

0 0 0
0 0 0
0 0 0

0 0 0
0 0 0
0 0 0

0 0 0
0 0 0
0 0 0

0 0 0
0 0 0
0 0 0

0 0 0
0 0 0
0 0 0

0 0 0
0 0 0
0 0 0

0 0 0
0 0 0
0 0 0

0 0 0
0 0 0
0 0 0

0 0 0
0 0 0
0 0 0

0 0 0
0 0 0
0 0 0

0 0 0
0 0 0
0 0 0

0 0 0
0 0 0
0 0 0

0 0 0
0 0 0
0 0 0

0 0 0
0 0 0
0 0 0

0 0 0
0 0 0
0 0 0

0 0 0
0 0 0
0 0 0

0 0 0
0 0 0
0 0 0

0 0 0
0 0 0
0 0 0

0 0 0
0 0 0
0 0 0

0 0 0
0 0 0
0 0 0

0 0 0
0 0 0
0 0 0

0 0 0
0 0 0
0 0 0

0 0 0
0 0 0
0 0 0

0 0 0
0 0 0
0 0 0

0 0 0
0 0 0
0 0 0

0 0 0
0 0 0
0 0 0

0 0 0
0 0 0
0 0 0

0 0 0
0 0 0
0 0 0

0 0 0
0 0 0
0 0 0

0 0 0
0 0 0
0 0 0

0 0 0
0 0 0
0 0 0

0 0 0
0 0 0
0 0 0

0 0 0
0 0 0
0 0 0

0 0 0
0 0 0
0 0 0

0 0 0
0 0 0
0 0 0

0 0 0
0 0 0
0 0 0

0 0 0
0 0 0
0 0 0

0 0 0
0 0 0
0 0 0

0 0 0
0 0 0
0 0 0

0 0 0
0 0 0
0 0 0

0 0 0
0 0 0
0 0 0

0 0 0
0 0 0
0 0 0

0 0 0
0 0 0
0 0 0

0 0 0
0 0 0
0 0 0

0 0 0
0 0 0
0 0 0

0 0 0
0 0 0
0 0 0

0 0 0
0 0 0
0 0 0

0 0 0
0 0 0
0 0 0

0 0 0
0 0 0
0 0 0

0 0 0
0 0 0
0 0 0

0 0 0
0 0 0
0 0 0

0 0 0
0 0 0
0 0 0

0 0 0
0 0 0
0 0 0

0 0 0
0 0 0
0 0 0

0 0 0
0 0 0
0 0 0

0 0 0
0 0 0
0 0 0

0 0 0
0 0 0
0 0 0

0 0 0
0 0 0
0 0 0

0 0 0
0 0 0
0 0 0

0 0 0
0 0 0
0 0 0

0 0 0
0 0 0
0 0 0

0 0 0
0 0 0
0 0 0

0 0 0
0 0 0
0 0 0

0 0 0
0 0 0
0 0 0

0 0 0
0 0 0
0 0 0

0 0 0
0 0 0
0 0 0

0 0 0
0 0 0
0 0 0

0 0 0
0 0 0
0 0 0

0 0 0
0 0 0
0 0 0

0 0 0
0 0 0
0 0 0

0 0 0
0 0 0
0 0 0

0 0 0
0 0 0
0 0 0

0 0 0
0 0 0
0 0 0

0 0 0
0 0 0
0 0 0

0 0 0
0 0 0
0 0 0

0 0 0
0 0 0
0 0 0

0 0 0
0 0 0
0 0 0

0 0 0
0 0 0
0 0 0

0 0 0
0 0 0
0 0 0

0 0 0
0 0 0
0 0 0

0 0 0
0 0 0
0 0 0

0 0 0
0 0 0
0 0 0

0 0 0
0 0 0
0 0 0

0 0 0
0 0 0
0 0 0

0 0 0
0 0 0
0 0 0

0 0 0
0 0 0
0 0 0

0 0 0
0 0 0
0 0 0

0 0 0
0 0 0
0 0 0

0 0 0
0 0 0
0 0 0

0 0 0
0 0 0
0 0 0

0 0 0
0 0 0
0 0 0

0 0 0
0 0 0
0 0 0

0 0 0
0 0 0
0 0 0

0 0 0
0 0 0
0 0 0

0 0 0
0 0 0
0 0 0

0 0 0
0 0 0
0 0 0

0 0 0
0 0 0
0 0 0

0 0 0
0 0 0
0 0 0

0 0 0
0 0 0
0 0 0

0 0 0
0 0 0
0 0 0

0 0 0
0 0 0
0 0 0

0 0 0
0 0 0
0 0 0

0 0 0
0 0 0
0 0 0

0 0 0
0 0 0
0 0 0

0 0 0
0 0 0
0 0 0

0 0 0
0 0 0
0 0 0

0 0 0
0 0 0
0 0 0

0 0 0
0 0 0
0 0 0

0 0 0
0 0 0
0 0 0

0 0 0
0 0 0
0 0 0

0 0 0
0 0 0
0 0 0

0 0 0
0 0 0
0 0 0

0 0 0
0 0 0
0 0 0

0 0 0
0 0 0
0 0 0

0 0 0
0 0 0
0 0 0

0 0 0
0 0 0
0 0 0

0 0 0
0 0 0
0 0 0

0 0 0
0 0 0
0 0 0

0 0 0
0 0 0
0 0 0

0 0 0
0 0 0
0 0 0

0 0 0
0 0 0
0 0 0

0 0 0
0 0 0
0 0 0

0 0 0
0 0 0
0 0 0

0 0 0
0 0 0
0 0 0

0 0 0
0 0 0
0 0 0

0 0 0
0 0 0
0 0 0

0 0 0
0 0 0
0 0 0

0 0 0
0 0 0
0 0 0

0 0 0
0 0 0
0 0 0

0 0 0
0 0 0
0 0 0

0 0 0
0 0 0
0 0 0

0 0 0
0 0 0
0 0 0

0 0 0
0 0 0
0 0 0

0 0 0
0 0 0
0 0 0

0 0 0
0 0 0
0 0 0

0 0 0
0 0 0
0 0 0

0 0 0
0 0 0
0 0 0

0 0 0
0 0 0
0 0 0

0 0 0
0 0 0
0 0 0

0 0 0
0 0 0
0 0 0

0 0 0
0 0 0
0 0 0

0 0 0
0 0 0
0 0 0

0 0 0
0 0 0
0 0 0

0 0 0
0 0 0
0 0 0

0 0 0
0 0 0
0 0 0

0 0 0
0 0 0
0 0 0

0 0 0
0 0 0
0 0 0

0 0 0
0 0 0
0 0 0

0 0 0
0 0 0
0 0 0

0 0 0
0 0 0
0 0 0

0 0 0
0 0 0
0 0 0

0 0 0
0 0 0
0 0 0

0 0 0
0 0 0
0 0 0

0 0 0
0 0 0
0 0 0

0 0 0
0 0 0
0 0 0

0 0 0
0 0 0
0 0 0

0 0 0
0 0 0
0 0 0

0 0 0
0 0 0
0 0 0

0 0 0
0 0 0
0 0 0

0 0 0
0 0 0
0 0 0

0 0 0
0 0 0
0 0 0

0 0 0
0 0 0
0 0 0

0 0 0
0 0 0
0 0 0

0 0 0
0 0 0
0 0 0

0 0 0
0 0 0
0 0 0

0 0 0
0 0 0
0 0 0

0 0 0
0 0 0
0 0 0

0 0 0
0 0 0
0 0 0

0 0 0
0 0 0
0 0 0

0 0 0
0 0 0
0 0 0

0 0 0
0 0 0
0 0 0

0 0 0
0 0 0
0 0 0

0 0 0
0 0 0
0 0 0

0 0 0
0 0 0
0 0 0

0 0 0
0 0 0
0 0 0

0 0 0
0 0 0
0 0 0

0 0 0
0 0 0
0 0 0

0 0 0
0 0 0
0 0 0

0 0 0
0 0 0
0 0 0

0 0 0
0 0 0
0 0 0

0 0 0
0 0 0
0 0 0

0 0 0
0 0 0
0 0 0

0 0 0
0 0 0
0 0 0

0 0 0
0 0 0
0 0 0

0 0 0
0 0 0
0 0 0

0 0 0
0 0 0
0 0 0

0 0 0
0 0 0
0 0 0

0 0 0
0 0 0
0 0 0

0 0 0
0 0 0
0 0 0

0 0 0
0 0 0
0 0 0

0 0 0
0 0 0
0 0 0

0 0 0
0 0 0
0 0 0

0 0 0
0 0 0
0 0 0

0 0 0
0 0 0
0 0 0

0 0 0
0 0 0
0 0 0

0 0 0
0 0 0
0 0 0

0 0 0
0 0 0
0 0 0

0 0 0
0 0 0
0 0 0

0 0 0
0 0 0
0 0 0

0 0 0
0 0 0
0 0 0

0 0 0
0 0 0
0 0 0

0 0 0
0 0 0
0 0 0

0 0 0
0 0 0
0 0 0

0 0 0
0 0 0
0 0 0

0 0 0
0 0 0
0 0 0

0 0 0
0 0 0
0 0 0

0 0 0
0 0 0
0 0 0

0 0 0
0 0 0
0 0 0

0 0 0
0 0 0
0 0 0

0 0 0
0 0 0
0 0 0

0 0 0
0 0 0
0 0 0

0 0 0
0 0 0
0 0 0

0 0 0
0 0 0
0 0 0

0 0 0
0 0 0
0 0 0

0 0 0
0 0 0
0 0 0

0 0 0
0 0 0
0 0 0

0 0 0
0 0 0
0 0 0

0 0 0
0 0 0
0 0 0

0 0 0
0 0 0
0 0 0

0 0 0
0 0 0
0 0 0

0 0 0
0 0 0
0 0 0

0 0 0
0 0 0
0 0 0

0 0 0
0 0 0
0 0 0

0 0 0
0 0 0
0 0 0

0 0 0
0 0 0
0 0 0

0 0 0
0 0 0
0 0 0

0 0 0
0 0 0
0 0 0

0 0 0
0 0 0
0 0 0

0 0 0
0 0 0
0 0 0

0 0 0
0 0 0
0 0 0

0 0 0
0 0 0
0 0 0

0 0 0
0 0 0
0 0 0

0 0 0
0 0 0
0 0 0

0 0 0
0 0 0
0 0 0

0 0 0
0 0 0
0 0 0

0 0 0
0 0 0
0 0 0

0 0 0
0 0 0
0 0 0

0 0 0
0 0 0
0 0 0

0 0 0
0 0 0
0 0 0

0 0 0
0 0 0
0 0 0

0 0 0
0 0 0
0 0 0

0 0 0
0 0 0
0 0 0

0 0 0
0 0 0
0 0 0

0 0 0
0 0 0
0 0 0

0 0 0
0 0 0
0 0 0

0 0 0
0 0 0
0 0 0

0 0 0
0 0 0
0 0 0

0 0 0
0 0 0
0 0 0

0 0 0
0 0 0
0 0 0

0 0 0
0 0 0
0 0 0

0 0 0
0 0 0
0 0 0

0 0 0
0 0 0
0 0 0

0 0 0
0 0 0
0 0 0

0 0 0
0 0 0
0 0 0

0 0 0
0 0 0
0 0 0

0 0 0
0 0 0
0 0 0

0 0 0
0 0 0
0 0 0

0 0 0
0 0 0
0 0 0

0 0 0
0 0 0
0 0 0

0 0 0
0 0 0
0 0 0

0 0 0
0 0 0
0 0 0

0 0 0
0 0 0
0 0 0

0 0 0
0 0 0
0 0 0

0 0 0
0 0 0
0 0 0

0 0 0
0 0 0
0 0 0

0 0 0
0 0 0
0 0 0

0 0 0
0 0 0
0 0 0

0 0 0
0 0 0
0 0 0

0 0 0
0 0 0
0 0 0

0 0 0
0 0 0
0 0 0

0 0 0
0 0 0
0 0 0

0 0 0
0 0 0
0 0 0

0 0 0
0 0 0
0 0 0

0 0 0
0 0 0
0 0 0

0 0 0
0 0 0
0 0 0

0 0 0
0 0 0
0 0 0

0 0 0
0 0 0
0 0 0

0 0 0
0 0 0
0 0 0

0 0 0
0 0 0
0 0 0

0 0 0
0 0 0
0 0 0

0 0 0
0 0 0
0 0 0

0 0 0
0 0 0
0 0 0

0 0 0
0 0 0
0 0 0

0 0 0
0 0 0
0 0 0

0 0 0
0 0 0
0 0 0

0 0 0
0 0 0
0 0 0

0 0 0
0 0 0
0 0 0

0 0 0
0 0 0
0 0 0

0 0 0
0 0 0
0 0 0

0 0 0
0 0 0
0 0 0

0 0 0
0 0 0
0 0 0

0 0 0
0 0 0
0 0 0

0 0 0
0 0 0
0 0 0

0 0 0
0 0 0
0 0 0

0 0 0
0 0 0
0 0 0

0 0 0
0 0 0
0 0 0

0 0 0
0 0 0
0 0 0

0 0 0
0 0 0
0 0 0

0 0 0
0 0 0
0 0 0

0 0 0
0 0 0
0 0 0

0 0 0
0 0 0
0 0 0

0 0 0
0 0 0
0 0 0

0 0 0
0 0 0
0 0 0

0 0 0
0 0 0
0 0 0

0 0 0
0 0 0
0 0 0

0 0 0
0 0 0
0 0 0

0 0 0
0 0 0
0 0 0

0 0 0
0 0 0
0 0 0

0 0 0
0 0 0
0 0 0

0 0 0
0 0 0
0 0 0

0 0 0
0 0 0
0 0 0

0 0 0
0 0 0
0 0 0

0 0 0
0 0 0
0 0 0

0 0 0
0 0 0
0 0 0

0 0 0
0 0 0
0 0 0

0 0 0
0 0 0
0 0 0

0 0 0
0 0 0
0 0 0

0 0 0
0 0 0
0 0 0

0 0 0
0 0 0
0 0 0

0 0 0
0 0 0
0 0 0

0 0 0
0 0 0
0 0 0

0 0 0
0 0 0
0 0 0

0 0 0
0 0 0
0 0 0

0 0 0
0 0 0
0 0 0

0 0 0
0 0 0
0 0 0

0 0 0
0 0 0
0 0 0

0 0 0
0 0 0
0 0 0

0 0 0
0 0 0
0 0 0

0 0 0
0 0 0
0 0 0

0 0 0
0 0 0
0 0 0

0 0 0
0 0 0
0 0 0

0 0 0
0 0 0
0 0 0

0 0 0
0 0 0
0 0 0

0 0 0
0 0 0
0 0 0

0 0 0
0 0 0
0 0 0

0 0 0
0 0 0
0 0 0

0 0 0
0 0 0
0 0 0

0 0 0
0 0 0
0 0 0

0 0 0
0 0 0
0 0 0

0 0 0
0 0 0
0 0 0

0 0 0
0 0 0
0 0 0

0 0 0
0 0 0
0 0 0

0 0 0
0 0 0
0 0 0

0 0 0
0 0 0
0 0 0

0 0 0
0 0 0
0 0 0

0 0 0
0 0 0
0 0 0

0 0 0
0 0 0
0 0 0

0 0 0
0 0 0
0 0 0

0 0 0
0 0 0
0 0 0

0 0 0
0 0 0
0 0 0

0 0 0
0 0 0
0 0 0

0 0 0
0 0 0
0 0 0

0 0 0
0 0 0
0 0 0

0 0 0
0 0 0
0 0 0

0 0 0
0 0 0
0 0 0

0 0 0
0 0 0
0 0 0

0 0 0
0 0 0
0 0 0

0 0 0
0 0 0
0 0 0

0 0 0
0 0 0
0 0 0

0 0 0
0 0 0
0 0 0

0 0 0
0 0 0
0 0 0

0 0 0
0 0 0
0 0 0

0 0 0
0 0 0
0 0 0

0 0 0
0 0 0
0 0 0

0 0 0
0 0 0
0 0 0

0 0 0
0 0 0
0 0 0

0 0 0
0 0 0
0 0 0

0 0 0
0 0 0
0 0 0

0 0 0
0 0 0
0 0 0

0 0 0
0 0 0
0 0 0

0 0 0
0 0 0
0 0 0

0 0 0
0 0 0
0 0 0

0 0 0
0 0 0
0 0 0

0 0 0
0 0 0
0 0 0

0 0 0
0 0 0
0 0 0

0 0 0
0 0 0
0 0 0

0 0 0
0 0 0
0 0 0

0 0 0
0 0 0
0 0 0

0 0 0
0 0 0
0 0 0

0 0 0
0 0 0
0 0 0

0 0 0
0 0 0
0 0 0

0 0 0
0 0 0
0 0 0

0 0 0
0 0 0
0 0 0

0 0 0
0 0 0
0 0 0

0 0 0
0 0 0
0 0 0

0 0 0
0 0 0
0 0 0

0 0 0
0 0 0
0 0 0

0 0 0
0 0 0
0 0 0

0 0 0
0 0 0
0 0 0

0 0 0
0 0 0
0 0 0

0 0 0
0 0 0
0 0 0

0 0 0
0 0 0
0 0 0

0 0 0
0 0 0
0 0 0

0 0 0
0 0 0
0 0 0

0 0 0
0 0 0
0 0 0

0 0 0
0 0 0
0 0 0

0 0 0
0 0 0
0 0 0

0 0 0
0 0 0
0 0 0

0 0 0
0 0 0
0 0 0

0 0 0
0 0 0
0 0 0

0 0 0
0 0 0
0 0 0

0 0 0
0 0 0
0 0 0

0 0 0
0 0 0
0 0 0

0 0 0
0 0 0
0 0 0

0 0 0
0 0 0
0 0 0

0 0 0
0 0 0
0 0 0

0 0 0
0 0 0
0 0 0

0 0 0
0 0 0
0 0 0

0 0 0
0 0 0
0 0 0

0 0 0
0 0 0
0 0 0

0 0 0
0 0 0
0 0 0

0 0 0
0 0 0
0 0 0

0 0 0
0 0 0
0 0 0

0 0 0
0 0 0
0 0 0

0 0 0
0 0 0
0 0 0

0 0 0
0 0 0
0 0 0

0 0 0
0 0 0
0 0 0

0 0 0
0 0 0
0 0 0

0 0 0
0 0 0
0 0 0

0 0 0
0 0 0
0 0 0

0 0 0
0 0 0
0 0 0

0 0 0
0 0 0
0 0 0

0 0 0
0 0 0
0 0 0

0 0 0
0 0 0
0 0 0

0 0 0
0 0 0
0 0 0

0 0 0
0 0 0
0 0 0

0 0 0
0 0 0
0 0 0

0 0 0
0 0 0
0 0 0

0 0 0
0 0 0
0 0 0

0 0 0
0 0 0
0 0 0

0 0 0
0 0 0
0 0 0

0 0 0
0 0 0
0 0 0

0 0 0
0 0 0
0 0 0

0 0 0
0 0 0
0 0 0

0 0 0
0 0 0
0 0 0

0 0 0
0 0 0
0 0 0

0 0 0
0 0 0
0 0 0

0 0 0
0 0 0
0 0 0

0 0 0
0 0 0
0 0 0

0 0 0
0 0 0
0 0 0

0 0 0
0 0 0
0 0 0

0 0 0
0 0 0
0 0 0

0 0 0
0 0 0
0 0 0

0 0 0
0 0 0
0 0 0

0 0 0
0 0 0
0 0 0

0 0 0
0 0 0
0 0 0

0 0 0
0 0 0
0 0 0

0 0 0
0 0 0
0 0 0

0 0 0
0 0 0
0 0 0

0 0 0
0 0 0
0 0 0

0 0 0
0 0 0
0 0 0

0 0 0
0 0 0
0 0 0

0 0 0
0 0 0
0 0 0

0 0 0
0 0 0
0 0 0

0 0 0
0 0 0
0 0 0

0 0 0
0 0 0
0 0 0

0 0 0
0 0 0
0 0 0

0 0 0
0 0 0
0 0 0

0 0 0
0 0 0
0 0 0

0 0 0
0 0 0
0 0 0

0 0 0
0 0 0
0 0 0

0 0 0
0 0 0
0 0 0

0 0 0
0 0 0
0 0 0

0 0 0
0 0 0
0 0 0

0 0 0
0 0 0
0 0 0

0 0 0
0 0 0
0 0 0

0 0 0
0 0 0
0 0 0

0 0 0
0 0 0
0 0 0

0 0 0
0 0 0
0 0 0

0 0 0
0 0 0
0 0 0

0 0 0
0 0 0
0 0 0

0 0 0
0 0 0
0 0 0

0 0 0
0 0 0
0 0 0

0 0 0
0 0 0
0 0 0

0 0 0
0 0 0
0 0 0

0 0 0
0 0 0
0 0 0

0 0 0
0 0 0
0 0 0

0 0 0
0 0 0
0 0 0

0 0 0
0 0 0
0 0 0

0 0 0
0 0 0
0 0 0

0 0 0
0 0 0
0 0 0

0 0 0
0 0 0
0 0 0

0 0 0
0 0 0
0 0 0

0 0 0
0 0 0
0 0 0

0 0 0
0 0 0
0 0 0

0 0 0
0 0 0
0 0 0

0 0 0
0 0 0
0 0 0

0 0 0
0 0 0
0 0 0

0 0 0
0 0 0
0 0 0

0 0 0
0 0 0
0 0 0

0 0 0
0 0 0
0 0 0

0 0 0
0 0 0
0 0 0

0 0 0
0 0 0
0 0 0

0 0 0
0 0 0
0 0 0

0 0 0
0 0 0
0 0 0

0 0 0
0 0 0
0 0 0

0 0 0
0 0 0
0 0 0

0 0 0
0 0 0
0 0 0

0 0 0
0 0 0
0 0 0

0 0 0
0 0 0
0 0 0

0 0 0
0 0 0
0 0 0

0 0 0
0 0 0
0 0 0

0 0 0
0 0 0
0 0 0

0 0 0
0 0 0
0 0 0

0 0 0
0 0 0
0 0 0

0 0 0
0 0 0
0 0 0

0 0 0
0 0 0
0 0 0

0 0 0
0 0 0
0 0 0

0 0 0
0 0 0
0 0 0

0 0 0
0 0 0
0 0 0

0 0 0
0 0 0
0 0 0

0 0 0
0 0 0
0 0 0

0 0 0
0 0 0
0 0 0

0 0 0
0 0 0
0 0 0

0 0 0
0 0 0
0 0 0

0 0 0
0 0 0
0 0 0

0 0 0
0 0 0
0 0 0

0 0 0
0 0 0
0 0 0

0 0 0
0 0 0
0 0 0

0 0 0
0 0 0
0 0 0

0 0 0
0 0 0
0 0 0

0 0 0
0 0 0
0 0 0

0 0 0
0 0 0
0 0 0

0 0 0
0 0 0
0 0 0

0 0 0
0 0 0
0 0 0

0 0 0
0 0 0
0 0 0

0 0 0
0 0 0
0 0 0

0 0 0
0 0 0
0 0 0

0 0 0
0 0 0
0 0 0

0 0 0
0 0 0
0 0 0

0 0 0
0 0 0
0 0 0

0 0 0
0 0 0
0 0 0

0 0 0
0 0 0
0 0 0

0 0 0
0 0 0
0 0 0

0 0 0
0 0 0
0 0 0

0 0 0
0 0 0
0 0 0

0 0 0
0 0 0
0 0 0

0 0 0
0 0 0
0 0 0

0 0 0
0 0 0
0 0 0

0 0 0
0 0 0
0 0 0

0 0 0
0 0 0
0 0 0

0 0 0
0 0 0
0 0 0

0 0 0
0 0 0
0 0 0

0 0 0
0 0 0
0 0 0

0 0 0
0 0 0
0 0 0

0 0 0
0 0 0
0 0 0

0 0 0
0 0 0
0 0 0

0 0 0
0 0 0
0 0 0

0 0 0
0 0 0
0 0 0

0 0 0
0 0 0
0 0 0

0 0 0
0 0 0
0 0 0

0 0 0
0 0 0
0 0 0

0 0 0
0 0 0
0 0 0

0 0 0
0 0 0
0 0 0

0 0 0
0 0 0
0 0 0

0 0 0
0 0 0
0 0 0

0 0 0
0 0 0
0 0 0

0 0 0
0 0 0
0 0 0

0 0 0
0 0 0
0 0 0

0 0 0
0 0 0
0 0 0

0 0 0
0 0 0
0 0 0

0 0 0
0 0 0
0 0 0

0 0 0
0 0 0
0 0 0

0 0 0
0 0 0
0 0 0

0 0 0
0 0 0
0 0 0

0 0 0
0 0 0
0 0 0

0 0 0
0 0 0
0 0 0

0 0 0
0 0 0
0 0 0

0 0 0
0 0 0
0 0 0

0 0 0
0 0 0
0 0 0

0 0 0
0 0 0
0 0 0

0 0 0
0 0 0
0 0 0

0 0 0
0 0 0
0 0 0

0 0 0
0 0 0
0 0 0

0 0 0
0 0 0
0 0 0

0 0 0
0 0 0
0 0 0

0 0 0
0 0 0
0 0 0

0 0 0
0 0 0
0 0 0

0 0 0
0 0 0
0 0 0

0 0 0
0 0 0
0 0 0

0 0 0
0 0 0
0 0 0

0 0 0
0 0 0
0 0 0

0 0 0
0 0 0
0 0 0

0 0 0
0 0 0
0 0 0

0 0 0
0 0 0
0 0 0

0 0 0
0 0 0
0 0 0

0 0 0
0 0 0
0 0 0

0 0 0
0 0 0
0 0 0

0 0 0
0 0 0
0 0 0

0 0 0
0 0 0
0 0 0

0 0 0
0 0 0
0 0 0

0 0 0
0 0 0
0 0 0

0 0 0
0 0 0
0 0 0

0 0 0
0 0 0
0 0 0

0 0 0
0 0 0
0 0 0

0 0 0
0 0 0
0 0 0

0 0 0
0 0 0
0 0 0

0 0 0
0 0 0
0 0 0

0 0 0
0 0 0
0 0 0

0 0 0
0 0 0
0 0 0

0 0 0
0 0 0
0 0 0

0 0 0
0 0 0
0 0 0

0 0 0
0 0 0
0 0 0

0 0 0
0 0 0
0 0 0

0 0 0
0 0 0
0 0 0

0 0 0
0 0 0
0 0 0

0 0 0
0 0 0
0 0 0

0 0 0
0 0 0
0 0 0

0 0 0
0 0 0
0 0 0

0 0 0
0 0 0
0 0 0

0 0 0
0 0 0
0 0 0

0 0 0
0 0 0
0 0 0

0 0 0
0 0 0
0 0 0

0 0 0
0 0 0
0 0 0

0 0 0
0 0 0
0 0 0

0 0 0
0 0 0
0 0 0

0 0 0
0 0 0
0 0 0

0 0 0
0 0 0
0 0 0

0 0 0
0 0 0
0 0 0

0 0 0
0 0 0
0 0 0

0 0 0
0 0 0
0 0 0

0 0 0
0 0 0
0 0 0

0 0 0
0 0 0
0 0 0

0 0 0
0 0 0
0 0 0

0 0 0
0 0 0
0 0 0

0 0 0
0 0 0
0 0 0

0 0 0
0 0 0
0 0 0

0 0 0
0 0 0
0 0 0

0 0 0
0 0 0
0 0 0

0 0 0
0 0 0
0 0 0

0 0 0
0 0 0
0 0 0

0 0 0
0 0 0
0 0 0

0 0 0
0 0 0
0 0 0

0 0 0
0 0 0
0 0 0

0 0 0
0 0 0
0 0 0

0 0 0
0 0 0
0 0 0

0 0 0
0 0 0
0 0 0

0 0 0
0 0 0
0 0 0

0 0 0
0 0 0
0 0 0

0 0 0
0 0 0
0 0 0

0 0 0
0 0 0
0 0 0

0 0 0
0 0 0
0 0 0

0 0 0
0 0 0
0 0 0

0 0 0
0 0 0
0 0 0

0 0 0
0 0 0
0 0 0

0 0 0
0 0 0
0 0 0

0 0 0
0 0 0
0 0 0

0 0 0
0 0 0
0 0 0

0 0 0
0 0 0
0 0 0

0 0 0
0 0 0
0 0 0

0 0 0
0 0 0
0 0 0

0 0 0
0 0 0
0 0 0

0 0 0
0 0 0
0 0 0

0 0 0
0 0 0
0 0 0

0 0 0
0 0 0
0 0 0

0 0 0
0 0 0
0 0 0

0 0 0
0 0 0
0 0 0

0 0 0
0 0 0
0 0 0

0 0 0
0 0 0
0 0 0

0 0 0
0 0 0
0 0 0

0 0 0
0 0 0
0 0 0

0 0 0
0 0 0
0 0 0

0 0 0
0 0 0
0 0 0

0 0 0
0 0 0
0 0 0

0 0 0
0 0 0
0 0 0

0 0 0
0 0 0
0 0 0

0 0 0
0 0 0
0 0 0

0 0 0
0 0 0
0 0 0

0 0 0
0 0 0
0 0 0

0 0 0
0 0 0
0 0 0

0 0 0
0 0 0
0 0 0

0 0 0
0 0 0
0 0 0

0 0 0
0 0 0
0 0 0

0 0 0
0 0 0
0 0 0

0 0 0
0 0 0
0 0 0

0 0 0
0 0 0
0 0 0

0 0 0
0 0 0
0 0 0

0 0 0
0 0 0
0 0 0

0 0 0
0 0 0
0 0 0

0 0 0
0 0 0
0 0 0

0 0 0
0 0 0
0 0 0

0 0 0
0 0 0
0 0 0

0 0 0
0 0 0
0 0 0

0 0 0
0 0 0
0 0 0

0 0 0
0 0 0
0 0 0

0 0 0
0 0 0
0 0 0

0 0 0
0 0 0
0 0 0

0 0 0
0 0 0
0 0 0

0 0 0
0 0 0
0 0 0

0 0 0
0 0 0
0 0 0

0 0 0
0 0 0
0 0 0

0 0 0
0 0 0
0 0 0

0 0 0
0 0 0
0 0 0

0 0 0
0 0 0
0 0 0

0 0 0
0 0 0
0 0 0

0 0 0
0 0 0
0 0 0

0 0 0
0 0 0
0 0 0

0 0 0
0 0 0
0 0 0

0 0 0
0 0 0
0 0 0

0 0 0
0 0 0
0 0 0

0 0 0
0 0 0
0 0 0

0 0 0
0 0 0
0 0 0

0 0 0
0 0 0
0 0 0

0 0 0
0 0 0
0 0 0

0 0 0
0 0 0
0 0 0

0 0 0
0 0 0
0 0 0

0 0 0
0 0 0
0 0 0

0 0 0
0 0 0
0 0 0

0 0 0
0 0 0
0 0 0

0 0 0
0 0 0
0 0 0

0 0 0
0 0 0
0 0 0

0 0 0
0 0 0
0 0 0

0 0 0
0 0 0
0 0 0

0 0 0
0 0 0
0 0 0

0 0 0
0 0 0
0 0 0

0 0 0
0 0 0
0 0 0

0 0 0
0 0 0
0 0 0

0 0 0
0 0 0
0 0 0

0 0 0
0 0 0
0 0 0

0 0 0
0 0 0
0 0 0

0 0 0
0 0 0
0 0 0

0 0 0
0 0 0
0 0 0

0 0 0
0 0 0
0 0 0

0 0 0
0 0 0
0 0 0

0 0 0
0 0 0
0 0 0

0 0 0
0 0 0
0 0 0

0 0 0
0 0 0
0 0 0

0 0 0
0 0 0
0 0 0

0 0 0
0 0 0
0 0 0

0 0 0
0 0 0
0 0 0

0 0 0
0 0 0
0 0 0

0 0 0
0 0 0
0 0 0

0 0 0
0 0 0
0 0 0

0 0 0
0 0 0
0 0 0

0 0 0
0 0 0
0 0 0

0 0 0
0 0 0
0 0 0

0 0 0
0 0 0
0 0 0

0 0 0
0 0 0
0 0 0

0 0 0
0 0 0
0 0 0

0 0 0
0 0 0
0 0 0

0 0 0
0 0 0
0 0 0

0 0 0
0 0 0
0 0 0

0 0 0
0 0 0
0 0 0

0 0 0
0 0 0
0 0 0

0 0 0
0 0 0
0 0 0

0 0 0
0 0 0
0 0 0

0 0 0
0 0 0
0 0 0

0 0 0
0 0 0
0 0 0

0 0 0
0 0 0
0 0 0

0 0 0
0 0 0
0 0 0

0 0 0
0 0 0
0 0 0

0 0 0
0 0 0
0 0 0

0 0 0
0 0 0
0 0 0

0 0 0
0 0 0
0 0 0

0 0 0
0 0 0
0 0 0

0 0 0
0 0 0
0 0 0

0 0 0
0 0 0
0 0 0

0 0 0
0 0 0
0 0 0

0 0 0
0 0 0
0 0 0

0 0 0
0 0 0
0 0 0

0 0 0
0 0 0
0 0 0

0 0 0
0 0 0
0 0 0

0 0 0
0 0 0
0 0 0

0 0 0
0 0 0
0 0 0

0 0 0
0 0 0
0 0 0

0 0 0
0 0 0
0 0 0

0 0 0
0 0 0
0 0 0

0 0 0
0 0 0
0 0 0

0 0 0
0 0 0
0 0 0

0 0 0
0 0 0
0 0 0

0 0 0
0 0 0
0 0 0

0 0 0
0 0 0
0 0 0

0 0 0
0 0 0
0 0 0

0 0 0
0 0 0
0 0 0

0 0 0
0 0 0
0 0 0

0 0 0
0 0 0
0 0 0

0 0 0
0 0 0
0 0 0

0 0 0
0 0 0
0 0 0

0 0 0
0 0 0
0 0 0

0 0 0
0 0 0
0 0 0

0 0 0
0 0 0
0 0 0

0 0 0
0 0 0
0 0 0

0 0 0
0 0 0
0 0 0

0 0 0
0 0 0
0 0 0

0 0 0
0 0 0
0 0 0

0 0 0
0 0 0
0 0 0

0 0 0
0 0 0
0 0 0

0 0 0
0 0 0
0 0 0

0 0 0
0 0 0
0 0 0

0 0 0
0 0 0
0 0 0

0 0 0
0 0 0
0 0 0

0 0 0
0 0 0
0 0 0

0 0 0
0 0 0
0 0 0

0 0 0
0 0 0
0 0 0

0 0 0
0 0 0
0 0 0

0 0 0
0 0 0
0 0 0

0 0 0
0 0 0
0 0 0

0 0 0
0 0 0
0 0 0

0 0 0
0 0 0
0 0 0

0 0 0
0 0 0
0 0 0

0 0 0
0 0 0
0 0 0

0 0 0
0 0 0
0 0 0

0 0 0
0 0 0
0 0 0

0 0 0
0 0 0
0 0 0

0 0 0
0 0 0
0 0 0

0 0 0
0 0 0
0 0 0

0 0 0
0 0 0
0 0 0

0 0 0
0 0 0
0 0 0

0 0 0
0 0 0
0 0 0

0 0 0
0 0 0
0 0 0

0 0 0
0 0 0
0 0 0

0 0 0
0 0 0
0 0 0

0 0 0
0 0 0
0 0 0

0 0 0
0 0 0
0 0 0

0 0 0
0 0 0
0 0 0

0 0 0
0 0 0
0 0 0

0 0 0
0 0 0
0 0 0

0 0 0
0 0 0
0 0 0

0 0 0
0 0 0
0 0 0

0 0 0
0 0 0
0 0 0

0 0 0
0 0 0
0 0 0

0 0 0
0 0 0
0 0 0

0 0 0
0 0 0
0 0 0

0 0 0
0 0 0
0 0 0

0 0 0
0 0 0
0 0 0

0 0 0
0 0 0
0 0 0

0 0 0
0 0 0
0 0 0

0 0 0
0 0 0
0 0 0

0 0 0
0 0 0
0 0 0

0 0 0
0 0 0
0 0 0

0 0 0
0 0 0
0 0 0

0 0 0
0 0 0
0 0 0

0 0 0
0 0 0
0 0 0

0 0 0
0 0 0
0 0 0

0 0 0
0 0 0
0 0 0

0 0 0
0 0 0
0 0 0

0 0 0
0 0 0
0 0 0

0 0 0
0 0 0
0 0 0

0 0 0
0 0 0
0 0 0

0 0 0
0 0 0
0 0 0

0 0 0
0 0 0
0 0 0

0 0 0
0 0 0
0 0 0

0 0 0
0 0 0
0 0 0

0 0 0
0 0 0
0 0 0

0 0 0
0 0 0
0 0 0

0 0 0
0 0 0
0 0 0

0 0 0
0 0 0
0 0 0

0 0 0
0 0 0
0 0 0

0 0 0
0 0 0
0 0 0

0 0 0
0 0 0
0 0 0

0 0 0
0 0 0
0 0 0

0 0 0
0 0 0
0 0 0

0 0 0
0 0 0
0 0 0

0 0 0
0 0 0
0 0 0

0 0 0
0 0 0
0 0 0

0 0 0
0 0 0
0 0 0

0 0 0
0 0 0
0 0 0

0 0 0
0 0 0
0 0 0

0 0 0
0 0 0
0 0 0

0 0 0
0 0 0
0 0 0

0 0 0
0 0 0
0 0 0

0 0 0
0 0 0
0 0 0

0 0 0
0 0 0
0 0 0

0 0 0
0 0 0
0 0 0

0 0 0
0 0 0
0 0 0

0 0 0
0 0 0
0 0 0

0 0 0
0 0 0
0 0 0

0 0 0
0 0 0
0 0 0

0 0 0
0 0 0
0 0 0

0 0 0
0 0 0
0 0 0

0 0 0
0 0 0
0 0 0

0 0 0
0 0 0
0 0 0

0 0 0
0 0 0
0 0 0

0 0 0
0 0 0
0 0 0

0 0 0
0 0 0
0 0 0

0 0 0
0 0 0
0 0 0

0 0 0
0 0 0
0 0 0

0 0 0
0 0 0
0 0 0

0 0 0
0 0 0
0 0 0

0 0 0
0 0 0
0 0 0

0 0 0
0 0 0
0 0 0

0 0 0
0 0 0
0 0 0

0 0 0
0 0 0
0 0 0

0 0 0
0 0 0
0 0 0

0 0 0
0 0 0
0 0 0

0 0 0
0 0 0
0 0 0

0 0 0
0 0 0
0 0 0

0 0 0
0 0 0
0 0 0

0 0 0
0 0 0
0 0 0

0 0 0
0 0 0
0 0 0

0 0 0
0 0 0
0 0 0

0 0 0
0 0 0
0 0 0

0 0 0
0 0 0
0 0 0

0 0 0
0 0 0
0 0 0

0 0 0
0 0 0
0 0 0

0 0 0
0 0 0
0 0 0

0 0 0
0 0 0
0 0 0

0 0 0
0 0 0
0 0 0

0 0 0
0 0 0
0 0 0

0 0 0
0 0 0
0 0 0

0 0 0
0 0 0
0 0 0

0 0 0
0 0 0
0 0 0

0 0 0
0 0 0
0 0 0

0 0 0
0 0 0
0 0 0

0 0 0
0 0 0
0 0 0

0 0 0
0 0 0
0 0 0

0 0 0
0 0 0
0 0 0

0 0 0
0 0 0
0 0 0

0 0 0
0 0 0
0 0 0

0 0 0
0 0 0
0 0 0

0 0 0
0 0 0
0 0 0

0 0 0
0 0 0
0 0 0

0 0 0
0 0 0
0 0 0

0 0 0
0 0 0
0 0 0

0 0 0
0 0 0
0 0 0

0 0 0
0 0 0
0 0 0

0 0 0
0 0 0
0 0 0

0 0 0
0 0 0
0 0 0

0 0 0
0 0 0
0 0 0

0 0 0
0 0 0
0 0 0

0 0 0
0 0 0
0 0 0

0 0 0
0 0 0
0 0 0

0 0 0
0 0 0
0 0 0

0 0 0
0 0 0
0 0 0

0 0 0
0 0 0
0 0 0

0 0 0
0 0 0
0 0 0

0 0 0
0 0 0
0 0 0

0 0 0
0 0 0
0 0 0

0 0 0
0 0 0
0 0 0

0 0 0
0 0 0
0 0 0

0 0 0
0 0 0
0 0 0

0 0 0
0 0 0
0 0 0

0 0 0
0 0 0
0 0 0

0 0 0
0 0 0
0 0 0

0 0 0
0 0 0
0 0 0

0 0 0
0 0 0
0 0 0

0 0 0
0 0 0
0 0 0

0 0 0
0 0 0
0 0 0

0 0 0
0 0 0
0 0 0

0 0 0
0 0 0
0 0 0

0 0 0
0 0 0
0 0 0

0 0 0
0 0 0
0 0 0

0 0 0
0 0 0
0 0 0

0 0 0
0 0 0
0 0 0

0 0 0
0 0 0
0 0 0

0 0 0
0 0 0
0 0 0

0 0 0
0 0 0
0 0 0

0 0 0
0 0 0
0 0 0

0 0 0
0 0 0
0 0 0

0 0 0
0 0 0
0 0 0

0 0 0
0 0 0
0 0 0

0 0 0
0 0 0
0 0 0

0 0 0
0 0 0
0 0 0

0 0 0
0 0 0
0 0 0

0 0 0
0 0 0
0 0 0

0 0 0
0 0 0
0 0 0

0 0 0
0 0 0
0 0 0

0 0 0
0 0 0
0 0 0

0 0 0
0 0 0
0 0 0

0 0 0
0 0 0
0 0 0

0 0 0
0 0 0
0 0 0

0 0 0
0 0 0
0 0 0

0 0 0
0 0 0
0 0 0

0 0 0
0 0 0
0 0 0

0 0 0
0 0 0
0 0 0

0 0 0
0 0 0
0 0 0

0 0 0
0 0 0
0 0 0

0 0 0
0 0 0
0 0 0

0 0 0
0 0 0
0 0 0

0 0 0
0 0 0
0 0 0

0 0 0
0 0 0
0 0 0

0 0 0
0 0 0
0 0 0

0 0 0
0 0 0
0 0 0

0 0 0
0 0 0
0 0 0

0 0 0
0 0 0
0 0 0

0 0 0
0 0 0
0 0 0

0 0 0
0 0 0
0 0 0

0 0 0
0 0 0
0 0 0

0 0 0
0 0 0
0 0 0

0 0 0
0 0 0
0 0 0

0 0 0
0 0 0
0 0 0

0 0 0
0 0 0
0 0 0

0 0 0
0 0 0
0 0 0

0 0 0
0 0 0
0 0 0

0 0 0
0 0 0
0 0 0

0 0 0
0 0 0
0 0 0

0 0 0
0 0 0
0 0 0

0 0 0
0 0 0
0 0 0

0 0 0
0 0 0
0 0 0

0 0 0
0 0 0
0 0 0

0 0 0
0 0 0
0 0 0

0 0 0
0 0 0
0 0 0

0 0 0
0 0 0
0 0 0

0 0 0
0 0 0
0 0 0

0 0 0
0 0 0
0 0 0

0 0 0
0 0 0
0 0 0

0 0 0
0 0 0
0 0 0

0 0 0
0 0 0
0 0 0

0 0 0
0 0 0
0 0 0

0 0 0
0 0 0
0 0 0

0 0 0
0 0 0
0 0 0

0 0 0
0 0 0
0 0 0

0 0 0
0 0 0
0 0 0

0 0 0
0 0 0
0 0 0

0 0 0
0 0 0
0 0 0

0 0 0
0 0 0
0 0 0

0 0 0
0 0 0
0 0 0

0 0 0
0 0 0
0 0 0

0 0 0
0 0 0
0 0 0

0 0 0
0 0 0
0 0 0

0 0 0
0 0 0
0 0 0

0 0 0
0 0 0
0 0 0

0 0 0
0 0 0
0 0 0

0 0 0
0 0 0
0 0 0

0 0 0
0 0 0
0 0 0

0 0 0
0 0 0
0 0 0

0 0 0
0 0 0
0 0 0

0 0 0
0 0 0
0 0 0

0 0 0
0 0 0
0 0 0

0 0 0
0 0 0
0 0 0

0 0 0
0 0 0
0 0 0

0 0 0
0 0 0
0 0 0

0 0 0
0 0 0
0 0 0

0 0 0
0 0 0
0 0 0

0 0 0
0 0 0
0 0 0

0 0 0
0 0 0
0 0 0

0 0 0
0 0 0
0 0 0

0 0 0
0 0 0
0 0 0

0 0 0
0 0 0
0 0 0

0 0 0
0 0 0
0 0 0

0 0 0
0 0 0
0 0 0

0 0 0
0 0 0
0 0 0

0 0 0
0 0 0
0 0 0

0 0 0
0 0 0
0 0 0

0 0 0
0 0 0
0 0 0

0 0 0
0 0 0
0 0 0

0 0 0
0 0 0
0 0 0

0 0 0
0 0 0
0 0 0

0 0 0
0 0 0
0 0 0

0 0 0
0 0 0
0 0 0

0 0 0
0 0 0
0 0 0

0 0 0
0 0 0
0 0 0

0 0 0
0 0 0
0 0 0

0 0 0
0 0 0
0 0 0

0 0 0
0 0 0
0 0 0

0 0 0
0 0 0
0 0 0

0 0 0
0 0 0
0 0 0

0 0 0
0 0 0
0 0 0

0 0 0
0 0 0
0 0 0

0 0 0
0 0 0
0 0 0

0 0 0
0 0 0
0 0 0

0 0 0
0 0 0
0 0 0

0 0 0
0 0 0
0 0 0

0 0 0
0 0 0
0 0 0

0 0 0
0 0 0
0 0 0

0 0 0
0 0 0
0 0 0

0 0 0
0 0 0
0 0 0

0 0 0
0 0 0
0 0 0

0 0 0
0 0 0
0 0 0

0 0 0
0 0 0
0 0 0

0 0 0
0 0 0
0 0 0

0 0 0
0 0 0
0 0 0

0 0 0
0 0 0
0 0 0

0 0 0
0 0 0
0 0 0

0 0 0
0 0 0
0 0 0

0 0 0
0 0 0
0 0 0

0 0 0
0 0 0
0 0 0

0 0 0
0 0 0
0 0 0

0 0 0
0 0 0
0 0 0

0 0 0
0 0 0
0 0 0

0 0 0
0 0 0
0 0 0

0 0 0
0 0 0
0 0 0

0 0 0
0 0 0
0 0 0

0 0 0
0 0 0
0 0 0

0 0 0
0 0 0
0 0 0

0 0 0
0 0 0
0 0 0

0 0 0
0 0 0
0 0 0

0 0 0
0 0 0
0 0 0

0 0 0
0 0 0
0 0 0

0 0 0
0 0 0
0 0 0

0 0 0
0 0 0
0 0 0

0 0 0
0 0 0
0 0 0

0 0 0
0 0 0
0 0 0

0 0 0
0 0 0
0 0 0

0 0 0
0 0 0
0 0 0

0 0 0
0 0 0
0 0 0

0 0 0
0 0 0
0 0 0

0 0 0
0 0 0
0 0 0

0 0 0
0 0 0
0 0 0

0 0 0
0 0 0
0 0 0

0 0 0
0 0 0
0 0 0

0 0 0
0 0 0
0 0 0

0 0 0
0 0 0
0 0 0

0 0 0
0 0 0
0 0 0

0 0 0
0 0 0
0 0 0

0 0 0
0 0 0
0 0 0

0 0 0
0 0 0
0 0 0

0 0 0
0 0 0
0 0 0

0 0 0
0 0 0
0 0 0

0 0 0
0 0 0
0 0 0

0 0 0
0 0 0
0 0 0

0 0 0
0 0 0
0 0 0

0 0 0
0 0 0
0 0 0

0 0 0
0 0 0
0 0 0

0 0 0
0 0 0
0 0 0

0 0 0
0 0 0
0 0 0

0 0 0
0 0 0
0 0 0

0 0 0
0 0 0
0 0 0

0 0 0
0 0 0
0 0 0

0 0 0
0 0 0
0 0 0

0 0 0
0 0 0
0 0 0

0 0 0
0 0 0
0 0 0

0 0 0
0 0 0
0 0 0

0 0 0
0 0 0
0 0 0

0 0 0
0 0 0
0 0 0

0 0 0
0 0 0
0 0 0

0 0 0
0 0 0
0 0 0

0 0 0
0 0 0
0 0 0

0 0 0
0 0 0
0 0 0

0 0 0
0 0 0
0 0 0

0 0 0
0 0 0
0 0 0

0 0 0
0 0 0
0 0 0

0 0 0
0 0 0
0 0 0

0 0 0
0 0 0
0 0 0

0 0 0
0 0 0
0 0 0

0 0 0
0 0 0
0 0 0

0 0 0
0 0 0
0 0 0

0 0 0
0 0 0
0 0 0

0 0 0
0 0 0
0 0 0

0 0 0
0 0 0
0 0 0

0 0 0
0 0 0
0 0 0

0 0 0
0 0 0
0 0 0

0 0 0
0 0 0
0 0 0

0 0 0
0 0 0
0 0 0

0 0 0
0 0 0
0 0 0

0 0 0
0 0 0
0 0 0

0 0 0
0 0 0
0 0 0

0 0 0
0 0 0
0 0 0

0 0 0
0 0 0
0 0 0

0 0 0
0 0 0
0 0 0

0 0 0
0 0 0
0 0 0

0 0 0
0 0 0
0 0 0

0 0 0
0 0 0
0 0 0

0 0 0
0 0 0
0 0 0

0 0 0
0 0 0
0 0 0

0 0 0
0 0 0
0 0 0

0 0 0
0 0 0
0 0 0

0 0 0
0 0 0
0 0 0

0 0 0
0 0 0
0 0 0

0 0 0
0 0 0
0 0 0

0 0 0
0 0 0
0 0 0

0 0 0
0 0 0
0 0 0

0 0 0
0 0 0
0 0 0

0 0 0
0 0 0
0 0 0

0 0 0
0 0 0
0 0 0

0 0 0
0 0 0
0 0 0

0 0 0
0 0 0
0 0 0

0 0 0
0 0 0
0 0 0

0 0 0
0 0 0
0 0 0

0 0 0
0 0 0
0 0 0

0 0 0
0 0 0
0 0 0

0 0 0
0 0 0
0 0 0

0 0 0
0 0 0
0 0 0

0 0 0
0 0 0
0 0 0

0 0 0
0 0 0
0 0 0

0 0 0
0 0 0
0 0 0

0 0 0
0 0 0
0 0 0

0 0 0
0 0 0
0 0 0

0 0 0
0 0 0
0 0 0

0 0 0
0 0 0
0 0 0

0 0 0
0 0 0
0 0 0

0 0 0
0 0 0
0 0 0

0 0 0
0 0 0
0 0 0

0 0 0
0 0 0
0 0 0

0 0 0
0 0 0
0 0 0

0 0 0
0 0 0
0 0 0

0 0 0
0 0 0
0 0 0

0 0 0
0 0 0
0 0 0

0 0 0
0 0 0
0 0 0

0 0 0
0 0 0
0 0 0

0 0 0
0 0 0
0 0 0

0 0 0
0 0 0
0 0 0

0 0 0
0 0 0
0 0 0

0 0 0
0 0 0
0 0 0

0 0 0
0 0 0
0 0 0

0 0 0
0 0 0
0 0 0

0 0 0
0 0 0
0 0 0

0 0 0
0 0 0
0 0 0

0 0 0
0 0 0
0 0 0

0 0 0
0 0 0
0 0 0

0 0 0
0 0 0
0 0 0

0 0 0
0 0 0
0 0 0

0 0 0
0 0 0
0 0 0

0 0 0
0 0 0
0 0 0

0 0 0
0 0 0
0 0 0

0 0 0
0 0 0
0 0 0

0 0 0
0 0 0
0 0 0

0 0 0
0 0 0
0 0 0

0 0 0
0 0 0
0 0 0

0 0 0
0 0 0
0 0 0

0 0 0
0 0 0
0 0 0

0 0 0
0 0 0
0 0 0

0 0 0
0 0 0
0 0 0

0 0 0
0 0 0
0 0 0

0 0 0
0 0 0
0 0 0

0 0 0
0 0 0
0 0 0

0 0 0
0 0 0
0 0 0

0 0 0
0 0 0
0 0 0

0 0 0
0 0 0
0 0 0

0 0 0
0 0 0
0 0 0

0 0 0
0 0 0
0 0 0

0 0 0
0 0 0
0 0 0

0 0 0
0 0 0
0 0 0

0 0 0
0 0 0
0 0 0

0 0 0
0 0 0
0 0 0

0 0 0
0 0 0
0 0 0

0 0 0
0 0 0
0 0 0

0 0 0
0 0 0
0 0 0

0 0 0
0 0 0
0 0 0

0 0 0
0 0 0
0 0 0

0 0 0
0 0 0
0 0 0

0 0 0
0 0 0
0 0 0

0 0 0
0 0 0
0 0 0

0 0 0
0 0 0
0 0 0

0 0 0
0 0 0
0 0 0

0 0 0
0 0 0
0 0 0

0 0 0
0 0 0
0 0 0

0 0 0
0 0 0
0 0 0

0 0 0
0 0 0
0 0 0

0 0 0
0 0 0
0 0 0

0 0 0
0 0 0
0 0 0

0 0 0
0 0 0
0 0 0

0 0 0
0 0 0
0 0 0

0 0 0
0 0 0
0 0 0

0 0 0
0 0 0
0 0 0

0 0 0
0 0 0
0 0 0

0 0 0
0 0 0
0 0 0

0 0 0
0 0 0
0 0 0

0 0 0
0 0 0
0 0 0

0 0 0
0 0 0
0 0 0

0 0 0
0 0 0
0 0 0

0 0 0
0 0 0
0 0 0

0 0 0
0 0 0
0 0 0

0 0 0
0 0 0
0 0 0

0 0 0
0 0 0
0 0 0

0 0 0
0 0 0
0 0 0

0 0 0
0 0 0
0 0 0

0 0 0
0 0 0
0 0 0

0 0 0
0 0 0
0 0 0

0 0 0
0 0 0
0 0 0

0 0 0
0 0 0
0 0 0

0 0 0
0 0 0
0 0 0

0 0 0
0 0 0
0 0 0

0 0 0
0 0 0
0 0 0

0 0 0
0 0 0
0 0 0

0 0 0
0 0 0
0 0 0

0 0 0
0 0 0
0 0 0

0 0 0
0 0 0
0 0 0

0 0 0
0 0 0
0 0 0

0 0 0
0 0 0
0 0 0

0 0 0
0 0 0
0 0 0

0 0 0
0 0 0
0 0 0

0 0 0
0 0 0
0 0 0

0 0 0
0 0 0
0 0 0

0 0 0
0 0 0
0 0 0

0 0 0
0 0 0
0 0 0

0 0 0
0 0 0
0 0 0

0 0 0
0 0 0
0 0 0

0 0 0
0 0 0
0 0 0

0 0 0
0 0 0
0 0 0

0 0 0
0 0 0
0 0 0

0 0 0
0 0 0
0 0 0

0 0 0
0 0 0
0 0 0

0 0 0
0 0 0
0 0 0

0 0 0
0 0 0
0 0 0

0 0 0
0 0 0
0 0 0

0 0 0
0 0 0
0 0 0

0 0 0
0 0 0
0 0 0

0 0 0
0 0 0
0 0 0

0 0 0
0 0 0
0 0 0

0 0 0
0 0 0
0 0 0

0 0 0
0 0 0
0 0 0

0 0 0
0 0 0
0 0 0

0 0 0
0 0 0
0 0 0

0 0 0
0 0 0
0 0 0

0 0 0
0 0 0
0 0 0

0 0 0
0 0 0
0 0 0

0 0 0
0 0 0
0 0 0

0 0 0
0 0 0
0 0 0

0 0 0
0 0 0
0 0 0

0 0 0
0 0 0
0 0 0

0 0 0
0 0 0
0 0 0

0 0 0
0 0 0
0 0 0

0 0 0
0 0 0
0 0 0

0 0 0
0 0 0
0 0 0

0 0 0
0 0 0
0 0 0

0 0 0
0 0 0
0 0 0

0 0 0
0 0 0
0 0 0

0 0 0
0 0 0
0 0 0

0 0 0
0 0 0
0 0 0

0 0 0
0 0 0
0 0 0

0 0 0
0 0 0
0 0 0

0 0 0
0 0 0
0 0 0

0 0 0
0 0 0
0 0 0

0 0 0
0 0 0
0 0 0

0 0 0
0 0 0
0 0 0

0 0 0
0 0 0
0 0 0

0 0 0
0 0 0
0 0 0

0 0 0
0 0 0
0 0 0

0 0 0
0 0 0
0 0 0

0 0 0
0 0 0
0 0 0

0 0 0
0 0 0
0 0 0

0 0 0
0 0 0
0 0 0

0 0 0
0 0 0
0 0 0

0 0 0
0 0 0
0 0 0

0 0 0
0 0 0
0 0 0

0 0 0
0 0 0
0 0 0

0 0 0
0 0 0
0 0 0

0 0 0
0 0 0
0 0 0

0 0 0
0 0 0
0 0 0

0 0 0
0 0 0
0 0 0

0 0 0
0 0 0
0 0 0

0 0 0
0 0 0
0 0 0

0 0 0
0 0 0
0 0 0

0 0 0
0 0 0
0 0 0

0 0 0
0 0 0
0 0 0

0 0 0
0 0 0
0 0 0

0 0 0
0 0 0
0 0 0

0 0 0
0 0 0
0 0 0

0 0 0
0 0 0
0 0 0

0 0 0
0 0 0
0 0 0

0 0 0
0 0 0
0 0 0

0 0 0
0 0 0
0 0 0

0 0 0
0 0 0
0 0 0

0 0 0
0 0 0
0 0 0

0 0 0
0 0 0
0 0 0

0 0 0
0 0 0
0 0 0

0 0 0
0 0 0
0 0 0

0 0 0
0 0 0
0 0 0

0 0 0
0 0 0
0 0 0

0 0 0
0 0 0
0 0 0

0 0 0
0 0 0
0 0 0

0 0 0
0 0 0
0 0 0

0 0 0
0 0 0
0 0 0

0 0 0
0 0 0
0 0 0

0 0 0
0 0 0
0 0 0

0 0 0
0 0 0
0 0 0

0 0 0
0 0 0
0 0 0

0 0 0
0 0 0
0 0 0

0 0 0
0 0 0
0 0 0

0 0 0
0 0 0
0 0 0

0 0 0
0 0 0
0 0 0

0 0 0
0 0 0
0 0 0

0 0 0
0 0 0
0 0 0

0 0 0
0 0 0
0 0 0

0 0 0
0 0 0
0 0 0

0 0 0
0 0 0
0 0 0

0 0 0
0 0 0
0 0 0

0 0 0
0 0 0
0 0 0

0 0 0
0 0 0
0 0 0

0 0 0
0 0 0
0 0 0

0 0 0
0 0 0
0 0 0

0 0 0
0 0 0
0 0 0

0 0 0
0 0 0
0 0 0

0 0 0
0 0 0
0 0 0

0 0 0
0 0 0
0 0 0

0 0 0
0 0 0
0 0 0

0 0 0
0 0 0
0 0 0

0 0 0
0 0 0
0 0 0

0 0 0
0 0 0
0 0 0

0 0 0
0 0 0
0 0 0

0 0 0
0 0 0
0 0 0

0 0 0
0 0 0
0 0 0

0 0 0
0 0 0
0 0 0

0 0 0
0 0 0
0 0 0

0 0 0
0 0 0
0 0 0

0 0 0
0 0 0
0 0 0

0 0 0
0 0 0
0 0 0

0 0 0
0 0 0
0 0 0

0 0 0
0 0 0
0 0 0

0 0 0
0 0 0
0 0 0

0 0 0
0 0 0
0 0 0

0 0 0
0 0 0
0 0 0

0 0 0
0 0 0
0 0 0

0 0 0
0 0 0
0 0 0

0 0 0
0 0 0
0 0 0

0 0 0
0 0 0
0 0 0

0 0 0
0 0 0
0 0 0

0 0 0
0 0 0
0 0 0

0 0 0
0 0 0
0 0 0

0 0 0
0 0 0
0 0 0

0 0 0
0 0 0
0 0 0

0 0 0
0 0 0
0 0 0

0 0 0
0 0 0
0 0 0

0 0 0
0 0 0
0 0 0

0 0 0
0 0 0
0 0 0

0 0 0
0 0 0
0 0 0

0 0 0
0 0 0
0 0 0

0 0 0
0 0 0
0 0 0

0 0 0
0 0 0
0 0 0

0 0 0
0 0 0
0 0 0

0 0 0
0 0 0
0 0 0

0 0 0
0 0 0
0 0 0

0 0 0
0 0 0
0 0 0

0 0 0
0 0 0
0 0 0

0 0 0
0 0 0
0 0 0

0 0 0
0 0 0
0 0 0

0 0 0
0 0 0
0 0 0

0 0 0
0 0 0
0 0 0

0 0 0
0 0 0
0 0 0

0 0 0
0 0 0
0 0 0

0 0 0
0 0 0
0 0 0

0 0 0
0 0 0
0 0 0

0 0 0
0 0 0
0 0 0

0 0 0
0 0 0
0 0 0

0 0 0
0 0 0
0 0 0

0 0 0
0 0 0
0 0 0

0 0 0
0 0 0
0 0 0

0 0 0
0 0 0
0 0 0

0 0 0
0 0 0
0 0 0

0 0 0
0 0 0
0 0 0

0 0 0
0 0 0
0 0 0

0 0 0
0 0 0
0 0 0

0 0 0
0 0 0
0 0 0

0 0 0
0 0 0
0 0 0

0 0 0
0 0 0
0 0 0

0 0 0
0 0 0
0 0 0

0 0 0
0 0 0
0 0 0

0 0 0
0 0 0
0 0 0

0 0 0
0 0 0
0 0 0

0 0 0
0 0 0
0 0 0

0 0 0
0 0 0
0 0 0

0 0 0
0 0 0
0 0 0

0 0 0
0 0 0
0 0 0

0 0 0
0 0 0
0 0 0

0 0 0
0 0 0
0 0 0

0 0 0
0 0 0
0 0 0

0 0 0
0 0 0
0 0 0

0 0 0
0 0 0
0 0 0

0 0 0
0 0 0
0 0 0

0 0 0
0 0 0
0 0 0

0 0 0
0 0 0
0 0 0

0 0 0
0 0 0
0 0 0

0 0 0
0 0 0
0 0 0

0 0 0
0 0 0
0 0 0

0 0 0
0 0 0
0 0 0

0 0 0
0 0 0
0 0 0

0 0 0
0 0 0
0 0 0

0 0 0
0 0 0
0 0 0

0 0 0
0 0 0
0 0 0

0 0 0
0 0 0
0 0 0

0 0 0
0 0 0
0 0 0

0 0 0
0 0 0
0 0 0

0 0 0
0 0 0
0 0 0

0 0 0
0 0 0
0 0 0

0 0 0
0 0 0
0 0 0

0 0 0
0 0 0
0 0 0

0 0 0
0 0 0
0 0 0

0 0 0
0 0 0
0 0 0

0 0 0
0 0 0
0 0 0

0 0 0
0 0 0
0 0 0

0 0 0
0 0 0
0 0 0

0 0 0
0 0 0
0 0 0

0 0 0
0 0 0
0 0 0

0 0 0
0 0 0
0 0 0

0 0 0
0 0 0
0 0 0

0 0 0
0 0 0
0 0 0

0 0 0
0 0 0
0 0 0

0 0 0
0 0 0
0 0 0

0 0 0
0 0 0
0 0 0

0 0 0
0 0 0
0 0 0

0 0 0
0 0 0
0 0 0

0 0 0
0 0 0
0 0 0

0 0 0
0 0 0
0 0 0

0 0 0
0 0 0
0 0 0

0 0 0
0 0 0
0 0 0

0 0 0
0 0 0
0 0 0

0 0 0
0 0 0
0 0 0

0 0 0
0 0 0
0 0 0

0 0 0
0 0 0
0 0 0

0 0 0
0 0 0
0 0 0

0 0 0
0 0 0
0 0 0

0 0 0
0 0 0
0 0 0

0 0 0
0 0 0
0 0 0

0 0 0
0 0 0
0 0 0

0 0 0
0 0 0
0 0 0

0 0 0
0 0 0
0 0 0

0 0 0
0 0 0
0 0 0

0 0 0
0 0 0
0 0 0

0 0 0
0 0 0
0 0 0

0 0 0
0 0 0
0 0 0

0 0 0
0 0 0
0 0 0

0 0 0
0 0 0
0 0 0

0 0 0
0 0 0
0 0 0

0 0 0
0 0 0
0 0 0

0 0 0
0 0 0
0 0 0

0 0 0
0 0 0
0 0 0

0 0 0
0 0 0
0 0 0

0 0 0
0 0 0
0 0 0

0 0 0
0 0 0
0 0 0

TENSORS Lagrange_strain float
0 0 6.93889e-18
0 2.22045e-16 -2.22045e-16
6.93889e-18 -2.22045e-16 2.22045e-16

-1.11022e-16 6.93889e-17 -8.67362e-17
6.93889e-17 0 2.77556e-17
-8.67362e-17 2.77556e-17 0

-1.11022e-16 6.93889e-17 8.67362e-17
6.93889e-17 0 -2.77556e-17
8.67362e-17 -2.77556e-17 0

-4.44089e-16 -1.01481e-16 4.16334e-17
-1.01481e-16 0 -2.31152e-16
4.16334e-17 -2.31152e-16 0

-4.44089e-16 3.29597e-17 -1.38778e-17
3.29597e-17 -2.22045e-16 1.0842e-18
-1.38778e-17 1.0842e-18 0

-2.22045e-16 8.32667e-17 5.72459e-17
8.32667e-17 0 5.55112e-17
5.72459e-17 5.55112e-17 0

-2.22045e-16 8.32667e-17 -5.72459e-17
8.32667e-17 0 -5.55112e-17
-5.72459e-17 -5.55112e-17 0

0 1.56125e-17 2.08167e-16
1.56125e-17 0 1.51788e-18
2.08167e-16 1.51788e-18 0

-2.22045e-16 3.1225e-17 1.11022e-16
3.1225e-17 0 0
1.11022e-16 0 0

0 0 -1.14492e-16
0 0 2.08167e-17
-1.14492e-16 2.08167e-17 0

0 -5.55112e-17 -3.46945e-18
-5.55112e-17 0 -2.15106e-16
-3.46945e-18 -2.15106e-16 2.22045e-16

0 -1.66533e-16 -6.93889e-18
-1.66533e-16 0 2.31112e-33
-6.93889e-18 2.31112e-33 0

2.22045e-16 -1.11022e-16 -3.46945e-18
-1.11022e-16 0 -2.35922e-16
-3.46945e-18 -2.35922e-16 0

2.22045e-16 1.11022e-16 1.11022e-16
1.11022e-16 0 -1.38778e-17
1.11022e-16 -1.38778e-17 2.22045e-16

2.22045e-16 2.77556e-17 1.04083e-17
2.77556e-17 2.22045e-16 -2.08167e-16
1.04083e-17 -2.08167e-16 2.22045e-16

4.44089e-16 8.32667e-17 6.93889e-18
8.32667e-17 0 -1.11022e-16
6.93889e-18 -1.11022e-16 2.22045e-16

0 0 3.46945e-18
0 1.55431e-15 1.80411e-16
3.46945e-18 1.80411e-16 0

-2.22045e-16 -5.55112e-17 -2.25514e-16
-5.55112e-17 -2.22045e-16 6.93889e-17
-2.25514e-16 6.93889e-17 -1.11022e-16

4.44089e-16 -9.83371e-17 1.11022e-16
-9.83371e-17 0 7.80626e-18
1.11022e-16 7.80626e-18 0

-1.11022e-16 0 0
0 2.22045e-16 1.11022e-16
0 1.11022e-16 0

-2.22045e-16 -2.77556e-17 3.46945e-18
-2.77556e-17 0 3.46945e-17
3.46945e-18 3.46945e-17 0

4.44089e-16 8.32667e-17 1.38778e-17
8.32667e-17 0 -2.22045e-16
1.38778e-17 -2.22045e-16 0

0 -6.93889e-18 6.93889e-18
-6.93889e-18 0 -2.08167e-16
6.93889e-18 -2.08167e-16 0

0 0 6.93889e-18
0 0 1.04083e-17
6.93889e-18 1.04083e-17 2.22045e-16

4.44089e-16 2.28983e-16 -2.77556e-17
2.28983e-16 0 -3.85186e-34
-2.77556e-17 -3.85186e-34 2.22045e-16

2.22045e-16 1.11022e-16 -6.93889e-18
1.11022e-16 -1.11022e-16 -4.16334e-17
-6.93889e-18 -4.16334e-17 2.22045e-16

-2.22045e-16 6.93889e-18 9.71445e-17
6.93889e-18 -1.11022e-16 -1.95156e-18
9.71445e-17 -1.95156e-18 0

0 0 2.1684e-16
0 0 3.46945e-18
2.1684e-16 3.46945e-18 0

0 -9.02056e-17 2.498e-16
-9.02056e-17 2.22045e-16 -8.67362e-19
2.498e-16 -8.67362e-19 0

0 0 3.46945e-18
0 2.22045e-16 5.20417e-18
3.46945e-18 5.20417e-18 0

0 1.38778e-17 1.73472e-18
1.38778e-17 0 4.81482e-35
1.73472e-18 4.81482e-35 0

0 1.38778e-17 -1.73472e-18
1.38778e-17 0 -4.81482e-35
-1.73472e-18 -4.81482e-35 0

-1.77636e-15 0 2.77556e-17
0 4.44089e-16 -2.35922e-16
2.77556e-17 -2.35922e-16 2.22045e-16

0 -2.22045e-16 4.996e-16
-2.22045e-16 4.44089e-16 -2.22045e-16
4.996e-16 -2.22045e-16 0

-2.22045e-16 2.08167e-17 -7.63278e-17
2.08167e-17 -2.22045e-16 -2.22045e-16
-7.63278e-17 -2.22045e-16 -1.11022e-16

2.22045e-16 0 -1.249e-16
0 -2.22045e-16 1.38778e-17
-1.249e-16 1.38778e-17 0

0 -1.11022e-16 1.94289e-16
-1.11022e-16 0 8.32667e-17
1.94289e-16 8.32667e-17 0

-6.66134e-16 -5.55112e-17 0
-5.55112e-17 -2.22045e-16 2.91434e-16
0 2.91434e-16 0

-2.22045e-16 0 -6.93889e-17
0 2.22045e-16 -8.67362e-19
-6.93889e-17 -8.67362e-19 2.22045e-16

-1.11022e-16 1.38778e-16 -2.77556e-17
1.38778e-16 0 -1.38778e-17
-2.77556e-17 -1.38778e-17 0

0 0 -4.16334e-17
0 -2.22045e-16 6.93889e-18
-4.16334e-17 6.93889e-18 0

4.44089e-16 -6.93889e-18 1.249e-16
-6.93889e-18 2.22045e-16 2.60209e-18
1.249e-16 2.60209e-18 4.44089e-16

2.22045e-16 -1.38778e-17 -6.93889e-18
-1.38778e-17 0 2.22045e-16
-6.93889e-18 2.22045e-16 0

0 -2.22045e-16 2.01228e-16
-2.22045e-16 0 -2.35922e-16
2.01228e-16 -2.35922e-16 0

2.22045e-16 -2.35922e-16 -1.38778e-17
-2.35922e-16 8.88178e-16 6.93889e-17
-1.38778e-17 6.93889e-17 0

2.22045e-16 2.77556e-17 -2.08167e-17
2.77556e-17 0 -1.249e-16
-2.08167e-17 -1.249e-16 0

-3.33067e-16 0 0
0 -3.33067e-16 0
0 0 0

0 -1.66533e-16 -3.46945e-18
-1.66533e-16 0 5.20417e-18
-3.46945e-18 5.20417e-18 0

0 0 -2.77556e-17
0 -2.22045e-16 -2.08167e-16
-2.77556e-17 -2.08167e-16 2.22045e-16

0 5.55112e-17 3.46945e-18
5.55112e-17 0 2.15106e-16
3.46945e-18 2.15106e-16 0

-1.11022e-16 -8.32667e-17 4.47559e-16
-8.32667e-17 0 3.46945e-18
4.47559e-16 3.46945e-18 0

-1.11022e-16 4.16334e-16 -4.16334e-16
4.16334e-16 0 4.16334e-16
-4.16334e-16 4.16334e-16 0

-1.11022e-16 -4.16334e-16 -4.02456e-16
-4.16334e-16 0 -4.16334e-16
-4.02456e-16 -4.16334e-16 0

-6.66134e-16 -4.16334e-17 -2.35922e-16
-4.16334e-17 0 2.22261e-16
-2.35922e-16 2.22261e-16 0

8.88178e-16 -1.94289e-16 1.249e-16
-1.94289e-16 4.44089e-16 6.93889e-18
1.249e-16 6.93889e-18 2.22045e-16

0 5.55112e-17 6.93889e-17
5.55112e-17 8.88178e-16 6.93889e-18
6.93889e-17 6.93889e-18 4.44089e-16

-1.11022e-16 -1.94289e-16 -2.77556e-17
-1.94289e-16 0 -2.08167e-16
-2.77556e-17 -2.08167e-16 0

0 2.22045e-16 5.55112e-17
2.22045e-16 0 0
5.55112e-17 0 0

0 0 -2.77556e-17
0 0 8.32667e-17
-2.77556e-17 8.32667e-17 0

0 1.38778e-16 -2.77556e-17
1.38778e-16 -5.55112e-16 5.55112e-17
-2.77556e-17 5.55112e-17 0

8.88178e-16 -3.36536e-16 4.71845e-16
-3.36536e-16 0 6.245e-17
4.71845e-16 6.245e-17 0

2.22045e-16 0 -2.77556e-17
0 2.22045e-16 1.04083e-17
-2.77556e-17 1.04083e-17 0

0 2.22045e-16 -6.16298e-32
2.22045e-16 -1.33227e-15 -1.38778e-16
-6.16298e-32 -1.38778e-16 0

0 2.22045e-16 6.16298e-32
2.22045e-16 -1.33227e-15 1.38778e-16
6.16298e-32 1.38778e-16 0

0 0 -4.85723e-17
0 0 1.38778e-17
-4.85723e-17 1.38778e-17 0

0 2.77556e-17 -2.25514e-16
2.77556e-17 -1.11022e-16 -6.93889e-18
-2.25514e-16 -6.93889e-18 2.22045e-16

4.44089e-16 0 -4.44089e-16
0 0 -2.60209e-18
-4.44089e-16 -2.60209e-18 0

-2.22045e-16 9.02056e-17 -2.25514e-17
9.02056e-17 -1.11022e-16 -8.32667e-17
-2.25514e-17 -8.32667e-17 0

0 -1.04083e-16 1.73472e-18
-1.04083e-16 2.22045e-16 -1.11022e-16
1.73472e-18 -1.11022e-16 2.22045e-16

0 1.33227e-15 -1.88738e-15
1.33227e-15 0 -2.95823e-31
-1.88738e-15 -2.95823e-31 0

0 -4.44089e-16 -1.85962e-15
-4.44089e-16 0 1.38778e-17
-1.85962e-15 1.38778e-17 0

0 -5.55112e-17 -3.46945e-17
-5.55112e-17 -2.22045e-16 -9.71445e-17
-3.46945e-17 -9.71445e-17 0

-8.88178e-16 0 -4.16334e-17
0 0 0
-4.16334e-17 0 0

4.44089e-16 -2.22045e-16 2.08167e-16
-2.22045e-16 -2.22045e-16 -2.22045e-16
2.08167e-16 -2.22045e-16 0

0 -1.11022e-16 -2.08167e-16
-1.11022e-16 0 1.38778e-17
-2.08167e-16 1.38778e-17 0

0 8.32667e-17 2.22045e-16
8.32667e-17 -2.22045e-16 1.249e-16
2.22045e-16 1.249e-16 0

0 -6.93889e-18 1.66533e-16
-6.93889e-18 4.44089e-16 -2.22045e-16
1.66533e-16 -2.22045e-16 2.22045e-16

0 2.77556e-17 -3.46945e-17
2.77556e-17 -1.11022e-16 3.46945e-18
-3.46945e-17 3.46945e-18 0

-4.44089e-16 -2.77556e-16 1.11022e-16
-2.77556e-16 0 2.42861e-16
1.11022e-16 2.42861e-16 0

-2.66454e-15 1.66533e-16 3.33067e-16
1.66533e-16 0 4.44089e-16
3.33067e-16 4.44089e-16 0

-1.9984e-15 7.77156e-16 9.15934e-16
7.77156e-16 2.22045e-16 -6.245e-16
9.15934e-16 -6.245e-16 0

-4.44089e-16 1.38778e-17 1.38778e-17
1.38778e-17 -2.22045e-16 3.85186e-34
1.38778e-17 3.85186e-34 0

0 0 -2.22045e-16
0 0 1.38778e-17
-2.22045e-16 1.38778e-17 0

0 1.11022e-16 -9.71445e-17
1.11022e-16 0 -1.73472e-17
-9.71445e-17 -1.73472e-17 0

-1.11022e-16 2.42861e-17 -4.33681e-18
2.42861e-17 1.33227e-15 -8.32667e-17
-4.33681e-18 -8.32667e-17 -2.22045e-16

-1.11022e-16 2.42861e-17 4.33681e-18
2.42861e-17 1.33227e-15 8.32667e-17
4.33681e-18 8.32667e-17 -2.22045e-16

-6.66134e-16 6.52256e-16 -1.11022e-16
6.52256e-16 -1.11022e-16 -2.63678e-16
-1.11022e-16 -2.63678e-16 2.22045e-16

0 4.57967e-16 1.80411e-16
4.57967e-16 0 1.38778e-17
1.80411e-16 1.38778e-17 0

2.22045e-16 -5.55112e-17 2.22045e-16
-5.55112e-17 0 1.38778e-17
2.22045e-16 1.38778e-17 0

4.44089e-16 0 1.94289e-16
0 2.22045e-16 0
1.94289e-16 0 2.22045e-16

0 -1.11022e-16 -7.70372e-34
-1.11022e-16 -2.22045e-16 3.46945e-18
-7.70372e-34 3.46945e-18 0

-1.11022e-16 -2.77556e-17 -9.71445e-17
-2.77556e-17 -2.22045e-16 -6.93889e-18
-9.71445e-17 -6.93889e-18 0

-4.44089e-16 1.11022e-16 -1.38778e-17
1.11022e-16 0 -9.54098e-18
-1.38778e-17 -9.54098e-18 0

-2.22045e-16 2.01228e-16 2.15106e-16
2.01228e-16 0 -4.54498e-16
2.15106e-16 -4.54498e-16 0

8.88178e-16 -3.46945e-18 2.42861e-16
-3.46945e-18 -1.11022e-16 1.04083e-17
2.42861e-16 1.04083e-17 2.22045e-16

6.66134e-16 9.86076e-32 -2.498e-16
9.86076e-32 0 -2.18575e-16
-2.498e-16 -2.18575e-16 0

-4.44089e-16 0 -1.04083e-17
0 -4.44089e-16 2.08167e-16
-1.04083e-17 2.08167e-16 0

0 -8.32667e-17 2.77556e-17
-8.32667e-17 -1.11022e-16 5.89806e-17
2.77556e-17 5.89806e-17 0

0 2.63678e-16 0
2.63678e-16 2.22045e-16 -5.20417e-17
0 -5.20417e-17 2.22045e-16

4.44089e-16 0 2.77556e-17
0 0 6.93889e-18
2.77556e-17 6.93889e-18 2.22045e-16

0 2.22045e-16 1.84889e-32
2.22045e-16 0 2.63678e-16
1.84889e-32 2.63678e-16 0

2.22045e-16 -1.66533e-16 2.08167e-17
-1.66533e-16 0 -6.93889e-18
2.08167e-17 -6.93889e-18 0

-2.22045e-16 -1.11022e-16 1.52656e-16
-1.11022e-16 2.22045e-16 -5.55112e-17
1.52656e-16 -5.55112e-17 2.22045e-16

0 5.55112e-17 -1.38778e-17
5.55112e-17 0 5.55112e-17
-1.38778e-17 5.55112e-17 0

0 2.22045e-16 -4.16334e-17
2.22045e-16 -1.11022e-16 1.14492e-16
-4.16334e-17 1.14492e-16 0

-1.11022e-16 4.05925e-16 8.32667e-17
4.05925e-16 0 -6.93889e-18
8.32667e-17 -6.93889e-18 0

0 -4.44089e-16 -1.38778e-17
-4.44089e-16 -4.44089e-16 4.44089e-16
-1.38778e-17 4.44089e-16 -1.11022e-16

0 4.16334e-17 -4.16334e-17
4.16334e-17 -2.22045e-16 -4.57967e-16
-4.16334e-17 -4.57967e-16 0

0 0 2.498e-16
0 0 0
2.498e-16 0 0

0 4.93038e-32 -2.23779e-16
4.93038e-32 -6.66134e-16 -6.93889e-17
-2.23779e-16 -6.93889e-17 0

0 4.93038e-32 2.23779e-16
4.93038e-32 -6.66134e-16 6.93889e-17
2.23779e-16 6.93889e-17 0

0 -7.80626e-18 -1.17961e-16
-7.80626e-18 4.44089e-16 1.73472e-17
-1.17961e-16 1.73472e-17 0

0 -2.22045e-16 2.77556e-17
-2.22045e-16 2.22045e-16 1.38778e-17
2.77556e-17 1.38778e-17 2.22045e-16

0 0 -1.17961e-16
0 2.22045e-16 -6.93889e-18
-1.17961e-16 -6.93889e-18 0

-4.44089e-16 -1.11022e-16 -4.85723e-17
-1.11022e-16 0 2.08167e-17
-4.85723e-17 2.08167e-17 0

0 6.93889e-17 0
6.93889e-17 -1.11022e-16 1.38778e-16
0 1.38778e-16 2.22045e-16

0 0 -8.32667e-17
0 0 6.93889e-18
-8.32667e-17 6.93889e-18 0

-4.44089e-16 0 2.35922e-16
0 0 -6.93889e-18
2.35922e-16 -6.93889e-18 0

0 0 0
0 4.44089e-16 4.57967e-16
0 4.57967e-16 0

-4.44089e-16 1.66533e-16 5.55112e-17
1.66533e-16 -2.22045e-16 -8.32667e-17
5.55112e-17 -8.32667e-17 0

0 0 3.46945e-18
0 -2.22045e-16 1.04083e-16
3.46945e-18 1.04083e-16 0

0 -1.11022e-16 4.49293e-16
-1.11022e-16 0 9.71445e-17
4.49293e-16 9.71445e-17 0

-2.22045e-16 6.93889e-18 -1.52656e-16
6.93889e-18 -2.22045e-16 1.73472e-18
-1.52656e-16 1.73472e-18 -2.22045e-16

0 -4.16334e-17 5.55112e-17
-4.16334e-17 2.22045e-16 1.38778e-17
5.55112e-17 1.38778e-17 0

2.22045e-16 9.86076e-32 -1.94289e-16
9.86076e-32 2.22045e-16 -2.15106e-16
-1.94289e-16 -2.15106e-16 2.22045e-16

-1.11022e-16 1.9984e-15 -8.89046e-16
1.9984e-15 0 2.77556e-17
-8.89046e-16 2.77556e-17 0

-1.11022e-16 -2.22045e-16 -8.87311e-16
-2.22045e-16 0 4.16334e-16
-8.87311e-16 4.16334e-16 0

0 0 1.38778e-17
0 0 -3.46945e-18
1.38778e-17 -3.46945e-18 0

0 -5.55112e-17 1.94289e-16
-5.55112e-17 0 -1.38778e-17
1.94289e-16 -1.38778e-17 0

-6.66134e-16 -2.22045e-16 0
-2.22045e-16 2.22045e-16 -4.33681e-19
0 -4.33681e-19 2.22045e-16

-1.11022e-16 1.11022e-16 1.07553e-16
1.11022e-16 0 4.16334e-17
1.07553e-16 4.16334e-17 0

0 3.33067e-16 -1.31839e-16
3.33067e-16 -8.88178e-16 -2.498e-16
-1.31839e-16 -2.498e-16 0

0 3.33067e-16 1.31839e-16
3.33067e-16 -8.88178e-16 2.498e-16
1.31839e-16 2.498e-16 0

4.44089e-16 -2.22045e-16 -1.94289e-16
-2.22045e-16 4.44089e-16 -1.2326e-32
-1.94289e-16 -1.2326e-32 4.44089e-16

0 2.22045e-16 -2.77556e-16
2.22045e-16 -2.22045e-16 1.38778e-17
-2.77556e-16 1.38778e-17 2.22045e-16

4.44089e-16 8.32667e-17 1.52656e-16
8.32667e-17 0 -2.08167e-16
1.52656e-16 -2.08167e-16 2.22045e-16

0 -1.73472e-18 -5.55112e-17
-1.73472e-18 0 -7.58942e-19
-5.55112e-17 -7.58942e-19 0

0 0 1.38778e-17
0 2.22045e-16 -2.22045e-16
1.38778e-17 -2.22045e-16 0

0 1.11022e-16 -1.2326e-32
1.11022e-16 0 -2.77556e-17
-1.2326e-32 -2.77556e-17 0

0 -1.11022e-16 -2.35922e-16
-1.11022e-16 0 -2.42861e-16
-2.35922e-16 -2.42861e-16 0

0 2.08167e-17 -6.93889e-18
2.08167e-17 0 -4.85723e-17
-6.93889e-18 -4.85723e-17 2.22045e-16

-4.44089e-16 2.22045e-16 2.46519e-32
2.22045e-16 2.22045e-16 -2.22045e-16
2.46519e-32 -2.22045e-16 0

-1.11022e-16 1.11022e-16 1.19696e-16
1.11022e-16 2.22045e-16 4.30211e-16
1.19696e-16 4.30211e-16 0

-2.22045e-16 2.77556e-16 -1.16226e-16
2.77556e-16 0 -2.08167e-17
-1.16226e-16 -2.08167e-17 0

0 -5.55112e-17 -2.77556e-17
-5.55112e-17 -1.11022e-16 1.249e-16
-2.77556e-17 1.249e-16 0

0 -3.33067e-16 1.38778e-17
-3.33067e-16 -6.66134e-16 2.15106e-16
1.38778e-17 2.15106e-16 0

0 0 -1.73472e-18
0 -2.22045e-16 -2.77556e-17
-1.73472e-18 -2.77556e-17 0

-2.22045e-16 1.38778e-17 2.2031e-16
1.38778e-17 -2.22045e-16 -1.11022e-16
2.2031e-16 -1.11022e-16 0

0 -1.11022e-16 2.22045e-16
-1.11022e-16 0 -1.38778e-17
2.22045e-16 -1.38778e-17 0

0 5.55112e-17 -2.22045e-16
5.55112e-17 0 2.08167e-17
-2.22045e-16 2.08167e-17 2.22045e-16

2.22045e-16 0 -1.38778e-17
0 0 2.18575e-16
-1.38778e-17 2.18575e-16 0

0 0 8.32667e-17
0 -2.22045e-16 0
8.32667e-17 0 0

-1.11022e-16 -1.66533e-16 -2.08167e-17
-1.66533e-16 -6.66134e-16 -1.11022e-16
-2.08167e-17 -1.11022e-16 0

-1.11022e-16 2.77556e-16 2.22045e-16
2.77556e-16 0 -5.55112e-17
2.22045e-16 -5.55112e-17 0

8.88178e-16 -4.16334e-17 4.16334e-16
-4.16334e-17 0 -5.55112e-17
4.16334e-16 -5.55112e-17 0

-1.11022e-16 -5.55112e-17 2.08167e-17
-5.55112e-17 -1.11022e-16 1.73472e-18
2.08167e-17 1.73472e-18 0

2.22045e-16 0 0
0 -4.44089e-16 -4.30211e-16
0 -4.30211e-16 2.22045e-16

0 4.85723e-17 4.30211e-16
4.85723e-17 -1.11022e-16 -6.93889e-18
4.30211e-16 -6.93889e-18 0

0 -5.55112e-17 -4.30211e-16
-5.55112e-17 0 -9.02056e-17
-4.30211e-16 -9.02056e-17 0

-3.33067e-16 1.38778e-17 -1.66533e-16
1.38778e-17 0 0
-1.66533e-16 0 2.22045e-16

8.88178e-16 -4.16334e-17 3.60822e-16
-4.16334e-17 0 -4.16334e-17
3.60822e-16 -4.16334e-17 0

0 1.11022e-16 -1.73472e-18
1.11022e-16 -3.33067e-16 4.23273e-16
-1.73472e-18 4.23273e-16 0

2.22045e-16 -2.77556e-17 2.08167e-16
-2.77556e-17 0 0
2.08167e-16 0 0

0 2.77556e-16 -1.14492e-16
2.77556e-16 4.44089e-16 -2.77556e-17
-1.14492e-16 -2.77556e-17 2.22045e-16

-1.33227e-15 0 4.996e-16
0 2.22045e-16 -2.77556e-17
4.996e-16 -2.77556e-17 0

0 3.9443e-31 -4.996e-16
3.9443e-31 -6.66134e-16 -4.02456e-16
-4.996e-16 -4.02456e-16 0

6.66134e-16 0 2.77556e-17
0 0 6.93889e-18
2.77556e-17 6.93889e-18 0

0 2.77556e-17 6.93889e-18
2.77556e-17 2.22045e-16 1.73472e-18
6.93889e-18 1.73472e-18 0

4.44089e-16 -2.42861e-17 -5.55112e-17
-2.42861e-17 4.44089e-16 1.09938e-16
-5.55112e-17 1.09938e-16 2.22045e-16

2.22045e-16 -4.16334e-17 -2.22045e-16
-4.16334e-17 0 2.35922e-16
-2.22045e-16 2.35922e-16 0

0 1.11022e-16 -5.20417e-18
1.11022e-16 6.66134e-16 1.38778e-16
-5.20417e-18 1.38778e-16 0

0 2.77556e-17 -1.11022e-16
2.77556e-17 0 3.46945e-17
-1.11022e-16 3.46945e-17 0

-2.22045e-16 1.11022e-16 -2.77556e-17
1.11022e-16 -6.66134e-16 2.498e-16
-2.77556e-17 2.498e-16 0

8.88178e-16 5.55112e-17 1.38778e-17
5.55112e-17 0 -1.38778e-17
1.38778e-17 -1.38778e-17 0

4.44089e-16 -2.22045e-16 -9.71445e-17
-2.22045e-16 -2.22045e-16 2.08167e-16
-9.71445e-17 2.08167e-16 0

0 -3.53884e-16 -3.46945e-18
-3.53884e-16 -1.11022e-16 5.55112e-17
-3.46945e-18 5.55112e-17 0

0 -3.53884e-16 3.46945e-18
-3.53884e-16 -1.11022e-16 -5.55112e-17
3.46945e-18 -5.55112e-17 0

-2.22045e-16 0 3.46945e-17
0 -5.55112e-16 0
3.46945e-17 0 2.22045e-16

0 -2.77556e-16 4.85723e-17
-2.77556e-16 -2.22045e-16 1.80411e-16
4.85723e-17 1.80411e-16 2.22045e-16

0 -9.86076e-32 2.15106e-16
-9.86076e-32 0 -2.28983e-16
2.15106e-16 -2.28983e-16 0

0 2.22045e-16 -1.38778e-16
2.22045e-16 6.66134e-16 1.52656e-16
-1.38778e-16 1.52656e-16 0

0 -2.77556e-17 1.73472e-17
-2.77556e-17 -2.22045e-16 -2.22045e-16
1.73472e-17 -2.22045e-16 0

-1.11022e-16 0 3.46945e-18
0 2.22045e-16 0
3.46945e-18 0 0

0 2.22045e-16 -1.38778e-17
2.22045e-16 0 1.66533e-16
-1.38778e-17 1.66533e-16 0

-1.11022e-16 0 0
0 0 2.22045e-16
0 2.22045e-16 0

0 0 -1.38778e-17
0 0 1.38778e-17
-1.38778e-17 1.38778e-17 2.22045e-16

-2.22045e-16 9.71445e-17 4.59702e-16
9.71445e-17 0 -4.4062e-16
4.59702e-16 -4.4062e-16 0

0 1.38778e-17 6.93889e-18
1.38778e-17 0 0
6.93889e-18 0 0

2.22045e-16 -2.498e-16 -1.38778e-17
-2.498e-16 4.44089e-16 -1.52656e-16
-1.38778e-17 -1.52656e-16 0

0 -9.66024e-17 8.32667e-17
-9.66024e-17 -1.11022e-16 4.11997e-18
8.32667e-17 4.11997e-18 0

3.10862e-15 1.11022e-15 9.15934e-16
1.11022e-15 1.77636e-15 9.02056e-16
9.15934e-16 9.02056e-16 4.44089e-16

-2.66454e-15 -2.22045e-16 0
-2.22045e-16 0 -8.88178e-16
0 -8.88178e-16 0

0 2.77556e-17 2.63678e-16
2.77556e-17 0 4.16334e-17
2.63678e-16 4.16334e-17 0

0 -4.44089e-16 4.996e-16
-4.44089e-16 0 -1.38778e-17
4.996e-16 -1.38778e-17 0

0 -2.22045e-16 4.44089e-16
-2.22045e-16 0 0
4.44089e-16 0 0

0 -3.20924e-16 4.21297e-35
-3.20924e-16 -1.11022e-16 1.73472e-18
4.21297e-35 1.73472e-18 0

4.44089e-16 -2.22045e-16 -1.38778e-17
-2.22045e-16 2.22045e-16 1.38778e-17
-1.38778e-17 1.38778e-17 2.22045e-16

0 -1.00614e-16 1.59595e-16
-1.00614e-16 0 -5.20417e-18
1.59595e-16 -5.20417e-18 0

-1.11022e-16 -1.05818e-16 5.20417e-18
-1.05818e-16 0 3.46945e-17
5.20417e-18 3.46945e-17 0

0 1.38778e-17 -7.80626e-17
1.38778e-17 -2.22045e-16 1.38778e-17
-7.80626e-17 1.38778e-17 0

-2.22045e-16 -9.02056e-17 -2.42861e-17
-9.02056e-17 -2.22045e-16 -4.44089e-16
-2.42861e-17 -4.44089e-16 2.22045e-16

2.22045e-16 1.11022e-16 -4.57967e-16
1.11022e-16 -1.11022e-16 2.25514e-17
-4.57967e-16 2.25514e-17 0

0 -4.93038e-32 1.249e-16
-4.93038e-32 2.22045e-16 -1.94289e-16
1.249e-16 -1.94289e-16 0

0 -8.32667e-17 2.22045e-16
-8.32667e-17 0 -1.38778e-17
2.22045e-16 -1.38778e-17 0

4.44089e-16 0 -1.73472e-17
0 0 4.45824e-16
-1.73472e-17 4.45824e-16 0

0 0 1.73472e-18
0 -1.77636e-15 5.55112e-17
1.73472e-18 5.55112e-17 2.22045e-16

0 0 -1.73472e-18
0 -1.77636e-15 -5.55112e-17
-1.73472e-18 -5.55112e-17 2.22045e-16

0 -3.88578e-16 -1.38778e-17
-3.88578e-16 -3.33067e-16 2.08167e-17
-1.38778e-17 2.08167e-17 0

-4.44089e-16 -2.08167e-17 1.66533e-16
-2.08167e-17 0 1.73472e-18
1.66533e-16 1.73472e-18 2.22045e-16

2.22045e-16 -5.55112e-17 -1.38778e-17
-5.55112e-17 8.88178e-16 2.22045e-16
-1.38778e-17 2.22045e-16 4.44089e-16

0 5.55112e-17 6.93889e-18
5.55112e-17 4.44089e-16 1.73472e-16
6.93889e-18 1.73472e-16 0

-4.44089e-16 -2.2031e-16 2.498e-16
-2.2031e-16 0 1.0842e-18
2.498e-16 1.0842e-18 0

2.22045e-16 0 6.93889e-18
0 4.44089e-16 4.16334e-17
6.93889e-18 4.16334e-17 2.22045e-16

0 1.11022e-16 -4.16334e-16
1.11022e-16 0 -4.16334e-17
-4.16334e-16 -4.16334e-17 0

0 2.22045e-16 1.38778e-17
2.22045e-16 0 2.77556e-17
1.38778e-17 2.77556e-17 2.22045e-16

0 4.16334e-17 -2.77556e-17
4.16334e-17 0 -2.77556e-17
-2.77556e-17 -2.77556e-17 2.22045e-16

2.22045e-16 0 2.08167e-17
0 4.44089e-16 2.77556e-17
2.08167e-17 2.77556e-17 2.22045e-16

-8.88178e-16 -1.11022e-16 2.35922e-16
-1.11022e-16 -1.11022e-16 -2.28983e-16
2.35922e-16 -2.28983e-16 0

0 0 -2.22045e-16
0 0 -2.08167e-17
-2.22045e-16 -2.08167e-17 0

0 1.94289e-16 4.16334e-17
1.94289e-16 -2.22045e-16 -1.94289e-16
4.16334e-17 -1.94289e-16 0

0 1.11022e-16 4.4062e-16
1.11022e-16 2.22045e-16 -1.73472e-18
4.4062e-16 -1.73472e-18 2.22045e-16

0 0 -3.46945e-18
0 -6.66134e-16 0
-3.46945e-18 0 0

2.22045e-16 0 -3.46945e-18
0 0 0
-3.46945e-18 0 2.22045e-16

0 -2.22045e-16 1.10372e-16
-2.22045e-16 0 1.44445e-34
1.10372e-16 1.44445e-34 0

0 -2.22045e-16 -1.10372e-16
-2.22045e-16 0 -1.44445e-34
-1.10372e-16 -1.44445e-34 0

4.44089e-16 0 -1.38778e-17
0 -2.22045e-16 3.46945e-18
-1.38778e-17 3.46945e-18 0

0 0 5.55112e-17
0 0 1.73472e-17
5.55112e-17 1.73472e-17 0

0 -3.33067e-16 5.55112e-17
-3.33067e-16 -2.22045e-16 -2.22045e-16
5.55112e-17 -2.22045e-16 0

0 2.22045e-16 4.71845e-16
2.22045e-16 0 1.38778e-17
4.71845e-16 1.38778e-17 0

0 -3.60822e-16 2.77556e-17
-3.60822e-16 -2.22045e-16 2.77556e-17
2.77556e-17 2.77556e-17 0

-8.88178e-16 -2.77556e-17 4.44089e-16
-2.77556e-17 2.22045e-16 -1.38778e-17
4.44089e-16 -1.38778e-17 0

1.33227e-15 1.11022e-16 -3.60822e-16
1.11022e-16 1.77636e-15 2.77556e-17
-3.60822e-16 2.77556e-17 0

3.10862e-15 1.66533e-15 -3.88578e-16
1.66533e-15 0 -2.77556e-17
-3.88578e-16 -2.77556e-17 0

-2.22045e-16 1.11022e-16 1.38778e-17
1.11022e-16 4.44089e-16 0
1.38778e-17 0 0

0 1.97215e-31 2.35922e-16
1.97215e-31 4.44089e-16 4.30211e-16
2.35922e-16 4.30211e-16 0

2.22045e-16 5.55112e-17 4.16334e-16
5.55112e-17 4.44089e-16 1.59595e-16
4.16334e-16 1.59595e-16 2.22045e-16

2.22045e-16 -2.77556e-17 -9.36751e-17
-2.77556e-17 -4.44089e-16 4.44089e-16
-9.36751e-17 4.44089e-16 0

-1.11022e-16 -1.66533e-16 5.20417e-17
-1.66533e-16 0 -4.30211e-16
5.20417e-17 -4.30211e-16 0

0 8.32667e-17 2.22045e-16
8.32667e-17 0 2.08167e-17
2.22045e-16 2.08167e-17 0

0 -2.77556e-17 4.16334e-17
-2.77556e-17 0 1.59595e-16
4.16334e-17 1.59595e-16 4.44089e-16

0 -1.11022e-16 4.16334e-17
-1.11022e-16 0 -2.77556e-17
4.16334e-17 -2.77556e-17 0

-1.11022e-16 0 1.38778e-17
0 0 0
1.38778e-17 0 0

0 2.22045e-16 -1.38778e-17
2.22045e-16 0 -4.16334e-17
-1.38778e-17 -4.16334e-17 0

-2.22045e-16 -2.22045e-16 4.16334e-17
-2.22045e-16 4.44089e-16 -1.38778e-17
4.16334e-17 -1.38778e-17 0

4.44089e-16 5.55112e-17 -2.22045e-16
5.55112e-17 2.22045e-16 2.77556e-17
-2.22045e-16 2.77556e-17 2.22045e-16

0 -1.11022e-16 -4.16334e-17
-1.11022e-16 -2.22045e-16 9.24446e-33
-4.16334e-17 9.24446e-33 0

0 1.97215e-31 2.25514e-16
1.97215e-31 0 2.77556e-16
2.25514e-16 2.77556e-16 0

0 -2.77556e-16 -2.22045e-16
-2.77556e-16 0 -3.33067e-16
-2.22045e-16 -3.33067e-16 0

-2.22045e-16 0 2.22045e-16
0 0 5.55112e-17
2.22045e-16 5.55112e-17 2.22045e-16

-4.44089e-16 1.38778e-17 -1.11022e-16
1.38778e-17 -2.22045e-16 -4.57967e-16
-1.11022e-16 -4.57967e-16 0

-6.66134e-16 4.44089e-16 2.35922e-16
4.44089e-16 0 4.16334e-17
2.35922e-16 4.16334e-17 0

0 2.08167e-17 -4.16334e-17
2.08167e-17 0 4.33681e-16
-4.16334e-17 4.33681e-16 0

-1.11022e-16 -8.67362e-17 -4.61436e-16
-8.67362e-17 0 -6.245e-17
-4.61436e-16 -6.245e-17 0

2.22045e-16 2.35922e-16 2.63678e-16
2.35922e-16 0 4.57967e-16
2.63678e-16 4.57967e-16 2.22045e-16

-2.22045e-16 4.71845e-16 -2.22045e-16
4.71845e-16 -4.44089e-16 1.04083e-17
-2.22045e-16 1.04083e-17 0

0 -9.86076e-32 2.35922e-16
-9.86076e-32 -2.22045e-16 -2.08167e-16
2.35922e-16 -2.08167e-16 0

-1.11022e-16 -1.61329e-16 -1.70003e-16
-1.61329e-16 0 -4.16334e-17
-1.70003e-16 -4.16334e-17 0

-2.22045e-16 -4.85723e-17 -2.08167e-16
-4.85723e-17 0 0
-2.08167e-16 0 0

-1.11022e-16 -2.77556e-17 -1.94289e-16
-2.77556e-17 8.88178e-16 -4.02456e-16
-1.94289e-16 -4.02456e-16 0

0 1.94289e-16 0
1.94289e-16 -4.44089e-16 -1.38778e-17
0 -1.38778e-17 0

0 3.68924e-16 8.32667e-17
3.68924e-16 0 4.01819e-16
8.32667e-17 4.01819e-16 0

-1.77636e-15 -2.49217e-16 5.55112e-17
-2.49217e-16 -1.55431e-15 1.1565e-16
5.55112e-17 1.1565e-16 0

0 0 9.02056e-17
0 4.44089e-16 2.77556e-17
9.02056e-17 2.77556e-17 0

0 1.94289e-16 -2.77556e-17
1.94289e-16 2.22045e-16 -5.55112e-17
-2.77556e-17 -5.55112e-17 2.22045e-16

-6.66134e-16 -1.80411e-16 -1.249e-16
-1.80411e-16 0 -4.3715e-16
-1.249e-16 -4.3715e-16 0

6.66134e-16 -1.70003e-16 1.11022e-16
-1.70003e-16 0 0
1.11022e-16 0 0

-1.11022e-16 1.11022e-16 -2.01228e-16
1.11022e-16 -2.22045e-16 2.08167e-16
-2.01228e-16 2.08167e-16 0

-2.22045e-16 5.55112e-16 3.46945e-17
5.55112e-16 -3.33067e-16 -2.77556e-16
3.46945e-17 -2.77556e-16 0

0 0 -4.44089e-16
0 0 3.46945e-18
-4.44089e-16 3.46945e-18 0

-8.88178e-16 0 -1.38778e-17
0 2.22045e-16 -1.38778e-16
-1.38778e-17 -1.38778e-16 0

0 3.88578e-16 -1.38778e-17
3.88578e-16 -1.11022e-16 1.38778e-17
-1.38778e-17 1.38778e-17 0

2.22045e-16 1.66533e-16 7.63278e-17
1.66533e-16 0 0
7.63278e-17 0 0

0 2.08167e-17 -1.38778e-16
2.08167e-17 0 -6.93889e-18
-1.38778e-16 -6.93889e-18 0

-1.11022e-16 2.77556e-17 -5.55112e-17
2.77556e-17 0 -1.38778e-17
-5.55112e-17 -1.38778e-17 0

0 4.996e-16 2.77556e-17
4.996e-16 0 4.16334e-17
2.77556e-17 4.16334e-17 0

0 2.22045e-16 -2.77556e-17
2.22045e-16 0 -4.16334e-16
-2.77556e-17 -4.16334e-16 2.22045e-16

8.88178e-16 0 -2.63678e-16
0 0 -6.93889e-18
-2.63678e-16 -6.93889e-18 2.22045e-16

8.88178e-16 2.77556e-17 2.77556e-16
2.77556e-17 4.44089e-16 -1.38778e-17
2.77556e-16 -1.38778e-17 0

0 1.94289e-16 8.32667e-17
1.94289e-16 0 -1.38778e-17
8.32667e-17 -1.38778e-17 0

-2.22045e-16 1.38778e-17 4.33681e-19
1.38778e-17 8.88178e-16 -8.32667e-17
4.33681e-19 -8.32667e-17 -2.22045e-16

-1.11022e-16 9.64506e-16 -4.45824e-16
9.64506e-16 0 8.32667e-17
-4.45824e-16 8.32667e-17 0

0 8.32667e-17 4.44089e-16
8.32667e-17 0 -3.46945e-18
4.44089e-16 -3.46945e-18 0

0 0 0
0 0 4.44089e-16
0 4.44089e-16 0

4.44089e-16 0 4.16334e-17
0 0 -1.38778e-17
4.16334e-17 -1.38778e-17 2.22045e-16

4.44089e-16 3.33067e-16 -2.77556e-17
3.33067e-16 0 -1.38778e-17
-2.77556e-17 -1.38778e-17 0

0 1.38778e-17 3.46945e-17
1.38778e-17 -3.33067e-16 -1.11022e-16
3.46945e-17 -1.11022e-16 2.22045e-16

0 -5.55112e-17 -3.46945e-18
-5.55112e-17 4.44089e-16 -2.15106e-16
-3.46945e-18 -2.15106e-16 2.22045e-16

0 2.77556e-17 3.85186e-34
2.77556e-17 0 -6.93889e-18
3.85186e-34 -6.93889e-18 2.22045e-16

-3.55271e-15 6.66134e-16 -5.55112e-16
6.66134e-16 0 -8.32667e-16
-5.55112e-16 -8.32667e-16 0

-1.77636e-15 0 5.55112e-17
0 -8.88178e-16 0
5.55112e-17 0 0

0 -2.77556e-17 -1.38778e-17
-2.77556e-17 0 1.52656e-16
-1.38778e-17 1.52656e-16 0

0 5.55112e-17 1.38778e-17
5.55112e-17 0 2.77556e-17
1.38778e-17 2.77556e-17 2.22045e-16

0 -2.22045e-16 4.16334e-17
-2.22045e-16 -4.44089e-16 -2.77556e-17
4.16334e-17 -2.77556e-17 0

-2.22045e-16 -4.44089e-16 -1.38778e-17
-4.44089e-16 -4.44089e-16 -2.35922e-16
-1.38778e-17 -2.35922e-16 0

0 -2.77556e-17 -1.54074e-33
-2.77556e-17 -2.22045e-16 -4.16334e-16
-1.54074e-33 -4.16334e-16 0

0 -5.55112e-17 5.55112e-17
-5.55112e-17 4.44089e-16 2.77556e-17
5.55112e-17 2.77556e-17 2.22045e-16

-2.22045e-16 -5.55112e-17 -2.31112e-33
-5.55112e-17 0 2.42861e-16
-2.31112e-33 2.42861e-16 0

-2.22045e-16 -5.55112e-17 2.22045e-16
-5.55112e-17 0 0
2.22045e-16 0 0

4.44089e-16 -2.77556e-17 -9.62965e-35
-2.77556e-17 0 1.73472e-18
-9.62965e-35 1.73472e-18 2.22045e-16

0 0 4.16334e-17
0 0 -5.55112e-17
4.16334e-17 -5.55112e-17 2.22045e-16

0 2.77556e-17 2.22045e-16
2.77556e-17 -1.11022e-16 -4.57967e-16
2.22045e-16 -4.57967e-16 0

0 -1.80411e-16 1.73472e-17
-1.80411e-16 0 4.44089e-16
1.73472e-17 4.44089e-16 0

0 1.11022e-16 2.77556e-17
1.11022e-16 0 1.38778e-17
2.77556e-17 1.38778e-17 2.22045e-16

0 -3.33067e-16 -4.16334e-17
-3.33067e-16 0 -4.16334e-16
-4.16334e-17 -4.16334e-16 2.22045e-16

4.44089e-16 2.95823e-31 -4.57967e-16
2.95823e-31 0 -2.498e-16
-4.57967e-16 -2.498e-16 0

-8.88178e-16 0 -1.38778e-17
0 0 2.498e-16
-1.38778e-17 2.498e-16 0

0 5.55112e-17 7.70372e-34
5.55112e-17 2.22045e-16 6.93889e-18
7.70372e-34 6.93889e-18 0

0 7.63278e-17 4.33681e-16
7.63278e-17 -1.11022e-16 -1.66533e-16
4.33681e-16 -1.66533e-16 0

0 -5.55112e-16 -2.77556e-17
-5.55112e-16 -6.66134e-16 -2.77556e-17
-2.77556e-17 -2.77556e-17 0

0 2.22045e-16 -4.30211e-16
2.22045e-16 2.22045e-16 -5.55112e-17
-4.30211e-16 -5.55112e-17 0

0 -8.75602e-16 2.1684e-19
-8.75602e-16 -2.22045e-16 -8.32667e-17
2.1684e-19 -8.32667e-17 0

0 -8.75602e-16 -2.1684e-19
-8.75602e-16 -2.22045e-16 8.32667e-17
-2.1684e-19 8.32667e-17 0

0 -3.05311e-16 -4.44089e-16
-3.05311e-16 0 -3.46945e-16
-4.44089e-16 -3.46945e-16 2.22045e-16

-4.44089e-16 -2.77556e-17 -1.38778e-17
-2.77556e-17 -2.22045e-16 1.11022e-16
-1.38778e-17 1.11022e-16 2.22045e-16

0 0 4.02456e-16
0 -8.88178e-16 2.08167e-17
4.02456e-16 2.08167e-17 0

0 0 -4.16334e-17
0 -4.44089e-16 2.15106e-16
-4.16334e-17 2.15106e-16 0

-2.22045e-16 0 -1.80411e-16
0 0 0
-1.80411e-16 0 0

0 0 -2.498e-16
0 0 0
-2.498e-16 0 0

0 5.55112e-17 0
5.55112e-17 0 5.55112e-17
0 5.55112e-17 0

0 0 2.77556e-17
0 0 2.77556e-17
2.77556e-17 2.77556e-17 0

0 0 -9.15934e-16
0 0 -2.77556e-17
-9.15934e-16 -2.77556e-17 0

0 0 2.77556e-17
0 0 5.55112e-17
2.77556e-17 5.55112e-17 2.22045e-16

0 -8.88178e-16 -9.4369e-16
-8.88178e-16 0 1.38778e-17
-9.4369e-16 1.38778e-17 2.22045e-16

0 5.55112e-17 0
5.55112e-17 0 -5.55112e-17
0 -5.55112e-17 0

0 0 -2.498e-16
0 0 0
-2.498e-16 0 0

4.44089e-16 -4.44089e-16 1.66533e-16
-4.44089e-16 0 4.93038e-32
1.66533e-16 4.93038e-32 0

0 -1.77636e-15 1.80411e-15
-1.77636e-15 0 0
1.80411e-15 0 0

-2.13163e-14 1.33227e-15 3.52496e-15
1.33227e-15 4.44089e-16 2.19269e-15
3.52496e-15 2.19269e-15 0

-1.42109e-14 -1.33227e-15 3.58047e-15
-1.33227e-15 4.44089e-16 -2.19269e-15
3.58047e-15 -2.19269e-15 0

0 3.55271e-15 1.80411e-15
3.55271e-15 0 9.86076e-32
1.80411e-15 9.86076e-32 0

0 0 2.77556e-17
0 0 4.71845e-16
2.77556e-17 4.71845e-16 0

1.77636e-15 -4.44089e-16 4.71845e-16
-4.44089e-16 2.22045e-16 4.16334e-17
4.71845e-16 4.16334e-17 0

-8.88178e-16 -8.88178e-16 0
-8.88178e-16 -1.77636e-15 -2.77556e-17
0 -2.77556e-17 0

0 0 4.16334e-17
0 0 -4.57967e-16
4.16334e-17 -4.57967e-16 0

0 5.55112e-16 -4.71845e-16
5.55112e-16 -1.77636e-15 2.77556e-17
-4.71845e-16 2.77556e-17 0

8.88178e-16 4.44089e-16 4.44089e-16
4.44089e-16 6.66134e-16 2.22045e-16
4.44089e-16 2.22045e-16 0

4.44089e-16 5.55112e-16 -6.93889e-17
5.55112e-16 -1.11022e-16 -2.22045e-16
-6.93889e-17 -2.22045e-16 0

0 4.44089e-16 -2.77556e-17
4.44089e-16 4.44089e-16 -5.55112e-17
-2.77556e-17 -5.55112e-17 0

-1.33227e-15 -5.55112e-16 2.77556e-17
-5.55112e-16 -1.11022e-16 2.498e-16
2.77556e-17 2.498e-16 0

0 -4.44089e-16 -4.44089e-16
-4.44089e-16 -1.11022e-16 -1.94289e-16
-4.44089e-16 -1.94289e-16 0

2.22045e-16 -8.32667e-17 -5.55112e-17
-8.32667e-17 0 5.55112e-17
-5.55112e-17 5.55112e-17 0

4.44089e-16 5.55112e-17 -1.84889e-32
5.55112e-17 0 -1.66533e-16
-1.84889e-32 -1.66533e-16 0

2.22045e-16 -1.11022e-16 2.77556e-17
-1.11022e-16 0 2.498e-16
2.77556e-17 2.498e-16 0

0 -1.11022e-16 -2.22045e-16
-1.11022e-16 1.55431e-15 -8.32667e-17
-2.22045e-16 -8.32667e-17 2.22045e-16

0 2.77556e-17 1.66533e-16
2.77556e-17 -4.44089e-16 -2.35922e-16
1.66533e-16 -2.35922e-16 0

-7.77156e-16 -1.66533e-16 -1.11022e-16
-1.66533e-16 0 -5.55112e-17
-1.11022e-16 -5.55112e-17 0

0 0 0
0 0 2.498e-16
0 2.498e-16 0

-5.55112e-16 -2.77556e-17 8.32667e-17
-2.77556e-17 0 -5.55112e-17
8.32667e-17 -5.55112e-17 0

6.66134e-16 0 2.77556e-17
0 0 -2.22045e-16
2.77556e-17 -2.22045e-16 2.22045e-16

2.22045e-16 -4.44089e-16 -1.11022e-16
-4.44089e-16 -4.44089e-16 0
-1.11022e-16 0 2.22045e-16

-2.22045e-16 3.33067e-16 5.55112e-17
3.33067e-16 -4.44089e-16 2.498e-16
5.55112e-17 2.498e-16 0

-8.88178e-16 1.33227e-15 2.77556e-17
1.33227e-15 -8.88178e-16 -1.66533e-16
2.77556e-17 -1.66533e-16 -2.22045e-16

6.66134e-16 0 1.94289e-16
0 2.22045e-16 -2.77556e-17
1.94289e-16 -2.77556e-17 0

0 0 0
0 8.88178e-16 2.77556e-17
0 2.77556e-17 2.22045e-16

8.88178e-16 0 -1.94289e-16
0 0 1.11022e-16
-1.94289e-16 1.11022e-16 2.22045e-16

-4.44089e-16 -6.66134e-16 -1.11022e-16
-6.66134e-16 -6.66134e-16 -3.05311e-16
-1.11022e-16 -3.05311e-16 0

-1.11022e-16 -8.60423e-16 2.77556e-17
-8.60423e-16 0 5.55112e-17
2.77556e-17 5.55112e-17 0

0 -3.33067e-16 -2.22045e-16
-3.33067e-16 -2.22045e-16 -1.66533e-16
-2.22045e-16 -1.66533e-16 0

0 -5.55112e-16 1.52656e-16
-5.55112e-16 0 -1.66533e-16
1.52656e-16 -1.66533e-16 0

-4.44089e-16 0 6.93889e-17
0 -8.88178e-16 5.55112e-17
6.93889e-17 5.55112e-17 -2.22045e-16

0 -4.44089e-16 -1.2326e-31
-4.44089e-16 0 3.60822e-16
-1.2326e-31 3.60822e-16 0

0 -1.33227e-15 5.91646e-31
-1.33227e-15 0 -3.33067e-16
5.91646e-31 -3.33067e-16 0

0 0 5.55112e-17
0 0 -3.33067e-16
5.55112e-17 -3.33067e-16 4.44089e-16

-8.88178e-16 0 -2.77556e-17
0 0 5.55112e-17
-2.77556e-17 5.55112e-17 0

-8.88178e-16 0 -5.55112e-17
0 8.88178e-16 -2.77556e-17
-5.55112e-17 -2.77556e-17 0

0 4.44089e-16 -3.33067e-16
4.44089e-16 2.22045e-16 -2.498e-16
-3.33067e-16 -2.498e-16 2.22045e-16

4.44089e-16 2.22045e-16 -1.11022e-16
2.22045e-16 1.77636e-15 3.33067e-16
-1.11022e-16 3.33067e-16 2.22045e-16

0 0 -1.66533e-16
0 8.88178e-16 3.33067e-16
-1.66533e-16 3.33067e-16 -1.11022e-16

-3.55271e-15 8.88178e-16 2.77556e-16
8.88178e-16 1.77636e-15 -8.32667e-17
2.77556e-16 -8.32667e-17 2.22045e-16

0 -8.88178e-16 -8.32667e-17
-8.88178e-16 -4.44089e-16 3.88578e-16
-8.32667e-17 3.88578e-16 0

-7.77156e-16 -5.55112e-17 -1.11022e-16
-5.55112e-17 -4.44089e-16 3.05311e-16
-1.11022e-16 3.05311e-16 0

-8.88178e-16 1.11022e-16 2.77556e-16
1.11022e-16 0 -1.66533e-16
2.77556e-16 -1.66533e-16 2.22045e-16

0 -1.11022e-16 -5.55112e-17
-1.11022e-16 1.55431e-15 5.55112e-17
-5.55112e-17 5.55112e-17 0

0 6.66134e-16 -2.22045e-16
6.66134e-16 2.22045e-16 1.66533e-16
-2.22045e-16 1.66533e-16 0

0 8.88178e-16 -1.11022e-16
8.88178e-16 0 1.11022e-16
-1.11022e-16 1.11022e-16 0

-6.66134e-16 -5.55112e-17 2.77556e-17
-5.55112e-17 -1.77636e-15 3.9443e-31
2.77556e-17 3.9443e-31 0

8.88178e-16 3.88578e-16 -2.498e-16
3.88578e-16 -8.88178e-16 -1.94289e-16
-2.498e-16 -1.94289e-16 2.22045e-16

-4.44089e-16 -8.88178e-16 1.94289e-16
-8.88178e-16 0 -8.32667e-17
1.94289e-16 -8.32667e-17 0

-6.66134e-16 6.66134e-16 -8.32667e-17
6.66134e-16 -1.77636e-15 5.55112e-17
-8.32667e-17 5.55112e-17 0

0 4.44089e-16 8.32667e-17
4.44089e-16 0 5.55112e-17
8.32667e-17 5.55112e-17 0

4.44089e-16 1.11022e-16 3.05311e-16
1.11022e-16 4.44089e-16 1.38778e-16
3.05311e-16 1.38778e-16 0

0 0 -1.94289e-16
0 -1.77636e-15 1.66533e-16
-1.94289e-16 1.66533e-16 0

0 5.55112e-17 -1.38778e-17
5.55112e-17 1.9984e-15 5.55112e-17
-1.38778e-17 5.55112e-17 0

-2.22045e-16 -1.66533e-16 1.38778e-17
-1.66533e-16 4.44089e-16 1.11022e-16
1.38778e-17 1.11022e-16 0

-4.44089e-16 -6.66134e-16 -1.94289e-16
-6.66134e-16 4.44089e-16 -2.77556e-16
-1.94289e-16 -2.77556e-16 0

0 -2.77556e-17 -2.63678e-16
-2.77556e-17 0 2.498e-16
-2.63678e-16 2.498e-16 0

0 4.44089e-16 -2.498e-16
4.44089e-16 0 3.33067e-16
-2.498e-16 3.33067e-16 0

0 -4.44089e-16 2.77556e-17
-4.44089e-16 0 -2.77556e-16
2.77556e-17 -2.77556e-16 0

4.44089e-16 1.9984e-15 -5.55112e-17
1.9984e-15 8.88178e-16 1.11022e-16
-5.55112e-17 1.11022e-16 0

0 3.33067e-16 -2.77556e-17
3.33067e-16 -4.44089e-16 1.66533e-16
-2.77556e-17 1.66533e-16 2.22045e-16

4.44089e-16 4.44089e-16 1.94289e-16
4.44089e-16 1.77636e-15 -2.22045e-16
1.94289e-16 -2.22045e-16 0

0 -6.66134e-16 8.32667e-17
-6.66134e-16 -1.77636e-15 1.66533e-16
8.32667e-17 1.66533e-16 0

1.55431e-15 4.44089e-16 2.77556e-17
4.44089e-16 -4.44089e-16 2.46519e-32
2.77556e-17 2.46519e-32 0

-1.11022e-16 1.55431e-15 1.73472e-16
1.55431e-15 3.55271e-15 2.77556e-16
1.73472e-16 2.77556e-16 0

0 -1.47911e-31 1.66533e-16
-1.47911e-31 0 -3.88578e-16
1.66533e-16 -3.88578e-16 0

-1.11022e-16 0 0
0 0 -5.55112e-17
0 -5.55112e-17 0

-3.33067e-16 -1.22125e-15 2.32453e-16
-1.22125e-15 1.77636e-15 8.88178e-16
2.32453e-16 8.88178e-16 0

2.22045e-16 -7.77156e-16 6.93889e-18
-7.77156e-16 -3.55271e-15 5.55112e-17
6.93889e-18 5.55112e-17 0

6.66134e-16 0 -1.38778e-17
0 1.77636e-15 4.44089e-16
-1.38778e-17 4.44089e-16 2.22045e-16

0 0 5.55112e-17
0 0 0
5.55112e-17 0 0

0 0 5.55112e-17
0 0 5.55112e-17
5.55112e-17 5.55112e-17 0

0 -9.36751e-17 -4.30211e-16
-9.36751e-17 0 4.02456e-16
-4.30211e-16 4.02456e-16 0

0 -2.42861e-17 -6.93889e-18
-2.42861e-17 2.22045e-16 -3.53884e-16
-6.93889e-18 -3.53884e-16 0

-1.11022e-16 0 5.55112e-17
0 1.77636e-15 5.55112e-17
5.55112e-17 5.55112e-17 0

4.44089e-16 0 2.22045e-16
0 0 0
2.22045e-16 0 0

0 -8.88178e-16 -2.77556e-17
-8.88178e-16 0 2.77556e-17
-2.77556e-17 2.77556e-17 2.22045e-16

8.88178e-16 0 -2.77556e-17
0 -1.77636e-15 1.38778e-16
-2.77556e-17 1.38778e-16 2.22045e-16

0 5.55112e-17 -2.77556e-17
5.55112e-17 -2.22045e-16 -2.498e-16
-2.77556e-17 -2.498e-16 0

0 -6.10623e-16 -2.77556e-17
-6.10623e-16 1.55431e-15 -3.33067e-16
-2.77556e-17 -3.33067e-16 2.22045e-16

-2.22045e-16 -5.55112e-17 -1.77983e-15
-5.55112e-17 -7.10543e-15 1.16573e-15
-1.77983e-15 1.16573e-15 0

0 -1.11022e-16 -6.93889e-18
-1.11022e-16 5.32907e-15 1.54074e-33
-6.93889e-18 1.54074e-33 0

0 -6.66134e-16 -3.33067e-16
-6.66134e-16 -2.66454e-15 4.44089e-16
-3.33067e-16 4.44089e-16 0

2.22045e-16 8.88178e-16 6.93889e-18
8.88178e-16 0 -2.77556e-16
6.93889e-18 -2.77556e-16 0

-3.33067e-16 0 2.22045e-16
0 0 5.55112e-17
2.22045e-16 5.55112e-17 2.22045e-16

4.44089e-16 9.4369e-16 -1.11022e-16
9.4369e-16 0 -1.11022e-16
-1.11022e-16 -1.11022e-16 0

2.22045e-16 -5.55112e-17 1.66533e-16
-5.55112e-17 8.88178e-16 2.22045e-16
1.66533e-16 2.22045e-16 0

4.44089e-16 1.77636e-15 2.22045e-16
1.77636e-15 1.77636e-15 -4.996e-16
2.22045e-16 -4.996e-16 0

-3.10862e-15 8.88178e-16 3.33067e-16
8.88178e-16 0 -1.11022e-16
3.33067e-16 -1.11022e-16 0

0 6.66134e-16 0
6.66134e-16 1.77636e-15 -2.22045e-16
0 -2.22045e-16 0

0 0 1.38778e-17
0 1.77636e-15 2.77556e-17
1.38778e-17 2.77556e-17 0

0 5.55112e-17 -4.996e-16
5.55112e-17 4.44089e-16 -2.77556e-17
-4.996e-16 -2.77556e-17 0

8.88178e-16 -1.77636e-15 -8.32667e-17
-1.77636e-15 -1.77636e-15 -1.66533e-16
-8.32667e-17 -1.66533e-16 0

0 -6.66134e-16 5.55112e-17
-6.66134e-16 0 2.35922e-16
5.55112e-17 2.35922e-16 0

-1.33227e-15 9.99201e-16 -5.55112e-17
9.99201e-16 0 2.22045e-16
-5.55112e-17 2.22045e-16 2.22045e-16

-8.88178e-16 2.08167e-16 9.71445e-17
2.08167e-16 0 2.77556e-17
9.71445e-17 2.77556e-17 0

0 5.82867e-16 9.71445e-17
5.82867e-16 -8.88178e-16 4.44089e-16
9.71445e-17 4.44089e-16 0

-2.22045e-16 -8.88178e-16 -1.97215e-31
-8.88178e-16 0 1.11022e-16
-1.97215e-31 1.11022e-16 0

0 0 -3.46945e-18
0 0 5.55112e-17
-3.46945e-18 5.55112e-17 2.22045e-16

-1.11022e-16 -3.05311e-16 6.93889e-17
-3.05311e-16 0 -5.55112e-17
6.93889e-17 -5.55112e-17 0

0 4.93038e-32 -2.35922e-16
4.93038e-32 0 0
-2.35922e-16 0 0

-3.33067e-16 1.52656e-16 -2.77556e-17
1.52656e-16 -8.88178e-16 0
-2.77556e-17 0 0

0 -9.15934e-16 4.19803e-16
-9.15934e-16 -8.88178e-16 4.44089e-16
4.19803e-16 4.44089e-16 0

0 -4.44089e-16 -2.08167e-16
-4.44089e-16 0 5.55112e-17
-2.08167e-16 5.55112e-17 0

2.22045e-16 0 6.93889e-18
0 -4.44089e-16 -5.55112e-17
6.93889e-18 -5.55112e-17 2.22045e-16

-2.22045e-16 6.93889e-18 -2.11636e-16
6.93889e-18 -3.33067e-16 -2.46519e-32
-2.11636e-16 -2.46519e-32 0

4.44089e-16 0 1.66533e-16
0 0 -2.22045e-16
1.66533e-16 -2.22045e-16 4.44089e-16

8.88178e-16 -3.33067e-16 5.55112e-17
-3.33067e-16 -4.44089e-16 1.11022e-16
5.55112e-17 1.11022e-16 0

0 -5.55112e-17 6.93889e-18
-5.55112e-17 0 4.71845e-16
6.93889e-18 4.71845e-16 0

-2.22045e-16 -1.66533e-16 0
-1.66533e-16 1.77636e-15 1.11022e-16
0 1.11022e-16 2.22045e-16

0 2.22045e-16 1.38778e-17
2.22045e-16 -1.77636e-15 -5.55112e-17
1.38778e-17 -5.55112e-17 0

-1.11022e-16 3.33067e-16 1.38778e-17
3.33067e-16 0 -2.77556e-17
1.38778e-17 -2.77556e-17 0

2.22045e-16 1.66533e-16 2.22045e-16
1.66533e-16 1.33227e-15 1.38778e-16
2.22045e-16 1.38778e-16 0

-2.22045e-16 6.66134e-16 0
6.66134e-16 0 0
0 0 0

1.33227e-15 6.66134e-16 -1.11022e-16
6.66134e-16 0 5.55112e-17
-1.11022e-16 5.55112e-17 0

1.33227e-15 -6.66134e-16 2.21867e-31
-6.66134e-16 0 -5.55112e-17
2.21867e-31 -5.55112e-17 0

4.44089e-16 6.10623e-16 -5.55112e-17
6.10623e-16 1.55431e-15 -1.66533e-16
-5.55112e-17 -1.66533e-16 0

-1.33227e-15 -4.44089e-16 -2.77556e-16
-4.44089e-16 4.44089e-16 8.32667e-17
-2.77556e-16 8.32667e-17 2.22045e-16

0 0 -5.55112e-17
0 0 5.55112e-17
-5.55112e-17 5.55112e-17 0

0 0 -1.94289e-16
0 -6.66134e-16 5.55112e-17
-1.94289e-16 5.55112e-17 2.22045e-16

6.66134e-16 6.66134e-16 -5.55112e-17
6.66134e-16 0 -3.88578e-16
-5.55112e-17 -3.88578e-16 0

0 1.94289e-16 -1.249e-16
1.94289e-16 0 2.77556e-16
-1.249e-16 2.77556e-16 2.22045e-16

0 2.22045e-16 2.77556e-17
2.22045e-16 0 -2.77556e-16
2.77556e-17 -2.77556e-16 0

1.33227e-15 -9.86076e-32 2.77556e-16
-9.86076e-32 -6.66134e-16 -1.94289e-16
2.77556e-16 -1.94289e-16 0

-1.11022e-16 -6.66134e-16 1.38778e-17
-6.66134e-16 -1.77636e-15 1.66533e-16
1.38778e-17 1.66533e-16 0

-2.22045e-16 7.77156e-16 -1.11022e-16
7.77156e-16 0 -1.11022e-16
-1.11022e-16 -1.11022e-16 0

8.88178e-16 -3.88578e-16 1.11022e-16
-3.88578e-16 4.44089e-16 3.33067e-16
1.11022e-16 3.33067e-16 -1.11022e-16

0 8.88178e-16 -1.11022e-16
8.88178e-16 0 0
-1.11022e-16 0 0

0 -4.44089e-16 2.46519e-32
-4.44089e-16 4.44089e-16 -2.77556e-17
2.46519e-32 -2.77556e-17 0

2.22045e-16 -4.44089e-16 -1.38778e-16
-4.44089e-16 0 1.11022e-16
-1.38778e-16 1.11022e-16 0

0 7.21645e-16 -5.55112e-17
7.21645e-16 4.44089e-16 3.33067e-16
-5.55112e-17 3.33067e-16 0

-8.88178e-16 0 3.33067e-16
0 0 -5.55112e-17
3.33067e-16 -5.55112e-17 0

0 -8.88178e-16 -5.55112e-17
-8.88178e-16 2.22045e-16 -8.32667e-17
-5.55112e-17 -8.32667e-17 2.22045e-16

0 -7.88861e-31 -9.71445e-17
-7.88861e-31 -1.77636e-15 5.55112e-17
-9.71445e-17 5.55112e-17 2.22045e-16

6.66134e-16 0 -1.38778e-17
0 0 -3.33067e-16
-1.38778e-17 -3.33067e-16 0

-4.44089e-16 -2.22045e-16 -9.15934e-16
-2.22045e-16 8.88178e-16 1.38778e-17
-9.15934e-16 1.38778e-17 2.22045e-16

-4.44089e-16 -2.22045e-15 -4.996e-16
-2.22045e-15 0 5.55112e-17
-4.996e-16 5.55112e-17 0

4.44089e-16 8.88178e-16 -3.05311e-16
8.88178e-16 0 2.22045e-16
-3.05311e-16 2.22045e-16 0

0 1.66533e-16 1.38778e-17
1.66533e-16 -4.44089e-16 5.55112e-17
1.38778e-17 5.55112e-17 0

8.88178e-16 0 -1.38778e-16
0 0 2.22045e-16
-1.38778e-16 2.22045e-16 0

0 0 1.38778e-17
0 0 -2.77556e-16
1.38778e-17 -2.77556e-16 0

6.66134e-16 0 -2.22045e-16
0 0 5.55112e-17
-2.22045e-16 5.55112e-17 0

-2.22045e-16 0 0
0 -4.44089e-16 -5.55112e-17
0 -5.55112e-17 0

0 0 5.55112e-17
0 0 3.33067e-16
5.55112e-17 3.33067e-16 0

0 4.44089e-16 -1.94289e-16
4.44089e-16 1.77636e-15 1.11022e-16
-1.94289e-16 1.11022e-16 2.22045e-16

0 0 5.55112e-17
0 0 -2.77556e-17
5.55112e-17 -2.77556e-17 0

0 3.46945e-17 -5.55112e-17
3.46945e-17 0 -3.05311e-16
-5.55112e-17 -3.05311e-16 0

0 0 6.93889e-17
0 8.88178e-16 0
6.93889e-17 0 0

0 0 -1.11022e-16
0 -4.44089e-16 -1.11022e-16
-1.11022e-16 -1.11022e-16 2.22045e-16

-4.44089e-16 -3.33067e-16 -2.08167e-17
-3.33067e-16 0 -2.498e-16
-2.08167e-17 -2.498e-16 2.22045e-16

2.22045e-16 1.11022e-16 1.249e-16
1.11022e-16 -3.55271e-15 5.55112e-17
1.249e-16 5.55112e-17 0

-1.11022e-16 0 0
0 0 -5.55112e-17
0 -5.55112e-17 0

-2.22045e-16 -4.44089e-16 2.77556e-17
-4.44089e-16 -1.77636e-15 -5.55112e-17
2.77556e-17 -5.55112e-17 0

-4.44089e-16 2.22045e-16 2.77556e-17
2.22045e-16 -8.88178e-16 -2.77556e-17
2.77556e-17 -2.77556e-17 0

-8.88178e-16 -6.66134e-16 5.55112e-17
-6.66134e-16 0 -5.55112e-17
5.55112e-17 -5.55112e-17 0

-6.66134e-16 -2.22045e-16 2.498e-16
-2.22045e-16 0 -5.55112e-17
2.498e-16 -5.55112e-17 0

0 2.22045e-16 5.55112e-17
2.22045e-16 0 5.55112e-17
5.55112e-17 5.55112e-17 0

-2.22045e-16 -8.32667e-16 6.93889e-17
-8.32667e-16 -8.88178e-16 2.22045e-16
6.93889e-17 2.22045e-16 0

-2.22045e-16 -7.77156e-16 2.77556e-17
-7.77156e-16 0 1.11022e-16
2.77556e-17 1.11022e-16 0

-8.88178e-16 4.44089e-16 0
4.44089e-16 -1.11022e-15 -1.11022e-16
0 -1.11022e-16 -1.11022e-16

4.44089e-16 -4.93038e-32 2.498e-16
-4.93038e-32 4.44089e-16 4.93038e-32
2.498e-16 4.93038e-32 0

0 8.88178e-16 -1.66533e-16
8.88178e-16 8.88178e-16 0
-1.66533e-16 0 0

0 0 0
0 0 2.77556e-16
0 2.77556e-16 0

0 -9.4369e-16 6.93889e-18
-9.4369e-16 0 -7.70372e-34
6.93889e-18 -7.70372e-34 0

0 0 1.07553e-16
0 -1.77636e-15 -5.55112e-17
1.07553e-16 -5.55112e-17 2.22045e-16

0 -7.77156e-16 -8.32667e-17
-7.77156e-16 -1.33227e-15 -2.77556e-16
-8.32667e-17 -2.77556e-16 0

0 0 5.55112e-17
0 6.66134e-16 8.32667e-17
5.55112e-17 8.32667e-17 0

-4.44089e-16 8.88178e-16 1.94289e-16
8.88178e-16 0 1.66533e-16
1.94289e-16 1.66533e-16 0

0 3.33067e-16 -1.38778e-16
3.33067e-16 0 -3.05311e-16
-1.38778e-16 -3.05311e-16 0

-1.77636e-15 -3.33067e-16 -8.32667e-17
-3.33067e-16 -6.66134e-16 3.33067e-16
-8.32667e-17 3.33067e-16 0

2.22045e-16 -2.22045e-16 -1.249e-16
-2.22045e-16 0 3.88578e-16
-1.249e-16 3.88578e-16 2.22045e-16

-4.44089e-16 -1.11022e-16 -6.93889e-18
-1.11022e-16 -1.9984e-15 2.91434e-16
-6.93889e-18 2.91434e-16 -1.11022e-16

-2.22045e-16 -1.94289e-16 4.23273e-16
-1.94289e-16 -8.88178e-16 1.80411e-16
4.23273e-16 1.80411e-16 0

-4.44089e-16 0 2.35922e-16
0 0 -5.55112e-17
2.35922e-16 -5.55112e-17 0

-1.11022e-16 -2.22045e-16 2.08167e-17
-2.22045e-16 0 1.11022e-16
2.08167e-17 1.11022e-16 0

-2.22045e-16 8.32667e-17 1.73472e-16
8.32667e-17 0 -1.11022e-16
1.73472e-16 -1.11022e-16 0

8.88178e-16 0 2.77556e-17
0 -4.44089e-16 -5.55112e-17
2.77556e-17 -5.55112e-17 2.22045e-16

0 1.11022e-16 9.71445e-17
1.11022e-16 1.77636e-15 5.55112e-17
9.71445e-17 5.55112e-17 0

1.33227e-15 0 -1.94289e-16
0 -1.77636e-15 -1.66533e-16
-1.94289e-16 -1.66533e-16 2.22045e-16

0 -1.11022e-16 -2.77556e-17
-1.11022e-16 1.77636e-15 8.32667e-17
-2.77556e-17 8.32667e-17 0

0 1.11022e-16 -1.73472e-18
1.11022e-16 0 1.11022e-16
-1.73472e-18 1.11022e-16 0

0 -2.77556e-17 4.4062e-16
-2.77556e-17 -2.66454e-15 3.60822e-16
4.4062e-16 3.60822e-16 0

0 0 -1.38778e-17
0 0 -1.94289e-16
-1.38778e-17 -1.94289e-16 0

-1.11022e-16 -5.55112e-17 2.77556e-17
-5.55112e-17 1.33227e-15 1.11022e-16
2.77556e-17 1.11022e-16 0

0 -8.88178e-16 2.77556e-17
-8.88178e-16 1.33227e-15 -8.32667e-17
2.77556e-17 -8.32667e-17 0

0 -1.11022e-16 0
-1.11022e-16 -8.88178e-16 5.55112e-17
0 5.55112e-17 0

-8.88178e-16 -6.66134e-16 -1.11022e-16
-6.66134e-16 2.22045e-16 -2.498e-16
-1.11022e-16 -2.498e-16 0

0 -5.55112e-17 -4.44089e-16
-5.55112e-17 -5.55112e-16 -9.71445e-17
-4.44089e-16 -9.71445e-17 0

0 -6.93889e-17 0
-6.93889e-17 -1.33227e-15 -2.22045e-16
0 -2.22045e-16 0

0 -2.22045e-16 -2.77556e-17
-2.22045e-16 6.66134e-16 1.2326e-32
-2.77556e-17 1.2326e-32 2.22045e-16

2.22045e-16 6.66134e-16 -9.71445e-17
6.66134e-16 0 2.22045e-16
-9.71445e-17 2.22045e-16 0

8.88178e-16 6.66134e-16 8.32667e-17
6.66134e-16 -2.66454e-15 2.77556e-16
8.32667e-17 2.77556e-16 0

0 2.22045e-16 2.77556e-17
2.22045e-16 -4.44089e-16 1.38778e-16
2.77556e-17 1.38778e-16 2.22045e-16

4.44089e-16 -1.66533e-16 1.38778e-17
-1.66533e-16 -2.22045e-16 -1.66533e-16
1.38778e-17 -1.66533e-16 0

0 2.77556e-17 2.77556e-17
2.77556e-17 8.88178e-16 -8.32667e-17
2.77556e-17 -8.32667e-17 0

-6.66134e-16 0 0
0 0 1.38778e-16
0 1.38778e-16 0

0 0 -5.55112e-17
0 0 -2.77556e-17
-5.55112e-17 -2.77556e-17 0

0 4.44089e-16 -5.55112e-17
4.44089e-16 3.10862e-15 -4.93038e-32
-5.55112e-17 -4.93038e-32 2.22045e-16

0 -2.22045e-16 5.55112e-17
-2.22045e-16 -1.77636e-15 -5.55112e-17
5.55112e-17 -5.55112e-17 0

0 4.44089e-16 4.57967e-16
4.44089e-16 0 2.77556e-17
4.57967e-16 2.77556e-17 2.22045e-16

1.55431e-15 1.55431e-15 2.77556e-17
1.55431e-15 0 2.77556e-17
2.77556e-17 2.77556e-17 0

-3.33067e-16 -1.38778e-16 -6.93889e-18
-1.38778e-16 0 -5.55112e-17
-6.93889e-18 -5.55112e-17 0

0 -8.32667e-16 5.20417e-18
-8.32667e-16 -7.10543e-15 -7.21645e-16
5.20417e-18 -7.21645e-16 2.22045e-16

-2.22045e-16 -5.55112e-16 -8.89913e-16
-5.55112e-16 -3.55271e-15 8.88178e-16
-8.89913e-16 8.88178e-16 -1.11022e-16

0 1.77636e-15 4.996e-16
1.77636e-15 0 -2.77556e-16
4.996e-16 -2.77556e-16 0

0 -8.88178e-16 1.11022e-16
-8.88178e-16 0 4.16334e-16
1.11022e-16 4.16334e-16 0

4.44089e-16 8.88178e-16 -1.11022e-16
8.88178e-16 8.88178e-16 -8.32667e-17
-1.11022e-16 -8.32667e-17 0

0 0 1.66533e-16
0 6.66134e-16 2.77556e-17
1.66533e-16 2.77556e-17 2.22045e-16

0 0 1.38778e-16
0 0 1.11022e-16
1.38778e-16 1.11022e-16 0

1.77636e-15 0 -4.71845e-16
0 0 -1.11022e-16
-4.71845e-16 -1.11022e-16 0

-8.88178e-16 -9.57567e-16 0
-9.57567e-16 -2.22045e-16 -9.71445e-17
0 -9.71445e-17 0

0 -2.22045e-16 -1.11022e-16
-2.22045e-16 0 1.66533e-16
-1.11022e-16 1.66533e-16 0

1.77636e-15 -2.22045e-16 1.38778e-16
-2.22045e-16 0 2.77556e-17
1.38778e-16 2.77556e-17 0

-4.44089e-16 9.02056e-17 -1.38778e-17
9.02056e-17 -7.77156e-16 5.55112e-17
-1.38778e-17 5.55112e-17 0

8.88178e-16 8.88178e-16 -2.77556e-17
8.88178e-16 3.55271e-15 0
-2.77556e-17 0 0

0 -1.33227e-15 2.77556e-17
-1.33227e-15 1.77636e-15 -1.11022e-16
2.77556e-17 -1.11022e-16 -1.11022e-16

-8.88178e-16 2.22045e-16 3.33067e-16
2.22045e-16 8.88178e-16 1.11022e-16
3.33067e-16 1.11022e-16 2.22045e-16

0 -4.44089e-16 -1.66533e-16
-4.44089e-16 0 3.33067e-16
-1.66533e-16 3.33067e-16 -1.11022e-16

8.88178e-16 -2.22045e-16 8.32667e-17
-2.22045e-16 -4.44089e-16 0
8.32667e-17 0 0

-1.77636e-15 -4.44089e-16 -2.77556e-17
-4.44089e-16 0 -2.498e-16
-2.77556e-17 -2.498e-16 0

-8.88178e-16 0 -1.11022e-16
0 4.44089e-16 -2.77556e-17
-1.11022e-16 -2.77556e-17 2.22045e-16

0 -2.22045e-16 -2.77556e-17
-2.22045e-16 -1.33227e-15 2.22045e-16
-2.77556e-17 2.22045e-16 0

0 2.22045e-16 -2.77556e-16
2.22045e-16 0 -1.11022e-16
-2.77556e-16 -1.11022e-16 2.22045e-16

0 0 -1.38778e-16
0 -1.33227e-15 3.05311e-16
-1.38778e-16 3.05311e-16 0

0 5.55112e-17 -1.38778e-17
5.55112e-17 0 -1.66533e-16
-1.38778e-17 -1.66533e-16 0

0 0 -3.46945e-18
0 0 -5.55112e-17
-3.46945e-18 -5.55112e-17 0

-4.44089e-16 3.60822e-16 -5.55112e-17
3.60822e-16 0 8.32667e-17
-5.55112e-17 8.32667e-17 0

-4.44089e-16 8.88178e-16 -8.32667e-17
8.88178e-16 8.88178e-16 5.55112e-17
-8.32667e-17 5.55112e-17 0

4.44089e-16 3.33067e-16 -2.77556e-17
3.33067e-16 0 1.38778e-16
-2.77556e-17 1.38778e-16 0

0 0 8.32667e-17
0 0 2.77556e-17
8.32667e-17 2.77556e-17 0

0 -2.22045e-16 -1.38778e-16
-2.22045e-16 0 5.55112e-17
-1.38778e-16 5.55112e-17 0

-2.22045e-16 -3.88578e-16 2.22045e-16
-3.88578e-16 0 1.94289e-16
2.22045e-16 1.94289e-16 0

0 -6.66134e-16 4.16334e-16
-6.66134e-16 0 4.16334e-16
4.16334e-16 4.16334e-16 0

0 4.44089e-16 5.55112e-17
4.44089e-16 3.10862e-15 -5.55112e-17
5.55112e-17 -5.55112e-17 2.22045e-16

0 -1.11022e-16 -2.77556e-17
-1.11022e-16 -8.88178e-16 6.16298e-33
-2.77556e-17 6.16298e-33 0

0 6.66134e-16 2.77556e-17
6.66134e-16 0 -5.55112e-17
2.77556e-17 -5.55112e-17 0

0 4.996e-16 -1.66533e-16
4.996e-16 1.77636e-15 8.74301e-16
-1.66533e-16 8.74301e-16 0

-1.11022e-16 0 0
0 0 -5.55112e-17
0 -5.55112e-17 0

0 4.44089e-16 -4.44089e-16
4.44089e-16 0 -2.77556e-17
-4.44089e-16 -2.77556e-17 0

1.77636e-15 0 -2.77556e-17
0 0 3.33067e-16
-2.77556e-17 3.33067e-16 0

0 -8.88178e-16 -1.38778e-16
-8.88178e-16 0 -5.55112e-17
-1.38778e-16 -5.55112e-17 0

8.88178e-16 -1.11022e-16 5.55112e-17
-1.11022e-16 2.22045e-16 1.94289e-16
5.55112e-17 1.94289e-16 0

2.66454e-15 -2.22045e-16 -1.11022e-16
-2.22045e-16 0 4.93038e-32
-1.11022e-16 4.93038e-32 2.22045e-16

-1.11022e-16 4.44089e-16 2.28983e-16
4.44089e-16 -3.55271e-15 -7.77156e-16
2.28983e-16 -7.77156e-16 0

0 -3.55271e-15 8.91648e-16
-3.55271e-15 0 -5.55112e-17
8.91648e-16 -5.55112e-17 -1.11022e-16

0 0 6.93889e-18
0 0 -2.77556e-17
6.93889e-18 -2.77556e-17 0

0 0 2.77556e-17
0 0 -5.55112e-17
2.77556e-17 -5.55112e-17 0

-4.44089e-16 6.93889e-16 -1.38778e-17
6.93889e-16 0 8.32667e-17
-1.38778e-17 8.32667e-17 2.22045e-16

8.88178e-16 1.11022e-16 -2.77556e-17
1.11022e-16 0 -4.44089e-16
-2.77556e-17 -4.44089e-16 0

0 0 0
0 -8.88178e-16 5.55112e-17
0 5.55112e-17 0

0 1.11022e-16 2.77556e-17
1.11022e-16 8.88178e-16 -2.77556e-17
2.77556e-17 -2.77556e-17 0

0 5.55112e-17 2.77556e-17
5.55112e-17 -1.77636e-15 3.33067e-16
2.77556e-17 3.33067e-16 0

-1.11022e-16 2.84495e-16 5.55112e-17
2.84495e-16 -8.88178e-16 4.16334e-16
5.55112e-17 4.16334e-16 0

8.88178e-16 6.66134e-16 -4.16334e-16
6.66134e-16 -8.88178e-16 -5.55112e-17
-4.16334e-16 -5.55112e-17 0

-4.44089e-16 -1.97215e-31 -1.66533e-16
-1.97215e-31 0 4.44089e-16
-1.66533e-16 4.44089e-16 0

-1.33227e-15 0 -5.55112e-17
0 0 -5.55112e-17
-5.55112e-17 -5.55112e-17 2.22045e-16

0 0 2.77556e-17
0 -3.55271e-15 2.22045e-16
2.77556e-17 2.22045e-16 2.22045e-16

0 -3.10862e-15 -2.498e-16
-3.10862e-15 3.55271e-15 3.88578e-16
-2.498e-16 3.88578e-16 0

4.44089e-16 1.55431e-15 -4.16334e-16
1.55431e-15 1.33227e-15 -4.71845e-16
-4.16334e-16 -4.71845e-16 2.22045e-16

2.22045e-16 -1.11022e-16 5.55112e-17
-1.11022e-16 0 3.60822e-16
5.55112e-17 3.60822e-16 0

-1.33227e-15 -6.66134e-16 5.55112e-17
-6.66134e-16 -8.88178e-16 1.66533e-16
5.55112e-17 1.66533e-16 0

0 -1.11022e-16 -1.94289e-16
-1.11022e-16 -1.77636e-15 -4.996e-16
-1.94289e-16 -4.996e-16 0

4.44089e-16 -3.88578e-16 0
-3.88578e-16 -2.22045e-16 1.66533e-16
0 1.66533e-16 2.22045e-16

2.22045e-16 -1.11022e-16 -1.11022e-16
-1.11022e-16 0 1.66533e-16
-1.11022e-16 1.66533e-16 0

0 7.77156e-16 -2.22045e-16
7.77156e-16 1.77636e-15 -4.16334e-16
-2.22045e-16 -4.16334e-16 0

0 6.66134e-16 1.11022e-16
6.66134e-16 0 -1.47911e-31
1.11022e-16 -1.47911e-31 0

-7.77156e-16 -4.85723e-17 5.20417e-17
-4.85723e-17 0 -4.44089e-16
5.20417e-17 -4.44089e-16 0

0 -9.71445e-17 8.32667e-17
-9.71445e-17 0 2.77556e-17
8.32667e-17 2.77556e-17 0

0 -4.93038e-32 8.32667e-17
-4.93038e-32 0 -2.77556e-16
8.32667e-17 -2.77556e-16 0

2.22045e-16 -1.66533e-16 -2.77556e-16
-1.66533e-16 0 4.996e-16
-2.77556e-16 4.996e-16 0

1.77636e-15 1.57837e-15 1.11022e-16
1.57837e-15 1.11022e-15 3.83621e-16
1.11022e-16 3.83621e-16 0

-3.55271e-15 1.61851e-16 2.22045e-16
1.61851e-16 6.66134e-16 -6.72443e-17
2.22045e-16 -6.72443e-17 0

8.88178e-16 -7.77156e-16 -5.55112e-17
-7.77156e-16 -9.99201e-16 2.46519e-32
-5.55112e-17 2.46519e-32 0

-1.11022e-16 4.16334e-17 2.91434e-16
4.16334e-17 -3.55271e-15 8.32667e-17
2.91434e-16 8.32667e-17 0

2.22045e-16 8.04912e-16 -2.01228e-16
8.04912e-16 -1.77636e-15 1.11022e-16
-2.01228e-16 1.11022e-16 0

8.88178e-16 -4.44089e-16 2.77556e-17
-4.44089e-16 0 1.94289e-16
2.77556e-17 1.94289e-16 0

-8.88178e-16 0 1.94289e-16
0 0 2.77556e-16
1.94289e-16 2.77556e-16 2.22045e-16

0 -5.55112e-17 -5.55112e-17
-5.55112e-17 -1.77636e-15 1.11022e-16
-5.55112e-17 1.11022e-16 2.22045e-16

-1.77636e-15 1.11022e-16 2.77556e-17
1.11022e-16 6.66134e-16 -1.11022e-16
2.77556e-17 -1.11022e-16 0

4.44089e-16 0 0
0 0 -2.77556e-16
0 -2.77556e-16 0

0 -1.94289e-16 2.77556e-17
-1.94289e-16 -1.66533e-15 4.16334e-16
2.77556e-17 4.16334e-16 0

0 6.66134e-16 -2.22045e-16
6.66134e-16 -3.33067e-16 1.11022e-16
-2.22045e-16 1.11022e-16 0

-1.11022e-16 -1.11022e-16 -8.32667e-17
-1.11022e-16 0 0
-8.32667e-17 0 0

-2.22045e-16 3.33067e-16 5.55112e-17
3.33067e-16 0 -4.93038e-32
5.55112e-17 -4.93038e-32 0

-2.22045e-16 -1.11022e-16 1.249e-16
-1.11022e-16 0 0
1.249e-16 0 2.22045e-16

-3.33067e-16 -7.21645e-16 1.11022e-16
-7.21645e-16 0 2.22045e-16
1.11022e-16 2.22045e-16 0

1.55431e-15 8.88178e-16 1.11022e-16
8.88178e-16 8.88178e-16 1.66533e-16
1.11022e-16 1.66533e-16 0

1.33227e-15 -1.11022e-16 -1.38778e-16
-1.11022e-16 1.33227e-15 -1.38778e-16
-1.38778e-16 -1.38778e-16 2.22045e-16

0 0 -1.38778e-16
0 0 -1.11022e-16
-1.38778e-16 -1.11022e-16 0

0 2.77556e-16 -1.19696e-16
2.77556e-16 0 -9.62965e-34
-1.19696e-16 -9.62965e-34 0

0 -6.66134e-16 6.93889e-18
-6.66134e-16 0 1.11022e-16
6.93889e-18 1.11022e-16 0

0 0 2.77556e-17
0 0 -1.38778e-17
2.77556e-17 -1.38778e-17 0

1.77636e-15 -8.88178e-16 2.77556e-17
-8.88178e-16 0 -2.77556e-16
2.77556e-17 -2.77556e-16 0

1.77636e-15 -1.55431e-15 2.77556e-17
-1.55431e-15 -8.88178e-16 8.32667e-17
2.77556e-17 8.32667e-17 2.22045e-16

-8.88178e-16 8.88178e-16 -1.80411e-16
8.88178e-16 3.55271e-15 1.66533e-16
-1.80411e-16 1.66533e-16 0

-2.22045e-16 -4.44089e-16 4.57967e-16
-4.44089e-16 0 5.55112e-17
4.57967e-16 5.55112e-17 0

0 0 0
0 0 -3.88578e-16
0 -3.88578e-16 2.22045e-16

0 -2.22045e-16 -2.77556e-17
-2.22045e-16 -3.55271e-15 2.22045e-16
-2.77556e-17 2.22045e-16 0

-4.44089e-16 -8.88178e-16 2.77556e-17
-8.88178e-16 3.55271e-15 5.55112e-17
2.77556e-17 5.55112e-17 0

0 -3.44169e-15 4.45824e-16
-3.44169e-15 0 5.55112e-16
4.45824e-16 5.55112e-16 0

-1.11022e-16 8.88178e-16 4.45824e-16
8.88178e-16 0 -8.60423e-16
4.45824e-16 -8.60423e-16 0

-8.88178e-16 -2.22045e-16 -5.55112e-17
-2.22045e-16 -1.33227e-15 4.44089e-16
-5.55112e-17 4.44089e-16 0

0 -1.11022e-16 2.08167e-17
-1.11022e-16 0 3.88578e-16
2.08167e-17 3.88578e-16 0

4.44089e-16 1.88738e-15 -4.23273e-16
1.88738e-15 -1.77636e-15 -3.33067e-16
-4.23273e-16 -3.33067e-16 2.22045e-16

4.44089e-16 -5.55112e-17 1.38778e-17
-5.55112e-17 0 2.77556e-16
1.38778e-17 2.77556e-16 0

0 1.94289e-16 0
1.94289e-16 -1.9984e-15 -2.22045e-16
0 -2.22045e-16 0

0 9.86076e-32 1.94289e-16
9.86076e-32 0 2.77556e-16
1.94289e-16 2.77556e-16 0

-8.88178e-16 0 2.498e-16
0 0 0
2.498e-16 0 0

-8.88178e-16 1.33227e-15 -4.85723e-16
1.33227e-15 0 0
-4.85723e-16 0 0

0 -4.44089e-16 8.32667e-17
-4.44089e-16 0 1.11022e-16
8.32667e-17 1.11022e-16 0

4.44089e-16 0 1.11022e-16
0 1.77636e-15 0
1.11022e-16 0 4.44089e-16

1.33227e-15 4.44089e-16 0
4.44089e-16 0 5.55112e-17
0 5.55112e-17 2.22045e-16

0 -8.88178e-16 4.57967e-16
-8.88178e-16 0 5.55112e-17
4.57967e-16 5.55112e-17 0

0 1.55431e-15 1.38778e-17
1.55431e-15 0 6.16298e-33
1.38778e-17 6.16298e-33 0

4.44089e-16 -1.97215e-31 -1.80411e-16
-1.97215e-31 -1.77636e-15 3.88578e-16
-1.80411e-16 3.88578e-16 0

0 1.94289e-16 4.23273e-16
1.94289e-16 2.66454e-15 -3.33067e-16
4.23273e-16 -3.33067e-16 0

-1.11022e-16 1.08247e-15 3.46945e-17
1.08247e-15 1.77636e-15 2.21867e-31
3.46945e-17 2.21867e-31 0

-1.11022e-16 2.77556e-16 2.498e-16
2.77556e-16 1.77636e-15 5.27356e-16
2.498e-16 5.27356e-16 2.22045e-16

0 5.55112e-17 0
5.55112e-17 4.44089e-16 -2.46519e-32
0 -2.46519e-32 0

0 0 0
0 -1.33227e-15 -4.16334e-16
0 -4.16334e-16 0

0 -1.55431e-15 -1.38778e-17
-1.55431e-15 0 -1.66533e-16
-1.38778e-17 -1.66533e-16 0

1.77636e-15 -7.21645e-16 -2.77556e-17
-7.21645e-16 -1.9984e-15 3.33067e-16
-2.77556e-17 3.33067e-16 2.22045e-16

0 -7.77156e-16 4.44089e-16
-7.77156e-16 -1.11022e-16 2.498e-16
4.44089e-16 2.498e-16 0

0 8.60423e-16 -2.08167e-17
8.60423e-16 6.66134e-16 1.66533e-16
-2.08167e-17 1.66533e-16 0

-2.22045e-16 -2.77556e-17 0
-2.77556e-17 -8.88178e-16 1.38778e-16
0 1.38778e-16 0

2.22045e-16 0 0
0 0 2.22045e-16
0 2.22045e-16 2.22045e-16

-2.22045e-16 0 -6.93889e-18
0 4.44089e-16 2.22045e-16
-6.93889e-18 2.22045e-16 0

0 8.88178e-16 2.77556e-16
8.88178e-16 2.66454e-15 9.86076e-32
2.77556e-16 9.86076e-32 0

2.22045e-16 0 -2.77556e-16
0 -4.44089e-16 -1.11022e-16
-2.77556e-16 -1.11022e-16 0

0 0 0
0 -1.11022e-16 -2.40919e-16
0 -2.40919e-16 0

0 -1.11022e-16 -3.46945e-18
-1.11022e-16 0 7.70372e-34
-3.46945e-18 7.70372e-34 0

0 8.88178e-16 9.86076e-32
8.88178e-16 2.22045e-16 1.24603e-16
9.86076e-32 1.24603e-16 0

2.22045e-16 0 1.73472e-18
0 -7.10543e-15 -5.55112e-17
1.73472e-18 -5.55112e-17 2.22045e-16

0 0 -5.55112e-17
0 0 4.44089e-16
-5.55112e-17 4.44089e-16 0

0 0 3.33067e-16
0 0 -5.55112e-17
3.33067e-16 -5.55112e-17 0

2.66454e-15 -1.11022e-15 -3.69779e-32
-1.11022e-15 0 5.27356e-16
-3.69779e-32 5.27356e-16 0

0 0 -1.94289e-16
0 0 -1.38778e-17
-1.94289e-16 -1.38778e-17 0

0 3.51108e-15 -4.44089e-16
3.51108e-15 1.42109e-14 -3.27516e-15
-4.44089e-16 -3.27516e-15 0

0 1.1019e-14 -1.73472e-18
1.1019e-14 2.66454e-15 -3.88578e-16
-1.73472e-18 -3.88578e-16 0

1.33227e-15 -8.32667e-17 -3.55098e-15
-8.32667e-17 1.77636e-15 -4.996e-16
-3.55098e-15 -4.996e-16 0

0 7.10543e-15 -1.77896e-15
7.10543e-15 0 1.66533e-16
-1.77896e-15 1.66533e-16 0

0 -9.4369e-16 -1.38778e-17
-9.4369e-16 0 -2.77556e-17
-1.38778e-17 -2.77556e-17 2.22045e-16

0 0 0
0 0 1.94289e-16
0 1.94289e-16 0

0 1.11022e-16 0
1.11022e-16 0 1.88738e-15
0 1.88738e-15 0

0 0 4.3715e-16
0 0 1.11022e-16
4.3715e-16 1.11022e-16 0

0 -8.88178e-16 -1.73472e-18
-8.88178e-16 0 0
-1.73472e-18 0 0

0 1.11022e-16 -1.38778e-17
1.11022e-16 0 -3.08149e-33
-1.38778e-17 -3.08149e-33 0

2.22045e-16 -5.55112e-17 4.64906e-16
-5.55112e-17 4.44089e-16 -1.66533e-16
4.64906e-16 -1.66533e-16 0

0 -1.38778e-17 4.54498e-16
-1.38778e-17 -1.77636e-15 -1.66533e-16
4.54498e-16 -1.66533e-16 0

-2.22045e-16 8.88178e-16 2.46519e-31
8.88178e-16 2.22045e-16 2.498e-16
2.46519e-31 2.498e-16 0

-1.11022e-16 -2.08167e-17 1.04083e-17
-2.08167e-17 -1.33227e-15 3.05311e-16
1.04083e-17 3.05311e-16 0

0 -2.22045e-16 -5.55112e-17
-2.22045e-16 -2.22045e-16 0
-5.55112e-17 0 0

2.22045e-16 -5.13478e-16 -8.32667e-17
-5.13478e-16 4.44089e-16 2.77556e-17
-8.32667e-17 2.77556e-17 2.22045e-16

1.33227e-15 -4.16334e-17 -5.55112e-17
-4.16334e-17 4.44089e-16 -2.63678e-16
-5.55112e-17 -2.63678e-16 0

4.44089e-16 5.0307e-17 1.11022e-16
5.0307e-17 -1.11022e-16 1.19262e-17
1.11022e-16 1.19262e-17 0

0 0 -5.55112e-17
0 -1.11022e-16 -4.33681e-19
-5.55112e-17 -4.33681e-19 0

-2.22045e-16 1.11022e-16 2.498e-16
1.11022e-16 0 2.77556e-17
2.498e-16 2.77556e-17 2.22045e-16

4.44089e-16 -3.88578e-16 -2.498e-16
-3.88578e-16 0 -5.55112e-17
-2.498e-16 -5.55112e-17 0

0 -5.72459e-17 3.33067e-16
-5.72459e-17 2.22045e-16 -1.06469e-16
3.33067e-16 -1.06469e-16 0

-1.44329e-15 2.42861e-17 2.498e-16
2.42861e-17 0 6.93889e-18
2.498e-16 6.93889e-18 0

8.88178e-16 -1.11022e-16 1.11022e-16
-1.11022e-16 2.22045e-16 -2.08167e-16
1.11022e-16 -2.08167e-16 0

0 0 -5.55112e-17
0 -1.11022e-16 6.93889e-18
-5.55112e-17 6.93889e-18 0

0 3.33067e-16 2.498e-16
3.33067e-16 0 2.11636e-16
2.498e-16 2.11636e-16 0

1.77636e-15 3.33067e-16 2.77556e-16
3.33067e-16 0 -4.16334e-17
2.77556e-16 -4.16334e-17 0

-8.88178e-16 -3.33067e-16 1.47911e-31
-3.33067e-16 0 -6.93889e-17
1.47911e-31 -6.93889e-17 0

1.77636e-15 -2.22045e-16 -2.22045e-16
-2.22045e-16 0 -2.35922e-16
-2.22045e-16 -2.35922e-16 0

0 -6.66134e-16 6.16298e-33
-6.66134e-16 4.44089e-16 -8.32667e-17
6.16298e-33 -8.32667e-17 0

0 0 -1.66533e-16
0 -2.22045e-16 -4.71845e-16
-1.66533e-16 -4.71845e-16 2.22045e-16

0 8.88178e-16 0
8.88178e-16 8.88178e-16 -1.80411e-16
0 -1.80411e-16 2.22045e-16

4.44089e-16 -2.23779e-16 1.11022e-16
-2.23779e-16 0 9.54098e-18
1.11022e-16 9.54098e-18 2.22045e-16

0 -8.88178e-16 -1.66533e-16
-8.88178e-16 -2.22045e-16 1.59595e-16
-1.66533e-16 1.59595e-16 0

0 1.11022e-16 -1.66533e-16
1.11022e-16 4.44089e-16 3.46945e-17
-1.66533e-16 3.46945e-17 0

2.22045e-16 -4.44089e-16 1.11022e-16
-4.44089e-16 0 6.93889e-18
1.11022e-16 6.93889e-18 0

4.44089e-16 1.80411e-16 -9.71445e-17
1.80411e-16 0 1.38778e-17
-9.71445e-17 1.38778e-17 0

0 4.93038e-32 3.88578e-16
4.93038e-32 0 1.17961e-16
3.88578e-16 1.17961e-16 0

0 -1.38778e-15 4.44089e-16
-1.38778e-15 2.22045e-16 9.71445e-17
4.44089e-16 9.71445e-17 0

0 0 2.22045e-16
0 0 4.16334e-17
2.22045e-16 4.16334e-17 0

-2.66454e-15 5.20417e-17 3.33067e-16
5.20417e-17 2.22045e-16 2.18792e-16
3.33067e-16 2.18792e-16 2.22045e-16

-1.77636e-15 -5.55112e-17 -5.55112e-17
-5.55112e-17 0 -1.38778e-17
-5.55112e-17 -1.38778e-17 0

-3.55271e-15 8.32667e-17 2.77556e-16
8.32667e-17 -1.11022e-16 3.46945e-18
2.77556e-16 3.46945e-18 0

0 0 -2.77556e-16
0 -1.11022e-16 1.73472e-18
-2.77556e-16 1.73472e-18 0

0 4.44089e-16 1.66533e-16
4.44089e-16 2.22045e-16 1.94289e-16
1.66533e-16 1.94289e-16 2.22045e-16

0 6.66134e-16 -4.44089e-16
6.66134e-16 0 -2.498e-16
-4.44089e-16 -2.498e-16 0

1.77636e-15 0 0
0 -4.44089e-16 1.38778e-17
0 1.38778e-17 0

0 -4.44089e-16 1.66533e-16
-4.44089e-16 0 2.77556e-17
1.66533e-16 2.77556e-17 0

1.55431e-15 4.3715e-16 -2.22045e-16
4.3715e-16 0 3.46945e-18
-2.22045e-16 3.46945e-18 0

1.55431e-15 -8.46545e-16 2.22045e-16
-8.46545e-16 2.22045e-16 6.93889e-18
2.22045e-16 6.93889e-18 0

0 -1.88738e-15 -1.11022e-16
-1.88738e-15 4.44089e-16 2.08167e-16
-1.11022e-16 2.08167e-16 0

0 -2.22045e-16 5.55112e-17
-2.22045e-16 0 2.01228e-16
5.55112e-17 2.01228e-16 0

1.77636e-15 3.46945e-17 -3.61112e-34
3.46945e-17 0 -2.27249e-16
-3.61112e-34 -2.27249e-16 0

0 7.49401e-16 1.38778e-16
7.49401e-16 0 -1.38778e-17
1.38778e-16 -1.38778e-17 0

0 2.77556e-17 3.33067e-16
2.77556e-17 0 0
3.33067e-16 0 0

-2.10942e-15 2.34188e-17 9.71445e-17
2.34188e-17 0 2.60209e-18
9.71445e-17 2.60209e-18 0

-2.22045e-16 1.80411e-16 -5.55112e-17
1.80411e-16 0 2.77556e-17
-5.55112e-17 2.77556e-17 2.22045e-16

-1.77636e-15 0 -5.55112e-17
0 0 -1.38778e-17
-5.55112e-17 -1.38778e-17 0

0 1.11022e-16 5.55112e-17
1.11022e-16 0 -1.38778e-16
5.55112e-17 -1.38778e-16 0

0 0 -1.11022e-16
0 0 5.55112e-17
-1.11022e-16 5.55112e-17 0

0 0 1.11022e-16
0 0 0
1.11022e-16 0 0

0 -8.88178e-16 1.11022e-16
-8.88178e-16 0 2.23779e-16
1.11022e-16 2.23779e-16 2.22045e-16

1.77636e-15 -2.22045e-16 -1.11022e-16
-2.22045e-16 1.11022e-15 2.22045e-16
-1.11022e-16 2.22045e-16 2.22045e-16

-1.77636e-15 -2.22045e-16 -1.11022e-16
-2.22045e-16 0 1.73472e-18
-1.11022e-16 1.73472e-18 0

0 0 -1.66533e-16
0 2.22045e-16 0
-1.66533e-16 0 2.22045e-16

1.33227e-15 -6.93889e-16 -1.38778e-16
-6.93889e-16 -2.22045e-16 -1.38778e-17
-1.38778e-16 -1.38778e-17 0

4.44089e-16 1.27676e-15 2.77556e-17
1.27676e-15 -6.66134e-16 -4.16334e-16
2.77556e-17 -4.16334e-16 0

-8.88178e-16 -6.93889e-17 -2.22045e-16
-6.93889e-17 0 -1.12757e-16
-2.22045e-16 -1.12757e-16 0

1.55431e-15 0 2.22045e-16
0 0 2.08167e-17
2.22045e-16 2.08167e-17 0

1.55431e-15 0 -2.77556e-17
0 0 -1.38778e-17
-2.77556e-17 -1.38778e-17 0

0 1.33227e-15 0
1.33227e-15 -8.88178e-16 -2.08167e-16
0 -2.08167e-16 0

0 0 5.55112e-16
0 0 6.93889e-17
5.55112e-16 6.93889e-17 2.22045e-16

0 0 2.22045e-16
0 0 -6.93889e-18
2.22045e-16 -6.93889e-18 0

0 -1.38778e-17 1.11022e-16
-1.38778e-17 0 1.80411e-16
1.11022e-16 1.80411e-16 0

0 7.63278e-17 5.55112e-17
7.63278e-17 -3.33067e-16 3.747e-16
5.55112e-17 3.747e-16 0

-1.77636e-15 0 5.55112e-17
0 0 1.73472e-17
5.55112e-17 1.73472e-17 0

8.88178e-16 0 1.11022e-16
0 0 -2.77556e-16
1.11022e-16 -2.77556e-16 0

8.88178e-16 -4.44089e-16 1.11022e-16
-4.44089e-16 0 2.77556e-16
1.11022e-16 2.77556e-16 0

-1.44329e-15 -5.55112e-17 2.77556e-16
-5.55112e-17 0 0
2.77556e-16 0 2.22045e-16

8.88178e-16 -1.97215e-31 -1.11022e-16
-1.97215e-31 -1.11022e-16 4.57967e-16
-1.11022e-16 4.57967e-16 2.22045e-16

0 1.38778e-17 1.11022e-16
1.38778e-17 0 -2.27249e-16
1.11022e-16 -2.27249e-16 0

0 -1.11022e-16 5.55112e-17
-1.11022e-16 8.88178e-16 1.94289e-16
5.55112e-17 1.94289e-16 0

0 7.77156e-16 -2.22045e-16
7.77156e-16 6.66134e-16 -2.63678e-16
-2.22045e-16 -2.63678e-16 0

0 8.88178e-16 -1.77636e-15
8.88178e-16 0 2.77556e-17
-1.77636e-15 2.77556e-17 0

0 -1.77636e-15 -1.72085e-15
-1.77636e-15 0 -2.77556e-17
-1.72085e-15 -2.77556e-17 2.22045e-16

1.77636e-15 3.33067e-16 -2.77556e-16
3.33067e-16 2.22045e-16 1.38778e-17
-2.77556e-16 1.38778e-17 0

0 4.44089e-16 -2.77556e-17
4.44089e-16 -1.11022e-16 -6.93889e-18
-2.77556e-17 -6.93889e-18 0

0 0 -1.66533e-16
0 -1.11022e-16 6.93889e-18
-1.66533e-16 6.93889e-18 0

0 -4.44089e-16 2.77556e-16
-4.44089e-16 -4.44089e-16 -4.16334e-17
2.77556e-16 -4.16334e-17 2.22045e-16

0 6.66134e-16 5.55112e-17
6.66134e-16 0 -2.77556e-17
5.55112e-17 -2.77556e-17 0

-2.88658e-15 1.38778e-17 1.66533e-16
1.38778e-17 2.22045e-16 0
1.66533e-16 0 2.22045e-16

-4.44089e-16 -3.33067e-16 2.77556e-16
-3.33067e-16 0 1.04951e-16
2.77556e-16 1.04951e-16 0

0 -1.11022e-16 3.33067e-16
-1.11022e-16 0 3.46945e-18
3.33067e-16 3.46945e-18 0

2.22045e-16 1.38778e-17 -3.88578e-16
1.38778e-17 0 2.42861e-16
-3.88578e-16 2.42861e-16 0

5.32907e-15 -3.4972e-15 -6.66134e-16
-3.4972e-15 0 4.30211e-16
-6.66134e-16 4.30211e-16 2.22045e-16

-1.77636e-15 2.498e-15 -1.11022e-16
2.498e-15 6.66134e-16 4.44089e-16
-1.11022e-16 4.44089e-16 0

0 1.2326e-32 1.54074e-33
1.2326e-32 2.22045e-16 9.71445e-17
1.54074e-33 9.71445e-17 2.22045e-16

1.77636e-15 -1.66533e-16 5.55112e-17
-1.66533e-16 2.22045e-16 2.08167e-17
5.55112e-17 2.08167e-17 0

-4.44089e-16 2.22045e-16 5.55112e-17
2.22045e-16 0 2.46519e-32
5.55112e-17 2.46519e-32 2.22045e-16

0 0 -1.11022e-16
0 -1.77636e-15 1.11022e-16
-1.11022e-16 1.11022e-16 0

0 8.88178e-16 5.55112e-17
8.88178e-16 0 -2.77556e-16
5.55112e-17 -2.77556e-16 0

1.77636e-15 -9.15934e-16 3.88578e-16
-9.15934e-16 -1.11022e-16 -1.38778e-17
3.88578e-16 -1.38778e-17 0

2.22045e-16 2.08167e-17 1.38778e-17
2.08167e-17 0 -2.35922e-16
1.38778e-17 -2.35922e-16 0

-1.11022e-16 -8.32667e-16 3.60822e-16
-8.32667e-16 0 -4.93038e-32
3.60822e-16 -4.93038e-32 0

0 2.22045e-16 1.38778e-16
2.22045e-16 2.22045e-16 -3.69779e-32
1.38778e-16 -3.69779e-32 4.44089e-16

0 -4.44089e-16 -5.55112e-17
-4.44089e-16 -1.11022e-16 2.22045e-16
-5.55112e-17 2.22045e-16 0

0 -6.59195e-17 4.16334e-17
-6.59195e-17 0 0
4.16334e-17 0 0

0 3.98986e-17 -1.66533e-16
3.98986e-17 0 0
-1.66533e-16 0 -1.11022e-16

4.44089e-16 1.73472e-18 -1.59595e-16
1.73472e-18 -4.44089e-16 -1.73472e-17
-1.59595e-16 -1.73472e-17 0

-8.88178e-16 -2.22045e-16 2.77556e-17
-2.22045e-16 0 -1.2326e-32
2.77556e-17 -1.2326e-32 0

-1.77636e-15 0 0
0 4.44089e-16 -1.80411e-16
0 -1.80411e-16 0

-4.44089e-16 5.55112e-17 8.32667e-17
5.55112e-17 0 1.11022e-16
8.32667e-17 1.11022e-16 0

0 4.16334e-17 0
4.16334e-17 2.22045e-16 -2.11636e-16
0 -2.11636e-16 0

2.22045e-15 0 5.55112e-17
0 0 2.08167e-17
5.55112e-17 2.08167e-17 0

0 0 -1.94289e-16
0 4.44089e-16 4.16334e-17
-1.94289e-16 4.16334e-17 0

0 -4.44089e-16 -2.22045e-16
-4.44089e-16 0 2.22045e-16
-2.22045e-16 2.22045e-16 2.22045e-16

1.33227e-15 1.11022e-15 -1.66533e-16
1.11022e-15 -6.66134e-16 -2.77556e-17
-1.66533e-16 -2.77556e-17 0

-1.33227e-15 -4.996e-16 -2.77556e-17
-4.996e-16 -2.22045e-16 1.38778e-17
-2.77556e-17 1.38778e-17 0

-1.77636e-15 -5.55112e-17 8.32667e-17
-5.55112e-17 0 3.46945e-18
8.32667e-17 3.46945e-18 0

4.44089e-16 -9.08995e-16 -8.32667e-17
-9.08995e-16 2.22045e-16 -1.38778e-17
-8.32667e-17 -1.38778e-17 0

0 1.77636e-15 3.33067e-16
1.77636e-15 -2.22045e-16 -4.44089e-16
3.33067e-16 -4.44089e-16 0

2.22045e-16 1.94289e-16 -1.11022e-16
1.94289e-16 -2.22045e-16 6.93889e-18
-1.11022e-16 6.93889e-18 2.22045e-16

0 0 5.55112e-17
0 0 1.38778e-17
5.55112e-17 1.38778e-17 0

0 -4.93038e-32 -1.66533e-16
-4.93038e-32 -2.22045e-16 6.93889e-17
-1.66533e-16 6.93889e-17 0

-1.77636e-15 4.44089e-16 -5.55112e-17
4.44089e-16 -4.44089e-16 -2.77556e-17
-5.55112e-17 -2.77556e-17 0

2.22045e-16 5.04805e-16 2.46519e-32
5.04805e-16 0 5.20417e-18
2.46519e-32 5.20417e-18 0

-1.77636e-15 -8.88178e-16 1.66533e-16
-8.88178e-16 4.44089e-16 -5.55112e-17
1.66533e-16 -5.55112e-17 2.22045e-16

1.55431e-15 0 -2.22045e-16
0 -2.22045e-16 0
-2.22045e-16 0 0

0 -2.77556e-17 8.32667e-17
-2.77556e-17 0 -4.3715e-16
8.32667e-17 -4.3715e-16 0

0 -1.11022e-16 5.55112e-16
-1.11022e-16 4.44089e-16 6.245e-17
5.55112e-16 6.245e-17 2.22045e-16

0 0 -1.11022e-16
0 0 -6.93889e-18
-1.11022e-16 -6.93889e-18 0

0 5.55112e-17 -1.11022e-16
5.55112e-17 0 -6.93889e-18
-1.11022e-16 -6.93889e-18 0

0 8.88178e-16 -1.11022e-16
8.88178e-16 0 0
-1.11022e-16 0 0

0 -7.77156e-16 -1.11022e-16
-7.77156e-16 6.66134e-16 -5.55112e-17
-1.11022e-16 -5.55112e-17 0

0 0 2.22045e-16
0 4.44089e-16 -6.93889e-18
2.22045e-16 -6.93889e-18 0

8.88178e-16 0 1.11022e-16
0 0 -2.28983e-16
1.11022e-16 -2.28983e-16 0

4.44089e-16 9.02056e-16 -2.22045e-16
9.02056e-16 -2.22045e-16 -4.44089e-16
-2.22045e-16 -4.44089e-16 0

-2.22045e-16 -2.77556e-17 -1.38778e-16
-2.77556e-17 -2.22045e-16 0
-1.38778e-16 0 0

0 0 0
0 2.22045e-16 6.93889e-18
0 6.93889e-18 0

1.77636e-15 -2.22045e-16 -4.44089e-16
-2.22045e-16 0 -2.77556e-17
-4.44089e-16 -2.77556e-17 0

-8.88178e-16 1.55431e-15 5.55112e-17
1.55431e-15 0 2.77556e-17
5.55112e-17 2.77556e-17 0

0 -7.77156e-16 -2.498e-16
-7.77156e-16 -1.11022e-16 3.29597e-16
-2.498e-16 3.29597e-16 0

2.22045e-16 5.55112e-17 2.77556e-17
5.55112e-17 2.22045e-16 -5.55112e-17
2.77556e-17 -5.55112e-17 0

0 -6.93889e-18 5.55112e-17
-6.93889e-18 0 8.67362e-19
5.55112e-17 8.67362e-19 0

4.44089e-16 -5.55112e-17 1.11022e-16
-5.55112e-17 0 2.77556e-17
1.11022e-16 2.77556e-17 0

0 0 3.33067e-16
0 0 0
3.33067e-16 0 0

0 0 5.55112e-17
0 0 0
5.55112e-17 0 0

0 4.44089e-16 1.66533e-16
4.44089e-16 0 6.93889e-17
1.66533e-16 6.93889e-17 0

1.33227e-15 0 -2.77556e-16
0 -2.22045e-16 -1.38778e-17
-2.77556e-16 -1.38778e-17 2.22045e-16

-1.33227e-15 2.77556e-17 2.22045e-16
2.77556e-17 0 6.93889e-17
2.22045e-16 6.93889e-17 2.22045e-16

0 2.77556e-17 -2.22045e-16
2.77556e-17 0 3.25261e-19
-2.22045e-16 3.25261e-19 2.22045e-16

-1.77636e-15 -4.44089e-16 5.55112e-17
-4.44089e-16 0 -2.01228e-16
5.55112e-17 -2.01228e-16 0

0 -1.11022e-16 -2.22045e-16
-1.11022e-16 0 -5.55112e-17
-2.22045e-16 -5.55112e-17 0

0 -5.55112e-17 -2.498e-16
-5.55112e-17 6.66134e-16 -6.93889e-18
-2.498e-16 -6.93889e-18 0

1.77636e-15 -2.77556e-16 1.66533e-16
-2.77556e-16 0 5.55112e-17
1.66533e-16 5.55112e-17 0

0 4.93038e-32 2.22045e-16
4.93038e-32 0 1.73472e-16
2.22045e-16 1.73472e-16 0

0 8.60423e-16 5.55112e-17
8.60423e-16 0 6.93889e-18
5.55112e-17 6.93889e-18 0

-4.44089e-16 0 3.88578e-16
0 0 -2.77556e-17
3.88578e-16 -2.77556e-17 0

0 0 -5.55112e-17
0 0 -1.07553e-16
-5.55112e-17 -1.07553e-16 0

-8.88178e-16 8.88178e-16 2.22045e-16
8.88178e-16 4.44089e-16 2.08167e-17
2.22045e-16 2.08167e-17 0

0 0 1.11022e-16
0 0 0
1.11022e-16 0 2.22045e-16

0 6.66134e-16 5.55112e-17
6.66134e-16 4.44089e-16 -2.77556e-16
5.55112e-17 -2.77556e-16 2.22045e-16

1.77636e-15 4.44089e-16 4.44089e-16
4.44089e-16 0 -1.94289e-16
4.44089e-16 -1.94289e-16 0

0 8.32667e-16 -1.94289e-16
8.32667e-16 0 -2.42861e-16
-1.94289e-16 -2.42861e-16 2.22045e-16

-2.22045e-16 -5.55112e-17 8.32667e-17
-5.55112e-17 0 2.25514e-16
8.32667e-17 2.25514e-16 2.22045e-16

0 -5.55112e-17 1.94289e-16
-5.55112e-17 0 0
1.94289e-16 0 0

0 2.22045e-16 2.77556e-17
2.22045e-16 -8.88178e-16 -2.498e-16
2.77556e-17 -2.498e-16 0

0 0 -2.46519e-32
0 0 2.77556e-17
-2.46519e-32 2.77556e-17 -1.11022e-16

0 0 -1.11022e-16
0 0 6.93889e-17
-1.11022e-16 6.93889e-17 0

-8.88178e-16 5.55112e-17 1.66533e-16
5.55112e-17 0 1.73472e-18
1.66533e-16 1.73472e-18 0

-8.88178e-16 0 -4.44089e-16
0 4.44089e-16 2.77556e-17
-4.44089e-16 2.77556e-17 4.44089e-16

8.88178e-16 1.80411e-16 8.32667e-17
1.80411e-16 0 -6.93889e-17
8.32667e-17 -6.93889e-17 0

0 -9.29812e-16 -8.32667e-17
-9.29812e-16 -2.22045e-16 3.19189e-16
-8.32667e-17 3.19189e-16 0

0 -5.55112e-17 2.77556e-17
-5.55112e-17 -2.22045e-16 2.08167e-17
2.77556e-17 2.08167e-17 0

-1.11022e-16 1.38778e-17 -1.38778e-16
1.38778e-17 -4.44089e-16 -5.55112e-17
-1.38778e-16 -5.55112e-17 -1.11022e-16

2.22045e-16 -1.38778e-17 -2.77556e-17
-1.38778e-17 -4.44089e-16 0
-2.77556e-17 0 0

-1.77636e-15 1.11022e-16 -1.66533e-16
1.11022e-16 -2.22045e-16 2.08167e-16
-1.66533e-16 2.08167e-16 0

-4.44089e-16 -4.71845e-16 -1.66533e-16
-4.71845e-16 0 -4.93038e-32
-1.66533e-16 -4.93038e-32 2.22045e-16

0 1.05471e-15 -2.22045e-16
1.05471e-15 -4.44089e-16 -1.38778e-17
-2.22045e-16 -1.38778e-17 -1.11022e-16

0 0 0
0 0 -4.30211e-16
0 -4.30211e-16 0

0 -8.88178e-16 -5.55112e-17
-8.88178e-16 2.22045e-16 4.85723e-16
-5.55112e-17 4.85723e-16 0

0 6.66134e-16 4.44089e-16
6.66134e-16 -1.11022e-16 3.46945e-18
4.44089e-16 3.46945e-18 0

-1.77636e-15 0 2.77556e-16
0 -4.44089e-16 1.38778e-17
2.77556e-16 1.38778e-17 0

0 -5.55112e-16 5.55112e-17
-5.55112e-16 0 -9.71445e-17
5.55112e-17 -9.71445e-17 0

-1.9984e-15 1.80411e-16 1.11022e-16
1.80411e-16 -4.44089e-16 3.46945e-17
1.11022e-16 3.46945e-17 0

1.33227e-15 6.66134e-16 -1.38778e-16
6.66134e-16 0 -2.77556e-17
-1.38778e-16 -2.77556e-17 4.44089e-16

0 2.22045e-16 -5.55112e-17
2.22045e-16 -6.66134e-16 -1.38778e-17
-5.55112e-17 -1.38778e-17 0

0 7.21645e-16 1.11022e-16
7.21645e-16 -6.66134e-16 -3.05311e-16
1.11022e-16 -3.05311e-16 0

8.88178e-16 1.11022e-16 -1.11022e-16
1.11022e-16 -1.11022e-16 1.38778e-16
-1.11022e-16 1.38778e-16 0

0 2.22045e-16 1.84889e-32
2.22045e-16 -5.55112e-16 1.52656e-16
1.84889e-32 1.52656e-16 0

-8.88178e-16 4.44089e-16 5.55112e-17
4.44089e-16 2.22045e-16 -1.66533e-16
5.55112e-17 -1.66533e-16 0

0 0 5.55112e-17
0 0 -2.15106e-16
5.55112e-17 -2.15106e-16 0

0 1.11022e-16 0
1.11022e-16 -2.22045e-16 2.35922e-16
0 2.35922e-16 0

0 -9.86076e-32 3.88578e-16
-9.86076e-32 -1.11022e-16 -2.19443e-16
3.88578e-16 -2.19443e-16 0

0 0 0
0 -2.22045e-16 1.38778e-17
0 1.38778e-17 0

0 0 1.66533e-16
0 -2.22045e-16 2.22045e-16
1.66533e-16 2.22045e-16 0

0 0 1.11022e-16
0 0 -1.38778e-17
1.11022e-16 -1.38778e-17 2.22045e-16

-1.77636e-15 1.05471e-15 3.05311e-16
1.05471e-15 -3.33067e-16 -1.94289e-16
3.05311e-16 -1.94289e-16 0

-1.77636e-15 -4.44089e-16 3.88578e-16
-4.44089e-16 0 -2.77556e-17
3.88578e-16 -2.77556e-17 -1.11022e-16

-1.77636e-15 -9.86076e-32 2.77556e-16
-9.86076e-32 -4.44089e-16 -2.08167e-16
2.77556e-16 -2.08167e-16 0

-8.88178e-16 -4.44089e-16 0
-4.44089e-16 -1.11022e-16 4.4062e-16
0 4.4062e-16 0

-1.77636e-15 -1.67921e-15 5.55112e-16
-1.67921e-15 0 6.93889e-18
5.55112e-16 6.93889e-18 0

-2.22045e-16 8.45678e-18 -1.52656e-16
8.45678e-18 0 -7.80626e-18
-1.52656e-16 -7.80626e-18 0

0 1.11022e-16 0
1.11022e-16 -2.22045e-16 -1.94289e-16
0 -1.94289e-16 0

-3.55271e-15 -4.44089e-16 1.30451e-15
-4.44089e-16 0 -2.77556e-17
1.30451e-15 -2.77556e-17 0

0 -7.88861e-31 4.71845e-16
-7.88861e-31 0 -9.02056e-16
4.71845e-16 -9.02056e-16 0

1.77636e-15 2.77556e-17 -2.498e-16
2.77556e-17 -2.22045e-16 -2.77556e-17
-2.498e-16 -2.77556e-17 0

1.77636e-15 -1.77636e-15 -3.33067e-16
-1.77636e-15 0 -3.9443e-31
-3.33067e-16 -3.9443e-31 -1.11022e-16

3.55271e-15 2.22045e-16 5.55112e-17
2.22045e-16 0 -4.44089e-16
5.55112e-17 -4.44089e-16 0

0 1.29237e-15 3.80672e-34
1.29237e-15 -2.22045e-16 -2.26815e-16
3.80672e-34 -2.26815e-16 0

8.88178e-16 4.93038e-32 -5.55112e-17
4.93038e-32 0 -2.91434e-16
-5.55112e-17 -2.91434e-16 0

4.44089e-16 -3.46945e-18 5.55112e-17
-3.46945e-18 0 -3.46945e-18
5.55112e-17 -3.46945e-18 0

0 1.66533e-16 0
1.66533e-16 2.22045e-16 -2.84495e-16
0 -2.84495e-16 2.22045e-16

0 -7.91034e-16 -5.55112e-17
-7.91034e-16 0 6.93889e-18
-5.55112e-17 6.93889e-18 0

0 -8.32667e-17 8.32667e-17
-8.32667e-17 2.22045e-16 6.93889e-18
8.32667e-17 6.93889e-18 2.22045e-16

-8.88178e-16 8.32667e-16 8.32667e-17
8.32667e-16 -1.11022e-16 -1.40513e-16
8.32667e-17 -1.40513e-16 0

8.88178e-16 4.44089e-16 -1.66533e-16
4.44089e-16 0 2.77556e-17
-1.66533e-16 2.77556e-17 0

0 8.32667e-17 -1.11022e-16
8.32667e-17 0 6.93889e-18
-1.11022e-16 6.93889e-18 0

8.88178e-16 -9.86076e-32 -1.66533e-16
-9.86076e-32 0 2.23779e-16
-1.66533e-16 2.23779e-16 0

1.77636e-15 1.77636e-15 -1.11022e-16
1.77636e-15 -1.77636e-15 -4.44089e-16
-1.11022e-16 -4.44089e-16 0

0 0 -1.11022e-16
0 0 -1.11022e-16
-1.11022e-16 -1.11022e-16 0

0 -1.38778e-15 -1.11022e-16
-1.38778e-15 -3.33067e-16 -1.38778e-17
-1.11022e-16 -1.38778e-17 0

0 -2.77556e-17 2.22045e-16
-2.77556e-17 0 0
2.22045e-16 0 0

4.44089e-16 -9.86076e-32 1.94289e-16
-9.86076e-32 4.44089e-16 -2.22045e-16
1.94289e-16 -2.22045e-16 2.22045e-16

0 0 8.32667e-17
0 0 -2.22045e-16
8.32667e-17 -2.22045e-16 0

8.88178e-16 2.48065e-16 -5.55112e-17
2.48065e-16 -1.11022e-16 2.2031e-16
-5.55112e-17 2.2031e-16 0

-1.77636e-15 -2.22045e-16 2.22045e-16
-2.22045e-16 -2.22045e-16 -2.35922e-16
2.22045e-16 -2.35922e-16 2.22045e-16

1.77636e-15 0 -2.77556e-17
0 0 -3.46945e-17
-2.77556e-17 -3.46945e-17 0

8.88178e-16 1.77636e-15 5.27356e-16
1.77636e-15 0 -9.08995e-16
5.27356e-16 -9.08995e-16 0

8.88178e-16 1.80411e-16 1.11022e-16
1.80411e-16 0 -5.55112e-17
1.11022e-16 -5.55112e-17 0

0 4.44089e-16 1.11022e-16
4.44089e-16 -3.33067e-16 -1.38778e-16
1.11022e-16 -1.38778e-16 0

-3.55271e-15 -1.11022e-16 4.44089e-16
-1.11022e-16 -1.11022e-16 -2.22045e-16
4.44089e-16 -2.22045e-16 0

0 0 0
0 0 -6.93889e-18
0 -6.93889e-18 0

-1.55431e-15 1.66533e-16 -1.66533e-16
1.66533e-16 0 2.91434e-16
-1.66533e-16 2.91434e-16 2.22045e-16

0 -5.55112e-17 5.55112e-17
-5.55112e-17 0 -4.44089e-16
5.55112e-17 -4.44089e-16 0

0 -2.22045e-16 0
-2.22045e-16 6.66134e-16 1.11022e-16
0 1.11022e-16 0

0 -7.77156e-16 3.88578e-16
-7.77156e-16 -2.22045e-16 -1.38778e-17
3.88578e-16 -1.38778e-17 0

-4.44089e-16 4.44089e-16 1.66533e-16
4.44089e-16 1.77636e-15 1.11022e-16
1.66533e-16 1.11022e-16 0

-4.44089e-16 8.88178e-16 -1.11022e-16
8.88178e-16 -8.88178e-16 -9.4369e-16
-1.11022e-16 -9.4369e-16 0

0 0 -5.55112e-17
0 -2.22045e-16 0
-5.55112e-17 0 0

0 0 2.77556e-17
0 0 3.46945e-18
2.77556e-17 3.46945e-18 0

0 -1.55431e-15 4.44089e-16
-1.55431e-15 0 4.57967e-16
4.44089e-16 4.57967e-16 0

0 -8.88178e-16 -8.32667e-16
-8.88178e-16 0 6.90253e-31
-8.32667e-16 6.90253e-31 0

0 6.66134e-16 -4.996e-16
6.66134e-16 -2.22045e-16 -4.16334e-17
-4.996e-16 -4.16334e-17 0

3.55271e-15 2.22045e-16 -3.88578e-16
2.22045e-16 0 -6.93889e-17
-3.88578e-16 -6.93889e-17 0

4.44089e-16 -1.11022e-16 -4.44089e-16
-1.11022e-16 0 0
-4.44089e-16 0 2.22045e-16

4.44089e-16 1.11022e-16 -4.71845e-16
1.11022e-16 0 0
-4.71845e-16 0 2.22045e-16

0 7.77156e-16 -1.38778e-16
7.77156e-16 -8.88178e-16 -2.46519e-31
-1.38778e-16 -2.46519e-31 2.22045e-16

6.66134e-16 1.97215e-31 5.55112e-17
1.97215e-31 4.44089e-16 4.16334e-16
5.55112e-17 4.16334e-16 0

0 1.11022e-16 4.62223e-33
1.11022e-16 0 1.31839e-16
4.62223e-33 1.31839e-16 2.22045e-16

-1.55431e-15 -8.88178e-16 9.86076e-32
-8.88178e-16 0 -1.38778e-17
9.86076e-32 -1.38778e-17 2.22045e-16

-4.44089e-16 8.88178e-16 1.11022e-16
8.88178e-16 -4.44089e-16 6.93889e-18
1.11022e-16 6.93889e-18 -2.22045e-16

0 0 -5.55112e-17
0 -8.88178e-16 0
-5.55112e-17 0 2.22045e-16

4.44089e-16 1.38778e-17 1.66533e-16
1.38778e-17 0 1.38778e-17
1.66533e-16 1.38778e-17 0

1.77636e-15 -5.55112e-16 1.94289e-16
-5.55112e-16 4.44089e-16 4.85723e-17
1.94289e-16 4.85723e-17 2.22045e-16

0 0 1.45717e-16
0 0 -1.38778e-17
1.45717e-16 -1.38778e-17 2.22045e-16

-2.66454e-15 3.33067e-16 -1.11022e-16
3.33067e-16 -8.88178e-16 -2.77556e-17
-1.11022e-16 -2.77556e-17 0

0 1.77636e-15 5.55112e-17
1.77636e-15 8.88178e-16 1.38778e-17
5.55112e-17 1.38778e-17 0

-3.55271e-15 0 -5.55112e-17
0 0 6.93889e-18
-5.55112e-17 6.93889e-18 0

-8.88178e-16 6.66134e-16 -6.66134e-16
6.66134e-16 2.66454e-15 -6.10623e-16
-6.66134e-16 -6.10623e-16 0

-3.55271e-15 -1.97215e-31 -2.22045e-16
-1.97215e-31 -3.55271e-15 4.71845e-16
-2.22045e-16 4.71845e-16 0

0 -4.44089e-16 -8.32667e-17
-4.44089e-16 4.44089e-16 7.39557e-32
-8.32667e-17 7.39557e-32 0

-1.55431e-15 -9.22873e-16 1.66533e-16
-9.22873e-16 2.22045e-16 -4.85723e-17
1.66533e-16 -4.85723e-17 0

-8.88178e-16 -4.44089e-16 -5.55112e-17
-4.44089e-16 -2.22045e-16 2.08167e-17
-5.55112e-17 2.08167e-17 0

0 0 -2.22045e-16
0 0 -6.93889e-18
-2.22045e-16 -6.93889e-18 0

-1.77636e-15 -9.08995e-16 4.33334e-34
-9.08995e-16 4.44089e-16 -1.04083e-17
4.33334e-34 -1.04083e-17 0

0 -8.60423e-16 0
-8.60423e-16 -1.11022e-16 -7.97973e-17
0 -7.97973e-17 0

-7.77156e-16 -2.77556e-17 4.44089e-16
-2.77556e-17 -4.44089e-16 4.75314e-16
4.44089e-16 4.75314e-16 0

-2.22045e-16 9.4369e-16 -8.32667e-17
9.4369e-16 0 -1.04083e-17
-8.32667e-17 -1.04083e-17 2.22045e-16

0 0 1.11022e-16
0 0 6.93889e-18
1.11022e-16 6.93889e-18 0

-2.22045e-16 -8.84709e-17 4.16334e-17
-8.84709e-17 0 -4.02456e-16
4.16334e-17 -4.02456e-16 0

0 -4.33681e-17 1.52656e-16
-4.33681e-17 4.44089e-16 6.93889e-18
1.52656e-16 6.93889e-18 0

0 -2.77556e-17 -1.66533e-16
-2.77556e-17 0 -4.02456e-16
-1.66533e-16 -4.02456e-16 0

-1.77636e-15 2.498e-16 2.22045e-16
2.498e-16 0 -4.57967e-16
2.22045e-16 -4.57967e-16 0

7.10543e-15 -8.95734e-16 -5.55112e-17
-8.95734e-16 -1.88738e-15 -3.55357e-16
-5.55112e-17 -3.55357e-16 0

0 -3.51551e-15 3.33067e-16
-3.51551e-15 -1.88738e-15 -3.37458e-17
3.33067e-16 -3.37458e-17 0

8.88178e-16 8.88178e-16 -2.22045e-16
8.88178e-16 0 1.38778e-17
-2.22045e-16 1.38778e-17 0

0 -6.66134e-16 1.66533e-16
-6.66134e-16 0 4.85723e-17
1.66533e-16 4.85723e-17 0

8.88178e-16 1.73472e-17 4.30211e-16
1.73472e-17 6.66134e-16 4.44089e-16
4.30211e-16 4.44089e-16 0

1.55431e-15 6.52256e-16 -4.02456e-16
6.52256e-16 2.22045e-16 -2.08167e-17
-4.02456e-16 -2.08167e-17 0

0 4.44089e-16 0
4.44089e-16 4.44089e-16 -2.08167e-16
0 -2.08167e-16 0

0 7.77156e-16 1.66533e-16
7.77156e-16 0 -2.77556e-17
1.66533e-16 -2.77556e-17 0

0 -3.88578e-16 -5.55112e-17
-3.88578e-16 0 4.44089e-16
-5.55112e-17 4.44089e-16 -1.11022e-16

0 0 -5.55112e-17
0 -3.33067e-16 -5.55112e-17
-5.55112e-17 -5.55112e-17 2.22045e-16

0 -1.66533e-16 0
-1.66533e-16 -2.22045e-16 1.11022e-16
0 1.11022e-16 0

-2.22045e-16 -2.77556e-17 1.11022e-16
-2.77556e-17 8.88178e-16 -2.77556e-17
1.11022e-16 -2.77556e-17 0

-1.11022e-16 0 1.94289e-16
0 -2.22045e-16 1.38778e-17
1.94289e-16 1.38778e-17 0

1.33227e-15 -2.77556e-17 -2.77556e-17
-2.77556e-17 0 -2.77556e-17
-2.77556e-17 -2.77556e-17 -1.11022e-16

3.10862e-15 0 -1.11022e-16
0 4.44089e-16 -5.55112e-17
-1.11022e-16 -5.55112e-17 0

-3.55271e-15 -3.88578e-16 3.45127e-31
-3.88578e-16 -4.44089e-16 6.93889e-17
3.45127e-31 6.93889e-17 0

0 -4.44089e-16 -1.11022e-16
-4.44089e-16 0 -6.93889e-18
-1.11022e-16 -6.93889e-18 2.22045e-16

1.55431e-15 1.94289e-16 -2.77556e-17
1.94289e-16 0 1.38778e-17
-2.77556e-17 1.38778e-17 0

2.22045e-16 2.77556e-17 1.94289e-16
2.77556e-17 4.44089e-16 0
1.94289e-16 0 0

0 1.33227e-15 -5.55112e-17
1.33227e-15 0 -8.32667e-17
-5.55112e-17 -8.32667e-17 0

3.55271e-15 -1.33227e-15 5.55112e-17
-1.33227e-15 0 8.32667e-17
5.55112e-17 8.32667e-17 0

0 1.11022e-16 2.77556e-16
1.11022e-16 0 1.38778e-17
2.77556e-16 1.38778e-17 2.22045e-16

3.55271e-15 2.77556e-17 -1.11022e-16
2.77556e-17 0 -4.44089e-16
-1.11022e-16 -4.44089e-16 0

-1.77636e-15 -7.77156e-16 4.996e-16
-7.77156e-16 4.44089e-16 -4.02456e-16
4.996e-16 -4.02456e-16 0

1.77636e-15 -8.88178e-16 -8.32667e-17
-8.88178e-16 0 -4.30211e-16
-8.32667e-17 -4.30211e-16 0

0 -1.66533e-16 8.32667e-17
-1.66533e-16 -7.77156e-16 1.249e-16
8.32667e-17 1.249e-16 2.22045e-16

0 8.60423e-16 1.11022e-16
8.60423e-16 -2.22045e-16 -2.22045e-16
1.11022e-16 -2.22045e-16 0

-8.88178e-16 0 0
0 -2.22045e-16 0
0 0 0

0 -4.44089e-16 -4.71845e-16
-4.44089e-16 0 0
-4.71845e-16 0 0

0 2.22045e-16 -4.71845e-16
2.22045e-16 0 0
-4.71845e-16 0 0

0 1.11022e-16 0
1.11022e-16 0 8.32667e-17
0 8.32667e-17 0

0 7.77156e-16 4.71845e-16
7.77156e-16 0 4.16334e-17
4.71845e-16 4.16334e-17 0

1.77636e-15 8.88178e-16 -5.55112e-17
8.88178e-16 -4.44089e-16 2.08167e-16
-5.55112e-17 2.08167e-16 2.22045e-16

0 1.97215e-31 -5.55112e-16
1.97215e-31 0 -2.35922e-16
-5.55112e-16 -2.35922e-16 0

1.11022e-15 3.88578e-16 -1.38778e-16
3.88578e-16 -2.22045e-16 6.93889e-17
-1.38778e-16 6.93889e-17 0

0 -8.88178e-16 -8.32667e-17
-8.88178e-16 4.44089e-16 5.55112e-17
-8.32667e-17 5.55112e-17 2.22045e-16

8.88178e-16 1.66533e-16 5.55112e-17
1.66533e-16 0 6.93889e-18
5.55112e-17 6.93889e-18 0

-8.88178e-16 6.66134e-16 -1.66533e-16
6.66134e-16 0 4.93038e-32
-1.66533e-16 4.93038e-32 0

1.77636e-15 8.60423e-16 2.77556e-17
8.60423e-16 0 1.73472e-18
2.77556e-17 1.73472e-18 0

1.55431e-15 -8.60423e-16 1.11022e-16
-8.60423e-16 0 -5.55112e-17
1.11022e-16 -5.55112e-17 0

0 5.55112e-16 -5.55112e-17
5.55112e-16 0 -4.93038e-32
-5.55112e-17 -4.93038e-32 0

0 -8.32667e-17 1.66533e-16
-8.32667e-17 0 0
1.66533e-16 0 0

4.44089e-16 -4.44089e-16 -4.996e-16
-4.44089e-16 0 1.38778e-17
-4.996e-16 1.38778e-17 0

0 0 -2.77556e-17
0 4.44089e-16 4.57967e-16
-2.77556e-17 4.57967e-16 0

0 6.66134e-16 0
6.66134e-16 0 1.11022e-16
0 1.11022e-16 0

0 6.66134e-16 5.55112e-16
6.66134e-16 -1.11022e-16 -3.19189e-16
5.55112e-16 -3.19189e-16 0

-5.55112e-16 4.85723e-17 -1.2326e-31
4.85723e-17 -2.22045e-16 -6.93889e-18
-1.2326e-31 -6.93889e-18 0

0 2.77556e-16 5.55112e-17
2.77556e-16 -2.22045e-16 -4.42354e-16
5.55112e-17 -4.42354e-16 0

0 -1.11022e-16 -5.55112e-17
-1.11022e-16 2.22045e-16 -1.38778e-17
-5.55112e-17 -1.38778e-17 0

0 2.22045e-16 -1.11022e-16
2.22045e-16 4.44089e-16 2.63678e-16
-1.11022e-16 2.63678e-16 0

0 -1.66533e-15 -4.44089e-16
-1.66533e-15 2.22045e-16 -2.77556e-17
-4.44089e-16 -2.77556e-17 2.22045e-16

0 -1.38778e-15 1.11022e-16
-1.38778e-15 -1.55431e-15 -1.66533e-16
1.11022e-16 -1.66533e-16 0

1.77636e-15 6.66134e-16 8.32667e-17
6.66134e-16 0 -1.52656e-16
8.32667e-17 -1.52656e-16 0

0 -1.11022e-16 -4.996e-16
-1.11022e-16 2.22045e-16 -2.91434e-16
-4.996e-16 -2.91434e-16 2.22045e-16

0 -2.22045e-16 -5.55112e-17
-2.22045e-16 -4.44089e-16 1.73472e-16
-5.55112e-17 1.73472e-16 2.22045e-16

0 0 -5.55112e-17
0 -4.44089e-16 0
-5.55112e-17 0 0

0 1.77636e-15 5.55112e-17
1.77636e-15 4.44089e-16 5.55112e-17
5.55112e-17 5.55112e-17 0

1.77636e-15 2.22045e-16 -2.22045e-16
2.22045e-16 4.44089e-16 0
-2.22045e-16 0 0

0 0 0
0 0 0
0 0 0

3.55271e-15 -2.66454e-15 -2.77556e-17
-2.66454e-15 -4.44089e-16 -9.15934e-16
-2.77556e-17 -9.15934e-16 0

0 0 0
0 0 1.38778e-17
0 1.38778e-17 0

0 0 -2.77556e-17
0 0 8.32667e-16
-2.77556e-17 8.32667e-16 0

-1.77636e-15 -2.22045e-16 0
-2.22045e-16 0 0
0 0 0

-3.55271e-15 0 -1.11022e-16
0 8.88178e-16 -5.55112e-17
-1.11022e-16 -5.55112e-17 2.22045e-16

0 0 -2.77556e-16
0 4.44089e-16 4.57967e-16
-2.77556e-16 4.57967e-16 2.22045e-16

8.88178e-16 0 -5.55112e-17
0 1.77636e-15 -5.55112e-17
-5.55112e-17 -5.55112e-17 2.22045e-16

0 -1.77636e-15 1.66533e-15
-1.77636e-15 0 0
1.66533e-15 0 0

7.10543e-15 -3.9968e-15 -3.58047e-15
-3.9968e-15 -1.33227e-15 4.44089e-16
-3.58047e-15 4.44089e-16 2.22045e-16

-4.44089e-16 5.55112e-16 1.9984e-15
5.55112e-16 4.44089e-16 -1.33227e-15
1.9984e-15 -1.33227e-15 0

2.13163e-14 8.88178e-16 -3.58047e-15
8.88178e-16 -5.32907e-15 -8.60423e-16
-3.58047e-15 -8.60423e-16 0

1.33227e-15 0 -4.71845e-16
0 0 1.38778e-17
-4.71845e-16 1.38778e-17 2.22045e-16

0 -1.97215e-31 -4.44089e-16
-1.97215e-31 0 2.22045e-16
-4.44089e-16 2.22045e-16 0

-4.44089e-16 0 0
0 0 -2.77556e-17
0 -2.77556e-17 0

0 0 4.16334e-16
0 0 0
4.16334e-16 0 2.22045e-16

0 4.44089e-16 2.77556e-17
4.44089e-16 8.88178e-16 0
2.77556e-17 0 0

-4.44089e-16 1.11022e-16 -2.77556e-17
1.11022e-16 0 2.77556e-17
-2.77556e-17 2.77556e-17 0

-1.77636e-15 -5.55112e-16 -5.55112e-17
-5.55112e-16 -1.11022e-16 1.2326e-32
-5.55112e-17 1.2326e-32 2.22045e-16

-8.88178e-16 -8.88178e-16 4.16334e-16
-8.88178e-16 0 1.66533e-16
4.16334e-16 1.66533e-16 0

0 1.11022e-16 -5.55112e-17
1.11022e-16 -1.11022e-16 2.77556e-17
-5.55112e-17 2.77556e-17 2.22045e-16

0 0 -2.77556e-17
0 0 1.94289e-16
-2.77556e-17 1.94289e-16 -1.11022e-16

0 -4.44089e-16 -8.32667e-17
-4.44089e-16 0 8.32667e-17
-8.32667e-17 8.32667e-17 2.22045e-16

0 -9.99201e-16 -1.66533e-16
-9.99201e-16 -8.88178e-16 -5.55112e-17
-1.66533e-16 -5.55112e-17 0

-2.22045e-16 8.32667e-17 -2.77556e-17
8.32667e-17 -4.44089e-16 -2.498e-16
-2.77556e-17 -2.498e-16 0

2.22045e-16 4.93038e-32 -1.11022e-16
4.93038e-32 0 -4.44089e-16
-1.11022e-16 -4.44089e-16 2.22045e-16

0 -1.11022e-16 -2.77556e-17
-1.11022e-16 2.22045e-16 -5.55112e-17
-2.77556e-17 -5.55112e-17 0

-7.77156e-16 1.66533e-16 -8.32667e-17
1.66533e-16 0 1.66533e-16
-8.32667e-17 1.66533e-16 0

0 2.77556e-17 -2.498e-16
2.77556e-17 -4.44089e-16 2.63678e-16
-2.498e-16 2.63678e-16 0

1.33227e-15 0 0
0 2.22045e-16 0
0 0 0

-5.55112e-16 5.55112e-17 -8.32667e-17
5.55112e-17 0 8.32667e-17
-8.32667e-17 8.32667e-17 0

-6.66134e-16 4.44089e-16 1.94289e-16
4.44089e-16 0 8.32667e-17
1.94289e-16 8.32667e-17 0

0 4.44089e-16 -6.93889e-17
4.44089e-16 1.77636e-15 6.10623e-16
-6.93889e-17 6.10623e-16 0

0 3.33067e-16 -1.38778e-17
3.33067e-16 0 -1.11022e-16
-1.38778e-17 -1.11022e-16 0

-4.44089e-16 -2.22045e-16 -5.55112e-17
-2.22045e-16 -6.66134e-16 5.55112e-17
-5.55112e-17 5.55112e-17 2.22045e-16

0 2.22045e-16 0
2.22045e-16 0 -2.77556e-16
0 -2.77556e-16 0

8.88178e-16 -6.66134e-16 -2.77556e-16
-6.66134e-16 0 1.11022e-16
-2.77556e-16 1.11022e-16 0

0 -2.22045e-16 -1.94289e-16
-2.22045e-16 0 2.22045e-16
-1.94289e-16 2.22045e-16 0

-4.44089e-16 7.21645e-16 2.77556e-17
7.21645e-16 -8.88178e-16 5.55112e-17
2.77556e-17 5.55112e-17 2.22045e-16

0 3.33067e-16 -2.77556e-17
3.33067e-16 0 -5.55112e-17
-2.77556e-17 -5.55112e-17 2.22045e-16

0 -2.22045e-16 -1.11022e-16
-2.22045e-16 0 2.22045e-16
-1.11022e-16 2.22045e-16 0

4.44089e-16 0 -2.35922e-16
0 0 0
-2.35922e-16 0 0

0 3.33067e-16 -1.94289e-16
3.33067e-16 -1.77636e-15 -1.11022e-16
-1.94289e-16 -1.11022e-16 0

-4.44089e-16 -1.11022e-16 1.94289e-16
-1.11022e-16 -1.77636e-15 1.66533e-16
1.94289e-16 1.66533e-16 2.22045e-16

0 6.66134e-16 2.22045e-16
6.66134e-16 -8.88178e-16 5.55112e-17
2.22045e-16 5.55112e-17 0

4.44089e-16 0 -4.16334e-17
0 0 1.66533e-16
-4.16334e-17 1.66533e-16 0

0 -8.32667e-17 -8.32667e-17
-8.32667e-17 -8.88178e-16 8.32667e-17
-8.32667e-17 8.32667e-17 0

0 -4.44089e-16 2.77556e-17
-4.44089e-16 0 -2.22045e-16
2.77556e-17 -2.22045e-16 4.44089e-16

0 -4.44089e-16 8.32667e-17
-4.44089e-16 1.77636e-15 -2.77556e-17
8.32667e-17 -2.77556e-17 0

-8.88178e-16 8.88178e-16 0
8.88178e-16 0 0
0 0 0

4.44089e-16 -1.77636e-15 -2.498e-16
-1.77636e-15 2.66454e-15 -1.11022e-16
-2.498e-16 -1.11022e-16 0

0 -4.44089e-16 1.66533e-16
-4.44089e-16 2.22045e-16 2.22045e-16
1.66533e-16 2.22045e-16 0

3.55271e-15 4.44089e-16 2.46519e-32
4.44089e-16 -1.33227e-15 2.77556e-17
2.46519e-32 2.77556e-17 0

-3.55271e-15 -1.97215e-31 -3.88578e-16
-1.97215e-31 -1.77636e-15 3.9443e-31
-3.88578e-16 3.9443e-31 0

-8.88178e-16 0 0
0 1.33227e-15 2.22045e-16
0 2.22045e-16 2.22045e-16

-7.77156e-16 2.22045e-16 2.77556e-17
2.22045e-16 0 2.77556e-16
2.77556e-17 2.77556e-16 0

-2.22045e-16 -2.77556e-16 6.93889e-17
-2.77556e-16 -1.77636e-15 -7.39557e-32
6.93889e-17 -7.39557e-32 0

0 -7.77156e-16 0
-7.77156e-16 4.44089e-16 1.11022e-16
0 1.11022e-16 0

0 6.66134e-16 -2.22045e-16
6.66134e-16 -4.44089e-16 -1.11022e-16
-2.22045e-16 -1.11022e-16 0

0 0 -2.77556e-16
0 0 -5.55112e-17
-2.77556e-16 -5.55112e-17 0

8.88178e-16 -5.55112e-17 -2.498e-16
-5.55112e-17 0 -1.11022e-16
-2.498e-16 -1.11022e-16 2.22045e-16

4.44089e-16 9.86076e-32 1.94289e-16
9.86076e-32 0 5.55112e-17
1.94289e-16 5.55112e-17 0

8.88178e-16 3.33067e-16 -2.77556e-17
3.33067e-16 -6.66134e-16 -1.11022e-16
-2.77556e-17 -1.11022e-16 0

-4.44089e-16 -1.11022e-16 2.77556e-17
-1.11022e-16 0 1.11022e-16
2.77556e-17 1.11022e-16 0

0 8.32667e-17 4.16334e-17
8.32667e-17 2.22045e-16 1.66533e-16
4.16334e-17 1.66533e-16 0

-4.44089e-16 -1.55431e-15 -2.77556e-17
-1.55431e-15 0 -2.22045e-16
-2.77556e-17 -2.22045e-16 0

0 1.66533e-16 -2.63678e-16
1.66533e-16 1.77636e-15 1.11022e-16
-2.63678e-16 1.11022e-16 0

8.88178e-16 4.44089e-16 -2.77556e-17
4.44089e-16 1.77636e-15 -1.94289e-16
-2.77556e-17 -1.94289e-16 0

0 4.44089e-16 -9.86076e-32
4.44089e-16 1.77636e-15 1.66533e-16
-9.86076e-32 1.66533e-16 2.22045e-16

-1.33227e-15 -3.33067e-16 -8.32667e-17
-3.33067e-16 1.33227e-15 -1.66533e-16
-8.32667e-17 -1.66533e-16 0

0 3.33067e-16 -6.93889e-17
3.33067e-16 -8.88178e-16 1.11022e-16
-6.93889e-17 1.11022e-16 2.22045e-16

0 0 -1.66533e-16
0 3.10862e-15 1.11022e-16
-1.66533e-16 1.11022e-16 0

1.55431e-15 2.22045e-16 2.77556e-17
2.22045e-16 0 2.77556e-17
2.77556e-17 2.77556e-17 0

-1.11022e-16 -4.44089e-16 1.59595e-16
-4.44089e-16 0 3.88578e-16
1.59595e-16 3.88578e-16 0

0 -6.66134e-16 1.80411e-16
-6.66134e-16 3.55271e-15 -3.33067e-16
1.80411e-16 -3.33067e-16 0

-1.11022e-16 0 0
0 4.44089e-16 -2.77556e-17
0 -2.77556e-17 0

-3.33067e-16 1.11022e-16 2.15106e-16
1.11022e-16 0 8.04912e-16
2.15106e-16 8.04912e-16 0

2.22045e-16 4.44089e-16 6.93889e-18
4.44089e-16 1.77636e-15 0
6.93889e-18 0 0

0 4.44089e-16 4.996e-16
4.44089e-16 0 0
4.996e-16 0 0

0 0 -1.11022e-16
0 0 -1.11022e-16
-1.11022e-16 -1.11022e-16 0

0 -1.2837e-16 6.93889e-18
-1.2837e-16 4.44089e-16 1.38778e-16
6.93889e-18 1.38778e-16 0

0 -1.38778e-17 -6.93889e-18
-1.38778e-17 -8.88178e-16 1.31839e-16
-6.93889e-18 1.31839e-16 0

0 0 5.55112e-17
0 0 -1.11022e-16
5.55112e-17 -1.11022e-16 0

0 -8.88178e-16 -2.22045e-16
-8.88178e-16 0 0
-2.22045e-16 0 0

2.22045e-16 3.88578e-16 1.52656e-16
3.88578e-16 0 2.498e-16
1.52656e-16 2.498e-16 0

-2.22045e-16 0 1.38778e-16
0 3.55271e-15 -5.55112e-17
1.38778e-16 -5.55112e-17 0

4.44089e-16 0 4.16334e-16
0 -8.88178e-16 -1.66533e-16
4.16334e-16 -1.66533e-16 0

0 1.27676e-15 -5.55112e-17
1.27676e-15 -1.11022e-15 1.66533e-16
-5.55112e-17 1.66533e-16 0

-8.88178e-16 -5.55112e-17 3.60822e-16
-5.55112e-17 8.88178e-16 1.11022e-16
3.60822e-16 1.11022e-16 0

0 1.11022e-16 0
1.11022e-16 3.55271e-15 -2.77556e-17
0 -2.77556e-17 0

-2.22045e-16 0 -1.7833e-15
0 0 -1.11022e-16
-1.7833e-15 -1.11022e-16 0

0 -6.66134e-16 0
-6.66134e-16 1.77636e-15 4.996e-16
0 4.996e-16 2.22045e-16

6.66134e-16 -3.33067e-16 5.55112e-17
-3.33067e-16 4.44089e-16 8.32667e-17
5.55112e-17 8.32667e-17 2.22045e-16

0 -1.11022e-16 6.93889e-18
-1.11022e-16 1.77636e-15 -1.11022e-16
6.93889e-18 -1.11022e-16 0

-3.33067e-16 7.77156e-16 4.93038e-32
7.77156e-16 0 2.77556e-17
4.93038e-32 2.77556e-17 0

0 -8.88178e-16 -1.38778e-16
-8.88178e-16 0 4.71845e-16
-1.38778e-16 4.71845e-16 0

0 0 0
0 -4.44089e-16 -2.77556e-17
0 -2.77556e-17 0

4.44089e-16 9.99201e-16 -2.77556e-16
9.99201e-16 8.88178e-16 -1.11022e-16
-2.77556e-16 -1.11022e-16 0

0 -8.32667e-17 -5.55112e-17
-8.32667e-17 0 1.94289e-16
-5.55112e-17 1.94289e-16 0

4.44089e-16 -8.88178e-16 -2.22045e-16
-8.88178e-16 2.66454e-15 -3.88578e-16
-2.22045e-16 -3.88578e-16 0

-4.44089e-16 -8.88178e-16 -5.55112e-17
-8.88178e-16 8.88178e-16 4.71845e-16
-5.55112e-17 4.71845e-16 2.22045e-16

-8.88178e-16 1.33227e-15 -3.88578e-16
1.33227e-15 -1.77636e-15 8.32667e-17
-3.88578e-16 8.32667e-17 0

0 0 1.38778e-17
0 0 -3.88578e-16
1.38778e-17 -3.88578e-16 -2.22045e-16

0 8.32667e-17 -5.55112e-17
8.32667e-17 1.77636e-15 8.32667e-17
-5.55112e-17 8.32667e-17 0

0 2.22045e-16 1.2326e-32
2.22045e-16 0 -2.35922e-16
1.2326e-32 -2.35922e-16 0

0 2.22045e-16 -2.77556e-17
2.22045e-16 0 3.33067e-16
-2.77556e-17 3.33067e-16 -1.11022e-16

-1.33227e-15 7.77156e-16 -1.11022e-16
7.77156e-16 0 1.11022e-16
-1.11022e-16 1.11022e-16 4.44089e-16

0 1.38778e-16 2.08167e-16
1.38778e-16 -8.88178e-16 0
2.08167e-16 0 0

0 2.46519e-32 -2.77556e-17
2.46519e-32 0 -2.22045e-16
-2.77556e-17 -2.22045e-16 2.22045e-16

0 -8.88178e-16 6.93889e-18
-8.88178e-16 -8.88178e-16 -5.55112e-17
6.93889e-18 -5.55112e-17 2.22045e-16

-2.22045e-16 8.88178e-16 -6.93889e-18
8.88178e-16 -4.44089e-16 8.32667e-17
-6.93889e-18 8.32667e-17 0

0 8.32667e-17 -1.66533e-16
8.32667e-17 0 0
-1.66533e-16 0 0

0 1.11022e-16 -6.93889e-18
1.11022e-16 8.88178e-16 5.55112e-17
-6.93889e-18 5.55112e-17 0

-1.11022e-16 -8.32667e-17 -1.11022e-16
-8.32667e-17 0 0
-1.11022e-16 0 0

-1.11022e-16 -9.99201e-16 -3.57353e-16
-9.99201e-16 0 2.77556e-16
-3.57353e-16 2.77556e-16 0

0 0 -2.08167e-16
0 0 0
-2.08167e-16 0 0

4.44089e-16 -2.22045e-16 2.77556e-17
-2.22045e-16 1.33227e-15 2.22045e-16
2.77556e-17 2.22045e-16 2.22045e-16

-3.33067e-16 1.04083e-17 0
1.04083e-17 -1.55431e-15 -2.498e-16
0 -2.498e-16 0

-2.22045e-16 -8.7777e-16 1.38778e-17
-8.7777e-16 4.44089e-16 2.77556e-17
1.38778e-17 2.77556e-17 0

0 2.22045e-16 -2.77556e-17
2.22045e-16 0 8.32667e-17
-2.77556e-17 8.32667e-17 2.22045e-16

8.88178e-16 -1.22125e-15 -1.11022e-16
-1.22125e-15 -2.22045e-16 5.55112e-17
-1.11022e-16 5.55112e-17 0

-2.22045e-16 1.11022e-16 -2.63678e-16
1.11022e-16 -2.66454e-15 -5.91646e-31
-2.63678e-16 -5.91646e-31 0

-8.88178e-16 -3.33067e-16 -1.38778e-16
-3.33067e-16 -8.88178e-16 -8.32667e-17
-1.38778e-16 -8.32667e-17 0

-3.33067e-16 0 -8.32667e-17
0 0 -1.66533e-16
-8.32667e-17 -1.66533e-16 2.22045e-16

0 0 6.93889e-17
0 4.44089e-16 -1.66533e-16
6.93889e-17 -1.66533e-16 0

-2.22045e-16 2.22045e-16 2.77556e-17
2.22045e-16 0 -5.55112e-17
2.77556e-17 -5.55112e-17 0

1.33227e-15 -1.11022e-16 -3.05311e-16
-1.11022e-16 0 2.77556e-17
-3.05311e-16 2.77556e-17 0

0 0 0
0 0 -5.55112e-17
0 -5.55112e-17 2.22045e-16

4.44089e-16 6.10623e-16 -5.55112e-17
6.10623e-16 -1.55431e-15 -5.55112e-17
-5.55112e-17 -5.55112e-17 0

-4.44089e-16 -4.44089e-16 1.94289e-16
-4.44089e-16 -8.88178e-16 -5.55112e-17
1.94289e-16 -5.55112e-17 0

8.88178e-16 2.22045e-16 -1.11022e-16
2.22045e-16 0 -1.11022e-16
-1.11022e-16 -1.11022e-16 0

0 1.11022e-15 2.22045e-16
1.11022e-15 1.77636e-15 5.55112e-17
2.22045e-16 5.55112e-17 0

-1.11022e-16 5.55112e-17 -3.33067e-16
5.55112e-17 0 -4.16334e-16
-3.33067e-16 -4.16334e-16 0

-3.33067e-16 2.77556e-17 -2.08167e-16
2.77556e-17 0 2.77556e-17
-2.08167e-16 2.77556e-17 2.22045e-16

1.33227e-15 4.44089e-16 5.55112e-17
4.44089e-16 0 1.11022e-16
5.55112e-17 1.11022e-16 0

0 1.11022e-15 1.38778e-17
1.11022e-15 0 -4.44089e-16
1.38778e-17 -4.44089e-16 2.22045e-16

-2.22045e-16 8.88178e-16 -8.32667e-17
8.88178e-16 0 5.55112e-17
-8.32667e-17 5.55112e-17 0

-8.88178e-16 -5.27356e-16 -5.55112e-16
-5.27356e-16 4.44089e-16 3.33067e-16
-5.55112e-16 3.33067e-16 0

0 0 0
0 0 1.38778e-16
0 1.38778e-16 0

0 0 1.11022e-16
0 0 0
1.11022e-16 0 0

0 0 -2.22045e-16
0 8.88178e-16 1.38778e-16
-2.22045e-16 1.38778e-16 0

0 0 1.11022e-16
0 0 0
1.11022e-16 0 2.22045e-16

0 -4.44089e-16 -8.32667e-17
-4.44089e-16 2.22045e-16 1.94289e-16
-8.32667e-17 1.94289e-16 2.22045e-16

8.88178e-16 -4.44089e-16 -1.11022e-16
-4.44089e-16 4.44089e-16 4.44089e-16
-1.11022e-16 4.44089e-16 0

8.88178e-16 -2.22045e-16 -3.19189e-16
-2.22045e-16 0 2.77556e-17
-3.19189e-16 2.77556e-17 2.22045e-16

0 9.86076e-32 -2.77556e-16
9.86076e-32 0 -1.94289e-16
-2.77556e-16 -1.94289e-16 -1.11022e-16

4.44089e-16 -2.22045e-16 9.15934e-16
-2.22045e-16 8.88178e-16 -1.38778e-17
9.15934e-16 -1.38778e-17 2.22045e-16

4.44089e-16 0 -9.4369e-16
0 0 5.55112e-17
-9.4369e-16 5.55112e-17 0

4.44089e-16 -4.44089e-16 -2.22045e-16
-4.44089e-16 0 1.94289e-16
-2.22045e-16 1.94289e-16 0

0 1.66533e-16 -4.16334e-17
1.66533e-16 0 -1.38667e-32
-4.16334e-17 -1.38667e-32 0

8.88178e-16 -4.44089e-16 -8.32667e-17
-4.44089e-16 0 1.66533e-16
-8.32667e-17 1.66533e-16 0

8.88178e-16 2.22045e-16 -2.46519e-32
2.22045e-16 0 -2.77556e-16
-2.46519e-32 -2.77556e-16 0

-2.22045e-16 0 0
0 0 0
0 0 0

0 0 0
0 0 2.77556e-17
0 2.77556e-17 0

-2.22045e-16 4.44089e-16 -4.16334e-17
4.44089e-16 0 -3.33067e-16
-4.16334e-17 -3.33067e-16 2.22045e-16

0 9.22873e-16 1.38778e-17
9.22873e-16 -3.33067e-16 -2.77556e-16
1.38778e-17 -2.77556e-16 0

0 0 8.32667e-17
0 0 -5.55112e-17
8.32667e-17 -5.55112e-17 0

2.22045e-16 -4.996e-16 4.16334e-17
-4.996e-16 0 -4.62223e-33
4.16334e-17 -4.62223e-33 0

0 -4.44089e-16 -1.11022e-16
-4.44089e-16 8.88178e-16 1.94289e-16
-1.11022e-16 1.94289e-16 2.22045e-16

-1.11022e-16 1.11022e-15 1.11022e-16
1.11022e-15 -8.88178e-16 -3.88578e-16
1.11022e-16 -3.88578e-16 0

-6.66134e-16 0 -3.69779e-32
0 0 8.32667e-17
-3.69779e-32 8.32667e-17 0

-1.11022e-16 0 0
0 0 -5.55112e-17
0 -5.55112e-17 0

-4.44089e-16 -4.93038e-32 8.32667e-17
-4.93038e-32 0 -2.22045e-16
8.32667e-17 -2.22045e-16 0

-1.77636e-15 7.77156e-16 0
7.77156e-16 -1.11022e-16 -2.77556e-17
0 -2.77556e-17 0

-2.22045e-16 7.77156e-16 -2.77556e-17
7.77156e-16 0 -4.44089e-16
-2.77556e-17 -4.44089e-16 0

-4.44089e-16 8.88178e-16 -5.55112e-17
8.88178e-16 -1.77636e-15 2.22045e-16
-5.55112e-17 2.22045e-16 0

-2.22045e-16 5.55112e-17 1.38778e-17
5.55112e-17 0 -1.38778e-16
1.38778e-17 -1.38778e-16 0

-2.22045e-16 0 1.38778e-17
0 0 2.498e-16
1.38778e-17 2.498e-16 0

0 0 -1.11022e-16
0 0 5.55112e-17
-1.11022e-16 5.55112e-17 0

-4.44089e-16 3.33067e-16 -1.94289e-16
3.33067e-16 -2.22045e-16 5.55112e-17
-1.94289e-16 5.55112e-17 0

8.88178e-16 2.22045e-16 0
2.22045e-16 4.44089e-16 8.32667e-17
0 8.32667e-17 2.22045e-16

0 4.44089e-16 5.55112e-17
4.44089e-16 1.77636e-15 -5.55112e-17
5.55112e-17 -5.55112e-17 0

0 8.32667e-16 6.93889e-18
8.32667e-16 0 -5.55112e-17
6.93889e-18 -5.55112e-17 0

0 0 1.07553e-16
0 0 -8.32667e-17
1.07553e-16 -8.32667e-17 2.22045e-16

4.44089e-16 0 -5.55112e-17
0 1.33227e-15 2.77556e-16
-5.55112e-17 2.77556e-16 0

4.44089e-16 -4.44089e-16 -1.66533e-16
-4.44089e-16 0 -1.11022e-16
-1.66533e-16 -1.11022e-16 2.22045e-16

-1.77636e-15 -3.33067e-16 -1.11022e-16
-3.33067e-16 0 2.77556e-16
-1.11022e-16 2.77556e-16 0

2.22045e-16 9.00321e-16 6.93889e-18
9.00321e-16 1.9984e-15 4.16334e-17
6.93889e-18 4.16334e-17 0

2.22045e-16 1.66533e-16 -6.93889e-18
1.66533e-16 -3.33067e-16 -1.38778e-17
-6.93889e-18 -1.38778e-17 0

-1.11022e-16 5.55112e-17 4.85723e-17
5.55112e-17 0 -2.77556e-17
4.85723e-17 -2.77556e-17 0

2.22045e-16 5.55112e-17 6.93889e-17
5.55112e-17 0 -5.55112e-17
6.93889e-17 -5.55112e-17 0

0 8.88178e-16 2.77556e-17
8.88178e-16 0 -2.498e-16
2.77556e-17 -2.498e-16 0

0 -5.55112e-17 8.32667e-17
-5.55112e-17 0 -5.55112e-17
8.32667e-17 -5.55112e-17 0

1.33227e-15 0 -2.22045e-16
0 0 -1.11022e-16
-2.22045e-16 -1.11022e-16 0

2.22045e-16 -1.11022e-16 -1.11022e-16
-1.11022e-16 0 8.32667e-17
-1.11022e-16 8.32667e-17 0

-8.88178e-16 3.9443e-31 1.66533e-16
3.9443e-31 0 4.93038e-32
1.66533e-16 4.93038e-32 0

0 0 0
0 -1.77636e-15 5.55112e-17
0 5.55112e-17 0

0 -3.33067e-16 -1.73472e-18
-3.33067e-16 2.66454e-15 8.32667e-17
-1.73472e-18 8.32667e-17 0

0 -2.77556e-17 4.45824e-16
-2.77556e-17 3.55271e-15 2.77556e-16
4.45824e-16 2.77556e-16 0

0 -1.11022e-15 2.08167e-16
-1.11022e-15 1.77636e-15 -1.66533e-16
2.08167e-16 -1.66533e-16 0

-1.11022e-16 -5.55112e-17 2.77556e-17
-5.55112e-17 4.44089e-16 -4.93038e-32
2.77556e-17 -4.93038e-32 0

0 0 1.38778e-17
0 -1.33227e-15 2.22045e-16
1.38778e-17 2.22045e-16 0

-1.33227e-15 -2.22045e-16 -8.32667e-17
-2.22045e-16 8.88178e-16 -1.66533e-16
-8.32667e-17 -1.66533e-16 0

0 -2.22045e-16 -2.77556e-17
-2.22045e-16 0 1.2326e-32
-2.77556e-17 1.2326e-32 0

-1.11022e-16 0 1.249e-16
0 0 2.77556e-17
1.249e-16 2.77556e-17 0

4.44089e-16 -2.22045e-16 -4.30211e-16
-2.22045e-16 0 1.11022e-16
-4.30211e-16 1.11022e-16 0

0 -2.22045e-16 1.66533e-16
-2.22045e-16 0 5.55112e-17
1.66533e-16 5.55112e-17 2.22045e-16

0 1.80411e-16 5.55112e-17
1.80411e-16 -1.33227e-15 -1.11022e-16
5.55112e-17 -1.11022e-16 0

-4.44089e-16 4.30211e-16 4.44089e-16
4.30211e-16 -5.55112e-16 9.71445e-17
4.44089e-16 9.71445e-17 0

4.44089e-16 0 6.93889e-17
0 4.44089e-16 0
6.93889e-17 0 0

1.33227e-15 -2.22045e-16 -5.55112e-17
-2.22045e-16 6.66134e-16 1.38778e-16
-5.55112e-17 1.38778e-16 0

2.22045e-16 0 9.71445e-17
0 0 -5.55112e-17
9.71445e-17 -5.55112e-17 0

4.44089e-16 2.22045e-16 -2.77556e-17
2.22045e-16 0 -1.11022e-16
-2.77556e-17 -1.11022e-16 0

0 -2.22045e-16 2.77556e-17
-2.22045e-16 4.44089e-16 1.38778e-16
2.77556e-17 1.38778e-16 0

0 0 4.57967e-16
0 2.22045e-16 1.11022e-16
4.57967e-16 1.11022e-16 0

-6.66134e-16 -8.88178e-16 -1.97215e-31
-8.88178e-16 1.77636e-15 3.33067e-16
-1.97215e-31 3.33067e-16 0

0 8.88178e-16 -2.77556e-17
8.88178e-16 1.77636e-15 3.33067e-16
-2.77556e-17 3.33067e-16 2.22045e-16

-4.44089e-16 -4.44089e-16 1.80411e-16
-4.44089e-16 2.22045e-16 5.55112e-17
1.80411e-16 5.55112e-17 0

0 -4.44089e-16 8.32667e-17
-4.44089e-16 0 -1.11022e-16
8.32667e-17 -1.11022e-16 0

1.33227e-15 5.91646e-31 -4.30211e-16
5.91646e-31 0 -1.11022e-16
-4.30211e-16 -1.11022e-16 0

1.55431e-15 1.11022e-15 -5.55112e-17
1.11022e-15 0 -1.11022e-16
-5.55112e-17 -1.11022e-16 0

0 8.32667e-16 4.71845e-16
8.32667e-16 -1.55431e-15 -5.55112e-17
4.71845e-16 -5.55112e-17 0

-3.33067e-16 -1.38778e-17 -6.93889e-18
-1.38778e-17 0 8.32667e-17
-6.93889e-18 8.32667e-17 0

-2.22045e-16 -9.99201e-16 -8.91648e-16
-9.99201e-16 0 6.66134e-16
-8.91648e-16 6.66134e-16 -1.11022e-16

0 9.4369e-16 5.20417e-18
9.4369e-16 0 -9.99201e-16
5.20417e-18 -9.99201e-16 2.22045e-16

4.44089e-16 -2.46519e-32 1.11022e-16
-2.46519e-32 0 -1.66533e-16
1.11022e-16 -1.66533e-16 0

0 4.44089e-16 -4.44089e-16
4.44089e-16 -1.77636e-15 -2.77556e-16
-4.44089e-16 -2.77556e-16 0

0 8.88178e-16 -3.88578e-16
8.88178e-16 0 -1.11022e-16
-3.88578e-16 -1.11022e-16 0

4.44089e-16 8.88178e-16 8.32667e-17
8.88178e-16 0 -2.22045e-16
8.32667e-17 -2.22045e-16 0

0 -2.22045e-16 -2.77556e-17
-2.22045e-16 -8.88178e-16 5.55112e-17
-2.77556e-17 5.55112e-17 0

1.77636e-15 -7.77156e-16 -3.33067e-16
-7.77156e-16 0 0
-3.33067e-16 0 0

-8.88178e-16 -6.93889e-17 2.77556e-17
-6.93889e-17 -4.44089e-16 -2.08167e-16
2.77556e-17 -2.08167e-16 0

0 -2.22045e-16 2.77556e-17
-2.22045e-16 0 -1.11022e-16
2.77556e-17 -1.11022e-16 0

1.55431e-15 -9.99201e-16 -3.05311e-16
-9.99201e-16 0 -6.10623e-16
-3.05311e-16 -6.10623e-16 0

4.44089e-16 -1.24206e-15 -2.77556e-17
-1.24206e-15 0 4.02456e-16
-2.77556e-17 4.02456e-16 0

8.88178e-16 0 0
0 -8.88178e-16 -2.77556e-17
0 -2.77556e-17 0

0 0 1.38778e-17
0 8.88178e-16 -2.77556e-17
1.38778e-17 -2.77556e-17 2.22045e-16

8.88178e-16 0 2.77556e-17
0 0 1.94289e-16
2.77556e-17 1.94289e-16 2.22045e-16

-8.88178e-16 6.66134e-16 1.94289e-16
6.66134e-16 4.44089e-16 1.66533e-16
1.94289e-16 1.66533e-16 2.22045e-16

0 1.97215e-31 -1.66533e-16
1.97215e-31 -3.55271e-15 -4.44089e-16
-1.66533e-16 -4.44089e-16 0

0 -2.22045e-16 -2.77556e-17
-2.22045e-16 -4.44089e-16 -1.38778e-17
-2.77556e-17 -1.38778e-17 0

-1.77636e-15 0 -5.55112e-17
0 0 -1.66533e-16
-5.55112e-17 -1.66533e-16 0

-8.88178e-16 0 -1.66533e-16
0 8.88178e-16 5.55112e-17
-1.66533e-16 5.55112e-17 0

0 -2.22045e-16 0
-2.22045e-16 0 2.22045e-16
0 2.22045e-16 0

-4.44089e-16 4.44089e-16 -4.16334e-17
4.44089e-16 0 2.77556e-16
-4.16334e-17 2.77556e-16 0

0 0 -1.38778e-16
0 0 1.66533e-16
-1.38778e-16 1.66533e-16 0

-4.44089e-16 4.44089e-16 0
4.44089e-16 0 0
0 0 0

0 5.55112e-17 -1.04083e-17
5.55112e-17 -8.88178e-16 -1.15556e-33
-1.04083e-17 -1.15556e-33 0

0 1.77636e-15 -3.46945e-18
1.77636e-15 0 -1.11022e-16
-3.46945e-18 -1.11022e-16 0

-3.33067e-16 -5.55112e-17 -8.32667e-17
-5.55112e-17 0 -1.66533e-16
-8.32667e-17 -1.66533e-16 0

-8.88178e-16 -8.88178e-16 -2.498e-16
-8.88178e-16 -8.88178e-16 1.66533e-16
-2.498e-16 1.66533e-16 0

0 0 -8.32667e-17
0 0 -5.55112e-17
-8.32667e-17 -5.55112e-17 0

-7.77156e-16 7.77156e-16 1.66533e-16
7.77156e-16 0 -5.55112e-17
1.66533e-16 -5.55112e-17 0

-4.44089e-16 -1.11022e-15 2.95823e-31
-1.11022e-15 3.55271e-15 -1.66533e-16
2.95823e-31 -1.66533e-16 4.44089e-16

-4.44089e-16 0 2.77556e-17
0 -2.22045e-16 1.66533e-16
2.77556e-17 1.66533e-16 4.44089e-16

-8.88178e-16 -1.11022e-16 -2.77556e-17
-1.11022e-16 0 -1.11022e-16
-2.77556e-17 -1.11022e-16 0

0 -2.22045e-16 0
-2.22045e-16 0 0
0 0 0

-4.44089e-16 -1.72085e-15 2.498e-16
-1.72085e-15 1.77636e-15 -8.74301e-16
2.498e-16 -8.74301e-16 0

-1.11022e-16 0 0
0 0 -2.77556e-17
0 -2.77556e-17 0

0 4.44089e-16 -4.44089e-16
4.44089e-16 0 0
-4.44089e-16 0 0

-2.66454e-15 -1.97215e-31 4.16334e-16
-1.97215e-31 -2.22045e-16 -2.498e-16
4.16334e-16 -2.498e-16 0

0 -8.88178e-16 -1.94289e-16
-8.88178e-16 0 3.33067e-16
-1.94289e-16 3.33067e-16 0

0 1.11022e-16 -5.55112e-17
1.11022e-16 0 8.32667e-17
-5.55112e-17 8.32667e-17 2.22045e-16

0 1.11022e-16 -1.11022e-16
1.11022e-16 -2.22045e-16 -3.88578e-16
-1.11022e-16 -3.88578e-16 2.22045e-16

4.44089e-16 2.22045e-16 5.20417e-18
2.22045e-16 -3.55271e-15 2.77556e-17
5.20417e-18 2.77556e-17 2.22045e-16

-2.22045e-16 3.44169e-15 8.95117e-16
3.44169e-15 7.10543e-15 5.55112e-17
8.95117e-16 5.55112e-17 0

-2.22045e-16 1.11022e-16 2.498e-16
1.11022e-16 0 5.55112e-17
2.498e-16 5.55112e-17 0

-1.11022e-16 0 -6.93889e-18
0 0 -1.11022e-16
-6.93889e-18 -1.11022e-16 0

0 -5.55112e-17 1.38778e-17
-5.55112e-17 -2.22045e-16 -5.55112e-17
1.38778e-17 -5.55112e-17 0

0 8.88178e-16 -1.11022e-16
8.88178e-16 0 -3.33067e-16
-1.11022e-16 -3.33067e-16 2.22045e-16

4.44089e-16 0 5.55112e-17
0 0 4.16334e-16
5.55112e-17 4.16334e-16 0

-4.44089e-16 -2.77556e-17 -2.77556e-17
-2.77556e-17 4.44089e-16 -1.11022e-16
-2.77556e-17 -1.11022e-16 0

0 -7.63278e-17 4.85723e-17
-7.63278e-17 -1.77636e-15 -8.32667e-17
4.85723e-17 -8.32667e-17 0

-2.22045e-16 9.4369e-16 -8.32667e-17
9.4369e-16 -1.77636e-15 5.55112e-17
-8.32667e-17 5.55112e-17 0

6.66134e-16 -1.33227e-15 -2.35922e-16
-1.33227e-15 0 0
-2.35922e-16 0 0

4.44089e-16 0 -1.94289e-16
0 0 0
-1.94289e-16 0 0

0 0 2.22045e-16
0 0 1.11022e-16
2.22045e-16 1.11022e-16 0

0 0 5.55112e-17
0 1.77636e-15 0
5.55112e-17 0 2.22045e-16

0 -8.88178e-16 1.38778e-16
-8.88178e-16 0 2.498e-16
1.38778e-16 2.498e-16 2.22045e-16

-8.88178e-16 3.10862e-15 -2.22045e-16
3.10862e-15 0 -3.33067e-16
-2.22045e-16 -3.33067e-16 0

-1.33227e-15 -2.22045e-16 3.88578e-16
-2.22045e-16 1.33227e-15 4.44089e-16
3.88578e-16 4.44089e-16 2.22045e-16

-4.44089e-16 4.44089e-16 -9.86076e-32
4.44089e-16 0 -3.33067e-16
-9.86076e-32 -3.33067e-16 0

1.77636e-15 -9.4369e-16 -1.66533e-16
-9.4369e-16 0 -2.77556e-16
-1.66533e-16 -2.77556e-16 0

-1.33227e-15 4.44089e-16 5.55112e-17
4.44089e-16 -8.88178e-16 2.22045e-16
5.55112e-17 2.22045e-16 0

0 8.88178e-16 1.11022e-16
8.88178e-16 0 2.77556e-17
1.11022e-16 2.77556e-17 0

0 8.32667e-17 2.77556e-17
8.32667e-17 -2.22045e-16 -2.91434e-16
2.77556e-17 -2.91434e-16 0

2.22045e-16 -6.66134e-16 -1.11022e-16
-6.66134e-16 1.77636e-15 2.77556e-17
-1.11022e-16 2.77556e-17 2.22045e-16

0 -7.77156e-16 -2.18575e-16
-7.77156e-16 0 -5.55112e-16
-2.18575e-16 -5.55112e-16 0

0 8.88178e-16 3.33067e-16
8.88178e-16 8.88178e-16 1.47911e-31
3.33067e-16 1.47911e-31 0

0 8.88178e-16 -4.16334e-17
8.88178e-16 0 1.11022e-16
-4.16334e-17 1.11022e-16 0

4.44089e-16 -1.66533e-16 -1.66533e-16
-1.66533e-16 -8.88178e-16 -3.60822e-16
-1.66533e-16 -3.60822e-16 0

2.22045e-16 -1.77636e-15 -2.63678e-16
-1.77636e-15 0 3.88578e-16
-2.63678e-16 3.88578e-16 0

1.77636e-15 1.33824e-16 5.55112e-17
1.33824e-16 -3.10862e-15 -4.49737e-16
5.55112e-17 -4.49737e-16 0

0 -2.78321e-15 7.77156e-16
-2.78321e-15 2.22045e-16 1.3334e-16
7.77156e-16 1.3334e-16 -1.11022e-16

4.44089e-16 2.22045e-16 6.93889e-17
2.22045e-16 4.44089e-16 -5.55112e-17
6.93889e-17 -5.55112e-17 2.22045e-16

-8.88178e-16 1.11022e-16 -1.66533e-16
1.11022e-16 0 -1.11022e-16
-1.66533e-16 -1.11022e-16 0

-2.22045e-16 9.15934e-16 -1.21431e-16
9.15934e-16 1.77636e-15 -1.11022e-16
-1.21431e-16 -1.11022e-16 0

0 -1.80411e-16 -4.78784e-16
-1.80411e-16 0 -5.55112e-17
-4.78784e-16 -5.55112e-17 0

-1.77636e-15 1.77636e-15 2.77556e-17
1.77636e-15 -8.88178e-16 0
2.77556e-17 0 2.22045e-16

0 3.88578e-16 2.77556e-17
3.88578e-16 -2.22045e-16 1.2326e-32
2.77556e-17 1.2326e-32 0

4.44089e-16 4.44089e-16 1.11022e-16
4.44089e-16 1.77636e-15 9.86076e-32
1.11022e-16 9.86076e-32 0

-8.88178e-16 -9.4369e-16 5.55112e-17
-9.4369e-16 -6.66134e-16 -2.77556e-17
5.55112e-17 -2.77556e-17 0

0 -1.66533e-15 -8.32667e-17
-1.66533e-15 1.33227e-15 2.77556e-17
-8.32667e-17 2.77556e-17 0

6.66134e-16 -1.11022e-16 -8.32667e-17
-1.11022e-16 0 3.33067e-16
-8.32667e-17 3.33067e-16 2.22045e-16

2.22045e-16 -1.66533e-16 -8.32667e-17
-1.66533e-16 0 -8.32667e-17
-8.32667e-17 -8.32667e-17 0

2.22045e-16 5.27356e-16 8.32667e-17
5.27356e-16 -8.88178e-16 1.38778e-16
8.32667e-17 1.38778e-16 0

-8.88178e-16 1.11022e-15 -1.35585e-31
1.11022e-15 -8.88178e-16 -5.27356e-16
-1.35585e-31 -5.27356e-16 0

-2.22045e-16 -2.22045e-16 -2.77556e-17
-2.22045e-16 1.77636e-15 1.11022e-16
-2.77556e-17 1.11022e-16 2.22045e-16

-1.77636e-15 0 -2.498e-16
0 8.88178e-16 -5.55112e-17
-2.498e-16 -5.55112e-17 0

0 -8.88178e-16 6.93889e-18
-8.88178e-16 0 0
6.93889e-18 0 0

0 1.66533e-16 -1.17961e-16
1.66533e-16 -8.88178e-16 8.32667e-17
-1.17961e-16 8.32667e-17 0

1.77636e-15 0 0
0 0 6.66134e-16
0 6.66134e-16 0

0 0 0
0 0 1.38778e-17
0 1.38778e-17 0

0 0 2.77556e-17
0 0 2.22045e-16
2.77556e-17 2.22045e-16 0

4.44089e-16 4.44089e-16 -1.38778e-17
4.44089e-16 0 1.11022e-16
-1.38778e-17 1.11022e-16 0

0 0 -2.22045e-16
0 0 -5.55112e-17
-2.22045e-16 -5.55112e-17 0

-4.44089e-16 1.9984e-15 -2.77556e-17
1.9984e-15 0 -1.2326e-32
-2.77556e-17 -1.2326e-32 2.22045e-16

-6.66134e-16 -2.498e-16 2.77556e-17
-2.498e-16 0 8.32667e-17
2.77556e-17 8.32667e-17 0

0 -8.88178e-16 5.55112e-17
-8.88178e-16 1.33227e-15 1.94289e-16
5.55112e-17 1.94289e-16 2.22045e-16

0 -8.88178e-16 2.77556e-17
-8.88178e-16 3.55271e-15 4.16334e-16
2.77556e-17 4.16334e-16 0

-2.22045e-16 1.66533e-15 1.73472e-18
1.66533e-15 3.55271e-15 1.11022e-15
1.73472e-18 1.11022e-15 0

0 1.11022e-16 4.42354e-16
1.11022e-16 -3.55271e-15 8.32667e-17
4.42354e-16 8.32667e-17 0

-8.88178e-16 0 2.77556e-17
0 -3.33067e-16 3.08149e-32
2.77556e-17 3.08149e-32 2.22045e-16

0 -2.498e-16 4.57967e-16
-2.498e-16 8.88178e-16 5.55112e-17
4.57967e-16 5.55112e-17 0

4.44089e-16 0 2.77556e-17
0 -4.44089e-16 -1.94289e-16
2.77556e-17 -1.94289e-16 0

2.22045e-16 0 6.93889e-18
0 -2.66454e-15 -6.10623e-16
6.93889e-18 -6.10623e-16 0

0 -5.55112e-16 -2.35922e-16
-5.55112e-16 0 -5.55112e-17
-2.35922e-16 -5.55112e-17 0

0 4.16334e-16 -4.30211e-16
4.16334e-16 4.44089e-16 -1.11022e-16
-4.30211e-16 -1.11022e-16 0

8.88178e-16 -8.88178e-16 1.97215e-31
-8.88178e-16 0 -1.11022e-16
1.97215e-31 -1.11022e-16 0

-8.88178e-16 2.22045e-16 2.77556e-17
2.22045e-16 0 5.55112e-17
2.77556e-17 5.55112e-17 0

8.88178e-16 -4.44089e-16 -4.30211e-16
-4.44089e-16 0 2.77556e-17
-4.30211e-16 2.77556e-17 0

-2.22045e-16 -2.22045e-16 -1.249e-16
-2.22045e-16 0 3.88578e-16
-1.249e-16 3.88578e-16 0

0 -4.44089e-16 -2.77556e-17
-4.44089e-16 0 -5.55112e-17
-2.77556e-17 -5.55112e-17 0

0 0 4.16334e-17
0 -1.77636e-15 -4.44089e-16
4.16334e-17 -4.44089e-16 0

-2.22045e-16 -2.22045e-16 -4.16334e-17
-2.22045e-16 -1.77636e-15 0
-4.16334e-17 0 0

0 -5.55112e-16 2.77556e-17
-5.55112e-16 0 -1.11022e-16
2.77556e-17 -1.11022e-16 2.22045e-16

0 1.94289e-16 6.93889e-18
1.94289e-16 0 -2.22045e-16
6.93889e-18 -2.22045e-16 0

-1.11022e-16 -6.93889e-16 -6.93889e-18
-6.93889e-16 -4.44089e-16 -2.77556e-16
-6.93889e-18 -2.77556e-16 0

8.88178e-16 -1.33227e-15 2.77556e-17
-1.33227e-15 0 -5.55112e-17
2.77556e-17 -5.55112e-17 2.22045e-16

-8.88178e-16 2.77556e-17 3.747e-16
2.77556e-17 -2.22045e-16 4.44089e-16
3.747e-16 4.44089e-16 0

0 -1.77636e-15 -2.77556e-17
-1.77636e-15 0 -1.11022e-16
-2.77556e-17 -1.11022e-16 0

4.44089e-16 -1.11022e-16 -4.16334e-17
-1.11022e-16 0 -1.66533e-16
-4.16334e-17 -1.66533e-16 0

0 2.22045e-16 0
2.22045e-16 -3.33067e-15 -3.33067e-16
0 -3.33067e-16 0

0 8.32667e-17 -4.44089e-16
8.32667e-17 -1.11022e-16 -2.91434e-16
-4.44089e-16 -2.91434e-16 0

2.22045e-16 -5.55112e-17 -4.57967e-16
-5.55112e-17 4.44089e-16 -4.71845e-16
-4.57967e-16 -4.71845e-16 0

0 2.77556e-17 -4.3715e-16
2.77556e-17 -2.22045e-16 5.55112e-17
-4.3715e-16 5.55112e-17 0

2.22045e-16 0 -3.46945e-18
0 8.88178e-16 2.22045e-16
-3.46945e-18 2.22045e-16 2.22045e-16

-2.22045e-16 8.88178e-16 1.38778e-17
8.88178e-16 -1.77636e-15 2.22045e-16
1.38778e-17 2.22045e-16 0

-1.33227e-15 3.33067e-16 -5.55112e-17
3.33067e-16 1.77636e-15 4.16334e-16
-5.55112e-17 4.16334e-16 -1.11022e-16

1.33227e-15 0 -1.66533e-16
0 0 1.66533e-16
-1.66533e-16 1.66533e-16 0

8.88178e-16 0 2.77556e-17
0 0 4.16334e-17
2.77556e-17 4.16334e-17 0

0 -6.66134e-16 3.33067e-16
-6.66134e-16 0 -4.71845e-16
3.33067e-16 -4.71845e-16 0

2.66454e-15 3.9443e-31 -4.44089e-16
3.9443e-31 0 -3.88578e-16
-4.44089e-16 -3.88578e-16 2.22045e-16

0 -4.44089e-16 -5.55112e-17
-4.44089e-16 7.10543e-15 5.55112e-17
-5.55112e-17 5.55112e-17 0

-2.22045e-16 1.90535e-31 -4.44089e-16
1.90535e-31 -1.33227e-15 -2.70034e-16
-4.44089e-16 -2.70034e-16 0

0 -1.11022e-16 8.84709e-16
-1.11022e-16 -7.10543e-15 -5.55112e-17
8.84709e-16 -5.55112e-17 0

0 0 0
0 -7.77156e-16 9.54872e-17
0 9.54872e-17 2.22045e-16

0 0 -1.73472e-18
0 0 -2.77556e-17
-1.73472e-18 -2.77556e-17 0

-1.11022e-16 -3.77476e-15 -4.33681e-18
-3.77476e-15 1.42109e-14 3.4972e-15
-4.33681e-18 3.4972e-15 0

0 -7.97973e-15 -1.11022e-15
-7.97973e-15 4.44089e-16 -6.10623e-16
-1.11022e-15 -6.10623e-16 0

8.88178e-16 8.32667e-17 -3.55618e-15
8.32667e-17 1.77636e-15 4.996e-16
-3.55618e-15 4.996e-16 0

0 -1.05749e-14 5.20417e-18
-1.05749e-14 2.66454e-15 4.16334e-16
5.20417e-18 4.16334e-16 0

0 8.88178e-16 4.44089e-16
8.88178e-16 0 0
4.44089e-16 0 2.22045e-16

0 -8.88178e-16 -4.3715e-16
-8.88178e-16 8.88178e-16 -2.22045e-16
-4.3715e-16 -2.22045e-16 0

4.44089e-16 5.55112e-17 4.3715e-16
5.55112e-17 0 -1.11022e-16
4.3715e-16 -1.11022e-16 4.44089e-16

0 -1.11022e-16 0
-1.11022e-16 0 0
0 0 0

0 0 -4.38885e-16
0 0 -5.55112e-17
-4.38885e-16 -5.55112e-17 0

0 -1.11022e-16 -1.73472e-18
-1.11022e-16 0 3.85186e-34
-1.73472e-18 3.85186e-34 -1.11022e-16

-2.22045e-16 1.66533e-16 2.08167e-17
1.66533e-16 2.22045e-16 -1.11022e-16
2.08167e-17 -1.11022e-16 0

0 -1.04083e-16 1.21431e-17
-1.04083e-16 1.77636e-15 -1.66533e-16
1.21431e-17 -1.66533e-16 2.22045e-16

4.44089e-16 1.11022e-16 4.44089e-16
1.11022e-16 -4.44089e-16 -5.55112e-17
4.44089e-16 -5.55112e-17 2.22045e-16

4.44089e-16 1.38778e-17 6.93889e-18
1.38778e-17 -3.55271e-15 2.22045e-16
6.93889e-18 2.22045e-16 0

0 -9.4369e-16 -1.11022e-16
-9.4369e-16 0 -2.77556e-16
-1.11022e-16 -2.77556e-16 2.22045e-16

-6.66134e-16 -1.11022e-16 8.32667e-17
-1.11022e-16 0 -8.32667e-17
8.32667e-17 -8.32667e-17 0

4.44089e-16 0 9.02056e-17
0 0 -2.77556e-17
9.02056e-17 -2.77556e-17 0

2.22045e-16 -7.39557e-32 2.35922e-16
-7.39557e-32 -6.66134e-16 -5.55112e-17
2.35922e-16 -5.55112e-17 2.22045e-16

0 1.66533e-16 -8.32667e-17
1.66533e-16 0 2.22045e-16
-8.32667e-17 2.22045e-16 0

0 -2.77556e-17 1.38778e-16
-2.77556e-17 4.44089e-16 2.63678e-16
1.38778e-16 2.63678e-16 0

-2.22045e-16 0 -6.93889e-18
0 0 -1.94289e-16
-6.93889e-18 -1.94289e-16 0

2.22045e-16 2.77556e-17 2.08167e-17
2.77556e-17 0 -5.55112e-17
2.08167e-17 -5.55112e-17 0

-2.22045e-16 -8.88178e-16 -1.38778e-17
-8.88178e-16 0 1.11022e-16
-1.38778e-17 1.11022e-16 0

4.44089e-16 -4.44089e-16 2.77556e-17
-4.44089e-16 0 2.77556e-17
2.77556e-17 2.77556e-17 2.22045e-16

0 0 2.498e-16
0 1.33227e-15 0
2.498e-16 0 0

-4.44089e-16 5.55112e-16 -6.93889e-17
5.55112e-16 -6.66134e-16 5.55112e-17
-6.93889e-17 5.55112e-17 -1.11022e-16

0 -1.11022e-15 -9.71445e-17
-1.11022e-15 -8.88178e-16 2.77556e-16
-9.71445e-17 2.77556e-16 -1.11022e-16

4.44089e-16 5.55112e-16 2.28983e-16
5.55112e-16 6.66134e-16 2.77556e-17
2.28983e-16 2.77556e-17 2.22045e-16

0 -2.22045e-16 -2.22045e-16
-2.22045e-16 4.44089e-16 0
-2.22045e-16 0 2.22045e-16

0 1.11022e-16 9.71445e-17
1.11022e-16 0 2.77556e-16
9.71445e-17 2.77556e-16 2.22045e-16

4.44089e-16 -2.77556e-17 3.05311e-16
-2.77556e-17 0 2.22045e-16
3.05311e-16 2.22045e-16 2.22045e-16

0 -4.44089e-16 5.55112e-17
-4.44089e-16 -2.22045e-16 -1.38778e-16
5.55112e-17 -1.38778e-16 0

0 -5.55112e-17 -8.32667e-17
-5.55112e-17 -2.22045e-16 -1.11022e-16
-8.32667e-17 -1.11022e-16 0

0 2.22045e-16 1.38778e-16
2.22045e-16 8.88178e-16 5.55112e-17
1.38778e-16 5.55112e-17 2.22045e-16

-1.11022e-16 -9.4369e-16 9.86076e-32
-9.4369e-16 0 -1.66533e-16
9.86076e-32 -1.66533e-16 0

-4.44089e-16 -8.88178e-16 -1.38778e-16
-8.88178e-16 0 1.66533e-16
-1.38778e-16 1.66533e-16 2.22045e-16

0 1.97215e-31 3.05311e-16
1.97215e-31 0 3.05311e-16
3.05311e-16 3.05311e-16 0

-4.44089e-16 -9.86076e-32 -2.35922e-16
-9.86076e-32 0 2.22045e-16
-2.35922e-16 2.22045e-16 -1.11022e-16

-4.44089e-16 0 2.77556e-17
0 8.88178e-16 -8.32667e-17
2.77556e-17 -8.32667e-17 0

0 5.55112e-17 -2.35922e-16
5.55112e-17 -8.88178e-16 -2.77556e-17
-2.35922e-16 -2.77556e-17 2.22045e-16

1.77636e-15 -6.66134e-16 -5.55112e-17
-6.66134e-16 -8.88178e-16 -2.77556e-16
-5.55112e-17 -2.77556e-16 2.22045e-16

0 -1.33227e-15 -1.38778e-16
-1.33227e-15 2.66454e-15 -1.11022e-16
-1.38778e-16 -1.11022e-16 0

0 4.44089e-16 -1.94289e-16
4.44089e-16 2.22045e-16 -2.35922e-16
-1.94289e-16 -2.35922e-16 0

0 -1.77636e-15 -6.93889e-18
-1.77636e-15 0 1.11022e-16
-6.93889e-18 1.11022e-16 0

0 0 -3.46945e-18
0 -4.44089e-16 0
-3.46945e-18 0 0

0 5.55112e-17 -1.80411e-16
5.55112e-17 -8.88178e-16 2.22045e-16
-1.80411e-16 2.22045e-16 0

4.44089e-16 2.22045e-16 -2.498e-16
2.22045e-16 8.88178e-16 -1.94289e-16
-2.498e-16 -1.94289e-16 0

-2.22045e-16 -9.02056e-17 -2.11636e-16
-9.02056e-17 2.22045e-16 -3.88578e-16
-2.11636e-16 -3.88578e-16 0

0 8.32667e-17 2.23779e-16
8.32667e-17 0 -1.66533e-16
2.23779e-16 -1.66533e-16 0

0 5.55112e-17 0
5.55112e-17 8.88178e-16 2.498e-16
0 2.498e-16 0

0 -6.10623e-16 -1.66533e-16
-6.10623e-16 0 -5.55112e-17
-1.66533e-16 -5.55112e-17 0

-1.11022e-16 -5.55112e-17 -5.55112e-17
-5.55112e-17 0 8.32667e-17
-5.55112e-17 8.32667e-17 0

4.44089e-16 0 -1.38778e-17
0 8.88178e-16 -5.55112e-17
-1.38778e-17 -5.55112e-17 2.22045e-16

0 9.4369e-16 2.18575e-16
9.4369e-16 8.88178e-16 -5.55112e-17
2.18575e-16 -5.55112e-17 0

-4.44089e-16 1.38778e-17 2.77556e-17
1.38778e-17 -4.44089e-16 1.66533e-16
2.77556e-17 1.66533e-16 0

0 1.11022e-15 1.80411e-16
1.11022e-15 -8.88178e-16 -2.77556e-16
1.80411e-16 -2.77556e-16 0

-4.44089e-16 1.11022e-16 -2.22045e-16
1.11022e-16 8.88178e-16 -8.32667e-17
-2.22045e-16 -8.32667e-17 0

0 6.66134e-16 -6.93889e-17
6.66134e-16 -1.77636e-15 -5.55112e-17
-6.93889e-17 -5.55112e-17 0

-4.44089e-16 -3.88578e-16 -2.77556e-17
-3.88578e-16 0 8.32667e-17
-2.77556e-17 8.32667e-17 0

0 -2.22045e-16 -1.94289e-16
-2.22045e-16 -2.22045e-16 8.62817e-32
-1.94289e-16 8.62817e-32 0

0 -6.93889e-16 -4.16334e-17
-6.93889e-16 1.33227e-15 5.55112e-17
-4.16334e-17 5.55112e-17 0

8.88178e-16 8.88178e-16 -2.77556e-17
8.88178e-16 0 2.77556e-17
-2.77556e-17 2.77556e-17 0

0 -6.66134e-16 0
-6.66134e-16 8.88178e-16 -2.22045e-16
0 -2.22045e-16 2.22045e-16

0 -5.55112e-17 5.55112e-17
-5.55112e-17 0 2.77556e-17
5.55112e-17 2.77556e-17 0

0 2.22045e-16 -1.38778e-17
2.22045e-16 1.33227e-15 1.11022e-16
-1.38778e-17 1.11022e-16 0

0 4.44089e-16 1.66533e-16
4.44089e-16 0 -1.11022e-16
1.66533e-16 -1.11022e-16 0

-8.88178e-16 0 1.38778e-16
0 -4.44089e-16 2.77556e-17
1.38778e-16 2.77556e-17 0

-8.88178e-16 -1.88738e-15 -2.22045e-16
-1.88738e-15 0 5.55112e-17
-2.22045e-16 5.55112e-17 0

2.22045e-15 1.83187e-15 1.11022e-16
1.83187e-15 0 3.60822e-16
1.11022e-16 3.60822e-16 2.22045e-16

-1.77636e-15 0 2.77556e-17
0 0 1.11022e-16
2.77556e-17 1.11022e-16 2.22045e-16

-1.77636e-15 -8.88178e-16 0
-8.88178e-16 0 0
0 0 2.22045e-16

0 -9.99201e-16 2.22045e-16
-9.99201e-16 -1.77636e-15 1.11022e-16
2.22045e-16 1.11022e-16 0

0 0 5.55112e-17
0 0 0
5.55112e-17 0 0

0 -4.44089e-16 -3.05311e-16
-4.44089e-16 0 -1.94289e-16
-3.05311e-16 -1.94289e-16 0

2.22045e-16 -1.04029e-31 4.44089e-16
-1.04029e-31 -7.77156e-16 -3.386e-17
4.44089e-16 -3.386e-17 2.22045e-16

0 0 0
0 1.33227e-15 1.83203e-16
0 1.83203e-16 0

1.77636e-15 -7.91034e-16 -5.55112e-17
-7.91034e-16 -2.66454e-15 -4.02456e-16
-5.55112e-17 -4.02456e-16 0

0 -2.08167e-16 -8.32667e-17
-2.08167e-16 -1.33227e-15 -3.19189e-16
-8.32667e-17 -3.19189e-16 2.22045e-16

0 6.66134e-16 -2.35922e-16
6.66134e-16 0 2.77556e-16
-2.35922e-16 2.77556e-16 0

0 0 -5.55112e-17
0 0 -1.11022e-16
-5.55112e-17 -1.11022e-16 0

0 3.33067e-16 2.498e-16
3.33067e-16 0 2.77556e-17
2.498e-16 2.77556e-17 0

0 0 -1.94289e-16
0 0 0
-1.94289e-16 0 0

8.88178e-16 1.77636e-15 -5.55112e-17
1.77636e-15 1.77636e-15 1.66533e-16
-5.55112e-17 1.66533e-16 2.22045e-16

-4.44089e-16 -5.55112e-17 -1.11022e-16
-5.55112e-17 -2.22045e-16 -5.55112e-17
-1.11022e-16 -5.55112e-17 2.22045e-16

-1.33227e-15 5.55112e-17 2.77556e-17
5.55112e-17 6.66134e-16 -8.32667e-17
2.77556e-17 -8.32667e-17 0

0 2.66454e-15 -1.11022e-16
2.66454e-15 -1.42109e-14 -1.9984e-15
-1.11022e-16 -1.9984e-15 0

0 1.77636e-15 -1.66533e-16
1.77636e-15 3.55271e-15 8.88178e-16
-1.66533e-16 8.88178e-16 0

0 0 2.77556e-17
0 0 -1.66533e-16
2.77556e-17 -1.66533e-16 0

1.77636e-15 4.44089e-16 -2.22045e-16
4.44089e-16 0 5.55112e-17
-2.22045e-16 5.55112e-17 2.22045e-16

-4.44089e-16 -7.21645e-16 -2.35922e-16
-7.21645e-16 0 -2.22045e-16
-2.35922e-16 -2.22045e-16 0

-8.88178e-16 -2.22045e-16 -1.66533e-16
-2.22045e-16 0 -1.11022e-16
-1.66533e-16 -1.11022e-16 0

-4.44089e-16 1.11022e-16 -1.38778e-17
1.11022e-16 -6.66134e-16 2.77556e-17
-1.38778e-17 2.77556e-17 -1.11022e-16

0 0 -5.89806e-17
0 0 5.55112e-17
-5.89806e-17 5.55112e-17 0

4.44089e-16 -2.72005e-15 -3.46945e-18
-2.72005e-15 0 -4.996e-16
-3.46945e-18 -4.996e-16 2.22045e-16

2.22045e-16 2.77556e-16 6.64399e-16
2.77556e-16 -2.66454e-15 8.88178e-16
6.64399e-16 8.88178e-16 0

-8.88178e-16 -3.46945e-16 1.38778e-17
-3.46945e-16 -1.55431e-15 -1.38778e-16
1.38778e-17 -1.38778e-16 0

0 0 -2.08167e-16
0 0 1.66533e-16
-2.08167e-16 1.66533e-16 0

0 1.33227e-15 -3.33067e-16
1.33227e-15 0 -2.77556e-16
-3.33067e-16 -2.77556e-16 4.44089e-16

0 4.44089e-16 -8.32667e-17
4.44089e-16 4.44089e-16 -1.52656e-16
-8.32667e-17 -1.52656e-16 2.22045e-16

-1.77636e-15 6.66134e-16 0
6.66134e-16 0 3.33067e-16
0 3.33067e-16 -1.11022e-16

-1.11022e-16 1.11022e-16 -7.63278e-17
1.11022e-16 0 -1.66533e-16
-7.63278e-17 -1.66533e-16 0

2.22045e-16 -8.32667e-17 -2.08167e-16
-8.32667e-17 4.44089e-16 2.77556e-17
-2.08167e-16 2.77556e-17 0

-4.44089e-16 -6.66134e-16 -9.71445e-17
-6.66134e-16 -8.88178e-16 -1.66533e-16
-9.71445e-17 -1.66533e-16 0

8.88178e-16 0 -2.22045e-16
0 0 -1.11022e-16
-2.22045e-16 -1.11022e-16 2.22045e-16

0 2.22045e-16 -5.55112e-17
2.22045e-16 -8.88178e-16 -1.11022e-16
-5.55112e-17 -1.11022e-16 0

2.22045e-16 -5.55112e-17 2.63678e-16
-5.55112e-17 0 8.32667e-17
2.63678e-16 8.32667e-17 0

-1.66533e-15 1.11022e-16 -1.8735e-16
1.11022e-16 0 -5.55112e-17
-1.8735e-16 -5.55112e-17 0

-2.22045e-16 8.88178e-16 -8.32667e-17
8.88178e-16 0 -8.32667e-17
-8.32667e-17 -8.32667e-17 -2.22045e-16

0 4.44089e-16 -1.38778e-16
4.44089e-16 0 -1.11022e-16
-1.38778e-16 -1.11022e-16 0

-8.88178e-16 -1.11022e-15 -1.66533e-16
-1.11022e-15 -1.11022e-16 -1.11022e-16
-1.66533e-16 -1.11022e-16 0

0 -7.21645e-16 1.47911e-31
-7.21645e-16 8.88178e-16 -1.38778e-17
1.47911e-31 -1.38778e-17 0

0 5.55112e-16 6.93889e-18
5.55112e-16 0 4.996e-16
6.93889e-18 4.996e-16 0

0 8.88178e-16 -2.77556e-17
8.88178e-16 3.55271e-15 -4.93038e-32
-2.77556e-17 -4.93038e-32 0

0 -2.22045e-16 -1.94289e-16
-2.22045e-16 -8.88178e-16 0
-1.94289e-16 0 0

-4.44089e-16 0 1.38778e-17
0 0 1.94289e-16
1.38778e-17 1.94289e-16 0

-4.44089e-16 -9.86076e-32 -2.77556e-17
-9.86076e-32 0 -5.55112e-17
-2.77556e-17 -5.55112e-17 0

0 -2.22045e-16 -8.32667e-17
-2.22045e-16 0 -2.22045e-16
-8.32667e-17 -2.22045e-16 0

-8.88178e-16 8.88178e-16 5.55112e-17
8.88178e-16 0 -1.11022e-16
5.55112e-17 -1.11022e-16 0

4.44089e-16 6.66134e-16 7.63278e-17
6.66134e-16 -8.88178e-16 -1.11022e-16
7.63278e-17 -1.11022e-16 0

0 -5.55112e-16 1.249e-16
-5.55112e-16 0 -4.71845e-16
1.249e-16 -4.71845e-16 0

-2.22045e-16 8.32667e-17 0
8.32667e-17 -8.88178e-16 -3.88578e-16
0 -3.88578e-16 0

2.22045e-16 -5.55112e-17 2.77556e-17
-5.55112e-17 0 -1.38778e-16
2.77556e-17 -1.38778e-16 0

0 -3.33067e-16 -2.77556e-17
-3.33067e-16 0 -1.66533e-16
-2.77556e-17 -1.66533e-16 0

8.88178e-16 1.11022e-15 -8.32667e-17
1.11022e-15 0 -2.22045e-16
-8.32667e-17 -2.22045e-16 0

6.66134e-16 6.38378e-16 1.11022e-16
6.38378e-16 0 2.46519e-32
1.11022e-16 2.46519e-32 0

-2.22045e-16 -1.66533e-16 -6.93889e-18
-1.66533e-16 1.77636e-15 -4.44089e-16
-6.93889e-18 -4.44089e-16 0

-2.22045e-16 -5.55112e-17 4.85723e-17
-5.55112e-17 -2.22045e-16 -1.94289e-16
4.85723e-17 -1.94289e-16 0

-1.11022e-16 -3.88578e-16 8.32667e-17
-3.88578e-16 0 -2.77556e-17
8.32667e-17 -2.77556e-17 0

-9.99201e-16 0 0
0 0 -4.44089e-16
0 -4.44089e-16 0

0 2.08167e-17 -4.3715e-16
2.08167e-17 -2.22045e-16 8.32667e-17
-4.3715e-16 8.32667e-17 0

0 0 2.22045e-16
0 0 0
2.22045e-16 0 0

0 0 2.22045e-16
0 0 5.55112e-17
2.22045e-16 5.55112e-17 0

4.44089e-16 2.08167e-16 0
2.08167e-16 4.44089e-16 -1.38778e-16
0 -1.38778e-16 2.22045e-16

0 -4.44089e-16 -5.55112e-17
-4.44089e-16 0 -8.32667e-17
-5.55112e-17 -8.32667e-17 0

-8.88178e-16 -2.22045e-16 -3.88578e-16
-2.22045e-16 -1.77636e-15 -5.55112e-17
-3.88578e-16 -5.55112e-17 0

1.55431e-15 0 5.55112e-17
0 0 3.33067e-16
5.55112e-17 3.33067e-16 2.22045e-16

-1.11022e-16 9.86076e-32 5.55112e-17
9.86076e-32 0 3.88578e-16
5.55112e-17 3.88578e-16 0

4.44089e-16 0 2.77556e-17
0 -1.77636e-15 0
2.77556e-17 0 0

-4.44089e-16 -4.44089e-16 -1.27676e-15
-4.44089e-16 -8.88178e-16 -1.38778e-17
-1.27676e-15 -1.38778e-17 0

-3.10862e-15 4.44089e-16 -7.77156e-16
4.44089e-16 0 5.55112e-17
-7.77156e-16 5.55112e-17 0

-8.88178e-16 -7.77156e-16 -1.38778e-16
-7.77156e-16 0 1.97215e-31
-1.38778e-16 1.97215e-31 -2.22045e-16

-2.22045e-16 -2.22045e-16 -2.498e-16
-2.22045e-16 -8.88178e-16 2.22045e-16
-2.498e-16 2.22045e-16 4.44089e-16

2.22045e-16 3.33067e-16 5.55112e-17
3.33067e-16 -4.44089e-16 8.32667e-17
5.55112e-17 8.32667e-17 0

0 -6.66134e-16 -8.32667e-17
-6.66134e-16 -4.44089e-16 2.22045e-16
-8.32667e-17 2.22045e-16 0

0 -4.44089e-16 -6.93889e-17
-4.44089e-16 0 -3.69779e-32
-6.93889e-17 -3.69779e-32 2.22045e-16

-2.22045e-16 9.86076e-32 -1.52656e-16
9.86076e-32 0 -4.996e-16
-1.52656e-16 -4.996e-16 2.22045e-16

0 4.44089e-16 1.72563e-31
4.44089e-16 0 -4.93038e-32
1.72563e-31 -4.93038e-32 2.22045e-16

-4.44089e-16 0 -8.32667e-17
0 0 -5.55112e-17
-8.32667e-17 -5.55112e-17 0

2.22045e-16 4.44089e-16 8.32667e-17
4.44089e-16 1.77636e-15 2.22045e-16
8.32667e-17 2.22045e-16 0

0 -2.22045e-16 -3.69779e-32
-2.22045e-16 0 2.498e-16
-3.69779e-32 2.498e-16 2.22045e-16

0 0 -5.55112e-17
0 4.44089e-16 -5.55112e-17
-5.55112e-17 -5.55112e-17 0

0 8.88178e-16 -5.55112e-17
8.88178e-16 1.77636e-15 1.66533e-16
-5.55112e-17 1.66533e-16 0

-6.66134e-16 0 -2.22045e-16
0 -2.22045e-16 1.11022e-16
-2.22045e-16 1.11022e-16 0

0 -2.22045e-16 -2.77556e-17
-2.22045e-16 0 -4.996e-16
-2.77556e-17 -4.996e-16 0

8.88178e-16 1.77636e-15 2.22045e-16
1.77636e-15 -1.77636e-15 -1.11022e-16
2.22045e-16 -1.11022e-16 0

-8.88178e-16 -5.55112e-17 -4.996e-16
-5.55112e-17 1.55431e-15 -1.66533e-16
-4.996e-16 -1.66533e-16 0

-3.33067e-16 -1.11022e-16 1.11022e-16
-1.11022e-16 -8.88178e-16 -1.66533e-16
1.11022e-16 -1.66533e-16 0

0 0 2.498e-16
0 0 -2.77556e-17
2.498e-16 -2.77556e-17 0

8.88178e-16 -4.44089e-16 -2.22045e-16
-4.44089e-16 0 -9.86076e-32
-2.22045e-16 -9.86076e-32 0

8.88178e-16 1.33227e-15 2.77556e-17
1.33227e-15 -8.88178e-16 5.55112e-17
2.77556e-17 5.55112e-17 0

0 4.44089e-16 -5.55112e-17
4.44089e-16 -4.44089e-16 -8.32667e-17
-5.55112e-17 -8.32667e-17 0

0 0 8.32667e-17
0 -1.33227e-15 -5.55112e-17
8.32667e-17 -5.55112e-17 2.22045e-16

0 0 -8.32667e-17
0 4.44089e-16 1.38778e-16
-8.32667e-17 1.38778e-16 0

0 0 -1.11022e-16
0 0 2.77556e-17
-1.11022e-16 2.77556e-17 0

8.88178e-16 6.66134e-16 -2.77556e-17
6.66134e-16 1.77636e-15 -3.69779e-32
-2.77556e-17 -3.69779e-32 2.22045e-16

1.77636e-15 1.11022e-15 2.22045e-16
1.11022e-15 0 2.22045e-16
2.22045e-16 2.22045e-16 0

0 -4.44089e-16 2.77556e-16
-4.44089e-16 1.77636e-15 1.11022e-16
2.77556e-16 1.11022e-16 0

0 0 -2.77556e-17
0 0 2.22045e-16
-2.77556e-17 2.22045e-16 0

-4.44089e-16 4.44089e-16 -1.11022e-16
4.44089e-16 -4.44089e-16 -1.38778e-16
-1.11022e-16 -1.38778e-16 0

4.44089e-16 -2.22045e-16 -3.69779e-32
-2.22045e-16 -2.22045e-16 8.32667e-17
-3.69779e-32 8.32667e-17 0

0 1.33227e-15 -2.35922e-16
1.33227e-15 0 -2.22045e-16
-2.35922e-16 -2.22045e-16 0

-2.22045e-16 5.55112e-17 6.93889e-18
5.55112e-17 0 -1.38778e-16
6.93889e-18 -1.38778e-16 0

0 2.22045e-16 -2.77556e-17
2.22045e-16 8.88178e-16 -1.66533e-16
-2.77556e-17 -1.66533e-16 0

6.66134e-16 -7.77156e-16 1.66533e-16
-7.77156e-16 -1.77636e-15 -2.77556e-17
1.66533e-16 -2.77556e-17 0

0 4.44089e-16 -2.77556e-17
4.44089e-16 0 1.11022e-16
-2.77556e-17 1.11022e-16 0

0 1.9984e-15 -1.66533e-16
1.9984e-15 4.44089e-16 1.249e-16
-1.66533e-16 1.249e-16 -1.11022e-16

0 -2.22045e-16 -1.66533e-16
-2.22045e-16 -4.44089e-16 -2.77556e-17
-1.66533e-16 -2.77556e-17 2.22045e-16

-1.77636e-15 -1.57772e-30 0
-1.57772e-30 0 2.22045e-16
0 2.22045e-16 0

1.77636e-15 8.32667e-16 2.22045e-16
8.32667e-16 3.55271e-15 -1.11022e-16
2.22045e-16 -1.11022e-16 2.22045e-16

0 -1.66533e-15 1.11022e-16
-1.66533e-15 0 -3.88578e-16
1.11022e-16 -3.88578e-16 0

4.44089e-16 8.88178e-16 -2.77556e-17
8.88178e-16 3.10862e-15 3.60822e-16
-2.77556e-17 3.60822e-16 2.22045e-16

-8.88178e-16 -8.88178e-16 2.498e-16
-8.88178e-16 0 2.22045e-16
2.498e-16 2.22045e-16 0

0 0 -5.55112e-17
0 -3.55271e-15 -6.10623e-16
-5.55112e-17 -6.10623e-16 0

0 0 -5.55112e-17
0 0 2.77556e-17
-5.55112e-17 2.77556e-17 2.22045e-16

0 0 2.77556e-17
0 0 -3.33067e-16
2.77556e-17 -3.33067e-16 0

0 1.11022e-15 1.47911e-31
1.11022e-15 -8.88178e-16 -2.77556e-17
1.47911e-31 -2.77556e-17 0

4.44089e-16 9.86076e-32 1.38778e-16
9.86076e-32 2.22045e-16 1.38778e-16
1.38778e-16 1.38778e-16 2.22045e-16

0 4.44089e-16 1.94289e-16
4.44089e-16 1.77636e-15 0
1.94289e-16 0 0

0 1.11022e-16 -2.35922e-16
1.11022e-16 0 2.77556e-16
-2.35922e-16 2.77556e-16 2.22045e-16

-8.88178e-16 -3.747e-16 0
-3.747e-16 -1.33227e-15 -1.11022e-16
0 -1.11022e-16 0

-4.44089e-16 -4.30211e-16 -4.44089e-16
-4.30211e-16 -1.11022e-16 2.77556e-17
-4.44089e-16 2.77556e-17 0

0 0 -1.38778e-16
0 0 1.11022e-16
-1.38778e-16 1.11022e-16 0

0 0 2.22045e-16
0 0 0
2.22045e-16 0 0

0 -4.44089e-16 1.11022e-16
-4.44089e-16 0 -4.44089e-16
1.11022e-16 -4.44089e-16 0

4.44089e-16 1.11022e-16 2.22045e-16
1.11022e-16 0 2.77556e-17
2.22045e-16 2.77556e-17 0

0 -7.77156e-16 2.77556e-17
-7.77156e-16 -8.88178e-16 -4.16334e-16
2.77556e-17 -4.16334e-16 0

4.44089e-16 0 1.38778e-17
0 -8.88178e-16 1.66533e-16
1.38778e-17 1.66533e-16 0

0 -7.77156e-16 -8.32667e-17
-7.77156e-16 -2.22045e-16 -1.66533e-16
-8.32667e-17 -1.66533e-16 2.22045e-16

0 7.21645e-16 -2.77556e-17
7.21645e-16 4.44089e-16 4.71845e-16
-2.77556e-17 4.71845e-16 0

0 0 2.77556e-17
0 1.33227e-15 -5.55112e-17
2.77556e-17 -5.55112e-17 2.22045e-16

0 2.22045e-16 4.71845e-16
2.22045e-16 8.88178e-16 1.66533e-16
4.71845e-16 1.66533e-16 2.22045e-16

0 2.22045e-16 0
2.22045e-16 8.88178e-16 0
0 0 0

-4.44089e-16 8.88178e-16 0
8.88178e-16 -8.88178e-16 0
0 0 0

4.44089e-16 8.32667e-17 1.38778e-16
8.32667e-17 8.88178e-16 -5.55112e-17
1.38778e-16 -5.55112e-17 2.22045e-16

-6.21725e-15 -3.55271e-15 -4.996e-16
-3.55271e-15 3.55271e-15 -2.77556e-16
-4.996e-16 -2.77556e-16 0

-6.21725e-15 -4.44089e-16 -1.4988e-15
-4.44089e-16 0 8.32667e-17
-1.4988e-15 8.32667e-17 0

-4.44089e-16 -8.88178e-16 1.04083e-17
-8.88178e-16 0 -4.44089e-16
1.04083e-17 -4.44089e-16 0

0 3.9443e-31 -4.4062e-16
3.9443e-31 -1.77636e-15 -4.44089e-16
-4.4062e-16 -4.44089e-16 0

0 -5.55112e-17 6.93889e-18
-5.55112e-17 4.44089e-16 3.33067e-16
6.93889e-18 3.33067e-16 2.22045e-16

-1.11022e-16 0 0
0 0 -5.55112e-17
0 -5.55112e-17 0

0 -2.22045e-16 -1.52656e-16
-2.22045e-16 0 1.84889e-32
-1.52656e-16 1.84889e-32 2.22045e-16

2.22045e-16 -1.11022e-16 8.32667e-17
-1.11022e-16 0 0
8.32667e-17 0 0

-8.88178e-16 8.32667e-17 0
8.32667e-17 1.77636e-15 8.32667e-17
0 8.32667e-17 2.22045e-16

0 1.11022e-16 -2.46519e-32
1.11022e-16 0 -1.11022e-16
-2.46519e-32 -1.11022e-16 0

2.22045e-16 -1.11022e-16 -8.32667e-17
-1.11022e-16 0 -4.44089e-16
-8.32667e-17 -4.44089e-16 0

0 -1.11022e-16 4.71845e-16
-1.11022e-16 -2.22045e-16 -4.16334e-17
4.71845e-16 -4.16334e-17 0

1.33227e-15 1.11022e-15 4.16334e-16
1.11022e-15 0 1.94289e-16
4.16334e-16 1.94289e-16 0

-4.44089e-16 2.22045e-16 -2.498e-16
2.22045e-16 8.88178e-16 -2.77556e-16
-2.498e-16 -2.77556e-16 0

0 1.97215e-31 -1.38778e-16
1.97215e-31 -3.55271e-15 -4.996e-16
-1.38778e-16 -4.996e-16 0

-4.44089e-16 -3.33067e-16 3.69779e-32
-3.33067e-16 -4.44089e-16 -5.55112e-17
3.69779e-32 -5.55112e-17 0

2.22045e-16 1.97215e-31 2.15106e-16
1.97215e-31 1.33227e-15 4.71845e-16
2.15106e-16 4.71845e-16 2.22045e-16

0 0 4.44089e-16
0 8.88178e-16 2.77556e-17
4.44089e-16 2.77556e-17 0

-6.66134e-16 6.66134e-16 -2.77556e-17
6.66134e-16 1.33227e-15 2.77556e-17
-2.77556e-17 2.77556e-17 0

0 -4.44089e-16 -2.498e-16
-4.44089e-16 1.77636e-15 5.55112e-17
-2.498e-16 5.55112e-17 0

2.22045e-16 -4.93038e-32 2.15106e-16
-4.93038e-32 0 -1.66533e-16
2.15106e-16 -1.66533e-16 0

1.77636e-15 0 5.55112e-17
0 -5.32907e-15 -4.996e-16
5.55112e-17 -4.996e-16 0

0 0 -4.44089e-16
0 1.77636e-15 0
-4.44089e-16 0 0

2.22045e-16 1.66533e-16 -2.22045e-16
1.66533e-16 8.88178e-16 2.77556e-17
-2.22045e-16 2.77556e-17 0

0 0 1.38778e-17
0 -1.33227e-15 -2.22045e-16
1.38778e-17 -2.22045e-16 0

0 0 2.77556e-16
0 -6.66134e-16 8.32667e-17
2.77556e-16 8.32667e-17 0

-2.22045e-16 -2.22045e-16 -2.42861e-16
-2.22045e-16 1.77636e-15 -1.66533e-16
-2.42861e-16 -1.66533e-16 0

0 -8.88178e-16 -1.38778e-17
-8.88178e-16 0 -3.60822e-16
-1.38778e-17 -3.60822e-16 2.22045e-16

-4.44089e-16 -7.77156e-16 -1.52656e-16
-7.77156e-16 0 -1.66533e-16
-1.52656e-16 -1.66533e-16 0

8.88178e-16 3.33067e-16 1.52656e-16
3.33067e-16 4.44089e-16 2.77556e-17
1.52656e-16 2.77556e-17 0

0 1.33227e-15 -1.11022e-16
1.33227e-15 1.77636e-15 2.22045e-16
-1.11022e-16 2.22045e-16 0

0 -1.11022e-16 -2.77556e-17
-1.11022e-16 -2.66454e-15 -2.22045e-16
-2.77556e-17 -2.22045e-16 0

0 -4.44089e-16 -2.63678e-16
-4.44089e-16 6.66134e-16 8.32667e-17
-2.63678e-16 8.32667e-17 0

4.44089e-16 -2.22045e-16 2.46519e-32
-2.22045e-16 0 -5.55112e-17
2.46519e-32 -5.55112e-17 0

-8.88178e-16 8.32667e-16 -2.77556e-16
8.32667e-16 0 -8.60423e-16
-2.77556e-16 -8.60423e-16 0

-1.77636e-15 -4.44089e-16 4.93038e-32
-4.44089e-16 0 -5.55112e-17
4.93038e-32 -5.55112e-17 0

-8.88178e-16 -4.44089e-16 1.66533e-16
-4.44089e-16 4.44089e-16 5.55112e-17
1.66533e-16 5.55112e-17 2.22045e-16

0 0 0
0 -8.88178e-16 8.32667e-17
0 8.32667e-17 -1.11022e-16

0 5.55112e-17 3.46945e-17
5.55112e-17 0 1.66533e-16
3.46945e-17 1.66533e-16 0

0 8.63892e-16 4.93038e-32
8.63892e-16 -1.11022e-16 -3.08149e-33
4.93038e-32 -3.08149e-33 0

-1.11022e-16 6.93889e-18 -3.46945e-18
6.93889e-18 0 -2.498e-16
-3.46945e-18 -2.498e-16 0

0 -2.66454e-15 2.77556e-16
-2.66454e-15 0 0
2.77556e-16 0 -2.22045e-16

-5.32907e-15 -1.55431e-15 -5.55112e-16
-1.55431e-15 -3.55271e-15 0
-5.55112e-16 0 2.22045e-16

0 4.44089e-16 -2.77556e-17
4.44089e-16 1.77636e-15 -1.66533e-16
-2.77556e-17 -1.66533e-16 0

0 -8.88178e-16 8.32667e-17
-8.88178e-16 0 -1.47911e-31
8.32667e-17 -1.47911e-31 2.22045e-16

0 1.83187e-15 -8.32667e-17
1.83187e-15 2.22045e-16 -2.77556e-16
-8.32667e-17 -2.77556e-16 0

-1.11022e-16 -1.66533e-16 1.66533e-16
-1.66533e-16 4.44089e-16 5.55112e-17
1.66533e-16 5.55112e-17 2.22045e-16

4.44089e-16 7.77156e-16 9.71445e-17
7.77156e-16 0 -1.11022e-16
9.71445e-17 -1.11022e-16 0

4.44089e-16 -2.22045e-16 8.32667e-17
-2.22045e-16 0 1.11022e-16
8.32667e-17 1.11022e-16 0

-9.99201e-16 -6.66134e-16 -9.71445e-17
-6.66134e-16 -1.77636e-15 -5.55112e-17
-9.71445e-17 -5.55112e-17 0

0 7.21645e-16 0
7.21645e-16 0 5.55112e-17
0 5.55112e-17 0

1.77636e-15 1.33227e-15 1.38778e-16
1.33227e-15 0 -1.11022e-16
1.38778e-16 -1.11022e-16 0

0 0 0
0 0 -5.55112e-17
0 -5.55112e-17 0

-1.11022e-16 2.22045e-16 -2.42861e-16
2.22045e-16 8.88178e-16 4.44089e-16
-2.42861e-16 4.44089e-16 0

2.22045e-16 -8.88178e-16 2.42861e-16
-8.88178e-16 0 1.66533e-16
2.42861e-16 1.66533e-16 2.22045e-16

1.77636e-15 3.10862e-15 -2.22045e-16
3.10862e-15 0 -3.33067e-16
-2.22045e-16 -3.33067e-16 0

-4.44089e-16 -6.66134e-16 -4.16334e-16
-6.66134e-16 0 -1.38778e-17
-4.16334e-16 -1.38778e-17 2.22045e-16

-2.22045e-16 7.91034e-16 1.17961e-16
7.91034e-16 -8.88178e-16 2.77556e-16
1.17961e-16 2.77556e-16 2.22045e-16

-2.22045e-16 0 -2.22045e-16
0 -2.22045e-16 -8.32667e-17
-2.22045e-16 -8.32667e-17 0

-2.22045e-16 -1.16573e-15 -2.77556e-17
-1.16573e-15 0 8.32667e-17
-2.77556e-17 8.32667e-17 0

1.77636e-15 8.88178e-16 1.47911e-31
8.88178e-16 1.77636e-15 1.66533e-16
1.47911e-31 1.66533e-16 2.22045e-16

-4.44089e-16 -1.66533e-15 -5.55112e-17
-1.66533e-15 -2.66454e-15 -6.66134e-16
-5.55112e-17 -6.66134e-16 0

-1.9984e-15 -8.88178e-16 -2.77556e-16
-8.88178e-16 8.88178e-16 -2.77556e-17
-2.77556e-16 -2.77556e-17 0

0 -8.32667e-16 -2.22045e-16
-8.32667e-16 0 -1.11022e-16
-2.22045e-16 -1.11022e-16 0

2.22045e-16 4.68375e-16 3.46945e-17
4.68375e-16 -8.88178e-16 -2.77556e-17
3.46945e-17 -2.77556e-17 0

0 -3.53884e-16 -9.71445e-17
-3.53884e-16 0 -3.88578e-16
-9.71445e-17 -3.88578e-16 0

0 1.94289e-16 1.249e-16
1.94289e-16 8.88178e-16 5.55112e-17
1.249e-16 5.55112e-17 2.22045e-16

-1.77636e-15 -4.44089e-16 -1.94289e-16
-4.44089e-16 0 -5.55112e-17
-1.94289e-16 -5.55112e-17 0

4.44089e-16 -5.55112e-17 -1.11022e-16
-5.55112e-17 1.77636e-15 4.16334e-16
-1.11022e-16 4.16334e-16 0

2.22045e-16 4.97835e-17 4.44089e-16
4.97835e-17 -4.44089e-16 3.73758e-16
4.44089e-16 3.73758e-16 0

0 5.65945e-18 4.47559e-16
5.65945e-18 8.21565e-15 3.43184e-16
4.47559e-16 3.43184e-16 0

2.22045e-16 3.60822e-16 -6.93889e-18
3.60822e-16 0 5.55112e-17
-6.93889e-18 5.55112e-17 0

2.22045e-16 -1.38778e-16 2.91434e-16
-1.38778e-16 0 1.11022e-16
2.91434e-16 1.11022e-16 0

0 9.15934e-16 -1.38778e-16
9.15934e-16 -1.77636e-15 -2.77556e-17
-1.38778e-16 -2.77556e-17 -1.11022e-16

0 -1.77636e-15 2.77556e-17
-1.77636e-15 -8.88178e-16 5.55112e-17
2.77556e-17 5.55112e-17 0

0 -1.11022e-16 0
-1.11022e-16 0 -5.55112e-17
0 -5.55112e-17 0

0 -1.66533e-16 -8.32667e-17
-1.66533e-16 -7.77156e-16 5.55112e-17
-8.32667e-17 5.55112e-17 0

0 1.94289e-16 0
1.94289e-16 0 1.11022e-16
0 1.11022e-16 0

-8.88178e-16 8.88178e-16 -1.97215e-31
8.88178e-16 -1.77636e-15 -5.55112e-16
-1.97215e-31 -5.55112e-16 0

0 4.44089e-16 -2.46519e-32
4.44089e-16 -8.88178e-16 -1.38778e-16
-2.46519e-32 -1.38778e-16 0

0 1.38778e-17 1.38778e-17
1.38778e-17 2.22045e-16 -2.77556e-17
1.38778e-17 -2.77556e-17 0

0 -3.33067e-16 2.77556e-17
-3.33067e-16 -3.55271e-15 -2.46519e-32
2.77556e-17 -2.46519e-32 0

0 -8.32667e-16 -9.71445e-17
-8.32667e-16 -4.44089e-16 -5.55112e-17
-9.71445e-17 -5.55112e-17 2.22045e-16

-1.33227e-15 -1.66533e-16 -3.05311e-16
-1.66533e-16 0 4.44089e-16
-3.05311e-16 4.44089e-16 2.22045e-16

4.44089e-16 0 -4.85723e-17
0 0 -1.11022e-16
-4.85723e-17 -1.11022e-16 0

0 2.22045e-16 -1.04083e-16
2.22045e-16 0 1.66533e-16
-1.04083e-16 1.66533e-16 0

0 -1.11022e-15 -2.35922e-16
-1.11022e-15 0 -5.55112e-16
-2.35922e-16 -5.55112e-16 0

2.22045e-16 1.11022e-16 2.08167e-17
1.11022e-16 -1.33227e-15 -1.11022e-16
2.08167e-17 -1.11022e-16 2.22045e-16

1.77636e-15 1.11022e-15 1.66533e-16
1.11022e-15 0 1.11022e-16
1.66533e-16 1.11022e-16 0

1.77636e-15 -1.11022e-16 2.77556e-16
-1.11022e-16 0 5.55112e-17
2.77556e-16 5.55112e-17 0

0 0 5.55112e-17
0 0 6.66134e-16
5.55112e-17 6.66134e-16 0

0 0 2.77556e-17
0 8.88178e-16 0
2.77556e-17 0 0

-8.88178e-16 1.97215e-31 -4.44089e-16
1.97215e-31 1.77636e-15 -1.66533e-16
-4.44089e-16 -1.66533e-16 2.22045e-16

0 4.44089e-16 1.80411e-16
4.44089e-16 0 -5.55112e-17
1.80411e-16 -5.55112e-17 0

0 0 -2.77556e-17
0 0 -1.66533e-16
-2.77556e-17 -1.66533e-16 0

0 0 0
0 0 -2.77556e-17
0 -2.77556e-17 0

0 8.88178e-16 2.77556e-17
8.88178e-16 1.33227e-15 -2.77556e-17
2.77556e-17 -2.77556e-17 2.22045e-16

-8.88178e-16 8.88178e-16 3.88578e-16
8.88178e-16 0 8.32667e-17
3.88578e-16 8.32667e-17 2.22045e-16

0 0 5.55112e-17
0 0 -2.77556e-17
5.55112e-17 -2.77556e-17 0

0 -3.55271e-15 -6.10623e-16
-3.55271e-15 -1.42109e-14 -1.77636e-15
-6.10623e-16 -1.77636e-15 0

-2.22045e-16 2.77556e-17 4.3715e-16
2.77556e-17 -2.22045e-16 -2.77556e-16
4.3715e-16 -2.77556e-16 0

-8.88178e-16 1.33227e-15 2.77556e-17
1.33227e-15 0 -1.66533e-16
2.77556e-17 -1.66533e-16 0

1.77636e-15 4.44089e-16 -8.32667e-17
4.44089e-16 0 5.55112e-17
-8.32667e-17 5.55112e-17 2.22045e-16

0 -8.88178e-16 -5.55112e-17
-8.88178e-16 1.77636e-15 5.55112e-16
-5.55112e-17 5.55112e-16 0

0 -1.11022e-16 -4.71845e-16
-1.11022e-16 0 1.38778e-16
-4.71845e-16 1.38778e-16 0

0 -6.66134e-16 -1.94289e-16
-6.66134e-16 0 -5.55112e-17
-1.94289e-16 -5.55112e-17 0

0 -2.22045e-16 2.22045e-16
-2.22045e-16 0 1.11022e-16
2.22045e-16 1.11022e-16 0

-1.77636e-15 -4.44089e-16 8.32667e-17
-4.44089e-16 0 5.55112e-17
8.32667e-17 5.55112e-17 0

-2.22045e-16 0 -1.66533e-16
0 0 5.55112e-17
-1.66533e-16 5.55112e-17 0

-6.66134e-16 0 -1.11022e-16
0 1.77636e-15 -1.38778e-16
-1.11022e-16 -1.38778e-16 0

0 0 0
0 0 1.11022e-16
0 1.11022e-16 0

0 -8.88178e-16 4.16334e-17
-8.88178e-16 0 1.66533e-16
4.16334e-17 1.66533e-16 0

0 0 8.32667e-17
0 0 -7.21645e-16
8.32667e-17 -7.21645e-16 0

8.88178e-16 0 -8.32667e-17
0 8.88178e-16 0
-8.32667e-17 0 -1.11022e-16

0 -1.11022e-16 3.33067e-16
-1.11022e-16 3.10862e-15 -5.55112e-17
3.33067e-16 -5.55112e-17 -1.11022e-16

0 -2.33147e-15 -1.11022e-16
-2.33147e-15 2.22045e-16 2.77556e-17
-1.11022e-16 2.77556e-17 2.22045e-16

2.22045e-16 -1.11022e-16 0
-1.11022e-16 0 0
0 0 0

0 1.38778e-16 -2.77556e-17
1.38778e-16 -8.88178e-16 -1.11022e-16
-2.77556e-17 -1.11022e-16 0

0 -8.88178e-16 -2.77556e-17
-8.88178e-16 -8.88178e-16 4.93038e-32
-2.77556e-17 4.93038e-32 0

1.77636e-15 4.44089e-16 -2.77556e-17
4.44089e-16 0 -2.77556e-17
-2.77556e-17 -2.77556e-17 0

-1.77636e-15 -1.11022e-16 -5.55112e-17
-1.11022e-16 -1.11022e-16 -3.05311e-16
-5.55112e-17 -3.05311e-16 0

0 1.66533e-16 0
1.66533e-16 -3.33067e-15 -3.88578e-16
0 -3.88578e-16 0

-8.88178e-16 2.22045e-16 0
2.22045e-16 6.66134e-16 -1.66533e-16
0 -1.66533e-16 0

0 1.55431e-15 -8.32667e-17
1.55431e-15 0 2.77556e-17
-8.32667e-17 2.77556e-17 2.22045e-16

3.55271e-15 8.88178e-16 4.44089e-16
8.88178e-16 0 0
4.44089e-16 0 2.22045e-16

0 -8.88178e-16 -5.55112e-17
-8.88178e-16 4.44089e-16 2.77556e-17
-5.55112e-17 2.77556e-17 0

0 5.55112e-16 -9.02056e-17
5.55112e-16 1.33227e-15 5.55112e-17
-9.02056e-17 5.55112e-17 0

6.66134e-16 1.77636e-15 4.23273e-16
1.77636e-15 0 -1.11022e-16
4.23273e-16 -1.11022e-16 0

0 4.44089e-16 -2.77556e-17
4.44089e-16 0 1.38778e-17
-2.77556e-17 1.38778e-17 0

-2.22045e-16 -2.22045e-16 2.22045e-16
-2.22045e-16 0 0
2.22045e-16 0 0

0 -4.44089e-16 -1.04083e-17
-4.44089e-16 0 1.11022e-16
-1.04083e-17 1.11022e-16 -1.11022e-16

0 0 0
0 7.10543e-15 0
0 0 0

0 0 -5.55112e-17
0 0 -5.55112e-17
-5.55112e-17 -5.55112e-17 0

0 1.57772e-30 9.4369e-16
1.57772e-30 -7.10543e-15 7.77156e-16
9.4369e-16 7.77156e-16 0

0 0 -5.55112e-17
0 0 2.77556e-17
-5.55112e-17 2.77556e-17 0

0 -1.77636e-15 2.22045e-16
-1.77636e-15 -3.55271e-15 -8.60423e-16
2.22045e-16 -8.60423e-16 0

-2.66454e-15 1.11022e-16 3.88578e-16
1.11022e-16 -1.77636e-15 -2.60902e-15
3.88578e-16 -2.60902e-15 2.22045e-16

0 7.10543e-15 3.55271e-15
7.10543e-15 0 3.88578e-16
3.55271e-15 3.88578e-16 2.22045e-16

0 -7.99361e-15 -3.4972e-15
-7.99361e-15 1.77636e-15 -5.55112e-17
-3.4972e-15 -5.55112e-17 0

0 -1.59872e-14 -1.66533e-16
-1.59872e-14 0 -2.77556e-17
-1.66533e-16 -2.77556e-17 0

0 0 -1.11022e-16
0 0 5.55112e-17
-1.11022e-16 5.55112e-17 0

0 0 5.55112e-17
0 -8.88178e-16 -2.22045e-16
5.55112e-17 -2.22045e-16 0

0 0 -2.77556e-16
0 -1.42109e-14 5.55112e-17
-2.77556e-16 5.55112e-17 0

0 -8.88178e-16 -1.11022e-16
-8.88178e-16 0 -4.44089e-16
-1.11022e-16 -4.44089e-16 2.22045e-16

1.77636e-15 -1.77636e-15 -3.88578e-16
-1.77636e-15 0 -2.77556e-17
-3.88578e-16 -2.77556e-17 0

0 0 3.88578e-16
0 0 -1.38778e-16
3.88578e-16 -1.38778e-16 0

-1.77636e-15 1.55431e-15 -5.55112e-17
1.55431e-15 -8.88178e-16 -3.88578e-16
-5.55112e-17 -3.88578e-16 0

0 2.22045e-16 3.33067e-16
2.22045e-16 0 -1.11022e-16
3.33067e-16 -1.11022e-16 0

1.77636e-15 -1.55431e-15 4.44089e-16
-1.55431e-15 -2.22045e-16 -2.498e-16
4.44089e-16 -2.498e-16 0

0 0 5.55112e-17
0 0 -1.66533e-16
5.55112e-17 -1.66533e-16 2.22045e-16

8.88178e-16 0 -1.11022e-16
0 0 0
-1.11022e-16 0 0

1.33227e-15 -4.16334e-17 5.55112e-17
-4.16334e-17 4.44089e-16 2.63678e-16
5.55112e-17 2.63678e-16 0

2.22045e-16 -5.13478e-16 8.32667e-17
-5.13478e-16 4.44089e-16 -2.77556e-17
8.32667e-17 -2.77556e-17 2.22045e-16

-8.88178e-16 5.0307e-17 1.38778e-16
5.0307e-17 -1.11022e-16 1.10589e-17
1.38778e-16 1.10589e-17 0

1.77636e-15 -6.93889e-18 8.32667e-17
-6.93889e-18 0 7.37257e-18
8.32667e-17 7.37257e-18 0

4.44089e-16 -3.88578e-16 2.498e-16
-3.88578e-16 0 5.55112e-17
2.498e-16 5.55112e-17 0

-2.22045e-16 1.11022e-16 -2.498e-16
1.11022e-16 0 -2.77556e-17
-2.498e-16 -2.77556e-17 2.22045e-16

-4.44089e-16 -1.04083e-17 -2.77556e-17
-1.04083e-17 -1.11022e-16 1.15576e-16
-2.77556e-17 1.15576e-16 0

-8.88178e-16 -2.42861e-17 -1.38778e-16
-2.42861e-17 0 -2.15106e-16
-1.38778e-16 -2.15106e-16 0

8.88178e-16 5.55112e-17 1.11022e-16
5.55112e-17 -2.22045e-16 2.08167e-17
1.11022e-16 2.08167e-17 0

-1.77636e-15 0 -3.88578e-16
0 0 0
-3.88578e-16 0 0

1.77636e-15 -1.22125e-15 -5.55112e-17
-1.22125e-15 0 -4.43734e-31
-5.55112e-17 -4.43734e-31 -1.11022e-16

8.88178e-16 3.33067e-16 3.33067e-16
3.33067e-16 0 2.77556e-17
3.33067e-16 2.77556e-17 0

-1.33227e-15 4.44089e-16 -3.88578e-16
4.44089e-16 4.44089e-16 -2.35922e-16
-3.88578e-16 -2.35922e-16 0

0 1.11022e-15 5.55112e-17
1.11022e-15 0 -1.80411e-16
5.55112e-17 -1.80411e-16 0

0 -2.22045e-16 -5.55112e-17
-2.22045e-16 0 1.38778e-17
-5.55112e-17 1.38778e-17 2.22045e-16

0 0 -1.11022e-16
0 2.22045e-16 -4.16334e-17
-1.11022e-16 -4.16334e-17 0

0 -1.33227e-15 0
-1.33227e-15 4.44089e-16 -4.57967e-16
0 -4.57967e-16 0

-2.22045e-16 -4.25224e-16 -8.32667e-17
-4.25224e-16 -2.22045e-16 -2.14022e-16
-8.32667e-17 -2.14022e-16 0

0 7.77156e-16 0
7.77156e-16 -4.44089e-16 2.22045e-16
0 2.22045e-16 0

0 -1.11022e-16 0
-1.11022e-16 0 3.46945e-17
0 3.46945e-17 0

1.77636e-15 0 2.22045e-16
0 -1.11022e-16 3.46945e-18
2.22045e-16 3.46945e-18 0

0 4.16334e-17 -1.94289e-16
4.16334e-17 0 1.38778e-17
-1.94289e-16 1.38778e-17 0

0 0 0
0 0 3.46945e-18
0 3.46945e-18 2.22045e-16

0 6.93889e-16 1.11022e-16
6.93889e-16 2.22045e-16 7.63278e-17
1.11022e-16 7.63278e-17 0

-8.88178e-16 0 -5.55112e-17
0 0 -4.16334e-17
-5.55112e-17 -4.16334e-17 2.22045e-16

0 -1.04083e-17 -1.94289e-16
-1.04083e-17 0 -2.81893e-18
-1.94289e-16 -2.81893e-18 0

0 -9.4369e-16 -2.77556e-16
-9.4369e-16 0 2.08167e-17
-2.77556e-16 2.08167e-17 0

4.44089e-16 -9.02056e-17 2.22045e-16
-9.02056e-17 2.22045e-16 4.33681e-18
2.22045e-16 4.33681e-18 0

3.55271e-15 0 -5.55112e-17
0 -2.22045e-16 -2.27249e-16
-5.55112e-17 -2.27249e-16 0

0 6.66134e-16 4.44089e-16
6.66134e-16 0 2.498e-16
4.44089e-16 2.498e-16 0

0 4.44089e-16 -1.66533e-16
4.44089e-16 2.22045e-16 -1.94289e-16
-1.66533e-16 -1.94289e-16 2.22045e-16

0 0 2.77556e-17
0 0 2.63678e-16
2.77556e-17 2.63678e-16 0

8.88178e-16 -2.22045e-16 3.60822e-16
-2.22045e-16 -3.33067e-16 1.38778e-17
3.60822e-16 1.38778e-17 0

-3.33067e-16 4.23273e-16 -1.84889e-32
4.23273e-16 0 2.18575e-16
-1.84889e-32 2.18575e-16 0

-1.11022e-16 4.16334e-17 1.11022e-16
4.16334e-17 2.22045e-16 1.38778e-17
1.11022e-16 1.38778e-17 0

-4.44089e-16 4.44089e-16 -2.77556e-17
4.44089e-16 0 -3.81639e-16
-2.77556e-17 -3.81639e-16 2.22045e-16

0 2.22045e-16 -1.66533e-16
2.22045e-16 -2.22045e-16 2.35922e-16
-1.66533e-16 2.35922e-16 0

4.44089e-16 0 -5.55112e-17
0 2.22045e-16 -8.67362e-19
-5.55112e-17 -8.67362e-19 2.22045e-16

2.22045e-16 -1.38778e-17 2.77556e-17
-1.38778e-17 4.44089e-16 0
2.77556e-17 0 0

0 8.32667e-17 -3.33067e-16
8.32667e-17 0 -1.73472e-17
-3.33067e-16 -1.73472e-17 0

-1.11022e-16 2.1684e-17 2.498e-16
2.1684e-17 0 2.60209e-18
2.498e-16 2.60209e-18 0

4.44089e-16 1.06859e-15 1.11022e-16
1.06859e-15 0 2.77556e-17
1.11022e-16 2.77556e-17 2.22045e-16

0 0 -1.66533e-16
0 0 -2.77556e-17
-1.66533e-16 -2.77556e-17 0

1.77636e-15 2.22045e-16 0
2.22045e-16 0 1.249e-16
0 1.249e-16 0

-1.77636e-15 0 8.32667e-17
0 -2.22045e-16 -4.16334e-17
8.32667e-17 -4.16334e-17 0

1.77636e-15 0 0
0 0 -6.93889e-18
0 -6.93889e-18 0

0 -5.55112e-17 -1.66533e-16
-5.55112e-17 -1.11022e-16 3.46945e-18
-1.66533e-16 3.46945e-18 0

0 0 -1.38778e-16
0 0 -2.63678e-16
-1.38778e-16 -2.63678e-16 0

1.77636e-15 -4.16334e-17 1.44445e-34
-4.16334e-17 2.22045e-16 2.2031e-16
1.44445e-34 2.2031e-16 0

-1.33227e-15 0 -3.88578e-16
0 0 3.46945e-18
-3.88578e-16 3.46945e-18 0

0 2.498e-16 -1.66533e-16
2.498e-16 -8.88178e-16 -4.16334e-17
-1.66533e-16 -4.16334e-17 2.22045e-16

0 -3.60822e-16 -2.77556e-16
-3.60822e-16 -2.22045e-16 0
-2.77556e-16 0 0

0 0 1.11022e-16
0 -1.11022e-16 2.1684e-19
1.11022e-16 2.1684e-19 0

4.44089e-16 2.77556e-17 1.66533e-16
2.77556e-17 -8.88178e-16 -2.77556e-17
1.66533e-16 -2.77556e-17 0

-2.66454e-15 5.55112e-17 1.11022e-16
5.55112e-17 8.88178e-16 2.77556e-17
1.11022e-16 2.77556e-17 2.22045e-16

0 0 -1.66533e-16
0 2.22045e-16 2.35922e-16
-1.66533e-16 2.35922e-16 0

0 2.22045e-16 2.77556e-17
2.22045e-16 0 0
2.77556e-17 0 0

0 0 4.44089e-16
0 0 1.38778e-17
4.44089e-16 1.38778e-17 0

3.55271e-15 2.16493e-15 1.66533e-16
2.16493e-15 -3.33067e-16 -1.94289e-16
1.66533e-16 -1.94289e-16 0

0 1.47105e-15 1.66533e-16
1.47105e-15 0 -3.46945e-17
1.66533e-16 -3.46945e-17 0

0 -1.11022e-16 2.22045e-16
-1.11022e-16 -1.11022e-16 2.28983e-16
2.22045e-16 2.28983e-16 0

8.88178e-16 -4.44089e-16 -1.11022e-16
-4.44089e-16 0 -2.77556e-16
-1.11022e-16 -2.77556e-16 0

8.88178e-16 0 -1.11022e-16
0 0 2.77556e-16
-1.11022e-16 2.77556e-16 0

0 -2.46519e-32 5.55112e-17
-2.46519e-32 0 2.35922e-16
5.55112e-17 2.35922e-16 0

0 -1.97215e-31 1.11022e-16
-1.97215e-31 -4.44089e-16 -4.61436e-16
1.11022e-16 -4.61436e-16 0

-3.55271e-15 0 -1.11022e-16
0 -2.22045e-16 -5.20417e-18
-1.11022e-16 -5.20417e-18 0

-1.77636e-15 1.11022e-16 -2.22045e-16
1.11022e-16 0 -8.32667e-17
-2.22045e-16 -8.32667e-17 0

0 2.46519e-32 2.77556e-16
2.46519e-32 6.66134e-16 1.38778e-17
2.77556e-16 1.38778e-17 0

0 -3.55271e-15 1.55431e-15
-3.55271e-15 1.77636e-15 -8.46545e-16
1.55431e-15 -8.46545e-16 0

0 1.77636e-15 1.66533e-15
1.77636e-15 2.66454e-15 8.60423e-16
1.66533e-15 8.60423e-16 0

0 5.55112e-17 1.38778e-16
5.55112e-17 6.66134e-16 1.38778e-17
1.38778e-16 1.38778e-17 0

-3.55271e-15 8.88178e-16 -4.44089e-16
8.88178e-16 0 -2.22045e-16
-4.44089e-16 -2.22045e-16 0

2.66454e-15 -5.55112e-16 1.11022e-16
-5.55112e-16 0 2.35922e-16
1.11022e-16 2.35922e-16 0

-4.44089e-16 -9.99201e-16 5.55112e-17
-9.99201e-16 8.88178e-16 -4.30211e-16
5.55112e-17 -4.30211e-16 0

0 2.22045e-16 0
2.22045e-16 -6.66134e-16 -8.32667e-17
0 -8.32667e-17 0

4.44089e-16 4.44089e-16 8.32667e-17
4.44089e-16 0 -7.39557e-32
8.32667e-17 -7.39557e-32 0

8.88178e-16 9.86076e-32 -1.11022e-16
9.86076e-32 0 1.17961e-16
-1.11022e-16 1.17961e-16 0

0 -5.55112e-17 1.94289e-16
-5.55112e-17 0 2.42861e-16
1.94289e-16 2.42861e-16 0

-2.66454e-15 8.32667e-16 -4.71845e-16
8.32667e-16 8.88178e-16 4.02456e-16
-4.71845e-16 4.02456e-16 0

1.77636e-15 -7.77156e-16 8.88178e-16
-7.77156e-16 2.22045e-16 -6.73073e-16
8.88178e-16 -6.73073e-16 0

0 -1.94289e-16 2.77556e-17
-1.94289e-16 0 2.08167e-17
2.77556e-17 2.08167e-17 0

8.88178e-16 -1.66533e-16 2.77556e-17
-1.66533e-16 2.22045e-16 1.38778e-17
2.77556e-17 1.38778e-17 0

0 0 -1.11022e-16
0 0 0
-1.11022e-16 0 0

0 0 1.11022e-16
0 -1.77636e-15 -1.11022e-16
1.11022e-16 -1.11022e-16 0

0 8.88178e-16 -5.55112e-17
8.88178e-16 0 2.77556e-16
-5.55112e-17 2.77556e-16 0

0 2.08167e-16 -1.66533e-16
2.08167e-16 -1.11022e-16 -2.35922e-16
-1.66533e-16 -2.35922e-16 2.22045e-16

-1.11022e-16 -4.16334e-17 -1.11022e-16
-4.16334e-17 0 1.38778e-17
-1.11022e-16 1.38778e-17 2.22045e-16

1.77636e-15 8.32667e-17 2.77556e-16
8.32667e-17 0 1.38778e-17
2.77556e-16 1.38778e-17 2.22045e-16

-8.88178e-16 8.88178e-16 0
8.88178e-16 0 3.46945e-18
0 3.46945e-18 0

1.77636e-15 0 5.55112e-17
0 0 -1.04083e-17
5.55112e-17 -1.04083e-17 0

1.55431e-15 -9.02056e-17 4.16334e-17
-9.02056e-17 0 -2.08167e-17
4.16334e-17 -2.08167e-17 2.22045e-16

1.77636e-15 -1.73472e-18 -5.55112e-17
-1.73472e-18 0 -8.23994e-18
-5.55112e-17 -8.23994e-18 0

-3.10862e-15 1.80238e-15 3.26128e-16
1.80238e-15 4.44089e-16 -1.04083e-17
3.26128e-16 -1.04083e-17 0

4.44089e-16 1.73993e-15 -4.16334e-17
1.73993e-15 0 -4.4062e-16
-4.16334e-17 -4.4062e-16 2.22045e-16

0 0 5.55112e-17
0 0 -6.93889e-18
5.55112e-17 -6.93889e-18 0

0 1.33227e-15 0
1.33227e-15 0 1.38778e-17
0 1.38778e-17 0

0 -1.11022e-16 -1.11022e-16
-1.11022e-16 0 -5.20417e-17
-1.11022e-16 -5.20417e-17 0

0 5.55112e-17 -1.11022e-16
5.55112e-17 2.22045e-16 1.00614e-16
-1.11022e-16 1.00614e-16 2.22045e-16

1.33227e-15 5.55112e-17 -2.77556e-17
5.55112e-17 0 2.08167e-17
-2.77556e-17 2.08167e-17 0

0 1.77636e-15 -5.55112e-17
1.77636e-15 0 2.91434e-16
-5.55112e-17 2.91434e-16 0

0 8.32667e-16 2.498e-16
8.32667e-16 -4.44089e-16 2.15106e-16
2.498e-16 2.15106e-16 -1.11022e-16

0 2.22045e-16 -2.22045e-16
2.22045e-16 6.66134e-16 2.77556e-17
-2.22045e-16 2.77556e-17 2.22045e-16

1.77636e-15 0 2.22045e-16
0 0 6.93889e-17
2.22045e-16 6.93889e-17 0

0 -2.22045e-16 -1.11022e-16
-2.22045e-16 0 3.46945e-18
-1.11022e-16 3.46945e-18 0

2.22045e-16 -4.78784e-16 -1.11022e-16
-4.78784e-16 -2.22045e-16 -4.51028e-16
-1.11022e-16 -4.51028e-16 0

-1.33227e-15 -1.97215e-31 2.498e-16
-1.97215e-31 -2.22045e-16 -4.44089e-16
2.498e-16 -4.44089e-16 0

0 2.32453e-16 -1.249e-16
2.32453e-16 -2.22045e-16 -1.38778e-17
-1.249e-16 -1.38778e-17 2.22045e-16

-1.77636e-15 2.22045e-16 -5.55112e-17
2.22045e-16 -1.11022e-16 0
-5.55112e-17 0 0

-1.77636e-15 4.44089e-16 5.55112e-17
4.44089e-16 -4.44089e-16 2.77556e-17
5.55112e-17 2.77556e-17 0

0 -4.93038e-32 1.66533e-16
-4.93038e-32 -2.22045e-16 -6.93889e-17
1.66533e-16 -6.93889e-17 0

0 -8.76035e-16 4.16334e-17
-8.76035e-16 -1.11022e-16 8.67362e-18
4.16334e-17 8.67362e-18 0

0 9.86076e-32 3.60822e-16
9.86076e-32 -4.44089e-16 2.08167e-16
3.60822e-16 2.08167e-16 -1.11022e-16

2.22045e-16 0 2.22045e-16
0 -4.44089e-16 -1.38778e-17
2.22045e-16 -1.38778e-17 0

-2.22045e-16 8.88178e-16 -2.22045e-16
8.88178e-16 0 2.08167e-17
-2.22045e-16 2.08167e-17 0

8.88178e-16 -5.55112e-17 3.60822e-16
-5.55112e-17 4.44089e-16 6.245e-17
3.60822e-16 6.245e-17 2.22045e-16

0 -1.11022e-16 -2.77556e-17
-1.11022e-16 0 0
-2.77556e-17 0 0

0 0 1.94289e-16
0 0 6.93889e-18
1.94289e-16 6.93889e-18 0

0 0 0
0 0 0
0 0 0

0 1.66533e-16 -8.32667e-17
1.66533e-16 6.66134e-16 -5.55112e-17
-8.32667e-17 -5.55112e-17 0

0 -1.11022e-16 7.70372e-33
-1.11022e-16 -1.11022e-16 1.8735e-16
7.70372e-33 1.8735e-16 2.22045e-16

0 8.88178e-16 5.55112e-17
8.88178e-16 0 3.1225e-16
5.55112e-17 3.1225e-16 2.22045e-16

0 -2.77556e-17 -5.55112e-17
-2.77556e-17 2.22045e-16 0
-5.55112e-17 0 2.22045e-16

4.44089e-16 -1.81799e-15 1.11022e-16
-1.81799e-15 0 1.38778e-17
1.11022e-16 1.38778e-17 0

0 4.44089e-16 -2.22045e-16
4.44089e-16 0 6.93889e-18
-2.22045e-16 6.93889e-18 0

-8.88178e-16 1.55431e-15 -5.55112e-17
1.55431e-15 0 -2.77556e-17
-5.55112e-17 -2.77556e-17 0

1.77636e-15 -2.22045e-16 4.44089e-16
-2.22045e-16 0 2.77556e-17
4.44089e-16 2.77556e-17 0

8.88178e-16 1.11022e-16 -5.55112e-17
1.11022e-16 0 -1.2326e-31
-5.55112e-17 -1.2326e-31 0

-1.33227e-15 -5.55112e-17 -2.22045e-16
-5.55112e-17 0 -1.38778e-17
-2.22045e-16 -1.38778e-17 0

-8.88178e-16 8.88178e-16 -1.11022e-16
8.88178e-16 -1.11022e-16 2.15539e-16
-1.11022e-16 2.15539e-16 0

0 0 0
0 0 1.38778e-17
0 1.38778e-17 0

0 0 -3.33067e-16
0 0 0
-3.33067e-16 0 0

0 0 -5.55112e-17
0 0 0
-5.55112e-17 0 0

0 0 0
0 -4.44089e-16 2.22045e-16
0 2.22045e-16 0

0 -4.44089e-16 2.77556e-16
-4.44089e-16 0 -1.38778e-16
2.77556e-16 -1.38778e-16 0

4.44089e-16 8.32667e-17 1.15556e-32
8.32667e-17 2.22045e-16 -1.52656e-16
1.15556e-32 -1.52656e-16 0

-1.77636e-15 2.42861e-17 -3.33067e-16
2.42861e-17 0 2.1684e-19
-3.33067e-16 2.1684e-19 0

0 1.33227e-15 1.11022e-16
1.33227e-15 0 6.93889e-18
1.11022e-16 6.93889e-18 2.22045e-16

0 0 2.77556e-17
0 8.88178e-16 2.35922e-16
2.77556e-17 2.35922e-16 2.22045e-16

1.77636e-15 8.88178e-16 -3.33067e-16
8.88178e-16 0 -2.498e-16
-3.33067e-16 -2.498e-16 0

0 1.05471e-15 -6.16298e-33
1.05471e-15 0 1.52656e-16
-6.16298e-33 1.52656e-16 0

-8.88178e-16 -8.88178e-16 2.77556e-17
-8.88178e-16 0 1.73472e-16
2.77556e-17 1.73472e-16 0

-4.44089e-16 8.88178e-16 5.55112e-17
8.88178e-16 -2.22045e-16 1.38778e-17
5.55112e-17 1.38778e-17 0

-4.44089e-16 -1.11022e-16 2.22045e-16
-1.11022e-16 2.22045e-16 -4.64906e-16
2.22045e-16 -4.64906e-16 0

-3.55271e-15 0 -2.22045e-16
0 0 1.11022e-16
-2.22045e-16 1.11022e-16 0

0 -1.44329e-15 5.55112e-17
-1.44329e-15 0 -2.22045e-16
5.55112e-17 -2.22045e-16 0

-1.77636e-15 2.22045e-16 -3.33067e-16
2.22045e-16 2.22045e-16 1.38778e-17
-3.33067e-16 1.38778e-17 2.22045e-16

0 -8.88178e-16 0
-8.88178e-16 4.44089e-16 -2.91434e-16
0 -2.91434e-16 2.22045e-16

1.77636e-15 8.88178e-16 0
8.88178e-16 2.22045e-16 6.93889e-18
0 6.93889e-18 2.22045e-16

1.77636e-15 1.33227e-15 5.55112e-17
1.33227e-15 2.22045e-16 2.42861e-16
5.55112e-17 2.42861e-16 2.22045e-16

0 -5.55112e-17 -7.70372e-34
-5.55112e-17 2.22045e-16 6.93889e-18
-7.70372e-34 6.93889e-18 2.22045e-16

8.88178e-16 0 -1.66533e-16
0 -2.22045e-16 3.46945e-18
-1.66533e-16 3.46945e-18 0

0 -3.33067e-16 5.55112e-17
-3.33067e-16 0 -1.249e-16
5.55112e-17 -1.249e-16 2.22045e-16

0 0 1.94289e-16
0 -8.88178e-16 -6.93889e-17
1.94289e-16 -6.93889e-17 2.22045e-16

8.88178e-16 -8.04912e-16 4.16334e-16
-8.04912e-16 0 -9.71445e-17
4.16334e-16 -9.71445e-17 0

-8.88178e-16 0 5.55112e-17
0 2.22045e-16 -1.73472e-18
5.55112e-17 -1.73472e-18 2.22045e-16

8.88178e-16 1.11022e-16 -2.22045e-16
1.11022e-16 4.44089e-16 -1.38778e-17
-2.22045e-16 -1.38778e-17 0

3.55271e-15 1.36002e-15 2.22045e-16
1.36002e-15 0 2.77556e-17
2.22045e-16 2.77556e-17 2.22045e-16

0 -3.05311e-16 -2.22045e-16
-3.05311e-16 -3.33067e-16 -1.38778e-16
-2.22045e-16 -1.38778e-16 2.22045e-16

1.55431e-15 -2.77556e-17 2.77556e-17
-2.77556e-17 4.44089e-16 -4.16334e-16
2.77556e-17 -4.16334e-16 0

2.66454e-15 0 -2.22045e-16
0 0 -4.16334e-17
-2.22045e-16 -4.16334e-17 0

-8.88178e-16 0 -5.55112e-17
0 0 -2.39392e-16
-5.55112e-17 -2.39392e-16 2.22045e-16

0 -2.77556e-17 -1.66533e-16
-2.77556e-17 0 0
-1.66533e-16 0 0

-4.44089e-16 -5.55112e-17 -1.11022e-16
-5.55112e-17 4.44089e-16 -1.38778e-17
-1.11022e-16 -1.38778e-17 2.22045e-16

0 4.44089e-16 -1.66533e-16
4.44089e-16 0 -2.77556e-17
-1.66533e-16 -2.77556e-17 0

0 -4.44089e-16 -2.22045e-16
-4.44089e-16 0 2.77556e-17
-2.22045e-16 2.77556e-17 0

-1.77636e-15 1.66533e-16 -1.11022e-16
1.66533e-16 -6.66134e-16 2.77556e-17
-1.11022e-16 2.77556e-17 0

0 -4.44089e-16 -5.55112e-17
-4.44089e-16 2.22045e-16 4.93038e-32
-5.55112e-17 4.93038e-32 0

1.77636e-15 -4.96131e-16 -5.55112e-17
-4.96131e-16 -1.11022e-16 1.10589e-16
-5.55112e-17 1.10589e-16 0

0 4.44089e-16 1.66533e-16
4.44089e-16 -4.44089e-16 -2.77556e-17
1.66533e-16 -2.77556e-17 0

0 7.77156e-16 -5.55112e-17
7.77156e-16 4.44089e-16 1.249e-16
-5.55112e-17 1.249e-16 0

2.22045e-16 1.80411e-16 1.94289e-16
1.80411e-16 -4.44089e-16 3.46945e-17
1.94289e-16 3.46945e-17 0

0 1.33227e-15 -1.11022e-16
1.33227e-15 -1.55431e-15 1.38778e-17
-1.11022e-16 1.38778e-17 0

3.55271e-15 -2.22045e-16 -7.88861e-31
-2.22045e-16 0 -2.35922e-16
-7.88861e-31 -2.35922e-16 0

0 -6.66134e-16 2.77556e-17
-6.66134e-16 -6.66134e-16 -1.38778e-17
2.77556e-17 -1.38778e-17 0

8.88178e-16 1.11022e-16 1.11022e-16
1.11022e-16 -1.11022e-16 -1.38778e-16
1.11022e-16 -1.38778e-16 0

0 7.21645e-16 -1.11022e-16
7.21645e-16 -6.66134e-16 3.05311e-16
-1.11022e-16 3.05311e-16 0

-8.88178e-16 0 2.77556e-16
0 -1.11022e-16 -1.38778e-16
2.77556e-16 -1.38778e-16 0

-1.77636e-15 0 -5.55112e-17
0 2.22045e-16 -1.94289e-16
-5.55112e-17 -1.94289e-16 0

-1.33227e-15 8.32667e-17 8.32667e-17
8.32667e-17 0 2.22045e-16
8.32667e-17 2.22045e-16 2.22045e-16

8.88178e-16 -8.88178e-16 5.55112e-17
-8.88178e-16 -2.22045e-16 1.38778e-17
5.55112e-17 1.38778e-17 0

0 4.44089e-16 1.11022e-16
4.44089e-16 -2.22045e-16 2.22045e-16
1.11022e-16 2.22045e-16 0

-8.88178e-16 4.44089e-16 -3.88578e-16
4.44089e-16 0 1.38778e-17
-3.88578e-16 1.38778e-17 4.44089e-16

0 -1.33227e-15 1.11022e-16
-1.33227e-15 0 1.11022e-16
1.11022e-16 1.11022e-16 0

0 4.44089e-16 -1.66533e-16
4.44089e-16 -5.55112e-16 -2.08167e-16
-1.66533e-16 -2.08167e-16 0

0 -8.88178e-16 5.55112e-17
-8.88178e-16 -4.44089e-16 -2.63678e-16
5.55112e-17 -2.63678e-16 0

-8.88178e-16 1.11022e-16 -1.11022e-16
1.11022e-16 -1.11022e-16 3.46945e-18
-1.11022e-16 3.46945e-18 0

0 -8.46545e-16 1.11022e-16
-8.46545e-16 0 9.54098e-18
1.11022e-16 9.54098e-18 0

3.55271e-15 2.22045e-16 -6.66134e-16
2.22045e-16 0 1.38778e-17
-6.66134e-16 1.38778e-17 0

4.44089e-16 3.03577e-18 -9.71445e-17
3.03577e-18 0 2.22695e-16
-9.71445e-17 2.22695e-16 0

-1.06581e-14 -2.22045e-16 -6.16298e-33
-2.22045e-16 0 -8.74301e-16
-6.16298e-33 -8.74301e-16 0

1.24345e-14 4.66294e-15 8.32667e-16
4.66294e-15 1.77636e-15 8.88178e-16
8.32667e-16 8.88178e-16 4.44089e-16

1.77636e-15 -2.498e-16 -2.22045e-16
-2.498e-16 -2.22045e-16 0
-2.22045e-16 0 0

8.88178e-16 0 -5.55112e-17
0 6.66134e-16 1.38778e-17
-5.55112e-17 1.38778e-17 2.22045e-16

0 0 4.996e-16
0 0 0
4.996e-16 0 0

-6.66134e-16 2.32453e-16 -8.32667e-17
2.32453e-16 0 4.39319e-16
-8.32667e-17 4.39319e-16 0

0 4.93038e-32 -2.77556e-17
4.93038e-32 0 -2.498e-16
-2.77556e-17 -2.498e-16 0

-1.55431e-15 2.25514e-17 -3.05311e-16
2.25514e-17 -2.22045e-16 0
-3.05311e-16 0 0

0 -5.55112e-17 -5.55112e-17
-5.55112e-17 2.22045e-16 -1.49186e-16
-5.55112e-17 -1.49186e-16 2.22045e-16

0 -1.47911e-31 1.11022e-16
-1.47911e-31 2.22045e-16 -4.57967e-16
1.11022e-16 -4.57967e-16 2.22045e-16

-4.44089e-16 -6.93889e-18 1.11022e-16
-6.93889e-18 -2.22045e-16 0
1.11022e-16 0 0

0 2.77556e-16 1.11022e-16
2.77556e-16 2.22045e-16 1.56125e-17
1.11022e-16 1.56125e-17 0

-2.22045e-15 4.44089e-16 -2.77556e-16
4.44089e-16 -2.22045e-16 -1.94289e-16
-2.77556e-16 -1.94289e-16 0

0 9.86076e-32 -2.22045e-16
9.86076e-32 4.44089e-16 -2.18575e-16
-2.22045e-16 -2.18575e-16 2.22045e-16

0 0 -3.88578e-16
0 -1.11022e-16 0
-3.88578e-16 0 0

0 0 1.11022e-16
0 0 1.11022e-16
1.11022e-16 1.11022e-16 0

1.77636e-15 1.77636e-15 1.11022e-16
1.77636e-15 -1.77636e-15 4.44089e-16
1.11022e-16 4.44089e-16 0

0 -5.55112e-17 8.32667e-17
-5.55112e-17 -3.33067e-16 6.93889e-18
8.32667e-17 6.93889e-18 0

4.44089e-16 -2.08167e-17 1.94289e-16
-2.08167e-17 0 0
1.94289e-16 0 2.22045e-16

0 -5.55112e-17 1.66533e-16
-5.55112e-17 2.22045e-16 -2.77556e-16
1.66533e-16 -2.77556e-16 0

0 1.11022e-16 -5.55112e-17
1.11022e-16 0 0
-5.55112e-17 0 0

0 -3.46945e-18 -5.55112e-17
-3.46945e-18 2.22045e-16 1.07336e-16
-5.55112e-17 1.07336e-16 0

0 -8.88178e-16 0
-8.88178e-16 -2.22045e-16 2.35922e-16
0 2.35922e-16 0

-3.55271e-15 -1.44329e-15 -3.88578e-16
-1.44329e-15 0 4.71845e-16
-3.88578e-16 4.71845e-16 2.22045e-16

0 -3.55271e-15 -1.11022e-16
-3.55271e-15 0 6.93889e-18
-1.11022e-16 6.93889e-18 0

-8.88178e-16 4.996e-16 -5.55112e-17
4.996e-16 -4.44089e-16 4.44089e-16
-5.55112e-17 4.44089e-16 4.44089e-16

0 4.44089e-16 0
4.44089e-16 -3.33067e-16 -1.38778e-16
0 -1.38778e-16 0

0 -9.99201e-16 1.94289e-16
-9.99201e-16 -1.11022e-16 -2.28983e-16
1.94289e-16 -2.28983e-16 0

8.88178e-16 0 1.11022e-16
0 0 -6.93889e-18
1.11022e-16 -6.93889e-18 0

0 -2.77556e-16 -2.77556e-17
-2.77556e-16 0 2.22045e-16
-2.77556e-17 2.22045e-16 2.22045e-16

0 -5.55112e-17 1.66533e-16
-5.55112e-17 0 -4.42354e-16
1.66533e-16 -4.42354e-16 2.22045e-16

8.88178e-16 1.11022e-16 0
1.11022e-16 0 1.11022e-16
0 1.11022e-16 0

0 0 1.66533e-16
0 0 -8.32667e-17
1.66533e-16 -8.32667e-17 0

-4.44089e-16 4.44089e-16 -1.66533e-16
4.44089e-16 1.77636e-15 -1.11022e-16
-1.66533e-16 -1.11022e-16 0

-4.44089e-16 8.88178e-16 1.11022e-16
8.88178e-16 -8.88178e-16 9.4369e-16
1.11022e-16 9.4369e-16 0

0 0 -1.11022e-16
0 -2.22045e-16 3.46945e-18
-1.11022e-16 3.46945e-18 0

1.77636e-15 0 3.88578e-16
0 0 1.38778e-17
3.88578e-16 1.38778e-17 0

8.88178e-16 0 3.88578e-16
0 -3.33067e-16 1.38778e-17
3.88578e-16 1.38778e-17 0

0 1.11022e-16 -2.22045e-16
1.11022e-16 -2.22045e-16 -2.35922e-16
-2.22045e-16 -2.35922e-16 0

0 3.60822e-16 0
3.60822e-16 2.22045e-16 2.77556e-17
0 2.77556e-17 2.22045e-16

8.88178e-16 5.55112e-17 2.77556e-17
5.55112e-17 -1.11022e-16 -2.77556e-17
2.77556e-17 -2.77556e-17 2.22045e-16

-6.21725e-15 0 -1.11022e-16
0 1.77636e-15 0
-1.11022e-16 0 0

-6.21725e-15 0 -2.22045e-16
0 1.77636e-15 -2.77556e-17
-2.22045e-16 -2.77556e-17 0

8.88178e-16 0 1.66533e-16
0 0 0
1.66533e-16 0 0

-2.66454e-15 0 -5.55112e-17
0 0 4.16334e-16
-5.55112e-17 4.16334e-16 0

1.77636e-15 -8.88178e-16 1.66533e-16
-8.88178e-16 -1.11022e-16 -1.17961e-16
1.66533e-16 -1.17961e-16 0

2.22045e-16 0 1.11022e-16
0 0 0
1.11022e-16 0 2.22045e-16

2.22045e-16 -1.9984e-15 -2.46519e-32
-1.9984e-15 0 3.9443e-31
-2.46519e-32 3.9443e-31 0

4.44089e-16 -9.02056e-16 -2.46519e-32
-9.02056e-16 2.22045e-16 -6.93889e-18
-2.46519e-32 -6.93889e-18 2.22045e-16

0 1.33227e-15 1.66533e-16
1.33227e-15 2.22045e-16 6.245e-17
1.66533e-16 6.245e-17 0

0 -3.60822e-16 -1.73472e-16
-3.60822e-16 0 -2.77556e-17
-1.73472e-16 -2.77556e-17 2.22045e-16

-2.66454e-15 7.77156e-16 -1.11022e-16
7.77156e-16 0 -1.38778e-17
-1.11022e-16 -1.38778e-17 0

-8.88178e-16 0 5.55112e-17
0 0 0
5.55112e-17 0 0

0 -2.22045e-16 2.77556e-17
-2.22045e-16 4.44089e-16 1.38778e-17
2.77556e-17 1.38778e-17 0

-8.88178e-16 0 1.11022e-16
0 2.22045e-16 -4.64906e-16
1.11022e-16 -4.64906e-16 2.22045e-16

8.88178e-16 0 -8.32667e-17
0 -2.22045e-16 6.93889e-18
-8.32667e-17 6.93889e-18 0

-3.55271e-15 -1.97215e-31 2.22045e-16
-1.97215e-31 -3.55271e-15 -4.71845e-16
2.22045e-16 -4.71845e-16 0

-8.88178e-16 6.66134e-16 6.66134e-16
6.66134e-16 2.66454e-15 6.10623e-16
6.66134e-16 6.10623e-16 0

0 -8.88178e-16 -5.55112e-17
-8.88178e-16 0 9.86076e-32
-5.55112e-17 9.86076e-32 0

1.33227e-15 2.77556e-17 -1.38778e-16
2.77556e-17 2.22045e-16 0
-1.38778e-16 0 0

0 -2.22045e-16 1.66533e-16
-2.22045e-16 0 1.38778e-17
1.66533e-16 1.38778e-17 0

-1.55431e-15 9.71445e-17 -5.55112e-17
9.71445e-17 0 -1.04083e-17
-5.55112e-17 -1.04083e-17 0

0 3.60822e-16 -1.11022e-16
3.60822e-16 -1.11022e-16 -1.45717e-16
-1.11022e-16 -1.45717e-16 0

3.55271e-15 1.60982e-15 -5.55112e-17
1.60982e-15 0 -4.30211e-16
-5.55112e-17 -4.30211e-16 2.22045e-16

4.44089e-16 1.38778e-17 5.55112e-17
1.38778e-17 -3.33067e-16 -4.51028e-16
5.55112e-17 -4.51028e-16 0

-2.22045e-16 2.22045e-16 0
2.22045e-16 0 2.77556e-17
0 2.77556e-17 2.22045e-16

1.33227e-15 -3.81639e-17 2.35922e-16
-3.81639e-17 0 0
2.35922e-16 0 2.22045e-16

-1.33227e-15 -4.16334e-17 5.55112e-17
-4.16334e-17 2.22045e-16 -4.44089e-16
5.55112e-17 -4.44089e-16 2.22045e-16

0 -2.77556e-17 -1.11022e-16
-2.77556e-17 -4.44089e-16 4.85723e-16
-1.11022e-16 4.85723e-16 0

0 -2.498e-16 -2.77556e-16
-2.498e-16 4.44089e-16 0
-2.77556e-16 0 2.22045e-16

8.88178e-16 9.64127e-17 0
9.64127e-17 -1.66533e-15 5.88512e-16
0 5.88512e-16 2.22045e-16

0 1.97657e-16 3.88578e-16
1.97657e-16 -1.55431e-15 8.26298e-17
3.88578e-16 8.26298e-17 0

0 -5.55112e-17 5.55112e-17
-5.55112e-17 0 -4.16334e-17
5.55112e-17 -4.16334e-17 2.22045e-16

0 -4.44089e-16 -2.77556e-17
-4.44089e-16 0 -1.38778e-17
-2.77556e-17 -1.38778e-17 0

0 -1.58901e-15 5.55112e-17
-1.58901e-15 0 2.77556e-17
5.55112e-17 2.77556e-17 0

2.88658e-15 -1.7486e-15 -1.249e-16
-1.7486e-15 0 -1.38778e-17
-1.249e-16 -1.38778e-17 2.22045e-16

0 0 -2.77556e-17
0 0 1.38778e-17
-2.77556e-17 1.38778e-17 0

0 -1.11022e-16 -5.55112e-17
-1.11022e-16 -1.11022e-16 -1.38778e-16
-5.55112e-17 -1.38778e-16 0

-2.66454e-15 -3.9443e-31 -4.44089e-16
-3.9443e-31 0 4.47559e-16
-4.44089e-16 4.47559e-16 0

0 5.55112e-17 -8.32667e-17
5.55112e-17 -3.33067e-16 1.94289e-16
-8.32667e-17 1.94289e-16 0

0 -8.32667e-17 5.55112e-17
-8.32667e-17 4.44089e-16 2.08167e-16
5.55112e-17 2.08167e-16 0

4.44089e-16 -8.60423e-16 -2.77556e-17
-8.60423e-16 0 -8.32667e-17
-2.77556e-17 -8.32667e-17 2.22045e-16

0 9.71445e-17 -5.55112e-17
9.71445e-17 2.22045e-16 -1.38778e-17
-5.55112e-17 -1.38778e-17 2.22045e-16

-2.22045e-16 -1.80411e-16 -8.32667e-17
-1.80411e-16 0 -2.77556e-17
-8.32667e-17 -2.77556e-17 0

1.33227e-15 -3.33067e-16 2.77556e-16
-3.33067e-16 0 6.93889e-17
2.77556e-16 6.93889e-17 0

1.33227e-15 -1.66533e-16 -1.38778e-16
-1.66533e-16 -4.44089e-16 -5.13478e-16
-1.38778e-16 -5.13478e-16 2.22045e-16

8.88178e-16 6.66134e-16 -1.94289e-16
6.66134e-16 0 -6.93889e-18
-1.94289e-16 -6.93889e-18 2.22045e-16

0 1.08247e-15 -1.11022e-16
1.08247e-15 0 -1.38778e-17
-1.11022e-16 -1.38778e-17 0

2.66454e-15 -1.66533e-16 -5.55112e-17
-1.66533e-16 -4.44089e-16 0
-5.55112e-17 0 0

3.55271e-15 -1.33227e-15 -5.55112e-17
-1.33227e-15 0 -8.32667e-17
-5.55112e-17 -8.32667e-17 0

0 1.33227e-15 5.55112e-17
1.33227e-15 0 8.32667e-17
5.55112e-17 8.32667e-17 0

0 7.77156e-16 -1.66533e-16
7.77156e-16 -1.11022e-16 -6.93889e-18
-1.66533e-16 -6.93889e-18 0

0 0 2.77556e-16
0 2.22045e-16 -3.46945e-18
2.77556e-16 -3.46945e-18 2.22045e-16

0 -1.11022e-16 3.88578e-16
-1.11022e-16 0 4.71845e-16
3.88578e-16 4.71845e-16 2.22045e-16

-3.55271e-15 -1.11022e-16 -5.55112e-16
-1.11022e-16 8.88178e-16 -1.38778e-17
-5.55112e-16 -1.38778e-17 0

0 -2.22045e-16 -5.55112e-17
-2.22045e-16 -3.33067e-16 1.38778e-17
-5.55112e-17 1.38778e-17 0

3.55271e-15 1.72085e-15 -2.77556e-16
1.72085e-15 0 1.38778e-17
-2.77556e-16 1.38778e-17 0

0 -2.77556e-17 3.85186e-34
-2.77556e-17 2.22045e-16 -6.93889e-18
3.85186e-34 -6.93889e-18 2.22045e-16

0 -5.32907e-15 2.77556e-16
-5.32907e-15 0 8.88178e-16
2.77556e-16 8.88178e-16 2.22045e-16

0 3.55271e-15 3.33067e-16
3.55271e-15 0 -9.02056e-16
3.33067e-16 -9.02056e-16 2.22045e-16

0 3.88578e-16 -2.77556e-17
3.88578e-16 0 9.71445e-17
-2.77556e-17 9.71445e-17 0

0 -9.99201e-16 -5.55112e-17
-9.99201e-16 0 -5.55112e-17
-5.55112e-17 -5.55112e-17 0

0 8.88178e-16 -1.66533e-16
8.88178e-16 0 1.80411e-16
-1.66533e-16 1.80411e-16 0

-3.55271e-15 -2.22045e-16 -1.66533e-16
-2.22045e-16 0 -1.249e-16
-1.66533e-16 -1.249e-16 -1.11022e-16

-2.22045e-16 -2.77556e-17 -3.88578e-16
-2.77556e-17 2.22045e-16 1.38778e-17
-3.88578e-16 1.38778e-17 -2.22045e-16

-1.77636e-15 -1.11022e-16 -5.55112e-16
-1.11022e-16 -4.44089e-16 -1.94289e-16
-5.55112e-16 -1.94289e-16 0

0 -1.66533e-16 5.55112e-17
-1.66533e-16 0 2.42861e-16
5.55112e-17 2.42861e-16 0

0 0 -1.11022e-16
0 0 -4.44089e-16
-1.11022e-16 -4.44089e-16 0

-3.55271e-15 -8.88178e-16 -3.33067e-16
-8.88178e-16 0 -1.73472e-18
-3.33067e-16 -1.73472e-18 0

0 -2.77556e-17 -2.22045e-16
-2.77556e-17 0 4.02456e-16
-2.22045e-16 4.02456e-16 0

0 1.33227e-15 -2.22045e-16
1.33227e-15 0 -1.38778e-17
-2.22045e-16 -1.38778e-17 0

0 -8.32667e-16 -4.996e-16
-8.32667e-16 0 -4.44957e-16
-4.996e-16 -4.44957e-16 0

-3.55271e-15 0 -5.55112e-17
0 0 -1.38778e-17
-5.55112e-17 -1.38778e-17 0

0 -1.66533e-15 -1.11022e-16
-1.66533e-15 -4.44089e-16 1.38778e-17
-1.11022e-16 1.38778e-17 0

0 -1.33227e-15 5.55112e-17
-1.33227e-15 0 2.77556e-17
5.55112e-17 2.77556e-17 2.22045e-16

-3.55271e-15 1.33227e-15 -4.44089e-16
1.33227e-15 -6.66134e-16 1.38778e-16
-4.44089e-16 1.38778e-16 0

8.88178e-16 5.55112e-17 2.22045e-16
5.55112e-17 0 -4.3715e-16
2.22045e-16 -4.3715e-16 0

0 1.11022e-16 5.55112e-17
1.11022e-16 -1.11022e-16 1.1189e-16
5.55112e-17 1.1189e-16 0

3.55271e-15 1.77636e-15 1.11022e-16
1.77636e-15 6.66134e-16 4.16334e-16
1.11022e-16 4.16334e-16 2.22045e-16

3.55271e-15 2.22045e-16 2.77556e-16
2.22045e-16 -2.22045e-16 1.52656e-16
2.77556e-16 1.52656e-16 0

0 -1.38778e-15 -1.11022e-16
-1.38778e-15 -1.55431e-15 1.66533e-16
-1.11022e-16 1.66533e-16 0

0 -1.66533e-15 4.44089e-16
-1.66533e-15 2.22045e-16 2.77556e-17
4.44089e-16 2.77556e-17 2.22045e-16

-1.77636e-15 1.11022e-16 5.55112e-16
1.11022e-16 -1.11022e-16 1.249e-16
5.55112e-16 1.249e-16 0

0 -2.22045e-16 0
-2.22045e-16 0 -2.91434e-16
0 -2.91434e-16 0

0 4.44089e-16 4.44089e-16
4.44089e-16 0 2.28983e-16
4.44089e-16 2.28983e-16 2.22045e-16

0 0 2.77556e-16
0 0 0
2.77556e-16 0 0

0 0 2.22045e-16
0 0 1.38778e-17
2.22045e-16 1.38778e-17 0

8.88178e-16 -4.44089e-16 5.27356e-16
-4.44089e-16 4.44089e-16 -4.44089e-16
5.27356e-16 -4.44089e-16 0

-1.77636e-15 -2.22045e-16 0
-2.22045e-16 0 0
0 0 0

0 -1.11022e-16 5.55112e-17
-1.11022e-16 0 -4.996e-16
5.55112e-17 -4.996e-16 0

0 0 -1.11022e-16
0 0 -2.77556e-17
-1.11022e-16 -2.77556e-17 0

0 3.55271e-15 -1.11022e-16
3.55271e-15 0 1.38778e-17
-1.11022e-16 1.38778e-17 2.22045e-16

0 0 1.11022e-16
0 0 0
1.11022e-16 0 0

0 0 -2.22045e-16
0 0 0
-2.22045e-16 0 2.22045e-16

8.88178e-16 0 5.55112e-17
0 1.77636e-15 5.55112e-17
5.55112e-17 5.55112e-17 2.22045e-16

8.88178e-16 3.33067e-16 2.77556e-17
3.33067e-16 -4.44089e-16 -4.996e-16
2.77556e-17 -4.996e-16 2.22045e-16

1.77636e-15 -9.54792e-15 1.05471e-15
-9.54792e-15 -5.88418e-15 -1.67921e-15
1.05471e-15 -1.67921e-15 0

-9.9476e-14 -4.44089e-15 -3.66374e-15
-4.44089e-15 4.44089e-16 4.71845e-16
-3.66374e-15 4.71845e-16 0

-9.9476e-14 4.44089e-15 -3.55271e-15
4.44089e-15 4.44089e-16 -4.57967e-16
-3.55271e-15 -4.57967e-16 0

0 1.24345e-14 1.72085e-15
1.24345e-14 -7.10543e-15 1.38778e-17
1.72085e-15 1.38778e-17 0

0 4.44089e-16 1.2326e-32
4.44089e-16 -4.44089e-16 1.38778e-17
1.2326e-32 1.38778e-17 2.22045e-16

0 -8.88178e-16 -5.55112e-17
-8.88178e-16 -8.88178e-16 2.77556e-17
-5.55112e-17 2.77556e-17 -1.11022e-16

1.77636e-15 0 -5.55112e-17
0 3.55271e-15 5.55112e-17
-5.55112e-17 5.55112e-17 0

3.55271e-15 -2.22045e-15 5.55112e-17
-2.22045e-15 0 4.71845e-16
5.55112e-17 4.71845e-16 0

3.55271e-15 2.22045e-16 -7.21645e-16
2.22045e-16 0 2.77556e-17
-7.21645e-16 2.77556e-17 0

0 -1.77636e-15 1.11022e-16
-1.77636e-15 2.22045e-16 -3.9443e-31
1.11022e-16 -3.9443e-31 0

-3.55271e-15 -4.44089e-16 0
-4.44089e-16 -6.66134e-16 3.33067e-16
0 3.33067e-16 0

5.32907e-15 -4.44089e-16 1.11022e-16
-4.44089e-16 -6.66134e-16 4.02456e-16
1.11022e-16 4.02456e-16 0

0 4.44089e-16 -1.66533e-16
4.44089e-16 -2.22045e-16 -3.60822e-16
-1.66533e-16 -3.60822e-16 0

7.10543e-15 4.44089e-16 3.88578e-16
4.44089e-16 -4.44089e-16 -4.16334e-16
3.88578e-16 -4.16334e-16 0

0 8.88178e-16 4.16334e-17
8.88178e-16 0 -2.22045e-16
4.16334e-17 -2.22045e-16 0

-2.22045e-16 8.32667e-17 2.77556e-17
8.32667e-17 -4.44089e-16 2.498e-16
2.77556e-17 2.498e-16 0

0 -5.55112e-17 8.32667e-17
-5.55112e-17 0 1.66533e-16
8.32667e-17 1.66533e-16 0

0 0 9.71445e-17
0 0 1.11022e-16
9.71445e-17 1.11022e-16 0

2.22045e-16 8.04912e-16 -2.28983e-16
8.04912e-16 -6.66134e-16 -1.66533e-16
-2.28983e-16 -1.66533e-16 2.22045e-16

0 2.77556e-17 2.498e-16
2.77556e-17 -4.44089e-16 -2.63678e-16
2.498e-16 -2.63678e-16 0

-7.77156e-16 1.66533e-16 8.32667e-17
1.66533e-16 0 -1.66533e-16
8.32667e-17 -1.66533e-16 0

-2.22045e-16 0 3.46945e-17
0 0 -5.55112e-17
3.46945e-17 -5.55112e-17 0

2.22045e-16 -5.55112e-17 2.08167e-17
-5.55112e-17 0 5.55112e-17
2.08167e-17 5.55112e-17 0

2.22045e-16 -4.44089e-16 2.77556e-17
-4.44089e-16 0 1.11022e-16
2.77556e-17 1.11022e-16 0

2.22045e-16 -6.66134e-16 2.22045e-16
-6.66134e-16 0 -2.77556e-17
2.22045e-16 -2.77556e-17 2.22045e-16

1.33227e-15 8.88178e-16 -2.22045e-16
8.88178e-16 -4.44089e-16 -2.77556e-17
-2.22045e-16 -2.77556e-17 2.22045e-16

0 -4.44089e-16 -9.71445e-17
-4.44089e-16 -6.66134e-16 -5.55112e-17
-9.71445e-17 -5.55112e-17 -1.11022e-16

-6.66134e-16 -6.66134e-16 -1.66533e-16
-6.66134e-16 0 4.44089e-16
-1.66533e-16 4.44089e-16 0

0 -1.11022e-16 2.35922e-16
-1.11022e-16 -8.88178e-16 -3.08149e-33
2.35922e-16 -3.08149e-33 0

2.22045e-16 -5.55112e-17 2.22045e-16
-5.55112e-17 -2.22045e-16 4.44089e-16
2.22045e-16 4.44089e-16 0

0 0 0
0 0 2.77556e-16
0 2.77556e-16 0

0 1.11022e-16 -1.38778e-17
1.11022e-16 6.66134e-16 2.77556e-17
-1.38778e-17 2.77556e-17 2.22045e-16

-1.9984e-15 0 5.55112e-17
0 0 3.05311e-16
5.55112e-17 3.05311e-16 0

-4.44089e-16 5.55112e-16 -6.93889e-17
5.55112e-16 -1.55431e-15 2.22045e-16
-6.93889e-17 2.22045e-16 0

0 2.22045e-16 -8.32667e-17
2.22045e-16 -8.88178e-16 1.38778e-16
-8.32667e-17 1.38778e-16 2.22045e-16

-6.66134e-16 7.77156e-16 1.11022e-16
7.77156e-16 0 2.77556e-17
1.11022e-16 2.77556e-17 2.22045e-16

-4.44089e-16 1.38778e-16 -2.22045e-16
1.38778e-16 0 -1.66533e-16
-2.22045e-16 -1.66533e-16 0

-1.11022e-16 -9.4369e-16 -1.38778e-17
-9.4369e-16 0 -5.55112e-17
-1.38778e-17 -5.55112e-17 0

4.44089e-16 -4.30211e-16 -2.22045e-16
-4.30211e-16 -2.22045e-16 -1.38778e-17
-2.22045e-16 -1.38778e-17 0

0 0 8.32667e-17
0 0 -2.77556e-17
8.32667e-17 -2.77556e-17 2.22045e-16

0 -8.88178e-16 8.32667e-17
-8.88178e-16 0 -1.11022e-16
8.32667e-17 -1.11022e-16 0

0 4.44089e-16 -4.93038e-32
4.44089e-16 0 -5.55112e-17
-4.93038e-32 -5.55112e-17 0

0 9.4369e-16 -2.42861e-16
9.4369e-16 0 1.11022e-16
-2.42861e-16 1.11022e-16 2.22045e-16

0 0 -2.77556e-17
0 0 -1.94289e-16
-2.77556e-17 -1.94289e-16 0

0 -4.44089e-16 -1.66533e-16
-4.44089e-16 2.22045e-16 -2.22045e-16
-1.66533e-16 -2.22045e-16 0

4.44089e-16 -1.77636e-15 2.498e-16
-1.77636e-15 2.66454e-15 1.11022e-16
2.498e-16 1.11022e-16 0

-1.11022e-16 8.88178e-16 4.4062e-16
8.88178e-16 4.44089e-16 -1.11022e-16
4.4062e-16 -1.11022e-16 0

-2.22045e-16 0 6.93889e-18
0 -1.77636e-15 2.22045e-16
6.93889e-18 2.22045e-16 0

0 -7.21645e-16 -6.93889e-17
-7.21645e-16 0 5.55112e-17
-6.93889e-17 5.55112e-17 0

-2.22045e-16 -7.21645e-16 1.38778e-16
-7.21645e-16 0 -5.55112e-17
1.38778e-16 -5.55112e-17 0

-2.22045e-16 -9.02056e-17 -2.34188e-16
-9.02056e-17 0 -2.77556e-16
-2.34188e-16 -2.77556e-16 -1.11022e-16

0 0 3.46945e-18
0 -8.88178e-16 3.05311e-16
3.46945e-18 3.05311e-16 2.22045e-16

0 -3.88578e-16 4.93038e-32
-3.88578e-16 0 1.66533e-16
4.93038e-32 1.66533e-16 0

0 -4.16334e-16 -1.94289e-16
-4.16334e-16 1.77636e-15 -3.60822e-16
-1.94289e-16 -3.60822e-16 0

4.44089e-16 2.22045e-16 3.69779e-32
2.22045e-16 0 8.32667e-17
3.69779e-32 8.32667e-17 2.22045e-16

0 -2.77556e-16 2.39392e-16
-2.77556e-16 0 7.70372e-34
2.39392e-16 7.70372e-34 0

0 -1.66533e-16 1.80411e-16
-1.66533e-16 0 -3.05311e-16
1.80411e-16 -3.05311e-16 2.22045e-16

0 2.22045e-16 -4.16334e-17
2.22045e-16 1.77636e-15 -2.498e-16
-4.16334e-17 -2.498e-16 0

0 7.39557e-32 -2.498e-16
7.39557e-32 8.88178e-16 -2.498e-16
-2.498e-16 -2.498e-16 0

0 1.94289e-16 -2.77556e-17
1.94289e-16 -4.44089e-16 5.55112e-17
-2.77556e-17 5.55112e-17 0

8.88178e-16 8.88178e-16 -1.66533e-16
8.88178e-16 0 1.11022e-16
-1.66533e-16 1.11022e-16 0

8.88178e-16 -2.22045e-16 -2.77556e-16
-2.22045e-16 -2.66454e-15 -2.77556e-17
-2.77556e-16 -2.77556e-17 0

-4.44089e-16 4.44089e-16 -2.77556e-17
4.44089e-16 0 -2.77556e-17
-2.77556e-17 -2.77556e-17 0

8.88178e-16 4.44089e-16 0
4.44089e-16 0 -8.32667e-17
0 -8.32667e-17 0

-8.88178e-16 2.22045e-16 2.77556e-17
2.22045e-16 0 5.55112e-17
2.77556e-17 5.55112e-17 -1.11022e-16

-8.88178e-16 7.21645e-16 -2.22045e-16
7.21645e-16 -8.88178e-16 5.55112e-17
-2.22045e-16 5.55112e-17 0

2.22045e-15 2.10942e-15 1.66533e-16
2.10942e-15 -3.55271e-15 3.88578e-16
1.66533e-16 3.88578e-16 2.22045e-16

0 0 3.60822e-16
0 0 -8.32667e-17
3.60822e-16 -8.32667e-17 0

-1.77636e-15 -8.88178e-16 -1.66533e-16
-8.88178e-16 0 1.94289e-16
-1.66533e-16 1.94289e-16 0

0 6.66134e-16 1.11022e-16
6.66134e-16 0 1.11022e-16
1.11022e-16 1.11022e-16 0

4.44089e-16 9.86076e-32 -1.66533e-16
9.86076e-32 -4.44089e-16 -2.498e-16
-1.66533e-16 -2.498e-16 0

0 -4.44089e-16 7.39557e-32
-4.44089e-16 -6.66134e-16 9.87703e-17
7.39557e-32 9.87703e-17 0

0 -5.04871e-29 0
-5.04871e-29 1.33227e-15 -1.73832e-16
0 -1.73832e-16 0

1.77636e-15 -1.67921e-15 -5.55112e-17
-1.67921e-15 1.55431e-15 -9.71445e-17
-5.55112e-17 -9.71445e-17 0

-8.88178e-16 -7.21645e-16 -8.32667e-17
-7.21645e-16 1.77636e-15 -1.04083e-16
-8.32667e-17 -1.04083e-16 0

2.22045e-16 2.22045e-16 -1.38778e-17
2.22045e-16 4.44089e-16 2.22045e-16
-1.38778e-17 2.22045e-16 0

0 -8.88178e-16 2.22045e-16
-8.88178e-16 0 0
2.22045e-16 0 0

0 0 -5.55112e-17
0 0 1.11022e-16
-5.55112e-17 1.11022e-16 0

-7.77156e-16 2.22045e-16 5.55112e-17
2.22045e-16 1.77636e-15 0
5.55112e-17 0 0

0 1.97215e-31 2.22045e-16
1.97215e-31 0 5.27356e-16
2.22045e-16 5.27356e-16 0

0 0 0
0 -1.77636e-15 -2.498e-16
0 -2.498e-16 0

4.44089e-16 -5.55112e-17 -1.94289e-16
-5.55112e-17 6.66134e-16 -3.69779e-32
-1.94289e-16 -3.69779e-32 0

0 -3.88578e-16 -2.77556e-17
-3.88578e-16 -1.11022e-15 -1.66533e-16
-2.77556e-17 -1.66533e-16 0

0 -7.10543e-15 -1.66533e-16
-7.10543e-15 7.10543e-15 -1.63758e-15
-1.66533e-16 -1.63758e-15 -1.11022e-16

0 -6.21725e-15 5.55112e-17
-6.21725e-15 -7.10543e-15 9.99201e-16
5.55112e-17 9.99201e-16 0

-5.55112e-16 0 -1.38778e-16
0 0 0
-1.38778e-16 0 0

0 -4.44089e-16 -1.38778e-16
-4.44089e-16 4.44089e-16 -2.498e-16
-1.38778e-16 -2.498e-16 0

1.77636e-15 -8.88178e-16 1.66533e-16
-8.88178e-16 1.77636e-15 5.55112e-17
1.66533e-16 5.55112e-17 -1.11022e-16

0 -8.32667e-16 1.8735e-16
-8.32667e-16 2.66454e-15 -1.11022e-16
1.8735e-16 -1.11022e-16 0

8.88178e-16 3.33067e-16 -5.55112e-17
3.33067e-16 -1.77636e-15 2.77556e-16
-5.55112e-17 2.77556e-16 0

0 -1.66533e-16 -9.71445e-17
-1.66533e-16 0 -1.11022e-16
-9.71445e-17 -1.11022e-16 0

8.88178e-16 -4.93038e-32 1.38778e-16
-4.93038e-32 0 -2.498e-16
1.38778e-16 -2.498e-16 0

-4.44089e-16 -7.77156e-16 5.55112e-17
-7.77156e-16 -2.22045e-16 1.11022e-16
5.55112e-17 1.11022e-16 2.22045e-16

0 0 -5.89806e-17
0 0 -5.55112e-17
-5.89806e-17 -5.55112e-17 0

4.44089e-16 -4.44089e-16 -2.23779e-16
-4.44089e-16 -1.77636e-15 2.22045e-16
-2.23779e-16 2.22045e-16 0

0 -4.44089e-16 2.46519e-32
-4.44089e-16 0 1.94289e-16
2.46519e-32 1.94289e-16 0

0 -3.60822e-16 4.16334e-16
-3.60822e-16 0 2.00297e-32
4.16334e-16 2.00297e-32 0

0 0 -2.08167e-16
0 4.44089e-16 5.55112e-17
-2.08167e-16 5.55112e-17 0

0 4.44089e-16 -3.60822e-16
4.44089e-16 -8.88178e-16 5.55112e-17
-3.60822e-16 5.55112e-17 4.44089e-16

0 2.22045e-16 2.77556e-17
2.22045e-16 0 -3.33067e-16
2.77556e-17 -3.33067e-16 -1.11022e-16

0 2.22045e-16 -1.2326e-32
2.22045e-16 0 2.35922e-16
-1.2326e-32 2.35922e-16 0

-1.11022e-16 0 -6.93889e-17
0 0 2.77556e-17
-6.93889e-17 2.77556e-17 0

2.22045e-16 8.32667e-17 -2.08167e-16
8.32667e-17 4.44089e-16 8.32667e-17
-2.08167e-16 8.32667e-17 0

0 1.66533e-16 0
1.66533e-16 -8.88178e-16 5.55112e-17
0 5.55112e-17 0

8.88178e-16 0 -1.66533e-16
0 0 -1.11022e-16
-1.66533e-16 -1.11022e-16 2.22045e-16

0 0 1.66533e-16
0 -4.44089e-16 -5.55112e-17
1.66533e-16 -5.55112e-17 0

-6.66134e-16 -1.55431e-15 -1.80411e-16
-1.55431e-15 0 2.77556e-16
-1.80411e-16 2.77556e-16 0

-1.66533e-15 6.80012e-16 -1.8735e-16
6.80012e-16 0 1.38778e-16
-1.8735e-16 1.38778e-16 2.22045e-16

-2.22045e-16 9.85323e-16 -2.77556e-17
9.85323e-16 -8.88178e-16 5.55112e-17
-2.77556e-17 5.55112e-17 -2.22045e-16

0 8.88178e-16 5.55112e-17
8.88178e-16 -1.77636e-15 -2.22045e-16
5.55112e-17 -2.22045e-16 0

0 0 8.32667e-17
0 -1.77636e-15 -5.55112e-17
8.32667e-17 -5.55112e-17 2.22045e-16

-8.88178e-16 -2.22045e-16 -2.22045e-16
-2.22045e-16 -1.55431e-15 -2.22045e-16
-2.22045e-16 -2.22045e-16 0

1.77636e-15 9.4369e-16 -1.11022e-16
9.4369e-16 2.22045e-16 -2.77556e-17
-1.11022e-16 -2.77556e-17 2.22045e-16

-1.11022e-16 2.22045e-16 -2.08167e-16
2.22045e-16 -1.77636e-15 2.77556e-17
-2.08167e-16 2.77556e-17 0

0 2.22045e-16 -2.498e-16
2.22045e-16 -4.44089e-16 -2.77556e-17
-2.498e-16 -2.77556e-17 0

8.88178e-16 -7.77156e-16 -5.55112e-17
-7.77156e-16 8.88178e-16 3.69779e-32
-5.55112e-17 3.69779e-32 2.22045e-16

4.44089e-16 -6.66134e-16 1.38778e-16
-6.66134e-16 0 5.55112e-17
1.38778e-16 5.55112e-17 2.22045e-16

2.22045e-16 -4.44089e-16 1.66533e-16
-4.44089e-16 0 -2.77556e-17
1.66533e-16 -2.77556e-17 2.22045e-16

-8.88178e-16 8.88178e-16 -2.77556e-17
8.88178e-16 0 8.32667e-17
-2.77556e-17 8.32667e-17 0

-1.11022e-16 -6.93889e-16 4.85723e-17
-6.93889e-16 0 0
4.85723e-17 0 0

-1.11022e-16 0 1.38778e-17
0 0 1.11022e-16
1.38778e-17 1.11022e-16 0

0 1.11022e-16 5.55112e-17
1.11022e-16 8.88178e-16 0
5.55112e-17 0 2.22045e-16

-2.22045e-16 0 -5.55112e-17
0 0 -5.55112e-17
-5.55112e-17 -5.55112e-17 0

-8.88178e-16 2.22045e-16 -2.22045e-16
2.22045e-16 -1.77636e-15 1.66533e-16
-2.22045e-16 1.66533e-16 0

8.88178e-16 2.22045e-16 1.11022e-16
2.22045e-16 0 1.11022e-16
1.11022e-16 1.11022e-16 0

-2.22045e-16 5.27356e-16 5.55112e-17
5.27356e-16 -1.77636e-15 5.55112e-17
5.55112e-17 5.55112e-17 0

0 1.66533e-16 2.77556e-17
1.66533e-16 -8.88178e-16 3.05311e-16
2.77556e-17 3.05311e-16 0

0 1.11022e-16 -2.77556e-17
1.11022e-16 -1.77636e-15 -4.996e-16
-2.77556e-17 -4.996e-16 2.22045e-16

-9.99201e-16 5.55112e-17 0
5.55112e-17 0 -4.44089e-16
0 -4.44089e-16 0

6.66134e-16 -2.08167e-17 2.08167e-17
-2.08167e-17 0 -1.38778e-17
2.08167e-17 -1.38778e-17 0

0 0 2.22045e-16
0 4.44089e-16 0
2.22045e-16 0 0

0 0 2.22045e-16
0 0 0
2.22045e-16 0 0

4.44089e-16 4.44089e-16 -1.249e-16
4.44089e-16 0 -1.2326e-32
-1.249e-16 -1.2326e-32 0

4.44089e-16 2.08167e-16 0
2.08167e-16 -2.22045e-16 -1.66533e-16
0 -1.66533e-16 2.22045e-16

8.88178e-16 -3.33067e-16 -2.77556e-17
-3.33067e-16 1.77636e-15 1.66533e-16
-2.77556e-17 1.66533e-16 0

8.88178e-16 -8.88178e-16 -1.47911e-31
-8.88178e-16 -2.22045e-16 1.94289e-16
-1.47911e-31 1.94289e-16 0

0 4.44089e-16 -2.77556e-17
4.44089e-16 0 5.55112e-17
-2.77556e-17 5.55112e-17 2.22045e-16

-1.11022e-16 1.11022e-16 1.38778e-16
1.11022e-16 0 4.16334e-16
1.38778e-16 4.16334e-16 0

0 -8.88178e-16 -1.38778e-16
-8.88178e-16 0 1.11022e-16
-1.38778e-16 1.11022e-16 -2.22045e-16

4.44089e-16 0 9.4369e-16
0 0 -5.55112e-17
9.4369e-16 -5.55112e-17 0

4.44089e-16 -2.22045e-16 -9.15934e-16
-2.22045e-16 8.88178e-16 1.38778e-17
-9.15934e-16 1.38778e-17 2.22045e-16

-8.88178e-16 -1.22125e-15 1.11022e-16
-1.22125e-15 8.88178e-16 1.11022e-16
1.11022e-16 1.11022e-16 -1.11022e-16

0 0 2.77556e-17
0 0 -5.55112e-17
2.77556e-17 -5.55112e-17 0

-1.77636e-15 -8.88178e-16 -1.66533e-16
-8.88178e-16 4.44089e-16 -2.22045e-16
-1.66533e-16 -2.22045e-16 0

-2.22045e-16 9.86076e-32 -9.71445e-17
9.86076e-32 -8.88178e-16 -4.16334e-16
-9.71445e-17 -4.16334e-16 2.22045e-16

-2.22045e-16 4.44089e-16 4.16334e-17
4.44089e-16 0 3.33067e-16
4.16334e-17 3.33067e-16 2.22045e-16

0 0 0
0 0 -2.77556e-17
0 -2.77556e-17 0

0 9.86076e-32 1.66533e-16
9.86076e-32 1.77636e-15 1.66533e-16
1.66533e-16 1.66533e-16 0

-2.22045e-16 3.33067e-16 -2.77556e-17
3.33067e-16 0 2.77556e-17
-2.77556e-17 2.77556e-17 2.22045e-16

0 -8.88178e-16 4.16334e-17
-8.88178e-16 0 5.55112e-17
4.16334e-17 5.55112e-17 0

0 0 0
0 8.88178e-16 -8.32667e-17
0 -8.32667e-17 0

0 8.88178e-16 -5.55112e-17
8.88178e-16 -2.22045e-15 2.22045e-16
-5.55112e-17 2.22045e-16 0

-1.11022e-16 4.93038e-32 -1.04083e-16
4.93038e-32 8.88178e-16 -1.66533e-16
-1.04083e-16 -1.66533e-16 0

8.88178e-16 8.88178e-16 2.498e-16
8.88178e-16 0 5.55112e-17
2.498e-16 5.55112e-17 0

0 2.77556e-17 0
2.77556e-17 8.88178e-16 -8.32667e-17
0 -8.32667e-17 2.22045e-16

-3.33067e-16 0 1.38778e-16
0 0 -5.55112e-17
1.38778e-16 -5.55112e-17 0

-2.22045e-16 4.44089e-16 0
4.44089e-16 1.77636e-15 2.22045e-16
0 2.22045e-16 0

0 0 3.05311e-16
0 0 -2.77556e-17
3.05311e-16 -2.77556e-17 0

-8.88178e-16 0 2.77556e-17
0 -1.77636e-15 -5.55112e-17
2.77556e-17 -5.55112e-17 0

-8.88178e-16 8.88178e-16 1.38778e-16
8.88178e-16 -3.55271e-15 5.55112e-17
1.38778e-16 5.55112e-17 0

0 0 1.11022e-16
0 1.33227e-15 -1.66533e-16
1.11022e-16 -1.66533e-16 0

0 0 5.55112e-17
0 8.88178e-16 -1.94289e-16
5.55112e-17 -1.94289e-16 0

4.44089e-16 4.44089e-16 -2.77556e-17
4.44089e-16 0 3.88578e-16
-2.77556e-17 3.88578e-16 0

0 -2.22045e-16 3.33067e-16
-2.22045e-16 1.77636e-15 2.77556e-17
3.33067e-16 2.77556e-17 2.22045e-16

1.77636e-15 4.44089e-16 5.55112e-17
4.44089e-16 0 8.32667e-17
5.55112e-17 8.32667e-17 0

0 9.86076e-32 2.77556e-16
9.86076e-32 0 1.66533e-16
2.77556e-16 1.66533e-16 0

0 0 -2.77556e-17
0 0 8.32667e-17
-2.77556e-17 8.32667e-17 0

4.44089e-16 3.33067e-16 -1.52656e-16
3.33067e-16 -2.22045e-16 -5.55112e-17
-1.52656e-16 -5.55112e-17 0

-2.22045e-16 1.94289e-16 -5.55112e-17
1.94289e-16 -2.22045e-16 1.94289e-16
-5.55112e-17 1.94289e-16 2.22045e-16

0 4.44089e-16 -2.77556e-17
4.44089e-16 0 -2.46519e-32
-2.77556e-17 -2.46519e-32 0

2.22045e-16 2.22045e-16 -2.77556e-17
2.22045e-16 0 -4.16334e-16
-2.77556e-17 -4.16334e-16 0

0 1.11022e-15 0
1.11022e-15 0 2.63678e-16
0 2.63678e-16 0

0 -6.66134e-16 -5.55112e-17
-6.66134e-16 2.66454e-15 -2.77556e-17
-5.55112e-17 -2.77556e-17 2.22045e-16

1.77636e-15 -5.55112e-17 2.22045e-16
-5.55112e-17 0 1.38778e-16
2.22045e-16 1.38778e-16 2.22045e-16

1.77636e-15 -7.77156e-16 -2.77556e-17
-7.77156e-16 -1.77636e-15 -1.66533e-16
-2.77556e-17 -1.66533e-16 0

4.44089e-16 0 -4.71845e-16
0 2.66454e-15 0
-4.71845e-16 0 0

-8.88178e-16 6.66134e-16 2.498e-16
6.66134e-16 0 5.55112e-17
2.498e-16 5.55112e-17 0

-8.88178e-16 -6.66134e-16 -2.77556e-17
-6.66134e-16 0 -4.996e-16
-2.77556e-17 -4.996e-16 0

0 0 -1.11022e-16
0 -8.88178e-16 -5.27356e-16
-1.11022e-16 -5.27356e-16 0

0 0 -5.55112e-17
0 0 0
-5.55112e-17 0 2.22045e-16

0 0 5.55112e-17
0 1.77636e-15 -1.94289e-16
5.55112e-17 -1.94289e-16 0

0 2.22045e-16 4.44089e-16
2.22045e-16 0 5.55112e-17
4.44089e-16 5.55112e-17 0

0 -2.22045e-16 1.66533e-16
-2.22045e-16 -2.22045e-16 2.77556e-17
1.66533e-16 2.77556e-17 0

0 4.93038e-32 3.05311e-16
4.93038e-32 0 2.22045e-16
3.05311e-16 2.22045e-16 0

0 -3.45127e-31 -2.35922e-16
-3.45127e-31 8.88178e-16 4.71845e-16
-2.35922e-16 4.71845e-16 2.22045e-16

0 0 2.77556e-16
0 -8.88178e-16 -2.77556e-16
2.77556e-16 -2.77556e-16 0

0 -4.44089e-16 3.33067e-16
-4.44089e-16 0 -5.55112e-17
3.33067e-16 -5.55112e-17 0

0 2.22045e-16 1.11022e-16
2.22045e-16 0 3.33067e-16
1.11022e-16 3.33067e-16 0

-4.44089e-16 4.30211e-16 -4.44089e-16
4.30211e-16 -5.55112e-16 -9.71445e-17
-4.44089e-16 -9.71445e-17 0

0 1.80411e-16 -5.55112e-17
1.80411e-16 -1.33227e-15 1.11022e-16
-5.55112e-17 1.11022e-16 0

0 -4.44089e-16 1.11022e-16
-4.44089e-16 8.88178e-16 -1.11022e-16
1.11022e-16 -1.11022e-16 0

4.44089e-16 8.88178e-16 -5.55112e-17
8.88178e-16 0 1.66533e-16
-5.55112e-17 1.66533e-16 0

-2.22045e-16 2.22045e-16 -4.16334e-17
2.22045e-16 0 5.55112e-17
-4.16334e-17 5.55112e-17 0

1.33227e-15 -1.33227e-15 -5.55112e-17
-1.33227e-15 0 -8.32667e-17
-5.55112e-17 -8.32667e-17 0

0 -2.22045e-16 8.32667e-17
-2.22045e-16 0 -2.77556e-17
8.32667e-17 -2.77556e-17 0

0 0 8.32667e-17
0 0 -5.55112e-17
8.32667e-17 -5.55112e-17 0

-4.44089e-16 2.22045e-16 -4.02456e-16
2.22045e-16 8.88178e-16 1.84889e-32
-4.02456e-16 1.84889e-32 0

0 -7.77156e-16 2.77556e-17
-7.77156e-16 1.77636e-15 -1.11022e-16
2.77556e-17 -1.11022e-16 2.22045e-16

8.88178e-16 0 -2.77556e-17
0 0 8.32667e-17
-2.77556e-17 8.32667e-17 2.22045e-16

0 -1.33227e-15 2.22045e-16
-1.33227e-15 0 -3.88578e-16
2.22045e-16 -3.88578e-16 0

0 0 0
0 0 1.38778e-16
0 1.38778e-16 0

0 8.88178e-16 4.57967e-16
8.88178e-16 0 -8.32667e-17
4.57967e-16 -8.32667e-17 0

0 8.04912e-16 -1.11022e-16
8.04912e-16 0 -1.66533e-16
-1.11022e-16 -1.66533e-16 0

0 -7.21645e-16 -1.11022e-16
-7.21645e-16 -1.77636e-15 1.66533e-16
-1.11022e-16 1.66533e-16 0

-6.21725e-15 -4.44089e-16 -4.996e-16
-4.44089e-16 0 -2.77556e-17
-4.996e-16 -2.77556e-17 0

-6.21725e-15 7.10543e-15 -1.38778e-15
7.10543e-15 0 -5.55112e-17
-1.38778e-15 -5.55112e-17 0

8.88178e-16 -9.99201e-16 2.22045e-16
-9.99201e-16 1.77636e-15 -5.55112e-17
2.22045e-16 -5.55112e-17 2.22045e-16

0 0 -2.08167e-17
0 0 6.38378e-16
-2.08167e-17 6.38378e-16 0

0 0 4.30211e-16
0 1.77636e-15 2.77556e-16
4.30211e-16 2.77556e-16 0

0 0 0
0 0 -1.66533e-16
0 -1.66533e-16 0

4.44089e-16 -3.33067e-16 -2.77556e-17
-3.33067e-16 2.22045e-16 5.55112e-17
-2.77556e-17 5.55112e-17 2.22045e-16

2.22045e-16 -6.66134e-16 8.32667e-17
-6.66134e-16 0 0
8.32667e-17 0 0

-8.88178e-16 8.32667e-17 2.77556e-17
8.32667e-17 -1.55431e-15 -1.11022e-16
2.77556e-17 -1.11022e-16 2.22045e-16

0 1.66533e-16 -1.38778e-16
1.66533e-16 1.77636e-15 5.55112e-17
-1.38778e-16 5.55112e-17 0

-1.33227e-15 4.996e-16 -1.94289e-16
4.996e-16 -1.77636e-15 -4.996e-16
-1.94289e-16 -4.996e-16 0

0 8.04912e-16 0
8.04912e-16 -1.44329e-15 9.71445e-17
0 9.71445e-17 0

1.33227e-15 2.22045e-16 1.11022e-16
2.22045e-16 0 -5.55112e-17
1.11022e-16 -5.55112e-17 2.22045e-16

8.88178e-16 -1.77636e-15 1.66533e-16
-1.77636e-15 0 2.77556e-16
1.66533e-16 2.77556e-16 0

0 8.88178e-16 -2.77556e-17
8.88178e-16 0 -5.55112e-17
-2.77556e-17 -5.55112e-17 0

0 1.97215e-31 1.66533e-16
1.97215e-31 -3.55271e-15 4.44089e-16
1.66533e-16 4.44089e-16 0

0 -2.22045e-16 2.77556e-17
-2.22045e-16 -4.44089e-16 1.38778e-17
2.77556e-17 1.38778e-17 0

0 0 -2.08167e-17
0 -8.88178e-16 1.66533e-16
-2.08167e-17 1.66533e-16 0

0 -8.88178e-16 4.44089e-16
-8.88178e-16 4.44089e-16 0
4.44089e-16 0 0

-2.22045e-16 6.66134e-16 8.32667e-17
6.66134e-16 2.66454e-15 2.22045e-16
8.32667e-17 2.22045e-16 2.22045e-16

6.66134e-16 -2.22045e-16 -8.32667e-17
-2.22045e-16 8.88178e-16 1.94289e-16
-8.32667e-17 1.94289e-16 2.22045e-16

0 -7.77156e-16 2.15106e-16
-7.77156e-16 -8.88178e-16 -5.55112e-17
2.15106e-16 -5.55112e-17 0

4.44089e-16 4.44089e-16 5.55112e-17
4.44089e-16 0 3.33067e-16
5.55112e-17 3.33067e-16 2.22045e-16

1.77636e-15 0 0
0 0 -3.33067e-16
0 -3.33067e-16 0

0 1.77636e-15 -4.44089e-16
1.77636e-15 0 5.55112e-17
-4.44089e-16 5.55112e-17 0

4.44089e-16 -1.66533e-16 9.02056e-17
-1.66533e-16 -1.77636e-15 -1.66533e-16
9.02056e-17 -1.66533e-16 0

0 4.44089e-16 -2.46519e-32
4.44089e-16 4.44089e-16 -1.38778e-16
-2.46519e-32 -1.38778e-16 0

0 -2.22045e-16 6.93889e-18
-2.22045e-16 0 -1.11022e-16
6.93889e-18 -1.11022e-16 0

0 -4.44089e-16 4.16334e-17
-4.44089e-16 8.88178e-16 -3.88578e-16
4.16334e-17 -3.88578e-16 4.44089e-16

-3.33067e-16 3.69779e-32 4.16334e-17
3.69779e-32 0 -8.32667e-17
4.16334e-17 -8.32667e-17 0

-4.44089e-16 0 -4.44089e-16
0 0 -5.55112e-17
-4.44089e-16 -5.55112e-17 0

-8.88178e-16 -1.11022e-16 2.91434e-16
-1.11022e-16 0 2.77556e-17
2.91434e-16 2.77556e-17 0

1.77636e-15 4.44089e-16 0
4.44089e-16 0 -1.11022e-16
0 -1.11022e-16 0

0 -2.22045e-16 0
-2.22045e-16 0 0
0 0 0

-4.44089e-16 -1.72085e-15 -2.498e-16
-1.72085e-15 1.77636e-15 8.74301e-16
-2.498e-16 8.74301e-16 0

-1.77636e-15 0 5.55112e-17
0 0 0
5.55112e-17 0 0

-8.88178e-16 -4.44089e-16 -2.22045e-16
-4.44089e-16 0 5.55112e-17
-2.22045e-16 5.55112e-17 2.22045e-16

0 5.55112e-17 -2.77556e-17
5.55112e-17 8.88178e-16 2.77556e-16
-2.77556e-17 2.77556e-16 0

0 0 2.77556e-17
0 -4.44089e-16 1.38778e-16
2.77556e-17 1.38778e-16 0

2.22045e-16 -1.7486e-15 -3.46945e-18
-1.7486e-15 -1.11022e-16 1.38778e-16
-3.46945e-18 1.38778e-16 0

0 9.02056e-17 -2.77556e-17
9.02056e-17 0 2.77556e-17
-2.77556e-17 2.77556e-17 0

-3.55271e-15 1.55431e-15 -4.996e-16
1.55431e-15 -3.55271e-15 -2.77556e-17
-4.996e-16 -2.77556e-17 2.22045e-16

8.88178e-16 3.10862e-15 2.22045e-16
3.10862e-15 0 -5.55112e-17
2.22045e-16 -5.55112e-17 0

0 0 -2.77556e-17
0 0 5.55112e-17
-2.77556e-17 5.55112e-17 0

0 0 2.77556e-17
0 0 -2.77556e-16
2.77556e-17 -2.77556e-16 2.22045e-16

0 5.55112e-17 -5.55112e-17
5.55112e-17 0 -3.05311e-16
-5.55112e-17 -3.05311e-16 0

0 4.93038e-32 1.249e-16
4.93038e-32 0 3.60822e-16
1.249e-16 3.60822e-16 0

-1.11022e-15 -9.86076e-32 -5.55112e-17
-9.86076e-32 0 6.10623e-16
-5.55112e-17 6.10623e-16 -1.11022e-16

0 -6.66134e-16 4.16334e-17
-6.66134e-16 8.88178e-16 -2.77556e-17
4.16334e-17 -2.77556e-17 0

0 -1.66533e-15 2.77556e-17
-1.66533e-15 -1.33227e-15 -6.77927e-32
2.77556e-17 -6.77927e-32 0

6.66134e-16 -8.32667e-17 -1.52656e-16
-8.32667e-17 0 5.55112e-17
-1.52656e-16 5.55112e-17 0

1.77636e-15 0 1.66533e-16
0 0 -5.55112e-17
1.66533e-16 -5.55112e-17 0

-1.11022e-16 -4.44089e-16 -2.498e-16
-4.44089e-16 0 5.55112e-17
-2.498e-16 5.55112e-17 2.22045e-16

0 -4.44089e-16 2.28983e-16
-4.44089e-16 0 4.44089e-16
2.28983e-16 4.44089e-16 0

-4.44089e-16 0 1.11022e-16
0 0 5.55112e-17
1.11022e-16 5.55112e-17 0

2.22045e-16 6.66134e-16 -2.08167e-17
6.66134e-16 0 1.94289e-16
-2.08167e-17 1.94289e-16 0

-1.33227e-15 -2.22045e-16 -3.88578e-16
-2.22045e-16 1.33227e-15 -4.44089e-16
-3.88578e-16 -4.44089e-16 2.22045e-16

-8.88178e-16 3.10862e-15 2.22045e-16
3.10862e-15 0 3.33067e-16
2.22045e-16 3.33067e-16 0

8.88178e-16 1.55431e-15 -1.38778e-16
1.55431e-15 -1.77636e-15 4.44089e-16
-1.38778e-16 4.44089e-16 0

-1.11022e-16 2.22045e-16 9.71445e-17
2.22045e-16 0 -5.55112e-17
9.71445e-17 -5.55112e-17 0

-2.22045e-16 4.44089e-16 -2.18575e-16
4.44089e-16 -4.44089e-16 1.11022e-16
-2.18575e-16 1.11022e-16 0

-2.22045e-16 7.77156e-16 1.72563e-31
7.77156e-16 0 -3.33067e-16
1.72563e-31 -3.33067e-16 0

0 1.66533e-16 -5.55112e-17
1.66533e-16 1.55431e-15 -1.66533e-16
-5.55112e-17 -1.66533e-16 0

-4.44089e-16 -1.11022e-16 5.55112e-17
-1.11022e-16 1.77636e-15 -4.71845e-16
5.55112e-17 -4.71845e-16 0

-1.9984e-15 9.99201e-16 -2.77556e-16
9.99201e-16 8.88178e-16 -5.55112e-17
-2.77556e-16 -5.55112e-17 0

0 7.21645e-16 -2.22045e-16
7.21645e-16 0 -5.55112e-17
-2.22045e-16 -5.55112e-17 0

2.22045e-16 8.32667e-17 9.36751e-17
8.32667e-17 0 0
9.36751e-17 0 0

0 6.93889e-18 -1.38778e-17
6.93889e-18 8.88178e-16 5.55112e-17
-1.38778e-17 5.55112e-17 0

-2.22045e-16 7.77156e-16 -1.11022e-16
7.77156e-16 0 -4.44089e-16
-1.11022e-16 -4.44089e-16 0

1.55431e-15 -7.77156e-16 8.32667e-17
-7.77156e-16 -1.77636e-15 3.88578e-16
8.32667e-17 3.88578e-16 0

0 -4.32559e-17 4.47559e-16
-4.32559e-17 -6.66134e-16 1.4737e-16
4.47559e-16 1.4737e-16 0

0 -4.28201e-17 0
-4.28201e-17 -6.66134e-16 4.98089e-16
0 4.98089e-16 0

0 -2.22045e-16 2.46519e-32
-2.22045e-16 0 -5.55112e-17
2.46519e-32 -5.55112e-17 0

-6.66134e-16 9.02056e-16 -4.57967e-16
9.02056e-16 -1.77636e-15 2.22045e-16
-4.57967e-16 2.22045e-16 -2.22045e-16

2.22045e-16 -7.35523e-16 2.91434e-16
-7.35523e-16 0 5.55112e-17
2.91434e-16 5.55112e-17 0

0 1.38778e-16 -8.32667e-17
1.38778e-16 0 0
-8.32667e-17 0 -1.11022e-16

0 2.22045e-16 -1.38778e-17
2.22045e-16 0 3.05311e-16
-1.38778e-17 3.05311e-16 0

0 0 1.38778e-17
0 0 -8.32667e-17
1.38778e-17 -8.32667e-17 0

-8.88178e-16 8.88178e-16 -2.77556e-17
8.88178e-16 0 1.66533e-16
-2.77556e-17 1.66533e-16 0

0 -1.38778e-17 1.38778e-17
-1.38778e-17 -1.55431e-15 5.55112e-17
1.38778e-17 5.55112e-17 0

0 -2.08167e-17 -6.93889e-18
-2.08167e-17 2.22045e-16 2.77556e-17
-6.93889e-18 2.77556e-17 0

-4.44089e-16 3.33067e-16 -2.91434e-16
3.33067e-16 0 -2.77556e-17
-2.91434e-16 -2.77556e-17 0

-1.33227e-15 7.77156e-16 2.77556e-17
7.77156e-16 0 -1.11022e-16
2.77556e-17 -1.11022e-16 0

-1.11022e-16 -1.66533e-16 -2.08167e-17
-1.66533e-16 0 0
-2.08167e-17 0 0

-2.22045e-16 2.22045e-16 1.31839e-16
2.22045e-16 0 -5.55112e-17
1.31839e-16 -5.55112e-17 2.22045e-16

-1.11022e-16 -9.86076e-32 9.71445e-17
-9.86076e-32 0 -3.88578e-16
9.71445e-17 -3.88578e-16 0

0 1.11022e-16 2.77556e-17
1.11022e-16 -4.44089e-16 2.498e-16
2.77556e-17 2.498e-16 0

1.77636e-15 1.11022e-16 1.66533e-16
1.11022e-16 0 -5.55112e-17
1.66533e-16 -5.55112e-17 0

1.77636e-15 -1.11022e-15 5.55112e-17
-1.11022e-15 0 1.11022e-16
5.55112e-17 1.11022e-16 -1.11022e-16

0 0 0
0 0 -1.38778e-17
0 -1.38778e-17 0

1.77636e-15 0 0
0 0 -6.66134e-16
0 -6.66134e-16 0

0 4.44089e-16 -4.71845e-16
4.44089e-16 0 -1.66533e-16
-4.71845e-16 -1.66533e-16 0

0 4.44089e-16 2.63678e-16
4.44089e-16 0 1.94289e-16
2.63678e-16 1.94289e-16 0

0 0 1.11022e-16
0 1.33227e-15 5.55112e-17
1.11022e-16 5.55112e-17 0

0 4.44089e-16 8.32667e-17
4.44089e-16 -3.55271e-15 -2.77556e-16
8.32667e-17 -2.77556e-16 0

0 4.996e-16 -3.60822e-16
4.996e-16 -1.33227e-15 -1.11022e-16
-3.60822e-16 -1.11022e-16 2.22045e-16

-1.77636e-15 -1.97215e-31 4.44089e-16
-1.97215e-31 2.66454e-15 -2.22045e-16
4.44089e-16 -2.22045e-16 0

-8.88178e-16 0 2.77556e-17
0 0 -3.88578e-16
2.77556e-17 -3.88578e-16 0

-5.32907e-15 -1.57772e-30 -1.11022e-15
-1.57772e-30 -7.10543e-15 7.77156e-16
-1.11022e-15 7.77156e-16 -2.22045e-16

0 0 -5.55112e-17
0 0 -2.77556e-17
-5.55112e-17 -2.77556e-17 0

0 1.80411e-16 -4.23273e-16
1.80411e-16 0 1.66533e-16
-4.23273e-16 1.66533e-16 2.22045e-16

0 5.55112e-17 0
5.55112e-17 0 -3.33067e-16
0 -3.33067e-16 2.22045e-16

0 0 5.55112e-17
0 -8.88178e-16 8.32667e-17
5.55112e-17 8.32667e-17 2.22045e-16

-1.77636e-15 -4.44089e-16 -3.60822e-16
-4.44089e-16 0 -2.22045e-16
-3.60822e-16 -2.22045e-16 0

-2.22045e-16 -1.11022e-16 8.32667e-17
-1.11022e-16 0 5.55112e-17
8.32667e-17 5.55112e-17 0

0 4.44089e-16 -2.77556e-17
4.44089e-16 -4.44089e-16 4.16334e-16
-2.77556e-17 4.16334e-16 0

8.88178e-16 -4.44089e-16 5.55112e-17
-4.44089e-16 0 1.66533e-16
5.55112e-17 1.66533e-16 0

4.44089e-16 8.88178e-16 2.498e-16
8.88178e-16 -1.77636e-15 0
2.498e-16 0 0

1.33227e-15 4.44089e-16 -4.44089e-16
4.44089e-16 0 5.55112e-17
-4.44089e-16 5.55112e-17 2.22045e-16

0 4.44089e-16 -1.38778e-16
4.44089e-16 0 -4.71845e-16
-1.38778e-16 -4.71845e-16 0

-8.88178e-16 0 0
0 0 8.32667e-17
0 8.32667e-17 0

0 1.33227e-15 -5.55112e-17
1.33227e-15 -1.77636e-15 2.22045e-16
-5.55112e-17 2.22045e-16 0

0 0 0
0 0 2.77556e-17
0 2.77556e-17 2.22045e-16

8.88178e-16 1.33227e-15 1.94289e-16
1.33227e-15 0 -1.11022e-16
1.94289e-16 -1.11022e-16 0

0 0 -1.11022e-16
0 -2.22045e-16 2.77556e-17
-1.11022e-16 2.77556e-17 0

-1.77636e-15 4.44089e-16 2.77556e-16
4.44089e-16 -4.44089e-16 7.77156e-16
2.77556e-16 7.77156e-16 0

2.22045e-16 1.66533e-16 2.46519e-32
1.66533e-16 -1.77636e-15 2.77556e-17
2.46519e-32 2.77556e-17 0

0 1.38778e-16 4.16334e-17
1.38778e-16 -2.22045e-16 -2.77556e-17
4.16334e-17 -2.77556e-17 0

0 6.66134e-16 4.16334e-16
6.66134e-16 4.44089e-16 5.27356e-16
4.16334e-16 5.27356e-16 0

0 0 8.32667e-17
0 -8.88178e-16 -5.55112e-17
8.32667e-17 -5.55112e-17 0

0 8.32667e-17 4.44089e-16
8.32667e-17 -1.11022e-16 2.91434e-16
4.44089e-16 2.91434e-16 0

0 2.22045e-16 0
2.22045e-16 -3.33067e-15 3.33067e-16
0 3.33067e-16 0

8.88178e-16 -6.66134e-16 1.11022e-16
-6.66134e-16 -7.77156e-16 4.44089e-16
1.11022e-16 4.44089e-16 2.22045e-16

0 2.22045e-16 -1.11022e-16
2.22045e-16 4.44089e-16 -1.11022e-16
-1.11022e-16 -1.11022e-16 0

3.55271e-15 2.36658e-30 5.55112e-16
2.36658e-30 8.88178e-16 -8.32667e-17
5.55112e-16 -8.32667e-17 0

0 0 1.66533e-16
0 2.66454e-15 -2.22045e-16
1.66533e-16 -2.22045e-16 0

-2.22045e-16 6.66134e-16 6.93889e-18
6.66134e-16 0 -3.88578e-16
6.93889e-18 -3.88578e-16 2.22045e-16

-1.11022e-16 -2.22045e-16 6.93889e-18
-2.22045e-16 0 -2.77556e-17
6.93889e-18 -2.77556e-17 0

-1.11022e-16 -7.77156e-16 7.39557e-32
-7.77156e-16 0 -5.55112e-17
7.39557e-32 -5.55112e-17 0

8.88178e-16 0 -2.77556e-17
0 0 -4.16334e-17
-2.77556e-17 -4.16334e-17 0

0 0 0
0 0 -2.77556e-17
0 -2.77556e-17 0

0 3.55271e-15 -5.55112e-17
3.55271e-15 0 8.60423e-16
-5.55112e-17 8.60423e-16 2.22045e-16

0 0 0
0 0 5.55112e-17
0 5.55112e-17 0

0 0 2.22045e-16
0 -7.10543e-15 -9.99201e-16
2.22045e-16 -9.99201e-16 0

0 -4.44089e-16 5.55112e-17
-4.44089e-16 7.10543e-15 -5.55112e-17
5.55112e-17 -5.55112e-17 0

-2.22045e-16 0 2.18575e-16
0 1.77636e-15 -1.66533e-16
2.18575e-16 -1.66533e-16 0

-1.77636e-15 1.43219e-14 0
1.43219e-14 -2.55351e-15 2.22045e-16
0 2.22045e-16 -1.11022e-16

0 8.88178e-16 -3.66374e-15
8.88178e-16 1.77636e-15 1.38778e-16
-3.66374e-15 1.38778e-16 -1.11022e-16

-5.68434e-14 8.88178e-16 0
8.88178e-16 -1.77636e-15 -5.55112e-17
0 -5.55112e-17 0

0 0 -5.55112e-17
0 0 3.66374e-15
-5.55112e-17 3.66374e-15 2.22045e-16

0 4.44089e-16 1.66533e-16
4.44089e-16 0 2.77556e-17
1.66533e-16 2.77556e-17 0

-3.55271e-15 0 4.996e-16
0 -8.88178e-16 1.11022e-16
4.996e-16 1.11022e-16 0

8.88178e-16 1.77636e-15 -6.10623e-16
1.77636e-15 0 1.38778e-16
-6.10623e-16 1.38778e-16 0

0 0 -1.11022e-16
0 0 -1.11022e-16
-1.11022e-16 -1.11022e-16 0

0 0 -5.55112e-16
0 0 0
-5.55112e-16 0 0

0 0 -5.55112e-16
0 -8.88178e-16 5.55112e-17
-5.55112e-16 5.55112e-17 0

3.55271e-15 1.55431e-15 2.77556e-16
1.55431e-15 -2.22045e-16 3.60822e-16
2.77556e-16 3.60822e-16 0

0 1.55431e-15 -1.66533e-16
1.55431e-15 0 8.32667e-17
-1.66533e-16 8.32667e-17 -2.22045e-16

-1.77636e-15 -1.55431e-15 0
-1.55431e-15 -8.88178e-16 2.22045e-16
0 2.22045e-16 0

0 -2.22045e-16 -1.11022e-16
-2.22045e-16 1.77636e-15 5.55112e-17
-1.11022e-16 5.55112e-17 0

SCALARS pressure float
LOOKUP_TABLE default
-0
-0
-0
-0
-0
-0
-0
-0
-0
-0
-0
-0
-0
-0
-0
-0
-0
-0
-0
-0
-0
-0
-0
-0
-0
-0
-0
-0
-0
-0
-0
-0
-0
-0
-0
-0
-0
-0
-0
-0
-0
-0
-0
-0
-0
-0
-0
-0
-0
-0
-0
-0
-0
-0
-0
-0
-0
-0
-0
-0
-0
-0
-0
-0
-0
-0
-0
-0
-0
-0
-0
-0
-0
-0
-0
-0
-0
-0
-0
-0
-0
-0
-0
-0
-0
-0
-0
-0
-0
-0
-0
-0
-0
-0
-0
-0
-0
-0
-0
-0
-0
-0
-0
-0
-0
-0
-0
-0
-0
-0
-0
-0
-0
-0
-0
-0
-0
-0
-0
-0
-0
-0
-0
-0
-0
-0
-0
-0
-0
-0
-0
-0
-0
-0
-0
-0
-0
-0
-0
-0
-0
-0
-0
-0
-0
-0
-0
-0
-0
-0
-0
-0
-0
-0
-0
-0
-0
-0
-0
-0
-0
-0
-0
-0
-0
-0
-0
-0
-0
-0
-0
-0
-0
-0
-0
-0
-0
-0
-0
-0
-0
-0
-0
-0
-0
-0
-0
-0
-0
-0
-0
-0
-0
-0
-0
-0
-0
-0
-0
-0
-0
-0
-0
-0
-0
-0
-0
-0
-0
-0
-0
-0
-0
-0
-0
-0
-0
-0
-0
-0
-0
-0
-0
-0
-0
-0
-0
-0
-0
-0
-0
-0
-0
-0
-0
-0
-0
-0
-0
-0
-0
-0
-0
-0
-0
-0
-0
-0
-0
-0
-0
-0
-0
-0
-0
-0
-0
-0
-0
-0
-0
-0
-0
-0
-0
-0
-0
-0
-0
-0
-0
-0
-0
-0
-0
-0
-0
-0
-0
-0
-0
-0
-0
-0
-0
-0
-0
-0
-0
-0
-0
-0
-0
-0
-0
-0
-0
-0
-0
-0
-0
-0
-0
-0
-0
-0
-0
-0
-0
-0
-0
-0
-0
-0
-0
-0
-0
-0
-0
-0
-0
-0
-0
-0
-0
-0
-0
-0
-0
-0
-0
-0
-0
-0
-0
-0
-0
-0
-0
-0
-0
-0
-0
-0
-0
-0
-0
-0
-0
-0
-0
-0
-0
-0
-0
-0
-0
-0
-0
-0
-0
-0
-0
-0
-0
-0
-0
-0
-0
-0
-0
-0
-0
-0
-0
-0
-0
-0
-0
-0
-0
-0
-0
-0
-0
-0
-0
-0
-0
-0
-0
-0
-0
-0
-0
-0
-0
-0
-0
-0
-0
-0
-0
-0
-0
-0
-0
-0
-0
-0
-0
-0
-0
-0
-0
-0
-0
-0
-0
-0
-0
-0
-0
-0
-0
-0
-0
-0
-0
-0
-0
-0
-0
-0
-0
-0
-0
-0
-0
-0
-0
-0
-0
-0
-0
-0
-0
-0
-0
-0
-0
-0
-0
-0
-0
-0
-0
-0
-0
-0
-0
-0
-0
-0
-0
-0
-0
-0
-0
-0
-0
-0
-0
-0
-0
-0
-0
-0
-0
-0
-0
-0
-0
-0
-0
-0
-0
-0
-0
-0
-0
-0
-0
-0
-0
-0
-0
-0
-0
-0
-0
-0
-0
-0
-0
-0
-0
-0
-0
-0
-0
-0
-0
-0
-0
-0
-0
-0
-0
-0
-0
-0
-0
-0
-0
-0
-0
-0
-0
-0
-0
-0
-0
-0
-0
-0
-0
-0
-0
-0
-0
-0
-0
-0
-0
-0
-0
-0
-0
-0
-0
-0
-0
-0
-0
-0
-0
-0
-0
-0
-0
-0
-0
-0
-0
-0
-0
-0
-0
-0
-0
-0
-0
-0
-0
-0
-0
-0
-0
-0
-0
-0
-0
-0
-0
-0
-0
-0
-0
-0
-0
-0
-0
-0
-0
-0
-0
-0
-0
-0
-0
-0
-0
-0
-0
-0
-0
-0
-0
-0
-0
-0
-0
-0
-0
-0
-0
-0
-0
-0
-0
-0
-0
-0
-0
-0
-0
-0
-0
-0
-0
-0
-0
-0
-0
-0
-0
-0
-0
-0
-0
-0
-0
-0
-0
-0
-0
-0
-0
-0
-0
-0
-0
-0
-0
-0
-0
-0
-0
-0
-0
-0
-0
-0
-0
-0
-0
-0
-0
-0
-0
-0
-0
-0
-0
-0
-0
-0
-0
-0
-0
-0
-0
-0
-0
-0
-0
-0
-0
-0
-0
-0
-0
-0
-0
-0
-0
-0
-0
-0
-0
-0
-0
-0
-0
-0
-0
-0
-0
-0
-0
-0
-0
-0
-0
-0
-0
-0
-0
-0
-0
-0
-0
-0
-0
-0
-0
-0
-0
-0
-0
-0
-0
-0
-0
-0
-0
-0
-0
-0
-0
-0
-0
-0
-0
-0
-0
-0
-0
-0
-0
-0
-0
-0
-0
-0
-0
-0
-0
-0
-0
-0
-0
-0
-0
-0
-0
-0
-0
-0
-0
-0
-0
-0
-0
-0
-0
-0
-0
-0
-0
-0
-0
-0
-0
-0
-0
-0
-0
-0
-0
-0
-0
-0
-0
-0
-0
-0
-0
-0
-0
-0
-0
-0
-0
-0
-0
-0
-0
-0
-0
-0
-0
-0
-0
-0
-0
-0
-0
-0
-0
-0
-0
-0
-0
-0
-0
-0
-0
-0
-0
-0
-0
-0
-0
-0
-0
-0
-0
-0
-0
-0
-0
-0
-0
-0
-0
-0
-0
-0
-0
-0
-0
-0
-0
-0
-0
-0
-0
-0
-0
-0
-0
-0
-0
-0
-0
-0
-0
-0
-0
-0
-0
-0
-0
-0
-0
-0
-0
-0
-0
-0
-0
-0
-0
-0
-0
-0
-0
-0
-0
-0
-0
-0
-0
-0
-0
-0
-0
-0
-0
-0
-0
-0
-0
-0
-0
-0
-0
-0
-0
-0
-0
-0
-0
-0
-0
-0
-0
-0
-0
-0
-0
-0
-0
-0
-0
-0
-0
-0
-0
-0
-0
-0
-0
-0
-0
-0
-0
-0
-0
-0
-0
-0
-0
-0
-0
-0
-0
-0
-0
-0
-0
-0
-0
-0
-0
-0
-0
-0
-0
-0
-0
-0
-0
-0
-0
-0
-0
-0
-0
-0
-0
-0
-0
-0
-0
-0
-0
-0
-0
-0
-0
-0
-0
-0
-0
-0
-0
-0
-0
-0
-0
-0
-0
-0
-0
-0
-0
-0
-0
-0
-0
-0
-0
-0
-0
-0
-0
-0
-0
-0
-0
-0
-0
-0
-0
-0
-0
-0
-0
-0
-0
-0
-0
-0
-0
-0
-0
-0
-0
-0
-0
-0
-0
-0
-0
-0
-0
-0
-0
-0
-0
-0
-0
-0
-0
-0
-0
-0
-0
-0
-0
-0
-0
-0
-0
-0
-0
-0
-0
-0
-0
-0
-0
-0
-0
-0
-0
-0
-0
-0
-0
-0
-0
-0
-0
-0
-0
-0
-0
-0
-0
-0
-0
-0
-0
-0
-0
-0
-0
-0
-0
-0
-0
-0
-0
-0
-0
-0
-0
-0
-0
-0
-0
-0
-0
-0
-0
-0
-0
-0
-0
-0
-0
-0
-0
-0
-0
-0
-0
-0
-0
-0
-0
-0
-0
-0
-0
-0
-0
-0
-0
-0
-0
-0
-0
-0
-0
-0
-0
-0
-0
-0
-0
-0
-0
-0
-0
-0
-0
-0
-0
-0
-0
-0
-0
-0
-0
-0
-0
-0
-0
-0
-0
-0
-0
-0
-0
-0
-0
-0
-0
-0
-0
-0
-0
-0
-0
-0
-0
-0
-0
-0
-0
-0
-0
-0
-0
-0
-0
-0
-0
-0
-0
-0
-0
-0
-0
-0
-0
-0
-0
-0
-0
-0
-0
-0
-0
-0
-0
-0
-0
-0
-0
-0
-0
-0
-0
-0
-0
-0
-0
-0
-0
-0
-0
-0
-0
-0
-0
-0
-0
-0
-0
-0
-0
-0
-0
-0
-0
-0
-0
-0
-0
-0
-0
-0
-0
-0
-0
-0
-0
-0
-0
-0
-0
-0
-0
-0
-0
-0
-0
-0
-0
-0
-0
-0
-0
-0
-0
-0
-0
-0
-0
-0
-0
-0
-0
-0
-0
-0
-0
-0
-0
-0
-0
-0
-0
-0
-0
-0
-0
-0
-0
-0
-0
-0
-0
-0
-0
-0
-0
-0
-0
-0
-0
-0
-0
-0
-0
-0
-0
-0
-0
-0
-0
-0
-0
-0
-0
-0
-0
-0
-0
-0
-0
-0
-0
-0
-0
-0
-0
-0
-0
-0
-0
-0
-0
-0
-0
-0
-0
-0
-0
-0
-0
-0
-0
-0
-0
-0
-0
-0
-0
-0
-0
-0
-0
-0
-0
-0
-0
-0
-0
-0
-0
-0
-0
-0
-0
-0
-0
-0
-0
-0
-0
-0
-0
-0
-0
-0
-0
-0
-0
-0
-0
-0
-0
-0
-0
-0
-0
-0
-0
-0
-0
-0
-0
-0
-0
-0
-0
-0
-0
-0
-0
-0
-0
-0
-0
-0
-0
-0
-0
-0
-0
-0
-0
-0
-0
-0
-0
-0
-0
-0
-0
-0
-0
-0
-0
-0
-0
-0
-0
-0
-0
-0
-0
-0
-0
-0
-0
-0
-0
-0
-0
-0
-0
-0
-0
-0
-0
-0
-0
-0
-0
-0
-0
-0
-0
-0
-0
-0
-0
-0
-0
-0
-0
-0
-0
-0
-0
-0
-0
-0
-0
-0
-0
-0
-0
-0
-0
-0
-0
-0
-0
-0
-0
-0
-0
-0
-0
-0
-0
-0
-0
-0
-0
-0
-0
-0
-0
-0
-0
-0
-0
-0
-0
-0
-0
-0
-0
-0
-0
-0
-0
-0
-0
-0
-0
-0
-0
-0
-0
-0
-0
-0
-0
-0
-0
-0
-0
-0
-0
-0
-0
-0
-0
-0
-0
-0
-0
-0
-0
-0
-0
-0
-0
-0
-0
-0
-0
-0
-0
-0
-0
-0
-0
-0
-0
-0
-0
-0
-0
-0
-0
-0
-0
-0
-0
-0
-0
-0
-0
-0
-0
-0
-0
-0
-0
-0
-0
-0
-0
-0
-0
-0
-0
-0
-0
-0
-0
-0
-0
-0
-0
-0
-0
-0
-0
-0
-0
-0
-0
-0
-0
-0
-0
-0
-0
-0
-0
-0
-0
-0
-0
-0
-0
-0
-0
-0
-0
-0
-0
-0
-0
-0
-0
-0
-0
-0
-0
-0
-0
-0
-0
-0
-0
-0
-0
-0
-0
-0
-0
-0
-0
-0
-0
-0
-0
-0
-0
-0
-0
-0
-0
-0
-0
-0
-0
-0
-0
-0
-0
-0
-0
-0
-0
-0
-0
-0
-0
-0
-0
-0
-0
-0
-0
-0
-0
-0
-0
-0
-0
-0
-0
-0
-0
-0
-0
-0
-0
-0
-0
-0
-0
-0
-0
-0
-0
-0
-0
-0
-0
-0
-0
-0
-0
-0
-0
-0
-0
-0
-0
-0
-0
-0
-0
-0
-0
-0
-0
-0
-0
-0
-0
-0
-0
-0
-0
-0
-0
-0
-0
-0
-0
-0
-0
-0
-0
-0
-0
-0
-0
-0
-0
-0
-0
-0
-0
-0
-0
-0
-0
-0
-0
-0
-0
-0
-0
-0
-0
-0
-0
-0
-0
-0
-0
-0
-0
-0
-0
-0
-0
-0
-0
-0
-0
-0
-0
-0
-0
-0
-0
-0
-0
-0
-0
-0
-0
-0
-0
-0
-0
-0
-0
-0
-0
-0
-0
-0
-0
-0
-0
-0
-0
-0
-0
-0
-0
-0
-0
-0
-0
-0
-0
-0
-0
-0
-0
-0
-0
-0
-0
-0
-0
-0
-0
-0
-0
-0
-0
-0
-0
-0
-0
-0
-0
-0
-0
-0
-0
-0
-0
-0
-0
-0
-0
-0
-0
-0
-0
-0
-0
-0
-0
-0
-0
-0
-0
-0
-0
-0
-0
-0
-0
-0
-0
-0
-0
-0
-0
-0
-0
-0
-0
-0
-0
-0
-0
-0
-0
-0
-0
-0
-0
-0
-0
-0
-0
-0
-0
-0
-0
-0
-0
-0
-0
-0
-0
-0
-0
-0
-0
-0
-0
-0
-0
-0
-0
-0
-0
-0
-0
-0
-0
-0
-0
-0
-0
-0
-0
-0
-0
-0
-0
-0
-0
-0
-0
-0
-0
-0
-0
-0
-0
-0
-0
-0
-0
-0
-0
-0
-0
-0
-0
-0
-0
-0
-0
-0
-0
-0
-0
-0
-0
-0
-0
-0
-0
-0
-0
-0
-0
-0
-0
-0
-0
-0
-0
-0
-0
-0
-0
-0
-0
-0
-0
-0
-0
-0
-0
-0
-0
-0
-0
-0
-0
-0
-0
-0
-0
-0
-0
-0
-0
-0
-0
-0
-0
-0
-0
-0
-0
-0
-0
-0
-0
-0
-0
-0
-0
-0
-0
-0
-0
-0
-0
-0
-0
-0
-0
-0
-0
-0
-0
-0
-0
-0
-0
-0
-0
-0
-0
-0
-0
-0
-0
-0
-0
-0
-0
-0
-0
-0
-0
-0
-0
-0
-0
-0
-0
-0
-0
-0
-0
-0
-0
-0
-0
-0
-0
-0
-0
-0
-0
-0
-0
-0
-0
-0
-0
-0
-0
-0
-0
-0
-0
-0
-0
-0
-0
-0
-0
-0
-0
-0
-0
-0
-0
-0
-0
-0
-0
-0
-0
-0
-0
-0
-0
-0
-0
-0
-0
-0
-0
-0
-0
-0
-0
-0
-0
-0
-0
-0
-0
-0
-0
-0
-0
-0
-0
-0
-0
-0
-0
-0
-0
-0
-0
-0
-0
-0
-0
-0
-0
-0
-0
-0
-0
-0
-0
-0
-0
-0
-0
-0
-0
-0
-0
-0
-0
-0
-0
-0
-0
-0
-0
-0
-0
-0
-0
-0
-0
-0
-0
-0
-0
-0
-0
-0
-0
-0
-0
-0
-0
-0
-0
-0
-0
-0
-0
-0
-0
-0
-0
-0
-0
-0
-0
-0
-0
-0
-0
-0
-0
-0
-0
-0
-0
-0
-0
-0
-0
-0
-0
-0
-0
-0
-0
-0
-0
-0
-0
-0
-0
-0
-0
-0
-0
-0
-0
-0
-0
-0
-0
-0
-0
-0
-0
-0
-0
-0
-0
-0
-0
-0
-0
-0
-0
-0
-0
-0
-0
-0
-0
-0
-0
-0
-0
-0
-0
-0
-0
-0
-0
-0
-0
-0
-0
-0
-0
-0
-0
-0
-0
-0
-0
-0
-0
-0
-0
-0
-0
-0
-0
-0
-0
-0
-0
-0
-0
-0
-0
-0
-0
-0
-0
-0
-0
-0
-0
-0
-0
-0
-0
-0
-0
-0
-0
-0
-0
-0
-0
-0
-0
-0
-0
-0
-0
-0
-0
-0
-0
-0
-0
-0
-0
-0
-0
-0
-0
-0
-0
-0
-0
-0
-0
-0
-0
-0
-0
-0
-0
-0
-0
-0
-0
-0
-0
-0
-0
-0
-0
-0
-0
-0
-0
-0
-0
-0
-0
-0
-0
-0
-0
-0
-0
-0
-0
-0
-0
-0
-0
-0
-0
-0
-0
-0
-0
-0
-0
-0
-0
-0
-0
-0
-0
-0
