# vtk DataFile Version 3.0
vtk output at time 0.3
ASCII
DATASET UNSTRUCTURED_GRID
POINTS 2586 float
-1.84029e-05 0.000489375 0 1.84029e-05 0.000489375 0 -0.000414597 0.000260625 0 
-0.00041175 0.00025 0 -0.000433 0.00022875 0 -0.000433 -0.00022875 0 
-0.00041175 -0.00025 0 -0.000414597 -0.000260625 0 -1.84029e-05 -0.000489375 0 
1.84029e-05 -0.000489375 0 0.000414597 -0.000260625 0 0.000433 -0.00022875 0 
0.000433 0.00022875 0 0.000414597 0.000260625 0 4.25e-05 0 0 
2.125e-05 0.0005 0 5.90898e-17 0.00052125 0 5.90919e-17 0.00097875 0 
2.125e-05 0.001 0 1.84029e-05 0.00101063 0 0.000414597 0.00123937 0 
0.000451403 0.00123937 0 0.000847597 0.00101063 0 0.000866 0.00097875 0 
0.000866 0.00052125 0 0.000847597 0.000489375 0 0.000451403 0.000260625 0 
0.0004755 0.00075 0 0.00045425 0.00025 0 0.000884403 0.000489375 0 
0.0012806 0.000260625 0 0.001299 0.00022875 0 0.001299 -0.00022875 0 
0.0012806 -0.000260625 0 0.000884403 -0.000489375 0 0.000847597 -0.000489375 0 
0.000451403 -0.000260625 0 0.00045425 -0.00025 0 0.0009085 0 0 
0.000866 -0.00052125 0 0.000866 -0.00097875 0 0.000847597 -0.00101063 0 
0.000451403 -0.00123937 0 0.000414597 -0.00123937 0 1.84029e-05 -0.00101063 0 
2.125e-05 -0.001 0 5.90898e-17 -0.00097875 0 5.90919e-17 -0.00052125 0 
2.125e-05 -0.0005 0 0.0004755 -0.00075 0 -1.84029e-05 -0.00101063 0 
-0.000414597 -0.00123937 0 -0.000451403 -0.00123937 0 -0.000847597 -0.00101063 0 
-0.00084475 -0.001 0 -0.000866 -0.00097875 0 -0.000866 -0.00052125 0 
-0.00084475 -0.0005 0 -0.000847597 -0.000489375 0 -0.000451403 -0.000260625 0 
-0.0003905 -0.00075 0 -0.000884403 -0.000489375 0 -0.0012806 -0.000260625 0 
-0.00127775 -0.00025 0 -0.001299 -0.00022875 0 -0.001299 0.00022875 0 
-0.00127775 0.00025 0 -0.0012806 0.000260625 0 -0.000884403 0.000489375 0 
-0.000847597 0.000489375 0 -0.000451403 0.000260625 0 -0.0008235 0 0 
-0.00084475 0.0005 0 -0.000866 0.00052125 0 -0.000866 0.00097875 0 
-0.00084475 0.001 0 -0.000847597 0.00101063 0 -0.000451403 0.00123937 0 
-0.000414597 0.00123937 0 -1.84029e-05 0.00101063 0 -0.0003905 0.00075 0 
-1.84029e-05 0.000489375 -0.0005 1.84029e-05 0.000489375 -0.0005 -0.000414597 0.000260625 -0.0005 
-0.00041175 0.00025 -0.0005 -0.000433 0.00022875 -0.0005 -0.000433 -0.00022875 -0.0005 
-0.00041175 -0.00025 -0.0005 -0.000414597 -0.000260625 -0.0005 -1.84029e-05 -0.000489375 -0.0005 
1.84029e-05 -0.000489375 -0.0005 0.000414597 -0.000260625 -0.0005 0.000433 -0.00022875 -0.0005 
0.000433 0.00022875 -0.0005 0.000414597 0.000260625 -0.0005 4.25e-05 0 -0.0005 
2.125e-05 0.0005 -0.0005 5.90898e-17 0.00052125 -0.0005 5.90919e-17 0.00097875 -0.0005 
2.125e-05 0.001 -0.0005 1.84029e-05 0.00101063 -0.0005 0.000414597 0.00123937 -0.0005 
0.000451403 0.00123937 -0.0005 0.000847597 0.00101063 -0.0005 0.000866 0.00097875 -0.0005 
0.000866 0.00052125 -0.0005 0.000847597 0.000489375 -0.0005 0.000451403 0.000260625 -0.0005 
0.0004755 0.00075 -0.0005 0.00045425 0.00025 -0.0005 0.000884403 0.000489375 -0.0005 
0.0012806 0.000260625 -0.0005 0.001299 0.00022875 -0.0005 0.001299 -0.00022875 -0.0005 
0.0012806 -0.000260625 -0.0005 0.000884403 -0.000489375 -0.0005 0.000847597 -0.000489375 -0.0005 
0.000451403 -0.000260625 -0.0005 0.00045425 -0.00025 -0.0005 0.0009085 0 -0.0005 
0.000866 -0.00052125 -0.0005 0.000866 -0.00097875 -0.0005 0.000847597 -0.00101063 -0.0005 
0.000451403 -0.00123937 -0.0005 0.000414597 -0.00123937 -0.0005 1.84029e-05 -0.00101063 -0.0005 
2.125e-05 -0.001 -0.0005 5.90898e-17 -0.00097875 -0.0005 5.90919e-17 -0.00052125 -0.0005 
2.125e-05 -0.0005 -0.0005 0.0004755 -0.00075 -0.0005 -1.84029e-05 -0.00101063 -0.0005 
-0.000414597 -0.00123937 -0.0005 -0.000451403 -0.00123937 -0.0005 -0.000847597 -0.00101063 -0.0005 
-0.00084475 -0.001 -0.0005 -0.000866 -0.00097875 -0.0005 -0.000866 -0.00052125 -0.0005 
-0.00084475 -0.0005 -0.0005 -0.000847597 -0.000489375 -0.0005 -0.000451403 -0.000260625 -0.0005 
-0.0003905 -0.00075 -0.0005 -0.000884403 -0.000489375 -0.0005 -0.0012806 -0.000260625 -0.0005 
-0.00127775 -0.00025 -0.0005 -0.001299 -0.00022875 -0.0005 -0.001299 0.00022875 -0.0005 
-0.00127775 0.00025 -0.0005 -0.0012806 0.000260625 -0.0005 -0.000884403 0.000489375 -0.0005 
-0.000847597 0.000489375 -0.0005 -0.000451403 0.000260625 -0.0005 -0.0008235 0 -0.0005 
-0.00084475 0.0005 -0.0005 -0.000866 0.00052125 -0.0005 -0.000866 0.00097875 -0.0005 
-0.00084475 0.001 -0.0005 -0.000847597 0.00101063 -0.0005 -0.000451403 0.00123937 -0.0005 
-0.000414597 0.00123937 -0.0005 -1.84029e-05 0.00101063 -0.0005 -0.0003905 0.00075 -0.0005 
-9.82724e-20 0.00047875 0 -0.000335358 0.000306375 0 -0.000256119 0.000352125 0 
-0.000176881 0.000397875 0 -9.76417e-05 0.000443625 0 -0.000412474 0.0002555 0 
-0.000417974 0.000234974 0 -0.000433 -0.00013725 0 -0.000433 -4.575e-05 0 
-0.000433 4.575e-05 0 -0.000433 0.00013725 0 -0.000417974 -0.000234974 0 
-0.000412474 -0.0002555 0 -9.76417e-05 -0.000443625 0 -0.000176881 -0.000397875 0 
-0.000256119 -0.000352125 0 -0.000335358 -0.000306375 0 -1.07223e-19 -0.00047875 0 
0.000335358 -0.000306375 0 0.000256119 -0.000352125 0 0.000176881 -0.000397875 0 
9.76417e-05 -0.000443625 0 0.000414597 -0.000239375 0 0.000433 0.00013725 0 
0.000433 4.575e-05 0 0.000433 -4.575e-05 0 0.000433 -0.00013725 0 
0.000414597 0.000239375 0 9.76417e-05 0.000443625 0 0.000176881 0.000397875 0 
0.000256119 0.000352125 0 0.000335358 0.000306375 0 -1.29514e-19 4.25e-05 0 
-4.25e-05 -3.53397e-19 0 4.07417e-19 -4.25e-05 0 2.05259e-05 0.0004945 0 
1.5026e-05 0.000515026 0 0 0.00061275 0 0 0.00070425 0 
0 0.00079575 0 0 0.00088725 0 1.5026e-05 0.000984974 0 
2.05259e-05 0.0010055 0 9.76417e-05 0.00105638 0 0.000176881 0.00110213 0 
0.000256119 0.00114787 0 0.000335358 0.00119362 0 0.000433 0.00122875 0 
0.000530642 0.00119362 0 0.000609881 0.00114787 0 0.000689119 0.00110213 0 
0.000768358 0.00105638 0 0.000847597 0.000989375 0 0.000866 0.00088725 0 
0.000866 0.00079575 0 0.000866 0.00070425 0 0.000866 0.00061275 0 
0.000847597 0.000510625 0 0.000530642 0.000306375 0 0.000609881 0.000352125 0 
0.000689119 0.000397875 0 0.000768358 0.000443625 0 0.000433 0.00027125 0 
0.000433 0.0007925 0 0.0003905 0.00075 0 0.000433 0.0007075 0 
0.000448026 0.000234974 0 0.000453526 0.0002555 0 0.000866 0.00047875 0 
0.000963642 0.000443625 0 0.00104288 0.000397875 0 0.00112212 0.000352125 0 
0.00120136 0.000306375 0 0.0012806 0.000239375 0 0.001299 0.00013725 0 
0.001299 4.575e-05 0 0.001299 -4.575e-05 0 0.001299 -0.00013725 0 
0.0012806 -0.000239375 0 0.00120136 -0.000306375 0 0.00112212 -0.000352125 0 
0.00104288 -0.000397875 0 0.000963642 -0.000443625 0 0.000866 -0.00047875 0 
0.000530642 -0.000306375 0 0.000609881 -0.000352125 0 0.000689119 -0.000397875 0 
0.000768358 -0.000443625 0 0.000453526 -0.0002555 0 0.000448026 -0.000234974 0 
0.000866 4.25e-05 0 0.0008235 -3.53397e-19 0 0.000866 -4.25e-05 0 
0.000433 -0.00027125 0 0.000847597 -0.000510625 0 0.000866 -0.00061275 0 
0.000866 -0.00070425 0 0.000866 -0.00079575 0 0.000866 -0.00088725 0 
0.000847597 -0.000989375 0 0.000768358 -0.00105638 0 0.000689119 -0.00110213 0 
0.000609881 -0.00114787 0 0.000530642 -0.00119362 0 0.000433 -0.00122875 0 
0.000335358 -0.00119362 0 0.000256119 -0.00114787 0 0.000176881 -0.00110213 0 
9.76417e-05 -0.00105638 0 2.05259e-05 -0.0010055 0 1.5026e-05 -0.000984974 0 
0 -0.00061275 0 0 -0.00070425 0 0 -0.00079575 0 
0 -0.00088725 0 1.5026e-05 -0.000515026 0 2.05259e-05 -0.0004945 0 
0.000433 -0.0007075 0 0.0003905 -0.00075 0 0.000433 -0.0007925 0 
-1.84031e-05 -0.000510625 0 -1.84031e-05 -0.000989375 0 -9.76417e-05 -0.00105638 0 
-0.000176881 -0.00110213 0 -0.000256119 -0.00114787 0 -0.000335358 -0.00119362 0 
-0.000433 -0.00122875 0 -0.000530642 -0.00119362 0 -0.000609881 -0.00114787 0 
-0.000689119 -0.00110213 0 -0.000768358 -0.00105638 0 -0.000845474 -0.0010055 0 
-0.000850974 -0.000984974 0 -0.000866 -0.00088725 0 -0.000866 -0.00079575 0 
-0.000866 -0.00070425 0 -0.000866 -0.00061275 0 -0.000850974 -0.000515026 0 
-0.000845474 -0.0004945 0 -0.000530642 -0.000306375 0 -0.000609881 -0.000352125 0 
-0.000689119 -0.000397875 0 -0.000768358 -0.000443625 0 -0.000433 -0.00027125 0 
-0.000433 -0.0007075 0 -0.0004755 -0.00075 0 -0.000433 -0.0007925 0 
-0.000451403 -0.000239375 0 -0.000866 -0.00047875 0 -0.000963642 -0.000443625 0 
-0.00104288 -0.000397875 0 -0.00112212 -0.000352125 0 -0.00120136 -0.000306375 0 
-0.00127847 -0.0002555 0 -0.00128397 -0.000234974 0 -0.001299 -0.00013725 0 
-0.001299 -4.575e-05 0 -0.001299 4.575e-05 0 -0.001299 0.00013725 0 
-0.00128397 0.000234974 0 -0.00127847 0.0002555 0 -0.00120136 0.000306375 0 
-0.00112212 0.000352125 0 -0.00104288 0.000397875 0 -0.000963642 0.000443625 0 
-0.000866 0.00047875 0 -0.000530642 0.000306375 0 -0.000609881 0.000352125 0 
-0.000689119 0.000397875 0 -0.000768358 0.000443625 0 -0.000451403 0.000239375 0 
-0.000866 4.25e-05 0 -0.0009085 -3.53397e-19 0 -0.000866 -4.25e-05 0 
-0.000433 0.00027125 0 -0.000845474 0.0004945 0 -0.000850974 0.000515026 0 
-0.000866 0.00061275 0 -0.000866 0.00070425 0 -0.000866 0.00079575 0 
-0.000866 0.00088725 0 -0.000850974 0.000984974 0 -0.000845474 0.0010055 0 
-0.000768358 0.00105638 0 -0.000689119 0.00110213 0 -0.000609881 0.00114787 0 
-0.000530642 0.00119362 0 -0.000433 0.00122875 0 -0.000335358 0.00119362 0 
-0.000256119 0.00114787 0 -0.000176881 0.00110213 0 -9.76417e-05 0.00105638 0 
-1.84031e-05 0.000989375 0 -1.84031e-05 0.000510625 0 -0.000433 0.0007925 0 
-0.0004755 0.00075 0 -0.000433 0.0007075 0 -9.82724e-20 0.00047875 -0.0005 
-0.000335358 0.000306375 -0.0005 -0.000256119 0.000352125 -0.0005 -0.000176881 0.000397875 -0.0005 
-9.76417e-05 0.000443625 -0.0005 -0.000412474 0.0002555 -0.0005 -0.000417974 0.000234974 -0.0005 
-0.000433 -0.00013725 -0.0005 -0.000433 -4.575e-05 -0.0005 -0.000433 4.575e-05 -0.0005 
-0.000433 0.00013725 -0.0005 -0.000417974 -0.000234974 -0.0005 -0.000412474 -0.0002555 -0.0005 
-9.76417e-05 -0.000443625 -0.0005 -0.000176881 -0.000397875 -0.0005 -0.000256119 -0.000352125 -0.0005 
-0.000335358 -0.000306375 -0.0005 -1.07223e-19 -0.00047875 -0.0005 0.000335358 -0.000306375 -0.0005 
0.000256119 -0.000352125 -0.0005 0.000176881 -0.000397875 -0.0005 9.76417e-05 -0.000443625 -0.0005 
0.000414597 -0.000239375 -0.0005 0.000433 0.00013725 -0.0005 0.000433 4.575e-05 -0.0005 
0.000433 -4.575e-05 -0.0005 0.000433 -0.00013725 -0.0005 0.000414597 0.000239375 -0.0005 
9.76417e-05 0.000443625 -0.0005 0.000176881 0.000397875 -0.0005 0.000256119 0.000352125 -0.0005 
0.000335358 0.000306375 -0.0005 -1.29514e-19 4.25e-05 -0.0005 -4.25e-05 -3.53397e-19 -0.0005 
4.07417e-19 -4.25e-05 -0.0005 2.05259e-05 0.0004945 -0.0005 1.5026e-05 0.000515026 -0.0005 
0 0.00061275 -0.0005 0 0.00070425 -0.0005 0 0.00079575 -0.0005 
0 0.00088725 -0.0005 1.5026e-05 0.000984974 -0.0005 2.05259e-05 0.0010055 -0.0005 
9.76417e-05 0.00105638 -0.0005 0.000176881 0.00110213 -0.0005 0.000256119 0.00114787 -0.0005 
0.000335358 0.00119362 -0.0005 0.000433 0.00122875 -0.0005 0.000530642 0.00119362 -0.0005 
0.000609881 0.00114787 -0.0005 0.000689119 0.00110213 -0.0005 0.000768358 0.00105638 -0.0005 
0.000847597 0.000989375 -0.0005 0.000866 0.00088725 -0.0005 0.000866 0.00079575 -0.0005 
0.000866 0.00070425 -0.0005 0.000866 0.00061275 -0.0005 0.000847597 0.000510625 -0.0005 
0.000530642 0.000306375 -0.0005 0.000609881 0.000352125 -0.0005 0.000689119 0.000397875 -0.0005 
0.000768358 0.000443625 -0.0005 0.000433 0.00027125 -0.0005 0.000433 0.0007925 -0.0005 
0.0003905 0.00075 -0.0005 0.000433 0.0007075 -0.0005 0.000448026 0.000234974 -0.0005 
0.000453526 0.0002555 -0.0005 0.000866 0.00047875 -0.0005 0.000963642 0.000443625 -0.0005 
0.00104288 0.000397875 -0.0005 0.00112212 0.000352125 -0.0005 0.00120136 0.000306375 -0.0005 
0.0012806 0.000239375 -0.0005 0.001299 0.00013725 -0.0005 0.001299 4.575e-05 -0.0005 
0.001299 -4.575e-05 -0.0005 0.001299 -0.00013725 -0.0005 0.0012806 -0.000239375 -0.0005 
0.00120136 -0.000306375 -0.0005 0.00112212 -0.000352125 -0.0005 0.00104288 -0.000397875 -0.0005 
0.000963642 -0.000443625 -0.0005 0.000866 -0.00047875 -0.0005 0.000530642 -0.000306375 -0.0005 
0.000609881 -0.000352125 -0.0005 0.000689119 -0.000397875 -0.0005 0.000768358 -0.000443625 -0.0005 
0.000453526 -0.0002555 -0.0005 0.000448026 -0.000234974 -0.0005 0.000866 4.25e-05 -0.0005 
0.0008235 -3.53397e-19 -0.0005 0.000866 -4.25e-05 -0.0005 0.000433 -0.00027125 -0.0005 
0.000847597 -0.000510625 -0.0005 0.000866 -0.00061275 -0.0005 0.000866 -0.00070425 -0.0005 
0.000866 -0.00079575 -0.0005 0.000866 -0.00088725 -0.0005 0.000847597 -0.000989375 -0.0005 
0.000768358 -0.00105638 -0.0005 0.000689119 -0.00110213 -0.0005 0.000609881 -0.00114787 -0.0005 
0.000530642 -0.00119362 -0.0005 0.000433 -0.00122875 -0.0005 0.000335358 -0.00119362 -0.0005 
0.000256119 -0.00114787 -0.0005 0.000176881 -0.00110213 -0.0005 9.76417e-05 -0.00105638 -0.0005 
2.05259e-05 -0.0010055 -0.0005 1.5026e-05 -0.000984974 -0.0005 0 -0.00061275 -0.0005 
0 -0.00070425 -0.0005 0 -0.00079575 -0.0005 0 -0.00088725 -0.0005 
1.5026e-05 -0.000515026 -0.0005 2.05259e-05 -0.0004945 -0.0005 0.000433 -0.0007075 -0.0005 
0.0003905 -0.00075 -0.0005 0.000433 -0.0007925 -0.0005 -1.84031e-05 -0.000510625 -0.0005 
-1.84031e-05 -0.000989375 -0.0005 -9.76417e-05 -0.00105638 -0.0005 -0.000176881 -0.00110213 -0.0005 
-0.000256119 -0.00114787 -0.0005 -0.000335358 -0.00119362 -0.0005 -0.000433 -0.00122875 -0.0005 
-0.000530642 -0.00119362 -0.0005 -0.000609881 -0.00114787 -0.0005 -0.000689119 -0.00110213 -0.0005 
-0.000768358 -0.00105638 -0.0005 -0.000845474 -0.0010055 -0.0005 -0.000850974 -0.000984974 -0.0005 
-0.000866 -0.00088725 -0.0005 -0.000866 -0.00079575 -0.0005 -0.000866 -0.00070425 -0.0005 
-0.000866 -0.00061275 -0.0005 -0.000850974 -0.000515026 -0.0005 -0.000845474 -0.0004945 -0.0005 
-0.000530642 -0.000306375 -0.0005 -0.000609881 -0.000352125 -0.0005 -0.000689119 -0.000397875 -0.0005 
-0.000768358 -0.000443625 -0.0005 -0.000433 -0.00027125 -0.0005 -0.000433 -0.0007075 -0.0005 
-0.0004755 -0.00075 -0.0005 -0.000433 -0.0007925 -0.0005 -0.000451403 -0.000239375 -0.0005 
-0.000866 -0.00047875 -0.0005 -0.000963642 -0.000443625 -0.0005 -0.00104288 -0.000397875 -0.0005 
-0.00112212 -0.000352125 -0.0005 -0.00120136 -0.000306375 -0.0005 -0.00127847 -0.0002555 -0.0005 
-0.00128397 -0.000234974 -0.0005 -0.001299 -0.00013725 -0.0005 -0.001299 -4.575e-05 -0.0005 
-0.001299 4.575e-05 -0.0005 -0.001299 0.00013725 -0.0005 -0.00128397 0.000234974 -0.0005 
-0.00127847 0.0002555 -0.0005 -0.00120136 0.000306375 -0.0005 -0.00112212 0.000352125 -0.0005 
-0.00104288 0.000397875 -0.0005 -0.000963642 0.000443625 -0.0005 -0.000866 0.00047875 -0.0005 
-0.000530642 0.000306375 -0.0005 -0.000609881 0.000352125 -0.0005 -0.000689119 0.000397875 -0.0005 
-0.000768358 0.000443625 -0.0005 -0.000451403 0.000239375 -0.0005 -0.000866 4.25e-05 -0.0005 
-0.0009085 -3.53397e-19 -0.0005 -0.000866 -4.25e-05 -0.0005 -0.000433 0.00027125 -0.0005 
-0.000845474 0.0004945 -0.0005 -0.000850974 0.000515026 -0.0005 -0.000866 0.00061275 -0.0005 
-0.000866 0.00070425 -0.0005 -0.000866 0.00079575 -0.0005 -0.000866 0.00088725 -0.0005 
-0.000850974 0.000984974 -0.0005 -0.000845474 0.0010055 -0.0005 -0.000768358 0.00105638 -0.0005 
-0.000689119 0.00110213 -0.0005 -0.000609881 0.00114787 -0.0005 -0.000530642 0.00119362 -0.0005 
-0.000433 0.00122875 -0.0005 -0.000335358 0.00119362 -0.0005 -0.000256119 0.00114787 -0.0005 
-0.000176881 0.00110213 -0.0005 -9.76417e-05 0.00105638 -0.0005 -1.84031e-05 0.000989375 -0.0005 
-1.84031e-05 0.000510625 -0.0005 -0.000433 0.0007925 -0.0005 -0.0004755 0.00075 -0.0005 
-0.000433 0.0007075 -0.0005 0.000166833 -0.000159585 0 0.000165961 0.000165961 0 
-0.000162277 0.000168837 0 -0.000162539 -0.000168697 0 -0.000316174 -0.000207462 0 
-0.000316174 0.000207462 0 -1.7625e-06 0.00020878 0 -0.000200494 5.10348e-06 0 
0.000198022 -6.49099e-06 0 -3.82827e-06 -0.000208798 0 -0.0003642 0.000214286 0 
-0.0003642 -0.000214286 0 0.000301049 0.000166193 0 0.000312424 -0.000170987 0 
-7.30908e-06 -0.00035148 0 7.30908e-06 0.00035148 0 0.000109232 0.000285545 0 
-0.000107519 -0.000286192 0 -0.000304808 7.69979e-05 0 -0.000308572 -7.52569e-05 0 
0.000106639 -0.000294843 0 -0.00010493 0.000296588 0 8.50608e-05 -8.41794e-05 0 
8.82006e-05 9.78925e-05 0 -9.29688e-05 8.1944e-05 0 -9.5784e-05 -8.5049e-05 0 
-0.00037448 0.000247295 0 -0.00037448 -0.000247295 0 -0.000226807 0.000247375 0 
-0.00022696 -0.000246565 0 0.000318161 -5.24395e-05 0 0.00030573 6.09258e-05 0 
-0.000251653 -0.000142326 0 -0.000251653 0.000142326 0 3.07451e-05 -0.00041094 0 
-3.07451e-05 0.00041094 0 0.00022921 -0.000246251 0 0.000229478 0.000241816 0 
2.27436e-05 0.000133221 0 1.86722e-05 -0.000131409 0 -0.000131489 -2.16615e-05 0 
0.00013003 -1.62999e-05 0 -0.00037383 0.000149154 0 -0.00037383 -0.000149154 0 
0.000234918 -9.03863e-05 0 0.000328799 0.000234244 0 0.000330695 -0.000235043 0 
0.000223602 9.28059e-05 0 -8.24081e-05 0.000181543 0 -7.93229e-05 -0.000178683 0 
-0.000174487 7.88274e-05 0 9.06107e-05 -0.000168878 0 9.31592e-05 0.000169495 0 
-0.000165177 -7.38619e-05 0 -9.20929e-05 -0.000358769 0 9.20929e-05 0.000358769 0 
3.47644e-05 0.000422113 0 -3.47644e-05 -0.000422113 0 -0.00039524 0.000187946 0 
-0.00039524 -0.000187946 0 -0.00036071 1.92365e-06 0 0.000388959 -0.000188051 0 
0.000390003 0.000186364 0 6.43444e-05 -0.000355671 0 -6.37768e-05 0.000356891 0 
2.80563e-05 -0.000283426 0 -2.80563e-05 0.000283426 0 0.000158032 5.64575e-05 0 
4.0579e-05 0.000286843 0 -4.0579e-05 -0.000286843 0 0.000187449 0.000307262 0 
0.000159892 -7.91024e-05 0 -0.000184905 -0.00030951 0 0.000358611 0.000105752 0 
0.000363074 -0.00011688 0 -0.000325009 0.000251333 0 -0.000325009 -0.000251333 0 
-0.000240838 -7.12684e-05 0 -0.000314691 -0.000147697 0 -0.000314417 0.000147824 0 
-0.000404578 0.00024054 0 -0.000403308 0.000218831 0 -0.000404578 -0.00024054 0 
-0.000403308 -0.000218831 0 0.000191925 -0.0003084 0 -0.000260053 0.000200474 0 
-0.000260078 -0.000200417 0 -2.84262e-05 0.000450764 0 2.84262e-05 -0.000450764 0 
-0.000189066 0.000311072 0 -0.000240999 7.45278e-05 0 -0.000278935 4.78174e-06 0 
0.000354779 1.89656e-05 0 0.000162497 0.000232229 0 0.000376671 0.000245397 0 
0.000376841 -0.000245894 0 0.000157204 -0.000230896 0 0.000234792 0.000171119 0 
-0.000151291 -0.000232673 0 -2.32986e-05 8.92785e-05 0 -3.11926e-05 -8.95957e-05 0 
-9.03847e-05 2.2115e-05 0 9.12302e-05 3.30279e-05 0 -0.000152334 0.000235849 0 
0.000239556 -0.000175069 0 -0.000374753 9.03378e-05 0 -0.000376425 -8.91537e-05 0 
4.61669e-05 -4.59906e-05 0 6.62281e-05 0.000232832 0 3.85868e-05 8.10868e-05 0 
-7.69579e-05 -3.79434e-05 0 0.000127486 -0.000360083 0 7.07506e-05 -0.00023716 0 
0.000272535 3.89675e-06 0 -7.65081e-05 -0.000238638 0 0.00014561 0.000112396 0 
-0.000352537 0.000183264 0 -0.000352576 -0.000183245 0 -0.000270615 -0.000285639 0 
-0.000269954 0.000283517 0 -7.38981e-05 0.000241237 0 0.00028245 0.000113194 0 
-0.000128597 0.00035529 0 0.000277733 0.00021912 0 0.000279019 -0.000221334 0 
0.000293419 -0.000117053 0 -4.98304e-05 4.71675e-05 0 -3.82924e-05 0.000144636 0 
-3.82924e-05 -0.000144636 0 -0.000137965 3.32657e-05 0 -0.00012318 0.000133204 0 
-0.000120047 -0.000136339 0 -0.000206789 -0.00019438 0 0.000125599 -0.000122936 0 
-0.000206748 0.000194842 0 -0.000279599 0.000238032 0 -0.000279767 -0.000238283 0 
-0.000195529 0.000130609 0 -0.000197761 -0.000129013 0 2.37414e-05 -7.8735e-05 0 
7.89976e-05 -2.26884e-05 0 0.000279552 0.000278672 0 0.000279873 -0.000279044 0 
4.48012e-06 0.00044547 0 -4.48012e-06 -0.00044547 0 0.000598961 0.000584039 0 
0.000602744 0.00091226 0 0.000270474 0.000918651 0 0.000270149 0.000581615 0 
0.000116826 0.000957462 0 0.000116826 0.000542538 0 0.000429172 0.000958798 0 
0.000232505 0.000755103 0 0.000636012 0.000747201 0 0.000434763 0.00054122 0 
6.87997e-05 0.000964286 0 6.87997e-05 0.000535714 0 0.000745424 0.000920987 0 
0.000734049 0.000583807 0 0.000425691 0.00039852 0 0.000425691 0.00110148 0 
0.000325481 0.00103619 0 0.00032556 0.000464273 0 0.000128192 0.000826998 0 
0.000124428 0.000674743 0 0.000539639 0.00104484 0 0.000539618 0.000454793 0 
0.000520463 0.000653783 0 0.000521988 0.00084822 0 0.000340031 0.000831944 0 
0.00034624 0.000661734 0 5.85195e-05 0.000997295 0 5.85195e-05 0.000502705 0 
0.00020604 0.000996565 0 0.00020604 0.000503435 0 0.000751161 0.00080244 0 
0.00073873 0.000689074 0 0.000181347 0.000607674 0 0.000181347 0.000892326 0 
0.000463745 0.00033906 0 0.000463745 0.00116094 0 0.00066221 0.000996251 0 
0.000655871 0.000515061 0 0.000455531 0.000883279 0 0.0004137 0.000617913 0 
0.000302544 0.000731006 0 0.000569409 0.000742828 0 5.91695e-05 0.000899154 0 
5.91695e-05 0.000600846 0 0.000666622 0.000847886 0 0.000763695 0.000985043 0 
0.000761799 0.000515756 0 0.000662952 0.000664982 0 0.000353677 0.000928683 0 
0.000512323 0.000571317 0 0.000258513 0.000828827 0 0.000526529 0.000920143 0 
0.000348994 0.000575642 0 0.000269055 0.00067649 0 0.000340907 0.000391231 0 
0.000340907 0.00110877 0 0.000398236 0.00117211 0 0.000398236 0.000327887 0 
3.77595e-05 0.000937946 0 3.77595e-05 0.000562054 0 7.22902e-05 0.000751924 0 
0.000821959 0.000938051 0 0.000823003 0.000563636 0 0.000497344 0.00110567 0 
0.000497341 0.000394268 0 0.000595975 0.000808208 0 0.000461056 0.000466574 0 
0.000461056 0.00103343 0 0.000392421 0.00103684 0 0.000392458 0.000463164 0 
0.000248106 0.000440556 0 0.000248095 0.00105951 0 0.000791611 0.000644248 0 
0.000796074 0.00086688 0 0.000107991 0.00100133 0 0.000107991 0.000498667 0 
0.000192237 0.000678753 0 0.000118309 0.000602303 0 0.000118584 0.000897824 0 
2.84222e-05 0.00099054 0 2.96921e-05 0.000968831 0 2.84222e-05 0.00050946 0 
2.96921e-05 0.000531169 0 0.000584827 0.000674445 0 0.000624925 0.0010584 0 
0.000620086 0.000439056 0 0.000172934 0.000950423 0 0.000172922 0.000549583 0 
0.000461426 0.00120076 0 0.000461426 0.000299236 0 0.000192001 0.000824528 0 
0.000154074 0.000754784 0 0.000787779 0.000731034 0 0.000809841 0.000995894 0 
0.000809671 0.000504603 0 0.000589469 0.00097835 0 0.000571747 0.000512487 0 
0.000673596 0.000588147 0 0.000281249 0.000518091 0 0.00028171 0.000982668 0 
0.000409676 0.000839285 0 0.000465934 0.000658411 0 0.000524589 0.000782934 0 
0.000342119 0.000777068 0 0.000672682 0.000926159 0 5.82468e-05 0.000840338 0 
5.65752e-05 0.000660846 0 0.000386493 0.000703192 0 0.000361584 0.000514775 0 
0.000471587 0.000831087 0 0.000510532 0.000709986 0 0.000559513 0.000389323 0 
0.000560486 0.00111008 0 0.000503751 0.00098716 0 0.000707209 0.000747103 0 
0.000356492 0.000988637 0 8.04633e-05 0.000933264 0 8.04241e-05 0.000566755 0 
0.000162386 0.000464369 0 0.000162385 0.00103564 0 0.000578393 0.000862613 0 
0.000503901 0.000509278 0 0.000714127 0.000640342 0 0.000712044 0.000971552 0 
0.000710619 0.000533186 0 0.000726252 0.00086828 0 0.000383065 0.000798159 0 
0.000471292 0.000605364 0 0.000394708 0.000894636 0 0.000295143 0.00078479 0 
0.000311567 0.000884914 0 0.000544105 0.000613927 0 0.000226145 0.000555712 0 
0.000226234 0.0009443 0 0.000307419 0.000615421 0 0.000153235 0.000988284 0 
0.000153233 0.000511718 0 0.000237647 0.000880726 0 0.000238317 0.000620115 0 
0.000410377 0.000668704 0 0.000352297 0.000726325 0 0.000712874 0.00102905 0 
0.000708438 0.00047242 0 0.00042852 0.00030453 0 0.00042852 0.00119547 0 
0.00103283 -0.000159585 0 0.00103196 0.000165961 0 0.00070371 0.000168883 0 
0.000703474 -0.000168651 0 0.000549826 0.000207462 0 0.000549826 -0.000207462 0 
0.000864237 0.00020878 0 0.000665505 -1.75358e-06 0 0.00106402 -6.49099e-06 0 
0.000862172 -0.000208798 0 0.0005018 0.000214286 0 0.0005018 -0.000214286 0 
0.00117842 -0.000170987 0 0.00116705 0.000166193 0 0.000858691 -0.00035148 0 
0.000873309 0.00035148 0 0.000975232 0.000285545 0 0.000758481 -0.000286192 0 
0.000561503 7.6703e-05 0 0.000555269 -7.65899e-05 0 0.000972639 -0.000294843 0 
0.00076107 0.000296588 0 0.000951061 -8.41794e-05 0 0.000954201 9.78925e-05 0 
0.000770216 8.5049e-05 0 0.000773031 -8.1944e-05 0 0.00049152 0.000247295 0 
0.00049152 -0.000247295 0 0.000639193 0.000247375 0 0.00063904 -0.000246565 0 
0.00118416 -5.24395e-05 0 0.00117173 6.09258e-05 0 0.000614347 -0.000142326 0 
0.000614347 0.000142326 0 0.000896745 -0.00041094 0 0.000835255 0.00041094 0 
0.00109521 -0.000246251 0 0.00109548 0.000241816 0 0.000888744 0.000133221 0 
0.000884672 -0.000131409 0 0.000734511 2.22198e-05 0 0.00099603 -1.62999e-05 0 
0.00049217 0.000149154 0 0.00049217 -0.000149154 0 0.00110092 -9.03863e-05 0 
0.0011967 -0.000235043 0 0.0011948 0.000234244 0 0.0010896 9.28059e-05 0 
0.000783591 0.000181545 0 0.000786677 -0.000178683 0 0.000691513 -7.86239e-05 0 
0.000956611 -0.000168878 0 0.000959159 0.000169495 0 0.000700823 7.45132e-05 0 
0.000773907 -0.000358769 0 0.000958093 0.000358769 0 0.000900764 0.000422113 0 
0.000831236 -0.000422113 0 0.00047076 0.000187946 0 0.00047076 -0.000187946 0 
0.000506327 1.20793e-06 0 0.00125496 -0.000188051 0 0.001256 0.000186364 0 
0.000930344 -0.000355671 0 0.000802223 0.000356891 0 0.000894056 -0.000283426 0 
0.000837944 0.000283426 0 0.00102403 5.64575e-05 0 0.000906579 0.000286843 0 
0.000825421 -0.000286843 0 0.00105345 0.000307262 0 0.00102589 -7.91024e-05 0 
0.000681095 -0.00030951 0 0.00122461 0.000105752 0 0.00122907 -0.00011688 0 
0.000540991 0.000251333 0 0.000540991 -0.000251333 0 0.000624479 7.32103e-05 0 
0.000551152 -0.000147794 0 0.000551606 0.000147802 0 0.000461422 0.00024054 0 
0.000462692 0.000218831 0 0.000461422 -0.00024054 0 0.000462692 -0.000218831 0 
0.00105793 -0.0003084 0 0.000605948 0.000200473 0 0.000605915 -0.000200421 0 
0.000894426 -0.000450764 0 0.000837574 0.000450764 0 0.000676934 0.000311072 0 
0.000626182 -7.08972e-05 0 0.000584992 5.90258e-06 0 0.00122078 1.89656e-05 0 
0.0010285 0.000232229 0 0.00124284 -0.000245894 0 0.00124267 0.000245397 0 
0.0010232 -0.000230896 0 0.00110079 0.000171119 0 0.00071471 -0.000232668 0 
0.000834965 9.05283e-05 0 0.000842673 -8.85226e-05 0 0.00095723 3.30279e-05 0 
0.000775615 -2.20485e-05 0 0.000713665 0.000235853 0 0.00110556 -0.000175069 0 
0.000491363 9.025e-05 0 0.000488571 -8.87482e-05 0 0.000912167 -4.59906e-05 0 
0.000932228 0.000232832 0 0.000904587 8.10868e-05 0 0.000789049 3.8011e-05 0 
0.000993486 -0.000360083 0 0.000936751 -0.00023716 0 0.00113854 3.89675e-06 0 
0.000789492 -0.000238637 0 0.00101161 0.000112396 0 0.000513466 0.00018326 0 
0.000513402 -0.000183259 0 0.000596046 0.000283517 0 0.000595385 -0.000285639 0 
0.000792102 0.000241238 0 0.00114845 0.000113194 0 0.000737403 0.00035529 0 
0.00114502 -0.000221334 0 0.00114373 0.00021912 0 0.00115942 -0.000117053 0 
0.000816164 -4.7003e-05 0 0.000827708 0.000144636 0 0.000827708 -0.000144636 0 
0.000728035 -3.243e-05 0 0.00074578 0.000136564 0 0.000744567 -0.000134897 0 
0.000659232 -0.0001943 0 0.000991599 -0.000122936 0 0.00065923 0.000194923 0 
0.000586401 0.000238032 0 0.000586231 -0.000238284 0 0.000670788 -0.000130267 0 
0.000668203 0.000129229 0 0.000889614 -8.00602e-05 0 0.000944998 -2.26884e-05 0 
0.00114587 -0.000279044 0 0.00114555 0.000278672 0 0.00087048 0.00044547 0 
0.00086152 -0.00044547 0 0.000598961 -0.000915961 0 0.000603317 -0.000588209 0 
0.000270723 -0.000581163 0 0.000270149 -0.000918385 0 0.000116826 -0.000542538 0 
0.000116826 -0.000957462 0 0.000431238 -0.00054122 0 0.000232505 -0.000744897 0 
0.000636012 -0.000752799 0 0.000434763 -0.00095878 0 6.87997e-05 -0.000535714 0 
6.87997e-05 -0.000964286 0 0.000745424 -0.000579013 0 0.000734049 -0.000916193 0 
0.000425691 -0.00110148 0 0.000440309 -0.00039852 0 0.000542232 -0.000464455 0 
0.00032556 -0.00103573 0 0.000128192 -0.000673002 0 0.000124428 -0.000825257 0 
0.000539618 -0.00104521 0 0.00032807 -0.000453412 0 0.000520463 -0.000846217 0 
0.000521988 -0.00065178 0 0.000340031 -0.000668056 0 0.00034624 -0.000838266 0 
5.85195e-05 -0.000502705 0 5.85195e-05 -0.000997295 0 0.000206193 -0.000502625 0 
0.00020604 -0.000996565 0 0.000751161 -0.00069756 0 0.00073873 -0.000810926 0 
0.000181347 -0.000892326 0 0.000181347 -0.000607674 0 0.000463745 -0.00116094 0 
0.000402255 -0.00033906 0 0.000662471 -0.000504287 0 0.000655871 -0.000984939 0 
0.000455875 -0.000616724 0 0.0004137 -0.000882087 0 0.000302544 -0.000768994 0 
0.000569409 -0.000757172 0 5.91695e-05 -0.000600846 0 5.91695e-05 -0.000899154 0 
0.000666622 -0.000652114 0 0.000763695 -0.000514957 0 0.000761799 -0.000984244 0 
0.000662952 -0.000835018 0 0.000350592 -0.000568457 0 0.000512323 -0.000928683 0 
0.000258513 -0.000671173 0 0.000526882 -0.000581015 0 0.000348994 -0.000924358 0 
0.000269055 -0.00082351 0 0.000340907 -0.00110877 0 0.000525093 -0.000391231 0 
0.000398236 -0.00117211 0 0.000467764 -0.000327887 0 3.77595e-05 -0.000562054 0 
3.77595e-05 -0.000937946 0 7.22902e-05 -0.000748076 0 0.000821959 -0.000561949 0 
0.000823003 -0.000936364 0 0.000497341 -0.00110573 0 0.000369223 -0.000393109 0 
0.000595975 -0.000691792 0 0.000461056 -0.00103343 0 0.000404944 -0.000466574 0 
0.000473579 -0.000463157 0 0.000392458 -0.00103684 0 0.000620449 -0.000442181 0 
0.000248106 -0.00105944 0 0.000791611 -0.000855752 0 0.000796074 -0.00063312 0 
0.000107991 -0.000498667 0 0.000107991 -0.00100133 0 0.000192237 -0.000821247 0 
0.000118309 -0.000897697 0 0.000118584 -0.000602176 0 2.84222e-05 -0.00050946 0 
2.96921e-05 -0.000531169 0 2.84222e-05 -0.00099054 0 2.96921e-05 -0.000968831 0 
0.000584827 -0.000825555 0 0.000620086 -0.00106094 0 0.000172947 -0.000549526 0 
0.000172922 -0.000950417 0 0.000461426 -0.00120076 0 0.000404574 -0.000299236 0 
0.000243934 -0.000438928 0 0.000192001 -0.000675472 0 0.000154074 -0.000745216 0 
0.000787779 -0.000768966 0 0.000588723 -0.000523989 0 0.000809841 -0.000504106 0 
0.000809671 -0.000995397 0 0.000571747 -0.000987513 0 0.000673596 -0.000911853 0 
0.000281249 -0.000981909 0 0.000409717 -0.000660715 0 0.000465934 -0.000841589 0 
0.000524589 -0.000717066 0 0.000342119 -0.000722933 0 0.000280666 -0.000514151 0 
0.000672694 -0.000574319 0 5.82468e-05 -0.000659662 0 5.65752e-05 -0.000839154 0 
0.000386493 -0.000796808 0 0.000361584 -0.000985225 0 0.000499228 -0.000517168 0 
0.000471587 -0.000668913 0 0.000510532 -0.000790014 0 0.000559513 -0.00111068 0 
0.000707209 -0.000752897 0 8.04633e-05 -0.000566736 0 8.04241e-05 -0.000933245 0 
0.000163046 -0.000466483 0 0.000162386 -0.00103563 0 0.000578393 -0.000637387 0 
0.000503901 -0.000990722 0 0.000359102 -0.000508763 0 0.000714127 -0.000859658 0 
0.000304403 -0.00039471 0 0.000712099 -0.000528651 0 0.000710619 -0.000966814 0 
0.000726254 -0.000631789 0 0.000383073 -0.000701841 0 0.000471292 -0.000894636 0 
0.000394708 -0.000605364 0 0.000295143 -0.00071521 0 0.000544105 -0.000886073 0 
0.00030982 -0.000616796 0 0.000226145 -0.000944288 0 0.000307419 -0.000884579 0 
0.000226252 -0.000555158 0 0.000153401 -0.000511968 0 0.000153233 -0.000988282 0 
0.000237471 -0.000619391 0 0.000238317 -0.000879885 0 0.000410377 -0.000831296 0 
0.000352297 -0.000773675 0 0.00071621 -0.000470678 0 0.000708438 -0.00102758 0 
0.00043748 -0.00030453 0 0.00042852 -0.00119547 0 -0.000266167 -0.000909585 0 
-0.00026339 -0.000582669 0 -0.000595526 -0.000581349 0 -0.000595539 -0.000918697 0 
-0.000749174 -0.000957462 0 -0.000749174 -0.000542538 0 -0.000436828 -0.000541202 0 
-0.000633495 -0.000748246 0 -0.000234978 -0.000756491 0 -0.000436828 -0.000958798 0 
-0.0007972 -0.000964286 0 -0.0007972 -0.000535714 0 -0.000131951 -0.000583807 0 
-0.000120576 -0.000920987 0 -0.000440309 -0.00110148 0 -0.000440309 -0.00039852 0 
-0.000540519 -0.000463808 0 -0.000540519 -0.00103619 0 -0.000737497 -0.000826703 0 
-0.000743731 -0.00067341 0 -0.000326361 -0.000455157 0 -0.000326361 -0.00104484 0 
-0.000347939 -0.000834179 0 -0.000344799 -0.000652107 0 -0.000525969 -0.000668056 0 
-0.000528784 -0.000835049 0 -0.00080748 -0.000997295 0 -0.00080748 -0.000502705 0 
-0.00065996 -0.000996565 0 -0.00065996 -0.000503435 0 -0.000114839 -0.00080244 0 
-0.00012727 -0.000689074 0 -0.000684653 -0.000892326 0 -0.000684653 -0.000607674 0 
-0.000402255 -0.00033906 0 -0.000402255 -0.00116094 0 -0.00020379 -0.000996251 0 
-0.000209694 -0.000514898 0 -0.000410601 -0.000616776 0 -0.000414328 -0.000881409 0 
-0.000564489 -0.00077222 0 -0.00030297 -0.0007663 0 -0.000806831 -0.000899154 0 
-0.000806831 -0.000600846 0 -0.000198082 -0.000840386 0 -0.000104201 -0.000515756 0 
-0.000102305 -0.000985043 0 -0.000210482 -0.000662469 0 -0.000512323 -0.000571317 0 
-0.000512323 -0.000928683 0 -0.000607487 -0.000671376 0 -0.000342389 -0.000918878 0 
-0.000339591 -0.000579218 0 -0.000598177 -0.000824513 0 -0.000525093 -0.00110877 0 
-0.000525093 -0.000391231 0 -0.000467764 -0.00117211 0 -0.000467764 -0.000327887 0 
-0.00082824 -0.000937946 0 -0.00082824 -0.000562054 0 -0.000792673 -0.000751208 0 
-4.40406e-05 -0.000938051 0 -4.29968e-05 -0.000563636 0 -0.000368656 -0.000394329 0 
-0.000368656 -0.00110567 0 -0.000404944 -0.000466574 0 -0.000404944 -0.00103343 0 
-0.000274968 -0.000693542 0 -0.000473579 -0.000463157 0 -0.000473579 -0.00103684 0 
-0.000273108 -0.000829102 0 -0.000617905 -0.00105951 0 -0.000617905 -0.00044049 0 
-7.4389e-05 -0.000644248 0 -6.99258e-05 -0.00086688 0 -0.000758009 -0.00100133 0 
-0.000758009 -0.000498667 0 -0.000674521 -0.00082321 0 -0.000747394 -0.000897802 0 
-0.000747848 -0.000602206 0 -0.000837578 -0.00099054 0 -0.000836308 -0.000968831 0 
-0.000837578 -0.00050946 0 -0.000836308 -0.000531169 0 -0.00024589 -0.000439066 0 
-0.000241075 -0.0010584 0 -0.000693065 -0.000950422 0 -0.000693085 -0.000549579 0 
-0.000404574 -0.00120076 0 -0.000404574 -0.000299236 0 -0.000672818 -0.000679103 0 
-0.000714008 -0.000755903 0 -7.82213e-05 -0.000731034 0 -5.6329e-05 -0.000504603 0 
-5.61586e-05 -0.000995894 0 -0.000275796 -0.000980896 0 -0.000285676 -0.000513219 0 
-0.000186165 -0.000585602 0 -0.000584291 -0.000982673 0 -0.00058429 -0.000517332 0 
-0.00045634 -0.000660721 0 -0.000464193 -0.000839596 0 -0.00034177 -0.000716972 0 
-0.000523385 -0.000727952 0 -0.000193444 -0.000925069 0 -0.000807637 -0.00084025 0 
-0.000810429 -0.000661252 0 -0.000386833 -0.000795991 0 -0.000394413 -0.000668913 0 
-0.000509958 -0.000787971 0 -0.000305514 -0.00111008 0 -0.000306477 -0.00038941 0 
-0.000362249 -0.00098716 0 -0.00035868 -0.000511074 0 -0.000160645 -0.000746982 0 
-0.000509508 -0.000511363 0 -0.000509508 -0.000988638 0 -0.00028739 -0.000637604 0 
-0.000785534 -0.00093326 0 -0.000785598 -0.000566741 0 -0.000703615 -0.00103564 0 
-0.000703615 -0.000464361 0 -0.000148903 -0.000636616 0 -0.00015636 -0.000534148 0 
-0.000153981 -0.000971334 0 -0.000139581 -0.000867053 0 -0.000482839 -0.000702846 0 
-0.000471292 -0.000605364 0 -0.000471292 -0.000894636 0 -0.000570965 -0.00071757 0 
-0.000554433 -0.000615103 0 -0.000553903 -0.000884892 0 -0.000639788 -0.00094438 0 
-0.000639768 -0.0005557 0 -0.000307401 -0.000872936 0 -0.000712765 -0.000988284 0 
-0.000712769 -0.000511716 0 -0.000628213 -0.000619733 0 -0.000630855 -0.000879083 0 
-0.000409259 -0.000828735 0 -0.000354002 -0.000772688 0 -0.000155373 -0.000471972 0 
-0.000153127 -0.00102904 0 -0.00043748 -0.00030453 0 -0.00043748 -0.00119547 0 
-0.000699167 -0.000159585 0 -0.00102828 0.000168837 0 -0.000700039 0.000165961 0 
-0.00102854 -0.000168697 0 -0.00118217 0.000207462 0 -0.00118217 -0.000207462 0 
-0.000867762 0.00020878 0 -0.00106649 5.10348e-06 0 -0.000667978 -6.49099e-06 0 
-0.000869828 -0.000208798 0 -0.0012302 0.000214286 0 -0.0012302 -0.000214286 0 
-0.000564951 0.000166193 0 -0.000553576 -0.000170987 0 -0.000873309 -0.00035148 0 
-0.000858691 0.00035148 0 -0.000756768 0.000285545 0 -0.000973519 -0.000286192 0 
-0.00117081 7.69979e-05 0 -0.00117457 -7.52569e-05 0 -0.000759361 -0.000294843 0 
-0.00097093 0.000296588 0 -0.000780939 -8.41794e-05 0 -0.000958969 8.1944e-05 0 
-0.000777799 9.78925e-05 0 -0.000961784 -8.5049e-05 0 -0.00124048 0.000247295 0 
-0.00124048 -0.000247295 0 -0.00109281 0.000247375 0 -0.00109296 -0.000246565 0 
-0.000547839 -5.24395e-05 0 -0.00056027 6.09258e-05 0 -0.00111765 0.000142326 0 
-0.00111765 -0.000142326 0 -0.000835255 -0.00041094 0 -0.000896745 0.00041094 0 
-0.00063679 -0.000246251 0 -0.000636522 0.000241816 0 -0.000843256 0.000133221 0 
-0.000847328 -0.000131409 0 -0.000997489 -2.16615e-05 0 -0.00073597 -1.62999e-05 0 
-0.00123983 0.000149154 0 -0.00123983 -0.000149154 0 -0.000631082 -9.03863e-05 0 
-0.000535305 -0.000235043 0 -0.000537201 0.000234244 0 -0.000642398 9.28059e-05 0 
-0.000948408 0.000181543 0 -0.000945323 -0.000178683 0 -0.00104049 7.88274e-05 0 
-0.000775389 -0.000168878 0 -0.000772841 0.000169495 0 -0.00103118 -7.38619e-05 0 
-0.000958093 -0.000358769 0 -0.000773907 0.000358769 0 -0.000900764 -0.000422113 0 
-0.000831236 0.000422113 0 -0.00126124 0.000187946 0 -0.00126124 -0.000187946 0 
-0.00122671 1.92365e-06 0 -0.000477041 -0.000188051 0 -0.000475997 0.000186364 0 
-0.000801656 -0.000355671 0 -0.000929777 0.000356891 0 -0.000837944 -0.000283426 0 
-0.000894056 0.000283426 0 -0.000707968 5.64575e-05 0 -0.000825421 0.000286843 0 
-0.000906579 -0.000286843 0 -0.000678551 0.000307262 0 -0.000706108 -7.91024e-05 0 
-0.0010509 -0.00030951 0 -0.000507389 0.000105752 0 -0.000502926 -0.00011688 0 
-0.00119101 0.000251333 0 -0.00119101 -0.000251333 0 -0.00110684 -7.12684e-05 0 
-0.00118042 0.000147824 0 -0.00118069 -0.000147697 0 -0.00127058 0.00024054 0 
-0.00126931 0.000218831 0 -0.00127058 -0.00024054 0 -0.00126931 -0.000218831 0 
-0.000674075 -0.0003084 0 -0.00112605 0.000200474 0 -0.00112608 -0.000200417 0 
-0.000837574 -0.000450764 0 -0.000894426 0.000450764 0 -0.00105507 0.000311072 0 
-0.001107 7.45278e-05 0 -0.00114494 4.78174e-06 0 -0.000511221 1.89656e-05 0 
-0.000703503 0.000232229 0 -0.000489329 0.000245397 0 -0.000489159 -0.000245894 0 
-0.000708796 -0.000230896 0 -0.000631208 0.000171119 0 -0.00101729 -0.000232673 0 
-0.000889299 8.92785e-05 0 -0.000897193 -8.95957e-05 0 -0.00077477 3.30279e-05 0 
-0.000956385 2.2115e-05 0 -0.00101833 0.000235849 0 -0.000626444 -0.000175069 0 
-0.00124075 9.03378e-05 0 -0.00124242 -8.91537e-05 0 -0.000819833 -4.59906e-05 0 
-0.000799772 0.000232832 0 -0.000827413 8.10868e-05 0 -0.000942958 -3.79434e-05 0 
-0.000738514 -0.000360083 0 -0.000795249 -0.00023716 0 -0.000593465 3.89675e-06 0 
-0.000942508 -0.000238638 0 -0.00072039 0.000112396 0 -0.00121854 0.000183264 0 
-0.00121858 -0.000183245 0 -0.00113595 0.000283517 0 -0.00113662 -0.000285639 0 
-0.000939898 0.000241237 0 -0.00058355 0.000113194 0 -0.000994597 0.00035529 0 
-0.000586981 -0.000221334 0 -0.000588267 0.00021912 0 -0.000572581 -0.000117053 0 
-0.00091583 4.71675e-05 0 -0.000904292 -0.000144636 0 -0.000904292 0.000144636 0 
-0.00100396 3.32657e-05 0 -0.00098918 0.000133204 0 -0.000986047 -0.000136339 0 
-0.00107279 -0.00019438 0 -0.000740401 -0.000122936 0 -0.00107275 0.000194842 0 
-0.0011456 0.000238032 0 -0.00114577 -0.000238283 0 -0.00106153 0.000130609 0 
-0.00106376 -0.000129013 0 -0.000842259 -7.8735e-05 0 -0.000787002 -2.26884e-05 0 
-0.000586448 0.000278672 0 -0.000586127 -0.000279044 0 -0.00087048 -0.00044547 0 
-0.00086152 0.00044547 0 -0.000266167 0.000590415 0 -0.000267039 0.000915961 0 
-0.000595277 0.000918837 0 -0.000595539 0.000581303 0 -0.000749174 0.000542538 0 
-0.000749174 0.000957462 0 -0.000434763 0.00095878 0 -0.000633495 0.000751754 0 
-0.000234978 0.000743509 0 -0.000436828 0.000541202 0 -0.0007972 0.000535714 0 
-0.0007972 0.000964286 0 -0.000131951 0.000916193 0 -0.000120576 0.000579013 0 
-0.000440309 0.00039852 0 -0.000425691 0.00110148 0 -0.000323768 0.00103554 0 
-0.000540519 0.000463808 0 -0.000737497 0.000673297 0 -0.000743731 0.00082659 0 
-0.000326361 0.000455157 0 -0.00053793 0.00104659 0 -0.000347939 0.000665821 0 
-0.000344799 0.000847893 0 -0.000525969 0.000831944 0 -0.000528784 0.000664951 0 
-0.00080748 0.000502705 0 -0.00080748 0.000997295 0 -0.00065996 0.000503435 0 
-0.000659807 0.000997375 0 -0.000114839 0.00069756 0 -0.00012727 0.000810926 0 
-0.000684653 0.000607674 0 -0.000684653 0.000892326 0 -0.000402255 0.00033906 0 
-0.000463745 0.00116094 0 -0.00020379 0.000503749 0 -0.000203522 0.000991815 0 
-0.000410256 0.000883221 0 -0.000414328 0.000618591 0 -0.000564489 0.00072778 0 
-0.00030297 0.0007337 0 -0.000806831 0.000600846 0 -0.000806831 0.000899154 0 
-0.000198082 0.000659614 0 -0.000104201 0.000984244 0 -0.000102305 0.000514957 0 
-0.000209398 0.000842806 0 -0.000515408 0.000931543 0 -0.000512323 0.000571317 0 
-0.000607487 0.000828624 0 -0.000342389 0.000581122 0 -0.000339841 0.000919495 0 
-0.000598177 0.000675487 0 -0.000525093 0.000391231 0 -0.000340907 0.00110877 0 
-0.000398236 0.00117211 0 -0.000467764 0.000327887 0 -0.00082824 0.000562054 0 
-0.00082824 0.000937946 0 -0.000792673 0.000748792 0 -4.40406e-05 0.000561949 0 
-4.29968e-05 0.000936364 0 -0.000368656 0.000394329 0 -0.000496777 0.00110689 0 
-0.000404944 0.000466574 0 -0.000461056 0.00103343 0 -0.000274968 0.000806458 0 
-0.000392421 0.00103684 0 -0.000473579 0.000463157 0 -0.000245551 0.00105726 0 
-0.000273108 0.000670898 0 -0.000617905 0.00044049 0 -7.4389e-05 0.000855752 0 
-6.99258e-05 0.00063312 0 -0.000758009 0.000498667 0 -0.000758009 0.00100133 0 
-0.000674521 0.00067679 0 -0.000747394 0.000602198 0 -0.000747848 0.000897794 0 
-0.000837578 0.00050946 0 -0.000836308 0.000531169 0 -0.000837578 0.00099054 0 
-0.000836308 0.000968831 0 -0.000241075 0.0004416 0 -0.000693065 0.000549578 0 
-0.000693072 0.000950473 0 -0.000404574 0.000299236 0 -0.000461426 0.00120076 0 
-0.000622066 0.00106107 0 -0.000672818 0.000820897 0 -0.000714008 0.000744097 0 
-7.82213e-05 0.000768966 0 -0.000270503 0.000982229 0 -5.6329e-05 0.000995397 0 
-5.61586e-05 0.000504106 0 -0.000275796 0.000519104 0 -0.000198208 0.000921119 0 
-0.000584291 0.000517327 0 -0.000456299 0.000839279 0 -0.000464193 0.000660404 0 
-0.00034177 0.000783028 0 -0.000523385 0.000772048 0 -0.000585334 0.000985849 0 
-0.000193444 0.000574931 0 -0.000807637 0.00065975 0 -0.000810429 0.000838748 0 
-0.000386833 0.000704009 0 -0.000366772 0.000982832 0 -0.000394413 0.000831087 0 
-0.000509958 0.000712029 0 -0.000305514 0.000389917 0 -0.000362249 0.00051284 0 
-0.000160465 0.000753897 0 -0.000509508 0.000511362 0 -0.00028739 0.000862396 0 
-0.000785534 0.00056674 0 -0.000785598 0.000933259 0 -0.000703615 0.000464361 0 
-0.000702954 0.00103352 0 -0.000506898 0.000991237 0 -0.00015055 0.000863194 0 
-0.000561597 0.00110529 0 -0.000153981 0.000528666 0 -0.000155267 0.00096912 0 
-0.000139581 0.000632947 0 -0.00048283 0.000797154 0 -0.000471292 0.000894636 0 
-0.000471292 0.000605364 0 -0.000570965 0.00078243 0 -0.00055618 0.00088318 0 
-0.000553903 0.000615108 0 -0.000639788 0.00055562 0 -0.000307401 0.000627064 0 
-0.00063975 0.000944842 0 -0.000712765 0.000511716 0 -0.000712603 0.000988032 0 
-0.000628389 0.00088015 0 -0.000630855 0.000620917 0 -0.000409259 0.000671265 0 
-0.000354002 0.000727312 0 -0.000153448 0.00102867 0 -0.000153127 0.000470956 0 
-0.00042852 0.00119547 0 -0.00043748 0.00030453 0 0.000166833 -0.000159585 -0.0005 
0.000165961 0.000165961 -0.0005 -0.000162277 0.000168837 -0.0005 -0.000162539 -0.000168697 -0.0005 
-0.000316174 -0.000207462 -0.0005 -0.000316174 0.000207462 -0.0005 -1.7625e-06 0.00020878 -0.0005 
-0.000200494 5.10348e-06 -0.0005 0.000198022 -6.49099e-06 -0.0005 -3.82827e-06 -0.000208798 -0.0005 
-0.0003642 0.000214286 -0.0005 -0.0003642 -0.000214286 -0.0005 0.000301049 0.000166193 -0.0005 
0.000312424 -0.000170987 -0.0005 -7.30908e-06 -0.00035148 -0.0005 7.30908e-06 0.00035148 -0.0005 
0.000109232 0.000285545 -0.0005 -0.000107519 -0.000286192 -0.0005 -0.000304808 7.69979e-05 -0.0005 
-0.000308572 -7.52569e-05 -0.0005 0.000106639 -0.000294843 -0.0005 -0.00010493 0.000296588 -0.0005 
8.50608e-05 -8.41794e-05 -0.0005 8.82006e-05 9.78925e-05 -0.0005 -9.29688e-05 8.1944e-05 -0.0005 
-9.5784e-05 -8.5049e-05 -0.0005 -0.00037448 0.000247295 -0.0005 -0.00037448 -0.000247295 -0.0005 
-0.000226807 0.000247375 -0.0005 -0.00022696 -0.000246565 -0.0005 0.000318161 -5.24395e-05 -0.0005 
0.00030573 6.09258e-05 -0.0005 -0.000251653 -0.000142326 -0.0005 -0.000251653 0.000142326 -0.0005 
3.07451e-05 -0.00041094 -0.0005 -3.07451e-05 0.00041094 -0.0005 0.00022921 -0.000246251 -0.0005 
0.000229478 0.000241816 -0.0005 2.27436e-05 0.000133221 -0.0005 1.86722e-05 -0.000131409 -0.0005 
-0.000131489 -2.16615e-05 -0.0005 0.00013003 -1.62999e-05 -0.0005 -0.00037383 0.000149154 -0.0005 
-0.00037383 -0.000149154 -0.0005 0.000234918 -9.03863e-05 -0.0005 0.000328799 0.000234244 -0.0005 
0.000330695 -0.000235043 -0.0005 0.000223602 9.28059e-05 -0.0005 -8.24081e-05 0.000181543 -0.0005 
-7.93229e-05 -0.000178683 -0.0005 -0.000174487 7.88274e-05 -0.0005 9.06107e-05 -0.000168878 -0.0005 
9.31592e-05 0.000169495 -0.0005 -0.000165177 -7.38619e-05 -0.0005 -9.20929e-05 -0.000358769 -0.0005 
9.20929e-05 0.000358769 -0.0005 3.47644e-05 0.000422113 -0.0005 -3.47644e-05 -0.000422113 -0.0005 
-0.00039524 0.000187946 -0.0005 -0.00039524 -0.000187946 -0.0005 -0.00036071 1.92365e-06 -0.0005 
0.000388959 -0.000188051 -0.0005 0.000390003 0.000186364 -0.0005 6.43444e-05 -0.000355671 -0.0005 
-6.37768e-05 0.000356891 -0.0005 2.80563e-05 -0.000283426 -0.0005 -2.80563e-05 0.000283426 -0.0005 
0.000158032 5.64575e-05 -0.0005 4.0579e-05 0.000286843 -0.0005 -4.0579e-05 -0.000286843 -0.0005 
0.000187449 0.000307262 -0.0005 0.000159892 -7.91024e-05 -0.0005 -0.000184905 -0.00030951 -0.0005 
0.000358611 0.000105752 -0.0005 0.000363074 -0.00011688 -0.0005 -0.000325009 0.000251333 -0.0005 
-0.000325009 -0.000251333 -0.0005 -0.000240838 -7.12684e-05 -0.0005 -0.000314691 -0.000147697 -0.0005 
-0.000314417 0.000147824 -0.0005 -0.000404578 0.00024054 -0.0005 -0.000403308 0.000218831 -0.0005 
-0.000404578 -0.00024054 -0.0005 -0.000403308 -0.000218831 -0.0005 0.000191925 -0.0003084 -0.0005 
-0.000260053 0.000200474 -0.0005 -0.000260078 -0.000200417 -0.0005 -2.84262e-05 0.000450764 -0.0005 
2.84262e-05 -0.000450764 -0.0005 -0.000189066 0.000311072 -0.0005 -0.000240999 7.45278e-05 -0.0005 
-0.000278935 4.78174e-06 -0.0005 0.000354779 1.89656e-05 -0.0005 0.000162497 0.000232229 -0.0005 
0.000376671 0.000245397 -0.0005 0.000376841 -0.000245894 -0.0005 0.000157204 -0.000230896 -0.0005 
0.000234792 0.000171119 -0.0005 -0.000151291 -0.000232673 -0.0005 -2.32986e-05 8.92785e-05 -0.0005 
-3.11926e-05 -8.95957e-05 -0.0005 -9.03847e-05 2.2115e-05 -0.0005 9.12302e-05 3.30279e-05 -0.0005 
-0.000152334 0.000235849 -0.0005 0.000239556 -0.000175069 -0.0005 -0.000374753 9.03378e-05 -0.0005 
-0.000376425 -8.91537e-05 -0.0005 4.61669e-05 -4.59906e-05 -0.0005 6.62281e-05 0.000232832 -0.0005 
3.85868e-05 8.10868e-05 -0.0005 -7.69579e-05 -3.79434e-05 -0.0005 0.000127486 -0.000360083 -0.0005 
7.07506e-05 -0.00023716 -0.0005 0.000272535 3.89675e-06 -0.0005 -7.65081e-05 -0.000238638 -0.0005 
0.00014561 0.000112396 -0.0005 -0.000352537 0.000183264 -0.0005 -0.000352576 -0.000183245 -0.0005 
-0.000270615 -0.000285639 -0.0005 -0.000269954 0.000283517 -0.0005 -7.38981e-05 0.000241237 -0.0005 
0.00028245 0.000113194 -0.0005 -0.000128597 0.00035529 -0.0005 0.000277733 0.00021912 -0.0005 
0.000279019 -0.000221334 -0.0005 0.000293419 -0.000117053 -0.0005 -4.98304e-05 4.71675e-05 -0.0005 
-3.82924e-05 0.000144636 -0.0005 -3.82924e-05 -0.000144636 -0.0005 -0.000137965 3.32657e-05 -0.0005 
-0.00012318 0.000133204 -0.0005 -0.000120047 -0.000136339 -0.0005 -0.000206789 -0.00019438 -0.0005 
0.000125599 -0.000122936 -0.0005 -0.000206748 0.000194842 -0.0005 -0.000279599 0.000238032 -0.0005 
-0.000279767 -0.000238283 -0.0005 -0.000195529 0.000130609 -0.0005 -0.000197761 -0.000129013 -0.0005 
2.37414e-05 -7.8735e-05 -0.0005 7.89976e-05 -2.26884e-05 -0.0005 0.000279552 0.000278672 -0.0005 
0.000279873 -0.000279044 -0.0005 4.48012e-06 0.00044547 -0.0005 -4.48012e-06 -0.00044547 -0.0005 
0.000598961 0.000584039 -0.0005 0.000602744 0.00091226 -0.0005 0.000270474 0.000918651 -0.0005 
0.000270149 0.000581615 -0.0005 0.000116826 0.000957462 -0.0005 0.000116826 0.000542538 -0.0005 
0.000429172 0.000958798 -0.0005 0.000232505 0.000755103 -0.0005 0.000636012 0.000747201 -0.0005 
0.000434763 0.00054122 -0.0005 6.87997e-05 0.000964286 -0.0005 6.87997e-05 0.000535714 -0.0005 
0.000745424 0.000920987 -0.0005 0.000734049 0.000583807 -0.0005 0.000425691 0.00039852 -0.0005 
0.000425691 0.00110148 -0.0005 0.000325481 0.00103619 -0.0005 0.00032556 0.000464273 -0.0005 
0.000128192 0.000826998 -0.0005 0.000124428 0.000674743 -0.0005 0.000539639 0.00104484 -0.0005 
0.000539618 0.000454793 -0.0005 0.000520463 0.000653783 -0.0005 0.000521988 0.00084822 -0.0005 
0.000340031 0.000831944 -0.0005 0.00034624 0.000661734 -0.0005 5.85195e-05 0.000997295 -0.0005 
5.85195e-05 0.000502705 -0.0005 0.00020604 0.000996565 -0.0005 0.00020604 0.000503435 -0.0005 
0.000751161 0.00080244 -0.0005 0.00073873 0.000689074 -0.0005 0.000181347 0.000607674 -0.0005 
0.000181347 0.000892326 -0.0005 0.000463745 0.00033906 -0.0005 0.000463745 0.00116094 -0.0005 
0.00066221 0.000996251 -0.0005 0.000655871 0.000515061 -0.0005 0.000455531 0.000883279 -0.0005 
0.0004137 0.000617913 -0.0005 0.000302544 0.000731006 -0.0005 0.000569409 0.000742828 -0.0005 
5.91695e-05 0.000899154 -0.0005 5.91695e-05 0.000600846 -0.0005 0.000666622 0.000847886 -0.0005 
0.000763695 0.000985043 -0.0005 0.000761799 0.000515756 -0.0005 0.000662952 0.000664982 -0.0005 
0.000353677 0.000928683 -0.0005 0.000512323 0.000571317 -0.0005 0.000258513 0.000828827 -0.0005 
0.000526529 0.000920143 -0.0005 0.000348994 0.000575642 -0.0005 0.000269055 0.00067649 -0.0005 
0.000340907 0.000391231 -0.0005 0.000340907 0.00110877 -0.0005 0.000398236 0.00117211 -0.0005 
0.000398236 0.000327887 -0.0005 3.77595e-05 0.000937946 -0.0005 3.77595e-05 0.000562054 -0.0005 
7.22902e-05 0.000751924 -0.0005 0.000821959 0.000938051 -0.0005 0.000823003 0.000563636 -0.0005 
0.000497344 0.00110567 -0.0005 0.000497341 0.000394268 -0.0005 0.000595975 0.000808208 -0.0005 
0.000461056 0.000466574 -0.0005 0.000461056 0.00103343 -0.0005 0.000392421 0.00103684 -0.0005 
0.000392458 0.000463164 -0.0005 0.000248106 0.000440556 -0.0005 0.000248095 0.00105951 -0.0005 
0.000791611 0.000644248 -0.0005 0.000796074 0.00086688 -0.0005 0.000107991 0.00100133 -0.0005 
0.000107991 0.000498667 -0.0005 0.000192237 0.000678753 -0.0005 0.000118309 0.000602303 -0.0005 
0.000118584 0.000897824 -0.0005 2.84222e-05 0.00099054 -0.0005 2.96921e-05 0.000968831 -0.0005 
2.84222e-05 0.00050946 -0.0005 2.96921e-05 0.000531169 -0.0005 0.000584827 0.000674445 -0.0005 
0.000624925 0.0010584 -0.0005 0.000620086 0.000439056 -0.0005 0.000172934 0.000950423 -0.0005 
0.000172922 0.000549583 -0.0005 0.000461426 0.00120076 -0.0005 0.000461426 0.000299236 -0.0005 
0.000192001 0.000824528 -0.0005 0.000154074 0.000754784 -0.0005 0.000787779 0.000731034 -0.0005 
0.000809841 0.000995894 -0.0005 0.000809671 0.000504603 -0.0005 0.000589469 0.00097835 -0.0005 
0.000571747 0.000512487 -0.0005 0.000673596 0.000588147 -0.0005 0.000281249 0.000518091 -0.0005 
0.00028171 0.000982668 -0.0005 0.000409676 0.000839285 -0.0005 0.000465934 0.000658411 -0.0005 
0.000524589 0.000782934 -0.0005 0.000342119 0.000777068 -0.0005 0.000672682 0.000926159 -0.0005 
5.82468e-05 0.000840338 -0.0005 5.65752e-05 0.000660846 -0.0005 0.000386493 0.000703192 -0.0005 
0.000361584 0.000514775 -0.0005 0.000471587 0.000831087 -0.0005 0.000510532 0.000709986 -0.0005 
0.000559513 0.000389323 -0.0005 0.000560486 0.00111008 -0.0005 0.000503751 0.00098716 -0.0005 
0.000707209 0.000747103 -0.0005 0.000356492 0.000988637 -0.0005 8.04633e-05 0.000933264 -0.0005 
8.04241e-05 0.000566755 -0.0005 0.000162386 0.000464369 -0.0005 0.000162385 0.00103564 -0.0005 
0.000578393 0.000862613 -0.0005 0.000503901 0.000509278 -0.0005 0.000714127 0.000640342 -0.0005 
0.000712044 0.000971552 -0.0005 0.000710619 0.000533186 -0.0005 0.000726252 0.00086828 -0.0005 
0.000383065 0.000798159 -0.0005 0.000471292 0.000605364 -0.0005 0.000394708 0.000894636 -0.0005 
0.000295143 0.00078479 -0.0005 0.000311567 0.000884914 -0.0005 0.000544105 0.000613927 -0.0005 
0.000226145 0.000555712 -0.0005 0.000226234 0.0009443 -0.0005 0.000307419 0.000615421 -0.0005 
0.000153235 0.000988284 -0.0005 0.000153233 0.000511718 -0.0005 0.000237647 0.000880726 -0.0005 
0.000238317 0.000620115 -0.0005 0.000410377 0.000668704 -0.0005 0.000352297 0.000726325 -0.0005 
0.000712874 0.00102905 -0.0005 0.000708438 0.00047242 -0.0005 0.00042852 0.00030453 -0.0005 
0.00042852 0.00119547 -0.0005 0.00103283 -0.000159585 -0.0005 0.00103196 0.000165961 -0.0005 
0.00070371 0.000168883 -0.0005 0.000703474 -0.000168651 -0.0005 0.000549826 0.000207462 -0.0005 
0.000549826 -0.000207462 -0.0005 0.000864237 0.00020878 -0.0005 0.000665505 -1.75358e-06 -0.0005 
0.00106402 -6.49099e-06 -0.0005 0.000862172 -0.000208798 -0.0005 0.0005018 0.000214286 -0.0005 
0.0005018 -0.000214286 -0.0005 0.00117842 -0.000170987 -0.0005 0.00116705 0.000166193 -0.0005 
0.000858691 -0.00035148 -0.0005 0.000873309 0.00035148 -0.0005 0.000975232 0.000285545 -0.0005 
0.000758481 -0.000286192 -0.0005 0.000561503 7.6703e-05 -0.0005 0.000555269 -7.65899e-05 -0.0005 
0.000972639 -0.000294843 -0.0005 0.00076107 0.000296588 -0.0005 0.000951061 -8.41794e-05 -0.0005 
0.000954201 9.78925e-05 -0.0005 0.000770216 8.5049e-05 -0.0005 0.000773031 -8.1944e-05 -0.0005 
0.00049152 0.000247295 -0.0005 0.00049152 -0.000247295 -0.0005 0.000639193 0.000247375 -0.0005 
0.00063904 -0.000246565 -0.0005 0.00118416 -5.24395e-05 -0.0005 0.00117173 6.09258e-05 -0.0005 
0.000614347 -0.000142326 -0.0005 0.000614347 0.000142326 -0.0005 0.000896745 -0.00041094 -0.0005 
0.000835255 0.00041094 -0.0005 0.00109521 -0.000246251 -0.0005 0.00109548 0.000241816 -0.0005 
0.000888744 0.000133221 -0.0005 0.000884672 -0.000131409 -0.0005 0.000734511 2.22198e-05 -0.0005 
0.00099603 -1.62999e-05 -0.0005 0.00049217 0.000149154 -0.0005 0.00049217 -0.000149154 -0.0005 
0.00110092 -9.03863e-05 -0.0005 0.0011967 -0.000235043 -0.0005 0.0011948 0.000234244 -0.0005 
0.0010896 9.28059e-05 -0.0005 0.000783591 0.000181545 -0.0005 0.000786677 -0.000178683 -0.0005 
0.000691513 -7.86239e-05 -0.0005 0.000956611 -0.000168878 -0.0005 0.000959159 0.000169495 -0.0005 
0.000700823 7.45132e-05 -0.0005 0.000773907 -0.000358769 -0.0005 0.000958093 0.000358769 -0.0005 
0.000900764 0.000422113 -0.0005 0.000831236 -0.000422113 -0.0005 0.00047076 0.000187946 -0.0005 
0.00047076 -0.000187946 -0.0005 0.000506327 1.20793e-06 -0.0005 0.00125496 -0.000188051 -0.0005 
0.001256 0.000186364 -0.0005 0.000930344 -0.000355671 -0.0005 0.000802223 0.000356891 -0.0005 
0.000894056 -0.000283426 -0.0005 0.000837944 0.000283426 -0.0005 0.00102403 5.64575e-05 -0.0005 
0.000906579 0.000286843 -0.0005 0.000825421 -0.000286843 -0.0005 0.00105345 0.000307262 -0.0005 
0.00102589 -7.91024e-05 -0.0005 0.000681095 -0.00030951 -0.0005 0.00122461 0.000105752 -0.0005 
0.00122907 -0.00011688 -0.0005 0.000540991 0.000251333 -0.0005 0.000540991 -0.000251333 -0.0005 
0.000624479 7.32103e-05 -0.0005 0.000551152 -0.000147794 -0.0005 0.000551606 0.000147802 -0.0005 
0.000461422 0.00024054 -0.0005 0.000462692 0.000218831 -0.0005 0.000461422 -0.00024054 -0.0005 
0.000462692 -0.000218831 -0.0005 0.00105793 -0.0003084 -0.0005 0.000605948 0.000200473 -0.0005 
0.000605915 -0.000200421 -0.0005 0.000894426 -0.000450764 -0.0005 0.000837574 0.000450764 -0.0005 
0.000676934 0.000311072 -0.0005 0.000626182 -7.08972e-05 -0.0005 0.000584992 5.90258e-06 -0.0005 
0.00122078 1.89656e-05 -0.0005 0.0010285 0.000232229 -0.0005 0.00124284 -0.000245894 -0.0005 
0.00124267 0.000245397 -0.0005 0.0010232 -0.000230896 -0.0005 0.00110079 0.000171119 -0.0005 
0.00071471 -0.000232668 -0.0005 0.000834965 9.05283e-05 -0.0005 0.000842673 -8.85226e-05 -0.0005 
0.00095723 3.30279e-05 -0.0005 0.000775615 -2.20485e-05 -0.0005 0.000713665 0.000235853 -0.0005 
0.00110556 -0.000175069 -0.0005 0.000491363 9.025e-05 -0.0005 0.000488571 -8.87482e-05 -0.0005 
0.000912167 -4.59906e-05 -0.0005 0.000932228 0.000232832 -0.0005 0.000904587 8.10868e-05 -0.0005 
0.000789049 3.8011e-05 -0.0005 0.000993486 -0.000360083 -0.0005 0.000936751 -0.00023716 -0.0005 
0.00113854 3.89675e-06 -0.0005 0.000789492 -0.000238637 -0.0005 0.00101161 0.000112396 -0.0005 
0.000513466 0.00018326 -0.0005 0.000513402 -0.000183259 -0.0005 0.000596046 0.000283517 -0.0005 
0.000595385 -0.000285639 -0.0005 0.000792102 0.000241238 -0.0005 0.00114845 0.000113194 -0.0005 
0.000737403 0.00035529 -0.0005 0.00114502 -0.000221334 -0.0005 0.00114373 0.00021912 -0.0005 
0.00115942 -0.000117053 -0.0005 0.000816164 -4.7003e-05 -0.0005 0.000827708 0.000144636 -0.0005 
0.000827708 -0.000144636 -0.0005 0.000728035 -3.243e-05 -0.0005 0.00074578 0.000136564 -0.0005 
0.000744567 -0.000134897 -0.0005 0.000659232 -0.0001943 -0.0005 0.000991599 -0.000122936 -0.0005 
0.00065923 0.000194923 -0.0005 0.000586401 0.000238032 -0.0005 0.000586231 -0.000238284 -0.0005 
0.000670788 -0.000130267 -0.0005 0.000668203 0.000129229 -0.0005 0.000889614 -8.00602e-05 -0.0005 
0.000944998 -2.26884e-05 -0.0005 0.00114587 -0.000279044 -0.0005 0.00114555 0.000278672 -0.0005 
0.00087048 0.00044547 -0.0005 0.00086152 -0.00044547 -0.0005 0.000598961 -0.000915961 -0.0005 
0.000603317 -0.000588209 -0.0005 0.000270723 -0.000581163 -0.0005 0.000270149 -0.000918385 -0.0005 
0.000116826 -0.000542538 -0.0005 0.000116826 -0.000957462 -0.0005 0.000431238 -0.00054122 -0.0005 
0.000232505 -0.000744897 -0.0005 0.000636012 -0.000752799 -0.0005 0.000434763 -0.00095878 -0.0005 
6.87997e-05 -0.000535714 -0.0005 6.87997e-05 -0.000964286 -0.0005 0.000745424 -0.000579013 -0.0005 
0.000734049 -0.000916193 -0.0005 0.000425691 -0.00110148 -0.0005 0.000440309 -0.00039852 -0.0005 
0.000542232 -0.000464455 -0.0005 0.00032556 -0.00103573 -0.0005 0.000128192 -0.000673002 -0.0005 
0.000124428 -0.000825257 -0.0005 0.000539618 -0.00104521 -0.0005 0.00032807 -0.000453412 -0.0005 
0.000520463 -0.000846217 -0.0005 0.000521988 -0.00065178 -0.0005 0.000340031 -0.000668056 -0.0005 
0.00034624 -0.000838266 -0.0005 5.85195e-05 -0.000502705 -0.0005 5.85195e-05 -0.000997295 -0.0005 
0.000206193 -0.000502625 -0.0005 0.00020604 -0.000996565 -0.0005 0.000751161 -0.00069756 -0.0005 
0.00073873 -0.000810926 -0.0005 0.000181347 -0.000892326 -0.0005 0.000181347 -0.000607674 -0.0005 
0.000463745 -0.00116094 -0.0005 0.000402255 -0.00033906 -0.0005 0.000662471 -0.000504287 -0.0005 
0.000655871 -0.000984939 -0.0005 0.000455875 -0.000616724 -0.0005 0.0004137 -0.000882087 -0.0005 
0.000302544 -0.000768994 -0.0005 0.000569409 -0.000757172 -0.0005 5.91695e-05 -0.000600846 -0.0005 
5.91695e-05 -0.000899154 -0.0005 0.000666622 -0.000652114 -0.0005 0.000763695 -0.000514957 -0.0005 
0.000761799 -0.000984244 -0.0005 0.000662952 -0.000835018 -0.0005 0.000350592 -0.000568457 -0.0005 
0.000512323 -0.000928683 -0.0005 0.000258513 -0.000671173 -0.0005 0.000526882 -0.000581015 -0.0005 
0.000348994 -0.000924358 -0.0005 0.000269055 -0.00082351 -0.0005 0.000340907 -0.00110877 -0.0005 
0.000525093 -0.000391231 -0.0005 0.000398236 -0.00117211 -0.0005 0.000467764 -0.000327887 -0.0005 
3.77595e-05 -0.000562054 -0.0005 3.77595e-05 -0.000937946 -0.0005 7.22902e-05 -0.000748076 -0.0005 
0.000821959 -0.000561949 -0.0005 0.000823003 -0.000936364 -0.0005 0.000497341 -0.00110573 -0.0005 
0.000369223 -0.000393109 -0.0005 0.000595975 -0.000691792 -0.0005 0.000461056 -0.00103343 -0.0005 
0.000404944 -0.000466574 -0.0005 0.000473579 -0.000463157 -0.0005 0.000392458 -0.00103684 -0.0005 
0.000620449 -0.000442181 -0.0005 0.000248106 -0.00105944 -0.0005 0.000791611 -0.000855752 -0.0005 
0.000796074 -0.00063312 -0.0005 0.000107991 -0.000498667 -0.0005 0.000107991 -0.00100133 -0.0005 
0.000192237 -0.000821247 -0.0005 0.000118309 -0.000897697 -0.0005 0.000118584 -0.000602176 -0.0005 
2.84222e-05 -0.00050946 -0.0005 2.96921e-05 -0.000531169 -0.0005 2.84222e-05 -0.00099054 -0.0005 
2.96921e-05 -0.000968831 -0.0005 0.000584827 -0.000825555 -0.0005 0.000620086 -0.00106094 -0.0005 
0.000172947 -0.000549526 -0.0005 0.000172922 -0.000950417 -0.0005 0.000461426 -0.00120076 -0.0005 
0.000404574 -0.000299236 -0.0005 0.000243934 -0.000438928 -0.0005 0.000192001 -0.000675472 -0.0005 
0.000154074 -0.000745216 -0.0005 0.000787779 -0.000768966 -0.0005 0.000588723 -0.000523989 -0.0005 
0.000809841 -0.000504106 -0.0005 0.000809671 -0.000995397 -0.0005 0.000571747 -0.000987513 -0.0005 
0.000673596 -0.000911853 -0.0005 0.000281249 -0.000981909 -0.0005 0.000409717 -0.000660715 -0.0005 
0.000465934 -0.000841589 -0.0005 0.000524589 -0.000717066 -0.0005 0.000342119 -0.000722933 -0.0005 
0.000280666 -0.000514151 -0.0005 0.000672694 -0.000574319 -0.0005 5.82468e-05 -0.000659662 -0.0005 
5.65752e-05 -0.000839154 -0.0005 0.000386493 -0.000796808 -0.0005 0.000361584 -0.000985225 -0.0005 
0.000499228 -0.000517168 -0.0005 0.000471587 -0.000668913 -0.0005 0.000510532 -0.000790014 -0.0005 
0.000559513 -0.00111068 -0.0005 0.000707209 -0.000752897 -0.0005 8.04633e-05 -0.000566736 -0.0005 
8.04241e-05 -0.000933245 -0.0005 0.000163046 -0.000466483 -0.0005 0.000162386 -0.00103563 -0.0005 
0.000578393 -0.000637387 -0.0005 0.000503901 -0.000990722 -0.0005 0.000359102 -0.000508763 -0.0005 
0.000714127 -0.000859658 -0.0005 0.000304403 -0.00039471 -0.0005 0.000712099 -0.000528651 -0.0005 
0.000710619 -0.000966814 -0.0005 0.000726254 -0.000631789 -0.0005 0.000383073 -0.000701841 -0.0005 
0.000471292 -0.000894636 -0.0005 0.000394708 -0.000605364 -0.0005 0.000295143 -0.00071521 -0.0005 
0.000544105 -0.000886073 -0.0005 0.00030982 -0.000616796 -0.0005 0.000226145 -0.000944288 -0.0005 
0.000307419 -0.000884579 -0.0005 0.000226252 -0.000555158 -0.0005 0.000153401 -0.000511968 -0.0005 
0.000153233 -0.000988282 -0.0005 0.000237471 -0.000619391 -0.0005 0.000238317 -0.000879885 -0.0005 
0.000410377 -0.000831296 -0.0005 0.000352297 -0.000773675 -0.0005 0.00071621 -0.000470678 -0.0005 
0.000708438 -0.00102758 -0.0005 0.00043748 -0.00030453 -0.0005 0.00042852 -0.00119547 -0.0005 
-0.000266167 -0.000909585 -0.0005 -0.00026339 -0.000582669 -0.0005 -0.000595526 -0.000581349 -0.0005 
-0.000595539 -0.000918697 -0.0005 -0.000749174 -0.000957462 -0.0005 -0.000749174 -0.000542538 -0.0005 
-0.000436828 -0.000541202 -0.0005 -0.000633495 -0.000748246 -0.0005 -0.000234978 -0.000756491 -0.0005 
-0.000436828 -0.000958798 -0.0005 -0.0007972 -0.000964286 -0.0005 -0.0007972 -0.000535714 -0.0005 
-0.000131951 -0.000583807 -0.0005 -0.000120576 -0.000920987 -0.0005 -0.000440309 -0.00110148 -0.0005 
-0.000440309 -0.00039852 -0.0005 -0.000540519 -0.000463808 -0.0005 -0.000540519 -0.00103619 -0.0005 
-0.000737497 -0.000826703 -0.0005 -0.000743731 -0.00067341 -0.0005 -0.000326361 -0.000455157 -0.0005 
-0.000326361 -0.00104484 -0.0005 -0.000347939 -0.000834179 -0.0005 -0.000344799 -0.000652107 -0.0005 
-0.000525969 -0.000668056 -0.0005 -0.000528784 -0.000835049 -0.0005 -0.00080748 -0.000997295 -0.0005 
-0.00080748 -0.000502705 -0.0005 -0.00065996 -0.000996565 -0.0005 -0.00065996 -0.000503435 -0.0005 
-0.000114839 -0.00080244 -0.0005 -0.00012727 -0.000689074 -0.0005 -0.000684653 -0.000892326 -0.0005 
-0.000684653 -0.000607674 -0.0005 -0.000402255 -0.00033906 -0.0005 -0.000402255 -0.00116094 -0.0005 
-0.00020379 -0.000996251 -0.0005 -0.000209694 -0.000514898 -0.0005 -0.000410601 -0.000616776 -0.0005 
-0.000414328 -0.000881409 -0.0005 -0.000564489 -0.00077222 -0.0005 -0.00030297 -0.0007663 -0.0005 
-0.000806831 -0.000899154 -0.0005 -0.000806831 -0.000600846 -0.0005 -0.000198082 -0.000840386 -0.0005 
-0.000104201 -0.000515756 -0.0005 -0.000102305 -0.000985043 -0.0005 -0.000210482 -0.000662469 -0.0005 
-0.000512323 -0.000571317 -0.0005 -0.000512323 -0.000928683 -0.0005 -0.000607487 -0.000671376 -0.0005 
-0.000342389 -0.000918878 -0.0005 -0.000339591 -0.000579218 -0.0005 -0.000598177 -0.000824513 -0.0005 
-0.000525093 -0.00110877 -0.0005 -0.000525093 -0.000391231 -0.0005 -0.000467764 -0.00117211 -0.0005 
-0.000467764 -0.000327887 -0.0005 -0.00082824 -0.000937946 -0.0005 -0.00082824 -0.000562054 -0.0005 
-0.000792673 -0.000751208 -0.0005 -4.40406e-05 -0.000938051 -0.0005 -4.29968e-05 -0.000563636 -0.0005 
-0.000368656 -0.000394329 -0.0005 -0.000368656 -0.00110567 -0.0005 -0.000404944 -0.000466574 -0.0005 
-0.000404944 -0.00103343 -0.0005 -0.000274968 -0.000693542 -0.0005 -0.000473579 -0.000463157 -0.0005 
-0.000473579 -0.00103684 -0.0005 -0.000273108 -0.000829102 -0.0005 -0.000617905 -0.00105951 -0.0005 
-0.000617905 -0.00044049 -0.0005 -7.4389e-05 -0.000644248 -0.0005 -6.99258e-05 -0.00086688 -0.0005 
-0.000758009 -0.00100133 -0.0005 -0.000758009 -0.000498667 -0.0005 -0.000674521 -0.00082321 -0.0005 
-0.000747394 -0.000897802 -0.0005 -0.000747848 -0.000602206 -0.0005 -0.000837578 -0.00099054 -0.0005 
-0.000836308 -0.000968831 -0.0005 -0.000837578 -0.00050946 -0.0005 -0.000836308 -0.000531169 -0.0005 
-0.00024589 -0.000439066 -0.0005 -0.000241075 -0.0010584 -0.0005 -0.000693065 -0.000950422 -0.0005 
-0.000693085 -0.000549579 -0.0005 -0.000404574 -0.00120076 -0.0005 -0.000404574 -0.000299236 -0.0005 
-0.000672818 -0.000679103 -0.0005 -0.000714008 -0.000755903 -0.0005 -7.82213e-05 -0.000731034 -0.0005 
-5.6329e-05 -0.000504603 -0.0005 -5.61586e-05 -0.000995894 -0.0005 -0.000275796 -0.000980896 -0.0005 
-0.000285676 -0.000513219 -0.0005 -0.000186165 -0.000585602 -0.0005 -0.000584291 -0.000982673 -0.0005 
-0.00058429 -0.000517332 -0.0005 -0.00045634 -0.000660721 -0.0005 -0.000464193 -0.000839596 -0.0005 
-0.00034177 -0.000716972 -0.0005 -0.000523385 -0.000727952 -0.0005 -0.000193444 -0.000925069 -0.0005 
-0.000807637 -0.00084025 -0.0005 -0.000810429 -0.000661252 -0.0005 -0.000386833 -0.000795991 -0.0005 
-0.000394413 -0.000668913 -0.0005 -0.000509958 -0.000787971 -0.0005 -0.000305514 -0.00111008 -0.0005 
-0.000306477 -0.00038941 -0.0005 -0.000362249 -0.00098716 -0.0005 -0.00035868 -0.000511074 -0.0005 
-0.000160645 -0.000746982 -0.0005 -0.000509508 -0.000511363 -0.0005 -0.000509508 -0.000988638 -0.0005 
-0.00028739 -0.000637604 -0.0005 -0.000785534 -0.00093326 -0.0005 -0.000785598 -0.000566741 -0.0005 
-0.000703615 -0.00103564 -0.0005 -0.000703615 -0.000464361 -0.0005 -0.000148903 -0.000636616 -0.0005 
-0.00015636 -0.000534148 -0.0005 -0.000153981 -0.000971334 -0.0005 -0.000139581 -0.000867053 -0.0005 
-0.000482839 -0.000702846 -0.0005 -0.000471292 -0.000605364 -0.0005 -0.000471292 -0.000894636 -0.0005 
-0.000570965 -0.00071757 -0.0005 -0.000554433 -0.000615103 -0.0005 -0.000553903 -0.000884892 -0.0005 
-0.000639788 -0.00094438 -0.0005 -0.000639768 -0.0005557 -0.0005 -0.000307401 -0.000872936 -0.0005 
-0.000712765 -0.000988284 -0.0005 -0.000712769 -0.000511716 -0.0005 -0.000628213 -0.000619733 -0.0005 
-0.000630855 -0.000879083 -0.0005 -0.000409259 -0.000828735 -0.0005 -0.000354002 -0.000772688 -0.0005 
-0.000155373 -0.000471972 -0.0005 -0.000153127 -0.00102904 -0.0005 -0.00043748 -0.00030453 -0.0005 
-0.00043748 -0.00119547 -0.0005 -0.000699167 -0.000159585 -0.0005 -0.00102828 0.000168837 -0.0005 
-0.000700039 0.000165961 -0.0005 -0.00102854 -0.000168697 -0.0005 -0.00118217 0.000207462 -0.0005 
-0.00118217 -0.000207462 -0.0005 -0.000867762 0.00020878 -0.0005 -0.00106649 5.10348e-06 -0.0005 
-0.000667978 -6.49099e-06 -0.0005 -0.000869828 -0.000208798 -0.0005 -0.0012302 0.000214286 -0.0005 
-0.0012302 -0.000214286 -0.0005 -0.000564951 0.000166193 -0.0005 -0.000553576 -0.000170987 -0.0005 
-0.000873309 -0.00035148 -0.0005 -0.000858691 0.00035148 -0.0005 -0.000756768 0.000285545 -0.0005 
-0.000973519 -0.000286192 -0.0005 -0.00117081 7.69979e-05 -0.0005 -0.00117457 -7.52569e-05 -0.0005 
-0.000759361 -0.000294843 -0.0005 -0.00097093 0.000296588 -0.0005 -0.000780939 -8.41794e-05 -0.0005 
-0.000958969 8.1944e-05 -0.0005 -0.000777799 9.78925e-05 -0.0005 -0.000961784 -8.5049e-05 -0.0005 
-0.00124048 0.000247295 -0.0005 -0.00124048 -0.000247295 -0.0005 -0.00109281 0.000247375 -0.0005 
-0.00109296 -0.000246565 -0.0005 -0.000547839 -5.24395e-05 -0.0005 -0.00056027 6.09258e-05 -0.0005 
-0.00111765 0.000142326 -0.0005 -0.00111765 -0.000142326 -0.0005 -0.000835255 -0.00041094 -0.0005 
-0.000896745 0.00041094 -0.0005 -0.00063679 -0.000246251 -0.0005 -0.000636522 0.000241816 -0.0005 
-0.000843256 0.000133221 -0.0005 -0.000847328 -0.000131409 -0.0005 -0.000997489 -2.16615e-05 -0.0005 
-0.00073597 -1.62999e-05 -0.0005 -0.00123983 0.000149154 -0.0005 -0.00123983 -0.000149154 -0.0005 
-0.000631082 -9.03863e-05 -0.0005 -0.000535305 -0.000235043 -0.0005 -0.000537201 0.000234244 -0.0005 
-0.000642398 9.28059e-05 -0.0005 -0.000948408 0.000181543 -0.0005 -0.000945323 -0.000178683 -0.0005 
-0.00104049 7.88274e-05 -0.0005 -0.000775389 -0.000168878 -0.0005 -0.000772841 0.000169495 -0.0005 
-0.00103118 -7.38619e-05 -0.0005 -0.000958093 -0.000358769 -0.0005 -0.000773907 0.000358769 -0.0005 
-0.000900764 -0.000422113 -0.0005 -0.000831236 0.000422113 -0.0005 -0.00126124 0.000187946 -0.0005 
-0.00126124 -0.000187946 -0.0005 -0.00122671 1.92365e-06 -0.0005 -0.000477041 -0.000188051 -0.0005 
-0.000475997 0.000186364 -0.0005 -0.000801656 -0.000355671 -0.0005 -0.000929777 0.000356891 -0.0005 
-0.000837944 -0.000283426 -0.0005 -0.000894056 0.000283426 -0.0005 -0.000707968 5.64575e-05 -0.0005 
-0.000825421 0.000286843 -0.0005 -0.000906579 -0.000286843 -0.0005 -0.000678551 0.000307262 -0.0005 
-0.000706108 -7.91024e-05 -0.0005 -0.0010509 -0.00030951 -0.0005 -0.000507389 0.000105752 -0.0005 
-0.000502926 -0.00011688 -0.0005 -0.00119101 0.000251333 -0.0005 -0.00119101 -0.000251333 -0.0005 
-0.00110684 -7.12684e-05 -0.0005 -0.00118042 0.000147824 -0.0005 -0.00118069 -0.000147697 -0.0005 
-0.00127058 0.00024054 -0.0005 -0.00126931 0.000218831 -0.0005 -0.00127058 -0.00024054 -0.0005 
-0.00126931 -0.000218831 -0.0005 -0.000674075 -0.0003084 -0.0005 -0.00112605 0.000200474 -0.0005 
-0.00112608 -0.000200417 -0.0005 -0.000837574 -0.000450764 -0.0005 -0.000894426 0.000450764 -0.0005 
-0.00105507 0.000311072 -0.0005 -0.001107 7.45278e-05 -0.0005 -0.00114494 4.78174e-06 -0.0005 
-0.000511221 1.89656e-05 -0.0005 -0.000703503 0.000232229 -0.0005 -0.000489329 0.000245397 -0.0005 
-0.000489159 -0.000245894 -0.0005 -0.000708796 -0.000230896 -0.0005 -0.000631208 0.000171119 -0.0005 
-0.00101729 -0.000232673 -0.0005 -0.000889299 8.92785e-05 -0.0005 -0.000897193 -8.95957e-05 -0.0005 
-0.00077477 3.30279e-05 -0.0005 -0.000956385 2.2115e-05 -0.0005 -0.00101833 0.000235849 -0.0005 
-0.000626444 -0.000175069 -0.0005 -0.00124075 9.03378e-05 -0.0005 -0.00124242 -8.91537e-05 -0.0005 
-0.000819833 -4.59906e-05 -0.0005 -0.000799772 0.000232832 -0.0005 -0.000827413 8.10868e-05 -0.0005 
-0.000942958 -3.79434e-05 -0.0005 -0.000738514 -0.000360083 -0.0005 -0.000795249 -0.00023716 -0.0005 
-0.000593465 3.89675e-06 -0.0005 -0.000942508 -0.000238638 -0.0005 -0.00072039 0.000112396 -0.0005 
-0.00121854 0.000183264 -0.0005 -0.00121858 -0.000183245 -0.0005 -0.00113595 0.000283517 -0.0005 
-0.00113662 -0.000285639 -0.0005 -0.000939898 0.000241237 -0.0005 -0.00058355 0.000113194 -0.0005 
-0.000994597 0.00035529 -0.0005 -0.000586981 -0.000221334 -0.0005 -0.000588267 0.00021912 -0.0005 
-0.000572581 -0.000117053 -0.0005 -0.00091583 4.71675e-05 -0.0005 -0.000904292 -0.000144636 -0.0005 
-0.000904292 0.000144636 -0.0005 -0.00100396 3.32657e-05 -0.0005 -0.00098918 0.000133204 -0.0005 
-0.000986047 -0.000136339 -0.0005 -0.00107279 -0.00019438 -0.0005 -0.000740401 -0.000122936 -0.0005 
-0.00107275 0.000194842 -0.0005 -0.0011456 0.000238032 -0.0005 -0.00114577 -0.000238283 -0.0005 
-0.00106153 0.000130609 -0.0005 -0.00106376 -0.000129013 -0.0005 -0.000842259 -7.8735e-05 -0.0005 
-0.000787002 -2.26884e-05 -0.0005 -0.000586448 0.000278672 -0.0005 -0.000586127 -0.000279044 -0.0005 
-0.00087048 -0.00044547 -0.0005 -0.00086152 0.00044547 -0.0005 -0.000266167 0.000590415 -0.0005 
-0.000267039 0.000915961 -0.0005 -0.000595277 0.000918837 -0.0005 -0.000595539 0.000581303 -0.0005 
-0.000749174 0.000542538 -0.0005 -0.000749174 0.000957462 -0.0005 -0.000434763 0.00095878 -0.0005 
-0.000633495 0.000751754 -0.0005 -0.000234978 0.000743509 -0.0005 -0.000436828 0.000541202 -0.0005 
-0.0007972 0.000535714 -0.0005 -0.0007972 0.000964286 -0.0005 -0.000131951 0.000916193 -0.0005 
-0.000120576 0.000579013 -0.0005 -0.000440309 0.00039852 -0.0005 -0.000425691 0.00110148 -0.0005 
-0.000323768 0.00103554 -0.0005 -0.000540519 0.000463808 -0.0005 -0.000737497 0.000673297 -0.0005 
-0.000743731 0.00082659 -0.0005 -0.000326361 0.000455157 -0.0005 -0.00053793 0.00104659 -0.0005 
-0.000347939 0.000665821 -0.0005 -0.000344799 0.000847893 -0.0005 -0.000525969 0.000831944 -0.0005 
-0.000528784 0.000664951 -0.0005 -0.00080748 0.000502705 -0.0005 -0.00080748 0.000997295 -0.0005 
-0.00065996 0.000503435 -0.0005 -0.000659807 0.000997375 -0.0005 -0.000114839 0.00069756 -0.0005 
-0.00012727 0.000810926 -0.0005 -0.000684653 0.000607674 -0.0005 -0.000684653 0.000892326 -0.0005 
-0.000402255 0.00033906 -0.0005 -0.000463745 0.00116094 -0.0005 -0.00020379 0.000503749 -0.0005 
-0.000203522 0.000991815 -0.0005 -0.000410256 0.000883221 -0.0005 -0.000414328 0.000618591 -0.0005 
-0.000564489 0.00072778 -0.0005 -0.00030297 0.0007337 -0.0005 -0.000806831 0.000600846 -0.0005 
-0.000806831 0.000899154 -0.0005 -0.000198082 0.000659614 -0.0005 -0.000104201 0.000984244 -0.0005 
-0.000102305 0.000514957 -0.0005 -0.000209398 0.000842806 -0.0005 -0.000515408 0.000931543 -0.0005 
-0.000512323 0.000571317 -0.0005 -0.000607487 0.000828624 -0.0005 -0.000342389 0.000581122 -0.0005 
-0.000339841 0.000919495 -0.0005 -0.000598177 0.000675487 -0.0005 -0.000525093 0.000391231 -0.0005 
-0.000340907 0.00110877 -0.0005 -0.000398236 0.00117211 -0.0005 -0.000467764 0.000327887 -0.0005 
-0.00082824 0.000562054 -0.0005 -0.00082824 0.000937946 -0.0005 -0.000792673 0.000748792 -0.0005 
-4.40406e-05 0.000561949 -0.0005 -4.29968e-05 0.000936364 -0.0005 -0.000368656 0.000394329 -0.0005 
-0.000496777 0.00110689 -0.0005 -0.000404944 0.000466574 -0.0005 -0.000461056 0.00103343 -0.0005 
-0.000274968 0.000806458 -0.0005 -0.000392421 0.00103684 -0.0005 -0.000473579 0.000463157 -0.0005 
-0.000245551 0.00105726 -0.0005 -0.000273108 0.000670898 -0.0005 -0.000617905 0.00044049 -0.0005 
-7.4389e-05 0.000855752 -0.0005 -6.99258e-05 0.00063312 -0.0005 -0.000758009 0.000498667 -0.0005 
-0.000758009 0.00100133 -0.0005 -0.000674521 0.00067679 -0.0005 -0.000747394 0.000602198 -0.0005 
-0.000747848 0.000897794 -0.0005 -0.000837578 0.00050946 -0.0005 -0.000836308 0.000531169 -0.0005 
-0.000837578 0.00099054 -0.0005 -0.000836308 0.000968831 -0.0005 -0.000241075 0.0004416 -0.0005 
-0.000693065 0.000549578 -0.0005 -0.000693072 0.000950473 -0.0005 -0.000404574 0.000299236 -0.0005 
-0.000461426 0.00120076 -0.0005 -0.000622066 0.00106107 -0.0005 -0.000672818 0.000820897 -0.0005 
-0.000714008 0.000744097 -0.0005 -7.82213e-05 0.000768966 -0.0005 -0.000270503 0.000982229 -0.0005 
-5.6329e-05 0.000995397 -0.0005 -5.61586e-05 0.000504106 -0.0005 -0.000275796 0.000519104 -0.0005 
-0.000198208 0.000921119 -0.0005 -0.000584291 0.000517327 -0.0005 -0.000456299 0.000839279 -0.0005 
-0.000464193 0.000660404 -0.0005 -0.00034177 0.000783028 -0.0005 -0.000523385 0.000772048 -0.0005 
-0.000585334 0.000985849 -0.0005 -0.000193444 0.000574931 -0.0005 -0.000807637 0.00065975 -0.0005 
-0.000810429 0.000838748 -0.0005 -0.000386833 0.000704009 -0.0005 -0.000366772 0.000982832 -0.0005 
-0.000394413 0.000831087 -0.0005 -0.000509958 0.000712029 -0.0005 -0.000305514 0.000389917 -0.0005 
-0.000362249 0.00051284 -0.0005 -0.000160465 0.000753897 -0.0005 -0.000509508 0.000511362 -0.0005 
-0.00028739 0.000862396 -0.0005 -0.000785534 0.00056674 -0.0005 -0.000785598 0.000933259 -0.0005 
-0.000703615 0.000464361 -0.0005 -0.000702954 0.00103352 -0.0005 -0.000506898 0.000991237 -0.0005 
-0.00015055 0.000863194 -0.0005 -0.000561597 0.00110529 -0.0005 -0.000153981 0.000528666 -0.0005 
-0.000155267 0.00096912 -0.0005 -0.000139581 0.000632947 -0.0005 -0.00048283 0.000797154 -0.0005 
-0.000471292 0.000894636 -0.0005 -0.000471292 0.000605364 -0.0005 -0.000570965 0.00078243 -0.0005 
-0.00055618 0.00088318 -0.0005 -0.000553903 0.000615108 -0.0005 -0.000639788 0.00055562 -0.0005 
-0.000307401 0.000627064 -0.0005 -0.00063975 0.000944842 -0.0005 -0.000712765 0.000511716 -0.0005 
-0.000712603 0.000988032 -0.0005 -0.000628389 0.00088015 -0.0005 -0.000630855 0.000620917 -0.0005 
-0.000409259 0.000671265 -0.0005 -0.000354002 0.000727312 -0.0005 -0.000153448 0.00102867 -0.0005 
-0.000153127 0.000470956 -0.0005 -0.00042852 0.00119547 -0.0005 -0.00043748 0.00030453 -0.0005 

CELLS 2380 16660
6 649 608 664 1664 1623 1679 
6 570 610 625 1585 1625 1640 
6 571 611 624 1586 1626 1639 
6 603 587 669 1618 1602 1684 
6 564 603 669 1579 1618 1684 
6 610 570 613 1625 1585 1628 
6 611 571 612 1626 1586 1627 
6 600 564 669 1615 1579 1684 
6 586 187 630 1601 384 1645 
6 579 594 608 1594 1609 1623 
6 595 578 607 1610 1593 1622 
6 596 581 609 1611 1596 1624 
6 183 590 619 380 1605 1634 
6 166 591 620 363 1606 1635 
6 572 649 664 1587 1664 1679 
6 572 611 626 1587 1626 1641 
6 590 570 619 1605 1585 1634 
6 591 571 620 1606 1586 1635 
6 633 575 647 1648 1590 1662 
6 594 562 608 1609 1577 1623 
6 565 595 607 1580 1610 1622 
6 563 596 609 1578 1611 1624 
6 557 608 649 1572 1623 1664 
6 564 600 627 1579 1615 1642 
6 557 649 653 1572 1664 1668 
6 654 605 670 1669 1620 1685 
6 586 600 669 1601 1615 1684 
6 594 579 665 1609 1594 1680 
6 587 629 648 1602 1644 1663 
6 581 596 666 1596 1611 1681 
6 570 590 613 1585 1605 1628 
6 571 591 612 1586 1606 1627 
6 189 618 650 386 1633 1665 
6 617 184 651 1632 381 1666 
6 597 564 627 1612 1579 1642 
6 649 593 653 1664 1608 1668 
6 568 601 618 1583 1616 1633 
6 602 569 617 1617 1584 1632 
6 629 186 648 1644 383 1663 
6 559 605 654 1574 1620 1669 
6 600 556 627 1615 1571 1642 
6 187 586 648 384 1601 1663 
6 607 556 652 1622 1571 1667 
6 607 652 668 1622 1667 1683 
6 573 610 628 1588 1625 1643 
6 627 556 689 1642 1571 1704 
6 14 194 665 95 391 1680 
6 195 196 666 392 393 1681 
6 183 619 667 380 1634 1682 
6 196 656 666 393 1671 1681 
6 658 14 665 1673 95 1680 
6 561 566 631 1576 1581 1646 
6 567 560 632 1582 1575 1647 
6 575 616 647 1590 1631 1662 
6 566 561 672 1581 1576 1687 
6 560 567 673 1575 1582 1688 
6 573 654 670 1588 1669 1685 
6 12 185 618 93 382 1633 
6 188 11 617 385 92 1632 
6 635 561 641 1650 1576 1656 
6 560 634 642 1575 1649 1657 
6 578 597 627 1593 1612 1642 
6 8 175 613 89 372 1628 
6 1 190 612 82 387 1627 
6 604 558 659 1619 1573 1674 
6 578 595 695 1593 1610 1710 
6 597 578 696 1612 1593 1711 
6 610 573 625 1625 1588 1640 
6 611 572 624 1626 1587 1639 
6 168 3 636 365 84 1651 
6 6 173 638 87 370 1653 
6 611 191 626 1626 388 1641 
6 575 588 634 1590 1603 1649 
6 589 574 635 1604 1589 1650 
6 593 626 697 1608 1641 1712 
6 166 620 678 363 1635 1693 
6 564 597 623 1579 1612 1638 
6 603 564 623 1618 1579 1638 
6 568 618 629 1583 1633 1644 
6 11 184 617 92 381 1632 
6 189 12 618 386 93 1633 
6 579 608 671 1594 1623 1686 
6 556 600 660 1571 1615 1675 
6 588 575 633 1603 1590 1648 
6 8 613 700 89 1628 1715 
6 1 612 699 82 1627 1714 
6 617 569 630 1632 1584 1645 
6 619 570 621 1634 1585 1636 
6 620 571 622 1635 1586 1637 
6 574 616 661 1589 1631 1676 
6 616 575 662 1631 1590 1677 
6 580 606 686 1595 1621 1701 
6 563 633 647 1578 1648 1662 
6 598 635 661 1613 1650 1676 
6 634 599 662 1649 1614 1677 
6 574 589 646 1589 1604 1661 
6 604 659 676 1619 1674 1691 
6 635 574 661 1650 1589 1676 
6 575 634 662 1590 1649 1677 
6 600 586 681 1615 1601 1696 
6 585 628 674 1600 1643 1689 
6 557 603 671 1572 1618 1686 
6 626 192 697 1641 389 1712 
6 610 176 628 1625 373 1643 
6 563 609 633 1578 1624 1648 
6 569 660 681 1584 1675 1696 
6 587 603 677 1602 1618 1692 
6 608 557 671 1623 1572 1686 
6 603 557 653 1618 1572 1668 
6 622 571 624 1637 1586 1639 
6 621 570 625 1636 1585 1640 
6 606 580 685 1621 1595 1700 
6 640 592 698 1655 1607 1713 
6 558 604 686 1573 1619 1701 
6 605 559 687 1620 1574 1702 
6 660 600 681 1675 1615 1696 
6 187 188 630 384 385 1645 
6 185 186 629 382 383 1644 
6 608 562 664 1623 1577 1679 
6 652 556 660 1667 1571 1675 
6 562 594 683 1577 1609 1698 
6 595 565 684 1610 1580 1699 
6 596 563 685 1611 1578 1700 
6 609 581 687 1624 1596 1702 
6 686 606 693 1701 1621 1708 
6 162 1 699 359 82 1714 
6 179 8 700 376 89 1715 
6 606 563 646 1621 1578 1661 
6 573 628 654 1588 1643 1669 
6 616 574 647 1631 1589 1662 
6 565 607 668 1580 1622 1683 
6 175 176 610 372 373 1625 
6 190 191 611 387 388 1626 
6 645 584 675 1660 1599 1690 
6 628 177 674 1643 374 1689 
6 572 626 649 1587 1641 1664 
6 170 171 616 367 368 1631 
6 609 687 694 1624 1702 1709 
6 181 640 698 378 1655 1713 
6 687 559 694 1702 1574 1709 
6 607 578 689 1622 1593 1704 
6 592 652 660 1607 1667 1675 
6 604 562 683 1619 1577 1698 
6 565 605 684 1580 1620 1699 
6 563 606 685 1578 1621 1700 
6 558 686 693 1573 1701 1708 
6 565 621 625 1580 1636 1640 
6 562 622 624 1577 1637 1639 
6 683 580 686 1698 1595 1701 
6 581 684 687 1596 1699 1702 
6 616 171 661 1631 368 1676 
6 170 616 662 367 1631 1677 
6 628 585 654 1643 1600 1669 
6 182 183 667 379 380 1682 
6 653 593 679 1668 1608 1694 
6 579 623 658 1594 1638 1673 
6 605 565 670 1620 1580 1685 
6 634 560 673 1649 1575 1688 
6 561 635 672 1576 1650 1687 
6 589 635 641 1604 1650 1656 
6 634 588 642 1649 1603 1657 
6 194 655 665 391 1670 1680 
6 657 195 666 1672 392 1681 
6 562 604 676 1577 1619 1691 
6 566 614 637 1581 1629 1652 
6 615 567 639 1630 1582 1654 
6 688 588 694 1703 1603 1709 
6 623 597 658 1638 1612 1673 
6 646 563 647 1661 1578 1662 
6 576 619 621 1591 1634 1636 
6 577 620 622 1592 1635 1637 
6 556 607 689 1571 1622 1704 
6 164 645 675 361 1660 1690 
6 589 690 693 1604 1705 1708 
6 191 192 626 388 389 1641 
6 175 610 613 372 1625 1628 
6 190 611 612 387 1626 1627 
6 584 645 659 1599 1660 1674 
6 626 593 649 1641 1608 1664 
6 603 623 671 1618 1638 1686 
6 176 177 628 373 374 1643 
6 652 576 668 1667 1591 1683 
6 562 624 664 1577 1639 1679 
6 642 588 688 1657 1603 1703 
6 565 625 670 1580 1640 1685 
6 165 166 678 362 363 1693 
6 663 578 695 1678 1593 1710 
6 578 663 696 1593 1678 1711 
6 589 641 690 1604 1656 1705 
6 574 646 647 1589 1661 1662 
6 638 173 639 1653 370 1654 
6 168 636 637 365 1651 1652 
6 645 577 659 1660 1592 1674 
6 618 601 650 1633 1616 1665 
6 602 617 651 1617 1632 1666 
6 587 648 669 1602 1663 1684 
6 181 182 640 378 379 1655 
6 656 581 666 1671 1596 1681 
6 579 658 665 1594 1673 1680 
6 655 580 683 1670 1595 1698 
6 581 656 684 1596 1671 1699 
6 580 657 685 1595 1672 1700 
6 164 165 645 361 362 1660 
6 655 594 665 1670 1609 1680 
6 596 657 666 1611 1672 1681 
6 590 183 644 1605 380 1659 
6 591 166 643 1606 363 1658 
6 568 629 677 1583 1644 1692 
6 186 187 648 383 384 1663 
6 604 683 686 1619 1698 1701 
6 684 605 687 1699 1620 1702 
6 648 586 669 1663 1601 1684 
6 659 577 676 1674 1592 1691 
6 614 566 672 1629 1581 1687 
6 567 615 673 1582 1630 1688 
6 568 653 679 1583 1668 1694 
6 592 640 652 1607 1655 1667 
6 629 587 677 1644 1602 1692 
6 623 579 671 1638 1594 1686 
6 640 576 652 1655 1591 1667 
6 196 14 663 393 95 1678 
6 621 565 668 1636 1580 1683 
6 622 562 676 1637 1577 1691 
6 612 591 699 1627 1606 1714 
6 613 590 700 1628 1605 1715 
6 171 172 661 368 369 1676 
6 169 170 662 366 367 1677 
6 569 602 680 1584 1617 1695 
6 601 568 679 1616 1583 1694 
6 180 602 651 377 1617 1666 
6 601 193 650 1616 390 1665 
6 583 638 639 1598 1653 1654 
6 636 582 637 1651 1597 1652 
6 163 164 675 360 361 1690 
6 177 178 674 374 375 1689 
6 588 633 694 1603 1648 1709 
6 576 621 668 1591 1636 1683 
6 577 622 676 1592 1637 1691 
6 578 627 689 1593 1642 1704 
6 646 589 693 1661 1604 1708 
6 624 572 664 1639 1587 1679 
6 559 688 694 1574 1703 1709 
6 180 181 698 377 378 1713 
6 192 193 697 389 390 1712 
6 690 558 693 1705 1573 1708 
6 630 569 681 1645 1584 1696 
6 9 179 644 90 376 1659 
6 0 162 643 81 359 1658 
6 620 577 678 1635 1592 1693 
6 653 568 677 1668 1583 1692 
6 618 185 629 1633 382 1644 
6 580 655 682 1595 1670 1697 
6 657 580 682 1672 1595 1697 
6 172 598 661 369 1613 1676 
6 599 169 662 1614 366 1677 
6 188 617 630 385 1632 1645 
6 625 573 670 1640 1588 1685 
6 633 609 694 1648 1624 1709 
6 641 561 691 1656 1576 1706 
6 560 642 692 1575 1657 1707 
6 184 10 651 381 91 1666 
6 13 189 650 94 386 1665 
6 577 645 678 1592 1660 1693 
6 603 653 677 1618 1668 1692 
6 599 634 673 1614 1649 1688 
6 635 598 672 1650 1613 1687 
6 619 576 667 1634 1591 1682 
6 640 182 667 1655 379 1682 
6 194 195 682 391 392 1697 
6 193 601 697 390 1616 1712 
6 602 180 698 1617 377 1713 
6 576 640 667 1591 1655 1682 
6 606 646 693 1621 1661 1708 
6 660 569 680 1675 1584 1695 
6 601 679 697 1616 1694 1712 
6 680 602 698 1695 1617 1713 
6 586 630 681 1601 1645 1696 
6 169 599 615 366 1614 1630 
6 598 172 614 1613 369 1629 
6 644 179 700 1659 376 1715 
6 643 162 699 1658 359 1714 
6 656 196 695 1671 393 1710 
6 14 658 696 95 1673 1711 
6 675 584 691 1690 1599 1706 
6 585 674 692 1600 1689 1707 
6 645 165 678 1660 362 1693 
6 655 194 682 1670 391 1697 
6 195 657 682 392 1672 1697 
6 4 168 637 85 365 1652 
6 173 5 639 370 86 1654 
6 592 660 680 1607 1675 1695 
6 659 558 690 1674 1573 1705 
6 584 641 691 1599 1656 1706 
6 642 585 692 1657 1600 1707 
6 584 659 690 1599 1674 1705 
6 559 654 688 1574 1669 1703 
6 594 655 683 1609 1670 1698 
6 656 595 684 1671 1610 1699 
6 657 596 685 1672 1611 1700 
6 654 585 688 1669 1600 1703 
6 595 656 695 1610 1671 1710 
6 658 597 696 1673 1612 1711 
6 631 675 691 1646 1690 1706 
6 674 632 692 1689 1647 1707 
6 561 631 691 1576 1646 1706 
6 632 560 692 1647 1575 1707 
6 196 663 695 393 1678 1710 
6 663 14 696 1678 95 1711 
6 585 642 688 1600 1657 1703 
6 641 584 690 1656 1599 1705 
6 590 644 700 1605 1659 1715 
6 591 643 699 1606 1658 1714 
6 631 163 675 1646 360 1690 
6 178 632 674 375 1647 1689 
6 598 614 672 1613 1629 1687 
6 615 599 673 1630 1614 1688 
6 679 593 697 1694 1608 1712 
6 592 680 698 1607 1695 1713 
6 166 0 643 363 81 1658 
6 172 4 614 369 85 1629 
6 614 4 637 1629 85 1652 
6 5 169 615 86 366 1630 
6 5 615 639 86 1630 1654 
6 183 9 644 380 90 1659 
6 10 180 651 91 377 1666 
6 193 13 650 390 94 1665 
6 2 163 167 83 360 364 
6 3 167 636 84 364 1651 
6 174 6 638 371 87 1653 
6 174 178 7 371 375 88 
6 167 163 582 364 360 1597 
6 582 163 631 1597 360 1646 
6 167 582 636 364 1597 1651 
6 178 174 583 375 371 1598 
6 583 174 638 1598 371 1653 
6 178 583 632 375 1598 1647 
6 566 582 631 1581 1597 1646 
6 582 566 637 1597 1581 1652 
6 583 567 632 1598 1582 1647 
6 567 583 639 1582 1598 1654 
6 715 755 770 1730 1770 1785 
6 756 716 769 1771 1731 1784 
6 732 748 815 1747 1763 1830 
6 748 709 815 1763 1724 1830 
6 755 715 758 1770 1730 1773 
6 716 756 757 1731 1771 1772 
6 709 745 815 1724 1760 1830 
6 216 731 774 413 1746 1789 
6 724 739 752 1739 1754 1767 
6 726 740 753 1741 1755 1768 
6 741 726 754 1756 1741 1769 
6 736 210 764 1751 407 1779 
6 220 735 765 417 1750 1780 
6 738 701 798 1753 1716 1813 
6 716 736 764 1731 1751 1779 
6 735 715 765 1750 1730 1780 
6 777 720 792 1792 1735 1807 
6 739 707 752 1754 1722 1767 
6 740 710 753 1755 1725 1768 
6 708 741 754 1723 1756 1769 
6 799 753 809 1814 1768 1824 
6 749 800 816 1764 1815 1831 
6 745 731 815 1760 1746 1830 
6 739 724 810 1754 1739 1825 
6 773 732 793 1788 1747 1808 
6 715 735 758 1730 1750 1773 
6 736 716 757 1751 1731 1772 
6 214 762 794 411 1777 1809 
6 763 219 795 1778 416 1810 
6 701 738 797 1716 1753 1812 
6 750 701 797 1765 1716 1812 
6 742 709 784 1757 1724 1799 
6 713 746 762 1728 1761 1777 
6 747 714 763 1762 1729 1778 
6 217 773 793 414 1788 1808 
6 749 703 800 1764 1718 1815 
6 731 216 793 1746 413 1808 
6 748 701 784 1763 1716 1799 
6 702 752 796 1717 1767 1811 
6 745 709 766 1760 1724 1781 
6 709 748 784 1724 1763 1799 
6 796 752 814 1811 1767 1829 
6 756 717 772 1771 1732 1787 
6 718 755 771 1733 1770 1786 
6 750 797 822 1765 1812 1837 
6 704 753 799 1719 1768 1814 
6 27 225 810 108 422 1825 
6 227 27 811 424 108 1826 
6 764 210 813 1779 407 1828 
6 220 765 812 417 1780 1827 
6 718 799 809 1733 1814 1824 
6 802 227 811 1817 424 1826 
6 803 27 810 1818 108 1825 
6 705 711 775 1720 1726 1790 
6 712 706 776 1727 1721 1791 
6 720 761 792 1735 1776 1807 
6 711 705 817 1726 1720 1832 
6 706 712 818 1721 1727 1833 
6 800 717 816 1815 1732 1831 
6 23 215 762 104 412 1777 
6 218 24 763 415 105 1778 
6 779 705 787 1794 1720 1802 
6 706 778 788 1721 1793 1803 
6 208 20 757 405 101 1772 
6 13 193 758 94 390 1773 
6 740 726 840 1755 1741 1855 
6 726 741 841 1741 1756 1856 
6 755 718 770 1770 1733 1785 
6 717 756 769 1732 1771 1784 
6 203 18 780 400 99 1795 
6 15 198 782 96 395 1797 
6 702 745 821 1717 1760 1836 
6 720 733 778 1735 1748 1793 
6 734 719 779 1749 1734 1794 
6 763 714 773 1778 1729 1788 
6 709 742 766 1724 1757 1781 
6 24 219 763 105 416 1778 
6 214 23 762 411 104 1777 
6 745 702 805 1760 1717 1820 
6 733 720 777 1748 1735 1792 
6 724 752 821 1739 1767 1836 
6 757 20 845 1772 101 1860 
6 13 758 844 94 1773 1859 
6 713 762 774 1728 1777 1789 
6 765 715 767 1780 1730 1782 
6 716 764 768 1731 1779 1783 
6 719 761 806 1734 1776 1821 
6 761 720 807 1776 1735 1822 
6 725 751 831 1740 1766 1846 
6 708 777 792 1723 1792 1807 
6 778 744 807 1793 1759 1822 
6 743 779 806 1758 1794 1821 
6 719 734 791 1734 1749 1806 
6 779 719 806 1794 1734 1821 
6 720 778 807 1735 1793 1822 
6 731 745 826 1746 1760 1841 
6 784 701 832 1799 1716 1847 
6 730 771 819 1745 1786 1834 
6 772 729 820 1787 1744 1835 
6 207 756 772 404 1771 1787 
6 755 192 771 1770 389 1786 
6 708 754 777 1723 1769 1792 
6 784 723 811 1799 1738 1826 
6 805 713 826 1820 1728 1841 
6 748 732 823 1763 1747 1838 
6 742 784 811 1757 1799 1826 
6 701 748 798 1716 1763 1813 
6 716 768 769 1731 1783 1784 
6 767 715 770 1782 1730 1785 
6 752 702 821 1767 1717 1836 
6 751 725 830 1766 1740 1845 
6 737 785 842 1752 1800 1857 
6 786 738 843 1801 1753 1858 
6 703 749 831 1718 1764 1846 
6 701 750 832 1716 1765 1847 
6 745 805 826 1760 1820 1841 
6 215 216 774 412 413 1789 
6 217 218 773 414 415 1788 
6 753 710 809 1768 1725 1824 
6 702 796 805 1717 1811 1820 
6 707 739 829 1722 1754 1844 
6 710 740 828 1725 1755 1843 
6 741 708 830 1756 1723 1845 
6 831 751 838 1846 1766 1853 
6 224 13 844 421 94 1859 
6 20 209 845 101 406 1860 
6 745 766 821 1760 1781 1836 
6 751 708 791 1766 1723 1806 
6 724 766 803 1739 1781 1818 
6 772 717 800 1787 1732 1815 
6 718 771 799 1733 1786 1814 
6 761 719 792 1776 1734 1807 
6 752 707 814 1767 1722 1829 
6 207 208 756 404 405 1771 
6 193 192 755 390 389 1770 
6 726 753 835 1741 1768 1850 
6 754 726 835 1769 1741 1850 
6 766 742 803 1781 1757 1818 
6 771 191 819 1786 388 1834 
6 206 772 820 403 1787 1835 
6 200 201 761 397 398 1776 
6 785 212 842 1800 409 1857 
6 222 786 843 419 1801 1858 
6 796 737 805 1811 1752 1820 
6 749 707 829 1764 1722 1844 
6 750 710 828 1765 1725 1843 
6 708 751 830 1723 1766 1845 
6 703 831 838 1718 1846 1853 
6 710 767 770 1725 1782 1785 
6 768 707 769 1783 1722 1784 
6 828 723 832 1843 1738 1847 
6 829 725 831 1844 1740 1846 
6 200 761 807 397 1776 1822 
6 761 201 806 1776 398 1821 
6 729 772 800 1744 1787 1815 
6 771 730 799 1786 1745 1814 
6 210 211 813 407 408 1828 
6 221 220 812 418 417 1827 
6 738 798 825 1753 1813 1840 
6 707 749 816 1722 1764 1831 
6 778 706 818 1793 1721 1833 
6 705 779 817 1720 1794 1832 
6 734 834 838 1749 1849 1853 
6 734 779 787 1749 1794 1802 
6 778 733 788 1793 1748 1803 
6 225 801 810 422 1816 1825 
6 753 704 835 1768 1719 1850 
6 27 803 811 108 1818 1826 
6 710 750 822 1725 1765 1837 
6 711 759 781 1726 1774 1796 
6 760 712 783 1775 1727 1798 
6 833 733 839 1848 1748 1854 
6 791 708 792 1806 1723 1807 
6 754 835 839 1769 1850 1854 
6 764 721 768 1779 1736 1783 
6 722 765 767 1737 1780 1782 
6 193 755 758 390 1770 1773 
6 756 208 757 1771 405 1772 
6 192 191 771 389 388 1786 
6 206 207 772 403 404 1787 
6 721 796 814 1736 1811 1829 
6 710 770 809 1725 1785 1824 
6 734 787 834 1749 1802 1849 
6 788 733 833 1803 1748 1848 
6 835 704 839 1850 1719 1854 
6 797 722 822 1812 1737 1837 
6 769 707 816 1784 1722 1831 
6 726 808 840 1741 1823 1855 
6 808 726 841 1823 1741 1856 
6 723 784 832 1738 1799 1847 
6 719 791 792 1734 1806 1807 
6 203 780 781 400 1795 1796 
6 782 198 783 1797 395 1798 
6 762 746 794 1777 1761 1809 
6 747 763 795 1762 1778 1810 
6 793 732 815 1808 1747 1830 
6 222 221 786 419 418 1801 
6 211 212 785 408 409 1800 
6 723 802 811 1738 1817 1826 
6 724 803 810 1739 1818 1825 
6 801 725 829 1816 1740 1844 
6 802 723 828 1817 1738 1843 
6 725 804 830 1740 1819 1845 
6 766 724 821 1781 1739 1836 
6 801 739 810 1816 1754 1825 
6 803 742 811 1818 1757 1826 
6 210 736 789 407 1751 1804 
6 735 220 790 1750 417 1805 
6 773 714 823 1788 1729 1838 
6 216 217 793 413 414 1808 
6 750 828 832 1765 1843 1847 
6 749 829 831 1764 1844 1846 
6 731 793 815 1746 1808 1830 
6 759 711 817 1774 1726 1832 
6 712 760 818 1727 1775 1833 
6 798 714 825 1813 1729 1840 
6 785 737 796 1800 1752 1811 
6 738 786 797 1753 1801 1812 
6 732 773 823 1747 1788 1838 
6 721 785 796 1736 1800 1811 
6 786 722 797 1801 1737 1812 
6 226 227 808 423 424 1823 
6 707 768 814 1722 1783 1829 
6 767 710 822 1782 1725 1837 
6 736 757 845 1751 1772 1860 
6 758 735 844 1773 1750 1859 
6 201 202 806 398 399 1821 
6 199 200 807 396 397 1822 
6 746 713 824 1761 1728 1839 
6 714 747 825 1729 1762 1840 
6 746 213 794 1761 410 1809 
6 223 747 795 420 1762 1810 
6 728 782 783 1743 1797 1798 
6 780 727 781 1795 1742 1796 
6 191 190 819 388 387 1834 
6 205 206 820 402 403 1835 
6 733 777 839 1748 1792 1854 
6 768 721 814 1783 1736 1829 
6 834 703 838 1849 1718 1853 
6 722 767 822 1737 1782 1837 
6 791 734 838 1806 1749 1853 
6 770 718 809 1785 1733 1824 
6 704 833 839 1719 1848 1854 
6 212 213 842 409 410 1857 
6 223 222 843 420 419 1858 
6 713 774 826 1728 1789 1841 
6 209 21 789 406 102 1804 
6 26 224 790 107 421 1805 
6 714 798 823 1729 1813 1838 
6 218 763 773 415 1778 1788 
6 725 801 827 1740 1816 1842 
6 804 725 827 1819 1740 1842 
6 202 743 806 399 1758 1821 
6 744 199 807 1759 396 1822 
6 762 215 774 1777 412 1789 
6 717 769 816 1732 1784 1831 
6 777 754 839 1792 1769 1854 
6 787 705 836 1802 1720 1851 
6 706 788 837 1721 1803 1852 
6 22 214 794 103 411 1809 
6 219 25 795 416 106 1810 
6 798 748 823 1813 1763 1838 
6 744 778 818 1759 1793 1833 
6 779 743 817 1794 1758 1832 
6 765 722 812 1780 1737 1827 
6 721 764 813 1736 1779 1828 
6 211 785 813 408 1800 1828 
6 786 221 812 1801 418 1827 
6 225 226 827 422 423 1842 
6 213 746 842 410 1761 1857 
6 747 223 843 1762 420 1858 
6 785 721 813 1800 1736 1828 
6 722 786 812 1737 1801 1827 
6 751 791 838 1766 1806 1853 
6 713 805 824 1728 1820 1839 
6 746 824 842 1761 1839 1857 
6 825 747 843 1840 1762 1858 
6 774 731 826 1789 1746 1841 
6 743 202 759 1758 399 1774 
6 199 744 760 396 1759 1775 
6 790 224 844 1805 421 1859 
6 209 789 845 406 1804 1860 
6 227 802 840 424 1817 1855 
6 804 226 841 1819 423 1856 
6 730 819 837 1745 1834 1852 
6 820 729 836 1835 1744 1851 
6 801 225 827 1816 422 1842 
6 226 804 827 423 1819 1842 
6 17 203 781 98 400 1796 
6 198 16 783 395 97 1798 
6 805 737 824 1820 1752 1839 
6 788 730 837 1803 1745 1852 
6 729 787 836 1744 1802 1851 
6 704 799 833 1719 1814 1848 
6 800 703 834 1815 1718 1849 
6 739 801 829 1754 1816 1844 
6 740 802 828 1755 1817 1843 
6 804 741 830 1819 1756 1845 
6 799 730 833 1814 1745 1848 
6 729 800 834 1744 1815 1849 
6 802 740 840 1817 1755 1855 
6 741 804 841 1756 1819 1856 
6 775 820 836 1790 1835 1851 
6 819 776 837 1834 1791 1852 
6 705 775 836 1720 1790 1851 
6 776 706 837 1791 1721 1852 
6 808 227 840 1823 424 1855 
6 226 808 841 423 1823 1856 
6 730 788 833 1745 1803 1848 
6 787 729 834 1802 1744 1849 
6 789 736 845 1804 1751 1860 
6 735 790 844 1750 1805 1859 
6 775 205 820 1790 402 1835 
6 190 776 819 387 1791 1834 
6 743 759 817 1758 1774 1832 
6 760 744 818 1775 1759 1833 
6 824 737 842 1839 1752 1857 
6 738 825 843 1753 1840 1858 
6 16 199 760 97 396 1775 
6 16 760 783 97 1775 1798 
6 202 17 759 399 98 1774 
6 759 17 781 1774 98 1796 
6 21 210 789 102 407 1804 
6 213 22 794 410 103 1809 
6 25 223 795 106 420 1810 
6 220 26 790 417 107 1805 
6 1 197 190 82 394 387 
6 197 15 782 394 96 1797 
6 18 204 780 99 401 1795 
6 19 205 204 100 402 401 
6 190 197 728 387 394 1743 
6 190 728 776 387 1743 1791 
6 728 197 782 1743 394 1797 
6 204 205 727 401 402 1742 
6 204 727 780 401 1742 1795 
6 727 205 775 1742 402 1790 
6 711 727 775 1726 1742 1790 
6 727 711 781 1742 1726 1796 
6 728 712 776 1743 1727 1791 
6 712 728 783 1727 1743 1798 
6 939 898 954 1954 1913 1969 
6 860 900 915 1875 1915 1930 
6 861 901 914 1876 1916 1929 
6 893 877 959 1908 1892 1974 
6 854 893 959 1869 1908 1974 
6 900 860 903 1915 1875 1918 
6 901 861 902 1916 1876 1917 
6 890 854 959 1905 1869 1974 
6 876 238 920 1891 435 1935 
6 869 884 898 1884 1899 1913 
6 885 868 897 1900 1883 1912 
6 870 886 899 1885 1901 1914 
6 244 880 909 441 1895 1924 
6 223 881 910 420 1896 1925 
6 862 939 954 1877 1954 1969 
6 862 901 916 1877 1916 1931 
6 880 860 909 1895 1875 1924 
6 881 861 910 1896 1876 1925 
6 936 865 937 1951 1880 1952 
6 884 852 898 1899 1867 1913 
6 855 885 897 1870 1900 1912 
6 886 853 899 1901 1868 1914 
6 847 898 939 1862 1913 1954 
6 854 890 917 1869 1905 1932 
6 847 939 943 1862 1954 1958 
6 944 895 960 1959 1910 1975 
6 876 890 959 1891 1905 1974 
6 884 869 955 1899 1884 1970 
6 877 919 938 1892 1934 1953 
6 886 870 956 1901 1885 1971 
6 860 880 903 1875 1895 1918 
6 861 881 902 1876 1896 1917 
6 907 240 940 1922 437 1955 
6 235 908 941 432 1923 1956 
6 887 854 917 1902 1869 1932 
6 939 883 943 1954 1898 1958 
6 891 858 907 1906 1873 1922 
6 859 892 908 1874 1907 1923 
6 919 237 938 1934 434 1953 
6 849 895 944 1864 1910 1959 
6 890 846 917 1905 1861 1932 
6 238 876 938 435 1891 1953 
6 897 846 942 1912 1861 1957 
6 897 942 958 1912 1957 1973 
6 863 900 918 1878 1915 1933 
6 917 846 979 1932 1861 1994 
6 38 252 955 119 449 1970 
6 252 253 956 449 450 1971 
6 244 909 957 441 1924 1972 
6 945 252 956 1960 449 1971 
6 947 38 955 1962 119 1970 
6 850 856 921 1865 1871 1936 
6 857 851 922 1872 1866 1937 
6 865 906 937 1880 1921 1952 
6 856 850 962 1871 1865 1977 
6 851 857 963 1866 1872 1978 
6 863 944 960 1878 1959 1975 
6 239 32 907 436 113 1922 
6 31 236 908 112 433 1923 
6 925 850 931 1940 1865 1946 
6 851 924 932 1866 1939 1947 
6 868 887 917 1883 1902 1932 
6 29 231 902 110 428 1917 
6 35 249 903 116 446 1918 
6 894 848 949 1909 1863 1964 
6 868 885 985 1883 1900 2000 
6 887 868 986 1902 1883 2001 
6 900 863 915 1915 1878 1930 
6 901 862 914 1916 1877 1929 
6 228 28 926 425 109 1941 
6 37 251 928 118 448 1943 
6 901 232 916 1916 429 1931 
6 865 878 924 1880 1893 1939 
6 879 864 925 1894 1879 1940 
6 883 916 988 1898 1931 2003 
6 223 910 968 420 1925 1983 
6 854 887 913 1869 1902 1928 
6 853 936 937 1868 1951 1952 
6 893 854 913 1908 1869 1928 
6 859 908 919 1874 1923 1934 
6 235 31 908 432 112 1923 
6 32 240 907 113 437 1922 
6 869 898 961 1884 1913 1976 
6 846 890 950 1861 1905 1965 
6 864 879 923 1879 1894 1938 
6 29 902 989 110 1917 2004 
6 35 903 990 116 1918 2005 
6 907 858 920 1922 1873 1935 
6 909 860 911 1924 1875 1926 
6 910 861 912 1925 1876 1927 
6 864 906 951 1879 1921 1966 
6 906 865 952 1921 1880 1967 
6 896 871 977 1911 1886 1992 
6 888 925 951 1903 1940 1966 
6 924 889 952 1939 1904 1967 
6 878 865 936 1893 1880 1951 
6 894 949 966 1909 1964 1981 
6 925 864 951 1940 1879 1966 
6 865 924 952 1880 1939 1967 
6 890 876 971 1905 1891 1986 
6 875 918 965 1890 1933 1980 
6 847 893 961 1862 1908 1976 
6 916 233 988 1931 430 2003 
6 900 248 918 1915 445 1933 
6 899 853 923 1914 1868 1938 
6 858 950 971 1873 1965 1986 
6 877 893 967 1892 1908 1982 
6 898 847 961 1913 1862 1976 
6 893 847 943 1908 1862 1958 
6 912 861 914 1927 1876 1929 
6 911 860 915 1926 1875 1930 
6 871 896 975 1886 1911 1990 
6 930 882 987 1945 1897 2002 
6 848 894 976 1863 1909 1991 
6 895 849 977 1910 1864 1992 
6 950 890 971 1965 1905 1986 
6 238 239 920 435 436 1935 
6 236 237 919 433 434 1934 
6 898 852 954 1913 1867 1969 
6 942 846 950 1957 1861 1965 
6 852 884 973 1867 1899 1988 
6 885 855 974 1900 1870 1989 
6 853 886 975 1868 1901 1990 
6 870 899 976 1885 1914 1991 
6 896 977 983 1911 1992 1998 
6 245 35 990 442 116 2005 
6 230 29 989 427 110 2004 
6 853 896 936 1868 1911 1951 
6 863 918 944 1878 1933 1959 
6 906 864 937 1921 1879 1952 
6 855 897 958 1870 1912 1973 
6 231 232 901 428 429 1916 
6 249 248 900 446 445 1915 
6 935 874 964 1950 1889 1979 
6 918 247 965 1933 444 1980 
6 862 916 939 1877 1931 1954 
6 187 186 906 384 383 1921 
6 976 899 984 1991 1914 1999 
6 242 930 987 439 1945 2002 
6 848 976 984 1863 1991 1999 
6 897 868 979 1912 1883 1994 
6 882 942 950 1897 1957 1965 
6 894 852 973 1909 1867 1988 
6 855 895 974 1870 1910 1989 
6 896 853 975 1911 1868 1990 
6 977 849 983 1992 1864 1998 
6 855 911 915 1870 1926 1930 
6 852 912 914 1867 1927 1929 
6 973 870 976 1988 1885 1991 
6 871 974 977 1886 1989 1992 
6 906 186 951 1921 383 1966 
6 187 906 952 384 1921 1967 
6 918 875 944 1933 1890 1959 
6 243 244 957 440 441 1972 
6 943 883 970 1958 1898 1985 
6 869 913 947 1884 1928 1962 
6 895 855 960 1910 1870 1975 
6 924 851 963 1939 1866 1978 
6 850 925 962 1865 1940 1977 
6 978 878 983 1993 1893 1998 
6 879 925 931 1894 1940 1946 
6 924 878 932 1939 1893 1947 
6 252 945 955 449 1960 1970 
6 253 948 956 450 1963 1971 
6 852 894 966 1867 1909 1981 
6 856 904 927 1871 1919 1942 
6 905 857 929 1920 1872 1944 
6 913 887 947 1928 1902 1962 
6 866 909 911 1881 1924 1926 
6 867 910 912 1882 1925 1927 
6 846 897 979 1861 1912 1994 
6 221 935 964 418 1950 1979 
6 232 233 916 429 430 1931 
6 249 900 903 446 1915 1918 
6 231 901 902 428 1916 1917 
6 874 935 949 1889 1950 1964 
6 916 883 939 1931 1898 1954 
6 879 980 984 1894 1995 1999 
6 893 913 961 1908 1928 1976 
6 923 853 937 1938 1868 1952 
6 248 247 918 445 444 1933 
6 942 866 958 1957 1881 1973 
6 852 914 954 1867 1929 1969 
6 932 878 978 1947 1893 1993 
6 855 915 960 1870 1930 1975 
6 222 223 968 419 420 1983 
6 953 868 985 1968 1883 2000 
6 868 953 986 1883 1968 2001 
6 864 923 937 1879 1938 1952 
6 879 931 980 1894 1946 1995 
6 228 926 927 425 1941 1942 
6 928 251 929 1943 448 1944 
6 935 867 949 1950 1882 1964 
6 891 907 940 1906 1922 1955 
6 908 892 941 1923 1907 1956 
6 877 938 959 1892 1953 1974 
6 242 243 930 439 440 1945 
6 870 945 956 1885 1960 1971 
6 869 947 955 1884 1962 1970 
6 945 870 973 1960 1885 1988 
6 871 946 974 1886 1961 1989 
6 948 871 975 1963 1886 1990 
6 221 222 935 418 419 1950 
6 945 884 955 1960 1899 1970 
6 948 886 956 1963 1901 1971 
6 880 244 933 1895 441 1948 
6 881 223 934 1896 420 1949 
6 859 919 967 1874 1934 1982 
6 237 238 938 434 435 1953 
6 974 895 977 1989 1910 1992 
6 894 973 976 1909 1988 1991 
6 938 876 959 1953 1891 1974 
6 949 867 966 1964 1882 1981 
6 904 856 962 1919 1871 1977 
6 857 905 963 1872 1920 1978 
6 859 943 970 1874 1958 1985 
6 882 930 942 1897 1945 1957 
6 919 877 967 1934 1892 1982 
6 913 869 961 1928 1884 1976 
6 930 866 942 1945 1881 1957 
6 254 38 953 451 119 1968 
6 911 855 958 1926 1870 1973 
6 912 852 966 1927 1867 1981 
6 902 881 989 1917 1896 2004 
6 903 880 990 1918 1895 2005 
6 186 185 951 383 382 1966 
6 188 187 952 385 384 1967 
6 858 891 969 1873 1906 1984 
6 892 859 970 1907 1874 1985 
6 241 891 940 438 1906 1955 
6 892 234 941 1907 431 1956 
6 926 872 927 1941 1887 1942 
6 873 928 929 1888 1943 1944 
6 220 221 964 417 418 1979 
6 247 246 965 444 443 1980 
6 923 879 984 1938 1894 1999 
6 866 911 958 1881 1926 1973 
6 849 978 983 1864 1993 1998 
6 867 912 966 1882 1927 1981 
6 868 917 979 1883 1932 1994 
6 878 936 983 1893 1951 1998 
6 914 862 954 1929 1877 1969 
6 241 242 987 438 439 2002 
6 233 234 988 430 431 2003 
6 920 858 971 1935 1873 1986 
6 34 245 933 115 442 1948 
6 25 230 934 106 427 1949 
6 910 867 968 1925 1882 1983 
6 943 859 967 1958 1874 1982 
6 908 236 919 1923 433 1934 
6 980 848 984 1995 1863 1999 
6 946 871 972 1961 1886 1987 
6 871 948 972 1886 1963 1987 
6 185 888 951 382 1903 1966 
6 889 188 952 1904 385 1967 
6 239 907 920 436 1922 1935 
6 915 863 960 1930 1878 1975 
6 899 923 984 1914 1938 1999 
6 931 850 981 1946 1865 1996 
6 851 932 982 1866 1947 1997 
6 240 33 940 437 114 1955 
6 30 235 941 111 432 1956 
6 867 935 968 1882 1950 1983 
6 893 943 967 1908 1958 1982 
6 889 924 963 1904 1939 1978 
6 925 888 962 1940 1903 1977 
6 909 866 957 1924 1881 1972 
6 930 243 957 1945 440 1972 
6 253 254 972 450 451 1987 
6 891 241 987 1906 438 2002 
6 234 892 988 431 1907 2003 
6 866 930 957 1881 1945 1972 
6 936 896 983 1951 1911 1998 
6 950 858 969 1965 1873 1984 
6 969 891 987 1984 1906 2002 
6 892 970 988 1907 1985 2003 
6 876 920 971 1891 1935 1986 
6 888 185 904 1903 382 1919 
6 188 889 905 385 1904 1920 
6 933 245 990 1948 442 2005 
6 934 230 989 1949 427 2004 
6 946 254 985 1961 451 2000 
6 38 947 986 119 1962 2001 
6 875 965 982 1890 1980 1997 
6 964 874 981 1979 1889 1996 
6 935 222 968 1950 419 1983 
6 254 946 972 451 1961 1987 
6 948 253 972 1963 450 1987 
6 251 11 929 448 92 1944 
6 12 228 927 93 425 1942 
6 882 950 969 1897 1965 1984 
6 949 848 980 1964 1863 1995 
6 932 875 982 1947 1890 1997 
6 874 931 981 1889 1946 1996 
6 874 949 980 1889 1964 1995 
6 849 944 978 1864 1959 1993 
6 884 945 973 1899 1960 1988 
6 946 885 974 1961 1900 1989 
6 886 948 975 1901 1963 1990 
6 944 875 978 1959 1890 1993 
6 885 946 985 1900 1961 2000 
6 947 887 986 1962 1902 2001 
6 921 964 981 1936 1979 1996 
6 965 922 982 1980 1937 1997 
6 850 921 981 1865 1936 1996 
6 922 851 982 1937 1866 1997 
6 254 953 985 451 1968 2000 
6 953 38 986 1968 119 2001 
6 875 932 978 1890 1947 1993 
6 931 874 980 1946 1889 1995 
6 880 933 990 1895 1948 2005 
6 881 934 989 1896 1949 2004 
6 921 220 964 1936 417 1979 
6 246 922 965 443 1937 1980 
6 888 904 962 1903 1919 1977 
6 905 889 963 1920 1904 1978 
6 882 969 987 1897 1984 2002 
6 970 883 988 1985 1898 2003 
6 11 188 905 92 385 1920 
6 11 905 929 92 1920 1944 
6 185 12 904 382 93 1919 
6 904 12 927 1919 93 1942 
6 223 25 934 420 106 1949 
6 234 30 941 431 111 1956 
6 33 241 940 114 438 1955 
6 244 34 933 441 115 1948 
6 26 220 229 107 417 426 
6 28 229 926 109 426 1941 
6 36 250 246 117 447 443 
6 250 37 928 447 118 1943 
6 229 220 872 426 417 1887 
6 872 220 921 1887 417 1936 
6 229 872 926 426 1887 1941 
6 246 250 873 443 447 1888 
6 246 873 922 443 1888 1937 
6 873 250 928 1888 447 1943 
6 856 872 921 1871 1887 1936 
6 872 856 927 1887 1871 1942 
6 873 857 922 1888 1872 1937 
6 857 873 929 1872 1888 1944 
6 1084 1042 1100 2099 2057 2115 
6 1005 1045 1060 2020 2060 2075 
6 1006 1046 1059 2021 2061 2074 
6 1022 1038 1104 2037 2053 2119 
6 1038 999 1104 2053 2014 2119 
6 1045 1005 1047 2060 2020 2062 
6 1046 1006 1048 2061 2021 2063 
6 999 1035 1104 2014 2050 2119 
6 258 1021 1064 455 2036 2079 
6 1014 1029 1042 2029 2044 2057 
6 1016 1030 1043 2031 2045 2058 
6 1031 1016 1044 2046 2031 2059 
6 180 1026 1055 377 2041 2070 
6 265 1025 1054 462 2040 2069 
6 1028 991 1088 2043 2006 2103 
6 1007 1084 1100 2022 2099 2115 
6 1007 1046 1061 2022 2061 2076 
6 1026 1006 1055 2041 2021 2070 
6 1025 1005 1054 2040 2020 2069 
6 1067 1010 1082 2082 2025 2097 
6 1029 997 1042 2044 2012 2057 
6 1030 1000 1043 2045 2015 2058 
6 998 1031 1044 2013 2046 2059 
6 1089 1043 1099 2104 2058 2114 
6 992 1042 1084 2007 2057 2099 
6 1035 1021 1104 2050 2036 2119 
6 1029 1014 1101 2044 2029 2116 
6 1063 1022 1083 2078 2037 2098 
6 1005 1025 1047 2020 2040 2062 
6 1006 1026 1048 2021 2041 2063 
6 256 1052 1085 453 2067 2100 
6 1053 261 1086 2068 458 2101 
6 991 1028 1087 2006 2043 2102 
6 1040 991 1087 2055 2006 2102 
6 1032 999 1074 2047 2014 2089 
6 1003 1036 1052 2018 2051 2067 
6 1037 1004 1053 2052 2019 2068 
6 259 1063 1083 456 2078 2098 
6 1021 258 1083 2036 455 2098 
6 1038 991 1074 2053 2006 2089 
6 1035 999 1056 2050 2014 2071 
6 999 1038 1074 2014 2053 2089 
6 1008 1045 1062 2023 2060 2077 
6 1040 1087 1110 2055 2102 2125 
6 994 1043 1089 2009 2058 2104 
6 49 279 1101 130 476 2116 
6 281 49 1102 478 130 2117 
6 265 1054 1103 462 2069 2118 
6 1008 1089 1099 2023 2104 2114 
6 1091 281 1102 2106 478 2117 
6 1092 49 1101 2107 130 2116 
6 995 1001 1065 2010 2016 2080 
6 1002 996 1066 2017 2011 2081 
6 1010 1051 1082 2025 2066 2097 
6 1001 995 1105 2016 2010 2120 
6 996 1002 1106 2011 2017 2121 
6 39 257 1052 120 454 2067 
6 260 40 1053 457 121 2068 
6 1069 995 1076 2084 2010 2091 
6 996 1068 1077 2011 2083 2092 
6 43 267 1047 124 464 2062 
6 36 246 1048 117 443 2063 
6 1039 993 1094 2054 2008 2109 
6 1030 1016 1130 2045 2031 2145 
6 1016 1031 1131 2031 2046 2146 
6 1045 1008 1060 2060 2023 2075 
6 1046 1007 1059 2061 2022 2074 
6 277 48 1070 474 129 2085 
6 45 272 1072 126 469 2087 
6 992 1035 1109 2007 2050 2124 
6 1046 247 1061 2061 444 2076 
6 1010 1023 1068 2025 2038 2083 
6 1024 1009 1069 2039 2024 2084 
6 1027 1061 1132 2042 2076 2147 
6 180 1055 1113 377 2070 2128 
6 1053 1004 1063 2068 2019 2078 
6 999 1032 1056 2014 2047 2071 
6 40 261 1053 121 458 2068 
6 256 39 1052 453 120 2067 
6 1035 992 1095 2050 2007 2110 
6 1023 1010 1067 2038 2025 2082 
6 1014 1042 1109 2029 2057 2124 
6 36 1048 1134 117 2063 2149 
6 43 1047 1135 124 2062 2150 
6 1003 1052 1064 2018 2067 2079 
6 1054 1005 1057 2069 2020 2072 
6 1055 1006 1058 2070 2021 2073 
6 1051 1010 1097 2066 2025 2112 
6 1009 1051 1096 2024 2066 2111 
6 1015 1041 1122 2030 2056 2137 
6 998 1067 1082 2013 2082 2097 
6 1033 1069 1096 2048 2084 2111 
6 1068 1034 1097 2083 2049 2112 
6 1009 1024 1081 2024 2039 2096 
6 1039 1094 1111 2054 2109 2126 
6 1069 1009 1096 2084 2024 2111 
6 1010 1068 1097 2025 2083 2112 
6 1021 1035 1116 2036 2050 2131 
6 1074 991 1121 2089 2006 2136 
6 1020 1062 1108 2035 2077 2123 
6 1061 248 1132 2076 445 2147 
6 1045 268 1062 2060 465 2077 
6 998 1044 1067 2013 2059 2082 
6 1074 1013 1102 2089 2028 2117 
6 1095 1003 1116 2110 2018 2131 
6 1038 1022 1112 2053 2037 2127 
6 1032 1074 1102 2047 2089 2117 
6 991 1038 1088 2006 2053 2103 
6 1058 1006 1059 2073 2021 2074 
6 1057 1005 1060 2072 2020 2075 
6 1042 992 1109 2057 2007 2124 
6 1041 1015 1120 2056 2030 2135 
6 1075 1028 1133 2090 2043 2148 
6 993 1039 1122 2008 2054 2137 
6 991 1040 1121 2006 2055 2136 
6 1035 1095 1116 2050 2110 2131 
6 257 258 1064 454 455 2079 
6 259 260 1063 456 457 2078 
6 1042 997 1100 2057 2012 2115 
6 1043 1000 1099 2058 2015 2114 
6 997 1029 1119 2012 2044 2134 
6 1000 1030 1118 2015 2045 2133 
6 1031 998 1120 2046 2013 2135 
6 1122 1041 1128 2137 2056 2143 
6 255 36 1134 452 117 2149 
6 266 43 1135 463 124 2150 
6 1035 1056 1109 2050 2071 2124 
6 1041 998 1081 2056 2013 2096 
6 1014 1056 1092 2029 2071 2107 
6 1008 1062 1089 2023 2077 2104 
6 1051 1009 1082 2066 2024 2097 
6 246 247 1046 443 444 2061 
6 267 268 1045 464 465 2060 
6 1016 1043 1124 2031 2058 2139 
6 1044 1016 1124 2059 2031 2139 
6 1080 1019 1107 2095 2034 2122 
6 1056 1032 1092 2071 2047 2107 
6 1062 269 1108 2077 466 2123 
6 1007 1061 1084 2022 2076 2099 
6 275 274 1051 472 471 2066 
6 263 1075 1133 460 2090 2148 
6 992 1084 1095 2007 2099 2110 
6 1039 997 1119 2054 2012 2134 
6 1040 1000 1118 2055 2015 2133 
6 998 1041 1120 2013 2056 2135 
6 993 1122 1128 2008 2137 2143 
6 1000 1057 1060 2015 2072 2075 
6 997 1058 1059 2012 2073 2074 
6 1119 1015 1122 2134 2030 2137 
6 1118 1013 1121 2133 2028 2136 
6 275 1051 1097 472 2066 2112 
6 1051 274 1096 2066 471 2111 
6 1062 1020 1089 2077 2035 2104 
6 264 265 1103 461 462 2118 
6 1028 1088 1115 2043 2103 2130 
6 1068 996 1106 2083 2011 2121 
6 995 1069 1105 2010 2084 2120 
6 1024 1069 1076 2039 2084 2091 
6 1068 1023 1077 2083 2038 2092 
6 279 1090 1101 476 2105 2116 
6 1043 994 1124 2058 2009 2139 
6 49 1092 1102 130 2107 2117 
6 1084 1027 1095 2099 2042 2110 
6 997 1039 1111 2012 2054 2126 
6 1000 1040 1110 2015 2055 2125 
6 1001 1049 1071 2016 2064 2086 
6 1050 1002 1073 2065 2017 2088 
6 1123 1023 1129 2138 2038 2144 
6 1081 998 1082 2096 2013 2097 
6 1044 1124 1129 2059 2139 2144 
6 1011 1054 1057 2026 2069 2072 
6 1012 1055 1058 2027 2070 2073 
6 182 1080 1107 379 2095 2122 
6 1024 1125 1128 2039 2140 2143 
6 247 248 1061 444 445 2076 
6 267 1045 1047 464 2060 2062 
6 246 1046 1048 443 2061 2063 
6 1019 1080 1094 2034 2095 2109 
6 1061 1027 1084 2076 2042 2099 
6 268 269 1062 465 466 2077 
6 1000 1060 1099 2015 2075 2114 
6 997 1059 1100 2012 2074 2115 
6 1077 1023 1123 2092 2038 2138 
6 1124 994 1129 2139 2009 2144 
6 1087 1011 1110 2102 2026 2125 
6 181 180 1113 378 377 2128 
6 1016 1098 1130 2031 2113 2145 
6 1098 1016 1131 2113 2031 2146 
6 1013 1074 1121 2028 2089 2136 
6 1024 1076 1125 2039 2091 2140 
6 1009 1081 1082 2024 2096 2097 
6 1072 272 1073 2087 469 2088 
6 277 1070 1071 474 2085 2086 
6 1080 1012 1094 2095 2027 2109 
6 1052 1036 1085 2067 2051 2100 
6 1037 1053 1086 2052 2068 2101 
6 1083 1022 1104 2098 2037 2119 
6 263 264 1075 460 461 2090 
6 1013 1091 1102 2028 2106 2117 
6 1014 1092 1101 2029 2107 2116 
6 1090 1015 1119 2105 2030 2134 
6 1091 1013 1118 2106 2028 2133 
6 1015 1093 1120 2030 2108 2135 
6 1056 1014 1109 2071 2029 2124 
6 182 181 1080 379 378 2095 
6 1090 1029 1101 2105 2044 2116 
6 1092 1032 1102 2107 2047 2117 
6 1025 265 1078 2040 462 2093 
6 1026 180 1079 2041 377 2094 
6 1063 1004 1112 2078 2019 2127 
6 258 259 1083 455 456 2098 
6 1040 1118 1121 2055 2133 2136 
6 1039 1119 1122 2054 2134 2137 
6 1021 1083 1104 2036 2098 2119 
6 1094 1012 1111 2109 2027 2126 
6 1049 1001 1105 2064 2016 2120 
6 1002 1050 1106 2017 2065 2121 
6 1088 1004 1115 2103 2019 2130 
6 1028 1075 1087 2043 2090 2102 
6 1022 1063 1112 2037 2078 2127 
6 1075 1011 1087 2090 2026 2102 
6 280 281 1098 477 478 2113 
6 1058 997 1111 2073 2012 2126 
6 1057 1000 1110 2072 2015 2125 
6 1047 1025 1135 2062 2040 2150 
6 1048 1026 1134 2063 2041 2149 
6 274 273 1096 471 470 2111 
6 276 275 1097 473 472 2112 
6 1036 1003 1114 2051 2018 2129 
6 1004 1037 1115 2019 2052 2130 
6 1036 249 1085 2051 446 2100 
6 262 1037 1086 459 2052 2101 
6 1070 1017 1071 2085 2032 2086 
6 1018 1072 1073 2033 2087 2088 
6 183 182 1107 380 379 2122 
6 269 270 1108 466 467 2123 
6 1023 1067 1129 2038 2082 2144 
6 1011 1057 1110 2026 2072 2125 
6 1012 1058 1111 2027 2073 2126 
6 1081 1024 1128 2096 2039 2143 
6 1059 1007 1100 2074 2022 2115 
6 1060 1008 1099 2075 2023 2114 
6 994 1123 1129 2009 2138 2144 
6 248 249 1132 445 446 2147 
6 262 263 1133 459 460 2148 
6 1125 993 1128 2140 2008 2143 
6 1003 1064 1116 2018 2079 2131 
6 42 266 1078 123 463 2093 
6 10 255 1079 91 452 2094 
6 1055 1012 1113 2070 2027 2128 
6 1004 1088 1112 2019 2103 2127 
6 260 1053 1063 457 2068 2078 
6 1015 1090 1117 2030 2105 2132 
6 1093 1015 1117 2108 2030 2132 
6 273 1033 1096 470 2048 2111 
6 1034 276 1097 2049 473 2112 
6 1052 257 1064 2067 454 2079 
6 1067 1044 1129 2082 2059 2144 
6 1076 995 1126 2091 2010 2141 
6 996 1077 1127 2011 2092 2142 
6 35 256 1085 116 453 2100 
6 261 41 1086 458 122 2101 
6 1012 1080 1113 2027 2095 2128 
6 1088 1038 1112 2103 2053 2127 
6 1034 1068 1106 2049 2083 2121 
6 1069 1033 1105 2084 2048 2120 
6 1054 1011 1103 2069 2026 2118 
6 1075 264 1103 2090 461 2118 
6 279 280 1117 476 477 2132 
6 249 1036 1132 446 2051 2147 
6 1037 262 1133 2052 459 2148 
6 1011 1075 1103 2026 2090 2118 
6 1041 1081 1128 2056 2096 2143 
6 1003 1095 1114 2018 2110 2129 
6 1036 1114 1132 2051 2129 2147 
6 1115 1037 1133 2130 2052 2148 
6 1064 1021 1116 2079 2036 2131 
6 276 1034 1050 473 2049 2065 
6 1033 273 1049 2048 470 2064 
6 1078 266 1135 2093 463 2150 
6 1079 255 1134 2094 452 2149 
6 281 1091 1130 478 2106 2145 
6 1093 280 1131 2108 477 2146 
6 1107 1019 1126 2122 2034 2141 
6 1020 1108 1127 2035 2123 2142 
6 1080 181 1113 2095 378 2128 
6 1090 279 1117 2105 476 2132 
6 280 1093 1117 477 2108 2132 
6 272 46 1073 469 127 2088 
6 47 277 1071 128 474 2086 
6 1095 1027 1114 2110 2042 2129 
6 1094 993 1125 2109 2008 2140 
6 1019 1076 1126 2034 2091 2141 
6 1077 1020 1127 2092 2035 2142 
6 1019 1094 1125 2034 2109 2140 
6 994 1089 1123 2009 2104 2138 
6 1030 1091 1118 2045 2106 2133 
6 1029 1090 1119 2044 2105 2134 
6 1093 1031 1120 2108 2046 2135 
6 1089 1020 1123 2104 2035 2138 
6 1091 1030 1130 2106 2045 2145 
6 1031 1093 1131 2046 2108 2146 
6 1065 1107 1126 2080 2122 2141 
6 1108 1066 1127 2123 2081 2142 
6 995 1065 1126 2010 2080 2141 
6 1066 996 1127 2081 2011 2142 
6 1098 281 1130 2113 478 2145 
6 280 1098 1131 477 2113 2146 
6 1020 1077 1123 2035 2092 2138 
6 1076 1019 1125 2091 2034 2140 
6 1025 1078 1135 2040 2093 2150 
6 1026 1079 1134 2041 2094 2149 
6 1065 183 1107 2080 380 2122 
6 270 1066 1108 467 2081 2123 
6 1033 1049 1105 2048 2064 2120 
6 1050 1034 1106 2065 2049 2121 
6 1114 1027 1132 2129 2042 2147 
6 1028 1115 1133 2043 2130 2148 
6 180 10 1079 377 91 2094 
6 249 35 1085 446 116 2100 
6 41 262 1086 122 459 2101 
6 265 42 1078 462 123 2093 
6 46 276 1050 127 473 2065 
6 46 1050 1073 127 2065 2088 
6 273 47 1049 470 128 2064 
6 1049 47 1071 2064 128 2086 
6 9 183 278 90 380 475 
6 44 271 270 125 468 467 
6 271 45 1072 468 126 2087 
6 48 278 1070 129 475 2085 
6 278 183 1017 475 380 2032 
6 1017 183 1065 2032 380 2080 
6 270 271 1018 467 468 2033 
6 270 1018 1066 467 2033 2081 
6 1018 271 1072 2033 468 2087 
6 278 1017 1070 475 2032 2085 
6 1001 1017 1065 2016 2032 2080 
6 1017 1001 1071 2032 2016 2086 
6 1018 1002 1066 2033 2017 2081 
6 1002 1018 1073 2017 2033 2088 
6 1150 1190 1205 2165 2205 2220 
6 1191 1151 1204 2206 2166 2219 
6 1183 1167 1250 2198 2182 2265 
6 1144 1183 1250 2159 2198 2265 
6 1190 1150 1192 2205 2165 2207 
6 1151 1191 1193 2166 2206 2208 
6 1180 1144 1250 2195 2159 2265 
6 1166 275 1210 2181 472 2225 
6 1175 1158 1187 2190 2173 2202 
6 1159 1174 1188 2174 2189 2203 
6 1176 1161 1189 2191 2176 2204 
6 1170 178 1199 2185 375 2214 
6 287 1171 1200 484 2186 2215 
6 1137 1173 1233 2152 2188 2248 
6 1151 1170 1199 2166 2185 2214 
6 1171 1150 1200 2186 2165 2215 
6 1155 1226 1227 2170 2241 2242 
6 1174 1142 1188 2189 2157 2203 
6 1145 1175 1187 2160 2190 2202 
6 1143 1176 1189 2158 2191 2204 
6 1144 1180 1206 2159 2195 2221 
6 1234 1185 1252 2249 2200 2267 
6 1184 1235 1251 2199 2250 2266 
6 1166 1180 1250 2181 2195 2265 
6 1174 1159 1244 2189 2174 2259 
6 1167 1209 1228 2182 2224 2243 
6 1161 1176 1245 2176 2191 2260 
6 1150 1171 1192 2165 2186 2207 
6 1170 1151 1193 2185 2166 2208 
6 1197 283 1230 2212 480 2245 
6 282 1198 1229 479 2213 2244 
6 1177 1144 1206 2192 2159 2221 
6 1173 1137 1232 2188 2152 2247 
6 1148 1181 1198 2163 2196 2213 
6 1182 1149 1197 2197 2164 2212 
6 1209 274 1228 2224 471 2243 
6 1139 1185 1234 2154 2200 2249 
6 1184 1138 1235 2199 2153 2250 
6 1180 1136 1206 2195 2151 2221 
6 275 1166 1228 472 2181 2243 
6 1137 1188 1232 2152 2203 2247 
6 1187 1136 1231 2202 2151 2246 
6 1232 1188 1249 2247 2203 2264 
6 1187 1231 1248 2202 2246 2263 
6 1191 1152 1208 2206 2167 2223 
6 1153 1190 1207 2168 2205 2222 
6 1206 1136 1270 2221 2151 2285 
6 60 306 1244 141 503 2259 
6 307 308 1245 504 505 2260 
6 1199 178 1247 2214 375 2262 
6 287 1200 1246 484 2215 2261 
6 308 1237 1245 505 2252 2260 
6 1238 60 1244 2253 141 2259 
6 1146 1140 1211 2161 2155 2226 
6 1141 1147 1212 2156 2162 2227 
6 1196 1155 1227 2211 2170 2242 
6 1140 1146 1254 2155 2161 2269 
6 1147 1141 1255 2162 2156 2270 
6 1153 1234 1252 2168 2249 2267 
6 1235 1152 1251 2250 2167 2266 
6 47 273 1198 128 470 2213 
6 276 46 1197 473 127 2212 
6 1140 1214 1222 2155 2229 2237 
6 1215 1141 1223 2230 2156 2238 
6 1158 1177 1206 2173 2192 2221 
6 52 289 1192 133 486 2207 
6 301 59 1193 498 140 2208 
6 1158 1175 1275 2173 2190 2290 
6 1177 1158 1276 2192 2173 2291 
6 1190 1153 1205 2205 2168 2220 
6 1152 1191 1204 2167 2206 2219 
6 54 294 1216 135 491 2231 
6 299 57 1218 496 138 2233 
6 1154 1168 1214 2169 2183 2229 
6 1169 1155 1215 2184 2170 2230 
6 1144 1177 1203 2159 2192 2218 
6 1226 1143 1227 2241 2158 2242 
6 1183 1144 1203 2198 2159 2218 
6 1148 1198 1209 2163 2213 2224 
6 46 283 1197 127 480 2212 
6 282 47 1198 479 128 2213 
6 1159 1188 1253 2174 2203 2268 
6 1136 1180 1240 2151 2195 2255 
6 1168 1154 1213 2183 2169 2228 
6 1193 59 1279 2208 140 2294 
6 52 1192 1280 133 2207 2295 
6 1197 1149 1210 2212 2164 2225 
6 1151 1199 1201 2166 2214 2216 
6 1200 1150 1202 2215 2165 2217 
6 1196 1154 1241 2211 2169 2256 
6 1155 1196 1242 2170 2211 2257 
6 1160 1186 1266 2175 2201 2281 
6 1214 1178 1241 2229 2193 2256 
6 1179 1215 1242 2194 2230 2257 
6 1155 1169 1226 2170 2184 2241 
6 1154 1214 1241 2169 2229 2256 
6 1215 1155 1242 2230 2170 2257 
6 1180 1166 1261 2195 2181 2276 
6 1164 1207 1256 2179 2222 2271 
6 1208 1165 1257 2223 2180 2272 
6 1137 1183 1253 2152 2198 2268 
6 302 1191 1208 499 2206 2223 
6 1190 290 1207 2205 487 2222 
6 1143 1189 1213 2158 2204 2228 
6 1149 1240 1261 2164 2255 2276 
6 1167 1183 1258 2182 2198 2273 
6 1188 1137 1253 2203 2152 2268 
6 1183 1137 1233 2198 2152 2248 
6 1151 1201 1204 2166 2216 2219 
6 1202 1150 1205 2217 2165 2220 
6 1186 1160 1265 2201 2175 2280 
6 1221 1172 1278 2236 2187 2293 
6 1173 1220 1277 2188 2235 2292 
6 1138 1184 1266 2153 2199 2281 
6 1185 1139 1267 2200 2154 2282 
6 1240 1180 1261 2255 2195 2276 
6 275 276 1210 472 473 2225 
6 273 274 1209 470 471 2224 
6 1231 1136 1240 2246 2151 2255 
6 1142 1174 1263 2157 2189 2278 
6 1175 1145 1264 2190 2160 2279 
6 1176 1143 1265 2191 2158 2280 
6 1189 1161 1267 2204 2176 2282 
6 1266 1186 1273 2281 2201 2288 
6 59 305 1279 140 502 2294 
6 288 52 1280 485 133 2295 
6 1186 1143 1226 2201 2158 2241 
6 1153 1207 1234 2168 2222 2249 
6 1208 1152 1235 2223 2167 2250 
6 1154 1196 1227 2169 2211 2242 
6 1188 1142 1249 2203 2157 2264 
6 1145 1187 1248 2160 2202 2263 
6 289 290 1190 486 487 2205 
6 302 301 1191 499 498 2206 
6 1207 291 1256 2222 488 2271 
6 303 1208 1257 500 2223 2272 
6 296 297 1196 493 494 2211 
6 1189 1267 1274 2204 2282 2289 
6 1220 176 1277 2235 373 2292 
6 285 1221 1278 482 2236 2293 
6 1267 1139 1274 2282 2154 2289 
6 1187 1158 1270 2202 2173 2285 
6 1172 1231 1240 2187 2246 2255 
6 1184 1142 1263 2199 2157 2278 
6 1145 1185 1264 2160 2200 2279 
6 1143 1186 1265 2158 2201 2280 
6 1138 1266 1273 2153 2281 2288 
6 1145 1202 1205 2160 2217 2220 
6 1201 1142 1204 2216 2157 2219 
6 1263 1160 1266 2278 2175 2281 
6 1161 1264 1267 2176 2279 2282 
6 296 1196 1241 493 2211 2256 
6 1196 297 1242 2211 494 2257 
6 1207 1164 1234 2222 2179 2249 
6 1165 1208 1235 2180 2223 2250 
6 178 177 1247 375 374 2262 
6 286 287 1246 483 484 2261 
6 1233 1173 1259 2248 2188 2274 
6 1159 1203 1238 2174 2218 2253 
6 1142 1184 1251 2157 2199 2266 
6 1185 1145 1252 2200 2160 2267 
6 1214 1140 1254 2229 2155 2269 
6 1141 1215 1255 2156 2230 2270 
6 1169 1269 1273 2184 2284 2288 
6 1214 1168 1222 2229 2183 2237 
6 1169 1215 1223 2184 2230 2238 
6 306 1236 1244 503 2251 2259 
6 1239 307 1245 2254 504 2260 
6 1194 1146 1217 2209 2161 2232 
6 1147 1195 1219 2162 2210 2234 
6 1268 1168 1274 2283 2183 2289 
6 1203 1177 1238 2218 2192 2253 
6 1199 1156 1201 2214 2171 2216 
6 1157 1200 1202 2172 2215 2217 
6 1136 1187 1270 2151 2202 2285 
6 289 1190 1192 486 2205 2207 
6 1191 301 1193 2206 498 2208 
6 1183 1203 1253 2198 2218 2268 
6 1143 1213 1227 2158 2228 2242 
6 290 291 1207 487 488 2222 
6 303 302 1208 500 499 2223 
6 1156 1232 1249 2171 2247 2264 
6 1231 1157 1248 2246 2172 2263 
6 1222 1168 1268 2237 2183 2283 
6 1169 1223 1269 2184 2238 2284 
6 1145 1205 1252 2160 2220 2267 
6 1204 1142 1251 2219 2157 2266 
6 1243 1158 1275 2258 2173 2290 
6 1158 1243 1276 2173 2258 2291 
6 1213 1154 1227 2228 2169 2242 
6 1216 294 1217 2231 491 2232 
6 299 1218 1219 496 2233 2234 
6 1182 1197 1230 2197 2212 2245 
6 1198 1181 1229 2213 2196 2244 
6 1167 1228 1250 2182 2243 2265 
6 177 176 1220 374 373 2235 
6 285 286 1221 482 483 2236 
6 1237 1161 1245 2252 2176 2260 
6 1159 1238 1244 2174 2253 2259 
6 1236 1160 1263 2251 2175 2278 
6 1161 1237 1264 2176 2252 2279 
6 1160 1239 1265 2175 2254 2280 
6 1236 1174 1244 2251 2189 2259 
6 1176 1239 1245 2191 2254 2260 
6 1171 287 1224 2186 484 2239 
6 178 1170 1225 375 2185 2240 
6 1148 1209 1258 2163 2224 2273 
6 274 275 1228 471 472 2243 
6 1184 1263 1266 2199 2278 2281 
6 1264 1185 1267 2279 2200 2282 
6 1228 1166 1250 2243 2181 2265 
6 1146 1194 1254 2161 2209 2269 
6 1195 1147 1255 2210 2162 2270 
6 1148 1233 1259 2163 2248 2274 
6 1172 1221 1231 2187 2236 2246 
6 1220 1173 1232 2235 2188 2247 
6 1209 1167 1258 2224 2182 2273 
6 1203 1159 1253 2218 2174 2268 
6 1221 1157 1231 2236 2172 2246 
6 1156 1220 1232 2171 2235 2247 
6 308 60 1243 505 141 2258 
6 1202 1145 1248 2217 2160 2263 
6 1142 1201 1249 2157 2216 2264 
6 1192 1171 1280 2207 2186 2295 
6 1170 1193 1279 2185 2208 2294 
6 295 296 1241 492 493 2256 
6 297 298 1242 494 495 2257 
6 1181 1148 1259 2196 2163 2274 
6 1149 1182 1260 2164 2197 2275 
6 1181 175 1229 2196 372 2244 
6 284 1182 1230 481 2197 2245 
6 1162 1216 1217 2177 2231 2232 
6 1218 1163 1219 2233 2178 2234 
6 291 292 1256 488 489 2271 
6 304 303 1257 501 500 2272 
6 1168 1213 1274 2183 2228 2289 
6 1201 1156 1249 2216 2171 2264 
6 1157 1202 1248 2172 2217 2263 
6 1269 1138 1273 2284 2153 2288 
6 1158 1206 1270 2173 2221 2285 
6 1226 1169 1273 2241 2184 2288 
6 1139 1268 1274 2154 2283 2289 
6 284 285 1278 481 482 2293 
6 176 175 1277 373 372 2292 
6 1210 1149 1261 2225 2164 2276 
6 51 288 1224 132 485 2239 
6 305 7 1225 502 88 2240 
6 1233 1148 1258 2248 2163 2273 
6 1198 273 1209 2213 470 2224 
6 1160 1236 1262 2175 2251 2277 
6 1239 1160 1262 2254 2175 2277 
6 1178 295 1241 2193 492 2256 
6 298 1179 1242 495 2194 2257 
6 276 1197 1210 473 2212 2225 
6 1152 1204 1251 2167 2219 2266 
6 1205 1153 1252 2220 2168 2267 
6 1213 1189 1274 2228 2204 2289 
6 1140 1222 1271 2155 2237 2286 
6 1223 1141 1272 2238 2156 2287 
6 8 282 1229 89 479 2244 
6 283 50 1230 480 131 2245 
6 1183 1233 1258 2198 2248 2273 
6 1178 1214 1254 2193 2229 2269 
6 1215 1179 1255 2230 2194 2270 
6 1200 1157 1246 2215 2172 2261 
6 1156 1199 1247 2171 2214 2262 
6 177 1220 1247 374 2235 2262 
6 1221 286 1246 2236 483 2261 
6 306 307 1262 503 504 2277 
6 175 1181 1277 372 2196 2292 
6 1182 284 1278 2197 481 2293 
6 1157 1221 1246 2172 2236 2261 
6 1220 1156 1247 2235 2171 2262 
6 1186 1226 1273 2201 2241 2288 
6 1240 1149 1260 2255 2164 2275 
6 1181 1259 1277 2196 2274 2292 
6 1260 1182 1278 2275 2197 2293 
6 1166 1210 1261 2181 2225 2276 
6 295 1178 1194 492 2193 2209 
6 1179 298 1195 2194 495 2210 
6 1224 288 1280 2239 485 2295 
6 305 1225 1279 502 2240 2294 
6 1237 308 1275 2252 505 2290 
6 60 1238 1276 141 2253 2291 
6 1164 1256 1271 2179 2271 2286 
6 1257 1165 1272 2272 2180 2287 
6 1236 306 1262 2251 503 2277 
6 307 1239 1262 504 2254 2277 
6 56 299 1219 137 496 2234 
6 294 55 1217 491 136 2232 
6 1172 1240 1260 2187 2255 2275 
6 1222 1164 1271 2237 2179 2286 
6 1165 1223 1272 2180 2238 2287 
6 1139 1234 1268 2154 2249 2283 
6 1235 1138 1269 2250 2153 2284 
6 1174 1236 1263 2189 2251 2278 
6 1237 1175 1264 2252 2190 2279 
6 1239 1176 1265 2254 2191 2280 
6 1234 1164 1268 2249 2179 2283 
6 1165 1235 1269 2180 2250 2284 
6 1175 1237 1275 2190 2252 2290 
6 1238 1177 1276 2253 2192 2291 
6 1256 1211 1271 2271 2226 2286 
6 1212 1257 1272 2227 2272 2287 
6 1211 1140 1271 2226 2155 2286 
6 1141 1212 1272 2156 2227 2287 
6 308 1243 1275 505 2258 2290 
6 1243 60 1276 2258 141 2291 
6 1164 1222 1268 2179 2237 2283 
6 1223 1165 1269 2238 2180 2284 
6 1225 1170 1279 2240 2185 2294 
6 1171 1224 1280 2186 2239 2295 
6 292 1211 1256 489 2226 2271 
6 1212 304 1257 2227 501 2272 
6 1194 1178 1254 2209 2193 2269 
6 1179 1195 1255 2194 2210 2270 
6 1259 1173 1277 2274 2188 2292 
6 1172 1260 1278 2187 2275 2293 
6 7 178 1225 88 375 2240 
6 175 8 1229 372 89 2244 
6 50 284 1230 131 481 2245 
6 287 51 1224 484 132 2239 
6 55 295 1194 136 492 2209 
6 55 1194 1217 136 2209 2232 
6 298 56 1195 495 137 2210 
6 1195 56 1219 2210 137 2234 
6 53 293 292 134 490 489 
6 293 54 1216 490 135 2231 
6 57 300 1218 138 497 2233 
6 58 304 300 139 501 497 
6 292 293 1162 489 490 2177 
6 292 1162 1211 489 2177 2226 
6 1162 293 1216 2177 490 2231 
6 300 304 1163 497 501 2178 
6 300 1163 1218 497 2178 2233 
6 1163 304 1212 2178 501 2227 
6 1162 1146 1211 2177 2161 2226 
6 1146 1162 1217 2161 2177 2232 
6 1147 1163 1212 2162 2178 2227 
6 1163 1147 1219 2178 2162 2234 
6 1374 1333 1389 2389 2348 2404 
6 1295 1335 1350 2310 2350 2365 
6 1296 1336 1349 2311 2351 2364 
6 1328 1312 1394 2343 2327 2409 
6 1289 1328 1394 2304 2343 2409 
6 1335 1295 1337 2350 2310 2352 
6 1336 1296 1338 2351 2311 2353 
6 1325 1289 1394 2340 2304 2409 
6 1311 170 1355 2326 367 2370 
6 1305 1319 1333 2320 2334 2348 
6 1320 1303 1332 2335 2318 2347 
6 1321 1306 1334 2336 2321 2349 
6 304 1315 1344 501 2330 2359 
6 326 1316 1345 523 2331 2360 
6 1297 1374 1389 2312 2389 2404 
6 1297 1336 1351 2312 2351 2366 
6 1315 1295 1344 2330 2310 2359 
6 1316 1296 1345 2331 2311 2360 
6 1358 1300 1372 2373 2315 2387 
6 1319 1287 1333 2334 2302 2348 
6 1290 1320 1332 2305 2335 2347 
6 1288 1321 1334 2303 2336 2349 
6 1283 1333 1374 2298 2348 2389 
6 1289 1325 1352 2304 2340 2367 
6 1283 1374 1378 2298 2389 2393 
6 1379 1330 1395 2394 2345 2410 
6 1311 1325 1394 2326 2340 2409 
6 1319 1305 1390 2334 2320 2405 
6 1312 1354 1373 2327 2369 2388 
6 1306 1321 1391 2321 2336 2406 
6 1295 1315 1337 2310 2330 2352 
6 1296 1316 1338 2311 2331 2353 
6 332 1343 1375 529 2358 2390 
6 1342 309 1376 2357 506 2391 
6 1322 1289 1352 2337 2304 2367 
6 1374 1318 1378 2389 2333 2393 
6 1293 1327 1343 2308 2342 2358 
6 1326 1294 1342 2341 2309 2357 
6 1354 171 1373 2369 368 2388 
6 1284 1330 1379 2299 2345 2394 
6 1325 1281 1352 2340 2296 2367 
6 170 1311 1373 367 2326 2388 
6 1332 1281 1377 2347 2296 2392 
6 1332 1377 1393 2347 2392 2408 
6 1298 1335 1353 2313 2350 2368 
6 1352 1281 1414 2367 2296 2429 
6 71 333 1390 152 530 2405 
6 334 335 1391 531 532 2406 
6 304 1344 1392 501 2359 2407 
6 335 1381 1391 532 2396 2406 
6 1382 71 1390 2397 152 2405 
6 1285 1291 1356 2300 2306 2371 
6 1292 1286 1357 2307 2301 2372 
6 1300 1341 1372 2315 2356 2387 
6 1291 1285 1397 2306 2300 2412 
6 1286 1292 1398 2301 2307 2413 
6 1298 1379 1395 2313 2394 2410 
6 4 172 1343 85 369 2358 
6 169 5 1342 366 86 2357 
6 1359 1285 1366 2374 2300 2381 
6 1286 1360 1367 2301 2375 2382 
6 1303 1322 1352 2318 2337 2367 
6 69 331 1338 150 528 2353 
6 61 311 1337 142 508 2352 
6 1329 1282 1384 2344 2297 2399 
6 1303 1320 1420 2318 2335 2435 
6 1322 1303 1421 2337 2318 2436 
6 1335 1298 1350 2350 2313 2365 
6 1336 1297 1349 2351 2312 2364 
6 321 66 1361 518 147 2376 
6 63 316 1363 144 513 2378 
6 1336 330 1351 2351 527 2366 
6 1313 1299 1359 2328 2314 2374 
6 1300 1314 1360 2315 2329 2375 
6 1318 1351 1422 2333 2366 2437 
6 326 1345 1403 523 2360 2418 
6 1289 1322 1348 2304 2337 2363 
6 1328 1289 1348 2343 2304 2363 
6 1293 1343 1354 2308 2358 2369 
6 5 309 1342 86 506 2357 
6 332 4 1343 529 85 2358 
6 1305 1333 1396 2320 2348 2411 
6 1281 1325 1385 2296 2340 2400 
6 1314 1300 1358 2329 2315 2373 
6 61 1337 1424 142 2352 2439 
6 69 1338 1425 150 2353 2440 
6 1342 1294 1355 2357 2309 2370 
6 1344 1295 1346 2359 2310 2361 
6 1345 1296 1347 2360 2311 2362 
6 1299 1341 1386 2314 2356 2401 
6 1341 1300 1387 2356 2315 2402 
6 1304 1331 1411 2319 2346 2426 
6 1288 1358 1372 2303 2373 2387 
6 1323 1359 1386 2338 2374 2401 
6 1360 1324 1387 2375 2339 2402 
6 1299 1313 1371 2314 2328 2386 
6 1329 1384 1401 2344 2399 2416 
6 1359 1299 1386 2374 2314 2401 
6 1300 1360 1387 2315 2375 2402 
6 1325 1311 1406 2340 2326 2421 
6 1310 1353 1400 2325 2368 2415 
6 1283 1328 1396 2298 2343 2411 
6 1351 329 1422 2366 526 2437 
6 1335 312 1353 2350 509 2368 
6 1288 1334 1358 2303 2349 2373 
6 1294 1385 1406 2309 2400 2421 
6 1312 1328 1402 2327 2343 2417 
6 1333 1283 1396 2348 2298 2411 
6 1328 1283 1378 2343 2298 2393 
6 1347 1296 1349 2362 2311 2364 
6 1346 1295 1350 2361 2310 2365 
6 1331 1304 1410 2346 2319 2425 
6 1365 1317 1423 2380 2332 2438 
6 1282 1329 1411 2297 2344 2426 
6 1330 1284 1412 2345 2299 2427 
6 1385 1325 1406 2400 2340 2421 
6 170 169 1355 367 366 2370 
6 172 171 1354 369 368 2369 
6 1333 1287 1389 2348 2302 2404 
6 1377 1281 1385 2392 2296 2400 
6 1287 1319 1409 2302 2334 2424 
6 1320 1290 1408 2335 2305 2423 
6 1321 1288 1410 2336 2303 2425 
6 1334 1306 1412 2349 2321 2427 
6 1411 1331 1418 2426 2346 2433 
6 310 61 1424 507 142 2439 
6 327 69 1425 524 150 2440 
6 1331 1288 1371 2346 2303 2386 
6 1298 1353 1379 2313 2368 2394 
6 1341 1299 1372 2356 2314 2387 
6 1290 1332 1393 2305 2347 2408 
6 311 312 1335 508 509 2350 
6 331 330 1336 528 527 2351 
6 1370 1309 1399 2385 2324 2414 
6 1353 313 1400 2368 510 2415 
6 1297 1351 1374 2312 2366 2389 
6 318 319 1341 515 516 2356 
6 1334 1412 1419 2349 2427 2434 
6 302 1365 1423 499 2380 2438 
6 1412 1284 1419 2427 2299 2434 
6 1332 1303 1414 2347 2318 2429 
6 1317 1377 1385 2332 2392 2400 
6 1329 1287 1409 2344 2302 2424 
6 1290 1330 1408 2305 2345 2423 
6 1288 1331 1410 2303 2346 2425 
6 1282 1411 1418 2297 2426 2433 
6 1290 1346 1350 2305 2361 2365 
6 1287 1347 1349 2302 2362 2364 
6 1409 1304 1411 2424 2319 2426 
6 1306 1408 1412 2321 2423 2427 
6 1341 319 1386 2356 516 2401 
6 318 1341 1387 515 2356 2402 
6 1353 1310 1379 2368 2325 2394 
6 303 304 1392 500 501 2407 
6 1378 1318 1405 2393 2333 2420 
6 1305 1348 1382 2320 2363 2397 
6 1330 1290 1395 2345 2305 2410 
6 1285 1359 1397 2300 2374 2412 
6 1360 1286 1398 2375 2301 2413 
6 1313 1359 1366 2328 2374 2381 
6 1360 1314 1367 2375 2329 2382 
6 333 1380 1390 530 2395 2405 
6 1383 334 1391 2398 531 2406 
6 1287 1329 1401 2302 2344 2416 
6 1291 1339 1362 2306 2354 2377 
6 1340 1292 1364 2355 2307 2379 
6 1413 1314 1419 2428 2329 2434 
6 1348 1322 1382 2363 2337 2397 
6 1371 1288 1372 2386 2303 2387 
6 1301 1344 1346 2316 2359 2361 
6 1302 1345 1347 2317 2360 2362 
6 1281 1332 1414 2296 2347 2429 
6 324 1370 1399 521 2385 2414 
6 1313 1415 1418 2328 2430 2433 
6 330 329 1351 527 526 2366 
6 311 1335 1337 508 2350 2352 
6 331 1336 1338 528 2351 2353 
6 1309 1370 1384 2324 2385 2399 
6 1351 1318 1374 2366 2333 2389 
6 1328 1348 1396 2343 2363 2411 
6 312 313 1353 509 510 2368 
6 1377 1301 1393 2392 2316 2408 
6 1287 1349 1389 2302 2364 2404 
6 1367 1314 1413 2382 2329 2428 
6 1290 1350 1395 2305 2365 2410 
6 325 326 1403 522 523 2418 
6 1388 1303 1420 2403 2318 2435 
6 1303 1388 1421 2318 2403 2436 
6 1313 1366 1415 2328 2381 2430 
6 1299 1371 1372 2314 2386 2387 
6 321 1361 1362 518 2376 2377 
6 1363 316 1364 2378 513 2379 
6 1370 1302 1384 2385 2317 2399 
6 1343 1327 1375 2358 2342 2390 
6 1326 1342 1376 2341 2357 2391 
6 1312 1373 1394 2327 2388 2409 
6 302 303 1365 499 500 2380 
6 1381 1306 1391 2396 2321 2406 
6 1305 1382 1390 2320 2397 2405 
6 1380 1304 1409 2395 2319 2424 
6 1306 1381 1408 2321 2396 2423 
6 1304 1383 1410 2319 2398 2425 
6 324 325 1370 521 522 2385 
6 1380 1319 1390 2395 2334 2405 
6 1321 1383 1391 2336 2398 2406 
6 1315 304 1368 2330 501 2383 
6 1316 326 1369 2331 523 2384 
6 1293 1354 1402 2308 2369 2417 
6 171 170 1373 368 367 2388 
6 1408 1330 1412 2423 2345 2427 
6 1329 1409 1411 2344 2424 2426 
6 1373 1311 1394 2388 2326 2409 
6 1384 1302 1401 2399 2317 2416 
6 1339 1291 1397 2354 2306 2412 
6 1292 1340 1398 2307 2355 2413 
6 1293 1378 1405 2308 2393 2420 
6 1317 1365 1377 2332 2380 2392 
6 1354 1312 1402 2369 2327 2417 
6 1348 1305 1396 2363 2320 2411 
6 1365 1301 1377 2380 2316 2392 
6 335 71 1388 532 152 2403 
6 1346 1290 1393 2361 2305 2408 
6 1347 1287 1401 2362 2302 2416 
6 1337 1315 1424 2352 2330 2439 
6 1338 1316 1425 2353 2331 2440 
6 319 320 1386 516 517 2401 
6 317 318 1387 514 515 2402 
6 1327 1293 1405 2342 2308 2420 
6 1294 1326 1404 2309 2341 2419 
6 1327 328 1375 2342 525 2390 
6 301 1326 1376 498 2341 2391 
6 1361 1307 1362 2376 2322 2377 
6 1308 1363 1364 2323 2378 2379 
6 323 324 1399 520 521 2414 
6 313 314 1400 510 511 2415 
6 1314 1358 1419 2329 2373 2434 
6 1301 1346 1393 2316 2361 2408 
6 1302 1347 1401 2317 2362 2416 
6 1303 1352 1414 2318 2367 2429 
6 1371 1313 1418 2386 2328 2433 
6 1349 1297 1389 2364 2312 2404 
6 1284 1413 1419 2299 2428 2434 
6 301 302 1423 498 499 2438 
6 329 328 1422 526 525 2437 
6 1415 1282 1418 2430 2297 2433 
6 1355 1294 1406 2370 2309 2421 
6 58 310 1368 139 507 2383 
6 68 327 1369 149 524 2384 
6 1345 1302 1403 2360 2317 2418 
6 1378 1293 1402 2393 2308 2417 
6 1343 172 1354 2358 369 2369 
6 1304 1380 1407 2319 2395 2422 
6 1383 1304 1407 2398 2319 2422 
6 320 1323 1386 517 2338 2401 
6 1324 317 1387 2339 514 2402 
6 169 1342 1355 366 2357 2370 
6 1350 1298 1395 2365 2313 2410 
6 1358 1334 1419 2373 2349 2434 
6 1366 1285 1416 2381 2300 2431 
6 1286 1367 1417 2301 2382 2432 
6 70 332 1375 151 529 2390 
6 309 59 1376 506 140 2391 
6 1302 1370 1403 2317 2385 2418 
6 1328 1378 1402 2343 2393 2417 
6 1359 1323 1397 2374 2338 2412 
6 1324 1360 1398 2339 2375 2413 
6 1344 1301 1392 2359 2316 2407 
6 1365 303 1392 2380 500 2407 
6 333 334 1407 530 531 2422 
6 328 1327 1422 525 2342 2437 
6 1326 301 1423 2341 498 2438 
6 1301 1365 1392 2316 2380 2407 
6 1331 1371 1418 2346 2386 2433 
6 1385 1294 1404 2400 2309 2419 
6 1327 1405 1422 2342 2420 2437 
6 1404 1326 1423 2419 2341 2438 
6 1311 1355 1406 2326 2370 2421 
6 1323 320 1339 2338 517 2354 
6 317 1324 1340 514 2339 2355 
6 1368 310 1424 2383 507 2439 
6 1369 327 1425 2384 524 2440 
6 1381 335 1420 2396 532 2435 
6 71 1382 1421 152 2397 2436 
6 1399 1309 1416 2414 2324 2431 
6 1310 1400 1417 2325 2415 2432 
6 1370 325 1403 2385 522 2418 
6 1380 333 1407 2395 530 2422 
6 334 1383 1407 531 2398 2422 
6 316 64 1364 513 145 2379 
6 65 321 1362 146 518 2377 
6 1317 1385 1404 2332 2400 2419 
6 1384 1282 1415 2399 2297 2430 
6 1309 1366 1416 2324 2381 2431 
6 1367 1310 1417 2382 2325 2432 
6 1309 1384 1415 2324 2399 2430 
6 1284 1379 1413 2299 2394 2428 
6 1319 1380 1409 2334 2395 2424 
6 1381 1320 1408 2396 2335 2423 
6 1383 1321 1410 2398 2336 2425 
6 1379 1310 1413 2394 2325 2428 
6 1320 1381 1420 2335 2396 2435 
6 1382 1322 1421 2397 2337 2436 
6 1356 1399 1416 2371 2414 2431 
6 1400 1357 1417 2415 2372 2432 
6 1285 1356 1416 2300 2371 2431 
6 1357 1286 1417 2372 2301 2432 
6 335 1388 1420 532 2403 2435 
6 1388 71 1421 2403 152 2436 
6 1310 1367 1413 2325 2382 2428 
6 1366 1309 1415 2381 2324 2430 
6 1315 1368 1424 2330 2383 2439 
6 1316 1369 1425 2331 2384 2440 
6 1356 323 1399 2371 520 2414 
6 314 1357 1400 511 2372 2415 
6 1323 1339 1397 2338 2354 2412 
6 1340 1324 1398 2355 2339 2413 
6 1317 1404 1423 2332 2419 2438 
6 1405 1318 1422 2420 2333 2437 
6 304 58 1368 501 139 2383 
6 59 301 1376 140 498 2391 
6 64 317 1340 145 514 2355 
6 64 1340 1364 145 2355 2379 
6 320 65 1339 517 146 2354 
6 1339 65 1362 2354 146 2377 
6 326 68 1369 523 149 2384 
6 328 70 1375 525 151 2390 
6 62 315 314 143 512 511 
6 315 63 1363 512 144 2378 
6 66 322 1361 147 519 2376 
6 67 323 322 148 520 519 
6 314 315 1308 511 512 2323 
6 314 1308 1357 511 2323 2372 
6 1308 315 1363 2323 512 2378 
6 322 323 1307 519 520 2322 
6 322 1307 1361 519 2322 2376 
6 1307 323 1356 2322 520 2371 
6 1291 1307 1356 2306 2322 2371 
6 1307 1291 1362 2322 2306 2377 
6 1308 1292 1357 2323 2307 2372 
6 1292 1308 1364 2307 2323 2379 
6 1519 1478 1534 2534 2493 2549 
6 1440 1480 1495 2455 2495 2510 
6 1441 1481 1494 2456 2496 2509 
6 1473 1457 1539 2488 2472 2554 
6 1434 1473 1539 2449 2488 2554 
6 1480 1440 1483 2495 2455 2498 
6 1481 1441 1482 2496 2456 2497 
6 1470 1434 1539 2485 2449 2554 
6 1456 200 1500 2471 397 2515 
6 1449 1464 1478 2464 2479 2493 
6 1465 1448 1477 2480 2463 2492 
6 1466 1451 1479 2481 2466 2494 
6 163 1460 1489 360 2475 2504 
6 348 1461 1490 545 2476 2505 
6 1442 1519 1534 2457 2534 2549 
6 1442 1481 1496 2457 2496 2511 
6 1461 1441 1490 2476 2456 2505 
6 1460 1440 1489 2475 2455 2504 
6 1445 1516 1517 2460 2531 2532 
6 1464 1432 1478 2479 2447 2493 
6 1435 1465 1477 2450 2480 2492 
6 1433 1466 1479 2448 2481 2494 
6 1427 1478 1519 2442 2493 2534 
6 1434 1470 1497 2449 2485 2512 
6 1427 1519 1523 2442 2534 2538 
6 1524 1475 1540 2539 2490 2555 
6 1456 1470 1539 2471 2485 2554 
6 1464 1449 1535 2479 2464 2550 
6 1457 1499 1518 2472 2514 2533 
6 1451 1466 1536 2466 2481 2551 
6 1440 1460 1483 2455 2475 2498 
6 1441 1461 1482 2456 2476 2497 
6 1487 355 1521 2502 552 2536 
6 354 1488 1520 551 2503 2535 
6 1467 1434 1497 2482 2449 2512 
6 1519 1463 1523 2534 2478 2538 
6 1438 1471 1488 2453 2486 2503 
6 1472 1439 1487 2487 2454 2502 
6 1499 201 1518 2514 398 2533 
6 1429 1475 1524 2444 2490 2539 
6 1470 1426 1497 2485 2441 2512 
6 200 1456 1518 397 2471 2533 
6 1477 1426 1522 2492 2441 2537 
6 1477 1522 1538 2492 2537 2553 
6 1443 1480 1498 2458 2495 2513 
6 1497 1426 1559 2512 2441 2574 
6 80 356 1535 161 553 2550 
6 357 358 1536 554 555 2551 
6 163 1489 1537 360 2504 2552 
6 358 1526 1536 555 2541 2551 
6 1527 80 1535 2542 161 2550 
6 1436 1430 1501 2451 2445 2516 
6 1431 1437 1502 2446 2452 2517 
6 1486 1445 1517 2501 2460 2532 
6 1430 1436 1542 2445 2451 2557 
6 1437 1431 1543 2452 2446 2558 
6 1443 1524 1540 2458 2539 2555 
6 199 16 1487 396 97 2502 
6 17 202 1488 98 399 2503 
6 1430 1504 1511 2445 2519 2526 
6 1505 1431 1512 2520 2446 2527 
6 1448 1467 1497 2463 2482 2512 
6 70 328 1483 151 525 2498 
6 78 350 1482 159 547 2497 
6 1474 1428 1529 2489 2443 2544 
6 1448 1465 1565 2463 2480 2580 
6 1467 1448 1566 2482 2463 2581 
6 1480 1443 1495 2495 2458 2510 
6 1481 1442 1494 2496 2457 2509 
6 72 338 1506 153 535 2521 
6 343 75 1508 540 156 2523 
6 1481 351 1496 2496 548 2511 
6 1444 1458 1504 2459 2473 2519 
6 1459 1445 1505 2474 2460 2520 
6 1463 1496 1567 2478 2511 2582 
6 348 1490 1548 545 2505 2563 
6 1434 1467 1493 2449 2482 2508 
6 1516 1433 1517 2531 2448 2532 
6 1473 1434 1493 2488 2449 2508 
6 1438 1488 1499 2453 2503 2514 
6 354 17 1488 551 98 2503 
6 16 355 1487 97 552 2502 
6 1449 1478 1541 2464 2493 2556 
6 1426 1470 1530 2441 2485 2545 
6 1458 1444 1503 2473 2459 2518 
6 78 1482 1569 159 2497 2584 
6 70 1483 1570 151 2498 2585 
6 1487 1439 1500 2502 2454 2515 
6 1489 1440 1491 2504 2455 2506 
6 1490 1441 1492 2505 2456 2507 
6 1486 1444 1531 2501 2459 2546 
6 1445 1486 1532 2460 2501 2547 
6 1450 1476 1556 2465 2491 2571 
6 1504 1468 1531 2519 2483 2546 
6 1469 1505 1532 2484 2520 2547 
6 1445 1459 1516 2460 2474 2531 
6 1474 1529 1546 2489 2544 2561 
6 1444 1504 1531 2459 2519 2546 
6 1505 1445 1532 2520 2460 2547 
6 1470 1456 1551 2485 2471 2566 
6 1454 1498 1544 2469 2513 2559 
6 1427 1473 1541 2442 2488 2556 
6 1496 352 1567 2511 549 2582 
6 1480 329 1498 2495 526 2513 
6 1433 1479 1503 2448 2494 2518 
6 1439 1530 1551 2454 2545 2566 
6 1457 1473 1547 2472 2488 2562 
6 1478 1427 1541 2493 2442 2556 
6 1473 1427 1523 2488 2442 2538 
6 1492 1441 1494 2507 2456 2509 
6 1491 1440 1495 2506 2455 2510 
6 1476 1450 1555 2491 2465 2570 
6 1510 1462 1568 2525 2477 2583 
6 1428 1474 1556 2443 2489 2571 
6 1475 1429 1557 2490 2444 2572 
6 1530 1470 1551 2545 2485 2566 
6 200 199 1500 397 396 2515 
6 202 201 1499 399 398 2514 
6 1478 1432 1534 2493 2447 2549 
6 1522 1426 1530 2537 2441 2545 
6 1432 1464 1553 2447 2479 2568 
6 1465 1435 1554 2480 2450 2569 
6 1466 1433 1555 2481 2448 2570 
6 1479 1451 1557 2494 2466 2572 
6 1556 1476 1563 2571 2491 2578 
6 349 78 1569 546 159 2584 
6 336 70 1570 533 151 2585 
6 1476 1433 1516 2491 2448 2531 
6 1443 1498 1524 2458 2513 2539 
6 1444 1486 1517 2459 2501 2532 
6 1435 1477 1538 2450 2492 2553 
6 350 351 1481 547 548 2496 
6 328 329 1480 525 526 2495 
6 1515 1455 1545 2530 2470 2560 
6 1498 330 1544 2513 527 2559 
6 1442 1496 1519 2457 2511 2534 
6 340 341 1486 537 538 2501 
6 1479 1557 1564 2494 2572 2579 
6 165 1510 1568 362 2525 2583 
6 1557 1429 1564 2572 2444 2579 
6 1477 1448 1559 2492 2463 2574 
6 1462 1522 1530 2477 2537 2545 
6 1474 1432 1553 2489 2447 2568 
6 1435 1475 1554 2450 2490 2569 
6 1433 1476 1555 2448 2491 2570 
6 1428 1556 1563 2443 2571 2578 
6 1432 1492 1494 2447 2507 2509 
6 1435 1491 1495 2450 2506 2510 
6 1553 1450 1556 2568 2465 2571 
6 1451 1554 1557 2466 2569 2572 
6 340 1486 1531 537 2501 2546 
6 1486 341 1532 2501 538 2547 
6 1498 1454 1524 2513 2469 2539 
6 164 163 1537 361 360 2552 
6 1523 1463 1550 2538 2478 2565 
6 1449 1493 1527 2464 2508 2542 
6 1475 1435 1540 2490 2450 2555 
6 1504 1430 1542 2519 2445 2557 
6 1431 1505 1543 2446 2520 2558 
6 1504 1458 1511 2519 2473 2526 
6 1459 1505 1512 2474 2520 2527 
6 356 1525 1535 553 2540 2550 
6 1528 357 1536 2543 554 2551 
6 1432 1474 1546 2447 2489 2561 
6 1484 1436 1507 2499 2451 2522 
6 1437 1485 1509 2452 2500 2524 
6 1558 1458 1564 2573 2473 2579 
6 1493 1467 1527 2508 2482 2542 
6 1446 1489 1491 2461 2504 2506 
6 1447 1490 1492 2462 2505 2507 
6 1426 1477 1559 2441 2492 2574 
6 346 1515 1545 543 2530 2560 
6 1459 1560 1563 2474 2575 2578 
6 351 352 1496 548 549 2511 
6 328 1480 1483 525 2495 2498 
6 350 1481 1482 547 2496 2497 
6 1455 1515 1529 2470 2530 2544 
6 1496 1463 1519 2511 2478 2534 
6 1473 1493 1541 2488 2508 2556 
6 1433 1503 1517 2448 2518 2532 
6 329 330 1498 526 527 2513 
6 1522 1446 1538 2537 2461 2553 
6 1432 1494 1534 2447 2509 2549 
6 1511 1458 1558 2526 2473 2573 
6 1435 1495 1540 2450 2510 2555 
6 347 348 1548 544 545 2563 
6 1533 1448 1565 2548 2463 2580 
6 1448 1533 1566 2463 2548 2581 
6 1503 1444 1517 2518 2459 2532 
6 1459 1512 1560 2474 2527 2575 
6 1506 338 1507 2521 535 2522 
6 343 1508 1509 540 2523 2524 
6 1515 1447 1529 2530 2462 2544 
6 1472 1487 1521 2487 2502 2536 
6 1488 1471 1520 2503 2486 2535 
6 1457 1518 1539 2472 2533 2554 
6 165 164 1510 362 361 2525 
6 1526 1451 1536 2541 2466 2551 
6 1449 1527 1535 2464 2542 2550 
6 1525 1450 1553 2540 2465 2568 
6 1451 1526 1554 2466 2541 2569 
6 1450 1528 1555 2465 2543 2570 
6 346 347 1515 543 544 2530 
6 1525 1464 1535 2540 2479 2550 
6 1466 1528 1536 2481 2543 2551 
6 1461 348 1514 2476 545 2529 
6 1460 163 1513 2475 360 2528 
6 1438 1499 1547 2453 2514 2562 
6 201 200 1518 398 397 2533 
6 1474 1553 1556 2489 2568 2571 
6 1554 1475 1557 2569 2490 2572 
6 1518 1456 1539 2533 2471 2554 
6 1529 1447 1546 2544 2462 2561 
6 1436 1484 1542 2451 2499 2557 
6 1485 1437 1543 2500 2452 2558 
6 1438 1523 1550 2453 2538 2565 
6 1462 1510 1522 2477 2525 2537 
6 1499 1457 1547 2514 2472 2562 
6 1493 1449 1541 2508 2464 2556 
6 1510 1446 1522 2525 2461 2537 
6 358 80 1533 555 161 2548 
6 1491 1435 1538 2506 2450 2553 
6 1492 1432 1546 2507 2447 2561 
6 1482 1461 1569 2497 2476 2584 
6 1483 1460 1570 2498 2475 2585 
6 339 340 1531 536 537 2546 
6 341 342 1532 538 539 2547 
6 1471 1438 1550 2486 2453 2565 
6 1439 1472 1549 2454 2487 2564 
6 1471 353 1520 2486 550 2535 
6 166 1472 1521 363 2487 2536 
6 1452 1506 1507 2467 2521 2522 
6 1508 1453 1509 2523 2468 2524 
6 330 331 1544 527 528 2559 
6 345 346 1545 542 543 2560 
6 1458 1503 1564 2473 2518 2579 
6 1446 1491 1538 2461 2506 2553 
6 1447 1492 1546 2462 2507 2561 
6 1448 1497 1559 2463 2512 2574 
6 1516 1459 1563 2531 2474 2578 
6 1494 1442 1534 2509 2457 2549 
6 1429 1558 1564 2444 2573 2579 
6 352 353 1567 549 550 2582 
6 166 165 1568 363 362 2583 
6 1560 1428 1563 2575 2443 2578 
6 1500 1439 1551 2515 2454 2566 
6 2 336 1513 83 533 2528 
6 77 349 1514 158 546 2529 
6 1490 1447 1548 2505 2462 2563 
6 1523 1438 1547 2538 2453 2562 
6 1488 202 1499 2503 399 2514 
6 1450 1525 1552 2465 2540 2567 
6 1528 1450 1552 2543 2465 2567 
6 1468 339 1531 2483 536 2546 
6 342 1469 1532 539 2484 2547 
6 199 1487 1500 396 2502 2515 
6 1495 1443 1540 2510 2458 2555 
6 1503 1479 1564 2518 2494 2579 
6 1430 1511 1561 2445 2526 2576 
6 1512 1431 1562 2527 2446 2577 
6 355 0 1521 552 81 2536 
6 79 354 1520 160 551 2535 
6 1447 1515 1548 2462 2530 2563 
6 1473 1523 1547 2488 2538 2562 
6 1468 1504 1542 2483 2519 2557 
6 1505 1469 1543 2520 2484 2558 
6 1489 1446 1537 2504 2461 2552 
6 1510 164 1537 2525 361 2552 
6 356 357 1552 553 554 2567 
6 353 1471 1567 550 2486 2582 
6 1472 166 1568 2487 363 2583 
6 1446 1510 1537 2461 2525 2552 
6 1476 1516 1563 2491 2531 2578 
6 1530 1439 1549 2545 2454 2564 
6 1471 1550 1567 2486 2565 2582 
6 1549 1472 1568 2564 2487 2583 
6 1456 1500 1551 2471 2515 2566 
6 339 1468 1484 536 2483 2499 
6 1469 342 1485 2484 539 2500 
6 1513 336 1570 2528 533 2585 
6 1514 349 1569 2529 546 2584 
6 1526 358 1565 2541 555 2580 
6 80 1527 1566 161 2542 2581 
6 1454 1544 1561 2469 2559 2576 
6 1545 1455 1562 2560 2470 2577 
6 1515 347 1548 2530 544 2563 
6 1525 356 1552 2540 553 2567 
6 357 1528 1552 554 2543 2567 
6 74 343 1509 155 540 2524 
6 338 73 1507 535 154 2522 
6 1462 1530 1549 2477 2545 2564 
6 1529 1428 1560 2544 2443 2575 
6 1511 1454 1561 2526 2469 2576 
6 1455 1512 1562 2470 2527 2577 
6 1455 1529 1560 2470 2544 2575 
6 1429 1524 1558 2444 2539 2573 
6 1464 1525 1553 2479 2540 2568 
6 1526 1465 1554 2541 2480 2569 
6 1528 1466 1555 2543 2481 2570 
6 1524 1454 1558 2539 2469 2573 
6 1465 1526 1565 2480 2541 2580 
6 1527 1467 1566 2542 2482 2581 
6 1544 1501 1561 2559 2516 2576 
6 1502 1545 1562 2517 2560 2577 
6 1501 1430 1561 2516 2445 2576 
6 1431 1502 1562 2446 2517 2577 
6 358 1533 1565 555 2548 2580 
6 1533 80 1566 2548 161 2581 
6 1454 1511 1558 2469 2526 2573 
6 1512 1455 1560 2527 2470 2575 
6 1460 1513 1570 2475 2528 2585 
6 1461 1514 1569 2476 2529 2584 
6 331 1501 1544 528 2516 2559 
6 1502 345 1545 2517 542 2560 
6 1484 1468 1542 2499 2483 2557 
6 1469 1485 1543 2484 2500 2558 
6 1550 1463 1567 2565 2478 2582 
6 1462 1549 1568 2477 2564 2583 
6 0 166 1521 81 363 2536 
6 163 2 1513 360 83 2528 
6 73 339 1484 154 536 2499 
6 73 1484 1507 154 2499 2522 
6 342 74 1485 539 155 2500 
6 1485 74 1509 2500 155 2524 
6 348 77 1514 545 158 2529 
6 353 79 1520 550 160 2535 
6 69 337 331 150 534 528 
6 337 72 1506 534 153 2521 
6 75 344 1508 156 541 2523 
6 76 345 344 157 542 541 
6 331 337 1452 528 534 2467 
6 331 1452 1501 528 2467 2516 
6 1452 337 1506 2467 534 2521 
6 344 345 1453 541 542 2468 
6 344 1453 1508 541 2468 2523 
6 1453 345 1502 2468 542 2517 
6 1452 1436 1501 2467 2451 2516 
6 1436 1452 1507 2451 2467 2522 
6 1437 1453 1502 2452 2468 2517 
6 1453 1437 1509 2468 2452 2524 

CELL_TYPES 2380
13
13
13
13
13
13
13
13
13
13
13
13
13
13
13
13
13
13
13
13
13
13
13
13
13
13
13
13
13
13
13
13
13
13
13
13
13
13
13
13
13
13
13
13
13
13
13
13
13
13
13
13
13
13
13
13
13
13
13
13
13
13
13
13
13
13
13
13
13
13
13
13
13
13
13
13
13
13
13
13
13
13
13
13
13
13
13
13
13
13
13
13
13
13
13
13
13
13
13
13
13
13
13
13
13
13
13
13
13
13
13
13
13
13
13
13
13
13
13
13
13
13
13
13
13
13
13
13
13
13
13
13
13
13
13
13
13
13
13
13
13
13
13
13
13
13
13
13
13
13
13
13
13
13
13
13
13
13
13
13
13
13
13
13
13
13
13
13
13
13
13
13
13
13
13
13
13
13
13
13
13
13
13
13
13
13
13
13
13
13
13
13
13
13
13
13
13
13
13
13
13
13
13
13
13
13
13
13
13
13
13
13
13
13
13
13
13
13
13
13
13
13
13
13
13
13
13
13
13
13
13
13
13
13
13
13
13
13
13
13
13
13
13
13
13
13
13
13
13
13
13
13
13
13
13
13
13
13
13
13
13
13
13
13
13
13
13
13
13
13
13
13
13
13
13
13
13
13
13
13
13
13
13
13
13
13
13
13
13
13
13
13
13
13
13
13
13
13
13
13
13
13
13
13
13
13
13
13
13
13
13
13
13
13
13
13
13
13
13
13
13
13
13
13
13
13
13
13
13
13
13
13
13
13
13
13
13
13
13
13
13
13
13
13
13
13
13
13
13
13
13
13
13
13
13
13
13
13
13
13
13
13
13
13
13
13
13
13
13
13
13
13
13
13
13
13
13
13
13
13
13
13
13
13
13
13
13
13
13
13
13
13
13
13
13
13
13
13
13
13
13
13
13
13
13
13
13
13
13
13
13
13
13
13
13
13
13
13
13
13
13
13
13
13
13
13
13
13
13
13
13
13
13
13
13
13
13
13
13
13
13
13
13
13
13
13
13
13
13
13
13
13
13
13
13
13
13
13
13
13
13
13
13
13
13
13
13
13
13
13
13
13
13
13
13
13
13
13
13
13
13
13
13
13
13
13
13
13
13
13
13
13
13
13
13
13
13
13
13
13
13
13
13
13
13
13
13
13
13
13
13
13
13
13
13
13
13
13
13
13
13
13
13
13
13
13
13
13
13
13
13
13
13
13
13
13
13
13
13
13
13
13
13
13
13
13
13
13
13
13
13
13
13
13
13
13
13
13
13
13
13
13
13
13
13
13
13
13
13
13
13
13
13
13
13
13
13
13
13
13
13
13
13
13
13
13
13
13
13
13
13
13
13
13
13
13
13
13
13
13
13
13
13
13
13
13
13
13
13
13
13
13
13
13
13
13
13
13
13
13
13
13
13
13
13
13
13
13
13
13
13
13
13
13
13
13
13
13
13
13
13
13
13
13
13
13
13
13
13
13
13
13
13
13
13
13
13
13
13
13
13
13
13
13
13
13
13
13
13
13
13
13
13
13
13
13
13
13
13
13
13
13
13
13
13
13
13
13
13
13
13
13
13
13
13
13
13
13
13
13
13
13
13
13
13
13
13
13
13
13
13
13
13
13
13
13
13
13
13
13
13
13
13
13
13
13
13
13
13
13
13
13
13
13
13
13
13
13
13
13
13
13
13
13
13
13
13
13
13
13
13
13
13
13
13
13
13
13
13
13
13
13
13
13
13
13
13
13
13
13
13
13
13
13
13
13
13
13
13
13
13
13
13
13
13
13
13
13
13
13
13
13
13
13
13
13
13
13
13
13
13
13
13
13
13
13
13
13
13
13
13
13
13
13
13
13
13
13
13
13
13
13
13
13
13
13
13
13
13
13
13
13
13
13
13
13
13
13
13
13
13
13
13
13
13
13
13
13
13
13
13
13
13
13
13
13
13
13
13
13
13
13
13
13
13
13
13
13
13
13
13
13
13
13
13
13
13
13
13
13
13
13
13
13
13
13
13
13
13
13
13
13
13
13
13
13
13
13
13
13
13
13
13
13
13
13
13
13
13
13
13
13
13
13
13
13
13
13
13
13
13
13
13
13
13
13
13
13
13
13
13
13
13
13
13
13
13
13
13
13
13
13
13
13
13
13
13
13
13
13
13
13
13
13
13
13
13
13
13
13
13
13
13
13
13
13
13
13
13
13
13
13
13
13
13
13
13
13
13
13
13
13
13
13
13
13
13
13
13
13
13
13
13
13
13
13
13
13
13
13
13
13
13
13
13
13
13
13
13
13
13
13
13
13
13
13
13
13
13
13
13
13
13
13
13
13
13
13
13
13
13
13
13
13
13
13
13
13
13
13
13
13
13
13
13
13
13
13
13
13
13
13
13
13
13
13
13
13
13
13
13
13
13
13
13
13
13
13
13
13
13
13
13
13
13
13
13
13
13
13
13
13
13
13
13
13
13
13
13
13
13
13
13
13
13
13
13
13
13
13
13
13
13
13
13
13
13
13
13
13
13
13
13
13
13
13
13
13
13
13
13
13
13
13
13
13
13
13
13
13
13
13
13
13
13
13
13
13
13
13
13
13
13
13
13
13
13
13
13
13
13
13
13
13
13
13
13
13
13
13
13
13
13
13
13
13
13
13
13
13
13
13
13
13
13
13
13
13
13
13
13
13
13
13
13
13
13
13
13
13
13
13
13
13
13
13
13
13
13
13
13
13
13
13
13
13
13
13
13
13
13
13
13
13
13
13
13
13
13
13
13
13
13
13
13
13
13
13
13
13
13
13
13
13
13
13
13
13
13
13
13
13
13
13
13
13
13
13
13
13
13
13
13
13
13
13
13
13
13
13
13
13
13
13
13
13
13
13
13
13
13
13
13
13
13
13
13
13
13
13
13
13
13
13
13
13
13
13
13
13
13
13
13
13
13
13
13
13
13
13
13
13
13
13
13
13
13
13
13
13
13
13
13
13
13
13
13
13
13
13
13
13
13
13
13
13
13
13
13
13
13
13
13
13
13
13
13
13
13
13
13
13
13
13
13
13
13
13
13
13
13
13
13
13
13
13
13
13
13
13
13
13
13
13
13
13
13
13
13
13
13
13
13
13
13
13
13
13
13
13
13
13
13
13
13
13
13
13
13
13
13
13
13
13
13
13
13
13
13
13
13
13
13
13
13
13
13
13
13
13
13
13
13
13
13
13
13
13
13
13
13
13
13
13
13
13
13
13
13
13
13
13
13
13
13
13
13
13
13
13
13
13
13
13
13
13
13
13
13
13
13
13
13
13
13
13
13
13
13
13
13
13
13
13
13
13
13
13
13
13
13
13
13
13
13
13
13
13
13
13
13
13
13
13
13
13
13
13
13
13
13
13
13
13
13
13
13
13
13
13
13
13
13
13
13
13
13
13
13
13
13
13
13
13
13
13
13
13
13
13
13
13
13
13
13
13
13
13
13
13
13
13
13
13
13
13
13
13
13
13
13
13
13
13
13
13
13
13
13
13
13
13
13
13
13
13
13
13
13
13
13
13
13
13
13
13
13
13
13
13
13
13
13
13
13
13
13
13
13
13
13
13
13
13
13
13
13
13
13
13
13
13
13
13
13
13
13
13
13
13
13
13
13
13
13
13
13
13
13
13
13
13
13
13
13
13
13
13
13
13
13
13
13
13
13
13
13
13
13
13
13
13
13
13
13
13
13
13
13
13
13
13
13
13
13
13
13
13
13
13
13
13
13
13
13
13
13
13
13
13
13
13
13
13
13
13
13
13
13
13
13
13
13
13
13
13
13
13
13
13
13
13
13
13
13
13
13
13
13
13
13
13
13
13
13
13
13
13
13
13
13
13
13
13
13
13
13
13
13
13
13
13
13
13
13
13
13
13
13
13
13
13
13
13
13
13
13
13
13
13
13
13
13
13
13
13
13
13
13
13
13
13
13
13
13
13
13
13
13
13
13
13
13
13
13
13
13
13
13
13
13
13
13
13
13
13
13
13
13
13
13
13
13
13
13
13
13
13
13
13
13
13
13
13
13
13
13
13
13
13
13
13
13
13
13
13
13
13
13
13
13
13
13
13
13
13
13
13
13
13
13
13
13
13
13
13
13
13
13
13
13
13
13
13
13
13
13
13
13
13
13
13
13
13
13
13
13
13
13
13
13
13
13
13
13
13
13
13
13
13
13
13
13
13
13
13
13
13
13
13
13
13
13
13
13
13
13
13
13
13
13
13
13
13
13
13
13
13
13
13
13
13
13
13
13
13
13
13
13
13
13
13
13
13
13
13
13
13
13
13
13
13
13
13
13
13
13
13
13
13
13
13
13
13
13
13
13
13
13
13
13
13
13
13
13
13
13
13
13
13
13
13
13
13
13
13
13
13
13
13
13
13
13
13
13
13
13
13
13
13
13
13
13
13
13
13
13
13
13
13
13
13
13
13
13
13
13
13
13
13
13
13
13
13
13
13
13
13
13
13
13
13
13
13
13
13
13
13
13
13
13
13
13
13
13
13
13
13
13
13
13
13
13
13
13
13
13
13
13
13
13
13
13
13
13
13
13
13
13
13
13
13
13
13
13
13
13
13
13
13
13
13
13
13
13
13
13
13
13
13
13
13
13
13
13
13
13
13
13
13
13
13
13
13
13
13
13
13
13
13
13
13
13
13
13
13
13
13
13
13
13
13
13
13
13
13
13
13
13
13
13
13
13
13
13
13
13
13
13
13
13
13
13
13
13
13
13
13
13
13
13
13
13
13
13
13
13
13
13
13
13
13
13
13
13
13
13
13
13
13
13
13
13
13
13
13
13
13
13
13
13
13
13
13
13
13
13
13
13
13
13
13
13
13
13
13
13
13
13
13
13
13
13
13
13
13
13
13
13
13
13
13
13
13
13
13
13
13
13
13
13
13
13
13
13
13
13
13
13
13
13
13
13
13
13
13
13
13
13
13
13
13
13
13
13
13
13
13
13
13
13
13
13
13
13
13
13
13
13
13
13
13
13
13
13
13
13
13
13
13
13
13
13
13
13
13
13
13
13
13
13
13
13
13
13
13
13
13
13
13
13
13
13
13
13
13
13
13
13
13
13
13
13
13
13
13
13
13
13
13
13
13
13
13
13
13
13
13
13
13
13
13
13
13
13
13
13
13
13
13
13
13
13
13
13
13
13
13
13
13
13
13
13
13
13
13
13
13
13
13
13
13
13
13
13
13
13
13
13
13
13
13
13
13
13
13
13
13
13
13
13
13
13
13
13
13
13
13
13
13
13
13
13
13
13
13
13
13
13
13
13
13
13
13
13
13
13
13
13
13
13
13
13
13
13
13
13
13
13
13
13
13
13
13
13
13
13
13
13
13
13
13
13
13
13
13
13
13
13
13

POINT_DATA 2586
VECTORS displacement float
-9.94508e-10 7.68129e-08 4.80444e-08
5.95625e-09 7.63026e-08 4.80898e-08
-6.40888e-08 4.7756e-08 5.04821e-08
-6.34792e-08 4.55136e-08 5.05051e-08
-6.72935e-08 4.19012e-08 5.19632e-08
-6.73632e-08 -4.19419e-08 5.19686e-08
-6.355e-08 -4.55562e-08 5.05135e-08
-6.41591e-08 -4.77989e-08 5.04911e-08
-1.00026e-09 -7.66609e-08 4.8188e-08
5.93786e-09 -7.63782e-08 4.79621e-08
6.3463e-08 -3.96656e-08 4.79175e-08
6.69216e-08 -3.37174e-08 4.80408e-08
6.70079e-08 3.37594e-08 4.80626e-08
6.35275e-08 3.98054e-08 4.80603e-08
0 0 0
6.51625e-09 7.82732e-08 4.79755e-08
2.9687e-09 8.27536e-08 4.81531e-08
9.89354e-09 1.5302e-07 4.81914e-08
1.28662e-08 1.57942e-07 4.78658e-08
1.24332e-08 1.60591e-07 4.79352e-08
7.07993e-08 1.90912e-07 4.76131e-08
8.00382e-08 1.90641e-07 4.73919e-08
1.37518e-07 1.53364e-07 4.74306e-08
1.41842e-07 1.45235e-07 4.74939e-08
1.37612e-07 7.93983e-08 4.80143e-08
1.32396e-07 7.33561e-08 4.79556e-08
7.0548e-08 3.9609e-08 4.79246e-08
7.48394e-08 1.12373e-07 1.91263e-08
7.09504e-08 3.77215e-08 4.785e-08
1.40334e-07 7.46004e-08 4.81133e-08
1.97875e-07 4.23118e-08 4.74742e-08
2.02497e-07 3.43652e-08 4.75364e-08
2.02446e-07 -3.44352e-08 4.75018e-08
1.97821e-07 -4.23954e-08 4.74464e-08
1.40282e-07 -7.47611e-08 4.78177e-08
1.3239e-07 -7.3319e-08 4.80351e-08
7.04942e-08 -3.97096e-08 4.80534e-08
7.08791e-08 -3.77864e-08 4.79356e-08
1.36834e-07 2.95399e-11 1.90726e-08
1.37585e-07 -7.94015e-08 4.80164e-08
1.41819e-07 -1.45289e-07 4.7551e-08
1.3748e-07 -1.53404e-07 4.74826e-08
7.99877e-08 -1.90631e-07 4.73858e-08
7.07481e-08 -1.90904e-07 4.76087e-08
1.23733e-08 -1.60562e-07 4.79229e-08
1.28044e-08 -1.57912e-07 4.78527e-08
9.81598e-09 -1.52983e-07 4.81703e-08
2.98798e-09 -8.27001e-08 4.8177e-08
6.51486e-09 -7.83151e-08 4.78914e-08
7.47598e-08 -1.12933e-07 1.9128e-08
7.84568e-09 -1.60807e-07 4.81132e-08
-4.12372e-08 -2.04695e-07 4.75969e-08
-5.0456e-08 -2.05848e-07 4.78121e-08
-1.16891e-07 -1.85133e-07 4.77683e-08
-1.16959e-07 -1.82406e-07 4.76963e-08
-1.22817e-07 -1.77376e-07 4.7922e-08
-1.42414e-07 -1.12307e-07 5.11912e-08
-1.39448e-07 -1.06224e-07 5.21387e-08
-1.41107e-07 -1.04338e-07 5.28151e-08
-7.14008e-08 -4.92981e-08 5.19749e-08
-5.48061e-08 -1.24826e-07 1.92925e-08
-1.51e-07 -1.07362e-07 5.448e-08
-2.50108e-07 -6.16119e-08 5.77005e-08
-2.49566e-07 -5.90371e-08 5.76926e-08
-2.54869e-07 -5.39833e-08 5.77456e-08
-2.54857e-07 5.39606e-08 5.7746e-08
-2.49552e-07 5.90135e-08 5.76931e-08
-2.50093e-07 6.15887e-08 5.7701e-08
-1.50823e-07 1.07298e-07 5.4413e-08
-1.41232e-07 1.04289e-07 5.29041e-08
-7.13389e-08 4.92479e-08 5.19689e-08
-1.50017e-07 -1.67543e-11 5.44536e-08
-1.39547e-07 1.06175e-07 5.22079e-08
-1.42472e-07 1.1227e-07 5.12303e-08
-1.2274e-07 1.77324e-07 4.79243e-08
-1.16884e-07 1.82352e-07 4.76999e-08
-1.16816e-07 1.8508e-07 4.77721e-08
-5.07544e-08 2.05802e-07 4.76086e-08
-4.15369e-08 2.0471e-07 4.78258e-08
7.90793e-09 1.60835e-07 4.81385e-08
-5.47635e-08 1.24968e-07 1.92823e-08
-9.94508e-10 7.68129e-08 -4.80444e-08
5.95625e-09 7.63026e-08 -4.80898e-08
-6.40888e-08 4.7756e-08 -5.04821e-08
-6.34792e-08 4.55136e-08 -5.05051e-08
-6.72935e-08 4.19012e-08 -5.19632e-08
-6.73632e-08 -4.19419e-08 -5.19686e-08
-6.355e-08 -4.55562e-08 -5.05135e-08
-6.41591e-08 -4.77989e-08 -5.04911e-08
-1.00026e-09 -7.66609e-08 -4.8188e-08
5.93786e-09 -7.63782e-08 -4.79621e-08
6.3463e-08 -3.96656e-08 -4.79175e-08
6.69216e-08 -3.37174e-08 -4.80408e-08
6.70079e-08 3.37594e-08 -4.80626e-08
6.35275e-08 3.98054e-08 -4.80603e-08
0 0 0
6.51625e-09 7.82732e-08 -4.79755e-08
2.9687e-09 8.27536e-08 -4.81531e-08
9.89354e-09 1.5302e-07 -4.81914e-08
1.28662e-08 1.57942e-07 -4.78658e-08
1.24332e-08 1.60591e-07 -4.79352e-08
7.07993e-08 1.90912e-07 -4.76131e-08
8.00382e-08 1.90641e-07 -4.73919e-08
1.37518e-07 1.53364e-07 -4.74306e-08
1.41842e-07 1.45235e-07 -4.74939e-08
1.37612e-07 7.93983e-08 -4.80143e-08
1.32396e-07 7.33561e-08 -4.79556e-08
7.0548e-08 3.9609e-08 -4.79246e-08
7.48394e-08 1.12373e-07 -1.91263e-08
7.09504e-08 3.77215e-08 -4.785e-08
1.40334e-07 7.46004e-08 -4.81133e-08
1.97875e-07 4.23118e-08 -4.74742e-08
2.02497e-07 3.43652e-08 -4.75364e-08
2.02446e-07 -3.44352e-08 -4.75018e-08
1.97821e-07 -4.23954e-08 -4.74464e-08
1.40282e-07 -7.47611e-08 -4.78177e-08
1.3239e-07 -7.3319e-08 -4.80351e-08
7.04942e-08 -3.97096e-08 -4.80534e-08
7.08791e-08 -3.77864e-08 -4.79356e-08
1.36834e-07 2.95399e-11 -1.90726e-08
1.37585e-07 -7.94015e-08 -4.80164e-08
1.41819e-07 -1.45289e-07 -4.7551e-08
1.3748e-07 -1.53404e-07 -4.74826e-08
7.99877e-08 -1.90631e-07 -4.73858e-08
7.07481e-08 -1.90904e-07 -4.76087e-08
1.23733e-08 -1.60562e-07 -4.79229e-08
1.28044e-08 -1.57912e-07 -4.78527e-08
9.81598e-09 -1.52983e-07 -4.81703e-08
2.98798e-09 -8.27001e-08 -4.8177e-08
6.51486e-09 -7.83151e-08 -4.78914e-08
7.47598e-08 -1.12933e-07 -1.9128e-08
7.84568e-09 -1.60807e-07 -4.81132e-08
-4.12372e-08 -2.04695e-07 -4.75969e-08
-5.0456e-08 -2.05848e-07 -4.78121e-08
-1.16891e-07 -1.85133e-07 -4.77683e-08
-1.16959e-07 -1.82406e-07 -4.76963e-08
-1.22817e-07 -1.77376e-07 -4.7922e-08
-1.42414e-07 -1.12307e-07 -5.11912e-08
-1.39448e-07 -1.06224e-07 -5.21387e-08
-1.41107e-07 -1.04338e-07 -5.28151e-08
-7.14008e-08 -4.92981e-08 -5.19749e-08
-5.48061e-08 -1.24826e-07 -1.92925e-08
-1.51e-07 -1.07362e-07 -5.448e-08
-2.50108e-07 -6.16119e-08 -5.77005e-08
-2.49566e-07 -5.90371e-08 -5.76926e-08
-2.54869e-07 -5.39833e-08 -5.77456e-08
-2.54857e-07 5.39606e-08 -5.7746e-08
-2.49552e-07 5.90135e-08 -5.76931e-08
-2.50093e-07 6.15887e-08 -5.7701e-08
-1.50823e-07 1.07298e-07 -5.4413e-08
-1.41232e-07 1.04289e-07 -5.29041e-08
-7.13389e-08 4.92479e-08 -5.19689e-08
-1.50017e-07 -1.67543e-11 -5.44536e-08
-1.39547e-07 1.06175e-07 -5.22079e-08
-1.42472e-07 1.1227e-07 -5.12303e-08
-1.2274e-07 1.77324e-07 -4.79243e-08
-1.16884e-07 1.82352e-07 -4.76999e-08
-1.16816e-07 1.8508e-07 -4.77721e-08
-5.07544e-08 2.05802e-07 -4.76086e-08
-4.15369e-08 2.0471e-07 -4.78258e-08
7.90793e-09 1.60835e-07 -4.81385e-08
-5.47635e-08 1.24968e-07 -1.92823e-08
2.41063e-09 7.47723e-08 4.78572e-08
-4.92685e-08 5.47096e-08 4.63244e-08
-3.76377e-08 5.96691e-08 4.30115e-08
-2.68846e-08 6.43659e-08 4.26277e-08
-1.55129e-08 6.95057e-08 4.51041e-08
-6.35876e-08 4.6606e-08 5.05126e-08
-6.4582e-08 4.28449e-08 5.10399e-08
-6.74449e-08 -2.36527e-08 5.04871e-08
-6.71923e-08 -7.70796e-09 4.91917e-08
-6.71592e-08 7.67618e-09 4.9145e-08
-6.74017e-08 2.36141e-08 5.05018e-08
-6.46525e-08 -4.28867e-08 5.10465e-08
-6.36584e-08 -4.66488e-08 5.05215e-08
-1.54913e-08 -6.95132e-08 4.50894e-08
-2.69294e-08 -6.43442e-08 4.27708e-08
-3.77047e-08 -5.9683e-08 4.30365e-08
-4.93394e-08 -5.47436e-08 4.63383e-08
2.34017e-09 -7.47282e-08 4.78657e-08
4.97187e-08 -4.799e-08 4.47764e-08
3.93099e-08 -5.4331e-08 4.20167e-08
2.97324e-08 -6.04973e-08 4.20235e-08
1.94721e-08 -6.72142e-08 4.48129e-08
6.34772e-08 -3.57898e-08 4.78542e-08
6.64398e-08 1.77595e-08 4.47406e-08
6.63365e-08 5.61338e-09 4.20635e-08
6.62922e-08 -5.60624e-09 4.21657e-08
6.64285e-08 -1.77329e-08 4.47005e-08
6.3564e-08 3.58745e-08 4.79191e-08
1.94755e-08 6.73019e-08 4.47745e-08
2.97681e-08 6.05631e-08 4.21546e-08
3.93765e-08 5.44166e-08 4.21533e-08
4.98169e-08 4.79943e-08 4.47553e-08
0 0 0
0 0 0
0 0 0
6.47685e-09 7.73387e-08 4.80971e-08
5.36025e-09 8.10187e-08 4.7891e-08
3.9614e-09 9.9048e-08 4.48855e-08
5.30448e-09 1.11536e-07 4.2399e-08
6.75525e-09 1.232e-07 4.23118e-08
8.15557e-09 1.35987e-07 4.49534e-08
1.18875e-08 1.54605e-07 4.78802e-08
1.2755e-08 1.5929e-07 4.79532e-08
2.85567e-08 1.643e-07 4.50864e-08
3.98127e-08 1.66386e-07 4.28249e-08
4.86963e-08 1.71155e-07 4.28435e-08
5.76822e-08 1.79337e-07 4.48505e-08
7.51602e-08 1.88737e-07 4.73097e-08
9.2263e-08 1.7798e-07 4.49154e-08
1.00794e-07 1.68625e-07 4.25981e-08
1.0948e-07 1.62821e-07 4.26431e-08
1.20988e-07 1.59109e-07 4.47424e-08
1.37906e-07 1.48231e-07 4.7346e-08
1.37009e-07 1.28081e-07 4.479e-08
1.32787e-07 1.16388e-07 4.29213e-08
1.31973e-07 1.06227e-07 4.28405e-08
1.3427e-07 9.50451e-08 4.51807e-08
1.33283e-07 7.71818e-08 4.78701e-08
8.48343e-08 4.7662e-08 4.48425e-08
9.5793e-08 5.34705e-08 4.20963e-08
1.06093e-07 5.89932e-08 4.21319e-08
1.17403e-07 6.50512e-08 4.48699e-08
6.70726e-08 4.13924e-08 4.77898e-08
7.14982e-08 1.17541e-07 1.94066e-08
6.59729e-08 1.13087e-07 1.91873e-08
7.01129e-08 1.08268e-07 1.89349e-08
6.95286e-08 3.52348e-08 4.78042e-08
7.10069e-08 3.85943e-08 4.79492e-08
1.36118e-07 7.21258e-08 4.78214e-08
1.51812e-07 6.32909e-08 4.51705e-08
1.60122e-07 5.51681e-08 4.29797e-08
1.6903e-07 5.02213e-08 4.27708e-08
1.80928e-07 4.73221e-08 4.4804e-08
1.98454e-07 3.7188e-08 4.73923e-08
1.98494e-07 1.7185e-08 4.48279e-08
1.95346e-07 5.16508e-09 4.26363e-08
1.95202e-07 -5.37022e-09 4.28211e-08
1.98499e-07 -1.7233e-08 4.47625e-08
1.98408e-07 -3.72616e-08 4.73587e-08
1.80859e-07 -4.74096e-08 4.47991e-08
1.6895e-07 -5.02863e-08 4.27631e-08
1.60032e-07 -5.51256e-08 4.28132e-08
1.51738e-07 -6.33014e-08 4.52573e-08
1.35892e-07 -7.22728e-08 4.77357e-08
8.47508e-08 -4.7618e-08 4.48098e-08
9.57307e-08 -5.34768e-08 4.22359e-08
1.06049e-07 -5.90031e-08 4.22572e-08
1.17365e-07 -6.50616e-08 4.4809e-08
7.09414e-08 -3.86791e-08 4.80613e-08
6.94401e-08 -3.52374e-08 4.7819e-08
1.32579e-07 4.2362e-09 1.92333e-08
1.27287e-07 2.97841e-10 1.93727e-08
1.32119e-07 -4.48061e-09 1.92619e-08
6.70924e-08 -4.13643e-08 4.77837e-08
1.33262e-07 -7.71685e-08 4.78854e-08
1.34266e-07 -9.50743e-08 4.51153e-08
1.31808e-07 -1.06146e-07 4.30379e-08
1.32895e-07 -1.16265e-07 4.27442e-08
1.36951e-07 -1.2814e-07 4.4874e-08
1.37872e-07 -1.48277e-07 4.74032e-08
1.20924e-07 -1.59091e-07 4.47888e-08
1.09405e-07 -1.62824e-07 4.26635e-08
1.00723e-07 -1.68608e-07 4.25678e-08
9.22078e-08 -1.77966e-07 4.48998e-08
7.51089e-08 -1.88728e-07 4.73044e-08
5.76233e-08 -1.79332e-07 4.48537e-08
4.86336e-08 -1.71131e-07 4.28502e-08
3.97594e-08 -1.6635e-07 4.28276e-08
2.85068e-08 -1.64268e-07 4.50826e-08
1.26945e-08 -1.5926e-07 4.79408e-08
1.1819e-08 -1.54572e-07 4.78634e-08
3.92378e-09 -9.90158e-08 4.49257e-08
5.30829e-09 -1.11536e-07 4.23014e-08
6.67674e-09 -1.23188e-07 4.24121e-08
8.13191e-09 -1.3596e-07 4.49165e-08
5.37774e-09 -8.10042e-08 4.78781e-08
6.46976e-09 -7.73993e-08 4.79863e-08
7.04326e-08 -1.08031e-07 1.93311e-08
6.59249e-08 -1.12827e-07 1.91863e-08
7.1083e-08 -1.17329e-07 1.90144e-08
-5.8919e-10 -8.07422e-08 4.80721e-08
7.17339e-09 -1.55843e-07 4.80346e-08
-6.38099e-09 -1.66937e-07 4.53279e-08
-1.59427e-08 -1.71692e-07 4.30995e-08
-2.3047e-08 -1.79018e-07 4.29455e-08
-3.02279e-08 -1.90176e-07 4.51773e-08
-4.63607e-08 -2.03232e-07 4.75138e-08
-6.46157e-08 -1.96202e-07 4.50697e-08
-7.4753e-08 -1.9005e-07 4.30667e-08
-8.50565e-08 -1.87335e-07 4.29958e-08
-9.82324e-08 -1.87155e-07 4.51129e-08
-1.1675e-07 -1.83772e-07 4.77847e-08
-1.1927e-07 -1.78903e-07 4.76718e-08
-1.2171e-07 -1.6029e-07 4.54578e-08
-1.21697e-07 -1.48728e-07 4.38603e-08
-1.25215e-07 -1.38698e-07 4.44454e-08
-1.32543e-07 -1.27859e-07 4.72358e-08
-1.39574e-07 -1.09522e-07 5.12252e-08
-1.40112e-07 -1.05213e-07 5.25507e-08
-8.6498e-08 -6.05705e-08 5.06752e-08
-9.97032e-08 -7.07437e-08 4.94567e-08
-1.12675e-07 -8.07297e-08 4.95196e-08
-1.26237e-07 -9.12514e-08 5.10603e-08
-6.78081e-08 -5.05219e-08 5.08571e-08
-5.99436e-08 -1.21324e-07 1.99419e-08
-6.41823e-08 -1.28052e-07 1.99472e-08
-5.84896e-08 -1.31e-07 1.93765e-08
-7.10128e-08 -4.49095e-08 5.23662e-08
-1.46854e-07 -1.03793e-07 5.39431e-08
-1.72174e-07 -9.93592e-08 5.53623e-08
-1.92069e-07 -9.04627e-08 5.58495e-08
-2.11484e-07 -8.11305e-08 5.64129e-08
-2.30713e-07 -7.1521e-08 5.71175e-08
-2.49665e-07 -6.03667e-08 5.7705e-08
-2.51239e-07 -5.54373e-08 5.77015e-08
-2.55239e-07 -3.2222e-08 5.7419e-08
-2.55435e-07 -1.07397e-08 5.71763e-08
-2.55435e-07 1.07126e-08 5.71748e-08
-2.55233e-07 3.21962e-08 5.74192e-08
-2.51227e-07 5.54137e-08 5.7702e-08
-2.49651e-07 6.03433e-08 5.77055e-08
-2.30691e-07 7.14921e-08 5.71183e-08
-2.11457e-07 8.10874e-08 5.64083e-08
-1.92057e-07 9.04282e-08 5.58257e-08
-1.7217e-07 9.93673e-08 5.53729e-08
-1.46666e-07 1.03726e-07 5.38968e-08
-8.64419e-08 6.0504e-08 5.06753e-08
-9.96551e-08 7.06657e-08 4.94672e-08
-1.12633e-07 8.06471e-08 4.95762e-08
-1.26195e-07 9.11972e-08 5.10596e-08
-7.09589e-08 4.48626e-08 5.23622e-08
-1.58881e-07 9.10515e-09 5.4886e-08
-1.68025e-07 -9.51566e-12 5.53612e-08
-1.5887e-07 -9.14085e-09 5.49074e-08
-6.77416e-08 5.04751e-08 5.08488e-08
-1.40229e-07 1.05159e-07 5.26312e-08
-1.39639e-07 1.09479e-07 5.12699e-08
-1.32566e-07 1.27817e-07 4.72588e-08
-1.25208e-07 1.38694e-07 4.44521e-08
-1.2165e-07 1.48719e-07 4.38744e-08
-1.21645e-07 1.60247e-07 4.54589e-08
-1.19194e-07 1.78851e-07 4.76746e-08
-1.16675e-07 1.83718e-07 4.77885e-08
-9.81645e-08 1.87084e-07 4.51241e-08
-8.499e-08 1.87262e-07 4.29935e-08
-7.47234e-08 1.89836e-07 4.29032e-08
-6.45854e-08 1.96114e-07 4.51772e-08
-4.628e-08 2.03216e-07 4.75265e-08
-3.02062e-08 1.90215e-07 4.50952e-08
-2.30212e-08 1.79204e-07 4.31288e-08
-1.58853e-08 1.71757e-07 4.3127e-08
-6.30901e-09 1.66972e-07 4.53465e-08
7.22685e-09 1.55875e-07 4.80624e-08
-6.10373e-10 8.0837e-08 4.80047e-08
-5.79384e-08 1.31158e-07 1.96894e-08
-6.41356e-08 1.27411e-07 1.99547e-08
-6.03769e-08 1.21515e-07 1.96235e-08
2.41063e-09 7.47723e-08 -4.78572e-08
-4.92685e-08 5.47096e-08 -4.63244e-08
-3.76377e-08 5.96691e-08 -4.30115e-08
-2.68846e-08 6.43659e-08 -4.26277e-08
-1.55129e-08 6.95057e-08 -4.51041e-08
-6.35876e-08 4.6606e-08 -5.05126e-08
-6.4582e-08 4.28449e-08 -5.10399e-08
-6.74449e-08 -2.36527e-08 -5.04871e-08
-6.71923e-08 -7.70796e-09 -4.91917e-08
-6.71592e-08 7.67618e-09 -4.9145e-08
-6.74017e-08 2.36141e-08 -5.05018e-08
-6.46525e-08 -4.28867e-08 -5.10465e-08
-6.36584e-08 -4.66488e-08 -5.05215e-08
-1.54913e-08 -6.95132e-08 -4.50894e-08
-2.69294e-08 -6.43442e-08 -4.27708e-08
-3.77047e-08 -5.9683e-08 -4.30365e-08
-4.93394e-08 -5.47436e-08 -4.63383e-08
2.34017e-09 -7.47282e-08 -4.78657e-08
4.97187e-08 -4.799e-08 -4.47764e-08
3.93099e-08 -5.4331e-08 -4.20167e-08
2.97324e-08 -6.04973e-08 -4.20235e-08
1.94721e-08 -6.72142e-08 -4.48129e-08
6.34772e-08 -3.57898e-08 -4.78542e-08
6.64398e-08 1.77595e-08 -4.47406e-08
6.63365e-08 5.61338e-09 -4.20635e-08
6.62922e-08 -5.60624e-09 -4.21657e-08
6.64285e-08 -1.77329e-08 -4.47005e-08
6.3564e-08 3.58745e-08 -4.79191e-08
1.94755e-08 6.73019e-08 -4.47745e-08
2.97681e-08 6.05631e-08 -4.21546e-08
3.93765e-08 5.44166e-08 -4.21533e-08
4.98169e-08 4.79943e-08 -4.47553e-08
0 0 0
0 0 0
0 0 0
6.47685e-09 7.73387e-08 -4.80971e-08
5.36025e-09 8.10187e-08 -4.7891e-08
3.9614e-09 9.9048e-08 -4.48855e-08
5.30448e-09 1.11536e-07 -4.2399e-08
6.75525e-09 1.232e-07 -4.23118e-08
8.15557e-09 1.35987e-07 -4.49534e-08
1.18875e-08 1.54605e-07 -4.78802e-08
1.2755e-08 1.5929e-07 -4.79532e-08
2.85567e-08 1.643e-07 -4.50864e-08
3.98127e-08 1.66386e-07 -4.28249e-08
4.86963e-08 1.71155e-07 -4.28435e-08
5.76822e-08 1.79337e-07 -4.48505e-08
7.51602e-08 1.88737e-07 -4.73097e-08
9.2263e-08 1.7798e-07 -4.49154e-08
1.00794e-07 1.68625e-07 -4.25981e-08
1.0948e-07 1.62821e-07 -4.26431e-08
1.20988e-07 1.59109e-07 -4.47424e-08
1.37906e-07 1.48231e-07 -4.7346e-08
1.37009e-07 1.28081e-07 -4.479e-08
1.32787e-07 1.16388e-07 -4.29213e-08
1.31973e-07 1.06227e-07 -4.28405e-08
1.3427e-07 9.50451e-08 -4.51807e-08
1.33283e-07 7.71818e-08 -4.78701e-08
8.48343e-08 4.7662e-08 -4.48425e-08
9.5793e-08 5.34705e-08 -4.20963e-08
1.06093e-07 5.89932e-08 -4.21319e-08
1.17403e-07 6.50512e-08 -4.48699e-08
6.70726e-08 4.13924e-08 -4.77898e-08
7.14982e-08 1.17541e-07 -1.94066e-08
6.59729e-08 1.13087e-07 -1.91873e-08
7.01129e-08 1.08268e-07 -1.89349e-08
6.95286e-08 3.52348e-08 -4.78042e-08
7.10069e-08 3.85943e-08 -4.79492e-08
1.36118e-07 7.21258e-08 -4.78214e-08
1.51812e-07 6.32909e-08 -4.51705e-08
1.60122e-07 5.51681e-08 -4.29797e-08
1.6903e-07 5.02213e-08 -4.27708e-08
1.80928e-07 4.73221e-08 -4.4804e-08
1.98454e-07 3.7188e-08 -4.73923e-08
1.98494e-07 1.7185e-08 -4.48279e-08
1.95346e-07 5.16508e-09 -4.26363e-08
1.95202e-07 -5.37022e-09 -4.28211e-08
1.98499e-07 -1.7233e-08 -4.47625e-08
1.98408e-07 -3.72616e-08 -4.73587e-08
1.80859e-07 -4.74096e-08 -4.47991e-08
1.6895e-07 -5.02863e-08 -4.27631e-08
1.60032e-07 -5.51256e-08 -4.28132e-08
1.51738e-07 -6.33014e-08 -4.52573e-08
1.35892e-07 -7.22728e-08 -4.77357e-08
8.47508e-08 -4.7618e-08 -4.48098e-08
9.57307e-08 -5.34768e-08 -4.22359e-08
1.06049e-07 -5.90031e-08 -4.22572e-08
1.17365e-07 -6.50616e-08 -4.4809e-08
7.09414e-08 -3.86791e-08 -4.80613e-08
6.94401e-08 -3.52374e-08 -4.7819e-08
1.32579e-07 4.2362e-09 -1.92333e-08
1.27287e-07 2.97841e-10 -1.93727e-08
1.32119e-07 -4.48061e-09 -1.92619e-08
6.70924e-08 -4.13643e-08 -4.77837e-08
1.33262e-07 -7.71685e-08 -4.78854e-08
1.34266e-07 -9.50743e-08 -4.51153e-08
1.31808e-07 -1.06146e-07 -4.30379e-08
1.32895e-07 -1.16265e-07 -4.27442e-08
1.36951e-07 -1.2814e-07 -4.4874e-08
1.37872e-07 -1.48277e-07 -4.74032e-08
1.20924e-07 -1.59091e-07 -4.47888e-08
1.09405e-07 -1.62824e-07 -4.26635e-08
1.00723e-07 -1.68608e-07 -4.25678e-08
9.22078e-08 -1.77966e-07 -4.48998e-08
7.51089e-08 -1.88728e-07 -4.73044e-08
5.76233e-08 -1.79332e-07 -4.48537e-08
4.86336e-08 -1.71131e-07 -4.28502e-08
3.97594e-08 -1.6635e-07 -4.28276e-08
2.85068e-08 -1.64268e-07 -4.50826e-08
1.26945e-08 -1.5926e-07 -4.79408e-08
1.1819e-08 -1.54572e-07 -4.78634e-08
3.92378e-09 -9.90158e-08 -4.49257e-08
5.30829e-09 -1.11536e-07 -4.23014e-08
6.67674e-09 -1.23188e-07 -4.24121e-08
8.13191e-09 -1.3596e-07 -4.49165e-08
5.37774e-09 -8.10042e-08 -4.78781e-08
6.46976e-09 -7.73993e-08 -4.79863e-08
7.04326e-08 -1.08031e-07 -1.93311e-08
6.59249e-08 -1.12827e-07 -1.91863e-08
7.1083e-08 -1.17329e-07 -1.90144e-08
-5.8919e-10 -8.07422e-08 -4.80721e-08
7.17339e-09 -1.55843e-07 -4.80346e-08
-6.38099e-09 -1.66937e-07 -4.53279e-08
-1.59427e-08 -1.71692e-07 -4.30995e-08
-2.3047e-08 -1.79018e-07 -4.29455e-08
-3.02279e-08 -1.90176e-07 -4.51773e-08
-4.63607e-08 -2.03232e-07 -4.75138e-08
-6.46157e-08 -1.96202e-07 -4.50697e-08
-7.4753e-08 -1.9005e-07 -4.30667e-08
-8.50565e-08 -1.87335e-07 -4.29958e-08
-9.82324e-08 -1.87155e-07 -4.51129e-08
-1.1675e-07 -1.83772e-07 -4.77847e-08
-1.1927e-07 -1.78903e-07 -4.76718e-08
-1.2171e-07 -1.6029e-07 -4.54578e-08
-1.21697e-07 -1.48728e-07 -4.38603e-08
-1.25215e-07 -1.38698e-07 -4.44454e-08
-1.32543e-07 -1.27859e-07 -4.72358e-08
-1.39574e-07 -1.09522e-07 -5.12252e-08
-1.40112e-07 -1.05213e-07 -5.25507e-08
-8.6498e-08 -6.05705e-08 -5.06752e-08
-9.97032e-08 -7.07437e-08 -4.94567e-08
-1.12675e-07 -8.07297e-08 -4.95196e-08
-1.26237e-07 -9.12514e-08 -5.10603e-08
-6.78081e-08 -5.05219e-08 -5.08571e-08
-5.99436e-08 -1.21324e-07 -1.99419e-08
-6.41823e-08 -1.28052e-07 -1.99472e-08
-5.84896e-08 -1.31e-07 -1.93765e-08
-7.10128e-08 -4.49095e-08 -5.23662e-08
-1.46854e-07 -1.03793e-07 -5.39431e-08
-1.72174e-07 -9.93592e-08 -5.53623e-08
-1.92069e-07 -9.04627e-08 -5.58495e-08
-2.11484e-07 -8.11305e-08 -5.64129e-08
-2.30713e-07 -7.1521e-08 -5.71175e-08
-2.49665e-07 -6.03667e-08 -5.7705e-08
-2.51239e-07 -5.54373e-08 -5.77015e-08
-2.55239e-07 -3.2222e-08 -5.7419e-08
-2.55435e-07 -1.07397e-08 -5.71763e-08
-2.55435e-07 1.07126e-08 -5.71748e-08
-2.55233e-07 3.21962e-08 -5.74192e-08
-2.51227e-07 5.54137e-08 -5.7702e-08
-2.49651e-07 6.03433e-08 -5.77055e-08
-2.30691e-07 7.14921e-08 -5.71183e-08
-2.11457e-07 8.10874e-08 -5.64083e-08
-1.92057e-07 9.04282e-08 -5.58257e-08
-1.7217e-07 9.93673e-08 -5.53729e-08
-1.46666e-07 1.03726e-07 -5.38968e-08
-8.64419e-08 6.0504e-08 -5.06753e-08
-9.96551e-08 7.06657e-08 -4.94672e-08
-1.12633e-07 8.06471e-08 -4.95762e-08
-1.26195e-07 9.11972e-08 -5.10596e-08
-7.09589e-08 4.48626e-08 -5.23622e-08
-1.58881e-07 9.10515e-09 -5.4886e-08
-1.68025e-07 -9.51566e-12 -5.53612e-08
-1.5887e-07 -9.14085e-09 -5.49074e-08
-6.77416e-08 5.04751e-08 -5.08488e-08
-1.40229e-07 1.05159e-07 -5.26312e-08
-1.39639e-07 1.09479e-07 -5.12699e-08
-1.32566e-07 1.27817e-07 -4.72588e-08
-1.25208e-07 1.38694e-07 -4.44521e-08
-1.2165e-07 1.48719e-07 -4.38744e-08
-1.21645e-07 1.60247e-07 -4.54589e-08
-1.19194e-07 1.78851e-07 -4.76746e-08
-1.16675e-07 1.83718e-07 -4.77885e-08
-9.81645e-08 1.87084e-07 -4.51241e-08
-8.499e-08 1.87262e-07 -4.29935e-08
-7.47234e-08 1.89836e-07 -4.29032e-08
-6.45854e-08 1.96114e-07 -4.51772e-08
-4.628e-08 2.03216e-07 -4.75265e-08
-3.02062e-08 1.90215e-07 -4.50952e-08
-2.30212e-08 1.79204e-07 -4.31288e-08
-1.58853e-08 1.71757e-07 -4.3127e-08
-6.30901e-09 1.66972e-07 -4.53465e-08
7.22685e-09 1.55875e-07 -4.80624e-08
-6.10373e-10 8.0837e-08 -4.80047e-08
-5.79384e-08 1.31158e-07 -1.96894e-08
-6.41356e-08 1.27411e-07 -1.99547e-08
-6.03769e-08 1.21515e-07 -1.96235e-08
1.98923e-08 -1.9193e-08 3.24287e-08
2.00842e-08 2.02778e-08 3.28826e-08
-1.92982e-08 2.24362e-08 3.38146e-08
-1.94222e-08 -2.24853e-08 3.38818e-08
-4.46769e-08 -3.43783e-08 4.55409e-08
-4.4602e-08 3.43293e-08 4.55243e-08
1.84817e-10 2.45976e-08 3.06495e-08
-2.26046e-08 6.36554e-10 3.12822e-08
2.2084e-08 -6.99301e-10 2.91844e-08
-6.70636e-11 -2.45663e-08 3.06435e-08
-5.33746e-08 3.68688e-08 4.84951e-08
-5.34471e-08 -3.69138e-08 4.85058e-08
4.12263e-08 2.23425e-08 4.1346e-08
4.3244e-08 -2.31368e-08 4.208e-08
8.54715e-11 -4.96492e-08 4.20509e-08
2.33986e-09 4.95583e-08 4.20283e-08
1.59338e-08 3.8691e-08 3.82724e-08
-1.43088e-08 -4.05386e-08 3.8695e-08
-4.14496e-08 1.16896e-08 4.19876e-08
-4.22112e-08 -1.15044e-08 4.22778e-08
1.58386e-08 -4.01785e-08 3.86228e-08
-1.41174e-08 4.23309e-08 3.9144e-08
7.22119e-09 -7.24695e-09 1.90279e-08
8.22061e-09 9.13924e-09 2.11822e-08
-8.0591e-09 7.90218e-09 2.05123e-08
-8.54784e-09 -8.43138e-09 2.12674e-08
-5.56886e-08 4.38957e-08 4.90614e-08
-5.57603e-08 -4.39373e-08 4.90715e-08
-3.07064e-08 3.84301e-08 4.11302e-08
-3.07829e-08 -3.83351e-08 4.1129e-08
4.35802e-08 -6.46245e-09 3.91361e-08
4.12671e-08 7.52785e-09 3.85064e-08
-3.27128e-08 -2.11123e-08 3.94879e-08
-3.26164e-08 2.10561e-08 3.94483e-08
7.13306e-09 -6.04706e-08 4.51748e-08
-3.6951e-09 6.11595e-08 4.52863e-08
3.15734e-08 -3.45133e-08 4.00612e-08
3.15397e-08 3.3829e-08 3.9972e-08
2.30219e-09 1.27902e-08 2.18625e-08
1.76276e-09 -1.24053e-08 2.13646e-08
-1.20676e-08 -2.27001e-09 2.23837e-08
1.16741e-08 -1.40152e-09 2.07562e-08
-5.51831e-08 2.48052e-08 4.79547e-08
-5.52487e-08 -2.48477e-08 4.79641e-08
2.89262e-08 -1.08585e-08 3.43118e-08
4.70743e-08 3.41054e-08 4.46239e-08
4.73186e-08 -3.42688e-08 4.46909e-08
2.70575e-08 1.10463e-08 3.34504e-08
-9.00284e-09 2.17814e-08 3.00102e-08
-8.63249e-09 -2.1279e-08 2.96158e-08
-1.90974e-08 9.7245e-09 2.99987e-08
1.02048e-08 -1.89129e-08 2.87311e-08
1.05734e-08 1.91737e-08 2.89405e-08
-1.77529e-08 -8.9349e-09 2.88272e-08
-1.3256e-08 -5.3196e-08 4.2298e-08
1.56957e-08 5.14275e-08 4.19601e-08
8.06887e-09 6.26168e-08 4.57028e-08
-4.43802e-09 -6.33211e-08 4.58245e-08
-5.94625e-08 3.2401e-08 4.98472e-08
-5.95283e-08 -3.24444e-08 4.98516e-08
-5.21681e-08 2.91102e-10 4.52489e-08
5.7567e-08 -2.59235e-08 4.60871e-08
5.78389e-08 2.57084e-08 4.6112e-08
1.12858e-08 -5.04583e-08 4.20333e-08
-8.75824e-09 5.19528e-08 4.23562e-08
4.55997e-09 -3.73285e-08 3.73352e-08
-3.06901e-09 3.78118e-08 3.74498e-08
1.62113e-08 5.84278e-09 2.59342e-08
6.3567e-09 3.80828e-08 3.76859e-08
-4.8404e-09 -3.86957e-08 3.78385e-08
2.77186e-08 4.43182e-08 4.04245e-08
1.69875e-08 -8.51625e-09 2.72387e-08
-2.60211e-08 -4.80763e-08 4.12338e-08
5.14924e-08 1.33828e-08 4.2105e-08
5.23756e-08 -1.49028e-08 4.2534e-08
-4.67237e-08 4.31886e-08 4.63762e-08
-4.67948e-08 -4.323e-08 4.63885e-08
-2.99827e-08 -1.00095e-08 3.6577e-08
-4.38406e-08 -2.34755e-08 4.4246e-08
-4.37098e-08 2.34399e-08 4.4201e-08
-6.17627e-08 4.33279e-08 5.04267e-08
-6.11393e-08 3.88697e-08 5.0521e-08
-6.18336e-08 -4.33703e-08 5.04346e-08
-6.12093e-08 -3.89124e-08 5.05275e-08
2.83395e-08 -4.45471e-08 4.0574e-08
-3.49621e-08 3.12329e-08 4.17632e-08
-3.50478e-08 -3.12774e-08 4.1789e-08
-3.22872e-09 6.88836e-08 4.69223e-08
7.41578e-09 -6.82165e-08 4.68258e-08
-2.66111e-08 4.8528e-08 4.1432e-08
-2.99589e-08 1.04159e-08 3.65941e-08
-3.6355e-08 6.83595e-10 3.91919e-08
5.05743e-08 2.32455e-09 4.0177e-08
2.15299e-08 3.05946e-08 3.66246e-08
5.57628e-08 3.65909e-08 4.68788e-08
5.57091e-08 -3.66265e-08 4.6828e-08
2.06891e-08 -3.01571e-08 3.62774e-08
3.04667e-08 2.2302e-08 3.7532e-08
-1.9296e-08 -3.27354e-08 3.71221e-08
-1.37495e-09 6.54083e-09 1.44283e-08
-2.18935e-09 -6.76821e-09 1.51749e-08
-6.23047e-09 1.62871e-09 1.4894e-08
6.5188e-09 2.47896e-09 1.53477e-08
-1.94555e-08 3.329e-08 3.7284e-08
3.12001e-08 -2.29533e-08 3.7925e-08
-5.51708e-08 1.46621e-08 4.68802e-08
-5.55571e-08 -1.45181e-08 4.69711e-08
2.52268e-09 -2.61383e-09 8.97835e-09
8.8703e-09 2.90553e-08 3.37206e-08
2.84521e-09 5.83226e-09 1.38619e-08
-5.11557e-09 -2.92878e-09 1.34409e-08
2.10094e-08 -5.23331e-08 4.16543e-08
9.48517e-09 -2.97561e-08 3.41358e-08
3.48774e-08 4.76068e-10 3.56677e-08
-9.31101e-09 -3.12022e-08 3.46832e-08
1.58605e-08 1.2406e-08 2.7896e-08
-5.10513e-08 3.05939e-08 4.73744e-08
-5.1132e-08 -3.06387e-08 4.73902e-08
-3.84511e-08 -4.76251e-08 4.37035e-08
-3.82375e-08 4.71491e-08 4.36668e-08
-8.95393e-09 3.15922e-08 3.48244e-08
3.74029e-08 1.4368e-08 3.83854e-08
-1.86967e-08 5.40986e-08 4.19806e-08
3.83205e-08 3.08456e-08 4.16447e-08
3.85269e-08 -3.1156e-08 4.17229e-08
3.93481e-08 -1.49495e-08 3.91777e-08
-2.84496e-09 2.99987e-09 9.84217e-09
-3.521e-09 1.48158e-08 2.38675e-08
-3.62449e-09 -1.48329e-08 2.38754e-08
-1.29886e-08 3.4662e-09 2.35161e-08
-1.30965e-08 1.56742e-08 2.83236e-08
-1.28256e-08 -1.61299e-08 2.84249e-08
-2.65287e-08 -2.83161e-08 3.81565e-08
1.32297e-08 -1.31484e-08 2.67871e-08
-2.6445e-08 2.83349e-08 3.81294e-08
-3.88779e-08 3.88618e-08 4.37313e-08
-3.89803e-08 -3.89655e-08 4.37551e-08
-2.33822e-08 1.76369e-08 3.44679e-08
-2.38052e-08 -1.75182e-08 3.46453e-08
1.38311e-09 -5.17993e-09 1.23515e-08
4.95906e-09 -1.30953e-09 1.21666e-08
4.02821e-08 4.1528e-08 4.27356e-08
4.02631e-08 -4.15398e-08 4.27195e-08
2.80018e-09 6.74234e-08 4.68952e-08
1.29415e-09 -6.74759e-08 4.69161e-08
8.85872e-08 9.25646e-08 3.40152e-08
9.19361e-08 1.31174e-07 3.42473e-08
5.41083e-08 1.33676e-07 3.42223e-08
4.99167e-08 9.38936e-08 3.39481e-08
3.0554e-08 1.45224e-07 4.37588e-08
2.52314e-08 8.60871e-08 4.35766e-08
7.25434e-08 1.36279e-07 3.21734e-08
4.85838e-08 1.14877e-07 3.13593e-08
9.25999e-08 1.11783e-07 3.16583e-08
6.90161e-08 8.94875e-08 3.19656e-08
2.23057e-08 1.48351e-07 4.60734e-08
1.67292e-08 8.51136e-08 4.60112e-08
1.15045e-07 1.34985e-07 4.2369e-08
1.09561e-07 8.97175e-08 4.18274e-08
6.67487e-08 6.58767e-08 4.20863e-08
7.33065e-08 1.61539e-07 4.21637e-08
6.02757e-08 1.50821e-07 3.89636e-08
5.34636e-08 7.61027e-08 3.85837e-08
3.15892e-08 1.25309e-07 3.93721e-08
2.89328e-08 1.06109e-07 3.94845e-08
8.74208e-08 1.50894e-07 3.9288e-08
8.32139e-08 7.36661e-08 3.89573e-08
7.77568e-08 1.03519e-07 2.53621e-08
7.97674e-08 1.21491e-07 2.564e-08
6.345e-08 1.20702e-07 2.48935e-08
6.20113e-08 1.05409e-07 2.46336e-08
2.04308e-08 1.55345e-07 4.68902e-08
1.41646e-08 7.88075e-08 4.68703e-08
4.44929e-08 1.47787e-07 4.06694e-08
3.80711e-08 8.03383e-08 4.02325e-08
1.12504e-07 1.18583e-07 3.99447e-08
1.09227e-07 1.04229e-07 3.93589e-08
3.74122e-08 9.66844e-08 3.81089e-08
4.09966e-08 1.32861e-07 3.82814e-08
7.29243e-08 5.4968e-08 4.51804e-08
7.98483e-08 1.73135e-07 4.50298e-08
1.033e-07 1.4493e-07 4.06331e-08
9.82937e-08 8.04083e-08 3.98081e-08
7.41317e-08 1.25224e-07 2.59519e-08
6.76017e-08 1.00464e-07 2.55968e-08
5.82759e-08 1.11929e-07 2.55631e-08
8.31475e-08 1.11552e-07 2.60422e-08
1.96562e-08 1.37173e-07 4.43667e-08
1.55505e-08 9.62368e-08 4.43068e-08
9.93304e-08 1.23762e-07 3.5596e-08
1.20241e-07 1.45876e-07 4.46659e-08
1.15548e-07 7.84986e-08 4.47876e-08
9.67168e-08 1.01916e-07 3.49827e-08
6.43091e-08 1.32907e-07 3.11686e-08
7.7835e-08 9.27855e-08 3.08721e-08
5.29383e-08 1.22573e-07 3.07625e-08
8.23289e-08 1.30852e-07 3.09466e-08
5.97947e-08 9.42571e-08 3.0731e-08
5.26112e-08 1.06118e-07 2.96901e-08
5.34068e-08 6.36634e-08 4.20713e-08
6.14833e-08 1.6345e-07 4.23664e-08
6.89868e-08 1.7572e-07 4.55226e-08
6.11851e-08 5.30616e-08 4.5693e-08
1.63818e-08 1.44221e-07 4.64008e-08
1.10986e-08 9.01506e-08 4.63575e-08
2.02709e-08 1.16598e-07 4.08404e-08
1.30367e-07 1.38051e-07 4.58946e-08
1.26758e-07 8.65897e-08 4.63157e-08
8.32978e-08 1.61915e-07 4.2307e-08
7.78774e-08 6.42557e-08 4.21483e-08
8.77834e-08 1.18197e-07 2.9263e-08
7.21067e-08 7.72298e-08 3.77193e-08
7.71425e-08 1.48795e-07 3.79564e-08
6.87757e-08 1.49895e-07 3.82865e-08
6.27227e-08 7.675e-08 3.80496e-08
4.17256e-08 7.02246e-08 4.06448e-08
4.98857e-08 1.56398e-07 4.12551e-08
1.19069e-07 9.83315e-08 4.27535e-08
1.22578e-07 1.26906e-07 4.29219e-08
2.92692e-08 1.5346e-07 4.48985e-08
2.27031e-08 7.80234e-08 4.46801e-08
4.07631e-08 1.06223e-07 3.53237e-08
2.66141e-08 9.59557e-08 4.1815e-08
3.04579e-08 1.35485e-07 4.19118e-08
1.45252e-08 1.5544e-07 4.7691e-08
1.51508e-08 1.50703e-07 4.74221e-08
8.21865e-09 8.02187e-08 4.77468e-08
9.08492e-09 8.43825e-08 4.74132e-08
8.51416e-08 1.04455e-07 2.88543e-08
9.94046e-08 1.53877e-07 4.12675e-08
9.49717e-08 6.85616e-08 4.07685e-08
3.96572e-08 1.41808e-07 4.07447e-08
3.45466e-08 8.76347e-08 4.04691e-08
8.0414e-08 1.81512e-07 4.64653e-08
7.26062e-08 4.74681e-08 4.68036e-08
4.25452e-08 1.23632e-07 3.54723e-08
3.54477e-08 1.1583e-07 3.70129e-08
1.17701e-07 1.09384e-07 4.1049e-08
1.29398e-07 1.48969e-07 4.64895e-08
1.24632e-07 7.62821e-08 4.6908e-08
9.20778e-08 1.40493e-07 3.7043e-08
8.64313e-08 8.23129e-08 3.66795e-08
9.95765e-08 9.12345e-08 3.82638e-08
4.92609e-08 8.42644e-08 3.68545e-08
5.51487e-08 1.4296e-07 3.72731e-08
6.97353e-08 1.20361e-07 2.2311e-08
7.25015e-08 1.04856e-07 2.25363e-08
7.85083e-08 1.15148e-07 2.26472e-08
6.35268e-08 1.15674e-07 2.24778e-08
1.02854e-07 1.34504e-07 3.86918e-08
1.87461e-08 1.28395e-07 4.25289e-08
1.59136e-08 1.05006e-07 4.25177e-08
6.67622e-08 1.09659e-07 2.0312e-08
5.96417e-08 8.4961e-08 3.48244e-08
7.4463e-08 1.19113e-07 2.19721e-08
7.60825e-08 1.09418e-07 2.15199e-08
8.7425e-08 6.17615e-08 4.18141e-08
9.23596e-08 1.62214e-07 4.21658e-08
8.14921e-08 1.41067e-07 3.52207e-08
1.03971e-07 1.11631e-07 3.68901e-08
6.43741e-08 1.42249e-07 3.54151e-08
2.40829e-08 1.42296e-07 4.4738e-08
1.92631e-08 9.05373e-08 4.4652e-08
3.01746e-08 7.24759e-08 4.25729e-08
3.79544e-08 1.56182e-07 4.30649e-08
8.69858e-08 1.24255e-07 3.02154e-08
7.75959e-08 8.34048e-08 3.51579e-08
1.05387e-07 9.80236e-08 3.90169e-08
1.10695e-07 1.42275e-07 4.20741e-08
1.06498e-07 8.2017e-08 4.1916e-08
1.09945e-07 1.27122e-07 3.98403e-08
6.77434e-08 1.166e-07 2.06505e-08
7.31381e-08 9.83534e-08 2.7017e-08
6.86187e-08 1.27259e-07 2.71934e-08
5.78577e-08 1.1707e-07 2.65362e-08
5.97003e-08 1.27838e-07 2.9983e-08
8.09534e-08 9.79837e-08 2.93295e-08
4.27932e-08 8.9305e-08 3.7467e-08
4.77482e-08 1.38891e-07 3.77763e-08
5.60244e-08 9.91576e-08 2.9986e-08
3.65082e-08 1.48781e-07 4.2709e-08
3.03332e-08 8.09097e-08 4.23775e-08
4.96837e-08 1.29565e-07 3.4367e-08
4.65727e-08 9.8849e-08 3.40887e-08
6.79741e-08 1.06256e-07 2.15929e-08
6.38126e-08 1.11355e-07 2.16867e-08
1.11963e-07 1.51665e-07 4.30718e-08
1.07337e-07 7.17294e-08 4.27339e-08
6.65504e-08 4.8594e-08 4.68389e-08
7.42375e-08 1.8084e-07 4.64929e-08
1.52203e-07 -1.79204e-08 3.39383e-08
1.52314e-07 1.87685e-08 3.42542e-08
1.13278e-07 1.98684e-08 3.39678e-08
1.13225e-07 -1.98429e-08 3.40043e-08
8.90647e-08 2.90089e-08 4.35551e-08
8.90045e-08 -2.90035e-08 4.35688e-08
1.32211e-07 2.26248e-08 3.21e-08
1.09614e-07 -1.88998e-10 3.12797e-08
1.54383e-07 -7.36851e-10 3.13009e-08
1.3196e-07 -2.26827e-08 3.21547e-08
8.0636e-08 3.04895e-08 4.59661e-08
8.05604e-08 -3.04951e-08 4.59802e-08
1.76152e-07 -2.31321e-08 4.23887e-08
1.74008e-07 2.21269e-08 4.171e-08
1.3224e-07 -4.67299e-08 4.22607e-08
1.34396e-07 4.65836e-08 4.22916e-08
1.47296e-07 3.55739e-08 3.90553e-08
1.18297e-07 -3.71892e-08 3.86838e-08
9.15554e-08 9.47303e-09 3.92162e-08
9.03838e-08 -9.47428e-09 3.95364e-08
1.47103e-07 -3.70144e-08 3.94333e-08
1.18512e-07 3.89173e-08 3.90889e-08
1.39925e-07 -7.00794e-09 2.4441e-08
1.40656e-07 8.5951e-09 2.56079e-08
1.23347e-07 7.63677e-09 2.51723e-08
1.23723e-07 -7.19335e-09 2.48271e-08
7.86069e-08 3.679e-08 4.68196e-08
7.85202e-08 -3.68004e-08 4.68559e-08
1.02526e-07 3.39435e-08 4.02691e-08
1.02465e-07 -3.38082e-08 4.02774e-08
1.74818e-07 -6.76909e-09 3.98815e-08
1.72766e-07 7.67262e-09 3.92667e-08
1.00291e-07 -1.78975e-08 3.80917e-08
1.0034e-07 1.79169e-08 3.80756e-08
1.39494e-07 -5.7716e-08 4.53457e-08
1.29094e-07 5.79681e-08 4.52551e-08
1.63616e-07 -3.22685e-08 4.07226e-08
1.63609e-07 3.15426e-08 4.05864e-08
1.3445e-07 1.19997e-08 2.59201e-08
1.34003e-07 -1.18399e-08 2.5737e-08
1.19673e-07 2.0202e-09 2.56663e-08
1.44658e-07 -1.44061e-09 2.55491e-08
7.83753e-08 1.97295e-08 4.42199e-08
7.83338e-08 -1.9728e-08 4.42151e-08
1.61105e-07 -1.06265e-08 3.55111e-08
1.80767e-07 -3.41486e-08 4.47028e-08
1.80481e-07 3.38459e-08 4.46225e-08
1.59313e-07 1.06594e-08 3.47391e-08
1.23196e-07 1.98432e-08 3.12903e-08
1.23563e-07 -1.93592e-08 3.10377e-08
1.13084e-07 -8.47565e-09 3.06399e-08
1.42333e-07 -1.74375e-08 3.08278e-08
1.42656e-07 1.75833e-08 3.09368e-08
1.1452e-07 7.81383e-09 2.9778e-08
1.19445e-07 -4.94955e-08 4.21424e-08
1.46877e-07 4.77568e-08 4.25521e-08
1.40493e-07 5.97222e-08 4.5873e-08
1.28425e-07 -6.00866e-08 4.57352e-08
7.45123e-08 2.59437e-08 4.62794e-08
7.44566e-08 -2.59458e-08 4.62744e-08
8.10752e-08 1.50921e-10 4.06581e-08
1.91358e-07 -2.68347e-08 4.58952e-08
1.91551e-07 2.64746e-08 4.59255e-08
1.42747e-07 -4.72905e-08 4.25222e-08
1.23834e-07 4.85583e-08 4.23133e-08
1.36368e-07 -3.46762e-08 3.80162e-08
1.29065e-07 3.50518e-08 3.78769e-08
1.48871e-07 5.54772e-09 2.88318e-08
1.38074e-07 3.52407e-08 3.83345e-08
1.27374e-07 -3.59003e-08 3.82016e-08
1.58612e-07 4.03446e-08 4.1215e-08
1.49425e-07 -8.06788e-09 2.9785e-08
1.07051e-07 -4.34751e-08 4.07102e-08
1.83153e-07 1.38249e-08 4.25153e-08
1.84267e-07 -1.54498e-08 4.28937e-08
8.72219e-08 3.70298e-08 4.4681e-08
8.71514e-08 -3.70106e-08 4.46932e-08
1.02574e-07 8.65779e-09 3.53509e-08
8.94662e-08 -1.9314e-08 4.17835e-08
8.95944e-08 1.93105e-08 4.17457e-08
7.25136e-08 3.57499e-08 4.76541e-08
7.3014e-08 3.1697e-08 4.73373e-08
7.24272e-08 -3.57895e-08 4.77019e-08
7.29311e-08 -3.1709e-08 4.73464e-08
1.5922e-07 -4.07168e-08 4.13989e-08
9.83173e-08 2.69215e-08 4.04626e-08
9.82598e-08 -2.69047e-08 4.04826e-08
1.40469e-07 -6.58448e-08 4.6854e-08
1.2997e-07 6.55417e-08 4.68421e-08
1.06481e-07 4.38657e-08 4.08484e-08
1.02857e-07 -8.33979e-09 3.5178e-08
9.59324e-08 7.27954e-10 3.70313e-08
1.80819e-07 2.3643e-09 4.09215e-08
1.53311e-07 2.80273e-08 3.75444e-08
1.89836e-07 -3.76514e-08 4.65132e-08
1.89854e-07 3.7465e-08 4.6527e-08
1.52487e-07 -2.77289e-08 3.72834e-08
1.62919e-07 2.12055e-08 3.82958e-08
1.13447e-07 -2.94164e-08 3.69603e-08
1.29603e-07 7.35059e-09 2.2517e-08
1.30221e-07 -6.99727e-09 2.22543e-08
1.4019e-07 2.60729e-09 2.27251e-08
1.24407e-07 -1.83756e-09 2.2293e-08
1.13286e-07 2.99549e-08 3.70912e-08
1.63714e-07 -2.19465e-08 3.86915e-08
7.81524e-08 1.13641e-08 4.23556e-08
7.75721e-08 -1.11416e-08 4.24009e-08
1.35641e-07 -3.12742e-09 2.03825e-08
1.40661e-07 2.66873e-08 3.48592e-08
1.35306e-07 6.1415e-09 2.19215e-08
1.26005e-07 2.85022e-09 2.16002e-08
1.51851e-07 -4.82033e-08 4.23816e-08
1.41255e-07 -2.74e-08 3.52804e-08
1.66509e-07 4.22664e-10 3.67529e-08
1.23044e-07 -2.85914e-08 3.52494e-08
1.48189e-07 1.153e-08 3.02466e-08
8.26891e-08 2.5044e-08 4.45973e-08
8.2618e-08 -2.50471e-08 4.46073e-08
9.53534e-08 4.1528e-08 4.25509e-08
9.51516e-08 -4.19219e-08 4.26175e-08
1.23386e-07 2.89565e-08 3.53387e-08
1.69585e-07 1.42451e-08 3.90955e-08
1.14125e-07 4.987e-08 4.1684e-08
1.71291e-07 -3.00629e-08 4.21213e-08
1.71064e-07 2.96531e-08 4.20148e-08
1.71567e-07 -1.5005e-08 3.98262e-08
1.28402e-07 -3.16423e-09 2.05897e-08
1.28474e-07 1.38515e-08 2.70909e-08
1.2844e-07 -1.38499e-08 2.71387e-08
1.18576e-07 -3.07472e-09 2.64381e-08
1.19475e-07 1.44005e-08 2.98405e-08
1.19309e-07 -1.41588e-08 2.98452e-08
1.06443e-07 -2.47631e-08 3.75017e-08
1.45653e-07 -1.23193e-08 2.95401e-08
1.06482e-07 2.48605e-08 3.74963e-08
9.46844e-08 3.36756e-08 4.23697e-08
9.45986e-08 -3.37171e-08 4.24004e-08
1.0924e-07 -1.52971e-08 3.41586e-08
1.08895e-07 1.5169e-08 3.42507e-08
1.3419e-07 -6.20678e-09 2.17426e-08
1.38823e-07 -1.74308e-09 2.159e-08
1.72068e-07 -3.94316e-08 4.31481e-08
1.72066e-07 3.92896e-08 4.31248e-08
1.36011e-07 6.47265e-08 4.69052e-08
1.34443e-07 -6.46701e-08 4.68548e-08
9.14037e-08 -1.31486e-07 3.41673e-08
8.91212e-08 -9.29354e-08 3.41334e-08
4.99055e-08 -9.37945e-08 3.39413e-08
5.40436e-08 -1.33622e-07 3.42102e-08
2.52118e-08 -8.605e-08 4.35684e-08
3.05048e-08 -1.45198e-07 4.37554e-08
6.85255e-08 -8.95378e-08 3.19412e-08
4.84139e-08 -1.13713e-07 3.13508e-08
9.26076e-08 -1.12383e-07 3.16644e-08
7.30892e-08 -1.36285e-07 3.21902e-08
1.67316e-08 -8.50938e-08 4.6e-08
2.22496e-08 -1.48326e-07 4.60641e-08
1.11625e-07 -8.89156e-08 4.25236e-08
1.12814e-07 -1.34141e-07 4.17265e-08
7.32575e-08 -1.61534e-07 4.21581e-08
6.8903e-08 -6.58107e-08 4.20868e-08
8.33167e-08 -7.52171e-08 3.86231e-08
6.02394e-08 -1.50726e-07 3.89588e-08
2.95601e-08 -1.05831e-07 3.93069e-08
3.08475e-08 -1.25139e-07 3.95431e-08
8.73801e-08 -1.50939e-07 3.92613e-08
5.33733e-08 -7.42239e-08 3.90109e-08
7.9534e-08 -1.21288e-07 2.54737e-08
7.78315e-08 -1.03286e-07 2.55335e-08
6.14536e-08 -1.05935e-07 2.47785e-08
6.40397e-08 -1.21138e-07 2.47519e-08
1.41741e-08 -7.87895e-08 4.68371e-08
2.03728e-08 -1.55316e-07 4.68806e-08
3.80156e-08 -8.01395e-08 4.02421e-08
4.44538e-08 -1.47749e-07 4.06643e-08
1.11346e-07 -1.05243e-07 4.00222e-08
1.10494e-07 -1.19574e-07 3.93038e-08
4.09554e-08 -1.32835e-07 3.8285e-08
3.73778e-08 -9.66471e-08 3.80935e-08
7.9796e-08 -1.73125e-07 4.50197e-08
6.20126e-08 -5.50999e-08 4.51749e-08
9.95288e-08 -7.84272e-08 4.04307e-08
1.01906e-07 -1.42911e-07 4.00193e-08
7.14584e-08 -1.00176e-07 2.5797e-08
7.0355e-08 -1.25339e-07 2.57636e-08
5.87049e-08 -1.15336e-07 2.55879e-08
8.32339e-08 -1.12935e-07 2.60555e-08
1.55329e-08 -9.62202e-08 4.43109e-08
1.96121e-08 -1.37152e-07 4.43575e-08
9.73706e-08 -1.00216e-07 3.55995e-08
1.15837e-07 -7.83118e-08 4.48772e-08
1.19861e-07 -1.45679e-07 4.46151e-08
9.83561e-08 -1.22103e-07 3.49958e-08
5.96777e-08 -9.30934e-08 3.1235e-08
8.09157e-08 -1.32037e-07 3.1076e-08
5.09343e-08 -1.054e-07 3.06496e-08
7.93227e-08 -9.39798e-08 3.07056e-08
6.37811e-08 -1.32271e-07 3.09664e-08
5.43796e-08 -1.21678e-07 2.97917e-08
6.14263e-08 -1.63445e-07 4.23754e-08
8.21575e-08 -6.30954e-08 4.20815e-08
6.89325e-08 -1.75714e-07 4.55208e-08
7.36177e-08 -5.28777e-08 4.57001e-08
1.10911e-08 -9.01361e-08 4.63637e-08
1.63288e-08 -1.44197e-07 4.63838e-08
2.01814e-08 -1.16093e-07 4.08397e-08
1.26562e-07 -8.63188e-08 4.62989e-08
1.30482e-07 -1.37788e-07 4.59492e-08
8.3244e-08 -1.61912e-07 4.22905e-08
5.77933e-08 -6.44294e-08 4.22136e-08
8.66129e-08 -1.06123e-07 2.92316e-08
7.71003e-08 -1.48786e-07 3.79293e-08
6.44248e-08 -7.74379e-08 3.77205e-08
7.37562e-08 -7.64277e-08 3.80531e-08
6.87268e-08 -1.49904e-07 3.82956e-08
9.49034e-08 -6.9088e-08 4.06649e-08
4.98384e-08 -1.56351e-07 4.12585e-08
1.21309e-07 -1.25407e-07 4.25677e-08
1.20067e-07 -9.68201e-08 4.31494e-08
2.26891e-08 -7.79664e-08 4.46741e-08
2.92175e-08 -1.5343e-07 4.48936e-08
4.25169e-08 -1.23213e-07 3.54103e-08
3.03595e-08 -1.35456e-07 4.1927e-08
2.66426e-08 -9.59153e-08 4.17911e-08
8.23212e-09 -8.0236e-08 4.77009e-08
9.0987e-09 -8.43756e-08 4.74059e-08
1.44614e-08 -1.5541e-07 4.76773e-08
1.50862e-08 -1.50674e-07 4.74062e-08
8.6537e-08 -1.19898e-07 2.89212e-08
9.87242e-08 -1.54221e-07 4.12359e-08
3.45119e-08 -8.75783e-08 4.04599e-08
3.96132e-08 -1.41777e-07 4.07426e-08
8.03615e-08 -1.81501e-07 4.6457e-08
6.18711e-08 -4.75653e-08 4.67907e-08
4.10268e-08 -6.97806e-08 4.07918e-08
4.06257e-08 -1.05805e-07 3.53764e-08
3.52852e-08 -1.14628e-07 3.7007e-08
1.18077e-07 -1.1408e-07 4.10205e-08
8.84114e-08 -8.37313e-08 3.66554e-08
1.24642e-07 -7.61806e-08 4.69248e-08
1.29327e-07 -1.48886e-07 4.65307e-08
8.99573e-08 -1.41716e-07 3.69563e-08
1.02535e-07 -1.32522e-07 3.83103e-08
5.50586e-08 -1.42797e-07 3.72357e-08
6.77407e-08 -1.05431e-07 2.21954e-08
7.43003e-08 -1.20434e-07 2.26575e-08
7.77835e-08 -1.0966e-07 2.26126e-08
6.28203e-08 -1.10969e-07 2.24411e-08
4.89715e-08 -8.35373e-08 3.70473e-08
9.96344e-08 -8.92794e-08 3.86315e-08
1.62005e-08 -1.04798e-07 4.24898e-08
1.83595e-08 -1.2823e-07 4.25547e-08
6.78145e-08 -1.16377e-07 2.03725e-08
6.49258e-08 -1.41583e-07 3.51045e-08
7.68616e-08 -8.47761e-08 3.46099e-08
7.27461e-08 -1.06147e-07 2.18654e-08
7.68481e-08 -1.15511e-07 2.15757e-08
9.21852e-08 -1.62314e-07 4.21707e-08
1.03973e-07 -1.12319e-07 3.68998e-08
1.92608e-08 -9.05148e-08 4.46458e-08
2.40237e-08 -1.42273e-07 4.47329e-08
3.03115e-08 -7.28134e-08 4.25176e-08
3.79071e-08 -1.56144e-07 4.30633e-08
8.48706e-08 -1.00086e-07 3.01284e-08
8.15386e-08 -1.41644e-07 3.5402e-08
5.91334e-08 -8.38899e-08 3.52473e-08
1.07578e-07 -1.25847e-07 3.89677e-08
4.8021e-08 -6.33755e-08 4.16016e-08
1.06793e-07 -8.132e-08 4.20697e-08
1.10278e-07 -1.41538e-07 4.19386e-08
1.0751e-07 -9.67803e-08 3.99317e-08
6.65592e-08 -1.0947e-07 2.05874e-08
7.58503e-08 -1.26891e-07 2.71897e-08
6.5392e-08 -9.87288e-08 2.70148e-08
5.69467e-08 -1.10319e-07 2.64863e-08
8.33463e-08 -1.26596e-07 2.94763e-08
5.62372e-08 -9.93656e-08 2.97652e-08
4.76976e-08 -1.38851e-07 3.7773e-08
5.9233e-08 -1.27913e-07 3.01777e-08
4.27395e-08 -8.91593e-08 3.7475e-08
3.0331e-08 -8.0906e-08 4.2357e-08
3.64624e-08 -1.48748e-07 4.27058e-08
4.63691e-08 -9.86796e-08 3.4169e-08
4.97608e-08 -1.29389e-07 3.42771e-08
6.96995e-08 -1.19554e-07 2.17007e-08
6.4341e-08 -1.15142e-07 2.17157e-08
1.08549e-07 -7.12393e-08 4.30358e-08
1.11149e-07 -1.51225e-07 4.29355e-08
6.79852e-08 -4.85539e-08 4.68363e-08
7.41848e-08 -1.80831e-07 4.64878e-08
-3.65764e-08 -1.40585e-07 3.40895e-08
-4.2295e-08 -1.00976e-07 3.48591e-08
-8.47859e-08 -1.11243e-07 3.63319e-08
-7.39802e-08 -1.52279e-07 3.46618e-08
-9.84377e-08 -1.68016e-07 4.39678e-08
-1.1464e-07 -1.08815e-07 4.69015e-08
-6.48301e-08 -1.01978e-07 3.35381e-08
-8.19811e-08 -1.33385e-07 3.25686e-08
-3.69761e-08 -1.21793e-07 3.1358e-08
-5.45488e-08 -1.50475e-07 3.24352e-08
-1.07559e-07 -1.72108e-07 4.61081e-08
-1.25137e-07 -1.10013e-07 4.92891e-08
-2.15849e-08 -9.63931e-08 4.19501e-08
-1.35503e-08 -1.4243e-07 4.2678e-08
-5.11424e-08 -1.76084e-07 4.24036e-08
-6.79233e-08 -7.68043e-08 4.46089e-08
-8.2558e-08 -9.08804e-08 4.20222e-08
-6.56001e-08 -1.67887e-07 3.9224e-08
-9.76444e-08 -1.4807e-07 4.04067e-08
-1.04239e-07 -1.28404e-07 4.16423e-08
-5.00649e-08 -8.25405e-08 4.01535e-08
-3.84237e-08 -1.62582e-07 3.95795e-08
-4.99423e-08 -1.31301e-07 2.45372e-08
-5.30619e-08 -1.14206e-07 2.60526e-08
-7.01952e-08 -1.21768e-07 2.59721e-08
-6.59823e-08 -1.37614e-07 2.57984e-08
-1.08918e-07 -1.79003e-07 4.68045e-08
-1.30305e-07 -1.0455e-07 5.09316e-08
-8.27786e-08 -1.68101e-07 4.09235e-08
-1.00599e-07 -9.96133e-08 4.41957e-08
-1.52392e-08 -1.25594e-07 3.97656e-08
-1.95544e-08 -1.11436e-07 3.92044e-08
-8.78269e-08 -1.54139e-07 3.88656e-08
-9.7843e-08 -1.16957e-07 4.0533e-08
-6.158e-08 -6.39764e-08 4.73443e-08
-4.33048e-08 -1.86853e-07 4.52626e-08
-2.4051e-08 -1.5398e-07 4.10223e-08
-3.38399e-08 -8.76144e-08 4.03673e-08
-6.03987e-08 -1.12496e-07 2.67674e-08
-5.44601e-08 -1.38428e-07 2.59569e-08
-7.12564e-08 -1.32979e-07 2.65636e-08
-4.66271e-08 -1.24138e-07 2.56507e-08
-1.10057e-07 -1.61481e-07 4.48409e-08
-1.21607e-07 -1.21298e-07 4.68052e-08
-2.88889e-08 -1.31194e-07 3.55761e-08
-1.6961e-08 -8.38655e-08 4.50298e-08
-8.50366e-09 -1.53581e-07 4.52031e-08
-3.42923e-08 -1.10094e-07 3.46331e-08
-7.34126e-08 -1.084e-07 3.2836e-08
-6.33346e-08 -1.49131e-07 3.15022e-08
-8.12665e-08 -1.23593e-07 3.22348e-08
-4.57379e-08 -1.42264e-07 3.09856e-08
-5.25309e-08 -1.0406e-07 3.16227e-08
-7.50175e-08 -1.40306e-07 3.06517e-08
-6.28057e-08 -1.80114e-07 4.2601e-08
-8.27582e-08 -7.72913e-08 4.63098e-08
-5.38427e-08 -1.91019e-07 4.57386e-08
-7.39931e-08 -6.38465e-08 4.92716e-08
-1.14205e-07 -1.68712e-07 4.64888e-08
-1.29531e-07 -1.16556e-07 4.91056e-08
-1.09305e-07 -1.40767e-07 4.25441e-08
5.19603e-10 -1.45176e-07 4.63596e-08
-5.41684e-09 -9.14739e-08 4.63512e-08
-5.61373e-08 -7.32512e-08 4.3805e-08
-4.11898e-08 -1.74757e-07 4.25733e-08
-6.16756e-08 -8.80324e-08 3.9513e-08
-4.87099e-08 -1.62337e-07 3.82107e-08
-4.39294e-08 -1.15986e-07 2.90015e-08
-7.19405e-08 -8.95282e-08 4.05705e-08
-5.69845e-08 -1.65182e-07 3.85417e-08
-4.06795e-08 -1.30412e-07 2.98648e-08
-7.57885e-08 -1.75476e-07 4.14833e-08
-9.69235e-08 -8.77516e-08 4.56527e-08
-1.02845e-08 -1.04593e-07 4.2517e-08
-5.60373e-09 -1.33764e-07 4.29456e-08
-9.91031e-08 -1.76174e-07 4.49571e-08
-1.19916e-07 -1.01368e-07 4.89942e-08
-8.6912e-08 -1.44355e-07 3.64397e-08
-9.87494e-08 -1.58561e-07 4.24527e-08
-1.09822e-07 -1.18399e-07 4.43595e-08
-1.1582e-07 -1.79689e-07 4.75277e-08
-1.15957e-07 -1.75016e-07 4.72976e-08
-1.36795e-07 -1.07638e-07 5.1504e-08
-1.34403e-07 -1.11626e-07 5.05525e-08
-3.80438e-08 -7.55998e-08 4.15655e-08
-2.6632e-08 -1.63826e-07 4.16428e-08
-8.86746e-08 -1.632e-07 4.10765e-08
-1.03407e-07 -1.08131e-07 4.36839e-08
-4.18068e-08 -1.95318e-07 4.66853e-08
-6.20364e-08 -5.5951e-08 4.91214e-08
-9.146e-08 -1.26459e-07 3.70158e-08
-9.51511e-08 -1.37835e-07 3.85901e-08
-9.6705e-09 -1.16026e-07 4.06535e-08
-8.46935e-09 -8.05568e-08 4.71181e-08
-7.89877e-11 -1.56543e-07 4.71237e-08
-3.48693e-08 -1.51242e-07 3.74808e-08
-4.48926e-08 -9.08099e-08 3.7754e-08
-3.05267e-08 -9.82746e-08 3.89674e-08
-7.18946e-08 -1.61217e-07 3.75847e-08
-8.67819e-08 -1.00847e-07 4.00111e-08
-6.36425e-08 -1.19309e-07 2.3104e-08
-5.97586e-08 -1.35195e-07 2.28731e-08
-5.21619e-08 -1.20717e-07 2.29688e-08
-6.76309e-08 -1.2736e-07 2.31299e-08
-2.5313e-08 -1.42869e-07 3.89148e-08
-1.10292e-07 -1.5294e-07 4.3573e-08
-1.17458e-07 -1.30077e-07 4.47315e-08
-5.49685e-08 -1.28257e-07 2.05014e-08
-5.81304e-08 -1.18237e-07 2.2531e-08
-6.46023e-08 -1.31912e-07 2.22318e-08
-3.22161e-08 -1.73635e-07 4.24792e-08
-4.61942e-08 -6.93799e-08 4.2998e-08
-4.52256e-08 -1.53412e-07 3.54634e-08
-5.48955e-08 -9.38073e-08 3.63886e-08
-2.47225e-08 -1.19326e-07 3.66772e-08
-7.57439e-08 -9.86257e-08 3.76121e-08
-6.23107e-08 -1.58453e-07 3.56972e-08
-4.57519e-08 -1.0973e-07 3.05591e-08
-1.05609e-07 -1.66055e-07 4.49833e-08
-1.20068e-07 -1.14681e-07 4.75123e-08
-8.88582e-08 -1.77517e-07 4.32139e-08
-1.11476e-07 -9.34883e-08 4.77949e-08
-2.40632e-08 -1.04771e-07 3.92977e-08
-2.56545e-08 -8.87076e-08 4.2156e-08
-1.74276e-08 -1.50375e-07 4.24835e-08
-1.82521e-08 -1.34454e-07 3.99255e-08
-6.41412e-08 -1.24488e-07 2.13364e-08
-6.70843e-08 -1.12648e-07 2.83701e-08
-5.94577e-08 -1.42279e-07 2.74947e-08
-7.39517e-08 -1.27832e-07 2.75748e-08
-7.67464e-08 -1.15509e-07 3.15604e-08
-6.8631e-08 -1.45193e-07 3.04188e-08
-8.02213e-08 -1.58763e-07 3.8164e-08
-9.35778e-08 -1.07977e-07 4.04066e-08
-4.35796e-08 -1.3581e-07 2.9656e-08
-9.14762e-08 -1.70514e-07 4.29015e-08
-1.09884e-07 -1.0225e-07 4.63596e-08
-8.75499e-08 -1.17305e-07 3.62696e-08
-7.93919e-08 -1.49015e-07 3.5051e-08
-5.55666e-08 -1.32157e-07 2.17968e-08
-5.2335e-08 -1.25796e-07 2.17179e-08
-2.49518e-08 -7.73752e-08 4.32434e-08
-1.53599e-08 -1.60066e-07 4.35657e-08
-6.83288e-08 -5.81665e-08 4.98273e-08
-4.80683e-08 -1.95427e-07 4.67051e-08
-1.22666e-07 -3.26008e-08 5.35604e-08
-1.93295e-07 3.81817e-08 5.60442e-08
-1.22729e-07 3.38937e-08 5.35324e-08
-1.93358e-07 -3.81895e-08 5.6045e-08
-2.27607e-07 4.81984e-08 5.7132e-08
-2.27618e-07 -4.82294e-08 5.71311e-08
-1.5745e-07 4.51514e-08 5.47533e-08
-2.02819e-07 1.14436e-09 5.62878e-08
-1.1701e-07 -1.31474e-09 5.3518e-08
-1.57894e-07 -4.52228e-08 5.47636e-08
-2.38666e-07 5.01242e-08 5.74575e-08
-2.38677e-07 -5.01516e-08 5.74567e-08
-9.50533e-08 3.19763e-08 5.29493e-08
-9.27158e-08 -3.27897e-08 5.28891e-08
-1.54662e-07 -7.60498e-08 5.45706e-08
-1.5137e-07 7.55611e-08 5.43705e-08
-1.31636e-07 5.94323e-08 5.31548e-08
-1.79058e-07 -6.3962e-08 5.55839e-08
-2.26069e-07 1.78136e-08 5.68976e-08
-2.26931e-07 -1.74499e-08 5.69135e-08
-1.31858e-07 -6.14671e-08 5.30586e-08
-1.78237e-07 6.62342e-08 5.55589e-08
-1.40587e-07 -1.76748e-08 5.42508e-08
-1.78845e-07 1.81984e-08 5.55782e-08
-1.39781e-07 2.05052e-08 5.42155e-08
-1.79437e-07 -1.89418e-08 5.55984e-08
-2.40725e-07 5.80014e-08 5.75212e-08
-2.40739e-07 -5.80277e-08 5.75206e-08
-2.06659e-07 5.67205e-08 5.64666e-08
-2.0672e-07 -5.65737e-08 5.64678e-08
-9.15676e-08 -9.75129e-09 5.23475e-08
-9.42659e-08 1.14016e-08 5.25039e-08
-2.13596e-07 3.27201e-08 5.66573e-08
-2.13602e-07 -3.27559e-08 5.6657e-08
-1.43305e-07 -8.74239e-08 5.36373e-08
-1.57643e-07 8.97667e-08 5.48268e-08
-1.08395e-07 -4.95658e-08 5.25009e-08
-1.08422e-07 4.8608e-08 5.2562e-08
-1.53351e-07 2.85769e-08 5.46654e-08
-1.54241e-07 -2.82691e-08 5.46942e-08
-1.87515e-07 -4.88258e-09 5.58557e-08
-1.31347e-07 -3.38429e-09 5.39742e-08
-2.41448e-07 3.4818e-08 5.73429e-08
-2.41454e-07 -3.48455e-08 5.73419e-08
-1.09072e-07 -1.78217e-08 5.32874e-08
-8.8597e-08 -4.55882e-08 5.26005e-08
-8.89347e-08 4.53775e-08 5.26141e-08
-1.11447e-07 1.83624e-08 5.33564e-08
-1.75482e-07 4.02317e-08 5.54459e-08
-1.74846e-07 -3.96056e-08 5.54215e-08
-1.96814e-07 1.78522e-08 5.61317e-08
-1.38425e-07 -3.54771e-08 5.40515e-08
-1.37872e-07 3.55133e-08 5.40388e-08
-1.94782e-07 -1.67318e-08 5.60693e-08
-1.73689e-07 -7.99891e-08 5.54432e-08
-1.32295e-07 7.47285e-08 5.26355e-08
-1.58138e-07 -9.24272e-08 5.4861e-08
-1.41835e-07 8.94613e-08 5.3489e-08
-2.46149e-07 4.40636e-08 5.75514e-08
-2.46158e-07 -4.40894e-08 5.75508e-08
-2.3895e-07 4.32146e-10 5.70487e-08
-7.68676e-08 -3.44827e-08 5.24731e-08
-7.65879e-08 3.40824e-08 5.24421e-08
-1.38548e-07 -7.49483e-08 5.32906e-08
-1.67258e-07 7.87761e-08 5.52065e-08
-1.49143e-07 -6.0682e-08 5.42594e-08
-1.61449e-07 6.17648e-08 5.48989e-08
-1.25344e-07 1.14868e-08 5.37894e-08
-1.46311e-07 6.1113e-08 5.40997e-08
-1.64145e-07 -6.28233e-08 5.50104e-08
-1.14812e-07 6.26174e-08 5.16761e-08
-1.24819e-07 -1.61802e-08 5.37673e-08
-1.96028e-07 -7.04834e-08 5.6086e-08
-8.30862e-08 1.90878e-08 5.20009e-08
-8.22046e-08 -2.11684e-08 5.1994e-08
-2.29094e-07 5.85365e-08 5.71801e-08
-2.29108e-07 -5.85671e-08 5.71793e-08
-2.11655e-07 -1.63656e-08 5.65434e-08
-2.27806e-07 3.42888e-08 5.7059e-08
-2.27876e-07 -3.42907e-08 5.70596e-08
-2.47948e-07 5.66604e-08 5.76678e-08
-2.47846e-07 5.14564e-08 5.76513e-08
-2.47961e-07 -5.66847e-08 5.76673e-08
-2.47857e-07 -5.14811e-08 5.76508e-08
-1.13892e-07 -6.2836e-08 5.16329e-08
-2.1487e-07 4.61973e-08 5.67369e-08
-2.14886e-07 -4.62201e-08 5.67362e-08
-1.41607e-07 -9.57843e-08 5.32963e-08
-1.55233e-07 9.8635e-08 5.46832e-08
-1.96905e-07 7.0851e-08 5.6108e-08
-2.11678e-07 1.70781e-08 5.65457e-08
-2.20388e-07 1.08481e-09 5.67283e-08
-8.37937e-08 3.38423e-09 5.1436e-08
-1.22171e-07 4.76276e-08 5.30945e-08
-7.92263e-08 4.67153e-08 5.24591e-08
-7.92415e-08 -4.68726e-08 5.24538e-08
-1.23317e-07 -4.74892e-08 5.31539e-08
-1.08531e-07 3.40265e-08 5.31738e-08
-1.89923e-07 -5.25463e-08 5.59383e-08
-1.63641e-07 1.94033e-08 5.50565e-08
-1.65353e-07 -1.95645e-08 5.51158e-08
-1.39528e-07 6.8801e-09 5.42102e-08
-1.78499e-07 4.88278e-09 5.55957e-08
-1.90095e-07 5.32438e-08 5.59458e-08
-1.07541e-07 -3.48202e-08 5.31375e-08
-2.41973e-07 2.10643e-08 5.7191e-08
-2.42364e-07 -2.08207e-08 5.71924e-08
-1.49029e-07 -9.79771e-09 5.45254e-08
-1.42262e-07 4.92174e-08 5.40255e-08
-1.50448e-07 1.72715e-08 5.45873e-08
-1.75522e-07 -8.41541e-09 5.55084e-08
-1.24702e-07 -7.42422e-08 5.17254e-08
-1.41219e-07 -5.01314e-08 5.39441e-08
-1.01309e-07 7.15634e-10 5.2844e-08
-1.73183e-07 -5.28532e-08 5.53649e-08
-1.27545e-07 2.30772e-08 5.38078e-08
-2.3625e-07 4.27457e-08 5.73345e-08
-2.36267e-07 -4.277e-08 5.73338e-08
-2.15911e-07 6.54872e-08 5.67123e-08
-2.16048e-07 -6.602e-08 5.6712e-08
-1.72558e-07 5.33492e-08 5.53425e-08
-9.90545e-08 2.17778e-08 5.29231e-08
-1.82076e-07 7.99164e-08 5.56563e-08
-9.89963e-08 -4.3666e-08 5.26911e-08
-9.92669e-08 4.31886e-08 5.27184e-08
-9.67824e-08 -2.24272e-08 5.2865e-08
-1.69608e-07 1.03255e-08 5.53005e-08
-1.66362e-07 -3.16813e-08 5.51256e-08
-1.66364e-07 3.16364e-08 5.5128e-08
-1.88919e-07 7.45767e-09 5.58948e-08
-1.85046e-07 2.98296e-08 5.57717e-08
-1.84323e-07 -3.05467e-08 5.57471e-08
-2.02935e-07 -4.44135e-08 5.63562e-08
-1.31654e-07 -2.54637e-08 5.39195e-08
-2.0291e-07 4.44824e-08 5.63568e-08
-2.18822e-07 5.50434e-08 5.68583e-08
-2.18871e-07 -5.51376e-08 5.68586e-08
-2.01106e-07 2.9724e-08 5.62769e-08
-2.01622e-07 -2.94121e-08 5.62915e-08
-1.53628e-07 -1.69029e-08 5.46995e-08
-1.42147e-07 -4.78468e-09 5.42858e-08
-9.77017e-08 5.54859e-08 5.16261e-08
-9.76761e-08 -5.56174e-08 5.16229e-08
-1.49828e-07 -9.64245e-08 5.42528e-08
-1.47685e-07 9.58887e-08 5.40477e-08
-4.27496e-08 1.02297e-07 3.42033e-08
-3.62946e-08 1.41603e-07 3.44663e-08
-7.38439e-08 1.52168e-07 3.46266e-08
-8.48119e-08 1.11145e-07 3.63745e-08
-1.1467e-07 1.08758e-07 4.69267e-08
-9.83602e-08 1.67956e-07 4.39703e-08
-5.43036e-08 1.50326e-07 3.24354e-08
-8.18325e-08 1.3377e-07 3.2559e-08
-3.71911e-08 1.20335e-07 3.13446e-08
-6.47758e-08 1.019e-07 3.3524e-08
-1.25182e-07 1.09952e-07 4.93183e-08
-1.07484e-07 1.72054e-07 4.61112e-08
-1.5583e-08 1.41699e-07 4.19905e-08
-1.96019e-08 9.53653e-08 4.26085e-08
-6.78543e-08 7.67566e-08 4.45937e-08
-4.91813e-08 1.75605e-07 4.24155e-08
-3.84571e-08 1.61043e-07 3.92514e-08
-8.25143e-08 9.08006e-08 4.2035e-08
-1.03124e-07 1.28083e-07 4.13344e-08
-9.86888e-08 1.48321e-07 4.07319e-08
-5.00027e-08 8.25381e-08 4.01097e-08
-6.50592e-08 1.69403e-07 3.96611e-08
-5.3525e-08 1.16067e-07 2.474e-08
-4.88164e-08 1.32988e-07 2.58168e-08
-6.54873e-08 1.36961e-07 2.5371e-08
-7.0811e-08 1.21327e-07 2.64401e-08
-1.30367e-07 1.04485e-07 5.09702e-08
-1.08844e-07 1.78945e-07 4.68095e-08
-1.00593e-07 9.95442e-08 4.4228e-08
-8.26671e-08 1.68133e-07 4.0943e-08
-1.70837e-08 1.12331e-07 3.97541e-08
-1.73074e-08 1.26814e-07 3.92124e-08
-9.7858e-08 1.1689e-07 4.05674e-08
-8.77494e-08 1.5407e-07 3.88486e-08
-6.15093e-08 6.3938e-08 4.73286e-08
-5.34496e-08 1.88712e-07 4.52757e-08
-3.27843e-08 8.53449e-08 4.09018e-08
-2.41439e-08 1.53322e-07 4.09119e-08
-5.39927e-08 1.38451e-07 2.62107e-08
-6.06975e-08 1.12764e-07 2.65244e-08
-7.25416e-08 1.28693e-07 2.67529e-08
-4.72475e-08 1.21058e-07 2.56699e-08
-1.21644e-07 1.21255e-07 4.68314e-08
-1.09975e-07 1.61437e-07 4.48391e-08
-3.2257e-08 1.09308e-07 3.55747e-08
-8.76505e-09 1.53421e-07 4.51296e-08
-1.66786e-08 8.36601e-08 4.50811e-08
-3.06059e-08 1.31564e-07 3.48355e-08
-6.35999e-08 1.49566e-07 3.18121e-08
-7.33887e-08 1.08279e-07 3.28553e-08
-7.62136e-08 1.4129e-07 3.14847e-08
-5.2836e-08 1.04504e-07 3.138e-08
-4.54008e-08 1.42397e-07 3.11651e-08
-7.96814e-08 1.23863e-07 3.13596e-08
-8.27021e-08 7.72215e-08 4.63136e-08
-3.71785e-08 1.74445e-07 4.2624e-08
-4.22547e-08 1.88879e-07 4.57554e-08
-7.39282e-08 6.3793e-08 4.9265e-08
-1.29571e-07 1.16504e-07 4.91356e-08
-1.14131e-07 1.6866e-07 4.64898e-08
-1.09362e-07 1.40421e-07 4.25688e-08
-5.65746e-09 9.12697e-08 4.63253e-08
7.52499e-10 1.44908e-07 4.6372e-08
-5.60673e-08 7.32257e-08 4.3776e-08
-5.88364e-08 1.78899e-07 4.26476e-08
-6.16055e-08 8.80002e-08 3.9477e-08
-5.55174e-08 1.64028e-07 3.82177e-08
-4.16333e-08 1.27831e-07 2.89434e-08
-4.70772e-08 1.62634e-07 3.85485e-08
-7.18813e-08 8.94598e-08 4.05635e-08
-2.72495e-08 1.63678e-07 4.14772e-08
-4.38023e-08 1.13233e-07 2.99431e-08
-9.68883e-08 8.76748e-08 4.56813e-08
-6.61843e-09 1.32232e-07 4.25288e-08
-9.56982e-09 1.02965e-07 4.29204e-08
-1.1994e-07 1.01312e-07 4.90174e-08
-9.90274e-08 1.76115e-07 4.49625e-08
-9.18681e-08 1.26146e-07 3.72537e-08
-1.0976e-07 1.18327e-07 4.43565e-08
-9.87574e-08 1.58537e-07 4.24769e-08
-1.36869e-07 1.07583e-07 5.15566e-08
-1.34457e-07 1.11574e-07 5.05907e-08
-1.15745e-07 1.79635e-07 4.75312e-08
-1.15882e-07 1.74963e-07 4.73e-08
-3.73324e-08 7.5824e-08 4.15127e-08
-1.03421e-07 1.08063e-07 4.37144e-08
-8.85899e-08 1.63132e-07 4.10721e-08
-6.19675e-08 5.59102e-08 4.91099e-08
-5.25438e-08 1.97037e-07 4.66956e-08
-7.63007e-08 1.75912e-07 4.16617e-08
-8.66013e-08 1.43905e-07 3.62478e-08
-9.55352e-08 1.36277e-07 3.86696e-08
-8.98108e-09 1.20829e-07 4.06511e-08
-3.40432e-08 1.51489e-07 3.77896e-08
-5.94944e-11 1.56467e-07 4.71385e-08
-8.47015e-09 8.05178e-08 4.70619e-08
-4.35397e-08 9.14026e-08 3.7626e-08
-2.60773e-08 1.42304e-07 3.85398e-08
-8.67671e-08 1.00761e-07 4.0039e-08
-5.90574e-08 1.3466e-07 2.26283e-08
-6.43339e-08 1.19316e-07 2.33775e-08
-5.0708e-08 1.26428e-07 2.28844e-08
-6.63732e-08 1.31305e-07 2.29814e-08
-7.19315e-08 1.61662e-07 3.77462e-08
-3.17104e-08 9.69152e-08 3.88737e-08
-1.17043e-07 1.29672e-07 4.47248e-08
-1.10765e-07 1.52783e-07 4.36206e-08
-5.69825e-08 1.21386e-07 2.06727e-08
-4.58807e-08 1.52833e-07 3.50981e-08
-5.43643e-08 1.31831e-07 2.22183e-08
-6.66134e-08 1.25805e-07 2.24854e-08
-4.59877e-08 6.94097e-08 4.29267e-08
-5.53232e-08 9.42649e-08 3.6161e-08
-2.45432e-08 1.20165e-07 3.668e-08
-7.5702e-08 9.85322e-08 3.76217e-08
-4.12115e-08 1.34502e-07 3.04133e-08
-1.20091e-07 1.14625e-07 4.75344e-08
-1.05546e-07 1.66009e-07 4.49879e-08
-1.11456e-07 9.34251e-08 4.78276e-08
-8.87439e-08 1.77037e-07 4.31905e-08
-6.18932e-08 1.58636e-07 3.58265e-08
-2.01779e-08 1.33978e-07 3.92021e-08
-6.78927e-08 1.80625e-07 4.23249e-08
-2.52574e-08 8.77719e-08 4.23484e-08
-1.76613e-08 1.50075e-07 4.23922e-08
-2.24608e-08 1.04078e-07 3.98919e-08
-6.16595e-08 1.31366e-07 2.10625e-08
-5.94039e-08 1.42139e-07 2.75021e-08
-6.70481e-08 1.12518e-07 2.83744e-08
-7.19497e-08 1.34339e-07 2.73048e-08
-6.88229e-08 1.44929e-07 3.03995e-08
-7.6693e-08 1.15355e-07 3.15768e-08
-9.35962e-08 1.07891e-07 4.04487e-08
-4.85482e-08 1.09344e-07 2.98506e-08
-8.01188e-08 1.5874e-07 3.81606e-08
-1.09895e-07 1.02187e-07 4.63885e-08
-9.13783e-08 1.70382e-07 4.28967e-08
-7.8917e-08 1.48957e-07 3.49079e-08
-8.79225e-08 1.17489e-07 3.64238e-08
-5.92432e-08 1.18831e-07 2.21309e-08
-5.32683e-08 1.22023e-07 2.17793e-08
-1.53617e-08 1.60043e-07 4.35605e-08
-2.45904e-08 7.71086e-08 4.32759e-08
-4.66015e-08 1.9514e-07 4.67188e-08
-6.8262e-08 5.81192e-08 4.98183e-08
1.98923e-08 -1.9193e-08 -3.24287e-08
2.00842e-08 2.02778e-08 -3.28826e-08
-1.92982e-08 2.24362e-08 -3.38146e-08
-1.94222e-08 -2.24853e-08 -3.38818e-08
-4.46769e-08 -3.43783e-08 -4.55409e-08
-4.4602e-08 3.43293e-08 -4.55243e-08
1.84817e-10 2.45976e-08 -3.06495e-08
-2.26046e-08 6.36554e-10 -3.12822e-08
2.2084e-08 -6.99301e-10 -2.91844e-08
-6.70636e-11 -2.45663e-08 -3.06435e-08
-5.33746e-08 3.68688e-08 -4.84951e-08
-5.34471e-08 -3.69138e-08 -4.85058e-08
4.12263e-08 2.23425e-08 -4.1346e-08
4.3244e-08 -2.31368e-08 -4.208e-08
8.54715e-11 -4.96492e-08 -4.20509e-08
2.33986e-09 4.95583e-08 -4.20283e-08
1.59338e-08 3.8691e-08 -3.82724e-08
-1.43088e-08 -4.05386e-08 -3.8695e-08
-4.14496e-08 1.16896e-08 -4.19876e-08
-4.22112e-08 -1.15044e-08 -4.22778e-08
1.58386e-08 -4.01785e-08 -3.86228e-08
-1.41174e-08 4.23309e-08 -3.9144e-08
7.22119e-09 -7.24695e-09 -1.90279e-08
8.22061e-09 9.13924e-09 -2.11822e-08
-8.0591e-09 7.90218e-09 -2.05123e-08
-8.54784e-09 -8.43138e-09 -2.12674e-08
-5.56886e-08 4.38957e-08 -4.90614e-08
-5.57603e-08 -4.39373e-08 -4.90715e-08
-3.07064e-08 3.84301e-08 -4.11302e-08
-3.07829e-08 -3.83351e-08 -4.1129e-08
4.35802e-08 -6.46245e-09 -3.91361e-08
4.12671e-08 7.52785e-09 -3.85064e-08
-3.27128e-08 -2.11123e-08 -3.94879e-08
-3.26164e-08 2.10561e-08 -3.94483e-08
7.13306e-09 -6.04706e-08 -4.51748e-08
-3.6951e-09 6.11595e-08 -4.52863e-08
3.15734e-08 -3.45133e-08 -4.00612e-08
3.15397e-08 3.3829e-08 -3.9972e-08
2.30219e-09 1.27902e-08 -2.18625e-08
1.76276e-09 -1.24053e-08 -2.13646e-08
-1.20676e-08 -2.27001e-09 -2.23837e-08
1.16741e-08 -1.40152e-09 -2.07562e-08
-5.51831e-08 2.48052e-08 -4.79547e-08
-5.52487e-08 -2.48477e-08 -4.79641e-08
2.89262e-08 -1.08585e-08 -3.43118e-08
4.70743e-08 3.41054e-08 -4.46239e-08
4.73186e-08 -3.42688e-08 -4.46909e-08
2.70575e-08 1.10463e-08 -3.34504e-08
-9.00284e-09 2.17814e-08 -3.00102e-08
-8.63249e-09 -2.1279e-08 -2.96158e-08
-1.90974e-08 9.7245e-09 -2.99987e-08
1.02048e-08 -1.89129e-08 -2.87311e-08
1.05734e-08 1.91737e-08 -2.89405e-08
-1.77529e-08 -8.9349e-09 -2.88272e-08
-1.3256e-08 -5.3196e-08 -4.2298e-08
1.56957e-08 5.14275e-08 -4.19601e-08
8.06887e-09 6.26168e-08 -4.57028e-08
-4.43802e-09 -6.33211e-08 -4.58245e-08
-5.94625e-08 3.2401e-08 -4.98472e-08
-5.95283e-08 -3.24444e-08 -4.98516e-08
-5.21681e-08 2.91102e-10 -4.52489e-08
5.7567e-08 -2.59235e-08 -4.60871e-08
5.78389e-08 2.57084e-08 -4.6112e-08
1.12858e-08 -5.04583e-08 -4.20333e-08
-8.75824e-09 5.19528e-08 -4.23562e-08
4.55997e-09 -3.73285e-08 -3.73352e-08
-3.06901e-09 3.78118e-08 -3.74498e-08
1.62113e-08 5.84278e-09 -2.59342e-08
6.3567e-09 3.80828e-08 -3.76859e-08
-4.8404e-09 -3.86957e-08 -3.78385e-08
2.77186e-08 4.43182e-08 -4.04245e-08
1.69875e-08 -8.51625e-09 -2.72387e-08
-2.60211e-08 -4.80763e-08 -4.12338e-08
5.14924e-08 1.33828e-08 -4.2105e-08
5.23756e-08 -1.49028e-08 -4.2534e-08
-4.67237e-08 4.31886e-08 -4.63762e-08
-4.67948e-08 -4.323e-08 -4.63885e-08
-2.99827e-08 -1.00095e-08 -3.6577e-08
-4.38406e-08 -2.34755e-08 -4.4246e-08
-4.37098e-08 2.34399e-08 -4.4201e-08
-6.17627e-08 4.33279e-08 -5.04267e-08
-6.11393e-08 3.88697e-08 -5.0521e-08
-6.18336e-08 -4.33703e-08 -5.04346e-08
-6.12093e-08 -3.89124e-08 -5.05275e-08
2.83395e-08 -4.45471e-08 -4.0574e-08
-3.49621e-08 3.12329e-08 -4.17632e-08
-3.50478e-08 -3.12774e-08 -4.1789e-08
-3.22872e-09 6.88836e-08 -4.69223e-08
7.41578e-09 -6.82165e-08 -4.68258e-08
-2.66111e-08 4.8528e-08 -4.1432e-08
-2.99589e-08 1.04159e-08 -3.65941e-08
-3.6355e-08 6.83595e-10 -3.91919e-08
5.05743e-08 2.32455e-09 -4.0177e-08
2.15299e-08 3.05946e-08 -3.66246e-08
5.57628e-08 3.65909e-08 -4.68788e-08
5.57091e-08 -3.66265e-08 -4.6828e-08
2.06891e-08 -3.01571e-08 -3.62774e-08
3.04667e-08 2.2302e-08 -3.7532e-08
-1.9296e-08 -3.27354e-08 -3.71221e-08
-1.37495e-09 6.54083e-09 -1.44283e-08
-2.18935e-09 -6.76821e-09 -1.51749e-08
-6.23047e-09 1.62871e-09 -1.4894e-08
6.5188e-09 2.47896e-09 -1.53477e-08
-1.94555e-08 3.329e-08 -3.7284e-08
3.12001e-08 -2.29533e-08 -3.7925e-08
-5.51708e-08 1.46621e-08 -4.68802e-08
-5.55571e-08 -1.45181e-08 -4.69711e-08
2.52268e-09 -2.61383e-09 -8.97835e-09
8.8703e-09 2.90553e-08 -3.37206e-08
2.84521e-09 5.83226e-09 -1.38619e-08
-5.11557e-09 -2.92878e-09 -1.34409e-08
2.10094e-08 -5.23331e-08 -4.16543e-08
9.48517e-09 -2.97561e-08 -3.41358e-08
3.48774e-08 4.76068e-10 -3.56677e-08
-9.31101e-09 -3.12022e-08 -3.46832e-08
1.58605e-08 1.2406e-08 -2.7896e-08
-5.10513e-08 3.05939e-08 -4.73744e-08
-5.1132e-08 -3.06387e-08 -4.73902e-08
-3.84511e-08 -4.76251e-08 -4.37035e-08
-3.82375e-08 4.71491e-08 -4.36668e-08
-8.95393e-09 3.15922e-08 -3.48244e-08
3.74029e-08 1.4368e-08 -3.83854e-08
-1.86967e-08 5.40986e-08 -4.19806e-08
3.83205e-08 3.08456e-08 -4.16447e-08
3.85269e-08 -3.1156e-08 -4.17229e-08
3.93481e-08 -1.49495e-08 -3.91777e-08
-2.84496e-09 2.99987e-09 -9.84217e-09
-3.521e-09 1.48158e-08 -2.38675e-08
-3.62449e-09 -1.48329e-08 -2.38754e-08
-1.29886e-08 3.4662e-09 -2.35161e-08
-1.30965e-08 1.56742e-08 -2.83236e-08
-1.28256e-08 -1.61299e-08 -2.84249e-08
-2.65287e-08 -2.83161e-08 -3.81565e-08
1.32297e-08 -1.31484e-08 -2.67871e-08
-2.6445e-08 2.83349e-08 -3.81294e-08
-3.88779e-08 3.88618e-08 -4.37313e-08
-3.89803e-08 -3.89655e-08 -4.37551e-08
-2.33822e-08 1.76369e-08 -3.44679e-08
-2.38052e-08 -1.75182e-08 -3.46453e-08
1.38311e-09 -5.17993e-09 -1.23515e-08
4.95906e-09 -1.30953e-09 -1.21666e-08
4.02821e-08 4.1528e-08 -4.27356e-08
4.02631e-08 -4.15398e-08 -4.27195e-08
2.80018e-09 6.74234e-08 -4.68952e-08
1.29415e-09 -6.74759e-08 -4.69161e-08
8.85872e-08 9.25646e-08 -3.40152e-08
9.19361e-08 1.31174e-07 -3.42473e-08
5.41083e-08 1.33676e-07 -3.42223e-08
4.99167e-08 9.38936e-08 -3.39481e-08
3.0554e-08 1.45224e-07 -4.37588e-08
2.52314e-08 8.60871e-08 -4.35766e-08
7.25434e-08 1.36279e-07 -3.21734e-08
4.85838e-08 1.14877e-07 -3.13593e-08
9.25999e-08 1.11783e-07 -3.16583e-08
6.90161e-08 8.94875e-08 -3.19656e-08
2.23057e-08 1.48351e-07 -4.60734e-08
1.67292e-08 8.51136e-08 -4.60112e-08
1.15045e-07 1.34985e-07 -4.2369e-08
1.09561e-07 8.97175e-08 -4.18274e-08
6.67487e-08 6.58767e-08 -4.20863e-08
7.33065e-08 1.61539e-07 -4.21637e-08
6.02757e-08 1.50821e-07 -3.89636e-08
5.34636e-08 7.61027e-08 -3.85837e-08
3.15892e-08 1.25309e-07 -3.93721e-08
2.89328e-08 1.06109e-07 -3.94845e-08
8.74208e-08 1.50894e-07 -3.9288e-08
8.32139e-08 7.36661e-08 -3.89573e-08
7.77568e-08 1.03519e-07 -2.53621e-08
7.97674e-08 1.21491e-07 -2.564e-08
6.345e-08 1.20702e-07 -2.48935e-08
6.20113e-08 1.05409e-07 -2.46336e-08
2.04308e-08 1.55345e-07 -4.68902e-08
1.41646e-08 7.88075e-08 -4.68703e-08
4.44929e-08 1.47787e-07 -4.06694e-08
3.80711e-08 8.03383e-08 -4.02325e-08
1.12504e-07 1.18583e-07 -3.99447e-08
1.09227e-07 1.04229e-07 -3.93589e-08
3.74122e-08 9.66844e-08 -3.81089e-08
4.09966e-08 1.32861e-07 -3.82814e-08
7.29243e-08 5.4968e-08 -4.51804e-08
7.98483e-08 1.73135e-07 -4.50298e-08
1.033e-07 1.4493e-07 -4.06331e-08
9.82937e-08 8.04083e-08 -3.98081e-08
7.41317e-08 1.25224e-07 -2.59519e-08
6.76017e-08 1.00464e-07 -2.55968e-08
5.82759e-08 1.11929e-07 -2.55631e-08
8.31475e-08 1.11552e-07 -2.60422e-08
1.96562e-08 1.37173e-07 -4.43667e-08
1.55505e-08 9.62368e-08 -4.43068e-08
9.93304e-08 1.23762e-07 -3.5596e-08
1.20241e-07 1.45876e-07 -4.46659e-08
1.15548e-07 7.84986e-08 -4.47876e-08
9.67168e-08 1.01916e-07 -3.49827e-08
6.43091e-08 1.32907e-07 -3.11686e-08
7.7835e-08 9.27855e-08 -3.08721e-08
5.29383e-08 1.22573e-07 -3.07625e-08
8.23289e-08 1.30852e-07 -3.09466e-08
5.97947e-08 9.42571e-08 -3.0731e-08
5.26112e-08 1.06118e-07 -2.96901e-08
5.34068e-08 6.36634e-08 -4.20713e-08
6.14833e-08 1.6345e-07 -4.23664e-08
6.89868e-08 1.7572e-07 -4.55226e-08
6.11851e-08 5.30616e-08 -4.5693e-08
1.63818e-08 1.44221e-07 -4.64008e-08
1.10986e-08 9.01506e-08 -4.63575e-08
2.02709e-08 1.16598e-07 -4.08404e-08
1.30367e-07 1.38051e-07 -4.58946e-08
1.26758e-07 8.65897e-08 -4.63157e-08
8.32978e-08 1.61915e-07 -4.2307e-08
7.78774e-08 6.42557e-08 -4.21483e-08
8.77834e-08 1.18197e-07 -2.9263e-08
7.21067e-08 7.72298e-08 -3.77193e-08
7.71425e-08 1.48795e-07 -3.79564e-08
6.87757e-08 1.49895e-07 -3.82865e-08
6.27227e-08 7.675e-08 -3.80496e-08
4.17256e-08 7.02246e-08 -4.06448e-08
4.98857e-08 1.56398e-07 -4.12551e-08
1.19069e-07 9.83315e-08 -4.27535e-08
1.22578e-07 1.26906e-07 -4.29219e-08
2.92692e-08 1.5346e-07 -4.48985e-08
2.27031e-08 7.80234e-08 -4.46801e-08
4.07631e-08 1.06223e-07 -3.53237e-08
2.66141e-08 9.59557e-08 -4.1815e-08
3.04579e-08 1.35485e-07 -4.19118e-08
1.45252e-08 1.5544e-07 -4.7691e-08
1.51508e-08 1.50703e-07 -4.74221e-08
8.21865e-09 8.02187e-08 -4.77468e-08
9.08492e-09 8.43825e-08 -4.74132e-08
8.51416e-08 1.04455e-07 -2.88543e-08
9.94046e-08 1.53877e-07 -4.12675e-08
9.49717e-08 6.85616e-08 -4.07685e-08
3.96572e-08 1.41808e-07 -4.07447e-08
3.45466e-08 8.76347e-08 -4.04691e-08
8.0414e-08 1.81512e-07 -4.64653e-08
7.26062e-08 4.74681e-08 -4.68036e-08
4.25452e-08 1.23632e-07 -3.54723e-08
3.54477e-08 1.1583e-07 -3.70129e-08
1.17701e-07 1.09384e-07 -4.1049e-08
1.29398e-07 1.48969e-07 -4.64895e-08
1.24632e-07 7.62821e-08 -4.6908e-08
9.20778e-08 1.40493e-07 -3.7043e-08
8.64313e-08 8.23129e-08 -3.66795e-08
9.95765e-08 9.12345e-08 -3.82638e-08
4.92609e-08 8.42644e-08 -3.68545e-08
5.51487e-08 1.4296e-07 -3.72731e-08
6.97353e-08 1.20361e-07 -2.2311e-08
7.25015e-08 1.04856e-07 -2.25363e-08
7.85083e-08 1.15148e-07 -2.26472e-08
6.35268e-08 1.15674e-07 -2.24778e-08
1.02854e-07 1.34504e-07 -3.86918e-08
1.87461e-08 1.28395e-07 -4.25289e-08
1.59136e-08 1.05006e-07 -4.25177e-08
6.67622e-08 1.09659e-07 -2.0312e-08
5.96417e-08 8.4961e-08 -3.48244e-08
7.4463e-08 1.19113e-07 -2.19721e-08
7.60825e-08 1.09418e-07 -2.15199e-08
8.7425e-08 6.17615e-08 -4.18141e-08
9.23596e-08 1.62214e-07 -4.21658e-08
8.14921e-08 1.41067e-07 -3.52207e-08
1.03971e-07 1.11631e-07 -3.68901e-08
6.43741e-08 1.42249e-07 -3.54151e-08
2.40829e-08 1.42296e-07 -4.4738e-08
1.92631e-08 9.05373e-08 -4.4652e-08
3.01746e-08 7.24759e-08 -4.25729e-08
3.79544e-08 1.56182e-07 -4.30649e-08
8.69858e-08 1.24255e-07 -3.02154e-08
7.75959e-08 8.34048e-08 -3.51579e-08
1.05387e-07 9.80236e-08 -3.90169e-08
1.10695e-07 1.42275e-07 -4.20741e-08
1.06498e-07 8.2017e-08 -4.1916e-08
1.09945e-07 1.27122e-07 -3.98403e-08
6.77434e-08 1.166e-07 -2.06505e-08
7.31381e-08 9.83534e-08 -2.7017e-08
6.86187e-08 1.27259e-07 -2.71934e-08
5.78577e-08 1.1707e-07 -2.65362e-08
5.97003e-08 1.27838e-07 -2.9983e-08
8.09534e-08 9.79837e-08 -2.93295e-08
4.27932e-08 8.9305e-08 -3.7467e-08
4.77482e-08 1.38891e-07 -3.77763e-08
5.60244e-08 9.91576e-08 -2.9986e-08
3.65082e-08 1.48781e-07 -4.2709e-08
3.03332e-08 8.09097e-08 -4.23775e-08
4.96837e-08 1.29565e-07 -3.4367e-08
4.65727e-08 9.8849e-08 -3.40887e-08
6.79741e-08 1.06256e-07 -2.15929e-08
6.38126e-08 1.11355e-07 -2.16867e-08
1.11963e-07 1.51665e-07 -4.30718e-08
1.07337e-07 7.17294e-08 -4.27339e-08
6.65504e-08 4.8594e-08 -4.68389e-08
7.42375e-08 1.8084e-07 -4.64929e-08
1.52203e-07 -1.79204e-08 -3.39383e-08
1.52314e-07 1.87685e-08 -3.42542e-08
1.13278e-07 1.98684e-08 -3.39678e-08
1.13225e-07 -1.98429e-08 -3.40043e-08
8.90647e-08 2.90089e-08 -4.35551e-08
8.90045e-08 -2.90035e-08 -4.35688e-08
1.32211e-07 2.26248e-08 -3.21e-08
1.09614e-07 -1.88998e-10 -3.12797e-08
1.54383e-07 -7.36851e-10 -3.13009e-08
1.3196e-07 -2.26827e-08 -3.21547e-08
8.0636e-08 3.04895e-08 -4.59661e-08
8.05604e-08 -3.04951e-08 -4.59802e-08
1.76152e-07 -2.31321e-08 -4.23887e-08
1.74008e-07 2.21269e-08 -4.171e-08
1.3224e-07 -4.67299e-08 -4.22607e-08
1.34396e-07 4.65836e-08 -4.22916e-08
1.47296e-07 3.55739e-08 -3.90553e-08
1.18297e-07 -3.71892e-08 -3.86838e-08
9.15554e-08 9.47303e-09 -3.92162e-08
9.03838e-08 -9.47428e-09 -3.95364e-08
1.47103e-07 -3.70144e-08 -3.94333e-08
1.18512e-07 3.89173e-08 -3.90889e-08
1.39925e-07 -7.00794e-09 -2.4441e-08
1.40656e-07 8.5951e-09 -2.56079e-08
1.23347e-07 7.63677e-09 -2.51723e-08
1.23723e-07 -7.19335e-09 -2.48271e-08
7.86069e-08 3.679e-08 -4.68196e-08
7.85202e-08 -3.68004e-08 -4.68559e-08
1.02526e-07 3.39435e-08 -4.02691e-08
1.02465e-07 -3.38082e-08 -4.02774e-08
1.74818e-07 -6.76909e-09 -3.98815e-08
1.72766e-07 7.67262e-09 -3.92667e-08
1.00291e-07 -1.78975e-08 -3.80917e-08
1.0034e-07 1.79169e-08 -3.80756e-08
1.39494e-07 -5.7716e-08 -4.53457e-08
1.29094e-07 5.79681e-08 -4.52551e-08
1.63616e-07 -3.22685e-08 -4.07226e-08
1.63609e-07 3.15426e-08 -4.05864e-08
1.3445e-07 1.19997e-08 -2.59201e-08
1.34003e-07 -1.18399e-08 -2.5737e-08
1.19673e-07 2.0202e-09 -2.56663e-08
1.44658e-07 -1.44061e-09 -2.55491e-08
7.83753e-08 1.97295e-08 -4.42199e-08
7.83338e-08 -1.9728e-08 -4.42151e-08
1.61105e-07 -1.06265e-08 -3.55111e-08
1.80767e-07 -3.41486e-08 -4.47028e-08
1.80481e-07 3.38459e-08 -4.46225e-08
1.59313e-07 1.06594e-08 -3.47391e-08
1.23196e-07 1.98432e-08 -3.12903e-08
1.23563e-07 -1.93592e-08 -3.10377e-08
1.13084e-07 -8.47565e-09 -3.06399e-08
1.42333e-07 -1.74375e-08 -3.08278e-08
1.42656e-07 1.75833e-08 -3.09368e-08
1.1452e-07 7.81383e-09 -2.9778e-08
1.19445e-07 -4.94955e-08 -4.21424e-08
1.46877e-07 4.77568e-08 -4.25521e-08
1.40493e-07 5.97222e-08 -4.5873e-08
1.28425e-07 -6.00866e-08 -4.57352e-08
7.45123e-08 2.59437e-08 -4.62794e-08
7.44566e-08 -2.59458e-08 -4.62744e-08
8.10752e-08 1.50921e-10 -4.06581e-08
1.91358e-07 -2.68347e-08 -4.58952e-08
1.91551e-07 2.64746e-08 -4.59255e-08
1.42747e-07 -4.72905e-08 -4.25222e-08
1.23834e-07 4.85583e-08 -4.23133e-08
1.36368e-07 -3.46762e-08 -3.80162e-08
1.29065e-07 3.50518e-08 -3.78769e-08
1.48871e-07 5.54772e-09 -2.88318e-08
1.38074e-07 3.52407e-08 -3.83345e-08
1.27374e-07 -3.59003e-08 -3.82016e-08
1.58612e-07 4.03446e-08 -4.1215e-08
1.49425e-07 -8.06788e-09 -2.9785e-08
1.07051e-07 -4.34751e-08 -4.07102e-08
1.83153e-07 1.38249e-08 -4.25153e-08
1.84267e-07 -1.54498e-08 -4.28937e-08
8.72219e-08 3.70298e-08 -4.4681e-08
8.71514e-08 -3.70106e-08 -4.46932e-08
1.02574e-07 8.65779e-09 -3.53509e-08
8.94662e-08 -1.9314e-08 -4.17835e-08
8.95944e-08 1.93105e-08 -4.17457e-08
7.25136e-08 3.57499e-08 -4.76541e-08
7.3014e-08 3.1697e-08 -4.73373e-08
7.24272e-08 -3.57895e-08 -4.77019e-08
7.29311e-08 -3.1709e-08 -4.73464e-08
1.5922e-07 -4.07168e-08 -4.13989e-08
9.83173e-08 2.69215e-08 -4.04626e-08
9.82598e-08 -2.69047e-08 -4.04826e-08
1.40469e-07 -6.58448e-08 -4.6854e-08
1.2997e-07 6.55417e-08 -4.68421e-08
1.06481e-07 4.38657e-08 -4.08484e-08
1.02857e-07 -8.33979e-09 -3.5178e-08
9.59324e-08 7.27954e-10 -3.70313e-08
1.80819e-07 2.3643e-09 -4.09215e-08
1.53311e-07 2.80273e-08 -3.75444e-08
1.89836e-07 -3.76514e-08 -4.65132e-08
1.89854e-07 3.7465e-08 -4.6527e-08
1.52487e-07 -2.77289e-08 -3.72834e-08
1.62919e-07 2.12055e-08 -3.82958e-08
1.13447e-07 -2.94164e-08 -3.69603e-08
1.29603e-07 7.35059e-09 -2.2517e-08
1.30221e-07 -6.99727e-09 -2.22543e-08
1.4019e-07 2.60729e-09 -2.27251e-08
1.24407e-07 -1.83756e-09 -2.2293e-08
1.13286e-07 2.99549e-08 -3.70912e-08
1.63714e-07 -2.19465e-08 -3.86915e-08
7.81524e-08 1.13641e-08 -4.23556e-08
7.75721e-08 -1.11416e-08 -4.24009e-08
1.35641e-07 -3.12742e-09 -2.03825e-08
1.40661e-07 2.66873e-08 -3.48592e-08
1.35306e-07 6.1415e-09 -2.19215e-08
1.26005e-07 2.85022e-09 -2.16002e-08
1.51851e-07 -4.82033e-08 -4.23816e-08
1.41255e-07 -2.74e-08 -3.52804e-08
1.66509e-07 4.22664e-10 -3.67529e-08
1.23044e-07 -2.85914e-08 -3.52494e-08
1.48189e-07 1.153e-08 -3.02466e-08
8.26891e-08 2.5044e-08 -4.45973e-08
8.2618e-08 -2.50471e-08 -4.46073e-08
9.53534e-08 4.1528e-08 -4.25509e-08
9.51516e-08 -4.19219e-08 -4.26175e-08
1.23386e-07 2.89565e-08 -3.53387e-08
1.69585e-07 1.42451e-08 -3.90955e-08
1.14125e-07 4.987e-08 -4.1684e-08
1.71291e-07 -3.00629e-08 -4.21213e-08
1.71064e-07 2.96531e-08 -4.20148e-08
1.71567e-07 -1.5005e-08 -3.98262e-08
1.28402e-07 -3.16423e-09 -2.05897e-08
1.28474e-07 1.38515e-08 -2.70909e-08
1.2844e-07 -1.38499e-08 -2.71387e-08
1.18576e-07 -3.07472e-09 -2.64381e-08
1.19475e-07 1.44005e-08 -2.98405e-08
1.19309e-07 -1.41588e-08 -2.98452e-08
1.06443e-07 -2.47631e-08 -3.75017e-08
1.45653e-07 -1.23193e-08 -2.95401e-08
1.06482e-07 2.48605e-08 -3.74963e-08
9.46844e-08 3.36756e-08 -4.23697e-08
9.45986e-08 -3.37171e-08 -4.24004e-08
1.0924e-07 -1.52971e-08 -3.41586e-08
1.08895e-07 1.5169e-08 -3.42507e-08
1.3419e-07 -6.20678e-09 -2.17426e-08
1.38823e-07 -1.74308e-09 -2.159e-08
1.72068e-07 -3.94316e-08 -4.31481e-08
1.72066e-07 3.92896e-08 -4.31248e-08
1.36011e-07 6.47265e-08 -4.69052e-08
1.34443e-07 -6.46701e-08 -4.68548e-08
9.14037e-08 -1.31486e-07 -3.41673e-08
8.91212e-08 -9.29354e-08 -3.41334e-08
4.99055e-08 -9.37945e-08 -3.39413e-08
5.40436e-08 -1.33622e-07 -3.42102e-08
2.52118e-08 -8.605e-08 -4.35684e-08
3.05048e-08 -1.45198e-07 -4.37554e-08
6.85255e-08 -8.95378e-08 -3.19412e-08
4.84139e-08 -1.13713e-07 -3.13508e-08
9.26076e-08 -1.12383e-07 -3.16644e-08
7.30892e-08 -1.36285e-07 -3.21902e-08
1.67316e-08 -8.50938e-08 -4.6e-08
2.22496e-08 -1.48326e-07 -4.60641e-08
1.11625e-07 -8.89156e-08 -4.25236e-08
1.12814e-07 -1.34141e-07 -4.17265e-08
7.32575e-08 -1.61534e-07 -4.21581e-08
6.8903e-08 -6.58107e-08 -4.20868e-08
8.33167e-08 -7.52171e-08 -3.86231e-08
6.02394e-08 -1.50726e-07 -3.89588e-08
2.95601e-08 -1.05831e-07 -3.93069e-08
3.08475e-08 -1.25139e-07 -3.95431e-08
8.73801e-08 -1.50939e-07 -3.92613e-08
5.33733e-08 -7.42239e-08 -3.90109e-08
7.9534e-08 -1.21288e-07 -2.54737e-08
7.78315e-08 -1.03286e-07 -2.55335e-08
6.14536e-08 -1.05935e-07 -2.47785e-08
6.40397e-08 -1.21138e-07 -2.47519e-08
1.41741e-08 -7.87895e-08 -4.68371e-08
2.03728e-08 -1.55316e-07 -4.68806e-08
3.80156e-08 -8.01395e-08 -4.02421e-08
4.44538e-08 -1.47749e-07 -4.06643e-08
1.11346e-07 -1.05243e-07 -4.00222e-08
1.10494e-07 -1.19574e-07 -3.93038e-08
4.09554e-08 -1.32835e-07 -3.8285e-08
3.73778e-08 -9.66471e-08 -3.80935e-08
7.9796e-08 -1.73125e-07 -4.50197e-08
6.20126e-08 -5.50999e-08 -4.51749e-08
9.95288e-08 -7.84272e-08 -4.04307e-08
1.01906e-07 -1.42911e-07 -4.00193e-08
7.14584e-08 -1.00176e-07 -2.5797e-08
7.0355e-08 -1.25339e-07 -2.57636e-08
5.87049e-08 -1.15336e-07 -2.55879e-08
8.32339e-08 -1.12935e-07 -2.60555e-08
1.55329e-08 -9.62202e-08 -4.43109e-08
1.96121e-08 -1.37152e-07 -4.43575e-08
9.73706e-08 -1.00216e-07 -3.55995e-08
1.15837e-07 -7.83118e-08 -4.48772e-08
1.19861e-07 -1.45679e-07 -4.46151e-08
9.83561e-08 -1.22103e-07 -3.49958e-08
5.96777e-08 -9.30934e-08 -3.1235e-08
8.09157e-08 -1.32037e-07 -3.1076e-08
5.09343e-08 -1.054e-07 -3.06496e-08
7.93227e-08 -9.39798e-08 -3.07056e-08
6.37811e-08 -1.32271e-07 -3.09664e-08
5.43796e-08 -1.21678e-07 -2.97917e-08
6.14263e-08 -1.63445e-07 -4.23754e-08
8.21575e-08 -6.30954e-08 -4.20815e-08
6.89325e-08 -1.75714e-07 -4.55208e-08
7.36177e-08 -5.28777e-08 -4.57001e-08
1.10911e-08 -9.01361e-08 -4.63637e-08
1.63288e-08 -1.44197e-07 -4.63838e-08
2.01814e-08 -1.16093e-07 -4.08397e-08
1.26562e-07 -8.63188e-08 -4.62989e-08
1.30482e-07 -1.37788e-07 -4.59492e-08
8.3244e-08 -1.61912e-07 -4.22905e-08
5.77933e-08 -6.44294e-08 -4.22136e-08
8.66129e-08 -1.06123e-07 -2.92316e-08
7.71003e-08 -1.48786e-07 -3.79293e-08
6.44248e-08 -7.74379e-08 -3.77205e-08
7.37562e-08 -7.64277e-08 -3.80531e-08
6.87268e-08 -1.49904e-07 -3.82956e-08
9.49034e-08 -6.9088e-08 -4.06649e-08
4.98384e-08 -1.56351e-07 -4.12585e-08
1.21309e-07 -1.25407e-07 -4.25677e-08
1.20067e-07 -9.68201e-08 -4.31494e-08
2.26891e-08 -7.79664e-08 -4.46741e-08
2.92175e-08 -1.5343e-07 -4.48936e-08
4.25169e-08 -1.23213e-07 -3.54103e-08
3.03595e-08 -1.35456e-07 -4.1927e-08
2.66426e-08 -9.59153e-08 -4.17911e-08
8.23212e-09 -8.0236e-08 -4.77009e-08
9.0987e-09 -8.43756e-08 -4.74059e-08
1.44614e-08 -1.5541e-07 -4.76773e-08
1.50862e-08 -1.50674e-07 -4.74062e-08
8.6537e-08 -1.19898e-07 -2.89212e-08
9.87242e-08 -1.54221e-07 -4.12359e-08
3.45119e-08 -8.75783e-08 -4.04599e-08
3.96132e-08 -1.41777e-07 -4.07426e-08
8.03615e-08 -1.81501e-07 -4.6457e-08
6.18711e-08 -4.75653e-08 -4.67907e-08
4.10268e-08 -6.97806e-08 -4.07918e-08
4.06257e-08 -1.05805e-07 -3.53764e-08
3.52852e-08 -1.14628e-07 -3.7007e-08
1.18077e-07 -1.1408e-07 -4.10205e-08
8.84114e-08 -8.37313e-08 -3.66554e-08
1.24642e-07 -7.61806e-08 -4.69248e-08
1.29327e-07 -1.48886e-07 -4.65307e-08
8.99573e-08 -1.41716e-07 -3.69563e-08
1.02535e-07 -1.32522e-07 -3.83103e-08
5.50586e-08 -1.42797e-07 -3.72357e-08
6.77407e-08 -1.05431e-07 -2.21954e-08
7.43003e-08 -1.20434e-07 -2.26575e-08
7.77835e-08 -1.0966e-07 -2.26126e-08
6.28203e-08 -1.10969e-07 -2.24411e-08
4.89715e-08 -8.35373e-08 -3.70473e-08
9.96344e-08 -8.92794e-08 -3.86315e-08
1.62005e-08 -1.04798e-07 -4.24898e-08
1.83595e-08 -1.2823e-07 -4.25547e-08
6.78145e-08 -1.16377e-07 -2.03725e-08
6.49258e-08 -1.41583e-07 -3.51045e-08
7.68616e-08 -8.47761e-08 -3.46099e-08
7.27461e-08 -1.06147e-07 -2.18654e-08
7.68481e-08 -1.15511e-07 -2.15757e-08
9.21852e-08 -1.62314e-07 -4.21707e-08
1.03973e-07 -1.12319e-07 -3.68998e-08
1.92608e-08 -9.05148e-08 -4.46458e-08
2.40237e-08 -1.42273e-07 -4.47329e-08
3.03115e-08 -7.28134e-08 -4.25176e-08
3.79071e-08 -1.56144e-07 -4.30633e-08
8.48706e-08 -1.00086e-07 -3.01284e-08
8.15386e-08 -1.41644e-07 -3.5402e-08
5.91334e-08 -8.38899e-08 -3.52473e-08
1.07578e-07 -1.25847e-07 -3.89677e-08
4.8021e-08 -6.33755e-08 -4.16016e-08
1.06793e-07 -8.132e-08 -4.20697e-08
1.10278e-07 -1.41538e-07 -4.19386e-08
1.0751e-07 -9.67803e-08 -3.99317e-08
6.65592e-08 -1.0947e-07 -2.05874e-08
7.58503e-08 -1.26891e-07 -2.71897e-08
6.5392e-08 -9.87288e-08 -2.70148e-08
5.69467e-08 -1.10319e-07 -2.64863e-08
8.33463e-08 -1.26596e-07 -2.94763e-08
5.62372e-08 -9.93656e-08 -2.97652e-08
4.76976e-08 -1.38851e-07 -3.7773e-08
5.9233e-08 -1.27913e-07 -3.01777e-08
4.27395e-08 -8.91593e-08 -3.7475e-08
3.0331e-08 -8.0906e-08 -4.2357e-08
3.64624e-08 -1.48748e-07 -4.27058e-08
4.63691e-08 -9.86796e-08 -3.4169e-08
4.97608e-08 -1.29389e-07 -3.42771e-08
6.96995e-08 -1.19554e-07 -2.17007e-08
6.4341e-08 -1.15142e-07 -2.17157e-08
1.08549e-07 -7.12393e-08 -4.30358e-08
1.11149e-07 -1.51225e-07 -4.29355e-08
6.79852e-08 -4.85539e-08 -4.68363e-08
7.41848e-08 -1.80831e-07 -4.64878e-08
-3.65764e-08 -1.40585e-07 -3.40895e-08
-4.2295e-08 -1.00976e-07 -3.48591e-08
-8.47859e-08 -1.11243e-07 -3.63319e-08
-7.39802e-08 -1.52279e-07 -3.46618e-08
-9.84377e-08 -1.68016e-07 -4.39678e-08
-1.1464e-07 -1.08815e-07 -4.69015e-08
-6.48301e-08 -1.01978e-07 -3.35381e-08
-8.19811e-08 -1.33385e-07 -3.25686e-08
-3.69761e-08 -1.21793e-07 -3.1358e-08
-5.45488e-08 -1.50475e-07 -3.24352e-08
-1.07559e-07 -1.72108e-07 -4.61081e-08
-1.25137e-07 -1.10013e-07 -4.92891e-08
-2.15849e-08 -9.63931e-08 -4.19501e-08
-1.35503e-08 -1.4243e-07 -4.2678e-08
-5.11424e-08 -1.76084e-07 -4.24036e-08
-6.79233e-08 -7.68043e-08 -4.46089e-08
-8.2558e-08 -9.08804e-08 -4.20222e-08
-6.56001e-08 -1.67887e-07 -3.9224e-08
-9.76444e-08 -1.4807e-07 -4.04067e-08
-1.04239e-07 -1.28404e-07 -4.16423e-08
-5.00649e-08 -8.25405e-08 -4.01535e-08
-3.84237e-08 -1.62582e-07 -3.95795e-08
-4.99423e-08 -1.31301e-07 -2.45372e-08
-5.30619e-08 -1.14206e-07 -2.60526e-08
-7.01952e-08 -1.21768e-07 -2.59721e-08
-6.59823e-08 -1.37614e-07 -2.57984e-08
-1.08918e-07 -1.79003e-07 -4.68045e-08
-1.30305e-07 -1.0455e-07 -5.09316e-08
-8.27786e-08 -1.68101e-07 -4.09235e-08
-1.00599e-07 -9.96133e-08 -4.41957e-08
-1.52392e-08 -1.25594e-07 -3.97656e-08
-1.95544e-08 -1.11436e-07 -3.92044e-08
-8.78269e-08 -1.54139e-07 -3.88656e-08
-9.7843e-08 -1.16957e-07 -4.0533e-08
-6.158e-08 -6.39764e-08 -4.73443e-08
-4.33048e-08 -1.86853e-07 -4.52626e-08
-2.4051e-08 -1.5398e-07 -4.10223e-08
-3.38399e-08 -8.76144e-08 -4.03673e-08
-6.03987e-08 -1.12496e-07 -2.67674e-08
-5.44601e-08 -1.38428e-07 -2.59569e-08
-7.12564e-08 -1.32979e-07 -2.65636e-08
-4.66271e-08 -1.24138e-07 -2.56507e-08
-1.10057e-07 -1.61481e-07 -4.48409e-08
-1.21607e-07 -1.21298e-07 -4.68052e-08
-2.88889e-08 -1.31194e-07 -3.55761e-08
-1.6961e-08 -8.38655e-08 -4.50298e-08
-8.50366e-09 -1.53581e-07 -4.52031e-08
-3.42923e-08 -1.10094e-07 -3.46331e-08
-7.34126e-08 -1.084e-07 -3.2836e-08
-6.33346e-08 -1.49131e-07 -3.15022e-08
-8.12665e-08 -1.23593e-07 -3.22348e-08
-4.57379e-08 -1.42264e-07 -3.09856e-08
-5.25309e-08 -1.0406e-07 -3.16227e-08
-7.50175e-08 -1.40306e-07 -3.06517e-08
-6.28057e-08 -1.80114e-07 -4.2601e-08
-8.27582e-08 -7.72913e-08 -4.63098e-08
-5.38427e-08 -1.91019e-07 -4.57386e-08
-7.39931e-08 -6.38465e-08 -4.92716e-08
-1.14205e-07 -1.68712e-07 -4.64888e-08
-1.29531e-07 -1.16556e-07 -4.91056e-08
-1.09305e-07 -1.40767e-07 -4.25441e-08
5.19603e-10 -1.45176e-07 -4.63596e-08
-5.41684e-09 -9.14739e-08 -4.63512e-08
-5.61373e-08 -7.32512e-08 -4.3805e-08
-4.11898e-08 -1.74757e-07 -4.25733e-08
-6.16756e-08 -8.80324e-08 -3.9513e-08
-4.87099e-08 -1.62337e-07 -3.82107e-08
-4.39294e-08 -1.15986e-07 -2.90015e-08
-7.19405e-08 -8.95282e-08 -4.05705e-08
-5.69845e-08 -1.65182e-07 -3.85417e-08
-4.06795e-08 -1.30412e-07 -2.98648e-08
-7.57885e-08 -1.75476e-07 -4.14833e-08
-9.69235e-08 -8.77516e-08 -4.56527e-08
-1.02845e-08 -1.04593e-07 -4.2517e-08
-5.60373e-09 -1.33764e-07 -4.29456e-08
-9.91031e-08 -1.76174e-07 -4.49571e-08
-1.19916e-07 -1.01368e-07 -4.89942e-08
-8.6912e-08 -1.44355e-07 -3.64397e-08
-9.87494e-08 -1.58561e-07 -4.24527e-08
-1.09822e-07 -1.18399e-07 -4.43595e-08
-1.1582e-07 -1.79689e-07 -4.75277e-08
-1.15957e-07 -1.75016e-07 -4.72976e-08
-1.36795e-07 -1.07638e-07 -5.1504e-08
-1.34403e-07 -1.11626e-07 -5.05525e-08
-3.80438e-08 -7.55998e-08 -4.15655e-08
-2.6632e-08 -1.63826e-07 -4.16428e-08
-8.86746e-08 -1.632e-07 -4.10765e-08
-1.03407e-07 -1.08131e-07 -4.36839e-08
-4.18068e-08 -1.95318e-07 -4.66853e-08
-6.20364e-08 -5.5951e-08 -4.91214e-08
-9.146e-08 -1.26459e-07 -3.70158e-08
-9.51511e-08 -1.37835e-07 -3.85901e-08
-9.6705e-09 -1.16026e-07 -4.06535e-08
-8.46935e-09 -8.05568e-08 -4.71181e-08
-7.89877e-11 -1.56543e-07 -4.71237e-08
-3.48693e-08 -1.51242e-07 -3.74808e-08
-4.48926e-08 -9.08099e-08 -3.7754e-08
-3.05267e-08 -9.82746e-08 -3.89674e-08
-7.18946e-08 -1.61217e-07 -3.75847e-08
-8.67819e-08 -1.00847e-07 -4.00111e-08
-6.36425e-08 -1.19309e-07 -2.3104e-08
-5.97586e-08 -1.35195e-07 -2.28731e-08
-5.21619e-08 -1.20717e-07 -2.29688e-08
-6.76309e-08 -1.2736e-07 -2.31299e-08
-2.5313e-08 -1.42869e-07 -3.89148e-08
-1.10292e-07 -1.5294e-07 -4.3573e-08
-1.17458e-07 -1.30077e-07 -4.47315e-08
-5.49685e-08 -1.28257e-07 -2.05014e-08
-5.81304e-08 -1.18237e-07 -2.2531e-08
-6.46023e-08 -1.31912e-07 -2.22318e-08
-3.22161e-08 -1.73635e-07 -4.24792e-08
-4.61942e-08 -6.93799e-08 -4.2998e-08
-4.52256e-08 -1.53412e-07 -3.54634e-08
-5.48955e-08 -9.38073e-08 -3.63886e-08
-2.47225e-08 -1.19326e-07 -3.66772e-08
-7.57439e-08 -9.86257e-08 -3.76121e-08
-6.23107e-08 -1.58453e-07 -3.56972e-08
-4.57519e-08 -1.0973e-07 -3.05591e-08
-1.05609e-07 -1.66055e-07 -4.49833e-08
-1.20068e-07 -1.14681e-07 -4.75123e-08
-8.88582e-08 -1.77517e-07 -4.32139e-08
-1.11476e-07 -9.34883e-08 -4.77949e-08
-2.40632e-08 -1.04771e-07 -3.92977e-08
-2.56545e-08 -8.87076e-08 -4.2156e-08
-1.74276e-08 -1.50375e-07 -4.24835e-08
-1.82521e-08 -1.34454e-07 -3.99255e-08
-6.41412e-08 -1.24488e-07 -2.13364e-08
-6.70843e-08 -1.12648e-07 -2.83701e-08
-5.94577e-08 -1.42279e-07 -2.74947e-08
-7.39517e-08 -1.27832e-07 -2.75748e-08
-7.67464e-08 -1.15509e-07 -3.15604e-08
-6.8631e-08 -1.45193e-07 -3.04188e-08
-8.02213e-08 -1.58763e-07 -3.8164e-08
-9.35778e-08 -1.07977e-07 -4.04066e-08
-4.35796e-08 -1.3581e-07 -2.9656e-08
-9.14762e-08 -1.70514e-07 -4.29015e-08
-1.09884e-07 -1.0225e-07 -4.63596e-08
-8.75499e-08 -1.17305e-07 -3.62696e-08
-7.93919e-08 -1.49015e-07 -3.5051e-08
-5.55666e-08 -1.32157e-07 -2.17968e-08
-5.2335e-08 -1.25796e-07 -2.17179e-08
-2.49518e-08 -7.73752e-08 -4.32434e-08
-1.53599e-08 -1.60066e-07 -4.35657e-08
-6.83288e-08 -5.81665e-08 -4.98273e-08
-4.80683e-08 -1.95427e-07 -4.67051e-08
-1.22666e-07 -3.26008e-08 -5.35604e-08
-1.93295e-07 3.81817e-08 -5.60442e-08
-1.22729e-07 3.38937e-08 -5.35324e-08
-1.93358e-07 -3.81895e-08 -5.6045e-08
-2.27607e-07 4.81984e-08 -5.7132e-08
-2.27618e-07 -4.82294e-08 -5.71311e-08
-1.5745e-07 4.51514e-08 -5.47533e-08
-2.02819e-07 1.14436e-09 -5.62878e-08
-1.1701e-07 -1.31474e-09 -5.3518e-08
-1.57894e-07 -4.52228e-08 -5.47636e-08
-2.38666e-07 5.01242e-08 -5.74575e-08
-2.38677e-07 -5.01516e-08 -5.74567e-08
-9.50533e-08 3.19763e-08 -5.29493e-08
-9.27158e-08 -3.27897e-08 -5.28891e-08
-1.54662e-07 -7.60498e-08 -5.45706e-08
-1.5137e-07 7.55611e-08 -5.43705e-08
-1.31636e-07 5.94323e-08 -5.31548e-08
-1.79058e-07 -6.3962e-08 -5.55839e-08
-2.26069e-07 1.78136e-08 -5.68976e-08
-2.26931e-07 -1.74499e-08 -5.69135e-08
-1.31858e-07 -6.14671e-08 -5.30586e-08
-1.78237e-07 6.62342e-08 -5.55589e-08
-1.40587e-07 -1.76748e-08 -5.42508e-08
-1.78845e-07 1.81984e-08 -5.55782e-08
-1.39781e-07 2.05052e-08 -5.42155e-08
-1.79437e-07 -1.89418e-08 -5.55984e-08
-2.40725e-07 5.80014e-08 -5.75212e-08
-2.40739e-07 -5.80277e-08 -5.75206e-08
-2.06659e-07 5.67205e-08 -5.64666e-08
-2.0672e-07 -5.65737e-08 -5.64678e-08
-9.15676e-08 -9.75129e-09 -5.23475e-08
-9.42659e-08 1.14016e-08 -5.25039e-08
-2.13596e-07 3.27201e-08 -5.66573e-08
-2.13602e-07 -3.27559e-08 -5.6657e-08
-1.43305e-07 -8.74239e-08 -5.36373e-08
-1.57643e-07 8.97667e-08 -5.48268e-08
-1.08395e-07 -4.95658e-08 -5.25009e-08
-1.08422e-07 4.8608e-08 -5.2562e-08
-1.53351e-07 2.85769e-08 -5.46654e-08
-1.54241e-07 -2.82691e-08 -5.46942e-08
-1.87515e-07 -4.88258e-09 -5.58557e-08
-1.31347e-07 -3.38429e-09 -5.39742e-08
-2.41448e-07 3.4818e-08 -5.73429e-08
-2.41454e-07 -3.48455e-08 -5.73419e-08
-1.09072e-07 -1.78217e-08 -5.32874e-08
-8.8597e-08 -4.55882e-08 -5.26005e-08
-8.89347e-08 4.53775e-08 -5.26141e-08
-1.11447e-07 1.83624e-08 -5.33564e-08
-1.75482e-07 4.02317e-08 -5.54459e-08
-1.74846e-07 -3.96056e-08 -5.54215e-08
-1.96814e-07 1.78522e-08 -5.61317e-08
-1.38425e-07 -3.54771e-08 -5.40515e-08
-1.37872e-07 3.55133e-08 -5.40388e-08
-1.94782e-07 -1.67318e-08 -5.60693e-08
-1.73689e-07 -7.99891e-08 -5.54432e-08
-1.32295e-07 7.47285e-08 -5.26355e-08
-1.58138e-07 -9.24272e-08 -5.4861e-08
-1.41835e-07 8.94613e-08 -5.3489e-08
-2.46149e-07 4.40636e-08 -5.75514e-08
-2.46158e-07 -4.40894e-08 -5.75508e-08
-2.3895e-07 4.32146e-10 -5.70487e-08
-7.68676e-08 -3.44827e-08 -5.24731e-08
-7.65879e-08 3.40824e-08 -5.24421e-08
-1.38548e-07 -7.49483e-08 -5.32906e-08
-1.67258e-07 7.87761e-08 -5.52065e-08
-1.49143e-07 -6.0682e-08 -5.42594e-08
-1.61449e-07 6.17648e-08 -5.48989e-08
-1.25344e-07 1.14868e-08 -5.37894e-08
-1.46311e-07 6.1113e-08 -5.40997e-08
-1.64145e-07 -6.28233e-08 -5.50104e-08
-1.14812e-07 6.26174e-08 -5.16761e-08
-1.24819e-07 -1.61802e-08 -5.37673e-08
-1.96028e-07 -7.04834e-08 -5.6086e-08
-8.30862e-08 1.90878e-08 -5.20009e-08
-8.22046e-08 -2.11684e-08 -5.1994e-08
-2.29094e-07 5.85365e-08 -5.71801e-08
-2.29108e-07 -5.85671e-08 -5.71793e-08
-2.11655e-07 -1.63656e-08 -5.65434e-08
-2.27806e-07 3.42888e-08 -5.7059e-08
-2.27876e-07 -3.42907e-08 -5.70596e-08
-2.47948e-07 5.66604e-08 -5.76678e-08
-2.47846e-07 5.14564e-08 -5.76513e-08
-2.47961e-07 -5.66847e-08 -5.76673e-08
-2.47857e-07 -5.14811e-08 -5.76508e-08
-1.13892e-07 -6.2836e-08 -5.16329e-08
-2.1487e-07 4.61973e-08 -5.67369e-08
-2.14886e-07 -4.62201e-08 -5.67362e-08
-1.41607e-07 -9.57843e-08 -5.32963e-08
-1.55233e-07 9.8635e-08 -5.46832e-08
-1.96905e-07 7.0851e-08 -5.6108e-08
-2.11678e-07 1.70781e-08 -5.65457e-08
-2.20388e-07 1.08481e-09 -5.67283e-08
-8.37937e-08 3.38423e-09 -5.1436e-08
-1.22171e-07 4.76276e-08 -5.30945e-08
-7.92263e-08 4.67153e-08 -5.24591e-08
-7.92415e-08 -4.68726e-08 -5.24538e-08
-1.23317e-07 -4.74892e-08 -5.31539e-08
-1.08531e-07 3.40265e-08 -5.31738e-08
-1.89923e-07 -5.25463e-08 -5.59383e-08
-1.63641e-07 1.94033e-08 -5.50565e-08
-1.65353e-07 -1.95645e-08 -5.51158e-08
-1.39528e-07 6.8801e-09 -5.42102e-08
-1.78499e-07 4.88278e-09 -5.55957e-08
-1.90095e-07 5.32438e-08 -5.59458e-08
-1.07541e-07 -3.48202e-08 -5.31375e-08
-2.41973e-07 2.10643e-08 -5.7191e-08
-2.42364e-07 -2.08207e-08 -5.71924e-08
-1.49029e-07 -9.79771e-09 -5.45254e-08
-1.42262e-07 4.92174e-08 -5.40255e-08
-1.50448e-07 1.72715e-08 -5.45873e-08
-1.75522e-07 -8.41541e-09 -5.55084e-08
-1.24702e-07 -7.42422e-08 -5.17254e-08
-1.41219e-07 -5.01314e-08 -5.39441e-08
-1.01309e-07 7.15634e-10 -5.2844e-08
-1.73183e-07 -5.28532e-08 -5.53649e-08
-1.27545e-07 2.30772e-08 -5.38078e-08
-2.3625e-07 4.27457e-08 -5.73345e-08
-2.36267e-07 -4.277e-08 -5.73338e-08
-2.15911e-07 6.54872e-08 -5.67123e-08
-2.16048e-07 -6.602e-08 -5.6712e-08
-1.72558e-07 5.33492e-08 -5.53425e-08
-9.90545e-08 2.17778e-08 -5.29231e-08
-1.82076e-07 7.99164e-08 -5.56563e-08
-9.89963e-08 -4.3666e-08 -5.26911e-08
-9.92669e-08 4.31886e-08 -5.27184e-08
-9.67824e-08 -2.24272e-08 -5.2865e-08
-1.69608e-07 1.03255e-08 -5.53005e-08
-1.66362e-07 -3.16813e-08 -5.51256e-08
-1.66364e-07 3.16364e-08 -5.5128e-08
-1.88919e-07 7.45767e-09 -5.58948e-08
-1.85046e-07 2.98296e-08 -5.57717e-08
-1.84323e-07 -3.05467e-08 -5.57471e-08
-2.02935e-07 -4.44135e-08 -5.63562e-08
-1.31654e-07 -2.54637e-08 -5.39195e-08
-2.0291e-07 4.44824e-08 -5.63568e-08
-2.18822e-07 5.50434e-08 -5.68583e-08
-2.18871e-07 -5.51376e-08 -5.68586e-08
-2.01106e-07 2.9724e-08 -5.62769e-08
-2.01622e-07 -2.94121e-08 -5.62915e-08
-1.53628e-07 -1.69029e-08 -5.46995e-08
-1.42147e-07 -4.78468e-09 -5.42858e-08
-9.77017e-08 5.54859e-08 -5.16261e-08
-9.76761e-08 -5.56174e-08 -5.16229e-08
-1.49828e-07 -9.64245e-08 -5.42528e-08
-1.47685e-07 9.58887e-08 -5.40477e-08
-4.27496e-08 1.02297e-07 -3.42033e-08
-3.62946e-08 1.41603e-07 -3.44663e-08
-7.38439e-08 1.52168e-07 -3.46266e-08
-8.48119e-08 1.11145e-07 -3.63745e-08
-1.1467e-07 1.08758e-07 -4.69267e-08
-9.83602e-08 1.67956e-07 -4.39703e-08
-5.43036e-08 1.50326e-07 -3.24354e-08
-8.18325e-08 1.3377e-07 -3.2559e-08
-3.71911e-08 1.20335e-07 -3.13446e-08
-6.47758e-08 1.019e-07 -3.3524e-08
-1.25182e-07 1.09952e-07 -4.93183e-08
-1.07484e-07 1.72054e-07 -4.61112e-08
-1.5583e-08 1.41699e-07 -4.19905e-08
-1.96019e-08 9.53653e-08 -4.26085e-08
-6.78543e-08 7.67566e-08 -4.45937e-08
-4.91813e-08 1.75605e-07 -4.24155e-08
-3.84571e-08 1.61043e-07 -3.92514e-08
-8.25143e-08 9.08006e-08 -4.2035e-08
-1.03124e-07 1.28083e-07 -4.13344e-08
-9.86888e-08 1.48321e-07 -4.07319e-08
-5.00027e-08 8.25381e-08 -4.01097e-08
-6.50592e-08 1.69403e-07 -3.96611e-08
-5.3525e-08 1.16067e-07 -2.474e-08
-4.88164e-08 1.32988e-07 -2.58168e-08
-6.54873e-08 1.36961e-07 -2.5371e-08
-7.0811e-08 1.21327e-07 -2.64401e-08
-1.30367e-07 1.04485e-07 -5.09702e-08
-1.08844e-07 1.78945e-07 -4.68095e-08
-1.00593e-07 9.95442e-08 -4.4228e-08
-8.26671e-08 1.68133e-07 -4.0943e-08
-1.70837e-08 1.12331e-07 -3.97541e-08
-1.73074e-08 1.26814e-07 -3.92124e-08
-9.7858e-08 1.1689e-07 -4.05674e-08
-8.77494e-08 1.5407e-07 -3.88486e-08
-6.15093e-08 6.3938e-08 -4.73286e-08
-5.34496e-08 1.88712e-07 -4.52757e-08
-3.27843e-08 8.53449e-08 -4.09018e-08
-2.41439e-08 1.53322e-07 -4.09119e-08
-5.39927e-08 1.38451e-07 -2.62107e-08
-6.06975e-08 1.12764e-07 -2.65244e-08
-7.25416e-08 1.28693e-07 -2.67529e-08
-4.72475e-08 1.21058e-07 -2.56699e-08
-1.21644e-07 1.21255e-07 -4.68314e-08
-1.09975e-07 1.61437e-07 -4.48391e-08
-3.2257e-08 1.09308e-07 -3.55747e-08
-8.76505e-09 1.53421e-07 -4.51296e-08
-1.66786e-08 8.36601e-08 -4.50811e-08
-3.06059e-08 1.31564e-07 -3.48355e-08
-6.35999e-08 1.49566e-07 -3.18121e-08
-7.33887e-08 1.08279e-07 -3.28553e-08
-7.62136e-08 1.4129e-07 -3.14847e-08
-5.2836e-08 1.04504e-07 -3.138e-08
-4.54008e-08 1.42397e-07 -3.11651e-08
-7.96814e-08 1.23863e-07 -3.13596e-08
-8.27021e-08 7.72215e-08 -4.63136e-08
-3.71785e-08 1.74445e-07 -4.2624e-08
-4.22547e-08 1.88879e-07 -4.57554e-08
-7.39282e-08 6.3793e-08 -4.9265e-08
-1.29571e-07 1.16504e-07 -4.91356e-08
-1.14131e-07 1.6866e-07 -4.64898e-08
-1.09362e-07 1.40421e-07 -4.25688e-08
-5.65746e-09 9.12697e-08 -4.63253e-08
7.52499e-10 1.44908e-07 -4.6372e-08
-5.60673e-08 7.32257e-08 -4.3776e-08
-5.88364e-08 1.78899e-07 -4.26476e-08
-6.16055e-08 8.80002e-08 -3.9477e-08
-5.55174e-08 1.64028e-07 -3.82177e-08
-4.16333e-08 1.27831e-07 -2.89434e-08
-4.70772e-08 1.62634e-07 -3.85485e-08
-7.18813e-08 8.94598e-08 -4.05635e-08
-2.72495e-08 1.63678e-07 -4.14772e-08
-4.38023e-08 1.13233e-07 -2.99431e-08
-9.68883e-08 8.76748e-08 -4.56813e-08
-6.61843e-09 1.32232e-07 -4.25288e-08
-9.56982e-09 1.02965e-07 -4.29204e-08
-1.1994e-07 1.01312e-07 -4.90174e-08
-9.90274e-08 1.76115e-07 -4.49625e-08
-9.18681e-08 1.26146e-07 -3.72537e-08
-1.0976e-07 1.18327e-07 -4.43565e-08
-9.87574e-08 1.58537e-07 -4.24769e-08
-1.36869e-07 1.07583e-07 -5.15566e-08
-1.34457e-07 1.11574e-07 -5.05907e-08
-1.15745e-07 1.79635e-07 -4.75312e-08
-1.15882e-07 1.74963e-07 -4.73e-08
-3.73324e-08 7.5824e-08 -4.15127e-08
-1.03421e-07 1.08063e-07 -4.37144e-08
-8.85899e-08 1.63132e-07 -4.10721e-08
-6.19675e-08 5.59102e-08 -4.91099e-08
-5.25438e-08 1.97037e-07 -4.66956e-08
-7.63007e-08 1.75912e-07 -4.16617e-08
-8.66013e-08 1.43905e-07 -3.62478e-08
-9.55352e-08 1.36277e-07 -3.86696e-08
-8.98108e-09 1.20829e-07 -4.06511e-08
-3.40432e-08 1.51489e-07 -3.77896e-08
-5.94944e-11 1.56467e-07 -4.71385e-08
-8.47015e-09 8.05178e-08 -4.70619e-08
-4.35397e-08 9.14026e-08 -3.7626e-08
-2.60773e-08 1.42304e-07 -3.85398e-08
-8.67671e-08 1.00761e-07 -4.0039e-08
-5.90574e-08 1.3466e-07 -2.26283e-08
-6.43339e-08 1.19316e-07 -2.33775e-08
-5.0708e-08 1.26428e-07 -2.28844e-08
-6.63732e-08 1.31305e-07 -2.29814e-08
-7.19315e-08 1.61662e-07 -3.77462e-08
-3.17104e-08 9.69152e-08 -3.88737e-08
-1.17043e-07 1.29672e-07 -4.47248e-08
-1.10765e-07 1.52783e-07 -4.36206e-08
-5.69825e-08 1.21386e-07 -2.06727e-08
-4.58807e-08 1.52833e-07 -3.50981e-08
-5.43643e-08 1.31831e-07 -2.22183e-08
-6.66134e-08 1.25805e-07 -2.24854e-08
-4.59877e-08 6.94097e-08 -4.29267e-08
-5.53232e-08 9.42649e-08 -3.6161e-08
-2.45432e-08 1.20165e-07 -3.668e-08
-7.5702e-08 9.85322e-08 -3.76217e-08
-4.12115e-08 1.34502e-07 -3.04133e-08
-1.20091e-07 1.14625e-07 -4.75344e-08
-1.05546e-07 1.66009e-07 -4.49879e-08
-1.11456e-07 9.34251e-08 -4.78276e-08
-8.87439e-08 1.77037e-07 -4.31905e-08
-6.18932e-08 1.58636e-07 -3.58265e-08
-2.01779e-08 1.33978e-07 -3.92021e-08
-6.78927e-08 1.80625e-07 -4.23249e-08
-2.52574e-08 8.77719e-08 -4.23484e-08
-1.76613e-08 1.50075e-07 -4.23922e-08
-2.24608e-08 1.04078e-07 -3.98919e-08
-6.16595e-08 1.31366e-07 -2.10625e-08
-5.94039e-08 1.42139e-07 -2.75021e-08
-6.70481e-08 1.12518e-07 -2.83744e-08
-7.19497e-08 1.34339e-07 -2.73048e-08
-6.88229e-08 1.44929e-07 -3.03995e-08
-7.6693e-08 1.15355e-07 -3.15768e-08
-9.35962e-08 1.07891e-07 -4.04487e-08
-4.85482e-08 1.09344e-07 -2.98506e-08
-8.01188e-08 1.5874e-07 -3.81606e-08
-1.09895e-07 1.02187e-07 -4.63885e-08
-9.13783e-08 1.70382e-07 -4.28967e-08
-7.8917e-08 1.48957e-07 -3.49079e-08
-8.79225e-08 1.17489e-07 -3.64238e-08
-5.92432e-08 1.18831e-07 -2.21309e-08
-5.32683e-08 1.22023e-07 -2.17793e-08
-1.53617e-08 1.60043e-07 -4.35605e-08
-2.45904e-08 7.71086e-08 -4.32759e-08
-4.66015e-08 1.9514e-07 -4.67188e-08
-6.8262e-08 5.81192e-08 -4.98183e-08
SCALARS effective_fluid_pressure_TPM float
LOOKUP_TABLE default
39.9
39.9
39.9
39.9
39.9
39.9
39.9
39.9
39.9
39.9
39.9
39.9
39.9
39.9
0.3
39.9
39.9
39.9
39.9
39.9
39.9
39.9
39.9
39.9
39.9
39.9
39.9
0.3
39.9
39.9
39.9
39.9
39.9
39.9
39.9
39.9
39.9
39.9
0.3
39.9
39.9
39.9
39.9
39.9
39.9
39.9
39.9
39.9
39.9
0.3
39.9
39.9
39.9
39.9
39.9
39.9
39.9
39.9
39.9
39.9
0.3
39.9
39.9
39.9
39.9
39.9
39.9
39.9
39.9
39.9
39.9
36.0026
39.9
39.9
39.9
39.9
39.9
39.9
39.9
39.9
0.3
39.9
39.9
39.9
39.9
39.9
39.9
39.9
39.9
39.9
39.9
39.9
39.9
39.9
39.9
0.3
39.9
39.9
39.9
39.9
39.9
39.9
39.9
39.9
39.9
39.9
39.9
39.9
0.3
39.9
39.9
39.9
39.9
39.9
39.9
39.9
39.9
39.9
39.9
0.3
39.9
39.9
39.9
39.9
39.9
39.9
39.9
39.9
39.9
39.9
0.3
39.9
39.9
39.9
39.9
39.9
39.9
39.9
39.9
39.9
39.9
0.3
39.9
39.9
39.9
39.9
39.9
39.9
39.9
39.9
39.9
39.9
36.0026
39.9
39.9
39.9
39.9
39.9
39.9
39.9
39.9
0.3
39.9
31.6763
28.9442
28.7308
31.1474
39.9
39.9
34.182
32.7397
32.711
34.2025
39.9
39.9
31.1749
28.8198
28.9512
31.6784
39.9
30.846
28.213
28.2202
30.8452
39.9
30.7859
28.207
28.2624
30.7498
39.9
30.8519
28.3037
28.301
30.8697
0.3
0.3
0.3
39.9
39.9
30.8296
28.3338
28.2507
30.8045
39.9
39.9
30.6251
28.1223
28.2388
30.8551
39.9
30.8531
28.1328
28.1817
30.7772
39.9
30.7925
28.279
28.1763
30.8629
39.9
30.7442
28.1141
28.1478
30.8266
39.9
0.3
0.3
0.3
39.9
39.9
39.9
30.8729
28.286
28.2116
30.805
39.9
30.869
28.1902
28.2946
30.8067
39.9
30.7957
28.2019
28.1511
30.8644
39.9
30.7534
28.2068
28.2325
30.8137
39.9
39.9
0.3
0.3
0.3
39.9
39.9
30.7987
28.2846
28.181
30.8659
39.9
30.8166
28.1943
28.1122
30.8451
39.9
30.8591
28.2454
28.1262
30.6249
39.9
39.9
30.8653
28.2762
28.3109
30.7697
39.9
39.9
0.3
0.3
0.3
39.9
39.9
30.844
28.2716
28.2296
30.9352
39.9
30.9686
28.4093
28.3272
30.8181
39.9
39.9
31.0148
28.7959
29.0432
31.6545
39.9
39.9
34.3326
32.9403
33.0244
34.6063
39.9
0.3
0.3
0.3
39.9
39.9
37.7322
37.5679
37.8312
38.4051
39.9
39.9
38.5863
38.2762
38.2749
38.5867
39.9
39.9
38.4065
37.8303
37.5456
37.7237
39.9
34.3385
32.9496
33.0689
34.6238
39.9
36.3629
36.7459
36.3801
39.9
39.9
39.9
31.6659
29.0465
28.8034
31.0129
39.9
39.9
30.8225
28.3164
28.2708
30.95
39.9
30.955
28.3818
28.299
30.8641
39.9
39.9
0.3
0.3
0.3
39.9
31.6763
28.9442
28.7308
31.1474
39.9
39.9
34.182
32.7397
32.711
34.2025
39.9
39.9
31.1749
28.8198
28.9512
31.6784
39.9
30.846
28.213
28.2202
30.8452
39.9
30.7859
28.207
28.2624
30.7498
39.9
30.8519
28.3037
28.301
30.8697
0.3
0.3
0.3
39.9
39.9
30.8296
28.3338
28.2507
30.8045
39.9
39.9
30.6251
28.1223
28.2388
30.8551
39.9
30.8531
28.1328
28.1817
30.7772
39.9
30.7925
28.279
28.1763
30.8629
39.9
30.7442
28.1141
28.1478
30.8266
39.9
0.3
0.3
0.3
39.9
39.9
39.9
30.8729
28.286
28.2116
30.805
39.9
30.869
28.1902
28.2946
30.8067
39.9
30.7957
28.2019
28.1511
30.8644
39.9
30.7534
28.2068
28.2325
30.8137
39.9
39.9
0.3
0.3
0.3
39.9
39.9
30.7987
28.2846
28.181
30.8659
39.9
30.8166
28.1943
28.1122
30.8451
39.9
30.8591
28.2454
28.1262
30.6249
39.9
39.9
30.8653
28.2762
28.3109
30.7697
39.9
39.9
0.3
0.3
0.3
39.9
39.9
30.844
28.2716
28.2296
30.9352
39.9
30.9686
28.4093
28.3272
30.8181
39.9
39.9
31.0148
28.7959
29.0432
31.6545
39.9
39.9
34.3326
32.9403
33.0244
34.6063
39.9
0.3
0.3
0.3
39.9
39.9
37.7322
37.5679
37.8312
38.4051
39.9
39.9
38.5863
38.2762
38.2749
38.5867
39.9
39.9
38.4065
37.8303
37.5456
37.7237
39.9
34.3385
32.9496
33.0689
34.6238
39.9
36.3629
36.7459
36.3801
39.9
39.9
39.9
31.6659
29.0465
28.8034
31.0129
39.9
39.9
30.8225
28.3164
28.2708
30.95
39.9
30.955
28.3818
28.299
30.8641
39.9
39.9
0.3
0.3
0.3
22.417
22.6827
23.3778
23.4086
31.3026
31.3008
21.3955
21.8389
20.4036
21.3931
34.3904
34.3898
28.3163
28.9291
28.9632
28.9404
25.9922
26.3485
28.4358
28.6015
26.2271
26.6439
13.9857
15.3781
15.0019
15.4788
35.9233
35.9233
27.917
27.9079
26.4841
26.1066
26.9472
26.9325
32.2397
32.3393
27.1772
27.1261
15.8541
15.5252
16.2154
15.0869
32.8627
32.8582
23.5653
31.4914
31.5896
23.0312
21.0285
20.7761
21.0449
20.1695
20.2866
20.3097
28.8119
28.5123
32.7323
32.8417
35.3991
35.3941
30.3093
33.4825
33.393
28.7942
29.0718
25.5613
25.6581
18.3884
25.7623
25.8956
27.2016
19.2231
27.8263
28.6266
29.0279
32.1491
32.1489
25.0825
30.133
30.1139
38.7052
37.5275
38.7049
37.5258
27.3098
28.4618
28.4687
35.5079
35.4347
27.9657
25.1045
26.6542
27.0329
24.9428
35.4971
35.518
24.7398
25.6109
25.3584
10.8917
11.3881
11.2041
11.4795
25.4643
25.8741
31.5577
31.5994
7.0058
23.2346
10.4653
10.1783
28.151
23.4899
24.3252
23.8835
19.6196
32.8279
32.8296
29.6146
29.6049
23.9765
26.1567
28.4436
28.5314
28.5949
26.6968
7.63113
17.1622
17.155
16.9432
19.9833
20.037
26.0645
18.935
26.0574
29.8421
29.8502
23.8055
23.9033
9.41026
9.26362
29.0765
29.063
35.4961
35.5078
22.5092
22.5481
22.4902
22.5222
30.0129
30.0896
21.0293
20.5192
20.5968
21.0513
33.2831
33.3398
28.8761
28.2658
28.6894
28.6902
25.7748
25.8187
26.3036
26.4426
26.0524
26.0274
14.9632
15.1855
14.453
14.3433
35.2853
35.3509
26.9456
27.0324
26.447
26.0434
25.5767
25.5274
32.0895
32.1182
27.0763
26.6352
15.5533
15.2969
15.1858
15.6019
30.6584
30.6938
23.5514
31.5424
31.4385
23.1228
20.1951
20.1334
19.9716
20.0743
20.125
19.2158
28.4098
28.3737
32.6321
32.6342
33.8836
33.9137
27.2201
33.476
33.3983
28.6278
28.6015
18.6565
25.2626
25.281
25.4834
25.5125
27.1798
27.0903
28.611
29.0125
31.1311
31.2474
23.5195
28.4279
28.368
38.4564
36.8667
38.4724
36.8877
18.4742
27.2161
27.1729
27.2691
27.3419
35.3818
35.3546
23.538
24.6408
26.9928
35.4947
35.477
24.4915
24.4182
25.5439
24.616
24.5827
10.6058
11.2947
11.1473
11.1374
25.8156
28.6232
28.6616
7.08426
23.178
10.2493
9.82719
28.0304
28.0364
23.2576
24.3194
23.3452
31.2665
31.3197
28.7908
28.6507
19.4417
23.3697
25.9759
28.528
28.4029
26.6504
7.4961
16.7354
16.7222
16.1493
19.2561
18.8023
25.0825
25.0237
19.4218
28.7621
28.8618
22.6794
22.6494
9.5133
9.58609
28.995
28.8465
35.3985
35.407
22.3178
22.5428
22.4884
22.5136
30.0353
30.0415
21.0241
20.5075
20.3257
21.0668
33.3001
33.3002
28.8987
28.2658
28.7013
28.6973
25.8209
25.7978
26.2796
26.4979
26.0796
26.0937
13.9039
15.1831
14.8052
14.4665
35.3139
35.3164
26.9806
26.9862
26.4566
26.0659
25.5392
25.5292
32.1252
32.1222
27.1073
27.0289
15.5747
15.3054
15.3908
15.0027
30.6524
30.6399
23.5038
31.5591
31.4466
22.9437
20.4256
20.2347
19.9651
20.0087
20.0769
19.277
28.3763
28.3937
32.641
32.6243
33.8834
33.8739
27.1589
33.4872
33.4016
28.644
28.6963
25.305
25.2702
18.2776
25.5041
25.5054
27.099
19.1377
27.1246
28.6181
29.0291
31.1801
31.1885
23.5461
28.3949
28.3686
38.4623
36.8707
38.4622
36.8679
27.2346
27.2866
27.2995
35.3852
35.3792
27.2306
23.4188
24.7024
27.0122
24.8012
35.5033
35.477
24.6249
25.5187
24.612
10.9615
10.7267
11.3646
10.712
24.7032
25.8097
28.5966
28.6144
6.96383
22.9882
10.1906
9.70254
28.0552
23.2864
24.2743
23.3754
19.4743
31.2742
31.2766
28.6759
28.7196
23.4433
26.0999
27.9162
28.5468
28.4609
26.6602
7.4036
16.6929
16.7886
16.0859
19.2757
19.2781
25.051
18.8285
25.0482
28.785
28.8079
22.6713
22.7441
9.57327
9.20401
29.0175
28.9996
35.4101
35.4058
22.5138
22.5636
22.5202
22.482
30.0861
30.0117
21.0321
20.5197
20.6018
21.0413
33.3407
33.2795
28.8835
28.2704
28.6881
28.684
25.7806
25.778
26.3274
26.4172
26.0381
26.126
14.9634
15.1896
14.4609
14.3299
35.3495
35.284
27.0367
26.9454
26.4531
26.0482
25.5311
25.5668
32.1137
32.1209
27.0831
26.6443
15.5635
15.2869
15.1814
15.6054
30.7041
30.6468
23.5592
31.5568
31.4408
23.1274
20.4666
20.1333
19.9912
20.0287
20.101
19.1983
28.3818
28.3426
32.633
32.5996
33.923
33.8734
27.2208
33.4819
33.4003
28.6189
28.711
18.6629
25.2608
25.2789
25.4917
25.4948
27.0889
27.0962
28.615
29.0189
31.2422
31.1304
23.4979
28.3786
28.4139
38.4728
36.8907
38.4554
36.8629
18.4772
27.1906
27.3351
27.2697
35.3791
35.3788
27.2917
23.558
24.6414
26.9979
24.3966
35.5043
35.4767
24.4253
25.5494
24.5648
10.6128
11.2921
11.15
11.1401
24.7442
25.8106
28.656
28.6287
7.07989
23.1516
22.9876
10.251
9.82798
28.051
24.3248
31.3203
31.2632
28.7524
28.6519
19.4512
23.371
23.4707
25.9806
27.9572
28.5315
28.4093
26.6559
7.49936
16.7312
16.7435
16.1553
18.8037
19.2616
25.0241
19.3959
25.0866
28.8443
28.7621
22.7112
22.6144
9.50741
9.58253
29.1181
28.8582
35.3951
35.4062
22.4097
23.271
24.0902
22.7882
30.2527
31.8481
22.2115
21.1987
20.521
21.187
33.4494
34.5558
28.548
28.9538
28.8069
30.2795
28.1192
25.9601
26.7905
27.5054
26.9842
26.1693
13.9684
15.6562
15.1801
15.134
35.3913
36.5825
27.1875
29.5753
26.5536
26.2452
25.892
26.9983
33.1184
32.1943
27.18
27.2073
16.2816
15.3921
15.8699
15.1671
30.9348
31.6833
23.6181
31.7126
31.6005
23.0796
21.5452
20.4162
20.9481
20.1009
20.8198
19.7229
28.5201
31.1128
32.7154
34.38
34.0427
34.6712
27.8703
33.4973
33.4925
29.7148
28.7306
26.5605
25.413
18.5691
27.24
25.6393
19.2598
27.2927
30.4598
28.754
29.0653
31.3239
33.5569
24.0593
28.7014
29.721
38.4913
36.9448
38.7893
37.3617
27.9085
27.3119
27.5492
29.2852
35.4259
35.9704
24.4439
25.4236
27.1274
35.6126
35.5228
24.7109
25.3311
26.2473
24.8185
26.7252
11.1386
11.2158
11.6109
11.1278
25.8895
29.0461
29.5398
6.99465
10.6845
9.98312
28.1369
28.9598
23.3858
24.3566
24.4315
25.0949
23.5371
19.9194
31.5002
32.5481
28.8668
32.075
26.4338
28.7268
28.6082
26.7392
7.70162
17.6869
16.9075
16.7443
20.4525
19.5326
25.3144
26.9685
18.9209
28.9976
31.2464
24.0221
23.1151
9.34563
9.29745
29.3981
29.0781
36.2773
35.4553
35.3849
37.3811
35.3727
37.3829
38.4055
38.4046
36.3861
37.5128
35.266
36.3981
38.9049
38.9043
35.3207
35.3993
36.8289
36.6638
35.3191
37.2078
38.0429
38.0556
35.2822
37.2158
35.8518
36.944
35.8323
36.9626
39.1828
39.1822
37.8036
37.8029
34.5924
34.6911
37.8733
37.8735
36.9475
37.7562
34.8627
34.9018
36.224
36.2482
37.1582
35.6122
38.5717
38.5704
35.1565
35.971
35.9478
35.1955
36.9139
36.8934
37.3977
35.767
35.7545
37.3459
37.3697
35.2407
37.8932
36.9251
39.0214
39.0208
38.1548
36.6022
36.5274
35.8241
37.2813
36.1921
36.6908
35.4766
36.0693
36.7905
34.2917
35.4692
37.5825
34.653
34.7466
38.5223
38.5212
37.7368
38.2509
38.2516
39.68
39.4503
39.6799
39.45
34.2698
37.9938
37.9933
37.9305
38.6307
37.6075
37.7398
37.8803
34.0041
35.1511
37.6189
37.6294
35.1876
35.1981
37.3687
36.5186
36.5686
35.8062
36.943
37.3772
35.1914
38.3199
38.3197
36.0647
35.8524
36.1268
36.8714
34.5264
35.8042
34.8352
36.9381
35.5219
38.6315
38.6309
38.0395
38.0384
36.923
35.0335
37.4347
35.2239
35.2323
35.0409
36.703
36.6166
36.6166
37.1923
37.1323
37.1163
37.6593
35.6177
37.6598
38.1479
38.1479
37.5442
37.5557
36.2198
35.867
34.5236
34.5207
38.409
38.3087
22.7841
22.6693
22.7596
24.1224
31.864
30.2514
21.193
21.1908
20.5245
22.1953
34.5665
33.4482
28.3367
29.1369
30.2741
28.8098
25.9375
28.1284
27.3125
27.0012
26.9623
26.2632
14.2279
15.3512
14.675
15.6702
36.5906
35.3917
29.5977
27.1958
26.6102
26.1703
27.0214
25.8796
33.1141
32.2105
27.5969
27.1218
15.7256
15.9532
16.0234
15.2067
31.7003
30.926
23.7709
31.4965
31.8084
23.0728
20.6556
21.5612
20.3763
20.6524
20.22
20.2682
31.1179
28.4951
32.7119
34.3806
34.6805
34.04
27.8828
33.5805
33.4057
29.7024
28.8246
26.5417
25.4225
18.4387
25.635
27.237
27.1987
19.4515
30.4798
28.6651
29.1544
33.5729
31.3253
24.6106
29.7163
28.719
38.7917
37.3665
38.4912
36.9438
27.8855
29.3056
27.5445
35.9687
35.4331
27.4127
23.9214
25.4708
27.1078
24.9155
35.4994
35.6326
25.2571
25.6204
26.7442
10.7423
11.6338
11.5109
11.0061
24.9216
26.1801
29.5481
29.0596
7.12084
23.1274
10.415
10.198
28.9161
24.2039
24.4285
25.1013
19.6217
32.558
31.501
32.1009
28.8543
23.6327
26.1951
28.0607
28.898
28.5372
26.8848
7.49543
16.9145
17.6916
16.529
19.5009
20.4777
26.9975
19.2647
25.3089
31.2667
28.9889
23.0076
24.1312
9.61828
9.36094
29.0751
29.4354
35.4575
36.2766
22.417
22.6827
23.3778
23.4086
31.3026
31.3008
21.3955
21.8389
20.4036
21.3931
34.3904
34.3898
28.3163
28.9291
28.9632
28.9404
25.9922
26.3485
28.4358
28.6015
26.2271
26.6439
13.9857
15.3781
15.0019
15.4788
35.9233
35.9233
27.917
27.9079
26.4841
26.1066
26.9472
26.9325
32.2397
32.3393
27.1772
27.1261
15.8541
15.5252
16.2154
15.0869
32.8627
32.8582
23.5653
31.4914
31.5896
23.0312
21.0285
20.7761
21.0449
20.1695
20.2866
20.3097
28.8119
28.5123
32.7323
32.8417
35.3991
35.3941
30.3093
33.4825
33.393
28.7942
29.0718
25.5613
25.6581
18.3884
25.7623
25.8956
27.2016
19.2231
27.8263
28.6266
29.0279
32.1491
32.1489
25.0825
30.133
30.1139
38.7052
37.5275
38.7049
37.5258
27.3098
28.4618
28.4687
35.5079
35.4347
27.9657
25.1045
26.6542
27.0329
24.9428
35.4971
35.518
24.7398
25.6109
25.3584
10.8917
11.3881
11.2041
11.4795
25.4643
25.8741
31.5577
31.5994
7.0058
23.2346
10.4653
10.1783
28.151
23.4899
24.3252
23.8835
19.6196
32.8279
32.8296
29.6146
29.6049
23.9765
26.1567
28.4436
28.5314
28.5949
26.6968
7.63113
17.1622
17.155
16.9432
19.9833
20.037
26.0645
18.935
26.0574
29.8421
29.8502
23.8055
23.9033
9.41026
9.26362
29.0765
29.063
35.4961
35.5078
22.5092
22.5481
22.4902
22.5222
30.0129
30.0896
21.0293
20.5192
20.5968
21.0513
33.2831
33.3398
28.8761
28.2658
28.6894
28.6902
25.7748
25.8187
26.3036
26.4426
26.0524
26.0274
14.9632
15.1855
14.453
14.3433
35.2853
35.3509
26.9456
27.0324
26.447
26.0434
25.5767
25.5274
32.0895
32.1182
27.0763
26.6352
15.5533
15.2969
15.1858
15.6019
30.6584
30.6938
23.5514
31.5424
31.4385
23.1228
20.1951
20.1334
19.9716
20.0743
20.125
19.2158
28.4098
28.3737
32.6321
32.6342
33.8836
33.9137
27.2201
33.476
33.3983
28.6278
28.6015
18.6565
25.2626
25.281
25.4834
25.5125
27.1798
27.0903
28.611
29.0125
31.1311
31.2474
23.5195
28.4279
28.368
38.4564
36.8667
38.4724
36.8877
18.4742
27.2161
27.1729
27.2691
27.3419
35.3818
35.3546
23.538
24.6408
26.9928
35.4947
35.477
24.4915
24.4182
25.5439
24.616
24.5827
10.6058
11.2947
11.1473
11.1374
25.8156
28.6232
28.6616
7.08426
23.178
10.2493
9.82719
28.0304
28.0364
23.2576
24.3194
23.3452
31.2665
31.3197
28.7908
28.6507
19.4417
23.3697
25.9759
28.528
28.4029
26.6504
7.4961
16.7354
16.7222
16.1493
19.2561
18.8023
25.0825
25.0237
19.4218
28.7621
28.8618
22.6794
22.6494
9.5133
9.58609
28.995
28.8465
35.3985
35.407
22.3178
22.5428
22.4884
22.5136
30.0353
30.0415
21.0241
20.5075
20.3257
21.0668
33.3001
33.3002
28.8987
28.2658
28.7013
28.6973
25.8209
25.7978
26.2796
26.4979
26.0796
26.0937
13.9039
15.1831
14.8052
14.4665
35.3139
35.3164
26.9806
26.9862
26.4566
26.0659
25.5392
25.5292
32.1252
32.1222
27.1073
27.0289
15.5747
15.3054
15.3908
15.0027
30.6524
30.6399
23.5038
31.5591
31.4466
22.9437
20.4256
20.2347
19.9651
20.0087
20.0769
19.277
28.3763
28.3937
32.641
32.6243
33.8834
33.8739
27.1589
33.4872
33.4016
28.644
28.6963
25.305
25.2702
18.2776
25.5041
25.5054
27.099
19.1377
27.1246
28.6181
29.0291
31.1801
31.1885
23.5461
28.3949
28.3686
38.4623
36.8707
38.4622
36.8679
27.2346
27.2866
27.2995
35.3852
35.3792
27.2306
23.4188
24.7024
27.0122
24.8012
35.5033
35.477
24.6249
25.5187
24.612
10.9615
10.7267
11.3646
10.712
24.7032
25.8097
28.5966
28.6144
6.96383
22.9882
10.1906
9.70254
28.0552
23.2864
24.2743
23.3754
19.4743
31.2742
31.2766
28.6759
28.7196
23.4433
26.0999
27.9162
28.5468
28.4609
26.6602
7.4036
16.6929
16.7886
16.0859
19.2757
19.2781
25.051
18.8285
25.0482
28.785
28.8079
22.6713
22.7441
9.57327
9.20401
29.0175
28.9996
35.4101
35.4058
22.5138
22.5636
22.5202
22.482
30.0861
30.0117
21.0321
20.5197
20.6018
21.0413
33.3407
33.2795
28.8835
28.2704
28.6881
28.684
25.7806
25.778
26.3274
26.4172
26.0381
26.126
14.9634
15.1896
14.4609
14.3299
35.3495
35.284
27.0367
26.9454
26.4531
26.0482
25.5311
25.5668
32.1137
32.1209
27.0831
26.6443
15.5635
15.2869
15.1814
15.6054
30.7041
30.6468
23.5592
31.5568
31.4408
23.1274
20.4666
20.1333
19.9912
20.0287
20.101
19.1983
28.3818
28.3426
32.633
32.5996
33.923
33.8734
27.2208
33.4819
33.4003
28.6189
28.711
18.6629
25.2608
25.2789
25.4917
25.4948
27.0889
27.0962
28.615
29.0189
31.2422
31.1304
23.4979
28.3786
28.4139
38.4728
36.8907
38.4554
36.8629
18.4772
27.1906
27.3351
27.2697
35.3791
35.3788
27.2917
23.558
24.6414
26.9979
24.3966
35.5043
35.4767
24.4253
25.5494
24.5648
10.6128
11.2921
11.15
11.1401
24.7442
25.8106
28.656
28.6287
7.07989
23.1516
22.9876
10.251
9.82798
28.051
24.3248
31.3203
31.2632
28.7524
28.6519
19.4512
23.371
23.4707
25.9806
27.9572
28.5315
28.4093
26.6559
7.49936
16.7312
16.7435
16.1553
18.8037
19.2616
25.0241
19.3959
25.0866
28.8443
28.7621
22.7112
22.6144
9.50741
9.58253
29.1181
28.8582
35.3951
35.4062
22.4097
23.271
24.0902
22.7882
30.2527
31.8481
22.2115
21.1987
20.521
21.187
33.4494
34.5558
28.548
28.9538
28.8069
30.2795
28.1192
25.9601
26.7905
27.5054
26.9842
26.1693
13.9684
15.6562
15.1801
15.134
35.3913
36.5825
27.1875
29.5753
26.5536
26.2452
25.892
26.9983
33.1184
32.1943
27.18
27.2073
16.2816
15.3921
15.8699
15.1671
30.9348
31.6833
23.6181
31.7126
31.6005
23.0796
21.5452
20.4162
20.9481
20.1009
20.8198
19.7229
28.5201
31.1128
32.7154
34.38
34.0427
34.6712
27.8703
33.4973
33.4925
29.7148
28.7306
26.5605
25.413
18.5691
27.24
25.6393
19.2598
27.2927
30.4598
28.754
29.0653
31.3239
33.5569
24.0593
28.7014
29.721
38.4913
36.9448
38.7893
37.3617
27.9085
27.3119
27.5492
29.2852
35.4259
35.9704
24.4439
25.4236
27.1274
35.6126
35.5228
24.7109
25.3311
26.2473
24.8185
26.7252
11.1386
11.2158
11.6109
11.1278
25.8895
29.0461
29.5398
6.99465
10.6845
9.98312
28.1369
28.9598
23.3858
24.3566
24.4315
25.0949
23.5371
19.9194
31.5002
32.5481
28.8668
32.075
26.4338
28.7268
28.6082
26.7392
7.70162
17.6869
16.9075
16.7443
20.4525
19.5326
25.3144
26.9685
18.9209
28.9976
31.2464
24.0221
23.1151
9.34563
9.29745
29.3981
29.0781
36.2773
35.4553
35.3849
37.3811
35.3727
37.3829
38.4055
38.4046
36.3861
37.5128
35.266
36.3981
38.9049
38.9043
35.3207
35.3993
36.8289
36.6638
35.3191
37.2078
38.0429
38.0556
35.2822
37.2158
35.8518
36.944
35.8323
36.9626
39.1828
39.1822
37.8036
37.8029
34.5924
34.6911
37.8733
37.8735
36.9475
37.7562
34.8627
34.9018
36.224
36.2482
37.1582
35.6122
38.5717
38.5704
35.1565
35.971
35.9478
35.1955
36.9139
36.8934
37.3977
35.767
35.7545
37.3459
37.3697
35.2407
37.8932
36.9251
39.0214
39.0208
38.1548
36.6022
36.5274
35.8241
37.2813
36.1921
36.6908
35.4766
36.0693
36.7905
34.2917
35.4692
37.5825
34.653
34.7466
38.5223
38.5212
37.7368
38.2509
38.2516
39.68
39.4503
39.6799
39.45
34.2698
37.9938
37.9933
37.9305
38.6307
37.6075
37.7398
37.8803
34.0041
35.1511
37.6189
37.6294
35.1876
35.1981
37.3687
36.5186
36.5686
35.8062
36.943
37.3772
35.1914
38.3199
38.3197
36.0647
35.8524
36.1268
36.8714
34.5264
35.8042
34.8352
36.9381
35.5219
38.6315
38.6309
38.0395
38.0384
36.923
35.0335
37.4347
35.2239
35.2323
35.0409
36.703
36.6166
36.6166
37.1923
37.1323
37.1163
37.6593
35.6177
37.6598
38.1479
38.1479
37.5442
37.5557
36.2198
35.867
34.5236
34.5207
38.409
38.3087
22.7841
22.6693
22.7596
24.1224
31.864
30.2514
21.193
21.1908
20.5245
22.1953
34.5665
33.4482
28.3367
29.1369
30.2741
28.8098
25.9375
28.1284
27.3125
27.0012
26.9623
26.2632
14.2279
15.3512
14.675
15.6702
36.5906
35.3917
29.5977
27.1958
26.6102
26.1703
27.0214
25.8796
33.1141
32.2105
27.5969
27.1218
15.7256
15.9532
16.0234
15.2067
31.7003
30.926
23.7709
31.4965
31.8084
23.0728
20.6556
21.5612
20.3763
20.6524
20.22
20.2682
31.1179
28.4951
32.7119
34.3806
34.6805
34.04
27.8828
33.5805
33.4057
29.7024
28.8246
26.5417
25.4225
18.4387
25.635
27.237
27.1987
19.4515
30.4798
28.6651
29.1544
33.5729
31.3253
24.6106
29.7163
28.719
38.7917
37.3665
38.4912
36.9438
27.8855
29.3056
27.5445
35.9687
35.4331
27.4127
23.9214
25.4708
27.1078
24.9155
35.4994
35.6326
25.2571
25.6204
26.7442
10.7423
11.6338
11.5109
11.0061
24.9216
26.1801
29.5481
29.0596
7.12084
23.1274
10.415
10.198
28.9161
24.2039
24.4285
25.1013
19.6217
32.558
31.501
32.1009
28.8543
23.6327
26.1951
28.0607
28.898
28.5372
26.8848
7.49543
16.9145
17.6916
16.529
19.5009
20.4777
26.9975
19.2647
25.3089
31.2667
28.9889
23.0076
24.1312
9.61828
9.36094
29.0751
29.4354
35.4575
36.2766
VECTORS nodal_fluid_flux_TPM float
-0.000223939 5.30413e-06 1.83065e-21
0.000184265 -7.63304e-05 3.62375e-20
0.00010585 0.000176112 -6.88604e-20
0.000403085 5.30658e-05 -1.44563e-20
-5.79343e-05 -0.000100336 2.90486e-20
-5.75789e-05 9.97207e-05 4.79203e-20
0.000403204 -5.30815e-05 -2.1816e-19
0.000105848 -0.000176027 -3.52627e-20
-0.000223643 -5.99491e-06 -1.47579e-20
0.000184401 7.63875e-05 -2.38093e-20
-0.000109745 -0.000205654 7.75869e-20
0.000152768 0.000153944 2.71838e-21
0.000152715 -0.000153526 2.04092e-20
-0.000144885 0.000250962 -2.47756e-20
-0.000326035 0.000265588 2.27082e-21
0.000481614 -6.33999e-05 -5.48161e-20
-0.000110329 0.000191096 1.90691e-20
-0.000111561 -0.000193203 -8.74981e-21
0.000487017 6.41126e-05 -1.00596e-19
0.000188888 7.82342e-05 9.10132e-20
-0.000144608 -0.000250481 -5.39198e-20
0.000109631 -0.000205526 -4.60492e-20
-0.000232061 -3.20209e-06 3.81871e-20
-0.000112159 -0.00019425 1.12983e-19
-0.000111677 0.000193434 1.32157e-19
-0.000110335 -0.000205477 7.68181e-20
0.000186458 7.7237e-05 2.77404e-20
-0.000479647 5.62485e-05 -9.14645e-21
0.000485013 6.38397e-05 -1.42769e-19
0.000144517 -0.000250314 1.57498e-20
-0.000231684 -3.76607e-06 -2.7628e-19
-0.000111625 -0.00019333 -8.07491e-20
-0.000111961 0.000193912 6.87096e-20
-0.000231599 3.21223e-06 5.84222e-20
0.000109421 0.000205404 7.09841e-20
-0.000231388 -3.62541e-06 4.89821e-20
0.000144997 -0.000251152 -2.03455e-20
0.000485058 -6.38448e-05 3.77432e-20
-0.000323801 0.000263964 -3.05428e-19
-0.00011205 -0.000194079 -5.63537e-20
-0.00011165 0.000193368 1.71168e-19
-0.000231573 4.07962e-06 -1.15405e-20
0.000109773 0.000205629 -1.21257e-19
-0.000144634 0.000250525 7.91563e-20
0.000188892 -7.82357e-05 2.73921e-20
0.00048736 -6.41576e-05 -1.23485e-19
-0.000111792 0.000193604 6.27567e-20
-0.000110062 -0.000190633 3.40415e-20
0.00048149 6.33843e-05 -1.28289e-19
-0.000479734 5.62023e-05 -1.52167e-19
-0.000230495 3.39788e-06 5.99279e-20
0.000108739 0.000203476 2.28345e-20
-0.00014306 0.000247785 6.37719e-20
0.000184958 -7.6599e-05 5.34845e-20
0.000475257 -6.25366e-05 -3.35339e-20
0.000149267 0.000148901 -1.65809e-19
0.000123535 -0.00014192 1.66608e-20
0.00037473 4.93716e-05 -2.40574e-19
8.78589e-05 7.91942e-05 -1.05486e-20
-0.000128417 -2.09201e-05 -5.30929e-22
-0.000328319 0.000264936 -4.76049e-20
-4.79951e-05 8.31221e-05 4.68584e-20
3.04422e-05 -1.26095e-05 4.52337e-20
7.42703e-05 -9.77707e-06 -5.3151e-20
2.30273e-05 2.17735e-05 -5.8573e-21
2.30118e-05 -2.17609e-05 3.87818e-20
7.42172e-05 9.77008e-06 1.50442e-19
3.04146e-05 1.25981e-05 -4.99017e-20
-1.99594e-05 -6.05513e-05 -1.56223e-20
0.00010744 -4.45179e-05 6.0221e-20
-0.000116616 0.000202003 2.39516e-20
9.58235e-06 3.46564e-06 5.14626e-20
0.00037391 -4.92646e-05 -2.15115e-20
0.000123286 0.000141692 5.06938e-20
0.000149297 -0.000149006 3.70171e-21
0.000475295 6.25416e-05 6.38271e-20
0.000184869 7.6562e-05 -2.44815e-19
-0.000108568 -0.000203145 2.41447e-19
0.000142975 -0.000247672 -5.83266e-20
-0.000230377 -4.07019e-06 -5.33656e-20
-0.000328375 0.000270432 1.17244e-19
-0.000223939 5.30413e-06 3.33365e-20
0.000184265 -7.63304e-05 -2.0473e-20
0.00010585 0.000176112 -1.84511e-20
0.000403085 5.30658e-05 -8.37691e-20
-5.79343e-05 -0.000100336 -1.08587e-20
-5.75789e-05 9.97207e-05 -6.68983e-21
0.000403204 -5.30815e-05 -2.24461e-19
0.000105848 -0.000176027 3.40501e-20
-0.000223643 -5.99491e-06 -2.52599e-20
0.000184401 7.63875e-05 -2.59097e-20
-0.000109745 -0.000205654 1.45752e-20
0.000152768 0.000153944 3.00234e-20
0.000152715 -0.000153526 9.90727e-21
-0.000144885 0.000250962 -1.25594e-19
-0.000326035 0.000265588 -5.60563e-21
0.000481614 -6.33999e-05 4.39022e-20
-0.000110329 0.000191096 1.00984e-19
-0.000111561 -0.000193203 -5.91591e-20
0.000487017 6.41126e-05 -6.06882e-20
0.000188888 7.82342e-05 4.48047e-20
-0.000144608 -0.000250481 -4.55183e-20
0.000109631 -0.000205526 -6.91535e-20
-0.000232061 -3.20209e-06 6.68129e-21
-0.000112159 -0.00019425 1.23485e-19
-0.000111677 0.000193434 6.91449e-20
-0.000110335 -0.000205477 1.17061e-20
0.000186458 7.7237e-05 5.71458e-20
-0.000479647 5.62485e-05 -1.17719e-20
0.000485013 6.38397e-05 -1.38568e-19
0.000144517 -0.000250314 -1.33378e-19
-0.000231684 -3.76607e-06 -2.65778e-19
-0.000111625 -0.00019333 -4.29421e-20
-0.000111961 0.000193912 4.77057e-20
-0.000231599 3.21223e-06 -1.71918e-20
0.000109421 0.000205404 7.93857e-20
-0.000231388 -3.62541e-06 2.37775e-20
0.000144997 -0.000251152 -5.60521e-20
0.000485058 -6.38448e-05 8.33782e-21
-0.000323801 0.000263964 -3.03327e-19
-0.00011205 -0.000194079 3.81638e-20
-0.00011165 0.000193368 1.18658e-19
-0.000231573 4.07962e-06 4.30696e-20
0.000109773 0.000205629 -2.07373e-19
-0.000144634 0.000250525 -2.75879e-21
0.000188892 -7.82357e-05 -1.04149e-20
0.00048736 -6.41576e-05 -1.12983e-19
-0.000111792 0.000193604 1.21568e-19
-0.000110062 -0.000190633 5.08446e-20
0.00048149 6.33843e-05 8.23596e-21
-0.000479734 5.62023e-05 -1.47966e-19
-0.000230495 3.39788e-06 1.1619e-20
0.000108739 0.000203476 1.23326e-20
-0.00014306 0.000247785 2.59649e-20
0.000184958 -7.6599e-05 -3.89326e-20
0.000475257 -6.25366e-05 -9.8646e-20
0.000149267 0.000148901 -1.61609e-19
0.000123535 -0.00014192 -7.36558e-20
0.00037473 4.93716e-05 -3.01485e-19
8.78589e-05 7.91942e-05 -1.15568e-19
-0.000128417 -2.09201e-05 -1.52336e-20
-0.000328319 0.000264936 -4.18288e-20
-4.79951e-05 8.31221e-05 -3.71571e-20
3.04422e-05 -1.26095e-05 -5.97857e-20
7.42703e-05 -9.77707e-06 -4.26491e-20
2.30273e-05 2.17735e-05 4.64464e-21
2.30118e-05 -2.17609e-05 -2.42299e-20
7.42172e-05 9.77008e-06 1.81176e-20
3.04146e-05 1.25981e-05 2.60799e-21
-1.99594e-05 -6.05513e-05 4.10882e-20
0.00010744 -4.45179e-05 3.92171e-20
-0.000116616 0.000202003 8.27625e-20
9.58235e-06 3.46564e-06 6.61654e-20
0.00037391 -4.92646e-05 6.88052e-20
0.000123286 0.000141692 6.32962e-20
0.000149297 -0.000149006 -4.25068e-20
0.000475295 6.25416e-05 6.59275e-20
0.000184869 7.6562e-05 -1.88105e-19
-0.000108568 -0.000203145 1.4903e-19
0.000142975 -0.000247672 -5.20254e-20
-0.000230377 -4.07019e-06 3.27503e-20
-0.000328375 0.000270432 1.16193e-19
-4.27773e-05 -0.000270355 -2.16537e-20
0.00010585 0.000176112 1.06527e-20
1.50323e-05 2.11346e-05 1.30944e-19
-6.1372e-05 6.67233e-07 1.11089e-19
-0.000223939 5.30413e-06 3.55473e-20
0.000197291 -5.55589e-05 -3.81319e-20
8.84389e-05 -0.000213516 -2.48712e-20
3.50431e-05 6.48803e-05 -1.02577e-19
3.28412e-05 6.27817e-07 -9.71402e-20
3.28412e-05 6.27817e-07 2.21295e-20
3.8071e-05 -6.1323e-05 -6.33514e-20
8.85011e-05 0.000213667 -4.14598e-20
0.000197283 5.561e-05 -2.24777e-20
-0.000223643 -5.99491e-06 1.55819e-20
-6.05757e-05 -1.97246e-06 5.80887e-20
1.66474e-05 -2.20232e-05 2.99916e-20
0.000105848 -0.000176027 -4.37747e-20
4.7926e-05 0.000270351 -6.20835e-20
-0.000109745 -0.000205654 8.34356e-20
-7.22826e-06 -2.02089e-05 1.7563e-19
6.48368e-05 2.43884e-06 1.38838e-19
0.000162349 4.49535e-05 3.16714e-20
-0.000232076 -2.05037e-09 8.85242e-20
0.000103381 -0.00019918 1.37149e-19
2.96226e-05 -5.63628e-05 3.8512e-20
2.93935e-05 5.43628e-05 1.21298e-19
0.000103032 0.00019997 1.61014e-19
-0.000232138 1.80733e-09 -1.52018e-20
0.000162199 -4.48714e-05 -3.5405e-20
6.38893e-05 -7.27103e-07 4.48684e-20
1.55173e-05 2.67597e-05 4.32119e-20
-7.7686e-05 6.30502e-05 5.85326e-20
0.000264119 -0.000321244 -2.18162e-21
0.000335943 -0.000258609 -4.76144e-21
-0.000265613 0.000328755 -3.16438e-21
0.000223715 7.27298e-05 2.59416e-20
0.0001123 0.000271084 -3.8512e-20
-1.30613e-05 0.00011961 7.81411e-20
-2.98389e-05 1.81661e-06 4.72937e-20
-2.98389e-05 1.81661e-06 1.41881e-19
-9.24403e-06 -0.000113999 1.57503e-19
0.000113081 -0.000272969 8.67658e-20
0.000227083 -7.30824e-05 -3.50482e-20
0.0001639 4.91968e-05 2.86687e-19
6.17598e-05 2.42923e-06 3.7258e-19
1.27326e-05 -2.7146e-05 2.331e-19
-7.82698e-05 -6.35965e-05 2.08531e-20
4.59504e-05 -0.000276133 4.93304e-20
0.000109631 -0.000205526 4.84382e-19
1.04313e-05 -1.87357e-05 3.37143e-19
-6.4817e-05 1.18489e-06 1.39987e-19
-0.000232061 -3.20209e-06 -1.48325e-19
-0.000233309 -2.04458e-09 9.68386e-20
-1.60758e-05 -0.000119563 5.33889e-20
-3.10234e-05 -2.24247e-06 4.75868e-20
-3.10234e-05 -2.24247e-06 1.77318e-19
-1.22758e-05 0.000113978 1.92488e-19
-0.000233192 7.51422e-09 1.18079e-21
0.00016329 4.65413e-05 2.2414e-20
6.44198e-05 3.38519e-06 4.11986e-20
-8.04895e-06 -1.99996e-05 1.52351e-19
-0.000110335 -0.000205477 1.16383e-19
4.71982e-05 0.000276818 3.05544e-20
0.000252549 -0.000314624 6.39381e-20
0.000323645 0.000262159 1.24801e-19
0.000261898 0.000322213 -7.43784e-20
0.00011293 -0.000272617 8.75812e-20
0.00022558 -7.30961e-05 -1.05338e-20
-4.62736e-05 -0.000275992 -8.12482e-20
7.79629e-05 -6.35247e-05 1.64382e-19
-1.42026e-05 -2.78501e-05 2.37649e-19
-6.50431e-05 7.01985e-07 2.90594e-19
-0.000231684 -3.76607e-06 3.81219e-19
-0.000233194 -4.04793e-09 -3.72611e-19
-1.22931e-05 -0.000113874 3.4931e-19
-3.08955e-05 2.28132e-06 3.00122e-19
-3.08955e-05 2.28132e-06 4.9196e-19
-1.60477e-05 0.000119423 6.67201e-19
-0.000232851 4.12482e-09 4.2681e-20
-0.000231599 3.21223e-06 1.50155e-19
-6.47176e-05 -1.28308e-06 3.1266e-19
1.04441e-05 1.87267e-05 1.68519e-19
0.000109421 0.000205404 2.96016e-19
4.56769e-05 0.000276174 8.71055e-20
7.99417e-05 -6.20411e-05 1.43688e-19
-1.60678e-05 -2.67091e-05 6.55155e-20
-6.50774e-05 1.12717e-07 3.02846e-20
-0.000231388 -3.62541e-06 -1.36294e-19
0.000225426 7.31948e-05 6.15292e-20
0.000113037 0.000272874 5.92104e-21
-4.17173e-05 -0.000470895 -6.97359e-20
0.000318571 0.000252529 9.14746e-20
-0.000263886 0.000327845 -1.70002e-19
-4.55149e-05 -0.000276798 -1.11771e-19
-0.0002328 -7.33689e-09 8.42488e-21
-1.6072e-05 -0.000119554 1.46224e-19
-3.10185e-05 -2.26533e-06 2.04812e-19
-3.10185e-05 -2.26533e-06 -3.33638e-21
-1.22719e-05 0.000113926 -1.4475e-19
-0.00023321 2.0817e-09 -6.80876e-21
-0.000231573 4.07962e-06 -1.22629e-19
-6.57296e-05 -7.76172e-07 -1.08521e-19
1.21725e-05 1.97697e-05 -1.10881e-20
0.000109773 0.000205629 1.09432e-19
4.60758e-05 0.000276198 -1.78499e-19
-7.81359e-05 6.34888e-05 -1.20227e-19
1.26567e-05 2.71335e-05 -2.77896e-19
6.16951e-05 -2.36254e-06 -4.47907e-19
0.000163879 -4.9172e-05 -3.2103e-19
0.00022713 7.31939e-05 -7.8791e-20
0.000113223 0.000273312 -1.42508e-19
-8.36099e-06 -0.000114287 -1.33393e-20
-2.96266e-05 7.57327e-07 7.93436e-21
-2.96266e-05 7.57327e-07 -5.24141e-20
-1.39473e-05 0.000119453 -3.30349e-20
0.000112188 -0.000270815 6.58404e-20
0.000223807 -7.26319e-05 -7.15873e-20
0.000252672 -0.000315082 -1.2551e-19
0.000323567 0.000261986 -7.85197e-20
0.000261726 0.000322013 -1.38679e-19
-0.000226049 -2.21933e-09 -3.1973e-20
-0.000231825 -9.54006e-09 3.3415e-20
-0.000230495 3.39788e-06 1.31974e-19
-6.4231e-05 -1.19528e-06 2.02265e-20
1.05763e-05 1.87311e-05 3.24806e-20
0.000108739 0.000203476 2.24265e-21
4.57283e-05 0.000273203 5.56401e-20
-7.70193e-05 6.27368e-05 3.294e-19
1.32084e-05 2.64679e-05 1.84173e-19
6.11931e-05 -2.88879e-06 -8.11293e-20
0.000160442 -4.85343e-05 -2.18627e-19
0.00022192 7.11601e-05 -1.67228e-19
0.000110163 0.000265953 -4.42058e-19
0.000100345 0.000194174 -5.87609e-19
2.84002e-05 4.84958e-05 -1.40486e-19
2.62908e-05 -5.70694e-05 -2.74154e-20
8.21909e-05 -0.000180189 -5.79783e-20
9.46438e-05 -0.000228431 7.84023e-20
0.000160874 -6.35366e-05 -7.61597e-20
-0.000128417 -2.09201e-05 -1.90419e-19
-1.25159e-05 -3.91734e-05 -1.08109e-19
3.50076e-05 -3.3717e-05 -9.98501e-20
8.78589e-05 7.91942e-05 -1.53526e-20
5.48607e-05 -0.000225045 1.39021e-20
0.000266151 -0.00033057 4.50388e-20
0.000331426 -0.000262333 2.81864e-20
-0.000265421 0.000325339 7.2183e-20
-0.000120254 1.05261e-09 2.71861e-20
4.44431e-05 9.55715e-05 -5.00758e-20
-8.22653e-06 9.08094e-06 1.54095e-19
6.81008e-06 2.86697e-07 1.08519e-21
1.24526e-05 -3.51603e-06 2.37456e-20
2.59722e-05 -9.10231e-06 2.08609e-19
3.54637e-05 1.07054e-05 7.45988e-20
1.67731e-05 4.04942e-05 -8.99622e-21
1.55346e-05 2.87072e-05 2.27235e-19
3.65991e-06 6.77818e-06 1.8484e-19
3.67034e-06 -6.81275e-06 6.64584e-20
1.55139e-05 -2.86994e-05 -6.90345e-20
1.67622e-05 -4.04678e-05 5.45145e-20
3.54364e-05 -1.06988e-05 6.12914e-20
2.59532e-05 9.0875e-06 -1.38545e-19
1.247e-05 3.58454e-06 -1.96593e-19
5.20693e-06 6.93315e-07 -1.21211e-19
-1.99594e-05 -6.05513e-05 1.33465e-19
4.27135e-06 -9.50318e-05 -4.9377e-21
-2.79281e-05 7.77219e-05 -1.68742e-19
3.72313e-05 5.92697e-05 -1.26679e-19
6.41199e-05 4.30887e-05 -1.36642e-20
0.000123195 1.50044e-05 2.47841e-20
-0.000120268 -1.00738e-09 9.52715e-21
1.36602e-05 1.48775e-07 -4.53441e-20
9.76955e-06 3.33678e-06 -2.13521e-20
1.36693e-05 1.09922e-07 -7.76973e-20
5.4929e-05 0.000225094 -5.89446e-20
0.000160472 6.34232e-05 6.6261e-21
9.4464e-05 0.000227997 6.29712e-20
8.19633e-05 0.000179942 3.91579e-19
2.64634e-05 5.72442e-05 1.29462e-19
2.81425e-05 -4.82887e-05 8.47991e-20
0.000100443 -0.000194216 2.03457e-19
0.000110199 -0.000266041 1.33036e-19
0.000221889 -7.11919e-05 -5.26116e-20
0.000160412 4.84223e-05 3.29875e-19
6.13326e-05 3.3072e-06 3.91721e-19
-7.77272e-06 -1.86759e-05 4.21704e-19
-0.000108568 -0.000203145 2.16764e-19
-4.54122e-05 -0.000273024 -1.44878e-19
7.74353e-05 -6.30377e-05 -3.87584e-21
-1.39234e-05 -2.77309e-05 1.339e-19
-6.43946e-05 5.89723e-07 7.56288e-20
-0.000230377 -4.07019e-06 -8.03286e-20
-0.000232015 9.6438e-09 1.37831e-20
-0.000226008 1.9325e-09 4.11752e-20
0.000259134 -0.000317362 3.91141e-21
0.000330244 -0.000253845 -7.49847e-20
-0.000269955 0.000337415 8.61801e-20
-4.27773e-05 -0.000270355 1.19525e-20
0.00010585 0.000176112 -3.97566e-20
1.50323e-05 2.11346e-05 6.79323e-20
-6.1372e-05 6.67233e-07 1.36294e-19
-0.000223939 5.30413e-06 7.96554e-20
0.000197291 -5.55589e-05 3.32813e-20
8.84389e-05 -0.000213516 -5.6377e-20
3.50431e-05 6.48803e-05 -6.477e-20
3.28412e-05 6.27817e-07 -4.72317e-21
3.28412e-05 6.27817e-07 -3.66814e-20
3.8071e-05 -6.1323e-05 -9.06564e-20
8.85011e-05 0.000213667 -1.14973e-19
0.000197283 5.561e-05 -3.08793e-20
-0.000223643 -5.99491e-06 6.80916e-20
-6.05757e-05 -1.97246e-06 6.43899e-20
1.66474e-05 -2.20232e-05 2.57908e-20
0.000105848 -0.000176027 -3.74735e-20
4.7926e-05 0.000270351 -4.94812e-20
-0.000109745 -0.000205654 9.6038e-20
-7.22826e-06 -2.02089e-05 1.65128e-19
6.48368e-05 2.43884e-06 1.07332e-19
0.000162349 4.49535e-05 8.83819e-20
-0.000232076 -2.05037e-09 8.85242e-20
0.000103381 -0.00019918 1.30848e-19
2.96226e-05 -5.63628e-05 1.1207e-20
2.93935e-05 5.43628e-05 9.81936e-20
0.000103032 0.00019997 1.96721e-19
-0.000232138 1.80733e-09 -2.36033e-20
0.000162199 -4.48714e-05 -2.28027e-20
6.38893e-05 -7.27103e-07 4.48684e-20
1.55173e-05 2.67597e-05 4.53123e-20
-7.7686e-05 6.30502e-05 6.27334e-20
0.000264119 -0.000321244 9.68961e-22
0.000335943 -0.000258609 -9.48731e-21
-0.000265613 0.000328755 -6.84006e-21
0.000223715 7.27298e-05 7.36927e-22
0.0001123 0.000271084 -1.1207e-20
-1.30613e-05 0.00011961 9.28439e-20
-2.98389e-05 1.81661e-06 4.72937e-20
-2.98389e-05 1.81661e-06 1.41881e-19
-9.24403e-06 -0.000113999 1.00793e-19
0.000113081 -0.000272969 -7.70645e-20
0.000227083 -7.30824e-05 -4.13494e-20
0.0001639 4.91968e-05 3.24494e-19
6.17598e-05 2.42923e-06 3.99885e-19
1.27326e-05 -2.7146e-05 1.97394e-19
-7.82698e-05 -6.35965e-05 8.25075e-21
4.59504e-05 -0.000276133 9.13381e-20
0.000109631 -0.000205526 4.99085e-19
1.04313e-05 -1.87357e-05 4.00154e-19
-6.4817e-05 1.18489e-06 1.54689e-19
-0.000232061 -3.20209e-06 -1.92433e-19
-0.000233309 -2.04458e-09 6.32324e-20
-1.60758e-05 -0.000119563 3.02846e-20
-3.10234e-05 -2.24247e-06 7.48918e-20
-3.10234e-05 -2.24247e-06 1.41611e-19
-1.22758e-05 0.000113978 1.88287e-19
-0.000233192 7.51422e-09 2.42851e-20
0.00016329 4.65413e-05 7.70241e-20
6.44198e-05 3.38519e-06 6.43028e-20
-8.04895e-06 -1.99996e-05 1.54452e-19
-0.000110335 -0.000205477 1.39488e-19
4.71982e-05 0.000276818 1.7952e-20
0.000252549 -0.000314624 6.55134e-20
0.000323645 0.000262159 1.1955e-19
0.000261898 0.000322213 -7.96294e-20
0.00011293 -0.000272617 5.18746e-20
0.00022558 -7.30961e-05 3.35743e-20
-4.62736e-05 -0.000275992 -8.12482e-20
7.79629e-05 -6.35247e-05 2.35795e-19
-1.42026e-05 -2.78501e-05 2.60754e-19
-6.50431e-05 7.01985e-07 2.92695e-19
-0.000231684 -3.76607e-06 3.79119e-19
-0.000233194 -4.04793e-09 -3.76812e-19
-1.22931e-05 -0.000113874 3.03101e-19
-3.08955e-05 2.28132e-06 2.68616e-19
-3.08955e-05 2.28132e-06 4.47852e-19
-1.60477e-05 0.000119423 6.54598e-19
-0.000232851 4.12482e-09 3.00786e-20
-0.000231599 3.21223e-06 2.25769e-19
-6.47176e-05 -1.28308e-06 3.02158e-19
1.04441e-05 1.87267e-05 2.77739e-19
0.000109421 0.000205404 2.03599e-19
4.56769e-05 0.000276174 7.66036e-20
7.99417e-05 -6.20411e-05 1.12183e-19
-1.60678e-05 -2.67091e-05 4.24112e-20
-6.50774e-05 1.12717e-07 5.33889e-20
-0.000231388 -3.62541e-06 -1.11089e-19
0.000225426 7.31948e-05 -2.87874e-20
0.000113037 0.000272874 -5.07894e-20
-4.17173e-05 -0.000470895 -6.39598e-20
0.000318571 0.000252529 9.04244e-20
-0.000263886 0.000327845 -1.63176e-19
-4.55149e-05 -0.000276798 -1.22273e-19
-0.0002328 -7.33689e-09 5.46334e-20
-1.6072e-05 -0.000119554 1.94533e-19
-3.10185e-05 -2.26533e-06 2.97229e-19
-3.10185e-05 -2.26533e-06 -6.21472e-20
-1.22719e-05 0.000113926 -1.4265e-19
-0.00023321 2.0817e-09 5.41025e-20
-0.000231573 4.07962e-06 -9.3224e-20
-6.57296e-05 -7.76172e-07 -7.70155e-20
1.21725e-05 1.97697e-05 -4.46943e-20
0.000109773 0.000205629 1.36737e-19
4.60758e-05 0.000276198 -1.65897e-19
-7.81359e-05 6.34888e-05 -1.53834e-19
1.26567e-05 2.71335e-05 -3.74514e-19
6.16951e-05 -2.36254e-06 -5.31922e-19
0.000163879 -4.9172e-05 -3.16829e-19
0.00022713 7.31939e-05 -1.01895e-19
0.000113223 0.000273312 -8.78976e-20
-8.36099e-06 -0.000114287 -1.33393e-20
-2.96266e-05 7.57327e-07 -6.978e-20
-2.96266e-05 7.57327e-07 -1.67075e-20
-1.39473e-05 0.000119453 -6.03399e-20
0.000112188 -0.000270815 4.69369e-20
0.000223807 -7.26319e-05 3.76329e-20
0.000252672 -0.000315082 -1.2551e-19
0.000323567 0.000261986 -7.85197e-20
0.000261726 0.000322013 -1.42355e-19
-0.000226049 -2.21933e-09 -2.98726e-20
-0.000231825 -9.54006e-09 1.04828e-19
-0.000230495 3.39788e-06 1.21472e-19
-6.4231e-05 -1.19528e-06 6.22343e-20
1.05763e-05 1.87311e-05 -1.79287e-20
0.000108739 0.000203476 5.47524e-20
4.57283e-05 0.000273203 -1.0704e-21
-7.70193e-05 6.27368e-05 3.315e-19
1.32084e-05 2.64679e-05 2.13579e-19
6.11931e-05 -2.88879e-06 -8.74304e-20
0.000160442 -4.85343e-05 -2.85839e-19
0.00022192 7.11601e-05 -1.73529e-19
0.000110163 0.000265953 -4.5046e-19
0.000100345 0.000194174 -5.72906e-19
2.84002e-05 4.84958e-05 -1.92996e-19
2.62908e-05 -5.70694e-05 -5.26201e-20
8.21909e-05 -0.000180189 1.55352e-20
9.46438e-05 -0.000228431 1.43514e-19
0.000160874 -6.35366e-05 -8.8762e-20
-0.000128417 -2.09201e-05 -1.67315e-19
-1.25159e-05 -3.91734e-05 -5.55997e-20
3.50076e-05 -3.3717e-05 -1.20854e-19
8.78589e-05 7.91942e-05 5.6513e-21
5.48607e-05 -0.000225045 5.5005e-21
0.000266151 -0.00033057 4.13632e-20
0.000331426 -0.000262333 3.39624e-20
-0.000265421 0.000325339 7.06077e-20
-0.000120254 1.05261e-09 -2.11228e-20
4.44431e-05 9.55715e-05 -3.11723e-20
-8.22653e-06 9.08094e-06 1.70898e-19
6.81008e-06 2.86697e-07 9.35023e-20
1.24526e-05 -3.51603e-06 7.20545e-20
2.59722e-05 -9.10231e-06 1.85505e-19
3.54637e-05 1.07054e-05 1.99887e-20
1.67731e-05 4.04942e-05 3.93127e-20
1.55346e-05 2.87072e-05 2.88146e-19
3.65991e-06 6.77818e-06 5.04156e-20
3.67034e-06 -6.81275e-06 7.90607e-20
1.55139e-05 -2.86994e-05 -5.22314e-20
1.67622e-05 -4.04678e-05 1.46071e-20
3.54364e-05 -1.06988e-05 -1.6423e-20
2.59532e-05 9.0875e-06 -7.97339e-20
1.247e-05 3.58454e-06 -2.53304e-19
5.20693e-06 6.93315e-07 -8.13034e-20
-1.99594e-05 -6.05513e-05 1.14038e-21
4.27135e-06 -9.50318e-05 -2.17408e-20
-2.79281e-05 7.77219e-05 -1.16233e-19
3.72313e-05 5.92697e-05 -1.18278e-19
6.41199e-05 4.30887e-05 -1.7865e-20
0.000123195 1.50044e-05 3.94868e-20
-0.000120268 -1.00738e-09 -2.40791e-20
1.36602e-05 1.48775e-07 -2.01395e-20
9.76955e-06 3.33678e-06 -4.65568e-20
1.36693e-05 1.09922e-07 -9.45004e-20
5.4929e-05 0.000225094 -8.41492e-20
0.000160472 6.34232e-05 -1.77546e-21
9.4464e-05 0.000227997 4.61681e-20
8.19633e-05 0.000179942 3.11764e-19
2.64634e-05 5.72442e-05 1.02156e-19
2.81425e-05 -4.82887e-05 6.7996e-20
0.000100443 -0.000194216 2.39164e-19
0.000110199 -0.000266041 1.51939e-19
0.000221889 -7.11919e-05 -1.13523e-19
0.000160412 4.84223e-05 3.06771e-19
6.13326e-05 3.3072e-06 3.68617e-19
-7.77272e-06 -1.86759e-05 4.80515e-19
-0.000108568 -0.000203145 2.75575e-19
-4.54122e-05 -0.000273024 -5.03604e-20
7.74353e-05 -6.30377e-05 8.72648e-21
-1.39234e-05 -2.77309e-05 8.55912e-20
-6.43946e-05 5.89723e-07 7.35284e-20
-0.000230377 -4.07019e-06 -1.07634e-19
-0.000232015 9.6438e-09 1.16827e-20
-0.000226008 1.9325e-09 1.26786e-21
0.000259134 -0.000317362 5.4867e-21
0.000330244 -0.000253845 -8.02357e-20
-0.000269955 0.000337415 8.72303e-20
-7.22211e-05 0.000108735 1.04653e-19
-8.1e-05 -5.42967e-05 8.11611e-20
7.73665e-05 -7.37393e-05 -4.76824e-20
7.68082e-05 7.44476e-05 -1.88398e-20
9.60528e-05 1.9229e-05 -9.54433e-20
9.59243e-05 -1.93445e-05 5.38157e-21
2.39647e-05 -0.00010575 -4.95791e-21
0.000122847 -2.23893e-05 -1.87527e-20
-0.000130956 -1.91792e-05 1.1936e-19
-1.64108e-05 0.000104676 1.04425e-20
0.000155224 -4.45141e-05 2.16219e-20
0.000155168 4.45693e-05 -4.62871e-20
-8.54789e-05 -5.14844e-05 -1.47898e-20
-8.6301e-05 4.39814e-05 1.13134e-19
4.88686e-06 9.74178e-05 1.62084e-20
1.81415e-06 -9.73854e-05 7.96235e-20
-8.5427e-06 -9.76408e-05 -8.74242e-21
1.44456e-05 9.4235e-05 9.50694e-21
0.000103926 -1.20978e-05 -5.87938e-20
8.10925e-05 3.54275e-05 -8.0987e-20
-1.68685e-05 5.35757e-05 7.06359e-20
2.24142e-05 -5.22652e-05 5.84774e-20
-0.000146862 0.000101753 1.38861e-20
-0.000129364 -7.27365e-05 5.20317e-21
0.000247988 -0.000116227 6.65796e-22
0.000140122 0.000191445 2.73284e-20
0.000155224 -4.45141e-05 2.96114e-20
0.000155168 4.45693e-05 -5.67486e-20
8.61947e-05 -3.78695e-05 4.07314e-20
8.59828e-05 3.73997e-05 2.40472e-20
-6.69984e-05 3.22409e-05 1.08513e-19
-6.79933e-05 -3.22006e-05 6.21387e-20
0.000103885 3.66616e-05 -8.4831e-20
0.000103554 -3.7641e-05 -4.55937e-20
2.99632e-05 0.000158685 1.02874e-20
-2.46476e-05 -0.000157668 -5.08213e-20
-6.45528e-05 1.52649e-05 1.18991e-19
-6.58957e-05 -1.62869e-05 3.03717e-20
5.18334e-07 -0.000226369 5.94363e-20
2.66099e-05 0.000229588 2.09242e-20
0.000241672 1.99622e-06 -1.96128e-20
-0.000224398 -3.0265e-05 6.91158e-20
0.00011289 -6.84378e-05 -7.63424e-20
0.000112642 6.85516e-05 -1.41318e-19
-8.42924e-05 4.99018e-05 1.44608e-19
-0.000111495 -1.4893e-05 -3.18859e-20
-0.00011202 1.45615e-05 7.97425e-20
-8.77284e-05 -5.33352e-05 1.20323e-19
8.15437e-05 -0.000112013 2.24937e-20
8.20414e-05 0.000113808 7.70389e-21
0.000125644 -5.55515e-05 1.12824e-20
-7.22211e-05 0.000108735 7.44087e-20
-1.83974e-05 -0.000100897 4.82961e-20
0.000128015 5.46623e-05 7.99695e-21
-7.37107e-05 6.05065e-05 3.54687e-20
8.04649e-05 -6.03967e-05 3.06096e-20
2.32225e-05 -0.000206502 3.99307e-20
-1.68316e-05 0.00020642 1.53759e-21
0.000124612 -0.000105249 -3.26781e-20
0.000124657 0.00010545 -1.16265e-19
5.47802e-05 1.88731e-05 -7.60089e-20
-1.42963e-05 0.000119963 9.47064e-20
-9.55841e-06 -0.000114516 5.5005e-21
2.50535e-05 6.69724e-05 3.78024e-21
-1.76911e-05 -6.84347e-05 6.50716e-20
-3.46792e-06 9.27328e-05 4.4381e-20
1.01115e-05 -9.06973e-05 7.03502e-20
-0.000129364 -7.27365e-05 8.89723e-20
-8.5427e-06 -9.76408e-05 5.15104e-20
1.44456e-05 9.4235e-05 3.91938e-21
-5.93933e-05 -4.04449e-05 7.87677e-20
-0.000146862 0.000101753 5.62103e-20
1.71983e-05 2.40417e-05 3.95102e-20
-9.55841e-06 -0.000114516 5.44826e-20
-6.69984e-05 3.22409e-05 1.60872e-19
0.000156163 -4.42219e-05 -3.58722e-20
0.000156171 4.42569e-05 -7.71663e-20
0.000128015 5.46623e-05 -5.88183e-20
9.07873e-05 5.49257e-05 -5.82947e-20
9.12822e-05 -5.49482e-05 -7.57158e-20
0.000197291 -5.55589e-05 5.93099e-20
0.000155224 -4.45141e-05 -2.07979e-20
0.000197283 5.561e-05 -1.02704e-19
0.000155168 4.45693e-05 -1.80822e-19
-1.68685e-05 5.35757e-05 1.07538e-19
8.61947e-05 -3.78695e-05 -4.87397e-21
8.59828e-05 3.73997e-05 -1.1619e-20
-0.000105344 -0.000200107 -4.42504e-20
0.000111736 0.00020224 6.56236e-21
-3.24922e-06 -1.717e-05 1.25293e-19
0.000125644 -5.55515e-05 2.02467e-20
0.000103926 -1.20978e-05 -8.80888e-20
-6.95536e-05 2.02989e-05 1.13487e-19
-5.93933e-05 -4.04449e-05 3.75839e-20
-0.000230394 -4.3429e-06 -4.02665e-21
-0.000230627 3.71193e-06 4.5809e-21
-1.59828e-05 5.91464e-05 1.01808e-19
-8.77284e-05 -5.33352e-05 8.12801e-20
5.85597e-05 4.79998e-05 3.73313e-20
5.18334e-07 -0.000226369 4.50977e-21
2.66099e-05 0.000229588 5.7543e-21
0.000241672 1.99622e-06 7.89822e-21
-0.000224398 -3.0265e-05 3.88109e-20
5.8348e-05 -4.85023e-05 4.91881e-20
-8.11262e-05 4.83955e-05 1.89294e-19
5.4376e-05 -4.52195e-05 -5.88575e-20
5.36438e-05 4.42707e-05 -4.95768e-20
-0.000326035 0.000265588 8.52418e-21
-8.5427e-06 -9.76408e-05 3.29637e-20
-1.41513e-05 -0.000211 -1.55963e-20
0.000226295 1.6436e-05 -1.05136e-20
-1.68685e-05 5.35757e-05 8.64238e-20
-3.46792e-06 9.27328e-05 -1.35655e-20
-6.95536e-05 2.02989e-05 1.38239e-19
1.44456e-05 9.4235e-05 1.84713e-20
-0.000129364 -7.27365e-05 8.95903e-20
0.00011289 -6.84378e-05 3.68874e-20
0.000112642 6.85516e-05 -1.15871e-20
7.36528e-05 -3.0942e-05 -1.71832e-20
7.42139e-05 3.11284e-05 2.33655e-20
1.01115e-05 -9.06973e-05 3.06892e-20
-8.77284e-05 -5.33352e-05 -1.47346e-20
-3.24922e-06 -1.717e-05 5.11058e-20
-6.58957e-05 -1.62869e-05 -3.04992e-20
-6.45528e-05 1.52649e-05 1.35493e-19
-6.69984e-05 3.22409e-05 2.16416e-19
0.000335943 -0.000258609 2.97994e-20
5.18334e-07 -0.000226369 2.07501e-20
8.82688e-06 0.000208382 -1.51582e-20
0.000241672 1.99622e-06 -1.88992e-20
8.15437e-05 -0.000112013 1.88557e-20
8.20414e-05 0.000113808 1.63114e-20
8.59828e-05 3.73997e-05 -2.49349e-20
-0.000146862 0.000101753 1.10519e-19
8.61947e-05 -3.78695e-05 1.28635e-20
9.59243e-05 -1.93445e-05 1.86975e-20
9.60528e-05 1.9229e-05 -3.98988e-20
0.000125644 -5.55515e-05 7.02643e-21
0.000128015 5.46623e-05 -1.60417e-20
-0.000265613 0.000328755 6.41796e-21
-0.000326035 0.000265588 1.36722e-20
-6.58957e-05 -1.62869e-05 5.96667e-20
-6.45528e-05 1.52649e-05 1.11002e-19
-2.46476e-05 -0.000157668 -8.77235e-20
2.99632e-05 0.000158685 1.63274e-20
-7.18815e-05 0.000116087 -9.89624e-20
-7.85998e-05 -7.45867e-05 9.87649e-20
6.95441e-05 -7.75699e-05 2.99321e-19
7.03169e-05 7.81972e-05 6.56236e-21
9.55563e-05 -3.17243e-05 2.06866e-19
9.57854e-05 3.34856e-05 -4.29421e-20
-1.96073e-05 -0.000105549 -8.14775e-21
0.000105185 -2.55863e-05 5.3497e-21
-0.000147777 -3.33812e-05 -1.53366e-20
-1.7835e-05 0.000106533 1.27658e-19
0.00017549 -6.66338e-05 6.81787e-20
0.000173535 6.77789e-05 -4.52252e-20
-8.72499e-05 -4.38281e-05 4.13175e-20
-8.64052e-05 5.05466e-05 -2.38412e-20
2.33903e-06 9.94747e-05 -3.9455e-20
9.31044e-07 -9.96873e-05 6.74013e-20
9.63544e-06 -9.58769e-05 2.06612e-19
1.07569e-05 9.6884e-05 7.26682e-20
8.60786e-05 -1.51952e-05 1.83477e-19
5.51241e-05 5.01475e-05 -2.31493e-21
-1.856e-05 -5.48805e-05 8.04794e-20
-1.75421e-05 5.58467e-05 -7.8526e-23
-0.000118143 0.000193167 2.19468e-20
-0.000132598 -7.17101e-05 2.69469e-19
0.000235462 -0.000111872 1.5168e-19
0.000231268 0.000125597 7.12024e-20
0.00017549 -6.66338e-05 8.00674e-20
0.000173535 6.77789e-05 4.08503e-20
7.93119e-05 -4.28879e-05 2.85799e-19
7.98368e-05 4.38799e-05 1.33074e-20
-6.82901e-05 -3.20128e-05 1.12548e-19
-6.9636e-05 3.23884e-05 -2.31276e-20
9.3233e-05 4.35929e-05 -2.14392e-21
9.20455e-05 -4.42104e-05 2.61051e-19
2.87714e-05 0.000162276 1.02407e-20
2.76327e-05 -0.000162259 7.82601e-20
-6.58282e-05 -1.52876e-05 -1.09734e-19
-7.02351e-05 1.71153e-05 7.87358e-20
-2.98432e-06 -0.000221784 2.9602e-19
-2.21996e-05 0.00022626 -1.97079e-20
0.000223546 -1.63035e-05 5.96662e-20
-0.000197143 1.80323e-06 -2.16378e-20
0.000111035 -0.00010497 2.04876e-19
0.000109977 0.00010528 -1.44132e-19
-0.000103548 -6.23226e-05 5.99831e-20
-0.000112882 -1.46078e-05 9.55901e-21
-0.000112257 1.86228e-05 5.01629e-20
-8.69447e-05 5.09656e-05 -5.85645e-20
7.43239e-05 -0.000114409 1.86262e-19
-7.0277e-05 0.00011489 6.45131e-20
0.000111081 -5.96724e-05 1.53992e-19
-2.09208e-05 -0.000102096 1.41481e-19
6.89333e-05 0.000107398 1.2257e-19
0.000113791 5.9748e-05 6.09972e-20
-7.7686e-05 6.30502e-05 5.6583e-20
-7.82698e-05 -6.35965e-05 1.68322e-19
-2.03345e-05 -0.000211189 -2.32784e-20
-1.94369e-05 0.000211455 1.13578e-20
0.000153113 -0.000153146 -3.89878e-20
0.000151778 0.000152908 -9.58957e-20
1.02568e-05 -3.01055e-05 8.67254e-20
-1.60758e-05 -0.000119563 5.60521e-20
-1.22758e-05 0.000113978 8.52982e-20
2.35033e-05 -6.83225e-05 2.05145e-19
2.38122e-05 6.84143e-05 1.4021e-20
-0.000132598 -7.17101e-05 1.38762e-19
-5.36504e-06 9.40225e-05 1.38904e-20
-6.1033e-06 -9.30885e-05 1.20021e-19
9.63544e-06 -9.58769e-05 1.1407e-19
1.07569e-05 9.6884e-05 6.11363e-20
1.55173e-05 2.67597e-05 8.29685e-20
1.27326e-05 -2.7146e-05 2.60777e-19
-1.22758e-05 0.000113978 2.00477e-19
-6.82901e-05 -3.20128e-05 6.59423e-21
0.0001734 -6.72847e-05 1.19673e-19
0.000171446 6.84296e-05 -5.19384e-20
0.000113791 5.9748e-05 7.29815e-20
7.45643e-05 8.3201e-05 -5.15178e-20
7.52336e-05 -8.26187e-05 2.29811e-19
0.000227083 -7.30824e-05 -4.81729e-20
0.00017549 -6.66338e-05 9.39057e-20
0.000223715 7.27298e-05 -1.84278e-20
0.000173535 6.77789e-05 3.67599e-20
-0.000143576 0.000107452 1.15681e-20
-1.856e-05 -5.48805e-05 1.50576e-19
-1.75421e-05 5.58467e-05 8.95581e-21
7.93119e-05 -4.28879e-05 3.25033e-19
7.98368e-05 4.38799e-05 -1.8982e-20
0.000109631 -0.000205526 2.61491e-19
0.000111918 0.000206342 7.81178e-20
0.000111081 -5.96724e-05 1.85141e-19
8.60786e-05 -1.51952e-05 6.95336e-20
-7.05153e-05 -2.08763e-05 -1.73224e-20
-0.000232061 -3.20209e-06 -9.54433e-20
-0.000231462 4.31599e-06 -1.77373e-19
-1.77119e-05 -6.02152e-05 -4.18962e-20
-1.58317e-05 6.45909e-05 2.35419e-21
-8.69447e-05 5.09656e-05 -3.79726e-20
5.37401e-05 5.39172e-05 5.71777e-20
5.26757e-05 -5.31796e-05 2.65248e-19
-2.98432e-06 -0.000221784 6.66963e-21
-2.21996e-05 0.00022626 1.25502e-19
-0.000197143 1.80323e-06 1.59643e-19
0.000223546 -1.63035e-05 7.15071e-20
-8.21602e-05 -4.82416e-05 -2.68208e-20
1.89173e-05 -6.94927e-05 2.39219e-19
1.83752e-05 6.85237e-05 -2.11228e-20
0.000323645 0.000262159 2.8354e-19
1.07569e-05 9.6884e-05 7.46178e-20
-1.60517e-05 -0.000208164 1.96865e-19
-0.000197143 1.80323e-06 -4.54153e-20
-1.75421e-05 5.58467e-05 -2.21932e-21
-1.856e-05 -5.48805e-05 3.43127e-19
-6.1033e-06 -9.30885e-05 1.58516e-20
-7.05153e-05 -2.08763e-05 9.63129e-22
9.63544e-06 -9.58769e-05 6.75595e-20
0.000111035 -0.00010497 1.32307e-19
0.000109977 0.00010528 -6.72824e-20
7.26377e-05 -2.80296e-05 2.31043e-20
7.11566e-05 3.17608e-05 2.78015e-19
-0.000132598 -7.17101e-05 -2.27358e-20
-5.36504e-06 9.40225e-05 -9.90782e-20
-8.69447e-05 5.09656e-05 -1.20671e-19
-6.58282e-05 -1.52876e-05 -7.15702e-21
-7.02351e-05 1.71153e-05 -2.31276e-20
-6.82901e-05 -3.20128e-05 5.75259e-20
0.000307327 -0.000251394 3.23142e-19
-5.37375e-06 0.000204559 9.81341e-20
-2.98432e-06 -0.000221784 -9.35054e-20
0.000212267 -6.61265e-06 5.53661e-20
7.43239e-05 -0.000114409 1.77037e-19
-7.0277e-05 0.00011489 -1.00305e-20
7.98368e-05 4.38799e-05 -2.04092e-20
7.93119e-05 -4.28879e-05 3.27505e-19
9.84836e-05 7.48193e-05 9.1199e-20
9.55563e-05 -3.17243e-05 2.43246e-19
9.57854e-05 3.34856e-05 -6.74332e-20
0.000111081 -5.96724e-05 2.61538e-19
0.000113791 5.9748e-05 1.01611e-20
0.000261898 0.000322213 7.95699e-20
0.000323645 0.000262159 5.41694e-20
-6.58282e-05 -1.52876e-05 4.30611e-20
-7.02351e-05 1.71153e-05 1.17065e-19
2.87714e-05 0.000162276 -2.82798e-20
2.76327e-05 -0.000162259 3.12275e-20
-7.36825e-05 0.000107489 2.28586e-19
-8.24088e-05 -5.39747e-05 2.72056e-19
7.02506e-05 -7.65777e-05 9.90494e-20
6.96043e-05 7.77613e-05 -3.89917e-21
9.58428e-05 -3.28797e-05 4.29188e-20
9.57029e-05 3.30052e-05 2.30639e-21
1.88707e-05 -0.000107104 1.02006e-19
0.000101776 -2.53568e-05 1.29073e-19
-0.000131913 -1.87405e-05 2.20965e-19
-1.94928e-05 0.000105238 1.40066e-19
0.000174716 -6.75792e-05 6.03081e-20
0.00017454 6.77776e-05 1.03076e-19
-8.72283e-05 4.38948e-05 4.29931e-19
-8.67196e-05 -5.12841e-05 2.13936e-19
8.91839e-07 9.93282e-05 4.9377e-21
-1.84697e-06 -9.97382e-05 1.32244e-19
-1.1088e-05 -9.84116e-05 9.73855e-20
9.66106e-06 9.55577e-05 4.78449e-20
8.59065e-05 -1.6046e-05 8.46716e-20
5.4313e-05 5.01343e-05 7.5066e-20
-1.83891e-05 5.46753e-05 2.4055e-19
1.75495e-05 -5.50054e-05 2.15473e-19
-0.000146692 0.000100659 2.51133e-20
-0.000131298 -7.19348e-05 6.21111e-20
0.000135104 -0.000193702 4.11391e-20
0.000234093 0.000115255 1.87275e-19
0.000174716 -6.75792e-05 4.77057e-20
0.00017454 6.77776e-05 5.88979e-20
7.94966e-05 -4.33029e-05 1.40938e-19
7.93501e-05 4.33847e-05 2.85177e-20
-6.8085e-05 3.23728e-05 4.38159e-19
-6.92565e-05 -3.21465e-05 3.14349e-19
9.21898e-05 4.40856e-05 -2.24023e-20
9.27621e-05 -4.37757e-05 1.2935e-19
2.73254e-05 0.000162102 1.14846e-19
-2.79228e-05 -0.000161916 6.62291e-20
-6.54655e-05 1.53425e-05 3.43302e-19
-6.68892e-05 -1.60426e-05 3.0754e-19
-3.05807e-06 -0.000212235 1.00163e-19
9.05133e-06 0.000222364 1.563e-19
0.000226159 -1.36348e-06 -1.14884e-20
-0.000223669 -2.84412e-05 -3.5928e-20
0.00011059 -0.000105515 5.58375e-20
0.000110154 0.000105909 7.39404e-20
-8.51975e-05 4.97844e-05 2.69797e-19
-0.00011268 1.46437e-05 2.2825e-19
-0.000112573 -1.46467e-05 3.39188e-19
-8.88679e-05 -5.30517e-05 2.20022e-19
7.42295e-05 -0.000113517 1.43272e-19
7.32493e-05 0.000114129 1.17529e-19
0.000112754 5.95359e-05 1.60899e-19
-7.36825e-05 0.000107489 1.75966e-19
-2.19503e-05 -0.000101251 2.48043e-20
0.000112836 -5.94443e-05 1.94469e-19
-7.90017e-05 6.26065e-05 1.26023e-20
7.79629e-05 -6.35247e-05 1.69709e-19
2.01406e-05 -0.000210948 2.83032e-20
-2.07815e-05 0.000211175 -7.35602e-20
0.000152715 -0.000153526 3.28203e-20
0.000152768 0.000153944 9.9969e-20
1.0728e-05 3.02377e-05 5.93014e-20
-1.60477e-05 0.000119423 2.94177e-19
-1.22931e-05 -0.000113874 1.29604e-19
2.34024e-05 6.80303e-05 1.36729e-19
-2.23101e-05 -7.1076e-05 1.66871e-19
-6.20218e-06 9.2974e-05 9.47021e-20
5.55778e-06 -9.26378e-05 1.30697e-19
-0.000131298 -7.19348e-05 4.7916e-20
-1.1088e-05 -9.84116e-05 5.96741e-20
9.66106e-06 9.55577e-05 7.11349e-21
-6.06263e-05 -4.10762e-05 3.09205e-19
-0.000146692 0.000100659 1.08691e-19
1.4593e-05 2.6396e-05 4.81729e-20
-1.22931e-05 -0.000113874 2.51345e-19
-6.8085e-05 3.23728e-05 5.29369e-19
0.000172655 -6.82211e-05 1.39543e-19
0.000172437 6.84325e-05 1.74956e-19
0.000112836 -5.94443e-05 1.77254e-19
7.41846e-05 8.35149e-05 3.13784e-20
7.49399e-05 -8.32533e-05 1.0784e-19
0.00022558 -7.30961e-05 5.70906e-20
0.000174716 -6.75792e-05 5.44593e-20
0.000225426 7.31948e-05 4.55501e-20
0.00017454 6.77776e-05 2.49901e-20
-1.83891e-05 5.46753e-05 3.213e-19
7.94966e-05 -4.33029e-05 9.46193e-20
7.93501e-05 4.33847e-05 -6.0221e-20
0.000109421 0.000205404 -4.01048e-20
-0.000110335 -0.000205477 -5.62899e-20
-8.04895e-06 -1.99996e-05 2.38427e-19
0.000112754 5.95359e-05 3.41881e-20
8.59065e-05 -1.6046e-05 1.96665e-19
-7.03258e-05 2.0506e-05 3.0546e-19
-6.06263e-05 -4.10762e-05 1.5037e-19
-0.000231599 3.21223e-06 2.25769e-19
-0.000231684 -3.76607e-06 1.04733e-19
-1.76328e-05 5.9433e-05 2.29668e-19
-8.88679e-05 -5.30517e-05 3.33774e-19
5.28977e-05 5.36048e-05 5.88894e-20
-3.05807e-06 -0.000212235 1.1569e-19
9.05133e-06 0.000222364 4.60078e-20
-0.000223669 -2.84412e-05 5.93253e-20
0.000226159 -1.36348e-06 4.04181e-20
5.28771e-05 -5.34715e-05 1.83405e-19
-8.19849e-05 4.83673e-05 2.69741e-19
1.86042e-05 -7.00461e-05 3.57533e-20
1.74118e-05 6.80918e-05 1.40399e-19
-0.000323801 0.000263964 -2.14478e-19
-1.1088e-05 -9.84116e-05 4.80466e-20
-6.11616e-06 -0.000208382 7.81699e-21
0.000212611 -1.39443e-05 6.46532e-20
-1.83891e-05 5.46753e-05 2.52439e-19
-6.20218e-06 9.2974e-05 2.16539e-19
-7.03258e-05 2.0506e-05 2.94189e-19
9.66106e-06 9.55577e-05 8.08829e-21
-0.000131298 -7.19348e-05 1.68944e-19
0.00011059 -0.000105515 1.0287e-19
0.000110154 0.000105909 1.34811e-19
7.36101e-05 2.96785e-05 1.11263e-19
7.22293e-05 -2.93868e-05 9.6125e-20
5.55778e-06 -9.26378e-05 2.08522e-19
-8.88679e-05 -5.30517e-05 2.48604e-19
-8.04895e-06 -1.99996e-05 1.5625e-19
-6.54655e-05 1.53425e-05 3.02309e-19
-6.68892e-05 -1.60426e-05 3.90952e-19
-6.8085e-05 3.23728e-05 4.20944e-19
0.000318571 0.000252529 1.85266e-19
-3.05807e-06 -0.000212235 8.79178e-20
2.03042e-06 0.000215489 9.6537e-20
0.000226159 -1.36348e-06 6.2246e-20
7.42295e-05 -0.000113517 1.6812e-19
7.32493e-05 0.000114129 1.6545e-20
7.93501e-05 4.33847e-05 7.92582e-21
-0.000146692 0.000100659 2.35402e-19
7.94966e-05 -4.33029e-05 1.89207e-19
9.58428e-05 -3.28797e-05 1.24904e-19
9.57029e-05 3.30052e-05 1.59279e-21
0.000112754 5.95359e-05 -3.89283e-20
0.000112836 -5.94443e-05 2.0574e-19
-0.000263886 0.000327845 2.68054e-20
-0.000323801 0.000263964 1.2452e-19
-6.54655e-05 1.53425e-05 2.09671e-19
-6.68892e-05 -1.60426e-05 3.71074e-19
-2.79228e-05 -0.000161916 2.64725e-20
2.73254e-05 0.000162102 -2.21613e-20
-7.19927e-05 0.000116094 -1.03936e-19
-7.85843e-05 -7.49321e-05 1.6963e-19
7.04784e-05 -7.68191e-05 1.96515e-19
6.97505e-05 7.7755e-05 -1.4815e-19
9.58139e-05 -3.33964e-05 8.5742e-20
9.55167e-05 3.17535e-05 -1.07547e-19
1.95041e-05 -0.000106899 9.89624e-20
0.000105191 -2.61406e-05 3.26462e-20
-0.000147819 -3.34554e-05 8.32891e-20
-1.81065e-05 0.000106658 -5.64396e-20
0.00017366 -6.76005e-05 -1.0704e-21
0.000175465 6.67824e-05 -7.75783e-20
-8.73165e-05 -4.37973e-05 9.27887e-20
-8.63735e-05 5.05505e-05 -1.07959e-19
1.85982e-06 9.9737e-05 -8.56316e-20
-1.24678e-06 -9.94045e-05 1.22716e-19
-1.02591e-05 -9.75813e-05 1.3598e-19
1.00711e-05 9.68113e-05 -6.03197e-20
8.61768e-05 -1.58003e-05 8.0987e-20
5.50354e-05 4.94972e-05 -4.6406e-20
-1.76663e-05 5.61107e-05 -6.46192e-20
1.82315e-05 -5.50244e-05 1.80567e-19
-0.000118253 0.000193094 -5.41418e-20
-0.000132746 -7.18759e-05 6.03792e-20
0.000235485 -0.000112052 1.16873e-19
0.000231118 0.000125312 1.20156e-20
0.00017366 -6.76005e-05 -1.10095e-20
0.000175465 6.67824e-05 -3.106e-19
7.97241e-05 -4.37858e-05 1.23422e-19
7.94225e-05 4.2948e-05 -2.01246e-19
-6.82862e-05 -3.20252e-05 2.00231e-19
-6.96179e-05 3.23728e-05 -4.25597e-21
9.29952e-05 4.29541e-05 -1.28482e-19
9.24057e-05 -4.47283e-05 8.31426e-20
2.77616e-05 0.000162346 1.17605e-19
-2.70495e-05 -0.000162013 1.33987e-19
-6.59952e-05 -1.55548e-05 4.46624e-20
-7.01922e-05 1.72892e-05 -1.15139e-19
-2.69385e-06 -0.000222223 8.8881e-20
-2.23539e-05 0.000226087 1.07732e-20
0.000223486 -1.6557e-05 -2.01713e-20
-0.000197211 1.75936e-06 6.48831e-20
0.000110357 -0.000105019 9.05141e-21
0.000110738 0.000105205 -1.23599e-21
-0.000103529 -6.2434e-05 5.80133e-20
-0.000114026 -1.21475e-05 -1.02089e-20
-0.000112041 1.87905e-05 -2.96985e-20
-8.69392e-05 5.09897e-05 -2.9278e-20
7.44971e-05 -0.000112683 1.82212e-19
-7.04356e-05 0.000114933 1.40645e-20
0.000111108 -5.98916e-05 1.27817e-19
-2.14439e-05 -0.000101963 1.56005e-19
6.84949e-05 0.000107033 -2.81634e-19
0.000113666 5.91986e-05 -6.37517e-20
-7.81359e-05 6.34888e-05 -1.92465e-19
7.99417e-05 -6.20411e-05 5.95626e-20
-2.01777e-05 0.000211247 -5.93885e-20
2.14581e-05 -0.000211497 6.47529e-21
0.000151706 -0.000152518 3.28972e-21
0.000153242 0.000153531 -1.48626e-19
1.05277e-05 -3.07881e-05 -4.80944e-20
-1.6072e-05 -0.000119554 1.41866e-21
-1.22719e-05 0.000113926 -2.18224e-19
2.3729e-05 6.86912e-05 -7.12539e-20
-2.15026e-05 -7.1045e-05 1.84919e-19
-0.000132746 -7.18759e-05 1.37134e-19
-5.66259e-06 9.41741e-05 -4.86094e-20
6.20517e-06 -9.24494e-05 2.05376e-19
-1.02591e-05 -9.75813e-05 1.78661e-19
1.00711e-05 9.68113e-05 3.71921e-20
-6.16522e-05 -4.18977e-05 8.75218e-20
1.26567e-05 2.71335e-05 -2.54833e-19
-1.22719e-05 0.000113926 -1.19546e-19
-6.82862e-05 -3.20252e-05 1.86393e-19
0.000171588 -6.8246e-05 5.0868e-20
0.000173389 6.7429e-05 -2.97989e-19
0.000113666 5.91986e-05 -1.45084e-20
7.46514e-05 8.27046e-05 -1.06389e-19
7.52197e-05 -8.30826e-05 1.2198e-19
0.000223807 -7.26319e-05 3.84568e-20
0.00017366 -6.76005e-05 1.68583e-20
0.00022713 7.31939e-05 -7.47006e-20
0.000175465 6.67824e-05 -5.57505e-20
-0.000143664 0.000107456 -3.50365e-20
-1.76663e-05 5.61107e-05 -3.88922e-20
7.97241e-05 -4.37858e-05 1.36737e-19
7.94225e-05 4.2948e-05 -4.43608e-20
0.000109773 0.000205629 -1.28011e-19
-0.000109745 -0.000205654 2.5228e-20
-7.22826e-06 -2.02089e-05 1.80242e-19
0.000111108 -5.98916e-05 1.55946e-19
8.61768e-05 -1.58003e-05 4.51296e-20
-7.05136e-05 -2.09037e-05 1.52015e-19
-6.16522e-05 -4.18977e-05 2.15469e-19
-0.000231388 -3.62541e-06 -7.34732e-20
-0.000231573 4.07962e-06 -1.03274e-19
-1.59685e-05 6.47912e-05 -1.44988e-19
-8.69392e-05 5.09897e-05 -8.35864e-20
5.29407e-05 5.31326e-05 -1.29818e-19
-2.69385e-06 -0.000222223 1.04669e-19
-2.23539e-05 0.000226087 2.81189e-20
-0.000197211 1.75936e-06 -5.70067e-21
0.000223486 -1.6557e-05 8.16921e-20
5.3213e-05 -5.39091e-05 1.79807e-19
-8.20785e-05 -4.8317e-05 5.8573e-21
1.95182e-05 -6.99395e-05 6.69979e-20
1.78407e-05 6.8031e-05 3.27185e-20
0.000323567 0.000261986 5.52413e-20
1.00711e-05 9.68113e-05 -1.14271e-19
-1.02591e-05 -9.75813e-05 1.39618e-19
-1.59148e-05 -0.000208352 1.3853e-19
-0.000197211 1.75936e-06 -1.04104e-19
-1.76663e-05 5.61107e-05 -1.42896e-19
-7.05136e-05 -2.09037e-05 1.00726e-19
0.000110357 -0.000105019 6.72591e-20
0.000110738 0.000105205 -5.43085e-20
7.38819e-05 2.83174e-05 9.66878e-20
7.1107e-05 -3.17307e-05 -3.84532e-19
-0.000132746 -7.18759e-05 1.71825e-19
-5.66259e-06 9.41741e-05 -9.49283e-20
6.20517e-06 -9.24494e-05 8.5845e-20
-8.69392e-05 5.09897e-05 -9.47616e-20
-7.22826e-06 -2.02089e-05 1.80956e-19
-6.59952e-05 -1.55548e-05 4.92752e-20
-7.01922e-05 1.72892e-05 -5.10825e-20
-6.82862e-05 -3.20252e-05 7.7967e-20
0.000307338 -0.000251574 -1.38346e-20
-5.59735e-06 0.000204476 -1.25792e-19
-2.69385e-06 -0.000222223 2.65192e-19
0.000212345 -6.98495e-06 2.76735e-20
-7.04356e-05 0.000114933 -8.18545e-20
7.44971e-05 -0.000112683 2.24798e-19
7.94225e-05 4.2948e-05 -9.13933e-20
9.81843e-05 7.43024e-05 -1.29299e-19
7.97241e-05 -4.37858e-05 8.77554e-20
9.58139e-05 -3.33964e-05 1.10947e-19
9.55167e-05 3.17535e-05 -1.84205e-19
0.000111108 -5.98916e-05 1.17521e-19
0.000113666 5.91986e-05 -1.14327e-19
0.000261726 0.000322013 -2.00037e-19
0.000323567 0.000261986 4.94753e-20
-6.59952e-05 -1.55548e-05 -2.34844e-20
-7.01922e-05 1.72892e-05 -4.57561e-20
-2.70495e-05 -0.000162013 4.98613e-20
2.77616e-05 0.000162346 -7.4947e-20
-7.36785e-05 0.00010747 -8.85518e-20
-7.92455e-05 -5.7337e-05 7.00622e-21
7.47716e-05 -9.54261e-05 -3.55091e-21
7.01651e-05 7.57991e-05 4.35368e-20
9.42019e-05 2.98588e-05 -9.91046e-20
8.45756e-05 -6.085e-05 -1.0177e-20
-1.19226e-05 -0.000111437 -1.28752e-20
0.000103038 1.99186e-05 -1.11715e-19
-0.000129964 -2.056e-05 -2.81216e-20
-1.89792e-05 0.000105128 -1.05529e-19
0.000171243 6.43042e-05 -2.43246e-19
0.000134051 -8.10123e-05 6.16078e-20
-8.30926e-05 -5.33867e-05 3.16225e-21
-8.65384e-05 4.36889e-05 -6.32962e-20
1.66945e-06 9.88549e-05 1.58359e-19
1.47388e-05 -0.000101616 -1.37831e-20
2.73307e-05 -0.000109346 -9.83125e-20
1.05031e-05 9.50364e-05 4.39849e-20
8.61693e-05 1.00215e-05 -9.46745e-20
5.01805e-05 -5.93163e-05 -1.74211e-20
-1.16569e-05 -5.65585e-05 2.34207e-20
-1.81274e-05 5.45156e-05 6.17369e-21
-0.000148224 0.000100495 -9.21897e-20
-0.00012906 -7.69347e-05 2.8026e-20
0.000246184 -0.000124669 -1.10228e-20
0.000134637 0.000189427 3.54167e-20
0.000171243 6.43042e-05 -2.60269e-19
0.000134051 -8.10123e-05 3.05544e-20
7.92108e-05 4.11564e-05 3.22109e-20
7.89394e-05 -6.92337e-05 -8.24927e-20
-6.68541e-05 3.13443e-05 2.07023e-20
-6.57797e-05 -3.43151e-05 1.44882e-20
9.3539e-05 3.93157e-05 -4.43608e-20
9.3477e-05 -5.60179e-05 -2.26009e-20
4.13044e-05 -0.000140795 2.11228e-20
2.76261e-05 0.000160652 1.25609e-19
-6.50048e-05 1.5318e-05 6.52543e-20
-6.43926e-05 -2.05693e-05 2.47523e-20
1.92847e-06 -0.000236034 -1.77896e-20
2.31305e-05 0.000227328 -2.22854e-19
0.000235155 -4.12371e-06 7.6457e-20
-0.00022582 -3.34623e-05 -1.12571e-19
0.000108002 0.000100599 -3.26539e-19
8.79707e-05 -0.000105463 1.17541e-19
-8.43417e-05 4.90174e-05 -6.58956e-20
-0.000107456 -1.98854e-05 7.15702e-20
-0.000111907 1.46228e-05 4.93389e-20
-8.57037e-05 -5.5294e-05 -3.85252e-21
8.15557e-05 -0.000128326 -1.32651e-19
7.69161e-05 0.000113387 -1.11933e-19
0.000115594 -7.26338e-05 -6.17267e-20
-7.36785e-05 0.00010747 -8.89086e-20
-1.34225e-05 -0.000107547 3.31538e-20
0.000114531 5.57233e-05 -8.50688e-20
-7.70193e-05 6.27368e-05 2.34098e-19
-2.80946e-05 -7.77107e-05 -9.23363e-20
-1.97404e-05 0.000208967 2.46875e-19
8.85474e-06 -0.000173899 -1.18654e-20
0.000149267 0.000148901 -6.07693e-19
0.000123535 -0.00014192 4.77211e-21
9.4113e-06 -3.52555e-05 -7.09841e-20
-1.39473e-05 0.000119453 -4.63508e-20
-8.36099e-06 -0.000114287 8.51474e-20
2.97485e-05 -6.90808e-05 4.50192e-20
2.35414e-05 6.78324e-05 1.30436e-19
3.13917e-06 -9.57781e-05 -2.07299e-20
-5.74674e-06 9.29183e-05 -2.55646e-20
-0.00012906 -7.69347e-05 3.592e-20
2.73307e-05 -0.000109346 -1.96277e-19
1.05031e-05 9.50364e-05 -7.0124e-20
-0.000148224 0.000100495 -1.63357e-19
1.32084e-05 2.64679e-05 -4.28784e-21
3.64423e-05 -5.94392e-05 -1.25554e-19
-8.36099e-06 -0.000114287 2.57037e-20
-6.68541e-05 3.13443e-05 1.29039e-20
0.000169683 6.47903e-05 -1.67672e-19
0.000129033 -8.25756e-05 -1.46233e-19
0.000114531 5.57233e-05 -6.98033e-20
7.33378e-05 7.89514e-05 -1.97965e-19
6.44366e-05 -9.08131e-05 6.24084e-20
0.00022192 7.11601e-05 -1.23572e-19
0.000171243 6.43042e-05 -2.67023e-19
0.000160874 -6.35366e-05 7.39722e-20
0.000134051 -8.10123e-05 -1.02362e-19
-1.16569e-05 -5.65585e-05 5.46653e-20
-1.81274e-05 5.45156e-05 4.00815e-20
7.92108e-05 4.11564e-05 5.77024e-21
7.89394e-05 -6.92337e-05 -4.53993e-20
0.000108739 0.000203476 9.48805e-20
0.000105848 -0.000176027 2.77489e-20
0.000115594 -7.26338e-05 -4.06124e-20
8.61693e-05 1.00215e-05 -1.89453e-19
-6.91549e-05 1.93942e-05 -2.29535e-20
-0.000223643 -5.99491e-06 3.54602e-20
-0.000230495 3.39788e-06 1.20799e-19
-1.73623e-05 5.93292e-05 -1.93474e-20
-1.01576e-05 -6.40544e-05 2.41343e-20
-8.57037e-05 -5.5294e-05 8.24142e-20
5.32004e-05 5.12103e-05 9.69576e-20
6.13554e-05 -7.60285e-05 -1.33242e-19
1.92847e-06 -0.000236034 8.50486e-20
2.31305e-05 0.000227328 -1.25829e-19
-0.00022582 -3.34623e-05 -4.97509e-20
0.000235155 -4.12371e-06 -1.00472e-19
-8.1393e-05 4.8078e-05 -4.55758e-21
1.56474e-05 6.43325e-05 -2.07547e-19
1.34712e-05 -7.17608e-05 5.10506e-20
-0.000328319 0.000264936 4.3523e-20
-1.4317e-05 -0.000219127 7.77313e-20
0.000219015 1.08619e-05 4.14147e-20
-1.81274e-05 5.45156e-05 5.39198e-20
-1.16569e-05 -5.65585e-05 -1.36727e-20
-5.74674e-06 9.29183e-05 -4.8724e-20
3.13917e-06 -9.57781e-05 -3.04078e-20
-6.91549e-05 1.93942e-05 8.49499e-20
2.73307e-05 -0.000109346 -1.66459e-19
1.05031e-05 9.50364e-05 -9.16907e-20
-0.00012906 -7.69347e-05 3.85832e-20
0.000108002 0.000100599 -3.06661e-19
8.79707e-05 -0.000105463 6.46596e-20
7.03942e-05 -3.16078e-05 -1.54246e-19
7.01978e-05 -2.49201e-05 -2.18287e-19
-8.57037e-05 -5.5294e-05 2.18745e-21
-6.43926e-05 -2.05693e-05 3.73546e-20
-6.50048e-05 1.5318e-05 1.02322e-20
-6.68541e-05 3.13443e-05 -8.18747e-20
0.000331426 -0.000262333 -1.63473e-19
1.92847e-06 -0.000236034 -1.25954e-19
5.33339e-06 0.000206103 -4.91446e-20
0.000235155 -4.12371e-06 -1.50786e-19
8.15557e-05 -0.000128326 -1.98492e-19
7.69161e-05 0.000113387 -1.19566e-19
7.92108e-05 4.11564e-05 2.03222e-20
7.89394e-05 -6.92337e-05 -1.16827e-20
-0.000148224 0.000100495 -1.65058e-20
9.42019e-05 2.98588e-05 -7.7468e-20
8.45756e-05 -6.085e-05 -7.03343e-20
0.000115594 -7.26338e-05 -7.15702e-21
0.000114531 5.57233e-05 -4.45987e-20
-0.000265421 0.000325339 9.86236e-20
-0.000328319 0.000264936 -5.15518e-20
-6.43926e-05 -2.05693e-05 1.01602e-19
-6.50048e-05 1.5318e-05 6.84399e-20
4.13044e-05 -0.000140795 1.04701e-20
2.76261e-05 0.000160652 4.44515e-19
1.0175e-05 -1.25148e-06 -8.76364e-20
1.15914e-05 -1.60191e-06 -5.79146e-20
5.13442e-06 -7.9877e-07 -9.66878e-20
1.15665e-05 1.59072e-06 3.2797e-20
1.58625e-05 -2.13062e-06 -1.04376e-19
1.58896e-05 2.11751e-06 2.26689e-19
1.33205e-05 -3.47029e-06 -8.75175e-20
9.37092e-06 -1.0711e-06 8.37287e-20
9.08302e-06 -9.19808e-07 4.30611e-20
1.65049e-05 1.53231e-06 -7.10712e-20
2.6903e-05 -8.45038e-06 -5.05834e-20
2.69216e-05 8.45154e-06 1.91307e-19
-4.3927e-06 -9.29639e-06 -6.38823e-20
-5.51973e-06 -3.30391e-06 -5.08765e-20
1.69407e-05 9.90994e-06 -1.03108e-19
1.85468e-05 -8.84523e-06 -3.52946e-20
2.1894e-05 2.36617e-06 2.94925e-20
1.24963e-05 3.19194e-06 -1.29018e-19
9.45412e-06 -1.11635e-06 -1.05153e-19
6.79315e-06 4.83778e-06 4.51615e-20
2.1127e-05 -1.64115e-05 -9.16545e-20
8.62358e-06 -3.97918e-06 4.22052e-20
1.031e-05 -1.29243e-06 -1.0142e-19
1.15453e-05 4.6229e-07 -2.75896e-20
1.06242e-05 7.40655e-07 4.75732e-22
1.22115e-05 1.72104e-07 3.59678e-20
2.6903e-05 -8.45038e-06 -4.38299e-20
2.69216e-05 8.45154e-06 1.15362e-19
1.2454e-05 -7.20565e-07 -1.31324e-19
1.24533e-05 6.89524e-07 5.62495e-20
8.42207e-06 1.06563e-05 2.57993e-20
9.1059e-06 -9.04106e-06 -5.40069e-20
1.12761e-05 -2.16564e-06 -7.75783e-20
1.12645e-05 2.13249e-06 2.3532e-19
3.66683e-05 4.72236e-05 -1.23874e-19
1.2382e-05 -4.46289e-05 -3.56747e-20
-2.29351e-06 -2.4401e-05 -3.20282e-20
-2.46825e-06 2.38725e-05 -1.06801e-19
1.28488e-05 -5.82474e-08 -7.57477e-20
1.27233e-05 -1.48017e-07 -4.2974e-20
1.04774e-05 -5.29267e-09 1.53122e-20
9.98582e-06 -1.16459e-08 5.8573e-21
1.6728e-05 -1.3946e-05 -9.75647e-21
1.67333e-05 1.39794e-05 2.18842e-19
4.43706e-06 1.06896e-06 -1.06761e-20
-3.5512e-05 -2.4893e-05 -5.37457e-20
-3.53835e-05 2.48784e-05 -1.21385e-19
5.8172e-06 -8.96333e-07 -2.45548e-20
1.23331e-05 -1.36887e-06 -1.1869e-19
1.23595e-05 1.35924e-06 -1.18397e-19
1.03775e-05 -1.43707e-06 -1.16186e-19
1.0175e-05 -1.25148e-06 -1.04138e-19
1.45946e-05 3.11484e-06 -1.65992e-19
1.03806e-05 1.47306e-06 1.57138e-19
-8.22653e-06 9.08094e-06 7.35369e-20
6.97714e-05 9.96923e-06 -6.96292e-20
1.74689e-05 6.68081e-05 8.48776e-20
3.73135e-05 -7.00651e-05 -1.13493e-20
2.30118e-05 -2.17609e-05 -1.35771e-20
2.30273e-05 2.17735e-05 1.35049e-19
1.0929e-06 3.43217e-06 1.86338e-20
3.50431e-05 6.48803e-05 3.37166e-20
3.8071e-05 -6.1323e-05 2.07746e-20
4.03771e-05 -1.02593e-05 -8.07491e-20
4.86715e-06 -5.49359e-06 9.8939e-20
2.25625e-05 -4.05752e-06 -1.71524e-19
1.31022e-05 -3.233e-06 5.83903e-20
1.06242e-05 7.40655e-07 -4.99336e-20
2.1894e-05 2.36617e-06 4.06676e-20
1.24963e-05 3.19194e-06 -9.31603e-20
4.37479e-06 2.14466e-05 -1.26386e-19
1.031e-05 -1.29243e-06 -3.52223e-20
6.81008e-06 2.86697e-07 -3.63394e-20
3.8071e-05 -6.1323e-05 -5.48394e-20
8.42207e-06 1.06563e-05 -4.37747e-20
2.73724e-05 -8.30418e-06 -1.57008e-20
2.73926e-05 8.30486e-06 1.73973e-19
1.03806e-05 1.47306e-06 1.7968e-19
1.05716e-05 -1.01026e-05 -1.0012e-19
1.05294e-05 1.01114e-05 2.14768e-19
3.54364e-05 -1.06988e-05 -8.10422e-20
2.6903e-05 -8.45038e-06 -5.57186e-20
3.54637e-05 1.07054e-05 -2.14159e-20
2.69216e-05 8.45154e-06 -1.91732e-20
2.1127e-05 -1.64115e-05 -1.10297e-19
1.2454e-05 -7.20565e-07 -6.31772e-20
1.24533e-05 6.89524e-07 2.76669e-19
8.78589e-05 7.91942e-05 -1.76137e-19
-1.99594e-05 -6.05513e-05 6.20556e-21
5.20693e-06 6.93315e-07 -6.61887e-20
1.03775e-05 -1.43707e-06 9.11088e-20
9.45412e-06 -1.11635e-06 7.35602e-20
1.89711e-05 6.7453e-06 -8.11611e-20
4.37479e-06 2.14466e-05 -3.88836e-20
-0.000128503 2.05093e-05 5.25012e-20
-0.000128417 -2.09201e-05 4.18888e-20
2.15031e-05 -1.40457e-05 -1.47707e-19
5.8172e-06 -8.96333e-07 -9.73144e-20
1.12623e-05 1.14985e-06 -8.79062e-20
1.28488e-05 -5.82474e-08 -9.75756e-20
1.27233e-05 -1.48017e-07 3.24487e-20
9.98582e-06 -1.16459e-08 5.02266e-20
1.04774e-05 -5.29267e-09 -5.60202e-20
1.12684e-05 -1.17324e-06 -1.04384e-19
-1.0656e-05 -7.68509e-06 -5.12333e-20
2.23572e-06 -8.59398e-06 -5.01629e-20
2.23734e-06 8.45151e-06 1.16027e-19
9.58235e-06 3.46564e-06 -6.03143e-21
2.1894e-05 2.36617e-06 -1.04852e-19
1.26751e-05 1.23823e-07 -3.87095e-20
1.0507e-05 -3.3056e-08 -5.70906e-20
2.1127e-05 -1.64115e-05 -6.66411e-20
2.25625e-05 -4.05752e-06 -1.89976e-19
1.89711e-05 6.7453e-06 4.20078e-21
1.24963e-05 3.19194e-06 -8.92611e-20
1.06242e-05 7.40655e-07 -6.69575e-20
1.6728e-05 -1.3946e-05 -8.732e-20
1.67333e-05 1.39794e-05 1.6187e-19
1.35803e-05 6.76126e-06 -1.15821e-19
1.34902e-05 -6.75557e-06 1.42467e-19
1.31022e-05 -3.233e-06 -5.5553e-20
5.8172e-06 -8.96333e-07 -7.86721e-20
5.20693e-06 6.93315e-07 1.06485e-19
-2.29351e-06 -2.4401e-05 -9.74793e-22
-2.46825e-06 2.38725e-05 -8.49732e-20
8.42207e-06 1.06563e-05 -1.7334e-20
9.76955e-06 3.33678e-06 -3.46681e-20
1.29156e-05 8.12934e-08 -1.8071e-20
1.28488e-05 -5.82474e-08 -1.47271e-19
1.04774e-05 -5.29267e-09 1.0177e-20
1.23331e-05 -1.36887e-06 -2.00866e-19
1.23595e-05 1.35924e-06 6.42158e-20
1.24533e-05 6.89524e-07 1.78705e-19
1.031e-05 -1.29243e-06 -1.34614e-19
1.2454e-05 -7.20565e-07 -6.0514e-20
1.58625e-05 -2.13062e-06 -9.07474e-21
1.58896e-05 2.11751e-06 2.48325e-19
1.03775e-05 -1.43707e-06 -1.1086e-19
1.03806e-05 1.47306e-06 1.42064e-19
1.36693e-05 1.09922e-07 -4.32671e-20
9.58235e-06 3.46564e-06 -4.91648e-20
-2.46825e-06 2.38725e-05 -2.06001e-19
-2.29351e-06 -2.4401e-05 -1.90341e-19
3.66683e-05 4.72236e-05 7.59537e-20
1.2382e-05 -4.46289e-05 -7.80689e-21
-6.97642e-05 0.000113536 2.89224e-19
-8.17394e-05 -5.33714e-05 5.51006e-20
7.07579e-05 -7.50144e-05 -2.04963e-20
7.47403e-05 9.50839e-05 5.27709e-20
8.43613e-05 6.09e-05 6.8614e-20
9.41054e-05 -3.0003e-05 1.58589e-19
1.97832e-05 -0.000106334 9.68961e-21
0.000102986 3.48595e-05 1.48896e-19
-0.000131683 -1.73943e-05 1.22788e-19
-1.14188e-05 0.000111583 2.82204e-20
0.00013376 8.09474e-05 1.70643e-20
0.000171242 -6.44036e-05 1.09116e-19
-8.57492e-05 -5.07101e-05 -1.68668e-20
-8.37204e-05 4.606e-05 1.5992e-19
1.5192e-05 0.000101776 6.6966e-20
-1.26991e-06 -9.88686e-05 7.13642e-20
-1.06658e-05 -9.79023e-05 1.77849e-19
2.76958e-05 0.00010923 4.07314e-20
8.44624e-05 2.39932e-05 2.34844e-19
5.34777e-05 -4.515e-05 1.11541e-19
-1.27719e-05 5.58017e-05 1.65778e-19
1.80287e-05 -5.39608e-05 2.00176e-19
-0.000146801 0.000106331 8.80092e-20
-0.000130734 -7.13156e-05 1.49395e-19
0.000242469 -0.000112042 -2.7596e-20
0.000139201 0.000202133 6.28523e-21
0.00013376 8.09474e-05 6.7996e-20
0.000171242 -6.44036e-05 1.69273e-19
7.87841e-05 6.91755e-05 1.04063e-20
7.94551e-05 -4.14895e-05 1.75717e-19
-6.52377e-05 3.34819e-05 5.85326e-20
-6.78978e-05 -3.11901e-05 7.00093e-20
9.36381e-05 5.60191e-05 -3.79652e-20
9.35635e-05 -3.93213e-05 -8.27095e-21
4.13862e-05 0.000140928 2.63303e-20
-2.72628e-05 -0.000160223 1.27988e-19
-6.10974e-05 1.7715e-05 1.24982e-19
-6.62e-05 -1.60386e-05 -1.53759e-21
-2.89964e-06 -0.00022375 8.46207e-20
2.63323e-05 0.000237971 9.63549e-20
0.000234138 9.23936e-06 7.59972e-20
-0.000225614 -2.76301e-05 7.56665e-20
8.78465e-05 0.000105138 1.63004e-19
0.000107963 -0.000100935 1.05287e-19
-8.25645e-05 5.23694e-05 1.85981e-19
-0.00011154 -1.46524e-05 -3.83612e-20
-0.000108107 1.70194e-05 1.4567e-19
-8.79117e-05 -5.24893e-05 1.26291e-19
7.60175e-05 -0.000111835 -5.56039e-20
8.25243e-05 0.000127829 1.76473e-20
0.000115064 -5.54447e-05 1.71802e-19
-6.97642e-05 0.000113536 2.20981e-19
-2.12298e-05 -0.000100817 9.00617e-20
0.000114983 7.26995e-05 2.45579e-20
-2.79281e-05 7.77219e-05 -5.3563e-20
7.74353e-05 -6.30377e-05 1.64898e-19
2.02886e-05 -0.000208732 -3.48103e-20
8.99499e-06 0.000173972 5.42533e-20
0.000123286 0.000141692 1.83088e-19
0.000149297 -0.000149006 4.25535e-20
9.56091e-06 -2.42714e-05 1.74179e-19
-1.30613e-05 0.00011961 1.2251e-19
-9.24403e-06 -0.000113999 3.99478e-21
2.97539e-05 6.93905e-05 5.57186e-20
-2.18382e-05 -7.00331e-05 1.1674e-19
3.51133e-06 9.78052e-05 1.6153e-19
6.18933e-06 -9.15624e-05 1.07174e-19
-0.000130734 -7.13156e-05 1.22241e-19
-1.06658e-05 -9.79023e-05 2.08902e-19
2.76958e-05 0.00010923 9.02359e-20
-6.00159e-05 -4.08878e-05 1.42705e-19
-0.000146801 0.000106331 3.76954e-20
3.72313e-05 5.92697e-05 3.02061e-20
-9.24403e-06 -0.000113999 9.05927e-20
-6.52377e-05 3.34819e-05 1.54547e-19
0.000128709 8.25212e-05 2.08764e-20
0.000169652 -6.48987e-05 1.86686e-19
0.000114983 7.26995e-05 1.70208e-20
6.46877e-05 9.06784e-05 1.05176e-19
7.29916e-05 -7.9162e-05 1.44563e-20
0.000160472 6.34232e-05 5.87938e-20
0.00013376 8.09474e-05 -3.72442e-20
0.000221889 -7.11919e-05 5.10102e-20
0.000171242 -6.44036e-05 -4.99103e-20
-1.27719e-05 5.58017e-05 2.08197e-19
7.87841e-05 6.91755e-05 -7.61916e-20
7.94551e-05 -4.14895e-05 7.11901e-20
0.00010585 0.000176112 -2.32551e-20
-0.000108568 -0.000203145 -1.28391e-19
-7.77272e-06 -1.86759e-05 3.99354e-19
0.000115064 -5.54447e-05 1.04273e-19
8.44624e-05 2.39932e-05 1.05113e-19
-6.90804e-05 2.14916e-05 -1.26225e-20
-6.00159e-05 -4.08878e-05 1.78563e-19
-0.000230377 -4.07019e-06 -1.02322e-20
-0.000223939 5.30413e-06 1.07784e-19
-1.16954e-05 6.2572e-05 2.68894e-19
-8.79117e-05 -5.24893e-05 3.50801e-20
6.14791e-05 7.5866e-05 5.45464e-20
-2.89964e-06 -0.00022375 -1.65068e-19
2.63323e-05 0.000237971 -1.8063e-20
-0.000225614 -2.76301e-05 1.12534e-19
0.000234138 9.23936e-06 1.68148e-20
5.30829e-05 -5.15578e-05 8.56231e-20
-7.78014e-05 5.11085e-05 2.34931e-19
1.35795e-05 7.32466e-05 2.21711e-19
1.55538e-05 -6.27128e-05 4.74445e-20
-0.000328375 0.000270432 2.76257e-20
-1.06658e-05 -9.79023e-05 1.03758e-19
-1.70823e-05 -0.000208889 -2.35731e-22
0.000220074 2.22989e-05 -1.36663e-20
-1.27719e-05 5.58017e-05 1.02957e-19
3.51133e-06 9.78052e-05 1.71896e-19
-6.90804e-05 2.14916e-05 8.33921e-20
2.76958e-05 0.00010923 2.92438e-21
-0.000130734 -7.13156e-05 8.48862e-20
8.78465e-05 0.000105138 1.82882e-19
0.000107963 -0.000100935 1.49847e-19
6.99035e-05 2.50288e-05 6.97715e-20
7.12452e-05 3.16614e-05 2.48476e-19
6.18933e-06 -9.15624e-05 -7.27755e-20
-8.79117e-05 -5.24893e-05 6.08071e-20
-7.77272e-06 -1.86759e-05 3.26594e-19
-6.10974e-05 1.7715e-05 1.99883e-19
-6.62e-05 -1.60386e-05 -7.96235e-20
-6.52377e-05 3.34819e-05 1.35191e-19
0.000330244 -0.000253845 -3.72733e-20
-2.89964e-06 -0.00022375 -8.50327e-20
1.02328e-05 0.000218773 4.40677e-21
0.000234138 9.23936e-06 1.77243e-19
7.60175e-05 -0.000111835 -1.35639e-19
8.25243e-05 0.000127829 -9.24575e-21
7.87841e-05 6.91755e-05 4.62637e-20
-0.000146801 0.000106331 2.1667e-19
7.94551e-05 -4.14895e-05 4.74127e-20
8.43613e-05 6.09e-05 2.10591e-20
9.41054e-05 -3.0003e-05 1.52026e-19
0.000115064 -5.54447e-05 -1.0975e-19
0.000114983 7.26995e-05 1.5428e-20
-0.000269955 0.000337415 -5.21937e-20
-0.000328375 0.000270432 7.43842e-21
-6.62e-05 -1.60386e-05 -5.31829e-20
-6.10974e-05 1.7715e-05 1.37062e-19
-2.72628e-05 -0.000160223 -8.37287e-20
4.13862e-05 0.000140928 5.73837e-21
-7.22211e-05 0.000108735 1.60313e-19
-8.1e-05 -5.42967e-05 6.4358e-20
7.73665e-05 -7.37393e-05 -5.67463e-21
7.68082e-05 7.44476e-05 -2.72413e-20
9.60528e-05 1.9229e-05 -1.14347e-19
9.59243e-05 -1.93445e-05 2.00843e-20
2.39647e-05 -0.00010575 3.28491e-20
0.000122847 -2.23893e-05 -1.03511e-20
-0.000130956 -1.91792e-05 1.02557e-19
-1.64108e-05 0.000104676 -7.41083e-21
0.000155224 -4.45141e-05 1.11199e-20
0.000155168 4.45693e-05 -5.6789e-20
-8.54789e-05 -5.14844e-05 -2.18745e-21
-8.6301e-05 4.39814e-05 9.42307e-20
4.88686e-06 9.74178e-05 1.41081e-20
1.81415e-06 -9.73854e-05 5.86197e-20
-8.5427e-06 -9.76408e-05 1.5412e-20
1.44456e-05 9.4235e-05 3.05108e-20
0.000103926 -1.20978e-05 -1.13404e-19
8.10925e-05 3.54275e-05 -3.05777e-20
-1.68685e-05 5.35757e-05 1.1825e-20
2.24142e-05 -5.22652e-05 2.27708e-20
-0.000146862 0.000101753 1.70367e-20
-0.000129364 -7.27365e-05 2.93576e-20
0.000247988 -0.000116227 -2.48479e-21
0.000140122 0.000191445 3.57299e-20
0.000155224 -4.45141e-05 -1.86975e-20
0.000155168 4.45693e-05 -1.55467e-19
8.61947e-05 -3.78695e-05 2.92438e-21
8.59828e-05 3.73997e-05 1.35453e-20
-6.69984e-05 3.22409e-05 1.63123e-19
-6.79933e-05 -3.22006e-05 8.94438e-20
0.000103885 3.66616e-05 -4.49236e-20
0.000103554 -3.7641e-05 -3.92925e-20
2.99632e-05 0.000158685 6.48975e-20
-2.46476e-05 -0.000157668 2.89934e-20
-6.45528e-05 1.52649e-05 8.9586e-20
-6.58957e-05 -1.62869e-05 7.02791e-20
5.18334e-07 -0.000226369 4.78841e-20
2.66099e-05 0.000229588 3.66771e-20
0.000241672 1.99622e-06 1.29432e-20
-0.000224398 -3.0265e-05 5.33629e-20
0.00011289 -6.84378e-05 -3.6435e-20
0.000112642 6.85516e-05 -1.4972e-19
-8.42924e-05 4.99018e-05 8.57972e-20
-0.000111495 -1.4893e-05 -1.29825e-20
-0.00011202 1.45615e-05 5.24374e-20
-8.77284e-05 -5.33352e-05 8.46164e-20
8.15437e-05 -0.000112013 1.93431e-20
8.20414e-05 0.000113808 1.71556e-20
0.000125644 -5.55515e-05 2.38847e-20
-7.22211e-05 0.000108735 -2.25546e-21
-1.83974e-05 -0.000100897 8.08521e-20
0.000128015 5.46623e-05 4.47537e-20
-7.37107e-05 6.05065e-05 -2.33421e-20
8.04649e-05 -6.03967e-05 5.79146e-20
2.32225e-05 -0.000206502 2.31276e-20
-1.68316e-05 0.00020642 5.73837e-21
0.000124612 -0.000105249 -7.88866e-20
0.000124657 0.00010545 -1.4567e-19
5.47802e-05 1.88731e-05 -1.18017e-19
-1.42963e-05 0.000119963 8.84052e-20
-9.55841e-06 -0.000114516 1.39021e-20
2.50535e-05 6.69724e-05 6.04907e-20
-1.76911e-05 -6.84347e-05 4.40677e-20
-3.46792e-06 9.27328e-05 3.80798e-20
1.01115e-05 -9.06973e-05 5.87981e-20
-0.000129364 -7.27365e-05 4.38139e-20
-8.5427e-06 -9.76408e-05 3.15567e-20
1.44456e-05 9.4235e-05 -2.81399e-22
-5.93933e-05 -4.04449e-05 3.88603e-20
-0.000146862 0.000101753 6.5662e-20
1.71983e-05 2.40417e-05 8.78191e-20
-9.55841e-06 -0.000114516 3.76795e-20
-6.69984e-05 3.22409e-05 1.39868e-19
0.000156163 -4.42219e-05 -8.41811e-20
0.000156171 4.42569e-05 -7.92667e-20
0.000128015 5.46623e-05 -1.57603e-20
9.07873e-05 5.49257e-05 -7.50978e-20
9.12822e-05 -5.49482e-05 -9.04185e-20
0.000197291 -5.55589e-05 -2.05048e-20
0.000155224 -4.45141e-05 3.17118e-20
0.000197283 5.561e-05 2.75196e-20
0.000155168 4.45693e-05 -2.28931e-21
-1.68685e-05 5.35757e-05 1.49546e-19
8.61947e-05 -3.78695e-05 -6.78856e-20
8.59828e-05 3.73997e-05 -5.99279e-20
-0.000105344 -0.000200107 -1.27446e-20
0.000111736 0.00020224 4.43693e-20
-3.24922e-06 -1.717e-05 8.32848e-20
0.000125644 -5.55515e-05 7.64442e-21
0.000103926 -1.20978e-05 -4.0733e-21
-6.95536e-05 2.02989e-05 1.18738e-19
-5.93933e-05 -4.04449e-05 1.237e-19
-0.000230394 -4.3429e-06 3.79811e-20
-0.000230627 3.71193e-06 4.02875e-20
-1.59828e-05 5.91464e-05 6.19008e-20
-8.77284e-05 -5.33352e-05 5.81758e-20
5.85597e-05 4.79998e-05 -1.30781e-20
5.18334e-07 -0.000226369 1.18611e-20
2.66099e-05 0.000229588 -9.99861e-21
0.000241672 1.99622e-06 -3.65391e-21
-0.000224398 -3.0265e-05 5.45639e-20
5.8348e-05 -4.85023e-05 3.44854e-20
-8.11262e-05 4.83955e-05 1.82993e-19
5.4376e-05 -4.52195e-05 -6.72591e-20
5.36438e-05 4.42707e-05 7.1337e-21
-0.000326035 0.000265588 2.27018e-20
-8.5427e-06 -9.76408e-05 3.19135e-20
-1.41513e-05 -0.000211 2.25702e-21
0.000226295 1.6436e-05 -2.10155e-20
-1.68685e-05 5.35757e-05 9.06245e-20
-3.46792e-06 9.27328e-05 3.05427e-20
-6.95536e-05 2.02989e-05 1.81297e-19
1.44456e-05 9.4235e-05 1.42705e-20
-0.000129364 -7.27365e-05 7.59378e-20
0.00011289 -6.84378e-05 -1.14215e-20
0.000112642 6.85516e-05 -8.30003e-20
7.36528e-05 -3.0942e-05 -2.76852e-20
7.42139e-05 3.11284e-05 2.75662e-20
1.01115e-05 -9.06973e-05 2.33597e-22
-8.77284e-05 -5.33352e-05 3.77751e-20
-3.24922e-06 -1.717e-05 8.4712e-20
-6.58957e-05 -1.62869e-05 2.20105e-20
-6.45528e-05 1.52649e-05 1.31292e-19
-6.69984e-05 3.22409e-05 2.08015e-19
0.000335943 -0.000258609 2.50735e-20
5.18334e-07 -0.000226369 2.89678e-21
8.82688e-06 0.000208382 -1.51582e-20
0.000241672 1.99622e-06 -2.41502e-20
8.15437e-05 -0.000112013 1.57051e-20
8.20414e-05 0.000113808 1.9462e-20
8.59828e-05 3.73997e-05 -1.02322e-20
-0.000146862 0.000101753 6.95612e-20
8.61947e-05 -3.78695e-05 3.80682e-20
9.59243e-05 -1.93445e-05 -2.96114e-20
9.60528e-05 1.9229e-05 -4.62e-20
0.000125644 -5.55515e-05 -1.18771e-20
0.000128015 5.46623e-05 -5.48989e-20
-0.000265613 0.000328755 9.04345e-21
-0.000326035 0.000265588 1.20969e-20
-6.58957e-05 -1.62869e-05 -3.90515e-20
-6.45528e-05 1.52649e-05 1.19403e-19
-2.46476e-05 -0.000157668 -1.08727e-19
2.99632e-05 0.000158685 7.92582e-21
-7.18815e-05 0.000116087 -1.24167e-19
-7.85998e-05 -7.45867e-05 2.73517e-20
6.95441e-05 -7.75699e-05 2.88819e-19
7.03169e-05 7.81972e-05 4.43693e-20
9.55563e-05 -3.17243e-05 1.69059e-19
9.57854e-05 3.34856e-05 -8.07491e-20
-1.96073e-05 -0.000105549 -1.54991e-20
0.000105185 -2.55863e-05 4.31567e-20
-0.000147777 -3.33812e-05 -5.8849e-21
-1.7835e-05 0.000106533 8.88013e-20
0.00017549 -6.66338e-05 3.24721e-20
0.000173535 6.77789e-05 -2.63217e-20
-8.72499e-05 -4.38281e-05 5.81206e-20
-8.64052e-05 5.05466e-05 -2.83732e-21
2.33903e-06 9.94747e-05 -4.78565e-20
9.31044e-07 -9.96873e-05 1.1571e-19
9.63544e-06 -9.58769e-05 1.92959e-19
1.07569e-05 9.6884e-05 9.89231e-20
8.60786e-05 -1.51952e-05 7.84575e-20
5.51241e-05 5.01475e-05 7.74998e-20
-1.856e-05 -5.48805e-05 7.8379e-20
-1.75421e-05 5.58467e-05 -1.02998e-19
-0.000118143 0.000193167 1.56456e-20
-0.000132598 -7.17101e-05 2.02256e-19
0.000235462 -0.000111872 1.41178e-19
0.000231268 0.000125597 4.12718e-20
0.00017549 -6.66338e-05 5.69631e-20
0.000173535 6.77789e-05 -3.25785e-21
7.93119e-05 -4.28879e-05 3.27807e-19
7.98368e-05 4.38799e-05 3.64117e-20
-6.82901e-05 -3.20128e-05 3.90344e-20
-6.9636e-05 3.23884e-05 -3.99307e-20
9.3233e-05 4.35929e-05 -6.3447e-21
9.20455e-05 -4.42104e-05 2.22194e-19
2.87714e-05 0.000162276 -6.11724e-20
2.76327e-05 -0.000162259 8.66616e-20
-6.58282e-05 -1.52876e-05 -7.82282e-20
-7.02351e-05 1.71153e-05 6.19327e-20
-2.98432e-06 -0.000221784 3.21224e-19
-2.21996e-05 0.00022626 1.82112e-21
0.000223546 -1.63035e-05 4.12878e-20
-0.000197143 1.80323e-06 4.16266e-22
0.000111035 -0.00010497 2.51084e-19
0.000109977 0.00010528 -1.10526e-19
-0.000103548 -6.23226e-05 5.15816e-20
-0.000112882 -1.46078e-05 -4.71515e-20
-0.000112257 1.86228e-05 4.80625e-20
-8.69447e-05 5.09656e-05 -3.9661e-20
7.43239e-05 -0.000114409 1.79961e-19
-7.0277e-05 0.00011489 8.85281e-21
0.000111081 -5.96724e-05 1.65544e-19
-2.09208e-05 -0.000102096 1.51983e-19
6.89333e-05 0.000107398 9.63151e-20
0.000113791 5.9748e-05 1.16657e-19
-7.7686e-05 6.30502e-05 3.55791e-20
-7.82698e-05 -6.35965e-05 1.80924e-19
-2.03345e-05 -0.000211189 -1.06761e-20
-1.94369e-05 0.000211455 9.25741e-21
0.000153113 -0.000153146 1.35219e-20
0.000151778 0.000152908 -2.65829e-20
1.02568e-05 -3.01055e-05 3.21153e-20
-1.60758e-05 -0.000119563 2.03455e-20
-1.22758e-05 0.000113978 1.06302e-19
2.35033e-05 -6.83225e-05 2.15647e-19
2.38122e-05 6.84143e-05 -6.8173e-22
-0.000132598 -7.17101e-05 1.21959e-19
-5.36504e-06 9.40225e-05 -2.6017e-20
-6.1033e-06 -9.30885e-05 1.43126e-19
9.63544e-06 -9.58769e-05 5.6309e-20
1.07569e-05 9.6884e-05 5.58853e-20
1.55173e-05 2.67597e-05 3.46595e-20
1.27326e-05 -2.7146e-05 3.00684e-19
-1.22758e-05 0.000113978 1.5847e-19
-6.82901e-05 -3.20128e-05 2.12969e-20
0.0001734 -6.72847e-05 7.5565e-20
0.000171446 6.84296e-05 -4.14364e-20
0.000113791 5.9748e-05 7.19313e-20
7.45643e-05 8.3201e-05 -1.06128e-19
7.52336e-05 -8.26187e-05 2.61316e-19
0.000227083 -7.30824e-05 -1.30088e-19
0.00017549 -6.66338e-05 1.08608e-19
0.000223715 7.27298e-05 -5.82543e-21
0.000173535 6.77789e-05 8.08681e-20
-0.000143576 0.000107452 -2.30883e-20
-1.856e-05 -5.48805e-05 1.61078e-19
-1.75421e-05 5.58467e-05 6.98671e-20
7.93119e-05 -4.28879e-05 2.15813e-19
7.98368e-05 4.38799e-05 -8.40941e-20
0.000109631 -0.000205526 2.63591e-19
0.000111918 0.000206342 2.98089e-20
0.000111081 -5.96724e-05 1.52585e-19
8.60786e-05 -1.51952e-05 9.05375e-20
-7.05153e-05 -2.08763e-05 3.30869e-20
-0.000232061 -3.20209e-06 -1.14347e-19
-0.000231462 4.31599e-06 -1.81574e-19
-1.77119e-05 -6.02152e-05 -3.87456e-20
-1.58317e-05 6.45909e-05 -2.60011e-20
-8.69447e-05 5.09656e-05 -8.20807e-20
5.37401e-05 5.39172e-05 4.66797e-21
5.26757e-05 -5.31796e-05 2.61047e-19
-2.98432e-06 -0.000221784 6.66963e-21
-2.21996e-05 0.00022626 1.31278e-19
-0.000197143 1.80323e-06 1.50191e-19
0.000223546 -1.63035e-05 1.00387e-19
-8.21602e-05 -4.82416e-05 -8.35313e-20
1.89173e-05 -6.94927e-05 2.4342e-19
1.83752e-05 6.85237e-05 2.71861e-20
0.000323645 0.000262159 2.84591e-19
1.07569e-05 9.6884e-05 1.26077e-19
-1.60517e-05 -0.000208164 1.9634e-19
-0.000197143 1.80323e-06 -4.85659e-20
-1.75421e-05 5.58467e-05 8.28262e-21
-1.856e-05 -5.48805e-05 3.0322e-19
-6.1033e-06 -9.30885e-05 3.26547e-20
-7.05153e-05 -2.08763e-05 -1.79404e-20
9.63544e-06 -9.58769e-05 1.61027e-19
0.000111035 -0.00010497 3.98903e-20
0.000109977 0.00010528 -1.21892e-19
7.26377e-05 -2.80296e-05 -2.31043e-20
7.11566e-05 3.17608e-05 3.68332e-19
-0.000132598 -7.17101e-05 3.60751e-20
-5.36504e-06 9.40225e-05 -3.59925e-22
-8.69447e-05 5.09656e-05 -1.52177e-19
-6.58282e-05 -1.52876e-05 -1.34582e-20
-7.02351e-05 1.71153e-05 -3.99307e-20
-6.82901e-05 -3.20128e-05 7.22286e-20
0.000307327 -0.000251394 3.46246e-19
-5.37375e-06 0.000204559 1.24389e-19
-2.98432e-06 -0.000221784 -1.1871e-19
0.000212267 -6.61265e-06 7.74202e-20
7.43239e-05 -0.000114409 1.45531e-19
-7.0277e-05 0.00011489 2.88267e-20
7.98368e-05 4.38799e-05 -9.90727e-21
7.93119e-05 -4.28879e-05 3.44308e-19
9.84836e-05 7.48193e-05 1.10102e-19
9.55563e-05 -3.17243e-05 2.05439e-19
9.57854e-05 3.34856e-05 -9.26379e-20
0.000111081 -5.96724e-05 2.28982e-19
0.000113791 5.9748e-05 -3.49145e-21
0.000261898 0.000322213 7.74695e-20
0.000323645 0.000262159 6.46713e-20
-6.58282e-05 -1.52876e-05 7.45669e-20
-7.02351e-05 1.71153e-05 1.25467e-19
2.87714e-05 0.000162276 1.37279e-20
2.76327e-05 -0.000162259 9.00384e-20
-7.36825e-05 0.000107489 2.28586e-19
-8.24088e-05 -5.39747e-05 2.06944e-19
7.02506e-05 -7.65777e-05 1.41057e-19
6.96043e-05 7.77613e-05 -5.43085e-20
9.58428e-05 -3.28797e-05 1.77142e-20
9.57029e-05 3.30052e-05 8.60755e-21
1.88707e-05 -0.000107104 1.58716e-19
0.000101776 -2.53568e-05 1.43776e-19
-0.000131913 -1.87405e-05 2.71375e-19
-1.94928e-05 0.000105238 9.70085e-20
0.000174716 -6.75792e-05 5.61073e-20
0.00017454 6.77776e-05 1.03076e-19
-8.72283e-05 4.38948e-05 4.38333e-19
-8.67196e-05 -5.12841e-05 1.65627e-19
8.91839e-07 9.93282e-05 2.17408e-20
-1.84697e-06 -9.97382e-05 8.60351e-20
-1.1088e-05 -9.84116e-05 6.69299e-20
9.66106e-06 9.55577e-05 7.93748e-21
8.59065e-05 -1.6046e-05 1.60286e-19
5.4313e-05 5.01343e-05 8.13671e-20
-1.83891e-05 5.46753e-05 2.3845e-19
1.75495e-05 -5.50054e-05 1.71365e-19
-0.000146692 0.000100659 9.58859e-22
-0.000131298 -7.19348e-05 6.94625e-20
0.000135104 -0.000193702 6.73939e-20
0.000234093 0.000115255 1.86224e-19
0.000174716 -6.75792e-05 6.87096e-20
0.00017454 6.77776e-05 -4.19207e-20
7.94966e-05 -4.33029e-05 1.05232e-19
7.93501e-05 4.33847e-05 -2.60924e-20
-6.8085e-05 3.23728e-05 3.96151e-19
-6.92565e-05 -3.21465e-05 2.78642e-19
9.21898e-05 4.40856e-05 -4.55066e-20
9.27621e-05 -4.37757e-05 1.8291e-19
2.73254e-05 0.000162102 1.33749e-19
-2.79228e-05 -0.000161916 5.31783e-21
-6.54655e-05 1.53425e-05 3.37e-19
-6.68892e-05 -1.60426e-05 3.32744e-19
-3.05807e-06 -0.000212235 9.38622e-20
9.05133e-06 0.000222364 1.52625e-19
0.000226159 -1.36348e-06 -3.45927e-20
-0.000223669 -2.84412e-05 -4.38044e-20
0.00011059 -0.000105515 9.57449e-20
0.000110154 0.000105909 9.70446e-20
-8.51975e-05 4.97844e-05 3.24407e-19
-0.00011268 1.46437e-05 1.92543e-19
-0.000112573 -1.46467e-05 3.58091e-19
-8.88679e-05 -5.30517e-05 2.34725e-19
7.42295e-05 -0.000113517 1.3382e-19
7.32493e-05 0.000114129 6.92203e-20
0.000112754 5.95359e-05 1.59849e-19
-7.36825e-05 0.000107489 2.01171e-19
-2.19503e-05 -0.000101251 -1.5103e-20
0.000112836 -5.94443e-05 1.92369e-19
-7.90017e-05 6.26065e-05 -1.26023e-20
7.79629e-05 -6.35247e-05 2.15917e-19
2.01406e-05 -0.000210948 4.9307e-20
-2.07815e-05 0.000211175 -5.25564e-20
0.000152715 -0.000153526 1.35739e-19
0.000152768 0.000153944 1.14672e-19
1.0728e-05 3.02377e-05 6.56026e-20
-1.60477e-05 0.000119423 2.5637e-19
-1.22931e-05 -0.000113874 1.59009e-19
2.34024e-05 6.80303e-05 1.9554e-19
-2.23101e-05 -7.1076e-05 1.92076e-19
-6.20218e-06 9.2974e-05 1.31459e-19
5.55778e-06 -9.26378e-05 1.66404e-19
-0.000131298 -7.19348e-05 3.63639e-20
-1.1088e-05 -9.84116e-05 3.55197e-20
9.66106e-06 9.55577e-05 5.0131e-21
-6.06263e-05 -4.10762e-05 2.46193e-19
-0.000146692 0.000100659 1.5385e-19
1.4593e-05 2.6396e-05 1.30088e-19
-1.22931e-05 -0.000113874 2.55546e-19
-6.8085e-05 3.23728e-05 5.37771e-19
0.000172655 -6.82211e-05 1.56346e-19
0.000172437 6.84325e-05 9.30413e-20
0.000112836 -5.94443e-05 1.87756e-19
7.41846e-05 8.35149e-05 6.07838e-20
7.49399e-05 -8.32533e-05 9.10365e-20
0.00022558 -7.30961e-05 -1.22222e-20
0.000174716 -6.75792e-05 -2.53555e-20
0.000225426 7.31948e-05 3.08474e-20
0.00017454 6.77776e-05 5.01948e-20
-1.83891e-05 5.46753e-05 2.81392e-19
7.94966e-05 -4.33029e-05 7.15151e-20
7.93501e-05 4.33847e-05 -3.92171e-20
0.000109421 0.000205404 -5.69079e-20
-0.000110335 -0.000205477 -7.98102e-21
-8.04895e-06 -1.99996e-05 1.77515e-19
0.000112754 5.95359e-05 6.46437e-20
8.59065e-05 -1.6046e-05 1.21051e-19
-7.03258e-05 2.0506e-05 2.80255e-19
-6.06263e-05 -4.10762e-05 1.5037e-19
-0.000231599 3.21223e-06 1.50155e-19
-0.000231684 -3.76607e-06 1.02632e-19
-1.76328e-05 5.9433e-05 2.04464e-19
-8.88679e-05 -5.30517e-05 3.6108e-19
5.28977e-05 5.36048e-05 4.41867e-20
-3.05807e-06 -0.000212235 1.21991e-19
9.05133e-06 0.000222364 3.91815e-20
-0.000223669 -2.84412e-05 4.82983e-20
0.000226159 -1.36348e-06 2.99162e-20
5.28771e-05 -5.34715e-05 2.1071e-19
-8.19849e-05 4.83673e-05 2.84444e-19
1.86042e-05 -7.00461e-05 9.03633e-20
1.74118e-05 6.80918e-05 1.76105e-19
-0.000323801 0.000263964 -2.12378e-19
-1.1088e-05 -9.84116e-05 6.16991e-20
-6.11616e-06 -0.000208382 -4.78534e-21
0.000212611 -1.39443e-05 8.72324e-20
-1.83891e-05 5.46753e-05 2.62941e-19
-6.20218e-06 9.2974e-05 1.58779e-19
-7.03258e-05 2.0506e-05 2.87888e-19
9.66106e-06 9.55577e-05 1.85902e-20
-0.000131298 -7.19348e-05 1.69994e-19
0.00011059 -0.000105515 9.23681e-20
0.000110154 0.000105909 1.45313e-19
7.36101e-05 2.96785e-05 1.70074e-19
7.22293e-05 -2.93868e-05 1.00326e-19
5.55778e-06 -9.26378e-05 1.68615e-19
-8.88679e-05 -5.30517e-05 1.62488e-19
-8.04895e-06 -1.99996e-05 2.0876e-19
-6.54655e-05 1.53425e-05 2.83406e-19
-6.68892e-05 -1.60426e-05 3.65747e-19
-6.8085e-05 3.23728e-05 3.91538e-19
0.000318571 0.000252529 1.62161e-19
-3.05807e-06 -0.000212235 8.79178e-20
2.03042e-06 0.000215489 1.21742e-19
0.000226159 -1.36348e-06 5.1744e-20
7.42295e-05 -0.000113517 1.27163e-19
7.32493e-05 0.000114129 5.01512e-20
7.93501e-05 4.33847e-05 1.63274e-20
-0.000146692 0.000100659 2.49055e-19
7.94966e-05 -4.33029e-05 1.66102e-19
9.58428e-05 -3.28797e-05 1.24904e-19
9.57029e-05 3.30052e-05 4.57009e-20
0.000112754 5.95359e-05 1.04308e-20
0.000112836 -5.94443e-05 1.84736e-19
-0.000263886 0.000327845 1.47282e-20
-0.000323801 0.000263964 1.23469e-19
-6.54655e-05 1.53425e-05 2.15972e-19
-6.68892e-05 -1.60426e-05 3.71074e-19
-2.79228e-05 -0.000161916 1.59706e-20
2.73254e-05 0.000162102 5.97538e-20
-7.19927e-05 0.000116094 -7.97817e-20
-7.85843e-05 -7.49321e-05 1.1292e-19
7.04784e-05 -7.68191e-05 1.50306e-19
6.97505e-05 7.7755e-05 -1.58652e-19
9.58139e-05 -3.33964e-05 1.04646e-19
9.55167e-05 3.17535e-05 -6.34384e-20
1.95041e-05 -0.000106899 1.24167e-19
0.000105191 -2.61406e-05 1.01959e-19
-0.000147819 -3.34554e-05 8.22389e-20
-1.81065e-05 0.000106658 -1.39405e-19
0.00017366 -6.76005e-05 5.56401e-20
0.000175465 6.67824e-05 -1.00683e-19
-8.73165e-05 -4.37973e-05 3.81786e-20
-8.63735e-05 5.05505e-05 -8.48543e-20
1.85982e-06 9.9737e-05 -2.47204e-20
-1.24678e-06 -9.94045e-05 1.10114e-19
-1.02591e-05 -9.75813e-05 1.38081e-19
1.00711e-05 9.68113e-05 -8.76248e-20
8.61768e-05 -1.58003e-05 3.05777e-20
5.50354e-05 4.94972e-05 -5.06068e-20
-1.76663e-05 5.61107e-05 -1.31832e-19
1.82315e-05 -5.50244e-05 1.86869e-19
-0.000118253 0.000193094 -4.469e-20
-0.000132746 -7.18759e-05 8.45336e-20
0.000235485 -0.000112052 1.24749e-19
0.000231118 0.000125312 1.25407e-20
0.00017366 -6.76005e-05 5.83033e-20
0.000175465 6.67824e-05 -1.95079e-19
7.97241e-05 -4.37858e-05 1.59128e-19
7.94225e-05 4.2948e-05 -1.61339e-19
-6.82862e-05 -3.20252e-05 2.56942e-19
-6.96179e-05 3.23728e-05 -3.57618e-20
9.29952e-05 4.29541e-05 -1.31633e-19
9.24057e-05 -4.47283e-05 6.84399e-20
2.77616e-05 0.000162346 5.4593e-20
-2.70495e-05 -0.000162013 1.02481e-19
-6.59952e-05 -1.55548e-05 3.41605e-20
-7.01922e-05 1.72892e-05 -1.61347e-19
-2.69385e-06 -0.000222223 6.99775e-20
-2.23539e-05 0.000226087 1.28736e-20
0.000223486 -1.6557e-05 -2.22717e-20
-0.000197211 1.75936e-06 8.0636e-20
0.000110357 -0.000105019 6.49862e-22
0.000110738 0.000105205 -6.42476e-20
-0.000103529 -6.2434e-05 7.90172e-20
-0.000114026 -1.21475e-05 3.81e-20
-0.000112041 1.87905e-05 1.80732e-21
-8.69392e-05 5.09897e-05 -6.28842e-20
7.44971e-05 -0.000112683 1.54907e-19
-7.04356e-05 0.000114933 7.76335e-21
0.000111108 -5.98916e-05 1.34118e-19
-2.14439e-05 -0.000101963 1.46553e-19
6.84949e-05 0.000107033 -2.65881e-19
0.000113666 5.91986e-05 -8.05548e-20
-7.81359e-05 6.34888e-05 -1.25252e-19
7.99417e-05 -6.20411e-05 1.16273e-19
-2.01777e-05 0.000211247 -8.24927e-20
2.14581e-05 -0.000211497 2.74792e-20
0.000151706 -0.000152518 -6.39227e-20
0.000153242 0.000153531 -1.33923e-19
1.05277e-05 -3.07881e-05 -2.70905e-20
-1.6072e-05 -0.000119554 1.19206e-20
-1.22719e-05 0.000113926 -1.78316e-19
2.3729e-05 6.86912e-05 -4.39488e-20
-2.15026e-05 -7.1045e-05 1.53413e-19
-0.000132746 -7.18759e-05 1.42384e-19
-5.66259e-06 9.41741e-05 -5.38604e-20
6.20517e-06 -9.24494e-05 1.28712e-19
-1.02591e-05 -9.75813e-05 1.68159e-19
1.00711e-05 9.68113e-05 4.76941e-20
-6.16522e-05 -4.18977e-05 5.49657e-20
1.26567e-05 2.71335e-05 -2.88439e-19
-1.22719e-05 0.000113926 -1.67855e-19
-6.82862e-05 -3.20252e-05 2.05296e-19
0.000171588 -6.8246e-05 9.70765e-20
0.000173389 6.7429e-05 -2.93789e-19
0.000113666 5.91986e-05 -6.10683e-21
7.46514e-05 8.27046e-05 -1.02188e-19
7.52197e-05 -8.30826e-05 8.41726e-20
0.000223807 -7.26319e-05 -2.87556e-20
0.00017366 -6.76005e-05 2.31595e-20
0.00022713 7.31939e-05 -1.86021e-19
0.000175465 6.67824e-05 -7.88547e-20
-0.000143664 0.000107456 -9.83187e-21
-1.76663e-05 5.61107e-05 -5.56953e-20
7.97241e-05 -4.37858e-05 1.09432e-19
7.94225e-05 4.2948e-05 -9.26697e-20
0.000109773 0.000205629 -1.13308e-19
-0.000109745 -0.000205654 3.78303e-20
-7.22826e-06 -2.02089e-05 1.82343e-19
0.000111108 -5.98916e-05 1.49645e-19
8.61768e-05 -1.58003e-05 9.55389e-20
-7.05136e-05 -2.09037e-05 1.18408e-19
-6.16522e-05 -4.18977e-05 2.14419e-19
-0.000231388 -3.62541e-06 -3.56662e-20
-0.000231573 4.07962e-06 -1.99891e-19
-1.59685e-05 6.47912e-05 -1.30286e-19
-8.69392e-05 5.09897e-05 -6.67833e-20
5.29407e-05 5.31326e-05 -8.36098e-20
-2.69385e-06 -0.000222223 1.48777e-19
-2.23539e-05 0.000226087 4.28217e-20
-0.000197211 1.75936e-06 -8.85125e-21
0.000223486 -1.6557e-05 7.95917e-20
5.3213e-05 -5.39091e-05 9.7892e-20
-8.20785e-05 -4.8317e-05 -4.64464e-21
1.95182e-05 -6.99395e-05 8.18702e-21
1.78407e-05 6.8031e-05 -3.02932e-20
0.000323567 0.000261986 6.78436e-20
1.00711e-05 9.68113e-05 -1.10071e-19
-1.02591e-05 -9.75813e-05 1.41719e-19
-1.59148e-05 -0.000208352 1.50083e-19
-0.000197211 1.75936e-06 -9.78033e-20
-1.76663e-05 5.61107e-05 -4.62785e-20
-7.05136e-05 -2.09037e-05 8.60234e-20
0.000110357 -0.000105019 5.88575e-20
0.000110738 0.000105205 -3.89917e-21
7.38819e-05 2.83174e-05 9.24871e-20
7.1107e-05 -3.17307e-05 -3.78231e-19
-0.000132746 -7.18759e-05 2.02281e-19
-5.66259e-06 9.41741e-05 -8.7577e-20
6.20517e-06 -9.24494e-05 1.09999e-19
-8.69392e-05 5.09897e-05 -1.28368e-19
-7.22826e-06 -2.02089e-05 1.45249e-19
-6.59952e-05 -1.55548e-05 5.13756e-20
-7.01922e-05 1.72892e-05 -2.16771e-20
-6.82862e-05 -3.20252e-05 5.90635e-20
0.000307338 -0.000251574 -1.43597e-20
-5.59735e-06 0.000204476 -1.21591e-19
-2.69385e-06 -0.000222223 2.21084e-19
0.000212345 -6.98495e-06 -1.43343e-20
-7.04356e-05 0.000114933 -8.18545e-20
7.44971e-05 -0.000112683 2.54203e-19
7.94225e-05 4.2948e-05 -8.92929e-20
9.81843e-05 7.43024e-05 -9.98936e-20
7.97241e-05 -4.37858e-05 8.5655e-20
9.58139e-05 -3.33964e-05 7.94409e-20
9.55167e-05 3.17535e-05 -1.90506e-19
0.000111108 -5.98916e-05 1.55328e-19
0.000113666 5.91986e-05 -1.50033e-19
0.000261726 0.000322013 -1.97412e-19
0.000323567 0.000261986 4.63248e-20
-6.59952e-05 -1.55548e-05 -2.1384e-20
-7.01922e-05 1.72892e-05 -4.15554e-20
-2.70495e-05 -0.000162013 1.06572e-19
2.77616e-05 0.000162346 -8.75494e-20
-7.36785e-05 0.00010747 -1.08505e-19
-7.92455e-05 -5.7337e-05 4.27128e-20
7.47716e-05 -9.54261e-05 1.32522e-20
7.01651e-05 7.57991e-05 4.9838e-20
9.42019e-05 2.98588e-05 -1.8102e-19
8.45756e-05 -6.085e-05 1.50276e-20
-1.19226e-05 -0.000111437 -6.95857e-20
0.000103038 1.99186e-05 -8.23101e-20
-0.000129964 -2.056e-05 5.90445e-20
-1.89792e-05 0.000105128 -1.25483e-19
0.000171243 6.43042e-05 -2.05439e-19
0.000134051 -8.10123e-05 7.42101e-20
-8.30926e-05 -5.33867e-05 2.83669e-20
-8.65384e-05 4.36889e-05 -5.06938e-20
1.66945e-06 9.88549e-05 1.20552e-19
1.47388e-05 -0.000101616 -1.16827e-20
2.73307e-05 -0.000109346 -1.15116e-19
1.05031e-05 9.50364e-05 5.12777e-21
8.61693e-05 1.00215e-05 -1.11478e-19
5.01805e-05 -5.93163e-05 -1.53207e-20
-1.16569e-05 -5.65585e-05 6.75288e-20
-1.81274e-05 5.45156e-05 8.59884e-20
-0.000148224 0.000100495 -1.12143e-19
-0.00012906 -7.69347e-05 1.01727e-20
0.000246184 -0.000124669 -3.20266e-20
0.000134637 0.000189427 5.43201e-20
0.000171243 6.43042e-05 -3.48486e-19
0.000134051 -8.10123e-05 1.7952e-20
7.92108e-05 4.11564e-05 1.75082e-20
7.89394e-05 -6.92337e-05 -5.93885e-20
-6.68541e-05 3.13443e-05 3.75054e-20
-6.57797e-05 -3.43151e-05 6.06967e-20
9.3539e-05 3.93157e-05 -9.26697e-20
9.3477e-05 -5.60179e-05 1.83566e-20
4.13044e-05 -0.000140795 -2.71861e-20
2.76261e-05 0.000160652 1.73918e-19
-6.50048e-05 1.5318e-05 -8.25929e-21
-6.43926e-05 -2.05693e-05 6.25592e-20
1.92847e-06 -0.000236034 -2.82915e-20
2.31305e-05 0.000227328 -2.42807e-19
0.000235155 -4.12371e-06 7.33064e-20
-0.00022582 -3.34623e-05 -1.02069e-19
0.000108002 0.000100599 -2.44624e-19
8.79707e-05 -0.000105463 1.00738e-19
-8.43417e-05 4.90174e-05 -8.68995e-20
-0.000107456 -1.98854e-05 1.34582e-19
-0.000111907 1.46228e-05 5.23077e-21
-8.57037e-05 -5.5294e-05 7.17615e-20
8.15557e-05 -0.000128326 -1.50505e-19
7.69161e-05 0.000113387 -1.24535e-19
0.000115594 -7.26338e-05 -6.80279e-20
-7.36785e-05 0.00010747 -8.99587e-20
-1.34225e-05 -0.000107547 5.41577e-20
0.000114531 5.57233e-05 -3.25591e-20
-7.70193e-05 6.27368e-05 2.74006e-19
-2.80946e-05 -7.77107e-05 -1.25942e-19
-1.97404e-05 0.000208967 2.95184e-19
8.85474e-06 -0.000173899 3.85439e-20
0.000149267 0.000148901 -5.78288e-19
0.000123535 -0.00014192 -9.81469e-20
9.4113e-06 -3.52555e-05 -7.93857e-20
-1.39473e-05 0.000119453 -1.06442e-20
-8.36099e-06 -0.000114287 1.35557e-19
2.97485e-05 -6.90808e-05 1.56138e-20
2.35414e-05 6.78324e-05 1.15734e-19
3.13917e-06 -9.57781e-05 -5.74867e-20
-5.74674e-06 9.29183e-05 -7.38735e-20
-0.00012906 -7.69347e-05 4.95725e-20
2.73307e-05 -0.000109346 -1.62671e-19
1.05031e-05 9.50364e-05 -1.0268e-19
-0.000148224 0.000100495 -1.39202e-19
1.32084e-05 2.64679e-05 -1.26894e-20
3.64423e-05 -5.94392e-05 -1.33955e-19
-8.36099e-06 -0.000114287 1.31014e-20
-6.68541e-05 3.13443e-05 -7.11116e-20
0.000169683 6.47903e-05 -1.71873e-19
0.000129033 -8.25756e-05 -1.08426e-19
0.000114531 5.57233e-05 -5.51006e-20
7.33378e-05 7.89514e-05 -1.39154e-19
6.44366e-05 -9.08131e-05 5.40069e-20
0.00022192 7.11601e-05 -1.29874e-19
0.000171243 6.43042e-05 -2.54421e-19
0.000160874 -6.35366e-05 7.39722e-20
0.000134051 -8.10123e-05 -1.40169e-19
-1.16569e-05 -5.65585e-05 -1.46475e-20
-1.81274e-05 5.45156e-05 -6.12703e-21
7.92108e-05 4.11564e-05 -2.15348e-20
7.89394e-05 -6.92337e-05 -6.01021e-20
0.000108739 0.000203476 1.22186e-19
0.000105848 -0.000176027 -2.89616e-20
0.000115594 -7.26338e-05 -9.10661e-21
8.61693e-05 1.00215e-05 -6.76307e-20
-6.91549e-05 1.93942e-05 -6.15036e-21
-0.000223643 -5.99491e-06 6.27652e-20
-0.000230495 3.39788e-06 5.98875e-20
-1.73623e-05 5.93292e-05 2.056e-20
-1.01576e-05 -6.40544e-05 3.04354e-20
-8.57037e-05 -5.5294e-05 -4.36091e-20
5.32004e-05 5.12103e-05 5.70502e-20
6.13554e-05 -7.60285e-05 -1.62647e-19
1.92847e-06 -0.000236034 8.7149e-20
2.31305e-05 0.000227328 -1.14277e-19
-0.00022582 -3.34623e-05 -2.66466e-20
0.000235155 -4.12371e-06 -1.09924e-19
-8.1393e-05 4.8078e-05 2.27475e-20
1.56474e-05 6.43325e-05 -1.55038e-19
1.34712e-05 -7.17608e-05 4.47495e-20
-0.000328319 0.000264936 3.98473e-20
-1.4317e-05 -0.000219127 4.99011e-20
0.000219015 1.08619e-05 4.77158e-20
-1.81274e-05 5.45156e-05 4.55183e-20
-1.16569e-05 -5.65585e-05 6.82424e-20
-5.74674e-06 9.29183e-05 -9.07318e-20
3.13917e-06 -9.57781e-05 -4.15297e-21
-6.91549e-05 1.93942e-05 3.87414e-20
2.73307e-05 -0.000109346 -1.7066e-19
1.05031e-05 9.50364e-05 -7.38374e-20
-0.00012906 -7.69347e-05 3.96334e-20
0.000108002 0.000100599 -2.4995e-19
8.79707e-05 -0.000105463 2.26519e-20
7.03942e-05 -3.16078e-05 -1.41643e-19
7.01978e-05 -2.49201e-05 -1.32171e-19
-8.57037e-05 -5.5294e-05 1.47898e-20
-6.43926e-05 -2.05693e-05 4.99569e-20
-6.50048e-05 1.5318e-05 2.49349e-20
-6.68541e-05 3.13443e-05 -2.72646e-20
0.000331426 -0.000262333 -1.54547e-19
1.92847e-06 -0.000236034 -1.23854e-19
5.33339e-06 0.000206103 -2.60403e-20
0.000235155 -4.12371e-06 -1.28732e-19
8.15557e-05 -0.000128326 -1.97442e-19
7.69161e-05 0.000113387 -1.13265e-19
7.92108e-05 4.11564e-05 -6.98289e-21
7.89394e-05 -6.92337e-05 -1.37831e-20
-0.000148224 0.000100495 1.34753e-21
9.42019e-05 2.98588e-05 -2.07575e-20
8.45756e-05 -6.085e-05 -7.03343e-20
0.000115594 -7.26338e-05 -1.34582e-20
0.000114531 5.57233e-05 -8.03053e-20
-0.000265421 0.000325339 1.09651e-19
-0.000328319 0.000264936 -6.15287e-20
-6.43926e-05 -2.05693e-05 5.11929e-20
-6.50048e-05 1.5318e-05 8.31426e-20
4.13044e-05 -0.000140795 1.25705e-20
2.76261e-05 0.000160652 4.29812e-19
1.0175e-05 -1.25148e-06 -9.18372e-20
1.15914e-05 -1.60191e-06 -3.06096e-20
5.13442e-06 -7.9877e-07 -9.24871e-20
1.15665e-05 1.59072e-06 7.27044e-20
1.58625e-05 -2.13062e-06 -1.21179e-19
1.58896e-05 2.11751e-06 1.2377e-19
1.33205e-05 -3.47029e-06 -9.80194e-20
9.37092e-06 -1.0711e-06 1.23636e-19
9.08302e-06 -9.19808e-07 7.45669e-20
1.65049e-05 1.53231e-06 -9.62758e-20
2.6903e-05 -8.45038e-06 1.6629e-20
2.69216e-05 8.45154e-06 1.64002e-19
-4.3927e-06 -9.29639e-06 -1.0589e-19
-5.51973e-06 -3.30391e-06 -1.09691e-20
1.69407e-05 9.90994e-06 -8.00037e-20
1.85468e-05 -8.84523e-06 5.71225e-20
2.1894e-05 2.36617e-06 -1.25153e-20
1.24963e-05 3.19194e-06 -1.03813e-19
9.45412e-06 -1.11635e-06 -3.79407e-20
6.79315e-06 4.83778e-06 7.24665e-20
2.1127e-05 -1.64115e-05 -1.39963e-19
8.62358e-06 -3.97918e-06 5.48075e-20
1.031e-05 -1.29243e-06 -1.0352e-19
1.15453e-05 4.6229e-07 -8.64004e-20
1.06242e-05 7.40655e-07 -2.47289e-20
1.22115e-05 1.72104e-07 1.49639e-20
2.6903e-05 -8.45038e-06 -7.74361e-20
2.69216e-05 8.45154e-06 -1.5934e-22
1.2454e-05 -7.20565e-07 -1.12421e-19
1.24533e-05 6.89524e-07 1.17161e-19
8.42207e-06 1.06563e-05 -5.61158e-20
9.1059e-06 -9.04106e-06 -6.24084e-20
1.12761e-05 -2.16564e-06 -1.00683e-19
1.12645e-05 2.13249e-06 1.89111e-19
3.66683e-05 4.72236e-05 -7.13642e-20
1.2382e-05 -4.46289e-05 1.26342e-20
-2.29351e-06 -2.4401e-05 -6.98352e-20
-2.46825e-06 2.38725e-05 -1.23604e-19
1.28488e-05 -5.82474e-08 -6.73461e-20
1.27233e-05 -1.48017e-07 -5.76767e-20
1.04774e-05 -5.29267e-09 1.03528e-19
9.98582e-06 -1.16459e-08 -4.64464e-21
1.6728e-05 -1.3946e-05 -4.96638e-20
1.67333e-05 1.39794e-05 2.1044e-19
4.43706e-06 1.06896e-06 -2.32784e-20
-3.5512e-05 -2.4893e-05 -1.17379e-20
-3.53835e-05 2.48784e-05 -1.15084e-19
5.8172e-06 -8.96333e-07 3.42561e-20
1.23331e-05 -1.36887e-06 -1.48095e-19
1.23595e-05 1.35924e-06 -1.20497e-19
1.03775e-05 -1.43707e-06 -4.26724e-20
1.0175e-05 -1.25148e-06 -1.33543e-19
1.45946e-05 3.11484e-06 -1.09282e-19
1.03806e-05 1.47306e-06 2.05447e-19
-8.22653e-06 9.08094e-06 -1.04786e-20
6.97714e-05 9.96923e-06 -2.13203e-20
1.74689e-05 6.68081e-05 1.70994e-19
3.73135e-05 -7.00651e-05 -9.53648e-20
2.30118e-05 -2.17609e-05 -9.74793e-22
2.30273e-05 2.17735e-05 1.32949e-19
1.0929e-06 3.43217e-06 1.65334e-20
3.50431e-05 6.48803e-05 4.63189e-20
3.8071e-05 -6.1323e-05 -9.47468e-20
4.03771e-05 -1.02593e-05 -4.29421e-20
4.86715e-06 -5.49359e-06 6.1132e-20
2.25625e-05 -4.05752e-06 -1.00111e-19
1.31022e-05 -3.233e-06 5.88063e-21
1.06242e-05 7.40655e-07 2.56804e-20
2.1894e-05 2.36617e-06 4.90692e-20
1.24963e-05 3.19194e-06 -1.68774e-19
4.37479e-06 2.14466e-05 -9.06797e-20
1.031e-05 -1.29243e-06 -7.51297e-20
6.81008e-06 2.86697e-07 -1.4556e-19
3.8071e-05 -6.1323e-05 -1.91328e-20
8.42207e-06 1.06563e-05 -3.74735e-20
2.73724e-05 -8.30418e-06 -6.19094e-20
2.73926e-05 8.30486e-06 1.65572e-19
1.03806e-05 1.47306e-06 1.90182e-19
1.05716e-05 -1.01026e-05 -8.54171e-20
1.05294e-05 1.01114e-05 1.22351e-19
3.54364e-05 -1.06988e-05 -7.05403e-20
2.6903e-05 -8.45038e-06 -1.01927e-19
3.54637e-05 1.07054e-05 -4.11996e-22
2.69216e-05 8.45154e-06 5.43404e-20
2.1127e-05 -1.64115e-05 -7.03895e-20
1.2454e-05 -7.20565e-07 -5.68761e-20
1.24533e-05 6.89524e-07 2.24159e-19
8.78589e-05 7.91942e-05 -1.17326e-19
-1.99594e-05 -6.05513e-05 6.2916e-20
5.20693e-06 6.93315e-07 -1.14498e-19
1.03775e-05 -1.43707e-06 -2.44125e-20
9.45412e-06 -1.11635e-06 5.25564e-20
1.89711e-05 6.7453e-06 -6.4358e-20
4.37479e-06 2.14466e-05 -1.41803e-19
-0.000128503 2.05093e-05 3.35977e-20
-0.000128417 -2.09201e-05 -3.58255e-20
2.15031e-05 -1.40457e-05 -1.60309e-19
5.8172e-06 -8.96333e-07 -3.85035e-20
1.12623e-05 1.14985e-06 -5.64003e-20
1.28488e-05 -5.82474e-08 -8.9174e-20
1.27233e-05 -1.48017e-07 5.1437e-21
9.98582e-06 -1.16459e-08 1.91772e-21
1.04774e-05 -5.29267e-09 -4.34179e-20
1.12684e-05 -1.17324e-06 -3.50715e-20
-1.0656e-05 -7.68509e-06 7.57756e-21
2.23572e-06 -8.59398e-06 -4.80625e-20
2.23734e-06 8.45151e-06 1.58034e-19
9.58235e-06 3.46564e-06 -2.91357e-20
2.1894e-05 2.36617e-06 -9.645e-20
1.26751e-05 1.23823e-07 -1.08022e-19
1.0507e-05 -3.3056e-08 1.22222e-20
2.1127e-05 -1.64115e-05 -2.67337e-20
2.25625e-05 -4.05752e-06 -1.68972e-19
1.89711e-05 6.7453e-06 -4.20078e-21
1.24963e-05 3.19194e-06 -1.14466e-19
1.06242e-05 7.40655e-07 -1.17367e-19
1.6728e-05 -1.3946e-05 -1.20412e-21
1.67333e-05 1.39794e-05 2.1648e-19
1.35803e-05 6.76126e-06 -1.47326e-19
1.34902e-05 -6.75557e-06 1.97077e-19
1.31022e-05 -3.233e-06 1.79606e-20
5.8172e-06 -8.96333e-07 -1.08078e-19
5.20693e-06 6.93315e-07 3.29711e-20
-2.29351e-06 -2.4401e-05 -1.35771e-20
-2.46825e-06 2.38725e-05 -1.01776e-19
8.42207e-06 1.06563e-05 1.56946e-21
9.76955e-06 3.33678e-06 3.13892e-21
1.29156e-05 8.12934e-08 -2.43721e-20
1.28488e-05 -5.82474e-08 -7.58581e-20
1.04774e-05 -5.29267e-09 -1.50276e-20
1.23331e-05 -1.36887e-06 -1.16851e-19
1.23595e-05 1.35924e-06 2.43084e-20
1.24533e-05 6.89524e-07 1.76604e-19
1.031e-05 -1.29243e-06 -4.84978e-20
1.2454e-05 -7.20565e-07 -6.68152e-20
1.58625e-05 -2.13062e-06 -6.36848e-20
1.58896e-05 2.11751e-06 2.84032e-19
1.03775e-05 -1.43707e-06 -6.25507e-20
1.03806e-05 1.47306e-06 8.95541e-20
1.36693e-05 1.09922e-07 -8.52748e-20
9.58235e-06 3.46564e-06 2.85496e-20
-2.46825e-06 2.38725e-05 -2.35407e-19
-2.29351e-06 -2.4401e-05 -6.43176e-20
3.66683e-05 4.72236e-05 7.80541e-20
1.2382e-05 -4.46289e-05 -2.25096e-20
-6.97642e-05 0.000113536 2.46166e-19
-8.17394e-05 -5.33714e-05 6.98033e-20
7.07579e-05 -7.50144e-05 -2.67974e-20
7.47403e-05 9.50839e-05 -1.83919e-21
8.43613e-05 6.09e-05 1.16923e-19
9.41054e-05 -3.0003e-05 1.94295e-19
1.97832e-05 -0.000106334 -2.18162e-20
0.000102986 3.48595e-05 9.84866e-20
-0.000131683 -1.73943e-05 1.38541e-19
-1.14188e-05 0.000111583 -1.06368e-20
0.00013376 8.09474e-05 3.38674e-20
0.000171242 -6.44036e-05 4.61044e-20
-8.57492e-05 -5.07101e-05 6.29479e-20
-8.37204e-05 4.606e-05 1.89326e-19
1.5192e-05 0.000101776 3.12594e-20
-1.26991e-06 -9.88686e-05 1.23874e-19
-1.06658e-05 -9.79023e-05 1.56845e-19
2.76958e-05 0.00010923 2.92438e-21
8.44624e-05 2.39932e-05 2.1384e-19
5.34777e-05 -4.515e-05 4.85297e-20
-1.27719e-05 5.58017e-05 1.84681e-19
1.80287e-05 -5.39608e-05 2.16979e-19
-0.000146801 0.000106331 6.17543e-20
-0.000130734 -7.13156e-05 1.36793e-19
0.000242469 -0.000112042 -2.18199e-20
0.000139201 0.000202133 5.23504e-21
0.00013376 8.09474e-05 8.47991e-20
0.000171242 -6.44036e-05 1.31466e-19
7.87841e-05 6.91755e-05 5.87153e-20
7.94551e-05 -4.14895e-05 1.82018e-19
-6.52377e-05 3.34819e-05 6.27334e-20
-6.78978e-05 -3.11901e-05 6.58086e-20
9.36381e-05 5.60191e-05 -7.50955e-21
9.35635e-05 -3.93213e-05 3.37368e-20
4.13862e-05 0.000140928 -4.08822e-20
-2.72628e-05 -0.000160223 5.02733e-20
-6.10974e-05 1.7715e-05 2.27901e-19
-6.62e-05 -1.60386e-05 -5.73837e-21
-2.89964e-06 -0.00022375 7.72694e-20
2.63323e-05 0.000237971 9.37295e-20
0.000234138 9.23936e-06 8.64992e-20
-0.000225614 -2.76301e-05 6.62147e-20
8.78465e-05 0.000105138 1.14695e-19
0.000107963 -0.000100935 1.80901e-19
-8.25645e-05 5.23694e-05 1.8388e-19
-0.00011154 -1.46524e-05 -4.04616e-20
-0.000108107 1.70194e-05 1.16265e-19
-8.79117e-05 -5.24893e-05 1.59897e-19
7.60175e-05 -0.000111835 -6.50557e-20
8.25243e-05 0.000127829 -2.85612e-20
0.000115064 -5.54447e-05 1.39246e-19
-6.97642e-05 0.000113536 2.59838e-19
-2.12298e-05 -0.000100817 9.42625e-20
0.000114983 7.26995e-05 8.33688e-20
-2.79281e-05 7.77219e-05 -6.4065e-20
7.74353e-05 -6.30377e-05 1.01887e-19
2.02886e-05 -0.000208732 -5.37138e-20
8.99499e-06 0.000173972 -3.60634e-20
0.000123286 0.000141692 1.20077e-19
0.000149297 -0.000149006 1.22368e-19
9.56091e-06 -2.42714e-05 1.7628e-19
-1.30613e-05 0.00011961 9.94062e-20
-9.24403e-06 -0.000113999 -1.49087e-20
2.97539e-05 6.93905e-05 1.01927e-19
-2.18382e-05 -7.00331e-05 1.20941e-19
3.51133e-06 9.78052e-05 6.28119e-20
6.18933e-06 -9.15624e-05 9.35213e-20
-0.000130734 -7.13156e-05 1.34843e-19
-1.06658e-05 -9.79023e-05 2.13103e-19
2.76958e-05 0.00010923 1.28043e-19
-6.00159e-05 -4.08878e-05 1.84713e-19
-0.000146801 0.000106331 4.29464e-20
3.72313e-05 5.92697e-05 -4.96086e-20
-9.24403e-06 -0.000113999 1.09496e-19
-6.52377e-05 3.34819e-05 8.3134e-20
0.000128709 8.25212e-05 7.12857e-20
0.000169652 -6.48987e-05 2.32894e-19
0.000114983 7.26995e-05 2.54223e-20
6.46877e-05 9.06784e-05 1.00976e-19
7.29916e-05 -7.9162e-05 8.37691e-20
0.000160472 6.34232e-05 1.13404e-19
0.00013376 8.09474e-05 2.99682e-20
0.000221889 -7.11919e-05 1.53929e-19
0.000171242 -6.44036e-05 8.87154e-20
-1.27719e-05 5.58017e-05 1.64089e-19
7.87841e-05 6.91755e-05 -6.56896e-20
7.94551e-05 -4.14895e-05 9.00936e-20
0.00010585 0.000176112 5.23589e-20
-0.000108568 -0.000203145 -1.57797e-19
-7.77272e-06 -1.86759e-05 3.57346e-19
0.000115064 -5.54447e-05 1.15825e-19
8.44624e-05 2.39932e-05 1.4712e-19
-6.90804e-05 2.14916e-05 6.71922e-20
-6.00159e-05 -4.08878e-05 1.19752e-19
-0.000230377 -4.07019e-06 -2.49349e-20
-0.000223939 5.30413e-06 5.1074e-20
-1.16954e-05 6.2572e-05 1.78577e-19
-8.79117e-05 -5.24893e-05 1.8277e-20
6.14791e-05 7.5866e-05 -8.46529e-21
-2.89964e-06 -0.00022375 -1.78721e-19
2.63323e-05 0.000237971 -3.01402e-20
-0.000225614 -2.76301e-05 1.09383e-19
0.000234138 9.23936e-06 1.47144e-20
5.30829e-05 -5.15578e-05 1.10828e-19
-7.78014e-05 5.11085e-05 2.3073e-19
1.35795e-05 7.32466e-05 2.11209e-19
1.55538e-05 -6.27128e-05 1.80391e-20
-0.000328375 0.000270432 2.02743e-20
-1.06658e-05 -9.79023e-05 8.90551e-20
-1.70823e-05 -0.000208889 -9.16238e-21
0.000220074 2.22989e-05 3.66188e-21
-1.27719e-05 5.58017e-05 1.09258e-19
3.51133e-06 9.78052e-05 2.30707e-19
-6.90804e-05 2.14916e-05 8.75929e-20
2.76958e-05 0.00010923 4.07314e-20
-0.000130734 -7.13156e-05 8.48862e-20
8.78465e-05 0.000105138 1.09369e-19
0.000107963 -0.000100935 4.90288e-20
6.99035e-05 2.50288e-05 7.8173e-20
7.12452e-05 3.16614e-05 2.54777e-19
6.18933e-06 -9.15624e-05 -6.12234e-20
-8.79117e-05 -5.24893e-05 9.44133e-20
-7.77272e-06 -1.86759e-05 2.84586e-19
-6.10974e-05 1.7715e-05 1.89381e-19
-6.62e-05 -1.60386e-05 -5.86197e-20
-6.52377e-05 3.34819e-05 1.89801e-19
0.000330244 -0.000253845 -4.88255e-20
-2.89964e-06 -0.00022375 -9.86852e-20
1.02328e-05 0.000218773 6.50716e-21
0.000234138 9.23936e-06 1.56239e-19
7.60175e-05 -0.000111835 -1.45091e-19
8.25243e-05 0.000127829 2.01597e-20
7.87841e-05 6.91755e-05 -6.24597e-21
-0.000146801 0.000106331 1.84114e-19
7.94551e-05 -4.14895e-05 4.11115e-20
8.43613e-05 6.09e-05 1.89587e-20
9.41054e-05 -3.0003e-05 1.49926e-19
0.000115064 -5.54447e-05 -6.6692e-20
0.000114983 7.26995e-05 -2.02786e-20
-0.000269955 0.000337415 -7.63482e-20
-0.000328375 0.000270432 9.53881e-21
-6.62e-05 -1.60386e-05 -1.95767e-20
-6.10974e-05 1.7715e-05 1.13958e-19
-2.72628e-05 -0.000160223 -1.23636e-19
4.13862e-05 0.000140928 1.53759e-21

CELL_DATA 2380
TENSORS stress float
0.012568 1.921 3.63755e-12
1.921 2.64229 3.16987e-11
3.63755e-12 3.16987e-11 0.0705651

-0.857413 1.27845 4.28705e-12
1.27845 1.3032 -1.15613e-11
4.28705e-12 -1.15613e-11 -0.361551

-0.89107 1.02598 2.22744e-12
1.02598 1.18429 -2.63982e-11
2.22744e-12 -2.63982e-11 -0.369231

2.47693 0.560435 -1.1658e-11
0.560435 -2.13886 -1.5159e-11
-1.1658e-11 -1.5159e-11 -0.281408

3.31765 0.222118 8.18974e-12
0.222118 -1.04503 1.42701e-13
8.18974e-12 1.42701e-13 0.00397309

-2.8474 1.20951 1.59444e-11
1.20951 -0.65404 -1.57997e-11
1.59444e-11 -1.57997e-11 -1.47604

-2.89891 1.12171 -1.53417e-11
1.12171 -0.679271 3.33341e-11
-1.53417e-11 3.33341e-11 -1.46924

3.41353 -0.280872 4.33572e-12
-0.280872 -0.906336 1.14992e-11
4.33572e-12 1.14992e-11 0.0588122

2.2488 0.0471802 -1.67649e-11
0.0471802 -3.31904 2.64977e-12
-1.67649e-11 2.64977e-12 -0.465621

0.926797 1.86565 -9.80394e-12
1.86565 3.80605 -1.15633e-11
-9.80394e-12 -1.15633e-11 0.237541

1.17379 -1.99511 -2.03542e-11
-1.99511 4.00346 -3.85447e-12
-2.03542e-11 -3.85447e-12 0.312773

3.55436 1.92977 2.50525e-11
1.92977 1.50084 1.21168e-11
2.50525e-11 1.21168e-11 0.270687

-1.61414 -1.58287 -2.55777e-11
-1.58287 -0.247501 -3.08327e-12
-2.55777e-11 -3.08327e-12 -1.15476

-1.64605 -1.79052 1.63747e-12
-1.79052 -0.096136 6.45487e-12
1.63747e-12 6.45487e-12 -1.17014

-1.38955 1.81741 -1.32242e-11
1.81741 1.7111 -1.35846e-11
-1.32242e-11 -1.35846e-11 -0.293728

-1.9897 2.17696 1.23313e-11
2.17696 1.0772 -3.37171e-12
1.23313e-11 -3.37171e-12 -0.443878

-2.93897 -0.827982 6.33469e-12
-0.827982 -0.741765 -1.37767e-11
6.33469e-12 -1.37767e-11 -1.50974

-2.92799 -0.893711 6.35814e-12
-0.893711 -0.725192 2.07138e-11
6.35814e-12 2.07138e-11 -1.52025

1.689 0.827048 -1.24291e-11
0.827048 -1.04708 -3.10022e-11
-1.24291e-11 -3.10022e-11 -0.207316

0.806799 0.72202 -3.77681e-11
0.72202 4.64533 -9.64044e-13
-3.77681e-11 -9.64044e-13 0.439388

0.891238 -0.690589 -1.73183e-11
-0.690589 4.78229 1.91258e-11
-1.73183e-11 1.91258e-11 0.478272

4.35594 0.591972 2.0427e-11
0.591972 1.68531 3.15601e-12
2.0427e-11 3.15601e-12 0.530273

0.0273108 2.14528 2.03289e-11
2.14528 2.09684 6.3598e-12
2.03289e-11 6.3598e-12 -0.036807

2.95472 -1.09649 1.63312e-11
-1.09649 -0.568977 1.97026e-11
1.63312e-11 1.97026e-11 -0.0680457

0.405216 1.96855 2.14856e-11
1.96855 1.07031 1.57046e-11
2.14856e-11 1.57046e-11 -0.0866913

0.040327 2.1445 -4.84079e-12
2.1445 2.72054 -3.02524e-11
-4.84079e-12 -3.02524e-11 0.0654161

2.60464 -0.463743 3.77685e-11
-0.463743 -2.29496 -1.49904e-11
3.77685e-11 -1.49904e-11 -0.270755

3.34454 1.66027 3.6035e-11
1.66027 6.50538 2.76552e-11
3.6035e-11 2.76552e-11 1.21585

2.02567 0.205486 1.42594e-11
0.205486 -3.32851 2.79386e-11
1.42594e-11 2.79386e-11 -0.516386

5.98434 1.66398 -3.83737e-11
1.66398 3.92991 -1.90435e-11
-3.83737e-11 -1.90435e-11 1.21848

-1.46197 0.262504 1.15366e-11
0.262504 -0.485924 6.93645e-12
1.15366e-11 6.93645e-12 -1.46815

-1.4607 0.0902092 -8.35726e-12
0.0902092 -0.52493 1.34875e-11
-8.35726e-12 1.34875e-11 -1.47354

-2.81382 0.935896 6.22339e-11
0.935896 -4.5445 2.98642e-11
6.22339e-11 2.98642e-11 -4.45274

-2.82727 -0.89763 -1.50286e-11
-0.89763 -4.53945 4.22914e-11
-1.50286e-11 4.22914e-11 -4.49525

4.8738 -0.694721 3.27605e-12
-0.694721 1.20063 3.81535e-11
3.27605e-12 3.81535e-11 0.558979

-0.908101 2.11664 -1.52232e-11
2.11664 0.691527 -3.24685e-11
-1.52232e-11 -3.24685e-11 -0.369177

-0.893515 0.386534 -4.81696e-12
0.386534 -1.79717 1.48359e-11
-4.81696e-12 1.48359e-11 -1.57675

-1.05923 -0.351117 3.91127e-11
-0.351117 -1.90958 3.62236e-11
3.91127e-11 3.62236e-11 -1.68909

2.5015 0.00401912 2.71693e-11
0.00401912 -3.61587 1.92554e-11
2.71693e-11 1.92554e-11 -0.424989

-0.155503 2.32109 1.63639e-12
2.32109 2.68231 -3.92135e-11
1.63639e-12 -3.92135e-11 0.00681723

2.69551 -1.41953 8.57484e-12
-1.41953 0.69237 -2.45205e-11
8.57484e-12 -2.45205e-11 0.161851

2.63757 -0.136635 -2.95782e-11
-0.136635 -3.61671 -2.39041e-11
-2.95782e-11 -2.39041e-11 -0.362363

0.0255627 -2.14966 1.59931e-11
-2.14966 2.20982 1.69568e-11
1.59931e-11 1.69568e-11 -0.0320562

0.0295648 -1.84245 1.39456e-11
-1.84245 2.6947 7.99649e-12
1.39456e-11 7.99649e-12 0.0785521

-1.79424 2.44724 2.01356e-11
2.44724 1.28896 1.38739e-11
2.01356e-11 1.38739e-11 -0.409538

2.19586 -2.29372 -4.53799e-11
-2.29372 1.34021 -3.21801e-11
-4.53799e-11 -3.21801e-11 0.114978

3.01967 4.68465 -1.38893e-11
4.68465 6.24507 -9.13166e-12
-1.38893e-11 -9.13166e-12 1.48857

5.87835 4.62913 1.80466e-11
4.62913 3.36142 4.09675e-11
1.80466e-11 4.09675e-11 1.48492

-2.56953 -2.1887 -3.02508e-11
-2.1887 0.149256 4.72161e-12
-3.02508e-11 4.72161e-12 -0.9174

4.3374 1.9654 -5.22723e-12
1.9654 8.28877 -5.32419e-12
-5.22723e-12 -5.32419e-12 1.96731

7.49884 1.76153 6.73387e-13
1.76153 4.6256 -3.68821e-11
6.73387e-13 -3.68821e-11 1.87041

-1.85322 -1.53328 3.34287e-11
-1.53328 -0.523943 -1.18504e-11
3.34287e-11 -1.18504e-11 -1.33465

-1.86083 1.52754 1.45471e-11
1.52754 -0.541582 -1.52206e-11
1.45471e-11 -1.52206e-11 -1.3346

1.87152 0.0440504 2.28332e-11
0.0440504 -1.53121 -3.06699e-11
2.28332e-11 -3.06699e-11 -0.157795

-2.07587 -1.33553 4.1039e-11
-1.33553 -1.16351 6.39674e-11
4.1039e-11 6.39674e-11 -1.50975

-2.08168 1.33141 2.50469e-11
1.33141 -1.16924 1.73422e-11
2.50469e-11 1.73422e-11 -1.50688

-1.29683 2.14556 -5.78001e-13
2.14556 1.95481 -1.9558e-11
-5.78001e-13 -1.9558e-11 -0.259876

-1.69501 0.877915 5.58767e-11
0.877915 -4.38276 5.57791e-11
5.58767e-11 5.57791e-11 -3.51988

-1.68724 -0.871362 -1.88822e-11
-0.871362 -4.41396 -2.84187e-11
-1.88822e-11 -2.84187e-11 -3.5468

-1.11061 -1.76987 -3.42008e-11
-1.76987 -0.185999 1.4018e-11
-3.42008e-11 1.4018e-11 -0.712017

-1.12874 1.75908 -3.18873e-11
1.75908 -0.196218 3.07795e-11
-3.18873e-11 3.07795e-11 -0.711631

3.87497 -1.90471 -3.24239e-11
-1.90471 1.37055 1.12252e-11
-3.24239e-11 1.12252e-11 0.323476

-3.97919 0.856592 -3.14414e-11
0.856592 -1.7487 -5.39613e-12
-3.14414e-11 -5.39613e-12 -3.39262

-3.98725 0.677462 -2.47706e-11
0.677462 -1.72331 -1.11752e-11
-2.47706e-11 -1.11752e-11 -3.37388

-0.201842 -2.36508 6.98378e-12
-2.36508 2.69136 4.21044e-11
6.98378e-12 4.21044e-11 -0.000993036

3.26065 -1.5655 1.88355e-11
-1.5655 7.04823 5.7333e-11
1.88355e-11 5.7333e-11 1.3082

6.73193 -1.55154 3.72677e-11
-1.55154 3.45563 -3.05143e-11
3.72677e-11 -3.05143e-11 1.29524

-1.87948 1.86937 -3.11055e-11
1.86937 1.37163 1.73409e-11
-3.11055e-11 1.73409e-11 -0.476206

-1.92717 1.73834 -2.8277e-11
1.73834 1.13308 -2.27376e-11
-2.8277e-11 -2.27376e-11 -0.497178

-4.28361 -2.59211 -4.06534e-11
-2.59211 -6.02358 9.81715e-14
-4.06534e-11 9.81715e-14 -5.51215

-4.28443 2.59136 2.37757e-10
2.59136 -6.01893 1.28904e-10
2.37757e-10 1.28904e-10 -5.50825

-1.94942 2.64974 8.95966e-12
2.64974 0.920682 1.01164e-11
8.95966e-12 1.01164e-11 -0.412291

0.168944 1.30017 -2.81312e-11
1.30017 -0.881723 -1.05018e-11
-2.81312e-11 -1.05018e-11 -0.485808

0.224449 -1.32296 -9.63455e-12
-1.32296 -0.888719 -1.08381e-11
-9.63455e-12 -1.08381e-11 -0.48614

-1.95343 2.53198 -1.31031e-11
2.53198 0.391057 -1.79203e-11
-1.31031e-11 -1.79203e-11 -0.58369

-2.47703 -2.3151 -1.62812e-11
-2.3151 0.345057 6.55157e-12
-1.62812e-11 6.55157e-12 -0.909013

4.60771 -0.026418 -1.19e-11
-0.026418 0.328058 5.44385e-12
-1.19e-11 5.44385e-12 0.324418

3.6761 1.03323 1.97479e-12
1.03323 -0.192351 1.75828e-12
1.97479e-12 1.75828e-12 0.136632

-0.533895 0.418945 -9.34527e-12
0.418945 -3.34247 -1.38729e-11
-9.34527e-12 -1.38729e-11 -1.57611

-5.28925 -0.647889 1.13098e-10
-0.647889 -5.62296 5.0095e-11
1.13098e-10 5.0095e-11 -5.91901

-5.25272 0.557474 -4.18092e-11
0.557474 -5.54165 8.4776e-11
-4.18092e-11 8.4776e-11 -5.86268

2.4153 1.914 -2.3461e-11
1.914 3.38399 -9.39486e-12
-2.3461e-11 -9.39486e-12 0.50166

0.686214 -1.67033 1.08876e-11
-1.67033 -0.138199 -6.5035e-12
1.08876e-11 -6.5035e-12 -0.312326

1.76529 1.00086 -3.61287e-11
1.00086 -0.368647 2.81741e-12
-3.61287e-11 2.81741e-12 -0.0756524

-4.74514 0.548579 1.9648e-11
0.548579 -3.19742 -4.4309e-12
1.9648e-11 -4.4309e-12 -4.45879

-4.73176 0.467724 5.35371e-11
0.467724 -3.18218 8.66971e-12
5.35371e-11 8.66971e-12 -4.46094

-0.711629 -0.306688 4.88457e-11
-0.306688 -3.36528 -5.78058e-12
4.88457e-11 -5.78058e-12 -1.68535

-0.980225 -0.654216 -8.5498e-13
-0.654216 1.18265 -1.40663e-11
-8.5498e-13 -1.40663e-11 -0.442113

-0.978016 -0.889445 -4.552e-12
-0.889445 1.26068 2.27371e-11
-4.552e-12 2.27371e-11 -0.441109

1.04821 -0.614205 5.00944e-12
-0.614205 -1.86422 1.63772e-11
5.00944e-12 1.63772e-11 -0.351048

1.03329 0.621172 3.12143e-11
0.621172 -1.91403 2.79414e-12
3.12143e-11 2.79414e-12 -0.354691

3.11805 -1.89917 2.41362e-13
-1.89917 3.05919 -7.6108e-12
2.41362e-13 -7.6108e-12 0.536761

2.79229 0.118324 -7.41866e-12
0.118324 -0.145336 -1.4138e-11
-7.41866e-12 -1.4138e-11 0.0811981

-0.132164 -0.930851 1.09827e-11
-0.930851 -1.82154 2.6427e-13
1.09827e-11 2.6427e-13 -0.769608

-0.162858 0.922035 3.38144e-11
0.922035 -1.81606 8.95996e-12
3.38144e-11 8.95996e-12 -0.766568

1.79326 -1.03868 -3.47802e-11
-1.03868 -0.282025 1.72216e-11
-3.47802e-11 1.72216e-11 -0.0627563

-0.00391055 -2.15394 -3.68997e-11
-2.15394 2.82344 8.76876e-12
-3.68997e-11 8.76876e-12 0.079809

1.12411 -0.690794 -1.92624e-13
-0.690794 -1.4368 -7.3699e-12
-1.92624e-13 -7.3699e-12 -0.351011

1.09966 0.697113 5.04822e-11
0.697113 -1.49239 -8.52514e-12
5.04822e-11 -8.52514e-12 -0.355563

1.99357 -0.453115 3.17927e-12
-0.453115 -1.54393 4.5088e-11
3.17927e-12 4.5088e-11 -0.2495

-1.71131 3.02352 -5.20246e-11
3.02352 1.08145 -3.43006e-11
-5.20246e-11 -3.43006e-11 -0.395441

2.16789 1.66504 9.1529e-12
1.66504 1.42316 1.42593e-11
9.1529e-12 1.42593e-11 0.21013

-2.10286 2.55946 -9.05476e-12
2.55946 0.968704 3.87297e-11
-9.05476e-12 3.87297e-11 -0.442537

-1.90266 2.8583 -2.16769e-11
2.8583 1.25688 -2.65918e-11
-2.16769e-11 -2.65918e-11 -0.388981

2.76075 1.23565 9.44156e-12
1.23565 0.0558173 1.44552e-12
9.44156e-12 1.44552e-12 0.00316444

-0.203773 -1.0218 6.55261e-12
-1.0218 -1.70847 -9.05572e-12
6.55261e-12 -9.05572e-12 -0.798879

2.11837 0.558496 -1.40669e-11
0.558496 -1.15876 -1.638e-12
-1.40669e-11 -1.638e-12 -0.161422

0.972787 2.10723 1.66201e-11
2.10723 1.52304 1.06954e-11
1.66201e-11 1.06954e-11 -0.0607726

0.554362 1.71031 2.38939e-11
1.71031 -0.123918 1.09353e-11
2.38939e-11 1.09353e-11 -0.336144

-2.38297 0.148236 1.46438e-11
0.148236 0.796634 -1.19467e-11
1.46438e-11 -1.19467e-11 -0.774823

-2.3607 0.23436 1.59807e-11
0.23436 0.803813 -2.54347e-11
1.59807e-11 -2.54347e-11 -0.772738

3.44099 -2.14784 2.40785e-12
-2.14784 1.73567 3.64092e-11
2.40785e-12 3.64092e-11 0.304142

-1.97611 -2.55188 2.06181e-11
-2.55188 0.39105 -2.69767e-11
2.06181e-11 -2.69767e-11 -0.587729

1.02894 -2.5178 9.00983e-12
-2.5178 2.74434 -2.58696e-11
9.00983e-12 -2.58696e-11 0.158074

1.03804 2.57889 8.72147e-12
2.57889 2.71137 7.57781e-11
8.72147e-12 7.57781e-11 0.156813

1.60168 -0.936479 -1.35847e-11
-0.936479 -0.697913 -1.34881e-12
-1.35847e-11 -1.34881e-12 -0.198091

1.39395 -0.139739 -2.21594e-11
-0.139739 -4.27109 -2.31202e-12
-2.21594e-11 -2.31202e-12 -0.938745

1.51319 0.156503 -1.15613e-11
0.156503 -4.12757 -3.41519e-11
-1.15613e-11 -3.41519e-11 -0.867543

-0.494518 1.36871 -3.10664e-12
1.36871 2.88288 3.79617e-11
-3.10664e-12 3.79617e-11 -0.069321

0.471483 -2.07068 6.84008e-12
-2.07068 1.08845 -3.8544e-12
6.84008e-12 -3.8544e-12 -0.0831072

-0.346863 -0.0461944 4.49707e-11
-0.0461944 4.56143 2.74611e-11
4.49707e-11 2.74611e-11 0.140878

-0.293908 0.101653 7.34653e-13
0.101653 4.6799 2.85692e-11
7.34653e-13 2.85692e-11 0.176727

4.43588 -0.0165732 3.17983e-12
-0.0165732 0.356276 -2.00405e-11
3.17983e-12 -2.00405e-11 0.24617

3.15943 2.01669 3.36261e-11
2.01669 3.20348 4.52912e-12
3.36261e-11 4.52912e-12 0.572817

1.59225 -2.36436 -1.88848e-11
-2.36436 1.31678 3.01579e-11
-1.88848e-11 3.01579e-11 -0.0179918

-6.62026 -1.16333 -1.4438e-10
-1.16333 -4.1012 1.54721e-12
-1.4438e-10 1.54721e-12 -6.16926

-6.59377 -1.07396 -1.78055e-11
-1.07396 -4.08999 4.25818e-11
-1.78055e-11 4.25818e-11 -6.14706

2.77845 -1.21061 3.3818e-11
-1.21061 -0.0596 9.46546e-12
3.3818e-11 9.46546e-12 -0.00945168

-1.16891 2.80934 1.59935e-11
2.80934 1.90813 1.51265e-11
1.59935e-11 1.51265e-11 -0.159614

1.91996 -0.0737735 -6.26258e-12
-0.0737735 -1.51223 2.08893e-11
-6.26258e-12 2.08893e-11 -0.14985

-0.536576 -1.34695 2.32684e-14
-1.34695 2.98526 2.40875e-11
2.32684e-14 2.40875e-11 -0.0578086

-2.45075 2.51633 -2.51929e-11
2.51633 0.519557 -1.63794e-11
-2.51929e-11 -1.63794e-11 -0.802091

-2.64521 2.36877 1.07412e-11
2.36877 0.326949 -1.09829e-11
1.07412e-11 -1.09829e-11 -0.820683

-1.7086 -3.01772 -1.26208e-11
-3.01772 1.06769 2.65908e-11
-1.26208e-11 2.65908e-11 -0.403697

-1.95666 2.91078 -1.63771e-11
2.91078 1.4416 5.97195e-12
-1.63771e-11 5.97195e-12 -0.327086

-1.28066 2.45667 4.47872e-12
2.45667 1.58366 -2.66873e-11
4.47872e-12 -2.66873e-11 -0.197799

1.11589 0.0055591 -2.04237e-11
0.0055591 -2.1713 -3.01091e-11
-2.04237e-11 -3.01091e-11 -0.229099

1.75371 2.32029 2.18704e-11
2.32029 1.23672 -4.33209e-13
2.18704e-11 -4.33209e-13 -0.00393164

-2.10547 -2.58139 1.06939e-11
-2.58139 0.949222 -6.74455e-13
1.06939e-11 -6.74455e-13 -0.448721

1.2751 2.0281 -1.71488e-11
2.0281 2.19815 6.10352e-11
-1.71488e-11 6.10352e-11 0.146241

2.43348 -1.75144 9.14824e-13
-1.75144 3.64707 1.60424e-11
9.14824e-13 1.60424e-11 0.534019

-0.927837 -2.1446 4.72011e-12
-2.1446 0.781508 1.57046e-11
4.72011e-12 1.57046e-11 -0.359427

0.80991 -1.22197 8.70759e-12
-1.22197 4.75009 1.09835e-11
8.70759e-12 1.09835e-11 0.460619

0.785802 1.19116 1.20558e-11
1.19116 4.70592 3.13634e-11
1.20558e-11 3.13634e-11 0.447035

4.21703 -0.839102 -3.48302e-11
-0.839102 1.73575 1.04905e-11
-3.48302e-11 1.04905e-11 0.526956

1.32076 -2.08361 -1.37746e-11
-2.08361 2.25004 -4.73061e-11
-1.37746e-11 -4.73061e-11 0.156091

-0.255646 0.323033 -1.14527e-11
0.323033 2.9644 -1.48378e-11
-1.14527e-11 -1.48378e-11 0.0742419

-0.261555 -0.0033818 4.74848e-11
-0.0033818 2.9247 -3.27579e-11
4.74848e-11 -3.27579e-11 0.0677017

2.02642 -2.40525 -9.92332e-12
-2.40525 3.54091 -2.22095e-11
-9.92332e-12 -2.22095e-11 0.37438

1.76993 2.435 -4.81541e-13
2.435 3.48577 1.42122e-11
-4.81541e-13 1.42122e-11 0.322544

1.1513 -0.213864 3.41041e-11
-0.213864 -2.57922 3.03455e-11
3.41041e-11 3.03455e-11 -0.375056

1.14903 0.224268 -2.25434e-11
0.224268 -2.59067 -6.67151e-12
-2.25434e-11 -6.67151e-12 -0.373544

-1.1672 2.64779 3.47791e-11
2.64779 1.69029 1.1851e-11
3.47791e-11 1.1851e-11 -0.190429

-2.51422 -2.41035 9.77879e-12
-2.41035 0.52756 -1.21397e-11
9.77879e-12 -1.21397e-11 -0.717189

-1.12023 1.75305 -2.79406e-11
1.75305 -0.192288 -5.41456e-11
-2.79406e-11 -5.41456e-11 -0.63721

4.95166 1.94093 4.62615e-12
1.94093 2.42185 1.89576e-11
4.62615e-12 1.89576e-11 0.751444

-0.524712 1.66078 -1.52225e-11
1.66078 3.33787 -2.6015e-11
-1.52225e-11 -2.6015e-11 0.00578722

-0.902239 1.15646 1.65706e-11
1.15646 -1.03838 3.23224e-11
1.65706e-11 3.23224e-11 -0.960868

-0.883844 -1.16488 5.27925e-11
-1.16488 -1.0223 1.89297e-11
5.27925e-11 1.89297e-11 -0.959751

0.389848 -1.58017 -1.10793e-11
-1.58017 0.0788105 6.26258e-12
-1.10793e-11 6.26258e-12 -0.294829

0.360672 1.56776 -5.83822e-11
1.56776 0.0609549 2.95753e-11
-5.83822e-11 2.95753e-11 -0.297681

5.463 0.518727 -5.54771e-11
0.518727 11.6911 -1.85259e-11
-5.54771e-11 -1.85259e-11 2.8716

10.9923 0.536953 4.73378e-11
0.536953 6.04358 2.26921e-11
4.73378e-11 2.26921e-11 2.84895

-0.688678 -1.57589 -4.86504e-12
-1.57589 3.3132 -2.98643e-12
-4.86504e-12 -2.98643e-12 -0.0292993

-2.63313 -1.25656 -9.40222e-11
-1.25656 -2.30253 3.60326e-11
-9.40222e-11 3.60326e-11 -2.61396

-2.63913 1.26066 -2.27345e-11
1.26066 -2.30244 5.21157e-11
-2.27345e-11 5.21157e-11 -2.61082

0.823729 1.9286 1.18502e-11
1.9286 0.908775 -8.04386e-12
1.18502e-11 -8.04386e-12 -0.0716281

5.70944 1.0573 -3.03768e-11
1.0573 1.5645 -8.60005e-12
-3.03768e-11 -8.60005e-12 0.733024

2.79355 -0.200988 1.9751e-11
-0.200988 -0.133258 -2.78387e-11
1.9751e-11 -2.78387e-11 0.0817349

-2.02159 -1.387 7.81594e-12
-1.387 0.991035 -1.8113e-11
7.81594e-12 -1.8113e-11 -0.597916

-1.95285 -1.51708 -3.47671e-11
-1.51708 1.08576 3.75862e-12
-3.47671e-11 3.75862e-12 -0.595775

1.25346 -2.29247 -8.91328e-12
-2.29247 2.09868 9.10516e-12
-8.91328e-12 9.10516e-12 0.0877717

-1.97404 -2.92307 -1.62813e-11
-2.92307 1.45122 8.96083e-12
-1.62813e-11 8.96083e-12 -0.334959

0.858781 -1.94947 2.42785e-11
-1.94947 0.973863 3.07329e-11
2.42785e-11 3.07329e-11 -0.0602284

-2.25664 2.8003 2.4567e-11
2.8003 0.951129 8.67162e-12
2.4567e-11 8.67162e-12 -0.399574

-1.78914 2.02531 5.65585e-13
2.02531 -0.163653 -3.09248e-11
5.65585e-13 -3.09248e-11 -1.20427

-1.74631 1.84011 -5.7719e-11
1.84011 -0.380217 2.98559e-12
-5.7719e-11 2.98559e-12 -1.1957

-1.2266 -2.65944 4.69664e-11
-2.65944 1.70375 -1.87888e-11
4.69664e-11 -1.87888e-11 -0.202346

-1.17815 2.40064 -2.38928e-11
2.40064 1.37619 1.83051e-11
-2.38928e-11 1.83051e-11 -0.219138

2.92396 1.66077 -7.46684e-12
1.66077 0.406444 -4.09476e-12
-7.46684e-12 -4.09476e-12 0.0911094

-1.95933 3.08118 -1.91234e-11
3.08118 1.27937 -1.35854e-11
-1.91234e-11 -1.35854e-11 -0.325283

-1.43857 -1.88298 2.48574e-11
-1.88298 1.76775 -1.54156e-11
2.48574e-11 -1.54156e-11 -0.29392

-1.25994 0.733328 -2.52953e-12
0.733328 2.59664 -1.51266e-11
-2.52953e-12 -1.51266e-11 -0.20953

-0.490132 2.23417 2.70719e-11
2.23417 0.493505 1.33917e-11
2.70719e-11 1.33917e-11 -0.378704

-1.0994 0.942029 -4.44147e-11
0.942029 2.61563 2.71691e-11
-4.44147e-11 2.71691e-11 -0.181851

-2.27693 -2.61528 -2.3073e-11
-2.61528 0.750025 4.62552e-12
-2.3073e-11 4.62552e-12 -0.683695

4.30994 -2.24454 4.96173e-12
-2.24454 4.55781 1.10328e-11
4.96173e-12 1.10328e-11 1.07323

4.42556 -2.26901 -4.61056e-11
-2.26901 4.43754 -4.47461e-11
-4.61056e-11 -4.47461e-11 1.07697

-0.480725 -2.24748 3.63211e-11
-2.24748 0.504525 9.92166e-12
3.63211e-11 9.92166e-12 -0.38122

1.69088 -0.848654 -2.57233e-11
-0.848654 -1.02041 7.42943e-12
-2.57233e-11 7.42943e-12 -0.209268

-3.35379 2.67024 1.77448e-10
2.67024 -4.56737 -5.44203e-11
1.77448e-10 -5.44203e-11 -4.55526

-3.35356 -2.67049 -8.30383e-11
-2.67049 -4.56716 -7.63881e-11
-8.30383e-11 -7.63881e-11 -4.55837

-1.25894 -2.79214 7.41969e-12
-2.79214 1.87785 -4.46082e-11
7.41969e-12 -4.46082e-11 -0.184003

-3.18297 0.585451 -1.21397e-11
0.585451 -2.67776 -4.72041e-12
-1.21397e-11 -4.72041e-12 -2.90987

-3.21442 -0.537997 5.91521e-11
-0.537997 -2.70937 7.80387e-12
5.91521e-11 7.80387e-12 -2.96537

3.02366 0.036013 -1.10803e-11
0.036013 -2.54917 -5.89652e-12
-1.10803e-11 -5.89652e-12 -0.158397

-2.25039 -2.81384 1.71482e-11
-2.81384 1.00853 6.84009e-12
1.71482e-11 6.84009e-12 -0.389949

3.56587 2.73476 -1.6962e-11
2.73476 3.80515 -6.45962e-11
-1.6962e-11 -6.45962e-11 0.714559

3.19295 2.59067 1.88387e-11
2.59067 3.71255 3.53634e-11
1.88387e-11 3.53634e-11 0.633697

2.52026 -1.9465 -8.53873e-12
-1.9465 6.09817 -4.13851e-11
-8.53873e-12 -4.13851e-11 0.951259

2.53802 2.041 -6.73535e-13
2.041 6.08214 -8.67099e-12
-6.73535e-13 -8.67099e-12 0.959532

5.82802 -1.61918 5.5501e-11
-1.61918 3.16107 1.61867e-11
5.5501e-11 1.61867e-11 1.02196

-1.9625 -3.09447 -1.48364e-11
-3.09447 1.35657 1.42594e-11
-1.48364e-11 1.42594e-11 -0.315145

0.946826 0.71723 -3.73494e-11
0.71723 6.43039 3.30033e-11
-3.73494e-11 3.30033e-11 0.718521

6.03787 0.915769 -2.939e-11
0.915769 1.68454 -5.74558e-12
-2.939e-11 -5.74558e-12 0.785684

-2.82479 -0.956328 -1.26704e-11
-0.956328 -1.25386 3.71871e-11
-1.26704e-11 3.71871e-11 -2.28796

-2.79074 -1.15719 -3.54156e-11
-1.15719 -1.26447 1.05979e-11
-3.54156e-11 1.05979e-11 -2.31181

1.59196 0.361825 8.09386e-12
0.361825 -1.39138 -1.49316e-11
8.09386e-12 -1.49316e-11 -0.343064

2.53655 0.0225833 2.75547e-11
0.0225833 -4.02152 -4.99755e-12
2.75547e-11 -4.99755e-12 -0.418074

0.582294 -1.76624 -8.86458e-12
-1.76624 3.72861 1.00695e-11
-8.86458e-12 1.00695e-11 0.183388

0.536592 1.72743 3.16028e-11
1.72743 3.70931 4.73102e-11
3.16028e-11 4.73102e-11 0.173567

2.92253 0.00018145 -1.34925e-12
0.00018145 -2.72123 -3.62555e-11
-1.34925e-12 -3.62555e-11 -0.204591

-1.37724 -2.13374 -2.83726e-11
-2.13374 1.95847 -2.1581e-11
-2.83726e-11 -2.1581e-11 -0.273888

-1.55427 -0.911149 3.46756e-12
-0.911149 -1.76235 -1.96533e-11
3.46756e-12 -1.96533e-11 -1.76926

-1.57243 0.909315 -1.50283e-11
0.909315 -1.76993 3.49208e-11
-1.50283e-11 3.49208e-11 -1.76951

-0.228794 1.25704 -2.5338e-11
1.25704 -0.00347583 -1.73476e-12
-2.5338e-11 -1.73476e-12 -0.476364

-1.23772 -2.39002 -3.52132e-11
-2.39002 1.38339 5.8778e-12
-3.52132e-11 5.8778e-12 -0.235318

1.71506 0.362181 1.15611e-11
0.362181 -2.87202 -8.66686e-13
1.15611e-11 -8.66686e-13 -0.550666

2.56179 1.99356 -9.20382e-12
1.99356 2.19137 -5.49691e-11
-9.20382e-12 -5.49691e-11 0.271531

-1.30274 -2.45557 2.7464e-12
-2.45557 1.55265 -1.58006e-11
2.7464e-12 -1.58006e-11 -0.216097

4.90325 -4.30968 9.40892e-12
-4.30968 5.0562 -3.67756e-11
9.40892e-12 -3.67756e-11 1.66844

-1.15927 -0.588444 6.28689e-12
-0.588444 2.49899 -1.13694e-11
6.28689e-12 -1.13694e-11 -0.211513

-1.02063 -0.805722 7.46681e-12
-0.805722 2.52321 -3.83471e-11
7.46681e-12 -3.83471e-11 -0.188309

-3.25511 -0.190604 1.07552e-11
-0.190604 -2.12382 -2.83238e-11
1.07552e-11 -2.83238e-11 -2.81494

-3.22868 -0.109943 6.47091e-12
-0.109943 -2.15012 -1.54125e-12
6.47091e-12 -1.54125e-12 -2.81505

0.517102 -0.668565 2.92866e-11
-0.668565 -2.28722 2.88519e-11
2.92866e-11 2.88519e-11 -0.522529

0.498835 0.669641 -1.11749e-11
0.669641 -2.29312 2.52873e-11
-1.11749e-11 2.52873e-11 -0.520971

-1.83081 -1.31651 2.21441e-12
-1.31651 -1.52916 3.18894e-11
2.21441e-12 3.18894e-11 -1.3708

-1.64857 1.35843 -1.09828e-11
1.35843 -1.56779 5.49092e-12
-1.09828e-11 5.49092e-12 -1.3043

-2.66216 -1.16837 3.96921e-11
-1.16837 -1.3843 -2.25427e-11
3.96921e-11 -2.25427e-11 -2.23731

-2.66172 1.21624 -4.7976e-11
1.21624 -1.36881 -2.50471e-12
-4.7976e-11 -2.50471e-12 -2.22001

-3.3504 1.81713 -3.14046e-11
1.81713 -3.49791 4.08429e-11
-3.14046e-11 4.08429e-11 -3.8082

-3.34954 -1.81442 9.24822e-11
-1.81442 -3.49722 -1.31693e-10
9.24822e-11 -1.31693e-10 -3.81156

-2.00088 -2.99931 1.72456e-11
-2.99931 0.651397 -1.02127e-11
1.72456e-11 -1.02127e-11 -0.59069

-1.99623 3.00969 -1.44462e-12
3.00969 0.616886 -8.28557e-12
-1.44462e-12 -8.28557e-12 -0.59035

0.980993 1.79004 -1.77266e-11
1.79004 0.141859 2.21586e-12
-1.77266e-11 2.21586e-12 -0.207496

-0.620746 -1.41328 -2.59388e-11
-1.41328 2.18162 -4.09464e-11
-2.59388e-11 -4.09464e-11 -0.0711225

-0.660909 -1.76377 -2.84693e-11
-1.76377 2.40832 4.82651e-13
-2.84693e-11 4.82651e-13 -0.0574779

3.43809 -1.78208 -3.52645e-11
-1.78208 2.93236 -4.46578e-11
-3.52645e-11 -4.46578e-11 0.582408

0.993725 -1.7872 3.58397e-11
-1.7872 0.21991 3.9404e-11
3.58397e-11 3.9404e-11 -0.197895

-0.600848 1.3336 -4.36203e-11
1.3336 2.15043 -2.52429e-11
-4.36203e-11 -2.52429e-11 -0.0707961

0.398203 2.50765 -3.24677e-11
2.50765 1.3562 -1.39807e-12
-3.24677e-11 -1.39807e-12 -0.106383

-2.55838 -2.59875 2.98711e-12
-2.59875 0.0247881 -8.76716e-12
2.98711e-12 -8.76716e-12 -0.871524

-2.55821 2.55095 -2.27356e-11
2.55095 -0.00862167 1.00191e-11
-2.27356e-11 1.00191e-11 -0.88567

0.389372 -2.5452 -8.24714e-11
-2.5452 1.36892 6.79549e-12
-8.24714e-11 6.79549e-12 -0.114685

1.35454 -0.251265 2.8807e-11
-0.251265 -1.57278 -7.22478e-13
2.8807e-11 -7.22478e-13 -0.477186

-6.45226 0.721103 6.09368e-12
0.721103 -5.21625 -3.02495e-11
6.09368e-12 -3.02495e-11 -6.37134

-6.40097 0.634252 7.76346e-11
0.634252 -5.26289 -3.84507e-13
7.76346e-11 -3.84507e-13 -6.36236

-1.26691 -2.23737 -2.53857e-11
-2.23737 1.36161 -9.73014e-12
-2.53857e-11 -9.73014e-12 -0.357137

-0.130954 1.09396 -3.41062e-11
1.09396 -1.5521 2.79352e-12
-3.41062e-11 2.79352e-12 -0.725493

0.595451 -0.270597 -2.6205e-11
-0.270597 -3.15628 -1.25232e-11
-2.6205e-11 -1.25232e-11 -1.35505

4.32758 -2.40636 -2.33665e-12
-2.40636 4.69634 1.89586e-11
-2.33665e-12 1.89586e-11 1.06963

4.34727 -2.35038 -1.07931e-11
-2.35038 4.66824 3.86399e-11
-1.07931e-11 3.86399e-11 1.0675

0.308422 -0.752703 3.42964e-11
-0.752703 -2.56664 -2.8426e-12
3.42964e-11 -2.8426e-12 -0.809049

0.27453 0.765271 1.13682e-11
0.765271 -2.56602 8.044e-12
1.13682e-11 8.044e-12 -0.807629

0.523599 0.222974 -8.95904e-12
0.222974 -3.16531 -1.70037e-11
-8.95904e-12 -1.70037e-11 -1.41368

-0.614691 1.75078 -5.90089e-11
1.75078 2.35827 4.90383e-11
-5.90089e-11 4.90383e-11 -0.054903

2.61778 1.37915 1.10805e-11
1.37915 1.13482 -9.00787e-12
1.10805e-11 -9.00787e-12 0.225433

-0.985016 -1.99303 -2.95749e-11
-1.99303 0.406453 -7.8997e-12
-2.95749e-11 -7.8997e-12 -0.576753

-0.999847 1.97757 -1.67647e-11
1.97757 0.397667 -8.26609e-11
-1.67647e-11 -8.26609e-11 -0.576015

-5.26236 -0.360715 6.35906e-12
-0.360715 -7.19839 -9.86154e-11
6.35906e-12 -9.86154e-11 -6.55349

-5.19727 0.364774 7.01345e-11
0.364774 -6.8999 -5.8263e-11
7.01345e-11 -5.8263e-11 -6.44221

-1.93436 -2.56408 4.23943e-12
-2.56408 1.26194 -1.82092e-11
4.23943e-12 -1.82092e-11 -0.412288

1.85802 1.09845 -3.53583e-11
1.09845 -0.338183 6.35865e-12
-3.53583e-11 6.35865e-12 -0.0801142

-0.309717 0.759979 5.53941e-11
0.759979 -1.25651 -3.61146e-12
5.53941e-11 -3.61146e-12 -0.87442

-0.284775 -0.763907 -5.68471e-12
-0.763907 -1.25105 -2.55777e-11
-5.68471e-12 -2.55777e-11 -0.87443

-1.31141 -1.99072 -3.81993e-11
-1.99072 1.10512 7.61184e-12
-3.81993e-11 7.61184e-12 -0.37579

-2.0205 -2.73674 4.43169e-11
-2.73674 1.03283 -1.32965e-11
4.43169e-11 -1.32965e-11 -0.37504

4.94933 -4.4684 2.29594e-11
-4.4684 5.18621 -4.98831e-12
2.29594e-11 -4.98831e-12 1.69373

-2.62085 1.86567 -4.43223e-12
1.86567 -0.000549107 -2.48554e-11
-4.43223e-12 -2.48554e-11 -1.20574

-2.65362 -1.89389 -2.3506e-11
-1.89389 0.00754892 -1.62809e-11
-2.3506e-11 -1.62809e-11 -1.21328

-2.10948 -2.37098 6.55075e-12
-2.37098 1.04662 1.11754e-11
6.55075e-12 1.11754e-11 -0.444429

2.69427 -1.48805 2.15812e-11
-1.48805 1.06494 2.51457e-11
2.15812e-11 2.51457e-11 0.229595

-0.19288 -1.18587 -7.51466e-12
-1.18587 -0.113959 1.50296e-11
-7.51466e-12 1.50296e-11 -0.518646

-1.83576 1.61459 1.48364e-11
1.61459 -0.510283 -1.81121e-11
1.48364e-11 -1.81121e-11 -1.0973

-1.90028 -1.67578 -1.03079e-11
-1.67578 -0.487746 -2.7168e-11
-1.03079e-11 -2.7168e-11 -1.11814

1.48703 -0.240758 2.82289e-11
-0.240758 -3.16351 4.76883e-11
2.82289e-11 4.76883e-11 -0.671703

-0.66367 0.590932 5.97263e-12
0.590932 -2.26346 -4.37363e-11
5.97263e-12 -4.37363e-11 -1.31019

-0.637355 -0.585144 3.29475e-11
-0.585144 -2.27015 -3.79564e-11
3.29475e-11 -3.79564e-11 -1.31214

-5.06715 0.262345 -7.39922e-11
0.262345 -2.17966 1.52208e-11
-7.39922e-11 1.52208e-11 -4.74822

-5.04607 0.174963 2.60742e-11
0.174963 -2.1924 5.43342e-11
2.60742e-11 5.43342e-11 -4.74992

5.10437 0.187694 3.49498e-13
0.187694 11.6931 -2.29115e-11
3.49498e-13 -2.29115e-11 2.81027

10.8408 0.166891 -2.70045e-11
0.166891 5.16596 2.85703e-11
-2.70045e-11 2.85703e-11 2.66154

-1.48605 -2.56052 -3.82465e-11
-2.56052 1.25272 3.2565e-11
-3.82465e-11 3.2565e-11 -0.391305

-1.48552 2.55327 -5.74182e-11
2.55327 1.23692 -4.43401e-12
-5.74182e-11 -4.43401e-12 -0.388209

-1.9863 -2.91602 6.25594e-13
-2.91602 1.38713 2.95774e-11
6.25594e-13 2.95774e-11 -0.350997

4.15603 -2.10025 -9.46754e-12
-2.10025 9.00703 3.25245e-11
-9.46754e-12 3.25245e-11 2.10428

8.52065 -2.0078 1.37793e-11
-2.0078 4.57594 3.66153e-11
1.37793e-11 3.66153e-11 2.09065

-5.62277 -2.67854 -6.60837e-11
-2.67854 -3.53391 3.8345e-11
-6.60837e-11 3.8345e-11 -4.83967

-5.62485 2.67807 -1.57967e-11
2.67807 -3.53253 7.36933e-11
-1.57967e-11 7.36933e-11 -4.83702

-1.18082 -1.76859 -3.55513e-11
-1.76859 -0.248541 2.76509e-11
-3.55513e-11 2.76509e-11 -0.661461

0.000782719 -2.45761 -3.67078e-11
-2.45761 1.71133 3.84427e-11
-3.67078e-11 3.84427e-11 -0.0805059

-1.38137 -2.58715 -4.41223e-11
-2.58715 0.573953 -1.82069e-11
-4.41223e-11 -1.82069e-11 -0.530966

-1.38867 2.57706 -8.83444e-11
2.57706 0.560667 -5.22207e-11
-8.83444e-11 -5.22207e-11 -0.529815

-0.922438 -2.77623 4.94255e-11
-2.77623 1.49432 -7.06222e-11
4.94255e-11 -7.06222e-11 -0.241726

0.0171854 2.45835 -4.54756e-11
2.45835 1.65339 -4.46099e-11
-4.54756e-11 -4.46099e-11 -0.0841798

2.01509 -0.79678 2.25826e-11
-0.79678 6.60824 -2.78457e-11
2.25826e-11 -2.78457e-11 0.961701

1.72006 0.964906 -4.28758e-12
0.964906 6.22992 8.76876e-12
-4.28758e-12 8.76876e-12 0.829134

6.09219 -0.606925 -5.10555e-12
-0.606925 2.81672 -3.82277e-11
-5.10555e-12 -3.82277e-11 1.01261

-0.894002 2.76185 2.89043e-11
2.76185 1.48676 4.72091e-11
2.89043e-11 4.72091e-11 -0.234077

1.03189 -0.495743 9.82764e-12
-0.495743 6.80175 3.77245e-11
9.82764e-12 3.77245e-11 0.819196

6.42648 -0.48019 4.27838e-11
-0.48019 1.31291 2.44733e-11
4.27838e-11 2.44733e-11 0.816391

-1.79308 -2.52851 1.61839e-11
-2.52851 0.207185 -8.96105e-12
1.61839e-11 -8.96105e-12 -0.80936

-1.78766 2.514 -2.89731e-13
2.514 0.195144 1.25198e-12
-2.89731e-13 1.25198e-12 -0.804513

-1.96694 -2.19991 1.72449e-11
-2.19991 0.169964 -2.92886e-11
1.72449e-11 -2.92886e-11 -0.94338

-1.96775 2.19124 5.97219e-12
2.19124 0.153315 -2.36994e-11
5.97219e-12 -2.36994e-11 -0.941782

4.36018 -2.1117 5.37819e-11
-2.1117 9.10316 -4.55351e-11
5.37819e-11 -4.55351e-11 2.19377

8.73312 -1.9536 -7.37418e-11
-1.9536 4.54227 -4.60115e-11
-7.37418e-11 -4.60115e-11 2.16086

-0.553021 2.33256 1.16589e-11
2.33256 1.17895 3.11184e-11
1.16589e-11 3.11184e-11 -0.227818

-0.541157 -2.3514 2.717e-11
-2.3514 1.21257 -3.26615e-11
2.717e-11 -3.26615e-11 -0.224637

-3.52491 -0.377507 -4.56385e-11
-0.377507 -2.62322 8.49699e-11
-4.56385e-11 8.49699e-11 -3.35427

-3.52893 -0.500452 5.24224e-11
-0.500452 -2.58447 -1.1754e-11
5.24224e-11 -1.1754e-11 -3.35465

-2.39566 -2.53948 1.66666e-11
-2.53948 0.731839 -1.34884e-11
1.66666e-11 -1.34884e-11 -0.846441

-2.40534 2.55118 2.37952e-11
2.55118 0.708919 1.44552e-12
2.37952e-11 1.44552e-12 -0.846892

-1.37486 -0.995342 -3.41027e-11
-0.995342 -2.4758 1.53659e-11
-3.41027e-11 1.53659e-11 -1.64225

-1.38904 0.995607 3.54525e-11
0.995607 -2.46822 -3.21278e-11
3.54525e-11 -3.21278e-11 -1.63807

-1.59954 2.10196 -8.18978e-12
2.10196 0.475077 -2.22555e-11
-8.18978e-12 -2.22555e-11 -0.599641

-1.63422 -2.09332 5.97344e-12
-2.09332 0.538536 -2.6398e-11
5.97344e-12 -2.6398e-11 -0.593954

-4.83958 -0.786474 -2.02423e-11
-0.786474 -1.74206 3.46824e-11
-2.02423e-11 3.46824e-11 -3.96215

-2.14309 -1.4346 -1.0982e-11
-1.4346 -2.87704 7.22476e-12
-1.0982e-11 7.22476e-12 -2.60846

-3.40136 -1.47287 3.62222e-11
-1.47287 -3.98096 3.63169e-11
3.62222e-11 3.63169e-11 -3.74329

-2.15766 1.44259 4.23885e-12
1.44259 -2.872 -3.35243e-11
4.23885e-12 -3.35243e-11 -2.60595

-3.40568 1.47642 -4.62409e-11
1.47642 -3.98054 -3.56464e-11
-4.62409e-11 -3.56464e-11 -3.7406

-4.87917 -0.610351 2.46137e-11
-0.610351 -1.67922 -7.01346e-11
2.46137e-11 -7.01346e-11 -3.94501

-3.556 -1.61011 3.83414e-11
-1.61011 -3.61646 -6.74395e-12
3.83414e-11 -6.74395e-12 -4.09506

-3.62575 1.66541 3.79582e-11
1.66541 -3.59016 4.08471e-11
3.79582e-11 4.08471e-11 -4.08131

-4.04362 -2.08834 2.27924e-10
-2.08834 -2.88415 -4.42865e-10
2.27924e-10 -4.42865e-10 -4.05021

0.0967452 -1.56168 1.84985e-09
-1.56168 -5.43331 8.22168e-10
1.84985e-09 8.22168e-10 -4.5893

0.0971122 1.56053 3.14824e-10
1.56053 -5.42811 -8.40831e-11
3.14824e-10 -8.40831e-11 -4.58476

-4.04939 2.08939 -2.92467e-10
2.08939 -2.88768 -7.71751e-11
-2.92467e-10 -7.71751e-11 -4.04824

-2.36184 -2.21585 -7.94784e-11
-2.21585 -2.4416 1.9847e-11
-7.94784e-11 1.9847e-11 -3.01922

-2.12091 -1.78584 -6.26192e-12
-1.78584 -0.34583 -2.53375e-11
-6.26192e-12 -2.53375e-11 -1.55238

-4.18346 -1.7048 -1.23327e-11
-1.7048 -4.1917 1.85059e-10
-1.23327e-11 1.85059e-10 -4.59288

-2.36602 2.21694 5.5683e-11
2.21694 -2.45194 1.32953e-11
5.5683e-11 1.32953e-11 -3.01814

-4.18493 1.70627 -4.68162e-11
1.70627 -4.19006 1.52399e-10
-4.68162e-11 1.52399e-10 -4.58918

-2.12245 1.78536 5.32747e-11
1.78536 -0.359425 3.87329e-13
5.32747e-11 3.87329e-13 -1.55092

-2.93979 -1.8413 9.73022e-12
-1.8413 -1.19397 -1.36799e-11
9.73022e-12 -1.36799e-11 -2.13936

-2.85665 -1.49927 -4.70107e-11
-1.49927 -2.29112 -7.77411e-11
-4.70107e-11 -7.77411e-11 -2.86597

-2.9399 1.84003 4.7204e-11
1.84003 -1.20343 2.12107e-12
4.7204e-11 2.12107e-12 -2.13668

-2.86424 1.49713 -3.14053e-11
1.49713 -2.30083 -3.08475e-12
-3.14053e-11 -3.08475e-12 -2.86532

-0.878156 1.20718 -3.66073e-12
1.20718 0.629961 -2.96739e-11
-3.66073e-12 -2.96739e-11 -0.285679

-2.39996 -0.348369 7.70786e-13
-0.348369 1.29037 2.15819e-11
7.70786e-13 2.15819e-11 -0.363749

1.39756 -0.388137 -3.37203e-11
-0.388137 -2.13492 2.54361e-11
-3.37203e-11 2.54361e-11 -0.0200989

2.20721 0.0124731 1.09843e-11
0.0124731 -1.15448 -1.90766e-11
1.09843e-11 -1.90766e-11 0.401172

-2.88228 1.21123 -5.58702e-12
1.21123 -1.09881 3.12149e-11
-5.58702e-12 3.12149e-11 -1.43813

-4.1514 -0.52699 -3.66121e-12
-0.52699 0.831934 -3.89221e-11
-3.66121e-12 -3.89221e-11 -1.27155

2.09511 0.679743 1.52227e-11
0.679743 -1.25166 1.29088e-11
1.52227e-11 1.29088e-11 0.355342

0.366612 0.865632 8.18889e-12
0.865632 -3.09618 2.04251e-11
8.18889e-12 2.04251e-11 -0.529876

0.846304 1.72316 -6.16573e-12
1.72316 3.2744 -3.0833e-11
-6.16573e-12 -3.0833e-11 1.66294

1.31283 1.66931 -5.78889e-13
1.66931 3.66074 -1.67655e-11
-5.78889e-13 -1.67655e-11 1.83286

3.57888 1.50179 -3.85455e-12
1.50179 1.38519 -7.70846e-13
-3.85455e-12 -7.70846e-13 1.89188

-1.84915 0.758967 3.44893e-11
0.758967 0.139562 -2.69912e-12
3.44893e-11 -2.69912e-12 -1.03754

-1.57096 -1.46537 -4.81717e-12
-1.46537 -0.747758 -2.75531e-11
-4.81717e-12 -2.75531e-11 -1.13724

0.00864108 -1.86315 9.63481e-12
-1.86315 0.530077 2.29293e-11
9.63481e-12 2.29293e-11 0.108285

-4.14522 0.632613 2.31126e-12
0.632613 0.932098 -2.92886e-11
2.31126e-12 -2.92886e-11 -1.27191

-2.90741 -0.701161 -7.70798e-12
-0.701161 -1.19056 -1.7149e-11
-7.70798e-12 -1.7149e-11 -1.4489

1.96625 0.480112 -2.7073e-11
0.480112 -2.19308 1.46425e-11
-2.7073e-11 1.46425e-11 -0.0630694

0.386165 0.794484 -3.33371e-11
0.794484 3.7481 -4.77902e-11
-3.33371e-11 -4.77902e-11 1.36733

0.931015 0.604697 1.0503e-11
0.604697 3.52811 7.51665e-12
1.0503e-11 7.51665e-12 1.36524

3.90223 0.463717 -8.38352e-12
0.463717 1.03485 -3.85469e-12
-8.38352e-12 -3.85469e-12 1.54736

-0.0343522 1.85777 -7.41833e-12
1.85777 2.08308 2.1967e-11
-7.41833e-12 2.1967e-11 0.474814

-0.764101 -1.1143 1.58952e-11
-1.1143 1.99573 4.74032e-11
1.58952e-11 4.74032e-11 0.463548

1.3614 1.07155 -1.83062e-11
1.07155 -2.4011 -2.11952e-12
-1.83062e-11 -2.11952e-12 -0.0872335

3.16983 1.25974 -1.23349e-11
1.25974 4.99588 2.31378e-12
-1.23349e-11 2.31378e-12 3.24103

0.808561 -0.480024 2.38933e-11
-0.480024 -3.54731 -2.69753e-11
2.38933e-11 -2.69753e-11 -0.46326

-1.44199 0.324326 1.8497e-11
0.324326 -1.05336 4.62456e-12
1.8497e-11 4.62456e-12 -1.46322

-2.24156 -0.085978 -7.32181e-12
-0.085978 0.441082 -3.69944e-11
-7.32181e-12 -3.69944e-11 -1.36236

-0.169036 1.88049 7.7455e-11
1.88049 -3.43535 1.04034e-11
7.7455e-11 1.04034e-11 -3.87601

-0.548209 -0.842563 7.43725e-11
-0.842563 -5.13938 -9.62443e-13
7.43725e-11 -9.62443e-13 -4.09147

-0.421566 -2.12937 -2.89039e-12
-2.12937 0.573058 4.43245e-12
-2.89039e-12 4.43245e-12 0.0449833

-0.272822 -1.79401 -1.05989e-11
-1.79401 1.89491 -8.09453e-12
-1.05989e-11 -8.09453e-12 0.448859

3.58507 -0.0210055 -2.59187e-11
-0.0210055 0.361381 -1.48374e-11
-2.59187e-11 -1.48374e-11 1.39124

-0.078892 1.16324 1.88842e-11
1.16324 -2.16926 1.34873e-11
1.88842e-11 1.34873e-11 -1.51421

-0.293581 -0.318115 1.19447e-11
-0.318115 -2.39113 5.02873e-11
1.19447e-11 5.02873e-11 -1.44282

0.26742 -0.188595 -1.9654e-11
-0.188595 -4.08716 -4.04628e-12
-1.9654e-11 -4.04628e-12 -0.642132

-0.773208 -1.36179 -1.18522e-11
-1.36179 1.44033 2.15847e-11
-1.18522e-11 2.15847e-11 0.362814

0.488203 0.265142 2.3124e-11
0.265142 -4.0936 1.71483e-11
2.3124e-11 1.71483e-11 -0.55038

2.08337 -1.33817 -1.73324e-12
-1.33817 0.630524 3.06384e-11
-1.73324e-12 3.06384e-11 0.763214

-0.241546 1.96854 3.931e-11
1.96854 1.0834 -3.16016e-11
3.931e-11 -3.16016e-11 0.371625

2.68366 1.46171 -1.90763e-11
1.46171 -0.418262 1.88818e-11
-1.90763e-11 1.88818e-11 0.756055

2.40134 -0.845285 -9.63492e-12
-0.845285 -0.438448 5.97411e-12
-9.63492e-12 5.97411e-12 0.681601

-0.402198 1.65992 3.58411e-11
1.65992 2.00947 2.23533e-11
3.58411e-11 2.23533e-11 0.512412

-3.06482 -1.23467 3.86025e-13
-1.23467 0.853756 2.54356e-11
3.86025e-13 2.54356e-11 -0.352894

-1.99886 2.20589 -6.45511e-12
2.20589 0.73574 -9.63459e-12
-6.45511e-12 -9.63459e-12 -0.368673

-0.0146404 -1.55423 1.02118e-11
-1.55423 1.94293 1.75342e-11
1.02118e-11 1.75342e-11 0.490219

-0.184898 2.0393 7.13033e-12
2.0393 2.03741 2.65915e-11
7.13033e-12 2.65915e-11 0.450009

9.51227 -1.72191 -2.11997e-11
-1.72191 9.799 1.19498e-11
-2.11997e-11 1.19498e-11 9.75783

9.50341 1.97788 4.81683e-12
1.97788 10.2203 -1.34916e-11
4.81683e-12 -1.34916e-11 9.80156

-3.66638 1.69324 -2.90941e-11
1.69324 0.138395 3.85349e-12
-2.90941e-11 3.85349e-12 -0.965827

-2.52469 -1.97859 2.67828e-11
-1.97859 -0.263611 -1.54152e-11
2.67828e-11 -1.54152e-11 -0.867456

-1.40621 1.8641 -3.85425e-12
1.8641 1.42218 -1.69573e-11
-3.85425e-12 -1.69573e-11 -0.0241375

5.89481 0.636311 1.69599e-11
0.636311 5.96895 1.69592e-11
1.69599e-11 1.69592e-11 6.48527

5.81451 -0.0105708 1.04049e-11
-0.0105708 6.45964 1.6573e-11
1.04049e-11 1.6573e-11 6.61294

-2.33852 -1.42101 -5.61642e-11
-1.42101 -1.73479 3.85393e-11
-5.61642e-11 3.85393e-11 -1.7455

-2.14958 0.69182 4.68191e-11
0.69182 -1.21649 -4.21965e-11
4.68191e-11 -4.21965e-11 -1.71579

2.31682 -0.041383 -1.58479e-11
-0.041383 -2.56176 5.78043e-12
-1.58479e-11 5.78043e-12 -0.0719659

-2.33882 -1.32447 -5.81385e-11
-1.32447 -1.71522 6.5128e-11
-5.81385e-11 6.5128e-11 -1.79012

-2.30855 0.474144 3.27357e-12
0.474144 -2.15854 -3.33332e-11
3.27357e-12 -3.33332e-11 -1.95401

-2.09178 -1.17294 5.20286e-12
-1.17294 1.3764 1.1553e-12
5.20286e-12 1.1553e-12 -0.00314603

-0.888334 1.7785 -1.69546e-11
1.7785 -2.91079 2.85159e-11
-1.69546e-11 2.85159e-11 -3.18067

-0.77378 -1.46607 -7.32314e-12
-1.46607 -4.55847 5.7788e-12
-7.32314e-12 5.7788e-12 -3.30803

-1.2618 -1.42115 3.17953e-12
-1.42115 -1.34006 1.27631e-11
3.17953e-12 1.27631e-11 -0.803219

-1.20507 1.08072 2.23027e-11
1.08072 -1.09777 -4.88455e-11
2.23027e-11 -4.88455e-11 -0.859278

-3.83165 0.113658 -2.2545e-11
0.113658 0.0785743 2.736e-11
-2.2545e-11 2.736e-11 -3.04074

-4.03111 0.85806 -2.50476e-12
0.85806 -2.18745 -2.46623e-11
-2.50476e-12 -2.46623e-11 -3.4671

2.94259 0.588865 3.84119e-13
0.588865 4.82352 -2.69817e-11
3.84119e-13 -2.69817e-11 3.29614

4.72907 0.602098 5.21265e-11
0.602098 3.01365 9.24614e-12
5.21265e-11 9.24614e-12 3.30713

-1.95835 1.77052 -2.52416e-11
1.77052 0.877158 -2.58203e-11
-2.52416e-11 -2.58203e-11 -0.344548

-3.07964 -1.07969 -1.96538e-11
-1.07969 1.10515 2.85185e-11
-1.96538e-11 2.85185e-11 -0.379712

-4.75149 -2.33111 -6.90604e-11
-2.33111 -2.09626 3.00603e-11
-6.90604e-11 3.00603e-11 -5.90845

-4.47845 1.39099 -1.47384e-10
1.39099 -6.8357 -1.11775e-11
-1.47384e-10 -1.11775e-11 -6.78058

1.57718 1.87743 1.6762e-11
1.87743 0.4646 5.39679e-12
1.6762e-11 5.39679e-12 0.635837

0.354314 0.719838 2.79291e-12
0.719838 -2.11081 3.21758e-11
2.79291e-12 3.21758e-11 -0.527021

0.286199 -0.944511 1.26701e-11
-0.944511 -2.11799 -8.09458e-12
1.26701e-11 -8.09458e-12 -0.471464

-0.312649 -1.01551 -9.63363e-12
-1.01551 -3.9429 1.96514e-11
-9.63363e-12 1.96514e-11 -1.462

3.45877 0.429325 -4.91394e-11
0.429325 0.288732 -2.69756e-12
-4.91394e-11 -2.69756e-12 1.36945

-0.533465 0.132011 -1.77257e-11
0.132011 -5.32582 -4.56644e-11
-1.77257e-11 -4.56644e-11 -4.8635

-0.779697 -0.266116 -5.58723e-11
-0.266116 -2.00839 6.58943e-11
-5.58723e-11 6.58943e-11 -4.46066

0.412318 2.25349 3.0835e-12
2.25349 -0.739179 3.08031e-12
3.0835e-12 3.08031e-12 0.0167946

1.99499 0.595128 -2.31229e-11
0.595128 -1.17754 2.31209e-11
-2.31229e-11 2.31209e-11 0.104442

1.98704 1.83445 -1.31044e-11
1.83445 2.67924 -3.632e-11
-1.31044e-11 -3.632e-11 1.56236

-3.64039 -1.04479 -7.70761e-12
-1.04479 -0.344495 5.01223e-12
-7.70761e-12 5.01223e-12 -3.77912

-4.71921 0.653768 -3.83424e-11
0.653768 -3.60211 -2.10965e-11
-3.83424e-11 -2.10965e-11 -4.51591

-0.0631839 1.89354 1.002e-11
1.89354 -3.12372 3.27548e-11
1.002e-11 3.27548e-11 -1.42799

-0.95686 -0.594375 -1.3585e-11
-0.594375 0.545297 2.60128e-11
-1.3585e-11 2.60128e-11 -0.340439

-2.49783 0.41993 2.60223e-12
0.41993 1.32238 2.00392e-11
2.60223e-12 2.00392e-11 -0.439196

1.43398 -0.289978 -1.61856e-11
-0.289978 -3.19748 -1.92665e-11
-1.61856e-11 -1.92665e-11 -0.424362

1.65044 0.212527 -5.85317e-12
0.212527 -3.32424 3.46754e-12
-5.85317e-12 3.46754e-12 -0.428455

2.93586 -1.20807 -3.27527e-12
-1.20807 2.17926 2.12004e-11
-3.27527e-12 2.12004e-11 1.7013

2.87327 0.0617054 -1.82577e-11
0.0617054 -1.07757 -1.54106e-12
-1.82577e-11 -1.54106e-12 0.443488

0.286017 0.240591 -3.88263e-11
0.240591 -3.12348 -1.88828e-11
-3.88263e-11 -1.88828e-11 -0.980804

-0.0721301 -0.518473 -1.92914e-11
-0.518473 -2.77552 4.66296e-11
-1.92914e-11 4.66296e-11 -0.933703

1.83957 -0.7074 1.84965e-11
-0.7074 -1.41359 -7.73807e-13
1.84965e-11 -7.73807e-13 0.0880052

1.32915 -0.332735 -2.1926e-12
-0.332735 -2.33872 1.38717e-11
-2.1926e-12 1.38717e-11 -0.360584

1.60416 0.141865 -2.33574e-12
0.141865 -2.33969 1.5608e-11
-2.33574e-12 1.5608e-11 -0.352732

1.24666 1.49273 -1.63815e-11
1.49273 -1.72516 -1.58015e-11
-1.63815e-11 -1.58015e-11 -0.048288

1.38273 -1.98017 6.74394e-12
-1.98017 1.17119 3.77692e-11
6.74394e-12 3.77692e-11 0.842194

-2.03294 2.58109 1.15613e-11
2.58109 0.49102 4.43149e-12
1.15613e-11 4.43149e-12 -0.456934

-2.58768 -2.19603 2.63994e-11
-2.19603 -0.563318 -3.93085e-11
2.63994e-11 -3.93085e-11 -0.51006

-3.13555 -1.63941 2.17728e-11
-1.63941 -0.685339 1.00193e-11
2.17728e-11 1.00193e-11 -0.650609

-1.98002 2.72559 -5.2981e-12
2.72559 0.852277 1.71488e-11
-5.2981e-12 1.71488e-11 -0.362657

2.80031 0.94557 6.45528e-12
0.94557 -0.743214 9.44184e-12
6.45528e-12 9.44184e-12 0.605216

4.27371 -1.13043 2.69984e-12
-1.13043 2.95134 2.33171e-11
2.69984e-12 2.33171e-11 2.88708

0.222631 2.15286 3.6805e-11
2.15286 -2.02774 5.54938e-11
3.6805e-11 5.54938e-11 -0.516858

1.37735 -0.720528 -2.63977e-11
-0.720528 -1.41321 3.33338e-11
-2.63977e-11 3.33338e-11 0.0721112

4.40121 -0.879051 -1.40673e-11
-0.879051 2.60291 1.33e-11
-1.40673e-11 1.33e-11 2.80578

0.463514 -1.74844 1.0019e-11
-1.74844 -0.590081 5.78021e-12
1.0019e-11 5.78021e-12 0.0349935

-3.42389 0.0116635 2.08095e-11
0.0116635 1.69294 9.25186e-16
2.08095e-11 9.25186e-16 -0.456839

-2.325 0.271186 1.86909e-11
0.271186 0.266691 3.33067e-16
1.86909e-11 3.33067e-16 -0.597658

0.887445 2.24096 5.04895e-11
2.24096 0.961034 2.19701e-11
5.04895e-11 2.19701e-11 0.6732

3.37532 -1.29911 6.55083e-12
-1.29911 1.16611 -6.16475e-12
6.55083e-12 -6.16475e-12 1.74874

-1.73873 2.38892 1.94624e-11
2.38892 -1.00966 -7.69403e-13
1.94624e-11 -7.69403e-13 -0.55205

-1.61869 -2.28954 2.52438e-11
-2.28954 -0.044597 -6.18528e-11
2.52438e-11 -6.18528e-11 -0.430058

0.609535 -1.69007 3.18201e-12
-1.69007 2.00415 -4.74049e-11
3.18201e-12 -4.74049e-11 0.84604

1.00885 -1.86408 -4.62534e-12
-1.86408 1.9947 -2.2353e-11
-4.62534e-12 -2.2353e-11 0.869034

1.22671 1.73957 -5.14489e-11
1.73957 -1.31797 -1.34896e-11
-5.14489e-11 -1.34896e-11 -0.0115214

0.450328 1.07138 2.69655e-12
1.07138 -4.97697 -6.5511e-12
2.69655e-12 -6.5511e-12 -1.11285

0.531386 -0.730467 -3.19863e-11
-0.730467 -5.42628 2.35069e-11
-3.19863e-11 2.35069e-11 -1.08078

-0.420316 1.38284 -1.95577e-11
1.38284 2.55073 1.65718e-11
-1.95577e-11 1.65718e-11 0.552769

0.433299 2.1265 -2.02333e-11
2.1265 0.0232976 -1.69573e-11
-2.02333e-11 -1.69573e-11 0.17815

-0.305529 0.199928 -1.07913e-11
0.199928 3.97115 -1.04041e-11
-1.07913e-11 -1.04041e-11 1.44403

0.248923 0.11063 -2.87121e-11
0.11063 3.87731 -8.28693e-12
-2.87121e-11 -8.28693e-12 1.48182

4.24548 0.0905396 1.17565e-11
0.0905396 0.230979 3.19872e-11
1.17565e-11 3.19872e-11 1.64838

1.38944 -1.59762 5.19338e-11
-1.59762 0.271776 -1.58051e-11
5.19338e-11 -1.58051e-11 0.627669

-6.46223 -1.09962 8.51588e-11
-1.09962 -4.42894 -5.01972e-11
8.51588e-11 -5.01972e-11 -6.20405

-0.581447 0.565854 6.06889e-11
0.565854 -0.563343 7.89952e-11
6.06889e-11 7.89952e-11 -4.42797

2.324 1.91767 1.38733e-11
1.91767 -0.135992 -1.65711e-11
1.38733e-11 -1.65711e-11 0.77937

2.72251 -0.798525 6.55257e-12
-0.798525 -0.895089 -2.04239e-11
6.55257e-12 -2.04239e-11 0.5671

4.06498 1.34645 1.85002e-11
1.34645 2.07238 -3.8155e-11
1.85002e-11 -3.8155e-11 2.56634

-2.34695 -1.39792 -9.62952e-13
-1.39792 0.505168 5.39583e-12
-9.62952e-13 5.39583e-12 -0.199329

-1.26292 2.53299 1.91587e-13
2.53299 1.31034 -2.73616e-11
1.91587e-13 -2.73616e-11 -0.0428963

2.35181 -0.0373221 -2.74569e-12
-0.0373221 -2.54709 -1.15623e-11
-2.74569e-12 -1.15623e-11 -0.0492042

-1.26015 1.27403 -1.07899e-11
1.27403 2.39256 1.11781e-11
-1.07899e-11 1.11781e-11 0.461185

-4.2481 -1.69443 3.46817e-11
-1.69443 0.1445 5.78069e-12
3.46817e-11 5.78069e-12 -0.981308

-2.62304 2.37836 -2.53352e-11
2.37836 0.0879007 6.82099e-11
-2.53352e-11 6.82099e-11 -0.834465

2.01247 1.4917 -2.02475e-12
1.4917 2.90982 -1.28148e-11
-2.02475e-12 -1.28148e-11 1.58241

2.9005 1.57268 9.64562e-13
1.57268 2.62618 -1.715e-11
9.64562e-13 -1.715e-11 1.74642

4.08477 1.2085 -1.34863e-11
1.2085 2.08616 8.09492e-12
-1.34863e-11 8.09492e-12 2.54335

-2.1946 2.61568 1.59455e-11
2.61568 1.08456 4.79793e-11
1.59455e-11 4.79793e-11 -0.368866

-3.18835 -1.8902 -7.22596e-12
-1.8902 -1.28045 -5.78045e-12
-7.22596e-12 -5.78045e-12 -0.721598

2.08348 0.0757219 -4.09419e-12
0.0757219 -3.67325 4.20033e-11
-4.09419e-12 4.20033e-11 -0.346936

-2.55452 1.78611 -4.43183e-12
1.78611 -1.33536 -2.89021e-11
-4.43183e-12 -2.89021e-11 -0.733499

-1.9797 -2.22769 -9.24925e-12
-2.22769 0.597312 3.19865e-11
-9.24925e-12 3.19865e-11 -0.366929

-0.900908 2.16128 -1.84983e-11
2.16128 -0.487237 -2.00399e-11
-1.84983e-11 -2.00399e-11 -0.245555

0.125074 -0.467985 2.31235e-11
-0.467985 3.50883 -1.88836e-11
2.31235e-11 -1.88836e-11 1.20434

0.739498 -0.620605 4.87549e-11
-0.620605 3.43829 -5.68486e-11
4.87549e-11 -5.68486e-11 1.22761

3.48391 -0.381087 3.99859e-11
-0.381087 0.679953 -6.93939e-12
3.99859e-11 -6.93939e-12 1.32144

0.984067 -1.31965 4.17212e-11
-1.31965 0.960496 1.9653e-11
4.17212e-11 1.9653e-11 0.641536

-0.249605 0.229804 7.70687e-12
0.229804 2.02838 -1.69562e-11
7.70687e-12 -1.69562e-11 0.348721

-1.58137 0.0759516 1.29093e-11
0.0759516 2.46421 6.1671e-12
1.29093e-11 6.1671e-12 0.267037

1.84213 -1.47753 3.96983e-11
-1.47753 3.33011 -1.92812e-12
3.96983e-11 -1.92812e-12 1.82501

1.72548 -1.40567 1.01159e-11
-1.40567 2.93502 2.04252e-11
1.01159e-11 2.04252e-11 1.78479

2.18337 -0.0840226 2.50976e-11
-0.0840226 -3.48405 -2.06171e-11
2.50976e-11 -2.06171e-11 -0.343946

1.96621 0.0932271 -2.55797e-11
0.0932271 -3.34236 -2.65894e-11
-2.55797e-11 -2.65894e-11 -0.344836

-1.86991 -1.74638 -1.19452e-11
-1.74638 -0.17286 -1.88805e-11
-1.19452e-11 -1.88805e-11 -0.24644

-1.37863 2.29485 1.01148e-11
2.29485 1.24934 -2.87101e-11
1.01148e-11 -2.87101e-11 -0.101327

-4.11062 1.48045 2.3131e-12
1.48045 0.0396831 3.66103e-11
2.3131e-12 3.66103e-11 -0.93647

-2.46179 -2.17588 -2.02317e-11
-2.17588 0.0609871 2.75544e-11
-2.02317e-11 2.75544e-11 -0.699419

-0.766948 -1.74134 1.36812e-11
-1.74134 -1.04345 1.86894e-11
1.36812e-11 1.86894e-11 -0.487534

-1.22047 -0.914119 -5.58847e-12
-0.914119 2.60834 1.92909e-12
-5.58847e-12 1.92909e-12 0.526053

-0.9453 0.273012 1.44031e-11
0.273012 -1.86233 -4.04639e-11
1.44031e-11 -4.04639e-11 -1.19869

-1.27725 -0.870518 -1.7871e-11
-0.870518 -2.19325 -3.36984e-12
-1.7871e-11 -3.36984e-12 -1.24454

0.675964 -1.34397 -3.12151e-11
-1.34397 -0.348441 -2.31126e-12
-3.12151e-11 -2.31126e-12 0.136268

0.243175 -1.14096 -3.64178e-11
-1.14096 -1.27118 1.92794e-12
-3.64178e-11 1.92794e-12 -0.321089

0.462751 0.960431 1.82798e-12
0.960431 -0.632512 -4.89421e-11
1.82798e-12 -4.89421e-11 -0.258648

5.28908 -0.526086 1.79236e-11
-0.526086 3.40214 -3.77725e-11
1.79236e-11 -3.77725e-11 5.99753

0.920619 2.26644 -9.92488e-12
2.26644 1.81713 3.0832e-11
-9.92488e-12 3.0832e-11 0.750798

4.09914 1.08543 3.21838e-11
1.08543 5.55665 -2.775e-11
3.21838e-11 -2.775e-11 6.11364

-0.471961 -1.21962 -1.11766e-11
-1.21962 2.45019 5.77978e-12
-1.11766e-11 5.77978e-12 0.545576

-3.51761 -1.19519 4.71947e-11
-1.19519 -2.15475 -6.8208e-11
4.71947e-11 -6.8208e-11 -3.29903

-2.81376 0.478242 2.2643e-12
0.478242 -3.33019 -4.23895e-11
2.2643e-12 -4.23895e-11 -3.43006

0.849868 1.47405 1.97501e-11
1.47405 0.244155 -2.48574e-11
1.97501e-11 -2.48574e-11 0.172496

2.83899 -0.0804067 6.84164e-12
-0.0804067 -1.21847 5.0095e-12
6.84164e-12 5.0095e-12 0.424566

1.85831 1.83808 5.37631e-11
1.83808 0.448435 -6.55009e-12
5.37631e-11 -6.55009e-12 0.701133

-3.00456 0.890755 -3.46818e-12
0.890755 1.46794 -4.62389e-12
-3.46818e-12 -4.62389e-12 -0.366809

-1.98562 -1.2304 -1.56083e-11
-1.2304 0.469601 1.15614e-11
-1.56083e-11 1.15614e-11 -0.445522

-1.74474 2.04067 -1.19449e-11
2.04067 -0.6318 3.62235e-11
-1.19449e-11 3.62235e-11 -1.19813

-1.81454 -1.12951 -3.54539e-11
-1.12951 -0.194974 2.31163e-12
-3.54539e-11 2.31163e-12 -1.08491

-2.26412 2.77751 1.55116e-11
2.77751 0.824458 1.86911e-11
1.55116e-11 1.86911e-11 -0.392644

-4.33491 -2.63221 -2.2063e-11
-2.63221 -0.673377 1.19476e-11
-2.2063e-11 1.19476e-11 -0.776513

-1.92256 1.43905 -1.15627e-11
1.43905 1.24552 -6.16585e-12
-1.15627e-11 -6.16585e-12 -0.0286049

-1.22042 0.729603 -7.51567e-12
0.729603 1.95945 -1.56085e-11
-7.51567e-12 -1.56085e-11 0.172166

-0.646486 -1.61446 -1.75335e-11
-1.61446 -0.907457 -4.62304e-12
-1.75335e-11 -4.62304e-12 -0.308161

-0.575346 1.70716 -1.95589e-11
1.70716 -0.408419 -5.54935e-11
-1.95589e-11 -5.54935e-11 -0.331384

1.3942 1.7407 4.13321e-11
1.7407 1.52894 1.52255e-11
4.13321e-11 1.52255e-11 0.730304

-1.42025 -1.70867 -3.6996e-11
-1.70867 1.2532 2.81341e-11
-3.6996e-11 2.81341e-11 -0.0303356

-1.94599 -0.303089 -1.28141e-11
-0.303089 2.51603 -1.42581e-11
-1.28141e-11 -1.42581e-11 0.253156

4.93334 1.22957 -3.85101e-12
1.22957 5.7877 2.11875e-12
-3.85101e-12 2.11875e-12 4.8254

5.63502 1.2725 -3.52668e-11
1.2725 4.97577 1.92702e-11
-3.52668e-11 1.92702e-11 4.8013

2.22821 -1.47639 2.79412e-11
-1.47639 2.71987 5.0091e-12
2.79412e-11 5.0091e-12 1.67723

1.84906 -0.55338 1.20907e-11
-0.55338 -2.18787 -7.32299e-12
1.20907e-11 -7.32299e-12 -0.0565256

-4.45923 -1.85469 -1.21793e-10
-1.85469 -3.40366 -2.81244e-11
-1.21793e-10 -2.81244e-11 -5.56335

-2.90273 1.92713 -3.61276e-11
1.92713 -5.72155 -2.9093e-11
-3.61276e-11 -2.9093e-11 -5.71522

-1.64717 1.88379 7.68348e-13
1.88379 -1.61352 -8.86398e-12
7.68348e-13 -8.86398e-12 -2.49192

-2.54506 -0.493117 2.62015e-11
-0.493117 -3.57934 1.67619e-11
2.62015e-11 1.67619e-11 -2.89617

1.03411 -0.0206361 -2.50496e-12
-0.0206361 -2.69621 -1.73326e-12
-2.50496e-12 -1.73326e-12 -0.17079

-2.12246 -2.46832 -1.40668e-11
-2.46832 0.556217 3.95014e-11
-1.40668e-11 3.95014e-11 -0.342103

-3.88477 2.57805 -1.52229e-11
2.57805 -0.755138 -8.86356e-12
-1.52229e-11 -8.86356e-12 -0.774028

3.96211 -1.19954 -6.16592e-12
-1.19954 4.53552 5.41521e-11
-6.16592e-12 5.41521e-11 3.73563

3.93617 1.54679 2.50592e-12
1.54679 3.964 -8.38396e-12
2.50592e-12 -8.38396e-12 3.62886

2.13271 -0.558669 -1.88854e-11
-0.558669 4.63744 2.08158e-11
-1.88854e-11 2.08158e-11 2.91454

2.48994 -0.687871 1.29114e-11
-0.687871 4.5689 3.85399e-11
1.29114e-11 3.85399e-11 2.79871

4.81536 -0.4808 -1.57068e-11
-0.4808 2.30382 -1.29098e-11
-1.57068e-11 -1.29098e-11 2.9272

2.16812 1.81996 -4.62674e-12
1.81996 1.8187 -5.51118e-11
-4.62674e-12 -5.51118e-11 1.48576

2.41973 0.542218 2.58235e-11
0.542218 5.49183 1.19481e-11
2.58235e-11 1.19481e-11 3.66267

5.26019 0.119366 -2.17777e-11
0.119366 2.4713 -9.44176e-12
-2.17777e-11 -9.44176e-12 3.58961

-2.65412 -0.216478 2.67785e-11
-0.216478 0.256024 7.32076e-12
2.67785e-11 7.32076e-12 -1.97255

-2.7638 -0.792898 1.79185e-11
-0.792898 -1.73107 4.24852e-11
1.79185e-11 4.24852e-11 -2.30309

0.677531 -0.615105 4.56685e-11
-0.615105 -1.93935 -3.85356e-11
4.56685e-11 -3.85356e-11 -0.351154

0.563506 0.27288 -5.78054e-12
0.27288 -5.63839 7.70698e-12
-5.78054e-12 7.70698e-12 -0.804183

0.520555 -1.20087 3.89267e-11
-1.20087 2.9912 -4.70207e-11
3.89267e-11 -4.70207e-11 1.19307

0.262929 -0.86402 6.75867e-13
-0.86402 2.84903 -7.36121e-11
6.75867e-13 -7.36121e-11 1.16281

1.2731 0.575854 -2.21595e-11
0.575854 -2.56616 -2.38928e-11
-2.21595e-11 -2.38928e-11 -0.0997281

-2.41107 -0.57126 -3.61501e-11
-0.57126 -2.04826 2.35065e-11
-3.61501e-11 2.35065e-11 -2.29362

-1.70037 -0.00962766 3.26585e-11
-0.00962766 -2.65922 -3.85455e-12
3.26585e-11 -3.85455e-12 -2.3272

-0.269212 -1.21439 8.47844e-12
-1.21439 -0.7341 3.86062e-13
8.47844e-12 3.86062e-13 -0.38339

-1.0679 2.01211 8.86356e-12
2.01211 -0.278822 -3.00579e-11
8.86356e-12 -3.00579e-11 -0.174237

-1.30505 -2.11697 2.06187e-11
-2.11697 0.964708 -4.72087e-11
2.06187e-11 -4.72087e-11 -0.0864565

0.847466 -0.547345 2.3116e-12
-0.547345 -3.19409 -5.20406e-12
2.3116e-12 -5.20406e-12 -0.452241

-1.98625 1.68924 -3.85072e-13
1.68924 0.32046 -3.04461e-11
-3.85072e-13 -3.04461e-11 -0.212394

-1.20051 -2.24346 5.33747e-11
-2.24346 0.916181 -3.02542e-11
5.33747e-11 -3.02542e-11 -0.0670339

9.96596 -2.50822 1.23327e-11
-2.50822 10.149 4.37457e-11
1.23327e-11 4.37457e-11 10.2756

-1.83468 0.536555 -2.52429e-11
0.536555 2.51525 1.50297e-11
-2.52429e-11 1.50297e-11 0.263353

-1.00444 -0.487753 -3.85419e-12
-0.487753 1.80702 1.92291e-13
-3.85419e-12 1.92291e-13 0.196946

-3.60296 0.264356 -1.44504e-11
0.264356 0.913423 -1.61849e-11
-1.44504e-11 -1.61849e-11 -2.30724

-3.21085 -0.0301287 3.25627e-11
-0.0301287 -2.48587 3.4676e-12
3.25627e-11 3.4676e-12 -2.81218

1.02017 -0.103559 -1.18985e-11
-0.103559 -3.51077 -2.65892e-11
-1.18985e-11 -2.65892e-11 -0.736648

1.39544 0.165441 2.79879e-11
0.165441 -3.79466 -3.10216e-11
2.79879e-11 -3.10216e-11 -0.746641

-0.731517 2.41703 8.40091e-11
2.41703 -1.94495 3.85584e-12
8.40091e-11 3.85584e-12 -1.11881

-1.26 -1.37777 -2.5627e-11
-1.37777 -2.23048 4.64371e-11
-2.5627e-11 4.64371e-11 -1.19055

-0.365029 0.884246 -1.81114e-11
0.884246 -1.62152 3.02475e-11
-1.81114e-11 3.02475e-11 -1.85077

-1.50986 -0.482114 3.15995e-11
-0.482114 -1.6404 -3.3334e-11
3.15995e-11 -3.3334e-11 -1.97989

-3.67996 1.00763 2.29167e-11
1.00763 -4.66441 3.46809e-12
2.29167e-11 3.46809e-12 -4.88489

-3.42383 -2.85591 8.59833e-12
-2.85591 -2.16339 -6.93634e-11
8.59833e-12 -6.93634e-11 -4.31707

-2.46974 2.517 4.08498e-11
2.517 0.12174 4.77864e-11
4.08498e-11 4.77864e-11 -0.800697

-3.59425 -3.11208 -1.63762e-12
-3.11208 -1.51393 -1.34899e-11
-1.63762e-12 -1.34899e-11 -1.04612

1.04713 1.34447 3.08364e-12
1.34447 -0.859526 -5.77445e-13
3.08364e-12 -5.77445e-13 0.0184235

-1.86107 1.06976 -2.42779e-11
1.06976 1.60765 2.65922e-11
-2.42779e-11 2.65922e-11 0.0198111

0.0642464 -1.7417 4.12367e-11
-1.7417 0.0106536 -7.74344e-13
4.12367e-11 -7.74344e-13 0.152498

-0.648831 -1.33911 -2.23495e-11
-1.33911 1.48401 -3.46789e-12
-2.23495e-11 -3.46789e-12 0.13961

0.900491 -1.25267 -1.57048e-11
-1.25267 -1.05049 -1.61844e-11
-1.57048e-11 -1.61844e-11 0.0310145

-0.672308 1.48978 -3.38914e-13
1.48978 1.63874 -4.47044e-11
-3.38914e-13 -4.47044e-11 0.145746

0.414908 2.11526 -2.4761e-11
2.11526 0.522223 -2.56278e-11
-2.4761e-11 -2.56278e-11 0.197773

-2.61823 2.79624 1.3295e-11
2.79624 -1.40358 -2.92857e-11
1.3295e-11 -2.92857e-11 -1.00939

-2.15783 -2.08142 -1.44512e-11
-2.08142 -0.400401 1.75343e-11
-1.44512e-11 1.75343e-11 -0.786438

0.756869 1.27534 4.39336e-11
1.27534 -1.93658 6.24293e-11
4.39336e-11 6.24293e-11 -0.467849

-0.673468 0.943178 3.96947e-11
0.943178 -1.2086 1.00956e-10
3.96947e-11 1.00956e-10 -4.60341

-6.37804 0.901422 -1.60687e-10
0.901422 -5.72053 1.82833e-12
-1.60687e-10 1.82833e-12 -6.45931

-0.0381351 -1.28912 2.29317e-11
-1.28912 -1.89944 -4.6243e-11
2.29317e-11 -4.6243e-11 -0.470831

0.0864087 0.0845109 -6.16576e-12
0.0845109 -3.45539 1.84979e-11
-6.16576e-12 1.84979e-11 -1.35766

4.63052 -1.0949 -2.33216e-11
-1.0949 5.47772 -1.69578e-11
-2.33216e-11 -1.69578e-11 4.55549

5.30629 -0.901075 -3.64239e-11
-0.901075 4.38982 9.63381e-12
-3.64239e-11 9.63381e-12 4.38897

0.306867 0.10155 3.9405e-11
0.10155 -3.23039 3.5836e-11
3.9405e-11 3.5836e-11 -1.03111

0.928844 -0.150672 3.15274e-11
-0.150672 -3.52297 -4.41241e-11
3.15274e-11 -4.41241e-11 -1.00359

0.200313 0.259334 -3.08217e-12
0.259334 -2.03785 3.54521e-11
-3.08217e-12 3.54521e-11 -1.21918

-1.86701 -0.784515 -3.63006e-13
-0.784515 1.72629 -8.86332e-12
-3.63006e-13 -8.86332e-12 0.066557

2.6225 1.04314 1.48395e-11
1.04314 0.35113 2.67824e-11
1.48395e-11 2.67824e-11 0.725995

-1.40611 -1.6278 -2.45726e-12
-1.6278 -1.34564 -5.7818e-12
-2.45726e-12 -5.7818e-12 -0.80579

-1.16536 1.34639 5.49024e-12
1.34639 -0.169101 5.20069e-12
5.49024e-12 5.20069e-12 -0.677608

-1.82538 0.162254 1.04011e-11
0.162254 -0.214236 -6.17834e-11
1.04011e-11 -6.17834e-11 -4.64425

-3.54956 1.53583 5.43349e-11
1.53583 -7.00245 1.10644e-12
5.43349e-11 1.10644e-12 -6.14606

1.12687 -1.02056 -5.83856e-11
-1.02056 -0.928822 4.23953e-12
-5.83856e-11 4.23953e-12 0.0728444

-0.0613484 -0.0468531 -4.99749e-11
-0.0468531 -2.15645 8.47798e-12
-4.99749e-11 8.47798e-12 -1.10444

-0.41942 -0.360172 -4.42197e-11
-0.360172 -1.79666 4.24224e-12
-4.42197e-11 4.24224e-12 -1.04203

-1.28155 -1.84866 -9.63239e-13
-1.84866 0.527594 -4.39333e-11
-9.63239e-13 -4.39333e-11 -0.301362

-2.40474 0.956718 -1.71459e-11
0.956718 0.473344 1.69561e-11
-1.71459e-11 1.69561e-11 -0.436056

-2.90443 1.76903 2.08097e-11
1.76903 -0.854975 -7.707e-12
2.08097e-11 -7.707e-12 -0.632575

-1.96244 -2.50488 3.4681e-12
-2.50488 0.625773 8.67098e-12
3.4681e-12 8.67098e-12 -0.315081

10.6121 3.2008 -4.62726e-12
3.2008 10.3158 -5.01051e-11
-4.62726e-12 -5.01051e-11 10.4637

-2.39234 1.83598 -8.86363e-12
1.83598 -0.736367 1.71493e-11
-8.86363e-12 1.71493e-11 -1.2338

-2.27826 -1.4068 -2.96711e-11
-1.4068 -0.478452 -6.64746e-11
-2.96711e-11 -6.64746e-11 -1.13067

-2.77792 1.67661 -1.25235e-11
1.67661 0.193436 -3.42994e-11
-1.25235e-11 -3.42994e-11 -0.422615

-2.01175 -2.11634 5.00975e-11
-2.11634 0.55852 -3.69987e-11
5.00975e-11 -3.69987e-11 -0.339135

2.48862 -0.995605 1.25243e-11
-0.995605 -0.108617 -4.04654e-11
1.25243e-11 -4.04654e-11 0.64623

-0.0378473 1.81218 2.40859e-11
1.81218 -1.1693 -1.65705e-11
2.40859e-11 -1.65705e-11 -0.47536

-0.4011 1.94245 3.16e-11
1.94245 -1.8023 4.0466e-11
3.16e-11 4.0466e-11 -0.954389

-1.17567 -1.28533 -3.91147e-11
-1.28533 -1.20487 -1.36781e-11
-3.91147e-11 -1.36781e-11 -0.964127

0.928241 1.22013 4.10418e-11
1.22013 -3.40575 1.07915e-11
4.10418e-11 1.07915e-11 -0.564242

-0.817073 0.237846 3.51631e-11
0.237846 -2.21228 3.23683e-11
3.51631e-11 3.23683e-11 -1.58892

-0.333961 -0.347955 5.05662e-11
-0.347955 -3.02092 3.81479e-11
5.05662e-11 3.81479e-11 -1.69487

-5.03785 0.411948 -8.22707e-11
0.411948 -2.45972 1.31976e-11
-8.22707e-11 1.31976e-11 -4.78378

-4.25144 -0.650506 1.69543e-11
-0.650506 0.117374 4.97114e-11
1.69543e-11 4.97114e-11 -4.27403

6.16102 -0.300927 3.10287e-11
-0.300927 4.26944 3.50737e-11
3.10287e-11 3.50737e-11 6.27126

3.59715 -0.063188 2.17757e-11
-0.063188 6.1293 2.89099e-11
2.17757e-11 2.89099e-11 6.18577

-1.71208 2.09599 -4.67237e-12
2.09599 0.776634 -5.78009e-12
-4.67237e-12 -5.78009e-12 -0.441377

-2.09028 -1.80444 3.97891e-11
-1.80444 -0.929924 -2.35078e-11
3.97891e-11 -2.35078e-11 -0.62467

6.57643 1.12534 3.12205e-11
1.12534 6.4659 -3.4688e-11
3.12205e-11 -3.4688e-11 7.242

6.61127 1.45502 -2.77493e-11
1.45502 6.02509 1.11791e-11
-2.77493e-11 1.11791e-11 7.04749

-9.30779 -2.30725 -7.65286e-11
-2.30725 -1.98004 7.5915e-11
-7.65286e-11 7.5915e-11 -6.46999

-6.71493 1.72442 6.66162e-11
1.72442 -3.17216 9.82478e-12
6.66162e-11 9.82478e-12 -6.19909

-0.247487 2.20326 -5.20077e-12
2.20326 -1.21628 -1.38751e-11
-5.20077e-12 -1.38751e-11 -0.397858

-1.64687 2.00735 -2.76011e-11
2.00735 -0.16446 3.19847e-11
-2.76011e-11 3.19847e-11 -0.606843

-1.72231 -2.0103 5.83852e-11
-2.0103 -0.94341 3.04421e-11
5.83852e-11 3.04421e-11 -0.586562

-0.100097 2.02654 -4.10408e-11
2.02654 0.957215 1.77263e-11
-4.10408e-11 1.77263e-11 0.156913

-0.368958 -1.61717 5.56856e-11
-1.61717 0.578556 2.42757e-11
5.56856e-11 2.42757e-11 0.185907

2.04268 -0.256432 1.02131e-11
-0.256432 4.56071 2.92904e-11
1.02131e-11 2.92904e-11 2.80216

2.33639 -0.520862 -3.50736e-11
-0.520862 4.49637 5.16455e-11
-3.50736e-11 5.16455e-11 2.71802

4.77326 -0.220611 3.47219e-12
-0.220611 2.39525 2.69763e-11
3.47219e-12 2.69763e-11 2.87971

-1.04139 2.33636 -1.53167e-11
2.33636 0.783762 4.1814e-11
-1.53167e-11 4.1814e-11 -0.130825

-1.41668 -1.8114 1.44394e-12
-1.8114 0.0344587 7.63051e-11
1.44394e-12 7.63051e-11 -0.164537

3.02188 0.361726 1.84996e-11
0.361726 5.51369 -8.28589e-12
1.84996e-11 -8.28589e-12 3.78027

5.49488 0.558953 2.09136e-11
0.558953 3.12112 1.11761e-11
2.09136e-11 1.11761e-11 3.8357

-2.28433 -2.3168 -3.88252e-11
-2.3168 -1.69488 1.19512e-11
-3.88252e-11 1.19512e-11 -1.09025

-2.18792 1.9081 -2.16304e-11
1.9081 -0.39164 -2.3508e-11
-2.16304e-11 -2.3508e-11 -1.02065

-2.31784 -2.0493 -4.34508e-11
-2.0493 -0.959406 1.31061e-11
-4.34508e-11 1.31061e-11 -1.13008

-2.26708 1.52305 -2.6398e-11
1.52305 -0.592698 -1.15854e-12
-2.6398e-11 -1.15854e-12 -1.20277

6.51508 -0.951402 7.70944e-12
-0.951402 6.7222 2.83293e-11
7.70944e-12 2.83293e-11 7.37818

6.50219 -0.95691 -9.65006e-13
-0.95691 6.70865 5.39586e-11
-9.65006e-13 5.39586e-11 7.40449

-0.682362 1.84666 -1.72433e-11
1.84666 0.617503 4.95202e-11
-1.72433e-11 4.95202e-11 -0.155996

-0.859147 -1.69175 -1.07907e-11
-1.69175 -0.474332 6.24309e-11
-1.07907e-11 6.24309e-11 -0.229638

-2.97785 0.484103 -1.40648e-11
0.484103 -0.821586 1.56078e-11
-1.40648e-11 1.56078e-11 -2.95366

-3.519 -0.274361 2.25413e-11
-0.274361 -3.10614 3.48732e-11
2.25413e-11 3.48732e-11 -3.39413

-3.42591 -2.12593 -9.92362e-12
-2.12593 -0.557504 -4.12347e-11
-9.92362e-12 -4.12347e-11 -1.14708

-2.79091 1.99766 3.29503e-11
1.99766 0.160533 8.26616e-11
3.29503e-11 8.26616e-11 -1.10963

-2.06309 -0.444284 -6.55115e-11
-0.444284 -3.32829 -1.50295e-11
-6.55115e-11 -1.50295e-11 -2.18207

-1.34421 0.0409123 4.20541e-11
0.0409123 -3.72376 6.51251e-11
4.20541e-11 6.51251e-11 -2.16639

-1.45194 1.96743 1.61851e-11
1.96743 -1.06018 2.58205e-11
1.61851e-11 2.58205e-11 -0.65986

-1.26987 -1.93247 3.85376e-11
-1.93247 -0.105381 -1.38751e-11
3.85376e-11 -1.38751e-11 -0.465698

-2.1694 0.596017 -2.36995e-11
0.596017 -4.29389 -1.0179e-11
-2.36995e-11 -1.0179e-11 -3.64576

-3.99107 0.176292 4.01368e-11
0.176292 -5.06544 5.37549e-11
4.01368e-11 5.37549e-11 -5.03945

-3.16833 -0.536937 5.36845e-11
-0.536937 -3.68519 -3.65963e-12
5.36845e-11 -3.65963e-12 -3.69279

-5.9411 -0.0696556 -5.50427e-11
-0.0696556 -3.58924 -6.51228e-11
-5.50427e-11 -6.51228e-11 -5.11186

-4.45707 0.344812 2.06177e-11
0.344812 0.0794012 6.66661e-11
2.06177e-11 6.66661e-11 -3.61064

-1.24463 1.95373 -3.08275e-11
1.95373 -2.67888 2.42772e-11
-3.08275e-11 2.42772e-11 -3.54195

-3.04095 -0.764656 -7.70621e-12
-0.764656 -4.0805 -4.29665e-11
-7.70621e-12 -4.29665e-11 -4.04457

-4.8505 -0.459951 1.38724e-11
-0.459951 -2.14156 7.80317e-12
1.38724e-11 7.80317e-12 -3.99943

-5.53785 1.14395 1.48068e-10
1.14395 -4.19717 1.06168e-10
1.48068e-10 1.06168e-10 -5.29338

1.03448 1.16306 -5.17493e-10
1.16306 -8.41292 1.95325e-10
-5.17493e-10 1.95325e-10 -5.96682

0.0841725 -0.765067 -8.06397e-10
-0.765067 -0.463657 -3.05539e-10
-8.06397e-10 -3.05539e-10 -4.60629

-3.98651 -2.62972 1.85667e-10
-2.62972 -1.7347 1.19054e-10
1.85667e-10 1.19054e-10 -4.4442

-3.29826 1.48326 3.7067e-11
1.48326 -3.40092 6.66653e-11
3.7067e-11 6.66653e-11 -3.93889

-2.62957 1.07615 4.60019e-11
1.07615 -0.956883 4.37378e-11
4.60019e-11 4.37378e-11 -2.04071

-5.0235 0.315721 9.25785e-11
0.315721 -5.50246 -7.91884e-11
9.25785e-11 -7.91884e-11 -5.83248

-2.22573 -2.45349 1.15588e-11
-2.45349 -3.05722 -3.19851e-11
1.15588e-11 -3.19851e-11 -3.57237

-4.14203 -2.8176 1.48233e-11
-2.8176 -1.69336 -2.11946e-11
1.48233e-11 -2.11946e-11 -4.90292

-2.43593 -1.37573 9.63231e-12
-1.37573 -1.6101 -5.66469e-11
9.63231e-12 -5.66469e-11 -1.97745

-2.86495 -2.29739 2.20624e-11
-2.29739 -1.50586 -6.55095e-12
2.20624e-11 -6.55095e-12 -2.44276

-4.06584 -1.52735 6.80379e-11
-1.52735 -2.61356 -3.54539e-11
6.80379e-11 -3.54539e-11 -3.71555

-3.53677 0.961997 9.34327e-12
0.961997 -2.15238 -5.79958e-11
9.34327e-12 -5.79958e-11 -2.79394

-3.18338 0.575294 4.92754e-13
0.575294 -3.28921 -5.10589e-11
4.92754e-13 -5.10589e-11 -3.715

-0.0180089 1.6367 -9.24797e-12
1.6367 1.52298 1.58029e-11
-9.24797e-12 1.58029e-11 0.500725

-1.35088 0.822319 1.00205e-11
0.822319 0.799622 3.85425e-12
1.00205e-11 3.85425e-12 -0.287538

-1.94065 0.703156 -1.02109e-11
0.703156 0.493056 -9.80697e-14
-1.02109e-11 -9.80697e-14 -0.392639

1.72881 0.929359 -1.00201e-11
0.929359 -2.2189 -8.78315e-12
-1.00201e-11 -8.78315e-12 0.00661814

2.43192 0.315111 2.89043e-11
0.315111 -1.4617 1.67643e-11
2.89043e-11 1.67643e-11 0.385405

-3.21101 0.504406 3.41032e-11
0.504406 -0.611927 1.34896e-12
3.41032e-11 1.34896e-12 -1.36189

-3.82254 1.16092 -2.58192e-11
1.16092 -0.302289 2.81326e-11
-2.58192e-11 2.81326e-11 -1.35116

2.59579 -0.370094 4.2382e-12
-0.370094 -1.26526 -8.0146e-12
4.2382e-12 -8.0146e-12 0.448258

0.399715 -0.74367 9.92347e-12
-0.74367 -3.03085 1.39707e-12
9.92347e-12 1.39707e-12 -0.544112

1.33026 1.48995 -2.19667e-11
1.48995 2.87594 1.56097e-11
-2.19667e-11 1.56097e-11 1.66589

1.60065 -1.48866 -1.92688e-11
-1.48866 3.07108 4.91395e-11
-1.92688e-11 4.91395e-11 1.88793

3.63899 -1.36495 1.13709e-11
-1.36495 1.13298 -1.95146e-12
1.13709e-11 -1.95146e-12 1.80508

-2.35737 -1.40444 -2.31195e-11
-1.40444 -0.585699 -2.21576e-11
-2.31195e-11 -2.21576e-11 -1.17455

-1.52879 -0.972057 4.7785e-11
-0.972057 -0.470843 1.59921e-11
4.7785e-11 1.59921e-11 -1.07987

-1.45974 1.3947 2.54341e-11
1.3947 0.615131 -1.44518e-11
2.54341e-11 -1.44518e-11 -0.0361855

-2.59574 1.67931 4.04673e-11
1.67931 0.0943088 2.78427e-11
4.04673e-11 2.78427e-11 -0.394265

-3.72587 -1.08874 -2.11943e-11
-1.08874 -0.242764 6.9346e-12
-2.11943e-11 6.9346e-12 -1.346

-3.40951 -0.318745 -1.07895e-11
-0.318745 -0.616434 2.64955e-11
-1.07895e-11 2.64955e-11 -1.40229

2.13534 0.427008 2.69751e-12
0.427008 -2.37618 -1.79078e-11
2.69751e-12 -1.79078e-11 -0.0791864

0.902521 0.535905 -1.92714e-12
0.535905 3.36788 -2.43749e-11
-1.92714e-12 -2.43749e-11 1.37547

0.912024 -0.43779 -1.88849e-11
-0.43779 3.31287 1.63306e-11
-1.88849e-11 1.63306e-11 1.39371

4.13828 -0.378252 -1.73469e-12
-0.378252 0.830143 3.42121e-12
-1.73469e-12 3.42121e-12 1.51757

0.0958005 1.88091 6.27212e-11
1.88091 0.695249 -3.02537e-11
6.27212e-11 -3.02537e-11 0.366494

2.72938 -1.25052 5.78049e-12
-1.25052 -0.90601 -1.92708e-11
5.78049e-12 -1.92708e-11 0.645814

0.624085 1.99296 2.65909e-11
1.99296 -0.320092 -5.63534e-12
2.65909e-11 -5.63534e-12 0.161113

-0.228316 1.58886 -8.86498e-12
1.58886 1.90258 -4.52786e-12
-8.86498e-12 -4.52786e-12 0.450967

1.5722 -0.788683 -4.00802e-11
-0.788683 -2.49048 4.78761e-12
-4.00802e-11 4.78761e-12 -0.0843718

3.69717 1.04778 -1.42584e-11
1.04778 4.75495 2.51978e-11
-1.42584e-11 2.51978e-11 3.29097

1.00433 0.978619 3.31428e-11
0.978619 -3.03846 1.74874e-11
3.31428e-11 1.74874e-11 -0.393301

5.25055 -0.905748 -5.43432e-11
-0.905748 3.41388 2.71236e-11
-5.43432e-11 2.71236e-11 3.40872

-2.0103 -0.345126 -2.15791e-11
-0.345126 -0.646361 9.63259e-12
-2.15791e-11 9.63259e-12 -1.45213

-2.04961 0.61271 -1.07898e-11
0.61271 -0.592826 2.92875e-11
-1.07898e-11 2.92875e-11 -1.44082

-0.164267 -1.8672 1.19456e-10
-1.8672 -3.41952 4.62145e-12
1.19456e-10 4.62145e-12 -3.87095

-0.179528 1.932 1.08669e-10
1.932 -3.43355 -1.48312e-11
1.08669e-10 -1.48312e-11 -3.84404

3.92749 -0.497758 5.78019e-12
-0.497758 0.533243 -2.63258e-11
5.78019e-12 -2.63258e-11 1.54611

-0.608761 2.17835 4.62454e-12
2.17835 -0.788342 -2.00394e-11
4.62454e-12 -2.00394e-11 -0.232604

-0.0453396 -1.13 1.65704e-11
-1.13 -2.21877 3.56365e-12
1.65704e-11 3.56365e-12 -1.51992

0.00899808 1.12581 -7.32133e-12
1.12581 -2.13556 -5.87667e-12
-7.32133e-12 -5.87667e-12 -1.4232

0.308028 0.39227 1.07911e-11
0.39227 -3.58515 3.13104e-11
1.07911e-11 3.13104e-11 -0.617721

-0.355227 1.79499 4.81459e-12
1.79499 1.91981 1.37782e-11
4.81459e-12 1.37782e-11 0.435516

2.31616 -1.55265 1.92676e-11
-1.55265 -0.301619 3.27427e-12
1.92676e-11 3.27427e-12 0.636969

0.564749 -0.0963656 2.04249e-11
-0.0963656 -3.81039 9.23041e-12
2.04249e-11 9.23041e-12 -0.526188

0.0457116 -1.88769 2.40865e-11
-1.88769 0.759205 8.66751e-13
2.40865e-11 8.66751e-13 0.371774

-0.0322409 -1.54786 3.85434e-12
-1.54786 1.5193 2.35086e-11
3.85434e-12 2.35086e-11 0.493209

-2.06008 1.76945 5.20349e-12
1.76945 0.815873 -3.66055e-12
5.20349e-12 -3.66055e-12 -0.311411

2.10484 -2.15901 4.16231e-11
-2.15901 0.528905 -3.17812e-12
4.16231e-11 -3.17812e-12 0.900333

10.1799 -1.64623 -4.77934e-11
-1.64623 9.24498 -2.55809e-11
-4.77934e-11 -2.55809e-11 9.75529

10.2183 2.28672 2.35106e-11
2.28672 9.90733 6.52759e-12
2.35106e-11 6.52759e-12 9.99017

-3.70204 -2.11272 -1.0019e-11
-2.11272 -0.319719 -1.88823e-11
-1.0019e-11 -1.88823e-11 -0.97072

6.93716 0.299916 -3.33067e-16
0.299916 5.92829 1.66587e-11
-3.33067e-16 1.66587e-11 6.82503

5.95078 -0.552702 -2.04272e-11
-0.552702 5.65199 -2.71262e-11
-2.04272e-11 -2.71262e-11 6.44349

-2.10771 -0.493605 -5.97308e-11
-0.493605 -1.50003 5.3758e-11
-5.97308e-11 5.3758e-11 -1.74057

-2.08876 0.512588 -4.99025e-11
0.512588 -1.53661 3.69939e-11
-4.99025e-11 3.69939e-11 -1.74169

2.63558 -0.0355238 -5.20295e-12
-0.0355238 -2.79821 6.6144e-12
-5.20295e-12 6.6144e-12 -0.0816051

-2.27668 -0.267002 -4.87476e-11
-0.267002 -2.46816 2.74097e-11
-4.87476e-11 2.74097e-11 -1.99777

-2.24925 0.293717 -9.0559e-11
0.293717 -2.46241 -1.18017e-10
-9.0559e-11 -1.18017e-10 -1.98783

-1.5191 1.64727 -2.08102e-11
1.64727 1.43477 4.14298e-12
-2.08102e-11 4.14298e-12 0.00538496

-0.867721 -1.74835 2.35051e-11
-1.74835 -2.85795 7.32183e-12
2.35051e-11 7.32183e-12 -3.17362

-0.91066 1.75657 3.81486e-11
1.75657 -2.88429 8.81593e-12
3.81486e-11 8.81593e-12 -3.16543

-1.15422 -0.874104 4.62393e-12
-0.874104 -1.34699 -2.62538e-11
4.62393e-12 -2.62538e-11 -0.87808

-1.15385 0.881647 1.17542e-11
0.881647 -1.36078 -8.91069e-12
1.17542e-11 -8.91069e-12 -0.880322

3.81025 -1.4879 -2.58215e-11
-1.4879 1.12237 -2.21354e-11
-2.58215e-11 -2.21354e-11 2.01086

-4.75956 0.865782 2.00383e-11
0.865782 -0.593656 -2.42765e-11
2.00383e-11 -2.42765e-11 -3.20983

-3.68153 -0.166842 4.00745e-11
-0.166842 -2.15016 4.16186e-11
4.00745e-11 4.16186e-11 -3.36719

-0.345111 -1.81432 7.70595e-12
-1.81432 1.91728 5.6074e-11
7.70595e-12 5.6074e-11 0.431858

3.12492 -0.456063 -1.15537e-12
-0.456063 4.56342 -1.22136e-11
-1.15537e-12 -1.22136e-11 3.36777

5.10357 -0.471185 2.81365e-11
-0.471185 2.60336 -4.99784e-11
2.81365e-11 -4.99784e-11 3.46052

-2.24821 1.41519 3.8559e-13
1.41519 0.94104 2.42804e-11
3.8559e-13 2.42804e-11 -0.334339

-2.48737 1.41082 -1.42596e-11
1.41082 0.297567 -1.0792e-11
-1.42596e-11 -1.0792e-11 -0.396731

-4.486 -1.4079 -3.12129e-11
-1.4079 -7.90217 -5.87457e-12
-3.12129e-11 -5.87457e-12 -7.03381

-4.42334 1.30166 1.13486e-10
1.30166 -7.5041 3.95388e-12
1.13486e-10 3.95388e-12 -6.92198

-3.00231 1.85154 2.38912e-11
1.85154 -1.00553 -4.16209e-11
2.38912e-11 -4.16209e-11 -0.665605

0.425067 0.562669 2.65915e-11
0.562669 -2.36186 3.69001e-11
2.65915e-11 3.69001e-11 -0.559576

0.467684 -0.585136 1.50304e-11
-0.585136 -2.36541 -2.89993e-11
1.50304e-11 -2.89993e-11 -0.550668

-1.7013 2.48449 5.00892e-12
2.48449 -1.20612 -6.45574e-12
5.00892e-12 -6.45574e-12 -0.558016

-2.68678 -1.67479 9.82742e-12
-1.67479 -0.159355 1.49325e-11
9.82742e-12 1.49325e-11 -0.883298

3.84899 -0.0286755 6.74457e-12
-0.0286755 0.0900846 -2.16303e-11
6.74457e-12 -2.16303e-11 1.48685

3.1149 0.0355353 -1.31035e-11
0.0355353 -1.22113 -3.9436e-13
-1.31035e-11 -3.9436e-13 0.445675

3.13309 1.11596 5.66534e-11
1.11596 -0.467592 1.85228e-11
5.66534e-11 1.85228e-11 0.86836

0.0669038 1.8581 -1.426e-11
1.8581 -3.19513 -2.71191e-11
-1.426e-11 -2.71191e-11 -1.3382

-0.709388 -0.276778 -4.31578e-11
-0.276778 -2.13095 3.80032e-11
-4.31578e-11 3.80032e-11 -4.44026

-0.778818 0.275269 -4.04597e-11
0.275269 -1.99583 -7.01313e-11
-4.04597e-11 -7.01313e-11 -4.45739

2.45228 1.62195 4.7405e-11
1.62195 2.26812 2.36311e-12
4.7405e-11 2.36311e-12 1.56518

0.846441 -2.06694 -1.00211e-11
-2.06694 -0.930387 -3.85481e-12
-1.00211e-11 -3.85481e-12 0.0695853

2.13979 -0.512038 -1.8305e-11
-0.512038 -1.31322 -1.568e-11
-1.8305e-11 -1.568e-11 0.106491

-4.60402 1.99957 5.27929e-11
1.99957 -1.03214 1.98465e-11
5.27929e-11 1.98465e-11 -3.9432

-4.35885 -0.524231 7.16736e-11
-0.524231 -3.67536 5.39357e-12
7.16736e-11 5.39357e-12 -4.45363

0.0119131 -1.81731 -1.57983e-11
-1.81731 -3.07866 -3.12133e-11
-1.57983e-11 -3.12133e-11 -1.41512

-1.93415 -0.525723 1.73541e-12
-0.525723 0.571298 -2.33165e-11
1.73541e-12 -2.33165e-11 -0.43728

-1.59967 -0.550988 -8.38066e-12
-0.550988 0.751873 -3.51669e-11
-8.38066e-12 -3.51669e-11 -0.379334

1.87025 -0.144231 -1.29103e-11
-0.144231 -3.58426 2.39403e-11
-1.29103e-11 2.39403e-11 -0.460287

1.89959 0.135756 2.65911e-11
0.135756 -3.66459 -1.60886e-11
2.65911e-11 -1.60886e-11 -0.469008

3.15465 1.39747 1.27186e-11
1.39747 2.27217 1.29116e-11
1.27186e-11 1.29116e-11 1.71424

0.454427 -0.10905 -1.44792e-13
-0.10905 -3.43717 -2.73846e-11
-1.44792e-13 -2.73846e-11 -1.01908

0.453895 0.0987512 -8.04453e-12
0.0987512 -3.41201 2.57685e-12
-8.04453e-12 2.57685e-12 -1.01005

2.189 0.508145 4.62471e-12
0.508145 -1.34515 8.35693e-12
4.62471e-12 8.35693e-12 0.1115

-0.26679 -1.61474 -3.39134e-11
-1.61474 1.9146 -2.06182e-11
-3.39134e-11 -2.06182e-11 0.438638

1.8578 -0.0522708 2.6976e-12
-0.0522708 -2.52142 -7.61132e-12
2.6976e-12 -7.61132e-12 -0.347465

1.87761 0.0668564 2.79404e-11
0.0668564 -2.58409 3.28514e-11
2.79404e-11 3.28514e-11 -0.35479

1.49384 -1.23804 -1.84966e-11
-1.23804 -1.74301 -1.49236e-12
-1.84966e-11 -1.49236e-12 -0.0184406

-2.03429 2.28008 -1.214e-11
2.28008 0.312466 -1.83048e-12
-1.214e-11 -1.83048e-12 -0.437697

1.97589 1.73393 -2.27378e-11
1.73393 0.257196 -1.68676e-12
-2.27378e-11 -1.68676e-12 0.681078

-2.49997 1.85003 -2.11955e-11
1.85003 -1.39723 -5.09665e-11
-2.11955e-11 -5.09665e-11 -0.701365

-2.04189 2.26965 -2.5819e-11
2.26965 0.607924 -5.20344e-12
-2.5819e-11 -5.20344e-12 -0.360324

2.93363 -0.880834 -2.11976e-11
-0.880834 -0.872172 5.68525e-12
-2.11976e-11 5.68525e-12 0.595588

0.408285 -2.02537 1.21394e-11
-2.02537 -2.08368 -4.11863e-11
1.21394e-11 -4.11863e-11 -0.495555

1.65082 1.23623 -2.38939e-11
1.23623 -1.43433 -2.71692e-11
-2.38939e-11 -2.71692e-11 0.0947813

1.22648 2.02242 5.23168e-11
2.02242 0.616823 -3.8972e-11
5.23168e-11 -3.8972e-11 0.669966

0.851237 2.07774 1.6572e-11
2.07774 -0.91857 -1.02612e-11
1.6572e-11 -1.02612e-11 0.0846517

-2.79513 0.190125 -4.77867e-11
0.190125 0.68251 -1.72434e-11
-4.77867e-11 -1.72434e-11 -0.523629

-2.73848 0.0677374 -2.77473e-11
0.0677374 0.667907 -1.54169e-11
-2.77473e-11 -1.54169e-11 -0.526516

3.56977 1.46129 -7.90086e-12
1.46129 1.07769 3.62399e-11
-7.90086e-12 3.62399e-11 1.74295

-1.72644 -2.48214 2.27353e-11
-2.48214 -1.23757 -1.81137e-11
2.27353e-11 -1.81137e-11 -0.569962

0.905618 -1.97713 2.00409e-11
-1.97713 1.88745 3.86062e-13
2.00409e-11 3.86062e-13 0.795494

0.882459 2.00162 -4.23543e-12
2.00162 1.99637 4.45151e-11
-4.23543e-12 4.45151e-11 0.817136

1.35649 -1.4922 -3.46926e-12
-1.4922 -1.6517 1.79701e-11
-3.46926e-12 1.79701e-11 -0.0567919

0.491396 -0.98963 2.77467e-11
-0.98963 -4.78942 -1.34863e-11
2.77467e-11 -1.34863e-11 -1.09723

0.518046 0.997596 1.31019e-11
0.997596 -4.50455 7.69884e-13
1.31019e-11 7.69884e-13 -1.01066

-0.581962 1.09485 1.65711e-11
1.09485 1.86032 -9.25186e-16
1.65711e-11 -9.25186e-16 0.485528

0.72889 -2.08239 -1.50308e-11
-2.08239 -0.27652 -5.15602e-12
-1.50308e-11 -5.15602e-12 0.188679

0.176034 -0.0851347 3.23739e-11
-0.0851347 3.58225 3.75733e-12
3.23739e-11 3.75733e-12 1.43752

0.196191 0.0341101 -3.85266e-13
0.0341101 3.6204 8.81676e-12
-3.85266e-13 8.81676e-12 1.46463

4.42824 0.105328 1.34914e-12
0.105328 0.138861 -1.34821e-12
1.34914e-12 -1.34821e-12 1.63059

3.08491 -1.44976 9.63289e-12
-1.44976 2.42195 -2.3366e-11
9.63289e-12 -2.3366e-11 1.73114

1.56769 1.76231 1.84993e-11
1.76231 0.328232 -1.00202e-11
1.84993e-11 -1.00202e-11 0.610595

-4.84664 -3.59226 -9.01694e-11
-3.59226 -3.24701 1.77287e-11
-9.01694e-11 1.77287e-11 -5.65502

-3.50912 1.55202 7.5526e-11
1.55202 -2.4894 1.84927e-11
7.5526e-11 1.84927e-11 -5.20865

2.88803 0.802484 -9.6297e-13
0.802484 -0.938767 -2.23961e-12
-9.6297e-13 -2.23961e-12 0.552776

-1.44131 2.19578 5.01079e-12
2.19578 1.16694 -1.25244e-11
5.01079e-12 -1.25244e-11 -0.0550117

2.68057 0.0327027 -4.62445e-12
0.0327027 -2.76062 1.46679e-11
-4.62445e-12 1.46679e-11 -0.0640924

-0.643224 -1.05883 -6.55017e-12
-1.05883 1.88119 -1.7632e-11
-6.55017e-12 -1.7632e-11 0.47178

-4.4526 2.18706 -7.70555e-13
2.18706 -0.33299 1.05979e-11
-7.70555e-13 1.05979e-11 -1.04905

-2.51879 1.79113 -2.158e-11
1.79113 0.00795672 1.97497e-11
-2.158e-11 1.97497e-11 -0.767484

-2.03033 -2.27462 -2.42789e-11
-2.27462 0.290642 4.07546e-11
-2.42789e-11 4.07546e-11 -0.44417

-2.22064 2.29895 -1.44506e-11
2.29895 0.745035 8.38167e-12
-1.44506e-11 8.38167e-12 -0.371741

-1.84276 1.74165 4.39322e-11
1.74165 -0.115729 1.24287e-11
4.39322e-11 1.24287e-11 -0.234308

2.50692 0.0197167 1.77275e-11
0.0197167 -4.04708 -5.52887e-12
1.77275e-11 -5.52887e-12 -0.390204

1.78271 -1.73944 -6.93738e-12
-1.73944 0.396047 -2.12923e-11
-6.93738e-12 -2.12923e-11 0.687483

-2.53574 -1.85876 -4.23914e-12
-1.85876 -1.42094 2.65902e-11
-4.23914e-12 2.65902e-11 -0.715437

1.27196 -1.48809 1.36841e-11
-1.48809 1.40385 -7.46702e-11
1.36841e-11 -7.46702e-11 0.702737

2.4749 -1.44282 -4.0083e-11
-1.44282 2.51387 1.31963e-11
-4.0083e-11 1.31963e-11 1.75338

-0.694434 -2.14981 3.46996e-12
-2.14981 -0.749403 -1.75819e-11
3.46996e-12 -1.75819e-11 -0.244489

0.66202 -0.881759 -3.2373e-11
-0.881759 3.24352 3.90683e-11
-3.2373e-11 3.90683e-11 1.21221

0.638716 0.836458 1.54097e-12
0.836458 3.25551 -1.59459e-11
1.54097e-12 -1.59459e-11 1.20047

3.6265 0.504109 9.63459e-12
0.504109 0.729822 -1.19588e-11
9.63459e-12 -1.19588e-11 1.33621

1.24959 1.55182 -9.44308e-12
1.55182 1.39107 4.46091e-11
-9.44308e-12 4.46091e-11 0.697967

-0.800471 0.275129 -2.58204e-11
0.275129 2.00153 3.51666e-11
-2.58204e-11 3.51666e-11 0.308113

-0.798652 -0.0594562 -4.31624e-11
-0.0594562 1.99286 2.2062e-11
-4.31624e-11 2.2062e-11 0.314372

1.95514 -1.69932 -1.31019e-11
-1.69932 2.82067 -4.64417e-11
-1.31019e-11 -4.64417e-11 1.74382

2.06483 1.70237 1.69581e-11
1.70237 2.84511 -6.11796e-12
1.69581e-11 -6.11796e-12 1.77977

2.54382 0.137131 1.34905e-12
0.137131 -3.73226 2.26878e-11
1.34905e-12 2.26878e-11 -0.361497

2.57991 -0.130107 1.38736e-11
-0.130107 -3.77369 8.57433e-12
1.38736e-11 8.57433e-12 -0.357537

-1.43751 2.00157 -1.42586e-11
2.00157 1.07363 -3.75866e-12
-1.42586e-11 -3.75866e-12 -0.0983104

-4.62791 -1.95243 4.00777e-11
-1.95243 -0.431395 -1.72457e-11
4.00777e-11 -1.72457e-11 -1.04066

-0.0895567 2.201 -7.32266e-12
2.201 -1.45394 -2.02547e-12
-7.32266e-12 -2.02547e-12 -0.398381

4.41985 1.02079 -2.50532e-11
1.02079 1.70973 -3.68788e-11
-2.50532e-11 -3.68788e-11 2.54624

-0.636571 1.32776 2.31263e-11
1.32776 2.52608 1.77279e-11
2.31263e-11 1.77279e-11 0.562829

-0.833157 0.128192 5.43368e-11
0.128192 -2.1197 3.51715e-12
5.43368e-11 3.51715e-12 -1.21403

-0.832441 -0.114355 -9.05627e-12
-0.114355 -2.09373 -4.03186e-11
-9.05627e-12 -4.03186e-11 -1.20993

0.908825 1.28058 -1.04063e-11
1.28058 0.0681714 -1.52715e-11
-1.04063e-11 -1.52715e-11 0.170205

0.578119 -0.790691 1.29095e-11
-0.790691 -0.820973 -3.03483e-11
1.29095e-11 -3.03483e-11 -0.255321

0.570895 0.805953 2.42778e-11
0.805953 -0.819427 1.71501e-11
2.42778e-11 1.71501e-11 -0.256467

5.7906 -0.80365 -4.50951e-11
-0.80365 3.97366 -7.18127e-11
-4.50951e-11 -7.18127e-11 6.15025

3.47726 1.01285 7.71235e-13
1.01285 5.35167 2.20548e-11
7.71235e-13 2.20548e-11 6.05668

-0.748241 -1.30492 -1.81138e-11
-1.30492 2.49412 -2.22577e-11
-1.81138e-11 -2.22577e-11 0.529157

-2.74007 -0.293462 2.6589e-11
-0.293462 -3.68855 -4.48922e-11
2.6589e-11 -4.48922e-11 -3.49607

-2.71776 0.334665 2.04236e-11
0.334665 -3.64954 6.8399e-12
2.04236e-11 6.8399e-12 -3.47895

4.59227 0.877397 -9.63533e-12
0.877397 1.65121 -9.33377e-12
-9.63533e-12 -9.33377e-12 2.59727

-2.62525 -1.08166 3.93046e-11
-1.08166 0.599693 3.56248e-12
3.93046e-11 3.56248e-12 -0.421949

-2.28988 -1.05654 2.23515e-11
-1.05654 0.82794 -2.01366e-11
2.23515e-11 -2.01366e-11 -0.407943

1.44007 -2.12485 1.73478e-11
-2.12485 1.03127 -5.90593e-11
1.73478e-11 -5.90593e-11 0.832584

-2.20226 -2.3135 5.58781e-12
-2.3135 0.737231 -2.33154e-11
5.58781e-12 -2.33154e-11 -0.372603

-3.97949 2.76003 -1.73419e-11
2.76003 -0.918808 -1.57054e-11
-1.73419e-11 -1.57054e-11 -0.778003

-1.60242 1.25129 3.73792e-11
1.25129 -0.685804 2.57241e-11
3.73792e-11 2.57241e-11 -1.13833

-2.40765 1.72607 1.92688e-11
1.72607 -0.769339 2.15788e-11
1.92688e-11 2.15788e-11 -1.21346

-1.48426 -2.02145 1.11751e-11
-2.02145 1.06594 -2.21573e-12
1.11751e-11 -2.21573e-12 -0.112791

-0.866671 2.12165 -1.92498e-12
2.12165 -0.597376 1.94616e-11
-1.92498e-12 1.94616e-11 -0.173151

0.883887 -1.30015 1.77276e-11
-1.30015 0.0773594 -1.6666e-11
1.77276e-11 -1.6666e-11 0.164457

2.73153 1.55257 2.92928e-11
1.55257 -0.365932 7.67417e-11
2.92928e-11 7.67417e-11 0.838227

3.05625 -0.0472295 1.81125e-11
-0.0472295 -1.26916 6.75596e-12
1.81125e-11 6.75596e-12 0.421921

-2.22773 2.41237 3.46859e-12
2.41237 0.640854 -1.06942e-11
3.46859e-12 -1.06942e-11 -0.344514

-1.56476 -1.45162 -1.69583e-11
-1.45162 0.591042 -4.71982e-12
-1.69583e-11 -4.71982e-12 -0.0664314

-1.40635 0.529486 -6.16734e-12
0.529486 1.84039 -5.19966e-12
-6.16734e-12 -5.19966e-12 0.216851

-0.572103 1.48502 4.81715e-12
1.48502 -0.593417 1.24286e-11
4.81715e-12 1.24286e-11 -0.341262

-1.32718 0.658807 3.42985e-11
0.658807 2.03266 -3.56766e-12
3.42985e-11 -3.56766e-12 0.22638

-2.26213 -1.86303 -9.44077e-12
-1.86303 0.219413 2.49532e-11
-9.44077e-12 2.49532e-11 -0.637183

5.18155 -1.04384 4.24216e-12
-1.04384 5.40682 -2.77003e-11
4.24216e-12 -2.77003e-11 4.90255

6.14625 -1.05056 -2.11973e-11
-1.05056 4.60063 -5.94745e-11
-2.11973e-11 -5.94745e-11 4.98776

2.07027 -0.418794 7.51536e-12
-0.418794 -2.37013 1.10042e-11
7.51536e-12 1.10042e-11 -0.0924032

-0.580887 -1.48875 2.21578e-11
-1.48875 -0.609852 -6.45465e-12
2.21578e-11 -6.45465e-12 -0.346685

-2.80935 -1.99777 -1.57224e-10
-1.99777 -6.34424 1.16088e-10
-1.57224e-10 1.16088e-10 -5.8496

-2.7435 1.91339 2.00379e-11
1.91339 -6.17973 -2.26372e-11
2.00379e-11 -2.26372e-11 -5.79343

-1.49152 -2.16572 -7.69311e-13
-2.16572 1.12758 -1.52233e-11
-7.69311e-13 -1.52233e-11 -0.0817582

-1.61907 -1.85714 -1.15637e-12
-1.85714 -1.60362 2.84215e-11
-1.15637e-12 2.84215e-11 -2.48351

-1.64573 1.88749 -1.84967e-11
1.88749 -1.5852 -4.55687e-11
-1.84967e-11 -4.55687e-11 -2.44505

1.20175 0.407986 -8.86361e-12
0.407986 -2.57615 -4.5683e-12
-8.86361e-12 -4.5683e-12 -0.160229

-4.03778 -2.76353 6.93759e-12
-2.76353 -0.995073 -2.34119e-11
6.93759e-12 -2.34119e-11 -0.801795

4.32226 -1.24295 -2.69786e-11
-1.24295 4.20879 4.61314e-11
-2.69786e-11 4.61314e-11 3.84835

4.46657 1.2474 2.96766e-11
1.2474 3.58314 -1.62119e-11
2.96766e-11 -1.62119e-11 3.62687

2.70343 -0.926559 -1.15637e-12
-0.926559 4.44757 -4.14313e-11
-1.15637e-12 -4.14313e-11 2.90589

2.47639 0.861748 -1.34703e-12
0.861748 4.51308 4.86452e-12
-1.34703e-12 4.86452e-12 2.89453

4.90556 0.530803 -3.39161e-11
0.530803 2.23494 1.5511e-11
-3.39161e-11 1.5511e-11 2.98

-2.21056 -2.43101 -1.17531e-11
-2.43101 0.683554 -3.56449e-12
-1.17531e-11 -3.56449e-12 -0.335163

2.69741 0.27578 -3.58409e-11
0.27578 5.07792 1.64048e-11
-3.58409e-11 1.64048e-11 3.58821

5.7307 -0.300291 -3.35315e-11
-0.300291 2.72475 2.21849e-11
-3.35315e-11 2.21849e-11 3.80199

-3.58988 -0.765926 1.54149e-12
-0.765926 -0.519608 -1.31019e-11
1.54149e-12 -1.31019e-11 -2.17939

-2.37519 -0.0466676 -2.15808e-11
-0.0466676 -1.49729 -1.04815e-10
-2.15808e-11 -1.04815e-10 -2.18795

0.952031 1.20603 4.23894e-12
1.20603 -1.9192 -8.76717e-12
4.23894e-12 -8.76717e-12 -0.355418

0.608291 -0.0855863 2.23522e-11
-0.0855863 -5.22577 1.97012e-11
2.23522e-11 1.97012e-11 -0.780112

0.642427 1.22506 5.97187e-12
1.22506 2.88616 -7.08289e-12
5.97187e-12 -7.08289e-12 1.17739

0.616248 -1.282 -3.02538e-11
-1.282 2.88223 4.57195e-11
-3.02538e-11 4.57195e-11 1.17944

1.42726 -0.230018 1.65716e-11
-0.230018 -2.50779 1.68566e-11
1.65716e-11 1.68566e-11 -0.0977282

-1.57929 -1.64299 -5.12558e-11
-1.64299 1.46938 2.87128e-11
-5.12558e-11 2.87128e-11 -0.00744885

-1.5644 0.174323 1.54136e-12
0.174323 -3.00744 -1.60396e-11
1.54136e-12 -1.60396e-11 -2.37021

-1.57386 -0.150968 -8.6703e-12
-0.150968 -2.99817 -1.10114e-10
-8.6703e-12 -1.10114e-10 -2.3663

0.100513 1.83313 -1.69572e-11
1.83313 -1.18253 -6.84092e-12
-1.69572e-11 -6.84092e-12 -0.403896

-0.921055 -2.0692 3.00586e-11
-2.0692 -0.617214 1.15603e-11
3.00586e-11 1.15603e-11 -0.187652

1.12036 1.10004 2.00391e-11
1.10004 -3.13964 -1.38245e-11
2.00391e-11 -1.38245e-11 -0.451147

2.72476 1.61975 6.01262e-11
1.61975 1.46292 3.43022e-11
6.01262e-11 3.43022e-11 1.53808

-1.84154 -1.79338 -1.75351e-11
-1.79338 -0.059978 9.64192e-13
-1.75351e-11 9.64192e-13 -0.226446

10.3823 2.78755 -7.70759e-12
2.78755 9.77221 -1.79384e-12
-7.70759e-12 -1.79384e-12 10.3453

-1.33393 -0.395664 1.77271e-11
-0.395664 1.80051 4.14294e-11
1.77271e-11 4.14294e-11 0.21598

-1.23137 -0.590238 4.81742e-11
-0.590238 1.95586 4.02715e-11
4.81742e-11 4.02715e-11 0.23355

-3.82244 0.817497 1.81107e-11
0.817497 -0.940565 -2.13871e-11
1.81107e-11 -2.13871e-11 -2.59309

-3.3905 -1.223 -1.00178e-11
-1.223 -1.32655 -1.75345e-11
-1.00178e-11 -1.75345e-11 -2.5933

1.65869 -0.0646026 5.33748e-11
-0.0646026 -4.07678 -1.70514e-11
5.33748e-11 -1.70514e-11 -0.788921

1.67046 0.0603139 -7.70726e-13
0.0603139 -4.10232 -1.83067e-12
-7.70726e-13 -1.83067e-12 -0.784759

-0.661369 -2.39633 -3.31416e-11
-2.39633 -1.99792 2.83235e-11
-3.31416e-11 2.83235e-11 -1.1132

-0.522885 2.417 -4.6629e-11
2.417 -2.18339 -3.66072e-12
-4.6629e-11 -3.66072e-12 -1.07156

-0.35274 -0.872632 3.12133e-11
-0.872632 -1.6451 -2.54331e-11
3.12133e-11 -2.54331e-11 -1.8462

-0.390562 0.870574 -5.78027e-11
0.870574 -1.61514 9.63202e-12
-5.78027e-11 9.63202e-12 -1.83004

-3.70456 -0.762529 -1.10019e-10
-0.762529 -5.25975 5.55866e-11
-1.10019e-10 5.55866e-11 -5.02517

-3.66479 0.820877 -3.14057e-11
0.820877 -5.12257 -3.96905e-11
-3.14057e-11 -3.96905e-11 -4.9773

-2.4621 -2.29461 -1.57991e-11
-2.29461 -0.134602 -3.19848e-11
-1.57991e-11 -3.19848e-11 -0.769545

-2.45317 2.28275 2.00393e-11
2.28275 -0.153012 1.1369e-11
2.00393e-11 1.1369e-11 -0.777466

1.07735 -1.18719 2.62069e-11
-1.18719 -1.03926 -2.56747e-11
2.62069e-11 -2.56747e-11 -0.00544159

-1.31415 -1.00382 2.89036e-11
-1.00382 1.09393 1.41602e-11
2.89036e-11 1.41602e-11 0.045757

0.335301 1.93187 -4.4899e-11
1.93187 0.316016 -1.05055e-11
-4.4899e-11 -1.05055e-11 0.165729

-1.10429 -1.40902 2.04228e-11
-1.40902 1.62077 5.38581e-11
2.04228e-11 5.38581e-11 0.109017

3.186 -1.49641 -1.48423e-11
-1.49641 2.03924 1.15671e-10
-1.48423e-11 1.15671e-10 1.83593

1.10449 1.17191 -4.23854e-12
1.17191 -1.0291 -1.30068e-11
-4.23854e-12 -1.30068e-11 0.00687891

-1.16072 0.99802 -1.72935e-11
0.99802 1.12885 -2.7845e-11
-1.72935e-11 -2.7845e-11 0.090917

-2.64832 -2.85263 4.23872e-12
-2.85263 -1.5124 2.58194e-11
4.23872e-12 2.58194e-11 -1.01568

-2.64208 2.85459 4.62386e-12
2.85459 -1.53198 -2.52404e-11
4.62386e-12 -2.52404e-11 -1.01999

0.806959 -1.14577 1.00205e-11
-1.14577 -2.03133 -5.14462e-11
1.00205e-11 -5.14462e-11 -0.489587

-3.39342 -2.13644 1.01344e-10
-2.13644 -1.60688 -7.16725e-11
1.01344e-10 -7.16725e-11 -5.06186

-4.77189 2.18488 2.15806e-11
2.18488 -6.13406 6.3968e-11
2.15806e-11 6.3968e-11 -6.21248

-1.43328 -1.61599 1.44521e-11
-1.61599 0.776172 -1.23324e-11
1.44521e-11 -1.23324e-11 -0.269185

0.45881 2.0168 -2.56282e-11
2.0168 -1.95482 1.6041e-11
-2.56282e-11 1.6041e-11 -0.403251

0.160061 0.129338 3.84202e-13
0.129338 -2.11242 4.09443e-12
3.84202e-13 4.09443e-12 -1.20864

0.324046 -1.88913 -2.54358e-11
-1.88913 0.406948 -4.10441e-11
-2.54358e-11 -4.10441e-11 0.179389

4.96219 1.20973 -3.70074e-17
1.20973 5.40066 1.75374e-11
-3.70074e-17 1.75374e-11 4.57349

5.52449 1.19632 1.5033e-11
1.19632 4.33005 8.86515e-12
1.5033e-11 8.86515e-12 4.47997

1.16944 0.239968 8.11206e-11
0.239968 -3.79221 -2.63476e-11
8.11206e-11 -2.63476e-11 -1.03179

1.12863 -0.242218 -5.9727e-12
-0.242218 -3.80679 -3.63624e-12
-5.9727e-12 -3.63624e-12 -1.03663

0.191347 -0.210447 3.73811e-11
-0.210447 -2.02782 -1.89271e-11
3.73811e-11 -1.89271e-11 -1.23472

-1.02751 1.34177 1.88821e-11
1.34177 1.594 -1.35831e-11
1.88821e-11 -1.35831e-11 0.122136

2.73353 -0.943008 -1.59465e-11
-0.943008 0.227264 -6.26155e-12
-1.59465e-11 -6.26155e-12 0.723825

-1.11215 -1.14569 3.41024e-11
-1.14569 -0.430849 3.40081e-11
3.41024e-11 3.40081e-11 -0.686761

-1.10657 1.14733 7.70236e-13
1.14733 -0.429256 -5.47222e-11
7.70236e-13 -5.47222e-11 -0.685158

-1.8153 -0.157628 5.16345e-11
-0.157628 -0.206816 5.26683e-11
5.16345e-11 5.26683e-11 -4.63553

-1.80098 0.155436 3.46799e-12
0.155436 -0.243997 3.93134e-11
3.46799e-12 3.93134e-11 -4.62481

-2.18881 -1.9592 2.31333e-12
-1.9592 0.741928 -2.72659e-11
2.31333e-12 -2.72659e-11 -0.328986

1.50807 1.55058 -2.00402e-11
1.55058 -1.35247 -1.91865e-13
-2.00402e-11 -1.91865e-13 0.0627201

0.10033 -0.192722 -2.22557e-11
-0.192722 -2.47068 1.06926e-11
-2.22557e-11 1.06926e-11 -1.13126

0.104419 0.209833 -5.97315e-12
0.209833 -2.47547 9.14824e-13
-5.97315e-12 9.14824e-13 -1.13389

-2.45073 -1.24356 -4.62552e-12
-1.24356 -0.0826972 4.39327e-11
-4.62552e-12 4.39327e-11 -0.491977

-2.97313 -1.98753 1.73421e-11
-1.98753 -1.05904 -2.13885e-11
1.73421e-11 -2.13885e-11 -0.623283

10.3621 -2.89142 -3.66147e-11
-2.89142 10.4503 -3.7989e-11
-3.66147e-11 -3.7989e-11 10.4565

-2.37667 -1.85657 -2.73599e-11
-1.85657 -0.766401 -4.31592e-11
-2.73599e-11 -4.31592e-11 -1.22562

-2.3478 1.87294 -2.54337e-11
1.87294 -0.775548 -4.04646e-12
-2.54337e-11 -4.04646e-12 -1.21057

-2.68194 -1.91049 -3.39125e-11
-1.91049 -0.300977 5.20341e-12
-3.39125e-11 5.20341e-12 -0.449508

2.73717 1.00014 -7.70639e-12
1.00014 0.159346 -1.2909e-11
-7.70639e-12 -1.2909e-11 0.692891

0.154345 -1.75986 1.18509e-11
-1.75986 -1.30169 -3.27556e-11
1.18509e-11 -3.27556e-11 -0.461652

-0.357785 -1.95483 -5.16395e-11
-1.95483 -1.91568 1.61856e-11
-5.16395e-11 1.61856e-11 -0.958652

-0.259298 1.90749 -4.70146e-11
1.90749 -1.95145 -9.44218e-12
-4.70146e-11 -9.44218e-12 -0.930823

1.02127 -1.09257 5.77997e-12
-1.09257 -3.33889 1.58473e-11
5.77997e-12 1.58473e-11 -0.553547

-0.140572 0.480289 4.72065e-11
0.480289 -3.37856 2.92869e-11
4.72065e-11 2.92869e-11 -1.74591

-0.158548 -0.471267 -2.15798e-11
-0.471267 -3.3392 -3.69934e-11
-2.15798e-11 -3.69934e-11 -1.73666

-5.32588 -0.758746 2.23481e-11
-0.758746 -1.27959 5.14467e-11
2.23481e-11 5.14467e-11 -4.6115

-4.54527 1.65707 2.85158e-11
1.65707 -1.57458 3.41031e-11
2.85158e-11 3.41031e-11 -4.49758

6.31488 0.2458 7.68551e-13
0.2458 3.47469 -5.97432e-11
7.68551e-13 -5.97432e-11 6.2707

4.37693 0.459579 -3.73867e-11
0.459579 5.76969 1.44652e-11
-3.73867e-11 1.44652e-11 6.30556

-1.73147 1.82814 -2.08095e-11
1.82814 0.484813 -7.80359e-12
-2.08095e-11 -7.80359e-12 -0.454323

-1.72562 -1.82927 7.51403e-12
-1.82927 0.492958 3.27475e-12
7.51403e-12 3.27475e-12 -0.451132

-2.13991 -2.33717 -4.62502e-12
-2.33717 0.705793 2.4471e-11
-4.62502e-12 2.4471e-11 -0.331942

6.38754 -1.21928 -1.00206e-11
-1.21928 6.1435 -2.24036e-11
-1.00206e-11 -2.24036e-11 7.09914

6.66836 -1.00647 -5.55022e-11
-1.00647 6.27581 -1.9898e-11
-5.55022e-11 -1.9898e-11 7.20461

-6.57597 1.61459 -6.06874e-11
1.61459 -3.35129 3.4683e-11
-6.06874e-11 3.4683e-11 -6.23661

-6.61989 -1.69728 -3.96989e-11
-1.69728 -3.52239 2.44984e-10
-3.96989e-11 2.44984e-10 -6.28042

-0.134995 -2.21356 1.69579e-11
-2.21356 -1.46653 -1.84024e-11
1.69579e-11 -1.84024e-11 -0.415995

-0.171198 -1.78776 2.30952e-12
-1.78776 0.936057 5.21223e-11
2.30952e-12 5.21223e-11 0.172732

-1.64336 1.76175 -1.00192e-11
1.76175 -0.357157 -2.49532e-11
-1.00192e-11 -2.49532e-11 -0.605312

-1.643 -1.76103 1.34785e-12
-1.76103 -0.360315 1.06932e-11
1.34785e-12 1.06932e-11 -0.605433

-1.14246 -2.08077 2.83247e-11
-2.08077 0.619153 -3.94072e-11
2.83247e-11 -3.94072e-11 -0.14382

-0.126909 1.81268 -3.79611e-11
1.81268 0.913157 1.34818e-12
-3.79611e-11 1.34818e-12 0.177792

2.40462 -0.666696 4.50928e-11
-0.666696 4.28996 -4.30693e-11
4.50928e-11 -4.30693e-11 2.76035

2.535 0.560734 1.00177e-11
0.560734 4.52683 4.09047e-11
1.00177e-11 4.09047e-11 2.86245

4.73483 0.47944 -2.98697e-11
0.47944 2.3389 2.44401e-12
-2.98697e-11 2.44401e-12 2.89359

-1.12163 2.0756 -3.66093e-11
2.0756 0.625465 2.64943e-11
-3.66093e-11 2.64943e-11 -0.137434

3.25155 -0.31482 -2.19678e-11
-0.31482 5.30218 -2.0549e-11
-2.19678e-11 -2.0549e-11 3.8849

5.63108 -0.189287 2.58245e-11
-0.189287 2.67643 8.74393e-12
2.58245e-11 8.74393e-12 3.85986

-2.19376 -1.70361 -2.77456e-11
-1.70361 -0.651947 3.85484e-12
-2.77456e-11 3.85484e-12 -1.02585

-2.17403 1.69515 1.44517e-11
1.69515 -0.647113 4.55702e-11
1.44517e-11 4.55702e-11 -1.02136

-2.26795 -1.29361 2.06161e-11
-1.29361 -0.858533 3.02506e-11
2.06161e-11 3.02506e-11 -1.22016

-2.25638 1.29328 2.35072e-11
1.29328 -0.892373 -3.90173e-11
2.35072e-11 -3.90173e-11 -1.22456

6.95051 1.12014 1.52262e-11
1.12014 6.27313 -1.18492e-11
1.52262e-11 -1.18492e-11 7.46049

6.91687 1.06831 -3.93141e-11
1.06831 6.40479 -1.76453e-11
-3.93141e-11 -1.76453e-11 7.50839

-0.6696 1.61745 1.65716e-11
1.61745 0.446508 -2.63976e-11
1.65716e-11 -2.63976e-11 -0.151172

-0.666811 -1.62822 6.35758e-12
-1.62822 0.461744 2.10035e-11
6.35758e-12 2.10035e-11 -0.147795

-3.77394 -1.56867 -3.96906e-11
-1.56867 -1.54418 1.2137e-11
-3.96906e-11 1.2137e-11 -3.11684

-3.30032 0.706252 1.27127e-11
0.706252 -2.92952 -5.91539e-11
1.27127e-11 -5.91539e-11 -3.30502

-2.78011 -1.75711 1.92679e-13
-1.75711 -0.117852 -8.18918e-12
1.92679e-13 -8.18918e-12 -1.09882

-2.79247 1.75797 5.00956e-11
1.75797 -0.178188 -1.46423e-11
5.00956e-11 -1.46423e-11 -1.11947

-1.20354 0.115129 2.87103e-11
0.115129 -4.03868 2.97679e-11
2.87103e-11 2.97679e-11 -2.20704

-1.20681 -0.0987074 -2.56264e-11
-0.0987074 -4.02288 -3.17434e-11
-2.56264e-11 -3.17434e-11 -2.20057

-1.33914 -1.98933 8.8633e-12
-1.98933 -1.15865 4.81254e-13
8.8633e-12 4.81254e-13 -0.643077

-1.26616 2.01474 2.77466e-11
2.01474 -1.21623 -9.34317e-12
2.77466e-11 -9.34317e-12 -0.638996

-2.03854 0.485366 -3.66085e-11
0.485366 -4.59436 -2.92856e-11
-3.66085e-11 -2.92856e-11 -3.70641

-3.88167 0.0833566 -7.18698e-11
0.0833566 -5.42915 -2.0713e-11
-7.18698e-11 -2.0713e-11 -5.11327

-2.03851 -0.492233 7.36029e-11
-0.492233 -4.58653 3.54498e-11
7.36029e-11 3.54498e-11 -3.70506

-3.88797 -0.132405 -3.87285e-11
-0.132405 -5.5241 -8.84359e-11
-3.87285e-11 -8.84359e-11 -5.13361

-4.50116 0.0819477 -1.96498e-11
0.0819477 -2.32134 7.39882e-11
-1.96498e-11 7.39882e-11 -3.97405

-1.24512 1.9575 4.81679e-11
1.9575 -2.6878 5.77086e-11
4.81679e-11 5.77086e-11 -3.52683

-1.24026 -1.94992 -5.39594e-12
-1.94992 -2.6793 -5.00886e-12
-5.39594e-12 -5.00886e-12 -3.53376

-5.36793 -1.04851 1.92633e-12
-1.04851 -0.312129 -2.73602e-11
1.92633e-12 -2.73602e-11 -3.71971

-5.47039 -0.925762 -4.81696e-12
-0.925762 -4.9262 -7.25436e-11
-4.81696e-12 -7.25436e-11 -5.43668

1.11615 -1.34136 4.46428e-10
-1.34136 -9.87296 -1.25545e-10
4.46428e-10 -1.25545e-10 -6.28903

-5.56599 0.975005 1.47208e-10
0.975005 -4.75162 1.75047e-10
1.47208e-10 1.75047e-10 -5.395

1.13455 1.24013 1.45275e-10
1.24013 -9.46428 2.05192e-10
1.45275e-10 2.05192e-10 -6.17095

-3.27231 -1.26826 -1.50282e-11
-1.26826 -3.80636 -1.04039e-11
-1.50282e-11 -1.04039e-11 -4.00318

-2.62606 -0.884081 -7.70684e-12
-0.884081 -1.28105 1.20428e-11
-7.70684e-12 1.20428e-11 -2.05994

-5.10322 -0.0734657 -3.23701e-11
-0.0734657 -6.34609 -1.28607e-10
-3.23701e-11 -1.28607e-10 -6.04639

-3.31591 1.33141 2.10027e-11
1.33141 -3.78273 1.74368e-11
2.10027e-11 1.74368e-11 -3.99409

-2.60948 0.914334 -3.08277e-11
0.914334 -1.33917 2.26402e-11
-3.08277e-11 2.26402e-11 -2.07014

-5.06647 0.0829458 5.58783e-12
0.0829458 -6.09764 3.48729e-11
5.58783e-12 3.48729e-11 -5.96374

-3.56531 -0.729717 3.84507e-13
-0.729717 -2.49105 -5.21189e-11
3.84507e-13 -5.21189e-11 -2.85116

-3.12103 -0.409116 1.48354e-11
-0.409116 -3.68289 -2.56253e-11
1.48354e-11 -2.56253e-11 -3.78535

-3.52914 0.764201 -8.09182e-12
0.764201 -2.48699 3.4683e-11
-8.09182e-12 3.4683e-11 -2.83697

-3.09908 0.427659 1.34868e-11
0.427659 -3.6653 5.18288e-11
1.34868e-11 5.18288e-11 -3.76948

0.0738316 1.72366 3.54557e-11
1.72366 2.06332 2.23533e-11
3.54557e-11 2.23533e-11 0.535267

-2.40065 0.34808 3.7765e-11
0.34808 1.26366 1.54277e-12
3.7765e-11 1.54277e-12 -0.371045

-0.863749 0.92889 2.88973e-12
0.92889 0.568428 5.00918e-12
2.88973e-12 5.00918e-12 -0.274514

1.5603 -1.12797 7.72234e-13
-1.12797 -2.18741 -8.09222e-12
7.72234e-13 -8.09222e-12 -0.00534607

2.16795 -0.689623 1.29122e-11
-0.689623 -1.25063 6.93388e-12
1.29122e-11 6.93388e-12 0.374967

-4.14436 0.528879 1.44508e-11
0.528879 0.829368 1.34887e-11
1.44508e-11 1.34887e-11 -1.27183

-2.86385 0.959522 3.8541e-12
0.959522 -1.13489 -2.40857e-11
3.8541e-12 -2.40857e-11 -1.41785

2.103 -0.00652096 -1.92698e-12
-0.00652096 -1.15474 1.42583e-11
-1.92698e-12 1.42583e-11 0.375217

0.245486 0.436182 -1.83055e-11
0.436182 -3.74751 1.34888e-12
-1.83055e-11 1.34888e-12 -0.631687

1.24513 1.4905 -3.25644e-11
1.4905 3.43042 -1.63798e-11
-3.25644e-11 -1.63798e-11 1.71316

0.894889 1.17914 -1.25246e-11
1.17914 3.5968 1.8885e-11
-1.25246e-11 1.8885e-11 1.81543

3.46264 1.18168 -7.03574e-12
1.18168 1.35317 1.96544e-11
-7.03574e-12 1.96544e-11 1.90192

-1.61042 -1.80244 -2.58176e-11
-1.80244 -0.606381 -1.92328e-13
-2.58176e-11 -1.92328e-13 -1.16629

-1.84871 -0.757035 -7.71411e-13
-0.757035 0.147547 2.54332e-11
-7.71411e-13 2.54332e-11 -1.03718

0.0912206 -2.08017 -2.37013e-11
-2.08017 -0.175252 7.3222e-12
-2.37013e-11 7.3222e-12 0.0346189

-1.35885 1.67336 7.32233e-12
1.67336 1.263 -2.62068e-11
7.32233e-12 -2.62068e-11 -0.006728

-1.89838 1.95487 1.23318e-11
1.95487 0.541266 3.31432e-11
1.23318e-11 3.31432e-11 -0.33889

-2.93612 -0.944939 7.51608e-12
-0.944939 -1.16408 -3.71878e-11
7.51608e-12 -3.71878e-11 -1.46844

-4.14984 -0.626418 -8.09344e-12
-0.626418 0.93398 3.39121e-11
-8.09344e-12 3.39121e-11 -1.27363

1.89096 0.525546 1.7921e-11
0.525546 -2.1988 1.34898e-11
1.7921e-11 1.34898e-11 -0.0514065

0.870589 0.49014 -2.21616e-11
0.49014 3.66703 -4.43238e-12
-2.21616e-11 -4.43238e-12 1.37078

0.296223 0.216554 1.68624e-11
0.216554 3.63479 -2.11979e-11
1.68624e-11 -2.11979e-11 1.35205

3.87973 0.203912 -7.70569e-13
0.203912 0.876781 2.23562e-11
-7.70569e-13 2.23562e-11 1.53126

-0.737059 1.17762 2.89032e-11
1.17762 2.12657 -4.47061e-11
2.89032e-11 -4.47061e-11 0.482917

0.0134445 1.92536 2.50648e-12
1.92536 1.65434 4.00802e-11
2.50648e-12 4.00802e-11 0.462764

1.23439 0.327262 2.52434e-11
0.327262 -2.37531 5.43384e-11
2.52434e-11 5.43384e-11 -0.0992391

3.36678 0.89088 -1.57991e-11
0.89088 5.04677 5.76222e-11
-1.57991e-11 5.76222e-11 3.2383

0.906934 -1.20567 3.16004e-11
-1.20567 -3.1862 -3.84933e-13
3.16004e-11 -3.84933e-13 -0.410151

-2.23958 0.0915436 -2.36985e-11
0.0915436 0.437457 2.3892e-11
-2.36985e-11 2.3892e-11 -1.36386

-1.44483 0.0260328 1.88835e-11
0.0260328 -1.07462 -1.20417e-11
1.88835e-11 -1.20417e-11 -1.46607

-0.538726 0.809308 -2.58187e-11
0.809308 -5.10012 3.12122e-11
-2.58187e-11 3.12122e-11 -4.10187

-0.179723 -1.94887 -3.50701e-11
-1.94887 -3.44933 1.11769e-11
-3.50701e-11 1.11769e-11 -3.84178

-0.354284 -2.20754 -6.93643e-12
-2.20754 0.232757 -2.42799e-11
-6.93643e-12 -2.42799e-11 0.0715717

-0.54895 -1.78533 1.31039e-11
-1.78533 1.43401 -5.78108e-12
1.31039e-11 -5.78108e-12 0.383598

3.56887 -0.614539 -3.63263e-11
-0.614539 0.267094 -1.3103e-11
-3.63263e-11 -1.3103e-11 1.37836

-0.329485 0.316224 3.4686e-12
0.316224 -2.52247 -1.3101e-11
3.4686e-12 -1.3101e-11 -1.53779

-0.032936 -1.15289 2.42768e-11
-1.15289 -2.08116 3.31408e-11
2.42768e-11 3.31408e-11 -1.41584

0.314533 -0.512543 -1.88832e-11
-0.512543 -3.69548 -4.23906e-12
-1.88832e-11 -4.23906e-12 -0.598594

0.544562 -0.152565 -9.70705e-14
-0.152565 -4.00447 -2.31217e-12
-9.70705e-14 -2.31217e-12 -0.502617

2.15019 -1.82043 1.19481e-11
-1.82043 0.366284 1.58007e-11
1.19481e-11 1.58007e-11 0.752273

2.66323 0.841462 -3.08257e-12
0.841462 -0.37879 1.21394e-11
-3.08257e-12 1.21394e-11 0.753125

2.47224 -1.4855 -7.51429e-12
-1.4855 -0.463893 -2.42781e-11
-7.51429e-12 -2.42781e-11 0.699651

-3.07504 1.22415 2.65887e-11
1.22415 0.849305 -1.3487e-11
2.65887e-11 -1.3487e-11 -0.358293

-0.558702 -1.47905 -7.70883e-13
-1.47905 1.99357 -4.23942e-12
-7.70883e-13 -4.23942e-12 0.486541

-0.677998 1.42199 -2.16776e-11
1.42199 1.44476 1.23305e-11
-2.16776e-11 1.23305e-11 0.37323

9.88137 -2.25815 -1.17549e-11
-2.25815 9.98107 -4.37466e-11
-1.17549e-11 -4.37466e-11 9.84359

9.24519 1.38957 2.15848e-11
1.38957 9.96761 4.89496e-11
2.15848e-11 4.89496e-11 9.71751

-3.68581 -1.69393 -3.17924e-11
-1.69393 0.136352 1.04051e-11
-3.17924e-11 1.04051e-11 -0.973264

-2.12201 1.12353 3.04464e-11
1.12353 1.40561 2.96753e-11
3.04464e-11 2.96753e-11 -0.0087246

5.66399 0.234976 3.9507e-11
0.234976 5.87037 -1.04065e-11
3.9507e-11 -1.04065e-11 6.45396

5.87969 -0.456854 -7.30375e-11
-0.456854 6.5778 -6.07078e-11
-7.30375e-11 -6.07078e-11 6.63009

-2.18311 -0.672005 -6.79187e-11
-0.672005 -1.16751 -1.42594e-11
-6.79187e-11 -1.42594e-11 -1.71453

-2.32509 1.42304 2.73583e-11
1.42304 -1.74252 -3.85246e-12
2.73583e-11 -3.85246e-12 -1.74557

2.32161 0.0153522 -1.44047e-11
0.0153522 -2.57842 1.46423e-11
-1.44047e-11 1.46423e-11 -0.0625847

-2.35174 -0.449697 -6.04753e-11
-0.449697 -2.15206 -5.87682e-11
-6.04753e-11 -5.87682e-11 -1.96437

-2.32574 1.32848 -2.50991e-11
1.32848 -1.72417 2.6974e-11
-2.50991e-11 2.6974e-11 -1.79004

-0.738827 1.4599 -5.3943e-12
1.4599 -4.52723 5.51027e-11
-5.3943e-12 5.51027e-11 -3.30937

-0.941302 -1.78593 5.93432e-11
-1.78593 -2.9242 2.4662e-11
5.93432e-11 2.4662e-11 -3.16739

-1.22844 -1.07618 3.42501e-11
-1.07618 -1.07039 -2.83256e-11
3.42501e-11 -2.83256e-11 -0.859118

-1.25245 1.42313 1.75816e-11
1.42313 -1.35074 3.26105e-11
1.75816e-11 3.26105e-11 -0.804191

-3.8247 -0.113647 1.27144e-11
-0.113647 0.0775526 5.00816e-12
1.27144e-11 5.00816e-12 -3.04094

-3.96929 0.511527 -7.70865e-13
0.511527 -2.18728 -2.04237e-11
-7.70865e-13 -2.04237e-11 -3.41724

-0.307163 -2.03344 -1.92694e-11
-2.03344 2.01291 -1.50301e-11
-1.92694e-11 -1.50301e-11 0.419036

2.70518 0.214324 1.69564e-11
0.214324 4.8455 1.46483e-11
1.69564e-11 1.46483e-11 3.31132

4.70361 0.276186 -1.86938e-11
0.276186 2.94802 -2.96804e-11
-1.86938e-11 -2.96804e-11 3.31616

-3.09008 1.06924 4.56657e-11
1.06924 1.09996 1.15726e-12
4.56657e-11 1.15726e-12 -0.385634

-1.9091 1.57016 3.85849e-13
1.57016 0.660603 3.42986e-11
3.85849e-13 3.42986e-11 -0.345658

-4.54677 -1.48891 2.72248e-12
-1.48891 -7.20507 -7.45596e-11
2.72248e-12 -7.45596e-11 -6.88714

-4.72558 2.30948 -5.86718e-11
2.30948 -2.07365 -5.54873e-11
-5.86718e-11 -5.54873e-11 -5.90436

1.56611 1.43773 2.77481e-11
1.43773 0.801656 2.13873e-11
2.77481e-11 2.13873e-11 0.668128

-1.91724 2.42866 2.4471e-11
2.42866 0.517974 4.24e-12
2.4471e-11 4.24e-12 -0.351365

0.281415 0.922307 -4.33048e-11
0.922307 -2.1187 -2.35097e-11
-4.33048e-11 -2.35097e-11 -0.472849

0.351258 -0.732883 -1.43553e-11
-0.732883 -2.09539 -6.55128e-12
-1.43553e-11 -6.55128e-12 -0.5256

-1.73606 2.30648 2.81313e-11
2.30648 -0.187983 5.39598e-12
2.81313e-11 5.39598e-12 -0.499964

-2.53808 -2.2763 -2.84197e-11
-2.2763 -0.0521385 -1.09821e-11
-2.84197e-11 -1.09821e-11 -0.883938

-0.0307604 -1.94714 1.69578e-11
-1.94714 -3.24638 1.92738e-12
1.69578e-11 1.92738e-12 -1.35565

3.47965 -0.17375 -3.55521e-11
-0.17375 0.353613 -1.71505e-11
-3.55521e-11 -1.71505e-11 1.38202

-0.702529 0.271894 7.16682e-11
0.271894 -2.13143 8.09224e-11
7.16682e-11 8.09224e-11 -4.43215

-0.605875 -0.169052 2.92853e-11
-0.169052 -5.22212 1.19449e-11
2.92853e-11 1.19449e-11 -4.87389

0.323177 1.76988 8.09264e-12
1.76988 -0.459012 -6.74462e-12
8.09264e-12 -6.74462e-12 0.0285759

1.85671 0.672593 5.39583e-12
0.672593 -1.48732 -1.69574e-11
5.39583e-12 -1.69574e-11 0.0762725

2.08303 1.51021 -2.38927e-11
1.51021 2.77549 -3.47085e-12
-2.38927e-11 -3.47085e-12 1.54927

-4.72988 0.360083 -1.12714e-10
0.360083 -3.61541 -2.67838e-11
-1.12714e-10 -2.67838e-11 -4.51342

-3.63869 1.04613 1.5401e-12
1.04613 -0.344678 -2.73605e-11
1.5401e-12 -2.73605e-11 -3.78035

-0.362412 0.966216 -1.1573e-12
0.966216 -3.95369 -3.60313e-11
-1.1573e-12 -3.60313e-11 -1.55276

-2.49689 -0.408998 1.44482e-12
-0.408998 1.32747 -1.15612e-11
1.44482e-12 -1.15612e-11 -0.438294

-0.977212 -0.875058 -7.99558e-12
-0.875058 0.597777 -2.81317e-11
-7.99558e-12 -2.81317e-11 -0.34921

1.45488 0.281006 -4.07785e-11
0.281006 -3.25607 -1.11786e-11
-4.07785e-11 -1.11786e-11 -0.429724

1.62088 -0.218706 -1.79925e-11
-0.218706 -3.27614 1.19452e-11
-1.79925e-11 1.19452e-11 -0.428194

3.06448 -1.51411 -2.28353e-11
-1.51411 2.36002 4.60551e-11
-2.28353e-11 4.60551e-11 1.69714

2.84267 0.00456577 1.17073e-11
0.00456577 -1.23189 8.0932e-12
1.17073e-11 8.0932e-12 0.420258

0.27825 -0.245137 1.06215e-11
-0.245137 -3.13462 -3.3719e-11
1.06215e-11 -3.3719e-11 -0.989053

-0.0722613 0.499053 9.05561e-12
0.499053 -2.76024 -4.62504e-12
9.05561e-12 -4.62504e-12 -0.927305

1.97 -0.629493 -1.43555e-11
-0.629493 -1.0831 2.83255e-11
-1.43555e-11 2.83255e-11 0.116965

-0.118422 -1.79516 -2.79401e-11
-1.79516 1.95417 -3.66127e-11
-2.79401e-11 -3.66127e-11 0.42892

1.58884 -0.14328 5.15458e-12
-0.14328 -2.27248 3.85288e-12
5.15458e-12 3.85288e-12 -0.345935

1.34174 0.320931 -2.75048e-11
0.320931 -2.39584 -3.91139e-11
-2.75048e-11 -3.91139e-11 -0.36717

1.10288 0.731587 4.04484e-12
0.731587 -1.80602 9.05774e-12
4.04484e-12 9.05774e-12 -0.0740792

1.23519 -2.28467 4.12373e-11
-2.28467 0.932858 1.19457e-11
4.12373e-11 1.19457e-11 0.812037

-2.58573 2.20374 1.65725e-11
2.20374 -0.560212 5.97335e-11
1.65725e-11 5.97335e-11 -0.51086

-1.97818 2.16559 2.89065e-12
2.16559 0.592076 2.25449e-11
2.89065e-12 2.25449e-11 -0.379041

-3.1381 1.6338 -1.76307e-11
1.6338 -0.678952 -1.00204e-11
-1.76307e-11 -1.00204e-11 -0.651434

2.7548 0.797188 -2.21601e-12
0.797188 -0.757503 3.08307e-11
-2.21601e-12 3.08307e-11 0.624926

4.24079 -1.57568 6.9403e-12
-1.57568 2.8584 -1.04062e-11
6.9403e-12 -1.04062e-11 2.89234

-0.204619 1.33095 -2.19675e-11
1.33095 -2.05131 -3.6996e-11
-2.19675e-11 -3.6996e-11 -0.58376

1.51538 -1.41791 2.58213e-11
-1.41791 -1.39003 -3.314e-11
2.58213e-11 -3.314e-11 0.0893402

4.31246 -1.36552 7.682e-13
-1.36552 2.5577 4.62621e-12
7.682e-13 4.62621e-12 2.79567

0.700765 -2.27657 -2.56291e-11
-2.27657 -0.824952 2.04241e-11
-2.56291e-11 2.04241e-11 0.0607675

-2.34347 0.0582215 -2.17738e-11
0.0582215 0.266854 -6.16659e-12
-2.17738e-11 -6.16659e-12 -0.598678

-3.40566 0.000254361 -8.47807e-12
0.000254361 1.69035 -2.35086e-11
-8.47807e-12 -2.35086e-11 -0.454665

0.957396 1.94084 1.06013e-11
1.94084 1.12858 4.4899e-11
1.06013e-11 4.4899e-11 0.665909

3.47621 -1.61576 -1.00177e-11
-1.61576 1.21279 -2.38934e-11
-1.00177e-11 -2.38934e-11 1.73453

-1.62004 -2.36252 -4.50899e-11
-2.36252 -0.807399 2.89049e-11
-4.50899e-11 2.89049e-11 -0.473191

0.932218 -2.11154 -2.85195e-11
-2.11154 2.02167 -1.52223e-11
-2.85195e-11 -1.52223e-11 0.794945

0.911165 -2.1351 1.73421e-11
-2.1351 1.87123 1.50321e-11
1.73421e-11 1.50321e-11 0.890704

1.03468 1.09222 1.4065e-11
1.09222 -1.02203 -5.58575e-12
1.4065e-11 -5.58575e-12 0.0122115

0.535699 0.690503 -3.46897e-12
0.690503 -5.64835 -2.13868e-11
-3.46897e-12 -2.13868e-11 -1.1444

0.471028 -1.08774 -5.39346e-12
-1.08774 -4.67203 -4.20041e-11
-5.39346e-12 -4.20041e-11 -1.02293

-0.426183 1.21352 -9.82676e-12
1.21352 2.33657 -2.50544e-12
-9.82676e-12 -2.50544e-12 0.534793

-1.22325 0.828461 1.5318e-11
0.828461 2.62355 -5.39528e-12
1.5318e-11 -5.39528e-12 0.517591

0.168052 -0.175991 2.50514e-11
-0.175991 3.8228 2.35102e-11
2.50514e-11 2.35102e-11 1.4268

-0.182274 -0.23449 7.12961e-12
-0.23449 4.04291 -2.11969e-11
7.12961e-12 -2.11969e-11 1.50877

4.24986 -0.154949 6.26055e-12
-0.154949 0.263266 1.75379e-11
6.26055e-12 1.75379e-11 1.65084

1.57141 -1.9245 1.55128e-11
-1.9245 0.452829 -6.16729e-12
1.55128e-11 -6.16729e-12 0.618355

-6.59835 -1.42039 4.23872e-11
-1.42039 -4.44959 -9.15213e-11
4.23872e-11 -9.15213e-11 -6.23678

-0.579547 -0.564717 -1.23113e-10
-0.564717 -0.563182 5.47177e-11
-1.23113e-10 5.47177e-11 -4.42939

2.20602 1.35672 2.11831e-12
1.35672 -0.0705018 -2.15824e-11
2.11831e-12 -2.15824e-11 0.748833

2.75667 -0.92471 3.78649e-11
-0.92471 -0.8385 -1.54166e-11
3.78649e-11 -1.54166e-11 0.548281

4.11032 0.847988 -1.05998e-11
0.847988 2.15286 -4.04702e-12
-1.05998e-11 -4.04702e-12 2.56587

-2.34664 1.39152 1.57047e-11
1.39152 0.53768 3.47015e-12
1.57047e-11 3.47015e-12 -0.196214

2.35134 0.0232346 3.80547e-12
0.0232346 -2.52013 6.35776e-12
3.80547e-12 6.35776e-12 -0.0585068

-2.5949 2.12214 4.43087e-12
2.12214 -0.104674 -1.8883e-11
4.43087e-12 -1.8883e-11 -0.7921

-4.24686 1.6859 -1.55104e-11
1.6859 0.141473 3.85325e-12
-1.55104e-11 3.85325e-12 -0.982896

1.70964 1.09187 6.26181e-12
1.09187 2.88641 7.8002e-12
6.26181e-12 7.8002e-12 1.60257

2.73659 1.21524 1.24338e-11
1.21524 2.40775 3.08313e-12
1.24338e-11 3.08313e-12 1.73619

-2.04429 -2.56354 -4.19092e-11
-2.56354 0.465677 2.77487e-11
-4.19092e-11 2.77487e-11 -0.466348

4.14441 0.685157 5.77975e-12
0.685157 2.06933 -4.89446e-11
5.77975e-12 -4.89446e-11 2.54239

-3.19104 1.89351 -7.2725e-12
1.89351 -1.28332 8.47768e-12
-7.2725e-12 8.47768e-12 -0.724324

-1.15192 2.30827 3.25639e-11
2.30827 1.00843 -2.31134e-12
3.25639e-11 -2.31134e-12 -0.0299301

2.09005 -0.0327559 -1.71494e-11
-0.0327559 -3.68545 -1.1561e-11
-1.71494e-11 -1.1561e-11 -0.348425

-2.64262 -1.74913 5.97463e-12
-1.74913 -1.25613 -7.32181e-12
5.97463e-12 -7.32181e-12 -0.724997

0.250795 1.88796 2.60123e-11
1.88796 0.37433 2.60126e-11
2.60123e-11 2.60126e-11 0.153856

0.806612 -0.925031 2.89032e-11
-0.925031 3.38187 -1.38759e-11
2.89032e-11 -1.38759e-11 1.21015

0.160895 -0.880829 -6.57088e-11
-0.880829 3.48229 5.16456e-11
-6.57088e-11 5.16456e-11 1.20377

3.51698 -0.656086 -1.61841e-11
-0.656086 0.877357 -2.48542e-11
-1.61841e-11 -2.48542e-11 1.33947

1.28105 -1.72842 1.53988e-12
-1.72842 1.53574 8.67129e-12
1.53988e-12 8.67129e-12 0.709484

-1.57731 -0.113753 -3.9499e-11
-0.113753 2.39129 1.69559e-11
-3.9499e-11 1.69559e-11 0.252481

-0.244308 -0.0163203 -1.38744e-11
-0.0163203 2.09657 -3.21785e-11
-1.38744e-11 -3.21785e-11 0.365515

2.11658 -1.85097 -1.04059e-11
-1.85097 2.96725 3.39168e-11
-1.04059e-11 3.39168e-11 1.79431

1.58461 -1.79877 -4.35545e-11
-1.79877 3.24955 4.97179e-11
-4.35545e-11 4.97179e-11 1.81541

2.00566 -0.0919933 -1.33681e-11
-0.0919933 -3.38066 -2.50481e-11
-1.33681e-11 -2.50481e-11 -0.341157

2.14666 0.0955192 3.68544e-12
0.0955192 -3.44887 -2.19655e-11
3.68544e-12 -2.19655e-11 -0.348545

-1.85541 1.76421 -1.43549e-11
1.76421 -0.148162 2.08109e-11
-1.43549e-11 2.08109e-11 -0.241374

-4.11779 -1.48685 2.71683e-11
-1.48685 0.0486966 -2.31185e-12
2.71683e-11 -2.31185e-12 -0.938744

-0.185483 -2.28562 -1.96532e-11
-2.28562 -1.45509 -3.08292e-11
-1.96532e-11 -3.08292e-11 -0.420449

-1.27525 0.870274 9.11862e-11
0.870274 -2.21087 3.57432e-11
9.11862e-11 3.57432e-11 -1.24799

-0.960564 -0.263963 -1.01688e-10
-0.263963 -1.8253 -2.823e-11
-1.01688e-10 -2.823e-11 -1.19606

0.441533 -0.952451 2.74588e-12
-0.952451 -0.608796 6.55037e-12
2.74588e-12 6.55037e-12 -0.258447

0.255489 1.14673 -1.5559e-11
1.14673 -1.28101 -1.54295e-12
-1.5559e-11 -1.54295e-12 -0.321342

5.48833 -0.958152 -7.90055e-12
-0.958152 3.39362 -3.31472e-11
-7.90055e-12 -3.31472e-11 5.99419

0.566262 1.81787 -1.22365e-11
1.81787 1.70908 -7.72456e-13
-1.22365e-11 -7.72456e-13 0.768277

4.16105 0.661524 -1.14667e-10
0.661524 5.53601 -2.23573e-11
-1.14667e-10 -2.23573e-11 6.12424

-0.901311 2.04545 3.66107e-12
2.04545 0.245985 -5.39602e-12
3.66107e-12 -5.39602e-12 -0.167139

-0.537591 -1.43287 3.24687e-11
-1.43287 2.53443 -1.92708e-11
3.24687e-11 -1.92708e-11 0.523298

-1.25394 -1.27737 -3.41063e-11
-1.27737 2.49376 -6.93693e-12
-3.41063e-11 -6.93693e-12 0.489406

-2.84735 -0.43891 -3.66935e-11
-0.43891 -3.3592 7.14819e-11
-3.66935e-11 7.14819e-11 -3.44683

-3.49723 1.20531 -4.68313e-11
1.20531 -2.16076 3.08178e-12
-4.68313e-11 3.08178e-12 -3.29822

0.713217 1.3567 3.14118e-11
1.3567 -0.337005 2.04263e-11
3.14118e-11 2.04263e-11 0.146243

2.87572 -0.137956 8.09234e-12
-0.137956 -1.04144 3.4686e-12
8.09234e-12 3.4686e-12 0.448393

1.7139 1.52027 -3.04442e-11
1.52027 0.307248 -4.85596e-11
-3.04442e-11 -4.85596e-11 0.723912

-2.99471 -0.877681 2.71673e-11
-0.877681 1.47919 -2.35085e-11
2.71673e-11 -2.35085e-11 -0.363272

-2.01153 -1.44756 1.23327e-11
-1.44756 0.572157 -1.88833e-11
1.23327e-11 -1.88833e-11 -0.45912

-2.18295 -2.6303 1.4932e-12
-2.6303 1.09152 -1.73435e-12
1.4932e-12 -1.73435e-12 -0.368431

0.802483 -1.46108 -1.65699e-11
-1.46108 0.238917 -1.54152e-11
-1.65699e-11 -1.54152e-11 0.160489

-2.14638 2.44896 -7.12914e-12
2.44896 0.502657 -1.23319e-11
-7.12914e-12 -1.23319e-11 -0.354773

-1.81134 1.13129 -1.00197e-11
1.13129 -0.198005 -5.78648e-13
-1.00197e-11 -5.78648e-13 -1.0861

-1.70737 1.71403 -3.21778e-11
1.71403 -0.827688 -8.28593e-12
-3.21778e-11 -8.28593e-12 -1.17658

-1.45264 -2.30253 9.24845e-12
-2.30253 1.23594 1.63793e-11
9.24845e-12 1.63793e-11 -0.121145

-1.10004 2.09095 -1.90747e-11
2.09095 0.903225 3.46636e-12
-1.90747e-11 3.46636e-12 -0.0603034

-4.34099 2.63423 1.31015e-11
2.63423 -0.665751 -3.19864e-11
1.31015e-11 -3.19864e-11 -0.777796

-2.03312 0.24741 1.64768e-11
0.24741 2.51193 -1.54103e-12
1.64768e-11 -1.54103e-12 0.23103

-1.24026 0.573567 7.12891e-12
0.573567 1.961 -3.04478e-11
7.12891e-12 -3.04478e-11 0.183246

-0.640504 1.62372 -2.82265e-11
1.62372 -0.918076 -1.19492e-11
-2.82265e-11 -1.19492e-11 -0.310262

1.15084 1.36505 -2.57235e-11
1.36505 0.983056 -8.47833e-12
-2.57235e-11 -8.47833e-12 0.678378

-1.9906 -1.41444 1.3489e-11
-1.41444 1.30215 -1.19465e-11
1.3489e-11 -1.19465e-11 -0.0284494

-2.42307 -2.47253 7.322e-12
-2.47253 0.278176 -4.04713e-12
7.322e-12 -4.04713e-12 -0.721538

4.71869 0.819029 4.18168e-11
0.819029 5.88256 9.63533e-12
4.18168e-11 9.63533e-12 4.8444

5.59644 0.853868 7.86239e-11
0.853868 4.92975 -8.47942e-12
7.86239e-11 -8.47942e-12 4.81638

2.11241 -1.82901 3.23707e-11
-1.82901 2.56542 7.68866e-13
3.23707e-11 7.68866e-13 1.66565

-0.603845 -1.69927 -4.58591e-11
-1.69927 -0.389396 3.27712e-12
-4.58591e-11 3.27712e-12 -0.332966

1.91236 -0.507142 -4.81803e-12
-0.507142 -2.17486 -1.42586e-11
-4.81803e-12 -1.42586e-11 -0.0723955

-4.42355 1.84241 -2.98631e-13
1.84241 -3.39909 3.00574e-11
-2.98631e-13 3.00574e-11 -5.56053

-2.97208 -2.00608 -5.91236e-11
-2.00608 -5.86907 -1.0423e-10
-5.91236e-11 -1.0423e-10 -5.76802

-1.37792 -2.51431 -2.30253e-11
-2.51431 1.21691 8.47903e-12
-2.30253e-11 8.47903e-12 -0.0918882

-2.4876 0.466445 -4.6253e-12
0.466445 -3.57302 3.85356e-11
-4.6253e-12 3.85356e-11 -2.91735

-1.66692 -1.90983 2.11908e-11
-1.90983 -1.60111 -8.47893e-12
2.11908e-11 -8.47893e-12 -2.44831

1.0858 -0.66384 2.31235e-11
-0.66384 -2.60348 1.04046e-11
2.31235e-11 1.04046e-11 -0.154858

-3.84266 -2.6102 1.32961e-11
-2.6102 -0.797207 -1.50297e-11
1.32961e-11 -1.50297e-11 -0.772855

3.73941 -1.5975 8.47981e-12
-1.5975 4.42483 2.08132e-11
8.47981e-12 2.08132e-11 3.70776

4.16251 1.16466 4.818e-12
1.16466 4.10009 3.08794e-12
4.818e-12 3.08794e-12 3.66657

2.34823 -0.951914 2.69798e-11
-0.951914 4.64556 -1.25259e-11
2.69798e-11 -1.25259e-11 2.89747

2.30015 -1.04455 5.00759e-12
-1.04455 4.53893 1.58006e-11
5.00759e-12 1.58006e-11 2.81014

4.87713 -0.792768 -2.6304e-11
-0.792768 2.38487 -5.68483e-11
-2.6304e-11 -5.68483e-11 2.92558

2.33567 1.41314 -1.71514e-11
1.41314 2.05228 -2.56296e-11
-1.71514e-11 -2.56296e-11 1.53196

-2.25289 -2.79616 3.47797e-11
-2.79616 0.899191 -2.33162e-11
3.47797e-11 -2.33162e-11 -0.379661

2.6345 0.142191 -1.65727e-11
0.142191 5.52472 1.27189e-11
-1.65727e-11 1.27189e-11 3.65811

5.24825 -0.423404 4.76007e-11
-0.423404 2.49203 -5.12591e-11
4.76007e-11 -5.12591e-11 3.59457

-2.65516 0.218679 -3.31384e-11
0.218679 0.257069 1.69537e-11
-3.31384e-11 1.69537e-11 -1.97401

-2.78959 -1.1378 -1.86907e-11
-1.1378 -1.70835 7.41833e-12
-1.86907e-11 7.41833e-12 -2.34647

0.844216 -1.30458 -1.44528e-11
-1.30458 -1.87024 3.23691e-11
-1.44528e-11 3.23691e-11 -0.351473

0.531231 -0.0815202 9.24886e-12
-0.0815202 -5.69854 3.35263e-11
9.24886e-12 3.35263e-11 -0.826833

0.204066 -1.4022 -2.89065e-11
-1.4022 2.79964 6.32075e-11
-2.89065e-11 6.32075e-11 1.16188

0.613652 -1.39867 -8.76773e-12
-1.39867 2.97915 -3.10257e-11
-8.76773e-12 -3.10257e-11 1.15525

1.25319 -0.0775962 2.73609e-11
-0.0775962 -2.80326 1.57991e-11
2.73609e-11 1.57991e-11 -0.146596

-1.43871 -1.92216 -1.92605e-13
-1.92216 1.40171 1.17546e-11
-1.92605e-13 1.17546e-11 -0.0414507

-1.70285 0.0301355 3.70663e-11
0.0301355 -2.65529 -1.86891e-11
3.70663e-11 -1.86891e-11 -2.33056

-2.40833 0.573898 7.51364e-12
0.573898 -2.05667 -1.00175e-11
7.51364e-12 -1.00175e-11 -2.29548

0.027737 -1.81055 9.2479e-12
-1.81055 -1.19113 -6.16392e-12
9.2479e-12 -6.16392e-12 -0.422922

-1.46966 -1.84959 4.62278e-12
-1.84959 -0.22284 1.19475e-11
4.62278e-12 1.19475e-11 -0.23616

1.02871 -1.30035 -2.56279e-11
-1.30035 -3.10339 -4.16187e-11
-2.56279e-11 -4.16187e-11 -0.439294

-1.97139 -1.6288 -2.35087e-11
-1.6288 0.497703 -1.81138e-11
-2.35087e-11 -1.81138e-11 -0.172162

10.0693 -3.10181 -1.85014e-11
-3.10181 10.3703 9.63535e-12
-1.85014e-11 9.63535e-12 10.3599

-1.01649 -0.714401 3.21784e-11
-0.714401 1.85806 5.39394e-12
3.21784e-11 5.39394e-12 0.193913

-1.75146 -0.538072 -2.85178e-11
-0.538072 2.50611 1.42589e-11
-2.85178e-11 1.42589e-11 0.279894

-3.59885 -0.26277 -3.66015e-12
-0.26277 0.91316 -3.08335e-12
-3.66015e-12 -3.08335e-12 -2.30784

-3.21525 -0.310663 -5.20439e-12
-0.310663 -2.47727 3.34296e-11
-5.20439e-12 3.34296e-11 -2.81018

1.38931 -0.174364 2.26892e-11
-0.174364 -3.75476 -3.73793e-11
2.26892e-11 -3.73793e-11 -0.74573

1.02509 0.086435 9.68257e-12
0.086435 -3.53315 -6.55074e-12
9.68257e-12 -6.55074e-12 -0.734404

-1.42755 1.35763 -1.40658e-11
1.35763 -2.23202 4.81752e-12
-1.40658e-11 4.81752e-12 -1.27213

-0.622834 -2.4374 1.15596e-11
-2.4374 -2.11503 8.09168e-12
1.15596e-11 8.09168e-12 -1.07626

-1.46351 0.484804 -9.634e-12
0.484804 -1.72068 2.31138e-12
-9.634e-12 2.31138e-12 -2.00716

-0.402421 -0.869079 1.92674e-11
-0.869079 -1.6315 -1.1949e-11
1.92674e-11 -1.1949e-11 -1.8393

-3.72685 -0.949933 7.59441e-11
-0.949933 -4.78663 -1.85156e-10
7.59441e-11 -1.85156e-10 -4.93058

-3.40457 2.8529 3.72031e-11
2.8529 -2.16368 1.1483e-10
3.72031e-11 1.1483e-10 -4.31727

-2.49343 -2.51864 1.09356e-11
-2.51864 0.152066 -3.10226e-11
1.09356e-11 -3.10226e-11 -0.793373

-3.5946 3.11786 -6.89295e-11
3.11786 -1.5137 6.93178e-12
-6.89295e-11 6.93178e-12 -1.04749

0.948133 1.25895 1.29105e-11
1.25895 -1.0914 -1.61866e-11
1.29105e-11 -1.61866e-11 0.0328946

-1.8851 -1.07426 6.55255e-12
-1.07426 1.6139 -2.73632e-11
6.55255e-12 -2.73632e-11 0.0174568

-0.696847 -1.63 4.81728e-11
-1.63 1.6299 -6.74427e-12
4.81728e-11 -6.74427e-12 0.135152

1.00186 -1.32408 2.16787e-11
-1.32408 -0.791488 -3.65874e-12
2.16787e-11 -3.65874e-12 0.020568

-0.583981 1.22706 1.38245e-11
1.22706 1.4985 -3.10246e-11
1.38245e-11 -3.10246e-11 0.16239

-1.82727 0.723805 5.61684e-11
0.723805 1.78347 9.63559e-12
5.61684e-11 9.63559e-12 0.0809024

0.113876 1.73969 -1.53992e-12
1.73969 0.0296938 3.35272e-11
-1.53992e-12 3.35272e-11 0.166745

-2.23923 2.08929 -4.68209e-11
2.08929 -0.474474 1.04035e-11
-4.68209e-11 1.04035e-11 -0.837422

-2.56042 -2.79215 2.73611e-11
-2.79215 -1.43088 -3.08403e-12
2.73611e-11 -3.08403e-12 -0.995589

0.335114 -2.13035 5.03912e-11
-2.13035 0.51275 -3.16038e-11
5.03912e-11 -3.16038e-11 0.17799

0.577685 0.616884 -6.74227e-12
0.616884 -2.07804 -2.00396e-11
-6.74227e-12 -2.00396e-11 -0.472656

-0.672209 -0.942527 1.52184e-11
-0.942527 -1.20962 5.12488e-11
1.52184e-11 5.12488e-11 -4.60545

-6.25563 0.574108 -8.34269e-11
0.574108 -5.70987 8.77618e-11
-8.34269e-11 8.77618e-11 -6.44104

-1.32568 -2.11249 -3.20818e-11
-2.11249 0.755791 1.02137e-11
-3.20818e-11 1.02137e-11 -0.304044

0.331955 -2.0919 2.31206e-11
-2.0919 -1.89989 5.08705e-11
2.31206e-11 5.08705e-11 -0.413735

0.163521 -0.180344 3.31426e-11
-0.180344 -2.11156 -1.38712e-11
3.31426e-11 -1.38712e-11 -1.18999

4.82623 -1.46856 2.37022e-11
-1.46856 5.39242 8.4021e-11
2.37022e-11 8.4021e-11 4.53478

5.35732 -1.31074 -5.54968e-11
-1.31074 4.45921 -4.8273e-11
-5.54968e-11 -4.8273e-11 4.38164

0.954595 0.145324 6.91188e-12
0.145324 -3.5074 5.77853e-13
6.91188e-12 5.77853e-13 -1.00122

0.270956 -0.113932 -1.1633e-11
-0.113932 -3.25767 5.39502e-12
-1.1633e-11 5.39502e-12 -1.03823

0.101978 -0.0280652 -2.4279e-11
-0.0280652 -3.43915 5.00988e-12
-2.4279e-11 5.00988e-12 -1.39501

2.49703 0.891256 -4.67119e-12
0.891256 -0.0408686 -4.23944e-11
-4.67119e-12 -4.23944e-11 0.687572

-1.19074 -1.34453 4.39753e-11
-1.34453 -0.15504 2.6205e-11
4.39753e-11 2.6205e-11 -0.679375

-1.39478 1.63344 1.36832e-11
1.63344 -1.35197 1.54114e-12
1.36832e-11 1.54114e-12 -0.805829

-3.55297 -1.49596 1.88853e-11
-1.49596 -6.89013 -7.69764e-11
1.88853e-11 -7.69764e-11 -6.11486

-1.79995 -0.159324 -5.20193e-11
-0.159324 -0.227693 -1.0576e-10
-5.20193e-11 -1.0576e-10 -4.61821

-2.11297 -2.37278 -2.86143e-11
-2.37278 0.793157 3.46846e-11
-2.86143e-11 3.46846e-11 -0.359425

1.33086 -1.6644 2.83249e-11
-1.6644 -1.21742 1.88839e-11
2.83249e-11 1.88839e-11 0.0543654

-0.424478 0.363829 2.35325e-11
0.363829 -1.80364 6.58956e-11
2.35325e-11 6.58956e-11 -1.04344

-0.0664102 0.0591264 8.81288e-12
0.0591264 -2.15094 5.74178e-11
8.81288e-12 5.74178e-11 -1.10717

-2.39927 -0.953727 -3.39138e-11
-0.953727 0.486012 2.8517e-11
-3.39138e-11 2.8517e-11 -0.435805

-2.9301 -1.74896 1.0406e-11
-1.74896 -0.812166 -3.41059e-11
1.0406e-11 -3.41059e-11 -0.63045

10.5249 2.62346 5.49238e-11
2.62346 10.1071 -3.37238e-11
5.49238e-11 -3.37238e-11 10.3853

-2.3113 1.40013 -5.89597e-11
1.40013 -0.581489 -1.75352e-11
-5.89597e-11 -1.75352e-11 -1.18927

-2.30003 -1.82218 1.88819e-11
-1.82218 -0.736052 1.54134e-11
1.88819e-11 1.54134e-11 -1.19425

-2.83864 -1.65467 -2.83236e-11
-1.65467 0.236888 1.46437e-11
-2.83236e-11 1.46437e-11 -0.428158

2.59108 -1.11563 2.08098e-11
-1.11563 0.283367 -8.6738e-12
2.08098e-11 -8.6738e-12 0.676558

-0.302734 1.21314 -1.32938e-11
1.21314 -0.697691 2.00375e-11
-1.32938e-11 2.00375e-11 -0.423218

-1.19078 1.27416 5.39624e-12
1.27416 -0.978136 2.48554e-11
5.39624e-12 2.48554e-11 -0.95294

-0.316527 -1.96261 1.8111e-11
-1.96261 -1.96593 2.50506e-11
1.8111e-11 2.50506e-11 -0.94175

0.767855 0.489782 -3.50701e-11
0.489782 -3.45105 1.40654e-11
-3.50701e-11 1.40654e-11 -0.556094

-0.830822 -0.226777 3.68552e-12
-0.226777 -2.20476 -1.15593e-12
3.68552e-12 -1.15593e-12 -1.58721

-0.327114 0.35526 1.68338e-13
0.35526 -3.05054 3.42956e-11
1.68338e-13 3.42956e-11 -1.70375

-4.25096 0.651204 9.0546e-12
0.651204 0.117636 6.16554e-11
9.0546e-12 6.16554e-11 -4.27568

-5.04247 0.12341 9.90316e-11
0.12341 -2.44523 -5.98247e-11
9.90316e-11 -5.98247e-11 -4.78885

5.94745 -0.670954 1.83083e-11
-0.670954 4.23116 1.27208e-11
1.83083e-11 1.27208e-11 6.26373

3.60073 -0.445643 -3.02567e-11
-0.445643 6.14619 2.35124e-11
-3.02567e-11 2.35124e-11 6.18887

-1.73167 -2.0888 -1.90766e-11
-2.0888 0.796003 6.95605e-11
-1.90766e-11 6.95605e-11 -0.439913

-2.07823 1.81148 -3.72857e-11
1.81148 -0.934888 4.12322e-11
-3.72857e-11 4.12322e-11 -0.624759

-2.06365 -2.79635 1.27171e-11
-2.79635 0.998435 -2.3127e-12
1.27171e-11 -2.3127e-12 -0.325597

6.58556 0.715412 5.9356e-11
0.715412 6.4835 1.9851e-11
5.9356e-11 1.9851e-11 7.2114

6.62641 1.07874 -5.80077e-11
1.07874 5.91872 -4.06623e-11
-5.80077e-11 -4.06623e-11 7.01462

-9.25156 2.28595 2.07556e-10
2.28595 -1.96562 -3.19908e-11
2.07556e-10 -3.19908e-11 -6.46227

-6.77111 -1.80514 2.37935e-11
-1.80514 -3.32966 2.8906e-12
2.37935e-11 2.8906e-12 -6.24188

-0.855763 1.689 -2.10029e-11
1.689 -0.781823 -7.90074e-12
-2.10029e-11 -7.90074e-12 -0.469225

-0.161204 -2.01485 4.52814e-11
-2.01485 1.03002 -8.09438e-12
4.52814e-11 -8.09438e-12 0.159026

-1.6691 -2.00183 -5.92607e-12
-2.00183 -0.14752 1.02132e-11
-5.92607e-12 1.02132e-11 -0.606574

-1.71109 2.01541 -4.74986e-11
2.01541 -0.949474 8.8601e-12
-4.74986e-11 8.8601e-12 -0.586987

-1.09955 -2.33753 1.32935e-11
-2.33753 0.766963 3.16012e-11
1.32935e-11 3.16012e-11 -0.14509

-0.35111 1.62462 1.97494e-11
1.62462 0.523816 3.12185e-11
1.97494e-11 3.12185e-11 0.176629

1.85565 -0.852061 1.65687e-11
-0.852061 4.4071 1.58011e-11
1.65687e-11 1.58011e-11 2.66884

2.50265 -0.732674 -5.58834e-12
-0.732674 4.55408 1.09835e-11
-5.58834e-12 1.09835e-11 2.82523

4.79543 -0.596308 -2.41841e-11
-0.596308 2.38528 1.92846e-12
-2.41841e-11 1.92846e-12 2.87307

-1.40328 1.8231 -4.72146e-12
1.8231 0.0361578 -1.54144e-11
-4.72146e-12 -1.54144e-11 -0.164075

2.78303 -0.0939039 2.56282e-11
-0.0939039 5.51939 4.12424e-11
2.56282e-11 4.12424e-11 3.79012

5.47036 0.18691 -2.63055e-11
0.18691 3.13924 1.07908e-11
-2.63055e-11 1.07908e-11 3.83776

-2.2247 -1.91127 2.65414e-11
-1.91127 -0.382865 2.90943e-11
2.65414e-11 2.90943e-11 -1.02491

-2.27392 2.32211 -1.68606e-11
2.32211 -1.70081 5.08688e-11
-1.68606e-11 5.08688e-11 -1.09074

-2.29868 -1.52166 2.84028e-12
-1.52166 -0.548108 4.60506e-11
2.84028e-12 4.60506e-11 -1.19956

-2.30688 2.05371 4.69669e-11
2.05371 -0.969645 -2.8128e-11
4.69669e-11 -2.8128e-11 -1.13108

6.53176 -1.36905 -3.02578e-11
-1.36905 6.73524 3.46885e-12
-3.02578e-11 3.46885e-12 7.41921

6.48575 -1.33476 3.98959e-11
-1.33476 6.85405 -4.97178e-11
3.98959e-11 -4.97178e-11 7.44366

-0.849504 1.70036 -1.84041e-11
1.70036 -0.473036 4.81708e-11
-1.84041e-11 4.81708e-11 -0.228999

-0.708635 -1.84503 -4.43194e-11
-1.84503 0.639023 2.31214e-11
-4.43194e-11 2.31214e-11 -0.156145

-2.97556 -0.481539 -5.58716e-12
-0.481539 -0.821288 1.92781e-12
-5.58716e-12 1.92781e-12 -2.95465

-3.52965 -0.57673 1.10402e-10
-0.57673 -3.05766 -8.95889e-12
1.10402e-10 -8.95889e-12 -3.39981

-2.79581 -1.98933 4.40265e-11
-1.98933 0.230851 -3.8544e-12
4.40265e-11 -3.8544e-12 -1.08953

-3.42215 2.12717 -5.04811e-11
2.12717 -0.562972 2.19628e-11
-5.04811e-11 2.19628e-11 -1.14885

-1.35279 -0.0258858 2.8516e-11
-0.0258858 -3.73036 -1.92635e-12
2.8516e-11 -1.92635e-12 -2.17291

-2.05635 0.450991 6.33475e-12
0.450991 -3.32537 2.85179e-11
6.33475e-12 2.85179e-11 -2.17926

-1.51663 1.89142 6.74346e-12
1.89142 -0.16579 1.17546e-11
6.74346e-12 1.17546e-11 -0.55311

-1.17196 -2.00368 -5.14459e-11
-2.00368 -1.1011 3.584e-11
-5.14459e-11 3.584e-11 -0.592542

-4.87292 -0.826647 -3.15979e-11
-0.826647 -2.16125 1.01349e-10
-3.15979e-11 1.01349e-10 -4.04454

-2.97814 0.804861 -3.12126e-11
0.804861 -4.0508 3.85333e-12
-3.12126e-11 3.85333e-12 -4.02424

-1.24795 -1.958 -6.93429e-12
-1.958 -2.70414 -4.23675e-12
-6.93429e-12 -4.23675e-12 -3.53334

-4.45869 -0.344738 -5.33708e-11
-0.344738 0.0800904 4.77822e-11
-5.33708e-11 4.77822e-11 -3.61268

-3.15773 0.551409 3.61507e-11
0.551409 -3.6848 3.74025e-11
3.61507e-11 3.74025e-11 -3.69156

-5.90268 0.0704817 1.76775e-10
0.0704817 -3.58708 -6.39689e-11
1.76775e-10 -6.39689e-11 -5.10812

-2.17972 -0.602695 3.69698e-11
-0.602695 -4.28158 9.62291e-12
3.69698e-11 9.62291e-12 -3.64498

-4.00857 -0.222197 1.9232e-11
-0.222197 -5.14679 -1.98453e-11
1.9232e-11 -1.98453e-11 -5.05861

-5.45816 -1.08957 -1.80956e-10
-1.08957 -4.35407 1.50478e-10
-1.80956e-10 1.50478e-10 -5.33412

-3.98145 2.62638 -1.54612e-10
2.62638 -1.73249 -1.86513e-10
-1.54612e-10 -1.86513e-10 -4.44652

0.0887539 0.755319 -2.06791e-10
0.755319 -0.459006 2.64326e-10
-2.06791e-10 2.64326e-10 -4.60947

1.02094 -1.25537 3.00083e-10
-1.25537 -8.79564 -9.90399e-11
3.00083e-10 -9.90399e-11 -6.07815

-3.26647 -1.41689 1.26682e-11
-1.41689 -3.41145 2.65902e-11
1.26682e-11 2.65902e-11 -3.94709

-2.65926 -1.04155 1.20411e-11
-1.04155 -0.888516 5.00948e-12
1.20411e-11 5.00948e-12 -2.03042

-2.21805 2.45067 7.13133e-14
2.45067 -3.05986 -2.235e-11
7.13133e-14 -2.235e-11 -3.57451

-2.42339 1.37368 3.46823e-11
1.37368 -1.61168 -1.53955e-12
3.46823e-11 -1.53955e-12 -1.97724

-4.12712 2.80551 2.97014e-11
2.80551 -1.68512 -1.09439e-10
2.97014e-11 -1.09439e-10 -4.90259

-5.06933 -0.301567 -1.05227e-11
-0.301567 -5.73084 5.68388e-11
-1.05227e-11 5.68388e-11 -5.91237

-3.58459 -0.927194 1.11275e-11
-0.927194 -2.14471 -6.45472e-11
1.11275e-11 -6.45472e-11 -2.80753

-3.21544 -0.556046 3.84283e-11
-0.556046 -3.29382 -5.93439e-11
3.84283e-11 -5.93439e-11 -3.72972

-2.85336 2.29813 6.85882e-11
2.29813 -1.51659 1.93071e-12
6.85882e-11 1.93071e-12 -2.44459

-4.04315 1.52344 -3.39372e-11
1.52344 -2.61833 -7.32233e-12
-3.39372e-11 -7.32233e-12 -3.71484

-2.49075 0.536753 -2.48559e-11
0.536753 1.32235 -3.08464e-12
-2.48559e-11 -3.08464e-12 -0.3621

-0.345875 -0.20917 -4.81703e-12
-0.20917 0.737456 -1.38744e-11
-4.81703e-12 -1.38744e-11 -0.125579

2.20442 0.513852 -1.50306e-11
0.513852 -2.02335 1.27167e-11
-1.50306e-11 1.27167e-11 0.0137051

2.97002 0.123795 -1.32493e-11
0.123795 -0.943697 1.00191e-11
-1.32493e-11 1.00191e-11 0.482136

-4.20423 0.608055 -2.40841e-11
0.608055 0.854219 -1.50302e-11
-2.40841e-11 -1.50302e-11 -1.25493

-2.14788 0.154857 1.5029e-11
0.154857 -0.58786 -1.93633e-11
1.5029e-11 -1.93633e-11 -1.0198

2.93878 -0.198648 -6.7261e-13
-0.198648 -1.04641 -1.04059e-11
-6.7261e-13 -1.04059e-11 0.473322

1.72473 -0.1182 7.20144e-12
-0.1182 -2.93203 -1.15608e-11
7.20144e-12 -1.15608e-11 -0.352504

1.12044 -1.19054 -1.6573e-11
-1.19054 3.75657 -4.62608e-12
-1.6573e-11 -4.62608e-12 1.94345

1.65772 1.92841 1.34846e-12
1.92841 3.71559 2.21613e-11
1.34846e-12 2.21613e-11 1.77809

3.35484 1.82549 1.90798e-11
1.82549 1.38107 -1.19488e-11
1.90798e-11 -1.19488e-11 1.86653

-1.24093 2.20882 -8.18827e-12
2.20882 0.0837291 1.81125e-11
-8.18827e-12 1.81125e-11 -0.812273

-2.02743 -0.748998 -5.76557e-13
-0.748998 0.212164 -6.93612e-12
-5.76557e-13 -6.93612e-12 -1.00947

0.159955 1.8799 -2.61564e-11
1.8799 1.15609 -7.13089e-12
-2.61564e-11 -7.13089e-12 0.136756

-2.44832 1.66067 -1.3968e-11
1.66067 -0.21898 7.70772e-12
-1.3968e-11 7.70772e-12 -1.06456

-4.38844 -0.597565 -2.02176e-12
-0.597565 0.957225 -7.70813e-12
-2.02176e-12 -7.70813e-12 -1.27614

1.70043 -0.370139 6.07166e-12
-0.370139 -2.3452 -1.34868e-11
6.07166e-12 -1.34868e-11 0.0224228

1.17283 0.879894 3.84628e-13
0.879894 3.89001 -7.9005e-12
3.84628e-13 -7.9005e-12 1.40223

0.296767 -0.22992 -1.07927e-11
-0.22992 3.86655 2.42813e-11
-1.07927e-11 2.42813e-11 1.40927

3.85977 0.896987 -1.32948e-11
0.896987 0.858574 -3.47033e-12
-1.32948e-11 -3.47033e-12 1.55207

2.61298 -0.930349 2.98635e-12
-0.930349 -0.526157 -1.1541e-12
2.98635e-12 -1.1541e-12 0.639029

-0.52809 1.60173 -2.4281e-11
1.60173 2.01553 -5.08759e-11
-2.4281e-11 -5.08759e-11 0.508438

0.939099 -1.2177 -1.54143e-12
-1.2177 1.85234 -4.62304e-12
-1.54143e-12 -4.62304e-12 0.606354

2.19934 -0.599287 -6.25315e-13
-0.599287 -2.23894 -3.00599e-11
-6.25315e-13 -3.00599e-11 0.000629649

3.73117 1.2118 -1.73348e-12
1.2118 5.12058 -3.46908e-12
-1.73348e-12 -3.46908e-12 3.28942

1.70685 0.125997 2.57244e-11
0.125997 -3.07717 -9.82599e-12
2.57244e-11 -9.82599e-12 -0.390565

4.91314 1.30935 -5.01332e-12
1.30935 3.62806 -1.77334e-11
-5.01332e-12 -1.77334e-11 3.45357

-2.39234 0.144549 3.04431e-11
0.144549 0.497028 -1.54145e-11
3.04431e-11 -1.54145e-11 -1.34478

-1.14059 0.75942 2.9094e-11
0.75942 -0.439916 -2.44696e-11
2.9094e-11 -2.44696e-11 -1.05248

-3.5945 -1.95642 4.14202e-12
-1.95642 -3.39283 2.81308e-11
4.14202e-12 2.81308e-11 -4.32361

-2.81707 0.850676 -6.49318e-11
0.850676 -4.17699 5.1055e-11
-6.49318e-11 5.1055e-11 -4.33882

4.0963 -0.278281 1.02152e-11
-0.278281 1.03138 -6.93542e-12
1.02152e-11 -6.93542e-12 1.61483

-0.43826 2.28916 -7.3222e-12
2.28916 0.840431 1.83047e-11
-7.3222e-12 1.83047e-11 -0.0242624

-1.01808 0.338977 -1.89423e-11
0.338977 -1.4595 -5.78008e-12
-1.89423e-11 -5.78008e-12 -1.47823

-1.80465 -1.0413 1.57718e-12
-1.0413 -2.01941 2.69753e-11
1.57718e-12 2.69753e-11 -1.6858

2.10084 -0.137043 -1.17061e-11
-0.137043 -3.37344 3.27521e-12
-1.17061e-11 3.27521e-12 -0.364728

-0.611153 1.89291 2.02346e-11
1.89291 1.29095 -3.54565e-11
2.02346e-11 -3.54565e-11 0.358856

0.294308 -1.72666 -1.84983e-11
-1.72666 1.65131 -1.11748e-11
-1.84983e-11 -1.11748e-11 0.467709

2.27376 -1.21737 3.84914e-13
-1.21737 0.248888 7.72234e-13
3.84914e-13 7.72234e-13 0.712322

2.07135 -0.289186 -6.93717e-12
-0.289186 -3.34227 7.70501e-13
-6.93717e-12 7.70501e-13 -0.282944

0.156364 2.23195 -2.83256e-11
2.23195 2.41662 -7.51573e-12
-2.83256e-11 -7.51573e-12 0.522239

-0.572818 -1.53952 2.9036e-13
-1.53952 1.40576 -1.50292e-11
2.9036e-13 -1.50292e-11 0.390837

0.1768 2.06475 3.71894e-11
2.06475 2.35775 -3.8527e-12
3.71894e-11 -3.8527e-12 0.501205

-0.808902 -1.23704 9.75146e-14
-1.23704 2.22276 -2.46645e-11
9.75146e-14 -2.46645e-11 0.494763

-0.540476 -1.02665 -2.22045e-15
-1.02665 0.322506 4.3546e-11
-2.22045e-15 4.3546e-11 -0.126853

-2.80087 1.43969 -1.05975e-11
1.43969 0.80473 3.66103e-11
-1.05975e-11 3.66103e-11 -0.32043

1.74915 -1.79512 4.12345e-11
-1.79512 1.01646 6.93601e-12
4.12345e-11 6.93601e-12 0.911645

10.1048 -1.58917 -4.23983e-12
-1.58917 9.87753 -2.38976e-11
-4.23983e-12 -2.38976e-11 9.97294

9.59305 -1.70747 -5.79018e-13
-1.70747 10.4497 2.62101e-11
-5.79018e-13 2.62101e-11 10.0973

-2.23473 2.67787 -9.92254e-12
2.67787 0.604098 -7.71938e-13
-9.92254e-12 -7.71938e-13 -0.653906

-4.03654 -1.74569 -2.62029e-11
-1.74569 0.123987 -4.24044e-12
-2.62029e-11 -4.24044e-12 -0.987608

6.05423 -0.343233 -1.15634e-11
-0.343233 6.07091 2.81376e-11
-1.15634e-11 2.81376e-11 6.72077

5.98781 -0.368505 -3.75786e-11
-0.368505 6.25301 -2.23552e-11
-3.75786e-11 -2.23552e-11 6.56599

-0.385316 1.53138 2.31207e-11
1.53138 -2.01209 -6.93699e-12
2.31207e-11 -6.93699e-12 -1.49016

0.0812515 -1.16504 2.2348e-11
-1.16504 -2.209 9.05674e-12
2.2348e-11 9.05674e-12 -1.07094

0.912705 -0.0530486 3.77678e-11
-0.0530486 -2.9691 -1.77255e-11
3.77678e-11 -1.77255e-11 -0.208532

-0.716983 2.15307 -3.39103e-11
2.15307 -2.29489 -7.3254e-12
-3.39103e-11 -7.3254e-12 -1.64475

-0.0681111 -1.55257 1.77294e-11
-1.55257 -3.19592 -9.24773e-12
1.77294e-11 -9.24773e-12 -1.29358

-1.89502 1.51998 -5.78041e-12
1.51998 1.32156 -3.73837e-11
-5.78041e-12 -3.73837e-11 0.0163824

-0.619131 -1.20085 -4.81463e-12
-1.20085 1.21809 -2.56258e-11
-4.81463e-12 -2.56258e-11 0.0769826

-1.81323 0.751732 9.00751e-12
0.751732 -4.0827 1.77551e-11
9.00751e-12 1.77551e-11 -3.44753

-2.84358 -0.989102 -8.50235e-12
-0.989102 -3.51302 3.58569e-11
-8.50235e-12 3.58569e-11 -3.52243

-0.299852 2.32183 -1.23314e-11
2.32183 -1.86716 1.20901e-11
-1.23314e-11 1.20901e-11 -0.742925

0.364 -1.83498 2.11856e-12
-1.83498 -2.07844 5.73323e-12
2.11856e-12 5.73323e-12 -0.530576

3.68226 -1.24088 2.57261e-11
-1.24088 1.69167 -1.0406e-11
2.57261e-11 -1.0406e-11 2.06589

-3.90298 -0.0642214 1.40652e-11
-0.0642214 0.0917479 1.50294e-11
1.40652e-11 1.50294e-11 -3.00724

-2.97397 0.463771 -1.86892e-11
0.463771 -1.67397 3.16935e-11
-1.86892e-11 3.16935e-11 -2.40822

2.91184 -0.218595 -4.83699e-11
-0.218595 5.21226 5.08755e-11
-4.83699e-11 5.08755e-11 3.51953

5.20178 -0.271953 -3.89266e-11
-0.271953 3.22732 2.12002e-11
-3.89266e-11 2.12002e-11 3.58383

-3.04287 1.28992 -4.41239e-11
1.28992 1.02498 2.46615e-11
-4.41239e-11 2.46615e-11 -0.385988

-1.30876 -0.755274 4.45075e-11
-0.755274 0.719937 6.74409e-12
4.45075e-11 6.74409e-12 -0.233933

-1.16975 -0.446705 1.73287e-11
-0.446705 0.357453 2.60094e-10
1.73287e-11 2.60094e-10 -4.7816

-1.03734 -1.41515 -2.08852e-10
-1.41515 -5.332 5.83618e-11
-2.08852e-10 5.83618e-11 -4.3562

0.669363 2.06241 4.04602e-12
2.06241 -2.28051 -2.2735e-11
4.04602e-12 -2.2735e-11 -0.37669

0.968436 -1.35948 1.17523e-11
-1.35948 -2.45932 1.23304e-11
1.17523e-11 1.23304e-11 -0.280063

4.06634 0.0339526 8.09464e-12
0.0339526 0.729812 4.81783e-12
8.09464e-12 4.81783e-12 1.57166

2.39134 0.0668903 -4.62252e-12
0.0668903 -1.16586 -1.69561e-11
-4.62252e-12 -1.69561e-11 0.448876

3.22342 1.00138 -1.16567e-11
1.00138 -0.116974 1.00228e-11
-1.16567e-11 1.00228e-11 0.848014

-0.649647 0.365511 -4.59315e-11
0.365511 -3.10304 -3.14073e-11
-4.59315e-11 -3.14073e-11 -1.47587

-7.51035 -0.727525 -5.09484e-11
-0.727525 -3.17728 1.73386e-11
-5.09484e-11 1.73386e-11 -5.79951

-5.34222 0.373855 4.86376e-11
0.373855 -5.02408 1.54142e-12
4.86376e-11 1.54142e-12 -5.72955

2.44117 1.73883 8.6718e-12
1.73883 3.13182 3.73854e-11
8.6718e-12 3.73854e-11 1.59559

0.266381 -1.50889 -1.92738e-12
-1.50889 -0.555492 2.15815e-11
-1.92738e-12 2.15815e-11 0.0299547

1.42365 1.65406 2.87105e-11
1.65406 -1.66485 1.65731e-11
2.87105e-11 1.65731e-11 0.0246204

-3.92546 0.706389 -2.06161e-11
0.706389 -2.55584 1.85923e-11
-2.06161e-11 1.85923e-11 -3.27671

-3.75425 1.05161 3.8727e-11
1.05161 -0.348473 3.84951e-13
3.8727e-11 3.84951e-13 -3.74544

-1.27041 -0.874968 7.32294e-12
-0.874968 -2.84365 1.04048e-11
7.32294e-12 1.04048e-11 -1.53727

-0.669787 1.35861 -2.31224e-11
1.35861 1.01994 8.28411e-12
-2.31224e-11 8.28411e-12 -0.192884

-2.71052 -0.246821 9.34467e-12
-0.246821 1.44395 6.55076e-12
9.34467e-12 6.55076e-12 -0.426346

0.821984 1.0252 3.39132e-11
1.0252 -3.75396 2.00414e-11
3.39132e-11 2.00414e-11 -0.465931

0.961208 -0.206209 2.04237e-11
-0.206209 -4.04002 1.96522e-11
2.04237e-11 1.96522e-11 -0.418058

3.31121 -1.35081 -5.31871e-11
-1.35081 2.44549 3.46843e-11
-5.31871e-11 3.46843e-11 1.79958

0.458384 1.85052 8.23919e-12
1.85052 -3.2607 -1.9654e-11
8.23919e-12 -1.9654e-11 -0.856853

0.647474 -1.16816 -9.60676e-13
-1.16816 -3.995 3.88134e-13
-9.60676e-13 3.88134e-13 -0.748135

1.4446 -0.90291 1.50293e-11
-0.90291 -1.54994 1.67648e-11
1.50293e-11 1.67648e-11 0.0740965

0.672243 1.34301 2.46642e-11
1.34301 -2.70258 -3.65972e-12
2.46642e-11 -3.65972e-12 -0.464235

0.541618 -0.684168 -1.42599e-11
-0.684168 -2.9881 3.46667e-12
-1.42599e-11 3.46667e-12 -0.420084

1.57822 -0.574685 -1.38723e-11
-0.574685 -1.5869 -2.31226e-12
-1.38723e-11 -2.31226e-12 -0.0219862

-2.00611 2.41935 -2.46628e-11
2.41935 -0.827015 -4.24155e-12
-2.46628e-11 -4.24155e-12 -0.494534

0.240255 -2.07715 1.38726e-11
-2.07715 -0.762169 -6.35873e-12
1.38726e-11 -6.35873e-12 -0.183995

2.02217 1.62872 3.66099e-11
1.62872 1.4434 -1.00195e-11
3.66099e-11 -1.00195e-11 0.773615

-1.19902 -1.52137 1.02105e-11
-1.52137 -0.0684251 8.47822e-12
1.02105e-11 8.47822e-12 -0.310627

-3.09262 1.68654 -3.39119e-11
1.68654 -0.753432 -2.04264e-11
-3.39119e-11 -2.04264e-11 -0.668103

2.52455 1.48788 -4.10449e-11
1.48788 -0.744691 -2.12009e-11
-4.10449e-11 -2.12009e-11 0.642468

-0.498575 -1.32997 3.28524e-11
-1.32997 -1.82991 -6.55082e-12
3.28524e-11 -6.55082e-12 -0.587301

1.92865 0.556017 -9.29793e-12
0.556017 -0.875688 5.77969e-12
-9.29793e-12 5.77969e-12 0.136616

1.05361 2.12129 -3.53599e-11
2.12129 1.42088 -1.42603e-11
-3.53599e-11 -1.42603e-11 0.626415

0.659027 1.71234 -2.11475e-11
1.71234 -0.291997 -3.85514e-12
-2.11475e-11 -3.85514e-12 0.00879127

-1.8566 0.680905 -3.77669e-11
0.680905 0.822538 -7.72419e-13
-3.77669e-11 -7.72419e-13 -0.405339

-3.52357 0.1917 -1.15606e-12
0.1917 1.75138 2.46638e-11
-1.15606e-12 2.46638e-11 -0.446155

3.8051 -1.30438 -2.44711e-11
-1.30438 1.15735 -1.52229e-11
-2.44711e-11 -1.52229e-11 1.85147

-2.70104 -2.36935 -1.92822e-12
-2.36935 -0.776959 3.69947e-11
-1.92822e-12 3.69947e-11 -0.586717

-1.80285 2.59971 6.74812e-13
2.59971 0.67601 1.54153e-11
6.74812e-13 1.54153e-11 -0.446313

1.78699 -1.91875 -5.22206e-11
-1.91875 1.97348 3.73819e-11
-5.22206e-11 3.73819e-11 0.959253

0.823568 2.31007 1.81128e-11
2.31007 1.99319 5.01001e-11
1.81128e-11 5.01001e-11 0.888532

1.17696 -1.07405 -2.26659e-12
-1.07405 -1.19524 6.26235e-11
-2.26659e-12 6.26235e-11 -0.00442353

0.616469 -0.276957 -1.41624e-11
-0.276957 -3.73355 -2.69775e-12
-1.41624e-11 -2.69775e-12 -0.891372

1.22681 0.0795608 -3.45391e-11
0.0795608 -3.8191 -3.54528e-11
-3.45391e-11 -3.54528e-11 -0.807055

0.0720571 -1.79946 -2.24471e-11
-1.79946 0.388217 -1.79187e-11
-2.24471e-11 -1.79187e-11 0.214908

0.495468 0.367929 2.54363e-11
0.367929 4.14253 -1.58017e-11
2.54363e-11 -1.58017e-11 1.51059

-0.180505 0.316593 4.8177e-12
0.316593 4.15765 2.89059e-11
4.8177e-12 2.89059e-11 1.54564

4.03974 0.334562 -2.87154e-11
0.334562 0.269144 -1.34891e-11
-2.87154e-11 -1.34891e-11 1.65602

2.77065 1.91176 3.91139e-11
1.91176 2.32466 -3.85192e-12
3.91139e-11 -3.85192e-12 1.71944

2.15049 -1.87708 -5.00777e-12
-1.87708 0.318698 -2.6591e-11
-5.00777e-12 -2.6591e-11 0.745792

-5.84855 2.14423 -3.25604e-11
2.14423 -3.18976 3.86296e-11
-3.25604e-11 3.86296e-11 -4.68107

-0.647767 -0.564023 2.37749e-10
-0.564023 -0.532866 -1.15596e-11
2.37749e-10 -1.15596e-11 -4.36282

2.7526 -0.637215 4.14296e-11
-0.637215 -0.926271 2.31554e-12
4.14296e-11 2.31554e-12 0.617429

-2.19335 1.68996 4.62351e-12
1.68996 0.328687 -1.46444e-11
4.62351e-12 -1.46444e-11 -0.222013

-0.165062 -1.9119 -1.88798e-11
-1.9119 0.493671 -2.8132e-11
-1.88798e-11 -2.8132e-11 0.0209599

1.22707 0.875052 3.81525e-11
0.875052 -2.84441 1.50323e-11
3.81525e-11 1.50323e-11 -0.142422

-0.115137 1.78405 1.22356e-11
1.78405 2.83573 1.92727e-12
1.22356e-11 1.92727e-12 0.600666

-1.3126 -0.793563 2.10046e-11
-0.793563 2.6297 -2.31234e-11
2.10046e-11 -2.31234e-11 0.508014

-4.24314 1.79737 -4.29669e-11
1.79737 0.125464 -1.50307e-11
-4.29669e-11 -1.50307e-11 -0.980004

-1.32298 -0.744888 7.12772e-12
-0.744888 -0.251472 1.31017e-11
7.12772e-12 1.31017e-11 -0.477663

-2.77003 1.81838 -3.47069e-12
1.81838 -1.32435 5.8191e-11
-3.47069e-12 5.8191e-11 -0.698465

-0.653533 -1.84314 1.42559e-11
-1.84314 -0.431812 3.75715e-11
1.42559e-11 3.75715e-11 -0.277356

0.680367 0.147088 -4.27771e-11
0.147088 -6.21102 -1.61877e-11
-4.27771e-11 -1.61877e-11 -0.809456

1.72118 2.31735 2.85172e-11
2.31735 0.443478 7.32285e-12
2.85172e-11 7.32285e-12 0.770011

-1.95182 2.77585 9.05581e-12
2.77585 1.33 4.43237e-12
9.05581e-12 4.43237e-12 -0.347767

-3.31464 -2.0572 1.8596e-11
-2.0572 -1.47608 -1.46447e-11
1.8596e-11 -1.46447e-11 -0.790662

1.09003 1.96277 4.87553e-11
1.96277 0.835215 2.19655e-11
4.87553e-11 2.19655e-11 0.643338

2.08382 -1.19237 8.76603e-12
-1.19237 3.20911 -4.33576e-11
8.76603e-12 -4.33576e-11 1.81367

-1.45049 -1.78993 3.08505e-12
-1.78993 -0.225536 -2.92885e-11
3.08505e-12 -2.92885e-11 -0.242621

1.37693 -0.381938 -3.42988e-11
-0.381938 3.59684 1.40645e-11
-3.42988e-11 1.40645e-11 1.33346

0.194432 1.01567 9.05966e-12
1.01567 3.62265 3.66121e-11
9.05966e-12 3.66121e-11 1.2476

3.52392 -0.391147 -2.10034e-11
-0.391147 0.875326 -1.11758e-11
-2.10034e-11 -1.11758e-11 1.41398

1.67664 -1.68323 3.84666e-12
-1.68323 1.26145 7.88088e-11
3.84666e-12 7.88088e-11 0.756905

-1.70071 0.277385 -5.20237e-12
0.277385 2.55785 -6.55191e-12
-5.20237e-12 -6.55191e-12 0.275533

0.188139 0.386268 -1.54053e-12
0.386268 2.3002 1.65717e-11
-1.54053e-12 1.65717e-11 0.437621

2.63604 -1.59415 -8.86261e-12
-1.59415 3.10555 1.6767e-11
-8.86261e-12 1.6767e-11 1.93391

1.72643 1.98148 -1.3298e-11
1.98148 3.06079 4.39352e-11
-1.3298e-11 4.39352e-11 1.80032

-0.0273612 0.381171 -1.15618e-11
0.381171 -4.09115 2.77453e-11
-1.15618e-11 2.77453e-11 -0.644068

-0.137203 0.00342835 -2.00396e-11
0.00342835 -4.49123 -9.82829e-12
-2.00396e-11 -9.82829e-12 -0.661881

-1.34429 2.02234 -2.88984e-12
2.02234 -0.325913 -1.57995e-11
-2.88984e-12 -1.57995e-11 -0.202244

-0.0605454 -1.68061 -8.09197e-12
-1.68061 0.385486 4.04724e-12
-8.09197e-12 4.04724e-12 0.0185242

-2.22864 2.74286 1.31985e-11
2.74286 0.85926 2.23515e-11
1.31985e-11 2.23515e-11 -0.551329

-4.49765 -1.55742 1.10798e-11
-1.55742 0.0501246 -2.69771e-12
1.10798e-11 -2.69771e-12 -0.944663

-1.11746 1.80538 -2.69275e-11
1.80538 -0.417635 1.56069e-11
-2.69275e-11 1.56069e-11 -0.552267

4.44263 1.1271 3.17032e-11
1.1271 2.44097 5.00999e-12
3.17032e-11 5.00999e-12 2.60911

0.0215914 -1.02686 -3.52624e-11
-1.02686 2.55446 -5.39765e-12
-3.52624e-11 -5.39765e-12 0.60372

-1.24816 1.3839 -1.2141e-11
1.3839 2.57894 -8.86539e-12
-1.2141e-11 -8.86539e-12 0.517388

0.169509 1.65174 3.77649e-11
1.65174 -2.5811 2.32166e-11
3.77649e-11 2.32166e-11 -1.06178

0.437791 -0.947671 -3.58383e-11
-0.947671 -2.72088 -5.10958e-12
-3.58383e-11 -5.10958e-12 -0.786957

1.26056 -1.57121 2.36996e-11
-1.57121 -0.272006 1.27189e-11
2.36996e-11 1.27189e-11 0.220453

0.686804 1.95114 -2.17741e-11
1.95114 -1.59668 5.77954e-12
-2.17741e-11 5.77954e-12 -0.299068

0.844371 -1.36285 1.84968e-11
-1.36285 -1.352 1.04051e-11
1.84968e-11 1.04051e-11 -0.167611

5.93414 -0.519457 2.02378e-11
-0.519457 3.53994 -2.69778e-11
2.02378e-11 -2.69778e-11 6.21194

3.5711 -0.64402 -1.59945e-11
-0.64402 5.78464 -3.46955e-12
-1.59945e-11 -3.46955e-12 6.29503

-0.508582 2.20254 -5.4337e-11
2.20254 -2.52318 -6.51254e-11
-5.4337e-11 -6.51254e-11 -2.8524

-0.1014 -1.54794 3.81507e-11
-1.54794 -4.24484 -3.46628e-12
3.81507e-11 -3.46628e-12 -2.33928

0.951259 2.14451 -8.09238e-12
2.14451 -0.549984 -4.62455e-11
-8.09238e-12 -4.62455e-11 0.153364

4.6348 1.01985 3.78684e-11
1.01985 2.18375 2.8327e-11
3.78684e-11 2.8327e-11 2.64039

-1.74036 1.91435 -1.54115e-12
1.91435 1.21449 3.39134e-11
-1.54115e-12 3.39134e-11 -0.302331

-3.34351 -0.740585 -2.56277e-11
-0.740585 1.56098 2.58199e-11
-2.56277e-11 2.58199e-11 -0.378059

0.831789 -1.82065 -2.02105e-12
-1.82065 1.68081 -4.08516e-11
-2.02105e-12 -4.08516e-11 0.84217

-1.93197 1.17976 1.15572e-12
1.17976 -0.213784 -5.49135e-12
1.15572e-12 -5.49135e-12 -1.09155

-1.48522 -0.671167 -1.61855e-11
-0.671167 -0.646422 2.7071e-11
-1.61855e-11 2.7071e-11 -0.901794

2.84798 1.43321 -1.29093e-11
1.43321 0.363073 9.44145e-12
-1.29093e-11 9.44145e-12 0.882795

2.25514 0.774161 -6.93634e-12
0.774161 -1.36794 -1.11758e-11
-6.93634e-12 -1.11758e-11 0.381439

-4.09986 2.68363 3.56464e-11
2.68363 -0.710488 -9.63253e-12
3.56464e-11 -9.63253e-12 -0.76962

-0.171376 -1.38135 -1.05962e-11
-1.38135 -0.244672 -2.89106e-12
-1.05962e-11 -2.89106e-12 -0.0953055

-1.23298 2.21871 2.20622e-11
2.21871 1.89655 2.02343e-11
2.20622e-11 2.02343e-11 0.030729

-2.31302 -1.18794 1.79207e-11
-1.18794 1.37429 1.31029e-11
1.79207e-11 1.31029e-11 -0.0443175

-0.0886678 2.42277 5.83846e-11
2.42277 -1.19938 1.15891e-12
5.83846e-11 1.15891e-12 -0.268478

0.743918 -2.06249 9.63026e-12
-2.06249 -1.03629 1.75346e-11
9.63026e-12 1.75346e-11 -0.100607

-1.85867 0.687344 -4.00791e-11
0.687344 2.55891 4.08498e-11
-4.00791e-11 4.08498e-11 0.28451

-0.445805 -0.0529521 -4.23909e-12
-0.0529521 2.13995 4.23913e-11
-4.23909e-12 4.23913e-11 0.318813

5.01403 -0.785578 -5.45362e-11
-0.785578 6.2874 -3.66169e-11
-5.45362e-11 -3.66169e-11 5.10748

6.09507 -0.76242 9.62008e-13
-0.76242 5.24488 5.04927e-11
9.62008e-13 5.04927e-11 5.11431

1.44537 1.25784 2.61102e-11
1.25784 -2.24491 1.46458e-11
2.61102e-11 1.46458e-11 -0.0299598

0.387722 0.382794 2.27332e-11
0.382794 -2.559 9.86417e-11
2.27332e-11 9.86417e-11 -4.51484

-0.35884 -1.37389 -9.7874e-11
-1.37389 -5.34292 -2.60079e-11
-9.7874e-11 -2.60079e-11 -3.92622

-3.27182 -1.82093 1.65694e-11
-1.82093 -1.2895 2.54322e-11
1.65694e-11 2.54322e-11 -2.55526

-3.20523 0.569186 1.31735e-11
0.569186 -2.32604 3.85355e-11
1.31735e-11 3.85355e-11 -2.81347

2.58487 -0.109047 2.82782e-11
-0.109047 -2.30682 6.16723e-12
2.82782e-11 6.16723e-12 0.0254938

-2.12707 2.98411 2.40883e-12
2.98411 1.26202 1.29101e-11
2.40883e-12 1.29101e-11 -0.334512

-4.59469 -2.80085 1.17551e-11
-2.80085 -0.769927 -1.38738e-11
1.17551e-11 -1.38738e-11 -0.818252

4.0136 1.48929 -5.95432e-11
1.48929 4.63869 -2.00451e-11
-5.95432e-11 -2.00451e-11 3.91489

4.53123 1.56364 -1.13698e-11
1.56364 4.31081 1.0504e-11
-1.13698e-11 1.0504e-11 3.71551

2.5768 -0.571882 -9.24853e-12
-0.571882 4.94372 1.61856e-11
-9.24853e-12 1.61856e-11 3.02581

2.37365 1.1813 -3.0064e-11
1.1813 4.67736 2.08101e-11
-3.0064e-11 2.08101e-11 2.91103

4.96634 -0.285997 -3.73853e-11
-0.285997 2.46763 -5.21298e-11
-3.73853e-11 -5.21298e-11 3.09669

2.96719 0.695558 -5.97398e-12
0.695558 5.7671 3.84729e-13
-5.97398e-12 3.84729e-13 3.77666

5.47768 0.815515 3.08261e-12
0.815515 3.05258 -3.0824e-12
3.08261e-12 -3.0824e-12 3.89713

-2.83708 0.209799 -1.54328e-12
0.209799 0.270201 4.12335e-11
-1.54328e-12 4.12335e-11 -1.95152

-2.28477 1.56921 6.93671e-12
1.56921 -0.58532 -6.02115e-11
6.93671e-12 -6.02115e-11 -1.69794

1.31232 0.249843 5.92582e-12
0.249843 -1.25635 2.50461e-12
5.92582e-12 2.50461e-12 -0.24226

2.10748 -0.048496 -7.8999e-12
-0.048496 -3.66289 -1.00199e-11
-7.8999e-12 -1.00199e-11 -0.346544

1.01471 -0.949825 -6.9353e-12
-0.949825 3.07751 1.23339e-11
-6.9353e-12 1.23339e-11 1.24558

0.322728 1.42476 -3.07935e-12
1.42476 2.82355 6.783e-11
-3.07935e-12 6.783e-11 1.17573

2.44996 -0.0714818 3.31427e-11
-0.0714818 -2.55001 -5.00784e-12
3.31427e-11 -5.00784e-12 -0.0369759

-0.41804 1.21556 -1.1177e-11
1.21556 -2.38679 2.58168e-11
-1.1177e-11 2.58168e-11 -2.02587

-0.0712013 -0.86343 5.2026e-11
-0.86343 -3.29047 -2.33052e-11
5.2026e-11 -2.33052e-11 -1.58433

-0.270246 1.17644 7.08111e-11
1.17644 0.0721785 -3.12128e-11
7.08111e-11 -3.12128e-11 -0.342393

-1.8267 -1.95156 7.9969e-12
-1.95156 -0.191532 2.89034e-11
7.9969e-12 2.89034e-11 -0.232056

-1.18644 2.50705 -2.02338e-12
2.50705 1.69903 -1.09832e-11
-2.02338e-12 -1.09832e-11 -0.0364113

1.46874 0.247712 2.58694e-11
0.247712 -2.71259 1.34829e-12
2.58694e-11 1.34829e-12 -0.407172

2.77424 1.79118 5.58994e-12
1.79118 2.26848 -1.77281e-11
5.58994e-12 -1.77281e-11 1.59052

-2.4989 -1.48521 1.05899e-12
-1.48521 0.592496 3.31433e-11
1.05899e-12 3.31433e-11 -0.199762

-1.09191 2.68036 1.3489e-12
2.68036 1.51392 4.43179e-12
1.3489e-12 4.43179e-12 -0.038365

10.4291 3.12946 -5.72359e-11
3.12946 10.6627 3.69989e-11
-5.72359e-11 3.69989e-11 10.5869

-2.05656 -0.187102 -1.3198e-11
-0.187102 2.60547 7.71235e-13
-1.3198e-11 7.71235e-13 0.254561

-0.862183 1.0205 7.90054e-12
1.0205 2.26628 1.84989e-11
7.90054e-12 1.84989e-11 0.240509

-3.73036 -0.246895 1.59894e-11
-0.246895 0.918918 4.66289e-11
1.59894e-11 4.66289e-11 -2.28509

-2.59199 1.23879 7.70623e-12
1.23879 -1.57525 -4.52782e-11
7.70623e-12 -4.52782e-11 -2.07424

0.522985 1.01381 -4.04652e-11
1.01381 -5.23861 1.65694e-11
-4.04652e-11 1.65694e-11 -1.00436

0.643496 -0.69176 -1.69546e-11
-0.69176 -6.27918 -2.65913e-11
-1.69546e-11 -2.65913e-11 -0.995195

-1.62994 1.35725 -2.73133e-11
1.35725 -1.28692 -4.91343e-11
-2.73133e-11 -4.91343e-11 -1.17142

-1.96059 -2.04561 -4.52803e-11
-2.04561 -1.54617 -1.54134e-11
-4.52803e-11 -1.54134e-11 -1.16061

-2.70193 1.14921 1.60645e-11
1.14921 -0.995339 2.1966e-11
1.60645e-11 2.1966e-11 -2.15138

-2.59827 -1.60671 4.76401e-11
-1.60671 -1.96681 8.28434e-12
4.76401e-11 8.28434e-12 -2.16252

-0.861062 2.111 1.42571e-11
2.111 -2.01115 1.69544e-11
1.42571e-11 1.69544e-11 -3.86815

-0.371256 -1.48763 1.57928e-11
-1.48763 -4.53755 7.95753e-11
1.57928e-11 7.95753e-11 -3.14295

-2.86993 2.95751 1.65693e-11
2.95751 -1.54425 3.96958e-11
1.65693e-11 3.96958e-11 -0.984129

0.498524 -1.58962 3.46604e-12
-1.58962 -1.27622 2.54309e-11
3.46604e-12 2.54309e-11 -0.325081

1.09555 2.18897 9.62119e-13
2.18897 -1.14582 1.42573e-11
9.62119e-13 1.42573e-11 0.0844344

-0.396748 1.89167 -3.66151e-12
1.89167 1.95857 6.16618e-12
-3.66151e-12 6.16618e-12 0.198684

-2.11302 -0.7555 -2.65899e-11
-0.7555 1.84993 -1.04056e-11
-2.65899e-11 -1.04056e-11 0.0475332

1.14082 -2.21685 3.75727e-11
-2.21685 0.0438798 1.54145e-11
3.75727e-11 1.54145e-11 0.281646

3.06073 -1.19472 4.57651e-11
-1.19472 2.58207 7.6857e-13
4.57651e-11 7.6857e-13 1.9025

1.65797 -1.59284 2.11952e-11
-1.59284 -1.04295 3.1215e-11
2.11952e-11 3.1215e-11 0.19903

0.278754 2.41123 2.8918e-12
2.41123 -0.122665 -4.04591e-11
2.8918e-12 -4.04591e-11 0.165139

-3.87402 -3.23475 1.35097e-12
-3.23475 -1.46322 -5.39433e-12
1.35097e-12 -5.39433e-12 -1.11557

-2.50857 2.57768 1.48852e-11
2.57768 0.292513 3.96933e-11
1.48852e-11 3.96933e-11 -0.850354

0.766885 -0.568362 -3.17864e-12
-0.568362 -1.76526 -1.6571e-11
-3.17864e-12 -1.6571e-11 -0.419768

-0.736356 -0.95396 -8.9592e-11
-0.95396 -1.19945 3.50599e-11
-8.9592e-11 3.50599e-11 -4.53914

-4.78327 0.817223 -1.8112e-11
0.817223 -3.36898 -9.05453e-12
-1.8112e-11 -9.05453e-12 -4.7344

-0.146959 0.986749 6.69586e-11
0.986749 -1.48471 -5.1996e-12
6.69586e-11 -5.1996e-12 -0.550983

0.354445 -0.395427 -1.88103e-11
-0.395427 -2.82572 -3.8728e-11
-1.88103e-11 -3.8728e-11 -1.28698

5.30932 -1.11537 4.23891e-12
-1.11537 6.01016 3.58417e-11
4.23891e-12 3.58417e-11 4.84536

6.05906 -1.05754 -1.94631e-11
-1.05754 4.74829 -2.9484e-11
-1.94631e-11 -2.9484e-11 4.74858

0.496258 0.323864 -1.4259e-11
0.323864 -3.79885 3.08233e-12
-1.4259e-11 3.08233e-12 -1.01929

0.404569 0.0829737 -3.46627e-12
0.0829737 -4.64663 -5.5886e-12
-3.46627e-12 -5.5886e-12 -0.930517

-0.231564 0.0330373 4.32329e-11
0.0330373 -2.32288 2.04251e-11
4.32329e-11 2.04251e-11 -1.2907

0.146307 -0.87919 6.66451e-11
-0.87919 1.4738 -1.32937e-11
6.66451e-11 -1.32937e-11 0.2526

-1.82025 1.14153 -3.09751e-11
1.14153 1.71204 3.58386e-11
-3.09751e-11 3.58386e-11 0.0726708

2.27567 1.75797 -2.61143e-11
1.75797 -0.143013 1.61837e-11
-2.61143e-11 1.61837e-11 0.660406

-0.21494 2.00804 -3.93058e-11
2.00804 -1.65882 -1.65721e-11
-3.93058e-11 -1.65721e-11 -0.68378

0.318458 -1.57137 -8.28493e-12
-1.57137 -1.21034 -1.348e-12
-8.28493e-12 -1.348e-12 -0.404901

-5.09986 0.260756 -3.72592e-11
0.260756 -6.15321 9.64007e-11
-3.72592e-11 9.64007e-11 -6.22736

-4.71681 -2.2248 -2.3311e-11
-2.2248 -1.71382 -2.04471e-11
-2.3311e-11 -2.04471e-11 -5.26006

1.61367 0.880595 -1.68119e-11
0.880595 -0.224359 -2.92903e-11
-1.68119e-11 -2.92903e-11 0.171826

0.184932 1.41512 1.23314e-11
1.41512 -2.15021 3.50668e-11
1.23314e-11 3.50668e-11 -0.992724

0.276618 -1.05302 -2.4858e-11
-1.05302 -2.79853 1.86879e-11
-2.4858e-11 1.86879e-11 -0.814535

-2.70404 -0.857229 -2.74568e-11
-0.857229 0.672129 3.85229e-12
-2.74568e-11 3.85229e-12 -0.40407

-1.03116 2.42973 -1.6762e-11
2.42973 1.19549 -7.12985e-12
-1.6762e-11 -7.12985e-12 -0.180073

-1.70227 3.09367 1.15617e-11
3.09367 1.3657 3.4491e-11
1.15617e-11 3.4491e-11 -0.226644

-3.31178 -1.85847 1.91725e-11
-1.85847 -0.865524 -1.54084e-12
1.91725e-11 -1.54084e-12 -0.63666

11.4112 3.57265 1.84998e-11
3.57265 11.5092 -6.30168e-11
1.84998e-11 -6.30168e-11 11.085

-2.51735 1.91646 1.76297e-11
1.91646 0.33633 4.43267e-12
1.76297e-11 4.43267e-12 -1.12118

-3.51781 -2.18562 -1.89297e-11
-2.18562 -0.766266 -3.273e-12
-1.89297e-11 -3.273e-12 -1.29088

-3.40051 -1.69493 -4.43307e-12
-1.69493 0.252016 9.63403e-12
-4.43307e-12 9.63403e-12 -0.467366

-1.92332 2.65642 -1.84965e-11
2.65642 1.3108 -4.62565e-12
-1.84965e-11 -4.62565e-12 -0.272363

2.53247 -1.17626 2.60159e-11
-1.17626 0.0621506 -2.56244e-11
2.60159e-11 -2.56244e-11 0.699349

-0.667048 -1.42365 9.44204e-12
-1.42365 -0.95315 -1.46436e-11
9.44204e-12 -1.46436e-11 -0.478835

-1.90182 1.559 4.67215e-12
1.559 -0.385164 4.23978e-12
4.67215e-12 4.23978e-12 -1.04332

-2.0545 -2.12339 -2.97235e-11
-2.12339 -1.73442 3.69962e-11
-2.97235e-11 3.69962e-11 -1.12357

0.965753 -0.556253 -4.38327e-12
-0.556253 -3.04873 -8.86439e-12
-4.38327e-12 -8.86439e-12 -0.54439

-0.163141 0.58494 1.31011e-11
0.58494 -1.73408 3.12126e-11
1.31011e-11 3.12126e-11 -1.34977

-0.205003 -0.598244 -2.42753e-11
-0.598244 -3.38967 -4.2774e-11
-2.42753e-11 -4.2774e-11 -1.24508

-4.38463 0.653078 1.05987e-11
0.653078 0.121979 -8.47772e-11
1.05987e-11 -8.47772e-11 -4.23342

-4.15921 0.863238 3.85336e-11
0.863238 -1.4397 -2.8418e-11
3.85336e-11 -2.8418e-11 -3.58767

6.16737 0.675267 5.80079e-11
0.675267 4.39122 1.34911e-11
5.80079e-11 1.34911e-11 6.47713

4.47594 0.672567 2.3612e-11
0.672567 6.48009 -4.93352e-11
2.3612e-11 -4.93352e-11 6.47824

-1.28945 1.95131 5.20574e-12
1.95131 -1.23172 -3.58394e-11
5.20574e-12 -3.58394e-11 -0.584337

-0.0838595 -2.00435 -3.48688e-11
-2.00435 -0.575016 -4.68194e-11
-3.48688e-11 -4.68194e-11 -0.27456

7.13399 1.3304 1.58021e-11
1.3304 6.95079 -6.74327e-12
1.58021e-11 -6.74327e-12 7.57119

6.86807 1.45583 -1.06023e-11
1.45583 6.95036 -4.20127e-11
-1.06023e-11 -4.20127e-11 7.52425

-1.41354 -0.521458 3.82851e-13
-0.521458 -2.79807 8.28276e-12
3.82851e-13 8.28276e-12 -3.89245

-1.00452 -0.337889 4.27693e-11
-0.337889 -0.273504 -1.96567e-11
4.27693e-11 -1.96567e-11 -4.56573

-1.3471 -1.92087 3.7479e-11
-1.92087 -1.01195 -1.58041e-11
3.7479e-11 -1.58041e-11 -0.492217

-0.834863 2.47575 3.58384e-11
2.47575 -1.36762 -9.24845e-12
3.58384e-11 -9.24845e-12 -0.541837

0.395311 -2.08248 -2.04233e-11
-2.08248 -1.25222 1.58002e-11
-2.04233e-11 1.58002e-11 -0.303693

0.0703425 2.1784 -1.69572e-11
2.1784 0.487179 -7.01381e-11
-1.69572e-11 -7.01381e-11 0.242234

1.02269 -1.72946 1.13674e-11
-1.72946 0.62261 -2.11964e-11
1.13674e-11 -2.11964e-11 0.331493

2.92337 -0.320271 1.50297e-11
-0.320271 4.9023 5.39591e-12
1.50297e-11 5.39591e-12 2.97244

1.94641 0.898742 2.6014e-11
0.898742 4.60738 -3.00628e-11
2.6014e-11 -3.00628e-11 2.7811

4.91929 -0.133211 3.41087e-11
-0.133211 2.63423 -1.80411e-16
3.41087e-11 -1.80411e-16 3.06142

-1.0382 2.30997 4.81729e-12
2.30997 -0.236555 -7.69644e-13
4.81729e-12 -7.69644e-13 -0.169738

0.328902 -2.27377 -7.12759e-12
-2.27377 -0.0486304 -1.48366e-11
-7.12759e-12 -1.48366e-11 0.00909487

2.96087 0.144706 4.47077e-11
0.144706 5.78605 1.96568e-11
4.47077e-11 1.96568e-11 3.97286

5.70872 -0.0161992 -3.85431e-11
-0.0161992 3.3575 -3.19872e-11
-3.85431e-11 -3.19872e-11 3.97374

-0.942643 2.35718 -1.30992e-11
2.35718 -1.92546 -3.8534e-11
-1.30992e-11 -3.8534e-11 -0.943849

0.274765 -1.68082 -2.54263e-11
-1.68082 -1.55919 -4.70126e-11
-2.54263e-11 -4.70126e-11 -0.55689

-1.21362 2.3304 -1.50313e-11
2.3304 -1.51649 1.00203e-11
-1.50313e-11 1.00203e-11 -1.09312

-0.0110071 -2.04086 -1.59941e-11
-2.04086 -1.88928 2.3108e-12
-1.59941e-11 2.3108e-12 -0.753596

7.00914 1.36461 -1.05978e-11
1.36461 7.07139 -2.96806e-11
-1.05978e-11 -2.96806e-11 7.70952

7.03442 1.2598 4.97192e-11
1.2598 7.25921 -4.43184e-12
4.97192e-11 -4.43184e-12 7.74006

-0.190303 2.20688 2.92872e-11
2.20688 -0.744363 1.65713e-11
2.92872e-11 1.65713e-11 -0.182799

0.452493 -1.82446 1.98479e-11
-1.82446 -0.227702 -9.8234e-12
1.98479e-11 -9.8234e-12 -0.0247919

-2.81671 1.42693 2.19646e-11
1.42693 -1.79508 -6.81103e-11
2.19646e-11 -6.81103e-11 -2.50136

-3.11653 -0.46166 3.08005e-12
-0.46166 -0.793657 4.81689e-11
3.08005e-12 4.81689e-11 -2.92088

-2.62691 1.85839 1.73431e-11
1.85839 -0.707496 7.71031e-12
1.73431e-11 7.71031e-12 -1.10663

-0.107795 -2.11215 -2.31185e-11
-2.11215 -1.34202 -2.7937e-11
-2.31185e-11 -2.7937e-11 -0.635958

-0.213755 1.66725 2.1578e-11
1.66725 -3.53688 -8.47653e-12
2.1578e-11 -8.47653e-12 -1.88052

0.252941 -1.0821 4.12328e-11
-1.0821 -4.44421 -1.29062e-11
4.12328e-11 -1.29062e-11 -1.50627

-1.35068 2.24276 -6.11738e-12
2.24276 0.722957 -8.28588e-12
-6.11738e-12 -8.28588e-12 -0.431593

-2.29186 -1.88089 8.91008e-12
-1.88089 -0.79491 3.85357e-11
8.91008e-12 3.85357e-11 -0.65587

-4.01211 1.36365 6.74155e-12
1.36365 -0.76897 -1.04041e-11
6.74155e-12 -1.04041e-11 -3.0176

-3.66521 1.58071 -2.82749e-11
1.58071 -3.17228 -1.54267e-12
-2.82749e-11 -1.54267e-12 -3.99646

-2.81052 -2.81396 -2.59959e-12
-2.81396 -2.89246 -1.61844e-11
-2.59959e-12 -1.61844e-11 -3.66302

-4.61971 -0.38272 4.3928e-11
-0.38272 0.0673425 1.96547e-11
4.3928e-11 1.96547e-11 -3.57928

-0.748558 1.65606 7.70658e-12
1.65606 -3.10443 2.73593e-11
7.70658e-12 2.73593e-11 -3.12413

-0.339792 0.35056 1.10206e-10
0.35056 -2.96066 -1.30244e-10
1.10206e-10 -1.30244e-10 -3.95528

-0.287862 -1.52891 -7.05202e-11
-1.52891 -4.83812 1.30937e-11
-7.05202e-11 1.30937e-11 -2.61097

-0.278761 -0.502319 -7.78395e-11
-0.502319 -4.97812 -3.37229e-11
-7.78395e-11 -3.37229e-11 -3.3373

-2.94971 1.94566 -5.2021e-11
1.94566 -1.28337 2.15718e-11
-5.2021e-11 2.15718e-11 -4.22663

0.629644 -0.389427 7.4682e-10
-0.389427 -0.446289 -7.23974e-10
7.4682e-10 -7.23974e-10 -4.56761

-0.163695 -1.3591 -5.08702e-10
-1.3591 -5.47219 7.73348e-12
-5.08702e-10 7.73348e-12 -4.03301

-0.131587 -1.67093 1.98862e-10
-1.67093 -4.21132 -1.37723e-10
1.98862e-10 -1.37723e-10 -2.90657

-1.00841 1.87047 2.54318e-11
1.87047 -2.76357 2.89024e-11
2.54318e-11 2.89024e-11 -3.36062

-0.725298 0.834398 -5.08654e-11
0.834398 -1.41119 1.61788e-11
-5.08654e-11 1.61788e-11 -1.69435

-2.04105 0.936049 1.73499e-11
0.936049 -0.726838 -8.43907e-11
1.73499e-11 -8.43907e-11 -4.37379

0.3991 -1.31224 -5.78534e-12
-1.31224 -3.93421 4.75847e-11
-5.78534e-12 4.75847e-11 -2.33222

-0.968957 -1.55221 8.47912e-12
-1.55221 -4.62663 5.8955e-11
8.47912e-12 5.8955e-11 -3.52188

0.0219477 -1.06787 3.42948e-11
-1.06787 -1.90543 6.74549e-12
3.42948e-11 6.74549e-12 -1.20666

-1.26194 2.17763 -5.08648e-11
2.17763 -2.13085 -3.5843e-11
-5.08648e-11 -3.5843e-11 -2.33936

-0.532285 1.05317 -4.70126e-11
1.05317 -2.62718 -1.27189e-11
-4.70126e-11 -1.27189e-11 -3.10569

-0.225973 -1.63895 5.62633e-11
-1.63895 -3.25258 -1.29065e-11
5.62633e-11 -1.29065e-11 -1.75128

-0.245538 -0.963163 2.04264e-11
-0.963163 -3.73767 -1.13657e-11
2.04264e-11 -1.13657e-11 -2.40591

-0.60671 0.178657 1.69545e-11
0.178657 -0.515982 2.40795e-12
1.69545e-11 2.40795e-12 -0.101818

0.39074 -0.0930803 3.27506e-12
-0.0930803 -0.286146 3.46778e-12
3.27506e-12 3.46778e-12 -0.188357

0.418806 0.338467 -9.64923e-13
0.338467 -0.637396 -3.81471e-11
-9.64923e-13 -3.81471e-11 -0.171583

-0.381648 -0.349602 -1.04041e-11
-0.349602 -1.76965 4.89132e-11
-1.04041e-11 4.89132e-11 -0.226906

-0.312576 0.0588908 -1.90741e-11
0.0588908 -1.32877 2.0954e-11
-1.90741e-11 2.0954e-11 -0.104941

0.172791 -0.495147 1.61832e-11
-0.495147 -0.376805 1.19453e-11
1.61832e-11 1.19453e-11 -0.490617

-0.0616699 0.8964 -1.11768e-11
0.8964 -1.16181 -5.06701e-11
-1.11768e-11 -5.06701e-11 -0.62503

-0.289651 -0.0835966 6.16541e-12
-0.0835966 -1.48007 2.3135e-12
6.16541e-12 2.3135e-12 -0.131968

0.268084 0.404711 -3.66061e-12
0.404711 -2.22535 -1.6232e-11
-3.66061e-12 -1.6232e-11 -0.348239

-0.339599 0.0852592 -6.93616e-12
0.0852592 -0.624727 -1.69062e-11
-6.93616e-12 -1.69062e-11 -0.0462506

-0.32254 -0.0794969 -2.00371e-11
-0.0794969 -0.577043 -1.92674e-12
-2.00371e-11 -1.92674e-12 -0.034303

-0.233649 0.0470886 2.62019e-11
0.0470886 0.0658962 1.04038e-11
2.62019e-11 1.04038e-11 -0.00535325

1.07433 -0.512575 7.59104e-11
-0.512575 -1.28178 8.19064e-12
7.59104e-11 8.19064e-12 -0.465522

0.757021 0.032398 2.5431e-11
0.032398 -0.078473 -7.41836e-12
2.5431e-11 -7.41836e-12 -0.377462

-0.588784 0.663667 -4.85723e-16
0.663667 -0.812709 -9.63521e-13
-4.85723e-16 -9.63521e-13 -0.188196

-0.740128 0.941146 -5.97302e-12
0.941146 -0.675487 -1.10783e-11
-5.97302e-12 -1.10783e-11 -0.270843

-0.101823 -0.887432 1.9265e-11
-0.887432 -1.19094 2.15787e-11
1.9265e-11 2.15787e-11 -0.659428

0.128031 0.45996 1.54145e-12
0.45996 -0.353376 2.88995e-12
1.54145e-12 2.88995e-12 -0.479494

-0.13478 0.0262636 1.54128e-11
0.0262636 0.28449 -1.4898e-11
1.54128e-11 -1.4898e-11 -0.0287466

-0.520677 0.0907743 8.47737e-12
0.0907743 -0.267893 7.8991e-12
8.47737e-12 7.8991e-12 -0.0503053

-0.528366 -0.102045 -2.08077e-11
-0.102045 -0.25654 6.743e-12
-2.08077e-11 6.743e-12 -0.0523883

-0.33173 -0.106846 3.89172e-11
-0.106846 0.173942 3.76412e-11
3.89172e-11 3.76412e-11 -0.0216118

-0.54198 0.296858 -3.94896e-12
0.296858 -0.736599 3.0345e-11
-3.94896e-12 3.0345e-11 -0.102671

-0.52628 0.240755 1.63767e-11
0.240755 -1.28617 -1.09818e-11
1.63767e-11 -1.09818e-11 -0.144353

-0.846044 0.232488 1.90748e-11
0.232488 -0.704586 3.82437e-11
1.90748e-11 3.82437e-11 -0.160935

-0.041125 -0.155555 2.46606e-11
-0.155555 -0.114363 7.70669e-12
2.46606e-11 7.70669e-12 -0.0559801

-0.190042 0.293432 -7.32138e-12
0.293432 -1.69801 -1.53456e-11
-7.32138e-12 -1.53456e-11 -0.176769

-0.511369 0.0518301 3.19821e-11
0.0518301 -0.299069 -4.33711e-13
3.19821e-11 -4.33711e-13 -0.0169403

-0.0520943 -0.398936 -1.21383e-11
-0.398936 -2.64597 9.42253e-12
-1.21383e-11 9.42253e-12 -0.429492

-0.355138 -0.106179 -3.46787e-11
-0.106179 -0.0119891 -5.21993e-11
-3.46787e-11 -5.21993e-11 -0.0249601

0.75142 -0.0877891 -1.57983e-11
-0.0877891 -0.662321 -1.17499e-15
-1.57983e-11 -1.17499e-15 -0.588193

0.769262 0.132685 -3.42945e-11
0.132685 -0.985534 -7.12679e-12
-3.42945e-11 -7.12679e-12 -0.635255

-2.06232 -0.446442 -6.03048e-11
-0.446442 -2.74712 -4.62385e-11
-6.03048e-11 -4.62385e-11 -2.81615

-2.07351 0.448994 -1.3101e-11
0.448994 -2.72641 -4.18084e-11
-1.3101e-11 -4.18084e-11 -2.82737

-0.3406 -0.103174 -7.12867e-12
-0.103174 -0.936647 7.63439e-12
-7.12867e-12 7.63439e-12 -0.0371015

-0.983041 0.0860162 -1.40653e-11
0.0860162 -0.792966 -8.81428e-12
-1.40653e-11 -8.81428e-12 -0.241022

-1.45061 -0.721285 4.93229e-11
-0.721285 -1.44341 1.96029e-11
4.93229e-11 1.96029e-11 -1.08365

-1.55289 0.76462 9.82616e-12
0.76462 -1.48536 -1.87847e-11
9.82616e-12 -1.87847e-11 -1.15353

0.553208 -0.35217 -2.54329e-11
-0.35217 -2.09804 1.00561e-12
-2.54329e-11 1.00561e-12 -0.250382

-0.237485 -0.198757 9.82573e-12
-0.198757 0.222154 4.72031e-12
9.82573e-12 4.72031e-12 -0.0263785

-0.547006 0.00685385 1.90743e-11
0.00685385 -0.86111 -1.68582e-11
1.90743e-11 -1.68582e-11 -0.0817114

0.45688 0.30482 1.44512e-12
0.30482 -2.21202 1.18973e-11
1.44512e-12 1.18973e-11 -0.233608

-0.531051 -0.275952 2.92857e-11
-0.275952 -0.696122 -1.68579e-11
2.92857e-11 -1.68579e-11 -0.0913088

-0.634937 -0.182725 7.32211e-12
-0.182725 -0.497864 -4.16157e-11
7.32211e-12 -4.16157e-11 -0.105244

0.236737 -0.377505 -3.46844e-12
-0.377505 0.0140036 2.2541e-11
-3.46844e-12 2.2541e-11 -0.115158

-0.482636 0.0136843 -2.83217e-11
0.0136843 -0.942745 -2.75513e-11
-2.83217e-11 -2.75513e-11 -0.0932326

-0.467946 0.145854 -3.04409e-11
0.145854 -0.502378 -7.08044e-12
-3.04409e-11 -7.08044e-12 -0.0496309

-0.434447 0.188658 1.84955e-11
0.188658 -0.275453 -6.17845e-11
1.84955e-11 -6.17845e-11 -0.0522967

0.0935317 -1.40424 -1.73561e-12
-1.40424 -1.60991 1.77246e-11
-1.73561e-12 1.77246e-11 -0.497299

-0.409421 -0.0787977 1.27159e-11
-0.0787977 -0.166186 -3.78462e-11
1.27159e-11 -3.78462e-11 -0.0226817

-0.4895 0.0850994 -4.39274e-11
0.0850994 -0.394198 3.44398e-12
-4.39274e-11 3.44398e-12 -0.0109671

0.020227 0.251827 4.62394e-12
0.251827 0.20181 1.32934e-11
4.62394e-12 1.32934e-11 -0.235507

0.0201082 -0.250808 5.89529e-11
-0.250808 0.202937 4.38303e-11
5.89529e-11 4.38303e-11 -0.235105

-0.0704791 -0.101539 4.62384e-12
-0.101539 0.307845 -5.42006e-12
4.62384e-12 -5.42006e-12 -0.0275588

-0.0388899 0.105157 4.62342e-12
0.105157 0.274858 -2.19149e-11
4.62342e-12 -2.19149e-11 -0.234003

-0.039159 -0.104654 3.66053e-11
-0.104654 0.275086 -1.87839e-11
3.66053e-11 -1.87839e-11 -0.233901

-0.0922627 -0.312632 1.69551e-11
-0.312632 0.111072 -3.68946e-11
1.69551e-11 -3.68946e-11 -0.0624368

-1.7206 -0.582823 -1.025e-10
-0.582823 -2.98182 8.33443e-12
-1.025e-10 8.33443e-12 -2.42501

-1.73871 0.601904 1.36796e-11
0.601904 -2.99687 -3.3909e-11
1.36796e-11 -3.3909e-11 -2.43963

-0.081403 0.14272 2.08069e-11
0.14272 0.320103 -7.46567e-12
2.08069e-11 -7.46567e-12 -0.107639

-0.0812446 -0.142972 -5.81824e-11
-0.142972 0.322768 -2.06632e-11
-5.81824e-11 -2.06632e-11 -0.10708

-0.488233 0.0961786 2.94778e-11
0.0961786 -0.853204 2.14101e-11
2.94778e-11 2.14101e-11 -0.0695133

-0.317452 0.832998 1.96525e-11
0.832998 -1.74036 1.0596e-11
1.96525e-11 1.0596e-11 -1.72134

0.568722 -0.674079 1.23313e-11
-0.674079 -0.252423 -2.27332e-11
1.23313e-11 -2.27332e-11 -1.09673

-0.246082 0.194961 -2.08076e-11
0.194961 0.22557 -1.44495e-11
-2.08076e-11 -1.44495e-11 -0.0287329

-0.547527 -0.0930163 -4.31571e-11
-0.0930163 -0.276504 5.0526e-11
-4.31571e-11 5.0526e-11 -0.0234972

-0.379455 -0.136029 7.32127e-12
-0.136029 -0.582051 1.76228e-11
7.32127e-12 1.76228e-11 -0.00413222

-0.0256379 -0.311819 2.81279e-11
-0.311819 0.172922 2.08077e-11
2.81279e-11 2.08077e-11 -0.120629

-0.138421 0.857525 -3.42945e-11
0.857525 -1.00971 -8.86184e-12
-3.42945e-11 -8.86184e-12 -0.250191

-0.0657106 0.180732 2.14617e-10
0.180732 0.192753 -1.35921e-10
2.14617e-10 -1.35921e-10 -0.812149

-0.0671219 -0.179447 -4.43105e-11
-0.179447 0.189775 -8.09196e-12
-4.43105e-11 -8.09196e-12 -0.81319

0.220288 1.1513 5.55112e-16
1.1513 -0.8625 9.44087e-12
5.55112e-16 9.44087e-12 -0.142828

-0.101181 0.0660561 -1.0789e-11
0.0660561 0.317061 -5.39442e-12
-1.0789e-11 -5.39442e-12 -0.0573559

-0.103555 -0.0651024 -3.77612e-11
-0.0651024 0.325187 2.07589e-11
-3.77612e-11 2.07589e-11 -0.0567739

-1.54416 0.555557 -1.73402e-11
0.555557 -0.621036 -8.38114e-12
-1.73402e-11 -8.38114e-12 -0.407059

0.306825 0.37785 5.39431e-12
0.37785 0.350333 -6.35782e-12
5.39431e-12 -6.35782e-12 -0.206852

-0.426385 0.101792 1.73398e-12
0.101792 -0.981033 -1.12468e-11
1.73398e-12 -1.12468e-11 -0.0616507

-0.391154 -0.173311 3.33315e-11
-0.173311 -1.33691 5.73166e-12
3.33315e-11 5.73166e-12 -0.124658

-1.23435 -0.855574 4.39286e-11
-0.855574 -2.37758 9.58432e-12
4.39286e-11 9.58432e-12 -1.04966

-4.11588 0.935808 8.51571e-11
0.935808 -2.85319 2.89319e-12
8.51571e-11 2.89319e-12 -3.77985

-4.07302 -0.976616 -1.1753e-11
-0.976616 -2.92094 -4.61432e-11
-1.1753e-11 -4.61432e-11 -3.77522

-0.542789 0.159108 -1.6184e-11
0.159108 -0.534609 -6.55042e-12
-1.6184e-11 -6.55042e-12 -0.0425976

-0.79671 0.233378 -2.69725e-12
0.233378 -1.22421 -8.42923e-12
-2.69725e-12 -8.42923e-12 -0.232492

-0.111928 -0.188973 -1.73395e-11
-0.188973 0.249713 2.65629e-11
-1.73395e-11 2.65629e-11 -0.0392693

0.12801 -0.00539628 -3.89155e-11
-0.00539628 -0.139964 -3.83412e-11
-3.89155e-11 -3.83412e-11 -1.44558

0.677769 0.704679 -8.13017e-11
0.704679 -2.52874 2.79381e-11
-8.13017e-11 2.79381e-11 -2.01935

-1.34725 0.902584 -1.0597e-11
0.902584 -2.37338 3.02485e-11
-1.0597e-11 3.02485e-11 -1.12564

0.333031 -0.290294 3.84757e-13
-0.290294 -0.621006 2.62985e-11
3.84757e-13 2.62985e-11 -0.224586

0.32618 0.086858 6.45535e-12
0.086858 -0.358105 4.08442e-11
6.45535e-12 4.08442e-11 -0.218007

-0.0811045 -0.00182772 -2.31189e-11
-0.00182772 0.358699 3.60514e-11
-2.31189e-11 3.60514e-11 -0.0454495

-0.0787722 0.00550916 1.61833e-11
0.00550916 0.354242 3.54021e-12
1.61833e-11 3.54021e-12 -0.0460664

-0.293161 0.183596 1.92587e-13
0.183596 0.0618674 -6.93577e-12
1.92587e-13 -6.93577e-12 -0.0251014

-0.196537 -0.116747 -1.92662e-12
-0.116747 0.251575 7.25485e-12
-1.92662e-12 7.25485e-12 -0.0224025

-0.0301399 0.0687167 1.38232e-11
0.0687167 0.317612 -1.5461e-11
1.38232e-11 -1.5461e-11 -0.10783

-0.0294207 -0.0673232 -2.93778e-12
-0.0673232 0.318241 -2.94046e-11
-2.93778e-12 -2.94046e-11 -0.107305

-0.123769 0.190883 5.77975e-12
0.190883 0.250262 7.63406e-12
5.77975e-12 7.63406e-12 -0.0413372

-0.0509832 0.141186 1.6954e-11
0.141186 -0.107043 -1.0404e-11
1.6954e-11 -1.0404e-11 -0.0580104

-0.0372982 0.179848 -5.39464e-12
0.179848 0.271518 -2.66592e-11
-5.39464e-12 -2.66592e-11 -0.0719685

-0.028844 -0.174357 5.00913e-12
-0.174357 0.268812 -5.99647e-12
5.00913e-12 -5.99647e-12 -0.071091

-0.375448 0.388883 -2.06156e-11
0.388883 -1.83162 -1.98929e-11
-2.06156e-11 -1.98929e-11 -0.278879

0.217256 -0.221971 2.81288e-11
-0.221971 0.209324 -2.15777e-11
2.81288e-11 -2.15777e-11 -0.0461284

-0.503437 0.0670778 1.31011e-11
0.0670778 -0.814893 -1.80143e-11
1.31011e-11 -1.80143e-11 -0.068844

-0.781858 0.896359 1.44507e-11
0.896359 -0.371002 1.92661e-11
1.44507e-11 1.92661e-11 -0.226509

0.316707 -0.234505 -1.19448e-11
-0.234505 0.306233 -1.83069e-12
-1.19448e-11 -1.83069e-12 -0.077469

-0.205647 0.0374699 -4.23857e-12
0.0374699 0.19163 1.7508e-11
-4.23857e-12 1.7508e-11 -0.0170592

-1.21659 0.547008 -2.36982e-11
0.547008 -1.68452 9.44035e-12
-2.36982e-11 9.44035e-12 -0.533861

-0.388592 -0.308969 -5.39468e-12
-0.308969 -1.68457 -2.53836e-11
-5.39468e-12 -2.53836e-11 -0.24043

-0.686924 -0.0636158 -2.09043e-11
-0.0636158 -0.849696 2.21602e-12
-2.09043e-11 2.21602e-12 -0.133389

-0.885859 -0.222861 2.87073e-11
-0.222861 -1.20101 -7.22869e-13
2.87073e-11 -7.22869e-13 -0.242068

-0.208285 0.593894 3.62207e-11
0.593894 -0.681565 -7.12921e-12
3.62207e-11 -7.12921e-12 -0.294317

-0.110977 -0.535906 3.08251e-11
-0.535906 -0.533495 3.61248e-11
3.08251e-11 3.61248e-11 -0.260064

-0.277062 -0.0426761 -1.51242e-11
-0.0426761 0.0863485 -5.25966e-11
-1.51242e-11 -5.25966e-11 -0.0125822

-1.58135 -0.59128 -4.81743e-12
-0.59128 -0.600029 3.21759e-11
-4.81743e-12 3.21759e-11 -0.411842

-0.181205 0.0569653 -1.69541e-11
0.0569653 0.0106016 2.11934e-12
-1.69541e-11 2.11934e-12 -0.0329221

-0.189008 -0.0557355 8.86212e-12
-0.0557355 -0.00414132 3.41011e-11
8.86212e-12 3.41011e-11 -0.0368678

-0.655678 0.265033 -3.46785e-12
0.265033 -1.11805 -8.42927e-12
-3.46785e-12 -8.42927e-12 -0.206925

0.0912244 0.749522 3.46828e-12
0.749522 -3.04268 2.32645e-11
3.46828e-12 2.32645e-11 -0.71269

0.131699 -0.64789 -2.79378e-11
-0.64789 -3.01553 2.82742e-11
-2.79378e-11 2.82742e-11 -0.68214

-0.208022 0.323926 4.62384e-12
0.323926 -0.650613 1.25229e-12
4.62384e-12 1.25229e-12 -0.0751911

-0.934241 -0.203525 -4.04669e-12
-0.203525 -0.693117 3.28978e-11
-4.04669e-12 3.28978e-11 -0.177883

-0.313803 0.256659 -1.54131e-11
0.256659 -0.309548 -5.05729e-12
-1.54131e-11 -5.05729e-12 -0.0447028

-0.295309 -0.251429 -3.35235e-11
-0.251429 -0.308777 6.6464e-12
-3.35235e-11 6.6464e-12 -0.0431977

-0.180815 0.0170432 -7.70652e-12
0.0170432 0.0380189 -3.15964e-11
-7.70652e-12 -3.15964e-11 -0.0111185

-0.322429 -0.183041 3.54493e-11
-0.183041 0.0518533 2.21563e-11
3.54493e-11 2.21563e-11 -0.0319832

-0.225781 0.0223821 -2.46606e-11
0.0223821 0.177487 -6.88748e-12
-2.46606e-11 -6.88748e-12 -0.0155448

1.51951 0.273162 -6.0113e-11
0.273162 -0.748868 3.83345e-11
-6.0113e-11 3.83345e-11 -1.81319

1.35952 -1.35346 -6.0881e-11
-1.35346 -1.57811 -1.94549e-11
-6.0881e-11 -1.94549e-11 -2.23425

-0.179934 -0.0168081 -1.50275e-11
-0.0168081 0.186958 -5.85205e-12
-1.50275e-11 -5.85205e-12 -0.0152146

0.0867886 -0.122498 -1.9264e-12
-0.122498 0.204662 -5.97273e-12
-1.9264e-12 -5.97273e-12 -0.0408631

-0.0862 0.104527 -9.63292e-12
0.104527 0.306033 1.6817e-11
-9.63292e-12 1.6817e-11 -0.0306423

-0.212167 -0.311507 3.31386e-11
-0.311507 -0.616896 -1.92626e-12
3.31386e-11 -1.92626e-12 -0.0723151

0.676232 -0.591726 -3.08257e-11
-0.591726 0.261825 9.92141e-12
-3.08257e-11 9.92141e-12 -0.140909

-0.456463 1.58945 -4.24037e-12
1.58945 -1.24989 -9.73005e-12
-4.24037e-12 -9.73005e-12 -0.504067

0.227253 0.243072 -2.88989e-11
0.243072 0.201484 9.72961e-12
-2.88989e-11 9.72961e-12 -0.04826

0.178403 -0.287839 2.65871e-11
-0.287839 0.308131 7.80315e-12
2.65871e-11 7.80315e-12 -0.0471266

-0.395974 0.541437 -4.23887e-12
0.541437 -0.546061 6.5504e-12
-4.23887e-12 6.5504e-12 -0.0971227

-0.063108 -0.00291522 3.12106e-11
-0.00291522 0.47075 2.89605e-11
3.12106e-11 2.89605e-11 -0.0221701

-0.202478 -0.0169998 -4.12292e-11
-0.0169998 0.133072 -1.45462e-11
-4.12292e-11 -1.45462e-11 -0.0181379

-0.829656 -0.897087 4.04764e-12
-0.897087 -0.346223 -4.06533e-11
4.04764e-12 -4.06533e-11 -0.231855

-0.227515 -0.200001 -2.31195e-11
-0.200001 0.249933 2.36008e-11
-2.31195e-11 2.36008e-11 -0.0104287

-0.676672 -0.1012 4.89367e-11
-0.1012 -0.530659 1.63288e-11
4.89367e-11 1.63288e-11 -0.0728369

-0.917748 -0.112745 1.81108e-11
-0.112745 -0.791663 -2.07108e-12
1.81108e-11 -2.07108e-12 -0.230957

-0.184636 0.0756055 1.15595e-11
0.0756055 -0.257088 -1.76769e-11
1.15595e-11 -1.76769e-11 -0.0424975

-0.179695 -0.0834309 4.43118e-11
-0.0834309 -0.26665 5.35605e-11
4.43118e-11 5.35605e-11 -0.0439135

-0.332265 0.0957937 -3.2367e-11
0.0957937 0.202792 -4.94899e-12
-3.2367e-11 -4.94899e-12 -0.0196217

-0.22714 0.205375 -2.08065e-11
0.205375 0.231094 6.63717e-11
-2.08065e-11 6.63717e-11 -0.0134459

0.00449864 -0.122163 1.69547e-11
-0.122163 -0.316964 -9.53666e-12
1.69547e-11 -9.53666e-12 -0.0817754

0.0201091 0.144918 3.62204e-11
0.144918 -0.30882 -1.11751e-11
3.62204e-11 -1.11751e-11 -0.0676278

-0.260708 -0.0206881 1.07891e-11
-0.0206881 -0.0239133 7.32101e-12
1.07891e-11 7.32101e-12 -0.013158

-0.269301 0.0162293 3.04402e-11
0.0162293 0.00627056 3.00074e-11
3.04402e-11 3.00074e-11 -0.0102733

0.0399814 0.0596727 1.15596e-11
0.0596727 0.35867 3.75684e-11
1.15596e-11 3.75684e-11 -0.0307734

0.0427388 -0.0568863 2.15777e-11
-0.0568863 0.358593 1.07888e-11
2.15777e-11 1.07888e-11 -0.030056

0.0336792 -0.330189 3.58355e-11
-0.330189 0.284319 -2.12885e-11
3.58355e-11 -2.12885e-11 -0.0368887

-0.491701 -1.44515 3.12149e-11
-1.44515 -0.952298 -1.52203e-11
3.12149e-11 -1.52203e-11 -0.425048

-1.63105 0.0216276 -4.20017e-11
0.0216276 -0.994393 -8.95852e-12
-4.20017e-11 -8.95852e-12 -0.477107

-0.529053 0.0530751 4.62412e-12
0.0530751 -0.563722 3.61728e-11
4.62412e-12 3.61728e-11 -0.0265799

-0.307024 -0.14741 2.35048e-11
-0.14741 0.0315349 4.335e-12
2.35048e-11 4.335e-12 -0.0422169

0.0306532 0.207874 -3.08255e-11
0.207874 0.209713 -6.06862e-12
-3.08255e-11 -6.06862e-12 -0.155302

0.0312578 -0.206408 2.23488e-11
-0.206408 0.211695 -2.64423e-11
2.23488e-11 -2.64423e-11 -0.15479

-0.0698981 0.257895 4.43134e-12
0.257895 0.239932 2.12887e-11
4.43134e-12 2.12887e-11 -0.0781081

-0.0719093 -0.259022 -5.97249e-12
-0.259022 0.24078 9.92194e-12
-5.97249e-12 9.92194e-12 -0.0784686

-0.472203 -0.0394584 7.70635e-12
-0.0394584 -0.180306 -2.77918e-11
7.70635e-12 -2.77918e-11 -0.00908045

-0.295478 -0.0263621 -4.27709e-11
-0.0263621 -0.0411192 1.69783e-12
-4.27709e-11 1.69783e-12 0.00134514

-0.306035 0.170411 2.08071e-11
0.170411 0.0439934 -1.69543e-11
2.08071e-11 -1.69543e-11 -0.0393399

0.0116578 0.0053218 -6.93569e-12
0.0053218 0.193442 7.22488e-12
-6.93569e-12 7.22488e-12 -0.429234

0.0113891 -0.00483422 4.70085e-11
-0.00483422 0.191817 2.11934e-12
4.70085e-11 2.11934e-12 -0.429558

-0.0945615 -0.226791 5.47155e-11
-0.226791 0.214046 -6.59834e-12
5.47155e-11 -6.59834e-12 -0.0351941

-0.387594 -0.0929457 3.39092e-11
-0.0929457 -0.920619 -3.55105e-11
3.39092e-11 -3.55105e-11 -0.0577148

-0.198996 0.119953 1.61833e-11
0.119953 0.254231 -5.56912e-12
1.61833e-11 -5.56912e-12 -0.0226637

-0.26326 -0.78456 -3.62206e-11
-0.78456 -0.820575 2.3114e-12
-3.62206e-11 2.3114e-12 -0.275511

0.0347366 0.391864 2.31299e-12
0.391864 -0.106456 3.1982e-11
2.31299e-12 3.1982e-11 -0.17808

-0.713053 0.0498227 2.10003e-11
0.0498227 -0.672401 2.00856e-11
2.10003e-11 2.00856e-11 -0.106981

0.193423 0.285823 -2.46611e-11
0.285823 0.297201 -2.39859e-11
-2.46611e-11 -2.39859e-11 -0.0490053

-0.106359 0.232066 3.46738e-12
0.232066 0.21864 -3.675e-11
3.46738e-12 -3.675e-11 -0.0362015

-1.2196 1.43201 3.27606e-12
1.43201 -0.628139 1.07899e-11
3.27606e-12 1.07899e-11 -0.347405

0.791257 -0.0126499 2.23489e-11
-0.0126499 0.0860165 1.73454e-12
2.23489e-11 1.73454e-12 -0.349883

1.13971 0.716823 2.77434e-11
0.716823 -1.57542 -1.36801e-11
2.77434e-11 -1.36801e-11 -0.50055

0.018441 0.343246 -9.63293e-12
0.343246 0.275964 -1.25207e-12
-9.63293e-12 -1.25207e-12 -0.0446577

-0.980761 0.693549 9.24698e-12
0.693549 -0.659289 -1.61832e-11
9.24698e-12 -1.61832e-11 -0.232049

-0.632005 -0.0848381 1.69547e-11
-0.0848381 -0.87448 2.12412e-11
1.69547e-11 2.12412e-11 -0.0929847

0.560592 -0.429814 2.54312e-11
-0.429814 0.231344 8.09208e-12
2.54312e-11 8.09208e-12 -0.00686876

-0.519694 -0.682805 -2.15785e-11
-0.682805 -0.783052 5.97221e-12
-2.15785e-11 5.97221e-12 -0.174486

-0.405424 0.463951 1.19461e-11
0.463951 -0.496087 3.26565e-11
1.19461e-11 3.26565e-11 -0.138647

-0.121485 -0.118075 3.15962e-11
-0.118075 0.310081 -2.03253e-11
3.15962e-11 -2.03253e-11 -0.0497015

-0.108539 -0.338772 3.23679e-11
-0.338772 -0.252127 -1.95549e-11
3.23679e-11 -1.95549e-11 -0.0934139

0.817758 0.515345 -7.32087e-12
0.515345 0.236251 7.7064e-12
-7.32087e-12 7.7064e-12 -0.0979582

-0.523479 0.0575547 -7.70656e-11
0.0575547 -0.487157 2.55239e-12
-7.70656e-11 2.55239e-12 -0.0465659

-0.439227 -0.0309147 1.00184e-11
-0.0309147 -0.669551 3.10431e-11
1.00184e-11 3.10431e-11 -0.0506865

-0.120092 0.119488 -3.7761e-11
0.119488 0.309892 2.02296e-11
-3.7761e-11 2.02296e-11 -0.049416

-0.133499 -0.0179521 2.10961e-11
-0.0179521 0.291537 2.42322e-12
2.10961e-11 2.42322e-12 -0.0269643

0.11418 0.125393 1.7262e-10
0.125393 -0.0131122 4.72959e-11
1.7262e-10 4.72959e-11 -0.732908

0.112999 -0.124046 1.2985e-10
-0.124046 -0.0151747 9.72974e-12
1.2985e-10 9.72974e-12 -0.733668

0.0941427 0.147047 9.24764e-12
0.147047 0.182732 -1.06928e-11
9.24764e-12 -1.06928e-11 -0.0514627

-2.56528 -0.823032 3.83406e-11
-0.823032 -2.00391 -4.53737e-11
3.83406e-11 -4.53737e-11 -1.9436

-2.60564 0.837587 -4.45059e-11
0.837587 -1.99884 -2.71669e-11
-4.45059e-11 -2.71669e-11 -1.97078

0.188114 -0.109411 1.15601e-12
-0.109411 -1.84891 2.91468e-11
1.15601e-12 2.91468e-11 -0.146358

-1.24024 -1.41048 1.079e-11
-1.41048 -0.572719 -5.29815e-12
1.079e-11 -5.29815e-12 -0.340002

-0.330801 0.0831723 3.85345e-12
0.0831723 -0.053342 -5.34156e-11
3.85345e-12 -5.34156e-11 -0.00894291

-0.41977 0.00651073 -7.7065e-12
0.00651073 -0.682975 3.34514e-11
-7.7065e-12 3.34514e-11 -0.0523836

-0.347692 0.160089 2.15784e-11
0.160089 -0.164981 1.44496e-11
2.15784e-11 1.44496e-11 -0.0311887

-0.352496 -0.163168 -5.77774e-13
-0.163168 -0.182883 -1.54612e-11
-5.77774e-13 -1.54612e-11 -0.039182

-0.252764 0.0720199 1.31007e-11
0.0720199 -0.0360748 -3.87973e-11
1.31007e-11 -3.87973e-11 -0.0125908

0.568169 0.414415 -2.54306e-11
0.414415 0.242494 2.05185e-11
-2.54306e-11 2.05185e-11 -0.00434663

-0.427644 0.145666 1.96517e-11
0.145666 -0.378484 -6.26316e-13
1.96517e-11 -6.26316e-13 -0.0413721

-0.249401 0.041716 -5.47159e-11
0.041716 -0.0883506 2.22163e-11
-5.47159e-11 2.22163e-11 -0.0155163

0.407606 -0.491665 1.38751e-11
-0.491665 -1.29632 -6.62757e-11
1.38751e-11 -6.62757e-11 -1.02244

0.939683 0.532355 6.16266e-12
0.532355 -0.330459 -4.04584e-11
6.16266e-12 -4.04584e-11 -0.731109

-0.359561 -0.588012 3.85321e-13
-0.588012 -1.34356 -4.47947e-11
3.85321e-13 -4.47947e-11 -0.305192

0.661644 -0.0975279 -1.83041e-11
-0.0975279 -3.03715 -3.07605e-11
-1.83041e-11 -3.07605e-11 -0.407816

-0.312162 -0.215427 5.66419e-11
-0.215427 0.0207536 4.56613e-11
5.66419e-11 4.56613e-11 -0.0256613

-0.3221 0.212989 3.00548e-11
0.212989 0.0348439 -2.98629e-11
3.00548e-11 -2.98629e-11 -0.0252918

0.103235 -0.0734723 1.52209e-11
-0.0734723 -2.25957 1.15956e-13
1.52209e-11 1.15956e-13 -0.246452

-0.0951869 0.324974 4.62415e-12
0.324974 0.138297 5.87612e-12
4.62415e-12 5.87612e-12 -0.0631722

-0.0668838 0.195239 -7.78341e-11
0.195239 0.190959 -2.94284e-11
-7.78341e-11 -2.94284e-11 -0.323742

-0.0662644 -0.194198 4.93204e-11
-0.194198 0.19049 -1.61831e-11
4.93204e-11 -1.61831e-11 -0.323625

-1.00983 -0.223784 -3.15975e-11
-0.223784 -0.947693 -6.26101e-12
-3.15975e-11 -6.26101e-12 -0.375891

-1.01226 -0.707858 2.23496e-11
-0.707858 -0.662655 -6.73924e-13
2.23496e-11 -6.73924e-13 -0.240107

-0.358306 -0.616493 2.23497e-11
-0.616493 -1.91942 5.39431e-12
2.23497e-11 5.39431e-12 -0.35335

-0.457943 0.0171548 -1.9459e-11
0.0171548 -0.925751 3.88221e-11
-1.9459e-11 3.88221e-11 -0.0814171

-0.494112 -0.529244 1.81108e-11
-0.529244 -0.538439 -5.49056e-12
1.81108e-11 -5.49056e-12 -0.121392

-0.545724 -0.110666 -1.15599e-11
-0.110666 -0.5442 -4.98515e-12
-1.15599e-11 -4.98515e-12 -0.0699335

-0.43448 -0.436478 -2.46599e-11
-0.436478 -0.430512 -3.26568e-11
-2.46599e-11 -3.26568e-11 -0.13686

-0.0841058 0.331303 1.04038e-11
0.331303 -0.360703 1.05955e-12
1.04038e-11 1.05955e-12 -0.104074

0.521043 -0.511901 -4.16123e-11
-0.511901 -0.634138 -4.58551e-11
-4.16123e-11 -4.58551e-11 -0.987157

0.290006 0.368774 -6.2423e-11
0.368774 -0.725197 5.80553e-13
-6.2423e-11 5.80553e-13 -1.05123

-0.0438441 0.00826824 3.96876e-11
0.00826824 0.402922 -4.431e-12
3.96876e-11 -4.431e-12 -0.075758

-0.0483987 -0.00915052 3.85305e-12
-0.00915052 0.400289 -1.54144e-12
3.85305e-12 -1.54144e-12 -0.0769628

-1.78557 -0.381551 5.78004e-11
-0.381551 -1.43037 2.88029e-11
5.78004e-11 2.88029e-11 -0.851951

-1.86816 0.401389 -1.46426e-11
0.401389 -1.41671 -6.45455e-12
-1.46426e-11 -6.45455e-12 -0.897915

-2.23436 -0.203844 -1.02121e-11
-0.203844 -1.17771 -3.24647e-11
-1.02121e-11 -3.24647e-11 -1.50978

-2.25964 0.227721 -3.33315e-11
0.227721 -1.21069 -2.02316e-12
-3.33315e-11 -2.02316e-12 -1.5295

0.0171546 0.00392702 -7.70621e-11
0.00392702 0.120335 6.59858e-11
-7.70621e-11 6.59858e-11 -0.606167

0.0159246 -0.00312816 5.08613e-11
-0.00312816 0.118475 -6.83887e-12
5.08613e-11 -6.83887e-12 -0.606801

0.378556 0.272529 1.65684e-11
0.272529 0.162414 2.31177e-12
1.65684e-11 2.31177e-12 -0.0642385

0.377751 -0.275563 3.8533e-12
-0.275563 0.167888 9.63581e-14
3.8533e-12 9.63581e-14 -0.0625014

-0.200282 -0.0591142 5.62565e-11
-0.0591142 0.290822 -2.64872e-12
5.62565e-11 -2.64872e-12 -0.0315466

-0.00967137 -0.314955 -5.7794e-12
-0.314955 -0.566076 -1.36793e-11
-5.7794e-12 -1.36793e-11 -0.082938

0.00572472 0.0713777 -1.00178e-11
0.0713777 -0.0509288 1.86885e-11
-1.00178e-11 1.86885e-11 -0.0829434

-0.432651 -0.14564 2.44693e-11
-0.14564 -0.78214 -8.06783e-11
2.44693e-11 -8.06783e-11 -0.0526014

-0.195343 0.0630549 -1.65688e-11
0.0630549 0.29442 -2.88977e-12
-1.65688e-11 -2.88977e-12 -0.0297053

-0.142805 0.261575 -1.29564e-11
0.261575 -0.454897 6.83965e-12
-1.29564e-11 6.83965e-12 -0.0774139

-0.233044 -0.106078 -2.85138e-11
-0.106078 0.248367 2.72131e-11
-2.85138e-11 2.72131e-11 -0.03936

-2.0751 -0.899575 1.25242e-11
-0.899575 -0.576428 -2.34095e-11
1.25242e-11 -2.34095e-11 -0.666883

-2.07162 0.902549 -2.94792e-11
0.902549 -0.606336 2.21625e-12
-2.94792e-11 2.21625e-12 -0.673977

-0.239169 0.109325 1.38713e-11
0.109325 0.245504 -2.05185e-11
1.38713e-11 -2.05185e-11 -0.0405555

-0.477495 0.663402 7.70646e-12
0.663402 -1.3907 2.79849e-11
7.70646e-12 2.79849e-11 -0.390832

1.65061 0.155168 5.66408e-11
0.155168 -3.82601 3.46741e-12
5.66408e-11 3.46741e-12 -2.65532

1.36788 -0.324729 -2.35028e-11
-0.324729 0.130187 2.15806e-11
-2.35028e-11 2.15806e-11 -1.66999

0.371985 0.140689 2.31231e-12
0.140689 0.0221175 1.47386e-11
2.31231e-12 1.47386e-11 -0.132976

-1.17691 -0.508412 -4.12311e-11
-0.508412 -1.64258 -2.16743e-11
-4.12311e-11 -2.16743e-11 -0.481038

-0.499504 -0.968014 -2.89005e-11
-0.968014 -1.93546 1.98931e-11
-2.89005e-11 1.98931e-11 -0.916855

-0.315511 -0.0532851 3.50643e-11
-0.0532851 -0.194441 -3.6582e-11
3.50643e-11 -3.6582e-11 -0.0249482

-0.430313 0.0162491 2.31177e-12
0.0162491 0.0200298 -1.8905e-11
2.31177e-12 -1.8905e-11 -0.0181166

0.113027 0.105756 3.50634e-11
0.105756 0.277833 -2.38896e-11
3.50634e-11 -2.38896e-11 -0.106401

0.116147 -0.101073 1.65689e-11
-0.101073 0.27676 -3.81223e-11
1.65689e-11 -3.81223e-11 -0.105608

-0.530631 0.966643 -1.92669e-11
0.966643 -1.9355 3.22633e-12
-1.92669e-11 3.22633e-12 -0.951445

0.0155246 -0.100955 -3.34673e-12
-0.100955 -0.106501 -3.44865e-11
-3.34673e-12 -3.44865e-11 -0.0922881

-0.228344 -0.191973 6.35815e-12
-0.191973 0.222213 -4.25299e-11
6.35815e-12 -4.25299e-11 -0.0235805

-0.0317493 0.291899 3.39076e-11
0.291899 0.245487 -8.95908e-12
3.39076e-11 -8.95908e-12 -0.118756

-0.0313666 -0.291167 -5.97239e-11
-0.291167 0.247813 6.26099e-12
-5.97239e-11 6.26099e-12 -0.118117

-3.7172 -1.41483 2.08084e-11
-1.41483 -4.44872 8.32292e-11
2.08084e-11 8.32292e-11 -4.22481

-3.75552 1.44102 -2.44688e-11
1.44102 -4.44459 -4.58383e-11
-2.44688e-11 -4.58383e-11 -4.23311

0.197485 0.416325 2.31193e-11
0.416325 0.227187 -9.65923e-14
2.31193e-11 -9.65923e-14 -0.0720236

-0.546217 -0.180089 -5.83783e-11
-0.180089 -1.06839 -2.21496e-12
-5.83783e-11 -2.21496e-12 -0.161004

-0.0974257 0.219977 1.75313e-11
0.219977 0.310497 -3.72313e-11
1.75313e-11 -3.72313e-11 -0.165923

-0.0960162 -0.219158 1.09814e-11
-0.219158 0.310262 2.8369e-11
1.09814e-11 2.8369e-11 -0.165639

0.336624 -0.628062 -2.02304e-11
-0.628062 -0.705088 6.26078e-12
-2.02304e-11 6.26078e-12 -0.136904

0.113632 -1.21347 2.7746e-11
-1.21347 -0.699799 -1.42561e-11
2.7746e-11 -1.42561e-11 -0.109985

-0.508802 -0.172129 6.78171e-11
-0.172129 -0.240327 4.2506e-11
6.78171e-11 4.2506e-11 -0.0535378

-1.8747 0.0885366 -2.52396e-11
0.0885366 -0.398483 -1.64727e-11
-2.52396e-11 -1.64727e-11 -0.773766

-1.89873 -0.0888443 9.82585e-12
-0.0888443 -0.415325 -3.04417e-11
9.82585e-12 -3.04417e-11 -0.787054

-0.723207 -1.19745 4.0846e-11
-1.19745 -0.94461 7.71401e-13
4.0846e-11 7.71401e-13 -0.306359

-0.218846 0.1923 -2.96697e-11
0.1923 0.199523 -8.76601e-12
-2.96697e-11 -8.76601e-12 -0.0282084

-1.04305 0.238617 -3.17899e-11
0.238617 -0.950482 -6.26222e-12
-3.17899e-11 -6.26222e-12 -0.41233

-1.87671 0.0760855 2.17729e-11
0.0760855 -0.981892 3.92082e-11
2.17729e-11 3.92082e-11 -0.797344

-1.91636 -0.0902341 1.56062e-11
-0.0902341 -0.965234 2.06166e-11
1.56062e-11 2.06166e-11 -0.810216

-0.475481 0.756789 -2.11932e-12
0.756789 -2.12849 -3.04895e-11
-2.11932e-12 -3.04895e-11 -0.448513

-0.0646425 0.140445 2.81279e-11
0.140445 0.343375 -2.21562e-12
2.81279e-11 -2.21562e-12 -0.22116

-0.0634619 -0.139309 4.97052e-11
-0.139309 0.341491 6.98387e-11
4.97052e-11 6.98387e-11 -0.221113

0.310733 -0.0275945 -1.11752e-11
-0.0275945 -0.661426 5.96931e-12
-1.11752e-11 5.96931e-12 -1.80075

0.028445 0.678101 -1.8881e-11
0.678101 -0.826328 -3.27272e-12
-1.8881e-11 -3.27272e-12 -1.85889

-0.454041 0.0478833 1.04039e-11
0.0478833 -0.165151 1.20586e-13
1.04039e-11 1.20586e-13 -0.00876726

-0.12132 -0.030373 -1.84958e-11
-0.030373 -0.621664 -3.2223e-11
-1.84958e-11 -3.2223e-11 0.0289729

-0.00433282 0.271685 -4.50823e-11
0.271685 0.326095 3.85491e-13
-4.50823e-11 3.85491e-13 -0.0778094

0.00140278 -0.270587 -3.00552e-11
-0.270587 0.327738 2.63939e-11
-3.00552e-11 2.63939e-11 -0.0758106

0.290495 0.29789 2.8514e-11
0.29789 0.29944 8.76547e-12
2.8514e-11 8.76547e-12 -0.0694712

-0.393629 0.0696023 3.93028e-11
0.0696023 -0.200859 -5.09114e-11
3.93028e-11 -5.09114e-11 -0.017762

-0.254592 -0.02433 -3.85324e-11
-0.02433 -0.254092 4.8286e-11
-3.85324e-11 4.8286e-11 -0.0270259

-0.140444 -0.156804 -3.35227e-11
-0.156804 0.140674 8.10119e-11
-3.35227e-11 8.10119e-11 -0.786803

-0.139148 0.158053 -6.35767e-11
0.158053 0.142459 -9.05471e-12
-6.35767e-11 -9.05471e-12 -0.786048

-1.66863 -0.0274955 -3.71849e-11
-0.0274955 -1.01783 9.4401e-12
-3.71849e-11 9.4401e-12 -0.495114

-0.0196458 0.208018 4.77791e-11
0.208018 0.106792 -4.00738e-11
4.77791e-11 -4.00738e-11 -0.0351043

0.0361728 0.181097 -3.27523e-11
0.181097 0.2694 -7.03196e-12
-3.27523e-11 -7.03196e-12 -0.0686119

0.0366884 -0.17985 1.15617e-12
-0.17985 0.271129 -4.81806e-13
1.15617e-12 -4.81806e-13 -0.0678195

-0.0752398 0.12968 2.69718e-12
0.12968 0.257457 1.15599e-12
2.69718e-12 1.15599e-12 -0.0443745

-0.0192619 -0.197972 -1.65686e-11
-0.197972 0.0985196 -1.14635e-11
-1.65686e-11 -1.14635e-11 -0.0362202

-0.426181 -0.0104934 -2.15782e-11
-0.0104934 -0.127483 3.2755e-12
-2.15782e-11 3.2755e-12 -0.0169028

-0.426576 -0.0146962 -4.35413e-11
-0.0146962 -0.0914527 -3.78106e-11
-4.35413e-11 -3.78106e-11 -0.0132023

-0.347546 -0.0514683 -2.15781e-11
-0.0514683 0.103801 -3.68947e-11
-2.15781e-11 -3.68947e-11 -0.00946328

-0.0776997 -0.12652 2.69663e-12
-0.12652 0.261724 3.29452e-11
2.69663e-12 3.29452e-11 -0.0430167

-0.382572 -0.131843 -2.65876e-11
-0.131843 -0.384486 9.56089e-12
-2.65876e-11 9.56089e-12 -0.0403094

-0.453749 0.07615 2.15784e-11
0.07615 -0.659132 -4.12e-11
2.15784e-11 -4.12e-11 -0.0306735

0.117349 0.249526 3.62197e-11
0.249526 0.194101 -8.86279e-12
3.62197e-11 -8.86279e-12 -0.128643

0.118381 -0.250932 -2.35047e-11
-0.250932 0.194914 1.27154e-11
-2.35047e-11 1.27154e-11 -0.127938

-0.00981441 0.166761 8.47672e-12
0.166761 0.333799 -1.71468e-11
8.47672e-12 -1.71468e-11 -0.143448

-0.00881222 -0.165966 -3.0828e-12
-0.165966 0.335123 3.99767e-11
-3.0828e-12 3.99767e-11 -0.142794

-0.539048 -0.13277 1.54159e-12
-0.13277 -0.303878 -5.99906e-11
1.54159e-12 -5.99906e-11 -0.0313004

-0.394154 -0.11937 2.73583e-11
-0.11937 -0.397016 1.69665e-11
2.73583e-11 1.69665e-11 0.00961497

-0.0705892 -0.289644 3.27518e-11
-0.289644 0.266068 2.29268e-11
3.27518e-11 2.29268e-11 -0.0594105

-0.073555 0.292407 -4.27704e-11
0.292407 0.261486 1.93092e-13
-4.27704e-11 1.93092e-13 -0.0612415

0.675488 -0.163528 -3.62197e-11
-0.163528 -2.14422 -6.18468e-11
-3.62197e-11 -6.18468e-11 -1.47396

0.383657 -0.0200123 -1.27174e-11
-0.0200123 -0.570849 -3.73751e-11
-1.27174e-11 -3.73751e-11 -1.1839

0.138124 0.1745 2.23485e-11
0.1745 0.340842 1.10774e-11
2.23485e-11 1.10774e-11 -0.112291

0.146333 -0.170578 -1.00183e-11
-0.170578 0.340792 7.32086e-12
-1.00183e-11 7.32086e-12 -0.110178

-0.00162006 0.0898196 1.04035e-11
0.0898196 0.244923 1.55089e-11
1.04035e-11 1.55089e-11 -0.248484

-0.000807265 -0.089529 5.62559e-11
-0.089529 0.244369 4.70089e-11
5.62559e-11 4.70089e-11 -0.248275

-1.24922 -0.216447 -1.54131e-11
-0.216447 -0.528962 1.31974e-11
-1.54131e-11 1.31974e-11 -0.381219

-1.21162 0.217698 -1.56048e-11
0.217698 -0.566757 1.72437e-11
-1.56048e-11 1.72437e-11 -0.37911

-0.338998 -1.1961 1.23299e-11
-1.1961 -1.95298 3.77621e-11
1.23299e-11 3.77621e-11 -2.00328

-3.32914 0.0548179 1.34814e-12
0.0548179 -2.27346 -1.70508e-11
1.34814e-12 -1.70508e-11 -2.82521

-0.0750694 0.0409448 -1.54125e-11
0.0409448 0.155147 1.54103e-12
-1.54125e-11 1.54103e-12 -0.472974

0.0441307 -0.107126 -2.81274e-11
-0.107126 0.00385052 -8.38051e-12
-2.81274e-11 -8.38051e-12 -0.621374

-0.075832 -0.0402261 5.93381e-11
-0.0402261 0.15832 -7.03228e-12
5.93381e-11 -7.03228e-12 -0.472509

0.0448139 0.107803 5.00967e-12
0.107803 0.00585023 2.88981e-11
5.00967e-12 2.88981e-11 -0.620793

0.387461 0.726368 4.24108e-12
0.726368 -0.109873 5.16326e-11
4.24108e-12 5.16326e-11 -1.28157

-3.32069 -0.0475517 3.67986e-11
-0.0475517 -2.28033 -3.83421e-11
3.67986e-11 -3.83421e-11 -2.82408

-0.0117249 0.00773447 1.14822e-10
0.00773447 -0.00510324 1.72526e-10
1.14822e-10 1.72526e-10 -0.657651

0.124579 -0.115726 -6.93636e-12
-0.115726 -0.0237839 -5.01209e-12
-6.93636e-12 -5.01209e-12 -0.817088

0.124749 0.116588 1.10624e-09
0.116588 -0.0212709 3.19503e-10
1.10624e-09 3.19503e-10 -0.816389

-0.00947576 -0.00625069 -1.05964e-10
-0.00625069 -0.00412438 -1.35437e-10
-1.05964e-10 -1.35437e-10 -0.657051

0.13645 -0.068195 9.24785e-12
-0.068195 -0.0415422 1.86878e-11
9.24785e-12 1.86878e-11 -0.515637

0.114932 -0.27676 0
-0.27676 0.108915 -6.7408e-13
0 -6.7408e-13 -0.283969

-0.13462 -0.079708 5.78031e-12
-0.079708 0.173365 -2.4949e-11
5.78031e-12 -2.4949e-11 -0.70874

0.137816 0.0700568 -3.0054e-11
0.0700568 -0.0407085 1.94592e-11
-3.0054e-11 1.94592e-11 -0.515336

-0.133245 0.0805063 -5.27892e-11
0.0805063 0.175568 -9.80619e-11
-5.27892e-11 -9.80619e-11 -0.707956

0.115274 0.278426 1.69537e-11
0.278426 0.10992 3.56382e-12
1.69537e-11 3.56382e-12 -0.284012

0.0616298 0.0892605 -5.00895e-12
0.0892605 0.208328 1.13668e-11
-5.00895e-12 1.13668e-11 -0.329648

-0.0147993 0.190498 -4.97054e-11
0.190498 0.03086 1.5413e-11
-4.97054e-11 1.5413e-11 -0.503329

0.0611066 -0.0886611 -4.6623e-11
-0.0886611 0.208185 -9.63612e-13
-4.6623e-11 -9.63612e-13 -0.329603

-0.0151172 -0.18922 5.54851e-11
-0.18922 0.0300041 2.95732e-11
5.54851e-11 2.95732e-11 -0.503509

-0.792373 1.32771 2.31201e-11
1.32771 2.20715 7.32133e-12
2.31201e-11 7.32133e-12 0.498285

-0.332893 0.217793 -2.73613e-11
0.217793 0.722338 -2.42774e-11
-2.73613e-11 -2.42774e-11 -0.127781

-2.56965 0.374312 -2.27352e-11
0.374312 1.36133 1.42606e-11
-2.27352e-11 1.42606e-11 -0.35922

2.07667 0.681449 3.75685e-12
0.681449 -2.06283 2.69723e-12
3.75685e-12 2.69723e-12 0.0256588

2.89614 0.196084 1.17548e-11
0.196084 -1.14992 2.08114e-11
1.17548e-11 2.08114e-11 0.452979

-2.13232 -0.143982 -4.45085e-11
-0.143982 -0.586669 -3.76678e-11
-4.45085e-11 -3.76678e-11 -1.01889

-4.31697 0.568943 -1.36804e-11
0.568943 0.862654 -3.8484e-13
-1.36804e-11 -3.8484e-13 -1.26376

2.96103 -0.187375 1.33434e-11
-0.187375 -0.76776 -1.38747e-11
1.33434e-11 -1.38747e-11 0.501183

1.87773 0.155484 -1.18032e-11
0.155484 -3.024 -3.68017e-11
-1.18032e-11 -3.68017e-11 -0.38071

0.877285 1.19196 3.07362e-11
1.19196 3.47687 8.86484e-12
3.07362e-11 8.86484e-12 1.70003

1.9034 -1.92744 1.93086e-13
-1.92744 3.96952 -1.23325e-11
1.93086e-13 -1.23325e-11 2.02322

3.77224 1.20127 3.29549e-11
1.20127 1.294 -2.46661e-11
3.29549e-11 -2.46661e-11 1.89061

-1.23295 -2.20358 3.76677e-11
-2.20358 0.104284 -1.77636e-15
3.76677e-11 -1.77636e-15 -0.810627

-2.00838 -0.770226 -6.33909e-11
-0.770226 0.173224 -1.31017e-11
-6.33909e-11 -1.31017e-11 -1.02681

-2.20695 1.14131 6.55008e-12
1.14131 1.38156 -2.65923e-11
6.55008e-12 -2.65923e-11 -0.0157565

-3.23029 1.32468 -1.65729e-11
1.32468 0.874643 -1.92684e-11
-1.65729e-11 -1.92684e-11 -0.358052

-4.33792 -0.631259 6.74348e-12
-0.631259 0.951953 -1.65714e-11
6.74348e-12 -1.65714e-11 -1.2765

-2.44049 -1.6486 1.38722e-11
-1.6486 -0.208612 1.98459e-11
1.38722e-11 1.98459e-11 -1.06446

1.49403 -1.17389 -9.64414e-13
-1.17389 -2.26524 -1.63777e-11
-9.64414e-13 -1.63777e-11 -0.0199196

0.26402 0.376303 -1.06964e-11
0.376303 3.91816 3.04473e-11
-1.06964e-11 3.04473e-11 1.37907

1.16376 -0.751696 1.63803e-11
-0.751696 3.84356 3.85403e-12
1.63803e-11 3.85403e-12 1.42697

3.89164 0.282782 -4.4129e-11
0.282782 1.01082 4.48943e-11
-4.4129e-11 4.48943e-11 1.56893

-0.524533 1.53881 -3.01557e-11
1.53881 1.30328 7.82342e-11
-3.01557e-11 7.82342e-11 0.378602

2.81113 -1.05672 5.2038e-12
-1.05672 -0.454484 -1.27168e-11
5.2038e-12 -1.27168e-11 0.631753

-0.0189134 1.69025 6.07044e-12
1.69025 0.298274 5.06788e-11
6.07044e-12 5.06788e-11 0.181129

0.95204 1.1996 1.57999e-11
1.1996 1.79951 -9.63618e-12
1.57999e-11 -9.63618e-12 0.597649

2.30802 -0.360669 -1.3055e-11
-0.360669 -2.20487 -8.86295e-12
-1.3055e-11 -8.86295e-12 -0.0134902

3.31224 0.808635 4.62543e-11
0.808635 5.17551 3.16004e-11
4.62543e-11 3.16004e-11 3.29552

1.53503 0.405699 3.97349e-12
0.405699 -2.98101 -2.92869e-11
3.97349e-12 -2.92869e-11 -0.366648

5.12284 0.754781 3.17985e-11
0.754781 3.76593 -5.14526e-11
3.17985e-11 -5.14526e-11 3.48668

-1.12979 -0.748801 -4.3928e-11
-0.748801 -0.436779 -2.54326e-11
-4.3928e-11 -2.54326e-11 -1.05283

-2.41058 0.0954411 -1.73492e-12
0.0954411 0.512537 -2.31228e-11
-1.73492e-12 -2.31228e-11 -1.34286

-2.81688 -0.804823 -2.61806e-11
-0.804823 -4.17117 -5.97144e-12
-2.61806e-11 -5.97144e-12 -4.37917

-3.61528 1.94901 -2.67089e-11
1.94901 -3.41283 1.11723e-11
-2.67089e-11 1.11723e-11 -4.30144

4.12765 -0.512096 3.47823e-11
-0.512096 1.29871 -3.17946e-11
3.47823e-11 -3.17946e-11 1.63874

-1.39866 1.7934 -4.24866e-11
1.7934 -0.24173 8.86363e-12
-4.24866e-11 8.86363e-12 -0.234452

-1.6269 1.02448 2.20846e-11
1.02448 -1.93655 -3.81524e-11
2.20846e-11 -3.81524e-11 -1.57089

-1.18215 -0.286297 1.08498e-11
-0.286297 -1.58702 -1.38729e-11
1.08498e-11 -1.38729e-11 -1.60002

1.93834 0.154609 -5.68497e-12
0.154609 -3.28861 -2.50481e-11
-5.68497e-12 -2.50481e-11 -0.350801

0.324977 1.69074 1.46452e-11
1.69074 1.62867 2.31067e-12
1.46452e-11 2.31067e-12 0.467809

2.47944 -1.33755 7.321e-12
-1.33755 0.745214 2.42796e-11
7.321e-12 2.42796e-11 0.73417

2.2645 -0.0152646 -2.09546e-11
-0.0152646 -3.38447 1.92679e-11
-2.09546e-11 1.92679e-11 -0.268388

0.136508 -2.30249 -3.67059e-11
-2.30249 2.3139 -2.71683e-11
-3.67059e-11 -2.71683e-11 0.50663

0.212472 -2.00803 1.31993e-11
-2.00803 2.4181 2.71696e-11
1.31993e-11 2.71696e-11 0.519491

-0.537208 1.02096 -9.4369e-16
1.02096 0.301728 -2.73604e-11
-9.4369e-16 -2.73604e-11 -0.131183

2.14035 -2.30443 2.90981e-11
-2.30443 1.43117 4.00765e-11
2.90981e-11 4.00765e-11 0.942173

10.1523 -2.2969 -2.621e-11
-2.2969 9.97593 4.627e-12
-2.621e-11 4.627e-12 9.9793

10.0976 -2.43402 2.90993e-11
-2.43402 10.7303 5.29957e-11
2.90993e-11 5.29957e-11 10.2791

-2.22974 -2.67794 1.33912e-11
-2.67794 0.628942 1.69554e-11
1.33912e-11 1.69554e-11 -0.651547

6.47556 -0.908393 4.20114e-11
-0.908393 6.28627 -2.79461e-11
4.20114e-11 -2.79461e-11 6.85543

5.88331 -0.744716 -9.63607e-12
-0.744716 6.38334 -9.25075e-12
-9.63607e-12 -9.25075e-12 6.59078

0.107082 1.1602 5.04868e-11
1.1602 -2.21501 4.54664e-11
5.04868e-11 4.54664e-11 -1.06517

-0.381315 -1.53787 -3.23739e-11
-1.53787 -2.01188 1.73455e-11
-3.23739e-11 1.73455e-11 -1.48763

1.02628 -0.803063 -2.92888e-11
-0.803063 -2.93009 -1.46412e-11
-2.92888e-11 -1.46412e-11 -0.196538

-0.039103 1.56301 2.69714e-11
1.56301 -3.17109 -3.54539e-11
2.69714e-11 -3.54539e-11 -1.27995

-0.717004 -2.15846 -6.01139e-11
-2.15846 -2.31444 -3.15965e-11
-6.01139e-11 -3.15965e-11 -1.64696

-0.596865 1.18486 1.95399e-13
1.18486 1.1954 3.46827e-11
1.95399e-13 3.46827e-11 0.0766703

-1.8031 -0.74773 -2.38437e-11
-0.74773 -4.11996 -4.61429e-12
-2.38437e-11 -4.61429e-12 -3.47543

-2.84167 1.00588 -3.79322e-11
1.00588 -3.48495 1.50516e-11
-3.79322e-11 1.50516e-11 -3.49571

0.379635 1.83125 -2.33168e-11
1.83125 -2.07764 -2.19161e-11
-2.33168e-11 -2.19161e-11 -0.526587

-0.289453 -2.33034 6.37784e-11
-2.33034 -1.88 -5.97768e-12
6.37784e-11 -5.97768e-12 -0.742753

3.92821 -1.59 -1.46461e-11
-1.59 1.7438 -3.17966e-11
-1.46461e-11 -3.17966e-11 2.06726

-2.96383 -0.452104 3.91113e-11
-0.452104 -1.67318 -6.75016e-13
3.91113e-11 -6.75016e-13 -2.40902

-3.95491 -0.0760748 4.91324e-11
-0.0760748 0.0880652 1.92658e-11
4.91324e-11 1.92658e-11 -3.00746

-0.682182 -1.9453 3.75757e-11
-1.9453 1.26325 2.58183e-11
3.75757e-11 2.58183e-11 0.334459

3.28248 -0.670097 3.12156e-11
-0.670097 5.25058 -6.76426e-11
3.12156e-11 -6.76426e-11 3.52978

5.23462 -0.626653 -3.87367e-11
-0.626653 3.38609 -4.04623e-12
-3.87367e-11 -4.04623e-12 3.58736

-1.28943 0.757213 4.23694e-12
0.757213 0.71162 -5.56849e-11
4.23694e-12 -5.56849e-11 -0.232706

-3.23464 1.13566 3.2755e-11
1.13566 1.09299 -8.09401e-12
3.2755e-11 -8.09401e-12 -0.392703

-0.993729 1.47684 6.43635e-11
1.47684 -5.31827 2.71668e-11
6.43635e-11 2.71668e-11 -4.32304

-1.17409 0.441695 -2.62137e-11
0.441695 0.355034 -1.35248e-10
-2.62137e-11 -1.35248e-10 -4.7816

-3.29936 1.70901 4.35469e-11
1.70901 -0.735045 1.84968e-11
4.35469e-11 1.84968e-11 -0.66591

1.01514 1.35144 8.09445e-12
1.35144 -2.45624 1.98456e-11
8.09445e-12 1.98456e-11 -0.272044

0.641505 -2.05858 4.23935e-12
-2.05858 -2.26503 1.349e-11
4.23935e-12 1.349e-11 -0.378067

-2.66784 2.34556 -1.26222e-11
2.34556 -0.738481 -1.1553e-12
-1.26222e-11 -1.1553e-12 -0.574975

-3.7411 -1.78464 3.73795e-11
-1.78464 0.114148 -8.86422e-12
3.73795e-11 -8.86422e-12 -0.947733

4.06811 -0.168527 1.26227e-11
-0.168527 0.575673 2.92903e-11
1.26227e-11 2.92903e-11 1.55169

2.46934 -0.681953 5.80203e-13
-0.681953 -1.31439 -5.78963e-13
5.80203e-13 -5.78963e-13 0.43844

3.05866 0.837614 -2.30257e-11
0.837614 -0.14829 9.24996e-12
-2.30257e-11 9.24996e-12 0.853014

-1.08599 0.929607 2.4063e-11
0.929607 -2.88677 2.65888e-11
2.4063e-11 2.65888e-11 -1.43269

-7.48251 0.631084 1.74215e-11
0.631084 -3.31445 -7.16748e-11
1.74215e-11 -7.16748e-11 -5.79487

-5.36287 -0.465727 -2.77215e-11
-0.465727 -5.10207 -2.17729e-11
-2.77215e-11 -2.17729e-11 -5.78249

2.11322 1.34443 -6.43598e-11
1.34443 2.89083 -2.59052e-16
-6.43598e-11 -2.59052e-16 1.61063

0.678104 -1.72748 3.16968e-11
-1.72748 -0.00777912 3.96923e-11
3.16968e-11 3.96923e-11 0.0675621

1.44548 0.935481 1.96537e-11
0.935481 -1.53612 7.73603e-13
1.96537e-11 7.73603e-13 0.0729244

-3.76084 1.04496 4.04619e-11
1.04496 -0.34491 2.04209e-11
4.04619e-11 2.04209e-11 -3.73988

-3.91314 -0.694913 -1.32948e-11
-0.694913 -2.55324 -1.53179e-11
-1.32948e-11 -1.53179e-11 -3.2766

-0.828231 -0.252976 1.36326e-11
-0.252976 -3.10135 1.79199e-11
1.36326e-11 1.79199e-11 -1.58874

-0.657103 -1.34522 1.96542e-11
-1.34522 1.03677 -1.92768e-12
1.96542e-11 -1.92768e-12 -0.190346

-2.66829 -0.435417 1.25243e-12
-0.435417 1.44189 -2.85185e-11
1.25243e-12 -2.85185e-11 -0.427199

0.954105 0.298502 2.27377e-11
0.298502 -3.97669 3.35252e-11
2.27377e-11 3.35252e-11 -0.411026

0.825492 -0.937672 -4.39344e-11
-0.937672 -3.84 -1.92524e-12
-4.39344e-11 -1.92524e-12 -0.476822

2.97392 -1.91008 7.13496e-12
-1.91008 2.1576 1.85005e-11
7.13496e-12 1.85005e-11 1.74562

0.656759 1.17957 -3.09294e-11
1.17957 -4.00251 -3.3139e-11
-3.09294e-11 -3.3139e-11 -0.749719

0.457469 -1.83504 -1.08377e-11
-1.83504 -3.2275 -8.09229e-12
-1.08377e-11 -8.09229e-12 -0.845544

1.44217 -1.63296 3.46856e-11
-1.63296 -1.69687 -2.19694e-11
3.46856e-11 -2.19694e-11 0.0253395

-0.620009 -1.62701 5.97104e-12
-1.62701 2.0228 7.70125e-13
5.97104e-12 7.70125e-13 0.483933

0.564443 0.708839 1.27175e-11
0.708839 -2.86496 9.44061e-12
1.27175e-11 9.44061e-12 -0.395362

0.654156 -1.3152 -3.85376e-11
-1.3152 -2.82006 6.26129e-12
-3.85376e-11 6.26129e-12 -0.486805

1.75921 -0.428133 -2.53869e-11
-0.428133 -1.32143 4.37403e-11
-2.53869e-11 4.37403e-11 -0.00999998

0.229104 2.05353 1.48358e-11
2.05353 -0.777336 3.27545e-12
1.48358e-11 3.27545e-12 -0.190427

1.75194 1.35948 2.79414e-11
1.35948 0.827027 1.54306e-12
2.79414e-11 1.54306e-12 0.732936

-3.28268 2.03828 1.92702e-11
2.03828 -1.43084 3.81519e-11
1.92702e-11 3.81519e-11 -0.776577

-1.19104 1.5195 1.02104e-11
1.5195 -0.0715736 -2.524e-11
1.02104e-11 -2.524e-11 -0.31083

2.78727 0.756959 -3.58419e-11
0.756959 -0.832023 2.69773e-12
-3.58419e-11 2.69773e-12 0.66124

-0.292093 -1.01201 1.01655e-11
-1.01201 -1.5247 -1.69567e-11
1.01655e-11 -1.69567e-11 -0.628168

1.66304 0.633119 3.90317e-12
0.633119 -1.28876 1.07898e-11
3.90317e-12 1.07898e-11 0.0803783

0.573173 1.62777 -4.20063e-11
1.62777 1.15979 3.6997e-11
-4.20063e-11 3.6997e-11 0.645416

0.191728 1.53774 1.84971e-11
1.53774 -0.517428 -2.8131e-11
1.84971e-11 -2.8131e-11 0.0351674

-3.56961 0.0178374 -4.45084e-11
0.0178374 1.76172 2.42787e-11
-4.45084e-11 2.42787e-11 -0.451468

-1.833 -0.661609 1.38735e-11
-0.661609 0.828549 1.05976e-11
1.38735e-11 1.05976e-11 -0.401716

3.40504 -1.91721 1.44936e-12
-1.91721 1.23819 -3.85118e-13
1.44936e-12 -3.85118e-13 1.8301

-1.91236 -2.61797 -1.48833e-11
-2.61797 0.585159 -3.87288e-11
-1.48833e-11 -3.87288e-11 -0.498622

0.81674 -2.30698 1.54152e-11
-2.30698 1.99754 8.47696e-12
1.54152e-11 8.47696e-12 0.886247

1.78846 1.87258 1.38763e-11
1.87258 1.85026 -5.01255e-12
1.38763e-11 -5.01255e-12 0.930661

1.38711 -0.853035 -3.15051e-11
-0.853035 -0.583839 4.99065e-11
-3.15051e-11 4.99065e-11 0.0317698

1.13518 -0.0658752 -1.84018e-11
-0.0658752 -3.97172 -3.4489e-11
-1.84018e-11 -3.4489e-11 -0.878962

0.781587 0.27518 -1.79685e-11
0.27518 -3.58085 -1.8112e-11
-1.79685e-11 -1.8112e-11 -0.806717

-1.28548 0.85779 -1.26234e-11
0.85779 2.6159 -4.62397e-12
-1.26234e-11 -4.62397e-12 0.512604

0.392949 -2.06073 4.9147e-12
-2.06073 1.09023 -2.35073e-11
4.9147e-12 -2.35073e-11 0.206038

-0.296662 -0.283055 3.66123e-12
-0.283055 4.10876 8.47826e-12
3.66123e-12 8.47826e-12 1.47818

0.624459 -0.357267 2.13909e-11
-0.357267 4.18757 2.90962e-11
2.13909e-11 2.90962e-11 1.5797

4.06484 -0.473383 -2.42811e-11
-0.473383 0.258266 2.85182e-11
-2.42811e-11 2.85182e-11 1.66078

3.10646 1.36343 3.08327e-11
1.36343 2.52483 -1.53862e-12
3.08327e-11 -1.53862e-12 1.75538

1.57328 -2.36683 4.23817e-12
-2.36683 0.276876 3.43021e-11
4.23817e-12 3.43021e-11 0.693644

-0.647702 -0.563033 -1.11756e-11
-0.563033 -0.535566 -2.35037e-11
-1.11756e-11 -2.35037e-11 -4.35844

-5.8238 -2.13504 -1.29856e-10
-2.13504 -3.18329 -5.96088e-12
-1.29856e-10 -5.96088e-12 -4.6778

2.50067 -1.40144 1.04072e-11
-1.40144 -0.882361 1.61858e-11
1.04072e-11 1.61858e-11 0.592766

-0.157427 1.89682 -3.69944e-11
1.89682 0.474669 2.44705e-11
-3.69944e-11 2.44705e-11 0.0182725

1.11488 0.126295 -1.0403e-11
0.126295 -2.88484 3.50681e-11
-1.0403e-11 3.50681e-11 -0.151768

-0.0556758 -1.71732 1.76312e-11
-1.71732 2.87922 2.89043e-11
1.76312e-11 2.89043e-11 0.623981

-4.43785 1.7892 2.16779e-11
1.7892 0.122923 2.08101e-11
2.16779e-11 2.08101e-11 -0.991464

-1.31962 0.749496 -1.65668e-11
0.749496 -0.26019 4.60497e-11
-1.65668e-11 4.60497e-11 -0.480905

-1.96274 -2.43731 -4.62236e-12
-2.43731 -0.859117 1.92676e-11
-4.62236e-12 1.92676e-11 -0.492171

-0.66116 1.82645 -1.291e-11
1.82645 -0.424544 -1.6762e-11
-1.291e-11 -1.6762e-11 -0.279782

-2.54696 1.44447 -6.64906e-12
1.44447 0.490205 -1.54147e-11
-6.64906e-12 -1.54147e-11 -0.226346

0.686204 -0.171768 -1.11776e-11
-0.171768 -6.22033 -3.58372e-11
-1.11776e-11 -3.58372e-11 -0.808773

2.31525 1.78209 -9.6344e-12
1.78209 0.408327 -3.14089e-11
-9.6344e-12 -3.14089e-11 0.811903

-1.94262 -2.7702 -7.9955e-12
-2.7702 1.34778 -2.48556e-11
-7.9955e-12 -2.48556e-11 -0.349178

1.65594 1.60444 -1.7305e-12
1.60444 1.24637 -1.73683e-12
-1.7305e-12 -1.73683e-12 0.744858

2.48231 -1.57353 -3.74801e-11
-1.57353 3.43008 -1.90757e-11
-3.74801e-11 -1.90757e-11 1.81194

-0.855761 -2.26605 -3.07336e-11
-2.26605 0.937272 5.78064e-12
-3.07336e-11 5.78064e-12 -0.144431

0.171922 -1.02265 1.86911e-11
-1.02265 3.66383 9.24949e-12
1.86911e-11 9.24949e-12 1.24314

1.39902 0.391183 -1.2718e-11
0.391183 3.53479 1.59951e-11
-1.2718e-11 1.59951e-11 1.32584

3.44386 -0.962551 2.50528e-11
-0.962551 0.703026 1.92621e-12
2.50528e-11 1.92621e-12 1.38535

1.17964 -2.0643 -3.85832e-12
-2.0643 0.873358 3.47052e-12
-3.85832e-12 3.47052e-12 0.676113

-1.71685 -0.0981248 -5.74218e-11
-0.0981248 2.59212 3.08394e-12
-5.74218e-11 3.08394e-12 0.278798

0.206719 -0.369341 -1.29114e-11
-0.369341 2.2736 -2.50494e-11
-1.29114e-11 -2.50494e-11 0.436034

1.87431 -2.06551 3.12194e-11
-2.06551 3.13897 8.09412e-12
3.12194e-11 8.09412e-12 1.88373

2.54539 1.5321 3.66474e-12
1.5321 3.05229 3.00613e-11
3.66474e-12 3.00613e-11 1.86627

-0.0918476 0.0075766 -3.6222e-11
0.0075766 -4.44641 6.30075e-11
-3.6222e-11 6.30075e-11 -0.64542

-0.0754953 -0.366003 2.15807e-11
-0.366003 -4.12841 -8.86469e-12
2.15807e-11 -8.86469e-12 -0.656342

-0.0580013 1.65787 5.58953e-12
1.65787 0.371526 2.50491e-11
5.58953e-12 2.50491e-11 0.0157929

-2.2133 -2.73755 3.81506e-11
-2.73755 0.882157 1.34718e-12
3.81506e-11 1.34718e-12 -0.547817

-1.29504 1.87645 -3.28049e-11
1.87645 -0.984295 -1.46462e-11
-3.28049e-11 -1.46462e-11 -0.473437

4.29249 0.86222 1.94659e-11
0.86222 2.36532 3.42995e-11
1.94659e-11 3.42995e-11 2.62066

0.0401241 1.0311 -4.41241e-11
1.0311 2.51332 -8.47737e-12
-4.41241e-11 -8.47737e-12 0.599938

0.455656 0.949411 2.85152e-11
0.949411 -2.70104 -1.59961e-11
2.85152e-11 -1.59961e-11 -0.777769

0.165433 -1.65797 -9.67275e-11
-1.65797 -2.6107 -3.19819e-11
-9.67275e-11 -3.19819e-11 -1.06777

0.844541 1.35497 1.0212e-11
1.35497 -1.35681 -7.89831e-12
1.0212e-11 -7.89831e-12 -0.168059

0.694318 -1.95909 -1.75362e-11
-1.95909 -1.61054 3.39147e-11
-1.75362e-11 3.39147e-11 -0.300067

5.42903 -0.979573 -2.81382e-11
-0.979573 3.59506 2.04285e-11
-2.81382e-11 2.04285e-11 6.11642

3.54347 -1.14618 8.38309e-11
-1.14618 5.85361 2.29303e-11
8.38309e-11 2.29303e-11 6.29966

-1.40571 -1.30154 7.70742e-12
-1.30154 2.53011 9.24964e-12
7.70742e-12 9.24964e-12 0.466481

-0.083372 1.55619 -2.42768e-11
1.55619 -4.23653 5.00959e-12
-2.42768e-11 5.00959e-12 -2.32602

-0.506096 -2.20214 -1.8112e-11
-2.20214 -2.52621 1.23311e-11
-1.8112e-11 1.23311e-11 -2.85066

1.24439 1.57661 1.54152e-11
1.57661 -0.291927 5.39476e-12
1.54152e-11 5.39476e-12 0.211708

4.51491 0.637122 2.90009e-11
0.637122 2.22526 2.4279e-11
2.90009e-11 2.4279e-11 2.64646

-1.73562 -1.90007 -7.70708e-12
-1.90007 1.237 -9.05505e-12
-7.70708e-12 -9.05505e-12 -0.300766

-3.17441 -0.912475 2.17724e-11
-0.912475 1.55498 -7.72419e-13
2.17724e-11 -7.72419e-13 -0.363277

1.34089 -2.26122 -6.45533e-11
-2.26122 1.9337 -4.64376e-11
-6.45533e-11 -4.64376e-11 0.834073

-2.81355 -1.83284 4.04646e-12
-1.83284 -1.32442 1.81125e-11
4.04646e-12 1.81125e-11 -0.706174

0.974803 -2.12831 1.11755e-11
-2.12831 -0.556634 -8.47757e-12
1.11755e-11 -8.47757e-12 0.160035

-4.52489 2.77436 1.79217e-11
2.77436 -0.649779 2.96745e-11
1.79217e-11 2.96745e-11 -0.787539

-1.47479 0.680178 3.15994e-11
0.680178 -0.652408 7.41729e-12
3.15994e-11 7.41729e-12 -0.903598

-1.96814 1.16386 1.65741e-11
1.16386 -0.183321 4.64361e-11
1.65741e-11 4.64361e-11 -1.07557

-1.40095 -2.03965 3.64178e-11
-2.03965 -0.334319 3.07956e-12
3.64178e-11 3.07956e-12 -0.21364

-1.76982 1.99042 -1.73425e-11
1.99042 -0.150975 -2.04249e-11
-1.73425e-11 -2.04249e-11 -0.214826

2.5893 1.32419 4.04369e-12
1.32419 0.208565 -6.16627e-11
4.04369e-12 -6.16627e-11 0.887032

2.18507 -0.00356725 -7.71864e-13
-0.00356725 -1.21756 -6.74485e-12
-7.71864e-13 -6.74485e-12 0.397138

-0.192822 1.37817 1.3293e-11
1.37817 -0.263721 -3.29466e-11
1.3293e-11 -3.29466e-11 -0.105409

-1.20976 -2.20307 2.60183e-12
-2.20307 1.95615 1.88841e-11
2.60183e-12 1.88841e-11 0.0437686

-2.13609 0.33374 -1.02162e-11
0.33374 2.6611 -3.77688e-11
-1.02162e-11 -3.77688e-11 0.252233

0.741209 2.05808 -7.70687e-12
2.05808 -1.04988 8.09245e-12
-7.70687e-12 8.09245e-12 -0.104125

-0.42267 0.0592231 -3.85099e-13
0.0592231 2.12024 2.12016e-12
-3.85099e-13 2.12016e-12 0.320541

-4.32694 -1.53547 -1.79193e-11
-1.53547 -0.0190933 1.92879e-12
-1.79193e-11 1.92879e-12 -0.946532

5.43546 -1.29529 3.19904e-11
-1.29529 6.18161 4.33576e-11
3.19904e-11 4.33576e-11 5.13326

6.25199 -1.32415 4.83717e-11
-1.32415 5.3648 1.9459e-11
4.83717e-11 1.9459e-11 5.13781

1.65474 0.454372 -1.92468e-12
0.454372 -2.32134 2.56306e-11
-1.92468e-12 2.56306e-11 0.0151585

-0.0693254 -2.4261 -4.27769e-11
-2.4261 -1.20369 3.35309e-11
-4.27769e-11 3.35309e-11 -0.264256

-0.380374 1.37776 -2.54319e-11
1.37776 -5.32739 5.4528e-11
-2.54319e-11 5.4528e-11 -3.91082

0.382638 -0.387066 1.61823e-11
-0.387066 -2.56382 -3.50613e-11
1.61823e-11 -3.50613e-11 -4.51544

-2.20608 -1.70963 -1.83046e-11
-1.70963 0.344476 -2.50484e-11
-1.83046e-11 -2.50484e-11 -0.223148

-3.2164 -0.517075 -1.19949e-11
-0.517075 -2.35635 -4.52793e-11
-1.19949e-11 -4.52793e-11 -2.86667

-3.26903 1.79349 7.54072e-11
1.79349 -1.28127 -2.00378e-11
7.54072e-11 -2.00378e-11 -2.51544

2.52369 0.161031 1.58494e-11
0.161031 -2.51895 -2.04257e-11
1.58494e-11 -2.04257e-11 -0.00848587

-2.11942 -2.96979 1.30064e-11
-2.96979 1.28055 -1.02129e-11
1.30064e-11 -1.02129e-11 -0.334899

4.59379 0.997522 -2.37048e-11
0.997522 4.67662 -4.62495e-11
-2.37048e-11 -4.62495e-11 3.99119

4.14182 0.961489 3.21879e-11
0.961489 4.16421 3.22791e-11
3.21879e-11 3.22791e-11 3.65895

2.12883 -1.15444 4.02771e-11
-1.15444 4.8182 -2.31243e-11
4.02771e-11 -2.31243e-11 2.98679

2.82566 0.575203 -2.00411e-11
0.575203 4.78789 -1.48385e-11
-2.00411e-11 -1.48385e-11 2.94576

4.80527 -0.980212 -2.90979e-11
-0.980212 2.38732 -7.8062e-12
-2.90979e-11 -7.8062e-12 3.081

-4.17886 -2.72612 3.66069e-12
-2.72612 -0.844585 1.81134e-11
3.66069e-12 1.81134e-11 -0.804687

2.49486 0.0547216 -2.15798e-11
0.0547216 5.64724 -3.00642e-11
-2.15798e-11 -3.00642e-11 3.72343

5.68089 0.0817537 -1.54188e-12
0.0817537 3.0016 1.50324e-11
-1.54188e-12 1.50324e-11 3.91746

-2.79719 0.183971 -1.07891e-11
0.183971 0.273926 1.4258e-11
-1.07891e-11 1.4258e-11 -1.94732

-2.27934 -1.5636 -1.59924e-11
-1.5636 -0.577269 -6.55082e-11
-1.59924e-11 -6.55082e-11 -1.6991

1.00058 0.62558 -1.37292e-11
0.62558 -1.63992 -7.71309e-13
-1.37292e-11 -7.71309e-13 -0.279167

2.022 0.104777 -2.2159e-11
0.104777 -3.66577 3.314e-11
-2.2159e-11 3.314e-11 -0.360479

0.250236 -1.47376 2.87118e-11
-1.47376 2.80918 2.77482e-11
2.87118e-11 2.77482e-11 1.15513

1.04817 0.943792 -1.92872e-12
0.943792 3.02961 -2.79406e-11
-1.92872e-12 -2.79406e-11 1.23884

2.45146 0.124611 2.12921e-11
0.124611 -2.47332 8.8625e-12
2.12921e-11 8.8625e-12 -0.0296273

-2.0182 -1.50001 3.46858e-12
-1.50001 1.26934 -2.85184e-11
3.46858e-12 -2.85184e-11 -0.0220715

-0.0646108 0.873011 -7.09044e-11
0.873011 -3.26256 -2.17666e-11
-7.09044e-11 -2.17666e-11 -1.57262

-0.415165 -1.2131 8.36217e-11
-1.2131 -2.40117 1.54068e-12
8.36217e-11 1.54068e-12 -2.02638

-0.669768 1.42725 1.97601e-12
1.42725 -0.7755 -1.07929e-11
1.97601e-12 -1.07929e-11 -0.406117

-1.21304 -2.50698 -2.6493e-11
-2.50698 1.64476 -1.96534e-11
-2.6493e-11 -1.96534e-11 -0.0639897

1.19863 0.646704 -3.22271e-11
0.646704 -2.79208 1.54121e-12
-3.22271e-11 1.54121e-12 -0.406593

2.37091 1.30978 -6.00289e-11
1.30978 1.94155 -8.74865e-11
-6.00289e-11 -8.74865e-11 1.53263

-1.09139 -2.7046 2.09062e-11
-2.7046 1.59093 1.15434e-12
2.09062e-11 1.15434e-12 -0.0290237

10.4274 2.39744 1.13697e-11
2.39744 10.4691 -8.86478e-12
1.13697e-11 -8.86478e-12 10.5771

-0.882756 -0.988247 8.47919e-12
-0.988247 2.29285 -3.8551e-12
8.47919e-12 -3.8551e-12 0.242268

-1.83587 -0.584365 -3.66217e-12
-0.584365 2.62815 1.23314e-11
-3.66217e-12 1.23314e-11 0.300054

-3.76533 -0.262524 -2.48521e-11
-0.262524 0.922924 5.164e-11
-2.48521e-11 5.164e-11 -2.28843

-2.58158 -1.22824 -3.14074e-11
-1.22824 -1.56927 -2.86114e-11
-3.14074e-11 -2.86114e-11 -2.07423

0.610936 0.686091 -4.50865e-11
0.686091 -6.24829 3.77679e-11
-4.50865e-11 3.77679e-11 -0.997071

0.544019 -1.01225 1.69572e-11
-1.01225 -5.27552 1.58004e-11
1.69572e-11 1.58004e-11 -1.00298

-1.81021 2.06819 -9.20031e-12
2.06819 -1.71518 -1.27173e-11
-9.20031e-12 -1.27173e-11 -1.11944

-1.83641 -1.32372 9.48978e-12
-1.32372 -1.28358 -4.62574e-12
9.48978e-12 -4.62574e-12 -1.26308

-2.62975 1.59035 9.72297e-11
1.59035 -1.93528 1.58025e-11
9.72297e-11 1.58025e-11 -2.14641

-2.68474 -1.1062 2.74807e-11
-1.1062 -0.997697 9.62403e-13
2.74807e-11 9.62403e-13 -2.16477

-0.301828 1.51101 2.42754e-11
1.51101 -4.50466 1.40633e-11
2.42754e-11 1.40633e-11 -3.10834

-0.86456 -2.11726 -1.15988e-10
-2.11726 -2.01593 -1.88722e-11
-1.15988e-10 -1.88722e-11 -3.86823

0.455216 1.56443 6.16448e-12
1.56443 -1.28113 -1.96528e-11
6.16448e-12 -1.96528e-11 -0.340464

-2.87454 -2.95172 1.61867e-11
-2.95172 -1.56289 2.08101e-11
1.61867e-11 2.08101e-11 -0.986915

1.60608 1.63192 1.77277e-11
1.63192 -1.07874 8.09279e-12
1.77277e-11 8.09279e-12 0.178541

-0.341277 -1.84737 -8.2841e-12
-1.84737 2.022 -2.35069e-11
-8.2841e-12 -2.35069e-11 0.220181

-2.08046 -1.11602 1.27167e-11
-1.11602 1.69758 -2.85192e-11
1.27167e-11 -2.85192e-11 0.0136822

3.33084 -1.63926 -7.12715e-12
-1.63926 2.95837 7.71827e-13
-7.12715e-12 7.71827e-13 1.93601

1.14995 -2.1663 5.39605e-12
-2.1663 -1.11861 -7.32299e-12
5.39605e-12 -7.32299e-12 0.105411

-1.92047 0.74552 2.79862e-11
0.74552 1.88936 -1.8886e-11
2.79862e-11 -1.8886e-11 0.100175

1.10377 2.16999 5.26077e-11
2.16999 0.094476 1.42604e-11
5.26077e-11 1.42604e-11 0.28209

-3.86192 3.22251 -1.09815e-11
3.22251 -1.46474 -8.47897e-12
-1.09815e-11 -8.47897e-12 -1.11693

-2.54182 -2.61799 -1.20378e-12
-2.61799 0.318824 -2.60128e-11
-1.20378e-12 -2.60128e-11 -0.848651

0.290904 -2.46757 -1.7537e-11
-2.46757 -0.168726 -2.1194e-11
-1.7537e-11 -2.1194e-11 0.162474

1.12555 -0.173893 3.47788e-11
-0.173893 -1.31187 7.5141e-12
3.47788e-11 7.5141e-12 -0.358191

-4.76576 -0.811668 1.75333e-11
-0.811668 -3.36511 -1.44512e-11
1.75333e-11 -1.44512e-11 -4.73362

-0.737452 -0.950096 -4.70114e-11
-0.950096 -1.2009 2.08056e-11
-4.70114e-11 2.08056e-11 -4.53648

-2.64783 -0.960386 1.07899e-11
-0.960386 0.613363 1.38731e-11
1.07899e-11 1.38731e-11 -0.426754

-0.415427 1.33209 2.13883e-11
1.33209 -1.71021 -1.92605e-12
2.13883e-11 -1.92605e-12 -0.498578

-0.167471 -0.100114 -4.03417e-11
-0.100114 -2.39172 1.42583e-11
-4.03417e-11 1.42583e-11 -1.2492

4.73657 -1.6781 3.98887e-11
-1.6781 5.91607 -5.78237e-12
3.98887e-11 -5.78237e-12 4.75359

5.65183 -1.50727 4.06614e-11
-1.50727 4.63096 -2.23548e-11
4.06614e-11 -2.23548e-11 4.67392

0.409961 -0.0633042 -2.35101e-11
-0.0633042 -4.51353 -3.00576e-11
-2.35101e-11 -3.00576e-11 -0.904516

0.490621 -0.311412 -1.57992e-11
-0.311412 -3.93959 -3.46784e-12
-1.57992e-11 -3.46784e-12 -1.04285

0.294341 0.338266 -1.49807e-11
0.338266 -2.83087 8.6701e-12
-1.49807e-11 8.6701e-12 -1.34566

0.157261 0.878374 -3.39423e-12
0.878374 1.4329 4.31627e-11
-3.39423e-12 4.31627e-11 0.246148

2.42078 1.13481 -3.55056e-11
1.13481 0.152637 -1.54175e-11
-3.55056e-11 -1.54175e-11 0.711579

0.331219 1.55189 -2.85128e-11
1.55189 -1.21947 2.27367e-11
-2.85128e-11 2.27367e-11 -0.404223

-0.206779 -2.03172 5.29878e-11
-2.03172 -1.68329 2.58178e-11
5.29878e-11 2.58178e-11 -0.684977

-5.15242 -0.256632 -3.69197e-11
-0.256632 -6.45907 1.10051e-10
-3.69197e-11 1.10051e-10 -6.33859

-4.74962 2.22833 -2.69538e-11
2.22833 -1.73396 5.21421e-11
-2.69538e-11 5.21421e-11 -5.25692

-2.94149 -1.73902 -1.19469e-11
-1.73902 0.163568 -7.32172e-12
-1.19469e-11 -7.32172e-12 -0.424206

1.40436 1.14015 2.43734e-11
1.14015 -0.864694 1.04046e-11
2.43734e-11 1.04046e-11 0.133811

0.295882 1.05232 -2.69674e-11
1.05232 -2.77007 6.28113e-11
-2.69674e-11 6.28113e-11 -0.803436

0.171856 -1.42112 -1.2235e-11
-1.42112 -2.17006 8.86385e-12
-1.2235e-11 8.86385e-12 -0.997634

-1.0221 -2.42445 -1.73409e-11
-2.42445 1.24347 -4.43068e-12
-1.73409e-11 -4.43068e-12 -0.172284

-1.71676 -3.10255 3.91141e-11
-3.10255 1.38717 -1.46459e-11
3.91141e-11 -1.46459e-11 -0.230357

10.8653 2.86493 6.35897e-12
2.86493 11.1738 -1.15702e-12
6.35897e-12 -1.15702e-12 10.8809

-3.4825 2.18994 -1.30053e-11
2.18994 -0.755123 1.92686e-11
-1.30053e-11 1.92686e-11 -1.27225

-2.5728 -1.93362 -8.57355e-12
-1.93362 0.347123 -1.73397e-12
-8.57355e-12 -1.73397e-12 -1.13808

-1.92372 -2.66832 2.23512e-11
-2.66832 1.34991 -2.12093e-12
2.23512e-11 -2.12093e-12 -0.269263

2.38564 -1.81226 1.15485e-12
-1.81226 -0.209938 1.50293e-11
1.15485e-12 1.50293e-11 0.653742

-0.290962 -1.1958 1.59187e-12
-1.1958 0.146287 -2.75538e-11
1.59187e-12 -2.75538e-11 -0.369481

-1.97526 2.06999 -1.39773e-12
2.06999 -1.75596 -1.15686e-12
-1.39773e-12 -1.15686e-12 -1.09911

-1.92501 -1.65816 2.29287e-11
-1.65816 -0.197514 1.0788e-11
2.29287e-11 1.0788e-11 -1.03455

1.25743 -0.16457 4.21984e-11
-0.16457 -2.99682 8.67017e-12
4.21984e-11 8.67017e-12 -0.543385

-0.230189 0.607687 -1.50282e-11
0.607687 -3.38047 3.83619e-13
-1.50282e-11 3.83619e-13 -1.24527

-0.131038 -0.585755 3.84146e-13
-0.585755 -1.74188 -2.73596e-11
3.84146e-13 -2.73596e-11 -1.34218

-4.15151 -0.854198 1.44516e-11
-0.854198 -1.43698 7.68748e-11
1.44516e-11 7.68748e-11 -3.58895

-4.37492 0.653901 2.11943e-11
0.653901 0.119251 -3.85355e-12
2.11943e-11 -3.85355e-12 -4.22903

6.62847 0.220243 -7.51912e-12
0.220243 4.37328 -1.73472e-12
-7.51912e-12 -1.73472e-12 6.57229

4.47205 0.198501 3.20869e-11
0.198501 6.46993 -3.62313e-11
3.20869e-11 -3.62313e-11 6.47832

-0.0766463 1.9741 2.40851e-11
1.9741 -0.590226 9.05374e-12
2.40851e-11 9.05374e-12 -0.277362

-1.30677 -1.97195 -5.49153e-11
-1.97195 -1.25539 -7.28279e-11
-5.49153e-11 -7.28279e-11 -0.591076

-3.02854 -1.88931 -3.5646e-11
-1.88931 -0.827287 2.08117e-11
-3.5646e-11 2.08117e-11 -0.609263

6.72767 0.702595 5.01053e-11
0.702595 6.75887 4.66367e-11
5.01053e-11 4.66367e-11 7.43855

6.71786 0.766024 5.89685e-11
0.766024 6.74743 -3.46916e-11
5.89685e-11 -3.46916e-11 7.46394

-1.01103 0.333569 -3.31312e-11
0.333569 -0.277571 -1.31786e-10
-3.31312e-11 -1.31786e-10 -4.56663

-1.42693 0.533908 -1.54207e-11
0.533908 -2.81243 -5.02836e-11
-1.54207e-11 -5.02836e-11 -3.8827

-1.18822 -1.77265 -1.58895e-12
-1.77265 -0.119583 -5.00809e-12
-1.58895e-12 -5.00809e-12 -0.521231

0.0667682 -2.1976 1.31018e-11
-2.1976 0.514041 1.38707e-11
1.31018e-11 1.38707e-11 0.24946

0.409133 2.06493 2.1263e-12
2.06493 -1.2664 7.09021e-11
2.1263e-12 7.09021e-11 -0.304162

-0.824727 -2.48678 -3.91153e-11
-2.48678 -1.37722 1.16026e-12
-3.91153e-11 1.16026e-12 -0.539314

-1.05635 -2.33257 3.37198e-11
-2.33257 -0.260809 -5.78463e-12
3.37198e-11 -5.78463e-12 -0.175718

1.00452 1.69335 5.81885e-11
1.69335 0.586181 2.50533e-12
5.81885e-11 2.50533e-12 0.319505

2.07453 -0.76328 -1.67636e-11
-0.76328 4.81643 -4.54801e-11
-1.67636e-11 -4.54801e-11 2.87733

2.77875 0.453875 2.21638e-11
0.453875 4.74633 1.04045e-11
2.21638e-11 1.04045e-11 2.88266

4.6958 -0.705538 9.44267e-12
-0.705538 2.65962 3.39151e-11
9.44267e-12 3.39151e-11 3.02798

0.330504 2.24939 -5.20321e-12
2.24939 -0.0616205 -7.12826e-12
-5.20321e-12 -7.12826e-12 0.00634731

3.42499 -0.547747 -3.04493e-11
-0.547747 5.87338 -3.35311e-11
-3.04493e-11 -3.35311e-11 4.02011

5.77272 -0.375189 -5.68547e-11
-0.375189 3.2876 -4.41295e-11
-5.68547e-11 -4.41295e-11 3.97144

0.304377 1.65044 2.77459e-11
1.65044 -1.56815 8.09094e-12
2.77459e-11 8.09094e-12 -0.553919

-0.959661 -2.40046 2.50483e-11
-2.40046 -1.9273 -9.47999e-11
2.50483e-11 -9.47999e-11 -0.946679

0.0110174 2.02542 2.37054e-11
2.02542 -1.89326 4.79743e-11
2.37054e-11 4.79743e-11 -0.750149

-1.21652 -2.34843 1.01927e-10
-2.34843 -1.52185 5.85668e-11
1.01927e-10 5.85668e-11 -1.09264

7.05887 0.862881 3.48816e-11
0.862881 7.15217 4.39385e-11
3.48816e-11 4.39385e-11 7.75614

7.07394 0.843427 1.13722e-11
0.843427 7.11766 -1.5804e-11
1.13722e-11 -1.5804e-11 7.71137

0.452815 1.80479 -3.00581e-11
1.80479 -0.245738 1.17543e-11
-3.00581e-11 1.17543e-11 -0.0287206

-0.179036 -2.22804 -4.25861e-11
-2.22804 -0.732788 -4.046e-11
-4.25861e-11 -4.046e-11 -0.176276

-2.80635 -1.41673 -4.50844e-11
-1.41673 -1.78669 -2.72624e-11
-4.50844e-11 -2.72624e-11 -2.50108

-3.1218 -0.486642 6.18473e-11
-0.486642 -0.797566 -1.54154e-11
6.18473e-11 -1.54154e-11 -2.9229

-0.121038 2.05659 1.67614e-11
2.05659 -1.35942 -1.15817e-12
1.67614e-11 -1.15817e-12 -0.646599

-2.56455 -1.8371 -1.90866e-13
-1.8371 -0.701901 -2.04227e-11
-1.90866e-13 -2.04227e-11 -1.09259

0.259466 1.08146 -4.27725e-11
1.08146 -4.42139 3.85359e-11
-4.27725e-11 3.85359e-11 -1.49725

-0.211414 -1.67295 3.39097e-11
-1.67295 -3.55105 2.62024e-11
3.39097e-11 2.62024e-11 -1.88023

-2.21429 1.88656 -1.87866e-11
1.88656 -0.823263 1.11767e-11
-1.87866e-11 1.11767e-11 -0.647164

-1.55141 -2.19255 1.03077e-11
-2.19255 0.813577 2.94813e-11
1.03077e-11 2.94813e-11 -0.472073

-3.5828 -1.5261 -2.42285e-11
-1.5261 -3.19224 4.2582e-11
-2.42285e-11 4.2582e-11 -4.00714

-4.00768 -1.36147 -3.23676e-11
-1.36147 -0.764915 4.59551e-11
-3.23676e-11 4.59551e-11 -3.01975

-0.283053 1.53137 -3.35225e-11
1.53137 -4.84631 9.63044e-12
-3.35225e-11 9.63044e-12 -2.60351

-0.277571 0.499153 4.23969e-11
0.499153 -4.96214 3.75645e-11
4.23969e-11 3.75645e-11 -3.3224

-0.741652 -1.65539 -4.54719e-11
-1.65539 -3.11029 2.3123e-11
-4.54719e-11 2.3123e-11 -3.1224

-0.344244 -0.352925 2.30989e-12
-0.352925 -2.96714 -1.15461e-12
2.30989e-12 -1.15461e-12 -3.95595

-4.58335 -0.380674 -2.36993e-11
-0.380674 0.069787 6.85935e-11
-2.36993e-11 6.85935e-11 -3.57299

-2.82118 2.81072 -1.39695e-11
2.81072 -2.88166 -3.07987e-12
-1.39695e-11 -3.07987e-12 -3.65453

0.12167 1.67771 1.96443e-11
1.67771 -4.21379 4.50638e-11
1.96443e-11 4.50638e-11 -2.83747

-0.219356 1.38904 -6.06128e-10
1.38904 -5.34868 4.0777e-10
-6.06128e-10 4.0777e-10 -3.99299

0.627843 0.387402 9.0168e-10
0.387402 -0.443023 9.16413e-11
9.0168e-10 9.16413e-11 -4.56585

-2.9624 -1.95403 5.70577e-11
-1.95403 -1.28889 2.54709e-10
5.70577e-11 2.54709e-10 -4.22864

0.561754 1.27365 7.12972e-11
1.27365 -3.93118 1.02492e-10
7.12972e-11 1.02492e-10 -2.28846

0.0817504 1.02044 -6.20396e-11
1.02044 -1.90607 1.06015e-11
-6.20396e-11 1.06015e-11 -1.19502

-0.86129 1.63712 2.54262e-11
1.63712 -4.59011 5.97229e-11
2.54262e-11 5.97229e-11 -3.47231

-1.01685 -1.88015 -5.78008e-11
-1.88015 -2.77847 2.9676e-11
-5.78008e-11 2.9676e-11 -3.3636

-2.04432 -0.942477 -2.58154e-11
-0.942477 -0.72988 2.31244e-11
-2.58154e-11 2.31244e-11 -4.3735

-0.727199 -0.840322 1.34879e-11
-0.840322 -1.43498 -2.85133e-11
1.34879e-11 -2.85133e-11 -1.69787

-0.145111 1.65744 -7.47615e-11
1.65744 -3.23258 -2.94723e-11
-7.47615e-11 -2.94723e-11 -1.72598

-0.223469 0.971208 -1.81177e-11
0.971208 -3.71493 -6.55061e-11
-1.81177e-11 -6.55061e-11 -2.38756

-1.26069 -2.18 2.19636e-11
-2.18 -2.14354 -4.04631e-11
2.19636e-11 -4.04631e-11 -2.34

-0.534293 -1.05703 -2.698e-11
-1.05703 -2.64098 -7.66807e-11
-2.698e-11 -7.66807e-11 -3.10712

VECTORS fluid_flux_TPM float
-3.6162e-05 -0.000108449 4.57779e-20
-1.12336e-05 8.91205e-05 -2.42532e-21
1.77641e-05 -8.91761e-05 4.85064e-20
-8.08593e-05 -1.53995e-05 8.97368e-20
-0.00010151 -2.67654e-05 1.08836e-19
-1.34622e-05 0.000115034 4.24431e-21
1.9995e-05 -0.000115122 6.18456e-20
-0.00010906 2.73979e-05 1.09139e-19
-3.41745e-05 5.51195e-05 1.64922e-19
-5.73032e-05 -0.000133114 3.78956e-20
-5.49306e-05 0.000142399 2.18279e-20
0.000148996 6.06902e-05 6.66963e-21
7.90984e-05 7.65741e-05 4.36557e-20
-7.2923e-05 -7.63254e-05 3.75924e-20
-3.59545e-05 -7.52781e-05 3.00133e-20
-1.1089e-05 -7.14149e-05 4.00178e-20
1.15947e-05 0.000117609 3.21355e-20
-5.26443e-06 -0.000117674 4.54747e-20
0.000103273 1.04088e-05 -4.00178e-20
-4.31232e-05 -0.000160638 2.48595e-20
-4.35334e-05 0.00016428 2.36469e-20
0.000178993 4.13308e-05 -6.0633e-22
-6.93026e-05 -7.18207e-05 6.54836e-20
-0.000111795 2.61952e-05 1.04289e-19
-7.9646e-05 -7.23612e-05 6.97279e-20
4.78832e-05 0.000105886 1.21266e-20
-7.67202e-05 1.44944e-05 1.28239e-19
-0.000116053 -0.000241964 3.16807e-20
-6.66567e-05 -3.37775e-05 5.8814e-20
0.000257805 0.000121981 1.03076e-20
-3.76623e-07 0.000109947 1.87962e-20
6.76101e-06 -0.000109978 3.88051e-20
-0.000252507 -0.000128296 3.21355e-20
-0.00025339 0.00012345 5.76013e-20
-0.000164112 5.36688e-05 7.88229e-20
-5.84192e-05 -4.72493e-05 6.0633e-20
-0.000102437 -5.15236e-05 -4.24431e-21
-0.000107271 5.24512e-05 1.0247e-19
-1.77076e-05 -3.59393e-05 6.00266e-20
7.20918e-05 7.36185e-05 3.63798e-21
-0.000105163 7.02877e-05 1.12474e-19
-3.09945e-05 5.24043e-07 1.38243e-19
-6.80256e-05 7.43189e-05 1.06108e-19
-3.67312e-05 0.000107921 5.91172e-20
1.6665e-05 7.14116e-05 3.94114e-20
-0.000106495 7.01728e-05 9.94381e-20
-0.00026341 -0.00026341 4.54747e-22
0.000272847 0.000272847 -2.27374e-21
2.42739e-05 5.58176e-05 5.6995e-20
0.00027383 0.000289458 -6.66963e-21
-0.000279715 -0.000264197 1.60677e-20
0.000126774 -1.31318e-05 2.42532e-21
0.000126682 1.30607e-05 -8.60988e-20
8.88258e-05 1.57587e-05 -6.48773e-20
0.00012078 -5.53052e-05 -1.75836e-20
0.000120677 5.53124e-05 -8.12482e-20
4.53476e-05 7.40837e-05 1.18234e-20
-0.000106263 -0.000199179 5.09317e-20
-0.000106581 0.000199969 8.67052e-20
9.65557e-05 -3.69522e-05 -4.48684e-20
9.64037e-05 3.67377e-05 -5.63887e-20
-0.000144242 6.3117e-05 5.57823e-20
-0.000115215 0.000181806 1.75836e-20
0.00012251 -0.000183287 1.81899e-21
7.03875e-05 -7.2704e-05 8.48862e-21
-0.00012751 0.000244417 5.45697e-21
-0.000244391 0.000129465 2.56174e-20
1.42191e-05 7.08918e-05 -1.21266e-21
-8.03337e-06 -7.06998e-05 2.66785e-20
0.000215407 -8.92246e-05 2.36469e-20
0.000215471 8.9251e-05 -1.17022e-19
1.53144e-05 -2.25341e-05 2.60722e-20
9.81638e-05 3.39853e-05 -6.60899e-20
9.83759e-05 -3.40302e-05 -6.66963e-20
-5.17342e-05 -3.55268e-05 4.85064e-20
-1.80253e-05 -5.48908e-05 8.18545e-20
-0.000151702 -3.23593e-05 8.67052e-20
-0.000130956 -1.91792e-05 8.73115e-20
-9.57664e-05 -8.09426e-05 2.18279e-20
-0.000112042 0.00019406 4.9719e-20
-0.000111772 -0.000193591 3.75924e-20
-0.000115122 -0.000129108 5.03254e-20
-8.44361e-05 4.98939e-05 1.3885e-19
0.000101708 3.6993e-05 -4.18368e-20
-1.74791e-05 0.000205581 2.18279e-20
2.2335e-05 -0.000207653 -9.70128e-21
-9.90955e-05 8.91194e-05 1.38243e-19
1.02506e-05 9.46307e-05 2.72848e-20
-3.50896e-06 -9.46192e-05 6.60899e-20
8.64846e-05 -1.44982e-05 -8.00355e-20
8.55712e-05 1.356e-05 -5.03254e-20
0.000152235 -0.000104604 1.45519e-20
0.000122672 2.01269e-05 -2.48595e-20
9.14872e-05 -4.58016e-05 -5.27507e-20
9.10103e-05 4.58862e-05 -5.63887e-20
0.000102933 -3.77385e-05 -4.12304e-20
4.51565e-05 -0.00010519 2.45564e-20
8.23445e-05 -3.62052e-05 -6.30583e-20
8.10925e-05 3.54275e-05 -4.9719e-20
-8.8576e-05 4.05039e-05 1.5037e-19
5.03735e-05 3.10642e-05 2.48595e-20
-0.000106072 -7.40518e-05 7.27596e-20
-3.79066e-05 9.01934e-06 3.57735e-20
-9.77485e-06 2.1593e-05 4.85064e-20
0.000126758 1.79686e-05 -5.45697e-21
-8.6761e-05 5.21937e-05 1.57646e-19
-9.14333e-05 -4.26411e-05 6.36646e-20
-7.00746e-05 -8.77288e-05 6.09361e-20
-8.1e-05 -5.42967e-05 6.91216e-20
1.81415e-06 -9.73854e-05 5.09317e-20
4.88686e-06 9.74178e-05 6.66963e-21
0.000150507 -5.93752e-05 -6.36646e-21
-5.16248e-05 3.52369e-05 1.23691e-19
7.588e-05 -0.000107236 1.21266e-21
7.62445e-05 0.000108233 8.79178e-21
-8.42924e-05 4.99018e-05 1.46732e-19
-3.34048e-05 5.43627e-05 1.60071e-19
-3.418e-05 -5.63627e-05 4.54747e-20
-1.83974e-05 -0.000100897 2.09184e-20
-7.89218e-05 7.57898e-05 1.40062e-19
1.64241e-05 -0.000141327 2.24342e-20
2.36003e-05 0.000144762 -4.24431e-21
0.000160002 -7.63292e-06 -2.42532e-21
0.000155966 0.00010393 7.57912e-21
0.000107893 -6.27649e-05 8.18545e-21
0.000141741 -0.000245519 -2.66785e-20
-0.000141372 0.000244867 1.81899e-20
0.000123477 -2.20216e-05 -6.0633e-21
2.16908e-05 5.47359e-05 3.45608e-20
8.99741e-05 -1.70966e-05 -6.18456e-20
-1.73233e-05 0.000102277 1.84931e-20
-2.62941e-05 5.74052e-05 2.97102e-20
3.12947e-05 -5.71798e-05 1.63709e-20
5.14229e-05 -3.19953e-05 4.79001e-20
3.8504e-05 -1.15589e-05 1.57646e-20
-1.56491e-05 -5.49932e-05 5.21444e-20
6.6812e-05 6.27804e-07 -5.63887e-20
0.000105872 6.77452e-05 5.01544e-37
-3.60062e-05 -1.15564e-05 1.5037e-19
0.000106005 6.91547e-05 0
-0.000111552 0.000138687 4.33526e-20
-5.80807e-05 4.50467e-05 1.19447e-19
4.39194e-05 -0.000156984 2.51627e-20
4.62555e-05 0.000156931 -3.94114e-21
0.000174605 -4.0058e-05 -6.66963e-21
0.000108216 -7.17575e-05 -3.03165e-22
4.0891e-06 0.000113434 -2.50772e-37
2.60524e-06 -0.000113273 3.33481e-20
8.5817e-05 -0.000143749 9.09495e-21
8.44709e-05 0.000137753 1.15203e-20
5.45688e-05 -1.95679e-05 -5.8814e-20
5.47802e-05 1.88731e-05 -4.12304e-20
6.04352e-05 3.77864e-05 2.30405e-20
3.65485e-05 5.14332e-05 9.21621e-20
-8.12649e-05 -4.8966e-05 3.75924e-20
-0.000162011 -0.000127759 5.03254e-20
2.54744e-05 0.000104835 4.85064e-21
0.000108127 3.64466e-05 -5.63887e-20
0.000108336 -3.66049e-05 -2.78912e-20
9.79902e-05 -3.84334e-05 -5.27507e-20
9.78055e-05 3.81899e-05 -5.76013e-20
-4.94136e-05 -0.000477391 3.78956e-21
0.000490209 7.5438e-05 -1.21266e-21
2.54788e-05 -0.000102385 2.395e-20
0.000148902 -9.89043e-05 -9.70128e-21
0.000148825 9.91368e-05 -8.24609e-20
0.000100023 5.22959e-05 -4.06241e-20
-0.000202302 -1.2884e-05 6.4271e-20
0.000122847 -2.23893e-05 -2.54659e-20
-4.25055e-06 8.73469e-05 5.27507e-20
1.06159e-05 -8.77516e-05 5.1538e-20
-7.22211e-05 0.000108735 8.39767e-20
3.64706e-05 1.1902e-05 6.36646e-20
0.000100439 -5.25604e-05 -7.88229e-21
-1.49833e-05 -2.60667e-05 2.72848e-20
-7.37107e-05 6.05065e-05 1.21266e-20
8.04649e-05 -6.03967e-05 2.12215e-20
6.0107e-05 -3.71405e-05 4.54747e-20
-5.93933e-05 -4.04449e-05 6.48773e-20
-0.000104347 -6.71817e-05 5.82077e-20
1.71983e-05 2.40417e-05 3.81988e-20
-3.42438e-05 7.35849e-05 6.60899e-20
-1.79662e-05 -0.000102116 1.66741e-20
8.56941e-05 3.99466e-05 -4.12304e-20
2.62226e-05 0.000103013 -2.72848e-21
-3.21539e-05 -4.994e-05 9.03431e-20
-0.000128367 0.000234763 3.94114e-21
-0.000230401 0.000130845 1.54614e-20
8.59513e-05 -4.01728e-05 -3.09228e-20
0.000103926 -1.20978e-05 -4.12304e-20
0.000218206 9.5833e-05 -9.45875e-20
0.000218105 -9.57175e-05 2.48595e-20
2.17975e-05 -5.58471e-05 5.03254e-20
-0.000143182 -0.000103607 1.21266e-21
-0.000146468 0.000101051 5.8814e-20
-6.08828e-05 -2.70277e-05 9.06463e-20
-1.28083e-05 2.24995e-05 1.32786e-19
0.000138587 0.00016963 -6.0633e-22
-0.000154854 -0.000127425 3.3045e-20
0.000137889 -0.000189162 1.78867e-20
0.000140122 0.000191445 1.21266e-21
0.000213617 -0.000117712 -8.18545e-21
1.69349e-05 -2.00028e-05 9.58001e-20
-1.41513e-05 -0.000211 1.39456e-20
0.000226295 1.6436e-05 4.85064e-21
0.000116749 0.000153633 2.36469e-20
-0.000110234 -0.000152684 1.81899e-20
-7.03946e-05 -5.67784e-05 2.06152e-20
-3.04271e-05 1.20986e-06 8.06419e-20
8.15437e-05 -0.000112013 2.63753e-20
8.20414e-05 0.000113808 1.12171e-20
-6.95536e-05 2.02989e-05 1.3127e-19
4.28993e-05 -7.23158e-05 2.88007e-20
0.000114053 -5.78345e-05 -1.27329e-20
0.000113818 5.78811e-05 -8.30672e-20
-8.50406e-05 -4.55882e-05 3.33481e-20
-5.92033e-05 3.97831e-05 1.16415e-19
-6.79933e-05 -3.22006e-05 5.1538e-20
-0.000129364 -7.27365e-05 5.54792e-20
-1.59828e-05 5.91464e-05 1.0732e-19
-0.000270054 0.000270054 7.42754e-21
-1.64108e-05 0.000104676 2.395e-20
2.39647e-05 -0.00010575 2.78912e-20
2.32225e-05 -0.000206502 -2.06152e-20
-1.68316e-05 0.00020642 1.81899e-20
6.4542e-05 -3.2597e-05 -4.85064e-20
6.44827e-05 3.15207e-05 -4.48684e-20
-0.000101534 5.40877e-05 1.2066e-19
-0.0001004 -5.23542e-05 -1.39456e-20
-0.000177867 -3.24741e-05 6.36646e-20
-0.000175045 3.31544e-05 -1.57646e-20
0.000206464 9.652e-05 -9.94381e-20
0.000206456 -9.63991e-05 -8.48862e-21
6.54509e-05 6.05905e-06 3.81988e-20
6.55546e-05 -5.66183e-06 -1.87962e-20
0.000103885 3.66616e-05 -3.51671e-20
-3.46792e-06 9.27328e-05 3.51671e-20
1.01115e-05 -9.06973e-05 4.27463e-20
-0.000146862 0.000101753 5.54792e-20
0.000103554 -3.7641e-05 -2.30405e-20
-8.5427e-06 -9.76408e-05 2.5769e-20
8.87628e-05 5.38513e-05 -2.09184e-20
-6.5267e-05 -2.04714e-06 1.27329e-19
-6.45193e-05 5.30705e-07 2.18279e-20
8.85362e-05 -5.46395e-05 -6.0633e-22
-6.7065e-05 5.91342e-05 1.6189e-19
0.000116102 0.000201106 -1.39456e-20
-0.000114203 -0.000197807 -2.12215e-20
-1.76911e-05 -6.84347e-05 5.09317e-20
-8.54789e-05 -5.14844e-05 4.12304e-20
-9.55841e-06 -0.000114516 4.12304e-20
0.000143813 -0.000245449 8.94336e-21
0.000247988 -0.000116227 4.54747e-21
5.4376e-05 -4.52195e-05 -5.3357e-20
5.36438e-05 4.42707e-05 -6.60899e-20
-1.42963e-05 0.000119963 1.41275e-19
1.44456e-05 9.4235e-05 1.27329e-20
0.000128015 5.46623e-05 -1.54614e-20
9.83824e-05 -2.22854e-05 -2.97102e-20
9.82736e-05 2.18522e-05 -5.3357e-20
-0.000232076 -2.05037e-09 3.15291e-20
-0.000232138 1.80733e-09 -6.0633e-21
2.24142e-05 -5.22652e-05 6.85153e-20
-8.77284e-05 -5.33352e-05 6.12393e-20
9.07873e-05 5.49257e-05 -5.3357e-20
9.12822e-05 -5.49482e-05 -3.69861e-20
2.50535e-05 6.69724e-05 5.5176e-20
1.13084e-05 1.84456e-05 1.04895e-19
0.000269014 -0.000269014 6.36646e-21
-7.6255e-05 2.41696e-05 -3.63798e-21
-7.70067e-05 -2.58787e-05 1.05501e-19
-1.68685e-05 5.35757e-05 8.60988e-20
0.000125644 -5.55515e-05 9.70128e-21
-8.6301e-05 4.39814e-05 1.36424e-19
-0.000111495 -1.4893e-05 -1.39456e-20
-0.00011202 1.45615e-05 1.15809e-19
-6.69984e-05 3.22409e-05 1.66134e-19
6.39362e-05 9.54332e-05 -7.76102e-20
6.44276e-05 -9.5185e-05 -4.66874e-20
4.7926e-05 0.000270351 -2.42532e-21
-4.27773e-05 -0.000270355 -4.60811e-20
-2.42613e-05 0.000486877 -2.72848e-21
-0.000475645 2.48998e-05 2.36469e-20
7.38445e-05 -5.22925e-06 1.09139e-20
7.42422e-05 4.39905e-06 -1.39456e-20
-3.24922e-06 -1.717e-05 9.21621e-20
0.000264119 -0.000321244 1.15203e-20
0.000335943 -0.000258609 8.94336e-21
8.84389e-05 -0.000213516 7.88229e-21
8.85011e-05 0.000213667 -1.27329e-20
-8.11262e-05 4.83955e-05 1.37637e-19
7.73665e-05 -7.37393e-05 4.85064e-21
7.86769e-05 -3.25406e-05 -6.66963e-21
7.8584e-05 3.20901e-05 -2.78912e-20
5.8348e-05 -4.85023e-05 2.00089e-20
7.68082e-05 7.44476e-05 -1.33393e-20
5.18334e-07 -0.000226369 2.45564e-20
8.82688e-06 0.000208382 6.0633e-22
0.000241672 1.99622e-06 -7.57912e-21
5.85597e-05 4.79998e-05 2.42532e-21
2.66099e-05 0.000229588 3.94114e-21
-0.000224398 -3.0265e-05 4.60811e-20
9.85262e-05 -1.04626e-05 -1.51582e-20
9.89536e-05 9.17424e-06 -5.5176e-20
9.59243e-05 -1.93445e-05 -9.09495e-21
9.60528e-05 1.9229e-05 -7.33659e-20
-0.000265613 0.000328755 6.82121e-21
-0.000326035 0.000265588 8.94336e-21
8.59828e-05 3.73997e-05 -1.15203e-20
8.61947e-05 -3.78695e-05 3.63798e-21
2.99632e-05 0.000158685 1.69772e-20
-2.46476e-05 -0.000157668 -4.72937e-20
7.42139e-05 3.11284e-05 3.63798e-21
7.36528e-05 -3.0942e-05 -3.57735e-20
0.00011289 -6.84378e-05 -2.72848e-20
0.000112642 6.85516e-05 -8.36735e-20
-6.58957e-05 -1.62869e-05 1.87962e-20
-6.45528e-05 1.52649e-05 1.17628e-19
-0.000105344 -0.000200107 1.39456e-20
0.000103798 -0.00012451 -2.72848e-20
0.000124612 -0.000105249 -1.69772e-20
0.000103576 0.000124958 -4.79001e-20
0.000124657 0.00010545 -5.82077e-20
0.000111736 0.00020224 1.81899e-20
-0.000230627 3.71193e-06 5.03254e-20
-0.000230394 -4.3429e-06 -2.42532e-21
0.000167475 6.93731e-05 -2.06152e-20
0.000403085 5.30658e-05 -5.45697e-21
0.000403204 -5.30815e-05 -1.42488e-19
0.000167434 -6.93561e-05 -1.75836e-20
0.000210264 4.51217e-06 -7.27596e-21
0.00014887 4.51662e-05 -1.03076e-20
0.000197291 -5.55589e-05 9.70128e-21
0.000210254 -4.44813e-06 -5.8814e-20
0.000197283 5.561e-05 -6.4271e-20
0.000148882 -4.50875e-05 -6.48773e-20
0.000156163 -4.42219e-05 -1.27329e-20
0.000155224 -4.45141e-05 9.09495e-21
0.000156171 4.42569e-05 -9.64064e-20
0.000155168 4.45693e-05 -8.30672e-20
-1.44069e-05 9.08662e-05 2.60722e-20
-1.53188e-05 -9.13236e-05 1.37637e-19
-8.18258e-05 1.49627e-05 -3.33481e-20
-0.000104517 2.71921e-05 -2.45564e-20
-1.67566e-05 0.000118192 2.12215e-20
-1.76517e-05 -0.000118455 8.60988e-20
-0.000104592 -2.68821e-05 2.12215e-20
-3.51114e-05 -5.51394e-05 5.6995e-20
-5.86848e-05 -0.000132221 1.84931e-19
6.02211e-05 0.000136224 7.48817e-20
0.000138262 6.2888e-05 3.85019e-20
7.67262e-05 -7.96414e-05 2.67998e-19
7.85778e-05 7.85198e-05 1.27329e-20
-8.40732e-05 5.02451e-05 -3.45608e-20
8.81414e-06 -0.000120923 1.67347e-19
9.60392e-06 0.000120491 -2.72848e-20
8.54117e-05 1.33795e-05 5.6995e-20
-4.40631e-05 -0.00016038 9.21621e-20
4.34068e-05 0.000161962 8.60988e-20
0.000167693 4.4808e-05 5.45697e-20
4.0278e-05 0.000108631 1.04289e-19
4.16316e-05 -0.000107024 1.22479e-19
-7.69624e-05 -1.57552e-05 6.69994e-20
-0.000114768 -0.00023853 1.98118e-19
-6.80318e-05 3.4281e-05 3.88051e-20
-2.59191e-06 0.000112686 -1.94026e-20
-3.58489e-06 -0.000112988 7.70039e-20
-0.000254562 -0.000123109 6.73026e-20
-0.000253456 0.000127652 6.0633e-22
-5.49693e-05 7.42571e-05 -1.81899e-20
-6.63769e-05 7.85956e-05 -3.4864e-20
-0.000153216 4.94514e-05 -1.09139e-20
-0.000108524 -5.22731e-05 6.2452e-20
-0.000103838 5.08817e-05 5.6995e-20
-1.77576e-05 3.65015e-05 1.1399e-19
6.4404e-05 -7.66678e-05 2.23129e-19
-3.19634e-05 -1.10623e-06 5.39634e-20
-0.000110265 7.20131e-05 -7.9126e-20
-7.24961e-05 -7.33609e-05 4.06241e-20
-0.000127336 -1.99665e-05 4.66874e-20
-0.000116156 2.33782e-05 -3.97146e-20
-3.99432e-05 -0.000108561 2.69817e-20
1.1669e-05 -7.40853e-05 2.06758e-19
1.26065e-05 7.35859e-05 7.39722e-20
-3.60679e-05 0.00010921 -4.24431e-21
6.66734e-05 7.75606e-05 4.66874e-20
-0.000257831 -0.00025782 1.42487e-20
-0.000253886 0.00025389 9.54969e-21
2.28695e-05 -5.92507e-05 2.96495e-19
2.2939e-05 5.7439e-05 -1.81899e-21
3.89631e-05 7.67638e-05 9.76191e-20
-0.00025463 0.000277085 3.63798e-20
-0.00026859 -0.000258339 7.57912e-20
0.000132714 -2.42418e-05 1.41275e-19
0.000131595 2.62736e-05 -4.66874e-20
6.22989e-05 2.19407e-05 6.60899e-20
0.000124328 -8.32415e-05 1.3885e-19
0.000123404 8.39185e-05 -8.42798e-20
3.92036e-05 -7.65957e-05 1.76139e-19
-0.000107743 -0.000199028 1.11565e-19
-0.000107674 0.000197495 1.38243e-19
9.1207e-05 -5.2466e-05 2.41926e-19
9.1248e-05 5.33297e-05 -5.27507e-20
-0.000120411 -0.000186771 -7.76102e-20
-0.000120029 0.000186808 2.00089e-20
0.000124963 0.000235887 4.07757e-20
0.000236849 0.000125074 6.60899e-20
1.03634e-05 7.31147e-05 6.60899e-20
9.41897e-06 -7.36071e-05 1.58252e-19
0.000260263 -0.000107797 -7.09406e-20
0.00025738 0.000106611 4.85064e-21
-0.000105401 -7.34222e-05 3.97146e-20
8.63968e-05 4.75052e-05 -1.94026e-20
8.64257e-05 -4.65636e-05 2.05546e-19
-9.70139e-05 8.09756e-05 9.27685e-20
-0.000147777 -3.33812e-05 5.79045e-20
-0.000111677 0.000193434 9.21621e-20
-0.000112159 -0.00019425 6.36646e-20
-8.32079e-05 -5.14006e-05 1.39456e-20
8.35374e-05 4.50785e-05 4.00178e-20
-0.000118115 -0.000128467 1.30361e-19
-2.04074e-05 -0.000211094 -9.82254e-20
-1.96068e-05 0.000211234 3.03165e-21
-0.000100357 -8.89055e-05 7.70039e-20
8.17648e-06 9.64413e-05 -2.06152e-20
7.37624e-06 -9.63382e-05 1.40669e-19
6.21446e-05 -2.1864e-05 1.43094e-19
6.10704e-05 2.11108e-05 4.42621e-20
0.000139442 -0.000106393 1.49157e-19
0.000104987 2.32054e-05 6.12393e-20
7.48657e-05 7.09654e-05 -6.2452e-20
7.55079e-05 -7.03812e-05 2.0979e-19
8.49115e-05 -4.53315e-05 1.8584e-19
5.66636e-05 -5.0601e-05 1.96451e-19
5.51241e-05 5.01475e-05 -1.57646e-20
-9.01465e-05 -4.02815e-05 6.97279e-20
-9.4558e-05 7.44689e-05 -3.09228e-20
4.77616e-05 3.66369e-05 1.75836e-20
4.63014e-05 -3.55316e-05 3.07409e-19
-1.45591e-05 -2.46684e-05 2.03727e-19
-1.36888e-05 2.41145e-05 4.72937e-20
0.000112596 1.91919e-05 7.70039e-20
-0.000158741 0.000154697 2.72848e-21
-8.78648e-05 -5.24799e-05 -5.45697e-21
-9.07555e-05 4.3051e-05 -8.06419e-20
-0.000215844 3.53313e-05 -1.04592e-20
-8.41343e-05 5.1355e-05 -7.82165e-20
9.31044e-07 -9.96873e-05 1.01257e-19
2.33903e-06 9.94747e-05 -7.27596e-21
-7.40906e-05 -8.87797e-05 6.94248e-20
0.000137635 -5.9088e-05 9.73159e-20
-5.24449e-05 -3.59575e-05 3.63798e-20
-5.25673e-05 3.88951e-05 5.82077e-20
6.82494e-05 -0.000108565 1.89781e-19
-7.18815e-05 0.000116087 -4.30494e-20
-8.64291e-05 -5.11511e-05 1.94026e-20
-3.49005e-05 -5.49321e-05 3.09228e-20
-3.56734e-05 5.87139e-05 1.74017e-19
2.03477e-05 0.000104509 1.05805e-19
-7.85998e-05 -7.45867e-05 -1.21266e-20
1.21458e-05 -0.000140763 8.00355e-20
-1.83515e-05 0.000145003 8.00355e-20
0.000146907 -1.56074e-05 2.51627e-20
9.6324e-05 -6.56055e-05 1.84324e-19
-0.000144885 0.000250962 -4.85064e-20
-0.000144608 -0.000250481 -2.30405e-20
-0.000103548 -6.23226e-05 7.33659e-20
0.000108744 -2.35099e-05 1.2066e-19
-0.000164247 -0.000130234 1.79322e-19
1.6506e-05 -5.80346e-05 2.35256e-19
1.71363e-05 5.8794e-05 6.73026e-20
6.38755e-05 -2.31531e-05 9.64064e-20
-2.09208e-05 -0.000102096 3.69861e-20
-3.10905e-05 -6.05099e-05 1.26117e-19
-3.02154e-05 5.99446e-05 3.69861e-20
9.76593e-05 0.00013742 9.12526e-20
0.000144935 9.77914e-05 6.79089e-20
-0.000207067 -9.28815e-06 1.23843e-19
3.56744e-05 -6.87618e-06 2.60722e-20
3.40478e-05 8.47108e-06 3.31056e-19
2.96085e-05 1.81567e-06 1.04289e-19
-3.70394e-05 1.02145e-05 1.54008e-19
-3.41433e-05 -9.89461e-06 9.82254e-20
-6.00006e-05 -4.49317e-05 -5.8814e-20
4.00266e-05 -0.000155739 4.60811e-20
-3.66441e-05 0.00015542 8.70083e-20
0.000159065 -4.12625e-05 6.0633e-20
9.67883e-05 -7.38038e-05 2.37378e-19
1.64698e-06 0.000113396 3.15291e-20
2.17246e-07 -0.000114019 9.33748e-20
-7.42388e-05 0.000148582 6.09361e-20
7.72913e-05 -0.00013979 1.18537e-19
1.12114e-05 2.9715e-05 5.82077e-20
1.02568e-05 -3.01055e-05 1.51582e-19
5.48662e-05 -4.12539e-05 2.84975e-19
5.603e-05 4.21681e-05 3.63798e-20
3.74462e-05 -5.40443e-05 3.55309e-19
3.57945e-05 5.29648e-05 3.33481e-20
-8.09519e-05 4.94881e-05 -9.09495e-21
2.01927e-05 -0.000106017 7.54881e-20
0.000102863 5.30412e-05 -6.97279e-20
0.000103606 -5.21007e-05 2.06758e-19
8.92624e-05 -5.77156e-05 2.60419e-19
8.63484e-05 -4.74454e-05 2.35862e-19
8.63343e-05 4.82397e-05 -4.79001e-20
-5.01349e-05 -0.000465524 3.94114e-21
6.89333e-05 0.000107398 7.06374e-20
-0.000479647 5.62485e-05 -2.59206e-20
-1.77474e-05 0.000106723 2.0312e-20
0.00016582 -0.000149827 7.63976e-20
0.000164014 0.000149712 8.48862e-21
8.99682e-05 5.85422e-05 -1.81899e-21
0.000105185 -2.55863e-05 8.12482e-20
9.80432e-05 6.83352e-05 5.45697e-20
-6.65516e-06 -8.92905e-05 1.52795e-19
-6.07486e-06 8.92898e-05 -2.78912e-20
-7.7686e-05 6.30502e-05 3.75924e-20
-7.82698e-05 -6.35965e-05 8.00355e-20
1.55173e-05 2.67597e-05 4.30494e-20
1.27326e-05 -2.7146e-05 2.86794e-19
-3.64146e-05 -7.42297e-05 1.03076e-20
2.09086e-05 0.000102956 8.15514e-20
7.86603e-05 -4.85588e-05 2.83762e-19
7.92158e-05 4.92723e-05 -2.91038e-20
9.84836e-05 7.48193e-05 3.75924e-20
-3.44485e-05 7.49578e-05 -2.91038e-20
2.0907e-05 -0.000104277 7.42754e-20
0.000125822 0.000227981 8.79178e-20
0.000231268 0.000125597 8.10966e-20
-0.000143576 0.000107452 -1.51582e-21
8.60786e-05 -1.51952e-05 1.23691e-19
0.000269752 -0.000130637 -2.54659e-20
0.000267232 0.000130323 3.94114e-20
-0.000147581 -0.000100699 4.60811e-20
-0.000144677 0.000103086 2.78912e-20
-6.11254e-05 2.62074e-05 6.66963e-21
-1.43209e-05 2.33325e-05 7.09406e-20
-1.44683e-05 -2.29214e-05 2.48595e-19
-0.00012084 0.000161395 6.86668e-20
-0.000151753 -0.000129736 1.81293e-19
0.000130056 -0.000185808 5.76013e-20
-0.000118143 0.000193167 1.03076e-19
0.000194708 -0.000113422 8.30672e-20
-0.000132598 -7.17101e-05 1.24298e-19
-1.60517e-05 -0.000208164 1.08988e-19
-0.000197143 1.80323e-06 3.24386e-20
0.000114617 -0.000157196 2.72848e-19
0.000116992 0.000157139 1.94026e-20
-7.0828e-05 5.60362e-05 9.70128e-21
-3.10234e-05 -2.24247e-06 8.42798e-20
-7.0277e-05 0.00011489 5.60855e-20
7.43239e-05 -0.000114409 1.15203e-19
-7.05153e-05 -2.08763e-05 3.75924e-20
0.000112949 -8.75195e-05 8.97368e-20
0.000111854 8.82441e-05 -5.76013e-20
-8.67623e-05 4.55741e-05 -4.18368e-20
-6.09531e-05 -4.10616e-05 2.27374e-20
-5.39077e-05 3.95261e-05 5.1538e-21
-6.9636e-05 3.23884e-05 -1.21266e-21
-1.77119e-05 -6.02152e-05 6.21488e-20
-1.58317e-05 6.45909e-05 -1.00044e-20
0.00026701 0.000267006 7.94292e-20
-1.96073e-05 -0.000105549 4.09273e-20
-1.7835e-05 0.000106533 6.36646e-21
-2.03345e-05 -0.000211189 5.3357e-20
-1.94369e-05 0.000211455 -2.12215e-20
2.99344e-05 -5.58134e-05 1.77655e-19
3.0259e-05 5.45437e-05 3.57735e-20
-0.000102602 -5.39625e-05 3.63798e-21
-0.000100856 5.20974e-05 1.39456e-20
-0.000179057 3.31533e-05 -1.19447e-19
-0.000176381 -3.30008e-05 2.60722e-20
0.000237038 0.00013209 5.45697e-20
0.000240385 -0.000132356 6.0633e-21
6.38893e-05 -7.27103e-07 2.42532e-21
6.17598e-05 2.42923e-06 3.34088e-19
9.3233e-05 4.35929e-05 2.78912e-20
-6.1033e-06 -9.30885e-05 8.48862e-20
8.01021e-05 -5.93602e-05 2.96798e-19
-5.36504e-06 9.40225e-05 -3.75924e-20
9.20455e-05 -4.42104e-05 2.13125e-19
1.07569e-05 9.6884e-05 8.15514e-20
8.08754e-05 6.02609e-05 1.51582e-21
-6.4817e-05 1.18489e-06 6.36646e-20
-6.67739e-05 -1.43944e-06 1.21872e-19
-6.8839e-05 -5.94011e-05 3.63798e-20
0.000117474 -0.000203491 6.91216e-20
0.000118188 0.000204714 2.97102e-20
-8.64052e-05 5.05466e-05 -6.30583e-20
-1.22758e-05 0.000113978 1.5522e-19
0.000135662 -0.000238992 1.18537e-19
0.000235462 -0.000111872 1.60071e-19
1.89173e-05 -6.94927e-05 1.95238e-19
1.83752e-05 6.85237e-05 -1.75836e-20
-1.60758e-05 -0.000119563 3.81988e-20
9.63544e-06 -9.58769e-05 1.33089e-19
0.000113791 5.9748e-05 5.48728e-20
9.40356e-05 -2.99278e-05 2.47989e-19
9.40044e-05 3.13818e-05 -5.6995e-20
-0.000233309 -2.04458e-09 -3.63798e-21
-0.000233192 7.51422e-09 -4.54747e-20
-8.69447e-05 5.09656e-05 -8.18545e-20
7.45643e-05 8.3201e-05 -1.03076e-19
7.52336e-05 -8.26187e-05 1.87356e-19
2.38122e-05 6.84143e-05 -1.39456e-20
2.35033e-05 -6.83225e-05 2.04333e-19
1.04313e-05 -1.87357e-05 2.86188e-19
1.16567e-05 2.02836e-05 1.33393e-20
0.000258866 -0.000258873 8.50378e-20
-7.72843e-05 2.65006e-05 -1.39456e-20
-7.76261e-05 -2.40202e-05 8.91305e-20
-1.856e-05 -5.48805e-05 1.86143e-19
-1.75421e-05 5.58467e-05 -3.03165e-21
0.000111081 -5.96724e-05 1.91297e-19
-8.72499e-05 -4.38281e-05 -1.69772e-20
-0.000112882 -1.46078e-05 6.0633e-22
-0.000112257 1.86228e-05 4.18368e-20
-6.82901e-05 -3.20128e-05 5.1538e-20
3.45468e-05 -0.000147185 1.1399e-19
3.41872e-05 0.000147112 -2.97102e-20
4.71982e-05 0.000276818 -2.42532e-21
4.59504e-05 -0.000276133 2.06152e-20
2.15499e-05 0.000462374 7.68523e-20
0.000466073 3.23387e-05 1.19295e-19
7.09564e-05 1.07191e-05 -4.24431e-21
7.01769e-05 -8.85898e-06 3.1226e-19
0.000252549 -0.000314624 1.0444e-19
0.000307327 -0.000251394 1.52795e-19
0.000113081 -0.000272969 4.60811e-20
0.0001123 0.000271084 6.85153e-20
-8.21602e-05 -4.82416e-05 -6.85153e-20
7.5691e-05 4.09048e-05 -2.78912e-20
7.50301e-05 -3.98157e-05 2.77699e-19
7.03169e-05 7.81972e-05 3.27418e-20
6.95441e-05 -7.75699e-05 2.98921e-19
-2.98432e-06 -0.000221784 6.97279e-20
-5.37375e-06 0.000204559 1.28845e-19
0.000212267 -6.61265e-06 4.27463e-20
5.37401e-05 5.39172e-05 2.36469e-20
5.26757e-05 -5.31796e-05 3.04378e-19
-2.21996e-05 0.00022626 4.62326e-20
0.000223546 -1.63035e-05 5.0477e-20
0.000100464 -1.4711e-05 2.4617e-19
0.000100695 1.64669e-05 -3.15291e-20
9.55563e-05 -3.17243e-05 1.97664e-19
9.57854e-05 3.34856e-05 -5.09317e-20
0.000261898 0.000322213 8.88273e-20
0.000323645 0.000262159 1.5522e-19
7.98368e-05 4.38799e-05 -1.39456e-20
7.93119e-05 -4.28879e-05 3.04378e-19
2.76327e-05 -0.000162259 1.28542e-19
2.87714e-05 0.000162276 -7.27596e-21
7.11566e-05 3.17608e-05 2.88007e-19
7.26377e-05 -2.80296e-05 -1.45519e-20
0.000111035 -0.00010497 1.17628e-19
0.000109977 0.00010528 -9.45875e-20
-6.58282e-05 -1.52876e-05 -1.51582e-20
-7.02351e-05 1.71153e-05 5.3357e-20
0.00010281 0.000198224 9.09495e-21
0.000151778 0.000152908 2.12215e-20
0.000103806 -0.000198773 2.06152e-20
0.000153113 -0.000153146 5.27507e-20
0.000109631 -0.000205526 2.32224e-19
-0.000232061 -3.20209e-06 -8.42798e-20
-0.000231462 4.31599e-06 4.85064e-21
0.000111918 0.000206342 4.79001e-20
0.000184265 -7.63304e-05 3.03165e-21
0.000481614 -6.33999e-05 -1.27329e-20
0.000487017 6.41126e-05 -5.76013e-20
0.000188888 7.82342e-05 1.43094e-19
0.000238237 5.47768e-06 -4.85064e-21
0.000162199 -4.48714e-05 -2.54659e-20
0.000223715 7.27298e-05 1.21266e-20
0.000242284 -2.71134e-06 1.10352e-19
0.000227083 -7.30824e-05 -2.72848e-20
0.0001639 4.91968e-05 2.03727e-19
0.0001734 -6.72847e-05 9.15558e-20
0.00017549 -6.66338e-05 7.33659e-20
0.000171446 6.84296e-05 -4.06241e-20
0.000173535 6.77789e-05 1.39456e-20
-3.83367e-05 -0.000108219 6.54836e-20
-1.54824e-05 9.09002e-05 1.21266e-21
1.49907e-05 -9.10721e-05 1.33999e-19
-8.19016e-05 -1.51504e-05 2.35559e-19
-0.00010229 -2.63722e-05 2.47383e-19
-1.78116e-05 0.000117986 -9.70128e-21
1.73391e-05 -0.000118387 1.23691e-19
-0.000109795 2.7465e-05 3.04378e-19
-3.5224e-05 5.52776e-05 4.80213e-19
-5.95768e-05 -0.000132547 7.51849e-20
-5.76384e-05 0.000140359 1.23388e-19
0.000137936 -5.97497e-05 8.79178e-20
7.65028e-05 7.9445e-05 1.59465e-19
-7.75122e-05 -7.93799e-05 1.21266e-19
-3.81373e-05 -7.63445e-05 8.79178e-20
-1.23645e-05 -7.31545e-05 1.80686e-19
8.65693e-06 0.000120686 1.00044e-19
-9.24947e-06 -0.000121098 1.04289e-19
8.58142e-05 1.26042e-05 1.23085e-19
-4.58947e-05 -0.000159106 7.76102e-20
-4.62064e-05 0.000162307 1.52189e-19
0.000163346 -4.33798e-05 1.24601e-19
-7.12237e-05 -7.18699e-05 1.36424e-19
-0.000112413 2.63138e-05 2.43745e-19
-8.10289e-05 -7.23823e-05 2.45564e-19
4.15811e-05 0.000106708 4.54747e-20
-7.75958e-05 1.46177e-05 3.22871e-19
-0.000119025 -0.000242693 4.6839e-20
-6.76739e-05 -3.40136e-05 2.9407e-19
0.000243191 -0.000119565 3.03165e-20
-3.9696e-06 0.000112605 4.00178e-20
3.43256e-06 -0.000112982 7.39722e-20
-0.00025407 0.00012292 3.37726e-19
-0.000253439 -0.000127532 -7.57912e-20
-0.00016428 5.35513e-05 1.11262e-19
-5.97487e-05 -4.72063e-05 2.77093e-19
-0.000108249 5.21705e-05 2.95283e-19
-0.000103859 -5.11122e-05 1.94026e-19
-1.77128e-05 -3.62208e-05 2.84975e-19
6.40303e-05 7.6783e-05 1.69772e-20
-0.000105859 6.98846e-05 2.34346e-19
-3.20551e-05 8.79672e-07 3.92295e-19
-6.96118e-05 7.40945e-05 2.12215e-19
-3.87316e-05 0.000107252 1.90084e-19
1.21005e-05 7.36145e-05 1.69772e-20
-0.000107208 6.97683e-05 1.61284e-19
-0.000256304 -0.000256304 -6.10877e-20
0.000259498 -0.000259506 7.88229e-21
2.27787e-05 5.91045e-05 2.06758e-19
0.00026044 -0.000275642 1.16415e-19
-0.000279605 -0.000257429 -5.63887e-20
0.000132306 -2.55367e-05 6.60899e-20
0.000132032 2.5689e-05 9.51938e-20
6.11604e-05 2.14877e-05 1.2066e-19
0.000124007 -8.39409e-05 5.45697e-20
0.000123723 8.41597e-05 8.30672e-20
3.91566e-05 7.63235e-05 1.42487e-20
-0.000107519 0.000198719 3.88657e-19
-0.000107655 -0.000197357 1.21266e-19
9.13206e-05 -5.31393e-05 8.48862e-20
9.10829e-05 5.31594e-05 8.48862e-21
-0.000144146 6.31249e-05 3.21355e-20
0.000120068 -0.000186594 4.42621e-20
-0.000121475 0.000186746 -2.18279e-20
6.36187e-05 -7.5592e-05 1.5522e-19
-0.000125169 0.000235282 7.63976e-20
-0.000243358 0.000128853 9.09495e-21
9.44241e-06 7.30495e-05 -9.70128e-21
-1.06026e-05 -7.27421e-05 1.24298e-19
0.000259195 -0.000107369 -9.09495e-21
0.000259219 0.000107378 5.45697e-21
1.38757e-05 -2.45761e-05 2.29193e-19
8.6183e-05 4.82915e-05 5.3357e-20
8.642e-05 -4.67238e-05 1.27329e-19
-5.2367e-05 -3.57724e-05 3.34088e-19
-2.26341e-05 -5.79529e-05 1.45519e-19
-0.000152009 -3.1508e-05 7.9126e-20
0.000106438 2.3666e-05 1.32786e-19
-0.000131913 -1.87405e-05 1.99483e-19
-9.7118e-05 -8.08377e-05 2.05546e-19
-0.000111625 -0.00019333 -2.54659e-20
-0.000111961 0.000193912 1.92813e-19
-0.00011699 -0.00012857 7.97324e-20
-8.54187e-05 4.97723e-05 2.83762e-19
8.42996e-05 -4.50163e-05 1.81899e-19
2.01892e-05 -0.000210885 1.33393e-20
-2.07187e-05 0.000211256 8.48862e-21
-0.000100069 8.88605e-05 4.48078e-19
7.21549e-06 9.60423e-05 1.11565e-19
-7.40335e-06 -9.68508e-05 1.63709e-19
6.18257e-05 -2.1898e-05 9.94381e-20
5.97019e-05 2.05701e-05 1.0732e-19
0.000139238 0.000106862 1.25207e-19
7.52228e-05 -7.0821e-05 9.21621e-20
7.4462e-05 7.14907e-05 1.06714e-19
8.31669e-05 4.55808e-05 3.78956e-20
3.94476e-05 -0.000106713 1.60071e-19
5.6219e-05 -5.09278e-05 1.12171e-19
5.4313e-05 5.01343e-05 1.03682e-19
-8.94116e-05 4.05393e-05 3.78956e-19
4.72252e-05 3.59452e-05 6.79089e-20
-0.000107473 -7.37238e-05 2.18279e-19
-3.84085e-05 9.1986e-06 3.353e-19
-1.43547e-05 2.3768e-05 2.42532e-20
0.000112158 -1.9675e-05 1.67953e-19
-8.76875e-05 5.20963e-05 3.94721e-19
-9.25206e-05 -4.25085e-05 2.29799e-19
-7.19683e-05 -8.72136e-05 1.50067e-19
-8.24088e-05 -5.39747e-05 2.66179e-19
-1.84697e-06 -9.97382e-05 1.27329e-19
8.91839e-07 9.93282e-05 5.57823e-20
0.000137305 5.93721e-05 1.22782e-19
-5.2397e-05 3.55313e-05 2.60115e-19
6.89221e-05 -0.000109056 1.31877e-19
6.79141e-05 0.000108998 3.45608e-20
-8.51975e-05 4.97844e-05 3.35907e-19
-3.48411e-05 5.49012e-05 5.56004e-19
-3.57186e-05 -5.85443e-05 2.89219e-19
-2.19503e-05 -0.000101251 6.79089e-20
-7.99425e-05 7.54893e-05 2.54052e-19
1.02863e-05 -0.000140886 1.04289e-19
1.87659e-05 0.000143418 1.34302e-19
0.000145426 8.20387e-06 7.48817e-20
0.000144784 -0.000104861 1.10352e-19
9.61214e-05 6.6211e-05 4.69906e-20
-0.00014464 0.000250551 7.63976e-20
0.000144517 -0.000250314 -9.03431e-20
0.000108381 2.25607e-05 1.27026e-19
1.6795e-05 5.80372e-05 2.84975e-20
6.38372e-05 -2.33682e-05 1.26723e-19
-2.07192e-05 0.000102014 1.47641e-19
3.04047e-05 -6.04126e-05 2.14641e-19
-3.08155e-05 5.94549e-05 -2.91038e-20
4.81145e-05 -3.63542e-05 1.69166e-19
3.50473e-05 -7.783e-06 6.79089e-20
-1.7268e-05 -5.54959e-05 1.58252e-19
2.93157e-05 1.20983e-06 7.27596e-20
9.59745e-05 -6.94969e-05 1.54917e-19
-3.71158e-05 -1.02542e-05 2.59509e-19
9.63402e-05 -7.33666e-05 1.42791e-19
-0.000112152 0.000136786 1.07624e-19
-5.93246e-05 4.50742e-05 2.9407e-19
3.80862e-05 -0.000156717 1.21872e-19
3.96404e-05 0.00015463 1.09139e-19
0.000161243 4.04456e-05 1.11868e-19
9.66137e-05 7.40591e-05 5.76013e-21
1.78892e-07 0.000113643 8.48862e-20
-1.12947e-06 -0.000114148 1.21266e-19
7.65648e-05 -0.000137222 9.76191e-20
7.63572e-05 0.000140664 9.39811e-20
9.98844e-06 -3.061e-05 6.12393e-20
1.0728e-05 3.02377e-05 1.19447e-19
5.51668e-05 4.1251e-05 3.39545e-20
3.73547e-05 5.38983e-05 2.20098e-19
-8.23434e-05 -4.89043e-05 3.57128e-19
-0.000162985 -0.000125339 5.66918e-20
2.01227e-05 0.000105701 7.09406e-20
0.00010295 5.28956e-05 7.27596e-20
0.000103268 -5.27827e-05 4.54747e-20
8.91688e-05 5.8224e-05 -5.45697e-21
8.63111e-05 -4.79708e-05 1.21266e-19
8.62013e-05 4.80796e-05 3.63798e-21
-4.17173e-05 -0.000470895 -1.36424e-21
0.000467529 -7.09649e-05 7.15469e-20
2.02762e-05 -0.00010398 1.54311e-19
0.000165104 -0.00015029 5.8814e-20
0.000164894 0.000150777 9.39811e-20
-0.000202743 -1.19815e-05 -2.5769e-21
-6.77762e-06 8.90137e-05 1.84324e-19
5.94794e-06 -9.03594e-05 1.82505e-19
-7.36825e-05 0.000107489 1.86143e-19
3.23773e-05 9.84547e-06 1.29148e-19
-1.42026e-05 -2.78501e-05 2.78305e-19
-7.90017e-05 6.26065e-05 -2.18279e-20
7.79629e-05 -6.35247e-05 1.60071e-19
5.49036e-05 -4.03766e-05 1.59465e-19
-6.06263e-05 -4.10762e-05 2.57084e-19
8.93188e-05 -5.79335e-05 1.5037e-19
-0.00010559 -6.62264e-05 1.47035e-19
0.000101776 -2.53568e-05 1.76442e-19
1.4593e-05 2.6396e-05 5.63887e-20
-3.63389e-05 7.42238e-05 2.02211e-19
-2.12482e-05 -0.000103236 8.03387e-20
7.86857e-05 4.91705e-05 -3.81988e-20
2.08604e-05 0.000103904 4.33526e-20
-3.70647e-05 -5.28963e-05 1.44306e-19
-0.000125121 0.000235992 -2.107e-20
-0.000228918 0.000130277 -4.30494e-20
8.59065e-05 -1.6046e-05 1.75836e-19
7.88987e-05 -4.90416e-05 1.29148e-19
0.000268956 -0.000130866 7.27596e-21
0.000269078 0.000131109 2.06152e-20
1.68706e-05 -5.89488e-05 1.94632e-19
-0.000147264 0.000100545 2.47989e-19
-0.000144373 -0.000102902 1.56433e-19
-6.16312e-05 -2.69497e-05 2.95586e-19
-1.45162e-05 2.29227e-05 2.88613e-19
0.000132579 -0.000163853 6.79089e-20
-0.000158844 -0.000125146 6.51805e-20
0.000135104 -0.000193702 1.07624e-19
0.000124655 0.000182785 1.0823e-19
0.000200397 0.000116709 1.03379e-19
1.23504e-05 -2.28625e-05 1.24298e-19
-6.11616e-06 -0.000208382 6.03298e-20
0.000212611 -1.39443e-05 4.41105e-20
0.000114411 0.000157034 1.08533e-19
-0.000115352 -0.000156825 4.85064e-20
-7.1643e-05 -5.65754e-05 2.55265e-19
-3.08955e-05 2.28132e-06 3.52278e-19
7.32493e-05 0.000114129 9.03431e-20
7.42295e-05 -0.000113517 1.28845e-19
-7.03258e-05 2.0506e-05 3.34694e-19
3.72615e-05 -7.48638e-05 1.86143e-19
0.000112482 -8.82748e-05 5.21444e-20
0.000112065 8.85191e-05 1.17628e-19
-8.62809e-05 -4.53817e-05 3.1226e-19
-6.03432e-05 4.02983e-05 2.80124e-19
-6.92565e-05 -3.21465e-05 2.67391e-19
-0.000131298 -7.19348e-05 9.24653e-20
-1.76328e-05 5.9433e-05 2.63147e-19
-0.00026838 0.000268381 -1.772e-19
-1.94928e-05 0.000105238 1.43397e-19
1.88707e-05 -0.000107104 1.53401e-19
2.01406e-05 -0.000210948 1.94026e-20
-2.07815e-05 0.000211175 4.48684e-20
2.96226e-05 -5.63628e-05 4.79001e-20
2.93935e-05 5.43628e-05 1.44913e-19
-0.000102271 5.38757e-05 3.16504e-19
-0.000101486 -5.20798e-05 2.92857e-19
-0.000178689 -3.30804e-05 2.12822e-19
-0.000176226 3.38082e-05 2.57084e-19
0.00023894 -0.000132622 2.78912e-20
0.000238822 0.00013288 1.57646e-20
6.44198e-05 3.38519e-06 7.82165e-20
6.33339e-05 -1.61653e-06 7.76102e-20
9.27621e-05 -4.37757e-05 1.84021e-19
-6.20218e-06 9.2974e-05 1.90691e-19
7.99687e-05 5.98844e-05 -2.48595e-20
5.55778e-06 -9.26378e-05 1.82505e-19
-0.000146692 0.000100659 1.28845e-19
9.21898e-05 4.40856e-05 3.03165e-21
-1.1088e-05 -9.84116e-05 6.15425e-20
-6.47176e-05 -1.28308e-06 2.09184e-19
-6.50431e-05 7.01985e-07 3.85019e-19
-6.81508e-05 5.89809e-05 4.75363e-19
0.000117393 0.000203335 3.09228e-20
-0.00011754 -0.000203606 -2.97102e-20
-2.23101e-05 -7.1076e-05 1.87962e-19
-8.67196e-05 -5.12841e-05 2.54052e-19
-1.22931e-05 -0.000113874 2.41319e-19
8.04567e-05 -5.91442e-05 1.54917e-19
0.00013037 0.000243295 1.05653e-19
0.000234093 0.000115255 8.79178e-20
1.86042e-05 -7.00461e-05 6.79089e-20
1.74118e-05 6.80918e-05 1.47338e-19
-1.60477e-05 0.000119423 4.99616e-19
9.66106e-06 9.55577e-05 1.57646e-20
0.000112836 -5.94443e-05 1.90388e-19
9.41031e-05 -3.07983e-05 7.94292e-20
9.38829e-05 3.08555e-05 -8.48862e-21
-0.000232851 4.12482e-09 1.09139e-19
-0.000233194 -4.04793e-09 -1.30967e-19
1.75495e-05 -5.50054e-05 1.95845e-19
-8.88679e-05 -5.30517e-05 2.60115e-19
7.41846e-05 8.35149e-05 9.94381e-20
7.49399e-05 -8.32533e-05 9.33748e-20
2.34024e-05 6.80303e-05 2.37681e-19
1.04441e-05 1.87267e-05 2.6436e-19
0.000261443 0.000261443 8.12482e-20
-7.71117e-05 -2.64414e-05 1.6856e-19
-7.70009e-05 2.47868e-05 3.65617e-19
-1.83891e-05 5.46753e-05 2.66179e-19
0.000112754 5.95359e-05 6.51805e-20
-8.72283e-05 4.38948e-05 3.62585e-19
-0.00011268 1.46437e-05 2.18885e-19
-0.000112573 -1.46467e-05 3.49852e-19
-6.8085e-05 3.23728e-05 4.52322e-19
3.42201e-05 -0.000147666 7.76102e-20
3.35285e-05 0.000148201 1.40669e-19
4.56769e-05 0.000276174 2.36469e-20
-4.62736e-05 -0.000275992 -1.33393e-20
-3.58159e-05 0.000471241 3.39545e-20
-0.00047172 2.60205e-05 -5.25991e-20
7.05345e-05 9.90441e-06 4.48684e-20
7.01284e-05 -1.00743e-05 1.46732e-19
-8.04895e-06 -1.99996e-05 1.81293e-19
0.000255846 0.000323405 1.37788e-19
0.000318571 0.000252529 1.02773e-19
0.000113037 0.000272874 3.69861e-20
0.00011293 -0.000272617 5.76013e-20
-8.19849e-05 4.83673e-05 3.1226e-19
7.02506e-05 -7.65777e-05 1.45519e-19
7.53315e-05 4.04999e-05 -1.09139e-20
7.55081e-05 -4.04758e-05 1.0732e-19
5.28771e-05 -5.34715e-05 1.44913e-19
6.96043e-05 7.77613e-05 -1.09139e-20
-3.05807e-06 -0.000212235 1.01257e-19
2.03042e-06 0.000215489 1.16415e-19
0.000226159 -1.36348e-06 2.30405e-20
5.28977e-05 5.36048e-05 1.03076e-20
9.05133e-06 0.000222364 1.02015e-19
-0.000223669 -2.84412e-05 6.21488e-21
0.000100629 -1.65414e-05 1.437e-19
0.000100686 1.57318e-05 8.00355e-20
9.58428e-05 -3.28797e-05 7.88229e-20
9.57029e-05 3.30052e-05 4.91127e-20
-0.000263886 0.000327845 -1.33544e-19
-0.000323801 0.000263964 -1.3127e-19
7.93501e-05 4.33847e-05 -1.21266e-20
7.94966e-05 -4.33029e-05 1.27936e-19
2.73254e-05 0.000162102 3.94114e-20
-2.79228e-05 -0.000161916 7.88229e-21
7.36101e-05 2.96785e-05 1.06714e-19
7.22293e-05 -2.93868e-05 1.05501e-19
0.00011059 -0.000105515 7.70039e-20
0.000110154 0.000105909 1.0732e-19
-6.54655e-05 1.53425e-05 2.81943e-19
-6.68892e-05 -1.60426e-05 3.56522e-19
0.000103032 0.00019997 9.39811e-20
0.000152768 0.000153944 8.18545e-20
0.000103381 -0.00019918 7.70039e-20
0.000152715 -0.000153526 3.94114e-20
-0.000110335 -0.000205477 4.66874e-20
-0.000231684 -3.76607e-06 7.09406e-20
-0.000231599 3.21223e-06 1.3218e-19
0.000109421 0.000205404 9.21621e-20
0.000186458 7.7237e-05 1.94026e-20
0.000485013 6.38397e-05 -4.85064e-20
0.000186271 -7.71589e-05 2.78912e-20
0.000485058 -6.38448e-05 -2.66785e-20
0.000240391 -4.51286e-06 5.3357e-20
0.00016329 4.65413e-05 8.12482e-20
0.00022558 -7.30961e-05 2.12215e-20
0.000240232 4.63481e-06 7.51849e-20
0.000163061 -4.64662e-05 9.94381e-20
0.000225426 7.31948e-05 5.45697e-21
0.000172655 -6.82211e-05 8.48862e-20
0.000174716 -6.75792e-05 4.36557e-20
0.000172437 6.84325e-05 9.88318e-20
0.00017454 6.77776e-05 4.9719e-20
-3.9861e-05 -0.000109939 1.56433e-19
-1.5053e-05 9.10427e-05 -5.82077e-20
1.58456e-05 -9.06069e-05 1.09746e-19
-8.18272e-05 1.49406e-05 1.78867e-20
-0.000104528 2.71749e-05 5.76013e-20
-1.74092e-05 0.000118446 -8.85242e-20
1.81947e-05 -0.000117924 8.12482e-20
-0.000104603 -2.69371e-05 9.21621e-20
-3.51041e-05 -5.51534e-05 2.20704e-19
-5.90343e-05 -0.000132662 1.40669e-19
5.99535e-05 0.000135969 -7.18501e-20
0.000138086 6.25224e-05 -8.48862e-21
-7.68113e-05 -7.92143e-05 1.2551e-19
7.68991e-05 7.9786e-05 2.72848e-20
-8.41048e-05 5.03529e-05 -9.70128e-20
-3.72419e-05 -7.55689e-05 1.50067e-19
-1.26762e-05 -7.29314e-05 7.76102e-20
-8.45175e-06 -0.00012099 1.31574e-19
9.11337e-06 0.000121031 -4.85064e-21
8.53356e-05 1.27602e-05 -6.66963e-21
-4.54529e-05 -0.000159666 1.46732e-19
4.30376e-05 0.000161862 -1.0732e-19
0.000167673 4.4347e-05 -1.12171e-20
3.96529e-05 0.000108424 -1.46125e-19
-7.32587e-05 -7.3722e-05 1.54008e-19
-7.69425e-05 -1.57972e-05 1.41275e-19
-0.000114981 -0.000238175 1.57494e-19
-6.80228e-05 3.42546e-05 -3.03165e-20
-3.42185e-06 0.000113009 -2.00089e-20
4.59726e-06 -0.000112639 9.70128e-20
-0.000254058 -0.000123137 2.54659e-20
-0.000253462 0.00012757 -7.33659e-20
-5.50204e-05 7.43495e-05 -1.03986e-19
-6.65045e-05 7.8717e-05 -6.57868e-20
-0.000153262 4.94244e-05 4.24431e-20
-0.00010843 -5.2522e-05 3.51671e-20
-0.000103788 5.08364e-05 -9.51938e-20
-1.77542e-05 3.6476e-05 -4.9719e-20
-3.19573e-05 -1.13048e-06 1.92207e-19
-0.000110301 7.20401e-05 -5.5176e-20
-0.000127349 -2.00213e-05 1.0823e-19
-0.000116199 2.33503e-05 6.0633e-21
1.14659e-05 7.36919e-05 -1.63103e-19
-3.62448e-05 0.000109282 -5.72982e-20
6.62312e-05 7.71401e-05 -1.77958e-19
-0.000257874 -0.000257871 8.0945e-20
-0.00025391 0.000253906 -1.66741e-21
2.29867e-05 5.93579e-05 -4.72937e-20
3.83418e-05 7.66461e-05 -1.00044e-19
-0.00025465 0.000276965 2.95586e-20
-0.000268666 -0.000258392 4.57779e-20
0.000131794 -2.61501e-05 7.63976e-20
0.000132607 2.42847e-05 -1.45519e-19
6.23244e-05 2.12831e-05 1.09139e-20
0.000123608 -8.37573e-05 6.66963e-20
0.000124209 8.33696e-05 -7.51849e-20
-0.000107596 -0.000198899 8.42798e-20
-0.000107652 0.000197424 -9.58001e-20
9.13762e-05 -5.33763e-05 8.97368e-20
9.11673e-05 5.23793e-05 -8.00355e-20
-0.000120313 0.000186769 -1.27936e-19
0.000122755 -0.00018717 5.03254e-20
6.34726e-05 -7.57798e-05 1.54614e-19
0.000124746 0.000235713 -3.68345e-20
0.000236783 0.000124781 -1.62193e-20
9.6822e-06 7.33171e-05 -5.3357e-20
-9.7805e-06 -7.22537e-05 1.18234e-19
0.000257314 -0.000106583 1.03076e-20
0.000260446 0.000107873 -1.33393e-19
-0.000105322 -7.31799e-05 1.41578e-19
1.38994e-05 -2.31934e-05 5.3357e-20
8.63368e-05 4.68532e-05 -8.73115e-20
8.65773e-05 -4.71638e-05 8.48862e-20
-5.3127e-05 -3.61296e-05 2.00089e-20
-2.18309e-05 -5.77463e-05 1.49157e-19
-9.69617e-05 8.09411e-05 -1.58252e-19
-0.000147819 -3.34554e-05 9.91349e-20
-0.00011165 0.000193368 -3.21355e-20
-0.00011205 -0.000194079 4.54747e-20
-8.33027e-05 -5.13666e-05 8.73115e-20
8.34632e-05 4.44144e-05 -7.12438e-20
-0.000118279 -0.000128564 1.56433e-19
2.11601e-05 -0.000211883 2.36469e-20
-2.0295e-05 0.000211095 -1.14596e-19
-0.000100318 -8.89101e-05 8.48862e-20
7.67069e-06 9.67176e-05 -8.60988e-20
-6.59681e-06 -9.66244e-05 1.44306e-19
6.09977e-05 2.03868e-05 -2.36469e-20
6.2268e-05 -2.25686e-05 1.27329e-20
0.000139676 -0.000104961 1.83415e-19
0.000104992 2.26272e-05 2.97102e-20
7.54943e-05 -7.08168e-05 2.18279e-20
7.49524e-05 7.05012e-05 -4.36557e-20
8.50122e-05 -4.58903e-05 9.76191e-20
3.9767e-05 -0.000106303 1.36424e-19
5.68074e-05 -5.1203e-05 5.45697e-20
5.50354e-05 4.94972e-05 -3.88051e-20
-9.0108e-05 -4.02892e-05 1.3885e-19
-9.46637e-05 7.44854e-05 -7.73071e-20
4.62118e-05 3.57116e-05 -2.68604e-19
-3.9512e-05 9.62522e-06 3.69861e-20
-1.45933e-05 2.46651e-05 -2.2798e-19
0.000112473 1.86814e-05 -8.18545e-21
-0.000158817 0.000154661 -1.53098e-20
-8.78771e-05 -5.24861e-05 5.03254e-20
-9.0763e-05 4.30479e-05 -6.0633e-20
-0.000215918 3.52966e-05 -2.45564e-20
-8.41611e-05 5.13747e-05 -8.18545e-20
-1.24678e-06 -9.94045e-05 1.49157e-19
1.85982e-06 9.9737e-05 -5.76013e-20
-7.46695e-05 -8.87151e-05 1.57343e-19
0.000137936 -5.94498e-05 1.01257e-19
-5.25053e-05 3.90927e-05 -6.54836e-20
6.85441e-05 -0.000107662 1.86446e-19
-7.19927e-05 0.000116094 -5.00222e-20
-8.64151e-05 -5.11236e-05 6.66963e-20
-3.4891e-05 -5.49439e-05 1.86143e-19
-3.56621e-05 5.86778e-05 -1.18841e-19
-2.14439e-05 -0.000101963 1.3794e-19
1.99556e-05 0.00010435 -1.39153e-19
1.24327e-05 -0.000140778 1.43397e-19
-1.85695e-05 0.000144943 -7.73071e-20
0.000146915 -1.5991e-05 2.88007e-20
9.76898e-05 -6.53445e-05 1.5522e-19
0.000144997 -0.000251152 1.81899e-21
-0.000144634 0.000250525 -1.14596e-19
-0.000103529 -6.2434e-05 1.37031e-19
0.00010879 -2.40405e-05 1.16718e-19
-0.000164331 -0.000130284 5.57823e-20
1.61551e-05 5.83794e-05 -1.42791e-19
6.39013e-05 -2.37848e-05 4.42621e-20
3.03211e-05 -5.87954e-05 6.85153e-20
-3.10804e-05 6.04102e-05 -2.0312e-19
9.73237e-05 0.000137164 -1.0156e-19
0.000144754 9.74072e-05 -4.51716e-20
4.86588e-05 -3.68356e-05 1.3218e-19
-0.000207149 -9.34724e-06 6.16941e-20
3.39569e-05 -8.40881e-06 -3.82594e-19
-1.65312e-05 -5.93962e-05 1.16415e-19
2.96509e-05 7.58214e-07 -2.84975e-20
-3.43827e-05 -8.89901e-06 -8.54925e-20
-7.85843e-05 -7.49321e-05 1.13384e-19
3.85496e-05 -0.000155651 1.60981e-19
-3.68803e-05 0.00015537 -7.70039e-20
0.000159149 -4.1805e-05 8.79178e-20
9.80464e-05 -7.52907e-05 1.75532e-19
1.1779e-06 0.000113451 -6.66963e-20
-5.222e-07 -0.000113954 1.5037e-19
7.83266e-05 -0.000141119 1.66134e-19
-7.4389e-05 0.000148551 -9.70128e-20
1.10202e-05 2.901e-05 -9.09495e-21
1.05277e-05 -3.07881e-05 -9.70128e-21
5.51683e-05 4.17035e-05 -1.74623e-19
3.76432e-05 5.42574e-05 -2.72848e-20
-8.08784e-05 4.95705e-05 -7.09406e-20
0.000103392 5.20759e-05 -7.70039e-20
0.000103159 -5.30288e-05 6.91216e-20
8.64763e-05 -4.83171e-05 9.09495e-20
8.62959e-05 4.73327e-05 -9.58001e-20
-5.00191e-05 -0.000465728 1.5325e-19
6.84949e-05 0.000107033 -1.60981e-19
-0.000479734 5.62023e-05 -7.09406e-20
-6.07681e-05 -4.52065e-05 8.60988e-20
2.09775e-05 -0.000103625 1.19447e-19
-1.80362e-05 0.000106811 -5.3357e-20
0.000164171 -0.000149262 2.12215e-20
0.000165761 0.000150261 -1.58252e-19
8.97396e-05 5.78596e-05 -1.21266e-19
0.000105191 -2.61406e-05 9.27685e-20
9.77481e-05 6.78779e-05 -8.73115e-20
-6.33517e-06 8.96893e-05 -1.00651e-19
6.588e-06 -9.02137e-05 1.88569e-19
3.31007e-05 8.83683e-06 1.3885e-19
8.95715e-05 -5.83034e-05 1.22479e-19
-1.60678e-05 -2.67091e-05 5.1538e-20
-7.81359e-05 6.34888e-05 -1.24904e-19
7.99417e-05 -6.20411e-05 1.01257e-19
5.52513e-05 -4.07414e-05 1.44913e-19
-6.16522e-05 -4.18977e-05 9.79223e-20
1.26567e-05 2.71335e-05 -3.54097e-19
2.04388e-05 0.000103013 -4.36557e-20
-2.11622e-05 -0.000102759 1.46732e-19
7.8792e-05 4.84211e-05 -1.00044e-19
9.81843e-05 7.43024e-05 -1.41881e-19
-3.46322e-05 7.51839e-05 -8.76147e-20
-3.59678e-05 -5.27929e-05 1.48551e-19
0.000125612 0.000227751 -4.04725e-20
0.000231118 0.000125312 -1.77351e-20
-0.000143664 0.000107456 -5.94203e-20
7.91332e-05 -4.93781e-05 1.04895e-19
8.61768e-05 -1.58003e-05 8.97368e-20
0.000270005 0.00013088 -1.49763e-19
0.00026708 -0.00013009 7.27596e-21
1.75182e-05 -5.91673e-05 1.6856e-19
-0.000147354 -0.000100783 -3.03165e-20
-0.000144583 0.000102983 -9.03431e-20
-6.11224e-05 2.61882e-05 4.82032e-20
-1.5353e-05 2.29999e-05 -6.12393e-20
-0.000120947 0.000161354 -1.87962e-20
-0.000151829 -0.000129786 8.18545e-20
0.000130049 -0.000186226 1.59162e-19
-0.000118253 0.000193094 -6.88184e-20
0.000194819 -0.0001136 9.21621e-20
-0.000132746 -7.18759e-05 1.33089e-19
1.35327e-05 -2.31223e-05 1.57646e-19
-1.59148e-05 -0.000208352 1.72198e-19
-0.000197211 1.75936e-06 -1.18234e-20
0.000114761 0.000157282 1.63709e-20
-0.000114772 -0.000156907 1.06714e-19
-7.08106e-05 5.60353e-05 -1.21266e-19
-3.10185e-05 -2.26533e-06 1.05501e-19
-7.04356e-05 0.000114933 -7.82165e-20
7.44971e-05 -0.000112683 1.89781e-19
-7.05136e-05 -2.09037e-05 1.46732e-19
3.76064e-05 -7.48445e-05 1.44306e-19
0.000112219 -8.80396e-05 2.91038e-20
0.000112668 8.76911e-05 -8.79178e-20
-8.67268e-05 4.56308e-05 -8.24609e-20
-5.39634e-05 3.97792e-05 -9.61033e-20
-6.96179e-05 3.23728e-05 -9.64064e-20
-1.59685e-05 6.47912e-05 -8.06419e-20
0.000266835 0.00026684 -4.98706e-20
1.95041e-05 -0.000106899 1.35818e-19
-1.81065e-05 0.000106658 -8.57957e-20
-2.01777e-05 0.000211247 -4.91127e-20
2.14581e-05 -0.000211497 6.30583e-20
3.02738e-05 -5.65841e-05 -1.75836e-20
2.99904e-05 5.37392e-05 -3.81988e-20
-0.00010289 -5.41024e-05 3.15291e-20
-0.000100697 5.20968e-05 -6.73026e-20
-0.000178698 3.25141e-05 -8.30672e-20
-0.000176344 -3.3339e-05 -1.05501e-19
0.000237098 -0.000131845 1.81899e-20
0.000240463 0.000132609 -1.3885e-19
6.48368e-05 2.43884e-06 1.0247e-19
6.16951e-05 -2.36254e-06 -4.15942e-19
9.29952e-05 4.29541e-05 -9.73159e-20
-5.66259e-06 9.41741e-05 -6.88184e-20
6.20517e-06 -9.24494e-05 1.56736e-19
9.24057e-05 -4.47283e-05 1.2066e-19
-1.02591e-05 -9.75813e-05 1.5037e-19
1.00711e-05 9.68113e-05 -4.79001e-20
8.04267e-05 5.96197e-05 -1.3794e-19
-6.50774e-05 1.12717e-07 -2.72848e-20
-6.57296e-05 -7.76172e-07 -7.45786e-20
8.03656e-05 -5.99116e-05 1.45519e-19
-6.88083e-05 -5.9413e-05 1.20053e-19
0.000117544 0.000203612 -1.09139e-19
-0.000117558 -0.000203626 1.57646e-20
-2.15026e-05 -7.1045e-05 1.83718e-19
-8.63735e-05 5.05505e-05 -1.03682e-19
-1.22719e-05 0.000113926 -1.6189e-19
0.000135636 -0.000239263 1.35666e-19
0.000235485 -0.000112052 5.47213e-20
1.95182e-05 -6.99395e-05 6.0633e-21
1.78407e-05 6.8031e-05 -1.57646e-20
-1.6072e-05 -0.000119554 1.17022e-19
0.000113666 5.91986e-05 -7.15469e-20
9.41169e-05 -3.13661e-05 1.12171e-19
9.39856e-05 2.99447e-05 -1.01257e-19
-0.0002328 -7.33689e-09 4.85064e-21
-0.00023321 2.0817e-09 -4.54747e-20
1.82315e-05 -5.50244e-05 1.8008e-19
-8.69392e-05 5.09897e-05 -7.76102e-20
7.46514e-05 8.27046e-05 -4.12304e-20
7.52197e-05 -8.30826e-05 5.6995e-20
2.3729e-05 6.86912e-05 -8.42798e-20
1.21725e-05 1.97697e-05 -6.66963e-20
0.000259025 -0.000259023 -2.2131e-20
-7.84886e-05 2.59625e-05 -4.06241e-20
-7.70401e-05 -2.43096e-05 -6.4271e-20
-1.76663e-05 5.61107e-05 -8.00355e-20
0.000111108 -5.98916e-05 1.40062e-19
-8.73165e-05 -4.37973e-05 4.00178e-20
-0.000114026 -1.21475e-05 1.87962e-20
-0.000112041 1.87905e-05 -4.06241e-20
-6.82862e-05 -3.20252e-05 1.64315e-19
3.38552e-05 0.000147637 -8.97368e-20
3.49502e-05 -0.000146639 3.03165e-21
4.60758e-05 0.000276198 -1.47944e-19
-4.55149e-05 -0.000276798 6.0633e-22
2.13863e-05 0.000462163 -6.12393e-20
0.000466043 3.20973e-05 -1.54614e-20
7.03953e-05 -1.08863e-05 1.10958e-19
7.01917e-05 8.91769e-06 -2.43745e-19
-7.22826e-06 -2.02089e-05 1.71591e-19
0.000252672 -0.000315082 3.81988e-20
0.000307338 -0.000251574 2.13731e-20
0.000113223 0.000273312 -4.85064e-20
0.000112188 -0.000270815 3.09228e-20
-8.20785e-05 -4.8317e-05 4.66874e-20
7.04784e-05 -7.68191e-05 1.5037e-19
7.57143e-05 -4.09436e-05 1.08533e-19
7.50344e-05 3.97988e-05 -1.29755e-19
5.3213e-05 -5.39091e-05 1.30361e-19
6.97505e-05 7.7755e-05 -1.19447e-19
-5.59735e-06 0.000204476 -5.09317e-20
-2.69385e-06 -0.000222223 1.49763e-19
0.000212345 -6.98495e-06 2.24342e-20
5.29407e-05 5.31326e-05 -1.22479e-19
-2.23539e-05 0.000226087 -1.72804e-20
0.000223486 -1.6557e-05 3.21355e-20
0.000100536 -1.72767e-05 9.45875e-20
0.00010042 1.47611e-05 -2.61328e-19
9.58139e-05 -3.33964e-05 9.39811e-20
9.55167e-05 3.17535e-05 -1.6189e-19
0.000261726 0.000322013 -1.35969e-19
0.000323567 0.000261986 1.03076e-20
7.94225e-05 4.2948e-05 -1.13384e-19
7.97241e-05 -4.37858e-05 1.17022e-19
2.77616e-05 0.000162346 -6.4271e-20
-2.70495e-05 -0.000162013 8.18545e-20
7.38819e-05 2.83174e-05 8.00355e-20
7.1107e-05 -3.17307e-05 -3.1711e-19
0.000110357 -0.000105019 2.42532e-20
0.000110738 0.000105205 -7.27596e-20
-6.59952e-05 -1.55548e-05 2.24342e-20
-7.01922e-05 1.72892e-05 -7.27596e-20
-0.000109745 -0.000205654 5.57823e-20
-0.000231388 -3.62541e-06 -4.72937e-20
-0.000231573 4.07962e-06 -8.12482e-20
0.000109773 0.000205629 -5.39634e-20
0.000103529 0.000199533 -8.67052e-20
0.000153242 0.000153531 -1.0247e-19
0.00010316 -0.000197444 -7.88229e-21
0.000151706 -0.000152518 1.21266e-20
0.000184401 7.63875e-05 1.03076e-20
0.000188892 -7.82357e-05 -1.17628e-19
0.00048736 -6.41576e-05 -1.6189e-19
0.00048149 6.33843e-05 -4.18368e-20
0.000238334 -5.36018e-06 1.33393e-20
0.000162349 4.49535e-05 6.00266e-20
0.000242338 2.78622e-06 -2.11609e-19
0.000163879 -4.9172e-05 -2.26767e-19
0.00022713 7.31939e-05 -1.46125e-19
0.000223807 -7.26319e-05 9.70128e-21
0.000171588 -6.8246e-05 5.6995e-20
0.00017366 -6.76005e-05 2.36469e-20
0.000173389 6.7429e-05 -1.98876e-19
0.000175465 6.67824e-05 -1.36424e-19
-1.45504e-05 9.05061e-05 1.3885e-19
1.10815e-05 -9.97339e-05 -8.97368e-20
-8.11435e-05 -1.58646e-05 3.15291e-20
-0.000101625 -2.79432e-05 4.33526e-20
-1.6846e-05 0.000117195 2.68604e-19
1.00104e-05 -0.000112195 -3.88051e-20
-0.000108537 2.60848e-05 -9.70128e-21
-3.37682e-05 5.44061e-05 -2.24342e-20
-5.74452e-05 0.000141023 -1.10352e-19
-5.49465e-05 -0.000137736 -1.06108e-20
0.000140832 5.66159e-05 -2.9407e-20
7.95806e-05 -7.47687e-05 5.45697e-21
7.62222e-05 7.89837e-05 5.63887e-20
-7.9099e-05 -5.34747e-05 2.24342e-20
2.21792e-05 -0.000109664 4.85064e-21
9.13217e-06 0.000119763 1.07927e-19
8.47311e-05 -1.99321e-05 -3.09228e-20
-3.78556e-05 -0.000170047 -2.48595e-20
-4.59497e-05 0.000163094 -9.61033e-20
0.000168006 3.91106e-05 -5.30539e-20
-0.000112502 2.43409e-05 -6.82121e-20
4.27227e-05 0.000106097 -4.54747e-20
5.32442e-05 -0.000120896 -1.63103e-19
-7.65669e-05 1.32715e-05 2.12215e-21
-0.000115517 -0.000250548 -1.39456e-20
-6.55489e-05 -3.45874e-05 1.57646e-20
0.000250174 0.000118758 4.502e-20
-3.17913e-06 0.000111884 2.34043e-19
2.00414e-05 -0.000108296 2.42532e-21
-0.000253067 0.00012303 6.91216e-20
-0.000246279 -0.000127438 4.79001e-20
-0.00016495 5.18824e-05 -9.004e-20
-5.10497e-05 -7.56976e-05 1.45519e-20
-9.92375e-05 -5.25205e-05 6.48773e-20
-0.000107098 5.20689e-05 -2.42532e-21
-1.67871e-05 -3.674e-05 -4.85064e-21
6.60034e-05 7.50674e-05 1.03076e-20
7.2631e-05 -9.50505e-05 -1.12171e-19
-0.000105764 6.91414e-05 -1.02773e-19
-3.05757e-05 -3.89956e-07 -1.09139e-20
-6.79963e-05 -8.11355e-05 4.79001e-20
-6.95882e-05 7.3924e-05 -7.94292e-20
-2.99833e-05 -0.000112186 6.66963e-21
-3.84343e-05 0.000107377 -6.66963e-20
3.34848e-05 -8.95946e-05 -1.15203e-19
1.23843e-05 7.31651e-05 9.70128e-20
-0.000107909 6.89564e-05 -9.54969e-20
-0.000269098 -0.000269109 1.36424e-21
0.00026736 0.000267377 -4.09273e-20
2.86732e-05 -5.54964e-05 2.42532e-21
2.29104e-05 5.87979e-05 6.48773e-20
0.00026844 0.000285732 -9.56485e-20
-0.000281392 -0.000269703 6.51805e-21
0.000129877 2.26755e-05 -1.43094e-19
0.000104668 -5.68022e-05 6.0633e-22
6.04842e-05 -2.86701e-05 -7.33659e-20
0.00012175 7.98441e-05 -2.11609e-19
9.96499e-05 -9.21288e-05 3.94114e-20
4.02926e-05 7.56116e-05 -2.12215e-20
5.10855e-05 -9.3854e-05 -1.54008e-19
-0.000103345 -0.000197446 4.79001e-20
-0.000106317 0.000199529 7.88229e-21
9.01582e-05 4.93059e-05 -1.01863e-19
8.26539e-05 -6.94448e-05 -7.27596e-21
-0.000145551 6.11073e-05 -1.28542e-19
-0.000118748 0.000184697 2.33437e-19
-5.32202e-05 -0.000151154 -2.12215e-20
-0.000129281 0.00024199 -6.7151e-20
-0.000245991 0.000127645 -6.92732e-20
1.02868e-05 7.27192e-05 7.51849e-20
2.71249e-05 -8.8243e-05 -1.28542e-19
0.00025397 0.000105212 -1.98876e-19
0.00020026 -8.29339e-05 -5.76013e-20
8.58894e-05 4.17887e-05 -9.76191e-20
8.11763e-05 -5.7522e-05 -2.36469e-20
-0.000152438 -3.48385e-05 -1.94026e-20
0.000108017 -3.24203e-05 -6.30583e-20
-0.000129964 -2.056e-05 3.18323e-20
-9.26767e-05 -8.14524e-05 3.27418e-20
-0.000111792 0.000193604 4.24431e-20
-0.000110062 -0.000190633 5.21444e-20
-0.000114777 -0.000133461 1.39456e-20
-8.52598e-05 4.89671e-05 -6.54836e-20
8.44693e-05 4.06451e-05 -7.09406e-20
1.59493e-06 -0.000164487 2.30405e-20
-1.99174e-05 0.000208737 2.98314e-19
-9.89694e-05 8.85278e-05 -2.72848e-20
2.15024e-05 -9.81013e-05 -1.03076e-20
7.72582e-06 9.5708e-05 5.63887e-20
6.11892e-05 1.6124e-05 -1.27329e-19
5.62504e-05 -2.60069e-05 -2.12215e-20
0.0001464 -0.000120408 -8.4583e-20
7.36529e-05 6.51265e-05 -2.26767e-19
6.48047e-05 -7.48148e-05 4.85064e-20
8.16788e-05 -5.79736e-05 5.76013e-21
5.54118e-05 4.60308e-05 -1.38243e-19
5.01805e-05 -5.93163e-05 9.09495e-21
-8.86014e-05 3.96718e-05 -3.09228e-20
4.62649e-05 3.42542e-05 -2.84975e-20
5.59141e-05 -6.54526e-05 -1.10958e-19
-0.000106559 -7.54464e-05 3.6683e-20
1.65194e-05 -5.7631e-05 -1.08533e-19
-1.36952e-05 2.40249e-05 1.46125e-19
0.000113822 1.40167e-05 -9.42843e-20
-8.69738e-05 5.1461e-05 -1.27329e-20
-9.02709e-05 -4.44156e-05 3.39545e-20
-6.84913e-05 -9.20767e-05 4.60811e-20
-7.92455e-05 -5.7337e-05 2.60722e-20
1.47388e-05 -0.000101616 -6.00266e-20
1.66945e-06 9.88549e-05 2.42532e-20
0.000144262 -6.7919e-05 -1.05805e-19
-5.19857e-05 3.54312e-05 3.51671e-20
-4.79485e-05 -4.1377e-05 4.42621e-20
7.59996e-05 -0.000122983 -6.88184e-20
6.9788e-05 0.000106619 -4.69906e-20
-8.43417e-05 4.90174e-05 -2.54659e-20
-3.30888e-05 5.37382e-05 -3.63798e-20
-3.27927e-05 -5.65851e-05 -2.36469e-20
-7.96566e-05 7.52831e-05 -3.21355e-20
1.79776e-05 -0.000150669 -4.88095e-20
1.97581e-05 0.000143993 -8.0945e-20
0.00014946 -1.42816e-05 -6.60899e-20
0.000147724 0.000102028 -7.85197e-20
0.000101658 -7.82276e-05 -7.73071e-20
-0.000116594 -0.000201967 1.09139e-20
-0.00014306 0.000247785 1.95238e-19
0.000110659 -3.0917e-05 -5.21444e-20
1.73118e-05 5.68157e-05 2.72848e-20
3.59344e-05 -8.14649e-05 -1.30361e-19
6.32449e-05 1.76266e-05 -9.58001e-20
-1.34225e-05 -0.000107547 -7.27596e-21
-2.01465e-05 0.000102059 -7.73071e-20
-3.01376e-05 5.96707e-05 2.64966e-19
8.35849e-06 -7.53259e-05 -1.06108e-19
3.42891e-05 -8.75529e-06 -6.30583e-20
4.85863e-05 -3.91439e-05 -1.19447e-19
2.85242e-05 -5.40453e-06 -1.06108e-19
9.8044e-05 6.5596e-05 -8.03387e-20
-3.04463e-05 6.77214e-06 5.03254e-20
-3.67827e-05 -1.01155e-05 6.66963e-20
9.84736e-05 7.12916e-05 -3.85019e-20
-0.000112958 0.000137383 -5.63887e-20
-5.90084e-05 4.48254e-05 -3.03165e-21
4.91317e-05 -0.000167402 -9.70128e-20
4.17247e-05 0.000155792 -4.15336e-20
0.000166967 -4.99655e-05 -1.16718e-19
0.000102446 -9.07835e-05 -4.82032e-20
9.32921e-07 0.000113636 -7.76102e-20
1.37052e-05 -0.000122386 -9.21621e-20
8.45252e-05 -0.000153671 -9.15558e-20
7.96233e-05 0.000136346 -3.85019e-20
1.02467e-05 2.46845e-05 -1.43094e-19
9.4113e-06 -3.52555e-05 -1.57646e-20
5.5216e-05 4.02349e-05 1.94026e-20
6.24906e-05 -6.98461e-05 -1.29148e-19
3.88204e-05 -5.19672e-05 0
3.72989e-05 5.36591e-05 2.18279e-20
-7.58818e-05 -5.2404e-05 3.51671e-20
-0.000161898 -0.000132282 -1.15203e-20
3.01463e-05 -0.000119812 -1.28542e-19
2.15054e-05 0.000105101 -7.73071e-20
0.000101206 4.89763e-05 -2.00695e-19
8.45478e-05 -6.94026e-05 3.75924e-20
8.92281e-05 -7.5907e-05 -1.42487e-20
8.56403e-05 4.46408e-05 -8.79178e-20
8.03523e-05 -6.705e-05 -3.63798e-20
-4.9915e-05 -0.000488285 8.95852e-20
0.000484571 7.0278e-05 -2.2131e-20
0.000161789 0.00014563 -3.58341e-19
0.000127085 -0.000140993 1.09139e-20
8.96556e-05 5.50876e-05 -2.69817e-20
-0.000202887 -1.54229e-05 -4.30494e-20
2.05733e-06 -8.83348e-05 7.27596e-21
-6.37008e-06 8.86276e-05 3.09228e-20
-7.36785e-05 0.00010747 -8.33703e-20
-7.70193e-05 6.27368e-05 3.13473e-19
-2.80946e-05 -7.77107e-05 -7.63976e-20
-0.000105337 -7.16667e-05 4.85064e-20
0.000103038 1.99186e-05 -9.21621e-20
1.32084e-05 2.64679e-05 3.75924e-20
3.64423e-05 -5.94392e-05 -1.03076e-19
-2.89578e-05 -7.72277e-05 2.12215e-20
-3.60212e-05 7.40817e-05 -1.24298e-20
7.87014e-05 4.56455e-05 -1.27329e-20
7.91704e-05 -6.72216e-05 -2.00089e-20
2.20914e-05 0.000103674 -8.94336e-20
3.2777e-05 -0.000113405 -1.23085e-19
-0.000130108 0.000232677 -4.57779e-20
-0.000231862 0.000129039 -4.36557e-20
8.61693e-05 1.00215e-05 -8.97368e-20
0.000263047 0.000127061 -2.58903e-19
0.000215199 -0.000118884 -3.69861e-20
-0.000146293 0.000100665 6.66963e-21
-0.000138867 -0.000103178 8.42798e-20
-5.99715e-05 -2.80671e-05 2.69817e-20
-1.12948e-05 -2.531e-05 2.97102e-20
-1.42875e-05 2.29101e-05 3.51671e-20
0.000132963 0.000165628 -2.91038e-20
-0.000155681 -0.000131991 -2.16763e-20
0.000137099 -0.000199519 -3.45608e-20
0.000134637 0.000189427 -5.21444e-20
0.000208503 -0.000126297 -9.88318e-20
-1.4317e-05 -0.000219127 -1.28845e-20
0.000219015 1.08619e-05 2.72848e-21
0.000113675 0.000155646 1.06714e-19
0.000109892 -0.000136801 -1.39456e-20
-6.82213e-05 -5.81603e-05 3.15291e-20
-2.96266e-05 7.57327e-07 -2.00089e-20
8.15557e-05 -0.000128326 -1.36727e-19
7.69161e-05 0.000113387 -7.27596e-20
-6.91549e-05 1.93942e-05 2.54659e-20
0.000109787 8.43426e-05 -3.23174e-19
8.89978e-05 -9.61131e-05 4.24431e-20
-8.32668e-05 -4.81263e-05 2.42532e-20
-5.99881e-05 4.02316e-05 1.21266e-21
-5.03177e-05 -4.25078e-05 2.00089e-20
-6.57797e-05 -3.43151e-05 2.42532e-20
-0.00012906 -7.69347e-05 3.36513e-20
-1.73623e-05 5.93292e-05 1.39456e-20
-1.01576e-05 -6.40544e-05 3.09228e-20
-0.00026963 0.000269614 4.24431e-21
-1.89792e-05 0.000105128 -5.54792e-20
-1.19226e-05 -0.000111437 -2.42532e-20
-1.97404e-05 0.000208967 3.83807e-19
8.85474e-06 -0.000173899 8.48862e-21
2.84002e-05 4.84958e-05 -2.26161e-19
2.62908e-05 -5.70694e-05 1.81899e-20
-9.53946e-05 -5.40875e-05 3.33481e-20
-0.000101553 5.36506e-05 2.54659e-20
-0.000169981 3.03605e-05 4.79001e-20
-0.000177684 -3.28235e-05 6.60899e-20
0.000234834 0.000128711 -3.14079e-19
0.000173843 -0.000121307 -3.09228e-20
6.11931e-05 -2.88879e-06 -1.33999e-19
6.45298e-05 -4.26191e-05 -7.94292e-20
9.3539e-05 3.93157e-05 -4.60811e-20
3.13917e-06 -9.57781e-05 -4.54747e-21
-5.74674e-06 9.29183e-05 -2.48595e-20
8.57198e-05 -7.65404e-05 -1.97057e-20
-0.000148224 0.000100495 -8.70083e-20
9.3477e-05 -5.60179e-05 -5.1538e-21
8.15435e-05 5.61973e-05 -6.0633e-21
-6.4231e-05 -1.19528e-06 6.4271e-20
-6.05757e-05 -1.97246e-06 6.2452e-20
-6.69217e-05 5.85274e-05 -2.66785e-20
0.000116323 0.000201508 4.79001e-20
0.000102183 -0.000176979 -4.24431e-21
-8.30926e-05 -5.33867e-05 1.33393e-20
-8.36099e-06 -0.000114287 3.88051e-20
0.000142727 -0.000252937 -2.62238e-20
0.000246184 -0.000124669 -6.48773e-20
1.56474e-05 6.43325e-05 -2.69817e-19
1.34712e-05 -7.17608e-05 6.85153e-20
-1.39473e-05 0.000119453 -4.06241e-20
2.73307e-05 -0.000109346 -1.51582e-19
1.05031e-05 9.50364e-05 -4.82032e-20
0.000114531 5.57233e-05 -6.12393e-20
9.28065e-05 2.82103e-05 -5.21444e-20
8.38413e-05 -5.99827e-05 -4.36557e-20
-0.000226049 -2.21933e-09 -1.81899e-21
-0.000231825 -9.54006e-09 4.72937e-20
-8.57037e-05 -5.5294e-05 2.06152e-20
7.33378e-05 7.89514e-05 -2.35256e-19
6.44366e-05 -9.08131e-05 7.63976e-20
2.35414e-05 6.78324e-05 5.8814e-20
2.97485e-05 -6.90808e-05 4.24431e-20
1.66474e-05 -2.20232e-05 2.66785e-20
1.05763e-05 1.87311e-05 3.27418e-20
0.000271651 -0.000271635 1.16718e-20
-7.20819e-05 2.14585e-05 4.72937e-20
-7.65543e-05 -2.62109e-05 6.36646e-20
-1.81274e-05 5.45156e-05 3.75924e-20
-1.16569e-05 -5.65585e-05 3.09228e-20
0.000115594 -7.26338e-05 -3.33481e-20
-8.65384e-05 4.36889e-05 9.70128e-21
-0.000107456 -1.98854e-05 6.79089e-20
-0.000111907 1.46228e-05 4.91127e-20
-6.68541e-05 3.13443e-05 -1.81899e-20
3.14436e-05 0.000142853 -3.81988e-19
2.70258e-05 -0.000139107 4.72937e-20
4.57283e-05 0.000273203 1.90994e-19
5.48607e-05 -0.000225045 8.48862e-21
-2.71275e-05 0.000481485 -9.004e-20
-0.000479229 2.21694e-05 -1.9251e-20
6.97972e-05 7.96587e-06 -5.03254e-20
7.09129e-05 -4.86939e-05 -9.09495e-20
0.000266151 -0.00033057 1.04592e-20
0.000331426 -0.000262333 -9.92865e-20
9.46438e-05 -0.000228431 -1.63709e-20
0.000110163 0.000265953 -3.21355e-19
-8.1393e-05 4.8078e-05 3.81988e-20
7.44661e-05 3.77522e-05 -3.45608e-20
7.35247e-05 -6.5347e-05 -8.00355e-20
7.01651e-05 7.57991e-05 2.97102e-20
7.47716e-05 -9.54261e-05 -4.85064e-20
1.92847e-06 -0.000236034 -2.06152e-20
5.33339e-06 0.000206103 -1.00651e-19
0.000235155 -4.12371e-06 -5.66918e-20
5.32004e-05 5.12103e-05 3.21355e-20
6.13554e-05 -7.60285e-05 -7.76102e-20
2.31305e-05 0.000227328 -1.10049e-19
-0.00022582 -3.34623e-05 -5.00222e-20
9.88956e-05 1.35888e-05 -9.76191e-20
8.71751e-05 -5.18362e-05 -7.82165e-20
9.42019e-05 2.98588e-05 -1.10958e-19
8.45756e-05 -6.085e-05 -4.60811e-20
-0.000265421 0.000325339 4.502e-20
-0.000328319 0.000264936 -1.98573e-20
7.92108e-05 4.11564e-05 7.88229e-21
7.89394e-05 -6.92337e-05 -4.54747e-20
4.13044e-05 -0.000140795 1.75836e-20
2.76261e-05 0.000160652 2.32224e-19
7.03942e-05 -3.16078e-05 -1.43094e-19
7.01978e-05 -2.49201e-05 -5.76013e-20
0.000108002 0.000100599 -3.32875e-19
8.79707e-05 -0.000105463 5.82077e-20
-6.43926e-05 -2.05693e-05 5.45697e-20
-6.50048e-05 1.5318e-05 4.06241e-20
0.000105848 -0.000176027 -1.39456e-20
-0.000223643 -5.99491e-06 2.36469e-20
-0.000230495 3.39788e-06 8.42798e-20
0.000108739 0.000203476 5.1538e-20
0.000100345 0.000194174 -4.05635e-19
0.000149267 0.000148901 -3.4197e-19
8.21909e-05 -0.000180189 -2.24342e-20
0.000123535 -0.00014192 -4.42621e-20
0.000184958 -7.6599e-05 -1.16415e-19
0.000475257 -6.25366e-05 -1.41275e-19
0.00037473 4.93716e-05 -7.09406e-20
0.000107797 4.46653e-05 -4.54747e-20
0.000236847 2.06684e-06 -2.43745e-19
0.000160442 -4.85343e-05 -1.87962e-19
0.00022192 7.11601e-05 -2.51627e-19
0.000165388 -4.26231e-05 -2.72848e-20
0.000160874 -6.35366e-05 -1.57646e-20
0.000123506 -1.48924e-05 -4.60811e-20
0.000169683 6.47903e-05 -2.37681e-19
0.000171243 6.43042e-05 -2.63147e-19
0.000129033 -8.25756e-05 -3.27418e-20
0.000134051 -8.10123e-05 -9.70128e-21
1.45854e-05 3.11094e-06 -7.63976e-20
1.21137e-05 7.42518e-06 -5.03254e-20
3.36549e-05 -1.06932e-06 1.57646e-20
1.16172e-05 -1.70956e-06 -7.88229e-21
1.17866e-05 -1.61631e-06 2.72848e-20
1.05127e-05 2.6042e-05 2.06152e-20
3.5381e-05 -2.11534e-05 -2.18279e-20
1.12364e-05 2.33038e-06 2.36469e-20
3.07321e-05 2.62062e-05 -1.63709e-20
1.26661e-05 1.29638e-06 -9.76191e-20
1.27683e-05 -1.16487e-06 -7.94292e-20
1.10535e-05 5.60027e-08 8.60988e-20
6.9262e-05 -1.45939e-06 -7.03343e-20
-7.36037e-06 -1.30716e-05 5.3357e-20
1.4618e-05 8.3024e-06 -4.91127e-20
2.41032e-05 7.78298e-06 -5.21444e-20
2.93735e-05 2.27877e-05 -8.91305e-20
1.53188e-05 -2.69331e-05 1.81899e-20
9.35743e-06 9.15369e-07 1.10958e-19
1.33181e-05 3.06539e-08 -1.09746e-19
1.3368e-05 -1.35022e-08 -7.39722e-20
1.04483e-05 4.46566e-07 1.17022e-19
1.08373e-05 7.25369e-06 -8.12482e-20
8.50465e-06 1.12895e-06 4.24431e-21
4.55569e-06 6.92542e-06 -8.18545e-20
1.16768e-05 2.03864e-06 -9.09495e-20
1.27663e-05 1.71997e-06 -4.85064e-21
1.19072e-05 -1.09509e-07 -6.30583e-20
1.46642e-05 -1.55983e-05 -1.21266e-20
1.04285e-05 -2.96059e-07 2.54659e-20
2.5411e-05 2.02515e-05 -2.91038e-20
2.85189e-05 -1.84857e-05 -1.21266e-20
-0.00013083 -6.65168e-05 -2.36469e-20
-0.000131129 6.29797e-05 -1.69772e-20
1.01408e-05 2.69758e-07 -3.63798e-21
6.17827e-06 8.84493e-06 -8.91305e-20
-2.52854e-05 -8.11387e-06 -8.12482e-20
-2.93113e-05 9.48531e-06 -1.03076e-20
3.87614e-05 -1.66624e-05 -2.24342e-20
1.19608e-05 1.66005e-06 -2.97102e-20
8.12536e-06 -1.39304e-06 -4.18368e-20
3.2263e-05 -7.10886e-08 -2.18279e-20
1.0876e-05 -7.00064e-06 -1.17628e-19
1.44871e-05 -3.12308e-06 -1.31574e-19
7.83662e-06 6.12521e-06 -4.79001e-20
1.02089e-05 -1.21333e-06 -7.70039e-20
1.45946e-05 -2.36032e-06 -2.36469e-20
1.24855e-05 -4.7245e-06 -2.30405e-20
4.02237e-05 -1.24547e-05 -6.91216e-20
1.27393e-05 -4.37076e-07 -1.21266e-20
9.81288e-06 -2.59105e-06 -7.27596e-21
2.06294e-05 -1.17073e-06 -7.15469e-20
2.06398e-05 1.16098e-06 1.62496e-19
6.64627e-06 1.91923e-06 4.18368e-20
1.93232e-05 -1.03629e-05 -6.18456e-20
1.93311e-05 1.03705e-05 1.57646e-19
1.18047e-05 3.6429e-06 -8.48862e-20
-3.4105e-05 -0.00012451 -4.85064e-20
-3.42571e-05 0.000124958 -7.88229e-21
1.40733e-05 -4.76898e-06 -7.82165e-20
1.40632e-05 4.76774e-06 1.90994e-19
1.0202e-05 2.98866e-07 -4.36557e-20
9.54895e-05 -6.52149e-05 6.66963e-21
-2.35699e-05 5.39236e-05 8.30672e-20
1.19597e-05 -1.65656e-06 -8.12482e-20
1.19951e-05 -7.79415e-08 -7.33659e-20
9.92388e-06 4.8313e-07 -3.15291e-20
1.25345e-05 7.12387e-06 -5.45697e-20
2.19872e-05 7.28781e-06 1.81899e-21
3.96608e-05 -1.64285e-05 -1.94026e-20
3.96892e-05 1.64403e-05 4.85064e-21
3.67934e-05 3.12755e-05 -4.79001e-20
1.1651e-05 -4.28997e-06 -5.5176e-20
1.16174e-05 4.43029e-06 1.54614e-19
9.40351e-07 1.92412e-05 -1.45519e-19
4.93572e-06 -8.27109e-06 4.91127e-20
1.02092e-05 -2.04358e-07 2.06152e-20
9.08302e-06 -9.19808e-07 2.12215e-20
-1.81888e-05 -3.94135e-05 -4.24431e-20
-5.75789e-05 9.97207e-05 1.94026e-20
-5.79343e-05 -0.000100336 -1.81899e-21
1.0445e-05 1.45022e-06 -7.51849e-20
5.56053e-06 1.13049e-06 -4.06241e-20
9.26787e-06 2.43635e-06 1.63709e-19
1.47163e-05 6.32387e-05 6.66963e-20
2.84864e-05 -8.15092e-05 -2.60722e-20
-2.15508e-05 4.42964e-05 -1.51582e-20
2.82762e-05 4.01969e-06 -1.18234e-19
1.67666e-05 -7.92007e-06 3.33481e-20
7.43235e-06 -2.55378e-06 -3.51671e-20
7.3004e-06 2.36111e-06 6.91216e-20
1.11578e-05 -7.68729e-07 -9.58001e-20
9.36276e-06 9.18037e-07 1.37637e-19
1.06025e-05 -8.72528e-06 -7.15469e-20
1.05614e-05 8.81147e-06 1.70379e-19
9.4021e-06 -2.46011e-06 -3.15291e-20
1.17143e-05 -1.97259e-06 -7.63976e-20
6.98038e-06 -4.92355e-06 -5.27507e-20
6.79315e-06 4.83778e-06 1.15809e-19
8.74986e-06 1.05308e-05 -2.36469e-20
1.06701e-05 1.28391e-07 6.36646e-20
8.91646e-06 2.18119e-06 -3.69861e-20
9.17708e-06 4.57734e-05 -1.53401e-19
4.63308e-06 8.89533e-08 1.27329e-20
1.03438e-05 3.99821e-07 1.58252e-19
-6.32463e-06 1.10601e-05 -3.21355e-20
8.70127e-06 -9.22128e-06 -3.39545e-20
1.05607e-05 1.55649e-06 -8.42798e-20
5.13442e-06 -7.9877e-07 -5.45697e-20
1.85468e-05 -8.84523e-06 2.91038e-20
1.69407e-05 9.90994e-06 -1.19447e-19
1.1132e-05 -9.23185e-08 -6.12393e-20
8.30204e-07 -1.9575e-05 -8.48862e-20
1.1849e-05 -9.60497e-07 -1.11565e-19
1.1868e-05 8.86475e-07 -1.15203e-20
4.43706e-06 1.06896e-06 -1.21266e-20
2.53261e-05 3.15208e-05 -4.36557e-20
2.59087e-05 -3.25971e-05 -3.69861e-20
1.45946e-05 3.11484e-06 -9.88318e-20
4.02624e-06 -6.07585e-06 -8.60988e-20
1.28362e-05 -1.25606e-07 -1.17022e-19
1.29064e-05 1.20694e-07 -4.91127e-20
1.02632e-05 -3.05448e-08 5.5176e-20
1.11595e-05 7.13685e-07 6.79089e-20
1.1418e-05 -1.01426e-06 -6.97279e-20
-4.79951e-05 8.31221e-05 3.15291e-20
5.12072e-05 -8.87163e-05 -1.81899e-21
1.03181e-05 -5.18458e-07 1.75836e-20
9.22138e-06 1.52998e-06 -8.00355e-20
6.78578e-06 -2.07233e-06 8.48862e-21
1.47099e-05 -3.18788e-06 -1.28542e-19
7.56405e-07 8.49382e-06 9.45875e-20
4.58988e-05 1.15317e-05 -1.21266e-20
1.07535e-05 -2.14588e-07 -1.01863e-19
9.47432e-06 -4.16543e-06 4.00178e-20
2.19307e-05 1.56077e-05 -6.54836e-20
3.33872e-06 2.6728e-08 5.6995e-20
1.13873e-05 8.7826e-07 1.01863e-19
9.79246e-06 -4.64233e-05 -1.06108e-19
1.1441e-05 1.4472e-06 6.48773e-20
1.02758e-05 -1.32823e-06 -1.12171e-19
6.84102e-06 -1.02278e-05 -6.00266e-20
1.32e-05 -3.3275e-07 -1.20053e-19
1.3239e-05 2.99367e-07 -6.97279e-20
1.05141e-05 -5.87586e-07 1.15203e-20
1.14325e-05 -1.41747e-06 -5.57823e-20
1.73403e-05 1.88925e-06 -1.04895e-19
1.81938e-05 -1.75379e-06 4.24431e-21
1.21718e-05 -1.7111e-07 -1.20053e-19
1.2242e-05 2.01581e-07 6.66963e-21
1.17137e-06 -3.54824e-06 -4.85064e-21
1.0929e-06 3.43217e-06 8.42798e-20
1.13646e-05 5.9242e-07 -1.33393e-20
4.89028e-05 -1.55547e-05 -7.51849e-20
-1.0112e-05 7.6207e-06 -1.0247e-19
9.98409e-06 -3.38184e-07 -2.42532e-21
1.39759e-05 2.14662e-06 -8.79178e-20
1.55713e-05 -4.72484e-06 -8.30672e-20
1.55788e-05 4.73013e-06 1.6856e-19
1.18135e-05 -2.43552e-06 -8.06419e-20
1.17893e-05 2.41226e-06 2.06152e-19
1.26091e-05 -3.74743e-07 -5.82077e-20
7.94913e-06 -6.04898e-07 -7.27596e-21
1.3857e-05 -2.2781e-06 -9.27685e-20
2.54295e-05 -2.11294e-05 -2.18279e-20
2.54469e-05 2.11415e-05 9.70128e-20
1.13974e-05 1.59457e-06 1.57039e-19
9.8947e-06 -8.33173e-08 -7.88229e-21
9.37092e-06 -1.0711e-06 6.00266e-20
2.33785e-05 1.55937e-06 -1.04895e-19
1.18939e-05 -1.02891e-05 6.2452e-20
1.0175e-05 -1.25148e-06 -9.58001e-20
9.23732e-06 4.23645e-06 -1.48551e-19
1.13923e-05 -1.60918e-06 -4.85064e-20
1.99325e-05 2.93097e-05 -7.88229e-20
-8.22653e-06 9.08094e-06 1.17628e-19
6.97714e-05 9.96923e-06 -2.72848e-20
1.1361e-05 -5.74552e-07 -8.12482e-20
4.37479e-06 2.14466e-05 -1.13384e-19
8.43237e-06 2.53958e-07 -2.42532e-20
6.81008e-06 2.86697e-07 3.63798e-21
1.49003e-05 -8.82504e-06 -1.24904e-19
1.58711e-05 -4.93861e-07 -4.9719e-20
1.22659e-05 2.34315e-06 1.85537e-19
1.33005e-05 3.79142e-06 -1.10352e-19
-8.96903e-07 -6.22697e-06 1.75836e-20
1.21067e-05 1.18004e-06 -5.21444e-20
1.15831e-05 6.46744e-07 -3.88051e-20
1.22799e-05 -2.36814e-06 -6.00266e-20
9.45412e-06 -1.11635e-06 -4.85064e-21
4.0637e-05 -1.87781e-05 -3.94114e-20
4.0665e-05 1.87889e-05 2.78912e-20
9.01229e-06 -1.7214e-06 -2.06152e-20
-5.81316e-05 -5.00986e-05 -7.82165e-20
-6.05285e-05 4.81893e-05 -3.63798e-21
2.1583e-05 -7.5104e-06 -3.33481e-20
2.01481e-05 -3.12192e-05 -1.10958e-19
1.21307e-05 -9.76351e-07 3.03165e-21
1.19535e-05 -2.46209e-07 -2.72848e-20
1.22335e-05 -2.24902e-07 -1.09139e-19
1.22115e-05 1.72104e-07 0
1.05772e-05 4.20482e-07 -4.30494e-20
6.92066e-06 4.52708e-07 -1.23085e-19
1.26751e-05 1.23823e-07 -8.67052e-20
1.0507e-05 -3.3056e-08 7.88229e-21
9.14866e-05 4.40345e-05 -7.45786e-20
-2.18065e-05 -4.26365e-05 3.45608e-20
8.63421e-06 -1.38681e-05 -6.18456e-20
3.28412e-05 6.27817e-07 -2.91038e-20
1.23595e-05 1.35924e-06 -2.97102e-20
1.23331e-05 -1.36887e-06 -1.3218e-19
1.89711e-05 6.7453e-06 -2.91038e-20
1.18491e-05 -3.93549e-06 -6.66963e-21
1.70263e-05 -1.12264e-05 -3.27418e-20
1.70363e-05 1.12299e-05 1.48551e-19
-3.56991e-06 1.76806e-06 -8.67052e-20
4.39231e-06 -2.17118e-05 -8.30672e-20
9.1059e-06 -9.04106e-06 -3.27418e-20
1.06242e-05 7.40655e-07 -3.88051e-20
2.15031e-05 -1.40457e-05 -1.07927e-19
1.39493e-05 3.81384e-06 -1.81899e-20
1.65049e-05 1.53231e-06 -1.20053e-19
1.33205e-05 -3.47029e-06 -2.00089e-20
1.74689e-05 6.68081e-05 2.48595e-20
3.73135e-05 -7.00651e-05 -2.30405e-20
3.67034e-06 -6.81275e-06 -3.63798e-21
3.65991e-06 6.77818e-06 1.77048e-19
-2.5658e-05 -7.96191e-06 -1.04289e-19
-2.61537e-05 1.0386e-05 -2.72848e-20
-8.19296e-05 5.20613e-05 -9.64064e-20
-8.39484e-05 -5.14188e-05 -6.12393e-20
3.72937e-05 -1.89736e-05 -4.00178e-20
3.73219e-05 1.89845e-05 3.09228e-20
1.247e-05 3.58454e-06 -1.46125e-19
1.24526e-05 -3.51603e-06 1.30361e-19
1.12645e-05 2.13249e-06 1.80686e-19
2.25625e-05 -4.05752e-06 -1.26117e-19
1.31022e-05 -3.233e-06 1.87962e-20
1.031e-05 -1.29243e-06 -8.30672e-20
1.12761e-05 -2.16564e-06 -3.45608e-20
2.1894e-05 2.36617e-06 -1.57646e-20
1.15788e-05 1.56953e-06 1.00044e-19
-1.25159e-05 -3.91734e-05 -1.14596e-19
-1.26383e-05 3.88149e-05 -1.66134e-19
1.16093e-05 -1.57127e-06 -4.30494e-20
8.40812e-06 1.62515e-05 -3.75924e-20
5.12013e-05 8.87078e-05 -6.91216e-20
-3.30065e-05 -5.71635e-05 7.88229e-21
4.86715e-06 -5.49359e-06 4.36557e-20
-4.3927e-06 -9.29639e-06 -6.79089e-20
3.8071e-05 -6.1323e-05 -5.03254e-20
1.209e-05 1.13806e-06 -6.60899e-20
1.15453e-05 4.6229e-07 -4.48684e-20
2.23572e-06 -8.59398e-06 -3.81988e-20
2.23734e-06 8.45151e-06 1.97664e-19
3.50431e-05 6.48803e-05 -2.54659e-20
1.24963e-05 3.19194e-06 -1.16415e-19
1.03806e-05 1.47306e-06 1.60677e-19
1.45913e-05 -6.09662e-07 -6.91216e-20
1.4589e-05 5.81166e-07 2.09184e-19
-0.000120268 -1.00738e-09 -7.27596e-21
-0.000120254 1.05261e-09 -3.03165e-21
8.62358e-06 -3.97918e-06 2.42532e-21
5.8172e-06 -8.96333e-07 -5.21444e-20
1.05716e-05 -1.01026e-05 -6.73026e-20
1.05294e-05 1.01114e-05 1.80686e-19
4.03771e-05 -1.02593e-05 -8.36735e-20
3.50076e-05 -3.3717e-05 -8.60988e-20
1.40207e-05 3.99746e-06 -2.84975e-20
-1.62488e-05 4.6088e-05 -1.49157e-19
-1.63712e-05 -4.70002e-05 -8.24609e-20
2.1127e-05 -1.64115e-05 -8.42798e-20
1.03775e-05 -1.43707e-06 -4.42621e-20
-5.51973e-06 -3.30391e-06 -2.36469e-20
-3.53835e-05 2.48784e-05 -1.437e-19
-3.5512e-05 -2.4893e-05 -5.45697e-20
8.42207e-06 1.06563e-05 -2.12215e-20
4.65324e-06 -2.06101e-05 -2.06152e-20
4.68708e-06 2.06278e-05 1.93419e-19
4.44431e-05 9.55715e-05 -1.03076e-20
4.27135e-06 -9.50318e-05 -4.85064e-21
1.27866e-05 -4.68415e-07 -3.27418e-20
7.72879e-06 4.83888e-07 2.24342e-20
1.26716e-05 2.07523e-06 -9.27685e-20
1.2724e-05 -2.16619e-06 1.66741e-19
5.20693e-06 6.93315e-07 -4.06241e-20
1.36602e-05 1.48775e-07 -5.45697e-20
9.76955e-06 3.33678e-06 -2.78912e-20
1.67731e-05 4.04942e-05 -4.24431e-21
1.67622e-05 -4.04678e-05 1.81899e-21
-1.0656e-05 -7.68509e-06 -3.27418e-20
1.15914e-05 -1.60191e-06 -5.76013e-20
1.32685e-05 -1.29801e-06 -8.60988e-20
1.3263e-05 1.27061e-06 1.90994e-19
1.12684e-05 -1.17324e-06 -7.21532e-20
1.15665e-05 1.59072e-06 3.45608e-20
1.28488e-05 -5.82474e-08 -9.21621e-20
1.29156e-05 8.12934e-08 -7.88229e-21
1.04774e-05 -5.29267e-09 2.42532e-21
1.12623e-05 1.14985e-06 6.48773e-20
1.27233e-05 -1.48017e-07 -2.24342e-20
9.98582e-06 -1.16459e-08 1.03076e-20
1.68358e-05 1.19211e-06 -8.24609e-20
1.68928e-05 -1.36046e-06 1.76442e-19
1.58625e-05 -2.13062e-06 -6.54836e-20
1.58896e-05 2.11751e-06 1.99483e-19
1.36693e-05 1.09922e-07 -3.75924e-20
9.58235e-06 3.46564e-06 1.03076e-20
1.24533e-05 6.89524e-07 1.71591e-19
1.2454e-05 -7.20565e-07 -8.18545e-20
3.66683e-05 4.72236e-05 -1.87962e-20
1.2382e-05 -4.46289e-05 -1.39456e-20
1.35803e-05 6.76126e-06 -8.67052e-20
1.34902e-05 -6.75557e-06 1.64922e-19
1.6728e-05 -1.3946e-05 -4.30494e-20
1.67333e-05 1.39794e-05 1.74623e-19
-2.29351e-06 -2.4401e-05 -6.18456e-20
-2.46825e-06 2.38725e-05 -1.43094e-19
8.78589e-05 7.91942e-05 -7.15469e-20
-0.000128417 -2.09201e-05 -6.12393e-20
1.55346e-05 2.87072e-05 1.31574e-19
2.30273e-05 2.17735e-05 5.1538e-20
1.55139e-05 -2.86994e-05 -8.48862e-21
2.30118e-05 -2.17609e-05 -1.09139e-20
-1.99594e-05 -6.05513e-05 3.81988e-20
-0.000128503 2.05093e-05 -4.30494e-20
3.04422e-05 -1.26095e-05 6.18456e-20
7.42703e-05 -9.77707e-06 1.15203e-20
7.42172e-05 9.77008e-06 -1.87962e-20
3.04146e-05 1.25981e-05 -3.81988e-20
3.80186e-05 -1.12502e-06 6.73026e-20
2.59722e-05 -9.10231e-06 1.44913e-19
3.54637e-05 1.07054e-05 4.00178e-20
3.79883e-05 1.11771e-06 -4.54747e-20
3.54364e-05 -1.06988e-05 -4.06241e-20
2.59532e-05 9.0875e-06 -7.63976e-20
2.73724e-05 -8.30418e-06 -6.30583e-20
2.6903e-05 -8.45038e-06 -5.21444e-20
2.73926e-05 8.30486e-06 1.21266e-19
2.69216e-05 8.45154e-06 8.42798e-20
-3.78217e-05 -0.000107871 1.53401e-19
1.13235e-05 9.97848e-05 1.57646e-20
1.5191e-05 -9.0397e-05 1.45519e-19
-8.08566e-05 -1.40089e-05 9.82254e-20
-0.000101253 -2.52345e-05 1.08533e-19
1.02501e-05 0.000112273 -1.45519e-20
1.7501e-05 -0.000117273 7.94292e-20
-0.000108882 2.94976e-05 1.20963e-19
-3.32608e-05 5.57691e-05 8.73115e-20
-5.97245e-05 -0.000131837 1.0823e-19
-5.34428e-05 0.000148179 1.05805e-19
0.000143149 7.01006e-05 2.12215e-21
7.96348e-05 7.50246e-05 7.27596e-21
-7.61477e-05 -7.87295e-05 1.45519e-19
-3.76209e-05 -7.59114e-05 1.53705e-19
-1.20682e-05 -7.26678e-05 1.2551e-19
-8.71612e-06 -0.000119939 1.38243e-19
2.2383e-05 0.000109829 4.60811e-20
8.63671e-05 -5.98311e-06 1.01863e-19
-4.54992e-05 -0.000159452 6.69994e-20
-4.04807e-05 0.000173063 1.08533e-19
0.00016844 5.38058e-05 2.72848e-20
-7.07484e-05 -7.14775e-05 9.45875e-20
-0.000110816 2.86468e-05 1.30058e-19
-8.0345e-05 -7.19788e-05 8.60988e-20
5.35509e-05 0.000120585 3.51671e-20
-7.55948e-05 1.62156e-05 1.00348e-19
-0.00011784 -0.000239504 6.44225e-20
-6.64073e-05 -3.29486e-05 6.0633e-20
0.0002517 0.000131785 -3.80472e-20
2.01739e-05 0.000108415 2.12215e-20
3.78312e-06 -0.000111941 8.06419e-20
-0.000247194 0.000122729 7.82165e-20
-0.000252321 -0.000127896 -3.27418e-20
-0.000164607 5.68957e-05 1.1399e-19
-5.91539e-05 -4.69099e-05 6.30583e-20
-0.00010236 -5.11037e-05 1.69772e-20
-0.000104126 5.36968e-05 1.437e-19
-1.71916e-05 -3.51229e-05 8.24609e-20
7.29204e-05 9.47641e-05 3.81988e-20
-0.000104019 7.38332e-05 1.75229e-19
-3.01005e-05 1.5003e-06 6.60899e-20
-6.54558e-05 7.8185e-05 2.40107e-19
-3.25791e-05 0.000113484 2.02211e-19
3.37787e-05 8.95415e-05 6.66963e-21
-0.00010514 7.37365e-05 1.71895e-19
-0.000262132 -0.000262113 -2.74364e-20
0.000273309 0.000273295 -5.25991e-20
2.88023e-05 5.57806e-05 5.76013e-20
0.000274837 0.000299242 -3.16807e-20
-0.000281796 -0.000263062 1.1975e-20
0.000104444 5.68541e-05 4.9719e-20
0.000129864 -2.28028e-05 1.66741e-19
6.03992e-05 -1.53392e-05 1.20053e-19
9.94452e-05 9.20449e-05 6.73026e-20
0.000121737 -7.99753e-05 1.38243e-19
5.14112e-05 9.37637e-05 4.36557e-20
-0.000103739 0.000198226 7.45786e-20
-0.000106075 -0.000198769 1.51582e-20
8.24555e-05 6.95185e-05 6.54836e-20
9.03311e-05 -4.93491e-05 9.09495e-20
-0.00014411 6.66415e-05 1.00044e-19
-5.30572e-05 0.000151175 -6.12393e-20
0.000119064 -0.00018473 3.63798e-21
6.4461e-05 -7.40801e-05 4.85064e-21
-0.000127879 0.000252814 5.77529e-20
-0.000245848 0.000134046 9.61033e-20
2.74908e-05 8.82053e-05 2.60722e-20
-1.01796e-05 -7.22259e-05 1.17022e-19
0.000199822 8.27518e-05 7.94292e-20
0.000253991 -0.000105221 3.81988e-20
1.39633e-05 -2.44801e-05 1.21872e-19
8.09754e-05 5.63318e-05 1.01863e-19
8.60981e-05 -4.32641e-05 5.39634e-20
-5.17954e-05 -3.56093e-05 4.06241e-20
-2.21439e-05 -5.76444e-05 2.33437e-19
-0.000152027 -3.0319e-05 1.14899e-19
0.000107969 -1.75703e-05 1.10958e-19
-0.000131683 -1.73943e-05 1.23994e-19
-9.57368e-05 -8.03138e-05 3.94114e-20
-0.000111561 -0.000193203 -8.97368e-20
-0.000110329 0.000191096 6.36646e-20
-0.000116438 -0.000127907 1.12171e-19
-8.22244e-05 5.23881e-05 2.12822e-19
8.25978e-05 5.76382e-05 8.67052e-20
2.02709e-05 -0.000208755 -6.54836e-20
1.68073e-06 0.000164489 -5.45697e-21
-9.61683e-05 8.93844e-05 1.40669e-19
2.17133e-05 9.83869e-05 7.76102e-20
-6.88904e-06 -9.59485e-05 9.94381e-20
5.84104e-05 2.75801e-05 1.85537e-19
5.90658e-05 -1.45003e-05 7.82165e-20
0.000144064 -0.000103406 -1.81899e-20
6.50674e-05 7.39472e-05 1.77655e-19
7.32922e-05 -6.61527e-05 8.24609e-20
8.3556e-05 -4.09793e-05 6.0633e-20
4.00988e-05 -0.000105446 1.15203e-20
5.20819e-05 6.03557e-05 1.67347e-19
5.34777e-05 -4.515e-05 6.54836e-20
-8.73195e-05 4.19383e-05 1.28542e-19
5.60574e-05 6.54726e-05 4.72937e-20
-0.000106868 -7.31703e-05 9.27685e-20
-3.79389e-05 9.02827e-06 4.85064e-20
1.67233e-05 5.74084e-05 -5.03254e-20
0.00011423 2.87045e-05 5.6995e-20
-8.41564e-05 5.38474e-05 1.87356e-19
-9.16288e-05 -4.17597e-05 8.97368e-20
-7.14834e-05 -8.66151e-05 8.00355e-20
-8.17394e-05 -5.33714e-05 7.21532e-20
-1.26991e-06 -9.88686e-05 1.2066e-19
1.5192e-05 0.000101776 8.18545e-20
0.000142064 -5.42312e-05 9.91349e-20
-4.79382e-05 3.80432e-05 1.58252e-19
6.96055e-05 -0.000106429 -1.03986e-19
7.6164e-05 0.00012179 3.03165e-21
-8.25645e-05 5.23694e-05 1.86143e-19
-3.20153e-05 5.45446e-05 7.57912e-20
-3.38793e-05 -5.58125e-05 1.34605e-19
-2.12298e-05 -0.000100817 1.00651e-19
-7.64155e-05 7.96648e-05 2.33437e-19
1.26558e-05 -0.000140593 8.79178e-21
2.5285e-05 0.000153941 7.27596e-21
0.000149471 -7.9141e-07 9.39811e-20
0.000150291 0.000117135 -1.48551e-20
9.96973e-05 -6.16783e-05 -1.39456e-20
0.000142975 -0.000247672 -9.76191e-20
-0.000116616 0.000202003 1.21266e-20
0.000110422 -1.6175e-05 9.54969e-20
3.62439e-05 8.13598e-05 3.63798e-20
6.31702e-05 3.10586e-05 1.53401e-19
-1.28754e-05 0.000107754 1.31574e-19
3.03235e-05 -5.99537e-05 7.45786e-20
8.45233e-06 7.53418e-05 -9.94381e-20
4.75544e-05 -3.49898e-05 2.68604e-19
4.88987e-05 3.9771e-05 4.36557e-20
-1.69115e-05 -5.52239e-05 1.58252e-19
2.85065e-05 5.31282e-06 1.0732e-19
0.00010106 8.10377e-05 5.76013e-21
-3.23115e-05 -8.77744e-06 1.437e-19
0.000101757 9.02668e-05 1.57646e-20
-0.000110356 0.00014445 1.30664e-19
-5.47908e-05 4.77643e-05 2.10396e-19
3.92735e-05 -0.000155752 -1.97057e-20
4.98907e-05 0.000167157 1.09139e-20
0.000166289 -3.50785e-05 1.34908e-19
0.000100168 -7.292e-05 -8.60988e-20
-5.42125e-07 -0.000113492 1.01863e-19
1.41601e-05 0.000122511 7.63976e-20
7.99781e-05 -0.000141193 -7.24564e-20
8.51371e-05 0.000149974 -2.24342e-20
1.00444e-05 3.57114e-05 1.72198e-19
9.56091e-06 -2.42714e-05 7.57912e-20
6.25864e-05 6.98343e-05 1.87962e-20
3.88079e-05 5.22065e-05 8.12482e-20
-8.15091e-05 -4.85894e-05 -1.57646e-20
-0.000163191 -0.000126015 1.12626e-19
3.08872e-05 0.000119522 3.15291e-20
8.44109e-05 6.946e-05 1.01257e-19
0.000101228 -4.91071e-05 1.33393e-19
8.00424e-05 6.70271e-05 2.12215e-20
8.59644e-05 -4.48081e-05 5.94203e-20
-5.1959e-05 -0.000472301 -4.28978e-20
0.000484666 8.14842e-05 -5.68434e-20
2.13833e-05 -0.000102778 -2.30405e-20
0.000126813 0.000140771 2.42532e-20
0.000161785 -0.000145744 5.5176e-20
8.88126e-05 7.56241e-05 -7.88229e-21
-0.000203732 -1.0418e-05 1.01712e-19
2.16914e-06 8.85706e-05 1.08533e-19
6.55777e-06 -8.94111e-05 1.50976e-19
-6.97642e-05 0.000113536 2.107e-19
3.25329e-05 9.11523e-06 3.5349e-19
9.01019e-05 -5.53118e-05 5.45697e-21
-1.39234e-05 -2.77309e-05 1.04895e-19
-2.79281e-05 7.77219e-05 -6.48773e-20
7.74353e-05 -6.30377e-05 4.48684e-20
5.4968e-05 -3.93826e-05 2.19491e-19
-6.00159e-05 -4.08878e-05 9.82254e-20
-0.000104965 -6.55945e-05 1.11868e-19
0.000102986 3.48595e-05 1.27329e-19
3.72313e-05 5.92697e-05 -4.85064e-20
-2.99368e-05 7.69958e-05 1.85234e-19
-2.05934e-05 -0.000102616 1.20053e-19
7.90107e-05 6.71766e-05 -2.00089e-20
3.33748e-05 0.000113462 5.57823e-20
-3.74226e-05 -5.22907e-05 3.26205e-19
-0.000128943 0.000240839 -1.21266e-20
-0.000232514 0.000135361 3.65314e-20
8.44624e-05 2.39932e-05 1.5037e-19
7.89979e-05 -4.58167e-05 4.30494e-20
0.000214755 0.000118689 7.09406e-20
0.000263096 -0.000127137 -1.21266e-20
1.73785e-05 -5.77365e-05 2.41926e-19
-0.000142031 0.000100697 1.29148e-19
-0.000143151 -0.000103244 -2.30405e-20
-6.03948e-05 -2.59201e-05 5.24475e-20
-9.16429e-06 2.52024e-05 1.17628e-19
0.000137465 0.000177472 -3.57735e-20
-0.000156388 -0.000125697 8.85242e-20
0.00013257 -0.000187061 -2.27374e-20
0.000139201 0.000202133 -1.66741e-20
0.00020734 -0.000113557 2.84975e-20
1.3672e-05 -2.16861e-05 4.00784e-19
-1.70823e-05 -0.000208889 -2.80428e-20
0.000220074 2.22989e-05 5.00222e-21
-0.000113512 -0.0001552 6.97279e-20
0.000109888 0.000136939 2.42532e-21
-7.03337e-05 -5.61205e-05 8.30672e-20
-2.98389e-05 1.81661e-06 8.36735e-20
7.60175e-05 -0.000111835 -8.51893e-20
8.25243e-05 0.000127829 1.81899e-21
-6.90804e-05 2.14916e-05 6.00266e-20
3.79245e-05 -7.37722e-05 1.32786e-19
8.88449e-05 9.60322e-05 9.21621e-20
0.000109776 -8.44477e-05 1.24298e-19
-8.5337e-05 -4.51649e-05 1.21266e-21
-5.58517e-05 4.27906e-05 1.89781e-19
-6.78978e-05 -3.11901e-05 9.21621e-20
-0.000130734 -7.13156e-05 1.18841e-19
-1.16954e-05 6.2572e-05 1.83718e-19
-0.000274695 0.000274709 2.41016e-20
-1.14188e-05 0.000111583 1.03986e-19
1.97832e-05 -0.000106334 3.15291e-20
2.02886e-05 -0.000208732 6.0633e-22
8.99499e-06 0.000173972 -1.81899e-21
2.64634e-05 5.72442e-05 2.00695e-19
2.81425e-05 -4.82887e-05 7.27596e-20
-0.000100521 -5.18535e-05 -2.12215e-20
-9.79048e-05 5.54712e-05 1.67347e-19
-0.000174999 3.34476e-05 -4.48684e-20
-0.000172725 -2.98222e-05 8.85242e-20
0.000173423 0.000121111 8.85242e-20
0.000234813 -0.000128791 7.70039e-20
6.41199e-05 4.30887e-05 4.12304e-20
6.13326e-05 3.3072e-06 3.43789e-19
9.36381e-05 5.60191e-05 1.54614e-20
3.51133e-06 9.78052e-05 1.62496e-19
6.18933e-06 -9.15624e-05 8.88273e-20
-0.000146801 0.000106331 1.05198e-19
9.35635e-05 -3.93213e-05 1.27329e-20
-1.06658e-05 -9.79023e-05 1.58252e-19
8.57944e-05 7.60372e-05 1.00044e-20
-6.43946e-05 5.89723e-07 -5.45697e-21
-6.1372e-05 6.67233e-07 1.09139e-19
8.13851e-05 -5.68426e-05 -1.12171e-20
-6.53042e-05 6.04901e-05 1.55827e-19
0.000102226 0.000177053 -3.94114e-20
-0.000116148 -0.000201177 4.9719e-20
-2.18382e-05 -7.00331e-05 2.37681e-19
-8.57492e-05 -5.07101e-05 5.3357e-20
-9.24403e-06 -0.000113999 7.45786e-20
0.000138271 -0.000241235 -6.97279e-20
0.000242469 -0.000112042 -4.53232e-20
1.35795e-05 7.32466e-05 2.20098e-19
1.55538e-05 -6.27128e-05 9.82254e-20
-1.30613e-05 0.00011961 9.27685e-20
2.76958e-05 0.00010923 5.09317e-20
0.000114983 7.26995e-05 2.42532e-20
8.3643e-05 6.00515e-05 1.69772e-20
9.29194e-05 -2.8584e-05 1.10958e-19
-0.000226008 1.9325e-09 2.97102e-20
-0.000232015 9.6438e-09 -5.45697e-21
1.80287e-05 -5.39608e-05 3.0074e-19
-8.79117e-05 -5.24893e-05 8.24609e-20
6.46877e-05 9.06784e-05 1.33393e-19
7.29916e-05 -7.9162e-05 1.29148e-19
2.97539e-05 6.93905e-05 1.28542e-19
1.50323e-05 2.11346e-05 1.11565e-19
0.000264107 -0.000264122 -4.75969e-20
-7.62487e-05 2.44666e-05 -3.39545e-20
-7.31865e-05 -2.3315e-05 1.1399e-19
-1.27719e-05 5.58017e-05 1.55827e-19
0.000115064 -5.54447e-05 5.91172e-20
-8.37204e-05 4.606e-05 1.85537e-19
-0.00011154 -1.46524e-05 -5.1538e-20
-0.000108107 1.70194e-05 1.56433e-19
-6.52377e-05 3.34819e-05 1.1399e-19
2.67828e-05 0.000138848 1.95845e-19
3.17095e-05 -0.000143021 1.37031e-19
5.4929e-05 0.000225094 -3.03165e-20
-4.54122e-05 -0.000273024 -4.79001e-20
-2.50453e-05 0.000497878 -1.50067e-20
-0.000479078 2.80254e-05 2.30405e-20
7.08772e-05 4.89139e-05 5.57823e-20
6.9476e-05 -8.82176e-06 2.01301e-19
-7.77272e-06 -1.86759e-05 3.7835e-19
0.000259134 -0.000317362 -2.2889e-20
0.000330244 -0.000253845 -4.79001e-20
0.000110199 -0.000266041 1.01257e-19
9.4464e-05 0.000227997 1.09139e-20
-7.78014e-05 5.11085e-05 1.96451e-19
7.07579e-05 -7.50144e-05 4.54747e-20
7.34555e-05 6.53529e-05 1.21266e-21
7.4652e-05 -3.80827e-05 1.27936e-19
5.30829e-05 -5.15578e-05 1.01863e-19
7.47403e-05 9.50839e-05 3.27418e-20
-2.89964e-06 -0.00022375 -6.09361e-20
1.02328e-05 0.000218773 2.36469e-20
0.000234138 9.23936e-06 8.79178e-20
6.14791e-05 7.5866e-05 1.69772e-20
2.63323e-05 0.000237971 -3.50155e-20
-0.000225614 -2.76301e-05 7.00311e-20
8.69239e-05 5.20133e-05 6.18456e-20
9.8507e-05 -1.49812e-05 1.9827e-19
8.43613e-05 6.09e-05 6.73026e-20
9.41054e-05 -3.0003e-05 1.69166e-19
-0.000269955 0.000337415 -8.48862e-21
-0.000328375 0.000270432 4.9719e-20
7.87841e-05 6.91755e-05 -5.45697e-21
7.94551e-05 -4.14895e-05 1.01257e-19
4.13862e-05 0.000140928 -3.63798e-21
-2.72628e-05 -0.000160223 -2.72848e-20
6.99035e-05 2.50288e-05 4.24431e-20
7.12452e-05 3.16614e-05 2.72242e-19
8.78465e-05 0.000105138 1.44913e-19
0.000107963 -0.000100935 1.04289e-19
-6.62e-05 -1.60386e-05 -3.63798e-20
-6.10974e-05 1.7715e-05 1.65528e-19
-0.000223939 5.30413e-06 5.1538e-20
0.00010585 0.000176112 -1.45519e-20
8.19633e-05 0.000179942 1.57646e-19
0.000123286 0.000141692 6.30583e-20
0.000100443 -0.000194216 1.27936e-19
0.000149297 -0.000149006 2.66785e-20
-0.000108568 -0.000203145 9.94381e-20
-0.000230377 -4.07019e-06 -4.06241e-20
0.00010744 -4.45179e-05 4.12304e-20
0.00037391 -4.92646e-05 1.03682e-19
0.000475295 6.25416e-05 -1.01257e-19
0.000184869 7.6562e-05 -1.27329e-20
0.000164955 4.26542e-05 6.2452e-20
0.000123195 1.50044e-05 6.2452e-20
0.000160472 6.34232e-05 7.39722e-20
0.0002368 -2.16819e-06 8.67052e-20
0.000221889 -7.11919e-05 4.30494e-20
0.000160412 4.84223e-05 2.38288e-19
0.000128709 8.25212e-05 5.57823e-20
0.00013376 8.09474e-05 3.27418e-20
0.000169652 -6.48987e-05 1.54008e-19
0.000171242 -6.44036e-05 8.24609e-20
VECTORS seepage_velocity_TPM float
-1.08594e-05 -3.25673e-05 1.3747e-20
-3.37404e-06 2.67675e-05 -7.28424e-22
5.33543e-06 -2.6784e-05 1.45689e-20
-2.42828e-05 -4.62459e-06 2.69488e-20
-3.04828e-05 -8.03751e-06 3.26829e-20
-4.04352e-06 3.45515e-05 1.2748e-21
6.00566e-06 -3.45778e-05 1.85758e-20
-3.27505e-05 8.22754e-06 3.27743e-20
-1.02642e-05 1.65549e-05 4.95335e-20
-1.72046e-05 -3.99656e-05 1.13777e-20
-1.64919e-05 4.27527e-05 6.55345e-21
4.47348e-05 1.82217e-05 2.00247e-21
2.37591e-05 2.30008e-05 1.3113e-20
-2.19043e-05 -2.29264e-05 1.12919e-20
-1.07976e-05 -2.26069e-05 9.01336e-21
-3.33043e-06 -2.14486e-05 1.20188e-20
3.48253e-06 3.53246e-05 9.6521e-21
-1.58121e-06 -3.53443e-05 1.36587e-20
3.10171e-05 3.12619e-06 -1.20189e-20
-1.29485e-05 -4.82343e-05 7.46447e-21
-1.30716e-05 4.93276e-05 7.10032e-21
5.37466e-05 1.24105e-05 -1.82074e-22
-2.08112e-05 -2.15673e-05 1.96644e-20
-3.35692e-05 7.86577e-06 3.13153e-20
-2.39188e-05 -2.1731e-05 2.09402e-20
1.43796e-05 3.17983e-05 3.64171e-21
-2.304e-05 4.35284e-06 3.85117e-20
-3.48417e-05 -7.26427e-05 9.51131e-21
-2.00194e-05 -1.01446e-05 1.76639e-20
7.7399e-05 3.66213e-05 3.09461e-21
-1.1313e-07 3.3026e-05 5.64604e-21
2.03088e-06 -3.30352e-05 1.16563e-20
-7.58549e-05 -3.85412e-05 9.65373e-21
-7.61202e-05 3.70854e-05 1.73039e-20
-4.92758e-05 1.61145e-05 2.36672e-20
-1.75447e-05 -1.41901e-05 1.82095e-20
-3.07694e-05 -1.54763e-05 -1.27488e-21
-3.22215e-05 1.5755e-05 3.07794e-20
-5.3184e-06 -1.07942e-05 1.80287e-20
2.16494e-05 2.21078e-05 1.09246e-21
-3.15793e-05 2.11066e-05 3.37748e-20
-9.30881e-06 1.5739e-07 4.15197e-20
-2.04276e-05 2.23174e-05 3.18634e-20
-1.10304e-05 3.24085e-05 1.77529e-20
5.00525e-06 2.14481e-05 1.1837e-20
-3.19773e-05 2.10708e-05 2.98583e-20
-7.90472e-05 -7.90472e-05 1.36463e-22
8.18788e-05 8.18788e-05 -6.82324e-22
7.2908e-06 1.67651e-05 1.71187e-20
8.21909e-05 8.68818e-05 -2.00194e-21
-8.39572e-05 -7.92992e-05 4.82284e-21
3.80823e-05 -3.94473e-06 7.28566e-22
3.80547e-05 3.92338e-06 -2.58637e-20
2.66797e-05 4.73328e-06 -1.94866e-20
3.62816e-05 -1.66133e-05 -5.28197e-21
3.62506e-05 1.66155e-05 -2.44065e-20
1.36188e-05 2.22487e-05 3.5508e-21
-3.19209e-05 -5.98328e-05 1.52997e-20
-3.20165e-05 6.00702e-05 2.60459e-20
2.90023e-05 -1.10993e-05 -1.34771e-20
2.89567e-05 1.10349e-05 -1.69374e-20
-4.33052e-05 1.89494e-05 1.67474e-20
-3.46104e-05 5.46143e-05 5.28205e-21
3.68017e-05 -5.50587e-05 5.46401e-22
2.11376e-05 -2.18333e-05 2.54915e-21
-3.828e-05 7.33769e-05 1.63826e-21
-7.33683e-05 3.88667e-05 7.69062e-21
4.2705e-06 2.12914e-05 -3.64189e-22
-2.41268e-06 -2.12334e-05 8.0124e-21
6.47151e-05 -2.68059e-05 7.10426e-21
6.47343e-05 2.68138e-05 -3.5157e-20
4.59964e-06 -6.76804e-06 7.83068e-21
2.9484e-05 1.02077e-05 -1.98504e-20
2.95476e-05 -1.02211e-05 -2.00325e-20
-1.55379e-05 -1.06702e-05 1.45684e-20
-5.41406e-06 -1.6487e-05 2.45858e-20
-4.55482e-05 -9.71583e-06 2.60331e-20
-3.93227e-05 -5.75903e-06 2.62175e-20
-2.87641e-05 -2.43116e-05 6.55612e-21
-3.3658e-05 5.82965e-05 1.49358e-20
-3.35768e-05 -5.81557e-05 1.1293e-20
-3.45664e-05 -3.87658e-05 1.51107e-20
-2.53564e-05 1.49833e-05 4.16969e-20
3.05473e-05 1.11106e-05 -1.25654e-20
-5.25077e-06 6.1757e-05 6.55715e-21
6.70949e-06 -6.23793e-05 -2.91431e-21
-2.97643e-05 2.67679e-05 4.15227e-20
3.07875e-06 2.84222e-05 8.19495e-21
-1.05392e-06 -2.84189e-05 1.98502e-20
2.59778e-05 -4.35489e-06 -2.40407e-20
2.57034e-05 4.07308e-06 -1.51165e-20
4.57107e-05 -3.14089e-05 4.36943e-21
3.6841e-05 6.04453e-06 -7.46587e-21
2.74815e-05 -1.37581e-05 -1.58455e-20
2.73382e-05 1.37836e-05 -1.69384e-20
3.09154e-05 -1.13345e-05 -1.23833e-20
1.35609e-05 -3.15893e-05 7.37449e-21
2.47343e-05 -1.08752e-05 -1.89412e-20
2.43583e-05 1.06416e-05 -1.49344e-20
-2.66014e-05 1.21643e-05 4.51595e-20
1.51299e-05 9.33026e-06 7.46663e-21
-3.18525e-05 -2.2237e-05 2.1849e-20
-1.13852e-05 2.70895e-06 1.07445e-20
-2.93592e-06 6.48557e-06 1.45691e-20
3.80647e-05 5.39587e-06 -1.63874e-21
-2.6057e-05 1.56754e-05 4.73459e-20
-2.74592e-05 -1.2806e-05 1.91197e-20
-2.10415e-05 -2.63426e-05 1.82975e-20
-2.43243e-05 -1.63053e-05 2.07572e-20
5.4484e-07 -2.92475e-05 1.52962e-20
1.46766e-06 2.92573e-05 2.00308e-21
4.51892e-05 -1.78271e-05 -1.91149e-21
-1.55051e-05 1.05831e-05 3.71497e-20
2.27858e-05 -3.22016e-05 3.64131e-22
2.28952e-05 3.25008e-05 2.64006e-21
-2.53149e-05 1.49866e-05 4.40669e-20
-1.00332e-05 1.63281e-05 4.8078e-20
-1.02661e-05 -1.69287e-05 1.36585e-20
-5.52443e-06 -3.02975e-05 6.2814e-21
-2.37012e-05 2.27607e-05 4.20625e-20
4.93127e-06 -4.24329e-05 6.73578e-21
7.08592e-06 4.34644e-05 -1.27438e-21
4.80409e-05 -2.2918e-06 -7.28173e-22
4.68309e-05 3.12064e-05 2.27575e-21
3.23987e-05 -1.88473e-05 2.45794e-21
4.2581e-05 -7.37571e-05 -8.01457e-21
-4.24701e-05 7.35614e-05 5.46449e-21
3.70798e-05 -6.61302e-06 -1.82086e-21
6.51454e-06 1.64392e-05 1.03799e-20
2.70246e-05 -5.13514e-06 -1.8576e-20
-5.20191e-06 3.0712e-05 5.55315e-21
-7.89773e-06 1.72423e-05 8.9238e-21
9.39954e-06 -1.71743e-05 4.91708e-21
1.54451e-05 -9.60995e-06 1.4387e-20
1.1565e-05 -3.47181e-06 4.73501e-21
-4.69987e-06 -1.6516e-05 1.56604e-20
2.00701e-05 1.8859e-07 -1.69389e-20
3.17914e-05 2.03427e-05 -4.1878e-26
-1.08144e-05 -3.47094e-06 4.51634e-20
3.1833e-05 2.0767e-05 -1.31456e-26
-3.34934e-05 4.1641e-05 1.30167e-20
-1.74431e-05 1.35286e-05 3.58729e-20
1.31879e-05 -4.71385e-05 7.55572e-21
1.38893e-05 4.71223e-05 -1.18344e-21
5.24301e-05 -1.20286e-05 -2.0027e-21
3.24969e-05 -2.15486e-05 -9.10557e-23
1.22803e-06 3.40664e-05 3.97386e-26
7.82399e-07 -3.40179e-05 1.0015e-20
2.5766e-05 -4.31599e-05 2.73075e-21
2.53619e-05 4.13595e-05 3.45892e-21
1.63919e-05 -5.87799e-06 -1.76671e-20
1.64554e-05 5.66929e-06 -1.23852e-20
1.81512e-05 1.13488e-05 6.92006e-21
1.09775e-05 1.54482e-05 2.76813e-20
-2.44066e-05 -1.47061e-05 1.12902e-20
-4.86397e-05 -3.83564e-05 1.51089e-20
7.64969e-06 3.14807e-05 1.45663e-21
3.24795e-05 1.0948e-05 -1.69383e-20
3.25423e-05 -1.09955e-05 -8.37803e-21
2.94323e-05 -1.15439e-05 -1.58442e-20
2.93768e-05 1.14707e-05 -1.73011e-20
-1.48327e-05 -0.000143301 1.13753e-21
0.000147148 2.26446e-05 -3.64036e-22
7.65103e-06 -3.07452e-05 7.19199e-21
4.47331e-05 -2.97128e-05 -2.91444e-21
4.47099e-05 2.97826e-05 -2.47728e-20
3.00398e-05 1.5706e-05 -1.22006e-20
-6.07356e-05 -3.86806e-06 1.92956e-20
3.68934e-05 -6.72397e-06 -7.64794e-21
-1.27657e-06 2.6233e-05 1.58427e-20
3.18834e-06 -2.63549e-05 1.54787e-20
-2.1686e-05 3.26502e-05 2.5216e-20
1.09543e-05 3.57487e-06 1.91223e-20
3.01647e-05 -1.57855e-05 -2.36731e-21
-4.50017e-06 -7.82898e-06 8.19486e-21
-2.2141e-05 1.81747e-05 3.64255e-21
2.41695e-05 -1.81415e-05 6.37437e-21
1.80527e-05 -1.11549e-05 1.3658e-20
-1.78378e-05 -1.21469e-05 1.94848e-20
-3.13323e-05 -2.01727e-05 1.74781e-20
5.16561e-06 7.22106e-06 1.14732e-20
-1.02839e-05 2.20985e-05 1.98477e-20
-5.39526e-06 -3.06654e-05 5.00724e-21
2.57374e-05 1.19976e-05 -1.23832e-20
7.87477e-06 3.09351e-05 -8.19391e-22
-9.65782e-06 -1.50001e-05 2.71356e-20
-3.85319e-05 7.04685e-05 1.18301e-21
-6.91591e-05 3.92756e-05 4.641e-21
2.58147e-05 -1.20655e-05 -9.28739e-21
3.12131e-05 -3.63343e-06 -1.23832e-20
6.55567e-05 2.87916e-05 -2.84174e-20
6.55264e-05 -2.87569e-05 7.46869e-21
6.54661e-06 -1.6773e-05 1.51147e-20
-4.30098e-05 -3.11219e-05 3.64281e-22
-4.3997e-05 3.03543e-05 1.76668e-20
-1.82847e-05 -8.11715e-06 2.72235e-20
-3.84689e-06 6.75762e-06 3.98817e-20
4.16023e-05 5.09213e-05 -1.82003e-22
-4.64855e-05 -3.82515e-05 9.91976e-21
4.13971e-05 -5.67904e-05 5.36999e-21
4.20681e-05 5.74766e-05 3.6405e-22
6.41329e-05 -3.53399e-05 -2.45751e-21
5.08649e-06 -6.00795e-06 2.87741e-20
-4.24809e-06 -6.334e-05 4.18636e-21
6.79322e-05 4.93398e-06 1.45616e-21
3.507e-05 4.61494e-05 7.10318e-21
-3.3113e-05 -4.58646e-05 5.46404e-21
-2.11429e-05 -1.70533e-05 6.19174e-21
-9.13856e-06 3.63373e-07 2.42202e-20
2.44846e-05 -3.36335e-05 7.91953e-21
2.46339e-05 3.41721e-05 3.36808e-21
-2.08888e-05 6.09631e-06 3.9424e-20
1.28836e-05 -2.17179e-05 8.64945e-21
3.42625e-05 -1.7374e-05 -3.82512e-21
3.4192e-05 1.7388e-05 -2.49542e-20
-2.55414e-05 -1.36921e-05 1.00158e-20
-1.77807e-05 1.19482e-05 3.49633e-20
-2.04206e-05 -9.6709e-06 1.54785e-20
-3.8841e-05 -2.18388e-05 1.66574e-20
-4.80011e-06 1.77634e-05 3.22314e-20
-8.10382e-05 8.10382e-05 2.22888e-21
-4.92817e-06 3.14343e-05 7.19225e-21
7.19669e-06 -3.17571e-05 8.37585e-21
6.97577e-06 -6.20307e-05 -6.19259e-21
-5.05601e-06 6.20062e-05 5.464e-21
1.93887e-05 -9.79227e-06 -1.45715e-20
1.93709e-05 9.46894e-06 -1.34787e-20
-3.0496e-05 1.62455e-05 3.62406e-20
-3.01554e-05 -1.57247e-05 -4.18859e-21
-5.34285e-05 -9.75473e-06 1.91239e-20
-5.25808e-05 9.95909e-06 -4.73545e-21
6.20273e-05 2.89972e-05 -2.98738e-20
6.20249e-05 -2.89608e-05 -2.5502e-21
1.96595e-05 1.81996e-06 1.14738e-20
1.96907e-05 -1.70065e-06 -5.64585e-21
3.11991e-05 1.10103e-05 -1.05615e-20
-1.0415e-06 2.78497e-05 1.05615e-20
3.03676e-06 -2.72389e-05 1.28379e-20
-4.40952e-05 3.05513e-05 1.66576e-20
3.10996e-05 -1.13044e-05 -6.91961e-21
-2.56555e-06 -2.93236e-05 7.73897e-21
2.66568e-05 1.61723e-05 -6.28212e-21
-1.96033e-05 -6.14871e-07 3.82441e-20
-1.93788e-05 1.59401e-07 6.55612e-21
2.65887e-05 -1.6409e-05 -1.82093e-22
-2.01431e-05 1.77611e-05 4.86241e-20
3.48782e-05 6.0414e-05 -4.18937e-21
-3.43077e-05 -5.94231e-05 -6.37513e-21
-5.31356e-06 -2.05545e-05 1.52975e-20
-2.56716e-05 -1.54621e-05 1.23825e-20
-2.87109e-06 -3.43975e-05 1.23845e-20
4.31702e-05 -7.36795e-05 2.68459e-21
7.44423e-05 -3.48895e-05 1.36505e-21
1.63346e-05 -1.3584e-05 -1.60285e-20
1.61147e-05 1.3299e-05 -1.98535e-20
-4.29424e-06 3.60337e-05 4.24354e-20
4.33841e-06 2.83013e-05 3.82404e-21
3.84439e-05 1.64155e-05 -4.64325e-21
2.95513e-05 -6.69391e-06 -8.92409e-21
2.95186e-05 6.56377e-06 -1.60269e-20
-6.97167e-05 -6.15939e-10 9.47152e-21
-6.97359e-05 5.42935e-10 -1.82145e-21
6.73199e-06 -1.56976e-05 2.05782e-20
-2.63466e-05 -1.60176e-05 1.83914e-20
2.72718e-05 1.64993e-05 -1.6028e-20
2.74205e-05 -1.6506e-05 -1.11103e-20
7.52475e-06 2.0115e-05 1.65719e-20
3.39643e-06 5.54005e-06 3.15048e-20
8.07268e-05 -8.07268e-05 1.91049e-21
-2.29046e-05 7.25976e-06 -1.09272e-21
-2.31304e-05 -7.77314e-06 3.16892e-20
-5.06623e-06 1.60907e-05 2.58587e-20
3.77322e-05 -1.66827e-05 2.91339e-21
-2.59202e-05 1.32097e-05 4.09746e-20
-3.34887e-05 -4.47325e-06 -4.1887e-21
-3.36463e-05 4.37371e-06 3.47844e-20
-2.0122e-05 9.6831e-06 4.9896e-20
1.92072e-05 2.86693e-05 -2.33151e-20
1.93549e-05 -2.85948e-05 -1.40255e-20
1.43977e-05 8.12174e-05 -7.28615e-22
-1.2851e-05 -8.12189e-05 -1.38435e-20
-7.28254e-06 0.000146146 -8.19028e-22
-0.000142773 7.47408e-06 7.09811e-21
2.21803e-05 -1.57068e-06 3.27815e-21
2.22997e-05 1.32132e-06 -4.18878e-21
-9.75915e-07 -5.15708e-06 2.76812e-20
7.92734e-05 -9.64193e-05 3.45776e-21
0.000100831 -7.76199e-05 2.68433e-21
2.657e-05 -6.41476e-05 2.3681e-21
2.65888e-05 6.41928e-05 -3.82539e-21
-2.4365e-05 1.45348e-05 4.1337e-20
2.32348e-05 -2.21455e-05 1.45678e-21
2.36311e-05 -9.77377e-06 -2.00328e-21
2.36032e-05 9.63848e-06 -8.37731e-21
1.75239e-05 -1.4567e-05 6.00938e-21
2.30671e-05 2.23582e-05 -4.00606e-21
1.55617e-07 -6.79616e-05 7.37245e-21
2.65002e-06 6.25608e-05 1.82034e-22
7.25568e-05 5.99321e-07 -2.27549e-21
1.75875e-05 1.4416e-05 7.28432e-22
7.98799e-06 6.89197e-05 1.18314e-21
-6.73612e-05 -9.08513e-06 1.38329e-20
2.95948e-05 -3.14271e-06 -4.55317e-21
2.97232e-05 2.75571e-06 -1.65735e-20
2.88138e-05 -5.8107e-06 -2.73195e-21
2.88524e-05 5.77601e-06 -2.20377e-20
-7.97201e-05 9.86711e-05 2.04732e-21
-9.78543e-05 7.97122e-05 2.68424e-21
2.58248e-05 1.12329e-05 -3.46009e-21
2.58884e-05 -1.1374e-05 1.09264e-21
9.00076e-06 4.76679e-05 5.09984e-21
-7.404e-06 -4.73624e-05 -1.42068e-20
2.22925e-05 9.3504e-06 1.09277e-21
2.2124e-05 -9.29441e-06 -1.07457e-20
3.39123e-05 -2.05588e-05 -8.19642e-21
3.38378e-05 2.0593e-05 -2.51356e-20
-1.97917e-05 -4.89176e-06 5.64541e-21
-1.93884e-05 4.5848e-06 3.53295e-20
-3.16456e-05 -6.01129e-05 4.18929e-21
3.11838e-05 -3.74062e-05 -8.19712e-21
3.74367e-05 -3.16198e-05 -5.10042e-21
3.1117e-05 3.7541e-05 -1.43905e-20
3.74504e-05 3.168e-05 -1.74871e-20
3.35658e-05 6.07532e-05 5.46426e-21
-6.92802e-05 1.11506e-06 1.51176e-20
-6.92101e-05 -1.3046e-06 -7.28564e-22
5.03132e-05 2.08412e-05 -6.19325e-21
0.000121109 1.59439e-05 -1.63958e-21
0.000121145 -1.59486e-05 -4.28112e-20
5.03009e-05 -2.08361e-05 -5.28247e-21
6.31673e-05 1.35554e-06 -2.18579e-21
4.47209e-05 1.3568e-05 -3.09642e-21
5.92713e-05 -1.66914e-05 2.91452e-21
6.31642e-05 -1.3363e-06 -1.76688e-20
5.92691e-05 1.67067e-05 -1.93087e-20
4.47245e-05 -1.35444e-05 -1.94892e-20
4.69119e-05 -1.32845e-05 -3.825e-21
4.66324e-05 -1.33729e-05 2.7323e-21
4.69144e-05 1.32949e-05 -2.89609e-20
4.66154e-05 1.33895e-05 -2.4955e-20
-4.32704e-06 2.72912e-05 7.83065e-21
-4.60085e-06 -2.74282e-05 4.1338e-20
-2.45728e-05 4.49338e-06 -1.00146e-20
-3.13856e-05 8.16557e-06 -7.37405e-21
-5.03291e-06 3.54995e-05 6.37397e-21
-5.30181e-06 -3.55789e-05 2.58604e-20
-3.14081e-05 -8.07248e-06 6.37266e-21
-1.05453e-05 -1.65605e-05 1.71178e-20
-1.76194e-05 -3.96977e-05 5.55231e-20
1.80806e-05 4.08995e-05 2.24823e-20
4.1511e-05 1.88811e-05 1.15596e-20
2.30465e-05 -2.39222e-05 8.04994e-20
2.36024e-05 2.3585e-05 3.82459e-21
-2.52486e-05 1.50894e-05 -1.03791e-20
2.64739e-06 -3.632e-05 5.02638e-20
2.88456e-06 3.61898e-05 -8.1951e-21
2.56502e-05 4.01804e-06 1.71163e-20
-1.32304e-05 -4.81559e-05 2.76725e-20
1.30334e-05 4.8631e-05 2.58522e-20
5.03511e-05 1.34539e-05 1.6385e-20
1.20953e-05 3.26214e-05 3.13175e-20
1.25017e-05 -3.21385e-05 3.67795e-20
-2.31124e-05 -4.73141e-06 2.01205e-20
-3.44556e-05 -7.16116e-05 5.94791e-20
-2.0432e-05 1.02956e-05 1.16544e-20
-7.78547e-07 3.38482e-05 -5.82802e-21
-1.07683e-06 -3.39391e-05 2.31304e-20
-7.64772e-05 -3.69851e-05 2.02194e-20
-7.61423e-05 3.83488e-05 1.82108e-22
-1.65078e-05 2.23001e-05 -5.46253e-21
-1.99323e-05 2.36015e-05 -1.04693e-20
-4.60035e-05 1.48479e-05 -3.27702e-21
-3.25983e-05 -1.57017e-05 1.87593e-20
-3.11901e-05 1.52835e-05 1.71199e-20
-5.3332e-06 1.09626e-05 3.4235e-20
1.93397e-05 -2.30223e-05 6.70029e-20
-9.59942e-06 -3.3223e-07 1.62066e-20
-3.31107e-05 2.16244e-05 -2.37604e-20
-2.17696e-05 -2.20293e-05 1.21988e-20
-3.82361e-05 -5.99547e-06 1.40191e-20
-3.48785e-05 7.01982e-06 -1.19253e-20
-1.19947e-05 -3.26e-05 8.10228e-21
3.50455e-06 -2.22501e-05 6.20959e-20
3.78616e-06 2.21004e-05 2.22165e-20
-1.0831e-05 3.27952e-05 -1.27458e-21
2.00215e-05 2.32909e-05 1.40199e-20
-7.73925e-05 -7.73892e-05 4.27706e-21
-7.62085e-05 7.62097e-05 2.86649e-21
6.86884e-06 -1.77959e-05 8.9052e-20
6.88977e-06 1.72519e-05 -5.46314e-22
1.1701e-05 2.30529e-05 2.93159e-20
-7.64317e-05 8.31718e-05 1.09202e-20
-8.06228e-05 -7.75458e-05 2.27504e-20
3.98637e-05 -7.28155e-06 4.2435e-20
3.95281e-05 7.89196e-06 -1.40238e-20
1.87101e-05 6.58941e-06 1.98487e-20
3.73449e-05 -2.50035e-05 4.17066e-20
3.70671e-05 2.52067e-05 -2.53152e-20
1.17731e-05 -2.30022e-05 5.28957e-20
-3.23669e-05 -5.97897e-05 3.3515e-20
-3.23454e-05 5.93278e-05 4.15284e-20
2.73936e-05 -1.57579e-05 7.26613e-20
2.74061e-05 1.60174e-05 -1.58435e-20
-3.61721e-05 -5.61072e-05 -2.33146e-20
-3.6056e-05 5.61159e-05 6.01053e-21
3.75153e-05 7.08158e-05 1.22413e-20
7.11047e-05 3.75485e-05 1.98409e-20
3.11242e-06 2.19585e-05 1.98487e-20
2.82875e-06 -2.2106e-05 4.7527e-20
7.81942e-05 -3.2387e-05 -2.13136e-20
7.73223e-05 3.20281e-05 1.45723e-21
-3.16504e-05 -2.20477e-05 1.19258e-20
2.59474e-05 1.42672e-05 -5.82717e-21
2.5956e-05 -1.39843e-05 6.1731e-20
-2.91386e-05 2.43215e-05 2.78636e-20
-4.43704e-05 -1.00228e-05 1.73859e-20
-3.35512e-05 5.81135e-05 2.76883e-20
-3.36975e-05 -5.83614e-05 1.91278e-20
-2.49874e-05 -1.54356e-05 4.18782e-21
2.50881e-05 1.3538e-05 1.20182e-20
-3.54647e-05 -3.85731e-05 3.91415e-20
-6.13082e-06 -6.34172e-05 -2.9509e-20
-5.88987e-06 6.34547e-05 9.10697e-22
-3.01436e-05 -2.67041e-05 2.31293e-20
2.45575e-06 2.89655e-05 -6.19168e-21
2.21538e-06 -2.89342e-05 4.22484e-20
1.86642e-05 -6.56656e-06 4.29762e-20
1.83417e-05 6.34035e-06 1.32935e-20
4.1868e-05 -3.19451e-05 4.4785e-20
3.15275e-05 6.96853e-06 1.839e-20
2.24861e-05 2.13147e-05 -1.87576e-20
2.2679e-05 -2.11392e-05 6.30109e-20
2.55005e-05 -1.36139e-05 5.58113e-20
1.70186e-05 -1.51977e-05 5.90029e-20
1.65563e-05 1.50616e-05 -4.73486e-21
-2.70728e-05 -1.20973e-05 2.09407e-20
-2.83925e-05 2.23604e-05 -9.28511e-21
1.43447e-05 1.10035e-05 5.28105e-21
1.39058e-05 -1.06713e-05 9.23248e-20
-4.37257e-06 -7.40873e-06 6.11858e-20
-4.11138e-06 7.24271e-06 1.42045e-20
3.38101e-05 5.76288e-06 2.31225e-20
-4.76579e-05 4.64438e-05 8.19116e-22
-2.63886e-05 -1.57614e-05 -1.63888e-21
-2.72553e-05 1.29289e-05 -2.4218e-20
-6.48018e-05 1.06074e-05 -3.14005e-21
-2.52654e-05 1.54218e-05 -2.34883e-20
2.79615e-07 -2.99385e-05 3.041e-20
7.02464e-07 2.98745e-05 -2.18517e-21
-2.22473e-05 -2.6658e-05 2.08462e-20
4.13233e-05 -1.77405e-05 2.92181e-20
-1.57511e-05 -1.07993e-05 1.09262e-20
-1.5788e-05 1.16817e-05 1.7482e-20
2.04936e-05 -3.25993e-05 5.69866e-20
-2.15842e-05 3.4858e-05 -1.29267e-20
-2.59563e-05 -1.53616e-05 5.82692e-21
-1.04822e-05 -1.64986e-05 9.28754e-21
-1.07143e-05 1.76343e-05 5.22647e-20
6.11003e-06 3.1382e-05 3.17712e-20
-2.36042e-05 -2.2399e-05 -3.64178e-21
3.64672e-06 -4.22634e-05 2.40301e-20
-5.50997e-06 4.35365e-05 2.40304e-20
4.41078e-05 -4.68602e-06 7.55499e-21
2.89232e-05 -1.96994e-05 5.5347e-20
-4.35251e-05 7.53921e-05 -1.45719e-20
-4.34491e-05 -7.52596e-05 -6.92279e-21
-3.10925e-05 -1.87137e-05 2.20296e-20
3.26536e-05 -7.05953e-06 3.62316e-20
-4.93112e-05 -3.90995e-05 5.38371e-20
4.95704e-06 -1.74288e-05 7.06513e-20
5.14646e-06 1.76574e-05 2.02127e-20
1.91836e-05 -6.9535e-06 2.89535e-20
-6.28205e-06 -3.0657e-05 1.1106e-20
-9.33792e-06 -1.81739e-05 3.78786e-20
-9.07531e-06 1.80046e-05 1.11089e-20
2.93226e-05 4.12609e-05 2.7399e-20
4.35171e-05 2.93622e-05 2.03899e-20
-6.21673e-05 -2.78856e-06 3.7181e-20
1.07147e-05 -2.06525e-06 7.83069e-21
1.02256e-05 2.54412e-06 9.94263e-20
8.89273e-06 5.45325e-07 3.13225e-20
-1.11242e-05 3.06777e-06 4.62539e-20
-1.02548e-05 -2.97181e-06 2.95017e-20
-1.80193e-05 -1.34938e-05 -1.76629e-20
1.20185e-05 -4.67627e-05 1.38364e-20
-1.1003e-05 4.66673e-05 2.61255e-20
4.7761e-05 -1.23895e-05 1.82058e-20
2.90637e-05 -2.21619e-05 7.12803e-20
4.94605e-07 3.40539e-05 9.46844e-21
6.52402e-08 -3.42407e-05 2.80412e-20
-2.22896e-05 4.46106e-05 1.82955e-20
2.32059e-05 -4.19705e-05 3.55895e-20
3.36732e-06 8.92481e-06 1.74825e-20
3.08059e-06 -9.04208e-06 4.55272e-20
1.64775e-05 -1.23894e-05 8.55839e-20
1.68275e-05 1.26643e-05 1.09259e-20
1.12467e-05 -1.62319e-05 1.06715e-19
1.07509e-05 1.59081e-05 1.00162e-20
-2.43122e-05 1.48627e-05 -2.73146e-21
6.06345e-06 -3.18347e-05 2.26675e-20
3.08959e-05 1.59315e-05 -2.09435e-20
3.11188e-05 -1.56488e-05 6.21013e-20
2.68064e-05 -1.73326e-05 7.82062e-20
2.59335e-05 -1.42495e-05 7.08378e-20
2.59296e-05 1.44883e-05 -1.43863e-20
-1.5048e-05 -0.000139727 1.18294e-21
2.0699e-05 3.22489e-05 2.12106e-20
-0.000143969 1.68833e-05 -7.78019e-21
-5.32923e-06 3.2047e-05 6.09928e-21
4.98121e-05 -4.50079e-05 2.29498e-20
4.92694e-05 4.4973e-05 2.55001e-21
2.70187e-05 1.7581e-05 -5.46293e-22
3.15868e-05 -7.6835e-06 2.43987e-20
2.94394e-05 2.0519e-05 1.63856e-20
-1.99873e-06 -2.68164e-05 4.58887e-20
-1.82445e-06 2.68162e-05 -8.37646e-21
-2.33346e-05 1.89385e-05 1.12917e-20
-2.35101e-05 -1.91027e-05 2.40404e-20
4.66053e-06 8.03714e-06 1.29296e-20
3.82394e-06 -8.15264e-06 8.61318e-20
-1.09356e-05 -2.22917e-05 3.09551e-21
6.2788e-06 3.09175e-05 2.44896e-20
2.36232e-05 -1.45831e-05 8.52193e-20
2.37902e-05 1.47976e-05 -8.74051e-21
2.95733e-05 2.24672e-05 1.12885e-20
-1.03452e-05 2.25105e-05 -8.74014e-21
6.27831e-06 -3.13142e-05 2.23048e-20
3.77712e-05 6.84389e-05 2.63925e-20
6.94256e-05 3.77037e-05 2.43447e-20
-4.31082e-05 3.22622e-05 -4.55143e-22
2.58504e-05 -4.56327e-06 3.71459e-20
8.1041e-05 -3.92471e-05 -7.65065e-21
8.02828e-05 3.91522e-05 1.18401e-20
-4.4333e-05 -3.02497e-05 1.38427e-20
-4.34585e-05 3.09652e-05 8.37801e-21
-1.8357e-05 7.87053e-06 2.00301e-21
-4.30117e-06 7.00775e-06 2.13065e-20
-4.34522e-06 -6.88393e-06 7.46602e-20
-3.62766e-05 4.84512e-05 2.0614e-20
-4.55564e-05 -3.89471e-05 5.44245e-20
3.9045e-05 -5.57826e-05 1.72928e-20
-3.54692e-05 5.79931e-05 3.09457e-20
5.84548e-05 -3.40512e-05 2.49382e-20
-3.98122e-05 -2.15307e-05 3.73198e-20
-4.81873e-06 -6.24913e-05 3.27184e-20
-5.91825e-05 5.4133e-07 9.73811e-21
3.44304e-05 -4.7221e-05 8.19622e-20
3.51424e-05 4.7202e-05 5.82819e-21
-2.12726e-05 1.683e-05 2.91378e-21
-9.31713e-06 -6.7347e-07 2.53114e-20
-2.11009e-05 3.44962e-05 1.68398e-20
2.2316e-05 -3.43518e-05 3.45901e-20
-2.11772e-05 -6.26959e-06 1.12898e-20
3.39283e-05 -2.62895e-05 2.69556e-20
3.35994e-05 2.65073e-05 -1.73026e-20
-2.60582e-05 1.36877e-05 -1.25652e-20
-1.83057e-05 -1.23318e-05 6.82865e-21
-1.61899e-05 1.18708e-05 1.54786e-21
-2.09136e-05 9.72712e-06 -3.64084e-22
-5.31922e-06 -1.80837e-05 1.86645e-20
-4.75464e-06 1.93982e-05 -3.00456e-21
8.01457e-05 8.01444e-05 2.38415e-20
-5.88801e-06 -3.16961e-05 1.22904e-20
-5.35581e-06 3.19917e-05 1.91172e-21
-6.10847e-06 -6.34411e-05 1.60284e-20
-5.83855e-06 6.35177e-05 -6.37463e-21
8.99093e-06 -1.67638e-05 5.33594e-20
9.08845e-06 1.63825e-05 1.07448e-20
-3.08174e-05 -1.6208e-05 1.09273e-21
-3.02923e-05 1.56475e-05 4.1886e-21
-5.37879e-05 9.95909e-06 -3.58813e-20
-5.29829e-05 -9.91307e-06 7.83172e-21
7.12086e-05 3.96811e-05 1.63933e-20
7.22171e-05 -3.97627e-05 1.82154e-21
1.91895e-05 -2.1839e-07 7.28436e-22
1.8549e-05 7.29599e-07 1.0034e-19
2.79981e-05 1.3091e-05 8.37577e-21
-1.8329e-06 -2.79556e-05 2.54924e-20
2.40543e-05 -1.78256e-05 8.91273e-20
-1.61122e-06 2.82366e-05 -1.12897e-20
2.76413e-05 -1.32764e-05 6.40016e-20
3.23049e-06 2.9096e-05 2.44913e-20
2.42869e-05 1.80963e-05 4.55201e-22
-1.94677e-05 3.5588e-07 1.91215e-20
-2.00559e-05 -4.32343e-07 3.66049e-20
-2.06757e-05 -1.7841e-05 1.09266e-20
3.52958e-05 -6.11402e-05 2.0768e-20
3.55042e-05 6.14973e-05 8.9251e-21
-2.59497e-05 1.51804e-05 -1.8938e-20
-3.68728e-06 3.42357e-05 4.66236e-20
4.07254e-05 -7.1745e-05 3.55848e-20
7.06853e-05 -3.35836e-05 4.8053e-20
5.68203e-06 -2.08729e-05 5.86421e-20
5.51925e-06 2.0582e-05 -5.28147e-21
-4.82883e-06 -3.59143e-05 1.14741e-20
2.89365e-06 -2.87931e-05 3.99685e-20
3.41703e-05 1.79417e-05 1.64777e-20
2.82433e-05 -8.9887e-06 7.44826e-20
2.82346e-05 9.42564e-06 -1.71187e-20
-7.00992e-05 -6.14307e-10 -1.09303e-21
-7.0054e-05 2.25738e-09 -1.36612e-20
-2.61108e-05 1.53057e-05 -2.45822e-20
2.23966e-05 2.49907e-05 -3.09606e-20
2.25976e-05 -2.48158e-05 5.62752e-20
7.15183e-06 2.05477e-05 -4.18844e-21
7.05893e-06 -2.05198e-05 6.1369e-20
3.13284e-06 -5.62694e-06 8.59513e-20
3.501e-06 6.09204e-06 4.00635e-21
7.77028e-05 -7.77048e-05 2.55255e-20
-2.32135e-05 7.95985e-06 -4.1888e-21
-2.33163e-05 -7.21487e-06 2.67718e-20
-5.57409e-06 -1.64822e-05 5.59043e-20
-5.26849e-06 1.67726e-05 -9.10484e-22
3.33566e-05 -1.79191e-05 5.74448e-20
-2.62048e-05 -1.31634e-05 -5.09894e-21
-3.39054e-05 -4.38763e-06 1.82126e-22
-3.37173e-05 5.59352e-06 1.2566e-20
-2.05097e-05 -9.61447e-06 1.54785e-20
1.03772e-05 -4.42115e-05 3.42404e-20
1.02691e-05 4.41894e-05 -8.92434e-21
1.4179e-05 8.31597e-05 -7.28592e-22
1.38049e-05 -8.29585e-05 6.19343e-21
6.4684e-06 0.000138786 2.3068e-20
0.000139894 9.70663e-06 3.58072e-20
2.13118e-05 3.21949e-06 -1.2748e-21
2.10769e-05 -2.6607e-06 9.37838e-20
7.58058e-05 -9.44382e-05 3.1349e-20
9.2248e-05 -7.54589e-05 4.58634e-20
3.39713e-05 -8.20041e-05 1.38435e-20
3.37374e-05 8.14396e-05 2.05835e-20
-2.46755e-05 -1.44886e-05 -2.05775e-20
2.2733e-05 1.22853e-05 -8.37684e-21
2.25342e-05 -1.19581e-05 8.34027e-20
2.11167e-05 2.34832e-05 9.83262e-21
2.08844e-05 -2.32946e-05 8.97672e-20
-8.95952e-07 -6.6584e-05 2.09337e-20
-1.61332e-06 6.14132e-05 3.86821e-20
6.3727e-05 -1.98525e-06 1.28333e-20
1.61393e-05 1.61924e-05 7.10166e-21
1.58193e-05 -1.59706e-05 9.14092e-20
-6.66439e-06 6.79241e-05 1.38792e-20
6.71092e-05 -4.89436e-06 1.51533e-20
3.01744e-05 -4.41845e-06 7.39372e-20
3.02447e-05 4.94596e-06 -9.47003e-21
2.87012e-05 -9.52867e-06 5.937e-20
2.87703e-05 1.00578e-05 -1.52979e-20
7.86107e-05 9.67147e-05 2.66622e-20
9.71447e-05 7.86891e-05 4.65906e-20
2.39776e-05 1.31786e-05 -4.18832e-21
2.38195e-05 -1.28804e-05 9.14126e-20
8.30097e-06 -4.87433e-05 3.86145e-20
8.64265e-06 4.87459e-05 -2.18562e-21
2.13725e-05 9.53962e-06 8.65052e-20
2.18179e-05 -8.41916e-06 -4.37091e-21
3.33518e-05 -3.153e-05 3.5332e-20
3.30341e-05 3.16232e-05 -2.84115e-20
-1.9771e-05 -4.5915e-06 -4.55261e-21
-2.10947e-05 5.14049e-06 1.60255e-20
3.08839e-05 5.9546e-05 2.73208e-21
4.55949e-05 4.59346e-05 6.3751e-21
3.11828e-05 -5.97103e-05 6.19264e-21
4.59957e-05 -4.60055e-05 1.58465e-20
3.29344e-05 -6.17427e-05 6.97629e-20
-6.97144e-05 -9.61955e-07 -2.53188e-20
-6.95309e-05 1.29652e-06 1.45704e-21
3.362e-05 6.19849e-05 1.43891e-20
5.53535e-05 -2.29298e-05 9.10717e-22
0.000144696 -1.90479e-05 -3.82549e-21
0.000146337 1.92643e-05 -1.73078e-20
5.67459e-05 2.35032e-05 4.29882e-20
7.15667e-05 1.6455e-06 -1.45714e-21
4.87223e-05 -1.34787e-05 -7.64957e-21
6.72059e-05 2.18487e-05 3.64293e-21
7.27839e-05 -8.14507e-07 3.31504e-20
6.82232e-05 -2.19563e-05 -8.19726e-21
4.92327e-05 1.47778e-05 6.11959e-20
5.20877e-05 -2.02117e-05 2.75025e-20
5.27172e-05 -2.00167e-05 2.20391e-20
5.14996e-05 2.05552e-05 -1.22028e-20
5.213e-05 2.03608e-05 4.18928e-21
-1.15123e-05 -3.24973e-05 1.96644e-20
-4.65005e-06 2.73013e-05 3.64191e-22
4.50229e-06 -2.73525e-05 4.02452e-20
-2.45955e-05 -4.54976e-06 7.07398e-20
-3.07167e-05 -7.91929e-06 7.42864e-20
-5.34981e-06 3.54376e-05 -2.91382e-21
5.20788e-06 -3.55582e-05 3.71511e-20
-3.29708e-05 8.24758e-06 9.14027e-20
-1.05791e-05 1.6602e-05 1.44227e-19
-1.78872e-05 -3.97957e-05 2.25733e-20
-1.7305e-05 4.21406e-05 3.70454e-20
4.14134e-05 -1.7939e-05 2.63961e-20
2.29789e-05 2.38627e-05 4.7898e-20
-2.32825e-05 -2.38435e-05 3.64248e-20
-1.14528e-05 -2.29267e-05 2.64022e-20
-3.71344e-06 -2.19704e-05 5.42654e-20
2.60014e-06 3.62486e-05 3.00487e-20
-2.77811e-06 -3.63721e-05 3.13234e-20
2.5771e-05 3.78519e-06 3.69639e-20
-1.37804e-05 -4.77734e-05 2.33034e-20
-1.3874e-05 4.87345e-05 4.56962e-20
4.9046e-05 -1.30252e-05 3.74126e-20
-2.13876e-05 -2.15817e-05 4.09666e-20
-3.37548e-05 7.90137e-06 7.31905e-20
-2.43336e-05 -2.1737e-05 7.37447e-20
1.24866e-05 3.2044e-05 1.36558e-20
-2.33026e-05 4.38981e-06 9.69605e-20
-3.5734e-05 -7.28615e-05 1.40621e-20
-2.03247e-05 -1.02154e-05 8.83189e-20
7.30103e-05 -3.58956e-05 9.10158e-21
-1.19237e-06 3.38239e-05 1.20203e-20
1.03106e-06 -3.39369e-05 2.22194e-20
-7.63293e-05 3.69283e-05 1.01462e-19
-7.61395e-05 -3.8314e-05 -2.27697e-20
-4.93256e-05 1.6079e-05 3.34071e-20
-1.79436e-05 -1.41769e-05 8.3216e-20
-3.25157e-05 1.56709e-05 8.86965e-20
-3.11966e-05 -1.53529e-05 5.82806e-20
-5.31978e-06 -1.08784e-05 8.55882e-20
1.92277e-05 2.30573e-05 5.09805e-21
-3.17879e-05 2.09852e-05 7.03705e-20
-9.62703e-06 2.6419e-07 1.17817e-19
-2.09034e-05 2.22496e-05 6.37254e-20
-1.16309e-05 3.22071e-05 5.70812e-20
3.63422e-06 2.2109e-05 5.09883e-21
-3.21912e-05 2.09492e-05 4.84284e-20
-7.69342e-05 -7.69343e-05 -1.83365e-20
7.78935e-05 -7.7896e-05 2.36601e-21
6.84152e-06 1.77519e-05 6.20992e-20
7.81763e-05 -8.27398e-05 3.49446e-20
-8.39283e-05 -7.72718e-05 -1.69259e-20
3.97414e-05 -7.67056e-06 1.98518e-20
3.96591e-05 7.71633e-06 2.85938e-20
1.83682e-05 6.45336e-06 3.62374e-20
3.72478e-05 -2.52132e-05 1.63911e-20
3.71627e-05 2.5279e-05 2.49509e-20
1.17591e-05 2.29207e-05 4.27904e-21
-3.22995e-05 5.96969e-05 1.16756e-19
-3.23404e-05 -5.92877e-05 3.64292e-20
2.74278e-05 -1.59602e-05 2.54952e-20
2.73564e-05 1.59662e-05 2.54956e-21
-4.32772e-05 1.8952e-05 9.64822e-21
3.60682e-05 -5.60527e-05 1.32962e-20
-3.64907e-05 5.60976e-05 -6.55697e-21
1.91042e-05 -2.26997e-05 4.66115e-20
-3.75768e-05 7.06338e-05 2.29353e-20
-7.30578e-05 3.86826e-05 2.73038e-21
2.83582e-06 2.19388e-05 -2.9136e-21
-3.1842e-06 -2.18462e-05 3.73296e-20
7.7866e-05 -3.22552e-05 -2.73226e-21
7.78738e-05 3.22584e-05 1.63937e-21
4.16733e-06 -7.38099e-06 6.8834e-20
2.58831e-05 1.45033e-05 1.60246e-20
2.59542e-05 -1.40324e-05 3.82403e-20
-1.57276e-05 -1.07437e-05 1.00338e-19
-6.79818e-06 -1.74062e-05 4.37069e-20
-4.56405e-05 -9.46023e-06 2.37577e-20
3.19631e-05 7.10684e-06 3.98755e-20
-3.96099e-05 -5.62726e-06 5.98994e-20
-2.91704e-05 -2.42805e-05 6.17378e-20
-3.35371e-05 -5.80849e-05 -7.65113e-21
-3.36381e-05 5.82598e-05 5.79297e-20
-3.51269e-05 -3.86039e-05 2.39402e-20
-2.56513e-05 1.49467e-05 8.52141e-20
2.53169e-05 -1.35193e-05 5.46279e-20
6.06511e-06 -6.33526e-05 4.00727e-21
-6.22393e-06 6.34615e-05 2.54999e-21
-3.00571e-05 2.66906e-05 1.34587e-19
2.1671e-06 2.88453e-05 3.35073e-20
-2.22354e-06 -2.90884e-05 4.91687e-20
1.85684e-05 -6.57673e-06 2.98648e-20
1.79306e-05 6.17795e-06 3.22322e-20
4.1807e-05 3.2086e-05 3.75942e-20
2.25932e-05 -2.12712e-05 2.7681e-20
2.23648e-05 2.14723e-05 3.20517e-20
2.49768e-05 1.36889e-05 1.13809e-20
1.1846e-05 -3.20456e-05 4.80689e-20
1.68851e-05 -1.52959e-05 3.369e-20
1.63127e-05 1.50577e-05 3.11406e-20
-2.68521e-05 1.21748e-05 1.13808e-19
1.41836e-05 1.07957e-05 2.03957e-20
-3.22725e-05 -2.21382e-05 6.5546e-20
-1.15354e-05 2.76266e-06 1.00702e-19
-4.31135e-06 7.13859e-06 7.28429e-21
3.36783e-05 -5.90797e-06 5.04326e-20
-2.63354e-05 1.56462e-05 1.18548e-19
-2.77855e-05 -1.2766e-05 6.90125e-20
-2.161e-05 -2.61878e-05 4.50608e-20
-2.47472e-05 -1.62085e-05 7.99332e-20
-5.54687e-07 -2.99537e-05 3.82399e-20
2.6784e-07 2.98306e-05 1.67527e-20
4.12243e-05 1.78258e-05 3.68639e-20
-1.57367e-05 1.06713e-05 7.81218e-20
2.06957e-05 -3.27468e-05 3.95995e-20
2.0393e-05 3.27296e-05 1.03777e-20
-2.55863e-05 1.49511e-05 1.00879e-19
-1.04644e-05 1.64894e-05 1.66995e-19
-1.0728e-05 -1.75836e-05 8.68663e-20
-6.59116e-06 -3.04035e-05 2.03915e-20
-2.40074e-05 2.26701e-05 7.6294e-20
3.08841e-06 -4.23003e-05 3.13123e-20
5.63438e-06 4.30606e-05 4.03236e-20
4.36633e-05 2.46317e-06 2.24829e-20
4.34722e-05 -3.14851e-05 3.31338e-20
2.88624e-05 1.98812e-05 1.41098e-20
-4.34537e-05 7.52721e-05 2.29518e-20
4.34184e-05 -7.52036e-05 -2.71424e-20
3.25446e-05 6.77449e-06 3.81432e-20
5.04395e-06 1.743e-05 8.55853e-21
1.91721e-05 -7.01811e-06 3.80584e-20
-6.2215e-06 3.06324e-05 4.43334e-20
9.13185e-06 -1.81445e-05 6.44659e-20
-9.25555e-06 1.78575e-05 -8.74146e-21
1.44507e-05 -1.09186e-05 5.08071e-20
1.05263e-05 -2.33759e-06 2.03961e-20
-5.18587e-06 -1.66664e-05 4.75259e-20
8.80476e-06 3.63364e-07 2.18528e-20
2.88182e-05 -2.08678e-05 4.65169e-20
-1.11472e-05 -3.07971e-06 7.79397e-20
2.89295e-05 -2.20309e-05 4.28779e-20
-3.36737e-05 4.107e-05 3.23141e-20
-1.78163e-05 1.35366e-05 8.83147e-20
1.1436e-05 -4.70567e-05 3.65941e-20
1.19026e-05 4.64301e-05 3.27708e-20
4.84149e-05 1.21443e-05 3.35897e-20
2.90116e-05 2.22388e-05 1.72964e-21
5.37228e-08 3.41279e-05 2.5492e-20
-3.39189e-07 -3.42797e-05 3.64171e-20
2.29879e-05 -4.11996e-05 2.93093e-20
2.29255e-05 4.22329e-05 2.82169e-20
2.99999e-06 -9.19361e-06 1.8393e-20
3.22213e-06 9.08178e-06 3.58755e-20
1.65682e-05 1.23889e-05 1.01975e-20
1.12191e-05 1.61878e-05 6.61042e-20
-2.47304e-05 -1.46875e-05 1.07257e-19
-4.89321e-05 -3.763e-05 1.70202e-20
6.04248e-06 3.17402e-05 2.13021e-20
3.0922e-05 1.58877e-05 2.1854e-20
3.10174e-05 -1.58538e-05 1.36587e-20
2.67785e-05 1.74854e-05 -1.63879e-21
2.59226e-05 -1.44075e-05 3.64209e-20
2.58896e-05 1.44402e-05 1.09269e-21
-1.25217e-05 -0.000141343 -4.09432e-22
0.000140328 -2.13001e-05 2.14748e-20
6.08858e-06 -3.12234e-05 4.63368e-20
4.95965e-05 -4.51463e-05 1.76674e-20
4.95335e-05 4.52927e-05 2.82315e-20
-6.08686e-05 -3.59713e-06 -7.73759e-22
-2.03549e-06 2.67331e-05 5.53573e-20
1.78634e-06 -2.71375e-05 5.48115e-20
-2.21247e-05 3.22757e-05 5.58934e-20
9.72436e-06 2.95704e-06 3.8789e-20
-4.26542e-06 -8.36414e-06 8.35827e-20
-2.37298e-05 1.88052e-05 -6.55647e-21
2.34175e-05 -1.90808e-05 4.80801e-20
1.64891e-05 -1.21263e-05 4.78919e-20
-1.82076e-05 -1.23362e-05 7.72087e-20
2.68236e-05 -1.73982e-05 4.51579e-20
-3.17053e-05 -1.98857e-05 4.41501e-20
3.05633e-05 -7.6146e-06 5.29852e-20
4.38292e-06 7.92784e-06 1.69359e-20
-1.09128e-05 2.22899e-05 6.07253e-20
-6.38071e-06 -3.10013e-05 2.41252e-20
2.36309e-05 1.47669e-05 -1.14719e-20
6.26433e-06 3.12023e-05 1.30186e-20
-1.11325e-05 -1.58876e-05 4.3343e-20
-3.75605e-05 7.0843e-05 -6.32499e-21
-6.87195e-05 3.91082e-05 -1.2923e-20
2.57987e-05 -4.8188e-06 5.28054e-20
2.36949e-05 -1.47282e-05 3.87858e-20
8.08002e-05 -3.93149e-05 2.18585e-21
8.08369e-05 3.93882e-05 6.19326e-21
5.06667e-06 -1.77038e-05 5.8453e-20
-4.42379e-05 3.02036e-05 7.44955e-20
-4.33694e-05 -3.09115e-05 4.69921e-20
-1.8509e-05 -8.0935e-06 8.87699e-20
-4.35961e-06 6.88431e-06 8.66782e-20
3.98003e-05 -4.9189e-05 2.03863e-20
-4.76854e-05 -3.75692e-05 1.95674e-20
4.05611e-05 -5.81533e-05 3.23108e-20
3.74237e-05 5.48754e-05 3.24925e-20
6.01624e-05 3.5038e-05 3.10362e-20
3.70935e-06 -6.8666e-06 3.73319e-20
-1.83608e-06 -6.25568e-05 1.81112e-20
6.38261e-05 -4.1861e-06 1.3242e-20
3.43676e-05 4.71709e-05 3.26018e-20
-3.46504e-05 -4.71081e-05 1.45707e-20
-2.15175e-05 -1.6992e-05 7.66671e-20
-9.2788e-06 6.85145e-07 1.05799e-19
2.19936e-05 3.4268e-05 2.71261e-20
2.22879e-05 -3.40842e-05 3.86866e-20
-2.11203e-05 6.15839e-06 1.00516e-19
1.119e-05 -2.24825e-05 5.59009e-20
3.37877e-05 -2.65164e-05 1.56633e-20
3.36627e-05 2.65897e-05 3.53336e-20
-2.59135e-05 -1.36299e-05 9.37838e-20
-1.81225e-05 1.21026e-05 8.41283e-20
-2.07997e-05 -9.65453e-06 8.03054e-20
-3.94219e-05 -2.15982e-05 2.77624e-20
-5.29545e-06 1.78488e-05 7.9028e-20
-8.05569e-05 8.05573e-05 -5.31883e-20
-5.85359e-06 3.16026e-05 4.30615e-20
5.66681e-06 -3.21629e-05 4.6066e-20
6.05003e-06 -6.33666e-05 5.82834e-21
-6.24255e-06 6.34347e-05 1.3478e-20
8.89728e-06 -1.69288e-05 1.4387e-20
8.82849e-06 1.63281e-05 4.35252e-20
-3.07181e-05 1.6182e-05 9.50645e-20
-3.04818e-05 -1.56424e-05 8.7961e-20
-5.36772e-05 -9.93717e-06 6.39307e-20
-5.29374e-05 1.01558e-05 7.72265e-20
7.1779e-05 -3.98405e-05 8.37867e-21
7.17438e-05 3.9918e-05 4.73579e-21
1.93487e-05 1.01675e-06 2.34926e-20
1.90226e-05 -4.85532e-07 2.33106e-20
2.78566e-05 -1.31459e-05 5.52618e-20
-1.86259e-06 2.79213e-05 5.72669e-20
2.40145e-05 1.79832e-05 -7.46525e-21
1.66909e-06 -2.78207e-05 5.48094e-20
-4.40439e-05 3.02225e-05 3.86856e-20
2.76847e-05 1.3239e-05 9.10391e-22
-3.32985e-06 -2.95542e-05 1.8482e-20
-1.94378e-05 -3.85371e-07 6.28279e-20
-1.95356e-05 2.1084e-07 1.1564e-19
-2.0469e-05 1.77148e-05 1.42774e-19
3.52699e-05 6.10904e-05 9.29051e-21
-3.53105e-05 -6.11658e-05 -8.9253e-21
-6.70069e-06 -2.13472e-05 5.64532e-20
-2.60443e-05 -1.5402e-05 7.62988e-20
-3.69257e-06 -3.42053e-05 7.24867e-20
2.41611e-05 -1.77609e-05 4.65215e-20
3.91371e-05 7.3037e-05 3.1717e-20
7.02741e-05 3.45993e-05 2.63928e-20
5.58801e-06 -2.10392e-05 2.03973e-20
5.22985e-06 2.04522e-05 4.42548e-20
-4.8204e-06 3.58721e-05 1.50074e-19
2.90138e-06 2.86976e-05 4.73437e-21
3.38835e-05 -1.78506e-05 5.71716e-20
2.82641e-05 -9.25034e-06 2.38567e-20
2.8198e-05 9.26753e-06 -2.54957e-21
-6.99616e-05 1.23933e-09 3.27916e-20
-7.00647e-05 -1.21622e-09 -3.935e-20
5.27072e-06 -1.652e-05 5.88187e-20
-2.66883e-05 -1.59322e-05 7.81164e-20
2.22824e-05 2.50849e-05 2.98677e-20
2.25093e-05 -2.50063e-05 2.80465e-20
7.02857e-06 2.04319e-05 7.1384e-20
3.13668e-06 5.62422e-06 7.93954e-20
7.8476e-05 7.84761e-05 2.43878e-20
-2.31617e-05 -7.94207e-06 5.06295e-20
-2.31284e-05 7.44509e-06 1.09819e-19
-5.52276e-06 1.64205e-05 7.99408e-20
3.38591e-05 1.78782e-05 1.95731e-20
-2.61984e-05 1.31835e-05 1.089e-19
-3.38447e-05 4.39838e-06 6.57445e-20
-3.38125e-05 -4.3993e-06 1.05082e-19
-2.04482e-05 9.72263e-06 1.35847e-19
1.0279e-05 -4.43556e-05 2.33124e-20
1.00712e-05 4.45162e-05 4.22538e-20
1.37221e-05 8.29675e-05 7.10395e-21
-1.39015e-05 -8.29136e-05 -4.0074e-21
-1.07503e-05 0.000141445 1.01916e-20
-0.00014159 7.81022e-06 -1.57879e-20
2.11849e-05 2.97477e-06 1.34762e-20
2.10629e-05 -3.02579e-06 4.40706e-20
-2.41744e-06 -6.00672e-06 5.44499e-20
7.67947e-05 9.70733e-05 4.13586e-20
9.56228e-05 7.57995e-05 3.08485e-20
3.39587e-05 8.19773e-05 1.11114e-20
3.39265e-05 -8.19e-05 1.73047e-20
-2.46228e-05 1.45263e-05 9.37822e-20
2.10968e-05 -2.29968e-05 4.37005e-20
2.26249e-05 1.21637e-05 -3.27786e-21
2.2678e-05 -1.21564e-05 3.22324e-20
1.588e-05 -1.60585e-05 4.35201e-20
2.09027e-05 2.33523e-05 -3.27752e-21
-9.18098e-07 -6.37173e-05 3.03995e-20
6.09576e-07 6.46944e-05 3.49504e-20
6.78974e-05 -4.09343e-07 6.9172e-21
1.58862e-05 1.60986e-05 3.09556e-21
2.71723e-06 6.67542e-05 3.06251e-20
-6.71454e-05 -8.53807e-06 1.86568e-21
3.02245e-05 -4.96831e-06 4.31612e-20
3.02416e-05 4.72515e-06 2.40392e-20
2.87873e-05 -9.87575e-06 2.36752e-20
2.87453e-05 9.91343e-06 1.47515e-20
-7.92075e-05 9.84053e-05 -4.00842e-20
-9.71911e-05 7.92307e-05 -3.94016e-20
2.38314e-05 1.30298e-05 -3.64202e-21
2.38754e-05 -1.30052e-05 3.84231e-20
8.20848e-06 4.86948e-05 1.1839e-20
-8.38781e-06 -4.86384e-05 2.36777e-21
2.21098e-05 8.91434e-06 3.2053e-20
2.16951e-05 -8.82673e-06 3.16888e-20
3.3218e-05 -3.16938e-05 2.31297e-20
3.30871e-05 3.18119e-05 3.22359e-20
-1.96621e-05 4.608e-06 8.46795e-20
-2.00896e-05 -4.81825e-06 1.07078e-19
3.09503e-05 6.00703e-05 2.82314e-20
4.58922e-05 4.62455e-05 2.45894e-20
3.10551e-05 -5.9833e-05 2.31316e-20
4.58763e-05 -4.61197e-05 1.18393e-20
-3.31446e-05 -6.17254e-05 1.40249e-20
-6.96012e-05 -1.13138e-06 2.13114e-20
-6.95758e-05 9.65001e-07 3.97088e-20
3.28709e-05 6.17048e-05 2.7686e-20
5.60117e-05 2.32018e-05 5.82845e-21
0.000145714 1.91796e-05 -1.4573e-20
5.59556e-05 -2.31784e-05 8.37841e-21
0.000145729 -1.91813e-05 -8.01518e-21
7.2213e-05 -1.35566e-06 1.60284e-20
4.90497e-05 1.39802e-05 2.44056e-20
6.77651e-05 -2.19584e-05 6.37503e-21
7.21654e-05 1.39229e-06 2.25854e-20
4.89808e-05 -1.39577e-05 2.98695e-20
6.77194e-05 2.19881e-05 1.63931e-21
5.18624e-05 -2.04924e-05 2.54982e-20
5.24845e-05 -2.03007e-05 1.31141e-20
5.1797e-05 2.05559e-05 2.96873e-20
5.24316e-05 2.03603e-05 1.49355e-20
-1.197e-05 -3.30141e-05 4.6976e-20
-4.52102e-06 2.73438e-05 -1.74822e-20
4.75913e-06 -2.72133e-05 3.29614e-20
-2.45732e-05 4.48676e-06 5.37153e-21
-3.13889e-05 8.16037e-06 1.72971e-20
-5.22899e-06 3.5576e-05 -2.65889e-20
5.46484e-06 -3.54189e-05 2.44032e-20
-3.14115e-05 -8.08902e-06 2.76757e-20
-1.0543e-05 -1.65645e-05 6.6285e-20
-1.77245e-05 -3.98304e-05 4.22343e-20
1.80002e-05 4.08226e-05 -2.15721e-20
4.14578e-05 1.87713e-05 -2.54859e-21
-2.30719e-05 -2.37937e-05 3.76996e-20
2.30984e-05 2.39656e-05 8.1957e-21
-2.52578e-05 1.51217e-05 -2.91343e-20
-1.1184e-05 -2.26939e-05 4.5066e-20
-3.80708e-06 -2.19038e-05 2.3309e-20
-2.53851e-06 -3.63397e-05 3.95185e-20
2.73726e-06 3.63525e-05 -1.45684e-21
2.56273e-05 3.83203e-06 -2.00299e-21
-1.36478e-05 -4.79418e-05 4.40581e-20
1.29224e-05 4.86005e-05 -3.2224e-20
5.03449e-05 1.33155e-05 -3.36797e-21
1.19075e-05 3.2559e-05 -4.38803e-20
-2.19989e-05 -2.2138e-05 4.62471e-20
-2.31064e-05 -4.74401e-06 4.24259e-20
-3.45196e-05 -7.15053e-05 4.7283e-20
-2.04294e-05 1.02877e-05 -9.10507e-21
-1.02785e-06 3.39455e-05 -6.01022e-21
1.3809e-06 -3.38339e-05 2.91403e-20
-7.63232e-05 -3.69924e-05 7.65037e-21
-7.61465e-05 3.83254e-05 -2.20409e-20
-1.65231e-05 2.23278e-05 -3.12278e-20
-1.99704e-05 2.36377e-05 -1.9755e-20
-4.60171e-05 1.48398e-05 1.27437e-20
-3.25699e-05 -1.57763e-05 1.05634e-20
-3.11755e-05 1.527e-05 -2.8594e-20
-5.33221e-06 1.0955e-05 -1.49324e-20
-9.59763e-06 -3.39513e-07 5.77248e-20
-3.31216e-05 2.16324e-05 -1.65684e-20
-3.82401e-05 -6.01194e-06 3.24989e-20
-3.48915e-05 7.01145e-06 1.82064e-21
3.44356e-06 2.21319e-05 -4.89848e-20
-1.08841e-05 3.28167e-05 -1.72063e-20
1.98883e-05 2.31642e-05 -5.34383e-20
-7.74062e-05 -7.74051e-05 2.42974e-20
-7.6215e-05 7.62137e-05 -5.00516e-22
6.90403e-06 1.78281e-05 -1.42046e-20
1.15143e-05 2.30173e-05 -3.00439e-20
-7.64371e-05 8.31355e-05 8.87249e-21
-8.06459e-05 -7.75618e-05 1.37412e-20
3.95877e-05 -7.85487e-06 2.2948e-20
3.98314e-05 7.29444e-06 -4.37099e-20
1.87177e-05 6.3919e-06 3.27771e-21
3.71283e-05 -2.51583e-05 2.00336e-20
3.73089e-05 2.5042e-05 -2.25835e-20
-3.23222e-05 -5.97494e-05 2.53177e-20
-3.23397e-05 5.93076e-05 -2.8779e-20
2.74446e-05 -1.60314e-05 2.69522e-20
2.73817e-05 1.57319e-05 -2.40383e-20
-3.61427e-05 5.61064e-05 -3.84326e-20
3.68747e-05 -5.62248e-05 1.51174e-20
1.90604e-05 -2.27562e-05 4.64296e-20
3.74501e-05 7.07633e-05 -1.1058e-20
7.10848e-05 3.74606e-05 -4.8692e-21
2.9078e-06 2.20189e-05 -1.60245e-20
-2.93736e-06 -2.16998e-05 3.5509e-20
7.73019e-05 -3.20196e-05 3.09659e-21
7.82493e-05 3.24099e-05 -4.00769e-20
-3.16271e-05 -2.19751e-05 4.25141e-20
4.1746e-06 -6.96599e-06 1.60255e-20
2.59293e-05 1.40713e-05 -2.6222e-20
2.60016e-05 -1.41646e-05 2.54937e-20
-1.59561e-05 -1.08512e-05 6.00944e-21
-6.55698e-06 -1.73443e-05 4.47998e-20
-2.91234e-05 2.43114e-05 -4.75326e-20
-4.4383e-05 -1.00451e-05 2.97655e-20
-3.35446e-05 5.80966e-05 -9.65486e-21
-3.36632e-05 -5.83074e-05 1.3662e-20
-2.5016e-05 -1.54255e-05 2.62197e-20
2.50656e-05 1.33385e-05 -2.13959e-20
-3.55142e-05 -3.86023e-05 4.69701e-20
6.35649e-06 -6.36495e-05 7.10347e-21
-6.09705e-06 6.34174e-05 -3.44271e-20
-3.01313e-05 -2.6705e-05 2.54963e-20
2.30381e-06 2.90482e-05 -2.58589e-20
-1.98131e-06 -2.90206e-05 4.33416e-20
1.83198e-05 6.12288e-06 -7.10201e-21
1.87014e-05 -6.77816e-06 3.82416e-21
4.19385e-05 -3.1515e-05 5.50714e-20
3.15288e-05 6.79488e-06 8.92187e-21
2.26749e-05 -2.127e-05 6.55603e-21
2.25121e-05 2.11752e-05 -1.31121e-20
2.5531e-05 -1.37818e-05 2.93171e-20
1.1942e-05 -3.19225e-05 4.09679e-20
1.70619e-05 -1.53786e-05 1.63898e-20
1.65296e-05 1.48662e-05 -1.16549e-20
-2.70611e-05 -1.20996e-05 4.16992e-20
-2.84241e-05 2.23653e-05 -2.32125e-20
1.38789e-05 1.07253e-05 -8.06705e-20
-1.18673e-05 2.89091e-06 1.11087e-20
-4.38286e-06 7.40774e-06 -6.84699e-20
3.3773e-05 5.6096e-06 -2.45791e-21
-4.76807e-05 4.6433e-05 -4.59638e-21
-2.63921e-05 -1.57631e-05 1.51142e-20
-2.72576e-05 1.2928e-05 -1.82091e-20
-6.48239e-05 1.05969e-05 -7.37233e-21
-2.52735e-05 1.54278e-05 -2.45808e-20
-3.74437e-07 -2.98534e-05 4.47952e-20
5.58549e-07 2.99535e-05 -1.72991e-20
-2.24212e-05 -2.66387e-05 4.72456e-20
4.1414e-05 -1.78492e-05 3.04014e-20
-1.57692e-05 1.17409e-05 -1.9667e-20
2.05822e-05 -3.23284e-05 5.59856e-20
-2.16175e-05 3.48601e-05 -1.50204e-20
-2.59521e-05 -1.53534e-05 2.00302e-20
-1.04793e-05 -1.65021e-05 5.59069e-20
-1.0711e-05 1.76237e-05 -3.56934e-20
-6.43917e-06 -3.06173e-05 4.14205e-20
5.99222e-06 3.1334e-05 -4.17844e-20
3.73288e-06 -4.22683e-05 4.30545e-20
-5.5754e-06 4.35184e-05 -2.32111e-20
4.41102e-05 -4.80119e-06 8.64725e-21
2.93335e-05 -1.96211e-05 4.66082e-20
4.35586e-05 -7.5449e-05 5.4643e-22
-4.34569e-05 7.5273e-05 -3.44317e-20
-3.10868e-05 -1.87471e-05 4.11462e-20
3.26675e-05 -7.21888e-06 3.50482e-20
-4.93366e-05 -3.91146e-05 1.67475e-20
4.85165e-06 1.75323e-05 -4.28825e-20
1.91913e-05 -7.14322e-06 1.32931e-20
9.107e-06 -1.76593e-05 2.05787e-20
-9.33487e-06 1.8144e-05 -6.10064e-20
2.92217e-05 4.11837e-05 -3.04939e-20
4.34625e-05 2.92466e-05 -1.35629e-20
1.46142e-05 -1.10632e-05 3.9699e-20
-6.21919e-05 -2.8063e-06 1.85224e-20
1.01983e-05 -2.52542e-06 -1.14905e-19
-4.96471e-06 -1.78381e-05 3.49623e-20
8.90546e-06 2.27725e-07 -8.55906e-21
-1.03263e-05 -2.67268e-06 -2.56763e-20
-2.35996e-05 -2.25028e-05 3.40501e-20
1.15752e-05 -4.67369e-05 4.83372e-20
-1.10738e-05 4.66519e-05 -2.31214e-20
4.77863e-05 -1.25525e-05 2.63984e-20
2.94419e-05 -2.26087e-05 5.27099e-20
3.53732e-07 3.40701e-05 -2.00293e-20
-1.56822e-07 -3.42215e-05 4.51577e-20
2.35168e-05 -4.23698e-05 4.98804e-20
-2.23346e-05 4.46009e-05 -2.91271e-20
3.30988e-06 8.71305e-06 -2.73164e-21
3.16195e-06 -9.24711e-06 -2.91373e-21
1.65682e-05 1.25244e-05 -5.2443e-20
1.13059e-05 1.62959e-05 -8.1948e-21
-2.42902e-05 1.48875e-05 -2.13056e-20
3.10544e-05 1.56414e-05 -2.31286e-20
3.09849e-05 -1.59278e-05 2.07614e-20
2.59723e-05 -1.45116e-05 2.73157e-20
2.59177e-05 1.42157e-05 -2.87721e-20
-1.50133e-05 -0.000139789 4.59983e-20
2.05672e-05 3.21392e-05 -4.83382e-20
-0.000143995 1.68694e-05 -2.12932e-20
-1.825e-05 -1.35765e-05 2.58572e-20
6.2992e-06 -3.11168e-05 3.58679e-20
-5.41587e-06 3.20729e-05 -1.6022e-20
4.93165e-05 -4.48379e-05 6.37489e-21
4.97946e-05 4.51382e-05 -4.75388e-20
2.69497e-05 1.73758e-05 -3.64173e-20
3.15887e-05 -7.84998e-06 2.78582e-20
2.93507e-05 2.03816e-05 -2.62169e-20
-1.90263e-06 2.69362e-05 -3.02282e-20
1.97857e-06 -2.70937e-05 5.66325e-20
9.94173e-06 2.65412e-06 4.17031e-20
2.68995e-05 -1.75093e-05 3.67819e-20
-4.82584e-06 -8.02188e-06 1.54791e-20
-2.34699e-05 1.90703e-05 -3.75177e-20
2.40121e-05 -1.86353e-05 3.04146e-20
1.65937e-05 -1.22359e-05 4.35218e-20
-1.85159e-05 -1.25831e-05 2.94088e-20
3.80114e-06 8.14891e-06 -1.06345e-19
6.13768e-06 3.09343e-05 -1.31096e-20
-6.35493e-06 -3.08581e-05 4.4063e-20
2.36627e-05 1.45418e-05 -3.00452e-20
2.9483e-05 2.23117e-05 -4.26045e-20
-1.04003e-05 2.25782e-05 -2.63113e-20
-1.0803e-05 -1.58565e-05 4.46177e-20
3.77079e-05 6.83696e-05 -1.21496e-20
6.93804e-05 3.76181e-05 -5.32399e-21
-4.31346e-05 3.22632e-05 -1.78407e-20
2.37654e-05 -1.48293e-05 3.15023e-20
2.58799e-05 -4.745e-06 2.6949e-20
8.1117e-05 3.93201e-05 -4.49931e-20
8.0237e-05 -3.90821e-05 2.18587e-21
5.26119e-06 -1.77695e-05 5.06231e-20
-4.42628e-05 -3.02737e-05 -9.10663e-21
-4.34323e-05 3.09359e-05 -2.71389e-20
-1.83561e-05 7.86477e-06 1.44763e-20
-4.61094e-06 6.90751e-06 -1.83919e-20
-3.63085e-05 4.84388e-05 -5.64268e-21
-4.55797e-05 -3.89622e-05 2.4573e-20
3.9043e-05 -5.59084e-05 4.7783e-20
-3.55022e-05 5.79709e-05 -2.06608e-20
5.84884e-05 -3.41048e-05 2.76687e-20
-3.98567e-05 -2.15806e-05 3.996e-20
4.06446e-06 -6.94466e-06 4.7348e-20
-4.77766e-06 -6.25477e-05 5.16942e-20
-5.92031e-05 5.28163e-07 -3.54932e-21
3.44737e-05 4.72467e-05 4.91772e-21
-3.44757e-05 -4.71323e-05 3.20552e-20
-2.12674e-05 1.68298e-05 -3.64213e-20
-9.31563e-06 -6.80337e-07 3.16848e-20
-2.11484e-05 3.45088e-05 -2.34845e-20
2.23683e-05 -3.38338e-05 5.69832e-20
-2.11766e-05 -6.2778e-06 4.40665e-20
1.12937e-05 -2.24767e-05 4.3337e-20
3.3709e-05 -2.64459e-05 8.74238e-21
3.38439e-05 2.63411e-05 -2.64092e-20
-2.60474e-05 1.37047e-05 -2.47662e-20
-1.62063e-05 1.19465e-05 -2.88618e-20
-2.09082e-05 9.72246e-06 -2.89536e-20
-4.79564e-06 1.9458e-05 -2.42182e-20
8.00938e-05 8.0095e-05 -1.49692e-20
5.85703e-06 -3.21016e-05 4.07858e-20
-5.43734e-06 3.20292e-05 -2.57642e-20
-6.06138e-06 6.34586e-05 -1.47534e-20
6.44567e-06 -6.35304e-05 1.89417e-20
9.0929e-06 -1.69954e-05 -5.28132e-21
9.00776e-06 1.61408e-05 -1.14732e-20
-3.09033e-05 -1.62498e-05 9.46985e-21
-3.02448e-05 1.56475e-05 -2.02146e-20
-5.36788e-05 9.7669e-06 -2.49525e-20
-5.29728e-05 -1.00149e-05 -3.16921e-20
7.12263e-05 -3.96074e-05 5.4644e-21
7.22405e-05 3.98388e-05 -4.17136e-20
1.94741e-05 7.32519e-07 3.07774e-20
1.85296e-05 -7.09567e-07 -1.24925e-19
2.79265e-05 1.28991e-05 -2.9224e-20
-1.70055e-06 2.82817e-05 -2.0667e-20
1.86353e-06 -2.77643e-05 4.70709e-20
2.77497e-05 -1.3432e-05 3.62344e-20
-3.08098e-06 -2.93053e-05 4.51585e-20
3.02449e-06 2.90737e-05 -1.4385e-20
2.41518e-05 1.79036e-05 -4.14228e-20
-1.95464e-05 3.38552e-08 -8.19519e-21
-1.97418e-05 -2.33122e-07 -2.23995e-20
2.41338e-05 -1.79914e-05 4.36994e-20
-2.06664e-05 -1.78445e-05 3.60577e-20
3.53168e-05 6.11766e-05 -3.27917e-20
-3.53151e-05 -6.11707e-05 4.73578e-21
-6.45817e-06 -2.13379e-05 5.51786e-20
-2.59403e-05 1.51817e-05 -3.11386e-20
-3.68619e-06 3.42208e-05 -4.86281e-20
4.07178e-05 -7.18265e-05 4.07269e-20
7.06923e-05 -3.36379e-05 1.64273e-20
5.86258e-06 -2.10073e-05 1.82118e-21
5.35867e-06 2.04339e-05 -4.73508e-21
-4.82757e-06 -3.59106e-05 3.515e-20
3.41324e-05 1.77766e-05 -2.14846e-20
2.82684e-05 -9.42093e-06 3.3691e-20
2.82283e-05 8.9938e-06 -3.04122e-20
-6.99366e-05 -2.20411e-09 1.45722e-21
-7.00695e-05 6.25459e-10 -1.36631e-20
5.47555e-06 -1.65257e-05 5.40843e-20
-2.61091e-05 1.53129e-05 -2.33075e-20
2.24227e-05 2.48416e-05 -1.23842e-20
2.25934e-05 -2.49552e-05 1.71193e-20
7.1267e-06 2.06305e-05 -2.53124e-20
3.65579e-06 5.93746e-06 -2.0031e-20
7.775e-05 -7.77494e-05 -6.6429e-21
-2.35754e-05 7.79829e-06 -1.22021e-20
-2.31401e-05 -7.30175e-06 -1.93047e-20
-5.30569e-06 1.68516e-05 -2.4037e-20
3.33649e-05 -1.7985e-05 4.20597e-20
-2.62249e-05 -1.31543e-05 1.20191e-20
-3.42489e-05 -3.64866e-06 5.64565e-21
-3.36524e-05 5.6439e-06 -1.22018e-20
-2.05085e-05 -9.61816e-06 4.93491e-20
1.01695e-05 4.43472e-05 -2.69552e-20
1.04983e-05 -4.40474e-05 9.1065e-22
1.38425e-05 8.2978e-05 -4.44469e-20
-1.36733e-05 -8.31539e-05 1.82123e-22
6.41927e-06 0.000138722 -1.83814e-20
0.000139885 9.63417e-06 -4.6408e-21
2.11432e-05 -3.2697e-06 3.33263e-20
2.10813e-05 2.67833e-06 -7.32061e-20
-2.17097e-06 -6.06965e-06 5.15366e-20
7.58428e-05 -9.45757e-05 1.14659e-20
9.22511e-05 -7.55128e-05 6.41542e-21
3.40141e-05 8.21073e-05 -1.45721e-20
3.37037e-05 -8.13586e-05 9.28988e-21
-2.46509e-05 -1.45112e-05 1.40218e-20
2.11652e-05 -2.30694e-05 4.51573e-20
2.274e-05 -1.2297e-05 3.25967e-20
2.25355e-05 1.1953e-05 -3.89698e-20
1.5981e-05 -1.619e-05 3.91501e-20
2.09464e-05 2.33502e-05 -3.58704e-20
-1.68043e-06 6.13877e-05 -1.52908e-20
-8.08753e-07 -6.67163e-05 4.49623e-20
6.37503e-05 -2.09703e-06 6.73517e-21
1.58989e-05 1.59565e-05 -3.67822e-20
-6.7107e-06 6.7872e-05 -5.18758e-21
6.70911e-05 -4.97047e-06 9.64713e-21
3.01967e-05 -5.1892e-06 2.84101e-20
3.01611e-05 4.43351e-06 -7.84901e-20
2.87788e-05 -1.0031e-05 2.82283e-20
2.86893e-05 9.53745e-06 -4.86252e-20
7.85592e-05 9.66547e-05 -4.08123e-20
9.71215e-05 7.86373e-05 3.09395e-21
2.38527e-05 1.28984e-05 -3.40521e-20
2.39438e-05 -1.31503e-05 3.51455e-20
8.3397e-06 4.87693e-05 -1.93073e-20
-8.12542e-06 -4.86672e-05 2.45883e-20
2.21916e-05 8.50561e-06 2.404e-20
2.13576e-05 -9.53059e-06 -9.52467e-20
3.31483e-05 -3.15447e-05 7.28499e-21
3.32625e-05 3.16004e-05 -2.18549e-20
-1.98214e-05 -4.67184e-06 6.73802e-21
-2.10815e-05 5.19265e-06 -2.18526e-20
-3.29673e-05 -6.17784e-05 1.6757e-20
-6.9509e-05 -1.08907e-06 -1.4207e-20
-6.95679e-05 1.22558e-06 -2.44081e-20
3.29772e-05 6.17734e-05 -1.62113e-20
3.10994e-05 5.99388e-05 -2.60457e-20
4.60343e-05 4.61212e-05 -3.07822e-20
3.09891e-05 -5.93116e-05 -2.36781e-21
4.55734e-05 -4.58173e-05 3.64291e-21
5.53944e-05 2.29469e-05 3.09637e-21
5.67471e-05 -2.35037e-05 -3.53378e-20
0.00014644 -1.92778e-05 -4.86441e-20
0.000144658 1.90431e-05 -1.25694e-20
7.15957e-05 -1.61021e-06 4.00711e-21
4.87674e-05 1.35034e-05 1.80311e-20
7.28001e-05 8.37e-07 -6.35688e-20
4.92263e-05 -1.47704e-05 -6.81169e-20
6.82371e-05 2.19898e-05 -4.39008e-20
6.72334e-05 -2.18192e-05 2.91433e-21
5.15422e-05 -2.05e-05 1.71204e-20
5.21676e-05 -2.03072e-05 7.10353e-21
5.20842e-05 2.0255e-05 -5.97404e-20
5.27096e-05 2.00614e-05 -4.09817e-20
-4.37011e-06 2.71828e-05 4.17025e-20
3.32859e-06 -2.99574e-05 -2.69545e-20
-2.43683e-05 -4.7643e-06 9.46851e-21
-3.05176e-05 -8.39125e-06 1.30187e-20
-5.05984e-06 3.52007e-05 8.06776e-20
3.00699e-06 -3.3702e-05 -1.16565e-20
-3.25934e-05 7.83322e-06 -2.91329e-21
-1.01421e-05 1.63407e-05 -6.73806e-21
-1.72471e-05 4.23402e-05 -3.31317e-20
-1.64978e-05 -4.13556e-05 -3.18582e-21
4.22835e-05 1.69984e-05 -8.8293e-21
2.39051e-05 -2.24597e-05 1.63918e-21
2.28952e-05 2.37246e-05 1.69377e-20
-2.37557e-05 -1.606e-05 6.73763e-21
6.66209e-06 -3.29404e-05 1.457e-21
2.74291e-06 3.59717e-05 3.24166e-20
2.54466e-05 -5.98605e-06 -9.28686e-21
-1.13671e-05 -5.1061e-05 -7.46472e-21
-1.37969e-05 4.89709e-05 -2.88561e-20
5.04462e-05 1.17435e-05 -1.59303e-20
-3.37818e-05 7.30902e-06 -2.04825e-20
1.28295e-05 3.18607e-05 -1.36559e-20
1.59904e-05 -3.63078e-05 -4.89835e-20
-2.2994e-05 3.98559e-06 6.37323e-22
-3.46816e-05 -7.52221e-05 -4.18687e-21
-1.96868e-05 -1.03879e-05 4.7347e-21
7.5108e-05 3.5654e-05 1.35159e-20
-9.54947e-07 3.36076e-05 7.0302e-20
6.02044e-06 -3.25321e-05 7.28577e-22
-7.60239e-05 3.69596e-05 2.07649e-20
-7.39846e-05 -3.82836e-05 1.43897e-20
-4.95278e-05 1.55782e-05 -2.70352e-20
-1.53312e-05 -2.27335e-05 4.37026e-21
-2.98087e-05 -1.57759e-05 1.94877e-20
-3.21692e-05 1.564e-05 -7.28515e-22
-5.04196e-06 -1.10347e-05 -1.45688e-21
1.98202e-05 2.2542e-05 3.09539e-21
2.18121e-05 -2.8545e-05 -3.36865e-20
-3.17598e-05 2.07623e-05 -3.08614e-20
-9.18303e-06 -1.17119e-07 -3.27789e-21
-2.04196e-05 -2.43654e-05 1.43846e-20
-2.08965e-05 2.21985e-05 -2.38516e-20
-9.00424e-06 -3.36906e-05 2.00294e-21
-1.15416e-05 3.22446e-05 -2.00285e-20
1.0058e-05 -2.6912e-05 -3.4604e-20
3.71942e-06 2.19739e-05 2.91363e-20
-3.24017e-05 2.07055e-05 -2.86749e-20
-8.07761e-05 -8.07792e-05 4.09483e-22
8.02537e-05 8.02588e-05 -1.22851e-20
8.61258e-06 -1.66695e-05 7.28458e-22
6.88109e-06 1.76598e-05 1.94858e-20
8.05774e-05 8.57682e-05 -2.87108e-20
-8.44666e-05 -8.09577e-05 1.95654e-21
3.90127e-05 6.81132e-06 -4.2983e-20
3.14429e-05 -1.70637e-05 1.82138e-22
1.81652e-05 -8.6105e-06 -2.2034e-20
3.65713e-05 2.39836e-05 -6.35633e-20
2.99345e-05 -2.76752e-05 1.18391e-20
1.21003e-05 2.27069e-05 -6.37299e-21
1.53429e-05 -2.8188e-05 -4.62545e-20
-3.10447e-05 -5.93126e-05 1.43891e-20
-3.19371e-05 5.99379e-05 2.3679e-21
2.70791e-05 1.48091e-05 -3.05948e-20
2.48269e-05 -2.08593e-05 -2.18546e-21
-4.36995e-05 1.83465e-05 -3.85927e-20
-3.56727e-05 5.54842e-05 7.01258e-20
-1.59888e-05 -4.54106e-05 -6.37552e-21
-3.88117e-05 7.26483e-05 -2.01597e-20
-7.38494e-05 3.83207e-05 -2.07967e-20
3.08939e-06 2.18395e-05 2.25802e-20
8.14723e-06 -2.65047e-05 -3.86088e-20
7.63113e-05 3.16135e-05 -5.9757e-20
6.01687e-05 -2.49177e-05 -1.73065e-20
2.57955e-05 1.25506e-05 -2.93183e-20
2.4381e-05 -1.72765e-05 -7.10222e-21
-4.57703e-05 -1.04604e-05 -5.82562e-21
3.2438e-05 -9.73598e-06 -1.89368e-20
-3.90254e-05 -6.1737e-06 9.55854e-21
-2.78363e-05 -2.4465e-05 9.83434e-21
-3.35831e-05 5.816e-05 1.27502e-20
-3.30634e-05 -5.72677e-05 1.56646e-20
-3.44639e-05 -4.00739e-05 4.18745e-21
-2.56036e-05 1.47049e-05 -1.96647e-20
2.5368e-05 1.22066e-05 -2.1305e-20
4.79155e-07 -4.94156e-05 6.92192e-21
-5.98361e-06 6.27091e-05 8.96198e-20
-2.97265e-05 2.65903e-05 -8.19531e-21
6.45856e-06 -2.94661e-05 -3.09602e-21
2.32038e-06 2.87451e-05 1.69359e-20
1.83774e-05 4.84265e-06 -3.82418e-20
1.68944e-05 -7.81096e-06 -6.37366e-21
4.39595e-05 -3.61548e-05 -2.53978e-20
2.21222e-05 1.95612e-05 -6.81112e-20
1.94651e-05 -2.24717e-05 1.45696e-20
2.45307e-05 -1.74113e-05 1.72987e-21
1.66426e-05 1.38251e-05 -4.15206e-20
1.50718e-05 -1.78158e-05 2.73171e-21
-2.6609e-05 1.19144e-05 -9.28676e-21
1.3895e-05 1.02878e-05 -8.55887e-21
1.67957e-05 -1.96609e-05 -3.33301e-20
-3.19992e-05 -2.26563e-05 1.10158e-20
4.96228e-06 -1.73118e-05 -3.26023e-20
-4.11316e-06 7.21551e-06 4.38866e-20
3.41787e-05 4.20899e-06 -2.83119e-20
-2.61209e-05 1.54553e-05 -3.82408e-21
-2.71105e-05 -1.3339e-05 1.01973e-20
-2.05667e-05 -2.7649e-05 1.38373e-20
-2.3798e-05 -1.72187e-05 7.82961e-21
4.42675e-06 -3.05201e-05 -1.80288e-20
5.0138e-07 2.96887e-05 7.28398e-21
4.33146e-05 -2.03927e-05 -3.1768e-20
-1.56131e-05 1.06412e-05 1.05619e-20
-1.44013e-05 -1.24275e-05 1.32941e-20
2.28225e-05 -3.69315e-05 -2.06659e-20
2.09559e-05 3.20154e-05 -1.41102e-20
-2.53295e-05 1.47209e-05 -7.64786e-21
-9.93833e-06 1.61404e-05 -1.09268e-20
-9.84944e-06 -1.69956e-05 -7.10246e-21
-2.39216e-05 2.26082e-05 -9.65052e-21
5.39799e-06 -4.52403e-05 -1.46557e-20
5.93231e-06 4.32335e-05 -2.43036e-20
4.48755e-05 -4.28806e-06 -1.98436e-20
4.43552e-05 3.06347e-05 -2.35762e-20
3.05268e-05 -2.34908e-05 -2.32143e-20
-3.50285e-05 -6.06768e-05 3.27887e-21
-4.2984e-05 7.44497e-05 5.86614e-20
3.32299e-05 -9.28408e-06 -1.56584e-20
5.19906e-06 1.70628e-05 8.19416e-21
1.07933e-05 -2.44688e-05 -3.91552e-20
1.89943e-05 5.29378e-06 -2.87716e-20
-4.03072e-06 -3.22961e-05 -2.18496e-21
-6.04959e-06 3.06461e-05 -2.32137e-20
-9.05176e-06 1.7922e-05 7.95821e-20
2.51093e-06 -2.26283e-05 -3.18752e-20
1.02982e-05 -2.62952e-06 -1.89386e-20
1.45951e-05 -1.17587e-05 -3.58814e-20
8.56678e-06 -1.62316e-06 -3.18677e-20
2.94401e-05 1.96968e-05 -2.41236e-20
-9.14479e-06 2.03406e-06 1.51156e-20
-1.1047e-05 -3.03801e-06 2.0031e-20
2.95702e-05 2.14078e-05 -1.15615e-20
-3.3916e-05 4.12496e-05 -1.69308e-20
-1.77213e-05 1.34619e-05 -9.1045e-22
1.47535e-05 -5.02683e-05 -2.91314e-20
1.25286e-05 4.67793e-05 -1.24713e-20
5.01354e-05 -1.50032e-05 -3.50473e-20
3.0765e-05 -2.72626e-05 -1.44755e-20
2.80164e-07 3.41257e-05 -2.3307e-20
4.1161e-06 -3.67563e-05 -2.76792e-20
2.53792e-05 -4.61408e-05 -2.74901e-20
2.39064e-05 4.09372e-05 -1.156e-20
3.07749e-06 7.41376e-06 -4.29768e-20
2.8266e-06 -1.05887e-05 -4.73472e-21
1.65828e-05 1.20836e-05 5.82707e-21
1.877e-05 -2.09794e-05 -3.87917e-20
1.16604e-05 -1.56093e-05 -4.22732e-26
1.12025e-05 1.61162e-05 6.55587e-21
-2.27901e-05 -1.57388e-05 1.0562e-20
-4.86069e-05 -3.97152e-05 -3.45864e-21
9.05302e-06 -3.598e-05 -3.86015e-20
6.45767e-06 3.15598e-05 -2.32139e-20
3.03988e-05 1.47108e-05 -6.02819e-20
2.53967e-05 -2.08473e-05 1.12921e-20
2.67981e-05 -2.27974e-05 -4.27936e-21
2.57212e-05 1.34074e-05 -2.64053e-20
2.41345e-05 -2.0139e-05 -1.0927e-20
-1.49824e-05 -0.000146563 2.68897e-20
0.000145447 2.10943e-05 -6.64269e-21
4.86037e-05 4.37493e-05 -1.07651e-19
3.81789e-05 -4.2357e-05 3.27874e-21
2.69249e-05 1.65436e-05 -8.10299e-21
-6.09129e-05 -4.63043e-06 -1.29247e-20
6.17912e-07 -2.6531e-05 2.18532e-21
-1.91312e-06 2.66174e-05 9.28703e-21
-2.21236e-05 3.22704e-05 -2.50338e-20
-2.31346e-05 1.88445e-05 9.41589e-20
-8.43981e-06 -2.33448e-05 -2.29503e-20
-3.16301e-05 -2.15198e-05 1.45653e-20
3.09424e-05 5.98161e-06 -2.76765e-20
3.96688e-06 7.94909e-06 1.12901e-20
1.09474e-05 -1.78557e-05 -3.09643e-20
-8.69674e-06 -2.31934e-05 6.37337e-21
-1.08175e-05 2.22473e-05 -3.73271e-21
2.3636e-05 1.37084e-05 -3.82401e-21
2.37787e-05 -2.01899e-05 -6.00965e-21
6.63405e-06 3.11332e-05 -2.68569e-20
9.84363e-06 -3.40579e-05 -3.69651e-20
-3.90579e-05 6.98488e-05 -1.37424e-20
-6.96041e-05 3.8737e-05 -1.31053e-20
2.58781e-05 3.00962e-06 -2.69495e-20
7.90342e-05 3.81764e-05 -7.7789e-20
6.46559e-05 -3.57183e-05 -1.11123e-20
-4.39454e-05 3.0239e-05 2.00349e-21
-4.17139e-05 -3.09936e-05 2.53167e-20
-1.80111e-05 -8.42935e-06 8.10332e-21
-3.39244e-06 -7.60198e-06 8.92359e-21
-4.29091e-06 6.88049e-06 1.05616e-20
3.99161e-05 4.97224e-05 -8.73714e-21
-4.67374e-05 -3.96254e-05 -6.50749e-21
4.1161e-05 -5.99013e-05 -1.03762e-20
4.04211e-05 5.68704e-05 -1.56549e-20
6.25978e-05 -3.79174e-05 -2.96718e-20
-4.29816e-06 -6.57847e-05 -3.86814e-21
6.57501e-05 3.26082e-06 8.19135e-22
3.41473e-05 4.67552e-05 3.20564e-20
3.3012e-05 -4.10956e-05 -4.18929e-21
-2.04903e-05 -1.74685e-05 9.46982e-21
-8.89815e-06 2.27458e-07 -6.00955e-21
2.4489e-05 -3.85329e-05 -4.10556e-20
2.30946e-05 3.40453e-05 -2.18466e-20
-2.07691e-05 5.82462e-06 7.64806e-21
3.29794e-05 2.53362e-05 -9.708e-20
2.67355e-05 -2.8873e-05 1.27502e-20
-2.50091e-05 -1.44547e-05 7.28442e-21
-1.80158e-05 1.20825e-05 3.64206e-22
-1.51124e-05 -1.27668e-05 6.00948e-21
-1.9756e-05 -1.0306e-05 7.28406e-21
-3.87509e-05 -2.31001e-05 1.0104e-20
-5.21424e-06 1.78177e-05 4.18813e-21
-3.05073e-06 -1.9238e-05 9.28731e-21
-8.09335e-05 8.09288e-05 1.27398e-21
-5.69941e-06 3.15697e-05 -1.66602e-20
-3.58051e-06 -3.34662e-05 -7.28358e-21
-5.93002e-06 6.27737e-05 1.15296e-19
2.66005e-06 -5.22409e-05 2.55007e-21
8.52996e-06 1.45657e-05 -6.79273e-20
7.89648e-06 -1.71408e-05 5.46338e-21
-2.86524e-05 -1.62455e-05 1.00163e-20
-3.05021e-05 1.61142e-05 7.64878e-21
-5.10603e-05 9.11997e-06 1.43886e-20
-5.33734e-05 -9.85964e-06 1.98523e-20
7.05528e-05 3.86696e-05 -9.4361e-20
5.22295e-05 -3.64455e-05 -9.29043e-21
1.83792e-05 -8.67641e-07 -4.02462e-20
1.93857e-05 -1.28034e-05 -2.38616e-20
2.80904e-05 1.18068e-05 -1.38385e-20
9.428e-07 -2.87655e-05 -1.36575e-21
-1.72583e-06 2.79047e-05 -7.46561e-21
2.57435e-05 -2.29867e-05 -5.91803e-21
-4.45043e-05 3.01738e-05 -2.61243e-20
2.8073e-05 -1.68233e-05 -1.54779e-21
2.44876e-05 1.68761e-05 -1.82081e-21
-1.92914e-05 -3.58996e-07 1.93034e-20
-1.81947e-05 -5.92453e-07 1.87582e-20
-2.00999e-05 1.75787e-05 -8.01289e-21
3.495e-05 6.05445e-05 1.43919e-20
3.06991e-05 -5.31701e-05 -1.27512e-21
-2.49554e-05 -1.60337e-05 4.00621e-21
-2.51144e-06 -3.4329e-05 1.16561e-20
4.28483e-05 -7.59344e-05 -7.87269e-21
7.39065e-05 -3.74268e-05 -1.94766e-20
4.69992e-06 1.93232e-05 -8.10433e-20
4.04632e-06 -2.15547e-05 2.05798e-20
-4.18943e-06 3.58808e-05 -1.22025e-20
8.20867e-06 -3.28416e-05 -4.55271e-20
3.15425e-06 2.85409e-05 -1.44761e-20
3.43929e-05 1.67333e-05 -1.83897e-20
2.78748e-05 8.47307e-06 -1.56618e-20
2.51845e-05 -1.80178e-05 -1.31134e-20
-6.79077e-05 -6.66711e-10 -5.46453e-22
-6.96484e-05 -2.86617e-09 1.42087e-20
-2.57389e-05 -1.66061e-05 6.19125e-21
2.20285e-05 2.37147e-05 -7.0664e-20
1.93555e-05 -2.72785e-05 2.29484e-20
7.07038e-06 2.03727e-05 1.76641e-20
8.93524e-06 -2.07491e-05 1.27482e-20
5.00018e-06 -6.61483e-06 8.01312e-21
3.1764e-06 5.62553e-06 9.83339e-21
8.15435e-05 -8.15387e-05 3.50364e-21
-2.16515e-05 6.44556e-06 1.42058e-20
-2.29939e-05 -7.87272e-06 1.91224e-20
-5.44417e-06 1.63726e-05 1.12901e-20
-3.50114e-06 -1.69873e-05 9.28762e-21
3.47136e-05 -2.18123e-05 -1.00146e-20
-2.59911e-05 1.31216e-05 2.9137e-21
-3.22758e-05 -5.97286e-06 2.03974e-20
-3.36119e-05 4.39201e-06 1.47512e-20
-2.00786e-05 9.4138e-06 -5.46307e-21
9.44533e-06 4.29116e-05 -1.14745e-19
8.11831e-06 -4.17867e-05 1.42066e-20
1.37381e-05 8.20784e-05 5.73802e-20
1.64819e-05 -6.76109e-05 2.55026e-21
-8.14257e-06 0.000144522 -2.70265e-20
-0.000143846 6.65443e-06 -5.77841e-21
2.09632e-05 2.3925e-06 -1.5115e-20
2.13013e-05 -1.4627e-05 -2.732e-20
7.98909e-05 -9.92277e-05 3.13956e-21
9.94843e-05 -7.87444e-05 -2.98029e-20
2.84365e-05 -6.86341e-05 -4.91876e-21
3.31001e-05 7.99099e-05 -9.65562e-20
-2.44449e-05 1.44393e-05 1.14723e-20
2.23652e-05 1.13385e-05 -1.038e-20
2.20849e-05 -1.96285e-05 -2.40405e-20
2.10713e-05 2.27632e-05 8.92224e-21
2.24565e-05 -2.86598e-05 -1.45682e-20
5.78993e-07 -7.08657e-05 -6.18954e-21
1.6012e-06 6.18767e-05 -3.02175e-20
7.06003e-05 -1.23806e-06 -1.70205e-20
1.59771e-05 1.53794e-05 9.65088e-21
1.84281e-05 -2.28353e-05 -2.33103e-20
6.94388e-06 6.82448e-05 -3.30373e-20
-6.77925e-05 -1.00456e-05 -1.5017e-20
2.97041e-05 4.08152e-06 -2.93208e-20
2.61873e-05 -1.55716e-05 -2.34962e-20
2.82949e-05 8.96852e-06 -3.3328e-20
2.54061e-05 -1.8279e-05 -1.38425e-20
-7.9669e-05 9.76542e-05 1.35133e-20
-9.8549e-05 7.95236e-05 -5.96042e-21
2.37895e-05 1.23606e-05 2.3673e-21
2.37104e-05 -2.07951e-05 -1.36589e-20
1.24084e-05 -4.22966e-05 5.28233e-21
8.29899e-06 4.82606e-05 6.97612e-20
2.11439e-05 -9.49383e-06 -4.29802e-20
2.10883e-05 -7.48629e-06 -1.73041e-20
3.24419e-05 3.0218e-05 -9.99896e-20
2.64257e-05 -3.16801e-05 1.74851e-20
-1.93406e-05 -6.17806e-06 1.63902e-20
-1.95236e-05 4.60063e-06 1.22011e-20
3.17986e-05 -5.2882e-05 -4.1895e-21
-6.71828e-05 -1.80089e-06 7.10356e-21
-6.92424e-05 1.02075e-06 2.53182e-20
3.26665e-05 6.11267e-05 1.54827e-20
3.01449e-05 5.83321e-05 -1.21857e-19
4.48451e-05 4.47351e-05 -1.0274e-19
2.46913e-05 -5.41314e-05 -6.73957e-21
3.71142e-05 -4.26377e-05 -1.32978e-20
5.55667e-05 -2.30126e-05 -3.49745e-20
0.000142804 -1.87909e-05 -4.24501e-20
0.000112591 1.48341e-05 -2.13147e-20
3.23875e-05 1.34197e-05 -1.36629e-20
7.11524e-05 6.2091e-07 -7.32247e-20
4.81959e-05 -1.45794e-05 -5.64627e-20
6.66756e-05 2.13799e-05 -7.56007e-20
4.96896e-05 -1.28058e-05 -8.19753e-21
4.83338e-05 -1.90893e-05 -4.73642e-21
3.71046e-05 -4.47408e-06 -1.3844e-20
5.09721e-05 1.94628e-05 -7.13987e-20
5.14446e-05 1.93182e-05 -7.90542e-20
3.87639e-05 -2.48072e-05 -9.83623e-21
4.02728e-05 -2.43384e-05 -2.91456e-21
4.38208e-06 9.34661e-07 -2.29531e-20
3.63976e-06 2.23101e-06 -1.5121e-20
1.01117e-05 -3.21281e-07 4.73651e-21
3.49015e-06 -5.13604e-07 -2.36807e-21
3.54111e-06 -4.85595e-07 8.19732e-21
3.15872e-06 7.82478e-06 6.19423e-21
1.06302e-05 -6.35554e-06 -6.55816e-21
3.37581e-06 7.00125e-07 7.10433e-21
9.23252e-06 7.87283e-06 -4.91814e-21
3.8055e-06 3.89496e-07 -2.93295e-20
3.83624e-06 -3.49984e-07 -2.38644e-20
3.32121e-06 1.6827e-08 2.58699e-20
2.08096e-05 -4.3847e-07 -2.11318e-20
-2.21161e-06 -3.9277e-06 1.60325e-20
4.39184e-06 2.49437e-06 -1.47554e-20
7.2414e-06 2.33827e-06 -1.56659e-20
8.82533e-06 6.84663e-06 -2.67795e-20
4.60277e-06 -8.09249e-06 5.46545e-21
2.8117e-06 2.75048e-07 3.33405e-20
4.00144e-06 9.21003e-09 -3.29733e-20
4.01644e-06 -4.05676e-09 -2.22251e-20
3.13939e-06 1.3418e-07 3.51615e-20
3.25598e-06 2.1793e-06 -2.44103e-20
2.55511e-06 3.39177e-07 1.27515e-21
1.3687e-06 2.08065e-06 -2.45921e-20
3.50848e-06 6.12541e-07 -2.73272e-20
3.8354e-06 5.16733e-07 -1.45728e-21
3.57754e-06 -3.2902e-08 -1.89459e-20
4.40542e-06 -4.68607e-06 -3.64309e-21
3.13338e-06 -8.89552e-08 7.65159e-21
7.63517e-06 6.08491e-06 -8.74472e-21
8.5689e-06 -5.55429e-06 -3.6436e-21
-3.93075e-05 -1.99848e-05 -7.10463e-21
-3.93974e-05 1.89221e-05 -5.10076e-21
3.04671e-06 8.10465e-08 -1.093e-21
1.85616e-06 2.65731e-06 -2.67778e-20
-7.59664e-06 -2.4377e-06 -2.44099e-20
-8.80617e-06 2.84973e-06 -3.09678e-21
1.16446e-05 -5.0057e-06 -6.73966e-21
3.59385e-06 4.98792e-07 -8.92697e-21
2.44118e-06 -4.18524e-07 -1.25694e-20
9.69236e-06 -2.13563e-08 -6.55747e-21
3.2676e-06 -2.10328e-06 -3.53403e-20
4.35255e-06 -9.38308e-07 -3.95304e-20
2.35468e-06 1.84045e-06 -1.43926e-20
3.06717e-06 -3.64534e-07 -2.31351e-20
4.38498e-06 -7.0916e-07 -7.10474e-21
3.75137e-06 -1.41952e-06 -6.92273e-21
1.20845e-05 -3.74179e-06 -2.07664e-20
3.82764e-06 -1.31323e-07 -3.64354e-21
2.94828e-06 -7.78482e-07 -2.18606e-21
6.19887e-06 -3.51789e-07 -2.14989e-20
6.20198e-06 3.48859e-07 4.8828e-20
1.99707e-06 5.76691e-07 1.25711e-20
5.80638e-06 -3.11391e-06 -1.85838e-20
5.80875e-06 3.11621e-06 4.73705e-20
3.54694e-06 1.09458e-06 -2.55056e-20
-1.02463e-05 -3.7407e-05 -1.4573e-20
-1.0292e-05 3.75418e-05 -2.36809e-21
4.22879e-06 -1.43299e-06 -2.35027e-20
4.22573e-06 1.43262e-06 5.73903e-20
3.06513e-06 8.97922e-08 -1.31161e-20
2.869e-05 -1.9594e-05 2.0039e-21
-7.08234e-06 1.62031e-05 2.49602e-20
3.59352e-06 -4.97745e-07 -2.44125e-20
3.60393e-06 -2.34176e-08 -2.20429e-20
2.9816e-06 1.45155e-07 -9.47283e-21
3.7662e-06 2.1405e-06 -1.63964e-20
6.60589e-06 2.18956e-06 5.4651e-22
1.1918e-05 -4.93676e-06 -5.83045e-21
1.19266e-05 4.94029e-06 1.45761e-21
1.10538e-05 9.39604e-06 -1.43905e-20
3.5009e-06 -1.28905e-06 -1.65793e-20
3.4908e-06 1.33122e-06 4.64585e-20
2.82505e-07 5.78055e-06 -4.37176e-20
1.48306e-06 -2.48525e-06 1.47571e-20
3.06726e-06 -6.13974e-08 6.19365e-21
2.72888e-06 -2.76345e-07 6.37574e-21
-5.46441e-06 -1.18409e-05 -1.27511e-20
-1.72992e-05 2.99605e-05 5.82938e-21
-1.7406e-05 -3.01454e-05 -5.46505e-22
3.13815e-06 4.35713e-07 -2.25889e-20
1.67058e-06 3.3964e-07 -1.22049e-20
2.78479e-06 7.3207e-07 4.91909e-20
4.42198e-06 1.90021e-05 2.0041e-20
8.55922e-06 -2.44909e-05 -7.83384e-21
-6.47446e-06 1.33079e-05 -4.55396e-21
8.49574e-06 1.20774e-06 -3.55241e-20
5.03776e-06 -2.37969e-06 1.00199e-20
2.23329e-06 -7.67365e-07 -1.05671e-20
2.19364e-06 7.09473e-07 2.07698e-20
3.35256e-06 -2.30978e-07 -2.87848e-20
2.81328e-06 2.75848e-07 4.13565e-20
3.18588e-06 -2.62181e-06 -2.14987e-20
3.17355e-06 2.64771e-06 5.11961e-20
2.82512e-06 -7.39208e-07 -9.47381e-21
3.51974e-06 -5.92698e-07 -2.29549e-20
2.09748e-06 -1.47944e-06 -1.58506e-20
2.04122e-06 1.45367e-06 3.47985e-20
2.62872e-06 3.16377e-06 -7.10422e-21
3.20614e-06 3.85786e-08 1.91298e-20
2.67886e-06 6.55315e-07 -1.11121e-20
2.75699e-06 1.37513e-05 -4.60851e-20
1.39212e-06 2.67283e-08 3.82592e-21
3.10802e-06 1.20135e-07 4.75505e-20
-1.90011e-06 3.32279e-06 -9.65444e-21
2.61413e-06 -2.77036e-06 -1.0201e-20
3.17286e-06 4.67635e-07 -2.53211e-20
1.54256e-06 -2.39978e-07 -1.63946e-20
5.57247e-06 -2.65759e-06 8.74439e-21
5.08997e-06 2.97751e-06 -3.58887e-20
3.3448e-06 -2.77387e-08 -1.84004e-20
2.49414e-07 -5.8808e-06 -2.55019e-20
3.56023e-06 -2.88598e-07 -3.35215e-20
3.56593e-06 2.66357e-07 -3.46145e-21
1.33304e-06 3.21152e-07 -3.64325e-21
7.60827e-06 9.46921e-06 -1.31147e-20
7.78329e-06 -9.79255e-06 -1.11111e-20
4.38493e-06 9.35852e-07 -2.9694e-20
1.20963e-06 -1.82541e-06 -2.58672e-20
3.85673e-06 -3.77392e-08 -3.51599e-20
3.87781e-06 3.62634e-08 -1.47562e-20
3.08378e-06 -9.17778e-09 1.65787e-20
3.35306e-06 2.14439e-07 2.04044e-20
3.43079e-06 -3.04756e-07 -2.09512e-20
-1.44222e-05 2.49775e-05 9.47426e-21
1.5387e-05 -2.6658e-05 -5.46587e-22
3.10033e-06 -1.55783e-07 5.28339e-21
2.77077e-06 4.59716e-07 -2.40484e-20
2.03899e-06 -6.22695e-07 2.55065e-21
4.41958e-06 -9.57796e-07 -3.86204e-20
2.27282e-07 2.5522e-06 2.84213e-20
1.37891e-05 3.46439e-06 -3.64313e-21
3.2312e-06 -6.44791e-08 -3.06077e-20
2.84683e-06 -1.25162e-06 1.20245e-20
6.58877e-06 4.68912e-06 -1.96736e-20
1.00323e-06 8.03131e-09 1.71261e-20
3.42155e-06 2.63891e-07 3.06069e-20
2.94186e-06 -1.39466e-05 -3.1877e-20
3.43767e-06 4.34841e-07 1.94937e-20
3.0873e-06 -3.99059e-07 -3.37012e-20
2.05527e-06 -3.07279e-06 -1.8034e-20
3.96606e-06 -9.99779e-08 -3.60712e-20
3.97779e-06 8.99478e-08 -2.09504e-20
3.15918e-06 -1.76552e-07 3.4615e-21
3.43513e-06 -4.25909e-07 -1.6761e-20
5.21002e-06 5.67641e-07 -3.15165e-20
5.46646e-06 -5.26939e-07 1.27523e-21
3.6572e-06 -5.14124e-08 -3.60717e-20
3.67829e-06 6.05678e-08 2.00399e-21
3.51976e-07 -1.06619e-06 -1.45754e-21
3.28399e-07 1.03131e-06 2.53247e-20
3.41479e-06 1.78007e-07 -4.0081e-21
1.46914e-05 -4.67296e-06 -2.25871e-20
-3.03795e-06 2.28948e-06 -3.07849e-20
2.99967e-06 -1.01606e-07 -7.28679e-22
4.19921e-06 6.44976e-07 -2.64159e-20
4.67894e-06 -1.41974e-06 -2.49604e-20
4.6812e-06 1.42133e-06 5.06496e-20
3.5497e-06 -7.31824e-07 -2.42313e-20
3.54246e-06 7.24837e-07 6.19445e-20
3.78846e-06 -1.12594e-07 -1.74888e-20
2.38842e-06 -1.8175e-07 -2.18616e-21
4.16349e-06 -6.8448e-07 -2.78734e-20
7.64137e-06 -6.34922e-06 -6.5591e-21
7.64659e-06 6.35286e-06 2.91516e-20
3.42464e-06 4.79131e-07 4.71865e-20
2.9728e-06 -2.50321e-08 -2.36818e-21
2.81573e-06 -3.21838e-07 1.80365e-20
7.02395e-06 4.68505e-07 -3.15152e-20
3.57371e-06 -3.09153e-06 1.87647e-20
3.057e-06 -3.75996e-07 -2.87824e-20
2.77562e-06 1.27296e-06 -4.46363e-20
3.4231e-06 -4.83518e-07 -1.4575e-20
5.98797e-06 8.80499e-06 -2.36794e-20
-2.47188e-06 2.72861e-06 3.53445e-20
2.09624e-05 2.9952e-06 -8.1976e-21
3.4137e-06 -1.72639e-07 -2.4413e-20
1.31432e-06 6.44321e-06 -3.40639e-20
2.53342e-06 7.62989e-08 -7.28662e-21
2.04628e-06 8.61463e-08 1.09313e-21
4.47666e-06 -2.6514e-06 -3.75262e-20
4.76847e-06 -1.48381e-07 -1.49381e-20
3.68563e-06 7.04063e-07 5.57497e-20
3.99629e-06 1.13917e-06 -3.31565e-20
-2.69499e-07 -1.87106e-06 5.28346e-21
3.63747e-06 3.54542e-07 -1.56668e-20
3.48013e-06 1.94313e-07 -1.16589e-20
3.68983e-06 -7.11573e-07 -1.80367e-20
2.84076e-06 -3.3544e-07 -1.45751e-21
1.22113e-05 -5.64276e-06 -1.1843e-20
1.22197e-05 5.64602e-06 8.38122e-21
2.70794e-06 -5.17233e-07 -6.19431e-21
-1.74648e-05 -1.50514e-05 -2.3499e-20
-1.81849e-05 1.44778e-05 -1.09298e-21
6.48413e-06 -2.25633e-06 -1.00187e-20
6.05274e-06 -9.37863e-06 -3.33332e-20
3.64481e-06 -2.93356e-07 9.10899e-22
3.59142e-06 -7.3973e-08 -8.19767e-21
3.67569e-06 -6.75742e-08 -3.2792e-20
3.66907e-06 5.17105e-08 2.73236e-27
3.17808e-06 1.2634e-07 -1.29349e-20
2.07951e-06 1.36029e-07 -3.69843e-20
3.80828e-06 3.7203e-08 -2.60509e-20
3.15698e-06 -9.93215e-09 2.36835e-21
2.74873e-05 1.32303e-05 -2.24073e-20
-6.55238e-06 -1.28114e-05 1.03848e-20
2.594e-06 -4.16643e-06 -1.85805e-20
9.86569e-06 1.886e-07 -8.74297e-21
3.71359e-06 4.08402e-07 -8.92681e-21
3.70566e-06 -4.11295e-07 -3.97152e-20
5.69939e-06 2.02645e-06 -8.74349e-21
3.56027e-06 -1.18249e-06 -2.00402e-21
5.1162e-06 -3.37342e-06 -9.83855e-21
5.11922e-06 3.37445e-06 4.46379e-20
-1.07252e-06 5.31186e-07 -2.60492e-20
1.31958e-06 -6.52289e-06 -2.49559e-20
2.73566e-06 -2.71618e-06 -9.83654e-21
3.19197e-06 2.22524e-07 -1.16587e-20
6.46027e-06 -4.21983e-06 -3.2425e-20
4.19109e-06 1.14587e-06 -5.46517e-21
4.95891e-06 4.60383e-07 -3.60701e-20
4.00229e-06 -1.04268e-06 -6.01186e-21
5.24891e-06 2.00739e-05 7.4696e-21
1.12115e-05 -2.10524e-05 -6.92295e-21
1.10288e-06 -2.04713e-06 -1.09316e-21
1.09975e-06 2.03674e-06 5.32004e-20
-7.70845e-06 -2.392e-06 -3.13315e-20
-7.85737e-06 3.12027e-06 -8.19719e-21
-2.46143e-05 1.56409e-05 -2.89636e-20
-2.52208e-05 -1.54479e-05 -1.83983e-20
1.12066e-05 -5.70148e-06 -1.20251e-20
1.1215e-05 5.70474e-06 9.29215e-21
3.74701e-06 1.07709e-06 -4.39081e-20
3.74178e-06 -1.0565e-06 3.91711e-20
3.38471e-06 6.4076e-07 5.42918e-20
6.77886e-06 -1.21907e-06 -3.78915e-20
3.93675e-06 -9.71404e-07 5.64761e-21
3.09757e-06 -3.88301e-07 -2.4957e-20
3.3882e-06 -6.50722e-07 -1.03847e-20
6.57801e-06 7.10911e-07 -4.73643e-21
3.47911e-06 4.716e-07 3.00606e-20
-3.75996e-06 -1.17682e-05 -3.44263e-20
-3.79672e-06 1.16605e-05 -4.9909e-20
3.48828e-06 -4.72125e-07 -1.29352e-20
2.52607e-06 4.88248e-06 -1.1294e-20
1.53847e-05 2.66544e-05 -2.07693e-20
-9.91836e-06 -1.71775e-05 2.3686e-21
1.46244e-06 -1.65066e-06 1.31173e-20
-1.3197e-06 -2.79291e-06 -2.04019e-20
1.14376e-05 -1.84232e-05 -1.51192e-20
3.63258e-06 3.41941e-07 -1.98574e-20
3.46892e-06 1.38901e-07 -1.34813e-20
6.71802e-07 -2.58237e-06 -1.14782e-20
6.72291e-07 2.53956e-06 5.93952e-20
1.0528e-05 1.94919e-05 -7.65065e-21
3.75469e-06 9.59066e-07 -3.49788e-20
3.11908e-06 4.42616e-07 4.82792e-20
4.38441e-06 -1.83192e-07 -2.07698e-20
4.38371e-06 1.7463e-07 6.28559e-20
-3.61335e-05 -3.02657e-10 -2.186e-21
-3.61293e-05 3.16248e-10 -9.10832e-22
2.59115e-06 -1.19564e-06 7.28735e-22
1.74769e-06 -2.6929e-07 -1.5666e-20
3.17662e-06 -3.03568e-06 -2.02234e-20
3.16393e-06 3.03833e-06 5.42936e-20
1.21309e-05 -3.08233e-06 -2.5139e-20
1.05171e-05 -1.01294e-05 -2.58662e-20
4.21264e-06 1.20107e-06 -8.5623e-21
-4.88159e-06 1.38461e-05 -4.48109e-20
-4.91836e-06 -1.41202e-05 -2.47735e-20
6.34717e-06 -4.93048e-06 -2.53201e-20
3.11817e-06 -4.31802e-07 -1.32996e-20
-1.65832e-06 -9.92607e-07 -7.10433e-21
-1.06302e-05 7.47419e-06 -4.31716e-20
-1.06688e-05 -7.47856e-06 -1.63943e-20
2.53021e-06 3.20144e-06 -6.37549e-21
1.39824e-06 -6.1931e-06 -6.19463e-21
1.40841e-06 6.19841e-06 5.81202e-20
1.33542e-05 2.87173e-05 -3.09721e-21
1.28345e-06 -2.85551e-05 -1.45752e-21
3.84182e-06 -1.40738e-07 -9.83747e-21
2.32211e-06 1.45384e-07 6.74034e-21
3.80756e-06 6.23565e-07 -2.78751e-20
3.82331e-06 -6.50898e-07 5.01022e-20
1.56455e-06 2.08324e-07 -1.22065e-20
4.10432e-06 4.47007e-08 -1.63959e-20
2.93537e-06 1.00257e-06 -8.38022e-21
5.04028e-06 1.21684e-05 -1.27541e-21
5.037e-06 -1.21605e-05 5.46603e-22
-3.20136e-06 -2.30882e-06 -9.83658e-21
3.4829e-06 -4.81329e-07 -1.73076e-20
3.98693e-06 -3.90027e-07 -2.58709e-20
3.98525e-06 3.81793e-07 5.73898e-20
3.38586e-06 -3.52528e-07 -2.16802e-20
3.47541e-06 4.77966e-07 1.03846e-20
3.86053e-06 -1.75009e-08 -2.76908e-20
3.88058e-06 2.44252e-08 -2.36829e-21
3.14811e-06 -1.59027e-09 7.2873e-22
3.38403e-06 3.45502e-07 1.9494e-20
3.82277e-06 -4.44724e-08 -6.74046e-21
3.0002e-06 -3.49897e-09 3.09688e-21
5.05887e-06 3.58208e-07 -2.47781e-20
5.076e-06 -4.08794e-07 5.30178e-20
4.76643e-06 -6.40219e-07 -1.96768e-20
4.77456e-06 6.36278e-07 5.99413e-20
4.10698e-06 3.30263e-08 -1.12948e-20
2.87902e-06 1.04125e-06 3.09692e-21
3.74193e-06 2.07186e-07 5.15593e-20
3.74213e-06 -2.16513e-07 -2.45954e-20
1.10175e-05 1.4189e-05 -5.64757e-21
3.72049e-06 -1.34099e-05 -4.19031e-21
4.08067e-06 2.03165e-06 -2.60536e-20
4.05359e-06 -2.02994e-06 4.95564e-20
5.02657e-06 -4.1906e-06 -1.29358e-20
5.02817e-06 4.20064e-06 5.24721e-20
-6.8904e-07 -7.3308e-06 -1.85803e-20
-7.41537e-07 7.17202e-06 -4.29897e-20
2.63976e-05 2.37942e-05 -2.14966e-20
-3.85809e-05 -6.28513e-06 -1.83984e-20
4.66801e-06 8.62629e-06 3.95368e-20
6.91958e-06 6.54284e-06 1.54869e-20
4.6618e-06 -8.62393e-06 -2.55076e-21
6.91493e-06 -6.53905e-06 -3.27958e-21
-5.99749e-06 -1.81947e-05 1.14781e-20
-3.86069e-05 6.16171e-06 -1.29335e-20
9.14769e-06 -3.78908e-06 1.85842e-20
2.23181e-05 -2.938e-06 3.46183e-21
2.23022e-05 2.9359e-06 -5.64824e-21
9.13941e-06 3.78565e-06 -1.14785e-20
1.14243e-05 -3.38058e-07 2.02239e-20
7.80431e-06 -2.73513e-06 4.35445e-20
1.06567e-05 3.21693e-06 1.20252e-20
1.14152e-05 3.35863e-07 -1.36648e-20
1.06485e-05 -3.21495e-06 -1.22074e-20
7.79862e-06 2.73068e-06 -2.29565e-20
8.22513e-06 -2.49532e-06 -1.89484e-20
8.08412e-06 -2.53927e-06 -1.5669e-20
8.2312e-06 2.49552e-06 3.64392e-20
8.08973e-06 2.53962e-06 2.53254e-20
-1.13577e-05 -3.23932e-05 4.60657e-20
3.40128e-06 2.99727e-05 4.73516e-21
4.5625e-06 -2.715e-05 4.37054e-20
-2.4282e-05 -4.207e-06 2.9498e-20
-3.04058e-05 -7.57779e-06 3.25919e-20
3.079e-06 3.37253e-05 -4.37124e-21
5.25657e-06 -3.5224e-05 2.38572e-20
-3.26972e-05 8.85814e-06 3.63251e-20
-9.98977e-06 1.67501e-05 2.62237e-20
-1.79317e-05 -3.95829e-05 3.2495e-20
-1.6046e-05 4.44903e-05 3.17676e-20
4.29801e-05 2.10475e-05 6.37226e-22
2.39214e-05 2.25365e-05 2.18555e-21
-2.28728e-05 -2.36483e-05 4.37102e-20
-1.12978e-05 -2.27967e-05 4.61586e-20
-3.62445e-06 -2.18244e-05 3.76947e-20
-2.61796e-06 -3.60247e-05 4.15224e-20
6.72332e-06 3.299e-05 1.38416e-20
2.59376e-05 -1.79683e-06 3.05913e-20
-1.36617e-05 -4.78775e-05 2.01175e-20
-1.21553e-05 5.19664e-05 3.25896e-20
5.05773e-05 1.61562e-05 8.1928e-21
-2.1245e-05 -2.1464e-05 2.84036e-20
-3.3276e-05 8.60208e-06 3.90538e-20
-2.41284e-05 -2.16159e-05 2.58563e-20
1.60825e-05 3.62143e-05 1.05616e-20
-2.27022e-05 4.86977e-06 3.01358e-20
-3.53783e-05 -7.19048e-05 1.93412e-20
-1.99445e-05 -9.89566e-06 1.82103e-20
7.55675e-05 3.95655e-05 -1.14228e-20
6.06023e-06 3.25679e-05 6.37492e-21
1.13637e-06 -3.36247e-05 2.42232e-20
-7.42598e-05 3.68691e-05 2.3497e-20
-7.57997e-05 -3.84213e-05 -9.83594e-21
-4.94251e-05 1.70836e-05 3.42268e-20
-1.7765e-05 -1.40879e-05 1.89375e-20
-3.07459e-05 -1.535e-05 5.09943e-21
-3.12771e-05 1.61294e-05 4.31645e-20
-5.16341e-06 -1.0549e-05 2.47668e-20
2.1899e-05 2.8459e-05 1.14717e-20
-3.12363e-05 2.21717e-05 5.26204e-20
-9.04036e-06 4.506e-07 1.98494e-20
-1.96564e-05 2.3479e-05 7.21043e-20
-9.78376e-06 3.40802e-05 6.07256e-20
1.01463e-05 2.68961e-05 2.00334e-21
-3.15711e-05 2.21414e-05 5.16161e-20
-7.86848e-05 -7.86792e-05 -8.23564e-21
8.20407e-05 8.20366e-05 -1.5789e-20
8.65136e-06 1.67548e-05 1.73016e-20
8.24993e-05 8.98251e-05 -9.50983e-21
-8.45873e-05 -7.89639e-05 3.59466e-21
3.13756e-05 1.70794e-05 1.49359e-20
3.90089e-05 -6.84958e-06 5.0086e-20
1.81396e-05 -4.6068e-06 3.60555e-20
2.98731e-05 2.765e-05 2.02175e-20
3.65672e-05 -2.4023e-05 4.15255e-20
1.54408e-05 2.81609e-05 1.31115e-20
-3.11632e-05 5.9547e-05 2.24033e-20
-3.18644e-05 -5.97094e-05 4.55338e-21
2.47674e-05 2.08814e-05 1.96695e-20
2.71311e-05 -1.48221e-05 2.73168e-20
-4.32673e-05 2.00083e-05 3.00371e-20
-1.59398e-05 4.5417e-05 -1.83979e-20
3.57676e-05 -5.54942e-05 1.09285e-21
1.93571e-05 -2.22456e-05 1.45672e-21
-3.83916e-05 7.58994e-05 1.73385e-20
-7.38071e-05 4.02426e-05 2.88516e-20
8.25712e-06 2.64933e-05 7.83091e-21
-3.05718e-06 -2.16913e-05 3.51445e-20
6.00371e-05 2.48631e-05 2.38648e-20
7.63174e-05 -3.16161e-05 1.14777e-20
4.19363e-06 -7.35219e-06 3.66023e-20
2.43206e-05 1.6919e-05 3.05943e-20
2.58582e-05 -1.29937e-05 1.62071e-20
-1.55559e-05 -1.06947e-05 1.22008e-20
-6.65092e-06 -1.73135e-05 7.01127e-20
-4.56468e-05 -9.10339e-06 3.4499e-20
3.24234e-05 -5.27641e-06 3.33212e-20
-3.95412e-05 -5.22311e-06 3.72326e-20
-2.87552e-05 -2.41228e-05 1.18375e-20
-3.35135e-05 -5.80395e-05 -2.69575e-20
-3.31436e-05 5.74068e-05 1.91253e-20
-3.49616e-05 -3.84054e-05 3.36804e-20
-2.46927e-05 1.57326e-05 6.39122e-20
2.48067e-05 1.73106e-05 2.60403e-20
6.08981e-06 -6.27145e-05 -1.96726e-20
5.0493e-07 4.94164e-05 -1.6394e-21
-2.88854e-05 2.68477e-05 4.22516e-20
6.52191e-06 2.95519e-05 2.33113e-20
-2.06907e-06 -2.88174e-05 2.98655e-20
1.75431e-05 8.28345e-06 5.57245e-20
1.77397e-05 -4.35498e-06 2.34914e-20
4.32564e-05 -3.10486e-05 -5.46167e-21
1.9544e-05 2.22111e-05 5.33612e-20
2.20139e-05 -1.98694e-05 2.47677e-20
2.50937e-05 -1.2307e-05 1.82094e-20
1.20416e-05 -3.16653e-05 3.45966e-21
1.56429e-05 1.8128e-05 5.0263e-20
1.60618e-05 -1.35606e-05 1.96677e-20
-2.62243e-05 1.25952e-05 3.86045e-20
1.68387e-05 1.96669e-05 1.42064e-20
-3.20912e-05 -2.19722e-05 2.78573e-20
-1.13943e-05 2.71148e-06 1.4568e-20
5.02351e-06 1.72449e-05 -1.51173e-20
3.43021e-05 8.61962e-06 1.7115e-20
-2.52751e-05 1.61723e-05 5.62695e-20
-2.75178e-05 -1.25412e-05 2.69496e-20
-2.14645e-05 -2.60081e-05 2.40325e-20
-2.45462e-05 -1.60274e-05 2.16675e-20
-3.81388e-07 -2.96928e-05 3.62372e-20
4.56286e-06 3.05681e-05 2.45847e-20
4.26539e-05 -1.62826e-05 2.97648e-20
-1.43982e-05 1.14262e-05 4.75309e-20
2.09011e-05 -3.19586e-05 -3.12247e-20
2.28718e-05 3.65732e-05 9.10401e-22
-2.47963e-05 1.57279e-05 5.59037e-20
-9.61597e-06 1.63828e-05 2.27643e-20
-1.01758e-05 -1.67635e-05 4.04291e-20
-6.37485e-06 -3.02733e-05 3.02234e-20
-2.2949e-05 2.39248e-05 7.01055e-20
3.79988e-06 -4.22128e-05 2.63979e-21
7.5921e-06 4.62227e-05 2.18464e-21
4.48788e-05 -2.37622e-07 2.82179e-20
4.51276e-05 3.5172e-05 -4.4605e-21
2.99366e-05 -1.85204e-05 -4.18746e-21
4.29583e-05 -7.44157e-05 -2.93307e-20
-3.50348e-05 6.06879e-05 3.64321e-21
3.31581e-05 -4.85709e-06 2.86762e-20
1.08862e-05 2.44372e-05 1.0927e-20
1.89719e-05 9.32785e-06 4.60712e-20
-3.86644e-06 3.2358e-05 3.9511e-20
9.10758e-06 -1.80069e-05 2.23994e-20
2.53912e-06 2.2633e-05 -2.98718e-20
1.42823e-05 -1.05087e-05 8.06717e-20
1.4689e-05 1.1947e-05 1.3114e-20
-5.07883e-06 -1.65848e-05 4.7526e-20
8.56145e-06 1.59562e-06 3.22319e-20
3.03471e-05 2.43346e-05 1.72968e-21
-9.70501e-06 -2.63637e-06 4.31614e-20
3.0558e-05 2.71075e-05 4.73416e-21
-3.31354e-05 4.33725e-05 3.92333e-20
-1.64554e-05 1.43451e-05 6.31887e-20
1.17926e-05 -4.67673e-05 -5.91702e-21
1.49814e-05 5.01946e-05 3.27723e-21
4.99313e-05 -1.05329e-05 4.05085e-20
3.00791e-05 -2.18968e-05 -2.58542e-20
-1.62805e-07 -3.40826e-05 3.05905e-20
4.25271e-06 3.67938e-05 2.29447e-20
2.40129e-05 -4.23921e-05 -2.17547e-20
2.5563e-05 4.50308e-05 -6.73603e-21
3.01674e-06 1.07256e-05 5.17181e-20
2.87152e-06 -7.28966e-06 2.27631e-20
1.87988e-05 2.09759e-05 5.64571e-21
1.16566e-05 1.56812e-05 2.44043e-20
-2.44796e-05 -1.45928e-05 -4.73462e-21
-4.89947e-05 -3.78333e-05 3.38135e-20
9.2755e-06 3.58926e-05 9.46831e-21
2.53556e-05 2.08646e-05 3.04159e-20
3.04054e-05 -1.47501e-05 4.00665e-20
2.40414e-05 2.01322e-05 6.37411e-21
2.58185e-05 -1.34577e-05 1.78463e-20
-1.55957e-05 -0.000141763 -1.2876e-20
0.000145476 2.4458e-05 -1.70619e-20
6.42101e-06 -3.08623e-05 -6.91863e-21
3.80971e-05 4.22903e-05 7.28613e-21
4.86026e-05 -4.37835e-05 1.65756e-20
2.66734e-05 2.27124e-05 -2.36735e-21
-6.11661e-05 -3.12779e-06 3.05369e-20
6.51493e-07 2.66018e-05 3.25974e-20
1.9695e-06 -2.68528e-05 4.53427e-20
-2.09489e-05 3.40926e-05 6.32691e-20
9.77075e-06 2.73762e-06 1.06165e-19
2.70589e-05 -1.66109e-05 1.63883e-21
-4.18158e-06 -8.32835e-06 3.15028e-20
-8.3898e-06 2.33482e-05 -1.94896e-20
2.32595e-05 -1.89349e-05 1.34772e-20
1.65083e-05 -1.18276e-05 6.59191e-20
-1.80242e-05 -1.22796e-05 2.94994e-20
-3.15181e-05 -1.96962e-05 3.35908e-20
3.09271e-05 1.04685e-05 3.82376e-20
1.11844e-05 1.78048e-05 -1.45715e-20
-8.99075e-06 2.31237e-05 5.56302e-20
-6.18415e-06 -3.08153e-05 3.60518e-20
2.37307e-05 2.01764e-05 -6.00964e-21
1.00232e-05 3.40752e-05 1.67527e-20
-1.12397e-05 -1.57052e-05 9.79739e-20
-3.87087e-05 7.23001e-05 -3.64033e-21
-6.98006e-05 4.06353e-05 1.09668e-20
2.5366e-05 7.20569e-06 4.51595e-20
2.3725e-05 -1.37599e-05 1.29288e-20
6.45226e-05 3.56598e-05 2.13139e-20
7.90488e-05 -3.81992e-05 -3.6435e-21
5.21914e-06 -1.73395e-05 7.26556e-20
-4.26647e-05 3.02481e-05 3.87947e-20
-4.30015e-05 -3.10138e-05 -6.92121e-21
-1.81381e-05 -7.78448e-06 1.57514e-20
-2.75254e-06 7.56967e-06 3.53301e-20
4.12688e-05 5.32795e-05 -1.07397e-20
-4.69487e-05 -3.77352e-05 2.65756e-20
3.98002e-05 -5.61595e-05 -6.82621e-21
4.17929e-05 6.0687e-05 -5.00612e-21
6.22478e-05 -3.4092e-05 8.55554e-21
4.10609e-06 -6.51297e-06 1.20367e-19
-5.12819e-06 -6.27096e-05 -8.41852e-21
6.60683e-05 6.69433e-06 1.50173e-21
-3.40986e-05 -4.66213e-05 2.09459e-20
3.30109e-05 4.11371e-05 7.28549e-22
-2.11244e-05 -1.68556e-05 2.49488e-20
-8.9619e-06 5.45607e-07 2.51308e-20
2.28248e-05 -3.35793e-05 -2.55787e-20
2.47798e-05 3.83835e-05 5.46189e-22
-2.07468e-05 6.45454e-06 1.80277e-20
1.13891e-05 -2.21546e-05 3.98773e-20
2.66896e-05 2.88487e-05 2.76862e-20
3.29761e-05 -2.53677e-05 3.73384e-20
-2.563e-05 -1.35648e-05 3.64206e-22
-1.67745e-05 1.28517e-05 5.6999e-20
-2.03919e-05 -9.36738e-06 2.76793e-20
-3.92527e-05 -2.14124e-05 3.56817e-20
-3.51257e-06 1.87928e-05 5.51775e-20
-8.24539e-05 8.2458e-05 7.23438e-21
-3.42922e-06 3.35099e-05 3.12283e-20
5.94088e-06 -3.19319e-05 9.46825e-21
6.09469e-06 -6.27032e-05 1.82126e-22
2.70218e-06 5.22629e-05 -5.46435e-22
7.94831e-06 1.71934e-05 6.02791e-20
8.45257e-06 -1.45035e-05 2.18533e-20
-3.01918e-05 -1.55743e-05 -6.37395e-21
-2.94066e-05 1.66613e-05 5.02642e-20
-5.25667e-05 1.00471e-05 -1.34777e-20
-5.18848e-05 -8.95828e-06 2.65917e-20
5.21033e-05 3.63866e-05 2.65963e-20
7.05465e-05 -3.86937e-05 2.31348e-20
1.92625e-05 1.29445e-05 1.23862e-20
1.84211e-05 9.93308e-07 1.03256e-19
2.81215e-05 1.68237e-05 4.64336e-21
1.05457e-06 2.93743e-05 4.88032e-20
1.85875e-06 -2.74975e-05 2.66763e-20
-4.4078e-05 3.19267e-05 3.15865e-20
2.80977e-05 -1.18084e-05 3.8238e-21
-3.20309e-06 -2.94014e-05 4.75254e-20
2.5766e-05 2.28357e-05 3.00451e-21
-1.93405e-05 1.7712e-07 -1.63899e-21
-1.84338e-05 2.00412e-07 3.27813e-20
2.44399e-05 -1.70698e-05 -3.36847e-21
-1.96145e-05 1.81685e-05 4.68034e-20
3.0712e-05 5.31924e-05 -1.18405e-20
-3.48974e-05 -6.0445e-05 1.49384e-20
-6.55885e-06 -2.10337e-05 7.13849e-20
-2.57527e-05 -1.52296e-05 1.60245e-20
-2.77667e-06 -3.42423e-05 2.24014e-20
4.15094e-05 -7.24195e-05 -2.09324e-20
7.27898e-05 -3.36352e-05 -1.3606e-20
4.07887e-06 2.2001e-05 6.61106e-20
4.67178e-06 -1.88366e-05 2.95034e-20
-3.9233e-06 3.59282e-05 2.78655e-20
8.31832e-06 3.28068e-05 1.52971e-20
3.45297e-05 2.18319e-05 7.28329e-21
2.51249e-05 1.80385e-05 5.09971e-21
2.79087e-05 -8.5853e-06 3.33268e-20
-6.78949e-05 5.8054e-10 8.9252e-21
-6.97056e-05 2.89734e-09 -1.63947e-21
5.41456e-06 -1.6206e-05 9.03211e-20
-2.64014e-05 -1.57634e-05 2.47644e-20
1.9431e-05 2.72381e-05 4.00686e-20
2.19245e-05 -2.37779e-05 3.87923e-20
8.93688e-06 2.08421e-05 3.86088e-20
4.51508e-06 6.34794e-06 3.35093e-20
7.92775e-05 -7.92821e-05 -1.42873e-20
-2.29021e-05 7.34882e-06 -1.01986e-20
-2.19833e-05 -7.00322e-06 3.42396e-20
-3.83603e-06 1.676e-05 4.68023e-20
3.45532e-05 -1.66498e-05 1.77525e-20
-2.51455e-05 1.38342e-05 5.57263e-20
-3.35013e-05 -4.4009e-06 -1.54796e-20
-3.24715e-05 5.11202e-06 4.69871e-20
-1.95933e-05 1.00559e-05 3.42355e-20
8.04534e-06 4.17088e-05 5.883e-20
9.52521e-06 -4.2962e-05 4.11625e-20
1.65025e-05 6.76255e-05 -9.10807e-21
-1.36432e-05 -8.20246e-05 -1.43906e-20
-7.5177e-06 0.000149445 -4.50444e-21
-0.000143801 8.41216e-06 6.91594e-21
2.12906e-05 1.46931e-05 1.67563e-20
2.08667e-05 -2.64956e-06 6.04597e-20
-2.3344e-06 -5.609e-06 1.13631e-19
7.77832e-05 -9.52611e-05 -6.87049e-21
9.91284e-05 -7.61958e-05 -1.4378e-20
3.31109e-05 -7.99361e-05 3.04243e-20
2.83825e-05 6.85035e-05 3.27919e-21
-2.33668e-05 1.53499e-05 5.9002e-20
2.12493e-05 -2.25276e-05 1.36566e-20
2.20641e-05 1.96303e-05 3.64251e-22
2.2421e-05 -1.14378e-05 3.84242e-20
1.59418e-05 -1.54838e-05 3.05916e-20
2.24471e-05 2.8557e-05 9.83352e-21
-8.7054e-07 -6.71749e-05 -1.82944e-20
3.07222e-06 6.56831e-05 7.0996e-21
7.02944e-05 2.7739e-06 2.63953e-20
1.84653e-05 2.27865e-05 5.09914e-21
7.90527e-06 7.14418e-05 -1.0512e-20
-6.77308e-05 -8.29472e-06 2.10238e-20
2.61119e-05 1.56248e-05 1.85784e-20
2.95874e-05 -4.49973e-06 5.9552e-20
2.53417e-05 1.82941e-05 2.02174e-20
2.82659e-05 -9.01183e-06 5.08114e-20
-8.10306e-05 0.00010128 -2.54802e-21
-9.85659e-05 8.11737e-05 1.49238e-20
2.36637e-05 2.07777e-05 -1.63908e-21
2.38629e-05 -1.24606e-05 3.04107e-20
1.24329e-05 4.23365e-05 -1.09289e-21
-8.18985e-06 -4.81317e-05 -8.19652e-21
2.09999e-05 7.51897e-06 1.27504e-20
2.13995e-05 9.50995e-06 8.17717e-20
2.63884e-05 3.15825e-05 4.35306e-20
3.243e-05 -3.0319e-05 3.13264e-20
-1.98825e-05 -4.81705e-06 -1.09263e-20
-1.8351e-05 5.32082e-06 4.97173e-20
-6.72719e-05 1.59338e-06 1.54822e-20
3.17992e-05 5.29075e-05 -4.37168e-21
2.46229e-05 5.40569e-05 4.73588e-20
3.70395e-05 4.25692e-05 1.89448e-20
3.01743e-05 -5.83449e-05 3.84333e-20
4.48542e-05 -4.47667e-05 8.01515e-21
-3.26151e-05 -6.10272e-05 2.98724e-20
-6.92069e-05 -1.22271e-06 -1.22037e-20
3.22806e-05 -1.33755e-05 1.23878e-20
0.000112344 -1.4802e-05 3.11522e-20
0.000142816 1.87924e-05 -3.04256e-20
5.55399e-05 2.30015e-05 -3.82555e-21
4.95596e-05 1.28152e-05 1.87633e-20
3.70113e-05 4.50773e-06 1.87623e-20
4.82132e-05 1.90553e-05 2.22247e-20
7.11384e-05 -6.51358e-07 2.60475e-20
6.6666e-05 -2.13895e-05 1.29341e-20
4.81867e-05 1.45457e-05 7.158e-20
3.86665e-05 2.47909e-05 1.67581e-20
4.01855e-05 2.4319e-05 9.83661e-21
5.09628e-05 -1.94953e-05 4.62634e-20
5.1444e-05 -1.9348e-05 2.47727e-20
TENSORS solid_stress_TPM float
22.8339 1.921 3.63755e-12
1.921 25.4636 3.16987e-11
3.63755e-12 3.16987e-11 22.8919

27.0328 1.27845 4.28705e-12
1.27845 29.1934 -1.15613e-11
4.28705e-12 -1.15613e-11 27.5287

26.8473 1.02598 2.22744e-12
1.02598 28.9226 -2.63982e-11
2.22744e-12 -2.63982e-11 27.3691

26.9646 0.560435 -1.1658e-11
0.560435 22.3488 -1.5159e-11
-1.1658e-11 -1.5159e-11 24.2063

25.9043 0.222118 8.18974e-12
0.222118 21.5416 1.42701e-13
8.18974e-12 1.42701e-13 22.5906

27.3582 1.20951 1.59444e-11
1.20951 29.5516 -1.57997e-11
1.59444e-11 -1.57997e-11 28.7296

27.1627 1.12171 -1.53417e-11
1.12171 29.3824 3.33341e-11
-1.53417e-11 3.33341e-11 28.5924

26.1782 -0.280872 4.33572e-12
-0.280872 21.8584 1.14992e-11
4.33572e-12 1.14992e-11 22.8235

30.1736 0.0471802 -1.67649e-11
0.0471802 24.6057 2.64977e-12
-1.67649e-11 2.64977e-12 27.4591

18.0998 1.86565 -9.80394e-12
1.86565 20.979 -1.15633e-11
-9.80394e-12 -1.15633e-11 17.4105

17.7339 -1.99511 -2.03542e-11
-1.99511 20.5636 -3.85447e-12
-2.03542e-11 -3.85447e-12 16.8729

20.889 1.92977 2.50525e-11
1.92977 18.8355 1.21168e-11
2.50525e-11 1.21168e-11 17.6053

29.0122 -1.58287 -2.55777e-11
-1.58287 30.3789 -3.08327e-12
-2.55777e-11 -3.08327e-12 29.4716

29.2068 -1.79052 1.63747e-12
-1.79052 30.7567 6.45487e-12
1.63747e-12 6.45487e-12 29.6827

23.3336 1.81741 -1.32242e-11
1.81741 26.4343 -1.35846e-11
-1.32242e-11 -1.35846e-11 24.4295

25.2457 2.17696 1.23313e-11
2.17696 28.3126 -3.37171e-12
1.23313e-11 -3.37171e-12 26.7915

27.0601 -0.827982 6.33469e-12
-0.827982 29.2573 -1.37767e-11
6.33469e-12 -1.37767e-11 28.4893

27.1892 -0.893711 6.35814e-12
-0.893711 29.392 2.07138e-11
6.35814e-12 2.07138e-11 28.5969

28.4684 0.827048 -1.24291e-11
0.827048 25.7323 -3.10022e-11
-1.24291e-11 -3.10022e-11 26.5721

19.9855 0.72202 -3.77681e-11
0.72202 23.8241 -9.64044e-13
-3.77681e-11 -9.64044e-13 19.6181

19.9205 -0.690589 -1.73183e-11
-0.690589 23.8116 1.91258e-11
-1.73183e-11 1.91258e-11 19.5075

23.8106 0.591972 2.0427e-11
0.591972 21.14 3.15601e-12
2.0427e-11 3.15601e-12 19.9849

22.6647 2.14528 2.03289e-11
2.14528 24.7342 6.3598e-12
2.03289e-11 6.3598e-12 22.6006

24.0187 -1.09649 1.63312e-11
-1.09649 20.495 1.97026e-11
1.63312e-11 1.97026e-11 20.9959

24.8173 1.96855 2.14856e-11
1.96855 25.4824 1.57046e-11
2.14856e-11 1.57046e-11 24.3254

23.3797 2.1445 -4.84079e-12
2.1445 26.0599 -3.02524e-11
-4.84079e-12 -3.02524e-11 23.4047

27.3962 -0.463743 3.77685e-11
-0.463743 22.4966 -1.49904e-11
3.77685e-11 -1.49904e-11 24.5208

17.2437 1.66027 3.6035e-11
1.66027 20.4046 2.76552e-11
3.6035e-11 2.76552e-11 15.115

29.2811 0.205486 1.42594e-11
0.205486 23.9269 2.79386e-11
1.42594e-11 2.79386e-11 26.739

19.9419 1.66398 -3.83737e-11
1.66398 17.8874 -1.90435e-11
-3.83737e-11 -1.90435e-11 15.176

29.8862 0.262504 1.15366e-11
0.262504 30.8623 6.93645e-12
1.15366e-11 6.93645e-12 29.8801

29.8766 0.0902092 -8.35726e-12
0.0902092 30.8124 1.34875e-11
-8.35726e-12 1.34875e-11 29.8638

33.4495 0.935896 6.22339e-11
0.935896 31.7189 2.98642e-11
6.22339e-11 2.98642e-11 31.8106

33.4729 -0.89763 -1.50286e-11
-0.89763 31.7607 4.22914e-11
-1.50286e-11 4.22914e-11 31.8049

23.1116 -0.694721 3.27605e-12
-0.694721 19.4385 3.81535e-11
3.27605e-12 3.81535e-11 18.7968

24.9852 2.11664 -1.52232e-11
2.11664 26.5848 -3.24685e-11
-1.52232e-11 -3.24685e-11 25.5241

30.1734 0.386534 -4.81696e-12
0.386534 29.2697 1.48359e-11
-4.81696e-12 1.48359e-11 29.4902

30.2745 -0.351117 3.91127e-11
-0.351117 29.4242 3.62236e-11
3.91127e-11 3.62236e-11 29.6447

30.457 0.00401912 2.71693e-11
0.00401912 24.3396 1.92554e-11
2.71693e-11 1.92554e-11 27.5305

23.0255 2.32109 1.63639e-12
2.32109 25.8633 -3.92135e-11
1.63639e-12 -3.92135e-11 23.1878

24.4306 -1.41953 8.57484e-12
-1.41953 22.4275 -2.45205e-11
8.57484e-12 -2.45205e-11 21.897

29.8974 -0.136635 -2.95782e-11
-0.136635 23.6431 -2.39041e-11
-2.95782e-11 -2.39041e-11 26.8974

22.4677 -2.14966 1.59931e-11
-2.14966 24.6519 1.69568e-11
1.59931e-11 1.69568e-11 22.4101

22.8293 -1.84245 1.39456e-11
-1.84245 25.4944 7.99649e-12
1.39456e-11 7.99649e-12 22.8783

25.868 2.44724 2.01356e-11
2.44724 28.9512 1.38739e-11
2.01356e-11 1.38739e-11 27.2527

22.3875 -2.29372 -4.53799e-11
-2.29372 21.5319 -3.21801e-11
-4.53799e-11 -3.21801e-11 20.3067

6.7081 4.68465 -1.38893e-11
4.68465 9.93351 -9.13166e-12
-1.38893e-11 -9.13166e-12 5.17701

9.47113 4.62913 1.80466e-11
4.62913 6.9542 4.09675e-11
1.80466e-11 4.09675e-11 5.0777

26.6939 -2.1887 -3.02508e-11
-2.1887 29.4127 4.72161e-12
-3.02508e-11 4.72161e-12 28.3461

11.6262 1.9654 -5.22723e-12
1.9654 15.5776 -5.32419e-12
-5.22723e-12 -5.32419e-12 9.25613

14.9138 1.76153 6.73387e-13
1.76153 12.0405 -3.68821e-11
6.73387e-13 -3.68821e-11 9.28534

30.7602 -1.53328 3.34287e-11
-1.53328 32.0895 -1.18504e-11
3.34287e-11 -1.18504e-11 31.2788

30.7529 1.52754 1.45471e-11
1.52754 32.0722 -1.52206e-11
1.45471e-11 -1.52206e-11 31.2791

30.3932 0.0440504 2.28332e-11
0.0440504 26.9904 -3.06699e-11
2.28332e-11 -3.06699e-11 28.3639

30.7639 -1.33553 4.1039e-11
-1.33553 31.6762 6.39674e-11
4.1039e-11 6.39674e-11 31.33

30.759 1.33141 2.50469e-11
1.33141 31.6714 1.73422e-11
2.50469e-11 1.73422e-11 31.3338

23.9 2.14556 -5.78001e-13
2.14556 27.1516 -1.9558e-11
-5.78001e-13 -1.9558e-11 24.9369

32.998 0.877915 5.58767e-11
0.877915 30.3102 5.57791e-11
5.58767e-11 5.57791e-11 31.1731

33.0235 -0.871362 -1.88822e-11
-0.871362 30.2968 -2.84187e-11
-1.88822e-11 -2.84187e-11 31.164

28.8482 -1.76987 -3.42008e-11
-1.76987 29.7728 1.4018e-11
-3.42008e-11 1.4018e-11 29.2468

28.8394 1.75908 -3.18873e-11
1.75908 29.7719 3.07795e-11
-3.18873e-11 3.07795e-11 29.2565

19.9735 -1.90471 -3.24239e-11
-1.90471 17.4691 1.12252e-11
-3.24239e-11 1.12252e-11 16.422

30.6597 0.856592 -3.14414e-11
0.856592 32.8902 -5.39613e-12
-3.14414e-11 -5.39613e-12 31.2463

30.5075 0.677462 -2.47706e-11
0.677462 32.7714 -1.11752e-11
-2.47706e-11 -1.11752e-11 31.1208

23.0884 -2.36508 6.98378e-12
-2.36508 25.9816 4.21044e-11
6.98378e-12 4.21044e-11 23.2892

16.2344 -1.5655 1.88355e-11
-1.5655 20.0219 5.7333e-11
1.88355e-11 5.7333e-11 14.2819

19.5106 -1.55154 3.72677e-11
-1.55154 16.2343 -3.05143e-11
3.72677e-11 -3.05143e-11 14.0739

25.1392 1.86937 -3.11055e-11
1.86937 28.3903 1.73409e-11
-3.11055e-11 1.73409e-11 26.5425

24.8284 1.73834 -2.8277e-11
1.73834 27.8887 -2.27376e-11
-2.8277e-11 -2.27376e-11 26.2584

35.2181 -2.59211 -4.06534e-11
-2.59211 33.4782 9.81715e-14
-4.06534e-11 9.81715e-14 33.9896

35.2172 2.59136 2.37757e-10
2.59136 33.4827 1.28904e-10
2.37757e-10 1.28904e-10 33.9934

26.0564 2.64974 8.95966e-12
2.64974 28.9265 1.01164e-11
8.95966e-12 1.01164e-11 27.5936

28.7295 1.30017 -2.81312e-11
1.30017 27.6788 -1.05018e-11
-2.81312e-11 -1.05018e-11 28.0748

28.7185 -1.32296 -9.63455e-12
-1.32296 27.6053 -1.08381e-11
-9.63455e-12 -1.08381e-11 28.0079

25.848 2.53198 -1.31031e-11
2.53198 28.1925 -1.79203e-11
-1.31031e-11 -1.79203e-11 27.2177

27.0772 -2.3151 -1.62812e-11
-2.3151 29.8993 6.55157e-12
-1.62812e-11 6.55157e-12 28.6452

22.5673 -0.026418 -1.19e-11
-0.026418 18.2877 5.44385e-12
-1.19e-11 5.44385e-12 18.284

24.2838 1.03323 1.97479e-12
1.03323 20.4154 1.75828e-12
1.97479e-12 1.75828e-12 20.7444

29.5781 0.418945 -9.34527e-12
0.418945 26.7695 -1.38729e-11
-9.34527e-12 -1.38729e-11 28.5359

32.4716 -0.647889 1.13098e-10
-0.647889 32.1379 5.0095e-11
1.13098e-10 5.0095e-11 31.8418

32.4783 0.557474 -4.18092e-11
0.557474 32.1894 8.4776e-11
-4.18092e-11 8.4776e-11 31.8683

20.8434 1.914 -2.3461e-11
1.914 21.8121 -9.39486e-12
-2.3461e-11 -9.39486e-12 18.9298

24.6384 -1.67033 1.08876e-11
-1.67033 23.814 -6.5035e-12
1.08876e-11 -6.5035e-12 23.6398

28.6424 1.00086 -3.61287e-11
1.00086 26.5084 2.81741e-12
-3.61287e-11 2.81741e-12 26.8014

31.338 0.548579 1.9648e-11
0.548579 32.8857 -4.4309e-12
1.9648e-11 -4.4309e-12 31.6244

31.311 0.467724 5.35371e-11
0.467724 32.8606 8.66971e-12
5.35371e-11 8.66971e-12 31.5819

29.7682 -0.306688 4.88457e-11
-0.306688 27.1146 -5.78058e-12
4.88457e-11 -5.78058e-12 28.7945

26.7927 -0.654216 -8.5498e-13
-0.654216 28.9556 -1.40663e-11
-8.5498e-13 -1.40663e-11 27.3308

26.9121 -0.889445 -4.552e-12
-0.889445 29.1508 2.27371e-11
-4.552e-12 2.27371e-11 27.449

31.1492 -0.614205 5.00944e-12
-0.614205 28.2367 1.63772e-11
5.00944e-12 1.63772e-11 29.7499

31.2034 0.621172 3.12143e-11
0.621172 28.256 2.79414e-12
3.12143e-11 2.79414e-12 29.8154

21.7948 -1.89917 2.41362e-13
-1.89917 21.7359 -7.6108e-12
2.41362e-13 -7.6108e-12 19.2135

27.3175 0.118324 -7.41866e-12
0.118324 24.3799 -1.4138e-11
-7.41866e-12 -1.4138e-11 24.6064

31.3793 -0.930851 1.09827e-11
-0.930851 29.6899 2.6427e-13
1.09827e-11 2.6427e-13 30.7418

31.3674 0.922035 3.38144e-11
0.922035 29.7142 8.95996e-12
3.38144e-11 8.95996e-12 30.7636

28.6176 -1.03868 -3.47802e-11
-1.03868 26.5423 1.72216e-11
-3.47802e-11 1.72216e-11 26.7615

23.4858 -2.15394 -3.68997e-11
-2.15394 26.3132 8.76876e-12
-3.68997e-11 8.76876e-12 23.5696

31.1599 -0.690794 -1.92624e-13
-0.690794 28.599 -7.3699e-12
-1.92624e-13 -7.3699e-12 29.6848

31.211 0.697113 5.04822e-11
0.697113 28.6189 -8.52514e-12
5.04822e-11 -8.52514e-12 29.7557

27.5756 -0.453115 3.17927e-12
-0.453115 24.0381 4.5088e-11
3.17927e-12 4.5088e-11 25.3326

26.7383 3.02352 -5.20246e-11
3.02352 29.5311 -3.43006e-11
-5.20246e-11 -3.43006e-11 28.0542

23.9457 1.66504 9.1529e-12
1.66504 23.201 1.42593e-11
9.1529e-12 1.42593e-11 21.988

26.0902 2.55946 -9.05476e-12
2.55946 29.1617 3.87297e-11
-9.05476e-12 3.87297e-11 27.7505

26.5833 2.8583 -2.16769e-11
2.8583 29.7429 -2.65918e-11
-2.16769e-11 -2.65918e-11 28.097

25.1711 1.23565 9.44156e-12
1.23565 22.4662 1.44552e-12
9.44156e-12 1.44552e-12 22.4136

26.9629 -1.0218 6.55261e-12
-1.0218 25.4582 -9.05572e-12
6.55261e-12 -9.05572e-12 26.3678

27.2165 0.558496 -1.40669e-11
0.558496 23.9394 -1.638e-12
-1.40669e-11 -1.638e-12 24.9368

21.8358 2.10723 1.66201e-11
2.10723 22.386 1.06954e-11
1.66201e-11 1.06954e-11 20.8022

24.3293 1.71031 2.38939e-11
1.71031 23.651 1.09353e-11
2.38939e-11 1.09353e-11 23.4388

24.404 0.148236 1.46438e-11
0.148236 27.5836 -1.19467e-11
1.46438e-11 -1.19467e-11 26.0121

24.446 0.23436 1.59807e-11
0.23436 27.6105 -2.54347e-11
1.59807e-11 -2.54347e-11 26.034

21.1043 -2.14784 2.40785e-12
-2.14784 19.399 3.64092e-11
2.40785e-12 3.64092e-11 17.9675

25.8739 -2.55188 2.06181e-11
-2.55188 28.2411 -2.69767e-11
2.06181e-11 -2.69767e-11 27.2623

22.4922 -2.5178 9.00983e-12
-2.5178 24.2075 -2.58696e-11
9.00983e-12 -2.58696e-11 21.6213

22.4453 2.57889 8.72147e-12
2.57889 24.1186 7.57781e-11
8.72147e-12 7.57781e-11 21.564

26.9804 -0.936479 -1.35847e-11
-0.936479 24.6808 -1.34881e-12
-1.35847e-11 -1.34881e-12 25.1807

30.7406 -0.139739 -2.21594e-11
-0.139739 25.0756 -2.31202e-12
-2.21594e-11 -2.31202e-12 28.4079

30.7197 0.156503 -1.15613e-11
0.156503 25.0789 -3.41519e-11
-1.15613e-11 -3.41519e-11 28.339

21.1444 1.36871 -3.10664e-12
1.36871 24.5218 3.79617e-11
-3.10664e-12 3.79617e-11 21.5696

24.8151 -2.07068 6.84008e-12
-2.07068 25.4321 -3.8544e-12
6.84008e-12 -3.8544e-12 24.2605

17.7904 -0.0461944 4.49707e-11
-0.0461944 22.6987 2.74611e-11
4.49707e-11 2.74611e-11 18.2781

17.7306 0.101653 7.34653e-13
0.101653 22.7044 2.85692e-11
7.34653e-13 2.85692e-11 18.2012

22.7684 -0.0165732 3.17983e-12
-0.0165732 18.6887 -2.00405e-11
3.17983e-12 -2.00405e-11 18.5786

21.768 2.01669 3.36261e-11
2.01669 21.812 4.52912e-12
3.36261e-11 4.52912e-12 19.1813

23.2035 -2.36436 -1.88848e-11
-2.36436 22.928 3.01579e-11
-1.88848e-11 3.01579e-11 21.5933

31.8118 -1.16333 -1.4438e-10
-1.16333 34.3308 1.54721e-12
-1.4438e-10 1.54721e-12 32.2628

31.8421 -1.07396 -1.78055e-11
-1.07396 34.3459 4.25818e-11
-1.78055e-11 4.25818e-11 32.2889

25.4412 -1.21061 3.3818e-11
-1.21061 22.6032 9.46546e-12
3.3818e-11 9.46546e-12 22.6533

25.3422 2.80934 1.59935e-11
2.80934 28.4192 1.51265e-11
1.59935e-11 1.51265e-11 26.3515

30.3864 -0.0737735 -6.26258e-12
-0.0737735 26.9542 2.08893e-11
-6.26258e-12 2.08893e-11 28.3166

21.1476 -1.34695 2.32684e-14
-1.34695 24.6694 2.40875e-11
2.32684e-14 2.40875e-11 21.6263

27.1514 2.51633 -2.51929e-11
2.51633 30.1218 -1.63794e-11
-2.51929e-11 -1.63794e-11 28.8001

26.5774 2.36877 1.07412e-11
2.36877 29.5496 -1.09829e-11
1.07412e-11 -1.09829e-11 28.4019

26.7872 -3.01772 -1.26208e-11
-3.01772 29.5635 2.65908e-11
-1.26208e-11 2.65908e-11 28.0921

26.8407 2.91078 -1.63771e-11
2.91078 30.239 5.97195e-12
-1.63771e-11 5.97195e-12 28.4703

24.7649 2.45667 4.47872e-12
2.45667 27.6292 -2.66873e-11
4.47872e-12 -2.66873e-11 25.8477

33.0359 0.0055591 -2.04237e-11
0.0055591 29.7487 -3.01091e-11
-2.04237e-11 -3.01091e-11 31.6909

23.1704 2.32029 2.18704e-11
2.32029 22.6534 -4.33209e-13
2.18704e-11 -4.33209e-13 21.4128

26.0898 -2.58139 1.06939e-11
-2.58139 29.1445 -6.74455e-13
1.06939e-11 -6.74455e-13 27.7466

23.7247 2.0281 -1.71488e-11
2.0281 24.6478 6.10352e-11
-1.71488e-11 6.10352e-11 22.5959

20.1302 -1.75144 9.14824e-13
-1.75144 21.3438 1.60424e-11
9.14824e-13 1.60424e-11 18.2307

25.0025 -2.1446 4.72011e-12
-2.1446 26.7119 1.57046e-11
4.72011e-12 1.57046e-11 25.5709

20.6719 -1.22197 8.70759e-12
-1.22197 24.6121 1.09835e-11
8.70759e-12 1.09835e-11 20.3227

20.5606 1.19116 1.20558e-11
1.19116 24.4807 3.13634e-11
1.20558e-11 3.13634e-11 20.2218

24.1593 -0.839102 -3.48302e-11
-0.839102 21.6781 1.04905e-11
-3.48302e-11 1.04905e-11 20.4693

23.7097 -2.08361 -1.37746e-11
-2.08361 24.6389 -4.73061e-11
-1.37746e-11 -4.73061e-11 22.545

24.0277 0.323033 -1.14527e-11
0.323033 27.2477 -1.48378e-11
-1.14527e-11 -1.48378e-11 24.3576

24.0104 -0.0033818 4.74848e-11
-0.0033818 27.1967 -3.27579e-11
4.74848e-11 -3.27579e-11 24.3397

19.4089 -2.40525 -9.92332e-12
-2.40525 20.9234 -2.22095e-11
-9.92332e-12 -2.22095e-11 17.7569

19.3269 2.435 -4.81541e-13
2.435 21.0427 1.42122e-11
-4.81541e-13 1.42122e-11 17.8795

32.6773 -0.213864 3.41041e-11
-0.213864 28.9468 3.03455e-11
3.41041e-11 3.03455e-11 31.1509

32.6985 0.224268 -2.25434e-11
0.224268 28.9588 -6.67151e-12
-2.25434e-11 -6.67151e-12 31.1759

25.8637 2.64779 3.47791e-11
2.64779 28.7212 1.1851e-11
3.47791e-11 1.1851e-11 26.8404

26.5579 -2.41035 9.77879e-12
-2.41035 29.5997 -1.21397e-11
9.77879e-12 -1.21397e-11 28.3549

25.9692 1.75305 -2.79406e-11
1.75305 26.8972 -5.41456e-11
-2.79406e-11 -5.41456e-11 26.4523

20.0337 1.94093 4.62615e-12
1.94093 17.5039 1.89576e-11
4.62615e-12 1.89576e-11 15.8335

21.4929 1.66078 -1.52225e-11
1.66078 25.3554 -2.6015e-11
-1.52225e-11 -2.6015e-11 22.0234

30.5195 1.15646 1.65706e-11
1.15646 30.3834 3.23224e-11
1.65706e-11 3.23224e-11 30.4609

30.5304 -1.16488 5.27925e-11
-1.16488 30.3919 1.89297e-11
5.27925e-11 1.89297e-11 30.4544

28.8926 -1.58017 -1.10793e-11
-1.58017 28.5815 6.26258e-12
-1.10793e-11 6.26258e-12 28.2079

28.877 1.56776 -5.83822e-11
1.56776 28.5773 2.95753e-11
-5.83822e-11 2.95753e-11 28.2186

12.682 0.518727 -5.54771e-11
0.518727 18.9102 -1.85259e-11
-5.54771e-11 -1.85259e-11 10.0906

18.2197 0.536953 4.73378e-11
0.536953 13.2711 2.26921e-11
4.73378e-11 2.26921e-11 10.0764

21.4448 -1.57589 -4.86504e-12
-1.57589 25.4467 -2.98643e-12
-4.86504e-12 -2.98643e-12 22.1042

33.1392 -1.25656 -9.40222e-11
-1.25656 33.4698 3.60326e-11
-9.40222e-11 3.60326e-11 33.1584

33.1308 1.26066 -2.27345e-11
1.26066 33.4675 5.21157e-11
-2.27345e-11 5.21157e-11 33.1591

26.4621 1.9286 1.18502e-11
1.9286 26.5471 -8.04386e-12
1.18502e-11 -8.04386e-12 25.5667

20.6944 1.0573 -3.03768e-11
1.0573 16.5494 -8.60005e-12
-3.03768e-11 -8.60005e-12 15.7179

27.3261 -0.200988 1.9751e-11
-0.200988 24.3993 -2.78387e-11
1.9751e-11 -2.78387e-11 24.6143

24.8393 -1.387 7.81594e-12
-1.387 27.8519 -1.8113e-11
7.81594e-12 -1.8113e-11 26.263

25.1718 -1.51708 -3.47671e-11
-1.51708 28.2104 3.75862e-12
-3.47671e-11 3.75862e-12 26.5288

21.7606 -2.29247 -8.91328e-12
-2.29247 22.6058 9.10516e-12
-8.91328e-12 9.10516e-12 20.5949

26.8642 -2.92307 -1.62813e-11
-2.92307 30.2895 8.96083e-12
-1.62813e-11 8.96083e-12 28.5033

26.4573 -1.94947 2.42785e-11
-1.94947 26.5724 3.07329e-11
2.42785e-11 3.07329e-11 25.5383

25.6788 2.8003 2.4567e-11
2.8003 28.8866 8.67162e-12
2.4567e-11 8.67162e-12 27.5359

29.1537 2.02531 5.65585e-13
2.02531 30.7792 -3.09248e-11
5.65585e-13 -3.09248e-11 29.7386

28.9525 1.84011 -5.7719e-11
1.84011 30.3186 2.98559e-12
-5.7719e-11 2.98559e-12 29.5031

25.8891 -2.65944 4.69664e-11
-2.65944 28.8194 -1.87888e-11
4.69664e-11 -1.87888e-11 26.9133

25.2454 2.40064 -2.38928e-11
2.40064 27.7997 1.83051e-11
-2.38928e-11 1.83051e-11 26.2044

23.2704 1.66077 -7.46684e-12
1.66077 20.7528 -4.09476e-12
-7.46684e-12 -4.09476e-12 20.4375

26.5731 3.08118 -1.91234e-11
3.08118 29.8118 -1.35854e-11
-1.91234e-11 -1.35854e-11 28.2072

23.3804 -1.88298 2.48574e-11
-1.88298 26.5867 -1.54156e-11
2.48574e-11 -1.54156e-11 24.525

22.2042 0.733328 -2.52953e-12
0.733328 26.0608 -1.51266e-11
-2.52953e-12 -1.51266e-11 23.2546

26.67 2.23417 2.70719e-11
2.23417 27.6536 1.33917e-11
2.70719e-11 1.33917e-11 26.7814

22.6247 0.942029 -4.44147e-11
0.942029 26.3397 2.71691e-11
-4.44147e-11 2.71691e-11 23.5422

27.1637 -2.61528 -2.3073e-11
-2.61528 30.1906 4.62552e-12
-2.3073e-11 4.62552e-12 28.7569

14.4438 -2.24454 4.96173e-12
-2.24454 14.6917 1.10328e-11
4.96173e-12 1.10328e-11 11.2071

14.5106 -2.26901 -4.61056e-11
-2.26901 14.5226 -4.47461e-11
-4.61056e-11 -4.47461e-11 11.162

26.6699 -2.24748 3.63211e-11
-2.24748 27.6551 9.92166e-12
3.63211e-11 9.92166e-12 26.7694

28.4224 -0.848654 -2.57233e-11
-0.848654 25.7111 7.42943e-12
-2.57233e-11 7.42943e-12 26.5223

35.3564 2.67024 1.77448e-10
2.67024 34.1428 -5.44203e-11
1.77448e-10 -5.44203e-11 34.155

35.3573 -2.67049 -8.30383e-11
-2.67049 34.1437 -7.63881e-11
-8.30383e-11 -7.63881e-11 34.1525

25.4324 -2.79214 7.41969e-12
-2.79214 28.5692 -4.46082e-11
7.41969e-12 -4.46082e-11 26.5073

30.2775 0.585451 -1.21397e-11
0.585451 30.7827 -4.72041e-12
-1.21397e-11 -4.72041e-12 30.5506

30.3156 -0.537997 5.91521e-11
-0.537997 30.8207 7.80387e-12
5.91521e-11 7.80387e-12 30.5647

28.8453 0.036013 -1.10803e-11
0.036013 23.2724 -5.89652e-12
-1.10803e-11 -5.89652e-12 25.6632

25.664 -2.81384 1.71482e-11
-2.81384 28.9229 6.84009e-12
1.71482e-11 6.84009e-12 27.5244

15.9143 2.73476 -1.6962e-11
2.73476 16.1536 -6.45962e-11
-1.6962e-11 -6.45962e-11 13.063

15.6339 2.59067 1.88387e-11
2.59067 16.1535 3.53634e-11
1.88387e-11 3.53634e-11 13.0747

16.8722 -1.9465 -8.53873e-12
-1.9465 20.4501 -4.13851e-11
-8.53873e-12 -4.13851e-11 15.3032

17.212 2.041 -6.73535e-13
2.041 20.7561 -8.67099e-12
-6.73535e-13 -8.67099e-12 15.6335

20.2111 -1.61918 5.5501e-11
-1.61918 17.5441 1.61867e-11
5.5501e-11 1.61867e-11 15.405

26.5844 -3.09447 -1.48364e-11
-3.09447 29.9035 1.42594e-11
-1.48364e-11 1.42594e-11 28.2317

13.3505 0.71723 -3.73494e-11
0.71723 18.8341 3.30033e-11
-3.73494e-11 3.30033e-11 13.1222

18.5705 0.915769 -2.939e-11
0.915769 14.2171 -5.74558e-12
-2.939e-11 -5.74558e-12 13.3183

30.0151 -0.956328 -1.26704e-11
-0.956328 31.586 3.71871e-11
-1.26704e-11 3.71871e-11 30.5519

30.2075 -1.15719 -3.54156e-11
-1.15719 31.7338 1.05979e-11
-3.54156e-11 1.05979e-11 30.6864

29.2918 0.361825 8.09386e-12
0.361825 26.3085 -1.49316e-11
8.09386e-12 -1.49316e-11 27.3568

30.3706 0.0225833 2.75547e-11
0.0225833 23.8126 -4.99755e-12
2.75547e-11 -4.99755e-12 27.416

19.9736 -1.76624 -8.86458e-12
-1.76624 23.1199 1.00695e-11
-8.86458e-12 1.00695e-11 19.5747

19.8593 1.72743 3.16028e-11
1.72743 23.032 4.73102e-11
3.16028e-11 4.73102e-11 19.4963

28.8699 0.00018145 -1.34925e-12
0.00018145 23.2262 -3.62555e-11
-1.34925e-12 -3.62555e-11 25.7428

23.9843 -2.13374 -2.83726e-11
-2.13374 27.32 -2.1581e-11
-2.83726e-11 -2.1581e-11 25.0877

32.6516 -0.911149 3.46756e-12
-0.911149 32.4435 -1.96533e-11
3.46756e-12 -1.96533e-11 32.4366

32.6321 0.909315 -1.50283e-11
0.909315 32.4346 3.49208e-11
-1.50283e-11 3.49208e-11 32.435

27.2574 1.25704 -2.5338e-11
1.25704 27.4827 -1.73476e-12
-2.5338e-11 -1.73476e-12 27.0098

25.1712 -2.39002 -3.52132e-11
-2.39002 27.7923 5.8778e-12
-3.52132e-11 5.8778e-12 26.1736

28.6784 0.362181 1.15611e-11
0.362181 24.0913 -8.66686e-13
1.15611e-11 -8.66686e-13 26.4126

20.3572 1.99356 -9.20382e-12
1.99356 19.9868 -5.49691e-11
-9.20382e-12 -5.49691e-11 18.0669

24.7895 -2.45557 2.7464e-12
-2.45557 27.6449 -1.58006e-11
2.7464e-12 -1.58006e-11 25.8762

7.43852 -4.30968 9.40892e-12
-4.30968 7.59147 -3.67756e-11
9.40892e-12 -3.67756e-11 4.2037

22.3222 -0.588444 6.28689e-12
-0.588444 25.9804 -1.13694e-11
6.28689e-12 -1.13694e-11 23.2699

22.6561 -0.805722 7.46681e-12
-0.805722 26.1999 -3.83471e-11
7.46681e-12 -3.83471e-11 23.4884

30.2675 -0.190604 1.07552e-11
-0.190604 31.3988 -2.83238e-11
1.07552e-11 -2.83238e-11 30.7076

30.3011 -0.109943 6.47091e-12
-0.109943 31.3796 -1.54125e-12
6.47091e-12 -1.54125e-12 30.7147

33.3408 -0.668565 2.92866e-11
-0.668565 30.5365 2.88519e-11
2.92866e-11 2.88519e-11 32.3012

33.3392 0.669641 -1.11749e-11
0.669641 30.5473 2.52873e-11
-1.11749e-11 2.52873e-11 32.3194

27.8737 -1.31651 2.21441e-12
-1.31651 28.1754 3.18894e-11
2.21441e-12 3.18894e-11 28.3337

27.7978 1.35843 -1.09828e-11
1.35843 27.8786 5.49092e-12
-1.09828e-11 5.49092e-12 28.1421

29.989 -1.16837 3.96921e-11
-1.16837 31.2669 -2.25427e-11
3.96921e-11 -2.25427e-11 30.4139

29.9577 1.21624 -4.7976e-11
1.21624 31.2506 -2.50471e-12
-4.7976e-11 -2.50471e-12 30.3994

34.0342 1.81713 -3.14046e-11
1.81713 33.8867 4.08429e-11
-3.14046e-11 4.08429e-11 33.5764

34.0358 -1.81442 9.24822e-11
-1.81442 33.8881 -1.31693e-10
9.24822e-11 -1.31693e-10 33.5738

28.0743 -2.99931 1.72456e-11
-2.99931 30.7265 -1.02127e-11
1.72456e-11 -1.02127e-11 29.4845

28.0852 3.00969 -1.44462e-12
3.00969 30.6983 -8.28557e-12
-1.44462e-12 -8.28557e-12 29.4911

26.292 1.79004 -1.77266e-11
1.79004 25.4529 2.21586e-12
-1.77266e-11 2.21586e-12 25.1035

24.472 -1.41328 -2.59388e-11
-1.41328 27.2744 -4.09464e-11
-2.59388e-11 -4.09464e-11 25.0217

24.7653 -1.76377 -2.84693e-11
-1.76377 27.8345 4.82651e-13
-2.84693e-11 4.82651e-13 25.3687

20.8193 -1.78208 -3.52645e-11
-1.78208 20.3136 -4.46578e-11
-3.52645e-11 -4.46578e-11 17.9636

26.2746 -1.7872 3.58397e-11
-1.7872 25.5008 3.9404e-11
3.58397e-11 3.9404e-11 25.083

24.3955 1.3336 -4.36203e-11
1.3336 27.1468 -2.52429e-11
-4.36203e-11 -2.52429e-11 24.9256

24.857 2.50765 -3.24677e-11
2.50765 25.815 -1.39807e-12
-3.24677e-11 -1.39807e-12 24.3524

26.8156 -2.59875 2.98711e-12
-2.59875 29.3988 -8.76716e-12
2.98711e-12 -8.76716e-12 28.5025

26.8575 2.55095 -2.27356e-11
2.55095 29.4071 1.00191e-11
-2.27356e-11 1.00191e-11 28.5301

24.803 -2.5452 -8.24714e-11
-2.5452 25.7825 6.79549e-12
-8.24714e-11 6.79549e-12 24.2989

29.5725 -0.251265 2.8807e-11
-0.251265 26.6452 -7.22478e-13
2.8807e-11 -7.22478e-13 27.7408

31.9593 0.721103 6.09368e-12
0.721103 33.1953 -3.02495e-11
6.09368e-12 -3.02495e-11 32.0402

32.035 0.634252 7.76346e-11
0.634252 33.1731 -3.84507e-13
7.76346e-11 -3.84507e-13 32.0736

26.7862 -2.23737 -2.53857e-11
-2.23737 29.4147 -9.73014e-12
-2.53857e-11 -9.73014e-12 27.6959

26.5637 1.09396 -3.41062e-11
1.09396 25.1425 2.79352e-12
-3.41062e-11 2.79352e-12 25.9691

31.5306 -0.270597 -2.6205e-11
-0.270597 27.7789 -1.25232e-11
-2.6205e-11 -1.25232e-11 29.5801

15.5025 -2.40636 -2.33665e-12
-2.40636 15.8713 1.89586e-11
-2.33665e-12 1.89586e-11 12.2446

15.6263 -2.35038 -1.07931e-11
-2.35038 15.9473 3.86399e-11
-1.07931e-11 3.86399e-11 12.3466

33.1827 -0.752703 3.42964e-11
-0.752703 30.3077 -2.8426e-12
3.42964e-11 -2.8426e-12 32.0653

33.1544 0.765271 1.13682e-11
0.765271 30.3139 8.044e-12
1.13682e-11 8.044e-12 32.0722

31.6103 0.222974 -8.95904e-12
0.222974 27.9214 -1.70037e-11
-8.95904e-12 -1.70037e-11 29.673

24.7612 1.75078 -5.90089e-11
1.75078 27.7341 4.90383e-11
-5.90089e-11 4.90383e-11 25.321

25.7163 1.37915 1.10805e-11
1.37915 24.2334 -9.00787e-12
1.10805e-11 -9.00787e-12 23.324

28.8832 -1.99303 -2.95749e-11
-1.99303 30.2747 -7.8997e-12
-2.95749e-11 -7.8997e-12 29.2915

28.874 1.97757 -1.67647e-11
1.97757 30.2715 -8.26609e-11
-1.67647e-11 -8.26609e-11 29.2978

33.177 -0.360715 6.35906e-12
-0.360715 31.241 -9.86154e-11
6.35906e-12 -9.86154e-11 31.8858

33.2351 0.364774 7.01345e-11
0.364774 31.5324 -5.8263e-11
7.01345e-11 -5.8263e-11 31.9901

25.75 -2.56408 4.23943e-12
-2.56408 28.9463 -1.82092e-11
4.23943e-12 -1.82092e-11 27.2721

26.7909 1.09845 -3.53583e-11
1.09845 24.5947 6.35865e-12
-3.53583e-11 6.35865e-12 24.8528

31.6306 0.759979 5.53941e-11
0.759979 30.6838 -3.61146e-12
5.53941e-11 -3.61146e-12 31.0658

31.65 -0.763907 -5.68471e-12
-0.763907 30.6838 -2.55777e-11
-5.68471e-12 -2.55777e-11 31.0604

26.4127 -1.99072 -3.81993e-11
-1.99072 28.8292 7.61184e-12
-3.81993e-11 7.61184e-12 27.3483

25.8732 -2.73674 4.43169e-11
-2.73674 28.9265 -1.32965e-11
4.43169e-11 -1.32965e-11 27.5186

7.69304 -4.4684 2.29594e-11
-4.4684 7.92993 -4.98831e-12
2.29594e-11 -4.98831e-12 4.43744

27.8583 1.86567 -4.43223e-12
1.86567 30.4786 -2.48554e-11
-4.43223e-12 -2.48554e-11 29.2735

27.8459 -1.89389 -2.3506e-11
-1.89389 30.5071 -1.62809e-11
-2.3506e-11 -1.62809e-11 29.2863

25.1198 -2.37098 6.55075e-12
-2.37098 28.2759 1.11754e-11
6.55075e-12 1.11754e-11 26.7849

26.0126 -1.48805 2.15812e-11
-1.48805 24.3833 2.51457e-11
2.15812e-11 2.51457e-11 23.5479

27.6065 -1.18587 -7.51466e-12
-1.18587 27.6854 1.50296e-11
-7.51466e-12 1.50296e-11 27.2807

27.864 1.61459 1.48364e-11
1.61459 29.1895 -1.81121e-11
1.48364e-11 -1.81121e-11 28.6025

27.8489 -1.67578 -1.03079e-11
-1.67578 29.2614 -2.7168e-11
-1.03079e-11 -2.7168e-11 28.631

28.8899 -0.240758 2.82289e-11
-0.240758 24.2394 4.76883e-11
2.82289e-11 4.76883e-11 26.7312

33.4811 0.590932 5.97263e-12
0.590932 31.8813 -4.37363e-11
5.97263e-12 -4.37363e-11 32.8346

33.5174 -0.585144 3.29475e-11
-0.585144 31.8846 -3.79564e-11
3.29475e-11 -3.79564e-11 32.8426

31.8804 0.262345 -7.39922e-11
0.262345 34.7678 1.52208e-11
-7.39922e-11 1.52208e-11 32.1993

31.922 0.174963 2.60742e-11
0.174963 34.7756 5.43342e-11
2.60742e-11 5.43342e-11 32.2181

12.1372 0.187694 3.49498e-13
0.187694 18.7259 -2.29115e-11
3.49498e-13 -2.29115e-11 9.84306

17.8551 0.166891 -2.70045e-11
0.166891 12.1803 2.85703e-11
-2.70045e-11 2.85703e-11 9.6759

27.6353 -2.56052 -3.82465e-11
-2.56052 30.374 3.2565e-11
-3.82465e-11 3.2565e-11 28.73

27.6387 2.55327 -5.74182e-11
2.55327 30.3612 -4.43401e-12
-5.74182e-11 -4.43401e-12 28.736

26.3937 -2.91602 6.25594e-13
-2.91602 29.7671 2.95774e-11
6.25594e-13 2.95774e-11 28.029

10.4303 -2.10025 -9.46754e-12
-2.10025 15.2813 3.25245e-11
-9.46754e-12 3.25245e-11 8.37855

14.8991 -2.0078 1.37793e-11
-2.0078 10.9543 3.66153e-11
1.37793e-11 3.66153e-11 8.46905

33.4864 -2.67854 -6.60837e-11
-2.67854 35.5752 3.8345e-11
-6.60837e-11 3.8345e-11 34.2695

33.4837 2.67807 -1.57967e-11
2.67807 35.5761 7.36933e-11
-1.57967e-11 7.36933e-11 34.2716

26.0346 -1.76859 -3.55513e-11
-1.76859 26.9668 2.76509e-11
-3.55513e-11 2.76509e-11 26.5539

24.9673 -2.45761 -3.67078e-11
-2.45761 26.6779 3.84427e-11
-3.67078e-11 3.84427e-11 24.886

27.3589 -2.58715 -4.41223e-11
-2.58715 29.3142 -1.82069e-11
-4.41223e-11 -1.82069e-11 28.2093

27.3536 2.57706 -8.83444e-11
2.57706 29.3029 -5.22207e-11
-8.83444e-11 -5.22207e-11 28.2125

25.5571 -2.77623 4.94255e-11
-2.77623 27.9739 -7.06222e-11
4.94255e-11 -7.06222e-11 26.2379

24.961 2.45835 -4.54756e-11
2.45835 26.5972 -4.46099e-11
-4.54756e-11 -4.46099e-11 24.8596

16.6511 -0.79678 2.25826e-11
-0.79678 21.2442 -2.78457e-11
2.25826e-11 -2.78457e-11 15.5977

16.4095 0.964906 -4.28758e-12
0.964906 20.9194 8.76876e-12
-4.28758e-12 8.76876e-12 15.5186

20.8797 -0.606925 -5.10555e-12
-0.606925 17.6043 -3.82277e-11
-5.10555e-12 -3.82277e-11 15.8001

25.5496 2.76185 2.89043e-11
2.76185 27.9303 4.72091e-11
2.89043e-11 4.72091e-11 26.2095

13.1398 -0.495743 9.82764e-12
-0.495743 18.9096 3.77245e-11
9.82764e-12 3.77245e-11 12.9271

18.3698 -0.48019 4.27838e-11
-0.48019 13.2562 2.44733e-11
4.27838e-11 2.44733e-11 12.7597

28.7389 -2.52851 1.61839e-11
-2.52851 30.7392 -8.96105e-12
1.61839e-11 -8.96105e-12 29.7227

28.7502 2.514 -2.89731e-13
2.514 30.7331 1.25198e-12
-2.89731e-13 1.25198e-12 29.7334

29.1304 -2.19991 1.72449e-11
-2.19991 31.2673 -2.92886e-11
1.72449e-11 -2.92886e-11 30.154

29.1328 2.19124 5.97219e-12
2.19124 31.2539 -2.36994e-11
5.97219e-12 -2.36994e-11 30.1588

9.9322 -2.1117 5.37819e-11
-2.1117 14.6752 -4.55351e-11
5.37819e-11 -4.55351e-11 7.76579

14.2563 -1.9536 -7.37418e-11
-1.9536 10.0654 -4.60115e-11
-7.37418e-11 -4.60115e-11 7.684

26.9273 2.33256 1.16589e-11
2.33256 28.6593 3.11184e-11
1.16589e-11 3.11184e-11 27.2525

26.9376 -2.3514 2.717e-11
-2.3514 28.6913 -3.26615e-11
2.717e-11 -3.26615e-11 27.2541

30.8692 -0.377507 -4.56385e-11
-0.377507 31.7708 8.49699e-11
-4.56385e-11 8.49699e-11 31.0398

30.9189 -0.500452 5.24224e-11
-0.500452 31.8633 -1.1754e-11
5.24224e-11 -1.1754e-11 31.0931

28.7478 -2.53948 1.66666e-11
-2.53948 31.8753 -1.34884e-11
1.66666e-11 -1.34884e-11 30.297

28.742 2.55118 2.37952e-11
2.55118 31.8562 1.44552e-12
2.37952e-11 1.44552e-12 30.3004

32.3217 -0.995342 -3.41027e-11
-0.995342 31.2208 1.53659e-11
-3.41027e-11 1.53659e-11 32.0543

32.3049 0.995607 3.54525e-11
0.995607 31.2257 -3.21278e-11
3.54525e-11 -3.21278e-11 32.0559

26.6451 2.10196 -8.18978e-12
2.10196 28.7198 -2.22555e-11
-8.18978e-12 -2.22555e-11 27.645

26.6441 -2.09332 5.97344e-12
-2.09332 28.8169 -2.6398e-11
5.97344e-12 -2.6398e-11 27.6844

30.6789 -0.786474 -2.02423e-11
-0.786474 33.7764 3.46824e-11
-2.02423e-11 3.46824e-11 31.5563

34.3575 -1.4346 -1.0982e-11
-1.4346 33.6235 7.22476e-12
-1.0982e-11 7.22476e-12 33.8921

34.2075 -1.47287 3.62222e-11
-1.47287 33.6279 3.63169e-11
3.62222e-11 3.63169e-11 33.8656

34.3344 1.44259 4.23885e-12
1.44259 33.6201 -3.35243e-11
4.23885e-12 -3.35243e-11 33.8861

34.201 1.47642 -4.62409e-11
1.47642 33.6261 -3.56464e-11
-4.62409e-11 -3.56464e-11 33.866

30.5141 -0.610351 2.46137e-11
-0.610351 33.7141 -7.01346e-11
2.46137e-11 -7.01346e-11 31.4483

31.8654 -1.61011 3.83414e-11
-1.61011 31.8049 -6.74395e-12
3.83414e-11 -6.74395e-12 31.3263

31.7965 1.66541 3.79582e-11
1.66541 31.8321 4.08471e-11
3.79582e-11 4.08471e-11 31.341

33.1152 -2.08834 2.27924e-10
-2.08834 34.2746 -4.42865e-10
2.27924e-10 -4.42865e-10 33.1086

39.5985 -1.56168 1.84985e-09
-1.56168 34.0684 8.22168e-10
1.84985e-09 8.22168e-10 34.9124

39.5987 1.56053 3.14824e-10
1.56053 34.0735 -8.40831e-11
3.14824e-10 -8.40831e-11 34.9169

33.1101 2.08939 -2.92467e-10
2.08939 34.2718 -7.71751e-11
-2.92467e-10 -7.71751e-11 33.1112

33.4714 -2.21585 -7.94784e-11
-2.21585 33.3916 1.9847e-11
-7.94784e-11 1.9847e-11 32.814

31.1287 -1.78584 -6.26192e-12
-1.78584 32.9038 -2.53375e-11
-6.26192e-12 -2.53375e-11 31.6972

33.9927 -1.7048 -1.23327e-11
-1.7048 33.9845 1.85059e-10
-1.23327e-11 1.85059e-10 33.5833

33.4679 2.21694 5.5683e-11
2.21694 33.3819 1.32953e-11
5.5683e-11 1.32953e-11 32.8157

33.9911 1.70627 -4.68162e-11
1.70627 33.986 1.52399e-10
-4.68162e-11 1.52399e-10 33.5869

31.1277 1.78536 5.32747e-11
1.78536 32.8907 3.87329e-13
5.32747e-11 3.87329e-13 31.6992

31.2145 -1.8413 9.73022e-12
-1.8413 32.9603 -1.36799e-11
9.73022e-12 -1.36799e-11 32.0149

33.0904 -1.49927 -4.70107e-11
-1.49927 33.656 -7.77411e-11
-4.70107e-11 -7.77411e-11 33.0811

31.2141 1.84003 4.7204e-11
1.84003 32.9505 2.12107e-12
4.7204e-11 2.12107e-12 32.0173

33.082 1.49713 -3.14053e-11
1.49713 33.6454 -3.08475e-12
-3.14053e-11 -3.08475e-12 33.0809

26.6591 1.20718 -3.66073e-12
1.20718 28.1672 -2.96739e-11
-3.66073e-12 -2.96739e-11 27.2515

25.1158 -0.348369 7.70786e-13
-0.348369 28.8061 2.15819e-11
7.70786e-13 2.15819e-11 27.152

25.8928 -0.388137 -3.37203e-11
-0.388137 22.3603 2.54361e-11
-3.37203e-11 2.54361e-11 24.4751

24.8869 0.0124731 1.09843e-11
0.0124731 21.5252 -1.90766e-11
1.09843e-11 -1.90766e-11 23.0808

27.0288 1.21123 -5.58702e-12
1.21123 28.8123 3.12149e-11
-5.58702e-12 3.12149e-11 28.473

25.7473 -0.52699 -3.66121e-12
-0.52699 30.7306 -3.89221e-11
-3.66121e-12 -3.89221e-11 28.6271

24.9176 0.679743 1.52227e-11
0.679743 21.5709 1.29088e-11
1.52227e-11 1.29088e-11 23.1779

28.2794 0.865632 8.18889e-12
0.865632 24.8167 2.04251e-11
8.18889e-12 2.04251e-11 27.383

17.784 1.72316 -6.16573e-12
1.72316 20.2121 -3.0833e-11
-6.16573e-12 -3.0833e-11 18.6006

17.9012 1.66931 -5.78889e-13
1.66931 20.2491 -1.67655e-11
-5.78889e-13 -1.67655e-11 18.4213

19.8272 1.50179 -3.85455e-12
1.50179 17.6335 -7.70846e-13
-3.85455e-12 -7.70846e-13 18.1402

28.6839 0.758967 3.44893e-11
0.758967 30.6726 -2.69912e-12
3.44893e-11 -2.69912e-12 29.4955

28.9074 -1.46537 -4.81717e-12
-1.46537 29.7306 -2.75531e-11
-4.81717e-12 -2.75531e-11 29.3411

24.9047 -1.86315 9.63481e-12
-1.86315 25.4262 2.29293e-11
9.63481e-12 2.29293e-11 25.0044

25.6669 0.632613 2.31126e-12
0.632613 30.7442 -2.92886e-11
2.31126e-12 -2.92886e-11 28.5402

26.886 -0.701161 -7.70798e-12
-0.701161 28.6029 -1.7149e-11
-7.70798e-12 -1.7149e-11 28.3445

26.8339 0.480112 -2.7073e-11
0.480112 22.6745 1.46425e-11
-2.7073e-11 1.46425e-11 24.8045

19.2718 0.794484 -3.33371e-11
0.794484 22.6337 -4.77902e-11
-3.33371e-11 -4.77902e-11 20.253

19.7554 0.604697 1.0503e-11
0.604697 22.3525 7.51665e-12
1.0503e-11 7.51665e-12 20.1897

22.2092 0.463717 -8.38352e-12
0.463717 19.3418 -3.85469e-12
-8.38352e-12 -3.85469e-12 19.8543

22.6053 1.85777 -7.41833e-12
1.85777 24.7228 2.1967e-11
-7.41833e-12 2.1967e-11 23.1145

21.9436 -1.1143 1.58952e-11
-1.1143 24.7034 4.74032e-11
1.58952e-11 4.74032e-11 23.1712

26.134 1.07155 -1.83062e-11
1.07155 22.3715 -2.11952e-12
-1.83062e-11 -2.11952e-12 24.6854

16.8325 1.25974 -1.23349e-11
1.25974 18.6586 2.31378e-12
-1.23349e-11 2.31378e-12 16.9037

28.0243 -0.480024 2.38933e-11
-0.480024 23.6684 -2.69753e-11
2.38933e-11 -2.69753e-11 26.7525

29.6957 0.324326 1.8497e-11
0.324326 30.0843 4.62456e-12
1.8497e-11 4.62456e-12 29.6744

28.9053 -0.085978 -7.32181e-12
-0.085978 31.5879 -3.69944e-11
-7.32181e-12 -3.69944e-11 29.7845

36.1212 1.88049 7.7455e-11
1.88049 32.8549 1.04034e-11
7.7455e-11 1.04034e-11 32.4142

35.7102 -0.842563 7.43725e-11
-0.842563 31.1191 -9.62443e-13
7.43725e-11 -9.62443e-13 32.167

24.0993 -2.12937 -2.89039e-12
-2.12937 25.0939 4.43245e-12
-2.89039e-12 4.43245e-12 24.5658

22.0808 -1.79401 -1.05989e-11
-1.79401 24.2485 -8.09453e-12
-1.05989e-11 -8.09453e-12 22.8025

21.8094 -0.0210055 -2.59187e-11
-0.0210055 18.5857 -1.48374e-11
-2.59187e-11 -1.48374e-11 19.6155

31.2193 1.16324 1.88842e-11
1.16324 29.1289 1.34873e-11
1.88842e-11 1.34873e-11 29.784

30.7406 -0.318115 1.19447e-11
-0.318115 28.6431 5.02873e-11
1.19447e-11 5.02873e-11 29.5914

28.1941 -0.188595 -1.9654e-11
-0.188595 23.8395 -4.04628e-12
-1.9654e-11 -4.04628e-12 27.2846

21.6494 -1.36179 -1.18522e-11
-1.36179 23.863 2.15847e-11
-1.18522e-11 2.15847e-11 22.7855

27.7278 0.265142 2.3124e-11
0.265142 23.146 1.71483e-11
2.3124e-11 1.71483e-11 26.6892

23.4521 -1.33817 -1.73324e-12
-1.33817 21.9993 3.06384e-11
-1.73324e-12 3.06384e-11 22.132

22.1297 1.96854 3.931e-11
1.96854 23.4547 -3.16016e-11
3.931e-11 -3.16016e-11 22.7429

23.6186 1.46171 -1.90763e-11
1.46171 20.5166 1.88818e-11
-1.90763e-11 1.88818e-11 21.691

23.1326 -0.845285 -9.63492e-12
-0.845285 20.2928 5.97411e-12
-9.63492e-12 5.97411e-12 21.4129

22.2056 1.65992 3.58411e-11
1.65992 24.6173 2.23533e-11
3.58411e-11 2.23533e-11 23.1202

24.0148 -1.23467 3.86025e-13
-1.23467 27.9333 2.54356e-11
3.86025e-13 2.54356e-11 26.7267

25.1372 2.20589 -6.45511e-12
2.20589 27.8718 -9.63459e-12
-6.45511e-12 -9.63459e-12 26.7674

22.6258 -1.55423 1.02118e-11
-1.55423 24.5834 1.75342e-11
1.02118e-11 1.75342e-11 23.1307

22.2362 2.0393 7.13033e-12
2.0393 24.4585 2.65915e-11
7.13033e-12 2.65915e-11 22.8711

13.1287 -1.72191 -2.11997e-11
-1.72191 13.4154 1.19498e-11
-2.11997e-11 1.19498e-11 13.3742

12.9791 1.97788 4.81683e-12
1.97788 13.6961 -1.34916e-11
4.81683e-12 -1.34916e-11 13.2773

25.5061 1.69324 -2.90941e-11
1.69324 29.3108 3.85349e-12
-2.90941e-11 3.85349e-12 28.2066

26.6007 -1.97859 2.67828e-11
-1.97859 28.8617 -1.54152e-11
2.67828e-11 -1.54152e-11 28.2579

23.1314 1.8641 -3.85425e-12
1.8641 25.9597 -1.69573e-11
-3.85425e-12 -1.69573e-11 24.5134

13.0354 0.636311 1.69599e-11
0.636311 13.1096 1.69592e-11
1.69599e-11 1.69592e-11 13.6259

13.0467 -0.0105708 1.04049e-11
-0.0105708 13.6918 1.6573e-11
1.04049e-11 1.6573e-11 13.8451

29.1372 -1.42101 -5.61642e-11
-1.42101 29.7409 3.85393e-11
-5.61642e-11 3.85393e-11 29.7302

29.4093 0.69182 4.68191e-11
0.69182 30.3424 -4.21965e-11
4.68191e-11 -4.21965e-11 29.8431

28.418 -0.041383 -1.58479e-11
-0.041383 23.5394 5.78043e-12
-1.58479e-11 5.78043e-12 26.0292

29.182 -1.32447 -5.81385e-11
-1.32447 29.8056 6.5128e-11
-5.81385e-11 6.5128e-11 29.7307

29.2745 0.474144 3.27357e-12
0.474144 29.4245 -3.33332e-11
3.27357e-12 -3.33332e-11 29.629

22.4758 -1.17294 5.20286e-12
-1.17294 25.944 1.1553e-12
5.20286e-12 1.1553e-12 24.5644

33.8345 1.7785 -1.69546e-11
1.7785 31.8121 2.85159e-11
-1.69546e-11 2.85159e-11 31.5422

33.9466 -1.46607 -7.32314e-12
-1.46607 30.1619 5.7788e-12
-7.32314e-12 5.7788e-12 31.4124

27.2882 -1.42115 3.17953e-12
-1.42115 27.21 1.27631e-11
3.17953e-12 1.27631e-11 27.7468

27.4147 1.08072 2.23027e-11
1.08072 27.522 -4.88455e-11
2.23027e-11 -4.88455e-11 27.7605

30.6308 0.113658 -2.2545e-11
0.113658 34.541 2.736e-11
-2.2545e-11 2.736e-11 31.4217

30.4369 0.85806 -2.50476e-12
0.85806 32.2805 -2.46623e-11
-2.50476e-12 -2.46623e-11 31.0009

15.9938 0.588865 3.84119e-13
0.588865 17.8747 -2.69817e-11
3.84119e-13 -2.69817e-11 16.3473

17.7675 0.602098 5.21265e-11
0.602098 16.052 9.24614e-12
5.21265e-11 9.24614e-12 16.3455

24.622 1.77052 -2.52416e-11
1.77052 27.4575 -2.58203e-11
-2.52416e-11 -2.58203e-11 26.2358

23.4643 -1.07969 -1.96538e-11
-1.07969 27.6491 2.85185e-11
-1.96538e-11 2.85185e-11 26.1642

34.6673 -2.33111 -6.90604e-11
-2.33111 37.3226 3.00603e-11
-6.90604e-11 3.00603e-11 33.5104

34.9457 1.39099 -1.47384e-10
1.39099 32.5884 -1.11775e-11
-1.47384e-10 -1.11775e-11 32.6436

23.4243 1.87743 1.6762e-11
1.87743 22.3117 5.39679e-12
1.6762e-11 5.39679e-12 22.4829

27.1701 0.719838 2.79291e-12
0.719838 24.7049 3.21758e-11
2.79291e-12 3.21758e-11 26.2887

27.0192 -0.944511 1.26701e-11
-0.944511 24.615 -8.09458e-12
1.26701e-11 -8.09458e-12 26.2615

29.7791 -1.01551 -9.63363e-12
-1.01551 26.1488 1.96514e-11
-9.63363e-12 1.96514e-11 28.6297

21.7439 0.429325 -4.91394e-11
0.429325 18.5738 -2.69756e-12
-4.91394e-11 -2.69756e-12 19.6545

37.1993 0.132011 -1.77257e-11
0.132011 32.407 -4.56644e-11
-1.77257e-11 -4.56644e-11 32.8693

36.979 -0.266116 -5.58723e-11
-0.266116 35.7503 6.58943e-11
-5.58723e-11 6.58943e-11 33.298

24.384 2.25349 3.0835e-12
2.25349 23.2325 3.08031e-12
3.0835e-12 3.08031e-12 23.9885

27.1746 0.595128 -2.31229e-11
0.595128 24.0021 2.31209e-11
-2.31229e-11 2.31209e-11 25.284

20.2209 1.83445 -1.31044e-11
1.83445 20.9131 -3.632e-11
-1.31044e-11 -3.632e-11 19.7962

32.3393 -1.04479 -7.70761e-12
-1.04479 35.6352 5.01223e-12
-7.70761e-12 5.01223e-12 32.2006

31.2583 0.653768 -3.83424e-11
0.653768 32.3754 -2.10965e-11
-3.83424e-11 -2.10965e-11 31.4616

30.3917 1.89354 1.002e-11
1.89354 27.3312 3.27548e-11
1.002e-11 3.27548e-11 29.0269

26.561 -0.594375 -1.3585e-11
-0.594375 28.0631 2.60128e-11
-1.3585e-11 2.60128e-11 27.1774

25.0352 0.41993 2.60223e-12
0.41993 28.8554 2.00392e-11
2.60223e-12 2.00392e-11 27.0938

28.8163 -0.289978 -1.61856e-11
-0.289978 24.1848 -1.92665e-11
-1.61856e-11 -1.92665e-11 26.958

29.0919 0.212527 -5.85317e-12
0.212527 24.1172 3.46754e-12
-5.85317e-12 3.46754e-12 27.013

20.8294 -1.20807 -3.27527e-12
-1.20807 20.0728 2.12004e-11
-3.27527e-12 2.12004e-11 19.5949

25.7664 0.0617054 -1.82577e-11
0.0617054 21.8156 -1.54106e-12
-1.82577e-11 -1.54106e-12 23.3366

29.5471 0.240591 -3.88263e-11
0.240591 26.1376 -1.88828e-11
-3.88263e-11 -1.88828e-11 28.2803

29.1444 -0.518473 -1.92914e-11
-0.518473 26.441 4.66296e-11
-1.92914e-11 4.66296e-11 28.2829

26.9626 -0.7074 1.84965e-11
-0.7074 23.7094 -7.73807e-13
1.84965e-11 -7.73807e-13 25.211

29.0941 -0.332735 -2.1926e-12
-0.332735 25.4262 1.38717e-11
-2.1926e-12 1.38717e-11 27.4044

29.4482 0.141865 -2.33574e-12
0.141865 25.5044 1.5608e-11
-2.33574e-12 1.5608e-11 27.4913

26.7963 1.49273 -1.63815e-11
1.49273 23.8244 -1.58015e-11
-1.63815e-11 -1.58015e-11 25.5013

21.3113 -1.98017 6.74394e-12
-1.98017 21.0998 3.77692e-11
6.74394e-12 3.77692e-11 20.7708

25.6347 2.58109 1.15613e-11
2.58109 28.1587 4.43149e-12
1.15613e-11 4.43149e-12 27.2107

24.9745 -2.19603 2.63994e-11
-2.19603 26.9989 -3.93085e-11
2.63994e-11 -3.93085e-11 27.0522

24.7654 -1.63941 2.17728e-11
-1.63941 27.2156 1.00193e-11
2.17728e-11 1.00193e-11 27.2503

25.9835 2.72559 -5.2981e-12
2.72559 28.8158 1.71488e-11
-5.2981e-12 1.71488e-11 27.6009

23.8851 0.94557 6.45528e-12
0.94557 20.3416 9.44184e-12
6.45528e-12 9.44184e-12 21.69

18.6952 -1.13043 2.69984e-12
-1.13043 17.3729 2.33171e-11
2.69984e-12 2.33171e-11 17.3086

27.3367 2.15286 3.6805e-11
2.15286 25.0863 5.54938e-11
3.6805e-11 5.54938e-11 26.5972

26.4247 -0.720528 -2.63977e-11
-0.720528 23.6342 3.33338e-11
-2.63977e-11 3.33338e-11 25.1195

19.0356 -0.879051 -1.40673e-11
-0.879051 17.2373 1.33e-11
-1.40673e-11 1.33e-11 17.4402

24.1888 -1.74844 1.0019e-11
-1.74844 23.1353 5.78021e-12
1.0019e-11 5.78021e-12 23.7603

23.061 0.0116635 2.08095e-11
0.0116635 28.1778 9.25186e-16
2.08095e-11 9.25186e-16 26.0281

24.1631 0.271186 1.86909e-11
0.271186 26.7548 3.33067e-16
1.86909e-11 3.33067e-16 25.8905

21.5755 2.24096 5.04895e-11
2.24096 21.6491 2.19701e-11
5.04895e-11 2.19701e-11 21.3612

20.2333 -1.29911 6.55083e-12
-1.29911 18.0241 -6.16475e-12
6.55083e-12 -6.16475e-12 18.6067

26.0237 2.38892 1.94624e-11
2.38892 26.7528 -7.69403e-13
1.94624e-11 -7.69403e-13 27.2104

25.9328 -2.28954 2.52438e-11
-2.28954 27.5069 -6.18528e-11
2.52438e-11 -6.18528e-11 27.1214

21.2566 -1.69007 3.18201e-12
-1.69007 22.6513 -4.74049e-11
3.18201e-12 -4.74049e-11 21.4931

21.4905 -1.86408 -4.62534e-12
-1.86408 22.4764 -2.2353e-11
-4.62534e-12 -2.2353e-11 21.3507

26.5658 1.73957 -5.14489e-11
1.73957 24.0212 -1.34896e-11
-5.14489e-11 -1.34896e-11 25.3276

29.8117 1.07138 2.69655e-12
1.07138 24.3844 -6.5511e-12
2.69655e-12 -6.5511e-12 28.2485

29.7481 -0.730467 -3.19863e-11
-0.730467 23.7905 2.35069e-11
-3.19863e-11 2.35069e-11 28.136

21.0311 1.38284 -1.95577e-11
1.38284 24.0022 1.65718e-11
-1.95577e-11 1.65718e-11 22.0042

24.7183 2.1265 -2.02333e-11
2.1265 24.3083 -1.69573e-11
-2.02333e-11 -1.69573e-11 24.4632

17.4627 0.199928 -1.07913e-11
0.199928 21.7394 -1.04041e-11
-1.07913e-11 -1.04041e-11 19.2123

17.9435 0.11063 -2.87121e-11
0.11063 21.5718 -8.28693e-12
-2.87121e-11 -8.28693e-12 19.1764

21.5303 0.0905396 1.17565e-11
0.0905396 17.5158 3.19872e-11
1.17565e-11 3.19872e-11 18.9332

22.0251 -1.59762 5.19338e-11
-1.59762 20.9075 -1.58051e-11
5.19338e-11 -1.58051e-11 21.2634

31.9373 -1.09962 8.51588e-11
-1.09962 33.9706 -5.01972e-11
8.51588e-11 -5.01972e-11 32.1954

37.8209 0.565854 6.06889e-11
0.565854 37.839 7.89952e-11
6.06889e-11 7.89952e-11 33.9744

22.8739 1.91767 1.38733e-11
1.91767 20.4139 -1.65711e-11
1.38733e-11 -1.65711e-11 21.3293

24.0655 -0.798525 6.55257e-12
-0.798525 20.4479 -2.04239e-11
6.55257e-12 -2.04239e-11 21.9101

19.0614 1.34645 1.85002e-11
1.34645 17.0688 -3.8155e-11
1.85002e-11 -3.8155e-11 17.5628

23.469 -1.39792 -9.62952e-13
-1.39792 26.3211 5.39583e-12
-9.62952e-13 5.39583e-12 25.6166

24.6086 2.53299 1.91587e-13
2.53299 27.1818 -2.73616e-11
1.91587e-13 -2.73616e-11 25.8286

28.4066 -0.0373221 -2.74569e-12
-0.0373221 23.5078 -1.15623e-11
-2.74569e-12 -1.15623e-11 26.0056

20.1936 1.27403 -1.07899e-11
1.27403 23.8463 1.11781e-11
-1.07899e-11 1.11781e-11 21.9149

24.9078 -1.69443 3.46817e-11
-1.69443 29.3004 5.78069e-12
3.46817e-11 5.78069e-12 28.1746

26.5705 2.37836 -2.53352e-11
2.37836 29.2814 6.82099e-11
-2.53352e-11 6.82099e-11 28.359

19.9758 1.4917 -2.02475e-12
1.4917 20.8732 -1.28148e-11
-2.02475e-12 -1.28148e-11 19.5458

20.5608 1.57268 9.64562e-13
1.57268 20.2864 -1.715e-11
9.64562e-13 -1.715e-11 19.4067

19.22 1.2085 -1.34863e-11
1.2085 17.2214 8.09492e-12
-1.34863e-11 8.09492e-12 17.6786

25.8968 2.61568 1.59455e-11
2.61568 29.176 4.79793e-11
1.59455e-11 4.79793e-11 27.7226

24.7661 -1.8902 -7.22596e-12
-1.8902 26.674 -5.78045e-12
-7.22596e-12 -5.78045e-12 27.2328

30.0184 0.0757219 -4.09419e-12
0.0757219 24.2617 4.20033e-11
-4.09419e-12 4.20033e-11 27.588

25.5764 1.78611 -4.43183e-12
1.78611 26.7956 -2.89021e-11
-4.43183e-12 -2.89021e-11 27.3974

26.076 -2.22769 -9.24925e-12
-2.22769 28.653 3.19865e-11
-9.24925e-12 3.19865e-11 27.6888

24.8935 2.16128 -1.84983e-11
2.16128 25.3072 -2.00399e-11
-1.84983e-11 -2.00399e-11 25.5489

19.4406 -0.467985 2.31235e-11
-0.467985 22.8244 -1.88836e-11
2.31235e-11 -1.88836e-11 20.5199

20.0462 -0.620605 4.87549e-11
-0.620605 22.745 -5.68486e-11
4.87549e-11 -5.68486e-11 20.5343

22.364 -0.381087 3.99859e-11
-0.381087 19.56 -6.93939e-12
3.99859e-11 -6.93939e-12 20.2015

22.4593 -1.31965 4.17212e-11
-1.31965 22.4357 1.9653e-11
4.17212e-11 1.9653e-11 22.1167

23.6925 0.229804 7.70687e-12
0.229804 25.9705 -1.69562e-11
7.70687e-12 -1.69562e-11 24.2908

22.3499 0.0759516 1.29093e-11
0.0759516 26.3955 6.1671e-12
1.29093e-11 6.1671e-12 24.1983

18.6758 -1.47753 3.96983e-11
-1.47753 20.1637 -1.92812e-12
3.96983e-11 -1.92812e-12 18.6586

18.5359 -1.40567 1.01159e-11
-1.40567 19.7455 2.04252e-11
1.01159e-11 2.04252e-11 18.5952

30.2552 -0.0840226 2.50976e-11
-0.0840226 24.5878 -2.06171e-11
2.50976e-11 -2.06171e-11 27.7279

29.9976 0.0932271 -2.55797e-11
0.0932271 24.689 -2.65894e-11
-2.55797e-11 -2.65894e-11 27.6865

24.3363 -1.74638 -1.19452e-11
-1.74638 26.0333 -1.88805e-11
-1.19452e-11 -1.88805e-11 25.9598

24.8974 2.29485 1.01148e-11
2.29485 27.5254 -2.87101e-11
1.01148e-11 -2.87101e-11 26.1747

24.8968 1.48045 2.3131e-12
1.48045 29.0471 3.66103e-11
2.3131e-12 3.66103e-11 28.071

26.5011 -2.17588 -2.02317e-11
-2.17588 29.0239 2.75544e-11
-2.02317e-11 2.75544e-11 28.2635

26.0937 -1.74134 1.36812e-11
-1.74134 25.8172 1.86894e-11
1.36812e-11 1.86894e-11 26.3731

20.3027 -0.914119 -5.58847e-12
-0.914119 24.1315 1.92909e-12
-5.58847e-12 1.92909e-12 22.0493

29.0004 0.273012 1.44031e-11
0.273012 28.0834 -4.04639e-11
1.44031e-11 -4.04639e-11 28.747

28.6053 -0.870518 -1.7871e-11
-0.870518 27.6893 -3.36984e-12
-1.7871e-11 -3.36984e-12 28.638

25.0861 -1.34397 -3.12151e-11
-1.34397 24.0617 -2.31126e-12
-3.12151e-11 -2.31126e-12 24.5464

27.298 -1.14096 -3.64178e-11
-1.14096 25.7836 1.92794e-12
-3.64178e-11 1.92794e-12 26.7337

27.5783 0.960431 1.82798e-12
0.960431 26.483 -4.89421e-11
1.82798e-12 -4.89421e-11 26.8569

12.3408 -0.526086 1.79236e-11
-0.526086 10.4538 -3.77725e-11
1.79236e-11 -3.77725e-11 13.0492

21.6103 2.26644 -9.92488e-12
2.26644 22.5068 3.0832e-11
-9.92488e-12 3.0832e-11 21.4405

11.1906 1.08543 3.21838e-11
1.08543 12.6482 -2.775e-11
3.21838e-11 -2.775e-11 13.2051

21.0462 -1.21962 -1.11766e-11
-1.21962 23.9683 5.77978e-12
-1.11766e-11 5.77978e-12 22.0637

31.1602 -1.19519 4.71947e-11
-1.19519 32.5231 -6.8208e-11
4.71947e-11 -6.8208e-11 31.3788

31.9 0.478242 2.2643e-12
0.478242 31.3835 -4.23895e-11
2.2643e-12 -4.23895e-11 31.2837

25.2861 1.47405 1.97501e-11
1.47405 24.6804 -2.48574e-11
1.97501e-11 -2.48574e-11 24.6087

25.7383 -0.0804067 6.84164e-12
-0.0804067 21.6809 5.0095e-12
6.84164e-12 5.0095e-12 23.3239

22.2873 1.83808 5.37631e-11
1.83808 20.8774 -6.55009e-12
5.37631e-11 -6.55009e-12 21.1301

23.6492 0.890755 -3.46818e-12
0.890755 28.1217 -4.62389e-12
-3.46818e-12 -4.62389e-12 26.287

24.6449 -1.2304 -1.56083e-11
-1.2304 27.1001 1.15614e-11
-1.56083e-11 1.15614e-11 26.185

28.8932 2.04067 -1.19449e-11
2.04067 30.0061 3.62235e-11
-1.19449e-11 3.62235e-11 29.4398

28.8058 -1.12951 -3.54539e-11
-1.12951 30.4253 2.31163e-12
-3.54539e-11 2.31163e-12 29.5354

25.664 2.77751 1.55116e-11
2.77751 28.7526 1.86911e-11
1.55116e-11 1.86911e-11 27.5355

23.4822 -2.63221 -2.2063e-11
-2.63221 27.1438 1.19476e-11
-2.2063e-11 1.19476e-11 27.0406

22.6779 1.43905 -1.15627e-11
1.43905 25.846 -6.16585e-12
-1.15627e-11 -6.16585e-12 24.5719

22.0268 0.729603 -7.51567e-12
0.729603 25.2067 -1.56085e-11
-7.51567e-12 -1.56085e-11 23.4194

25.2936 -1.61446 -1.75335e-11
-1.61446 25.0326 -4.62304e-12
-1.75335e-11 -4.62304e-12 25.6319

25.425 1.70716 -1.95589e-11
1.70716 25.592 -5.54935e-11
-1.95589e-11 -5.54935e-11 25.669

22.9253 1.7407 4.13321e-11
1.7407 23.06 1.52255e-11
4.13321e-11 1.52255e-11 22.2614

23.1848 -1.70867 -3.6996e-11
-1.70867 25.8583 2.81341e-11
-3.6996e-11 2.81341e-11 24.5747

21.34 -0.303089 -1.28141e-11
-0.303089 25.802 -1.42581e-11
-1.28141e-11 -1.42581e-11 23.5391

15.2469 1.22957 -3.85101e-12
1.22957 16.1013 2.11875e-12
-3.85101e-12 2.11875e-12 15.139

15.9729 1.2725 -3.52668e-11
1.2725 15.3136 1.92702e-11
-3.52668e-11 1.92702e-11 15.1392

19.6414 -1.47639 2.79412e-11
-1.47639 20.1331 5.0091e-12
2.79412e-11 5.0091e-12 19.0905

26.6765 -0.55338 1.20907e-11
-0.55338 22.6396 -7.32299e-12
1.20907e-11 -7.32299e-12 24.771

33.9485 -1.85469 -1.21793e-10
-1.85469 35.0041 -2.81244e-11
-1.21793e-10 -2.81244e-11 32.8444

35.5173 1.92713 -3.61276e-11
1.92713 32.6985 -2.9093e-11
-3.61276e-11 -2.9093e-11 32.7048

31.8572 1.88379 7.68348e-13
1.88379 31.8908 -8.86398e-12
7.68348e-13 -8.86398e-12 31.0124

30.8929 -0.493117 2.62015e-11
-0.493117 29.8586 1.67619e-11
2.62015e-11 1.67619e-11 30.5418

26.8193 -0.0206361 -2.50496e-12
-0.0206361 23.089 -1.73326e-12
-2.50496e-12 -1.73326e-12 25.6144

25.6891 -2.46832 -1.40668e-11
-2.46832 28.3678 3.95014e-11
-1.40668e-11 3.95014e-11 27.4695

23.9588 2.57805 -1.52229e-11
2.57805 27.0884 -8.86356e-12
-1.52229e-11 -8.86356e-12 27.0695

15.9905 -1.19954 -6.16592e-12
-1.19954 16.5639 5.41521e-11
-6.16592e-12 5.41521e-11 15.764

16.1302 1.54679 2.50592e-12
1.54679 16.158 -8.38396e-12
2.50592e-12 -8.38396e-12 15.8229

16.0597 -0.558669 -1.88854e-11
-0.558669 18.5644 2.08158e-11
-1.88854e-11 2.08158e-11 16.8415

16.821 -0.687871 1.29114e-11
-0.687871 18.9 3.85399e-11
1.29114e-11 3.85399e-11 17.1298

18.7286 -0.4808 -1.57068e-11
-0.4808 16.2171 -1.29098e-11
-1.57068e-11 -1.29098e-11 16.8405

19.9294 1.81996 -4.62674e-12
1.81996 19.58 -5.51118e-11
-4.62674e-12 -5.51118e-11 19.247

14.5558 0.542218 2.58235e-11
0.542218 17.6279 1.19481e-11
2.58235e-11 1.19481e-11 15.7988

17.4523 0.119366 -2.17777e-11
0.119366 14.6634 -9.44176e-12
-2.17777e-11 -9.44176e-12 15.7818

30.1303 -0.216478 2.67785e-11
-0.216478 33.0404 7.32076e-12
2.67785e-11 7.32076e-12 30.8118

29.9656 -0.792898 1.79185e-11
-0.792898 30.9984 4.24852e-11
1.79185e-11 4.24852e-11 30.4263

28.2951 -0.615105 4.56685e-11
-0.615105 25.6782 -3.85356e-11
4.56685e-11 -3.85356e-11 27.2664

28.3795 0.27288 -5.78054e-12
0.27288 22.1776 7.70698e-12
-5.78054e-12 7.70698e-12 27.0119

19.0776 -1.20087 3.89267e-11
-1.20087 21.5482 -4.70207e-11
3.89267e-11 -4.70207e-11 19.7501

18.9874 -0.86402 6.75867e-13
-0.86402 21.5735 -7.36121e-11
6.75867e-13 -7.36121e-11 19.8873

27.1928 0.575854 -2.21595e-11
0.575854 23.3536 -2.38928e-11
-2.21595e-11 -2.38928e-11 25.82

30.4 -0.57126 -3.61501e-11
-0.57126 30.7628 2.35065e-11
-3.61501e-11 2.35065e-11 30.5175

31.1573 -0.00962766 3.26585e-11
-0.00962766 30.1985 -3.85455e-12
3.26585e-11 -3.85455e-12 30.5305

27.135 -1.21439 8.47844e-12
-1.21439 26.6701 3.86062e-13
8.47844e-12 3.86062e-13 27.0208

25.1934 2.01211 8.86356e-12
2.01211 25.9825 -3.00579e-11
8.86356e-12 -3.00579e-11 26.087

24.7703 -2.11697 2.06187e-11
-2.11697 27.0401 -4.72087e-11
2.06187e-11 -4.72087e-11 25.9889

27.7242 -0.547345 2.3116e-12
-0.547345 23.6827 -5.20406e-12
2.3116e-12 -5.20406e-12 26.4245

23.9337 1.68924 -3.85072e-13
1.68924 26.2404 -3.04461e-11
-3.85072e-13 -3.04461e-11 25.7076

24.6723 -2.24346 5.33747e-11
-2.24346 26.789 -3.02542e-11
5.33747e-11 -3.02542e-11 25.8058

12.5274 -2.50822 1.23327e-11
-2.50822 12.7105 4.37457e-11
1.23327e-11 4.37457e-11 12.837

21.3546 0.536555 -2.52429e-11
0.536555 25.7046 1.50297e-11
-2.52429e-11 1.50297e-11 23.4527

22.2234 -0.487753 -3.85419e-12
-0.487753 25.0349 1.92291e-13
-3.85419e-12 1.92291e-13 23.4248

29.7828 0.264356 -1.44504e-11
0.264356 34.2992 -1.61849e-11
-1.44504e-11 -1.61849e-11 31.0785

30.1632 -0.0301287 3.25627e-11
-0.0301287 30.8882 3.4676e-12
3.25627e-11 3.4676e-12 30.5619

30.2463 -0.103559 -1.18985e-11
-0.103559 25.7154 -2.65892e-11
-1.18985e-11 -2.65892e-11 28.4895

30.6705 0.165441 2.79879e-11
0.165441 25.4803 -3.10216e-11
2.79879e-11 -3.10216e-11 28.5284

28.9173 2.41703 8.40091e-11
2.41703 27.7039 3.85584e-12
8.40091e-11 3.85584e-12 28.53

28.1091 -1.37777 -2.5627e-11
-1.37777 27.1386 4.64371e-11
-2.5627e-11 4.64371e-11 28.1785

32.2397 0.884246 -1.81114e-11
0.884246 30.9832 3.02475e-11
-1.81114e-11 3.02475e-11 30.754

31.0708 -0.482114 3.15995e-11
-0.482114 30.9403 -3.3334e-11
3.15995e-11 -3.3334e-11 30.6008

33.2237 1.00763 2.29167e-11
1.00763 32.2393 3.46809e-12
2.29167e-11 3.46809e-12 32.0188

33.4457 -2.85591 8.59833e-12
-2.85591 34.7061 -6.93634e-11
8.59833e-12 -6.93634e-11 32.5524

26.8457 2.517 4.08498e-11
2.517 29.4372 4.77864e-11
4.08498e-11 4.77864e-11 28.5148

25.5385 -3.11208 -1.63762e-12
-3.11208 27.6188 -1.34899e-11
-1.63762e-12 -1.34899e-11 28.0866

24.9623 1.34447 3.08364e-12
1.34447 23.0557 -5.77445e-13
3.08364e-12 -5.77445e-13 23.9336

23.0026 1.06976 -2.42779e-11
1.06976 26.4713 2.65922e-11
-2.42779e-11 2.65922e-11 24.8835

23.462 -1.7417 4.12367e-11
-1.7417 23.4084 -7.74344e-13
4.12367e-11 -7.74344e-13 23.5502

24.2377 -1.33911 -2.23495e-11
-1.33911 26.3706 -3.46789e-12
-2.23495e-11 -3.46789e-12 25.0262

24.8154 -1.25267 -1.57048e-11
-1.25267 22.8644 -1.61844e-11
-1.57048e-11 -1.61844e-11 23.9459

24.1641 1.48978 -3.38914e-13
1.48978 26.4751 -4.47044e-11
-3.38914e-13 -4.47044e-11 24.9821

23.8329 2.11526 -2.4761e-11
2.11526 23.9402 -2.56278e-11
-2.4761e-11 -2.56278e-11 23.6158

26.6997 2.79624 1.3295e-11
2.79624 27.9144 -2.92857e-11
1.3295e-11 -2.92857e-11 28.3086

27.1158 -2.08142 -1.44512e-11
-2.08142 28.8732 1.75343e-11
-1.44512e-11 1.75343e-11 28.4872

28.9366 1.27534 4.39336e-11
1.27534 26.2431 6.24293e-11
4.39336e-11 6.24293e-11 27.7118

37.7205 0.943178 3.96947e-11
0.943178 37.1853 1.00956e-10
3.96947e-11 1.00956e-10 33.7905

32.0068 0.901422 -1.60687e-10
0.901422 32.6644 1.82833e-12
-1.60687e-10 1.82833e-12 31.9256

26.5571 -1.28912 2.29317e-11
-1.28912 24.6958 -4.6243e-11
2.29317e-11 -4.6243e-11 26.1244

31.0438 0.0845109 -6.16576e-12
0.0845109 27.502 1.84979e-11
-6.16576e-12 1.84979e-11 29.5997

15.4822 -1.0949 -2.33216e-11
-1.0949 16.3294 -1.69578e-11
-2.33216e-11 -1.69578e-11 15.4071

16.3351 -0.901075 -3.64239e-11
-0.901075 15.4187 9.63381e-12
-3.64239e-11 9.63381e-12 15.4178

30.3356 0.10155 3.9405e-11
0.10155 26.7983 3.5836e-11
3.9405e-11 3.5836e-11 28.9976

30.9905 -0.150672 3.15274e-11
-0.150672 26.5387 -4.41241e-11
3.15274e-11 -4.41241e-11 29.0581

31.294 0.259334 -3.08217e-12
0.259334 29.0558 3.54521e-11
-3.08217e-12 3.54521e-11 29.8745

23.0008 -0.784515 -3.63006e-13
-0.784515 26.5941 -8.86332e-12
-3.63006e-13 -8.86332e-12 24.9343

24.4174 1.04314 1.48395e-11
1.04314 22.146 2.67824e-11
1.48395e-11 2.67824e-11 22.5209

27.2752 -1.6278 -2.45726e-12
-1.6278 27.3357 -5.7818e-12
-2.45726e-12 -5.7818e-12 27.8756

27.5991 1.34639 5.49024e-12
1.34639 28.5953 5.20069e-12
5.49024e-12 5.20069e-12 28.0868

36.6062 0.162254 1.04011e-11
0.162254 38.2173 -6.17834e-11
1.04011e-11 -6.17834e-11 33.7873

34.8761 1.53583 5.43349e-11
1.53583 31.4232 1.10644e-12
5.43349e-11 1.10644e-12 32.2796

26.0078 -1.02056 -5.83856e-11
-1.02056 23.9521 4.23953e-12
-5.83856e-11 4.23953e-12 24.9537

30.0858 -0.0468531 -4.99749e-11
-0.0468531 27.9907 8.47798e-12
-4.99749e-11 8.47798e-12 29.0427

29.6783 -0.360172 -4.42197e-11
-0.360172 28.301 4.24224e-12
-4.42197e-11 4.24224e-12 29.0556

26.2715 -1.84866 -9.63239e-13
-1.84866 28.0807 -4.39333e-11
-9.63239e-13 -4.39333e-11 27.2517

25.1675 0.956718 -1.71459e-11
0.956718 28.0456 1.69561e-11
-1.71459e-11 1.69561e-11 27.1362

24.8907 1.76903 2.08097e-11
1.76903 26.9401 -7.707e-12
2.08097e-11 -7.707e-12 27.1625

25.81 -2.50488 3.4681e-12
-2.50488 28.3982 8.67098e-12
3.4681e-12 8.67098e-12 27.4574

13.3108 3.2008 -4.62726e-12
3.2008 13.0145 -5.01051e-11
-4.62726e-12 -5.01051e-11 13.1624

28.0458 1.83598 -8.86363e-12
1.83598 29.7018 1.71493e-11
-8.86363e-12 1.71493e-11 29.2044

28.0923 -1.4068 -2.96711e-11
-1.4068 29.8921 -6.64746e-11
-2.96711e-11 -6.64746e-11 29.2399

24.3237 1.67661 -1.25235e-11
1.67661 27.2951 -3.42994e-11
-1.25235e-11 -3.42994e-11 26.679

25.0651 -2.11634 5.00975e-11
-2.11634 27.6354 -3.69987e-11
5.00975e-11 -3.69987e-11 26.7377

24.5516 -0.995605 1.25243e-11
-0.995605 21.9544 -4.04654e-11
1.25243e-11 -4.04654e-11 22.7092

27.7021 1.81218 2.40859e-11
1.81218 26.5706 -1.65705e-11
2.40859e-11 -1.65705e-11 27.2645

29.2873 1.94245 3.16e-11
1.94245 27.8861 4.0466e-11
3.16e-11 4.0466e-11 28.7341

28.3869 -1.28533 -3.91147e-11
-1.28533 28.3577 -1.36781e-11
-3.91147e-11 -1.36781e-11 28.5985

28.2982 1.22013 4.10418e-11
1.22013 23.9642 1.07915e-11
4.10418e-11 1.07915e-11 26.8057

30.9651 0.237846 3.51631e-11
0.237846 29.5699 3.23683e-11
3.51631e-11 3.23683e-11 30.1933

31.4784 -0.347955 5.05662e-11
-0.347955 28.7914 3.81479e-11
5.05662e-11 3.81479e-11 30.1175

31.8465 0.411948 -8.22707e-11
0.411948 34.4247 1.31976e-11
-8.22707e-11 1.31976e-11 32.1006

32.6448 -0.650506 1.69543e-11
-0.650506 37.0136 4.97114e-11
1.69543e-11 4.97114e-11 32.6222

13.197 -0.300927 3.10287e-11
-0.300927 11.3054 3.50737e-11
3.10287e-11 3.50737e-11 13.3073

10.605 -0.063188 2.17757e-11
-0.063188 13.1371 2.89099e-11
2.17757e-11 2.89099e-11 13.1936

26.5163 2.09599 -4.67237e-12
2.09599 29.005 -5.78009e-12
-4.67237e-12 -5.78009e-12 27.787

26.0292 -1.80444 3.97891e-11
-1.80444 27.1895 -2.35078e-11
3.97891e-11 -2.35078e-11 27.4948

12.7104 1.12534 3.12205e-11
1.12534 12.5999 -3.4688e-11
3.12205e-11 -3.4688e-11 13.376

12.9224 1.45502 -2.77493e-11
1.45502 12.3363 1.11791e-11
-2.77493e-11 1.11791e-11 13.3587

29.5811 -2.30725 -7.65286e-11
-2.30725 36.9089 7.5915e-11
-7.65286e-11 7.5915e-11 32.4189

32.181 1.72442 6.66162e-11
1.72442 35.7237 9.82478e-12
6.66162e-11 9.82478e-12 32.6968

26.8925 2.20326 -5.20077e-12
2.20326 25.9237 -1.38751e-11
-5.20077e-12 -1.38751e-11 26.7421

26.0985 2.00735 -2.76011e-11
2.00735 27.5809 3.19847e-11
-2.76011e-11 3.19847e-11 27.1385

25.9366 -2.0103 5.83852e-11
-2.0103 26.7155 3.04421e-11
5.83852e-11 3.04421e-11 27.0723

23.9735 2.02654 -4.10408e-11
2.02654 25.0308 1.77263e-11
-4.10408e-11 1.77263e-11 24.2305

23.6632 -1.61717 5.56856e-11
-1.61717 24.6107 2.42757e-11
5.56856e-11 2.42757e-11 24.2181

16.3364 -0.256432 1.02131e-11
-0.256432 18.8545 2.92904e-11
1.02131e-11 2.92904e-11 17.0959

16.7787 -0.520862 -3.50736e-11
-0.520862 18.9387 5.16455e-11
-3.50736e-11 5.16455e-11 17.1604

18.9308 -0.220611 3.47219e-12
-0.220611 16.5528 2.69763e-11
3.47219e-12 2.69763e-11 17.0372

24.5356 2.33636 -1.53167e-11
2.33636 26.3607 4.1814e-11
-1.53167e-11 4.1814e-11 25.4461

24.1007 -1.8114 1.44394e-12
-1.8114 25.5518 7.63051e-11
1.44394e-12 7.63051e-11 25.3528

15.0568 0.361726 1.84996e-11
0.361726 17.5487 -8.28589e-12
1.84996e-11 -8.28589e-12 15.8152

17.4647 0.558953 2.09136e-11
0.558953 15.0909 1.11761e-11
2.09136e-11 1.11761e-11 15.8055

27.2303 -2.3168 -3.88252e-11
-2.3168 27.8198 1.19512e-11
-3.88252e-11 1.19512e-11 28.4244

27.4454 1.9081 -2.16304e-11
1.9081 29.2417 -2.3508e-11
-2.16304e-11 -2.3508e-11 28.6127

27.6509 -2.0493 -4.34508e-11
-2.0493 29.0093 1.31061e-11
-4.34508e-11 1.31061e-11 28.8386

27.7992 1.52305 -2.6398e-11
1.52305 29.4736 -1.15854e-12
-2.6398e-11 -1.15854e-12 28.8635

12.1476 -0.951402 7.70944e-12
-0.951402 12.3547 2.83293e-11
7.70944e-12 2.83293e-11 13.0107

12.159 -0.95691 -9.65006e-13
-0.95691 12.3654 5.39586e-11
-9.65006e-13 5.39586e-11 13.0613

25.8032 1.84666 -1.72433e-11
1.84666 27.1031 4.95202e-11
-1.72433e-11 4.95202e-11 26.3296

25.5536 -1.69175 -1.07907e-11
-1.69175 25.9385 6.24309e-11
-1.07907e-11 6.24309e-11 26.1832

31.3245 0.484103 -1.40648e-11
0.484103 33.4808 1.56078e-11
-1.40648e-11 1.56078e-11 31.3487

30.7619 -0.274361 2.25413e-11
-0.274361 31.1747 3.48732e-11
2.25413e-11 3.48732e-11 30.8867

26.7097 -2.12593 -9.92362e-12
-2.12593 29.5782 -4.12347e-11
-9.92362e-12 -4.12347e-11 28.9886

27.5058 1.99766 3.29503e-11
1.99766 30.4573 8.26616e-11
3.29503e-11 8.26616e-11 29.1871

29.8731 -0.444284 -6.55115e-11
-0.444284 28.6079 -1.50295e-11
-6.55115e-11 -1.50295e-11 29.7541

30.6315 0.0409123 4.20541e-11
0.0409123 28.252 6.51251e-11
4.20541e-11 6.51251e-11 29.8093

26.7478 1.96743 1.61851e-11
1.96743 27.1396 2.58205e-11
1.61851e-11 2.58205e-11 27.5399

26.6917 -1.93247 3.85376e-11
-1.93247 27.8561 -1.38751e-11
3.85376e-11 -1.38751e-11 27.4958

32.7117 0.596017 -2.36995e-11
0.596017 30.5872 -1.0179e-11
-2.36995e-11 -1.0179e-11 31.2353

32.9094 0.176292 4.01368e-11
0.176292 31.835 5.37549e-11
4.01368e-11 5.37549e-11 31.861

31.6944 -0.536937 5.36845e-11
-0.536937 31.1775 -3.65963e-12
5.36845e-11 -3.65963e-12 31.1699

30.9424 -0.0696556 -5.50427e-11
-0.0696556 33.2942 -6.51228e-11
-5.50427e-11 -6.51228e-11 31.7716

30.9212 0.344812 2.06177e-11
0.344812 35.4577 6.66661e-11
2.06177e-11 6.66661e-11 31.7677

34.146 1.95373 -3.08275e-11
1.95373 32.7118 2.42772e-11
-3.08275e-11 2.42772e-11 31.8487

32.3603 -0.764656 -7.70621e-12
-0.764656 31.3207 -4.29665e-11
-7.70621e-12 -4.29665e-11 31.3566

30.4824 -0.459951 1.38724e-11
-0.459951 33.1914 7.80317e-12
1.38724e-11 7.80317e-12 31.3335

31.3461 1.14395 1.48068e-10
1.14395 32.6868 1.06168e-10
1.48068e-10 1.06168e-10 31.5906

40.4586 1.16306 -5.17493e-10
1.16306 31.0112 1.95325e-10
-5.17493e-10 1.95325e-10 33.4573

39.503 -0.765067 -8.06397e-10
-0.765067 38.9552 -3.05539e-10
-8.06397e-10 -3.05539e-10 34.8125

32.8219 -2.62972 1.85667e-10
-2.62972 35.0737 1.19054e-10
1.85667e-10 1.19054e-10 32.3642

32.0693 1.48326 3.7067e-11
1.48326 31.9667 6.66653e-11
3.7067e-11 6.66653e-11 31.4287

29.8538 1.07615 4.60019e-11
1.07615 31.5265 4.37378e-11
4.60019e-11 4.37378e-11 30.4427

32.8843 0.315721 9.25785e-11
0.315721 32.4053 -7.91884e-11
9.25785e-11 -7.91884e-11 32.0753

33.0444 -2.45349 1.15588e-11
-2.45349 32.2129 -3.19851e-11
1.15588e-11 -3.19851e-11 31.6978

33.7386 -2.8176 1.48233e-11
-2.8176 36.1872 -2.11946e-11
1.48233e-11 -2.11946e-11 32.9777

29.9113 -1.37573 9.63231e-12
-1.37573 30.7371 -5.66469e-11
9.63231e-12 -5.66469e-11 30.3697

30.3682 -2.29739 2.20624e-11
-2.29739 31.7273 -6.55095e-12
2.20624e-11 -6.55095e-12 30.7904

31.0792 -1.52735 6.80379e-11
-1.52735 32.5315 -3.54539e-11
6.80379e-11 -3.54539e-11 31.4295

29.7759 0.961997 9.34327e-12
0.961997 31.1603 -5.79958e-11
9.34327e-12 -5.79958e-11 30.5188

32.0094 0.575294 4.92754e-13
0.575294 31.9036 -5.10589e-11
4.92754e-13 -5.10589e-11 31.4778

22.6041 1.6367 -9.24797e-12
1.6367 24.1451 1.58029e-11
-9.24797e-12 1.58029e-11 23.1228

26.1768 0.822319 1.00205e-11
0.822319 28.3273 3.85425e-12
1.00205e-11 3.85425e-12 27.2401

25.591 0.703156 -1.02109e-11
0.703156 28.0247 -9.80697e-14
-1.02109e-11 -9.80697e-14 27.1391

26.1568 0.929359 -1.00201e-11
0.929359 22.2091 -8.78315e-12
-1.00201e-11 -8.78315e-12 24.4346

24.9465 0.315111 2.89043e-11
0.315111 21.0529 1.67643e-11
2.89043e-11 1.67643e-11 22.9

26.6896 0.504406 3.41032e-11
0.504406 29.2887 1.34896e-12
3.41032e-11 1.34896e-12 28.5387

26.0881 1.16092 -2.58192e-11
1.16092 29.6084 2.81326e-11
-2.58192e-11 2.81326e-11 28.5595

25.2971 -0.370094 4.2382e-12
-0.370094 21.436 -8.0146e-12
4.2382e-12 -8.0146e-12 23.1495

28.3265 -0.74367 9.92347e-12
-0.74367 24.8959 1.39707e-12
9.92347e-12 1.39707e-12 27.3826

18.2752 1.48995 -2.19667e-11
1.48995 19.8208 1.56097e-11
-2.19667e-11 1.56097e-11 18.6108

18.0067 -1.48866 -1.92688e-11
-1.48866 19.4771 4.91395e-11
-1.92688e-11 4.91395e-11 18.2939

20.13 -1.36495 1.13709e-11
-1.36495 17.624 -1.95146e-12
1.13709e-11 -1.95146e-12 18.2961

28.1871 -1.40444 -2.31195e-11
-1.40444 29.9588 -2.21576e-11
-2.31195e-11 -2.21576e-11 29.37

29.0196 -0.972057 4.7785e-11
-0.972057 30.0775 1.59921e-11
4.7785e-11 1.59921e-11 29.4685

23.077 1.3947 2.54341e-11
1.3947 25.1519 -1.44518e-11
2.54341e-11 -1.44518e-11 24.5006

24.5088 1.67931 4.04673e-11
1.67931 27.1988 2.78427e-11
4.04673e-11 2.78427e-11 26.7103

26.0976 -1.08874 -2.11943e-11
-1.08874 29.5807 6.9346e-12
-2.11943e-11 6.9346e-12 28.4775

26.4291 -0.318745 -1.07895e-11
-0.318745 29.2222 2.64955e-11
-1.07895e-11 2.64955e-11 28.4363

27.0084 0.427008 2.69751e-12
0.427008 22.4969 -1.79078e-11
2.69751e-12 -1.79078e-11 24.7939

19.7944 0.535905 -1.92714e-12
0.535905 22.2598 -2.43749e-11
-1.92714e-12 -2.43749e-11 20.2673

19.7057 -0.43779 -1.88849e-11
-0.43779 22.1065 1.63306e-11
-1.88849e-11 1.63306e-11 20.1873

22.53 -0.378252 -1.73469e-12
-0.378252 19.2219 3.42121e-12
-1.73469e-12 3.42121e-12 19.9093

22.5694 1.88091 6.27212e-11
1.88091 23.1689 -3.02537e-11
6.27212e-11 -3.02537e-11 22.8401

23.7184 -1.25052 5.78049e-12
-1.25052 20.083 -1.92708e-11
5.78049e-12 -1.92708e-11 21.6349

24.9117 1.99296 2.65909e-11
1.99296 23.9675 -5.63534e-12
2.65909e-11 -5.63534e-12 24.4487

22.5124 1.58886 -8.86498e-12
1.58886 24.6433 -4.52786e-12
-8.86498e-12 -4.52786e-12 23.1916

26.3171 -0.788683 -4.00802e-11
-0.788683 22.2544 4.78761e-12
-4.00802e-11 4.78761e-12 24.6605

17.3466 1.04778 -1.42584e-11
1.04778 18.4044 2.51978e-11
-1.42584e-11 2.51978e-11 16.9404

28.2364 0.978619 3.31428e-11
0.978619 24.1936 1.74874e-11
3.31428e-11 1.74874e-11 26.8388

18.5501 -0.905748 -5.43432e-11
-0.905748 16.7134 2.71236e-11
-5.43432e-11 2.71236e-11 16.7082

29.14 -0.345126 -2.15791e-11
-0.345126 30.5039 9.63259e-12
-2.15791e-11 9.63259e-12 29.6981

29.1039 0.61271 -1.07898e-11
0.61271 30.5607 2.92875e-11
-1.07898e-11 2.92875e-11 29.7127

36.1326 -1.8672 1.19456e-10
-1.8672 32.8773 4.62145e-12
1.19456e-10 4.62145e-12 32.4259

36.08 1.932 1.08669e-10
1.932 32.826 -1.48312e-11
1.08669e-10 -1.48312e-11 32.4155

22.0829 -0.497758 5.78019e-12
-0.497758 18.6886 -2.63258e-11
5.78019e-12 -2.63258e-11 19.7015

25.1741 2.17835 4.62454e-12
2.17835 24.9946 -2.00394e-11
4.62454e-12 -2.00394e-11 25.5503

31.2697 -1.13 1.65704e-11
-1.13 29.0963 3.56365e-12
1.65704e-11 3.56365e-12 29.7951

31.047 1.12581 -7.32133e-12
1.12581 28.9024 -5.87667e-12
-7.32133e-12 -5.87667e-12 29.6148

28.2482 0.39227 1.07911e-11
0.39227 24.355 3.13104e-11
1.07911e-11 3.13104e-11 27.3224

22.0982 1.79499 4.81459e-12
1.79499 24.3732 1.37782e-11
4.81459e-12 1.37782e-11 22.8889

23.9693 -1.55265 1.92676e-11
-1.55265 21.3515 3.27427e-12
1.92676e-11 3.27427e-12 22.2901

27.8192 -0.0963656 2.04249e-11
-0.0963656 23.4441 9.23041e-12
2.04249e-11 9.23041e-12 26.7283

22.3629 -1.88769 2.40865e-11
-1.88769 23.0764 8.66751e-13
2.40865e-11 8.66751e-13 22.6889

22.6078 -1.54786 3.85434e-12
-1.54786 24.1593 2.35086e-11
3.85434e-12 2.35086e-11 23.1332

25.0394 1.76945 5.20349e-12
1.76945 27.9154 -3.66055e-12
5.20349e-12 -3.66055e-12 26.7881

22.1995 -2.15901 4.16231e-11
-2.15901 20.6236 -3.17812e-12
4.16231e-11 -3.17812e-12 20.995

13.7768 -1.64623 -4.77934e-11
-1.64623 12.8418 -2.55809e-11
-4.77934e-11 -2.55809e-11 13.3521

13.6525 2.28672 2.35106e-11
2.28672 13.3415 6.52759e-12
2.35106e-11 6.52759e-12 13.4243

25.4858 -2.11272 -1.0019e-11
-2.11272 28.8681 -1.88823e-11
-1.0019e-11 -1.88823e-11 28.2171

13.9252 0.299916 -3.33067e-16
0.299916 12.9163 1.66587e-11
-3.33067e-16 1.66587e-11 13.813

13.2358 -0.552702 -2.04272e-11
-0.552702 12.937 -2.71262e-11
-2.04272e-11 -2.71262e-11 13.7285

29.3975 -0.493605 -5.97308e-11
-0.493605 30.0052 5.3758e-11
-5.97308e-11 5.3758e-11 29.7646

29.4213 0.512588 -4.99025e-11
0.512588 29.9735 3.69939e-11
-4.99025e-11 3.69939e-11 29.7684

28.7553 -0.0355238 -5.20295e-12
-0.0355238 23.3216 6.6144e-12
-5.20295e-12 6.6144e-12 26.0382

29.2599 -0.267002 -4.87476e-11
-0.267002 29.0684 2.74097e-11
-4.87476e-11 2.74097e-11 29.5388

29.2902 0.293717 -9.0559e-11
0.293717 29.077 -1.18017e-10
-9.0559e-11 -1.18017e-10 29.5516

23.0759 1.64727 -2.08102e-11
1.64727 26.0298 4.14298e-12
-2.08102e-11 4.14298e-12 24.6004

33.8636 -1.74835 2.35051e-11
-1.74835 31.8734 7.32183e-12
2.35051e-11 7.32183e-12 31.5577

33.8129 1.75657 3.81486e-11
1.75657 31.8392 8.81593e-12
3.81486e-11 8.81593e-12 31.5581

27.4093 -0.874104 4.62393e-12
-0.874104 27.2165 -2.62538e-11
4.62393e-12 -2.62538e-11 27.6854

27.4248 0.881647 1.17542e-11
0.881647 27.2179 -8.91069e-12
1.17542e-11 -8.91069e-12 27.6983

19.825 -1.4879 -2.58215e-11
-1.4879 17.1371 -2.21354e-11
-2.58215e-11 -2.21354e-11 18.0256

29.7118 0.865782 2.00383e-11
0.865782 33.8776 -2.42765e-11
2.00383e-11 -2.42765e-11 31.2615

30.7645 -0.166842 4.00745e-11
-0.166842 32.2959 4.16186e-11
4.00745e-11 4.16186e-11 31.0788

22.194 -1.81432 7.70595e-12
-1.81432 24.4563 5.6074e-11
7.70595e-12 5.6074e-11 22.9709

16.0524 -0.456063 -1.15537e-12
-0.456063 17.4909 -1.22136e-11
-1.15537e-12 -1.22136e-11 16.2953

17.8071 -0.471185 2.81365e-11
-0.471185 15.3069 -4.99784e-11
2.81365e-11 -4.99784e-11 16.1641

24.3116 1.41519 3.8559e-13
1.41519 27.5009 2.42804e-11
3.8559e-13 2.42804e-11 26.2255

24.0855 1.41082 -1.42596e-11
1.41082 26.8704 -1.0792e-11
-1.42596e-11 -1.0792e-11 26.1761

34.9348 -1.4079 -3.12129e-11
-1.4079 31.5186 -5.87457e-12
-3.12129e-11 -5.87457e-12 32.387

34.9974 1.30166 1.13486e-10
1.30166 31.9166 3.95388e-12
1.13486e-10 3.95388e-12 32.4988

24.9239 1.85154 2.38912e-11
1.85154 26.9207 -4.16209e-11
2.38912e-11 -4.16209e-11 27.2606

27.2357 0.562669 2.65915e-11
0.562669 24.4488 3.69001e-11
2.65915e-11 3.69001e-11 26.2511

27.1935 -0.585136 1.50304e-11
-0.585136 24.3604 -2.89993e-11
1.50304e-11 -2.89993e-11 26.1751

26.0078 2.48449 5.00892e-12
2.48449 26.503 -6.45574e-12
5.00892e-12 -6.45574e-12 27.1511

26.4596 -1.67479 9.82742e-12
-1.67479 28.987 1.49325e-11
9.82742e-12 1.49325e-11 28.2631

21.7177 -0.0286755 6.74457e-12
-0.0286755 17.9588 -2.16303e-11
6.74457e-12 -2.16303e-11 19.3555

25.9911 0.0355353 -1.31035e-11
0.0355353 21.6551 -3.9436e-13
-1.31035e-11 -3.9436e-13 23.3219

23.6488 1.11596 5.66534e-11
1.11596 20.0481 1.85228e-11
5.66534e-11 1.85228e-11 21.384

30.1621 1.8581 -1.426e-11
1.8581 26.9 -2.71191e-11
-1.426e-11 -2.71191e-11 28.757

37.0245 -0.276778 -4.31578e-11
-0.276778 35.6029 3.80032e-11
-4.31578e-11 3.80032e-11 33.2936

36.9836 0.275269 -4.04597e-11
0.275269 35.7666 -7.01313e-11
-4.04597e-11 -7.01313e-11 33.305

20.697 1.62195 4.7405e-11
1.62195 20.5129 2.36311e-12
4.7405e-11 2.36311e-12 19.8099

24.7235 -2.06694 -1.00211e-11
-2.06694 22.9467 -3.85481e-12
-1.00211e-11 -3.85481e-12 23.9467

27.2581 -0.512038 -1.8305e-11
-0.512038 23.8051 -1.568e-11
-1.8305e-11 -1.568e-11 25.2248

31.3797 1.99957 5.27929e-11
1.99957 34.9516 1.98465e-11
5.27929e-11 1.98465e-11 32.0405

31.6178 -0.524231 7.16736e-11
-0.524231 32.3013 5.39357e-12
7.16736e-11 5.39357e-12 31.5231

30.4836 -1.81731 -1.57983e-11
-1.81731 27.393 -3.12133e-11
-1.57983e-11 -3.12133e-11 29.0566

25.616 -0.525723 1.73541e-12
-0.525723 28.1214 -2.33165e-11
1.73541e-12 -2.33165e-11 27.1128

25.9549 -0.550988 -8.38066e-12
-0.550988 28.3065 -3.51669e-11
-8.38066e-12 -3.51669e-11 27.1753

29.2153 -0.144231 -1.29103e-11
-0.144231 23.7608 2.39403e-11
-1.29103e-11 2.39403e-11 26.8848

29.3233 0.135756 2.65911e-11
0.135756 23.7591 -1.60886e-11
2.65911e-11 -1.60886e-11 26.9547

21.0579 1.39747 1.27186e-11
1.39747 20.1754 1.29116e-11
1.27186e-11 1.29116e-11 19.6175

29.6603 -0.10905 -1.44792e-13
-0.10905 25.7687 -2.73846e-11
-1.44792e-13 -2.73846e-11 28.1868

29.6703 0.0987512 -8.04453e-12
0.0987512 25.8044 2.57685e-12
-8.04453e-12 2.57685e-12 28.2063

27.341 0.508145 4.62471e-12
0.508145 23.8068 8.35693e-12
4.62471e-12 8.35693e-12 25.2635

22.5906 -1.61474 -3.39134e-11
-1.61474 24.772 -2.06182e-11
-3.39134e-11 -2.06182e-11 23.296

29.6061 -0.0522708 2.6976e-12
-0.0522708 25.2269 -7.61132e-12
2.6976e-12 -7.61132e-12 27.4008

29.7133 0.0668564 2.79404e-11
0.0668564 25.2516 3.28514e-11
2.79404e-11 3.28514e-11 27.4809

27.034 -1.23804 -1.84966e-11
-1.23804 23.7972 -1.49236e-12
-1.84966e-11 -1.49236e-12 25.5218

25.5758 2.28008 -1.214e-11
2.28008 27.9226 -1.83048e-12
-1.214e-11 -1.83048e-12 27.1724

23.6295 1.73393 -2.27378e-11
1.73393 21.9108 -1.68676e-12
-2.27378e-11 -1.68676e-12 22.3347

25.6034 1.85003 -2.11955e-11
1.85003 26.7062 -5.09665e-11
-2.11955e-11 -5.09665e-11 27.402

25.8692 2.26965 -2.5819e-11
2.26965 28.519 -5.20344e-12
-2.5819e-11 -5.20344e-12 27.5508

24.0438 -0.880834 -2.11976e-11
-0.880834 20.238 5.68525e-12
-2.11976e-11 5.68525e-12 21.7058

27.5312 -2.02537 1.21394e-11
-2.02537 25.0392 -4.11863e-11
1.21394e-11 -4.11863e-11 26.6273

26.6873 1.23623 -2.38939e-11
1.23623 23.6022 -2.71692e-11
-2.38939e-11 -2.71692e-11 25.1313

21.9245 2.02242 5.23168e-11
2.02242 21.3148 -3.8972e-11
5.23168e-11 -3.8972e-11 21.368

24.5197 2.07774 1.6572e-11
2.07774 22.7499 -1.02612e-11
1.6572e-11 -1.02612e-11 23.7531

23.6954 0.190125 -4.77867e-11
0.190125 27.173 -1.72434e-11
-4.77867e-11 -1.72434e-11 25.9669

23.7654 0.0677374 -2.77473e-11
0.0677374 27.1718 -1.54169e-11
-2.77473e-11 -1.54169e-11 25.9774

20.4089 1.46129 -7.90086e-12
1.46129 17.9169 3.62399e-11
-7.90086e-12 3.62399e-11 18.5821

26.06 -2.48214 2.27353e-11
-2.48214 26.5489 -1.81137e-11
2.27353e-11 -1.81137e-11 27.2165

21.6355 -1.97713 2.00409e-11
-1.97713 22.6174 3.86062e-13
2.00409e-11 3.86062e-13 21.5254

21.5579 2.00162 -4.23543e-12
2.00162 22.6718 4.45151e-11
-4.23543e-12 4.45151e-11 21.4926

26.6811 -1.4922 -3.46926e-12
-1.4922 23.6729 1.79701e-11
-3.46926e-12 1.79701e-11 25.2678

29.8682 -0.98963 2.77467e-11
-0.98963 24.5874 -1.34863e-11
2.77467e-11 -1.34863e-11 28.2796

29.7438 0.997596 1.31019e-11
0.997596 24.7212 7.69884e-13
1.31019e-11 7.69884e-13 28.2151

20.7811 1.09485 1.65711e-11
1.09485 23.2234 -9.25186e-16
1.65711e-11 -9.25186e-16 21.8486

24.9797 -2.08239 -1.50308e-11
-2.08239 23.9743 -5.15602e-12
-1.50308e-11 -5.15602e-12 24.4395

17.9399 -0.0851347 3.23739e-11
-0.0851347 21.3461 3.75733e-12
3.23739e-11 3.75733e-12 19.2014

17.9164 0.0341101 -3.85266e-13
0.0341101 21.3406 8.81676e-12
-3.85266e-13 8.81676e-12 19.1849

21.7563 0.105328 1.34914e-12
0.105328 17.4669 -1.34821e-12
1.34914e-12 -1.34821e-12 18.9586

20.8709 -1.44976 9.63289e-12
-1.44976 20.2079 -2.3366e-11
9.63289e-12 -2.3366e-11 19.5171

22.2059 1.76231 1.84993e-11
1.76231 20.9664 -1.00202e-11
1.84993e-11 -1.00202e-11 21.2488

33.5553 -3.59226 -9.01694e-11
-3.59226 35.1549 1.77287e-11
-9.01694e-11 1.77287e-11 32.7469

34.8943 1.55202 7.5526e-11
1.55202 35.914 1.84927e-11
7.5526e-11 1.84927e-11 33.1947

24.1852 0.802484 -9.6297e-13
0.802484 20.3584 -2.23961e-12
-9.6297e-13 -2.23961e-12 21.8499

24.4035 2.19578 5.01079e-12
2.19578 27.0117 -1.25244e-11
5.01079e-12 -1.25244e-11 25.7898

28.7276 0.0327027 -4.62445e-12
0.0327027 23.2864 1.46679e-11
-4.62445e-12 1.46679e-11 25.9829

20.8107 -1.05883 -6.55017e-12
-1.05883 23.3351 -1.7632e-11
-6.55017e-12 -1.7632e-11 21.9257

24.7316 2.18706 -7.70555e-13
2.18706 28.8512 1.05979e-11
-7.70555e-13 1.05979e-11 28.1351

26.622 1.79113 -2.158e-11
1.79113 29.1488 1.97497e-11
-2.158e-11 1.97497e-11 28.3733

25.5987 -2.27462 -2.42789e-11
-2.27462 27.9197 4.07546e-11
-2.42789e-11 4.07546e-11 27.1849

25.7964 2.29895 -1.44506e-11
2.29895 28.762 8.38167e-12
-1.44506e-11 8.38167e-12 27.6453

24.0643 1.74165 4.39322e-11
1.74165 25.7913 1.24287e-11
4.39322e-11 1.24287e-11 25.6727

30.383 0.0197167 1.77275e-11
0.0197167 23.829 -5.52887e-12
1.77275e-11 -5.52887e-12 27.4859

22.215 -1.73944 -6.93738e-12
-1.73944 20.8283 -2.12923e-11
-6.93738e-12 -2.12923e-11 21.1198

25.6156 -1.85876 -4.23914e-12
-1.85876 26.7304 2.65902e-11
-4.23914e-12 2.65902e-11 27.4359

22.7747 -1.48809 1.36841e-11
-1.48809 22.9066 -7.46702e-11
1.36841e-11 -7.46702e-11 22.2055

20.0553 -1.44282 -4.0083e-11
-1.44282 20.0942 1.31963e-11
-4.0083e-11 1.31963e-11 19.3338

25.1529 -2.14981 3.46996e-12
-2.14981 25.0979 -1.75819e-11
3.46996e-12 -1.75819e-11 25.6028

20.0429 -0.881759 -3.2373e-11
-0.881759 22.6244 3.90683e-11
-3.2373e-11 3.90683e-11 20.5931

20.002 0.836458 1.54097e-12
0.836458 22.6188 -1.59459e-11
1.54097e-12 -1.59459e-11 20.5638

22.4793 0.504109 9.63459e-12
0.504109 19.5827 -1.19588e-11
9.63459e-12 -1.19588e-11 20.189

22.7373 1.55182 -9.44308e-12
1.55182 22.8787 4.46091e-11
-9.44308e-12 4.46091e-11 22.1856

23.1586 0.275129 -2.58204e-11
0.275129 25.9606 3.51666e-11
-2.58204e-11 3.51666e-11 24.2672

23.1341 -0.0594562 -4.31624e-11
-0.0594562 25.9256 2.2062e-11
-4.31624e-11 2.2062e-11 24.2472

18.8797 -1.69932 -1.31019e-11
-1.69932 19.7453 -4.64417e-11
-1.31019e-11 -4.64417e-11 18.6684

18.9092 1.70237 1.69581e-11
1.70237 19.6895 -6.11796e-12
1.69581e-11 -6.11796e-12 18.6242

30.5313 0.137131 1.34905e-12
0.137131 24.2552 2.26878e-11
1.34905e-12 2.26878e-11 27.626

30.5918 -0.130107 1.38736e-11
-0.130107 24.2382 8.57433e-12
1.38736e-11 8.57433e-12 27.6543

24.8034 2.00157 -1.42586e-11
2.00157 27.3146 -3.75866e-12
-1.42586e-11 -3.75866e-12 26.1426

24.3956 -1.95243 4.00777e-11
-1.95243 28.5922 -1.72457e-11
4.00777e-11 -1.72457e-11 27.9829

26.9133 2.201 -7.32266e-12
2.201 25.5489 -2.02547e-12
-7.32266e-12 -2.02547e-12 26.6044

19.3616 1.02079 -2.50532e-11
1.02079 16.6515 -3.68788e-11
-2.50532e-11 -3.68788e-11 17.488

20.9224 1.32776 2.31263e-11
1.32776 24.085 1.77279e-11
2.31263e-11 1.77279e-11 22.1218

29.0712 0.128192 5.43368e-11
0.128192 27.7846 3.51715e-12
5.43368e-11 3.51715e-12 28.6903

29.0603 -0.114355 -9.05627e-12
-0.114355 27.799 -4.03186e-11
-9.05627e-12 -4.03186e-11 28.6828

25.3293 1.28058 -1.04063e-11
1.28058 24.4887 -1.52715e-11
-1.04063e-11 -1.52715e-11 24.5907

27.6396 -0.790691 1.29095e-11
-0.790691 26.2405 -3.03483e-11
1.29095e-11 -3.03483e-11 26.8061

27.6488 0.805953 2.42778e-11
0.805953 26.2584 1.71501e-11
2.42778e-11 1.71501e-11 26.8214

12.9413 -0.80365 -4.50951e-11
-0.80365 11.1243 -7.18127e-11
-4.50951e-11 -7.18127e-11 13.3009

10.3821 1.01285 7.71235e-13
1.01285 12.2565 2.20548e-11
7.71235e-13 2.20548e-11 12.9615

20.8827 -1.30492 -1.81138e-11
-1.30492 24.1251 -2.22577e-11
-1.81138e-11 -2.22577e-11 22.1601

31.9447 -0.293462 2.6589e-11
-0.293462 30.9962 -4.48922e-11
2.6589e-11 -4.48922e-11 31.1887

31.9629 0.334665 2.04236e-11
0.334665 31.0311 6.8399e-12
2.04236e-11 6.8399e-12 31.2017

19.4739 0.877397 -9.63533e-12
0.877397 16.5328 -9.33377e-12
-9.63533e-12 -9.33377e-12 17.4789

24.051 -1.08166 3.93046e-11
-1.08166 27.2759 3.56248e-12
3.93046e-11 3.56248e-12 26.2543

24.3969 -1.05654 2.23515e-11
-1.05654 27.5147 -2.01366e-11
2.23515e-11 -2.01366e-11 26.2788

21.8251 -2.12485 1.73478e-11
-2.12485 21.4163 -5.90593e-11
1.73478e-11 -5.90593e-11 21.2176

25.8046 -2.3135 5.58781e-12
-2.3135 28.7441 -2.33154e-11
5.58781e-12 -2.33154e-11 27.6343

23.886 2.76003 -1.73419e-11
2.76003 26.9467 -1.57054e-11
-1.73419e-11 -1.57054e-11 27.0875

29.0024 1.25129 3.73792e-11
1.25129 29.919 2.57241e-11
3.73792e-11 2.57241e-11 29.4664

28.2282 1.72607 1.92688e-11
1.72607 29.8665 2.15788e-11
1.92688e-11 2.15788e-11 29.4224

24.8206 -2.02145 1.11751e-11
-2.02145 27.3708 -2.21573e-12
1.11751e-11 -2.21573e-12 26.192

25.443 2.12165 -1.92498e-12
2.12165 25.7123 1.94616e-11
-1.92498e-12 1.94616e-11 26.1365

25.3244 -1.30015 1.77276e-11
-1.30015 24.5178 -1.6666e-11
1.77276e-11 -1.6666e-11 24.6049

22.9634 1.55257 2.92928e-11
1.55257 19.8659 7.67417e-11
2.92928e-11 7.67417e-11 21.0701

25.9749 -0.0472295 1.81125e-11
-0.0472295 21.6495 6.75596e-12
1.81125e-11 6.75596e-12 23.3406

25.6269 2.41237 3.46859e-12
2.41237 28.4955 -1.06942e-11
3.46859e-12 -1.06942e-11 27.5101

23.0989 -1.45162 -1.69583e-11
-1.45162 25.2547 -4.71982e-12
-1.69583e-11 -4.71982e-12 24.5972

21.7658 0.529486 -6.16734e-12
0.529486 25.0125 -5.19966e-12
-6.16734e-12 -5.19966e-12 23.389

25.3911 1.48502 4.81715e-12
1.48502 25.3698 1.24286e-11
4.81715e-12 1.24286e-11 25.622

21.9887 0.658807 3.42985e-11
0.658807 25.3485 -3.56766e-12
3.42985e-11 -3.56766e-12 23.5422

26.7014 -1.86303 -9.44077e-12
-1.86303 29.183 2.49532e-11
-9.44077e-12 2.49532e-11 28.3264

15.3285 -1.04384 4.24216e-12
-1.04384 15.5538 -2.77003e-11
4.24216e-12 -2.77003e-11 15.0495

16.1702 -1.05056 -2.11973e-11
-1.05056 14.6245 -5.94745e-11
-2.11973e-11 -5.94745e-11 15.0117

26.913 -0.418794 7.51536e-12
-0.418794 22.4726 1.10042e-11
7.51536e-12 1.10042e-11 24.7503

25.3738 -1.48875 2.21578e-11
-1.48875 25.3448 -6.45465e-12
2.21578e-11 -6.45465e-12 25.608

35.6017 -1.99777 -1.57224e-10
-1.99777 32.0668 1.16088e-10
-1.57224e-10 1.16088e-10 32.5614

35.6665 1.91339 2.00379e-11
1.91339 32.2303 -2.26372e-11
2.00379e-11 -2.26372e-11 32.6166

24.5177 -2.16572 -7.69311e-13
-2.16572 27.1368 -1.52233e-11
-7.69311e-13 -1.52233e-11 25.9274

31.8975 -1.85714 -1.15637e-12
-1.85714 31.9129 2.84215e-11
-1.15637e-12 2.84215e-11 31.033

31.796 1.88749 -1.84967e-11
1.88749 31.8565 -4.55687e-11
-1.84967e-11 -4.55687e-11 30.9967

26.9859 0.407986 -8.86361e-12
0.407986 23.208 -4.5683e-12
-8.86361e-12 -4.5683e-12 25.6239

23.8248 -2.76353 6.93759e-12
-2.76353 26.8675 -2.34119e-11
6.93759e-12 -2.34119e-11 27.0607

16.1453 -1.24295 -2.69786e-11
-1.24295 16.0319 4.61314e-11
-2.69786e-11 4.61314e-11 15.6714

16.7127 1.2474 2.96766e-11
1.2474 15.8292 -1.62119e-11
2.96766e-11 -1.62119e-11 15.873

16.8566 -0.926559 -1.15637e-12
-0.926559 18.6007 -4.14313e-11
-1.15637e-12 -4.14313e-11 17.0591

16.4703 0.861748 -1.34703e-12
0.861748 18.507 4.86452e-12
-1.34703e-12 4.86452e-12 16.8884

18.6604 0.530803 -3.39161e-11
0.530803 15.9897 1.5511e-11
-3.39161e-11 1.5511e-11 16.7348

25.6203 -2.43101 -1.17531e-11
-2.43101 28.5144 -3.56449e-12
-1.17531e-11 -3.56449e-12 27.4957

14.9396 0.27578 -3.58409e-11
0.27578 17.3202 1.64048e-11
-3.58409e-11 1.64048e-11 15.8304

17.6658 -0.300291 -3.35315e-11
-0.300291 14.6599 2.21849e-11
-3.35315e-11 2.21849e-11 15.7371

29.2017 -0.765926 1.54149e-12
-0.765926 32.272 -1.31019e-11
1.54149e-12 -1.31019e-11 30.6122

30.4008 -0.0466676 -2.15808e-11
-0.0466676 31.2787 -1.04815e-10
-2.15808e-11 -1.04815e-10 30.5881

28.6133 1.20603 4.23894e-12
1.20603 25.7421 -8.76717e-12
4.23894e-12 -8.76717e-12 27.3058

28.4406 -0.0855863 2.23522e-11
-0.0855863 22.6066 1.97012e-11
2.23522e-11 1.97012e-11 27.0522

19.4095 1.22506 5.97187e-12
1.22506 21.6533 -7.08289e-12
5.97187e-12 -7.08289e-12 19.9445

19.4143 -1.282 -3.02538e-11
-1.282 21.6803 4.57195e-11
-3.02538e-11 4.57195e-11 19.9775

27.3416 -0.230018 1.65716e-11
-0.230018 23.4066 1.68566e-11
1.65716e-11 1.68566e-11 25.8166

23.1675 -1.64299 -5.12558e-11
-1.64299 26.2161 2.87128e-11
-5.12558e-11 2.87128e-11 24.7393

31.2548 0.174323 1.54136e-12
0.174323 29.8118 -1.60396e-11
1.54136e-12 -1.60396e-11 30.449

31.243 -0.150968 -8.6703e-12
-0.150968 29.8187 -1.10114e-10
-8.6703e-12 -1.10114e-10 30.4506

27.5156 1.83313 -1.69572e-11
1.83313 26.2326 -6.84092e-12
-1.69572e-11 -6.84092e-12 27.0112

25.4012 -2.0692 3.00586e-11
-2.0692 25.7051 1.15603e-11
3.00586e-11 1.15603e-11 26.1346

28.0483 1.10004 2.00391e-11
1.10004 23.7883 -1.38245e-11
2.00391e-11 -1.38245e-11 26.4768

20.3698 1.61975 6.01262e-11
1.61975 19.1079 3.43022e-11
6.01262e-11 3.43022e-11 19.1831

24.1382 -1.79338 -1.75351e-11
-1.79338 25.9198 9.64192e-13
-1.75351e-11 9.64192e-13 25.7533

12.9036 2.78755 -7.70759e-12
2.78755 12.2935 -1.79384e-12
-7.70759e-12 -1.79384e-12 12.8666

21.8855 -0.395664 1.77271e-11
-0.395664 25.0199 4.14294e-11
1.77271e-11 4.14294e-11 23.4354

22.0145 -0.590238 4.81742e-11
-0.590238 25.2017 4.02715e-11
4.81742e-11 4.02715e-11 23.4794

29.5687 0.817497 1.81107e-11
0.817497 32.4505 -2.13871e-11
1.81107e-11 -2.13871e-11 30.798

29.9946 -1.223 -1.00178e-11
-1.223 32.0585 -1.75345e-11
-1.00178e-11 -1.75345e-11 30.7918

30.8552 -0.0646026 5.33748e-11
-0.0646026 25.1197 -1.70514e-11
5.33748e-11 -1.70514e-11 28.4076

30.8793 0.0603139 -7.70726e-13
0.0603139 25.1065 -1.83067e-12
-7.70726e-13 -1.83067e-12 28.4241

29.0068 -2.39633 -3.31416e-11
-2.39633 27.6703 2.83235e-11
-3.31416e-11 2.83235e-11 28.555

28.8682 2.417 -4.6629e-11
2.417 27.2077 -3.66072e-12
-4.6629e-11 -3.66072e-12 28.3195

32.2666 -0.872632 3.12133e-11
-0.872632 30.9743 -2.54331e-11
3.12133e-11 -2.54331e-11 30.7732

32.1856 0.870574 -5.78027e-11
0.870574 30.9611 9.63202e-12
-5.78027e-11 9.63202e-12 30.7462

33.1778 -0.762529 -1.10019e-10
-0.762529 31.6226 5.55866e-11
-1.10019e-10 5.55866e-11 31.8572

33.2174 0.820877 -3.14057e-11
0.820877 31.7596 -3.96905e-11
-3.14057e-11 -3.96905e-11 31.9049

26.716 -2.29461 -1.57991e-11
-2.29461 29.0435 -3.19848e-11
-1.57991e-11 -3.19848e-11 28.4085

26.7734 2.28275 2.00393e-11
2.28275 29.0736 1.1369e-11
2.00393e-11 1.1369e-11 28.4492

25.0172 -1.18719 2.62069e-11
-1.18719 22.9005 -2.56747e-11
2.62069e-11 -2.56747e-11 23.9344

23.5762 -1.00382 2.89036e-11
-1.00382 25.9843 1.41602e-11
2.89036e-11 1.41602e-11 24.9361

23.7473 1.93187 -4.4899e-11
1.93187 23.728 -1.05055e-11
-4.4899e-11 -1.05055e-11 23.5777

23.8315 -1.40902 2.04228e-11
-1.40902 26.5565 5.38581e-11
2.04228e-11 5.38581e-11 25.0448

20.476 -1.49641 -1.48423e-11
-1.49641 19.3293 1.15671e-10
-1.48423e-11 1.15671e-10 19.126

24.9809 1.17191 -4.23854e-12
1.17191 22.8473 -1.30068e-11
-4.23854e-12 -1.30068e-11 23.8833

23.6103 0.99802 -1.72935e-11
0.99802 25.8999 -2.7845e-11
-1.72935e-11 -2.7845e-11 24.862

26.69 -2.85263 4.23872e-12
-2.85263 27.826 2.58194e-11
4.23872e-12 2.58194e-11 28.3227

26.6966 2.85459 4.62386e-12
2.85459 27.8067 -2.52404e-11
4.62386e-12 -2.52404e-11 28.3187

29.003 -1.14577 1.00205e-11
-1.14577 26.1647 -5.14462e-11
1.00205e-11 -5.14462e-11 27.7064

35.0017 -2.13644 1.01344e-10
-2.13644 36.7882 -7.16725e-11
1.01344e-10 -7.16725e-11 33.3332

33.6212 2.18488 2.15806e-11
2.18488 32.259 6.3968e-11
2.15806e-11 6.3968e-11 32.1806

26.1354 -1.61599 1.44521e-11
-1.61599 28.3449 -1.23324e-11
1.44521e-11 -1.23324e-11 27.2995

27.0869 2.0168 -2.56282e-11
2.0168 24.6733 1.6041e-11
-2.56282e-11 1.6041e-11 26.2249

31.123 0.129338 3.84202e-13
0.129338 28.8505 4.09443e-12
3.84202e-13 4.09443e-12 29.7543

23.7509 -1.88913 -2.54358e-11
-1.88913 23.8338 -4.10441e-11
-2.54358e-11 -4.10441e-11 23.6063

15.8278 1.20973 -3.70074e-17
1.20973 16.2663 1.75374e-11
-3.70074e-17 1.75374e-11 15.4391

16.3852 1.19632 1.5033e-11
1.19632 15.1907 8.86515e-12
1.5033e-11 8.86515e-12 15.3407

31.1811 0.239968 8.11206e-11
0.239968 26.2194 -2.63476e-11
8.11206e-11 -2.63476e-11 28.9799

31.13 -0.242218 -5.9727e-12
-0.242218 26.1946 -3.63624e-12
-5.9727e-12 -3.63624e-12 28.9647

31.299 -0.210447 3.73811e-11
-0.210447 29.0799 -1.89271e-11
3.73811e-11 -1.89271e-11 29.873

23.8654 1.34177 1.88821e-11
1.34177 26.4869 -1.35831e-11
1.88821e-11 -1.35831e-11 25.015

24.5893 -0.943008 -1.59465e-11
-0.943008 22.083 -6.26155e-12
-1.59465e-11 -6.26155e-12 22.5796

27.5901 -1.14569 3.41024e-11
-1.14569 28.2714 3.40081e-11
3.41024e-11 3.40081e-11 28.0155

27.6097 1.14733 7.70236e-13
1.14733 28.2871 -5.47222e-11
7.70236e-13 -5.47222e-11 28.0312

36.6191 -0.157628 5.16345e-11
-0.157628 38.2276 5.26683e-11
5.16345e-11 5.26683e-11 33.7989

36.6247 0.155436 3.46799e-12
0.155436 38.1817 3.93134e-11
3.46799e-12 3.93134e-11 33.8008

24.8914 -1.9592 2.31333e-12
-1.9592 27.8221 -2.72659e-11
2.31333e-12 -2.72659e-11 26.7512

26.3622 1.55058 -2.00402e-11
1.55058 23.5016 -1.91865e-13
-2.00402e-11 -1.91865e-13 24.9168

30.2041 -0.192722 -2.22557e-11
-0.192722 27.6331 1.06926e-11
-2.22557e-11 1.06926e-11 28.9725

30.2028 0.209833 -5.97315e-12
0.209833 27.6229 9.14824e-13
-5.97315e-12 9.14824e-13 28.9645

25.1422 -1.24356 -4.62552e-12
-1.24356 27.5102 4.39327e-11
-4.62552e-12 4.39327e-11 27.101

24.8405 -1.98753 1.73421e-11
-1.98753 26.7546 -2.13885e-11
1.73421e-11 -2.13885e-11 27.1903

13.03 -2.89142 -3.66147e-11
-2.89142 13.1182 -3.7989e-11
-3.66147e-11 -3.7989e-11 13.1243

28.0808 -1.85657 -2.73599e-11
-1.85657 29.691 -4.31592e-11
-2.73599e-11 -4.31592e-11 29.2318

28.0693 1.87294 -2.54337e-11
1.87294 29.6415 -4.04646e-12
-2.54337e-11 -4.04646e-12 29.2065

24.4412 -1.91049 -3.39125e-11
-1.91049 26.8222 5.20341e-12
-3.39125e-11 5.20341e-12 26.6736

24.7556 1.00014 -7.70639e-12
1.00014 22.1778 -1.2909e-11
-7.70639e-12 -1.2909e-11 22.7113

27.9061 -1.75986 1.18509e-11
-1.75986 26.45 -3.27556e-11
1.18509e-11 -3.27556e-11 27.2901

29.35 -1.95483 -5.16395e-11
-1.95483 27.7921 1.61856e-11
-5.16395e-11 1.61856e-11 28.7491

29.3764 1.90749 -4.70146e-11
1.90749 27.6842 -9.44218e-12
-4.70146e-11 -9.44218e-12 28.7049

28.4032 -1.09257 5.77997e-12
-1.09257 24.0431 1.58473e-11
5.77997e-12 1.58473e-11 26.8284

31.6333 0.480289 4.72065e-11
0.480289 28.3954 2.92869e-11
4.72065e-11 2.92869e-11 30.028

31.596 -0.471267 -2.15798e-11
-0.471267 28.4153 -3.69934e-11
-2.15798e-11 -3.69934e-11 30.0179

31.5711 -0.758746 2.23481e-11
-0.758746 35.6174 5.14467e-11
2.23481e-11 5.14467e-11 32.2855

32.3512 1.65707 2.85158e-11
1.65707 35.3219 3.41031e-11
2.85158e-11 3.41031e-11 32.3989

13.1815 0.2458 7.68551e-13
0.2458 10.3413 -5.97432e-11
7.68551e-13 -5.97432e-11 13.1374

11.3331 0.459579 -3.73867e-11
0.459579 12.7259 1.44652e-11
-3.73867e-11 1.44652e-11 13.2618

26.4398 1.82814 -2.08095e-11
1.82814 28.6561 -7.80359e-12
-2.08095e-11 -7.80359e-12 27.7169

26.4215 -1.82927 7.51403e-12
-1.82927 28.6401 3.27475e-12
7.51403e-12 3.27475e-12 27.696

25.6249 -2.33717 -4.62502e-12
-2.33717 28.4706 2.4471e-11
-4.62502e-12 2.4471e-11 27.4329

12.531 -1.21928 -1.00206e-11
-1.21928 12.2869 -2.24036e-11
-1.00206e-11 -2.24036e-11 13.2426

12.8069 -1.00647 -5.55022e-11
-1.00647 12.4143 -1.9898e-11
-5.55022e-11 -1.9898e-11 13.3431

32.3133 1.61459 -6.06874e-11
1.61459 35.538 3.4683e-11
-6.06874e-11 3.4683e-11 32.6527

32.2704 -1.69728 -3.96989e-11
-1.69728 35.3678 2.44984e-10
-3.96989e-11 2.44984e-10 32.6098

27.0196 -2.21356 1.69579e-11
-2.21356 25.688 -1.84024e-11
1.69579e-11 -1.84024e-11 26.7386

23.9087 -1.78776 2.30952e-12
-1.78776 25.016 5.21223e-11
2.30952e-12 5.21223e-11 24.2527

26.0545 1.76175 -1.00192e-11
1.76175 27.3407 -2.49532e-11
-1.00192e-11 -2.49532e-11 27.0926

26.0411 -1.76103 1.34785e-12
-1.76103 27.3237 1.06932e-11
1.34785e-12 1.06932e-11 27.0786

24.4349 -2.08077 2.83247e-11
-2.08077 26.1965 -3.94072e-11
2.83247e-11 -3.94072e-11 25.4335

23.9319 1.81268 -3.79611e-11
1.81268 24.972 1.34818e-12
-3.79611e-11 1.34818e-12 24.2366

16.8143 -0.666696 4.50928e-11
-0.666696 18.6996 -4.30693e-11
4.50928e-11 -4.30693e-11 17.17

16.8085 0.560734 1.00177e-11
0.560734 18.8004 4.09047e-11
1.00177e-11 4.09047e-11 17.136

18.7977 0.47944 -2.98697e-11
0.47944 16.4018 2.44401e-12
-2.98697e-11 2.44401e-12 16.9565

24.4281 2.0756 -3.66093e-11
2.0756 26.1752 2.64943e-11
-3.66093e-11 2.64943e-11 25.4123

15.12 -0.31482 -2.19678e-11
-0.31482 17.1706 -2.0549e-11
-2.19678e-11 -2.0549e-11 15.7533

17.4882 -0.189287 2.58245e-11
-0.189287 14.5335 8.74393e-12
2.58245e-11 8.74393e-12 15.717

27.3532 -1.70361 -2.77456e-11
-1.70361 28.8951 3.85484e-12
-2.77456e-11 3.85484e-12 28.5212

27.398 1.69515 1.44517e-11
1.69515 28.9249 4.55702e-11
1.44517e-11 4.55702e-11 28.5506

27.7322 -1.29361 2.06161e-11
-1.29361 29.1416 3.02506e-11
2.06161e-11 3.02506e-11 28.78

27.7563 1.29328 2.35072e-11
1.29328 29.1203 -3.90173e-11
2.35072e-11 -3.90173e-11 28.7881

12.5629 1.12014 1.52262e-11
1.12014 11.8855 -1.18492e-11
1.52262e-11 -1.18492e-11 13.0729

12.4062 1.06831 -3.93141e-11
1.06831 11.8941 -1.76453e-11
-3.93141e-11 -1.76453e-11 12.9977

25.776 1.61745 1.65716e-11
1.61745 26.8921 -2.63976e-11
1.65716e-11 -2.63976e-11 26.2944

25.7717 -1.62822 6.35758e-12
-1.62822 26.9002 2.10035e-11
6.35758e-12 2.10035e-11 26.2907

30.5315 -1.56867 -3.96906e-11
-1.56867 32.7612 1.2137e-11
-3.96906e-11 1.2137e-11 31.1886

31.0035 0.706252 1.27127e-11
0.706252 31.3743 -5.91539e-11
1.27127e-11 -5.91539e-11 30.9988

27.42 -1.75711 1.92679e-13
-1.75711 30.0822 -8.18918e-12
1.92679e-13 -8.18918e-12 29.1013

27.428 1.75797 5.00956e-11
1.75797 30.0423 -1.46423e-11
5.00956e-11 -1.46423e-11 29.101

30.7331 0.115129 2.87103e-11
0.115129 27.898 2.97679e-11
2.87103e-11 2.97679e-11 29.7296

30.7233 -0.0987074 -2.56264e-11
-0.0987074 27.9072 -3.17434e-11
-2.56264e-11 -3.17434e-11 29.7295

26.8847 -1.98933 8.8633e-12
-1.98933 27.0652 4.81254e-13
8.8633e-12 4.81254e-13 27.5808

26.897 2.01474 2.77466e-11
2.01474 26.9469 -9.34317e-12
2.77466e-11 -9.34317e-12 27.5241

32.8027 0.485366 -3.66085e-11
0.485366 30.2469 -2.92856e-11
-3.66085e-11 -2.92856e-11 31.1348

32.9989 0.0833566 -7.18698e-11
0.0833566 31.4514 -2.0713e-11
-7.18698e-11 -2.0713e-11 31.7673

32.8179 -0.492233 7.36029e-11
-0.492233 30.2699 3.54498e-11
7.36029e-11 3.54498e-11 31.1514

32.9967 -0.132405 -3.87285e-11
-0.132405 31.3606 -8.84359e-11
-3.87285e-11 -8.84359e-11 31.7511

30.8675 0.0819477 -1.96498e-11
0.0819477 33.0473 7.39882e-11
-1.96498e-11 7.39882e-11 31.3946

34.1489 1.9575 4.81679e-11
1.9575 32.7062 5.77086e-11
4.81679e-11 5.77086e-11 31.8672

34.1594 -1.94992 -5.39594e-12
-1.94992 32.7204 -5.00886e-12
-5.39594e-12 -5.00886e-12 31.8659

30.0153 -1.04851 1.92633e-12
-1.04851 35.0711 -2.73602e-11
1.92633e-12 -2.73602e-11 31.6635

31.3777 -0.925762 -4.81696e-12
-0.925762 31.9219 -7.25436e-11
-4.81696e-12 -7.25436e-11 31.4114

40.5369 -1.34136 4.46428e-10
-1.34136 29.5478 -1.25545e-10
4.46428e-10 -1.25545e-10 33.1318

31.2851 0.975005 1.47208e-10
0.975005 32.0995 1.75047e-10
1.47208e-10 1.75047e-10 31.4561

40.5553 1.24013 1.45275e-10
1.24013 29.9565 2.05192e-10
1.45275e-10 2.05192e-10 33.2498

32.0471 -1.26826 -1.50282e-11
-1.26826 31.513 -1.04039e-11
-1.50282e-11 -1.04039e-11 31.3162

29.7867 -0.884081 -7.70684e-12
-0.884081 31.1317 1.20428e-11
-7.70684e-12 1.20428e-11 30.3528

32.7889 -0.0734657 -3.23701e-11
-0.0734657 31.546 -1.28607e-10
-3.23701e-11 -1.28607e-10 31.8457

32.0074 1.33141 2.10027e-11
1.33141 31.5405 1.74368e-11
2.10027e-11 1.74368e-11 31.3292

29.81 0.914334 -3.08277e-11
0.914334 31.0803 2.26402e-11
-3.08277e-11 2.26402e-11 30.3493

32.8264 0.0829458 5.58783e-12
0.0829458 31.7952 3.48729e-11
5.58783e-12 3.48729e-11 31.9291

29.6994 -0.729717 3.84507e-13
-0.729717 30.7737 -5.21189e-11
3.84507e-13 -5.21189e-11 30.4136

32.0406 -0.409116 1.48354e-11
-0.409116 31.4787 -2.56253e-11
1.48354e-11 -2.56253e-11 31.3762

29.7392 0.764201 -8.09182e-12
0.764201 30.7814 3.4683e-11
-8.09182e-12 3.4683e-11 30.4314

32.0624 0.427659 1.34868e-11
0.427659 31.4962 5.18288e-11
1.34868e-11 5.18288e-11 31.392

22.5448 1.72366 3.54557e-11
1.72366 24.5343 2.23533e-11
3.54557e-11 2.23533e-11 23.0062

25.1209 0.34808 3.7765e-11
0.34808 28.7852 1.54277e-12
3.7765e-11 1.54277e-12 27.1505

26.6423 0.92889 2.88973e-12
0.92889 28.0745 5.00918e-12
2.88973e-12 5.00918e-12 27.2316

26.0604 -1.12797 7.72234e-13
-1.12797 22.3127 -8.09222e-12
7.72234e-13 -8.09222e-12 24.4948

24.8526 -0.689623 1.29122e-11
-0.689623 21.434 6.93388e-12
1.29122e-11 6.93388e-12 23.0596

25.7566 0.528879 1.44508e-11
0.528879 30.7304 1.34887e-11
1.44508e-11 1.34887e-11 28.6292

27.0116 0.959522 3.8541e-12
0.959522 28.7405 -2.40857e-11
3.8541e-12 -2.40857e-11 28.4576

24.9316 -0.00652096 -1.92698e-12
-0.00652096 21.6739 1.42583e-11
-1.92698e-12 1.42583e-11 23.2038

28.1644 0.436182 -1.83055e-11
0.436182 24.1714 1.34888e-12
-1.83055e-11 1.34888e-12 27.2872

18.1724 1.4905 -3.25644e-11
1.4905 20.3577 -1.63798e-11
-3.25644e-11 -1.63798e-11 18.6404

17.4675 1.17914 -1.25246e-11
1.17914 20.1694 1.8885e-11
-1.25246e-11 1.8885e-11 18.388

19.6992 1.18168 -7.03574e-12
1.18168 17.5897 1.96544e-11
-7.03574e-12 1.96544e-11 18.1384

28.9489 -1.80244 -2.58176e-11
-1.80244 29.9529 -1.92328e-13
-2.58176e-11 -1.92328e-13 29.393

28.6772 -0.757035 -7.71411e-13
-0.757035 30.6734 2.54332e-11
-7.71411e-13 2.54332e-11 29.4887

24.9937 -2.08017 -2.37013e-11
-2.08017 24.7272 7.3222e-12
-2.37013e-11 7.3222e-12 24.9371

23.0294 1.67336 7.32233e-12
1.67336 25.6512 -2.62068e-11
7.32233e-12 -2.62068e-11 24.3815

25.1723 1.95487 1.23318e-11
1.95487 27.6119 3.31432e-11
1.23318e-11 3.31432e-11 26.7318

26.9025 -0.944939 7.51608e-12
-0.944939 28.6746 -3.71878e-11
7.51608e-12 -3.71878e-11 28.3702

25.6571 -0.626418 -8.09344e-12
-0.626418 30.7409 3.39121e-11
-8.09344e-12 3.39121e-11 28.5333

26.7431 0.525546 1.7921e-11
0.525546 22.6533 1.34898e-11
1.7921e-11 1.34898e-11 24.8007

19.7453 0.49014 -2.21616e-11
0.49014 22.5418 -4.43238e-12
-2.21616e-11 -4.43238e-12 20.2455

19.106 0.216554 1.68624e-11
0.216554 22.4445 -2.11979e-11
1.68624e-11 -2.11979e-11 20.1618

22.1795 0.203912 -7.70569e-13
0.203912 19.1766 2.23562e-11
-7.70569e-13 2.23562e-11 19.831

21.8687 1.17762 2.89032e-11
1.17762 24.7324 -4.47061e-11
2.89032e-11 -4.47061e-11 23.0887

22.3431 1.92536 2.50648e-12
1.92536 23.984 4.00802e-11
2.50648e-12 4.00802e-11 22.7924

26.0134 0.327262 2.52434e-11
0.327262 22.4037 5.43384e-11
2.52434e-11 5.43384e-11 24.6798

17.0348 0.89088 -1.57991e-11
0.89088 18.7148 5.76222e-11
-1.57991e-11 5.76222e-11 16.9063

28.1273 -1.20567 3.16004e-11
-1.20567 24.0342 -3.84933e-13
3.16004e-11 -3.84933e-13 26.8102

28.9054 0.0915436 -2.36985e-11
0.0915436 31.5824 2.3892e-11
-2.36985e-11 2.3892e-11 29.7811

29.69 0.0260328 1.88835e-11
0.0260328 30.0602 -1.20417e-11
1.88835e-11 -1.20417e-11 29.6688

35.7567 0.809308 -2.58187e-11
0.809308 31.1953 3.12122e-11
-2.58187e-11 3.12122e-11 32.1935

36.0793 -1.94887 -3.50701e-11
-1.94887 32.8096 1.11769e-11
-3.50701e-11 1.11769e-11 32.4172

24.1735 -2.20754 -6.93643e-12
-2.20754 24.7606 -2.42799e-11
-6.93643e-12 -2.42799e-11 24.5994

21.8085 -1.78533 1.31039e-11
-1.78533 23.7915 -5.78108e-12
1.31039e-11 -5.78108e-12 22.7411

21.797 -0.614539 -3.63263e-11
-0.614539 18.4952 -1.3103e-11
-3.63263e-11 -1.3103e-11 19.6065

30.978 0.316224 3.4686e-12
0.316224 28.785 -1.3101e-11
3.4686e-12 -1.3101e-11 29.7697

31.0042 -1.15289 2.42768e-11
-1.15289 28.956 3.31408e-11
2.42768e-11 3.31408e-11 29.6213

28.2459 -0.512543 -1.88832e-11
-0.512543 24.2358 -4.23906e-12
-1.88832e-11 -4.23906e-12 27.3327

27.7898 -0.152565 -9.70705e-14
-0.152565 23.2408 -2.31217e-12
-9.70705e-14 -2.31217e-12 26.7426

23.523 -1.82043 1.19481e-11
-1.82043 21.739 1.58007e-11
1.19481e-11 1.58007e-11 22.125

23.6045 0.841462 -3.08257e-12
0.841462 20.5625 1.21394e-11
-3.08257e-12 1.21394e-11 21.6944

23.2077 -1.4855 -7.51429e-12
-1.4855 20.2715 -2.42781e-11
-7.51429e-12 -2.42781e-11 21.4351

24.0103 1.22415 2.65887e-11
1.22415 27.9347 -1.3487e-11
2.65887e-11 -1.3487e-11 26.7271

22.0845 -1.47905 -7.70883e-13
-1.47905 24.6368 -4.23942e-12
-7.70883e-13 -4.23942e-12 23.1297

21.7046 1.42199 -2.16776e-11
1.42199 23.8274 1.23305e-11
-2.16776e-11 1.23305e-11 22.7558

13.4984 -2.25815 -1.17549e-11
-2.25815 13.5981 -4.37466e-11
-1.17549e-11 -4.37466e-11 13.4606

12.7212 1.38957 2.15848e-11
1.38957 13.4436 4.89496e-11
2.15848e-11 4.89496e-11 13.1935

25.4859 -1.69393 -3.17924e-11
-1.69393 29.308 1.04051e-11
-3.17924e-11 1.04051e-11 28.1984

22.3761 1.12353 3.04464e-11
1.12353 25.9038 2.96753e-11
3.04464e-11 2.96753e-11 24.4894

12.804 0.234976 3.9507e-11
0.234976 13.0104 -1.04065e-11
3.9507e-11 -1.04065e-11 13.594

13.1134 -0.456854 -7.30375e-11
-0.456854 13.8115 -6.07078e-11
-7.30375e-11 -6.07078e-11 13.8638

29.3732 -0.672005 -6.79187e-11
-0.672005 30.3888 -1.42594e-11
-6.79187e-11 -1.42594e-11 29.8418

29.1488 1.42304 2.73583e-11
1.42304 29.7313 -3.85246e-12
2.73583e-11 -3.85246e-12 29.7283

28.4147 0.0153522 -1.44047e-11
0.0153522 23.5147 1.46423e-11
-1.44047e-11 1.46423e-11 26.0305

29.2306 -0.449697 -6.04753e-11
-0.449697 29.4303 -5.87682e-11
-6.04753e-11 -5.87682e-11 29.618

29.1924 1.32848 -2.50991e-11
1.32848 29.794 2.6974e-11
-2.50991e-11 2.6974e-11 29.7281

33.988 1.4599 -5.3943e-12
1.4599 30.1996 5.51027e-11
-5.3943e-12 5.51027e-11 31.4175

33.7808 -1.78593 5.93432e-11
-1.78593 31.7979 2.4662e-11
5.93432e-11 2.4662e-11 31.5547

27.3833 -1.07618 3.42501e-11
-1.07618 27.5413 -2.83256e-11
3.42501e-11 -2.83256e-11 27.7526

27.3009 1.42313 1.75816e-11
1.42313 27.2026 3.26105e-11
1.75816e-11 3.26105e-11 27.7491

30.6393 -0.113647 1.27144e-11
-0.113647 34.5416 5.00816e-12
1.27144e-11 5.00816e-12 31.4231

30.4484 0.511527 -7.70865e-13
0.511527 32.2304 -2.04237e-11
-7.70865e-13 -2.04237e-11 31.0004

22.2698 -2.03344 -1.92694e-11
-2.03344 24.5899 -1.50301e-11
-1.92694e-11 -1.50301e-11 22.996

15.7466 0.214324 1.69564e-11
0.214324 17.8869 1.46483e-11
1.69564e-11 1.46483e-11 16.3527

17.7349 0.276186 -1.86938e-11
0.276186 15.9793 -2.96804e-11
-1.86938e-11 -2.96804e-11 16.3474

23.4615 1.06924 4.56657e-11
1.06924 27.6515 1.15726e-12
4.56657e-11 1.15726e-12 26.1659

24.6292 1.57016 3.85849e-13
1.57016 27.1989 3.42986e-11
3.85849e-13 3.42986e-11 26.1926

34.8775 -1.48891 2.72248e-12
-1.48891 32.2192 -7.45596e-11
2.72248e-12 -7.45596e-11 32.5371

34.6929 2.30948 -5.86718e-11
2.30948 37.3448 -5.54873e-11
-5.86718e-11 -5.54873e-11 33.5141

23.4241 1.43773 2.77481e-11
1.43773 22.6597 2.13873e-11
2.77481e-11 2.13873e-11 22.5262

25.9622 2.42866 2.4471e-11
2.42866 28.3974 4.24e-12
2.4471e-11 4.24e-12 27.528

27.057 0.922307 -4.33048e-11
0.922307 24.6569 -2.35097e-11
-4.33048e-11 -2.35097e-11 26.3028

27.1206 -0.732883 -1.43553e-11
-0.732883 24.674 -6.55128e-12
-1.43553e-11 -6.55128e-12 26.2438

26.0273 2.30648 2.81313e-11
2.30648 27.5754 5.39598e-12
2.81313e-11 5.39598e-12 27.2634

26.6333 -2.2763 -2.84197e-11
-2.2763 29.1193 -1.09821e-11
-2.84197e-11 -1.09821e-11 28.2875

30.0645 -1.94714 1.69578e-11
-1.94714 26.8488 1.92738e-12
1.69578e-11 1.92738e-12 28.7396

21.7697 -0.17375 -3.55521e-11
-0.17375 18.6436 -1.71505e-11
-3.55521e-11 -1.71505e-11 19.672

37.0309 0.271894 7.16682e-11
0.271894 35.602 8.09224e-11
7.16682e-11 8.09224e-11 33.3013

37.1548 -0.169052 2.92853e-11
-0.169052 32.5385 1.19449e-11
2.92853e-11 1.19449e-11 32.8868

24.301 1.76988 8.09264e-12
1.76988 23.5188 -6.74462e-12
8.09264e-12 -6.74462e-12 24.0064

27.0054 0.672593 5.39583e-12
0.672593 23.6614 -1.69574e-11
5.39583e-12 -1.69574e-11 25.225

20.3062 1.51021 -2.38927e-11
1.51021 20.9987 -3.47085e-12
-2.38927e-11 -3.47085e-12 19.7724

31.235 0.360083 -1.12714e-10
0.360083 32.3495 -2.67838e-11
-1.12714e-10 -2.67838e-11 31.4515

32.341 1.04613 1.5401e-12
1.04613 35.6351 -2.73605e-11
1.5401e-12 -2.73605e-11 32.1994

30.099 0.966216 -1.1573e-12
0.966216 26.5078 -3.60313e-11
-1.1573e-12 -3.60313e-11 28.9087

25.0257 -0.408998 1.44482e-12
-0.408998 28.8501 -1.15612e-11
1.44482e-12 -1.15612e-11 27.0843

26.5808 -0.875058 -7.99558e-12
-0.875058 28.1558 -2.81317e-11
-7.99558e-12 -2.81317e-11 27.2088

28.8771 0.281006 -4.07785e-11
0.281006 24.1662 -1.11786e-11
-4.07785e-11 -1.11786e-11 26.9925

29.0223 -0.218706 -1.79925e-11
-0.218706 24.1253 1.19452e-11
-1.79925e-11 1.19452e-11 26.9732

20.969 -1.51411 -2.28353e-11
-1.51411 20.2646 4.60551e-11
-2.28353e-11 4.60551e-11 19.6017

25.729 0.00456577 1.17073e-11
0.00456577 21.6544 8.0932e-12
1.17073e-11 8.0932e-12 23.3066

29.5363 -0.245137 1.06215e-11
-0.245137 26.1234 -3.3719e-11
1.06215e-11 -3.3719e-11 28.269

29.1458 0.499053 9.05561e-12
0.499053 26.4578 -4.62504e-12
9.05561e-12 -4.62504e-12 28.2907

27.1207 -0.629493 -1.43555e-11
-0.629493 24.0676 2.83255e-11
-1.43555e-11 2.83255e-11 25.2677

22.7754 -1.79516 -2.79401e-11
-1.79516 24.848 -3.66127e-11
-2.79401e-11 -3.66127e-11 23.3228

29.3879 -0.14328 5.15458e-12
-0.14328 25.5266 3.85288e-12
5.15458e-12 3.85288e-12 27.4532

29.1499 0.320931 -2.75048e-11
0.320931 25.4123 -3.91139e-11
-2.75048e-11 -3.91139e-11 27.441

26.659 0.731587 4.04484e-12
0.731587 23.75 9.05774e-12
4.04484e-12 9.05774e-12 25.482

21.1667 -2.28467 4.12373e-11
-2.28467 20.8644 1.19457e-11
4.12373e-11 1.19457e-11 20.7436

24.9788 2.20374 1.65725e-11
2.20374 27.0043 5.97335e-11
1.65725e-11 5.97335e-11 27.0537

26.1683 2.16559 2.89065e-12
2.16559 28.7386 2.25449e-11
2.89065e-12 2.25449e-11 27.7674

24.7697 1.6338 -1.76307e-11
1.6338 27.2289 -1.00204e-11
-1.76307e-11 -1.00204e-11 27.2564

23.8268 0.797188 -2.21601e-12
0.797188 20.3144 3.08307e-11
-2.21601e-12 3.08307e-11 21.6969

18.6636 -1.57568 6.9403e-12
-1.57568 17.2813 -1.04062e-11
6.9403e-12 -1.04062e-11 17.3152

26.912 1.33095 -2.19675e-11
1.33095 25.0653 -3.6996e-11
-2.19675e-11 -3.6996e-11 26.5329

26.5675 -1.41791 2.58213e-11
-1.41791 23.662 -3.314e-11
2.58213e-11 -3.314e-11 25.1414

18.9493 -1.36552 7.682e-13
-1.36552 17.1945 4.62621e-12
7.682e-13 4.62621e-12 17.4325

24.4309 -2.27657 -2.56291e-11
-2.27657 22.9052 2.04241e-11
-2.56291e-11 2.04241e-11 23.791

24.1414 0.0582215 -2.17738e-11
0.0582215 26.7517 -6.16659e-12
-2.17738e-11 -6.16659e-12 25.8862

23.0756 0.000254361 -8.47807e-12
0.000254361 28.1716 -2.35086e-11
-8.47807e-12 -2.35086e-11 26.0266

21.6386 1.94084 1.06013e-11
1.94084 21.8098 4.4899e-11
1.06013e-11 4.4899e-11 21.3471

20.3453 -1.61576 -1.00177e-11
-1.61576 18.0819 -2.38934e-11
-1.00177e-11 -2.38934e-11 18.6036

25.9444 -2.36252 -4.50899e-11
-2.36252 26.757 2.89049e-11
-4.50899e-11 2.89049e-11 27.0912

21.6817 -2.11154 -2.85195e-11
-2.11154 22.7711 -1.52223e-11
-2.85195e-11 -1.52223e-11 21.5444

21.3947 -2.1351 1.73421e-11
-2.1351 22.3548 1.50321e-11
1.73421e-11 1.50321e-11 21.3743

26.3766 1.09222 1.4065e-11
1.09222 24.3199 -5.58575e-12
1.4065e-11 -5.58575e-12 25.3541

29.9031 0.690503 -3.46897e-12
0.690503 23.719 -2.13868e-11
-3.46897e-12 -2.13868e-11 28.223

29.6917 -1.08774 -5.39346e-12
-1.08774 24.5486 -4.20041e-11
-5.39346e-12 -4.20041e-11 28.1977

20.9233 1.21352 -9.82676e-12
1.21352 23.686 -2.50544e-12
-9.82676e-12 -2.50544e-12 21.8842

20.208 0.828461 1.5318e-11
0.828461 24.0548 -5.39528e-12
1.5318e-11 -5.39528e-12 21.9489

17.9477 -0.175991 2.50514e-11
-0.175991 21.6025 2.35102e-11
2.50514e-11 2.35102e-11 19.2065

17.5042 -0.23449 7.12961e-12
-0.23449 21.7294 -2.11969e-11
7.12961e-12 -2.11969e-11 19.1952

21.5353 -0.154949 6.26055e-12
-0.154949 17.5487 1.75379e-11
6.26055e-12 1.75379e-11 18.9363

22.2261 -1.9245 1.55128e-11
-1.9245 21.1075 -6.16729e-12
1.55128e-11 -6.16729e-12 21.273

31.8 -1.42039 4.23872e-11
-1.42039 33.9488 -9.15213e-11
4.23872e-11 -9.15213e-11 32.1616

37.8225 -0.564717 -1.23113e-10
-0.564717 37.8389 5.47177e-11
-1.23113e-10 5.47177e-11 33.9727

22.7638 1.35672 2.11831e-12
1.35672 20.4873 -2.15824e-11
2.11831e-12 -2.15824e-11 21.3066

24.1129 -0.92471 3.78649e-11
-0.92471 20.5178 -1.54166e-11
3.78649e-11 -1.54166e-11 21.9046

19.1112 0.847988 -1.05998e-11
0.847988 17.1537 -4.04702e-12
-1.05998e-11 -4.04702e-12 17.5667

23.4664 1.39152 1.57047e-11
1.39152 26.3507 3.47015e-12
1.57047e-11 3.47015e-12 25.6168

28.4145 0.0232346 3.80547e-12
0.0232346 23.5431 6.35776e-12
3.80547e-12 6.35776e-12 26.0047

26.506 2.12214 4.43087e-12
2.12214 28.9963 -1.8883e-11
4.43087e-12 -1.8883e-11 28.3088

24.9153 1.6859 -1.55104e-11
1.6859 29.3036 3.85325e-12
-1.55104e-11 3.85325e-12 28.1792

19.6519 1.09187 6.26181e-12
1.09187 20.8287 7.8002e-12
6.26181e-12 7.8002e-12 19.5448

20.378 1.21524 1.24338e-11
1.21524 20.0491 3.08313e-12
1.24338e-11 3.08313e-12 19.3776

25.6493 -2.56354 -4.19092e-11
-2.56354 28.1593 2.77487e-11
-4.19092e-11 2.77487e-11 27.2272

19.2839 0.685157 5.77975e-12
0.685157 17.2088 -4.89446e-11
5.77975e-12 -4.89446e-11 17.6818

24.7671 1.89351 -7.2725e-12
1.89351 26.6748 8.47768e-12
-7.2725e-12 8.47768e-12 27.2338

24.6034 2.30827 3.25639e-11
2.30827 26.7638 -2.31134e-12
3.25639e-11 -2.31134e-12 25.7254

30.026 -0.0327559 -1.71494e-11
-0.0327559 24.2505 -1.1561e-11
-1.71494e-11 -1.1561e-11 27.5875

25.4384 -1.74913 5.97463e-12
-1.74913 26.8249 -7.32181e-12
5.97463e-12 -7.32181e-12 27.3561

24.5077 1.88796 2.60123e-11
1.88796 24.6312 2.60126e-11
2.60123e-11 2.60126e-11 24.4108

20.2207 -0.925031 2.89032e-11
-0.925031 22.7959 -1.38759e-11
2.89032e-11 -1.38759e-11 20.6242

19.4628 -0.880829 -6.57088e-11
-0.880829 22.7842 5.16456e-11
-6.57088e-11 5.16456e-11 20.5057

22.4057 -0.656086 -1.61841e-11
-0.656086 19.7661 -2.48542e-11
-1.61841e-11 -2.48542e-11 20.2282

22.7787 -1.72842 1.53988e-12
-1.72842 23.0334 8.67129e-12
1.53988e-12 8.67129e-12 22.2072

22.355 -0.113753 -3.9499e-11
-0.113753 26.3236 1.69559e-11
-3.9499e-11 1.69559e-11 24.1848

23.6899 -0.0163203 -1.38744e-11
-0.0163203 26.0308 -3.21785e-11
-1.38744e-11 -3.21785e-11 24.2997

18.9386 -1.85097 -1.04059e-11
-1.85097 19.7892 3.39168e-11
-1.04059e-11 3.39168e-11 18.6163

18.4174 -1.79877 -4.35545e-11
-1.79877 20.0823 4.97179e-11
-4.35545e-11 4.97179e-11 18.6482

30.0591 -0.0919933 -1.33681e-11
-0.0919933 24.6728 -2.50481e-11
-1.33681e-11 -2.50481e-11 27.7123

30.1977 0.0955192 3.68544e-12
0.0955192 24.6021 -2.19655e-11
3.68544e-12 -2.19655e-11 27.7025

24.3467 1.76421 -1.43549e-11
1.76421 26.054 2.08109e-11
-1.43549e-11 2.08109e-11 25.9608

24.885 -1.48685 2.71683e-11
-1.48685 29.0515 -2.31185e-12
2.71683e-11 -2.31185e-12 28.064

26.6822 -2.28562 -1.96532e-11
-2.28562 25.4126 -3.08292e-11
-1.96532e-11 -3.08292e-11 26.4472

28.6093 0.870274 9.11862e-11
0.870274 27.6737 3.57432e-11
9.11862e-11 3.57432e-11 28.6365

28.9795 -0.263963 -1.01688e-10
-0.263963 28.1148 -2.823e-11
-1.01688e-10 -2.823e-11 28.7441

27.5468 -0.952451 2.74588e-12
-0.952451 26.4965 6.55037e-12
2.74588e-12 6.55037e-12 26.8468

27.3153 1.14673 -1.5559e-11
1.14673 25.7788 -1.54295e-12
-1.5559e-11 -1.54295e-12 26.7384

12.5429 -0.958152 -7.90055e-12
-0.958152 10.4482 -3.31472e-11
-7.90055e-12 -3.31472e-11 13.0488

21.2259 1.81787 -1.22365e-11
1.81787 22.3687 -7.72456e-13
-1.22365e-11 -7.72456e-13 21.4279

11.2537 0.661524 -1.14667e-10
0.661524 12.6287 -2.23573e-11
-1.14667e-10 -2.23573e-11 13.2169

24.8621 2.04545 3.66107e-12
2.04545 26.0094 -5.39602e-12
3.66107e-12 -5.39602e-12 25.5963

21.1189 -1.43287 3.24687e-11
-1.43287 24.1909 -1.92708e-11
3.24687e-11 -1.92708e-11 22.1798

20.2613 -1.27737 -3.41063e-11
-1.27737 24.009 -6.93693e-12
-3.41063e-11 -6.93693e-12 22.0046

31.8708 -0.43891 -3.66935e-11
-0.43891 31.3589 7.14819e-11
-3.66935e-11 7.14819e-11 31.2713

31.1747 1.20531 -4.68313e-11
1.20531 32.5112 3.08178e-12
-4.68313e-11 3.08178e-12 31.3737

25.1031 1.3567 3.14118e-11
1.3567 24.0529 2.04263e-11
3.14118e-11 2.04263e-11 24.5361

25.7821 -0.137956 8.09234e-12
-0.137956 21.8649 3.4686e-12
8.09234e-12 3.4686e-12 23.3547

22.1168 1.52027 -3.04442e-11
1.52027 20.7101 -4.85596e-11
-3.04442e-11 -4.85596e-11 21.1268

23.6446 -0.877681 2.71673e-11
-0.877681 28.1185 -2.35085e-11
2.71673e-11 -2.35085e-11 26.276

24.6938 -1.44756 1.23327e-11
-1.44756 27.2775 -1.88833e-11
1.23327e-11 -1.88833e-11 26.2462

25.9052 -2.6303 1.4932e-12
-2.6303 29.1796 -1.73435e-12
1.4932e-12 -1.73435e-12 27.7197

25.2574 -1.46108 -1.65699e-11
-1.46108 24.6938 -1.54152e-11
-1.65699e-11 -1.54152e-11 24.6154

25.6963 2.44896 -7.12914e-12
2.44896 28.3454 -1.23319e-11
-7.12914e-12 -1.23319e-11 27.4879

28.8133 1.13129 -1.00197e-11
1.13129 30.4266 -5.78648e-13
-1.00197e-11 -5.78648e-13 29.5385

28.8578 1.71403 -3.21778e-11
1.71403 29.7375 -8.28593e-12
-3.21778e-11 -8.28593e-12 29.3886

24.9049 -2.30253 9.24845e-12
-2.30253 27.5935 1.63793e-11
9.24845e-12 1.63793e-11 26.2364

25.0895 2.09095 -1.90747e-11
2.09095 27.0927 3.46636e-12
-1.90747e-11 3.46636e-12 26.1292

23.4816 2.63423 1.31015e-11
2.63423 27.1569 -3.19864e-11
1.31015e-11 -3.19864e-11 27.0448

21.1961 0.24741 1.64768e-11
0.24741 25.7411 -1.54103e-12
1.64768e-11 -1.54103e-12 23.4602

21.9302 0.573567 7.12891e-12
0.573567 25.1314 -3.04478e-11
7.12891e-12 -3.04478e-11 23.3537

25.3011 1.62372 -2.82265e-11
1.62372 25.0235 -1.19492e-11
-2.82265e-11 -1.19492e-11 25.6313

22.6483 1.36505 -2.57235e-11
1.36505 22.4805 -8.47833e-12
-2.57235e-11 -8.47833e-12 22.1758

22.6209 -1.41444 1.3489e-11
-1.41444 25.9136 -1.19465e-11
1.3489e-11 -1.19465e-11 24.583

26.5823 -2.47253 7.322e-12
-2.47253 29.2836 -4.04713e-12
7.322e-12 -4.04713e-12 28.2839

15.0244 0.819029 4.18168e-11
0.819029 16.1883 9.63533e-12
4.18168e-11 9.63533e-12 15.1501

15.9272 0.853868 7.86239e-11
0.853868 15.2605 -8.47942e-12
7.86239e-11 -8.47942e-12 15.1471

19.5272 -1.82901 3.23707e-11
-1.82901 19.9802 7.68866e-13
3.23707e-11 7.68866e-13 19.0804

25.3923 -1.69927 -4.58591e-11
-1.69927 25.6068 3.27712e-12
-4.58591e-11 3.27712e-12 25.6632

26.7546 -0.507142 -4.81803e-12
-0.507142 22.6674 -1.42586e-11
-4.81803e-12 -1.42586e-11 24.7698

33.9826 1.84241 -2.98631e-13
1.84241 35.007 3.00574e-11
-2.98631e-13 3.00574e-11 32.8456

35.4491 -2.00608 -5.91236e-11
-2.00608 32.5521 -1.0423e-10
-5.91236e-11 -1.0423e-10 32.6532

24.6761 -2.51431 -2.30253e-11
-2.51431 27.2709 8.47903e-12
-2.30253e-11 8.47903e-12 25.9621

31.0267 0.466445 -4.6253e-12
0.466445 29.9413 3.85356e-11
-4.6253e-12 3.85356e-11 30.597

31.7723 -1.90983 2.11908e-11
-1.90983 31.8382 -8.47893e-12
2.11908e-11 -8.47893e-12 30.9909

26.8761 -0.66384 2.31235e-11
-0.66384 23.1868 1.04046e-11
2.31235e-11 1.04046e-11 25.6355

23.9897 -2.6102 1.32961e-11
-2.6102 27.0352 -1.50297e-11
1.32961e-11 -1.50297e-11 27.0595

15.7673 -1.5975 8.47981e-12
-1.5975 16.4527 2.08132e-11
8.47981e-12 2.08132e-11 15.7356

16.3594 1.16466 4.818e-12
1.16466 16.297 3.08794e-12
4.818e-12 3.08794e-12 15.8635

16.2873 -0.951914 2.69798e-11
-0.951914 18.5846 -1.25259e-11
2.69798e-11 -1.25259e-11 16.8365

16.6291 -1.04455 5.00759e-12
-1.04455 18.8679 1.58006e-11
5.00759e-12 1.58006e-11 17.1391

18.7959 -0.792768 -2.6304e-11
-0.792768 16.3036 -5.68483e-11
-2.6304e-11 -5.68483e-11 16.8443

20.1036 1.41314 -1.71514e-11
1.41314 19.8202 -2.56296e-11
-1.71514e-11 -2.56296e-11 19.2999

25.6554 -2.79616 3.47797e-11
-2.79616 28.8075 -2.33162e-11
3.47797e-11 -2.33162e-11 27.5287

14.7769 0.142191 -1.65727e-11
0.142191 17.6671 1.27189e-11
-1.65727e-11 1.27189e-11 15.8005

17.4427 -0.423404 4.76007e-11
-0.423404 14.6865 -5.12591e-11
4.76007e-11 -5.12591e-11 15.789

30.1241 0.218679 -3.31384e-11
0.218679 33.0364 1.69537e-11
-3.31384e-11 1.69537e-11 30.8053

29.9923 -1.1378 -1.86907e-11
-1.1378 31.0736 7.41833e-12
-1.86907e-11 7.41833e-12 30.4354

28.4662 -1.30458 -1.44528e-11
-1.30458 25.7518 3.23691e-11
-1.44528e-11 3.23691e-11 27.2705

28.3524 -0.0815202 9.24886e-12
-0.0815202 22.1227 3.35263e-11
9.24886e-12 3.35263e-11 26.9944

18.7601 -1.4022 -2.89065e-11
-1.4022 21.3557 6.32075e-11
-2.89065e-11 6.32075e-11 19.7179

19.4375 -1.39867 -8.76773e-12
-1.39867 21.803 -3.10257e-11
-8.76773e-12 -3.10257e-11 19.9791

27.1785 -0.0775962 2.73609e-11
-0.0775962 23.122 1.57991e-11
2.73609e-11 1.57991e-11 25.7787

23.3416 -1.92216 -1.92605e-13
-1.92216 26.182 1.17546e-11
-1.92605e-13 1.17546e-11 24.7389

31.1585 0.0301355 3.70663e-11
0.0301355 30.206 -1.86891e-11
3.70663e-11 -1.86891e-11 30.5308

30.397 0.573898 7.51364e-12
0.573898 30.7487 -1.00175e-11
7.51364e-12 -1.00175e-11 30.5099

27.4374 -1.81055 9.2479e-12
-1.81055 26.2186 -6.16392e-12
9.2479e-12 -6.16392e-12 26.9868

24.6171 -1.84959 4.62278e-12
-1.84959 25.8639 1.19475e-11
4.62278e-12 1.19475e-11 25.8506

27.91 -1.30035 -2.56279e-11
-1.30035 23.7779 -4.16187e-11
-2.56279e-11 -4.16187e-11 26.442

23.9133 -1.6288 -2.35087e-11
-1.6288 26.3824 -1.81138e-11
-2.35087e-11 -1.81138e-11 25.7125

12.6293 -3.10181 -1.85014e-11
-3.10181 12.9302 9.63535e-12
-1.85014e-11 9.63535e-12 12.9198

22.2441 -0.714401 3.21784e-11
-0.714401 25.1186 5.39394e-12
3.21784e-11 5.39394e-12 23.4545

21.4729 -0.538072 -2.85178e-11
-0.538072 25.7305 1.42589e-11
-2.85178e-11 1.42589e-11 23.5043

29.7854 -0.26277 -3.66015e-12
-0.26277 34.2975 -3.08335e-12
-3.66015e-12 -3.08335e-12 31.0765

30.1566 -0.310663 -5.20439e-12
-0.310663 30.8946 3.34296e-11
-5.20439e-12 3.34296e-11 30.5617

30.6551 -0.174364 2.26892e-11
-0.174364 25.5111 -3.73793e-11
2.26892e-11 -3.73793e-11 28.5201

30.2615 0.086435 9.68257e-12
0.086435 25.7033 -6.55074e-12
9.68257e-12 -6.55074e-12 28.502

28.2297 1.35763 -1.40658e-11
1.35763 27.4253 4.81752e-12
-1.40658e-11 4.81752e-12 28.3851

28.7507 -2.4374 1.15596e-11
-2.4374 27.2585 8.09168e-12
1.15596e-11 8.09168e-12 28.2973

31.1614 0.484804 -9.634e-12
0.484804 30.9043 2.31138e-12
-9.634e-12 2.31138e-12 30.6178

32.1756 -0.869079 1.92674e-11
-0.869079 30.9465 -1.1949e-11
1.92674e-11 -1.1949e-11 30.7387

33.1775 -0.949933 7.59441e-11
-0.949933 32.1177 -1.85156e-10
7.59441e-11 -1.85156e-10 31.9738

33.4629 2.8529 3.72031e-11
2.8529 34.7038 1.1483e-10
3.72031e-11 1.1483e-10 32.5502

26.7792 -2.51864 1.09356e-11
-2.51864 29.4247 -3.10226e-11
1.09356e-11 -3.10226e-11 28.4792

25.5397 3.11786 -6.89295e-11
3.11786 27.6206 6.93178e-12
-6.89295e-11 6.93178e-12 28.0869

24.8293 1.25895 1.29105e-11
1.25895 22.7897 -1.61866e-11
1.29105e-11 -1.61866e-11 23.914

23.0049 -1.07426 6.55255e-12
-1.07426 26.5039 -2.73632e-11
6.55255e-12 -2.73632e-11 24.9075

24.2617 -1.63 4.81728e-11
-1.63 26.5885 -6.74427e-12
4.81728e-11 -6.74427e-12 25.0937

24.9472 -1.32408 2.16787e-11
-1.32408 23.1538 -3.65874e-12
2.16787e-11 -3.65874e-12 23.9659

24.1693 1.22706 1.38245e-11
1.22706 26.2518 -3.10246e-11
1.38245e-11 -3.10246e-11 24.9157

22.9809 0.723805 5.61684e-11
0.723805 26.5916 9.63559e-12
5.61684e-11 9.63559e-12 24.889

23.4874 1.73969 -1.53992e-12
1.73969 23.4032 3.35272e-11
-1.53992e-12 3.35272e-11 23.5402

27.1489 2.08929 -4.68209e-11
2.08929 28.9136 1.04035e-11
-4.68209e-11 1.04035e-11 28.5507

26.7293 -2.79215 2.73611e-11
-2.79215 27.8588 -3.08403e-12
2.73611e-11 -3.08403e-12 28.2941

23.7745 -2.13035 5.03912e-11
-2.13035 23.9521 -3.16038e-11
5.03912e-11 -3.16038e-11 23.6173

28.7638 0.616884 -6.74227e-12
0.616884 26.1081 -2.00396e-11
-6.74227e-12 -2.00396e-11 27.7134

37.7208 -0.942527 1.52184e-11
-0.942527 37.1834 5.12488e-11
1.52184e-11 5.12488e-11 33.7876

32.1373 0.574108 -8.34269e-11
0.574108 32.6831 8.77618e-11
-8.34269e-11 8.77618e-11 31.9519

26.2724 -2.11249 -3.20818e-11
-2.11249 28.3539 1.02137e-11
-3.20818e-11 1.02137e-11 27.294

26.9321 -2.0919 2.31206e-11
-2.0919 24.7002 5.08705e-11
2.31206e-11 5.08705e-11 26.1864

31.1239 -0.180344 3.31426e-11
-0.180344 28.8488 -1.38712e-11
3.31426e-11 -1.38712e-11 29.7704

15.6839 -1.46856 2.37022e-11
-1.46856 16.2501 8.4021e-11
2.37022e-11 8.4021e-11 15.3925

16.3908 -1.31074 -5.54968e-11
-1.31074 15.4927 -4.8273e-11
-5.54968e-11 -4.8273e-11 15.4151

31.0297 0.145324 6.91188e-12
0.145324 26.5677 5.77853e-13
6.91188e-12 5.77853e-13 29.0739

30.286 -0.113932 -1.1633e-11
-0.113932 26.7574 5.39502e-12
-1.1633e-11 5.39502e-12 28.9769

31.2018 -0.0280652 -2.4279e-11
-0.0280652 27.6607 5.00988e-12
-2.4279e-11 5.00988e-12 29.7048

24.2672 0.891256 -4.67119e-12
0.891256 21.7293 -4.23944e-11
-4.67119e-12 -4.23944e-11 22.4578

27.5644 -1.34453 4.39753e-11
-1.34453 28.6001 2.6205e-11
4.39753e-11 2.6205e-11 28.0758

27.2864 1.63344 1.36832e-11
1.63344 27.3292 1.54114e-12
1.36832e-11 1.54114e-12 27.8753

34.8818 -1.49596 1.88853e-11
-1.49596 31.5446 -7.69764e-11
1.88853e-11 -7.69764e-11 32.3199

36.6256 -0.159324 -5.20193e-11
-0.159324 38.1979 -1.0576e-10
-5.20193e-11 -1.0576e-10 33.8073

25.012 -2.37278 -2.86143e-11
-2.37278 27.9181 3.46846e-11
-2.86143e-11 3.46846e-11 26.7656

26.2167 -1.6644 2.83249e-11
-1.6644 23.6684 1.88839e-11
2.83249e-11 1.88839e-11 24.9402

29.6717 0.363829 2.35325e-11
0.363829 28.2926 6.58956e-11
2.35325e-11 6.58956e-11 29.0528

30.0797 0.0591264 8.81288e-12
0.0591264 27.9952 5.74178e-11
8.81288e-12 5.74178e-11 29.0389

25.1701 -0.953727 -3.39138e-11
-0.953727 28.0554 2.8517e-11
-3.39138e-11 2.8517e-11 27.1336

24.8545 -1.74896 1.0406e-11
-1.74896 26.9724 -3.41059e-11
1.0406e-11 -3.41059e-11 27.1542

13.2247 2.62346 5.49238e-11
2.62346 12.8069 -3.37238e-11
5.49238e-11 -3.37238e-11 13.0851

28.1849 1.40013 -5.89597e-11
1.40013 29.9147 -1.75352e-11
-5.89597e-11 -1.75352e-11 29.307

28.0719 -1.82218 1.88819e-11
-1.82218 29.6358 1.54134e-11
1.88819e-11 1.54134e-11 29.1776

24.2546 -1.65467 -2.83236e-11
-1.65467 27.3301 1.46437e-11
-2.83236e-11 1.46437e-11 26.6651

24.6779 -1.11563 2.08098e-11
-1.11563 22.3701 -8.6738e-12
2.08098e-11 -8.6738e-12 22.7633

27.4391 1.21314 -1.32938e-11
1.21314 27.0442 2.00375e-11
-1.32938e-11 2.00375e-11 27.3186

28.5447 1.27416 5.39624e-12
1.27416 28.7573 2.48554e-11
5.39624e-12 2.48554e-11 28.7825

29.2529 -1.96261 1.8111e-11
-1.96261 27.6035 2.50506e-11
1.8111e-11 2.50506e-11 28.6277

28.1438 0.489782 -3.50701e-11
0.489782 23.9249 1.40654e-11
-3.50701e-11 1.40654e-11 26.8199

30.9325 -0.226777 3.68552e-12
-0.226777 29.5585 -1.15593e-12
3.68552e-12 -1.15593e-12 30.1761

31.5037 0.35526 1.68338e-13
0.35526 28.7803 3.42956e-11
1.68338e-13 3.42956e-11 30.127

32.6441 0.651204 9.0546e-12
0.651204 37.0127 6.16554e-11
9.0546e-12 6.16554e-11 32.6194

31.8488 0.12341 9.90316e-11
0.12341 34.4461 -5.98247e-11
9.90316e-11 -5.98247e-11 32.1024

12.9806 -0.670954 1.83083e-11
-0.670954 11.2643 1.27208e-11
1.83083e-11 1.27208e-11 13.2969

10.6083 -0.445643 -3.02567e-11
-0.445643 13.1537 2.35124e-11
-3.02567e-11 2.35124e-11 13.1964

26.4794 -2.0888 -1.90766e-11
-2.0888 29.0071 6.95605e-11
-1.90766e-11 6.95605e-11 27.7712

26.0416 1.81148 -3.72857e-11
1.81148 27.1849 4.12322e-11
-3.72857e-11 4.12322e-11 27.495

25.757 -2.79635 1.27171e-11
-2.79635 28.8191 -2.3127e-12
1.27171e-11 -2.3127e-12 27.495

12.7229 0.715412 5.9356e-11
0.715412 12.6209 1.9851e-11
5.9356e-11 1.9851e-11 13.3488

12.9396 1.07874 -5.80077e-11
1.07874 12.2319 -4.06623e-11
-5.80077e-11 -4.06623e-11 13.3278

29.6361 2.28595 2.07556e-10
2.28595 36.922 -3.19908e-11
2.07556e-10 -3.19908e-11 32.4254

32.1258 -1.80514 2.37935e-11
-1.80514 35.5673 2.8906e-12
2.37935e-11 2.8906e-12 32.655

26.286 1.689 -2.10029e-11
1.689 26.3599 -7.90074e-12
-2.10029e-11 -7.90074e-12 26.6725

23.9558 -2.01485 4.52814e-11
-2.01485 25.147 -8.09438e-12
4.52814e-11 -8.09438e-12 24.276

26.0696 -2.00183 -5.92607e-12
-2.00183 27.5912 1.02132e-11
-5.92607e-12 1.02132e-11 27.1321

25.948 2.01541 -4.74986e-11
2.01541 26.7096 8.8601e-12
-4.74986e-11 8.8601e-12 27.0721

24.5229 -2.33753 1.32935e-11
-2.33753 26.3894 3.16012e-11
1.32935e-11 3.16012e-11 25.4774

23.6725 1.62462 1.97494e-11
1.62462 24.5475 3.12185e-11
1.97494e-11 3.12185e-11 24.2003

16.2924 -0.852061 1.65687e-11
-0.852061 18.8439 1.58011e-11
1.65687e-11 1.58011e-11 17.1056

16.8092 -0.732674 -5.58834e-12
-0.732674 18.8607 1.09835e-11
-5.58834e-12 1.09835e-11 17.1318

18.9544 -0.596308 -2.41841e-11
-0.596308 16.5442 1.92846e-12
-2.41841e-11 1.92846e-12 17.032

24.1082 1.8231 -4.72146e-12
1.8231 25.5476 -1.54144e-11
-4.72146e-12 -1.54144e-11 25.3474

14.8118 -0.0939039 2.56282e-11
-0.0939039 17.5482 4.12424e-11
2.56282e-11 4.12424e-11 15.8189

17.4384 0.18691 -2.63055e-11
0.18691 15.1072 1.07908e-11
-2.63055e-11 1.07908e-11 15.8058

27.3883 -1.91127 2.65414e-11
-1.91127 29.2301 2.90943e-11
2.65414e-11 2.90943e-11 28.588

27.2409 2.32211 -1.68606e-11
2.32211 27.814 5.08688e-11
-1.68606e-11 5.08688e-11 28.4241

27.7589 -1.52166 2.84028e-12
-1.52166 29.5094 4.60506e-11
2.84028e-12 4.60506e-11 28.858

27.6612 2.05371 4.69669e-11
2.05371 28.9984 -2.8128e-11
4.69669e-11 -2.8128e-11 28.837

12.1609 -1.36905 -3.02578e-11
-1.36905 12.3643 3.46885e-12
-3.02578e-11 3.46885e-12 13.0483

12.1399 -1.33476 3.98959e-11
-1.33476 12.5082 -4.97178e-11
3.98959e-11 -4.97178e-11 13.0978

25.5636 1.70036 -1.84041e-11
1.70036 25.94 4.81708e-11
-1.84041e-11 4.81708e-11 26.1841

25.7775 -1.84503 -4.43194e-11
-1.84503 27.1252 2.31214e-11
-4.43194e-11 2.31214e-11 26.33

31.3241 -0.481539 -5.58716e-12
-0.481539 33.4784 1.92781e-12
-5.58716e-12 1.92781e-12 31.345

30.7686 -0.57673 1.10402e-10
-0.57673 31.2406 -8.95889e-12
1.10402e-10 -8.95889e-12 30.8984

27.4841 -1.98933 4.40265e-11
-1.98933 30.5108 -3.8544e-12
4.40265e-11 -3.8544e-12 29.1904

26.7136 2.12717 -5.04811e-11
2.12717 29.5728 2.19628e-11
-5.04811e-11 2.19628e-11 28.9869

30.6297 -0.0258858 2.8516e-11
-0.0258858 28.2521 -1.92635e-12
2.8516e-11 -1.92635e-12 29.8096

29.8715 0.450991 6.33475e-12
0.450991 28.6024 2.85179e-11
6.33475e-12 2.85179e-11 29.7485

26.7276 1.89142 6.74346e-12
1.89142 28.0785 1.17546e-11
6.74346e-12 1.17546e-11 27.6911

26.7987 -2.00368 -5.14459e-11
-2.00368 26.8695 3.584e-11
-5.14459e-11 3.584e-11 27.3781

30.502 -0.826647 -3.15979e-11
-0.826647 33.2137 1.01349e-10
-3.15979e-11 1.01349e-10 31.3304

32.4279 0.804861 -3.12126e-11
0.804861 31.3552 3.85333e-12
-3.12126e-11 3.85333e-12 31.3818

34.1498 -1.958 -6.93429e-12
-1.958 32.6936 -4.23675e-12
-6.93429e-12 -4.23675e-12 31.8644

30.9161 -0.344738 -5.33708e-11
-0.344738 35.4548 4.77822e-11
-5.33708e-11 4.77822e-11 31.7621

31.69 0.551409 3.61507e-11
0.551409 31.1629 3.74025e-11
3.61507e-11 3.74025e-11 31.1561

30.9761 0.0704817 1.76775e-10
0.0704817 33.2917 -6.39689e-11
1.76775e-10 -6.39689e-11 31.7706

32.7164 -0.602695 3.69698e-11
-0.602695 30.6145 9.62291e-12
3.69698e-11 9.62291e-12 31.2511

32.896 -0.222197 1.9232e-11
-0.222197 31.7578 -1.98453e-11
1.9232e-11 -1.98453e-11 31.846

31.4236 -1.08957 -1.80956e-10
-1.08957 32.5276 1.50478e-10
-1.80956e-10 1.50478e-10 31.5476

32.8269 2.62638 -1.54612e-10
2.62638 35.0758 -1.86513e-10
-1.54612e-10 -1.86513e-10 32.3618

39.5072 0.755319 -2.06791e-10
0.755319 38.9595 2.64326e-10
-2.06791e-10 2.64326e-10 34.809

40.4452 -1.25537 3.00083e-10
-1.25537 30.6286 -9.90399e-11
3.00083e-10 -9.90399e-11 33.3461

32.0984 -1.41689 1.26682e-11
-1.41689 31.9534 2.65902e-11
1.26682e-11 2.65902e-11 31.4178

29.8197 -1.04155 1.20411e-11
-1.04155 31.5904 5.00948e-12
1.20411e-11 5.00948e-12 30.4485

33.0516 2.45067 7.13133e-14
2.45067 32.2098 -2.235e-11
7.13133e-14 -2.235e-11 31.6951

29.923 1.37368 3.46823e-11
1.37368 30.7347 -1.53955e-12
3.46823e-11 -1.53955e-12 30.3692

33.7527 2.80551 2.97014e-11
2.80551 36.1947 -1.09439e-10
2.97014e-11 -1.09439e-10 32.9772

32.8381 -0.301567 -1.05227e-11
-0.301567 32.1766 5.68388e-11
-1.05227e-11 5.68388e-11 31.9951

29.7262 -0.927194 1.11275e-11
-0.927194 31.1661 -6.45472e-11
1.11275e-11 -6.45472e-11 30.5033

31.9782 -0.556046 3.84283e-11
-0.556046 31.8998 -5.93439e-11
3.84283e-11 -5.93439e-11 31.4639

30.3779 2.29813 6.85882e-11
2.29813 31.7147 1.93071e-12
6.85882e-11 1.93071e-12 30.7867

31.099 1.52344 -3.39372e-11
1.52344 32.5238 -7.32233e-12
-3.39372e-11 -7.32233e-12 31.4273

25.1647 0.536753 -2.48559e-11
0.536753 28.9778 -3.08464e-12
-2.48559e-11 -3.08464e-12 27.2933

29.1982 -0.20917 -4.81703e-12
-0.20917 30.2816 -1.38744e-11
-4.81703e-12 -1.38744e-11 29.4185

26.7899 0.513852 -1.50306e-11
0.513852 22.5621 1.27167e-11
-1.50306e-11 1.27167e-11 24.5992

25.6474 0.123795 -1.32493e-11
0.123795 21.7337 1.00191e-11
-1.32493e-11 1.00191e-11 23.1595

25.8099 0.608055 -2.40841e-11
0.608055 30.8684 -1.50302e-11
-2.40841e-11 -1.50302e-11 28.7592

29.7762 0.154857 1.5029e-11
0.154857 31.3363 -1.93633e-11
1.5029e-11 -1.93633e-11 30.9043

25.7956 -0.198648 -6.7261e-13
-0.198648 21.8105 -1.04059e-11
-6.7261e-13 -1.04059e-11 23.3302

29.7013 -0.1182 7.20144e-12
-0.1182 25.0445 -1.15608e-11
7.20144e-12 -1.15608e-11 27.6241

17.6076 -1.19054 -1.6573e-11
-1.19054 20.2437 -4.62608e-12
-1.6573e-11 -4.62608e-12 18.4306

19.2436 1.92841 1.34846e-12
1.92841 21.3015 2.21613e-11
1.34846e-12 2.21613e-11 19.364

20.2638 1.82549 1.90798e-11
1.82549 18.29 -1.19488e-11
1.90798e-11 -1.19488e-11 18.7755

30.2629 2.20882 -8.18827e-12
2.20882 31.5876 1.81125e-11
-8.18827e-12 1.81125e-11 30.6916

28.5926 -0.748998 -5.76557e-13
-0.748998 30.8322 -6.93612e-12
-5.76557e-13 -6.93612e-12 29.6106

25.7352 1.8799 -2.61564e-11
1.8799 26.7313 -7.13089e-12
-2.61564e-11 -7.13089e-12 25.712

28.5893 1.66067 -1.3968e-11
1.66067 30.8186 7.70772e-12
-1.3968e-11 7.70772e-12 29.973

25.5222 -0.597565 -2.02176e-12
-0.597565 30.8678 -7.70813e-12
-2.02176e-12 -7.70813e-12 28.6345

27.4914 -0.370139 6.07166e-12
-0.370139 23.4458 -1.34868e-11
6.07166e-12 -1.34868e-11 25.8134

20.9438 0.879894 3.84628e-13
0.879894 23.661 -7.9005e-12
3.84628e-13 -7.9005e-12 21.1732

19.1901 -0.22992 -1.07927e-11
-0.22992 22.7599 2.42813e-11
-1.07927e-11 2.42813e-11 20.3026

22.7903 0.896987 -1.32948e-11
0.896987 19.7891 -3.47033e-12
-1.32948e-11 -3.47033e-12 20.4825

23.7459 -0.930349 2.98635e-12
-0.930349 20.6068 -1.1541e-12
2.98635e-12 -1.1541e-12 21.772

22.3958 1.60173 -2.4281e-11
1.60173 24.9395 -5.08759e-11
-2.4281e-11 -5.08759e-11 23.4324

25.3942 -1.2177 -1.54143e-12
-1.2177 26.3074 -4.62304e-12
-1.54143e-12 -4.62304e-12 25.0614

27.0671 -0.599287 -6.25315e-13
-0.599287 22.6288 -3.00599e-11
-6.25315e-13 -3.00599e-11 24.8684

17.9386 1.2118 -1.73348e-12
1.2118 19.328 -3.46908e-12
-1.73348e-12 -3.46908e-12 17.4969

29.0824 0.125997 2.57244e-11
0.125997 24.2984 -9.82599e-12
2.57244e-11 -9.82599e-12 26.985

18.5755 1.30935 -5.01332e-12
1.30935 17.2904 -1.77334e-11
-5.01332e-12 -1.77334e-11 17.1159

28.8466 0.144549 3.04431e-11
0.144549 31.7359 -1.54145e-11
3.04431e-11 -1.54145e-11 29.8941

31.4521 0.75942 2.9094e-11
0.75942 32.1527 -2.44696e-11
2.9094e-11 -2.44696e-11 31.5402

32.7122 -1.95642 4.14202e-12
-1.95642 32.9139 2.81308e-11
4.14202e-12 2.81308e-11 31.9831

33.5179 0.850676 -6.49318e-11
0.850676 32.158 5.1055e-11
-6.49318e-11 5.1055e-11 31.9962

22.4123 -0.278281 1.02152e-11
-0.278281 19.3473 -6.93542e-12
1.02152e-11 -6.93542e-12 19.9308

24.8315 2.28916 -7.3222e-12
2.28916 26.1102 1.83047e-11
-7.3222e-12 1.83047e-11 25.2455

30.2329 0.338977 -1.89423e-11
0.338977 29.7915 -5.78008e-12
-1.89423e-11 -5.78008e-12 29.7728

29.5459 -1.0413 1.57718e-12
-1.0413 29.3311 2.69753e-11
1.57718e-12 2.69753e-11 29.6647

30.1534 -0.137043 -1.17061e-11
-0.137043 24.6791 3.27521e-12
-1.17061e-11 3.27521e-12 27.6878

22.0631 1.89291 2.02346e-11
1.89291 23.9652 -3.54565e-11
2.02346e-11 -3.54565e-11 23.0332

24.4145 -1.72666 -1.84983e-11
-1.72666 25.7715 -1.11748e-11
-1.84983e-11 -1.11748e-11 24.5879

24.0363 -1.21737 3.84914e-13
-1.21737 22.0114 7.72234e-13
3.84914e-13 7.72234e-13 22.4748

29.402 -0.289186 -6.93717e-12
-0.289186 23.9883 7.70501e-13
-6.93717e-12 7.70501e-13 27.0477

23.297 2.23195 -2.83256e-11
2.23195 25.5572 -7.51573e-12
-2.83256e-11 -7.51573e-12 23.6629

21.8344 -1.53952 2.9036e-13
-1.53952 23.8129 -1.50292e-11
2.9036e-13 -1.50292e-11 22.798

23.6793 2.06475 3.71894e-11
2.06475 25.8602 -3.8527e-12
3.71894e-11 -3.8527e-12 24.0037

21.9236 -1.23704 9.75146e-14
-1.23704 24.9553 -2.46645e-11
9.75146e-14 -2.46645e-11 23.2273

29.3568 -1.02665 -2.22045e-15
-1.02665 30.2198 4.3546e-11
-2.22045e-15 4.3546e-11 29.7704

24.4567 1.43969 -1.05975e-11
1.43969 28.0623 3.66103e-11
-1.05975e-11 3.66103e-11 26.9372

21.9459 -1.79512 4.12345e-11
-1.79512 21.2132 6.93601e-12
4.12345e-11 6.93601e-12 21.1084

13.8663 -1.58917 -4.23983e-12
-1.58917 13.639 -2.38976e-11
-4.23983e-12 -2.38976e-11 13.7344

13.1208 -1.70747 -5.79018e-13
-1.70747 13.9774 2.62101e-11
-5.79018e-13 2.62101e-11 13.625

27.8829 2.67787 -9.92254e-12
2.67787 30.7217 -7.71938e-13
-9.92254e-12 -7.71938e-13 29.4637

25.231 -1.74569 -2.62029e-11
-1.74569 29.3916 -4.24044e-12
-2.62029e-11 -4.24044e-12 28.28

13.2205 -0.343233 -1.15634e-11
-0.343233 13.2372 2.81376e-11
-1.15634e-11 2.81376e-11 13.8871

13.5196 -0.368505 -3.75786e-11
-0.368505 13.7848 -2.23552e-11
-3.75786e-11 -2.23552e-11 14.0978

31.29 1.53138 2.31207e-11
1.53138 29.6632 -6.93699e-12
2.31207e-11 -6.93699e-12 30.1852

33.4015 -1.16504 2.2348e-11
-1.16504 31.1113 9.05674e-12
2.2348e-11 9.05674e-12 32.2493

27.8458 -0.0530486 3.77678e-11
-0.0530486 23.964 -1.77255e-11
3.77678e-11 -1.77255e-11 26.7246

31.0171 2.15307 -3.39103e-11
2.15307 29.4392 -7.3254e-12
-3.39103e-11 -7.3254e-12 30.0893

32.9159 -1.55257 1.77294e-11
-1.55257 29.7881 -9.24773e-12
1.77294e-11 -9.24773e-12 31.6904

22.8769 1.51998 -5.78041e-12
1.51998 26.0934 -3.73837e-11
-5.78041e-12 -3.73837e-11 24.7883

26.0273 -1.20085 -4.81463e-12
-1.20085 27.8645 -2.56258e-11
-4.81463e-12 -2.56258e-11 26.7234

32.9393 0.751732 9.00751e-12
0.751732 30.6699 1.77551e-11
9.00751e-12 1.77551e-11 31.305

31.8788 -0.989102 -8.50235e-12
-0.989102 31.2093 3.58569e-11
-8.50235e-12 3.58569e-11 31.1999

28.5346 2.32183 -1.23314e-11
2.32183 26.9673 1.20901e-11
-1.23314e-11 1.20901e-11 28.0915

30.6488 -1.83498 2.11856e-12
-1.83498 28.2063 5.73323e-12
2.11856e-12 5.73323e-12 29.7542

19.814 -1.24088 2.57261e-11
-1.24088 17.8234 -1.0406e-11
2.57261e-11 -1.0406e-11 18.1976

30.625 -0.0642214 1.40652e-11
-0.0642214 34.6198 1.50294e-11
1.40652e-11 1.50294e-11 31.5208

33.2302 0.463771 -1.86892e-11
0.463771 34.5302 3.16935e-11
-1.86892e-11 3.16935e-11 33.796

15.8139 -0.218595 -4.83699e-11
-0.218595 18.1143 5.08755e-11
-4.83699e-11 5.08755e-11 16.4216

18.0128 -0.271953 -3.89266e-11
-0.271953 16.0383 2.12002e-11
-3.89266e-11 2.12002e-11 16.3948

23.6636 1.28992 -4.41239e-11
1.28992 27.7315 2.46615e-11
-4.41239e-11 2.46615e-11 26.3205

27.5152 -0.755274 4.45075e-11
-0.755274 29.5439 6.74409e-12
4.45075e-11 6.74409e-12 28.5901

38.2607 -0.446705 1.73287e-11
-0.446705 39.7879 2.60094e-10
1.73287e-11 2.60094e-10 34.6488

38.4924 -1.41515 -2.08852e-10
-1.41515 34.1977 5.83618e-11
-2.08852e-10 5.83618e-11 35.1735

27.7974 2.06241 4.04602e-12
2.06241 24.8475 -2.2735e-11
4.04602e-12 -2.2735e-11 26.7513

29.0433 -1.35948 1.17523e-11
-1.35948 25.6156 1.23304e-11
1.17523e-11 1.23304e-11 27.7948

22.1521 0.0339526 8.09464e-12
0.0339526 18.8155 4.81783e-12
8.09464e-12 4.81783e-12 19.6574

26.0801 0.0668903 -4.62252e-12
0.0668903 22.5229 -1.69561e-11
-4.62252e-12 -1.69561e-11 24.1376

23.9467 1.00138 -1.16567e-11
1.00138 20.6063 1.00228e-11
-1.16567e-11 1.00228e-11 21.5713

29.6152 0.365511 -4.59315e-11
0.365511 27.1618 -3.14073e-11
-4.59315e-11 -3.14073e-11 28.789

30.2554 -0.727525 -5.09484e-11
-0.727525 34.5885 1.73386e-11
-5.09484e-11 1.73386e-11 31.9663

32.4219 0.373855 4.86376e-11
0.373855 32.7401 1.54142e-12
4.86376e-11 1.54142e-12 32.0346

21.2397 1.73883 8.6718e-12
1.73883 21.9303 3.73854e-11
8.6718e-12 3.73854e-11 20.3941

24.2388 -1.50889 -1.92738e-12
-1.50889 23.4169 2.15815e-11
-1.92738e-12 2.15815e-11 24.0024

27.0043 1.65406 2.87105e-11
1.65406 23.9158 1.65731e-11
2.87105e-11 1.65731e-11 25.6052

32.927 0.706389 -2.06161e-11
0.706389 34.2966 1.85923e-11
-2.06161e-11 1.85923e-11 33.5757

32.2693 1.05161 3.8727e-11
1.05161 35.6751 3.84951e-13
3.8727e-11 3.84951e-13 32.2781

29.235 -0.874968 7.32294e-12
-0.874968 27.6618 1.04048e-11
7.32294e-12 1.04048e-11 28.9682

28.1818 1.35861 -2.31224e-11
1.35861 29.8715 8.28411e-12
-2.31224e-11 8.28411e-12 28.6587

24.9396 -0.246821 9.34467e-12
-0.246821 29.0941 6.55076e-12
9.34467e-12 6.55076e-12 27.2238

28.7243 1.0252 3.39132e-11
1.0252 24.1483 2.00414e-11
3.39132e-11 2.00414e-11 27.4364

29.2664 -0.206209 2.04237e-11
-0.206209 24.2651 1.96522e-11
2.04237e-11 1.96522e-11 27.8871

22.1715 -1.35081 -5.31871e-11
-1.35081 21.3057 3.46843e-11
-5.31871e-11 3.46843e-11 20.6598

30.0191 1.85052 8.23919e-12
1.85052 26.3 -1.9654e-11
8.23919e-12 -1.9654e-11 28.7039

30.9621 -1.16816 -9.60676e-13
-1.16816 26.3197 3.88134e-13
-9.60676e-13 3.88134e-13 29.5665

27.7605 -0.90291 1.50293e-11
-0.90291 24.7659 1.67648e-11
1.50293e-11 1.67648e-11 26.39

28.8516 1.34301 2.46642e-11
1.34301 25.4768 -3.65972e-12
2.46642e-11 -3.65972e-12 27.7151

29.4637 -0.684168 -1.42599e-11
-0.684168 25.934 3.46667e-12
-1.42599e-11 3.46667e-12 28.502

27.2152 -0.574685 -1.38723e-11
-0.574685 24.05 -2.31226e-12
-1.38723e-11 -2.31226e-12 25.615

25.7762 2.41935 -2.46628e-11
2.41935 26.9553 -4.24155e-12
-2.46628e-11 -4.24155e-12 27.2878

30.9436 -2.07715 1.38726e-11
-2.07715 29.9412 -6.35873e-12
1.38726e-11 -6.35873e-12 30.5194

24.1122 1.62872 3.66099e-11
1.62872 23.5334 -1.00195e-11
3.66099e-11 -1.00195e-11 22.8636

30.3053 -1.52137 1.02105e-11
-1.52137 31.4359 8.47822e-12
1.02105e-11 8.47822e-12 31.1937

24.9814 1.68654 -3.39119e-11
1.68654 27.3206 -2.04264e-11
-3.39119e-11 -2.04264e-11 27.4059

24.1848 1.48788 -4.10449e-11
1.48788 20.9156 -2.12009e-11
-4.10449e-11 -2.12009e-11 22.3027

26.6956 -1.32997 3.28524e-11
-1.32997 25.3643 -6.55082e-12
3.28524e-11 -6.55082e-12 26.6069

27.1815 0.556017 -9.29793e-12
0.556017 24.3772 5.77969e-12
-9.29793e-12 5.77969e-12 25.3895

22.3904 2.12129 -3.53599e-11
2.12129 22.7576 -1.42603e-11
-3.53599e-11 -1.42603e-11 21.9632

24.8583 1.71234 -2.11475e-11
1.71234 23.9073 -3.85514e-12
-2.11475e-11 -3.85514e-12 24.2081

26.1701 0.680905 -3.77669e-11
0.680905 28.8492 -7.72419e-13
-3.77669e-11 -7.72419e-13 27.6213

23.0962 0.1917 -1.15606e-12
0.1917 28.3711 2.46638e-11
-1.15606e-12 2.46638e-11 26.1736

21.4293 -1.30438 -2.44711e-11
-1.30438 18.7815 -1.52229e-11
-2.44711e-11 -1.52229e-11 19.4756

25.1556 -2.36935 -1.92822e-12
-2.36935 27.0797 3.69947e-11
-1.92822e-12 3.69947e-11 27.27

26.3685 2.59971 6.74812e-13
2.59971 28.8473 1.54153e-11
6.74812e-13 1.54153e-11 27.725

23.8163 -1.91875 -5.22206e-11
-1.91875 24.0028 3.73819e-11
-5.22206e-11 3.73819e-11 22.9885

21.7359 2.31007 1.81128e-11
2.31007 22.9055 5.01001e-11
1.81128e-11 5.01001e-11 21.8009

26.5926 -1.07405 -2.26659e-12
-1.07405 24.2204 6.26235e-11
-2.26659e-12 6.26235e-11 25.4112

29.9984 -0.276957 -1.41624e-11
-0.276957 25.6484 -2.69775e-12
-1.41624e-11 -2.69775e-12 28.4906

30.5253 0.0795608 -3.45391e-11
0.0795608 25.4794 -3.54528e-11
-3.45391e-11 -3.54528e-11 28.4914

24.4088 -1.79946 -2.24471e-11
-1.79946 24.725 -1.79187e-11
-2.24471e-11 -1.79187e-11 24.5516

19.2222 0.367929 2.54363e-11
0.367929 22.8692 -1.58017e-11
2.54363e-11 -1.58017e-11 20.2373

17.6484 0.316593 4.8177e-12
0.316593 21.9865 2.89059e-11
4.8177e-12 2.89059e-11 19.3745

21.9774 0.334562 -2.87154e-11
0.334562 18.2068 -1.34891e-11
-2.87154e-11 -1.34891e-11 19.5936

20.9005 1.91176 3.91139e-11
1.91176 20.4545 -3.85192e-12
3.91139e-11 -3.85192e-12 19.8493

23.9581 -1.87708 -5.00777e-12
-1.87708 22.1263 -2.6591e-11
-5.00777e-12 -2.6591e-11 22.5534

32.8439 2.14423 -3.25604e-11
2.14423 35.5027 3.86296e-11
-3.25604e-11 3.86296e-11 34.0114

37.7707 -0.564023 2.37749e-10
-0.564023 37.8856 -1.15596e-11
2.37749e-10 -1.15596e-11 34.0556

24.9495 -0.637215 4.14296e-11
-0.637215 21.2706 2.31554e-12
4.14296e-11 2.31554e-12 22.8143

23.8304 1.68996 4.62351e-12
1.68996 26.3524 -1.46444e-11
4.62351e-12 -1.46444e-11 25.8017

28.2697 -1.9119 -1.88798e-11
-1.9119 28.9284 -2.8132e-11
-1.88798e-11 -2.8132e-11 28.4557

27.9219 0.875052 3.81525e-11
0.875052 23.8504 1.50323e-11
3.81525e-11 1.50323e-11 26.5524

22.3475 1.78405 1.22356e-11
1.78405 25.2984 1.92727e-12
1.22356e-11 1.92727e-12 23.0633

20.2453 -0.793563 2.10046e-11
-0.793563 24.1876 -2.31234e-11
2.10046e-11 -2.31234e-11 22.0659

25.0562 1.79737 -4.29669e-11
1.79737 29.4248 -1.50307e-11
-4.29669e-11 -1.50307e-11 28.3193

31.4723 -0.744888 7.12772e-12
-0.744888 32.5438 1.31017e-11
7.12772e-12 1.31017e-11 32.3176

25.3922 1.81838 -3.47069e-12
1.81838 26.8379 5.8191e-11
-3.47069e-12 5.8191e-11 27.4638

31.1995 -1.84314 1.42559e-11
-1.84314 31.4213 3.75715e-11
1.42559e-11 3.75715e-11 31.5757

29.2501 0.147088 -4.27771e-11
0.147088 22.3588 -1.61877e-11
-4.27771e-11 -1.61877e-11 27.7603

22.5114 2.31735 2.85172e-11
2.31735 21.2337 7.32285e-12
2.85172e-11 7.32285e-12 21.5602

26.757 2.77585 9.05581e-12
2.77585 30.0388 4.43237e-12
9.05581e-12 4.43237e-12 28.361

24.9059 -2.0572 1.8596e-11
-2.0572 26.7445 -1.46447e-11
1.8596e-11 -1.46447e-11 27.4299

22.902 1.96277 4.87553e-11
1.96277 22.6472 2.19655e-11
4.87553e-11 2.19655e-11 22.4553

19.7472 -1.19237 8.76603e-12
-1.19237 20.8725 -4.33576e-11
8.76603e-12 -4.33576e-11 19.477

24.4763 -1.78993 3.08505e-12
-1.78993 25.7013 -2.92885e-11
3.08505e-12 -2.92885e-11 25.6842

21.8581 -0.381938 -3.42988e-11
-0.381938 24.078 1.40645e-11
-3.42988e-11 1.40645e-11 21.8147

19.698 1.01567 9.05966e-12
1.01567 23.1262 3.66121e-11
9.05966e-12 3.66121e-11 20.7512

23.1543 -0.391147 -2.10034e-11
-0.391147 20.5057 -1.11758e-11
-2.10034e-11 -1.11758e-11 21.0443

24.5316 -1.68323 3.84666e-12
-1.68323 24.1164 7.88088e-11
3.84666e-12 7.88088e-11 23.6118

22.3791 0.277385 -5.20237e-12
0.277385 26.6376 -6.55191e-12
-5.20237e-12 -6.55191e-12 24.3553

25.5255 0.386268 -1.54053e-12
0.386268 27.6376 1.65717e-11
-1.54053e-12 1.65717e-11 25.775

20.4092 -1.59415 -8.86261e-12
-1.59415 20.8787 1.6767e-11
-8.86261e-12 1.6767e-11 19.7071

18.9178 1.98148 -1.3298e-11
1.98148 20.2522 4.39352e-11
-1.3298e-11 4.39352e-11 18.9917

28.5434 0.381171 -1.15618e-11
0.381171 24.4796 2.77453e-11
-1.15618e-11 2.77453e-11 27.9267

28.6805 0.00342835 -2.00396e-11
0.00342835 24.3265 -9.82829e-12
-2.00396e-11 -9.82829e-12 28.1559

25.0886 2.02234 -2.88984e-12
2.02234 26.107 -1.57995e-11
-2.88984e-12 -1.57995e-11 26.2306

28.8595 -1.68061 -8.09197e-12
-1.68061 29.3056 4.04724e-12
-8.09197e-12 4.04724e-12 28.9386

27.6345 2.74286 1.31985e-11
2.74286 30.7224 2.23515e-11
1.31985e-11 2.23515e-11 29.3118

24.6029 -1.55742 1.10798e-11
-1.55742 29.1507 -2.69771e-12
1.10798e-11 -2.69771e-12 28.1559

26.2763 1.80538 -2.69275e-11
1.80538 26.9762 1.56069e-11
-2.69275e-11 1.56069e-11 26.8415

19.7214 1.1271 3.17032e-11
1.1271 17.7197 5.00999e-12
3.17032e-11 5.00999e-12 17.8879

22.9721 -1.02686 -3.52624e-11
-1.02686 25.505 -5.39765e-12
-3.52624e-11 -5.39765e-12 23.5543

20.4653 1.3839 -1.2141e-11
1.3839 24.2924 -8.86539e-12
-1.2141e-11 -8.86539e-12 22.2308

30.3209 1.65174 3.77649e-11
1.65174 27.5703 2.32166e-11
3.77649e-11 2.32166e-11 29.0896

31.8102 -0.947671 -3.58383e-11
-0.947671 28.6515 -5.10958e-12
-3.58383e-11 -5.10958e-12 30.5854

27.2568 -1.57121 2.36996e-11
-1.57121 25.7243 1.27189e-11
2.36996e-11 1.27189e-11 26.2167

28.0677 1.95114 -2.17741e-11
1.95114 25.7842 5.77954e-12
-2.17741e-11 5.77954e-12 27.0818

29.5125 -1.36285 1.84968e-11
-1.36285 27.3161 1.04051e-11
1.84968e-11 1.04051e-11 28.5005

13.3085 -0.519457 2.02378e-11
-0.519457 10.9143 -2.69778e-11
2.02378e-11 -2.69778e-11 13.5863

10.7081 -0.64402 -1.59945e-11
-0.64402 12.9216 -3.46955e-12
-1.59945e-11 -3.46955e-12 13.432

34.3037 2.20254 -5.4337e-11
2.20254 32.2891 -6.51254e-11
-5.4337e-11 -6.51254e-11 31.9599

35.4281 -1.54794 3.81507e-11
-1.54794 31.2847 -3.46628e-12
3.81507e-11 -3.46628e-12 33.1903

25.7251 2.14451 -8.09238e-12
2.14451 24.2238 -4.62455e-11
-8.09238e-12 -4.62455e-11 24.9272

19.7505 1.01985 3.78684e-11
1.01985 17.2994 2.8327e-11
3.78684e-11 2.8327e-11 17.7561

26.0128 1.91435 -1.54115e-12
1.91435 28.9677 3.39134e-11
-1.54115e-12 3.39134e-11 27.4508

23.4274 -0.740585 -2.56277e-11
-0.740585 28.3319 2.58199e-11
-2.56277e-11 2.58199e-11 26.3929

21.3089 -1.82065 -2.02105e-12
-1.82065 22.158 -4.08516e-11
-2.02105e-12 -4.08516e-11 21.3193

28.8027 1.17976 1.15572e-12
1.17976 30.5209 -5.49135e-12
1.15572e-12 -5.49135e-12 29.6432

31.7899 -0.671167 -1.61855e-11
-0.671167 32.6287 2.7071e-11
-1.61855e-11 2.7071e-11 32.3733

23.3707 1.43321 -1.29093e-11
1.43321 20.8858 9.44145e-12
-1.29093e-11 9.44145e-12 21.4055

25.8157 0.774161 -6.93634e-12
0.774161 22.1926 -1.11758e-11
-6.93634e-12 -1.11758e-11 23.942

23.9098 2.68363 3.56464e-11
2.68363 27.2992 -9.63253e-12
3.56464e-11 -9.63253e-12 27.2401

31.9701 -1.38135 -1.05962e-11
-1.38135 31.8968 -2.89106e-12
-1.05962e-11 -2.89106e-12 32.0462

24.3243 2.21871 2.20622e-11
2.21871 27.4538 2.02343e-11
2.20622e-11 2.02343e-11 25.588

22.4423 -1.18794 1.79207e-11
-1.18794 26.1296 1.31029e-11
1.79207e-11 1.31029e-11 24.711

26.1632 2.42277 5.83846e-11
2.42277 25.0525 1.15891e-12
5.83846e-11 1.15891e-12 25.9834

28.4946 -2.06249 9.63026e-12
-2.06249 26.7144 1.75346e-11
9.63026e-12 1.75346e-11 27.65

21.5958 0.687344 -4.00791e-11
0.687344 26.0134 4.08498e-11
-4.00791e-11 4.08498e-11 23.739

24.403 -0.0529521 -4.23909e-12
-0.0529521 26.9888 4.23913e-11
-4.23909e-12 4.23913e-11 25.1676

15.1169 -0.785578 -5.45362e-11
-0.785578 16.3903 -3.66169e-11
-5.45362e-11 -3.66169e-11 15.2104

16.1819 -0.76242 9.62008e-13
-0.76242 15.3317 5.04927e-11
9.62008e-13 5.04927e-11 15.2011

26.8698 1.25784 2.61102e-11
1.25784 23.1796 1.46458e-11
2.61102e-11 1.46458e-11 25.3945

38.8331 0.382794 2.27332e-11
0.382794 35.8864 9.86417e-11
2.27332e-11 9.86417e-11 33.9305

38.3248 -1.37389 -9.7874e-11
-1.37389 33.3407 -2.60079e-11
-9.7874e-11 -2.60079e-11 34.7574

30.2684 -1.82093 1.65694e-11
-1.82093 32.2507 2.54322e-11
1.65694e-11 2.54322e-11 30.9849

30.4006 0.569186 1.31735e-11
0.569186 31.2798 3.85355e-11
1.31735e-11 3.85355e-11 30.7924

28.5196 -0.109047 2.82782e-11
-0.109047 23.6279 6.16723e-12
2.82782e-11 6.16723e-12 25.9602

26.4328 2.98411 2.40883e-12
2.98411 29.8219 1.29101e-11
2.40883e-12 1.29101e-11 28.2253

23.343 -2.80085 1.17551e-11
-2.80085 27.1678 -1.38738e-11
1.17551e-11 -1.38738e-11 27.1194

16.1246 1.48929 -5.95432e-11
1.48929 16.7497 -2.00451e-11
-5.95432e-11 -2.00451e-11 16.0259

17.1818 1.56364 -1.13698e-11
1.56364 16.9614 1.0504e-11
-1.13698e-11 1.0504e-11 16.3661

17.2453 -0.571882 -9.24853e-12
-0.571882 19.6123 1.61856e-11
-9.24853e-12 1.61856e-11 17.6944

16.7928 1.1813 -3.0064e-11
1.1813 19.0965 2.08101e-11
-3.0064e-11 2.08101e-11 17.3301

19.3171 -0.285997 -3.73853e-11
-0.285997 16.8184 -5.21298e-11
-3.73853e-11 -5.21298e-11 17.4474

15.6688 0.695558 -5.97398e-12
0.695558 18.4687 3.84729e-13
-5.97398e-12 3.84729e-13 16.4782

17.8046 0.815515 3.08261e-12
0.815515 15.3795 -3.0824e-12
3.08261e-12 -3.0824e-12 16.2241

30.0147 0.209799 -1.54328e-12
0.209799 33.122 4.12335e-11
-1.54328e-12 4.12335e-11 30.9003

31.3043 1.56921 6.93671e-12
1.56921 33.0037 -6.02115e-11
6.93671e-12 -6.02115e-11 31.8911

29.2243 0.249843 5.92582e-12
0.249843 26.6556 2.50461e-12
5.92582e-12 2.50461e-12 27.6697

30.0123 -0.048496 -7.8999e-12
-0.048496 24.2419 -1.00199e-11
-7.8999e-12 -1.00199e-11 27.5583

20.9096 -0.949825 -6.9353e-12
-0.949825 22.9724 1.23339e-11
-6.9353e-12 1.23339e-11 21.1404

19.2748 1.42476 -3.07935e-12
1.42476 21.7757 6.783e-11
-3.07935e-12 6.783e-11 20.1278

28.4875 -0.0714818 3.31427e-11
-0.0714818 23.4875 -5.00784e-12
3.31427e-11 -5.00784e-12 26.0005

32.5794 1.21556 -1.1177e-11
1.21556 30.6107 2.58168e-11
-1.1177e-11 2.58168e-11 30.9716

33.8538 -0.86343 5.2026e-11
-0.86343 30.6345 -2.33052e-11
5.2026e-11 -2.33052e-11 32.3407

27.5705 1.17644 7.08111e-11
1.17644 27.9129 -3.12128e-11
7.08111e-11 -3.12128e-11 27.4983

24.5742 -1.95156 7.9969e-12
-1.95156 26.2094 2.89034e-11
7.9969e-12 2.89034e-11 26.1689

25.6292 2.50705 -2.02338e-12
2.50705 28.5147 -1.09832e-11
-2.02338e-12 -1.09832e-11 26.7792

28.6131 0.247712 2.58694e-11
0.247712 24.4318 1.34829e-12
2.58694e-11 1.34829e-12 26.7372

20.8225 1.79118 5.58994e-12
1.79118 20.3167 -1.77281e-11
5.58994e-12 -1.77281e-11 19.6388

23.5652 -1.48521 1.05899e-12
-1.48521 26.6565 3.31433e-11
1.05899e-12 3.31433e-11 25.8643

25.6494 2.68036 1.3489e-12
2.68036 28.2552 4.43179e-12
1.3489e-12 4.43179e-12 26.7029

12.9607 3.12946 -5.72359e-11
3.12946 13.1943 3.69989e-11
-5.72359e-11 3.69989e-11 13.1185

21.272 -0.187102 -1.3198e-11
-0.187102 25.9341 7.71235e-13
-1.3198e-11 7.71235e-13 23.5831

23.514 1.0205 7.90054e-12
1.0205 26.6425 1.84989e-11
7.90054e-12 1.84989e-11 24.6167

29.7247 -0.246895 1.59894e-11
-0.246895 34.3739 4.66289e-11
1.59894e-11 4.66289e-11 31.1699

31.9999 1.23879 7.70623e-12
1.23879 33.0167 -4.52782e-11
7.70623e-12 -4.52782e-11 32.5177

30.1419 1.01381 -4.04652e-11
1.01381 24.3803 1.65694e-11
-4.04652e-11 1.65694e-11 28.6146

30.7227 -0.69176 -1.69546e-11
-0.69176 23.8 -2.65913e-11
-1.69546e-11 -2.65913e-11 29.084

28.0325 1.35725 -2.73133e-11
1.35725 28.3755 -4.91343e-11
-2.73133e-11 -4.91343e-11 28.491

27.7602 -2.04561 -4.52803e-11
-2.04561 28.1747 -1.54134e-11
-4.52803e-11 -1.54134e-11 28.5602

30.1314 1.14921 1.60645e-11
1.14921 31.838 2.1966e-11
1.60645e-11 2.1966e-11 30.682

30.0575 -1.60671 4.76401e-11
-1.60671 30.6889 8.28434e-12
4.76401e-11 8.28434e-12 30.4932

36.0814 2.111 1.42571e-11
2.111 34.9313 1.69544e-11
1.42571e-11 1.69544e-11 33.0743

37.2065 -1.48763 1.57928e-11
-1.48763 33.0403 7.95753e-11
1.57928e-11 7.95753e-11 34.4349

26.4674 2.95751 1.65693e-11
2.95751 27.7931 3.96958e-11
1.65693e-11 3.96958e-11 28.3532

33.7338 -1.58962 3.46604e-12
-1.58962 31.959 2.54309e-11
3.46604e-12 2.54309e-11 32.9102

25.451 2.18897 9.62119e-13
2.18897 23.2096 1.42573e-11
9.62119e-13 1.42573e-11 24.4399

25.5704 1.89167 -3.66151e-12
1.89167 27.9257 6.16618e-12
-3.66151e-12 6.16618e-12 26.1658

22.8763 -0.7555 -2.65899e-11
-0.7555 26.8393 -1.04056e-11
-2.65899e-11 -1.04056e-11 25.0369

26.1677 -2.21685 3.75727e-11
-2.21685 25.0708 1.54145e-11
3.75727e-11 1.54145e-11 25.3086

20.4437 -1.19472 4.57651e-11
-1.19472 19.9651 7.6857e-13
4.57651e-11 7.6857e-13 19.2855

26.8127 -1.59284 2.11952e-11
-1.59284 24.1118 3.1215e-11
2.11952e-11 3.1215e-11 25.3538

24.018 2.41123 2.8918e-12
2.41123 23.6165 -4.04591e-11
2.8918e-12 -4.04591e-11 23.9043

25.5239 -3.23475 1.35097e-12
-3.23475 27.9347 -5.39433e-12
1.35097e-12 -5.39433e-12 28.2823

27.289 2.57768 1.48852e-11
2.57768 30.0901 3.96933e-11
1.48852e-11 3.96933e-11 28.9473

29.0196 -0.568362 -3.17864e-12
-0.568362 26.4875 -1.6571e-11
-3.17864e-12 -1.6571e-11 27.833

37.6723 -0.95396 -8.9592e-11
-0.95396 37.2092 3.50599e-11
-8.9592e-11 3.50599e-11 33.8695

33.8069 0.817223 -1.8112e-11
0.817223 35.2211 -9.05453e-12
-1.8112e-11 -9.05453e-12 33.8557

26.9294 0.986749 6.69586e-11
0.986749 25.5917 -5.1996e-12
6.69586e-11 -5.1996e-12 26.5254

31.3917 -0.395427 -1.88103e-11
-0.395427 28.2115 -3.8728e-11
-1.88103e-11 -3.8728e-11 29.7503

16.6494 -1.11537 4.23891e-12
-1.11537 17.3503 3.58417e-11
4.23891e-12 3.58417e-11 16.1855

17.3956 -1.05754 -1.94631e-11
-1.05754 16.0848 -2.9484e-11
-1.94631e-11 -2.9484e-11 16.0851

30.8281 0.323864 -1.4259e-11
0.323864 26.533 3.08233e-12
-1.4259e-11 3.08233e-12 29.3126

31.3638 0.0829737 -3.46627e-12
0.0829737 26.3126 -5.5886e-12
-3.46627e-12 -5.5886e-12 30.0287

30.8792 0.0330373 4.32329e-11
0.0330373 28.7879 2.04251e-11
4.32329e-11 2.04251e-11 29.8201

26.9644 -0.87919 6.66451e-11
-0.87919 28.2918 -1.32937e-11
6.66451e-11 -1.32937e-11 27.0706

23.2253 1.14153 -3.09751e-11
1.14153 26.7575 3.58386e-11
-3.09751e-11 3.58386e-11 25.1182

24.5748 1.75797 -2.61143e-11
1.75797 22.1561 1.61837e-11
-2.61143e-11 1.61837e-11 22.9595

28.7182 2.00804 -3.93058e-11
2.00804 27.2743 -1.65721e-11
-3.93058e-11 -1.65721e-11 28.2494

31.1117 -1.57137 -8.28493e-12
-1.57137 29.5829 -1.348e-12
-8.28493e-12 -1.348e-12 30.3883

33.371 0.260756 -3.72592e-11
0.260756 32.3176 9.64007e-11
-3.72592e-11 9.64007e-11 32.2435

33.7241 -2.2248 -2.3311e-11
-2.2248 36.7271 -2.04471e-11
-2.3311e-11 -2.04471e-11 33.1809

26.8672 0.880595 -1.68119e-11
0.880595 25.0292 -2.92903e-11
-1.68119e-11 -2.92903e-11 25.4254

30.5637 1.41512 1.23314e-11
1.41512 28.2286 3.50668e-11
1.23314e-11 3.50668e-11 29.3861

31.594 -1.05302 -2.4858e-11
-1.05302 28.5189 1.86879e-11
-2.4858e-11 1.86879e-11 30.5029

24.9749 -0.857229 -2.74568e-11
-0.857229 28.351 3.85229e-12
-2.74568e-11 3.85229e-12 27.2748

27.5218 2.42973 -1.6762e-11
2.42973 29.7484 -7.12985e-12
-1.6762e-11 -7.12985e-12 28.3729

26.9042 3.09367 1.15617e-11
3.09367 29.9722 3.4491e-11
1.15617e-11 3.4491e-11 28.3799

24.581 -1.85847 1.91725e-11
-1.85847 27.0273 -1.54084e-12
1.91725e-11 -1.54084e-12 27.2561

14.1784 3.57265 1.84998e-11
3.57265 14.2764 -6.30168e-11
1.84998e-11 -6.30168e-11 13.8522

28.2445 1.91646 1.76297e-11
1.91646 31.0982 4.43267e-12
1.76297e-11 4.43267e-12 29.6407

26.9897 -2.18562 -1.89297e-11
-2.18562 29.7413 -3.273e-12
-1.89297e-11 -3.273e-12 29.2166

23.8055 -1.69493 -4.43307e-12
-1.69493 27.458 9.63403e-12
-4.43307e-12 9.63403e-12 26.7387

26.0275 2.65642 -1.84965e-11
2.65642 29.2616 -4.62565e-12
-1.84965e-11 -4.62565e-12 27.6785

25.6705 -1.17626 2.60159e-11
-1.17626 23.2002 -2.56244e-11
2.60159e-11 -2.56244e-11 23.8374

27.1501 -1.42365 9.44204e-12
-1.42365 26.864 -1.46436e-11
9.44204e-12 -1.46436e-11 27.3384

28.044 1.559 4.67215e-12
1.559 29.5607 4.23978e-12
4.67215e-12 4.23978e-12 28.9025

27.7078 -2.12339 -2.97235e-11
-2.12339 28.0278 3.69962e-11
-2.97235e-11 3.69962e-11 28.6387

28.4184 -0.556253 -4.38327e-12
-0.556253 24.4039 -8.86439e-12
-4.38327e-12 -8.86439e-12 26.9083

31.8343 0.58494 1.31011e-11
0.58494 30.2634 3.12126e-11
1.31011e-11 3.12126e-11 30.6477

32.4647 -0.598244 -2.42753e-11
-0.598244 29.28 -4.2774e-11
-2.42753e-11 -4.2774e-11 31.4246

32.5424 0.653078 1.05987e-11
0.653078 37.049 -8.47772e-11
1.05987e-11 -8.47772e-11 32.6936

33.2234 0.863238 3.85336e-11
0.863238 35.9429 -2.8418e-11
3.85336e-11 -2.8418e-11 33.7949

13.1212 0.675267 5.80079e-11
0.675267 11.345 1.34911e-11
5.80079e-11 1.34911e-11 13.4309

11.5454 0.672567 2.3612e-11
0.672567 13.5495 -4.93352e-11
2.3612e-11 -4.93352e-11 13.5477

27.0612 1.95131 5.20574e-12
1.95131 27.1189 -3.58394e-11
5.20574e-12 -3.58394e-11 27.7663

30.8817 -2.00435 -3.48688e-11
-2.00435 30.3905 -4.68194e-11
-3.48688e-11 -4.68194e-11 30.691

13.5141 1.3304 1.58021e-11
1.3304 13.3309 -6.74327e-12
1.58021e-11 -6.74327e-12 13.9513

13.2445 1.45583 -1.06023e-11
1.45583 13.3268 -4.20127e-11
-1.06023e-11 -4.20127e-11 13.9007

37.6403 -0.521458 3.82851e-13
-0.521458 36.2558 8.28276e-12
3.82851e-13 8.28276e-12 35.1614

37.9104 -0.337889 4.27693e-11
-0.337889 38.6414 -1.96567e-11
4.27693e-11 -1.96567e-11 34.3492

25.8788 -1.92087 3.7479e-11
-1.92087 26.214 -1.58041e-11
3.7479e-11 -1.58041e-11 26.7337

27.0766 2.47575 3.58384e-11
2.47575 26.5438 -9.24845e-12
3.58384e-11 -9.24845e-12 27.3696

30.4309 -2.08248 -2.04233e-11
-2.08248 28.7834 1.58002e-11
-2.04233e-11 1.58002e-11 29.7319

24.3774 2.1784 -1.69572e-11
2.1784 24.7942 -7.01381e-11
-1.69572e-11 -7.01381e-11 24.5492

26.9506 -1.72946 1.13674e-11
-1.72946 26.5506 -2.11964e-11
1.13674e-11 -2.11964e-11 26.2594

17.9591 -0.320271 1.50297e-11
-0.320271 19.938 5.39591e-12
1.50297e-11 5.39591e-12 18.0082

16.4516 0.898742 2.6014e-11
0.898742 19.1125 -3.00628e-11
2.6014e-11 -3.00628e-11 17.2863

19.5 -0.133211 3.41087e-11
-0.133211 17.2149 -1.80411e-16
3.41087e-11 -1.80411e-16 17.6421

24.7352 2.30997 4.81729e-12
2.30997 25.5369 -7.69644e-13
4.81729e-12 -7.69644e-13 25.6037

28.0852 -2.27377 -7.12759e-12
-2.27377 27.7077 -1.48366e-11
-7.12759e-12 -1.48366e-11 27.7654

14.9454 0.144706 4.47077e-11
0.144706 17.7706 1.96568e-11
4.47077e-11 1.96568e-11 15.9574

17.7339 -0.0161992 -3.85431e-11
-0.0161992 15.3827 -3.19872e-11
-3.85431e-11 -3.19872e-11 15.9989

28.7868 2.35718 -1.30992e-11
2.35718 27.804 -3.8534e-11
-1.30992e-11 -3.8534e-11 28.7856

32.5675 -1.68082 -2.54263e-11
-1.68082 30.7336 -4.70126e-11
-2.54263e-11 -4.70126e-11 31.7359

28.9778 2.3304 -1.50313e-11
2.3304 28.6749 1.00203e-11
-1.50313e-11 1.00203e-11 29.0983

32.2061 -2.04086 -1.59941e-11
-2.04086 30.3278 2.3108e-12
-1.59941e-11 2.3108e-12 31.4635

12.5559 1.36461 -1.05978e-11
1.36461 12.6182 -2.96806e-11
-1.05978e-11 -2.96806e-11 13.2563

12.5651 1.2598 4.97192e-11
1.2598 12.7899 -4.43184e-12
4.97192e-11 -4.43184e-12 13.2708

26.4934 2.20688 2.92872e-11
2.20688 25.9393 1.65713e-11
2.92872e-11 1.65713e-11 26.5009

29.0622 -1.82446 1.98479e-11
-1.82446 28.382 -9.8234e-12
1.98479e-11 -9.8234e-12 28.5849

32.3053 1.42693 2.19646e-11
1.42693 33.327 -6.81103e-11
2.19646e-11 -6.81103e-11 32.6207

31.242 -0.46166 3.08005e-12
-0.46166 33.5648 4.81689e-11
3.08005e-12 4.81689e-11 31.4376

27.7094 1.85839 1.73431e-11
1.85839 29.6288 7.71031e-12
1.73431e-11 7.71031e-12 29.2296

33.305 -2.11215 -2.31185e-11
-2.11215 32.0707 -2.7937e-11
-2.31185e-11 -2.7937e-11 32.7768

31.9455 1.66725 2.1578e-11
1.66725 28.6224 -8.47653e-12
2.1578e-11 -8.47653e-12 30.2787

33.2204 -1.0821 4.12328e-11
-1.0821 28.5233 -1.29062e-11
4.12328e-11 -1.29062e-11 31.4612

27.0934 2.24276 -6.11738e-12
2.24276 29.167 -8.28588e-12
-6.11738e-12 -8.28588e-12 28.0125

25.9969 -1.88089 8.91008e-12
-1.88089 27.4939 3.85357e-11
8.91008e-12 3.85357e-11 27.6329

31.8375 1.36365 6.74155e-12
1.36365 35.0806 -1.04041e-11
6.74155e-12 -1.04041e-11 32.832

31.8973 1.58071 -2.82749e-11
1.58071 32.3902 -1.54267e-12
-2.82749e-11 -1.54267e-12 31.566

32.6118 -2.81396 -2.59959e-12
-2.81396 32.5298 -1.61844e-11
-2.59959e-12 -1.61844e-11 31.7592

30.8007 -0.38272 4.3928e-11
-0.38272 35.4877 1.96547e-11
4.3928e-11 1.96547e-11 31.8411

34.2373 1.65606 7.70658e-12
1.65606 31.8814 2.73593e-11
7.70658e-12 2.73593e-11 31.8617

36.6227 0.35056 1.10206e-10
0.35056 34.0019 -1.30244e-10
1.10206e-10 -1.30244e-10 33.0072

35.1207 -1.52891 -7.05202e-11
-1.52891 30.5704 1.30937e-11
-7.05202e-11 1.30937e-11 32.7976

37.0322 -0.502319 -7.78395e-11
-0.502319 32.3328 -3.37229e-11
-7.78395e-11 -3.37229e-11 33.9736

33.923 1.94566 -5.2021e-11
1.94566 35.5893 2.15718e-11
-5.2021e-11 2.15718e-11 32.6461

40.0601 -0.389427 7.4682e-10
-0.389427 38.9841 -7.23974e-10
7.4682e-10 -7.23974e-10 34.8628

39.3661 -1.3591 -5.08702e-10
-1.3591 34.0576 7.73348e-12
-5.08702e-10 7.73348e-12 35.4967

38.0039 -1.67093 1.98862e-10
-1.67093 33.9241 -1.37723e-10
1.98862e-10 -1.37723e-10 35.2289

34.3614 1.87047 2.54318e-11
1.87047 32.6062 2.89024e-11
2.54318e-11 2.89024e-11 32.0092

31.7858 0.834398 -5.08654e-11
0.834398 31.0999 1.61788e-11
-5.08654e-11 1.61788e-11 30.8167

35.8865 0.936049 1.73499e-11
0.936049 37.2007 -8.43907e-11
1.73499e-11 -8.43907e-11 33.5537

37.4287 -1.31224 -5.78534e-12
-1.31224 33.0954 4.75847e-11
-5.78534e-12 4.75847e-11 34.6974

37.455 -1.55221 8.47912e-12
-1.55221 33.7973 5.8955e-11
8.47912e-12 5.8955e-11 34.902

34.9372 -1.06787 3.42948e-11
-1.06787 33.0098 6.74549e-12
3.42948e-11 6.74549e-12 33.7086

32.1262 2.17763 -5.08648e-11
2.17763 31.2573 -3.5843e-11
-5.08648e-11 -3.5843e-11 31.0488

34.7295 1.05317 -4.70126e-11
1.05317 32.6346 -1.27189e-11
-4.70126e-11 -1.27189e-11 32.1561

34.6724 -1.63895 5.62633e-11
-1.63895 31.6458 -1.29065e-11
5.62633e-11 -1.29065e-11 33.1471

35.9211 -0.963163 2.04264e-11
-0.963163 32.429 -1.13657e-11
2.04264e-11 -1.13657e-11 33.7607

34.9793 0.178657 1.69545e-11
0.178657 35.07 2.40795e-12
1.69545e-11 2.40795e-12 35.4842

37.3871 -0.0930803 3.27506e-12
-0.0930803 36.7102 3.46778e-12
3.27506e-12 3.46778e-12 36.808

36.4101 0.338467 -9.64923e-13
0.338467 35.3539 -3.81471e-11
-9.64923e-13 -3.81471e-11 35.8197

34.5256 -0.349602 -1.04041e-11
-0.349602 33.1376 4.89132e-11
-1.04041e-11 4.89132e-11 34.6804

34.7863 0.0588908 -1.90741e-11
0.0588908 33.7701 2.0954e-11
-1.90741e-11 2.0954e-11 34.994

37.5367 -0.495147 1.61832e-11
-0.495147 36.9871 1.19453e-11
1.61832e-11 1.19453e-11 36.8733

36.2149 0.8964 -1.11768e-11
0.8964 35.1147 -5.06701e-11
-1.11768e-11 -5.06701e-11 35.6515

34.7963 -0.0835966 6.16541e-12
-0.0835966 33.6058 2.3135e-12
6.16541e-12 2.3135e-12 34.9539

34.2943 0.404711 -3.66061e-12
0.404711 31.8009 -1.6232e-11
-3.66061e-12 -1.6232e-11 33.678

35.5974 0.0852592 -6.93616e-12
0.0852592 35.3122 -1.69062e-11
-6.93616e-12 -1.69062e-11 35.8907

35.6331 -0.0794969 -2.00371e-11
-0.0794969 35.3786 -1.92674e-12
-2.00371e-11 -1.92674e-12 35.9213

36.9219 0.0470886 2.62019e-11
0.0470886 37.2215 1.04038e-11
2.62019e-11 1.04038e-11 37.1502

36.867 -0.512575 7.59104e-11
-0.512575 34.5109 8.19064e-12
7.59104e-11 8.19064e-12 35.3271

38.3441 0.032398 2.5431e-11
0.032398 37.5086 -7.41836e-12
2.5431e-11 -7.41836e-12 37.2096

34.8521 0.663667 -4.85723e-16
0.663667 34.6282 -9.63521e-13
-4.85723e-16 -9.63521e-13 35.2527

34.2104 0.941146 -5.97302e-12
0.941146 34.275 -1.10783e-11
-5.97302e-12 -1.10783e-11 34.6797

36.4317 -0.887432 1.9265e-11
-0.887432 35.3426 2.15787e-11
1.9265e-11 2.15787e-11 35.8741

37.3618 0.45996 1.54145e-12
0.45996 36.8804 2.88995e-12
1.54145e-12 2.88995e-12 36.7543

37.7561 0.0262636 1.54128e-11
0.0262636 38.1754 -1.4898e-11
1.54128e-11 -1.4898e-11 37.8621

35.6009 0.0907743 8.47737e-12
0.0907743 35.8536 7.8991e-12
8.47737e-12 7.8991e-12 36.0712

35.6094 -0.102045 -2.08077e-11
-0.102045 35.8812 6.743e-12
-2.08077e-11 6.743e-12 36.0853

37.0073 -0.106846 3.89172e-11
-0.106846 37.5129 3.76412e-11
3.89172e-11 3.76412e-11 37.3174

34.8841 0.296858 -3.94896e-12
0.296858 34.6895 3.0345e-11
-3.94896e-12 3.0345e-11 35.3234

34.771 0.240755 1.63767e-11
0.240755 34.0111 -1.09818e-11
1.63767e-11 -1.09818e-11 35.1529

34.3946 0.232488 1.90748e-11
0.232488 34.5361 3.82437e-11
1.90748e-11 3.82437e-11 35.0797

37.0256 -0.155555 2.46606e-11
-0.155555 36.9524 7.70669e-12
2.46606e-11 7.70669e-12 37.0108

34.6713 0.293432 -7.32138e-12
0.293432 33.1633 -1.53456e-11
-7.32138e-12 -1.53456e-11 34.6846

35.5497 0.0518301 3.19821e-11
0.0518301 35.762 -4.33711e-13
3.19821e-11 -4.33711e-13 36.0441

34.3973 -0.398936 -1.21383e-11
-0.398936 31.8034 9.42253e-12
-1.21383e-11 9.42253e-12 34.0199

36.6423 -0.106179 -3.46787e-11
-0.106179 36.9854 -5.21993e-11
-3.46787e-11 -5.21993e-11 36.9725

37.9746 -0.0877891 -1.57983e-11
-0.0877891 36.5609 -1.17499e-15
-1.57983e-11 -1.17499e-15 36.635

37.8843 0.132685 -3.42945e-11
0.132685 36.1295 -7.12679e-12
-3.42945e-11 -7.12679e-12 36.4798

35.9531 -0.446442 -6.03048e-11
-0.446442 35.2683 -4.62385e-11
-6.03048e-11 -4.62385e-11 35.1993

35.9703 0.448994 -1.3101e-11
0.448994 35.3174 -4.18084e-11
-1.3101e-11 -4.18084e-11 35.2165

35.1085 -0.103174 -7.12867e-12
-0.103174 34.5125 7.63439e-12
-7.12867e-12 7.63439e-12 35.412

34.1006 0.0860162 -1.40653e-11
0.0860162 34.2907 -8.81428e-12
-1.40653e-11 -8.81428e-12 34.8426

34.4813 -0.721285 4.93229e-11
-0.721285 34.4885 1.96029e-11
4.93229e-11 1.96029e-11 34.8483

34.438 0.76462 9.82616e-12
0.76462 34.5055 -1.87847e-11
9.82616e-12 -1.87847e-11 34.8373

34.3425 -0.35217 -2.54329e-11
-0.35217 31.6913 1.00561e-12
-2.54329e-11 1.00561e-12 33.539

36.9775 -0.198757 9.82573e-12
-0.198757 37.4372 4.72031e-12
9.82573e-12 4.72031e-12 37.1886

34.7899 0.00685385 1.90743e-11
0.00685385 34.4758 -1.68582e-11
1.90743e-11 -1.68582e-11 35.2552

34.2356 0.30482 1.44512e-12
0.30482 31.5667 1.18973e-11
1.44512e-12 1.18973e-11 33.5451

34.9155 -0.275952 2.92857e-11
-0.275952 34.7504 -1.68579e-11
2.92857e-11 -1.68579e-11 35.3552

34.9513 -0.182725 7.32211e-12
-0.182725 35.0884 -4.16157e-11
7.32211e-12 -4.16157e-11 35.481

37.6234 -0.377505 -3.46844e-12
-0.377505 37.4007 2.2541e-11
-3.46844e-12 2.2541e-11 37.2715

35.008 0.0136843 -2.83217e-11
0.0136843 34.5479 -2.75513e-11
-2.83217e-11 -2.75513e-11 35.3974

35.6962 0.145854 -3.04409e-11
0.145854 35.6617 -7.08044e-12
-3.04409e-11 -7.08044e-12 36.1145

36.2314 0.188658 1.84955e-11
0.188658 36.3904 -6.17845e-11
1.84955e-11 -6.17845e-11 36.6135

35.0792 -1.40424 -1.73561e-12
-1.40424 33.3757 1.77246e-11
-1.73561e-12 1.77246e-11 34.4883

36.1973 -0.0787977 1.27159e-11
-0.0787977 36.4405 -3.78462e-11
1.27159e-11 -3.78462e-11 36.584

35.489 0.0850994 -4.39274e-11
0.0850994 35.5844 3.44398e-12
-4.39274e-11 3.44398e-12 35.9676

38.6311 0.251827 4.62394e-12
0.251827 38.8127 1.32934e-11
4.62394e-12 1.32934e-11 38.3754

38.6301 -0.250808 5.89529e-11
-0.250808 38.813 4.38303e-11
5.89529e-11 4.38303e-11 38.3749

37.9597 -0.101539 4.62384e-12
-0.101539 38.3381 -5.42006e-12
4.62384e-12 -5.42006e-12 38.0027

38.6084 0.105157 4.62342e-12
0.105157 38.9221 -2.19149e-11
4.62342e-12 -2.19149e-11 38.4133

38.6074 -0.104654 3.66053e-11
-0.104654 38.9217 -1.87839e-11
3.66053e-11 -1.87839e-11 38.4127

37.0793 -0.312632 1.69551e-11
-0.312632 37.2826 -3.68946e-11
1.69551e-11 -3.68946e-11 37.1091

35.156 -0.582823 -1.025e-10
-0.582823 33.8948 8.33443e-12
-1.025e-10 8.33443e-12 34.4516

35.156 0.601904 1.36796e-11
0.601904 33.8979 -3.3909e-11
1.36796e-11 -3.3909e-11 34.4551

38.1353 0.14272 2.08069e-11
0.14272 38.5368 -7.46567e-12
2.08069e-11 -7.46567e-12 38.1091

38.1353 -0.142972 -5.81824e-11
-0.142972 38.5393 -2.06632e-11
-5.81824e-11 -2.06632e-11 38.1094

35.1561 0.0961786 2.94778e-11
0.0961786 34.7912 2.14101e-11
2.94778e-11 2.14101e-11 35.5749

36.8322 0.832998 1.96525e-11
0.832998 35.4093 1.0596e-11
1.96525e-11 1.0596e-11 35.4283

39.0772 -0.674079 1.23313e-11
-0.674079 38.256 -2.27332e-11
1.23313e-11 -2.27332e-11 37.4117

36.978 0.194961 -2.08076e-11
0.194961 37.4497 -1.44495e-11
-2.08076e-11 -1.44495e-11 37.1954

35.5591 -0.0930163 -4.31571e-11
-0.0930163 35.8301 5.0526e-11
-4.31571e-11 5.0526e-11 36.0831

35.3975 -0.136029 7.32127e-12
-0.136029 35.1949 1.76228e-11
7.32127e-12 1.76228e-11 35.7728

37.097 -0.311819 2.81279e-11
-0.311819 37.2956 2.08077e-11
2.81279e-11 2.08077e-11 37.002

35.4046 0.857525 -3.42945e-11
0.857525 34.5333 -8.86184e-12
-3.42945e-11 -8.86184e-12 35.2928

39.761 0.180732 2.14617e-10
0.180732 40.0194 -1.35921e-10
2.14617e-10 -1.35921e-10 39.0145

39.7595 -0.179447 -4.43105e-11
-0.179447 40.0164 -8.09196e-12
-4.43105e-11 -8.09196e-12 39.0134

34.4207 1.1513 5.55112e-16
1.1513 33.3379 9.44087e-12
5.55112e-16 9.44087e-12 34.0576

37.9545 0.0660561 -1.0789e-11
0.0660561 38.3728 -5.39442e-12
-1.0789e-11 -5.39442e-12 37.9983

37.9567 -0.0651024 -3.77612e-11
-0.0651024 38.3854 2.07589e-11
-3.77612e-11 2.07589e-11 38.0035

33.0282 0.555557 -1.73402e-11
0.555557 33.9513 -8.38114e-12
-1.73402e-11 -8.38114e-12 34.1653

37.7867 0.37785 5.39431e-12
0.37785 37.8302 -6.35782e-12
5.39431e-12 -6.35782e-12 37.273

35.0252 0.101792 1.73398e-12
0.101792 34.4706 -1.12468e-11
1.73398e-12 -1.12468e-11 35.39

34.9216 -0.173311 3.33315e-11
-0.173311 33.9758 5.73166e-12
3.33315e-11 5.73166e-12 35.1881

34.266 -0.855574 4.39286e-11
-0.855574 33.1228 9.58432e-12
4.39286e-11 9.58432e-12 34.4507

34.6848 0.935808 8.51571e-11
0.935808 35.9475 2.89319e-12
8.51571e-11 2.89319e-12 35.0209

34.7028 -0.976616 -1.1753e-11
-0.976616 35.8549 -4.61432e-11
-1.1753e-11 -4.61432e-11 35.0006

35.1601 0.159108 -1.6184e-11
0.159108 35.1683 -6.55042e-12
-1.6184e-11 -6.55042e-12 35.6603

34.4476 0.233378 -2.69725e-12
0.233378 34.0201 -8.42923e-12
-2.69725e-12 -8.42923e-12 35.0118

37.7767 -0.188973 -1.73395e-11
-0.188973 38.1383 2.65629e-11
-1.73395e-11 2.65629e-11 37.8494

38.8621 -0.00539628 -3.89155e-11
-0.00539628 38.5941 -3.83412e-11
-3.89155e-11 -3.83412e-11 37.2885

39.0557 0.704679 -8.13017e-11
0.704679 35.8492 2.79381e-11
-8.13017e-11 2.79381e-11 36.3586

34.2355 0.902584 -1.0597e-11
0.902584 33.2093 3.02485e-11
-1.0597e-11 3.02485e-11 34.4571

36.6147 -0.290294 3.84757e-13
-0.290294 35.6607 2.62985e-11
3.84757e-13 2.62985e-11 36.0571

37.2048 0.086858 6.45535e-12
0.086858 36.5205 4.08442e-11
6.45535e-12 4.08442e-11 36.6606

38.0915 -0.00182772 -2.31189e-11
-0.00182772 38.5313 3.60514e-11
-2.31189e-11 3.60514e-11 38.1271

38.0979 0.00550916 1.61833e-11
0.00550916 38.531 3.54021e-12
1.61833e-11 3.54021e-12 38.1307

36.8649 0.183596 1.92587e-13
0.183596 37.2199 -6.93577e-12
1.92587e-13 -6.93577e-12 37.1329

37.5134 -0.116747 -1.92662e-12
-0.116747 37.9615 7.25485e-12
-1.92662e-12 7.25485e-12 37.6876

38.3507 0.0687167 1.38232e-11
0.0687167 38.6984 -1.5461e-11
1.38232e-11 -1.5461e-11 38.273

38.3512 -0.0673232 -2.93778e-12
-0.0673232 38.6989 -2.94046e-11
-2.93778e-12 -2.94046e-11 38.2733

37.7616 0.190883 5.77975e-12
0.190883 38.1356 7.63406e-12
5.77975e-12 7.63406e-12 37.844

37.0204 0.141186 1.6954e-11
0.141186 36.9643 -1.0404e-11
1.6954e-11 -1.0404e-11 37.0134

38.1673 0.179848 -5.39464e-12
0.179848 38.4761 -2.66592e-11
-5.39464e-12 -2.66592e-11 38.1326

38.1802 -0.174357 5.00913e-12
-0.174357 38.4778 -5.99647e-12
5.00913e-12 -5.99647e-12 38.1379

34.5545 0.388883 -2.06156e-11
0.388883 33.0983 -1.98929e-11
-2.06156e-11 -1.98929e-11 34.651

38.0252 -0.221971 2.81288e-11
-0.221971 38.0173 -2.15777e-11
2.81288e-11 -2.15777e-11 37.7618

34.86 0.0670778 1.31011e-11
0.0670778 34.5485 -1.80143e-11
1.31011e-11 -1.80143e-11 35.2945

33.1398 0.896359 1.44507e-11
0.896359 33.5506 1.92661e-11
1.44507e-11 1.92661e-11 33.6951

37.8234 -0.234505 -1.19448e-11
-0.234505 37.8129 -1.83069e-12
-1.19448e-11 -1.83069e-12 37.4292

37.3262 0.0374699 -4.23857e-12
0.0374699 37.7235 1.7508e-11
-4.23857e-12 1.7508e-11 37.5148

33.994 0.547008 -2.36982e-11
0.547008 33.526 9.44035e-12
-2.36982e-11 9.44035e-12 34.6767

34.5848 -0.308969 -5.39468e-12
-0.308969 33.2888 -2.53836e-11
-5.39468e-12 -2.53836e-11 34.7329

34.8628 -0.0636158 -2.09043e-11
-0.0636158 34.7 2.21602e-12
-2.09043e-11 2.21602e-12 35.4163

34.3696 -0.222861 2.87073e-11
-0.222861 34.0544 -7.22869e-13
2.87073e-11 -7.22869e-13 35.0134

36.2663 0.593894 3.62207e-11
0.593894 35.7931 -7.12921e-12
3.62207e-11 -7.12921e-12 36.1803

36.4928 -0.535906 3.08251e-11
-0.535906 36.0703 3.61248e-11
3.08251e-11 3.61248e-11 36.3438

36.901 -0.0426761 -1.51242e-11
-0.0426761 37.2644 -5.25966e-11
-1.51242e-11 -5.25966e-11 37.1654

32.9697 -0.59128 -4.81743e-12
-0.59128 33.9511 3.21759e-11
-4.81743e-12 3.21759e-11 34.1392

36.9613 0.0569653 -1.69541e-11
0.0569653 37.1531 2.11934e-12
-1.69541e-11 2.11934e-12 37.1096

36.9419 -0.0557355 8.86212e-12
-0.0557355 37.1267 3.41011e-11
8.86212e-12 3.41011e-11 37.094

34.4739 0.265033 -3.46785e-12
0.265033 34.0116 -8.42927e-12
-3.46785e-12 -8.42927e-12 34.9227

33.9807 0.749522 3.46828e-12
0.749522 30.8468 2.32645e-11
3.46828e-12 2.32645e-11 33.1767

33.9872 -0.64789 -2.79378e-11
-0.64789 30.84 2.82742e-11
-2.79378e-11 2.82742e-11 33.1733

35.7896 0.323926 4.62384e-12
0.323926 35.347 1.25229e-12
4.62384e-12 1.25229e-12 35.9225

34.3204 -0.203525 -4.04669e-12
-0.203525 34.5616 3.28978e-11
-4.04669e-12 3.28978e-11 35.0768

36.0951 0.256659 -1.54131e-11
0.256659 36.0994 -5.05729e-12
-1.54131e-11 -5.05729e-12 36.3642

36.1256 -0.251429 -3.35235e-11
-0.251429 36.1122 6.6464e-12
-3.35235e-11 6.6464e-12 36.3778

37.107 0.0170432 -7.70652e-12
0.0170432 37.3258 -3.15964e-11
-7.70652e-12 -3.15964e-11 37.2767

36.8192 -0.183041 3.54493e-11
-0.183041 37.1935 2.21563e-11
3.54493e-11 2.21563e-11 37.1096

37.1323 0.0223821 -2.46606e-11
0.0223821 37.5356 -6.88748e-12
-2.46606e-11 -6.88748e-12 37.3425

40.9225 0.273162 -6.0113e-11
0.273162 38.6541 3.83345e-11
-6.0113e-11 3.83345e-11 37.5898

40.7291 -1.35346 -6.0881e-11
-1.35346 37.7915 -1.94549e-11
-6.0881e-11 -1.94549e-11 37.1353

37.3702 -0.0168081 -1.50275e-11
-0.0168081 37.7371 -5.85205e-12
-1.50275e-11 -5.85205e-12 37.5349

37.4731 -0.122498 -1.9264e-12
-0.122498 37.591 -5.97273e-12
-1.9264e-12 -5.97273e-12 37.3455

37.9398 0.104527 -9.63292e-12
0.104527 38.332 1.6817e-11
-9.63292e-12 1.6817e-11 37.9954

35.7776 -0.311507 3.31386e-11
-0.311507 35.3728 -1.92626e-12
3.31386e-11 -1.92626e-12 35.9174

38.2328 -0.591726 -3.08257e-11
-0.591726 37.8184 9.92141e-12
-3.08257e-11 9.92141e-12 37.4157

33.8547 1.58945 -4.24037e-12
1.58945 33.0612 -9.73005e-12
-4.24037e-12 -9.73005e-12 33.8071

38.0441 0.243072 -2.88989e-11
0.243072 38.0184 9.72961e-12
-2.88989e-11 9.72961e-12 37.7686

37.9958 -0.287839 2.65871e-11
-0.287839 38.1255 7.80315e-12
2.65871e-11 7.80315e-12 37.7702

34.5247 0.541437 -4.23887e-12
0.541437 34.3746 6.5504e-12
-4.23887e-12 6.5504e-12 34.8235

38.1722 -0.00291522 3.12106e-11
-0.00291522 38.7061 2.89605e-11
3.12106e-11 2.89605e-11 38.2131

37.1368 -0.0169998 -4.12292e-11
-0.0169998 37.4724 -1.45462e-11
-4.12292e-11 -1.45462e-11 37.3212

33.0806 -0.897087 4.04764e-12
-0.897087 33.564 -4.06533e-11
4.04764e-12 -4.06533e-11 33.6784

37.1241 -0.200001 -2.31195e-11
-0.200001 37.6016 2.36008e-11
-2.31195e-11 2.36008e-11 37.3412

35.0688 -0.1012 4.89367e-11
-0.1012 35.2148 1.63288e-11
4.89367e-11 1.63288e-11 35.6726

34.1629 -0.112745 1.81108e-11
-0.112745 34.2889 -2.07108e-12
1.81108e-11 -2.07108e-12 34.8497

36.4542 0.0756055 1.15595e-11
0.0756055 36.3818 -1.76769e-11
1.15595e-11 -1.76769e-11 36.5964

36.4563 -0.0834309 4.43118e-11
-0.0834309 36.3694 5.35605e-11
4.43118e-11 5.35605e-11 36.5921

37.0354 0.0957937 -3.2367e-11
0.0957937 37.5704 -4.94899e-12
-3.2367e-11 -4.94899e-12 37.348

37.1254 0.205375 -2.08065e-11
0.205375 37.5836 6.63717e-11
-2.08065e-11 6.63717e-11 37.3391

36.4647 -0.122163 1.69547e-11
-0.122163 36.1432 -9.53666e-12
1.69547e-11 -9.53666e-12 36.3784

36.4022 0.144918 3.62204e-11
0.144918 36.0732 -1.11751e-11
3.62204e-11 -1.11751e-11 36.3144

36.6369 -0.0206881 1.07891e-11
-0.0206881 36.8737 7.32101e-12
1.07891e-11 7.32101e-12 36.8845

36.6292 0.0162293 3.04402e-11
0.0162293 36.9048 3.00074e-11
3.04402e-11 3.00074e-11 36.8883

38.2899 0.0596727 1.15596e-11
0.0596727 38.6086 3.75684e-11
1.15596e-11 3.75684e-11 38.2191

38.293 -0.0568863 2.15777e-11
-0.0568863 38.6088 1.07888e-11
2.15777e-11 1.07888e-11 38.2202

37.6184 -0.330189 3.58355e-11
-0.330189 37.869 -2.12885e-11
3.58355e-11 -2.12885e-11 37.5478

33.5607 -1.44515 3.12149e-11
-1.44515 33.1001 -1.52203e-11
3.12149e-11 -1.52203e-11 33.6273

33.4797 0.0216276 -4.20017e-11
0.0216276 34.1163 -8.95852e-12
-4.20017e-11 -8.95852e-12 34.6336

35.176 0.0530751 4.62412e-12
0.0530751 35.1413 3.61728e-11
4.62412e-12 3.61728e-11 35.6785

36.4362 -0.14741 2.35048e-11
-0.14741 36.7747 4.335e-12
2.35048e-11 4.335e-12 36.701

38.4599 0.207874 -3.08255e-11
0.207874 38.639 -6.06862e-12
-3.08255e-11 -6.06862e-12 38.274

38.4603 -0.206408 2.23488e-11
-0.206408 38.6407 -2.64423e-11
2.23488e-11 -2.64423e-11 38.2743

37.9694 0.257895 4.43134e-12
0.257895 38.2793 2.12887e-11
4.43134e-12 2.12887e-11 37.9612

37.9676 -0.259022 -5.97249e-12
-0.259022 38.2802 9.92194e-12
-5.97249e-12 9.92194e-12 37.961

35.8639 -0.0394584 7.70635e-12
-0.0394584 36.1558 -2.77918e-11
7.70635e-12 -2.77918e-11 36.3271

36.558 -0.0263621 -4.27709e-11
-0.0263621 36.8123 1.69783e-12
-4.27709e-11 1.69783e-12 36.8548

36.435 0.170411 2.08071e-11
0.170411 36.785 -1.69543e-11
2.08071e-11 -1.69543e-11 36.7017

39.1372 0.0053218 -6.93569e-12
0.0053218 39.319 7.22488e-12
-6.93569e-12 7.22488e-12 38.6963

39.1364 -0.00483422 4.70085e-11
-0.00483422 39.3169 2.11934e-12
4.70085e-11 2.11934e-12 38.6955

37.6016 -0.226791 5.47155e-11
-0.226791 37.9102 -6.59834e-12
5.47155e-11 -6.59834e-12 37.661

35.2441 -0.0929457 3.39092e-11
-0.0929457 34.7111 -3.55105e-11
3.39092e-11 -3.55105e-11 35.574

37.512 0.119953 1.61833e-11
0.119953 37.9652 -5.56912e-12
1.61833e-11 -5.56912e-12 37.6883

35.5028 -0.78456 -3.62206e-11
-0.78456 34.9455 2.3114e-12
-3.62206e-11 2.3114e-12 35.4906

37.0974 0.391864 2.31299e-12
0.391864 36.9562 3.1982e-11
2.31299e-12 3.1982e-11 36.8846

34.8768 0.0498227 2.10003e-11
0.0498227 34.9175 2.00856e-11
2.10003e-11 2.00856e-11 35.4829

38.0192 0.285823 -2.46611e-11
0.285823 38.123 -2.39859e-11
-2.46611e-11 -2.39859e-11 37.7768

37.5861 0.232066 3.46738e-12
0.232066 37.9111 -3.675e-11
3.46738e-12 -3.675e-11 37.6562

32.2172 1.43201 3.27606e-12
1.43201 32.8086 1.07899e-11
3.27606e-12 1.07899e-11 33.0894

38.4563 -0.0126499 2.23489e-11
-0.0126499 37.751 1.73454e-12
2.23489e-11 1.73454e-12 37.3151

36.7363 0.716823 2.77434e-11
0.716823 34.0211 -1.36801e-11
2.77434e-11 -1.36801e-11 35.096

37.6145 0.343246 -9.63293e-12
0.343246 37.8721 -1.25207e-12
-9.63293e-12 -1.25207e-12 37.5514

33.8008 0.693549 9.24698e-12
0.693549 34.1222 -1.61832e-11
9.24698e-12 -1.61832e-11 34.5495

34.766 -0.0848381 1.69547e-11
-0.0848381 34.5235 2.12412e-11
1.69547e-11 2.12412e-11 35.305

38.2211 -0.429814 2.54312e-11
-0.429814 37.8919 8.09208e-12
2.54312e-11 8.09208e-12 37.6536

34.905 -0.682805 -2.15785e-11
-0.682805 34.6416 5.97221e-12
-2.15785e-11 5.97221e-12 35.2502

35.6972 0.463951 1.19461e-11
0.463951 35.6065 3.26565e-11
1.19461e-11 3.26565e-11 35.9639

37.7205 -0.118075 3.15962e-11
-0.118075 38.1521 -2.03253e-11
3.15962e-11 -2.03253e-11 37.7923

36.6003 -0.338772 3.23679e-11
-0.338772 36.4567 -1.95549e-11
3.23679e-11 -1.95549e-11 36.6155

38.3858 0.515345 -7.32087e-12
0.515345 37.8042 7.7064e-12
-7.32087e-12 7.7064e-12 37.47

35.5219 0.0575547 -7.70656e-11
0.0575547 35.5583 2.55239e-12
-7.70656e-11 2.55239e-12 35.9989

35.4886 -0.0309147 1.00184e-11
-0.0309147 35.2583 3.10431e-11
1.00184e-11 3.10431e-11 35.8771

37.7222 0.119488 -3.7761e-11
0.119488 38.1522 2.02296e-11
-3.7761e-11 2.02296e-11 37.7929

37.7542 -0.0179521 2.10961e-11
-0.0179521 38.1792 2.42322e-12
2.10961e-11 2.42322e-12 37.8607

39.791 0.125393 1.7262e-10
0.125393 39.6637 4.72959e-11
1.7262e-10 4.72959e-11 38.9439

39.7896 -0.124046 1.2985e-10
-0.124046 39.6615 9.72974e-12
1.2985e-10 9.72974e-12 38.943

37.4943 0.147047 9.24764e-12
0.147047 37.5829 -1.06928e-11
9.24764e-12 -1.06928e-11 37.3487

34.1327 -0.823032 3.83406e-11
-0.823032 34.6941 -4.53737e-11
3.83406e-11 -4.53737e-11 34.7544

34.1286 0.837587 -4.45059e-11
0.837587 34.7354 -2.71669e-11
-4.45059e-11 -2.71669e-11 34.7634

34.6982 -0.109411 1.15601e-12
-0.109411 32.6612 2.91468e-11
1.15601e-12 2.91468e-11 34.3638

32.1713 -1.41048 1.079e-11
-1.41048 32.8388 -5.29815e-12
1.079e-11 -5.29815e-12 33.0715

36.4701 0.0831723 3.85345e-12
0.0831723 36.7475 -5.34156e-11
3.85345e-12 -5.34156e-11 36.7919

35.502 0.00651073 -7.7065e-12
0.00651073 35.2388 3.34514e-11
-7.7065e-12 3.34514e-11 35.8694

36.3454 0.160089 2.15784e-11
0.160089 36.5281 1.44496e-11
2.15784e-11 1.44496e-11 36.6619

36.3634 -0.163168 -5.77774e-13
-0.163168 36.5331 -1.54612e-11
-5.77774e-13 -1.54612e-11 36.6768

36.7737 0.0720199 1.31007e-11
0.0720199 36.9904 -3.87973e-11
1.31007e-11 -3.87973e-11 37.0138

38.2293 0.414415 -2.54306e-11
0.414415 37.9036 2.05185e-11
-2.54306e-11 2.05185e-11 37.6568

35.8622 0.145666 1.96517e-11
0.145666 35.9114 -6.26316e-13
1.96517e-11 -6.26316e-13 36.2485

36.7415 0.041716 -5.47159e-11
0.041716 36.9025 2.22163e-11
-5.47159e-11 2.22163e-11 36.9754

36.9024 -0.491665 1.38751e-11
-0.491665 35.1984 -6.62757e-11
1.38751e-11 -6.62757e-11 35.4723

38.9765 0.532355 6.16266e-12
0.532355 37.7064 -4.04584e-11
6.16266e-12 -4.04584e-11 37.3057

34.6428 -0.588012 3.85321e-13
-0.588012 33.6588 -4.47947e-11
3.85321e-13 -4.47947e-11 34.6972

33.8132 -0.0975279 -1.83041e-11
-0.0975279 30.1144 -3.07605e-11
-1.83041e-11 -3.07605e-11 32.7438

36.5633 -0.215427 5.66419e-11
-0.215427 36.8962 4.56613e-11
5.66419e-11 4.56613e-11 36.8498

36.5655 0.212989 3.00548e-11
0.212989 36.9225 -2.98629e-11
3.00548e-11 -2.98629e-11 36.8623

34.5805 -0.0734723 1.52209e-11
-0.0734723 32.2176 1.15956e-13
1.52209e-11 1.15956e-13 34.2308

37.0768 0.324974 4.62415e-12
0.324974 37.3103 5.87612e-12
4.62415e-12 5.87612e-12 37.1088

38.7857 0.195239 -7.78341e-11
0.195239 39.0435 -2.94284e-11
-7.78341e-11 -2.94284e-11 38.5288

38.7857 -0.194198 4.93204e-11
-0.194198 39.0425 -1.61831e-11
4.93204e-11 -1.61831e-11 38.5284

34.2405 -0.223784 -3.15975e-11
-0.223784 34.3027 -6.26101e-12
-3.15975e-11 -6.26101e-12 34.8745

33.7611 -0.707858 2.23496e-11
-0.707858 34.1107 -6.73924e-13
2.23496e-11 -6.73924e-13 34.5333

34.4342 -0.616493 2.23497e-11
-0.616493 32.8731 5.39431e-12
2.23497e-11 5.39431e-12 34.4392

35.1524 0.0171548 -1.9459e-11
0.0171548 34.6845 3.88221e-11
-1.9459e-11 3.88221e-11 35.5289

34.4191 -0.529244 1.81108e-11
-0.529244 34.3748 -5.49056e-12
1.81108e-11 -5.49056e-12 34.7918

35.6034 -0.110666 -1.15599e-11
-0.110666 35.6049 -4.98515e-12
-1.15599e-11 -4.98515e-12 36.0792

35.697 -0.436478 -2.46599e-11
-0.436478 35.7009 -3.26568e-11
-2.46599e-11 -3.26568e-11 35.9946

36.5825 0.331303 1.04038e-11
0.331303 36.3059 1.05955e-12
1.04038e-11 1.05955e-12 36.5625

38.2709 -0.511901 -4.16123e-11
-0.511901 37.1157 -4.58551e-11
-4.16123e-11 -4.58551e-11 36.7627

37.9534 0.368774 -6.2423e-11
0.368774 36.9382 5.80553e-13
-6.2423e-11 5.80553e-13 36.6121

38.35 0.00826824 3.96876e-11
0.00826824 38.7968 -4.431e-12
3.96876e-11 -4.431e-12 38.3181

38.3457 -0.00915052 3.85305e-12
-0.00915052 38.7944 -1.54144e-12
3.85305e-12 -1.54144e-12 38.3171

33.7147 -0.381551 5.78004e-11
-0.381551 34.0699 2.88029e-11
5.78004e-11 2.88029e-11 34.6483

33.6633 0.401389 -1.46426e-11
0.401389 34.1147 -6.45455e-12
-1.46426e-11 -6.45455e-12 34.6335

33.734 -0.203844 -1.02121e-11
-0.203844 34.7907 -3.24647e-11
-1.02121e-11 -3.24647e-11 34.4586

33.718 0.227721 -3.33315e-11
0.227721 34.767 -2.02316e-12
-3.33315e-11 -2.02316e-12 34.4482

39.4549 0.00392702 -7.70621e-11
0.00392702 39.558 6.59858e-11
-7.70621e-11 6.59858e-11 38.8315

39.4533 -0.00312816 5.08613e-11
-0.00312816 39.5558 -6.83887e-12
5.08613e-11 -6.83887e-12 38.8306

38.4706 0.272529 1.65684e-11
0.272529 38.2545 2.31177e-12
1.65684e-11 2.31177e-12 38.0278

38.4693 -0.275563 3.8533e-12
-0.275563 38.2594 9.63581e-14
3.8533e-12 9.63581e-14 38.029

37.5217 -0.0591142 5.62565e-11
-0.0591142 38.0128 -2.64872e-12
5.62565e-11 -2.64872e-12 37.6905

35.7498 -0.314955 -5.7794e-12
-0.314955 35.1934 -1.36793e-11
-5.7794e-12 -1.36793e-11 35.6765

36.9489 0.0713777 -1.00178e-11
0.0713777 36.8923 1.86885e-11
-1.00178e-11 1.86885e-11 36.8602

35.2136 -0.14564 2.44693e-11
-0.14564 34.8641 -8.06783e-11
2.44693e-11 -8.06783e-11 35.5936

37.5238 0.0630549 -1.65688e-11
0.0630549 38.0135 -2.88977e-12
-1.65688e-11 -2.88977e-12 37.6894

35.6041 0.261575 -1.29564e-11
0.261575 35.292 6.83965e-12
-1.29564e-11 6.83965e-12 35.6695

37.2996 -0.106078 -2.85138e-11
-0.106078 37.781 2.72131e-11
-2.85138e-11 2.72131e-11 37.4933

31.8561 -0.899575 1.25242e-11
-0.899575 33.3548 -2.34095e-11
1.25242e-11 -2.34095e-11 33.2643

31.8656 0.902549 -2.94792e-11
0.902549 33.3309 2.21625e-12
-2.94792e-11 2.21625e-12 33.2633

37.2892 0.109325 1.38713e-11
0.109325 37.7739 -2.05185e-11
1.38713e-11 -2.05185e-11 37.4878

34.5848 0.663402 7.70646e-12
0.663402 33.6716 2.79849e-11
7.70646e-12 2.79849e-11 34.6715

40.8941 0.155168 5.66408e-11
0.155168 35.4175 3.46741e-12
5.66408e-11 3.46741e-12 36.5882

40.8448 -0.324729 -2.35028e-11
-0.324729 39.6071 2.15806e-11
-2.35028e-11 2.15806e-11 37.8069

37.6826 0.140689 2.31231e-12
0.140689 37.3327 1.47386e-11
2.31231e-12 1.47386e-11 37.1776

34.0072 -0.508412 -4.12311e-11
-0.508412 33.5415 -2.16743e-11
-4.12311e-11 -2.16743e-11 34.703

34.6281 -0.968014 -2.89005e-11
-0.968014 33.1922 1.98931e-11
-2.89005e-11 1.98931e-11 34.2108

36.4064 -0.0532851 3.50643e-11
-0.0532851 36.5275 -3.6582e-11
3.50643e-11 -3.6582e-11 36.6969

36.433 0.0162491 2.31177e-12
0.0162491 36.8834 -1.8905e-11
2.31177e-12 -1.8905e-11 36.8452

38.6058 0.105756 3.50634e-11
0.105756 38.7706 -2.38896e-11
3.50634e-11 -2.38896e-11 38.3864

38.6083 -0.101073 1.65689e-11
-0.101073 38.7689 -3.81223e-11
1.65689e-11 -3.81223e-11 38.3866

34.6463 0.966643 -1.92669e-11
0.966643 33.2414 3.22633e-12
-1.92669e-11 3.22633e-12 34.2255

36.9943 -0.100955 -3.34673e-12
-0.100955 36.8723 -3.44865e-11
-3.34673e-12 -3.44865e-11 36.8865

37.3178 -0.191973 6.35815e-12
-0.191973 37.7684 -4.25299e-11
6.35815e-12 -4.25299e-11 37.5226

38.1506 0.291899 3.39076e-11
0.291899 38.4279 -8.95908e-12
3.39076e-11 -8.95908e-12 38.0636

38.1505 -0.291167 -5.97239e-11
-0.291167 38.4297 6.26099e-12
-5.97239e-11 6.26099e-12 38.0638

35.4224 -1.41483 2.08084e-11
-1.41483 34.6909 8.32292e-11
2.08084e-11 8.32292e-11 34.9148

35.3876 1.44102 -2.44688e-11
1.44102 34.6985 -4.58383e-11
-2.44688e-11 -4.58383e-11 34.91

37.6168 0.416325 2.31193e-11
0.416325 37.6465 -9.65923e-14
2.31193e-11 -9.65923e-14 37.3473

34.5961 -0.180089 -5.83783e-11
-0.180089 34.0739 -2.21496e-12
-5.83783e-11 -2.21496e-12 34.9813

38.3872 0.219977 1.75313e-11
0.219977 38.7952 -3.72313e-11
1.75313e-11 -3.72313e-11 38.3187

38.3883 -0.219158 1.09814e-11
-0.219158 38.7946 2.8369e-11
1.09814e-11 2.8369e-11 38.3187

35.5475 -0.628062 -2.02304e-11
-0.628062 34.5058 6.26078e-12
-2.02304e-11 6.26078e-12 35.074

34.0539 -1.21347 2.7746e-11
-1.21347 33.2404 -1.42561e-11
2.7746e-11 -1.42561e-11 33.8302

36.0952 -0.172129 6.78171e-11
-0.172129 36.3636 4.2506e-11
6.78171e-11 4.2506e-11 36.5504

33.0619 0.0885366 -2.52396e-11
0.0885366 34.5381 -1.64727e-11
-2.52396e-11 -1.64727e-11 34.1629

33.0427 -0.0888443 9.82585e-12
-0.0888443 34.5261 -3.04417e-11
9.82585e-12 -3.04417e-11 34.1544

33.9696 -1.19745 4.0846e-11
-1.19745 33.7482 7.71401e-13
4.0846e-11 7.71401e-13 34.3864

37.3417 0.1923 -2.96697e-11
0.1923 37.7601 -8.76601e-12
-2.96697e-11 -8.76601e-12 37.5324

34.2285 0.238617 -3.17899e-11
0.238617 34.3211 -6.26222e-12
-3.17899e-11 -6.26222e-12 34.8592

33.3578 0.0760855 2.17729e-11
0.0760855 34.2526 3.92082e-11
2.17729e-11 3.92082e-11 34.4372

33.3222 -0.0902341 1.56062e-11
-0.0902341 34.2733 2.06166e-11
1.56062e-11 2.06166e-11 34.4283

34.3178 0.756789 -2.11932e-12
0.756789 32.6648 -3.04895e-11
-2.11932e-12 -3.04895e-11 34.3448

38.6619 0.140445 2.81279e-11
0.140445 39.07 -2.21562e-12
2.81279e-11 -2.21562e-12 38.5054

38.6624 -0.139309 4.97052e-11
-0.139309 39.0674 6.98387e-11
4.97052e-11 6.98387e-11 38.5048

39.0572 -0.0275945 -1.11752e-11
-0.0275945 38.0851 5.96931e-12
-1.11752e-11 5.96931e-12 36.9457

38.9749 0.678101 -1.8881e-11
0.678101 38.1201 -3.27272e-12
-1.8881e-11 -3.27272e-12 37.0876

35.9355 0.0478833 1.04039e-11
0.0478833 36.2243 1.20586e-13
1.04039e-11 1.20586e-13 36.3807

35.7706 -0.030373 -1.84958e-11
-0.030373 35.2703 -3.2223e-11
-1.84958e-11 -3.2223e-11 35.9209

37.9927 0.271685 -4.50823e-11
0.271685 38.3231 3.85491e-13
-4.50823e-11 3.85491e-13 37.9192

37.9978 -0.270587 -3.00552e-11
-0.270587 38.3241 2.63939e-11
-3.00552e-11 2.63939e-11 37.9206

37.8198 0.29789 2.8514e-11
0.29789 37.8287 8.76547e-12
2.8514e-11 8.76547e-12 37.4598

36.1346 0.0696023 3.93028e-11
0.0696023 36.3273 -5.09114e-11
3.93028e-11 -5.09114e-11 36.5104

36.5427 -0.02433 -3.85324e-11
-0.02433 36.5432 4.8286e-11
-3.85324e-11 4.8286e-11 36.7703

39.6096 -0.156804 -3.35227e-11
-0.156804 39.8907 8.10119e-11
-3.35227e-11 8.10119e-11 38.9632

39.611 0.158053 -6.35767e-11
0.158053 39.8926 -9.05471e-12
-6.35767e-11 -9.05471e-12 38.9641

33.4241 -0.0274955 -3.71849e-11
-0.0274955 34.0749 9.4401e-12
-3.71849e-11 9.4401e-12 34.5976

37.453 0.208018 4.77791e-11
0.208018 37.5795 -4.00738e-11
4.77791e-11 -4.00738e-11 37.4376

38.0179 0.181097 -3.27523e-11
0.181097 38.2512 -7.03196e-12
-3.27523e-11 -7.03196e-12 37.9132

38.018 -0.17985 1.15617e-12
-0.17985 38.2525 -4.81806e-13
1.15617e-12 -4.81806e-13 37.9135

37.5383 0.12968 2.69718e-12
0.12968 37.871 1.15599e-12
2.69718e-12 1.15599e-12 37.5691

37.451 -0.197972 -1.65686e-11
-0.197972 37.5688 -1.14635e-11
-1.65686e-11 -1.14635e-11 37.4341

36.0269 -0.0104934 -2.15782e-11
-0.0104934 36.3256 3.2755e-12
-2.15782e-11 3.2755e-12 36.4362

36.0512 -0.0146962 -4.35413e-11
-0.0146962 36.3863 -3.78106e-11
-4.35413e-11 -3.78106e-11 36.4646

36.7503 -0.0514683 -2.15781e-11
-0.0514683 37.2016 -3.68947e-11
-2.15781e-11 -3.68947e-11 37.0884

37.5326 -0.12652 2.69663e-12
-0.12652 37.872 3.29452e-11
2.69663e-12 3.29452e-11 37.5673

35.9629 -0.131843 -2.65876e-11
-0.131843 35.961 9.56089e-12
-2.65876e-11 9.56089e-12 36.3052

35.308 0.07615 2.15784e-11
0.07615 35.1027 -4.12e-11
2.15784e-11 -4.12e-11 35.7311

38.3539 0.249526 3.62197e-11
0.249526 38.4307 -8.86279e-12
3.62197e-11 -8.86279e-12 38.1079

38.3542 -0.250932 -2.35047e-11
-0.250932 38.4308 1.27154e-11
-2.35047e-11 1.27154e-11 38.1079

38.3487 0.166761 8.47672e-12
0.166761 38.6923 -1.71468e-11
8.47672e-12 -1.71468e-11 38.2151

38.3491 -0.165966 -3.0828e-12
-0.165966 38.693 3.99767e-11
-3.0828e-12 3.99767e-11 38.2151

35.6825 -0.13277 1.54159e-12
-0.13277 35.9177 -5.99906e-11
1.54159e-12 -5.99906e-11 36.1902

35.5839 -0.11937 2.73583e-11
-0.11937 35.5811 1.69665e-11
2.73583e-11 1.69665e-11 35.9877

37.7479 -0.289644 3.27518e-11
-0.289644 38.0845 2.29268e-11
3.27518e-11 2.29268e-11 37.7591

37.7455 0.292407 -4.27704e-11
0.292407 38.0805 1.93092e-13
-4.27704e-11 1.93092e-13 37.7578

38.4378 -0.163528 -3.62197e-11
-0.163528 35.6181 -6.18468e-11
-3.62197e-11 -6.18468e-11 36.2883

38.6155 -0.0200123 -1.27174e-11
-0.0200123 37.661 -3.73751e-11
-1.27174e-11 -3.73751e-11 37.048

38.4609 0.1745 2.23485e-11
0.1745 38.6636 1.10774e-11
2.23485e-11 1.10774e-11 38.2105

38.4679 -0.170578 -1.00183e-11
-0.170578 38.6624 7.32086e-12
-1.00183e-11 7.32086e-12 38.2114

38.7399 0.0898196 1.04035e-11
0.0898196 38.9864 1.55089e-11
1.04035e-11 1.55089e-11 38.493

38.7399 -0.089529 5.62559e-11
-0.089529 38.9851 4.70089e-11
5.62559e-11 4.70089e-11 38.4925

33.6199 -0.216447 -1.54131e-11
-0.216447 34.3402 1.31974e-11
-1.54131e-11 1.31974e-11 34.4879

33.6743 0.217698 -1.56048e-11
0.217698 34.3191 1.72437e-11
-1.56048e-11 1.72437e-11 34.5068

37.1399 -1.1961 1.23299e-11
-1.1961 35.526 3.77621e-11
1.23299e-11 3.77621e-11 35.4757

33.9582 0.0548179 1.34814e-12
0.0548179 35.0139 -1.70508e-11
1.34814e-12 -1.70508e-11 34.4621

39.094 0.0409448 -1.54125e-11
0.0409448 39.3242 1.54103e-12
-1.54125e-11 1.54103e-12 38.6961

39.5011 -0.107126 -2.81274e-11
-0.107126 39.4608 -8.38051e-12
-2.81274e-11 -8.38051e-12 38.8356

39.0935 -0.0402261 5.93381e-11
-0.0402261 39.3277 -7.03228e-12
5.93381e-11 -7.03228e-12 38.6968

39.502 0.107803 5.00967e-12
0.107803 39.4631 2.88981e-11
5.00967e-12 2.88981e-11 38.8364

39.1389 0.726368 4.24108e-12
0.726368 38.6416 5.16326e-11
4.24108e-12 5.16326e-11 37.4699

33.9651 -0.0475517 3.67986e-11
-0.0475517 35.0055 -3.83421e-11
3.67986e-11 -3.83421e-11 34.4617

39.39 0.00773447 1.14822e-10
0.00773447 39.3966 1.72526e-10
1.14822e-10 1.72526e-10 38.744

39.9512 -0.115726 -6.93636e-12
-0.115726 39.8028 -5.01209e-12
-6.93636e-12 -5.01209e-12 39.0095

39.9514 0.116588 1.10624e-09
0.116588 39.8054 3.19503e-10
1.10624e-09 3.19503e-10 39.0103

39.3927 -0.00625069 -1.05964e-10
-0.00625069 39.398 -1.35437e-10
-1.05964e-10 -1.35437e-10 38.7451

39.2989 -0.068195 9.24785e-12
-0.068195 39.1209 1.86878e-11
9.24785e-12 1.86878e-11 38.6468

38.8178 -0.27676 0
-0.27676 38.8118 -6.7408e-13
0 -6.7408e-13 38.4189

39.4527 -0.079708 5.78031e-12
-0.079708 39.7607 -2.4949e-11
5.78031e-12 -2.4949e-11 38.8786

39.3009 0.0700568 -3.0054e-11
0.0700568 39.1224 1.94592e-11
-3.0054e-11 1.94592e-11 38.6477

39.4543 0.0805063 -5.27892e-11
0.0805063 39.7632 -9.80619e-11
-5.27892e-11 -9.80619e-11 38.8796

38.8191 0.278426 1.69537e-11
0.278426 38.8138 3.56382e-12
1.69537e-11 3.56382e-12 38.4198

38.9316 0.0892605 -5.00895e-12
0.0892605 39.0783 1.13668e-11
-5.00895e-12 1.13668e-11 38.5404

39.1645 0.190498 -4.97054e-11
0.190498 39.2102 1.5413e-11
-4.97054e-11 1.5413e-11 38.676

38.9304 -0.0886611 -4.6623e-11
-0.0886611 39.0774 -9.63612e-13
-4.6623e-11 -9.63612e-13 38.5396

39.1637 -0.18922 5.54851e-11
-0.18922 39.2089 2.95732e-11
5.54851e-11 2.95732e-11 38.6753

21.9619 1.32771 2.31201e-11
1.32771 24.9614 7.32133e-12
2.31201e-11 7.32133e-12 23.2526

29.2101 0.217793 -2.73613e-11
0.217793 30.2653 -2.42774e-11
-2.73613e-11 -2.42774e-11 29.4152

25.077 0.374312 -2.27352e-11
0.374312 29.0079 1.42606e-11
-2.27352e-11 1.42606e-11 27.2874

26.6339 0.681449 3.75685e-12
0.681449 22.4944 2.69723e-12
3.75685e-12 2.69723e-12 24.5829

25.5714 0.196084 1.17548e-11
0.196084 21.5254 2.08114e-11
1.17548e-11 2.08114e-11 23.1283

29.7919 -0.143982 -4.45085e-11
-0.143982 31.3375 -3.76678e-11
-4.45085e-11 -3.76678e-11 30.9053

25.6886 0.568943 -1.36804e-11
0.568943 30.8682 -3.8484e-13
-1.36804e-11 -3.8484e-13 28.7418

25.869 -0.187375 1.33434e-11
-0.187375 22.1402 -1.38747e-11
1.33434e-11 -1.38747e-11 23.4091

29.9105 0.155484 -1.18032e-11
0.155484 25.0088 -3.68017e-11
-1.18032e-11 -3.68017e-11 27.6521

17.9762 1.19196 3.07362e-11
1.19196 20.5758 8.86484e-12
3.07362e-11 8.86484e-12 18.799

18.8479 -1.92744 1.93086e-13
-1.92744 20.914 -1.23325e-11
1.93086e-13 -1.23325e-11 18.9677

21.0928 1.20127 3.29549e-11
1.20127 18.6146 -2.46661e-11
3.29549e-11 -2.46661e-11 19.2112

30.2646 -2.20358 3.76677e-11
-2.20358 31.6019 -1.77636e-15
3.76677e-11 -1.77636e-15 30.687

28.6533 -0.770226 -6.33909e-11
-0.770226 30.8349 -1.31017e-11
-6.33909e-11 -1.31017e-11 29.6349

22.4532 1.14131 6.55008e-12
1.14131 26.0417 -2.65923e-11
6.55008e-12 -2.65923e-11 24.6444

23.9801 1.32468 -1.65729e-11
1.32468 28.0851 -1.92684e-11
-1.65729e-11 -1.92684e-11 26.8524

25.6104 -0.631259 6.74348e-12
-0.631259 30.9002 -1.65714e-11
6.74348e-12 -1.65714e-11 28.6718

28.5897 -1.6486 1.38722e-11
-1.6486 30.8216 1.98459e-11
1.38722e-11 1.98459e-11 29.9657

26.9585 -1.17389 -9.64414e-13
-1.17389 23.1992 -1.63777e-11
-9.64414e-13 -1.63777e-11 25.4445

19.3102 0.376303 -1.06964e-11
0.376303 22.9644 3.04473e-11
-1.06964e-11 3.04473e-11 20.4253

20.7641 -0.751696 1.63803e-11
-0.751696 23.4439 3.85403e-12
1.63803e-11 3.85403e-12 21.0273

23.0524 0.282782 -4.4129e-11
0.282782 20.1716 4.48943e-11
-4.4129e-11 4.48943e-11 20.7297

22.0771 1.53881 -3.01557e-11
1.53881 23.9049 7.82342e-11
-3.01557e-11 7.82342e-11 22.9802

24.0601 -1.05672 5.2038e-12
-1.05672 20.7945 -1.27168e-11
5.2038e-12 -1.27168e-11 21.8807

24.3828 1.69025 6.07044e-12
1.69025 24.7 5.06788e-11
6.07044e-12 5.06788e-11 24.5829

25.421 1.1996 1.57999e-11
1.1996 26.2684 -9.63618e-12
1.57999e-11 -9.63618e-12 25.0666

27.2446 -0.360669 -1.3055e-11
-0.360669 22.7317 -8.86295e-12
-1.3055e-11 -8.86295e-12 24.923

17.1429 0.808635 4.62543e-11
0.808635 19.0061 3.16004e-11
4.62543e-11 3.16004e-11 17.1261

28.8494 0.405699 3.97349e-12
0.405699 24.3334 -2.92869e-11
3.97349e-12 -2.92869e-11 26.9478

19.0867 0.754781 3.17985e-11
0.754781 17.7298 -5.14526e-11
3.17985e-11 -5.14526e-11 17.4505

31.4598 -0.748801 -4.3928e-11
-0.748801 32.1528 -2.54326e-11
-4.3928e-11 -2.54326e-11 31.5368

28.8335 0.0954411 -1.73492e-12
0.0954411 31.7566 -2.31228e-11
-1.73492e-12 -2.31228e-11 29.9012

33.5542 -0.804823 -2.61806e-11
-0.804823 32.1999 -5.97144e-12
-2.61806e-11 -5.97144e-12 31.9919

32.6531 1.94901 -2.67089e-11
1.94901 32.8556 1.11723e-11
-2.67089e-11 1.11723e-11 31.9669

22.5219 -0.512096 3.47823e-11
-0.512096 19.6929 -3.17946e-11
3.47823e-11 -3.17946e-11 20.033

24.4872 1.7934 -4.24866e-11
1.7934 25.6442 8.86363e-12
-4.24866e-11 8.86363e-12 25.6514

29.4528 1.02448 2.20846e-11
1.02448 29.1431 -3.81524e-11
2.20846e-11 -3.81524e-11 29.5088

30.3265 -0.286297 1.08498e-11
-0.286297 29.9216 -1.38729e-11
1.08498e-11 -1.38729e-11 29.9086

29.9462 0.154609 -5.68497e-12
0.154609 24.7193 -2.50481e-11
-5.68497e-12 -2.50481e-11 27.6571

24.4676 1.69074 1.46452e-11
1.69074 25.7713 2.31067e-12
1.46452e-11 2.31067e-12 24.6104

24.4816 -1.33755 7.321e-12
-1.33755 22.7474 2.42796e-11
7.321e-12 2.42796e-11 22.7363

29.6151 -0.0152646 -2.09546e-11
-0.0152646 23.9661 1.92679e-11
-2.09546e-11 1.92679e-11 27.0822

23.0344 -2.30249 -3.67059e-11
-2.30249 25.2118 -2.71683e-11
-3.67059e-11 -2.71683e-11 23.4045

23.5836 -2.00803 1.31993e-11
-2.00803 25.7892 2.71696e-11
1.31993e-11 2.71696e-11 23.8906

29.3715 1.02096 -9.4369e-16
1.02096 30.2104 -2.73604e-11
-9.4369e-16 -2.73604e-11 29.7775

22.6405 -2.30443 2.90981e-11
-2.30443 21.9313 4.00765e-11
2.90981e-11 4.00765e-11 21.4423

13.824 -2.2969 -2.621e-11
-2.2969 13.6476 4.627e-12
-2.621e-11 4.627e-12 13.651

13.6969 -2.43402 2.90993e-11
-2.43402 14.3297 5.29957e-11
2.90993e-11 5.29957e-11 13.8784

27.8685 -2.67794 1.33912e-11
-2.67794 30.7272 1.69554e-11
1.33912e-11 1.69554e-11 29.4467

13.8528 -0.908393 4.20114e-11
-0.908393 13.6635 -2.79461e-11
4.20114e-11 -2.79461e-11 14.2327

13.292 -0.744716 -9.63607e-12
-0.744716 13.792 -9.25075e-12
-9.63607e-12 -9.25075e-12 13.9994

33.4415 1.1602 5.04868e-11
1.1602 31.1195 4.54664e-11
5.04868e-11 4.54664e-11 32.2693

31.2937 -1.53787 -3.23739e-11
-1.53787 29.6631 1.73455e-11
-3.23739e-11 1.73455e-11 30.1874

27.8112 -0.803063 -2.92888e-11
-0.803063 23.8549 -1.46412e-11
-2.92888e-11 -1.46412e-11 26.5884

32.9571 1.56301 2.69714e-11
1.56301 29.8251 -3.54539e-11
2.69714e-11 -3.54539e-11 31.7162

31.0165 -2.15846 -6.01139e-11
-2.15846 29.4191 -3.15965e-11
-6.01139e-11 -3.15965e-11 30.0866

26.0611 1.18486 1.95399e-13
1.18486 27.8534 3.46827e-11
1.95399e-13 3.46827e-11 26.7346

32.9669 -0.74773 -2.38437e-11
-0.74773 30.6501 -4.61429e-12
-2.38437e-11 -4.61429e-12 31.2946

31.8618 1.00588 -3.79322e-11
1.00588 31.2185 1.50516e-11
-3.79322e-11 1.50516e-11 31.2077

30.6749 1.83125 -2.33168e-11
1.83125 28.2176 -2.19161e-11
-2.33168e-11 -2.19161e-11 29.7687

28.5488 -2.33034 6.37784e-11
-2.33034 26.9583 -5.97768e-12
6.37784e-11 -5.97768e-12 28.0955

20.2236 -1.59 -1.46461e-11
-1.59 18.0392 -3.17966e-11
-1.46461e-11 -3.17966e-11 18.3627

33.2426 -0.452104 3.91113e-11
-0.452104 34.5332 -6.75016e-13
3.91113e-11 -6.75016e-13 33.7974

30.5674 -0.0760748 4.91324e-11
-0.0760748 34.6104 1.92658e-11
4.91324e-11 1.92658e-11 31.5148

22.0967 -1.9453 3.75757e-11
-1.9453 24.0422 2.58183e-11
3.75757e-11 2.58183e-11 23.1134

16.549 -0.670097 3.12156e-11
-0.670097 18.5171 -6.76426e-11
3.12156e-11 -6.76426e-11 16.7963

18.1665 -0.626653 -3.87367e-11
-0.626653 16.318 -4.04623e-12
-3.87367e-11 -4.04623e-12 16.5192

27.5383 0.757213 4.23694e-12
0.757213 29.5394 -5.56849e-11
4.23694e-12 -5.56849e-11 28.595

23.4545 1.13566 3.2755e-11
1.13566 27.7822 -8.09401e-12
3.2755e-11 -8.09401e-12 26.2965

38.5368 1.47684 6.43635e-11
1.47684 34.2123 2.71668e-11
6.43635e-11 2.71668e-11 35.2075

38.2563 0.441695 -2.62137e-11
0.441695 39.7854 -1.35248e-10
-2.62137e-11 -1.35248e-10 34.6488

24.7258 1.70901 4.35469e-11
1.70901 27.2901 1.84968e-11
4.35469e-11 1.84968e-11 27.3593

29.0319 1.35144 8.09445e-12
1.35144 25.5605 1.98456e-11
8.09445e-12 1.98456e-11 27.7447

27.8415 -2.05858 4.23935e-12
-2.05858 24.9349 1.349e-11
4.23935e-12 1.349e-11 26.8219

25.1307 2.34556 -1.26222e-11
2.34556 27.0601 -1.1553e-12
-1.26222e-11 -1.1553e-12 27.2236

25.5373 -1.78464 3.73795e-11
-1.78464 29.3926 -8.86422e-12
3.73795e-11 -8.86422e-12 28.3307

22.1247 -0.168527 1.26227e-11
-0.168527 18.6323 2.92903e-11
1.26227e-11 2.92903e-11 19.6083

25.997 -0.681953 5.80203e-13
-0.681953 22.2132 -5.78963e-13
5.80203e-13 -5.78963e-13 23.9661

23.7373 0.837614 -2.30257e-11
0.837614 20.5304 9.24996e-12
-2.30257e-11 9.24996e-12 21.5317

29.0499 0.929607 2.4063e-11
0.929607 27.2491 2.65888e-11
2.4063e-11 2.65888e-11 28.7032

30.2527 0.631084 1.74215e-11
0.631084 34.4208 -7.16748e-11
1.74215e-11 -7.16748e-11 31.9404

32.4306 -0.465727 -2.77215e-11
-0.465727 32.6914 -2.17729e-11
-2.77215e-11 -2.17729e-11 32.011

20.5109 1.34443 -6.43598e-11
1.34443 21.2885 -2.59052e-16
-6.43598e-11 -2.59052e-16 20.0083

24.9231 -1.72748 3.16968e-11
-1.72748 24.2373 3.96923e-11
3.16968e-11 3.96923e-11 24.3126

27.7603 0.935481 1.96537e-11
0.935481 24.7787 7.73603e-13
1.96537e-11 7.73603e-13 26.3878

32.2623 1.04496 4.04619e-11
1.04496 35.6782 2.04209e-11
4.04619e-11 2.04209e-11 32.2832

32.9393 -0.694913 -1.32948e-11
-0.694913 34.2992 -1.53179e-11
-1.32948e-11 -1.53179e-11 33.5758

29.7957 -0.252976 1.36326e-11
-0.252976 27.5226 1.79199e-11
1.36326e-11 1.79199e-11 29.0352

28.1823 -1.34522 1.96542e-11
-1.34522 29.8762 -1.92768e-12
1.96542e-11 -1.92768e-12 28.649

25.0173 -0.435417 1.25243e-12
-0.435417 29.1275 -2.85185e-11
1.25243e-12 -2.85185e-11 27.2584

29.2019 0.298502 2.27377e-11
0.298502 24.2711 3.35252e-11
2.27377e-11 3.35252e-11 27.8368

28.8067 -0.937672 -4.39344e-11
-0.937672 24.1412 -1.92524e-12
-4.39344e-11 -1.92524e-12 27.5044

21.158 -1.91008 7.13496e-12
-1.91008 20.3417 1.85005e-11
7.13496e-12 1.85005e-11 19.9297

30.9783 1.17957 -3.09294e-11
1.17957 26.3191 -3.3139e-11
-3.09294e-11 -3.3139e-11 29.5718

30.0256 -1.83504 -1.08377e-11
-1.83504 26.3407 -8.09229e-12
-1.08377e-11 -8.09229e-12 28.7226

27.0429 -1.63296 3.46856e-11
-1.63296 23.9039 -2.19694e-11
3.46856e-11 -2.19694e-11 25.6261

22.4499 -1.62701 5.97104e-12
-1.62701 25.0928 7.70125e-13
5.97104e-12 7.70125e-13 23.5539

29.4234 0.708839 1.27175e-11
0.708839 25.994 9.44061e-12
1.27175e-11 9.44061e-12 28.4636

28.9141 -1.3152 -3.85376e-11
-1.3152 25.4399 6.26129e-12
-3.85376e-11 6.26129e-12 27.7731

27.5145 -0.428133 -2.53869e-11
-0.428133 24.4339 4.37403e-11
-2.53869e-11 4.37403e-11 25.7453

30.9552 2.05353 1.48358e-11
2.05353 29.9488 3.27545e-12
1.48358e-11 3.27545e-12 30.5357

23.5399 1.35948 2.79414e-11
1.35948 22.6149 1.54306e-12
2.79414e-11 1.54306e-12 22.5209

24.9083 2.03828 1.92702e-11
2.03828 26.7601 3.81519e-11
1.92702e-11 3.81519e-11 27.4144

30.3247 1.5195 1.02104e-11
1.5195 31.4442 -2.524e-11
1.02104e-11 -2.524e-11 31.2049

24.8105 0.756959 -3.58419e-11
0.756959 21.1912 2.69773e-12
-3.58419e-11 2.69773e-12 22.6844

27.1085 -1.01201 1.01655e-11
-1.01201 25.8759 -1.69567e-11
1.01655e-11 -1.69567e-11 26.7724

26.8091 0.633119 3.90317e-12
0.633119 23.8573 1.07898e-11
3.90317e-12 1.07898e-11 25.2265

21.4101 1.62777 -4.20063e-11
1.62777 21.9968 3.6997e-11
-4.20063e-11 3.6997e-11 21.4824

23.9792 1.53774 1.84971e-11
1.53774 23.2701 -2.8131e-11
1.84971e-11 -2.8131e-11 23.8227

23.0528 0.0178374 -4.45084e-11
0.0178374 28.3841 2.42787e-11
-4.45084e-11 2.42787e-11 26.1709

26.1846 -0.661609 1.38735e-11
-0.661609 28.8461 1.05976e-11
1.38735e-11 1.05976e-11 27.6159

20.5985 -1.91721 1.44936e-12
-1.91721 18.4316 -3.85118e-13
1.44936e-12 -3.85118e-13 19.0235

26.3936 -2.61797 -1.48833e-11
-2.61797 28.8911 -3.87288e-11
-1.48833e-11 -3.87288e-11 27.8073

21.7888 -2.30698 1.54152e-11
-2.30698 22.9696 8.47696e-12
1.54152e-11 8.47696e-12 21.8583

23.8422 1.87258 1.38763e-11
1.87258 23.904 -5.01255e-12
1.38763e-11 -5.01255e-12 22.9844

26.999 -0.853035 -3.15051e-11
-0.853035 25.0281 4.99065e-11
-3.15051e-11 4.99065e-11 25.6437

30.5744 -0.0658752 -1.84018e-11
-0.0658752 25.4675 -3.4489e-11
-1.84018e-11 -3.4489e-11 28.5603

30.0217 0.27518 -1.79685e-11
0.27518 25.6593 -1.8112e-11
-1.79685e-11 -1.8112e-11 28.4334

20.228 0.85779 -1.26234e-11
0.85779 24.1294 -4.62397e-12
-1.26234e-11 -4.62397e-12 22.0261

25.1334 -2.06073 4.9147e-12
-2.06073 25.8307 -2.35073e-11
4.9147e-12 -2.35073e-11 24.9465

17.6477 -0.283055 3.66123e-12
-0.283055 22.0531 8.47826e-12
3.66123e-12 8.47826e-12 19.4226

19.2378 -0.357267 2.13909e-11
-0.357267 22.8009 2.90962e-11
2.13909e-11 2.90962e-11 20.1931

21.9792 -0.473383 -2.42811e-11
-0.473383 18.1726 2.85182e-11
-2.42811e-11 2.85182e-11 19.5752

21.9118 1.36343 3.08327e-11
1.36343 21.3302 -1.53862e-12
3.08327e-11 -1.53862e-12 20.5607

22.5349 -2.36683 4.23817e-12
-2.36683 21.2385 3.43021e-11
4.23817e-12 3.43021e-11 21.6552

37.7715 -0.563033 -1.11756e-11
-0.563033 37.8836 -2.35037e-11
-1.11756e-11 -2.35037e-11 34.0607

32.8684 -2.13504 -1.29856e-10
-2.13504 35.5089 -5.96088e-12
-1.29856e-10 -5.96088e-12 34.0144

24.3301 -1.40144 1.04072e-11
-1.40144 20.9471 1.61858e-11
1.04072e-11 1.61858e-11 22.4222

28.2934 1.89682 -3.69944e-11
1.89682 28.9255 2.44705e-11
-3.69944e-11 2.44705e-11 28.4691

28.0036 0.126295 -1.0403e-11
0.126295 24.0039 3.50681e-11
-1.0403e-11 3.50681e-11 26.7369

22.2948 -1.71732 1.76312e-11
-1.71732 25.2297 2.89043e-11
1.76312e-11 2.89043e-11 22.9745

24.8394 1.7892 2.16779e-11
1.7892 29.4002 2.08101e-11
2.16779e-11 2.08101e-11 28.2858

31.4824 0.749496 -1.65668e-11
0.749496 32.5418 4.60497e-11
-1.65668e-11 4.60497e-11 32.3211

25.8582 -2.43731 -4.62236e-12
-2.43731 26.9618 1.92676e-11
-4.62236e-12 1.92676e-11 27.3287

31.222 1.82645 -1.291e-11
1.82645 31.4586 -1.6762e-11
-1.291e-11 -1.6762e-11 31.6034

23.4703 1.44447 -6.64906e-12
1.44447 26.5074 -1.54147e-11
-6.64906e-12 -1.54147e-11 25.7909

29.2638 -0.171768 -1.11776e-11
-0.171768 22.3573 -3.58372e-11
-1.11776e-11 -3.58372e-11 27.7688

23.941 1.78209 -9.6344e-12
1.78209 22.034 -3.14089e-11
-9.6344e-12 -3.14089e-11 22.4376

26.7413 -2.7702 -7.9955e-12
-2.7702 30.0317 -2.48556e-11
-7.9955e-12 -2.48556e-11 28.3347

24.5664 1.60444 -1.7305e-12
1.60444 24.1568 -1.73683e-12
-1.7305e-12 -1.73683e-12 23.6553

20.5307 -1.57353 -3.74801e-11
-1.57353 21.4784 -1.90757e-11
-3.74801e-11 -1.90757e-11 19.8603

25.4889 -2.26605 -3.07336e-11
-2.26605 27.282 5.78064e-12
-3.07336e-11 5.78064e-12 26.2003

19.7596 -1.02265 1.86911e-11
-1.02265 23.2515 9.24949e-12
1.86911e-11 9.24949e-12 20.8309

21.8817 0.391183 -1.2718e-11
0.391183 24.0175 1.59951e-11
-1.2718e-11 1.59951e-11 21.8085

22.8092 -0.962551 2.50528e-11
-0.962551 20.0684 1.92621e-12
2.50528e-11 1.92621e-12 20.7507

22.9357 -2.0643 -3.85832e-12
-2.0643 22.6294 3.47052e-12
-3.85832e-12 3.47052e-12 22.4321

22.3666 -0.0981248 -5.74218e-11
-0.0981248 26.6756 3.08394e-12
-5.74218e-11 3.08394e-12 24.3623

25.5314 -0.369341 -1.29114e-11
-0.369341 27.5982 -2.50494e-11
-1.29114e-11 -2.50494e-11 25.7607

18.9045 -2.06551 3.12194e-11
-2.06551 20.1691 8.09412e-12
3.12194e-11 8.09412e-12 18.9139

20.4919 1.5321 3.66474e-12
1.5321 20.9988 3.00613e-11
3.66474e-12 3.00613e-11 19.8127

28.734 0.0075766 -3.6222e-11
0.0075766 24.3794 6.30075e-11
-3.6222e-11 6.30075e-11 28.1804

28.5064 -0.366003 2.15807e-11
-0.366003 24.4535 -8.86469e-12
2.15807e-11 -8.86469e-12 27.9256

28.8825 1.65787 5.58953e-12
1.65787 29.3121 2.50491e-11
5.58953e-12 2.50491e-11 28.9563

27.6322 -2.73755 3.81506e-11
-2.73755 30.7277 1.34718e-12
3.81506e-11 1.34718e-12 29.2977

25.7981 1.87645 -3.28049e-11
1.87645 26.1089 -1.46462e-11
-3.28049e-11 -1.46462e-11 26.6197

19.3928 0.86222 1.94659e-11
0.86222 17.4656 3.42995e-11
1.94659e-11 3.42995e-11 17.7209

22.9927 1.0311 -4.41241e-11
1.0311 25.4659 -8.47737e-12
-4.41241e-11 -8.47737e-12 23.5525

31.8351 0.949411 2.85152e-11
0.949411 28.6784 -1.59961e-11
2.85152e-11 -1.59961e-11 30.6017

30.3226 -1.65797 -9.67275e-11
-1.65797 27.5464 -3.19819e-11
-9.67275e-11 -3.19819e-11 29.0894

29.5256 1.35497 1.0212e-11
1.35497 27.3243 -7.89831e-12
1.0212e-11 -7.89831e-12 28.513

28.0754 -1.95909 -1.75362e-11
-1.95909 25.7705 3.39147e-11
-1.75362e-11 3.39147e-11 27.081

12.5815 -0.979573 -2.81382e-11
-0.979573 10.7475 2.04285e-11
-2.81382e-11 2.04285e-11 13.2689

10.7115 -1.14618 8.38309e-11
-1.14618 13.0216 2.29303e-11
8.38309e-11 2.29303e-11 13.4677

20.4214 -1.30154 7.70742e-12
-1.30154 24.3572 9.24964e-12
7.70742e-12 9.24964e-12 22.2936

35.4545 1.55619 -2.42768e-11
1.55619 31.3013 5.00959e-12
-2.42768e-11 5.00959e-12 33.2118

34.3046 -2.20214 -1.8112e-11
-2.20214 32.2845 1.23311e-11
-1.8112e-11 1.23311e-11 31.96

27.2944 1.57661 1.54152e-11
1.57661 25.7581 5.39476e-12
1.54152e-11 5.39476e-12 26.2617

19.567 0.637122 2.90009e-11
0.637122 17.2774 2.4279e-11
2.90009e-11 2.4279e-11 17.6986

25.9998 -1.90007 -7.70708e-12
-1.90007 28.9725 -9.05505e-12
-7.70708e-12 -9.05505e-12 27.4347

23.6624 -0.912475 2.17724e-11
-0.912475 28.3918 -7.72419e-13
2.17724e-11 -7.72419e-13 26.4735

22.2413 -2.26122 -6.45533e-11
-2.26122 22.8341 -4.64376e-11
-6.45533e-11 -4.64376e-11 21.7345

25.3809 -1.83284 4.04646e-12
-1.83284 26.8701 1.81125e-11
4.04646e-12 1.81125e-11 27.4883

25.7068 -2.12831 1.11755e-11
-2.12831 24.1754 -8.47757e-12
1.11755e-11 -8.47757e-12 24.8921

23.4349 2.77436 1.79217e-11
2.77436 27.31 2.96745e-11
1.79217e-11 2.96745e-11 27.1723

31.8042 0.680178 3.15994e-11
0.680178 32.6266 7.41729e-12
3.15994e-11 7.41729e-12 32.3754

28.7525 1.16386 1.65741e-11
1.16386 30.5373 4.64361e-11
1.65741e-11 4.64361e-11 29.6451

25.1091 -2.03965 3.64178e-11
-2.03965 26.1757 3.07956e-12
3.64178e-11 3.07956e-12 26.2964

24.6422 1.99042 -1.73425e-11
1.99042 26.261 -2.04249e-11
-1.73425e-11 -2.04249e-11 26.1972

22.967 1.32419 4.04369e-12
1.32419 20.5863 -6.16627e-11
4.04369e-12 -6.16627e-11 21.2648

25.9424 -0.00356725 -7.71864e-13
-0.00356725 22.5398 -6.74485e-12
-7.71864e-13 -6.74485e-12 24.1545

31.9733 1.37817 1.3293e-11
1.37817 31.9024 -3.29466e-11
1.3293e-11 -3.29466e-11 32.0607

24.2647 -2.20307 2.60183e-12
-2.20307 27.4306 1.88841e-11
2.60183e-12 1.88841e-11 25.5182

21.1824 0.33374 -1.02162e-11
0.33374 25.9796 -3.77688e-11
-1.02162e-11 -3.77688e-11 23.5707

28.516 2.05808 -7.70687e-12
2.05808 26.725 8.09245e-12
-7.70687e-12 8.09245e-12 27.6707

24.4218 0.0592231 -3.85099e-13
0.0592231 26.9647 2.12016e-12
-3.85099e-13 2.12016e-12 25.1651

24.7669 -1.53547 -1.79193e-11
-1.53547 29.0747 1.92879e-12
-1.79193e-11 1.92879e-12 28.1473

15.7578 -1.29529 3.19904e-11
-1.29529 16.504 4.33576e-11
3.19904e-11 4.33576e-11 15.4556

16.4886 -1.32415 4.83717e-11
-1.32415 15.6014 1.9459e-11
4.83717e-11 1.9459e-11 15.3744

27.4527 0.454372 -1.92468e-12
0.454372 23.4766 2.56306e-11
-1.92468e-12 2.56306e-11 25.8131

26.175 -2.4261 -4.27769e-11
-2.4261 25.0406 3.35309e-11
-4.27769e-11 3.35309e-11 25.9801

38.3057 1.37776 -2.54319e-11
1.37776 33.3587 5.4528e-11
-2.54319e-11 5.4528e-11 34.7752

38.8276 -0.387066 1.61823e-11
-0.387066 35.8812 -3.50613e-11
1.61823e-11 -3.50613e-11 33.9296

23.9931 -1.70963 -1.83046e-11
-1.70963 26.5437 -2.50484e-11
-1.83046e-11 -2.50484e-11 25.976

30.4575 -0.517075 -1.19949e-11
-0.517075 31.3175 -4.52793e-11
-1.19949e-11 -4.52793e-11 30.8072

30.1982 1.79349 7.54072e-11
1.79349 32.1859 -2.00378e-11
7.54072e-11 -2.00378e-11 30.9518

28.4259 0.161031 1.58494e-11
0.161031 23.3833 -2.04257e-11
1.58494e-11 -2.04257e-11 25.8937

26.4007 -2.96979 1.30064e-11
-2.96979 29.8007 -1.02129e-11
1.30064e-11 -1.02129e-11 28.1853

17.0944 0.997522 -2.37048e-11
0.997522 17.1773 -4.62495e-11
-2.37048e-11 -4.62495e-11 16.4918

16.5676 0.961489 3.21879e-11
0.961489 16.5899 3.22791e-11
3.21879e-11 3.22791e-11 16.0847

16.2394 -1.15444 4.02771e-11
-1.15444 18.9288 -2.31243e-11
4.02771e-11 -2.31243e-11 17.0974

17.8242 0.575203 -2.00411e-11
0.575203 19.7864 -1.48385e-11
-2.00411e-11 -1.48385e-11 17.9443

18.8753 -0.980212 -2.90979e-11
-0.980212 16.4574 -7.8062e-12
-2.90979e-11 -7.8062e-12 17.151

23.8211 -2.72612 3.66069e-12
-2.72612 27.1554 1.81134e-11
3.66069e-12 1.81134e-11 27.1953

14.7892 0.0547216 -2.15798e-11
0.0547216 17.9415 -3.00642e-11
-2.15798e-11 -3.00642e-11 16.0177

18.0901 0.0817537 -1.54188e-12
0.0817537 15.4108 1.50324e-11
-1.54188e-12 1.50324e-11 16.3266

30.0673 0.183971 -1.07891e-11
0.183971 33.1384 1.4258e-11
-1.07891e-11 1.4258e-11 30.9172

31.307 -1.5636 -1.59924e-11
-1.5636 33.0091 -6.55082e-11
-1.59924e-11 -6.55082e-11 31.8873

28.7329 0.62558 -1.37292e-11
0.62558 26.0924 -7.71309e-13
-1.37292e-11 -7.71309e-13 27.4531

29.9195 0.104777 -2.2159e-11
0.104777 24.2317 3.314e-11
-2.2159e-11 3.314e-11 27.537

19.2739 -1.47376 2.87118e-11
-1.47376 21.8328 2.77482e-11
2.87118e-11 2.77482e-11 20.1788

20.9583 0.943792 -1.92872e-12
0.943792 22.9398 -2.79406e-11
-1.92872e-12 -2.79406e-11 21.149

28.5003 0.124611 2.12921e-11
0.124611 23.5755 8.8625e-12
2.12921e-11 8.8625e-12 26.0192

22.921 -1.50001 3.46858e-12
-1.50001 26.2085 -2.85184e-11
3.46858e-12 -2.85184e-11 24.9171

33.8704 0.873011 -7.09044e-11
0.873011 30.6724 -2.17666e-11
-7.09044e-11 -2.17666e-11 32.3624

32.5813 -1.2131 8.36217e-11
-1.2131 30.5952 1.54068e-12
8.36217e-11 1.54068e-12 30.97

26.8284 1.42725 1.97601e-12
1.42725 26.7226 -1.07929e-11
1.97601e-12 -1.07929e-11 27.092

25.7001 -2.50698 -2.6493e-11
-2.50698 28.5579 -1.96534e-11
-2.6493e-11 -1.96534e-11 26.8492

28.2088 0.646704 -3.22271e-11
0.646704 24.2181 1.54121e-12
-3.22271e-11 1.54121e-12 26.6036

20.1748 1.30978 -6.00289e-11
1.30978 19.7454 -8.74865e-11
-6.00289e-11 -8.74865e-11 19.3365

25.6102 -2.7046 2.09062e-11
-2.7046 28.2926 1.15434e-12
2.09062e-11 1.15434e-12 26.6726

13.001 2.39744 1.13697e-11
2.39744 13.0427 -8.86478e-12
1.13697e-11 -8.86478e-12 13.1507

23.4309 -0.988247 8.47919e-12
-0.988247 26.6065 -3.8551e-12
8.47919e-12 -3.8551e-12 24.5559

21.5802 -0.584365 -3.66217e-12
-0.584365 26.0442 1.23314e-11
-3.66217e-12 1.23314e-11 23.7161

29.6946 -0.262524 -2.48521e-11
-0.262524 34.3829 5.164e-11
-2.48521e-11 5.164e-11 31.1715

32.0089 -1.22824 -3.14074e-11
-1.22824 33.0212 -2.86114e-11
-3.14074e-11 -2.86114e-11 32.5162

30.6978 0.686091 -4.50865e-11
0.686091 23.8386 3.77679e-11
-4.50865e-11 3.77679e-11 29.0898

30.1693 -1.01225 1.69572e-11
-1.01225 24.3498 1.58004e-11
1.69572e-11 1.58004e-11 28.6223

27.6466 2.06819 -9.20031e-12
2.06819 27.7416 -1.27173e-11
-9.20031e-12 -1.27173e-11 28.3374

28.1114 -1.32372 9.48978e-12
-1.32372 28.6642 -4.62574e-12
9.48978e-12 -4.62574e-12 28.6847

29.9902 1.59035 9.72297e-11
1.59035 30.6847 1.58025e-11
9.72297e-11 1.58025e-11 30.4736

30.1781 -1.1062 2.74807e-11
-1.1062 31.8651 9.62403e-13
2.74807e-11 9.62403e-13 30.698

37.2811 1.51101 2.42754e-11
1.51101 33.0783 1.40633e-11
2.42754e-11 1.40633e-11 34.4746

36.0777 -2.11726 -1.15988e-10
-2.11726 34.9263 -1.88722e-11
-1.15988e-10 -1.88722e-11 33.074

33.7198 1.56443 6.16448e-12
1.56443 31.9834 -1.96528e-11
6.16448e-12 -1.96528e-11 32.9241

26.4565 -2.95172 1.61867e-11
-2.95172 27.7682 2.08101e-11
1.61867e-11 2.08101e-11 28.3441

26.8605 1.63192 1.77277e-11
1.63192 24.1757 8.09279e-12
1.77277e-11 8.09279e-12 25.4329

25.5614 -1.84737 -8.2841e-12
-1.84737 27.9246 -2.35069e-11
-8.2841e-12 -2.35069e-11 26.1228

23.0257 -1.11602 1.27167e-11
-1.11602 26.8037 -2.85192e-11
1.27167e-11 -2.85192e-11 25.1198

20.9789 -1.63926 -7.12715e-12
-1.63926 20.6064 7.71827e-13
-7.12715e-12 7.71827e-13 19.5841

25.4195 -2.1663 5.39605e-12
-2.1663 23.1509 -7.32299e-12
5.39605e-12 -7.32299e-12 24.375

22.9795 0.74552 2.79862e-11
0.74552 26.7893 -1.8886e-11
2.79862e-11 -1.8886e-11 25.0001

26.1875 2.16999 5.26077e-11
2.16999 25.1782 1.42604e-11
5.26077e-11 1.42604e-11 25.3658

25.5508 3.22251 -1.09815e-11
3.22251 27.948 -8.47897e-12
-1.09815e-11 -8.47897e-12 28.2958

27.2294 -2.61799 -1.20378e-12
-2.61799 30.09 -2.60128e-11
-1.20378e-12 -2.60128e-11 28.9225

23.9829 -2.46757 -1.7537e-11
-2.46757 23.5233 -2.1194e-11
-1.7537e-11 -2.1194e-11 23.8545

29.5176 -0.173893 3.47788e-11
-0.173893 27.0801 7.5141e-12
3.47788e-11 7.5141e-12 28.0338

33.8238 -0.811668 1.75333e-11
-0.811668 35.2245 -1.44512e-11
1.75333e-11 -1.44512e-11 33.856

37.6736 -0.950096 -4.70114e-11
-0.950096 37.2101 2.08056e-11
-4.70114e-11 2.08056e-11 33.8745

25.0684 -0.960386 1.07899e-11
-0.960386 28.3296 1.38731e-11
1.07899e-11 1.38731e-11 27.2894

26.302 1.33209 2.13883e-11
1.33209 25.0072 -1.92605e-12
2.13883e-11 -1.92605e-12 26.2188

30.791 -0.100114 -4.03417e-11
-0.100114 28.5667 1.42583e-11
-4.03417e-11 1.42583e-11 29.7093

15.7075 -1.6781 3.98887e-11
-1.6781 16.887 -5.78237e-12
3.98887e-11 -5.78237e-12 15.7245

16.7107 -1.50727 4.06614e-11
-1.50727 15.6898 -2.23548e-11
4.06614e-11 -2.23548e-11 15.7328

31.3814 -0.0633042 -2.35101e-11
-0.0633042 26.4579 -3.00576e-11
-2.35101e-11 -3.00576e-11 30.0669

30.8234 -0.311412 -1.57992e-11
-0.311412 26.3932 -3.46784e-12
-1.57992e-11 -3.46784e-12 29.2899

31.4825 0.338266 -1.49807e-11
0.338266 28.3573 8.6701e-12
-1.49807e-11 8.6701e-12 29.8425

26.9795 0.878374 -3.39423e-12
0.878374 28.2551 4.31627e-11
-3.39423e-12 4.31627e-11 27.0684

25.4241 1.13481 -3.55056e-11
1.13481 23.156 -1.54175e-11
-3.55056e-11 -1.54175e-11 23.7149

31.1433 1.55189 -2.85128e-11
1.55189 29.5926 2.27367e-11
-2.85128e-11 2.27367e-11 30.4079

28.7215 -2.03172 5.29878e-11
-2.03172 27.245 2.58178e-11
5.29878e-11 2.58178e-11 28.2433

33.3251 -0.256632 -3.69197e-11
-0.256632 32.0185 1.10051e-10
-3.69197e-11 1.10051e-10 32.1389

33.6835 2.22833 -2.69538e-11
2.22833 36.6992 5.21421e-11
-2.69538e-11 5.21421e-11 33.1762

24.3041 -1.73902 -1.19469e-11
-1.73902 27.4091 -7.32172e-12
-1.19469e-11 -7.32172e-12 26.8214

26.3672 1.14015 2.43734e-11
1.14015 24.0981 1.04046e-11
2.43734e-11 1.04046e-11 25.0966

31.6208 1.05232 -2.69674e-11
1.05232 28.5548 6.28113e-11
-2.69674e-11 6.28113e-11 30.5214

30.5538 -1.42112 -1.2235e-11
-1.42112 28.2119 8.86385e-12
-1.2235e-11 8.86385e-12 29.3843

27.5048 -2.42445 -1.73409e-11
-2.42445 29.7704 -4.43068e-12
-1.73409e-11 -4.43068e-12 28.3546

26.8652 -3.10255 3.91141e-11
-3.10255 29.9691 -1.46459e-11
3.91141e-11 -1.46459e-11 28.3516

13.5638 2.86493 6.35897e-12
2.86493 13.8723 -1.15702e-12
6.35897e-12 -1.15702e-12 13.5794

26.9961 2.18994 -1.30053e-11
2.18994 29.7234 1.92686e-11
-1.30053e-11 1.92686e-11 29.2063

28.2243 -1.93362 -8.57355e-12
-1.93362 31.1442 -1.73397e-12
-8.57355e-12 -1.73397e-12 29.659

25.9976 -2.66832 2.23512e-11
-2.66832 29.2712 -2.12093e-12
2.23512e-11 -2.12093e-12 27.652

24.8207 -1.81226 1.15485e-12
-1.81226 22.2251 1.50293e-11
1.15485e-12 1.50293e-11 23.0888

27.7807 -1.1958 1.59187e-12
-1.1958 28.218 -2.75538e-11
1.59187e-12 -2.75538e-11 27.7022

27.7277 2.06999 -1.39773e-12
2.06999 27.947 -1.15686e-12
-1.39773e-12 -1.15686e-12 28.6038

28.1223 -1.65816 2.29287e-11
-1.65816 29.8498 1.0788e-11
2.29287e-11 1.0788e-11 29.0127

28.8072 -0.16457 4.21984e-11
-0.16457 24.553 8.67017e-12
4.21984e-11 8.67017e-12 27.0064

32.452 0.607687 -1.50282e-11
0.607687 29.3018 3.83619e-13
-1.50282e-11 3.83619e-13 31.437

31.8619 -0.585755 3.84146e-13
-0.585755 30.2511 -2.73596e-11
3.84146e-13 -2.73596e-11 30.6508

33.2303 -0.854198 1.44516e-11
-0.854198 35.9448 7.68748e-11
1.44516e-11 7.68748e-11 33.7928

32.5553 0.653901 2.11943e-11
0.653901 37.0494 -3.85355e-12
2.11943e-11 -3.85355e-12 32.7012

13.8125 0.220243 -7.51912e-12
0.220243 11.5573 -1.73472e-12
-7.51912e-12 -1.73472e-12 13.7563

11.5293 0.198501 3.20869e-11
0.198501 13.5272 -3.62313e-11
3.20869e-11 -3.62313e-11 13.5356

30.9118 1.9741 2.40851e-11
1.9741 30.3982 9.05374e-12
2.40851e-11 9.05374e-12 30.7111

27.0395 -1.97195 -5.49153e-11
-1.97195 27.0909 -7.28279e-11
-5.49153e-11 -7.28279e-11 27.7552

24.8862 -1.88931 -3.5646e-11
-1.88931 27.0875 2.08117e-11
-3.5646e-11 2.08117e-11 27.3055

12.9069 0.702595 5.01053e-11
0.702595 12.9381 4.66367e-11
5.01053e-11 4.66367e-11 13.6178

12.9851 0.766024 5.89685e-11
0.766024 13.0146 -3.46916e-11
5.89685e-11 -3.46916e-11 13.7311

37.9036 0.333569 -3.31312e-11
0.333569 38.637 -1.31786e-10
-3.31312e-11 -1.31786e-10 34.348

37.6286 0.533908 -1.54207e-11
0.533908 36.2431 -5.02836e-11
-1.54207e-11 -5.02836e-11 35.1728

26.3701 -1.77265 -1.58895e-12
-1.77265 27.4388 -5.00809e-12
-1.58895e-12 -5.00809e-12 27.0371

24.3968 -2.1976 1.31018e-11
-2.1976 24.8441 1.38707e-11
1.31018e-11 1.38707e-11 24.5795

30.4658 2.06493 2.1263e-12
2.06493 28.7902 7.09021e-11
2.1263e-12 7.09021e-11 29.7525

27.085 -2.48678 -3.91153e-11
-2.48678 26.5325 1.16026e-12
-3.91153e-11 1.16026e-12 27.3704

24.7524 -2.33257 3.37198e-11
-2.33257 25.5479 -5.78463e-12
3.37198e-11 -5.78463e-12 25.633

26.9592 1.69335 5.81885e-11
1.69335 26.5409 2.50533e-12
5.81885e-11 2.50533e-12 26.2742

16.5353 -0.76328 -1.67636e-11
-0.76328 19.2772 -4.54801e-11
-1.67636e-11 -4.54801e-11 17.3381

17.8716 0.453875 2.21638e-11
0.453875 19.8392 1.04045e-11
2.21638e-11 1.04045e-11 17.9755

19.2153 -0.705538 9.44267e-12
-0.705538 17.1791 3.39151e-11
9.44267e-12 3.39151e-11 17.5475

28.1103 2.24939 -5.20321e-12
2.24939 27.7182 -7.12826e-12
-5.20321e-12 -7.12826e-12 27.7861

15.8268 -0.547747 -3.04493e-11
-0.547747 18.2752 -3.35311e-11
-3.04493e-11 -3.35311e-11 16.4219

17.7989 -0.375189 -5.68547e-11
-0.375189 15.3138 -4.41295e-11
-5.68547e-11 -4.41295e-11 15.9976

32.6179 1.65044 2.77459e-11
1.65044 30.7454 8.09094e-12
2.77459e-11 8.09094e-12 31.7596

28.7632 -2.40046 2.50483e-11
-2.40046 27.7955 -9.47999e-11
2.50483e-11 -9.47999e-11 28.7762

32.2456 2.02542 2.37054e-11
2.02542 30.3413 4.79743e-11
2.37054e-11 4.79743e-11 31.4844

28.972 -2.34843 1.01927e-10
-2.34843 28.6667 5.85668e-11
1.01927e-10 5.85668e-11 29.0959

12.7386 0.862881 3.48816e-11
0.862881 12.8319 4.39385e-11
3.48816e-11 4.39385e-11 13.4358

12.6679 0.843427 1.13722e-11
0.843427 12.7116 -1.5804e-11
1.13722e-11 -1.5804e-11 13.3053

29.0864 1.80479 -3.00581e-11
1.80479 28.3878 1.17543e-11
-3.00581e-11 1.17543e-11 28.6049

26.504 -2.22804 -4.25861e-11
-2.22804 25.9502 -4.046e-11
-4.25861e-11 -4.046e-11 26.5068

32.3135 -1.41673 -4.50844e-11
-1.41673 33.3331 -2.72624e-11
-4.50844e-11 -2.72624e-11 32.6187

31.2452 -0.486642 6.18473e-11
-0.486642 33.5694 -1.54154e-11
6.18473e-11 -1.54154e-11 31.4441

33.3115 2.05659 1.67614e-11
2.05659 32.0731 -1.15817e-12
1.67614e-11 -1.15817e-12 32.786

27.7695 -1.8371 -1.90866e-13
-1.8371 29.6321 -2.04227e-11
-1.90866e-13 -2.04227e-11 29.2414

33.2391 1.08146 -4.27725e-11
1.08146 28.5582 3.85359e-11
-4.27725e-11 3.85359e-11 31.4823

31.9442 -1.67295 3.39097e-11
-1.67295 28.6046 2.62024e-11
3.39097e-11 2.62024e-11 30.2754

26.0304 1.88656 -1.87866e-11
1.88656 27.4214 1.11767e-11
-1.87866e-11 1.11767e-11 27.5975

27.092 -2.19255 1.03077e-11
-2.19255 29.457 2.94813e-11
1.03077e-11 2.94813e-11 28.1714

31.9772 -1.5261 -2.42285e-11
-1.5261 32.3678 4.2582e-11
-2.42285e-11 4.2582e-11 31.5529

31.8407 -1.36147 -3.23676e-11
-1.36147 35.0834 4.59551e-11
-3.23676e-11 4.59551e-11 32.8286

35.1324 1.53137 -3.35225e-11
1.53137 30.5691 9.63044e-12
-3.35225e-11 9.63044e-12 32.812

37.0381 0.499153 4.23969e-11
0.499153 32.3535 3.75645e-11
4.23969e-11 3.75645e-11 33.9933

34.2426 -1.65539 -4.54719e-11
-1.65539 31.874 2.3123e-11
-4.54719e-11 2.3123e-11 31.8619

36.617 -0.352925 2.30989e-12
-0.352925 33.9941 -1.15461e-12
2.30989e-12 -1.15461e-12 33.0053

30.8443 -0.380674 -2.36993e-11
-0.380674 35.4975 6.85935e-11
-2.36993e-11 6.85935e-11 31.8547

32.6 2.81072 -1.39695e-11
2.81072 32.5395 -3.07987e-12
-1.39695e-11 -3.07987e-12 31.7666

38.2629 1.67771 1.96443e-11
1.67771 33.9275 4.50638e-11
1.96443e-11 4.50638e-11 35.3038

39.3112 1.38904 -6.06128e-10
1.38904 34.1819 4.0777e-10
-6.06128e-10 4.0777e-10 35.5376

40.0582 0.387402 9.0168e-10
0.387402 38.9874 9.16413e-11
9.0168e-10 9.16413e-11 34.8645

33.9117 -1.95403 5.70577e-11
-1.95403 35.5853 2.54709e-10
5.70577e-11 2.54709e-10 32.6455

37.5999 1.27365 7.12972e-11
1.27365 33.107 1.02492e-10
7.12972e-11 1.02492e-10 34.7497

35.0109 1.02044 -6.20396e-11
1.02044 33.023 1.06015e-11
-6.20396e-11 1.06015e-11 33.7341

37.5661 1.63712 2.54262e-11
1.63712 33.8373 5.97229e-11
2.54262e-11 5.97229e-11 34.9551

34.3545 -1.88015 -5.78008e-11
-1.88015 32.5929 2.9676e-11
-5.78008e-11 2.9676e-11 32.0078

35.8833 -0.942477 -2.58154e-11
-0.942477 37.1978 2.31244e-11
-2.58154e-11 2.31244e-11 33.5541

31.786 -0.840322 1.34879e-11
-0.840322 31.0782 -2.85133e-11
1.34879e-11 -2.85133e-11 30.8153

34.7649 1.65744 -7.47615e-11
1.65744 31.6774 -2.94723e-11
-7.47615e-11 -2.94723e-11 33.184

35.9511 0.971208 -1.81177e-11
0.971208 32.4596 -6.55061e-11
-1.81177e-11 -6.55061e-11 33.787

32.1278 -2.18 2.19636e-11
-2.18 31.2449 -4.04631e-11
2.19636e-11 -4.04631e-11 31.0484

34.727 -1.05703 -2.698e-11
-1.05703 32.6203 -7.66807e-11
-2.698e-11 -7.66807e-11 32.1541

TENSORS Lagrange_strain float
0.000131776 2.30242e-05 -1.64142e-08
2.30242e-05 0.000163201 2.0776e-08
-1.64142e-08 2.0776e-08 0.000132362

0.000156989 1.53671e-05 1.30801e-07
1.53671e-05 0.000182785 -1.58349e-08
1.30801e-07 -1.58349e-08 0.000162923

0.000155965 1.22895e-05 -2.08144e-08
1.22895e-05 0.000180733 -1.00347e-07
-2.08144e-08 -1.00347e-07 0.000162232

0.000176773 6.79996e-06 -3.86901e-08
6.79996e-06 0.000121195 -3.66703e-08
-3.86901e-08 -3.66703e-08 0.000143549

0.000170643 2.63962e-06 -1.09978e-07
2.63962e-06 0.000118472 -7.59051e-08
-1.09978e-07 -7.59051e-08 0.000131085

0.000157125 1.45417e-05 1.30807e-07
1.45417e-05 0.000183532 -1.58945e-08
1.30807e-07 -1.58945e-08 0.000173566

0.000155756 1.34452e-05 -3.27924e-08
1.34452e-05 0.00018216 3.89692e-08
-3.27924e-08 3.89692e-08 0.000172934

0.000172285 -3.39946e-06 -1.1158e-07
-3.39946e-06 0.000120611 -6.44139e-08
-1.1158e-07 -6.44139e-08 0.000132203

0.000197888 4.41921e-07 -1.95354e-09
4.41921e-07 0.00013086 1.39771e-07
-1.95354e-09 1.39771e-07 0.000165109

0.00010425 2.23882e-05 9.72093e-08
2.23882e-05 0.000138912 5.16416e-08
9.72093e-08 5.16416e-08 9.59967e-05

0.000102514 -2.40586e-05 -6.52006e-08
-2.40586e-05 0.000136521 4.74617e-08
-6.52006e-08 4.74617e-08 9.21871e-05

0.000136063 2.31985e-05 -4.9793e-09
2.31985e-05 0.000111422 -1.91633e-07
-4.9793e-09 -1.91633e-07 9.66359e-05

0.000170485 -1.88909e-05 -3.38332e-08
-1.88909e-05 0.000186785 2.80259e-08
-3.38332e-08 2.80259e-08 0.000176039

0.000171285 -2.15575e-05 5.6107e-08
-2.15575e-05 0.000189812 5.67813e-08
5.6107e-08 5.67813e-08 0.000177028

0.00013176 2.17395e-05 -1.78387e-08
2.17395e-05 0.000168681 -2.06359e-07
-1.78387e-08 -2.06359e-07 0.000144833

0.000142365 2.6221e-05 1.51541e-07
2.6221e-05 0.000179345 1.05844e-07
1.51541e-07 1.05844e-07 0.000160894

0.000155188 -9.99242e-06 -5.89953e-08
-9.99242e-06 0.000181619 4.33225e-08
-5.89953e-08 4.33225e-08 0.000172335

0.000156034 -1.06822e-05 7.82708e-08
-1.06822e-05 0.000182216 4.32357e-08
7.82708e-08 4.32357e-08 0.00017292

0.000180106 9.87749e-06 1.3752e-08
9.87749e-06 0.00014733 -7.70018e-09
1.3752e-08 -7.70018e-09 0.000157368

0.000113001 8.70608e-06 1.09493e-07
8.70608e-06 0.000159055 2.77999e-08
1.09493e-07 2.77999e-08 0.000108635

0.000112659 -8.35626e-06 -1.13095e-07
-8.35626e-06 0.00015942 -4.44918e-08
-1.13095e-07 -4.44918e-08 0.000107655

0.000155937 7.14504e-06 -2.08262e-07
7.14504e-06 0.000123866 -6.04441e-08
-2.08262e-07 -6.04441e-08 0.000109988

0.000132035 2.57381e-05 -5.22905e-08
2.57381e-05 0.000156886 6.04291e-08
-5.22905e-08 6.04291e-08 0.00013126

0.000157401 -1.31256e-05 1.04495e-07
-1.31256e-05 0.000114935 3.06138e-08
1.04495e-07 3.06138e-08 0.000120956

0.000148734 2.38013e-05 -3.07982e-08
2.38013e-05 0.000156638 6.15534e-08
-3.07982e-08 6.15534e-08 0.000142732

0.000134913 2.58529e-05 1.83825e-08
2.58529e-05 0.00016714 -1.27234e-08
1.83825e-08 -1.27234e-08 0.00013526

0.000179885 -5.61691e-06 3.5106e-08
-5.61691e-06 0.00012117 -1.2294e-07
3.5106e-08 -1.2294e-07 0.000145475

0.00010146 1.99145e-05 -1.62737e-08
1.99145e-05 0.000139323 -1.58616e-07
-1.62737e-08 -1.58616e-07 7.5892e-05

0.000191552 2.37429e-06 2.17317e-07
2.37429e-06 0.000127275 1.08239e-08
2.17317e-07 1.08239e-08 0.000161059

0.000133295 2.00115e-05 4.93572e-08
2.00115e-05 0.00010871 -1.61023e-07
4.93572e-08 -1.61023e-07 7.6132e-05

0.000177512 3.15503e-06 -4.48417e-08
3.15503e-06 0.000189304 5.23812e-08
-4.48417e-08 5.23812e-08 0.000177386

0.000177546 1.09005e-06 3.21572e-08
1.09005e-06 0.000188473 1.3723e-08
3.21572e-08 1.3723e-08 0.000177364

0.000207566 1.13483e-05 -4.35315e-08
1.13483e-05 0.000186601 3.26801e-08
-4.35315e-08 3.26801e-08 0.000187866

0.000207794 -1.08306e-05 -1.15209e-07
-1.08306e-05 0.000187091 -1.59099e-07
-1.15209e-07 -1.59099e-07 0.000187695

0.000154835 -8.29921e-06 1.70676e-07
-8.29921e-06 0.000110573 -4.14094e-09
1.70676e-07 -4.14094e-09 0.000102914

0.000145548 2.54105e-05 -1.03272e-07
2.54105e-05 0.000164904 -2.41855e-08
-1.03272e-07 -2.41855e-08 0.000152194

0.000184138 4.5247e-06 1.50361e-08
4.5247e-06 0.000173583 -1.52805e-07
1.50361e-08 -1.52805e-07 0.000176119

0.000184669 -4.17136e-06 -2.42487e-08
-4.17136e-06 0.000174544 2.58119e-08
-2.42487e-08 2.58119e-08 0.00017718

0.000200786 -3.53057e-08 -1.18684e-07
-3.53057e-08 0.00012747 2.56612e-08
-1.18684e-07 2.56612e-08 0.000165798

0.000132308 2.7853e-05 -4.22174e-08
2.7853e-05 0.000166436 6.80559e-08
-4.22174e-08 6.80559e-08 0.000134183

0.000155834 -1.70717e-05 9.67106e-08
-1.70717e-05 0.000131738 -2.11504e-08
9.67106e-08 -2.11504e-08 0.000125292

0.000198147 -1.54397e-06 7.80712e-09
-1.54397e-06 0.000122901 -2.779e-08
7.80712e-09 -2.779e-08 0.000161946

0.00013058 -2.57989e-05 1.0489e-07
-2.57989e-05 0.000156741 -3.8603e-08
1.0489e-07 -3.8603e-08 0.000129926

0.000131626 -2.20663e-05 -2.23984e-08
-2.20663e-05 0.000163551 -1.75281e-07
-2.23984e-08 -1.75281e-07 0.00013219

0.000146304 2.93566e-05 -1.14642e-07
2.93566e-05 0.000183411 -4.30655e-09
-1.14642e-07 -4.30655e-09 0.000162989

0.000140254 -2.74714e-05 -5.81343e-08
-2.74714e-05 0.00013006 -3.45045e-08
-5.81343e-08 -3.45045e-08 0.000115269

3.68671e-05 5.62417e-05 2.74778e-08
5.62417e-05 7.56163e-05 2.74778e-08
2.74778e-08 2.74778e-08 1.84771e-05

7.06512e-05 5.55518e-05 1.73679e-08
5.55518e-05 4.04525e-05 1.73679e-08
1.73679e-08 1.73679e-08 1.79248e-05

0.000151584 -2.6169e-05 -1.1814e-07
-2.6169e-05 0.000183983 -3.89114e-09
-1.1814e-07 -3.89114e-09 0.000171363

6.66095e-05 2.35985e-05 2.09568e-08
2.35985e-05 0.00011401 7.79762e-08
2.09568e-08 7.79762e-08 3.81701e-05

0.000106525 2.11148e-05 -1.12323e-07
2.11148e-05 7.20637e-05 2.07317e-08
-1.12323e-07 2.07317e-08 3.8954e-05

0.000180809 -1.82008e-05 -2.94387e-08
-1.82008e-05 0.000196981 -1.27119e-07
-2.94387e-08 -1.27119e-07 0.000187212

0.000180712 1.85666e-05 -1.6233e-09
1.85666e-05 0.00019664 1.45634e-07
-1.6233e-09 1.45634e-07 0.000187239

0.00019322 5.10686e-07 -1.0495e-08
5.10686e-07 0.000152469 1.27783e-09
-1.0495e-08 1.27783e-09 0.000168933

0.000181451 -1.62212e-05 5.83003e-09
-1.62212e-05 0.000193035 1.21086e-07
5.83003e-09 1.21086e-07 0.000188538

0.000181558 1.58509e-05 3.17908e-08
1.58509e-05 0.00019295 -8.95194e-08
3.17908e-08 -8.95194e-08 0.000188567

0.000134867 2.58398e-05 2.02301e-08
2.58398e-05 0.000173974 1.04377e-08
2.02301e-08 1.04377e-08 0.000147369

0.000207282 1.03744e-05 -1.76836e-07
1.03744e-05 0.000174956 1.13397e-08
-1.76836e-07 1.13397e-08 0.000185255

0.000207154 -1.05718e-05 1.29627e-07
-1.05718e-05 0.000174638 -6.15432e-08
1.29627e-07 -6.15432e-08 0.00018512

0.000170931 -2.13612e-05 9.21554e-08
-2.13612e-05 0.00018157 -6.21685e-08
9.21554e-08 -6.21685e-08 0.000175296

0.000170503 2.11754e-05 -1.11023e-07
2.11754e-05 0.000181582 -5.71455e-08
-1.11023e-07 -5.71455e-08 0.000175432

0.000131975 -2.28322e-05 1.70075e-08
-2.28322e-05 0.000101921 -7.72067e-08
1.70075e-08 -7.72067e-08 8.93894e-05

0.000178429 1.01442e-05 1.07545e-07
1.01442e-05 0.000205005 1.11823e-07
1.07545e-07 1.11823e-07 0.000185496

0.000177445 8.08309e-06 1.05571e-08
8.08309e-06 0.000204897 4.28495e-09
1.05571e-08 4.28495e-09 0.000184751

0.00013242 -2.84174e-05 -5.28832e-08
-2.84174e-05 0.000167173 -7.81039e-08
-5.28832e-08 -7.81039e-08 0.000134858

9.37257e-05 -1.87956e-05 -6.69647e-08
-1.87956e-05 0.00013909 4.99424e-08
-6.69647e-08 4.99424e-08 7.03226e-05

0.000134396 -1.85672e-05 -1.2486e-07
-1.85672e-05 9.52076e-05 1.67807e-08
-1.2486e-07 1.67807e-08 6.92892e-05

0.000141626 2.23604e-05 6.22168e-08
2.23604e-05 0.000180648 3.32849e-08
6.22168e-08 3.32849e-08 0.000158474

0.000140093 2.06696e-05 -1.95344e-07
2.06696e-05 0.000176871 2.4652e-08
-1.95344e-07 2.4652e-08 0.000157244

0.000217632 -3.13393e-05 7.02611e-07
-3.13393e-05 0.000197322 -4.73243e-07
7.02611e-07 -4.73243e-07 0.000202655

0.00021598 3.17226e-05 7.16863e-07
3.17226e-05 0.000196152 4.49291e-07
7.16863e-07 4.49291e-07 0.00020267

0.000147674 3.18579e-05 7.51474e-08
3.18579e-05 0.000182022 -3.55862e-08
7.51474e-08 -3.55862e-08 0.000166044

0.000175729 1.55751e-05 5.65414e-08
1.55751e-05 0.000163255 3.26993e-08
5.65414e-08 3.26993e-08 0.000167996

0.000175971 -1.59808e-05 -1.52371e-07
-1.59808e-05 0.000162697 -1.51142e-08
-1.52371e-07 -1.51142e-08 0.000167513

0.000147725 3.04395e-05 8.44329e-09
3.04395e-05 0.000175912 1.773e-07
8.44329e-09 1.773e-07 0.000164174

0.000153784 -2.78394e-05 -1.22622e-07
-2.78394e-05 0.000187575 -1.30033e-08
-1.22622e-07 -1.30033e-08 0.000172611

0.00015273 -3.30069e-07 1.81404e-07
-3.30069e-07 0.000101208 -7.85078e-08
1.81404e-07 -7.85078e-08 0.00010119

0.000160576 1.23415e-05 1.00257e-07
1.23415e-05 0.000114141 -1.30063e-07
1.00257e-07 -1.30063e-07 0.000118114

0.000184995 5.12491e-06 -1.4362e-08
5.12491e-06 0.000151609 -2.3158e-08
-1.4362e-08 -2.3158e-08 0.000172732

0.000196444 -7.99565e-06 1.72104e-07
-7.99565e-06 0.000192755 -1.55794e-08
1.72104e-07 -1.55794e-08 0.000189318

0.000196459 6.92157e-06 -3.27952e-07
6.92157e-06 0.000193099 1.64632e-07
-3.27952e-07 1.64632e-07 0.00018947

0.000127013 2.29472e-05 7.35965e-08
2.29472e-05 0.000138725 5.32774e-08
7.35965e-08 5.32774e-08 0.000104017

0.000151549 -1.99924e-05 -8.20149e-08
-1.99924e-05 0.000141634 1.54701e-07
-8.20149e-08 1.54701e-07 0.000139558

0.000179827 1.2037e-05 1.35228e-08
1.2037e-05 0.000154297 -3.8083e-09
1.35228e-08 -3.8083e-09 0.00015776

0.000184498 6.96385e-06 -6.45135e-08
6.96385e-06 0.000203099 6.99694e-08
-6.45135e-08 6.99694e-08 0.000187917

0.000184335 5.26202e-06 3.05657e-07
5.26202e-06 0.000203117 7.60681e-08
3.05657e-07 7.60681e-08 0.000187601

0.000185957 -3.56463e-06 -3.47863e-08
-3.56463e-06 0.000154076 -2.14515e-08
-3.47863e-08 -2.14515e-08 0.000174306

0.000155435 -7.89335e-06 -5.98996e-08
-7.89335e-06 0.000181314 2.78513e-08
-5.98996e-08 2.78513e-08 0.000161868

0.000156038 -1.06289e-05 6.67636e-08
-1.06289e-05 0.000182997 -1.07923e-07
6.67636e-08 -1.07923e-07 0.000162455

0.000195819 -7.46894e-06 -1.0961e-08
-7.46894e-06 0.000160669 2.3282e-09
-1.0961e-08 2.3282e-09 0.000178795

0.00019617 7.52475e-06 6.81552e-08
7.52475e-06 0.000160599 5.44089e-08
6.81552e-08 5.44089e-08 0.000179321

0.000136012 -2.28264e-05 1.30358e-08
-2.28264e-05 0.00013535 -2.20692e-07
1.30358e-08 -2.20692e-07 0.000105104

0.00017531 1.4163e-06 2.09332e-08
1.4163e-06 0.000140056 -4.10254e-09
2.09332e-08 -4.10254e-09 0.000142701

0.000192951 -1.10911e-05 1.22557e-07
-1.10911e-05 0.000172885 -1.35665e-07
1.22557e-07 -1.35665e-07 0.000185374

0.000192856 1.10574e-05 3.04043e-08
1.10574e-05 0.000173158 -1.34761e-08
3.04043e-08 -1.34761e-08 0.000185588

0.000179522 -1.25202e-05 -1.51021e-07
-1.25202e-05 0.000154715 -1.62111e-08
-1.51021e-07 -1.62111e-08 0.000157396

0.00013514 -2.59302e-05 1.2754e-07
-2.59302e-05 0.000169068 1.54212e-07
1.2754e-07 1.54212e-07 0.000136191

0.000195358 -8.32081e-06 -1.06201e-08
-8.32081e-06 0.000164418 4.11561e-09
-1.06201e-08 4.11561e-09 0.000177398

0.000195672 8.35721e-06 7.28841e-08
8.35721e-06 0.000164332 3.13191e-08
7.28841e-08 3.13191e-08 0.000177992

0.000176997 -5.53799e-06 -6.08064e-08
-5.53799e-06 0.000134722 8.74608e-08
-6.08064e-08 8.74608e-08 0.000150144

0.000152285 3.62399e-05 5.57394e-08
3.62399e-05 0.000185862 -1.47959e-07
5.57394e-08 -1.47959e-07 0.00016811

0.000149059 1.99533e-05 -1.19113e-07
1.99533e-05 0.000140105 -4.50762e-08
-1.19113e-07 -4.50762e-08 0.000125653

0.000147117 3.07313e-05 -5.1983e-08
3.07313e-05 0.000184095 -1.73572e-08
-5.1983e-08 -1.73572e-08 0.000167065

0.000150264 3.43554e-05 -6.34581e-08
3.43554e-05 0.000188188 9.21333e-08
-6.34581e-08 9.21333e-08 0.000168423

0.00016195 1.48689e-05 -2.63924e-08
1.48689e-05 0.000129572 2.08973e-08
-2.63924e-08 2.08973e-08 0.000128882

0.00016614 -1.23297e-05 7.28462e-08
-1.23297e-05 0.000147943 6.32207e-08
7.28462e-08 6.32207e-08 0.000158941

0.000174557 6.67069e-06 9.08266e-08
6.67069e-06 0.000135233 2.96982e-07
9.08266e-08 2.96982e-07 0.000147147

0.000132023 2.51775e-05 -5.85296e-08
2.51775e-05 0.000138595 -6.80924e-08
-5.85296e-08 -6.80924e-08 0.000119619

0.000149288 2.06843e-05 -2.8177e-08
2.06843e-05 0.000141115 2.65757e-08
-2.8177e-08 2.65757e-08 0.00013852

0.000136902 1.92683e-06 1.58603e-08
1.92683e-06 0.000175115 -8.14695e-08
1.58603e-08 -8.14695e-08 0.000156197

0.000137277 2.81605e-06 7.72284e-08
2.81605e-06 0.000175087 -4.34091e-08
7.72284e-08 -4.34091e-08 0.000156277

0.000136261 -2.57226e-05 7.07064e-11
-2.57226e-05 0.000115914 1.18426e-07
7.07064e-11 1.18426e-07 9.86776e-05

0.000147663 -3.03861e-05 -4.77889e-08
-3.03861e-05 0.000176213 7.32084e-08
-4.77889e-08 7.32084e-08 0.000164478

0.000133321 -3.02043e-05 -7.41284e-08
-3.02043e-05 0.000154031 5.54493e-08
-7.41284e-08 5.54493e-08 0.000122907

0.000133242 3.09556e-05 -3.17533e-08
3.09556e-05 0.00015332 1.55251e-07
-3.17533e-08 1.55251e-07 0.000122562

0.000170144 -1.12749e-05 -2.8828e-08
-1.12749e-05 0.000142533 1.57615e-07
-2.8828e-08 1.57615e-07 0.00014856

0.000200263 -1.61342e-06 6.68885e-08
-1.61342e-06 0.000132606 7.20956e-08
6.68885e-08 7.20956e-08 0.000172545

0.000200578 1.93932e-06 -1.40347e-07
1.93932e-06 0.000132686 -1.19415e-09
-1.40347e-07 -1.19415e-09 0.000171907

0.000119304 1.64966e-05 1.32855e-07
1.64966e-05 0.000159905 8.42461e-08
1.32855e-07 8.42461e-08 0.000124419

0.000148821 -2.48525e-05 -1.168e-07
-2.48525e-05 0.000156153 -8.66851e-09
-1.168e-07 -8.66851e-09 0.000142188

9.60114e-05 -5.38212e-07 -1.14665e-07
-5.38212e-07 0.000154846 -4.49012e-08
-1.14665e-07 -4.49012e-08 0.000101876

9.55138e-05 1.23882e-06 -1.78235e-08
1.23882e-06 0.00015529 -7.21912e-08
-1.78235e-08 -7.21912e-08 0.000101157

0.000153114 -2.96644e-07 -1.44723e-07
-2.96644e-07 0.000104256 1.03369e-07
-1.44723e-07 1.03369e-07 0.000102916

0.000135742 2.41959e-05 2.55311e-08
2.41959e-05 0.000136149 -2.37942e-09
2.55311e-08 -2.37942e-09 0.000104661

0.0001431 -2.84637e-05 -1.08667e-07
-2.84637e-05 0.000139677 -1.05863e-07
-1.08667e-07 -1.05863e-07 0.000123723

0.000185019 -1.35474e-05 -1.27403e-07
-1.35474e-05 0.000214978 2.13398e-07
-1.27403e-07 2.13398e-07 0.000190474

0.000185289 -1.33816e-05 4.13329e-07
-1.33816e-05 0.000215923 -8.15607e-08
4.13329e-07 -8.15607e-08 0.000190637

0.000164115 -1.45582e-05 1.55681e-07
-1.45582e-05 0.000129953 -6.50281e-08
1.55681e-07 -6.50281e-08 0.00013049

0.000143895 3.37389e-05 -9.15386e-08
3.37389e-05 0.000180856 -8.09757e-08
-9.15386e-08 -8.09757e-08 0.000156083

0.000193319 -8.97724e-07 -1.05203e-08
-8.97724e-07 0.000152269 2.00004e-09
-1.05203e-08 2.00004e-09 0.000168546

0.000118975 -1.62056e-05 -6.27766e-08
-1.62056e-05 0.000161212 -1.63536e-07
-6.27766e-08 -1.63536e-07 0.000124669

0.000153841 3.02451e-05 -2.53257e-08
3.02451e-05 0.000189196 9.45532e-09
-2.53257e-08 9.45532e-09 0.000173594

0.000150021 2.85138e-05 3.19547e-08
2.85138e-05 0.000185488 5.80639e-08
3.19547e-08 5.80639e-08 0.000171855

0.000152705 -3.63846e-05 -1.06738e-07
-3.63846e-05 0.000186107 1.05556e-07
-1.06738e-07 1.05556e-07 0.000168335

0.000151133 3.50498e-05 6.80981e-08
3.50498e-05 0.000192166 -1.03586e-07
6.80981e-08 -1.03586e-07 0.000170624

0.000140822 2.95646e-05 1.8262e-07
2.95646e-05 0.000175271 -6.09498e-09
1.8262e-07 -6.09498e-09 0.000153766

0.000207954 4.8122e-08 3.23597e-08
4.8122e-08 0.000168156 3.12621e-08
3.23597e-08 3.12621e-08 0.000191435

0.000143638 2.79211e-05 2.508e-08
2.79211e-05 0.000137411 -2.7056e-09
2.508e-08 -2.7056e-09 0.000122507

0.000147244 -3.10614e-05 -3.16741e-08
-3.10614e-05 0.00018402 2.493e-08
-3.16741e-08 2.493e-08 0.000167102

0.000142836 2.4441e-05 3.20698e-08
2.4441e-05 0.000153885 7.14424e-08
3.20698e-08 7.14424e-08 0.000129254

0.000122158 -2.1125e-05 1.6821e-07
-2.1125e-05 0.000136821 6.27563e-08
1.6821e-07 6.27563e-08 9.94116e-05

0.000145532 -2.58319e-05 -2.83608e-08
-2.58319e-05 0.000166199 -1.3913e-07
-2.83608e-08 -1.3913e-07 0.000152362

0.000116864 -1.47025e-05 4.24439e-08
-1.47025e-05 0.000164216 -1.34375e-07
4.24439e-08 -1.34375e-07 0.000112742

0.000116212 1.42899e-05 1.29068e-07
1.42899e-05 0.000163339 6.71036e-09
1.29068e-07 6.71036e-09 0.000112169

0.000157149 -1.00408e-05 -1.11299e-07
-1.00408e-05 0.000127633 2.91536e-08
-1.11299e-07 2.91536e-08 0.000113038

0.000142832 -2.49755e-05 -1.12927e-07
-2.49755e-05 0.000154056 1.28794e-08
-1.12927e-07 1.28794e-08 0.000128829

0.000137169 3.88395e-06 7.31387e-08
3.88395e-06 0.000175991 3.86998e-08
7.31387e-08 3.86998e-08 0.000141064

0.000137083 1.01603e-07 3.70205e-09
1.01603e-07 0.000175445 1.62696e-07
3.70205e-09 1.62696e-07 0.000141042

0.000116767 -2.88511e-05 9.9323e-08
-2.88511e-05 0.000134933 -1.69836e-07
9.9323e-08 -1.69836e-07 9.69412e-05

0.000115509 2.92085e-05 -2.64044e-08
2.92085e-05 0.000135935 2.21893e-08
-2.64044e-08 2.21893e-08 9.80608e-05

0.000206931 -2.69012e-06 1.75653e-08
-2.69012e-06 0.000161907 6.85929e-09
1.75653e-08 6.85929e-09 0.000188342

0.000207068 2.77936e-06 1.05382e-08
2.77936e-06 0.000161912 6.43511e-08
1.05382e-08 6.43511e-08 0.00018855

0.000147528 3.17115e-05 5.80478e-08
3.17115e-05 0.000181935 -1.46416e-07
5.80478e-08 -1.46416e-07 0.000159336

0.000149695 -2.90402e-05 5.19758e-08
-2.90402e-05 0.000186275 -6.46633e-08
5.19758e-08 -6.46633e-08 0.000171357

0.000153327 2.09765e-05 2.2229e-07
2.09765e-05 0.000164193 2.86329e-10
2.2229e-07 2.86329e-10 0.000158879

0.000133693 2.33117e-05 -4.50631e-08
2.33117e-05 0.000103359 5.08771e-08
-4.50631e-08 5.08771e-08 8.33228e-05

0.000120227 1.99773e-05 1.23283e-07
1.99773e-05 0.000166621 -7.79833e-09
1.23283e-07 -7.79833e-09 0.000126594

0.000183869 1.39236e-05 5.06572e-08
1.39236e-05 0.000181934 -6.11591e-08
5.06572e-08 -6.11591e-08 0.000182893

0.000183372 -1.39908e-05 1.27096e-07
-1.39908e-05 0.000181994 -6.11392e-08
1.27096e-07 -6.11392e-08 0.000182803

0.0001754 -1.88519e-05 -1.3587e-07
-1.88519e-05 0.000171624 1.73276e-07
-1.3587e-07 1.73276e-07 0.000167209

0.00017513 1.87355e-05 4.99861e-08
1.87355e-05 0.000171562 1.09643e-07
4.99861e-08 1.09643e-07 0.00016736

6.88409e-05 6.24816e-06 6.25037e-08
6.24816e-06 0.00014363 -7.547e-09
6.25037e-08 -7.547e-09 3.77201e-05

0.000135506 6.45939e-06 3.70925e-08
6.45939e-06 7.61314e-05 -5.44008e-10
3.70925e-08 -5.44008e-10 3.77888e-05

0.000119405 -1.90042e-05 -6.42599e-08
-1.90042e-05 0.000167413 1.81553e-07
-6.42599e-08 1.81553e-07 0.000127343

0.000198392 -1.51736e-05 5.07033e-08
-1.51736e-05 0.000202039 -1.86666e-07
5.07033e-08 -1.86666e-07 0.000198487

0.000198392 1.51736e-05 8.08231e-08
1.51736e-05 0.000202039 1.61655e-07
8.08231e-08 1.61655e-07 0.000198501

0.000160457 2.3141e-05 -9.32665e-08
2.3141e-05 0.000161496 1.63958e-07
-9.32665e-08 1.63958e-07 0.000149726

0.000142428 1.27321e-05 -2.79417e-08
1.27321e-05 9.26795e-05 2.06125e-09
-2.79417e-08 2.06125e-09 8.27672e-05

0.000175342 -2.47171e-06 2.15042e-08
-2.47171e-06 0.000140235 -1.43313e-07
2.15042e-08 -1.43313e-07 0.000142752

0.000140258 -1.66598e-05 -1.66503e-07
-1.66598e-05 0.000176336 -2.56942e-08
-1.66503e-07 -2.56942e-08 0.000157331

0.000142291 -1.81764e-05 -4.80127e-08
-1.81764e-05 0.000178908 -1.63728e-07
-4.80127e-08 -1.63728e-07 0.000158591

0.000131234 -2.75388e-05 8.47842e-08
-2.75388e-05 0.000141327 1.26295e-07
8.47842e-08 1.26295e-07 0.000117273

0.000151097 -3.50662e-05 -5.60051e-08
-3.50662e-05 0.000192218 -4.33726e-08
-5.60051e-08 -4.33726e-08 0.000170832

0.00016058 -2.33475e-05 1.13082e-07
-2.33475e-05 0.000161782 -2.00261e-09
1.13082e-07 -2.00261e-09 0.000149408

0.000143987 3.36515e-05 -3.19155e-08
3.36515e-05 0.00018249 -4.80739e-08
-3.19155e-08 -4.80739e-08 0.000166289

0.000170599 2.41677e-05 1.46409e-07
2.41677e-05 0.000189919 -1.77464e-09
1.46409e-07 -1.77464e-09 0.000177649

0.000170007 2.21453e-05 -8.75303e-09
2.21453e-05 0.000186236 6.07261e-08
-8.75303e-09 6.07261e-08 0.000176589

0.000147469 -3.18553e-05 -7.93235e-09
-3.18553e-05 0.000182578 4.70126e-08
-7.93235e-09 4.70126e-08 0.000159849

0.000144337 2.8896e-05 -1.2028e-07
2.8896e-05 0.000175327 9.46362e-08
-1.2028e-07 9.46362e-08 0.000156025

0.000150308 1.99351e-05 -6.53982e-08
1.99351e-05 0.00012016 1.68769e-07
-6.53982e-08 1.68769e-07 0.000116401

0.000149945 3.70835e-05 -4.97645e-08
3.70835e-05 0.000188686 9.33769e-08
-4.97645e-08 9.33769e-08 0.000169381

0.00013166 -2.2552e-05 -4.95754e-08
-2.2552e-05 0.000170388 1.99784e-07
-4.95754e-08 1.99784e-07 0.000145383

0.000123464 8.83439e-06 1.29182e-07
8.83439e-06 0.000169978 9.46348e-08
1.29182e-07 9.46348e-08 0.000136072

0.000157815 2.67114e-05 -1.26578e-07
2.67114e-05 0.000169613 1.3525e-07
-1.26578e-07 1.3525e-07 0.000159263

0.000126578 1.12648e-05 1.11636e-07
1.12648e-05 0.000171388 2.05714e-08
1.11636e-07 2.05714e-08 0.000137549

0.000153707 -3.14533e-05 -6.45982e-08
-3.14533e-05 0.000190117 -3.33366e-08
-6.45982e-08 -3.33366e-08 0.000172948

9.2623e-05 -2.69313e-05 -6.54792e-08
-2.69313e-05 9.57029e-05 6.66603e-08
-6.54792e-08 6.66603e-08 5.37986e-05

9.3827e-05 -2.72039e-05 -1.13339e-07
-2.72039e-05 9.38989e-05 1.79162e-08
-1.13339e-07 1.79162e-08 5.35588e-05

0.000157893 -2.68211e-05 -9.82568e-08
-2.68211e-05 0.000169687 1.78708e-07
-9.82568e-08 1.78708e-07 0.000159124

0.000179712 -1.02006e-05 -1.52282e-07
-1.02006e-05 0.00014735 -4.87893e-08
-1.52282e-07 -4.87893e-08 0.000157031

0.000215604 3.25504e-05 4.07387e-07
3.25504e-05 0.000202314 -2.95543e-07
4.07387e-07 -2.95543e-07 0.00020268

0.000217182 -3.18338e-05 3.90761e-07
-3.18338e-05 0.000202314 2.77302e-07
3.90761e-07 2.77302e-07 0.000202666

0.000144328 -3.35645e-05 1.40131e-07
-3.35645e-05 0.000181658 1.19313e-07
1.40131e-07 1.19313e-07 0.000157166

0.000180456 7.04464e-06 2.03852e-07
7.04464e-06 0.00018604 8.85501e-08
2.03852e-07 8.85501e-08 0.000183495

0.000180343 -6.26373e-06 1.73705e-07
-6.26373e-06 0.000186382 -2.19625e-07
1.73705e-07 -2.19625e-07 0.000183489

0.000190896 4.87044e-07 1.05091e-07
4.87044e-07 0.000123759 -1.2036e-07
1.05091e-07 -1.2036e-07 0.000152498

0.00014403 -3.37913e-05 -3.39469e-08
-3.37913e-05 0.000182932 2.15931e-08
-3.39469e-08 2.15931e-08 0.000166172

0.000100756 3.28684e-05 -1.56107e-07
3.28684e-05 0.000103631 -7.89056e-08
-1.56107e-07 -7.89056e-08 6.65137e-05

9.79407e-05 3.10641e-05 -8.65776e-08
3.10641e-05 0.000104161 4.89372e-08
-8.65776e-08 4.89372e-08 6.7202e-05

9.72884e-05 -2.33571e-05 -1.10803e-07
-2.33571e-05 0.000140166 1.34242e-08
-1.10803e-07 1.34242e-08 7.84016e-05

9.93889e-05 2.4505e-05 -1.57926e-07
2.4505e-05 0.000141864 -1.04707e-07
-1.57926e-07 -1.04707e-07 8.04171e-05

0.000136424 -1.94896e-05 -8.8275e-09
-1.94896e-05 0.000104252 1.26649e-07
-8.8275e-09 1.26649e-07 7.85555e-05

0.000149592 -3.7043e-05 2.40696e-08
-3.7043e-05 0.000189775 8.74155e-08
2.40696e-08 8.74155e-08 0.00016944

6.96179e-05 8.63911e-06 4.49728e-08
8.63911e-06 0.00013541 -1.40002e-07
4.49728e-08 -1.40002e-07 6.68874e-05

0.000130616 1.1e-05 1.01577e-07
1.1e-05 7.8406e-05 1.3872e-08
1.01577e-07 1.3872e-08 6.76527e-05

0.00017596 -1.13471e-05 -1.09266e-07
-1.13471e-05 0.00019473 -1.26364e-07
-1.09266e-07 -1.26364e-07 0.000182418

0.00017734 -1.38233e-05 4.61996e-08
-1.38233e-05 0.000196109 3.65031e-08
4.61996e-08 3.65031e-08 0.0001831

0.000185686 4.4843e-06 -2.17392e-08
4.4843e-06 0.000149762 -3.01838e-08
-2.17392e-08 -3.01838e-08 0.000162418

0.000201201 1.87795e-07 -6.8712e-08
1.87795e-07 0.000122625 -1.20278e-07
-6.8712e-08 -1.20278e-07 0.000165878

0.000114385 -2.11782e-05 8.73235e-08
-2.11782e-05 0.000152276 -8.07284e-08
8.73235e-08 -8.07284e-08 0.000109638

0.000113615 2.068e-05 -1.08617e-08
2.068e-05 0.000151709 1.75341e-07
-1.08617e-08 1.75341e-07 0.000109216

0.000191063 9.2241e-08 9.64599e-08
9.2241e-08 0.000123086 -7.32519e-08
9.64599e-08 -7.32519e-08 0.000153306

0.000135068 -2.56038e-05 1.29361e-07
-2.56038e-05 0.000174872 1.27716e-07
1.29361e-07 1.27716e-07 0.000148336

0.000196867 -1.11488e-05 -1.58135e-07
-1.11488e-05 0.00019467 5.94411e-08
-1.58135e-07 5.94411e-08 0.000194293

0.000196423 1.0859e-05 -9.27415e-08
1.0859e-05 0.000194604 -4.28838e-08
-9.27415e-08 -4.28838e-08 0.000194313

0.000163815 1.49958e-05 1.21855e-07
1.49958e-05 0.000166501 9.01342e-08
1.21855e-07 9.01342e-08 0.000160688

0.000143902 -2.8663e-05 9.57961e-09
-2.8663e-05 0.000175499 3.87911e-08
9.57961e-09 3.87911e-08 0.000155875

0.00018582 4.24527e-06 6.55929e-09
4.24527e-06 0.000130838 2.59452e-07
6.55929e-09 2.59452e-07 0.000158661

0.000127507 2.39458e-05 3.85873e-08
2.39458e-05 0.000123065 1.91857e-07
3.85873e-08 1.91857e-07 0.000100033

0.000140853 -2.93924e-05 1.01787e-07
-2.93924e-05 0.000175458 8.00996e-08
1.01787e-07 8.00996e-08 0.000153984

5.07729e-05 -5.16887e-05 7.23636e-08
-5.16887e-05 5.26044e-05 -7.23636e-08
7.23636e-08 -7.23636e-08 1.19616e-05

0.000124824 -7.0537e-06 2.68667e-09
-7.0537e-06 0.000168898 8.59921e-09
2.68667e-09 8.59921e-09 0.000136111

0.000127299 -9.70655e-06 -8.71443e-08
-9.70655e-06 0.000169749 1.30695e-07
-8.71443e-08 1.30695e-07 0.000137233

0.000178594 -2.36564e-06 7.29774e-08
-2.36564e-06 0.00019299 -2.25617e-07
7.29774e-08 -2.25617e-07 0.000183869

0.000178957 -1.23915e-06 -5.08606e-08
-1.23915e-06 0.000191142 8.76707e-08
-5.08606e-08 8.76707e-08 0.00018389

0.000207831 -7.99865e-06 1.06754e-07
-7.99865e-06 0.000174241 -1.09651e-07
1.06754e-07 -1.09651e-07 0.000195376

0.000207745 7.9343e-06 -6.97721e-08
7.9343e-06 0.000174201 -4.03302e-08
-6.97721e-08 -4.03302e-08 0.000195536

0.000165767 -1.58262e-05 6.65918e-09
-1.58262e-05 0.000169433 3.46279e-08
6.65918e-09 3.46279e-08 0.000171359

0.000165664 1.61587e-05 -2.15873e-07
1.61587e-05 0.000167166 -5.8642e-08
-2.15873e-07 -5.8642e-08 0.000170152

0.0001765 -1.37733e-05 2.06057e-07
-1.37733e-05 0.000192026 -8.20366e-08
2.06057e-07 -8.20366e-08 0.000181723

0.000176606 1.46329e-05 2.16981e-07
1.46329e-05 0.000191846 3.21929e-08
2.16981e-07 3.21929e-08 0.000181698

0.000206037 2.19014e-05 -2.59906e-07
2.19014e-05 0.000203592 -2.56506e-07
-2.59906e-07 -2.56506e-07 0.000200043

0.00020574 -2.14783e-05 -2.73619e-07
-2.14783e-05 0.000203564 2.38436e-07
-2.73619e-07 2.38436e-07 0.000200027

0.000160468 -3.59926e-05 5.35225e-08
-3.59926e-05 0.000192211 -6.54587e-08
5.35225e-08 -6.54587e-08 0.000177354

0.00016044 3.63034e-05 -2.03722e-08
3.63034e-05 0.00019227 -1.22876e-07
-2.03722e-08 -1.22876e-07 0.000177443

0.000161841 2.15352e-05 -5.4375e-08
2.15352e-05 0.000151823 6.5255e-09
-5.4375e-08 6.5255e-09 0.000147586

0.000140222 -1.6948e-05 -1.42105e-07
-1.6948e-05 0.000174047 1.42215e-07
-1.42105e-07 1.42215e-07 0.000146787

0.000141318 -2.11002e-05 -1.16478e-08
-2.11002e-05 0.000177958 4.86617e-08
-1.16478e-08 4.86617e-08 0.000148524

0.000131672 -2.14068e-05 1.81599e-08
-2.14068e-05 0.000125824 -9.41908e-08
1.81599e-08 -9.41908e-08 9.74076e-05

0.000161764 -2.14985e-05 1.18973e-07
-2.14985e-05 0.000152332 2.62164e-08
1.18973e-07 2.62164e-08 0.000147375

0.000139911 1.5824e-05 -1.96947e-07
1.5824e-05 0.000172907 -6.02391e-08
-1.96947e-07 -6.02391e-08 0.000146239

0.000148209 3.01535e-05 1.05389e-07
3.01535e-05 0.000159792 1.3652e-07
1.05389e-07 1.3652e-07 0.000142262

0.000152369 -3.13804e-05 8.24488e-08
-3.13804e-05 0.000183686 -1.21628e-08
8.24488e-08 -1.21628e-08 0.000172698

0.000152947 3.06204e-05 -6.77731e-08
3.06204e-05 0.000183431 -2.23945e-08
-6.77731e-08 -2.23945e-08 0.000172863

0.000147969 -3.04468e-05 -6.08868e-08
-3.04468e-05 0.000159687 -3.23881e-08
-6.08868e-08 -3.23881e-08 0.000141887

0.000187221 -2.99572e-06 -7.10665e-08
-2.99572e-06 0.000151904 1.25116e-08
-7.10665e-08 1.25116e-08 0.00016508

0.000189232 9.06716e-06 -1.45887e-07
9.06716e-06 0.000203561 2.18044e-07
-1.45887e-07 2.18044e-07 0.000190193

0.000190003 7.10219e-06 -9.55711e-08
7.10219e-06 0.000204328 1.28942e-07
-9.55711e-08 1.28942e-07 0.000190423

0.000153742 -2.69633e-05 -1.20113e-07
-2.69633e-05 0.000185568 -1.14527e-07
-1.20113e-07 -1.14527e-07 0.00016464

0.000163657 1.31909e-05 1.09486e-07
1.31909e-05 0.000146364 -7.62351e-08
1.09486e-07 -7.62351e-08 0.000156341

0.000200917 -3.35406e-06 -1.54087e-07
-3.35406e-06 0.000155798 3.12544e-08
-1.54087e-07 3.12544e-08 0.000177285

9.88633e-05 -2.88918e-05 -1.08916e-07
-2.88918e-05 0.000103213 -4.47442e-09
-1.08916e-07 -4.47442e-09 5.96981e-05

9.97041e-05 -2.82282e-05 -3.00915e-09
-2.82282e-05 0.000103566 1.26898e-07
-3.00915e-09 1.26898e-07 6.03191e-05

0.000207262 -8.92672e-06 8.62591e-08
-8.92672e-06 0.000172814 -1.35097e-07
8.62591e-08 -1.35097e-07 0.000193806

0.000206842 8.99555e-06 -8.82402e-08
8.99555e-06 0.000172954 -1.86061e-08
-8.82402e-08 -1.86061e-08 0.000193902

0.00020069 2.61901e-06 4.84574e-08
2.61901e-06 0.000156625 8.82454e-09
4.84574e-08 8.82454e-09 0.000177799

0.000141599 2.09528e-05 6.17302e-08
2.09528e-05 0.000177485 -1.66258e-08
6.17302e-08 -1.66258e-08 0.000148312

0.000162052 1.6607e-05 -2.61638e-08
1.6607e-05 0.000144352 2.75699e-08
-2.61638e-08 2.75699e-08 0.000133376

0.000170189 -2.40161e-05 9.70212e-08
-2.40161e-05 0.000186789 -2.30901e-08
9.70212e-08 -2.30901e-08 0.000174673

0.000169801 2.36432e-05 -1.37959e-07
2.36432e-05 0.000186777 1.5734e-07
-1.37959e-07 1.5734e-07 0.000174794

0.000205838 -4.79973e-06 -1.32358e-07
-4.79973e-06 0.000182856 -5.97815e-08
-1.32358e-07 -5.97815e-08 0.000190118

0.000205463 4.64691e-06 -1.11217e-07
4.64691e-06 0.000185596 -3.93629e-07
-1.11217e-07 -3.93629e-07 0.000190485

0.000145217 -3.0792e-05 1.16284e-07
-3.0792e-05 0.000183866 -1.92165e-08
1.16284e-07 -1.92165e-08 0.000163403

0.000169072 1.32703e-05 1.95585e-07
1.32703e-05 0.000142829 -5.39535e-09
1.95585e-07 -5.39535e-09 0.000145837

0.000192932 9.40715e-06 3.10649e-08
9.40715e-06 0.000181267 -4.02789e-08
3.10649e-08 -4.02789e-08 0.000186139

0.000193034 -9.1509e-06 1.24155e-07
-9.1509e-06 0.000181227 -6.43034e-08
1.24155e-07 -6.43034e-08 0.000186053

0.000151928 -2.3819e-05 -1.21833e-07
-2.3819e-05 0.00018065 -5.67548e-08
-1.21833e-07 -5.67548e-08 0.000163122

0.000145782 -3.29977e-05 1.00655e-07
-3.29977e-05 0.000182616 -1.03926e-09
1.00655e-07 -1.03926e-09 0.000165697

5.22049e-05 -5.36401e-05 -2.32813e-08
-5.36401e-05 5.50753e-05 2.32813e-08
-2.32813e-08 2.32813e-08 1.31196e-05

0.000159228 2.25257e-05 -1.09614e-07
2.25257e-05 0.000190554 6.18896e-08
-1.09614e-07 6.18896e-08 0.00017618

0.000159128 -2.27351e-05 4.27732e-08
-2.27351e-05 0.000190928 -9.271e-08
4.27732e-08 -9.271e-08 0.000176266

0.000141051 -2.85049e-05 9.08359e-08
-2.85049e-05 0.000178766 1.12023e-08
9.08359e-08 1.12023e-08 0.000161179

0.000164486 -1.791e-05 1.51488e-07
-1.791e-05 0.000144723 -1.4716e-10
1.51488e-07 -1.4716e-10 0.000134749

0.000166303 -1.43255e-05 7.70651e-08
-1.43255e-05 0.000167206 -1.20855e-08
7.70651e-08 -1.20855e-08 0.000162345

0.000162765 1.92948e-05 -2.16485e-07
1.92948e-05 0.000179046 -5.65769e-08
-2.16485e-07 -5.65769e-08 0.00017201

0.000162844 -1.9985e-05 -1.07279e-08
-1.9985e-05 0.000179618 -3.09141e-08
-1.07279e-08 -3.09141e-08 0.000172212

0.000187221 -2.98363e-06 -7.12617e-08
-2.98363e-06 0.000131267 9.14651e-08
-7.12617e-08 9.14651e-08 0.000161138

0.000205489 6.98761e-06 -1.04956e-07
6.98761e-06 0.000186403 -1.01689e-07
-1.04956e-07 -1.01689e-07 0.000197725

0.000205932 -6.97611e-06 1.82491e-08
-6.97611e-06 0.000186281 2.0294e-07
1.82491e-08 2.0294e-07 0.000197764

0.000185005 2.95992e-06 1.80006e-07
2.95992e-06 0.000220328 -1.1297e-07
1.80006e-07 -1.1297e-07 0.000188797

0.000185365 2.13879e-06 -1.72714e-07
2.13879e-06 0.000219195 2.07297e-07
-1.72714e-07 2.07297e-07 0.000188919

6.42542e-05 2.24276e-06 1.30026e-07
2.24276e-06 0.000143332 5.73674e-09
1.30026e-07 5.73674e-09 3.67064e-05

0.000134927 1.96508e-06 -4.28688e-08
1.96508e-06 6.67434e-05 -8.17427e-08
-4.28688e-08 -8.17427e-08 3.66983e-05

0.000158376 -3.09335e-05 -1.90003e-07
-3.09335e-05 0.00019104 6.15267e-09
-1.90003e-07 6.15267e-09 0.000171382

0.000158218 3.07743e-05 -3.89035e-08
3.07743e-05 0.000190669 -4.2222e-08
-3.89035e-08 -4.2222e-08 0.000171499

0.000148362 -3.48903e-05 3.99386e-08
-3.48903e-05 0.000189195 8.51878e-08
3.99386e-08 8.51878e-08 0.000168054

5.7e-05 -2.52273e-05 -3.05086e-08
-2.52273e-05 0.000115214 -5.38727e-08
-3.05086e-08 -5.38727e-08 3.23625e-05

0.000110121 -2.4087e-05 5.36152e-08
-2.4087e-05 6.28623e-05 3.52325e-08
5.36152e-08 3.52325e-08 3.29835e-05

0.000194924 -3.20016e-05 1.19736e-07
-3.20016e-05 0.000220379 3.10781e-08
1.19736e-07 3.10781e-08 0.000204738

0.000196331 3.13623e-05 1.34472e-07
3.13623e-05 0.000220379 -4.76015e-08
1.34472e-07 -4.76015e-08 0.000204751

0.000153479 -2.12622e-05 -6.55433e-08
-2.12622e-05 0.000164703 -1.33726e-07
-6.55433e-08 -1.33726e-07 0.000159641

0.000146564 -2.94595e-05 -8.48474e-08
-2.94595e-05 0.000167171 -7.33621e-08
-8.48474e-08 -7.33621e-08 0.000145666

0.000158812 -3.13835e-05 -1.61058e-07
-3.13835e-05 0.000182202 -1.574e-07
-1.61058e-07 -1.574e-07 0.000168832

0.000158506 3.10248e-05 -1.74347e-08
3.10248e-05 0.000182154 9.46702e-08
-1.74347e-08 9.46702e-08 0.000168942

0.000147192 -3.32506e-05 -3.64933e-08
-3.32506e-05 0.000176127 -1.37528e-07
-3.64933e-08 -1.37528e-07 0.000155434

0.00014671 2.94802e-05 1.27779e-07
2.94802e-05 0.000166563 9.79441e-08
1.27779e-07 9.79441e-08 0.000145583

9.28834e-05 -9.54369e-06 -1.03378e-07
-9.54369e-06 0.000147972 1.54351e-08
-1.03378e-07 1.54351e-08 8.02332e-05

9.12404e-05 1.15972e-05 -5.7138e-09
1.15972e-05 0.00014533 -1.24341e-07
-5.7138e-09 -1.24341e-07 8.05595e-05

0.00014218 -7.38523e-06 -1.05776e-08
-7.38523e-06 0.000102736 1.19182e-07
-1.05776e-08 1.19182e-07 8.10838e-05

0.000147243 3.30515e-05 3.72691e-08
3.30515e-05 0.000175796 -3.32325e-08
3.72691e-08 -3.32325e-08 0.000155266

6.77506e-05 -5.96006e-06 1.24942e-07
-5.96006e-06 0.00013686 3.14735e-08
1.24942e-07 3.14735e-08 6.51924e-05

0.00013158 -5.76165e-06 -1.14495e-07
-5.76165e-06 7.02976e-05 -6.60197e-08
-1.14495e-07 -6.60197e-08 6.43906e-05

0.000166221 -3.02937e-05 1.59761e-07
-3.02937e-05 0.000190416 -6.80181e-08
1.59761e-07 -6.80181e-08 0.000178373

0.000166947 3.01515e-05 -6.37413e-08
3.01515e-05 0.000190103 -4.70225e-08
-6.37413e-08 -4.70225e-08 0.000178499

0.000168361 -2.6069e-05 1.53225e-07
-2.6069e-05 0.000194317 -9.03333e-08
1.53225e-07 -9.03333e-08 0.000180853

0.000168904 2.6191e-05 -1.2657e-07
2.6191e-05 0.000194048 1.70794e-07
-1.2657e-07 1.70794e-07 0.000180927

5.44228e-05 -2.53278e-05 7.55724e-08
-2.53278e-05 0.000111424 -2.99411e-08
7.55724e-08 -2.99411e-08 2.8423e-05

0.000107201 -2.34419e-05 -4.27444e-08
-2.34419e-05 5.675e-05 -8.15425e-08
-4.27444e-08 -8.15425e-08 2.81833e-05

0.000157431 2.7915e-05 -1.1412e-07
2.7915e-05 0.000178244 2.52837e-08
-1.1412e-07 2.52837e-08 0.000161483

0.000157492 -2.82595e-05 -1.35667e-07
-2.82595e-05 0.000178437 -1.75396e-07
-1.35667e-07 -1.75396e-07 0.000161371

0.000183199 -4.77393e-06 1.75186e-07
-4.77393e-06 0.00019394 -1.42928e-07
1.75186e-07 -1.42928e-07 0.000185217

0.000183406 -5.88579e-06 -1.97902e-07
-5.88579e-06 0.000195164 5.07172e-08
-1.97902e-07 5.07172e-08 0.000185497

0.000163119 -3.06904e-05 9.27136e-08
-3.06904e-05 0.00020085 4.66768e-08
9.27136e-08 4.66768e-08 0.000181848

0.000163234 3.05777e-05 -5.10911e-08
3.05777e-05 0.000200789 -2.6965e-08
-5.10911e-08 -2.6965e-08 0.000181929

0.000196797 -1.2085e-05 -1.52748e-07
-1.2085e-05 0.000183424 1.08563e-07
-1.52748e-07 1.08563e-07 0.000193583

0.000196262 1.22021e-05 -8.50515e-08
1.22021e-05 0.000183458 -1.12674e-07
-8.50515e-08 -1.12674e-07 0.000193603

0.000154028 2.51324e-05 1.89713e-07
2.51324e-05 0.000178698 -6.89827e-08
1.89713e-07 -6.89827e-08 0.000165803

0.000153411 -2.48898e-05 -1.16195e-07
-2.48898e-05 0.000179475 -3.24738e-08
-1.16195e-07 -3.24738e-08 0.00016602

0.000176237 -9.38982e-06 4.03038e-08
-9.38982e-06 0.000213818 9.3669e-08
4.03038e-08 9.3669e-08 0.000186763

0.000208734 -1.70754e-05 2.67882e-07
-1.70754e-05 0.000199771 1.70099e-08
2.67882e-07 1.70099e-08 0.000203115

0.00020661 -1.79071e-05 4.66386e-08
-1.79071e-05 0.00020005 -1.87728e-07
4.66386e-08 -1.87728e-07 0.000203128

0.000208817 1.73076e-05 1.48564e-07
1.73076e-05 0.00019993 8.71368e-08
1.48564e-07 8.71368e-08 0.000203073

0.000207684 1.77668e-05 6.30095e-08
1.77668e-05 0.00020005 1.66309e-07
6.30095e-08 1.66309e-07 0.000203139

0.000174906 -7.17392e-06 -1.44758e-07
-7.17392e-06 0.000212958 2.1775e-07
-1.44758e-07 2.1775e-07 0.000186139

0.000192895 -1.95542e-05 -6.77625e-08
-1.95542e-05 0.000192243 1.05772e-07
-6.77625e-08 1.05772e-07 0.000186009

0.000191826 2.02482e-05 -1.75443e-07
2.02482e-05 0.000192468 -2.33674e-07
-1.75443e-07 -2.33674e-07 0.000186279

0.000195869 -2.52068e-05 -6.92412e-07
-2.52068e-05 0.00021267 1.06291e-06
-6.92412e-07 1.06291e-06 0.000196448

0.000255979 -2.28594e-05 2.15427e-06
-2.28594e-05 0.000188139 6.27345e-07
2.15427e-06 6.27345e-07 0.000201954

0.000264427 1.4205e-05 2.16165e-06
1.4205e-05 0.000194867 -6.46083e-07
2.16165e-06 -6.46083e-07 0.000201971

0.000195869 2.38835e-05 -6.84458e-07
2.38835e-05 0.000208087 -1.07591e-06
-6.84458e-07 -1.07591e-06 0.000196469

0.000202786 -2.68047e-05 2.20259e-08
-2.68047e-05 0.000201621 -2.00286e-08
2.20259e-08 -2.00286e-08 0.000194569

0.000182213 -2.15084e-05 -4.07985e-08
-2.15084e-05 0.000203628 2.15733e-08
-4.07985e-08 2.15733e-08 0.000189055

0.000205311 -2.06381e-05 -9.44951e-08
-2.06381e-05 0.0002046 -5.59614e-07
-9.44951e-08 -5.59614e-07 0.000200021

0.000202209 2.64137e-05 3.23032e-08
2.64137e-05 0.00020119 1.05497e-08
3.23032e-08 1.05497e-08 0.000194591

0.00020492 1.96497e-05 -8.15877e-08
1.96497e-05 0.000205698 5.37955e-07
-8.15877e-08 5.37955e-07 0.000200039

0.000182171 2.15378e-05 -3.02634e-08
2.15378e-05 0.000203519 -3.08815e-08
-3.02634e-08 -3.08815e-08 0.000189079

0.000182264 -2.17923e-05 -2.85905e-08
-2.17923e-05 0.000202952 -1.28017e-07
-2.85905e-08 -1.28017e-07 0.000191939

0.000197784 -1.76715e-05 6.07518e-08
-1.76715e-05 0.000204013 -1.00193e-07
6.07518e-08 -1.00193e-07 0.000197458

0.000182334 2.25268e-05 -1.7203e-08
2.25268e-05 0.000203203 1.29153e-07
-1.7203e-08 1.29153e-07 0.000191961

0.000197678 1.81024e-05 8.84224e-08
1.81024e-05 0.000204471 9.62586e-08
8.84224e-08 9.62586e-08 0.000197476

0.000155691 1.46971e-05 4.88276e-08
1.46971e-05 0.000173851 -5.35284e-08
4.88276e-08 -5.35284e-08 0.000162975

0.000139255 -3.8209e-06 9.63141e-08
-3.8209e-06 0.00018332 8.75558e-08
9.63141e-08 8.75558e-08 0.00016377

0.000164663 -4.59028e-06 5.83454e-08
-4.59028e-06 0.000122871 -7.2311e-08
5.83454e-08 -7.2311e-08 0.000148322

0.000159438 2.51391e-07 -2.41557e-08
2.51391e-07 0.00011917 -2.78484e-08
-2.41557e-08 -2.78484e-08 0.000138064

0.000155666 1.46925e-05 4.50816e-08
1.46925e-05 0.000177381 -9.95225e-09
4.50816e-08 -9.95225e-09 0.000173156

0.000138735 -6.23166e-06 8.64706e-08
-6.23166e-06 0.000197509 -2.69456e-08
8.64706e-08 -2.69456e-08 0.000173407

0.00015946 8.27055e-06 -2.41771e-08
8.27055e-06 0.000119547 -4.33004e-08
-2.41771e-08 -4.33004e-08 0.0001389

0.000178271 1.0621e-05 1.85972e-08
1.0621e-05 0.0001367 2.02056e-08
1.85972e-08 2.02056e-08 0.000167692

9.99812e-05 2.07878e-05 5.00419e-08
2.07878e-05 0.000129533 -1.72051e-07
5.00419e-08 -1.72051e-07 0.000110057

0.000101639 2.00822e-05 -7.18058e-08
2.00822e-05 0.000130181 3.94798e-08
-7.18058e-08 3.94798e-08 0.000107958

0.00012672 1.79512e-05 2.62802e-08
1.79512e-05 0.00010053 1.00565e-08
2.62802e-08 1.00565e-08 0.000106504

0.000166313 9.57129e-06 2.77444e-08
9.57129e-06 0.000190179 -4.15105e-08
2.77444e-08 -4.15105e-08 0.000176388

0.000170589 -1.75136e-05 2.37074e-08
-1.75136e-05 0.000180863 -3.84499e-08
2.37074e-08 -3.84499e-08 0.000176217

0.000148428 -2.24623e-05 -6.97114e-09
-2.24623e-05 0.00015456 9.52906e-08
-6.97114e-09 9.52906e-08 0.000149436

0.000138053 7.53505e-06 -1.02307e-07
7.53505e-06 0.000198147 -1.20572e-07
-1.02307e-07 -1.20572e-07 0.00017269

0.000155296 -8.60102e-06 1.13322e-08
-8.60102e-06 0.00017568 -3.09191e-08
1.13322e-08 -3.09191e-08 0.000172555

0.000173471 5.8102e-06 -1.00762e-07
5.8102e-06 0.000123523 -4.68377e-08
-1.00762e-07 -4.68377e-08 0.000149103

0.000106669 9.68629e-06 -2.35925e-08
9.68629e-06 0.000147487 -3.02362e-08
-2.35925e-08 -3.02362e-08 0.000118799

0.000112301 7.39228e-06 4.60181e-09
7.39228e-06 0.000144049 -7.74845e-08
4.60181e-09 -7.74845e-08 0.000117737

0.000143486 5.38481e-06 7.96783e-08
5.38481e-06 0.000109643 -2.27455e-08
7.96783e-08 -2.27455e-08 0.00011549

0.00013021 2.24542e-05 1.9052e-08
2.24542e-05 0.000155189 -7.33928e-08
1.9052e-08 -7.33928e-08 0.000136541

0.000123765 -1.3371e-05 1.6561e-08
-1.3371e-05 0.000157352 -1.16381e-08
1.6561e-08 -1.16381e-08 0.000138437

0.000167794 1.27904e-05 1.33183e-07
1.27904e-05 0.000121836 2.00712e-08
1.33183e-07 2.00712e-08 0.000149937

9.66853e-05 1.49411e-05 5.76583e-08
1.49411e-05 0.00011921 -1.5761e-07
5.76583e-08 -1.5761e-07 9.80583e-05

0.00018024 -6.27857e-06 4.90969e-08
-6.27857e-06 0.000127246 -4.53667e-08
4.90969e-08 -4.53667e-08 0.000164194

0.000177868 3.8908e-06 4.44668e-08
3.8908e-06 0.000182423 -9.71323e-09
4.44668e-08 -9.71323e-09 0.000177286

0.000166753 -1.01295e-06 -1.2199e-07
-1.01295e-06 0.000197333 -1.07975e-07
-1.2199e-07 -1.07975e-07 0.000176969

0.000230498 2.13411e-05 2.50819e-07
2.13411e-05 0.000191613 -1.43758e-07
2.50819e-07 -1.43758e-07 0.000186303

0.000231205 -1.02973e-05 2.17497e-07
-1.02973e-05 0.000175639 -9.24293e-08
2.17497e-07 -9.24293e-08 0.000188144

0.000141893 -2.57031e-05 -4.54901e-08
-2.57031e-05 0.000153661 6.35103e-08
-4.54901e-08 6.35103e-08 0.000147331

0.000126972 -2.16556e-05 -7.55599e-09
-2.16556e-05 0.000152741 4.90817e-08
-7.55599e-09 4.90817e-08 0.000135396

0.000142315 -4.64309e-07 -1.209e-07
-4.64309e-07 0.000102275 1.19398e-07
-1.209e-07 1.19398e-07 0.000115413

0.000194963 1.43842e-05 9.06577e-08
1.43842e-05 0.000169203 7.88307e-08
9.06577e-08 7.88307e-08 0.000177227

0.000191429 -3.6139e-06 -2.62411e-08
-3.6139e-06 0.000165391 -1.93456e-07
-2.62411e-08 -1.93456e-07 0.000177267

0.000179533 -2.33303e-06 -5.84878e-08
-2.33303e-06 0.000127596 -5.01176e-08
-5.84878e-08 -5.01176e-08 0.000168844

0.000123424 -1.65575e-05 8.43788e-08
-1.65575e-05 0.000149463 7.87689e-08
8.43788e-08 7.87689e-08 0.000136865

0.00017748 3.4294e-06 1.83136e-08
3.4294e-06 0.000122858 1.5338e-08
1.83136e-08 1.5338e-08 0.000165201

0.000146449 -1.61084e-05 4.08101e-08
-1.61084e-05 0.000129321 -1.00326e-07
4.08101e-08 -1.00326e-07 0.000130475

0.000128977 2.4059e-05 1.38274e-07
2.4059e-05 0.00014486 3.44549e-08
1.38274e-07 3.44549e-08 0.000136309

0.000151712 1.70492e-05 -1.54142e-08
1.70492e-05 0.000114925 -4.5964e-08
-1.54142e-08 -4.5964e-08 0.000128731

0.000148065 -1.04009e-05 5.26367e-08
-1.04009e-05 0.00011341 -2.68612e-09
5.26367e-08 -2.68612e-09 0.000127351

0.000126776 2.00887e-05 6.38004e-08
2.00887e-05 0.000156019 1.14985e-07
6.38004e-08 1.14985e-07 0.000137618

0.00013096 -1.41934e-05 8.10978e-08
-1.41934e-05 0.000176945 -1.2557e-07
8.10978e-08 -1.2557e-07 0.00016346

0.000142058 2.6452e-05 -7.71144e-08
2.6452e-05 0.000175229 3.61379e-10
-7.71144e-08 3.61379e-10 0.000161749

0.000131081 -1.88215e-05 2.6293e-08
-1.88215e-05 0.000154274 8.32726e-08
2.6293e-08 8.32726e-08 0.000136935

0.000127969 2.42708e-05 -4.91413e-08
2.42708e-05 0.000154016 6.87918e-09
-4.91413e-08 6.87918e-09 0.000135374

7.75036e-05 -2.02339e-05 -1.25135e-07
-2.02339e-05 8.06298e-05 1.53817e-07
-1.25135e-07 1.53817e-07 8.06584e-05

7.58301e-05 2.37026e-05 -1.06271e-07
2.37026e-05 8.49536e-05 -1.37213e-07
-1.06271e-07 -1.37213e-07 7.94603e-05

0.000140412 1.97238e-05 1.38181e-07
1.97238e-05 0.000186204 -8.33194e-08
1.38181e-07 -8.33194e-08 0.000172537

0.000151861 -2.36573e-05 5.86481e-08
-2.36573e-05 0.000178896 -2.52113e-08
5.86481e-08 -2.52113e-08 0.000171722

0.000130189 2.24057e-05 2.62511e-08
2.24057e-05 0.000164729 1.01006e-07
2.62511e-08 1.01006e-07 0.000147016

7.68613e-05 7.72621e-06 -1.09529e-07
7.72621e-06 7.83509e-05 -3.56105e-08
-1.09529e-07 -3.56105e-08 8.39847e-05

7.57358e-05 -1.58266e-07 3.61236e-08
-1.58266e-07 8.25716e-05 1.616e-07
3.61236e-08 1.616e-07 8.49923e-05

0.000172452 -1.72405e-05 1.01713e-07
-1.72405e-05 0.000179036 2.12563e-07
1.01713e-07 2.12563e-07 0.00017967

0.000173893 8.46819e-06 -2.59683e-07
8.46819e-06 0.000185603 6.6023e-08
-2.59683e-07 6.6023e-08 0.000179051

0.00018515 -3.98287e-07 4.69008e-08
-3.98287e-07 0.00012652 -1.01529e-07
4.69008e-08 -1.01529e-07 0.000156469

0.000172762 -1.60672e-05 7.14315e-08
-1.60672e-05 0.00018017 -5.47698e-10
7.14315e-08 -5.47698e-10 0.000179486

0.000174795 5.97169e-06 -2.39681e-07
5.97169e-06 0.000176062 -7.47411e-08
-2.39681e-07 -7.47411e-08 0.000178994

0.000123822 -1.40884e-05 1.5739e-08
-1.40884e-05 0.000166416 -1.33636e-09
1.5739e-08 -1.33636e-09 0.000148835

0.0002116 2.13431e-05 -9.2743e-08
2.13431e-05 0.000188319 -8.72032e-08
-9.2743e-08 -8.72032e-08 0.000184221

0.000216079 -1.77206e-05 1.11777e-07
-1.77206e-05 0.000171139 5.08055e-08
1.11777e-07 5.08055e-08 0.00018604

0.000163043 -1.72623e-05 4.83113e-08
-1.72623e-05 0.000161802 -6.43093e-08
4.83113e-08 -6.43093e-08 0.000168576

0.000163641 1.316e-05 1.37188e-07
1.316e-05 0.000165405 1.75762e-07
1.37188e-07 1.75762e-07 0.000167818

0.00017442 1.73126e-06 1.10887e-07
1.73126e-06 0.000222226 -4.53577e-08
1.10887e-07 -4.53577e-08 0.000184015

0.000177735 1.01777e-05 9.50967e-10
1.01777e-05 0.000199856 7.18408e-08
9.50967e-10 7.18408e-08 0.000184712

9.15673e-05 6.90707e-06 -6.03511e-08
6.90707e-06 0.000113485 5.71118e-08
-6.03511e-08 5.71118e-08 9.57723e-05

0.000113365 7.14242e-06 -1.85966e-07
7.14242e-06 9.22082e-05 -1.23824e-07
-1.85966e-07 -1.23824e-07 9.58511e-05

0.000138851 2.1208e-05 -3.78742e-08
2.1208e-05 0.000173167 8.60633e-09
-3.78742e-08 8.60633e-09 0.000158311

0.000127061 -1.28993e-05 -1.36642e-07
-1.28993e-05 0.000176571 -7.92889e-08
-1.36642e-07 -7.92889e-08 0.000159502

0.000205153 -2.9568e-05 6.19031e-07
-2.9568e-05 0.00024098 4.71481e-07
6.19031e-07 4.71481e-07 0.000191259

0.000219107 1.58903e-05 4.65247e-07
1.58903e-05 0.0001895 -2.43895e-07
4.65247e-07 -2.43895e-07 0.000191493

0.000144666 2.23755e-05 -7.37794e-08
2.23755e-05 0.000131661 1.14178e-07
-7.37794e-08 1.14178e-07 0.000133421

0.000169802 8.38177e-06 -1.55264e-07
8.38177e-06 0.000139894 5.78242e-09
-1.55264e-07 5.78242e-09 0.000159207

0.000168474 -1.13312e-05 -9.37511e-08
-1.13312e-05 0.000139832 -8.83732e-08
-9.37511e-08 -8.83732e-08 0.000159429

0.00018876 -1.18793e-05 5.53453e-08
-1.18793e-05 0.000144392 1.66344e-07
5.53453e-08 1.66344e-07 0.000174552

0.000141566 5.19536e-06 -1.06131e-07
5.19536e-06 0.000103737 -1.05497e-07
-1.06131e-07 -1.05497e-07 0.000115957

0.000240639 1.22221e-06 -2.37526e-07
1.22221e-06 0.000184297 -3.03529e-07
-2.37526e-07 -3.03529e-07 0.000189619

0.000232523 -2.07514e-06 -2.90246e-07
-2.07514e-06 0.000214502 1.26516e-07
-2.90246e-07 1.26516e-07 0.000187633

0.000149769 2.70954e-05 -1.42789e-07
2.70954e-05 0.000136004 4.57022e-08
-1.42789e-07 4.57022e-08 0.000144739

0.000173273 7.13216e-06 -1.0633e-07
7.13216e-06 0.000135273 4.73088e-08
-1.0633e-07 4.73088e-08 0.000150571

0.00012083 2.22704e-05 -5.98547e-08
2.22704e-05 0.000129262 -1.65115e-07
-5.98547e-08 -1.65115e-07 0.000115733

0.000188253 -1.27934e-05 -1.776e-07
-1.27934e-05 0.000228474 2.48168e-08
-1.776e-07 2.48168e-08 0.000186197

0.00018559 8.00613e-06 -1.17681e-07
8.00613e-06 0.000198335 4.29837e-08
-1.17681e-07 4.29837e-08 0.000187499

0.000191926 2.27844e-05 1.1425e-07
2.27844e-05 0.000154945 -2.69872e-08
1.1425e-07 -2.69872e-08 0.0001749

0.000155485 -7.07277e-06 1.24739e-08
-7.07277e-06 0.000173278 -1.16773e-08
1.24739e-08 -1.16773e-08 0.000162612

0.000138422 4.76371e-06 -1.09546e-07
4.76371e-06 0.000185093 3.20875e-09
-1.09546e-07 3.20875e-09 0.000163238

0.000186019 -3.44788e-06 1.64925e-07
-3.44788e-06 0.000130605 2.75627e-08
1.64925e-07 2.75627e-08 0.000163681

0.000188722 2.59436e-06 3.46128e-09
2.59436e-06 0.000128933 -1.30875e-07
3.46128e-09 -1.30875e-07 0.000163787

0.000128954 -1.45013e-05 -1.49754e-07
-1.45013e-05 0.00011934 3.99162e-08
-1.49754e-07 3.99162e-08 0.000114182

0.000167495 9.22029e-07 -2.34682e-08
9.22029e-07 0.000120122 -8.04092e-09
-2.34682e-08 -8.04092e-09 0.000138291

0.000186738 3.26923e-06 4.54219e-08
3.26923e-06 0.000146172 6.58785e-08
4.54219e-08 6.58785e-08 0.000171495

0.000182094 -6.22522e-06 -3.93197e-08
-6.22522e-06 0.000149841 1.42332e-07
-3.93197e-08 1.42332e-07 0.000171762

0.000171895 -8.62893e-06 -5.85516e-09
-8.62893e-06 0.000133169 -1.59889e-07
-5.85516e-09 -1.59889e-07 0.000150827

0.000185412 -3.99772e-06 1.49097e-07
-3.99772e-06 0.00014151 -5.54291e-08
1.49097e-07 -5.54291e-08 0.000165094

0.000188574 1.73033e-06 -2.22254e-08
1.73033e-06 0.000140884 -5.45576e-09
-2.22254e-08 -5.45576e-09 0.000165058

0.000169963 1.80891e-05 1.84379e-07
1.80891e-05 0.000134045 1.15305e-07
1.84379e-07 1.15305e-07 0.000153844

0.000129333 -2.35181e-05 8.12603e-08
-2.35181e-05 0.000127422 -9.40013e-08
8.12603e-08 -9.40013e-08 0.000122941

0.00014567 3.09144e-05 -3.27263e-08
3.09144e-05 0.000175807 -4.12207e-08
-3.27263e-08 -4.12207e-08 0.000164581

0.00014179 -2.718e-05 -2.42433e-08
-2.718e-05 0.000167049 3.07054e-08
-2.42433e-08 3.07054e-08 0.000166693

0.000138993 -1.95203e-05 -1.13305e-08
-1.95203e-05 0.000168502 4.85795e-08
-1.13305e-08 4.85795e-08 0.000168648

0.000147021 3.26598e-05 -7.35223e-08
3.26598e-05 0.000181021 7.12022e-09
-7.35223e-08 7.12022e-09 0.000166497

0.000155011 1.12978e-05 3.96763e-08
1.12978e-05 0.000112649 -4.13445e-08
3.96763e-08 -4.13445e-08 0.000128518

0.000117819 -1.33812e-05 -2.76017e-10
-1.33812e-05 0.000102544 -2.21402e-09
-2.76017e-10 -2.21402e-09 0.00010102

0.000169698 2.547e-05 2.31812e-08
2.547e-05 0.000143071 -1.62274e-07
2.31812e-08 -1.62274e-07 0.000161212

0.000166422 -9.08945e-06 5.6026e-08
-9.08945e-06 0.000133772 -6.50152e-08
5.6026e-08 -6.50152e-08 0.000151137

0.000121029 -1.09638e-05 7.95142e-08
-1.09638e-05 9.86227e-05 1.64581e-07
7.95142e-08 1.64581e-07 0.000101901

0.000148324 -2.09986e-05 2.11278e-09
-2.09986e-05 0.000135882 -6.9734e-08
2.11278e-09 -6.9734e-08 0.000142997

0.000122488 -2.97905e-07 7.4435e-08
-2.97905e-07 0.000184135 9.88166e-08
7.4435e-08 9.88166e-08 0.00015788

0.000136644 3.50287e-06 7.1037e-08
3.50287e-06 0.000167375 -4.21104e-08
7.1037e-08 -4.21104e-08 0.000157163

0.00012975 2.70618e-05 1.35883e-07
2.70618e-05 0.000130652 1.13452e-08
1.35883e-07 1.13452e-08 0.000127216

0.00012906 -1.55741e-05 -1.51114e-07
-1.55741e-05 0.000103283 7.55296e-08
-1.51114e-07 7.55296e-08 0.000109594

0.00015257 2.87554e-05 -1.03987e-08
2.87554e-05 0.000161483 -2.99229e-08
-1.03987e-08 -2.99229e-08 0.000166643

0.000149835 -2.73158e-05 -2.96915e-09
-2.73158e-05 0.000168537 -9.4429e-08
-2.96915e-09 -9.4429e-08 0.00016441

0.000124477 -2.04458e-05 8.95274e-08
-2.04458e-05 0.000141554 3.60626e-08
8.95274e-08 3.60626e-08 0.000127153

0.000127424 -2.21721e-05 2.785e-08
-2.21721e-05 0.000138794 -1.9203e-07
2.785e-08 -1.9203e-07 0.000125606

0.000167571 2.11112e-05 2.17728e-07
2.11112e-05 0.000136824 1.77924e-08
2.17728e-07 1.77924e-08 0.000152194

0.000192931 1.30154e-05 1.49312e-08
1.30154e-05 0.000127239 1.66016e-08
1.49312e-08 1.66016e-08 0.000174144

0.000193471 -8.77601e-06 -7.25778e-08
-8.77601e-06 0.000122148 -3.26499e-08
-7.25778e-08 -3.26499e-08 0.000174355

0.000118199 1.65918e-05 5.08506e-09
1.65918e-05 0.000153277 -7.62815e-08
5.08506e-09 -7.62815e-08 0.000130021

0.000149968 2.57304e-05 -1.29852e-07
2.57304e-05 0.000144684 -1.94027e-08
-1.29852e-07 -1.94027e-08 0.000146635

9.2589e-05 2.4631e-06 -8.85452e-08
2.4631e-06 0.00014416 -5.2907e-08
-8.85452e-08 -5.2907e-08 0.000113774

9.79097e-05 1.60829e-06 8.88104e-08
1.60829e-06 0.000141957 -5.43579e-08
8.88104e-08 -5.43579e-08 0.000112776

0.000142308 9.56497e-07 6.42032e-08
9.56497e-07 9.38538e-05 -6.77231e-08
6.42032e-08 -6.77231e-08 0.000111292

0.000135912 -1.93633e-05 -5.96687e-08
-1.93633e-05 0.000122312 -4.52992e-08
-5.96687e-08 -4.52992e-08 0.000126785

0.000187477 -1.3727e-05 3.38544e-07
-1.3727e-05 0.000211929 -1.01691e-07
3.38544e-07 -1.01691e-07 0.000190294

0.000233197 5.81303e-06 -1.48471e-07
5.81303e-06 0.000235755 3.40543e-08
-1.48471e-07 3.40543e-08 0.000188591

0.000145207 2.26534e-05 -8.10135e-08
2.26534e-05 0.000115592 7.0836e-08
-8.10135e-08 7.0836e-08 0.000126799

0.000155968 -9.50725e-06 9.7059e-09
-9.50725e-06 0.000112344 1.44055e-07
9.7059e-09 1.44055e-07 0.000130109

0.000121315 1.61229e-05 -1.00959e-07
1.61229e-05 9.75322e-05 8.89932e-08
-1.00959e-07 8.89932e-08 0.000103394

0.000130865 -1.61421e-05 9.82098e-08
-1.61421e-05 0.000165065 -6.87794e-08
9.82098e-08 -6.87794e-08 0.000156649

0.000139994 3.04255e-05 -8.09142e-08
3.04255e-05 0.000171288 1.27728e-08
-8.09142e-08 1.27728e-08 0.000154778

0.000185148 -3.62213e-07 3.91086e-08
-3.62213e-07 0.000126492 1.21247e-07
3.91086e-08 1.21247e-07 0.000156316

0.000110192 1.55899e-05 2.94276e-08
1.55899e-05 0.000154877 1.03302e-07
2.94276e-08 1.03302e-07 0.00013115

0.000134371 -2.04284e-05 -6.1112e-08
-2.04284e-05 0.000186292 -5.93551e-08
-6.1112e-08 -5.93551e-08 0.000173451

0.000150544 2.8398e-05 -6.34018e-08
2.8398e-05 0.000182943 -1.48235e-08
-6.34018e-08 -1.48235e-08 0.000171993

0.000119243 1.74368e-05 -3.14991e-08
1.74368e-05 0.000129994 4.07693e-08
-3.14991e-08 4.07693e-08 0.000113795

0.00012631 1.89734e-05 2.33606e-08
1.89734e-05 0.000122452 -5.21592e-09
2.33606e-08 -5.21592e-09 0.000112403

0.000121986 1.49006e-05 -1.96617e-08
1.49006e-05 9.90823e-05 -1.4063e-07
-1.96617e-08 -1.4063e-07 0.000103934

0.000145301 3.14578e-05 -1.05821e-08
3.14578e-05 0.000184506 3.84933e-08
-1.05821e-08 3.84933e-08 0.000167143

0.000139924 -2.31103e-05 -8.73883e-09
-2.31103e-05 0.000161881 -2.49639e-08
-8.73883e-09 -2.49639e-08 0.000169567

0.000196594 7.92046e-07 -1.0415e-07
7.92046e-07 0.000127874 -7.91825e-08
-1.0415e-07 -7.91825e-08 0.000167417

0.000147542 2.13735e-05 -2.77559e-08
2.13735e-05 0.000162396 -8.19405e-08
-2.77559e-08 -8.19405e-08 0.000169342

0.000147968 -2.68677e-05 -7.08741e-08
-2.68677e-05 0.000179255 8.53855e-08
-7.08741e-08 8.53855e-08 0.000167512

0.000147396 2.60217e-05 -7.94109e-08
2.60217e-05 0.000152153 6.10217e-08
-7.94109e-08 6.10217e-08 0.000155162

0.000107768 -5.56161e-06 -1.29725e-07
-5.56161e-06 0.000148402 -3.07882e-08
-1.29725e-07 -3.07882e-08 0.000120706

0.000113865 -7.33141e-06 5.32219e-08
-7.33141e-06 0.000146965 -3.40903e-08
5.32219e-08 -3.40903e-08 0.000119787

0.000144122 -4.92196e-06 -4.53747e-08
-4.92196e-06 0.000110583 1.63484e-07
-4.53747e-08 1.63484e-07 0.000118213

0.000135484 -1.59787e-05 -5.43489e-08
-1.59787e-05 0.000136104 -1.39189e-07
-5.43489e-08 -1.39189e-07 0.000131421

0.000136727 2.76418e-06 6.6306e-08
2.76418e-06 0.000163448 5.30358e-08
6.6306e-08 5.30358e-08 0.000143662

0.00012259 4.06214e-07 7.13916e-08
4.06214e-07 0.000171312 3.77151e-08
7.13916e-08 3.77151e-08 0.000144582

0.000109346 -1.79763e-05 -4.43582e-08
-1.79763e-05 0.000126599 -8.44266e-08
-4.43582e-08 -8.44266e-08 0.000108961

0.000108918 -1.68467e-05 -1.09156e-09
-1.68467e-05 0.000122604 1.198e-07
-1.09156e-09 1.198e-07 0.000109434

0.000198024 -9.53496e-07 -7.95002e-08
-9.53496e-07 0.000129881 -1.16561e-07
-7.95002e-08 -1.16561e-07 0.000167671

0.000195338 9.34044e-07 -6.12115e-08
9.34044e-07 0.000131762 -8.35621e-09
-6.12115e-08 -8.35621e-09 0.00016762

0.000139386 -2.06927e-05 1.14193e-07
-2.06927e-05 0.000159453 -6.17876e-08
1.14193e-07 -6.17876e-08 0.000158951

0.000141865 2.77308e-05 -2.26896e-09
2.77308e-05 0.00017325 -2.08442e-08
-2.26896e-09 -2.08442e-08 0.000156964

0.00013504 1.73878e-05 -5.25453e-08
1.73878e-05 0.000185221 -1.51454e-07
-5.25453e-08 -1.51454e-07 0.000172926

0.000150949 -2.61005e-05 -3.75721e-08
-2.61005e-05 0.000180708 8.27977e-09
-3.75721e-08 8.27977e-09 0.000171648

0.000156704 -2.07202e-05 2.82139e-08
-2.07202e-05 0.000153228 8.67585e-08
2.82139e-08 8.67585e-08 0.000159982

0.000110793 -1.11022e-05 -1.40304e-07
-1.11022e-05 0.000157168 -4.27258e-09
-1.40304e-07 -4.27258e-09 0.00013166

0.000176393 3.77982e-06 -6.96154e-08
3.77982e-06 0.000165863 1.80896e-07
-6.96154e-08 1.80896e-07 0.000173401

0.000173443 -1.05948e-05 1.12602e-07
-1.05948e-05 0.000162186 -6.24148e-08
1.12602e-07 -6.24148e-08 0.000173916

0.000153733 -1.63506e-05 1.80749e-07
-1.63506e-05 0.000141145 -6.557e-08
1.80749e-07 -6.557e-08 0.000147241

0.000167988 -1.36966e-05 -8.0028e-08
-1.36966e-05 0.000149153 6.83037e-08
-8.0028e-08 6.83037e-08 0.000161275

0.000169187 1.13193e-05 -1.44854e-07
1.13193e-05 0.000155641 -1.16405e-07
-1.44854e-07 -1.16405e-07 0.000160524

7.66641e-05 -6.61579e-06 4.02415e-08
-6.61579e-06 5.42331e-05 -1.15591e-08
4.02415e-08 -1.15591e-08 8.48774e-05

0.000128478 2.71039e-05 -4.78695e-08
2.71039e-05 0.000140113 2.36606e-08
-4.78695e-08 2.36606e-08 0.000126215

6.06548e-05 1.279e-05 1.09728e-07
1.279e-05 7.74775e-05 5.18897e-08
1.09728e-07 5.18897e-08 8.44191e-05

0.00011849 -1.45282e-05 6.64511e-09
-1.45282e-05 0.00015334 8.59393e-08
6.64511e-09 8.59393e-08 0.000130648

0.000183995 -1.40747e-05 -9.12561e-08
-1.40747e-05 0.000199733 -2.37379e-07
-9.12561e-08 -2.37379e-07 0.000186569

0.000193762 5.35511e-06 3.01905e-07
5.35511e-06 0.000187633 3.28058e-07
3.01905e-07 3.28058e-07 0.000186376

0.000154266 1.75209e-05 -1.56629e-08
1.75209e-05 0.000147163 -6.03283e-09
-1.56629e-08 -6.03283e-09 0.000146268

0.000167509 -8.10851e-07 -2.40072e-08
-8.10851e-07 0.000118563 1.24387e-07
-2.40072e-08 1.24387e-07 0.000138468

0.000139035 2.2455e-05 1.12389e-07
2.2455e-05 0.000121804 5.07107e-08
1.12389e-07 5.07107e-08 0.000125033

0.000127714 1.0542e-05 -1.63648e-08
1.0542e-05 0.00018199 -4.35949e-08
-1.63648e-08 -4.35949e-08 0.000159419

0.000140118 -1.4778e-05 5.07577e-08
-1.4778e-05 0.000169415 7.53423e-09
5.07577e-08 7.53423e-09 0.00015843

0.0001699 2.44464e-05 3.27521e-08
2.44464e-05 0.000183377 -2.11112e-08
3.27521e-08 -2.11112e-08 0.000176721

0.000167992 -1.36822e-05 1.09923e-07
-1.36822e-05 0.000187031 -4.81711e-08
1.09923e-07 -4.81711e-08 0.000177023

0.00014415 3.34146e-05 4.00795e-09
3.34146e-05 0.000181181 1.41455e-08
4.00795e-09 1.41455e-08 0.000166591

0.000126459 -3.16874e-05 3.28678e-08
-3.16874e-05 0.000170815 4.45659e-08
3.28678e-08 4.45659e-08 0.000169264

0.000126112 1.72349e-05 4.58131e-08
1.72349e-05 0.000163323 -6.00119e-08
4.58131e-08 -6.00119e-08 0.000148729

0.000123069 8.39244e-06 -6.79399e-08
8.39244e-06 0.000161359 1.25794e-07
-6.79399e-08 1.25794e-07 0.000139791

0.000151686 -1.93525e-05 1.05531e-08
-1.93525e-05 0.000147857 8.14209e-08
1.05531e-08 8.14209e-08 0.000155762

0.000151891 2.01407e-05 -1.43853e-07
2.01407e-05 0.000153446 -1.16549e-07
-1.43853e-07 -1.16549e-07 0.000154753

0.000138779 2.12065e-05 9.95139e-08
2.12065e-05 0.000140596 -1.38826e-07
9.95139e-08 -1.38826e-07 0.000130705

0.000131249 -2.08112e-05 3.26649e-08
-2.08112e-05 0.000163212 -5.14324e-08
3.26649e-08 -5.14324e-08 0.00014772

0.000114825 -3.73582e-06 -1.6967e-07
-3.73582e-06 0.000169133 -7.57985e-08
-1.6967e-07 -7.57985e-08 0.00014118

9.00989e-05 1.43522e-05 -5.01329e-08
1.43522e-05 0.000100798 -3.69078e-08
-5.01329e-08 -3.69078e-08 8.87172e-05

9.86068e-05 1.53732e-05 6.34745e-08
1.53732e-05 9.07943e-05 -1.47214e-07
6.34745e-08 -1.47214e-07 8.88573e-05

0.000118148 -1.73735e-05 1.48422e-08
-1.73735e-05 0.000124217 -4.93093e-08
1.48422e-08 -4.93093e-08 0.000111428

0.000172059 -6.70449e-06 4.54802e-09
-6.70449e-06 0.000123627 1.08859e-07
4.54802e-09 1.08859e-07 0.000149127

0.000203929 -2.28061e-05 6.26933e-07
-2.28061e-05 0.000215523 4.52461e-07
6.26933e-07 4.52461e-07 0.000190691

0.000224459 2.28416e-05 3.54321e-07
2.28416e-05 0.00019196 -5.10866e-07
3.54321e-07 -5.10866e-07 0.000190768

0.000192591 2.28825e-05 -1.57933e-07
2.28825e-05 0.000193923 -2.29391e-07
-1.57933e-07 -2.29391e-07 0.000182731

0.000188294 -5.65447e-06 -1.74542e-07
-5.65447e-06 0.000175731 -3.8896e-09
-1.74542e-07 -3.8896e-09 0.000184031

0.000171036 -2.43371e-07 6.77689e-08
-2.43371e-07 0.000125713 -6.71932e-08
6.77689e-08 -6.71932e-08 0.000156403

0.000145292 -2.95983e-05 -9.63077e-08
-2.95983e-05 0.00017762 4.27495e-08
-9.63077e-08 4.27495e-08 0.00016666

0.000131214 3.13917e-05 -6.1056e-08
3.13917e-05 0.000168173 -3.30514e-08
-6.1056e-08 -3.30514e-08 0.000168716

9.54927e-05 -1.44941e-05 -1.23061e-07
-1.44941e-05 0.000102848 -2.39105e-08
-1.23061e-07 -2.39105e-08 9.25777e-05

9.68452e-05 1.83537e-05 -2.71716e-08
1.83537e-05 9.77488e-05 9.19319e-08
-2.71716e-08 9.19319e-08 9.36429e-05

8.98144e-05 -6.6444e-06 1.32179e-07
-6.6444e-06 0.00011934 3.56884e-09
1.32179e-07 3.56884e-09 9.91964e-05

9.64119e-05 -8.33558e-06 -1.21545e-07
-8.33558e-06 0.000120357 -6.04089e-09
-1.21545e-07 -6.04089e-09 9.98908e-05

0.000121315 -5.8185e-06 6.49761e-08
-5.8185e-06 9.17277e-05 -1.30178e-07
6.49761e-08 -1.30178e-07 9.8559e-05

0.000121753 2.19515e-05 -1.17086e-07
2.19515e-05 0.000117588 5.91773e-08
-1.17086e-07 5.91773e-08 0.000113485

7.89587e-05 6.10102e-06 1.93402e-08
6.10102e-06 0.000115448 -1.69398e-07
1.93402e-08 -1.69398e-07 9.36267e-05

0.000113091 1.36345e-06 1.46302e-07
1.36345e-06 7.99341e-05 4.48423e-08
1.46302e-07 4.48423e-08 9.36095e-05

0.000173626 -2.46512e-06 -1.0746e-07
-2.46512e-06 0.000208814 2.35215e-07
-1.0746e-07 2.35215e-07 0.000181916

0.000176428 -9.42003e-06 6.09658e-08
-9.42003e-06 0.000189536 3.78071e-08
6.09658e-08 3.78071e-08 0.000182426

0.000177091 -7.15287e-06 2.69014e-08
-7.15287e-06 0.000145973 1.93431e-07
2.69014e-08 1.93431e-07 0.000164795

0.000185381 3.42198e-06 -2.01538e-08
3.42198e-06 0.000111332 6.18335e-08
-2.01538e-08 6.18335e-08 0.000169072

0.000108356 -1.44308e-05 -3.74305e-08
-1.44308e-05 0.000137853 -1.43336e-07
-3.74305e-08 -1.43336e-07 0.000116282

0.000107166 -1.0254e-05 -1.54538e-09
-1.0254e-05 0.000137966 1.23682e-07
-1.54538e-09 1.23682e-07 0.000117771

0.00017382 6.90438e-06 9.17379e-08
6.90438e-06 0.000127384 5.29907e-08
9.17379e-08 5.29907e-08 0.000157182

0.000181576 -6.78252e-06 -2.04265e-07
-6.78252e-06 0.000185905 -1.04202e-07
-2.04265e-07 -1.04202e-07 0.000182994

0.000190285 -4.75939e-07 -8.80756e-08
-4.75939e-07 0.000178718 -1.31516e-07
-8.80756e-08 -1.31516e-07 0.000182672

0.000163522 -1.47872e-05 -1.91502e-07
-1.47872e-05 0.000158128 -6.12436e-08
-1.91502e-07 -6.12436e-08 0.000162687

0.000148038 2.40618e-05 -5.10309e-08
2.40618e-05 0.000157482 -5.42991e-08
-5.10309e-08 -5.42991e-08 0.000158587

0.00014187 -2.55696e-05 -4.12095e-08
-2.55696e-05 0.000168659 -7.64238e-08
-4.12095e-08 -7.64238e-08 0.000156336

0.000177146 -7.27325e-06 3.95092e-08
-7.27325e-06 0.000129204 -5.6677e-08
3.95092e-08 -5.6677e-08 0.000161481

0.000135586 2.05773e-05 1.46289e-08
2.05773e-05 0.000163012 -8.33816e-08
1.46289e-08 -8.33816e-08 0.000156798

0.000141565 -2.7001e-05 1.32111e-08
-2.7001e-05 0.000166907 -4.05992e-08
1.32111e-08 -4.05992e-08 0.000155187

7.41129e-05 -3.01325e-05 1.16867e-07
-3.01325e-05 7.65504e-05 -1.10085e-07
1.16867e-07 -1.10085e-07 7.79195e-05

0.000115074 6.82893e-06 5.1069e-08
6.82893e-06 0.000167195 4.63977e-08
5.1069e-08 4.63977e-08 0.000140481

0.000125304 -5.90124e-06 -2.3107e-08
-5.90124e-06 0.000158761 2.154e-08
-2.3107e-08 2.154e-08 0.000139793

0.000167581 3.44218e-06 -1.13514e-07
3.44218e-06 0.000221125 -5.82749e-08
-1.13514e-07 -5.82749e-08 0.000182766

0.000179194 -4.0728e-07 7.74399e-09
-4.0728e-07 0.000187271 2.05606e-07
7.74399e-09 2.05606e-07 0.000183638

0.000194174 -1.20097e-06 -1.14177e-07
-1.20097e-06 0.000139327 6.08338e-08
-1.14177e-07 6.08338e-08 0.00017308

0.000198784 1.9449e-06 4.42898e-08
1.9449e-06 0.000136145 4.47952e-08
4.42898e-08 4.47952e-08 0.000173046

0.000176632 2.94767e-05 1.31088e-07
2.94767e-05 0.000162085 6.72976e-08
1.31088e-07 6.72976e-08 0.000172157

0.000169882 -1.65652e-05 3.77558e-08
-1.65652e-05 0.000158411 -1.67357e-07
3.77558e-08 -1.67357e-07 0.000171384

0.000198615 1.11884e-05 -1.8176e-07
1.11884e-05 0.00018445 -1.28059e-07
-1.8176e-07 -1.28059e-07 0.000181225

0.000187659 -5.7522e-06 -1.49306e-07
-5.7522e-06 0.000186582 1.04432e-07
-1.49306e-07 1.04432e-07 0.000182097

0.000203924 1.24574e-05 -1.35972e-07
1.24574e-05 0.000193245 -4.82184e-07
-1.35972e-07 -4.82184e-07 0.000189389

0.000200102 -3.4533e-05 -4.54067e-07
-3.4533e-05 0.000214164 3.89225e-07
-4.54067e-07 3.89225e-07 0.000189371

0.000152696 3.02994e-05 2.51528e-08
3.02994e-05 0.00018365 4.62831e-08
2.51528e-08 4.62831e-08 0.000172652

0.000144015 -3.68796e-05 4.87849e-08
-3.68796e-05 0.00016769 -3.75059e-08
4.87849e-08 -3.75059e-08 0.000174683

0.000155602 1.60114e-05 -2.45768e-08
1.60114e-05 0.000132967 3.47837e-08
-2.45768e-08 3.47837e-08 0.000143403

0.000127296 1.29863e-05 -1.99216e-08
1.29863e-05 0.000168151 -1.91136e-08
-1.99216e-08 -1.91136e-08 0.000149959

0.000140751 -2.05426e-05 -8.44079e-08
-2.05426e-05 0.000140059 -1.13172e-07
-8.44079e-08 -1.13172e-07 0.000141817

0.00013972 -1.64116e-05 4.2923e-08
-1.64116e-05 0.00016534 -4.4708e-08
4.2923e-08 -4.4708e-08 0.000149112

0.000154592 -1.52567e-05 1.66908e-07
-1.52567e-05 0.000131513 -1.3274e-07
1.66908e-07 -1.3274e-07 0.000144152

0.000138739 1.77781e-05 -3.56116e-08
1.77781e-05 0.000166981 1.45134e-07
-3.56116e-08 1.45134e-07 0.000148628

0.000143202 2.5436e-05 2.08814e-07
2.5436e-05 0.000144567 -4.84567e-08
2.08814e-07 -4.84567e-08 0.000140699

0.000154722 3.34418e-05 -3.66468e-08
3.34418e-05 0.000169483 -8.48311e-08
-3.66468e-08 -8.48311e-08 0.000173988

0.000156463 -2.52093e-05 -3.68942e-08
-2.52093e-05 0.000177825 7.65802e-08
-3.68942e-08 7.65802e-08 0.000173002

0.000181522 1.486e-05 -1.5313e-08
1.486e-05 0.000149225 -1.48273e-07
-1.5313e-08 -1.48273e-07 0.000166827

0.000236007 1.26985e-05 2.98309e-07
1.26985e-05 0.000231451 4.70933e-08
2.98309e-07 4.70933e-08 0.000188231

0.000190555 1.11734e-05 1.67609e-07
1.11734e-05 0.000198789 -1.40787e-07
1.67609e-07 -1.40787e-07 0.000190025

0.000163552 -1.51577e-05 -1.78411e-07
-1.51577e-05 0.000142013 1.2108e-07
-1.78411e-07 1.2108e-07 0.000158813

0.000196244 1.10875e-06 3.05815e-09
1.10875e-06 0.000153373 1.45983e-07
3.05815e-09 1.45983e-07 0.000179001

9.14318e-05 -1.34143e-05 1.21158e-07
-1.34143e-05 0.00010222 1.08107e-07
1.21158e-07 1.08107e-07 9.04875e-05

0.000101892 -1.10152e-05 -6.99404e-08
-1.10152e-05 9.13604e-05 -1.35309e-07
-6.99404e-08 -1.35309e-07 9.07152e-05

0.000191877 1.50882e-06 -4.84226e-08
1.50882e-06 0.000149596 1.42475e-07
-4.84226e-08 1.42475e-07 0.000175808

0.000198851 -2.14803e-06 2.70419e-08
-2.14803e-06 0.000145681 6.50841e-08
2.70419e-08 6.50841e-08 0.000175599

0.000195216 3.02916e-06 1.73639e-08
3.02916e-06 0.000168879 8.25086e-09
1.73639e-08 8.25086e-09 0.000178106

0.000126996 -9.53105e-06 -1.36434e-07
-9.53105e-06 0.00017101 -1.00572e-07
-1.36434e-07 -1.00572e-07 0.000150209

0.000155071 1.25438e-05 4.34948e-08
1.25438e-05 0.000127845 8.82764e-08
4.34948e-08 8.82764e-08 0.000132162

0.000162427 -1.96225e-05 4.7232e-08
-1.96225e-05 0.000163313 -7.29128e-08
4.7232e-08 -7.29128e-08 0.000169651

0.000162661 1.64488e-05 1.59355e-07
1.64488e-05 0.000175211 -7.49684e-10
1.59355e-07 -7.49684e-10 0.000168581

0.000222275 1.7996e-06 2.11012e-07
1.7996e-06 0.000241076 -3.74317e-07
2.11012e-07 -3.74317e-07 0.000188375

0.000222182 1.77077e-05 1.45043e-07
1.77077e-05 0.000180802 3.63907e-07
1.45043e-07 3.63907e-07 0.000190324

0.000162452 -1.21811e-05 5.74443e-08
-1.21811e-05 0.000138053 -6.20691e-08
5.74443e-08 -6.20691e-08 0.00014967

0.000186898 -1.89649e-07 4.56139e-08
-1.89649e-07 0.000162391 5.80925e-08
4.56139e-08 5.80925e-08 0.000174354

0.000182172 -4.3093e-06 -4.77682e-08
-4.3093e-06 0.000165609 -2.34915e-07
-4.77682e-08 -2.34915e-07 0.00017471

0.000152139 -2.21136e-05 6.06997e-08
-2.21136e-05 0.000173798 5.89987e-10
6.06997e-08 5.89987e-10 0.000163877

0.000141684 1.09859e-05 1.28373e-07
1.09859e-05 0.000175853 5.70443e-08
1.28373e-07 5.70443e-08 0.00016502

0.000140821 2.15069e-05 -1.3378e-07
2.15069e-05 0.000164577 -4.52795e-08
-1.3378e-07 -4.52795e-08 0.000168048

0.000146779 -3.00339e-05 -1.88318e-08
-3.00339e-05 0.000177702 3.36541e-08
-1.88318e-08 3.36541e-08 0.000166215

8.07809e-05 3.83441e-05 1.91289e-07
3.83441e-05 7.6745e-05 7.11312e-08
1.91289e-07 7.11312e-08 7.9003e-05

0.000162632 2.20362e-05 -9.82648e-09
2.20362e-05 0.000183185 -1.39298e-07
-9.82648e-09 -1.39298e-07 0.000176656

0.00016277 -1.69845e-05 -1.7762e-08
-1.69845e-05 0.000184745 1.16393e-07
-1.7762e-08 1.16393e-07 0.000176519

0.000135428 2.04876e-05 -1.49737e-08
2.04876e-05 0.00017042 1.0285e-07
-1.49737e-08 1.0285e-07 0.000163629

0.000142052 -2.51721e-05 1.87752e-08
-2.51721e-05 0.00017287 -1.21504e-08
1.87752e-08 -1.21504e-08 0.000162026

0.000156227 -1.19193e-05 1.98791e-08
-1.19193e-05 0.000125014 -1.33171e-08
1.98791e-08 -1.33171e-08 0.000134093

0.000169136 2.19576e-05 3.49933e-08
2.19576e-05 0.000155424 3.86316e-09
3.49933e-08 3.86316e-09 0.000164215

0.000179695 2.34132e-05 1.39892e-07
2.34132e-05 0.000163613 3.35919e-08
1.39892e-07 3.35919e-08 0.000173092

0.000169654 -1.50179e-05 8.94353e-08
-1.50179e-05 0.000169463 -1.56072e-08
8.94353e-08 -1.56072e-08 0.00017257

0.000181517 1.45187e-05 -1.15153e-08
1.45187e-05 0.00012969 4.11928e-08
-1.15153e-08 4.11928e-08 0.00016358

0.000190241 3.15052e-06 -1.40716e-08
3.15052e-06 0.000173693 -2.82619e-08
-1.40716e-08 -2.82619e-08 0.000180952

0.000197122 -4.56183e-06 -3.15472e-09
-4.56183e-06 0.000164415 -8.50043e-08
-3.15472e-09 -8.50043e-08 0.000180721

0.000185465 4.815e-06 1.53627e-07
4.815e-06 0.000216957 -1.26585e-07
1.53627e-07 -1.26585e-07 0.000188602

0.000187213 -7.75508e-06 2.34689e-07
-7.75508e-06 0.000240241 -1.75264e-08
2.34689e-07 -1.75264e-08 0.00018705

8.24414e-05 -3.61074e-06 7.02172e-08
-3.61074e-06 6.06275e-05 8.49805e-08
7.02172e-08 8.49805e-08 8.40722e-05

5.33046e-05 -5.89447e-07 -7.28029e-08
-5.89447e-07 8.36591e-05 1.55126e-07
-7.28029e-08 1.55126e-07 8.44969e-05

0.000151696 2.49355e-05 2.45138e-08
2.49355e-05 0.000181645 -1.05182e-07
2.45138e-08 -1.05182e-07 0.0001669

0.000151114 -2.23428e-05 -1.7145e-08
-2.23428e-05 0.000166219 3.86359e-08
-1.7145e-08 3.86359e-08 0.000168633

7.51335e-05 1.33006e-05 1.90402e-07
1.33006e-05 7.44714e-05 6.33009e-08
1.90402e-07 6.33009e-08 8.31425e-05

7.78842e-05 1.76779e-05 -1.49203e-07
1.76779e-05 7.04332e-05 1.85669e-08
-1.49203e-07 1.85669e-08 8.31075e-05

0.000157248 -2.66005e-05 -2.07844e-07
-2.66005e-05 0.000247157 -3.05926e-07
-2.07844e-07 -3.05926e-07 0.000191374

0.000185092 2.05095e-05 -4.10528e-07
2.05095e-05 0.000228689 1.83993e-07
-4.10528e-07 1.83993e-07 0.000191311

0.000163771 2.63277e-05 -3.80495e-08
2.63277e-05 0.000151879 6.72014e-08
-3.80495e-08 6.72014e-08 0.000161893

0.000151723 2.41213e-05 4.98283e-08
2.41213e-05 0.000170189 5.62022e-08
4.98283e-08 5.62022e-08 0.0001641

0.00015193 -2.45395e-05 3.88406e-09
-2.45395e-05 0.000161037 -9.54655e-08
3.88406e-09 -9.54655e-08 0.000165534

0.000141258 2.44107e-05 1.5522e-07
2.44107e-05 0.000153659 4.25885e-08
1.5522e-07 4.25885e-08 0.000144368

0.000139088 -1.91288e-05 3.21853e-08
-1.91288e-05 0.000149883 8.79305e-08
3.21853e-08 8.79305e-08 0.000145696

9.1321e-05 -3.08007e-06 -8.91763e-08
-3.08007e-06 0.000121157 -5.6292e-08
-8.91763e-08 -5.6292e-08 0.000100601

9.54917e-05 -6.24662e-06 1.04308e-07
-6.24662e-06 0.000120789 1.67746e-08
1.04308e-07 1.67746e-08 0.000100202

0.00012234 -2.5742e-06 7.54985e-08
-2.5742e-06 9.32602e-05 -6.61677e-08
7.54985e-08 -6.61677e-08 9.94323e-05

0.000142007 2.83178e-05 2.30853e-08
2.83178e-05 0.000163498 -1.50954e-07
2.30853e-08 -1.50954e-07 0.000152749

0.000139256 -2.13626e-05 1.18712e-07
-2.13626e-05 0.000155991 -3.71761e-08
1.18712e-07 -3.71761e-08 0.000154302

8.35951e-05 4.37197e-06 6.6593e-08
4.37197e-06 0.000113188 6.54173e-08
6.6593e-08 6.54173e-08 9.29769e-05

0.000113336 6.60692e-06 -1.61389e-07
6.60692e-06 8.41309e-05 1.37359e-07
-1.61389e-07 1.37359e-07 9.29779e-05

0.000159891 -2.74932e-05 -1.77818e-07
-2.74932e-05 0.000167882 6.96809e-08
-1.77818e-07 6.96809e-08 0.000174248

0.000158814 2.30025e-05 1.64592e-07
2.30025e-05 0.000180631 -7.81039e-08
1.64592e-07 -7.81039e-08 0.000172854

0.000160956 -2.43878e-05 -1.51305e-07
-2.43878e-05 0.000176624 1.6161e-07
-1.51305e-07 1.6161e-07 0.000175176

0.000161275 1.85302e-05 1.46618e-07
1.85302e-05 0.000182062 -1.5797e-08
1.46618e-07 -1.5797e-08 0.000174222

7.07169e-05 -1.16846e-05 1.0043e-07
-1.16846e-05 7.40305e-05 6.73619e-08
1.0043e-07 6.73619e-08 8.11145e-05

7.05216e-05 -1.12859e-05 9.01369e-08
-1.12859e-05 7.33502e-05 -1.07798e-07
9.01369e-08 -1.07798e-07 8.1617e-05

0.00015132 2.18316e-05 -1.47444e-07
2.18316e-05 0.00016711 -8.53696e-08
-1.47444e-07 -8.53696e-08 0.000157566

0.000151397 -2.01966e-05 -8.72707e-09
-2.01966e-05 0.00015508 -8.64167e-08
-8.72707e-09 -8.64167e-08 0.000158946

0.000183566 6.03005e-06 1.91232e-07
6.03005e-06 0.000209769 2.52608e-07
1.91232e-07 2.52608e-07 0.000184016

0.000183555 -3.3861e-06 1.78966e-07
-3.3861e-06 0.00018881 3.0936e-08
1.78966e-07 3.0936e-08 0.000185116

0.000149981 -2.48755e-05 -4.76499e-09
-2.48755e-05 0.000184495 -2.04701e-07
-4.76499e-09 -2.04701e-07 0.000177424

0.000155955 2.4025e-05 9.856e-08
2.4025e-05 0.000191065 -1.82828e-07
9.856e-08 -1.82828e-07 0.000176044

0.000182133 -5.28908e-06 -2.07653e-07
-5.28908e-06 0.000166847 -1.35103e-07
-2.07653e-07 -1.35103e-07 0.000180692

0.000190376 6.75258e-08 -9.90309e-08
6.75258e-08 0.00016136 -3.20886e-08
-9.90309e-08 -3.20886e-08 0.00018041

0.000158259 2.36736e-05 -5.33261e-08
2.36736e-05 0.00016361 3.63789e-08
-5.33261e-08 3.63789e-08 0.000167725

0.00015622 -2.27717e-05 6.17748e-08
-2.27717e-05 0.000170037 -1.46143e-08
6.17748e-08 -1.46143e-08 0.000165951

0.000203627 7.07281e-06 8.18144e-08
7.07281e-06 0.000178138 -2.17183e-08
8.18144e-08 -2.17183e-08 0.000185847

0.000201784 2.20004e-06 -5.31373e-07
2.20004e-06 0.000188734 5.45725e-07
-5.31373e-07 5.45725e-07 0.000189241

0.000192376 -5.75388e-06 2.75489e-08
-5.75388e-06 0.000185773 -5.92618e-08
2.75489e-08 -5.92618e-08 0.000186063

0.000179393 -1.0538e-07 -1.93902e-07
-1.0538e-07 0.000207345 -2.64193e-07
-1.93902e-07 -2.64193e-07 0.000189379

0.000174821 4.48839e-06 -1.3856e-07
4.48839e-06 0.000231312 -6.63165e-08
-1.3856e-07 -6.63165e-08 0.000185044

0.000212951 2.29607e-05 5.22924e-08
2.29607e-05 0.000193854 3.24737e-08
5.22924e-08 3.24737e-08 0.000184931

0.00019906 -9.85801e-06 1.87652e-10
-9.85801e-06 0.000186912 3.1507e-09
1.87652e-10 3.1507e-09 0.000186344

0.000175373 -5.27525e-06 7.69586e-08
-5.27525e-06 0.000208353 -1.17254e-07
7.69586e-08 -1.17254e-07 0.00018608

0.000185194 1.4262e-05 1.73533e-07
1.4262e-05 0.000203054 2.8656e-07
1.73533e-07 2.8656e-07 0.000187939

0.000276226 1.22039e-05 5.51924e-07
1.22039e-05 0.000162258 -3.09609e-07
5.51924e-07 -3.09609e-07 0.000191747

0.000247737 -2.40369e-05 -2.1033e-06
-2.40369e-05 0.000224889 -1.59246e-06
-2.1033e-06 -1.59246e-06 0.000191346

0.000193518 -3.05797e-05 4.18246e-07
-3.05797e-05 0.000217374 -7.05879e-07
4.18246e-07 -7.05879e-07 0.000188026

0.000194058 1.76243e-05 -2.58106e-08
1.76243e-05 0.00019288 -1.5603e-08
-2.58106e-08 -1.5603e-08 0.000186311

0.000174632 1.25741e-05 -1.94992e-07
1.25741e-05 0.00019471 -1.27634e-07
-1.94992e-07 -1.27634e-07 0.000181781

0.000200066 3.76726e-06 -2.84763e-08
3.76726e-06 0.000192382 -3.25897e-09
-2.84763e-08 -3.25897e-09 0.000190272

0.000202773 -2.95934e-05 -8.74798e-08
-2.95934e-05 0.000193119 6.06954e-08
-8.74798e-08 6.06954e-08 0.00018663

0.000199215 -3.40874e-05 -2.31075e-07
-3.40874e-05 0.000227797 -6.04261e-07
-2.31075e-07 -6.04261e-07 0.000190075

0.000177052 -1.62827e-05 2.42964e-07
-1.62827e-05 0.000186769 -1.58123e-07
2.42964e-07 -1.58123e-07 0.000182536

0.000178809 -2.73082e-05 2.23201e-07
-2.73082e-05 0.000193223 8.4044e-08
2.23201e-07 8.4044e-08 0.000183854

0.00018306 -1.8171e-05 -6.431e-08
-1.8171e-05 0.000198502 -5.49567e-09
-6.431e-08 -5.49567e-09 0.000187245

0.000174431 1.11834e-05 -1.71581e-07
1.11834e-05 0.000190745 1.59226e-07
-1.71581e-07 1.59226e-07 0.000183421

0.000193448 6.46035e-06 3.4004e-07
6.46035e-06 0.000191842 -1.08151e-10
3.4004e-07 -1.08151e-10 0.000187068

0.00013137 1.97311e-05 1.9015e-08
1.97311e-05 0.000150151 -1.32838e-07
1.9015e-08 -1.32838e-07 0.000137782

0.000150878 9.72558e-06 3.41022e-10
9.72558e-06 0.000176491 6.00139e-08
3.41022e-10 6.00139e-08 0.000163473

0.000145375 8.39117e-06 7.848e-08
8.39117e-06 0.000174946 3.66434e-08
7.848e-08 3.66434e-08 0.000164283

0.000169043 1.12197e-05 -9.72159e-08
1.12197e-05 0.000120973 -1.51189e-07
-9.72159e-08 -1.51189e-07 0.000147696

0.000161429 3.59967e-06 1.33198e-07
3.59967e-06 0.000114892 -2.43746e-08
1.33198e-07 -2.43746e-08 0.000137068

0.000151435 6.22447e-06 4.94864e-11
6.22447e-06 0.00018257 6.34055e-08
4.94864e-11 6.34055e-08 0.000173542

0.000144314 1.40592e-05 7.47815e-08
1.40592e-05 0.000186753 7.9671e-08
7.47815e-08 7.9671e-08 0.000174316

0.000163682 -4.66268e-06 1.29826e-07
-4.66268e-06 0.000117486 -1.86386e-10
1.29826e-07 -1.86386e-10 0.000138087

0.000178689 -8.81109e-06 -6.38354e-08
-8.81109e-06 0.00013757 1.18629e-08
-6.38354e-08 1.18629e-08 0.000167486

0.000105673 1.80887e-05 -1.9707e-08
1.80887e-05 0.000124461 1.13176e-07
-1.9707e-08 1.13176e-07 0.000109931

0.000104605 -1.76832e-05 -8.78178e-08
-1.76832e-05 0.000122188 4.14499e-08
-8.78178e-08 4.14499e-08 0.000108026

0.000129849 -1.65192e-05 1.80909e-07
-1.65192e-05 9.94457e-05 1.62402e-08
1.80909e-07 1.62402e-08 0.000107495

0.00016378 -1.69866e-05 -1.3719e-07
-1.69866e-05 0.000184516 -5.00688e-08
-1.3719e-07 -5.00688e-08 0.000177552

0.000171566 -1.13065e-05 1.57849e-07
-1.13065e-05 0.000184119 4.85117e-08
1.57849e-07 4.85117e-08 0.000176589

0.000131333 1.68195e-05 1.98983e-08
1.68195e-05 0.000156266 7.99975e-09
1.98983e-08 7.99975e-09 0.000148629

0.000136529 1.97404e-05 1.41485e-08
1.97404e-05 0.000169799 1.84153e-08
1.41485e-08 1.84153e-08 0.000163774

0.000144544 -1.28477e-05 -1.0681e-07
-1.28477e-05 0.000186593 -6.85373e-08
-1.0681e-07 -6.85373e-08 0.000173536

0.000149543 -3.45311e-06 -6.24265e-08
-3.45311e-06 0.000182746 1.83131e-07
-6.24265e-08 1.83131e-07 0.000173163

0.000175363 5.05754e-06 2.66158e-08
5.05754e-06 0.000121416 -1.60294e-08
2.66158e-08 -1.60294e-08 0.000148975

0.000113137 6.20598e-06 1.84912e-08
6.20598e-06 0.00014247 3.90262e-08
1.84912e-08 3.90262e-08 0.000118567

0.000112403 -5.22412e-06 -1.16678e-07
-5.22412e-06 0.000141287 -1.39579e-08
-1.16678e-07 -1.39579e-08 0.000118292

0.000147375 -4.70737e-06 -4.70956e-08
-4.70737e-06 0.000107391 -1.30645e-07
-4.70956e-08 -1.30645e-07 0.000115642

0.000133038 2.30007e-05 -6.46106e-09
2.30007e-05 0.000140886 -1.0468e-07
-6.46106e-09 -1.0468e-07 0.000136952

0.000153206 -1.52927e-05 6.82964e-08
-1.52927e-05 0.000110162 -2.72458e-08
6.82964e-08 -2.72458e-08 0.000128823

0.000152142 2.42572e-05 -1.11496e-07
2.42572e-05 0.000140965 -1.10172e-07
-1.11496e-07 -1.10172e-07 0.000146787

0.000129622 1.90575e-05 -6.42737e-08
1.90575e-05 0.000155232 1.53459e-07
-6.42737e-08 1.53459e-07 0.000137681

0.000170076 -9.88081e-06 -1.11493e-08
-9.88081e-06 0.000120632 5.60607e-08
-1.11493e-08 5.60607e-08 0.000149513

0.000101947 1.22487e-05 2.85172e-08
1.22487e-05 0.000115612 2.02524e-07
2.85172e-08 2.02524e-07 9.79431e-05

0.000179938 1.17299e-05 1.75618e-07
1.17299e-05 0.000131851 5.60137e-08
1.75618e-07 5.60137e-08 0.000163617

0.000119026 -1.10515e-05 5.3441e-09
-1.10515e-05 9.67265e-05 1.1601e-07
5.3441e-09 1.1601e-07 9.65708e-05

0.000170888 -3.7804e-06 6.18296e-08
-3.7804e-06 0.000187409 3.93915e-08
6.18296e-08 3.93915e-08 0.000177813

0.000170727 7.38963e-06 -1.11155e-07
7.38963e-06 0.000187947 1.51946e-07
-1.11155e-07 1.51946e-07 0.000177904

0.000228875 -2.22609e-05 -2.07404e-07
-2.22609e-05 0.000191954 1.39668e-07
-2.07404e-07 1.39668e-07 0.000186366

0.000231075 2.40336e-05 -3.98495e-08
2.40336e-05 0.000191434 7.29832e-08
-3.98495e-08 7.29832e-08 0.000186457

0.000143261 -6.2246e-06 -4.41119e-08
-6.2246e-06 0.000103381 3.17828e-08
-4.41119e-08 3.17828e-08 0.000115544

0.000149932 2.62246e-05 4.57126e-08
2.62246e-05 0.000148713 7.58116e-08
4.57126e-08 7.58116e-08 0.00015524

0.000195502 -1.37842e-05 6.22893e-08
-1.37842e-05 0.000168954 7.32259e-08
6.22893e-08 7.32259e-08 0.000177304

0.000192817 1.30889e-05 7.40854e-08
1.30889e-05 0.000167788 -2.24442e-08
7.40854e-08 -2.24442e-08 0.000176392

0.00017958 4.67715e-06 6.45534e-08
4.67715e-06 0.000132474 6.09183e-08
6.45534e-08 6.09183e-08 0.000168076

0.000126779 2.15459e-05 1.23386e-08
2.15459e-05 0.00015365 5.13277e-08
1.23386e-08 5.13277e-08 0.000135997

0.000152147 -1.80009e-05 6.36376e-08
-1.80009e-05 0.000120958 -5.82237e-08
6.36376e-08 -5.82237e-08 0.000132328

0.000177888 -1.58879e-06 -6.3475e-08
-1.58879e-06 0.000125432 5.67888e-09
-6.3475e-08 5.67888e-09 0.000164852

0.000131835 -2.30923e-05 7.14475e-08
-2.30923e-05 0.000140922 9.8675e-08
7.14475e-08 9.8675e-08 0.000136106

0.000131615 -1.88495e-05 -9.32907e-08
-1.88495e-05 0.000150287 -7.82145e-08
-9.32907e-08 -7.82145e-08 0.000137894

0.000140985 2.11202e-05 -1.20144e-07
2.11202e-05 0.000175657 -1.09476e-07
-1.20144e-07 -1.09476e-07 0.000162062

0.000139216 -2.51488e-05 -2.2979e-07
-2.51488e-05 0.000119821 -8.35292e-08
-2.2979e-07 -8.35292e-08 0.000124349

8.54435e-05 -1.96569e-05 -2.84244e-07
-1.96569e-05 7.41757e-05 -2.38608e-08
-2.84244e-07 -2.38608e-08 8.03181e-05

8.30538e-05 2.74885e-05 5.47475e-08
2.74885e-05 7.92439e-05 1.52382e-07
5.47475e-08 1.52382e-07 8.02652e-05

0.000140365 -2.55333e-05 1.382e-07
-2.55333e-05 0.000181401 5.41879e-08
1.382e-07 5.41879e-08 0.000173596

8.58495e-05 3.68792e-06 7.13283e-08
3.68792e-06 7.37029e-05 -1.31844e-07
7.13283e-08 -1.31844e-07 8.44572e-05

7.81817e-05 -6.55548e-06 2.23311e-07
-6.55548e-06 7.54571e-05 6.32901e-10
2.23311e-07 6.32901e-10 8.49747e-05

0.000174722 -6.17934e-06 1.49051e-07
-6.17934e-06 0.000181759 -1.87821e-07
1.49051e-07 -1.87821e-07 0.000178969

0.000174722 6.33533e-06 -1.17693e-07
6.33533e-06 0.000181696 -8.15121e-08
-1.17693e-07 -8.15121e-08 0.000179034

0.000188763 -5.09482e-07 1.31518e-07
-5.09482e-07 0.000123688 -5.38266e-08
1.31518e-07 -5.38266e-08 0.000156316

0.000175537 -3.92829e-06 1.51524e-07
-3.92829e-06 0.000173056 -1.7042e-07
1.51524e-07 -1.7042e-07 0.000178835

0.000175764 3.25567e-06 -1.65764e-07
3.25567e-06 0.000173439 2.56792e-07
-1.65764e-07 2.56792e-07 0.000178899

0.0001297 1.99393e-05 -7.27976e-08
1.99393e-05 0.00016516 4.66698e-08
-7.27976e-08 4.66698e-08 0.000147902

0.000211166 -2.10141e-05 -1.40738e-07
-2.10141e-05 0.000188001 -9.89312e-09
-1.40738e-07 -9.89312e-09 0.000184208

0.000211887 2.09425e-05 -3.68132e-08
2.09425e-05 0.000187842 -7.45528e-08
-3.68132e-08 -7.45528e-08 0.000184411

0.00016444 -1.03947e-05 -3.08908e-08
-1.03947e-05 0.000161957 1.96263e-08
-3.08908e-08 1.96263e-08 0.000167675

0.000164498 1.05855e-05 2.44761e-07
1.05855e-05 0.000162061 7.45385e-08
2.44761e-07 7.45385e-08 0.000167801

0.000128585 -1.77788e-05 -3.92364e-08
-1.77788e-05 9.57109e-05 3.41005e-08
-3.92364e-08 3.41005e-08 0.000106391

0.000166628 1.02613e-05 2.01997e-08
1.02613e-05 0.000217328 -1.05829e-07
2.01997e-08 -1.05829e-07 0.000185571

0.000180979 -1.97009e-06 1.62889e-08
-1.97009e-06 0.000199544 -1.06952e-07
1.62889e-08 -1.06952e-07 0.000184798

0.000126873 -2.17473e-05 -2.32742e-08
-2.17473e-05 0.000154257 1.46489e-07
-2.32742e-08 1.46489e-07 0.0001365

9.34114e-05 -5.60892e-06 7.24529e-08
-5.60892e-06 0.000110362 -1.83833e-07
7.24529e-08 -1.83833e-07 9.59148e-05

0.000116026 -5.64411e-06 4.1603e-09
-5.64411e-06 8.51447e-05 5.35055e-09
4.1603e-09 5.35055e-09 9.54549e-05

0.000135783 1.68243e-05 1.55258e-07
1.68243e-05 0.000174065 -5.09386e-08
1.55258e-07 -5.09386e-08 0.000158721

0.000135297 1.65796e-05 8.18162e-08
1.65796e-05 0.000168387 3.42535e-08
8.18162e-08 3.42535e-08 0.000159951

0.000222685 -1.66017e-05 -6.55002e-07
-1.66017e-05 0.000180481 6.58068e-08
-6.55002e-07 6.58068e-08 0.000191095

0.000222685 1.62616e-05 -1.76845e-08
1.62616e-05 0.000184074 -1.17592e-08
-1.76845e-08 -1.17592e-08 0.000191349

0.000140583 2.22363e-05 3.38604e-08
2.22363e-05 0.000165147 5.49085e-08
3.38604e-08 5.49085e-08 0.000168991

0.000171059 6.81354e-06 1.26244e-07
6.81354e-06 0.000137559 7.35928e-08
1.26244e-07 7.35928e-08 0.00015921

0.0001713 -7.15561e-06 -4.22344e-09
-7.15561e-06 0.00013693 9.2905e-08
-4.22344e-09 9.2905e-08 0.000158727

0.000153484 2.99689e-05 -5.48201e-08
2.99689e-05 0.000158624 -7.97513e-08
-5.48201e-08 -7.97513e-08 0.000166574

0.000149459 -2.02949e-05 -4.15941e-08
-2.02949e-05 0.000180471 -2.93604e-08
-4.15941e-08 -2.93604e-08 0.000171841

0.000141678 -3.15121e-07 -5.39635e-08
-3.15121e-07 9.74853e-05 1.0007e-07
-5.39635e-08 1.0007e-07 0.000114249

0.000170001 4.03001e-07 3.27826e-08
4.03001e-07 0.000117966 -1.27216e-08
3.27826e-08 -1.27216e-08 0.000137959

0.000152505 1.33399e-05 -1.39339e-07
1.33399e-05 0.000110465 4.58343e-08
-1.39339e-07 4.58343e-08 0.000126508

0.000189476 2.23305e-05 9.41767e-08
2.23305e-05 0.000151254 -1.11049e-07
9.41767e-08 -1.11049e-07 0.000173551

0.00022967 -1.82086e-06 -3.02273e-07
-1.82086e-06 0.000215726 1.9473e-07
-3.02273e-07 1.9473e-07 0.000187829

0.000232859 4.39547e-06 1.73144e-07
4.39547e-06 0.000217591 3.29761e-07
1.73144e-07 3.29761e-07 0.000187685

0.000126846 1.97596e-05 -1.08105e-07
1.97596e-05 0.000124128 1.19299e-07
-1.08105e-07 1.19299e-07 0.000115726

0.000153846 -2.4553e-05 -5.55503e-08
-2.4553e-05 0.000132207 5.9047e-08
-5.55503e-08 5.9047e-08 0.000144204

0.000174348 -6.00413e-06 1.36294e-07
-6.00413e-06 0.000133099 -2.02493e-08
1.36294e-07 -2.02493e-08 0.000150194

0.000179727 2.39916e-05 5.26543e-08
2.39916e-05 0.000223233 -9.79347e-08
5.26543e-08 -9.79347e-08 0.000187893

0.000190205 -5.70022e-06 3.32819e-08
-5.70022e-06 0.000197184 -1.02819e-07
3.32819e-08 -1.02819e-07 0.000187521

0.000192652 -2.17304e-05 2.19997e-08
-2.17304e-05 0.00015501 -1.07479e-07
2.19997e-08 -1.07479e-07 0.000174895

0.000145367 -6.11314e-06 -9.87813e-08
-6.11314e-06 0.000176149 6.87067e-08
-9.87813e-08 6.87067e-08 0.000163758

0.00014913 -6.38038e-06 -7.58831e-08
-6.38038e-06 0.000177047 6.34404e-09
-7.58831e-08 6.34404e-09 0.000163353

0.000190771 -1.68215e-06 1.95411e-08
-1.68215e-06 0.000125489 2.9961e-08
1.95411e-08 2.9961e-08 0.000163029

0.000191839 1.57096e-06 -1.90564e-08
1.57096e-06 0.000125088 -1.48552e-07
-1.90564e-08 -1.48552e-07 0.000163467

0.000131209 1.68173e-05 -1.53229e-07
1.68173e-05 0.000120423 2.43579e-08
-1.53229e-07 2.43579e-08 0.00011377

0.000189036 -1.74527e-06 1.21184e-07
-1.74527e-06 0.000142113 5.41438e-09
1.21184e-07 5.41438e-09 0.000171127

0.000188539 1.28644e-06 5.09386e-08
1.28644e-06 0.000142493 2.03653e-07
5.09386e-08 2.03653e-07 0.000171218

0.000175123 6.08802e-06 2.66094e-08
6.08802e-06 0.000132973 -1.59498e-08
2.66094e-08 -1.59498e-08 0.000150381

0.00013014 -1.89898e-05 -2.93929e-08
-1.89898e-05 0.000155942 1.38611e-07
-2.93929e-08 1.38611e-07 0.000138307

0.00019064 -7.78665e-07 3.2691e-08
-7.78665e-07 0.000138331 9.80438e-08
3.2691e-08 9.80438e-08 0.000164453

0.00019165 8.97647e-07 -6.15302e-08
8.97647e-07 0.000138175 8.44502e-08
-6.15302e-08 8.44502e-08 0.000164955

0.000172075 -1.48699e-05 2.37774e-08
-1.48699e-05 0.0001329 -2.05573e-08
2.37774e-08 -2.05573e-08 0.00015362

0.000145227 2.69883e-05 1.41298e-08
2.69883e-05 0.000173564 -9.13095e-08
1.41298e-08 -9.13095e-08 0.0001648

0.000146902 2.0518e-05 8.38942e-08
2.0518e-05 0.000127272 1.99284e-07
8.38942e-08 1.99284e-07 0.000132331

0.000148551 2.24449e-05 -3.89014e-08
2.24449e-05 0.000161339 -2.84706e-08
-3.89014e-08 -2.84706e-08 0.000169505

0.000146604 2.71052e-05 -2.63461e-08
2.71052e-05 0.000178261 6.72544e-08
-2.63461e-08 6.72544e-08 0.000166813

0.000156454 -1.06429e-05 -1.39856e-07
-1.06429e-05 0.000110941 -8.76921e-08
-1.39856e-07 -8.76921e-08 0.000128542

0.000172276 -2.39167e-05 1.01629e-07
-2.39167e-05 0.000142255 2.96999e-08
1.01629e-07 2.96999e-08 0.000161215

0.000170593 1.54506e-05 -3.87086e-08
1.54506e-05 0.000132488 -4.66335e-10
-3.87086e-08 -4.66335e-10 0.000150849

0.00013317 2.40096e-05 9.66566e-09
2.40096e-05 0.000126601 2.27483e-07
9.66566e-09 2.27483e-07 0.000127235

0.000152098 2.49252e-05 -1.22499e-07
2.49252e-05 0.000130991 3.66612e-08
-1.22499e-07 3.66612e-08 0.000143054

0.000130929 2.51137e-06 -2.83624e-08
2.51137e-06 0.00017272 -1.83506e-08
-2.83624e-08 -1.83506e-08 0.00015806

0.000131847 9.30866e-07 -4.10528e-08
9.30866e-07 0.000172479 3.87072e-08
-4.10528e-08 3.87072e-08 0.000157967

0.000131276 1.72502e-05 -1.51742e-07
1.72502e-05 0.000101275 6.08512e-08
-1.51742e-07 6.08512e-08 0.000109208

0.00015315 -3.05241e-05 7.09365e-08
-3.05241e-05 0.000158899 -1.87493e-07
7.09365e-08 -1.87493e-07 0.000167036

0.000128017 -2.42109e-05 5.46469e-09
-2.42109e-05 0.00013978 -3.48282e-08
5.46469e-09 -3.48282e-08 0.000126853

0.000127633 2.43055e-05 -1.51169e-08
2.43055e-05 0.000140688 -1.76368e-07
-1.51169e-08 -1.76368e-07 0.000126518

0.000169558 -1.76265e-05 6.30233e-08
-1.76265e-05 0.000132918 6.55413e-08
6.30233e-08 6.55413e-08 0.00015205

0.000192752 -1.16824e-05 5.35292e-09
-1.16824e-05 0.000129624 -5.61543e-08
5.35292e-09 -5.61543e-08 0.000174001

0.000192047 1.19615e-05 -2.92196e-08
1.19615e-05 0.000131374 -5.53387e-08
-2.92196e-08 -5.53387e-08 0.000173281

0.000118265 1.33602e-05 -6.79395e-08
1.33602e-05 0.000147103 -1.69811e-07
-6.79395e-08 -1.69811e-07 0.000130504

0.000153049 -2.54699e-05 -4.37991e-08
-2.54699e-05 0.000141177 1.14238e-07
-4.37991e-08 1.14238e-07 0.000146589

9.85931e-05 -1.15623e-06 -2.23963e-08
-1.15623e-06 0.000139224 2.5765e-08
-2.23963e-08 2.5765e-08 0.000113441

9.75506e-05 4.43408e-07 -1.0268e-08
4.43408e-07 0.000139247 -4.48957e-08
-1.0268e-08 -4.48957e-08 0.000113349

0.000144873 1.34554e-06 -7.14536e-08
1.34554e-06 9.32792e-05 -6.05312e-08
-7.14536e-08 -6.05312e-08 0.000111164

0.000129504 -1.7052e-05 2.03101e-07
-1.7052e-05 0.000121423 -1.29925e-07
2.03101e-07 -1.29925e-07 0.000113073

0.000137697 2.11127e-05 -1.04562e-08
2.11127e-05 0.000122755 1.58966e-07
-1.04562e-08 1.58966e-07 0.000126201

0.000202473 -4.22343e-05 -7.38337e-08
-4.22343e-05 0.000219121 -6.88511e-08
-7.38337e-08 -6.88511e-08 0.000190174

0.000213331 1.88387e-05 7.20085e-08
1.88387e-05 0.000223122 -1.04072e-07
7.20085e-08 -1.04072e-07 0.000190511

0.000157762 9.50928e-06 8.24932e-09
9.50928e-06 0.000111566 1.23095e-09
8.24932e-09 1.23095e-09 0.000129428

0.000138302 2.64231e-05 -1.48532e-07
2.64231e-05 0.000170012 -1.52636e-08
-1.48532e-07 -1.52636e-08 0.000155153

0.00018865 4.42887e-07 1.31396e-07
4.42887e-07 0.000123516 -5.17885e-08
1.31396e-07 -5.17885e-08 0.000155909

0.000117702 -1.29128e-05 -8.89887e-08
-1.29128e-05 0.000148011 -7.9465e-08
-8.89887e-08 -7.9465e-08 0.00013102

0.000132965 2.63861e-05 6.241e-08
2.63861e-05 0.000182964 -6.9914e-09
6.241e-08 -6.9914e-09 0.000174268

0.000151076 2.14709e-05 -1.05207e-08
2.14709e-05 0.000181673 3.29422e-08
-1.05207e-08 3.29422e-08 0.000172301

0.000145692 -2.73105e-05 -5.1397e-08
-2.73105e-05 0.000173856 1.96032e-08
-5.1397e-08 1.96032e-08 0.00016492

0.000144912 2.74275e-05 7.82019e-08
2.74275e-05 0.00018078 1.38743e-07
7.82019e-08 1.38743e-07 0.000167426

0.000136889 2.06719e-05 1.7661e-08
2.06719e-05 0.000158418 5.76442e-09
1.7661e-08 5.76442e-09 0.000157097

0.000201444 1.53782e-07 -1.01883e-07
1.53782e-07 0.000122625 -1.20278e-07
-1.01883e-07 -1.20278e-07 0.000166548

0.000138422 -2.0435e-05 -1.5613e-07
-2.0435e-05 0.000121644 1.3035e-07
-1.5613e-07 1.3035e-07 0.00012518

0.000147234 -2.20659e-05 -3.64142e-08
-2.20659e-05 0.000161325 1.34119e-07
-3.64142e-08 1.34119e-07 0.000169755

0.000137826 -1.81091e-05 -1.24516e-07
-1.81091e-05 0.000139045 -2.04022e-07
-1.24516e-07 -2.04022e-07 0.000130768

0.000121389 -1.73211e-05 2.79165e-07
-1.73211e-05 0.000122164 6.54967e-08
2.79165e-07 6.54967e-08 0.000113085

0.000149323 -2.56048e-05 2.10577e-08
-2.56048e-05 0.000149684 1.85664e-08
2.10577e-08 1.85664e-08 0.000155653

0.000114236 -1.07546e-05 1.9829e-07
-1.07546e-05 0.000145083 -9.99153e-08
1.9829e-07 -9.99153e-08 0.000120631

0.000113675 1.01702e-05 2.64292e-08
1.01702e-05 0.000145044 -2.51843e-08
2.64292e-08 -2.51843e-08 0.000120415

0.000145171 5.88733e-06 -5.09859e-08
5.88733e-06 0.000110557 -1.88099e-08
-5.09859e-08 -1.88099e-08 0.000117779

0.000137365 1.89867e-05 -3.03361e-08
1.89867e-05 0.000139214 -1.5784e-07
-3.03361e-08 -1.5784e-07 0.000130695

0.000131612 3.48977e-06 -4.1156e-08
3.48977e-06 0.000164778 4.07894e-08
-4.1156e-08 4.07894e-08 0.000144475

0.000131254 -5.49064e-07 -2.15667e-08
-5.49064e-07 0.000164465 -1.54817e-07
-2.15667e-08 -1.54817e-07 0.000144434

0.000111555 -2.02399e-05 1.50449e-07
-2.02399e-05 0.000122437 -1.54899e-07
1.50449e-07 -1.54899e-07 0.000109457

0.00011262 2.04811e-05 7.63536e-08
2.04811e-05 0.000121855 -9.90497e-08
7.63536e-08 -9.90497e-08 0.000109107

0.000202016 1.74893e-06 -1.405e-08
1.74893e-06 0.000126325 2.43159e-08
-1.405e-08 2.43159e-08 0.00016683

0.000202362 -1.62453e-06 -9.31412e-08
-1.62453e-06 0.00012594 -1.33929e-07
-9.31412e-08 -1.33929e-07 0.000166967

0.000141455 2.41239e-05 1.85502e-08
2.41239e-05 0.00017142 -8.83553e-08
1.85502e-08 -8.83553e-08 0.000157263

0.000131844 -2.3948e-05 -7.31956e-08
-2.3948e-05 0.000181356 1.29707e-07
-7.31956e-08 1.29707e-07 0.000173984

0.000164888 2.64973e-05 -1.08373e-07
2.64973e-05 0.000148669 6.42298e-08
-1.08373e-07 6.42298e-08 0.000161209

0.000126127 1.22643e-05 1.79857e-08
1.22643e-05 9.28005e-05 -1.05646e-07
1.79857e-08 -1.05646e-07 0.000102865

0.000116705 1.59465e-05 1.00781e-07
1.59465e-05 0.000154969 1.61208e-07
1.00781e-07 1.61208e-07 0.000131256

0.000178353 1.55552e-06 -2.79126e-07
1.55552e-06 0.000162455 8.61816e-08
-2.79126e-07 8.61816e-08 0.000173307

0.000176846 -1.39287e-06 2.39368e-08
-1.39287e-06 0.000162483 2.12626e-08
2.39368e-08 2.12626e-08 0.000173188

0.000155507 1.53509e-05 -1.308e-07
1.53509e-05 0.000145227 -7.50868e-08
-1.308e-07 -7.50868e-08 0.000146326

0.000170742 -9.61758e-06 -1.22938e-08
-9.61758e-06 0.000153645 4.39361e-10
-1.22938e-08 4.39361e-10 0.000160373

0.000170441 9.68473e-06 1.35958e-07
9.68473e-06 0.000153751 -3.86787e-08
1.35958e-07 -3.86787e-08 0.000160462

8.06191e-05 -9.54771e-06 -7.90748e-08
-9.54771e-06 5.87817e-05 -2.29031e-07
-7.90748e-08 -2.29031e-07 8.49042e-05

5.38291e-05 1.23782e-05 -6.99522e-08
1.23782e-05 7.58606e-05 3.93615e-08
-6.99522e-08 3.93615e-08 8.4362e-05

0.000116156 -1.52997e-05 1.2518e-07
-1.52997e-05 0.000155174 1.16573e-07
1.2518e-07 1.16573e-07 0.000131641

0.000194576 -3.39323e-06 -2.04244e-07
-3.39323e-06 0.000183638 2.86537e-08
-2.04244e-07 2.86537e-08 0.000186127

0.000195231 3.75075e-06 -1.57269e-07
3.75075e-06 0.000184124 -1.55318e-07
-1.57269e-07 -1.55318e-07 0.000186139

0.000127751 1.01822e-05 -5.41977e-08
1.01822e-05 9.14681e-05 1.0016e-07
-5.41977e-08 1.0016e-07 0.000102787

0.000133266 -1.29245e-05 8.76249e-08
-1.29245e-05 0.00017236 1.62336e-07
8.76249e-08 1.62336e-07 0.000159971

0.000136188 -1.28474e-05 4.47435e-08
-1.28474e-05 0.000173817 6.49948e-08
4.47435e-08 6.49948e-08 0.000159083

0.000132571 -2.53162e-05 5.46438e-08
-2.53162e-05 0.000127856 2.36491e-07
5.46438e-08 2.36491e-07 0.000125743

0.000145111 -2.75953e-05 -6.28177e-08
-2.75953e-05 0.000180535 5.31288e-08
-6.28177e-08 5.31288e-08 0.000167342

0.000131643 3.32614e-05 -8.43648e-08
3.32614e-05 0.00016784 4.11189e-08
-8.43648e-08 4.11189e-08 0.000169292

0.000171287 1.51233e-05 -3.20542e-08
1.51233e-05 0.000182417 3.43505e-08
-3.20542e-08 3.43505e-08 0.000176949

0.000163311 2.08878e-05 -1.53549e-08
2.08878e-05 0.000183553 -1.90625e-09
-1.53549e-08 -1.90625e-09 0.000178137

0.000141272 -2.42641e-05 7.06651e-08
-2.42641e-05 0.000171798 -5.272e-08
7.06651e-08 -5.272e-08 0.000157631

0.00015011 2.52278e-05 5.76415e-08
2.52278e-05 0.000153926 -7.53128e-09
5.76415e-08 -7.53128e-09 0.000159127

0.000154988 -1.58812e-05 6.75215e-08
-1.58812e-05 0.000145391 -4.41078e-08
6.75215e-08 -4.41078e-08 0.000146412

0.000146868 1.83656e-05 -1.22395e-08
1.83656e-05 0.000110677 -1.83446e-07
-1.22395e-08 -1.83446e-07 0.000125107

0.00016981 -6.00917e-07 3.474e-08
-6.00917e-07 0.000117932 7.86224e-09
3.474e-08 7.86224e-09 0.000138191

0.00014405 2.88026e-05 1.13388e-07
2.88026e-05 0.000178591 7.99435e-08
1.13388e-07 7.99435e-08 0.000166953

0.000131344 -1.72337e-05 -8.86096e-08
-1.72337e-05 0.000157268 -1.42833e-07
-8.86096e-08 -1.42833e-07 0.000149337

0.000121711 6.222e-06 -8.55155e-08
6.222e-06 0.000159927 -1.2013e-07
-8.55155e-08 -1.2013e-07 0.000140404

0.000152459 1.78219e-05 -5.63271e-08
1.78219e-05 0.000151768 -1.07698e-08
-5.63271e-08 -1.07698e-08 0.000154735

0.000121922 8.01246e-06 1.96086e-07
8.01246e-06 0.000162667 -7.09258e-08
1.96086e-07 -7.09258e-08 0.000140806

0.000151959 -2.24123e-05 4.09791e-08
-2.24123e-05 0.000181648 -5.82965e-08
4.09791e-08 -5.82965e-08 0.000171603

9.25429e-05 -1.26097e-05 9.85525e-08
-1.26097e-05 9.47586e-05 2.05506e-07
9.85525e-08 2.05506e-07 8.87743e-05

0.000103071 -1.25779e-05 -1.08922e-07
-1.25779e-05 8.39033e-05 -5.79973e-09
-1.08922e-07 -5.79973e-09 8.85562e-05

0.000174496 -4.98971e-06 1.34603e-07
-4.98971e-06 0.000121469 -5.07237e-08
1.34603e-07 -5.07237e-08 0.000148799

0.000151585 -1.8069e-05 1.13212e-08
-1.8069e-05 0.000151603 3.85055e-09
1.13212e-08 3.85055e-09 0.000154707

0.000227734 -2.35807e-05 -4.61319e-07
-2.35807e-05 0.000184828 -4.00339e-07
-4.61319e-07 -4.00339e-07 0.000190404

0.000227734 2.2656e-05 2.30244e-07
2.2656e-05 0.000185606 5.84944e-07
2.30244e-07 5.84944e-07 0.000190529

0.000139345 -2.59749e-05 -5.95401e-08
-2.59749e-05 0.000170586 -1.16301e-07
-5.95401e-08 -1.16301e-07 0.000156068

0.000193419 -2.24231e-05 5.26417e-08
-2.24231e-05 0.000193578 8.51885e-08
5.26417e-08 8.51885e-08 0.00018281

0.000193261 2.32353e-05 1.8921e-07
2.32353e-05 0.000193002 1.24715e-07
1.8921e-07 1.24715e-07 0.000182786

0.000172297 5.15828e-06 -3.3411e-08
5.15828e-06 0.000126927 -1.88329e-07
-3.3411e-08 -1.88329e-07 0.000155932

0.000129495 -3.31605e-05 -4.47276e-08
-3.31605e-05 0.000166982 1.21914e-07
-4.47276e-08 1.21914e-07 0.000169337

9.85713e-05 -1.50735e-05 -1.4384e-07
-1.50735e-05 9.67847e-05 5.62794e-08
-1.4384e-07 5.62794e-08 9.23753e-05

0.000102712 1.4933e-05 1.31113e-07
1.4933e-05 9.31008e-05 -1.00361e-07
1.31113e-07 -1.00361e-07 9.36785e-05

9.78044e-05 -1.14516e-05 -1.50546e-07
-1.14516e-05 0.000118279 1.3551e-07
-1.50546e-07 1.3551e-07 9.96841e-05

9.33675e-05 1.01142e-05 1.65065e-07
1.01142e-05 0.000118416 -2.1679e-08
1.65065e-07 -2.1679e-08 9.89615e-05

0.000121151 6.00085e-06 -9.00632e-08
6.00085e-06 8.91902e-05 1.169e-07
-9.00632e-08 1.169e-07 9.80932e-05

0.000144028 -2.89249e-05 -8.31378e-08
-2.89249e-05 0.000179081 1.99393e-08
-8.31378e-08 1.99393e-08 0.00016679

8.309e-05 3.15926e-06 -2.26612e-08
3.15926e-06 0.000111829 1.8697e-07
-2.26612e-08 1.8697e-07 9.38255e-05

0.000115995 -3.3675e-06 3.42881e-08
-3.3675e-06 7.97943e-05 1.60459e-08
3.42881e-08 1.60459e-08 9.27494e-05

0.000166725 -9.45583e-06 -9.43495e-08
-9.45583e-06 0.000203009 3.76159e-08
-9.43495e-08 3.76159e-08 0.000183312

0.000180487 -5.5457e-07 2.88664e-09
-5.5457e-07 0.000190761 -2.68654e-07
2.88664e-09 -2.68654e-07 0.000182637

0.000179333 1.46228e-05 1.3648e-07
1.46228e-05 0.000145773 -7.07578e-08
1.3648e-07 -7.07578e-08 0.000164455

0.000185617 -1.17156e-06 4.04543e-08
-1.17156e-06 0.00011515 1.31298e-07
4.04543e-08 1.31298e-07 0.000168513

0.000111068 1.47877e-05 7.77606e-08
1.47877e-05 0.000137702 -8.70444e-08
7.77606e-08 -8.70444e-08 0.000117361

0.000110542 -1.58766e-05 1.50644e-07
-1.58766e-05 0.000138116 -1.56866e-07
1.50644e-07 -1.56866e-07 0.00011765

0.000175362 -3.28964e-06 -6.95264e-08
-3.28964e-06 0.00012784 8.78227e-09
-6.95264e-08 8.78227e-09 0.00015673

0.000130188 -1.96988e-05 -9.19203e-09
-1.96988e-05 0.000166368 -1.55598e-07
-9.19203e-09 -1.55598e-07 0.000148707

0.000192736 1.48506e-06 9.88214e-09
1.48506e-06 0.000174695 -2.23683e-07
9.88214e-09 -2.23683e-07 0.000182476

0.000191787 -2.07186e-06 1.06154e-07
-2.07186e-06 0.000175183 1.55114e-07
1.06154e-07 1.55114e-07 0.000182489

0.000170005 2.15807e-05 -7.30311e-08
2.15807e-05 0.000153371 3.26137e-08
-7.30311e-08 3.26137e-08 0.000162735

0.000149284 -2.52399e-05 -1.22417e-08
-2.52399e-05 0.00015395 -1.37591e-07
-1.22417e-08 -1.37591e-07 0.000159244

0.00017925 1.33764e-05 1.51631e-07
1.33764e-05 0.000128923 8.43108e-08
1.51631e-07 8.43108e-08 0.000161196

0.000127801 1.93927e-05 -3.0594e-08
1.93927e-05 0.000112073 -1.8752e-07
-3.0594e-08 -1.8752e-07 0.000112925

0.000138679 -2.15005e-05 -6.52238e-08
-2.15005e-05 0.000159429 -1.61327e-07
-6.52238e-08 -1.61327e-07 0.000157492

7.81329e-05 3.3764e-05 6.74519e-08
3.3764e-05 7.14416e-05 -1.53873e-07
6.74519e-08 -1.53873e-07 7.83021e-05

0.000122195 -4.84393e-06 -4.36638e-08
-4.84393e-06 0.000159376 3.97177e-08
-4.36638e-08 3.97177e-08 0.000140587

0.000122286 -7.20153e-06 7.70838e-09
-7.20153e-06 0.000160891 -1.44504e-07
7.70838e-09 -1.44504e-07 0.000140419

0.000169431 9.83527e-06 -4.65918e-08
9.83527e-06 0.000203832 -2.26614e-07
-4.65918e-08 -2.26614e-07 0.000184046

0.000174464 -1.52424e-05 7.65223e-08
-1.52424e-05 0.000198903 -4.67538e-08
7.65223e-08 -4.67538e-08 0.000183942

0.000202008 -6.70225e-07 5.40061e-09
-6.70225e-07 0.000132686 -1.19415e-09
5.40061e-09 -1.19415e-09 0.000172269

0.000202241 8.76223e-07 6.62707e-08
8.76223e-07 0.000132606 7.20956e-08
6.62707e-08 7.20956e-08 0.00017234

0.000179004 -2.89511e-05 1.22462e-07
-2.89511e-05 0.000161644 9.03895e-08
1.22462e-07 9.03895e-08 0.000172304

0.000178343 2.83683e-05 -6.72146e-08
2.83683e-05 0.000157733 3.51765e-08
-6.72146e-08 3.51765e-08 0.000171184

0.000199477 -1.06997e-05 4.99705e-08
-1.06997e-05 0.000183719 7.38287e-08
4.99705e-08 7.38287e-08 0.000181381

0.000199725 1.04275e-05 2.17333e-07
1.04275e-05 0.000183871 3.99485e-09
2.17333e-07 3.99485e-09 0.000181301

0.000203597 -9.21691e-06 3.9913e-07
-9.21691e-06 0.000186591 -3.50004e-07
3.9913e-07 -3.50004e-07 0.000189088

0.000204552 9.74058e-06 3.55443e-07
9.74058e-06 0.000187197 5.77619e-07
3.55443e-07 5.77619e-07 0.000189227

0.000152707 -2.74695e-05 -6.3552e-08
-2.74695e-05 0.000180176 5.32771e-08
-6.3552e-08 5.32771e-08 0.000172644

0.00015306 2.74763e-05 3.42991e-08
2.74763e-05 0.000180413 1.29172e-07
3.42991e-08 1.29172e-07 0.000172915

0.000156694 -1.41128e-05 7.09959e-08
-1.41128e-05 0.000131101 -2.98208e-08
7.09959e-08 -2.98208e-08 0.000143546

0.000133727 -1.20308e-05 5.6393e-08
-1.20308e-05 0.00016282 -5.26164e-08
5.6393e-08 -5.26164e-08 0.000150291

0.000142209 2.31753e-05 3.22824e-08
2.31753e-05 0.000142836 -1.04516e-07
3.22824e-08 -1.04516e-07 0.000140884

0.000134882 -1.7184e-05 8.69064e-09
-1.7184e-05 0.000167712 -1.45572e-07
8.69064e-09 -1.45572e-07 0.000149775

0.000128448 -1.73968e-05 -2.01275e-08
-1.73968e-05 0.000114282 -2.47553e-07
-2.01275e-08 -2.47553e-07 0.000111691

0.000156721 1.40459e-05 -1.49676e-07
1.40459e-05 0.000130841 1.32591e-08
-1.49676e-07 1.32591e-08 0.000143225

0.000135114 1.1698e-05 8.03852e-08
1.1698e-05 0.000162106 -4.13467e-08
8.03852e-08 -4.13467e-08 0.000149699

0.000155727 -3.42135e-05 -9.19637e-08
-3.42135e-05 0.000168324 1.52175e-07
-9.19637e-08 1.52175e-07 0.000174312

0.000154539 3.4257e-05 -2.69909e-08
3.4257e-05 0.000168266 -2.46711e-08
-2.69909e-08 -2.46711e-08 0.000174304

0.000182239 -1.33578e-05 -6.26889e-08
-1.33578e-05 0.000148459 -2.81998e-08
-6.26889e-08 -2.81998e-08 0.000166812

0.000208595 -2.53648e-05 -3.22801e-07
-2.53648e-05 0.000230965 2.50741e-07
-3.22801e-07 2.50741e-07 0.000189912

0.000205106 2.6875e-05 -1.85282e-07
2.6875e-05 0.000190693 9.67135e-08
-1.85282e-07 9.67135e-08 0.000190209

0.000149426 -1.95786e-05 -4.54462e-08
-1.95786e-05 0.00017684 1.26543e-07
-4.54462e-08 1.26543e-07 0.000164144

0.000170448 2.40733e-05 -7.51934e-08
2.40733e-05 0.000140235 3.52605e-09
-7.51934e-08 3.52605e-09 0.000158848

0.000194661 1.37736e-06 -2.5338e-08
1.37736e-06 0.000166787 -6.45065e-08
-2.5338e-08 -6.45065e-08 0.000177686

0.000142746 -2.29106e-05 -2.54057e-07
-2.29106e-05 0.000143699 -8.80317e-08
-2.54057e-07 -8.80317e-08 0.000140957

9.43659e-05 1.4538e-05 1.56801e-07
1.4538e-05 0.000100202 -1.09149e-07
1.56801e-07 -1.09149e-07 9.02485e-05

0.000102902 1.39948e-05 -2.40076e-08
1.39948e-05 8.85345e-05 1.14049e-07
-2.40076e-08 1.14049e-07 9.03131e-05

0.000201153 2.54698e-06 1.19267e-08
2.54698e-06 0.000141993 6.90973e-09
1.19267e-08 6.90973e-09 0.000175143

0.000201583 -2.8275e-06 -4.36343e-08
-2.8275e-06 0.000141956 1.9802e-07
-4.36343e-08 1.9802e-07 0.000175104

0.000194689 -2.68086e-06 -1.33429e-08
-2.68086e-06 0.000168597 -1.20334e-07
-1.33429e-08 -1.20334e-07 0.000178069

0.000135774 1.6299e-05 1.54762e-07
1.6299e-05 0.000167325 -1.01727e-07
1.54762e-07 -1.01727e-07 0.000149545

0.000156463 -1.10359e-05 -1.43704e-07
-1.10359e-05 0.000126438 1.37759e-07
-1.43704e-07 1.37759e-07 0.000132502

0.000163556 -1.33435e-05 -4.78491e-08
-1.33435e-05 0.000171612 -1.16552e-07
-4.78491e-08 -1.16552e-07 0.000168518

0.000163532 1.3831e-05 2.6912e-07
1.3831e-05 0.000171662 -1.19519e-07
2.6912e-07 -1.19519e-07 0.0001686

0.000220383 -1.96963e-06 -1.23201e-07
-1.96963e-06 0.000241761 -3.48021e-07
-1.23201e-07 -3.48021e-07 0.000188449

0.000222823 1.98676e-06 -1.15813e-07
1.98676e-06 0.000241076 -4.05459e-07
-1.15813e-07 -4.05459e-07 0.000188538

0.000140142 -2.32462e-05 -1.56683e-08
-2.32462e-05 0.000175391 1.38549e-07
-1.56683e-08 1.38549e-07 0.000162197

0.000168452 1.85408e-05 -4.78776e-08
1.85408e-05 0.000132482 2.59993e-08
-4.78776e-08 2.59993e-08 0.000149542

0.000188674 -1.81536e-06 6.20224e-08
-1.81536e-06 0.000157938 -2.76949e-07
6.20224e-08 -2.76949e-07 0.000174164

0.000189251 3.16506e-06 1.23993e-07
3.16506e-06 0.000157936 1.28886e-07
1.23993e-07 1.28886e-07 0.000174097

0.000141939 -1.46469e-05 1.43062e-07
-1.46469e-05 0.000170562 1.23791e-07
1.43062e-07 1.23791e-07 0.000165793

0.000142099 -2.40529e-05 -7.52328e-08
-2.40529e-05 0.000163563 1.27043e-07
-7.52328e-08 1.27043e-07 0.000168811

7.79801e-05 -3.46303e-05 5.3308e-08
-3.46303e-05 7.89146e-05 2.01398e-08
5.3308e-08 2.01398e-08 7.89896e-05

0.000163946 -2.24184e-05 -1.36562e-07
-2.24184e-05 0.000182339 6.16346e-08
-1.36562e-07 6.16346e-08 0.000176886

0.000162694 2.26457e-05 -5.34443e-08
2.26457e-05 0.000181955 2.86164e-08
-5.34443e-08 2.86164e-08 0.000176781

0.000138183 -2.25472e-05 -2.86234e-08
-2.25472e-05 0.000165896 6.89296e-08
-2.86234e-08 6.89296e-08 0.000164268

0.000158117 1.19141e-05 2.52119e-08
1.19141e-05 0.000126849 1.44653e-07
2.52119e-08 1.44653e-07 0.000133288

0.000171909 -2.0977e-05 9.72945e-08
-2.0977e-05 0.000154186 1.07086e-07
9.72945e-08 1.07086e-07 0.000164298

0.000181712 -2.38168e-05 5.58708e-08
-2.38168e-05 0.000161867 -1.60632e-07
5.58708e-08 -1.60632e-07 0.000173315

0.000181099 2.32714e-05 -6.23486e-08
2.32714e-05 0.000160726 1.87457e-08
-6.23486e-08 1.87457e-08 0.000173058

0.000182238 -1.30136e-05 -6.27897e-08
-1.30136e-05 0.000129988 1.25915e-08
-6.27897e-08 1.25915e-08 0.000163471

0.000199023 5.95025e-06 -1.39981e-08
5.95025e-06 0.000160798 1.35766e-07
-1.39981e-08 1.35766e-07 0.000180359

0.000199737 -5.50774e-06 -1.00847e-07
-5.50774e-06 0.000160921 -8.63443e-08
-1.00847e-07 -8.63443e-08 0.000180287

0.000179055 -9.12848e-06 -1.58402e-08
-9.12848e-06 0.000228459 -6.1044e-08
-1.58402e-08 -6.1044e-08 0.000188611

0.000188342 1.91601e-05 1.93729e-08
1.91601e-05 0.000223661 -1.11158e-07
1.93729e-08 -1.11158e-07 0.00018881

8.45229e-05 3.31956e-06 -2.44339e-07
3.31956e-06 5.07786e-05 -5.24489e-09
-2.44339e-07 -5.24489e-09 8.43572e-05

6.08576e-05 5.33003e-06 1.58671e-07
5.33003e-06 7.80974e-05 9.60033e-08
1.58671e-07 9.60033e-08 8.45208e-05

0.000151478 2.14905e-05 -1.20825e-07
2.14905e-05 0.000178046 5.94655e-08
-1.20825e-07 5.94655e-08 0.000167053

0.000150929 -2.22726e-05 -3.17777e-08
-2.22726e-05 0.000178421 4.30257e-08
-3.17777e-08 4.30257e-08 0.000166944

0.000144889 -2.771e-05 8.87057e-08
-2.771e-05 0.000178723 -4.18317e-09
8.87057e-08 -4.18317e-09 0.000166244

7.43896e-05 -1.4421e-05 6.99979e-08
-1.4421e-05 7.13658e-05 -1.64569e-07
6.99979e-08 -1.64569e-07 8.28124e-05

7.7161e-05 -1.20422e-05 -6.99603e-08
-1.20422e-05 7.18836e-05 3.93792e-08
-6.99603e-08 3.93792e-08 8.30285e-05

0.000187563 1.92178e-05 -3.32359e-07
1.92178e-05 0.000225008 1.09606e-06
-3.32359e-07 1.09606e-06 0.00019095

0.000187563 -2.04092e-05 3.88559e-07
-2.04092e-05 0.000223745 3.71767e-07
3.88559e-07 3.71767e-07 0.000190948

0.000165484 -2.64178e-05 -2.47378e-09
-2.64178e-05 0.000149579 2.19867e-08
-2.47378e-09 2.19867e-08 0.000162101

0.000140861 -2.15389e-05 -1.09282e-07
-2.15389e-05 0.000153886 1.59275e-07
-1.09282e-07 1.59275e-07 0.000144752

0.000151641 2.11634e-05 -1.17383e-07
2.11634e-05 0.000167252 8.14124e-08
-1.17383e-07 8.14124e-08 0.000164193

0.000150867 -2.1086e-05 -7.27325e-09
-2.1086e-05 0.00016699 -9.54349e-08
-7.27325e-09 -9.54349e-08 0.000164154

0.000141282 -2.49701e-05 6.71581e-08
-2.49701e-05 0.000162268 -7.53843e-08
6.71581e-08 -7.53843e-08 0.000153145

0.000140446 2.16699e-05 -5.15653e-08
2.16699e-05 0.000153273 4.01119e-08
-5.15653e-08 4.01119e-08 0.000144615

9.66319e-05 -8.27649e-06 1.95372e-09
-8.27649e-06 0.000119152 1.55965e-07
1.95372e-09 1.55965e-07 0.000100687

9.57831e-05 6.4617e-06 -2.7589e-08
6.4617e-06 0.000120192 2.97017e-08
-2.7589e-08 2.97017e-08 0.00010015

0.000121058 5.84945e-06 -5.08162e-08
5.84945e-06 9.25462e-05 -6.29758e-08
-5.08162e-08 -6.29758e-08 9.91961e-05

0.000141306 2.53748e-05 -1.48036e-08
2.53748e-05 0.000162188 9.32674e-08
-1.48036e-08 9.32674e-08 0.00015299

8.51892e-05 -3.87602e-06 -2.17171e-07
-3.87602e-06 0.000110105 -1.55958e-07
-2.17171e-07 -1.55958e-07 9.29821e-05

0.00011537 -2.63405e-06 -1.18755e-08
-2.63405e-06 7.89668e-05 1.33448e-07
-1.18755e-08 1.33448e-07 9.31466e-05

0.000159581 -2.0759e-05 9.79928e-08
-2.0759e-05 0.00017739 1.55075e-08
9.79928e-08 1.55075e-08 0.000172835

0.000159364 2.02057e-05 1.62991e-07
2.02057e-05 0.000177254 1.14326e-07
1.62991e-07 1.14326e-07 0.000172947

0.000162519 -1.55867e-05 3.15024e-08
-1.55867e-05 0.000178465 -2.11492e-07
3.15024e-08 -2.11492e-07 0.000174164

0.000161857 1.57116e-05 2.4027e-07
1.57116e-05 0.000178441 -1.53598e-07
2.4027e-07 -1.53598e-07 0.000174241

7.51219e-05 1.37052e-05 9.48111e-08
1.37052e-05 6.75536e-05 2.07981e-07
9.48111e-08 2.07981e-07 8.18674e-05

7.44387e-05 1.31716e-05 -5.8518e-12
1.31716e-05 6.81814e-05 -1.59252e-07
-5.8518e-12 -1.59252e-07 8.14066e-05

0.000151857 1.96812e-05 -7.07542e-08
1.96812e-05 0.000165013 1.14884e-07
-7.07542e-08 1.14884e-07 0.000157667

0.000151105 -1.96796e-05 4.114e-10
-1.96796e-05 0.000164877 -1.00881e-07
4.114e-10 -1.00881e-07 0.000157644

0.00017656 -1.88437e-05 -8.44775e-10
-1.88437e-05 0.000204069 3.21713e-08
-8.44775e-10 3.21713e-08 0.000185426

0.000185769 8.43016e-06 -5.88149e-09
8.43016e-06 0.000189696 -2.68144e-07
-5.88149e-09 -2.68144e-07 0.000185352

0.000156207 -2.10497e-05 -1.13692e-08
-2.10497e-05 0.000188258 2.02587e-07
-1.13692e-08 2.02587e-07 0.000176114

0.00015648 2.10526e-05 8.0795e-08
2.10526e-05 0.000187189 -1.59984e-08
8.0795e-08 -1.59984e-08 0.000176183

0.000193017 1.85354e-06 5.34038e-08
1.85354e-06 0.000158106 1.72966e-07
5.34038e-08 1.72966e-07 0.000180147

0.000191701 -7.39219e-07 1.47777e-07
-7.39219e-07 0.000158105 -2.23564e-07
1.47777e-07 -2.23564e-07 0.000180147

0.00016015 -2.41583e-05 8.86376e-08
-2.41583e-05 0.000161862 -1.60147e-07
8.86376e-08 -1.60147e-07 0.000168022

0.000160383 2.45296e-05 -1.28811e-07
2.45296e-05 0.000160669 2.07756e-08
-1.28811e-07 2.07756e-08 0.00016765

0.000205493 5.84456e-06 -6.75483e-08
5.84456e-06 0.000174638 -6.15432e-08
-6.75483e-08 -6.15432e-08 0.000185361

0.000204383 7.12924e-07 1.08925e-07
7.12924e-07 0.000185087 -2.24852e-07
1.08925e-07 -2.24852e-07 0.000188872

0.00020541 -5.93272e-06 1.53059e-07
-5.93272e-06 0.000174956 1.13397e-08
1.53059e-07 1.13397e-08 0.000185483

0.000204728 -1.35693e-06 3.19651e-07
-1.35693e-06 0.000184009 1.65504e-07
3.19651e-07 1.65504e-07 0.000188922

0.000179951 1.27148e-06 -3.06567e-08
1.27148e-06 0.000205682 5.65731e-08
-3.06567e-08 5.65731e-08 0.000186261

0.00021293 2.34615e-05 -1.73814e-07
2.34615e-05 0.000195471 -2.61007e-07
-1.73814e-07 -2.61007e-07 0.000185104

0.000211048 -2.30197e-05 4.32047e-08
-2.30197e-05 0.000195176 7.84697e-08
4.32047e-08 7.84697e-08 0.000185034

0.00016717 -1.28647e-05 -1.10651e-07
-1.28647e-05 0.000227267 1.95667e-07
-1.10651e-07 1.95667e-07 0.00018663

0.000187589 -1.18326e-05 -7.56433e-07
-1.18326e-05 0.000194419 1.32618e-06
-7.56433e-07 1.32618e-06 0.00018762

0.000282108 -1.51799e-05 -2.15062e-06
-1.51799e-05 0.00014848 -1.06812e-06
-2.15062e-06 -1.06812e-06 0.000191308

0.000187589 1.25738e-05 2.20477e-07
1.25738e-05 0.000193805 2.93983e-07
2.20477e-07 2.93983e-07 0.000187953

0.000290557 1.02092e-05 6.28066e-07
1.02092e-05 0.000154239 -5.01341e-07
6.28066e-07 -5.01341e-07 0.000191666

0.000194184 -1.49515e-05 2.00651e-07
-1.49515e-05 0.000188723 -1.24555e-07
2.00651e-07 -1.24555e-07 0.000186146

0.000175004 -1.06896e-05 -2.31012e-07
-1.06896e-05 0.000191489 1.6129e-07
-2.31012e-07 1.6129e-07 0.000181793

0.00020015 -1.45108e-06 2.73161e-07
-1.45108e-06 0.000185807 2.11224e-07
2.73161e-07 2.11224e-07 0.000189923

0.000194184 1.60501e-05 9.09201e-08
1.60501e-05 0.000189193 9.76022e-08
9.09201e-08 9.76022e-08 0.00018634

0.000175004 1.06471e-05 -4.49322e-08
1.06471e-05 0.000190447 7.64141e-09
-4.49322e-08 7.64141e-09 0.000181843

0.000200625 1.17586e-06 1.67798e-07
1.17586e-06 0.00018883 -2.58399e-07
1.67798e-07 -2.58399e-07 0.000190209

0.000174746 -8.95337e-06 -2.35742e-07
-8.95337e-06 0.0001876 2.19248e-07
-2.35742e-07 2.19248e-07 0.000183319

0.000194107 -5.15191e-06 -1.80081e-07
-5.15191e-06 0.00018809 2.36584e-07
-1.80081e-07 2.36584e-07 0.000186837

0.000174746 8.93582e-06 -4.60203e-08
8.93582e-06 0.00018717 -5.69019e-09
-4.60203e-08 -5.69019e-09 0.000183399

0.000194879 5.05823e-06 -1.79486e-07
5.05823e-06 0.000187633 3.58754e-08
-1.79486e-07 3.58754e-08 0.000186915

0.000130768 2.04862e-05 2.52736e-08
2.04862e-05 0.000155162 2.80317e-08
2.52736e-08 2.80317e-08 0.000136015

0.000139261 3.78355e-06 5.04945e-08
3.78355e-06 0.000183296 -5.45129e-08
5.04945e-08 -5.45129e-08 0.000163778

0.000155773 1.10113e-05 -2.03423e-08
1.10113e-05 0.000173133 5.66104e-08
-2.03423e-08 5.66104e-08 0.000162985

0.000166716 -1.33502e-05 2.22492e-08
-1.33502e-05 0.000121728 -6.33071e-08
2.22492e-08 -6.33071e-08 0.000148262

0.00015941 -8.43996e-06 -1.17154e-08
-8.43996e-06 0.000118557 -4.50021e-08
-1.17154e-08 -4.50021e-08 0.000138084

0.000138772 6.01848e-06 4.31991e-08
6.01848e-06 0.000197509 3.0346e-08
4.31991e-08 3.0346e-08 0.000173408

0.000155663 1.1504e-05 -1.74178e-08
1.1504e-05 0.000176451 2.2592e-08
-1.74178e-08 2.2592e-08 0.000173168

0.000159434 -3.87374e-08 -1.17271e-08
-3.87374e-08 0.000120535 -5.34731e-08
-1.17271e-08 -5.34731e-08 0.000138913

0.000178569 5.29325e-06 1.07663e-07
5.29325e-06 0.000131305 8.87308e-08
1.07663e-07 8.87308e-08 0.000168283

0.000103941 1.80429e-05 -1.27013e-07
1.80429e-05 0.00012928 -2.08785e-08
-1.27013e-07 -2.08785e-08 0.000109412

9.74038e-05 1.40232e-05 -1.09981e-07
1.40232e-05 0.000129857 3.63036e-08
-1.09981e-07 3.63036e-08 0.000108654

0.000125647 1.41765e-05 6.04819e-08
1.41765e-05 0.000100423 -9.58683e-08
6.04819e-08 -9.58683e-08 0.000106861

0.000171105 -2.16008e-05 -3.87582e-08
-2.16008e-05 0.00018308 -1.04831e-08
-3.87582e-08 -1.04831e-08 0.000176213

0.000166301 -9.54401e-06 -9.82457e-08
-9.54401e-06 0.000190341 -1.74446e-07
-9.82457e-08 -1.74446e-07 0.000176282

0.000151289 -2.50582e-05 2.78919e-08
-2.50582e-05 0.00014795 1.20552e-07
2.78919e-08 1.20552e-07 0.000150019

0.000130658 2.00049e-05 2.07183e-08
2.00049e-05 0.000161516 -3.17322e-08
2.07183e-08 -3.17322e-08 0.000146572

0.000143094 2.33559e-05 -8.4762e-09
2.33559e-05 0.000172172 8.06918e-08
-8.4762e-09 8.06918e-08 0.000161874

0.000154745 -1.1152e-05 -3.764e-08
-1.1152e-05 0.000176419 -1.11664e-08
-3.764e-08 -1.11664e-08 0.000172634

0.000138041 -7.45151e-06 -1.5568e-07
-7.45151e-06 0.000198259 -1.39495e-07
-1.5568e-07 -1.39495e-07 0.00017263

0.000172629 6.26199e-06 5.94296e-09
6.26199e-06 0.000123855 -1.06036e-07
5.94296e-09 -1.06036e-07 0.000149274

0.000112076 5.86104e-06 -8.12131e-08
5.86104e-06 0.000145558 -1.11953e-07
-8.12131e-08 -1.11953e-07 0.000117953

0.00010557 2.52619e-06 -3.02441e-08
2.52619e-06 0.000145919 -8.5757e-08
-3.02441e-08 -8.5757e-08 0.000118581

0.000143867 2.85295e-06 -1.77655e-08
2.85295e-06 0.00010746 -4.78018e-08
-1.77655e-08 -4.78018e-08 0.000115685

0.000123101 1.46335e-05 6.95914e-08
1.46335e-05 0.000157665 -7.32045e-09
6.95914e-08 -7.32045e-09 0.00013776

0.000129697 2.32349e-05 1.58358e-07
2.32349e-05 0.00015046 -1.16293e-07
1.58358e-07 -1.16293e-07 0.000135348

0.000166141 4.24456e-06 -3.76864e-08
4.24456e-06 0.000122897 -6.39279e-08
-3.76864e-08 -6.39279e-08 0.000150075

9.88902e-05 1.08173e-05 -4.22651e-08
1.08173e-05 0.00011999 1.3895e-07
-4.22651e-08 1.3895e-07 9.76189e-05

0.000180226 -1.43515e-05 -6.45426e-08
-1.43515e-05 0.000130135 -1.00079e-07
-6.45426e-08 -1.00079e-07 0.000163859

0.000166353 8.84758e-07 8.45706e-08
8.84758e-07 0.000197333 1.42649e-08
8.45706e-08 1.42649e-08 0.000176918

0.000177196 3.1234e-07 2.81762e-09
3.1234e-07 0.000181898 1.47264e-08
2.81762e-09 1.47264e-08 0.000177288

0.000230812 9.65993e-06 -2.0998e-07
9.65993e-06 0.000175988 -1.05929e-07
-2.0998e-07 -1.05929e-07 0.000188154

0.000230782 -2.37496e-05 -4.51908e-09
-2.37496e-05 0.000191758 3.38319e-09
-4.51908e-09 3.38319e-09 0.000186483

0.000143595 -2.70451e-05 -6.64996e-08
-2.70451e-05 0.000149909 4.26737e-08
-6.64996e-08 4.26737e-08 0.000148224

0.000124932 -2.14599e-05 1.6529e-08
-2.14599e-05 0.00014836 1.1094e-08
1.6529e-08 1.1094e-08 0.000136284

0.000141805 -7.70571e-06 8.0705e-08
-7.70571e-06 0.000102407 -3.12049e-08
8.0705e-08 -3.12049e-08 0.000115548

0.000192359 3.75912e-06 1.50704e-07
3.75912e-06 0.000167174 5.5698e-08
1.50704e-07 5.5698e-08 0.000178284

0.000193351 -1.36325e-05 6.48589e-08
-1.36325e-05 0.000167457 -1.07471e-07
6.48589e-08 -1.07471e-07 0.000176375

0.000179104 -5.8506e-06 8.18511e-08
-5.8506e-06 0.000130888 -9.36151e-08
8.18511e-08 -9.36151e-08 0.000168443

0.000177726 -2.17459e-06 1.03797e-07
-2.17459e-06 0.000123443 2.23629e-08
1.03797e-07 2.23629e-08 0.000165467

0.000147579 -2.17073e-05 6.59048e-08
-2.17073e-05 0.000126096 -1.01583e-08
6.59048e-08 -1.01583e-08 0.000130785

0.000151717 9.90178e-06 -1.10124e-07
9.90178e-06 0.000115204 -2.35576e-08
-1.10124e-07 -2.35576e-08 0.000128677

0.000148669 -1.79764e-05 6.47176e-08
-1.79764e-05 0.000113461 -1.99574e-08
6.47176e-08 -1.99574e-08 0.000127447

0.000131099 1.45086e-05 6.93695e-08
1.45086e-05 0.000177483 7.48983e-08
6.93695e-08 7.48983e-08 0.000163465

0.000124842 -1.73431e-05 -6.06651e-08
-1.73431e-05 0.000156769 -6.68798e-08
-6.06651e-08 -6.68798e-08 0.000137922

0.000124094 1.73613e-05 5.12815e-08
1.73613e-05 0.000149868 1.42326e-08
5.12815e-08 1.42326e-08 0.000136581

8.11908e-05 -2.71195e-05 -1.70656e-07
-2.71195e-05 8.16622e-05 -3.0379e-09
-1.70656e-07 -3.0379e-09 8.04604e-05

7.39093e-05 1.72189e-05 9.17228e-10
1.72189e-05 8.27202e-05 -1.77104e-08
9.17228e-10 -1.77104e-08 7.9668e-05

0.000140305 -1.98202e-05 2.16343e-07
-1.98202e-05 0.000186286 -5.5254e-08
2.16343e-07 -5.5254e-08 0.000172481

0.000123028 1.39097e-05 6.53956e-08
1.39097e-05 0.000165866 -1.08985e-07
6.53956e-08 -1.08985e-07 0.000148406

7.48286e-05 2.96867e-06 5.81527e-09
2.96867e-06 7.7303e-05 -1.70486e-07
5.81527e-09 -1.70486e-07 8.43498e-05

7.52481e-05 -5.46436e-06 2.45395e-07
-5.46436e-06 8.37661e-05 1.70404e-08
2.45395e-07 1.70404e-08 8.48216e-05

0.000173293 -7.82166e-06 7.00706e-08
-7.82166e-06 0.000185854 1.2916e-08
7.00706e-08 1.2916e-08 0.000178957

0.000172739 1.71974e-05 -1.80147e-07
1.71974e-05 0.000180402 -1.47319e-07
-1.80147e-07 -1.47319e-07 0.00017962

0.00018517 1.18195e-07 3.15758e-08
1.18195e-07 0.000126686 -1.1553e-07
3.15758e-08 -1.1553e-07 0.000156542

0.000174257 -5.0842e-06 9.08067e-08
-5.0842e-06 0.000176658 1.58847e-07
9.08067e-08 1.58847e-07 0.000178938

0.000173049 1.61289e-05 -1.51083e-07
1.61289e-05 0.000180111 -3.51864e-07
-1.51083e-07 -3.51864e-07 0.000179435

0.000217634 1.77045e-05 -1.3954e-07
1.77045e-05 0.000171139 -2.52134e-08
-1.3954e-07 -2.52134e-08 0.000185909

0.000210603 -2.12233e-05 -1.61485e-07
-2.12233e-05 0.000187683 1.46601e-09
-1.61485e-07 1.46601e-09 0.000184506

0.00016344 -1.32966e-05 -8.88516e-08
-1.32966e-05 0.00016572 1.27596e-07
-8.88516e-08 1.27596e-07 0.000167752

0.00016309 1.67022e-05 4.42825e-08
1.67022e-05 0.000161672 1.42321e-07
4.42825e-08 1.42321e-07 0.000168582

0.00017471 -1.47952e-06 8.96032e-08
-1.47952e-06 0.000222226 5.01255e-08
8.96032e-08 5.01255e-08 0.000184013

0.000178297 6.2526e-06 -2.40488e-08
6.2526e-06 0.000199785 -1.29535e-07
-2.40488e-08 -1.29535e-07 0.000184788

0.000127669 -2.43986e-05 -1.0477e-07
-2.43986e-05 0.000155255 9.39665e-08
-1.0477e-07 9.39665e-08 0.0001363

8.92257e-05 2.66009e-06 -1.00705e-07
2.66009e-06 0.000114252 5.05804e-08
-1.00705e-07 5.05804e-08 9.63059e-05

0.000112961 3.25089e-06 1.34896e-07
3.25089e-06 9.16875e-05 -4.89281e-08
1.34896e-07 -4.89281e-08 9.60824e-05

0.000126777 1.27079e-05 -8.48637e-08
1.27079e-05 0.000176917 4.24911e-08
-8.48637e-08 4.24911e-08 0.00015951

0.000139374 1.88765e-05 -4.27613e-08
1.88765e-05 0.000170279 7.26668e-08
-4.27613e-08 7.26668e-08 0.000158386

0.000219439 -1.6534e-05 1.14323e-06
-1.6534e-05 0.0001895 -2.5308e-07
1.14323e-06 -2.5308e-07 0.00019132

0.00020535 2.74522e-05 -1.68951e-07
2.74522e-05 0.000231619 1.08089e-07
-1.68951e-07 1.08089e-07 0.000191191

0.000144088 1.68944e-05 3.56496e-08
1.68944e-05 0.000134071 2.20146e-07
3.56496e-08 2.20146e-07 0.000133173

0.000148165 2.94711e-05 -5.5937e-08
2.94711e-05 0.000177299 -8.13254e-09
-5.5937e-08 -8.13254e-09 0.000166689

0.000168594 1.10703e-05 -1.33115e-07
1.10703e-05 0.00013973 2.0221e-08
-1.33115e-07 2.0221e-08 0.000159672

0.000169537 -8.48789e-06 1.05569e-07
-8.48789e-06 0.000139875 -5.17262e-08
1.05569e-07 -5.17262e-08 0.000158908

0.000150929 2.74294e-05 1.41383e-07
2.74294e-05 0.000168723 1.01098e-07
1.41383e-07 1.01098e-07 0.000165539

0.000151715 -2.73551e-05 1.14339e-07
-2.73551e-05 0.000181543 4.92932e-08
1.14339e-07 4.92932e-08 0.000171463

0.000189833 -2.32118e-05 9.36471e-08
-2.32118e-05 0.000151382 1.9487e-08
9.36471e-08 1.9487e-08 0.000173651

0.000141091 -2.31797e-06 7.23391e-08
-2.31797e-06 0.000103742 9.61854e-08
7.23391e-08 9.61854e-08 0.000115949

0.000230675 3.389e-06 -2.90292e-07
3.389e-06 0.000216962 -1.29196e-07
-2.90292e-07 -1.29196e-07 0.000187862

0.000242594 -2.11965e-06 5.94024e-08
-2.11965e-06 0.000184816 -2.40492e-07
5.94024e-08 -2.40492e-07 0.000189619

0.000148346 2.13479e-05 -1.57303e-07
2.13479e-05 0.000138717 2.90063e-08
-1.57303e-07 2.90063e-08 0.000144509

0.000172382 8.11433e-06 -7.81163e-09
8.11433e-06 0.000131985 1.26559e-07
-7.81163e-09 1.26559e-07 0.00015098

0.000121563 1.83958e-05 -8.05409e-09
1.83958e-05 0.000129147 -2.91047e-08
-8.05409e-09 -2.91047e-08 0.000115211

0.000184373 4.18754e-06 1.67141e-07
4.18754e-06 0.00019842 -8.30289e-08
1.67141e-07 -8.30289e-08 0.000187497

0.000187481 1.29159e-05 -2.01775e-07
1.29159e-05 0.000228474 -2.07522e-08
-2.01775e-07 -2.07522e-08 0.000186189

0.000189868 1.16311e-05 1.72199e-07
1.16311e-05 0.000146671 -4.07116e-08
1.72199e-07 -4.07116e-08 0.000175968

0.000138416 -4.68601e-06 -1.50999e-07
-4.68601e-06 0.000185014 -6.06383e-08
-1.50999e-07 -6.06383e-08 0.000163206

0.000154856 -1.05116e-05 -3.51928e-08
-1.05116e-05 0.000174187 2.09773e-08
-3.51928e-08 2.09773e-08 0.000162696

0.000186573 3.29775e-06 7.37543e-08
3.29775e-06 0.000130342 -8.7038e-08
7.37543e-08 -8.7038e-08 0.000163928

0.000188057 -2.75871e-06 7.95045e-08
-2.75871e-06 0.000129265 7.01892e-08
7.95045e-08 7.01892e-08 0.000163533

0.000130224 -1.82706e-05 1.64345e-08
-1.82706e-05 0.000121792 2.00303e-07
1.64345e-08 2.00303e-07 0.000113613

0.000167412 -2.25219e-07 -3.1329e-08
-2.25219e-07 0.000118657 -1.24743e-07
-3.1329e-08 -1.24743e-07 0.000138378

0.000186698 -3.04789e-06 -6.92192e-08
-3.04789e-06 0.000145361 7.17245e-08
-6.92192e-08 7.17245e-08 0.000171463

0.000182114 5.93787e-06 5.98666e-08
5.93787e-06 0.000149514 9.41371e-09
5.98666e-08 9.41371e-09 0.000171783

0.000172761 -7.71873e-06 -1.14799e-07
-7.71873e-06 0.000136489 1.27578e-07
-1.14799e-07 1.27578e-07 0.000150361

0.000131429 -2.15947e-05 -1.71901e-07
-2.15947e-05 0.000156242 7.52717e-09
-1.71901e-07 7.52717e-09 0.000138064

0.00018798 -1.80896e-06 5.49428e-08
-1.80896e-06 0.000141347 -5.85945e-08
5.49428e-08 -5.85945e-08 0.000164789

0.000185917 3.82584e-06 5.50423e-08
3.82584e-06 0.00014083 4.32685e-09
5.50423e-08 4.32685e-09 0.000165352

0.000168074 8.75208e-06 6.23072e-08
8.75208e-06 0.000132979 1.22081e-07
6.23072e-08 1.22081e-07 0.000154114

0.000128249 -2.72603e-05 -1.30908e-07
-2.72603e-05 0.000124832 -4.09278e-08
-1.30908e-07 -4.09278e-08 0.000123418

0.000141644 2.63886e-05 -1.77032e-08
2.63886e-05 0.000166061 -5.97359e-08
-1.77032e-08 -5.97359e-08 0.000166691

0.000149136 2.60749e-05 1.00005e-07
2.60749e-05 0.000179862 -3.79495e-08
1.00005e-07 -3.79495e-08 0.00016796

0.00013901 1.95307e-05 -7.6748e-10
1.95307e-05 0.000168379 -5.70573e-08
-7.6748e-10 -5.70573e-08 0.00016866

0.00015409 9.83949e-06 -1.02506e-07
9.83949e-06 0.000111747 -8.7201e-08
-1.02506e-07 -8.7201e-08 0.000128754

0.000118032 -1.88563e-05 4.60415e-08
-1.88563e-05 0.000101643 1.62435e-08
4.60415e-08 1.62435e-08 0.000101332

0.000166043 1.60433e-05 -3.44268e-08
1.60433e-05 0.000143791 -1.1727e-07
-3.44268e-08 -1.1727e-07 0.000161491

0.000167717 -1.67721e-05 2.80566e-08
-1.67721e-05 0.000133347 -8.15729e-08
2.80566e-08 -8.15729e-08 0.000150999

0.000120647 -1.66472e-05 1.64092e-08
-1.66472e-05 9.94508e-05 -4.57002e-08
1.64092e-08 -4.57002e-08 0.000102108

0.000151598 -2.74465e-05 3.36846e-08
-2.74465e-05 0.000132658 1.53145e-08
3.36846e-08 1.53145e-08 0.000143293

0.00013596 6.3699e-07 -6.22512e-08
6.3699e-07 0.000167703 3.50386e-08
-6.22512e-08 3.50386e-08 0.000157166

0.000122555 2.9287e-07 -5.6721e-08
2.9287e-07 0.000184122 -1.09631e-07
-5.6721e-08 -1.09631e-07 0.000157864

0.000129884 2.33229e-05 1.82995e-07
2.33229e-05 0.000131204 1.4547e-07
1.82995e-07 1.4547e-07 0.00012665

0.000130336 -1.9373e-05 2.9177e-08
-1.9373e-05 0.000102432 -1.32993e-07
2.9177e-08 -1.32993e-07 0.000109253

0.000152141 -2.80432e-05 -8.11375e-08
-2.80432e-05 0.000161096 -1.34086e-07
-8.11375e-08 -1.34086e-07 0.000165618

0.000128255 -2.51619e-05 -6.23012e-08
-2.51619e-05 0.000141696 -1.72986e-07
-6.23012e-08 -1.72986e-07 0.000126593

0.000126355 -2.55164e-05 -8.75426e-09
-2.55164e-05 0.000137614 1.83269e-07
-8.75426e-09 1.83269e-07 0.00012629

0.000164282 1.31356e-05 1.00901e-07
1.31356e-05 0.000139902 8.85263e-09
1.00901e-07 8.85263e-09 0.000152256

0.000195161 8.46803e-06 -3.28633e-08
8.46803e-06 0.000121512 -4.94166e-08
-3.28633e-08 -4.94166e-08 0.000175056

0.00019165 -1.31821e-05 -4.6322e-08
-1.31821e-05 0.000129784 6.529e-08
-4.6322e-08 6.529e-08 0.000173574

0.00011782 1.41189e-05 -3.3575e-08
1.41189e-05 0.000152075 2.54286e-09
-3.3575e-08 2.54286e-09 0.000129728

0.00010989 9.99356e-06 -4.95286e-09
9.99356e-06 0.000156311 -2.27404e-08
-4.95286e-09 -2.27404e-08 0.000131019

9.77365e-05 -2.04467e-06 2.9396e-09
-2.04467e-06 0.000141926 -8.44931e-08
2.9396e-09 -8.44931e-08 0.000113009

9.33261e-05 -2.99981e-06 1.16606e-07
-2.99981e-06 0.000143807 -4.5427e-08
1.16606e-07 -4.5427e-08 0.000113541

0.000142478 -1.40089e-06 4.11473e-08
-1.40089e-06 9.44633e-05 1.23429e-07
4.11473e-08 1.23429e-07 0.000111269

0.000137539 -2.32437e-05 6.35458e-08
-2.32437e-05 0.000124664 1.55854e-07
6.35458e-08 1.55854e-07 0.000126122

0.00018623 -1.70604e-05 -3.34446e-07
-1.70604e-05 0.00021171 7.60305e-08
-3.34446e-07 7.60305e-08 0.000190284

0.000235134 -6.12005e-06 -1.60934e-07
-6.12005e-06 0.000235755 -3.37034e-08
-1.60934e-07 -3.37034e-08 0.000188581

0.000144279 1.60353e-05 -2.91079e-08
1.60353e-05 0.000116944 -1.67807e-07
-2.91079e-08 -1.67807e-07 0.000126644

0.000156269 -1.1089e-05 -4.55811e-08
-1.1089e-05 0.000113334 6.8018e-09
-4.55811e-08 6.8018e-09 0.000129886

0.000121912 1.02789e-05 5.93013e-09
1.02789e-05 9.86675e-05 -1.82583e-07
5.93013e-09 -1.82583e-07 0.000103162

0.000130985 1.66165e-05 1.13538e-07
1.66165e-05 0.000164929 -6.93492e-08
1.13538e-07 -6.93492e-08 0.000156623

0.000185167 1.65529e-07 2.36243e-08
1.65529e-07 0.000126513 1.11798e-07
2.36243e-08 1.11798e-07 0.000156229

0.000150971 2.56913e-05 -5.10695e-08
2.56913e-05 0.000180496 -1.86868e-08
-5.10695e-08 -1.86868e-08 0.000172208

0.000134371 2.04284e-05 -6.24368e-08
2.04284e-05 0.000186292 7.66525e-08
-6.24368e-08 7.66525e-08 0.000173464

0.000116051 1.35012e-05 -1.2289e-07
1.35012e-05 0.000129804 3.58908e-08
-1.2289e-07 3.58908e-08 0.000114508

0.000124989 1.4504e-05 5.68656e-08
1.4504e-05 0.000121843 -1.14786e-07
5.68656e-08 -1.14786e-07 0.000112949

0.000145718 -3.07968e-05 -9.20478e-08
-3.07968e-05 0.000176034 -7.26779e-08
-9.20478e-08 -7.26779e-08 0.000164726

0.000123419 8.25679e-06 -1.2051e-07
8.25679e-06 9.80659e-05 1.74544e-07
-1.2051e-07 1.74544e-07 0.00010386

0.000139788 2.26748e-05 2.04719e-09
2.26748e-05 0.000163382 1.1361e-08
2.04719e-09 1.1361e-08 0.00016957

0.000141205 2.7449e-05 2.30265e-08
2.7449e-05 0.00016671 -2.99301e-08
2.30265e-08 -2.99301e-08 0.000154646

0.000196723 -3.14128e-07 -1.32706e-08
-3.14128e-07 0.000127238 1.56695e-08
-1.32706e-08 1.56695e-08 0.000167458

0.000146487 -2.09686e-05 -1.19376e-07
-2.09686e-05 0.00016328 -3.28299e-08
-1.19376e-07 -3.28299e-08 0.000169127

0.000147344 2.27855e-05 -1.15744e-07
2.27855e-05 0.000149344 -1.78583e-07
-1.15744e-07 -1.78583e-07 0.000145911

0.000115352 -1.10667e-05 6.41597e-08
-1.10667e-05 0.000146489 -1.19358e-07
6.41597e-08 -1.19358e-07 0.000120282

0.000108109 -1.04564e-05 -4.47648e-08
-1.04564e-05 0.000147506 4.64736e-08
-4.47648e-08 4.64736e-08 0.000120614

0.000144327 -7.59104e-06 1.2493e-07
-7.59104e-06 0.000112352 -5.33486e-08
1.2493e-07 -5.33486e-08 0.000118021

0.000137331 -2.06364e-05 7.01293e-08
-2.06364e-05 0.0001407 -2.76797e-08
7.01293e-08 -2.76797e-08 0.00013049

0.000122722 -1.04587e-06 -6.49468e-08
-1.04587e-06 0.000170659 5.58554e-08
-6.49468e-08 5.58554e-08 0.000144581

0.000136052 -1.93371e-07 -6.22027e-08
-1.93371e-07 0.000164169 3.40803e-08
-6.22027e-08 3.40803e-08 0.000143648

0.000112815 -2.23701e-05 -6.37983e-08
-2.23701e-05 0.000123006 1.53016e-07
-6.37983e-08 1.53016e-07 0.000108744

0.000107002 -2.18994e-05 8.34239e-08
-2.18994e-05 0.000126458 -2.29179e-07
8.34239e-08 -2.29179e-07 0.00010952

0.000195959 -1.17447e-06 5.19857e-08
-1.17447e-06 0.000131605 -8.32822e-08
5.19857e-08 -8.32822e-08 0.000167782

0.000197491 1.24683e-06 1.34187e-08
1.24683e-06 0.0001303 5.96926e-08
1.34187e-08 5.96926e-08 0.000167548

0.000139515 2.09175e-05 2.46926e-08
2.09175e-05 0.000159693 -3.13723e-08
2.46926e-08 -3.13723e-08 0.000158924

0.000134232 -1.73478e-05 -2.92323e-08
-1.73478e-05 0.0001853 3.02229e-08
-2.92323e-08 3.02229e-08 0.000172821

0.000163327 -2.72132e-05 -5.36449e-08
-2.72132e-05 0.000148288 1.40327e-07
-5.36449e-08 1.40327e-07 0.000160402

0.000173622 1.05258e-05 1.7551e-07
1.05258e-05 0.000161972 1.39064e-07
1.7551e-07 1.39064e-07 0.000173921

0.000176231 -3.12389e-06 1.07746e-07
-3.12389e-06 0.000166308 1.33392e-07
1.07746e-07 1.33392e-07 0.000173337

0.000168941 -1.12038e-05 1.03848e-07
-1.12038e-05 0.000155533 -7.13739e-08
1.03848e-07 -7.13739e-08 0.000160453

0.000168067 1.37189e-05 -1.28288e-07
1.37189e-05 0.00015015 -3.64449e-08
-1.28288e-07 -3.64449e-08 0.000161286

7.85059e-05 -1.16583e-05 -1.59314e-07
-1.16583e-05 5.34247e-05 -1.43808e-08
-1.59314e-07 -1.43808e-08 8.45236e-05

0.000124849 2.18829e-05 6.80392e-08
2.18829e-05 0.000137714 2.35444e-07
6.80392e-08 2.35444e-07 0.00012714

6.02983e-05 7.96436e-06 1.6962e-07
7.96436e-06 7.69481e-05 1.29986e-07
1.6962e-07 1.29986e-07 8.44344e-05

0.000145532 2.43762e-05 -2.19637e-08
2.43762e-05 0.000159697 -2.21187e-08
-2.19637e-08 -2.21187e-08 0.00015434

0.000118553 -1.72898e-05 3.1078e-08
-1.72898e-05 0.000155276 -2.14093e-08
3.1078e-08 -2.14093e-08 0.000131283

0.000110786 -1.56652e-05 2.55128e-09
-1.56652e-05 0.000156572 -7.5461e-08
2.55128e-09 -7.5461e-08 0.000131562

0.000193655 -5.01566e-06 -7.71401e-09
-5.01566e-06 0.000187633 4.24263e-07
-7.71401e-09 4.24263e-07 0.000186368

0.000184104 1.48625e-05 1.01062e-08
1.48625e-05 0.000201276 -2.68762e-07
1.01062e-08 -2.68762e-07 0.000186463

0.00015416 1.62412e-05 4.16326e-08
1.62412e-05 0.000140846 -2.12059e-08
4.16326e-08 -2.12059e-08 0.000147142

0.000167426 -1.91249e-06 -3.18969e-08
-1.91249e-06 0.000120244 1.47859e-08
-3.18969e-08 1.47859e-08 0.000138355

0.000137345 1.79958e-05 1.15044e-07
1.79958e-05 0.000121354 -7.82411e-08
1.15044e-07 -7.82411e-08 0.000125664

0.00012765 -1.09111e-05 -2.08144e-08
-1.09111e-05 0.000181477 4.69073e-09
-2.08144e-08 4.69073e-09 0.000159372

0.000140071 -1.7498e-05 -2.79913e-08
-1.7498e-05 0.000170888 2.44787e-08
-2.79913e-08 2.44787e-08 0.000158588

0.000145288 -3.16217e-05 -8.76232e-08
-3.16217e-05 0.000184588 -8.56676e-08
-8.76232e-08 -8.56676e-08 0.000167117

0.00015382 -1.76095e-05 -1.23513e-07
-1.76095e-05 0.00014673 -6.7445e-08
-1.23513e-07 -6.7445e-08 0.000146317

0.000145487 2.97002e-05 7.11457e-08
2.97002e-05 0.00017739 6.78046e-09
7.11457e-08 6.78046e-09 0.000166922

0.000168466 1.36667e-05 8.37984e-08
1.36667e-05 0.000187031 6.70902e-08
8.37984e-08 6.70902e-08 0.00017703

0.000170547 2.07827e-05 -6.22219e-08
2.07827e-05 0.000181054 -1.79576e-08
-6.22219e-08 -1.79576e-08 0.000176808

0.00014167 -2.75588e-05 2.32028e-09
-2.75588e-05 0.000173618 -1.28591e-07
2.32028e-09 -1.28591e-07 0.00015743

0.000144649 2.48974e-05 -2.48356e-08
2.48974e-05 0.000168171 -1.1369e-08
-2.48356e-08 -1.1369e-08 0.000157054

0.000126438 3.16285e-05 4.07895e-08
3.16285e-05 0.000170675 -5.32917e-08
4.07895e-08 -5.32917e-08 0.000169272

0.000113355 2.87924e-06 -2.56609e-08
2.87924e-06 0.000169156 3.45632e-08
-2.56609e-08 3.45632e-08 0.000140796

0.000121757 7.06463e-06 -4.05836e-08
7.06463e-06 0.000160501 2.2354e-08
-4.05836e-08 2.2354e-08 0.000139517

0.000151913 1.98368e-05 2.03379e-09
1.98368e-05 0.000148715 -5.53459e-08
2.03379e-09 -5.53459e-08 0.000155761

0.000137038 1.62164e-05 1.31594e-07
1.62164e-05 0.000135393 1.65378e-07
1.31594e-07 1.65378e-07 0.00013156

0.000124738 -1.64574e-05 -7.04598e-08
-1.64574e-05 0.000165805 1.4018e-07
-7.04598e-08 1.4018e-07 0.000148852

0.000150562 -2.9716e-05 2.98773e-08
-2.9716e-05 0.000183339 7.88909e-08
2.98773e-08 7.88909e-08 0.000171215

8.78404e-05 9.69249e-06 -9.63202e-08
9.69249e-06 0.000102117 1.02407e-08
-9.63202e-08 1.02407e-08 8.91023e-05

9.83948e-05 1.05816e-05 -5.35844e-08
1.05816e-05 9.04407e-05 -3.12533e-08
-5.35844e-08 -3.12533e-08 8.91124e-05

0.000117922 -2.20269e-05 1.18204e-07
-2.20269e-05 0.000122465 -2.08549e-07
1.18204e-07 -2.08549e-07 0.000111839

0.000151354 -2.03687e-05 -8.67235e-08
-2.03687e-05 0.000153252 -9.89044e-08
-8.67235e-08 -9.89044e-08 0.000154703

0.000172888 -6.33061e-06 -1.17366e-07
-6.33061e-06 0.000123433 6.12649e-08
-1.17366e-07 6.12649e-08 0.000148938

0.00020426 2.27964e-05 -1.15768e-07
2.27964e-05 0.000215523 2.36087e-07
-1.15768e-07 2.36087e-07 0.000190583

0.00022426 -2.28474e-05 9.94935e-07
-2.28474e-05 0.00019196 1.03827e-07
9.94935e-07 1.03827e-07 0.000190647

0.000140439 -3.01683e-05 5.22508e-08
-3.01683e-05 0.000171363 -1.0421e-07
5.22508e-08 -1.0421e-07 0.000155794

0.000188986 5.21031e-06 6.7178e-08
5.21031e-06 0.000175959 -4.78645e-08
6.7178e-08 -4.78645e-08 0.00018413

0.000192671 -2.3402e-05 -2.5586e-08
-2.3402e-05 0.000193545 8.14102e-09
-2.5586e-08 8.14102e-09 0.000182761

0.000171772 -7.76945e-06 -5.84835e-08
-7.76945e-06 0.000126299 -1.07161e-07
-5.84835e-08 -1.07161e-07 0.000156315

0.000132309 -3.15506e-05 -8.22887e-08
-3.15506e-05 0.000167644 2.93419e-08
-8.22887e-08 2.93419e-08 0.00016861

9.28917e-05 -1.92819e-05 -1.66662e-07
-1.92819e-05 0.000102278 -2.13419e-08
-1.66662e-07 -2.13419e-08 9.29641e-05

9.88382e-05 1.44553e-05 6.62206e-08
1.44553e-05 9.90369e-05 -1.8018e-07
6.62206e-08 -1.8018e-07 9.33613e-05

9.20719e-05 -1.13518e-05 1.31987e-07
-1.13518e-05 0.000119565 -1.77368e-08
1.31987e-07 -1.77368e-08 9.86519e-05

9.3879e-05 -1.2661e-05 -1.63059e-07
-1.2661e-05 0.000121228 2.11287e-08
-1.63059e-07 2.11287e-08 0.000100433

0.000121283 -9.20532e-06 -1.47891e-07
-9.20532e-06 9.12771e-05 3.55685e-08
-1.47891e-07 3.55685e-08 9.83082e-05

0.000122929 1.69184e-05 2.30371e-08
1.69184e-05 0.000119745 -1.50953e-07
2.30371e-08 -1.50953e-07 0.000113219

0.000144031 -3.34831e-05 -2.81258e-08
-3.34831e-05 0.000181861 1.15109e-08
-2.81258e-08 1.15109e-08 0.000166472

8.08112e-05 1.17467e-06 -1.43017e-07
1.17467e-06 0.000115823 1.08617e-07
-1.43017e-07 1.08617e-07 9.31423e-05

0.000113873 -5.1538e-06 -1.11843e-07
-5.1538e-06 8.00145e-05 1.84227e-07
-1.11843e-07 1.84227e-07 9.36713e-05

0.000173626 2.46512e-06 4.08734e-08
2.46512e-06 0.000208814 1.10292e-07
4.08734e-08 1.10292e-07 0.000181816

0.000177218 -1.36362e-05 -7.43748e-08
-1.36362e-05 0.000190075 -8.33801e-08
-7.43748e-08 -8.33801e-08 0.000182331

0.000178799 -1.55276e-05 -3.57408e-08
-1.55276e-05 0.000146754 1.42712e-07
-3.57408e-08 1.42712e-07 0.000164338

0.00018489 -9.68387e-07 1.16363e-07
-9.68387e-07 0.00011006 7.17459e-09
1.16363e-07 7.17459e-09 0.000169067

0.00010565 -1.67123e-05 3.91175e-08
-1.67123e-05 0.000136 1.47561e-07
3.91175e-08 1.47561e-07 0.000116981

0.000110959 -1.65949e-05 -1.44604e-08
-1.65949e-05 0.000139549 -2.13336e-07
-1.44604e-08 -2.13336e-07 0.000117357

0.000174564 -8.33158e-07 -4.81966e-08
-8.33158e-07 0.00012565 -5.55807e-08
-4.81966e-08 -5.55807e-08 0.000157299

0.00013159 -2.3091e-05 -1.76491e-07
-2.3091e-05 0.000165705 7.43157e-08
-1.76491e-07 7.43157e-08 0.00014841

0.000190188 7.71045e-07 1.86863e-07
7.71045e-07 0.000178809 1.94962e-07
1.86863e-07 1.94962e-07 0.000182704

0.000181639 6.86357e-06 -8.22784e-08
6.86357e-06 0.000185846 -3.77632e-07
-8.22784e-08 -3.77632e-07 0.000182934

0.000167463 -2.20063e-05 -6.51901e-08
-2.20063e-05 0.000153425 1.32551e-07
-6.51901e-08 1.32551e-07 0.000162666

0.000143322 -2.27085e-05 -6.07995e-08
-2.27085e-05 0.000158028 -1.4366e-07
-6.07995e-08 -1.4366e-07 0.000157633

0.000178844 -1.55362e-05 -2.58053e-08
-1.55362e-05 0.000129263 -5.43811e-08
-2.58053e-08 -5.43811e-08 0.000161093

0.00013504 -1.9435e-05 1.68354e-07
-1.9435e-05 0.000165927 7.18931e-09
1.68354e-07 7.18931e-09 0.000156623

7.44263e-05 -3.76607e-05 -9.38458e-08
-3.76607e-05 7.83025e-05 -1.09887e-07
-9.38458e-08 -1.09887e-07 7.81286e-05

0.000125475 -8.63976e-06 7.83162e-08
-8.63976e-06 0.00015953 8.3578e-08
7.83162e-08 8.3578e-08 0.000139915

0.000116623 -6.86719e-06 8.81291e-08
-6.86719e-06 0.000167315 1.09776e-07
8.81291e-08 1.09776e-07 0.000140711

0.000167043 -3.16779e-06 3.76078e-08
-3.16779e-06 0.000221125 2.89624e-07
3.76078e-08 2.89624e-07 0.000182716

0.000178403 -3.73743e-06 4.62276e-08
-3.73743e-06 0.000187907 -2.398e-07
4.62276e-08 -2.398e-07 0.000183637

0.000198594 -1.95474e-06 4.87387e-08
-1.95474e-06 0.000136782 1.35531e-08
4.87387e-08 1.35531e-08 0.00017299

0.000194342 9.77703e-07 1.1281e-07
9.77703e-07 0.000139963 -3.99992e-09
1.1281e-07 -3.99992e-09 0.000173217

0.000170411 1.62725e-05 4.2595e-08
1.62725e-05 0.000161821 8.65348e-08
4.2595e-08 8.65348e-08 0.00017267

0.000175681 -2.88411e-05 2.71406e-07
-2.88411e-05 0.000157992 -2.32426e-08
2.71406e-07 -2.32426e-08 0.000171061

0.000188392 5.39342e-06 6.51977e-08
5.39342e-06 0.000185129 -3.94434e-08
6.51977e-08 -3.94434e-08 0.000182166

0.000199046 -1.07188e-05 -2.728e-08
-1.07188e-05 0.000184961 8.69319e-10
-2.728e-08 8.69319e-10 0.000181211

0.000203685 -1.24643e-05 -4.10981e-07
-1.24643e-05 0.000193245 2.15842e-08
-4.10981e-07 2.15842e-08 0.000189254

0.000200281 3.45278e-05 2.00024e-07
3.45278e-05 0.000214164 2.17614e-07
2.00024e-07 2.17614e-07 0.000189268

0.000152086 -3.04014e-05 8.40953e-08
-3.04014e-05 0.00018382 -1.20294e-07
8.40953e-08 -1.20294e-07 0.000172476

0.000144053 3.75628e-05 6.14586e-08
3.75628e-05 0.00016967 2.43117e-08
6.14586e-08 2.43117e-08 0.000174681

0.000155168 1.50915e-05 9.95709e-09
1.50915e-05 0.000130251 1.23836e-07
9.95709e-09 1.23836e-07 0.000143975

0.00012727 -1.31045e-05 7.1313e-09
-1.31045e-05 0.000169113 1.91043e-07
7.1313e-09 1.91043e-07 0.000150161

0.000139434 -1.96867e-05 -2.78387e-09
-1.96867e-05 0.000167057 1.71702e-07
-2.78387e-09 1.71702e-07 0.000149325

0.000155084 -1.58747e-05 -8.17109e-08
-1.58747e-05 0.000134362 1.32777e-07
-8.17109e-08 1.32777e-07 0.00014352

0.000139228 1.49537e-05 -4.37409e-08
1.49537e-05 0.000164053 2.0855e-08
-4.37409e-08 2.0855e-08 0.000148436

0.000126647 8.73549e-06 -8.55881e-08
8.73549e-06 0.000171406 -1.28483e-09
-8.55881e-08 -1.28483e-09 0.000149811

0.000140991 2.04666e-05 -6.88246e-08
2.04666e-05 0.000139719 -3.30516e-10
-6.88246e-08 -3.30516e-10 0.000141708

0.000156237 2.4876e-05 -9.28955e-08
2.4876e-05 0.000177986 -1.09731e-07
-9.28955e-08 -1.09731e-07 0.000173479

0.000154284 -3.36547e-05 1.53929e-07
-3.36547e-05 0.000169332 -1.03656e-07
1.53929e-07 -1.03656e-07 0.000173864

0.000142942 -2.52077e-05 7.58197e-08
-2.52077e-05 0.000144408 -3.2629e-08
7.58197e-08 -3.2629e-08 0.000140793

0.000180335 7.81615e-06 5.55145e-08
7.81615e-06 0.000147882 -1.49941e-07
5.55145e-08 -1.49941e-07 0.000167492

0.000234631 -1.25199e-05 2.82839e-07
-1.25199e-05 0.000231451 -5.725e-08
2.82839e-07 -5.725e-08 0.000188218

0.000191377 7.28815e-06 -1.37455e-07
7.28815e-06 0.000198374 1.70691e-07
-1.37455e-07 1.70691e-07 0.000190008

0.000151617 -2.53131e-05 1.17403e-07
-2.53131e-05 0.000176178 -7.47419e-08
1.17403e-07 -7.47419e-08 0.000163776

0.000167051 -2.5312e-05 -6.52058e-08
-2.5312e-05 0.000141317 1.32328e-07
-6.52058e-08 1.32328e-07 0.000158667

0.00019422 -2.25979e-06 -9.71821e-08
-2.25979e-06 0.000167035 -5.48271e-08
-9.71821e-08 -5.48271e-08 0.000177846

9.35427e-05 -1.73605e-05 1.14652e-07
-1.73605e-05 0.000101111 1.46805e-07
1.14652e-07 1.46805e-07 9.00977e-05

0.000102239 -1.58685e-05 3.27342e-08
-1.58685e-05 9.07977e-05 4.244e-08
3.27342e-08 4.244e-08 9.04555e-05

0.000199148 1.78211e-06 9.3534e-08
1.78211e-06 0.000145206 6.91715e-08
9.3534e-08 6.91715e-08 0.000175649

0.000191514 -1.15081e-06 9.99346e-08
-1.15081e-06 0.000148883 1.11462e-08
9.99346e-08 1.11462e-08 0.000175795

0.000197621 -5.5999e-07 -6.00008e-08
-5.5999e-07 0.000154513 4.37405e-08
-6.00008e-08 4.37405e-08 0.000179404

0.000154137 1.08249e-05 -9.88077e-08
1.08249e-05 0.000124182 3.83629e-08
-9.88077e-08 3.83629e-08 0.000132646

0.000162466 -1.66311e-05 -1.33042e-07
-1.66311e-05 0.000175009 -2.27305e-07
-1.33042e-07 -2.27305e-07 0.000168517

0.000162458 1.90764e-05 5.24523e-08
1.90764e-05 0.000163892 7.72667e-08
5.24523e-08 7.72667e-08 0.000169645

0.000221101 -1.80461e-05 -1.24001e-07
-1.80461e-05 0.000180802 3.92041e-07
-1.24001e-07 3.92041e-07 0.000190476

0.000222592 -1.87416e-06 -7.32082e-08
-1.87416e-06 0.000241076 4.36018e-07
-7.32082e-08 4.36018e-07 0.000188553

0.000140927 -2.84009e-05 5.28432e-08
-2.84009e-05 0.000175426 -1.00771e-07
5.28432e-08 -1.00771e-07 0.000161897

0.000164432 -1.99062e-05 7.76389e-08
-1.99062e-05 0.000134501 2.14038e-08
7.76389e-08 2.14038e-08 0.000149677

0.000182185 4.29848e-06 5.34662e-08
4.29848e-06 0.00016552 2.69131e-07
5.34662e-08 2.69131e-07 0.000174711

0.000186851 5.52153e-07 -7.21723e-08
5.52153e-07 0.00016193 -6.01352e-08
-7.21723e-08 -6.01352e-08 0.000174337

0.000141746 -1.12115e-05 2.08377e-07
-1.12115e-05 0.000175019 -1.554e-07
2.08377e-07 -1.554e-07 0.000164995

0.000139803 -2.10455e-05 -3.40639e-08
-2.10455e-05 0.000165074 2.36804e-08
-3.40639e-08 2.36804e-08 0.000167932

8.04471e-05 3.16591e-05 1.25931e-07
3.16591e-05 7.46964e-05 4.09345e-08
1.25931e-07 4.09345e-08 7.88323e-05

0.000163084 1.67819e-05 -1.3619e-07
1.67819e-05 0.000183748 -2.62786e-08
-1.3619e-07 -2.62786e-08 0.000176973

0.000162353 -2.19202e-05 2.14735e-07
-2.19202e-05 0.000183227 2.28755e-08
2.14735e-07 2.28755e-08 0.000176446

0.000134634 -2.00456e-05 1.32019e-07
-2.00456e-05 0.000170307 -1.78604e-07
1.32019e-07 -1.78604e-07 0.000163554

0.000156507 -1.34486e-05 -5.21767e-08
-1.34486e-05 0.000129492 1.0883e-07
-5.21767e-08 1.0883e-07 0.000133628

0.000165769 1.44896e-05 -2.41233e-08
1.44896e-05 0.000161494 4.23865e-08
-2.41233e-08 4.23865e-08 0.000164353

0.000170082 1.54338e-05 2.62906e-08
1.54338e-05 0.000172808 1.47966e-07
2.62906e-08 1.47966e-07 0.000173322

0.000179446 -2.29836e-05 2.65728e-07
-2.29836e-05 0.000159929 -3.99166e-08
2.65728e-07 -3.99166e-08 0.000172682

0.000180279 6.1607e-06 6.06891e-08
6.1607e-06 0.000129266 1.21469e-07
6.06891e-08 1.21469e-07 0.000164155

0.000189988 -2.49714e-06 1.0078e-07
-2.49714e-06 0.000173204 1.53452e-08
1.0078e-07 1.53452e-08 0.00018091

0.000197367 4.32726e-06 1.4645e-07
4.32726e-06 0.000163926 -1.93835e-07
1.4645e-07 -1.93835e-07 0.000180832

0.000187069 7.30806e-06 2.10437e-07
7.30806e-06 0.000240241 1.62903e-08
2.10437e-07 1.62903e-08 0.000187037

0.000185404 1.31411e-06 -7.82186e-08
1.31411e-06 0.000216672 1.10523e-07
-7.82186e-08 1.10523e-07 0.000188588

8.0598e-05 -8.19486e-06 9.41663e-08
-8.19486e-06 5.97271e-05 -1.11212e-07
9.41663e-08 -1.11212e-07 8.45107e-05

5.33472e-05 -5.50842e-06 -6.92959e-08
-5.50842e-06 8.43371e-05 -1.68179e-07
-6.92959e-08 -1.68179e-07 8.44911e-05

0.000151284 -2.51111e-05 1.46121e-07
-2.51111e-05 0.000181676 2.11658e-07
1.46121e-07 2.11658e-07 0.000166817

0.000151109 2.2154e-05 -2.74026e-08
2.2154e-05 0.000163706 -4.88979e-08
-2.74026e-08 -4.88979e-08 0.000168627

0.00014499 -3.35296e-05 -2.93937e-08
-3.35296e-05 0.000181855 1.16889e-08
-2.93937e-08 1.16889e-08 0.000165919

7.52935e-05 8.92688e-06 1.36339e-07
8.92688e-06 7.47092e-05 1.32754e-07
1.36339e-07 1.32754e-07 8.28178e-05

7.85874e-05 1.27317e-05 4.03091e-08
1.27317e-05 6.89031e-05 2.7731e-08
4.03091e-08 2.7731e-08 8.30015e-05

0.000157784 2.64975e-05 5.51648e-07
2.64975e-05 0.000247157 -3.70254e-07
5.51648e-07 -3.70254e-07 0.000191261

0.000184944 -2.18996e-05 1.45939e-07
-2.18996e-05 0.000226131 -6.67477e-07
1.45939e-07 -6.67477e-07 0.000191314

0.000157061 2.01459e-05 4.01302e-08
2.01459e-05 0.000158216 -1.30544e-08
4.01302e-08 -1.30544e-08 0.00016156

0.000140972 -2.38531e-05 1.29522e-07
-2.38531e-05 0.000154801 5.92041e-08
1.29522e-07 5.92041e-08 0.000144613

0.000151359 -2.42929e-05 1.93711e-07
-2.42929e-05 0.000170042 -5.72548e-08
1.93711e-07 -5.72548e-08 0.000164087

0.00015193 2.45619e-05 -3.0829e-09
2.45619e-05 0.000161034 1.06144e-07
-3.0829e-09 1.06144e-07 0.000165527

0.000141786 -2.79158e-05 4.81057e-08
-2.79158e-05 0.000164149 1.67242e-07
4.81057e-08 1.67242e-07 0.000153006

0.000139305 1.88909e-05 -6.53961e-08
1.88909e-05 0.000149938 -6.15516e-09
-6.53961e-08 -6.15516e-09 0.00014566

9.11853e-05 -1.03178e-05 1.37727e-07
-1.03178e-05 0.000121729 5.15138e-08
1.37727e-07 5.15138e-08 0.00010082

9.58915e-05 -8.99547e-06 9.15122e-09
-8.99547e-06 0.000120562 -5.1046e-08
9.15122e-09 -5.1046e-08 9.99908e-05

0.000121957 -6.98887e-06 -1.3749e-07
-6.98887e-06 9.33139e-05 9.88427e-08
-1.3749e-07 9.88427e-08 9.93912e-05

0.000139413 2.14297e-05 8.65499e-10
2.14297e-05 0.000157145 9.09005e-08
8.65499e-10 9.09005e-08 0.000154272

8.14244e-05 -9.54272e-07 1.26903e-07
-9.54272e-07 0.000113812 6.54723e-08
1.26903e-07 6.54723e-08 9.35124e-05

0.000112759 1.85786e-06 1.27386e-07
1.85786e-06 8.49019e-05 -1.28731e-07
1.27386e-07 -1.28731e-07 9.30282e-05

0.000158327 -2.31972e-05 -1.76965e-07
-2.31972e-05 0.000180548 2.80173e-07
-1.76965e-07 2.80173e-07 0.000172722

0.000160048 2.78435e-05 -1.66591e-07
2.78435e-05 0.000165572 -7.58049e-08
-1.66591e-07 -7.58049e-08 0.000174241

0.000160887 -1.86128e-05 -2.75638e-07
-1.86128e-05 0.000182011 -5.67021e-08
-2.75638e-07 -5.67021e-08 0.000174121

0.000161084 2.42504e-05 -1.43853e-07
2.42504e-05 0.000178034 -1.54627e-07
-1.43853e-07 -1.54627e-07 0.000175168

7.06419e-05 -1.70052e-05 -1.04452e-07
-1.70052e-05 7.33878e-05 4.60869e-09
-1.04452e-07 4.60869e-09 8.14738e-05

6.98944e-05 -1.58419e-05 -1.06069e-07
-1.58419e-05 7.46004e-05 -1.08841e-07
-1.06069e-07 -1.08841e-07 8.17148e-05

0.000151595 2.0809e-05 -1.55334e-08
2.0809e-05 0.00015582 9.72079e-08
-1.55334e-08 9.72079e-08 0.000158939

0.000150825 -2.21326e-05 -6.30916e-08
-2.21326e-05 0.000167248 1.24784e-07
-6.30916e-08 1.24784e-07 0.000157571

0.000183566 -6.03005e-06 2.23844e-07
-6.03005e-06 0.000209769 9.9638e-08
2.23844e-07 9.9638e-08 0.000183961

0.000183444 -6.98125e-06 -1.09086e-07
-6.98125e-06 0.000189279 -8.13591e-08
-1.09086e-07 -8.13591e-08 0.000185102

0.000155571 -2.40613e-05 7.40093e-08
-2.40613e-05 0.000191569 -1.49154e-07
7.40093e-08 -1.49154e-07 0.00017599

0.000150099 2.58087e-05 5.89187e-09
2.58087e-05 0.00018414 1.97743e-07
5.89187e-09 1.97743e-07 0.000177417

0.000190227 -9.06809e-09 1.44084e-07
-9.06809e-09 0.000161315 -1.95141e-07
1.44084e-07 -1.95141e-07 0.000180452

0.000182195 5.38802e-06 -1.40236e-07
5.38802e-06 0.000166874 1.48366e-07
-1.40236e-07 1.48366e-07 0.000180671

0.000155979 2.24006e-05 1.16054e-07
2.24006e-05 0.000171891 1.41599e-07
1.16054e-07 1.41599e-07 0.000167407

0.00015977 -2.37815e-05 2.90347e-09
-2.37815e-05 0.000160011 -3.04824e-08
2.90347e-09 -3.04824e-08 0.000166591

0.000176219 -9.72767e-06 -9.95649e-08
-9.72767e-06 0.00020823 1.60854e-07
-9.95649e-08 1.60854e-07 0.000185984

0.000198805 9.53045e-06 4.87543e-08
9.53045e-06 0.000185905 -5.0722e-08
4.87543e-08 -5.0722e-08 0.000186368

0.00021263 -2.33583e-05 -2.00745e-07
-2.33583e-05 0.000195852 1.18392e-07
-2.00745e-07 1.18392e-07 0.000185063

0.000174821 -4.48839e-06 5.19724e-08
-4.48839e-06 0.000231312 2.68235e-09
5.19724e-08 2.68235e-09 0.000184985

0.000192348 6.8194e-06 1.01607e-07
6.8194e-06 0.000185773 1.59611e-08
1.01607e-07 1.59611e-08 0.000186014

0.000179798 -1.45239e-07 5.66276e-07
-1.45239e-07 0.000209411 -4.14043e-07
5.66276e-07 -4.14043e-07 0.000189304

0.000203596 -7.53274e-06 -8.31907e-08
-7.53274e-06 0.000178138 -2.2796e-08
-8.31907e-08 -2.2796e-08 0.000186011

0.000201869 -2.90966e-06 5.60224e-07
-2.90966e-06 0.000188173 5.72619e-07
5.60224e-07 5.72619e-07 0.000189295

0.000186297 -1.43572e-05 5.35012e-07
-1.43572e-05 0.000203668 -9.59613e-07
5.35012e-07 -9.59613e-07 0.000187689

0.000193611 3.05605e-05 -1.03372e-06
3.05605e-05 0.000217374 -1.53754e-06
-1.03372e-06 -1.53754e-06 0.000187968

0.000247956 -2.86274e-06 -2.08975e-06
-2.86274e-06 0.000253096 1.56435e-06
-2.08975e-06 1.56435e-06 0.00019132

0.00027657 -2.129e-05 4.45289e-06
-2.129e-05 0.000149448 2.25617e-06
4.45289e-06 2.25617e-06 0.000191431

0.000194347 -1.70331e-05 -2.38633e-07
-1.70331e-05 0.000193286 2.13069e-07
-2.38633e-07 2.13069e-07 0.000186202

0.000174187 -1.19916e-05 2.56544e-07
-1.19916e-05 0.000195449 -1.14834e-07
2.56544e-07 -1.14834e-07 0.000181781

0.000202838 2.95534e-05 2.22301e-07
2.95534e-05 0.000193119 3.66332e-07
2.22301e-07 3.66332e-07 0.000186574

0.000177197 1.6269e-05 -2.38439e-08
1.6269e-05 0.000186769 2.03335e-07
-2.38439e-08 2.03335e-07 0.000182485

0.000199329 3.39359e-05 2.27746e-07
3.39359e-05 0.000227797 3.41123e-07
2.27746e-07 3.41123e-07 0.000190012

0.000200143 -4.08624e-06 -3.44218e-07
-4.08624e-06 0.000188902 -2.75866e-07
-3.44218e-07 -2.75866e-07 0.000190029

0.000174001 -1.06766e-05 2.62754e-07
-1.06766e-05 0.000191102 -1.90922e-07
2.62754e-07 -1.90922e-07 0.000183349

0.000193255 -6.49042e-06 -9.2042e-08
-6.49042e-06 0.000191842 -3.01417e-07
-9.2042e-08 -3.01417e-07 0.000186994

0.000178952 2.73561e-05 -4.03955e-08
2.73561e-05 0.000194943 5.23912e-10
-4.03955e-08 5.23912e-10 0.000183761

0.000183205 1.88145e-05 -2.04649e-08
1.88145e-05 0.000199851 -5.68312e-09
-2.04649e-08 -5.68312e-09 0.000187105

0.00013928 5.97597e-06 1.06647e-07
5.97597e-06 0.000185154 -2.35949e-08
1.06647e-07 -2.35949e-08 0.000164722

0.00017278 -2.50058e-06 1.34856e-07
-2.50058e-06 0.000185569 1.57002e-08
1.34856e-07 1.57002e-08 0.000175336

0.000173687 6.21868e-06 -1.08309e-07
6.21868e-06 0.00012327 -8.37974e-08
-1.08309e-07 -8.37974e-08 0.000147378

0.000166765 1.29478e-06 7.18546e-08
1.29478e-06 0.00011987 2.24435e-08
7.18546e-08 2.24435e-08 0.000136907

0.000139012 6.91339e-06 9.53009e-08
6.91339e-06 0.000199507 1.08381e-07
9.53009e-08 1.08381e-07 0.000174334

0.000173513 2.04101e-06 1.40035e-07
2.04101e-06 0.000192065 7.59265e-08
1.40035e-07 7.59265e-08 0.00018692

0.000167751 -2.57403e-06 8.05411e-08
-2.57403e-06 0.000120113 -4.54623e-08
8.05411e-08 -4.54623e-08 0.000138157

0.000191754 -1.2407e-06 -6.95521e-08
-1.2407e-06 0.000135792 3.44425e-08
-6.95521e-08 3.44425e-08 0.00016686

9.85618e-05 -1.43221e-05 9.7019e-09
-1.43221e-05 0.000130152 -1.33845e-07
9.7019e-09 -1.33845e-07 0.000108653

0.000111064 2.32023e-05 1.19022e-08
2.32023e-05 0.000135592 1.37426e-07
1.19022e-08 1.37426e-07 0.000112608

0.000128447 2.20019e-05 1.47939e-07
2.20019e-05 0.000104104 1.18053e-07
1.47939e-07 1.18053e-07 0.000110685

0.000178326 2.64945e-05 -1.26948e-07
2.64945e-05 0.000194172 1.34315e-07
-1.26948e-07 1.34315e-07 0.000183333

0.000165102 -9.15584e-06 1.68689e-07
-9.15584e-06 0.000192569 1.07717e-07
1.68689e-07 1.07717e-07 0.000177361

0.00015242 2.28408e-05 1.0298e-07
2.28408e-05 0.000164539 -1.60985e-07
1.0298e-07 -1.60985e-07 0.000152276

0.000164428 1.99255e-05 -1.70754e-07
1.99255e-05 0.000191322 1.07684e-07
-1.70754e-07 1.07684e-07 0.000181015

0.000136323 -6.61354e-06 -4.7407e-09
-6.61354e-06 0.000200114 2.13148e-07
-4.7407e-09 2.13148e-07 0.000173648

0.000176878 -4.50513e-06 -9.57002e-08
-4.50513e-06 0.000127774 4.25021e-08
-9.57002e-08 4.25021e-08 0.000156331

0.000119837 1.03975e-05 4.40195e-08
1.03975e-05 0.000152652 7.67029e-08
4.40195e-08 7.67029e-08 0.000122566

0.000105572 -2.75819e-06 4.38072e-08
-2.75819e-06 0.000148714 -6.83659e-08
4.38072e-08 -6.83659e-08 0.000119158

0.000147375 1.0871e-05 2.04488e-07
1.0871e-05 0.00011059 8.16249e-08
2.04488e-07 8.16249e-08 0.000119739

0.000152921 -1.13626e-05 1.18359e-08
-1.13626e-05 0.000115251 -7.56773e-08
1.18359e-08 -7.56773e-08 0.000129074

0.000127522 1.92277e-05 1.10481e-07
1.92277e-05 0.000157695 -1.14665e-08
1.10481e-07 -1.14665e-08 0.000139715

0.000151569 -1.42761e-05 -4.29766e-08
-1.42761e-05 0.000162304 1.51751e-08
-4.29766e-08 1.51751e-08 0.000147264

0.000175793 -7.33558e-06 1.84212e-09
-7.33558e-06 0.000122637 -1.39198e-08
1.84212e-09 -1.39198e-08 0.000149351

0.000105708 1.4498e-05 -1.13592e-07
1.4498e-05 0.000121748 -9.62945e-08
-1.13592e-07 -9.62945e-08 0.000100492

0.000188469 1.33059e-06 2.5784e-07
1.33059e-06 0.000130669 -8.9394e-09
2.5784e-07 -8.9394e-09 0.000163165

0.000116778 1.62684e-05 -1.22053e-07
1.62684e-05 0.000101356 -3.53808e-08
-1.22053e-07 -3.53808e-08 9.94435e-05

0.000165259 2.03589e-06 -6.87829e-08
2.03589e-06 0.000199333 1.72162e-07
-6.87829e-08 1.72162e-07 0.000177894

0.000187059 9.29587e-06 -2.24483e-08
9.29587e-06 0.000195658 1.27683e-08
-2.24483e-08 1.27683e-08 0.00018827

0.000197506 -2.35713e-05 2.1998e-07
-2.35713e-05 0.000200638 1.73702e-07
2.1998e-07 1.73702e-07 0.000188698

0.000207004 1.03981e-05 -2.35836e-07
1.03981e-05 0.000191206 -1.01036e-08
-2.35836e-07 -1.01036e-08 0.000188714

0.000145563 -2.93647e-06 2.26242e-08
-2.93647e-06 0.00010843 -8.13416e-08
2.26242e-08 -8.13416e-08 0.000115858

0.000145582 2.75624e-05 -2.12228e-08
2.75624e-05 0.00016135 -6.25777e-08
-2.12228e-08 -6.25777e-08 0.000150691

0.000183273 3.89089e-06 1.14786e-07
3.89089e-06 0.000177955 -6.63762e-08
1.14786e-07 -6.63762e-08 0.000177806

0.000177568 -1.24613e-05 8.42361e-08
-1.24613e-05 0.000174476 1.64789e-07
8.42361e-08 1.64789e-07 0.000178994

0.00019689 -1.63147e-06 -1.30931e-07
-1.63147e-06 0.000130915 8.22801e-09
-1.30931e-07 8.22801e-09 0.000167287

0.000126758 2.26495e-05 -2.83194e-08
2.26495e-05 0.00014993 1.73554e-07
-2.83194e-08 1.73554e-07 0.000138326

0.000143902 -2.05459e-05 -1.66155e-08
-2.05459e-05 0.000159212 5.03166e-08
-1.66155e-08 5.03166e-08 0.000145556

0.000151609 -1.48186e-05 3.50854e-08
-1.48186e-05 0.000127289 7.89064e-08
3.50854e-08 7.89064e-08 0.000132719

0.000192025 -3.32337e-06 -7.27352e-08
-3.32337e-06 0.000127401 8.90897e-08
-7.27352e-08 8.90897e-08 0.00016378

0.000134721 2.6881e-05 -7.97723e-08
2.6881e-05 0.000162031 -8.13653e-08
-7.97723e-08 -8.13653e-08 0.000139

0.000125282 -1.84997e-05 -1.24375e-07
-1.84997e-05 0.000148844 -3.63953e-08
-1.24375e-07 -3.63953e-08 0.000136755

0.000137263 2.50604e-05 -1.09877e-07
2.50604e-05 0.000163308 -5.67731e-08
-1.09877e-07 -5.67731e-08 0.000141029

0.000123 -1.47134e-05 -5.99175e-08
-1.47134e-05 0.000159606 3.2817e-08
-5.99175e-08 3.2817e-08 0.000138563

0.000173712 -1.26357e-05 -8.4997e-08
-1.26357e-05 0.000184127 -4.98035e-08
-8.4997e-08 -4.98035e-08 0.000178668

0.00013462 1.71617e-05 3.37857e-08
1.71617e-05 0.000177832 3.83974e-09
3.37857e-08 3.83974e-09 0.000164447

0.000134389 -2.14693e-05 -2.44893e-07
-2.14693e-05 0.00012627 5.47594e-08
-2.44893e-07 5.47594e-08 0.000124813

8.43666e-05 -1.93234e-05 2.34946e-07
-1.93234e-05 8.17514e-05 -5.3966e-08
2.34946e-07 -5.3966e-08 8.23526e-05

7.60362e-05 -2.0541e-05 -1.51811e-08
-2.0541e-05 8.62776e-05 -8.23225e-08
-1.51811e-08 -8.23225e-08 8.20962e-05

0.00015872 3.21865e-05 2.56918e-08
3.21865e-05 0.000192673 7.65281e-08
2.56918e-08 7.65281e-08 0.000177563

0.000136904 -2.14598e-05 -1.43011e-07
-2.14598e-05 0.000187294 -1.02866e-08
-1.43011e-07 -1.02866e-08 0.000173642

7.79463e-05 -4.54545e-06 -1.11859e-08
-4.54545e-06 7.84202e-05 -1.44413e-08
-1.11859e-08 -1.44413e-08 8.59873e-05

7.94855e-05 -4.33373e-06 -2.00605e-07
-4.33373e-06 8.32096e-05 -7.49855e-08
-2.00605e-07 -7.49855e-08 8.63887e-05

0.000193581 1.91819e-05 7.13875e-08
1.91819e-05 0.000173398 -1.32015e-08
7.13875e-08 -1.32015e-08 0.000180027

0.000207142 -1.33321e-05 -8.07254e-09
-1.33321e-05 0.000180128 -1.72377e-08
-8.07254e-09 -1.72377e-08 0.000193627

0.000177062 -7.52166e-07 1.78864e-08
-7.52166e-07 0.000130454 8.34289e-08
1.78864e-08 8.34289e-08 0.000163704

0.00019147 2.67119e-05 9.62718e-08
2.67119e-05 0.00017196 -1.88326e-07
9.62718e-08 -1.88326e-07 0.000180083

0.000205931 -1.84131e-05 -3.94015e-08
-1.84131e-05 0.000168575 -2.37717e-07
-3.94015e-08 -2.37717e-07 0.00019163

0.000127378 1.8632e-05 1.15392e-07
1.8632e-05 0.000165344 5.00931e-08
1.15392e-07 5.00931e-08 0.000150025

0.000151449 -1.39535e-05 -3.42139e-08
-1.39535e-05 0.000172991 -9.46217e-08
-3.42139e-08 -9.46217e-08 0.000159521

0.000205582 9.30106e-06 -1.91469e-07
9.30106e-06 0.000178138 -2.2796e-08
-1.91469e-07 -2.2796e-08 0.000185964

0.000194082 -1.19272e-05 -2.80433e-07
-1.19272e-05 0.000185773 1.59611e-08
-2.80433e-07 1.59611e-08 0.000185959

0.000175694 2.7196e-05 -1.73929e-07
2.7196e-05 0.000156116 -1.67379e-09
-1.73929e-07 -1.67379e-09 0.000169996

0.000190677 -2.25165e-05 1.77695e-07
-2.25165e-05 0.000161683 -7.6015e-08
1.77695e-07 -7.6015e-08 0.00017993

0.000126035 -1.45393e-05 1.05466e-07
-1.45393e-05 0.000101811 -4.19509e-08
1.05466e-07 -4.19509e-08 0.00010677

0.000173971 -1.04826e-06 -6.61339e-08
-1.04826e-06 0.00022124 -1.50563e-07
-6.61339e-08 -1.50563e-07 0.000184826

0.000195924 5.45216e-06 1.5105e-07
5.45216e-06 0.000211493 -1.57248e-07
1.5105e-07 -1.57248e-07 0.000202583

8.89828e-05 -2.93774e-06 -2.03511e-07
-2.93774e-06 0.000117073 1.65858e-07
-2.03511e-07 1.65858e-07 9.63945e-05

0.000115222 -3.5123e-06 -1.38767e-07
-3.5123e-06 9.19463e-05 1.19851e-07
-1.38767e-07 1.19851e-07 9.59049e-05

0.000128593 1.52827e-05 6.04327e-08
1.52827e-05 0.000177305 9.50358e-09
6.04327e-08 9.50358e-09 0.000160506

0.000158629 -9.13728e-06 1.40132e-08
-9.13728e-06 0.000183321 -7.08478e-08
1.40132e-08 -7.08478e-08 0.000171903

0.000231917 -7.86559e-06 -8.29104e-07
-7.86559e-06 0.000250342 -7.50885e-07
-8.29104e-07 -7.50885e-07 0.000190549

0.000248067 -1.63117e-05 -1.27384e-07
-1.63117e-05 0.000194991 -2.4373e-07
-1.27384e-07 -2.4373e-07 0.000206527

0.000175204 2.47664e-05 -1.44394e-07
2.47664e-05 0.000139249 -1.08117e-08
-1.44394e-07 -1.08117e-08 0.000162305

0.000183889 -1.62422e-05 5.49303e-08
-1.62422e-05 0.000142663 -6.21097e-08
5.49303e-08 -6.21097e-08 0.000168694

0.000144568 8.10642e-07 -5.7746e-09
8.10642e-07 0.00010429 1.15508e-07
-5.7746e-09 1.15508e-07 0.000114701

0.000168084 7.25689e-07 -8.45543e-08
7.25689e-07 0.000124692 3.65243e-08
-8.45543e-08 3.65243e-08 0.000144265

0.000154895 1.24229e-05 -8.70868e-08
1.24229e-05 0.000114877 6.38527e-08
-8.70868e-08 6.38527e-08 0.000126666

0.000184315 4.22496e-06 1.15196e-07
4.22496e-06 0.000154737 -6.81898e-08
1.15196e-07 -6.81898e-08 0.000174422

0.000169533 -7.8672e-06 -4.3874e-07
-7.8672e-06 0.000223307 -1.55344e-07
-4.3874e-07 -1.55344e-07 0.000190095

0.000194809 4.19126e-06 -1.77136e-07
4.19126e-06 0.00019959 -3.73368e-08
-1.77136e-07 -3.73368e-08 0.000190157

0.000127744 2.09108e-05 7.3e-08
2.09108e-05 0.000135834 1.3306e-07
7.3e-08 1.3306e-07 0.000117658

0.000147812 -1.80756e-05 2.86018e-09
-1.80756e-05 0.000137375 1.10615e-07
2.86018e-09 1.10615e-07 0.000144808

0.000171657 2.00237e-05 -3.9126e-08
2.00237e-05 0.000133911 7.39564e-08
-3.9126e-08 7.39564e-08 0.000154298

0.000192952 8.43215e-06 -1.52833e-07
8.43215e-06 0.000210219 -8.3328e-08
-1.52833e-07 -8.3328e-08 0.000201435

0.000186592 1.20344e-05 2.29906e-07
1.20344e-05 0.000226857 -7.85515e-08
2.29906e-07 -7.85515e-08 0.000187003

0.000179174 -1.04385e-05 1.93272e-08
-1.04385e-05 0.000160311 -1.26338e-07
1.93272e-08 -1.26338e-07 0.000175976

0.000164882 1.62285e-05 -1.66233e-07
1.62285e-05 0.000185214 3.0415e-08
-1.66233e-07 3.0415e-08 0.000170593

0.000136839 -2.56609e-06 -1.71254e-08
-2.56609e-06 0.000187745 1.40697e-09
-1.71254e-08 1.40697e-09 0.000164211

0.000183926 1.2063e-05 1.18587e-07
1.2063e-05 0.000129253 3.30362e-08
1.18587e-07 3.30362e-08 0.000168726

0.000188388 -2.38364e-06 1.4801e-09
-2.38364e-06 0.000128025 9.37507e-08
1.4801e-09 9.37507e-08 0.000171875

0.000137678 -1.60938e-05 7.11779e-08
-1.60938e-05 0.000127826 4.01224e-08
7.11779e-08 4.01224e-08 0.000119689

0.000190038 2.21508e-05 -2.83322e-09
2.21508e-05 0.000145897 -1.93452e-07
-2.83322e-09 -1.93452e-07 0.000174494

0.000197519 -1.37813e-05 -6.30049e-09
-1.37813e-05 0.000142382 -8.96847e-08
-6.30049e-09 -8.96847e-08 0.000181185

0.00017574 -1.11015e-05 -9.33971e-08
-1.11015e-05 0.000140005 7.11941e-08
-9.33971e-08 7.11941e-08 0.000158907

0.000181991 1.58823e-05 1.34555e-07
1.58823e-05 0.000141591 -4.96397e-08
1.34555e-07 -4.96397e-08 0.000168587

0.000185776 -8.13025e-06 -2.78036e-08
-8.13025e-06 0.000143595 -6.68937e-08
-2.78036e-08 -6.68937e-08 0.000174288

0.000172919 -6.94489e-06 -3.69267e-08
-6.94489e-06 0.000134757 7.11265e-08
-3.69267e-08 7.11265e-08 0.000153691

0.000149778 2.95058e-05 -1.22331e-07
2.95058e-05 0.000163237 6.76768e-09
-1.22331e-07 6.76768e-09 0.000167503

0.000188679 -2.50037e-05 3.88769e-08
-2.50037e-05 0.000176312 -1.89042e-08
3.88769e-08 -1.89042e-08 0.000183514

0.000148353 1.96449e-05 -1.09139e-08
1.96449e-05 0.000141013 -2.87197e-08
-1.09139e-08 -2.87197e-08 0.000133416

0.000177763 -1.83732e-05 -5.7635e-08
-1.83732e-05 0.000191365 -1.0136e-07
-5.7635e-08 -1.0136e-07 0.000188594

0.000140337 2.03713e-05 1.46493e-08
2.03713e-05 0.000169631 -3.22165e-08
1.46493e-08 -3.22165e-08 0.000169571

0.000155228 1.8201e-05 -8.41864e-08
1.8201e-05 0.000115695 -5.20527e-08
-8.41864e-08 -5.20527e-08 0.000132922

0.000163037 -1.61744e-05 1.32024e-07
-1.61744e-05 0.000146936 -3.12698e-08
1.32024e-07 -3.12698e-08 0.00016205

0.000172401 6.57475e-06 -3.22805e-08
6.57475e-06 0.000138074 1.53994e-07
-3.22805e-08 1.53994e-07 0.000150872

0.000134643 2.54956e-05 -7.60981e-08
2.54956e-05 0.000138517 -2.42506e-10
-7.60981e-08 -2.42506e-10 0.00012939

0.0001523 2.08174e-05 1.11074e-07
2.08174e-05 0.000140832 5.21581e-08
1.11074e-07 5.21581e-08 0.000144611

0.000148972 8.05274e-06 -3.06338e-08
8.05274e-06 0.000181013 1.0088e-07
-3.06338e-08 1.0088e-07 0.000166263

0.000121819 2.66104e-06 6.86352e-08
2.66104e-06 0.000186368 -4.31597e-08
6.86352e-08 -4.31597e-08 0.000158845

0.00013771 -1.60443e-05 6.98205e-08
-1.60443e-05 0.000106078 7.34414e-08
6.98205e-08 7.34414e-08 0.000114393

0.000142847 -2.84817e-05 7.19861e-08
-2.84817e-05 0.000164984 -1.979e-07
7.19861e-08 -1.979e-07 0.000168297

0.00015049 3.10991e-05 1.52546e-08
3.10991e-05 0.00018001 1.19576e-07
1.52546e-08 1.19576e-07 0.000166935

0.000144781 -2.34028e-05 -8.01082e-09
-2.34028e-05 0.000146177 -2.10428e-08
-8.01082e-09 -2.10428e-08 0.000134294

0.000128093 2.77674e-05 -8.3094e-08
2.77674e-05 0.000142494 -2.82898e-07
-8.3094e-08 -2.82898e-07 0.000128774

0.00016674 -1.3012e-05 -1.94843e-08
-1.3012e-05 0.000137872 1.09392e-07
-1.94843e-08 1.09392e-07 0.00015258

0.0001918 -3.38405e-06 -3.04478e-08
-3.38405e-06 0.000139963 -3.99992e-09
-3.04478e-08 -3.99992e-09 0.000173749

0.000197378 1.03702e-06 -1.26637e-07
1.03702e-06 0.000136782 1.35531e-08
-1.26637e-07 1.35531e-08 0.000173008

0.000145771 -2.15974e-05 -3.11227e-08
-2.15974e-05 0.000149307 -4.89877e-08
-3.11227e-08 -4.89877e-08 0.000147358

0.000106146 4.00583e-06 -1.24774e-07
4.00583e-06 0.000149864 1.81233e-08
-1.24774e-07 1.81233e-08 0.000118224

9.39627e-05 3.68337e-06 -1.00998e-07
3.68337e-06 0.00014595 -2.62642e-08
-1.00998e-07 -2.62642e-08 0.000114502

0.000144131 4.29353e-06 1.23108e-07
4.29353e-06 9.95992e-05 -1.52618e-07
1.23108e-07 -1.52618e-07 0.000115631

0.000128196 2.26059e-05 1.46405e-07
2.26059e-05 0.000122972 1.07946e-07
1.46405e-07 1.07946e-07 0.000115855

0.0001506 -2.24478e-05 1.33103e-08
-2.24478e-05 0.000128321 9.46815e-08
1.33103e-08 9.46815e-08 0.000133425

0.000188946 2.59493e-05 -2.22536e-07
2.59493e-05 0.000221732 -1.05432e-07
-2.22536e-07 -1.05432e-07 0.000203579

0.000234576 -8.22248e-06 -1.15728e-07
-8.22248e-06 0.00023488 3.10537e-08
-1.15728e-07 3.10537e-08 0.000189351

0.000161313 -7.4248e-06 -3.79394e-08
-7.4248e-06 0.000117612 6.30344e-08
-3.79394e-08 6.30344e-08 0.000135798

0.000134011 2.03079e-05 3.87393e-08
2.03079e-05 0.000163648 -1.26003e-08
3.87393e-08 -1.26003e-08 0.000157765

0.000168264 -2.28538e-05 -8.57919e-08
-2.28538e-05 0.000176303 -5.24435e-08
-8.57919e-08 -5.24435e-08 0.000170238

0.000178403 1.04594e-05 1.01494e-08
1.04594e-05 0.00012986 -4.62147e-08
1.01494e-08 -4.62147e-08 0.000162065

0.000126998 2.1395e-05 4.34557e-09
2.1395e-05 0.00016206 -2.47756e-08
4.34557e-09 -2.47756e-08 0.000135385

0.000109819 -9.70396e-06 9.58113e-09
-9.70396e-06 0.000157807 1.26031e-08
9.58113e-09 1.26031e-08 0.000131823

0.000135008 2.20804e-05 3.33841e-08
2.20804e-05 0.00018727 -7.28369e-08
3.33841e-08 -7.28369e-08 0.00017433

0.000185127 -8.82353e-06 -1.14635e-08
-8.82353e-06 0.00019816 -1.25213e-09
-1.14635e-08 -1.25213e-09 0.000195319

0.00014556 2.18e-05 -8.37544e-08
2.18e-05 0.000162279 1.4528e-07
-8.37544e-08 1.4528e-07 0.000170282

0.000186225 -2.23128e-05 5.9802e-08
-2.23128e-05 0.000188619 -9.40355e-08
5.9802e-08 -9.40355e-08 0.000190635

0.000192286 2.05745e-06 7.21309e-08
2.05745e-06 0.000109424 8.47557e-09
7.21309e-08 8.47557e-09 0.000174521

0.000139674 2.78467e-05 -1.16298e-07
2.78467e-05 0.000124486 -8.46913e-08
-1.16298e-07 -8.46913e-08 0.000128195

0.000150734 3.33199e-05 -4.09668e-08
3.33199e-05 0.000190378 -3.50772e-08
-4.09668e-08 -3.50772e-08 0.000170128

0.00014068 -2.49466e-05 5.87695e-09
-2.49466e-05 0.000163253 1.56261e-10
5.87695e-09 1.56261e-10 0.000171041

0.000138985 2.37174e-05 -1.27163e-07
2.37174e-05 0.000135948 -2.28623e-07
-1.27163e-07 -2.28623e-07 0.000133508

0.000117275 -1.39869e-05 2.22764e-07
-1.39869e-05 0.000130115 -1.19885e-07
2.22764e-07 -1.19885e-07 0.000113564

0.000142014 -2.16943e-05 -3.96158e-08
-2.16943e-05 0.000157767 -3.64603e-08
-3.96158e-08 -3.64603e-08 0.000156599

0.000126523 -4.68698e-06 4.01442e-08
-4.68698e-06 0.000153323 -7.04622e-08
4.01442e-08 -7.04622e-08 0.000126307

0.000109261 1.22008e-05 2.10516e-08
1.22008e-05 0.000150686 3.92944e-08
2.10516e-08 3.92944e-08 0.000121886

0.000148694 -4.67245e-06 2.8308e-08
-4.67245e-06 0.000117194 4.06204e-08
2.8308e-08 4.06204e-08 0.000123216

0.000150313 -2.06719e-05 1.85436e-08
-2.06719e-05 0.000144627 1.12857e-08
1.85436e-08 1.12857e-08 0.000138873

0.000121728 3.9053e-06 6.72133e-08
3.9053e-06 0.000172791 -1.46227e-08
6.72133e-08 -1.46227e-08 0.000145562

0.00014865 4.6441e-06 -3.8255e-08
4.6441e-06 0.000173881 -5.21827e-08
-3.8255e-08 -5.21827e-08 0.000151507

0.00012258 -1.90207e-05 3.13355e-08
-1.90207e-05 0.000129042 1.87058e-08
3.13355e-08 1.87058e-08 0.000114513

0.000110607 2.34888e-05 1.4746e-07
2.34888e-05 0.000126549 1.07414e-07
1.4746e-07 1.07414e-07 0.000111616

0.000180802 4.70987e-06 5.02338e-08
4.70987e-06 0.000131813 4.45235e-08
5.02338e-08 4.45235e-08 0.000173357

0.000181677 1.32291e-07 1.44865e-07
1.32291e-07 0.000129279 1.22053e-07
1.44865e-07 1.22053e-07 0.000175645

0.00014629 2.42856e-05 -7.61153e-08
2.42856e-05 0.000157818 3.7645e-08
-7.61153e-08 3.7645e-08 0.000160023

0.000171926 -2.04496e-05 1.98841e-08
-2.04496e-05 0.000177705 -6.21461e-09
1.98841e-08 -6.21461e-09 0.000173123

0.000156041 3.28335e-05 1.12112e-07
3.28335e-05 0.000193447 1.06587e-07
1.12112e-07 1.06587e-07 0.000176507

0.000131536 -1.84618e-05 -3.43369e-08
-1.84618e-05 0.000185837 -4.91094e-08
-3.43369e-08 -4.91094e-08 0.000174162

0.000155119 2.15693e-05 1.46187e-07
2.15693e-05 0.000163394 -1.46607e-07
1.46187e-07 -1.46607e-07 0.000161993

0.000126117 1.33714e-05 1.38996e-07
1.33714e-05 0.000102134 1.91136e-09
1.38996e-07 1.91136e-09 0.000104058

0.000131299 -1.24385e-05 6.9183e-09
-1.24385e-05 0.000162177 1.28322e-08
6.9183e-09 1.28322e-08 0.00013864

0.000111549 1.64209e-05 -1.28993e-09
1.64209e-05 0.000157467 -1.67139e-08
-1.28993e-09 -1.67139e-08 0.000132827

0.000189274 1.993e-05 2.12827e-07
1.993e-05 0.000156538 -1.32157e-08
2.12827e-07 -1.32157e-08 0.000175201

0.000199495 -1.14429e-05 -1.42122e-07
-1.14429e-05 0.000162171 -8.31229e-08
-1.42122e-07 -8.31229e-08 0.000185044

0.000168868 -1.90945e-05 -6.19886e-08
-1.90945e-05 0.00015013 5.78015e-09
-6.19886e-08 5.78015e-09 0.000156266

0.000175426 2.31144e-05 -1.47568e-07
2.31144e-05 0.000147973 2.55426e-08
-1.47568e-07 2.55426e-08 0.000163217

0.000183745 -1.64753e-05 6.39665e-08
-1.64753e-05 0.000156617 4.23282e-08
6.39665e-08 4.23282e-08 0.000171414

8.4418e-05 -5.89276e-06 5.36058e-08
-5.89276e-06 5.48388e-05 1.27375e-07
5.36058e-08 1.27375e-07 8.74551e-05

5.47471e-05 -7.80746e-06 -1.76679e-07
-7.80746e-06 8.06988e-05 6.4235e-08
-1.76679e-07 6.4235e-08 8.70824e-05

0.000214288 2.63563e-05 2.10934e-07
2.63563e-05 0.000191835 -5.6542e-09
2.10934e-07 -5.6542e-09 0.000186568

0.000225118 -1.87885e-05 -2.22183e-07
-1.87885e-05 0.000174519 3.46184e-07
-2.22183e-07 3.46184e-07 0.00019862

0.000159188 2.55452e-05 1.00961e-07
2.55452e-05 0.000141509 1.01659e-07
1.00961e-07 1.01659e-07 0.00014947

0.000127461 1.21657e-05 1.15528e-07
1.21657e-05 9.80841e-05 6.88218e-08
1.15528e-07 6.88218e-08 0.000103519

0.000147422 2.29703e-05 9.17317e-09
2.29703e-05 0.000182846 -5.7689e-08
9.17317e-09 -5.7689e-08 0.000164672

0.000125083 -9.64259e-06 -9.51067e-08
-9.64259e-06 0.000183602 -3.77621e-08
-9.51067e-08 -3.77621e-08 0.000160465

0.00012621 -2.15474e-05 -1.48685e-07
-2.15474e-05 0.000136449 1.63004e-07
-1.48685e-07 1.63004e-07 0.000126298

0.000167752 1.36873e-05 -9.5611e-08
1.36873e-05 0.000188227 -6.4402e-08
-9.5611e-08 -6.4402e-08 0.000177897

0.000188242 -8.04043e-06 2.09358e-07
-8.04043e-06 0.000198249 1.31877e-08
2.09358e-07 1.31877e-08 0.000195041

0.000149023 1.72832e-05 -2.35888e-08
1.72832e-05 0.000119995 -6.79237e-08
-2.35888e-08 -6.79237e-08 0.00012559

0.000166514 9.09799e-06 -7.56891e-08
9.09799e-06 0.000122278 -5.67042e-08
-7.56891e-08 -5.67042e-08 0.000143493

0.000130002 3.1946e-05 2.20567e-08
3.1946e-05 0.000171818 -3.15439e-08
2.20567e-08 -3.15439e-08 0.000170106

0.000192161 -1.66602e-05 4.95922e-08
-1.66602e-05 0.000190935 -1.11098e-07
4.95922e-08 -1.11098e-07 0.000192869

0.000137356 2.6814e-05 -1.08803e-07
2.6814e-05 0.000175026 -2.01827e-08
-1.08803e-07 -2.01827e-08 0.000152422

0.000122868 -1.40998e-05 -6.00647e-08
-1.40998e-05 0.000167806 3.48396e-08
-6.00647e-08 3.48396e-08 0.000150037

0.000159462 2.86733e-05 -1.03981e-08
2.86733e-05 0.000146698 5.68005e-09
-1.03981e-08 5.68005e-09 0.000157524

0.000176413 -2.47985e-05 -8.00968e-08
-2.47985e-05 0.000154355 2.14183e-08
-8.00968e-08 2.14183e-08 0.000166139

0.00011611 8.31788e-06 -1.87723e-08
8.31788e-06 0.000169881 2.5867e-08
-1.87723e-08 2.5867e-08 0.000142217

0.000139358 -8.62331e-07 -1.53446e-08
-8.62331e-07 0.000170755 -4.13943e-08
-1.53446e-08 -4.13943e-08 0.000148959

8.78442e-05 -9.94357e-06 -2.15156e-07
-9.94357e-06 0.000103701 3.46804e-08
-2.15156e-07 3.46804e-08 8.91092e-05

0.000101143 -9.44959e-06 -1.30755e-07
-9.44959e-06 9.09123e-05 1.2064e-07
-1.30755e-07 1.2064e-07 8.90178e-05

0.000172217 1.51565e-05 -3.326e-08
1.51565e-05 0.000127424 -3.18128e-08
-3.326e-08 -3.18128e-08 0.00015392

0.000248134 4.41638e-06 -4.92195e-07
4.41638e-06 0.000215523 5.99738e-08
-4.92195e-07 5.99738e-08 0.00019005

0.000248241 -1.524e-05 -4.5586e-08
-1.524e-05 0.000188825 -4.40598e-07
-4.5586e-08 -4.40598e-07 0.000204383

0.000176354 -2.24423e-05 4.79885e-08
-2.24423e-05 0.000201093 2.09733e-07
4.79885e-08 2.09733e-07 0.000184947

0.000179966 6.87724e-06 2.43498e-07
6.87724e-06 0.000190995 9.8151e-08
2.43498e-07 9.8151e-08 0.000184667

0.000186154 -1.26774e-06 9.4034e-08
-1.26774e-06 0.000127758 -2.00417e-07
9.4034e-08 -2.00417e-07 0.00015539

0.000148293 3.57592e-05 -8.31378e-08
3.57592e-05 0.000189056 3.55744e-08
-8.31378e-08 3.55744e-08 0.000169835

0.000124846 -3.37439e-05 6.67756e-08
-3.37439e-05 0.000171549 8.95637e-08
6.67756e-08 8.95637e-08 0.000170239

9.62605e-05 1.7709e-05 -6.19277e-08
1.7709e-05 0.000103485 -5.94236e-08
-6.19277e-08 -5.94236e-08 9.45379e-05

0.000105125 1.85907e-05 -1.42405e-07
1.85907e-05 0.000102668 -1.1232e-08
-1.42405e-07 -1.1232e-08 9.54365e-05

9.78036e-05 -6.93407e-06 -6.84073e-08
-6.93407e-06 0.000126806 1.05695e-07
-6.84073e-08 1.05695e-07 0.000103247

9.56406e-05 1.3961e-05 -6.45855e-08
1.3961e-05 0.000122096 -9.71741e-08
-6.45855e-08 -9.71741e-08 0.00010154

0.000123968 -3.4922e-06 1.87461e-07
-3.4922e-06 9.46127e-05 -3.34669e-08
1.87461e-07 -3.34669e-08 0.000102229

8.71176e-05 8.61301e-06 2.99117e-08
8.61301e-06 0.000119885 -5.17394e-08
2.99117e-08 -5.17394e-08 9.65465e-05

0.000114527 1.01152e-05 -8.75177e-08
1.01152e-05 8.5726e-05 8.41822e-08
-8.75177e-08 8.41822e-08 9.58791e-05

0.000171899 2.1503e-06 3.62211e-08
2.1503e-06 0.000210376 -1.6341e-07
3.62211e-08 -1.6341e-07 0.000182858

0.000183665 1.86407e-05 2.18771e-08
1.86407e-05 0.000203956 -1.7029e-07
2.18771e-08 -1.7029e-07 0.00019041

0.000183838 3.06038e-06 4.60994e-08
3.06038e-06 0.000152952 -1.33995e-07
4.60994e-08 -1.33995e-07 0.000165023

0.000196623 -6.11976e-07 -1.33479e-07
-6.11976e-07 0.000127238 1.56695e-08
-1.33479e-07 1.56695e-08 0.000167178

0.000120584 -1.1469e-05 4.15786e-08
-1.1469e-05 0.000145603 -6.87333e-08
4.15786e-08 -6.87333e-08 0.000123669

0.000108912 1.70664e-05 1.24693e-07
1.70664e-05 0.000139465 -8.5605e-08
1.24693e-07 -8.5605e-08 0.000119222

0.000186032 -8.22351e-07 5.02178e-08
-8.22351e-07 0.000126412 2.60377e-08
5.02178e-08 2.60377e-08 0.000156113

0.00020312 1.45312e-05 6.56836e-08
1.45312e-05 0.000179473 -1.76824e-07
6.56836e-08 -1.76824e-07 0.000183472

0.000211929 -1.06138e-05 1.97975e-07
-1.06138e-05 0.000173569 -1.48954e-07
1.97975e-07 -1.48954e-07 0.000194575

0.000165121 1.39387e-05 -2.04997e-07
1.39387e-05 0.000168878 5.68173e-08
-2.04997e-07 5.68173e-08 0.000164096

0.000140969 -2.38909e-05 -5.74789e-08
-2.38909e-05 0.000160152 -1.20229e-07
-5.74789e-08 -1.20229e-07 0.000160204

0.000145685 3.00999e-05 -1.75435e-08
3.00999e-05 0.000180151 1.0392e-07
-1.75435e-08 1.0392e-07 0.000159626

0.000184019 2.92882e-06 8.03507e-08
2.92882e-06 0.000133091 2.00443e-07
8.03507e-08 2.00443e-07 0.000161368

0.000128335 2.13816e-05 1.15946e-07
2.13816e-05 0.000122835 -3.69388e-08
1.15946e-07 -3.69388e-08 0.000114164

0.000130624 -1.73464e-05 6.60545e-08
-1.73464e-05 0.000168092 -6.4886e-08
6.60545e-08 -6.4886e-08 0.000158271

0.000146674 3.20438e-05 3.10768e-08
3.20438e-05 0.00017778 7.78331e-08
3.10768e-08 7.78331e-08 0.000159328

7.70356e-05 3.82072e-05 1.09098e-07
3.82072e-05 7.87102e-05 8.19071e-08
1.09098e-07 8.19071e-08 7.88761e-05

0.000113694 -2.52687e-06 -1.39625e-08
-2.52687e-06 0.000168761 -4.93048e-08
-1.39625e-08 -4.93048e-08 0.000141452

0.000132873 1.21844e-05 2.53956e-08
1.21844e-05 0.000170318 -7.9377e-08
2.53956e-08 -7.9377e-08 0.000145924

0.000166174 -2.66975e-06 2.03228e-08
-2.66975e-06 0.000223052 -3.50291e-07
2.03228e-08 -3.50291e-07 0.000183634

0.000188766 1.4746e-05 -5.94808e-08
1.4746e-05 0.000200884 -2.04364e-07
-5.94808e-08 -2.04364e-07 0.000195243

0.000195497 1.23593e-05 -3.77221e-08
1.23593e-05 0.000126602 -7.08339e-08
-3.77221e-08 -7.08339e-08 0.000177241

0.000201353 -8.34731e-06 2.46908e-07
-8.34731e-06 0.000118334 -9.82514e-09
2.46908e-07 -9.82514e-09 0.000181918

0.000166744 1.61757e-05 -1.96981e-07
1.61757e-05 0.000170685 6.07589e-08
-1.96981e-07 6.07589e-08 0.000172214

0.000164326 -2.45333e-05 -4.43887e-08
-2.45333e-05 0.000168667 1.28099e-07
-4.43887e-08 1.28099e-07 0.000173848

0.000176376 1.38558e-05 2.71e-07
1.38558e-05 0.000197217 -1.99002e-08
2.71e-07 -1.99002e-08 0.000183011

0.000178338 -1.99648e-05 -8.39758e-09
-1.99648e-05 0.000186275 -3.0064e-08
-8.39758e-09 -3.0064e-08 0.0001836

0.000226001 2.62255e-05 2.81925e-07
2.62255e-05 0.000213047 1.46886e-08
2.81925e-07 1.46886e-08 0.000188889

0.000236273 -1.79676e-05 1.76643e-07
-1.79676e-05 0.000188547 -4.27597e-07
1.76643e-07 -4.27597e-07 0.000203993

0.000152615 3.5485e-05 2.99408e-08
3.5485e-05 0.000167911 1.70069e-07
2.99408e-08 1.70069e-07 0.000175108

0.000207973 -1.93436e-05 -4.50392e-08
-1.93436e-05 0.00018629 -7.11777e-08
-4.50392e-08 -7.11777e-08 0.00019785

0.000159331 2.63859e-05 1.1328e-07
2.63859e-05 0.000132311 5.16153e-08
1.1328e-07 5.16153e-08 0.000147156

0.000147628 2.27359e-05 1.40398e-08
2.27359e-05 0.000176309 -9.11839e-08
1.40398e-08 -9.11839e-08 0.000154759

0.000125286 -9.76999e-06 -8.69913e-08
-9.76999e-06 0.000172258 1.80866e-08
-8.69913e-08 1.80866e-08 0.00015099

0.000160679 -2.68335e-05 9.79707e-09
-2.68335e-05 0.000147604 1.87345e-08
9.79707e-09 1.87345e-08 0.000150671

0.00012591 -1.42372e-05 1.18176e-07
-1.42372e-05 0.000120144 -2.29281e-07
1.18176e-07 -2.29281e-07 0.00011208

0.000169401 -1.91966e-05 -4.63463e-08
-1.91966e-05 0.000137497 7.89893e-08
-4.63463e-08 7.89893e-08 0.000151754

0.000145037 2.91323e-05 2.24377e-07
2.91323e-05 0.000140792 8.47737e-08
2.24377e-07 8.47737e-08 0.000143834

0.000142991 -3.87939e-05 -1.63185e-07
-3.87939e-05 0.00017201 5.51058e-08
-1.63185e-07 5.51058e-08 0.000175982

0.000155004 3.11207e-05 -5.3065e-08
3.11207e-05 0.000188741 -3.8589e-08
-5.3065e-08 -3.8589e-08 0.000174846

0.000181621 -6.75352e-06 -2.36354e-08
-6.75352e-06 0.000151268 -8.61185e-08
-2.36354e-08 -8.61185e-08 0.000167416

0.0002349 -1.01041e-05 -3.29959e-07
-1.01041e-05 0.000226933 2.13509e-07
-3.29959e-07 2.13509e-07 0.000189078

0.000200563 1.0554e-05 3.89732e-07
1.0554e-05 0.000217131 3.01709e-07
3.89732e-07 3.01709e-07 0.000200644

0.000165288 1.17433e-05 -2.01309e-07
1.17433e-05 0.000149289 -5.45753e-08
-2.01309e-07 -5.45753e-08 0.000160289

0.000198081 -4.60942e-06 -1.32941e-07
-4.60942e-06 0.00015953 2.84415e-08
-1.32941e-07 2.84415e-08 0.000178386

9.94008e-05 -1.35276e-05 -7.56419e-08
-1.35276e-05 0.000108061 1.74377e-07
-7.56419e-08 1.74377e-07 9.39002e-05

0.000109688 -1.28908e-05 -2.58824e-07
-1.28908e-05 9.38283e-05 -5.27206e-08
-2.58824e-07 -5.27206e-08 9.39175e-05

0.000196514 4.15723e-06 6.03263e-08
4.15723e-06 0.000145403 -1.92588e-07
6.03263e-08 -1.92588e-07 0.000178516

0.000201143 1.24051e-06 1.68138e-07
1.24051e-06 0.00014058 -1.00076e-07
1.68138e-07 -1.00076e-07 0.000185043

0.000191678 2.64162e-07 -7.62076e-08
2.64162e-07 0.000166442 -1.61084e-07
-7.62076e-08 -1.61084e-07 0.000178982

0.000158657 -1.05103e-05 1.39388e-08
-1.05103e-05 0.000174416 -6.32203e-08
1.39388e-08 -6.32203e-08 0.000160282

0.000128565 1.38027e-05 6.11716e-08
1.38027e-05 0.000171138 8.54523e-08
6.11716e-08 8.54523e-08 0.000151284

0.000155329 2.12664e-05 -8.5063e-08
2.12664e-05 0.000126753 -1.03397e-07
-8.5063e-08 -1.03397e-07 0.000136207

0.000176362 2.42965e-05 -1.68078e-07
2.42965e-05 0.000159897 -4.83017e-08
-1.68078e-07 -4.83017e-08 0.000170605

0.000191376 -1.9054e-05 1.98667e-07
-1.9054e-05 0.000172477 9.10575e-08
1.98667e-07 9.10575e-08 0.000182583

0.000204719 3.24629e-06 -2.35128e-07
3.24629e-06 0.00019176 -5.64135e-09
-2.35128e-07 -5.64135e-09 0.000191181

0.000197607 -2.64109e-05 1.73282e-07
-2.64109e-05 0.000230117 4.44174e-07
1.73282e-07 4.44174e-07 0.000191071

0.000167848 1.03554e-05 -4.93444e-09
1.03554e-05 0.000145896 8.88582e-08
-4.93444e-09 8.88582e-08 0.00015052

0.000190294 1.63311e-05 -1.24452e-08
1.63311e-05 0.0001631 2.29094e-07
-1.24452e-08 2.29094e-07 0.000176365

0.000197555 -1.27697e-05 -2.72731e-09
-1.27697e-05 0.000161545 6.52535e-08
-2.72731e-09 6.52535e-08 0.000184902

0.000138427 -1.08526e-05 -1.42621e-07
-1.08526e-05 0.000178833 -4.72473e-09
-1.42621e-07 -4.72473e-09 0.000166184

0.000159245 2.91462e-05 3.48937e-08
2.91462e-05 0.000185718 -3.98053e-08
3.48937e-08 -3.98053e-08 0.000169325

0.00015221 3.69614e-05 1.4483e-07
3.69614e-05 0.000189284 6.23961e-08
1.4483e-07 6.23961e-08 0.000170142

0.000137334 -2.18092e-05 7.11948e-08
-2.18092e-05 0.000167183 8.88206e-08
7.11948e-08 8.88206e-08 0.000169438

8.53954e-05 4.31162e-05 9.00266e-09
4.31162e-05 8.65578e-05 -3.97675e-08
9.00266e-09 -3.97675e-08 8.16821e-05

0.00016117 2.31448e-05 -7.78153e-08
2.31448e-05 0.000195653 1.18172e-08
-7.78153e-08 1.18172e-08 0.000177865

0.000152189 -2.61144e-05 -2.11684e-07
-2.61144e-05 0.000185583 -4.33528e-08
-2.11684e-07 -4.33528e-08 0.000178821

0.000129698 -1.9788e-05 8.72963e-08
-1.9788e-05 0.000174014 6.87442e-08
8.72963e-08 6.87442e-08 0.000164942

0.000146466 3.18138e-05 5.58683e-08
3.18138e-05 0.000185274 -4.61486e-08
5.58683e-08 -4.61486e-08 0.000166318

0.000162612 -1.3847e-05 -3.91907e-08
-1.3847e-05 0.00013329 7.36126e-08
-3.91907e-08 7.36126e-08 0.00014071

0.000163112 -1.71943e-05 1.29562e-07
-1.71943e-05 0.000159462 1.26853e-08
1.29562e-07 1.26853e-08 0.000165464

0.000163664 1.86107e-05 -1.49982e-07
1.86107e-05 0.000181648 -7.25281e-08
-1.49982e-07 -7.25281e-08 0.00017393

0.000163918 -2.5363e-05 -1.18442e-07
-2.5363e-05 0.000168199 -1.5105e-07
-1.18442e-07 -1.5105e-07 0.000175022

0.00018162 -6.61287e-06 -2.40124e-08
-6.61287e-06 0.000133227 6.61819e-08
-2.40124e-08 6.61819e-08 0.000163534

0.000196397 7.06965e-06 1.3611e-07
7.06965e-06 0.000177257 1.84085e-07
1.3611e-07 1.84085e-07 0.0001824

0.000203437 -7.01761e-06 1.65761e-07
-7.01761e-06 0.000165983 -8.82581e-08
1.65761e-07 -8.82581e-08 0.00019091

0.000186803 7.85365e-06 -1.46278e-07
7.85365e-06 0.000240074 2.6941e-08
-1.46278e-07 2.6941e-08 0.000187862

0.000192699 1.07997e-05 -3.58511e-08
1.07997e-05 0.000225743 -1.30562e-07
-3.58511e-08 -1.30562e-07 0.000199775

8.17448e-05 8.40515e-06 1.60208e-07
8.40515e-06 5.9599e-05 -1.2796e-07
1.60208e-07 -1.2796e-07 8.53868e-05

6.13572e-05 8.46408e-06 -1.89575e-07
8.46408e-06 8.49083e-05 -9.12589e-08
-1.89575e-07 -9.12589e-08 8.53033e-05

0.000161586 2.37551e-05 -1.31258e-08
2.37551e-05 0.000161348 -1.1524e-07
-1.31258e-08 -1.1524e-07 0.00016938

0.000187256 -2.35577e-05 -3.26494e-08
-2.35577e-05 0.000181319 -9.88155e-08
-3.26494e-08 -9.88155e-08 0.000184451

8.04664e-05 1.63259e-05 2.31945e-08
1.63259e-05 7.79938e-05 1.12202e-07
2.31945e-08 1.12202e-07 8.58824e-05

7.82194e-05 1.72137e-05 -2.42596e-07
1.72137e-05 7.86692e-05 -7.8924e-08
-2.42596e-07 -7.8924e-08 8.59032e-05

0.000234528 -7.32543e-06 -1.71666e-07
-7.32543e-06 0.000214524 -5.5514e-07
-1.71666e-07 -5.5514e-07 0.000203941

0.000233573 -3.56353e-06 -3.26366e-07
-3.56353e-06 0.00024204 -9.06808e-08
-3.26366e-07 -9.06808e-08 0.000190546

0.000152849 -2.25526e-05 5.57024e-08
-2.25526e-05 0.000157788 -5.03145e-08
5.57024e-08 -5.03145e-08 0.000163273

0.000163813 3.05037e-05 -1.51096e-08
3.05037e-05 0.000156835 -1.2789e-07
-1.51096e-08 -1.2789e-07 0.000166557

0.000187825 -2.43248e-05 -4.27431e-08
-2.43248e-05 0.000167957 -3.44447e-08
-4.27431e-08 -3.44447e-08 0.000178955

0.000144982 2.63173e-05 1.54222e-07
2.63173e-05 0.000150656 2.05648e-07
1.54222e-07 2.05648e-07 0.000147231

0.000164064 -2.07122e-05 2.39765e-08
-2.07122e-05 0.000158649 4.31925e-08
2.39765e-08 4.31925e-08 0.000155649

0.000103911 -3.99869e-06 -1.10441e-07
-3.99869e-06 0.000127946 9.4341e-08
-1.10441e-07 9.4341e-08 0.000104321

9.18606e-05 1.08798e-05 -8.51476e-08
1.08798e-05 0.000122953 -9.45218e-08
-8.51476e-08 -9.45218e-08 0.000101762

0.000124664 -1.47293e-06 1.62482e-07
-1.47293e-06 9.8506e-05 -1.4795e-07
1.62482e-07 -1.4795e-07 0.000103012

0.000145149 2.77105e-05 -5.20707e-08
2.77105e-05 0.000154344 -9.33274e-08
-5.20707e-08 -9.33274e-08 0.000155598

0.000169826 -2.72807e-05 2.79123e-08
-2.72807e-05 0.000165599 3.75025e-08
2.79123e-08 3.75025e-08 0.000166132

8.20057e-05 2.15437e-06 1.08048e-07
2.15437e-06 0.000116158 1.35874e-07
1.08048e-07 1.35874e-07 9.41595e-05

0.000114541 -4.36464e-07 -1.10156e-07
-4.36464e-07 8.62529e-05 -1.08697e-07
-1.10156e-07 -1.08697e-07 9.38114e-05

0.000174768 2.75758e-05 -6.50827e-08
2.75758e-05 0.000162333 -1.25279e-07
-6.50827e-08 -1.25279e-07 0.000174747

0.000200568 -2.03761e-05 1.95809e-07
-2.03761e-05 0.000179592 -1.42976e-07
1.95809e-07 -1.42976e-07 0.000190872

0.00017407 2.75634e-05 -1.07815e-07
2.75634e-05 0.000170814 2.28861e-08
-1.07815e-07 2.28861e-08 0.000175754

0.000198402 -2.46608e-05 2.46886e-07
-2.46608e-05 0.000175919 3.41056e-08
2.46886e-07 3.41056e-08 0.000189695

7.38064e-05 1.6668e-05 8.97395e-08
1.6668e-05 7.38347e-05 -1.7413e-07
8.97395e-08 -1.7413e-07 8.22144e-05

7.38015e-05 1.5424e-05 -9.18896e-08
1.5424e-05 7.50977e-05 6.58824e-08
-9.18896e-08 6.58824e-08 8.19894e-05

0.000159876 2.6483e-05 3.25424e-09
2.6483e-05 0.000153092 -1.14714e-07
3.25424e-09 -1.14714e-07 0.000160255

0.000177025 -2.12846e-05 -8.31784e-08
-2.12846e-05 0.000169158 -5.4173e-09
-8.31784e-08 -5.4173e-09 0.000171026

0.000191149 1.73832e-05 -2.89834e-08
1.73832e-05 0.000203784 -1.73253e-07
-2.89834e-08 -1.73253e-07 0.000195065

0.000183228 -5.578e-06 -1.74921e-07
-5.578e-06 0.000211238 -1.51116e-07
-1.74921e-07 -1.51116e-07 0.000184886

0.000159447 2.22498e-05 6.06741e-08
2.22498e-05 0.000183961 7.41133e-08
6.06741e-08 7.41133e-08 0.000177697

0.000203731 -2.5639e-05 2.08258e-08
-2.5639e-05 0.00018833 1.34468e-07
2.08258e-08 1.34468e-07 0.000197151

0.000202299 1.92285e-05 1.89909e-08
1.92285e-05 0.000162037 2.48725e-07
1.89909e-08 2.48725e-07 0.000181773

0.000211561 -1.32137e-05 2.07158e-07
-1.32137e-05 0.000156669 -6.54108e-08
2.07158e-07 -6.54108e-08 0.000191249

0.00015651 2.67442e-05 1.71087e-07
2.67442e-05 0.000181392 -7.76233e-08
1.71087e-07 -7.76233e-08 0.000167716

0.000149746 -2.20797e-05 1.04446e-07
-2.20797e-05 0.0001683 -1.47753e-07
1.04446e-07 -1.47753e-07 0.00016944

0.000183072 1.66686e-05 6.17773e-08
1.66686e-05 0.000221484 2.16572e-07
6.17773e-08 2.16572e-07 0.000194604

0.000191179 1.89811e-05 -1.22386e-07
1.89811e-05 0.000197367 -2.86419e-07
-1.22386e-07 -2.86419e-07 0.000187212

0.000197682 -3.3122e-05 -1.10452e-08
-3.3122e-05 0.000195224 -2.82482e-08
-1.10452e-08 -2.82482e-08 0.000187481

0.000173058 -4.3814e-06 6.35066e-09
-4.3814e-06 0.000228129 1.26204e-07
6.35066e-09 1.26204e-07 0.000185967

0.00021511 2.061e-05 -1.82502e-07
2.061e-05 0.000187046 -5.3223e-08
-1.82502e-07 -5.3223e-08 0.000186512

0.000232773 4.30739e-06 -4.08856e-07
4.30739e-06 0.000202092 1.56244e-07
-4.08856e-07 1.56244e-07 0.00018898

0.000225385 -1.82287e-05 -1.56096e-07
-1.82287e-05 0.000170508 1.51467e-07
-1.56096e-07 1.51467e-07 0.000196745

0.000238482 -7.23256e-06 1.63063e-07
-7.23256e-06 0.000179644 4.46817e-07
1.63063e-07 4.46817e-07 0.00020113

0.000200307 1.74189e-05 4.30357e-07
1.74189e-05 0.0002105 6.24253e-07
4.30357e-07 6.24253e-07 0.000187587

0.000237316 -8.31789e-06 -4.23298e-06
-8.31789e-06 0.000247924 1.82976e-06
-4.23298e-06 1.82976e-06 0.000190701

0.000266004 -1.49733e-05 5.64117e-07
-1.49733e-05 0.00018671 2.80535e-07
5.64117e-07 2.80535e-07 0.000208304

0.000241156 -1.94501e-05 -7.39019e-07
-1.94501e-05 0.000192872 1.23289e-06
-7.39019e-07 1.23289e-06 0.000208575

0.00021504 2.29699e-05 5.08612e-08
2.29699e-05 0.000193478 4.90171e-08
5.08612e-08 4.90171e-08 0.000186284

0.000193426 1.09332e-05 8.2549e-08
1.09332e-05 0.000187015 7.00006e-08
8.2549e-08 7.00006e-08 0.000182497

0.000218286 1.12321e-05 1.6794e-07
1.12321e-05 0.000232588 -4.93147e-07
1.6794e-07 -4.93147e-07 0.000189525

0.000238241 -1.5084e-05 7.15873e-08
-1.5084e-05 0.000186332 4.1861e-09
7.15873e-08 4.1861e-09 0.000206077

0.000236469 -1.86814e-05 7.55792e-08
-1.86814e-05 0.000191024 2.26717e-08
7.55792e-08 2.26717e-08 0.000206684

0.000216716 -1.27725e-05 -9.28729e-08
-1.27725e-05 0.00019271 1.1309e-07
-9.28729e-08 1.1309e-07 0.000201338

0.000196017 2.68002e-05 7.6172e-08
2.68002e-05 0.00018679 -8.14032e-09
7.6172e-08 -8.14032e-09 0.00018382

0.000217513 1.23718e-05 2.16294e-07
1.23718e-05 0.000193692 -5.17784e-08
2.16294e-07 -5.17784e-08 0.000186972

0.000217905 -1.959e-05 -8.92444e-08
-1.959e-05 0.000181323 6.86331e-08
-8.92444e-08 6.86331e-08 0.000198993

0.000226648 -1.15731e-05 -2.6064e-07
-1.15731e-05 0.000185468 1.52556e-08
-2.6064e-07 1.52556e-08 0.000201041

0.000208746 2.33289e-06 6.31324e-10
2.33289e-06 0.000210005 -5.23716e-08
6.31324e-10 -5.23716e-08 0.000214875

0.000227097 -1.18115e-06 -8.88812e-09
-1.18115e-06 0.000218625 1.20565e-07
-8.88812e-09 1.20565e-07 0.000220092

0.000222118 4.19026e-06 3.80682e-08
4.19026e-06 0.000209153 -5.87601e-08
3.80682e-08 -5.87601e-08 0.000214801

0.000210252 -4.34821e-06 6.39901e-08
-4.34821e-06 0.000193112 2.83479e-09
6.39901e-08 2.83479e-09 0.000211647

0.000210743 5.05668e-07 -1.00931e-07
5.05668e-07 0.000198306 -8.79334e-08
-1.00931e-07 -8.79334e-08 0.000212983

0.000227889 -5.90961e-06 1.33048e-09
-5.90961e-06 0.000221391 1.70903e-09
1.33048e-09 1.70903e-09 0.000219914

0.000220975 1.09043e-05 3.68125e-08
1.09043e-05 0.000207655 -4.41552e-08
3.68125e-08 -4.41552e-08 0.000214005

0.000211149 -8.36604e-07 -1.05787e-07
-8.36604e-07 0.00019667 -5.30998e-08
-1.05787e-07 -5.30998e-08 0.000212859

0.00021201 4.74203e-06 -2.7167e-08
4.74203e-06 0.000182163 -2.40537e-09
-2.7167e-08 -2.40537e-09 0.000204705

0.000214145 6.31078e-07 5.42917e-08
6.31078e-07 0.00021024 -1.09807e-08
5.42917e-08 -1.09807e-08 0.000217213

0.000214171 -8.55173e-07 3.0432e-08
-8.55173e-07 0.000210865 7.46698e-08
3.0432e-08 7.46698e-08 0.000217381

0.000220032 3.32236e-07 -4.44194e-08
3.32236e-07 0.000224257 -1.57925e-07
-4.44194e-08 -1.57925e-07 0.000223388

0.000229119 -5.87845e-06 -1.40898e-07
-5.87845e-06 0.000200907 -1.66314e-07
-1.40898e-07 -1.66314e-07 0.000210665

0.000234395 1.43146e-07 -1.16963e-07
1.43146e-07 0.000223918 -6.92155e-08
-1.16963e-07 -6.92155e-08 0.00022054

0.000208821 8.27757e-06 1.02548e-09
8.27757e-06 0.000206205 1.04887e-08
1.02548e-09 1.04887e-08 0.000213703

0.000204451 1.11203e-05 -7.44737e-08
1.11203e-05 0.000205323 -1.79315e-09
-7.44737e-08 -1.79315e-09 0.000209967

0.000222197 -1.05221e-05 -1.22565e-08
-1.05221e-05 0.000209111 -2.44519e-07
-1.22565e-08 -2.44519e-07 0.000215373

0.000225774 5.53752e-06 -8.09762e-08
5.53752e-06 0.000220545 -9.12082e-08
-8.09762e-08 -9.12082e-08 0.000219212

0.000225294 2.31914e-07 1.42653e-07
2.31914e-07 0.000230677 -8.60635e-08
1.42653e-07 -8.60635e-08 0.000226949

0.00021223 1.18136e-06 8.33401e-08
1.18136e-06 0.000215317 -6.73699e-08
8.33401e-08 -6.73699e-08 0.00021796

0.000212596 -1.14491e-06 -2.36773e-08
-1.14491e-06 0.000215559 -2.92185e-08
-2.36773e-08 -2.92185e-08 0.000218072

0.000219675 -1.44786e-06 -1.29322e-07
-1.44786e-06 0.000226703 -1.03132e-07
-1.29322e-07 -1.03132e-07 0.000224314

0.000209617 3.35507e-06 -1.35089e-07
3.35507e-06 0.000206682 9.76369e-08
-1.35089e-07 9.76369e-08 0.000214236

0.000209136 2.96273e-06 1.55785e-07
2.96273e-06 0.000200401 6.19368e-08
1.55785e-07 6.19368e-08 0.000214096

0.000204125 2.49903e-06 -4.18584e-08
2.49903e-06 0.000206607 1.02511e-07
-4.18584e-08 1.02511e-07 0.000213115

0.000221998 -2.0766e-06 2.85585e-08
-2.0766e-06 0.000221533 -5.50488e-09
2.85585e-08 -5.50488e-09 0.000222312

0.000211191 3.71167e-06 2.15501e-08
3.71167e-06 0.000193034 -1.03905e-07
2.15501e-08 -1.03905e-07 0.000211302

0.000212892 6.47302e-07 1.33619e-07
6.47302e-07 0.0002146 1.35995e-07
1.33619e-07 1.35995e-07 0.000217967

0.000211901 -4.51017e-06 -1.58739e-09
-4.51017e-06 0.000181307 1.18124e-07
-1.58739e-09 1.18124e-07 0.000207941

0.000219838 -1.04919e-06 -3.71889e-08
-1.04919e-06 0.000222763 -1.53852e-07
-3.71889e-08 -1.53852e-07 0.000222665

0.000233661 -9.52066e-07 2.32236e-07
-9.52066e-07 0.000216665 -8.80449e-08
2.32236e-07 -8.80449e-08 0.000217468

0.000233232 1.88508e-06 9.27148e-09
1.88508e-06 0.000212815 -3.34499e-08
9.27148e-09 -3.34499e-08 0.000216941

0.000218761 -5.13943e-06 -2.53194e-07
-5.13943e-06 0.000210532 1.48556e-08
-2.53194e-07 1.48556e-08 0.000209716

0.000218261 5.51257e-06 -2.16955e-07
5.51257e-06 0.000211016 1.28862e-07
-2.16955e-07 1.28862e-07 0.000209735

0.000212044 -1.46605e-06 1.52232e-08
-1.46605e-06 0.00020425 1.3575e-07
1.52232e-08 1.3575e-07 0.00021502

0.000202693 1.03843e-06 -4.62844e-08
1.03843e-06 0.000205156 9.72743e-08
-4.62844e-08 9.72743e-08 0.000211808

0.000206147 -8.65936e-06 3.8816e-08
-8.65936e-06 0.000206374 3.55532e-08
3.8816e-08 3.55532e-08 0.000210715

0.00020598 9.03856e-06 1.70936e-07
9.03856e-06 0.000206736 3.91334e-08
1.70936e-07 3.91334e-08 0.000210648

0.000213083 -3.93468e-06 7.98045e-08
-3.93468e-06 0.000181254 1.14529e-07
7.98045e-08 1.14529e-07 0.00020345

0.00022056 -2.902e-06 4.67444e-08
-2.902e-06 0.000226289 -2.97464e-08
4.67444e-08 -2.97464e-08 0.000223232

0.000208171 8.1182e-08 1.36112e-07
8.1182e-08 0.000204747 -6.88722e-08
1.36112e-07 -6.88722e-08 0.000214163

0.000212167 3.45251e-06 -2.00875e-08
3.45251e-06 0.000180209 -1.23939e-07
-2.00875e-08 -1.23939e-07 0.000203984

0.000209223 -2.94936e-06 1.09825e-07
-2.94936e-06 0.000207081 -1.80686e-08
1.09825e-07 -1.80686e-08 0.00021438

0.000208142 -2.10297e-06 7.55466e-08
-2.10297e-06 0.000210145 -5.48757e-08
7.55466e-08 -5.48757e-08 0.000214907

0.000227337 -4.37844e-06 4.25225e-08
-4.37844e-06 0.000224129 9.27254e-08
4.25225e-08 9.27254e-08 0.000222882

0.000211234 2.47364e-07 -1.42251e-07
2.47364e-07 0.000204753 -9.28793e-08
-1.42251e-07 -9.28793e-08 0.000215011

0.000214162 1.54842e-06 -9.83935e-08
1.54842e-06 0.000213177 4.85955e-08
-9.83935e-08 4.85955e-08 0.000218623

0.000216337 1.69643e-06 1.31431e-07
1.69643e-06 0.000218386 6.17196e-08
1.31431e-07 6.17196e-08 0.000221059

0.000215365 -1.67311e-05 1.7804e-08
-1.67311e-05 0.000194661 -1.06232e-07
1.7804e-08 -1.06232e-07 0.000208148

0.000216065 -5.7651e-07 1.30368e-07
-5.7651e-07 0.00021901 4.37722e-08
1.30368e-07 4.37722e-08 0.00022074

0.00021199 7.90339e-07 2.01488e-07
7.90339e-07 0.000213109 6.30675e-08
2.01488e-07 6.30675e-08 0.000217706

0.000232044 2.59577e-06 -1.4434e-07
2.59577e-06 0.000234116 2.44995e-07
-1.4434e-07 2.44995e-07 0.000229053

0.000232044 -2.75176e-06 -1.4528e-07
-2.75176e-06 0.000234179 -2.45798e-07
-1.4528e-07 -2.45798e-07 0.000229052

0.000227906 -1.51958e-06 -8.99764e-08
-1.51958e-06 0.000231616 7.33198e-11
-8.99764e-08 7.33198e-11 0.000227635

0.000231474 7.05043e-07 -1.81306e-07
7.05043e-07 0.00023576 -1.51592e-08
-1.81306e-07 -1.51592e-08 0.000229272

0.000231992 -2.64469e-06 -1.82444e-07
-2.64469e-06 0.000235249 1.57488e-08
-1.82444e-07 1.57488e-08 0.000229271

0.000221741 -3.56019e-06 3.3075e-08
-3.56019e-06 0.000224791 5.11205e-08
3.3075e-08 5.11205e-08 0.000222537

0.000215372 -6.95079e-06 -9.36278e-08
-6.95079e-06 0.000199771 1.70099e-08
-9.36278e-08 1.70099e-08 0.000206592

0.000214869 7.46631e-06 -1.40009e-07
7.46631e-06 0.00019993 8.71371e-08
-1.40009e-07 8.71371e-08 0.000206568

0.000227452 2.05281e-06 3.2303e-08
2.05281e-06 0.000233104 -1.8108e-07
3.2303e-08 -1.8108e-07 0.000227948

0.00022743 -1.50763e-06 3.24418e-08
-1.50763e-06 0.000233125 1.87202e-07
3.24418e-08 1.87202e-07 0.000227948

0.000211117 7.7846e-07 -6.59269e-08
7.7846e-07 0.000206594 9.71645e-08
-6.59269e-08 9.71645e-08 0.000216013

0.00022691 1.03273e-05 5.97672e-08
1.03273e-05 0.000209981 4.07801e-09
5.97672e-08 4.07801e-09 0.000209958

0.000239609 -8.22089e-06 -9.9632e-08
-8.22089e-06 0.000229285 -1.2262e-07
-9.9632e-08 -1.2262e-07 0.000219645

0.000220037 1.97663e-06 -6.3044e-08
1.97663e-06 0.000226309 7.67658e-08
-6.3044e-08 7.67658e-08 0.000223291

0.000211924 -8.51027e-07 7.06961e-08
-8.51027e-07 0.000215293 1.80728e-08
7.06961e-08 1.80728e-08 0.00021824

0.00021162 -1.76975e-06 1.94099e-07
-1.76975e-06 0.00020975 -7.51002e-08
1.94099e-07 -7.51002e-08 0.000216708

0.00022237 -3.69179e-06 3.28529e-08
-3.69179e-06 0.000224646 9.067e-08
3.28529e-08 9.067e-08 0.000221427

0.000215303 1.00647e-05 -4.96004e-08
1.00647e-05 0.000204234 4.02874e-09
-4.96004e-08 4.02874e-09 0.000213175

0.000239502 7.87836e-07 -6.96105e-07
7.87836e-07 0.000243393 1.40413e-07
-6.96105e-07 1.40413e-07 0.00023077

0.000239502 -1.31626e-07 -6.96456e-07
-1.31626e-07 0.000243936 -1.40617e-07
-6.96456e-07 -1.40617e-07 0.000230769

0.000209815 1.36755e-05 -8.55004e-08
1.36755e-05 0.0001964 -2.22079e-08
-8.55004e-08 -2.22079e-08 0.000205214

0.00022685 8.13037e-07 1.90994e-08
8.13037e-07 0.000231998 -4.422e-08
1.90994e-08 -4.422e-08 0.000227467

0.000225859 -8.75649e-07 2.82314e-08
-8.75649e-07 0.00023207 -1.0475e-07
2.82314e-08 -1.0475e-07 0.000227517

0.000193709 6.72799e-06 8.89514e-09
6.72799e-06 0.000205383 -4.30585e-08
8.89514e-09 -4.30585e-08 0.000207851

0.000228221 4.45313e-06 6.10225e-08
4.45313e-06 0.000228225 2.78415e-10
6.10225e-08 2.78415e-10 0.000221637

0.000211201 1.47607e-06 4.21877e-08
1.47607e-06 0.000204008 -5.1157e-08
4.21877e-08 -5.1157e-08 0.000215034

0.000210482 -2.14944e-06 -4.02921e-08
-2.14944e-06 0.000199692 -1.03555e-07
-4.02921e-08 -1.03555e-07 0.000214234

0.000207608 -1.04716e-05 7.02623e-08
-1.04716e-05 0.00019393 -1.03127e-07
7.02623e-08 -1.03127e-07 0.000209879

0.00020453 1.12062e-05 -2.41379e-09
1.12062e-05 0.000220131 2.36031e-07
-2.41379e-09 2.36031e-07 0.000209101

0.00020569 -1.17576e-05 4.47661e-08
-1.17576e-05 0.000219486 -1.23378e-07
4.47661e-08 -1.23378e-07 0.000209074

0.000210043 1.629e-06 7.69916e-10
1.629e-06 0.000210122 -7.27413e-09
7.69916e-10 -7.27413e-09 0.000216059

0.000205921 2.84385e-06 -3.26748e-08
2.84385e-06 0.000201488 9.71993e-08
-3.26748e-08 9.71993e-08 0.000213316

0.00022556 -2.01599e-06 1.38255e-07
-2.01599e-06 0.00023035 -1.13777e-08
1.38255e-07 -1.13777e-08 0.000226824

0.000237301 -2.33746e-07 2.33057e-07
-2.33746e-07 0.000233307 -4.16927e-08
2.33057e-07 -4.16927e-08 0.000218168

0.00024566 8.67197e-06 2.27592e-07
8.67197e-06 0.000208066 4.49014e-08
2.27592e-07 4.49014e-08 0.000213969

0.000207398 1.09013e-05 1.65074e-07
1.09013e-05 0.00019492 1.28432e-08
1.65074e-07 1.28432e-08 0.000209816

0.00022302 -3.41644e-06 9.93193e-09
-3.41644e-06 0.00021138 1.34828e-07
9.93193e-09 1.34828e-07 0.000216215

0.000225109 1.06456e-06 -7.24378e-08
1.06456e-06 0.000217737 2.09604e-08
-7.24378e-08 2.09604e-08 0.000219299

0.000228437 -5.08705e-09 1.8814e-07
-5.08705e-09 0.000233053 -6.17437e-08
1.8814e-07 -6.17437e-08 0.000228205

0.000228703 -1.80524e-07 2.85816e-08
-1.80524e-07 0.000233061 8.01635e-08
2.85816e-08 8.01635e-08 0.000228255

0.000220344 1.98186e-06 -9.23801e-08
1.98186e-06 0.000224407 3.75982e-08
-9.23801e-08 3.75982e-08 0.000223322

0.000224137 -1.36365e-06 8.08569e-08
-1.36365e-06 0.000229369 -1.1702e-07
8.08569e-08 -1.1702e-07 0.000226104

0.000229416 1.23807e-06 3.32929e-08
1.23807e-06 0.000234015 1.50626e-07
3.32929e-08 1.50626e-07 0.000228819

0.000230476 -8.63943e-07 4.05323e-08
-8.63943e-07 0.000233991 -1.36078e-07
4.05323e-08 -1.36078e-07 0.00022882

0.000226502 1.90133e-06 -1.14287e-08
1.90133e-06 0.000230458 -1.93804e-08
-1.14287e-08 -1.93804e-08 0.000226776

0.000222225 1.57648e-06 -7.22672e-08
1.57648e-06 0.00022165 6.48898e-08
-7.22672e-08 6.48898e-08 0.000222357

0.000229276 2.12401e-06 1.96061e-07
2.12401e-06 0.00023231 -2.02135e-08
1.96061e-07 -2.02135e-08 0.000228211

0.000229552 -2.17079e-06 6.7126e-08
-2.17079e-06 0.000232262 -1.08035e-07
6.7126e-08 -1.08035e-07 0.000228262

0.00021023 4.84282e-06 -4.48357e-08
4.84282e-06 0.000192697 4.17245e-08
-4.48357e-08 4.17245e-08 0.000211316

0.000228831 -2.95114e-06 -1.13274e-07
-2.95114e-06 0.00022864 5.37532e-08
-1.13274e-07 5.37532e-08 0.000225715

0.000208746 9.96292e-07 -1.74258e-07
9.96292e-07 0.000205252 -1.32349e-07
-1.74258e-07 -1.32349e-07 0.000214295

0.000196535 1.07635e-05 1.85662e-08
1.07635e-05 0.000202058 -1.1904e-08
1.85662e-08 -1.1904e-08 0.00020373

0.000228072 -2.75013e-06 -9.3149e-08
-2.75013e-06 0.000227655 -1.62901e-07
-9.3149e-08 -1.62901e-07 0.000223214

0.000223061 4.64896e-07 -2.97421e-08
4.64896e-07 0.000227737 -5.85955e-08
-2.97421e-08 -5.85955e-08 0.000225199

0.000203925 6.58418e-06 -6.10102e-08
6.58418e-06 0.000198065 1.36742e-07
-6.10102e-08 1.36742e-07 0.000211888

0.000210285 -4.06317e-06 1.02423e-07
-4.06317e-06 0.000194364 1.01843e-07
1.02423e-07 1.01843e-07 0.000211738

0.000209221 -7.2439e-07 -1.46762e-07
-7.2439e-07 0.000206491 -1.42796e-07
-1.46762e-07 -1.42796e-07 0.000215177

0.000204926 -2.66819e-06 -3.26217e-08
-2.66819e-06 0.000201849 -2.07491e-08
-3.26217e-08 -2.07491e-08 0.000213484

0.000218816 7.16765e-06 5.96219e-08
7.16765e-06 0.000213093 -4.76661e-08
5.96219e-08 -4.76661e-08 0.000217824

0.000220485 -6.32215e-06 1.43561e-08
-6.32215e-06 0.000215084 1.32529e-07
1.43561e-08 1.32529e-07 0.000218487

0.000220548 -6.85272e-07 -8.90551e-08
-6.85272e-07 0.000224706 -4.93732e-08
-8.90551e-08 -4.93732e-08 0.000223481

0.000193774 -6.88676e-06 -2.69546e-08
-6.88676e-06 0.000205468 -4.31261e-09
-2.69546e-08 -4.31261e-09 0.000207702

0.000220247 1.53131e-06 -2.56611e-08
1.53131e-06 0.000223601 -1.58224e-07
-2.56611e-08 -1.58224e-07 0.000223059

0.00022127 -1.18265e-07 3.79889e-08
-1.18265e-07 0.000223425 -1.02708e-07
3.79889e-08 -1.02708e-07 0.000222988

0.000206983 3.29597e-06 -1.92129e-08
3.29597e-06 0.000201535 9.79365e-08
-1.92129e-08 9.79365e-08 0.000212387

0.000211782 8.90364e-06 1.14114e-08
8.90364e-06 0.000174201 -4.03305e-08
1.14114e-08 -4.03305e-08 0.000202223

0.000211586 -7.69111e-06 -1.0102e-07
-7.69111e-06 0.000174241 -1.09652e-07
-1.0102e-07 -1.09652e-07 0.000202206

0.000215448 4.01499e-06 1.08536e-07
4.01499e-06 0.000210224 -6.4899e-09
1.08536e-07 -6.4899e-09 0.000217107

0.000203559 -2.12154e-06 -5.25495e-08
-2.12154e-06 0.00020696 3.85678e-09
-5.25495e-08 3.85678e-09 0.000213149

0.000215686 3.1975e-06 -5.29844e-09
3.1975e-06 0.000216261 -9.61182e-08
-5.29844e-09 -9.61182e-08 0.000219424

0.00021615 -2.9489e-06 -1.03364e-07
-2.9489e-06 0.000216308 -6.05006e-09
-1.03364e-07 -6.05006e-09 0.000219487

0.00022128 2.25407e-07 -2.12217e-08
2.25407e-07 0.000224663 1.75571e-07
-2.12217e-08 1.75571e-07 0.000224081

0.000219108 -2.53675e-06 1.27122e-09
-2.53675e-06 0.000224221 1.25493e-07
1.27122e-09 1.25493e-07 0.000223238

0.000220161 9.00178e-07 6.8563e-08
9.00178e-07 0.000226611 -1.14261e-07
6.8563e-08 -1.14261e-07 0.000224253

0.000256195 2.89226e-06 -2.40048e-07
2.89226e-06 0.000229424 1.08335e-07
-2.40048e-07 1.08335e-07 0.000216934

0.000259987 -1.59749e-05 -1.36749e-07
-1.59749e-05 0.000222257 1.60439e-07
-1.36749e-07 1.60439e-07 0.000214513

0.000222172 -4.25064e-07 -2.92684e-08
-4.25064e-07 0.000227761 7.29974e-08
-2.92684e-08 7.29974e-08 0.000225281

0.00022514 -1.0973e-06 5.07126e-08
-1.0973e-06 0.000226546 6.55459e-08
5.07126e-08 6.55459e-08 0.000223522

0.000227714 1.23695e-06 -9.51894e-08
1.23695e-06 0.000231605 1.49228e-07
-9.51894e-08 1.49228e-07 0.000227586

0.000215724 -3.7709e-06 -2.52206e-08
-3.7709e-06 0.000210474 -2.55673e-08
-2.52206e-08 -2.55673e-08 0.000217068

0.000232192 -7.11769e-06 -1.23802e-07
-7.11769e-06 0.000227223 -9.64402e-08
-1.23802e-07 -9.64402e-08 0.000222227

0.000205025 1.90785e-05 -9.27709e-08
1.90785e-05 0.000195487 -6.44408e-09
-9.27709e-08 -6.44408e-09 0.000204376

0.000230222 2.7483e-06 -7.0266e-08
2.7483e-06 0.000228523 4.70162e-09
-7.0266e-08 4.70162e-09 0.000225729

0.000228498 -3.32694e-06 -1.27514e-07
-3.32694e-06 0.000230231 2.62316e-09
-1.27514e-07 2.62316e-09 0.000225639

0.000206829 6.83814e-06 -6.07484e-08
6.83814e-06 0.000205317 -5.12258e-08
-6.07484e-08 -5.12258e-08 0.000210584

0.000227091 -4.18634e-08 -3.58366e-08
-4.18634e-08 0.000234488 -4.09723e-09
-3.58366e-08 -4.09723e-09 0.000228535

0.000222572 -1.29154e-07 -5.80547e-08
-1.29154e-07 0.000225892 8.26392e-08
-5.80547e-08 8.26392e-08 0.000224166

0.000196708 -1.07674e-05 -4.78561e-08
-1.07674e-05 0.000202387 5.83065e-08
-4.78561e-08 5.83065e-08 0.000203654

0.00022218 -2.14764e-06 -6.30228e-08
-2.14764e-06 0.000227186 2.99361e-08
-6.30228e-08 2.99361e-08 0.00022415

0.000208457 -1.22175e-06 1.92797e-07
-1.22175e-06 0.000210841 8.53088e-08
1.92797e-07 8.53088e-08 0.000216321

0.000203894 -1.69075e-06 -4.55195e-08
-1.69075e-06 0.00020496 -6.51321e-09
-4.55195e-08 -6.51321e-09 0.000211744

0.000218999 7.57387e-07 6.42616e-08
7.57387e-07 0.000217966 -1.35733e-07
6.42616e-08 -1.35733e-07 0.000220488

0.000218792 -7.65254e-07 -4.89873e-08
-7.65254e-07 0.000217892 2.31579e-08
-4.89873e-08 2.31579e-08 0.000220438

0.000220301 7.49584e-07 3.52216e-08
7.49584e-07 0.000227165 5.02474e-08
3.52216e-08 5.02474e-08 0.00022442

0.000220012 2.97354e-06 6.65123e-08
2.97354e-06 0.000227049 -5.70882e-08
6.65123e-08 -5.70882e-08 0.000224156

0.000220011 -1.57975e-06 2.37383e-08
-1.57975e-06 0.00021592 -5.58897e-08
2.37383e-08 -5.58897e-08 0.000218732

0.000219355 1.70078e-06 5.14749e-08
1.70078e-06 0.000215395 1.15949e-07
5.14749e-08 1.15949e-07 0.000218351

0.000219745 -3.15952e-07 -2.07633e-08
-3.15952e-07 0.000221906 7.98064e-08
-2.07633e-08 7.98064e-08 0.000221992

0.000218389 -2.21106e-07 6.67699e-08
-2.21106e-07 0.000222191 9.45076e-08
6.67699e-08 9.45076e-08 0.000221988

0.00022832 5.95613e-07 -9.83753e-08
5.95613e-07 0.000233247 -1.07253e-07
-9.83753e-08 -1.07253e-07 0.000228583

0.000228662 -8.37858e-07 -1.06811e-07
-8.37858e-07 0.00023329 1.03525e-07
-1.06811e-07 1.03525e-07 0.000228585

0.000226555 -3.7465e-06 -3.77202e-08
-3.7465e-06 0.000228593 1.04233e-07
-3.77202e-08 1.04233e-07 0.000224694

0.000201971 -1.71408e-05 -3.58715e-08
-1.71408e-05 0.000196663 -8.70568e-08
-3.58715e-08 -8.70568e-08 0.00020311

0.000198392 4.11268e-07 -4.87802e-08
4.11268e-07 0.000205086 9.70867e-08
-4.87802e-08 9.70867e-08 0.000211325

0.000210444 7.9609e-07 -5.59399e-08
7.9609e-07 0.000209846 1.80267e-08
-5.59399e-08 1.80267e-08 0.000216278

0.000217226 -1.99737e-06 -6.21191e-08
-1.99737e-06 0.000221551 -9.76209e-09
-6.21191e-08 -9.76209e-09 0.000220753

0.000229833 2.80746e-06 -6.89053e-08
2.80746e-06 0.000233146 -1.84063e-07
-6.89053e-08 -1.84063e-07 0.000228735

0.000233437 -2.25398e-06 -6.67459e-08
-2.25398e-06 0.000233158 1.89664e-07
-6.67459e-08 1.89664e-07 0.000228734

0.000227261 3.11908e-06 9.20115e-09
3.11908e-06 0.000231106 -1.57226e-07
9.20115e-09 -1.57226e-07 0.000227283

0.000226247 -3.10675e-06 5.71688e-09
-3.10675e-06 0.000231082 1.59518e-07
5.71688e-09 1.59518e-07 0.000227282

0.000213312 -1.19374e-07 -1.83715e-08
-1.19374e-07 0.000217363 -3.14266e-08
-1.83715e-08 -3.14266e-08 0.000219413

0.000218065 -7.73206e-07 5.30358e-08
-7.73206e-07 0.000221446 1.32913e-07
5.30358e-08 1.32913e-07 0.000221984

0.000217791 1.92512e-06 -1.92268e-11
1.92512e-06 0.00022164 5.459e-08
-1.92268e-11 5.459e-08 0.000220786

0.00023578 -5.97373e-07 -8.63771e-08
-5.97373e-07 0.000237757 3.14649e-07
-8.63771e-08 3.14649e-07 0.000230229

0.00023578 7.89292e-07 -8.74996e-08
7.89292e-07 0.000237657 -3.1496e-07
-8.74996e-08 -3.1496e-07 0.000230228

0.000225373 -2.96908e-06 -7.19932e-08
-2.96908e-06 0.000228775 -1.48599e-08
-7.19932e-08 -1.48599e-08 0.00022574

0.000212074 -7.8654e-07 -4.32007e-08
-7.8654e-07 0.00020562 -1.82944e-08
-4.32007e-08 -1.82944e-08 0.000215962

0.000224113 1.55614e-06 7.98165e-08
1.55614e-06 0.000229412 1.36641e-07
7.98165e-08 1.36641e-07 0.000226106

0.000214352 -9.41706e-06 -1.05647e-07
-9.41706e-06 0.000207538 7.67737e-08
-1.05647e-07 7.67737e-08 0.000214197

0.000223249 4.89201e-06 -5.94946e-08
4.89201e-06 0.000221898 2.72537e-08
-5.94946e-08 2.72537e-08 0.000220868

0.000208403 3.26476e-07 8.74384e-08
3.26476e-07 0.000208514 1.65548e-07
8.74384e-08 1.65548e-07 0.000215395

0.00022926 3.93603e-06 -5.64509e-08
3.93603e-06 0.000229835 -3.58533e-08
-5.64509e-08 -3.58533e-08 0.000225651

0.00022624 2.428e-06 -1.25879e-07
2.428e-06 0.000228757 6.27394e-08
-1.25879e-07 6.27394e-08 0.000225731

0.000190373 1.69888e-05 1.74527e-08
1.69888e-05 0.000197437 -1.01996e-08
1.74527e-08 -1.01996e-08 0.000201005

0.000234477 -2.10949e-07 -1.08241e-07
-2.10949e-07 0.00022631 -9.74576e-08
-1.08241e-07 -9.74576e-08 0.000220947

0.000229542 8.74722e-06 6.69402e-08
8.74722e-06 0.000196733 -1.6888e-08
6.69402e-08 -1.6888e-08 0.000209585

0.000225118 4.39672e-06 4.1177e-09
4.39672e-06 0.000228361 -3.93715e-08
4.1177e-09 -3.93715e-08 0.000224713

0.000200552 8.53529e-06 -2.32446e-08
8.53529e-06 0.000204882 -6.36978e-08
-2.32446e-08 -6.36978e-08 0.000209801

0.000207658 -1.16131e-06 -1.27507e-07
-1.16131e-06 0.000205316 5.37766e-08
-1.27507e-07 5.37766e-08 0.000214622

0.000231661 -5.06442e-06 -3.1798e-08
-5.06442e-06 0.000227205 -1.5733e-07
-3.1798e-08 -1.5733e-07 0.000224482

0.000209068 -8.35879e-06 6.47629e-08
-8.35879e-06 0.000206304 9.39506e-08
6.47629e-08 9.39506e-08 0.000213586

0.000214179 5.31912e-06 6.84878e-08
5.31912e-06 0.000212993 1.06721e-07
6.84878e-08 1.06721e-07 0.000217186

0.000226261 -1.51591e-06 1.12381e-07
-1.51591e-06 0.00023062 1.44048e-07
1.12381e-07 1.44048e-07 0.000226348

0.000219527 -4.1644e-06 -5.92188e-08
-4.1644e-06 0.000218462 -1.68261e-08
-5.92188e-08 -1.68261e-08 0.000220207

0.000233897 6.06322e-06 3.51014e-08
6.06322e-06 0.000226399 9.36194e-09
3.51014e-08 9.36194e-09 0.000222477

0.000212221 7.05579e-07 6.54558e-08
7.05579e-07 0.000212688 -4.09486e-08
6.54558e-08 -4.09486e-08 0.000218011

0.000212502 -4.72186e-07 1.4539e-08
-4.72186e-07 0.000209997 -9.28054e-08
1.4539e-08 -9.28054e-08 0.000217463

0.000226096 1.39348e-06 1.13712e-07
1.39348e-06 0.000230632 -1.42128e-07
1.13712e-07 -1.42128e-07 0.000226349

0.000226335 -2.48125e-07 -3.63213e-09
-2.48125e-07 0.000230717 1.82031e-07
-3.63213e-09 1.82031e-07 0.000226901

0.000239756 1.26223e-06 -4.27937e-07
1.26223e-06 0.000239638 -5.05002e-07
-4.27937e-07 -5.05002e-07 0.000230703

0.000239756 -8.67839e-07 -4.28329e-07
-8.67839e-07 0.000238922 5.04698e-07
-4.28329e-07 5.04698e-07 0.000230702

0.000224858 2.15705e-06 9.93392e-08
2.15705e-06 0.000226236 7.12589e-09
9.93392e-08 7.12589e-09 0.000223487

0.000202749 -9.68887e-06 8.1813e-08
-9.68887e-06 0.000209294 9.05147e-08
8.1813e-08 9.05147e-08 0.000210039

0.000202701 9.79233e-06 1.62719e-07
9.79233e-06 0.000209906 4.93213e-08
1.62719e-07 4.93213e-08 0.000210047

0.000212365 -1.10881e-06 -4.56304e-08
-1.10881e-06 0.000188625 6.66402e-08
-4.56304e-08 6.66402e-08 0.000209085

0.000190179 -1.7016e-05 -4.8051e-08
-1.7016e-05 0.000198112 5.802e-08
-4.8051e-08 5.802e-08 0.000200854

0.000217892 1.41447e-06 -7.54284e-08
1.41447e-06 0.000221104 -1.38569e-07
-7.54284e-08 -1.38569e-07 0.000221667

0.00021373 2.2624e-07 1.70003e-07
2.2624e-07 0.000209786 2.85799e-08
1.70003e-07 2.85799e-08 0.000217353

0.000217908 1.9182e-06 1.51092e-09
1.9182e-06 0.000219407 6.03802e-08
1.51092e-09 6.03802e-08 0.00022105

0.000217398 -2.15446e-06 -6.81874e-08
-2.15446e-06 0.000219383 -3.57033e-08
-6.81874e-08 -3.57033e-08 0.00022114

0.000219863 8.3002e-07 -6.0496e-08
8.3002e-07 0.000222489 -7.57718e-08
-6.0496e-08 -7.57718e-08 0.000222775

0.000230871 4.55603e-06 -1.74942e-08
4.55603e-06 0.000227564 2.77756e-08
-1.74942e-08 2.77756e-08 0.000224478

0.000213802 1.58027e-06 -1.65143e-09
1.58027e-06 0.000215083 9.4888e-08
-1.65143e-09 9.4888e-08 0.00021911

0.00022066 1.74808e-07 4.81046e-08
1.74808e-07 0.00022174 1.31811e-07
4.81046e-08 1.31811e-07 0.000222663

0.000227781 -5.7126e-06 9.11835e-08
-5.7126e-06 0.000207193 3.08691e-07
9.11835e-08 3.08691e-07 0.000210668

0.00024001 6.12651e-06 1.16525e-08
6.12651e-06 0.000224889 1.94024e-07
1.16525e-08 1.94024e-07 0.000219842

0.000210387 -7.02649e-06 1.458e-08
-7.02649e-06 0.000197972 -1.56157e-07
1.458e-08 -1.56157e-07 0.00021051

0.000212738 -1.18841e-06 1.08316e-07
-1.18841e-06 0.000168156 3.12624e-08
1.08316e-07 3.12624e-08 0.000199714

0.000217987 -2.18597e-06 4.77031e-08
-2.18597e-06 0.000222485 -9.3365e-08
4.77031e-08 -9.3365e-08 0.000221754

0.000218929 2.66491e-06 1.6029e-08
2.66491e-06 0.000222626 -1.93387e-07
1.6029e-08 -1.93387e-07 0.000221827

0.000212441 -9.53993e-07 -9.7395e-09
-9.53993e-07 0.000184656 -1.29246e-07
-9.7395e-09 -1.29246e-07 0.000208865

0.000221862 4.10384e-06 -7.77959e-08
4.10384e-06 0.000225022 1.45373e-07
-7.77959e-08 1.45373e-07 0.000222472

0.000232698 1.79243e-06 1.02836e-07
1.79243e-06 0.000236405 9.16695e-08
1.02836e-07 9.16695e-08 0.000229824

0.000230475 -3.11801e-06 1.0256e-07
-3.11801e-06 0.000235816 -9.09825e-08
1.0256e-07 -9.09825e-08 0.000229823

0.000204651 -2.38144e-06 3.3282e-08
-2.38144e-06 0.000205074 2.36747e-08
3.3282e-08 2.36747e-08 0.000211855

0.000201029 -8.43442e-06 -4.29978e-08
-8.43442e-06 0.000204714 5.31211e-09
-4.29978e-08 5.31211e-09 0.000209732

0.000210316 -7.72446e-06 3.69378e-08
-7.72446e-06 0.000191097 7.26762e-08
3.69378e-08 7.26762e-08 0.000209903

0.00021109 1.14282e-07 -2.06476e-08
1.14282e-07 0.000205714 7.75054e-08
-2.06476e-08 7.75054e-08 0.000215738

0.000205526 -6.48581e-06 9.73461e-08
-6.48581e-06 0.000205557 6.81858e-08
9.73461e-08 6.81858e-08 0.000210492

0.000212755 -1.3246e-06 -1.84502e-07
-1.3246e-06 0.000212834 -8.83639e-08
-1.84502e-07 -8.83639e-08 0.000218557

0.000213999 -5.41849e-06 -4.84878e-08
-5.41849e-06 0.000213737 -8.67482e-08
-4.84878e-08 -8.67482e-08 0.000217323

0.000220569 3.92525e-06 2.30896e-08
3.92525e-06 0.000216812 1.0595e-07
2.30896e-08 1.0595e-07 0.000220033

0.000235348 -6.26351e-06 2.2591e-07
-6.26351e-06 0.000220955 -5.09585e-08
2.2591e-07 -5.09585e-08 0.000217023

0.000232022 4.74757e-06 3.78638e-08
4.74757e-06 0.000220815 -2.01096e-07
3.78638e-08 -2.01096e-07 0.000216532

0.000227924 2.27041e-07 -2.04647e-07
2.27041e-07 0.000234886 3.1574e-08
-2.04647e-07 3.1574e-08 0.000229063

0.000228537 -3.52584e-07 -2.06956e-07
-3.52584e-07 0.000234767 -2.70107e-08
-2.06956e-07 -2.70107e-08 0.000229065

0.000199233 -4.57538e-06 4.99448e-08
-4.57538e-06 0.000204193 3.1015e-08
4.99448e-08 3.1015e-08 0.000211093

0.000199634 4.79192e-06 -1.7223e-07
4.79192e-06 0.000204829 -5.87522e-08
-1.7223e-07 -5.87522e-08 0.000210948

0.000199213 -2.39004e-06 1.19933e-07
-2.39004e-06 0.000211778 -7.31133e-08
1.19933e-07 -7.31133e-08 0.000207696

0.000199257 2.638e-06 1.57192e-07
2.638e-06 0.000211355 2.58181e-08
1.57192e-07 2.58181e-08 0.000207684

0.000237921 -3.52246e-07 3.35941e-07
-3.52246e-07 0.000239456 -4.60316e-07
3.35941e-07 -4.60316e-07 0.000230466

0.000237921 3.93039e-08 3.35082e-07
3.93039e-08 0.000238822 4.60039e-07
3.35082e-07 4.60039e-07 0.000230465

0.000232802 3.92082e-06 -1.0245e-08
3.92082e-06 0.000229697 -4.51705e-08
-1.0245e-08 -4.51705e-08 0.000226984

0.000232245 -3.19514e-06 -2.14408e-09
-3.19514e-06 0.00023011 2.99576e-08
-2.14408e-09 2.99576e-08 0.000226987

0.000224067 -4.65933e-07 -8.11008e-08
-4.65933e-07 0.000229913 2.20074e-08
-8.11008e-08 2.20074e-08 0.000225982

0.000215928 -3.86929e-06 -1.19839e-07
-3.86929e-06 0.000209235 -2.09039e-08
-1.19839e-07 -2.09039e-08 0.00021506

0.000221931 1.01217e-06 -3.51799e-08
1.01217e-06 0.000221534 1.69265e-07
-3.51799e-08 1.69265e-07 0.000221075

0.00021141 -1.40414e-06 -4.80321e-08
-1.40414e-06 0.000207229 -1.66591e-07
-4.80321e-08 -1.66591e-07 0.000215938

0.000225343 4.10989e-07 -1.47488e-07
4.10989e-07 0.000230018 -4.0761e-08
-1.47488e-07 -4.0761e-08 0.000225974

0.000215035 3.03224e-06 -4.87108e-08
3.03224e-06 0.000210628 5.10645e-08
-4.87108e-08 5.10645e-08 0.000215033

0.00022219 -1.45023e-06 -1.07904e-07
-1.45023e-06 0.000228416 -9.90001e-09
-1.07904e-07 -9.90001e-09 0.000224944

0.000185476 -1.06706e-05 -4.53875e-08
-1.06706e-05 0.00020351 5.75041e-08
-4.53875e-08 5.75041e-08 0.000202394

0.000185908 1.12026e-05 -6.79017e-08
1.12026e-05 0.000203419 -3.94883e-08
-6.79017e-08 -3.94883e-08 0.000202403

0.000223129 8.90118e-07 -8.03814e-08
8.90118e-07 0.000228315 7.0686e-08
-8.03814e-08 7.0686e-08 0.000224934

0.000209776 7.97313e-06 7.08843e-09
7.97313e-06 0.000198317 1.60737e-07
7.08843e-09 1.60737e-07 0.000210349

0.000265545 8.20432e-07 2.88628e-07
8.20432e-07 0.000200543 -3.51254e-07
2.88628e-07 -3.51254e-07 0.00021344

0.000252859 -3.22576e-06 -2.98611e-08
-3.22576e-06 0.000238278 -2.34501e-07
-2.98611e-08 -2.34501e-07 0.00021734

0.000228355 1.78736e-06 6.24117e-08
1.78736e-06 0.000223758 -5.59383e-08
6.24117e-08 -5.59383e-08 0.000221877

0.000204144 -6.04983e-06 1.97764e-08
-6.04983e-06 0.000198055 -1.57981e-07
1.97764e-08 -1.57981e-07 0.000212108

0.000211431 -1.17669e-05 -1.38149e-07
-1.17669e-05 0.000194359 -2.19658e-08
-1.38149e-07 -2.19658e-08 0.000206617

0.000218416 -4.85591e-07 1.59429e-08
-4.85591e-07 0.000219274 -7.67082e-08
1.59429e-08 -7.67082e-08 0.000221281

0.00021743 1.78486e-07 1.94826e-08
1.78486e-07 0.000222438 -7.23175e-08
1.94826e-08 -7.23175e-08 0.00022199

0.000230928 1.73506e-06 -1.0699e-07
1.73506e-06 0.000233999 1.52827e-07
-1.0699e-07 1.52827e-07 0.000229292

0.000231077 -1.49338e-06 -1.08747e-07
-1.49338e-06 0.000233935 -1.42533e-07
-1.08747e-07 -1.42533e-07 0.000229292

0.000211665 1.17249e-05 1.05273e-08
1.17249e-05 0.000194954 -4.3366e-08
1.05273e-08 -4.3366e-08 0.000206584

0.00022242 -1.14624e-06 3.24717e-08
-1.14624e-06 0.000221353 5.15139e-08
3.24717e-08 5.15139e-08 0.000221297

0.000222884 -2.10786e-06 -2.55591e-08
-2.10786e-06 0.000228121 6.34406e-08
-2.55591e-08 6.34406e-08 0.000225202

0.000227767 3.25818e-06 6.31258e-08
3.25818e-06 0.000232152 6.64638e-08
6.31258e-08 6.64638e-08 0.000227698

0.000227991 -3.67943e-06 6.51401e-08
-3.67943e-06 0.000232146 -7.31684e-08
6.51401e-08 -7.31684e-08 0.000227697

0.000215134 -1.69082e-05 -2.29102e-07
-1.69082e-05 0.000206144 1.66596e-07
-2.29102e-07 1.66596e-07 0.00020909

0.000214328 1.72623e-05 -1.61849e-07
1.72623e-05 0.000206829 -1.90299e-07
-1.61849e-07 -1.90299e-07 0.000209093

0.000225816 4.98353e-06 9.04272e-08
4.98353e-06 0.000226748 -4.46431e-08
9.04272e-08 -4.46431e-08 0.0002231

0.000208133 -2.22072e-06 1.54141e-07
-2.22072e-06 0.000201656 -4.74339e-08
1.54141e-07 -4.74339e-08 0.000212651

0.000229507 3.25769e-06 2.81353e-08
3.25769e-06 0.000234493 -7.96825e-08
2.81353e-08 -7.96825e-08 0.000228992

0.0002305 -1.37264e-06 3.51818e-08
-1.37264e-06 0.000234616 8.10369e-08
3.51818e-08 8.10369e-08 0.000228991

0.000216593 -7.616e-06 2.42785e-08
-7.616e-06 0.00020395 -1.35661e-08
2.42785e-08 -1.35661e-08 0.000210839

0.000205846 -1.45421e-05 6.10877e-08
-1.45421e-05 0.000196837 3.96693e-08
6.10877e-08 3.96693e-08 0.00020388

0.000214964 -1.95477e-06 -3.72006e-08
-1.95477e-06 0.000218497 -1.89656e-08
-3.72006e-08 -1.89656e-08 0.000220751

0.000193892 1.23931e-06 -5.93002e-08
1.23931e-06 0.000211162 -5.68158e-08
-5.93002e-08 -5.68158e-08 0.000206597

0.000193188 -1.02193e-06 -6.8255e-08
-1.02193e-06 0.000210902 1.10807e-08
-6.8255e-08 1.10807e-08 0.000206586

0.000203102 -1.4478e-05 8.75656e-08
-1.4478e-05 0.000200943 6.6569e-09
8.75656e-08 6.6569e-09 0.000208608

0.00022172 3.0578e-06 -1.49691e-08
3.0578e-06 0.000228107 -1.48205e-07
-1.49691e-08 -1.48205e-07 0.000225274

0.000204317 2.88732e-06 -4.53425e-08
2.88732e-06 0.000205295 -1.4294e-07
-4.53425e-08 -1.4294e-07 0.000211656

0.000196019 4.62097e-07 4.25275e-08
4.62097e-07 0.000206826 5.60596e-08
4.25275e-08 5.60596e-08 0.000209318

0.000196259 -1.23928e-06 -1.33663e-07
-1.23928e-06 0.000207306 8.66293e-08
-1.33663e-07 8.66293e-08 0.00020925

0.00020977 9.18263e-06 7.43272e-09
9.18263e-06 0.000189441 2.17095e-08
7.43272e-09 2.17095e-08 0.0002096

0.000230725 1.9976e-06 -4.02357e-08
1.9976e-06 0.000236417 -1.78965e-07
-4.02357e-08 -1.78965e-07 0.000229765

0.000230725 -2.1083e-06 -4.42332e-08
-2.1083e-06 0.000236539 1.78126e-07
-4.42332e-08 1.78126e-07 0.000229764

0.000240297 -2.93894e-07 -1.72766e-07
-2.93894e-07 0.000228855 1.17392e-07
-1.72766e-07 1.17392e-07 0.000215369

0.000239964 7.87032e-06 -3.85696e-07
7.87032e-06 0.00022904 1.26926e-07
-3.85696e-07 1.26926e-07 0.000216863

0.00021482 7.97455e-07 -7.58611e-08
7.97455e-07 0.000217736 1.80363e-07
-7.58611e-08 1.80363e-07 0.000219658

0.000215185 -3.27034e-07 1.41167e-07
-3.27034e-07 0.000209451 1.52066e-07
1.41167e-07 1.52066e-07 0.000217311

0.000228828 3.11182e-06 4.87256e-08
3.11182e-06 0.000231377 1.46759e-07
4.87256e-08 1.46759e-07 0.000226734

0.000226923 -3.07976e-06 5.75798e-08
-3.07976e-06 0.000231309 -1.37129e-07
5.75798e-08 -1.37129e-07 0.000226734

0.000227689 3.24708e-06 4.37583e-08
3.24708e-06 0.000227994 1.91772e-08
4.37583e-08 1.91772e-08 0.000223472

0.000215571 1.27205e-06 -3.93463e-08
1.27205e-06 0.000218188 -4.18734e-08
-3.93463e-08 -4.18734e-08 0.000220354

0.000219169 -1.5324e-07 -1.55539e-08
-1.5324e-07 0.000218955 -1.56014e-08
-1.55539e-08 -1.56014e-08 0.00022169

0.000237475 -1.58236e-06 2.05967e-07
-1.58236e-06 0.000242103 -7.15546e-08
2.05967e-07 -7.15546e-08 0.000230793

0.000237475 1.58236e-06 2.06338e-07
1.58236e-06 0.000242103 7.12309e-08
2.06338e-07 7.12309e-08 0.000230794

0.000196743 -6.31388e-07 9.12887e-08
-6.31388e-07 0.000204803 -2.63974e-08
9.12887e-08 -2.63974e-08 0.000211125

0.000225192 2.0293e-06 -7.57256e-08
2.0293e-06 0.00022618 7.86475e-08
-7.57256e-08 7.86475e-08 0.000224481

0.000229117 2.34513e-06 6.29517e-08
2.34513e-06 0.000230836 6.63731e-08
6.29517e-08 6.63731e-08 0.000226789

0.000227169 -2.32194e-06 6.74245e-08
-2.32194e-06 0.000230957 -7.43561e-08
6.74245e-08 -7.43561e-08 0.000226789

0.000224276 1.69898e-06 5.66746e-09
1.69898e-06 0.000228669 -2.93581e-08
5.66746e-09 -2.93581e-08 0.000225034

0.000224527 -2.81949e-06 -8.31332e-08
-2.81949e-06 0.000226195 -5.25804e-08
-8.31332e-08 -5.25804e-08 0.000224476

0.000214301 -2.97859e-07 2.51678e-08
-2.97859e-07 0.000218471 6.67877e-08
2.51678e-08 6.67877e-08 0.00021982

0.000214821 -3.95713e-07 -9.73518e-08
-3.95713e-07 0.000218972 -3.19413e-08
-9.73518e-08 -3.19413e-08 0.000219955

0.000219098 -5.65288e-07 -1.03447e-09
-5.65288e-07 0.000224507 1.77951e-07
-1.03447e-09 1.77951e-07 0.000223154

0.000225595 -1.15028e-06 -2.45255e-08
-1.15028e-06 0.00022879 3.23596e-08
-2.45255e-08 3.23596e-08 0.000225029

0.000215762 -1.35133e-06 -4.5996e-08
-1.35133e-06 0.000215354 2.9303e-08
-4.5996e-08 2.9303e-08 0.000219399

0.000210944 9.71522e-07 1.66354e-07
9.71522e-07 0.000209085 1.46536e-07
1.66354e-07 1.46536e-07 0.000216642

0.000230083 3.17585e-06 -1.15971e-07
3.17585e-06 0.000231294 1.81684e-07
-1.15971e-07 1.81684e-07 0.000227675

0.000230631 -2.77603e-06 -1.15265e-07
-2.77603e-06 0.000231288 -1.70534e-07
-1.15265e-07 -1.70534e-07 0.000227675

0.000229034 1.76787e-06 -9.44863e-08
1.76787e-06 0.000233905 2.55034e-07
-9.44863e-08 2.55034e-07 0.000228265

0.000229868 -1.83001e-06 -9.03661e-08
-1.83001e-06 0.000233896 -2.56856e-07
-9.03661e-08 -2.56856e-07 0.000228265

0.000212704 -1.5566e-06 -1.68788e-07
-1.5566e-06 0.00021556 1.19476e-07
-1.68788e-07 1.19476e-07 0.000218876

0.00021248 -1.45677e-06 8.94906e-10
-1.45677e-06 0.000212815 -7.35821e-08
8.94906e-10 -7.35821e-08 0.000217754

0.000226624 -3.08975e-06 1.31884e-07
-3.08975e-06 0.000230136 -2.80972e-08
1.31884e-07 -2.80972e-08 0.000226105

0.000226621 3.84367e-06 1.30669e-07
3.84367e-06 0.000229965 1.83707e-08
1.30669e-07 1.83707e-08 0.000226105

0.000240373 -1.83996e-06 -1.39828e-07
-1.83996e-06 0.000206699 3.22145e-07
-1.39828e-07 3.22145e-07 0.000214932

0.000237402 -3.67783e-07 -3.71316e-07
-3.67783e-07 0.000225654 2.16323e-07
-3.71316e-07 2.16323e-07 0.000218105

0.000230901 1.85292e-06 -1.8446e-10
1.85292e-06 0.000233425 -1.63845e-08
-1.8446e-10 -1.63845e-08 0.000228004

0.000231016 -1.80405e-06 2.34518e-09
-1.80405e-06 0.000233402 1.59411e-08
2.34518e-09 1.59411e-08 0.000228003

0.000232663 1.57651e-06 8.04629e-08
1.57651e-06 0.000235362 -1.1235e-07
8.04629e-08 -1.1235e-07 0.00022967

0.000229988 -8.8902e-07 8.04933e-08
-8.8902e-07 0.000235418 1.09287e-07
8.04933e-08 1.09287e-07 0.000229668

0.000198305 -2.80706e-06 3.35108e-08
-2.80706e-06 0.00020726 8.91017e-08
3.35108e-08 8.91017e-08 0.000209106

0.000199689 2.17399e-06 -6.65093e-08
2.17399e-06 0.000206718 5.93897e-08
-6.65093e-08 5.93897e-08 0.000209245

0.000229587 -1.46666e-05 1.55689e-07
-1.46666e-05 0.000211007 -3.16742e-07
1.55689e-07 -3.16742e-07 0.000209577

0.00020063 9.23924e-07 -2.7973e-08
9.23924e-07 0.00021306 1.5282e-07
-2.7973e-08 1.5282e-07 0.00020684

0.000235383 5.7217e-07 -2.00142e-07
5.7217e-07 0.000237948 6.20023e-08
-2.00142e-07 6.20023e-08 0.000230305

0.00023707 -3.15649e-07 3.23115e-07
-3.15649e-07 0.000238146 -4.22219e-07
3.23115e-07 -4.22219e-07 0.000230615

0.000235383 -6.58119e-07 -1.9838e-07
-6.58119e-07 0.000237789 -6.11771e-08
-1.9838e-07 -6.11771e-08 0.000230306

0.00023707 3.15649e-07 3.23419e-07
3.15649e-07 0.000238146 4.21694e-07
3.23419e-07 4.21694e-07 0.000230616

0.00023934 8.96344e-06 5.82076e-08
8.96344e-06 0.00023286 -2.57364e-07
5.82076e-08 -2.57364e-07 0.000219294

0.00020087 -6.09227e-07 -7.87904e-08
-6.09227e-07 0.00021343 -2.07748e-07
-7.87904e-08 -2.07748e-07 0.000206839

0.00022859 -6.77081e-06 1.00235e-07
-6.77081e-06 0.000238825 1.78617e-07
1.00235e-07 1.78617e-07 0.000230021

0.000241241 4.77388e-06 -1.66953e-07
4.77388e-06 0.000235498 -5.42061e-07
-1.66953e-07 -5.42061e-07 0.000230771

0.000275035 9.26495e-06 -1.66977e-07
9.26495e-06 0.000235822 5.41573e-07
-1.66977e-07 5.41573e-07 0.000230772

0.000239176 -2.39646e-06 1.00842e-07
-2.39646e-06 0.000238824 -1.78193e-07
1.00842e-07 -1.78193e-07 0.000230023

0.000238461 -5.24937e-07 -5.29263e-08
-5.24937e-07 0.000235079 -5.35429e-08
-5.29263e-08 -5.35429e-08 0.000229785

0.000234168 -2.96645e-06 4.10218e-08
-2.96645e-06 0.000233728 8.66887e-09
4.10218e-08 8.66887e-09 0.000229085

0.000237864 1.87993e-07 8.08072e-08
1.87993e-07 0.00024128 -6.72835e-07
8.08072e-08 -6.72835e-07 0.00023054

0.00023578 1.41271e-06 -5.20909e-08
1.41271e-06 0.000235079 5.36214e-08
-5.20909e-08 5.36214e-08 0.000229786

0.000236302 3.17302e-06 8.16151e-08
3.17302e-06 0.000240182 6.72786e-07
8.16151e-08 6.72786e-07 0.000230541

0.000234168 2.96645e-06 4.17267e-08
2.96645e-06 0.000233728 -8.50406e-09
4.17267e-08 -8.50406e-09 0.000229086

0.000234565 4.53408e-07 3.66656e-08
4.53408e-07 0.000235828 5.35109e-08
3.66656e-08 5.35109e-08 0.000229546

0.000236371 1.8735e-06 -1.22482e-07
1.8735e-06 0.000236538 3.94714e-09
-1.22482e-07 3.94714e-09 0.00023017

0.000234565 -4.35859e-07 3.58966e-08
-4.35859e-07 0.000236258 -5.41326e-08
3.58966e-08 -5.41326e-08 0.000229544

0.000236371 -1.707e-06 -1.2358e-07
-1.707e-06 0.000236875 -4.46634e-09
-1.2358e-07 -4.46634e-09 0.000230169

0.000123031 1.57258e-05 3.57925e-08
1.57258e-05 0.000159692 -8.39239e-08
3.57925e-08 -8.39239e-08 0.000138723

0.000173146 2.53396e-06 7.89005e-08
2.53396e-06 0.000185739 -1.32077e-08
7.89005e-08 -1.32077e-08 0.000175323

0.000138442 4.61297e-06 1.06416e-07
4.61297e-06 0.000184696 -7.25847e-08
1.06416e-07 -7.25847e-08 0.000164789

0.000172353 8.55175e-06 -1.56138e-07
8.55175e-06 0.000123009 -3.48986e-08
-1.56138e-07 -3.48986e-08 0.000147637

0.000166446 2.36157e-06 -6.79015e-08
2.36157e-06 0.000117984 1.36635e-08
-6.79015e-08 1.36635e-08 0.000137113

0.000173832 -1.71925e-06 8.5077e-08
-1.71925e-06 0.000191927 -8.50379e-08
8.5077e-08 -8.50379e-08 0.000186908

0.00013796 6.76326e-06 9.66752e-08
6.76326e-06 0.000199931 4.07249e-08
9.66752e-08 4.07249e-08 0.000174407

0.000167644 -2.25596e-06 -6.96334e-08
-2.25596e-06 0.000122592 2.60865e-08
-6.96334e-08 2.60865e-08 0.00013811

0.000193897 1.76622e-06 5.85481e-08
1.76622e-06 0.00013501 -4.8977e-08
5.85481e-08 -4.8977e-08 0.00016675

0.000101039 1.40392e-05 -7.12139e-08
1.40392e-05 0.000131755 1.8423e-07
-7.12139e-08 1.8423e-07 0.00011092

0.000109071 -2.3158e-05 8.05889e-08
-2.3158e-05 0.000133806 -7.39354e-09
8.05889e-08 -7.39354e-09 0.000110206

0.000135083 1.45282e-05 8.70605e-08
1.45282e-05 0.000105821 -9.54179e-08
8.70605e-08 -9.54179e-08 0.000112759

0.00017799 -2.63925e-05 -4.55468e-08
-2.63925e-05 0.000194172 1.88649e-08
-4.55468e-08 1.88649e-08 0.000183255

0.000165807 -9.70134e-06 -3.64712e-08
-9.70134e-06 0.000191759 6.26885e-08
-3.64712e-08 6.26885e-08 0.000177497

0.000123003 1.34899e-05 3.67424e-08
1.34899e-05 0.000165601 6.74803e-08
3.67424e-08 6.74803e-08 0.000149509

0.000129961 1.61924e-05 -1.29986e-07
1.61924e-05 0.000179215 -4.19128e-08
-1.29986e-07 -4.19128e-08 0.000164477

0.00013714 -8.20707e-06 5.29096e-09
-8.20707e-06 0.000200639 3.71656e-08
5.29096e-09 3.71656e-08 0.000173831

0.000164428 -1.97294e-05 -1.01119e-08
-1.97294e-05 0.000191083 -2.67682e-09
-1.01119e-08 -2.67682e-09 0.000180937

0.000171839 -1.41815e-05 -1.60379e-08
-1.41815e-05 0.000127274 -1.06313e-07
-1.60379e-08 -1.06313e-07 0.000154217

0.000106349 4.17099e-06 2.54364e-08
4.17099e-06 0.000150059 -3.3888e-09
2.54364e-08 -3.3888e-09 0.000119719

0.000119042 -9.23252e-06 5.19725e-08
-9.23252e-06 0.000150524 -6.23381e-08
5.19725e-08 -6.23381e-08 0.000121923

0.000149159 3.54543e-06 -1.39876e-07
3.54543e-06 0.00011413 5.07779e-08
-1.39876e-07 5.07779e-08 0.000120913

0.0001271 1.86355e-05 -5.62397e-08
1.86355e-05 0.00014829 1.77971e-08
-5.62397e-08 1.77971e-08 0.000137875

0.000155245 -1.25387e-05 -4.26451e-08
-1.25387e-05 0.000115946 3.79551e-08
-4.26451e-08 3.79551e-08 0.000129116

0.000145321 2.02237e-05 -5.23743e-09
2.02237e-05 0.000148406 2.04636e-08
-5.23743e-09 2.04636e-08 0.000147721

0.000151564 1.46229e-05 9.41696e-08
1.46229e-05 0.000161364 3.19796e-08
9.41696e-08 3.19796e-08 0.00014734

0.000177299 -4.23523e-06 -4.15251e-08
-4.23523e-06 0.000122634 1.48718e-08
-4.15251e-08 1.48718e-08 0.000149345

9.93616e-05 9.81846e-06 -9.79812e-08
9.81846e-06 0.000121874 1.34632e-07
-9.79812e-08 1.34632e-07 9.90175e-05

0.000185933 4.76849e-06 1.02244e-07
4.76849e-06 0.000131882 -1.28899e-07
1.02244e-07 -1.28899e-07 0.000163215

0.000120981 9.34493e-06 1.68528e-07
9.34493e-06 0.000104484 -4.9119e-08
1.68528e-07 -4.9119e-08 0.000100904

0.00018746 -8.92972e-06 -5.4207e-08
-8.92972e-06 0.000195473 -3.08975e-08
-5.4207e-08 -3.08975e-08 0.000188245

0.000165289 7.02454e-07 4.32815e-08
7.02454e-07 0.000200514 6.14796e-08
4.32815e-08 6.14796e-08 0.00017796

0.000207253 -9.27669e-06 6.33334e-08
-9.27669e-06 0.000191161 7.34887e-08
6.33334e-08 7.34887e-08 0.000188575

0.000196987 2.34908e-05 -4.38851e-08
2.34908e-05 0.000198918 3.14868e-08
-4.38851e-08 3.14868e-08 0.000188813

0.000145591 -6.38539e-06 1.10831e-07
-6.38539e-06 0.000112145 -4.26396e-08
1.10831e-07 -4.26396e-08 0.000115914

0.000142509 2.17855e-05 -6.99415e-08
2.17855e-05 0.000156037 -5.60837e-08
-6.99415e-08 -5.60837e-08 0.000156327

0.000177367 1.25359e-05 -1.27169e-07
1.25359e-05 0.000173935 3.66504e-08
-1.27169e-07 3.66504e-08 0.000177991

0.000183713 -3.31476e-06 -5.56019e-08
-3.31476e-06 0.000178852 -1.24808e-07
-5.56019e-08 -1.24808e-07 0.000178689

0.000194808 1.9187e-06 -4.5439e-08
1.9187e-06 0.000132116 -1.22378e-07
-4.5439e-08 -1.22378e-07 0.000167339

0.000143855 2.05349e-05 9.77382e-08
2.05349e-05 0.0001593 2.72224e-08
9.77382e-08 2.72224e-08 0.000145694

0.000153858 -1.58498e-05 -2.66969e-08
-1.58498e-05 0.000133222 1.43995e-07
-2.66969e-08 1.43995e-07 0.000132963

0.000194162 -2.52672e-07 5.23789e-08
-2.52672e-07 0.000126439 5.69271e-08
5.23789e-08 5.69271e-08 0.000163723

0.000132968 -2.76844e-05 -7.58451e-08
-2.76844e-05 0.000159189 -1.53127e-07
-7.58451e-08 -1.53127e-07 0.000137617

0.000136573 -2.3939e-05 3.10453e-08
-2.3939e-05 0.000163077 -3.83524e-08
3.10453e-08 -3.83524e-08 0.000140203

0.000173939 1.22588e-05 3.51406e-08
1.22588e-05 0.000184127 1.06661e-07
3.51406e-08 1.06661e-07 0.000178737

0.0001396 -2.83122e-05 5.65739e-08
-2.83122e-05 0.000131178 1.51176e-07
5.65739e-08 1.51176e-07 0.000125343

8.37128e-05 -2.72387e-05 -1.0325e-07
-2.72387e-05 8.16427e-05 -1.05445e-07
-1.0325e-07 -1.05445e-07 8.15809e-05

8.00695e-05 -2.91475e-05 -4.01829e-08
-2.91475e-05 8.83164e-05 -1.46574e-07
-4.01829e-08 -1.46574e-07 8.27454e-05

0.000158294 -3.20541e-05 9.97753e-08
-3.20541e-05 0.000192709 7.38804e-08
9.97753e-08 7.38804e-08 0.00017737

8.22604e-05 -1.07687e-05 -2.14828e-08
-1.07687e-05 8.04051e-05 1.71149e-07
-2.14828e-08 1.71149e-07 8.73172e-05

7.76715e-05 -8.95234e-06 3.22917e-08
-8.95234e-06 8.34217e-05 -9.89041e-08
3.22917e-08 -9.89041e-08 8.58455e-05

0.000208195 1.39866e-05 -3.11951e-08
1.39866e-05 0.000178762 3.35171e-08
-3.11951e-08 3.35171e-08 0.000193679

0.000193775 -1.84019e-05 7.08179e-08
-1.84019e-05 0.000174764 2.96301e-08
7.08179e-08 2.96301e-08 0.000180035

0.000177671 -9.43817e-06 -3.81209e-09
-9.43817e-06 0.000129935 -1.01909e-07
-3.81209e-09 -1.01909e-07 0.000162624

0.000206994 1.89295e-05 1.76668e-08
1.89295e-05 0.000168691 -3.10351e-07
1.76668e-08 -3.10351e-07 0.00019172

0.00019141 -2.69144e-05 9.13818e-08
-2.69144e-05 0.000172089 1.7435e-07
9.13818e-08 1.7435e-07 0.00018009

0.000151445 1.43449e-05 9.12653e-08
1.43449e-05 0.000173099 -4.44722e-09
9.12653e-08 -4.44722e-09 0.000159593

0.000205907 -8.75653e-06 1.12736e-07
-8.75653e-06 0.000178138 -2.17183e-08
1.12736e-07 -2.17183e-08 0.000185826

0.00019388 1.13504e-05 1.45236e-07
1.13504e-05 0.000185773 -5.92618e-08
1.45236e-07 -5.92618e-08 0.000186044

0.000190669 2.22731e-05 -4.38228e-08
2.22731e-05 0.000161948 -3.68557e-08
-4.38228e-08 -3.68557e-08 0.000180004

0.00017566 -2.74845e-05 -1.85509e-07
-2.74845e-05 0.000155613 1.56236e-07
-1.85509e-07 1.56236e-07 0.000170049

0.000129446 -1.9145e-05 7.93278e-08
-1.9145e-05 0.000103662 -5.76182e-08
7.93278e-08 -5.76182e-08 0.000107125

0.000195924 -5.45216e-06 1.27565e-07
-5.45216e-06 0.000211493 1.49659e-07
1.27565e-07 1.49659e-07 0.000202575

0.000173504 -4.09019e-07 -4.37704e-08
-4.09019e-07 0.000222317 -1.03771e-07
-4.37704e-08 -1.03771e-07 0.000184941

0.000126707 -2.30968e-05 -8.70588e-08
-2.30968e-05 0.000150781 1.41897e-07
-8.70588e-08 1.41897e-07 0.000138927

9.51465e-05 -8.24793e-06 -2.89511e-08
-8.24793e-06 0.000119402 1.4658e-07
-2.89511e-08 1.4658e-07 9.78683e-05

0.000116093 -7.13074e-06 -4.86468e-08
-7.13074e-06 9.36034e-05 2.71638e-08
-4.86468e-08 2.71638e-08 9.62491e-05

0.000159493 9.04589e-06 -6.01766e-08
9.04589e-06 0.000183414 8.64001e-08
-6.01766e-08 8.64001e-08 0.000171909

0.000126807 1.33987e-05 1.59108e-08
1.33987e-05 0.00017808 -7.76437e-09
1.59108e-08 -7.76437e-09 0.000160544

0.000248067 1.63117e-05 -1.53152e-07
1.63117e-05 0.000194991 -1.75001e-07
-1.53152e-07 -1.75001e-07 0.000206754

0.000237166 6.77851e-06 -8.21122e-07
6.77851e-06 0.000250342 7.60881e-07
-8.21122e-07 7.60881e-07 0.000190555

0.000137932 2.06492e-05 -7.9774e-08
2.06492e-05 0.000168397 5.10462e-08
-7.9774e-08 5.10462e-08 0.000169662

0.000184299 1.60639e-05 -2.39255e-08
1.60639e-05 0.000141681 2.00849e-08
-2.39255e-08 2.00849e-08 0.000168355

0.000174834 -2.51513e-05 1.53843e-07
-2.51513e-05 0.000140487 4.27903e-09
1.53843e-07 4.27903e-09 0.000162759

0.000142673 2.83513e-05 1.31168e-07
2.83513e-05 0.000166315 1.98404e-08
1.31168e-07 1.98404e-08 0.000167955

0.000139494 -2.1765e-05 -1.03332e-07
-2.1765e-05 0.000186349 3.65826e-08
-1.03332e-07 3.65826e-08 0.00017355

0.000144638 -2.40877e-06 1.03571e-07
-2.40877e-06 0.000102799 7.68695e-09
1.03571e-07 7.68695e-09 0.000114588

0.000167419 -8.26568e-06 1.52348e-08
-8.26568e-06 0.000122199 -1.23084e-07
1.52348e-08 -1.23084e-07 0.000143295

0.000153585 9.97097e-06 6.07928e-08
9.97097e-06 0.000114917 -1.94899e-08
6.07928e-08 -1.94899e-08 0.000126792

0.000178722 1.14654e-05 -1.31524e-07
1.14654e-05 0.00015702 5.58584e-08
-1.31524e-07 5.58584e-08 0.000174549

0.000169918 6.28328e-06 1.39771e-07
6.28328e-06 0.000220711 -5.3717e-08
1.39771e-07 -5.3717e-08 0.000190213

0.000195058 -5.42442e-06 3.18516e-07
-5.42442e-06 0.000198053 2.00959e-07
3.18516e-07 2.00959e-07 0.000190002

0.000122449 1.61293e-05 2.03443e-07
1.61293e-05 0.000131362 1.6521e-07
2.03443e-07 1.6521e-07 0.000116517

0.000152274 -2.05807e-05 5.97889e-08
-2.05807e-05 0.000144065 5.8902e-08
5.97889e-08 5.8902e-08 0.000144894

0.000175947 1.13605e-05 -2.55838e-08
1.13605e-05 0.000139522 1.87492e-08
-2.55838e-08 1.87492e-08 0.000158884

0.000186548 1.20724e-05 1.77415e-07
1.20724e-05 0.000227617 -4.99681e-08
1.77415e-07 -4.99681e-08 0.00018711

0.000194135 -8.28824e-06 -1.796e-07
-8.28824e-06 0.000210219 7.49414e-08
-1.796e-07 7.49414e-08 0.000201421

0.000184957 -2.86798e-06 -5.16865e-09
-2.86798e-06 0.000157837 1.01394e-07
-5.16865e-09 1.01394e-07 0.000175812

0.000164858 -1.62268e-05 -8.50864e-09
-1.62268e-05 0.000185424 2.47324e-08
-8.50864e-09 2.47324e-08 0.000170462

0.000137591 -5.77735e-06 4.20141e-09
-5.77735e-06 0.000186666 2.28526e-08
4.20141e-09 2.28526e-08 0.000164429

0.00018779 3.35514e-06 -5.14936e-08
3.35514e-06 0.000128364 2.27873e-09
-5.14936e-08 2.27873e-09 0.000171487

0.00018538 -1.1294e-05 -1.39709e-07
-1.1294e-05 0.000129219 -1.64181e-08
-1.39709e-07 -1.64181e-08 0.000169224

0.000130889 -2.26902e-05 -9.90118e-09
-2.26902e-05 0.000121574 1.04382e-07
-9.90118e-09 1.04382e-07 0.000116346

0.000197965 1.42869e-05 1.13237e-07
1.42869e-05 0.000142584 2.01449e-07
1.13237e-07 2.01449e-07 0.000181235

0.000189548 -2.14059e-05 -1.44179e-07
-2.14059e-05 0.000145305 -7.19063e-09
-1.44179e-07 -7.19063e-09 0.000174579

0.000170892 -1.98061e-05 3.67381e-09
-1.98061e-05 0.000134063 1.39236e-07
3.67381e-09 1.39236e-07 0.000154453

0.000127634 -1.92358e-05 -1.27941e-08
-1.92358e-05 0.000159188 2.37522e-07
-1.27941e-08 2.37522e-07 0.000140504

0.000185317 8.26374e-06 -5.57896e-08
8.26374e-06 0.000143833 2.45203e-08
-5.57896e-08 2.45203e-08 0.000173882

0.000183173 -1.62286e-05 -1.39023e-07
-1.62286e-05 0.000141491 -1.26542e-08
-1.39023e-07 -1.26542e-08 0.000169124

0.000175007 -5.25034e-06 3.62094e-09
-5.25034e-06 0.000138116 -8.41645e-08
3.62094e-09 -8.41645e-08 0.000153621

0.000188679 2.48742e-05 2.90093e-08
2.48742e-05 0.000176602 2.72004e-08
2.90093e-08 2.72004e-08 0.000183693

0.000145235 1.61532e-05 -2.77716e-08
1.61532e-05 0.000134235 -9.01604e-08
-2.77716e-08 -9.01604e-08 0.00013292

0.000140649 2.44284e-05 1.08223e-07
2.44284e-05 0.000162048 -5.40745e-08
1.08223e-07 -5.40745e-08 0.000170907

0.000178055 1.8057e-05 -2.63735e-08
1.8057e-05 0.000191365 -9.24115e-09
-2.63735e-08 -9.24115e-09 0.000188661

0.000160146 9.08941e-06 -4.80679e-08
9.08941e-06 0.000116908 9.32934e-08
-4.80679e-08 9.32934e-08 0.000134901

0.000165856 -1.22467e-05 2.71511e-08
-1.22467e-05 0.00015131 9.83263e-08
2.71511e-08 9.83263e-08 0.000161838

0.000169945 7.72111e-06 -6.49726e-08
7.72111e-06 0.000134706 1.99955e-07
-6.49726e-08 1.99955e-07 0.000150987

0.000127247 1.98011e-05 -6.087e-08
1.98011e-05 0.00013406 -7.75851e-08
-6.087e-08 -7.75851e-08 0.000128028

0.000145653 1.84135e-05 1.33397e-09
1.84135e-05 0.000137537 -6.72278e-08
1.33397e-09 -6.72278e-08 0.000143772

0.000121479 2.75927e-07 1.47329e-07
2.75927e-07 0.000184726 -5.15255e-08
1.47329e-07 -5.15255e-08 0.00015894

0.000148994 -8.06552e-06 7.16655e-08
-8.06552e-06 0.000181226 -1.69312e-08
7.16655e-08 -1.69312e-08 0.000166185

0.000130925 -2.27959e-05 -3.10755e-09
-2.27959e-05 0.000104803 -6.24236e-08
-3.10755e-09 -6.24236e-08 0.000112225

0.000150552 -3.14881e-05 1.08764e-07
-3.14881e-05 0.000180568 -1.812e-07
1.08764e-07 -1.812e-07 0.000167588

0.000128464 -2.79526e-05 -3.40359e-08
-2.79526e-05 0.000142429 -1.91402e-07
-3.40359e-08 -1.91402e-07 0.000129139

0.000144477 2.23458e-05 1.08242e-07
2.23458e-05 0.000146299 1.14763e-07
1.08242e-07 1.14763e-07 0.000134385

0.000168909 -1.03395e-05 6.90662e-08
-1.03395e-05 0.000145137 5.94105e-08
6.90662e-08 5.94105e-08 0.000152452

0.000197776 -7.17863e-07 -3.68392e-08
-7.17863e-07 0.000136145 4.47953e-08
-3.68392e-08 4.47953e-08 0.000173587

0.000192179 3.1975e-06 1.02341e-07
3.1975e-06 0.000139327 6.08338e-08
1.02341e-07 6.08338e-08 0.00017308

0.000110173 1.03123e-05 -1.72234e-08
1.03123e-05 0.000157414 -1.06466e-07
-1.72234e-08 -1.06466e-07 0.000131582

0.000149924 -2.46092e-05 1.21141e-08
-2.46092e-05 0.00015805 -1.65006e-07
1.21141e-08 -1.65006e-07 0.00014762

9.35787e-05 -3.28124e-06 -4.92226e-08
-3.28124e-06 0.000146568 -2.7603e-08
-4.92226e-08 -2.7603e-08 0.000114832

0.000106338 -4.36003e-06 -2.02381e-07
-4.36003e-06 0.000148765 1.16142e-08
-2.02381e-07 1.16142e-08 0.0001179

0.000144629 -5.65776e-06 -1.17877e-07
-5.65776e-06 9.86866e-05 1.14098e-07
-1.17877e-07 1.14098e-07 0.000115493

0.000135081 1.62001e-05 8.41106e-08
1.62001e-05 0.000127939 -1.14852e-07
8.41106e-08 -1.14852e-07 0.000119157

0.000140116 -2.85557e-05 1.10265e-07
-2.85557e-05 0.000124445 -8.62785e-09
1.10265e-07 -8.62785e-09 0.000129069

0.000234067 -9.80877e-06 -8.34551e-07
-9.80877e-06 0.000236716 2.7094e-07
-8.34551e-07 2.7094e-07 0.000189455

0.000188478 -2.55435e-05 -2.47305e-07
-2.55435e-05 0.000221732 9.64115e-08
-2.47305e-07 9.64115e-08 0.000203564

0.000157096 -1.67485e-05 5.00042e-08
-1.67485e-05 0.00011589 -1.03309e-07
5.00042e-08 -1.03309e-07 0.000133731

0.000168262 2.29215e-05 7.30978e-08
2.29215e-05 0.000175879 -1.93069e-08
7.30978e-08 -1.93069e-08 0.000170362

0.000179009 1.79385e-06 4.86394e-09
1.79385e-06 0.000130772 4.34673e-08
4.86394e-09 4.34673e-08 0.000163413

0.000126758 -2.08026e-05 4.33462e-08
-2.08026e-05 0.000162083 -4.193e-08
4.33462e-08 -4.193e-08 0.000134751

0.000133036 2.12956e-05 -1.34415e-08
2.12956e-05 0.000188609 -9.27749e-08
-1.34415e-08 -9.27749e-08 0.000174481

0.000185127 8.90511e-06 -3.70601e-08
8.90511e-06 0.000197806 1.39288e-08
-3.70601e-08 1.39288e-08 0.000195329

0.00015044 -2.99131e-05 4.02234e-09
-2.99131e-05 0.000164117 -1.51594e-07
4.02234e-09 -1.51594e-07 0.000167735

0.000185966 2.17308e-05 2.0177e-08
2.17308e-05 0.000189006 -4.51291e-09
2.0177e-08 -4.51291e-09 0.00019083

0.000130071 1.76973e-05 -1.17557e-07
1.76973e-05 0.000166954 -8.66706e-08
-1.17557e-07 -8.66706e-08 0.000158032

0.000192363 -2.31835e-06 1.20797e-07
-2.31835e-06 0.000109424 1.18639e-08
1.20797e-07 1.18639e-08 0.000174551

0.000149824 2.15582e-05 1.3197e-07
2.15582e-05 0.00012787 -7.9759e-08
1.3197e-07 -7.9759e-08 0.000132489

0.000150705 -3.32777e-05 4.40397e-08
-3.32777e-05 0.000189919 1.27074e-08
4.40397e-08 1.27074e-08 0.000169864

0.000149418 1.95461e-05 1.43387e-07
1.95461e-05 0.0001457 7.14785e-08
1.43387e-07 7.14785e-08 0.000139171

0.000122569 -1.84471e-05 -8.98477e-08
-1.84471e-05 0.000134366 -1.85615e-08
-8.98477e-08 -1.85615e-08 0.000114635

0.000147998 -2.71377e-05 -1.34851e-07
-2.71377e-05 0.000169702 5.17844e-08
-1.34851e-07 5.17844e-08 0.00015655

0.000109789 -1.2506e-05 1.81752e-07
-1.2506e-05 0.000151818 -1.59143e-07
1.81752e-07 -1.59143e-07 0.000122331

0.000127274 4.92229e-06 -6.45241e-08
4.92229e-06 0.000152696 8.56642e-08
-6.45241e-08 8.56642e-08 0.000126313

0.00014655 -1.12132e-05 -2.34045e-08
-1.12132e-05 0.000113352 -7.84716e-08
-2.34045e-08 -7.84716e-08 0.000121792

0.000139801 -2.50236e-05 1.11251e-07
-2.50236e-05 0.000135222 -3.20978e-08
1.11251e-07 -3.20978e-08 0.00013326

0.00012166 -1.24787e-06 1.48581e-07
-1.24787e-06 0.000173061 -7.67102e-08
1.48581e-07 -7.67102e-08 0.00014561

0.00014865 -4.42695e-06 7.1931e-08
-4.42695e-06 0.000173676 -2.22847e-08
7.1931e-08 -2.22847e-08 0.00015143

0.000110681 -2.47246e-05 2.16536e-08
-2.47246e-05 0.0001262 1.22988e-07
2.16536e-08 1.22988e-07 0.000111012

0.000123542 1.81866e-05 -1.09911e-08
1.81866e-05 0.000128868 -6.6924e-08
-1.09911e-08 -6.6924e-08 0.000115149

0.000182106 -2.08965e-08 1.46869e-07
-2.08965e-08 0.000129659 -3.10569e-08
1.46869e-07 -3.10569e-08 0.000175662

0.000180361 -4.41924e-06 1.37758e-07
-4.41924e-06 0.000132128 3.83508e-08
1.37758e-07 3.83508e-08 0.000173415

0.000171932 2.0076e-05 4.38919e-09
2.0076e-05 0.000177666 1.0751e-08
4.38919e-09 1.0751e-08 0.000173299

0.000156473 -3.29223e-05 -5.98516e-08
-3.29223e-05 0.000193561 1.30905e-07
-5.98516e-08 1.30905e-07 0.000176356

0.00015247 2.23433e-05 1.09795e-07
2.23433e-05 0.000156064 -4.25735e-08
1.09795e-07 -4.25735e-08 0.000162462

0.000123255 1.02535e-05 6.79835e-08
1.02535e-05 0.000100735 -1.36376e-07
6.79835e-08 -1.36376e-07 0.000103534

0.000132084 1.26513e-05 -8.93776e-08
1.26513e-05 0.000161221 2.3362e-08
-8.93776e-08 2.3362e-08 0.000138649

0.000199494 1.12675e-05 1.94965e-07
1.12675e-05 0.000162597 -4.3982e-08
1.94965e-07 -4.3982e-08 0.000185112

0.000189248 -1.99229e-05 9.9212e-08
-1.99229e-05 0.000155942 1.62564e-07
9.9212e-08 1.62564e-07 0.000175261

0.000184138 1.63338e-05 -2.10115e-08
1.63338e-05 0.000156645 -1.33035e-08
-2.10115e-08 -1.33035e-08 0.000171533

0.000175081 -2.34067e-05 1.37895e-07
-2.34067e-05 0.000147758 -1.80046e-07
1.37895e-07 -1.80046e-07 0.000163219

7.77134e-05 -1.13464e-05 -3.33761e-08
-1.13464e-05 5.58574e-05 -1.7532e-07
-3.33761e-08 -1.7532e-07 8.60626e-05

5.34902e-05 -1.383e-05 -5.90044e-08
-1.383e-05 8.24046e-05 -1.29495e-07
-5.90044e-08 -1.29495e-07 8.72351e-05

0.000110952 -1.53432e-05 5.08458e-08
-1.53432e-05 0.000158417 2.28447e-07
5.08458e-08 2.28447e-07 0.000133431

0.000225118 1.86755e-05 5.37955e-08
1.86755e-05 0.000176463 -1.33331e-08
5.37955e-08 -1.33331e-08 0.000198724

0.000214288 -2.64692e-05 2.1668e-07
-2.64692e-05 0.00018989 1.85455e-08
2.1668e-07 1.85455e-08 0.000186572

0.000169224 1.90854e-05 -4.38777e-08
1.90854e-05 0.000149771 -2.67424e-08
-4.38777e-08 -2.67424e-08 0.000156614

0.000125506 7.52634e-06 4.01795e-09
7.52634e-06 9.79852e-05 4.60002e-08
4.01795e-09 4.60002e-08 0.00010332

0.000147358 -2.29878e-05 -2.13299e-08
-2.29878e-05 0.000183047 1.82923e-08
-2.13299e-08 1.82923e-08 0.000164483

0.00012703 -1.07561e-05 -1.60861e-07
-1.07561e-05 0.000184321 -5.7404e-08
-1.60861e-07 -5.7404e-08 0.000160729

0.000133129 -2.72793e-05 -9.24965e-08
-2.72793e-05 0.000141693 -1.65454e-08
-9.24965e-08 -1.65454e-08 0.000127271

0.000145196 -2.21041e-05 -2.12513e-08
-2.21041e-05 0.000163463 -7.74027e-08
-2.12513e-08 -7.74027e-08 0.0001705

0.000159429 -2.53179e-05 -1.94185e-07
-2.53179e-05 0.000140521 -6.10152e-08
-1.94185e-07 -6.10152e-08 0.000149245

0.000125323 3.30807e-05 3.10981e-08
3.30807e-05 0.000171468 6.39781e-08
3.10981e-08 6.39781e-08 0.000170347

0.000188242 8.10046e-06 1.7883e-07
8.10046e-06 0.000197898 -1.8853e-10
1.7883e-07 -1.8853e-10 0.000195039

0.00016734 1.42328e-05 -4.83121e-08
1.42328e-05 0.000189386 -9.0495e-08
-4.83121e-08 -9.0495e-08 0.000177979

0.000145868 -2.41077e-05 -7.00382e-09
-2.41077e-05 0.000158842 -1.4506e-07
-7.00382e-09 -1.4506e-07 0.000160457

0.000141715 2.41808e-05 -6.29654e-08
2.41808e-05 0.000161354 -1.04826e-07
-6.29654e-08 -1.04826e-07 0.000160265

0.00014614 1.58897e-05 1.20605e-08
1.58897e-05 0.000117791 6.84206e-08
1.20605e-08 6.84206e-08 0.000125551

0.000165838 -9.75398e-08 -2.9952e-09
-9.75398e-08 0.000125259 6.86262e-08
-2.9952e-09 6.86262e-08 0.000144626

0.000191759 1.63125e-05 2.04614e-08
1.63125e-05 0.000190935 -4.98817e-09
2.04614e-08 -4.98817e-09 0.00019301

0.000136871 -2.64104e-05 2.42222e-08
-2.64104e-05 0.000174454 5.58188e-08
2.42222e-08 5.58188e-08 0.000151845

0.000113143 3.88832e-06 -6.96171e-08
3.88832e-06 0.000169995 4.16409e-08
-6.96171e-08 4.16409e-08 0.000141434

0.000176649 2.49216e-05 -2.72391e-08
2.49216e-05 0.000154315 -1.24016e-08
-2.72391e-08 -1.24016e-08 0.000166327

0.00014035 6.27516e-07 -1.04806e-07
6.27516e-07 0.000170757 6.09391e-08
-1.04806e-07 6.09391e-08 0.000148951

0.000133538 -1.86542e-05 1.49656e-08
-1.86542e-05 0.000184901 -4.87231e-09
1.49656e-08 -4.87231e-09 0.000173875

9.39495e-05 -1.57846e-05 -4.15317e-08
-1.57846e-05 0.000101478 4.88367e-09
-4.15317e-08 4.88367e-09 9.00471e-05

0.000103228 -1.56931e-05 -1.6548e-08
-1.56931e-05 9.20399e-05 3.03286e-08
-1.6548e-08 3.03286e-08 8.95797e-05

0.000176604 5.74809e-06 -2.7551e-08
5.74809e-06 0.000128413 5.4221e-08
-2.7551e-08 5.4221e-08 0.000156338

0.000160363 -2.91559e-05 -2.70472e-08
-2.91559e-05 0.000146401 -2.03927e-07
-2.70472e-08 -2.03927e-07 0.000157469

0.000248241 1.524e-05 3.16856e-08
1.524e-05 0.000188825 2.69858e-07
3.16856e-08 2.69858e-07 0.000204589

0.000251289 -2.43917e-06 -4.85145e-07
-2.43917e-06 0.000212905 -4.77355e-08
-4.85145e-07 -4.77355e-08 0.000190056

0.00013488 -2.06473e-05 9.22583e-08
-2.06473e-05 0.000164842 -9.65894e-08
9.22583e-08 -9.65894e-08 0.000158748

0.000180416 -6.18758e-06 -2.72236e-07
-6.18758e-06 0.000191045 1.4379e-07
-2.72236e-07 1.4379e-07 0.000184647

0.000175895 2.14222e-05 -1.49949e-07
2.14222e-05 0.00019906 7.53255e-09
-1.49949e-07 7.53255e-09 0.000184878

0.000185879 2.1629e-06 7.00362e-08
2.1629e-06 0.000125863 -1.66546e-07
7.00362e-08 -1.66546e-07 0.000155396

0.000148135 -3.55205e-05 5.65766e-08
-3.55205e-05 0.000188874 3.11134e-08
5.65766e-08 3.11134e-08 0.000169533

0.000104353 1.26249e-05 -1.33648e-07
1.26249e-05 0.00010452 7.17177e-08
-1.33648e-07 7.17177e-08 9.64026e-05

0.000100577 1.15749e-05 -5.02751e-09
1.15749e-05 0.000100908 -1.39784e-07
-5.02751e-09 -1.39784e-07 9.45876e-05

9.04114e-05 -1.41012e-05 -4.38979e-08
-1.41012e-05 0.000123088 1.80156e-07
-4.38979e-08 1.80156e-07 0.00010067

0.000103496 7.31172e-06 -1.53057e-07
7.31172e-06 0.000126544 -2.03993e-07
-1.53057e-07 -2.03993e-07 0.000104249

0.000121778 -1.18133e-05 -8.23009e-08
-1.18133e-05 9.23963e-05 9.54445e-09
-8.23009e-08 9.54445e-09 0.00010089

0.000129325 -3.30003e-05 5.51744e-08
-3.30003e-05 0.000170208 4.74253e-08
5.51744e-08 4.74253e-08 0.000170114

7.98938e-05 1.02422e-06 1.20788e-08
1.02422e-06 0.000118327 1.68078e-07
1.20788e-08 1.68078e-07 9.47571e-05

0.000117603 7.89842e-07 1.59426e-07
7.89842e-07 8.57372e-05 -8.06311e-08
1.59426e-07 -8.06311e-08 9.63082e-05

0.000173142 2.50145e-06 3.08756e-09
2.50145e-06 0.000210982 1.43655e-07
3.08756e-09 1.43655e-07 0.000182874

0.000183242 -1.86284e-05 1.56659e-08
-1.86284e-05 0.000203956 1.44151e-07
1.56659e-08 1.44151e-07 0.000190382

0.000180383 7.49813e-06 -1.59068e-07
7.49813e-06 0.000147957 2.96249e-08
-1.59068e-07 2.96249e-08 0.000164955

0.000195734 1.29151e-06 -6.023e-08
1.29151e-06 0.000127874 -7.91824e-08
-6.023e-08 -7.91824e-08 0.000167136

0.000108654 -1.81417e-05 7.66802e-08
-1.81417e-05 0.000139966 -2.84738e-07
7.66802e-08 -2.84738e-07 0.000119615

0.00012166 1.12035e-05 -1.89492e-09
1.12035e-05 0.00014571 1.01889e-08
-1.89492e-09 1.01889e-08 0.000123695

0.000186019 1.7186e-06 2.66759e-08
1.7186e-06 0.000126559 7.01072e-08
2.66759e-08 7.01072e-08 0.000156106

0.000127458 -1.81753e-05 5.50621e-09
-1.81753e-05 0.000165503 -2.88823e-08
5.50621e-09 -2.88823e-08 0.000150938

0.000212853 1.04917e-05 -1.46015e-07
1.04917e-05 0.000174209 -2.48801e-07
-1.46015e-07 -2.48801e-07 0.000194668

0.000203394 -1.54304e-05 8.61333e-08
-1.54304e-05 0.000179002 1.72388e-07
8.61333e-08 1.72388e-07 0.000183478

0.000160704 1.68293e-05 6.21086e-08
1.68293e-05 0.00015934 8.64517e-11
6.21086e-08 8.64517e-11 0.000163879

0.00014623 -3.0131e-05 -1.51267e-07
-3.0131e-05 0.000180495 -2.51987e-08
-1.51267e-07 -2.51987e-08 0.000160056

0.000180561 7.65675e-06 -1.45949e-07
7.65675e-06 0.000132543 1.63891e-07
-1.45949e-07 1.63891e-07 0.000161279

0.000123426 1.5775e-05 2.1643e-07
1.5775e-05 0.00011886 1.13801e-07
2.1643e-07 1.13801e-07 0.000113561

0.0001463 -3.25684e-05 2.61592e-08
-3.25684e-05 0.000178297 5.42877e-08
2.61592e-08 5.42877e-08 0.000158984

7.78661e-05 2.82352e-05 1.04214e-08
2.82352e-05 7.8647e-05 3.69379e-08
1.04214e-08 3.69379e-08 7.94198e-05

0.000132141 -1.2212e-05 4.67221e-08
-1.2212e-05 0.000170037 -3.30549e-08
4.67221e-08 -3.30549e-08 0.000145545

0.000115908 -7.34743e-06 -1.30724e-07
-7.34743e-06 0.000169478 -1.75095e-07
-1.30724e-07 -1.75095e-07 0.000141971

0.000166014 -3.28338e-06 8.31375e-08
-3.28338e-06 0.000222317 -1.72205e-07
8.31375e-08 -1.72205e-07 0.000183702

0.000189304 -1.48385e-05 -9.16965e-08
-1.48385e-05 0.000201356 1.88913e-07
-9.16965e-08 1.88913e-07 0.000195222

0.000200764 8.13982e-06 1.44138e-07
8.13982e-06 0.00011897 -3.46404e-08
1.44138e-07 -3.46404e-08 0.000181933

0.000195892 -1.20708e-05 1.40262e-07
-1.20708e-05 0.000125965 3.5116e-08
1.40262e-07 3.5116e-08 0.000177282

0.000164458 2.50625e-05 1.42238e-08
2.50625e-05 0.000165866 -2.10081e-08
1.42238e-08 -2.10081e-08 0.000172659

0.000166654 -1.61181e-05 2.57442e-07
-1.61181e-05 0.000172936 -3.55137e-08
2.57442e-07 -3.55137e-08 0.000173398

0.00017777 1.89875e-05 -1.38249e-07
1.89875e-05 0.000185413 -4.26896e-08
-1.38249e-07 -4.26896e-08 0.000183495

0.000176749 -1.32981e-05 -2.81309e-07
-1.32981e-05 0.000196883 1.052e-07
-2.81309e-07 1.052e-07 0.000183017

0.000236273 1.79676e-05 2.4711e-08
1.79676e-05 0.000188547 2.70266e-07
2.4711e-08 2.70266e-07 0.000204195

0.000223497 -2.46607e-05 2.91337e-07
-2.46607e-05 0.0002104 -2.3122e-09
2.91337e-07 -2.3122e-09 0.000188897

0.000207394 1.8567e-05 -1.0776e-07
1.8567e-05 0.000186608 -3.2407e-08
-1.0776e-07 -3.2407e-08 0.000197987

0.000151872 -3.48666e-05 -7.19663e-08
-3.48666e-05 0.000168338 -6.71766e-08
-7.19663e-08 -6.71766e-08 0.000175098

0.000169804 1.94447e-05 -5.61801e-08
1.94447e-05 0.000137284 2.32341e-08
-5.61801e-08 2.32341e-08 0.000152349

0.000147722 -2.22937e-05 -1.98625e-08
-2.22937e-05 0.000175376 2.83905e-08
-1.98625e-08 2.83905e-08 0.000154322

0.000126419 -1.36923e-05 -1.73123e-07
-1.36923e-05 0.000170857 -1.29028e-07
-1.73123e-07 -1.29028e-07 0.000151601

0.000129438 -1.97838e-05 6.56438e-08
-1.97838e-05 0.000124053 1.44077e-07
6.56438e-08 1.44077e-07 0.000112707

0.000159455 -2.61506e-05 -1.56593e-07
-2.61506e-05 0.000132275 1.12681e-07
-1.56593e-07 1.12681e-07 0.000146689

0.000126624 8.49926e-06 1.76291e-08
8.49926e-06 0.000171334 8.30735e-08
1.76291e-08 8.30735e-08 0.00015052

0.0001607 2.59012e-05 2.29566e-08
2.59012e-05 0.000148065 -3.58859e-08
2.29566e-08 -3.58859e-08 0.000151024

0.000143197 3.84442e-05 -3.33784e-08
3.84442e-05 0.000170731 -9.92475e-08
-3.33784e-08 -9.92475e-08 0.000176048

0.000154355 -3.15147e-05 -1.22421e-07
-3.15147e-05 0.000188388 6.68114e-08
-1.22421e-07 6.68114e-08 0.000174665

0.000144359 -2.94862e-05 8.72841e-08
-2.94862e-05 0.000139522 -1.15846e-08
8.72841e-08 -1.15846e-08 0.000143635

0.000184981 -1.98645e-06 6.04947e-09
-1.98645e-06 0.000156166 9.08914e-08
6.04947e-09 9.08914e-08 0.000167214

0.000200942 -9.5383e-06 3.72667e-07
-9.5383e-06 0.000216774 -3.13039e-07
3.72667e-07 -3.13039e-07 0.000200625

0.000234917 -1.12474e-05 3.46235e-07
-1.12474e-05 0.000228102 -2.08393e-07
3.46235e-07 -2.08393e-07 0.000189101

0.000138989 -1.14737e-05 -9.9982e-08
-1.14737e-05 0.000179731 -9.89502e-08
-9.9982e-08 -9.89502e-08 0.000166185

0.000160625 1.57453e-05 5.86246e-08
1.57453e-05 0.000144602 -4.67709e-08
5.86246e-08 -4.67709e-08 0.000159618

0.000191499 -1.4674e-06 1.5104e-07
-1.4674e-06 0.000165155 -5.41796e-08
1.5104e-07 -5.41796e-08 0.000178504

9.18703e-05 -2.01005e-05 -2.28161e-08
-2.01005e-05 0.000105426 -2.00955e-08
-2.28161e-08 -2.00955e-08 9.21071e-05

0.000103754 -1.81955e-05 4.09347e-09
-1.81955e-05 9.18791e-05 1.32717e-08
4.09347e-09 1.32717e-08 9.25754e-05

0.000200241 -8.76304e-07 -4.42495e-08
-8.76304e-07 0.000142168 1.99294e-07
-4.42495e-08 1.99294e-07 0.000185111

0.000197404 -3.69804e-06 9.11043e-08
-3.69804e-06 0.000143167 -2.12067e-08
9.11043e-08 -2.12067e-08 0.000178547

0.000198525 4.21516e-06 -2.21512e-08
4.21516e-06 0.000161195 9.52174e-08
-2.21512e-08 9.52174e-08 0.000178844

0.000159521 1.04484e-05 -6.00994e-08
1.04484e-05 0.000174746 9.42622e-08
-6.00994e-08 9.42622e-08 0.000160292

0.000160292 1.34875e-05 -4.91703e-08
1.34875e-05 0.000133782 2.87117e-08
-4.91703e-08 2.87117e-08 0.000140078

0.000191315 1.9036e-05 -5.48765e-08
1.9036e-05 0.000172486 5.12399e-08
-5.48765e-08 5.12399e-08 0.000182717

0.000176487 -2.38978e-05 -2.01349e-07
-2.38978e-05 0.000159846 2.90936e-08
-2.01349e-07 2.90936e-08 0.000170601

0.000205032 -2.66011e-06 1.56588e-07
-2.66011e-06 0.00018902 -4.66618e-07
1.56588e-07 -4.66618e-07 0.000190847

0.000197189 2.70385e-05 -1.54126e-08
2.70385e-05 0.000235597 2.1082e-07
-1.54126e-08 2.1082e-07 0.000191155

0.000134687 -2.04914e-05 1.0616e-07
-2.04914e-05 0.000173159 -1.58381e-08
1.0616e-07 -1.58381e-08 0.000164867

0.000165225 1.38879e-05 2.8961e-08
1.38879e-05 0.000138431 -7.11756e-08
2.8961e-08 -7.11756e-08 0.000150073

0.000198038 1.24658e-05 1.1691e-07
1.24658e-05 0.000161703 3.99759e-08
1.1691e-07 3.99759e-08 0.00018501

0.000189764 -1.65136e-05 -1.46291e-07
-1.65136e-05 0.000162615 -9.87576e-08
-1.46291e-07 -9.87576e-08 0.000176422

0.000158737 -2.91182e-05 9.04597e-08
-2.91182e-05 0.000186071 -5.94374e-08
9.04597e-08 -5.94374e-08 0.000169073

0.000152157 -3.73443e-05 -1.14229e-07
-3.73443e-05 0.000189374 5.98331e-08
-1.14229e-07 5.98331e-08 0.000169926

8.08364e-05 3.41242e-05 1.2255e-07
3.41242e-05 8.44453e-05 2.90066e-08
1.2255e-07 2.90066e-08 8.09481e-05

0.000152282 2.59104e-05 -5.78252e-08
2.59104e-05 0.000184365 -5.00022e-08
-5.78252e-08 -5.00022e-08 0.000178703

0.000160805 -2.31757e-05 -9.75962e-08
-2.31757e-05 0.00019566 1.17209e-07
-9.75962e-08 1.17209e-07 0.000177931

0.00014627 -3.20964e-05 3.67382e-09
-3.20964e-05 0.000185441 -8.7169e-08
3.67382e-09 -8.7169e-08 0.000166051

0.000158188 -2.20117e-05 4.20778e-08
-2.20117e-05 0.00012678 -3.62887e-08
4.20778e-08 -3.62887e-08 0.000136888

0.00016604 -1.44361e-05 2.60485e-08
-1.44361e-05 0.000170974 1.18011e-07
2.60485e-08 1.18011e-07 0.000165145

0.000164319 2.50343e-05 2.88127e-09
2.50343e-05 0.000167631 1.72905e-08
2.88127e-09 1.72905e-08 0.000174754

0.000163722 -2.00907e-05 2.05183e-07
-2.00907e-05 0.000184642 -2.32511e-07
2.05183e-07 -2.32511e-07 0.00017427

0.000184981 -1.96607e-06 6.48576e-09
-1.96607e-06 0.000134139 -8.52623e-08
6.48576e-09 -8.52623e-08 0.000163409

0.000202552 7.12613e-06 -1.15727e-07
7.12613e-06 0.000164633 -1.55971e-07
-1.15727e-07 -1.55971e-07 0.000191001

0.000197554 -7.63656e-06 1.21755e-07
-7.63656e-06 0.000178607 -1.7355e-07
1.21755e-07 -1.7355e-07 0.0001824

0.000192843 -9.90052e-06 -5.58259e-08
-9.90052e-06 0.000225865 1.22188e-07
-5.58259e-08 1.22188e-07 0.000199756

0.00018602 6.72506e-06 -2.08636e-07
6.72506e-06 0.000242039 3.55199e-07
-2.08636e-07 3.55199e-07 0.000187925

8.70993e-05 2.65177e-06 1.42638e-07
2.65177e-06 6.05049e-05 6.24479e-08
1.42638e-07 6.24479e-08 8.6848e-05

6.16319e-05 2.14868e-06 -3.80172e-08
2.14868e-06 8.55804e-05 4.83138e-09
-3.80172e-08 4.83138e-09 8.52423e-05

0.000187268 2.35503e-05 -1.93876e-08
2.35503e-05 0.000181321 8.12709e-08
-1.93876e-08 8.12709e-08 0.00018463

0.000161251 -2.46345e-05 1.22252e-07
-2.46345e-05 0.000161311 -1.04471e-08
1.22252e-07 -1.04471e-08 0.000169374

0.000140802 -2.24251e-05 6.04394e-08
-2.24251e-05 0.000167012 4.66862e-08
6.04394e-08 4.66862e-08 0.000169203

7.60938e-05 8.33508e-06 1.10142e-07
8.33508e-06 7.58643e-05 -1.03839e-07
1.10142e-07 -1.03839e-07 8.45158e-05

7.5776e-05 9.07499e-06 5.60674e-09
9.07499e-06 7.67795e-05 1.08271e-08
5.60674e-09 1.08271e-08 8.5355e-05

0.000233573 4.10624e-06 -3.22279e-07
4.10624e-06 0.000239419 1.00226e-07
-3.22279e-07 1.00226e-07 0.000190551

0.000234528 5.9177e-06 -1.35384e-07
5.9177e-06 0.000217082 4.2164e-07
-1.35384e-07 4.2164e-07 0.000204139

0.000154738 -2.11118e-05 -6.37141e-08
-2.11118e-05 0.000167808 4.14453e-08
-6.37141e-08 4.14453e-08 0.000162881

0.0001443 -2.60973e-05 1.55949e-07
-2.60973e-05 0.000151284 1.05841e-07
1.55949e-07 1.05841e-07 0.000147391

0.000187827 2.42853e-05 -2.64188e-08
2.42853e-05 0.000167968 3.64335e-08
-2.64188e-08 3.64335e-08 0.000179132

0.000163508 -3.05784e-05 8.85749e-08
-3.05784e-05 0.000156408 1.79855e-07
8.85749e-08 1.79855e-07 0.000166564

0.000144839 -2.77497e-05 5.29766e-08
-2.77497e-05 0.000154721 2.42488e-07
5.29766e-08 2.42488e-07 0.000155794

0.000163961 2.00602e-05 -3.35629e-09
2.00602e-05 0.000158512 9.44891e-09
-3.35629e-09 9.44891e-09 0.000155841

9.21848e-05 -8.95509e-06 -8.57843e-09
-8.95509e-06 0.000125745 1.89723e-07
-8.57843e-09 1.89723e-07 0.000101773

0.000102926 5.5127e-06 -1.52292e-07
5.5127e-06 0.000127018 -2.04091e-07
-1.52292e-07 -2.04091e-07 0.000104382

0.000122954 -8.47205e-06 -5.79393e-08
-8.47205e-06 9.8324e-05 1.21198e-07
-5.79393e-08 1.21198e-07 0.000102743

0.0001698 2.69383e-05 2.95022e-09
2.69383e-05 0.000166184 1.8589e-08
2.95022e-09 1.8589e-08 0.000166317

8.84091e-05 -6.45473e-06 1.29012e-07
-6.45473e-06 0.000119119 1.31378e-07
1.29012e-07 1.31378e-07 9.60672e-05

0.000115478 -4.18496e-06 -4.60724e-08
-4.18496e-06 8.5766e-05 6.59989e-09
-4.60724e-08 6.59989e-09 9.37701e-05

0.000201776 1.98763e-05 -7.3106e-08
1.98763e-05 0.000179359 7.08923e-08
-7.3106e-08 7.08923e-08 0.000191007

0.00017401 -2.86885e-05 -1.43952e-07
-2.86885e-05 0.000162457 4.60254e-08
-1.43952e-07 4.60254e-08 0.000174732

0.000199344 2.47512e-05 -6.42461e-08
2.47512e-05 0.000174785 4.01728e-08
-6.42461e-08 4.01728e-08 0.000189785

0.000173937 -2.74246e-05 -1.62519e-07
-2.74246e-05 0.000171935 -1.73591e-08
-1.62519e-07 -1.73591e-08 0.000175757

7.51126e-05 9.89395e-06 5.55953e-09
9.89395e-06 7.51411e-05 -2.73672e-08
5.55953e-09 -2.73672e-08 8.32206e-05

7.50881e-05 9.91413e-06 -1.95434e-08
9.91413e-06 7.57431e-05 3.45489e-08
-1.95434e-08 3.45489e-08 8.2293e-05

0.000177247 2.14359e-05 -3.22986e-08
2.14359e-05 0.000169325 3.22146e-08
-3.22986e-08 3.22146e-08 0.000171213

0.000160723 -2.71121e-05 1.8709e-08
-2.71121e-05 0.000152892 2.29406e-07
1.8709e-08 2.29406e-07 0.000160263

0.000191149 -1.6945e-05 -5.16616e-08
-1.6945e-05 0.000203733 1.48072e-07
-5.16616e-08 1.48072e-07 0.000195041

0.000182496 -6.64087e-06 -2.40386e-07
-6.64087e-06 0.000212015 1.57833e-07
-2.40386e-07 1.57833e-07 0.00018495

0.000203495 2.42741e-05 -1.18032e-07
2.42741e-05 0.000188983 -3.37819e-10
-1.18032e-07 -3.37819e-10 0.000197226

0.000159313 -2.18324e-05 -7.41404e-08
-2.18324e-05 0.000182007 -7.3397e-08
-7.41404e-08 -7.3397e-08 0.000177692

0.000212673 1.23207e-05 -1.58809e-07
1.23207e-05 0.000155816 -1.32193e-07
-1.58809e-07 -1.32193e-07 0.000191379

0.000202451 -2.06087e-05 4.33522e-08
-2.06087e-05 0.000162796 -2.16822e-07
4.33522e-08 -2.16822e-07 0.000181776

0.000150206 2.26924e-05 1.36038e-07
2.26924e-05 0.000167787 1.32235e-08
1.36038e-07 1.32235e-08 0.000169147

0.000155707 -2.62458e-05 7.42986e-08
-2.62458e-05 0.000184462 -2.34446e-07
7.42986e-08 -2.34446e-07 0.000168727

0.000192032 -1.79442e-05 2.40146e-07
-1.79442e-05 0.000196067 -2.52458e-07
2.40146e-07 -2.52458e-07 0.000186973

0.00018256 -1.62252e-05 5.42953e-08
-1.62252e-05 0.000221484 -2.30389e-07
5.42953e-08 -2.30389e-07 0.000194581

0.000224697 1.88907e-05 4.44883e-08
1.88907e-05 0.000169872 -3.66409e-08
4.44883e-08 -3.66409e-08 0.000196846

0.000238483 5.81338e-06 5.73544e-09
5.81338e-06 0.00018227 -7.79079e-10
5.73544e-09 -7.79079e-10 0.00020128

0.000215109 -1.94119e-05 -1.87367e-07
-1.94119e-05 0.000186409 5.6689e-08
-1.87367e-07 5.6689e-08 0.000186515

0.000232773 -3.57825e-06 -4.03704e-07
-3.57825e-06 0.000200588 -1.43508e-07
-4.03704e-07 -1.43508e-07 0.000188984

0.000174443 -4.72108e-06 3.09561e-08
-4.72108e-06 0.000228789 -1.26547e-07
3.09561e-08 -1.26547e-07 0.000185982

0.000197482 3.43784e-05 3.83406e-08
3.43784e-05 0.00019722 7.69497e-08
3.83406e-08 7.69497e-08 0.00018752

0.000242935 1.923e-05 4.58538e-07
1.923e-05 0.000192749 6.94749e-07
4.58538e-07 6.94749e-07 0.000208804

0.000249107 2.13779e-05 6.8132e-07
2.13779e-05 0.000186711 -8.0766e-07
6.8132e-07 -8.0766e-07 0.000208555

0.000264037 1.53708e-05 -4.22999e-06
1.53708e-05 0.000247925 -1.82355e-06
-4.22999e-06 -1.82355e-06 0.000190709

0.000206194 -2.77662e-05 4.47065e-07
-2.77662e-05 0.000228342 -6.12999e-07
4.47065e-07 -6.12999e-07 0.000187599

0.000239955 1.47123e-05 -1.54318e-07
1.47123e-05 0.000185901 -2.3421e-07
-1.54318e-07 -2.3421e-07 0.000206234

0.000216546 1.23315e-05 1.28779e-07
1.23315e-05 0.000193013 -4.67445e-08
1.28779e-07 -4.67445e-08 0.000201418

0.00023725 2.04212e-05 -1.22054e-07
2.04212e-05 0.000191024 -3.83617e-07
-1.22054e-07 -3.83617e-07 0.000206914

0.000213885 -2.2095e-05 6.27138e-08
-2.2095e-05 0.000193478 -3.04019e-08
6.27138e-08 -3.04019e-08 0.000186298

0.000216556 -1.16886e-05 1.77909e-07
-1.16886e-05 0.000232588 5.03041e-07
1.77909e-07 5.03041e-07 0.000189533

0.000194585 -9.58013e-06 8.30184e-08
-9.58013e-06 0.000185367 -4.38475e-08
8.30184e-08 -4.38475e-08 0.000182512

0.000217905 2.01638e-05 1.51065e-07
2.01638e-05 0.000180965 2.26328e-07
1.51065e-07 2.26328e-07 0.000199092

0.000226648 1.15731e-05 2.12475e-08
1.15731e-05 0.000185468 2.66758e-07
2.12475e-08 2.66758e-07 0.000201189

0.000197165 -2.54036e-05 7.76081e-08
-2.54036e-05 0.000185785 2.24471e-08
7.76081e-08 2.24471e-08 0.00018383

0.000217513 -1.24781e-05 2.22372e-07
-1.24781e-05 0.000191862 6.7531e-08
2.22372e-07 6.7531e-08 0.000186979

SCALARS pressure float
LOOKUP_TABLE default
-0.908474
-0.028078
0.0253373
-0.0188878
-0.758863
1.65916
1.68247
-0.855335
0.511955
-1.6568
-1.83001
-1.7753
1.00546
0.970777
-0.00927235
0.452127
1.73016
1.72448
-0.144866
-1.96384
-2.0506
-2.19051
-0.69578
-0.772565
-0.462946
-0.942093
-0.0129752
-3.68859
0.606408
-3.71091
1.13868
1.15306
3.93702
3.95399
-2.21114
0.195251
1.42248
1.55263
0.513121
-0.844542
-1.18324
0.447169
-0.734441
-0.934272
0.304939
-1.21702
-3.58444
-3.5749
1.11256
-4.86449
-4.66495
1.23727
1.24567
-0.0608396
1.58304
1.58594
-0.132701
3.19922
3.216
0.669543
0.678864
-1.85633
3.04017
3.02814
-0.82951
-3.87236
-3.8276
0.328019
0.430423
5.27311
5.27053
0.480343
0.399529
0.38347
0.715352
1.01366
-1.75339
-1.20679
1.81749
5.6104
5.55235
-2.10032
-0.0785631
-0.44033
4.13378
4.12496
1.92075
0.0798967
0.0528136
0.389017
0.411809
-2.238
-0.909385
0.907772
0.915162
-0.482826
-0.966446
0.221232
0.249432
-0.0667125
0.341766
-1.26706
0.525565
0.34492
-0.939911
0.903709
-0.26606
-0.811686
-0.0314333
0.787053
0.776543
-1.82693
0.724263
-1.31045
-1.30207
-0.235227
1.27196
1.16064
-0.773013
-0.492275
-1.45181
-1.52091
-1.67944
-2.31191
-0.96368
5.63024
5.61027
-0.903134
-0.193202
-0.0859619
-0.796958
0.911095
1.04631
0.3482
0.280715
-0.035067
0.428169
-0.995498
0.534988
-1.2065
-2.20485
0.168585
-2.00687
-1.97958
-2.15991
-1.2423
-0.927665
-0.910282
-1.98057
-1.85941
0.600994
0.605059
-0.110887
0.901284
0.649911
-2.70832
-0.939649
0.967161
0.955298
-0.0579434
-0.0413151
-6.67525
-6.62827
-0.865073
2.51654
2.51746
-0.553625
-2.66899
-0.91401
0.542825
0.487623
-1.14664
0.285929
-0.590805
0.568362
1.05235
1.10741
-0.0915995
0.00703233
-1.14051
0.335082
-0.011754
-0.375724
0.12511
-0.444794
0.736867
-3.31366
-3.31336
0.11914
-0.153737
4.1588
4.1597
-0.14497
2.92353
2.96305
-0.105365
0.543938
-2.69519
-2.51306
-3.1899
-3.19323
-3.33702
0.307024
-2.69858
-2.83603
2.1222
2.12234
0.047497
0.634349
-1.4981
-1.47316
0.00109657
-0.102449
1.69529
1.70395
0.236211
0.029885
0.569208
-1.6749
-0.0112708
-3.87596
-0.376071
-0.438092
2.73129
2.73128
0.764215
0.771753
1.57692
1.50689
2.09459
2.08351
3.55217
3.55278
0.646723
0.656564
-0.305119
-0.496583
-0.563313
-2.31762
-0.33858
-0.49293
-0.549339
1.13504
1.15083
-0.547867
0.231811
6.01329
6.00874
0.0874783
0.802849
1.30529
-3.36452
-3.36101
1.02242
1.03304
1.3518
-0.562892
-1.32601
0.385106
0.392732
6.33808
6.17979
0.361571
-0.479909
0.813549
0.803418
0.194027
0.454237
-3.94309
1.27571
1.28645
0.50243
-1.3296
0.275161
1.14778
1.16872
0.782726
1.41244
1.40655
3.99834
3.99613
-6.53592
-6.22275
0.208213
0.212271
0.316721
-5.08911
-5.06241
4.66545
4.6648
0.696939
-0.54387
0.446129
0.452605
-0.110051
-0.528797
-3.19501
-2.92637
-3.30717
-0.11956
-2.88428
-2.85193
0.798418
0.799011
0.913451
0.918738
-5.21904
-5.14541
-0.132704
-0.148927
3.16747
3.15602
0.836755
0.847772
1.83097
1.83178
0.574701
0.563214
3.5146
2.54287
3.70854
2.54521
3.70894
3.50113
3.75584
3.76574
3.65932
3.30862
3.30525
3.66177
2.60755
1.33971
4.32268
2.61204
4.32139
1.34427
2.09104
2.67125
2.09334
2.6768
0.177958
0.491111
0.252488
-0.484633
1.80641
1.53034
-0.399598
1.08648
-1.92788
-2.26881
-2.28532
0.91571
1.15199
-0.215667
1.49501
1.84896
0.0966333
-1.83386
-1.94146
-2.16148
-0.84118
-0.565059
0.375643
-3.80225
1.06733
1.31952
1.05428
2.49347
3.25969
-0.0654919
-0.690315
-1.77923
1.25412
1.37584
1.48729
-0.343312
1.38526
-1.15904
-0.404493
-1.00715
-0.881497
-0.706562
0.854653
0.543932
-0.806171
-0.767507
-9.6897
-9.84177
1.49794
1.21858
0.00272189
-6.11634
-6.2957
1.9396
1.69395
0.105636
1.94806
2.14037
0.239507
2.3266
2.88009
1.13502
1.05404
2.2646
3.22855
-3.68742
-3.68328
0.475246
0.784734
4.25207
6.03158
-0.892538
0.761173
0.767751
1.90585
-1.70565
3.57426
2.41625
0.103356
-0.307297
-2.07621
2.588
4.27908
1.5383
0.250667
0.538213
0.72929
0.700754
-2.27214
-0.746396
1.27276
1.26045
-0.171329
0.456718
0.362753
0.175596
-1.13204
0.666284
1.22035
1.4905
0.496799
-0.887436
-3.37071
0.77399
-0.0120815
-3.26997
0.0305245
0.729261
0.885321
-0.840559
-2.09672
1.10015
0.697782
-1.15324
-1.29086
0.0342603
1.87983
1.99189
-0.894394
-0.211582
-1.70322
-1.86935
-2.04161
-0.762961
5.69841
1.85759
-0.989127
-0.798174
-2.90123
0.680371
-0.00150951
0.0814944
-0.5312
1.69497
1.1232
-2.16823
-2.42436
-2.90476
0.492969
1.73013
0.645567
1.54113
0.583105
0.544567
-1.61275
-1.8018
-1.82843
-0.862033
-0.709165
-0.383291
-2.33242
-2.14843
0.548207
0.573662
0.763071
0.0768737
1.66913
1.03341
0.765977
-0.637976
1.33544
1.57168
-0.154597
0.449697
0.142803
-4.89625
-1.16285
-5.25648
-0.841267
2.99046
3.19134
-0.422173
-0.681697
-1.00263
0.634477
0.653846
1.19156
1.03148
0.610767
1.92827
0.235217
-0.303731
0.620701
0.438383
-1.21781
0.0657948
-0.274398
-5.18215
-5.13736
-2.20844
0.131779
4.47541
4.77984
1.91754
3.00686
0.610964
0.636116
1.80465
-4.07775
-3.84301
-3.22823
-3.28585
-3.34879
-1.82419
-3.85808
-3.7737
1.45688
2.26599
0.537658
1.95969
-1.56827
-1.42493
0.464263
2.25098
2.22893
0.462234
0.506988
0.142267
0.932956
0.626061
0.11712
-10.1302
-0.314641
-0.333173
1.66559
2.8363
1.07575
1.04862
1.26509
1.56034
1.27911
1.71005
4.40976
3.30143
1.04957
2.05143
-0.0686745
0.0778706
-0.0757994
-0.324928
0.039661
-0.370726
-0.378301
1.67707
1.11489
0.549186
2.16183
6.18596
0.802802
1.57555
-4.88791
-4.69503
1.31821
1.19924
1.01891
0.0247184
-1.23321
1.18585
0.670689
2.22796
5.56602
-0.0902988
1.10741
1.08604
0.351771
0.789149
1.46399
0.550584
-10.4639
1.45417
1.29579
1.00237
0.597455
-1.00875
0.560836
1.0526
1.11489
1.01392
1.53942
1.68325
4.09378
2.8027
-5.56724
-5.30408
0.45894
1.21496
-6.76144
-6.56128
5.91927
5.36206
0.620542
0.806056
1.08409
-0.33801
-0.131835
-3.13518
-3.1836
-3.34941
0.129483
0.515587
-4.10528
-4.15057
1.68982
1.20007
1.46911
1.35418
-6.87182
-6.87178
0.0736182
0.521039
2.25103
3.33976
1.71017
1.24667
2.52448
2.41145
1.05733
0.613649
3.36968
4.69865
3.51544
4.88073
2.66277
2.48849
3.72201
3.66383
5.00946
4.44842
1.66192
3.38847
3.54602
1.87572
5.45281
2.95178
3.57944
2.00783
2.27119
3.46498
2.82769
3.39586
-0.668566
0.279598
0.61341
0.161158
-0.451877
1.72828
1.82533
-0.592932
1.05842
-1.95736
-2.18655
-2.19235
1.37254
1.0265
0.293597
0.965231
1.77154
1.80941
0.106675
-1.88196
-1.87287
-2.162
-0.385848
-0.823062
-0.155036
-0.708409
0.334217
-3.91436
0.809142
-4.02438
1.3696
1.36109
2.48491
2.48571
-2.00228
0.543236
1.26135
1.18325
1.29828
-0.6667
-0.883837
1.25728
-0.39223
-0.660089
0.518539
-1.17802
-9.72673
-10.0386
1.66416
-6.56349
-6.01542
1.78277
1.78902
0.0814111
2.24754
2.23317
0.0263158
2.29976
2.32013
1.12643
1.13165
-2.31449
2.85435
3.0663
-0.668008
-3.68537
-3.72248
0.54717
0.862179
6.47399
6.28314
1.55782
0.832123
0.816133
1.15515
1.24314
-1.80864
-0.779815
-1.17795
1.48881
2.42686
2.41068
-2.09519
0.00478672
-0.311023
3.19312
4.16262
1.49396
0.600044
0.409044
0.724763
0.744671
-2.38035
1.33394
1.32272
-0.31845
-0.695483
0.337028
0.353755
0.0892047
0.719841
-0.971389
1.53285
0.598097
-0.885681
0.72365
-0.103757
-0.837755
-0.00577291
0.878751
0.865695
-2.13013
1.17799
-1.19619
-1.23199
0.117334
1.79842
1.66572
-0.587962
-0.213683
-1.73193
-1.76041
-2.0659
-2.41267
-0.835506
4.58289
3.73572
-0.834012
0.109794
0.048049
-0.569915
1.94488
1.09277
0.727952
0.615781
0.730933
0.643454
-0.955412
1.55737
-1.12618
-2.24738
0.562775
-1.70592
-1.69823
-1.89751
-1.11288
-0.503059
-0.502859
-2.17321
-2.2299
0.516645
0.517107
0.154063
2.03332
0.647292
-2.89194
-0.817446
1.38896
1.3787
-0.3824
0.166058
0.168333
-5.30484
-4.96187
-0.758345
3.30823
3.28208
-2.94691
0.815836
0.623293
-1.10131
0.612544
1.8921
1.14219
1.46348
0.177036
0.545732
-0.375234
-1.06794
-0.736336
0.643797
0.346716
-0.216966
0.502261
-0.31062
0.8933
-5.16364
-5.24488
0.130757
0.512474
5.00106
4.90555
0.148568
1.90207
1.89199
0.511542
1.94488
-4.12647
-3.8922
-3.3523
-3.29467
-3.3735
0.620724
-3.78785
-4.08581
2.09629
2.02014
0.440862
1.7992
-1.56866
-1.55931
0.392752
0.0391163
2.31402
2.31278
0.495303
0.575307
0.823478
-1.90858
0.70932
-10.1666
-0.22752
-0.319346
2.45203
2.43679
1.069
1.07221
1.2575
1.25928
1.28135
1.27858
4.66316
4.58822
1.12208
1.12788
-0.0108824
0.0581538
-0.272349
-0.208498
-2.35372
-0.0274238
-0.0196825
1.72547
1.73135
0.57132
3.35405
5.70614
0.308765
0.633087
1.05367
-0.303461
-4.97878
-4.77817
1.21819
1.23826
1.02373
-0.229541
-1.22821
0.743253
0.74033
2.21922
2.22326
0.591957
-0.0727714
1.1672
1.16832
1.00847
1.55182
-10.423
1.45623
1.44464
1.14414
-1.19647
0.536332
1.07737
1.04719
0.957053
1.75501
1.7448
3.73899
3.53914
-5.35342
-5.48406
0.566994
0.561266
0.588686
-6.54339
-6.71626
5.38795
5.47423
0.672507
-0.31253
0.868609
0.869581
0.222374
-0.321347
-3.15164
-3.30809
-3.32244
0.2112
-4.14621
-4.05579
1.29052
1.28083
1.44888
1.45777
-6.89471
-6.94335
0.124755
0.117621
2.81165
3.17829
1.33226
1.36338
2.48308
2.47675
1.04696
1.04046
3.44643
4.80803
3.44337
4.84856
3.59885
2.48659
2.48444
3.13326
5.27776
5.01528
5.23754
4.83356
3.69395
1.98901
5.8319
3.69758
2.00626
5.70928
2.96917
3.52976
2.95103
3.51128
-0.890806
0.502678
0.189945
0.210818
-0.43076
1.52894
1.80553
-0.441159
1.3779
-2.12957
-2.10237
-2.23924
1.1277
0.912781
0.0164709
0.034194
0.565335
1.85622
1.4965
0.119751
-1.96947
-1.76102
-2.09592
-0.624141
-0.710183
0.413387
-3.88395
0.896471
1.05533
1.32851
3.24691
2.49028
0.0166519
-0.422887
-1.73811
1.46325
1.17665
1.32651
1.32084
-1.08958
-1.01252
-0.902667
0.861342
-0.640471
-0.379997
-9.90201
-9.64344
1.50757
0.241706
-5.99611
-6.36252
1.68838
1.93773
0.106464
2.15606
1.94665
2.85848
2.3443
1.05265
1.13579
2.2627
3.19127
-0.70826
-3.62067
-3.65593
0.791916
0.531384
6.21299
4.23453
-1.01196
0.583542
0.770045
0.756578
0.808004
1.15805
1.54427
-1.73843
2.42204
3.5673
0.0357531
-0.148552
-2.13593
4.28624
2.58791
1.95629
0.535904
0.242882
0.743638
0.694486
-2.37388
-0.677014
1.28181
1.25327
-0.33462
-0.754888
0.343192
0.473758
0.259075
-0.99336
1.21893
0.588382
1.48949
-0.874074
-3.33051
0.946563
-0.0715623
-3.22194
0.0211401
0.891766
0.723326
-0.917295
-2.14118
0.966875
-1.24961
-1.22437
-0.00828796
2.08568
1.74131
-0.815058
-0.639298
-1.80588
-1.7898
-2.05465
-0.880865
5.76157
1.85737
-0.961451
-0.822151
-2.94302
0.668391
0.0757648
1.16389
1.69609
-2.0662
-2.29351
0.681654
-2.91871
1.73289
0.0578051
0.64794
1.54125
-0.259661
-1.79955
-1.61565
-1.91127
-1.17543
-0.355487
-0.739258
-2.29271
-2.21652
0.57205
0.550252
0.748315
1.66928
0.687008
1.57804
1.32731
0.141903
0.448954
-4.95871
-1.01454
-5.27377
0.274155
-0.840045
-0.57641
3.21779
2.9854
-0.174152
-0.760893
-0.915021
0.626263
0.63283
0.486619
-0.400629
0.666166
1.03182
1.23721
0.112616
0.0857056
1.92818
-0.236614
-0.301328
0.622947
-0.937426
0.238968
0.955478
-5.14855
-5.11419
-2.1145
0.442069
0.111633
4.46106
4.86972
0.0842993
2.99266
1.90545
0.557509
1.80424
-3.95733
-3.97639
-3.29709
-3.21641
-3.39586
-1.9733
0.577786
-3.93911
-3.77828
1.45737
2.28147
0.459165
1.99805
-1.38853
-1.58268
0.565556
0.0261512
2.22957
2.2535
0.528772
0.642887
0.837989
0.548616
-10.2665
-0.345161
-0.344845
1.66451
2.83423
1.03706
1.08082
1.6439
1.27137
1.73045
1.29107
4.48135
3.29517
1.04491
2.05193
0.036792
0.0845831
-0.35607
-0.0769812
-0.358971
-0.0123683
-0.103438
1.18371
1.6623
-0.341951
0.657669
2.16243
6.13551
0.291311
0.660557
1.04601
-4.91781
-4.73273
1.18467
1.34165
1.57739
-1.04791
0.67505
1.18419
5.51932
2.21528
0.559745
-0.0559356
1.09052
1.10817
0.783022
1.45757
-10.3391
1.36069
1.41011
1.00997
-1.18367
0.474548
1.04062
1.07474
1.07976
1.54093
1.6938
2.803
4.09218
-5.48078
-5.31193
0.458526
1.21262
0.463605
-6.76015
-6.51992
5.89315
5.44755
0.70227
-0.342614
0.807733
1.08252
0.159225
-0.116445
-2.9772
-3.29399
-3.35126
0.510399
-4.03085
-4.14912
1.21083
1.68849
1.34878
1.4692
-6.8954
-6.92782
0.51718
0.0752527
2.2505
3.32904
1.21816
1.71132
2.41869
2.52033
0.745176
0.9552
3.69291
3.68439
2.49514
2.66376
3.51136
4.86596
3.36876
4.73799
5.04878
3.38682
1.65991
4.61762
3.54167
1.8594
2.95081
2.00411
3.57161
5.57085
2.84561
3.41299
2.27151
3.45877
0.510168
-0.0886672
-0.0649249
-0.836153
1.53498
1.25185
-0.788565
0.519936
-2.27349
-2.3838
-2.20081
0.656491
0.941577
-0.484265
1.24395
1.56912
0.207448
-2.15502
-1.85753
-2.09014
-0.908618
-0.665293
-1.1326
0.0129924
-4.04706
0.586963
-3.99826
1.08003
0.877663
3.77032
3.77763
-2.2475
-0.125969
1.3186
1.83662
0.545775
-0.346217
-0.804443
-1.07832
0.517955
-1.03174
-0.407926
-1.01192
-0.636208
0.114941
0.772191
-1.22575
-9.9851
-10.0467
0.761512
1.63339
-6.28197
-6.26894
1.29586
1.06623
0.754976
1.55221
1.5192
0.185693
-0.225315
3.11449
3.29301
0.969979
0.748338
-2.47994
2.27283
2.35205
-3.88121
-4.00431
0.80129
0.274251
1.86463
3.57518
0.662613
0.590317
-2.1226
-0.558118
-1.31815
1.74285
5.49571
5.36528
-2.38953
0.0863855
0.0721936
3.25267
2.61605
1.88378
-0.052422
0.564304
1.13263
1.16562
-2.51876
1.21972
1.36522
0.0104141
0.831523
0.955522
0.0102226
1.10922
0.235303
-1.41306
0.526025
1.50472
-0.807444
0.971928
-0.396525
-1.03363
-0.125274
0.479799
0.739451
-2.27131
1.3549
0.524384
-1.57324
-1.2351
0.00756773
1.33615
1.13312
-0.225061
-2.04953
-1.84093
-1.9883
-2.27158
-1.07166
4.57313
1.84782
-0.814585
0.695558
-0.116523
0.586588
-1.10709
-0.608372
1.69922
0.684037
1.59762
0.454234
2.11337
-0.978221
0.323197
1.86046
-0.856196
-2.36887
0.639548
-2.10241
-1.68823
-1.93774
-1.23166
-0.377559
-0.975319
-2.5585
-2.19584
1.58753
1.76344
0.62415
-0.114488
0.640237
1.7974
0.695788
-3.16424
-1.05992
-0.616057
1.15779
1.02335
-0.403004
0.402981
0.225079
-5.22868
-5.21692
1.96139
2.22851
-0.18488
-3.15298
0.276068
0.720197
-1.11826
1.0791
1.01114
-1.36461
-0.422881
1.85999
0.170451
-0.231432
0.327682
0.518843
0.130995
-0.328247
-0.670985
-5.46964
-5.48475
0.276501
2.22871
3.20933
2.3722
2.78158
-0.101181
0.399851
2.06096
-4.18906
-4.18585
-3.51544
-3.32068
-3.51022
-4.17032
-4.14247
1.50613
1.52268
0.0620952
0.633985
-1.77926
-1.44067
0.0456751
1.61023
1.64867
0.180153
0.750096
-0.158726
0.550339
-2.21108
0.702054
-0.127884
-10.5596
-0.267824
-0.5482
1.69884
2.08049
1.90666
2.21029
1.36276
1.55579
1.94955
2.24253
2.24678
2.68392
1.79943
0.367592
-0.011387
-0.586837
0.0718529
-0.488782
-2.5151
-0.271352
-0.107076
2.15094
1.02214
0.472716
2.15832
4.29555
0.727552
1.25275
-5.38828
-5.18531
1.44063
1.72419
1.28171
-0.624235
0.0118456
-0.931021
0.852514
0.43226
5.82681
3.89689
-0.520377
0.986
1.11215
0.811994
0.00524719
0.187738
1.60466
-11.3351
1.10073
1.85832
1.20529
0.294961
-1.09799
0.699677
1.1101
1.6375
0.875788
1.08233
1.61325
2.83202
3.0622
-5.67857
-5.81142
1.03517
0.311145
-7.21866
-7.11423
2.70135
1.94792
0.950423
0.914774
0.386868
-0.266585
-0.65893
-3.59937
-3.11163
-3.53831
0.481499
-0.0964556
-4.23993
-4.34665
1.27065
0.613771
1.27441
0.884627
-7.26335
-7.34456
0.372488
-0.0666664
2.37105
2.27702
1.48034
0.695256
1.87705
1.89918
0.353106
1.24755
2.59956
3.61132
3.122
2.71055
2.32571
2.41858
2.57898
2.86473
2.81991
1.46142
3.22297
2.41649
2.37753
1.27695
2.38056
1.95577
3.03916
1.03005
1.91072
2.08839
1.74328
2.1297
0.40817
0.0279211
0.130058
0.792734
0.582094
0.231544
0.616171
0.633896
0.7685
0.336859
0.311295
0.057702
0.224324
-0.100362
0.529896
0.562153
0.65073
0.234947
-0.0403212
0.279625
0.279098
0.0598
0.460417
0.652267
0.570522
0.0704893
0.688273
0.275793
1.04252
0.130696
0.166365
0.283842
2.54186
2.54243
0.438116
0.672343
1.32589
1.39726
0.598406
0.0139032
0.496609
0.662918
0.439494
0.412682
-0.0451942
0.506205
0.339985
0.254065
0.671226
0.19943
0.298222
0.00449027
0.00402003
-0.0699357
-0.00065509
-0.000675241
0.0145425
2.37581
2.39174
-0.0436872
-0.0448147
0.470317
1.25972
0.260145
0.016415
0.282509
0.321879
-0.00888503
0.466107
0.228369
0.230179
0.26168
-0.0528412
-0.0549528
0.857418
-0.150102
0.489689
0.617574
1.55386
3.58297
3.58973
0.373332
0.751137
-0.0328384
0.485846
1.29011
1.61542
0.170854
0.0833108
-0.0773817
-0.0764679
0.0854652
-0.0108785
-0.0598807
-0.0605051
-0.0283852
0.0720123
-0.0540839
-0.0562924
0.828647
-0.126817
0.462392
0.45979
-0.181824
0.0103589
1.14499
0.771198
0.556669
0.776313
0.394722
0.301512
0.0677652
0.864408
0.0678418
0.0766724
0.660218
1.22138
1.18866
0.311276
0.601747
0.222685
0.215761
0.0513048
0.100853
0.0212798
0.347514
0.817614
0.00273012
-0.0835292
-0.0630636
0.300459
-0.265716
0.736807
-0.126825
-0.146469
0.346386
-0.128491
0.0291813
0.469244
-0.00399661
0.426723
0.646789
0.161407
0.163419
0.0496982
0.00316408
0.131414
0.11878
0.0992597
0.0911012
-0.122626
-0.123759
-0.0937032
0.623016
1.03418
0.373118
0.105902
-0.0283547
-0.0293877
-0.030642
-0.0301341
0.22053
0.111751
0.100461
0.0747114
0.0754503
-0.0280968
0.455309
-0.0108571
0.453115
0.0832668
0.497478
-0.147206
-0.0253596
0.731714
-0.175797
0.312089
-0.083249
0.624033
0.533157
-0.261689
0.492411
0.346719
-0.0462983
0.15136
-0.318683
0.352401
0.386488
-0.0467947
-0.0436911
0.210613
0.211948
-0.0751374
2.17093
2.19175
0.602386
0.717653
0.131029
0.385043
0.181287
0.19152
0.100476
-0.268772
0.2825
0.117756
0.637052
0.0406287
0.669437
0.927774
0.10569
0.104183
0.80093
0.00668728
0.0665557
0.0664665
0.777805
0.63834
0.877026
0.48837
0.384648
0.386619
0.333951
0.182961
0.36675
0.495473
-0.09444
-0.0916426
1.35596
1.39426
1.64062
1.66661
0.156226
0.157467
-0.158911
-0.161046
-0.0196644
0.219562
0.0427158
0.422464
-0.0231239
0.225039
0.00801208
1.10614
1.11731
0.0114066
0.753009
1.61024
0.0573083
-0.0870421
1.10018
1.11727
0.1783
0.1428
-0.0948195
-0.0957661
1.13919
0.0610883
0.0099036
-0.0316605
-0.0327767
4.13024
4.14441
-0.11755
0.591871
-0.0157164
-0.0162025
0.168456
0.23205
0.267556
1.01565
1.0337
0.658059
0.0158435
0.801953
1.21865
1.2306
1.01749
-0.0191908
-0.018972
0.717149
0.885589
0.20932
0.238004
-0.0813175
-0.0844435
-0.173488
0.204083
0.17857
0.262191
0.260912
1.06053
-0.0173472
-0.0789869
-0.0799995
-0.0459474
-0.0143458
0.190189
0.177077
0.0844029
-0.0470026
0.269122
0.381185
-0.0609357
-0.0617859
-0.0601791
-0.0611723
0.291409
0.260518
-0.045356
-0.0422298
0.980898
0.457031
-0.122225
-0.125649
0.00172709
0.00157125
0.7198
0.719161
1.43175
2.80927
0.130966
0.191131
0.130007
0.190043
0.334661
2.80837
0.224826
0.238764
0.237637
0.22355
0.140243
0.0200404
0.223332
0.139409
0.221878
0.0196064
0.0198967
0.162423
0.0201037
0.162874
-0.637688
-0.0872213
0.522515
-0.0131654
-0.733067
1.24596
1.57269
-0.89815
0.508994
-2.01806
-2.63205
-2.31895
0.64643
0.953986
0.280383
0.904566
1.55415
1.23785
0.263711
-1.85375
-2.14477
-2.15713
-0.385782
-0.996133
-0.153496
-1.1164
-0.0298881
-3.92776
0.60421
-4.12515
0.873134
1.0803
3.78907
3.77652
-2.35504
0.624947
1.71145
1.4564
0.567023
-0.807152
-1.31961
0.462785
-0.98568
-1.05002
0.122221
-1.50457
-10.0358
-10.369
0.75078
-6.53908
-6.28581
1.0577
1.29361
0.700116
1.49671
1.55947
-0.225067
3.13283
3.27411
0.74153
0.970734
-2.57976
2.34868
2.29143
-0.305174
-4.02095
-4.06936
0.270171
0.844784
3.54501
1.86689
1.56677
0.571046
0.667197
1.3271
1.5249
-2.06516
-0.53113
-1.25446
1.80182
5.53061
5.41581
-2.20489
-0.245962
0.00590433
2.61521
3.24766
1.83944
-0.0631079
0.551198
1.14454
1.16377
-2.29238
1.36516
1.20519
0.0764533
-0.628908
0.898627
0.884236
-0.142595
0.24622
-1.10397
1.83003
0.52448
-0.872164
0.814988
-0.151552
-0.792793
0.0968441
0.75312
0.468721
-2.15778
0.608607
-1.23351
-1.52313
-0.278347
1.2385
1.20199
-0.614341
-0.563072
-1.76342
-2.13058
-1.99463
-2.46222
-0.847935
1.84724
4.56163
-0.737024
-0.111838
0.640579
-1.14918
1.7688
0.686906
1.10468
0.455162
0.761034
2.1143
-1.17849
0.31467
-1.21572
-2.57478
0.0209733
-1.69297
-2.08655
-1.84408
-0.909703
-0.38469
-0.972118
-2.29901
-2.48798
1.72789
1.62008
-0.109772
0.626319
0.917589
-3.09283
-1.05113
1.00772
1.17101
0.226776
0.405431
-5.04683
-5.23225
-0.530294
2.21531
1.96099
-0.388058
-3.12887
0.266461
0.660901
-1.36956
1.61471
-0.192735
1.9874
1.01027
1.07567
0.649636
0.711873
-1.2283
-0.454882
0.187317
-0.263386
-0.259082
0.137599
-0.672703
1.76419
-5.58345
-5.58486
0.217148
0.512424
3.20619
2.23221
0.694919
2.81314
2.35525
0.00125053
0.391255
-4.42053
-3.98833
-3.31127
-3.51977
-3.42453
1.94271
-3.95518
-4.19998
1.49019
1.51857
0.306166
0.668085
-1.40485
-1.77221
0.0171644
0.256977
1.63326
1.61424
0.617128
-0.122579
0.666678
-1.94836
-0.15684
-10.4912
-0.550786
-0.364109
1.71028
2.07503
2.21147
1.91149
1.54828
1.46103
2.23715
1.94907
2.63827
2.24957
0.388794
1.80812
-0.235294
-0.633636
0.123066
-2.74174
-0.0455835
-0.0230204
-0.493444
2.14786
1.02388
-0.0948839
0.181505
4.28817
2.15828
0.820406
0.874738
1.26946
-5.13541
-4.98557
1.66936
1.49727
1.29406
-0.612102
-1.095
0.430824
0.858349
5.98336
3.9135
1.06738
-0.224493
1.09254
0.998612
-0.0163624
0.186651
-10.9734
1.83662
1.12125
0.281022
-0.943149
0.171385
1.61011
1.05236
0.760924
1.61864
1.0717
3.05914
2.82823
-5.85802
-5.80677
0.314745
1.05108
1.48836
-6.97503
-6.97641
1.95174
2.70735
0.609678
-0.276756
0.387144
0.913753
0.497625
-0.636737
-3.2561
-3.46925
-3.46113
-0.0917436
-4.43949
-4.34392
0.605896
1.27788
0.877463
1.277
-7.32239
-7.30099
-0.0594521
0.3627
2.36471
2.28076
0.709017
1.45302
1.88639
1.8809
1.22824
0.403301
3.59406
2.59745
2.57762
2.85404
2.32478
2.42244
2.69552
3.11912
2.30987
3.18701
1.46034
2.82665
1.88596
1.00645
2.97457
2.38631
2.38257
1.28668
1.70122
2.10865
1.91474
2.09413
