# vtk DataFile Version 3.0
vtk output at time 0.2
ASCII
DATASET UNSTRUCTURED_GRID
POINTS 2586 float
-1.84029e-05 0.000489375 0 1.84029e-05 0.000489375 0 -0.000414597 0.000260625 0 
-0.00041175 0.00025 0 -0.000433 0.00022875 0 -0.000433 -0.00022875 0 
-0.00041175 -0.00025 0 -0.000414597 -0.000260625 0 -1.84029e-05 -0.000489375 0 
1.84029e-05 -0.000489375 0 0.000414597 -0.000260625 0 0.000433 -0.00022875 0 
0.000433 0.00022875 0 0.000414597 0.000260625 0 4.25e-05 0 0 
2.125e-05 0.0005 0 5.90898e-17 0.00052125 0 5.90919e-17 0.00097875 0 
2.125e-05 0.001 0 1.84029e-05 0.00101063 0 0.000414597 0.00123937 0 
0.000451403 0.00123937 0 0.000847597 0.00101063 0 0.000866 0.00097875 0 
0.000866 0.00052125 0 0.000847597 0.000489375 0 0.000451403 0.000260625 0 
0.0004755 0.00075 0 0.00045425 0.00025 0 0.000884403 0.000489375 0 
0.0012806 0.000260625 0 0.001299 0.00022875 0 0.001299 -0.00022875 0 
0.0012806 -0.000260625 0 0.000884403 -0.000489375 0 0.000847597 -0.000489375 0 
0.000451403 -0.000260625 0 0.00045425 -0.00025 0 0.0009085 0 0 
0.000866 -0.00052125 0 0.000866 -0.00097875 0 0.000847597 -0.00101063 0 
0.000451403 -0.00123937 0 0.000414597 -0.00123937 0 1.84029e-05 -0.00101063 0 
2.125e-05 -0.001 0 5.90898e-17 -0.00097875 0 5.90919e-17 -0.00052125 0 
2.125e-05 -0.0005 0 0.0004755 -0.00075 0 -1.84029e-05 -0.00101063 0 
-0.000414597 -0.00123937 0 -0.000451403 -0.00123937 0 -0.000847597 -0.00101063 0 
-0.00084475 -0.001 0 -0.000866 -0.00097875 0 -0.000866 -0.00052125 0 
-0.00084475 -0.0005 0 -0.000847597 -0.000489375 0 -0.000451403 -0.000260625 0 
-0.0003905 -0.00075 0 -0.000884403 -0.000489375 0 -0.0012806 -0.000260625 0 
-0.00127775 -0.00025 0 -0.001299 -0.00022875 0 -0.001299 0.00022875 0 
-0.00127775 0.00025 0 -0.0012806 0.000260625 0 -0.000884403 0.000489375 0 
-0.000847597 0.000489375 0 -0.000451403 0.000260625 0 -0.0008235 0 0 
-0.00084475 0.0005 0 -0.000866 0.00052125 0 -0.000866 0.00097875 0 
-0.00084475 0.001 0 -0.000847597 0.00101063 0 -0.000451403 0.00123937 0 
-0.000414597 0.00123937 0 -1.84029e-05 0.00101063 0 -0.0003905 0.00075 0 
-1.84029e-05 0.000489375 -0.0005 1.84029e-05 0.000489375 -0.0005 -0.000414597 0.000260625 -0.0005 
-0.00041175 0.00025 -0.0005 -0.000433 0.00022875 -0.0005 -0.000433 -0.00022875 -0.0005 
-0.00041175 -0.00025 -0.0005 -0.000414597 -0.000260625 -0.0005 -1.84029e-05 -0.000489375 -0.0005 
1.84029e-05 -0.000489375 -0.0005 0.000414597 -0.000260625 -0.0005 0.000433 -0.00022875 -0.0005 
0.000433 0.00022875 -0.0005 0.000414597 0.000260625 -0.0005 4.25e-05 0 -0.0005 
2.125e-05 0.0005 -0.0005 5.90898e-17 0.00052125 -0.0005 5.90919e-17 0.00097875 -0.0005 
2.125e-05 0.001 -0.0005 1.84029e-05 0.00101063 -0.0005 0.000414597 0.00123937 -0.0005 
0.000451403 0.00123937 -0.0005 0.000847597 0.00101063 -0.0005 0.000866 0.00097875 -0.0005 
0.000866 0.00052125 -0.0005 0.000847597 0.000489375 -0.0005 0.000451403 0.000260625 -0.0005 
0.0004755 0.00075 -0.0005 0.00045425 0.00025 -0.0005 0.000884403 0.000489375 -0.0005 
0.0012806 0.000260625 -0.0005 0.001299 0.00022875 -0.0005 0.001299 -0.00022875 -0.0005 
0.0012806 -0.000260625 -0.0005 0.000884403 -0.000489375 -0.0005 0.000847597 -0.000489375 -0.0005 
0.000451403 -0.000260625 -0.0005 0.00045425 -0.00025 -0.0005 0.0009085 0 -0.0005 
0.000866 -0.00052125 -0.0005 0.000866 -0.00097875 -0.0005 0.000847597 -0.00101063 -0.0005 
0.000451403 -0.00123937 -0.0005 0.000414597 -0.00123937 -0.0005 1.84029e-05 -0.00101063 -0.0005 
2.125e-05 -0.001 -0.0005 5.90898e-17 -0.00097875 -0.0005 5.90919e-17 -0.00052125 -0.0005 
2.125e-05 -0.0005 -0.0005 0.0004755 -0.00075 -0.0005 -1.84029e-05 -0.00101063 -0.0005 
-0.000414597 -0.00123937 -0.0005 -0.000451403 -0.00123937 -0.0005 -0.000847597 -0.00101063 -0.0005 
-0.00084475 -0.001 -0.0005 -0.000866 -0.00097875 -0.0005 -0.000866 -0.00052125 -0.0005 
-0.00084475 -0.0005 -0.0005 -0.000847597 -0.000489375 -0.0005 -0.000451403 -0.000260625 -0.0005 
-0.0003905 -0.00075 -0.0005 -0.000884403 -0.000489375 -0.0005 -0.0012806 -0.000260625 -0.0005 
-0.00127775 -0.00025 -0.0005 -0.001299 -0.00022875 -0.0005 -0.001299 0.00022875 -0.0005 
-0.00127775 0.00025 -0.0005 -0.0012806 0.000260625 -0.0005 -0.000884403 0.000489375 -0.0005 
-0.000847597 0.000489375 -0.0005 -0.000451403 0.000260625 -0.0005 -0.0008235 0 -0.0005 
-0.00084475 0.0005 -0.0005 -0.000866 0.00052125 -0.0005 -0.000866 0.00097875 -0.0005 
-0.00084475 0.001 -0.0005 -0.000847597 0.00101063 -0.0005 -0.000451403 0.00123937 -0.0005 
-0.000414597 0.00123937 -0.0005 -1.84029e-05 0.00101063 -0.0005 -0.0003905 0.00075 -0.0005 
-9.82724e-20 0.00047875 0 -0.000335358 0.000306375 0 -0.000256119 0.000352125 0 
-0.000176881 0.000397875 0 -9.76417e-05 0.000443625 0 -0.000412474 0.0002555 0 
-0.000417974 0.000234974 0 -0.000433 -0.00013725 0 -0.000433 -4.575e-05 0 
-0.000433 4.575e-05 0 -0.000433 0.00013725 0 -0.000417974 -0.000234974 0 
-0.000412474 -0.0002555 0 -9.76417e-05 -0.000443625 0 -0.000176881 -0.000397875 0 
-0.000256119 -0.000352125 0 -0.000335358 -0.000306375 0 -1.07223e-19 -0.00047875 0 
0.000335358 -0.000306375 0 0.000256119 -0.000352125 0 0.000176881 -0.000397875 0 
9.76417e-05 -0.000443625 0 0.000414597 -0.000239375 0 0.000433 0.00013725 0 
0.000433 4.575e-05 0 0.000433 -4.575e-05 0 0.000433 -0.00013725 0 
0.000414597 0.000239375 0 9.76417e-05 0.000443625 0 0.000176881 0.000397875 0 
0.000256119 0.000352125 0 0.000335358 0.000306375 0 -1.29514e-19 4.25e-05 0 
-4.25e-05 -3.53397e-19 0 4.07417e-19 -4.25e-05 0 2.05259e-05 0.0004945 0 
1.5026e-05 0.000515026 0 0 0.00061275 0 0 0.00070425 0 
0 0.00079575 0 0 0.00088725 0 1.5026e-05 0.000984974 0 
2.05259e-05 0.0010055 0 9.76417e-05 0.00105638 0 0.000176881 0.00110213 0 
0.000256119 0.00114787 0 0.000335358 0.00119362 0 0.000433 0.00122875 0 
0.000530642 0.00119362 0 0.000609881 0.00114787 0 0.000689119 0.00110213 0 
0.000768358 0.00105638 0 0.000847597 0.000989375 0 0.000866 0.00088725 0 
0.000866 0.00079575 0 0.000866 0.00070425 0 0.000866 0.00061275 0 
0.000847597 0.000510625 0 0.000530642 0.000306375 0 0.000609881 0.000352125 0 
0.000689119 0.000397875 0 0.000768358 0.000443625 0 0.000433 0.00027125 0 
0.000433 0.0007925 0 0.0003905 0.00075 0 0.000433 0.0007075 0 
0.000448026 0.000234974 0 0.000453526 0.0002555 0 0.000866 0.00047875 0 
0.000963642 0.000443625 0 0.00104288 0.000397875 0 0.00112212 0.000352125 0 
0.00120136 0.000306375 0 0.0012806 0.000239375 0 0.001299 0.00013725 0 
0.001299 4.575e-05 0 0.001299 -4.575e-05 0 0.001299 -0.00013725 0 
0.0012806 -0.000239375 0 0.00120136 -0.000306375 0 0.00112212 -0.000352125 0 
0.00104288 -0.000397875 0 0.000963642 -0.000443625 0 0.000866 -0.00047875 0 
0.000530642 -0.000306375 0 0.000609881 -0.000352125 0 0.000689119 -0.000397875 0 
0.000768358 -0.000443625 0 0.000453526 -0.0002555 0 0.000448026 -0.000234974 0 
0.000866 4.25e-05 0 0.0008235 -3.53397e-19 0 0.000866 -4.25e-05 0 
0.000433 -0.00027125 0 0.000847597 -0.000510625 0 0.000866 -0.00061275 0 
0.000866 -0.00070425 0 0.000866 -0.00079575 0 0.000866 -0.00088725 0 
0.000847597 -0.000989375 0 0.000768358 -0.00105638 0 0.000689119 -0.00110213 0 
0.000609881 -0.00114787 0 0.000530642 -0.00119362 0 0.000433 -0.00122875 0 
0.000335358 -0.00119362 0 0.000256119 -0.00114787 0 0.000176881 -0.00110213 0 
9.76417e-05 -0.00105638 0 2.05259e-05 -0.0010055 0 1.5026e-05 -0.000984974 0 
0 -0.00061275 0 0 -0.00070425 0 0 -0.00079575 0 
0 -0.00088725 0 1.5026e-05 -0.000515026 0 2.05259e-05 -0.0004945 0 
0.000433 -0.0007075 0 0.0003905 -0.00075 0 0.000433 -0.0007925 0 
-1.84031e-05 -0.000510625 0 -1.84031e-05 -0.000989375 0 -9.76417e-05 -0.00105638 0 
-0.000176881 -0.00110213 0 -0.000256119 -0.00114787 0 -0.000335358 -0.00119362 0 
-0.000433 -0.00122875 0 -0.000530642 -0.00119362 0 -0.000609881 -0.00114787 0 
-0.000689119 -0.00110213 0 -0.000768358 -0.00105638 0 -0.000845474 -0.0010055 0 
-0.000850974 -0.000984974 0 -0.000866 -0.00088725 0 -0.000866 -0.00079575 0 
-0.000866 -0.00070425 0 -0.000866 -0.00061275 0 -0.000850974 -0.000515026 0 
-0.000845474 -0.0004945 0 -0.000530642 -0.000306375 0 -0.000609881 -0.000352125 0 
-0.000689119 -0.000397875 0 -0.000768358 -0.000443625 0 -0.000433 -0.00027125 0 
-0.000433 -0.0007075 0 -0.0004755 -0.00075 0 -0.000433 -0.0007925 0 
-0.000451403 -0.000239375 0 -0.000866 -0.00047875 0 -0.000963642 -0.000443625 0 
-0.00104288 -0.000397875 0 -0.00112212 -0.000352125 0 -0.00120136 -0.000306375 0 
-0.00127847 -0.0002555 0 -0.00128397 -0.000234974 0 -0.001299 -0.00013725 0 
-0.001299 -4.575e-05 0 -0.001299 4.575e-05 0 -0.001299 0.00013725 0 
-0.00128397 0.000234974 0 -0.00127847 0.0002555 0 -0.00120136 0.000306375 0 
-0.00112212 0.000352125 0 -0.00104288 0.000397875 0 -0.000963642 0.000443625 0 
-0.000866 0.00047875 0 -0.000530642 0.000306375 0 -0.000609881 0.000352125 0 
-0.000689119 0.000397875 0 -0.000768358 0.000443625 0 -0.000451403 0.000239375 0 
-0.000866 4.25e-05 0 -0.0009085 -3.53397e-19 0 -0.000866 -4.25e-05 0 
-0.000433 0.00027125 0 -0.000845474 0.0004945 0 -0.000850974 0.000515026 0 
-0.000866 0.00061275 0 -0.000866 0.00070425 0 -0.000866 0.00079575 0 
-0.000866 0.00088725 0 -0.000850974 0.000984974 0 -0.000845474 0.0010055 0 
-0.000768358 0.00105638 0 -0.000689119 0.00110213 0 -0.000609881 0.00114787 0 
-0.000530642 0.00119362 0 -0.000433 0.00122875 0 -0.000335358 0.00119362 0 
-0.000256119 0.00114787 0 -0.000176881 0.00110213 0 -9.76417e-05 0.00105638 0 
-1.84031e-05 0.000989375 0 -1.84031e-05 0.000510625 0 -0.000433 0.0007925 0 
-0.0004755 0.00075 0 -0.000433 0.0007075 0 -9.82724e-20 0.00047875 -0.0005 
-0.000335358 0.000306375 -0.0005 -0.000256119 0.000352125 -0.0005 -0.000176881 0.000397875 -0.0005 
-9.76417e-05 0.000443625 -0.0005 -0.000412474 0.0002555 -0.0005 -0.000417974 0.000234974 -0.0005 
-0.000433 -0.00013725 -0.0005 -0.000433 -4.575e-05 -0.0005 -0.000433 4.575e-05 -0.0005 
-0.000433 0.00013725 -0.0005 -0.000417974 -0.000234974 -0.0005 -0.000412474 -0.0002555 -0.0005 
-9.76417e-05 -0.000443625 -0.0005 -0.000176881 -0.000397875 -0.0005 -0.000256119 -0.000352125 -0.0005 
-0.000335358 -0.000306375 -0.0005 -1.07223e-19 -0.00047875 -0.0005 0.000335358 -0.000306375 -0.0005 
0.000256119 -0.000352125 -0.0005 0.000176881 -0.000397875 -0.0005 9.76417e-05 -0.000443625 -0.0005 
0.000414597 -0.000239375 -0.0005 0.000433 0.00013725 -0.0005 0.000433 4.575e-05 -0.0005 
0.000433 -4.575e-05 -0.0005 0.000433 -0.00013725 -0.0005 0.000414597 0.000239375 -0.0005 
9.76417e-05 0.000443625 -0.0005 0.000176881 0.000397875 -0.0005 0.000256119 0.000352125 -0.0005 
0.000335358 0.000306375 -0.0005 -1.29514e-19 4.25e-05 -0.0005 -4.25e-05 -3.53397e-19 -0.0005 
4.07417e-19 -4.25e-05 -0.0005 2.05259e-05 0.0004945 -0.0005 1.5026e-05 0.000515026 -0.0005 
0 0.00061275 -0.0005 0 0.00070425 -0.0005 0 0.00079575 -0.0005 
0 0.00088725 -0.0005 1.5026e-05 0.000984974 -0.0005 2.05259e-05 0.0010055 -0.0005 
9.76417e-05 0.00105638 -0.0005 0.000176881 0.00110213 -0.0005 0.000256119 0.00114787 -0.0005 
0.000335358 0.00119362 -0.0005 0.000433 0.00122875 -0.0005 0.000530642 0.00119362 -0.0005 
0.000609881 0.00114787 -0.0005 0.000689119 0.00110213 -0.0005 0.000768358 0.00105638 -0.0005 
0.000847597 0.000989375 -0.0005 0.000866 0.00088725 -0.0005 0.000866 0.00079575 -0.0005 
0.000866 0.00070425 -0.0005 0.000866 0.00061275 -0.0005 0.000847597 0.000510625 -0.0005 
0.000530642 0.000306375 -0.0005 0.000609881 0.000352125 -0.0005 0.000689119 0.000397875 -0.0005 
0.000768358 0.000443625 -0.0005 0.000433 0.00027125 -0.0005 0.000433 0.0007925 -0.0005 
0.0003905 0.00075 -0.0005 0.000433 0.0007075 -0.0005 0.000448026 0.000234974 -0.0005 
0.000453526 0.0002555 -0.0005 0.000866 0.00047875 -0.0005 0.000963642 0.000443625 -0.0005 
0.00104288 0.000397875 -0.0005 0.00112212 0.000352125 -0.0005 0.00120136 0.000306375 -0.0005 
0.0012806 0.000239375 -0.0005 0.001299 0.00013725 -0.0005 0.001299 4.575e-05 -0.0005 
0.001299 -4.575e-05 -0.0005 0.001299 -0.00013725 -0.0005 0.0012806 -0.000239375 -0.0005 
0.00120136 -0.000306375 -0.0005 0.00112212 -0.000352125 -0.0005 0.00104288 -0.000397875 -0.0005 
0.000963642 -0.000443625 -0.0005 0.000866 -0.00047875 -0.0005 0.000530642 -0.000306375 -0.0005 
0.000609881 -0.000352125 -0.0005 0.000689119 -0.000397875 -0.0005 0.000768358 -0.000443625 -0.0005 
0.000453526 -0.0002555 -0.0005 0.000448026 -0.000234974 -0.0005 0.000866 4.25e-05 -0.0005 
0.0008235 -3.53397e-19 -0.0005 0.000866 -4.25e-05 -0.0005 0.000433 -0.00027125 -0.0005 
0.000847597 -0.000510625 -0.0005 0.000866 -0.00061275 -0.0005 0.000866 -0.00070425 -0.0005 
0.000866 -0.00079575 -0.0005 0.000866 -0.00088725 -0.0005 0.000847597 -0.000989375 -0.0005 
0.000768358 -0.00105638 -0.0005 0.000689119 -0.00110213 -0.0005 0.000609881 -0.00114787 -0.0005 
0.000530642 -0.00119362 -0.0005 0.000433 -0.00122875 -0.0005 0.000335358 -0.00119362 -0.0005 
0.000256119 -0.00114787 -0.0005 0.000176881 -0.00110213 -0.0005 9.76417e-05 -0.00105638 -0.0005 
2.05259e-05 -0.0010055 -0.0005 1.5026e-05 -0.000984974 -0.0005 0 -0.00061275 -0.0005 
0 -0.00070425 -0.0005 0 -0.00079575 -0.0005 0 -0.00088725 -0.0005 
1.5026e-05 -0.000515026 -0.0005 2.05259e-05 -0.0004945 -0.0005 0.000433 -0.0007075 -0.0005 
0.0003905 -0.00075 -0.0005 0.000433 -0.0007925 -0.0005 -1.84031e-05 -0.000510625 -0.0005 
-1.84031e-05 -0.000989375 -0.0005 -9.76417e-05 -0.00105638 -0.0005 -0.000176881 -0.00110213 -0.0005 
-0.000256119 -0.00114787 -0.0005 -0.000335358 -0.00119362 -0.0005 -0.000433 -0.00122875 -0.0005 
-0.000530642 -0.00119362 -0.0005 -0.000609881 -0.00114787 -0.0005 -0.000689119 -0.00110213 -0.0005 
-0.000768358 -0.00105638 -0.0005 -0.000845474 -0.0010055 -0.0005 -0.000850974 -0.000984974 -0.0005 
-0.000866 -0.00088725 -0.0005 -0.000866 -0.00079575 -0.0005 -0.000866 -0.00070425 -0.0005 
-0.000866 -0.00061275 -0.0005 -0.000850974 -0.000515026 -0.0005 -0.000845474 -0.0004945 -0.0005 
-0.000530642 -0.000306375 -0.0005 -0.000609881 -0.000352125 -0.0005 -0.000689119 -0.000397875 -0.0005 
-0.000768358 -0.000443625 -0.0005 -0.000433 -0.00027125 -0.0005 -0.000433 -0.0007075 -0.0005 
-0.0004755 -0.00075 -0.0005 -0.000433 -0.0007925 -0.0005 -0.000451403 -0.000239375 -0.0005 
-0.000866 -0.00047875 -0.0005 -0.000963642 -0.000443625 -0.0005 -0.00104288 -0.000397875 -0.0005 
-0.00112212 -0.000352125 -0.0005 -0.00120136 -0.000306375 -0.0005 -0.00127847 -0.0002555 -0.0005 
-0.00128397 -0.000234974 -0.0005 -0.001299 -0.00013725 -0.0005 -0.001299 -4.575e-05 -0.0005 
-0.001299 4.575e-05 -0.0005 -0.001299 0.00013725 -0.0005 -0.00128397 0.000234974 -0.0005 
-0.00127847 0.0002555 -0.0005 -0.00120136 0.000306375 -0.0005 -0.00112212 0.000352125 -0.0005 
-0.00104288 0.000397875 -0.0005 -0.000963642 0.000443625 -0.0005 -0.000866 0.00047875 -0.0005 
-0.000530642 0.000306375 -0.0005 -0.000609881 0.000352125 -0.0005 -0.000689119 0.000397875 -0.0005 
-0.000768358 0.000443625 -0.0005 -0.000451403 0.000239375 -0.0005 -0.000866 4.25e-05 -0.0005 
-0.0009085 -3.53397e-19 -0.0005 -0.000866 -4.25e-05 -0.0005 -0.000433 0.00027125 -0.0005 
-0.000845474 0.0004945 -0.0005 -0.000850974 0.000515026 -0.0005 -0.000866 0.00061275 -0.0005 
-0.000866 0.00070425 -0.0005 -0.000866 0.00079575 -0.0005 -0.000866 0.00088725 -0.0005 
-0.000850974 0.000984974 -0.0005 -0.000845474 0.0010055 -0.0005 -0.000768358 0.00105638 -0.0005 
-0.000689119 0.00110213 -0.0005 -0.000609881 0.00114787 -0.0005 -0.000530642 0.00119362 -0.0005 
-0.000433 0.00122875 -0.0005 -0.000335358 0.00119362 -0.0005 -0.000256119 0.00114787 -0.0005 
-0.000176881 0.00110213 -0.0005 -9.76417e-05 0.00105638 -0.0005 -1.84031e-05 0.000989375 -0.0005 
-1.84031e-05 0.000510625 -0.0005 -0.000433 0.0007925 -0.0005 -0.0004755 0.00075 -0.0005 
-0.000433 0.0007075 -0.0005 0.000166833 -0.000159585 0 0.000165961 0.000165961 0 
-0.000162277 0.000168837 0 -0.000162539 -0.000168697 0 -0.000316174 -0.000207462 0 
-0.000316174 0.000207462 0 -1.7625e-06 0.00020878 0 -0.000200494 5.10348e-06 0 
0.000198022 -6.49099e-06 0 -3.82827e-06 -0.000208798 0 -0.0003642 0.000214286 0 
-0.0003642 -0.000214286 0 0.000301049 0.000166193 0 0.000312424 -0.000170987 0 
-7.30908e-06 -0.00035148 0 7.30908e-06 0.00035148 0 0.000109232 0.000285545 0 
-0.000107519 -0.000286192 0 -0.000304808 7.69979e-05 0 -0.000308572 -7.52569e-05 0 
0.000106639 -0.000294843 0 -0.00010493 0.000296588 0 8.50608e-05 -8.41794e-05 0 
8.82006e-05 9.78925e-05 0 -9.29688e-05 8.1944e-05 0 -9.5784e-05 -8.5049e-05 0 
-0.00037448 0.000247295 0 -0.00037448 -0.000247295 0 -0.000226807 0.000247375 0 
-0.00022696 -0.000246565 0 0.000318161 -5.24395e-05 0 0.00030573 6.09258e-05 0 
-0.000251653 -0.000142326 0 -0.000251653 0.000142326 0 3.07451e-05 -0.00041094 0 
-3.07451e-05 0.00041094 0 0.00022921 -0.000246251 0 0.000229478 0.000241816 0 
2.27436e-05 0.000133221 0 1.86722e-05 -0.000131409 0 -0.000131489 -2.16615e-05 0 
0.00013003 -1.62999e-05 0 -0.00037383 0.000149154 0 -0.00037383 -0.000149154 0 
0.000234918 -9.03863e-05 0 0.000328799 0.000234244 0 0.000330695 -0.000235043 0 
0.000223602 9.28059e-05 0 -8.24081e-05 0.000181543 0 -7.93229e-05 -0.000178683 0 
-0.000174487 7.88274e-05 0 9.06107e-05 -0.000168878 0 9.31592e-05 0.000169495 0 
-0.000165177 -7.38619e-05 0 -9.20929e-05 -0.000358769 0 9.20929e-05 0.000358769 0 
3.47644e-05 0.000422113 0 -3.47644e-05 -0.000422113 0 -0.00039524 0.000187946 0 
-0.00039524 -0.000187946 0 -0.00036071 1.92365e-06 0 0.000388959 -0.000188051 0 
0.000390003 0.000186364 0 6.43444e-05 -0.000355671 0 -6.37768e-05 0.000356891 0 
2.80563e-05 -0.000283426 0 -2.80563e-05 0.000283426 0 0.000158032 5.64575e-05 0 
4.0579e-05 0.000286843 0 -4.0579e-05 -0.000286843 0 0.000187449 0.000307262 0 
0.000159892 -7.91024e-05 0 -0.000184905 -0.00030951 0 0.000358611 0.000105752 0 
0.000363074 -0.00011688 0 -0.000325009 0.000251333 0 -0.000325009 -0.000251333 0 
-0.000240838 -7.12684e-05 0 -0.000314691 -0.000147697 0 -0.000314417 0.000147824 0 
-0.000404578 0.00024054 0 -0.000403308 0.000218831 0 -0.000404578 -0.00024054 0 
-0.000403308 -0.000218831 0 0.000191925 -0.0003084 0 -0.000260053 0.000200474 0 
-0.000260078 -0.000200417 0 -2.84262e-05 0.000450764 0 2.84262e-05 -0.000450764 0 
-0.000189066 0.000311072 0 -0.000240999 7.45278e-05 0 -0.000278935 4.78174e-06 0 
0.000354779 1.89656e-05 0 0.000162497 0.000232229 0 0.000376671 0.000245397 0 
0.000376841 -0.000245894 0 0.000157204 -0.000230896 0 0.000234792 0.000171119 0 
-0.000151291 -0.000232673 0 -2.32986e-05 8.92785e-05 0 -3.11926e-05 -8.95957e-05 0 
-9.03847e-05 2.2115e-05 0 9.12302e-05 3.30279e-05 0 -0.000152334 0.000235849 0 
0.000239556 -0.000175069 0 -0.000374753 9.03378e-05 0 -0.000376425 -8.91537e-05 0 
4.61669e-05 -4.59906e-05 0 6.62281e-05 0.000232832 0 3.85868e-05 8.10868e-05 0 
-7.69579e-05 -3.79434e-05 0 0.000127486 -0.000360083 0 7.07506e-05 -0.00023716 0 
0.000272535 3.89675e-06 0 -7.65081e-05 -0.000238638 0 0.00014561 0.000112396 0 
-0.000352537 0.000183264 0 -0.000352576 -0.000183245 0 -0.000270615 -0.000285639 0 
-0.000269954 0.000283517 0 -7.38981e-05 0.000241237 0 0.00028245 0.000113194 0 
-0.000128597 0.00035529 0 0.000277733 0.00021912 0 0.000279019 -0.000221334 0 
0.000293419 -0.000117053 0 -4.98304e-05 4.71675e-05 0 -3.82924e-05 0.000144636 0 
-3.82924e-05 -0.000144636 0 -0.000137965 3.32657e-05 0 -0.00012318 0.000133204 0 
-0.000120047 -0.000136339 0 -0.000206789 -0.00019438 0 0.000125599 -0.000122936 0 
-0.000206748 0.000194842 0 -0.000279599 0.000238032 0 -0.000279767 -0.000238283 0 
-0.000195529 0.000130609 0 -0.000197761 -0.000129013 0 2.37414e-05 -7.8735e-05 0 
7.89976e-05 -2.26884e-05 0 0.000279552 0.000278672 0 0.000279873 -0.000279044 0 
4.48012e-06 0.00044547 0 -4.48012e-06 -0.00044547 0 0.000598961 0.000584039 0 
0.000602744 0.00091226 0 0.000270474 0.000918651 0 0.000270149 0.000581615 0 
0.000116826 0.000957462 0 0.000116826 0.000542538 0 0.000429172 0.000958798 0 
0.000232505 0.000755103 0 0.000636012 0.000747201 0 0.000434763 0.00054122 0 
6.87997e-05 0.000964286 0 6.87997e-05 0.000535714 0 0.000745424 0.000920987 0 
0.000734049 0.000583807 0 0.000425691 0.00039852 0 0.000425691 0.00110148 0 
0.000325481 0.00103619 0 0.00032556 0.000464273 0 0.000128192 0.000826998 0 
0.000124428 0.000674743 0 0.000539639 0.00104484 0 0.000539618 0.000454793 0 
0.000520463 0.000653783 0 0.000521988 0.00084822 0 0.000340031 0.000831944 0 
0.00034624 0.000661734 0 5.85195e-05 0.000997295 0 5.85195e-05 0.000502705 0 
0.00020604 0.000996565 0 0.00020604 0.000503435 0 0.000751161 0.00080244 0 
0.00073873 0.000689074 0 0.000181347 0.000607674 0 0.000181347 0.000892326 0 
0.000463745 0.00033906 0 0.000463745 0.00116094 0 0.00066221 0.000996251 0 
0.000655871 0.000515061 0 0.000455531 0.000883279 0 0.0004137 0.000617913 0 
0.000302544 0.000731006 0 0.000569409 0.000742828 0 5.91695e-05 0.000899154 0 
5.91695e-05 0.000600846 0 0.000666622 0.000847886 0 0.000763695 0.000985043 0 
0.000761799 0.000515756 0 0.000662952 0.000664982 0 0.000353677 0.000928683 0 
0.000512323 0.000571317 0 0.000258513 0.000828827 0 0.000526529 0.000920143 0 
0.000348994 0.000575642 0 0.000269055 0.00067649 0 0.000340907 0.000391231 0 
0.000340907 0.00110877 0 0.000398236 0.00117211 0 0.000398236 0.000327887 0 
3.77595e-05 0.000937946 0 3.77595e-05 0.000562054 0 7.22902e-05 0.000751924 0 
0.000821959 0.000938051 0 0.000823003 0.000563636 0 0.000497344 0.00110567 0 
0.000497341 0.000394268 0 0.000595975 0.000808208 0 0.000461056 0.000466574 0 
0.000461056 0.00103343 0 0.000392421 0.00103684 0 0.000392458 0.000463164 0 
0.000248106 0.000440556 0 0.000248095 0.00105951 0 0.000791611 0.000644248 0 
0.000796074 0.00086688 0 0.000107991 0.00100133 0 0.000107991 0.000498667 0 
0.000192237 0.000678753 0 0.000118309 0.000602303 0 0.000118584 0.000897824 0 
2.84222e-05 0.00099054 0 2.96921e-05 0.000968831 0 2.84222e-05 0.00050946 0 
2.96921e-05 0.000531169 0 0.000584827 0.000674445 0 0.000624925 0.0010584 0 
0.000620086 0.000439056 0 0.000172934 0.000950423 0 0.000172922 0.000549583 0 
0.000461426 0.00120076 0 0.000461426 0.000299236 0 0.000192001 0.000824528 0 
0.000154074 0.000754784 0 0.000787779 0.000731034 0 0.000809841 0.000995894 0 
0.000809671 0.000504603 0 0.000589469 0.00097835 0 0.000571747 0.000512487 0 
0.000673596 0.000588147 0 0.000281249 0.000518091 0 0.00028171 0.000982668 0 
0.000409676 0.000839285 0 0.000465934 0.000658411 0 0.000524589 0.000782934 0 
0.000342119 0.000777068 0 0.000672682 0.000926159 0 5.82468e-05 0.000840338 0 
5.65752e-05 0.000660846 0 0.000386493 0.000703192 0 0.000361584 0.000514775 0 
0.000471587 0.000831087 0 0.000510532 0.000709986 0 0.000559513 0.000389323 0 
0.000560486 0.00111008 0 0.000503751 0.00098716 0 0.000707209 0.000747103 0 
0.000356492 0.000988637 0 8.04633e-05 0.000933264 0 8.04241e-05 0.000566755 0 
0.000162386 0.000464369 0 0.000162385 0.00103564 0 0.000578393 0.000862613 0 
0.000503901 0.000509278 0 0.000714127 0.000640342 0 0.000712044 0.000971552 0 
0.000710619 0.000533186 0 0.000726252 0.00086828 0 0.000383065 0.000798159 0 
0.000471292 0.000605364 0 0.000394708 0.000894636 0 0.000295143 0.00078479 0 
0.000311567 0.000884914 0 0.000544105 0.000613927 0 0.000226145 0.000555712 0 
0.000226234 0.0009443 0 0.000307419 0.000615421 0 0.000153235 0.000988284 0 
0.000153233 0.000511718 0 0.000237647 0.000880726 0 0.000238317 0.000620115 0 
0.000410377 0.000668704 0 0.000352297 0.000726325 0 0.000712874 0.00102905 0 
0.000708438 0.00047242 0 0.00042852 0.00030453 0 0.00042852 0.00119547 0 
0.00103283 -0.000159585 0 0.00103196 0.000165961 0 0.00070371 0.000168883 0 
0.000703474 -0.000168651 0 0.000549826 0.000207462 0 0.000549826 -0.000207462 0 
0.000864237 0.00020878 0 0.000665505 -1.75358e-06 0 0.00106402 -6.49099e-06 0 
0.000862172 -0.000208798 0 0.0005018 0.000214286 0 0.0005018 -0.000214286 0 
0.00117842 -0.000170987 0 0.00116705 0.000166193 0 0.000858691 -0.00035148 0 
0.000873309 0.00035148 0 0.000975232 0.000285545 0 0.000758481 -0.000286192 0 
0.000561503 7.6703e-05 0 0.000555269 -7.65899e-05 0 0.000972639 -0.000294843 0 
0.00076107 0.000296588 0 0.000951061 -8.41794e-05 0 0.000954201 9.78925e-05 0 
0.000770216 8.5049e-05 0 0.000773031 -8.1944e-05 0 0.00049152 0.000247295 0 
0.00049152 -0.000247295 0 0.000639193 0.000247375 0 0.00063904 -0.000246565 0 
0.00118416 -5.24395e-05 0 0.00117173 6.09258e-05 0 0.000614347 -0.000142326 0 
0.000614347 0.000142326 0 0.000896745 -0.00041094 0 0.000835255 0.00041094 0 
0.00109521 -0.000246251 0 0.00109548 0.000241816 0 0.000888744 0.000133221 0 
0.000884672 -0.000131409 0 0.000734511 2.22198e-05 0 0.00099603 -1.62999e-05 0 
0.00049217 0.000149154 0 0.00049217 -0.000149154 0 0.00110092 -9.03863e-05 0 
0.0011967 -0.000235043 0 0.0011948 0.000234244 0 0.0010896 9.28059e-05 0 
0.000783591 0.000181545 0 0.000786677 -0.000178683 0 0.000691513 -7.86239e-05 0 
0.000956611 -0.000168878 0 0.000959159 0.000169495 0 0.000700823 7.45132e-05 0 
0.000773907 -0.000358769 0 0.000958093 0.000358769 0 0.000900764 0.000422113 0 
0.000831236 -0.000422113 0 0.00047076 0.000187946 0 0.00047076 -0.000187946 0 
0.000506327 1.20793e-06 0 0.00125496 -0.000188051 0 0.001256 0.000186364 0 
0.000930344 -0.000355671 0 0.000802223 0.000356891 0 0.000894056 -0.000283426 0 
0.000837944 0.000283426 0 0.00102403 5.64575e-05 0 0.000906579 0.000286843 0 
0.000825421 -0.000286843 0 0.00105345 0.000307262 0 0.00102589 -7.91024e-05 0 
0.000681095 -0.00030951 0 0.00122461 0.000105752 0 0.00122907 -0.00011688 0 
0.000540991 0.000251333 0 0.000540991 -0.000251333 0 0.000624479 7.32103e-05 0 
0.000551152 -0.000147794 0 0.000551606 0.000147802 0 0.000461422 0.00024054 0 
0.000462692 0.000218831 0 0.000461422 -0.00024054 0 0.000462692 -0.000218831 0 
0.00105793 -0.0003084 0 0.000605948 0.000200473 0 0.000605915 -0.000200421 0 
0.000894426 -0.000450764 0 0.000837574 0.000450764 0 0.000676934 0.000311072 0 
0.000626182 -7.08972e-05 0 0.000584992 5.90258e-06 0 0.00122078 1.89656e-05 0 
0.0010285 0.000232229 0 0.00124284 -0.000245894 0 0.00124267 0.000245397 0 
0.0010232 -0.000230896 0 0.00110079 0.000171119 0 0.00071471 -0.000232668 0 
0.000834965 9.05283e-05 0 0.000842673 -8.85226e-05 0 0.00095723 3.30279e-05 0 
0.000775615 -2.20485e-05 0 0.000713665 0.000235853 0 0.00110556 -0.000175069 0 
0.000491363 9.025e-05 0 0.000488571 -8.87482e-05 0 0.000912167 -4.59906e-05 0 
0.000932228 0.000232832 0 0.000904587 8.10868e-05 0 0.000789049 3.8011e-05 0 
0.000993486 -0.000360083 0 0.000936751 -0.00023716 0 0.00113854 3.89675e-06 0 
0.000789492 -0.000238637 0 0.00101161 0.000112396 0 0.000513466 0.00018326 0 
0.000513402 -0.000183259 0 0.000596046 0.000283517 0 0.000595385 -0.000285639 0 
0.000792102 0.000241238 0 0.00114845 0.000113194 0 0.000737403 0.00035529 0 
0.00114502 -0.000221334 0 0.00114373 0.00021912 0 0.00115942 -0.000117053 0 
0.000816164 -4.7003e-05 0 0.000827708 0.000144636 0 0.000827708 -0.000144636 0 
0.000728035 -3.243e-05 0 0.00074578 0.000136564 0 0.000744567 -0.000134897 0 
0.000659232 -0.0001943 0 0.000991599 -0.000122936 0 0.00065923 0.000194923 0 
0.000586401 0.000238032 0 0.000586231 -0.000238284 0 0.000670788 -0.000130267 0 
0.000668203 0.000129229 0 0.000889614 -8.00602e-05 0 0.000944998 -2.26884e-05 0 
0.00114587 -0.000279044 0 0.00114555 0.000278672 0 0.00087048 0.00044547 0 
0.00086152 -0.00044547 0 0.000598961 -0.000915961 0 0.000603317 -0.000588209 0 
0.000270723 -0.000581163 0 0.000270149 -0.000918385 0 0.000116826 -0.000542538 0 
0.000116826 -0.000957462 0 0.000431238 -0.00054122 0 0.000232505 -0.000744897 0 
0.000636012 -0.000752799 0 0.000434763 -0.00095878 0 6.87997e-05 -0.000535714 0 
6.87997e-05 -0.000964286 0 0.000745424 -0.000579013 0 0.000734049 -0.000916193 0 
0.000425691 -0.00110148 0 0.000440309 -0.00039852 0 0.000542232 -0.000464455 0 
0.00032556 -0.00103573 0 0.000128192 -0.000673002 0 0.000124428 -0.000825257 0 
0.000539618 -0.00104521 0 0.00032807 -0.000453412 0 0.000520463 -0.000846217 0 
0.000521988 -0.00065178 0 0.000340031 -0.000668056 0 0.00034624 -0.000838266 0 
5.85195e-05 -0.000502705 0 5.85195e-05 -0.000997295 0 0.000206193 -0.000502625 0 
0.00020604 -0.000996565 0 0.000751161 -0.00069756 0 0.00073873 -0.000810926 0 
0.000181347 -0.000892326 0 0.000181347 -0.000607674 0 0.000463745 -0.00116094 0 
0.000402255 -0.00033906 0 0.000662471 -0.000504287 0 0.000655871 -0.000984939 0 
0.000455875 -0.000616724 0 0.0004137 -0.000882087 0 0.000302544 -0.000768994 0 
0.000569409 -0.000757172 0 5.91695e-05 -0.000600846 0 5.91695e-05 -0.000899154 0 
0.000666622 -0.000652114 0 0.000763695 -0.000514957 0 0.000761799 -0.000984244 0 
0.000662952 -0.000835018 0 0.000350592 -0.000568457 0 0.000512323 -0.000928683 0 
0.000258513 -0.000671173 0 0.000526882 -0.000581015 0 0.000348994 -0.000924358 0 
0.000269055 -0.00082351 0 0.000340907 -0.00110877 0 0.000525093 -0.000391231 0 
0.000398236 -0.00117211 0 0.000467764 -0.000327887 0 3.77595e-05 -0.000562054 0 
3.77595e-05 -0.000937946 0 7.22902e-05 -0.000748076 0 0.000821959 -0.000561949 0 
0.000823003 -0.000936364 0 0.000497341 -0.00110573 0 0.000369223 -0.000393109 0 
0.000595975 -0.000691792 0 0.000461056 -0.00103343 0 0.000404944 -0.000466574 0 
0.000473579 -0.000463157 0 0.000392458 -0.00103684 0 0.000620449 -0.000442181 0 
0.000248106 -0.00105944 0 0.000791611 -0.000855752 0 0.000796074 -0.00063312 0 
0.000107991 -0.000498667 0 0.000107991 -0.00100133 0 0.000192237 -0.000821247 0 
0.000118309 -0.000897697 0 0.000118584 -0.000602176 0 2.84222e-05 -0.00050946 0 
2.96921e-05 -0.000531169 0 2.84222e-05 -0.00099054 0 2.96921e-05 -0.000968831 0 
0.000584827 -0.000825555 0 0.000620086 -0.00106094 0 0.000172947 -0.000549526 0 
0.000172922 -0.000950417 0 0.000461426 -0.00120076 0 0.000404574 -0.000299236 0 
0.000243934 -0.000438928 0 0.000192001 -0.000675472 0 0.000154074 -0.000745216 0 
0.000787779 -0.000768966 0 0.000588723 -0.000523989 0 0.000809841 -0.000504106 0 
0.000809671 -0.000995397 0 0.000571747 -0.000987513 0 0.000673596 -0.000911853 0 
0.000281249 -0.000981909 0 0.000409717 -0.000660715 0 0.000465934 -0.000841589 0 
0.000524589 -0.000717066 0 0.000342119 -0.000722933 0 0.000280666 -0.000514151 0 
0.000672694 -0.000574319 0 5.82468e-05 -0.000659662 0 5.65752e-05 -0.000839154 0 
0.000386493 -0.000796808 0 0.000361584 -0.000985225 0 0.000499228 -0.000517168 0 
0.000471587 -0.000668913 0 0.000510532 -0.000790014 0 0.000559513 -0.00111068 0 
0.000707209 -0.000752897 0 8.04633e-05 -0.000566736 0 8.04241e-05 -0.000933245 0 
0.000163046 -0.000466483 0 0.000162386 -0.00103563 0 0.000578393 -0.000637387 0 
0.000503901 -0.000990722 0 0.000359102 -0.000508763 0 0.000714127 -0.000859658 0 
0.000304403 -0.00039471 0 0.000712099 -0.000528651 0 0.000710619 -0.000966814 0 
0.000726254 -0.000631789 0 0.000383073 -0.000701841 0 0.000471292 -0.000894636 0 
0.000394708 -0.000605364 0 0.000295143 -0.00071521 0 0.000544105 -0.000886073 0 
0.00030982 -0.000616796 0 0.000226145 -0.000944288 0 0.000307419 -0.000884579 0 
0.000226252 -0.000555158 0 0.000153401 -0.000511968 0 0.000153233 -0.000988282 0 
0.000237471 -0.000619391 0 0.000238317 -0.000879885 0 0.000410377 -0.000831296 0 
0.000352297 -0.000773675 0 0.00071621 -0.000470678 0 0.000708438 -0.00102758 0 
0.00043748 -0.00030453 0 0.00042852 -0.00119547 0 -0.000266167 -0.000909585 0 
-0.00026339 -0.000582669 0 -0.000595526 -0.000581349 0 -0.000595539 -0.000918697 0 
-0.000749174 -0.000957462 0 -0.000749174 -0.000542538 0 -0.000436828 -0.000541202 0 
-0.000633495 -0.000748246 0 -0.000234978 -0.000756491 0 -0.000436828 -0.000958798 0 
-0.0007972 -0.000964286 0 -0.0007972 -0.000535714 0 -0.000131951 -0.000583807 0 
-0.000120576 -0.000920987 0 -0.000440309 -0.00110148 0 -0.000440309 -0.00039852 0 
-0.000540519 -0.000463808 0 -0.000540519 -0.00103619 0 -0.000737497 -0.000826703 0 
-0.000743731 -0.00067341 0 -0.000326361 -0.000455157 0 -0.000326361 -0.00104484 0 
-0.000347939 -0.000834179 0 -0.000344799 -0.000652107 0 -0.000525969 -0.000668056 0 
-0.000528784 -0.000835049 0 -0.00080748 -0.000997295 0 -0.00080748 -0.000502705 0 
-0.00065996 -0.000996565 0 -0.00065996 -0.000503435 0 -0.000114839 -0.00080244 0 
-0.00012727 -0.000689074 0 -0.000684653 -0.000892326 0 -0.000684653 -0.000607674 0 
-0.000402255 -0.00033906 0 -0.000402255 -0.00116094 0 -0.00020379 -0.000996251 0 
-0.000209694 -0.000514898 0 -0.000410601 -0.000616776 0 -0.000414328 -0.000881409 0 
-0.000564489 -0.00077222 0 -0.00030297 -0.0007663 0 -0.000806831 -0.000899154 0 
-0.000806831 -0.000600846 0 -0.000198082 -0.000840386 0 -0.000104201 -0.000515756 0 
-0.000102305 -0.000985043 0 -0.000210482 -0.000662469 0 -0.000512323 -0.000571317 0 
-0.000512323 -0.000928683 0 -0.000607487 -0.000671376 0 -0.000342389 -0.000918878 0 
-0.000339591 -0.000579218 0 -0.000598177 -0.000824513 0 -0.000525093 -0.00110877 0 
-0.000525093 -0.000391231 0 -0.000467764 -0.00117211 0 -0.000467764 -0.000327887 0 
-0.00082824 -0.000937946 0 -0.00082824 -0.000562054 0 -0.000792673 -0.000751208 0 
-4.40406e-05 -0.000938051 0 -4.29968e-05 -0.000563636 0 -0.000368656 -0.000394329 0 
-0.000368656 -0.00110567 0 -0.000404944 -0.000466574 0 -0.000404944 -0.00103343 0 
-0.000274968 -0.000693542 0 -0.000473579 -0.000463157 0 -0.000473579 -0.00103684 0 
-0.000273108 -0.000829102 0 -0.000617905 -0.00105951 0 -0.000617905 -0.00044049 0 
-7.4389e-05 -0.000644248 0 -6.99258e-05 -0.00086688 0 -0.000758009 -0.00100133 0 
-0.000758009 -0.000498667 0 -0.000674521 -0.00082321 0 -0.000747394 -0.000897802 0 
-0.000747848 -0.000602206 0 -0.000837578 -0.00099054 0 -0.000836308 -0.000968831 0 
-0.000837578 -0.00050946 0 -0.000836308 -0.000531169 0 -0.00024589 -0.000439066 0 
-0.000241075 -0.0010584 0 -0.000693065 -0.000950422 0 -0.000693085 -0.000549579 0 
-0.000404574 -0.00120076 0 -0.000404574 -0.000299236 0 -0.000672818 -0.000679103 0 
-0.000714008 -0.000755903 0 -7.82213e-05 -0.000731034 0 -5.6329e-05 -0.000504603 0 
-5.61586e-05 -0.000995894 0 -0.000275796 -0.000980896 0 -0.000285676 -0.000513219 0 
-0.000186165 -0.000585602 0 -0.000584291 -0.000982673 0 -0.00058429 -0.000517332 0 
-0.00045634 -0.000660721 0 -0.000464193 -0.000839596 0 -0.00034177 -0.000716972 0 
-0.000523385 -0.000727952 0 -0.000193444 -0.000925069 0 -0.000807637 -0.00084025 0 
-0.000810429 -0.000661252 0 -0.000386833 -0.000795991 0 -0.000394413 -0.000668913 0 
-0.000509958 -0.000787971 0 -0.000305514 -0.00111008 0 -0.000306477 -0.00038941 0 
-0.000362249 -0.00098716 0 -0.00035868 -0.000511074 0 -0.000160645 -0.000746982 0 
-0.000509508 -0.000511363 0 -0.000509508 -0.000988638 0 -0.00028739 -0.000637604 0 
-0.000785534 -0.00093326 0 -0.000785598 -0.000566741 0 -0.000703615 -0.00103564 0 
-0.000703615 -0.000464361 0 -0.000148903 -0.000636616 0 -0.00015636 -0.000534148 0 
-0.000153981 -0.000971334 0 -0.000139581 -0.000867053 0 -0.000482839 -0.000702846 0 
-0.000471292 -0.000605364 0 -0.000471292 -0.000894636 0 -0.000570965 -0.00071757 0 
-0.000554433 -0.000615103 0 -0.000553903 -0.000884892 0 -0.000639788 -0.00094438 0 
-0.000639768 -0.0005557 0 -0.000307401 -0.000872936 0 -0.000712765 -0.000988284 0 
-0.000712769 -0.000511716 0 -0.000628213 -0.000619733 0 -0.000630855 -0.000879083 0 
-0.000409259 -0.000828735 0 -0.000354002 -0.000772688 0 -0.000155373 -0.000471972 0 
-0.000153127 -0.00102904 0 -0.00043748 -0.00030453 0 -0.00043748 -0.00119547 0 
-0.000699167 -0.000159585 0 -0.00102828 0.000168837 0 -0.000700039 0.000165961 0 
-0.00102854 -0.000168697 0 -0.00118217 0.000207462 0 -0.00118217 -0.000207462 0 
-0.000867762 0.00020878 0 -0.00106649 5.10348e-06 0 -0.000667978 -6.49099e-06 0 
-0.000869828 -0.000208798 0 -0.0012302 0.000214286 0 -0.0012302 -0.000214286 0 
-0.000564951 0.000166193 0 -0.000553576 -0.000170987 0 -0.000873309 -0.00035148 0 
-0.000858691 0.00035148 0 -0.000756768 0.000285545 0 -0.000973519 -0.000286192 0 
-0.00117081 7.69979e-05 0 -0.00117457 -7.52569e-05 0 -0.000759361 -0.000294843 0 
-0.00097093 0.000296588 0 -0.000780939 -8.41794e-05 0 -0.000958969 8.1944e-05 0 
-0.000777799 9.78925e-05 0 -0.000961784 -8.5049e-05 0 -0.00124048 0.000247295 0 
-0.00124048 -0.000247295 0 -0.00109281 0.000247375 0 -0.00109296 -0.000246565 0 
-0.000547839 -5.24395e-05 0 -0.00056027 6.09258e-05 0 -0.00111765 0.000142326 0 
-0.00111765 -0.000142326 0 -0.000835255 -0.00041094 0 -0.000896745 0.00041094 0 
-0.00063679 -0.000246251 0 -0.000636522 0.000241816 0 -0.000843256 0.000133221 0 
-0.000847328 -0.000131409 0 -0.000997489 -2.16615e-05 0 -0.00073597 -1.62999e-05 0 
-0.00123983 0.000149154 0 -0.00123983 -0.000149154 0 -0.000631082 -9.03863e-05 0 
-0.000535305 -0.000235043 0 -0.000537201 0.000234244 0 -0.000642398 9.28059e-05 0 
-0.000948408 0.000181543 0 -0.000945323 -0.000178683 0 -0.00104049 7.88274e-05 0 
-0.000775389 -0.000168878 0 -0.000772841 0.000169495 0 -0.00103118 -7.38619e-05 0 
-0.000958093 -0.000358769 0 -0.000773907 0.000358769 0 -0.000900764 -0.000422113 0 
-0.000831236 0.000422113 0 -0.00126124 0.000187946 0 -0.00126124 -0.000187946 0 
-0.00122671 1.92365e-06 0 -0.000477041 -0.000188051 0 -0.000475997 0.000186364 0 
-0.000801656 -0.000355671 0 -0.000929777 0.000356891 0 -0.000837944 -0.000283426 0 
-0.000894056 0.000283426 0 -0.000707968 5.64575e-05 0 -0.000825421 0.000286843 0 
-0.000906579 -0.000286843 0 -0.000678551 0.000307262 0 -0.000706108 -7.91024e-05 0 
-0.0010509 -0.00030951 0 -0.000507389 0.000105752 0 -0.000502926 -0.00011688 0 
-0.00119101 0.000251333 0 -0.00119101 -0.000251333 0 -0.00110684 -7.12684e-05 0 
-0.00118042 0.000147824 0 -0.00118069 -0.000147697 0 -0.00127058 0.00024054 0 
-0.00126931 0.000218831 0 -0.00127058 -0.00024054 0 -0.00126931 -0.000218831 0 
-0.000674075 -0.0003084 0 -0.00112605 0.000200474 0 -0.00112608 -0.000200417 0 
-0.000837574 -0.000450764 0 -0.000894426 0.000450764 0 -0.00105507 0.000311072 0 
-0.001107 7.45278e-05 0 -0.00114494 4.78174e-06 0 -0.000511221 1.89656e-05 0 
-0.000703503 0.000232229 0 -0.000489329 0.000245397 0 -0.000489159 -0.000245894 0 
-0.000708796 -0.000230896 0 -0.000631208 0.000171119 0 -0.00101729 -0.000232673 0 
-0.000889299 8.92785e-05 0 -0.000897193 -8.95957e-05 0 -0.00077477 3.30279e-05 0 
-0.000956385 2.2115e-05 0 -0.00101833 0.000235849 0 -0.000626444 -0.000175069 0 
-0.00124075 9.03378e-05 0 -0.00124242 -8.91537e-05 0 -0.000819833 -4.59906e-05 0 
-0.000799772 0.000232832 0 -0.000827413 8.10868e-05 0 -0.000942958 -3.79434e-05 0 
-0.000738514 -0.000360083 0 -0.000795249 -0.00023716 0 -0.000593465 3.89675e-06 0 
-0.000942508 -0.000238638 0 -0.00072039 0.000112396 0 -0.00121854 0.000183264 0 
-0.00121858 -0.000183245 0 -0.00113595 0.000283517 0 -0.00113662 -0.000285639 0 
-0.000939898 0.000241237 0 -0.00058355 0.000113194 0 -0.000994597 0.00035529 0 
-0.000586981 -0.000221334 0 -0.000588267 0.00021912 0 -0.000572581 -0.000117053 0 
-0.00091583 4.71675e-05 0 -0.000904292 -0.000144636 0 -0.000904292 0.000144636 0 
-0.00100396 3.32657e-05 0 -0.00098918 0.000133204 0 -0.000986047 -0.000136339 0 
-0.00107279 -0.00019438 0 -0.000740401 -0.000122936 0 -0.00107275 0.000194842 0 
-0.0011456 0.000238032 0 -0.00114577 -0.000238283 0 -0.00106153 0.000130609 0 
-0.00106376 -0.000129013 0 -0.000842259 -7.8735e-05 0 -0.000787002 -2.26884e-05 0 
-0.000586448 0.000278672 0 -0.000586127 -0.000279044 0 -0.00087048 -0.00044547 0 
-0.00086152 0.00044547 0 -0.000266167 0.000590415 0 -0.000267039 0.000915961 0 
-0.000595277 0.000918837 0 -0.000595539 0.000581303 0 -0.000749174 0.000542538 0 
-0.000749174 0.000957462 0 -0.000434763 0.00095878 0 -0.000633495 0.000751754 0 
-0.000234978 0.000743509 0 -0.000436828 0.000541202 0 -0.0007972 0.000535714 0 
-0.0007972 0.000964286 0 -0.000131951 0.000916193 0 -0.000120576 0.000579013 0 
-0.000440309 0.00039852 0 -0.000425691 0.00110148 0 -0.000323768 0.00103554 0 
-0.000540519 0.000463808 0 -0.000737497 0.000673297 0 -0.000743731 0.00082659 0 
-0.000326361 0.000455157 0 -0.00053793 0.00104659 0 -0.000347939 0.000665821 0 
-0.000344799 0.000847893 0 -0.000525969 0.000831944 0 -0.000528784 0.000664951 0 
-0.00080748 0.000502705 0 -0.00080748 0.000997295 0 -0.00065996 0.000503435 0 
-0.000659807 0.000997375 0 -0.000114839 0.00069756 0 -0.00012727 0.000810926 0 
-0.000684653 0.000607674 0 -0.000684653 0.000892326 0 -0.000402255 0.00033906 0 
-0.000463745 0.00116094 0 -0.00020379 0.000503749 0 -0.000203522 0.000991815 0 
-0.000410256 0.000883221 0 -0.000414328 0.000618591 0 -0.000564489 0.00072778 0 
-0.00030297 0.0007337 0 -0.000806831 0.000600846 0 -0.000806831 0.000899154 0 
-0.000198082 0.000659614 0 -0.000104201 0.000984244 0 -0.000102305 0.000514957 0 
-0.000209398 0.000842806 0 -0.000515408 0.000931543 0 -0.000512323 0.000571317 0 
-0.000607487 0.000828624 0 -0.000342389 0.000581122 0 -0.000339841 0.000919495 0 
-0.000598177 0.000675487 0 -0.000525093 0.000391231 0 -0.000340907 0.00110877 0 
-0.000398236 0.00117211 0 -0.000467764 0.000327887 0 -0.00082824 0.000562054 0 
-0.00082824 0.000937946 0 -0.000792673 0.000748792 0 -4.40406e-05 0.000561949 0 
-4.29968e-05 0.000936364 0 -0.000368656 0.000394329 0 -0.000496777 0.00110689 0 
-0.000404944 0.000466574 0 -0.000461056 0.00103343 0 -0.000274968 0.000806458 0 
-0.000392421 0.00103684 0 -0.000473579 0.000463157 0 -0.000245551 0.00105726 0 
-0.000273108 0.000670898 0 -0.000617905 0.00044049 0 -7.4389e-05 0.000855752 0 
-6.99258e-05 0.00063312 0 -0.000758009 0.000498667 0 -0.000758009 0.00100133 0 
-0.000674521 0.00067679 0 -0.000747394 0.000602198 0 -0.000747848 0.000897794 0 
-0.000837578 0.00050946 0 -0.000836308 0.000531169 0 -0.000837578 0.00099054 0 
-0.000836308 0.000968831 0 -0.000241075 0.0004416 0 -0.000693065 0.000549578 0 
-0.000693072 0.000950473 0 -0.000404574 0.000299236 0 -0.000461426 0.00120076 0 
-0.000622066 0.00106107 0 -0.000672818 0.000820897 0 -0.000714008 0.000744097 0 
-7.82213e-05 0.000768966 0 -0.000270503 0.000982229 0 -5.6329e-05 0.000995397 0 
-5.61586e-05 0.000504106 0 -0.000275796 0.000519104 0 -0.000198208 0.000921119 0 
-0.000584291 0.000517327 0 -0.000456299 0.000839279 0 -0.000464193 0.000660404 0 
-0.00034177 0.000783028 0 -0.000523385 0.000772048 0 -0.000585334 0.000985849 0 
-0.000193444 0.000574931 0 -0.000807637 0.00065975 0 -0.000810429 0.000838748 0 
-0.000386833 0.000704009 0 -0.000366772 0.000982832 0 -0.000394413 0.000831087 0 
-0.000509958 0.000712029 0 -0.000305514 0.000389917 0 -0.000362249 0.00051284 0 
-0.000160465 0.000753897 0 -0.000509508 0.000511362 0 -0.00028739 0.000862396 0 
-0.000785534 0.00056674 0 -0.000785598 0.000933259 0 -0.000703615 0.000464361 0 
-0.000702954 0.00103352 0 -0.000506898 0.000991237 0 -0.00015055 0.000863194 0 
-0.000561597 0.00110529 0 -0.000153981 0.000528666 0 -0.000155267 0.00096912 0 
-0.000139581 0.000632947 0 -0.00048283 0.000797154 0 -0.000471292 0.000894636 0 
-0.000471292 0.000605364 0 -0.000570965 0.00078243 0 -0.00055618 0.00088318 0 
-0.000553903 0.000615108 0 -0.000639788 0.00055562 0 -0.000307401 0.000627064 0 
-0.00063975 0.000944842 0 -0.000712765 0.000511716 0 -0.000712603 0.000988032 0 
-0.000628389 0.00088015 0 -0.000630855 0.000620917 0 -0.000409259 0.000671265 0 
-0.000354002 0.000727312 0 -0.000153448 0.00102867 0 -0.000153127 0.000470956 0 
-0.00042852 0.00119547 0 -0.00043748 0.00030453 0 0.000166833 -0.000159585 -0.0005 
0.000165961 0.000165961 -0.0005 -0.000162277 0.000168837 -0.0005 -0.000162539 -0.000168697 -0.0005 
-0.000316174 -0.000207462 -0.0005 -0.000316174 0.000207462 -0.0005 -1.7625e-06 0.00020878 -0.0005 
-0.000200494 5.10348e-06 -0.0005 0.000198022 -6.49099e-06 -0.0005 -3.82827e-06 -0.000208798 -0.0005 
-0.0003642 0.000214286 -0.0005 -0.0003642 -0.000214286 -0.0005 0.000301049 0.000166193 -0.0005 
0.000312424 -0.000170987 -0.0005 -7.30908e-06 -0.00035148 -0.0005 7.30908e-06 0.00035148 -0.0005 
0.000109232 0.000285545 -0.0005 -0.000107519 -0.000286192 -0.0005 -0.000304808 7.69979e-05 -0.0005 
-0.000308572 -7.52569e-05 -0.0005 0.000106639 -0.000294843 -0.0005 -0.00010493 0.000296588 -0.0005 
8.50608e-05 -8.41794e-05 -0.0005 8.82006e-05 9.78925e-05 -0.0005 -9.29688e-05 8.1944e-05 -0.0005 
-9.5784e-05 -8.5049e-05 -0.0005 -0.00037448 0.000247295 -0.0005 -0.00037448 -0.000247295 -0.0005 
-0.000226807 0.000247375 -0.0005 -0.00022696 -0.000246565 -0.0005 0.000318161 -5.24395e-05 -0.0005 
0.00030573 6.09258e-05 -0.0005 -0.000251653 -0.000142326 -0.0005 -0.000251653 0.000142326 -0.0005 
3.07451e-05 -0.00041094 -0.0005 -3.07451e-05 0.00041094 -0.0005 0.00022921 -0.000246251 -0.0005 
0.000229478 0.000241816 -0.0005 2.27436e-05 0.000133221 -0.0005 1.86722e-05 -0.000131409 -0.0005 
-0.000131489 -2.16615e-05 -0.0005 0.00013003 -1.62999e-05 -0.0005 -0.00037383 0.000149154 -0.0005 
-0.00037383 -0.000149154 -0.0005 0.000234918 -9.03863e-05 -0.0005 0.000328799 0.000234244 -0.0005 
0.000330695 -0.000235043 -0.0005 0.000223602 9.28059e-05 -0.0005 -8.24081e-05 0.000181543 -0.0005 
-7.93229e-05 -0.000178683 -0.0005 -0.000174487 7.88274e-05 -0.0005 9.06107e-05 -0.000168878 -0.0005 
9.31592e-05 0.000169495 -0.0005 -0.000165177 -7.38619e-05 -0.0005 -9.20929e-05 -0.000358769 -0.0005 
9.20929e-05 0.000358769 -0.0005 3.47644e-05 0.000422113 -0.0005 -3.47644e-05 -0.000422113 -0.0005 
-0.00039524 0.000187946 -0.0005 -0.00039524 -0.000187946 -0.0005 -0.00036071 1.92365e-06 -0.0005 
0.000388959 -0.000188051 -0.0005 0.000390003 0.000186364 -0.0005 6.43444e-05 -0.000355671 -0.0005 
-6.37768e-05 0.000356891 -0.0005 2.80563e-05 -0.000283426 -0.0005 -2.80563e-05 0.000283426 -0.0005 
0.000158032 5.64575e-05 -0.0005 4.0579e-05 0.000286843 -0.0005 -4.0579e-05 -0.000286843 -0.0005 
0.000187449 0.000307262 -0.0005 0.000159892 -7.91024e-05 -0.0005 -0.000184905 -0.00030951 -0.0005 
0.000358611 0.000105752 -0.0005 0.000363074 -0.00011688 -0.0005 -0.000325009 0.000251333 -0.0005 
-0.000325009 -0.000251333 -0.0005 -0.000240838 -7.12684e-05 -0.0005 -0.000314691 -0.000147697 -0.0005 
-0.000314417 0.000147824 -0.0005 -0.000404578 0.00024054 -0.0005 -0.000403308 0.000218831 -0.0005 
-0.000404578 -0.00024054 -0.0005 -0.000403308 -0.000218831 -0.0005 0.000191925 -0.0003084 -0.0005 
-0.000260053 0.000200474 -0.0005 -0.000260078 -0.000200417 -0.0005 -2.84262e-05 0.000450764 -0.0005 
2.84262e-05 -0.000450764 -0.0005 -0.000189066 0.000311072 -0.0005 -0.000240999 7.45278e-05 -0.0005 
-0.000278935 4.78174e-06 -0.0005 0.000354779 1.89656e-05 -0.0005 0.000162497 0.000232229 -0.0005 
0.000376671 0.000245397 -0.0005 0.000376841 -0.000245894 -0.0005 0.000157204 -0.000230896 -0.0005 
0.000234792 0.000171119 -0.0005 -0.000151291 -0.000232673 -0.0005 -2.32986e-05 8.92785e-05 -0.0005 
-3.11926e-05 -8.95957e-05 -0.0005 -9.03847e-05 2.2115e-05 -0.0005 9.12302e-05 3.30279e-05 -0.0005 
-0.000152334 0.000235849 -0.0005 0.000239556 -0.000175069 -0.0005 -0.000374753 9.03378e-05 -0.0005 
-0.000376425 -8.91537e-05 -0.0005 4.61669e-05 -4.59906e-05 -0.0005 6.62281e-05 0.000232832 -0.0005 
3.85868e-05 8.10868e-05 -0.0005 -7.69579e-05 -3.79434e-05 -0.0005 0.000127486 -0.000360083 -0.0005 
7.07506e-05 -0.00023716 -0.0005 0.000272535 3.89675e-06 -0.0005 -7.65081e-05 -0.000238638 -0.0005 
0.00014561 0.000112396 -0.0005 -0.000352537 0.000183264 -0.0005 -0.000352576 -0.000183245 -0.0005 
-0.000270615 -0.000285639 -0.0005 -0.000269954 0.000283517 -0.0005 -7.38981e-05 0.000241237 -0.0005 
0.00028245 0.000113194 -0.0005 -0.000128597 0.00035529 -0.0005 0.000277733 0.00021912 -0.0005 
0.000279019 -0.000221334 -0.0005 0.000293419 -0.000117053 -0.0005 -4.98304e-05 4.71675e-05 -0.0005 
-3.82924e-05 0.000144636 -0.0005 -3.82924e-05 -0.000144636 -0.0005 -0.000137965 3.32657e-05 -0.0005 
-0.00012318 0.000133204 -0.0005 -0.000120047 -0.000136339 -0.0005 -0.000206789 -0.00019438 -0.0005 
0.000125599 -0.000122936 -0.0005 -0.000206748 0.000194842 -0.0005 -0.000279599 0.000238032 -0.0005 
-0.000279767 -0.000238283 -0.0005 -0.000195529 0.000130609 -0.0005 -0.000197761 -0.000129013 -0.0005 
2.37414e-05 -7.8735e-05 -0.0005 7.89976e-05 -2.26884e-05 -0.0005 0.000279552 0.000278672 -0.0005 
0.000279873 -0.000279044 -0.0005 4.48012e-06 0.00044547 -0.0005 -4.48012e-06 -0.00044547 -0.0005 
0.000598961 0.000584039 -0.0005 0.000602744 0.00091226 -0.0005 0.000270474 0.000918651 -0.0005 
0.000270149 0.000581615 -0.0005 0.000116826 0.000957462 -0.0005 0.000116826 0.000542538 -0.0005 
0.000429172 0.000958798 -0.0005 0.000232505 0.000755103 -0.0005 0.000636012 0.000747201 -0.0005 
0.000434763 0.00054122 -0.0005 6.87997e-05 0.000964286 -0.0005 6.87997e-05 0.000535714 -0.0005 
0.000745424 0.000920987 -0.0005 0.000734049 0.000583807 -0.0005 0.000425691 0.00039852 -0.0005 
0.000425691 0.00110148 -0.0005 0.000325481 0.00103619 -0.0005 0.00032556 0.000464273 -0.0005 
0.000128192 0.000826998 -0.0005 0.000124428 0.000674743 -0.0005 0.000539639 0.00104484 -0.0005 
0.000539618 0.000454793 -0.0005 0.000520463 0.000653783 -0.0005 0.000521988 0.00084822 -0.0005 
0.000340031 0.000831944 -0.0005 0.00034624 0.000661734 -0.0005 5.85195e-05 0.000997295 -0.0005 
5.85195e-05 0.000502705 -0.0005 0.00020604 0.000996565 -0.0005 0.00020604 0.000503435 -0.0005 
0.000751161 0.00080244 -0.0005 0.00073873 0.000689074 -0.0005 0.000181347 0.000607674 -0.0005 
0.000181347 0.000892326 -0.0005 0.000463745 0.00033906 -0.0005 0.000463745 0.00116094 -0.0005 
0.00066221 0.000996251 -0.0005 0.000655871 0.000515061 -0.0005 0.000455531 0.000883279 -0.0005 
0.0004137 0.000617913 -0.0005 0.000302544 0.000731006 -0.0005 0.000569409 0.000742828 -0.0005 
5.91695e-05 0.000899154 -0.0005 5.91695e-05 0.000600846 -0.0005 0.000666622 0.000847886 -0.0005 
0.000763695 0.000985043 -0.0005 0.000761799 0.000515756 -0.0005 0.000662952 0.000664982 -0.0005 
0.000353677 0.000928683 -0.0005 0.000512323 0.000571317 -0.0005 0.000258513 0.000828827 -0.0005 
0.000526529 0.000920143 -0.0005 0.000348994 0.000575642 -0.0005 0.000269055 0.00067649 -0.0005 
0.000340907 0.000391231 -0.0005 0.000340907 0.00110877 -0.0005 0.000398236 0.00117211 -0.0005 
0.000398236 0.000327887 -0.0005 3.77595e-05 0.000937946 -0.0005 3.77595e-05 0.000562054 -0.0005 
7.22902e-05 0.000751924 -0.0005 0.000821959 0.000938051 -0.0005 0.000823003 0.000563636 -0.0005 
0.000497344 0.00110567 -0.0005 0.000497341 0.000394268 -0.0005 0.000595975 0.000808208 -0.0005 
0.000461056 0.000466574 -0.0005 0.000461056 0.00103343 -0.0005 0.000392421 0.00103684 -0.0005 
0.000392458 0.000463164 -0.0005 0.000248106 0.000440556 -0.0005 0.000248095 0.00105951 -0.0005 
0.000791611 0.000644248 -0.0005 0.000796074 0.00086688 -0.0005 0.000107991 0.00100133 -0.0005 
0.000107991 0.000498667 -0.0005 0.000192237 0.000678753 -0.0005 0.000118309 0.000602303 -0.0005 
0.000118584 0.000897824 -0.0005 2.84222e-05 0.00099054 -0.0005 2.96921e-05 0.000968831 -0.0005 
2.84222e-05 0.00050946 -0.0005 2.96921e-05 0.000531169 -0.0005 0.000584827 0.000674445 -0.0005 
0.000624925 0.0010584 -0.0005 0.000620086 0.000439056 -0.0005 0.000172934 0.000950423 -0.0005 
0.000172922 0.000549583 -0.0005 0.000461426 0.00120076 -0.0005 0.000461426 0.000299236 -0.0005 
0.000192001 0.000824528 -0.0005 0.000154074 0.000754784 -0.0005 0.000787779 0.000731034 -0.0005 
0.000809841 0.000995894 -0.0005 0.000809671 0.000504603 -0.0005 0.000589469 0.00097835 -0.0005 
0.000571747 0.000512487 -0.0005 0.000673596 0.000588147 -0.0005 0.000281249 0.000518091 -0.0005 
0.00028171 0.000982668 -0.0005 0.000409676 0.000839285 -0.0005 0.000465934 0.000658411 -0.0005 
0.000524589 0.000782934 -0.0005 0.000342119 0.000777068 -0.0005 0.000672682 0.000926159 -0.0005 
5.82468e-05 0.000840338 -0.0005 5.65752e-05 0.000660846 -0.0005 0.000386493 0.000703192 -0.0005 
0.000361584 0.000514775 -0.0005 0.000471587 0.000831087 -0.0005 0.000510532 0.000709986 -0.0005 
0.000559513 0.000389323 -0.0005 0.000560486 0.00111008 -0.0005 0.000503751 0.00098716 -0.0005 
0.000707209 0.000747103 -0.0005 0.000356492 0.000988637 -0.0005 8.04633e-05 0.000933264 -0.0005 
8.04241e-05 0.000566755 -0.0005 0.000162386 0.000464369 -0.0005 0.000162385 0.00103564 -0.0005 
0.000578393 0.000862613 -0.0005 0.000503901 0.000509278 -0.0005 0.000714127 0.000640342 -0.0005 
0.000712044 0.000971552 -0.0005 0.000710619 0.000533186 -0.0005 0.000726252 0.00086828 -0.0005 
0.000383065 0.000798159 -0.0005 0.000471292 0.000605364 -0.0005 0.000394708 0.000894636 -0.0005 
0.000295143 0.00078479 -0.0005 0.000311567 0.000884914 -0.0005 0.000544105 0.000613927 -0.0005 
0.000226145 0.000555712 -0.0005 0.000226234 0.0009443 -0.0005 0.000307419 0.000615421 -0.0005 
0.000153235 0.000988284 -0.0005 0.000153233 0.000511718 -0.0005 0.000237647 0.000880726 -0.0005 
0.000238317 0.000620115 -0.0005 0.000410377 0.000668704 -0.0005 0.000352297 0.000726325 -0.0005 
0.000712874 0.00102905 -0.0005 0.000708438 0.00047242 -0.0005 0.00042852 0.00030453 -0.0005 
0.00042852 0.00119547 -0.0005 0.00103283 -0.000159585 -0.0005 0.00103196 0.000165961 -0.0005 
0.00070371 0.000168883 -0.0005 0.000703474 -0.000168651 -0.0005 0.000549826 0.000207462 -0.0005 
0.000549826 -0.000207462 -0.0005 0.000864237 0.00020878 -0.0005 0.000665505 -1.75358e-06 -0.0005 
0.00106402 -6.49099e-06 -0.0005 0.000862172 -0.000208798 -0.0005 0.0005018 0.000214286 -0.0005 
0.0005018 -0.000214286 -0.0005 0.00117842 -0.000170987 -0.0005 0.00116705 0.000166193 -0.0005 
0.000858691 -0.00035148 -0.0005 0.000873309 0.00035148 -0.0005 0.000975232 0.000285545 -0.0005 
0.000758481 -0.000286192 -0.0005 0.000561503 7.6703e-05 -0.0005 0.000555269 -7.65899e-05 -0.0005 
0.000972639 -0.000294843 -0.0005 0.00076107 0.000296588 -0.0005 0.000951061 -8.41794e-05 -0.0005 
0.000954201 9.78925e-05 -0.0005 0.000770216 8.5049e-05 -0.0005 0.000773031 -8.1944e-05 -0.0005 
0.00049152 0.000247295 -0.0005 0.00049152 -0.000247295 -0.0005 0.000639193 0.000247375 -0.0005 
0.00063904 -0.000246565 -0.0005 0.00118416 -5.24395e-05 -0.0005 0.00117173 6.09258e-05 -0.0005 
0.000614347 -0.000142326 -0.0005 0.000614347 0.000142326 -0.0005 0.000896745 -0.00041094 -0.0005 
0.000835255 0.00041094 -0.0005 0.00109521 -0.000246251 -0.0005 0.00109548 0.000241816 -0.0005 
0.000888744 0.000133221 -0.0005 0.000884672 -0.000131409 -0.0005 0.000734511 2.22198e-05 -0.0005 
0.00099603 -1.62999e-05 -0.0005 0.00049217 0.000149154 -0.0005 0.00049217 -0.000149154 -0.0005 
0.00110092 -9.03863e-05 -0.0005 0.0011967 -0.000235043 -0.0005 0.0011948 0.000234244 -0.0005 
0.0010896 9.28059e-05 -0.0005 0.000783591 0.000181545 -0.0005 0.000786677 -0.000178683 -0.0005 
0.000691513 -7.86239e-05 -0.0005 0.000956611 -0.000168878 -0.0005 0.000959159 0.000169495 -0.0005 
0.000700823 7.45132e-05 -0.0005 0.000773907 -0.000358769 -0.0005 0.000958093 0.000358769 -0.0005 
0.000900764 0.000422113 -0.0005 0.000831236 -0.000422113 -0.0005 0.00047076 0.000187946 -0.0005 
0.00047076 -0.000187946 -0.0005 0.000506327 1.20793e-06 -0.0005 0.00125496 -0.000188051 -0.0005 
0.001256 0.000186364 -0.0005 0.000930344 -0.000355671 -0.0005 0.000802223 0.000356891 -0.0005 
0.000894056 -0.000283426 -0.0005 0.000837944 0.000283426 -0.0005 0.00102403 5.64575e-05 -0.0005 
0.000906579 0.000286843 -0.0005 0.000825421 -0.000286843 -0.0005 0.00105345 0.000307262 -0.0005 
0.00102589 -7.91024e-05 -0.0005 0.000681095 -0.00030951 -0.0005 0.00122461 0.000105752 -0.0005 
0.00122907 -0.00011688 -0.0005 0.000540991 0.000251333 -0.0005 0.000540991 -0.000251333 -0.0005 
0.000624479 7.32103e-05 -0.0005 0.000551152 -0.000147794 -0.0005 0.000551606 0.000147802 -0.0005 
0.000461422 0.00024054 -0.0005 0.000462692 0.000218831 -0.0005 0.000461422 -0.00024054 -0.0005 
0.000462692 -0.000218831 -0.0005 0.00105793 -0.0003084 -0.0005 0.000605948 0.000200473 -0.0005 
0.000605915 -0.000200421 -0.0005 0.000894426 -0.000450764 -0.0005 0.000837574 0.000450764 -0.0005 
0.000676934 0.000311072 -0.0005 0.000626182 -7.08972e-05 -0.0005 0.000584992 5.90258e-06 -0.0005 
0.00122078 1.89656e-05 -0.0005 0.0010285 0.000232229 -0.0005 0.00124284 -0.000245894 -0.0005 
0.00124267 0.000245397 -0.0005 0.0010232 -0.000230896 -0.0005 0.00110079 0.000171119 -0.0005 
0.00071471 -0.000232668 -0.0005 0.000834965 9.05283e-05 -0.0005 0.000842673 -8.85226e-05 -0.0005 
0.00095723 3.30279e-05 -0.0005 0.000775615 -2.20485e-05 -0.0005 0.000713665 0.000235853 -0.0005 
0.00110556 -0.000175069 -0.0005 0.000491363 9.025e-05 -0.0005 0.000488571 -8.87482e-05 -0.0005 
0.000912167 -4.59906e-05 -0.0005 0.000932228 0.000232832 -0.0005 0.000904587 8.10868e-05 -0.0005 
0.000789049 3.8011e-05 -0.0005 0.000993486 -0.000360083 -0.0005 0.000936751 -0.00023716 -0.0005 
0.00113854 3.89675e-06 -0.0005 0.000789492 -0.000238637 -0.0005 0.00101161 0.000112396 -0.0005 
0.000513466 0.00018326 -0.0005 0.000513402 -0.000183259 -0.0005 0.000596046 0.000283517 -0.0005 
0.000595385 -0.000285639 -0.0005 0.000792102 0.000241238 -0.0005 0.00114845 0.000113194 -0.0005 
0.000737403 0.00035529 -0.0005 0.00114502 -0.000221334 -0.0005 0.00114373 0.00021912 -0.0005 
0.00115942 -0.000117053 -0.0005 0.000816164 -4.7003e-05 -0.0005 0.000827708 0.000144636 -0.0005 
0.000827708 -0.000144636 -0.0005 0.000728035 -3.243e-05 -0.0005 0.00074578 0.000136564 -0.0005 
0.000744567 -0.000134897 -0.0005 0.000659232 -0.0001943 -0.0005 0.000991599 -0.000122936 -0.0005 
0.00065923 0.000194923 -0.0005 0.000586401 0.000238032 -0.0005 0.000586231 -0.000238284 -0.0005 
0.000670788 -0.000130267 -0.0005 0.000668203 0.000129229 -0.0005 0.000889614 -8.00602e-05 -0.0005 
0.000944998 -2.26884e-05 -0.0005 0.00114587 -0.000279044 -0.0005 0.00114555 0.000278672 -0.0005 
0.00087048 0.00044547 -0.0005 0.00086152 -0.00044547 -0.0005 0.000598961 -0.000915961 -0.0005 
0.000603317 -0.000588209 -0.0005 0.000270723 -0.000581163 -0.0005 0.000270149 -0.000918385 -0.0005 
0.000116826 -0.000542538 -0.0005 0.000116826 -0.000957462 -0.0005 0.000431238 -0.00054122 -0.0005 
0.000232505 -0.000744897 -0.0005 0.000636012 -0.000752799 -0.0005 0.000434763 -0.00095878 -0.0005 
6.87997e-05 -0.000535714 -0.0005 6.87997e-05 -0.000964286 -0.0005 0.000745424 -0.000579013 -0.0005 
0.000734049 -0.000916193 -0.0005 0.000425691 -0.00110148 -0.0005 0.000440309 -0.00039852 -0.0005 
0.000542232 -0.000464455 -0.0005 0.00032556 -0.00103573 -0.0005 0.000128192 -0.000673002 -0.0005 
0.000124428 -0.000825257 -0.0005 0.000539618 -0.00104521 -0.0005 0.00032807 -0.000453412 -0.0005 
0.000520463 -0.000846217 -0.0005 0.000521988 -0.00065178 -0.0005 0.000340031 -0.000668056 -0.0005 
0.00034624 -0.000838266 -0.0005 5.85195e-05 -0.000502705 -0.0005 5.85195e-05 -0.000997295 -0.0005 
0.000206193 -0.000502625 -0.0005 0.00020604 -0.000996565 -0.0005 0.000751161 -0.00069756 -0.0005 
0.00073873 -0.000810926 -0.0005 0.000181347 -0.000892326 -0.0005 0.000181347 -0.000607674 -0.0005 
0.000463745 -0.00116094 -0.0005 0.000402255 -0.00033906 -0.0005 0.000662471 -0.000504287 -0.0005 
0.000655871 -0.000984939 -0.0005 0.000455875 -0.000616724 -0.0005 0.0004137 -0.000882087 -0.0005 
0.000302544 -0.000768994 -0.0005 0.000569409 -0.000757172 -0.0005 5.91695e-05 -0.000600846 -0.0005 
5.91695e-05 -0.000899154 -0.0005 0.000666622 -0.000652114 -0.0005 0.000763695 -0.000514957 -0.0005 
0.000761799 -0.000984244 -0.0005 0.000662952 -0.000835018 -0.0005 0.000350592 -0.000568457 -0.0005 
0.000512323 -0.000928683 -0.0005 0.000258513 -0.000671173 -0.0005 0.000526882 -0.000581015 -0.0005 
0.000348994 -0.000924358 -0.0005 0.000269055 -0.00082351 -0.0005 0.000340907 -0.00110877 -0.0005 
0.000525093 -0.000391231 -0.0005 0.000398236 -0.00117211 -0.0005 0.000467764 -0.000327887 -0.0005 
3.77595e-05 -0.000562054 -0.0005 3.77595e-05 -0.000937946 -0.0005 7.22902e-05 -0.000748076 -0.0005 
0.000821959 -0.000561949 -0.0005 0.000823003 -0.000936364 -0.0005 0.000497341 -0.00110573 -0.0005 
0.000369223 -0.000393109 -0.0005 0.000595975 -0.000691792 -0.0005 0.000461056 -0.00103343 -0.0005 
0.000404944 -0.000466574 -0.0005 0.000473579 -0.000463157 -0.0005 0.000392458 -0.00103684 -0.0005 
0.000620449 -0.000442181 -0.0005 0.000248106 -0.00105944 -0.0005 0.000791611 -0.000855752 -0.0005 
0.000796074 -0.00063312 -0.0005 0.000107991 -0.000498667 -0.0005 0.000107991 -0.00100133 -0.0005 
0.000192237 -0.000821247 -0.0005 0.000118309 -0.000897697 -0.0005 0.000118584 -0.000602176 -0.0005 
2.84222e-05 -0.00050946 -0.0005 2.96921e-05 -0.000531169 -0.0005 2.84222e-05 -0.00099054 -0.0005 
2.96921e-05 -0.000968831 -0.0005 0.000584827 -0.000825555 -0.0005 0.000620086 -0.00106094 -0.0005 
0.000172947 -0.000549526 -0.0005 0.000172922 -0.000950417 -0.0005 0.000461426 -0.00120076 -0.0005 
0.000404574 -0.000299236 -0.0005 0.000243934 -0.000438928 -0.0005 0.000192001 -0.000675472 -0.0005 
0.000154074 -0.000745216 -0.0005 0.000787779 -0.000768966 -0.0005 0.000588723 -0.000523989 -0.0005 
0.000809841 -0.000504106 -0.0005 0.000809671 -0.000995397 -0.0005 0.000571747 -0.000987513 -0.0005 
0.000673596 -0.000911853 -0.0005 0.000281249 -0.000981909 -0.0005 0.000409717 -0.000660715 -0.0005 
0.000465934 -0.000841589 -0.0005 0.000524589 -0.000717066 -0.0005 0.000342119 -0.000722933 -0.0005 
0.000280666 -0.000514151 -0.0005 0.000672694 -0.000574319 -0.0005 5.82468e-05 -0.000659662 -0.0005 
5.65752e-05 -0.000839154 -0.0005 0.000386493 -0.000796808 -0.0005 0.000361584 -0.000985225 -0.0005 
0.000499228 -0.000517168 -0.0005 0.000471587 -0.000668913 -0.0005 0.000510532 -0.000790014 -0.0005 
0.000559513 -0.00111068 -0.0005 0.000707209 -0.000752897 -0.0005 8.04633e-05 -0.000566736 -0.0005 
8.04241e-05 -0.000933245 -0.0005 0.000163046 -0.000466483 -0.0005 0.000162386 -0.00103563 -0.0005 
0.000578393 -0.000637387 -0.0005 0.000503901 -0.000990722 -0.0005 0.000359102 -0.000508763 -0.0005 
0.000714127 -0.000859658 -0.0005 0.000304403 -0.00039471 -0.0005 0.000712099 -0.000528651 -0.0005 
0.000710619 -0.000966814 -0.0005 0.000726254 -0.000631789 -0.0005 0.000383073 -0.000701841 -0.0005 
0.000471292 -0.000894636 -0.0005 0.000394708 -0.000605364 -0.0005 0.000295143 -0.00071521 -0.0005 
0.000544105 -0.000886073 -0.0005 0.00030982 -0.000616796 -0.0005 0.000226145 -0.000944288 -0.0005 
0.000307419 -0.000884579 -0.0005 0.000226252 -0.000555158 -0.0005 0.000153401 -0.000511968 -0.0005 
0.000153233 -0.000988282 -0.0005 0.000237471 -0.000619391 -0.0005 0.000238317 -0.000879885 -0.0005 
0.000410377 -0.000831296 -0.0005 0.000352297 -0.000773675 -0.0005 0.00071621 -0.000470678 -0.0005 
0.000708438 -0.00102758 -0.0005 0.00043748 -0.00030453 -0.0005 0.00042852 -0.00119547 -0.0005 
-0.000266167 -0.000909585 -0.0005 -0.00026339 -0.000582669 -0.0005 -0.000595526 -0.000581349 -0.0005 
-0.000595539 -0.000918697 -0.0005 -0.000749174 -0.000957462 -0.0005 -0.000749174 -0.000542538 -0.0005 
-0.000436828 -0.000541202 -0.0005 -0.000633495 -0.000748246 -0.0005 -0.000234978 -0.000756491 -0.0005 
-0.000436828 -0.000958798 -0.0005 -0.0007972 -0.000964286 -0.0005 -0.0007972 -0.000535714 -0.0005 
-0.000131951 -0.000583807 -0.0005 -0.000120576 -0.000920987 -0.0005 -0.000440309 -0.00110148 -0.0005 
-0.000440309 -0.00039852 -0.0005 -0.000540519 -0.000463808 -0.0005 -0.000540519 -0.00103619 -0.0005 
-0.000737497 -0.000826703 -0.0005 -0.000743731 -0.00067341 -0.0005 -0.000326361 -0.000455157 -0.0005 
-0.000326361 -0.00104484 -0.0005 -0.000347939 -0.000834179 -0.0005 -0.000344799 -0.000652107 -0.0005 
-0.000525969 -0.000668056 -0.0005 -0.000528784 -0.000835049 -0.0005 -0.00080748 -0.000997295 -0.0005 
-0.00080748 -0.000502705 -0.0005 -0.00065996 -0.000996565 -0.0005 -0.00065996 -0.000503435 -0.0005 
-0.000114839 -0.00080244 -0.0005 -0.00012727 -0.000689074 -0.0005 -0.000684653 -0.000892326 -0.0005 
-0.000684653 -0.000607674 -0.0005 -0.000402255 -0.00033906 -0.0005 -0.000402255 -0.00116094 -0.0005 
-0.00020379 -0.000996251 -0.0005 -0.000209694 -0.000514898 -0.0005 -0.000410601 -0.000616776 -0.0005 
-0.000414328 -0.000881409 -0.0005 -0.000564489 -0.00077222 -0.0005 -0.00030297 -0.0007663 -0.0005 
-0.000806831 -0.000899154 -0.0005 -0.000806831 -0.000600846 -0.0005 -0.000198082 -0.000840386 -0.0005 
-0.000104201 -0.000515756 -0.0005 -0.000102305 -0.000985043 -0.0005 -0.000210482 -0.000662469 -0.0005 
-0.000512323 -0.000571317 -0.0005 -0.000512323 -0.000928683 -0.0005 -0.000607487 -0.000671376 -0.0005 
-0.000342389 -0.000918878 -0.0005 -0.000339591 -0.000579218 -0.0005 -0.000598177 -0.000824513 -0.0005 
-0.000525093 -0.00110877 -0.0005 -0.000525093 -0.000391231 -0.0005 -0.000467764 -0.00117211 -0.0005 
-0.000467764 -0.000327887 -0.0005 -0.00082824 -0.000937946 -0.0005 -0.00082824 -0.000562054 -0.0005 
-0.000792673 -0.000751208 -0.0005 -4.40406e-05 -0.000938051 -0.0005 -4.29968e-05 -0.000563636 -0.0005 
-0.000368656 -0.000394329 -0.0005 -0.000368656 -0.00110567 -0.0005 -0.000404944 -0.000466574 -0.0005 
-0.000404944 -0.00103343 -0.0005 -0.000274968 -0.000693542 -0.0005 -0.000473579 -0.000463157 -0.0005 
-0.000473579 -0.00103684 -0.0005 -0.000273108 -0.000829102 -0.0005 -0.000617905 -0.00105951 -0.0005 
-0.000617905 -0.00044049 -0.0005 -7.4389e-05 -0.000644248 -0.0005 -6.99258e-05 -0.00086688 -0.0005 
-0.000758009 -0.00100133 -0.0005 -0.000758009 -0.000498667 -0.0005 -0.000674521 -0.00082321 -0.0005 
-0.000747394 -0.000897802 -0.0005 -0.000747848 -0.000602206 -0.0005 -0.000837578 -0.00099054 -0.0005 
-0.000836308 -0.000968831 -0.0005 -0.000837578 -0.00050946 -0.0005 -0.000836308 -0.000531169 -0.0005 
-0.00024589 -0.000439066 -0.0005 -0.000241075 -0.0010584 -0.0005 -0.000693065 -0.000950422 -0.0005 
-0.000693085 -0.000549579 -0.0005 -0.000404574 -0.00120076 -0.0005 -0.000404574 -0.000299236 -0.0005 
-0.000672818 -0.000679103 -0.0005 -0.000714008 -0.000755903 -0.0005 -7.82213e-05 -0.000731034 -0.0005 
-5.6329e-05 -0.000504603 -0.0005 -5.61586e-05 -0.000995894 -0.0005 -0.000275796 -0.000980896 -0.0005 
-0.000285676 -0.000513219 -0.0005 -0.000186165 -0.000585602 -0.0005 -0.000584291 -0.000982673 -0.0005 
-0.00058429 -0.000517332 -0.0005 -0.00045634 -0.000660721 -0.0005 -0.000464193 -0.000839596 -0.0005 
-0.00034177 -0.000716972 -0.0005 -0.000523385 -0.000727952 -0.0005 -0.000193444 -0.000925069 -0.0005 
-0.000807637 -0.00084025 -0.0005 -0.000810429 -0.000661252 -0.0005 -0.000386833 -0.000795991 -0.0005 
-0.000394413 -0.000668913 -0.0005 -0.000509958 -0.000787971 -0.0005 -0.000305514 -0.00111008 -0.0005 
-0.000306477 -0.00038941 -0.0005 -0.000362249 -0.00098716 -0.0005 -0.00035868 -0.000511074 -0.0005 
-0.000160645 -0.000746982 -0.0005 -0.000509508 -0.000511363 -0.0005 -0.000509508 -0.000988638 -0.0005 
-0.00028739 -0.000637604 -0.0005 -0.000785534 -0.00093326 -0.0005 -0.000785598 -0.000566741 -0.0005 
-0.000703615 -0.00103564 -0.0005 -0.000703615 -0.000464361 -0.0005 -0.000148903 -0.000636616 -0.0005 
-0.00015636 -0.000534148 -0.0005 -0.000153981 -0.000971334 -0.0005 -0.000139581 -0.000867053 -0.0005 
-0.000482839 -0.000702846 -0.0005 -0.000471292 -0.000605364 -0.0005 -0.000471292 -0.000894636 -0.0005 
-0.000570965 -0.00071757 -0.0005 -0.000554433 -0.000615103 -0.0005 -0.000553903 -0.000884892 -0.0005 
-0.000639788 -0.00094438 -0.0005 -0.000639768 -0.0005557 -0.0005 -0.000307401 -0.000872936 -0.0005 
-0.000712765 -0.000988284 -0.0005 -0.000712769 -0.000511716 -0.0005 -0.000628213 -0.000619733 -0.0005 
-0.000630855 -0.000879083 -0.0005 -0.000409259 -0.000828735 -0.0005 -0.000354002 -0.000772688 -0.0005 
-0.000155373 -0.000471972 -0.0005 -0.000153127 -0.00102904 -0.0005 -0.00043748 -0.00030453 -0.0005 
-0.00043748 -0.00119547 -0.0005 -0.000699167 -0.000159585 -0.0005 -0.00102828 0.000168837 -0.0005 
-0.000700039 0.000165961 -0.0005 -0.00102854 -0.000168697 -0.0005 -0.00118217 0.000207462 -0.0005 
-0.00118217 -0.000207462 -0.0005 -0.000867762 0.00020878 -0.0005 -0.00106649 5.10348e-06 -0.0005 
-0.000667978 -6.49099e-06 -0.0005 -0.000869828 -0.000208798 -0.0005 -0.0012302 0.000214286 -0.0005 
-0.0012302 -0.000214286 -0.0005 -0.000564951 0.000166193 -0.0005 -0.000553576 -0.000170987 -0.0005 
-0.000873309 -0.00035148 -0.0005 -0.000858691 0.00035148 -0.0005 -0.000756768 0.000285545 -0.0005 
-0.000973519 -0.000286192 -0.0005 -0.00117081 7.69979e-05 -0.0005 -0.00117457 -7.52569e-05 -0.0005 
-0.000759361 -0.000294843 -0.0005 -0.00097093 0.000296588 -0.0005 -0.000780939 -8.41794e-05 -0.0005 
-0.000958969 8.1944e-05 -0.0005 -0.000777799 9.78925e-05 -0.0005 -0.000961784 -8.5049e-05 -0.0005 
-0.00124048 0.000247295 -0.0005 -0.00124048 -0.000247295 -0.0005 -0.00109281 0.000247375 -0.0005 
-0.00109296 -0.000246565 -0.0005 -0.000547839 -5.24395e-05 -0.0005 -0.00056027 6.09258e-05 -0.0005 
-0.00111765 0.000142326 -0.0005 -0.00111765 -0.000142326 -0.0005 -0.000835255 -0.00041094 -0.0005 
-0.000896745 0.00041094 -0.0005 -0.00063679 -0.000246251 -0.0005 -0.000636522 0.000241816 -0.0005 
-0.000843256 0.000133221 -0.0005 -0.000847328 -0.000131409 -0.0005 -0.000997489 -2.16615e-05 -0.0005 
-0.00073597 -1.62999e-05 -0.0005 -0.00123983 0.000149154 -0.0005 -0.00123983 -0.000149154 -0.0005 
-0.000631082 -9.03863e-05 -0.0005 -0.000535305 -0.000235043 -0.0005 -0.000537201 0.000234244 -0.0005 
-0.000642398 9.28059e-05 -0.0005 -0.000948408 0.000181543 -0.0005 -0.000945323 -0.000178683 -0.0005 
-0.00104049 7.88274e-05 -0.0005 -0.000775389 -0.000168878 -0.0005 -0.000772841 0.000169495 -0.0005 
-0.00103118 -7.38619e-05 -0.0005 -0.000958093 -0.000358769 -0.0005 -0.000773907 0.000358769 -0.0005 
-0.000900764 -0.000422113 -0.0005 -0.000831236 0.000422113 -0.0005 -0.00126124 0.000187946 -0.0005 
-0.00126124 -0.000187946 -0.0005 -0.00122671 1.92365e-06 -0.0005 -0.000477041 -0.000188051 -0.0005 
-0.000475997 0.000186364 -0.0005 -0.000801656 -0.000355671 -0.0005 -0.000929777 0.000356891 -0.0005 
-0.000837944 -0.000283426 -0.0005 -0.000894056 0.000283426 -0.0005 -0.000707968 5.64575e-05 -0.0005 
-0.000825421 0.000286843 -0.0005 -0.000906579 -0.000286843 -0.0005 -0.000678551 0.000307262 -0.0005 
-0.000706108 -7.91024e-05 -0.0005 -0.0010509 -0.00030951 -0.0005 -0.000507389 0.000105752 -0.0005 
-0.000502926 -0.00011688 -0.0005 -0.00119101 0.000251333 -0.0005 -0.00119101 -0.000251333 -0.0005 
-0.00110684 -7.12684e-05 -0.0005 -0.00118042 0.000147824 -0.0005 -0.00118069 -0.000147697 -0.0005 
-0.00127058 0.00024054 -0.0005 -0.00126931 0.000218831 -0.0005 -0.00127058 -0.00024054 -0.0005 
-0.00126931 -0.000218831 -0.0005 -0.000674075 -0.0003084 -0.0005 -0.00112605 0.000200474 -0.0005 
-0.00112608 -0.000200417 -0.0005 -0.000837574 -0.000450764 -0.0005 -0.000894426 0.000450764 -0.0005 
-0.00105507 0.000311072 -0.0005 -0.001107 7.45278e-05 -0.0005 -0.00114494 4.78174e-06 -0.0005 
-0.000511221 1.89656e-05 -0.0005 -0.000703503 0.000232229 -0.0005 -0.000489329 0.000245397 -0.0005 
-0.000489159 -0.000245894 -0.0005 -0.000708796 -0.000230896 -0.0005 -0.000631208 0.000171119 -0.0005 
-0.00101729 -0.000232673 -0.0005 -0.000889299 8.92785e-05 -0.0005 -0.000897193 -8.95957e-05 -0.0005 
-0.00077477 3.30279e-05 -0.0005 -0.000956385 2.2115e-05 -0.0005 -0.00101833 0.000235849 -0.0005 
-0.000626444 -0.000175069 -0.0005 -0.00124075 9.03378e-05 -0.0005 -0.00124242 -8.91537e-05 -0.0005 
-0.000819833 -4.59906e-05 -0.0005 -0.000799772 0.000232832 -0.0005 -0.000827413 8.10868e-05 -0.0005 
-0.000942958 -3.79434e-05 -0.0005 -0.000738514 -0.000360083 -0.0005 -0.000795249 -0.00023716 -0.0005 
-0.000593465 3.89675e-06 -0.0005 -0.000942508 -0.000238638 -0.0005 -0.00072039 0.000112396 -0.0005 
-0.00121854 0.000183264 -0.0005 -0.00121858 -0.000183245 -0.0005 -0.00113595 0.000283517 -0.0005 
-0.00113662 -0.000285639 -0.0005 -0.000939898 0.000241237 -0.0005 -0.00058355 0.000113194 -0.0005 
-0.000994597 0.00035529 -0.0005 -0.000586981 -0.000221334 -0.0005 -0.000588267 0.00021912 -0.0005 
-0.000572581 -0.000117053 -0.0005 -0.00091583 4.71675e-05 -0.0005 -0.000904292 -0.000144636 -0.0005 
-0.000904292 0.000144636 -0.0005 -0.00100396 3.32657e-05 -0.0005 -0.00098918 0.000133204 -0.0005 
-0.000986047 -0.000136339 -0.0005 -0.00107279 -0.00019438 -0.0005 -0.000740401 -0.000122936 -0.0005 
-0.00107275 0.000194842 -0.0005 -0.0011456 0.000238032 -0.0005 -0.00114577 -0.000238283 -0.0005 
-0.00106153 0.000130609 -0.0005 -0.00106376 -0.000129013 -0.0005 -0.000842259 -7.8735e-05 -0.0005 
-0.000787002 -2.26884e-05 -0.0005 -0.000586448 0.000278672 -0.0005 -0.000586127 -0.000279044 -0.0005 
-0.00087048 -0.00044547 -0.0005 -0.00086152 0.00044547 -0.0005 -0.000266167 0.000590415 -0.0005 
-0.000267039 0.000915961 -0.0005 -0.000595277 0.000918837 -0.0005 -0.000595539 0.000581303 -0.0005 
-0.000749174 0.000542538 -0.0005 -0.000749174 0.000957462 -0.0005 -0.000434763 0.00095878 -0.0005 
-0.000633495 0.000751754 -0.0005 -0.000234978 0.000743509 -0.0005 -0.000436828 0.000541202 -0.0005 
-0.0007972 0.000535714 -0.0005 -0.0007972 0.000964286 -0.0005 -0.000131951 0.000916193 -0.0005 
-0.000120576 0.000579013 -0.0005 -0.000440309 0.00039852 -0.0005 -0.000425691 0.00110148 -0.0005 
-0.000323768 0.00103554 -0.0005 -0.000540519 0.000463808 -0.0005 -0.000737497 0.000673297 -0.0005 
-0.000743731 0.00082659 -0.0005 -0.000326361 0.000455157 -0.0005 -0.00053793 0.00104659 -0.0005 
-0.000347939 0.000665821 -0.0005 -0.000344799 0.000847893 -0.0005 -0.000525969 0.000831944 -0.0005 
-0.000528784 0.000664951 -0.0005 -0.00080748 0.000502705 -0.0005 -0.00080748 0.000997295 -0.0005 
-0.00065996 0.000503435 -0.0005 -0.000659807 0.000997375 -0.0005 -0.000114839 0.00069756 -0.0005 
-0.00012727 0.000810926 -0.0005 -0.000684653 0.000607674 -0.0005 -0.000684653 0.000892326 -0.0005 
-0.000402255 0.00033906 -0.0005 -0.000463745 0.00116094 -0.0005 -0.00020379 0.000503749 -0.0005 
-0.000203522 0.000991815 -0.0005 -0.000410256 0.000883221 -0.0005 -0.000414328 0.000618591 -0.0005 
-0.000564489 0.00072778 -0.0005 -0.00030297 0.0007337 -0.0005 -0.000806831 0.000600846 -0.0005 
-0.000806831 0.000899154 -0.0005 -0.000198082 0.000659614 -0.0005 -0.000104201 0.000984244 -0.0005 
-0.000102305 0.000514957 -0.0005 -0.000209398 0.000842806 -0.0005 -0.000515408 0.000931543 -0.0005 
-0.000512323 0.000571317 -0.0005 -0.000607487 0.000828624 -0.0005 -0.000342389 0.000581122 -0.0005 
-0.000339841 0.000919495 -0.0005 -0.000598177 0.000675487 -0.0005 -0.000525093 0.000391231 -0.0005 
-0.000340907 0.00110877 -0.0005 -0.000398236 0.00117211 -0.0005 -0.000467764 0.000327887 -0.0005 
-0.00082824 0.000562054 -0.0005 -0.00082824 0.000937946 -0.0005 -0.000792673 0.000748792 -0.0005 
-4.40406e-05 0.000561949 -0.0005 -4.29968e-05 0.000936364 -0.0005 -0.000368656 0.000394329 -0.0005 
-0.000496777 0.00110689 -0.0005 -0.000404944 0.000466574 -0.0005 -0.000461056 0.00103343 -0.0005 
-0.000274968 0.000806458 -0.0005 -0.000392421 0.00103684 -0.0005 -0.000473579 0.000463157 -0.0005 
-0.000245551 0.00105726 -0.0005 -0.000273108 0.000670898 -0.0005 -0.000617905 0.00044049 -0.0005 
-7.4389e-05 0.000855752 -0.0005 -6.99258e-05 0.00063312 -0.0005 -0.000758009 0.000498667 -0.0005 
-0.000758009 0.00100133 -0.0005 -0.000674521 0.00067679 -0.0005 -0.000747394 0.000602198 -0.0005 
-0.000747848 0.000897794 -0.0005 -0.000837578 0.00050946 -0.0005 -0.000836308 0.000531169 -0.0005 
-0.000837578 0.00099054 -0.0005 -0.000836308 0.000968831 -0.0005 -0.000241075 0.0004416 -0.0005 
-0.000693065 0.000549578 -0.0005 -0.000693072 0.000950473 -0.0005 -0.000404574 0.000299236 -0.0005 
-0.000461426 0.00120076 -0.0005 -0.000622066 0.00106107 -0.0005 -0.000672818 0.000820897 -0.0005 
-0.000714008 0.000744097 -0.0005 -7.82213e-05 0.000768966 -0.0005 -0.000270503 0.000982229 -0.0005 
-5.6329e-05 0.000995397 -0.0005 -5.61586e-05 0.000504106 -0.0005 -0.000275796 0.000519104 -0.0005 
-0.000198208 0.000921119 -0.0005 -0.000584291 0.000517327 -0.0005 -0.000456299 0.000839279 -0.0005 
-0.000464193 0.000660404 -0.0005 -0.00034177 0.000783028 -0.0005 -0.000523385 0.000772048 -0.0005 
-0.000585334 0.000985849 -0.0005 -0.000193444 0.000574931 -0.0005 -0.000807637 0.00065975 -0.0005 
-0.000810429 0.000838748 -0.0005 -0.000386833 0.000704009 -0.0005 -0.000366772 0.000982832 -0.0005 
-0.000394413 0.000831087 -0.0005 -0.000509958 0.000712029 -0.0005 -0.000305514 0.000389917 -0.0005 
-0.000362249 0.00051284 -0.0005 -0.000160465 0.000753897 -0.0005 -0.000509508 0.000511362 -0.0005 
-0.00028739 0.000862396 -0.0005 -0.000785534 0.00056674 -0.0005 -0.000785598 0.000933259 -0.0005 
-0.000703615 0.000464361 -0.0005 -0.000702954 0.00103352 -0.0005 -0.000506898 0.000991237 -0.0005 
-0.00015055 0.000863194 -0.0005 -0.000561597 0.00110529 -0.0005 -0.000153981 0.000528666 -0.0005 
-0.000155267 0.00096912 -0.0005 -0.000139581 0.000632947 -0.0005 -0.00048283 0.000797154 -0.0005 
-0.000471292 0.000894636 -0.0005 -0.000471292 0.000605364 -0.0005 -0.000570965 0.00078243 -0.0005 
-0.00055618 0.00088318 -0.0005 -0.000553903 0.000615108 -0.0005 -0.000639788 0.00055562 -0.0005 
-0.000307401 0.000627064 -0.0005 -0.00063975 0.000944842 -0.0005 -0.000712765 0.000511716 -0.0005 
-0.000712603 0.000988032 -0.0005 -0.000628389 0.00088015 -0.0005 -0.000630855 0.000620917 -0.0005 
-0.000409259 0.000671265 -0.0005 -0.000354002 0.000727312 -0.0005 -0.000153448 0.00102867 -0.0005 
-0.000153127 0.000470956 -0.0005 -0.00042852 0.00119547 -0.0005 -0.00043748 0.00030453 -0.0005 

CELLS 2380 16660
6 649 608 664 1664 1623 1679 
6 570 610 625 1585 1625 1640 
6 571 611 624 1586 1626 1639 
6 603 587 669 1618 1602 1684 
6 564 603 669 1579 1618 1684 
6 610 570 613 1625 1585 1628 
6 611 571 612 1626 1586 1627 
6 600 564 669 1615 1579 1684 
6 586 187 630 1601 384 1645 
6 579 594 608 1594 1609 1623 
6 595 578 607 1610 1593 1622 
6 596 581 609 1611 1596 1624 
6 183 590 619 380 1605 1634 
6 166 591 620 363 1606 1635 
6 572 649 664 1587 1664 1679 
6 572 611 626 1587 1626 1641 
6 590 570 619 1605 1585 1634 
6 591 571 620 1606 1586 1635 
6 633 575 647 1648 1590 1662 
6 594 562 608 1609 1577 1623 
6 565 595 607 1580 1610 1622 
6 563 596 609 1578 1611 1624 
6 557 608 649 1572 1623 1664 
6 564 600 627 1579 1615 1642 
6 557 649 653 1572 1664 1668 
6 654 605 670 1669 1620 1685 
6 586 600 669 1601 1615 1684 
6 594 579 665 1609 1594 1680 
6 587 629 648 1602 1644 1663 
6 581 596 666 1596 1611 1681 
6 570 590 613 1585 1605 1628 
6 571 591 612 1586 1606 1627 
6 189 618 650 386 1633 1665 
6 617 184 651 1632 381 1666 
6 597 564 627 1612 1579 1642 
6 649 593 653 1664 1608 1668 
6 568 601 618 1583 1616 1633 
6 602 569 617 1617 1584 1632 
6 629 186 648 1644 383 1663 
6 559 605 654 1574 1620 1669 
6 600 556 627 1615 1571 1642 
6 187 586 648 384 1601 1663 
6 607 556 652 1622 1571 1667 
6 607 652 668 1622 1667 1683 
6 573 610 628 1588 1625 1643 
6 627 556 689 1642 1571 1704 
6 14 194 665 95 391 1680 
6 195 196 666 392 393 1681 
6 183 619 667 380 1634 1682 
6 196 656 666 393 1671 1681 
6 658 14 665 1673 95 1680 
6 561 566 631 1576 1581 1646 
6 567 560 632 1582 1575 1647 
6 575 616 647 1590 1631 1662 
6 566 561 672 1581 1576 1687 
6 560 567 673 1575 1582 1688 
6 573 654 670 1588 1669 1685 
6 12 185 618 93 382 1633 
6 188 11 617 385 92 1632 
6 635 561 641 1650 1576 1656 
6 560 634 642 1575 1649 1657 
6 578 597 627 1593 1612 1642 
6 8 175 613 89 372 1628 
6 1 190 612 82 387 1627 
6 604 558 659 1619 1573 1674 
6 578 595 695 1593 1610 1710 
6 597 578 696 1612 1593 1711 
6 610 573 625 1625 1588 1640 
6 611 572 624 1626 1587 1639 
6 168 3 636 365 84 1651 
6 6 173 638 87 370 1653 
6 611 191 626 1626 388 1641 
6 575 588 634 1590 1603 1649 
6 589 574 635 1604 1589 1650 
6 593 626 697 1608 1641 1712 
6 166 620 678 363 1635 1693 
6 564 597 623 1579 1612 1638 
6 603 564 623 1618 1579 1638 
6 568 618 629 1583 1633 1644 
6 11 184 617 92 381 1632 
6 189 12 618 386 93 1633 
6 579 608 671 1594 1623 1686 
6 556 600 660 1571 1615 1675 
6 588 575 633 1603 1590 1648 
6 8 613 700 89 1628 1715 
6 1 612 699 82 1627 1714 
6 617 569 630 1632 1584 1645 
6 619 570 621 1634 1585 1636 
6 620 571 622 1635 1586 1637 
6 574 616 661 1589 1631 1676 
6 616 575 662 1631 1590 1677 
6 580 606 686 1595 1621 1701 
6 563 633 647 1578 1648 1662 
6 598 635 661 1613 1650 1676 
6 634 599 662 1649 1614 1677 
6 574 589 646 1589 1604 1661 
6 604 659 676 1619 1674 1691 
6 635 574 661 1650 1589 1676 
6 575 634 662 1590 1649 1677 
6 600 586 681 1615 1601 1696 
6 585 628 674 1600 1643 1689 
6 557 603 671 1572 1618 1686 
6 626 192 697 1641 389 1712 
6 610 176 628 1625 373 1643 
6 563 609 633 1578 1624 1648 
6 569 660 681 1584 1675 1696 
6 587 603 677 1602 1618 1692 
6 608 557 671 1623 1572 1686 
6 603 557 653 1618 1572 1668 
6 622 571 624 1637 1586 1639 
6 621 570 625 1636 1585 1640 
6 606 580 685 1621 1595 1700 
6 640 592 698 1655 1607 1713 
6 558 604 686 1573 1619 1701 
6 605 559 687 1620 1574 1702 
6 660 600 681 1675 1615 1696 
6 187 188 630 384 385 1645 
6 185 186 629 382 383 1644 
6 608 562 664 1623 1577 1679 
6 652 556 660 1667 1571 1675 
6 562 594 683 1577 1609 1698 
6 595 565 684 1610 1580 1699 
6 596 563 685 1611 1578 1700 
6 609 581 687 1624 1596 1702 
6 686 606 693 1701 1621 1708 
6 162 1 699 359 82 1714 
6 179 8 700 376 89 1715 
6 606 563 646 1621 1578 1661 
6 573 628 654 1588 1643 1669 
6 616 574 647 1631 1589 1662 
6 565 607 668 1580 1622 1683 
6 175 176 610 372 373 1625 
6 190 191 611 387 388 1626 
6 645 584 675 1660 1599 1690 
6 628 177 674 1643 374 1689 
6 572 626 649 1587 1641 1664 
6 170 171 616 367 368 1631 
6 609 687 694 1624 1702 1709 
6 181 640 698 378 1655 1713 
6 687 559 694 1702 1574 1709 
6 607 578 689 1622 1593 1704 
6 592 652 660 1607 1667 1675 
6 604 562 683 1619 1577 1698 
6 565 605 684 1580 1620 1699 
6 563 606 685 1578 1621 1700 
6 558 686 693 1573 1701 1708 
6 565 621 625 1580 1636 1640 
6 562 622 624 1577 1637 1639 
6 683 580 686 1698 1595 1701 
6 581 684 687 1596 1699 1702 
6 616 171 661 1631 368 1676 
6 170 616 662 367 1631 1677 
6 628 585 654 1643 1600 1669 
6 182 183 667 379 380 1682 
6 653 593 679 1668 1608 1694 
6 579 623 658 1594 1638 1673 
6 605 565 670 1620 1580 1685 
6 634 560 673 1649 1575 1688 
6 561 635 672 1576 1650 1687 
6 589 635 641 1604 1650 1656 
6 634 588 642 1649 1603 1657 
6 194 655 665 391 1670 1680 
6 657 195 666 1672 392 1681 
6 562 604 676 1577 1619 1691 
6 566 614 637 1581 1629 1652 
6 615 567 639 1630 1582 1654 
6 688 588 694 1703 1603 1709 
6 623 597 658 1638 1612 1673 
6 646 563 647 1661 1578 1662 
6 576 619 621 1591 1634 1636 
6 577 620 622 1592 1635 1637 
6 556 607 689 1571 1622 1704 
6 164 645 675 361 1660 1690 
6 589 690 693 1604 1705 1708 
6 191 192 626 388 389 1641 
6 175 610 613 372 1625 1628 
6 190 611 612 387 1626 1627 
6 584 645 659 1599 1660 1674 
6 626 593 649 1641 1608 1664 
6 603 623 671 1618 1638 1686 
6 176 177 628 373 374 1643 
6 652 576 668 1667 1591 1683 
6 562 624 664 1577 1639 1679 
6 642 588 688 1657 1603 1703 
6 565 625 670 1580 1640 1685 
6 165 166 678 362 363 1693 
6 663 578 695 1678 1593 1710 
6 578 663 696 1593 1678 1711 
6 589 641 690 1604 1656 1705 
6 574 646 647 1589 1661 1662 
6 638 173 639 1653 370 1654 
6 168 636 637 365 1651 1652 
6 645 577 659 1660 1592 1674 
6 618 601 650 1633 1616 1665 
6 602 617 651 1617 1632 1666 
6 587 648 669 1602 1663 1684 
6 181 182 640 378 379 1655 
6 656 581 666 1671 1596 1681 
6 579 658 665 1594 1673 1680 
6 655 580 683 1670 1595 1698 
6 581 656 684 1596 1671 1699 
6 580 657 685 1595 1672 1700 
6 164 165 645 361 362 1660 
6 655 594 665 1670 1609 1680 
6 596 657 666 1611 1672 1681 
6 590 183 644 1605 380 1659 
6 591 166 643 1606 363 1658 
6 568 629 677 1583 1644 1692 
6 186 187 648 383 384 1663 
6 604 683 686 1619 1698 1701 
6 684 605 687 1699 1620 1702 
6 648 586 669 1663 1601 1684 
6 659 577 676 1674 1592 1691 
6 614 566 672 1629 1581 1687 
6 567 615 673 1582 1630 1688 
6 568 653 679 1583 1668 1694 
6 592 640 652 1607 1655 1667 
6 629 587 677 1644 1602 1692 
6 623 579 671 1638 1594 1686 
6 640 576 652 1655 1591 1667 
6 196 14 663 393 95 1678 
6 621 565 668 1636 1580 1683 
6 622 562 676 1637 1577 1691 
6 612 591 699 1627 1606 1714 
6 613 590 700 1628 1605 1715 
6 171 172 661 368 369 1676 
6 169 170 662 366 367 1677 
6 569 602 680 1584 1617 1695 
6 601 568 679 1616 1583 1694 
6 180 602 651 377 1617 1666 
6 601 193 650 1616 390 1665 
6 583 638 639 1598 1653 1654 
6 636 582 637 1651 1597 1652 
6 163 164 675 360 361 1690 
6 177 178 674 374 375 1689 
6 588 633 694 1603 1648 1709 
6 576 621 668 1591 1636 1683 
6 577 622 676 1592 1637 1691 
6 578 627 689 1593 1642 1704 
6 646 589 693 1661 1604 1708 
6 624 572 664 1639 1587 1679 
6 559 688 694 1574 1703 1709 
6 180 181 698 377 378 1713 
6 192 193 697 389 390 1712 
6 690 558 693 1705 1573 1708 
6 630 569 681 1645 1584 1696 
6 9 179 644 90 376 1659 
6 0 162 643 81 359 1658 
6 620 577 678 1635 1592 1693 
6 653 568 677 1668 1583 1692 
6 618 185 629 1633 382 1644 
6 580 655 682 1595 1670 1697 
6 657 580 682 1672 1595 1697 
6 172 598 661 369 1613 1676 
6 599 169 662 1614 366 1677 
6 188 617 630 385 1632 1645 
6 625 573 670 1640 1588 1685 
6 633 609 694 1648 1624 1709 
6 641 561 691 1656 1576 1706 
6 560 642 692 1575 1657 1707 
6 184 10 651 381 91 1666 
6 13 189 650 94 386 1665 
6 577 645 678 1592 1660 1693 
6 603 653 677 1618 1668 1692 
6 599 634 673 1614 1649 1688 
6 635 598 672 1650 1613 1687 
6 619 576 667 1634 1591 1682 
6 640 182 667 1655 379 1682 
6 194 195 682 391 392 1697 
6 193 601 697 390 1616 1712 
6 602 180 698 1617 377 1713 
6 576 640 667 1591 1655 1682 
6 606 646 693 1621 1661 1708 
6 660 569 680 1675 1584 1695 
6 601 679 697 1616 1694 1712 
6 680 602 698 1695 1617 1713 
6 586 630 681 1601 1645 1696 
6 169 599 615 366 1614 1630 
6 598 172 614 1613 369 1629 
6 644 179 700 1659 376 1715 
6 643 162 699 1658 359 1714 
6 656 196 695 1671 393 1710 
6 14 658 696 95 1673 1711 
6 675 584 691 1690 1599 1706 
6 585 674 692 1600 1689 1707 
6 645 165 678 1660 362 1693 
6 655 194 682 1670 391 1697 
6 195 657 682 392 1672 1697 
6 4 168 637 85 365 1652 
6 173 5 639 370 86 1654 
6 592 660 680 1607 1675 1695 
6 659 558 690 1674 1573 1705 
6 584 641 691 1599 1656 1706 
6 642 585 692 1657 1600 1707 
6 584 659 690 1599 1674 1705 
6 559 654 688 1574 1669 1703 
6 594 655 683 1609 1670 1698 
6 656 595 684 1671 1610 1699 
6 657 596 685 1672 1611 1700 
6 654 585 688 1669 1600 1703 
6 595 656 695 1610 1671 1710 
6 658 597 696 1673 1612 1711 
6 631 675 691 1646 1690 1706 
6 674 632 692 1689 1647 1707 
6 561 631 691 1576 1646 1706 
6 632 560 692 1647 1575 1707 
6 196 663 695 393 1678 1710 
6 663 14 696 1678 95 1711 
6 585 642 688 1600 1657 1703 
6 641 584 690 1656 1599 1705 
6 590 644 700 1605 1659 1715 
6 591 643 699 1606 1658 1714 
6 631 163 675 1646 360 1690 
6 178 632 674 375 1647 1689 
6 598 614 672 1613 1629 1687 
6 615 599 673 1630 1614 1688 
6 679 593 697 1694 1608 1712 
6 592 680 698 1607 1695 1713 
6 166 0 643 363 81 1658 
6 172 4 614 369 85 1629 
6 614 4 637 1629 85 1652 
6 5 169 615 86 366 1630 
6 5 615 639 86 1630 1654 
6 183 9 644 380 90 1659 
6 10 180 651 91 377 1666 
6 193 13 650 390 94 1665 
6 2 163 167 83 360 364 
6 3 167 636 84 364 1651 
6 174 6 638 371 87 1653 
6 174 178 7 371 375 88 
6 167 163 582 364 360 1597 
6 582 163 631 1597 360 1646 
6 167 582 636 364 1597 1651 
6 178 174 583 375 371 1598 
6 583 174 638 1598 371 1653 
6 178 583 632 375 1598 1647 
6 566 582 631 1581 1597 1646 
6 582 566 637 1597 1581 1652 
6 583 567 632 1598 1582 1647 
6 567 583 639 1582 1598 1654 
6 715 755 770 1730 1770 1785 
6 756 716 769 1771 1731 1784 
6 732 748 815 1747 1763 1830 
6 748 709 815 1763 1724 1830 
6 755 715 758 1770 1730 1773 
6 716 756 757 1731 1771 1772 
6 709 745 815 1724 1760 1830 
6 216 731 774 413 1746 1789 
6 724 739 752 1739 1754 1767 
6 726 740 753 1741 1755 1768 
6 741 726 754 1756 1741 1769 
6 736 210 764 1751 407 1779 
6 220 735 765 417 1750 1780 
6 738 701 798 1753 1716 1813 
6 716 736 764 1731 1751 1779 
6 735 715 765 1750 1730 1780 
6 777 720 792 1792 1735 1807 
6 739 707 752 1754 1722 1767 
6 740 710 753 1755 1725 1768 
6 708 741 754 1723 1756 1769 
6 799 753 809 1814 1768 1824 
6 749 800 816 1764 1815 1831 
6 745 731 815 1760 1746 1830 
6 739 724 810 1754 1739 1825 
6 773 732 793 1788 1747 1808 
6 715 735 758 1730 1750 1773 
6 736 716 757 1751 1731 1772 
6 214 762 794 411 1777 1809 
6 763 219 795 1778 416 1810 
6 701 738 797 1716 1753 1812 
6 750 701 797 1765 1716 1812 
6 742 709 784 1757 1724 1799 
6 713 746 762 1728 1761 1777 
6 747 714 763 1762 1729 1778 
6 217 773 793 414 1788 1808 
6 749 703 800 1764 1718 1815 
6 731 216 793 1746 413 1808 
6 748 701 784 1763 1716 1799 
6 702 752 796 1717 1767 1811 
6 745 709 766 1760 1724 1781 
6 709 748 784 1724 1763 1799 
6 796 752 814 1811 1767 1829 
6 756 717 772 1771 1732 1787 
6 718 755 771 1733 1770 1786 
6 750 797 822 1765 1812 1837 
6 704 753 799 1719 1768 1814 
6 27 225 810 108 422 1825 
6 227 27 811 424 108 1826 
6 764 210 813 1779 407 1828 
6 220 765 812 417 1780 1827 
6 718 799 809 1733 1814 1824 
6 802 227 811 1817 424 1826 
6 803 27 810 1818 108 1825 
6 705 711 775 1720 1726 1790 
6 712 706 776 1727 1721 1791 
6 720 761 792 1735 1776 1807 
6 711 705 817 1726 1720 1832 
6 706 712 818 1721 1727 1833 
6 800 717 816 1815 1732 1831 
6 23 215 762 104 412 1777 
6 218 24 763 415 105 1778 
6 779 705 787 1794 1720 1802 
6 706 778 788 1721 1793 1803 
6 208 20 757 405 101 1772 
6 13 193 758 94 390 1773 
6 740 726 840 1755 1741 1855 
6 726 741 841 1741 1756 1856 
6 755 718 770 1770 1733 1785 
6 717 756 769 1732 1771 1784 
6 203 18 780 400 99 1795 
6 15 198 782 96 395 1797 
6 702 745 821 1717 1760 1836 
6 720 733 778 1735 1748 1793 
6 734 719 779 1749 1734 1794 
6 763 714 773 1778 1729 1788 
6 709 742 766 1724 1757 1781 
6 24 219 763 105 416 1778 
6 214 23 762 411 104 1777 
6 745 702 805 1760 1717 1820 
6 733 720 777 1748 1735 1792 
6 724 752 821 1739 1767 1836 
6 757 20 845 1772 101 1860 
6 13 758 844 94 1773 1859 
6 713 762 774 1728 1777 1789 
6 765 715 767 1780 1730 1782 
6 716 764 768 1731 1779 1783 
6 719 761 806 1734 1776 1821 
6 761 720 807 1776 1735 1822 
6 725 751 831 1740 1766 1846 
6 708 777 792 1723 1792 1807 
6 778 744 807 1793 1759 1822 
6 743 779 806 1758 1794 1821 
6 719 734 791 1734 1749 1806 
6 779 719 806 1794 1734 1821 
6 720 778 807 1735 1793 1822 
6 731 745 826 1746 1760 1841 
6 784 701 832 1799 1716 1847 
6 730 771 819 1745 1786 1834 
6 772 729 820 1787 1744 1835 
6 207 756 772 404 1771 1787 
6 755 192 771 1770 389 1786 
6 708 754 777 1723 1769 1792 
6 784 723 811 1799 1738 1826 
6 805 713 826 1820 1728 1841 
6 748 732 823 1763 1747 1838 
6 742 784 811 1757 1799 1826 
6 701 748 798 1716 1763 1813 
6 716 768 769 1731 1783 1784 
6 767 715 770 1782 1730 1785 
6 752 702 821 1767 1717 1836 
6 751 725 830 1766 1740 1845 
6 737 785 842 1752 1800 1857 
6 786 738 843 1801 1753 1858 
6 703 749 831 1718 1764 1846 
6 701 750 832 1716 1765 1847 
6 745 805 826 1760 1820 1841 
6 215 216 774 412 413 1789 
6 217 218 773 414 415 1788 
6 753 710 809 1768 1725 1824 
6 702 796 805 1717 1811 1820 
6 707 739 829 1722 1754 1844 
6 710 740 828 1725 1755 1843 
6 741 708 830 1756 1723 1845 
6 831 751 838 1846 1766 1853 
6 224 13 844 421 94 1859 
6 20 209 845 101 406 1860 
6 745 766 821 1760 1781 1836 
6 751 708 791 1766 1723 1806 
6 724 766 803 1739 1781 1818 
6 772 717 800 1787 1732 1815 
6 718 771 799 1733 1786 1814 
6 761 719 792 1776 1734 1807 
6 752 707 814 1767 1722 1829 
6 207 208 756 404 405 1771 
6 193 192 755 390 389 1770 
6 726 753 835 1741 1768 1850 
6 754 726 835 1769 1741 1850 
6 766 742 803 1781 1757 1818 
6 771 191 819 1786 388 1834 
6 206 772 820 403 1787 1835 
6 200 201 761 397 398 1776 
6 785 212 842 1800 409 1857 
6 222 786 843 419 1801 1858 
6 796 737 805 1811 1752 1820 
6 749 707 829 1764 1722 1844 
6 750 710 828 1765 1725 1843 
6 708 751 830 1723 1766 1845 
6 703 831 838 1718 1846 1853 
6 710 767 770 1725 1782 1785 
6 768 707 769 1783 1722 1784 
6 828 723 832 1843 1738 1847 
6 829 725 831 1844 1740 1846 
6 200 761 807 397 1776 1822 
6 761 201 806 1776 398 1821 
6 729 772 800 1744 1787 1815 
6 771 730 799 1786 1745 1814 
6 210 211 813 407 408 1828 
6 221 220 812 418 417 1827 
6 738 798 825 1753 1813 1840 
6 707 749 816 1722 1764 1831 
6 778 706 818 1793 1721 1833 
6 705 779 817 1720 1794 1832 
6 734 834 838 1749 1849 1853 
6 734 779 787 1749 1794 1802 
6 778 733 788 1793 1748 1803 
6 225 801 810 422 1816 1825 
6 753 704 835 1768 1719 1850 
6 27 803 811 108 1818 1826 
6 710 750 822 1725 1765 1837 
6 711 759 781 1726 1774 1796 
6 760 712 783 1775 1727 1798 
6 833 733 839 1848 1748 1854 
6 791 708 792 1806 1723 1807 
6 754 835 839 1769 1850 1854 
6 764 721 768 1779 1736 1783 
6 722 765 767 1737 1780 1782 
6 193 755 758 390 1770 1773 
6 756 208 757 1771 405 1772 
6 192 191 771 389 388 1786 
6 206 207 772 403 404 1787 
6 721 796 814 1736 1811 1829 
6 710 770 809 1725 1785 1824 
6 734 787 834 1749 1802 1849 
6 788 733 833 1803 1748 1848 
6 835 704 839 1850 1719 1854 
6 797 722 822 1812 1737 1837 
6 769 707 816 1784 1722 1831 
6 726 808 840 1741 1823 1855 
6 808 726 841 1823 1741 1856 
6 723 784 832 1738 1799 1847 
6 719 791 792 1734 1806 1807 
6 203 780 781 400 1795 1796 
6 782 198 783 1797 395 1798 
6 762 746 794 1777 1761 1809 
6 747 763 795 1762 1778 1810 
6 793 732 815 1808 1747 1830 
6 222 221 786 419 418 1801 
6 211 212 785 408 409 1800 
6 723 802 811 1738 1817 1826 
6 724 803 810 1739 1818 1825 
6 801 725 829 1816 1740 1844 
6 802 723 828 1817 1738 1843 
6 725 804 830 1740 1819 1845 
6 766 724 821 1781 1739 1836 
6 801 739 810 1816 1754 1825 
6 803 742 811 1818 1757 1826 
6 210 736 789 407 1751 1804 
6 735 220 790 1750 417 1805 
6 773 714 823 1788 1729 1838 
6 216 217 793 413 414 1808 
6 750 828 832 1765 1843 1847 
6 749 829 831 1764 1844 1846 
6 731 793 815 1746 1808 1830 
6 759 711 817 1774 1726 1832 
6 712 760 818 1727 1775 1833 
6 798 714 825 1813 1729 1840 
6 785 737 796 1800 1752 1811 
6 738 786 797 1753 1801 1812 
6 732 773 823 1747 1788 1838 
6 721 785 796 1736 1800 1811 
6 786 722 797 1801 1737 1812 
6 226 227 808 423 424 1823 
6 707 768 814 1722 1783 1829 
6 767 710 822 1782 1725 1837 
6 736 757 845 1751 1772 1860 
6 758 735 844 1773 1750 1859 
6 201 202 806 398 399 1821 
6 199 200 807 396 397 1822 
6 746 713 824 1761 1728 1839 
6 714 747 825 1729 1762 1840 
6 746 213 794 1761 410 1809 
6 223 747 795 420 1762 1810 
6 728 782 783 1743 1797 1798 
6 780 727 781 1795 1742 1796 
6 191 190 819 388 387 1834 
6 205 206 820 402 403 1835 
6 733 777 839 1748 1792 1854 
6 768 721 814 1783 1736 1829 
6 834 703 838 1849 1718 1853 
6 722 767 822 1737 1782 1837 
6 791 734 838 1806 1749 1853 
6 770 718 809 1785 1733 1824 
6 704 833 839 1719 1848 1854 
6 212 213 842 409 410 1857 
6 223 222 843 420 419 1858 
6 713 774 826 1728 1789 1841 
6 209 21 789 406 102 1804 
6 26 224 790 107 421 1805 
6 714 798 823 1729 1813 1838 
6 218 763 773 415 1778 1788 
6 725 801 827 1740 1816 1842 
6 804 725 827 1819 1740 1842 
6 202 743 806 399 1758 1821 
6 744 199 807 1759 396 1822 
6 762 215 774 1777 412 1789 
6 717 769 816 1732 1784 1831 
6 777 754 839 1792 1769 1854 
6 787 705 836 1802 1720 1851 
6 706 788 837 1721 1803 1852 
6 22 214 794 103 411 1809 
6 219 25 795 416 106 1810 
6 798 748 823 1813 1763 1838 
6 744 778 818 1759 1793 1833 
6 779 743 817 1794 1758 1832 
6 765 722 812 1780 1737 1827 
6 721 764 813 1736 1779 1828 
6 211 785 813 408 1800 1828 
6 786 221 812 1801 418 1827 
6 225 226 827 422 423 1842 
6 213 746 842 410 1761 1857 
6 747 223 843 1762 420 1858 
6 785 721 813 1800 1736 1828 
6 722 786 812 1737 1801 1827 
6 751 791 838 1766 1806 1853 
6 713 805 824 1728 1820 1839 
6 746 824 842 1761 1839 1857 
6 825 747 843 1840 1762 1858 
6 774 731 826 1789 1746 1841 
6 743 202 759 1758 399 1774 
6 199 744 760 396 1759 1775 
6 790 224 844 1805 421 1859 
6 209 789 845 406 1804 1860 
6 227 802 840 424 1817 1855 
6 804 226 841 1819 423 1856 
6 730 819 837 1745 1834 1852 
6 820 729 836 1835 1744 1851 
6 801 225 827 1816 422 1842 
6 226 804 827 423 1819 1842 
6 17 203 781 98 400 1796 
6 198 16 783 395 97 1798 
6 805 737 824 1820 1752 1839 
6 788 730 837 1803 1745 1852 
6 729 787 836 1744 1802 1851 
6 704 799 833 1719 1814 1848 
6 800 703 834 1815 1718 1849 
6 739 801 829 1754 1816 1844 
6 740 802 828 1755 1817 1843 
6 804 741 830 1819 1756 1845 
6 799 730 833 1814 1745 1848 
6 729 800 834 1744 1815 1849 
6 802 740 840 1817 1755 1855 
6 741 804 841 1756 1819 1856 
6 775 820 836 1790 1835 1851 
6 819 776 837 1834 1791 1852 
6 705 775 836 1720 1790 1851 
6 776 706 837 1791 1721 1852 
6 808 227 840 1823 424 1855 
6 226 808 841 423 1823 1856 
6 730 788 833 1745 1803 1848 
6 787 729 834 1802 1744 1849 
6 789 736 845 1804 1751 1860 
6 735 790 844 1750 1805 1859 
6 775 205 820 1790 402 1835 
6 190 776 819 387 1791 1834 
6 743 759 817 1758 1774 1832 
6 760 744 818 1775 1759 1833 
6 824 737 842 1839 1752 1857 
6 738 825 843 1753 1840 1858 
6 16 199 760 97 396 1775 
6 16 760 783 97 1775 1798 
6 202 17 759 399 98 1774 
6 759 17 781 1774 98 1796 
6 21 210 789 102 407 1804 
6 213 22 794 410 103 1809 
6 25 223 795 106 420 1810 
6 220 26 790 417 107 1805 
6 1 197 190 82 394 387 
6 197 15 782 394 96 1797 
6 18 204 780 99 401 1795 
6 19 205 204 100 402 401 
6 190 197 728 387 394 1743 
6 190 728 776 387 1743 1791 
6 728 197 782 1743 394 1797 
6 204 205 727 401 402 1742 
6 204 727 780 401 1742 1795 
6 727 205 775 1742 402 1790 
6 711 727 775 1726 1742 1790 
6 727 711 781 1742 1726 1796 
6 728 712 776 1743 1727 1791 
6 712 728 783 1727 1743 1798 
6 939 898 954 1954 1913 1969 
6 860 900 915 1875 1915 1930 
6 861 901 914 1876 1916 1929 
6 893 877 959 1908 1892 1974 
6 854 893 959 1869 1908 1974 
6 900 860 903 1915 1875 1918 
6 901 861 902 1916 1876 1917 
6 890 854 959 1905 1869 1974 
6 876 238 920 1891 435 1935 
6 869 884 898 1884 1899 1913 
6 885 868 897 1900 1883 1912 
6 870 886 899 1885 1901 1914 
6 244 880 909 441 1895 1924 
6 223 881 910 420 1896 1925 
6 862 939 954 1877 1954 1969 
6 862 901 916 1877 1916 1931 
6 880 860 909 1895 1875 1924 
6 881 861 910 1896 1876 1925 
6 936 865 937 1951 1880 1952 
6 884 852 898 1899 1867 1913 
6 855 885 897 1870 1900 1912 
6 886 853 899 1901 1868 1914 
6 847 898 939 1862 1913 1954 
6 854 890 917 1869 1905 1932 
6 847 939 943 1862 1954 1958 
6 944 895 960 1959 1910 1975 
6 876 890 959 1891 1905 1974 
6 884 869 955 1899 1884 1970 
6 877 919 938 1892 1934 1953 
6 886 870 956 1901 1885 1971 
6 860 880 903 1875 1895 1918 
6 861 881 902 1876 1896 1917 
6 907 240 940 1922 437 1955 
6 235 908 941 432 1923 1956 
6 887 854 917 1902 1869 1932 
6 939 883 943 1954 1898 1958 
6 891 858 907 1906 1873 1922 
6 859 892 908 1874 1907 1923 
6 919 237 938 1934 434 1953 
6 849 895 944 1864 1910 1959 
6 890 846 917 1905 1861 1932 
6 238 876 938 435 1891 1953 
6 897 846 942 1912 1861 1957 
6 897 942 958 1912 1957 1973 
6 863 900 918 1878 1915 1933 
6 917 846 979 1932 1861 1994 
6 38 252 955 119 449 1970 
6 252 253 956 449 450 1971 
6 244 909 957 441 1924 1972 
6 945 252 956 1960 449 1971 
6 947 38 955 1962 119 1970 
6 850 856 921 1865 1871 1936 
6 857 851 922 1872 1866 1937 
6 865 906 937 1880 1921 1952 
6 856 850 962 1871 1865 1977 
6 851 857 963 1866 1872 1978 
6 863 944 960 1878 1959 1975 
6 239 32 907 436 113 1922 
6 31 236 908 112 433 1923 
6 925 850 931 1940 1865 1946 
6 851 924 932 1866 1939 1947 
6 868 887 917 1883 1902 1932 
6 29 231 902 110 428 1917 
6 35 249 903 116 446 1918 
6 894 848 949 1909 1863 1964 
6 868 885 985 1883 1900 2000 
6 887 868 986 1902 1883 2001 
6 900 863 915 1915 1878 1930 
6 901 862 914 1916 1877 1929 
6 228 28 926 425 109 1941 
6 37 251 928 118 448 1943 
6 901 232 916 1916 429 1931 
6 865 878 924 1880 1893 1939 
6 879 864 925 1894 1879 1940 
6 883 916 988 1898 1931 2003 
6 223 910 968 420 1925 1983 
6 854 887 913 1869 1902 1928 
6 853 936 937 1868 1951 1952 
6 893 854 913 1908 1869 1928 
6 859 908 919 1874 1923 1934 
6 235 31 908 432 112 1923 
6 32 240 907 113 437 1922 
6 869 898 961 1884 1913 1976 
6 846 890 950 1861 1905 1965 
6 864 879 923 1879 1894 1938 
6 29 902 989 110 1917 2004 
6 35 903 990 116 1918 2005 
6 907 858 920 1922 1873 1935 
6 909 860 911 1924 1875 1926 
6 910 861 912 1925 1876 1927 
6 864 906 951 1879 1921 1966 
6 906 865 952 1921 1880 1967 
6 896 871 977 1911 1886 1992 
6 888 925 951 1903 1940 1966 
6 924 889 952 1939 1904 1967 
6 878 865 936 1893 1880 1951 
6 894 949 966 1909 1964 1981 
6 925 864 951 1940 1879 1966 
6 865 924 952 1880 1939 1967 
6 890 876 971 1905 1891 1986 
6 875 918 965 1890 1933 1980 
6 847 893 961 1862 1908 1976 
6 916 233 988 1931 430 2003 
6 900 248 918 1915 445 1933 
6 899 853 923 1914 1868 1938 
6 858 950 971 1873 1965 1986 
6 877 893 967 1892 1908 1982 
6 898 847 961 1913 1862 1976 
6 893 847 943 1908 1862 1958 
6 912 861 914 1927 1876 1929 
6 911 860 915 1926 1875 1930 
6 871 896 975 1886 1911 1990 
6 930 882 987 1945 1897 2002 
6 848 894 976 1863 1909 1991 
6 895 849 977 1910 1864 1992 
6 950 890 971 1965 1905 1986 
6 238 239 920 435 436 1935 
6 236 237 919 433 434 1934 
6 898 852 954 1913 1867 1969 
6 942 846 950 1957 1861 1965 
6 852 884 973 1867 1899 1988 
6 885 855 974 1900 1870 1989 
6 853 886 975 1868 1901 1990 
6 870 899 976 1885 1914 1991 
6 896 977 983 1911 1992 1998 
6 245 35 990 442 116 2005 
6 230 29 989 427 110 2004 
6 853 896 936 1868 1911 1951 
6 863 918 944 1878 1933 1959 
6 906 864 937 1921 1879 1952 
6 855 897 958 1870 1912 1973 
6 231 232 901 428 429 1916 
6 249 248 900 446 445 1915 
6 935 874 964 1950 1889 1979 
6 918 247 965 1933 444 1980 
6 862 916 939 1877 1931 1954 
6 187 186 906 384 383 1921 
6 976 899 984 1991 1914 1999 
6 242 930 987 439 1945 2002 
6 848 976 984 1863 1991 1999 
6 897 868 979 1912 1883 1994 
6 882 942 950 1897 1957 1965 
6 894 852 973 1909 1867 1988 
6 855 895 974 1870 1910 1989 
6 896 853 975 1911 1868 1990 
6 977 849 983 1992 1864 1998 
6 855 911 915 1870 1926 1930 
6 852 912 914 1867 1927 1929 
6 973 870 976 1988 1885 1991 
6 871 974 977 1886 1989 1992 
6 906 186 951 1921 383 1966 
6 187 906 952 384 1921 1967 
6 918 875 944 1933 1890 1959 
6 243 244 957 440 441 1972 
6 943 883 970 1958 1898 1985 
6 869 913 947 1884 1928 1962 
6 895 855 960 1910 1870 1975 
6 924 851 963 1939 1866 1978 
6 850 925 962 1865 1940 1977 
6 978 878 983 1993 1893 1998 
6 879 925 931 1894 1940 1946 
6 924 878 932 1939 1893 1947 
6 252 945 955 449 1960 1970 
6 253 948 956 450 1963 1971 
6 852 894 966 1867 1909 1981 
6 856 904 927 1871 1919 1942 
6 905 857 929 1920 1872 1944 
6 913 887 947 1928 1902 1962 
6 866 909 911 1881 1924 1926 
6 867 910 912 1882 1925 1927 
6 846 897 979 1861 1912 1994 
6 221 935 964 418 1950 1979 
6 232 233 916 429 430 1931 
6 249 900 903 446 1915 1918 
6 231 901 902 428 1916 1917 
6 874 935 949 1889 1950 1964 
6 916 883 939 1931 1898 1954 
6 879 980 984 1894 1995 1999 
6 893 913 961 1908 1928 1976 
6 923 853 937 1938 1868 1952 
6 248 247 918 445 444 1933 
6 942 866 958 1957 1881 1973 
6 852 914 954 1867 1929 1969 
6 932 878 978 1947 1893 1993 
6 855 915 960 1870 1930 1975 
6 222 223 968 419 420 1983 
6 953 868 985 1968 1883 2000 
6 868 953 986 1883 1968 2001 
6 864 923 937 1879 1938 1952 
6 879 931 980 1894 1946 1995 
6 228 926 927 425 1941 1942 
6 928 251 929 1943 448 1944 
6 935 867 949 1950 1882 1964 
6 891 907 940 1906 1922 1955 
6 908 892 941 1923 1907 1956 
6 877 938 959 1892 1953 1974 
6 242 243 930 439 440 1945 
6 870 945 956 1885 1960 1971 
6 869 947 955 1884 1962 1970 
6 945 870 973 1960 1885 1988 
6 871 946 974 1886 1961 1989 
6 948 871 975 1963 1886 1990 
6 221 222 935 418 419 1950 
6 945 884 955 1960 1899 1970 
6 948 886 956 1963 1901 1971 
6 880 244 933 1895 441 1948 
6 881 223 934 1896 420 1949 
6 859 919 967 1874 1934 1982 
6 237 238 938 434 435 1953 
6 974 895 977 1989 1910 1992 
6 894 973 976 1909 1988 1991 
6 938 876 959 1953 1891 1974 
6 949 867 966 1964 1882 1981 
6 904 856 962 1919 1871 1977 
6 857 905 963 1872 1920 1978 
6 859 943 970 1874 1958 1985 
6 882 930 942 1897 1945 1957 
6 919 877 967 1934 1892 1982 
6 913 869 961 1928 1884 1976 
6 930 866 942 1945 1881 1957 
6 254 38 953 451 119 1968 
6 911 855 958 1926 1870 1973 
6 912 852 966 1927 1867 1981 
6 902 881 989 1917 1896 2004 
6 903 880 990 1918 1895 2005 
6 186 185 951 383 382 1966 
6 188 187 952 385 384 1967 
6 858 891 969 1873 1906 1984 
6 892 859 970 1907 1874 1985 
6 241 891 940 438 1906 1955 
6 892 234 941 1907 431 1956 
6 926 872 927 1941 1887 1942 
6 873 928 929 1888 1943 1944 
6 220 221 964 417 418 1979 
6 247 246 965 444 443 1980 
6 923 879 984 1938 1894 1999 
6 866 911 958 1881 1926 1973 
6 849 978 983 1864 1993 1998 
6 867 912 966 1882 1927 1981 
6 868 917 979 1883 1932 1994 
6 878 936 983 1893 1951 1998 
6 914 862 954 1929 1877 1969 
6 241 242 987 438 439 2002 
6 233 234 988 430 431 2003 
6 920 858 971 1935 1873 1986 
6 34 245 933 115 442 1948 
6 25 230 934 106 427 1949 
6 910 867 968 1925 1882 1983 
6 943 859 967 1958 1874 1982 
6 908 236 919 1923 433 1934 
6 980 848 984 1995 1863 1999 
6 946 871 972 1961 1886 1987 
6 871 948 972 1886 1963 1987 
6 185 888 951 382 1903 1966 
6 889 188 952 1904 385 1967 
6 239 907 920 436 1922 1935 
6 915 863 960 1930 1878 1975 
6 899 923 984 1914 1938 1999 
6 931 850 981 1946 1865 1996 
6 851 932 982 1866 1947 1997 
6 240 33 940 437 114 1955 
6 30 235 941 111 432 1956 
6 867 935 968 1882 1950 1983 
6 893 943 967 1908 1958 1982 
6 889 924 963 1904 1939 1978 
6 925 888 962 1940 1903 1977 
6 909 866 957 1924 1881 1972 
6 930 243 957 1945 440 1972 
6 253 254 972 450 451 1987 
6 891 241 987 1906 438 2002 
6 234 892 988 431 1907 2003 
6 866 930 957 1881 1945 1972 
6 936 896 983 1951 1911 1998 
6 950 858 969 1965 1873 1984 
6 969 891 987 1984 1906 2002 
6 892 970 988 1907 1985 2003 
6 876 920 971 1891 1935 1986 
6 888 185 904 1903 382 1919 
6 188 889 905 385 1904 1920 
6 933 245 990 1948 442 2005 
6 934 230 989 1949 427 2004 
6 946 254 985 1961 451 2000 
6 38 947 986 119 1962 2001 
6 875 965 982 1890 1980 1997 
6 964 874 981 1979 1889 1996 
6 935 222 968 1950 419 1983 
6 254 946 972 451 1961 1987 
6 948 253 972 1963 450 1987 
6 251 11 929 448 92 1944 
6 12 228 927 93 425 1942 
6 882 950 969 1897 1965 1984 
6 949 848 980 1964 1863 1995 
6 932 875 982 1947 1890 1997 
6 874 931 981 1889 1946 1996 
6 874 949 980 1889 1964 1995 
6 849 944 978 1864 1959 1993 
6 884 945 973 1899 1960 1988 
6 946 885 974 1961 1900 1989 
6 886 948 975 1901 1963 1990 
6 944 875 978 1959 1890 1993 
6 885 946 985 1900 1961 2000 
6 947 887 986 1962 1902 2001 
6 921 964 981 1936 1979 1996 
6 965 922 982 1980 1937 1997 
6 850 921 981 1865 1936 1996 
6 922 851 982 1937 1866 1997 
6 254 953 985 451 1968 2000 
6 953 38 986 1968 119 2001 
6 875 932 978 1890 1947 1993 
6 931 874 980 1946 1889 1995 
6 880 933 990 1895 1948 2005 
6 881 934 989 1896 1949 2004 
6 921 220 964 1936 417 1979 
6 246 922 965 443 1937 1980 
6 888 904 962 1903 1919 1977 
6 905 889 963 1920 1904 1978 
6 882 969 987 1897 1984 2002 
6 970 883 988 1985 1898 2003 
6 11 188 905 92 385 1920 
6 11 905 929 92 1920 1944 
6 185 12 904 382 93 1919 
6 904 12 927 1919 93 1942 
6 223 25 934 420 106 1949 
6 234 30 941 431 111 1956 
6 33 241 940 114 438 1955 
6 244 34 933 441 115 1948 
6 26 220 229 107 417 426 
6 28 229 926 109 426 1941 
6 36 250 246 117 447 443 
6 250 37 928 447 118 1943 
6 229 220 872 426 417 1887 
6 872 220 921 1887 417 1936 
6 229 872 926 426 1887 1941 
6 246 250 873 443 447 1888 
6 246 873 922 443 1888 1937 
6 873 250 928 1888 447 1943 
6 856 872 921 1871 1887 1936 
6 872 856 927 1887 1871 1942 
6 873 857 922 1888 1872 1937 
6 857 873 929 1872 1888 1944 
6 1084 1042 1100 2099 2057 2115 
6 1005 1045 1060 2020 2060 2075 
6 1006 1046 1059 2021 2061 2074 
6 1022 1038 1104 2037 2053 2119 
6 1038 999 1104 2053 2014 2119 
6 1045 1005 1047 2060 2020 2062 
6 1046 1006 1048 2061 2021 2063 
6 999 1035 1104 2014 2050 2119 
6 258 1021 1064 455 2036 2079 
6 1014 1029 1042 2029 2044 2057 
6 1016 1030 1043 2031 2045 2058 
6 1031 1016 1044 2046 2031 2059 
6 180 1026 1055 377 2041 2070 
6 265 1025 1054 462 2040 2069 
6 1028 991 1088 2043 2006 2103 
6 1007 1084 1100 2022 2099 2115 
6 1007 1046 1061 2022 2061 2076 
6 1026 1006 1055 2041 2021 2070 
6 1025 1005 1054 2040 2020 2069 
6 1067 1010 1082 2082 2025 2097 
6 1029 997 1042 2044 2012 2057 
6 1030 1000 1043 2045 2015 2058 
6 998 1031 1044 2013 2046 2059 
6 1089 1043 1099 2104 2058 2114 
6 992 1042 1084 2007 2057 2099 
6 1035 1021 1104 2050 2036 2119 
6 1029 1014 1101 2044 2029 2116 
6 1063 1022 1083 2078 2037 2098 
6 1005 1025 1047 2020 2040 2062 
6 1006 1026 1048 2021 2041 2063 
6 256 1052 1085 453 2067 2100 
6 1053 261 1086 2068 458 2101 
6 991 1028 1087 2006 2043 2102 
6 1040 991 1087 2055 2006 2102 
6 1032 999 1074 2047 2014 2089 
6 1003 1036 1052 2018 2051 2067 
6 1037 1004 1053 2052 2019 2068 
6 259 1063 1083 456 2078 2098 
6 1021 258 1083 2036 455 2098 
6 1038 991 1074 2053 2006 2089 
6 1035 999 1056 2050 2014 2071 
6 999 1038 1074 2014 2053 2089 
6 1008 1045 1062 2023 2060 2077 
6 1040 1087 1110 2055 2102 2125 
6 994 1043 1089 2009 2058 2104 
6 49 279 1101 130 476 2116 
6 281 49 1102 478 130 2117 
6 265 1054 1103 462 2069 2118 
6 1008 1089 1099 2023 2104 2114 
6 1091 281 1102 2106 478 2117 
6 1092 49 1101 2107 130 2116 
6 995 1001 1065 2010 2016 2080 
6 1002 996 1066 2017 2011 2081 
6 1010 1051 1082 2025 2066 2097 
6 1001 995 1105 2016 2010 2120 
6 996 1002 1106 2011 2017 2121 
6 39 257 1052 120 454 2067 
6 260 40 1053 457 121 2068 
6 1069 995 1076 2084 2010 2091 
6 996 1068 1077 2011 2083 2092 
6 43 267 1047 124 464 2062 
6 36 246 1048 117 443 2063 
6 1039 993 1094 2054 2008 2109 
6 1030 1016 1130 2045 2031 2145 
6 1016 1031 1131 2031 2046 2146 
6 1045 1008 1060 2060 2023 2075 
6 1046 1007 1059 2061 2022 2074 
6 277 48 1070 474 129 2085 
6 45 272 1072 126 469 2087 
6 992 1035 1109 2007 2050 2124 
6 1046 247 1061 2061 444 2076 
6 1010 1023 1068 2025 2038 2083 
6 1024 1009 1069 2039 2024 2084 
6 1027 1061 1132 2042 2076 2147 
6 180 1055 1113 377 2070 2128 
6 1053 1004 1063 2068 2019 2078 
6 999 1032 1056 2014 2047 2071 
6 40 261 1053 121 458 2068 
6 256 39 1052 453 120 2067 
6 1035 992 1095 2050 2007 2110 
6 1023 1010 1067 2038 2025 2082 
6 1014 1042 1109 2029 2057 2124 
6 36 1048 1134 117 2063 2149 
6 43 1047 1135 124 2062 2150 
6 1003 1052 1064 2018 2067 2079 
6 1054 1005 1057 2069 2020 2072 
6 1055 1006 1058 2070 2021 2073 
6 1051 1010 1097 2066 2025 2112 
6 1009 1051 1096 2024 2066 2111 
6 1015 1041 1122 2030 2056 2137 
6 998 1067 1082 2013 2082 2097 
6 1033 1069 1096 2048 2084 2111 
6 1068 1034 1097 2083 2049 2112 
6 1009 1024 1081 2024 2039 2096 
6 1039 1094 1111 2054 2109 2126 
6 1069 1009 1096 2084 2024 2111 
6 1010 1068 1097 2025 2083 2112 
6 1021 1035 1116 2036 2050 2131 
6 1074 991 1121 2089 2006 2136 
6 1020 1062 1108 2035 2077 2123 
6 1061 248 1132 2076 445 2147 
6 1045 268 1062 2060 465 2077 
6 998 1044 1067 2013 2059 2082 
6 1074 1013 1102 2089 2028 2117 
6 1095 1003 1116 2110 2018 2131 
6 1038 1022 1112 2053 2037 2127 
6 1032 1074 1102 2047 2089 2117 
6 991 1038 1088 2006 2053 2103 
6 1058 1006 1059 2073 2021 2074 
6 1057 1005 1060 2072 2020 2075 
6 1042 992 1109 2057 2007 2124 
6 1041 1015 1120 2056 2030 2135 
6 1075 1028 1133 2090 2043 2148 
6 993 1039 1122 2008 2054 2137 
6 991 1040 1121 2006 2055 2136 
6 1035 1095 1116 2050 2110 2131 
6 257 258 1064 454 455 2079 
6 259 260 1063 456 457 2078 
6 1042 997 1100 2057 2012 2115 
6 1043 1000 1099 2058 2015 2114 
6 997 1029 1119 2012 2044 2134 
6 1000 1030 1118 2015 2045 2133 
6 1031 998 1120 2046 2013 2135 
6 1122 1041 1128 2137 2056 2143 
6 255 36 1134 452 117 2149 
6 266 43 1135 463 124 2150 
6 1035 1056 1109 2050 2071 2124 
6 1041 998 1081 2056 2013 2096 
6 1014 1056 1092 2029 2071 2107 
6 1008 1062 1089 2023 2077 2104 
6 1051 1009 1082 2066 2024 2097 
6 246 247 1046 443 444 2061 
6 267 268 1045 464 465 2060 
6 1016 1043 1124 2031 2058 2139 
6 1044 1016 1124 2059 2031 2139 
6 1080 1019 1107 2095 2034 2122 
6 1056 1032 1092 2071 2047 2107 
6 1062 269 1108 2077 466 2123 
6 1007 1061 1084 2022 2076 2099 
6 275 274 1051 472 471 2066 
6 263 1075 1133 460 2090 2148 
6 992 1084 1095 2007 2099 2110 
6 1039 997 1119 2054 2012 2134 
6 1040 1000 1118 2055 2015 2133 
6 998 1041 1120 2013 2056 2135 
6 993 1122 1128 2008 2137 2143 
6 1000 1057 1060 2015 2072 2075 
6 997 1058 1059 2012 2073 2074 
6 1119 1015 1122 2134 2030 2137 
6 1118 1013 1121 2133 2028 2136 
6 275 1051 1097 472 2066 2112 
6 1051 274 1096 2066 471 2111 
6 1062 1020 1089 2077 2035 2104 
6 264 265 1103 461 462 2118 
6 1028 1088 1115 2043 2103 2130 
6 1068 996 1106 2083 2011 2121 
6 995 1069 1105 2010 2084 2120 
6 1024 1069 1076 2039 2084 2091 
6 1068 1023 1077 2083 2038 2092 
6 279 1090 1101 476 2105 2116 
6 1043 994 1124 2058 2009 2139 
6 49 1092 1102 130 2107 2117 
6 1084 1027 1095 2099 2042 2110 
6 997 1039 1111 2012 2054 2126 
6 1000 1040 1110 2015 2055 2125 
6 1001 1049 1071 2016 2064 2086 
6 1050 1002 1073 2065 2017 2088 
6 1123 1023 1129 2138 2038 2144 
6 1081 998 1082 2096 2013 2097 
6 1044 1124 1129 2059 2139 2144 
6 1011 1054 1057 2026 2069 2072 
6 1012 1055 1058 2027 2070 2073 
6 182 1080 1107 379 2095 2122 
6 1024 1125 1128 2039 2140 2143 
6 247 248 1061 444 445 2076 
6 267 1045 1047 464 2060 2062 
6 246 1046 1048 443 2061 2063 
6 1019 1080 1094 2034 2095 2109 
6 1061 1027 1084 2076 2042 2099 
6 268 269 1062 465 466 2077 
6 1000 1060 1099 2015 2075 2114 
6 997 1059 1100 2012 2074 2115 
6 1077 1023 1123 2092 2038 2138 
6 1124 994 1129 2139 2009 2144 
6 1087 1011 1110 2102 2026 2125 
6 181 180 1113 378 377 2128 
6 1016 1098 1130 2031 2113 2145 
6 1098 1016 1131 2113 2031 2146 
6 1013 1074 1121 2028 2089 2136 
6 1024 1076 1125 2039 2091 2140 
6 1009 1081 1082 2024 2096 2097 
6 1072 272 1073 2087 469 2088 
6 277 1070 1071 474 2085 2086 
6 1080 1012 1094 2095 2027 2109 
6 1052 1036 1085 2067 2051 2100 
6 1037 1053 1086 2052 2068 2101 
6 1083 1022 1104 2098 2037 2119 
6 263 264 1075 460 461 2090 
6 1013 1091 1102 2028 2106 2117 
6 1014 1092 1101 2029 2107 2116 
6 1090 1015 1119 2105 2030 2134 
6 1091 1013 1118 2106 2028 2133 
6 1015 1093 1120 2030 2108 2135 
6 1056 1014 1109 2071 2029 2124 
6 182 181 1080 379 378 2095 
6 1090 1029 1101 2105 2044 2116 
6 1092 1032 1102 2107 2047 2117 
6 1025 265 1078 2040 462 2093 
6 1026 180 1079 2041 377 2094 
6 1063 1004 1112 2078 2019 2127 
6 258 259 1083 455 456 2098 
6 1040 1118 1121 2055 2133 2136 
6 1039 1119 1122 2054 2134 2137 
6 1021 1083 1104 2036 2098 2119 
6 1094 1012 1111 2109 2027 2126 
6 1049 1001 1105 2064 2016 2120 
6 1002 1050 1106 2017 2065 2121 
6 1088 1004 1115 2103 2019 2130 
6 1028 1075 1087 2043 2090 2102 
6 1022 1063 1112 2037 2078 2127 
6 1075 1011 1087 2090 2026 2102 
6 280 281 1098 477 478 2113 
6 1058 997 1111 2073 2012 2126 
6 1057 1000 1110 2072 2015 2125 
6 1047 1025 1135 2062 2040 2150 
6 1048 1026 1134 2063 2041 2149 
6 274 273 1096 471 470 2111 
6 276 275 1097 473 472 2112 
6 1036 1003 1114 2051 2018 2129 
6 1004 1037 1115 2019 2052 2130 
6 1036 249 1085 2051 446 2100 
6 262 1037 1086 459 2052 2101 
6 1070 1017 1071 2085 2032 2086 
6 1018 1072 1073 2033 2087 2088 
6 183 182 1107 380 379 2122 
6 269 270 1108 466 467 2123 
6 1023 1067 1129 2038 2082 2144 
6 1011 1057 1110 2026 2072 2125 
6 1012 1058 1111 2027 2073 2126 
6 1081 1024 1128 2096 2039 2143 
6 1059 1007 1100 2074 2022 2115 
6 1060 1008 1099 2075 2023 2114 
6 994 1123 1129 2009 2138 2144 
6 248 249 1132 445 446 2147 
6 262 263 1133 459 460 2148 
6 1125 993 1128 2140 2008 2143 
6 1003 1064 1116 2018 2079 2131 
6 42 266 1078 123 463 2093 
6 10 255 1079 91 452 2094 
6 1055 1012 1113 2070 2027 2128 
6 1004 1088 1112 2019 2103 2127 
6 260 1053 1063 457 2068 2078 
6 1015 1090 1117 2030 2105 2132 
6 1093 1015 1117 2108 2030 2132 
6 273 1033 1096 470 2048 2111 
6 1034 276 1097 2049 473 2112 
6 1052 257 1064 2067 454 2079 
6 1067 1044 1129 2082 2059 2144 
6 1076 995 1126 2091 2010 2141 
6 996 1077 1127 2011 2092 2142 
6 35 256 1085 116 453 2100 
6 261 41 1086 458 122 2101 
6 1012 1080 1113 2027 2095 2128 
6 1088 1038 1112 2103 2053 2127 
6 1034 1068 1106 2049 2083 2121 
6 1069 1033 1105 2084 2048 2120 
6 1054 1011 1103 2069 2026 2118 
6 1075 264 1103 2090 461 2118 
6 279 280 1117 476 477 2132 
6 249 1036 1132 446 2051 2147 
6 1037 262 1133 2052 459 2148 
6 1011 1075 1103 2026 2090 2118 
6 1041 1081 1128 2056 2096 2143 
6 1003 1095 1114 2018 2110 2129 
6 1036 1114 1132 2051 2129 2147 
6 1115 1037 1133 2130 2052 2148 
6 1064 1021 1116 2079 2036 2131 
6 276 1034 1050 473 2049 2065 
6 1033 273 1049 2048 470 2064 
6 1078 266 1135 2093 463 2150 
6 1079 255 1134 2094 452 2149 
6 281 1091 1130 478 2106 2145 
6 1093 280 1131 2108 477 2146 
6 1107 1019 1126 2122 2034 2141 
6 1020 1108 1127 2035 2123 2142 
6 1080 181 1113 2095 378 2128 
6 1090 279 1117 2105 476 2132 
6 280 1093 1117 477 2108 2132 
6 272 46 1073 469 127 2088 
6 47 277 1071 128 474 2086 
6 1095 1027 1114 2110 2042 2129 
6 1094 993 1125 2109 2008 2140 
6 1019 1076 1126 2034 2091 2141 
6 1077 1020 1127 2092 2035 2142 
6 1019 1094 1125 2034 2109 2140 
6 994 1089 1123 2009 2104 2138 
6 1030 1091 1118 2045 2106 2133 
6 1029 1090 1119 2044 2105 2134 
6 1093 1031 1120 2108 2046 2135 
6 1089 1020 1123 2104 2035 2138 
6 1091 1030 1130 2106 2045 2145 
6 1031 1093 1131 2046 2108 2146 
6 1065 1107 1126 2080 2122 2141 
6 1108 1066 1127 2123 2081 2142 
6 995 1065 1126 2010 2080 2141 
6 1066 996 1127 2081 2011 2142 
6 1098 281 1130 2113 478 2145 
6 280 1098 1131 477 2113 2146 
6 1020 1077 1123 2035 2092 2138 
6 1076 1019 1125 2091 2034 2140 
6 1025 1078 1135 2040 2093 2150 
6 1026 1079 1134 2041 2094 2149 
6 1065 183 1107 2080 380 2122 
6 270 1066 1108 467 2081 2123 
6 1033 1049 1105 2048 2064 2120 
6 1050 1034 1106 2065 2049 2121 
6 1114 1027 1132 2129 2042 2147 
6 1028 1115 1133 2043 2130 2148 
6 180 10 1079 377 91 2094 
6 249 35 1085 446 116 2100 
6 41 262 1086 122 459 2101 
6 265 42 1078 462 123 2093 
6 46 276 1050 127 473 2065 
6 46 1050 1073 127 2065 2088 
6 273 47 1049 470 128 2064 
6 1049 47 1071 2064 128 2086 
6 9 183 278 90 380 475 
6 44 271 270 125 468 467 
6 271 45 1072 468 126 2087 
6 48 278 1070 129 475 2085 
6 278 183 1017 475 380 2032 
6 1017 183 1065 2032 380 2080 
6 270 271 1018 467 468 2033 
6 270 1018 1066 467 2033 2081 
6 1018 271 1072 2033 468 2087 
6 278 1017 1070 475 2032 2085 
6 1001 1017 1065 2016 2032 2080 
6 1017 1001 1071 2032 2016 2086 
6 1018 1002 1066 2033 2017 2081 
6 1002 1018 1073 2017 2033 2088 
6 1150 1190 1205 2165 2205 2220 
6 1191 1151 1204 2206 2166 2219 
6 1183 1167 1250 2198 2182 2265 
6 1144 1183 1250 2159 2198 2265 
6 1190 1150 1192 2205 2165 2207 
6 1151 1191 1193 2166 2206 2208 
6 1180 1144 1250 2195 2159 2265 
6 1166 275 1210 2181 472 2225 
6 1175 1158 1187 2190 2173 2202 
6 1159 1174 1188 2174 2189 2203 
6 1176 1161 1189 2191 2176 2204 
6 1170 178 1199 2185 375 2214 
6 287 1171 1200 484 2186 2215 
6 1137 1173 1233 2152 2188 2248 
6 1151 1170 1199 2166 2185 2214 
6 1171 1150 1200 2186 2165 2215 
6 1155 1226 1227 2170 2241 2242 
6 1174 1142 1188 2189 2157 2203 
6 1145 1175 1187 2160 2190 2202 
6 1143 1176 1189 2158 2191 2204 
6 1144 1180 1206 2159 2195 2221 
6 1234 1185 1252 2249 2200 2267 
6 1184 1235 1251 2199 2250 2266 
6 1166 1180 1250 2181 2195 2265 
6 1174 1159 1244 2189 2174 2259 
6 1167 1209 1228 2182 2224 2243 
6 1161 1176 1245 2176 2191 2260 
6 1150 1171 1192 2165 2186 2207 
6 1170 1151 1193 2185 2166 2208 
6 1197 283 1230 2212 480 2245 
6 282 1198 1229 479 2213 2244 
6 1177 1144 1206 2192 2159 2221 
6 1173 1137 1232 2188 2152 2247 
6 1148 1181 1198 2163 2196 2213 
6 1182 1149 1197 2197 2164 2212 
6 1209 274 1228 2224 471 2243 
6 1139 1185 1234 2154 2200 2249 
6 1184 1138 1235 2199 2153 2250 
6 1180 1136 1206 2195 2151 2221 
6 275 1166 1228 472 2181 2243 
6 1137 1188 1232 2152 2203 2247 
6 1187 1136 1231 2202 2151 2246 
6 1232 1188 1249 2247 2203 2264 
6 1187 1231 1248 2202 2246 2263 
6 1191 1152 1208 2206 2167 2223 
6 1153 1190 1207 2168 2205 2222 
6 1206 1136 1270 2221 2151 2285 
6 60 306 1244 141 503 2259 
6 307 308 1245 504 505 2260 
6 1199 178 1247 2214 375 2262 
6 287 1200 1246 484 2215 2261 
6 308 1237 1245 505 2252 2260 
6 1238 60 1244 2253 141 2259 
6 1146 1140 1211 2161 2155 2226 
6 1141 1147 1212 2156 2162 2227 
6 1196 1155 1227 2211 2170 2242 
6 1140 1146 1254 2155 2161 2269 
6 1147 1141 1255 2162 2156 2270 
6 1153 1234 1252 2168 2249 2267 
6 1235 1152 1251 2250 2167 2266 
6 47 273 1198 128 470 2213 
6 276 46 1197 473 127 2212 
6 1140 1214 1222 2155 2229 2237 
6 1215 1141 1223 2230 2156 2238 
6 1158 1177 1206 2173 2192 2221 
6 52 289 1192 133 486 2207 
6 301 59 1193 498 140 2208 
6 1158 1175 1275 2173 2190 2290 
6 1177 1158 1276 2192 2173 2291 
6 1190 1153 1205 2205 2168 2220 
6 1152 1191 1204 2167 2206 2219 
6 54 294 1216 135 491 2231 
6 299 57 1218 496 138 2233 
6 1154 1168 1214 2169 2183 2229 
6 1169 1155 1215 2184 2170 2230 
6 1144 1177 1203 2159 2192 2218 
6 1226 1143 1227 2241 2158 2242 
6 1183 1144 1203 2198 2159 2218 
6 1148 1198 1209 2163 2213 2224 
6 46 283 1197 127 480 2212 
6 282 47 1198 479 128 2213 
6 1159 1188 1253 2174 2203 2268 
6 1136 1180 1240 2151 2195 2255 
6 1168 1154 1213 2183 2169 2228 
6 1193 59 1279 2208 140 2294 
6 52 1192 1280 133 2207 2295 
6 1197 1149 1210 2212 2164 2225 
6 1151 1199 1201 2166 2214 2216 
6 1200 1150 1202 2215 2165 2217 
6 1196 1154 1241 2211 2169 2256 
6 1155 1196 1242 2170 2211 2257 
6 1160 1186 1266 2175 2201 2281 
6 1214 1178 1241 2229 2193 2256 
6 1179 1215 1242 2194 2230 2257 
6 1155 1169 1226 2170 2184 2241 
6 1154 1214 1241 2169 2229 2256 
6 1215 1155 1242 2230 2170 2257 
6 1180 1166 1261 2195 2181 2276 
6 1164 1207 1256 2179 2222 2271 
6 1208 1165 1257 2223 2180 2272 
6 1137 1183 1253 2152 2198 2268 
6 302 1191 1208 499 2206 2223 
6 1190 290 1207 2205 487 2222 
6 1143 1189 1213 2158 2204 2228 
6 1149 1240 1261 2164 2255 2276 
6 1167 1183 1258 2182 2198 2273 
6 1188 1137 1253 2203 2152 2268 
6 1183 1137 1233 2198 2152 2248 
6 1151 1201 1204 2166 2216 2219 
6 1202 1150 1205 2217 2165 2220 
6 1186 1160 1265 2201 2175 2280 
6 1221 1172 1278 2236 2187 2293 
6 1173 1220 1277 2188 2235 2292 
6 1138 1184 1266 2153 2199 2281 
6 1185 1139 1267 2200 2154 2282 
6 1240 1180 1261 2255 2195 2276 
6 275 276 1210 472 473 2225 
6 273 274 1209 470 471 2224 
6 1231 1136 1240 2246 2151 2255 
6 1142 1174 1263 2157 2189 2278 
6 1175 1145 1264 2190 2160 2279 
6 1176 1143 1265 2191 2158 2280 
6 1189 1161 1267 2204 2176 2282 
6 1266 1186 1273 2281 2201 2288 
6 59 305 1279 140 502 2294 
6 288 52 1280 485 133 2295 
6 1186 1143 1226 2201 2158 2241 
6 1153 1207 1234 2168 2222 2249 
6 1208 1152 1235 2223 2167 2250 
6 1154 1196 1227 2169 2211 2242 
6 1188 1142 1249 2203 2157 2264 
6 1145 1187 1248 2160 2202 2263 
6 289 290 1190 486 487 2205 
6 302 301 1191 499 498 2206 
6 1207 291 1256 2222 488 2271 
6 303 1208 1257 500 2223 2272 
6 296 297 1196 493 494 2211 
6 1189 1267 1274 2204 2282 2289 
6 1220 176 1277 2235 373 2292 
6 285 1221 1278 482 2236 2293 
6 1267 1139 1274 2282 2154 2289 
6 1187 1158 1270 2202 2173 2285 
6 1172 1231 1240 2187 2246 2255 
6 1184 1142 1263 2199 2157 2278 
6 1145 1185 1264 2160 2200 2279 
6 1143 1186 1265 2158 2201 2280 
6 1138 1266 1273 2153 2281 2288 
6 1145 1202 1205 2160 2217 2220 
6 1201 1142 1204 2216 2157 2219 
6 1263 1160 1266 2278 2175 2281 
6 1161 1264 1267 2176 2279 2282 
6 296 1196 1241 493 2211 2256 
6 1196 297 1242 2211 494 2257 
6 1207 1164 1234 2222 2179 2249 
6 1165 1208 1235 2180 2223 2250 
6 178 177 1247 375 374 2262 
6 286 287 1246 483 484 2261 
6 1233 1173 1259 2248 2188 2274 
6 1159 1203 1238 2174 2218 2253 
6 1142 1184 1251 2157 2199 2266 
6 1185 1145 1252 2200 2160 2267 
6 1214 1140 1254 2229 2155 2269 
6 1141 1215 1255 2156 2230 2270 
6 1169 1269 1273 2184 2284 2288 
6 1214 1168 1222 2229 2183 2237 
6 1169 1215 1223 2184 2230 2238 
6 306 1236 1244 503 2251 2259 
6 1239 307 1245 2254 504 2260 
6 1194 1146 1217 2209 2161 2232 
6 1147 1195 1219 2162 2210 2234 
6 1268 1168 1274 2283 2183 2289 
6 1203 1177 1238 2218 2192 2253 
6 1199 1156 1201 2214 2171 2216 
6 1157 1200 1202 2172 2215 2217 
6 1136 1187 1270 2151 2202 2285 
6 289 1190 1192 486 2205 2207 
6 1191 301 1193 2206 498 2208 
6 1183 1203 1253 2198 2218 2268 
6 1143 1213 1227 2158 2228 2242 
6 290 291 1207 487 488 2222 
6 303 302 1208 500 499 2223 
6 1156 1232 1249 2171 2247 2264 
6 1231 1157 1248 2246 2172 2263 
6 1222 1168 1268 2237 2183 2283 
6 1169 1223 1269 2184 2238 2284 
6 1145 1205 1252 2160 2220 2267 
6 1204 1142 1251 2219 2157 2266 
6 1243 1158 1275 2258 2173 2290 
6 1158 1243 1276 2173 2258 2291 
6 1213 1154 1227 2228 2169 2242 
6 1216 294 1217 2231 491 2232 
6 299 1218 1219 496 2233 2234 
6 1182 1197 1230 2197 2212 2245 
6 1198 1181 1229 2213 2196 2244 
6 1167 1228 1250 2182 2243 2265 
6 177 176 1220 374 373 2235 
6 285 286 1221 482 483 2236 
6 1237 1161 1245 2252 2176 2260 
6 1159 1238 1244 2174 2253 2259 
6 1236 1160 1263 2251 2175 2278 
6 1161 1237 1264 2176 2252 2279 
6 1160 1239 1265 2175 2254 2280 
6 1236 1174 1244 2251 2189 2259 
6 1176 1239 1245 2191 2254 2260 
6 1171 287 1224 2186 484 2239 
6 178 1170 1225 375 2185 2240 
6 1148 1209 1258 2163 2224 2273 
6 274 275 1228 471 472 2243 
6 1184 1263 1266 2199 2278 2281 
6 1264 1185 1267 2279 2200 2282 
6 1228 1166 1250 2243 2181 2265 
6 1146 1194 1254 2161 2209 2269 
6 1195 1147 1255 2210 2162 2270 
6 1148 1233 1259 2163 2248 2274 
6 1172 1221 1231 2187 2236 2246 
6 1220 1173 1232 2235 2188 2247 
6 1209 1167 1258 2224 2182 2273 
6 1203 1159 1253 2218 2174 2268 
6 1221 1157 1231 2236 2172 2246 
6 1156 1220 1232 2171 2235 2247 
6 308 60 1243 505 141 2258 
6 1202 1145 1248 2217 2160 2263 
6 1142 1201 1249 2157 2216 2264 
6 1192 1171 1280 2207 2186 2295 
6 1170 1193 1279 2185 2208 2294 
6 295 296 1241 492 493 2256 
6 297 298 1242 494 495 2257 
6 1181 1148 1259 2196 2163 2274 
6 1149 1182 1260 2164 2197 2275 
6 1181 175 1229 2196 372 2244 
6 284 1182 1230 481 2197 2245 
6 1162 1216 1217 2177 2231 2232 
6 1218 1163 1219 2233 2178 2234 
6 291 292 1256 488 489 2271 
6 304 303 1257 501 500 2272 
6 1168 1213 1274 2183 2228 2289 
6 1201 1156 1249 2216 2171 2264 
6 1157 1202 1248 2172 2217 2263 
6 1269 1138 1273 2284 2153 2288 
6 1158 1206 1270 2173 2221 2285 
6 1226 1169 1273 2241 2184 2288 
6 1139 1268 1274 2154 2283 2289 
6 284 285 1278 481 482 2293 
6 176 175 1277 373 372 2292 
6 1210 1149 1261 2225 2164 2276 
6 51 288 1224 132 485 2239 
6 305 7 1225 502 88 2240 
6 1233 1148 1258 2248 2163 2273 
6 1198 273 1209 2213 470 2224 
6 1160 1236 1262 2175 2251 2277 
6 1239 1160 1262 2254 2175 2277 
6 1178 295 1241 2193 492 2256 
6 298 1179 1242 495 2194 2257 
6 276 1197 1210 473 2212 2225 
6 1152 1204 1251 2167 2219 2266 
6 1205 1153 1252 2220 2168 2267 
6 1213 1189 1274 2228 2204 2289 
6 1140 1222 1271 2155 2237 2286 
6 1223 1141 1272 2238 2156 2287 
6 8 282 1229 89 479 2244 
6 283 50 1230 480 131 2245 
6 1183 1233 1258 2198 2248 2273 
6 1178 1214 1254 2193 2229 2269 
6 1215 1179 1255 2230 2194 2270 
6 1200 1157 1246 2215 2172 2261 
6 1156 1199 1247 2171 2214 2262 
6 177 1220 1247 374 2235 2262 
6 1221 286 1246 2236 483 2261 
6 306 307 1262 503 504 2277 
6 175 1181 1277 372 2196 2292 
6 1182 284 1278 2197 481 2293 
6 1157 1221 1246 2172 2236 2261 
6 1220 1156 1247 2235 2171 2262 
6 1186 1226 1273 2201 2241 2288 
6 1240 1149 1260 2255 2164 2275 
6 1181 1259 1277 2196 2274 2292 
6 1260 1182 1278 2275 2197 2293 
6 1166 1210 1261 2181 2225 2276 
6 295 1178 1194 492 2193 2209 
6 1179 298 1195 2194 495 2210 
6 1224 288 1280 2239 485 2295 
6 305 1225 1279 502 2240 2294 
6 1237 308 1275 2252 505 2290 
6 60 1238 1276 141 2253 2291 
6 1164 1256 1271 2179 2271 2286 
6 1257 1165 1272 2272 2180 2287 
6 1236 306 1262 2251 503 2277 
6 307 1239 1262 504 2254 2277 
6 56 299 1219 137 496 2234 
6 294 55 1217 491 136 2232 
6 1172 1240 1260 2187 2255 2275 
6 1222 1164 1271 2237 2179 2286 
6 1165 1223 1272 2180 2238 2287 
6 1139 1234 1268 2154 2249 2283 
6 1235 1138 1269 2250 2153 2284 
6 1174 1236 1263 2189 2251 2278 
6 1237 1175 1264 2252 2190 2279 
6 1239 1176 1265 2254 2191 2280 
6 1234 1164 1268 2249 2179 2283 
6 1165 1235 1269 2180 2250 2284 
6 1175 1237 1275 2190 2252 2290 
6 1238 1177 1276 2253 2192 2291 
6 1256 1211 1271 2271 2226 2286 
6 1212 1257 1272 2227 2272 2287 
6 1211 1140 1271 2226 2155 2286 
6 1141 1212 1272 2156 2227 2287 
6 308 1243 1275 505 2258 2290 
6 1243 60 1276 2258 141 2291 
6 1164 1222 1268 2179 2237 2283 
6 1223 1165 1269 2238 2180 2284 
6 1225 1170 1279 2240 2185 2294 
6 1171 1224 1280 2186 2239 2295 
6 292 1211 1256 489 2226 2271 
6 1212 304 1257 2227 501 2272 
6 1194 1178 1254 2209 2193 2269 
6 1179 1195 1255 2194 2210 2270 
6 1259 1173 1277 2274 2188 2292 
6 1172 1260 1278 2187 2275 2293 
6 7 178 1225 88 375 2240 
6 175 8 1229 372 89 2244 
6 50 284 1230 131 481 2245 
6 287 51 1224 484 132 2239 
6 55 295 1194 136 492 2209 
6 55 1194 1217 136 2209 2232 
6 298 56 1195 495 137 2210 
6 1195 56 1219 2210 137 2234 
6 53 293 292 134 490 489 
6 293 54 1216 490 135 2231 
6 57 300 1218 138 497 2233 
6 58 304 300 139 501 497 
6 292 293 1162 489 490 2177 
6 292 1162 1211 489 2177 2226 
6 1162 293 1216 2177 490 2231 
6 300 304 1163 497 501 2178 
6 300 1163 1218 497 2178 2233 
6 1163 304 1212 2178 501 2227 
6 1162 1146 1211 2177 2161 2226 
6 1146 1162 1217 2161 2177 2232 
6 1147 1163 1212 2162 2178 2227 
6 1163 1147 1219 2178 2162 2234 
6 1374 1333 1389 2389 2348 2404 
6 1295 1335 1350 2310 2350 2365 
6 1296 1336 1349 2311 2351 2364 
6 1328 1312 1394 2343 2327 2409 
6 1289 1328 1394 2304 2343 2409 
6 1335 1295 1337 2350 2310 2352 
6 1336 1296 1338 2351 2311 2353 
6 1325 1289 1394 2340 2304 2409 
6 1311 170 1355 2326 367 2370 
6 1305 1319 1333 2320 2334 2348 
6 1320 1303 1332 2335 2318 2347 
6 1321 1306 1334 2336 2321 2349 
6 304 1315 1344 501 2330 2359 
6 326 1316 1345 523 2331 2360 
6 1297 1374 1389 2312 2389 2404 
6 1297 1336 1351 2312 2351 2366 
6 1315 1295 1344 2330 2310 2359 
6 1316 1296 1345 2331 2311 2360 
6 1358 1300 1372 2373 2315 2387 
6 1319 1287 1333 2334 2302 2348 
6 1290 1320 1332 2305 2335 2347 
6 1288 1321 1334 2303 2336 2349 
6 1283 1333 1374 2298 2348 2389 
6 1289 1325 1352 2304 2340 2367 
6 1283 1374 1378 2298 2389 2393 
6 1379 1330 1395 2394 2345 2410 
6 1311 1325 1394 2326 2340 2409 
6 1319 1305 1390 2334 2320 2405 
6 1312 1354 1373 2327 2369 2388 
6 1306 1321 1391 2321 2336 2406 
6 1295 1315 1337 2310 2330 2352 
6 1296 1316 1338 2311 2331 2353 
6 332 1343 1375 529 2358 2390 
6 1342 309 1376 2357 506 2391 
6 1322 1289 1352 2337 2304 2367 
6 1374 1318 1378 2389 2333 2393 
6 1293 1327 1343 2308 2342 2358 
6 1326 1294 1342 2341 2309 2357 
6 1354 171 1373 2369 368 2388 
6 1284 1330 1379 2299 2345 2394 
6 1325 1281 1352 2340 2296 2367 
6 170 1311 1373 367 2326 2388 
6 1332 1281 1377 2347 2296 2392 
6 1332 1377 1393 2347 2392 2408 
6 1298 1335 1353 2313 2350 2368 
6 1352 1281 1414 2367 2296 2429 
6 71 333 1390 152 530 2405 
6 334 335 1391 531 532 2406 
6 304 1344 1392 501 2359 2407 
6 335 1381 1391 532 2396 2406 
6 1382 71 1390 2397 152 2405 
6 1285 1291 1356 2300 2306 2371 
6 1292 1286 1357 2307 2301 2372 
6 1300 1341 1372 2315 2356 2387 
6 1291 1285 1397 2306 2300 2412 
6 1286 1292 1398 2301 2307 2413 
6 1298 1379 1395 2313 2394 2410 
6 4 172 1343 85 369 2358 
6 169 5 1342 366 86 2357 
6 1359 1285 1366 2374 2300 2381 
6 1286 1360 1367 2301 2375 2382 
6 1303 1322 1352 2318 2337 2367 
6 69 331 1338 150 528 2353 
6 61 311 1337 142 508 2352 
6 1329 1282 1384 2344 2297 2399 
6 1303 1320 1420 2318 2335 2435 
6 1322 1303 1421 2337 2318 2436 
6 1335 1298 1350 2350 2313 2365 
6 1336 1297 1349 2351 2312 2364 
6 321 66 1361 518 147 2376 
6 63 316 1363 144 513 2378 
6 1336 330 1351 2351 527 2366 
6 1313 1299 1359 2328 2314 2374 
6 1300 1314 1360 2315 2329 2375 
6 1318 1351 1422 2333 2366 2437 
6 326 1345 1403 523 2360 2418 
6 1289 1322 1348 2304 2337 2363 
6 1328 1289 1348 2343 2304 2363 
6 1293 1343 1354 2308 2358 2369 
6 5 309 1342 86 506 2357 
6 332 4 1343 529 85 2358 
6 1305 1333 1396 2320 2348 2411 
6 1281 1325 1385 2296 2340 2400 
6 1314 1300 1358 2329 2315 2373 
6 61 1337 1424 142 2352 2439 
6 69 1338 1425 150 2353 2440 
6 1342 1294 1355 2357 2309 2370 
6 1344 1295 1346 2359 2310 2361 
6 1345 1296 1347 2360 2311 2362 
6 1299 1341 1386 2314 2356 2401 
6 1341 1300 1387 2356 2315 2402 
6 1304 1331 1411 2319 2346 2426 
6 1288 1358 1372 2303 2373 2387 
6 1323 1359 1386 2338 2374 2401 
6 1360 1324 1387 2375 2339 2402 
6 1299 1313 1371 2314 2328 2386 
6 1329 1384 1401 2344 2399 2416 
6 1359 1299 1386 2374 2314 2401 
6 1300 1360 1387 2315 2375 2402 
6 1325 1311 1406 2340 2326 2421 
6 1310 1353 1400 2325 2368 2415 
6 1283 1328 1396 2298 2343 2411 
6 1351 329 1422 2366 526 2437 
6 1335 312 1353 2350 509 2368 
6 1288 1334 1358 2303 2349 2373 
6 1294 1385 1406 2309 2400 2421 
6 1312 1328 1402 2327 2343 2417 
6 1333 1283 1396 2348 2298 2411 
6 1328 1283 1378 2343 2298 2393 
6 1347 1296 1349 2362 2311 2364 
6 1346 1295 1350 2361 2310 2365 
6 1331 1304 1410 2346 2319 2425 
6 1365 1317 1423 2380 2332 2438 
6 1282 1329 1411 2297 2344 2426 
6 1330 1284 1412 2345 2299 2427 
6 1385 1325 1406 2400 2340 2421 
6 170 169 1355 367 366 2370 
6 172 171 1354 369 368 2369 
6 1333 1287 1389 2348 2302 2404 
6 1377 1281 1385 2392 2296 2400 
6 1287 1319 1409 2302 2334 2424 
6 1320 1290 1408 2335 2305 2423 
6 1321 1288 1410 2336 2303 2425 
6 1334 1306 1412 2349 2321 2427 
6 1411 1331 1418 2426 2346 2433 
6 310 61 1424 507 142 2439 
6 327 69 1425 524 150 2440 
6 1331 1288 1371 2346 2303 2386 
6 1298 1353 1379 2313 2368 2394 
6 1341 1299 1372 2356 2314 2387 
6 1290 1332 1393 2305 2347 2408 
6 311 312 1335 508 509 2350 
6 331 330 1336 528 527 2351 
6 1370 1309 1399 2385 2324 2414 
6 1353 313 1400 2368 510 2415 
6 1297 1351 1374 2312 2366 2389 
6 318 319 1341 515 516 2356 
6 1334 1412 1419 2349 2427 2434 
6 302 1365 1423 499 2380 2438 
6 1412 1284 1419 2427 2299 2434 
6 1332 1303 1414 2347 2318 2429 
6 1317 1377 1385 2332 2392 2400 
6 1329 1287 1409 2344 2302 2424 
6 1290 1330 1408 2305 2345 2423 
6 1288 1331 1410 2303 2346 2425 
6 1282 1411 1418 2297 2426 2433 
6 1290 1346 1350 2305 2361 2365 
6 1287 1347 1349 2302 2362 2364 
6 1409 1304 1411 2424 2319 2426 
6 1306 1408 1412 2321 2423 2427 
6 1341 319 1386 2356 516 2401 
6 318 1341 1387 515 2356 2402 
6 1353 1310 1379 2368 2325 2394 
6 303 304 1392 500 501 2407 
6 1378 1318 1405 2393 2333 2420 
6 1305 1348 1382 2320 2363 2397 
6 1330 1290 1395 2345 2305 2410 
6 1285 1359 1397 2300 2374 2412 
6 1360 1286 1398 2375 2301 2413 
6 1313 1359 1366 2328 2374 2381 
6 1360 1314 1367 2375 2329 2382 
6 333 1380 1390 530 2395 2405 
6 1383 334 1391 2398 531 2406 
6 1287 1329 1401 2302 2344 2416 
6 1291 1339 1362 2306 2354 2377 
6 1340 1292 1364 2355 2307 2379 
6 1413 1314 1419 2428 2329 2434 
6 1348 1322 1382 2363 2337 2397 
6 1371 1288 1372 2386 2303 2387 
6 1301 1344 1346 2316 2359 2361 
6 1302 1345 1347 2317 2360 2362 
6 1281 1332 1414 2296 2347 2429 
6 324 1370 1399 521 2385 2414 
6 1313 1415 1418 2328 2430 2433 
6 330 329 1351 527 526 2366 
6 311 1335 1337 508 2350 2352 
6 331 1336 1338 528 2351 2353 
6 1309 1370 1384 2324 2385 2399 
6 1351 1318 1374 2366 2333 2389 
6 1328 1348 1396 2343 2363 2411 
6 312 313 1353 509 510 2368 
6 1377 1301 1393 2392 2316 2408 
6 1287 1349 1389 2302 2364 2404 
6 1367 1314 1413 2382 2329 2428 
6 1290 1350 1395 2305 2365 2410 
6 325 326 1403 522 523 2418 
6 1388 1303 1420 2403 2318 2435 
6 1303 1388 1421 2318 2403 2436 
6 1313 1366 1415 2328 2381 2430 
6 1299 1371 1372 2314 2386 2387 
6 321 1361 1362 518 2376 2377 
6 1363 316 1364 2378 513 2379 
6 1370 1302 1384 2385 2317 2399 
6 1343 1327 1375 2358 2342 2390 
6 1326 1342 1376 2341 2357 2391 
6 1312 1373 1394 2327 2388 2409 
6 302 303 1365 499 500 2380 
6 1381 1306 1391 2396 2321 2406 
6 1305 1382 1390 2320 2397 2405 
6 1380 1304 1409 2395 2319 2424 
6 1306 1381 1408 2321 2396 2423 
6 1304 1383 1410 2319 2398 2425 
6 324 325 1370 521 522 2385 
6 1380 1319 1390 2395 2334 2405 
6 1321 1383 1391 2336 2398 2406 
6 1315 304 1368 2330 501 2383 
6 1316 326 1369 2331 523 2384 
6 1293 1354 1402 2308 2369 2417 
6 171 170 1373 368 367 2388 
6 1408 1330 1412 2423 2345 2427 
6 1329 1409 1411 2344 2424 2426 
6 1373 1311 1394 2388 2326 2409 
6 1384 1302 1401 2399 2317 2416 
6 1339 1291 1397 2354 2306 2412 
6 1292 1340 1398 2307 2355 2413 
6 1293 1378 1405 2308 2393 2420 
6 1317 1365 1377 2332 2380 2392 
6 1354 1312 1402 2369 2327 2417 
6 1348 1305 1396 2363 2320 2411 
6 1365 1301 1377 2380 2316 2392 
6 335 71 1388 532 152 2403 
6 1346 1290 1393 2361 2305 2408 
6 1347 1287 1401 2362 2302 2416 
6 1337 1315 1424 2352 2330 2439 
6 1338 1316 1425 2353 2331 2440 
6 319 320 1386 516 517 2401 
6 317 318 1387 514 515 2402 
6 1327 1293 1405 2342 2308 2420 
6 1294 1326 1404 2309 2341 2419 
6 1327 328 1375 2342 525 2390 
6 301 1326 1376 498 2341 2391 
6 1361 1307 1362 2376 2322 2377 
6 1308 1363 1364 2323 2378 2379 
6 323 324 1399 520 521 2414 
6 313 314 1400 510 511 2415 
6 1314 1358 1419 2329 2373 2434 
6 1301 1346 1393 2316 2361 2408 
6 1302 1347 1401 2317 2362 2416 
6 1303 1352 1414 2318 2367 2429 
6 1371 1313 1418 2386 2328 2433 
6 1349 1297 1389 2364 2312 2404 
6 1284 1413 1419 2299 2428 2434 
6 301 302 1423 498 499 2438 
6 329 328 1422 526 525 2437 
6 1415 1282 1418 2430 2297 2433 
6 1355 1294 1406 2370 2309 2421 
6 58 310 1368 139 507 2383 
6 68 327 1369 149 524 2384 
6 1345 1302 1403 2360 2317 2418 
6 1378 1293 1402 2393 2308 2417 
6 1343 172 1354 2358 369 2369 
6 1304 1380 1407 2319 2395 2422 
6 1383 1304 1407 2398 2319 2422 
6 320 1323 1386 517 2338 2401 
6 1324 317 1387 2339 514 2402 
6 169 1342 1355 366 2357 2370 
6 1350 1298 1395 2365 2313 2410 
6 1358 1334 1419 2373 2349 2434 
6 1366 1285 1416 2381 2300 2431 
6 1286 1367 1417 2301 2382 2432 
6 70 332 1375 151 529 2390 
6 309 59 1376 506 140 2391 
6 1302 1370 1403 2317 2385 2418 
6 1328 1378 1402 2343 2393 2417 
6 1359 1323 1397 2374 2338 2412 
6 1324 1360 1398 2339 2375 2413 
6 1344 1301 1392 2359 2316 2407 
6 1365 303 1392 2380 500 2407 
6 333 334 1407 530 531 2422 
6 328 1327 1422 525 2342 2437 
6 1326 301 1423 2341 498 2438 
6 1301 1365 1392 2316 2380 2407 
6 1331 1371 1418 2346 2386 2433 
6 1385 1294 1404 2400 2309 2419 
6 1327 1405 1422 2342 2420 2437 
6 1404 1326 1423 2419 2341 2438 
6 1311 1355 1406 2326 2370 2421 
6 1323 320 1339 2338 517 2354 
6 317 1324 1340 514 2339 2355 
6 1368 310 1424 2383 507 2439 
6 1369 327 1425 2384 524 2440 
6 1381 335 1420 2396 532 2435 
6 71 1382 1421 152 2397 2436 
6 1399 1309 1416 2414 2324 2431 
6 1310 1400 1417 2325 2415 2432 
6 1370 325 1403 2385 522 2418 
6 1380 333 1407 2395 530 2422 
6 334 1383 1407 531 2398 2422 
6 316 64 1364 513 145 2379 
6 65 321 1362 146 518 2377 
6 1317 1385 1404 2332 2400 2419 
6 1384 1282 1415 2399 2297 2430 
6 1309 1366 1416 2324 2381 2431 
6 1367 1310 1417 2382 2325 2432 
6 1309 1384 1415 2324 2399 2430 
6 1284 1379 1413 2299 2394 2428 
6 1319 1380 1409 2334 2395 2424 
6 1381 1320 1408 2396 2335 2423 
6 1383 1321 1410 2398 2336 2425 
6 1379 1310 1413 2394 2325 2428 
6 1320 1381 1420 2335 2396 2435 
6 1382 1322 1421 2397 2337 2436 
6 1356 1399 1416 2371 2414 2431 
6 1400 1357 1417 2415 2372 2432 
6 1285 1356 1416 2300 2371 2431 
6 1357 1286 1417 2372 2301 2432 
6 335 1388 1420 532 2403 2435 
6 1388 71 1421 2403 152 2436 
6 1310 1367 1413 2325 2382 2428 
6 1366 1309 1415 2381 2324 2430 
6 1315 1368 1424 2330 2383 2439 
6 1316 1369 1425 2331 2384 2440 
6 1356 323 1399 2371 520 2414 
6 314 1357 1400 511 2372 2415 
6 1323 1339 1397 2338 2354 2412 
6 1340 1324 1398 2355 2339 2413 
6 1317 1404 1423 2332 2419 2438 
6 1405 1318 1422 2420 2333 2437 
6 304 58 1368 501 139 2383 
6 59 301 1376 140 498 2391 
6 64 317 1340 145 514 2355 
6 64 1340 1364 145 2355 2379 
6 320 65 1339 517 146 2354 
6 1339 65 1362 2354 146 2377 
6 326 68 1369 523 149 2384 
6 328 70 1375 525 151 2390 
6 62 315 314 143 512 511 
6 315 63 1363 512 144 2378 
6 66 322 1361 147 519 2376 
6 67 323 322 148 520 519 
6 314 315 1308 511 512 2323 
6 314 1308 1357 511 2323 2372 
6 1308 315 1363 2323 512 2378 
6 322 323 1307 519 520 2322 
6 322 1307 1361 519 2322 2376 
6 1307 323 1356 2322 520 2371 
6 1291 1307 1356 2306 2322 2371 
6 1307 1291 1362 2322 2306 2377 
6 1308 1292 1357 2323 2307 2372 
6 1292 1308 1364 2307 2323 2379 
6 1519 1478 1534 2534 2493 2549 
6 1440 1480 1495 2455 2495 2510 
6 1441 1481 1494 2456 2496 2509 
6 1473 1457 1539 2488 2472 2554 
6 1434 1473 1539 2449 2488 2554 
6 1480 1440 1483 2495 2455 2498 
6 1481 1441 1482 2496 2456 2497 
6 1470 1434 1539 2485 2449 2554 
6 1456 200 1500 2471 397 2515 
6 1449 1464 1478 2464 2479 2493 
6 1465 1448 1477 2480 2463 2492 
6 1466 1451 1479 2481 2466 2494 
6 163 1460 1489 360 2475 2504 
6 348 1461 1490 545 2476 2505 
6 1442 1519 1534 2457 2534 2549 
6 1442 1481 1496 2457 2496 2511 
6 1461 1441 1490 2476 2456 2505 
6 1460 1440 1489 2475 2455 2504 
6 1445 1516 1517 2460 2531 2532 
6 1464 1432 1478 2479 2447 2493 
6 1435 1465 1477 2450 2480 2492 
6 1433 1466 1479 2448 2481 2494 
6 1427 1478 1519 2442 2493 2534 
6 1434 1470 1497 2449 2485 2512 
6 1427 1519 1523 2442 2534 2538 
6 1524 1475 1540 2539 2490 2555 
6 1456 1470 1539 2471 2485 2554 
6 1464 1449 1535 2479 2464 2550 
6 1457 1499 1518 2472 2514 2533 
6 1451 1466 1536 2466 2481 2551 
6 1440 1460 1483 2455 2475 2498 
6 1441 1461 1482 2456 2476 2497 
6 1487 355 1521 2502 552 2536 
6 354 1488 1520 551 2503 2535 
6 1467 1434 1497 2482 2449 2512 
6 1519 1463 1523 2534 2478 2538 
6 1438 1471 1488 2453 2486 2503 
6 1472 1439 1487 2487 2454 2502 
6 1499 201 1518 2514 398 2533 
6 1429 1475 1524 2444 2490 2539 
6 1470 1426 1497 2485 2441 2512 
6 200 1456 1518 397 2471 2533 
6 1477 1426 1522 2492 2441 2537 
6 1477 1522 1538 2492 2537 2553 
6 1443 1480 1498 2458 2495 2513 
6 1497 1426 1559 2512 2441 2574 
6 80 356 1535 161 553 2550 
6 357 358 1536 554 555 2551 
6 163 1489 1537 360 2504 2552 
6 358 1526 1536 555 2541 2551 
6 1527 80 1535 2542 161 2550 
6 1436 1430 1501 2451 2445 2516 
6 1431 1437 1502 2446 2452 2517 
6 1486 1445 1517 2501 2460 2532 
6 1430 1436 1542 2445 2451 2557 
6 1437 1431 1543 2452 2446 2558 
6 1443 1524 1540 2458 2539 2555 
6 199 16 1487 396 97 2502 
6 17 202 1488 98 399 2503 
6 1430 1504 1511 2445 2519 2526 
6 1505 1431 1512 2520 2446 2527 
6 1448 1467 1497 2463 2482 2512 
6 70 328 1483 151 525 2498 
6 78 350 1482 159 547 2497 
6 1474 1428 1529 2489 2443 2544 
6 1448 1465 1565 2463 2480 2580 
6 1467 1448 1566 2482 2463 2581 
6 1480 1443 1495 2495 2458 2510 
6 1481 1442 1494 2496 2457 2509 
6 72 338 1506 153 535 2521 
6 343 75 1508 540 156 2523 
6 1481 351 1496 2496 548 2511 
6 1444 1458 1504 2459 2473 2519 
6 1459 1445 1505 2474 2460 2520 
6 1463 1496 1567 2478 2511 2582 
6 348 1490 1548 545 2505 2563 
6 1434 1467 1493 2449 2482 2508 
6 1516 1433 1517 2531 2448 2532 
6 1473 1434 1493 2488 2449 2508 
6 1438 1488 1499 2453 2503 2514 
6 354 17 1488 551 98 2503 
6 16 355 1487 97 552 2502 
6 1449 1478 1541 2464 2493 2556 
6 1426 1470 1530 2441 2485 2545 
6 1458 1444 1503 2473 2459 2518 
6 78 1482 1569 159 2497 2584 
6 70 1483 1570 151 2498 2585 
6 1487 1439 1500 2502 2454 2515 
6 1489 1440 1491 2504 2455 2506 
6 1490 1441 1492 2505 2456 2507 
6 1486 1444 1531 2501 2459 2546 
6 1445 1486 1532 2460 2501 2547 
6 1450 1476 1556 2465 2491 2571 
6 1504 1468 1531 2519 2483 2546 
6 1469 1505 1532 2484 2520 2547 
6 1445 1459 1516 2460 2474 2531 
6 1474 1529 1546 2489 2544 2561 
6 1444 1504 1531 2459 2519 2546 
6 1505 1445 1532 2520 2460 2547 
6 1470 1456 1551 2485 2471 2566 
6 1454 1498 1544 2469 2513 2559 
6 1427 1473 1541 2442 2488 2556 
6 1496 352 1567 2511 549 2582 
6 1480 329 1498 2495 526 2513 
6 1433 1479 1503 2448 2494 2518 
6 1439 1530 1551 2454 2545 2566 
6 1457 1473 1547 2472 2488 2562 
6 1478 1427 1541 2493 2442 2556 
6 1473 1427 1523 2488 2442 2538 
6 1492 1441 1494 2507 2456 2509 
6 1491 1440 1495 2506 2455 2510 
6 1476 1450 1555 2491 2465 2570 
6 1510 1462 1568 2525 2477 2583 
6 1428 1474 1556 2443 2489 2571 
6 1475 1429 1557 2490 2444 2572 
6 1530 1470 1551 2545 2485 2566 
6 200 199 1500 397 396 2515 
6 202 201 1499 399 398 2514 
6 1478 1432 1534 2493 2447 2549 
6 1522 1426 1530 2537 2441 2545 
6 1432 1464 1553 2447 2479 2568 
6 1465 1435 1554 2480 2450 2569 
6 1466 1433 1555 2481 2448 2570 
6 1479 1451 1557 2494 2466 2572 
6 1556 1476 1563 2571 2491 2578 
6 349 78 1569 546 159 2584 
6 336 70 1570 533 151 2585 
6 1476 1433 1516 2491 2448 2531 
6 1443 1498 1524 2458 2513 2539 
6 1444 1486 1517 2459 2501 2532 
6 1435 1477 1538 2450 2492 2553 
6 350 351 1481 547 548 2496 
6 328 329 1480 525 526 2495 
6 1515 1455 1545 2530 2470 2560 
6 1498 330 1544 2513 527 2559 
6 1442 1496 1519 2457 2511 2534 
6 340 341 1486 537 538 2501 
6 1479 1557 1564 2494 2572 2579 
6 165 1510 1568 362 2525 2583 
6 1557 1429 1564 2572 2444 2579 
6 1477 1448 1559 2492 2463 2574 
6 1462 1522 1530 2477 2537 2545 
6 1474 1432 1553 2489 2447 2568 
6 1435 1475 1554 2450 2490 2569 
6 1433 1476 1555 2448 2491 2570 
6 1428 1556 1563 2443 2571 2578 
6 1432 1492 1494 2447 2507 2509 
6 1435 1491 1495 2450 2506 2510 
6 1553 1450 1556 2568 2465 2571 
6 1451 1554 1557 2466 2569 2572 
6 340 1486 1531 537 2501 2546 
6 1486 341 1532 2501 538 2547 
6 1498 1454 1524 2513 2469 2539 
6 164 163 1537 361 360 2552 
6 1523 1463 1550 2538 2478 2565 
6 1449 1493 1527 2464 2508 2542 
6 1475 1435 1540 2490 2450 2555 
6 1504 1430 1542 2519 2445 2557 
6 1431 1505 1543 2446 2520 2558 
6 1504 1458 1511 2519 2473 2526 
6 1459 1505 1512 2474 2520 2527 
6 356 1525 1535 553 2540 2550 
6 1528 357 1536 2543 554 2551 
6 1432 1474 1546 2447 2489 2561 
6 1484 1436 1507 2499 2451 2522 
6 1437 1485 1509 2452 2500 2524 
6 1558 1458 1564 2573 2473 2579 
6 1493 1467 1527 2508 2482 2542 
6 1446 1489 1491 2461 2504 2506 
6 1447 1490 1492 2462 2505 2507 
6 1426 1477 1559 2441 2492 2574 
6 346 1515 1545 543 2530 2560 
6 1459 1560 1563 2474 2575 2578 
6 351 352 1496 548 549 2511 
6 328 1480 1483 525 2495 2498 
6 350 1481 1482 547 2496 2497 
6 1455 1515 1529 2470 2530 2544 
6 1496 1463 1519 2511 2478 2534 
6 1473 1493 1541 2488 2508 2556 
6 1433 1503 1517 2448 2518 2532 
6 329 330 1498 526 527 2513 
6 1522 1446 1538 2537 2461 2553 
6 1432 1494 1534 2447 2509 2549 
6 1511 1458 1558 2526 2473 2573 
6 1435 1495 1540 2450 2510 2555 
6 347 348 1548 544 545 2563 
6 1533 1448 1565 2548 2463 2580 
6 1448 1533 1566 2463 2548 2581 
6 1503 1444 1517 2518 2459 2532 
6 1459 1512 1560 2474 2527 2575 
6 1506 338 1507 2521 535 2522 
6 343 1508 1509 540 2523 2524 
6 1515 1447 1529 2530 2462 2544 
6 1472 1487 1521 2487 2502 2536 
6 1488 1471 1520 2503 2486 2535 
6 1457 1518 1539 2472 2533 2554 
6 165 164 1510 362 361 2525 
6 1526 1451 1536 2541 2466 2551 
6 1449 1527 1535 2464 2542 2550 
6 1525 1450 1553 2540 2465 2568 
6 1451 1526 1554 2466 2541 2569 
6 1450 1528 1555 2465 2543 2570 
6 346 347 1515 543 544 2530 
6 1525 1464 1535 2540 2479 2550 
6 1466 1528 1536 2481 2543 2551 
6 1461 348 1514 2476 545 2529 
6 1460 163 1513 2475 360 2528 
6 1438 1499 1547 2453 2514 2562 
6 201 200 1518 398 397 2533 
6 1474 1553 1556 2489 2568 2571 
6 1554 1475 1557 2569 2490 2572 
6 1518 1456 1539 2533 2471 2554 
6 1529 1447 1546 2544 2462 2561 
6 1436 1484 1542 2451 2499 2557 
6 1485 1437 1543 2500 2452 2558 
6 1438 1523 1550 2453 2538 2565 
6 1462 1510 1522 2477 2525 2537 
6 1499 1457 1547 2514 2472 2562 
6 1493 1449 1541 2508 2464 2556 
6 1510 1446 1522 2525 2461 2537 
6 358 80 1533 555 161 2548 
6 1491 1435 1538 2506 2450 2553 
6 1492 1432 1546 2507 2447 2561 
6 1482 1461 1569 2497 2476 2584 
6 1483 1460 1570 2498 2475 2585 
6 339 340 1531 536 537 2546 
6 341 342 1532 538 539 2547 
6 1471 1438 1550 2486 2453 2565 
6 1439 1472 1549 2454 2487 2564 
6 1471 353 1520 2486 550 2535 
6 166 1472 1521 363 2487 2536 
6 1452 1506 1507 2467 2521 2522 
6 1508 1453 1509 2523 2468 2524 
6 330 331 1544 527 528 2559 
6 345 346 1545 542 543 2560 
6 1458 1503 1564 2473 2518 2579 
6 1446 1491 1538 2461 2506 2553 
6 1447 1492 1546 2462 2507 2561 
6 1448 1497 1559 2463 2512 2574 
6 1516 1459 1563 2531 2474 2578 
6 1494 1442 1534 2509 2457 2549 
6 1429 1558 1564 2444 2573 2579 
6 352 353 1567 549 550 2582 
6 166 165 1568 363 362 2583 
6 1560 1428 1563 2575 2443 2578 
6 1500 1439 1551 2515 2454 2566 
6 2 336 1513 83 533 2528 
6 77 349 1514 158 546 2529 
6 1490 1447 1548 2505 2462 2563 
6 1523 1438 1547 2538 2453 2562 
6 1488 202 1499 2503 399 2514 
6 1450 1525 1552 2465 2540 2567 
6 1528 1450 1552 2543 2465 2567 
6 1468 339 1531 2483 536 2546 
6 342 1469 1532 539 2484 2547 
6 199 1487 1500 396 2502 2515 
6 1495 1443 1540 2510 2458 2555 
6 1503 1479 1564 2518 2494 2579 
6 1430 1511 1561 2445 2526 2576 
6 1512 1431 1562 2527 2446 2577 
6 355 0 1521 552 81 2536 
6 79 354 1520 160 551 2535 
6 1447 1515 1548 2462 2530 2563 
6 1473 1523 1547 2488 2538 2562 
6 1468 1504 1542 2483 2519 2557 
6 1505 1469 1543 2520 2484 2558 
6 1489 1446 1537 2504 2461 2552 
6 1510 164 1537 2525 361 2552 
6 356 357 1552 553 554 2567 
6 353 1471 1567 550 2486 2582 
6 1472 166 1568 2487 363 2583 
6 1446 1510 1537 2461 2525 2552 
6 1476 1516 1563 2491 2531 2578 
6 1530 1439 1549 2545 2454 2564 
6 1471 1550 1567 2486 2565 2582 
6 1549 1472 1568 2564 2487 2583 
6 1456 1500 1551 2471 2515 2566 
6 339 1468 1484 536 2483 2499 
6 1469 342 1485 2484 539 2500 
6 1513 336 1570 2528 533 2585 
6 1514 349 1569 2529 546 2584 
6 1526 358 1565 2541 555 2580 
6 80 1527 1566 161 2542 2581 
6 1454 1544 1561 2469 2559 2576 
6 1545 1455 1562 2560 2470 2577 
6 1515 347 1548 2530 544 2563 
6 1525 356 1552 2540 553 2567 
6 357 1528 1552 554 2543 2567 
6 74 343 1509 155 540 2524 
6 338 73 1507 535 154 2522 
6 1462 1530 1549 2477 2545 2564 
6 1529 1428 1560 2544 2443 2575 
6 1511 1454 1561 2526 2469 2576 
6 1455 1512 1562 2470 2527 2577 
6 1455 1529 1560 2470 2544 2575 
6 1429 1524 1558 2444 2539 2573 
6 1464 1525 1553 2479 2540 2568 
6 1526 1465 1554 2541 2480 2569 
6 1528 1466 1555 2543 2481 2570 
6 1524 1454 1558 2539 2469 2573 
6 1465 1526 1565 2480 2541 2580 
6 1527 1467 1566 2542 2482 2581 
6 1544 1501 1561 2559 2516 2576 
6 1502 1545 1562 2517 2560 2577 
6 1501 1430 1561 2516 2445 2576 
6 1431 1502 1562 2446 2517 2577 
6 358 1533 1565 555 2548 2580 
6 1533 80 1566 2548 161 2581 
6 1454 1511 1558 2469 2526 2573 
6 1512 1455 1560 2527 2470 2575 
6 1460 1513 1570 2475 2528 2585 
6 1461 1514 1569 2476 2529 2584 
6 331 1501 1544 528 2516 2559 
6 1502 345 1545 2517 542 2560 
6 1484 1468 1542 2499 2483 2557 
6 1469 1485 1543 2484 2500 2558 
6 1550 1463 1567 2565 2478 2582 
6 1462 1549 1568 2477 2564 2583 
6 0 166 1521 81 363 2536 
6 163 2 1513 360 83 2528 
6 73 339 1484 154 536 2499 
6 73 1484 1507 154 2499 2522 
6 342 74 1485 539 155 2500 
6 1485 74 1509 2500 155 2524 
6 348 77 1514 545 158 2529 
6 353 79 1520 550 160 2535 
6 69 337 331 150 534 528 
6 337 72 1506 534 153 2521 
6 75 344 1508 156 541 2523 
6 76 345 344 157 542 541 
6 331 337 1452 528 534 2467 
6 331 1452 1501 528 2467 2516 
6 1452 337 1506 2467 534 2521 
6 344 345 1453 541 542 2468 
6 344 1453 1508 541 2468 2523 
6 1453 345 1502 2468 542 2517 
6 1452 1436 1501 2467 2451 2516 
6 1436 1452 1507 2451 2467 2522 
6 1437 1453 1502 2452 2468 2517 
6 1453 1437 1509 2468 2452 2524 

CELL_TYPES 2380
13
13
13
13
13
13
13
13
13
13
13
13
13
13
13
13
13
13
13
13
13
13
13
13
13
13
13
13
13
13
13
13
13
13
13
13
13
13
13
13
13
13
13
13
13
13
13
13
13
13
13
13
13
13
13
13
13
13
13
13
13
13
13
13
13
13
13
13
13
13
13
13
13
13
13
13
13
13
13
13
13
13
13
13
13
13
13
13
13
13
13
13
13
13
13
13
13
13
13
13
13
13
13
13
13
13
13
13
13
13
13
13
13
13
13
13
13
13
13
13
13
13
13
13
13
13
13
13
13
13
13
13
13
13
13
13
13
13
13
13
13
13
13
13
13
13
13
13
13
13
13
13
13
13
13
13
13
13
13
13
13
13
13
13
13
13
13
13
13
13
13
13
13
13
13
13
13
13
13
13
13
13
13
13
13
13
13
13
13
13
13
13
13
13
13
13
13
13
13
13
13
13
13
13
13
13
13
13
13
13
13
13
13
13
13
13
13
13
13
13
13
13
13
13
13
13
13
13
13
13
13
13
13
13
13
13
13
13
13
13
13
13
13
13
13
13
13
13
13
13
13
13
13
13
13
13
13
13
13
13
13
13
13
13
13
13
13
13
13
13
13
13
13
13
13
13
13
13
13
13
13
13
13
13
13
13
13
13
13
13
13
13
13
13
13
13
13
13
13
13
13
13
13
13
13
13
13
13
13
13
13
13
13
13
13
13
13
13
13
13
13
13
13
13
13
13
13
13
13
13
13
13
13
13
13
13
13
13
13
13
13
13
13
13
13
13
13
13
13
13
13
13
13
13
13
13
13
13
13
13
13
13
13
13
13
13
13
13
13
13
13
13
13
13
13
13
13
13
13
13
13
13
13
13
13
13
13
13
13
13
13
13
13
13
13
13
13
13
13
13
13
13
13
13
13
13
13
13
13
13
13
13
13
13
13
13
13
13
13
13
13
13
13
13
13
13
13
13
13
13
13
13
13
13
13
13
13
13
13
13
13
13
13
13
13
13
13
13
13
13
13
13
13
13
13
13
13
13
13
13
13
13
13
13
13
13
13
13
13
13
13
13
13
13
13
13
13
13
13
13
13
13
13
13
13
13
13
13
13
13
13
13
13
13
13
13
13
13
13
13
13
13
13
13
13
13
13
13
13
13
13
13
13
13
13
13
13
13
13
13
13
13
13
13
13
13
13
13
13
13
13
13
13
13
13
13
13
13
13
13
13
13
13
13
13
13
13
13
13
13
13
13
13
13
13
13
13
13
13
13
13
13
13
13
13
13
13
13
13
13
13
13
13
13
13
13
13
13
13
13
13
13
13
13
13
13
13
13
13
13
13
13
13
13
13
13
13
13
13
13
13
13
13
13
13
13
13
13
13
13
13
13
13
13
13
13
13
13
13
13
13
13
13
13
13
13
13
13
13
13
13
13
13
13
13
13
13
13
13
13
13
13
13
13
13
13
13
13
13
13
13
13
13
13
13
13
13
13
13
13
13
13
13
13
13
13
13
13
13
13
13
13
13
13
13
13
13
13
13
13
13
13
13
13
13
13
13
13
13
13
13
13
13
13
13
13
13
13
13
13
13
13
13
13
13
13
13
13
13
13
13
13
13
13
13
13
13
13
13
13
13
13
13
13
13
13
13
13
13
13
13
13
13
13
13
13
13
13
13
13
13
13
13
13
13
13
13
13
13
13
13
13
13
13
13
13
13
13
13
13
13
13
13
13
13
13
13
13
13
13
13
13
13
13
13
13
13
13
13
13
13
13
13
13
13
13
13
13
13
13
13
13
13
13
13
13
13
13
13
13
13
13
13
13
13
13
13
13
13
13
13
13
13
13
13
13
13
13
13
13
13
13
13
13
13
13
13
13
13
13
13
13
13
13
13
13
13
13
13
13
13
13
13
13
13
13
13
13
13
13
13
13
13
13
13
13
13
13
13
13
13
13
13
13
13
13
13
13
13
13
13
13
13
13
13
13
13
13
13
13
13
13
13
13
13
13
13
13
13
13
13
13
13
13
13
13
13
13
13
13
13
13
13
13
13
13
13
13
13
13
13
13
13
13
13
13
13
13
13
13
13
13
13
13
13
13
13
13
13
13
13
13
13
13
13
13
13
13
13
13
13
13
13
13
13
13
13
13
13
13
13
13
13
13
13
13
13
13
13
13
13
13
13
13
13
13
13
13
13
13
13
13
13
13
13
13
13
13
13
13
13
13
13
13
13
13
13
13
13
13
13
13
13
13
13
13
13
13
13
13
13
13
13
13
13
13
13
13
13
13
13
13
13
13
13
13
13
13
13
13
13
13
13
13
13
13
13
13
13
13
13
13
13
13
13
13
13
13
13
13
13
13
13
13
13
13
13
13
13
13
13
13
13
13
13
13
13
13
13
13
13
13
13
13
13
13
13
13
13
13
13
13
13
13
13
13
13
13
13
13
13
13
13
13
13
13
13
13
13
13
13
13
13
13
13
13
13
13
13
13
13
13
13
13
13
13
13
13
13
13
13
13
13
13
13
13
13
13
13
13
13
13
13
13
13
13
13
13
13
13
13
13
13
13
13
13
13
13
13
13
13
13
13
13
13
13
13
13
13
13
13
13
13
13
13
13
13
13
13
13
13
13
13
13
13
13
13
13
13
13
13
13
13
13
13
13
13
13
13
13
13
13
13
13
13
13
13
13
13
13
13
13
13
13
13
13
13
13
13
13
13
13
13
13
13
13
13
13
13
13
13
13
13
13
13
13
13
13
13
13
13
13
13
13
13
13
13
13
13
13
13
13
13
13
13
13
13
13
13
13
13
13
13
13
13
13
13
13
13
13
13
13
13
13
13
13
13
13
13
13
13
13
13
13
13
13
13
13
13
13
13
13
13
13
13
13
13
13
13
13
13
13
13
13
13
13
13
13
13
13
13
13
13
13
13
13
13
13
13
13
13
13
13
13
13
13
13
13
13
13
13
13
13
13
13
13
13
13
13
13
13
13
13
13
13
13
13
13
13
13
13
13
13
13
13
13
13
13
13
13
13
13
13
13
13
13
13
13
13
13
13
13
13
13
13
13
13
13
13
13
13
13
13
13
13
13
13
13
13
13
13
13
13
13
13
13
13
13
13
13
13
13
13
13
13
13
13
13
13
13
13
13
13
13
13
13
13
13
13
13
13
13
13
13
13
13
13
13
13
13
13
13
13
13
13
13
13
13
13
13
13
13
13
13
13
13
13
13
13
13
13
13
13
13
13
13
13
13
13
13
13
13
13
13
13
13
13
13
13
13
13
13
13
13
13
13
13
13
13
13
13
13
13
13
13
13
13
13
13
13
13
13
13
13
13
13
13
13
13
13
13
13
13
13
13
13
13
13
13
13
13
13
13
13
13
13
13
13
13
13
13
13
13
13
13
13
13
13
13
13
13
13
13
13
13
13
13
13
13
13
13
13
13
13
13
13
13
13
13
13
13
13
13
13
13
13
13
13
13
13
13
13
13
13
13
13
13
13
13
13
13
13
13
13
13
13
13
13
13
13
13
13
13
13
13
13
13
13
13
13
13
13
13
13
13
13
13
13
13
13
13
13
13
13
13
13
13
13
13
13
13
13
13
13
13
13
13
13
13
13
13
13
13
13
13
13
13
13
13
13
13
13
13
13
13
13
13
13
13
13
13
13
13
13
13
13
13
13
13
13
13
13
13
13
13
13
13
13
13
13
13
13
13
13
13
13
13
13
13
13
13
13
13
13
13
13
13
13
13
13
13
13
13
13
13
13
13
13
13
13
13
13
13
13
13
13
13
13
13
13
13
13
13
13
13
13
13
13
13
13
13
13
13
13
13
13
13
13
13
13
13
13
13
13
13
13
13
13
13
13
13
13
13
13
13
13
13
13
13
13
13
13
13
13
13
13
13
13
13
13
13
13
13
13
13
13
13
13
13
13
13
13
13
13
13
13
13
13
13
13
13
13
13
13
13
13
13
13
13
13
13
13
13
13
13
13
13
13
13
13
13
13
13
13
13
13
13
13
13
13
13
13
13
13
13
13
13
13
13
13
13
13
13
13
13
13
13
13
13
13
13
13
13
13
13
13
13
13
13
13
13
13
13
13
13
13
13
13
13
13
13
13
13
13
13
13
13
13
13
13
13
13
13
13
13
13
13
13
13
13
13
13
13
13
13
13
13
13
13
13
13
13
13
13
13
13
13
13
13
13
13
13
13
13
13
13
13
13
13
13
13
13
13
13
13
13
13
13
13
13
13
13
13
13
13
13
13
13
13
13
13
13
13
13
13
13
13
13
13
13
13
13
13
13
13
13
13
13
13
13
13
13
13
13
13
13
13
13
13
13
13
13
13
13
13
13
13
13
13
13
13
13
13
13
13
13
13
13
13
13
13
13
13
13
13
13
13
13
13
13
13
13
13
13
13
13
13
13
13
13
13
13
13
13
13
13
13
13
13
13
13
13
13
13
13
13
13
13
13
13
13
13
13
13
13
13
13
13
13
13
13
13
13
13
13
13
13
13
13
13
13
13
13
13
13
13
13
13
13
13
13
13
13
13
13
13
13
13
13
13
13
13
13
13
13
13
13
13
13
13
13
13
13
13
13
13
13
13
13
13
13
13
13
13
13
13
13
13
13
13
13
13
13
13
13
13
13
13
13
13
13
13
13
13
13
13
13
13
13
13
13
13
13
13
13
13
13
13
13
13
13
13
13
13
13
13
13
13
13
13
13
13
13
13
13
13
13
13
13
13
13
13
13
13
13
13
13
13
13
13
13
13
13
13
13
13
13
13
13
13
13
13
13
13
13
13
13
13
13
13
13
13
13
13
13
13
13
13
13
13
13
13
13
13
13
13
13
13
13
13
13
13
13
13
13
13
13
13
13
13
13
13
13
13
13
13
13
13
13
13
13
13
13
13
13
13
13
13
13
13
13
13
13
13
13
13
13
13
13
13
13
13
13
13
13
13
13
13
13
13
13
13
13
13
13
13
13
13
13
13
13
13
13
13
13
13
13
13
13
13
13
13
13
13
13
13
13
13
13
13
13
13
13
13
13
13
13
13
13
13
13
13
13
13
13
13
13
13
13
13
13
13
13
13
13
13
13
13
13
13
13
13
13
13
13
13
13
13
13
13
13
13
13
13
13
13
13
13
13
13
13
13
13
13
13
13
13
13
13
13
13
13
13
13
13
13
13
13
13
13
13
13
13
13
13
13
13
13
13
13
13
13
13
13
13
13
13
13
13
13
13
13
13
13
13
13
13
13
13
13
13
13
13
13
13
13
13
13
13
13
13
13
13
13
13
13
13
13
13
13
13
13
13
13
13
13
13
13
13
13
13
13
13
13
13
13
13
13
13
13
13
13
13
13
13
13
13
13
13
13

POINT_DATA 2586
VECTORS displacement float
-6.66165e-10 5.11593e-08 3.20096e-08
3.96528e-09 5.08198e-08 3.20401e-08
-4.26841e-08 3.18012e-08 3.363e-08
-4.22782e-08 3.03076e-08 3.36451e-08
-4.48191e-08 2.79001e-08 3.46154e-08
-4.48656e-08 -2.79271e-08 3.46189e-08
-4.23254e-08 -3.03359e-08 3.36506e-08
-4.27311e-08 -3.18297e-08 3.36359e-08
-6.7007e-10 -5.10578e-08 3.21054e-08
3.95293e-09 -5.08703e-08 3.19549e-08
4.22687e-08 -2.6421e-08 3.19255e-08
4.45736e-08 -2.24576e-08 3.20078e-08
4.46312e-08 2.24854e-08 3.20224e-08
4.23118e-08 2.65142e-08 3.20208e-08
0 0 0
4.33807e-09 5.21327e-08 3.19638e-08
1.97431e-09 5.5118e-08 3.20823e-08
6.57901e-09 1.01922e-07 3.21073e-08
8.55992e-09 1.05203e-07 3.18902e-08
8.2716e-09 1.06969e-07 3.19365e-08
4.71452e-08 1.27167e-07 3.17223e-08
5.33035e-08 1.26987e-07 3.15746e-08
9.15919e-08 1.02161e-07 3.16005e-08
9.44749e-08 9.67429e-08 3.16428e-08
9.16619e-08 5.28915e-08 3.19897e-08
8.81858e-08 4.88641e-08 3.19505e-08
4.69898e-08 2.63833e-08 3.19302e-08
4.98427e-08 7.48494e-08 1.27372e-08
4.72578e-08 2.51257e-08 3.18804e-08
9.34769e-08 4.96935e-08 3.20559e-08
1.31802e-07 2.81869e-08 3.16297e-08
1.34883e-07 2.289e-08 3.16711e-08
1.34848e-07 -2.29371e-08 3.16481e-08
1.31766e-07 -2.82431e-08 3.16111e-08
9.34419e-08 -4.9801e-08 3.18585e-08
8.81816e-08 -4.88394e-08 3.20036e-08
4.69539e-08 -2.64506e-08 3.20162e-08
4.72102e-08 -2.51692e-08 3.19376e-08
9.11398e-08 1.95656e-11 1.27014e-08
9.16442e-08 -5.28938e-08 3.19912e-08
9.44594e-08 -9.67787e-08 3.16809e-08
9.15668e-08 -1.02188e-07 3.16352e-08
5.32696e-08 -1.2698e-07 3.15706e-08
4.71108e-08 -1.27162e-07 3.17193e-08
8.23147e-09 -1.06949e-07 3.19283e-08
8.51856e-09 -1.05183e-07 3.18814e-08
6.52717e-09 -1.01897e-07 3.20933e-08
1.9871e-09 -5.50823e-08 3.20982e-08
4.33708e-09 -5.21608e-08 3.19077e-08
4.97895e-08 -7.52225e-08 1.27383e-08
5.21247e-09 -1.07112e-07 3.20551e-08
-2.74876e-08 -1.36331e-07 3.17107e-08
-3.36326e-08 -1.37098e-07 3.18544e-08
-7.78755e-08 -1.23285e-07 3.18242e-08
-7.79207e-08 -1.21468e-07 3.17761e-08
-8.18238e-08 -1.18113e-07 3.19267e-08
-9.48544e-08 -7.47757e-08 3.41008e-08
-9.28741e-08 -7.07231e-08 3.47303e-08
-9.39778e-08 -6.9467e-08 3.51801e-08
-4.7556e-08 -3.28275e-08 3.46231e-08
-3.65114e-08 -8.31299e-08 1.28472e-08
-1.00569e-07 -7.14797e-08 3.62874e-08
-1.66535e-07 -4.10206e-08 3.84265e-08
-1.66174e-07 -3.93044e-08 3.8421e-08
-1.69708e-07 -3.59339e-08 3.84567e-08
-1.697e-07 3.59192e-08 3.84571e-08
-1.66165e-07 3.92891e-08 3.84214e-08
-1.66525e-07 4.10055e-08 3.84268e-08
-1.00451e-07 7.14374e-08 3.62422e-08
-9.40606e-08 6.94341e-08 3.52395e-08
-4.75147e-08 3.27942e-08 3.46191e-08
-9.98956e-08 -1.10476e-11 3.62405e-08
-9.29398e-08 7.06909e-08 3.47765e-08
-9.48934e-08 7.47513e-08 3.4127e-08
-8.17726e-08 1.18079e-07 3.19283e-08
-7.78708e-08 1.21432e-07 3.17785e-08
-7.78254e-08 1.2325e-07 3.18268e-08
-3.38316e-08 1.37068e-07 3.17185e-08
-2.76874e-08 1.36341e-07 3.18635e-08
5.25411e-09 1.07131e-07 3.2072e-08
-3.64829e-08 8.32242e-08 1.28404e-08
-6.66165e-10 5.11593e-08 -3.20096e-08
3.96528e-09 5.08198e-08 -3.20401e-08
-4.26841e-08 3.18012e-08 -3.363e-08
-4.22782e-08 3.03076e-08 -3.36451e-08
-4.48191e-08 2.79001e-08 -3.46154e-08
-4.48656e-08 -2.79271e-08 -3.46189e-08
-4.23254e-08 -3.03359e-08 -3.36506e-08
-4.27311e-08 -3.18297e-08 -3.36359e-08
-6.7007e-10 -5.10578e-08 -3.21054e-08
3.95293e-09 -5.08703e-08 -3.19549e-08
4.22687e-08 -2.6421e-08 -3.19255e-08
4.45736e-08 -2.24576e-08 -3.20078e-08
4.46312e-08 2.24854e-08 -3.20224e-08
4.23118e-08 2.65142e-08 -3.20208e-08
0 0 0
4.33807e-09 5.21327e-08 -3.19638e-08
1.97431e-09 5.5118e-08 -3.20823e-08
6.57901e-09 1.01922e-07 -3.21073e-08
8.55992e-09 1.05203e-07 -3.18902e-08
8.2716e-09 1.06969e-07 -3.19365e-08
4.71452e-08 1.27167e-07 -3.17223e-08
5.33035e-08 1.26987e-07 -3.15746e-08
9.15919e-08 1.02161e-07 -3.16005e-08
9.44749e-08 9.67429e-08 -3.16428e-08
9.16619e-08 5.28915e-08 -3.19897e-08
8.81858e-08 4.88641e-08 -3.19505e-08
4.69898e-08 2.63833e-08 -3.19302e-08
4.98427e-08 7.48494e-08 -1.27372e-08
4.72578e-08 2.51257e-08 -3.18804e-08
9.34769e-08 4.96935e-08 -3.20559e-08
1.31802e-07 2.81869e-08 -3.16297e-08
1.34883e-07 2.289e-08 -3.16711e-08
1.34848e-07 -2.29371e-08 -3.16481e-08
1.31766e-07 -2.82431e-08 -3.16111e-08
9.34419e-08 -4.9801e-08 -3.18585e-08
8.81816e-08 -4.88394e-08 -3.20036e-08
4.69539e-08 -2.64506e-08 -3.20162e-08
4.72102e-08 -2.51692e-08 -3.19376e-08
9.11398e-08 1.95656e-11 -1.27014e-08
9.16442e-08 -5.28938e-08 -3.19912e-08
9.44594e-08 -9.67787e-08 -3.16809e-08
9.15668e-08 -1.02188e-07 -3.16352e-08
5.32696e-08 -1.2698e-07 -3.15706e-08
4.71108e-08 -1.27162e-07 -3.17193e-08
8.23147e-09 -1.06949e-07 -3.19283e-08
8.51856e-09 -1.05183e-07 -3.18814e-08
6.52717e-09 -1.01897e-07 -3.20933e-08
1.9871e-09 -5.50823e-08 -3.20982e-08
4.33708e-09 -5.21608e-08 -3.19077e-08
4.97895e-08 -7.52225e-08 -1.27383e-08
5.21247e-09 -1.07112e-07 -3.20551e-08
-2.74876e-08 -1.36331e-07 -3.17107e-08
-3.36326e-08 -1.37098e-07 -3.18544e-08
-7.78755e-08 -1.23285e-07 -3.18242e-08
-7.79207e-08 -1.21468e-07 -3.17761e-08
-8.18238e-08 -1.18113e-07 -3.19267e-08
-9.48544e-08 -7.47757e-08 -3.41008e-08
-9.28741e-08 -7.07231e-08 -3.47303e-08
-9.39778e-08 -6.9467e-08 -3.51801e-08
-4.7556e-08 -3.28275e-08 -3.46231e-08
-3.65114e-08 -8.31299e-08 -1.28472e-08
-1.00569e-07 -7.14797e-08 -3.62874e-08
-1.66535e-07 -4.10206e-08 -3.84265e-08
-1.66174e-07 -3.93044e-08 -3.8421e-08
-1.69708e-07 -3.59339e-08 -3.84567e-08
-1.697e-07 3.59192e-08 -3.84571e-08
-1.66165e-07 3.92891e-08 -3.84214e-08
-1.66525e-07 4.10055e-08 -3.84268e-08
-1.00451e-07 7.14374e-08 -3.62422e-08
-9.40606e-08 6.94341e-08 -3.52395e-08
-4.75147e-08 3.27942e-08 -3.46191e-08
-9.98956e-08 -1.10476e-11 -3.62405e-08
-9.29398e-08 7.06909e-08 -3.47765e-08
-9.48934e-08 7.47513e-08 -3.4127e-08
-8.17726e-08 1.18079e-07 -3.19283e-08
-7.78708e-08 1.21432e-07 -3.17785e-08
-7.78254e-08 1.2325e-07 -3.18268e-08
-3.38316e-08 1.37068e-07 -3.17185e-08
-2.76874e-08 1.36341e-07 -3.18635e-08
5.25411e-09 1.07131e-07 -3.2072e-08
-3.64829e-08 8.32242e-08 -1.28404e-08
1.60296e-09 4.98003e-08 3.18847e-08
-3.28116e-08 3.64354e-08 3.08569e-08
-2.50679e-08 3.97385e-08 2.86472e-08
-1.79093e-08 4.28664e-08 2.83922e-08
-1.03378e-08 4.62896e-08 3.00459e-08
-4.23501e-08 3.1035e-08 3.36503e-08
-4.30133e-08 2.85299e-08 3.40006e-08
-4.49198e-08 -1.57449e-08 3.36251e-08
-4.47514e-08 -5.13054e-09 3.27574e-08
-4.47293e-08 5.10945e-09 3.27262e-08
-4.48911e-08 1.57194e-08 3.3635e-08
-4.30604e-08 -2.85577e-08 3.4005e-08
-4.23973e-08 -3.10635e-08 3.36562e-08
-1.03235e-08 -4.62947e-08 3.00361e-08
-1.79392e-08 -4.28518e-08 2.84876e-08
-2.51127e-08 -3.97476e-08 2.86638e-08
-3.28589e-08 -3.6458e-08 3.08662e-08
1.55584e-09 -4.9771e-08 3.18904e-08
3.31115e-08 -3.19667e-08 2.98285e-08
2.61801e-08 -3.61886e-08 2.79865e-08
1.9803e-08 -4.02938e-08 2.79909e-08
1.29704e-08 -4.47658e-08 2.98525e-08
4.22786e-08 -2.38386e-08 3.18833e-08
4.42527e-08 1.18257e-08 2.98047e-08
4.41841e-08 3.7375e-09 2.80178e-08
4.41546e-08 -3.73283e-09 2.80859e-08
4.42452e-08 -1.1808e-08 2.97779e-08
4.23365e-08 2.38949e-08 3.19266e-08
1.29727e-08 4.48243e-08 2.9827e-08
1.98267e-08 4.03376e-08 2.80784e-08
2.62246e-08 3.62456e-08 2.80776e-08
3.31771e-08 3.19695e-08 2.98144e-08
0 0 0
0 0 0
0 0 0
4.31214e-09 5.15102e-08 3.2045e-08
3.56736e-09 5.39617e-08 3.19074e-08
2.634e-09 6.59738e-08 2.99009e-08
3.5272e-09 7.42898e-08 2.8241e-08
4.49201e-09 8.20563e-08 2.81828e-08
5.42297e-09 9.05728e-08 2.99459e-08
7.90753e-09 1.02979e-07 3.18997e-08
8.48596e-09 1.06101e-07 3.19486e-08
1.90162e-08 1.09437e-07 3.0035e-08
2.65124e-08 1.10822e-07 2.85258e-08
3.2426e-08 1.13998e-07 2.85382e-08
3.84075e-08 1.19451e-07 2.9878e-08
5.0052e-08 1.25718e-07 3.15198e-08
6.14474e-08 1.18548e-07 2.99212e-08
6.7127e-08 1.12316e-07 2.83747e-08
7.29102e-08 1.08453e-07 2.84047e-08
8.05753e-08 1.05984e-07 2.9806e-08
9.18515e-08 9.87401e-08 3.15441e-08
9.12519e-08 8.53128e-08 2.98378e-08
8.8437e-08 7.75265e-08 2.85902e-08
8.78959e-08 7.07618e-08 2.85364e-08
8.94301e-08 6.33164e-08 3.00983e-08
8.8777e-08 5.14137e-08 3.18935e-08
5.65077e-08 3.17491e-08 2.98726e-08
6.38053e-08 3.56173e-08 2.80397e-08
7.06637e-08 3.92951e-08 2.80633e-08
7.81959e-08 4.33299e-08 2.98907e-08
4.46739e-08 2.75712e-08 3.18403e-08
4.76166e-08 7.82915e-08 1.29238e-08
4.39369e-08 7.53242e-08 1.27777e-08
4.6695e-08 7.21148e-08 1.26095e-08
4.63102e-08 2.34691e-08 3.18498e-08
4.72956e-08 2.57071e-08 3.19466e-08
9.06667e-08 4.80446e-08 3.1861e-08
1.01122e-07 4.21546e-08 3.00914e-08
1.06653e-07 3.67424e-08 2.86292e-08
1.12584e-07 3.34491e-08 2.84899e-08
1.20508e-07 3.15221e-08 2.98471e-08
1.32188e-07 2.47718e-08 3.15749e-08
1.32211e-07 1.14427e-08 2.98631e-08
1.30111e-07 3.43842e-09 2.84002e-08
1.30016e-07 -3.57565e-09 2.85233e-08
1.32215e-07 -1.14751e-08 2.98194e-08
1.32157e-07 -2.48213e-08 3.15525e-08
1.20461e-07 -3.15807e-08 2.98437e-08
1.1253e-07 -3.34928e-08 2.84847e-08
1.06592e-07 -3.67143e-08 2.85181e-08
1.01072e-07 -4.21617e-08 3.01492e-08
9.05153e-08 -4.81428e-08 3.18038e-08
5.6452e-08 -3.17199e-08 2.98508e-08
6.37636e-08 -3.56217e-08 2.81327e-08
7.06342e-08 -3.93018e-08 2.81469e-08
7.81707e-08 -4.3337e-08 2.985e-08
4.72519e-08 -2.57639e-08 3.20214e-08
4.62512e-08 -2.34709e-08 3.18597e-08
8.83058e-08 2.82161e-09 1.28084e-08
8.47811e-08 1.98268e-10 1.29012e-08
8.79995e-08 -2.98466e-09 1.28275e-08
4.46871e-08 -2.75526e-08 3.18362e-08
8.87629e-08 -5.14049e-08 3.19037e-08
8.94273e-08 -6.3336e-08 3.00546e-08
8.77856e-08 -7.07082e-08 2.86679e-08
8.85093e-08 -7.74449e-08 2.84722e-08
9.12132e-08 -8.53523e-08 2.98938e-08
9.18287e-08 -9.87709e-08 3.15822e-08
8.0533e-08 -1.05973e-07 2.98369e-08
7.28598e-08 -1.08455e-07 2.84184e-08
6.70794e-08 -1.12304e-07 2.83545e-08
6.14104e-08 -1.18539e-07 2.99109e-08
5.00176e-08 -1.25712e-07 3.15162e-08
3.8368e-08 -1.19447e-07 2.98801e-08
3.23841e-08 -1.13982e-07 2.85427e-08
2.64767e-08 -1.10799e-07 2.85275e-08
1.89827e-08 -1.09415e-07 3.00325e-08
8.44546e-09 -1.06082e-07 3.19402e-08
7.86169e-09 -1.02957e-07 3.18885e-08
2.60883e-09 -6.59523e-08 2.99277e-08
3.52965e-09 -7.42899e-08 2.8176e-08
4.43953e-09 -8.20488e-08 2.82496e-08
5.40707e-09 -9.05544e-08 2.99212e-08
3.57896e-09 -5.39521e-08 3.18988e-08
4.30734e-09 -5.15508e-08 3.19711e-08
4.69078e-08 -7.19568e-08 1.28734e-08
4.39047e-08 -7.51512e-08 1.2777e-08
4.73399e-08 -7.81498e-08 1.26626e-08
-3.96164e-10 -5.37772e-08 3.20281e-08
4.76576e-09 -1.03803e-07 3.20026e-08
-4.27033e-09 -1.1119e-07 3.01957e-08
-1.06402e-08 -1.1435e-07 2.87084e-08
-1.53708e-08 -1.19226e-07 2.86057e-08
-2.01522e-08 -1.26657e-07 3.00952e-08
-3.09024e-08 -1.35356e-07 3.16553e-08
-4.30636e-08 -1.30664e-07 3.00234e-08
-4.98108e-08 -1.26561e-07 2.86862e-08
-5.66691e-08 -1.24751e-07 2.86386e-08
-6.54431e-08 -1.24633e-07 3.00516e-08
-7.77811e-08 -1.22378e-07 3.18352e-08
-7.94602e-08 -1.19133e-07 3.17597e-08
-8.10775e-08 -1.06729e-07 3.02809e-08
-8.10608e-08 -9.90307e-08 2.92134e-08
-8.33999e-08 -9.23534e-08 2.96026e-08
-8.82802e-08 -8.51375e-08 3.14633e-08
-9.29611e-08 -7.292e-08 3.41228e-08
-9.33156e-08 -7.00499e-08 3.50044e-08
-5.76129e-08 -4.03338e-08 3.37503e-08
-6.64045e-08 -4.71048e-08 3.29332e-08
-7.50395e-08 -5.37505e-08 3.29745e-08
-8.40696e-08 -6.07531e-08 3.40053e-08
-4.51623e-08 -3.36427e-08 3.3879e-08
-3.99321e-08 -8.07959e-08 1.32791e-08
-4.27562e-08 -8.52751e-08 1.32828e-08
-3.89659e-08 -8.72399e-08 1.29032e-08
-4.72971e-08 -2.99038e-08 3.4883e-08
-9.78055e-08 -6.91033e-08 3.59297e-08
-1.14662e-07 -6.61393e-08 3.6866e-08
-1.27897e-07 -6.02123e-08 3.71841e-08
-1.40814e-07 -5.40022e-08 3.75581e-08
-1.53613e-07 -4.76128e-08 3.80318e-08
-1.6624e-07 -4.01906e-08 3.84295e-08
-1.6729e-07 -3.69047e-08 3.84268e-08
-1.69944e-07 -2.14409e-08 3.8232e-08
-1.70068e-07 -7.14543e-09 3.80653e-08
-1.70067e-07 7.1278e-09 3.80643e-08
-1.6994e-07 2.14241e-08 3.82321e-08
-1.67282e-07 3.68894e-08 3.84271e-08
-1.6623e-07 4.01754e-08 3.84298e-08
-1.53598e-07 4.7594e-08 3.80323e-08
-1.40796e-07 5.39739e-08 3.7555e-08
-1.27889e-07 6.01894e-08 3.7168e-08
-1.14659e-07 6.61447e-08 3.68732e-08
-9.76798e-08 6.90591e-08 3.58988e-08
-5.75754e-08 4.02896e-08 3.37503e-08
-6.63723e-08 4.7053e-08 3.29402e-08
-7.50114e-08 5.36956e-08 3.30124e-08
-8.40418e-08 6.07173e-08 3.40049e-08
-4.72612e-08 2.98727e-08 3.48804e-08
-1.05796e-07 6.06098e-09 3.65279e-08
-1.11883e-07 -6.33309e-12 3.68435e-08
-1.05788e-07 -6.08456e-09 3.6542e-08
-4.5118e-08 3.36116e-08 3.38735e-08
-9.33929e-08 7.00142e-08 3.50581e-08
-9.30045e-08 7.28914e-08 3.41526e-08
-8.82956e-08 8.51092e-08 3.14787e-08
-8.33952e-08 9.23509e-08 2.96071e-08
-8.10295e-08 9.90246e-08 2.92229e-08
-8.10339e-08 1.067e-07 3.02816e-08
-7.94098e-08 1.19098e-07 3.17616e-08
-7.77312e-08 1.22343e-07 3.18377e-08
-6.53978e-08 1.24586e-07 3.0059e-08
-5.66246e-08 1.24703e-07 2.86371e-08
-4.9791e-08 1.26419e-07 2.85772e-08
-4.30431e-08 1.30605e-07 3.00951e-08
-3.08484e-08 1.35345e-07 3.16637e-08
-2.01375e-08 1.26684e-07 3.00405e-08
-1.53534e-08 1.1935e-07 2.87279e-08
-1.06017e-08 1.14394e-07 2.87267e-08
-4.2222e-09 1.11213e-07 3.02081e-08
4.80152e-09 1.03825e-07 3.20212e-08
-4.10231e-10 5.38404e-08 3.19831e-08
-3.85987e-08 8.73453e-08 1.31116e-08
-4.2725e-08 8.48484e-08 1.32878e-08
-4.02206e-08 8.0923e-08 1.30671e-08
1.60296e-09 4.98003e-08 -3.18847e-08
-3.28116e-08 3.64354e-08 -3.08569e-08
-2.50679e-08 3.97385e-08 -2.86472e-08
-1.79093e-08 4.28664e-08 -2.83922e-08
-1.03378e-08 4.62896e-08 -3.00459e-08
-4.23501e-08 3.1035e-08 -3.36503e-08
-4.30133e-08 2.85299e-08 -3.40006e-08
-4.49198e-08 -1.57449e-08 -3.36251e-08
-4.47514e-08 -5.13054e-09 -3.27574e-08
-4.47293e-08 5.10945e-09 -3.27262e-08
-4.48911e-08 1.57194e-08 -3.3635e-08
-4.30604e-08 -2.85577e-08 -3.4005e-08
-4.23973e-08 -3.10635e-08 -3.36562e-08
-1.03235e-08 -4.62947e-08 -3.00361e-08
-1.79392e-08 -4.28518e-08 -2.84876e-08
-2.51127e-08 -3.97476e-08 -2.86638e-08
-3.28589e-08 -3.6458e-08 -3.08662e-08
1.55584e-09 -4.9771e-08 -3.18904e-08
3.31115e-08 -3.19667e-08 -2.98285e-08
2.61801e-08 -3.61886e-08 -2.79865e-08
1.9803e-08 -4.02938e-08 -2.79909e-08
1.29704e-08 -4.47658e-08 -2.98525e-08
4.22786e-08 -2.38386e-08 -3.18833e-08
4.42527e-08 1.18257e-08 -2.98047e-08
4.41841e-08 3.7375e-09 -2.80178e-08
4.41546e-08 -3.73283e-09 -2.80859e-08
4.42452e-08 -1.1808e-08 -2.97779e-08
4.23365e-08 2.38949e-08 -3.19266e-08
1.29727e-08 4.48243e-08 -2.9827e-08
1.98267e-08 4.03376e-08 -2.80784e-08
2.62246e-08 3.62456e-08 -2.80776e-08
3.31771e-08 3.19695e-08 -2.98144e-08
0 0 0
0 0 0
0 0 0
4.31214e-09 5.15102e-08 -3.2045e-08
3.56736e-09 5.39617e-08 -3.19074e-08
2.634e-09 6.59738e-08 -2.99009e-08
3.5272e-09 7.42898e-08 -2.8241e-08
4.49201e-09 8.20563e-08 -2.81828e-08
5.42297e-09 9.05728e-08 -2.99459e-08
7.90753e-09 1.02979e-07 -3.18997e-08
8.48596e-09 1.06101e-07 -3.19486e-08
1.90162e-08 1.09437e-07 -3.0035e-08
2.65124e-08 1.10822e-07 -2.85258e-08
3.2426e-08 1.13998e-07 -2.85382e-08
3.84075e-08 1.19451e-07 -2.9878e-08
5.0052e-08 1.25718e-07 -3.15198e-08
6.14474e-08 1.18548e-07 -2.99212e-08
6.7127e-08 1.12316e-07 -2.83747e-08
7.29102e-08 1.08453e-07 -2.84047e-08
8.05753e-08 1.05984e-07 -2.9806e-08
9.18515e-08 9.87401e-08 -3.15441e-08
9.12519e-08 8.53128e-08 -2.98378e-08
8.8437e-08 7.75265e-08 -2.85902e-08
8.78959e-08 7.07618e-08 -2.85364e-08
8.94301e-08 6.33164e-08 -3.00983e-08
8.8777e-08 5.14137e-08 -3.18935e-08
5.65077e-08 3.17491e-08 -2.98726e-08
6.38053e-08 3.56173e-08 -2.80397e-08
7.06637e-08 3.92951e-08 -2.80633e-08
7.81959e-08 4.33299e-08 -2.98907e-08
4.46739e-08 2.75712e-08 -3.18403e-08
4.76166e-08 7.82915e-08 -1.29238e-08
4.39369e-08 7.53242e-08 -1.27777e-08
4.6695e-08 7.21148e-08 -1.26095e-08
4.63102e-08 2.34691e-08 -3.18498e-08
4.72956e-08 2.57071e-08 -3.19466e-08
9.06667e-08 4.80446e-08 -3.1861e-08
1.01122e-07 4.21546e-08 -3.00914e-08
1.06653e-07 3.67424e-08 -2.86292e-08
1.12584e-07 3.34491e-08 -2.84899e-08
1.20508e-07 3.15221e-08 -2.98471e-08
1.32188e-07 2.47718e-08 -3.15749e-08
1.32211e-07 1.14427e-08 -2.98631e-08
1.30111e-07 3.43842e-09 -2.84002e-08
1.30016e-07 -3.57565e-09 -2.85233e-08
1.32215e-07 -1.14751e-08 -2.98194e-08
1.32157e-07 -2.48213e-08 -3.15525e-08
1.20461e-07 -3.15807e-08 -2.98437e-08
1.1253e-07 -3.34928e-08 -2.84847e-08
1.06592e-07 -3.67143e-08 -2.85181e-08
1.01072e-07 -4.21617e-08 -3.01492e-08
9.05153e-08 -4.81428e-08 -3.18038e-08
5.6452e-08 -3.17199e-08 -2.98508e-08
6.37636e-08 -3.56217e-08 -2.81327e-08
7.06342e-08 -3.93018e-08 -2.81469e-08
7.81707e-08 -4.3337e-08 -2.985e-08
4.72519e-08 -2.57639e-08 -3.20214e-08
4.62512e-08 -2.34709e-08 -3.18597e-08
8.83058e-08 2.82161e-09 -1.28084e-08
8.47811e-08 1.98268e-10 -1.29012e-08
8.79995e-08 -2.98466e-09 -1.28275e-08
4.46871e-08 -2.75526e-08 -3.18362e-08
8.87629e-08 -5.14049e-08 -3.19037e-08
8.94273e-08 -6.3336e-08 -3.00546e-08
8.77856e-08 -7.07082e-08 -2.86679e-08
8.85093e-08 -7.74449e-08 -2.84722e-08
9.12132e-08 -8.53523e-08 -2.98938e-08
9.18287e-08 -9.87709e-08 -3.15822e-08
8.0533e-08 -1.05973e-07 -2.98369e-08
7.28598e-08 -1.08455e-07 -2.84184e-08
6.70794e-08 -1.12304e-07 -2.83545e-08
6.14104e-08 -1.18539e-07 -2.99109e-08
5.00176e-08 -1.25712e-07 -3.15162e-08
3.8368e-08 -1.19447e-07 -2.98801e-08
3.23841e-08 -1.13982e-07 -2.85427e-08
2.64767e-08 -1.10799e-07 -2.85275e-08
1.89827e-08 -1.09415e-07 -3.00325e-08
8.44546e-09 -1.06082e-07 -3.19402e-08
7.86169e-09 -1.02957e-07 -3.18885e-08
2.60883e-09 -6.59523e-08 -2.99277e-08
3.52965e-09 -7.42899e-08 -2.8176e-08
4.43953e-09 -8.20488e-08 -2.82496e-08
5.40707e-09 -9.05544e-08 -2.99212e-08
3.57896e-09 -5.39521e-08 -3.18988e-08
4.30734e-09 -5.15508e-08 -3.19711e-08
4.69078e-08 -7.19568e-08 -1.28734e-08
4.39047e-08 -7.51512e-08 -1.2777e-08
4.73399e-08 -7.81498e-08 -1.26626e-08
-3.96164e-10 -5.37772e-08 -3.20281e-08
4.76576e-09 -1.03803e-07 -3.20026e-08
-4.27033e-09 -1.1119e-07 -3.01957e-08
-1.06402e-08 -1.1435e-07 -2.87084e-08
-1.53708e-08 -1.19226e-07 -2.86057e-08
-2.01522e-08 -1.26657e-07 -3.00952e-08
-3.09024e-08 -1.35356e-07 -3.16553e-08
-4.30636e-08 -1.30664e-07 -3.00234e-08
-4.98108e-08 -1.26561e-07 -2.86862e-08
-5.66691e-08 -1.24751e-07 -2.86386e-08
-6.54431e-08 -1.24633e-07 -3.00516e-08
-7.77811e-08 -1.22378e-07 -3.18352e-08
-7.94602e-08 -1.19133e-07 -3.17597e-08
-8.10775e-08 -1.06729e-07 -3.02809e-08
-8.10608e-08 -9.90307e-08 -2.92134e-08
-8.33999e-08 -9.23534e-08 -2.96026e-08
-8.82802e-08 -8.51375e-08 -3.14633e-08
-9.29611e-08 -7.292e-08 -3.41228e-08
-9.33156e-08 -7.00499e-08 -3.50044e-08
-5.76129e-08 -4.03338e-08 -3.37503e-08
-6.64045e-08 -4.71048e-08 -3.29332e-08
-7.50395e-08 -5.37505e-08 -3.29745e-08
-8.40696e-08 -6.07531e-08 -3.40053e-08
-4.51623e-08 -3.36427e-08 -3.3879e-08
-3.99321e-08 -8.07959e-08 -1.32791e-08
-4.27562e-08 -8.52751e-08 -1.32828e-08
-3.89659e-08 -8.72399e-08 -1.29032e-08
-4.72971e-08 -2.99038e-08 -3.4883e-08
-9.78055e-08 -6.91033e-08 -3.59297e-08
-1.14662e-07 -6.61393e-08 -3.6866e-08
-1.27897e-07 -6.02123e-08 -3.71841e-08
-1.40814e-07 -5.40022e-08 -3.75581e-08
-1.53613e-07 -4.76128e-08 -3.80318e-08
-1.6624e-07 -4.01906e-08 -3.84295e-08
-1.6729e-07 -3.69047e-08 -3.84268e-08
-1.69944e-07 -2.14409e-08 -3.8232e-08
-1.70068e-07 -7.14543e-09 -3.80653e-08
-1.70067e-07 7.1278e-09 -3.80643e-08
-1.6994e-07 2.14241e-08 -3.82321e-08
-1.67282e-07 3.68894e-08 -3.84271e-08
-1.6623e-07 4.01754e-08 -3.84298e-08
-1.53598e-07 4.7594e-08 -3.80323e-08
-1.40796e-07 5.39739e-08 -3.7555e-08
-1.27889e-07 6.01894e-08 -3.7168e-08
-1.14659e-07 6.61447e-08 -3.68732e-08
-9.76798e-08 6.90591e-08 -3.58988e-08
-5.75754e-08 4.02896e-08 -3.37503e-08
-6.63723e-08 4.7053e-08 -3.29402e-08
-7.50114e-08 5.36956e-08 -3.30124e-08
-8.40418e-08 6.07173e-08 -3.40049e-08
-4.72612e-08 2.98727e-08 -3.48804e-08
-1.05796e-07 6.06098e-09 -3.65279e-08
-1.11883e-07 -6.33309e-12 -3.68435e-08
-1.05788e-07 -6.08456e-09 -3.6542e-08
-4.5118e-08 3.36116e-08 -3.38735e-08
-9.33929e-08 7.00142e-08 -3.50581e-08
-9.30045e-08 7.28914e-08 -3.41526e-08
-8.82956e-08 8.51092e-08 -3.14787e-08
-8.33952e-08 9.23509e-08 -2.96071e-08
-8.10295e-08 9.90246e-08 -2.92229e-08
-8.10339e-08 1.067e-07 -3.02816e-08
-7.94098e-08 1.19098e-07 -3.17616e-08
-7.77312e-08 1.22343e-07 -3.18377e-08
-6.53978e-08 1.24586e-07 -3.0059e-08
-5.66246e-08 1.24703e-07 -2.86371e-08
-4.9791e-08 1.26419e-07 -2.85772e-08
-4.30431e-08 1.30605e-07 -3.00951e-08
-3.08484e-08 1.35345e-07 -3.16637e-08
-2.01375e-08 1.26684e-07 -3.00405e-08
-1.53534e-08 1.1935e-07 -2.87279e-08
-1.06017e-08 1.14394e-07 -2.87267e-08
-4.2222e-09 1.11213e-07 -3.02081e-08
4.80152e-09 1.03825e-07 -3.20212e-08
-4.10231e-10 5.38404e-08 -3.19831e-08
-3.85987e-08 8.73453e-08 -1.31116e-08
-4.2725e-08 8.48484e-08 -1.32878e-08
-4.02206e-08 8.0923e-08 -1.30671e-08
1.32474e-08 -1.27822e-08 2.15974e-08
1.33752e-08 1.35047e-08 2.18998e-08
-1.28518e-08 1.49402e-08 2.25188e-08
-1.29344e-08 -1.49729e-08 2.25636e-08
-2.97525e-08 -2.28915e-08 3.03335e-08
-2.97026e-08 2.2859e-08 3.03225e-08
1.22665e-10 1.63804e-08 2.04116e-08
-1.5054e-08 4.23856e-10 2.08308e-08
1.47077e-08 -4.6569e-10 1.94361e-08
-4.50936e-11 -1.63595e-08 2.04076e-08
-3.55455e-08 2.45492e-08 3.23037e-08
-3.55939e-08 -2.45791e-08 3.23108e-08
2.74555e-08 1.48796e-08 2.7541e-08
2.87994e-08 -1.54087e-08 2.80305e-08
5.54293e-11 -3.30634e-08 2.80103e-08
1.5572e-09 3.30031e-08 2.79953e-08
1.06117e-08 2.57674e-08 2.54908e-08
-9.53098e-09 -2.69959e-08 2.57714e-08
-2.76043e-08 7.78243e-09 2.79618e-08
-2.81116e-08 -7.65902e-09 2.8155e-08
1.05484e-08 -2.67581e-08 2.57243e-08
-9.40376e-09 2.81897e-08 2.60707e-08
4.80921e-09 -4.82628e-09 1.26714e-08
5.47478e-09 6.08647e-09 1.41061e-08
-5.36727e-09 5.26211e-09 1.36591e-08
-5.69276e-09 -5.61449e-09 1.4162e-08
-3.70871e-08 2.92303e-08 3.26823e-08
-3.71349e-08 -2.92579e-08 3.2689e-08
-2.04494e-08 2.55917e-08 2.73934e-08
-2.05004e-08 -2.55284e-08 2.73926e-08
2.90249e-08 -4.30326e-09 2.60667e-08
2.74841e-08 5.01274e-09 2.56472e-08
-2.1785e-08 -1.40575e-08 2.62981e-08
-2.17208e-08 1.40201e-08 2.62717e-08
4.75013e-09 -4.02717e-08 3.00945e-08
-2.46416e-09 4.07298e-08 3.01685e-08
2.10265e-08 -2.29869e-08 2.66835e-08
2.10041e-08 2.2531e-08 2.66241e-08
1.5331e-09 8.51757e-09 1.4559e-08
1.17384e-09 -8.26129e-09 1.42273e-08
-8.03679e-09 -1.51154e-09 1.4905e-08
7.77488e-09 -9.33383e-10 1.38226e-08
-3.67513e-08 1.6514e-08 3.194e-08
-3.67951e-08 -1.65422e-08 3.19463e-08
1.92643e-08 -7.23129e-09 2.28522e-08
3.13501e-08 2.27158e-08 2.97273e-08
3.15127e-08 -2.28248e-08 2.97721e-08
1.80197e-08 7.35639e-09 2.22782e-08
-5.99597e-09 1.45046e-08 1.99851e-08
-5.74935e-09 -1.417e-08 1.97224e-08
-1.27182e-08 6.47521e-09 1.99765e-08
6.79595e-09 -1.25953e-08 1.91339e-08
7.04149e-09 1.2769e-08 1.92734e-08
-1.18228e-08 -5.94945e-09 1.91962e-08
-8.83179e-09 -3.54258e-08 2.81738e-08
1.0454e-08 3.42499e-08 2.79494e-08
5.37365e-09 4.17014e-08 3.04467e-08
-2.95942e-09 -4.21696e-08 3.05276e-08
-3.96014e-08 2.15721e-08 3.32036e-08
-3.96454e-08 -2.1601e-08 3.32064e-08
-3.47439e-08 1.93796e-10 3.01324e-08
3.83405e-08 -1.72643e-08 3.07037e-08
3.85218e-08 1.71209e-08 3.07203e-08
7.51644e-09 -3.36037e-08 2.79984e-08
-5.83576e-09 3.45977e-08 2.82132e-08
3.03634e-09 -2.48586e-08 2.48664e-08
-2.045e-09 2.518e-08 2.49426e-08
1.07964e-08 3.89111e-09 1.72713e-08
4.23311e-09 2.53612e-08 2.51001e-08
-3.22492e-09 -2.57687e-08 2.52014e-08
1.84603e-08 2.95173e-08 2.69248e-08
1.13133e-08 -5.67157e-09 1.81401e-08
-1.73312e-08 -3.20166e-08 2.74624e-08
3.4295e-08 8.91126e-09 2.80465e-08
3.48831e-08 -9.92361e-09 2.83327e-08
-3.11157e-08 2.87605e-08 3.08913e-08
-3.11631e-08 -2.8788e-08 3.08995e-08
-1.99673e-08 -6.6645e-09 2.43577e-08
-2.91961e-08 -1.56299e-08 2.94687e-08
-2.9109e-08 1.56063e-08 2.94388e-08
-4.11343e-08 2.88513e-08 3.35924e-08
-4.07185e-08 2.58812e-08 3.36544e-08
-4.11816e-08 -2.88795e-08 3.35977e-08
-4.07652e-08 -2.59096e-08 3.36586e-08
1.88737e-08 -2.96698e-08 2.70245e-08
-2.32828e-08 2.07976e-08 2.78152e-08
-2.33399e-08 -2.08272e-08 2.78324e-08
-2.1542e-09 4.58755e-08 3.12604e-08
4.93824e-09 -4.54319e-08 3.11963e-08
-1.7724e-08 3.23175e-08 2.75946e-08
-1.99515e-08 6.93515e-09 2.43691e-08
-2.42116e-08 4.55135e-10 2.60988e-08
3.36841e-08 1.54772e-09 2.67602e-08
1.43382e-08 2.0376e-08 2.43927e-08
3.7138e-08 2.43719e-08 3.12321e-08
3.71021e-08 -2.43956e-08 3.11982e-08
1.37782e-08 -2.00845e-08 2.41613e-08
2.02896e-08 1.4853e-08 2.49982e-08
-1.28511e-08 -2.17992e-08 2.47225e-08
-9.15791e-10 4.35583e-09 9.60791e-09
-1.45819e-09 -4.5072e-09 1.01051e-08
-4.14949e-09 1.08455e-09 9.91766e-09
4.34154e-09 1.65092e-09 1.02206e-08
-1.29573e-08 2.21686e-08 2.48304e-08
2.07779e-08 -1.52868e-08 2.52601e-08
-3.67436e-08 9.76039e-09 3.1221e-08
-3.7001e-08 -9.66442e-09 3.12814e-08
1.68019e-09 -1.74077e-09 5.97893e-09
5.90719e-09 1.93495e-08 2.24578e-08
1.89493e-09 3.88413e-09 9.23102e-09
-3.40705e-09 -1.95032e-09 8.95013e-09
1.3993e-08 -3.48542e-08 2.77451e-08
6.31668e-09 -1.98163e-08 2.27344e-08
2.32283e-08 3.17015e-10 2.37553e-08
-6.20176e-09 -2.07782e-08 2.30984e-08
1.05627e-08 8.26208e-09 1.8578e-08
-3.39983e-08 2.03698e-08 3.15552e-08
-3.40522e-08 -2.03995e-08 3.15657e-08
-2.56075e-08 -3.17162e-08 2.91088e-08
-2.54651e-08 3.13991e-08 2.90844e-08
-5.96395e-09 2.10381e-08 2.31925e-08
2.49098e-08 9.5683e-09 2.5567e-08
-1.24551e-08 3.60273e-08 2.79614e-08
2.55198e-08 2.0544e-08 2.774e-08
2.56572e-08 -2.07509e-08 2.77921e-08
2.62054e-08 -9.95558e-09 2.60952e-08
-1.89483e-09 1.99774e-09 6.5538e-09
-2.34511e-09 9.86621e-09 1.5894e-08
-2.41405e-09 -9.8776e-09 1.58993e-08
-8.65011e-09 2.30803e-09 1.56591e-08
-8.7219e-09 1.04374e-08 1.88613e-08
-8.54149e-09 -1.07409e-08 1.89289e-08
-1.76669e-08 -1.88557e-08 2.54115e-08
8.81058e-09 -8.75648e-09 1.78393e-08
-1.76112e-08 1.88683e-08 2.53935e-08
-2.58907e-08 2.58788e-08 2.91274e-08
-2.59589e-08 -2.59478e-08 2.91433e-08
-1.55714e-08 1.1744e-08 2.29537e-08
-1.58532e-08 -1.16648e-08 2.30718e-08
9.21126e-10 -3.44965e-09 8.22516e-09
3.30282e-09 -8.72118e-10 8.10213e-09
2.68265e-08 2.76605e-08 2.84668e-08
2.68138e-08 -2.76684e-08 2.84561e-08
1.86292e-09 4.49031e-08 3.12425e-08
8.59476e-10 -4.49379e-08 3.12564e-08
5.90006e-08 6.16575e-08 2.26545e-08
6.12274e-08 8.73725e-08 2.28095e-08
3.60339e-08 8.90357e-08 2.27927e-08
3.32456e-08 6.25407e-08 2.26096e-08
2.03453e-08 9.67271e-08 2.91497e-08
1.68058e-08 5.73401e-08 2.90284e-08
4.83115e-08 9.07703e-08 2.14277e-08
3.23553e-08 7.65153e-08 2.08848e-08
6.16709e-08 7.4458e-08 2.10844e-08
4.59664e-08 5.96075e-08 2.12889e-08
1.48503e-08 9.8811e-08 3.06939e-08
1.11426e-08 5.66914e-08 3.06528e-08
7.66195e-08 8.99125e-08 2.82233e-08
7.29694e-08 5.97628e-08 2.7862e-08
4.44574e-08 4.3883e-08 2.80346e-08
4.88186e-08 1.07595e-07 2.80863e-08
4.01406e-08 1.00455e-07 2.59522e-08
3.56081e-08 5.06922e-08 2.56985e-08
2.1035e-08 8.34626e-08 2.6224e-08
1.92679e-08 7.06767e-08 2.62989e-08
5.82194e-08 1.00505e-07 2.61684e-08
5.54245e-08 4.90704e-08 2.59476e-08
5.17867e-08 6.89527e-08 1.68903e-08
5.31236e-08 8.09225e-08 1.70755e-08
4.22559e-08 8.03956e-08 1.65781e-08
4.12995e-08 7.02104e-08 1.64048e-08
1.36011e-08 1.03472e-07 3.1239e-08
9.43459e-09 5.24896e-08 3.12261e-08
2.96297e-08 9.84337e-08 2.70891e-08
2.53572e-08 5.35112e-08 2.67976e-08
7.49272e-08 7.89885e-08 2.66062e-08
7.27451e-08 6.94282e-08 2.62158e-08
2.49173e-08 6.43993e-08 2.53825e-08
2.73011e-08 8.84927e-08 2.54976e-08
4.85725e-08 3.66169e-08 3.00986e-08
5.31762e-08 1.15321e-07 2.99981e-08
6.87951e-08 9.65349e-08 2.70652e-08
6.54665e-08 5.35607e-08 2.65149e-08
4.93699e-08 8.34086e-08 1.72832e-08
4.50234e-08 6.69174e-08 1.70464e-08
3.88107e-08 7.45524e-08 1.7024e-08
5.53759e-08 7.43034e-08 1.73434e-08
1.30851e-08 9.13635e-08 2.95548e-08
1.03553e-08 6.41015e-08 2.95151e-08
6.61526e-08 8.24364e-08 2.37082e-08
8.00799e-08 9.71686e-08 2.97554e-08
7.69594e-08 5.22894e-08 2.98363e-08
6.44137e-08 6.78864e-08 2.32994e-08
4.28276e-08 8.85239e-08 2.07581e-08
5.18398e-08 6.18041e-08 2.05604e-08
3.52549e-08 8.16408e-08 2.04875e-08
5.48289e-08 8.71571e-08 2.06103e-08
3.98243e-08 6.27833e-08 2.04663e-08
3.50388e-08 7.06824e-08 1.97729e-08
3.55695e-08 4.24073e-08 2.80238e-08
4.09433e-08 1.08867e-07 2.82208e-08
4.59397e-08 1.17043e-07 3.03269e-08
4.07508e-08 3.53467e-08 3.04406e-08
1.09034e-08 9.60588e-08 3.09122e-08
7.39063e-09 6.00472e-08 3.08838e-08
1.34964e-08 7.76613e-08 2.72019e-08
8.68269e-08 9.19555e-08 3.05753e-08
8.44267e-08 5.76818e-08 3.0856e-08
5.54735e-08 1.07846e-07 2.81815e-08
5.18712e-08 4.28031e-08 2.80756e-08
5.84627e-08 7.87297e-08 1.94889e-08
4.80259e-08 5.14442e-08 2.5123e-08
5.1374e-08 9.91068e-08 2.52812e-08
4.58015e-08 9.98392e-08 2.55012e-08
4.17751e-08 5.11242e-08 2.53431e-08
2.77905e-08 4.67752e-08 2.70718e-08
3.32208e-08 1.04169e-07 2.74791e-08
7.93019e-08 6.55021e-08 2.84791e-08
8.16373e-08 8.45312e-08 2.85916e-08
1.94897e-08 1.02214e-07 2.99099e-08
1.51224e-08 5.19676e-08 2.97644e-08
2.71477e-08 7.07524e-08 2.35261e-08
1.77253e-08 6.39141e-08 2.78534e-08
2.02811e-08 9.02395e-08 2.79178e-08
9.66552e-09 1.03536e-07 3.17735e-08
1.00827e-08 1.00379e-07 3.1594e-08
5.47245e-09 5.34294e-08 3.18112e-08
6.04957e-09 5.62038e-08 3.15885e-08
5.67046e-08 6.95765e-08 1.92164e-08
6.62004e-08 1.02494e-07 2.74876e-08
6.32558e-08 4.56697e-08 2.71543e-08
2.6409e-08 9.44517e-08 2.71397e-08
2.30099e-08 5.83713e-08 2.69559e-08
5.35532e-08 1.20903e-07 3.0956e-08
4.8361e-08 3.16203e-08 3.11819e-08
2.83327e-08 8.23458e-08 2.36252e-08
2.36059e-08 7.715e-08 2.46514e-08
7.83891e-08 7.28628e-08 2.7342e-08
8.6181e-08 9.92305e-08 3.09723e-08
8.30114e-08 5.08135e-08 3.12513e-08
6.13212e-08 9.35786e-08 2.46722e-08
5.75661e-08 5.48293e-08 2.44295e-08
6.63194e-08 6.07723e-08 2.5486e-08
3.28092e-08 5.61274e-08 2.4546e-08
3.67266e-08 9.52191e-08 2.48254e-08
4.64421e-08 8.01695e-08 1.48582e-08
4.82865e-08 6.98423e-08 1.50081e-08
5.22858e-08 7.66984e-08 1.50821e-08
4.23074e-08 7.7047e-08 1.49692e-08
6.84988e-08 8.95911e-08 2.57715e-08
1.24794e-08 8.55169e-08 2.83283e-08
1.05957e-08 6.99422e-08 2.8321e-08
4.44632e-08 7.30412e-08 1.35267e-08
3.97228e-08 5.65923e-08 2.31935e-08
4.9591e-08 7.93385e-08 1.46325e-08
5.0671e-08 7.28814e-08 1.43313e-08
5.82309e-08 4.11409e-08 2.7852e-08
6.1509e-08 1.08045e-07 2.80868e-08
5.42711e-08 9.39602e-08 2.3458e-08
6.92443e-08 7.4358e-08 2.45703e-08
4.28705e-08 9.47463e-08 2.35875e-08
1.60343e-08 9.47769e-08 2.98029e-08
1.28297e-08 6.03049e-08 2.97458e-08
2.00984e-08 4.82728e-08 2.8358e-08
2.5275e-08 1.04026e-07 2.86863e-08
5.79309e-08 8.27639e-08 2.01233e-08
5.16815e-08 5.55566e-08 2.34158e-08
7.01888e-08 6.5295e-08 2.5988e-08
7.37213e-08 9.4768e-08 2.80265e-08
7.09307e-08 5.46327e-08 2.79208e-08
7.32224e-08 8.46754e-08 2.65371e-08
4.51156e-08 7.76643e-08 1.37522e-08
4.87111e-08 6.55121e-08 1.79924e-08
4.5698e-08 8.47631e-08 1.81101e-08
3.85316e-08 7.79766e-08 1.76722e-08
3.97583e-08 8.51479e-08 1.99683e-08
5.39161e-08 6.52663e-08 1.95329e-08
2.85018e-08 5.94842e-08 2.49546e-08
3.17979e-08 9.25087e-08 2.5161e-08
3.73128e-08 6.60469e-08 1.99701e-08
2.43116e-08 9.90963e-08 2.84494e-08
2.02041e-08 5.38912e-08 2.82283e-08
3.30871e-08 8.62974e-08 2.2889e-08
3.1018e-08 6.58411e-08 2.27034e-08
4.52708e-08 7.07751e-08 1.43797e-08
4.24982e-08 7.41705e-08 1.44422e-08
7.45649e-08 1.01023e-07 2.86913e-08
7.14905e-08 4.77793e-08 2.84656e-08
4.43258e-08 3.23704e-08 3.12055e-08
4.94377e-08 1.20455e-07 3.09746e-08
1.01376e-07 -1.1935e-08 2.26036e-08
1.0145e-07 1.24995e-08 2.28141e-08
7.54519e-08 1.32334e-08 2.26229e-08
7.54165e-08 -1.32165e-08 2.26472e-08
5.93262e-08 1.93213e-08 2.90143e-08
5.9286e-08 -1.93178e-08 2.90234e-08
8.80608e-08 1.50685e-08 2.13787e-08
7.30112e-08 -1.25963e-10 2.08319e-08
1.02827e-07 -4.90917e-10 2.08464e-08
8.78933e-08 -1.51073e-08 2.14151e-08
5.37117e-08 2.0307e-08 3.0623e-08
5.36612e-08 -2.03108e-08 3.06324e-08
1.17328e-07 -1.54067e-08 2.82364e-08
1.15899e-07 1.47367e-08 2.77839e-08
8.80802e-08 -3.11239e-08 2.81508e-08
8.95168e-08 3.1026e-08 2.81716e-08
9.81084e-08 2.3692e-08 2.60133e-08
7.87934e-08 -2.47702e-08 2.57653e-08
6.09838e-08 6.30845e-09 2.61204e-08
6.02034e-08 -6.30938e-09 2.63338e-08
9.79794e-08 -2.46516e-08 2.62653e-08
7.89364e-08 2.5921e-08 2.60353e-08
9.31988e-08 -4.6676e-09 1.62769e-08
9.36856e-08 5.72437e-09 1.70541e-08
8.21573e-08 5.0865e-09 1.67638e-08
8.24076e-08 -4.79135e-09 1.65338e-08
5.23599e-08 2.45051e-08 3.11926e-08
5.2302e-08 -2.45122e-08 3.12168e-08
6.82911e-08 2.26089e-08 2.68222e-08
6.82505e-08 -2.2519e-08 2.68277e-08
1.16438e-07 -4.50828e-09 2.6564e-08
1.15071e-07 5.10959e-09 2.61543e-08
6.68029e-08 -1.19201e-08 2.53713e-08
6.68355e-08 1.19329e-08 2.53605e-08
9.29138e-08 -3.84421e-08 3.02087e-08
8.59853e-08 3.86105e-08 3.01482e-08
1.08978e-07 -2.14914e-08 2.71249e-08
1.08972e-07 2.10077e-08 2.70341e-08
8.95523e-08 7.99212e-09 1.7262e-08
8.92542e-08 -7.88594e-09 1.714e-08
7.97105e-08 1.34547e-09 1.70927e-08
9.63506e-08 -9.59621e-10 1.7015e-08
5.22047e-08 1.31386e-08 2.94575e-08
5.2177e-08 -1.31377e-08 2.94543e-08
1.07305e-07 -7.07736e-09 2.36516e-08
1.20402e-07 -2.27458e-08 2.97799e-08
1.20212e-07 2.25437e-08 2.97265e-08
1.06111e-07 7.09889e-09 2.31372e-08
8.2057e-08 1.32164e-08 2.0839e-08
8.23013e-08 -1.28942e-08 2.06708e-08
7.53221e-08 -5.64519e-09 2.04058e-08
9.48024e-08 -1.16135e-08 2.05312e-08
9.50175e-08 1.17104e-08 2.06038e-08
7.62786e-08 5.20423e-09 1.98316e-08
7.95574e-08 -3.29673e-08 2.80711e-08
9.78307e-08 3.18065e-08 2.83448e-08
9.35799e-08 3.97783e-08 3.05606e-08
8.55395e-08 -4.00219e-08 3.04685e-08
4.96316e-08 1.72779e-08 3.0832e-08
4.95944e-08 -1.72794e-08 3.08286e-08
5.40025e-08 1.00428e-10 2.70807e-08
1.27458e-07 -1.78731e-08 3.05756e-08
1.27587e-07 1.76327e-08 3.05959e-08
9.50797e-08 -3.14965e-08 2.8325e-08
8.24812e-08 3.23424e-08 2.81856e-08
9.08298e-08 -2.30949e-08 2.53211e-08
8.59653e-08 2.33454e-08 2.52281e-08
9.91564e-08 3.69462e-09 1.92016e-08
9.19657e-08 2.34706e-08 2.55332e-08
8.48392e-08 -2.3911e-08 2.54444e-08
1.05645e-07 2.68694e-08 2.74526e-08
9.95254e-08 -5.37333e-09 1.98366e-08
7.13034e-08 -2.89582e-08 2.71155e-08
1.21991e-07 9.20659e-09 2.83203e-08
1.22733e-07 -1.02893e-08 2.85728e-08
5.80988e-08 2.46652e-08 2.97652e-08
5.80517e-08 -2.46525e-08 2.97733e-08
6.8323e-08 5.76602e-09 2.35444e-08
5.95929e-08 -1.28628e-08 2.78326e-08
5.96783e-08 1.28604e-08 2.78075e-08
4.82996e-08 2.38119e-08 3.17497e-08
4.86333e-08 2.11113e-08 3.15382e-08
4.82419e-08 -2.38384e-08 3.17815e-08
4.8578e-08 -2.11195e-08 3.15442e-08
1.06049e-07 -2.71176e-08 2.75752e-08
6.54885e-08 1.79311e-08 2.69518e-08
6.54502e-08 -1.792e-08 2.69651e-08
9.35648e-08 -4.38584e-08 3.12152e-08
8.6569e-08 4.36565e-08 3.12073e-08
7.09237e-08 2.92183e-08 2.72076e-08
6.85114e-08 -5.5544e-09 2.34292e-08
6.38989e-08 4.84728e-10 2.46639e-08
1.20435e-07 1.57421e-09 2.7257e-08
1.02114e-07 1.86658e-08 2.50063e-08
1.26444e-07 -2.50804e-08 3.09881e-08
1.26457e-07 2.49558e-08 3.09974e-08
1.01565e-07 -1.84674e-08 2.48324e-08
1.08513e-07 1.41228e-08 2.55076e-08
7.55643e-08 -1.95932e-08 2.46166e-08
8.63237e-08 4.89597e-09 1.49953e-08
8.67355e-08 -4.66085e-09 1.48203e-08
9.33748e-08 1.73642e-09 1.51341e-08
8.28629e-08 -1.22407e-09 1.48461e-08
7.54567e-08 1.99518e-08 2.47038e-08
1.09043e-07 -1.46167e-08 2.57713e-08
5.20558e-08 7.56719e-09 2.82133e-08
5.16691e-08 -7.41907e-09 2.82434e-08
9.03457e-08 -2.08324e-09 1.35738e-08
9.36885e-08 1.77737e-08 2.32171e-08
9.01225e-08 4.09051e-09 1.45988e-08
8.39272e-08 1.89843e-09 1.43847e-08
1.01143e-07 -3.21039e-08 2.82306e-08
9.40845e-08 -1.82485e-08 2.34977e-08
1.10904e-07 2.8128e-10 2.44789e-08
8.19557e-08 -1.90432e-08 2.34768e-08
9.87027e-08 7.67882e-09 2.01441e-08
5.50791e-08 1.66791e-08 2.97096e-08
5.50316e-08 -1.66813e-08 2.97163e-08
6.3514e-08 2.76618e-08 2.83435e-08
6.33795e-08 -2.79244e-08 2.83879e-08
8.21835e-08 1.92862e-08 2.35364e-08
1.12953e-07 9.48698e-09 2.60406e-08
7.60139e-08 3.32171e-08 2.77651e-08
1.1409e-07 -2.00231e-08 2.80579e-08
1.13938e-07 1.97498e-08 2.79869e-08
1.14273e-07 -9.99354e-09 2.65277e-08
8.55235e-08 -2.10783e-09 1.37117e-08
8.55718e-08 9.22565e-09 1.80417e-08
8.55493e-08 -9.22482e-09 1.80736e-08
7.898e-08 -2.048e-09 1.76068e-08
7.95789e-08 9.59141e-09 1.98733e-08
7.94684e-08 -9.43059e-09 1.98764e-08
7.08999e-08 -1.64937e-08 2.49778e-08
9.70135e-08 -8.20483e-09 1.96735e-08
7.09261e-08 1.65584e-08 2.49743e-08
6.3069e-08 2.24305e-08 2.82233e-08
6.30118e-08 -2.24583e-08 2.82437e-08
7.27626e-08 -1.01886e-08 2.27501e-08
7.25329e-08 1.0103e-08 2.28115e-08
8.93791e-08 -4.13428e-09 1.44796e-08
9.24645e-08 -1.16113e-09 1.43781e-08
1.14607e-07 -2.62637e-08 2.87422e-08
1.14606e-07 2.61687e-08 2.87267e-08
9.05946e-08 4.31132e-08 3.12495e-08
8.95495e-08 -4.30758e-08 3.12158e-08
6.08726e-08 -8.758e-08 2.27562e-08
5.9356e-08 -6.19046e-08 2.27333e-08
3.3238e-08 -6.24748e-08 2.26051e-08
3.59906e-08 -8.89999e-08 2.27846e-08
1.67928e-08 -5.73153e-08 2.90229e-08
2.03124e-08 -9.67104e-08 2.91475e-08
4.56395e-08 -5.9641e-08 2.12726e-08
3.22421e-08 -7.57405e-08 2.08791e-08
6.16759e-08 -7.48578e-08 2.10885e-08
4.86748e-08 -9.07751e-08 2.14389e-08
1.11442e-08 -5.66783e-08 3.06454e-08
1.48128e-08 -9.87943e-08 3.06878e-08
7.43443e-08 -5.9229e-08 2.83263e-08
7.51326e-08 -8.93507e-08 2.77949e-08
4.87857e-08 -1.07592e-07 2.80826e-08
4.58924e-08 -4.38392e-08 2.80349e-08
5.54926e-08 -5.01036e-08 2.57248e-08
4.01162e-08 -1.00391e-07 2.59489e-08
1.96857e-08 -7.04911e-08 2.61806e-08
2.05408e-08 -8.33491e-08 2.63379e-08
5.81921e-08 -1.00536e-07 2.61507e-08
3.55477e-08 -4.94409e-08 2.59833e-08
5.29681e-08 -8.07877e-08 1.69648e-08
5.18363e-08 -6.87975e-08 1.70044e-08
4.09278e-08 -7.05606e-08 1.65013e-08
4.26484e-08 -8.06859e-08 1.64838e-08
9.44084e-09 -5.24776e-08 3.1204e-08
1.35622e-08 -1.03452e-07 3.12326e-08
2.53202e-08 -5.33789e-08 2.6804e-08
2.96035e-08 -9.84086e-08 2.70858e-08
7.41562e-08 -7.01042e-08 2.66578e-08
7.35881e-08 -7.96483e-08 2.6179e-08
2.72734e-08 -8.84751e-08 2.55e-08
2.48944e-08 -6.43745e-08 2.53723e-08
5.31411e-08 -1.15314e-07 2.99915e-08
4.1302e-08 -3.67045e-08 3.00949e-08
6.62891e-08 -5.22412e-08 2.69299e-08
6.78666e-08 -9.51901e-08 2.66561e-08
4.75921e-08 -6.67256e-08 1.71798e-08
4.68544e-08 -8.34847e-08 1.71578e-08
3.90958e-08 -7.68218e-08 1.70405e-08
5.54331e-08 -7.52247e-08 1.73523e-08
1.03435e-08 -6.40905e-08 2.95179e-08
1.30556e-08 -9.13496e-08 2.95487e-08
6.48491e-08 -6.67544e-08 2.37105e-08
7.71516e-08 -5.21651e-08 2.98961e-08
7.98271e-08 -9.70375e-08 2.97215e-08
6.55037e-08 -8.13317e-08 2.33082e-08
3.97463e-08 -6.20084e-08 2.0802e-08
5.38874e-08 -8.7946e-08 2.06966e-08
3.39218e-08 -7.02044e-08 2.04121e-08
5.28304e-08 -6.25997e-08 2.04495e-08
4.24758e-08 -8.81003e-08 2.06235e-08
3.62148e-08 -8.10452e-08 1.98407e-08
4.09052e-08 -1.08864e-07 2.82268e-08
5.47223e-08 -4.20301e-08 2.80307e-08
4.59033e-08 -1.17038e-07 3.03257e-08
4.90346e-08 -3.52246e-08 3.04454e-08
7.38552e-09 -6.00376e-08 3.08879e-08
1.08679e-08 -9.60429e-08 3.09009e-08
1.34368e-08 -7.73249e-08 2.72014e-08
8.42965e-08 -5.75014e-08 3.08448e-08
8.69038e-08 -9.1781e-08 3.06117e-08
5.54375e-08 -1.07844e-07 2.81706e-08
3.84914e-08 -4.29182e-08 2.81191e-08
5.76842e-08 -7.06877e-08 1.94678e-08
5.13457e-08 -9.91013e-08 2.52632e-08
4.29088e-08 -5.15826e-08 2.51237e-08
4.91246e-08 -5.09101e-08 2.53454e-08
4.57688e-08 -9.98447e-08 2.55073e-08
6.32102e-08 -4.60203e-08 2.70852e-08
3.31891e-08 -1.04138e-07 2.74814e-08
8.07917e-08 -8.3533e-08 2.83553e-08
7.99667e-08 -6.44957e-08 2.87433e-08
1.51131e-08 -5.19297e-08 2.97604e-08
1.94551e-08 -1.02194e-07 2.99066e-08
2.83137e-08 -8.20669e-08 2.35839e-08
2.02154e-08 -9.02205e-08 2.79279e-08
1.77443e-08 -6.38872e-08 2.78375e-08
5.48138e-09 -5.3441e-08 3.17806e-08
6.05871e-09 -5.61993e-08 3.15836e-08
9.62285e-09 -1.03516e-07 3.17644e-08
1.00395e-08 -1.00359e-07 3.15833e-08
5.76322e-08 -7.98626e-08 1.92611e-08
6.5747e-08 -1.02723e-07 2.74665e-08
2.29866e-08 -5.83338e-08 2.69498e-08
2.63795e-08 -9.4431e-08 2.71383e-08
5.3518e-08 -1.20896e-07 3.09506e-08
4.12078e-08 -3.1685e-08 3.11733e-08
2.7325e-08 -4.64794e-08 2.71697e-08
2.70561e-08 -7.04738e-08 2.35613e-08
2.34977e-08 -7.63496e-08 2.46474e-08
7.86388e-08 -7.59895e-08 2.7323e-08
5.88845e-08 -5.5774e-08 2.44135e-08
8.30184e-08 -5.0746e-08 3.12625e-08
8.61335e-08 -9.91753e-08 3.09999e-08
5.99087e-08 -9.43932e-08 2.46144e-08
6.82861e-08 -8.82711e-08 2.55173e-08
3.66664e-08 -9.51108e-08 2.48004e-08
4.51153e-08 -7.02257e-08 1.4781e-08
4.94824e-08 -8.02183e-08 1.5089e-08
5.18037e-08 -7.30426e-08 1.50591e-08
4.18372e-08 -7.39135e-08 1.49447e-08
3.26163e-08 -5.56432e-08 2.46744e-08
6.63581e-08 -5.94701e-08 2.57311e-08
1.07868e-08 -6.9803e-08 2.83025e-08
1.22217e-08 -8.54068e-08 2.83455e-08
4.51629e-08 -7.7516e-08 1.35671e-08
4.32378e-08 -9.43028e-08 2.33805e-08
5.11922e-08 -5.64701e-08 2.30506e-08
4.84492e-08 -7.07027e-08 1.45613e-08
5.11799e-08 -7.69398e-08 1.43685e-08
6.13927e-08 -1.08112e-07 2.80901e-08
6.92449e-08 -7.4816e-08 2.45767e-08
1.28282e-08 -6.02899e-08 2.97417e-08
1.59947e-08 -9.47616e-08 2.97994e-08
2.01895e-08 -4.84977e-08 2.83211e-08
2.52433e-08 -1.04001e-07 2.86852e-08
5.65245e-08 -6.66671e-08 2.00652e-08
5.43019e-08 -9.43443e-08 2.35789e-08
3.93842e-08 -5.5879e-08 2.34753e-08
7.16455e-08 -8.3826e-08 2.59554e-08
3.19823e-08 -4.22146e-08 2.77101e-08
7.11267e-08 -5.41685e-08 2.80233e-08
7.34433e-08 -9.42771e-08 2.79361e-08
7.16027e-08 -6.44673e-08 2.65979e-08
4.43278e-08 -7.29154e-08 1.37101e-08
5.05142e-08 -8.45187e-08 1.81078e-08
4.35517e-08 -6.57618e-08 1.79909e-08
3.79255e-08 -7.34801e-08 1.76389e-08
5.55066e-08 -8.43228e-08 1.96309e-08
3.74544e-08 -6.61855e-08 1.98229e-08
3.17641e-08 -9.24819e-08 2.51588e-08
3.94469e-08 -8.51976e-08 2.0098e-08
2.84659e-08 -5.93872e-08 2.49599e-08
2.02026e-08 -5.38887e-08 2.82146e-08
2.42808e-08 -9.90749e-08 2.84472e-08
3.08824e-08 -6.57283e-08 2.27569e-08
3.31383e-08 -8.61804e-08 2.28291e-08
4.64181e-08 -7.96317e-08 1.44517e-08
4.28495e-08 -7.66926e-08 1.44616e-08
7.22977e-08 -4.74529e-08 2.86669e-08
7.40228e-08 -1.00729e-07 2.86004e-08
4.52817e-08 -3.23438e-08 3.12037e-08
4.94023e-08 -1.20449e-07 3.09712e-08
-2.43755e-08 -9.36278e-08 2.27038e-08
-2.81765e-08 -6.725e-08 2.32153e-08
-5.6472e-08 -7.40776e-08 2.41939e-08
-4.92862e-08 -1.01406e-07 2.30845e-08
-6.55774e-08 -1.11883e-07 2.92879e-08
-7.6351e-08 -7.24543e-08 3.12381e-08
-4.31828e-08 -6.79128e-08 2.23336e-08
-5.46086e-08 -8.88219e-08 2.16887e-08
-2.4637e-08 -8.11145e-08 2.08834e-08
-3.63466e-08 -1.0021e-07 2.16014e-08
-7.16547e-08 -1.14607e-07 3.07159e-08
-8.33422e-08 -7.32508e-08 3.28311e-08
-1.43843e-08 -6.42013e-08 2.79428e-08
-9.03929e-09 -9.48616e-08 2.84286e-08
-3.40828e-08 -1.17267e-07 2.82456e-08
-4.52406e-08 -5.11498e-08 2.9711e-08
-5.49875e-08 -6.05193e-08 2.79839e-08
-4.37094e-08 -1.11803e-07 2.61249e-08
-6.50428e-08 -9.8598e-08 2.6912e-08
-6.94289e-08 -8.55019e-08 2.7734e-08
-3.33475e-08 -5.49713e-08 2.67422e-08
-2.561e-08 -1.08277e-07 2.63621e-08
-3.32745e-08 -8.74427e-08 1.63404e-08
-3.53478e-08 -7.60586e-08 1.73489e-08
-4.67582e-08 -8.10887e-08 1.72945e-08
-4.39572e-08 -9.16418e-08 1.718e-08
-7.25619e-08 -1.19201e-07 3.11808e-08
-8.67827e-08 -6.96107e-08 3.3925e-08
-5.51486e-08 -1.11942e-07 2.72574e-08
-6.70003e-08 -6.63294e-08 2.94318e-08
-1.01602e-08 -8.36485e-08 2.64857e-08
-1.30324e-08 -7.42201e-08 2.61117e-08
-5.85071e-08 -1.02642e-07 2.58857e-08
-6.51671e-08 -7.78799e-08 2.69938e-08
-4.10139e-08 -4.26074e-08 3.15365e-08
-2.88636e-08 -1.24442e-07 3.01528e-08
-1.60365e-08 -1.02552e-07 2.7324e-08
-2.25447e-08 -5.83518e-08 2.68861e-08
-4.02331e-08 -7.49179e-08 1.78244e-08
-3.6285e-08 -9.21875e-08 1.7286e-08
-4.74676e-08 -8.8554e-08 1.76892e-08
-3.10647e-08 -8.2674e-08 1.70818e-08
-7.3315e-08 -1.07527e-07 2.98697e-08
-8.09945e-08 -8.07676e-08 3.11759e-08
-1.9253e-08 -8.7376e-08 2.36941e-08
-1.13039e-08 -5.58565e-08 2.9997e-08
-5.68018e-09 -1.02291e-07 3.01129e-08
-2.28481e-08 -7.33239e-08 2.30653e-08
-4.88987e-08 -7.21868e-08 2.18654e-08
-4.21968e-08 -9.93125e-08 2.09797e-08
-5.41306e-08 -8.23016e-08 2.14657e-08
-3.04773e-08 -9.47445e-08 2.06357e-08
-3.49928e-08 -6.9302e-08 2.10586e-08
-4.99739e-08 -9.34322e-08 2.04125e-08
-4.18517e-08 -1.19948e-07 2.83765e-08
-5.51212e-08 -5.14705e-08 3.08412e-08
-3.58849e-08 -1.27215e-07 3.04703e-08
-4.92835e-08 -4.25192e-08 3.28193e-08
-7.6081e-08 -1.12343e-07 3.09697e-08
-8.62718e-08 -7.76083e-08 3.271e-08
-7.28051e-08 -9.37332e-08 2.83355e-08
3.33449e-10 -9.66934e-08 3.08846e-08
-3.61402e-09 -6.09274e-08 3.08792e-08
-3.73899e-08 -4.87847e-08 2.91763e-08
-2.74537e-08 -1.16385e-07 2.83585e-08
-4.10806e-08 -5.86275e-08 2.63148e-08
-3.24603e-08 -1.08111e-07 2.54501e-08
-2.92667e-08 -7.72459e-08 1.93135e-08
-4.7917e-08 -5.96216e-08 2.70183e-08
-3.79714e-08 -1.10004e-07 2.56706e-08
-2.71054e-08 -8.6853e-08 1.9889e-08
-5.04955e-08 -1.16854e-07 2.76303e-08
-6.45528e-08 -5.84314e-08 3.04006e-08
-6.8571e-09 -6.96652e-08 2.83205e-08
-3.74337e-09 -8.90904e-08 2.86065e-08
-6.60224e-08 -1.17317e-07 2.99478e-08
-7.98626e-08 -6.74931e-08 3.26316e-08
-5.7895e-08 -9.61266e-08 2.42684e-08
-6.57824e-08 -1.05585e-07 2.82771e-08
-7.31448e-08 -7.88382e-08 2.95447e-08
-7.71611e-08 -1.19657e-07 3.16635e-08
-7.72512e-08 -1.16543e-07 3.15098e-08
-9.1108e-08 -7.16666e-08 3.43078e-08
-8.95162e-08 -7.43237e-08 3.36744e-08
-2.53418e-08 -5.0349e-08 2.76835e-08
-1.77575e-08 -1.09108e-07 2.77371e-08
-5.90739e-08 -1.08676e-07 2.73597e-08
-6.88708e-08 -7.20009e-08 2.90925e-08
-2.78667e-08 -1.30082e-07 3.11022e-08
-4.13172e-08 -3.72615e-08 3.27222e-08
-6.09187e-08 -8.42084e-08 2.46509e-08
-6.33793e-08 -9.17833e-08 2.57005e-08
-6.44907e-09 -7.72779e-08 2.70771e-08
-5.64708e-09 -5.36532e-08 3.1391e-08
-6.77451e-11 -1.04268e-07 3.13946e-08
-2.3241e-08 -1.00725e-07 2.49633e-08
-2.99048e-08 -6.04788e-08 2.51435e-08
-2.03395e-08 -6.54528e-08 2.59538e-08
-4.78994e-08 -1.07359e-07 2.50321e-08
-5.78003e-08 -6.71545e-08 2.6644e-08
-4.23944e-08 -7.94534e-08 1.53846e-08
-3.98125e-08 -9.00329e-08 1.52319e-08
-3.47496e-08 -8.03947e-08 1.52954e-08
-4.50521e-08 -8.48131e-08 1.54021e-08
-1.68744e-08 -9.51514e-08 2.59194e-08
-7.34675e-08 -1.01838e-07 2.90229e-08
-7.82325e-08 -8.66142e-08 2.97933e-08
-3.66208e-08 -8.54145e-08 1.36524e-08
-3.87236e-08 -7.87411e-08 1.50033e-08
-4.30369e-08 -8.78453e-08 1.48045e-08
-2.14769e-08 -1.15639e-07 2.82951e-08
-3.07676e-08 -4.62064e-08 2.86382e-08
-3.01383e-08 -1.02168e-07 2.36191e-08
-3.65661e-08 -6.24738e-08 2.42333e-08
-1.64755e-08 -7.94734e-08 2.44273e-08
-5.04503e-08 -6.56784e-08 2.50467e-08
-4.15169e-08 -1.0552e-07 2.37747e-08
-3.04794e-08 -7.30794e-08 2.03507e-08
-7.03538e-08 -1.10575e-07 2.99652e-08
-7.99677e-08 -7.63613e-08 3.16468e-08
-5.91991e-08 -1.18212e-07 2.87845e-08
-7.42415e-08 -6.22474e-08 3.1829e-08
-1.6035e-08 -6.97805e-08 2.61742e-08
-1.70941e-08 -5.9081e-08 2.80796e-08
-1.16241e-08 -1.00153e-07 2.82988e-08
-1.21691e-08 -8.95483e-08 2.6593e-08
-4.27276e-08 -8.29012e-08 1.42076e-08
-4.46852e-08 -7.50169e-08 1.88914e-08
-3.96138e-08 -9.47501e-08 1.83102e-08
-4.92609e-08 -8.51256e-08 1.83623e-08
-5.11194e-08 -7.69197e-08 2.1016e-08
-4.57227e-08 -9.66882e-08 2.02577e-08
-5.34436e-08 -1.05723e-07 2.54183e-08
-6.23257e-08 -7.19004e-08 2.69083e-08
-2.90384e-08 -9.04468e-08 1.97501e-08
-6.09415e-08 -1.13548e-07 2.85766e-08
-7.31829e-08 -6.80834e-08 3.08749e-08
-5.83133e-08 -7.81135e-08 2.41529e-08
-5.28889e-08 -9.92314e-08 2.33436e-08
-3.70202e-08 -8.80116e-08 1.45152e-08
-3.48662e-08 -8.37764e-08 1.44625e-08
-1.66247e-08 -5.15319e-08 2.8804e-08
-1.02494e-08 -1.06608e-07 2.902e-08
-4.55096e-08 -3.87365e-08 3.31918e-08
-3.20387e-08 -1.30154e-07 3.11154e-08
-8.16916e-08 -2.17018e-08 3.56537e-08
-1.28703e-07 2.5412e-08 3.73042e-08
-8.17333e-08 2.25626e-08 3.56353e-08
-1.28745e-07 -2.5417e-08 3.73048e-08
-1.51546e-07 3.2082e-08 3.80395e-08
-1.51553e-07 -3.21023e-08 3.80388e-08
-1.04845e-07 3.00528e-08 3.64449e-08
-1.3504e-07 7.61747e-10 3.74639e-08
-7.79253e-08 -8.75067e-10 3.56236e-08
-1.0514e-07 -3.01001e-08 3.64518e-08
-1.58911e-07 3.33655e-08 3.82605e-08
-1.58918e-07 -3.33833e-08 3.826e-08
-6.33089e-08 2.12877e-08 3.52575e-08
-6.17525e-08 -2.18293e-08 3.52186e-08
-1.02993e-07 -5.06225e-08 3.63352e-08
-1.00802e-07 5.0298e-08 3.62021e-08
-8.76627e-08 3.9564e-08 3.5388e-08
-1.1923e-07 -4.25719e-08 3.70029e-08
-1.50518e-07 1.18559e-08 3.78765e-08
-1.51092e-07 -1.16135e-08 3.78872e-08
-8.78101e-08 -4.09187e-08 3.53244e-08
-1.18684e-07 4.40845e-08 3.69868e-08
-9.36195e-08 -1.17647e-08 3.61071e-08
-1.19084e-07 1.2112e-08 3.69892e-08
-9.30835e-08 1.36489e-08 3.60842e-08
-1.19478e-07 -1.26066e-08 3.70028e-08
-1.60283e-07 3.86121e-08 3.83047e-08
-1.60293e-07 -3.86293e-08 3.83043e-08
-1.37601e-07 3.77524e-08 3.75915e-08
-1.37641e-07 -3.76544e-08 3.75923e-08
-6.0986e-08 -6.49083e-09 3.4853e-08
-6.27828e-08 7.58955e-09 3.49565e-08
-1.42216e-07 2.17774e-08 3.77158e-08
-1.42221e-07 -2.18009e-08 3.77156e-08
-9.54348e-08 -5.81992e-08 3.57204e-08
-1.04983e-07 5.97561e-08 3.65112e-08
-7.21917e-08 -3.29993e-08 3.49562e-08
-7.22095e-08 3.23616e-08 3.49967e-08
-1.02115e-07 1.90207e-08 3.63832e-08
-1.02708e-07 -1.88156e-08 3.64022e-08
-1.24854e-07 -3.24944e-09 3.71739e-08
-8.74693e-08 -2.25265e-09 3.59239e-08
-1.60761e-07 2.31736e-08 3.81806e-08
-1.60765e-07 -2.31916e-08 3.81799e-08
-7.26412e-08 -1.18635e-08 3.54738e-08
-5.90107e-08 -3.03535e-08 3.50315e-08
-5.92355e-08 3.02131e-08 3.50403e-08
-7.42224e-08 1.22235e-08 3.5519e-08
-1.16847e-07 2.67767e-08 3.69046e-08
-1.16424e-07 -2.63599e-08 3.68882e-08
-1.31044e-07 1.18814e-08 3.73599e-08
-9.21809e-08 -2.36149e-08 3.59776e-08
-9.18131e-08 2.36392e-08 3.59693e-08
-1.29692e-07 -1.11355e-08 3.73179e-08
-1.1566e-07 -5.32417e-08 3.69146e-08
-8.81019e-08 4.97485e-08 3.50475e-08
-1.05313e-07 -6.15273e-08 3.65351e-08
-9.44564e-08 5.95565e-08 3.56227e-08
-1.63894e-07 2.93291e-08 3.83236e-08
-1.639e-07 -2.93459e-08 3.83232e-08
-1.59092e-07 2.87775e-10 3.79782e-08
-5.11979e-08 -2.29569e-08 3.49498e-08
-5.10115e-08 2.26904e-08 3.49291e-08
-9.2265e-08 -4.9893e-08 3.54837e-08
-1.11379e-07 5.24356e-08 3.67577e-08
-9.93164e-08 -4.03923e-08 3.6122e-08
-1.07509e-07 4.11113e-08 3.65471e-08
-8.34734e-08 7.64629e-09 3.58027e-08
-9.74312e-08 4.06799e-08 3.60161e-08
-1.09303e-07 -4.18154e-08 3.66215e-08
-7.64627e-08 4.16891e-08 3.44067e-08
-8.31238e-08 -1.07704e-08 3.57884e-08
-1.30526e-07 -4.69124e-08 3.73387e-08
-5.53382e-08 1.27058e-08 3.46271e-08
-5.47512e-08 -1.40909e-08 3.46234e-08
-1.52536e-07 3.89659e-08 3.80734e-08
-1.52546e-07 -3.89859e-08 3.80729e-08
-1.40923e-07 -1.08919e-08 3.76369e-08
-1.51677e-07 2.2822e-08 3.79878e-08
-1.51723e-07 -2.28229e-08 3.79882e-08
-1.65096e-07 3.77204e-08 3.84041e-08
-1.65027e-07 3.42532e-08 3.83924e-08
-1.65105e-07 -3.77361e-08 3.84037e-08
-1.65035e-07 -3.42692e-08 3.8392e-08
-7.5851e-08 -4.18347e-08 3.43783e-08
-1.43065e-07 3.07484e-08 3.77718e-08
-1.43076e-07 -3.07633e-08 3.77713e-08
-9.43069e-08 -6.3768e-08 3.54972e-08
-1.03383e-07 6.56636e-08 3.64193e-08
-1.3111e-07 4.71574e-08 3.73535e-08
-1.40938e-07 1.13664e-08 3.76385e-08
-1.46735e-07 7.22149e-10 3.7761e-08
-5.58086e-08 2.2526e-09 3.42475e-08
-8.13619e-08 3.17064e-08 3.53465e-08
-5.27696e-08 3.11055e-08 3.49423e-08
-5.27798e-08 -3.12102e-08 3.49387e-08
-8.21247e-08 -3.1614e-08 3.53857e-08
-7.22818e-08 2.26522e-08 3.54013e-08
-1.2646e-07 -3.49728e-08 3.72363e-08
-1.08964e-07 1.29145e-08 3.66418e-08
-1.10104e-07 -1.30216e-08 3.66812e-08
-9.29143e-08 4.57968e-09 3.60797e-08
-1.18853e-07 3.24988e-09 3.7e-08
-1.26574e-07 3.54372e-08 3.72414e-08
-7.16232e-08 -2.31806e-08 3.53777e-08
-1.61107e-07 1.40187e-08 3.80758e-08
-1.61367e-07 -1.38562e-08 3.80768e-08
-9.92386e-08 -6.52136e-09 3.62884e-08
-9.47353e-08 3.27614e-08 3.59632e-08
-1.00183e-07 1.14961e-08 3.633e-08
-1.16872e-07 -5.60085e-09 3.69418e-08
-8.3047e-08 -4.94268e-08 3.44414e-08
-9.40414e-08 -3.33699e-08 3.59093e-08
-6.74721e-08 4.76443e-10 3.51797e-08
-1.15317e-07 -3.51778e-08 3.6854e-08
-8.49388e-08 1.53616e-08 3.58156e-08
-1.57301e-07 2.8452e-08 3.8176e-08
-1.57312e-07 -2.84678e-08 3.81755e-08
-1.4376e-07 4.35899e-08 3.77582e-08
-1.43851e-07 -4.39443e-08 3.7758e-08
-1.14902e-07 3.55081e-08 3.68391e-08
-6.5972e-08 1.44973e-08 3.52357e-08
-1.21243e-07 5.31924e-08 3.7055e-08
-6.59348e-08 -2.90719e-08 3.5086e-08
-6.61149e-08 2.87541e-08 3.5104e-08
-6.44592e-08 -1.49296e-08 3.51981e-08
-1.12936e-07 6.8724e-09 3.68035e-08
-1.10776e-07 -2.10861e-08 3.66894e-08
-1.10777e-07 2.10564e-08 3.6691e-08
-1.25789e-07 4.96351e-09 3.72003e-08
-1.23212e-07 1.98531e-08 3.71202e-08
-1.2273e-07 -2.03302e-08 3.71039e-08
-1.35121e-07 -2.95599e-08 3.75149e-08
-8.76739e-08 -1.69498e-08 3.58894e-08
-1.35104e-07 2.9606e-08 3.75154e-08
-1.45697e-07 3.66378e-08 3.78553e-08
-1.4573e-07 -3.67002e-08 3.78555e-08
-1.33902e-07 1.97828e-08 3.7459e-08
-1.34245e-07 -1.9575e-08 3.74688e-08
-1.023e-07 -1.12505e-08 3.64044e-08
-9.46574e-08 -3.18475e-09 3.61296e-08
-6.50727e-08 3.69443e-08 3.43784e-08
-6.50558e-08 -3.70318e-08 3.43763e-08
-9.97822e-08 -6.41924e-08 3.61334e-08
-9.8355e-08 6.38362e-08 3.59969e-08
-2.84793e-08 6.81297e-08 2.27784e-08
-2.41879e-08 9.43062e-08 2.29548e-08
-4.91953e-08 1.01332e-07 2.30611e-08
-5.64892e-08 7.40125e-08 2.42223e-08
-7.6371e-08 7.24166e-08 3.12549e-08
-6.55257e-08 1.11843e-07 2.92896e-08
-3.61831e-08 1.0011e-07 2.16016e-08
-5.45097e-08 8.90783e-08 2.16823e-08
-2.47797e-08 8.01433e-08 2.08744e-08
-4.31465e-08 6.78611e-08 2.23242e-08
-8.33722e-08 7.32103e-08 3.28506e-08
-7.16042e-08 1.14571e-07 3.0718e-08
-1.03931e-08 9.43743e-08 2.79701e-08
-1.30633e-08 6.3517e-08 2.83819e-08
-4.51946e-08 5.11182e-08 2.97009e-08
-3.27764e-08 1.16948e-07 2.82535e-08
-2.56319e-08 1.07252e-07 2.61434e-08
-5.49583e-08 6.04663e-08 2.79925e-08
-6.86858e-08 8.52881e-08 2.75288e-08
-6.57383e-08 9.87651e-08 2.71288e-08
-3.3306e-08 5.49698e-08 2.67129e-08
-4.33495e-08 1.12812e-07 2.64163e-08
-3.56564e-08 7.72974e-08 1.64747e-08
-3.2525e-08 8.85665e-08 1.71927e-08
-4.36274e-08 9.12072e-08 1.68954e-08
-4.7168e-08 8.0795e-08 1.76062e-08
-8.68238e-08 6.95676e-08 3.39508e-08
-7.25125e-08 1.19162e-07 3.11841e-08
-6.6996e-08 6.62835e-08 2.94533e-08
-5.50743e-08 1.11963e-07 2.72705e-08
-1.13866e-08 7.48166e-08 2.64779e-08
-1.15379e-08 8.44607e-08 2.61171e-08
-6.5177e-08 7.78354e-08 2.70167e-08
-5.84554e-08 1.02596e-07 2.58744e-08
-4.09667e-08 4.25819e-08 3.15261e-08
-3.56224e-08 1.25678e-07 3.01614e-08
-2.18414e-08 5.68403e-08 2.72423e-08
-1.60981e-08 1.02114e-07 2.72505e-08
-3.59736e-08 9.22033e-08 1.74551e-08
-4.0432e-08 7.5096e-08 1.76625e-08
-4.83221e-08 8.56994e-08 1.7815e-08
-3.1477e-08 8.06226e-08 1.70945e-08
-8.10189e-08 8.07396e-08 3.11933e-08
-7.32601e-08 1.07498e-07 2.98685e-08
-2.14924e-08 7.28006e-08 2.36927e-08
-5.85409e-09 1.02185e-07 3.00639e-08
-1.11158e-08 5.57198e-08 3.00313e-08
-2.03965e-08 8.76218e-08 2.32006e-08
-4.23735e-08 9.96023e-08 2.11861e-08
-4.88826e-08 7.21068e-08 2.18783e-08
-5.07704e-08 9.40874e-08 2.09674e-08
-3.51959e-08 6.95973e-08 2.08969e-08
-3.02527e-08 9.48331e-08 2.07553e-08
-5.3075e-08 8.24819e-08 2.08828e-08
-5.50838e-08 5.1424e-08 3.08437e-08
-2.47818e-08 1.16178e-07 2.8392e-08
-2.81642e-08 1.25792e-07 3.04815e-08
-4.92402e-08 4.24837e-08 3.2815e-08
-8.6298e-08 7.75739e-08 3.273e-08
-7.60316e-08 1.12308e-07 3.09704e-08
-7.28432e-08 9.35025e-08 2.83519e-08
-3.77425e-09 6.07914e-08 3.0862e-08
4.88837e-10 9.65152e-08 3.08928e-08
-3.73432e-08 4.87678e-08 2.91569e-08
-3.92077e-08 1.1914e-07 2.84079e-08
-4.10338e-08 5.86061e-08 2.62908e-08
-3.69941e-08 1.09235e-07 2.54547e-08
-2.77399e-08 8.51341e-08 1.92752e-08
-3.13729e-08 1.08309e-07 2.56752e-08
-4.78774e-08 5.95761e-08 2.70136e-08
-1.81686e-08 1.09009e-07 2.76267e-08
-2.91814e-08 7.54126e-08 1.99405e-08
-6.45292e-08 5.83804e-08 3.04197e-08
-4.41883e-09 8.80703e-08 2.83284e-08
-6.38084e-09 6.85808e-08 2.85897e-08
-7.98784e-08 6.74559e-08 3.26471e-08
-6.59718e-08 1.17278e-07 2.99515e-08
-6.11902e-08 8.39999e-08 2.48094e-08
-7.31034e-08 7.87909e-08 2.95427e-08
-6.57876e-08 1.05569e-07 2.82932e-08
-9.11571e-08 7.163e-08 3.43429e-08
-8.95524e-08 7.42891e-08 3.36999e-08
-7.71111e-08 1.19621e-07 3.16659e-08
-7.7201e-08 1.16508e-07 3.15115e-08
-2.48681e-08 5.04984e-08 2.76483e-08
-6.888e-08 7.19559e-08 2.91129e-08
-5.90174e-08 1.08631e-07 2.73568e-08
-4.12712e-08 3.72344e-08 3.27146e-08
-3.50211e-08 1.31225e-07 3.1109e-08
-5.08365e-08 1.17145e-07 2.77493e-08
-5.76878e-08 9.58267e-08 2.41405e-08
-6.36345e-08 9.07454e-08 2.57534e-08
-5.99042e-09 8.04761e-08 2.70756e-08
-2.26907e-08 1.0089e-07 2.51691e-08
-5.45734e-11 1.04217e-07 3.14045e-08
-5.64758e-09 5.36273e-08 3.13535e-08
-2.90038e-08 6.08738e-08 2.50583e-08
-1.73832e-08 9.47751e-08 2.56695e-08
-5.77904e-08 6.70974e-08 2.66626e-08
-3.93454e-08 8.96774e-08 1.50689e-08
-4.28547e-08 7.94575e-08 1.55667e-08
-3.37828e-08 8.41981e-08 1.52395e-08
-4.42157e-08 8.74405e-08 1.53035e-08
-4.79239e-08 1.07656e-07 2.51397e-08
-2.11275e-08 6.45472e-08 2.58912e-08
-7.79559e-08 8.63447e-08 2.97888e-08
-7.3782e-08 1.01734e-07 2.90546e-08
-3.79597e-08 8.08384e-08 1.3766e-08
-3.05744e-08 1.01782e-07 2.33757e-08
-3.62194e-08 8.77948e-08 1.4796e-08
-4.4374e-08 8.3778e-08 1.49729e-08
-3.06299e-08 4.62263e-08 2.85907e-08
-3.68509e-08 6.27786e-08 2.40816e-08
-1.63561e-08 8.00319e-08 2.44292e-08
-5.04223e-08 6.56162e-08 2.5053e-08
-2.74607e-08 8.95766e-08 2.02545e-08
-7.99826e-08 7.63238e-08 3.16615e-08
-7.03116e-08 1.10544e-07 2.99683e-08
-7.42284e-08 6.22055e-08 3.18509e-08
-5.91227e-08 1.17893e-07 2.8769e-08
-4.12388e-08 1.05642e-07 2.38609e-08
-1.34516e-08 8.92312e-08 2.61107e-08
-4.52394e-08 1.20286e-07 2.81919e-08
-1.68294e-08 5.84578e-08 2.82079e-08
-1.17795e-08 9.99531e-08 2.82378e-08
-1.49676e-08 6.93197e-08 2.65703e-08
-4.10772e-08 8.74825e-08 1.40259e-08
-3.95778e-08 9.46572e-08 1.83151e-08
-4.4661e-08 7.49308e-08 1.88942e-08
-4.79295e-08 8.94593e-08 1.8183e-08
-4.58503e-08 9.65124e-08 2.02449e-08
-5.10837e-08 7.68174e-08 2.10269e-08
-6.23379e-08 7.18435e-08 2.69363e-08
-3.23414e-08 7.28216e-08 1.98787e-08
-5.33752e-08 1.05708e-07 2.5416e-08
-7.31902e-08 6.80413e-08 3.08942e-08
-6.08761e-08 1.1346e-07 2.85734e-08
-5.25725e-08 9.91925e-08 2.32483e-08
-5.85613e-08 7.82362e-08 2.42557e-08
-3.94646e-08 7.91367e-08 1.47369e-08
-3.54866e-08 8.12638e-08 1.45032e-08
-1.02504e-08 1.06593e-07 2.90165e-08
-1.63839e-08 5.13544e-08 2.88257e-08
-3.10612e-08 1.29963e-07 3.11245e-08
-4.5465e-08 3.87051e-08 3.31858e-08
1.32474e-08 -1.27822e-08 -2.15974e-08
1.33752e-08 1.35047e-08 -2.18998e-08
-1.28518e-08 1.49402e-08 -2.25188e-08
-1.29344e-08 -1.49729e-08 -2.25636e-08
-2.97525e-08 -2.28915e-08 -3.03335e-08
-2.97026e-08 2.2859e-08 -3.03225e-08
1.22665e-10 1.63804e-08 -2.04116e-08
-1.5054e-08 4.23856e-10 -2.08308e-08
1.47077e-08 -4.6569e-10 -1.94361e-08
-4.50936e-11 -1.63595e-08 -2.04076e-08
-3.55455e-08 2.45492e-08 -3.23037e-08
-3.55939e-08 -2.45791e-08 -3.23108e-08
2.74555e-08 1.48796e-08 -2.7541e-08
2.87994e-08 -1.54087e-08 -2.80305e-08
5.54293e-11 -3.30634e-08 -2.80103e-08
1.5572e-09 3.30031e-08 -2.79953e-08
1.06117e-08 2.57674e-08 -2.54908e-08
-9.53098e-09 -2.69959e-08 -2.57714e-08
-2.76043e-08 7.78243e-09 -2.79618e-08
-2.81116e-08 -7.65902e-09 -2.8155e-08
1.05484e-08 -2.67581e-08 -2.57243e-08
-9.40376e-09 2.81897e-08 -2.60707e-08
4.80921e-09 -4.82628e-09 -1.26714e-08
5.47478e-09 6.08647e-09 -1.41061e-08
-5.36727e-09 5.26211e-09 -1.36591e-08
-5.69276e-09 -5.61449e-09 -1.4162e-08
-3.70871e-08 2.92303e-08 -3.26823e-08
-3.71349e-08 -2.92579e-08 -3.2689e-08
-2.04494e-08 2.55917e-08 -2.73934e-08
-2.05004e-08 -2.55284e-08 -2.73926e-08
2.90249e-08 -4.30326e-09 -2.60667e-08
2.74841e-08 5.01274e-09 -2.56472e-08
-2.1785e-08 -1.40575e-08 -2.62981e-08
-2.17208e-08 1.40201e-08 -2.62717e-08
4.75013e-09 -4.02717e-08 -3.00945e-08
-2.46416e-09 4.07298e-08 -3.01685e-08
2.10265e-08 -2.29869e-08 -2.66835e-08
2.10041e-08 2.2531e-08 -2.66241e-08
1.5331e-09 8.51757e-09 -1.4559e-08
1.17384e-09 -8.26129e-09 -1.42273e-08
-8.03679e-09 -1.51154e-09 -1.4905e-08
7.77488e-09 -9.33383e-10 -1.38226e-08
-3.67513e-08 1.6514e-08 -3.194e-08
-3.67951e-08 -1.65422e-08 -3.19463e-08
1.92643e-08 -7.23129e-09 -2.28522e-08
3.13501e-08 2.27158e-08 -2.97273e-08
3.15127e-08 -2.28248e-08 -2.97721e-08
1.80197e-08 7.35639e-09 -2.22782e-08
-5.99597e-09 1.45046e-08 -1.99851e-08
-5.74935e-09 -1.417e-08 -1.97224e-08
-1.27182e-08 6.47521e-09 -1.99765e-08
6.79595e-09 -1.25953e-08 -1.91339e-08
7.04149e-09 1.2769e-08 -1.92734e-08
-1.18228e-08 -5.94945e-09 -1.91962e-08
-8.83179e-09 -3.54258e-08 -2.81738e-08
1.0454e-08 3.42499e-08 -2.79494e-08
5.37365e-09 4.17014e-08 -3.04467e-08
-2.95942e-09 -4.21696e-08 -3.05276e-08
-3.96014e-08 2.15721e-08 -3.32036e-08
-3.96454e-08 -2.1601e-08 -3.32064e-08
-3.47439e-08 1.93796e-10 -3.01324e-08
3.83405e-08 -1.72643e-08 -3.07037e-08
3.85218e-08 1.71209e-08 -3.07203e-08
7.51644e-09 -3.36037e-08 -2.79984e-08
-5.83576e-09 3.45977e-08 -2.82132e-08
3.03634e-09 -2.48586e-08 -2.48664e-08
-2.045e-09 2.518e-08 -2.49426e-08
1.07964e-08 3.89111e-09 -1.72713e-08
4.23311e-09 2.53612e-08 -2.51001e-08
-3.22492e-09 -2.57687e-08 -2.52014e-08
1.84603e-08 2.95173e-08 -2.69248e-08
1.13133e-08 -5.67157e-09 -1.81401e-08
-1.73312e-08 -3.20166e-08 -2.74624e-08
3.4295e-08 8.91126e-09 -2.80465e-08
3.48831e-08 -9.92361e-09 -2.83327e-08
-3.11157e-08 2.87605e-08 -3.08913e-08
-3.11631e-08 -2.8788e-08 -3.08995e-08
-1.99673e-08 -6.6645e-09 -2.43577e-08
-2.91961e-08 -1.56299e-08 -2.94687e-08
-2.9109e-08 1.56063e-08 -2.94388e-08
-4.11343e-08 2.88513e-08 -3.35924e-08
-4.07185e-08 2.58812e-08 -3.36544e-08
-4.11816e-08 -2.88795e-08 -3.35977e-08
-4.07652e-08 -2.59096e-08 -3.36586e-08
1.88737e-08 -2.96698e-08 -2.70245e-08
-2.32828e-08 2.07976e-08 -2.78152e-08
-2.33399e-08 -2.08272e-08 -2.78324e-08
-2.1542e-09 4.58755e-08 -3.12604e-08
4.93824e-09 -4.54319e-08 -3.11963e-08
-1.7724e-08 3.23175e-08 -2.75946e-08
-1.99515e-08 6.93515e-09 -2.43691e-08
-2.42116e-08 4.55135e-10 -2.60988e-08
3.36841e-08 1.54772e-09 -2.67602e-08
1.43382e-08 2.0376e-08 -2.43927e-08
3.7138e-08 2.43719e-08 -3.12321e-08
3.71021e-08 -2.43956e-08 -3.11982e-08
1.37782e-08 -2.00845e-08 -2.41613e-08
2.02896e-08 1.4853e-08 -2.49982e-08
-1.28511e-08 -2.17992e-08 -2.47225e-08
-9.15791e-10 4.35583e-09 -9.60791e-09
-1.45819e-09 -4.5072e-09 -1.01051e-08
-4.14949e-09 1.08455e-09 -9.91766e-09
4.34154e-09 1.65092e-09 -1.02206e-08
-1.29573e-08 2.21686e-08 -2.48304e-08
2.07779e-08 -1.52868e-08 -2.52601e-08
-3.67436e-08 9.76039e-09 -3.1221e-08
-3.7001e-08 -9.66442e-09 -3.12814e-08
1.68019e-09 -1.74077e-09 -5.97893e-09
5.90719e-09 1.93495e-08 -2.24578e-08
1.89493e-09 3.88413e-09 -9.23102e-09
-3.40705e-09 -1.95032e-09 -8.95013e-09
1.3993e-08 -3.48542e-08 -2.77451e-08
6.31668e-09 -1.98163e-08 -2.27344e-08
2.32283e-08 3.17015e-10 -2.37553e-08
-6.20176e-09 -2.07782e-08 -2.30984e-08
1.05627e-08 8.26208e-09 -1.8578e-08
-3.39983e-08 2.03698e-08 -3.15552e-08
-3.40522e-08 -2.03995e-08 -3.15657e-08
-2.56075e-08 -3.17162e-08 -2.91088e-08
-2.54651e-08 3.13991e-08 -2.90844e-08
-5.96395e-09 2.10381e-08 -2.31925e-08
2.49098e-08 9.5683e-09 -2.5567e-08
-1.24551e-08 3.60273e-08 -2.79614e-08
2.55198e-08 2.0544e-08 -2.774e-08
2.56572e-08 -2.07509e-08 -2.77921e-08
2.62054e-08 -9.95558e-09 -2.60952e-08
-1.89483e-09 1.99774e-09 -6.5538e-09
-2.34511e-09 9.86621e-09 -1.5894e-08
-2.41405e-09 -9.8776e-09 -1.58993e-08
-8.65011e-09 2.30803e-09 -1.56591e-08
-8.7219e-09 1.04374e-08 -1.88613e-08
-8.54149e-09 -1.07409e-08 -1.89289e-08
-1.76669e-08 -1.88557e-08 -2.54115e-08
8.81058e-09 -8.75648e-09 -1.78393e-08
-1.76112e-08 1.88683e-08 -2.53935e-08
-2.58907e-08 2.58788e-08 -2.91274e-08
-2.59589e-08 -2.59478e-08 -2.91433e-08
-1.55714e-08 1.1744e-08 -2.29537e-08
-1.58532e-08 -1.16648e-08 -2.30718e-08
9.21126e-10 -3.44965e-09 -8.22516e-09
3.30282e-09 -8.72118e-10 -8.10213e-09
2.68265e-08 2.76605e-08 -2.84668e-08
2.68138e-08 -2.76684e-08 -2.84561e-08
1.86292e-09 4.49031e-08 -3.12425e-08
8.59476e-10 -4.49379e-08 -3.12564e-08
5.90006e-08 6.16575e-08 -2.26545e-08
6.12274e-08 8.73725e-08 -2.28095e-08
3.60339e-08 8.90357e-08 -2.27927e-08
3.32456e-08 6.25407e-08 -2.26096e-08
2.03453e-08 9.67271e-08 -2.91497e-08
1.68058e-08 5.73401e-08 -2.90284e-08
4.83115e-08 9.07703e-08 -2.14277e-08
3.23553e-08 7.65153e-08 -2.08848e-08
6.16709e-08 7.4458e-08 -2.10844e-08
4.59664e-08 5.96075e-08 -2.12889e-08
1.48503e-08 9.8811e-08 -3.06939e-08
1.11426e-08 5.66914e-08 -3.06528e-08
7.66195e-08 8.99125e-08 -2.82233e-08
7.29694e-08 5.97628e-08 -2.7862e-08
4.44574e-08 4.3883e-08 -2.80346e-08
4.88186e-08 1.07595e-07 -2.80863e-08
4.01406e-08 1.00455e-07 -2.59522e-08
3.56081e-08 5.06922e-08 -2.56985e-08
2.1035e-08 8.34626e-08 -2.6224e-08
1.92679e-08 7.06767e-08 -2.62989e-08
5.82194e-08 1.00505e-07 -2.61684e-08
5.54245e-08 4.90704e-08 -2.59476e-08
5.17867e-08 6.89527e-08 -1.68903e-08
5.31236e-08 8.09225e-08 -1.70755e-08
4.22559e-08 8.03956e-08 -1.65781e-08
4.12995e-08 7.02104e-08 -1.64048e-08
1.36011e-08 1.03472e-07 -3.1239e-08
9.43459e-09 5.24896e-08 -3.12261e-08
2.96297e-08 9.84337e-08 -2.70891e-08
2.53572e-08 5.35112e-08 -2.67976e-08
7.49272e-08 7.89885e-08 -2.66062e-08
7.27451e-08 6.94282e-08 -2.62158e-08
2.49173e-08 6.43993e-08 -2.53825e-08
2.73011e-08 8.84927e-08 -2.54976e-08
4.85725e-08 3.66169e-08 -3.00986e-08
5.31762e-08 1.15321e-07 -2.99981e-08
6.87951e-08 9.65349e-08 -2.70652e-08
6.54665e-08 5.35607e-08 -2.65149e-08
4.93699e-08 8.34086e-08 -1.72832e-08
4.50234e-08 6.69174e-08 -1.70464e-08
3.88107e-08 7.45524e-08 -1.7024e-08
5.53759e-08 7.43034e-08 -1.73434e-08
1.30851e-08 9.13635e-08 -2.95548e-08
1.03553e-08 6.41015e-08 -2.95151e-08
6.61526e-08 8.24364e-08 -2.37082e-08
8.00799e-08 9.71686e-08 -2.97554e-08
7.69594e-08 5.22894e-08 -2.98363e-08
6.44137e-08 6.78864e-08 -2.32994e-08
4.28276e-08 8.85239e-08 -2.07581e-08
5.18398e-08 6.18041e-08 -2.05604e-08
3.52549e-08 8.16408e-08 -2.04875e-08
5.48289e-08 8.71571e-08 -2.06103e-08
3.98243e-08 6.27833e-08 -2.04663e-08
3.50388e-08 7.06824e-08 -1.97729e-08
3.55695e-08 4.24073e-08 -2.80238e-08
4.09433e-08 1.08867e-07 -2.82208e-08
4.59397e-08 1.17043e-07 -3.03269e-08
4.07508e-08 3.53467e-08 -3.04406e-08
1.09034e-08 9.60588e-08 -3.09122e-08
7.39063e-09 6.00472e-08 -3.08838e-08
1.34964e-08 7.76613e-08 -2.72019e-08
8.68269e-08 9.19555e-08 -3.05753e-08
8.44267e-08 5.76818e-08 -3.0856e-08
5.54735e-08 1.07846e-07 -2.81815e-08
5.18712e-08 4.28031e-08 -2.80756e-08
5.84627e-08 7.87297e-08 -1.94889e-08
4.80259e-08 5.14442e-08 -2.5123e-08
5.1374e-08 9.91068e-08 -2.52812e-08
4.58015e-08 9.98392e-08 -2.55012e-08
4.17751e-08 5.11242e-08 -2.53431e-08
2.77905e-08 4.67752e-08 -2.70718e-08
3.32208e-08 1.04169e-07 -2.74791e-08
7.93019e-08 6.55021e-08 -2.84791e-08
8.16373e-08 8.45312e-08 -2.85916e-08
1.94897e-08 1.02214e-07 -2.99099e-08
1.51224e-08 5.19676e-08 -2.97644e-08
2.71477e-08 7.07524e-08 -2.35261e-08
1.77253e-08 6.39141e-08 -2.78534e-08
2.02811e-08 9.02395e-08 -2.79178e-08
9.66552e-09 1.03536e-07 -3.17735e-08
1.00827e-08 1.00379e-07 -3.1594e-08
5.47245e-09 5.34294e-08 -3.18112e-08
6.04957e-09 5.62038e-08 -3.15885e-08
5.67046e-08 6.95765e-08 -1.92164e-08
6.62004e-08 1.02494e-07 -2.74876e-08
6.32558e-08 4.56697e-08 -2.71543e-08
2.6409e-08 9.44517e-08 -2.71397e-08
2.30099e-08 5.83713e-08 -2.69559e-08
5.35532e-08 1.20903e-07 -3.0956e-08
4.8361e-08 3.16203e-08 -3.11819e-08
2.83327e-08 8.23458e-08 -2.36252e-08
2.36059e-08 7.715e-08 -2.46514e-08
7.83891e-08 7.28628e-08 -2.7342e-08
8.6181e-08 9.92305e-08 -3.09723e-08
8.30114e-08 5.08135e-08 -3.12513e-08
6.13212e-08 9.35786e-08 -2.46722e-08
5.75661e-08 5.48293e-08 -2.44295e-08
6.63194e-08 6.07723e-08 -2.5486e-08
3.28092e-08 5.61274e-08 -2.4546e-08
3.67266e-08 9.52191e-08 -2.48254e-08
4.64421e-08 8.01695e-08 -1.48582e-08
4.82865e-08 6.98423e-08 -1.50081e-08
5.22858e-08 7.66984e-08 -1.50821e-08
4.23074e-08 7.7047e-08 -1.49692e-08
6.84988e-08 8.95911e-08 -2.57715e-08
1.24794e-08 8.55169e-08 -2.83283e-08
1.05957e-08 6.99422e-08 -2.8321e-08
4.44632e-08 7.30412e-08 -1.35267e-08
3.97228e-08 5.65923e-08 -2.31935e-08
4.9591e-08 7.93385e-08 -1.46325e-08
5.0671e-08 7.28814e-08 -1.43313e-08
5.82309e-08 4.11409e-08 -2.7852e-08
6.1509e-08 1.08045e-07 -2.80868e-08
5.42711e-08 9.39602e-08 -2.3458e-08
6.92443e-08 7.4358e-08 -2.45703e-08
4.28705e-08 9.47463e-08 -2.35875e-08
1.60343e-08 9.47769e-08 -2.98029e-08
1.28297e-08 6.03049e-08 -2.97458e-08
2.00984e-08 4.82728e-08 -2.8358e-08
2.5275e-08 1.04026e-07 -2.86863e-08
5.79309e-08 8.27639e-08 -2.01233e-08
5.16815e-08 5.55566e-08 -2.34158e-08
7.01888e-08 6.5295e-08 -2.5988e-08
7.37213e-08 9.4768e-08 -2.80265e-08
7.09307e-08 5.46327e-08 -2.79208e-08
7.32224e-08 8.46754e-08 -2.65371e-08
4.51156e-08 7.76643e-08 -1.37522e-08
4.87111e-08 6.55121e-08 -1.79924e-08
4.5698e-08 8.47631e-08 -1.81101e-08
3.85316e-08 7.79766e-08 -1.76722e-08
3.97583e-08 8.51479e-08 -1.99683e-08
5.39161e-08 6.52663e-08 -1.95329e-08
2.85018e-08 5.94842e-08 -2.49546e-08
3.17979e-08 9.25087e-08 -2.5161e-08
3.73128e-08 6.60469e-08 -1.99701e-08
2.43116e-08 9.90963e-08 -2.84494e-08
2.02041e-08 5.38912e-08 -2.82283e-08
3.30871e-08 8.62974e-08 -2.2889e-08
3.1018e-08 6.58411e-08 -2.27034e-08
4.52708e-08 7.07751e-08 -1.43797e-08
4.24982e-08 7.41705e-08 -1.44422e-08
7.45649e-08 1.01023e-07 -2.86913e-08
7.14905e-08 4.77793e-08 -2.84656e-08
4.43258e-08 3.23704e-08 -3.12055e-08
4.94377e-08 1.20455e-07 -3.09746e-08
1.01376e-07 -1.1935e-08 -2.26036e-08
1.0145e-07 1.24995e-08 -2.28141e-08
7.54519e-08 1.32334e-08 -2.26229e-08
7.54165e-08 -1.32165e-08 -2.26472e-08
5.93262e-08 1.93213e-08 -2.90143e-08
5.9286e-08 -1.93178e-08 -2.90234e-08
8.80608e-08 1.50685e-08 -2.13787e-08
7.30112e-08 -1.25963e-10 -2.08319e-08
1.02827e-07 -4.90917e-10 -2.08464e-08
8.78933e-08 -1.51073e-08 -2.14151e-08
5.37117e-08 2.0307e-08 -3.0623e-08
5.36612e-08 -2.03108e-08 -3.06324e-08
1.17328e-07 -1.54067e-08 -2.82364e-08
1.15899e-07 1.47367e-08 -2.77839e-08
8.80802e-08 -3.11239e-08 -2.81508e-08
8.95168e-08 3.1026e-08 -2.81716e-08
9.81084e-08 2.3692e-08 -2.60133e-08
7.87934e-08 -2.47702e-08 -2.57653e-08
6.09838e-08 6.30845e-09 -2.61204e-08
6.02034e-08 -6.30938e-09 -2.63338e-08
9.79794e-08 -2.46516e-08 -2.62653e-08
7.89364e-08 2.5921e-08 -2.60353e-08
9.31988e-08 -4.6676e-09 -1.62769e-08
9.36856e-08 5.72437e-09 -1.70541e-08
8.21573e-08 5.0865e-09 -1.67638e-08
8.24076e-08 -4.79135e-09 -1.65338e-08
5.23599e-08 2.45051e-08 -3.11926e-08
5.2302e-08 -2.45122e-08 -3.12168e-08
6.82911e-08 2.26089e-08 -2.68222e-08
6.82505e-08 -2.2519e-08 -2.68277e-08
1.16438e-07 -4.50828e-09 -2.6564e-08
1.15071e-07 5.10959e-09 -2.61543e-08
6.68029e-08 -1.19201e-08 -2.53713e-08
6.68355e-08 1.19329e-08 -2.53605e-08
9.29138e-08 -3.84421e-08 -3.02087e-08
8.59853e-08 3.86105e-08 -3.01482e-08
1.08978e-07 -2.14914e-08 -2.71249e-08
1.08972e-07 2.10077e-08 -2.70341e-08
8.95523e-08 7.99212e-09 -1.7262e-08
8.92542e-08 -7.88594e-09 -1.714e-08
7.97105e-08 1.34547e-09 -1.70927e-08
9.63506e-08 -9.59621e-10 -1.7015e-08
5.22047e-08 1.31386e-08 -2.94575e-08
5.2177e-08 -1.31377e-08 -2.94543e-08
1.07305e-07 -7.07736e-09 -2.36516e-08
1.20402e-07 -2.27458e-08 -2.97799e-08
1.20212e-07 2.25437e-08 -2.97265e-08
1.06111e-07 7.09889e-09 -2.31372e-08
8.2057e-08 1.32164e-08 -2.0839e-08
8.23013e-08 -1.28942e-08 -2.06708e-08
7.53221e-08 -5.64519e-09 -2.04058e-08
9.48024e-08 -1.16135e-08 -2.05312e-08
9.50175e-08 1.17104e-08 -2.06038e-08
7.62786e-08 5.20423e-09 -1.98316e-08
7.95574e-08 -3.29673e-08 -2.80711e-08
9.78307e-08 3.18065e-08 -2.83448e-08
9.35799e-08 3.97783e-08 -3.05606e-08
8.55395e-08 -4.00219e-08 -3.04685e-08
4.96316e-08 1.72779e-08 -3.0832e-08
4.95944e-08 -1.72794e-08 -3.08286e-08
5.40025e-08 1.00428e-10 -2.70807e-08
1.27458e-07 -1.78731e-08 -3.05756e-08
1.27587e-07 1.76327e-08 -3.05959e-08
9.50797e-08 -3.14965e-08 -2.8325e-08
8.24812e-08 3.23424e-08 -2.81856e-08
9.08298e-08 -2.30949e-08 -2.53211e-08
8.59653e-08 2.33454e-08 -2.52281e-08
9.91564e-08 3.69462e-09 -1.92016e-08
9.19657e-08 2.34706e-08 -2.55332e-08
8.48392e-08 -2.3911e-08 -2.54444e-08
1.05645e-07 2.68694e-08 -2.74526e-08
9.95254e-08 -5.37333e-09 -1.98366e-08
7.13034e-08 -2.89582e-08 -2.71155e-08
1.21991e-07 9.20659e-09 -2.83203e-08
1.22733e-07 -1.02893e-08 -2.85728e-08
5.80988e-08 2.46652e-08 -2.97652e-08
5.80517e-08 -2.46525e-08 -2.97733e-08
6.8323e-08 5.76602e-09 -2.35444e-08
5.95929e-08 -1.28628e-08 -2.78326e-08
5.96783e-08 1.28604e-08 -2.78075e-08
4.82996e-08 2.38119e-08 -3.17497e-08
4.86333e-08 2.11113e-08 -3.15382e-08
4.82419e-08 -2.38384e-08 -3.17815e-08
4.8578e-08 -2.11195e-08 -3.15442e-08
1.06049e-07 -2.71176e-08 -2.75752e-08
6.54885e-08 1.79311e-08 -2.69518e-08
6.54502e-08 -1.792e-08 -2.69651e-08
9.35648e-08 -4.38584e-08 -3.12152e-08
8.6569e-08 4.36565e-08 -3.12073e-08
7.09237e-08 2.92183e-08 -2.72076e-08
6.85114e-08 -5.5544e-09 -2.34292e-08
6.38989e-08 4.84728e-10 -2.46639e-08
1.20435e-07 1.57421e-09 -2.7257e-08
1.02114e-07 1.86658e-08 -2.50063e-08
1.26444e-07 -2.50804e-08 -3.09881e-08
1.26457e-07 2.49558e-08 -3.09974e-08
1.01565e-07 -1.84674e-08 -2.48324e-08
1.08513e-07 1.41228e-08 -2.55076e-08
7.55643e-08 -1.95932e-08 -2.46166e-08
8.63237e-08 4.89597e-09 -1.49953e-08
8.67355e-08 -4.66085e-09 -1.48203e-08
9.33748e-08 1.73642e-09 -1.51341e-08
8.28629e-08 -1.22407e-09 -1.48461e-08
7.54567e-08 1.99518e-08 -2.47038e-08
1.09043e-07 -1.46167e-08 -2.57713e-08
5.20558e-08 7.56719e-09 -2.82133e-08
5.16691e-08 -7.41907e-09 -2.82434e-08
9.03457e-08 -2.08324e-09 -1.35738e-08
9.36885e-08 1.77737e-08 -2.32171e-08
9.01225e-08 4.09051e-09 -1.45988e-08
8.39272e-08 1.89843e-09 -1.43847e-08
1.01143e-07 -3.21039e-08 -2.82306e-08
9.40845e-08 -1.82485e-08 -2.34977e-08
1.10904e-07 2.8128e-10 -2.44789e-08
8.19557e-08 -1.90432e-08 -2.34768e-08
9.87027e-08 7.67882e-09 -2.01441e-08
5.50791e-08 1.66791e-08 -2.97096e-08
5.50316e-08 -1.66813e-08 -2.97163e-08
6.3514e-08 2.76618e-08 -2.83435e-08
6.33795e-08 -2.79244e-08 -2.83879e-08
8.21835e-08 1.92862e-08 -2.35364e-08
1.12953e-07 9.48698e-09 -2.60406e-08
7.60139e-08 3.32171e-08 -2.77651e-08
1.1409e-07 -2.00231e-08 -2.80579e-08
1.13938e-07 1.97498e-08 -2.79869e-08
1.14273e-07 -9.99354e-09 -2.65277e-08
8.55235e-08 -2.10783e-09 -1.37117e-08
8.55718e-08 9.22565e-09 -1.80417e-08
8.55493e-08 -9.22482e-09 -1.80736e-08
7.898e-08 -2.048e-09 -1.76068e-08
7.95789e-08 9.59141e-09 -1.98733e-08
7.94684e-08 -9.43059e-09 -1.98764e-08
7.08999e-08 -1.64937e-08 -2.49778e-08
9.70135e-08 -8.20483e-09 -1.96735e-08
7.09261e-08 1.65584e-08 -2.49743e-08
6.3069e-08 2.24305e-08 -2.82233e-08
6.30118e-08 -2.24583e-08 -2.82437e-08
7.27626e-08 -1.01886e-08 -2.27501e-08
7.25329e-08 1.0103e-08 -2.28115e-08
8.93791e-08 -4.13428e-09 -1.44796e-08
9.24645e-08 -1.16113e-09 -1.43781e-08
1.14607e-07 -2.62637e-08 -2.87422e-08
1.14606e-07 2.61687e-08 -2.87267e-08
9.05946e-08 4.31132e-08 -3.12495e-08
8.95495e-08 -4.30758e-08 -3.12158e-08
6.08726e-08 -8.758e-08 -2.27562e-08
5.9356e-08 -6.19046e-08 -2.27333e-08
3.3238e-08 -6.24748e-08 -2.26051e-08
3.59906e-08 -8.89999e-08 -2.27846e-08
1.67928e-08 -5.73153e-08 -2.90229e-08
2.03124e-08 -9.67104e-08 -2.91475e-08
4.56395e-08 -5.9641e-08 -2.12726e-08
3.22421e-08 -7.57405e-08 -2.08791e-08
6.16759e-08 -7.48578e-08 -2.10885e-08
4.86748e-08 -9.07751e-08 -2.14389e-08
1.11442e-08 -5.66783e-08 -3.06454e-08
1.48128e-08 -9.87943e-08 -3.06878e-08
7.43443e-08 -5.9229e-08 -2.83263e-08
7.51326e-08 -8.93507e-08 -2.77949e-08
4.87857e-08 -1.07592e-07 -2.80826e-08
4.58924e-08 -4.38392e-08 -2.80349e-08
5.54926e-08 -5.01036e-08 -2.57248e-08
4.01162e-08 -1.00391e-07 -2.59489e-08
1.96857e-08 -7.04911e-08 -2.61806e-08
2.05408e-08 -8.33491e-08 -2.63379e-08
5.81921e-08 -1.00536e-07 -2.61507e-08
3.55477e-08 -4.94409e-08 -2.59833e-08
5.29681e-08 -8.07877e-08 -1.69648e-08
5.18363e-08 -6.87975e-08 -1.70044e-08
4.09278e-08 -7.05606e-08 -1.65013e-08
4.26484e-08 -8.06859e-08 -1.64838e-08
9.44084e-09 -5.24776e-08 -3.1204e-08
1.35622e-08 -1.03452e-07 -3.12326e-08
2.53202e-08 -5.33789e-08 -2.6804e-08
2.96035e-08 -9.84086e-08 -2.70858e-08
7.41562e-08 -7.01042e-08 -2.66578e-08
7.35881e-08 -7.96483e-08 -2.6179e-08
2.72734e-08 -8.84751e-08 -2.55e-08
2.48944e-08 -6.43745e-08 -2.53723e-08
5.31411e-08 -1.15314e-07 -2.99915e-08
4.1302e-08 -3.67045e-08 -3.00949e-08
6.62891e-08 -5.22412e-08 -2.69299e-08
6.78666e-08 -9.51901e-08 -2.66561e-08
4.75921e-08 -6.67256e-08 -1.71798e-08
4.68544e-08 -8.34847e-08 -1.71578e-08
3.90958e-08 -7.68218e-08 -1.70405e-08
5.54331e-08 -7.52247e-08 -1.73523e-08
1.03435e-08 -6.40905e-08 -2.95179e-08
1.30556e-08 -9.13496e-08 -2.95487e-08
6.48491e-08 -6.67544e-08 -2.37105e-08
7.71516e-08 -5.21651e-08 -2.98961e-08
7.98271e-08 -9.70375e-08 -2.97215e-08
6.55037e-08 -8.13317e-08 -2.33082e-08
3.97463e-08 -6.20084e-08 -2.0802e-08
5.38874e-08 -8.7946e-08 -2.06966e-08
3.39218e-08 -7.02044e-08 -2.04121e-08
5.28304e-08 -6.25997e-08 -2.04495e-08
4.24758e-08 -8.81003e-08 -2.06235e-08
3.62148e-08 -8.10452e-08 -1.98407e-08
4.09052e-08 -1.08864e-07 -2.82268e-08
5.47223e-08 -4.20301e-08 -2.80307e-08
4.59033e-08 -1.17038e-07 -3.03257e-08
4.90346e-08 -3.52246e-08 -3.04454e-08
7.38552e-09 -6.00376e-08 -3.08879e-08
1.08679e-08 -9.60429e-08 -3.09009e-08
1.34368e-08 -7.73249e-08 -2.72014e-08
8.42965e-08 -5.75014e-08 -3.08448e-08
8.69038e-08 -9.1781e-08 -3.06117e-08
5.54375e-08 -1.07844e-07 -2.81706e-08
3.84914e-08 -4.29182e-08 -2.81191e-08
5.76842e-08 -7.06877e-08 -1.94678e-08
5.13457e-08 -9.91013e-08 -2.52632e-08
4.29088e-08 -5.15826e-08 -2.51237e-08
4.91246e-08 -5.09101e-08 -2.53454e-08
4.57688e-08 -9.98447e-08 -2.55073e-08
6.32102e-08 -4.60203e-08 -2.70852e-08
3.31891e-08 -1.04138e-07 -2.74814e-08
8.07917e-08 -8.3533e-08 -2.83553e-08
7.99667e-08 -6.44957e-08 -2.87433e-08
1.51131e-08 -5.19297e-08 -2.97604e-08
1.94551e-08 -1.02194e-07 -2.99066e-08
2.83137e-08 -8.20669e-08 -2.35839e-08
2.02154e-08 -9.02205e-08 -2.79279e-08
1.77443e-08 -6.38872e-08 -2.78375e-08
5.48138e-09 -5.3441e-08 -3.17806e-08
6.05871e-09 -5.61993e-08 -3.15836e-08
9.62285e-09 -1.03516e-07 -3.17644e-08
1.00395e-08 -1.00359e-07 -3.15833e-08
5.76322e-08 -7.98626e-08 -1.92611e-08
6.5747e-08 -1.02723e-07 -2.74665e-08
2.29866e-08 -5.83338e-08 -2.69498e-08
2.63795e-08 -9.4431e-08 -2.71383e-08
5.3518e-08 -1.20896e-07 -3.09506e-08
4.12078e-08 -3.1685e-08 -3.11733e-08
2.7325e-08 -4.64794e-08 -2.71697e-08
2.70561e-08 -7.04738e-08 -2.35613e-08
2.34977e-08 -7.63496e-08 -2.46474e-08
7.86388e-08 -7.59895e-08 -2.7323e-08
5.88845e-08 -5.5774e-08 -2.44135e-08
8.30184e-08 -5.0746e-08 -3.12625e-08
8.61335e-08 -9.91753e-08 -3.09999e-08
5.99087e-08 -9.43932e-08 -2.46144e-08
6.82861e-08 -8.82711e-08 -2.55173e-08
3.66664e-08 -9.51108e-08 -2.48004e-08
4.51153e-08 -7.02257e-08 -1.4781e-08
4.94824e-08 -8.02183e-08 -1.5089e-08
5.18037e-08 -7.30426e-08 -1.50591e-08
4.18372e-08 -7.39135e-08 -1.49447e-08
3.26163e-08 -5.56432e-08 -2.46744e-08
6.63581e-08 -5.94701e-08 -2.57311e-08
1.07868e-08 -6.9803e-08 -2.83025e-08
1.22217e-08 -8.54068e-08 -2.83455e-08
4.51629e-08 -7.7516e-08 -1.35671e-08
4.32378e-08 -9.43028e-08 -2.33805e-08
5.11922e-08 -5.64701e-08 -2.30506e-08
4.84492e-08 -7.07027e-08 -1.45613e-08
5.11799e-08 -7.69398e-08 -1.43685e-08
6.13927e-08 -1.08112e-07 -2.80901e-08
6.92449e-08 -7.4816e-08 -2.45767e-08
1.28282e-08 -6.02899e-08 -2.97417e-08
1.59947e-08 -9.47616e-08 -2.97994e-08
2.01895e-08 -4.84977e-08 -2.83211e-08
2.52433e-08 -1.04001e-07 -2.86852e-08
5.65245e-08 -6.66671e-08 -2.00652e-08
5.43019e-08 -9.43443e-08 -2.35789e-08
3.93842e-08 -5.5879e-08 -2.34753e-08
7.16455e-08 -8.3826e-08 -2.59554e-08
3.19823e-08 -4.22146e-08 -2.77101e-08
7.11267e-08 -5.41685e-08 -2.80233e-08
7.34433e-08 -9.42771e-08 -2.79361e-08
7.16027e-08 -6.44673e-08 -2.65979e-08
4.43278e-08 -7.29154e-08 -1.37101e-08
5.05142e-08 -8.45187e-08 -1.81078e-08
4.35517e-08 -6.57618e-08 -1.79909e-08
3.79255e-08 -7.34801e-08 -1.76389e-08
5.55066e-08 -8.43228e-08 -1.96309e-08
3.74544e-08 -6.61855e-08 -1.98229e-08
3.17641e-08 -9.24819e-08 -2.51588e-08
3.94469e-08 -8.51976e-08 -2.0098e-08
2.84659e-08 -5.93872e-08 -2.49599e-08
2.02026e-08 -5.38887e-08 -2.82146e-08
2.42808e-08 -9.90749e-08 -2.84472e-08
3.08824e-08 -6.57283e-08 -2.27569e-08
3.31383e-08 -8.61804e-08 -2.28291e-08
4.64181e-08 -7.96317e-08 -1.44517e-08
4.28495e-08 -7.66926e-08 -1.44616e-08
7.22977e-08 -4.74529e-08 -2.86669e-08
7.40228e-08 -1.00729e-07 -2.86004e-08
4.52817e-08 -3.23438e-08 -3.12037e-08
4.94023e-08 -1.20449e-07 -3.09712e-08
-2.43755e-08 -9.36278e-08 -2.27038e-08
-2.81765e-08 -6.725e-08 -2.32153e-08
-5.6472e-08 -7.40776e-08 -2.41939e-08
-4.92862e-08 -1.01406e-07 -2.30845e-08
-6.55774e-08 -1.11883e-07 -2.92879e-08
-7.6351e-08 -7.24543e-08 -3.12381e-08
-4.31828e-08 -6.79128e-08 -2.23336e-08
-5.46086e-08 -8.88219e-08 -2.16887e-08
-2.4637e-08 -8.11145e-08 -2.08834e-08
-3.63466e-08 -1.0021e-07 -2.16014e-08
-7.16547e-08 -1.14607e-07 -3.07159e-08
-8.33422e-08 -7.32508e-08 -3.28311e-08
-1.43843e-08 -6.42013e-08 -2.79428e-08
-9.03929e-09 -9.48616e-08 -2.84286e-08
-3.40828e-08 -1.17267e-07 -2.82456e-08
-4.52406e-08 -5.11498e-08 -2.9711e-08
-5.49875e-08 -6.05193e-08 -2.79839e-08
-4.37094e-08 -1.11803e-07 -2.61249e-08
-6.50428e-08 -9.8598e-08 -2.6912e-08
-6.94289e-08 -8.55019e-08 -2.7734e-08
-3.33475e-08 -5.49713e-08 -2.67422e-08
-2.561e-08 -1.08277e-07 -2.63621e-08
-3.32745e-08 -8.74427e-08 -1.63404e-08
-3.53478e-08 -7.60586e-08 -1.73489e-08
-4.67582e-08 -8.10887e-08 -1.72945e-08
-4.39572e-08 -9.16418e-08 -1.718e-08
-7.25619e-08 -1.19201e-07 -3.11808e-08
-8.67827e-08 -6.96107e-08 -3.3925e-08
-5.51486e-08 -1.11942e-07 -2.72574e-08
-6.70003e-08 -6.63294e-08 -2.94318e-08
-1.01602e-08 -8.36485e-08 -2.64857e-08
-1.30324e-08 -7.42201e-08 -2.61117e-08
-5.85071e-08 -1.02642e-07 -2.58857e-08
-6.51671e-08 -7.78799e-08 -2.69938e-08
-4.10139e-08 -4.26074e-08 -3.15365e-08
-2.88636e-08 -1.24442e-07 -3.01528e-08
-1.60365e-08 -1.02552e-07 -2.7324e-08
-2.25447e-08 -5.83518e-08 -2.68861e-08
-4.02331e-08 -7.49179e-08 -1.78244e-08
-3.6285e-08 -9.21875e-08 -1.7286e-08
-4.74676e-08 -8.8554e-08 -1.76892e-08
-3.10647e-08 -8.2674e-08 -1.70818e-08
-7.3315e-08 -1.07527e-07 -2.98697e-08
-8.09945e-08 -8.07676e-08 -3.11759e-08
-1.9253e-08 -8.7376e-08 -2.36941e-08
-1.13039e-08 -5.58565e-08 -2.9997e-08
-5.68018e-09 -1.02291e-07 -3.01129e-08
-2.28481e-08 -7.33239e-08 -2.30653e-08
-4.88987e-08 -7.21868e-08 -2.18654e-08
-4.21968e-08 -9.93125e-08 -2.09797e-08
-5.41306e-08 -8.23016e-08 -2.14657e-08
-3.04773e-08 -9.47445e-08 -2.06357e-08
-3.49928e-08 -6.9302e-08 -2.10586e-08
-4.99739e-08 -9.34322e-08 -2.04125e-08
-4.18517e-08 -1.19948e-07 -2.83765e-08
-5.51212e-08 -5.14705e-08 -3.08412e-08
-3.58849e-08 -1.27215e-07 -3.04703e-08
-4.92835e-08 -4.25192e-08 -3.28193e-08
-7.6081e-08 -1.12343e-07 -3.09697e-08
-8.62718e-08 -7.76083e-08 -3.271e-08
-7.28051e-08 -9.37332e-08 -2.83355e-08
3.33449e-10 -9.66934e-08 -3.08846e-08
-3.61402e-09 -6.09274e-08 -3.08792e-08
-3.73899e-08 -4.87847e-08 -2.91763e-08
-2.74537e-08 -1.16385e-07 -2.83585e-08
-4.10806e-08 -5.86275e-08 -2.63148e-08
-3.24603e-08 -1.08111e-07 -2.54501e-08
-2.92667e-08 -7.72459e-08 -1.93135e-08
-4.7917e-08 -5.96216e-08 -2.70183e-08
-3.79714e-08 -1.10004e-07 -2.56706e-08
-2.71054e-08 -8.6853e-08 -1.9889e-08
-5.04955e-08 -1.16854e-07 -2.76303e-08
-6.45528e-08 -5.84314e-08 -3.04006e-08
-6.8571e-09 -6.96652e-08 -2.83205e-08
-3.74337e-09 -8.90904e-08 -2.86065e-08
-6.60224e-08 -1.17317e-07 -2.99478e-08
-7.98626e-08 -6.74931e-08 -3.26316e-08
-5.7895e-08 -9.61266e-08 -2.42684e-08
-6.57824e-08 -1.05585e-07 -2.82771e-08
-7.31448e-08 -7.88382e-08 -2.95447e-08
-7.71611e-08 -1.19657e-07 -3.16635e-08
-7.72512e-08 -1.16543e-07 -3.15098e-08
-9.1108e-08 -7.16666e-08 -3.43078e-08
-8.95162e-08 -7.43237e-08 -3.36744e-08
-2.53418e-08 -5.0349e-08 -2.76835e-08
-1.77575e-08 -1.09108e-07 -2.77371e-08
-5.90739e-08 -1.08676e-07 -2.73597e-08
-6.88708e-08 -7.20009e-08 -2.90925e-08
-2.78667e-08 -1.30082e-07 -3.11022e-08
-4.13172e-08 -3.72615e-08 -3.27222e-08
-6.09187e-08 -8.42084e-08 -2.46509e-08
-6.33793e-08 -9.17833e-08 -2.57005e-08
-6.44907e-09 -7.72779e-08 -2.70771e-08
-5.64708e-09 -5.36532e-08 -3.1391e-08
-6.77451e-11 -1.04268e-07 -3.13946e-08
-2.3241e-08 -1.00725e-07 -2.49633e-08
-2.99048e-08 -6.04788e-08 -2.51435e-08
-2.03395e-08 -6.54528e-08 -2.59538e-08
-4.78994e-08 -1.07359e-07 -2.50321e-08
-5.78003e-08 -6.71545e-08 -2.6644e-08
-4.23944e-08 -7.94534e-08 -1.53846e-08
-3.98125e-08 -9.00329e-08 -1.52319e-08
-3.47496e-08 -8.03947e-08 -1.52954e-08
-4.50521e-08 -8.48131e-08 -1.54021e-08
-1.68744e-08 -9.51514e-08 -2.59194e-08
-7.34675e-08 -1.01838e-07 -2.90229e-08
-7.82325e-08 -8.66142e-08 -2.97933e-08
-3.66208e-08 -8.54145e-08 -1.36524e-08
-3.87236e-08 -7.87411e-08 -1.50033e-08
-4.30369e-08 -8.78453e-08 -1.48045e-08
-2.14769e-08 -1.15639e-07 -2.82951e-08
-3.07676e-08 -4.62064e-08 -2.86382e-08
-3.01383e-08 -1.02168e-07 -2.36191e-08
-3.65661e-08 -6.24738e-08 -2.42333e-08
-1.64755e-08 -7.94734e-08 -2.44273e-08
-5.04503e-08 -6.56784e-08 -2.50467e-08
-4.15169e-08 -1.0552e-07 -2.37747e-08
-3.04794e-08 -7.30794e-08 -2.03507e-08
-7.03538e-08 -1.10575e-07 -2.99652e-08
-7.99677e-08 -7.63613e-08 -3.16468e-08
-5.91991e-08 -1.18212e-07 -2.87845e-08
-7.42415e-08 -6.22474e-08 -3.1829e-08
-1.6035e-08 -6.97805e-08 -2.61742e-08
-1.70941e-08 -5.9081e-08 -2.80796e-08
-1.16241e-08 -1.00153e-07 -2.82988e-08
-1.21691e-08 -8.95483e-08 -2.6593e-08
-4.27276e-08 -8.29012e-08 -1.42076e-08
-4.46852e-08 -7.50169e-08 -1.88914e-08
-3.96138e-08 -9.47501e-08 -1.83102e-08
-4.92609e-08 -8.51256e-08 -1.83623e-08
-5.11194e-08 -7.69197e-08 -2.1016e-08
-4.57227e-08 -9.66882e-08 -2.02577e-08
-5.34436e-08 -1.05723e-07 -2.54183e-08
-6.23257e-08 -7.19004e-08 -2.69083e-08
-2.90384e-08 -9.04468e-08 -1.97501e-08
-6.09415e-08 -1.13548e-07 -2.85766e-08
-7.31829e-08 -6.80834e-08 -3.08749e-08
-5.83133e-08 -7.81135e-08 -2.41529e-08
-5.28889e-08 -9.92314e-08 -2.33436e-08
-3.70202e-08 -8.80116e-08 -1.45152e-08
-3.48662e-08 -8.37764e-08 -1.44625e-08
-1.66247e-08 -5.15319e-08 -2.8804e-08
-1.02494e-08 -1.06608e-07 -2.902e-08
-4.55096e-08 -3.87365e-08 -3.31918e-08
-3.20387e-08 -1.30154e-07 -3.11154e-08
-8.16916e-08 -2.17018e-08 -3.56537e-08
-1.28703e-07 2.5412e-08 -3.73042e-08
-8.17333e-08 2.25626e-08 -3.56353e-08
-1.28745e-07 -2.5417e-08 -3.73048e-08
-1.51546e-07 3.2082e-08 -3.80395e-08
-1.51553e-07 -3.21023e-08 -3.80388e-08
-1.04845e-07 3.00528e-08 -3.64449e-08
-1.3504e-07 7.61747e-10 -3.74639e-08
-7.79253e-08 -8.75067e-10 -3.56236e-08
-1.0514e-07 -3.01001e-08 -3.64518e-08
-1.58911e-07 3.33655e-08 -3.82605e-08
-1.58918e-07 -3.33833e-08 -3.826e-08
-6.33089e-08 2.12877e-08 -3.52575e-08
-6.17525e-08 -2.18293e-08 -3.52186e-08
-1.02993e-07 -5.06225e-08 -3.63352e-08
-1.00802e-07 5.0298e-08 -3.62021e-08
-8.76627e-08 3.9564e-08 -3.5388e-08
-1.1923e-07 -4.25719e-08 -3.70029e-08
-1.50518e-07 1.18559e-08 -3.78765e-08
-1.51092e-07 -1.16135e-08 -3.78872e-08
-8.78101e-08 -4.09187e-08 -3.53244e-08
-1.18684e-07 4.40845e-08 -3.69868e-08
-9.36195e-08 -1.17647e-08 -3.61071e-08
-1.19084e-07 1.2112e-08 -3.69892e-08
-9.30835e-08 1.36489e-08 -3.60842e-08
-1.19478e-07 -1.26066e-08 -3.70028e-08
-1.60283e-07 3.86121e-08 -3.83047e-08
-1.60293e-07 -3.86293e-08 -3.83043e-08
-1.37601e-07 3.77524e-08 -3.75915e-08
-1.37641e-07 -3.76544e-08 -3.75923e-08
-6.0986e-08 -6.49083e-09 -3.4853e-08
-6.27828e-08 7.58955e-09 -3.49565e-08
-1.42216e-07 2.17774e-08 -3.77158e-08
-1.42221e-07 -2.18009e-08 -3.77156e-08
-9.54348e-08 -5.81992e-08 -3.57204e-08
-1.04983e-07 5.97561e-08 -3.65112e-08
-7.21917e-08 -3.29993e-08 -3.49562e-08
-7.22095e-08 3.23616e-08 -3.49967e-08
-1.02115e-07 1.90207e-08 -3.63832e-08
-1.02708e-07 -1.88156e-08 -3.64022e-08
-1.24854e-07 -3.24944e-09 -3.71739e-08
-8.74693e-08 -2.25265e-09 -3.59239e-08
-1.60761e-07 2.31736e-08 -3.81806e-08
-1.60765e-07 -2.31916e-08 -3.81799e-08
-7.26412e-08 -1.18635e-08 -3.54738e-08
-5.90107e-08 -3.03535e-08 -3.50315e-08
-5.92355e-08 3.02131e-08 -3.50403e-08
-7.42224e-08 1.22235e-08 -3.5519e-08
-1.16847e-07 2.67767e-08 -3.69046e-08
-1.16424e-07 -2.63599e-08 -3.68882e-08
-1.31044e-07 1.18814e-08 -3.73599e-08
-9.21809e-08 -2.36149e-08 -3.59776e-08
-9.18131e-08 2.36392e-08 -3.59693e-08
-1.29692e-07 -1.11355e-08 -3.73179e-08
-1.1566e-07 -5.32417e-08 -3.69146e-08
-8.81019e-08 4.97485e-08 -3.50475e-08
-1.05313e-07 -6.15273e-08 -3.65351e-08
-9.44564e-08 5.95565e-08 -3.56227e-08
-1.63894e-07 2.93291e-08 -3.83236e-08
-1.639e-07 -2.93459e-08 -3.83232e-08
-1.59092e-07 2.87775e-10 -3.79782e-08
-5.11979e-08 -2.29569e-08 -3.49498e-08
-5.10115e-08 2.26904e-08 -3.49291e-08
-9.2265e-08 -4.9893e-08 -3.54837e-08
-1.11379e-07 5.24356e-08 -3.67577e-08
-9.93164e-08 -4.03923e-08 -3.6122e-08
-1.07509e-07 4.11113e-08 -3.65471e-08
-8.34734e-08 7.64629e-09 -3.58027e-08
-9.74312e-08 4.06799e-08 -3.60161e-08
-1.09303e-07 -4.18154e-08 -3.66215e-08
-7.64627e-08 4.16891e-08 -3.44067e-08
-8.31238e-08 -1.07704e-08 -3.57884e-08
-1.30526e-07 -4.69124e-08 -3.73387e-08
-5.53382e-08 1.27058e-08 -3.46271e-08
-5.47512e-08 -1.40909e-08 -3.46234e-08
-1.52536e-07 3.89659e-08 -3.80734e-08
-1.52546e-07 -3.89859e-08 -3.80729e-08
-1.40923e-07 -1.08919e-08 -3.76369e-08
-1.51677e-07 2.2822e-08 -3.79878e-08
-1.51723e-07 -2.28229e-08 -3.79882e-08
-1.65096e-07 3.77204e-08 -3.84041e-08
-1.65027e-07 3.42532e-08 -3.83924e-08
-1.65105e-07 -3.77361e-08 -3.84037e-08
-1.65035e-07 -3.42692e-08 -3.8392e-08
-7.5851e-08 -4.18347e-08 -3.43783e-08
-1.43065e-07 3.07484e-08 -3.77718e-08
-1.43076e-07 -3.07633e-08 -3.77713e-08
-9.43069e-08 -6.3768e-08 -3.54972e-08
-1.03383e-07 6.56636e-08 -3.64193e-08
-1.3111e-07 4.71574e-08 -3.73535e-08
-1.40938e-07 1.13664e-08 -3.76385e-08
-1.46735e-07 7.22149e-10 -3.7761e-08
-5.58086e-08 2.2526e-09 -3.42475e-08
-8.13619e-08 3.17064e-08 -3.53465e-08
-5.27696e-08 3.11055e-08 -3.49423e-08
-5.27798e-08 -3.12102e-08 -3.49387e-08
-8.21247e-08 -3.1614e-08 -3.53857e-08
-7.22818e-08 2.26522e-08 -3.54013e-08
-1.2646e-07 -3.49728e-08 -3.72363e-08
-1.08964e-07 1.29145e-08 -3.66418e-08
-1.10104e-07 -1.30216e-08 -3.66812e-08
-9.29143e-08 4.57968e-09 -3.60797e-08
-1.18853e-07 3.24988e-09 -3.7e-08
-1.26574e-07 3.54372e-08 -3.72414e-08
-7.16232e-08 -2.31806e-08 -3.53777e-08
-1.61107e-07 1.40187e-08 -3.80758e-08
-1.61367e-07 -1.38562e-08 -3.80768e-08
-9.92386e-08 -6.52136e-09 -3.62884e-08
-9.47353e-08 3.27614e-08 -3.59632e-08
-1.00183e-07 1.14961e-08 -3.633e-08
-1.16872e-07 -5.60085e-09 -3.69418e-08
-8.3047e-08 -4.94268e-08 -3.44414e-08
-9.40414e-08 -3.33699e-08 -3.59093e-08
-6.74721e-08 4.76443e-10 -3.51797e-08
-1.15317e-07 -3.51778e-08 -3.6854e-08
-8.49388e-08 1.53616e-08 -3.58156e-08
-1.57301e-07 2.8452e-08 -3.8176e-08
-1.57312e-07 -2.84678e-08 -3.81755e-08
-1.4376e-07 4.35899e-08 -3.77582e-08
-1.43851e-07 -4.39443e-08 -3.7758e-08
-1.14902e-07 3.55081e-08 -3.68391e-08
-6.5972e-08 1.44973e-08 -3.52357e-08
-1.21243e-07 5.31924e-08 -3.7055e-08
-6.59348e-08 -2.90719e-08 -3.5086e-08
-6.61149e-08 2.87541e-08 -3.5104e-08
-6.44592e-08 -1.49296e-08 -3.51981e-08
-1.12936e-07 6.8724e-09 -3.68035e-08
-1.10776e-07 -2.10861e-08 -3.66894e-08
-1.10777e-07 2.10564e-08 -3.6691e-08
-1.25789e-07 4.96351e-09 -3.72003e-08
-1.23212e-07 1.98531e-08 -3.71202e-08
-1.2273e-07 -2.03302e-08 -3.71039e-08
-1.35121e-07 -2.95599e-08 -3.75149e-08
-8.76739e-08 -1.69498e-08 -3.58894e-08
-1.35104e-07 2.9606e-08 -3.75154e-08
-1.45697e-07 3.66378e-08 -3.78553e-08
-1.4573e-07 -3.67002e-08 -3.78555e-08
-1.33902e-07 1.97828e-08 -3.7459e-08
-1.34245e-07 -1.9575e-08 -3.74688e-08
-1.023e-07 -1.12505e-08 -3.64044e-08
-9.46574e-08 -3.18475e-09 -3.61296e-08
-6.50727e-08 3.69443e-08 -3.43784e-08
-6.50558e-08 -3.70318e-08 -3.43763e-08
-9.97822e-08 -6.41924e-08 -3.61334e-08
-9.8355e-08 6.38362e-08 -3.59969e-08
-2.84793e-08 6.81297e-08 -2.27784e-08
-2.41879e-08 9.43062e-08 -2.29548e-08
-4.91953e-08 1.01332e-07 -2.30611e-08
-5.64892e-08 7.40125e-08 -2.42223e-08
-7.6371e-08 7.24166e-08 -3.12549e-08
-6.55257e-08 1.11843e-07 -2.92896e-08
-3.61831e-08 1.0011e-07 -2.16016e-08
-5.45097e-08 8.90783e-08 -2.16823e-08
-2.47797e-08 8.01433e-08 -2.08744e-08
-4.31465e-08 6.78611e-08 -2.23242e-08
-8.33722e-08 7.32103e-08 -3.28506e-08
-7.16042e-08 1.14571e-07 -3.0718e-08
-1.03931e-08 9.43743e-08 -2.79701e-08
-1.30633e-08 6.3517e-08 -2.83819e-08
-4.51946e-08 5.11182e-08 -2.97009e-08
-3.27764e-08 1.16948e-07 -2.82535e-08
-2.56319e-08 1.07252e-07 -2.61434e-08
-5.49583e-08 6.04663e-08 -2.79925e-08
-6.86858e-08 8.52881e-08 -2.75288e-08
-6.57383e-08 9.87651e-08 -2.71288e-08
-3.3306e-08 5.49698e-08 -2.67129e-08
-4.33495e-08 1.12812e-07 -2.64163e-08
-3.56564e-08 7.72974e-08 -1.64747e-08
-3.2525e-08 8.85665e-08 -1.71927e-08
-4.36274e-08 9.12072e-08 -1.68954e-08
-4.7168e-08 8.0795e-08 -1.76062e-08
-8.68238e-08 6.95676e-08 -3.39508e-08
-7.25125e-08 1.19162e-07 -3.11841e-08
-6.6996e-08 6.62835e-08 -2.94533e-08
-5.50743e-08 1.11963e-07 -2.72705e-08
-1.13866e-08 7.48166e-08 -2.64779e-08
-1.15379e-08 8.44607e-08 -2.61171e-08
-6.5177e-08 7.78354e-08 -2.70167e-08
-5.84554e-08 1.02596e-07 -2.58744e-08
-4.09667e-08 4.25819e-08 -3.15261e-08
-3.56224e-08 1.25678e-07 -3.01614e-08
-2.18414e-08 5.68403e-08 -2.72423e-08
-1.60981e-08 1.02114e-07 -2.72505e-08
-3.59736e-08 9.22033e-08 -1.74551e-08
-4.0432e-08 7.5096e-08 -1.76625e-08
-4.83221e-08 8.56994e-08 -1.7815e-08
-3.1477e-08 8.06226e-08 -1.70945e-08
-8.10189e-08 8.07396e-08 -3.11933e-08
-7.32601e-08 1.07498e-07 -2.98685e-08
-2.14924e-08 7.28006e-08 -2.36927e-08
-5.85409e-09 1.02185e-07 -3.00639e-08
-1.11158e-08 5.57198e-08 -3.00313e-08
-2.03965e-08 8.76218e-08 -2.32006e-08
-4.23735e-08 9.96023e-08 -2.11861e-08
-4.88826e-08 7.21068e-08 -2.18783e-08
-5.07704e-08 9.40874e-08 -2.09674e-08
-3.51959e-08 6.95973e-08 -2.08969e-08
-3.02527e-08 9.48331e-08 -2.07553e-08
-5.3075e-08 8.24819e-08 -2.08828e-08
-5.50838e-08 5.1424e-08 -3.08437e-08
-2.47818e-08 1.16178e-07 -2.8392e-08
-2.81642e-08 1.25792e-07 -3.04815e-08
-4.92402e-08 4.24837e-08 -3.2815e-08
-8.6298e-08 7.75739e-08 -3.273e-08
-7.60316e-08 1.12308e-07 -3.09704e-08
-7.28432e-08 9.35025e-08 -2.83519e-08
-3.77425e-09 6.07914e-08 -3.0862e-08
4.88837e-10 9.65152e-08 -3.08928e-08
-3.73432e-08 4.87678e-08 -2.91569e-08
-3.92077e-08 1.1914e-07 -2.84079e-08
-4.10338e-08 5.86061e-08 -2.62908e-08
-3.69941e-08 1.09235e-07 -2.54547e-08
-2.77399e-08 8.51341e-08 -1.92752e-08
-3.13729e-08 1.08309e-07 -2.56752e-08
-4.78774e-08 5.95761e-08 -2.70136e-08
-1.81686e-08 1.09009e-07 -2.76267e-08
-2.91814e-08 7.54126e-08 -1.99405e-08
-6.45292e-08 5.83804e-08 -3.04197e-08
-4.41883e-09 8.80703e-08 -2.83284e-08
-6.38084e-09 6.85808e-08 -2.85897e-08
-7.98784e-08 6.74559e-08 -3.26471e-08
-6.59718e-08 1.17278e-07 -2.99515e-08
-6.11902e-08 8.39999e-08 -2.48094e-08
-7.31034e-08 7.87909e-08 -2.95427e-08
-6.57876e-08 1.05569e-07 -2.82932e-08
-9.11571e-08 7.163e-08 -3.43429e-08
-8.95524e-08 7.42891e-08 -3.36999e-08
-7.71111e-08 1.19621e-07 -3.16659e-08
-7.7201e-08 1.16508e-07 -3.15115e-08
-2.48681e-08 5.04984e-08 -2.76483e-08
-6.888e-08 7.19559e-08 -2.91129e-08
-5.90174e-08 1.08631e-07 -2.73568e-08
-4.12712e-08 3.72344e-08 -3.27146e-08
-3.50211e-08 1.31225e-07 -3.1109e-08
-5.08365e-08 1.17145e-07 -2.77493e-08
-5.76878e-08 9.58267e-08 -2.41405e-08
-6.36345e-08 9.07454e-08 -2.57534e-08
-5.99042e-09 8.04761e-08 -2.70756e-08
-2.26907e-08 1.0089e-07 -2.51691e-08
-5.45734e-11 1.04217e-07 -3.14045e-08
-5.64758e-09 5.36273e-08 -3.13535e-08
-2.90038e-08 6.08738e-08 -2.50583e-08
-1.73832e-08 9.47751e-08 -2.56695e-08
-5.77904e-08 6.70974e-08 -2.66626e-08
-3.93454e-08 8.96774e-08 -1.50689e-08
-4.28547e-08 7.94575e-08 -1.55667e-08
-3.37828e-08 8.41981e-08 -1.52395e-08
-4.42157e-08 8.74405e-08 -1.53035e-08
-4.79239e-08 1.07656e-07 -2.51397e-08
-2.11275e-08 6.45472e-08 -2.58912e-08
-7.79559e-08 8.63447e-08 -2.97888e-08
-7.3782e-08 1.01734e-07 -2.90546e-08
-3.79597e-08 8.08384e-08 -1.3766e-08
-3.05744e-08 1.01782e-07 -2.33757e-08
-3.62194e-08 8.77948e-08 -1.4796e-08
-4.4374e-08 8.3778e-08 -1.49729e-08
-3.06299e-08 4.62263e-08 -2.85907e-08
-3.68509e-08 6.27786e-08 -2.40816e-08
-1.63561e-08 8.00319e-08 -2.44292e-08
-5.04223e-08 6.56162e-08 -2.5053e-08
-2.74607e-08 8.95766e-08 -2.02545e-08
-7.99826e-08 7.63238e-08 -3.16615e-08
-7.03116e-08 1.10544e-07 -2.99683e-08
-7.42284e-08 6.22055e-08 -3.18509e-08
-5.91227e-08 1.17893e-07 -2.8769e-08
-4.12388e-08 1.05642e-07 -2.38609e-08
-1.34516e-08 8.92312e-08 -2.61107e-08
-4.52394e-08 1.20286e-07 -2.81919e-08
-1.68294e-08 5.84578e-08 -2.82079e-08
-1.17795e-08 9.99531e-08 -2.82378e-08
-1.49676e-08 6.93197e-08 -2.65703e-08
-4.10772e-08 8.74825e-08 -1.40259e-08
-3.95778e-08 9.46572e-08 -1.83151e-08
-4.4661e-08 7.49308e-08 -1.88942e-08
-4.79295e-08 8.94593e-08 -1.8183e-08
-4.58503e-08 9.65124e-08 -2.02449e-08
-5.10837e-08 7.68174e-08 -2.10269e-08
-6.23379e-08 7.18435e-08 -2.69363e-08
-3.23414e-08 7.28216e-08 -1.98787e-08
-5.33752e-08 1.05708e-07 -2.5416e-08
-7.31902e-08 6.80413e-08 -3.08942e-08
-6.08761e-08 1.1346e-07 -2.85734e-08
-5.25725e-08 9.91925e-08 -2.32483e-08
-5.85613e-08 7.82362e-08 -2.42557e-08
-3.94646e-08 7.91367e-08 -1.47369e-08
-3.54866e-08 8.12638e-08 -1.45032e-08
-1.02504e-08 1.06593e-07 -2.90165e-08
-1.63839e-08 5.13544e-08 -2.88257e-08
-3.10612e-08 1.29963e-07 -3.11245e-08
-4.5465e-08 3.87051e-08 -3.31858e-08
SCALARS effective_fluid_pressure_TPM float
LOOKUP_TABLE default
26.6
26.6
26.6
26.6
26.6
26.6
26.6
26.6
26.6
26.6
26.6
26.6
26.6
26.6
0.2
26.6
26.6
26.6
26.6
26.6
26.6
26.6
26.6
26.6
26.6
26.6
26.6
0.2
26.6
26.6
26.6
26.6
26.6
26.6
26.6
26.6
26.6
26.6
0.2
26.6
26.6
26.6
26.6
26.6
26.6
26.6
26.6
26.6
26.6
0.2
26.6
26.6
26.6
26.6
26.6
26.6
26.6
26.6
26.6
26.6
0.2
26.6
26.6
26.6
26.6
26.6
26.6
26.6
26.6
26.6
26.6
23.9646
26.6
26.6
26.6
26.6
26.6
26.6
26.6
26.6
0.2
26.6
26.6
26.6
26.6
26.6
26.6
26.6
26.6
26.6
26.6
26.6
26.6
26.6
26.6
0.2
26.6
26.6
26.6
26.6
26.6
26.6
26.6
26.6
26.6
26.6
26.6
26.6
0.2
26.6
26.6
26.6
26.6
26.6
26.6
26.6
26.6
26.6
26.6
0.2
26.6
26.6
26.6
26.6
26.6
26.6
26.6
26.6
26.6
26.6
0.2
26.6
26.6
26.6
26.6
26.6
26.6
26.6
26.6
26.6
26.6
0.2
26.6
26.6
26.6
26.6
26.6
26.6
26.6
26.6
26.6
26.6
23.9646
26.6
26.6
26.6
26.6
26.6
26.6
26.6
26.6
0.2
26.6
21.104
19.2799
19.1381
20.7525
26.6
26.6
22.7708
21.8048
21.7856
22.7845
26.6
26.6
20.771
19.1974
19.2846
21.1053
26.6
20.5523
18.7941
18.7988
20.5515
26.6
20.5123
18.7902
18.827
20.4882
26.6
20.556
18.8544
18.8528
20.5682
0.2
0.2
0.2
26.6
26.6
20.5412
18.8746
18.8193
20.5247
26.6
26.6
20.4051
18.7339
18.8117
20.5588
26.6
20.5573
18.741
18.7737
20.5068
26.6
20.517
18.8385
18.7701
20.564
26.6
20.4845
18.7284
18.7509
20.5397
26.6
0.2
0.2
0.2
26.6
26.6
26.6
20.5706
18.8432
18.7936
20.5253
26.6
20.5681
18.7794
18.8489
20.5264
26.6
20.5191
18.7871
18.7532
20.5648
26.6
20.4907
18.7902
18.8074
20.5311
26.6
26.6
0.2
0.2
0.2
26.6
26.6
20.5211
18.8423
18.7732
20.566
26.6
20.5331
18.7821
18.7273
20.552
26.6
20.5614
18.8161
18.7365
20.4049
26.6
26.6
20.565
18.8362
18.8593
20.5015
26.6
26.6
0.2
0.2
0.2
26.6
26.6
20.5511
18.8333
18.8052
20.6118
26.6
20.6341
18.9249
18.8699
20.5332
26.6
26.6
20.664
19.1815
19.346
21.0893
26.6
26.6
22.8711
21.9381
21.9938
23.0528
26.6
0.2
0.2
0.2
26.6
26.6
25.1321
25.0156
25.1904
25.5787
26.6
26.6
25.6991
25.4862
25.4853
25.6994
26.6
26.6
25.5796
25.1897
25.0005
25.1262
26.6
22.8751
21.9444
22.0235
23.0645
26.6
24.2042
24.4587
24.2156
26.6
26.6
26.6
21.0969
19.3482
19.1866
20.6627
26.6
26.6
20.5361
18.8628
18.8325
20.6215
26.6
20.6251
18.9068
18.8516
20.5644
26.6
26.6
0.2
0.2
0.2
26.6
21.104
19.2799
19.1381
20.7525
26.6
26.6
22.7708
21.8048
21.7856
22.7845
26.6
26.6
20.771
19.1974
19.2846
21.1053
26.6
20.5523
18.7941
18.7988
20.5515
26.6
20.5123
18.7902
18.827
20.4882
26.6
20.556
18.8544
18.8528
20.5682
0.2
0.2
0.2
26.6
26.6
20.5412
18.8746
18.8193
20.5247
26.6
26.6
20.4051
18.7339
18.8117
20.5588
26.6
20.5573
18.741
18.7737
20.5068
26.6
20.517
18.8385
18.7701
20.564
26.6
20.4845
18.7284
18.7509
20.5397
26.6
0.2
0.2
0.2
26.6
26.6
26.6
20.5706
18.8432
18.7936
20.5253
26.6
20.5681
18.7794
18.8489
20.5264
26.6
20.5191
18.7871
18.7532
20.5648
26.6
20.4907
18.7902
18.8074
20.5311
26.6
26.6
0.2
0.2
0.2
26.6
26.6
20.5211
18.8423
18.7732
20.566
26.6
20.5331
18.7821
18.7273
20.552
26.6
20.5614
18.8161
18.7365
20.4049
26.6
26.6
20.565
18.8362
18.8593
20.5015
26.6
26.6
0.2
0.2
0.2
26.6
26.6
20.5511
18.8333
18.8052
20.6118
26.6
20.6341
18.9249
18.8699
20.5332
26.6
26.6
20.664
19.1815
19.346
21.0893
26.6
26.6
22.8711
21.9381
21.9938
23.0528
26.6
0.2
0.2
0.2
26.6
26.6
25.1321
25.0156
25.1904
25.5787
26.6
26.6
25.6991
25.4862
25.4853
25.6994
26.6
26.6
25.5796
25.1897
25.0005
25.1262
26.6
22.8751
21.9444
22.0235
23.0645
26.6
24.2042
24.4587
24.2156
26.6
26.6
26.6
21.0969
19.3482
19.1866
20.6627
26.6
26.6
20.5361
18.8628
18.8325
20.6215
26.6
20.6251
18.9068
18.8516
20.5644
26.6
26.6
0.2
0.2
0.2
14.9307
15.1078
15.5697
15.5902
20.8543
20.8532
14.2496
14.5436
13.5892
14.248
22.9167
22.9162
18.8645
19.2734
19.2955
19.2803
17.3133
17.55
18.9392
19.0495
17.4699
17.747
9.31408
10.2415
9.99036
10.308
23.9419
23.9418
18.5952
18.5892
17.6415
17.3899
17.9483
17.9385
21.4831
21.5494
18.1038
18.0698
10.5584
10.3393
10.7983
10.0476
21.8933
21.8903
15.6961
20.9838
21.0493
15.3401
14.0047
13.8366
14.0151
13.433
13.511
13.5254
19.1934
18.9942
21.812
21.8848
23.5892
23.5858
20.1861
22.3134
22.2536
19.1826
19.3673
17.0262
17.0906
12.2468
17.1602
17.2488
18.1193
12.8027
18.5345
19.0709
19.3388
21.42
21.4199
16.7047
20.0726
20.0598
25.8012
25.0133
25.8009
25.0121
18.1915
18.9587
18.9633
23.6658
23.6172
18.6274
16.7194
17.7514
18.0071
16.6137
23.659
23.673
16.4784
17.0597
16.8895
7.25328
7.58385
7.46108
7.64499
16.9602
17.2353
21.0199
21.0476
4.66564
15.4753
6.9695
6.77804
18.7528
15.6454
16.2022
15.9072
13.0669
21.872
21.8731
19.7276
19.7211
15.9691
17.4237
18.947
19.0078
19.0501
17.7839
5.08184
11.4294
11.4247
11.2831
13.3083
13.344
17.3602
12.6108
17.3555
19.8797
19.8851
15.8545
15.9196
6.26685
6.1693
19.3709
19.3619
23.6581
23.6658
14.9927
15.0187
14.98
15.0011
19.997
20.0479
14.0066
13.6665
13.7184
14.0211
22.1805
22.2182
19.2385
18.8312
19.1137
19.1144
17.169
17.198
17.5216
17.6141
17.3542
17.3374
9.96569
10.1138
9.62584
9.55264
23.5177
23.5613
17.9498
18.0074
17.6172
17.3482
17.0373
17.0045
21.3834
21.4027
18.0371
17.7428
10.3587
10.1879
10.1139
10.3911
20.4276
20.451
15.6873
21.0182
20.9488
15.4017
13.4507
13.4096
13.3019
13.3703
13.4039
12.7982
18.9263
18.9025
21.7457
21.7469
22.5815
22.6014
18.1319
22.3094
22.2574
19.0724
19.0547
12.4259
16.8279
16.8404
16.9752
16.9944
18.1049
18.0457
19.0609
19.329
20.7433
20.8207
15.6657
18.939
18.8992
25.6358
24.5739
25.6464
24.5879
12.3043
18.1296
18.1006
18.166
18.2144
23.5822
23.564
15.6782
16.4128
17.9808
23.6576
23.6458
16.3135
16.2646
17.0156
16.3962
16.3743
7.06352
7.5223
7.42421
7.41755
17.1968
19.0686
19.094
4.71817
15.4382
6.82609
6.54497
18.673
18.6771
15.4914
16.1989
15.5498
20.8339
20.8692
19.1802
19.0871
12.949
15.566
17.3036
19.006
18.9225
17.7535
4.99249
11.146
11.1373
10.7557
12.8252
12.5229
16.7076
16.6686
12.9355
19.1619
19.2282
15.1061
15.086
6.33589
6.38436
19.317
19.2178
23.5933
23.599
14.8652
15.0152
14.9787
14.9956
20.0119
20.0161
14.0031
13.6587
13.5378
14.0315
22.1918
22.1919
19.2535
18.8312
19.1217
19.1191
17.1998
17.1843
17.5056
17.6512
17.3723
17.3817
9.26014
10.1122
9.8604
9.63478
23.5368
23.5385
17.9731
17.9768
17.6236
17.3633
17.0124
17.0057
21.4073
21.4053
18.0577
18.0055
10.373
10.1936
10.2504
9.99203
20.4236
20.4152
15.6556
21.0293
20.9542
15.2823
13.6043
13.4771
13.2975
13.3266
13.372
12.8391
18.9041
18.9158
21.7517
21.7405
22.5813
22.5749
18.0912
22.3168
22.2596
19.0832
19.1181
16.8563
16.8331
12.1734
16.989
16.9898
18.0516
12.7464
18.0684
19.0657
19.34
20.776
20.7816
15.6836
18.9171
18.8996
25.6397
24.5766
25.6396
24.5747
18.142
18.1777
18.1863
23.5845
23.5805
18.1391
15.5987
16.4539
17.9937
16.52
23.6633
23.6458
16.4025
16.9988
16.3937
7.30041
7.14404
7.5689
7.13424
16.4546
17.1929
19.0508
19.0626
4.63802
15.3119
6.78701
6.46194
18.6896
15.5106
16.1688
15.5699
12.9707
20.839
20.8406
19.1038
19.133
15.6151
17.3863
18.5968
19.0185
18.9613
17.76
4.93088
11.1177
11.1815
10.7134
12.8383
12.8399
16.6867
12.5405
16.6849
19.1772
19.1925
15.1007
15.1492
6.37589
6.12997
19.332
19.3201
23.6011
23.5982
14.9958
15.029
14.9998
14.9745
20.0457
19.9962
14.0083
13.6668
13.7217
14.0146
22.2188
22.1781
19.2434
18.8343
19.113
19.1101
17.1728
17.1712
17.5374
17.5973
17.3447
17.403
9.96589
10.1165
9.63098
9.54381
23.5604
23.5168
18.0102
17.9496
17.6213
17.3515
17.007
17.0307
21.3997
21.4043
18.0415
17.749
10.3654
10.1813
10.1109
10.3935
20.4579
20.4198
15.6925
21.0278
20.9504
15.4047
13.6315
13.4096
13.3148
13.3398
13.388
12.7867
18.9079
18.8815
21.7463
21.7239
22.6076
22.5746
18.1324
22.3133
22.2587
19.0665
19.1277
12.4301
16.8269
16.8387
16.9805
16.9828
18.0446
18.0496
19.0637
19.3332
20.8172
20.7428
15.6514
18.9062
18.9296
25.6466
24.5899
25.6351
24.5714
12.3063
18.1127
18.2098
18.1664
23.5804
23.5801
18.1796
15.6914
16.4132
17.9842
16.2502
23.664
23.6456
16.2695
17.0194
16.3624
7.06812
7.52065
7.42601
7.41932
16.4816
17.1934
19.0903
19.0722
4.7153
15.4207
15.3113
6.82723
6.54551
18.6869
16.2025
20.8696
20.8317
19.1545
19.0879
12.9552
15.567
15.6332
17.3068
18.6238
19.0083
18.9269
17.7571
4.99462
11.1433
11.1513
10.7596
12.5239
12.8287
16.6689
12.9184
16.7103
19.2165
19.1619
15.1272
15.0628
6.33202
6.38202
19.3991
19.2257
23.591
23.5985
14.9261
15.4992
16.0435
15.1779
20.1562
21.2171
14.7923
14.118
13.6674
14.1113
22.2909
23.0266
19.0185
19.2899
19.1919
20.1708
18.7276
17.2921
17.8451
18.3208
17.9732
17.4317
9.30281
10.4265
10.109
10.0789
23.588
24.3802
18.1104
19.6981
17.6877
17.4821
17.2467
17.9822
22.0674
21.4532
18.1059
18.123
10.8427
10.2511
10.5688
10.1011
20.611
21.1087
15.7313
21.1308
21.0567
15.3721
14.348
13.5976
13.9508
13.3877
13.8656
13.1354
18.9996
20.7236
21.801
22.9078
22.687
23.1048
18.5639
22.3233
22.3197
19.7946
19.1406
17.6906
16.9279
12.3669
18.1428
17.0787
12.8273
18.18
20.286
19.1557
19.3638
20.8713
22.3563
16.0245
19.1206
19.7985
25.6589
24.6257
25.857
24.9029
18.5894
18.1932
18.352
19.5063
23.6114
23.9733
16.28
16.9332
18.0699
23.7358
23.6762
16.4595
16.8715
17.4836
16.5308
17.7985
7.41759
7.46952
7.73252
7.41054
17.2457
19.3494
19.6776
4.6584
7.11536
6.64844
18.7438
19.2905
15.5765
16.2219
16.273
16.7128
15.6772
13.2663
20.989
21.6858
19.2305
21.364
17.6081
19.1373
19.0592
17.8122
5.12886
11.7784
11.2604
11.151
13.6204
13.0088
16.8616
17.9614
12.6017
19.3183
20.8137
15.9985
15.3957
6.2241
6.19196
19.5845
19.3722
24.1775
23.6311
23.5584
24.8854
23.5504
24.8866
25.5782
25.5776
24.223
24.9714
23.4779
24.2309
25.9189
25.9185
23.5236
23.5772
24.5273
24.4174
23.5175
24.7732
25.3291
25.3376
23.4932
24.7789
23.8652
24.5914
23.8526
24.6038
26.1094
26.1091
25.171
25.1705
23.0351
23.1004
25.216
25.2161
24.6142
25.1521
23.2161
23.242
24.113
24.129
24.7339
23.7063
25.6898
25.689
23.4075
23.9636
23.9478
23.433
24.5734
24.5597
24.8948
23.8107
23.8025
24.86
24.8852
23.4694
25.2444
24.6005
25.9979
25.9975
25.4038
24.3884
24.3383
23.8584
24.8276
24.0979
24.4295
23.6171
24.0164
24.496
22.8352
23.6125
25.0234
23.0794
23.1426
25.6585
25.6578
25.1225
25.4717
25.4722
26.4494
26.2919
26.4493
26.2917
22.8209
25.2987
25.2983
25.277
25.7427
25.0401
25.1246
25.2186
22.6441
23.4046
25.0702
25.0773
23.4287
23.4375
24.8786
24.3081
24.3413
23.8346
24.5901
24.8844
23.4335
25.5169
25.5167
24.0061
23.8695
24.0476
24.5425
22.9932
23.8377
23.1942
24.5916
23.6478
25.7316
25.7312
25.3307
25.33
24.5816
23.3288
24.9269
23.4596
23.465
23.3346
24.4304
24.3743
24.3743
24.7568
24.7181
24.7074
25.0728
23.7112
25.0731
25.4037
25.4038
24.994
25.0017
24.1093
23.8748
22.9939
22.992
25.5953
25.5286
15.1748
15.0991
15.1589
16.065
21.2277
20.1553
14.1153
14.1128
13.6696
14.7814
23.0337
22.2901
18.8781
19.4115
20.1672
19.1938
17.2772
18.7338
18.1921
17.9855
17.9586
17.4942
9.47525
10.2239
9.77322
10.4353
24.3857
23.5883
19.713
18.1159
17.7253
17.4323
17.9977
17.2385
22.0644
21.4639
18.3827
18.0671
10.4732
10.624
10.6709
10.1274
21.12
20.6052
15.8328
20.9873
21.1948
15.3679
13.7571
14.3588
13.5707
13.7541
13.467
13.4979
20.727
18.9831
21.7987
22.9082
23.1111
22.6852
18.5723
22.3786
22.2622
19.7864
19.2033
17.6781
16.9342
12.2803
17.0759
18.1408
18.1177
12.9547
20.2993
19.0966
19.4229
22.367
20.8723
16.391
19.7954
19.1323
25.8587
24.9061
25.6588
24.6251
18.5741
19.5199
18.3489
23.9722
23.6162
18.2601
15.9326
16.9645
18.0569
16.5958
23.6606
23.7491
16.8223
17.0663
17.8112
7.15418
7.74736
7.6661
7.32966
16.5996
17.4387
19.6832
19.3584
4.74224
15.4043
6.9363
6.79126
19.2614
16.1201
16.271
16.7171
13.0685
21.6924
20.9896
21.3813
19.2222
15.7409
17.4494
18.6928
19.2516
19.0118
17.9089
4.9918
11.265
11.7815
11.0078
12.9877
13.6371
17.9808
12.8301
16.858
20.8273
19.3125
15.324
16.0712
6.40527
6.23413
19.3702
19.6094
23.6325
24.1771
14.9307
15.1078
15.5697
15.5902
20.8543
20.8532
14.2496
14.5436
13.5892
14.248
22.9167
22.9162
18.8645
19.2734
19.2955
19.2803
17.3133
17.55
18.9392
19.0495
17.4699
17.747
9.31408
10.2415
9.99036
10.308
23.9419
23.9418
18.5952
18.5892
17.6415
17.3899
17.9483
17.9385
21.4831
21.5494
18.1038
18.0698
10.5584
10.3393
10.7983
10.0476
21.8933
21.8903
15.6961
20.9838
21.0493
15.3401
14.0047
13.8366
14.0151
13.433
13.511
13.5254
19.1934
18.9942
21.812
21.8848
23.5892
23.5858
20.1861
22.3134
22.2536
19.1826
19.3673
17.0262
17.0906
12.2468
17.1602
17.2488
18.1193
12.8027
18.5345
19.0709
19.3388
21.42
21.4199
16.7047
20.0726
20.0598
25.8012
25.0133
25.8009
25.0121
18.1915
18.9587
18.9633
23.6658
23.6172
18.6274
16.7194
17.7514
18.0071
16.6137
23.659
23.673
16.4784
17.0597
16.8895
7.25328
7.58385
7.46108
7.64499
16.9602
17.2353
21.0199
21.0476
4.66564
15.4753
6.9695
6.77804
18.7528
15.6454
16.2022
15.9072
13.0669
21.872
21.8731
19.7276
19.7211
15.9691
17.4237
18.947
19.0078
19.0501
17.7839
5.08184
11.4294
11.4247
11.2831
13.3083
13.344
17.3602
12.6108
17.3555
19.8797
19.8851
15.8545
15.9196
6.26685
6.1693
19.3709
19.3619
23.6581
23.6658
14.9927
15.0187
14.98
15.0011
19.997
20.0479
14.0066
13.6665
13.7184
14.0211
22.1805
22.2182
19.2385
18.8312
19.1137
19.1144
17.169
17.198
17.5216
17.6141
17.3542
17.3374
9.96569
10.1138
9.62584
9.55264
23.5177
23.5613
17.9498
18.0074
17.6172
17.3482
17.0373
17.0045
21.3834
21.4027
18.0371
17.7428
10.3587
10.1879
10.1139
10.3911
20.4276
20.451
15.6873
21.0182
20.9488
15.4017
13.4507
13.4096
13.3019
13.3703
13.4039
12.7982
18.9263
18.9025
21.7457
21.7469
22.5815
22.6014
18.1319
22.3094
22.2574
19.0724
19.0547
12.4259
16.8279
16.8404
16.9752
16.9944
18.1049
18.0457
19.0609
19.329
20.7433
20.8207
15.6657
18.939
18.8992
25.6358
24.5739
25.6464
24.5879
12.3043
18.1296
18.1006
18.166
18.2144
23.5822
23.564
15.6782
16.4128
17.9808
23.6576
23.6458
16.3135
16.2646
17.0156
16.3962
16.3743
7.06352
7.5223
7.42421
7.41755
17.1968
19.0686
19.094
4.71817
15.4382
6.82609
6.54497
18.673
18.6771
15.4914
16.1989
15.5498
20.8339
20.8692
19.1802
19.0871
12.949
15.566
17.3036
19.006
18.9225
17.7535
4.99249
11.146
11.1373
10.7557
12.8252
12.5229
16.7076
16.6686
12.9355
19.1619
19.2282
15.1061
15.086
6.33589
6.38436
19.317
19.2178
23.5933
23.599
14.8652
15.0152
14.9787
14.9956
20.0119
20.0161
14.0031
13.6587
13.5378
14.0315
22.1918
22.1919
19.2535
18.8312
19.1217
19.1191
17.1998
17.1843
17.5056
17.6512
17.3723
17.3817
9.26014
10.1122
9.8604
9.63478
23.5368
23.5385
17.9731
17.9768
17.6236
17.3633
17.0124
17.0057
21.4073
21.4053
18.0577
18.0055
10.373
10.1936
10.2504
9.99203
20.4236
20.4152
15.6556
21.0293
20.9542
15.2823
13.6043
13.4771
13.2975
13.3266
13.372
12.8391
18.9041
18.9158
21.7517
21.7405
22.5813
22.5749
18.0912
22.3168
22.2596
19.0832
19.1181
16.8563
16.8331
12.1734
16.989
16.9898
18.0516
12.7464
18.0684
19.0657
19.34
20.776
20.7816
15.6836
18.9171
18.8996
25.6397
24.5766
25.6396
24.5747
18.142
18.1777
18.1863
23.5845
23.5805
18.1391
15.5987
16.4539
17.9937
16.52
23.6633
23.6458
16.4025
16.9988
16.3937
7.30041
7.14404
7.5689
7.13424
16.4546
17.1929
19.0508
19.0626
4.63802
15.3119
6.78701
6.46194
18.6896
15.5106
16.1688
15.5699
12.9707
20.839
20.8406
19.1038
19.133
15.6151
17.3863
18.5968
19.0185
18.9613
17.76
4.93088
11.1177
11.1815
10.7134
12.8383
12.8399
16.6867
12.5405
16.6849
19.1772
19.1925
15.1007
15.1492
6.37589
6.12997
19.332
19.3201
23.6011
23.5982
14.9958
15.029
14.9998
14.9745
20.0457
19.9962
14.0083
13.6668
13.7217
14.0146
22.2188
22.1781
19.2434
18.8343
19.113
19.1101
17.1728
17.1712
17.5374
17.5973
17.3447
17.403
9.96589
10.1165
9.63098
9.54381
23.5604
23.5168
18.0102
17.9496
17.6213
17.3515
17.007
17.0307
21.3997
21.4043
18.0415
17.749
10.3654
10.1813
10.1109
10.3935
20.4579
20.4198
15.6925
21.0278
20.9504
15.4047
13.6315
13.4096
13.3148
13.3398
13.388
12.7867
18.9079
18.8815
21.7463
21.7239
22.6076
22.5746
18.1324
22.3133
22.2587
19.0665
19.1277
12.4301
16.8269
16.8387
16.9805
16.9828
18.0446
18.0496
19.0637
19.3332
20.8172
20.7428
15.6514
18.9062
18.9296
25.6466
24.5899
25.6351
24.5714
12.3063
18.1127
18.2098
18.1664
23.5804
23.5801
18.1796
15.6914
16.4132
17.9842
16.2502
23.664
23.6456
16.2695
17.0194
16.3624
7.06812
7.52065
7.42601
7.41932
16.4816
17.1934
19.0903
19.0722
4.7153
15.4207
15.3113
6.82723
6.54551
18.6869
16.2025
20.8696
20.8317
19.1545
19.0879
12.9552
15.567
15.6332
17.3068
18.6238
19.0083
18.9269
17.7571
4.99462
11.1433
11.1513
10.7596
12.5239
12.8287
16.6689
12.9184
16.7103
19.2165
19.1619
15.1272
15.0628
6.33202
6.38202
19.3991
19.2257
23.591
23.5985
14.9261
15.4992
16.0435
15.1779
20.1562
21.2171
14.7923
14.118
13.6674
14.1113
22.2909
23.0266
19.0185
19.2899
19.1919
20.1708
18.7276
17.2921
17.8451
18.3208
17.9732
17.4317
9.30281
10.4265
10.109
10.0789
23.588
24.3802
18.1104
19.6981
17.6877
17.4821
17.2467
17.9822
22.0674
21.4532
18.1059
18.123
10.8427
10.2511
10.5688
10.1011
20.611
21.1087
15.7313
21.1308
21.0567
15.3721
14.348
13.5976
13.9508
13.3877
13.8656
13.1354
18.9996
20.7236
21.801
22.9078
22.687
23.1048
18.5639
22.3233
22.3197
19.7946
19.1406
17.6906
16.9279
12.3669
18.1428
17.0787
12.8273
18.18
20.286
19.1557
19.3638
20.8713
22.3563
16.0245
19.1206
19.7985
25.6589
24.6257
25.857
24.9029
18.5894
18.1932
18.352
19.5063
23.6114
23.9733
16.28
16.9332
18.0699
23.7358
23.6762
16.4595
16.8715
17.4836
16.5308
17.7985
7.41759
7.46952
7.73252
7.41054
17.2457
19.3494
19.6776
4.6584
7.11536
6.64844
18.7438
19.2905
15.5765
16.2219
16.273
16.7128
15.6772
13.2663
20.989
21.6858
19.2305
21.364
17.6081
19.1373
19.0592
17.8122
5.12886
11.7784
11.2604
11.151
13.6204
13.0088
16.8616
17.9614
12.6017
19.3183
20.8137
15.9985
15.3957
6.2241
6.19196
19.5845
19.3722
24.1775
23.6311
23.5584
24.8854
23.5504
24.8866
25.5782
25.5776
24.223
24.9714
23.4779
24.2309
25.9189
25.9185
23.5236
23.5772
24.5273
24.4174
23.5175
24.7732
25.3291
25.3376
23.4932
24.7789
23.8652
24.5914
23.8526
24.6038
26.1094
26.1091
25.171
25.1705
23.0351
23.1004
25.216
25.2161
24.6142
25.1521
23.2161
23.242
24.113
24.129
24.7339
23.7063
25.6898
25.689
23.4075
23.9636
23.9478
23.433
24.5734
24.5597
24.8948
23.8107
23.8025
24.86
24.8852
23.4694
25.2444
24.6005
25.9979
25.9975
25.4038
24.3884
24.3383
23.8584
24.8276
24.0979
24.4295
23.6171
24.0164
24.496
22.8352
23.6125
25.0234
23.0794
23.1426
25.6585
25.6578
25.1225
25.4717
25.4722
26.4494
26.2919
26.4493
26.2917
22.8209
25.2987
25.2983
25.277
25.7427
25.0401
25.1246
25.2186
22.6441
23.4046
25.0702
25.0773
23.4287
23.4375
24.8786
24.3081
24.3413
23.8346
24.5901
24.8844
23.4335
25.5169
25.5167
24.0061
23.8695
24.0476
24.5425
22.9932
23.8377
23.1942
24.5916
23.6478
25.7316
25.7312
25.3307
25.33
24.5816
23.3288
24.9269
23.4596
23.465
23.3346
24.4304
24.3743
24.3743
24.7568
24.7181
24.7074
25.0728
23.7112
25.0731
25.4037
25.4038
24.994
25.0017
24.1093
23.8748
22.9939
22.992
25.5953
25.5286
15.1748
15.0991
15.1589
16.065
21.2277
20.1553
14.1153
14.1128
13.6696
14.7814
23.0337
22.2901
18.8781
19.4115
20.1672
19.1938
17.2772
18.7338
18.1921
17.9855
17.9586
17.4942
9.47525
10.2239
9.77322
10.4353
24.3857
23.5883
19.713
18.1159
17.7253
17.4323
17.9977
17.2385
22.0644
21.4639
18.3827
18.0671
10.4732
10.624
10.6709
10.1274
21.12
20.6052
15.8328
20.9873
21.1948
15.3679
13.7571
14.3588
13.5707
13.7541
13.467
13.4979
20.727
18.9831
21.7987
22.9082
23.1111
22.6852
18.5723
22.3786
22.2622
19.7864
19.2033
17.6781
16.9342
12.2803
17.0759
18.1408
18.1177
12.9547
20.2993
19.0966
19.4229
22.367
20.8723
16.391
19.7954
19.1323
25.8587
24.9061
25.6588
24.6251
18.5741
19.5199
18.3489
23.9722
23.6162
18.2601
15.9326
16.9645
18.0569
16.5958
23.6606
23.7491
16.8223
17.0663
17.8112
7.15418
7.74736
7.6661
7.32966
16.5996
17.4387
19.6832
19.3584
4.74224
15.4043
6.9363
6.79126
19.2614
16.1201
16.271
16.7171
13.0685
21.6924
20.9896
21.3813
19.2222
15.7409
17.4494
18.6928
19.2516
19.0118
17.9089
4.9918
11.265
11.7815
11.0078
12.9877
13.6371
17.9808
12.8301
16.858
20.8273
19.3125
15.324
16.0712
6.40527
6.23413
19.3702
19.6094
23.6325
24.1771
VECTORS nodal_fluid_flux_TPM float
-0.000149616 3.53868e-06 1.49884e-20
0.000123093 -5.09896e-05 1.0383e-20
7.07261e-05 0.000117738 3.55993e-20
0.000269522 3.54829e-05 1.69772e-20
-3.88529e-05 -6.72911e-05 6.75669e-21
-3.86165e-05 6.68816e-05 4.65887e-20
0.000269602 -3.54935e-05 -7.2252e-20
7.0725e-05 -0.000117681 1.22933e-20
-0.000149417 -4.00081e-06 -3.28374e-20
0.000123185 5.1028e-05 -4.45201e-20
-7.33102e-05 -0.000137376 -6.58288e-20
0.00010205 0.000102828 -9.82021e-21
0.000102015 -0.000102549 -1.78576e-20
-9.67823e-05 0.000167639 -3.07126e-20
-0.000217132 0.000176871 -2.54425e-21
0.000321739 -4.23555e-05 -2.32232e-20
-7.3705e-05 0.000127661 -2.37866e-22
-7.45201e-05 -0.000129061 -7.09329e-22
0.000325331 4.28291e-05 2.72965e-20
0.00012617 5.22591e-05 1.37126e-19
-9.65962e-05 -0.000167315 3.21673e-20
7.32313e-05 -0.000137287 -2.50337e-20
-0.000155009 -2.141e-06 -4.5788e-20
-7.49162e-05 -0.000129752 7.52762e-20
-7.45965e-05 0.000129206 2.93056e-20
-7.36993e-05 -0.000137253 -7.65484e-20
0.000124549 5.1592e-05 5.09636e-20
-0.000319446 3.74582e-05 8.42798e-20
0.000323995 4.2649e-05 -8.22742e-21
9.65329e-05 -0.000167202 -2.56443e-20
-0.000154757 -2.5172e-06 -1.78352e-19
-7.45606e-05 -0.000129138 -5.51049e-20
-7.47849e-05 0.000129526 -8.75835e-21
-0.000154701 2.1473e-06 1.15029e-19
7.3091e-05 0.000137205 -3.52659e-20
-0.00015456 -2.42307e-06 -2.86876e-20
9.68568e-05 -0.000167767 4.10563e-20
0.000324025 -4.26526e-05 -2.31276e-20
-0.000215654 0.000175798 -1.43438e-19
-7.48449e-05 -0.000129636 4.4175e-20
-7.45767e-05 0.000129164 5.25128e-20
-0.000154683 2.72697e-06 1.98103e-20
7.33259e-05 0.000137355 -5.41577e-20
-9.66131e-05 0.000167345 -7.98731e-20
0.000126172 -5.22602e-05 -9.42233e-20
0.000325561 -4.28592e-05 -1.37538e-19
-7.46743e-05 0.000129328 1.00219e-20
-7.35268e-05 -0.000127352 -1.1481e-20
0.000321657 4.2345e-05 -4.79436e-20
-0.000319503 3.74302e-05 -7.3033e-20
-0.00015397 2.27312e-06 -2.22282e-20
7.26404e-05 0.000135925 1.38291e-19
-9.5567e-05 0.000165527 -5.72329e-20
0.000123561 -5.11751e-05 -3.30508e-20
0.000317528 -4.17894e-05 6.66644e-20
9.97301e-05 9.94799e-05 1.65334e-20
8.2614e-05 -9.4842e-05 1.38702e-20
0.00025067 3.30182e-05 7.03809e-21
5.87626e-05 5.32697e-05 -9.74793e-22
-8.60764e-05 -1.39054e-05 -1.56775e-20
-0.000218652 0.000176442 -4.62435e-20
-3.23414e-05 5.60137e-05 -5.36905e-20
2.07996e-05 -8.61555e-06 -4.04383e-20
5.08447e-05 -6.69351e-06 4.62233e-20
1.57723e-05 1.49321e-05 -2.98726e-20
1.57618e-05 -1.49236e-05 -5.68527e-20
5.08087e-05 6.68878e-06 8.7645e-20
2.07809e-05 8.6078e-06 -3.8306e-20
-1.35962e-05 -4.08721e-05 1.32203e-20
7.20009e-05 -2.98305e-05 5.70385e-20
-7.79868e-05 0.000135086 1.15043e-20
6.35428e-06 2.30891e-06 3.68077e-20
0.000250122 -3.29465e-05 1.37498e-19
8.24478e-05 9.46896e-05 -2.25967e-20
9.975e-05 -9.955e-05 1.06563e-19
0.000317553 4.17927e-05 1.64858e-19
0.000123501 5.11503e-05 -2.83669e-20
-7.25259e-05 -0.000135706 -7.48207e-20
9.55132e-05 -0.000165449 -4.00772e-20
-0.000153892 -2.72206e-06 -5.34802e-20
-0.000218692 0.00018009 -1.10382e-19
-0.000149616 3.53868e-06 -6.16758e-20
0.000123093 -5.09896e-05 -4.31971e-21
7.07261e-05 0.000117738 1.99312e-21
0.000269522 3.54829e-05 1.69772e-20
-3.88529e-05 -6.72911e-05 2.35598e-20
-3.86165e-05 6.68816e-05 -1.72026e-21
0.000269602 -3.54935e-05 -1.20561e-19
7.0725e-05 -0.000117681 -2.86642e-20
-0.000149417 -4.00081e-06 3.64754e-20
0.000123185 5.1028e-05 2.26923e-20
-7.33102e-05 -0.000137376 -1.54194e-20
0.00010205 0.000102828 -3.51905e-21
0.000102015 -0.000102549 6.0907e-20
-9.67823e-05 0.000167639 -6.32686e-20
-0.000217132 0.000176871 3.75691e-21
0.000321739 -4.23555e-05 2.92865e-20
-7.3705e-05 0.000127661 1.23645e-20
-7.45201e-05 -0.000129061 -5.9603e-21
0.000325331 4.28291e-05 5.88023e-20
0.00012617 5.22591e-05 6.78133e-20
-9.65962e-05 -0.000167315 9.06308e-21
7.32313e-05 -0.000137287 -5.86399e-20
-0.000155009 -2.141e-06 -1.8483e-20
-7.49162e-05 -0.000129752 4.90214e-20
-7.45965e-05 0.000129206 8.28655e-20
-7.36993e-05 -0.000137253 -4.71429e-20
0.000124549 5.1592e-05 2.78593e-20
-0.000319446 3.74582e-05 8.42798e-20
0.000323995 4.2649e-05 4.21819e-20
9.65329e-05 -0.000167202 -1.61925e-20
-0.000154757 -2.5172e-06 -1.52097e-19
-7.45606e-05 -0.000129138 -2.67496e-20
-7.47849e-05 0.000129526 2.69482e-20
-0.000154701 2.1473e-06 8.14223e-20
7.3091e-05 0.000137205 -8.35748e-20
-0.00015456 -2.42307e-06 -5.07416e-20
9.68568e-05 -0.000167767 7.45009e-21
0.000324025 -4.26526e-05 -3.99307e-20
-0.000215654 0.000175798 -1.43963e-19
-7.48449e-05 -0.000129636 2.73719e-20
-7.45767e-05 0.000129164 6.51152e-20
-0.000154683 2.72697e-06 8.38721e-20
7.33259e-05 0.000137355 -3.31538e-20
-9.66131e-05 0.000167345 -7.77727e-20
0.000126172 -5.22602e-05 -3.8563e-20
0.000325561 -4.28592e-05 -8.92292e-20
-7.46743e-05 0.000129328 5.72807e-20
-7.35268e-05 -0.000127352 3.99785e-20
0.000321657 4.2345e-05 -5.63451e-20
-0.000319503 3.74302e-05 -7.46083e-20
-0.00015397 2.27312e-06 -1.17263e-20
7.26404e-05 0.000135925 1.03635e-19
-9.5567e-05 0.000165527 -4.46305e-20
0.000123561 -5.11751e-05 -4.88037e-20
0.000317528 -4.17894e-05 8.97687e-20
9.97301e-05 9.94799e-05 1.86338e-20
8.2614e-05 -9.4842e-05 2.85729e-20
0.00025067 3.30182e-05 1.96404e-20
5.87626e-05 5.32697e-05 -1.35771e-20
-8.60764e-05 -1.39054e-05 1.12559e-21
-0.000218652 0.000176442 -4.83439e-20
-3.23414e-05 5.60137e-05 2.82246e-20
2.07996e-05 -8.61555e-06 2.46737e-20
5.08447e-05 -6.69351e-06 1.02934e-19
1.57723e-05 1.49321e-05 -3.1973e-20
1.57618e-05 -1.49236e-05 -1.42262e-22
5.08087e-05 6.68878e-06 5.72983e-21
2.07809e-05 8.6078e-06 -4.99061e-22
-1.35962e-05 -4.08721e-05 1.95215e-20
7.20009e-05 -2.98305e-05 6.54401e-20
-7.79868e-05 0.000135086 2.30565e-20
6.35428e-06 2.30891e-06 4.62595e-20
0.000250122 -3.29465e-05 1.98409e-19
8.24478e-05 9.46896e-05 -2.46971e-20
9.975e-05 -9.955e-05 1.35969e-19
0.000317553 4.17927e-05 2.11067e-19
0.000123501 5.11503e-05 -3.16225e-21
-7.25259e-05 -0.000135706 -1.91604e-20
9.55132e-05 -0.000165449 -3.69267e-20
-0.000153892 -2.72206e-06 -4.12111e-21
-0.000218692 0.00018009 -1.08806e-19
-2.8586e-05 -0.00018062 5.39358e-20
7.07261e-05 0.000117738 -5.87269e-20
1.00304e-05 1.40897e-05 -3.9935e-20
-4.09914e-05 4.27254e-07 -1.23921e-20
-0.000149616 3.53868e-06 -9.30106e-20
0.000131879 -3.71692e-05 5.97771e-20
5.91523e-05 -0.000142809 -6.45197e-21
2.32979e-05 4.34758e-05 9.92321e-21
2.18024e-05 4.18689e-07 8.97251e-20
2.18024e-05 4.18689e-07 6.35457e-20
2.53249e-05 -4.10932e-05 7.52549e-21
5.91942e-05 0.00014291 -7.94175e-20
0.000131874 3.72036e-05 -1.53207e-20
-0.000149417 -4.00081e-06 2.21847e-20
-4.04617e-05 -1.2978e-06 -4.44086e-20
1.11087e-05 -1.46829e-05 -2.41024e-20
7.0725e-05 -0.000117681 -4.93867e-20
3.2012e-05 0.000180616 -4.80466e-20
-7.33102e-05 -0.000137376 4.83758e-20
-4.83695e-06 -1.34764e-05 1.13725e-19
4.32872e-05 1.64242e-06 1.06758e-19
0.000108435 3.00427e-05 -9.69388e-21
-0.000155029 -1.40151e-09 1.74806e-20
6.90553e-05 -0.000133049 -5.18948e-20
1.97656e-05 -3.76388e-05 -1.86497e-20
1.96124e-05 3.63051e-05 -3.55091e-21
6.88227e-05 0.000133577 3.53455e-20
-0.00015507 1.29329e-09 -1.89906e-20
0.000108335 -2.99868e-05 -7.59537e-20
4.26564e-05 -5.00058e-07 -1.52026e-19
1.03474e-05 1.78482e-05 -1.07954e-19
-5.18894e-05 4.20881e-05 -7.54068e-20
0.000175884 -0.000213936 2.66212e-21
0.000223714 -0.000172216 1.21849e-22
-0.000176888 0.000218937 -2.51452e-21
0.000149445 4.85877e-05 2.5022e-20
7.50169e-05 0.000181092 -5.76449e-20
-8.71009e-06 7.9881e-05 -6.93509e-21
-1.99036e-05 1.20894e-06 -4.35963e-20
-1.99036e-05 1.20894e-06 -8.76088e-20
-6.15627e-06 -7.61328e-05 -8.47237e-20
7.5536e-05 -0.000182345 8.46366e-20
0.000151687 -4.88229e-05 4.06995e-20
0.000109465 3.28703e-05 -1.30702e-19
4.12332e-05 1.63244e-06 -1.27567e-19
8.49173e-06 -1.81073e-05 9.52373e-20
-5.22748e-05 -4.24523e-05 2.17688e-19
3.06957e-05 -0.000184451 -5.46886e-20
7.32313e-05 -0.000137287 -6.50514e-20
6.97091e-06 -1.2494e-05 -2.95318e-20
-4.32763e-05 8.01283e-07 -5.13915e-20
-0.000155009 -2.141e-06 1.441e-19
-0.000155844 -4.22303e-10 2.46493e-20
-1.0717e-05 -7.9845e-05 2.00283e-19
-2.06907e-05 -1.49409e-06 2.66975e-19
-2.06907e-05 -1.49409e-06 2.20752e-19
-8.17897e-06 7.61131e-05 6.13423e-20
-0.000155766 2.85302e-09 -5.49859e-20
0.000109059 3.1097e-05 -3.36529e-20
4.30095e-05 2.27075e-06 1.48095e-19
-5.38253e-06 -1.33385e-05 1.45547e-19
-7.36993e-05 -0.000137253 1.43158e-19
3.15266e-05 0.000184911 -4.87397e-22
0.000168196 -0.000209541 -1.62084e-20
0.000215547 0.000174595 4.54747e-20
0.00017442 0.000214595 1.43082e-20
7.54355e-05 -0.000182109 -8.68602e-20
0.000150683 -4.88294e-05 2.88108e-20
-3.09104e-05 -0.000184355 -2.17047e-20
5.20697e-05 -4.24041e-05 6.90027e-20
-9.47379e-06 -1.85768e-05 9.31093e-20
-4.34273e-05 4.79141e-07 -1.36539e-19
-0.000154757 -2.5172e-06 -2.50041e-19
-0.000155767 -1.29257e-09 -2.0251e-19
-8.19038e-06 -7.60444e-05 -3.22306e-19
-2.06055e-05 1.51981e-06 -2.62811e-19
-2.06055e-05 1.51981e-06 -3.8215e-19
-1.06986e-05 7.97514e-05 -3.30822e-19
-0.000155539 1.32778e-09 -4.91998e-20
-0.000154701 2.1473e-06 -5.14081e-19
-4.321e-05 -8.66868e-07 -1.32516e-19
6.97941e-06 1.24881e-05 -3.93955e-20
7.3091e-05 0.000137205 1.51507e-19
3.05124e-05 0.000184477 4.19759e-20
5.33915e-05 -4.14145e-05 -5.32976e-20
-1.0719e-05 -1.78155e-05 -7.09523e-20
-4.34525e-05 8.61816e-08 -9.67368e-21
-0.00015456 -2.42307e-06 8.27582e-20
0.00015058 4.88955e-05 7.66992e-20
7.55069e-05 0.000182281 2.19192e-20
-2.77836e-05 -0.000313617 1.14093e-20
0.00021217 0.000168181 6.67557e-20
-0.000175747 0.000218347 -9.57406e-20
-3.04064e-05 -0.000184898 -3.87456e-20
-0.000155504 -2.77501e-09 -1.93474e-20
-1.07149e-05 -7.98383e-05 -2.32723e-19
-2.06874e-05 -1.50906e-06 -1.03563e-19
-2.06874e-05 -1.50906e-06 2.03002e-19
-8.17598e-06 7.60788e-05 2.03073e-19
-0.000155778 4.38908e-10 8.84254e-20
-0.000154683 2.72697e-06 9.50674e-20
-4.38851e-05 -5.28912e-07 1.13487e-19
8.13344e-06 1.31843e-05 9.03272e-20
7.33259e-05 0.000137355 2.29605e-19
3.07791e-05 0.000184494 1.5943e-20
-5.21857e-05 4.23806e-05 4.03344e-19
8.4411e-06 1.80991e-05 4.26087e-19
4.119e-05 -1.58798e-06 7.38098e-20
0.000109451 -3.28538e-05 -2.8255e-19
0.000151718 4.88975e-05 -1.77779e-20
7.56311e-05 0.000182575 -1.49383e-19
-5.57026e-06 -7.63239e-05 -7.62744e-20
-1.97625e-05 5.06046e-07 -2.12375e-20
-1.97625e-05 5.06046e-07 -1.00239e-21
-9.29764e-06 7.97767e-05 6.77348e-20
7.49422e-05 -0.000180913 4.07228e-20
0.000149507 -4.85223e-05 -1.24197e-20
0.000168276 -0.000209845 3.97186e-20
0.000215496 0.000174479 -6.62821e-20
0.000174307 0.000214462 -7.49115e-20
-0.000151024 -5.08126e-10 -1.83683e-20
-0.000154859 -4.72967e-09 2.75662e-20
-0.00015397 2.27312e-06 1.11141e-19
-4.28868e-05 -8.07872e-07 -1.21591e-19
7.06781e-06 1.24912e-05 -2.43317e-19
7.26404e-05 0.000135925 -6.67674e-20
3.05497e-05 0.000182506 -1.46549e-20
-5.14442e-05 4.18819e-05 -4.23246e-19
8.80776e-06 1.76569e-05 -2.15089e-19
4.08568e-05 -1.93816e-06 -1.38287e-19
0.000107169 -3.24317e-05 -2.35668e-19
0.000148261 4.75452e-05 -1.79854e-19
7.3602e-05 0.00017769 -1.90292e-19
6.70388e-05 0.000129733 1.95353e-19
1.89509e-05 3.24002e-05 1.81803e-19
1.75472e-05 -3.81011e-05 2.6619e-20
5.49622e-05 -0.000120435 7.44044e-20
6.32769e-05 -0.000152738 -5.35863e-20
0.000107657 -4.24804e-05 2.33103e-20
-8.60764e-05 -1.39054e-05 5.70821e-20
-8.48924e-06 -2.60781e-05 1.91549e-19
2.33196e-05 -2.24052e-05 1.60531e-19
5.87626e-05 5.32697e-05 1.61046e-19
3.66259e-05 -0.000150488 2.15624e-20
0.000177234 -0.000220139 7.32807e-20
0.000220712 -0.000174694 -4.1386e-20
-0.00017676 0.000216673 -3.75627e-20
-8.06509e-05 2.15856e-10 1.97912e-20
2.96983e-05 6.43679e-05 4.8895e-20
-5.69115e-06 6.19021e-06 5.19936e-20
4.5476e-06 2.37118e-07 -1.15116e-19
8.43807e-06 -2.35864e-06 -1.0654e-19
1.77351e-05 -6.20732e-06 -8.0369e-20
2.42541e-05 7.34141e-06 -1.46708e-20
1.1492e-05 2.77443e-05 -3.17351e-20
1.06332e-05 1.96878e-05 8.25798e-20
2.49123e-06 4.65423e-06 1.21837e-19
2.4979e-06 -4.67778e-06 3.32182e-19
1.06192e-05 -1.96825e-05 1.93938e-19
1.14846e-05 -2.77265e-05 3.32813e-20
2.42356e-05 -7.33693e-06 -2.70353e-20
1.77222e-05 6.19724e-06 -3.79811e-20
8.44967e-06 2.40569e-06 -8.35227e-20
3.42907e-06 4.30777e-07 -1.3428e-19
-1.35962e-05 -4.08721e-05 -1.34962e-19
2.70653e-06 -6.401e-05 2.38731e-20
-1.87925e-05 5.18537e-05 2.48436e-20
2.47925e-05 3.94782e-05 1.50393e-20
4.28129e-05 2.86491e-05 -5.30278e-20
8.23989e-05 9.84204e-06 -9.16907e-20
-8.06613e-05 -1.95537e-10 3.30451e-21
9.08443e-06 8.41685e-08 -2.09612e-21
6.50953e-06 2.2141e-06 -6.13349e-20
9.08065e-06 8.80784e-08 -2.78274e-20
3.66714e-05 0.00015052 -5.28739e-20
0.000107389 4.24048e-05 1.78012e-20
6.31567e-05 0.000152447 -9.72825e-20
5.48102e-05 0.00012027 1.18452e-20
1.76622e-05 3.82178e-05 1.96629e-19
1.87792e-05 -3.2262e-05 4.05413e-19
6.7104e-05 -0.000129761 7.60524e-20
7.3626e-05 -0.000177748 2.51091e-20
0.000148239 -4.75664e-05 3.39545e-20
0.000107148 3.23568e-05 1.88985e-19
4.09496e-05 2.21774e-06 2.60992e-19
-5.19988e-06 -1.2457e-05 2.45665e-20
-7.25259e-05 -0.000135706 -1.38543e-20
-3.03371e-05 -0.000182387 1.44576e-19
5.17203e-05 -4.20805e-05 3.57459e-20
-9.28793e-06 -1.84979e-05 1.58533e-19
-4.29963e-05 4.03868e-07 -2.00959e-20
-0.000153892 -2.72206e-06 -3.00506e-19
-0.000154987 4.77635e-09 1.14153e-21
-0.000150997 3.80351e-10 -3.72442e-20
0.000172574 -0.000211358 -5.02107e-21
0.00021993 -0.000169048 -2.83271e-20
-0.000179777 0.000224696 3.71051e-20
-2.8586e-05 -0.00018062 3.39821e-20
7.07261e-05 0.000117738 -4.19238e-20
1.00304e-05 1.40897e-05 1.99261e-20
-4.09914e-05 4.27254e-07 -1.97434e-20
-0.000149616 3.53868e-06 -3.73503e-20
0.000131879 -3.71692e-05 4.08736e-20
5.91523e-05 -0.000142809 3.55558e-20
2.32979e-05 4.34758e-05 8.87301e-21
2.18024e-05 4.18689e-07 5.82193e-20
2.18024e-05 4.18689e-07 6.98469e-20
2.53249e-05 -4.10932e-05 2.6429e-20
5.91942e-05 0.00014291 -4.79117e-20
0.000131874 3.72036e-05 -1.74211e-20
-0.000149417 -4.00081e-06 3.28118e-21
-4.04617e-05 -1.2978e-06 -5.80611e-20
1.11087e-05 -1.46829e-05 -5.35078e-20
7.0725e-05 -0.000117681 2.93778e-20
3.2012e-05 0.000180616 -6.16991e-20
-7.33102e-05 -0.000137376 2.31711e-20
-4.83695e-06 -1.34764e-05 1.06373e-19
4.32872e-05 1.64242e-06 1.15159e-19
0.000108435 3.00427e-05 6.48699e-20
-0.000155029 -1.40151e-09 1.22296e-20
6.90553e-05 -0.000133049 -3.29913e-20
1.97656e-05 -3.76388e-05 -4.99717e-21
1.96124e-05 3.63051e-05 1.32522e-20
6.88227e-05 0.000133577 2.58938e-20
-0.00015507 1.29329e-09 2.01332e-21
0.000108335 -2.99868e-05 -7.80541e-20
4.26564e-05 -5.00058e-07 -1.49926e-19
1.03474e-05 1.78482e-05 -1.27908e-19
-5.18894e-05 4.20881e-05 -7.43566e-20
0.000175884 -0.000213936 8.24278e-22
0.000223714 -0.000172216 1.69714e-21
-0.000176888 0.000218937 2.21135e-21
0.000149445 4.85877e-05 2.71224e-20
7.50169e-05 0.000181092 -6.60464e-20
-8.71009e-06 7.9881e-05 -1.42865e-20
-1.99036e-05 1.20894e-06 -4.67469e-20
-1.99036e-05 1.20894e-06 -7.18559e-20
-6.15627e-06 -7.61328e-05 -8.26233e-20
7.5536e-05 -0.000182345 6.57331e-20
0.000151687 -4.88229e-05 2.59968e-20
0.000109465 3.28703e-05 -1.2335e-19
4.12332e-05 1.63244e-06 -1.14965e-19
8.49173e-06 -1.81073e-05 1.03639e-19
-5.22748e-05 -4.24523e-05 2.06136e-19
3.06957e-05 -0.000184451 -4.83875e-20
7.32313e-05 -0.000137287 -9.86576e-20
6.97091e-06 -1.2494e-05 -3.89835e-20
-4.32763e-05 8.01283e-07 -3.7739e-20
-0.000155009 -2.141e-06 1.33599e-19
-0.000155844 -4.22303e-10 5.72053e-20
-1.0717e-05 -7.9845e-05 1.79279e-19
-2.06907e-05 -1.49409e-06 2.89029e-19
-2.06907e-05 -1.49409e-06 1.86095e-19
-8.17897e-06 7.61131e-05 6.65933e-20
-0.000155766 2.85302e-09 -3.29319e-20
0.000109059 3.1097e-05 -9.24637e-20
4.30095e-05 2.27075e-06 1.1869e-19
-5.38253e-06 -1.33385e-05 1.655e-19
-7.36993e-05 -0.000137253 9.6949e-20
3.15266e-05 0.000184911 -6.78856e-21
0.000168196 -0.000209541 -1.41081e-20
0.000215547 0.000174595 4.54747e-20
0.00017442 0.000214595 1.11576e-20
7.54355e-05 -0.000182109 -1.43968e-20
0.000150683 -4.88294e-05 1.50572e-21
-3.09104e-05 -0.000184355 -7.10638e-20
5.20697e-05 -4.24041e-05 7.53038e-20
-9.47379e-06 -1.85768e-05 8.5758e-20
-4.34273e-05 4.79141e-07 -1.73296e-19
-0.000154757 -2.5172e-06 -2.80497e-19
-0.000155767 -1.29257e-09 -2.45568e-19
-8.19038e-06 -7.60444e-05 -2.71897e-19
-2.06055e-05 1.51981e-06 -2.27104e-19
-2.06055e-05 1.51981e-06 -3.84251e-19
-1.06986e-05 7.97514e-05 -3.00367e-19
-0.000155539 1.32778e-09 -6.60029e-20
-0.000154701 2.1473e-06 -4.97278e-19
-4.321e-05 -8.66868e-07 -1.68223e-19
6.97941e-06 1.24881e-05 -5.09476e-20
7.3091e-05 0.000137205 1.6621e-19
3.05124e-05 0.000184477 -1.89354e-20
5.33915e-05 -4.14145e-05 -5.64481e-20
-1.0719e-05 -1.78155e-05 -1.02458e-19
-4.34525e-05 8.61816e-08 1.028e-20
-0.00015456 -2.42307e-06 6.70053e-20
0.00015058 4.88955e-05 1.78883e-20
7.55069e-05 0.000182281 -4.33564e-21
-2.77836e-05 -0.000313617 1.19344e-20
0.00021217 0.000168181 6.36052e-20
-0.000175747 0.000218347 -9.88912e-20
-3.04064e-05 -0.000184898 -4.18962e-20
-0.000155504 -2.77501e-09 2.056e-20
-1.07149e-05 -7.98383e-05 -2.7053e-19
-2.06874e-05 -1.50906e-06 -1.09865e-19
-2.06874e-05 -1.50906e-06 2.09303e-19
-8.17598e-06 7.60788e-05 2.37729e-19
-0.000155778 4.38908e-10 4.01165e-20
-0.000154683 2.72697e-06 2.68048e-20
-4.38851e-05 -5.28912e-07 1.18738e-19
8.13344e-06 1.31843e-05 1.01879e-19
7.33259e-05 0.000137355 2.50609e-19
3.07791e-05 0.000184494 6.49123e-21
-5.21857e-05 4.23806e-05 3.85491e-19
8.4411e-06 1.80991e-05 4.23987e-19
4.119e-05 -1.58798e-06 7.17094e-20
0.000109451 -3.28538e-05 -2.8255e-19
0.000151718 4.88975e-05 3.22598e-21
7.56311e-05 0.000182575 -1.05275e-19
-5.57026e-06 -7.63239e-05 -1.25633e-19
-1.97625e-05 5.06046e-07 -9.68534e-21
-1.97625e-05 5.06046e-07 -3.35584e-20
-9.29764e-06 7.97767e-05 3.41286e-20
7.49422e-05 -0.000180913 8.90317e-20
0.000149507 -4.85223e-05 -3.97247e-20
0.000168276 -0.000209845 3.68306e-20
0.000215496 0.000174479 -6.68072e-20
0.000174307 0.000214462 -7.33362e-20
-0.000151024 -5.08126e-10 -8.91655e-21
-0.000154859 -4.72967e-09 2.33655e-20
-0.00015397 2.27312e-06 5.86313e-20
-4.28868e-05 -8.07872e-07 -1.25792e-19
7.06781e-06 1.24912e-05 -2.33865e-19
7.26404e-05 0.000135925 -9.51226e-20
3.05497e-05 0.000182506 -1.99059e-20
-5.14442e-05 4.18819e-05 -4.43199e-19
8.80776e-06 1.76569e-05 -1.69931e-19
4.08568e-05 -1.93816e-06 -1.46688e-19
0.000107169 -3.24317e-05 -2.56672e-19
0.000148261 4.75452e-05 -2.23962e-19
7.3602e-05 0.00017769 -2.59605e-19
6.70388e-05 0.000129733 2.3211e-19
1.89509e-05 3.24002e-05 2.51116e-19
1.75472e-05 -3.81011e-05 2.97696e-20
5.49622e-05 -0.000120435 4.07982e-20
6.32769e-05 -0.000152738 -1.271e-19
0.000107657 -4.24804e-05 -1.23963e-20
-8.60764e-05 -1.39054e-05 7.38852e-20
-8.48924e-06 -2.60781e-05 1.08584e-19
2.33196e-05 -2.24052e-05 1.46878e-19
5.87626e-05 5.32697e-05 1.73648e-19
3.66259e-05 -0.000150488 1.42111e-20
0.000177234 -0.000220139 7.51185e-20
0.000220712 -0.000174694 -3.8498e-20
-0.00017676 0.000216673 -3.9138e-20
-8.06509e-05 2.15856e-10 -2.22165e-20
2.96983e-05 6.43679e-05 6.88729e-21
-5.69115e-06 6.19021e-06 8.1399e-20
4.5476e-06 2.37118e-07 -9.83125e-20
8.43807e-06 -2.35864e-06 -7.29337e-20
1.77351e-05 -6.20732e-06 1.54613e-21
2.42541e-05 7.34141e-06 -8.36968e-21
1.1492e-05 2.77443e-05 -4.22371e-20
1.06332e-05 1.96878e-05 7.62786e-20
2.49123e-06 4.65423e-06 2.73198e-20
2.4979e-06 -4.67778e-06 3.15379e-19
1.06192e-05 -1.96825e-05 1.77135e-19
1.14846e-05 -2.77265e-05 -3.81319e-20
2.42356e-05 -7.33693e-06 -8.13182e-21
1.77222e-05 6.19724e-06 4.02665e-21
8.44967e-06 2.40569e-06 -1.12928e-19
3.42907e-06 4.30777e-07 -1.3008e-19
-1.35962e-05 -4.08721e-05 -1.16059e-19
2.70653e-06 -6.401e-05 -2.02351e-20
-1.87925e-05 5.18537e-05 3.63957e-20
2.47925e-05 3.94782e-05 2.13405e-20
4.28129e-05 2.86491e-05 -9.1885e-20
8.23989e-05 9.84204e-06 -7.38374e-20
-8.06613e-05 -1.95537e-10 8.52196e-20
9.08443e-06 8.41685e-08 -4.09533e-20
6.50953e-06 2.2141e-06 7.97789e-21
9.08065e-06 8.80784e-08 -7.4036e-20
3.66714e-05 0.00015052 -3.51478e-21
0.000107389 4.24048e-05 5.9809e-20
6.31567e-05 0.000152447 -6.15759e-20
5.48102e-05 0.00012027 1.6046e-20
1.76622e-05 3.82178e-05 1.87178e-19
1.87792e-05 -3.2262e-05 4.06463e-19
6.7104e-05 -0.000129761 1.26462e-19
7.3626e-05 -0.000177748 4.40125e-20
0.000148239 -4.75664e-05 3.39545e-20
0.000107148 3.23568e-05 1.66931e-19
4.09496e-05 2.21774e-06 2.25285e-19
-5.19988e-06 -1.2457e-05 -2.73859e-21
-7.25259e-05 -0.000135706 -4.01091e-20
-3.03371e-05 -0.000182387 1.0887e-19
5.17203e-05 -4.20805e-05 1.57922e-20
-9.28793e-06 -1.84979e-05 1.54333e-19
-4.29963e-05 4.03868e-07 -3.68991e-20
-0.000153892 -2.72206e-06 -2.7005e-19
-0.000154987 4.77635e-09 -2.72137e-20
-0.000150997 3.80351e-10 2.99682e-20
0.000172574 -0.000211358 -1.34539e-21
0.00021993 -0.000169048 -3.20027e-20
-0.000179777 0.000224696 3.08039e-20
-4.81275e-05 7.24409e-05 1.65928e-20
-5.39993e-05 -3.61968e-05 -2.17684e-20
5.15643e-05 -4.91437e-05 -5.94437e-21
5.11921e-05 4.96156e-05 -3.12042e-20
6.4128e-05 1.28649e-05 -3.66131e-21
6.40421e-05 -1.29418e-05 8.64556e-20
1.59524e-05 -7.04912e-05 -1.29825e-20
8.18385e-05 -1.49267e-05 4.52847e-20
-8.72541e-05 -1.27849e-05 -3.36241e-21
-1.09325e-05 6.97757e-05 -2.52715e-20
0.000103743 -2.97949e-05 6.87096e-20
0.000103705 2.9832e-05 -4.39807e-20
-5.70235e-05 -3.43501e-05 -1.17263e-20
-5.75773e-05 2.93327e-05 1.3026e-20
3.24694e-06 6.4994e-05 -3.48103e-20
1.20644e-06 -6.49721e-05 -5.09158e-20
-5.68908e-06 -6.5087e-05 -9.07594e-20
9.61066e-06 6.2819e-05 -2.92822e-20
6.92533e-05 -8.08122e-06 4.24431e-20
5.40373e-05 2.36786e-05 -2.11621e-20
-1.12398e-05 3.57334e-05 2.93852e-20
1.49237e-05 -3.48618e-05 -5.55052e-20
-9.78302e-05 6.77807e-05 5.45697e-21
-8.61775e-05 -4.84552e-05 4.73597e-21
0.000165148 -7.74088e-05 1.5939e-20
9.33171e-05 0.000127512 -1.11895e-20
0.000103743 -2.97949e-05 -1.27531e-20
0.000103705 2.9832e-05 2.68293e-20
5.74789e-05 -2.52456e-05 1.58994e-20
5.73376e-05 2.49322e-05 -8.90912e-20
-4.46932e-05 2.15249e-05 1.76547e-20
-4.53506e-05 -2.14928e-05 3.90546e-20
6.92351e-05 2.44586e-05 -2.53469e-20
6.90142e-05 -2.51116e-05 -2.01438e-20
2.00083e-05 0.000105996 6.18297e-20
-1.64719e-05 -0.00010532 -3.58489e-20
-4.30814e-05 1.01666e-05 1.16668e-20
-4.39769e-05 -1.08492e-05 -6.20081e-20
3.41465e-07 -0.00015077 -2.56363e-20
1.77141e-05 0.000152909 -8.28845e-21
0.00016095 1.32732e-06 4.47207e-21
-0.000149457 -2.01545e-05 1.18532e-20
7.5386e-05 -4.58141e-05 8.80928e-21
7.52206e-05 4.58907e-05 -2.79782e-20
-5.62051e-05 3.32694e-05 2.63311e-36
-7.44424e-05 -9.91814e-06 -8.55998e-20
-7.47928e-05 9.69703e-06 3.07168e-20
-5.84883e-05 -3.55553e-05 2.02627e-20
5.43122e-05 -7.46217e-05 -2.1796e-20
5.46434e-05 7.58164e-05 -2.29651e-20
8.37041e-05 -3.70221e-05 1.61808e-20
-4.81275e-05 7.24409e-05 4.34731e-21
-1.22657e-05 -6.72336e-05 -1.19801e-20
8.52814e-05 3.6429e-05 2.36787e-20
-4.92469e-05 4.03998e-05 -3.66729e-20
5.37404e-05 -4.03225e-05 -9.49994e-20
1.5509e-05 -0.000137945 -1.23485e-19
-1.12571e-05 0.000137891 -2.08807e-20
8.33296e-05 -7.04426e-05 2.40153e-20
8.33604e-05 7.0577e-05 -2.65044e-20
3.64497e-05 1.26263e-05 2.37775e-20
-9.53094e-06 8.01156e-05 2.33398e-21
-6.36633e-06 -7.64766e-05 -4.72024e-20
1.67349e-05 4.46729e-05 4.89938e-20
-1.18398e-05 -4.56522e-05 -4.48089e-20
-2.30776e-06 6.18169e-05 -1.96404e-20
6.72311e-06 -6.04629e-05 -4.48843e-20
-8.61775e-05 -4.84552e-05 1.36047e-20
-5.68908e-06 -6.5087e-05 -7.14991e-20
9.61066e-06 6.2819e-05 -5.87429e-20
-3.96144e-05 -2.69517e-05 -7.5169e-20
-9.78302e-05 6.77807e-05 -1.27329e-20
1.1462e-05 1.60433e-05 -3.81074e-20
-6.36633e-06 -7.64766e-05 -1.9169e-20
-4.46932e-05 2.15249e-05 7.03704e-20
0.000104354 -2.96044e-05 1.12505e-20
0.00010436 2.96281e-05 -4.97031e-20
8.52814e-05 3.6429e-05 -9.77668e-21
6.05566e-05 3.6748e-05 -5.25564e-20
6.08872e-05 -3.67626e-05 1.91328e-20
0.000131879 -3.71692e-05 -1.44097e-20
0.000103743 -2.97949e-05 1.0314e-19
0.000131874 3.72036e-05 -3.78622e-20
0.000103705 2.9832e-05 4.28784e-21
-1.12398e-05 3.57334e-05 5.68007e-20
5.74789e-05 -2.52456e-05 1.45678e-20
5.73376e-05 2.49322e-05 -3.90387e-20
-7.03848e-05 -0.000133692 -1.42589e-20
7.46379e-05 0.00013511 -3.16321e-20
-2.19099e-06 -1.14571e-05 -1.19641e-20
8.37041e-05 -3.70221e-05 7.83449e-21
6.92533e-05 -8.08122e-06 4.37747e-20
-4.63649e-05 1.35371e-05 1.79839e-20
-3.96144e-05 -2.69517e-05 -2.13129e-20
-0.000153903 -2.90418e-06 -5.24852e-20
-0.00015406 2.48203e-06 -5.88342e-20
-1.06523e-05 3.94286e-05 5.17557e-21
-5.84883e-05 -3.55553e-05 -1.64739e-20
3.90407e-05 3.20046e-05 -1.53332e-21
3.41465e-07 -0.00015077 -8.11219e-21
1.77141e-05 0.000152909 -3.59301e-20
0.00016095 1.32732e-06 1.25922e-20
-0.000149457 -2.01545e-05 1.60502e-21
3.89006e-05 -3.23394e-05 -5.04719e-20
-5.41371e-05 3.22672e-05 2.47725e-20
3.62084e-05 -3.0264e-05 1.25227e-20
3.57192e-05 2.963e-05 4.20078e-21
-0.000217132 0.000176871 1.46708e-20
-5.68908e-06 -6.5087e-05 -5.76608e-20
-9.43131e-06 -0.000140531 1.269e-22
0.000150705 1.09475e-05 3.09695e-21
-1.12398e-05 3.57334e-05 9.15877e-20
-2.30776e-06 6.18169e-05 1.34582e-20
-4.63649e-05 1.35371e-05 2.46419e-20
9.61066e-06 6.2819e-05 -4.34773e-20
-8.61775e-05 -4.84552e-05 -3.04078e-20
7.5386e-05 -4.58141e-05 5.25606e-20
7.52206e-05 4.58907e-05 -1.14767e-20
4.91775e-05 -2.06739e-05 -3.91895e-20
4.95521e-05 2.07984e-05 2.03019e-20
6.72311e-06 -6.04629e-05 -6.07678e-20
-5.84883e-05 -3.55553e-05 -1.98507e-20
-2.19099e-06 -1.14571e-05 -8.94415e-21
-4.39769e-05 -1.08492e-05 -4.8431e-20
-4.30814e-05 1.01666e-05 1.29984e-20
-4.46932e-05 2.15249e-05 2.16495e-20
0.000223714 -0.000172216 -3.67063e-21
3.41465e-07 -0.00015077 -4.7943e-22
5.8754e-06 0.000138791 -4.35389e-20
0.00016095 1.32732e-06 2.30188e-20
5.43122e-05 -7.46217e-05 -2.37012e-21
5.46434e-05 7.58164e-05 -1.47144e-20
5.73376e-05 2.49322e-05 -4.43651e-20
-9.78302e-05 6.77807e-05 1.27329e-20
5.74789e-05 -2.52456e-05 -1.85308e-20
6.40421e-05 -1.29418e-05 4.37747e-20
6.4128e-05 1.28649e-05 -8.28177e-20
8.37041e-05 -3.70221e-05 1.5824e-20
8.52814e-05 3.6429e-05 5.19265e-22
-0.000176888 0.000218937 1.71854e-20
-0.000217132 0.000176871 2.07936e-20
-4.39769e-05 -1.08492e-05 -5.97017e-20
-4.30814e-05 1.01666e-05 4.14842e-20
-1.64719e-05 -0.00010532 -1.08608e-19
2.00083e-05 0.000105996 3.04195e-20
-4.78969e-05 7.73415e-05 8.34516e-20
-5.2401e-05 -4.97054e-05 -3.9352e-20
4.63601e-05 -5.16927e-05 -1.42503e-19
4.6875e-05 5.21088e-05 -1.13384e-19
6.37917e-05 -2.1173e-05 -3.02772e-20
6.39464e-05 2.23471e-05 -1.39483e-19
-1.30576e-05 -7.03563e-05 -1.99288e-19
7.00905e-05 -1.70537e-05 -1.06892e-19
-9.8444e-05 -2.22361e-05 1.29842e-19
-1.18772e-05 7.10108e-05 -5.18672e-20
0.000117215 -4.45034e-05 -6.64584e-20
0.000115914 4.52684e-05 -8.76683e-20
-5.82067e-05 -2.92301e-05 1.83203e-19
-5.76368e-05 3.37234e-05 1.00754e-19
1.55366e-06 6.63596e-05 -3.54209e-20
6.17248e-07 -6.65017e-05 1.19804e-19
6.41268e-06 -6.39106e-05 -2.04349e-19
7.15839e-06 6.45806e-05 -1.09686e-19
5.73799e-05 -1.01412e-05 -4.94058e-20
3.67597e-05 3.34681e-05 -2.90879e-20
-1.23644e-05 -3.66007e-05 -2.92342e-19
-1.16843e-05 3.72449e-05 5.30321e-20
-7.86914e-05 0.000128662 -1.00873e-19
-8.83309e-05 -4.77726e-05 -2.8145e-20
0.000156823 -7.45114e-05 -4.57442e-20
0.000154029 8.36516e-05 -1.36313e-19
0.000117215 -4.45034e-05 -3.5405e-20
0.000115914 4.52684e-05 -1.95215e-20
5.28985e-05 -2.85826e-05 5.00875e-20
5.32486e-05 2.92421e-05 -1.30967e-19
-4.55522e-05 -2.1372e-05 2.4036e-19
-4.6444e-05 2.16172e-05 1.88022e-19
6.21487e-05 2.9068e-05 -1.3717e-19
6.13581e-05 -2.94807e-05 2.06906e-20
1.9215e-05 0.00010838 -5.99237e-20
1.84566e-05 -0.000108367 2.24618e-20
-4.39278e-05 -1.01815e-05 -4.02514e-20
-4.6865e-05 1.13997e-05 8.28728e-20
-1.98551e-06 -0.000147723 -2.55102e-19
-1.47855e-05 0.000150698 -3.86803e-20
0.00014889 -1.08576e-05 -1.78792e-19
-0.000131309 1.20097e-06 -1.11771e-19
7.41461e-05 -7.01099e-05 -1.02209e-19
7.34411e-05 7.03179e-05 -9.96165e-20
-6.89995e-05 -4.15255e-05 2.07511e-19
-7.5363e-05 -9.72757e-06 1.57483e-19
-7.49458e-05 1.24073e-05 4.96394e-20
-5.79632e-05 3.39769e-05 3.50365e-20
4.95121e-05 -7.62174e-05 -9.16312e-20
-4.68175e-05 7.65364e-05 -4.40401e-20
7.40176e-05 -3.97635e-05 -9.4306e-20
-1.39412e-05 -6.80329e-05 -1.30539e-19
4.5933e-05 7.15549e-05 -7.04097e-20
7.58205e-05 3.98118e-05 -1.64054e-19
-5.18894e-05 4.20881e-05 -1.42936e-19
-5.22748e-05 -4.24523e-05 2.28303e-20
-1.35858e-05 -0.000141054 1.13292e-19
-1.29897e-05 0.000141233 -6.42593e-20
0.00010228 -0.000102296 -1.31855e-19
0.000101392 0.00010214 -3.80128e-22
6.82825e-06 -2.01006e-05 -3.81988e-20
-1.0717e-05 -7.9845e-05 2.18473e-19
-8.17897e-06 7.61131e-05 2.26561e-20
1.57039e-05 -4.55701e-05 -1.11711e-19
1.59094e-05 4.56306e-05 3.54167e-20
-8.83309e-05 -4.77726e-05 3.00405e-21
-3.56862e-06 6.26749e-05 5.1161e-21
-4.05959e-06 -6.20531e-05 -1.43835e-19
6.41268e-06 -6.39106e-05 -1.67612e-19
7.15839e-06 6.45806e-05 -6.27493e-20
1.03474e-05 1.78482e-05 -2.00949e-19
8.49173e-06 -1.81073e-05 -8.43552e-20
-8.17897e-06 7.61131e-05 1.94355e-19
-4.55522e-05 -2.1372e-05 1.98036e-19
0.000115812 -4.49402e-05 -1.63433e-20
0.000114512 4.5705e-05 -1.03254e-19
7.58205e-05 3.98118e-05 -2.80218e-20
4.97604e-05 5.55537e-05 -1.12674e-19
5.02074e-05 -5.51648e-05 1.16913e-21
0.000151687 -4.88229e-05 -7.90926e-20
0.000117215 -4.45034e-05 -3.30986e-20
0.000149445 4.85877e-05 -1.86338e-20
0.000115914 4.52684e-05 -6.85036e-20
-9.56394e-05 7.15777e-05 -2.15305e-20
-1.23644e-05 -3.66007e-05 -1.21975e-19
-1.16843e-05 3.72449e-05 6.42072e-20
5.28985e-05 -2.85826e-05 3.91736e-20
5.32486e-05 2.92421e-05 -1.45519e-19
7.32313e-05 -0.000137287 1.56413e-19
7.47566e-05 0.000137833 1.80274e-20
7.40176e-05 -3.97635e-05 -8.68295e-21
5.73799e-05 -1.01412e-05 -8.95191e-20
-4.70047e-05 -1.39222e-05 2.30742e-19
-0.000155009 -2.141e-06 1.17303e-19
-0.000154609 2.88366e-06 7.89577e-20
-1.18017e-05 -4.01401e-05 -1.57812e-19
-1.05473e-05 4.30577e-05 4.64495e-20
-5.79632e-05 3.39769e-05 7.89535e-20
3.58356e-05 3.59393e-05 -1.42828e-19
3.51261e-05 -3.54494e-05 -2.008e-20
-1.98551e-06 -0.000147723 -6.32643e-20
-1.47855e-05 0.000150698 -8.91246e-20
-0.000131309 1.20097e-06 -9.98819e-20
0.00014889 -1.08576e-05 -1.91394e-19
-5.48227e-05 -3.21645e-05 6.9094e-20
1.26175e-05 -4.64072e-05 -8.70068e-20
1.22532e-05 4.57595e-05 -6.66092e-20
0.000215547 0.000174595 -1.63709e-20
7.15839e-06 6.45806e-05 -6.31061e-20
-1.06917e-05 -0.000138648 -1.4759e-19
-0.000131309 1.20097e-06 -8.20489e-20
-1.16843e-05 3.72449e-05 5.10825e-20
-1.23644e-05 -3.66007e-05 -1.21618e-19
-4.05959e-06 -6.20531e-05 -2.01686e-19
-4.70047e-05 -1.39222e-05 1.30924e-19
6.41268e-06 -6.39106e-05 -1.62025e-19
7.41461e-05 -7.01099e-05 -1.50626e-20
7.34411e-05 7.03179e-05 -1.11505e-19
4.84993e-05 -1.87353e-05 -1.339e-19
4.75084e-05 2.12219e-05 -7.98571e-20
-8.83309e-05 -4.77726e-05 -3.04514e-20
-3.56862e-06 6.26749e-05 -3.35701e-20
-5.79632e-05 3.39769e-05 1.42131e-19
-4.39278e-05 -1.01815e-05 5.85921e-20
-4.6865e-05 1.13997e-05 1.31855e-19
-4.55522e-05 -2.1372e-05 1.44346e-19
0.000204682 -0.000167425 -1.38802e-19
-3.58282e-06 0.00013625 3.27439e-20
-1.98551e-06 -0.000147723 -2.18544e-19
0.000141383 -4.40688e-06 -9.47144e-20
4.95121e-05 -7.62174e-05 -1.74591e-19
-4.68175e-05 7.65364e-05 -3.4101e-20
5.32486e-05 2.92421e-05 -1.12421e-19
5.28985e-05 -2.85826e-05 -3.32292e-20
6.5621e-05 4.98493e-05 -1.27004e-19
6.37917e-05 -2.1173e-05 3.592e-20
6.39464e-05 2.23471e-05 -1.2662e-19
7.40176e-05 -3.97635e-05 9.94997e-22
7.58205e-05 3.98118e-05 -8.98674e-20
0.00017442 0.000214595 5.11754e-20
0.000215547 0.000174595 -1.65528e-19
-4.39278e-05 -1.01815e-05 5.79741e-20
-4.6865e-05 1.13997e-05 9.91132e-20
1.9215e-05 0.00010838 8.22315e-21
1.84566e-05 -0.000108367 -5.72169e-20
-4.90986e-05 7.16125e-05 -6.7687e-20
-5.49354e-05 -3.59823e-05 -2.56283e-20
4.6831e-05 -5.10312e-05 2.17152e-21
4.64006e-05 5.18199e-05 -1.13606e-19
6.39836e-05 -2.19443e-05 2.38369e-20
6.38907e-05 2.20283e-05 -1.31292e-19
1.25654e-05 -7.13916e-05 1.38731e-19
6.78192e-05 -1.68996e-05 -2.92939e-20
-8.78909e-05 -1.24929e-05 -7.89853e-20
-1.29816e-05 7.01487e-05 -1.03239e-19
0.000116698 -4.51345e-05 -9.62164e-20
0.00011658 4.52673e-05 -6.41128e-20
-5.81924e-05 2.92743e-05 -4.08341e-19
-5.78474e-05 -3.42158e-05 -3.02547e-19
5.90593e-07 6.62623e-05 3.39269e-20
-1.22816e-06 -6.65355e-05 1.51242e-19
-7.38152e-06 -6.55998e-05 5.04008e-20
6.42935e-06 6.36977e-05 -9.90727e-21
5.72657e-05 -1.0708e-05 2.91038e-20
3.62197e-05 3.34606e-05 -7.21256e-20
-1.22506e-05 3.64639e-05 -5.72445e-20
1.16887e-05 -3.66834e-05 7.20938e-20
-9.77169e-05 6.70533e-05 -1.25748e-19
-8.7465e-05 -4.79225e-05 2.81131e-20
8.9986e-05 -0.000129019 6.0076e-20
0.000155911 7.67648e-05 -6.46851e-20
0.000116698 -4.51345e-05 -1.13075e-19
0.00011658 4.52673e-05 -2.76374e-20
5.3022e-05 -2.88593e-05 6.89273e-20
5.29245e-05 2.89136e-05 -1.0694e-19
-4.54156e-05 2.1612e-05 -2.90329e-19
-4.61908e-05 -2.14563e-05 -2.79593e-19
6.14545e-05 2.93966e-05 -1.32834e-19
6.18359e-05 -2.9191e-05 5.30002e-20
1.82514e-05 0.000108262 1.29164e-19
-1.86496e-05 -0.000108138 1.16994e-19
-4.3686e-05 1.02181e-05 -1.99851e-19
-4.46349e-05 -1.06856e-05 -1.62389e-19
-2.03536e-06 -0.000141362 1.94802e-19
6.02641e-06 0.000148105 -1.23973e-19
0.000150635 -9.05987e-07 -2.33002e-20
-0.000148974 -1.89413e-05 6.57353e-21
7.38486e-05 -7.04732e-05 -3.71964e-20
7.35577e-05 7.07362e-05 -4.64421e-20
-5.68063e-05 3.31911e-05 -1.54868e-19
-7.52285e-05 9.75136e-06 -3.452e-19
-7.51562e-05 -9.75315e-06 -2.62957e-19
-5.92458e-05 -3.53664e-05 -1.53861e-19
4.94487e-05 -7.56237e-05 8.06259e-20
4.87962e-05 7.60308e-05 -8.29801e-20
7.51316e-05 3.96725e-05 -7.74753e-20
-4.90986e-05 7.16125e-05 -2.14538e-19
-1.46278e-05 -6.74704e-05 5.64757e-20
7.51848e-05 -3.96105e-05 1.0006e-19
-5.27638e-05 4.17927e-05 5.42607e-20
5.20697e-05 -4.24041e-05 1.39099e-19
1.34569e-05 -0.000140892 1.7595e-19
-1.38844e-05 0.000141044 4.70399e-20
0.000102015 -0.000102549 1.66735e-22
0.00010205 0.000102828 -5.20744e-21
7.14134e-06 2.01866e-05 -3.61303e-20
-1.06986e-05 7.97514e-05 -2.55043e-19
-8.19038e-06 -7.60444e-05 -2.26292e-19
1.56363e-05 4.53754e-05 6.5678e-20
-1.49104e-05 -4.74076e-05 1.03207e-19
-4.12588e-06 6.19767e-05 -4.05487e-20
3.69518e-06 -6.17531e-05 1.22792e-19
-8.7465e-05 -4.79225e-05 -1.26014e-19
-7.38152e-06 -6.55998e-05 1.51551e-19
6.42935e-06 6.36977e-05 -2.1796e-20
-4.04325e-05 -2.73721e-05 4.27128e-20
-9.77169e-05 6.70533e-05 -3.67483e-20
9.73287e-06 1.76073e-05 -2.61911e-20
-8.19038e-06 -7.60444e-05 -2.58677e-19
-4.54156e-05 2.1612e-05 -3.23689e-19
0.000115315 -4.55653e-05 5.39793e-20
0.000115169 4.57068e-05 -1.47707e-19
7.51848e-05 -3.96105e-05 6.86501e-20
4.95072e-05 5.57629e-05 -3.85194e-20
5.00113e-05 -5.55879e-05 2.24183e-20
0.000150683 -4.88294e-05 9.64608e-21
0.000116698 -4.51345e-05 -3.49887e-20
0.00015058 4.88955e-05 9.78834e-21
0.00011658 4.52673e-05 -5.8095e-21
-1.22506e-05 3.64639e-05 -5.62697e-20
5.3022e-05 -2.88593e-05 1.05046e-19
5.29245e-05 2.89136e-05 -1.28316e-19
7.3091e-05 0.000137205 6.51703e-20
-7.36993e-05 -0.000137253 1.14315e-19
-5.38253e-06 -1.33385e-05 1.09524e-19
7.51316e-05 3.96725e-05 -9.14093e-20
5.72657e-05 -1.0708e-05 -1.55267e-20
-4.68781e-05 1.36749e-05 -2.73082e-19
-4.04325e-05 -2.73721e-05 1.71514e-20
-0.000154701 2.1473e-06 -1.51258e-19
-0.000154757 -2.5172e-06 -3.58206e-19
-1.17491e-05 3.9619e-05 -9.51067e-20
-5.92458e-05 -3.53664e-05 -2.26978e-19
3.52747e-05 3.57327e-05 -3.75011e-20
-2.03536e-06 -0.000141362 1.83579e-19
6.02641e-06 0.000148105 -1.0312e-19
-0.000148974 -1.89413e-05 -2.55917e-20
0.000150635 -9.05987e-07 -1.28932e-19
3.52612e-05 -3.56438e-05 6.74534e-20
-5.4706e-05 3.22482e-05 -1.53564e-19
1.24081e-05 -4.67755e-05 -1.86656e-20
1.16124e-05 4.54715e-05 -4.68223e-20
-0.000215654 0.000175798 1.14202e-20
-7.38152e-06 -6.55998e-05 8.73986e-20
-4.07496e-06 -0.000138793 9.85663e-20
0.000141608 -9.28827e-06 2.16935e-19
-1.22506e-05 3.64639e-05 -4.50946e-20
-4.12588e-06 6.19767e-05 -1.62908e-19
-4.68781e-05 1.36749e-05 -2.85066e-19
6.42935e-06 6.36977e-05 -9.02996e-20
-8.7465e-05 -4.79225e-05 1.26695e-19
7.38486e-05 -7.04732e-05 -4.35897e-21
7.35577e-05 7.07362e-05 -1.14137e-19
4.91475e-05 1.98318e-05 1.16431e-19
4.8227e-05 -1.96363e-05 -1.16356e-19
3.69518e-06 -6.17531e-05 3.67164e-20
-5.92458e-05 -3.53664e-05 -1.6273e-19
-5.38253e-06 -1.33385e-05 1.43597e-19
-4.3686e-05 1.02181e-05 -4.30732e-19
-4.46349e-05 -1.06856e-05 -2.56715e-19
-4.54156e-05 2.1612e-05 -3.1287e-19
0.00021217 0.000168181 -2.47703e-20
-2.03536e-06 -0.000141362 1.90629e-19
1.35426e-06 0.000143529 -9.62004e-20
0.000150635 -9.05987e-07 -2.05064e-20
4.94487e-05 -7.56237e-05 3.20006e-20
4.87962e-05 7.60308e-05 -8.62613e-20
5.29245e-05 2.89136e-05 -1.48551e-19
-9.77169e-05 6.70533e-05 -9.03431e-20
5.3022e-05 -2.88593e-05 3.29043e-20
6.39836e-05 -2.19443e-05 5.79103e-20
6.38907e-05 2.20283e-05 -1.66436e-19
7.51316e-05 3.96725e-05 -1.14569e-19
7.51848e-05 -3.96105e-05 6.69617e-20
-0.000175747 0.000218347 -8.54925e-20
-0.000215654 0.000175798 3.74626e-20
-4.3686e-05 1.02181e-05 -3.0074e-19
-4.46349e-05 -1.06856e-05 -2.47394e-19
-1.86496e-05 -0.000108138 6.03792e-20
1.82514e-05 0.000108262 6.76753e-20
-4.79704e-05 7.7348e-05 1.98194e-19
-5.23913e-05 -4.99344e-05 -1.36127e-19
4.69826e-05 -5.11909e-05 1.01982e-19
4.64976e-05 5.18156e-05 -9.70128e-20
6.39651e-05 -2.2287e-05 6.17193e-20
6.37652e-05 2.11926e-05 -1.62366e-19
1.29867e-05 -7.12545e-05 -6.07496e-21
7.00943e-05 -1.74216e-05 4.06241e-20
-9.8472e-05 -2.22842e-05 2.54912e-19
-1.20574e-05 7.10951e-05 -8.49021e-20
0.000115998 -4.51488e-05 -1.78735e-20
0.000117198 4.46028e-05 -8.16369e-20
-5.82517e-05 -2.92086e-05 -1.60142e-19
-5.7615e-05 3.3727e-05 2.14213e-19
1.23549e-06 6.65347e-05 2.03222e-20
-8.28605e-07 -6.63129e-05 -7.24463e-20
-6.82935e-06 -6.50454e-05 -8.62178e-20
6.70276e-06 6.45334e-05 1.61054e-20
5.74454e-05 -1.0543e-05 -3.60984e-20
3.67012e-05 3.30357e-05 4.76941e-20
-1.17667e-05 3.74213e-05 -8.05389e-20
1.21421e-05 -3.6695e-05 1.16106e-19
-7.87642e-05 0.000128615 8.59762e-20
-8.84295e-05 -4.78815e-05 -5.86791e-20
0.000156837 -7.4631e-05 1.75984e-20
0.000153929 8.34624e-05 1.4982e-20
0.000115998 -4.51488e-05 -6.50716e-21
0.000117198 4.46028e-05 -4.18803e-20
5.31736e-05 -2.91795e-05 7.16658e-20
5.2972e-05 2.86225e-05 -1.15523e-19
-4.555e-05 -2.13796e-05 2.30246e-20
-4.64316e-05 2.16075e-05 2.30476e-19
6.19901e-05 2.86436e-05 -4.16743e-20
6.15983e-05 -2.98245e-05 -3.59243e-20
1.85424e-05 0.000108425 1.8375e-19
-1.80689e-05 -0.000108206 1.93155e-20
-4.40406e-05 -1.03598e-05 -1.46672e-19
-4.68355e-05 1.15168e-05 6.00978e-20
-1.79342e-06 -0.000148013 -8.45968e-20
-1.48872e-05 0.000150585 4.58517e-21
0.00014885 -1.10255e-05 5.54356e-20
-0.000131355 1.17326e-06 9.9436e-20
7.36949e-05 -7.0143e-05 -2.02743e-20
7.39479e-05 7.02667e-05 -1.70324e-20
-6.89872e-05 -4.15984e-05 -5.80176e-20
-7.61275e-05 -8.08375e-06 -7.30452e-20
-7.48006e-05 1.25202e-05 1.14965e-19
-5.79591e-05 3.39942e-05 2.69004e-19
4.96268e-05 -7.50666e-05 4.29464e-20
-4.69225e-05 7.65665e-05 1.26814e-19
7.40353e-05 -3.99083e-05 3.08634e-20
-1.4291e-05 -6.79426e-05 -1.50889e-19
4.56414e-05 7.13131e-05 -1.28249e-19
7.57372e-05 3.94469e-05 6.35414e-20
-5.21857e-05 4.23806e-05 2.78583e-19
5.33915e-05 -4.14145e-05 -1.92242e-20
-1.34816e-05 0.000141092 4.31192e-19
1.4335e-05 -0.000141262 -1.49406e-21
0.000101344 -0.00010188 -4.91011e-20
0.000102365 0.000102553 1.33159e-20
7.00803e-06 -2.05537e-05 5.73199e-20
-1.07149e-05 -7.98383e-05 -7.96671e-20
-8.17598e-06 7.60788e-05 2.04143e-19
1.58541e-05 4.58154e-05 -1.80869e-20
-1.43739e-05 -4.7386e-05 5.00004e-20
-8.84295e-05 -4.78815e-05 5.8093e-20
-3.76623e-06 6.27769e-05 -1.37486e-19
4.12576e-06 -6.16265e-05 -2.0251e-20
-6.82935e-06 -6.50454e-05 3.75691e-21
6.70276e-06 6.45334e-05 -1.16668e-20
-4.11164e-05 -2.79173e-05 -9.75044e-20
8.4411e-06 1.80991e-05 8.04794e-20
-8.17598e-06 7.60788e-05 3.12926e-19
-4.555e-05 -2.13796e-05 -2.13087e-19
0.000114607 -4.55819e-05 7.10319e-20
0.000115804 4.50367e-05 -1.81352e-19
7.57372e-05 3.94469e-05 8.54649e-20
4.98188e-05 5.52224e-05 -1.01142e-19
5.0198e-05 -5.54742e-05 -4.10404e-20
0.000149507 -4.85223e-05 5.50135e-20
0.000115998 -4.51488e-05 7.95683e-20
0.000151718 4.88975e-05 -5.22081e-20
0.000117198 4.46028e-05 1.19758e-20
-9.56981e-05 7.15821e-05 1.31736e-19
-1.17667e-05 3.74213e-05 9.71041e-20
5.31736e-05 -2.91795e-05 3.98988e-20
5.2972e-05 2.86225e-05 -1.36472e-19
7.33259e-05 0.000137355 1.33686e-19
-7.33102e-05 -0.000137376 -2.83786e-20
-4.83695e-06 -1.34764e-05 1.2597e-19
7.40353e-05 -3.99083e-05 -4.32278e-20
5.74454e-05 -1.0543e-05 4.46507e-20
-4.70035e-05 -1.39398e-05 1.30226e-19
-4.11164e-05 -2.79173e-05 -2.00699e-19
-0.00015456 -2.42307e-06 2.72137e-20
-0.000154683 2.72697e-06 -1.88759e-20
-1.06381e-05 4.31921e-05 -3.96376e-20
-5.79591e-05 3.39942e-05 2.51789e-19
3.53028e-05 3.54179e-05 -1.266e-19
-1.79342e-06 -0.000148013 1.01606e-19
-1.48872e-05 0.000150585 1.04142e-19
-0.000131355 1.17326e-06 -1.11032e-19
0.00014885 -1.10255e-05 -5.81859e-20
3.54847e-05 -3.59339e-05 6.38823e-20
-5.4769e-05 -3.22137e-05 -1.50727e-19
1.30161e-05 -4.67041e-05 -5.1126e-20
1.18992e-05 4.54321e-05 -1.32681e-20
0.000215496 0.000174479 2.12077e-20
6.70276e-06 6.45334e-05 -1.53905e-19
-6.82935e-06 -6.50454e-05 -7.36154e-20
-1.06018e-05 -0.000138771 -4.04457e-20
-0.000131355 1.17326e-06 1.03533e-20
-1.17667e-05 3.74213e-05 5.04284e-20
-4.70035e-05 -1.39398e-05 2.36798e-19
7.36949e-05 -7.0143e-05 1.97434e-20
7.39479e-05 7.02667e-05 -2.39516e-20
4.93289e-05 1.89284e-05 5.90678e-20
4.74753e-05 -2.12018e-05 -1.58359e-19
-8.84295e-05 -4.78815e-05 -8.7165e-20
-3.76623e-06 6.27769e-05 -9.18807e-20
4.12576e-06 -6.16265e-05 9.06723e-20
-5.79591e-05 3.39942e-05 2.9145e-19
-4.83695e-06 -1.34764e-05 1.25613e-19
-4.40406e-05 -1.03598e-05 -1.14549e-19
-4.68355e-05 1.15168e-05 1.13336e-19
-4.555e-05 -2.13796e-05 -1.74758e-19
0.000204688 -0.000167545 4.06321e-20
-3.73073e-06 0.000136196 8.71889e-20
-1.79342e-06 -0.000148013 5.3777e-20
0.000141434 -4.65395e-06 -2.78212e-21
-4.69225e-05 7.65665e-05 1.75701e-19
4.96268e-05 -7.50666e-05 9.98225e-20
5.2972e-05 2.86225e-05 -1.22538e-19
6.54218e-05 4.95063e-05 -8.30237e-20
5.31736e-05 -2.91795e-05 2.66785e-20
6.39651e-05 -2.2287e-05 3.11883e-20
6.37652e-05 2.11926e-05 -1.75847e-19
7.40353e-05 -3.99083e-05 8.74782e-20
7.57372e-05 3.94469e-05 1.03989e-20
0.000174307 0.000214462 -8.94045e-21
0.000215496 0.000174479 7.27574e-20
-4.40406e-05 -1.03598e-05 -2.99958e-20
-4.68355e-05 1.15168e-05 7.37705e-20
-1.80689e-05 -0.000108206 2.10039e-21
1.85424e-05 0.000108425 3.23229e-19
-4.90949e-05 7.16013e-05 2.75985e-23
-5.28388e-05 -3.82177e-05 7.76697e-20
4.98373e-05 -6.35682e-05 1.54344e-19
4.67728e-05 5.0515e-05 -5.23982e-20
6.28922e-05 1.99336e-05 -4.95566e-20
5.64942e-05 -4.05511e-05 6.87807e-20
-7.94768e-06 -7.42705e-05 6.66092e-20
6.86576e-05 1.32834e-05 6.85907e-20
-8.65929e-05 -1.36992e-05 6.223e-20
-1.26394e-05 7.00765e-05 -2.83529e-19
0.000114396 4.29568e-05 -2.88978e-20
8.96591e-05 -5.40763e-05 8.47991e-20
-5.54382e-05 -3.56148e-05 6.53049e-21
-5.77332e-05 2.91391e-05 9.06308e-21
1.10831e-06 6.59489e-05 -1.54511e-19
9.79971e-06 -6.7786e-05 3.72675e-20
1.81812e-05 -7.28687e-05 1.51523e-19
6.98952e-06 6.33519e-05 -2.38082e-19
5.74398e-05 6.7019e-06 1.61565e-19
3.34711e-05 -3.95672e-05 3.98234e-20
-7.77009e-06 -3.77177e-05 -2.71383e-20
-1.20761e-05 3.63585e-05 -1.72554e-19
-9.87336e-05 6.69458e-05 -5.72562e-20
-8.59745e-05 -5.12443e-05 1.07011e-19
0.000163949 -8.30221e-05 7.38246e-20
8.96701e-05 0.00012617 -8.2558e-20
0.000114396 4.29568e-05 -1.28098e-19
8.96591e-05 -5.40763e-05 7.3624e-20
5.28312e-05 2.74312e-05 -1.13725e-19
5.26527e-05 -4.61064e-05 1.16047e-19
-4.45958e-05 2.09299e-05 -1.1445e-19
-4.38782e-05 -2.28981e-05 -2.91474e-20
6.23518e-05 2.62251e-05 -3.02252e-20
6.2311e-05 -3.73317e-05 2.31871e-20
2.75535e-05 -9.41004e-05 -2.02499e-21
1.84532e-05 0.0001073 -2.10884e-19
-4.33797e-05 1.02029e-05 -4.54588e-20
-4.29789e-05 -1.36991e-05 -1.86178e-20
1.27888e-06 -0.000157194 1.65455e-19
1.54025e-05 0.000151407 -3.50683e-19
0.000156614 -2.7421e-06 3.15052e-20
-0.000150401 -2.22778e-05 4.49119e-20
7.21298e-05 6.72068e-05 1.60071e-19
5.88063e-05 -7.04451e-05 9.14369e-20
-5.62363e-05 3.26827e-05 5.18746e-20
-7.17571e-05 -1.32422e-05 2.14594e-20
-7.47154e-05 9.73873e-06 1.62636e-20
-5.71392e-05 -3.68573e-05 6.5662e-20
5.43194e-05 -8.54708e-05 1.21634e-19
5.12355e-05 7.55372e-05 -1.81958e-19
7.70199e-05 -4.83822e-05 9.87564e-20
-4.90949e-05 7.16013e-05 -1.57737e-19
-8.95559e-06 -7.16563e-05 1.16102e-19
7.63113e-05 3.71356e-05 -6.64425e-20
-5.14442e-05 4.18819e-05 -3.12514e-19
-1.89036e-05 -5.18462e-05 1.40522e-19
-1.31903e-05 0.000139579 -2.9145e-19
5.82853e-06 -0.000116263 5.22474e-20
9.97301e-05 9.94799e-05 6.28523e-20
8.2614e-05 -9.4842e-05 5.48627e-20
6.26621e-06 -2.35221e-05 1.76913e-19
-9.29764e-06 7.97767e-05 4.78565e-20
-5.57026e-06 -7.63239e-05 4.17338e-20
1.98585e-05 -4.60734e-05 -3.17235e-20
1.57297e-05 4.52444e-05 -2.04658e-19
2.08626e-06 -6.38386e-05 6.49527e-20
-3.82228e-06 6.19406e-05 -1.88553e-19
-8.59745e-05 -5.12443e-05 7.75507e-20
1.81812e-05 -7.28687e-05 7.04171e-20
6.98952e-06 6.33519e-05 -3.09866e-19
-9.87336e-05 6.69458e-05 5.77319e-20
8.80776e-06 1.76569e-05 -1.79327e-19
2.42648e-05 -3.95915e-05 1.32917e-19
-5.57026e-06 -7.63239e-05 -3.50206e-20
-4.45958e-05 2.09299e-05 -4.03586e-20
0.000113344 4.32841e-05 -1.7981e-19
8.63093e-05 -5.51198e-05 1.25986e-19
7.63113e-05 3.71356e-05 -1.028e-20
4.89454e-05 5.2729e-05 1.5568e-19
4.30242e-05 -6.06206e-05 9.59031e-20
0.000148261 4.75452e-05 -5.56401e-20
0.000114396 4.29568e-05 3.12594e-20
0.000107657 -4.24804e-05 9.9969e-20
8.96591e-05 -5.40763e-05 -1.19291e-20
-7.77009e-06 -3.77177e-05 -4.95842e-20
-1.20761e-05 3.63585e-05 -1.86393e-19
5.28312e-05 2.74312e-05 -6.77624e-20
5.26527e-05 -4.61064e-05 7.60291e-20
7.26404e-05 0.000135925 -2.08483e-19
7.0725e-05 -0.000117681 -3.43824e-20
7.70199e-05 -4.83822e-05 4.85383e-20
5.74398e-05 6.7019e-06 1.30155e-19
-4.60994e-05 1.2937e-05 -8.77872e-20
-0.000149417 -4.00081e-06 3.93998e-20
-0.00015397 2.27312e-06 2.83467e-20
-1.15687e-05 3.95508e-05 -2.17843e-20
-6.77487e-06 -4.26939e-05 -6.08549e-20
-5.71392e-05 -3.68573e-05 8.44699e-20
3.54749e-05 3.41401e-05 -1.00393e-19
4.09008e-05 -5.06473e-05 1.53818e-19
1.27888e-06 -0.000157194 1.55694e-19
1.54025e-05 0.000151407 -1.18648e-19
-0.000150401 -2.22778e-05 7.57042e-20
0.000156614 -2.7421e-06 -2.79862e-20
-5.43123e-05 3.20572e-05 4.78565e-20
1.0435e-05 4.29753e-05 2.38315e-19
8.98619e-06 -4.79114e-05 6.33514e-20
-0.000218652 0.000176442 -2.53905e-20
-9.54177e-06 -0.000145932 1.25746e-19
0.000145863 7.24032e-06 1.83683e-20
-1.20761e-05 3.63585e-05 -2.15853e-19
-7.77009e-06 -3.77177e-05 -7.61204e-20
-3.82228e-06 6.19406e-05 -1.71694e-19
2.08626e-06 -6.38386e-05 -9.49528e-21
-4.60994e-05 1.2937e-05 -5.37138e-20
1.81812e-05 -7.28687e-05 1.40966e-19
6.98952e-06 6.33519e-05 -2.04269e-19
-8.59745e-05 -5.12443e-05 1.28482e-19
7.21298e-05 6.72068e-05 5.55445e-20
5.88063e-05 -7.04451e-05 5.14191e-20
4.7002e-05 -2.11209e-05 -1.39543e-19
4.6881e-05 -1.64857e-05 1.10773e-19
-5.71392e-05 -3.68573e-05 4.97785e-20
-4.29789e-05 -1.36991e-05 5.47597e-20
-4.33797e-05 1.02029e-05 -2.10268e-22
-4.45958e-05 2.09299e-05 -8.94842e-21
0.000220712 -0.000174694 -5.44518e-20
1.27888e-06 -0.000157194 1.14166e-19
3.55382e-06 0.000137277 -1.33823e-19
0.000156614 -2.7421e-06 1.37542e-19
5.43194e-05 -8.54708e-05 1.82862e-19
5.12355e-05 7.55372e-05 -1.19138e-19
5.28312e-05 2.74312e-05 -7.76059e-20
5.26527e-05 -4.61064e-05 1.30599e-19
-9.87336e-05 6.69458e-05 -6.95973e-20
6.28922e-05 1.99336e-05 -1.76886e-19
5.64942e-05 -4.05511e-05 -1.41126e-21
7.70199e-05 -4.83822e-05 1.37799e-19
7.63113e-05 3.71356e-05 8.26668e-21
-0.00017676 0.000216673 -2.19462e-19
-0.000218652 0.000176442 1.59111e-20
-4.29789e-05 -1.36991e-05 4.26098e-20
-4.33797e-05 1.02029e-05 -1.73298e-20
2.75535e-05 -9.41004e-05 -4.63943e-20
1.84532e-05 0.0001073 -1.18246e-19
6.71551e-06 -7.82049e-07 2.50842e-19
7.78338e-06 -1.1237e-06 -3.23298e-20
3.32564e-06 -5.90096e-07 7.1927e-20
7.76612e-06 1.11703e-06 -1.34843e-19
1.07812e-05 -1.48843e-06 1.62346e-19
1.07995e-05 1.47942e-06 8.9792e-20
8.85645e-06 -2.41306e-06 -3.54237e-21
6.30364e-06 -7.34404e-07 -1.74156e-19
5.9668e-06 -6.31272e-07 3.13092e-19
1.09723e-05 1.12335e-06 -4.30494e-20
1.83969e-05 -5.80995e-06 1.45226e-19
1.84096e-05 5.81072e-06 1.69772e-20
-3.06762e-06 -6.27694e-06 9.76786e-20
-3.82551e-06 -2.13283e-06 1.43213e-19
1.12607e-05 6.76464e-06 1.32203e-20
1.23358e-05 -6.05606e-06 -2.22282e-20
1.4562e-05 1.47475e-06 -1.60852e-20
8.30426e-06 2.22182e-06 -1.88937e-19
6.37789e-06 -7.74789e-07 1.03877e-19
4.59695e-06 3.32678e-06 -4.67628e-20
1.40413e-05 -1.08372e-05 1.76268e-19
5.73918e-06 -2.7284e-06 -4.00815e-20
6.80924e-06 -8.26822e-07 1.11101e-19
7.69735e-06 2.91295e-07 -6.60899e-20
7.0183e-06 4.63983e-07 2.48553e-20
8.13821e-06 1.51129e-07 -8.3923e-20
1.83969e-05 -5.80995e-06 3.34235e-20
1.84096e-05 5.81072e-06 1.30781e-20
8.40681e-06 -5.16753e-07 5.53937e-20
8.40608e-06 4.95534e-07 2.87556e-20
5.49202e-06 7.16518e-06 1.97414e-19
5.95294e-06 -6.08405e-06 2.14879e-19
7.59557e-06 -1.50072e-06 1.94295e-19
7.58836e-06 1.4778e-06 -4.76357e-21
2.44694e-05 3.18558e-05 -7.66462e-21
8.15752e-06 -3.01319e-05 -2.48393e-20
-1.65934e-06 -1.62278e-05 1.63075e-19
-1.777e-06 1.58747e-05 -6.85969e-21
8.54469e-06 -7.79254e-08 -3.77549e-20
8.45662e-06 -6.69037e-08 2.06852e-21
7.00396e-06 -7.33096e-09 -3.94868e-20
6.6068e-06 -7.81362e-09 2.03656e-19
1.14196e-05 -9.57601e-06 9.38187e-20
1.14232e-05 9.5988e-06 7.82282e-20
2.84354e-06 7.68932e-07 2.67851e-19
-2.38951e-05 -1.6557e-05 9.88042e-20
-2.38084e-05 1.65478e-05 -1.40369e-20
3.76769e-06 -6.5326e-07 2.74873e-19
8.22683e-06 -9.56364e-07 -4.01367e-20
8.24388e-06 9.499e-07 -6.72591e-20
6.97319e-06 -9.96106e-07 -4.88399e-20
6.71551e-06 -7.82049e-07 2.19432e-19
9.68739e-06 2.00317e-06 -2.39877e-20
6.9726e-06 1.01845e-06 -1.22186e-19
-5.69115e-06 6.19021e-06 -5.90954e-20
4.66298e-05 6.49011e-06 -4.60492e-20
1.15564e-05 4.50283e-05 -1.82536e-20
2.48831e-05 -4.71955e-05 -6.57852e-20
1.57618e-05 -1.49236e-05 9.61336e-20
1.57723e-05 1.49321e-05 1.01808e-19
7.26972e-07 2.35458e-06 7.71026e-20
2.32979e-05 4.34758e-05 9.20039e-20
2.53249e-05 -4.10932e-05 1.9153e-20
2.69303e-05 -6.71823e-06 1.06845e-19
3.15876e-06 -3.76872e-06 -7.97106e-20
1.50098e-05 -2.6024e-06 6.2761e-20
8.70474e-06 -2.24821e-06 -4.93389e-20
7.0183e-06 4.63983e-07 2.49792e-19
1.4562e-05 1.47475e-06 -4.09331e-20
8.30426e-06 2.22182e-06 -1.21504e-19
2.81777e-06 1.42371e-05 -4.99845e-20
6.80924e-06 -8.26822e-07 2.64348e-19
4.5476e-06 2.37118e-07 -1.54872e-19
2.53249e-05 -4.10932e-05 1.61034e-19
5.49202e-06 7.16518e-06 7.66471e-20
1.86945e-05 -5.71728e-06 1.24025e-19
1.87082e-05 5.71771e-06 6.59593e-20
6.9726e-06 1.01845e-06 -2.06834e-19
7.18777e-06 -6.9341e-06 1.01388e-19
7.15892e-06 6.94016e-06 1.16471e-19
2.42356e-05 -7.33693e-06 7.55417e-20
1.83969e-05 -5.80995e-06 2.08212e-20
2.42541e-05 7.34141e-06 -1.20077e-20
1.84096e-05 5.81072e-06 -2.93417e-20
1.40413e-05 -1.08372e-05 1.83805e-19
8.40681e-06 -5.16753e-07 2.0429e-19
8.40608e-06 4.95534e-07 9.47616e-20
5.87626e-05 5.32697e-05 4.72937e-20
-1.35962e-05 -4.08721e-05 -4.0897e-20
3.42907e-06 4.30777e-07 -6.68471e-20
6.97319e-06 -9.96106e-07 1.34582e-20
6.37789e-06 -7.74789e-07 -1.0589e-19
1.25479e-05 4.51644e-06 1.93586e-19
2.81777e-06 1.42371e-05 -2.9845e-20
-8.61343e-05 1.36306e-05 2.4816e-20
-8.60764e-05 -1.39054e-05 3.48718e-21
1.42887e-05 -9.28045e-06 2.36013e-19
3.76769e-06 -6.5326e-07 9.92756e-20
7.56232e-06 8.21661e-07 -1.62203e-19
8.54469e-06 -7.79254e-08 -4.54833e-20
8.45662e-06 -6.69037e-08 8.10849e-21
6.6068e-06 -7.81362e-09 7.06433e-20
7.00396e-06 -7.33096e-09 -1.69454e-20
7.56749e-06 -8.37221e-07 2.58778e-20
-7.24945e-06 -5.05341e-06 1.85299e-19
1.51069e-06 -5.9035e-06 2.07603e-19
1.51177e-06 5.80636e-06 6.76392e-20
6.35428e-06 2.30891e-06 1.8261e-20
1.4562e-05 1.47475e-06 -1.10864e-19
8.42232e-06 5.02877e-08 2.43286e-20
7.0159e-06 -1.85392e-08 -3.09069e-20
1.40413e-05 -1.08372e-05 1.57008e-19
1.50098e-05 -2.6024e-06 9.94976e-20
1.25479e-05 4.51644e-06 1.92516e-19
8.30426e-06 2.22182e-06 -9.70128e-20
7.0183e-06 4.63983e-07 1.71445e-19
1.14196e-05 -9.57601e-06 1.03758e-19
1.14232e-05 9.5988e-06 7.96554e-20
9.21586e-06 4.59791e-06 2.36989e-20
9.15402e-06 -4.59395e-06 -1.23093e-20
8.70474e-06 -2.24821e-06 2.02351e-20
3.76769e-06 -6.5326e-07 2.01139e-19
3.42907e-06 4.30777e-07 -1.62148e-19
-1.65934e-06 -1.62278e-05 1.02822e-19
-1.777e-06 1.58747e-05 -2.60372e-21
5.49202e-06 7.16518e-06 1.71591e-19
6.50953e-06 2.2141e-06 -2.31805e-21
8.59052e-06 9.27871e-08 -4.30059e-20
8.54469e-06 -7.79254e-08 3.27939e-20
7.00396e-06 -7.33096e-09 -6.52139e-20
8.22683e-06 -9.56364e-07 -4.66991e-20
8.24388e-06 9.499e-07 -1.48722e-19
8.40608e-06 4.95534e-07 -5.27072e-20
6.80924e-06 -8.26822e-07 2.48465e-19
8.40681e-06 -5.16753e-07 5.22081e-20
1.07812e-05 -1.48843e-06 1.43894e-19
1.07995e-05 1.47942e-06 1.5209e-19
6.97319e-06 -9.96106e-07 8.84542e-21
6.9726e-06 1.01845e-06 -1.00358e-19
9.08065e-06 8.80784e-08 9.78834e-21
6.35428e-06 2.30891e-06 5.17164e-20
-1.777e-06 1.58747e-05 1.32798e-20
-1.65934e-06 -1.62278e-05 9.32399e-20
2.44694e-05 3.18558e-05 2.98812e-21
8.15752e-06 -3.01319e-05 -1.36642e-20
-4.64936e-05 7.56308e-05 -5.78731e-22
-5.4489e-05 -3.55828e-05 -9.23246e-20
4.71681e-05 -4.9992e-05 1.91335e-19
4.98165e-05 6.33404e-05 -1.02648e-19
5.63514e-05 4.05849e-05 1.15638e-20
6.28276e-05 -2.00299e-05 1.60146e-19
1.31724e-05 -7.08795e-05 2.79454e-19
6.86226e-05 2.32187e-05 -1.26323e-19
-8.77356e-05 -1.16002e-05 -3.88269e-20
-7.61175e-06 7.43677e-05 -2.83234e-20
8.94648e-05 5.40333e-05 -1.10416e-19
0.000114394 -4.30231e-05 1.14973e-19
-5.72013e-05 -3.38362e-05 -2.65291e-19
-5.58617e-05 3.07129e-05 7.13961e-20
1.01018e-05 6.78924e-05 2.36904e-20
-8.43906e-07 -6.5958e-05 1.85168e-19
-7.10007e-06 -6.52615e-05 7.75169e-21
1.84247e-05 7.27916e-05 -7.6782e-20
5.63053e-05 1.59928e-05 -5.71575e-20
3.56644e-05 -3.0146e-05 6.49092e-20
-8.51492e-06 3.72124e-05 -1.50117e-20
1.20073e-05 -3.59885e-05 1.672e-19
-9.77888e-05 7.08218e-05 -6.72591e-20
-8.70864e-05 -4.75122e-05 2.2688e-20
0.00016148 -7.46244e-05 7.37086e-20
9.2703e-05 0.000134617 -8.75393e-20
8.94648e-05 5.40333e-05 7.29104e-20
0.000114394 -4.30231e-05 1.29187e-20
5.25493e-05 4.60681e-05 -1.01717e-19
5.29941e-05 -2.76534e-05 1.62259e-19
-4.35226e-05 2.23486e-05 9.83614e-21
-4.52858e-05 -2.08221e-05 -8.54012e-20
6.24185e-05 3.73334e-05 -1.13388e-19
6.23681e-05 -2.62281e-05 2.66509e-20
2.7608e-05 9.4189e-05 -3.64945e-20
-1.82106e-05 -0.000107015 4.95449e-20
-4.0784e-05 1.17938e-05 3.06616e-20
-4.41764e-05 -1.0684e-05 -2.26994e-19
-1.92973e-06 -0.000149029 2.36122e-19
1.75293e-05 0.000158481 -3.31363e-20
0.000155938 6.14477e-06 -1.34118e-19
-0.000150264 -1.84059e-05 -1.31839e-19
5.87233e-05 7.02281e-05 1.39891e-20
7.21031e-05 -6.74313e-05 2.19951e-19
-5.50562e-05 3.49082e-05 2.63536e-20
-7.44693e-05 -9.75815e-06 -3.01271e-19
-7.21919e-05 1.13291e-05 -1.30101e-20
-5.86086e-05 -3.49941e-05 -2.12307e-19
5.06373e-05 -7.45037e-05 2.53295e-19
5.49644e-05 8.51396e-05 -4.63508e-20
7.6668e-05 -3.69512e-05 6.52458e-20
-4.64936e-05 7.56308e-05 -1.84118e-20
-1.41479e-05 -6.71817e-05 1.97858e-19
7.6611e-05 4.84249e-05 -1.96336e-19
-1.87925e-05 5.18537e-05 1.59748e-20
5.17203e-05 -4.20805e-05 8.46324e-20
1.35565e-05 -0.000139422 2.29811e-20
5.92211e-06 0.000116312 -1.11083e-20
8.24478e-05 9.46896e-05 -3.43198e-21
9.975e-05 -9.955e-05 2.3948e-19
6.36629e-06 -1.62184e-05 1.45428e-19
-8.71009e-06 7.9881e-05 3.07763e-20
-6.15627e-06 -7.61328e-05 -1.67684e-19
1.98624e-05 4.62802e-05 -1.39615e-20
-1.45972e-05 -4.67143e-05 6.73026e-20
2.33469e-06 6.51889e-05 -3.18245e-21
4.1153e-06 -6.10381e-05 2.20022e-19
-8.70864e-05 -4.75122e-05 -1.30464e-19
-7.10007e-06 -6.52615e-05 1.916e-19
1.84247e-05 7.27916e-05 2.33597e-22
-4.00261e-05 -2.72475e-05 -8.47268e-21
-9.77888e-05 7.08218e-05 -1.8277e-20
2.47925e-05 3.94782e-05 -4.28116e-20
-6.15627e-06 -7.61328e-05 -1.15516e-19
-4.35226e-05 2.23486e-05 5.41099e-20
8.60925e-05 5.50838e-05 3.13267e-22
0.000113324 -4.33564e-05 6.4049e-20
7.6611e-05 4.84249e-05 -5.43594e-20
4.31919e-05 6.05305e-05 -2.97378e-20
4.87141e-05 -5.28697e-05 7.32034e-20
0.000107389 4.24048e-05 6.09346e-20
8.94648e-05 5.40333e-05 1.73659e-20
0.000148239 -4.75664e-05 -2.42532e-20
0.000114394 -4.30231e-05 1.86306e-19
-8.51492e-06 3.72124e-05 2.60765e-20
5.25493e-05 4.60681e-05 -3.51629e-20
5.29941e-05 -2.76534e-05 5.64959e-20
7.07261e-05 0.000117738 1.78712e-21
-7.25259e-05 -0.000135706 6.58245e-20
-5.19988e-06 -1.2457e-05 1.89511e-19
7.6668e-05 -3.69512e-05 1.62636e-20
5.63053e-05 1.59928e-05 -5.71575e-20
-4.60496e-05 1.43287e-05 -7.93421e-20
-4.00261e-05 -2.72475e-05 -1.20989e-19
-0.000153892 -2.72206e-06 -2.25083e-19
-0.000149616 3.53868e-06 -3.90589e-20
-7.80063e-06 4.1705e-05 3.12796e-20
-5.86086e-05 -3.49941e-05 -1.87459e-19
4.09835e-05 5.05395e-05 -1.2001e-19
-1.92973e-06 -0.000149029 8.87838e-20
1.75293e-05 0.000158481 2.72471e-20
-0.000150264 -1.84059e-05 -3.39704e-20
0.000155938 6.14477e-06 3.15058e-21
3.53974e-05 -3.43715e-05 2.51952e-19
-5.19268e-05 3.40692e-05 1.65015e-20
9.05829e-06 4.89035e-05 1.04737e-19
1.03725e-05 -4.18942e-05 2.58523e-19
-0.000218692 0.00018009 -9.83146e-20
-7.10007e-06 -6.52615e-05 1.13871e-19
-1.13786e-05 -0.000139129 8.61503e-20
0.000146567 1.48461e-05 -4.57779e-20
-8.51492e-06 3.72124e-05 2.30565e-20
2.33469e-06 6.51889e-05 3.62173e-20
-4.60496e-05 1.43287e-05 -6.31018e-20
1.84247e-05 7.27916e-05 -5.61516e-21
-8.70864e-05 -4.75122e-05 -1.4076e-19
5.87233e-05 7.02281e-05 -2.49583e-20
7.21031e-05 -6.74313e-05 1.45242e-19
4.66848e-05 1.65591e-05 -8.18588e-20
4.75699e-05 2.11566e-05 1.30805e-19
4.1153e-06 -6.10381e-05 3.26499e-19
-5.86086e-05 -3.49941e-05 -2.16563e-19
-5.19988e-06 -1.2457e-05 4.47059e-20
-4.0784e-05 1.17938e-05 2.55964e-20
-4.41764e-05 -1.0684e-05 -3.24505e-19
-4.35226e-05 2.23486e-05 7.82441e-20
0.00021993 -0.000169048 -8.56188e-21
-1.92973e-06 -0.000149029 1.73254e-19
6.81004e-06 0.000145699 -9.75734e-20
0.000155938 6.14477e-06 1.46219e-21
5.06373e-05 -7.45037e-05 1.2171e-19
5.49644e-05 8.51396e-05 -1.22035e-19
5.25493e-05 4.60681e-05 -1.58236e-19
-9.77888e-05 7.08218e-05 -1.09583e-19
5.29941e-05 -2.76534e-05 1.33773e-19
5.63514e-05 4.05849e-05 3.05185e-21
6.28276e-05 -2.00299e-05 8.99545e-20
7.6668e-05 -3.69512e-05 1.03671e-19
7.6611e-05 4.84249e-05 -1.70514e-19
-0.000179777 0.000224696 2.85325e-21
-0.000218692 0.00018009 -8.97071e-20
-4.41764e-05 -1.0684e-05 -1.67715e-19
-4.0784e-05 1.17938e-05 8.44196e-22
-1.82106e-05 -0.000107015 1.7093e-19
2.7608e-05 9.4189e-05 -5.38052e-20
-4.81275e-05 7.24409e-05 1.55426e-20
-5.39993e-05 -3.61968e-05 -2.4919e-20
5.15643e-05 -4.91437e-05 -1.22455e-20
5.11921e-05 4.96156e-05 -2.70034e-20
6.4128e-05 1.28649e-05 -6.66729e-20
6.40421e-05 -1.29418e-05 6.75521e-20
1.59524e-05 -7.04912e-05 -3.18859e-20
8.18385e-05 -1.49267e-05 2.32306e-20
-8.72541e-05 -1.27849e-05 -2.33161e-20
-1.09325e-05 6.97757e-05 -4.62754e-20
0.000103743 -2.97949e-05 4.77057e-20
0.000103705 2.9832e-05 -4.81815e-20
-5.70235e-05 -3.43501e-05 -2.22282e-20
-5.75773e-05 2.93327e-05 4.0331e-20
3.24694e-06 6.4994e-05 -5.37138e-20
1.20644e-06 -6.49721e-05 -6.24679e-20
-5.68908e-06 -6.5087e-05 -6.87053e-20
9.61066e-06 6.2819e-05 -1.98305e-20
6.92533e-05 -8.08122e-06 4.24431e-20
5.40373e-05 2.36786e-05 -2.43127e-20
-1.12398e-05 3.57334e-05 2.51845e-20
1.49237e-05 -3.48618e-05 -1.6648e-20
-9.78302e-05 6.77807e-05 5.45697e-21
-8.61775e-05 -4.84552e-05 -3.20208e-20
0.000165148 -7.74088e-05 9.37528e-21
9.33171e-05 0.000127512 8.76418e-21
0.000103743 -2.97949e-05 4.1857e-20
0.000103705 2.9832e-05 -2.57612e-21
5.74789e-05 -2.52456e-05 -1.95386e-21
5.73376e-05 2.49322e-05 -3.76317e-20
-4.46932e-05 2.15249e-05 4.60099e-20
-4.53506e-05 -2.14928e-05 5.79581e-20
6.92351e-05 2.44586e-05 -3.16481e-20
6.90142e-05 -2.51116e-05 -2.29045e-21
2.00083e-05 0.000105996 7.33818e-20
-1.64719e-05 -0.00010532 -2.11461e-20
-4.30814e-05 1.01666e-05 2.53193e-20
-4.39769e-05 -1.08492e-05 -6.41085e-20
3.41465e-07 -0.00015077 -2.19606e-20
1.77141e-05 0.000152909 -1.35394e-20
0.00016095 1.32732e-06 1.91748e-20
-0.000149457 -2.01545e-05 1.02779e-20
7.5386e-05 -4.58141e-05 5.6068e-20
7.52206e-05 4.58907e-05 -4.47813e-20
-5.62051e-05 3.32694e-05 -1.50463e-36
-7.44424e-05 -9.91814e-06 -4.77928e-20
-7.47928e-05 9.69703e-06 2.02149e-20
-5.84883e-05 -3.55553e-05 -3.89178e-21
5.43122e-05 -7.46217e-05 -4.49003e-20
5.46434e-05 7.58164e-05 -3.76678e-20
8.37041e-05 -3.70221e-05 -5.87323e-21
-4.81275e-05 7.24409e-05 9.59828e-21
-1.22657e-05 -6.72336e-05 1.67246e-21
8.52814e-05 3.6429e-05 5.74462e-22
-4.92469e-05 4.03998e-05 -6.39779e-20
5.37404e-05 -4.03225e-05 -1.16003e-19
1.5509e-05 -0.000137945 -1.12983e-19
-1.12571e-05 0.000137891 -2.8232e-20
8.33296e-05 -7.04426e-05 3.66177e-20
8.33604e-05 7.0577e-05 7.10183e-21
3.64497e-05 1.26263e-05 4.89821e-20
-9.53094e-06 8.01156e-05 2.85888e-20
-6.36633e-06 -7.64766e-05 -7.34572e-20
1.67349e-05 4.46729e-05 5.52949e-20
-1.18398e-05 -4.56522e-05 -4.79595e-20
-2.30776e-06 6.18169e-05 -7.03809e-21
6.72311e-06 -6.04629e-05 -3.33322e-20
-8.61775e-05 -4.84552e-05 2.09561e-20
-5.68908e-06 -6.5087e-05 -1.06156e-19
9.61066e-06 6.2819e-05 -3.03876e-20
-3.96144e-05 -2.69517e-05 -8.67211e-20
-9.78302e-05 6.77807e-05 -1.27329e-20
1.1462e-05 1.60433e-05 -6.43623e-20
-6.36633e-06 -7.64766e-05 1.12867e-20
-4.46932e-05 2.15249e-05 4.20817e-21
0.000104354 -2.96044e-05 4.69571e-20
0.00010436 2.96281e-05 -6.12552e-20
8.52814e-05 3.6429e-05 4.92604e-21
6.05566e-05 3.6748e-05 -7.35602e-20
6.08872e-05 -3.67626e-05 5.48394e-20
0.000131879 -3.71692e-05 4.23008e-20
0.000103743 -2.97949e-05 5.69313e-20
0.000131874 3.72036e-05 -2.15559e-21
0.000103705 2.9832e-05 1.26894e-20
-1.12398e-05 3.57334e-05 7.78046e-20
5.74789e-05 -2.52456e-05 3.01571e-21
5.73376e-05 2.49322e-05 -6.94943e-20
-7.03848e-05 -0.000133692 1.30462e-20
7.46379e-05 0.00013511 -3.68831e-20
-2.19099e-06 -1.14571e-05 -9.86374e-21
8.37041e-05 -3.70221e-05 4.24909e-20
6.92533e-05 -8.08122e-06 3.74735e-20
-4.63649e-05 1.35371e-05 7.48196e-21
-3.96144e-05 -2.69517e-05 4.94197e-21
-0.000153903 -2.90418e-06 -4.51339e-20
-0.00015406 2.48203e-06 -4.22411e-21
-1.06523e-05 3.94286e-05 9.37635e-21
-5.84883e-05 -3.55553e-05 -2.17249e-20
3.90407e-05 3.20046e-05 -4.87921e-20
3.41465e-07 -0.00015077 -1.28593e-21
1.77141e-05 0.000152909 -2.22776e-20
0.00016095 1.32732e-06 1.46926e-20
-0.000149457 -2.01545e-05 -3.12085e-21
3.89006e-05 -3.23394e-05 -6.41244e-20
-5.41371e-05 3.22672e-05 7.96935e-21
3.62084e-05 -3.0264e-05 4.50787e-20
3.57192e-05 2.963e-05 -4.20078e-21
-0.000217132 0.000176871 8.36968e-21
-5.68908e-06 -6.5087e-05 -5.45102e-20
-9.43131e-06 -0.000140531 -1.19503e-20
0.000150705 1.09475e-05 1.56993e-20
-1.12398e-05 3.57334e-05 6.84834e-20
-2.30776e-06 6.18169e-05 7.15702e-21
-4.63649e-05 1.35371e-05 -1.73659e-20
9.61066e-06 6.2819e-05 -5.29291e-20
-8.61775e-05 -4.84552e-05 -4.15297e-21
7.5386e-05 -4.58141e-05 3.05066e-20
7.52206e-05 4.58907e-05 -3.07518e-21
4.91775e-05 -2.06739e-05 -4.02397e-20
4.95521e-05 2.07984e-05 4.7607e-20
6.72311e-06 -6.04629e-05 -4.29146e-20
-5.84883e-05 -3.55553e-05 2.53077e-20
-2.19099e-06 -1.14571e-05 -3.83496e-20
-4.39769e-05 -1.08492e-05 -6.31337e-20
-4.30814e-05 1.01666e-05 2.03497e-20
-4.46932e-05 2.15249e-05 3.11012e-20
0.000223714 -0.000172216 -9.97179e-21
3.41465e-07 -0.00015077 -1.25567e-20
5.8754e-06 0.000138791 -2.83111e-20
0.00016095 1.32732e-06 1.8818e-20
5.43122e-05 -7.46217e-05 3.75372e-20
5.46434e-05 7.58164e-05 -1.68148e-20
5.73376e-05 2.49322e-05 -4.9616e-20
-9.78302e-05 6.77807e-05 1.27329e-20
5.74789e-05 -2.52456e-05 -1.11794e-20
6.40421e-05 -1.29418e-05 3.74735e-20
6.4128e-05 1.28649e-05 -6.39142e-20
8.37041e-05 -3.70221e-05 1.26735e-20
8.52814e-05 3.6429e-05 -1.62838e-20
-0.000176888 0.000218937 6.15833e-21
-0.000217132 0.000176871 1.13419e-20
-4.39769e-05 -1.08492e-05 -5.55009e-20
-4.30814e-05 1.01666e-05 1.73298e-20
-1.64719e-05 -0.00010532 -9.39057e-20
2.00083e-05 0.000105996 3.56705e-20
-4.78969e-05 7.73415e-05 8.45018e-20
-5.2401e-05 -4.97054e-05 -4.25026e-20
4.63601e-05 -5.16927e-05 -1.30951e-19
4.6875e-05 5.21088e-05 -1.13384e-19
6.37917e-05 -2.1173e-05 2.11823e-20
6.39464e-05 2.23471e-05 -1.59437e-19
-1.30576e-05 -7.03563e-05 -2.20292e-19
7.00905e-05 -1.70537e-05 -9.74407e-20
-9.8444e-05 -2.22361e-05 1.46645e-19
-1.18772e-05 7.10108e-05 -1.30101e-20
0.000117215 -4.45034e-05 -7.90607e-20
0.000115914 4.52684e-05 -6.87648e-20
-5.82067e-05 -2.92301e-05 1.56948e-19
-5.76368e-05 3.37234e-05 1.06005e-19
1.55366e-06 6.63596e-05 -1.12665e-20
6.17248e-07 -6.65017e-05 1.009e-19
6.41268e-06 -6.39106e-05 -1.92797e-19
7.15839e-06 6.45806e-05 -1.12837e-19
5.73799e-05 -1.01412e-05 -7.67108e-20
3.67597e-05 3.34681e-05 -4.064e-20
-1.23644e-05 -3.66007e-05 -2.66087e-19
-1.16843e-05 3.72449e-05 4.88313e-20
-7.86914e-05 0.000128662 -9.98225e-20
-8.83309e-05 -4.77726e-05 -3.99051e-21
0.000156823 -7.45114e-05 -5.02075e-20
0.000154029 8.36516e-05 -1.36838e-19
0.000117215 -4.45034e-05 -2.28027e-20
0.000115914 4.52684e-05 -1.32203e-20
5.28985e-05 -2.85826e-05 6.26898e-20
5.32486e-05 2.92421e-05 -1.30967e-19
-4.55522e-05 -2.1372e-05 2.16206e-19
-4.6444e-05 2.16172e-05 1.84871e-19
6.21487e-05 2.9068e-05 -7.62584e-20
6.13581e-05 -2.94807e-05 5.9879e-21
1.9215e-05 0.00010838 -5.46727e-20
1.84566e-05 -0.000108367 4.24155e-20
-4.39278e-05 -1.01815e-05 -7.0707e-20
-4.6865e-05 1.13997e-05 1.03877e-19
-1.98551e-06 -0.000147723 -2.53002e-19
-1.47855e-05 0.000150698 -2.92286e-20
0.00014889 -1.08576e-05 -1.93495e-19
-0.000131309 1.20097e-06 -1.22273e-19
7.41461e-05 -7.01099e-05 -5.17992e-20
7.34411e-05 7.03179e-05 -9.01647e-20
-6.89995e-05 -4.15255e-05 2.21164e-19
-7.5363e-05 -9.72757e-06 1.55383e-19
-7.49458e-05 1.24073e-05 1.074e-19
-5.79632e-05 3.39769e-05 9.83187e-21
4.95121e-05 -7.62174e-05 -7.69285e-20
-4.68175e-05 7.65364e-05 -4.50903e-20
7.40176e-05 -3.97635e-05 -9.85068e-20
-1.39412e-05 -6.80329e-05 -1.21088e-19
4.5933e-05 7.15549e-05 -5.57069e-20
7.58205e-05 3.98118e-05 -1.13645e-19
-5.18894e-05 4.20881e-05 -9.77773e-20
-5.22748e-05 -4.24523e-05 5.53863e-20
-1.35858e-05 -0.000141054 1.39547e-19
-1.29897e-05 0.000141233 -3.27535e-20
0.00010228 -0.000102296 -1.27654e-19
0.000101392 0.00010214 -4.44883e-20
6.82825e-06 -2.01006e-05 -3.81988e-20
-1.0717e-05 -7.9845e-05 1.97469e-19
-8.17897e-06 7.61131e-05 2.16059e-20
1.57039e-05 -4.55701e-05 -1.25364e-19
1.59094e-05 4.56306e-05 5.43201e-20
-8.83309e-05 -4.77726e-05 -1.69496e-20
-3.56862e-06 6.26749e-05 1.24675e-20
-4.05959e-06 -6.20531e-05 -1.25982e-19
6.41268e-06 -6.39106e-05 -1.74964e-19
7.15839e-06 6.45806e-05 -4.69964e-20
1.03474e-05 1.78482e-05 -1.76795e-19
8.49173e-06 -1.81073e-05 -6.96525e-20
-8.17897e-06 7.61131e-05 1.55498e-19
-4.55522e-05 -2.1372e-05 1.67581e-19
0.000115812 -4.49402e-05 3.61038e-21
0.000114512 4.5705e-05 -9.38027e-20
7.58205e-05 3.98118e-05 -5.32264e-20
4.97604e-05 5.55537e-05 -1.07423e-19
5.02074e-05 -5.51648e-05 -7.23243e-21
0.000151687 -4.88229e-05 -4.3386e-20
0.000117215 -4.45034e-05 -1.41951e-20
0.000149445 4.85877e-05 -1.65334e-20
0.000115914 4.52684e-05 -3.69978e-20
-9.56394e-05 7.15777e-05 -3.72835e-20
-1.23644e-05 -3.66007e-05 -1.27226e-19
-1.16843e-05 3.72449e-05 1.10416e-19
5.28985e-05 -2.85826e-05 5.17759e-20
5.32486e-05 2.92421e-05 -1.45519e-19
7.32313e-05 -0.000137287 2.11023e-19
7.47566e-05 0.000137833 1.5927e-20
7.40176e-05 -3.97635e-05 1.23209e-20
5.73799e-05 -1.01412e-05 -4.75114e-20
-4.70047e-05 -1.39222e-05 2.66449e-19
-0.000155009 -2.141e-06 1.13102e-19
-0.000154609 2.88366e-06 6.11044e-20
-1.18017e-05 -4.01401e-05 -1.16855e-19
-1.05473e-05 4.30577e-05 5.90519e-20
-5.79632e-05 3.39769e-05 1.04158e-19
3.58356e-05 3.59393e-05 -1.35477e-19
3.51261e-05 -3.54494e-05 -4.84353e-20
-1.98551e-06 -0.000147723 -7.37662e-20
-1.47855e-05 0.000150698 -7.33717e-20
-0.000131309 1.20097e-06 -9.77816e-20
0.00014889 -1.08576e-05 -1.80892e-19
-5.48227e-05 -3.21645e-05 4.91403e-20
1.26175e-05 -4.64072e-05 -2.81959e-20
1.22532e-05 4.57595e-05 -4.98061e-20
0.000215547 0.000174595 -1.63709e-20
7.15839e-06 6.45806e-05 -2.84497e-20
-1.06917e-05 -0.000138648 -1.44964e-19
-0.000131309 1.20097e-06 -6.1045e-20
-1.16843e-05 3.72449e-05 2.16771e-20
-1.23644e-05 -3.66007e-05 -1.45773e-19
-4.05959e-06 -6.20531e-05 -2.02736e-19
-4.70047e-05 -1.39222e-05 1.22522e-19
6.41268e-06 -6.39106e-05 -1.44172e-19
7.41461e-05 -7.01099e-05 -8.43754e-20
7.34411e-05 7.03179e-05 -1.14656e-19
4.84993e-05 -1.87353e-05 -8.55912e-20
4.75084e-05 2.12219e-05 -8.93089e-20
-8.83309e-05 -4.77726e-05 -1.25981e-20
-3.56862e-06 6.26749e-05 -3.25199e-20
-5.79632e-05 3.39769e-05 1.61034e-19
-4.39278e-05 -1.01815e-05 5.96423e-20
-4.6865e-05 1.13997e-05 1.27654e-19
-4.55522e-05 -2.1372e-05 1.95805e-19
0.000204682 -0.000167425 -1.33288e-19
-3.58282e-06 0.00013625 1.1215e-20
-1.98551e-06 -0.000147723 -2.25896e-19
0.000141383 -4.40688e-06 -8.26371e-20
4.95121e-05 -7.62174e-05 -1.97695e-19
-4.68175e-05 7.65364e-05 -4.77535e-20
5.32486e-05 2.92421e-05 -1.31324e-19
5.28985e-05 -2.85826e-05 -3.95304e-20
6.5621e-05 4.98493e-05 -1.22804e-19
6.37917e-05 -2.1173e-05 4.95725e-20
6.39464e-05 2.23471e-05 -1.21369e-19
7.40176e-05 -3.97635e-05 -4.10128e-20
7.58205e-05 3.98118e-05 -1.15072e-19
0.00017442 0.000214595 5.4326e-20
0.000215547 0.000174595 -1.65528e-19
-4.39278e-05 -1.01815e-05 2.75184e-20
-4.6865e-05 1.13997e-05 9.49124e-20
1.9215e-05 0.00010838 8.71794e-22
1.84566e-05 -0.000108367 -5.61667e-20
-4.90986e-05 7.16125e-05 -6.87372e-20
-5.49354e-05 -3.59823e-05 -2.77287e-20
4.6831e-05 -5.10312e-05 2.6326e-20
4.64006e-05 5.18199e-05 -1.12555e-19
6.39836e-05 -2.19443e-05 4.5891e-20
6.38907e-05 2.20283e-05 -1.35493e-19
1.25654e-05 -7.13916e-05 1.45032e-19
6.78192e-05 -1.68996e-05 -5.1348e-20
-8.78909e-05 -1.24929e-05 -8.10857e-20
-1.29816e-05 7.01487e-05 -1.05339e-19
0.000116698 -4.51345e-05 -7.41623e-20
0.00011658 4.52673e-05 -1.89544e-20
-5.81924e-05 2.92743e-05 -4.04141e-19
-5.78474e-05 -3.42158e-05 -2.71041e-19
5.90593e-07 6.62623e-05 1.39732e-20
-1.22816e-06 -6.65355e-05 1.58593e-19
-7.38152e-06 -6.55998e-05 3.56981e-20
6.42935e-06 6.36977e-05 -2.04092e-20
5.72657e-05 -1.0708e-05 2.91038e-20
3.62197e-05 3.34606e-05 -5.2172e-20
-1.22506e-05 3.64639e-05 -7.6148e-20
1.16887e-05 -3.66834e-05 7.52444e-20
-9.77169e-05 6.70533e-05 -1.13146e-19
-8.7465e-05 -4.79225e-05 2.70629e-20
8.9986e-05 -0.000129019 8.42305e-20
0.000155911 7.67648e-05 -6.416e-20
0.000116698 -4.51345e-05 -9.73218e-20
0.00011658 4.52673e-05 -5.17918e-20
5.3022e-05 -2.88593e-05 8.99311e-20
5.29245e-05 2.89136e-05 -6.28321e-20
-4.54156e-05 2.1612e-05 -2.85078e-19
-4.61908e-05 -2.14563e-05 -2.64891e-19
6.14545e-05 2.93966e-05 -9.81776e-20
6.18359e-05 -2.9191e-05 7.19037e-20
1.82514e-05 0.000108262 1.17612e-19
-1.86496e-05 -0.000108138 9.70404e-20
-4.3686e-05 1.02181e-05 -2.12453e-19
-4.46349e-05 -1.06856e-05 -2.00196e-19
-2.03536e-06 -0.000141362 1.91127e-19
6.02641e-06 0.000148105 -1.19772e-19
0.000150635 -9.05987e-07 -1.48986e-20
-0.000148974 -1.89413e-05 6.31098e-21
7.38486e-05 -7.04732e-05 -4.64037e-21
7.35577e-05 7.07362e-05 1.55193e-20
-5.68063e-05 3.31911e-05 -1.30713e-19
-7.52285e-05 9.75136e-06 -2.81138e-19
-7.51562e-05 -9.75315e-06 -2.40903e-19
-5.92458e-05 -3.53664e-05 -1.40209e-19
4.94487e-05 -7.56237e-05 9.21781e-20
4.87962e-05 7.60308e-05 -6.6177e-20
7.51316e-05 3.96725e-05 -9.53286e-20
-4.90986e-05 7.16125e-05 -2.09287e-19
-1.46278e-05 -6.74704e-05 7.32788e-20
7.51848e-05 -3.96105e-05 8.85082e-20
-5.27638e-05 4.17927e-05 3.85078e-20
5.20697e-05 -4.24041e-05 1.58003e-19
1.34569e-05 -0.000140892 2.12707e-19
-1.38844e-05 0.000141044 7.11944e-20
0.000102015 -0.000102549 -4.07908e-20
0.00010205 0.000102828 1.36961e-20
7.14134e-06 2.01866e-05 -1.72268e-20
-1.06986e-05 7.97514e-05 -2.56093e-19
-8.19038e-06 -7.60444e-05 -2.51496e-19
1.56363e-05 4.53754e-05 4.46741e-20
-1.49104e-05 -4.74076e-05 1.28411e-19
-4.12588e-06 6.19767e-05 -5.52514e-20
3.69518e-06 -6.17531e-05 9.54868e-20
-8.7465e-05 -4.79225e-05 -1.20763e-19
-7.38152e-06 -6.55998e-05 1.74655e-19
6.42935e-06 6.36977e-05 -4.49003e-20
-4.04325e-05 -2.73721e-05 7.00622e-21
-9.77169e-05 6.70533e-05 -4.93506e-20
9.73287e-06 1.76073e-05 -1.989e-20
-8.19038e-06 -7.60444e-05 -3.02785e-19
-4.54156e-05 2.1612e-05 -3.49944e-19
0.000115315 -4.55653e-05 4.24272e-20
0.000115169 4.57068e-05 -1.60309e-19
7.51848e-05 -3.96105e-05 5.07968e-20
4.95072e-05 5.57629e-05 -8.57782e-20
5.00113e-05 -5.55879e-05 3.39704e-20
0.000150683 -4.88294e-05 -3.02613e-20
0.000116698 -4.51345e-05 -4.44405e-20
0.00015058 4.88955e-05 2.65914e-20
0.00011658 4.52673e-05 -2.9964e-20
-1.22506e-05 3.64639e-05 -6.25709e-20
5.3022e-05 -2.88593e-05 7.56404e-20
5.29245e-05 2.89136e-05 -1.72424e-19
7.3091e-05 0.000137205 9.24754e-20
-7.36993e-05 -0.000137253 1.18516e-19
-5.38253e-06 -1.33385e-05 1.10574e-19
7.51316e-05 3.96725e-05 -7.77567e-20
5.72657e-05 -1.0708e-05 -2.8129e-20
-4.68781e-05 1.36749e-05 -3.03538e-19
-4.04325e-05 -2.73721e-05 5.07576e-20
-0.000154701 2.1473e-06 -1.47057e-19
-0.000154757 -2.5172e-06 -3.76059e-19
-1.17491e-05 3.9619e-05 -7.83036e-20
-5.92458e-05 -3.53664e-05 -1.94422e-19
3.52747e-05 3.57327e-05 -6.3756e-20
-2.03536e-06 -0.000141362 1.64151e-19
6.02641e-06 0.000148105 -1.11521e-19
-0.000148974 -1.89413e-05 -2.42789e-20
0.000150635 -9.05987e-07 -1.45735e-19
3.52612e-05 -3.56438e-05 3.8048e-20
-5.4706e-05 3.22482e-05 -1.55664e-19
1.24081e-05 -4.67755e-05 6.53903e-21
1.16124e-05 4.54715e-05 -2.8969e-20
-0.000215654 0.000175798 1.40457e-20
-7.38152e-06 -6.55998e-05 1.04202e-19
-4.07496e-06 -0.000138793 9.12149e-20
0.000141608 -9.28827e-06 1.91731e-19
-1.22506e-05 3.64639e-05 -9.86458e-22
-4.12588e-06 6.19767e-05 -1.83912e-19
-4.68781e-05 1.36749e-05 -2.58812e-19
6.42935e-06 6.36977e-05 -8.18981e-20
-8.7465e-05 -4.79225e-05 1.06742e-19
7.38486e-05 -7.04732e-05 -4.11158e-20
7.35577e-05 7.07362e-05 -1.27789e-19
4.91475e-05 1.98318e-05 1.04879e-19
4.8227e-05 -1.96363e-05 -1.19506e-19
3.69518e-06 -6.17531e-05 7.2423e-20
-5.92458e-05 -3.53664e-05 -1.93186e-19
-5.38253e-06 -1.33385e-05 1.38346e-19
-4.3686e-05 1.02181e-05 -4.1813e-19
-4.46349e-05 -1.06856e-05 -2.44113e-19
-4.54156e-05 2.1612e-05 -2.69812e-19
0.00021217 0.000168181 -2.94962e-20
-2.03536e-06 -0.000141362 2.15309e-19
1.35426e-06 0.000143529 -8.56985e-20
0.000150635 -9.05987e-07 4.97498e-22
4.94487e-05 -7.56237e-05 4.98539e-20
4.87962e-05 7.60308e-05 -8.83617e-20
5.29245e-05 2.89136e-05 -1.48551e-19
-9.77169e-05 6.70533e-05 -9.03431e-20
5.3022e-05 -2.88593e-05 3.50047e-20
6.39836e-05 -2.19443e-05 7.36632e-20
6.38907e-05 2.20283e-05 -1.07625e-19
7.51316e-05 3.96725e-05 -9.4615e-20
7.51848e-05 -3.96105e-05 7.43131e-20
-0.000175747 0.000218347 -8.54925e-20
-0.000215654 0.000175798 4.16634e-20
-4.3686e-05 1.02181e-05 -3.0074e-19
-4.46349e-05 -1.06856e-05 -2.789e-19
-1.86496e-05 -0.000108138 8.45336e-20
1.82514e-05 0.000108262 3.72197e-20
-4.79704e-05 7.7348e-05 2.12897e-19
-5.23913e-05 -4.99344e-05 -1.5188e-19
4.69826e-05 -5.11909e-05 9.56812e-20
4.64976e-05 5.18156e-05 -9.70128e-20
6.39651e-05 -2.2287e-05 -6.5433e-21
6.37652e-05 2.11926e-05 -1.37161e-19
1.29867e-05 -7.12545e-05 -3.75808e-20
7.00943e-05 -1.74216e-05 4.06241e-20
-9.8472e-05 -2.22842e-05 2.30758e-19
-1.20574e-05 7.10951e-05 -7.335e-20
0.000115998 -4.51488e-05 7.24432e-20
0.000117198 4.46028e-05 -3.96291e-20
-5.82517e-05 -2.92086e-05 -1.88497e-19
-5.7615e-05 3.3727e-05 2.04761e-19
1.23549e-06 6.65347e-05 -6.98289e-21
-8.28605e-07 -6.63129e-05 -9.97514e-20
-6.82935e-06 -6.50454e-05 -7.99166e-20
6.70276e-06 6.45334e-05 8.75408e-21
5.74454e-05 -1.0543e-05 -4.02992e-20
3.67012e-05 3.30357e-05 3.71921e-20
-1.17667e-05 3.74213e-05 -7.52879e-20
1.21421e-05 -3.6695e-05 1.00353e-19
-7.87642e-05 0.000128615 5.49955e-20
-8.84295e-05 -4.78815e-05 -7.65324e-20
0.000156837 -7.4631e-05 1.68108e-20
0.000153929 8.34624e-05 2.90475e-21
0.000115998 -4.51488e-05 -4.40677e-21
0.000117198 4.46028e-05 -5.02818e-20
5.31736e-05 -2.91795e-05 6.53647e-20
5.2972e-05 2.86225e-05 -1.62782e-19
-4.555e-05 -2.13796e-05 3.45767e-20
-4.64316e-05 2.16075e-05 2.58832e-19
6.19901e-05 2.86436e-05 -3.95739e-20
6.15983e-05 -2.98245e-05 -6.51883e-21
1.85424e-05 0.000108425 1.60646e-19
-1.80689e-05 -0.000108206 2.51238e-21
-4.40406e-05 -1.03598e-05 -1.49823e-19
-4.68355e-05 1.15168e-05 8.8453e-20
-1.79342e-06 -0.000148013 -9.45736e-20
-1.48872e-05 0.000150585 -2.76618e-21
0.00014885 -1.10255e-05 4.70341e-20
-0.000131355 1.17326e-06 1.20965e-19
7.36949e-05 -7.0143e-05 -2.76257e-20
7.39479e-05 7.02667e-05 -5.69398e-20
-6.89872e-05 -4.15984e-05 -3.59635e-20
-7.61275e-05 -8.08375e-06 -2.57865e-20
-7.48006e-05 1.25202e-05 1.27567e-19
-5.79591e-05 3.39942e-05 2.58502e-19
4.96268e-05 -7.50666e-05 3.76954e-20
-4.69225e-05 7.65665e-05 1.00559e-19
7.40353e-05 -3.99083e-05 3.40139e-20
-1.4291e-05 -6.79426e-05 -1.34086e-19
4.56414e-05 7.13131e-05 -1.00944e-19
7.57372e-05 3.94469e-05 1.12901e-19
-5.21857e-05 4.23806e-05 3.1744e-19
5.33915e-05 -4.14145e-05 -2.86759e-20
-1.34816e-05 0.000141092 4.04937e-19
1.4335e-05 -0.000141262 2.70672e-21
0.000101344 -0.00010188 -1.75952e-20
0.000102365 0.000102553 -4.96957e-20
7.00803e-06 -2.05537e-05 6.15207e-20
-1.07149e-05 -7.98383e-05 -6.70647e-20
-8.17598e-06 7.60788e-05 1.82089e-19
1.58541e-05 4.58154e-05 -1.28359e-20
-1.43739e-05 -4.7386e-05 4.57997e-20
-8.84295e-05 -4.78815e-05 2.13362e-20
-3.76623e-06 6.27769e-05 -1.66891e-19
4.12576e-06 -6.16265e-05 3.54093e-20
-6.82935e-06 -6.50454e-05 -2.54425e-21
6.70276e-06 6.45334e-05 -2.53193e-20
-4.11164e-05 -2.79173e-05 -6.07476e-20
8.4411e-06 1.80991e-05 7.8379e-20
-8.17598e-06 7.60788e-05 3.09775e-19
-4.555e-05 -2.13796e-05 -2.20439e-19
0.000114607 -4.55819e-05 4.47771e-20
0.000115804 4.50367e-05 -1.78201e-19
7.57372e-05 3.94469e-05 6.55112e-20
4.98188e-05 5.52224e-05 -6.43856e-20
5.0198e-05 -5.54742e-05 -1.89863e-20
0.000149507 -4.85223e-05 5.29132e-20
0.000115998 -4.51488e-05 1.86571e-20
0.000151718 4.88975e-05 -5.99956e-21
0.000117198 4.46028e-05 4.13812e-20
-9.56981e-05 7.15821e-05 1.33836e-19
-1.17667e-05 3.74213e-05 7.08493e-20
5.31736e-05 -2.91795e-05 4.62e-20
5.2972e-05 2.86225e-05 -1.01816e-19
7.33259e-05 0.000137355 1.60991e-19
-7.33102e-05 -0.000137376 -3.46797e-20
-4.83695e-06 -1.34764e-05 1.12318e-19
7.40353e-05 -3.99083e-05 -3.37761e-20
5.74454e-05 -1.0543e-05 2.64298e-21
-4.70035e-05 -1.39398e-05 1.48079e-19
-4.11164e-05 -2.79173e-05 -1.57641e-19
-0.00015456 -2.42307e-06 -1.14153e-21
-0.000154683 2.72697e-06 3.88848e-20
-1.06381e-05 4.31921e-05 4.47051e-21
-5.79591e-05 3.39942e-05 2.5389e-19
3.53028e-05 3.54179e-05 -1.75959e-19
-1.79342e-06 -0.000148013 8.84785e-20
-1.48872e-05 0.000150585 9.04897e-20
-0.000131355 1.17326e-06 -1.17858e-19
0.00014885 -1.10255e-05 -5.39851e-20
3.54847e-05 -3.59339e-05 1.0589e-19
-5.4769e-05 -3.22137e-05 -1.31823e-19
1.30161e-05 -4.67041e-05 -3.01222e-20
1.18992e-05 4.54321e-05 1.50871e-20
0.000215496 0.000174479 1.12309e-20
6.70276e-06 6.45334e-05 -1.48654e-19
-6.82935e-06 -6.50454e-05 -9.25189e-20
-1.06018e-05 -0.000138771 -4.98974e-20
-0.000131355 1.17326e-06 -2.77415e-21
-1.17667e-05 3.74213e-05 5.56793e-20
-4.70035e-05 -1.39398e-05 1.97941e-19
7.36949e-05 -7.0143e-05 1.23921e-20
7.39479e-05 7.02667e-05 -8.27625e-20
4.93289e-05 1.89284e-05 3.49133e-20
4.74753e-05 -2.12018e-05 -1.20552e-19
-8.84295e-05 -4.78815e-05 -7.35124e-20
-3.76623e-06 6.27769e-05 -9.60815e-20
4.12576e-06 -6.16265e-05 5.18152e-20
-5.79591e-05 3.39942e-05 3.12454e-19
-4.83695e-06 -1.34764e-05 1.30864e-19
-4.40406e-05 -1.03598e-05 -1.49205e-19
-4.68355e-05 1.15168e-05 1.47992e-19
-4.555e-05 -2.13796e-05 -1.56905e-19
0.000204688 -0.000167545 3.4856e-20
-3.73073e-06 0.000136196 5.62081e-20
-1.79342e-06 -0.000148013 6.90048e-20
0.000141434 -4.65395e-06 1.61214e-20
-4.69225e-05 7.65665e-05 1.93554e-19
4.96268e-05 -7.50666e-05 1.00873e-19
5.2972e-05 2.86225e-05 -1.19388e-19
6.54218e-05 4.95063e-05 -7.46221e-20
5.31736e-05 -2.91795e-05 2.66785e-20
6.39651e-05 -2.2287e-05 3.85396e-20
6.37652e-05 2.11926e-05 -2.07353e-19
7.40353e-05 -3.99083e-05 4.65207e-20
7.57372e-05 3.94469e-05 -1.58559e-20
0.000174307 0.000214462 -1.06399e-21
0.000215496 0.000174479 9.42864e-20
-4.40406e-05 -1.03598e-05 1.72629e-20
-4.68355e-05 1.15168e-05 2.02106e-20
-1.80689e-05 -0.000108206 -2.10039e-21
1.85424e-05 0.000108425 3.63136e-19
-4.90949e-05 7.16013e-05 1.99813e-20
-5.28388e-05 -3.82177e-05 7.45191e-20
4.98373e-05 -6.35682e-05 1.90051e-19
4.67728e-05 5.0515e-05 -2.82437e-20
6.28922e-05 1.99336e-05 -4.74562e-20
5.64942e-05 -4.05511e-05 7.61321e-20
-7.94768e-06 -7.42705e-05 4.98061e-20
6.86576e-05 1.32834e-05 5.3888e-20
-8.65929e-05 -1.36992e-05 6.32802e-20
-1.26394e-05 7.00765e-05 -2.53073e-19
0.000114396 4.29568e-05 -1.83959e-20
8.96591e-05 -5.40763e-05 6.7996e-20
-5.54382e-05 -3.56148e-05 6.74417e-20
-5.77332e-05 2.91391e-05 3.21673e-20
1.10831e-06 6.59489e-05 -1.4926e-19
9.79971e-06 -6.7786e-05 3.30667e-20
1.81812e-05 -7.28687e-05 1.54674e-19
6.98952e-06 6.33519e-05 -2.2758e-19
5.74398e-05 6.7019e-06 1.57364e-19
3.34711e-05 -3.95672e-05 6.08273e-20
-7.77009e-06 -3.77177e-05 -1.34858e-20
-1.20761e-05 3.63585e-05 -1.53651e-19
-9.87336e-05 6.69458e-05 -1.07666e-19
-8.59745e-05 -5.12443e-05 9.12585e-20
0.000163949 -8.30221e-05 7.09366e-20
8.96701e-05 0.00012617 -7.20561e-20
0.000114396 4.29568e-05 -1.30198e-19
8.96591e-05 -5.40763e-05 6.41156e-21
5.28312e-05 2.74312e-05 -1.06373e-19
5.26527e-05 -4.61064e-05 1.03445e-19
-4.45958e-05 2.09299e-05 -1.00797e-19
-4.38782e-05 -2.28981e-05 -3.75489e-20
6.23518e-05 2.62251e-05 -5.648e-20
6.2311e-05 -3.73317e-05 3.68396e-20
2.75535e-05 -9.41004e-05 -1.25269e-20
1.84532e-05 0.0001073 -2.17185e-19
-4.33797e-05 1.02029e-05 -5.70109e-20
-4.29789e-05 -1.36991e-05 -2.80696e-20
1.27888e-06 -0.000157194 1.58629e-19
1.54025e-05 0.000151407 -3.28104e-19
0.000156614 -2.7421e-06 4.88335e-20
-0.000150401 -2.22778e-05 5.33135e-20
7.21298e-05 6.72068e-05 1.60071e-19
5.88063e-05 -7.04451e-05 9.7738e-20
-5.62363e-05 3.26827e-05 8.75812e-20
-7.17571e-05 -1.32422e-05 8.85708e-21
-7.47154e-05 9.73873e-06 5.40706e-20
-5.71392e-05 -3.68573e-05 5.62103e-20
5.43194e-05 -8.54708e-05 1.34237e-19
5.12355e-05 7.55372e-05 -1.78808e-19
7.70199e-05 -4.83822e-05 1.13459e-19
-4.90949e-05 7.16013e-05 -1.31482e-19
-8.95559e-06 -7.16563e-05 1.43407e-19
7.63113e-05 3.71356e-05 -9.05969e-20
-5.14442e-05 4.18819e-05 -2.88359e-19
-1.89036e-05 -5.18462e-05 1.26869e-19
-1.31903e-05 0.000139579 -3.12454e-19
5.82853e-06 -0.000116263 5.74983e-20
9.97301e-05 9.94799e-05 5.23504e-20
8.2614e-05 -9.4842e-05 8.21678e-20
6.26621e-06 -2.35221e-05 1.94767e-19
-9.29764e-06 7.97767e-05 3.9455e-20
-5.57026e-06 -7.63239e-05 3.64828e-20
1.98585e-05 -4.60734e-05 -1.07196e-20
1.57297e-05 4.52444e-05 -2.08859e-19
2.08626e-06 -6.38386e-05 5.025e-20
-3.82228e-06 6.19406e-05 -2.00105e-19
-8.59745e-05 -5.12443e-05 8.07013e-20
1.81812e-05 -7.28687e-05 1.30278e-19
6.98952e-06 6.33519e-05 -2.86762e-19
-9.87336e-05 6.69458e-05 8.29366e-20
8.80776e-06 1.76569e-05 -1.65675e-19
2.42648e-05 -3.95915e-05 1.58121e-19
-5.57026e-06 -7.63239e-05 -2.13681e-20
-4.45958e-05 2.09299e-05 -3.30073e-20
0.000113344 4.32841e-05 -2.15517e-19
8.63093e-05 -5.51198e-05 1.00781e-19
7.63113e-05 3.71356e-05 9.67368e-21
4.89454e-05 5.2729e-05 1.42028e-19
4.30242e-05 -6.06206e-05 1.01154e-19
0.000148261 4.75452e-05 1.0704e-21
0.000114396 4.29568e-05 6.6966e-20
0.000107657 -4.24804e-05 1.14672e-19
8.96591e-05 -5.40763e-05 8.46887e-20
-7.77009e-06 -3.77177e-05 -6.74375e-20
-1.20761e-05 3.63585e-05 -2.05296e-19
5.28312e-05 2.74312e-05 -5.41099e-20
5.26527e-05 -4.61064e-05 6.34268e-20
7.26404e-05 0.000135925 -1.17116e-19
7.0725e-05 -0.000117681 -4.38341e-20
7.70199e-05 -4.83822e-05 2.5434e-20
5.74398e-05 6.7019e-06 1.19653e-19
-4.60994e-05 1.2937e-05 -6.25826e-20
-0.000149417 -4.00081e-06 7.89395e-21
-0.00015397 2.27312e-06 5.77521e-20
-1.15687e-05 3.95508e-05 -1.33828e-20
-6.77487e-06 -4.26939e-05 -5.98047e-20
-5.71392e-05 -3.68573e-05 1.06524e-19
3.54749e-05 3.41401e-05 -1.67605e-19
4.09008e-05 -5.06473e-05 1.31764e-19
1.27888e-06 -0.000157194 1.52018e-19
1.54025e-05 0.000151407 -1.18123e-19
-0.000150401 -2.22778e-05 5.89011e-20
0.000156614 -2.7421e-06 -3.90132e-20
-5.43123e-05 3.20572e-05 3.9455e-20
1.0435e-05 4.29753e-05 2.58269e-19
8.98619e-06 -4.79114e-05 9.06564e-20
-0.000218652 0.000176442 -4.00932e-20
-9.54177e-06 -0.000145932 1.34673e-19
0.000145863 7.24032e-06 8.91655e-21
-1.20761e-05 3.63585e-05 -2.15853e-19
-7.77009e-06 -3.77177e-05 -3.72632e-20
-3.82228e-06 6.19406e-05 -1.76945e-19
2.08626e-06 -6.38386e-05 1.00666e-21
-4.60994e-05 1.2937e-05 -3.48103e-20
1.81812e-05 -7.28687e-05 1.25213e-19
6.98952e-06 6.33519e-05 -2.50478e-19
-8.59745e-05 -5.12443e-05 1.31633e-19
7.21298e-05 6.72068e-05 6.81468e-20
5.88063e-05 -7.04451e-05 5.77203e-20
4.7002e-05 -2.11209e-05 -1.56346e-19
4.6881e-05 -1.64857e-05 4.56605e-20
-5.71392e-05 -3.68573e-05 4.66279e-20
-4.29789e-05 -1.36991e-05 7.68138e-20
-4.33797e-05 1.02029e-05 3.23457e-20
-4.45958e-05 2.09299e-05 4.70411e-21
0.000220712 -0.000174694 -4.99885e-20
1.27888e-06 -0.000157194 1.26244e-19
3.55382e-06 0.000137277 -1.21745e-19
0.000156614 -2.7421e-06 1.26515e-19
5.43194e-05 -8.54708e-05 1.63959e-19
5.12355e-05 7.55372e-05 -1.03385e-19
5.28312e-05 2.74312e-05 -1.20664e-19
5.26527e-05 -4.61064e-05 1.17996e-19
-9.87336e-05 6.69458e-05 -4.43927e-20
6.28922e-05 1.99336e-05 -1.74785e-19
5.64942e-05 -4.05511e-05 6.26506e-20
7.70199e-05 -4.83822e-05 1.399e-19
7.63113e-05 3.71356e-05 9.31688e-21
-0.00017676 0.000216673 -2.21037e-19
-0.000218652 0.000176442 2.95636e-20
-4.29789e-05 -1.36991e-05 1.65225e-21
-4.33797e-05 1.02029e-05 -4.14842e-20
2.75535e-05 -9.41004e-05 -1.90893e-20
1.84532e-05 0.0001073 -1.49752e-19
6.71551e-06 -7.82049e-07 2.60294e-19
7.78338e-06 -1.1237e-06 -1.13259e-20
3.32564e-06 -5.90096e-07 1.16035e-19
7.76612e-06 1.11703e-06 -1.22241e-19
1.07812e-05 -1.48843e-06 1.91751e-19
1.07995e-05 1.47942e-06 1.29699e-19
8.85645e-06 -2.41306e-06 -7.28552e-20
6.30364e-06 -7.34404e-07 -1.13245e-19
5.9668e-06 -6.31272e-07 2.68984e-19
1.09723e-05 1.12335e-06 -4.30494e-20
1.83969e-05 -5.80995e-06 1.17921e-19
1.84096e-05 5.81072e-06 1.69772e-20
-3.06762e-06 -6.27694e-06 9.4528e-20
-3.82551e-06 -2.13283e-06 1.36912e-19
1.12607e-05 6.76464e-06 1.95215e-20
1.23358e-05 -6.05606e-06 -1.17263e-20
1.4562e-05 1.47475e-06 -6.3344e-20
8.30426e-06 2.22182e-06 -2.01539e-19
6.37789e-06 -7.74789e-07 8.28728e-20
4.59695e-06 3.32678e-06 -3.20601e-20
1.40413e-05 -1.08372e-05 1.42662e-19
5.73918e-06 -2.7284e-06 6.12703e-21
6.80924e-06 -8.26822e-07 1.67811e-19
7.69735e-06 2.91295e-07 -6.60899e-20
7.0183e-06 4.63983e-07 6.79132e-20
8.13821e-06 1.51129e-07 -1.02827e-19
1.83969e-05 -5.80995e-06 1.87208e-20
1.84096e-05 5.81072e-06 -3.73313e-20
8.40681e-06 -5.16753e-07 9.74014e-20
8.40608e-06 4.95534e-07 -3.84568e-20
5.49202e-06 7.16518e-06 1.7851e-19
5.95294e-06 -6.08405e-06 2.02276e-19
7.59557e-06 -1.50072e-06 1.58589e-19
7.58836e-06 1.4778e-06 1.20395e-20
2.44694e-05 3.18558e-05 3.43431e-20
8.15752e-06 -3.01319e-05 -7.94494e-20
-1.65934e-06 -1.62278e-05 1.43121e-19
-1.777e-06 1.58747e-05 -2.89138e-20
8.54469e-06 -7.79254e-08 -3.98553e-20
8.45662e-06 -6.69037e-08 2.0972e-20
7.00396e-06 -7.33096e-09 -2.47841e-20
6.6068e-06 -7.81362e-09 1.753e-19
1.14196e-05 -9.57601e-06 9.17183e-20
1.14232e-05 9.5988e-06 1.09734e-19
2.84354e-06 7.68932e-07 2.54199e-19
-2.38951e-05 -1.6557e-05 7.88505e-20
-2.38084e-05 1.65478e-05 1.22179e-20
3.76769e-06 -6.5326e-07 2.85375e-19
8.22683e-06 -9.56364e-07 -3.38355e-20
8.24388e-06 9.499e-07 -5.88575e-20
6.97319e-06 -9.96106e-07 3.30753e-20
6.71551e-06 -7.82049e-07 2.22583e-19
9.68739e-06 2.00317e-06 -1.66364e-20
6.9726e-06 1.01845e-06 -9.48805e-20
-5.69115e-06 6.19021e-06 -5.48946e-20
4.66298e-05 6.49011e-06 -6.91535e-20
1.15564e-05 4.50283e-05 2.79549e-20
2.48831e-05 -4.71955e-05 -6.97436e-21
1.57618e-05 -1.49236e-05 1.42184e-20
1.57723e-05 1.49321e-05 6.19008e-20
7.26972e-07 2.35458e-06 1.25412e-19
2.32979e-05 4.34758e-05 4.68456e-20
2.53249e-05 -4.10932e-05 2.49531e-22
2.69303e-05 -6.71823e-06 1.32049e-19
3.15876e-06 -3.76872e-06 -7.55098e-20
1.50098e-05 -2.6024e-06 7.85139e-20
8.70474e-06 -2.24821e-06 -5.23077e-21
7.0183e-06 4.63983e-07 2.61344e-19
1.4562e-05 1.47475e-06 -5.6686e-20
8.30426e-06 2.22182e-06 -1.08901e-19
2.81777e-06 1.42371e-05 -5.73359e-20
6.80924e-06 -8.26822e-07 2.32842e-19
4.5476e-06 2.37118e-07 -8.76598e-20
2.53249e-05 -4.10932e-05 1.42131e-19
5.49202e-06 7.16518e-06 9.55506e-20
1.86945e-05 -5.71728e-06 4.21096e-20
1.87082e-05 5.71771e-06 4.07547e-20
6.9726e-06 1.01845e-06 -1.92131e-19
7.18777e-06 -6.9341e-06 1.26592e-19
7.15892e-06 6.94016e-06 1.56378e-19
2.42356e-05 -7.33693e-06 5.66382e-20
1.83969e-05 -5.80995e-06 3.13232e-20
2.42541e-05 7.34141e-06 -1.83088e-20
1.84096e-05 5.81072e-06 -1.67394e-20
1.40413e-05 -1.08372e-05 2.00608e-19
8.40681e-06 -5.16753e-07 1.95888e-19
8.40608e-06 4.95534e-07 1.28368e-19
5.87626e-05 5.32697e-05 4.72937e-20
-1.35962e-05 -4.08721e-05 -1.22812e-19
3.42907e-06 4.30777e-07 -3.74416e-20
6.97319e-06 -9.96106e-07 7.15702e-21
6.37789e-06 -7.74789e-07 -6.38823e-20
1.25479e-05 4.51644e-06 1.52628e-19
2.81777e-06 1.42371e-05 -1.19917e-20
-8.61343e-05 1.36306e-05 1.64144e-20
-8.60764e-05 -1.39054e-05 3.28926e-20
1.42887e-05 -9.28045e-06 2.06608e-19
3.76769e-06 -6.5326e-07 9.71752e-20
7.56232e-06 8.21661e-07 -1.34898e-19
8.54469e-06 -7.79254e-08 4.06326e-20
8.45662e-06 -6.69037e-08 -3.59997e-20
6.6068e-06 -7.81362e-09 8.63962e-20
7.00396e-06 -7.33096e-09 -4.00496e-20
7.56749e-06 -8.37221e-07 4.68817e-20
-7.24945e-06 -5.05341e-06 1.97901e-19
1.51069e-06 -5.9035e-06 1.95e-19
1.51177e-06 5.80636e-06 1.03346e-19
6.35428e-06 2.30891e-06 4.66163e-20
1.4562e-05 1.47475e-06 -1.9497e-20
8.42232e-06 5.02877e-08 9.62588e-21
7.0159e-06 -1.85392e-08 -4.2459e-20
1.40413e-05 -1.08372e-05 1.80112e-19
1.50098e-05 -2.6024e-06 9.6347e-20
1.25479e-05 4.51644e-06 2.08268e-19
8.30426e-06 2.22182e-06 -9.70128e-20
7.0183e-06 4.63983e-07 1.57792e-19
1.14196e-05 -9.57601e-06 8.90551e-20
1.14232e-05 9.5988e-06 3.55473e-20
9.21586e-06 4.59791e-06 -5.40154e-20
9.15402e-06 -4.59395e-06 4.02004e-20
8.70474e-06 -2.24821e-06 -2.38731e-20
3.76769e-06 -6.5326e-07 1.99039e-19
3.42907e-06 4.30777e-07 -9.49357e-20
-1.65934e-06 -1.62278e-05 1.26977e-19
-1.777e-06 1.58747e-05 6.84803e-21
5.49202e-06 7.16518e-06 1.71591e-19
6.50953e-06 2.2141e-06 -4.0125e-20
8.59052e-06 9.27871e-08 -3.46043e-20
8.54469e-06 -7.79254e-08 -4.49205e-20
7.00396e-06 -7.33096e-09 -1.0092e-19
8.22683e-06 -9.56364e-07 -7.82049e-20
8.24388e-06 9.499e-07 -6.47063e-20
8.40608e-06 4.95534e-07 -4.43056e-20
6.80924e-06 -8.26822e-07 2.2326e-19
8.40681e-06 -5.16753e-07 5.99956e-21
1.07812e-05 -1.48843e-06 1.22891e-19
1.07995e-05 1.47942e-06 1.03781e-19
6.97319e-06 -9.96106e-07 -1.00581e-20
6.9726e-06 1.01845e-06 -7.30526e-20
9.08065e-06 8.80784e-08 2.65914e-20
6.35428e-06 2.30891e-06 4.22647e-20
-1.777e-06 1.58747e-05 1.64304e-20
-1.65934e-06 -1.62278e-05 1.11093e-19
2.44694e-05 3.18558e-05 -5.41344e-21
8.15752e-06 -3.01319e-05 -1.7865e-20
-4.64936e-05 7.56308e-05 1.9375e-20
-5.4489e-05 -3.55828e-05 -9.4425e-20
4.71681e-05 -4.9992e-05 1.83983e-19
4.98165e-05 6.33404e-05 -9.31964e-20
5.63514e-05 4.05849e-05 1.99654e-20
6.28276e-05 -2.00299e-05 1.45444e-19
1.31724e-05 -7.08795e-05 3.25663e-19
6.86226e-05 2.32187e-05 -1.36825e-19
-8.77356e-05 -1.16002e-05 -4.30277e-20
-7.61175e-06 7.43677e-05 5.28284e-21
8.94648e-05 5.40333e-05 -6.42072e-20
0.000114394 -4.30231e-05 4.14598e-20
-5.72013e-05 -3.38362e-05 -2.69492e-19
-5.58617e-05 3.07129e-05 1.00802e-19
1.01018e-05 6.78924e-05 3.20919e-20
-8.43906e-07 -6.5958e-05 1.72566e-19
-7.10007e-06 -6.52615e-05 -1.7453e-20
1.84247e-05 7.27916e-05 -7.78321e-20
5.63053e-05 1.59928e-05 -5.92579e-20
3.56644e-05 -3.0146e-05 4.18049e-20
-8.51492e-06 3.72124e-05 -1.35919e-21
1.20073e-05 -3.59885e-05 1.53548e-19
-9.77888e-05 7.08218e-05 -5.88575e-20
-8.70864e-05 -4.75122e-05 -1.46646e-21
0.00016148 -7.46244e-05 8.49982e-20
9.2703e-05 0.000134617 -1.02242e-19
8.94648e-05 5.40333e-05 4.35049e-20
0.000114394 -4.30231e-05 7.80308e-20
5.25493e-05 4.60681e-05 -8.80644e-20
5.29941e-05 -2.76534e-05 1.74861e-19
-4.35226e-05 2.23486e-05 -8.01715e-21
-4.52858e-05 -2.08221e-05 -1.11656e-19
6.24185e-05 3.73334e-05 -7.033e-20
6.23681e-05 -2.62281e-05 6.69723e-21
2.7608e-05 9.4189e-05 -7.32512e-20
-1.82106e-05 -0.000107015 1.59387e-20
-4.0784e-05 1.17938e-05 -1.97477e-20
-4.41764e-05 -1.0684e-05 -1.82885e-19
-1.92973e-06 -0.000149029 2.2772e-19
1.75293e-05 0.000158481 -6.88146e-21
0.000155938 6.14477e-06 -1.27817e-19
-0.000150264 -1.84059e-05 -1.3919e-19
5.87233e-05 7.02281e-05 2.23907e-20
7.21031e-05 -6.74313e-05 2.06299e-19
-5.50562e-05 3.49082e-05 2.21528e-20
-7.44693e-05 -9.75815e-06 -3.15973e-19
-7.21919e-05 1.13291e-05 -5.18672e-20
-5.86086e-05 -3.49941e-05 -1.86052e-19
5.06373e-05 -7.45037e-05 2.827e-19
5.49644e-05 8.51396e-05 -1.06442e-20
7.6668e-05 -3.69512e-05 7.78481e-20
-4.64936e-05 7.56308e-05 -1.73616e-20
-1.41479e-05 -6.71817e-05 1.76854e-19
7.6611e-05 4.84249e-05 -1.59579e-19
-1.87925e-05 5.18537e-05 -1.65812e-20
5.17203e-05 -4.20805e-05 1.08787e-19
1.35565e-05 -0.000139422 2.61316e-20
5.92211e-06 0.000116312 9.89561e-21
8.24478e-05 9.46896e-05 7.06996e-21
9.975e-05 -9.955e-05 2.9409e-19
6.36629e-06 -1.62184e-05 1.71683e-19
-8.71009e-06 7.9881e-05 1.71238e-20
-6.15627e-06 -7.61328e-05 -2.0339e-19
1.98624e-05 4.62802e-05 -2.40939e-21
-1.45972e-05 -4.67143e-05 6.73026e-20
2.33469e-06 6.51889e-05 2.6223e-20
4.1153e-06 -6.10381e-05 2.34725e-19
-8.70864e-05 -4.75122e-05 -1.35715e-19
-7.10007e-06 -6.52615e-05 1.916e-19
1.84247e-05 7.27916e-05 3.06892e-20
-4.00261e-05 -2.72475e-05 -2.00248e-20
-9.77888e-05 7.08218e-05 -3.50801e-20
2.47925e-05 3.94782e-05 -5.54139e-20
-6.15627e-06 -7.61328e-05 -8.82109e-20
-4.35226e-05 2.23486e-05 6.77624e-20
8.60925e-05 5.50838e-05 -2.69918e-20
0.000113324 -4.33564e-05 6.50992e-20
7.6611e-05 4.84249e-05 -8.69154e-20
4.31919e-05 6.05305e-05 -4.96914e-20
4.87141e-05 -5.28697e-05 7.1103e-20
0.000107389 4.24048e-05 2.12372e-21
8.94648e-05 5.40333e-05 -2.46419e-20
0.000148239 -4.75664e-05 -2.42532e-20
0.000114394 -4.30231e-05 1.88406e-19
-8.51492e-06 3.72124e-05 -1.69815e-20
5.25493e-05 4.60681e-05 -7.82208e-20
5.29941e-05 -2.76534e-05 1.8689e-20
7.07261e-05 0.000117738 2.48914e-20
-7.25259e-05 -0.000135706 5.84731e-20
-5.19988e-06 -1.2457e-05 2.25218e-19
7.6668e-05 -3.69512e-05 5.40706e-20
5.63053e-05 1.59928e-05 -5.92579e-20
-4.60496e-05 1.43287e-05 -6.2539e-20
-4.00261e-05 -2.72475e-05 -8.21317e-20
-0.000153892 -2.72206e-06 -2.0723e-19
-0.000149616 3.53868e-06 -1.49044e-20
-7.80063e-06 4.1705e-05 1.23761e-20
-5.86086e-05 -3.49941e-05 -1.9271e-19
4.09835e-05 5.05395e-05 -1.11608e-19
-1.92973e-06 -0.000149029 8.03822e-20
1.75293e-05 0.000158481 3.45985e-20
-0.000150264 -1.84059e-05 -2.24183e-20
0.000155938 6.14477e-06 -3.15058e-21
3.53974e-05 -3.43715e-05 2.56153e-19
-5.19268e-05 3.40692e-05 4.17062e-20
9.05829e-06 4.89035e-05 5.95785e-20
1.03725e-05 -4.18942e-05 2.14415e-19
-0.000218692 0.00018009 -9.35888e-20
-7.10007e-06 -6.52615e-05 1.20172e-19
-1.13786e-05 -0.000139129 8.87758e-20
0.000146567 1.48461e-05 -4.57779e-20
-8.51492e-06 3.72124e-05 1.15043e-20
2.33469e-06 6.51889e-05 3.41169e-20
-4.60496e-05 1.43287e-05 -7.15034e-20
1.84247e-05 7.27916e-05 -5.07735e-20
-8.70864e-05 -4.75122e-05 -1.14505e-19
5.87233e-05 7.02281e-05 -7.32672e-20
7.21031e-05 -6.74313e-05 1.06385e-19
4.66848e-05 1.65591e-05 -3.88008e-20
4.75699e-05 2.11566e-05 1.28704e-19
4.1153e-06 -6.10381e-05 3.53804e-19
-5.86086e-05 -3.49941e-05 -2.21814e-19
-5.19988e-06 -1.2457e-05 4.26056e-20
-4.0784e-05 1.17938e-05 5.08011e-20
-4.41764e-05 -1.0684e-05 -3.18204e-19
-4.35226e-05 2.23486e-05 9.81978e-20
0.00021993 -0.000169048 -1.53881e-20
-1.92973e-06 -0.000149029 1.86906e-19
6.81004e-06 0.000145699 -1.10701e-19
0.000155938 6.14477e-06 2.03657e-20
5.06373e-05 -7.45037e-05 1.19609e-19
5.49644e-05 8.51396e-05 -1.24135e-19
5.25493e-05 4.60681e-05 -1.69788e-19
-9.77888e-05 7.08218e-05 -1.07483e-19
5.29941e-05 -2.76534e-05 1.77881e-19
5.63514e-05 4.05849e-05 -5.15582e-20
6.28276e-05 -2.00299e-05 1.31962e-19
7.6668e-05 -3.69512e-05 7.21649e-20
7.6611e-05 4.84249e-05 -1.5266e-19
-0.000179777 0.000224696 1.2305e-20
-0.000218692 0.00018009 -9.12824e-20
-4.41764e-05 -1.0684e-05 -1.80318e-19
-4.0784e-05 1.17938e-05 -1.17581e-20
-1.82106e-05 -0.000107015 1.31022e-19
2.7608e-05 9.4189e-05 -8.64681e-21

CELL_DATA 2380
TENSORS stress float
0.00903256 1.28001 2.25473e-11
1.28001 1.76052 1.66703e-11
2.25473e-11 1.66703e-11 0.0478984

-0.569846 0.852249 -1.7548e-11
0.852249 0.867395 -1.23338e-11
-1.7548e-11 -1.23338e-11 -0.240259

-0.592281 0.684345 2.63156e-11
0.684345 0.788279 -3.14108e-11
2.63156e-11 -3.14108e-11 -0.245372

1.65106 0.372889 1.06954e-11
0.372889 -1.42482 3.04224e-13
1.06954e-11 3.04224e-13 -0.18659

2.21105 0.147729 2.24512e-11
0.147729 -0.695484 -6.91493e-12
2.24512e-11 -6.91493e-12 0.00363689

-1.89784 0.806676 -1.59941e-11
0.806676 -0.437752 -3.08361e-12
-1.59941e-11 -3.08361e-12 -0.984216

-1.93211 0.748289 4.77301e-11
0.748289 -0.454486 3.10256e-11
4.77301e-11 3.10256e-11 -0.979663

2.27472 -0.186884 2.8811e-11
-0.186884 -0.6032 -1.36256e-12
2.8811e-11 -1.36256e-12 0.0401124

1.49973 0.0320502 -1.34881e-12
0.0320502 -2.21238 3.85382e-12
-1.34881e-12 3.85382e-12 -0.309561

0.618334 1.24258 4.07045e-12
1.24258 2.5357 -4.34106e-11
4.07045e-12 -4.34106e-11 0.158975

0.782817 -1.32881 -3.33152e-11
-1.32881 2.66718 -3.6906e-11
-3.33152e-11 -3.6906e-11 0.209051

2.36826 1.28491 -1.86939e-11
1.28491 1.00012 -6.50461e-13
-1.86939e-11 -6.50461e-13 0.180956

-1.07529 -1.05609 -2.67332e-12
-1.05609 -0.166217 -1.13695e-11
-2.67332e-12 -1.13695e-11 -0.76987

-1.09655 -1.19424 3.21086e-11
-1.19424 -0.0655208 -9.53926e-12
3.21086e-11 -9.53926e-12 -0.78015

-0.925208 1.21138 1.19714e-11
1.21138 1.14019 -3.06408e-11
1.19714e-11 -3.06408e-11 -0.194813

-1.32589 1.45154 9.97255e-12
1.45154 0.717767 9.0575e-12
9.97255e-12 9.0575e-12 -0.295085

-1.95863 -0.55239 -1.27183e-11
-0.55239 -0.496208 -1.08877e-11
-1.27183e-11 -1.08877e-11 -1.00665

-1.95138 -0.596081 -3.45177e-11
-0.596081 -0.485281 -4.23903e-12
-3.45177e-11 -4.23903e-12 -1.01369

1.12671 0.550164 2.4281e-11
0.550164 -0.698544 -5.37174e-11
2.4281e-11 -5.37174e-11 -0.137329

0.538476 0.48096 -1.99938e-11
0.48096 3.09435 1.10808e-11
-1.99938e-11 1.10808e-11 0.293459

0.594716 -0.460048 -2.57757e-12
-0.460048 3.18558 3.12204e-11
-2.57757e-12 3.12204e-11 0.31935

2.90245 0.394147 -3.08342e-11
0.394147 1.12291 2.41659e-14
-3.08342e-11 2.41659e-14 0.353994

0.0187088 1.42919 2.92438e-11
1.42919 1.39807 -1.92683e-12
2.92438e-11 -1.92683e-12 -0.0234962

1.96876 -0.730098 -5.87778e-12
-0.730098 -0.378359 2.06683e-11
-5.87778e-12 2.06683e-11 -0.0445132

0.269977 1.31133 -2.80387e-11
1.31133 0.713844 1.12736e-11
-2.80387e-11 1.12736e-11 -0.0569015

0.0274159 1.42861 -1.65241e-11
1.42861 1.81239 3.71931e-11
-1.65241e-11 3.71931e-11 0.0444273

1.73645 -0.308537 5.29958e-12
-0.308537 -1.52869 1.53833e-11
5.29958e-12 1.53833e-11 -0.1794

2.22847 1.1057 2.64627e-11
1.1057 4.33311 -1.0383e-11
2.64627e-11 -1.0383e-11 0.8103

1.35061 0.136382 1.25261e-11
0.136382 -2.21871 -4.13404e-11
1.25261e-11 -4.13404e-11 -0.343443

3.98667 1.10807 1.83339e-11
1.10807 2.61796 3.67011e-11
1.83339e-11 3.67011e-11 0.812061

-0.973584 0.174917 1.91134e-11
0.174917 -0.326204 2.11979e-12
1.91134e-11 2.11979e-12 -0.979287

-0.972754 0.0604047 7.72027e-12
0.0604047 -0.352139 2.83272e-11
7.72027e-12 2.83272e-11 -0.982873

-1.87786 0.623962 -3.95031e-11
0.623962 -3.03218 3.37215e-11
-3.95031e-11 3.37215e-11 -2.97224

-1.88684 -0.598387 -1.31037e-11
-0.598387 -3.02888 5.68458e-11
-1.31037e-11 5.68458e-11 -3.00064

3.24711 -0.462543 1.25271e-11
-0.462543 0.80061 3.38694e-11
1.25271e-11 3.38694e-11 0.373146

-0.605304 1.41027 -1.09844e-11
1.41027 0.462214 -4.43236e-12
-1.09844e-11 -4.43236e-12 -0.245057

-0.596662 0.256312 -1.00209e-11
0.256312 -1.19794 3.90202e-12
-1.00209e-11 3.90202e-12 -1.05164

-0.70722 -0.232718 3.02542e-11
-0.232718 -1.27294 -2.96758e-11
3.02542e-11 -2.96758e-11 -1.12664

1.66867 0.00226236 -5.37659e-11
0.00226236 -2.41003 -1.8439e-11
-5.37659e-11 -1.8439e-11 -0.282288

-0.102824 1.54611 1.38264e-11
1.54611 1.78763 -7.70819e-12
1.38264e-11 -7.70819e-12 0.00555982

1.79624 -0.945115 1.95606e-11
-0.945115 0.462133 -2.55825e-11
1.95606e-11 -2.55825e-11 0.108754

1.75941 -0.090922 -7.22661e-12
-0.090922 -2.41042 2.25339e-11
-7.22661e-12 2.25339e-11 -0.240421

0.0176194 -1.43205 1.25361e-12
-1.43205 1.4733 -2.5631e-11
1.25361e-12 -2.5631e-11 -0.0203255

0.0203436 -1.22768 3.37965e-11
-1.22768 1.79539 5.87722e-12
3.37965e-11 5.87722e-12 0.053211

-1.19582 1.63137 -1.8548e-11
1.63137 0.858775 -1.39719e-11
-1.8548e-11 -1.39719e-11 -0.272215

1.46314 -1.5276 -1.63322e-11
-1.5276 0.893628 -3.85421e-12
-1.63322e-11 -3.85421e-12 0.0774196

2.01125 3.11999 -5.06336e-13
3.11999 4.15919 4.82059e-13
-5.06336e-13 4.82059e-13 0.991182

3.91528 3.08298 1.7974e-11
3.08298 2.23862 4.08119e-11
1.7974e-11 4.08119e-11 0.988748

-1.71249 -1.45981 5.28487e-11
-1.45981 0.0994433 -1.21411e-11
5.28487e-11 -1.21411e-11 -0.611043

2.88951 1.30892 -1.91764e-11
1.30892 5.52057 -3.06211e-11
-1.91764e-11 -3.06211e-11 1.31029

4.99496 1.17324 2.52357e-11
1.17324 3.08114 -2.25981e-11
2.52357e-11 -2.25981e-11 1.24581

-1.23742 -1.02014 -5.54012e-11
-1.02014 -0.349978 -6.35876e-12
-5.54012e-11 -6.35876e-12 -0.891141

-1.24247 1.01632 2.45692e-11
1.01632 -0.361735 3.27596e-11
2.45692e-11 3.27596e-11 -0.891109

1.24935 0.029116 -3.1122e-11
0.029116 -1.02115 -1.09292e-12
-3.1122e-11 -1.09292e-12 -0.104107

-1.38589 -0.888117 -4.54763e-11
-0.888117 -0.777194 8.47897e-12
-4.54763e-11 8.47897e-12 -1.00815

-1.38974 0.885373 6.89859e-11
0.885373 -0.781014 5.13558e-11
6.89859e-11 5.13558e-11 -1.00623

-0.863422 1.42977 -3.19416e-11
1.42977 1.3024 -3.3918e-11
-3.19416e-11 -3.3918e-11 -0.17225

-1.13151 0.585587 4.85609e-11
0.585587 -2.92391 3.72869e-11
4.85609e-11 3.72869e-11 -2.34931

-1.12634 -0.581197 -5.10656e-11
-0.581197 -2.94473 1.83142e-12
-5.10656e-11 1.83142e-12 -2.36729

-0.741215 -1.17782 3.9215e-11
-1.17782 -0.124237 -2.91467e-11
3.9215e-11 -2.91467e-11 -0.474642

-0.753268 1.17063 6.4551e-12
1.17063 -0.131054 -1.02134e-11
6.4551e-12 -1.02134e-11 -0.474383

2.58164 -1.26844 -4.4813e-12
-1.26844 0.913652 2.44273e-11
-4.4813e-12 2.44273e-11 0.216113

-2.65527 0.571006 -1.28986e-11
0.571006 -1.16784 6.55135e-12
-1.28986e-11 6.55135e-12 -2.2646

-2.6604 0.451693 -5.98572e-12
0.451693 -1.15075 -2.48584e-11
-5.98572e-12 -2.48584e-11 -2.25202

-0.13371 -1.57543 1.41644e-11
-1.57543 1.79367 -3.26646e-11
1.41644e-11 -3.26646e-11 0.000359985

2.17263 -1.04261 -3.62202e-11
-1.04261 4.69463 -2.79198e-11
-3.62202e-11 -2.79198e-11 0.871763

4.48448 -1.03326 1.89835e-11
-1.03326 2.30237 -1.30335e-11
1.89835e-11 -1.30335e-11 0.863193

-1.25159 1.24621 -1.24173e-11
1.24621 0.913772 1.41635e-11
-1.24173e-11 1.41635e-11 -0.316504

-1.28338 1.15907 -1.19957e-11
1.15907 0.754998 9.63531e-12
-1.19957e-11 9.63531e-12 -0.330476

-2.86055 -1.72798 -2.30269e-10
-1.72798 -4.02497 -6.29067e-11
-2.30269e-10 -6.29067e-11 -3.68449

-2.86108 1.72748 -2.75551e-11
1.72748 -4.02185 -4.4609e-11
-2.75551e-11 -4.4609e-11 -3.6819

-1.29874 1.76695 -2.4473e-11
1.76695 0.614458 7.70808e-12
-2.4473e-11 7.70808e-12 -0.27377

0.112859 0.864707 -1.1562e-11
0.864707 -0.588953 -1.03583e-11
-1.1562e-11 -1.03583e-11 -0.323465

0.149805 -0.879885 -3.08327e-12
-0.879885 -0.593541 -7.4191e-12
-3.08327e-12 -7.4191e-12 -0.323677

-1.30239 1.68784 9.15347e-12
1.68784 0.261635 -7.90053e-12
9.15347e-12 -7.90053e-12 -0.388259

-1.65087 -1.54396 4.33098e-11
-1.54396 0.229803 -2.5342e-11
4.33098e-11 -2.5342e-11 -0.605456

3.06992 -0.017682 8.72028e-12
-0.017682 0.219383 1.68439e-13
8.72028e-12 1.68439e-13 0.216888

2.44926 0.687995 1.17073e-11
0.687995 -0.12751 -9.22581e-12
1.17073e-11 -9.22581e-12 0.0918214

-0.356624 0.278279 -8.86426e-12
0.278279 -2.22852 4.67304e-12
-8.86426e-12 4.67304e-12 -1.05099

-3.53077 -0.431567 2.8518e-11
-0.431567 -3.75267 1.0791e-10
2.8518e-11 1.0791e-10 -3.95162

-3.50634 0.371225 1.30842e-10
0.371225 -3.69829 3.85229e-13
1.30842e-10 3.85229e-13 -3.91399

1.60952 1.2747 9.39434e-12
1.2747 2.25457 -3.05942e-11
9.39434e-12 -3.05942e-11 0.334904

0.457199 -1.11229 -3.27616e-12
-1.11229 -0.0911469 2.85211e-11
-3.27616e-12 2.85211e-11 -0.207256

1.1775 0.665667 1.53208e-11
0.665667 -0.24551 3.1748e-11
1.53208e-11 3.1748e-11 -0.0494351

-3.16624 0.366217 1.87561e-11
0.366217 -2.13494 3.54571e-11
1.87561e-11 3.54571e-11 -2.97659

-3.15741 0.312472 7.35694e-11
0.312472 -2.12455 -3.48787e-11
7.35694e-11 -3.48787e-11 -2.97798

-0.475243 -0.203404 2.66899e-11
-0.203404 -2.24389 8.67153e-12
2.66899e-11 8.67153e-12 -1.12397

-0.651701 -0.436495 -1.00084e-11
-0.436495 0.786954 -1.32004e-11
-1.00084e-11 -1.32004e-11 -0.294055

-0.650225 -0.592931 -4.06602e-11
-0.592931 0.838867 -2.84237e-11
-4.06602e-11 -2.84237e-11 -0.293396

0.700628 -0.408356 1.45492e-11
-0.408356 -1.24451 -2.38506e-12
1.45492e-11 -2.38506e-12 -0.233339

0.690763 0.413012 1.19475e-11
0.413012 -1.27773 -5.08234e-12
1.19475e-11 -5.08234e-12 -0.235754

2.07778 -1.26458 9.63452e-12
-1.26458 2.03823 1.90306e-11
9.63452e-12 1.90306e-11 0.358309

1.86169 0.0786671 -3.17968e-12
0.0786671 -0.0969042 -2.21158e-11
-3.17968e-12 -2.21158e-11 0.0550782

-0.087135 -0.61863 1.59945e-11
-0.61863 -1.21661 -5.99848e-12
1.59945e-11 -5.99848e-12 -0.51321

-0.107557 0.612744 2.22083e-11
0.612744 -1.21294 2.8429e-12
2.22083e-11 2.8429e-12 -0.511172

1.19607 -0.69085 3.62291e-11
-0.69085 -0.187766 7.94577e-13
3.62291e-11 7.94577e-13 -0.0408485

-0.002039 -1.43488 2.76538e-11
-1.43488 1.88101 -9.15464e-12
2.76538e-11 -9.15464e-12 0.054041

0.750924 -0.458821 -3.85429e-12
-0.458821 -0.958154 7.05754e-12
-3.85429e-12 7.05754e-12 -0.233229

0.73473 0.46303 1.77287e-11
0.46303 -0.995202 -2.50986e-11
1.77287e-11 -2.50986e-11 -0.236243

1.32856 -0.301103 -6.2628e-12
-0.301103 -1.02842 2.42326e-11
-6.2628e-12 2.42326e-11 -0.165464

-1.14127 2.01495 -8.19028e-12
2.01495 0.721369 -8.19012e-12
-8.19028e-12 -8.19012e-12 -0.262855

1.4447 1.10867 -1.18512e-11
1.10867 0.949064 8.04584e-12
-1.18512e-11 8.04584e-12 0.140938

-1.40168 1.70636 -1.11762e-11
1.70636 0.64702 1.67654e-11
-1.11762e-11 1.67654e-11 -0.294001

-1.26756 1.90574 3.2282e-12
1.90574 0.838165 3.0255e-11
3.2282e-12 3.0255e-11 -0.258249

1.84009 0.822578 -1.25267e-11
0.822578 0.0373007 5.56414e-12
-1.25267e-11 5.56414e-12 0.00295116

-0.136507 -0.679926 -6.3598e-12
-0.679926 -1.13823 1.0454e-11
-6.3598e-12 1.0454e-11 -0.531999

1.41168 0.371311 2.38959e-11
0.371311 -0.771625 2.82798e-11
2.38959e-11 2.82798e-11 -0.106729

0.648404 1.40351 1.8789e-11
1.40351 1.01534 -1.88861e-11
1.8789e-11 -1.88861e-11 -0.0396522

0.369342 1.13892 -3.52662e-11
1.13892 -0.0816995 6.26284e-12
-3.52662e-11 6.26284e-12 -0.223137

-1.58703 0.0988891 1.1538e-11
0.0988891 0.529462 -4.13359e-11
1.1538e-11 -4.13359e-11 -0.515889

-1.57222 0.156167 -2.58464e-11
0.156167 0.534222 -1.98493e-11
-2.58464e-11 -1.98493e-11 -0.514507

2.29277 -1.43014 7.6121e-12
-1.43014 1.15652 1.85488e-11
7.6121e-12 1.85488e-11 0.203252

-1.31751 -1.70112 5.01027e-12
-1.70112 0.261636 -1.44539e-12
5.01027e-12 -1.44539e-12 -0.390952

0.685939 -1.67674 5.20378e-12
-1.67674 1.82845 -8.96128e-12
5.20378e-12 -8.96128e-12 0.106118

0.692035 1.71743 -1.01258e-12
1.71743 1.80646 -1.67662e-11
-1.01258e-12 -1.67662e-11 0.105277

1.06755 -0.623044 2.0232e-12
-0.623044 -0.464154 1.47901e-11
2.0232e-12 1.47901e-11 -0.131094

0.93006 -0.0928989 -7.90087e-12
-0.0928989 -2.84775 -1.63828e-12
-7.90087e-12 -1.63828e-12 -0.625319

1.00942 0.104136 1.04063e-11
0.104136 -2.75202 1.32964e-11
1.04063e-11 1.32964e-11 -0.57783

-0.328172 0.911923 -1.3803e-11
0.911923 1.92076 -1.73448e-11
-1.3803e-11 -1.73448e-11 -0.0452167

0.314006 -1.37937 -3.08261e-12
-1.37937 0.725812 -1.56578e-11
-3.08261e-12 -1.56578e-11 -0.054567

-0.229883 -0.0307433 -1.54894e-11
-0.0307433 3.03844 -6.31147e-12
-1.54894e-11 -6.31147e-12 0.0945724

-0.194615 0.067665 1.9934e-11
0.067665 3.11734 3.06432e-11
1.9934e-11 3.06432e-11 0.11844

2.95572 -0.0110039 1.52252e-11
-0.0110039 0.237907 -1.90186e-11
1.52252e-11 -1.90186e-11 0.164742

2.10537 1.34287 -9.10583e-12
1.34287 2.13434 1.52244e-11
-9.10583e-12 1.52244e-11 0.382337

1.06119 -1.57423 9.34704e-12
-1.57423 0.877441 7.70809e-13
9.34704e-12 7.70809e-13 -0.0112209

-4.41877 -0.776571 -2.31919e-10
-0.776571 -2.73874 4.35563e-11
-2.31919e-10 4.35563e-11 -4.11919

-4.40121 -0.71739 6.62154e-13
-0.71739 -2.73137 7.49599e-11
6.62154e-13 7.49599e-11 -4.10443

1.85186 -0.805831 -2.24512e-11
-0.805831 -0.0395599 1.24301e-11
-2.24512e-11 1.24301e-11 -0.00544447

-0.778182 1.87228 -3.80626e-12
1.87228 1.27204 -1.77293e-11
-3.80626e-12 -1.77293e-11 -0.10524

1.28158 -0.0488199 -2.42813e-11
-0.0488199 -1.00846 3.05454e-12
-2.42813e-11 3.05454e-12 -0.0988124

-0.356174 -0.897461 8.38299e-12
-0.897461 1.98905 -4.04698e-12
8.38299e-12 -4.04698e-12 -0.0375265

-1.63416 1.67785 1.6548e-11
1.67785 0.346283 -2.88989e-12
1.6548e-11 -2.88989e-12 -0.534243

-1.76356 1.57972 -1.23822e-11
1.57972 0.218009 -4.22027e-11
-1.23822e-11 -4.22027e-11 -0.546613

-1.13952 -2.01108 -1.47419e-11
-2.01108 0.712151 2.37989e-11
-1.47419e-11 2.37989e-11 -0.268383

-1.30435 1.94031 1.41636e-11
1.94031 0.961693 2.67866e-11
1.41636e-11 2.67866e-11 -0.217113

-0.852653 1.63766 2.84145e-12
1.63766 1.05628 -4.11433e-11
2.84145e-12 -4.11433e-11 -0.130644

0.747045 0.00375143 2.35096e-11
0.00375143 -1.44941 1.68174e-12
2.35096e-11 1.68174e-12 -0.151763

1.16873 1.5449 -1.87903e-11
1.5449 0.82412 -2.50557e-12
-1.87903e-11 -2.50557e-12 -0.00186077

-1.40342 -1.72098 -2.22574e-11
-1.72098 0.633983 2.32217e-11
-2.22574e-11 2.32217e-11 -0.298137

0.850067 1.3505 -3.22786e-11
1.3505 1.465 7.27437e-12
-3.22786e-11 7.27437e-12 0.0983497

1.62154 -1.16642 -4.44689e-11
-1.16642 2.42978 -1.15147e-11
-4.44689e-11 -1.15147e-11 0.3564

-0.61842 -1.42889 -2.9966e-11
-1.42889 0.522195 1.15682e-12
-2.9966e-11 1.15682e-12 -0.238548

0.540586 -0.813756 3.3568e-11
-0.813756 3.16422 -9.44363e-12
3.3568e-11 -9.44363e-12 0.307667

0.524545 0.793229 -7.70365e-13
0.793229 3.1348 2.50481e-12
-7.70365e-13 2.50481e-12 0.298615

2.80998 -0.558694 1.20496e-12
-0.558694 1.1565 -2.57029e-11
1.20496e-12 -2.57029e-11 0.351815

0.880446 -1.38746 3.19913e-11
-1.38746 1.49955 -5.29966e-11
3.19913e-11 -5.29966e-11 0.104901

-0.168707 0.21512 -3.45789e-11
0.21512 1.97451 -4.07082e-16
-3.45789e-11 -4.07082e-16 0.0504038

-0.172652 -0.00204355 -2.57263e-11
-0.00204355 1.94804 3.17953e-12
-2.57263e-11 3.17953e-12 0.0460397

1.35056 -1.60162 9.00909e-12
-1.60162 2.35884 2.29328e-11
9.00909e-12 2.29328e-11 0.250036

1.17976 1.62144 9.44208e-12
1.62144 2.3221 -2.72699e-11
9.44208e-12 -2.72699e-11 0.215523

0.770476 -0.14189 2.42805e-11
-0.14189 -1.7202 -3.9503e-12
2.42805e-11 -3.9503e-12 -0.248952

0.769098 0.148843 3.04472e-11
0.148843 -1.72787 -1.16339e-11
3.04472e-11 -1.16339e-11 -0.247922

-0.778024 1.76439 -4.09526e-12
1.76439 1.12714 -2.01378e-11
-4.09526e-12 -2.01378e-11 -0.125967

-1.67621 -1.60739 -9.78009e-12
-1.60739 0.35172 2.88095e-11
-9.78009e-12 2.88095e-11 -0.477567

-0.747513 1.16786 3.40122e-11
1.16786 -0.127506 -1.61865e-11
3.40122e-11 -1.61865e-11 -0.424169

3.29873 1.29261 -1.93689e-11
1.29261 1.61385 -5.46903e-12
-1.93689e-11 -5.46903e-12 0.501113

-0.348186 1.10629 8.79256e-12
1.10629 2.22371 3.59411e-11
8.79256e-12 3.59411e-11 0.00483466

-0.6022 0.768375 5.01007e-12
0.768375 -0.692946 -1.01132e-12
5.01007e-12 -1.01132e-12 -0.641064

-0.589957 -0.773994 -2.81341e-11
-0.773994 -0.682214 -5.14034e-11
-2.81341e-11 -5.14034e-11 -0.640316

0.259964 -1.05135 -4.81874e-13
-1.05135 0.0527853 4.72117e-12
-4.81874e-13 4.72117e-12 -0.195908

0.240569 1.0431 -2.83277e-11
1.0431 0.0408986 -6.30145e-11
-2.83277e-11 -6.30145e-11 -0.197801

3.63926 0.345555 4.07091e-12
0.345555 7.78674 -2.72236e-11
4.07091e-12 -2.72236e-11 1.91257

7.32198 0.357707 4.04728e-12
0.357707 4.02537 1.83215e-11
4.04728e-12 1.83215e-11 1.89747

-0.457432 -1.04979 3.54133e-12
-1.04979 2.20731 -7.80494e-12
3.54133e-12 -7.80494e-12 -0.0185331

-1.75785 -0.836257 -3.62268e-11
-0.836257 -1.53834 1.41635e-11
-3.62268e-11 1.41635e-11 -1.74678

-1.76184 0.838997 5.58819e-11
0.838997 -1.53827 -1.52223e-11
5.58819e-11 -1.52223e-11 -1.74469

0.549065 1.28389 1.57057e-11
1.28389 0.606032 -2.25461e-11
1.57057e-11 -2.25461e-11 -0.0468766

3.80339 0.704081 -4.46154e-11
0.704081 1.0428 7.03358e-12
-4.46154e-11 7.03358e-12 0.488825

1.86251 -0.133618 1.73436e-11
-0.133618 -0.0888664 7.54411e-12
1.73436e-11 7.54411e-12 0.0554299

-1.34645 -0.924863 -1.26469e-12
-0.924863 0.659706 3.56519e-12
-1.26469e-12 3.56519e-12 -0.397841

-1.3007 -1.01137 1.44768e-11
-1.01137 0.722733 1.78249e-11
1.44768e-11 1.78249e-11 -0.396425

0.835367 -1.52687 -1.63326e-11
-1.52687 1.39867 -2.7895e-11
-1.63326e-11 -2.7895e-11 0.0592691

-1.31592 -1.9485 1.92392e-13
-1.9485 0.968111 1.27184e-11
1.92392e-13 1.27184e-11 -0.222359

0.572399 -1.29782 -2.37993e-11
-1.29782 0.649404 1.12252e-11
-2.37993e-11 1.12252e-11 -0.03928

-1.50405 1.86712 -8.38238e-12
1.86712 0.634692 4.33586e-12
-8.38238e-12 4.33586e-12 -0.265379

-1.192 1.35091 5.65899e-13
1.35091 -0.110227 8.66973e-13
5.65899e-13 8.66973e-13 -0.802857

-1.1635 1.22769 -2.40523e-11
1.22769 -0.254341 -4.55743e-11
-2.40523e-11 -4.55743e-11 -0.797127

-0.817639 -1.77216 -2.26913e-11
-1.77216 1.13613 2.30289e-11
-2.26913e-11 2.30289e-11 -0.133912

-0.785305 1.59989 -3.15072e-11
1.59989 0.91808 -1.24296e-11
-3.15072e-11 -1.24296e-11 -0.145089

1.94832 1.10594 -7.32314e-12
1.10594 0.271501 1.8067e-11
-7.32314e-12 1.8067e-11 0.0615269

-1.30623 2.05402 1.30557e-11
2.05402 0.853231 2.10054e-11
1.30557e-11 2.10054e-11 -0.215906

-0.95781 -1.25508 3.93846e-11
-1.25508 1.17802 -8.67343e-13
3.93846e-11 -8.67343e-13 -0.194914

-0.838422 0.488728 -4.69724e-11
0.488728 1.7296 2.30288e-11
-4.69724e-11 2.30288e-11 -0.138788

-0.327037 1.48749 -1.74403e-11
1.48749 0.329017 -4.86587e-11
-1.74403e-11 -4.86587e-11 -0.251795

-0.731573 0.627658 2.92913e-11
0.627658 1.74216 -2.51489e-11
2.92913e-11 -2.51489e-11 -0.120372

-1.51827 -1.74369 -3.6276e-11
-1.74369 0.499819 6.36011e-12
-3.6276e-11 6.36011e-12 -0.455266

2.87118 -1.49479 -4.0966e-11
-1.49479 3.036 -1.7754e-11
-4.0966e-11 -1.7754e-11 0.715075

2.94808 -1.51106 -2.69092e-11
-1.51106 2.95603 -1.28582e-11
-2.69092e-11 -1.28582e-11 0.717567

-0.320809 -1.49637 -6.6489e-12
-1.49637 0.336343 2.23539e-11
-6.6489e-12 2.23539e-11 -0.25348

1.12789 -0.564496 1.34413e-11
-0.564496 -0.680795 2.46074e-11
1.34413e-11 2.46074e-11 -0.13865

-2.23796 1.78096 9.30701e-11
1.78096 -3.05221 -7.14856e-11
9.30701e-11 -7.14856e-11 -3.04478

-2.23783 -1.78113 -8.43987e-11
-1.78113 -3.05208 -9.34546e-11
-8.43987e-11 -9.34546e-11 -3.04685

-0.838479 -1.86082 1.51748e-11
-1.86082 1.25178 2.37992e-11
1.51748e-11 2.37992e-11 -0.121578

-2.12426 0.3896 1.59937e-11
0.3896 -1.7857 9.92386e-12
1.59937e-11 9.92386e-12 -1.94177

-2.14529 -0.357927 -4.20078e-11
-0.357927 -1.80684 4.52852e-11
-4.20078e-11 4.52852e-11 -1.97885

2.01621 0.0235191 2.75576e-11
0.0235191 -1.69839 -9.19105e-12
2.75576e-11 -9.19105e-12 -0.104438

-1.4999 -1.87615 -5.7733e-13
-1.87615 0.673061 -2.8617e-11
-5.7733e-13 -2.8617e-11 -0.258944

2.37579 1.82108 6.52136e-11
1.82108 2.53463 8.67395e-12
6.52136e-11 8.67395e-12 0.476318

2.1273 1.72533 2.71389e-11
1.72533 2.47333 1.54901e-11
2.71389e-11 1.54901e-11 0.422529

1.67966 -1.29625 -1.94413e-11
-1.29625 4.06196 4.59652e-11
-1.94413e-11 4.59652e-11 0.634148

1.69148 1.35917 6.28027e-11
1.35917 4.05129 -5.0091e-12
6.28027e-11 -5.0091e-12 0.63967

3.8826 -1.07823 9.44393e-12
-1.07823 2.10604 -1.47196e-11
9.44393e-12 -1.47196e-11 0.681244

-1.30834 -2.0629 2.09075e-11
-2.0629 0.904761 2.11967e-11
2.09075e-11 2.11967e-11 -0.209133

0.631665 0.477667 3.12328e-11
0.477667 4.28306 1.78758e-11
3.12328e-11 1.78758e-11 0.479011

4.02214 0.60981 2.75365e-11
0.60981 1.12248 9.08226e-12
2.75365e-11 9.08226e-12 0.523711

-1.88391 -0.637883 2.41588e-11
-0.637883 -0.837575 1.17547e-11
2.41588e-11 1.17547e-11 -1.5267

-1.8614 -0.771602 1.76801e-11
-0.771602 -0.844772 -9.44258e-12
1.76801e-11 -9.44258e-12 -1.54267

1.06131 0.23976 -1.08877e-11
0.23976 -0.926582 -1.19954e-11
-1.08877e-11 -1.19954e-11 -0.227868

1.69188 0.0150609 -3.75785e-11
0.0150609 -2.68068 -2.90014e-11
-3.75785e-11 -2.90014e-11 -0.277705

0.388898 -1.17633 1.83556e-11
-1.17633 2.48404 -4.34583e-11
1.83556e-11 -4.34583e-11 0.122995

0.358449 1.15049 3.80609e-11
1.15049 2.47114 -3.68085e-11
3.80609e-11 -3.68085e-11 0.116437

1.94841 0.000297102 4.17221e-11
0.000297102 -1.81349 2.06479e-11
4.17221e-11 2.06479e-11 -0.135397

-0.917022 -1.42197 3.14588e-11
-1.42197 1.3049 7.32251e-12
3.14588e-11 7.32251e-12 -0.181581

-1.03777 -0.604998 -1.36822e-11
-0.604998 -1.17713 4.52816e-12
-1.36822e-11 4.52816e-12 -1.18193

-1.04987 0.603775 4.94274e-11
0.603775 -1.18218 4.48117e-12
4.94274e-11 4.48117e-12 -1.18209

-0.153071 0.836805 1.93666e-11
0.836805 -0.0010775 2.04269e-11
1.93666e-11 2.04269e-11 -0.31684

-0.825021 -1.5928 -1.72953e-11
-1.5928 0.922885 3.27634e-12
-1.72953e-11 3.27634e-12 -0.155876

1.14366 0.240506 -9.34656e-12
0.240506 -1.91375 2.033e-11
-9.34656e-12 2.033e-11 -0.366175

1.70707 1.32765 -2.55354e-11
1.32765 1.4605 2.7606e-11
-2.55354e-11 2.7606e-11 0.181636

-0.867604 -1.6369 1.91738e-11
-1.6369 1.03541 1.50311e-11
1.91738e-11 1.50311e-11 -0.142938

3.26583 -2.87035 -9.38597e-12
-2.87035 3.36749 2.81045e-11
-9.38597e-12 2.81045e-11 1.11099

-0.771351 -0.392227 -6.40752e-12
-0.392227 1.66431 1.3008e-11
-6.40752e-12 1.3008e-11 -0.140159

-0.679058 -0.536826 7.32307e-12
-0.536826 1.68045 2.42814e-11
7.32307e-12 2.42814e-11 -0.124698

-2.17062 -0.127157 1.57423e-11
-0.127157 -1.41818 -1.01746e-10
1.57423e-11 -1.01746e-10 -1.87847

-2.15306 -0.0735344 9.20886e-12
-0.0735344 -1.43569 1.92901e-13
9.20886e-12 1.92901e-13 -1.87855

0.347214 -0.444974 4.23955e-12
-0.444974 -1.52725 1.90768e-11
4.23955e-12 1.90768e-11 -0.348027

0.335082 0.445667 4.43192e-12
0.445667 -1.53118 -2.90727e-11
4.43192e-12 -2.90727e-11 -0.346971

-1.22171 -0.876867 9.82775e-12
-0.876867 -1.01869 -2.64967e-11
9.82775e-12 -2.64967e-11 -0.913851

-1.10008 0.904819 -4.19131e-11
0.904819 -1.04451 1.55119e-11
-4.19131e-11 1.55119e-11 -0.86945

-1.77638 -0.77847 -4.18159e-11
-0.77847 -0.923279 1.3586e-11
-4.18159e-11 1.3586e-11 -1.4928

-1.77609 0.810409 -1.1369e-11
0.810409 -0.913006 9.34587e-12
-1.1369e-11 9.34587e-12 -1.48126

-2.23728 1.21052 2.00395e-11
1.21052 -2.33768 -3.43953e-11
2.00395e-11 -3.43953e-11 -2.54535

-2.23672 -1.20871 -1.15598e-11
-1.20871 -2.33723 -1.4876e-10
-1.15598e-11 -1.4876e-10 -2.54759

-1.33486 -1.99948 2.80387e-11
-1.99948 0.434168 -2.20649e-11
2.80387e-11 -2.20649e-11 -0.393523

-1.33175 2.00642 9.44276e-12
2.00642 0.411172 1.426e-11
9.44276e-12 1.426e-11 -0.393295

0.653988 1.19142 1.85003e-11
1.19142 0.0941962 8.57585e-12
1.85003e-11 8.57585e-12 -0.137563

-0.41225 -0.942173 3.42061e-12
-0.942173 1.45355 -1.34874e-12
3.42061e-12 -1.34874e-12 -0.046374

-0.43896 -1.17538 5.64862e-11
-1.17538 1.6044 1.05978e-11
5.64862e-11 1.05978e-11 -0.0372833

2.29075 -1.18673 -1.72003e-11
-1.18673 1.9539 -1.76812e-11
-1.72003e-11 -1.76812e-11 0.388663

0.66243 -1.18952 -2.98698e-11
-1.18952 0.146241 -2.98632e-12
-2.98698e-11 -2.98632e-12 -0.131164

-0.399264 0.889015 -2.06681e-11
0.889015 1.43266 1.05986e-12
-2.06681e-11 1.05986e-12 -0.0462311

0.265709 1.66995 1.86929e-11
1.66995 0.90406 -2.3221e-11
1.86929e-11 -2.3221e-11 -0.0699814

-1.70592 -1.73291 1.87879e-11
-1.73291 0.0171118 2.05228e-11
1.87879e-11 2.05228e-11 -0.580499

-1.70582 1.70101 1.61864e-11
1.70101 -0.00517703 -2.14861e-11
1.61864e-11 -2.14861e-11 -0.589948

0.25981 -1.69496 3.85318e-12
-1.69496 0.912523 3.96022e-11
3.85318e-12 3.96022e-11 -0.0755167

0.903007 -0.166069 3.1218e-11
-0.166069 -1.04762 1.85951e-11
3.1218e-11 1.85951e-11 -0.317397

-4.30665 0.48122 -2.08108e-11
0.48122 -3.48293 -3.96963e-11
-2.08108e-11 -3.96963e-11 -4.2541

-4.27255 0.423599 4.96076e-11
0.423599 -3.51446 9.15319e-11
4.96076e-11 9.15319e-11 -4.24824

-0.84359 -1.49157 3.74805e-11
-1.49157 0.907076 2.16783e-11
3.74805e-11 2.16783e-11 -0.23724

-0.0878885 0.727978 2.85209e-11
0.727978 -1.03393 5.44353e-12
2.85209e-11 5.44353e-12 -0.48299

0.397054 -0.181479 1.5416e-11
-0.181479 -2.10447 -1.62351e-11
1.5416e-11 -1.62351e-11 -0.903516

2.88304 -1.60238 -2.90289e-11
-1.60238 3.12816 -1.8429e-11
-2.90289e-11 -1.8429e-11 0.712708

2.89616 -1.56515 -4.77396e-14
-1.56515 3.10941 1.2479e-11
-4.77396e-14 1.2479e-11 0.711289

0.207736 -0.49986 -8.9603e-12
-0.49986 -1.71274 -1.34643e-11
-8.9603e-12 -1.34643e-11 -0.53931

0.185146 0.508218 -2.35093e-11
0.508218 -1.71231 9.105e-12
-2.35093e-11 9.105e-12 -0.538357

0.34904 0.149738 -6.16647e-12
0.149738 -2.11057 -1.14176e-11
-6.16647e-12 -1.14176e-11 -0.942697

-0.408453 1.16662 -2.41848e-11
1.16662 1.57101 -3.28575e-11
-2.41848e-11 -3.28575e-11 -0.035629

1.74488 0.918008 -1.11772e-11
0.918008 0.756483 2.69782e-12
-1.11772e-11 2.69782e-12 0.151143

-0.657673 -1.32694 5.1355e-11
-1.32694 0.271223 -3.56587e-12
5.1355e-11 -3.56587e-12 -0.38437

-0.66753 1.31664 -3.17946e-12
1.31664 0.265377 7.53467e-11
-3.17946e-12 7.53467e-11 -0.383875

-3.51316 -0.240031 -4.18162e-11
-0.240031 -4.8043 -1.39785e-10
-4.18162e-11 -1.39785e-10 -4.37538

-3.46967 0.24276 -8.47881e-12
0.24276 -4.60485 1.46151e-10
-8.47881e-12 1.46151e-10 -4.30103

-1.28914 -1.70937 -7.5153e-12
-1.70937 0.841142 -1.54164e-11
-7.5153e-12 -1.54164e-11 -0.273923

1.23835 0.730967 3.37212e-12
0.730967 -0.224401 -3.03509e-11
3.37212e-12 -3.03509e-11 -0.0524399

-0.206321 0.504137 2.22568e-11
0.504137 -0.838876 -3.44442e-11
2.22568e-11 -3.44442e-11 -0.583416

-0.189714 -0.506755 5.49194e-12
-0.506755 -0.835241 1.9221e-11
5.49194e-12 1.9221e-11 -0.583425

-0.873148 -1.32758 2.5678e-11
-1.32758 0.73641 -2.27398e-11
2.5678e-11 -2.27398e-11 -0.24964

-1.34613 -1.82494 -2.2638e-12
-1.82494 0.68943 -1.39712e-11
-2.2638e-12 -1.39712e-11 -0.248868

3.29653 -2.97595 1.42866e-11
-2.97595 3.45388 4.40877e-12
1.42866e-11 4.40877e-12 1.1278

-1.74809 1.24371 6.84116e-12
1.24371 0.000943188 2.43771e-11
6.84116e-12 2.43771e-11 -0.803634

-1.76996 -1.26255 1.83066e-11
-1.26255 0.00641215 -9.82844e-12
1.83066e-11 -9.82844e-12 -0.808656

-1.40566 -1.58087 1.72476e-11
-1.58087 0.697814 -3.22793e-11
1.72476e-11 -3.22793e-11 -0.295329

1.79581 -0.990515 -2.62086e-11
-0.990515 0.709991 -7.51525e-12
-2.62086e-11 -7.51525e-12 0.153934

-0.129198 -0.789349 2.9873e-12
-0.789349 -0.0748092 1.85959e-11
2.9873e-12 1.85959e-11 -0.345101

-1.22493 1.07582 -1.92772e-13
1.07582 -0.339646 -1.23328e-11
-1.92772e-13 -1.23328e-11 -0.731441

-1.26801 -1.11663 4.28757e-11
-1.11663 -0.324644 1.31031e-11
4.28757e-11 1.31031e-11 -0.745363

0.991584 -0.159561 1.46457e-11
-0.159561 -2.10825 2.63519e-11
1.46457e-11 2.63519e-11 -0.446971

-0.442397 0.391912 -2.08113e-11
0.391912 -1.51104 4.08512e-11
-2.08113e-11 4.08512e-11 -0.874832

-0.42485 -0.388058 -3.08315e-11
-0.388058 -1.51552 7.13007e-12
-3.08315e-11 7.13007e-12 -0.876133

-3.38122 0.175035 -5.50338e-11
0.175035 -1.45524 -2.891e-12
-5.50338e-11 -2.891e-12 -3.16986

-3.36722 0.116909 -1.82723e-11
0.116909 -1.46373 9.80839e-11
-1.82723e-11 9.80839e-11 -3.171

3.40031 0.124934 9.43177e-12
0.124934 7.78796 4.43231e-12
9.43177e-12 4.43231e-12 1.87166

7.22097 0.111081 -1.23091e-11
0.111081 3.44113 5.63002e-11
-1.23091e-11 5.63002e-11 1.7727

-0.991269 -1.70604 -2.22563e-11
-1.70604 0.83598 -4.72127e-11
-2.22563e-11 -4.72127e-11 -0.26022

-0.990923 1.70121 8.96024e-12
1.70121 0.825446 -3.46827e-12
8.96024e-12 -3.46827e-12 -0.258162

-1.32333 -1.94423 -2.26443e-12
-1.94423 0.925247 9.92439e-12
-2.26443e-12 9.92439e-12 -0.232838

2.76864 -1.39874 -8.93863e-12
-1.39874 5.99884 -1.85506e-11
-8.93863e-12 -1.85506e-11 1.40144

5.67543 -1.33726 -3.75788e-12
-1.33726 3.04795 2.65047e-13
-3.75788e-12 2.65047e-13 1.39238

-3.75678 -1.78605 7.88083e-11
-1.78605 -2.35893 1.30358e-10
7.88083e-11 1.30358e-10 -3.23539

-3.75813 1.78573 5.31804e-11
1.78573 -2.358 -5.52074e-11
5.31804e-11 -5.52074e-11 -3.23363

-0.787929 -1.17825 2.92908e-11
-1.17825 -0.165017 1.47414e-11
2.92908e-11 1.47414e-11 -0.440351

0.000359509 -1.63691 -1.01173e-11
-1.63691 1.14052 -1.54168e-11
-1.01173e-11 -1.54168e-11 -0.0528446

-0.921795 -1.7233 -3.64201e-11
-1.7233 0.382964 -9.92331e-12
-3.64201e-11 -9.92331e-12 -0.353515

-0.926643 1.71659 1.9078e-11
1.71659 0.374129 3.26641e-11
1.9078e-11 3.26641e-11 -0.352746

-0.614765 -1.84943 -3.4879e-11
-1.84943 0.996406 -1.6283e-11
-3.4879e-11 -1.6283e-11 -0.160193

0.0113244 1.6374 -7.36145e-11
1.6374 1.10192 -2.74629e-11
-7.36145e-11 -2.74629e-11 -0.0552868

1.34327 -0.530544 -2.84866e-11
-0.530544 4.4016 3.48842e-11
-2.84866e-11 3.48842e-11 0.641123

1.14678 0.642507 1.89707e-11
0.642507 4.14962 2.26452e-11
1.89707e-11 2.26452e-11 0.552834

4.05854 -0.404089 1.37808e-11
-0.404089 1.87634 1.39958e-11
1.37808e-11 1.39958e-11 0.674955

-0.595747 1.83985 -1.49339e-11
1.83985 0.991382 9.05677e-12
-1.49339e-11 9.05677e-12 -0.155083

0.688265 -0.33019 8.19539e-13
-0.33019 4.5304 -1.38284e-11
8.19539e-13 -1.38284e-11 0.546029

4.28091 -0.319838 4.22556e-11
-0.319838 0.875131 6.58561e-11
4.22556e-11 6.58561e-11 0.544175

-1.19701 -1.68472 2.90972e-11
-1.68472 0.137996 -2.62085e-11
2.90972e-11 -2.62085e-11 -0.539795

-1.19338 1.67507 -7.61119e-12
1.67507 0.129978 5.68446e-12
-7.61119e-12 5.68446e-12 -0.536561

-1.31283 -1.46517 6.48422e-11
-1.46517 0.113466 2.41822e-11
6.48422e-11 2.41822e-11 -0.629309

-1.31334 1.4594 -7.61141e-12
1.4594 0.102366 1.73432e-11
-7.61141e-12 1.73432e-11 -0.628243

2.9045 -1.40636 -2.15005e-11
-1.40636 6.06286 -3.63303e-11
-2.15005e-11 -3.63303e-11 1.461

5.81695 -1.30121 -5.44725e-11
-1.30121 3.02559 3.28373e-11
-5.44725e-11 3.28373e-11 1.43915

-0.369027 1.55348 -2.68815e-11
1.55348 0.786328 3.18924e-11
-2.68815e-11 3.18924e-11 -0.151113

-0.361146 -1.56603 -2.07152e-11
-1.56603 0.808729 -5.8773e-12
-2.07152e-11 -5.8773e-12 -0.148995

-2.35123 -0.252112 -7.38838e-11
-0.252112 -1.75198 4.18155e-11
-7.38838e-11 4.18155e-11 -2.23887

-2.35391 -0.3338 -6.48098e-11
-0.3338 -1.72633 7.13011e-12
-6.48098e-11 7.13011e-12 -2.23916

-1.59844 -1.69251 7.41934e-12
-1.69251 0.488423 -2.39915e-11
7.41934e-12 -2.39915e-11 -0.564428

-1.60489 1.70033 7.99727e-12
1.70033 0.473152 1.55125e-11
7.99727e-12 1.55125e-11 -0.564729

-0.917286 -0.661186 -5.54008e-11
-0.661186 -1.65343 4.03225e-11
-5.54008e-11 4.03225e-11 -1.09675

-0.926715 0.661362 -5.10619e-12
0.661362 -1.64837 1.87828e-12
-5.10619e-12 1.87828e-12 -1.09396

-1.06665 1.40084 3.55534e-11
1.40084 0.318245 -5.78056e-12
3.55534e-11 -5.78056e-12 -0.398924

-1.08976 -1.39513 -3.3721e-12
-1.39513 0.360581 -1.9945e-11
-3.3721e-12 -1.9945e-11 -0.395123

-3.22967 -0.524396 2.13657e-11
-0.524396 -1.16314 5.45337e-11
2.13657e-11 5.45337e-11 -2.64494

-1.43044 -0.955816 1.92697e-11
-0.955816 -1.92275 4.14271e-12
1.92697e-11 4.14271e-12 -1.74368

-2.27165 -0.980124 1.62827e-10
-0.980124 -2.66007 3.71865e-11
1.62827e-10 3.71865e-11 -2.50254

-1.44015 0.961146 1.94624e-11
0.961146 -1.91936 4.18151e-11
1.94624e-11 4.18151e-11 -1.742

-2.2745 0.982494 6.05063e-11
0.982494 -2.65978 -5.45311e-11
6.05063e-11 -5.45311e-11 -2.50075

-3.25585 -0.407005 2.10046e-11
-0.407005 -1.12105 -5.66541e-11
2.10046e-11 -5.66541e-11 -2.63341

-2.37297 -1.07397 1.13688e-11
-1.07397 -2.41323 -8.86472e-12
1.13688e-11 -8.86472e-12 -2.73341

-2.41954 1.11092 9.44271e-12
1.11092 -2.39565 3.60348e-11
9.44271e-12 3.60348e-11 -2.72423

-2.70179 -1.39169 3.68827e-10
-1.39169 -1.92912 -5.18072e-10
3.68827e-10 -5.18072e-10 -2.70732

0.0669321 -1.04211 1.39512e-10
-1.04211 -3.63608 3.91113e-11
1.39512e-10 3.91113e-11 -3.06836

0.0671735 1.04134 8.13165e-11
1.04134 -3.63259 6.85995e-11
8.13165e-11 6.85995e-11 -3.06534

-2.70563 1.39239 -3.87856e-13
1.39239 -1.93147 3.27984e-12
-3.87856e-13 3.27984e-12 -2.70601

-1.57785 -1.47694 -9.0374e-11
-1.47694 -1.63195 -9.92223e-12
-9.0374e-11 -9.92223e-12 -2.01773

-1.41614 -1.18941 -3.17894e-12
-1.18941 -0.231812 -2.46656e-11
-3.17894e-12 -2.46656e-11 -1.03686

-2.79489 -1.1346 -4.29745e-11
-1.1346 -2.80194 1.29203e-10
-4.29745e-11 1.29203e-10 -3.07006

-1.58063 1.47767 -2.56284e-11
1.47767 -1.63884 -1.16582e-11
-2.56284e-11 -1.16582e-11 -2.01701

-2.79586 1.13558 -4.04647e-11
1.13558 -2.80083 7.97745e-11
-4.04647e-11 7.97745e-11 -3.0676

-1.41716 1.1891 9.15329e-12
1.1891 -0.24086 5.7809e-12
9.15329e-12 5.7809e-12 -1.03588

-1.96313 -1.226 -1.43559e-11
-1.226 -0.797927 -3.2951e-11
-1.43559e-11 -3.2951e-11 -1.4292

-1.90765 -0.997831 -1.38738e-11
-0.997831 -1.53119 -3.94054e-11
-1.38738e-11 -3.94054e-11 -1.91534

-1.96319 1.22516 1.3585e-11
1.22516 -0.80423 5.20322e-12
1.3585e-11 5.20322e-12 -1.42741

-1.91269 0.996406 6.53236e-11
0.996406 -1.53766 -8.18896e-12
6.53236e-11 -8.18896e-12 -1.91491

-0.583501 0.804797 -1.59941e-11
0.804797 0.419214 3.23745e-11
-1.59941e-11 3.23745e-11 -0.189734

-1.59868 -0.23204 4.10457e-11
-0.23204 0.859873 1.54203e-12
4.10457e-11 1.54203e-12 -0.241901

0.93132 -0.258335 -1.81148e-11
-0.258335 -1.42172 -1.32965e-11
-1.81148e-11 -1.32965e-11 -0.0126129

1.47073 0.00838648 -1.0599e-11
0.00838648 -0.768052 9.64118e-13
-1.0599e-11 9.64118e-13 0.268098

-1.92085 0.807851 8.0928e-12
0.807851 -0.73386 -2.23537e-11
8.0928e-12 -2.23537e-11 -0.958943

-2.76724 -0.351376 3.58418e-11
-0.351376 0.554724 -1.00209e-11
3.58418e-11 -1.00209e-11 -0.847724

1.39596 0.452973 -8.47955e-12
0.452973 -0.83303 7.9e-12
-8.47955e-12 7.9e-12 0.237505

0.244253 0.577058 4.33676e-12
0.577058 -2.06334 2.11976e-11
4.33676e-12 2.11976e-11 -0.352584

0.564599 1.14763 7.71587e-13
1.14763 2.18173 2.31264e-11
7.71587e-13 2.31264e-11 1.10827

0.875683 1.11153 1.11778e-11
1.11153 2.43914 1.92679e-12
1.11778e-11 1.92679e-12 1.22147

2.38472 0.999789 2.00419e-11
0.999789 0.923572 -2.65951e-11
2.00419e-11 -2.65951e-11 1.26071

-1.23175 0.505967 5.60742e-11
0.505967 0.0927612 -3.39161e-11
5.60742e-11 -3.39161e-11 -0.691664

-1.04629 -0.977756 -1.9848e-11
-0.977756 -0.49928 -3.27512e-12
-1.9848e-11 -3.27512e-12 -0.758186

0.00602478 -1.24147 -2.08124e-11
-1.24147 0.35466 -2.88963e-12
-2.08124e-11 -2.88963e-12 0.0729776

-2.76299 0.421881 -4.04746e-12
0.421881 0.62156 -3.27605e-11
-4.04746e-12 -3.27605e-11 -0.847938

-1.9373 -0.467903 -5.01122e-12
-0.467903 -0.795005 -9.82819e-12
-5.01122e-12 -9.82819e-12 -0.9661

1.31096 0.319062 -5.01079e-12
0.319062 -1.46088 -5.78006e-12
-5.01079e-12 -5.78006e-12 -0.0412466

0.258038 0.529182 2.50623e-12
0.529182 2.4972 -1.07922e-11
2.50623e-12 -1.07922e-11 0.911471

0.621366 0.402506 6.84158e-12
0.402506 2.3506 -1.05992e-11
6.84158e-12 -1.05992e-11 0.910082

2.60027 0.308429 1.44543e-11
0.308429 0.690235 -1.58045e-11
1.44543e-11 -1.58045e-11 1.0314

-0.0221126 1.23764 -7.22601e-12
1.23764 1.38817 -9.25053e-12
-7.22601e-12 -9.25053e-12 0.317097

-0.508486 -0.74211 1.29122e-11
-0.74211 1.32998 2.04276e-11
1.29122e-11 2.04276e-11 0.309586

0.907407 0.713933 6.93649e-12
0.713933 -1.59907 -1.04066e-11
6.93649e-12 -1.04066e-11 -0.0572924

2.11209 0.838959 -2.83313e-11
0.838959 3.32818 -6.01285e-11
-2.83313e-11 -6.01285e-11 2.15916

0.538957 -0.319839 1.19475e-11
-0.319839 -2.36411 6.36077e-12
1.19475e-11 6.36077e-12 -0.308149

-0.960077 0.216144 -5.58824e-12
0.216144 -0.703933 -1.65721e-11
-5.58824e-12 -1.65721e-11 -0.975962

-1.49346 -0.0573526 3.85598e-13
-0.0573526 0.293394 -8.47916e-12
3.85598e-13 -8.47916e-12 -0.908672

-0.11258 1.2544 -3.8459e-13
1.2544 -2.2918 6.93664e-12
-3.8459e-13 6.93664e-12 -2.58723

-0.365409 -0.562009 1.61867e-11
-0.562009 -3.42809 2.63986e-11
1.61867e-11 2.63986e-11 -2.73097

-0.280443 -1.41918 -1.69579e-11
-1.41918 0.382711 -5.39546e-12
-1.69579e-11 -5.39546e-12 0.0307375

-0.180817 -1.19554 3.56508e-11
-1.19554 1.26346 3.84896e-13
3.56508e-11 3.84896e-13 0.299911

2.38847 -0.0139752 2.13924e-11
-0.0139752 0.241898 -1.25238e-11
2.13924e-11 -1.25238e-11 0.927383

-0.0526207 0.774855 3.0448e-11
0.774855 -1.44601 -7.70745e-13
3.0448e-11 -7.70745e-13 -1.01

-0.195785 -0.211182 2.3509e-11
-0.211182 -1.59339 -3.08343e-12
2.3509e-11 -3.08343e-12 -0.962278

0.178348 -0.125576 3.23755e-11
-0.125576 -2.72394 -3.0829e-12
3.23755e-11 -3.0829e-12 -0.42733

-0.514341 -0.906874 -4.75998e-11
-0.906874 0.960021 -4.16248e-11
-4.75998e-11 -4.16248e-11 0.242493

0.325623 0.176572 1.33928e-11
0.176572 -2.72815 -2.17753e-11
1.33928e-11 -2.17753e-11 -0.366055

1.38825 -0.891352 1.54175e-11
-0.891352 0.421155 -1.15691e-12
1.54175e-11 -1.15691e-12 0.509193

-0.160285 1.31125 -1.44533e-11
1.31125 0.722299 -1.23331e-11
-1.44533e-11 -1.23331e-11 0.248363

1.78816 0.973709 -7.51554e-12
0.973709 -0.277673 1.9267e-12
-7.51554e-12 1.9267e-12 0.504403

1.60004 -0.562994 5.7739e-13
-0.562994 -0.291029 2.15844e-11
5.7739e-13 2.15844e-11 0.454782

-0.267352 1.10571 9.44287e-12
1.10571 1.33917 3.85532e-12
9.44287e-12 3.85532e-12 0.342169

-2.04255 -0.822799 6.93751e-12
-0.822799 0.569277 -3.08335e-11
6.93751e-12 -3.08335e-11 -0.234512

-1.33194 1.47071 9.63646e-13
1.47071 0.490473 -5.78482e-13
9.63646e-13 -5.78482e-13 -0.245015

-0.00865885 -1.03595 2.6594e-11
-1.03595 1.29481 -2.1969e-11
2.6594e-11 -2.1969e-11 0.327387

-0.122346 1.35838 2.08126e-11
1.35838 1.35849 -2.62089e-11
2.08126e-11 -2.62089e-11 0.300716

6.33646 -1.14714 1.34927e-12
-1.14714 6.52718 3.73904e-11
1.34927e-12 3.73904e-11 6.49913

6.33027 1.31735 2.35108e-11
1.31735 6.80785 -3.93164e-11
2.35108e-11 -3.93164e-11 6.52818

-2.4439 1.1291 -7.70863e-12
1.1291 0.0925787 -5.39596e-12
-7.70863e-12 -5.39596e-12 -0.643465

-1.68223 -1.31981 3.00618e-11
-1.31981 -0.175434 1.42598e-11
3.00618e-11 1.42598e-11 -0.57776

-0.93613 1.24229 -2.22574e-11
1.24229 0.947874 1.34896e-11
-2.22574e-11 1.34896e-11 -0.0152709

3.92694 0.423696 2.19705e-11
0.423696 3.97616 -1.31053e-11
2.19705e-11 -1.31053e-11 4.3195

3.87323 -0.00716003 1.36831e-11
-0.00716003 4.30313 3.70037e-11
1.36831e-11 3.70037e-11 4.40457

-1.55893 -0.946806 -1.72469e-11
-0.946806 -1.15635 -2.85197e-11
-1.72469e-11 -2.85197e-11 -1.1643

-1.43458 0.460194 3.17479e-11
0.460194 -0.810747 1.59947e-11
3.17479e-11 1.59947e-11 -1.14461

1.54534 -0.0281664 -5.29982e-12
-0.0281664 -1.70667 -2.96762e-11
-5.29982e-12 -2.96762e-11 -0.0469859

-1.55923 -0.882805 1.75859e-11
-0.882805 -1.14284 2.92902e-11
1.75859e-11 2.92902e-11 -1.19404

-1.54069 0.314922 2.38465e-11
0.314922 -1.439 -6.1655e-12
2.38465e-11 -6.1655e-12 -1.30358

-1.39308 -0.781354 2.0427e-11
-0.781354 0.917459 1.61872e-11
2.0427e-11 1.61872e-11 -0.00126767

-0.592757 1.18668 3.08278e-12
1.18668 -1.94142 -1.88839e-11
3.08278e-12 -1.88839e-11 -2.12286

-0.516267 -0.978298 -3.46859e-11
-0.978298 -3.04034 2.69757e-12
-3.46859e-11 2.69757e-12 -2.20785

-0.84077 -0.946822 1.75354e-11
-0.946822 -0.892399 1.30537e-11
1.75354e-11 1.30537e-11 -0.535091

-0.804138 0.719139 1.585e-11
0.719139 -0.730805 -1.23809e-11
1.585e-11 -1.23809e-11 -0.572554

-2.55604 0.0762177 9.63462e-12
0.0762177 0.0524453 5.39527e-12
9.63462e-12 5.39527e-12 -2.02947

-2.68958 0.572111 -2.08117e-11
0.572111 -1.45993 -1.61871e-11
-2.08117e-11 -1.61871e-11 -2.3141

1.96097 0.391872 1.21408e-11
0.391872 3.21335 -3.14142e-11
1.21408e-11 -3.14142e-11 2.1958

3.15069 0.400606 2.98813e-12
0.400606 2.00813 1.81159e-11
2.98813e-12 1.81159e-11 2.20314

-1.30394 1.18034 8.47941e-12
1.18034 0.584624 -1.07916e-11
8.47941e-12 -1.07916e-11 -0.228829

-2.05174 -0.719582 -9.24959e-12
-0.719582 0.736835 -5.47296e-11
-9.24959e-12 -5.47296e-11 -0.252335

-3.16928 -1.55394 2.55558e-10
-1.55394 -1.39801 1.09446e-10
2.55558e-10 1.09446e-10 -3.9444

-2.98984 0.928263 -2.94407e-10
0.928263 -4.56335 4.8145e-12
-2.94407e-10 4.8145e-12 -4.52746

1.05116 1.25055 -2.21639e-11
1.25055 0.310138 9.25223e-12
-2.21639e-11 9.25223e-12 0.42432

0.236029 0.478399 9.39597e-12
0.478399 -1.40651 7.28418e-11
9.39597e-12 7.28418e-11 -0.350809

0.191527 -0.629119 -1.46938e-11
-0.629119 -1.41109 -3.27601e-11
-1.46938e-11 -3.27601e-11 -0.31365

-0.208448 -0.676784 -1.00206e-11
-0.676784 -2.62837 7.12961e-12
-1.00206e-11 7.12961e-12 -0.974882

2.30428 0.286016 1.97539e-11
0.286016 0.193357 7.71008e-12
1.97539e-11 7.71008e-12 0.912838

-0.356332 0.0887139 -1.0021e-11
0.0887139 -3.55273 -6.16568e-12
-1.0021e-11 -6.16568e-12 -3.24673

-0.520528 -0.178158 -1.15546e-12
-0.178158 -1.34005 3.85562e-13
-1.15546e-12 3.85562e-13 -2.9779

0.275157 1.50131 2.0236e-11
1.50131 -0.491751 4.50927e-11
2.0236e-11 4.50927e-11 0.0119443

1.33016 0.39543 -3.2376e-11
0.39543 -0.783704 1.50318e-11
-3.2376e-11 1.50318e-11 0.0704855

1.32428 1.2218 3.46893e-11
1.2218 1.78533 1.44548e-11
3.46893e-11 1.44548e-11 1.04135

-2.42828 -0.697405 -1.15634e-12
-0.697405 -0.230032 8.09438e-12
-1.15634e-12 8.09438e-12 -2.52255

-3.14863 0.436325 6.84074e-11
0.436325 -2.40431 -1.3585e-11
6.84074e-11 -1.3585e-11 -3.01446

-0.0420053 1.26238 4.23813e-12
1.26238 -2.08228 -2.89049e-11
4.23813e-12 -2.89049e-11 -0.952232

-0.635893 -0.396652 1.16581e-11
-0.396652 0.362618 2.62082e-11
1.16581e-11 2.62082e-11 -0.226345

-1.66397 0.279833 -1.65721e-11
0.279833 0.881135 4.39365e-11
-1.65721e-11 4.39365e-11 -0.292284

0.957079 -0.19332 1.64527e-11
-0.19332 -2.1309 6.16604e-12
1.64527e-11 6.16604e-12 -0.282071

1.10101 0.140878 -1.03615e-12
0.140878 -2.21556 -2.31286e-12
-1.03615e-12 -2.31286e-12 -0.284829

1.95659 -0.804443 7.90212e-12
-0.804443 1.45227 8.48055e-12
7.90212e-12 8.48055e-12 1.13389

1.91544 0.040537 1.68624e-12
0.040537 -0.717143 -9.63555e-12
1.68624e-12 -9.63555e-12 0.296363

0.190828 0.159203 -1.48372e-11
0.159203 -2.0825 5.04876e-11
-1.48372e-11 5.04876e-11 -0.653681

-0.0470444 -0.3454 -3.62289e-11
-0.3454 -1.84979 1.3489e-11
-3.62289e-11 1.3489e-11 -0.62211

1.22689 -0.470944 1.4457e-12
-0.470944 -0.941247 -1.50309e-11
1.4457e-12 -1.50309e-11 0.0594797

0.88715 -0.221249 2.21508e-12
-0.221249 -1.55807 -3.16038e-11
2.21508e-12 -3.16038e-11 -0.239617

1.07009 0.0933902 -4.11878e-12
0.0933902 -1.55885 3.60359e-11
-4.11878e-12 3.60359e-11 -0.234363

0.830861 0.994706 1.6574e-11
0.994706 -1.14897 4.70198e-11
1.6574e-11 4.70198e-11 -0.0314608

0.921857 -1.31917 3.91211e-11
-1.31917 0.781334 -1.2717e-11
3.91211e-11 -1.2717e-11 0.561778

-1.35534 1.72046 2.09073e-11
1.72046 0.328477 -2.7942e-11
2.09073e-11 -2.7942e-11 -0.303766

-1.72467 -1.46364 -2.37996e-11
-1.46364 -0.375016 -3.84331e-13
-2.37996e-11 -3.84331e-13 -0.339279

-2.08956 -1.0927 -1.35857e-11
-1.0927 -0.456834 -1.65728e-11
-1.35857e-11 -1.65728e-11 -0.432974

-1.31897 1.81736 -2.25459e-11
1.81736 0.568904 1.61869e-11
-2.25459e-11 1.61869e-11 -0.240712

1.86631 0.629275 2.98735e-12
0.629275 -0.494333 6.3593e-12
2.98735e-12 6.3593e-12 0.403913

2.84713 -0.752928 -1.71534e-11
-0.752928 1.96672 -3.46773e-12
-1.71534e-11 -3.46773e-12 1.92342

0.148648 1.43461 -2.37042e-11
1.43461 -1.35083 -3.46871e-11
-2.37042e-11 -3.46871e-11 -0.343953

0.917787 -0.479895 1.15639e-11
-0.479895 -0.9407 1.52226e-11
1.15639e-11 1.52226e-11 0.048815

2.93207 -0.58549 -7.70795e-12
-0.58549 1.73475 -1.86929e-11
-7.70795e-12 -1.86929e-11 1.86932

0.309078 -1.16486 -9.2516e-12
-1.16486 -0.391992 1.02133e-11
-9.2516e-12 1.02133e-11 0.0240646

-2.28108 0.00777837 9.63484e-12
0.00777837 1.12846 2.1198e-11
9.63484e-12 2.1198e-11 -0.303892

-1.54818 0.180633 4.2398e-12
0.180633 0.176631 1.88857e-11
4.2398e-12 1.88857e-11 -0.397906

0.59186 1.49268 4.81672e-12
1.49268 0.640973 -5.00894e-12
4.81672e-12 -5.00894e-12 0.44922

2.24928 -0.865215 -1.63961e-12
-0.865215 0.777546 4.39395e-11
-1.63961e-12 4.39395e-11 1.16541

-1.15872 1.59234 5.20289e-12
1.59234 -0.672564 1.19476e-11
5.20289e-12 1.19476e-11 -0.367282

-1.07849 -1.52642 3.75776e-11
-1.52642 -0.0286115 -1.93484e-13
3.75776e-11 -1.93484e-13 -0.285879

0.406852 -1.12553 -6.64852e-12
-1.12553 1.33566 5.39487e-12
-6.64852e-12 5.39487e-12 0.564339

0.672807 -1.24191 4.37456e-11
-1.24191 1.32958 -9.63748e-13
4.37456e-11 -9.63748e-13 0.57963

0.817764 1.15886 -1.92601e-12
1.15886 -0.877578 4.89478e-11
-1.92601e-12 4.89478e-11 -0.00695893

0.300697 0.71449 -1.34902e-11
0.71449 -3.3185 -1.6572e-11
-1.34902e-11 -1.6572e-11 -0.741623

0.354612 -0.487203 -1.2333e-11
-0.487203 -3.61806 1.69576e-11
-1.2333e-11 1.69576e-11 -0.720249

-0.278508 0.921074 2.54378e-11
0.921074 1.69974 1.05986e-11
2.54378e-11 1.05986e-11 0.369108

0.289167 1.41669 3.04473e-11
1.41669 0.0159186 3.08416e-12
3.04473e-11 3.08416e-12 0.119452

-0.202514 0.133215 4.04864e-12
0.133215 2.64577 -5.78126e-12
4.04864e-12 -5.78126e-12 0.962506

0.16712 0.0733876 -1.61885e-11
0.0733876 2.58309 -4.04739e-12
-1.61885e-11 -4.04739e-12 0.98765

2.82901 0.060092 -7.12811e-12
0.060092 0.154799 1.65726e-11
-7.12811e-12 1.65726e-11 1.09863

0.926461 -1.06394 1.78274e-11
-1.06394 0.18169 6.16403e-12
1.78274e-11 6.16403e-12 0.41883

-4.31315 -0.734313 -9.07596e-11
-0.734313 -2.95691 1.60926e-11
-9.07596e-11 1.60926e-11 -4.14214

-0.387641 0.377799 -7.41868e-11
0.377799 -0.376524 -1.65725e-11
-7.41868e-11 -1.65725e-11 -2.95622

1.54868 1.27733 -2.54376e-11
1.27733 -0.0897387 2.96785e-11
-2.54376e-11 2.96785e-11 0.519903

1.8148 -0.531953 6.84153e-12
-0.531953 -0.595562 -2.27394e-11
6.84153e-12 -2.27394e-11 0.378581

2.70812 0.896689 1.38776e-11
0.896689 1.38124 -3.66162e-11
1.38776e-11 -3.66162e-11 1.70985

-1.56351 -0.931202 1.7151e-11
-0.931202 0.336978 1.58012e-11
1.7151e-11 1.58012e-11 -0.131983

-0.840683 1.68829 -1.87874e-11
1.68829 0.874238 3.87343e-11
-1.87874e-11 3.87343e-11 -0.0275022

1.56862 -0.0249657 7.17892e-12
-0.0249657 -1.69675 5.01033e-12
7.17892e-12 5.01033e-12 -0.0318184

-0.838611 0.848648 1.98508e-11
0.848648 1.5944 5.39683e-12
1.98508e-11 5.39683e-12 0.308015

-2.83252 -1.12974 -1.63794e-11
-1.12974 0.096716 -1.23331e-11
-1.63794e-11 -1.23331e-11 -0.653885

-1.74876 1.58608 5.10669e-12
1.58608 0.0588759 3.08351e-12
5.10669e-12 3.08351e-12 -0.555814

1.34126 0.993239 1.33941e-11
0.993239 1.93894 1.58032e-11
1.33941e-11 1.58032e-11 1.05464

1.933 1.04704 -2.98839e-12
1.04704 1.75025 1.32971e-11
-2.98839e-12 1.32971e-11 1.16396

2.72129 0.804858 -5.01052e-11
0.804858 1.39058 3.93175e-11
-5.01052e-11 3.93175e-11 1.69457

-1.4627 1.74385 4.96127e-12
1.74385 0.72422 -1.40678e-11
4.96127e-12 -1.40678e-11 -0.244885

-2.12512 -1.25975 -2.74609e-11
-1.25975 -0.853501 -1.15543e-12
-2.74609e-11 -1.15543e-12 -0.480366

1.39028 0.0502669 -2.48117e-11
0.0502669 -2.44824 -3.89253e-11
-2.48117e-11 -3.89253e-11 -0.230304

-1.70262 1.19041 1.11776e-11
1.19041 -0.890173 2.85208e-11
1.11776e-11 2.85208e-11 -0.488332

-1.31891 -1.48523 1.44524e-11
-1.48523 0.399775 1.79214e-11
1.44524e-11 1.79214e-11 -0.24361

-0.59993 1.44 -5.01057e-12
1.44 -0.324062 -2.62087e-11
-5.01057e-12 -2.62087e-11 -0.162859

0.084154 -0.311574 7.90252e-12
-0.311574 2.3378 1.50318e-11
7.90252e-12 1.50318e-11 0.802922

0.493925 -0.413689 -2.42814e-11
-0.413689 2.29081 -2.44762e-11
-2.42814e-11 -2.44762e-11 0.818468

2.32162 -0.253887 -4.43164e-12
-0.253887 0.4536 -8.47997e-12
-4.43164e-12 -8.47997e-12 0.880888

0.656397 -0.878718 1.33939e-11
-0.878718 0.640392 5.47296e-11
1.33939e-11 5.47296e-11 0.428115

-0.164473 0.152943 1.19482e-11
0.152943 1.3513 -8.86446e-12
1.19482e-11 -8.86446e-12 0.233186

-1.05288 0.050639 8.67235e-12
0.050639 1.64198 5.1262e-11
8.67235e-12 5.1262e-11 0.178622

1.22805 -0.9843 -9.25203e-12
-0.9843 2.21896 3.25698e-11
-9.25203e-12 3.25698e-11 1.21623

1.15024 -0.936033 -1.99461e-11
-0.936033 1.95562 2.38971e-11
-1.99461e-11 2.38971e-11 1.18941

1.45694 -0.0564126 -1.32971e-11
-0.0564126 -2.32198 -5.58838e-12
-1.32971e-11 -5.58838e-12 -0.228286

1.31229 0.0622903 2.60156e-11
0.0622903 -2.22717 1.15595e-12
2.60156e-11 1.15595e-12 -0.228859

-1.24572 -1.16359 4.43199e-12
-1.16359 -0.11516 -2.35106e-11
4.43199e-12 -2.35106e-11 -0.163483

-0.918711 1.52939 4.37438e-11
1.52939 0.833647 -1.3484e-12
4.37438e-11 -1.3484e-12 -0.0666298

-2.74101 0.986899 1.29116e-11
0.986899 0.0266697 3.12183e-11
1.29116e-11 3.12183e-11 -0.623981

-1.64094 -1.45119 1.9463e-11
-1.45119 0.0411134 9.24956e-12
1.9463e-11 9.24956e-12 -0.465724

-0.511119 -1.16051 -1.02137e-11
-1.16051 -0.694317 1.48392e-11
-1.02137e-11 1.48392e-11 -0.324357

-0.812171 -0.608774 -8.67094e-12
-0.608774 1.73816 6.1667e-12
-8.67094e-12 6.1667e-12 0.351234

-0.630961 0.180504 2.05713e-11
0.180504 -1.24109 -2.68816e-11
2.05713e-11 -2.68816e-11 -0.799229

-0.850927 -0.579629 8.5027e-12
-0.579629 -1.46174 1.54246e-12
8.5027e-12 1.54246e-12 -0.829718

0.451178 -0.89498 2.37037e-11
-0.89498 -0.231608 -1.54262e-12
2.37037e-11 -1.54262e-12 0.0915544

0.162796 -0.759712 2.79406e-12
-0.759712 -0.846668 2.00413e-11
2.79406e-12 2.00413e-11 -0.213434

0.308361 0.63883 -4.83317e-14
0.63883 -0.420536 -2.69766e-12
-4.83317e-14 -2.69766e-12 -0.171772

3.52337 -0.350442 1.34901e-11
-0.350442 2.26632 -1.15685e-12
1.34901e-11 -1.15685e-12 3.99455

0.61394 1.50933 2.4668e-11
1.50933 1.21135 -1.13698e-11
2.4668e-11 -1.13698e-11 0.500885

2.73059 0.722836 2.56323e-11
0.722836 3.70169 -2.81399e-11
2.56323e-11 -2.81399e-11 4.07192

-0.312914 -0.812891 -5.22252e-11
-0.812891 1.63279 -1.38762e-11
-5.22252e-11 -1.38762e-11 0.364302

-2.34535 -0.797323 5.64254e-11
-0.797323 -1.43652 1.00589e-10
5.64254e-11 1.00589e-10 -2.20163

-1.87803 0.318357 1.91861e-11
0.318357 -2.22161 1.96544e-11
1.91861e-11 1.96544e-11 -2.28945

0.566424 0.981253 -1.52235e-11
0.981253 0.163822 2.35112e-11
-1.52235e-11 2.35112e-11 0.115716

1.89253 -0.0536937 9.10764e-12
-0.0536937 -0.811164 4.2392e-12
9.10764e-12 4.2392e-12 0.2837

1.2384 1.22378 -9.72555e-14
1.22378 0.299605 -2.06208e-11
-9.72555e-14 -2.06208e-11 0.467719

-2.00186 0.593614 -1.9463e-11
0.593614 0.9787 1.54165e-11
-1.9463e-11 1.54165e-11 -0.243806

-1.32212 -0.820634 -2.17761e-11
-0.820634 0.312516 2.04283e-11
-2.17761e-11 2.04283e-11 -0.296349

-1.16227 1.36117 -1.638e-11
1.36117 -0.421819 -1.77293e-11
-1.638e-11 -1.77293e-11 -0.798732

-1.20859 -0.753219 1.29105e-11
-0.753219 -0.130195 4.80828e-13
1.29105e-11 4.80828e-13 -0.723234

-1.5091 1.85195 1.63758e-12
1.85195 0.550399 -1.04061e-11
1.63758e-12 -1.04061e-11 -0.260777

-2.89016 -1.75496 -2.00414e-11
-1.75496 -0.448863 -1.58016e-11
-2.00414e-11 -1.58016e-11 -0.51706

-1.28034 0.958776 1.02133e-11
0.958776 0.830228 -2.38965e-11
1.02133e-11 -2.38965e-11 -0.0182327

-0.81198 0.486063 3.55551e-11
0.486063 1.30534 1.38746e-11
3.55551e-11 1.38746e-11 0.115386

-0.430354 -1.0754 -1.87895e-11
-1.0754 -0.604076 3.43029e-11
-1.87895e-11 3.43029e-11 -0.204716

-0.383795 1.13667 -6.00279e-11
1.13667 -0.271051 1.15661e-12
-6.00279e-11 1.15661e-12 -0.220218

0.929375 1.15903 -2.04271e-11
1.15903 1.01969 3.6615e-11
-2.04271e-11 3.6615e-11 0.487326

-0.945186 -1.13913 9.8275e-12
-1.13913 0.835396 1.17555e-11
9.8275e-12 1.17555e-11 -0.0193724

-1.29584 -0.201815 3.05446e-11
-0.201815 1.67674 3.19905e-11
3.05446e-11 3.19905e-11 0.169416

3.28678 0.818538 4.70241e-11
0.818538 3.85566 -2.11997e-11
4.70241e-11 -2.11997e-11 3.21423

3.75418 0.847124 4.24001e-11
0.847124 3.31484 -8.86509e-12
4.24001e-11 -8.86509e-12 3.19818

1.48498 -0.983469 -1.29119e-11
-0.983469 1.81267 1.90794e-11
-1.29119e-11 1.90794e-11 1.11783

1.23326 -0.368725 -2.55834e-11
-0.368725 -1.45741 1.65734e-11
-2.55834e-11 1.65734e-11 -0.0368456

-2.97317 -1.2367 9.62137e-11
-1.2367 -2.27084 -2.8133e-11
9.62137e-11 -2.8133e-11 -3.71374

-1.9376 1.28607 -1.59759e-10
1.28607 -3.81905 3.56461e-11
-1.59759e-10 3.56461e-11 -3.81582

-1.09881 1.25615 4.58626e-11
1.25615 -1.07536 5.27992e-11
4.58626e-11 5.27992e-11 -1.66279

-1.69777 -0.328618 -4.23976e-12
-0.328618 -2.38622 2.11975e-11
-4.23976e-12 2.11975e-11 -1.93252

0.689169 -0.0135851 2.83276e-11
-0.0135851 -1.79591 -4.23864e-12
2.83276e-11 -4.23864e-12 -0.112963

-1.41412 -1.64591 9.24938e-12
-1.64591 0.371936 2.56297e-11
9.24938e-12 2.56297e-11 -0.227064

-2.59005 1.71885 3.27656e-12
1.71885 -0.503328 1.92705e-11
3.27656e-12 1.92705e-11 -0.515375

2.6399 -0.798984 -2.79444e-11
-0.798984 3.02181 5.01184e-12
-2.79444e-11 5.01184e-12 2.48852

2.62251 1.03002 -2.23554e-11
1.03002 2.64107 -5.78134e-12
-2.23554e-11 -5.78134e-12 2.41741

1.42153 -0.371944 -3.27605e-12
-0.371944 3.08939 -3.39178e-11
-3.27605e-12 -3.39178e-11 1.94171

1.65942 -0.458308 -2.96793e-11
-0.458308 3.0438 2.58241e-11
-2.96793e-11 2.58241e-11 1.86456

3.20823 -0.320169 3.08348e-11
-0.320169 1.53527 -1.05038e-11
3.08348e-11 -1.05038e-11 1.95014

1.44488 1.21212 2.64023e-11
1.21212 1.21225 1.00199e-11
2.64023e-11 1.00199e-11 0.990306

1.61272 0.361088 9.24931e-12
0.361088 3.65843 -4.62551e-11
9.24931e-12 -4.62551e-11 2.43991

3.50404 0.0794856 -2.38964e-11
0.0794856 1.64707 -2.02341e-11
-2.38964e-11 -2.02341e-11 2.39122

-1.76964 -0.144877 2.21599e-11
-0.144877 0.170831 9.63481e-12
2.21599e-11 9.63481e-12 -1.31607

-1.84303 -0.529015 -7.70727e-12
-0.529015 -1.15527 5.66549e-11
-7.70727e-12 5.66549e-11 -1.53672

0.451656 -0.409274 2.56285e-11
-0.409274 -1.29146 1.25254e-11
2.56285e-11 1.25254e-11 -0.233421

0.375743 0.182011 -2.69765e-12
0.182011 -3.75923 -4.81718e-12
-2.69765e-12 -4.81718e-12 -0.535522

0.34789 -0.800177 -7.32346e-12
-0.800177 1.99332 8.67269e-12
-7.32346e-12 8.67269e-12 0.795425

0.176117 -0.575304 -2.63066e-11
-0.575304 1.89834 -6.35969e-11
-2.63066e-11 -6.35969e-11 0.775244

0.848387 0.383934 8.28719e-12
0.383934 -1.70961 -2.87133e-11
8.28719e-12 -2.87133e-11 -0.0656657

-1.60755 -0.380248 1.93192e-11
-0.380248 -1.36546 4.35488e-11
1.93192e-11 4.35488e-11 -1.53036

-1.13512 -0.00769819 -2.66896e-11
-0.00769819 -1.77363 -1.61872e-11
-2.66896e-11 -1.61872e-11 -1.55299

-0.179499 -0.808941 7.70822e-12
-0.808941 -0.487844 3.43021e-11
7.70822e-12 3.43021e-11 -0.25497

-0.711236 1.34072 3.85358e-13
1.34072 -0.185769 7.7075e-12
3.85358e-13 7.7075e-12 -0.115348

-0.86897 -1.41115 2.15831e-11
-1.41115 0.644189 1.52236e-11
2.15831e-11 1.52236e-11 -0.0566415

0.565127 -0.364367 2.92935e-11
-0.364367 -2.12813 -1.59948e-11
2.92935e-11 -1.59948e-11 -0.30073

-1.32324 1.12544 1.69587e-11
1.12544 0.213842 -1.54119e-12
1.69587e-11 -1.54119e-12 -0.140716

-0.79903 -1.49577 2.44726e-11
-1.49577 0.61131 3.33389e-11
2.44726e-11 3.33389e-11 -0.0437239

6.63865 -1.67102 -7.51439e-12
-1.67102 6.76033 -5.85895e-11
-7.51439e-12 -5.85895e-11 6.84389

-1.22163 0.357434 1.15623e-11
0.357434 1.67621 2.81359e-11
1.15623e-11 2.81359e-11 0.176216

-0.667924 -0.325347 -4.22033e-11
-0.325347 1.20361 7.70421e-13
-4.22033e-11 7.70421e-13 0.131876

-2.40219 0.176414 1.40669e-11
0.176414 0.609493 5.78119e-12
1.40669e-11 5.78119e-12 -1.53944

-2.14092 -0.0202988 -2.11959e-12
-0.0202988 -1.6592 -3.2952e-11
-2.11959e-12 -3.2952e-11 -1.87656

0.681368 -0.0692323 1.21886e-11
-0.0692323 -2.34005 2.19677e-11
1.21886e-11 2.19677e-11 -0.49051

0.931203 0.110017 -5.87743e-12
0.110017 -2.52999 1.5994e-11
-5.87743e-12 1.5994e-11 -0.497227

-0.487579 1.61125 -2.31269e-12
1.61125 -1.29583 -1.31042e-11
-2.31269e-12 -1.31042e-11 -0.745746

-0.840047 -0.918256 4.54781e-11
-0.918256 -1.48589 3.46911e-12
4.54781e-11 3.46911e-12 -0.793574

-0.242954 0.589092 7.93919e-11
0.589092 -1.08145 4.0457e-12
7.93919e-11 4.0457e-12 -1.23481

-1.00647 -0.320909 -1.15622e-11
-0.320909 -1.09331 3.08396e-12
-1.15622e-11 3.08396e-12 -1.32088

-2.45639 0.671937 8.47262e-11
0.671937 -3.11296 -2.29306e-11
8.47262e-11 -2.29306e-11 -3.26118

-2.28341 -1.90491 -1.69353e-11
-1.90491 -1.44283 2.31234e-11
-1.69353e-11 2.31234e-11 -2.88173

-1.6469 1.67842 2.00896e-11
1.67842 0.0817365 1.98492e-11
2.00896e-11 1.98492e-11 -0.533275

-2.39643 -2.07531 -1.60917e-11
-2.07531 -1.00941 -3.58425e-11
-1.60917e-11 -3.58425e-11 -0.697139

0.697883 0.89474 5.29935e-12
0.89474 -0.571959 2.13909e-11
5.29935e-12 2.13909e-11 0.0129383

-1.23941 0.712664 -9.44233e-12
0.712664 1.07144 -1.157e-12
-9.44233e-12 -1.157e-12 0.0139701

0.0434819 -1.16 7.13083e-12
-1.16 0.0077245 -1.77297e-11
7.13083e-12 -1.77297e-11 0.102367

-0.430662 -0.892874 -3.87336e-11
-0.892874 0.988981 -2.60164e-11
-3.87336e-11 -2.60164e-11 0.0939378

0.600746 -0.834285 3.51696e-11
-0.834285 -0.699401 -1.27203e-11
3.51696e-11 -1.27203e-11 0.0213688

-0.446675 0.99277 7.22511e-12
0.99277 1.09207 -4.91407e-11
7.22511e-12 -4.91407e-11 0.0979914

0.276833 1.40868 3.95077e-12
1.40868 0.349156 1.04058e-11
3.95077e-12 1.04058e-11 0.132602

-1.74561 1.86471 -5.20254e-12
1.86471 -0.935685 -1.92792e-12
-5.20254e-12 -1.92792e-12 -0.672609

-1.43799 -1.38802 -3.71923e-11
-1.38802 -0.265936 3.48801e-11
-3.71923e-11 3.48801e-11 -0.523725

0.504545 0.849518 -2.31383e-12
0.849518 -1.29011 -4.54772e-11
-2.31383e-12 -4.54772e-11 -0.31137

-0.449044 0.629467 7.4767e-11
0.629467 -0.807049 -1.57282e-15
7.4767e-11 -1.57282e-15 -3.07332

-4.25685 0.601382 -8.53646e-11
0.601382 -3.81864 -1.06178e-10
-8.53646e-11 -1.06178e-10 -4.31249

-0.0254134 -0.858764 8.47787e-12
-0.858764 -1.26497 -1.92692e-11
8.47787e-12 -1.92692e-11 -0.313248

0.0575678 0.0569852 -2.31241e-11
0.0569852 -2.30318 3.8529e-12
-2.31241e-11 3.8529e-12 -0.905319

3.08504 -0.729123 7.90011e-12
-0.729123 3.64908 -1.54179e-11
7.90011e-12 -1.54179e-11 3.03448

3.53517 -0.600022 3.98937e-11
-0.600022 2.92446 3.47858e-11
3.98937e-11 3.47858e-11 2.92356

0.206195 0.0682079 2.00413e-11
0.0682079 -2.1531 6.55126e-12
2.00413e-11 6.55126e-12 -0.687031

0.620185 -0.101287 1.33933e-11
-0.101287 -2.34876 2.56287e-11
1.33933e-11 2.56287e-11 -0.668739

0.133527 0.172339 -6.16741e-12
0.172339 -1.35796 -1.54163e-11
-6.16741e-12 -1.54163e-11 -0.812971

-1.24342 -0.522517 1.46846e-12
-0.522517 1.15047 1.15667e-12
1.46846e-12 1.15667e-12 0.045107

1.74793 0.694094 1.54178e-11
0.694094 0.235 1.6187e-11
1.54178e-11 1.6187e-11 0.484506

-0.93706 -1.08445 1.01622e-11
-1.08445 -0.896683 -1.42615e-11
1.01622e-11 -1.42615e-11 -0.536909

-0.777695 0.896529 1.55613e-11
0.896529 -0.111728 5.97427e-12
1.55613e-11 5.97427e-12 -0.451407

-1.21857 0.107889 -3.43012e-11
0.107889 -0.142797 1.24357e-11
-3.43012e-11 1.24357e-11 -3.10059

-2.36892 1.02474 3.27575e-11
1.02474 -4.67045 -3.68668e-11
3.27575e-11 -3.68668e-11 -4.10273

0.751041 -0.679632 -3.75793e-11
-0.679632 -0.617738 -3.08277e-12
-3.75793e-11 -3.08277e-12 0.0493104

-0.0412377 -0.0328151 9.3713e-12
-0.0328151 -1.43746 -3.46859e-11
9.3713e-12 -3.46859e-11 -0.736379

-0.279074 -0.239303 -2.5125e-11
-0.239303 -1.19692 -5.66531e-11
-2.5125e-11 -5.66531e-11 -0.694637

-0.852948 -1.23297 2.75562e-11
-1.23297 0.351795 9.0572e-12
2.75562e-11 9.0572e-12 -0.200105

-1.60222 0.637411 -3.14104e-11
0.637411 0.315523 3.35309e-11
-3.14104e-11 3.35309e-11 -0.290007

-1.93549 1.17918 1.77289e-11
1.17918 -0.56984 1.11773e-11
1.77289e-11 1.11773e-11 -0.420875

-1.30703 -1.67043 1.48385e-11
-1.67043 0.418386 -5.5884e-12
1.48385e-11 -5.5884e-12 -0.208946

7.06887 2.13193 -1.46452e-11
2.13193 6.87126 5.04943e-11
-1.46452e-11 5.04943e-11 6.96918

-1.59518 1.22386 3.00609e-11
1.22386 -0.490075 1.88852e-11
3.00609e-11 1.88852e-11 -0.822485

-1.51885 -0.93788 -2.9676e-11
-0.93788 -0.317224 1.86931e-11
-2.9676e-11 1.86931e-11 -0.753549

-1.85125 1.11755 -2.50475e-12
1.11755 0.129064 3.46904e-12
-2.50475e-12 3.46904e-12 -0.280938

-1.33999 -1.41129 8.67162e-12
-1.41129 0.372801 6.55183e-12
8.67162e-12 6.55183e-12 -0.225185

1.65891 -0.662952 -9.6367e-12
-0.662952 -0.0716959 7.70789e-12
-9.6367e-12 7.70789e-12 0.431317

-0.0251685 1.20738 -5.20307e-11
1.20738 -0.778748 -4.62495e-11
-5.20307e-11 -4.62495e-11 -0.316406

-0.267105 1.29466 -2.35103e-11
1.29466 -1.20149 2.23522e-11
-2.35103e-11 2.23522e-11 -0.636144

-0.783628 -0.856606 2.37027e-11
-0.856606 -0.802301 -5.41492e-11
2.37027e-11 -5.41492e-11 -0.642553

0.619121 0.813014 7.90161e-12
0.813014 -2.26943 2.11962e-11
7.90161e-12 2.11962e-11 -0.375435

-0.544293 0.159064 1.7511e-11
0.159064 -1.47395 -9.32668e-11
1.7511e-11 -9.32668e-11 -1.05972

-0.22319 -0.232923 -1.62951e-11
-0.232923 -2.01473 1.02129e-11
-1.62951e-11 1.02129e-11 -1.13068

-3.36135 0.274719 -5.33761e-11
0.274719 -1.64167 4.25865e-11
-5.33761e-11 4.25865e-11 -3.19337

-2.83622 -0.43407 -1.4066e-11
-0.43407 0.0782174 -3.00591e-11
-1.4066e-11 -3.00591e-11 -2.85305

4.10432 -0.200616 1.50337e-11
-0.200616 2.84401 -2.08147e-11
1.50337e-11 -2.08147e-11 4.17689

2.3963 -0.0422149 9.65376e-13
-0.0422149 4.08293 -1.15589e-12
9.65376e-13 -1.15589e-12 4.1199

-1.14169 1.3968 -4.53323e-11
1.3968 0.519201 3.19895e-11
-4.53323e-11 3.19895e-11 -0.293494

-1.39307 -1.20229 -1.29602e-11
-1.20229 -0.619397 8.86412e-12
-1.29602e-11 8.86412e-12 -0.415846

4.38101 0.749516 -1.00213e-11
0.749516 4.30698 3.85501e-12
-1.00213e-11 3.85501e-12 4.82348

4.404 0.969128 1.58045e-11
0.969128 4.01357 7.16929e-11
1.58045e-11 7.16929e-11 4.6939

-6.20785 -1.538 3.62805e-11
-1.538 -1.32038 -1.45683e-10
3.62805e-11 -1.45683e-10 -4.31877

-4.48318 1.1508 1.55204e-10
1.1508 -2.1173 -2.25653e-10
1.55204e-10 -2.25653e-10 -4.13914

-0.164586 1.46831 -5.43438e-11
1.46831 -0.81025 -4.66368e-11
-5.43438e-11 -4.66368e-11 -0.264584

-1.09849 1.33739 -7.37568e-11
1.33739 -0.108352 4.23846e-12
-7.37568e-11 4.23846e-12 -0.403956

-1.14771 -1.33962 -1.81615e-11
-1.33962 -0.628146 -8.86507e-12
-1.81615e-11 -8.86507e-12 -0.390417

-0.0667064 1.34991 3.35299e-11
1.34991 0.638581 -4.85624e-11
3.35299e-11 -4.85624e-11 0.105272

-0.245259 -1.07717 1.48382e-11
-1.07717 0.385837 -3.93126e-11
1.48382e-11 -3.93126e-11 0.124631

1.36144 -0.170698 -2.12053e-12
-0.170698 3.03824 -3.7388e-11
-2.12053e-12 -3.7388e-11 1.86686

1.55747 -0.347183 -5.59079e-12
-0.347183 2.99556 4.12415e-11
-5.59079e-12 4.12415e-11 1.8109

3.18015 -0.147042 3.85449e-11
-0.147042 1.59617 -1.34898e-11
3.85449e-11 -1.34898e-11 1.91851

-0.693821 1.55658 3.24718e-11
1.55658 0.523613 9.05761e-12
3.24718e-11 9.05761e-12 -0.0862911

-0.943537 -1.20668 -4.91509e-12
-1.20668 0.0235626 -4.62523e-12
-4.91509e-12 -4.62523e-12 -0.108841

2.01392 0.240628 3.85424e-12
0.240628 3.673 2.83304e-11
3.85424e-12 2.83304e-11 2.51823

3.66074 0.372025 1.19499e-11
0.372025 2.0798 2.69889e-12
1.19499e-11 2.69889e-12 2.55515

-1.52269 -1.54441 4.4334e-12
-1.54441 -1.12986 4.81769e-11
4.4334e-12 4.81769e-11 -0.726723

-1.45971 1.27177 4.7358e-11
1.27177 -0.260428 6.20515e-11
4.7358e-11 6.20515e-11 -0.680322

-1.54514 -1.36592 1.26699e-11
-1.36592 -0.638552 -5.66549e-11
1.26699e-11 -5.66549e-11 -0.753283

-1.51253 1.01465 9.92447e-12
1.01465 -0.39395 1.73432e-11
9.92447e-12 1.73432e-11 -0.801826

4.34027 -0.633961 -4.04728e-12
-0.633961 4.47771 -2.79462e-11
-4.04728e-12 -2.79462e-11 4.91414

4.3314 -0.637648 8.96346e-12
-0.637648 4.46894 1.77309e-11
8.96346e-12 1.77309e-11 4.93166

-0.455121 1.23001 -5.82918e-11
1.23001 0.412687 1.29113e-11
-5.82918e-11 1.29113e-11 -0.103259

-0.572124 -1.12692 -2.29317e-11
-1.12692 -0.315799 -4.23826e-12
-2.29317e-11 -4.23826e-12 -0.152399

-1.98556 0.323026 -5.35693e-11
0.323026 -0.548775 1.02141e-11
-5.35693e-11 1.02141e-11 -1.97125

-2.34701 -0.183323 -4.54775e-11
-0.183323 -2.07346 3.35297e-11
-4.54775e-11 3.35297e-11 -2.26531

-2.28422 -1.41717 3.10728e-11
-1.41717 -0.370654 3.16023e-11
3.10728e-11 3.16023e-11 -0.764562

-1.86148 1.33182 1.22371e-11
1.33182 0.108239 2.06197e-11
1.22371e-11 2.06197e-11 -0.739534

-1.37506 -0.29593 8.2644e-11
-0.29593 -2.21886 -8.51757e-11
8.2644e-11 -8.51757e-11 -1.45559

-0.897093 0.0260677 -2.63758e-11
0.0260677 -2.4834 -9.82749e-12
-2.63758e-11 -9.82749e-12 -1.44536

-0.967669 1.31109 1.88847e-11
1.31109 -0.706023 3.12198e-11
1.88847e-11 3.12198e-11 -0.439293

-0.846209 -1.28808 -1.32958e-11
-1.28808 -0.0684956 -4.56712e-11
-1.32958e-11 -4.56712e-11 -0.309686

-1.44811 0.397554 1.9198e-11
0.397554 -2.86512 1.42162e-11
1.9198e-11 1.42162e-11 -2.43361

-2.66409 0.117147 1.12753e-10
0.117147 -3.38085 -1.92697e-11
1.12753e-10 -1.92697e-11 -3.36447

-2.11264 -0.358736 -3.88291e-11
-0.358736 -2.45756 -3.69235e-11
-3.88291e-11 -3.69235e-11 -2.46456

-3.96146 -0.0461948 1.10403e-10
-0.0461948 -2.39455 1.74586e-10
1.10403e-10 1.74586e-10 -3.41201

-2.97362 0.229815 4.04785e-12
0.229815 0.0532129 3.85398e-12
4.04785e-12 3.85398e-12 -2.41

-0.830044 1.30344 -6.39771e-11
1.30344 -1.78731 -3.50714e-11
-6.39771e-11 -3.50714e-11 -2.36414

-2.02806 -0.510327 -1.5801e-11
-0.510327 -2.72175 -1.59942e-11
-1.5801e-11 -1.59942e-11 -2.69947

-3.23643 -0.306831 2.02333e-11
-0.306831 -1.42888 -5.31853e-11
2.02333e-11 -5.31853e-11 -2.66954

-3.69633 0.763277 2.31002e-10
0.763277 -2.8018 2.00407e-10
2.31002e-10 2.00407e-10 -3.53404

0.690905 0.776327 -9.60795e-10
0.776327 -5.61668 4.97483e-10
-9.60795e-10 4.97483e-10 -3.98402

0.0568501 -0.510045 1.4346e-10
-0.510045 -0.310043 1.65326e-10
1.4346e-10 1.65326e-10 -3.07561

-2.6596 -1.75447 3.23713e-10
-1.75447 -1.15738 -1.5688e-10
3.23713e-10 -1.5688e-10 -2.96687

-2.20112 0.989523 1.9126e-11
0.989523 -2.26984 4.89455e-11
1.9126e-11 4.89455e-11 -2.62935

-1.75457 0.717142 -2.7845e-11
0.717142 -0.638405 5.78103e-12
-2.7845e-11 5.78103e-12 -1.36166

-3.3536 0.2102 6.16155e-11
0.2102 -3.67279 -9.05682e-11
6.16155e-11 -9.05682e-11 -3.89415

-1.48411 -1.63665 -1.67645e-11
-1.63665 -2.03964 3.6998e-11
-1.67645e-11 3.6998e-11 -2.38451

-2.76334 -1.87887 -5.23018e-11
-1.87887 -1.12918 -1.73415e-11
-5.23018e-11 -1.73415e-11 -3.27308

-1.62383 -0.916719 1.78239e-12
-0.916719 -1.07379 2.35092e-11
1.78239e-12 2.35092e-11 -1.3193

-1.91027 -1.53196 -5.15508e-12
-1.53196 -1.00358 -5.74247e-11
-5.15508e-12 -5.74247e-11 -1.62993

-2.71131 -1.01804 -4.7934e-11
-1.01804 -1.74342 -1.46452e-11
-4.7934e-11 -1.46452e-11 -2.47988

-2.36025 0.640896 -5.46782e-11
0.640896 -1.43537 -1.73417e-12
-5.46782e-11 -1.73417e-12 -1.8645

-2.12499 0.382985 5.63637e-11
0.382985 -2.19492 -7.30341e-11
5.63637e-11 -7.30341e-11 -2.47991

-0.0111836 1.09016 -3.85246e-12
1.09016 1.01496 1.89807e-11
-3.85246e-12 1.89807e-11 0.334394

-0.89883 0.548457 -1.07914e-11
0.548457 0.533037 -7.12856e-12
-1.07914e-11 -7.12856e-12 -0.190987

-1.29227 0.468424 2.37025e-11
0.468424 0.328363 -2.59194e-11
2.37025e-11 -2.59194e-11 -0.261133

1.15232 0.619096 9.2503e-12
0.619096 -1.47781 -6.47864e-12
9.2503e-12 -6.47864e-12 0.00523181

1.62058 0.209927 1.19477e-11
0.209927 -0.973042 -2.77788e-11
1.19477e-11 -2.77788e-11 0.257558

-2.13996 0.336539 7.70778e-12
0.336539 -0.407996 -1.56083e-11
7.70778e-12 -1.56083e-11 -0.907997

-2.54792 0.774053 -8.47822e-12
0.774053 -0.201685 7.70882e-12
-8.47822e-12 7.70882e-12 -0.900861

1.72975 -0.246574 6.16581e-12
-0.246574 -0.842231 2.44192e-11
6.16581e-12 2.44192e-11 0.299432

0.266329 -0.495745 -1.61872e-11
-0.495745 -2.01984 2.12934e-11
-1.61872e-11 2.12934e-11 -0.362076

0.88705 0.992141 1.1949e-11
0.992141 1.91622 -1.41634e-11
1.1949e-11 -1.41634e-11 1.11022

1.06713 -0.991266 -2.69747e-12
-0.991266 2.0462 -1.06015e-12
-2.69747e-12 -1.06015e-12 1.25809

2.42437 -0.908934 -1.50326e-11
-0.908934 0.755985 1.98973e-11
-1.50326e-11 1.98973e-11 1.20291

-1.57061 -0.936379 1.19464e-11
-0.936379 -0.390901 2.02343e-11
1.19464e-11 2.02343e-11 -0.783075

-1.01772 -0.648476 1.00197e-11
-0.648476 -0.313895 1.8499e-11
1.00197e-11 1.8499e-11 -0.719835

-0.971878 0.92919 -3.85173e-13
0.92919 0.409898 2.88947e-12
-3.85173e-13 2.88947e-12 -0.0233366

-1.72986 1.11924 1.77301e-11
1.11924 0.0629063 2.89066e-11
1.77301e-11 2.89066e-11 -0.262107

-2.48329 -0.725996 -6.16646e-12
-0.725996 -0.161934 1.05019e-11
-6.16646e-12 1.05019e-11 -0.897388

-2.27221 -0.212791 1.58023e-11
-0.212791 -0.41102 3.27599e-11
1.58023e-11 3.27599e-11 -0.934929

1.42334 0.284004 1.04065e-11
0.284004 -1.58274 1.39771e-11
1.04065e-11 1.39771e-11 -0.0519862

0.602209 0.356693 -1.00223e-11
0.356693 2.24402 -2.40887e-11
-1.00223e-11 -2.40887e-11 0.916931

0.608516 -0.291348 -3.08223e-12
-0.291348 2.20739 -5.03471e-11
-3.08223e-12 -5.03471e-11 0.929067

2.7571 -0.251797 -1.92698e-12
-0.251797 0.554285 3.12898e-13
-1.92698e-12 3.12898e-13 1.01157

0.0645895 1.25283 -4.33548e-12
1.25283 0.463577 4.80245e-13
-4.33548e-12 4.80245e-13 0.244947

1.81886 -0.832967 -4.1242e-11
-0.832967 -0.602779 2.35106e-11
-4.1242e-11 2.35106e-11 0.430981

0.416355 1.32769 4.23969e-11
1.32769 -0.213035 4.02287e-11
4.23969e-11 4.02287e-11 0.108092

-0.151672 1.05871 -2.58217e-11
1.05871 1.26841 1.84029e-11
-2.58217e-11 1.84029e-11 0.301198

1.04795 -0.525388 3.85414e-12
-0.525388 -1.65876 2.26547e-11
3.85414e-12 2.26547e-11 -0.0553923

2.46344 0.697623 1.15612e-11
0.697623 3.16778 -3.75563e-11
1.15612e-11 -3.75563e-11 2.19244

0.6696 0.652315 -2.11973e-11
0.652315 -2.0249 2.15832e-11
-2.11973e-11 2.15832e-11 -0.261458

3.49773 -0.603115 9.63707e-12
-0.603115 2.27511 1.32753e-11
9.63707e-12 1.32753e-11 2.27086

-1.33898 -0.229946 -2.31229e-12
-0.229946 -0.43163 3.08318e-11
-2.31229e-12 3.08318e-11 -0.968517

-1.3652 0.408427 1.92747e-12
0.408427 -0.395977 1.05982e-11
1.92747e-12 1.05982e-11 -0.960977

-0.109397 -1.24555 -6.89866e-11
-1.24555 -2.28129 2.69792e-11
-6.89866e-11 2.69792e-11 -2.58386

-0.119591 1.28878 -5.00898e-12
1.28878 -2.2906 -8.18858e-12
-5.00898e-12 -8.18858e-12 -2.56587

2.61673 -0.331515 6.9373e-12
-0.331515 0.355967 -5.41996e-12
6.9373e-12 -5.41996e-12 1.03052

-0.405173 1.45141 -2.00422e-11
1.45141 -0.524762 -4.02759e-11
-2.00422e-11 -4.02759e-11 -0.154211

-0.0302476 -0.752718 -1.84988e-11
-0.752718 -1.47906 -3.37239e-12
-1.84988e-11 -3.37239e-12 -1.01381

0.00597101 0.749867 -3.46861e-11
0.749867 -1.42351 2.74596e-11
-3.46861e-11 2.74596e-11 -0.94924

0.205426 0.261411 -2.46658e-11
0.261411 -2.38931 5.06804e-11
-2.46658e-11 5.06804e-11 -0.411047

-0.236145 1.19588 9.82819e-12
1.19588 1.28063 -1.54154e-12
9.82819e-12 -1.54154e-12 0.291053

1.54356 -1.03417 2.31111e-12
-1.03417 -0.200349 3.42065e-11
2.31111e-12 3.42065e-11 0.425077

0.376665 -0.0640383 -1.81146e-11
-0.0640383 -2.53941 -9.98452e-12
-1.81146e-11 -9.98452e-12 -0.349921

0.0312586 -1.25733 -5.22246e-11
-1.25733 0.50616 -4.00841e-11
-5.22246e-11 -4.00841e-11 0.248461

-0.0206775 -1.03097 -2.54399e-11
-1.03097 1.0125 -4.62475e-12
-2.54399e-11 -4.62475e-12 0.329387

-1.37262 1.17973 9.05806e-12
1.17973 0.544644 3.02548e-11
9.05806e-12 3.02548e-11 -0.206795

1.40286 -1.43795 7.40017e-11
-1.43795 0.352988 4.75505e-11
7.40017e-11 4.75505e-11 0.600476

6.78097 -1.0967 4.47127e-11
-1.0967 6.15821 2.35122e-11
4.47127e-11 2.35122e-11 6.49741

6.80635 1.52321 -2.85224e-11
1.52321 6.59973 1.33576e-11
-2.85224e-11 1.33576e-11 6.65386

-2.46765 -1.40885 -1.19477e-11
-1.40885 -0.212939 5.5887e-12
-1.19477e-11 5.5887e-12 -0.646745

4.62109 0.199818 -3.08375e-11
0.199818 3.94929 4.30129e-11
-3.08375e-11 4.30129e-11 4.54583

3.96405 -0.368227 -1.11775e-11
-0.368227 3.76526 -7.47069e-13
-1.11775e-11 -7.47069e-13 4.29173

-1.4066 -0.328144 2.90974e-11
-0.328144 -0.999363 4.52847e-11
2.90974e-11 4.52847e-11 -1.16106

-1.39395 0.340816 -1.36821e-11
0.340816 -1.0238 -3.76733e-11
-1.36821e-11 -3.76733e-11 -1.16182

1.75739 -0.0238771 -2.6983e-12
-0.0238771 -1.86411 3.8901e-12
-2.6983e-12 3.8901e-12 -0.0533921

-1.51942 -0.176983 -1.54156e-11
-0.176983 -1.64518 -5.78586e-11
-1.54156e-11 -5.78586e-11 -1.33271

-1.5011 0.194815 -3.93128e-11
0.194815 -1.64133 7.44787e-11
-3.93128e-11 7.44787e-11 -1.32608

-1.01161 1.09794 -3.66148e-11
1.09794 0.957029 -3.06424e-11
-3.66148e-11 -3.06424e-11 0.00444019

-0.579009 -1.16658 -1.04048e-11
-1.16658 -1.90623 -3.23736e-11
-1.04048e-11 -3.23736e-11 -2.11816

-0.60764 1.17208 -7.86217e-11
1.17208 -1.92381 -2.50025e-11
-7.86217e-11 -2.50025e-11 -2.11268

-0.770285 -0.581641 6.30149e-11
-0.581641 -0.896653 -6.98573e-12
6.30149e-11 -6.98573e-12 -0.585066

-0.770021 0.586665 2.65938e-11
0.586665 -0.905868 2.76059e-11
2.65938e-11 2.76059e-11 -0.586564

2.5387 -0.990872 1.73447e-11
-0.990872 0.748431 2.92446e-11
1.73447e-11 2.92446e-11 1.33996

-3.17497 0.577058 1.426e-11
0.577058 -0.395876 9.24983e-12
1.426e-11 9.24983e-12 -2.14231

-2.45552 -0.111588 -8.47917e-12
-0.111588 -1.43384 -9.82788e-12
-8.47917e-12 -9.82788e-12 -2.24723

-0.229414 -1.20876 7.71401e-13
-1.20876 1.27896 1.67647e-11
7.71401e-13 1.67647e-11 0.288625

2.08225 -0.303535 7.70826e-12
-0.303535 3.04015 6.26269e-12
7.70826e-12 6.26269e-12 2.24351

3.39989 -0.313728 2.73668e-11
-0.313728 1.73477 1.76884e-11
2.73668e-11 1.76884e-11 2.30527

-1.49737 0.943635 -2.6208e-11
0.943635 0.628022 2.28354e-11
-2.6208e-11 2.28354e-11 -0.22202

-1.65688 0.940294 -3.54584e-11
0.940294 0.198354 -7.51617e-12
-3.54584e-11 -7.51617e-12 -0.263701

-2.99471 -0.93957 -1.45873e-10
-0.93957 -5.27415 1.01072e-10
-1.45873e-10 1.01072e-10 -4.69615

-2.95288 0.868619 7.05286e-11
0.868619 -5.00823 1.70246e-10
7.05286e-11 1.70246e-10 -4.62145

-2.00075 1.23416 1.31035e-11
1.23416 -0.670361 -1.48386e-11
1.31035e-11 -1.48386e-11 -0.442971

0.283013 0.373926 1.17556e-11
0.373926 -1.57368 -8.6225e-12
1.17556e-11 -8.6225e-12 -0.372509

0.311409 -0.388897 1.25259e-11
-0.388897 -1.57598 -2.07158e-11
1.25259e-11 -2.07158e-11 -0.366559

-1.13377 1.65607 1.84997e-11
1.65607 -0.803575 -1.54183e-12
1.84997e-11 -1.54183e-12 -0.371264

-1.79028 -1.11707 2.42798e-11
-1.11707 -0.105371 2.84234e-11
2.42798e-11 2.84234e-11 -0.588328

2.56443 -0.0190809 7.32318e-12
-0.0190809 0.0608762 -4.64684e-11
7.32318e-12 -4.64684e-11 0.991035

2.0759 0.0234785 1.92713e-12
0.0234785 -0.812518 -1.07978e-11
1.92713e-12 -1.07978e-11 0.297797

2.0877 0.743309 3.70012e-11
0.743309 -0.31071 -1.89098e-11
3.70012e-11 -1.89098e-11 0.579205

0.0447533 1.23873 -5.0109e-12
1.23873 -2.12987 -2.16304e-11
-5.0109e-12 -2.16304e-11 -0.892262

-0.473608 -0.185236 -1.00972e-10
-0.185236 -1.42186 2.77007e-11
-1.00972e-10 2.77007e-11 -2.96428

-0.519947 0.184259 7.24522e-11
0.184259 -1.33169 1.39896e-10
7.24522e-11 1.39896e-10 -2.97573

1.63431 1.08016 7.32244e-12
1.08016 1.51139 -2.49099e-11
7.32244e-12 -2.49099e-11 1.04323

0.564505 -1.37699 3.04487e-11
-1.37699 -0.619242 -9.58766e-12
3.04487e-11 -9.58766e-12 0.0471261

1.42634 -0.340335 -2.38963e-11
-0.340335 -0.873797 -2.72438e-11
-2.38963e-11 -2.72438e-11 0.0718615

-3.07082 1.33419 8.0547e-11
1.33419 -0.688627 2.65912e-11
8.0547e-11 2.65912e-11 -2.632

-2.90739 -0.349018 7.82357e-11
-0.349018 -2.45161 -2.0814e-11
7.82357e-11 -2.0814e-11 -2.97262

0.0080722 -1.21157 -9.24836e-12
-1.21157 -2.05229 -4.68264e-11
-9.24836e-12 -4.68264e-11 -0.943648

-1.28792 -0.350212 3.27589e-11
-0.350212 0.380458 -5.29917e-12
3.27589e-11 -5.29917e-12 -0.290974

-1.06477 -0.367628 2.14879e-11
-0.367628 0.501012 -2.16798e-11
2.14879e-11 -2.16798e-11 -0.252303

1.24723 -0.0956152 4.95265e-11
-0.0956152 -2.38894 2.03541e-11
4.95265e-11 2.03541e-11 -0.306064

1.26684 0.0899702 -6.45579e-11
0.0899702 -2.4425 -3.49996e-11
-6.45579e-11 -3.49996e-11 -0.311861

2.1019 0.930587 2.7955e-12
0.930587 1.51487 9.78162e-12
2.7955e-12 9.78162e-12 1.14255

0.302967 -0.0717312 8.14121e-12
-0.0717312 -2.29151 -2.96757e-11
8.14121e-12 -2.96757e-11 -0.679177

0.302635 0.0648729 -2.68825e-11
0.0648729 -2.27472 5.63592e-12
-2.68825e-11 5.63592e-12 -0.673148

1.45919 0.337746 -2.50533e-12
0.337746 -0.89511 -2.61837e-11
-2.50533e-12 -2.61837e-11 0.0752038

-0.177302 -1.07595 -5.78159e-12
-1.07595 1.27646 1.02141e-11
-5.78159e-12 1.02141e-11 0.292996

1.23891 -0.0338634 2.69784e-12
-0.0338634 -1.67977 -3.29999e-11
2.69784e-12 -3.29999e-11 -0.230825

1.25218 0.043598 -6.3208e-11
0.043598 -1.72154 -2.70266e-11
-6.3208e-11 -2.70266e-11 -0.235695

0.995642 -0.824947 1.54166e-11
-0.824947 -1.16092 1.84989e-11
1.54166e-11 1.84989e-11 -0.0115584

-1.35608 1.51988 -3.17964e-11
1.51988 0.209857 -8.86513e-12
-3.17964e-11 -8.86513e-12 -0.290931

1.31691 1.15489 -6.55261e-12
1.15489 0.171846 -2.4666e-11
-6.55261e-12 -2.4666e-11 0.454465

-1.66623 1.23304 -1.27187e-11
1.23304 -0.931444 -1.96565e-11
-1.27187e-11 -1.96565e-11 -0.466898

-1.36001 1.51347 -5.58872e-12
1.51347 0.40654 -2.34141e-11
-5.58872e-12 -2.34141e-11 -0.239179

1.95477 -0.586441 -6.35988e-12
-0.586441 -0.579861 3.61334e-12
-6.35988e-12 3.61334e-12 0.397513

0.272411 -1.34965 3.12179e-11
-1.34965 -1.38817 -4.29742e-11
3.12179e-11 -4.29742e-11 -0.329748

1.10025 0.823663 1.31051e-11
0.823663 -0.955128 2.88988e-12
1.31051e-11 2.88988e-12 0.0639134

0.817881 1.34699 -2.89084e-13
1.34699 0.41153 -3.20396e-11
-2.89084e-13 -3.20396e-11 0.447068

0.567745 1.38417 3.43027e-11
1.38417 -0.611365 5.97411e-12
3.43027e-11 5.97411e-12 0.0571759

-1.8619 0.12652 2.00413e-11
0.12652 0.454768 -8.28763e-12
2.00413e-11 -8.28763e-12 -0.348481

-1.82411 0.0453661 -1.07905e-11
0.0453661 0.445071 -1.15633e-11
-1.07905e-11 -1.15633e-11 -0.3504

2.37829 0.973095 2.8908e-12
0.973095 0.719151 1.93563e-11
2.8908e-12 1.93563e-11 1.16155

-1.15053 -1.65452 1.81142e-11
-1.65452 -0.824546 -5.5897e-12
1.81142e-11 -5.5897e-12 -0.379232

0.603574 -1.31694 -3.12197e-11
-1.31694 1.25852 -8.4797e-12
-3.12197e-11 -8.4797e-12 0.530632

0.588181 1.33325 -1.85003e-11
1.33325 1.33109 9.73218e-12
-1.85003e-11 9.73218e-12 0.545059

0.904332 -0.994028 1.15636e-11
-0.994028 -1.10005 -2.4185e-11
1.15636e-11 -2.4185e-11 -0.0371258

0.328091 -0.659978 -2.31251e-12
-0.659978 -3.19352 -1.10869e-12
-2.31251e-12 -1.10869e-12 -0.731209

0.345739 0.665366 -2.89062e-11
0.665366 -3.00349 2.18241e-11
-2.89062e-11 2.18241e-11 -0.673456

-0.386601 0.729102 -1.07928e-11
0.729102 1.23963 2.79432e-11
-1.07928e-11 2.79432e-11 0.324206

0.486185 -1.38728 1.15635e-11
-1.38728 -0.184013 -5.36692e-11
1.15635e-11 -5.36692e-11 0.126451

0.118229 -0.0568893 -1.07923e-11
-0.0568893 2.38679 -7.71009e-12
-1.07923e-11 -7.71009e-12 0.958135

0.131648 0.0228936 -1.34891e-11
0.0228936 2.4122 -2.23569e-11
-1.34891e-11 -2.23569e-11 0.976191

2.9503 0.070147 2.29339e-11
0.070147 0.0939001 3.73454e-13
2.29339e-11 3.73454e-13 1.0868

2.05543 -0.965411 -4.24031e-12
-0.965411 1.61466 -3.19914e-11
-4.24031e-12 -3.19914e-11 1.1538

1.04454 1.17355 -1.90777e-11
1.17355 0.219945 1.54099e-12
-1.90777e-11 1.54099e-12 0.407433

-3.23246 -2.39629 8.82558e-11
-2.39629 -2.1667 -5.60777e-11
8.82558e-11 -5.60777e-11 -3.775

-2.34053 1.03477 -2.02325e-10
1.03477 -1.66139 8.63279e-11
-2.02325e-10 8.63279e-11 -3.4772

1.92443 0.534239 -6.74472e-12
0.534239 -0.624186 -1.88616e-11
-6.74472e-12 -1.88616e-11 0.369021

-0.959685 1.46367 2.62086e-11
1.46367 0.779158 2.79456e-12
2.62086e-11 2.79456e-12 -0.0356022

1.78731 0.0220786 1.92707e-12
0.0220786 -1.83903 3.56019e-11
1.92707e-12 3.56019e-11 -0.0417256

-0.427429 -0.705105 -3.85349e-13
-0.705105 1.25356 -2.02356e-11
-3.85349e-13 -2.02356e-11 0.315056

-2.96899 1.45829 1.54073e-12
1.45829 -0.221731 -1.72473e-11
1.54073e-12 -1.72473e-11 -0.699095

-1.67874 1.19442 -1.54157e-11
1.19442 0.00630376 1.76321e-11
-1.54157e-11 1.76321e-11 -0.511104

-1.35346 -1.51624 2.11966e-11
-1.51624 0.195269 4.07575e-11
2.11966e-11 4.07575e-11 -0.295262

-1.47992 1.53282 -2.56295e-11
1.53282 0.498308 2.11976e-11
-2.56295e-11 2.11976e-11 -0.246825

-1.22739 1.16034 3.70001e-11
1.16034 -0.0769339 -2.03541e-16
3.70001e-11 -2.03541e-16 -0.155284

1.67219 0.0131513 -5.01033e-12
0.0131513 -2.69773 -2.93879e-11
-5.01033e-12 -2.93879e-11 -0.259144

1.18777 -1.15833 -3.50732e-11
-1.15833 0.265105 -3.34349e-11
-3.50732e-11 -3.34349e-11 0.458641

-1.6901 -1.23887 2.46657e-11
-1.23887 -0.947264 1.88841e-11
2.46657e-11 1.88841e-11 -0.476289

0.847684 -0.991021 5.00986e-12
-0.991021 0.936845 6.0029e-11
5.00986e-12 6.0029e-11 0.468984

1.64938 -0.960862 -5.74287e-11
-0.960862 1.67507 -9.39319e-12
-5.74287e-11 -9.39319e-12 1.16854

-0.462265 -1.43236 -1.19488e-11
-1.43236 -0.498854 1.74886e-11
-1.19488e-11 1.74886e-11 -0.162141

0.441791 -0.587519 3.81584e-11
-0.587519 2.16132 -3.58928e-11
3.81584e-11 -3.58928e-11 0.808161

0.426274 0.557329 -3.85238e-13
0.557329 2.16931 -4.56248e-11
-3.85238e-13 -4.56248e-11 0.800339

2.41618 0.335626 7.70865e-13
0.335626 0.487428 -1.80793e-11
7.70865e-13 -1.80793e-11 0.890769

0.832773 1.03348 -3.8529e-12
1.03348 0.928313 1.20444e-12
-3.8529e-12 1.20444e-12 0.465799

-0.532143 0.183691 -1.38743e-11
0.183691 1.33384 2.52459e-11
-1.38743e-11 2.52459e-11 0.206065

-0.530929 -0.0399516 -3.46754e-12
-0.0399516 1.32802 1.25315e-12
-3.46754e-12 1.25315e-12 0.210232

1.3029 -1.13176 3.48824e-11
-1.13176 1.87999 -3.20876e-11
3.48824e-11 -3.20876e-11 1.16213

1.37596 1.13379 -3.8158e-11
1.13379 1.89625 1.84038e-11
-3.8158e-11 1.84038e-11 1.18607

1.69693 0.0917119 3.4688e-11
0.0917119 -2.4874 2.71225e-11
3.4688e-11 2.71225e-11 -0.239949

1.72103 -0.0870214 8.47928e-12
-0.0870214 -2.51505 -3.43245e-11
8.47928e-12 -3.43245e-11 -0.237302

-0.957986 1.33403 3.52657e-11
1.33403 0.717089 2.57276e-11
3.52657e-11 2.57276e-11 -0.0646084

-3.08604 -1.30168 -1.34883e-11
-1.30168 -0.287513 -2.02282e-12
-1.34883e-11 -2.02282e-12 -0.69351

-0.0593093 1.46679 -2.00418e-11
1.46679 -0.968735 -8.67049e-12
-2.00418e-11 -8.67049e-12 -0.26494

2.94465 0.679745 -3.23765e-11
0.679745 1.13963 -1.52246e-11
-3.23765e-11 -1.52246e-11 1.69648

-0.423056 0.884773 1.42611e-11
0.884773 1.68392 -3.37241e-12
1.42611e-11 -3.37241e-12 0.375818

-0.556206 0.0841062 -5.18366e-11
0.0841062 -1.41236 1.71024e-11
-5.18366e-11 1.71024e-11 -0.809407

-0.555739 -0.0748738 -1.34892e-11
-0.0748738 -1.39502 -4.48078e-12
-1.34892e-11 -4.48078e-12 -0.806663

0.605519 0.852555 3.27623e-12
0.852555 0.0469461 1.50795e-11
3.27623e-12 1.50795e-11 0.114204

0.385114 -0.52589 -1.15652e-12
-0.52589 -0.545794 5.1163e-11
-1.15652e-12 5.1163e-11 -0.169529

0.380324 0.536071 -4.4327e-12
0.536071 -0.544763 -9.53783e-12
-4.4327e-12 -9.53783e-12 -0.17029

3.85738 -0.53534 2.04292e-11
-0.53534 2.64709 2.92691e-11
2.04292e-11 2.92691e-11 4.09629

2.31631 0.674605 -2.27414e-11
0.674605 3.56538 1.22743e-11
-2.27414e-11 1.22743e-11 4.03395

-0.497437 -0.869586 1.31041e-11
-0.869586 1.66266 1.53198e-11
1.31041e-11 1.53198e-11 0.353395

-1.8288 -0.195234 -3.71909e-11
-0.195234 -2.46035 -5.20283e-11
-3.71909e-11 -5.20283e-11 -2.33336

-1.81391 0.222741 5.78138e-12
0.222741 -2.43427 9.76971e-11
5.78138e-12 9.76971e-11 -2.32192

3.05943 0.584307 8.09404e-12
0.584307 1.10066 -4.83485e-11
8.09404e-12 -4.83485e-11 1.73046

-1.74894 -0.720846 4.50933e-11
-0.720846 0.399745 7.03382e-12
4.50933e-11 7.03382e-12 -0.280607

-1.52527 -0.704516 3.19901e-11
-0.704516 0.552281 -2.11002e-11
3.19901e-11 -2.11002e-11 -0.271248

0.960152 -1.41519 -5.01077e-12
-1.41519 0.687559 -2.00913e-11
-5.01077e-12 -2.00913e-11 0.555374

-1.46764 -1.5425 1.38746e-11
-1.5425 0.49307 8.67157e-12
1.38746e-11 8.67157e-12 -0.247401

-2.65323 1.84024 -1.19485e-11
1.84024 -0.612525 -1.31042e-11
-1.19485e-11 -1.31042e-11 -0.518047

-1.06679 0.834807 -4.70187e-11
0.834807 -0.457042 -1.92716e-13
-4.70187e-11 -1.92716e-13 -0.758781

-1.60409 1.15102 6.55197e-12
1.15102 -0.513227 4.91435e-12
6.55197e-12 4.91435e-12 -0.808988

-0.98916 -1.34727 2.2739e-11
-1.34727 0.711978 -7.71253e-13
2.2739e-11 -7.71253e-13 -0.0742626

-0.577094 1.41377 5.78199e-12
1.41377 -0.398198 6.07092e-12
5.78199e-12 6.07092e-12 -0.114632

0.588872 -0.865595 8.67208e-12
-0.865595 0.0530502 2.78471e-11
8.67208e-12 2.78471e-11 0.110367

1.82029 1.03406 1.38763e-11
1.03406 -0.243032 2.25e-11
1.38763e-11 2.25e-11 0.559105

2.03693 -0.0312341 1.48382e-11
-0.0312341 -0.844473 1.6934e-11
1.48382e-11 1.6934e-11 0.282003

-1.4845 1.60851 2.15826e-11
1.60851 0.428523 -1.94628e-11
2.15826e-11 -1.94628e-11 -0.228679

-1.04183 -0.967134 7.69884e-13
-0.967134 0.393837 3.63263e-11
7.69884e-13 3.63263e-11 -0.0434815

-0.936079 0.352544 -1.4259e-11
0.352544 1.22641 9.34508e-12
-1.4259e-11 9.34508e-12 0.145199

-0.381751 0.988869 -2.42811e-11
0.988869 -0.394033 6.16636e-12
-2.42811e-11 6.16636e-12 -0.2268

-0.8835 0.439208 2.19686e-11
0.439208 1.35483 1.48403e-11
2.19686e-11 1.48403e-11 0.151546

-1.50752 -1.24226 -6.51338e-11
-1.24226 0.147232 3.73869e-11
-6.51338e-11 3.73869e-11 -0.424159

3.45193 -0.695002 8.09793e-12
-0.695002 3.60202 -3.98448e-11
8.09793e-12 -3.98448e-11 3.26562

4.09444 -0.699514 8.36432e-11
-0.699514 3.06495 3.39922e-11
8.36432e-11 3.39922e-11 3.32235

1.37993 -0.278471 -9.5392e-12
-0.278471 -1.57874 4.31902e-11
-9.5392e-12 4.31902e-11 -0.0608076

-0.387622 -0.991364 2.1005e-11
-0.991364 -0.404995 4.6732e-11
2.1005e-11 4.6732e-11 -0.230418

-1.87524 -1.33312 8.24742e-11
-1.33312 -4.23395 8.42049e-11
8.24742e-11 8.42049e-11 -3.90526

-1.8313 1.27677 -1.4067e-11
1.27677 -4.12404 5.27985e-11
-1.4067e-11 5.27985e-11 -3.86775

-0.993324 -1.44362 -1.32963e-11
-1.44362 0.752865 -2.8617e-11
-1.32963e-11 -2.8617e-11 -0.0534819

-1.08008 -1.2384 3.08289e-12
-1.2384 -1.0688 2.34127e-11
3.08289e-12 2.34127e-11 -1.65719

-1.09786 1.25862 -2.89043e-11
1.25862 -1.05647 -2.53401e-11
-2.89043e-11 -2.53401e-11 -1.63149

0.800949 0.271835 -8.09375e-12
0.271835 -1.71605 -6.69637e-12
-8.09375e-12 -6.69637e-12 -0.105936

-2.69211 -1.84257 1.61872e-11
-1.84257 -0.663349 7.61155e-12
1.61872e-11 7.61155e-12 -0.53391

2.87952 -0.827704 1.25281e-11
-0.827704 2.80442 9.33513e-12
1.25281e-11 9.33513e-12 2.56357

2.97579 0.830556 -3.85062e-13
0.830556 2.38729 3.88341e-11
-3.85062e-13 3.88341e-11 2.41607

1.8014 -0.617058 2.42828e-11
-0.617058 2.96325 -1.82123e-11
2.42828e-11 -1.82123e-11 1.93595

1.6502 0.5739 -3.43032e-11
0.5739 3.0069 3.94866e-12
-3.43032e-11 3.94866e-12 1.92838

3.26795 0.353387 -3.8541e-12
0.353387 1.48989 -2.08617e-11
-3.8541e-12 -2.08617e-11 1.98531

-1.47305 -1.62094 -1.25256e-11
-1.62094 0.457056 7.61238e-12
-1.25256e-11 7.61238e-12 -0.222428

1.79758 0.183528 -4.62477e-12
0.183528 3.38283 -1.22383e-11
-4.62477e-12 -1.22383e-11 2.3903

3.81747 -0.199931 1.04075e-11
-0.199931 1.81617 1.31291e-11
1.04075e-11 1.31291e-11 2.5327

-2.39379 -0.510328 -2.58213e-11
-0.510328 -0.346435 -4.97185e-11
-2.58213e-11 -4.97185e-11 -1.4541

-1.58314 -0.0308732 4.24084e-12
-0.0308732 -0.998344 -4.95247e-11
4.24084e-12 -4.95247e-11 -1.45973

0.634688 0.803304 2.04262e-11
0.803304 -1.27847 -8.47877e-12
2.04262e-11 -8.47877e-12 -0.236311

0.405631 -0.0571163 -6.16663e-12
-0.0571163 -3.48417 -1.84273e-11
-6.16663e-12 -1.84273e-11 -0.519458

0.428691 0.816085 -1.73767e-12
0.816085 1.92378 -1.38276e-11
-1.73767e-12 -1.38276e-11 0.785008

0.411245 -0.854028 3.68093e-11
-0.854028 1.9212 2.72224e-11
3.68093e-11 2.72224e-11 0.786383

0.951221 -0.15338 -6.16662e-12
-0.15338 -1.67075 -2.48201e-11
-6.16662e-12 -2.48201e-11 -0.064319

-1.05172 -1.09514 -1.31037e-11
-1.09514 0.980168 -4.1336e-11
-1.31037e-11 -4.1336e-11 -0.00410133

-1.04441 0.117401 1.44523e-11
0.117401 -2.00546 -1.9415e-11
1.44523e-11 -1.9415e-11 -1.58156

-1.05073 -0.101813 -4.93326e-11
-0.101813 -1.99927 8.19453e-11
-4.93326e-11 8.19453e-11 -1.57895

0.0670782 1.22137 -6.36038e-12
1.22137 -0.787504 -3.38192e-11
-6.36038e-12 -3.38192e-11 -0.268701

-0.613336 -1.3788 -1.88855e-11
-1.3788 -0.411411 2.40875e-11
-1.88855e-11 2.40875e-11 -0.124297

0.747197 0.732907 5.78121e-12
0.732907 -2.09197 -7.65976e-12
5.78121e-12 -7.65976e-12 -0.299975

1.81577 1.07869 -8.47833e-12
1.07869 0.97513 -9.16526e-13
-8.47833e-12 -9.16526e-13 1.02515

-1.22673 -1.19486 -2.33175e-11
-1.19486 -0.039803 2.37034e-11
-2.33175e-11 2.37034e-11 -0.15008

6.91568 1.85687 -1.08698e-10
1.85687 6.50947 1.66332e-11
-1.08698e-10 1.66332e-11 6.89033

-0.887848 -0.26338 4.00835e-11
-0.26338 1.19983 5.39594e-11
4.00835e-11 5.39594e-11 0.144617

-0.819631 -0.393526 -3.85479e-13
-0.393526 1.30349 6.45572e-12
-3.85479e-13 6.45572e-12 0.156293

-2.5485 0.545085 2.8904e-11
0.545085 -0.627017 -4.85617e-11
2.8904e-11 -4.85617e-11 -1.73018

-2.26028 -0.815769 3.83048e-13
-0.815769 -0.884464 -2.50507e-11
3.83048e-13 -2.50507e-11 -1.73031

1.10647 -0.0429519 4.85625e-11
-0.0429519 -2.71811 1.32958e-11
4.85625e-11 1.32958e-11 -0.5254

1.11434 0.0400888 2.38959e-11
0.0400888 -2.73512 -7.20251e-12
2.38959e-11 -7.20251e-12 -0.522613

-0.44081 -1.59747 2.54375e-11
-1.59747 -1.33118 2.39914e-11
2.54375e-11 2.39914e-11 -0.742003

-0.348411 1.61122 3.1218e-11
1.61122 -1.45491 -1.38737e-11
3.1218e-11 -1.38737e-11 -0.714194

-0.234766 -0.581363 -3.16023e-11
-0.581363 -1.0972 4.43246e-12
-3.16023e-11 4.43246e-12 -1.23176

-0.260023 0.57996 -5.43406e-11
0.57996 -1.07721 -4.75976e-11
-5.43406e-11 -4.75976e-11 -1.22097

-2.47259 -0.50851 -4.06604e-11
-0.50851 -3.50964 6.78288e-11
-4.06604e-11 6.78288e-11 -3.35458

-2.44605 0.547493 2.27387e-11
0.547493 -3.41799 -2.18706e-11
2.27387e-11 -2.18706e-11 -3.32261

-1.64156 -1.53022 3.52645e-11
-1.53022 -0.0887714 1.48378e-11
3.52645e-11 1.48378e-11 -0.512493

-1.63559 1.52228 2.50498e-12
1.52228 -0.101029 1.84996e-11
2.50498e-12 1.84996e-11 -0.517775

0.71778 -0.790225 -4.23968e-12
-0.790225 -0.69142 -3.94079e-11
-4.23968e-12 -3.94079e-11 -0.00295723

-0.87466 -0.668598 3.2374e-11
-0.668598 0.729014 4.4033e-11
3.2374e-11 4.4033e-11 0.0312927

0.223522 1.28674 8.2867e-12
1.28674 0.212101 1.92229e-11
8.2867e-12 1.92229e-11 0.111231

-0.734667 -0.939304 -1.04063e-11
-0.939304 1.08072 -1.78236e-11
-1.04063e-11 -1.78236e-11 0.073536

2.12293 -0.99656 3.16042e-11
-0.99656 1.35898 8.12304e-11
3.16042e-11 8.12304e-11 1.22351

0.735869 0.78005 9.05709e-12
0.78005 -0.684678 -2.93879e-11
9.05709e-12 -2.93879e-11 0.00524361

-0.772527 0.664726 -1.25733e-11
0.664726 0.75232 1.63869e-12
-1.25733e-11 1.63869e-12 0.0613729

-1.7657 -1.90235 -2.351e-11
-1.90235 -1.00827 1.53208e-11
-2.351e-11 1.53208e-11 -0.676812

-1.76154 1.90366 -1.00209e-11
1.90366 -1.02133 -1.25259e-11
-1.00209e-11 -1.25259e-11 -0.679684

0.537977 -0.76317 -2.42799e-11
-0.76317 -1.35332 -2.97242e-11
-2.42799e-11 -2.97242e-11 -0.325857

-2.26325 -1.4253 5.08718e-11
-1.4253 -1.07281 -3.42979e-11
5.08718e-11 -3.42979e-11 -3.37928

-3.18283 1.45683 6.59024e-11
1.45683 -4.0925 5.01114e-12
6.59024e-11 5.01114e-12 -4.14701

-0.954123 -1.07751 1.52232e-11
-1.07751 0.518096 -1.66696e-11
1.52232e-11 -1.66696e-11 -0.178608

0.306105 1.34385 1.09844e-11
1.34385 -1.3022 1.66693e-11
1.09844e-11 1.66693e-11 -0.26815

0.106727 0.0856513 -1.54248e-12
0.0856513 -1.40771 6.16647e-12
-1.54248e-12 6.16647e-12 -0.805891

0.216027 -1.25826 1.15567e-12
-1.25826 0.27271 3.84457e-11
1.15567e-12 3.84457e-11 0.120341

3.30572 0.805601 -3.43021e-11
0.805601 3.59818 8.43044e-12
-3.43021e-11 8.43044e-12 3.04649

3.68023 0.796645 -4.08559e-11
0.796645 2.88518 -4.43347e-12
-4.08559e-11 -4.43347e-12 2.9842

0.780491 0.16075 -7.51583e-12
0.16075 -2.52815 -1.9005e-11
-7.51583e-12 -1.9005e-11 -0.68749

0.753295 -0.162247 3.21824e-11
-0.162247 -2.53784 1.32961e-11
3.21824e-11 1.32961e-11 -0.690707

0.127548 -0.139749 -2.46652e-11
-0.139749 -1.35131 -1.89828e-11
-2.46652e-11 -1.89828e-11 -0.823334

-0.683683 0.894401 -4.19615e-11
0.894401 1.06284 -2.45714e-11
-4.19615e-11 -2.45714e-11 0.0822396

1.82154 -0.627665 -2.70287e-11
-0.627665 0.152875 -3.06885e-11
-2.70287e-11 -3.06885e-11 0.483068

-0.742235 -0.762892 5.53065e-11
-0.762892 -0.285828 -1.23333e-11
5.53065e-11 -1.23333e-11 -0.457478

-0.738501 0.763981 2.90979e-11
0.763981 -0.284766 -7.51478e-12
2.90979e-11 -7.51478e-12 -0.456408

-1.21185 -0.104814 -3.46861e-11
-0.104814 -0.137856 -7.96733e-11
-3.46861e-11 -7.96733e-11 -3.09477

-1.20232 0.103362 -4.04635e-11
0.103362 -0.162667 -3.07986e-11
-4.04635e-11 -3.07986e-11 -3.08761

-1.4584 -1.30631 -1.75359e-11
-1.30631 0.49561 -1.2718e-11
-1.75359e-11 -1.2718e-11 -0.218416

1.00526 1.03288 2.11983e-11
1.03288 -0.900618 1.13684e-11
2.11983e-11 1.13684e-11 0.0425222

0.0664655 -0.129878 -2.32201e-11
-0.129878 -1.64665 -7.85301e-12
-2.32201e-11 -7.85301e-12 -0.754209

0.0691781 0.141291 -1.80178e-11
0.141291 -1.64986 -1.08391e-11
-1.80178e-11 -1.08391e-11 -0.755969

-1.63283 -0.828634 -1.50315e-11
-0.828634 -0.0552394 9.82755e-12
-1.50315e-11 9.82755e-12 -0.327306

-1.98127 -1.32489 -2.0427e-11
-1.32489 -0.705925 2.6979e-11
-2.0427e-11 2.6979e-11 -0.414678

6.90218 -1.92598 5.78211e-12
-1.92598 6.96132 -2.85487e-11
5.78211e-12 -2.85487e-11 6.9644

-1.58475 -1.23762 5.39559e-12
-1.23762 -0.510125 -6.26275e-12
5.39559e-12 -6.26275e-12 -0.817031

-1.56548 1.24855 -1.19476e-11
1.24855 -0.516226 -2.89053e-11
-1.19476e-11 -2.89053e-11 -0.806982

-1.78727 -1.27349 -2.31249e-11
-1.27349 -0.200645 1.82108e-11
-2.31249e-11 1.82108e-11 -0.298894

1.82395 0.66573 -5.78112e-12
0.66573 0.107637 -2.04758e-11
-5.78112e-12 -2.04758e-11 0.462473

0.102951 -1.17252 1.10802e-11
-1.17252 -0.867039 2.74587e-11
1.10802e-11 2.74587e-11 -0.307266

-0.238229 -1.30294 -6.16731e-12
-1.30294 -1.27711 -1.32e-11
-6.16731e-12 -1.32e-11 -0.638989

-0.172527 1.27137 4.31665e-11
1.27137 -1.30095 3.76743e-11
4.31665e-11 3.76743e-11 -0.620406

0.681167 -0.727976 1.88851e-11
-0.727976 -2.22493 1.4932e-12
1.88851e-11 1.4932e-12 -0.368302

-0.0943199 0.321057 1.73359e-12
0.321057 -2.25294 -2.99647e-11
1.73359e-12 -2.99647e-11 -1.16464

-0.106302 -0.315059 1.23338e-11
-0.315059 -2.22664 -1.1562e-11
1.23338e-11 -1.1562e-11 -1.15845

-3.5528 -0.505884 7.4765e-11
-0.505884 -0.853442 3.62293e-11
7.4765e-11 3.62293e-11 -3.07824

-3.03189 1.10541 -1.42581e-11
1.10541 -1.05021 8.82575e-11
-1.42581e-11 8.82575e-11 -3.00217

4.2066 0.163782 -6.16461e-12
0.163782 2.31469 4.46411e-11
-6.16461e-12 4.46411e-11 4.17649

2.91564 0.306054 -4.62586e-12
0.306054 3.84349 -2.88371e-11
-4.62586e-12 -2.88371e-11 4.19975

-1.15459 1.21839 -5.43423e-11
1.21839 0.325054 -3.4695e-12
-5.43423e-11 -3.4695e-12 -0.302127

-1.15067 -1.21915 -1.67656e-11
-1.21915 0.330486 -1.40673e-11
-1.67656e-11 -1.40673e-11 -0.299993

-1.42538 -1.55849 -4.35509e-11
-1.55849 0.471967 1.04074e-11
-4.35509e-11 1.04074e-11 -0.220188

4.25497 -0.812192 1.65753e-11
-0.812192 4.09245 3.16302e-11
1.65753e-11 3.16302e-11 4.7283

4.44179 -0.670395 -2.69817e-11
-0.670395 4.18097 -1.02148e-11
-2.69817e-11 -1.02148e-11 4.79857

-4.39023 1.07751 -4.29705e-11
1.07751 -2.23644 3.38192e-11
-4.29705e-11 3.38192e-11 -4.16392

-4.41951 -1.13272 -1.91342e-10
-1.13272 -2.35074 -9.7698e-11
-1.91342e-10 -9.7698e-11 -4.19318

-0.0895963 -1.47519 3.85408e-11
-1.47519 -0.977116 -1.83187e-12
3.85408e-11 -1.83187e-12 -0.27668

-0.114234 -1.19097 2.58232e-11
-1.19097 0.624975 2.90036e-11
2.58232e-11 2.90036e-11 0.115837

-1.09609 1.17383 -2.06193e-11
1.17383 -0.236454 4.09504e-11
-2.06193e-11 4.09504e-11 -0.402918

-1.09585 -1.17336 -3.96966e-11
-1.17336 -0.238566 -6.0509e-11
-3.96966e-11 -6.0509e-11 -0.402997

-0.761324 -1.38645 2.23532e-11
-1.38645 0.41429 -5.02978e-11
2.23532e-11 -5.02978e-11 -0.0949694

-0.0846972 1.20757 1.29112e-11
1.20757 0.6097 2.41009e-12
1.29112e-11 2.41009e-12 0.11921

1.6026 -0.444158 2.31171e-12
-0.444158 2.85827 6.55346e-12
2.31171e-12 6.55346e-12 1.83908

1.68943 0.373574 1.61862e-11
0.373574 3.016 -2.16804e-12
1.61862e-11 -2.16804e-12 1.90707

3.1542 0.319271 3.89302e-11
0.319271 1.55907 1.33942e-11
3.89302e-11 1.33942e-11 1.92776

-0.747412 1.38299 1.7152e-11
1.38299 0.418501 4.35532e-11
1.7152e-11 4.35532e-11 -0.0907071

2.16672 -0.209537 2.81381e-11
-0.209537 3.53219 -1.33463e-11
2.81381e-11 -1.33463e-11 2.5879

3.75123 -0.126019 2.46689e-11
-0.126019 1.78361 -3.75681e-11
2.46689e-11 -3.75681e-11 2.57124

-1.46347 -1.13554 -2.50514e-11
-1.13554 -0.433564 -1.23321e-11
-2.50514e-11 -1.23321e-11 -0.683751

-1.4503 1.12989 1.36813e-11
1.12989 -0.430346 -2.49551e-11
1.36813e-11 -2.49551e-11 -0.680757

-1.51304 -0.861879 -2.98686e-11
-0.861879 -0.57084 6.60981e-11
-2.98686e-11 6.60981e-11 -0.813383

-1.50532 0.86165 2.15822e-11
0.86165 -0.593438 -3.68058e-11
2.15822e-11 -3.68058e-11 -0.816327

4.62999 0.746222 -5.58897e-11
0.746222 4.17866 2.4934e-11
-5.58897e-11 2.4934e-11 4.96895

4.60742 0.711605 -2.69673e-12
0.711605 4.26668 4.34725e-11
-2.69673e-12 4.34725e-11 5.00089

-0.446694 1.07741 -1.8885e-11
1.07741 0.299173 2.12942e-11
-1.8885e-11 2.12942e-11 -0.100026

-0.444841 -1.08459 -2.56291e-11
-1.08459 0.309324 -5.56925e-11
-2.56291e-11 -5.56925e-11 -0.0977744

-2.51639 -1.04634 5.39579e-11
-1.04634 -1.03063 -1.02516e-10
5.39579e-11 -1.02516e-10 -2.08013

-2.20039 0.470755 -3.46858e-11
0.470755 -1.95459 -4.08513e-11
-3.46858e-11 -4.08513e-11 -2.20566

-1.85408 -1.17161 1.29106e-11
-1.17161 -0.0769303 -5.13559e-11
1.29106e-11 -5.13559e-11 -0.73228

-1.86233 1.17217 -7.51541e-12
1.17217 -0.11723 -6.74473e-12
-7.51541e-12 -6.74473e-12 -0.74607

-0.8033 0.0778417 4.12387e-11
0.0778417 -2.69317 4.42248e-11
4.12387e-11 4.42248e-11 -1.47239

-0.80548 -0.0668877 -2.50424e-12
-0.0668877 -2.68262 -1.41153e-11
-2.50424e-12 -1.41153e-11 -1.46808

-0.892461 -1.32571 -5.01033e-12
-1.32571 -0.771704 -1.7922e-11
-5.01033e-12 -1.7922e-11 -0.4281

-0.843797 1.34263 1.07924e-11
1.34263 -0.8101 1.93676e-11
1.07924e-11 1.93676e-11 -0.425379

-1.36079 0.323831 4.5863e-11
0.323831 -3.06521 1.92735e-12
4.5863e-11 1.92735e-12 -2.4739

-2.59096 0.055172 -1.31036e-10
0.055172 -3.62295 7.00437e-11
-1.31036e-10 7.00437e-11 -3.41348

-1.36075 -0.328442 -1.02902e-10
-0.328442 -3.06001 3.56504e-11
-1.02902e-10 3.56504e-11 -2.473

-2.59512 -0.0879372 -2.01756e-10
-0.0879372 -3.68638 -2.40849e-12
-2.01756e-10 -2.40849e-12 -3.42706

-3.00265 0.0547443 -6.1656e-12
0.0547443 -1.54777 1.19474e-11
-6.1656e-12 1.19474e-11 -2.65241

-0.830383 1.30596 -2.38945e-11
1.30596 -1.79328 2.17751e-11
-2.38945e-11 2.17751e-11 -2.35405

-0.827132 -1.30091 5.20285e-11
-1.30091 -1.78762 -4.2877e-11
5.20285e-11 -4.2877e-11 -2.35869

-3.58113 -0.6992 -1.88837e-11
-0.6992 -0.207856 1.079e-11
-1.88837e-11 1.079e-11 -2.4828

-3.65088 -0.617798 -1.09263e-10
-0.617798 -3.28756 3.62564e-10
-1.09263e-10 3.62564e-10 -3.62941

0.745254 -0.895138 -7.94081e-11
-0.895138 -6.58971 -4.63884e-10
-7.94081e-11 -4.63884e-10 -4.19873

-3.71478 0.650698 1.04059e-10
0.650698 -3.17093 2.19774e-10
1.04059e-10 2.19774e-10 -3.60159

0.757541 0.827527 1.32505e-09
0.827527 -6.31667 -8.10091e-10
1.32505e-09 -8.10091e-10 -4.11985

-2.18349 -0.846102 -5.00942e-12
-0.846102 -2.53976 -7.51524e-11
-5.00942e-12 -7.51524e-11 -2.67207

-1.75206 -0.58912 -7.70798e-12
-0.58912 -0.853994 -5.81001e-11
-7.70798e-12 -5.81001e-11 -1.37438

-3.4065 -0.0487655 1.58006e-11
-0.0487655 -4.23497 -1.13693e-11
1.58006e-11 -1.13693e-11 -4.03663

-2.21264 0.888298 -3.46864e-11
0.888298 -2.52399 -3.9792e-11
-3.46864e-11 -3.9792e-11 -2.66602

-1.74102 0.609328 -1.19473e-11
0.609328 -0.892843 -3.66123e-12
-1.19473e-11 -3.66123e-12 -1.38121

-3.38197 0.0551115 -4.14296e-11
0.0551115 -4.069 -3.87321e-11
-4.14296e-11 -3.87321e-11 -3.98142

-2.37913 -0.486119 -4.04652e-12
-0.486119 -1.66087 6.42655e-11
-4.04652e-12 6.42655e-11 -1.90258

-2.08326 -0.27222 4.16233e-11
-0.27222 -2.45701 4.97159e-11
4.16233e-11 4.97159e-11 -2.52667

-2.35498 0.509147 -2.81344e-11
0.509147 -1.65815 -2.1679e-11
-2.81344e-11 -2.1679e-11 -1.8931

-2.06862 0.28461 -7.03354e-11
0.28461 -2.44526 -2.80381e-11
-7.03354e-11 -2.80381e-11 -2.51608

0.0502426 1.14878 -1.3875e-11
1.14878 1.37511 -1.50322e-11
-1.3875e-11 -1.50322e-11 0.357408

-1.59914 0.231843 9.63949e-13
0.231843 0.842086 2.1584e-11
9.63949e-13 2.1584e-11 -0.24676

-0.573816 0.619682 2.50512e-11
0.619682 0.378244 9.64025e-13
2.50512e-11 9.64025e-13 -0.182297

1.03993 -0.751508 2.11988e-11
-0.751508 -1.45674 1.6573e-11
2.11988e-11 1.6573e-11 -0.00274455

1.44449 -0.459533 -2.1007e-11
-0.459533 -0.832325 2.58228e-11
-2.1007e-11 2.58228e-11 0.250585

-2.76255 0.352632 5.58838e-12
0.352632 0.553015 8.86458e-12
5.58838e-12 8.86458e-12 -0.847911

-1.90842 0.64025 3.31447e-11
0.64025 -0.757818 -4.64414e-11
3.31447e-11 -4.64414e-11 -0.945403

1.40127 -0.00439397 -4.04658e-12
-0.00439397 -0.768238 -2.04285e-11
-4.04658e-12 -2.04285e-11 0.250794

0.163458 0.290687 -2.44733e-11
0.290687 -2.4976 1.17546e-11
-2.44733e-11 1.17546e-11 -0.420498

0.830568 0.993023 -1.54093e-12
0.993023 2.28582 -2.1199e-12
-1.54093e-12 -2.1199e-12 1.14176

0.597048 0.785166 -9.63629e-12
0.785166 2.39636 -2.31273e-11
-9.63629e-12 -2.31273e-11 1.2098

2.30743 0.787005 2.89198e-12
0.787005 0.902158 -9.2504e-12
2.89198e-12 -9.2504e-12 1.26742

-1.07266 -1.20222 -3.92145e-11
-1.20222 -0.405169 1.83076e-11
-3.92145e-11 1.83076e-11 -0.777559

-1.23145 -0.504685 1.0792e-11
-0.504685 0.0980832 -3.08283e-12
1.0792e-11 -3.08283e-12 -0.691421

0.061078 -1.38578 -1.02151e-11
-1.38578 -0.116212 1.31039e-11
-1.02151e-11 1.31039e-11 0.0237907

-0.904306 1.11557 -9.05719e-12
1.11557 0.841901 1.73441e-11
-9.05719e-12 1.73441e-11 -0.00365624

-1.26454 1.30367 -1.73439e-11
1.30367 0.360943 2.44733e-11
-1.73439e-11 2.44733e-11 -0.22514

-1.95653 -0.630215 2.69832e-12
-0.630215 -0.777471 -3.21823e-11
2.69832e-12 -3.21823e-11 -0.979156

-2.76606 -0.417755 -1.09841e-11
-0.417755 0.622814 4.70208e-11
-1.09841e-11 4.70208e-11 -0.849081

1.2612 0.35022 1.08875e-11
0.35022 -1.46469 -3.2374e-11
1.08875e-11 -3.2374e-11 -0.0334258

0.581169 0.326734 1.54172e-11
0.326734 2.44313 -2.67878e-11
1.54172e-11 -2.67878e-11 0.913782

0.198164 0.144125 -2.78459e-11
0.144125 2.42171 -2.35115e-11
-2.78459e-11 -2.35115e-11 0.90128

2.58523 0.135913 -7.41988e-12
0.135913 0.584744 -3.85543e-13
-7.41988e-12 -3.85543e-13 1.02062

-0.490436 0.784268 1.35049e-12
0.784268 1.41713 -6.55209e-12
1.35049e-12 -6.55209e-12 0.322496

0.00979972 1.28299 7.51504e-12
1.28299 1.1034 -3.41098e-11
7.51504e-12 -3.41098e-11 0.309192

0.822649 0.217769 2.11986e-11
0.217769 -1.58184 8.09298e-12
2.11986e-11 8.09298e-12 -0.06532

2.24339 0.593501 -1.34709e-12
0.593501 3.36205 8.09493e-12
-1.34709e-12 8.09493e-12 2.15731

0.604621 -0.80368 1.07918e-11
-0.80368 -2.12334 -3.85412e-11
1.07918e-11 -3.85412e-11 -0.272702

-1.49214 0.0610552 1.29111e-11
0.0610552 0.29098 2.31219e-12
1.29111e-11 2.31219e-12 -0.90967

-0.961971 0.0175929 1.77281e-11
0.0175929 -0.718089 -7.51469e-12
1.77281e-11 -7.51469e-12 -0.977864

-0.359071 0.539828 1.19479e-11
0.539828 -3.40192 5.20226e-12
1.19479e-11 5.20226e-12 -2.73793

-0.119726 -1.30003 1.3103e-11
-1.30003 -2.30109 -1.00197e-11
1.3103e-11 -1.00197e-11 -2.56437

-0.235578 -1.47079 7.32179e-12
-1.47079 0.155539 -1.3876e-11
7.32179e-12 -1.3876e-11 0.0484766

-0.365045 -1.18923 1.46452e-11
-1.18923 0.955829 1.88864e-11
1.46452e-11 1.88864e-11 0.25634

2.37765 -0.409347 2.41867e-11
-0.409347 0.178926 1.2305e-15
2.41867e-11 1.2305e-15 0.918779

-0.219721 0.209954 -2.11968e-11
0.209954 -1.6811 -4.45132e-11
-2.11968e-11 -4.45132e-11 -1.02569

-0.0219846 -0.767903 -3.84914e-13
-0.767903 -1.38719 -2.38944e-11
-3.84914e-13 -2.38944e-11 -0.944328

0.209768 -0.341609 -1.54167e-11
-0.341609 -2.4628 -6.55209e-12
-1.54167e-11 -6.55209e-12 -0.398288

0.363197 -0.101951 -3.6615e-11
-0.101951 -2.66872 2.69774e-12
-3.6615e-11 2.69774e-12 -0.334205

1.43282 -1.21257 5.78226e-12
-1.21257 0.244738 -3.46906e-12
5.78226e-12 -3.46906e-12 0.501884

1.77447 0.560481 5.92119e-16
0.560481 -0.251298 -3.16049e-11
5.92119e-16 -3.16049e-11 0.502432

1.6474 -0.989534 7.69385e-13
-0.989534 -0.308038 2.46663e-11
7.69385e-13 2.46663e-11 0.466845

-2.04935 0.815788 1.04061e-11
0.815788 0.566314 -2.31243e-11
1.04061e-11 -2.31243e-11 -0.238107

-0.371624 -0.98523 1.6381e-11
-0.98523 1.32856 -1.61888e-11
1.6381e-11 -1.61888e-11 0.324921

-0.450909 0.946971 2.96788e-11
0.946971 0.962976 -2.77503e-11
2.96788e-11 -2.77503e-11 0.249435

6.58218 -1.504 -4.20144e-11
-1.504 6.64842 3.08453e-12
-4.20144e-11 3.08453e-12 6.5562

6.15836 0.925806 -2.42841e-11
0.925806 6.63964 2.50538e-11
-2.42841e-11 2.50538e-11 6.47226

-2.45685 -1.12955 1.19477e-11
-1.12955 0.0912113 -8.479e-12
1.19477e-11 -8.479e-12 -0.648429

-1.4132 0.748435 -4.2385e-12
0.748435 0.936915 4.0855e-11
-4.2385e-12 4.0855e-11 -0.00498457

3.77323 0.156603 1.52253e-11
0.156603 3.91043 -4.23978e-12
1.52253e-11 -4.23978e-12 4.29868

3.91665 -0.304207 -2.13932e-11
-0.304207 4.3818 -8.67347e-12
-2.13932e-11 -8.67347e-12 4.41597

-1.45695 -0.446968 -5.78581e-11
-0.446968 -0.778055 -2.83277e-11
-5.78581e-11 -2.83277e-11 -1.14377

-1.54999 0.94816 7.75457e-12
0.94816 -1.1615 3.08297e-12
7.75457e-12 3.08297e-12 -1.16435

1.54853 0.0103767 -1.73442e-11
0.0103767 -1.71765 -2.06199e-11
-1.73442e-11 -2.06199e-11 -0.0407313

-1.56952 -0.298605 -3.66373e-11
-0.298605 -1.43471 3.25664e-11
-3.66373e-11 3.25664e-11 -1.3105

-1.55052 0.885471 1.19702e-11
0.885471 -1.1488 1.69573e-11
1.19702e-11 1.69573e-11 -1.19398

-0.492974 0.974181 6.16659e-12
0.974181 -3.01947 3.85444e-12
6.16659e-12 3.85444e-12 -2.20875

-0.62807 -1.19164 -2.1969e-11
-1.19164 -1.95039 3.46856e-11
-2.1969e-11 3.46856e-11 -2.11399

-0.81973 -0.716128 4.10936e-11
-0.716128 -0.71254 3.13621e-11
4.10936e-11 3.13621e-11 -0.572447

-0.834543 0.94814 4.64903e-11
0.94814 -0.899518 1.11287e-11
4.64903e-11 1.11287e-11 -0.535739

-2.55141 -0.076211 -2.75553e-11
-0.076211 0.0517649 6.55184e-12
-2.75553e-11 6.55184e-12 -2.02961

-2.64815 0.341172 -3.85636e-13
0.341172 -1.45964 1.2622e-11
-3.85636e-13 1.2622e-11 -2.2808

-0.203787 -1.35451 1.14654e-11
-1.35451 1.34217 1.73461e-12
1.14654e-11 1.73461e-12 0.280091

1.80278 0.142633 1.84997e-11
0.142633 3.22793 -3.04502e-11
1.84997e-11 -3.04502e-11 2.20592

3.13367 0.183899 -2.62105e-11
0.183899 1.96428 -2.81389e-11
-2.62105e-11 -2.81389e-11 2.20912

-2.05869 0.712621 3.17965e-11
0.712621 0.733383 -2.27388e-11
3.17965e-11 -2.27388e-11 -0.256277

-1.27097 1.0471 9.24998e-12
1.0471 0.440374 1.50319e-11
9.24998e-12 1.50319e-11 -0.229573

-3.03545 -0.993676 7.88732e-11
-0.993676 -4.81016 -6.32034e-11
7.88732e-11 -6.32034e-11 -4.59867

-3.15202 1.53954 3.92999e-11
1.53954 -1.38295 2.81328e-11
3.92999e-11 2.81328e-11 -3.94168

1.04377 0.957719 -3.35314e-11
0.957719 0.53519 -2.60176e-11
-3.35314e-11 -2.60176e-11 0.445882

-1.2769 1.61962 -2.92909e-11
1.61962 0.346332 -1.54217e-12
-2.92909e-11 -1.54217e-12 -0.233201

0.18834 0.614332 -3.35307e-11
0.614332 -1.41158 1.92695e-12
-3.35307e-11 1.92695e-12 -0.314574

0.233976 -0.487089 3.49292e-11
-0.487089 -1.39619 -1.65721e-11
3.49292e-11 -1.65721e-11 -0.349858

-1.15674 1.53774 -1.54166e-11
1.53774 -0.124038 -1.52244e-11
-1.54166e-11 -1.52244e-11 -0.33248

-1.69133 -1.51816 -2.26421e-11
-1.51816 -0.034639 -2.56295e-11
-2.26421e-11 -2.56295e-11 -0.58875

-0.0203743 -1.29808 -1.00219e-11
-1.29808 -2.16399 -4.62597e-12
-1.00219e-11 -4.62597e-12 -0.903903

2.31826 -0.115727 3.8448e-11
-0.115727 0.236705 -7.70765e-12
3.8448e-11 -7.70765e-12 0.921246

-0.469032 0.181978 -7.28399e-11
0.181978 -1.42217 -4.66342e-11
-7.28399e-11 -4.66342e-11 -2.95887

-0.404656 -0.113451 4.62491e-11
-0.113451 -3.48347 -4.20056e-11
4.62491e-11 -4.20056e-11 -3.25367

0.215683 1.1792 -2.52448e-11
1.1792 -0.304596 8.47975e-12
-2.52448e-11 8.47975e-12 0.0198174

1.23834 0.447768 2.51497e-11
0.447768 -0.990373 9.24942e-12
2.51497e-11 9.24942e-12 0.0516709

1.38824 1.00606 8.28822e-12
1.00606 1.84955 3.08246e-12
8.28822e-12 3.08246e-12 1.03259

-3.1558 0.240689 4.74031e-11
0.240689 -2.41298 2.35099e-11
4.74031e-11 2.35099e-11 -3.0128

-2.42715 0.698301 1.20434e-10
0.698301 -0.230154 1.88851e-11
1.20434e-10 1.88851e-11 -2.52336

-0.24164 0.643935 -2.08126e-11
0.643935 -2.63565 -3.68058e-11
-2.08126e-11 -3.68058e-11 -1.0355

-1.66334 -0.272555 -1.92832e-13
-0.272555 0.884514 2.11983e-11
-1.92832e-13 2.11983e-11 -0.291688

-0.649489 -0.583365 -2.50521e-12
-0.583365 0.397559 9.24953e-12
-2.50521e-12 9.24953e-12 -0.232191

0.971043 0.187344 -4.74493e-12
0.187344 -2.16997 -1.42608e-11
-4.74493e-12 -1.42608e-11 -0.285638

1.08127 -0.144972 -1.22615e-11
-0.144972 -2.1835 -7.90179e-12
-1.22615e-11 -7.90179e-12 -0.284667

2.04218 -1.008 -3.85295e-12
-1.008 1.57297 -2.89075e-11
-3.85295e-12 -2.89075e-11 1.13114

1.89497 0.00323544 1.58832e-12
0.00323544 -0.820094 -1.5609e-11
1.58832e-12 -1.5609e-11 0.280833

0.185634 -0.162229 -6.46767e-11
-0.162229 -2.08995 1.15558e-12
-6.46767e-11 1.15558e-12 -0.65919

-0.0471253 0.332455 1.02132e-11
0.332455 -1.83959 -1.54154e-12
1.02132e-11 -1.54154e-12 -0.617837

1.31346 -0.41831 -8.96289e-12
-0.41831 -0.720766 3.89264e-11
-8.96289e-12 3.89264e-11 0.0788218

-0.078157 -1.19596 1.77291e-11
-1.19596 1.30231 1.05978e-11
1.77291e-11 1.05978e-11 0.286527

1.05981 -0.0943151 4.62497e-12
-0.0943151 -1.51407 -4.62543e-12
4.62497e-12 -4.62543e-12 -0.22985

0.895588 0.213389 8.81708e-12
0.213389 -1.59614 -7.13047e-12
8.81708e-12 -7.13047e-12 -0.243993

0.734914 0.487308 2.91e-11
0.487308 -1.20267 5.78117e-12
2.91e-11 5.78117e-12 -0.0486591

0.823471 -1.52172 4.89492e-11
-1.52172 0.622232 -3.85247e-13
4.89492e-11 -3.85247e-13 0.541657

-1.72336 1.46877 3.1604e-11
1.46877 -0.372947 4.24108e-12
3.1604e-11 4.24108e-12 -0.339812

-1.31795 1.44383 1.21402e-11
1.44383 0.396263 -2.89034e-12
1.21402e-11 -2.89034e-12 -0.251714

-2.09126 1.08896 -2.40879e-11
1.08896 -0.452578 -1.04066e-11
-2.40879e-11 -1.04066e-11 -0.433522

1.83629 0.531098 -1.91752e-11
0.531098 -0.503899 5.39672e-12
-1.91752e-11 5.39672e-12 0.417087

2.82523 -1.04937 1.56108e-11
-1.04937 1.90474 -2.69903e-12
1.56108e-11 -2.69903e-12 1.92696

-0.136397 0.886675 2.27378e-11
0.886675 -1.36629 -3.10267e-11
2.27378e-11 -3.10267e-11 -0.388605

1.00987 -0.944756 2.06196e-11
-0.944756 -0.925526 -1.11759e-11
2.06196e-11 -1.11759e-11 0.0602844

2.87297 -0.909399 3.08168e-12
-0.909399 1.70456 8.86529e-12
3.08168e-12 8.86529e-12 1.86259

0.467375 -1.51666 -1.7345e-12
-1.51666 -0.548872 -1.92737e-12
-1.7345e-12 -1.92737e-12 0.0412634

-1.56046 0.0389952 -1.98496e-11
0.0389952 0.176753 1.00207e-11
-1.98496e-11 1.00207e-11 -0.398579

-2.26894 0.000154352 8.67199e-12
0.000154352 1.12674 1.8501e-11
8.67199e-12 1.8501e-11 -0.302444

0.638474 1.29303 -8.09184e-12
1.29303 0.752825 -1.75372e-11
-8.09184e-12 -1.75372e-11 0.444343

2.31632 -1.07568 -3.46922e-12
-1.07568 0.808751 2.58246e-11
-3.46922e-12 2.58246e-11 1.15593

-1.07958 -1.57469 1.42607e-11
-1.57469 -0.537819 -2.04268e-11
1.42607e-11 -2.04268e-11 -0.314706

0.621627 -1.4062 -6.84162e-12
-1.4062 1.34759 -2.89043e-12
-6.84162e-12 -2.89043e-12 0.530289

0.607655 -1.42213 2.52477e-11
-1.42213 1.24719 -1.88852e-11
2.52477e-11 -1.88852e-11 0.594094

0.689664 0.727365 2.46651e-11
0.727365 -0.679879 -1.32988e-11
2.46651e-11 -1.32988e-11 0.00888938

0.357627 0.460476 -4.43225e-11
0.460476 -3.76621 4.1431e-11
-4.43225e-11 4.1431e-11 -0.762685

0.314374 -0.725471 -3.69991e-11
-0.725471 -3.1151 -3.27596e-11
-3.69991e-11 -3.27596e-11 -0.681646

-0.282421 0.808796 1.96562e-11
0.808796 1.55702 8.28689e-12
1.96562e-11 8.28689e-12 0.357097

-0.813997 0.551711 -9.9248e-12
0.551711 1.74828 -5.01095e-12
-9.9248e-12 -5.01095e-12 0.345599

0.113239 -0.116996 8.09473e-12
-0.116996 2.5468 -1.92809e-13
8.09473e-12 -1.92809e-13 0.951004

-0.120452 -0.156231 -2.15842e-11
-0.156231 2.69355 -9.63592e-12
-2.15842e-11 -9.63592e-12 1.00562

2.83191 -0.102914 1.44496e-12
-0.102914 0.176332 7.13142e-12
1.44496e-12 7.13142e-12 1.10028

1.04733 -1.2813 -1.61885e-11
-1.2813 0.302572 -1.25263e-11
-1.61885e-11 -1.25263e-11 0.412603

-4.40383 -0.947832 -9.94315e-11
-0.947832 -2.97061 4.87553e-11
-9.94315e-11 4.87553e-11 -4.16395

-0.386375 -0.377042 5.83852e-11
-0.377042 -0.376418 4.5473e-11
5.83852e-11 4.5473e-11 -2.95716

1.46993 0.903665 -2.83286e-11
0.903665 -0.0459849 3.19899e-11
-2.83286e-11 3.19899e-11 0.499514

1.83723 -0.61533 1.95604e-11
-0.61533 -0.557787 -1.6574e-11
1.95604e-11 -1.6574e-11 0.366002

2.7383 0.564778 1.90792e-11
0.564778 1.43493 2.17772e-11
1.90792e-11 2.17772e-11 1.70951

-1.56329 0.926937 -1.82107e-11
0.926937 0.358634 1.04068e-11
-1.82107e-11 1.04068e-11 -0.129905

1.56829 0.0161336 7.17865e-12
0.0161336 -1.67892 7.32207e-12
7.17865e-12 7.32207e-12 -0.0380219

-1.72968 1.41542 -3.02547e-11
1.41542 -0.0693256 -1.19482e-11
-3.02547e-11 -1.19482e-11 -0.527557

-2.83169 1.12406 -2.37985e-11
1.12406 0.094701 -3.54578e-11
-2.37985e-11 -3.54578e-11 -0.654941

1.13968 0.727057 6.25351e-11
0.727057 1.92325 -1.91745e-11
6.25351e-11 -1.91745e-11 1.0681

1.82379 0.809205 -1.22378e-11
0.809205 1.60445 2.15851e-11
-1.22378e-11 2.15851e-11 1.1571

-1.36294 -1.70878 3.56603e-12
-1.70878 0.311529 -3.27603e-11
3.56603e-12 -3.27603e-11 -0.31006

2.76098 0.456355 1.92724e-11
0.456355 1.37935 -3.08332e-11
1.92724e-11 -3.08332e-11 1.6939

-2.1269 1.26196 -8.14124e-12
1.26196 -0.855412 -4.16253e-11
-8.14124e-12 -4.16253e-11 -0.482181

-0.766452 1.53893 -2.29308e-11
1.53893 0.673043 1.88851e-11
-2.29308e-11 1.88851e-11 -0.0188976

1.39465 -0.021608 2.56305e-11
-0.021608 -2.45632 -1.50299e-11
2.56305e-11 -1.50299e-11 -0.231286

-1.76133 -1.16571 9.63448e-12
-1.16571 -0.837277 3.04473e-11
9.63448e-12 3.04473e-11 -0.482635

0.167419 1.25802 -1.67675e-11
1.25802 0.250283 -9.63466e-12
-1.67675e-11 -9.63466e-12 0.103241

0.538555 -0.615914 3.85472e-12
-0.615914 2.25325 -1.48396e-11
3.85472e-12 -1.48396e-11 0.806841

0.107974 -0.586685 -5.35752e-11
-0.586685 2.32016 1.19486e-11
-5.35752e-11 1.19486e-11 0.802546

2.34364 -0.43652 -2.49563e-11
-0.43652 0.585328 -1.32958e-11
-2.49563e-11 -1.32958e-11 0.89295

0.854027 -1.15087 2.31237e-12
-1.15087 1.02421 -3.64224e-11
2.31237e-12 -3.64224e-11 0.473457

-1.05018 -0.075829 -2.04259e-11
-0.075829 1.59341 -6.16721e-12
-2.04259e-11 -6.16721e-12 0.168924

-0.16093 -0.0105938 -2.60156e-11
-0.0105938 1.39673 1.48393e-11
-2.60156e-11 1.48393e-11 0.244377

1.41076 -1.23244 -1.54191e-12
-1.23244 1.97726 -3.43029e-11
-1.54191e-12 -3.43029e-11 1.19576

1.05631 -1.19798 -3.5654e-11
-1.19798 2.16523 3.73864e-11
-3.5654e-11 3.73864e-11 1.20983

1.33864 -0.0614531 -9.39568e-13
-0.0614531 -2.25271 9.63502e-12
-9.39568e-13 9.63502e-12 -0.226395

1.43241 0.0640773 1.16828e-11
0.0640773 -2.29853 -1.15619e-12
1.16828e-11 -1.15619e-12 -0.231366

-1.23606 1.17546 2.09079e-11
1.17546 -0.0987053 8.09464e-12
2.09079e-11 8.09464e-12 -0.160106

-2.74578 -0.991175 -3.84896e-13
-0.991175 0.0326868 -1.0407e-11
-3.84896e-13 -1.0407e-11 -0.625495

-0.123271 -1.52317 1.98477e-11
-1.52317 -0.969223 -7.32257e-12
1.98477e-11 -7.32257e-12 -0.2796

-0.849594 0.579463 8.09375e-12
0.579463 -1.47348 3.62281e-11
8.09375e-12 3.62281e-11 -0.832022

-0.641144 -0.174467 -2.50278e-11
-0.174467 -1.21639 9.53761e-12
-2.50278e-11 9.53761e-12 -0.797474

0.294198 -0.633514 1.56101e-11
-0.633514 -0.404736 1.93493e-13
1.56101e-11 1.93493e-13 -0.171643

0.171003 0.763562 -2.89145e-12
0.763562 -0.853211 -1.54165e-11
-2.89145e-12 -1.54165e-11 -0.213601

3.65621 -0.638003 -1.98507e-11
-0.638003 2.26066 -1.02137e-11
-1.98507e-11 -1.02137e-11 3.99231

0.378013 1.21064 -3.46873e-12
1.21064 1.1391 -5.82e-11
-3.46873e-12 -5.82e-11 0.512527

2.77182 0.440701 -5.82033e-11
0.440701 3.6879 1.23333e-11
-5.82033e-11 1.23333e-11 4.07898

-0.600169 1.36321 8.09327e-12
1.36321 0.165432 1.94641e-11
8.09327e-12 1.94641e-11 -0.110508

-0.356651 -0.954446 -2.11969e-11
-0.954446 1.68896 2.60162e-11
-2.11969e-11 2.60162e-11 0.349493

-0.834495 -0.850877 -3.12178e-11
-0.850877 1.66183 -2.19688e-11
-3.12178e-11 -2.19688e-11 0.326816

-1.90043 -0.292097 5.73762e-11
-0.292097 -2.24103 3.77689e-11
5.73762e-11 3.77689e-11 -2.30066

-2.33178 0.804065 -6.95743e-11
0.804065 -1.44051 1.07897e-11
-6.95743e-11 1.07897e-11 -2.20108

0.476001 0.903462 1.25276e-11
0.903462 -0.223988 5.78258e-12
1.25276e-11 5.78258e-12 0.0981996

1.91704 -0.0912656 1.96556e-11
-0.0912656 -0.693076 4.62511e-12
1.96556e-11 4.62511e-12 0.299626

1.14259 1.01244 -1.33945e-11
1.01244 0.20534 -2.31291e-11
-1.33945e-11 -2.31291e-11 0.482936

-1.99529 -0.584899 -1.71505e-11
-0.584899 0.986186 2.27393e-11
-1.71505e-11 2.27393e-11 -0.241455

-1.33957 -0.965053 3.29518e-11
-0.965053 0.380803 1.90777e-11
3.29518e-11 1.90777e-11 -0.305424

-1.45491 -1.75359 -2.20167e-11
-1.75359 0.72883 2.89064e-11
-2.20167e-11 2.89064e-11 -0.244598

0.534843 -0.972628 -4.17217e-11
-0.972628 0.160312 -1.11776e-11
-4.17217e-11 -1.11776e-11 0.107712

-1.43006 1.63301 5.20308e-12
1.63301 0.336141 9.44278e-12
5.20308e-12 9.44278e-12 -0.235528

-1.20646 0.754402 -1.6765e-11
0.754402 -0.132213 -1.41647e-11
-1.6765e-11 -1.41647e-11 -0.724023

-1.1373 1.14364 -1.04059e-11
1.14364 -0.552245 -1.93662e-11
-1.04059e-11 -1.93662e-11 -0.78437

-0.968041 -1.53453 -5.10662e-11
-1.53453 0.824752 -8.28517e-12
-5.10662e-11 -8.28517e-12 -0.0798335

-0.732561 1.39372 -2.89032e-12
1.39372 0.603105 -9.05664e-12
-2.89032e-12 -9.05664e-12 -0.0392817

-2.89421 1.7563 -9.1529e-12
1.7563 -0.443783 -2.23545e-11
-9.1529e-12 -2.23545e-11 -0.517914

-1.35385 0.164735 -1.31992e-11
0.164735 1.67403 -1.92723e-11
-1.31992e-11 -1.92723e-11 0.154682

-0.825036 0.382492 1.52245e-11
0.382492 1.3064 5.78226e-12
1.52245e-11 5.78226e-12 0.122787

-0.426372 1.08156 -2.96767e-11
1.08156 -0.611147 -1.65734e-11
-2.96767e-11 -1.65734e-11 -0.206116

0.767476 0.908957 -1.25285e-12
0.908957 0.655431 -2.7751e-11
-1.25285e-12 -2.7751e-11 0.45266

-1.32569 -0.942378 1.15615e-12
-0.942378 0.867985 2.38951e-11
1.15615e-12 2.38951e-11 -0.0181309

-1.61545 -1.64875 4.26838e-11
-1.64875 0.185696 -1.69592e-11
4.26838e-11 -1.69592e-11 -0.480472

3.14374 0.545373 1.86938e-11
0.545373 3.91871 -7.70802e-12
1.86938e-11 -7.70802e-12 3.22687

3.72839 0.568582 1.30101e-11
0.568582 3.28406 -1.54395e-12
1.30101e-11 -1.54395e-12 3.20819

1.40779 -1.21814 1.54146e-11
-1.21814 1.70958 1.69592e-11
1.54146e-11 1.69592e-11 1.11011

-0.402809 -1.13144 -1.63786e-11
-1.13144 -0.258381 -1.84984e-11
-1.63786e-11 -1.84984e-11 -0.221276

1.27501 -0.337017 3.90388e-12
-0.337017 -1.44876 3.86247e-13
3.90388e-12 3.86247e-13 -0.0474748

-2.94941 1.22852 1.02515e-10
1.22852 -2.26779 2.27411e-11
1.02515e-10 2.27411e-11 -3.71187

-1.98388 -1.33881 -5.2441e-11
-1.33881 -3.91764 1.41631e-10
-5.2441e-11 1.41631e-10 -3.85109

-0.917597 -1.67585 -2.41846e-11
-1.67585 0.8119 2.21618e-11
-2.41846e-11 2.21618e-11 -0.0602292

-1.65943 0.310848 1.54159e-11
0.310848 -2.38204 1.13695e-11
1.54159e-11 1.13695e-11 -1.94667

-1.11198 -1.27349 -4.81746e-11
-1.27349 -1.06705 1.50314e-11
-4.81746e-11 1.50314e-11 -1.63366

0.723624 -0.442402 -1.13691e-11
-0.442402 -1.73419 -3.85474e-13
-1.13691e-11 -3.85474e-13 -0.102357

-2.56195 -1.74029 2.06195e-11
-1.74029 -0.531399 -5.01083e-12
2.06195e-11 -5.01083e-12 -0.514593

2.49144 -1.06381 -1.63811e-11
-1.06381 2.94801 -1.81151e-11
-1.63811e-11 -1.81151e-11 2.46996

2.77336 0.775761 -1.00227e-11
0.775761 2.73186 1.26239e-11
-1.00227e-11 1.26239e-11 2.44254

1.56516 -0.633657 1.13704e-11
-0.633657 3.09488 -2.29355e-11
1.13704e-11 -2.29355e-11 1.93034

1.53288 -0.695633 -1.73326e-12
-0.695633 3.02381 -8.47925e-12
-1.73326e-12 -8.47925e-12 1.8722

3.2494 -0.52758 1.97534e-11
-0.52758 1.58937 -2.63076e-11
1.97534e-11 -2.63076e-11 1.94908

1.55659 0.941319 2.37041e-11
0.941319 1.36819 6.91867e-11
2.37041e-11 6.91867e-11 1.02113

-1.50161 -1.86438 -1.18505e-11
-1.86438 0.60032 -2.02341e-11
-1.18505e-11 -2.02341e-11 -0.252099

1.75593 0.0949123 1.34902e-11
0.0949123 3.68036 -1.02137e-11
1.34902e-11 -1.02137e-11 2.43687

3.4961 -0.281924 1.96588e-11
-0.281924 1.66089 3.08408e-12
1.96588e-11 3.08408e-12 2.39454

-1.77032 0.14634 -1.3105e-11
0.14634 0.171527 -1.11764e-11
-1.3105e-11 -1.11764e-11 -1.31704

-1.86042 -0.758795 -4.4321e-12
-0.758795 -1.14027 1.5414e-12
-4.4321e-12 1.5414e-12 -1.56569

0.562815 -0.868991 -8.09325e-12
-0.868991 -1.24577 3.73848e-11
-8.09325e-12 3.73848e-11 -0.233672

0.354228 -0.0543197 -3.58444e-11
-0.0543197 -3.79933 4.23914e-12
-3.58444e-11 4.23914e-12 -0.550627

0.136801 -0.933912 -3.44955e-11
-0.933912 1.86548 -1.00226e-11
-3.44955e-11 -1.00226e-11 0.774612

0.409858 -0.931402 1.40677e-11
-0.931402 1.98523 -6.16655e-12
1.40677e-11 -6.16655e-12 0.770245

0.835133 -0.0517032 -1.52241e-11
-0.0517032 -1.86764 1.73437e-11
-1.52241e-11 1.73437e-11 -0.0969086

-0.957811 -1.28104 4.35516e-11
-1.28104 0.934266 -1.54254e-12
4.35516e-11 -1.54254e-12 -0.0268008

-1.13676 0.0213886 -1.60185e-11
0.0213886 -1.77104 6.33981e-11
-1.60185e-11 6.33981e-11 -1.55523

-1.60573 0.382001 -3.04227e-11
0.382001 -1.37105 4.70181e-11
-3.04227e-11 4.70181e-11 -1.53161

0.0185463 -1.2063 7.70772e-12
-1.2063 -0.793188 -2.69724e-12
7.70772e-12 -2.69724e-12 -0.281385

-0.978893 -1.23236 -1.31036e-11
-1.23236 -0.148395 -3.31458e-11
-1.31036e-11 -3.31458e-11 -0.156593

0.686069 -0.866453 -4.04734e-12
-0.866453 -2.06775 1.92607e-12
-4.04734e-12 1.92607e-12 -0.292073

-1.31333 -1.0852 2.96768e-11
-1.0852 0.331963 -1.0407e-11
2.96768e-11 -1.0407e-11 -0.1139

6.70731 -2.06599 -1.96597e-11
-2.06599 6.90754 8.01747e-11
-1.96597e-11 8.01747e-11 6.9

-0.676112 -0.475933 -7.51573e-12
-0.475933 1.23761 3.29534e-11
-7.51573e-12 3.29534e-11 0.129838

-1.16623 -0.358435 -3.19892e-11
-0.358435 1.67011 -1.19478e-11
-3.19892e-11 -1.19478e-11 0.187228

-2.39944 -0.175358 2.79419e-11
-0.175358 0.609317 -1.18705e-10
2.79419e-11 -1.18705e-10 -1.53984

-2.14379 -0.207162 -1.44522e-11
-0.207162 -1.65348 8.38303e-12
-1.44522e-11 8.38303e-12 -1.87522

0.927096 -0.115981 1.3104e-11
-0.115981 -2.50343 -8.67133e-12
1.3104e-11 -8.67133e-12 -0.496636

0.684659 0.0578099 -1.83551e-11
0.0578099 -2.35498 -7.32267e-12
-1.83551e-11 -7.32267e-12 -0.489011

-0.951857 0.90484 -2.10045e-11
0.90484 -1.48693 -3.17968e-11
-2.10045e-11 -3.17968e-11 -0.84805

-0.415042 -1.62479 1.65724e-11
-1.62479 -1.40927 -1.27203e-11
1.65724e-11 -1.27203e-11 -0.717315

-0.975538 0.322721 5.0102e-11
0.322721 -1.14693 2.73628e-11
5.0102e-11 2.73628e-11 -1.3391

-0.267923 -0.578959 -4.50922e-11
-0.578959 -1.0881 2.17745e-11
-4.50922e-11 2.17745e-11 -1.22715

-2.48768 -0.633387 2.14611e-11
-0.633387 -3.19465 4.47062e-11
2.14611e-11 4.47062e-11 -3.29171

-2.27058 1.9029 4.35503e-11
1.9029 -1.44302 7.47691e-11
4.35503e-11 7.47691e-11 -2.88187

-1.6627 -1.67955 9.25001e-12
-1.67955 0.101936 4.04659e-12
9.25001e-12 4.04659e-12 -0.52839

-2.39666 2.07916 -7.80292e-12
2.07916 -1.00925 -4.47086e-11
-7.80292e-12 -4.47086e-11 -0.698058

0.632485 0.838478 6.16866e-12
0.838478 -0.72667 3.08338e-11
6.16866e-12 3.08338e-11 0.022618

-1.25543 -0.715673 -3.10256e-11
-0.715673 1.0756 -1.96567e-11
-3.10256e-11 -1.96567e-11 0.0123956

-0.462719 -1.08628 2.30295e-11
-1.08628 1.08624 -3.10275e-11
2.30295e-11 -3.10275e-11 0.0910015

0.66773 -0.881145 -2.41089e-12
-0.881145 -0.526598 2.4473e-11
-2.41089e-12 2.4473e-11 0.0143761

-0.387675 0.81816 1.92762e-12
0.81816 0.998601 -1.44534e-11
1.92762e-12 -1.44534e-11 0.109066

-1.21694 0.48207 3.61799e-11
0.48207 1.18857 -1.77288e-11
3.61799e-11 -1.77288e-11 0.0546676

0.0765369 1.15866 7.51582e-12
1.15866 0.0204028 7.70902e-13
7.51582e-12 7.70902e-13 0.111853

-1.49231 1.3933 1.32965e-11
1.3933 -0.315272 3.08348e-12
1.32965e-11 3.08348e-12 -0.557748

-1.70703 -1.86195 1.36805e-11
-1.86195 -0.953945 3.62284e-11
1.36805e-11 3.62284e-11 -0.663404

0.22368 -1.41874 -2.64978e-11
-1.41874 0.342843 -4.04687e-12
-2.64978e-11 -4.04687e-12 0.119424

0.385052 0.410465 5.78071e-12
0.410465 -1.38405 -2.21603e-11
5.78071e-12 -2.21603e-11 -0.31454

-0.448205 -0.629032 -2.85178e-11
-0.629032 -0.807726 -2.38945e-11
-2.85178e-11 -2.38945e-11 -3.07468

-4.17532 0.383409 1.00589e-10
0.383409 -3.81189 1.49362e-11
1.00589e-10 1.49362e-11 -4.30038

-0.882583 -1.40845 -1.01178e-11
-1.40845 0.503828 4.47084e-11
-1.01178e-11 4.47084e-11 -0.201881

0.221503 -1.39391 6.93697e-12
-1.39391 -1.26554 6.5515e-12
6.93697e-12 6.5515e-12 -0.275142

0.109034 -0.119654 2.69729e-12
-0.119654 -1.4071 1.5801e-11
2.69729e-12 1.5801e-11 -0.793453

3.21546 -0.977718 -9.05801e-12
-0.977718 3.5924 2.23553e-11
-9.05801e-12 2.23553e-11 3.0207

3.56924 -0.872592 -4.22057e-11
-0.872592 2.97081 -3.95084e-12
-4.22057e-11 -3.95084e-12 2.91871

0.637353 0.0977162 2.99173e-11
0.0977162 -2.33842 1.05986e-11
2.99173e-11 1.05986e-11 -0.667171

0.182265 -0.0764601 -4.81046e-11
-0.0764601 -2.17129 -6.93727e-12
-4.81046e-11 -6.93727e-12 -0.691772

0.0679079 -0.0193299 -2.00418e-11
-0.0193299 -2.29237 -1.90763e-11
-2.00418e-11 -1.90763e-11 -0.930281

1.6645 0.593453 -1.31034e-11
0.593453 -0.0265734 -1.50312e-11
-1.31034e-11 -1.50312e-11 0.458836

-0.794624 -0.8953 4.61525e-11
-0.8953 -0.102362 1.00208e-11
4.61525e-11 1.00208e-11 -0.452587

-0.929516 1.08821 2.83733e-11
1.08821 -0.900899 2.00405e-11
2.83733e-11 2.00405e-11 -0.536935

-2.37116 -0.998144 1.73414e-11
-0.998144 -4.59543 7.47008e-12
1.73414e-11 7.47008e-12 -4.08189

-1.20163 -0.10595 4.43199e-11
-0.10595 -0.151805 1.33353e-10
4.43199e-11 1.33353e-10 -3.08321

-1.40792 -1.58202 -2.89178e-12
-1.58202 0.52906 4.47082e-11
-2.89178e-12 4.47082e-11 -0.238731

0.887106 -1.10877 1.31054e-11
-1.10877 -0.810512 -8.86557e-12
1.31054e-11 -8.86557e-12 0.036967

-0.282446 0.241738 1.59708e-11
0.241738 -1.20156 -1.3489e-11
1.59708e-11 -1.3489e-11 -0.695579

-0.0446215 0.0410017 -5.75702e-11
0.0410017 -1.4338 -1.17553e-11
-5.75702e-11 -1.17553e-11 -0.738209

-1.59857 -0.635425 8.28632e-12
-0.635425 0.32396 -1.04067e-11
8.28632e-12 -1.04067e-11 -0.289845

-1.95261 -1.16579 3.17959e-11
-1.16579 -0.541286 3.27626e-12
3.17959e-11 3.27626e-12 -0.419459

7.0109 1.74776 1.9851e-11
1.74776 6.73239 7.70967e-12
1.9851e-11 7.70967e-12 6.91697

-1.5409 0.933413 1.46452e-11
0.933413 -0.386033 4.23948e-11
1.46452e-11 4.23948e-11 -0.792691

-1.53361 -1.21466 -7.13023e-12
-1.21466 -0.489835 4.33581e-11
-7.13023e-12 4.33581e-11 -0.79608

-1.89174 -1.10291 2.4473e-11
-1.10291 0.158033 -2.54375e-11
2.4473e-11 -2.54375e-11 -0.284642

1.72698 -0.742353 4.22038e-11
-0.742353 0.18988 -4.43268e-12
4.22038e-11 -4.43268e-12 0.451591

-0.20182 0.808085 1.79213e-11
0.808085 -0.463631 -1.44541e-11
1.79213e-11 -1.44541e-11 -0.281569

-0.793732 0.849095 -9.05605e-12
0.849095 -0.651137 1.88837e-11
-9.05605e-12 1.88837e-11 -0.635129

-0.210666 -1.30816 5.20389e-12
-1.30816 -1.31051 -1.15612e-11
5.20389e-12 -1.15612e-11 -0.627668

0.512093 0.326009 2.25483e-11
0.326009 -2.29955 -7.69903e-13
2.25483e-11 -7.69903e-13 -0.370022

-0.553455 -0.151693 -1.69576e-11
-0.151693 -1.46892 1.92648e-12
-1.69576e-11 1.92648e-12 -1.05857

-0.218621 0.237779 3.22542e-11
0.237779 -2.03454 -3.10238e-11
3.22542e-11 -3.10238e-11 -1.13662

-2.8359 0.434534 -6.12764e-11
0.434534 0.0783914 3.27577e-11
-6.12764e-11 3.27577e-11 -2.85415

-3.36447 0.0824823 2.69696e-12
0.0824823 -1.63202 5.02948e-11
2.69696e-12 5.02948e-11 -3.19676

3.96195 -0.446826 6.16733e-12
-0.446826 2.81853 -2.4284e-11
6.16733e-12 -2.4284e-11 4.1719

2.39867 -0.296639 2.60169e-11
-0.296639 4.09415 1.03688e-10
2.60169e-11 1.03688e-10 4.12196

-1.15472 -1.39201 -1.1562e-12
-1.39201 0.532112 -1.6573e-11
-1.1562e-12 -1.6573e-11 -0.292511

-1.38504 1.20698 -1.30048e-12
1.20698 -0.622702 6.16672e-11
-1.30048e-12 6.16672e-11 -0.415905

-1.37471 -1.86456 1.98488e-11
-1.86456 0.666569 -1.79221e-11
1.98488e-11 -1.79221e-11 -0.215918

4.38722 0.476764 3.62335e-11
0.476764 4.31879 -1.83078e-11
3.62335e-11 -1.83078e-11 4.8031

4.41413 0.718822 -6.49472e-11
0.718822 3.94284 -1.5424e-12
-6.49472e-11 -1.5424e-12 4.67202

-6.17039 1.52382 9.02549e-11
1.52382 -1.31078 1.50692e-10
9.02549e-11 1.50692e-10 -4.31364

-4.52063 -1.20472 -2.10588e-11
-1.20472 -2.22254 2.16978e-10
-2.10588e-11 2.16978e-10 -4.16773

-0.570304 1.12565 -3.16031e-11
1.12565 -0.520117 1.94622e-11
-3.16031e-11 1.94622e-11 -0.312199

-0.107436 -1.34215 -5.68494e-11
-1.34215 0.687068 -2.69769e-12
-5.68494e-11 -2.69769e-12 0.106677

-1.11331 -1.33372 1.3682e-11
-1.33372 -0.09707 1.38744e-11
1.3682e-11 1.38744e-11 -0.403775

-1.14024 1.34302 2.71205e-11
1.34302 -0.632183 6.62931e-11
2.71205e-11 6.62931e-11 -0.3907

-0.732636 -1.55738 -2.96765e-11
-1.55738 0.512401 5.78163e-12
-2.96765e-11 5.78163e-12 -0.0958097

-0.23337 1.08213 5.62712e-11
1.08213 0.349363 -1.00191e-11
5.62712e-11 -1.00191e-11 0.118446

1.2369 -0.567467 -6.74569e-12
-0.567467 2.93602 2.08136e-11
-6.74569e-12 2.08136e-11 1.7781

1.66818 -0.487712 1.05997e-11
-0.487712 3.03394 -2.60179e-11
1.05997e-11 -2.60179e-11 1.88228

3.19491 -0.39685 3.43043e-11
-0.39685 1.58953 1.11774e-11
3.43043e-11 1.11774e-11 1.91409

-0.934601 1.21447 1.43565e-11
1.21447 0.0246962 1.92755e-12
1.43565e-11 1.92755e-12 -0.108532

1.85467 -0.062612 1.27195e-11
-0.062612 3.67671 -1.19484e-11
1.27195e-11 -1.19484e-11 2.52479

3.64441 0.124633 -1.64793e-11
0.124633 2.09189 4.23971e-11
-1.64793e-11 4.23971e-11 2.55653

-1.48424 -1.2739 7.91517e-11
-1.2739 -0.254577 -5.78227e-13
7.91517e-11 -5.78227e-13 -0.683162

-1.51576 1.54794 -2.64481e-11
1.54794 -1.1338 7.55387e-11
-2.64481e-11 7.55387e-11 -0.727046

-1.5336 -1.01374 7.86709e-11
-1.01374 -0.364193 -1.50312e-11
7.86709e-11 -1.50312e-11 -0.799677

-1.53784 1.36885 -1.49475e-12
1.36885 -0.645373 1.42597e-11
-1.49475e-12 1.42597e-11 -0.753946

4.35122 -0.911843 5.12652e-11
-0.911843 4.48635 -5.28079e-11
5.12652e-11 -5.28079e-11 4.94147

4.3204 -0.888998 9.92495e-12
-0.888998 4.56567 6.93843e-11
9.92495e-12 6.93843e-11 4.95773

-0.565703 1.13265 -2.77503e-11
1.13265 -0.314936 5.01014e-12
-2.77503e-11 5.01014e-12 -0.151975

-0.472637 -1.22894 -2.9869e-11
-1.22894 0.427027 8.48105e-12
-2.9869e-11 8.48105e-12 -0.103358

-1.98403 -0.32132 -5.66525e-11
-0.32132 -0.548575 2.25454e-11
-5.66525e-11 2.25454e-11 -1.97191

-2.35412 -0.384664 -1.25259e-11
-0.384664 -2.04128 -1.0596e-12
-1.25259e-11 -1.0596e-12 -2.26913

-1.86473 -1.3263 1.26212e-11
-1.3263 0.15519 3.48794e-11
1.26212e-11 3.48794e-11 -0.726105

-2.28172 1.41799 -1.82578e-11
1.41799 -0.374295 7.39973e-11
-1.82578e-11 7.39973e-11 -0.765739

-0.902809 -0.0160459 -6.72111e-12
-0.0160459 -2.48783 -4.54756e-11
-6.72111e-12 -4.54756e-11 -1.44971

-1.37057 0.300396 -4.84163e-11
0.300396 -2.2169 -3.6615e-11
-4.84163e-11 -3.6615e-11 -1.45372

-1.01069 1.2608 -5.39568e-12
1.2608 -0.108789 4.43202e-12
-5.39568e-12 4.43202e-12 -0.368

-0.781007 -1.33517 -2.31123e-12
-1.33517 -0.733299 -1.58011e-11
-2.31123e-12 -1.58011e-11 -0.394387

-3.25157 -0.551272 -1.34834e-12
-0.551272 -1.44223 2.59179e-11
-1.34834e-12 2.59179e-11 -2.69968

-1.98617 0.537163 3.46921e-12
0.537163 -2.70196 5.89656e-11
3.46921e-12 5.89656e-11 -2.68591

-0.832271 -1.30629 -1.15733e-12
-1.30629 -1.80414 -2.11981e-11
-1.15733e-12 -2.11981e-11 -2.35839

-2.97469 -0.229765 -5.58583e-12
-0.229765 0.0536721 -6.47471e-11
-5.58583e-12 -6.47471e-11 -2.41135

-2.10558 0.368384 4.23695e-11
0.368384 -2.45727 2.90486e-11
4.23695e-11 2.90486e-11 -2.46373

-3.93587 0.0467527 9.70217e-11
0.0467527 -2.39311 -1.46442e-11
9.70217e-11 -1.46442e-11 -3.40952

-1.45497 -0.40204 -8.26204e-12
-0.40204 -2.85693 1.56732e-11
-8.26204e-12 1.56732e-11 -2.43309

-2.67571 -0.147822 -7.21765e-11
-0.147822 -3.43522 -8.80625e-11
-7.21765e-11 -8.80625e-11 -3.37726

-3.64303 -0.72696 1.52345e-10
-0.72696 -2.90666 -1.39899e-10
1.52345e-10 -1.39899e-10 -3.56124

-2.65623 1.75225 8.01144e-11
1.75225 -1.15592 1.49155e-10
8.01144e-11 1.49155e-10 -2.96842

0.0598989 0.503555 2.27317e-10
0.503555 -0.306947 -3.08689e-10
2.27317e-10 -3.08689e-10 -3.07774

0.681856 -0.838008 1.18961e-09
-0.838008 -5.87243 1.49836e-11
1.18961e-09 1.49836e-11 -4.05841

-2.17982 -0.945186 -5.14984e-11
-0.945186 -2.27689 1.426e-11
-5.14984e-11 1.426e-11 -2.63482

-1.77435 -0.694039 -3.38195e-11
-0.694039 -0.59273 3.81545e-11
-3.38195e-11 3.81545e-11 -1.35477

-1.479 1.63477 -2.12703e-11
1.63477 -2.0414 1.07907e-11
-2.12703e-11 1.07907e-11 -2.38593

-1.61549 0.915353 -4.09497e-12
0.915353 -1.07484 4.35484e-11
-4.09497e-12 4.35484e-11 -1.31916

-2.75342 1.87082 1.87032e-11
1.87082 -1.12369 -6.43597e-11
1.87032e-11 -6.43597e-11 -3.27287

-3.38418 -0.200743 -1.85379e-11
-0.200743 -3.8254 2.28346e-10
-1.85379e-11 2.28346e-10 -3.94752

-2.39217 -0.617657 -1.52703e-11
-0.617657 -1.43027 -1.03481e-10
-1.52703e-11 -1.03481e-10 -1.87358

-2.14636 -0.370126 7.59353e-11
-0.370126 -2.19803 -5.43406e-11
7.59353e-11 -5.43406e-11 -2.48973

-1.90254 1.53245 -4.86602e-12
1.53245 -1.01072 -2.04286e-11
-4.86602e-12 -2.04286e-11 -1.63116

-2.6962 1.01543 -7.96556e-11
1.01543 -1.74659 -2.73665e-11
-7.96556e-11 -2.73665e-11 -2.47941

-1.65894 0.357584 -2.31236e-12
0.357584 0.881053 8.09303e-12
-2.31236e-12 8.09303e-12 -0.240814

-0.229091 -0.140786 -4.23861e-12
-0.140786 0.4907 -1.85001e-11
-4.23861e-12 -1.85001e-11 -0.0831785

1.46958 0.341557 -1.35859e-11
0.341557 -1.34771 5.01043e-12
-1.35859e-11 5.01043e-12 0.00994316

1.97978 0.0818394 -1.59054e-12
0.0818394 -0.627987 1.5033e-11
-1.59054e-12 1.5033e-11 0.322096

-2.80221 0.405398 -2.06186e-11
0.405398 0.569539 -2.23551e-11
-2.06186e-11 -2.23551e-11 -0.83667

-1.43196 0.101172 -1.40666e-11
0.101172 -0.393962 -1.32961e-11
-1.40666e-11 -1.32961e-11 -0.680612

1.95865 -0.132445 1.07929e-11
-0.132445 -0.696564 1.27196e-11
1.07929e-11 1.27196e-11 0.316119

1.1509 -0.0784116 1.95058e-12
-0.0784116 -1.95363 2.5822e-11
1.95058e-12 2.5822e-11 -0.234128

0.747177 -0.792722 -5.29978e-12
-0.792722 2.50262 -7.32422e-12
-5.29978e-12 -7.32422e-12 1.29499

1.10515 1.28391 -3.17986e-12
1.28391 2.47549 3.27649e-12
-3.17986e-12 3.27649e-12 1.18494

2.23509 1.21567 3.71965e-11
1.21567 0.920798 -1.34879e-11
3.71965e-11 -1.34879e-11 1.24378

-0.826729 1.47268 -1.94632e-11
1.47268 0.0539143 2.63996e-11
-1.94632e-11 2.63996e-11 -0.542029

-1.35035 -0.499278 5.78954e-13
-0.499278 0.141113 -2.19677e-11
5.78954e-13 -2.19677e-11 -0.672979

0.106551 1.25178 -3.31936e-11
1.25178 0.771509 5.77094e-13
-3.31936e-11 5.77094e-13 0.0919761

-1.63182 1.10649 -2.32205e-11
1.10649 -0.148675 1.36814e-11
-2.32205e-11 1.36814e-11 -0.710426

-2.92486 -0.398455 2.10039e-11
-0.398455 0.638276 -5.3948e-12
2.10039e-11 -5.3948e-12 -0.850774

1.13274 -0.246313 6.1687e-12
-0.246313 -1.56176 -4.70192e-11
6.1687e-12 -4.70192e-11 0.0156364

0.782289 0.585718 -2.33187e-11
0.585718 2.5914 7.70813e-12
-2.33187e-11 7.70813e-12 0.934682

0.198559 -0.152967 -1.93686e-11
-0.152967 2.57587 -1.15678e-12
-1.93686e-11 -1.15678e-12 0.939348

2.57112 0.597425 -3.66229e-12
0.597425 0.572857 3.3531e-11
-3.66229e-12 3.3531e-11 1.03442

1.74156 -0.619734 2.90999e-11
-0.619734 -0.349889 1.11766e-11
2.90999e-11 1.11766e-11 0.426416

-0.351142 1.06686 -2.8521e-11
1.06686 1.34306 -3.85173e-13
-2.8521e-11 -3.85173e-13 0.339495

0.625839 -0.812095 -2.29301e-11
-0.812095 1.2345 -4.5865e-11
-2.29301e-11 -4.5865e-11 0.404654

1.46689 -0.399273 -1.33448e-11
-0.399273 -1.4913 1.92717e-12
-1.33448e-11 1.92717e-12 0.00135318

2.48598 0.806679 3.66111e-12
0.806679 3.41096 3.46899e-11
3.66111e-12 3.46899e-11 2.19124

1.13827 0.0830941 3.18688e-11
0.0830941 -2.05105 1.48391e-11
3.18688e-11 1.48391e-11 -0.25965

3.2727 0.871903 5.70471e-11
0.871903 2.4172 -6.55067e-12
5.70471e-11 -6.55067e-12 2.30053

-1.59373 0.0964041 1.98494e-11
0.0964041 0.330562 -2.89055e-11
1.98494e-11 -2.89055e-11 -0.896999

-0.759452 0.505132 1.61867e-11
0.505132 -0.29596 -2.23522e-11
1.61867e-11 -2.23522e-11 -0.702788

-2.39652 -1.30477 -2.5557e-11
-1.30477 -2.2632 8.86452e-12
-2.5557e-11 8.86452e-12 -2.8859

-1.88019 0.56712 2.78688e-11
0.56712 -2.78743 5.47258e-11
2.78688e-11 5.47258e-11 -2.89648

2.72928 -0.185389 1.88867e-11
-0.185389 0.687709 1.54147e-12
1.88867e-11 1.54147e-12 1.07625

-0.292241 1.52498 -1.31041e-11
1.52498 0.56061 -2.52458e-11
-1.31041e-11 -2.52458e-11 -0.0154466

-0.679722 0.224461 -2.38708e-11
0.224461 -0.973076 -3.4691e-12
-2.38708e-11 -3.4691e-12 -0.986069

-1.20288 -0.693157 -3.64708e-14
-0.693157 -1.34593 1.38749e-11
-3.64708e-14 1.38749e-11 -1.12446

1.40181 -0.0918424 -1.13219e-11
-0.0918424 -2.24836 9.05713e-12
-1.13219e-11 9.05713e-12 -0.242182

-0.406435 1.26082 7.12878e-12
1.26082 0.860428 -1.5413e-12
7.12878e-12 -1.5413e-12 0.239833

0.196594 -1.15081 7.1298e-12
-1.15081 1.10143 -1.21402e-11
7.1298e-12 -1.21402e-11 0.312475

1.51568 -0.810544 2.20651e-11
-0.810544 0.166425 -1.81149e-11
2.20651e-11 -1.81149e-11 0.475314

1.38236 -0.192762 -5.68504e-12
-0.192762 -2.22731 1.81142e-11
-5.68504e-12 1.81142e-11 -0.187569

0.104775 1.48644 3.00627e-11
1.48644 1.6108 5.79222e-13
3.00627e-11 5.79222e-13 0.34881

-0.380838 -1.02516 6.55302e-12
-1.02516 0.937049 -4.50946e-11
6.55302e-12 -4.50946e-11 0.261163

0.118469 1.37541 1.8693e-11
1.37541 1.57095 2.33178e-11
1.8693e-11 2.33178e-11 0.334697

-0.538238 -0.823779 3.86374e-11
-0.823779 1.48106 5.18104e-16
3.86374e-11 5.18104e-16 0.330362

-0.360927 -0.686132 2.33167e-11
-0.686132 0.215582 -7.70717e-13
2.33167e-11 -7.70717e-13 -0.0839693

-1.86639 0.959351 1.09845e-11
0.959351 0.536546 4.2395e-12
1.09845e-11 4.2395e-12 -0.212866

1.16587 -1.19541 -2.65971e-11
-1.19541 0.677668 -1.92768e-12
-2.65971e-11 -1.92768e-12 0.607943

6.73058 -1.05888 1.2913e-11
-1.05888 6.57899 -5.58992e-12
1.2913e-11 -5.58992e-12 6.6419

6.38954 -1.13749 -3.54596e-11
-1.13749 6.96026 -3.27642e-11
-3.54596e-11 -3.27642e-11 6.72479

-1.48951 1.78533 3.10244e-11
1.78533 0.401881 1.9277e-12
3.10244e-11 1.9277e-12 -0.435708

-2.69039 -1.16394 -2.97724e-11
-1.16394 0.0830239 3.8459e-13
-2.97724e-11 3.8459e-13 -0.657989

4.0328 -0.228692 -8.86543e-12
-0.228692 4.04376 2.69869e-12
-8.86543e-12 2.69869e-12 4.47612

3.98855 -0.24573 2.58257e-11
-0.24573 4.1652 -1.2912e-11
2.58257e-11 -1.2912e-11 4.37304

-0.256722 1.02027 5.39546e-12
1.02027 -1.34112 3.84697e-13
5.39546e-12 3.84697e-13 -0.994074

0.0525328 -0.77503 4.97177e-11
-0.77503 -1.47155 2.31517e-12
4.97177e-11 2.31517e-12 -0.715348

0.608154 -0.0353124 4.81775e-11
-0.0353124 -1.97786 -2.65916e-11
4.81775e-11 -2.65916e-11 -0.138212

-0.478039 1.43532 -5.54991e-11
1.43532 -1.52936 3.23704e-11
-5.54991e-11 3.23704e-11 -1.09718

-0.0478342 -1.03366 1.15184e-12
-1.03366 -2.13011 4.95229e-11
1.15184e-12 4.95229e-11 -0.864146

-1.26188 1.01262 -9.44315e-12
1.01262 0.880854 2.92923e-11
-9.44315e-12 2.92923e-11 0.0117412

-0.412033 -0.801277 3.4686e-12
-0.801277 0.811991 9.24975e-12
3.4686e-12 9.24975e-12 0.052071

-1.21039 0.501414 5.56905e-11
0.501414 -2.72407 6.31069e-13
5.56905e-11 6.31069e-13 -2.30122

-1.89609 -0.65996 4.7931e-12
-0.65996 -2.34259 3.3833e-11
4.7931e-12 3.3833e-11 -2.35083

-0.199658 1.54731 3.50724e-11
1.54731 -1.24373 2.13439e-11
3.50724e-11 2.13439e-11 -0.494908

0.24096 -1.22213 5.81961e-11
-1.22213 -1.38387 -6.11668e-12
5.81961e-11 -6.11668e-12 -0.353803

2.45351 -0.826416 1.57068e-11
-0.826416 1.12747 -2.96059e-16
1.57068e-11 -2.96059e-16 1.37654

-2.60343 -0.0433084 -1.36817e-11
-0.0433084 0.0612183 1.81136e-11
-1.36817e-11 1.81136e-11 -2.00723

-1.9863 0.307644 -2.50509e-11
0.307644 -1.11835 4.88479e-11
-2.50509e-11 4.88479e-11 -1.60983

1.94027 -0.145417 -9.05683e-12
-0.145417 3.47195 -3.04515e-11
-9.05683e-12 -3.04515e-11 2.34446

3.46521 -0.181079 -2.44756e-11
-0.181079 2.15015 1.54181e-11
-2.44756e-11 1.54181e-11 2.38727

-2.02704 0.859691 1.71511e-11
0.859691 0.683346 5.78165e-12
1.71511e-11 5.78165e-12 -0.256522

-0.871344 -0.504935 7.70439e-13
-0.504935 0.479877 4.23842e-12
7.70439e-13 4.23842e-12 -0.155194

-0.780819 -0.298529 1.54538e-10
-0.298529 0.23881 -8.08752e-12
1.54538e-10 -8.08752e-12 -3.19299

-0.69485 -0.940129 -3.59563e-10
-0.940129 -3.55995 -5.51248e-11
-3.59563e-10 -5.51248e-11 -2.91361

0.446496 1.37432 -1.05999e-11
1.37432 -1.51916 -3.77699e-11
-1.05999e-11 -3.77699e-11 -0.250444

0.644597 -0.905342 1.86913e-11
-0.905342 -1.63821 2.0618e-11
1.86913e-11 2.0618e-11 -0.186361

2.70954 0.0221943 1.47419e-11
0.0221943 0.486959 -9.44245e-12
1.47419e-11 -9.44245e-12 1.04754

1.5932 0.0446608 -1.04044e-11
0.0446608 -0.775658 -2.00404e-11
-1.04044e-11 -2.00404e-11 0.299848

2.14777 0.666373 1.53217e-11
0.666373 -0.0773325 -4.62341e-12
1.53217e-11 -4.62341e-12 0.565553

-0.433802 0.242454 5.34785e-12
0.242454 -2.06891 -3.1025e-11
5.34785e-12 -3.1025e-11 -0.984253

-5.00861 -0.483974 -2.10534e-11
-0.483974 -2.11939 6.32053e-11
-2.10534e-11 6.32053e-11 -3.87114

-3.56622 0.24885 -1.75867e-12
0.24885 -3.35366 8.57501e-11
-1.75867e-12 8.57501e-11 -3.82548

1.62686 1.15764 1.15623e-11
1.15764 2.08663 4.23813e-12
1.15623e-11 4.23813e-12 1.06345

0.178077 -1.00487 6.45513e-12
-1.00487 -0.369484 1.23336e-11
6.45513e-12 1.23336e-11 0.0206656

0.948665 1.10183 5.58862e-11
1.10183 -1.10853 1.54185e-11
5.58862e-11 1.54185e-11 0.0171239

-2.62073 0.468911 5.26055e-11
0.468911 -1.70849 3.44952e-11
5.26055e-11 3.44952e-11 -2.19041

-2.50401 0.701986 7.22603e-11
0.701986 -0.232707 5.01012e-12
7.22603e-11 5.01012e-12 -2.50021

-0.846462 -0.582879 2.26427e-11
-0.582879 -1.89535 -3.16032e-11
2.26427e-11 -3.16032e-11 -1.02512

-0.444813 0.905157 -1.49354e-11
0.905157 0.678368 -1.38752e-11
-1.49354e-11 -1.38752e-11 -0.128165

-1.80548 -0.164426 1.93669e-11
-0.164426 0.962015 1.19492e-11
1.93669e-11 1.19492e-11 -0.283738

0.54812 0.683231 -1.50313e-11
0.683231 -2.50164 9.25069e-12
-1.50313e-11 9.25069e-12 -0.309879

0.640593 -0.137207 -2.19698e-11
-0.137207 -2.69225 1.86914e-11
-2.19698e-11 1.86914e-11 -0.278086

2.20585 -0.899846 -2.7463e-11
-0.899846 1.6299 -1.81157e-11
-2.7463e-11 -1.81157e-11 1.19925

0.306028 1.2335 -3.34349e-11
1.2335 -2.17322 -5.01008e-12
-3.34349e-11 -5.01008e-12 -0.570935

0.431388 -0.778204 2.17748e-11
-0.778204 -2.66296 3.64223e-11
2.17748e-11 3.64223e-11 -0.498901

0.96244 -0.60117 5.35731e-11
-0.60117 -1.03154 -7.32177e-12
5.35731e-11 -7.32177e-12 0.0500917

0.44804 0.894652 -1.04065e-11
0.894652 -1.8005 -3.02545e-11
-1.04065e-11 -3.02545e-11 -0.308886

0.360973 -0.455381 -1.0408e-11
-0.455381 -1.99075 2.26423e-11
-1.0408e-11 2.26423e-11 -0.279579

1.05234 -0.3826 -7.03426e-12
-0.3826 -1.05688 -7.70809e-13
-7.03426e-12 -7.70809e-13 -0.0139226

-1.33673 1.61239 -2.98692e-11
1.61239 -0.550835 -1.73441e-11
-2.98692e-11 -1.73441e-11 -0.328917

0.158245 -1.3852 2.11995e-11
-1.3852 -0.505543 -4.2586e-11
2.11995e-11 -4.2586e-11 -0.122018

1.34774 1.08407 3.0833e-11
1.08407 0.96245 1.42626e-11
3.0833e-11 1.42626e-11 0.516202

-0.798877 -1.01592 8.86324e-12
-1.01592 -0.0437235 1.15617e-11
8.86324e-12 1.15617e-11 -0.206027

-2.06068 1.12405 -2.23537e-11
1.12405 -0.502211 -4.31671e-11
-2.23537e-11 -4.31671e-11 -0.444623

1.68213 0.991032 -3.1028e-11
0.991032 -0.495101 9.63279e-12
-3.1028e-11 9.63279e-12 0.428741

-0.331836 -0.885778 1.73389e-12
-0.885778 -1.21906 -7.70833e-12
1.73389e-12 -7.70833e-12 -0.390972

1.28542 0.369298 -1.23336e-11
0.369298 -0.582974 4.58639e-11
-1.23336e-11 4.58639e-11 0.0917768

0.702291 1.41244 2.0042e-11
1.41244 0.947308 1.31053e-11
2.0042e-11 1.31053e-11 0.418007

0.438922 1.13991 -2.9919e-11
1.13991 -0.193764 -2.23548e-11
-2.9919e-11 -2.23548e-11 0.00651538

-1.23637 0.452773 -3.08435e-12
0.452773 0.546368 -3.62292e-11
-3.08435e-12 -3.62292e-11 -0.269925

-2.34734 0.127787 -3.48795e-11
0.127787 1.16732 -3.85784e-13
-3.48795e-11 -3.85784e-13 -0.296783

2.53458 -0.868745 -2.93896e-11
-0.868745 0.772047 4.20132e-11
-2.93896e-11 4.20132e-11 1.23371

-1.8 -1.57908 5.39354e-12
-1.57908 -0.517399 5.66553e-11
5.39354e-12 5.66553e-11 -0.390413

-1.20216 1.73275 -6.64874e-12
1.73275 0.451265 -5.78098e-12
-6.64874e-12 -5.78098e-12 -0.296767

1.19053 -1.27841 5.01044e-12
-1.27841 1.31566 -7.70869e-12
5.01044e-12 -7.70869e-12 0.639696

0.549376 1.53858 -1.52265e-11
1.53858 1.32827 1.15552e-12
-1.52265e-11 1.15552e-12 0.592635

0.785227 -0.715012 1.12239e-11
-0.715012 -0.795799 2.09075e-11
1.12239e-11 2.09075e-11 -0.00217378

0.412389 -0.184619 6.0269e-11
-0.184619 -2.48868 -4.23891e-12
6.0269e-11 -4.23891e-12 -0.59372

0.818647 0.0527107 -2.9677e-11
0.0527107 -2.54636 3.46845e-12
-2.9677e-11 3.46845e-12 -0.537561

0.0486062 -1.19846 -3.56561e-12
-1.19846 0.258961 -2.17757e-11
-3.56561e-12 -2.17757e-11 0.143917

0.331133 0.24455 8.09419e-12
0.24455 2.75944 -1.58027e-11
8.09419e-12 -1.58027e-11 1.00673

-0.119298 0.210925 4.91416e-11
0.210925 2.76981 1.69606e-11
4.91416e-11 1.69606e-11 1.03012

2.69093 0.222718 -2.27411e-11
0.222718 0.180443 -9.64645e-13
-2.27411e-11 -9.64645e-13 1.10359

1.84598 1.27319 1.3488e-11
1.27319 1.54913 1.31069e-11
1.3488e-11 1.31069e-11 1.14588

1.43243 -1.25033 9.05735e-12
-1.25033 0.213597 -2.54381e-11
9.05735e-12 -2.54381e-11 0.497465

-3.90544 1.42988 -1.12917e-10
1.42988 -2.13287 -3.61331e-11
-1.12917e-10 -3.61331e-11 -3.12954

-0.431745 -0.376596 2.30267e-10
-0.376596 -0.356256 2.23525e-11
2.30267e-10 2.23525e-11 -2.91296

1.83351 -0.424345 2.15851e-11
-0.424345 -0.615839 -1.90514e-13
2.15851e-11 -1.90514e-13 0.411998

-1.46092 1.12583 4.43268e-12
1.12583 0.219276 1.69584e-11
4.43268e-12 1.69584e-11 -0.147098

-0.109771 -1.27518 2.81344e-11
-1.27518 0.33068 2.3896e-11
2.81344e-11 2.3896e-11 0.0150189

0.817535 0.583142 5.20313e-11
0.583142 -1.89465 3.85424e-11
5.20313e-11 3.85424e-11 -0.0941228

-0.0754547 1.18805 5.49219e-12
1.18805 1.88935 4.10482e-11
5.49219e-12 4.10482e-11 0.400987

-0.873473 -0.528426 -2.05245e-11
-0.528426 1.75228 2.69803e-11
-2.05245e-11 2.69803e-11 0.339198

-2.82891 1.19824 -2.10044e-11
1.19824 0.0840502 -4.00831e-11
-2.10044e-11 -4.00831e-11 -0.653004

-0.883314 -0.49906 1.15589e-12
-0.49906 -0.16667 -1.75359e-11
1.15589e-12 -1.75359e-11 -0.318246

-1.84601 1.21177 -3.83481e-11
1.21177 -0.882667 2.62067e-11
-3.83481e-11 2.62067e-11 -0.464916

-0.436404 -1.2294 -8.09438e-12
-1.2294 -0.284808 2.85194e-11
-8.09438e-12 2.85194e-11 -0.183883

0.453579 0.0980251 -2.08121e-11
0.0980251 -4.14039 -2.96766e-11
-2.08121e-11 -2.96766e-11 -0.539041

1.14717 1.54344 -8.86265e-12
1.54344 0.296194 -2.85212e-11
-8.86265e-12 -2.85212e-11 0.513656

-1.30112 1.8503 -8.57519e-12
1.8503 0.887541 1.2911e-11
-8.57519e-12 1.2911e-11 -0.230866

-2.2091 -1.37092 -3.90155e-12
-1.37092 -0.983805 -2.42809e-11
-3.90155e-12 -2.42809e-11 -0.526433

0.726648 1.3073 3.08461e-12
1.3073 0.556959 -3.04483e-11
3.08461e-12 -3.04483e-11 0.429278

1.38882 -0.793897 2.98703e-11
-0.793897 2.13804 -9.25082e-12
2.98703e-11 -9.25082e-12 1.20864

-0.96606 -1.19225 -2.5051e-11
-1.19225 -0.149567 -1.84991e-11
-2.5051e-11 -1.84991e-11 -0.1609

0.918096 -0.254886 -3.10262e-11
-0.254886 2.39632 -2.65967e-11
-3.10262e-11 -2.65967e-11 0.888909

0.130335 0.67644 1.38751e-11
0.67644 2.41344 2.31234e-12
1.38751e-11 2.31234e-12 0.831695

2.34746 -0.260501 -5.39595e-11
-0.260501 0.584224 9.44017e-12
-5.39595e-11 9.44017e-12 0.942504

1.11703 -1.12142 -1.85009e-11
-1.12142 0.841666 6.35971e-12
-1.85009e-11 6.35971e-12 0.504981

-1.13223 0.184841 -1.6381e-11
0.184841 1.70418 -8.86502e-12
-1.6381e-11 -8.86502e-12 0.184263

0.126912 0.256699 1.0599e-11
0.256699 1.53223 2.77491e-11
1.0599e-11 2.77491e-11 0.292387

1.75628 -1.06195 -1.61862e-11
-1.06195 2.06944 2.89113e-12
-1.61862e-11 2.89113e-12 1.28866

1.15073 1.31959 1.34887e-11
1.31959 2.03932 4.66378e-11
1.34887e-11 4.66378e-11 1.19972

-0.0182496 0.253817 -3.69997e-11
0.253817 -2.72632 -5.2273e-16
-3.69997e-11 -5.2273e-16 -0.428632

-0.0914332 0.00236102 -2.46663e-11
0.00236102 -2.99314 -1.11774e-11
-2.46663e-11 -1.11774e-11 -0.440607

-0.89529 1.34744 -1.54153e-12
1.34744 -0.217145 8.86415e-12
-1.54153e-12 8.86415e-12 -0.134013

-0.0408609 -1.12086 -6.9363e-12
-1.12086 0.258765 -1.67654e-11
-6.9363e-12 -1.67654e-11 0.0132357

-1.48616 1.82875 -8.67501e-13
1.82875 0.572245 -9.4425e-12
-8.67501e-13 -9.4425e-12 -0.367241

-2.99871 -1.03804 -1.40664e-11
-1.03804 0.03365 -2.50519e-11
-1.40664e-11 -2.50519e-11 -0.629442

-0.745764 1.20248 4.50452e-11
1.20248 -0.27761 2.50541e-11
4.50452e-11 2.50541e-11 -0.367619

2.95975 0.750196 8.96213e-12
0.750196 1.62658 1.15682e-12
8.96213e-12 1.15682e-12 1.73826

0.0156479 -0.68463 -3.85265e-12
-0.68463 1.70217 -4.35529e-11
-3.85265e-12 -4.35529e-11 0.403028

-0.830533 0.921845 2.11981e-11
0.921845 1.71842 -6.16677e-12
2.11981e-11 -6.16677e-12 0.345443

0.113329 1.10039 3.083e-12
1.10039 -1.72022 3.80588e-11
3.083e-12 3.80588e-11 -0.707899

0.291058 -0.630389 2.31356e-12
-0.630389 -1.81285 -2.01364e-11
2.31356e-12 -2.01364e-11 -0.525143

0.839541 -1.04664 -6.16651e-12
-1.04664 -0.179765 -4.8184e-12
-6.16651e-12 -4.8184e-12 0.147586

0.457935 1.29971 1.07928e-11
1.29971 -1.06356 -3.54575e-11
1.07928e-11 -3.54575e-11 -0.198829

0.562287 -0.907471 4.81709e-12
-0.907471 -0.899593 1.44512e-11
4.81709e-12 1.44512e-11 -0.111281

3.95271 -0.346233 -2.54403e-11
-0.346233 2.35798 3.08365e-11
-2.54403e-11 3.08365e-11 4.13701

2.37858 -0.42901 7.13281e-12
-0.42901 3.85322 -4.66407e-11
7.13281e-12 -4.66407e-11 4.19237

-0.339063 1.46911 5.58831e-11
1.46911 -1.68235 4.6634e-11
5.58831e-11 4.6634e-11 -1.90393

-0.0689524 -1.03173 -3.27611e-11
-1.03173 -2.83102 3.17938e-11
-3.27611e-11 3.17938e-11 -1.56344

0.634181 1.42846 1.13693e-11
1.42846 -0.365881 -3.1988e-11
1.13693e-11 -3.1988e-11 0.102897

3.08758 0.678798 -4.32659e-11
0.678798 1.45521 2.89011e-12
-4.32659e-11 2.89011e-12 1.75904

-1.15906 1.27567 -2.73639e-11
1.27567 0.8081 1.7335e-12
-2.73639e-11 1.7335e-12 -0.201076

-2.22756 -0.493431 1.75373e-11
-0.493431 1.04064 -1.42603e-11
1.75373e-11 -1.42603e-11 -0.251314

0.554847 -1.21242 -2.29311e-11
-1.21242 1.12013 -2.42818e-11
-2.29311e-11 -2.42818e-11 0.561689

-1.28661 0.786685 1.638e-11
0.786685 -0.14279 4.52848e-12
1.638e-11 4.52848e-12 -0.727687

-0.989439 -0.449782 -1.83065e-11
-0.449782 -0.431646 8.57479e-12
-1.83065e-11 8.57479e-12 -0.601619

1.89781 0.954001 1.85011e-11
0.954001 0.242621 2.52458e-11
1.85011e-11 2.52458e-11 0.588773

1.50229 0.515786 6.55291e-12
0.515786 -0.910411 1.15633e-12
6.55291e-12 1.15633e-12 0.254862

-2.73309 1.78904 -1.92704e-11
1.78904 -0.473565 -4.35522e-11
-1.92704e-11 -4.35522e-11 -0.512424

-0.115794 -0.922697 -2.50679e-12
-0.922697 -0.160676 3.44924e-11
-2.50679e-12 3.44924e-11 -0.0626723

-0.820835 1.47831 4.14305e-12
1.47831 1.26345 -1.56093e-11
4.14305e-12 -1.56093e-11 0.0212531

-1.54039 -0.791281 3.32425e-11
-0.791281 0.916 -4.16252e-11
3.32425e-11 -4.16252e-11 -0.0287064

-0.058635 1.6142 7.72271e-13
1.6142 -0.798531 -3.54591e-11
7.72271e-13 -3.54591e-11 -0.178234

0.49458 -1.37397 -4.22078e-11
-1.37397 -0.688895 3.41073e-11
-4.22078e-11 3.41073e-11 -0.0665561

-1.23756 0.457869 -2.73659e-11
0.457869 1.70519 2.46658e-11
-2.73659e-11 2.46658e-11 0.190294

-0.29626 -0.0362191 2.35107e-11
-0.0362191 1.42534 1.8116e-11
2.35107e-11 1.8116e-11 0.213018

3.34023 -0.523087 -2.33195e-11
-0.523087 4.18805 -1.69604e-11
-2.33195e-11 -1.69604e-11 3.40191

4.06016 -0.507694 -1.6863e-11
-0.507694 3.49374 1.19483e-11
-1.6863e-11 1.19483e-11 3.40643

0.963375 0.83803 3.18933e-11
0.83803 -1.49508 2.81354e-11
3.18933e-11 2.81354e-11 -0.0191565

0.258905 0.254949 6.08931e-11
0.254949 -1.70748 -7.32219e-11
6.08931e-11 -7.32219e-11 -3.01465

-0.237562 -0.915807 -1.55305e-10
-0.915807 -3.56653 -1.60706e-10
-1.55305e-10 -1.60706e-10 -2.6247

-2.18177 -1.21388 3.8948e-11
-1.21388 -0.858891 7.69477e-13
3.8948e-11 7.69477e-13 -1.70505

-2.13928 0.378576 -9.46658e-12
0.378576 -1.55145 3.17951e-11
-9.46658e-12 3.17951e-11 -1.87764

1.72401 -0.0734259 8.9615e-12
-0.0734259 -1.53682 2.48597e-11
8.9615e-12 2.48597e-11 0.0180079

-1.41783 1.98947 1.03094e-11
1.98947 0.841618 -7.32244e-12
1.03094e-11 -7.32244e-12 -0.222054

-3.06297 -1.86714 1.57049e-11
-1.86714 -0.51311 1.07917e-11
1.57049e-11 1.07917e-11 -0.544845

2.67388 0.991673 -1.23334e-11
0.991673 3.09018 2.58237e-11
-1.23334e-11 2.58237e-11 2.60774

3.01869 1.04089 7.70917e-12
1.04089 2.87184 -4.06624e-11
7.70917e-12 -4.06624e-11 2.47496

1.71699 -0.381151 2.69845e-12
-0.381151 3.29318 6.55243e-12
2.69845e-12 6.55243e-12 2.01563

1.58172 0.78666 9.62175e-13
0.78666 3.11583 2.11974e-11
9.62175e-13 2.11974e-11 1.93928

3.30801 -0.19058 -1.23347e-11
-0.19058 1.64451 2.87548e-13
-1.23347e-11 2.87548e-13 2.06284

1.97724 0.462816 -2.48618e-11
0.462816 3.84142 8.09371e-12
-2.48618e-11 8.09371e-12 2.51563

3.64861 0.542928 2.60194e-11
0.542928 2.03409 -2.69786e-11
2.60194e-11 -2.69786e-11 2.59586

-1.89138 0.140497 -6.16609e-12
0.140497 0.180247 -1.7343e-11
-6.16609e-12 -1.7343e-11 -1.30211

-1.52444 1.04581 -1.67643e-11
1.04581 -0.393053 2.37977e-11
-1.67643e-11 2.37977e-11 -1.13426

0.875024 0.164883 -5.97344e-12
0.164883 -0.836706 -9.05681e-12
-5.97344e-12 -9.05681e-12 -0.160786

1.40616 -0.0324972 -7.90103e-12
-0.0324972 -2.44127 -7.32244e-12
-7.90103e-12 -7.32244e-12 -0.230043

0.676662 -0.633149 5.78321e-12
-0.633149 2.05057 6.93756e-12
5.78321e-12 6.93756e-12 0.830312

0.215817 0.94891 -8.09317e-12
0.94891 1.88131 -7.71753e-13
-8.09317e-12 -7.71753e-13 0.783812

1.63376 -0.0478006 1.10811e-11
-0.0478006 -1.69894 3.86075e-13
1.10811e-11 3.86075e-13 -0.0237341

-0.27909 0.809823 4.16233e-11
0.809823 -1.59114 2.96759e-11
4.16233e-11 2.96759e-11 -1.35195

-0.0485565 -0.57406 -6.55152e-12
-0.57406 -2.19432 2.313e-12
-6.55152e-12 2.313e-12 -1.05865

-0.180681 0.782754 3.76254e-11
0.782754 0.0491898 2.42818e-11
3.76254e-11 2.42818e-11 -0.227647

-1.21685 -1.30013 -1.10815e-11
-1.30013 -0.127534 3.96984e-11
-1.10815e-11 3.96984e-11 -0.153898

-0.790547 1.67047 -1.46461e-11
1.67047 1.13304 -3.39166e-11
-1.46461e-11 -3.39166e-11 -0.0233186

0.979609 0.163963 1.63812e-12
0.163963 -1.80738 6.9375e-12
1.63812e-12 6.9375e-12 -0.270611

1.84862 1.19242 2.66917e-11
1.19242 1.51182 -3.84563e-13
2.66917e-11 -3.84563e-13 1.06004

-1.66472 -0.989316 -2.22575e-11
-0.989316 0.3951 -2.31217e-12
-2.22575e-11 -2.31217e-12 -0.132301

-0.72715 1.78637 2.81343e-11
1.78637 1.00938 -2.85194e-11
2.81343e-11 -2.85194e-11 -0.0245954

6.9465 2.08421 7.45852e-11
2.08421 7.1018 -4.81782e-11
7.45852e-11 -4.81782e-11 7.05085

-1.36936 -0.124475 -2.92918e-11
-0.124475 1.73619 2.35115e-11
-2.92918e-11 2.35115e-11 0.170337

-0.573387 0.679524 3.16033e-11
0.679524 1.50909 1.79237e-11
3.16033e-11 1.79237e-11 0.160835

-2.4869 -0.164753 7.71426e-13
-0.164753 0.613153 -2.85206e-11
7.71426e-13 -2.85206e-11 -1.52473

-1.72914 0.82475 2.56264e-11
0.82475 -1.0535 1.16593e-11
2.56264e-11 1.16593e-11 -1.38577

0.348851 0.676073 -4.58648e-11
0.676073 -3.49257 3.93107e-11
-4.58648e-11 3.93107e-11 -0.669288

0.429138 -0.461451 1.92812e-12
-0.461451 -4.18615 -1.59936e-11
1.92812e-12 -1.59936e-11 -0.663377

-1.08773 0.903785 -2.9243e-11
0.903785 -0.857288 6.35963e-12
-2.9243e-11 6.35963e-12 -0.780925

-1.30675 -1.36332 1.83152e-12
-1.36332 -1.0298 -2.08116e-11
1.83152e-12 -2.08116e-11 -0.773641

-1.80302 0.765618 1.72953e-11
0.765618 -0.664396 3.54576e-11
1.72953e-11 3.54576e-11 -1.43562

-1.73187 -1.07054 6.4066e-12
-1.07054 -1.3116 2.04241e-11
6.4066e-12 2.04241e-11 -1.44283

-0.57439 1.40821 -9.0566e-11
1.40821 -1.34133 -5.74268e-11
-9.0566e-11 -5.74268e-11 -2.58253

-0.25105 -0.990119 9.32717e-11
-0.990119 -3.02878 -9.73029e-11
9.32717e-11 -9.73029e-11 -2.10212

-1.91315 1.97202 -1.92695e-11
1.97202 -1.02956 -5.3965e-12
-1.92695e-11 -5.3965e-12 -0.655771

0.329593 -1.06095 -4.10459e-11
-1.06095 -0.848314 5.00844e-12
-4.10459e-11 5.00844e-12 -0.216535

0.730369 1.45828 2.67862e-11
1.45828 -0.762658 3.12198e-11
2.67862e-11 3.12198e-11 0.0570128

-0.262972 1.26035 -2.02335e-11
1.26035 1.30493 -2.71726e-11
-2.02335e-11 -2.71726e-11 0.133308

-1.40714 -0.503167 3.60362e-11
-0.503167 1.23272 -3.50722e-11
3.60362e-11 -3.50722e-11 0.032423

0.759885 -1.47693 -1.9271e-11
-1.47693 0.0308598 -3.06418e-11
-1.9271e-11 -3.06418e-11 0.188432

2.03951 -0.795458 2.40906e-11
-0.795458 1.72043 -5.01125e-12
2.40906e-11 -5.01125e-12 1.26779

1.10415 -1.06087 2.48583e-11
-1.06087 -0.69363 1.27199e-11
2.48583e-11 1.27199e-11 0.133242

0.186271 1.60622 3.23756e-11
1.60622 -0.0810715 -2.73639e-11
3.23756e-11 -2.73639e-11 0.110794

-2.58255 -2.15681 -1.07916e-11
-2.15681 -0.975327 -7.32313e-12
-1.07916e-11 -7.32313e-12 -0.743421

-1.6729 1.71871 1.18995e-11
1.71871 0.195242 -5.39538e-12
1.18995e-11 -5.39538e-12 -0.566442

0.512054 -0.37778 -5.00565e-11
-0.37778 -1.17576 -1.15687e-12
-5.00565e-11 -1.15687e-12 -0.279222

-0.49087 -0.636657 -1.58201e-10
-0.636657 -0.800958 2.69249e-12
-1.58201e-10 2.69249e-12 -3.03063

-3.19606 0.542445 1.00587e-10
0.542445 -2.25421 6.13754e-11
1.00587e-10 6.13754e-11 -3.1653

-0.0985538 0.656205 1.88376e-11
0.656205 -0.989043 3.08364e-12
1.88376e-11 3.08364e-12 -0.366791

0.236471 -0.264764 -1.35126e-11
-0.264764 -1.8843 -3.69982e-11
-1.35126e-11 -3.69982e-11 -0.858236

3.53658 -0.742924 -2.11967e-12
-0.742924 4.00365 1.61884e-11
-2.11967e-12 1.61884e-11 3.22729

4.03596 -0.704353 -1.13711e-11
-0.704353 3.16331 1.02146e-11
-1.13711e-11 1.02146e-11 3.16286

0.33155 0.21522 2.27391e-11
0.21522 -2.53212 -1.8113e-11
2.27391e-11 -1.8113e-11 -0.679283

0.270704 0.0558469 2.04282e-11
0.0558469 -3.09748 -1.65715e-11
2.04282e-11 -1.65715e-11 -0.6204

-0.153561 0.0230263 4.64656e-11
0.0230263 -1.54768 -1.61862e-11
4.64656e-11 -1.61862e-11 -0.860577

0.0983171 -0.586794 2.23512e-11
-0.586794 0.982276 4.20105e-11
2.23512e-11 4.20105e-11 0.169147

-1.21206 0.76042 1.42832e-11
0.76042 1.14084 3.08348e-11
1.42832e-11 3.08348e-11 0.0491789

1.51615 1.17092 -4.2972e-11
1.17092 -0.094498 -2.23551e-11
-4.2972e-11 -2.23551e-11 0.440647

-0.143118 1.33783 3.79607e-11
1.33783 -1.10537 -2.6591e-11
3.79607e-11 -2.6591e-11 -0.455584

0.211084 -1.04653 3.93174e-11
-1.04653 -0.804918 -9.13379e-11
3.93174e-11 -9.13379e-11 -0.269852

-3.40506 0.173288 3.69525e-11
0.173288 -4.10773 -1.40355e-10
3.69525e-11 -1.40355e-10 -4.15814

-3.14657 -1.48297 -8.64549e-13
-1.48297 -1.14263 -9.51241e-11
-8.64549e-13 -9.51241e-11 -3.51153

1.07566 0.585474 2.26393e-12
0.585474 -0.148611 -4.06612e-11
2.26393e-12 -4.06612e-11 0.115327

0.123144 0.942703 -1.19451e-11
0.942703 -1.43254 2.50521e-11
-1.19451e-11 2.50521e-11 -0.66188

0.183736 -0.700462 -1.18492e-11
-0.700462 -1.86518 -3.12165e-11
-1.18492e-11 -3.12165e-11 -0.543664

-1.80147 -0.571029 1.05972e-11
-0.571029 0.447956 4.54791e-11
1.05972e-11 4.54791e-11 -0.268692

-0.686474 1.61967 2.60145e-11
1.61967 0.796351 1.25271e-11
2.60145e-11 1.25271e-11 -0.119364

-1.13419 2.06242 -8.09338e-12
2.06242 0.910887 -3.4692e-12
-8.09338e-12 -3.4692e-12 -0.150055

-2.20678 -1.23866 -1.61875e-11
-1.23866 -0.576765 6.55197e-12
-1.61875e-11 6.55197e-12 -0.423584

7.60037 2.37926 -2.25494e-11
2.37926 7.66563 2.79429e-11
-2.25494e-11 2.79429e-11 7.38243

-1.67933 1.27735 1.21884e-11
1.27735 0.225299 -6.16621e-12
1.21884e-11 -6.16621e-12 -0.747324

-2.34527 -1.45673 -1.16588e-11
-1.45673 -0.509764 1.84999e-11
-1.16588e-11 1.84999e-11 -0.860548

-2.26601 -1.12958 -2.69799e-11
-1.12958 0.168111 3.23749e-11
-2.69799e-11 3.23749e-11 -0.310777

-1.28164 1.77076 4.52877e-12
1.77076 0.873373 2.3896e-11
4.52877e-12 2.3896e-11 -0.18079

1.68708 -0.783406 7.32484e-12
-0.783406 0.0427546 -1.25262e-11
7.32484e-12 -1.25262e-11 0.46667

-0.444295 -0.947998 -7.56338e-12
-0.947998 -0.634518 3.08409e-12
-7.56338e-12 3.08409e-12 -0.318713

-1.26908 1.03861 -2.45695e-11
1.03861 -0.256521 -9.82774e-12
-2.45695e-11 -9.82774e-12 -0.695546

-1.36924 -1.41501 1.83067e-11
-1.41501 -1.15613 -3.85477e-12
1.83067e-11 -3.85477e-12 -0.749006

0.644929 -0.370301 -2.53412e-11
-0.370301 -2.03154 -3.46898e-12
-2.53412e-11 -3.46898e-12 -0.362164

-0.109099 0.38961 1.8885e-11
0.38961 -1.15502 1.96555e-11
1.8885e-11 1.96555e-11 -0.900373

-0.137262 -0.397901 1.15608e-12
-0.397901 -2.25944 2.85191e-11
1.15608e-12 2.85191e-11 -0.831373

-2.92484 0.435815 -3.41058e-11
0.435815 0.0812732 -7.20711e-11
-3.41058e-11 -7.20711e-11 -2.8261

-2.77705 0.574036 -1.73422e-11
0.574036 -0.963166 -5.39552e-11
-1.73422e-11 -5.39552e-11 -2.39801

4.10817 0.449652 5.85915e-11
0.449652 2.92486 -5.66591e-11
5.85915e-11 -5.66591e-11 4.31379

2.98138 0.447688 8.68305e-13
0.447688 4.31625 -1.31046e-11
8.68305e-13 -1.31046e-11 4.31448

-0.859165 1.30013 -5.78352e-13
1.30013 -0.820512 -2.08112e-11
-5.78352e-13 -2.08112e-11 -0.388962

-0.0571533 -1.33577 2.6594e-11
-1.33577 -0.380511 -2.40869e-11
2.6594e-11 -2.40869e-11 -0.182436

4.75182 0.88579 -4.43271e-11
0.88579 4.6296 8.28435e-12
-4.43271e-11 8.28435e-12 5.04228

4.57437 0.969406 1.503e-11
0.969406 4.62959 1.25271e-11
1.503e-11 1.25271e-11 5.01103

-0.94314 -0.346355 5.08535e-11
-0.346355 -1.86605 2.14467e-10
5.08535e-11 2.14467e-10 -2.60207

-0.671097 -0.22592 -2.37012e-10
-0.22592 -0.182095 6.93671e-11
-2.37012e-10 6.93671e-11 -3.04887

-0.897421 -1.27978 -6.61934e-11
-1.27978 -0.674093 7.70032e-13
-6.61934e-11 7.70032e-13 -0.327543

-0.556041 1.64983 1.92687e-11
1.64983 -0.910926 3.2375e-11
1.92687e-11 3.2375e-11 -0.360594

0.261566 -1.38782 3.37291e-11
-1.38782 -0.83251 -7.93898e-11
3.37291e-11 -7.93898e-11 -0.202136

0.0474417 1.45112 9.24777e-12
1.45112 0.324921 -1.349e-11
9.24777e-12 -1.349e-11 0.162169

0.680816 -1.15274 -1.40676e-11
-1.15274 0.416001 4.62293e-12
-1.40676e-11 4.62293e-12 0.221547

1.9481 -0.213596 -1.59945e-11
-0.213596 3.26565 -1.5225e-11
-1.59945e-11 -1.5225e-11 1.98019

1.2973 0.598565 3.95063e-11
0.598565 3.06917 1.00222e-11
3.95063e-11 1.00222e-11 1.85277

3.27667 -0.0887542 1.9465e-11
-0.0887542 1.75553 -1.77304e-11
1.9465e-11 -1.77304e-11 2.0394

-0.691195 1.53898 1.92713e-11
1.53898 -0.157115 3.62291e-11
1.92713e-11 3.62291e-11 -0.112305

0.21845 -1.51537 -4.04668e-11
-1.51537 -0.0304614 2.69732e-12
-4.04668e-11 2.69732e-12 0.00684767

1.97294 0.096443 4.20129e-11
0.096443 3.85409 -1.92664e-12
4.20129e-11 -1.92664e-12 2.64634

3.80298 -0.0110268 -2.48626e-11
-0.0110268 2.23704 1.81165e-11
-2.48626e-11 1.81165e-11 2.64697

-0.628057 1.57116 7.5156e-12
1.57116 -1.28351 4.6237e-12
7.5156e-12 4.6237e-12 -0.629101

0.180953 -1.12041 -5.06798e-11
-1.12041 -1.03753 6.74375e-12
-5.06798e-11 6.74375e-12 -0.371524

-0.808956 1.55332 -1.29107e-11
1.55332 -1.00993 -2.38967e-11
-1.29107e-11 -2.38967e-11 -0.728679

-0.00990165 -1.35943 -1.96566e-11
-1.35943 -1.25732 -2.12108e-12
-1.96566e-11 -2.12108e-12 -0.502968

4.66882 0.908853 9.9449e-11
0.908853 4.70993 -5.16472e-11
9.9449e-11 -5.16472e-11 5.13456

4.68559 0.838999 -1.542e-11
0.838999 4.83517 -6.39846e-11
-1.542e-11 -6.39846e-11 5.15488

-0.126452 1.47021 -2.13895e-11
1.47021 -0.495766 5.77912e-12
-2.13895e-11 5.77912e-12 -0.1212

0.300722 -1.21571 -2.73626e-11
-1.21571 -0.149944 -1.92697e-11
-2.73626e-11 -1.92697e-11 -0.0159036

-1.87985 0.950499 2.83257e-11
0.950499 -1.2013 -4.33578e-11
2.83257e-11 -4.33578e-11 -1.67157

-2.07781 -0.308058 -2.1003e-11
-0.308058 -0.530203 -9.82795e-12
-2.1003e-11 -9.82795e-12 -1.94949

-1.75131 1.23874 5.79407e-13
1.23874 -0.470551 3.46842e-12
5.79407e-13 3.46842e-12 -0.73759

-0.0748894 -1.40738 -1.42606e-11
-1.40738 -0.891544 -2.5063e-12
-1.42606e-11 -2.5063e-12 -0.424262

-0.142336 1.11138 -1.88848e-11
1.11138 -2.35789 4.23935e-11
-1.88848e-11 4.23935e-11 -1.25457

0.167992 -0.720688 -5.31865e-11
-0.720688 -2.96306 3.83323e-13
-5.31865e-11 3.83323e-13 -1.00591

-0.900891 1.49431 1.60421e-11
1.49431 0.483315 -4.2009e-11
1.60421e-11 -4.2009e-11 -0.286955

-1.52734 -1.25316 -5.89185e-11
-1.25316 -0.528971 -2.6975e-12
-5.89185e-11 -2.6975e-12 -0.436613

-2.67889 0.908401 5.78352e-13
0.908401 -0.51571 3.46853e-11
5.78352e-13 3.46853e-11 -2.01662

-2.44607 1.05442 -2.25701e-11
1.05442 -2.11745 -1.25256e-11
-2.25701e-11 -1.25256e-11 -2.66786

-1.87392 -1.87685 1.81621e-11
-1.87685 -1.92948 -3.85455e-12
1.81621e-11 -3.85455e-12 -2.44497

-3.08188 -0.254998 -1.81149e-11
-0.254998 0.0451926 2.73634e-11
-1.81149e-11 2.73634e-11 -2.38919

-0.499543 1.10502 -3.46862e-12
1.10502 -2.07059 -3.16005e-11
-3.46862e-12 -3.16005e-11 -2.08553

-0.226565 0.23333 -1.56085e-10
0.23333 -1.9753 2.23514e-11
-1.56085e-10 2.23514e-11 -2.64079

-0.193008 -1.02019 2.85183e-11
-1.02019 -3.22659 1.31035e-11
2.85183e-11 1.31035e-11 -1.74469

-0.185489 -0.334595 6.12737e-11
-0.334595 -3.32222 8.26654e-11
6.12737e-11 8.26654e-11 -2.23065

-1.96812 1.29827 1.55699e-10
1.29827 -0.856395 1.90008e-10
1.55699e-10 1.90008e-10 -2.82201

0.420521 -0.260122 8.94884e-10
-0.260122 -0.29812 -3.84183e-10
8.94884e-10 -3.84183e-10 -3.05014

-0.105461 -0.905177 8.27767e-11
-0.905177 -3.66138 5.21279e-10
8.27767e-11 5.21279e-10 -2.69857

-0.0972508 -1.11281 7.51627e-11
-1.11281 -2.8112 -1.57032e-10
7.51627e-11 -1.57032e-10 -1.94627

-0.672249 1.24771 -6.20457e-11
1.24771 -1.8439 -7.66961e-11
-6.20457e-11 -7.66961e-11 -2.24348

-0.483135 0.555558 4.85621e-11
0.555558 -0.940985 -1.00191e-11
4.85621e-11 -1.00191e-11 -1.13055

-1.36231 0.624212 -9.94313e-11
0.624212 -0.484465 4.66256e-11
-9.94313e-11 4.66256e-11 -2.9204

0.261175 -0.8747 -6.93934e-12
-0.8747 -2.62462 1.40656e-11
-6.93934e-12 1.40656e-11 -1.56047

-0.652814 -1.02997 -2.23613e-11
-1.02997 -3.08919 1.34881e-10
-2.23613e-11 1.34881e-10 -2.35678

0.0124452 -0.710513 2.85188e-11
-0.710513 -1.26929 -1.17536e-11
2.85188e-11 -1.17536e-11 -0.806434

-0.841393 1.45206 4.93308e-11
1.45206 -1.42043 4.16247e-11
4.93308e-11 4.16247e-11 -1.56113

-0.355172 0.701706 4.81714e-11
0.701706 -1.75245 7.66945e-11
4.81714e-11 7.66945e-11 -2.07329

-0.154979 -1.09105 -5.39611e-12
-1.09105 -2.16846 5.78089e-12
-5.39611e-12 5.78089e-12 -1.17089

-0.164962 -0.640172 -2.89079e-11
-0.640172 -2.49368 3.89225e-11
-2.89079e-11 3.89225e-11 -1.60844

-0.402792 0.120102 -1.27171e-11
0.120102 -0.341027 3.69007e-11
-1.27171e-11 3.69007e-11 -0.0662088

0.259589 -0.0615974 -3.7575e-11
-0.0615974 -0.190382 1.95573e-11
-3.7575e-11 1.95573e-11 -0.124846

0.279361 0.226591 -4.24042e-12
0.226591 -0.423365 -4.60528e-11
-4.24042e-12 -4.60528e-11 -0.113511

-0.251256 -0.23296 2.9675e-11
-0.23296 -1.17812 8.44824e-12
2.9675e-11 8.44824e-12 -0.149732

-0.205027 0.0388879 1.56083e-11
0.0388879 -0.883164 1.19684e-12
1.56083e-11 1.19684e-12 -0.0681601

0.110799 -0.327761 -1.21387e-11
-0.327761 -0.251269 -2.79404e-11
-1.21387e-11 -2.79404e-11 -0.328035

-0.043996 0.597314 7.32332e-12
0.597314 -0.773928 2.44719e-11
7.32332e-12 2.44719e-11 -0.417504

-0.190124 -0.0553542 -8.67126e-12
-0.0553542 -0.983989 4.15795e-12
-8.67126e-12 4.15795e-12 -0.0862544

0.181824 0.270263 -1.39706e-11
0.270263 -1.48417 -3.7479e-11
-1.39706e-11 -3.7479e-11 -0.231189

-0.223714 0.0572171 -1.42593e-11
0.0572171 -0.412631 2.84229e-12
-1.42593e-11 2.84229e-12 -0.0288181

-0.212293 -0.0533803 1.54155e-11
-0.0533803 -0.380831 -1.06942e-11
1.54155e-11 -1.06942e-11 -0.020844

-0.152671 0.0314588 2.4279e-11
0.0314588 0.0458524 -3.34558e-11
2.4279e-11 -3.34558e-11 -0.00157114

0.71477 -0.342927 4.24029e-12
-0.342927 -0.853628 -3.93084e-11
4.24029e-12 -3.93084e-11 -0.310937

0.501988 0.019756 -2.85182e-11
0.019756 -0.0537268 1.83093e-12
-2.85182e-11 1.83093e-12 -0.252582

-0.391865 0.443133 -2.89039e-11
0.443133 -0.538414 7.61157e-12
-2.89039e-11 7.61157e-12 -0.123915

-0.493922 0.62846 -2.56285e-11
0.62846 -0.447767 -6.84069e-12
-2.56285e-11 -6.84069e-12 -0.179516

-0.0708318 -0.591151 -1.46441e-11
-0.591151 -0.793265 -1.54154e-11
-1.46441e-11 -1.54154e-11 -0.440396

0.0814539 0.30437 -1.58003e-11
0.30437 -0.235563 1.91731e-11
-1.58003e-11 1.91731e-11 -0.32059

-0.0877201 0.0179586 4.21024e-11
0.0179586 0.18861 1.92358e-11
4.21024e-11 1.92358e-11 -0.0177549

-0.344573 0.0608178 -2.004e-11
0.0608178 -0.175965 -1.02606e-11
-2.004e-11 -1.02606e-11 -0.0317001

-0.349683 -0.068296 7.70767e-12
-0.068296 -0.168434 4.33709e-13
7.70767e-12 4.33709e-13 -0.0330909

-0.218135 -0.0709558 -4.23909e-12
-0.0709558 0.11731 -2.86627e-11
-4.23909e-12 -2.86627e-11 -0.0124758

-0.359908 0.198493 1.11762e-11
0.198493 -0.486658 -8.38221e-12
1.11762e-11 -8.38221e-12 -0.0665933

-0.348002 0.160191 1.36813e-11
0.160191 -0.85438 -3.0589e-12
1.36813e-11 -3.0589e-12 -0.094482

-0.56263 0.155344 -4.62465e-12
0.155344 -0.466639 9.44183e-12
-4.62465e-12 9.44183e-12 -0.105766

-0.0261954 -0.102989 7.70599e-13
-0.102989 -0.0748995 1.78239e-11
7.70599e-13 1.78239e-11 -0.0356318

-0.123224 0.195552 1.02129e-11
0.195552 -1.13039 -1.4813e-12
1.02129e-11 -1.4813e-12 -0.116245

-0.337679 0.0346386 1.11761e-11
0.0346386 -0.196538 1.92683e-13
1.11761e-11 1.92683e-13 -0.00938001

-0.0320839 -0.266044 -1.88842e-11
-0.266044 -1.76403 -7.94718e-13
-1.88842e-11 -7.94718e-13 -0.285327

-0.233614 -0.0706612 -1.54141e-12
-0.0706612 -0.00568182 -3.33715e-11
-1.54141e-12 -3.33715e-11 -0.0146276

0.498991 -0.0577579 -3.31421e-11
-0.0577579 -0.442626 -2.06184e-11
-3.31421e-11 -2.06184e-11 -0.393634

0.51085 0.0881075 5.31834e-11
0.0881075 -0.657649 2.3507e-11
5.31834e-11 2.3507e-11 -0.424978

-1.37785 -0.296098 -1.81133e-11
-0.296098 -1.83627 -1.64749e-11
-1.81133e-11 -1.64749e-11 -1.8836

-1.3853 0.297818 3.46847e-11
0.297818 -1.82248 6.45558e-12
3.46847e-11 6.45558e-12 -1.89113

-0.224017 -0.0684156 -1.36812e-11
-0.0684156 -0.620827 -4.62464e-12
-1.36812e-11 -4.62464e-12 -0.0228165

-0.654948 0.0584472 1.92638e-13
0.0584472 -0.524793 3.90193e-12
1.92638e-13 3.90193e-12 -0.159246

-0.96741 -0.481428 5.01003e-11
-0.481428 -0.962218 -9.68347e-12
5.01003e-11 -9.68347e-12 -0.723436

-1.03577 0.510237 2.87113e-11
0.510237 -0.990383 9.73159e-12
2.87113e-11 9.73159e-12 -0.770211

0.372578 -0.234947 -2.15821e-11
-0.234947 -1.39957 -1.52346e-11
-2.15821e-11 -1.52346e-11 -0.165788

-0.156625 -0.131607 -3.6611e-12
-0.131607 0.148787 -3.4683e-12
-3.6611e-12 -3.4683e-12 -0.0159322

-0.36179 0.00477846 2.00401e-11
0.00477846 -0.570787 1.68607e-11
2.00401e-11 1.68607e-11 -0.0526354

0.308603 0.202874 -1.15617e-11
0.202874 -1.47515 2.79527e-11
-1.15617e-11 2.79527e-11 -0.154392

-0.352527 -0.184517 -3.16014e-11
-0.184517 -0.45969 -2.03293e-11
-3.16014e-11 -2.03293e-11 -0.0590024

-0.421616 -0.122765 -9.24923e-12
-0.122765 -0.329003 -8.86395e-12
-9.24923e-12 -8.86395e-12 -0.0685049

0.155029 -0.249472 5.78096e-12
-0.249472 0.00955828 -1.56077e-11
5.78096e-12 -1.56077e-11 -0.075951

-0.319553 0.0086787 9.05655e-12
0.0086787 -0.624697 8.09325e-12
9.05655e-12 8.09325e-12 -0.0603343

-0.307514 0.0961499 -3.12161e-11
0.0961499 -0.330819 -9.75505e-12
-3.12161e-11 -9.75505e-12 -0.0307215

-0.285545 0.12445 -6.93689e-12
0.12445 -0.17961 -2.44116e-11
-6.93689e-12 -2.44116e-11 -0.0324625

0.0599207 -0.937006 5.78041e-12
-0.937006 -1.07042 -6.93709e-12
5.78041e-12 -6.93709e-12 -0.33128

-0.26922 -0.0527889 -6.55165e-12
-0.0527889 -0.108188 4.238e-11
-6.55165e-12 4.238e-11 -0.0130649

-0.32316 0.0562788 2.35084e-11
0.0562788 -0.259295 4.23926e-12
2.35084e-11 4.23926e-12 -0.00534632

0.0131864 0.166371 4.97133e-11
0.166371 0.131972 -1.43555e-11
4.97133e-11 -1.43555e-11 -0.159395

0.0131062 -0.165683 8.09283e-12
-0.165683 0.132689 5.87721e-12
8.09283e-12 5.87721e-12 -0.159131

-0.0458369 -0.0670883 3.16008e-11
-0.0670883 0.203337 2.87693e-11
3.16008e-11 2.87693e-11 -0.0172255

-0.026777 0.0672414 2.35075e-11
0.0672414 0.180721 -9.79338e-11
2.35075e-11 -9.79338e-11 -0.158589

-0.0269535 -0.0669001 -1.34878e-11
-0.0669001 0.180857 -6.45504e-11
-1.34878e-11 -6.45504e-11 -0.158522

-0.0611686 -0.207068 -3.85164e-13
-0.207068 0.0745112 -1.13687e-11
-3.85164e-13 -1.13687e-11 -0.0401984

-1.14866 -0.386615 -3.66121e-11
-0.386615 -1.99184 7.90088e-12
-3.66121e-11 7.90088e-12 -1.62109

-1.16076 0.399384 -1.15616e-11
0.399384 -2.0019 6.14686e-11
-1.15616e-11 6.14686e-11 -1.63088

-0.0540337 0.0927759 -7.70511e-13
0.0927759 0.211994 4.69196e-11
-7.70511e-13 4.69196e-11 -0.0718765

-0.0539395 -0.0929505 -1.88834e-11
-0.0929505 0.21376 2.93829e-12
-1.88834e-11 2.93829e-12 -0.0715074

-0.322305 0.0638982 2.06181e-11
0.0638982 -0.565047 1.44761e-11
2.06181e-11 1.44761e-11 -0.0443637

-0.21718 0.553468 1.54142e-12
0.553468 -1.16138 -2.11913e-12
1.54142e-12 -2.11913e-12 -1.1525

0.369744 -0.447538 8.09183e-12
-0.447538 -0.168822 4.89432e-11
8.09183e-12 4.89432e-11 -0.736783

-0.162391 0.129055 -1.54153e-11
0.129055 0.15104 -1.54152e-11
-1.54153e-11 -1.54152e-11 -0.0175063

-0.361719 -0.0619281 -1.11763e-11
-0.0619281 -0.181517 4.38615e-11
-1.11763e-11 4.38615e-11 -0.0137432

-0.24989 -0.0902549 1.38738e-11
-0.0902549 -0.38444 1.72159e-11
1.38738e-11 1.72159e-11 -0.000815602

-0.0181111 -0.206059 -5.39473e-12
-0.206059 0.115449 -3.30463e-11
-5.39473e-12 -3.30463e-11 -0.0794398

-0.0929081 0.572454 -2.19668e-11
0.572454 -0.669826 2.11967e-12
-2.19668e-11 2.11967e-12 -0.165601

-0.0467368 0.121824 -7.74587e-11
0.121824 0.129181 1.36519e-10
-7.74587e-11 1.36519e-10 -0.553762

-0.0476776 -0.120972 -1.00967e-10
-0.120972 0.127208 -1.45479e-11
-1.00967e-10 -1.45479e-11 -0.554456

0.1456 0.769378 -2.0233e-11
0.769378 -0.571517 4.04651e-12
-2.0233e-11 4.04651e-12 -0.0941409

-0.0658246 0.0423302 1.50295e-11
0.0423302 0.209752 -1.69086e-11
1.50295e-11 -1.69086e-11 -0.0374643

-0.0674284 -0.0416905 -3.31423e-11
-0.0416905 0.21516 -3.36725e-11
-3.31423e-11 -3.36725e-11 -0.0370797

-1.02973 0.372153 -4.8176e-12
0.372153 -0.411255 -1.51267e-11
-4.8176e-12 -1.51267e-11 -0.270384

0.200324 0.248118 2.81325e-11
0.248118 0.232946 -8.18967e-12
2.81325e-11 -8.18967e-12 -0.138057

-0.28089 0.0675405 -7.12963e-12
0.0675405 -0.650417 4.69685e-12
-7.12963e-12 4.69685e-12 -0.0391262

-0.258082 -0.115294 2.50501e-12
-0.115294 -0.888057 1.78241e-12
2.50501e-12 1.78241e-12 -0.0813488

-0.822707 -0.570194 1.15617e-11
-0.570194 -1.58604 2.59652e-11
1.15617e-11 2.59652e-11 -0.700493

-2.75034 0.622762 -1.23515e-10
0.622762 -1.90939 -1.43582e-11
-1.23515e-10 -1.43582e-11 -2.52863

-2.72168 -0.649949 -1.09449e-10
-0.649949 -1.95463 -1.33893e-11
-1.09449e-10 -1.33893e-11 -2.52551

-0.359081 0.106078 -1.6957e-11
0.106078 -0.353092 -1.55116e-11
-1.6957e-11 -1.55116e-11 -0.0265167

-0.529595 0.15513 2.06182e-11
0.15513 -0.812864 -6.26236e-12
2.06182e-11 -6.26236e-12 -0.153472

-0.0729192 -0.125007 3.31422e-11
-0.125007 0.165782 3.84655e-11
3.31422e-11 3.84655e-11 -0.0249054

0.0774855 0.000513084 -1.23321e-10
0.000513084 -0.0952182 1.57969e-11
-1.23321e-10 1.57969e-11 -0.970824

0.443433 0.468686 6.51327e-11
0.468686 -1.6889 3.892e-11
6.51327e-11 3.892e-11 -1.35347

-0.898185 0.601625 3.77682e-11
0.601625 -1.58347 1.40672e-11
3.77682e-11 1.40672e-11 -0.751367

0.221898 -0.194261 -1.25215e-12
-0.194261 -0.412762 -7.22597e-12
-1.25215e-12 -7.22597e-12 -0.149005

0.216753 0.0575075 -3.26619e-11
0.0575075 -0.238261 -3.16005e-11
-3.26619e-11 -3.16005e-11 -0.144729

-0.0525172 -0.00194417 -2.19664e-11
-0.00194417 0.235445 7.2258e-12
-2.19664e-11 7.2258e-12 -0.0296006

-0.0509363 0.00430106 -4.62453e-12
0.00430106 0.232425 1.20485e-13
-4.62453e-12 1.20485e-13 -0.0300071

-0.192525 0.121882 -4.23907e-12
0.121882 0.0428658 1.01645e-11
-4.23907e-12 1.01645e-11 -0.0148081

-0.128732 -0.0774822 -4.23915e-11
-0.0774822 0.167704 -1.87586e-11
-4.23915e-11 -1.87586e-11 -0.0132778

-0.018756 0.0436733 -1.792e-11
0.0436733 0.207964 -4.91597e-11
-1.792e-11 -4.91597e-11 -0.0722967

-0.0182865 -0.0427435 1.68604e-12
-0.0427435 0.208413 -2.34356e-11
1.68604e-12 -2.34356e-11 -0.0719339

-0.080784 0.126254 3.93085e-11
0.126254 0.166168 2.84938e-11
3.93085e-11 2.84938e-11 -0.0262797

-0.0327916 0.0934322 1.42589e-11
0.0934322 -0.0700116 -2.15816e-11
1.42589e-11 -2.15816e-11 -0.0369817

-0.0240317 0.118956 -7.70943e-13
0.118956 0.178792 -2.92646e-11
-7.70943e-13 -2.92646e-11 -0.0475333

-0.0184361 -0.115328 -1.15606e-12
-0.115328 0.176895 -3.03002e-11
-1.15606e-12 -3.03002e-11 -0.0469655

-0.24819 0.259587 -1.75352e-11
0.259587 -1.21909 -1.54157e-12
-1.75352e-11 -1.54157e-12 -0.184587

0.142774 -0.145099 5.78024e-12
-0.145099 0.138683 3.26608e-11
5.78024e-12 3.26608e-11 -0.0301353

-0.33317 0.0445275 4.16219e-11
0.0445275 -0.539559 1.27174e-11
4.16219e-11 1.27174e-11 -0.0440394

-0.522384 0.599297 -1.31028e-11
0.599297 -0.243904 3.33367e-11
-1.31028e-11 3.33367e-11 -0.149982

0.208056 -0.153973 -4.23877e-12
-0.153973 0.202431 -2.89034e-11
-4.23877e-12 -2.89034e-11 -0.0511551

-0.13435 0.025276 -5.00986e-12
0.025276 0.128412 -4.36683e-11
-5.00986e-12 -4.36683e-11 -0.00956766

-0.810436 0.364519 -8.6713e-12
0.364519 -1.12157 2.23042e-11
-8.6713e-12 2.23042e-11 -0.355213

-0.256919 -0.206368 3.8538e-12
-0.206368 -1.12073 -3.23723e-11
3.8538e-12 -3.23723e-11 -0.158856

-0.455884 -0.0417498 8.28586e-12
-0.0417498 -0.562849 2.31222e-12
8.28586e-12 2.31222e-12 -0.0871404

-0.588941 -0.148129 1.34897e-12
-0.148129 -0.79749 1.95102e-11
1.34897e-12 1.95102e-11 -0.159848

-0.139643 0.395376 9.63386e-12
0.395376 -0.452909 -3.13123e-11
9.63386e-12 -3.13123e-11 -0.195406

-0.0750057 -0.356544 2.15814e-11
-0.356544 -0.354423 1.18509e-11
2.15814e-11 1.18509e-11 -0.172608

-0.181535 -0.0285832 -5.00998e-12
-0.0285832 0.0593375 4.69719e-13
-5.00998e-12 4.69719e-13 -0.00639668

-1.05455 -0.395936 -4.74029e-11
-0.395936 -0.397284 1.3103e-11
-4.74029e-11 1.3103e-11 -0.273593

-0.118424 0.0373771 -2.31195e-12
0.0373771 0.0086864 4.67273e-11
-2.31195e-12 4.67273e-11 -0.0200572

-0.123573 -0.0365665 -3.46804e-12
-0.0365665 -0.00108053 -5.34715e-11
-3.46804e-12 -5.34715e-11 -0.0226702

-0.434601 0.177073 -1.04055e-11
0.177073 -0.742908 9.92362e-12
-1.04055e-11 9.92362e-12 -0.136446

0.0632922 0.499032 -8.47891e-12
0.499032 -2.03022 -4.8029e-11
-8.47891e-12 -4.8029e-11 -0.474794

0.0902068 -0.431302 6.3591e-12
-0.431302 -2.01193 1.97993e-11
6.3591e-12 1.97993e-11 -0.454363

-0.137001 0.216391 3.08376e-12
0.216391 -0.430034 3.59369e-11
3.08376e-12 3.59369e-11 -0.0482367

-0.62141 -0.136114 -7.70578e-13
-0.136114 -0.459178 -3.24208e-11
-7.70578e-13 -3.24208e-11 -0.117109

-0.206727 0.170949 2.08109e-11
0.170949 -0.203374 1.92208e-11
2.08109e-11 1.92208e-11 -0.0278459

-0.194385 -0.167473 -3.39135e-11
-0.167473 -0.202868 -1.10799e-11
-3.39135e-11 -1.10799e-11 -0.026839

-0.117624 0.011311 1.31028e-11
0.011311 0.0270957 -7.56311e-12
1.31028e-11 -7.56311e-12 -0.00544025

-0.212042 -0.121529 3.27571e-11
-0.121529 0.036285 2.72657e-11
3.27571e-11 2.72657e-11 -0.0193828

-0.147872 0.014279 2.04251e-11
0.014279 0.119368 -1.58975e-12
2.04251e-11 -1.58975e-12 -0.00854047

1.00497 0.183799 -1.02897e-10
0.183799 -0.503898 2.54339e-11
-1.02897e-10 2.54339e-11 -1.21906

0.896443 -0.906972 -6.62821e-11
-0.906972 -1.05675 5.00983e-11
-6.62821e-11 5.00983e-11 -1.49987

-0.117265 -0.0115806 -2.65911e-11
-0.0115806 0.125235 1.51262e-11
-2.65911e-11 1.51262e-11 -0.00835679

0.0571603 -0.0804268 -4.23916e-12
-0.0804268 0.136398 2.89034e-12
-4.23916e-12 2.89034e-12 -0.0259725

-0.0561757 0.0690511 -2.31229e-12
0.0690511 0.202205 -9.24008e-12
-2.31229e-12 -9.24008e-12 -0.0192415

-0.139744 -0.208176 1.58009e-11
-0.208176 -0.407513 -3.85132e-13
1.58009e-11 -3.85132e-13 -0.0463044

0.443392 -0.390548 1.11762e-11
-0.390548 0.174218 -1.34881e-11
1.11762e-11 -1.34881e-11 -0.0945011

-0.306339 1.06021 -2.35083e-11
1.06021 -0.830668 2.05219e-11
-2.35083e-11 2.05219e-11 -0.3357

0.149481 0.159113 -8.47806e-12
0.159113 0.133376 3.9116e-11
-8.47806e-12 3.9116e-11 -0.0315721

0.11599 -0.189695 -2.15808e-11
-0.189695 0.203421 -2.24483e-11
-2.15808e-11 -2.24483e-11 -0.0310731

-0.263584 0.36273 -2.46646e-11
0.36273 -0.360293 2.69771e-12
-2.46646e-11 2.69771e-12 -0.0631757

-0.0409073 -0.00189223 8.86363e-12
-0.00189223 0.30584 1.08824e-11
8.86363e-12 1.08824e-11 -0.0147178

-0.13231 -0.0107357 -7.70863e-13
-0.0107357 0.089872 1.35365e-11
-7.70863e-13 1.35365e-11 -0.0102491

-0.554217 -0.59981 -2.58204e-11
-0.59981 -0.227426 -2.61104e-11
-2.58204e-11 -2.61104e-11 -0.153559

-0.149475 -0.132508 -2.35081e-11
-0.132508 0.167224 -1.34402e-11
-2.35081e-11 -1.34402e-11 -0.00528337

-0.448248 -0.067481 5.01014e-12
-0.067481 -0.350383 -1.45965e-11
5.01014e-12 -1.45965e-11 -0.0466507

-0.611512 -0.0762242 9.24944e-12
-0.0762242 -0.52383 -2.19188e-11
9.24944e-12 -2.19188e-11 -0.152536

-0.120788 0.0505075 -3.39133e-11
0.0505075 -0.168848 3.60816e-11
-3.39133e-11 3.60816e-11 -0.0263973

-0.117478 -0.0557268 -2.42788e-11
-0.0557268 -0.175211 -2.05217e-11
-2.42788e-11 -2.05217e-11 -0.0273391

-0.21861 0.0635515 1.04052e-11
0.0635515 0.136384 7.17767e-12
1.04052e-11 7.17767e-12 -0.0111908

-0.149196 0.136057 8.09328e-12
0.136057 0.154712 5.13518e-11
8.09328e-12 5.13518e-11 -0.00727932

0.00421013 -0.0817852 1.11759e-11
-0.0817852 -0.209468 1.62826e-11
1.11759e-11 1.62826e-11 -0.0529711

0.0146147 0.0971144 -7.70083e-13
0.0971144 -0.204019 4.09468e-11
-7.70083e-13 4.09468e-11 -0.0435608

-0.170811 -0.0138433 -6.93669e-12
-0.0138433 -0.0137249 2.37492e-11
-6.93669e-12 2.37492e-11 -0.00676771

-0.176534 0.0108559 -1.19469e-11
0.0108559 0.00628974 2.11477e-11
-1.19469e-11 2.11477e-11 -0.00486081

0.0264876 0.0396579 2.62055e-11
0.0396579 0.234976 7.99661e-12
2.62055e-11 7.99661e-12 -0.0201477

0.0282426 -0.0378416 8.4783e-12
-0.0378416 0.234867 1.68623e-13
8.4783e-12 1.68623e-13 -0.0196918

0.0221543 -0.218046 5.39524e-12
-0.218046 0.188433 7.03326e-12
5.39524e-12 7.03326e-12 -0.0235227

-0.329479 -0.964255 -5.20205e-12
-0.964255 -0.632464 -1.76319e-11
-5.20205e-12 -1.76319e-11 -0.28292

-1.08729 0.0151372 2.79407e-11
0.0151372 -0.660639 1.397e-11
2.79407e-11 1.397e-11 -0.317228

-0.34948 0.0352241 3.46836e-12
0.0352241 -0.372469 -2.38457e-11
3.46836e-12 -2.38457e-11 -0.015794

-0.202639 -0.0978785 -4.62471e-12
-0.0978785 0.022589 1.41628e-11
-4.62471e-12 1.41628e-11 -0.0263717

0.0211467 0.137177 -5.78061e-11
0.137177 0.136831 3.48284e-11
-5.78061e-11 3.48284e-11 -0.104626

0.0215446 -0.136195 6.55138e-11
-0.136195 0.138133 1.11279e-11
6.55138e-11 1.11279e-11 -0.104288

-0.0453542 0.170533 4.48965e-11
0.170533 0.158627 1.99431e-11
4.48965e-11 1.99431e-11 -0.0514579

-0.0467015 -0.171285 -5.43379e-11
-0.171285 0.159182 -3.03487e-11
-5.43379e-11 -3.03487e-11 -0.0517019

-0.311287 -0.0262967 -1.11761e-11
-0.0262967 -0.118359 -7.97262e-12
-1.11761e-11 -7.97262e-12 -0.00425391

-0.194832 -0.0177492 7.70757e-12
-0.0177492 -0.0248236 1.56543e-13
7.70757e-12 1.56543e-13 0.00269806

-0.2021 0.113187 -2.69767e-11
0.113187 0.0308212 -1.92668e-12
-2.69767e-11 -1.92668e-12 -0.0244892

0.00707811 -0.000336818 5.3567e-11
-0.000336818 0.125102 -3.02522e-11
5.3567e-11 -3.02522e-11 -0.292338

0.006894 0.000663395 3.6996e-11
0.000663395 0.124026 -3.53581e-11
3.6996e-11 -3.53581e-11 -0.292553

-0.0613407 -0.149934 3.1601e-11
-0.149934 0.142571 -1.33916e-11
3.1601e-11 -1.33916e-11 -0.022093

-0.255525 -0.0617919 2.46647e-11
-0.0617919 -0.609803 -1.18988e-11
2.46647e-11 -1.18988e-11 -0.0365307

-0.130378 0.0795499 -5.78066e-11
0.0795499 0.169475 4.85792e-12
-5.78066e-11 4.85792e-12 -0.0134556

-0.176151 -0.523422 -5.39585e-12
-0.523422 -0.544633 1.77279e-11
-5.39585e-12 1.77279e-11 -0.182722

0.0215699 0.259704 5.00975e-12
0.259704 -0.0700703 -7.12967e-12
5.00975e-12 -7.12967e-12 -0.117866

-0.473186 0.032575 -4.7595e-11
0.032575 -0.444946 1.92337e-13
-4.7595e-11 1.92337e-13 -0.069561

0.125937 0.188363 4.23887e-12
0.188363 0.196206 -1.32953e-11
4.23887e-12 -1.32953e-11 -0.0323324

-0.0692006 0.15344 -4.70159e-11
0.15344 0.145626 3.49251e-11
-4.70159e-11 3.49251e-11 -0.0227638

-0.813501 0.9561 -5.78066e-12
0.9561 -0.415828 2.20641e-11
-5.78066e-12 2.20641e-11 -0.230454

0.524815 -0.00586315 1.81128e-11
-0.00586315 0.0556684 1.06944e-11
1.81128e-11 1.06944e-11 -0.234211

0.758139 0.479392 8.09417e-12
0.479392 -1.04902 2.4857e-11
8.09417e-12 2.4857e-11 -0.334302

0.0119433 0.226743 1.27177e-11
0.226743 0.182948 1.94616e-11
1.27177e-11 1.94616e-11 -0.0286971

-0.653818 0.463242 -2.58216e-11
0.463242 -0.435796 -1.46445e-11
-2.58216e-11 -1.46445e-11 -0.153298

-0.418235 -0.0564039 5.00989e-12
-0.0564039 -0.579991 -3.31914e-11
5.00989e-12 -3.31914e-11 -0.0601735

0.367383 -0.282139 -1.73417e-11
-0.282139 0.152766 -1.7053e-11
-1.73417e-11 -1.7053e-11 -0.00453609

-0.345905 -0.455909 -9.24893e-12
-0.455909 -0.518493 -1.48376e-11
-9.24893e-12 -1.48376e-11 -0.114767

-0.269297 0.309303 -4.23886e-12
0.309303 -0.327927 2.399e-11
-4.23886e-12 2.399e-11 -0.0908429

-0.0799244 -0.0769238 -2.4664e-11
-0.0769238 0.206197 -2.4086e-11
-2.4664e-11 -2.4086e-11 -0.0321104

-0.0716912 -0.225331 -6.93691e-12
-0.225331 -0.166282 7.7077e-12
-6.93691e-12 7.7077e-12 -0.0607432

0.537136 0.34045 2.08106e-11
0.34045 0.156695 1.48368e-11
2.08106e-11 1.48368e-11 -0.0659161

-0.345384 0.0382858 -1.27177e-11
0.0382858 -0.321 1.96064e-11
-1.27177e-11 1.96064e-11 -0.0289232

-0.28918 -0.0204585 -1.96546e-11
-0.0204585 -0.4423 6.13605e-12
-1.96546e-11 6.13605e-12 -0.0316385

-0.0790057 0.0778481 -5.78071e-12
0.0778481 0.20607 4.9136e-12
-5.78071e-12 4.9136e-12 -0.0319215

-0.0868761 -0.0124942 7.6594e-12
-0.0124942 0.193304 1.01583e-11
7.6594e-12 1.01583e-11 -0.0165743

0.077026 0.0832313 2.65905e-11
0.0832313 -0.014091 -4.97132e-11
2.65905e-11 -4.97132e-11 -0.49988

0.0762398 -0.0823369 -5.78167e-12
-0.0823369 -0.0154586 1.89507e-10
-5.78167e-12 1.89507e-10 -0.500388

0.0616938 0.0966727 8.09313e-12
0.0966727 0.121771 1.38735e-11
8.09313e-12 1.38735e-11 -0.0331145

-1.71339 -0.548004 2.6399e-11
-0.548004 -1.3371 -3.94062e-11
2.6399e-11 -3.94062e-11 -1.29892

-1.7403 0.557702 9.05653e-12
0.557702 -1.33378 4.43219e-12
9.05653e-12 4.43219e-12 -1.31711

0.129348 -0.0735057 -5.20268e-12
-0.0735057 -1.23163 -3.15581e-14
-5.20268e-12 -3.15581e-14 -0.0959653

-0.827244 -0.94182 1.40668e-11
-0.94182 -0.378795 -9.34559e-12
1.40668e-11 -9.34559e-12 -0.225504

-0.217087 0.0550958 -2.71693e-11
0.0550958 -0.0328892 -2.46163e-11
-2.71693e-11 -2.46163e-11 -0.00386927

-0.276471 0.004361 -1.07908e-11
0.004361 -0.45126 -8.45424e-12
-1.07908e-11 -8.45424e-12 -0.0328028

-0.228711 0.106602 1.4837e-11
0.106602 -0.107364 -1.44037e-11
1.4837e-11 -1.44037e-11 -0.0187805

-0.231864 -0.108662 -2.63986e-11
-0.108662 -0.119311 -1.68612e-12
-2.63986e-11 -1.68612e-12 -0.024095

-0.16546 0.0479763 1.84982e-11
0.0479763 -0.0218069 -2.83014e-11
1.84982e-11 -2.83014e-11 -0.00639902

0.372295 0.271845 -4.62466e-12
0.271845 0.160111 3.75771e-12
-4.62466e-12 3.75771e-12 -0.00289225

-0.281607 0.0970066 -4.62593e-17
0.0970066 -0.249063 -2.50498e-12
-4.62593e-17 -2.50498e-12 -0.0254905

-0.163099 0.0276898 2.31224e-12
0.0276898 -0.0561169 1.02372e-12
2.31224e-12 1.02372e-12 -0.00824621

0.268736 -0.326854 -9.24634e-12
-0.326854 -0.864847 -7.45712e-11
-9.24634e-12 -7.45712e-11 -0.684357

0.619832 0.353633 -2.38933e-11
0.353633 -0.220583 2.00399e-11
-2.38933e-11 2.00399e-11 -0.490596

-0.2374 -0.392879 2.9675e-11
-0.392879 -0.894194 3.60333e-11
2.9675e-11 3.60333e-11 -0.202361

0.444271 -0.0648521 -1.38743e-11
-0.0648521 -2.02548 3.16156e-12
-1.38743e-11 3.16156e-12 -0.270746

-0.205541 -0.143195 -3.8506e-13
-0.143195 0.0154828 -3.41544e-11
-3.8506e-13 -3.41544e-11 -0.0152591

-0.212194 0.141548 -3.16007e-11
0.141548 0.0248605 5.49652e-11
-3.16007e-11 5.49652e-11 -0.0150168

0.0721247 -0.0485778 -3.16023e-11
-0.0485778 -1.50563 1.17287e-11
-3.16023e-11 1.17287e-11 -0.162889

-0.0632415 0.215217 -1.58001e-11
0.215217 0.0925102 3.10231e-11
-1.58001e-11 3.10231e-11 -0.0407382

-0.0455668 0.129048 4.74009e-11
0.129048 0.123974 -4.69198e-11
4.74009e-11 -4.69198e-11 -0.219793

-0.0451542 -0.128356 3.46867e-12
-0.128356 0.123649 -9.00815e-11
3.46867e-12 -9.00815e-11 -0.219716

-0.672882 -0.149187 -1.31031e-11
-0.149187 -0.628736 2.92895e-11
-1.31031e-11 2.92895e-11 -0.249628

-0.674865 -0.472728 8.67154e-12
-0.472728 -0.438 -1.30067e-11
8.67154e-12 -1.30067e-11 -0.158679

-0.235884 -0.411048 2.15818e-11
-0.411048 -1.27906 -6.53231e-11
2.15818e-11 -6.53231e-11 -0.234415

-0.302488 0.0115983 -2.6978e-12
0.0115983 -0.613108 -2.19669e-11
-2.6978e-12 -2.19669e-11 -0.0522933

-0.329095 -0.354551 4.23935e-12
-0.354551 -0.355493 -4.14284e-12
4.23935e-12 -4.14284e-12 -0.0794444

-0.359286 -0.0725886 -5.00999e-11
-0.0725886 -0.35833 7.64734e-12
-5.00999e-11 7.64734e-12 -0.044186

-0.288549 -0.290998 -2.69769e-11
-0.290998 -0.284704 3.5648e-12
-2.69769e-11 3.5648e-12 -0.0897154

-0.0554008 0.220475 -1.15589e-12
0.220475 -0.238477 1.58007e-11
-1.15589e-12 1.58007e-11 -0.0678332

0.341583 -0.339349 -4.66316e-11
-0.339349 -0.423131 3.00584e-11
-4.66316e-11 3.00584e-11 -0.661806

0.188821 0.243152 2.1196e-11
0.243152 -0.484441 -1.34887e-11
2.1196e-11 -1.34887e-11 -0.704421

-0.0280793 0.00397795 1.42588e-11
0.00397795 0.261072 -1.46925e-11
1.42588e-11 -1.46925e-11 -0.0511487

-0.0310947 -0.00456122 2.04249e-11
-0.00456122 0.259291 2.50976e-11
2.04249e-11 2.50976e-11 -0.0519473

-1.19117 -0.253466 1.54159e-12
-0.253466 -0.952502 2.69771e-12
1.54159e-12 2.69771e-12 -0.568172

-1.24652 0.266714 -5.99276e-11
0.266714 -0.943321 -1.82104e-11
-5.99276e-11 -1.82104e-11 -0.598934

-1.49182 -0.134956 3.4877e-11
-0.134956 -0.785706 -3.69019e-11
3.4877e-11 -3.69019e-11 -1.00877

-1.50864 0.150854 2.81338e-11
0.150854 -0.80778 -2.34116e-11
2.81338e-11 -2.34116e-11 -1.02196

0.00970142 -0.001335 1.23324e-11
-0.001335 0.0767325 2.48567e-11
1.23324e-11 2.48567e-11 -0.413336

0.00888203 0.00186658 4.7015e-11
0.00186658 0.0755006 7.84238e-11
4.7015e-11 7.84238e-11 -0.413759

0.248089 0.176843 3.12154e-11
0.176843 0.105843 2.21595e-12
3.12154e-11 2.21595e-12 -0.0434567

0.247522 -0.178805 1.50304e-11
-0.178805 0.109508 -4.91352e-11
1.50304e-11 -4.91352e-11 -0.0422968

-0.131324 -0.0382299 1.38734e-11
-0.0382299 0.193764 4.16692e-11
1.38734e-11 4.16692e-11 -0.0195431

-0.00560632 -0.211181 1.11765e-11
-0.211181 -0.374502 -1.34853e-12
1.11765e-11 -1.34853e-12 -0.0537499

0.00426089 0.0471419 1.5416e-12
0.0471419 -0.0330429 1.00198e-11
1.5416e-12 1.00198e-11 -0.053865

-0.285549 -0.0969081 1.42596e-11
-0.0969081 -0.517591 -4.40301e-11
1.42596e-11 -4.40301e-11 -0.033105

-0.128062 0.0408356 -4.39328e-11
0.0408356 0.196161 4.61975e-11
-4.39328e-11 4.61975e-11 -0.0183226

-0.0943128 0.175482 -8.38215e-12
0.175482 -0.300713 -9.63697e-13
-8.38215e-12 -9.63697e-13 -0.050127

-0.153479 -0.0694843 -6.93701e-12
-0.0694843 0.166003 2.18221e-11
-6.93701e-12 2.18221e-11 -0.0246548

-1.38418 -0.601841 1.8306e-11
-0.601841 -0.382688 -2.21601e-11
1.8306e-11 -2.21601e-11 -0.444241

-1.38189 0.603815 -2.21601e-11
0.603815 -0.40264 6.16709e-12
-2.21601e-11 6.16709e-12 -0.448976

-0.157538 0.071623 4.50894e-11
0.071623 0.164095 3.81524e-11
4.50894e-11 3.81524e-11 -0.025446

-0.316152 0.443127 2.73626e-11
0.443127 -0.925941 1.91252e-11
2.73626e-11 1.91252e-11 -0.259661

1.08993 0.106438 7.55357e-11
0.106438 -2.55734 1.90815e-11
7.55357e-11 1.90815e-11 -1.78113

0.904459 -0.220114 -3.16013e-11
-0.220114 0.082359 -9.44073e-12
-3.16013e-11 -9.44073e-12 -1.12351

0.245554 0.0927335 2.27368e-11
0.0927335 0.0145429 -2.8422e-11
2.27368e-11 -2.8422e-11 -0.0880305

-0.783839 -0.338841 1.1562e-12
-0.338841 -1.09337 3.69971e-11
1.1562e-12 3.69971e-11 -0.319843

-0.33139 -0.645981 -2.69763e-12
-0.645981 -1.2919 2.95785e-11
-2.69763e-12 2.95785e-11 -0.611853

-0.206925 -0.0352654 3.08296e-12
-0.0352654 -0.126547 -1.8113e-11
3.08296e-12 -1.8113e-11 -0.0144953

-0.28312 0.0109395 -7.3223e-12
0.0109395 0.0157993 -2.96021e-11
-7.3223e-12 -2.96021e-11 -0.00996684

0.0768067 0.070917 1.92687e-11
0.070917 0.180554 -3.09023e-11
1.92687e-11 -3.09023e-11 -0.071684

0.0788927 -0.0677997 4.00791e-11
-0.0677997 0.179698 -3.47561e-11
4.00791e-11 -3.47561e-11 -0.0711738

-0.352343 0.645027 1.15617e-11
0.645027 -1.29197 2.4088e-12
1.15617e-11 2.4088e-12 -0.635037

0.0107148 -0.0668206 -2.47607e-11
-0.0668206 -0.0699654 1.18503e-11
-2.47607e-11 1.18503e-11 -0.0600727

-0.149832 -0.127213 -4.52829e-12
-0.127213 0.148663 2.83254e-11
-4.52829e-12 2.83254e-11 -0.0140237

-0.0210655 0.192733 9.24897e-12
0.192733 0.1617 -6.84048e-12
9.24897e-12 -6.84048e-12 -0.0794117

-0.0208144 -0.192254 -1.3103e-11
-0.192254 0.163263 2.72653e-11
-1.3103e-11 2.72653e-11 -0.0789835

-2.48527 -0.941793 1.04077e-11
-0.941793 -2.97414 -1.08868e-10
1.04077e-11 -1.08868e-10 -2.82621

-2.51078 0.959283 3.2951e-11
0.959283 -2.97143 -1.61054e-11
3.2951e-11 -1.61054e-11 -2.83177

0.128946 0.274802 8.86358e-12
0.274802 0.150788 -8.57465e-12
8.86358e-12 -8.57465e-12 -0.0472396

-0.36165 -0.120479 -3.12165e-11
-0.120479 -0.709533 -2.8421e-12
-3.12165e-11 -2.8421e-12 -0.105748

-0.064731 0.145486 7.99718e-12
0.145486 0.205011 9.61032e-11
7.99718e-12 9.61032e-11 -0.111685

-0.0638155 -0.144936 1.02126e-11
-0.144936 0.20484 7.56315e-12
1.02126e-11 7.56315e-12 -0.111501

0.224107 -0.42029 -1.73521e-12
-0.42029 -0.467459 3.30469e-11
-1.73521e-12 3.30469e-11 -0.0902567

0.0744636 -0.810824 2.89043e-11
-0.810824 -0.462952 6.93776e-12
2.89043e-11 6.93776e-12 -0.0721924

-0.334546 -0.11325 5.47242e-11
-0.11325 -0.156272 -8.43038e-12
5.47242e-11 -8.43038e-12 -0.0332116

-1.2515 0.0608532 -3.85261e-13
0.0608532 -0.263353 -1.27174e-11
-3.85261e-13 -1.27174e-11 -0.516048

-1.26757 -0.0610667 9.44221e-12
-0.0610667 -0.27464 -2.34126e-11
9.44221e-12 -2.34126e-11 -0.524949

-0.482831 -0.799303 8.47782e-12
-0.799303 -0.626515 2.13892e-11
8.47782e-12 2.13892e-11 -0.203078

-0.143515 0.127387 1.9267e-12
0.127387 0.133501 -4.25844e-11
1.9267e-12 -4.25844e-11 -0.0171149

-0.695039 0.159171 1.2622e-11
0.159171 -0.63085 -8.08349e-11
1.2622e-11 -8.08349e-11 -0.274037

-1.2522 0.0515597 -9.05691e-12
0.0515597 -0.653082 -3.66117e-11
-9.05691e-12 -3.66117e-11 -0.531688

-1.27872 -0.0610426 -4.08514e-11
-0.0610426 -0.642013 3.09273e-11
-4.08514e-11 3.09273e-11 -0.540321

-0.314218 0.504543 2.63994e-11
0.504543 -1.41878 -5.49141e-12
2.63994e-11 -5.49141e-12 -0.298042

-0.0437537 0.0931156 -1.58003e-11
0.0931156 0.227469 -1.87871e-11
-1.58003e-11 -1.87871e-11 -0.149625

-0.0429374 -0.0923613 7.28359e-11
-0.0923613 0.226217 1.1754e-11
7.28359e-11 1.1754e-11 -0.149585

0.198799 -0.0153048 3.7381e-11
-0.0153048 -0.442832 3.54566e-11
3.7381e-11 3.54566e-11 -1.20855

0.00925063 0.450032 -7.74598e-11
0.450032 -0.551944 4.00824e-11
-7.74598e-11 4.00824e-11 -1.24752

-0.299036 0.0317676 3.08292e-12
0.0317676 -0.10817 6.55632e-11
3.08292e-12 6.55632e-11 -0.00398677

-0.0790168 -0.0201683 -1.23323e-11
-0.0201683 -0.410433 2.38276e-11
-1.23323e-11 2.38276e-11 0.0211024

-0.0038104 0.179163 -5.66503e-11
0.179163 0.216074 2.29301e-11
-5.66503e-11 2.29301e-11 -0.0515574

1.14238e-05 -0.178447 5.78052e-12
-0.178447 0.217169 9.15289e-12
5.78052e-12 9.15289e-12 -0.0502221

0.19088 0.195741 5.3949e-12
0.195741 0.19814 -2.49532e-11
5.3949e-12 -2.49532e-11 -0.0455996

-0.258516 0.046743 5.20264e-11
0.046743 -0.131195 -3.62742e-11
5.20264e-11 -3.62742e-11 -0.00975167

-0.166734 -0.0156703 -1.96544e-11
-0.0156703 -0.165987 9.82719e-12
-1.96544e-11 9.82719e-12 -0.0159099

-0.0968818 -0.105661 -1.00204e-11
-0.105661 0.093509 1.40469e-10
-1.00204e-11 1.40469e-10 -0.536297

-0.0960157 0.106491 -5.08685e-11
0.106491 0.0946925 1.58292e-10
-5.08685e-11 1.58292e-10 -0.535792

-1.11241 -0.0190831 2.98676e-11
-0.0190831 -0.676325 -2.07141e-11
2.98676e-11 -2.07141e-11 -0.329269

-0.0119407 0.137251 8.47813e-12
0.137251 0.0714396 -1.55115e-11
8.47813e-12 -1.55115e-11 -0.0219247

0.0238453 0.118161 -2.96746e-11
0.118161 0.178499 -6.04078e-11
-2.96746e-11 -6.04078e-11 -0.045303

0.0241593 -0.117327 3.23712e-11
-0.117327 0.179649 6.04083e-11
3.23712e-11 6.04083e-11 -0.0447823

-0.0497676 0.0847574 -1.96546e-11
0.0847574 0.171574 -2.44714e-11
-1.96546e-11 -2.44714e-11 -0.0283277

-0.0116546 -0.130594 -2.54349e-11
-0.130594 0.0659598 -1.23323e-11
-2.54349e-11 -1.23323e-11 -0.0226599

-0.28088 -0.00678645 -1.27213e-16
-0.00678645 -0.0825374 -1.94619e-11
-1.27213e-16 -1.94619e-11 -0.00930734

-0.281099 -0.00995173 -8.8638e-12
-0.00995173 -0.0585942 -1.20434e-12
-8.8638e-12 -1.20434e-12 -0.00683995

-0.228555 -0.0342452 -4.62459e-12
-0.0342452 0.0712891 -2.98667e-12
-4.62459e-12 -2.98667e-12 -0.00430771

-0.0513286 -0.0826864 -2.04248e-11
-0.0826864 0.174441 -3.24681e-11
-2.04248e-11 -3.24681e-11 -0.0274063

-0.251545 -0.0878066 -1.04055e-11
-0.0878066 -0.253033 2.9265e-11
-1.04055e-11 2.9265e-11 -0.0247599

-0.2991 0.0506052 2.65915e-11
0.0506052 -0.435425 6.81658e-12
2.65915e-11 6.81658e-12 -0.0183808

0.0772831 0.16319 2.46639e-11
0.16319 0.126729 -1.84982e-11
2.46639e-11 -1.84982e-11 -0.0865259

0.0779976 -0.164167 -3.54546e-11
-0.164167 0.127224 -1.83071e-12
-3.54546e-11 -1.83071e-12 -0.0860553

-0.00788909 0.1083 2.46641e-11
0.1083 0.221606 1.07904e-11
2.46641e-11 1.07904e-11 -0.0966085

-0.00721439 -0.107773 -1.23321e-11
-0.107773 0.222458 1.51259e-11
-1.23321e-11 1.51259e-11 -0.0961764

-0.355254 -0.0878838 -3.42992e-11
-0.0878838 -0.199599 4.41264e-11
-3.42992e-11 4.41264e-11 -0.0187715

-0.259588 -0.0789323 -1.50301e-11
-0.0789323 -0.26094 2.40022e-11
-1.50301e-11 2.40022e-11 0.00841237

-0.046426 -0.191288 -2.62054e-11
-0.191288 0.176367 -2.49532e-11
-2.62054e-11 -2.49532e-11 -0.0387062

-0.048405 0.193126 -2.8133e-11
0.193126 0.173351 -4.77868e-11
-2.8133e-11 -4.77868e-11 -0.0399191

0.445033 -0.108018 7.47657e-11
-0.108018 -1.43244 -2.98634e-11
7.47657e-11 -2.98634e-11 -0.987683

0.249994 -0.0160432 -6.32015e-11
-0.0160432 -0.383395 3.31443e-11
-6.32015e-11 3.31443e-11 -0.79437

0.0884323 0.114002 3.85261e-13
0.114002 0.227396 -1.24285e-11
3.85261e-13 -1.24285e-11 -0.0757796

0.0937609 -0.111316 -3.08344e-12
-0.111316 0.227332 4.02718e-11
-3.08344e-12 4.02718e-11 -0.0743995

-0.0010139 0.0577436 4.93282e-11
0.0577436 0.158554 3.78148e-11
4.93282e-11 3.78148e-11 -0.168778

-0.000471773 -0.057544 1.65711e-11
-0.057544 0.158177 2.77952e-11
1.65711e-11 2.77952e-11 -0.168637

-0.833501 -0.145711 -4.43243e-12
-0.145711 -0.349129 3.53595e-11
-4.43243e-12 3.53595e-11 -0.253262

-0.808436 0.146523 3.17936e-11
0.146523 -0.37436 -7.00449e-11
3.17936e-11 -7.00449e-11 -0.251859

-0.233517 -0.795391 -2.42816e-11
-0.795391 -1.30278 5.2604e-11
-2.42816e-11 5.2604e-11 -1.34161

-2.2224 0.0339629 4.52838e-11
0.0339629 -1.51964 -2.60127e-11
4.52838e-11 -2.60127e-11 -1.88883

-0.0515294 0.0307052 1.27173e-11
0.0307052 0.0978935 -2.51457e-11
1.27173e-11 -2.51457e-11 -0.322349

0.0288733 -0.0713359 3.27571e-11
-0.0713359 -0.00337497 -1.05974e-11
3.27571e-11 -1.05974e-11 -0.423775

-0.0520398 -0.0302278 1.42589e-11
-0.0302278 0.100001 4.81755e-13
1.42589e-11 4.81755e-13 -0.32204

0.0293305 0.0717869 -4.62444e-11
0.0717869 -0.00204953 2.97703e-11
-4.62444e-11 2.97703e-11 -0.423387

0.247618 0.481627 -3.85016e-13
0.481627 -0.073161 1.27174e-11
-3.85016e-13 1.27174e-11 -0.861112

-2.21679 -0.0291333 -2.9097e-11
-0.0291333 -1.52419 -3.09268e-11
-2.9097e-11 -3.09268e-11 -1.88806

-0.0139605 0.00920932 1.24472e-10
0.00920932 -0.00607636 4.17939e-10
1.24472e-10 4.17939e-10 -0.448628

0.0847943 -0.0781882 -3.21013e-10
-0.0781882 -0.0175934 -1.66095e-10
-3.21013e-10 -1.66095e-10 -0.55656

0.084906 0.0787591 -8.10437e-10
0.0787591 -0.0159282 1.06656e-10
-8.10437e-10 1.06656e-10 -0.556093

-0.0124739 -0.00822859 -1.21778e-10
-0.00822859 -0.00542935 6.07932e-11
-1.21778e-10 6.07932e-11 -0.44823

0.0894333 -0.0418659 -3.27571e-11
-0.0418659 -0.0332056 4.7208e-11
-3.27571e-11 4.7208e-11 -0.35143

0.075987 -0.183938 2.04245e-11
-0.183938 0.0702317 3.39133e-11
2.04245e-11 3.39133e-11 -0.192436

-0.0945149 -0.0516092 7.70883e-12
-0.0516092 0.114544 -1.81029e-10
7.70883e-12 -1.81029e-10 -0.483303

0.0903355 0.0430953 1.81121e-11
0.0430953 -0.0326591 -6.63808e-11
1.81121e-11 -6.63808e-11 -0.351232

-0.0935973 0.0521393 7.66904e-11
0.0521393 0.116002 1.71587e-10
7.66904e-11 1.71587e-10 -0.482781

0.0762203 0.185046 -4.04647e-11
0.185046 0.0708683 -3.02519e-11
-4.04647e-11 -3.02519e-11 -0.192472

0.039263 0.0561038 -4.16201e-11
0.0561038 0.136091 3.45875e-11
-4.16201e-11 3.45875e-11 -0.224307

-0.0109615 0.125886 -7.70699e-12
0.125886 0.0157512 4.85573e-11
-7.70699e-12 4.85573e-11 -0.342638

0.0389001 -0.055692 3.85366e-12
-0.055692 0.13599 3.34314e-11
3.85366e-12 3.34314e-11 -0.22428

-0.0111772 -0.125038 3.58399e-11
-0.125038 0.0151869 2.11965e-12
3.58399e-11 2.11965e-12 -0.342757

-0.527205 0.884176 -1.45494e-11
0.884176 1.47068 3.73868e-11
-1.45494e-11 3.73868e-11 0.332712

-0.220454 0.146529 5.58718e-12
0.146529 0.480625 -1.42606e-11
5.58718e-12 -1.42606e-11 -0.0846472

-1.71152 0.249283 -6.35998e-12
0.249283 0.907046 -1.11771e-11
-6.35998e-12 -1.11771e-11 -0.238891

1.38494 0.453944 -3.08838e-11
0.453944 -1.3741 -5.58843e-11
-3.08838e-11 -5.58843e-11 0.017946

1.93045 0.130711 5.23221e-11
0.130711 -0.765423 -3.85321e-13
5.23221e-11 -3.85321e-13 0.30262

-1.42161 -0.0939224 -1.34863e-12
-0.0939224 -0.393162 3.31437e-11
-1.34863e-12 3.31437e-11 -0.680005

-2.87735 0.379247 4.6244e-12
0.379247 0.575167 -2.77501e-11
4.6244e-12 -2.77501e-11 -0.84255

1.97356 -0.124169 4.15297e-11
-0.124169 -0.510853 1.0792e-11
4.15297e-11 1.0792e-11 0.334734

1.25257 0.104391 5.30427e-11
0.104391 -2.01576 -9.05757e-12
5.30427e-11 -9.05757e-12 -0.253049

0.585247 0.793662 -1.16598e-11
0.793662 2.31634 4.23898e-12
-1.16598e-11 4.23898e-12 1.1329

1.26875 -1.28326 3.07379e-11
-1.28326 2.64459 -1.73453e-11
3.07379e-11 -1.73453e-11 1.34816

2.51268 0.80008 9.44156e-12
0.80008 0.863053 -2.42803e-11
9.44156e-12 -2.42803e-11 1.25976

-0.821417 -1.46919 1.47413e-11
-1.46919 0.0676073 9.44215e-12
1.47413e-11 9.44215e-12 -0.540932

-1.33763 -0.513428 1.79217e-11
-0.513428 0.1151 4.08521e-11
1.79217e-11 4.08521e-11 -0.684548

-1.46971 0.760197 -1.49348e-11
0.760197 0.92083 4.24003e-12
-1.49348e-11 4.24003e-12 -0.00968263

-2.15258 0.882654 -2.48596e-11
0.882654 0.58315 7.71642e-13
-2.48596e-11 7.71642e-13 -0.237945

-2.89117 -0.420989 1.15706e-12
-0.420989 0.634737 2.27393e-11
1.15706e-12 2.27393e-11 -0.851021

-1.62661 -1.09845 -2.46664e-11
-1.09845 -0.141766 -3.85303e-12
-2.46664e-11 -3.85303e-12 -0.710361

0.995777 -0.78211 -9.53904e-12
-0.78211 -1.50862 -1.44522e-11
-9.53904e-12 -1.44522e-11 -0.0124738

0.176752 0.250457 -1.56097e-11
0.250457 2.61024 3.84655e-13
-1.56097e-11 3.84655e-13 0.919246

0.776249 -0.500331 5.04898e-11
-0.500331 2.56045 -7.32385e-12
5.04898e-11 -7.32385e-12 0.951144

2.5924 0.188339 -8.86432e-12
0.188339 0.674458 6.55218e-12
-8.86432e-12 6.55218e-12 1.0457

-0.348711 1.0247 -1.56105e-11
1.0247 0.868797 1.54101e-12
-1.56105e-11 1.54101e-12 0.253015

1.87316 -0.703232 -1.90784e-11
-0.703232 -0.302078 -2.67861e-11
-1.90784e-11 -2.67861e-11 0.421528

-0.0119735 1.12568 -3.56432e-12
1.12568 0.199075 2.94842e-11
-3.56432e-12 2.94842e-11 0.121431

0.634455 0.80003 3.39151e-11
0.80003 1.19931 -4.06637e-11
3.39151e-11 -4.06637e-11 0.398856

1.53894 -0.239536 -5.39589e-11
-0.239536 -1.46854 5.8968e-11
-5.39589e-11 5.8968e-11 -0.00807519

2.20697 0.538373 -3.73873e-11
0.538373 3.4475 -4.35548e-11
-3.73873e-11 -4.35548e-11 2.19535

1.02416 0.270294 2.22823e-11
0.270294 -1.98654 2.73642e-11
2.22823e-11 2.73642e-11 -0.243633

3.41233 0.502737 7.26568e-11
0.502737 2.50916 -2.62124e-11
7.26568e-11 -2.62124e-11 2.32258

-0.752267 -0.49805 2.25462e-11
-0.49805 -0.293865 2.66885e-11
2.25462e-11 2.66885e-11 -0.703021

-1.6059 0.0636495 -3.08259e-12
0.0636495 0.340907 1.00207e-11
-3.08259e-12 1.00207e-11 -0.895721

-1.88008 -0.536491 6.41441e-11
-0.536491 -2.78364 2.67837e-11
6.41441e-11 2.67837e-11 -2.92344

-2.41038 1.29986 -4.89697e-11
1.29986 -2.27649 -2.96762e-11
-4.89697e-11 -2.96762e-11 -2.87109

2.75025 -0.340534 -2.49585e-11
-0.340534 0.865882 -2.81352e-11
-2.49585e-11 -2.81352e-11 1.09223

-0.931522 1.19459 4.09501e-11
1.19459 -0.160324 4.70208e-11
4.09501e-11 4.70208e-11 -0.155449

-1.08432 0.681904 2.76891e-11
0.681904 -1.29063 1.58014e-11
2.76891e-11 1.58014e-11 -1.04775

-0.789197 -0.189369 3.91522e-12
-0.189369 -1.05815 1.36816e-11
3.91522e-12 1.36816e-11 -1.06737

1.29368 0.102736 -2.3879e-14
0.102736 -2.19137 2.23534e-11
-2.3879e-14 2.23534e-11 -0.232864

0.217024 1.12687 -1.59947e-11
1.12687 1.08635 -8.09356e-12
-1.59947e-11 -8.09356e-12 0.312544

1.65244 -0.89015 -3.28581e-11
-0.89015 0.497272 5.97433e-12
-3.28581e-11 5.97433e-12 0.489902

1.51098 -0.009898 3.28806e-11
-0.009898 -2.25526 -6.5521e-12
3.28806e-11 -6.5521e-12 -0.177811

0.0915896 -1.53342 -4.07568e-11
-1.53342 1.54253 2.25485e-11
-4.07568e-11 2.25485e-11 0.338433

0.142199 -1.3376 -5.87749e-12
-1.3376 1.61113 2.40885e-11
-5.87749e-12 2.40885e-11 0.346863

-0.358755 0.68234 -2.10047e-11
0.68234 0.201734 -1.17541e-11
-2.10047e-11 -1.17541e-11 -0.0868559

1.42621 -1.5343 -2.74624e-11
-1.5343 0.954184 8.67273e-12
-2.74624e-11 8.67273e-12 0.62831

6.76213 -1.52976 6.99595e-11
-1.52976 6.64439 1.85e-11
6.99595e-11 1.85e-11 6.64621

6.72538 -1.62098 -1.07935e-11
-1.62098 7.14694 -1.4068e-11
-1.07935e-11 -1.4068e-11 6.84566

-1.48617 -1.78539 3.81541e-11
-1.78539 0.41843 3.12165e-11
3.81541e-11 3.12165e-11 -0.434131

4.31329 -0.604763 8.67347e-12
-0.604763 4.18711 3.79673e-11
8.67347e-12 3.79673e-11 4.56565

3.919 -0.496014 -6.22505e-11
-0.496014 4.25185 -6.93791e-12
-6.22505e-11 -6.93791e-12 4.38956

0.0697445 0.771829 3.08331e-11
0.771829 -1.47562 1.83037e-11
3.08331e-11 1.83037e-11 -0.711508

-0.254055 -1.02459 -1.77294e-11
-1.02459 -1.34095 5.74237e-11
-1.77294e-11 5.74237e-11 -0.992387

0.68371 -0.535213 3.60362e-11
-0.535213 -1.95177 -7.70932e-12
3.60362e-11 -7.70932e-12 -0.130206

-0.0284829 1.04064 3.08303e-11
1.04064 -2.11356 -5.64622e-11
3.08303e-11 -5.64622e-11 -0.855047

-0.478059 -1.43891 1.46462e-11
-1.43891 -1.54238 2.54323e-11
1.46462e-11 2.54323e-11 -1.09866

-0.397207 0.79062 2.50622e-12
0.79062 0.796868 2.52437e-11
2.50622e-12 2.52437e-11 0.0518629

-1.20366 -0.498723 -1.64997e-11
-0.498723 -2.74893 1.84106e-11
-1.64997e-11 1.84106e-11 -2.31985

-1.8948 0.671172 -3.0808e-11
0.671172 -2.32386 -1.78735e-11
-3.0808e-11 -1.78735e-11 -2.33299

0.251388 1.21965 -2.65931e-11
1.21965 -1.38336 1.39221e-11
-2.65931e-11 1.39221e-11 -0.351143

-0.192738 -1.55298 4.37443e-11
-1.55298 -1.25228 -2.64509e-11
4.37443e-11 -2.64509e-11 -0.494796

2.61714 -1.05846 3.85803e-13
-1.05846 1.16228 -3.10262e-11
3.85803e-13 -3.10262e-11 1.37744

-1.97955 -0.299863 1.31039e-11
-0.299863 -1.11782 6.06924e-12
1.31039e-11 6.06924e-12 -1.61037

-2.63803 -0.0512595 1.96535e-11
-0.0512595 0.0587573 -7.36122e-11
1.96535e-11 -7.36122e-11 -2.00737

-0.453747 -1.29573 -5.78056e-13
-1.29573 0.84197 1.61882e-11
-5.78056e-13 1.61882e-11 0.223588

2.1871 -0.445905 4.81785e-11
-0.445905 3.49746 -5.80113e-11
4.81785e-11 -5.80113e-11 2.35123

3.48716 -0.416894 2.44749e-11
-0.416894 2.25596 -5.97402e-12
2.44749e-11 -5.97402e-12 2.38963

-0.85847 0.506222 -3.85417e-12
0.506222 0.474336 -2.89065e-12
-3.85417e-12 -2.89065e-12 -0.154376

-2.15486 0.756802 -2.17748e-11
0.756802 0.728716 1.69589e-11
-2.17748e-11 1.69589e-11 -0.260991

-0.665785 0.981183 -1.38783e-11
0.981183 -3.55049 3.48794e-11
-1.38783e-11 3.48794e-11 -2.89142

-0.783711 0.295189 1.13686e-10
0.295189 0.237202 -1.00223e-11
1.13686e-10 -1.00223e-11 -3.19299

-2.19852 1.13897 -1.10803e-11
1.13897 -0.489893 1.54158e-12
-1.10803e-11 1.54158e-12 -0.44316

0.675752 0.899992 -3.96987e-11
0.899992 -1.63611 8.09552e-12
-3.96987e-11 8.09552e-12 -0.180996

0.427905 -1.37179 -1.00205e-11
-1.37179 -1.50883 3.08339e-12
-1.00205e-11 3.08339e-12 -0.251368

-1.77786 1.56321 1.15299e-12
1.56321 -0.491743 -4.85612e-11
1.15299e-12 -4.85612e-11 -0.382581

-2.49332 -1.18997 -9.44169e-12
-1.18997 0.076421 -4.23935e-12
-9.44169e-12 -4.23935e-12 -0.63138

2.71061 -0.112077 -9.44311e-12
-0.112077 0.384267 -2.6981e-11
-9.44311e-12 -2.6981e-11 1.03421

1.64498 -0.454383 -4.70227e-11
-0.454383 -0.874735 -7.70707e-12
-4.70227e-11 -7.70707e-12 0.29284

2.03826 0.557993 1.45501e-11
0.557993 -0.0982322 -1.11776e-11
1.45501e-11 -1.11776e-11 0.568906

-0.723452 0.619316 5.63417e-11
0.619316 -1.92407 -3.84877e-13
5.63417e-11 -3.84877e-13 -0.955288

-4.98995 0.419697 -1.17077e-11
0.419697 -2.21094 -5.04878e-11
-1.17077e-11 -5.04878e-11 -3.86802

-3.58007 -0.310164 -1.5358e-10
-0.310164 -3.40584 -5.35687e-11
-1.5358e-10 -5.35687e-11 -3.86086

1.4085 0.895165 -2.87566e-13
0.895165 1.9261 -9.44222e-12
-2.87566e-13 -9.44222e-12 1.07348

0.451807 -1.14996 3.84822e-13
-1.14996 -0.00423184 -1.07922e-11
3.84822e-13 -1.07922e-11 0.0457526

0.963012 0.622861 2.1971e-11
0.622861 -1.02232 4.4323e-11
2.1971e-11 4.4323e-11 0.0493157

-2.50844 0.697498 -4.97164e-11
0.697498 -0.230295 -3.96935e-11
-4.97164e-11 -3.96935e-11 -2.4965

-2.61253 -0.461253 2.50507e-11
-0.461253 -1.70675 1.92653e-12
2.50507e-11 1.92653e-12 -2.19033

-0.553008 -0.167413 2.42813e-11
-0.167413 -2.068 5.97368e-12
2.42813e-11 5.97368e-12 -1.05966

-0.436365 -0.896242 -6.84148e-12
-0.896242 0.689594 -2.77484e-11
-6.84148e-12 -2.77484e-11 -0.126472

-1.77729 -0.290181 8.76714e-12
-0.290181 0.960621 6.16679e-12
8.76714e-12 6.16679e-12 -0.28431

0.635832 0.198731 1.81129e-11
0.198731 -2.65003 -2.73653e-11
1.81129e-11 -2.73653e-11 -0.273405

0.550491 -0.624865 2.04273e-11
-0.624865 -2.55899 1.77272e-11
2.04273e-11 1.77272e-11 -0.317131

1.98138 -1.27207 3.56528e-11
-1.27207 1.43784 -2.62106e-11
3.56528e-11 -2.62106e-11 1.16331

0.437593 0.785815 4.48511e-11
0.785815 -2.66795 -3.85773e-12
4.48511e-11 -3.85773e-12 -0.499952

0.305408 -1.2232 1.90305e-11
-1.2232 -2.15106 8.47823e-12
1.90305e-11 8.47823e-12 -0.56339

0.96098 -1.08776 2.10063e-11
-1.08776 -1.12987 -1.38749e-11
2.10063e-11 -1.38749e-11 0.0175929

-0.412378 -1.08371 -9.05671e-12
-1.08371 1.34787 4.23979e-12
-9.05671e-12 4.23979e-12 0.323175

0.376183 0.471812 9.24771e-12
0.471812 -1.90867 -2.13906e-11
9.24771e-12 -2.13906e-11 -0.263099

0.435983 -0.876119 -3.85136e-13
-0.876119 -1.87883 -5.39697e-12
-3.85136e-13 -5.39697e-12 -0.323935

1.17251 -0.284064 8.57638e-12
-0.284064 -0.880101 -3.10257e-11
8.57638e-12 -3.10257e-11 -0.00595699

0.15079 1.36946 -7.32544e-12
1.36946 -0.515662 -1.94623e-11
-7.32544e-12 -1.94623e-11 -0.126314

1.16794 0.905151 -8.6721e-12
0.905151 0.551553 -1.23334e-11
-8.6721e-12 -1.23334e-11 0.489037

-2.18778 1.3583 8.04521e-12
1.3583 -0.953638 3.43022e-11
8.04521e-12 3.43022e-11 -0.517035

-0.793572 1.01466 -1.17544e-11
1.01466 -0.0458401 1.38752e-11
-1.17544e-11 1.38752e-11 -0.206167

1.85662 0.504104 -2.75592e-11
0.504104 -0.553074 -1.13702e-11
-2.75592e-11 -1.13702e-11 0.441172

-0.195382 -0.673096 -2.9385e-12
-0.673096 -1.0157 -2.52448e-11
-2.9385e-12 -2.52448e-11 -0.418302

1.10885 0.421473 -5.78004e-12
0.421473 -0.858123 -9.6353e-12
-5.78004e-12 -9.6353e-12 0.0543145

0.382565 1.08394 -1.44544e-11
1.08394 0.773131 -2.65954e-11
-1.44544e-11 -2.65954e-11 0.430642

0.128387 1.02407 1.68628e-11
1.02407 -0.344149 6.5513e-12
1.68628e-11 6.5513e-12 0.0241475

-2.378 0.0118131 3.00601e-11
0.0118131 1.17421 5.78019e-12
3.00601e-11 5.78019e-12 -0.300323

-1.22065 -0.439917 -9.44316e-12
-0.439917 0.550379 -1.56087e-11
-9.44316e-12 -1.56087e-11 -0.267508

2.26855 -1.27677 2.05217e-11
-1.27677 0.8256 -2.31374e-12
2.05217e-11 -2.31374e-12 1.21953

-1.27514 -1.74496 3.7481e-11
-1.74496 0.390838 -1.48395e-11
3.7481e-11 -1.48395e-11 -0.331613

0.544823 -1.53652 -9.82747e-12
-1.53652 1.33116 5.78145e-11
-9.82747e-12 5.78145e-11 0.591114

1.19152 1.24766 -1.73453e-11
1.24766 1.23358 -3.81573e-11
-1.73453e-11 -3.81573e-11 0.62065

0.924666 -0.567153 -1.02135e-11
-0.567153 -0.388182 -7.1305e-12
-1.02135e-11 -7.1305e-12 0.0219766

0.757673 -0.0435263 8.57596e-12
-0.0435263 -2.64813 2.75561e-11
8.57596e-12 2.75561e-11 -0.585513

0.522328 0.18348 -1.15137e-11
0.18348 -2.3868 2.0426e-11
-1.15137e-11 2.0426e-11 -0.537254

-0.855398 0.571199 -1.50321e-11
0.571199 1.74312 -1.34891e-11
-1.50321e-11 -1.34891e-11 0.342259

0.261734 -1.37246 -1.48374e-11
-1.37246 0.726892 3.31465e-11
-1.48374e-11 3.31465e-11 0.137986

-0.19665 -0.188594 2.65942e-11
-0.188594 2.73726 -4.62604e-12
2.65942e-11 -4.62604e-12 0.985197

0.417029 -0.237449 1.34905e-11
-0.237449 2.78946 2.37041e-11
1.34905e-11 2.37041e-11 1.05275

2.70761 -0.315198 -1.02124e-11
-0.315198 0.173169 2.96764e-11
-1.02124e-11 2.96764e-11 1.10675

2.06952 0.908221 3.06416e-11
0.908221 1.68276 5.20348e-11
3.06416e-11 5.20348e-11 1.16982

1.04866 -1.57642 1.02149e-11
-1.57642 0.185219 -2.73654e-11
1.02149e-11 -2.73654e-11 0.462795

-0.43168 -0.37593 -2.25835e-10
-0.37593 -0.358064 3.58475e-11
-2.25835e-10 3.58475e-11 -2.91003

-3.88894 -1.42374 5.74217e-11
-1.42374 -2.12855 -2.96824e-11
5.74217e-11 -2.96824e-11 -3.12735

1.66623 -0.93346 -1.59959e-11
-0.93346 -0.586809 -7.69769e-13
-1.59959e-11 -7.69769e-13 0.395646

-0.10469 1.26513 -1.58026e-11
1.26513 0.318019 6.35915e-12
-1.58026e-11 6.35915e-12 0.0132281

0.742907 0.0840774 7.1303e-11
0.0840774 -1.92166 1.07884e-11
7.1303e-11 1.07884e-11 -0.100362

-0.0358313 -1.14359 3.07366e-11
-1.14359 1.91832 3.93126e-11
3.07366e-11 3.93126e-11 0.416516

-2.95873 1.19275 -1.32012e-11
1.19275 0.0823881 -2.92913e-11
-1.32012e-11 -2.92913e-11 -0.660647

-0.881103 0.50213 -3.00596e-11
0.50213 -0.172475 3.77695e-11
-3.00596e-11 3.77695e-11 -0.32041

-1.30782 -1.62436 -1.48383e-11
-1.62436 -0.57227 3.85367e-12
-1.48383e-11 3.85367e-12 -0.327353

-0.441503 1.2183 4.62536e-12
1.2183 -0.279936 3.19884e-11
4.62536e-12 3.19884e-11 -0.1855

-1.69662 0.96214 -4.91367e-12
0.96214 0.326962 2.85217e-11
-4.91367e-12 2.85217e-11 -0.149986

0.457465 -0.114491 -1.04062e-11
-0.114491 -4.14657 -1.15558e-12
-1.04062e-11 -1.15558e-12 -0.538584

1.54218 1.18708 6.3591e-12
1.18708 0.273254 1.7338e-12
6.3591e-12 1.7338e-12 0.541487

-1.29503 -1.84652 1.6717e-11
-1.84652 0.899303 -2.19689e-11
1.6717e-11 -2.19689e-11 -0.231832

1.10326 1.06893 -2.0622e-11
1.06893 0.831617 -5.74288e-11
-2.0622e-11 -5.74288e-11 0.496963

1.65412 -1.04759 8.76878e-12
-1.04759 2.28524 -1.25265e-11
8.76878e-12 -1.25265e-11 1.20746

-0.570427 -1.50944 -1.55129e-11
-1.50944 0.625916 6.1666e-12
-1.55129e-11 6.1666e-12 -0.0953534

0.115347 -0.681089 2.31308e-12
-0.681089 2.44087 1.00217e-11
2.31308e-12 1.00217e-11 0.828737

0.932808 0.261035 -2.23542e-11
0.261035 2.355 2.85228e-11
-2.23542e-11 2.85228e-11 0.883834

2.29415 -0.64112 -1.11805e-11
-0.64112 0.469213 -2.23561e-11
-1.11805e-11 -2.23561e-11 0.923401

0.786345 -1.37491 2.42832e-11
-1.37491 0.582362 5.74288e-11
2.42832e-11 5.74288e-11 0.451112

-1.14297 -0.0654353 1.29111e-11
-0.0654353 1.72701 2.00414e-11
1.29111e-11 2.00414e-11 0.18644

0.139288 -0.245428 -5.20447e-12
-0.245428 1.5145 -3.00625e-11
-5.20447e-12 -3.00625e-11 0.291327

1.24922 -1.37555 -2.88902e-12
-1.37555 2.09139 -6.20537e-11
-2.88902e-12 -6.20537e-11 1.25527

1.69593 1.02062 3.7196e-11
1.02062 2.03396 3.21839e-11
3.7196e-11 3.21839e-11 1.24361

-0.0611776 0.00496434 8.47835e-12
0.00496434 -2.96322 -2.9484e-11
8.47835e-12 -2.9484e-11 -0.429623

-0.0503552 -0.243716 -3.46864e-12
-0.243716 -2.75117 1.19474e-11
-3.46864e-12 1.19474e-11 -0.436822

-0.0391769 1.10571 4.81633e-12
1.10571 0.249462 -1.11767e-11
4.81633e-12 -1.11767e-11 0.0114139

-1.47592 -1.8252 -3.6228e-11
-1.8252 0.587488 1.96565e-11
-3.6228e-11 1.96565e-11 -0.364895

-0.862715 1.25014 -2.21607e-11
1.25014 -0.655661 2.8521e-11
-2.21607e-11 2.8521e-11 -0.315022

2.85983 0.574147 -2.4668e-11
0.574147 1.57611 2.8522e-11
-2.4668e-11 2.8522e-11 1.74595

0.02799 0.687446 -3.73855e-11
0.687446 1.67477 -5.29951e-11
-3.73855e-11 -5.29951e-11 0.400509

0.302983 0.631568 3.93103e-11
0.631568 -1.79964 8.66923e-12
3.93103e-11 8.66923e-12 -0.519012

0.110602 -1.10454 3.89273e-11
-1.10454 -1.73995 -4.07581e-11
3.89273e-11 -4.07581e-11 -0.71189

0.562405 0.902211 -5.18404e-11
0.902211 -0.902823 -3.66104e-11
-5.18404e-11 -3.66104e-11 -0.111578

0.462926 -1.305 -1.52247e-11
-1.305 -1.0728 -6.55295e-12
-1.52247e-11 -6.55295e-12 -0.199501

3.61644 -0.652348 6.53338e-11
-0.652348 2.3946 3.35318e-11
6.53338e-11 3.35318e-11 4.07354

2.36024 -0.763232 2.3318e-11
-0.763232 3.89914 -2.56346e-11
2.3318e-11 -2.56346e-11 4.19546

-0.935489 -0.866984 9.82987e-12
-0.866984 1.68589 3.85418e-12
9.82987e-12 3.85418e-12 0.311532

-0.056938 1.03727 7.32029e-12
1.03727 -2.82544 -7.14891e-11
7.32029e-12 -7.14891e-11 -1.55458

-0.337403 -1.46884 2.31278e-12
-1.46884 -1.68436 -7.68765e-13
2.31278e-12 -7.68765e-13 -1.90276

0.828765 1.05023 3.31435e-11
1.05023 -0.193065 -1.36824e-11
3.31435e-11 -1.36824e-11 0.141758

3.00783 0.424434 -2.52462e-11
0.424434 1.48286 -2.89078e-11
-2.52462e-11 -2.89078e-11 1.7631

-1.1559 -1.26616 -2.50436e-12
-1.26616 0.823103 1.73432e-12
-2.50436e-12 1.73432e-12 -0.20003

-2.11487 -0.608062 -2.6401e-11
-0.608062 1.03664 -8.47946e-12
-2.6401e-11 -8.47946e-12 -0.24147

0.893635 -1.50569 -3.31459e-11
-1.50569 1.2888 -5.24178e-11
-3.31459e-11 -5.24178e-11 0.556291

-1.87501 -1.22139 3.0827e-12
-1.22139 -0.882684 1.61867e-11
3.0827e-12 1.61867e-11 -0.470053

0.649848 -1.41767 -7.90109e-12
-1.41767 -0.370309 2.62065e-11
-7.90109e-12 2.62065e-11 0.107336

-3.01642 1.84948 2.02344e-11
1.84948 -0.433029 1.04065e-11
2.02344e-11 1.04065e-11 -0.524369

-0.982507 0.455791 1.77289e-11
0.455791 -0.435627 2.76519e-11
1.77289e-11 2.76519e-11 -0.602822

-1.31076 0.776071 5.20335e-12
0.776071 -0.122427 -8.76789e-12
5.20335e-12 -8.76789e-12 -0.717027

-0.933059 -1.35896 3.19892e-11
-1.35896 -0.222716 2.27367e-11
3.19892e-11 2.27367e-11 -0.141605

-1.17894 1.32603 4.47082e-11
1.32603 -0.100518 -3.85303e-13
4.47082e-11 -3.85303e-13 -0.142414

1.72587 0.881856 6.16773e-12
0.881856 0.139566 2.23538e-11
6.16773e-12 2.23538e-11 0.591618

1.45578 -0.00247328 -4.10478e-11
-0.00247328 -0.810093 -5.78163e-12
-4.10478e-11 -5.78163e-12 0.265378

-0.130073 0.920596 2.65935e-11
0.920596 -0.173394 2.89045e-11
2.65935e-11 2.89045e-11 -0.0694091

-0.805344 -1.46788 -1.22362e-11
-1.46788 1.30318 -7.32264e-12
-1.22362e-11 -7.32264e-12 0.0299491

-1.42235 0.222161 -3.7586e-12
0.222161 1.7733 1.96584e-11
-3.7586e-12 1.96584e-11 0.168793

0.492782 1.37103 2.46653e-11
1.37103 -0.697975 -2.46652e-11
2.46653e-11 -2.46652e-11 -0.0689017

-0.280853 0.0403864 -3.77711e-11
0.0403864 1.41221 -3.6607e-12
-3.77711e-11 -3.6607e-12 0.214168

-2.88486 -1.02341 -6.55121e-12
-1.02341 -0.0125683 9.63601e-12
-6.55121e-12 9.63601e-12 -0.630685

3.62082 -0.862226 3.66169e-11
-0.862226 4.11774 8.24856e-11
3.66169e-11 8.24856e-11 3.41903

4.1647 -0.881401 -2.47657e-11
-0.881401 3.57367 -1.15719e-12
-2.47657e-11 -1.15719e-12 3.42207

1.10229 0.302415 8.09456e-12
0.302415 -1.54587 2.71729e-11
8.09456e-12 2.71729e-11 0.0107965

-0.0457563 -1.61641 9.24979e-12
-1.61641 -0.801398 1.54159e-11
9.24979e-12 1.54159e-11 -0.175424

-0.2519 0.918363 -5.51101e-11
0.918363 -3.55605 8.65204e-11
-5.51101e-11 8.65204e-11 -2.61438

0.255516 -0.257792 4.81761e-11
-0.257792 -1.71068 1.20238e-10
4.81761e-11 1.20238e-10 -3.01504

-1.46953 -1.13896 5.00918e-12
-1.13896 0.229781 1.15626e-11
5.00918e-12 1.15626e-11 -0.147883

-2.1468 -0.343809 -1.92846e-13
-0.343809 -1.57174 2.33153e-11
-1.92846e-13 2.33153e-11 -1.91318

-2.1799 1.19557 9.15638e-13
1.19557 -0.853371 -3.08319e-11
9.15638e-13 -3.08319e-11 -1.67845

1.68332 0.107154 -4.09041e-11
0.107154 -1.67798 -4.31652e-11
-4.09041e-11 -4.31652e-11 -0.00462202

-1.41277 -1.97992 3.84437e-11
-1.97992 0.854004 5.7799e-12
3.84437e-11 5.7799e-12 -0.222308

3.06009 0.664391 -2.29315e-11
0.664391 3.11559 2.11998e-11
-2.29315e-11 2.11998e-11 2.65849

2.75936 0.64023 -4.047e-11
0.64023 2.77406 1.63834e-12
-4.047e-11 1.63834e-12 2.43729

1.41865 -0.76878 -5.81998e-11
-0.76878 3.20961 2.85244e-11
-5.81998e-11 2.85244e-11 1.98971

1.88272 0.38337 -3.27629e-11
0.38337 3.18942 -8.67084e-12
-3.27629e-11 -8.67084e-12 1.96234

3.20077 -0.652659 -1.34927e-11
-0.652659 1.59088 4.34615e-11
-1.34927e-11 4.34615e-11 2.05239

-2.78578 -1.81738 1.07912e-11
-1.81738 -0.562952 1.27176e-11
1.07912e-11 1.27176e-11 -0.535809

1.66261 0.036361 1.83092e-11
0.036361 3.76165 6.16662e-12
1.83092e-11 6.16662e-12 2.48024

3.78379 0.0545468 5.31902e-11
0.0545468 2.00019 1.54188e-12
5.31902e-11 1.54188e-12 2.60938

-1.86481 0.123256 2.35089e-11
0.123256 0.182739 -1.5416e-11
2.35089e-11 -1.5416e-11 -1.29931

-1.52083 -1.04206 -2.50559e-12
-1.04206 -0.387692 -8.67134e-12
-2.50559e-12 -8.67134e-12 -1.13503

0.667826 0.415927 1.43562e-11
0.415927 -1.09213 -3.08376e-12
1.43562e-11 -3.08376e-12 -0.185391

1.34923 0.0700243 1.40675e-11
0.0700243 -2.44325 -2.15826e-11
1.40675e-11 -2.15826e-11 -0.239346

0.167528 -0.981549 8.4777e-12
-0.981549 1.87172 7.70913e-12
8.4777e-12 7.70913e-12 0.770088

0.69896 0.629124 3.29523e-11
0.629124 2.01867 -2.71732e-11
3.29523e-11 -2.71732e-11 0.825826

1.63477 0.0835765 -2.64975e-11
0.0835765 -1.64822 3.1989e-11
-2.64975e-11 3.1989e-11 -0.0188971

-1.34398 -0.99934 1.38744e-11
-0.99934 0.846044 2.69768e-12
1.38744e-11 2.69768e-12 -0.0138893

-0.0441676 0.58048 -1.50346e-11
0.58048 -2.17574 -9.07583e-11
-1.50346e-11 -9.07583e-11 -1.05084

-0.277173 -0.808177 4.62465e-11
-0.808177 -1.60072 1.38737e-11
4.62465e-11 1.38737e-11 -1.35229

-0.446075 0.950411 -2.48095e-11
0.950411 -0.515989 3.89273e-11
-2.48095e-11 3.89273e-11 -0.270164

-0.80856 -1.67044 -3.08309e-12
-1.67044 1.09675 -5.78145e-12
-3.08309e-12 -5.78145e-12 -0.041785

0.800219 0.430579 1.50323e-11
0.430579 -1.86028 3.46857e-11
1.50323e-11 3.46857e-11 -0.270209

1.58003 0.872209 -1.80179e-11
0.872209 1.29381 5.74292e-11
-1.80179e-11 5.74292e-11 1.02144

-0.72684 -1.80247 3.46901e-12
-1.80247 1.06082 -1.59955e-11
3.46901e-12 -1.59955e-11 -0.0183486

6.94537 1.59716 -2.69684e-12
1.59716 6.97304 3.31489e-11
-2.69684e-12 3.31489e-11 7.0442

-0.587084 -0.658036 2.1391e-11
-0.658036 1.5268 -1.27193e-11
2.1391e-11 -1.27193e-11 0.162007

-1.22236 -0.389251 2.87127e-11
-0.389251 1.75129 4.58656e-11
2.87127e-11 4.58656e-11 0.200647

-2.51019 -0.175244 5.58836e-12
-0.175244 0.61581 9.63537e-12
5.58836e-12 9.63537e-12 -1.52697

-1.72222 -0.817712 2.31243e-11
-0.817712 -1.04952 2.35083e-11
2.31243e-11 2.35083e-11 -1.38577

0.407438 0.457669 1.15413e-12
0.457669 -4.16552 -4.74039e-11
1.15413e-12 -4.74039e-11 -0.664621

0.362867 -0.675033 6.93774e-12
-0.675033 -3.51717 7.70765e-12
6.93774e-12 7.70765e-12 -0.66837

-1.20641 1.37837 6.40858e-12
1.37837 -1.14261 4.27819e-11
6.40858e-12 4.27819e-11 -0.746153

-1.22558 -0.881449 2.5437e-11
-0.881449 -0.855069 -2.21603e-11
2.5437e-11 -2.21603e-11 -0.84213

-1.75288 1.05959 -4.52843e-12
1.05959 -1.29057 1.86925e-11
-4.52843e-12 1.86925e-11 -1.43207

-1.79156 -0.736934 -2.93632e-11
-0.736934 -0.665905 3.66019e-12
-2.93632e-11 3.66019e-12 -1.44455

-0.204804 1.00578 1.50342e-11
1.00578 -3.00675 9.4032e-11
1.50342e-11 9.4032e-11 -2.07901

-0.576717 -1.41237 -8.86373e-11
-1.41237 -1.34451 1.61481e-10
-8.86373e-11 1.61481e-10 -2.58258

0.300714 1.04413 -1.84978e-11
1.04413 -0.851601 4.08505e-11
-1.84978e-11 4.08505e-11 -0.226812

-1.9162 -1.96814 2.2545e-11
-1.96814 -1.042 -2.92939e-11
2.2545e-11 -2.92939e-11 -0.65763

1.0696 1.0869 1.15637e-11
1.0869 -0.717479 3.37247e-11
1.15637e-11 3.37247e-11 0.119599

-0.226012 -1.23084 4.43242e-12
-1.23084 1.34717 -1.23335e-11
4.43242e-12 -1.23335e-11 0.147626

-1.3854 -0.743464 1.07903e-11
-0.743464 1.13118 3.69996e-11
1.07903e-11 3.69996e-11 0.00986763

2.21939 -1.09121 1.72481e-11
-1.09121 1.97116 -1.67655e-11
1.72481e-11 -1.67655e-11 1.29012

0.766617 -1.44318 -1.25256e-11
-1.44318 -0.744531 -1.61895e-11
-1.25256e-11 -1.61895e-11 0.0709854

-1.27889 0.496485 -3.47813e-11
0.496485 1.25901 5.47303e-11
-3.47813e-11 5.47303e-11 0.0674974

0.735213 1.4457 8.2841e-12
1.4457 0.0645628 -2.64019e-11
8.2841e-12 -2.64019e-11 0.188734

-2.57449 2.14866 4.52971e-12
2.14866 -0.976347 4.08533e-11
4.52971e-12 4.08533e-11 -0.744331

-1.69505 -1.74564 -4.36952e-11
-1.74564 0.212822 2.98704e-11
-4.36952e-11 2.98704e-11 -0.565283

0.194374 -1.64373 2.89063e-11
-1.64373 -0.111751 3.19878e-11
2.89063e-11 3.19878e-11 0.109018

0.750455 -0.114289 9.53807e-12
-0.114289 -0.873834 5.20263e-12
9.53807e-12 5.20263e-12 -0.238178

-3.18441 -0.538728 -1.50302e-11
-0.538728 -2.25164 1.55126e-11
-1.50302e-11 1.55126e-11 -3.16477

-0.491566 -0.634077 2.38943e-11
-0.634077 -0.801964 3.77683e-11
2.38943e-11 3.77683e-11 -3.02886

-1.76406 -0.639777 -4.16239e-11
-0.639777 0.408764 -5.20303e-11
-4.16239e-11 -5.20303e-11 -0.283832

-0.276375 0.887119 -3.27595e-11
0.887119 -1.13921 1.73444e-11
-3.27595e-11 1.73444e-11 -0.331753

-0.110736 -0.0677635 -3.97412e-12
-0.0677635 -1.59359 2.50507e-11
-3.97412e-12 2.50507e-11 -0.832841

3.15533 -1.11742 -4.741e-11
-1.11742 3.94087 -5.01066e-12
-4.741e-11 -5.01066e-12 3.16625

3.76491 -1.00365 7.13004e-12
-1.00365 3.08504 1.73441e-11
7.13004e-12 1.73441e-11 3.11319

0.274292 -0.0427552 -3.5074e-11
-0.0427552 -3.00874 -1.9847e-11
-3.5074e-11 -1.9847e-11 -0.603063

0.327803 -0.206932 1.04062e-11
-0.206932 -2.62598 3.43008e-11
1.04062e-11 3.43008e-11 -0.694997

0.196274 0.226673 9.92414e-12
0.226673 -1.88783 -2.13898e-11
9.92414e-12 -2.13898e-11 -0.897449

0.10561 0.586246 -9.32215e-12
0.586246 0.955029 7.71124e-13
-9.32215e-12 7.71124e-13 0.164848

1.61269 0.755803 -1.01104e-12
0.755803 0.103002 1.27169e-11
-1.01104e-12 1.27169e-11 0.474801

0.219592 1.03354 -5.58809e-11
1.03354 -0.811023 5.01016e-11
-5.58809e-11 5.01016e-11 -0.269402

-0.13769 -1.3536 3.06396e-11
-1.3536 -1.12168 -1.11787e-11
3.06396e-11 -1.11787e-11 -0.456385

-3.4402 -0.170517 3.44449e-11
-0.170517 -4.31213 2.55356e-11
3.44449e-11 2.55356e-11 -4.23245

-3.16846 1.48533 1.35176e-11
1.48533 -1.15609 1.52232e-10
1.35176e-11 1.52232e-10 -3.50944

-1.96006 -1.15903 -1.81149e-11
-1.15903 0.109139 -2.69782e-11
-1.81149e-11 -2.69782e-11 -0.282001

0.936673 0.759005 -2.57271e-11
0.759005 -0.575504 -9.63452e-12
-2.57271e-11 -9.63452e-12 0.0899554

0.196593 0.700005 3.44027e-11
0.700005 -1.84621 8.45928e-11
3.44027e-11 8.45928e-11 -0.536257

0.114403 -0.946703 2.57257e-11
-0.946703 -1.44577 -5.89663e-11
2.57257e-11 -5.89663e-11 -0.665158

-0.680434 -1.61615 3.05443e-11
-1.61615 0.828328 -4.58646e-11
3.05443e-11 -4.58646e-11 -0.114166

-1.14386 -2.06833 -2.72676e-11
-2.06833 0.925213 1.09851e-11
-2.72676e-11 1.09851e-11 -0.152524

7.23698 1.90834 -2.73673e-11
1.90834 7.44254 -1.54255e-12
-2.73673e-11 -1.54255e-12 7.24669

-2.32171 1.45962 1.44037e-11
1.45962 -0.502335 3.50719e-11
1.44037e-11 3.50719e-11 -0.848108

-1.71629 -1.28884 -3.83957e-11
-1.28884 0.232554 5.01129e-12
-3.83957e-11 5.01129e-12 -0.758587

-1.28193 -1.77867 1.44501e-12
-1.77867 0.899456 -2.44739e-11
1.44501e-12 -2.44739e-11 -0.17872

1.58942 -1.20708 -9.44219e-12
-1.20708 -0.139074 -3.89268e-11
-9.44219e-12 -3.89268e-11 0.436226

-0.194562 -0.795679 6.16725e-12
-0.795679 0.0984767 4.99101e-11
6.16725e-12 4.99101e-11 -0.245772

-1.31634 1.37941 -1.24298e-11
1.37941 -1.17048 1.54164e-12
-1.24298e-11 1.54164e-12 -0.732664

-1.2846 -1.10473 2.12946e-11
-1.10473 -0.131444 -2.90977e-11
2.12946e-11 -2.90977e-11 -0.689726

0.838638 -0.108571 1.49347e-11
-0.108571 -1.99697 -4.58637e-11
1.49347e-11 -4.58637e-11 -0.361506

-0.154041 0.404213 -3.5069e-11
0.404213 -2.25327 3.54571e-11
-3.5069e-11 3.54571e-11 -0.831485

-0.0876825 -0.390148 1.54156e-11
-0.390148 -1.16021 -4.39352e-11
1.54156e-11 -4.39352e-11 -0.895306

-2.77193 -0.568001 1.27178e-11
-0.568001 -0.961346 7.70698e-12
1.27178e-11 7.70698e-12 -2.39885

-2.91839 0.436298 3.85092e-13
0.436298 0.0794784 1.38744e-11
3.85092e-13 1.38744e-11 -2.82317

4.41514 0.146921 7.70115e-13
0.146921 2.91297 4.25922e-11
7.70115e-13 4.25922e-11 4.37701

2.97878 0.132311 -6.09962e-11
0.132311 4.30953 4.62695e-12
-6.09962e-11 4.62695e-12 4.31453

-0.0523587 1.31561 2.04237e-11
1.31561 -0.390655 -3.2373e-11
2.04237e-11 -3.2373e-11 -0.18431

-0.87071 -1.31389 -1.86913e-11
-1.31389 -0.836276 6.16746e-12
-1.86913e-11 6.16746e-12 -0.393455

-2.01787 -1.25931 -3.39158e-11
-1.25931 -0.551285 1.8501e-11
-3.39158e-11 1.8501e-11 -0.40529

4.48132 0.468039 -4.12442e-11
0.468039 4.50188 3.85469e-12
-4.12442e-11 3.85469e-12 4.95412

4.47436 0.510367 2.46648e-11
0.510367 4.4945 -6.47572e-11
2.46648e-11 -6.47572e-11 4.97092

-0.675436 0.223042 7.01407e-11
0.223042 -0.184802 1.51841e-10
7.01407e-11 1.51841e-10 -3.04947

-0.952049 0.354631 3.9707e-11
0.354631 -1.87551 1.83632e-10
3.9707e-11 1.83632e-10 -2.59553

-0.792943 -1.18074 2.55344e-12
-1.18074 -0.079175 -1.34962e-12
2.55344e-12 -1.34962e-12 -0.346976

0.0450499 -1.46391 -2.38957e-11
-1.46391 0.342798 -7.71716e-13
-2.38957e-11 -7.71716e-13 0.166981

0.270766 1.37611 1.98505e-11
1.37611 -0.841984 2.06198e-11
1.98505e-11 2.06198e-11 -0.202455

-0.549276 -1.65718 4.68266e-11
-1.65718 -0.917322 -4.66363e-11
4.68266e-11 -4.66363e-11 -0.358912

-0.703306 -1.55404 1.31028e-11
-1.55404 -0.173284 -2.54394e-11
1.31028e-11 -2.54394e-11 -0.116295

0.668712 1.12869 -1.94625e-11
1.12869 0.39173 9.62822e-13
-1.94625e-11 9.62822e-13 0.213561

1.38262 -0.508344 4.52896e-11
-0.508344 3.20837 2.73656e-11
4.52896e-11 2.73656e-11 1.91685

1.85178 0.302583 1.2911e-11
0.302583 3.16178 4.43316e-12
1.2911e-11 4.43316e-12 1.9204

3.12799 -0.469784 -1.07916e-11
-0.469784 1.7724 2.92962e-11
-1.07916e-11 2.92962e-11 2.01716

0.21951 1.49913 -5.20188e-12
1.49913 -0.0391285 1.38756e-11
-5.20188e-12 1.38756e-11 0.00501458

2.28208 -0.364366 9.05701e-12
-0.364366 3.91225 -2.02356e-11
9.05701e-12 -2.02356e-11 2.67775

3.84552 -0.249672 9.24934e-12
-0.249672 2.1905 -3.86517e-13
9.24934e-12 -3.86517e-13 2.64542

0.200673 1.10015 -6.12811e-11
1.10015 -1.04351 -7.63071e-11
-6.12811e-11 -7.63071e-11 -0.369553

-0.639406 -1.6 -2.96765e-11
-1.6 -1.28471 -1.73413e-11
-2.96765e-11 -1.73413e-11 -0.630987

0.00476435 1.34912 -5.3762e-11
1.34912 -1.26002 3.04459e-11
-5.3762e-11 3.04459e-11 -0.500683

-0.810893 -1.56533 -2.37029e-11
-1.56533 -1.01348 8.90292e-11
-2.37029e-11 8.90292e-11 -0.728355

4.702 0.575033 4.87618e-11
0.575033 4.76371 7.34285e-11
4.87618e-11 7.34285e-11 5.16547

4.71188 0.56201 -7.9402e-11
0.56201 4.74106 1.19506e-11
-7.9402e-11 1.19506e-11 5.13577

0.300943 1.2026 -5.00912e-12
1.2026 -0.161973 1.15612e-11
-5.00912e-12 1.15612e-11 -0.0185208

-0.118954 -1.4843 -3.08364e-12
-1.4843 -0.488049 -2.23539e-11
-3.08364e-12 -2.23539e-11 -0.116854

-1.87295 -0.94369 1.15672e-12
-0.94369 -1.19571 6.45469e-12
1.15672e-12 6.45469e-12 -1.67138

-2.08131 -0.324736 3.60339e-11
-0.324736 -0.53284 6.35775e-12
3.60339e-11 6.35775e-12 -1.95084

-0.083739 1.37033 -2.23525e-11
1.37033 -0.90325 -1.23333e-11
-2.23525e-11 -1.23333e-11 -0.431399

-1.70971 -1.22451 -8.67341e-12
-1.22451 -0.466805 -6.93739e-11
-8.67341e-12 -6.93739e-11 -0.728224

0.172347 0.720288 -3.39158e-11
0.720288 -2.94783 2.2546e-11
-3.39158e-11 2.2546e-11 -0.999881

-0.140777 -1.11517 -2.0812e-11
-1.11517 -2.36733 -5.62675e-11
-2.0812e-11 -5.62675e-11 -1.25437

-1.47561 1.25691 -4.27821e-11
1.25691 -0.547891 1.15685e-12
-4.27821e-11 1.15685e-12 -0.43081

-1.03469 -1.46096 -6.59909e-12
-1.46096 0.543737 -3.41087e-11
-6.59909e-12 -3.41087e-11 -0.313945

-2.39106 -1.01795 5.25349e-11
-1.01795 -2.13081 -2.06192e-11
5.25349e-11 -2.06192e-11 -2.67499

-2.67594 -0.906948 -2.62061e-11
-0.906948 -0.513014 4.67302e-11
-2.62061e-11 4.67302e-11 -2.01805

-0.189811 1.02184 -7.3208e-12
1.02184 -3.23201 2.73629e-11
-7.3208e-12 2.73629e-11 -1.73971

-0.184716 0.332494 8.36267e-11
0.332494 -3.3115 -7.92003e-11
8.36267e-11 -7.92003e-11 -2.2207

-0.494937 -1.10457 1.96549e-11
-1.10457 -2.07448 -7.70652e-13
1.96549e-11 -7.70652e-13 -2.08437

-0.229532 -0.234903 1.42611e-11
-0.234903 -1.97962 9.36478e-11
1.42611e-11 9.36478e-11 -2.64123

-3.05764 -0.253695 1.02129e-11
-0.253695 0.0468172 -4.6248e-12
1.02129e-11 -4.6248e-12 -2.385

-1.88103 1.87469 3.0037e-11
1.87469 -1.92226 1.46458e-11
3.0037e-11 1.46458e-11 -2.4393

0.0713185 1.11741 -1.86179e-10
1.11741 -2.81269 -4.72079e-10
-1.86179e-10 -4.72079e-10 -1.9002

-0.142545 0.925054 3.54962e-10
0.925054 -3.57872 -3.37087e-11
3.54962e-10 -3.37087e-11 -2.67178

0.419319 0.258772 -7.47762e-11
0.258772 -0.295937 -2.18122e-10
-7.47762e-11 -2.18122e-10 -3.04896

-1.97657 -1.30384 3.62249e-11
-1.30384 -0.860072 7.93874e-11
3.62249e-11 7.93874e-11 -2.82335

0.369442 0.849095 4.89451e-11
0.849095 -2.62262 1.15604e-11
4.89451e-11 1.15604e-11 -1.53132

0.0522632 0.678969 3.08306e-11
0.678969 -1.26987 -2.54377e-11
3.08306e-11 -2.54377e-11 -0.798722

-0.581091 1.08658 3.42996e-11
1.08658 -3.06465 -4.52813e-11
3.42996e-11 -4.52813e-11 -2.32367

-0.677878 -1.25416 -5.47269e-11
-1.25416 -1.85382 3.19895e-11
-5.47269e-11 3.19895e-11 -2.24546

-1.36448 -0.628495 -2.96764e-11
-0.628495 -0.486487 -6.01196e-11
-2.96764e-11 -6.01196e-11 -2.92021

-0.484396 -0.559501 6.47457e-11
-0.559501 -0.956848 -6.78321e-11
6.47457e-11 -6.78321e-11 -1.1329

-0.101088 1.10341 1.88823e-11
1.10341 -2.15514 -9.63487e-12
1.88823e-11 -9.63487e-12 -1.15402

-0.150269 0.645582 -4.81729e-11
0.645582 -2.47854 3.14103e-11
-4.81729e-11 3.14103e-11 -1.5962

-0.84055 -1.45363 8.40183e-11
-1.45363 -1.42888 -4.58654e-11
8.40183e-11 -4.58654e-11 -1.56155

-0.35651 -0.704274 2.65925e-11
-0.704274 -1.76164 -5.0101e-11
2.65925e-11 -5.0101e-11 -2.07424

VECTORS fluid_flux_TPM float
-2.41018e-05 -7.22661e-05 -3.24386e-20
-7.52172e-06 5.94512e-05 -3.03165e-20
1.18635e-05 -5.94869e-05 -9.39811e-20
-5.39002e-05 -1.02735e-05 1.57646e-20
-6.76429e-05 -1.78373e-05 4.54747e-21
-9.0146e-06 7.68117e-05 -1.18234e-20
1.3358e-05 -7.68693e-05 -8.03387e-20
-7.26751e-05 1.82605e-05 -1.06108e-20
-2.27884e-05 3.67924e-05 2.69817e-20
-3.81776e-05 -8.86708e-05 -1.45519e-20
-3.65973e-05 9.48529e-05 -4.24431e-21
9.92379e-05 4.04287e-05 9.39811e-21
5.28271e-05 5.11229e-05 4.03209e-20
-4.87203e-05 -5.09606e-05 -4.63842e-20
-2.39635e-05 -5.01786e-05 -4.85064e-20
-7.38147e-06 -4.76339e-05 -7.73071e-20
7.74293e-06 7.85296e-05 2.78912e-20
-3.53547e-06 -7.85747e-05 -5.54792e-20
6.88179e-05 6.95277e-06 1.06108e-20
-2.87289e-05 -0.000107012 -1.94026e-20
-2.90011e-05 0.000109437 -1.06108e-20
0.000119219 2.75331e-05 1.42487e-20
-4.61844e-05 -4.78591e-05 -1.84931e-20
-7.44949e-05 1.74602e-05 -7.88229e-21
-5.30982e-05 -4.82204e-05 -1.42487e-20
3.18969e-05 7.05611e-05 -4.00178e-20
-5.11412e-05 9.66869e-06 5.76013e-21
-7.72991e-05 -0.000161154 -1.81899e-20
-4.44535e-05 -2.25512e-05 9.39811e-21
0.000171692 8.12408e-05 6.66963e-21
-2.59002e-07 7.34084e-05 -3.94114e-21
4.50595e-06 -7.34284e-05 -5.97235e-20
-0.000168676 -8.5701e-05 -2.88007e-20
-0.000169266 8.24628e-05 -1.15203e-20
-0.000109323 3.57495e-05 -7.57912e-21
-3.89635e-05 -3.14987e-05 -3.3045e-20
-6.83935e-05 -3.43887e-05 -4.39589e-20
-7.16256e-05 3.50113e-05 1.33393e-20
-1.18042e-05 -2.39931e-05 -3.33481e-21
4.80279e-05 4.90594e-05 -3.09228e-20
-7.00773e-05 4.68319e-05 -9.09495e-22
-2.06662e-05 3.57873e-07 1.48551e-20
-4.53335e-05 4.95221e-05 1.18234e-20
-2.448e-05 7.19134e-05 1.21266e-20
1.10851e-05 4.76347e-05 -3.63798e-20
-7.09562e-05 4.67561e-05 5.76013e-21
-0.000175422 -0.000175422 -6.0633e-21
0.000181697 0.000181697 4.39589e-21
1.62171e-05 3.72627e-05 5.36602e-20
0.000182352 0.000192768 -4.85064e-21
-0.000186286 -0.000175946 -2.5769e-21
8.46755e-05 -8.78653e-06 4.21399e-20
8.46143e-05 8.73931e-06 -5.24475e-20
5.91727e-05 1.05242e-05 2.60722e-20
8.0664e-05 -3.70143e-05 4.79001e-20
8.05953e-05 3.70196e-05 -2.63753e-20
3.02085e-05 4.93869e-05 -4.45652e-20
-7.09852e-05 -0.000133049 -2.7588e-20
-7.11968e-05 0.000133576 1.54614e-20
6.44284e-05 -2.4702e-05 3.1226e-20
6.43269e-05 2.45593e-05 -6.03298e-20
-9.60845e-05 4.20443e-05 -2.72848e-21
-7.69818e-05 0.00012146 -9.09495e-22
8.18369e-05 -0.000122444 -4.30494e-20
4.68932e-05 -4.84507e-05 -2.5769e-20
-8.49264e-05 0.000162785 3.18323e-21
-0.000162772 8.62247e-05 1.1975e-20
9.45977e-06 4.72893e-05 -2.63753e-20
-5.35007e-06 -4.71585e-05 -8.70083e-20
0.000144031 -5.96596e-05 2.06152e-20
0.000144074 5.96775e-05 -6.73026e-20
1.02293e-05 -1.50308e-05 -1.17931e-19
6.5456e-05 2.27139e-05 -3.18323e-20
6.55978e-05 -2.27422e-05 2.18279e-20
-3.45286e-05 -2.36859e-05 -6.66963e-20
-1.20621e-05 -3.66475e-05 -3.94114e-20
-0.000101056 -2.15535e-05 1.22782e-20
-8.72541e-05 -1.27849e-05 6.97279e-21
-6.39335e-05 -5.40577e-05 -1.72804e-20
-7.48432e-05 0.000129631 1.63709e-20
-7.46629e-05 -0.000129318 -1.24298e-20
-7.66913e-05 -8.6003e-05 -1.21266e-20
-5.62885e-05 3.32648e-05 5.45697e-21
6.77738e-05 2.4681e-05 -1.36424e-20
-1.16777e-05 0.000137345 2.42532e-21
1.49086e-05 -0.000138723 -4.27463e-20
-6.61617e-05 5.95181e-05 4.24431e-20
6.84193e-06 6.31259e-05 7.88229e-21
-2.35876e-06 -6.31194e-05 -4.60811e-20
5.76374e-05 -9.70386e-06 1.51582e-20
5.70282e-05 9.07546e-06 4.85064e-21
0.000101397 -6.96796e-05 1.33393e-20
8.17222e-05 1.34173e-05 2.09184e-20
6.10241e-05 -3.06533e-05 2.78912e-20
6.07055e-05 3.07103e-05 -2.63753e-20
6.85913e-05 -2.5178e-05 1.97057e-20
3.00808e-05 -7.00978e-05 -4.18368e-20
5.48732e-05 -2.41972e-05 3.03165e-20
5.40373e-05 2.36786e-05 -3.18323e-20
-5.90521e-05 2.70235e-05 1.36424e-20
3.36072e-05 2.07173e-05 -5.21444e-20
-7.06807e-05 -4.93406e-05 -6.97279e-21
-2.53025e-05 6.03589e-06 -8.88273e-20
-6.54928e-06 1.44081e-05 -2.54659e-20
8.44437e-05 1.19796e-05 8.48862e-21
-5.78852e-05 3.48293e-05 1.66741e-20
-6.09526e-05 -2.84422e-05 2.09184e-20
-4.66985e-05 -5.84523e-05 -1.09139e-20
-5.39993e-05 -3.61968e-05 -3.94114e-21
1.20644e-06 -6.49721e-05 -6.69994e-20
3.24694e-06 6.4994e-05 -2.30405e-20
0.000100246 -3.95556e-05 2.37984e-20
-3.44556e-05 2.34925e-05 4.18368e-20
5.05516e-05 -7.14499e-05 -1.48551e-20
5.07941e-05 7.21145e-05 -1.94026e-20
-5.62051e-05 3.32694e-05 9.09495e-21
-2.22927e-05 3.6305e-05 1.94026e-20
-2.28103e-05 -3.76388e-05 -2.45564e-20
-1.22657e-05 -6.72336e-05 -3.3045e-20
-5.26174e-05 5.05055e-05 1.36424e-20
1.09311e-05 -9.41496e-05 -7.7307e-21
1.57103e-05 9.64378e-05 -2.37984e-20
0.000106568 -5.08436e-06 1.95541e-20
0.000103881 6.92318e-05 9.09495e-22
7.1879e-05 -4.18275e-05 1.09139e-20
9.46954e-05 -0.000164025 -1.94026e-20
-9.44486e-05 0.000163592 8.48862e-21
8.22602e-05 -1.46806e-05 2.33437e-20
1.44429e-05 3.64928e-05 -3.42576e-20
5.99396e-05 -1.14182e-05 3.1226e-20
-1.15497e-05 6.81529e-05 -8.48862e-21
-1.75829e-05 3.8329e-05 -2.9407e-20
2.09041e-05 -3.81746e-05 -1.13081e-19
3.43079e-05 -2.13378e-05 2.0312e-20
2.56863e-05 -7.72541e-06 -4.27463e-20
-1.04293e-05 -3.66578e-05 -6.0633e-20
4.45001e-05 4.18683e-07 5.79045e-20
7.05324e-05 4.5143e-05 3.03165e-22
-2.40347e-05 -7.72811e-06 6.09361e-20
7.06207e-05 4.60798e-05 -1.33393e-20
-7.43109e-05 9.2381e-05 6.36646e-21
-3.87363e-05 3.00291e-05 1.33393e-20
2.9248e-05 -0.000104581 -2.0312e-20
3.08035e-05 0.000104545 -2.84975e-20
0.000116298 -2.66881e-05 2.12215e-20
7.20936e-05 -4.78137e-05 1.21266e-21
2.71833e-06 7.56079e-05 -2.15247e-20
1.73069e-06 -7.55007e-05 -5.03254e-20
5.71577e-05 -9.5753e-05 1.03076e-20
5.62611e-05 9.17593e-05 -1.36424e-20
3.63097e-05 -1.30916e-05 3.6683e-20
3.64497e-05 1.26263e-05 4.18368e-20
4.0293e-05 2.51841e-05 -4.48684e-20
2.44109e-05 3.43357e-05 6.91216e-20
-5.42281e-05 -3.26458e-05 -4.24431e-20
-0.000107916 -8.50924e-05 -2.27374e-21
1.69679e-05 6.98603e-05 -3.88051e-20
7.21765e-05 2.43644e-05 -4.30494e-20
7.23159e-05 -2.44695e-05 3.54703e-20
6.53433e-05 -2.56468e-05 8.18545e-21
6.52199e-05 2.54844e-05 -4.45652e-20
-3.29128e-05 -0.000317924 -4.54747e-22
0.000326448 5.02373e-05 7.27596e-21
1.69704e-05 -6.8229e-05 -3.21355e-20
9.95098e-05 -6.62161e-05 4.72937e-20
9.94585e-05 6.63719e-05 -1.21266e-21
6.66646e-05 3.48631e-05 -3.06197e-20
-0.000134749 -8.58583e-06 1.1975e-20
8.18385e-05 -1.49267e-05 2.0312e-20
-2.82295e-06 5.82713e-05 2.66785e-20
7.0517e-06 -5.8544e-05 -3.60766e-20
-4.81275e-05 7.24409e-05 1.12171e-20
2.43301e-05 7.95421e-06 7.27596e-21
6.69414e-05 -3.5039e-05 -6.97279e-21
-9.99788e-06 -1.73895e-05 -1.2551e-19
-4.92469e-05 4.03998e-05 -1.33393e-20
5.37404e-05 -4.03225e-05 -8.54925e-20
4.00747e-05 -2.47546e-05 3.03165e-22
-3.96144e-05 -2.69517e-05 -5.72982e-20
-6.95299e-05 -4.47588e-05 6.0633e-21
1.1462e-05 1.60433e-05 -4.33526e-20
-2.28238e-05 4.90524e-05 2.2131e-20
-1.19699e-05 -6.80696e-05 -5.27507e-20
5.71423e-05 2.6656e-05 -4.79001e-20
1.74577e-05 6.86675e-05 -4.18368e-20
-2.14943e-05 -3.33423e-05 -3.42576e-20
-8.54981e-05 0.000156349 8.48862e-21
-0.000153448 8.71443e-05 1.25813e-20
5.73139e-05 -2.68068e-05 -1.00044e-20
6.92533e-05 -8.08122e-06 3.21355e-20
0.00014592 6.41209e-05 -4.06241e-20
0.000145852 -6.40433e-05 3.21355e-20
1.4515e-05 -3.72354e-05 -1.87962e-20
-9.563e-05 -6.92042e-05 -4.75969e-20
-9.78261e-05 6.74965e-05 2.72848e-21
-4.05822e-05 -1.80257e-05 1.78867e-20
-8.54672e-06 1.50095e-05 8.42798e-20
9.22941e-05 0.000112974 -5.45697e-21
-0.000103141 -8.48695e-05 -8.03387e-21
9.18289e-05 -0.000125991 3.33481e-21
9.33171e-05 0.000127512 -1.87962e-20
0.000142266 -7.83975e-05 1.66741e-20
1.12865e-05 -1.33487e-05 -3.94114e-21
-9.43131e-06 -0.000140531 -1.22782e-20
0.000150705 1.09475e-05 8.79178e-21
7.79886e-05 0.000102621 3.03165e-20
-7.36539e-05 -0.00010199 -3.00133e-20
-4.69521e-05 -3.78847e-05 -1.15203e-20
-2.02954e-05 8.06049e-07 -6.0633e-21
5.43122e-05 -7.46217e-05 -3.03165e-21
5.46434e-05 7.58164e-05 -2.78912e-20
-4.63649e-05 1.35371e-05 2.54659e-20
2.85777e-05 -4.82106e-05 -5.12349e-20
7.61656e-05 -3.87056e-05 4.85064e-20
7.60089e-05 3.87371e-05 -7.27596e-21
-5.67304e-05 -3.04073e-05 -2.88007e-20
-3.94866e-05 2.65106e-05 3.69861e-20
-4.53506e-05 -2.14928e-05 7.88229e-21
-8.61775e-05 -4.84552e-05 -4.54747e-21
-1.06523e-05 3.94286e-05 3.63798e-20
-0.000179845 0.000179845 2.72848e-21
-1.09325e-05 6.97757e-05 -9.70128e-21
1.59524e-05 -7.04912e-05 -3.39545e-20
1.5509e-05 -0.000137945 -6.18456e-20
-1.12571e-05 0.000137891 1.36424e-20
4.29999e-05 -2.18315e-05 2.84975e-20
4.29601e-05 2.11126e-05 4.66874e-20
-6.77866e-05 3.61063e-05 2.54659e-20
-6.70304e-05 -3.49445e-05 -4.45652e-20
-0.000118801 -2.17012e-05 1.30361e-20
-0.000116914 2.2155e-05 -7.18501e-20
0.000138019 6.45832e-05 -1.51582e-20
0.000138013 -6.4502e-05 3.21355e-20
4.36977e-05 4.04919e-06 2.12215e-21
4.37672e-05 -3.78359e-06 -3.69861e-20
6.92351e-05 2.44586e-05 -1.15203e-20
-2.30776e-06 6.18169e-05 1.87962e-20
6.72311e-06 -6.04629e-05 -4.27463e-20
-9.78302e-05 6.77807e-05 1.81899e-21
6.90142e-05 -2.51116e-05 3.03165e-22
-5.68908e-06 -6.5087e-05 -7.48817e-20
5.91524e-05 3.59007e-05 -2.395e-20
-4.35806e-05 -1.37575e-06 5.42665e-20
-4.30834e-05 3.64052e-07 -9.12526e-20
5.90017e-05 -3.64258e-05 -9.39811e-21
-4.47376e-05 3.94622e-05 3.6683e-20
7.75639e-05 0.00013435 -1.84931e-20
-7.62997e-05 -0.000132156 1.90994e-20
-1.18398e-05 -4.56522e-05 -4.09273e-20
-5.70235e-05 -3.43501e-05 -6.66963e-21
-6.36633e-06 -7.64766e-05 -3.97146e-20
9.57732e-05 -0.000163463 6.0633e-22
0.000165148 -7.74088e-05 5.53276e-21
3.62084e-05 -3.0264e-05 2.9407e-20
3.57192e-05 2.963e-05 1.45519e-20
-9.53094e-06 8.01156e-05 3.18323e-20
9.61066e-06 6.2819e-05 -3.91083e-20
8.52814e-05 3.6429e-05 6.0633e-22
6.5653e-05 -1.48691e-05 2.84975e-20
6.55803e-05 1.45804e-05 -6.4271e-20
-0.000155029 -1.40151e-09 -7.57912e-21
-0.00015507 1.29329e-09 -3.15291e-20
1.49237e-05 -3.48618e-05 -1.30361e-20
-5.84883e-05 -3.55553e-05 -2.72848e-21
6.05566e-05 3.6748e-05 -2.60722e-20
6.08872e-05 -3.67626e-05 5.03254e-20
1.67349e-05 4.46729e-05 4.9719e-20
7.55294e-06 1.23029e-05 7.24564e-20
0.000179144 -0.000179144 -5.30539e-22
-5.09221e-05 1.61535e-05 -5.45697e-20
-5.14228e-05 -1.72957e-05 2.00089e-20
-1.12398e-05 3.57334e-05 5.82077e-20
8.37041e-05 -3.70221e-05 1.48551e-20
-5.75773e-05 2.93327e-05 2.42532e-20
-7.44424e-05 -9.91814e-06 -6.79089e-20
-7.47928e-05 9.69703e-06 2.54659e-20
-4.46932e-05 2.15249e-05 3.18323e-20
4.26112e-05 6.38883e-05 1.21266e-20
4.29394e-05 -6.37219e-05 3.18323e-20
3.2012e-05 0.000180616 -2.88007e-20
-2.8586e-05 -0.00018062 -1.48551e-20
-1.61608e-05 0.000324241 -6.66963e-21
-0.00031677 1.65807e-05 1.45519e-20
4.92708e-05 -3.47523e-06 2.88007e-20
4.95364e-05 2.92141e-06 -6.73026e-20
-2.19099e-06 -1.14571e-05 -1.27329e-20
0.000175884 -0.000213936 -3.10744e-21
0.000223714 -0.000172216 5.00222e-21
5.91523e-05 -0.000142809 1.45519e-20
5.91942e-05 0.00014291 -1.81899e-21
-5.41371e-05 3.22672e-05 2.72848e-20
5.15643e-05 -4.91437e-05 -2.72848e-20
5.24983e-05 -2.1715e-05 2.24342e-20
5.24363e-05 2.14148e-05 -6.85153e-20
3.89006e-05 -3.23394e-05 -1.90994e-20
5.11921e-05 4.96156e-05 -3.81988e-20
3.41465e-07 -0.00015077 -1.16718e-20
5.8754e-06 0.000138791 -1.86446e-20
0.00016095 1.32732e-06 1.54614e-20
3.90407e-05 3.20046e-05 -5.30539e-20
1.77141e-05 0.000152909 -1.09139e-20
-0.000149457 -2.01545e-05 1.07624e-20
6.57891e-05 -6.97783e-06 2.36469e-20
6.60745e-05 6.11734e-06 -5.76013e-20
6.40421e-05 -1.29418e-05 3.94114e-20
6.4128e-05 1.28649e-05 -5.03254e-20
-0.000176888 0.000218937 6.51805e-21
-0.000217132 0.000176871 9.39811e-21
5.73376e-05 2.49322e-05 -5.48728e-20
5.74789e-05 -2.52456e-05 3.03165e-22
2.00083e-05 0.000105996 2.51627e-20
-1.64719e-05 -0.00010532 -5.1538e-20
4.95521e-05 2.07984e-05 1.69772e-20
4.91775e-05 -2.06739e-05 -3.3045e-20
7.5386e-05 -4.58141e-05 3.85019e-20
7.52206e-05 4.58907e-05 -7.27596e-21
-4.39769e-05 -1.08492e-05 -5.8814e-20
-4.30814e-05 1.01666e-05 2.15247e-20
-7.03848e-05 -0.000133692 6.0633e-22
6.93414e-05 -8.33871e-05 2.60722e-20
8.33296e-05 -7.04426e-05 3.15291e-20
6.91929e-05 8.36873e-05 2.97102e-20
8.33604e-05 7.0577e-05 1.33393e-20
7.46379e-05 0.00013511 5.1538e-21
-0.00015406 2.48203e-06 9.70128e-21
-0.000153903 -2.90418e-06 -6.03298e-20
0.000111933 4.63658e-05 -6.0633e-22
0.000269522 3.54829e-05 3.75924e-20
0.000269602 -3.54935e-05 -4.91127e-20
0.000111906 -4.63545e-05 -2.42532e-21
0.000140551 2.98632e-06 -2.12215e-21
9.94758e-05 3.01856e-05 1.06108e-20
0.000131879 -3.71692e-05 2.97102e-20
0.000140544 -2.94337e-06 -1.09139e-20
0.000131874 3.72036e-05 -2.36469e-20
9.9484e-05 -3.0133e-05 -2.42532e-20
0.000104354 -2.96044e-05 2.18279e-20
0.000103743 -2.97949e-05 5.09317e-20
0.00010436 2.96281e-05 -3.18323e-20
0.000103705 2.9832e-05 -8.48862e-21
-9.63136e-06 6.06097e-05 -6.82121e-20
-1.02368e-05 -6.0915e-05 -1.21266e-20
-5.4543e-05 9.9817e-06 1.23085e-19
-6.9647e-05 1.81219e-05 8.33703e-20
-1.12048e-05 7.89087e-05 -6.73026e-20
-1.17989e-05 -7.90832e-05 1.03379e-19
-6.96969e-05 -1.79175e-05 1.46125e-19
-2.34107e-05 -3.68049e-05 2.22523e-19
-3.90941e-05 -8.80787e-05 -1.41881e-19
4.01156e-05 9.07431e-05 -8.51893e-20
9.21007e-05 4.18923e-05 -1.61587e-19
5.12446e-05 -5.31624e-05 -3.36513e-20
5.24797e-05 5.24148e-05 -8.18545e-21
-5.60473e-05 3.34894e-05 8.67052e-20
5.89394e-06 -8.07303e-05 -1.81899e-21
6.41921e-06 8.04435e-05 -1.90994e-20
5.69353e-05 8.92786e-06 -4.48684e-20
-2.93509e-05 -0.000106843 -2.02514e-19
2.89112e-05 0.000107894 -2.88007e-20
0.000111707 2.98475e-05 -1.35515e-19
2.68374e-05 7.23869e-05 -8.0945e-20
2.77397e-05 -7.13176e-05 -1.09443e-19
-5.13014e-05 -1.05093e-05 1.80383e-19
-7.64415e-05 -0.000158874 -1.69621e-19
-4.53685e-05 2.2886e-05 1.93116e-19
-1.73223e-06 7.52266e-05 -4.33526e-20
-2.39261e-06 -7.5427e-05 9.24653e-20
-0.000170041 -8.22317e-05 8.18545e-20
-0.000169303 8.52664e-05 2.395e-20
-3.66536e-05 4.949e-05 9.15558e-20
-4.42305e-05 5.23718e-05 3.60766e-20
-0.000102067 3.29385e-05 -2.78912e-20
-7.24572e-05 -3.48912e-05 1.90084e-19
-6.93242e-05 3.39577e-05 6.21488e-20
-1.18358e-05 2.4367e-05 1.97057e-19
4.29152e-05 -5.10881e-05 -1.03076e-19
-2.131e-05 -7.45594e-07 2.44654e-19
-7.34726e-05 4.79802e-05 2.81943e-20
-4.83096e-05 -4.88837e-05 -9.21621e-20
-8.48453e-05 -1.33117e-05 9.39811e-20
-7.73971e-05 1.55824e-05 2.48595e-20
-2.66164e-05 -7.23407e-05 -1.49157e-19
7.76326e-06 -4.94118e-05 -5.76013e-20
8.38664e-06 4.90782e-05 -1.42488e-19
-2.40332e-05 7.27727e-05 -6.36646e-21
4.44276e-05 5.16812e-05 -1.00954e-19
-0.000171715 -0.00017171 -4.51716e-20
-0.000169088 0.00016909 4.24431e-21
1.52831e-05 -3.95474e-05 -8.48862e-20
1.53294e-05 3.83391e-05 2.63753e-20
2.59617e-05 5.11678e-05 -9.79223e-20
-0.000169584 0.000184539 -4.79001e-20
-0.000178883 -0.000172056 -1.03531e-19
8.86203e-05 -1.61732e-05 -3.63798e-20
8.78761e-05 1.75278e-05 -1.11565e-19
4.15249e-05 1.46358e-05 -4.54747e-20
8.3018e-05 -5.55922e-05 -4.24431e-20
8.24032e-05 5.60448e-05 -1.17931e-19
2.61229e-05 -5.10575e-05 -1.30664e-19
-7.19674e-05 -0.000132943 1.49157e-19
-7.19232e-05 0.000131918 3.24386e-20
6.08664e-05 -3.50186e-05 7.57912e-21
6.08943e-05 3.5594e-05 -1.37637e-19
-8.04321e-05 -0.000124754 1.20356e-19
-8.01819e-05 0.000124781 -5.12349e-20
8.32277e-05 0.00015711 -2.107e-20
0.000157751 8.33026e-05 -1.60526e-19
6.89646e-06 4.87651e-05 -9.76191e-20
6.26859e-06 -4.90941e-05 -8.8221e-20
0.000173856 -7.20106e-05 -1.75836e-20
0.000171939 7.12195e-05 -1.57646e-20
-7.02339e-05 -4.89212e-05 7.15469e-20
5.76265e-05 3.17052e-05 -8.67052e-20
5.76459e-05 -3.10774e-05 -2.2131e-20
-6.47622e-05 5.40767e-05 8.88273e-20
-9.8444e-05 -2.22361e-05 1.81899e-21
-7.45965e-05 0.000129206 5.48728e-20
-7.49162e-05 -0.000129752 7.79134e-20
-5.54686e-05 -3.42697e-05 8.06419e-20
5.56859e-05 3.00582e-05 -6.12393e-20
-7.86838e-05 -8.55787e-05 -6.4271e-20
-1.36243e-05 -0.000141004 3.09228e-20
-1.30927e-05 0.0001411 -1.69772e-20
-6.69989e-05 -5.93731e-05 2.05546e-19
5.46279e-06 6.43282e-05 5.1538e-21
4.93062e-06 -6.42603e-05 -6.15425e-20
4.14432e-05 -1.46026e-05 -5.24475e-20
4.07268e-05 1.40966e-05 -3.63798e-20
9.2889e-05 -7.08723e-05 -1.24601e-19
6.99585e-05 1.54647e-05 -5.45697e-20
4.99615e-05 4.73896e-05 -8.03387e-20
5.03904e-05 -4.70002e-05 -3.94114e-20
5.66021e-05 -3.02281e-05 -3.1226e-20
3.77872e-05 -3.37714e-05 -4.27463e-20
3.67597e-05 3.34681e-05 -6.69994e-20
-6.00992e-05 -2.68755e-05 1.95845e-19
-6.30029e-05 4.96171e-05 -3.33481e-21
3.18697e-05 2.44231e-05 -1.34302e-19
3.08957e-05 -2.3688e-05 -3.06197e-20
-9.72953e-06 -1.6453e-05 1.90994e-20
-9.15163e-06 1.60819e-05 -1.41881e-19
7.50247e-05 1.27926e-05 -8.21577e-20
-0.000105737 0.000103035 -7.67007e-20
-5.86182e-05 -3.50194e-05 1.47944e-19
-6.04979e-05 2.87125e-05 1.34605e-19
-0.000143767 2.35367e-05 -5.1538e-20
-5.60884e-05 3.42367e-05 7.18501e-20
6.17248e-07 -6.65017e-05 -6.30583e-20
1.55366e-06 6.63596e-05 -1.48551e-20
-4.93717e-05 -5.91538e-05 -4.94159e-20
9.16851e-05 -3.93652e-05 -1.00954e-19
-3.49986e-05 -2.39724e-05 -5.3357e-20
-3.50783e-05 2.59298e-05 8.6402e-20
4.54768e-05 -7.23351e-05 -1.33696e-19
-4.78969e-05 7.73415e-05 1.51582e-21
-5.76275e-05 -3.41025e-05 1.437e-19
-2.32886e-05 -3.66849e-05 2.10396e-19
-2.38049e-05 3.92063e-05 1.43094e-19
1.35578e-05 6.96402e-05 -3.85019e-20
-5.2401e-05 -4.97054e-05 -3.00133e-20
8.08828e-06 -9.37762e-05 -1.92661e-19
-1.22228e-05 9.65984e-05 -2.13731e-20
9.78614e-05 -1.03963e-05 -1.32635e-19
6.41829e-05 -4.37176e-05 -9.82254e-20
-9.67823e-05 0.000167639 -1.84931e-20
-9.65962e-05 -0.000167315 -1.33393e-20
-6.89995e-05 -4.15255e-05 7.12438e-20
7.24606e-05 -1.56709e-05 -5.94203e-20
-0.000109406 -8.6744e-05 -6.91216e-20
1.09953e-05 -3.86866e-05 -1.02773e-19
1.14144e-05 3.91908e-05 -1.39759e-19
4.25769e-05 -1.54468e-05 -6.39678e-20
-1.39412e-05 -6.80329e-05 -1.70682e-19
-2.07707e-05 -4.03916e-05 1.02773e-19
-2.01903e-05 4.00147e-05 -1.02773e-19
6.50554e-05 9.15404e-05 -1.16112e-19
9.65457e-05 6.51438e-05 -1.28239e-19
-0.000137925 -6.19299e-06 -7.82165e-20
2.3805e-05 -4.60876e-06 -1.48551e-19
2.27202e-05 5.66873e-06 -7.18501e-20
1.97467e-05 1.20853e-06 -6.51805e-20
-2.47198e-05 6.83348e-06 -6.09361e-20
-2.27865e-05 -6.62006e-06 1.07624e-19
-4.00119e-05 -2.99522e-05 -5.76013e-20
2.66622e-05 -0.000103753 -1.55524e-19
-2.44101e-05 0.000103539 -3.09228e-20
0.000105962 -2.74897e-05 -9.8377e-20
6.4492e-05 -4.91739e-05 -1.08836e-19
1.09528e-06 7.55802e-05 -2.18279e-20
1.44382e-07 -7.59967e-05 -1.58858e-19
-4.94559e-05 9.89735e-05 -4.39589e-20
5.14883e-05 -9.31192e-05 -1.3794e-19
7.46263e-06 1.98368e-05 -4.63842e-20
6.82825e-06 -2.01006e-05 -6.36646e-20
3.65878e-05 -2.74911e-05 -2.84975e-20
3.73637e-05 2.80984e-05 -1.34302e-19
2.50111e-05 -3.60726e-05 -4.79001e-20
2.39091e-05 3.5353e-05 5.45697e-20
-5.40145e-05 3.29964e-05 1.12171e-19
1.34563e-05 -7.0647e-05 -1.56433e-19
6.86696e-05 3.54009e-05 -1.27632e-19
6.91646e-05 -3.4774e-05 -2.30405e-20
5.95062e-05 -3.84676e-05 -1.27329e-20
5.75966e-05 -3.16398e-05 1.12171e-20
5.7587e-05 3.21681e-05 -1.27026e-19
-3.33891e-05 -0.000310039 -9.4739e-20
4.5933e-05 7.15549e-05 -1.00651e-19
-0.000319446 3.74582e-05 -6.33615e-20
-1.18285e-05 7.11161e-05 -3.6683e-20
0.000110755 -0.000100082 -8.18545e-20
0.000109553 0.000100009 -5.76013e-20
5.99761e-05 3.90166e-05 -1.13384e-19
7.00905e-05 -1.70537e-05 -5.97235e-20
6.53278e-05 4.55333e-05 -1.2066e-19
-4.42142e-06 -5.95629e-05 -1.79777e-19
-4.03551e-06 5.95619e-05 2.395e-20
-5.18894e-05 4.20881e-05 -8.15514e-20
-5.22748e-05 -4.24523e-05 1.50067e-19
1.03474e-05 1.78482e-05 -1.53098e-19
8.49173e-06 -1.81073e-05 -3.21355e-20
-2.42668e-05 -4.94808e-05 -1.99786e-19
1.39238e-05 6.86275e-05 -2.91038e-20
5.24617e-05 -3.23835e-05 1.09139e-20
5.28322e-05 3.28578e-05 -1.22782e-19
6.5621e-05 4.98493e-05 -1.09746e-19
-2.29548e-05 4.99669e-05 1.90994e-20
1.39237e-05 -6.95085e-05 -1.81899e-19
8.38005e-05 0.00015184 -6.21488e-20
0.000154029 8.36516e-05 -1.28087e-19
-9.56394e-05 7.15777e-05 -6.51805e-20
5.73799e-05 -1.01412e-05 -4.79001e-20
0.000180194 -8.72652e-05 -3.91083e-20
0.00017852 8.70584e-05 -3.27418e-20
-9.85622e-05 -6.72582e-05 1.42791e-19
-9.66222e-05 6.88521e-05 6.60899e-20
-4.07424e-05 1.74782e-05 1.86446e-19
-9.55327e-06 1.55626e-05 1.29148e-19
-9.65127e-06 -1.52884e-05 -7.63976e-20
-8.04878e-05 0.000107497 -6.88184e-20
-0.000101075 -8.64123e-05 -8.86757e-20
8.6623e-05 -0.000123761 -1.05653e-19
-7.86914e-05 0.000128662 -7.42754e-20
0.000129688 -7.55436e-05 -1.32028e-19
-8.83309e-05 -4.77726e-05 -1.48551e-20
-1.06917e-05 -0.000138648 -1.62951e-19
-0.000131309 1.20097e-06 -9.58001e-20
7.65636e-05 -0.000104985 4.48684e-20
7.81479e-05 0.000104949 -1.63709e-20
-4.72389e-05 3.73877e-05 1.36424e-19
-2.06907e-05 -1.49409e-06 2.36772e-19
-4.68175e-05 7.65364e-05 -3.91083e-20
4.95121e-05 -7.62174e-05 -1.41275e-19
-4.70047e-05 -1.39222e-05 1.93419e-19
7.54253e-05 -5.84467e-05 -6.66963e-20
7.46956e-05 5.89313e-05 -7.88229e-20
-5.78757e-05 3.03954e-05 1.07017e-19
-4.06493e-05 -2.73623e-05 -1.23994e-19
-3.59457e-05 2.63383e-05 8.97368e-20
-4.6444e-05 2.16172e-05 1.628e-19
-1.18017e-05 -4.01401e-05 -1.82808e-19
-1.05473e-05 4.30577e-05 5.63887e-20
0.000177825 0.000177823 -8.79178e-21
-1.30576e-05 -7.03563e-05 -1.55827e-19
-1.18772e-05 7.10108e-05 -2.2131e-20
-1.35858e-05 -0.000141054 5.36602e-20
-1.29897e-05 0.000141233 -3.33481e-20
1.99735e-05 -3.72738e-05 -8.36735e-20
2.01884e-05 3.64248e-05 -1.57646e-20
-6.84948e-05 -3.60215e-05 1.32786e-19
-6.73296e-05 3.47711e-05 1.05501e-19
-0.000119588 2.21542e-05 1.27026e-19
-0.000117801 -2.2054e-05 9.39811e-20
0.000158344 8.8239e-05 -3.94114e-20
0.000160572 -8.84133e-05 -5.57823e-20
4.26564e-05 -5.00058e-07 -1.16415e-19
4.12332e-05 1.63244e-06 -1.06108e-19
6.21487e-05 2.9068e-05 -8.60988e-20
-4.05959e-06 -6.20531e-05 -1.90691e-19
5.33914e-05 -3.95653e-05 -4.57779e-20
-3.56862e-06 6.26749e-05 3.94114e-21
6.13581e-05 -2.94807e-05 -4.24431e-21
7.15839e-06 6.45806e-05 -7.06374e-20
5.39066e-05 4.01638e-05 -1.17022e-19
-4.32763e-05 8.01283e-07 3.36513e-20
-4.45828e-05 -9.72086e-07 1.2642e-19
-4.59184e-05 -3.96392e-05 1.88569e-19
7.84716e-05 -0.000135927 -4.45652e-20
7.89477e-05 0.000136745 1.66741e-20
-5.76368e-05 3.37234e-05 1.14899e-19
-8.17897e-06 7.61131e-05 8.70083e-20
9.03556e-05 -0.000159174 -6.50289e-20
0.000156823 -7.45114e-05 -1.20735e-19
1.26175e-05 -4.64072e-05 -7.33659e-20
1.22532e-05 4.57595e-05 -3.63798e-20
-1.0717e-05 -7.9845e-05 1.99483e-19
6.41268e-06 -6.39106e-05 -1.7432e-19
7.58205e-05 3.98118e-05 -9.39811e-20
6.27571e-05 -1.99509e-05 2.48595e-20
6.27373e-05 2.09189e-05 -1.50067e-19
-0.000155844 -4.22303e-10 4.27463e-20
-0.000155766 2.85302e-09 -1.51582e-21
-5.79632e-05 3.39769e-05 8.85242e-20
4.97604e-05 5.55537e-05 -1.10049e-19
5.02074e-05 -5.51648e-05 -4.24431e-20
1.59094e-05 4.56306e-05 3.69861e-20
1.57039e-05 -4.55701e-05 -1.7432e-19
6.97091e-06 -1.2494e-05 -1.05805e-19
7.78907e-06 1.3527e-05 8.2764e-20
0.000172404 -0.000172407 -6.00266e-20
-5.16031e-05 1.77101e-05 9.64064e-20
-5.18314e-05 -1.60551e-05 1.08533e-19
-1.23644e-05 -3.66007e-05 -1.7917e-19
-1.16843e-05 3.72449e-05 5.82077e-20
7.40176e-05 -3.97635e-05 -3.81988e-20
-5.82067e-05 -2.92301e-05 9.91349e-20
-7.5363e-05 -9.72757e-06 9.09495e-20
-7.49458e-05 1.24073e-05 9.61033e-20
-4.55522e-05 -2.1372e-05 1.93722e-19
2.30584e-05 -9.83055e-05 -1.13081e-19
2.28161e-05 9.82596e-05 -3.54703e-20
3.15266e-05 0.000184911 -3.63798e-21
3.06957e-05 -0.000184451 -1.94026e-20
1.43492e-05 0.000307939 3.4864e-21
0.000310402 2.15365e-05 -9.51938e-20
4.73495e-05 7.12594e-06 -1.23994e-19
4.68288e-05 -5.88783e-06 2.72848e-21
0.000168196 -0.000209541 -2.62238e-20
0.000204682 -0.000167425 -1.02242e-19
7.5536e-05 -0.000182345 -1.15203e-20
7.50169e-05 0.000181092 -2.54659e-20
-5.48227e-05 -3.21645e-05 1.90994e-20
5.05102e-05 2.72769e-05 -1.29451e-19
5.00687e-05 -2.65523e-05 5.03254e-20
4.6875e-05 5.21088e-05 -1.19447e-19
4.63601e-05 -5.16927e-05 -8.51893e-20
-1.98551e-06 -0.000147723 -1.81596e-19
-3.58282e-06 0.00013625 -1.47035e-20
0.000141383 -4.40688e-06 -1.76897e-19
3.58356e-05 3.59393e-05 -1.22782e-19
3.51261e-05 -3.54494e-05 -1.12171e-20
-1.47855e-05 0.000150698 -3.33481e-20
0.00014889 -1.08576e-05 -1.8584e-19
6.70725e-05 -9.79925e-06 -2.27374e-20
6.7229e-05 1.09684e-05 -1.12171e-19
6.37917e-05 -2.1173e-05 -6.36646e-21
6.39464e-05 2.23471e-05 -1.23388e-19
0.00017442 0.000214595 5.45697e-21
0.000215547 0.000174595 -4.54747e-20
5.32486e-05 2.92421e-05 -1.32786e-19
5.28985e-05 -2.85826e-05 2.18279e-20
1.84566e-05 -0.000108367 4.21399e-20
1.9215e-05 0.00010838 -3.36513e-20
4.75084e-05 2.12219e-05 -9.004e-20
4.84993e-05 -1.87353e-05 -9.39811e-20
7.41461e-05 -7.01099e-05 -7.39722e-20
7.34411e-05 7.03179e-05 -7.60944e-20
-4.39278e-05 -1.01815e-05 1.54614e-20
-4.6865e-05 1.13997e-05 1.06714e-19
6.86756e-05 0.000132417 -6.66963e-21
0.000101392 0.00010214 -1.03076e-20
6.93393e-05 -0.000132778 -9.79223e-20
0.00010228 -0.000102296 -6.66963e-20
7.32313e-05 -0.000137287 2.00089e-20
-0.000155009 -2.141e-06 7.39722e-20
-0.000154609 2.88366e-06 4.63842e-20
7.47566e-05 0.000137833 1.21266e-20
0.000123093 -5.09896e-05 -2.30405e-20
0.000321739 -4.23555e-05 -1.03076e-20
0.000325331 4.28291e-05 4.06241e-20
0.00012617 5.22591e-05 3.03165e-21
0.000159147 3.65926e-06 -3.91083e-20
0.000108335 -2.99868e-05 -6.30583e-20
0.000149445 4.85877e-05 -1.15203e-20
0.00016184 -1.81369e-06 -4.00178e-20
0.000151687 -4.88229e-05 -1.15203e-20
0.000109465 3.28703e-05 -5.85108e-20
0.000115812 -4.49402e-05 -4.45652e-20
0.000117215 -4.45034e-05 -4.18368e-20
0.000114512 4.5705e-05 -7.60944e-20
0.000115914 4.52684e-05 -4.91127e-20
-2.55473e-05 -7.21132e-05 5.39634e-20
-1.03466e-05 6.06327e-05 1.06108e-20
1.00178e-05 -6.07472e-05 1.53401e-19
-5.45932e-05 -1.01075e-05 -2.07062e-19
-6.8162e-05 -1.75755e-05 -1.83112e-19
-1.19062e-05 7.87703e-05 5.82077e-20
1.15903e-05 -7.90377e-05 1.5037e-19
-7.31639e-05 1.83053e-05 -1.79474e-19
-2.34859e-05 3.6897e-05 -3.35604e-19
-3.96887e-05 -8.82961e-05 1.04592e-19
-3.83972e-05 9.34974e-05 -1.41578e-19
9.18846e-05 -3.98033e-05 6.54836e-20
5.10953e-05 5.30315e-05 8.94336e-20
-5.17688e-05 -5.29897e-05 1.30361e-19
-2.54144e-05 -5.08884e-05 4.91127e-20
-8.22877e-06 -4.87911e-05 6.60899e-20
5.78869e-06 8.05728e-05 4.57779e-20
-6.18517e-06 -8.08477e-05 1.27329e-19
5.72038e-05 8.41251e-06 -5.24475e-20
-3.05716e-05 -0.000105994 1.27936e-19
-3.07781e-05 0.000108126 -1.44003e-19
0.000108813 -2.88975e-05 3.57735e-20
-4.74614e-05 -4.78923e-05 2.06152e-20
-7.49056e-05 1.75393e-05 -9.67096e-20
-5.4017e-05 -4.8235e-05 -5.3357e-20
2.77059e-05 7.11073e-05 -6.94248e-20
-5.17233e-05 9.75067e-06 -2.43745e-19
-7.92776e-05 -0.000161646 1.21418e-19
-4.51297e-05 -2.27082e-05 -2.80428e-19
0.000161976 -7.96356e-05 5.53276e-20
-2.6495e-06 7.51723e-05 5.6995e-20
2.2912e-06 -7.5423e-05 1.46125e-19
-0.000169713 8.21052e-05 -1.8008e-19
-0.000169291 -8.51872e-05 -2.66179e-19
-0.000109435 3.56721e-05 -3.72893e-20
-3.98459e-05 -3.14698e-05 -1.2642e-19
-7.22742e-05 3.48226e-05 -3.04984e-19
-6.93377e-05 -3.41125e-05 -2.49202e-19
-1.18058e-05 -2.41802e-05 -2.79518e-19
4.26663e-05 5.11645e-05 -8.42798e-20
-7.05401e-05 4.65643e-05 -9.94381e-20
-2.13711e-05 5.94351e-07 -3.32269e-19
-4.63875e-05 4.93732e-05 -1.19447e-19
-2.58096e-05 7.14687e-05 -1.55524e-19
8.05086e-06 4.90979e-05 1.24298e-20
-7.14296e-05 4.64876e-05 -8.2764e-20
-0.000170699 -0.000170699 2.71333e-20
0.000172826 -0.000172829 5.62371e-20
1.52223e-05 3.945e-05 5.5176e-20
0.000173453 -0.00018358 1.22024e-19
-0.000186219 -0.000171448 2.98617e-20
8.83481e-05 -1.70377e-05 4.24431e-21
8.81655e-05 1.71398e-05 -1.05501e-19
4.07662e-05 1.43353e-05 -3.36513e-20
8.28032e-05 -5.60588e-05 -3.03165e-22
8.26143e-05 5.62053e-05 -9.85286e-20
2.60915e-05 5.08758e-05 -4.63842e-20
-7.18184e-05 0.000132737 -2.0403e-19
-7.19099e-05 -0.000131827 -1.89478e-19
6.09425e-05 -3.54676e-05 5.54792e-20
6.07839e-05 3.54813e-05 -1.11565e-19
-9.60209e-05 4.20507e-05 -5.39634e-20
8.02027e-05 -0.000124635 9.12526e-20
-8.11423e-05 0.000124737 7.45786e-20
4.23926e-05 -5.03715e-05 4.69906e-20
-8.33667e-05 0.000156708 -9.64064e-20
-0.000162088 8.58199e-05 -3.03165e-20
6.28377e-06 4.87223e-05 4.54747e-21
-7.05845e-06 -4.85172e-05 1.17628e-19
0.000173143 -7.17213e-05 -2.12215e-20
0.000173159 7.17278e-05 3.51671e-20
9.27259e-06 -1.63907e-05 7.18501e-20
5.74839e-05 3.2231e-05 -7.09406e-20
5.76422e-05 -3.11836e-05 4.63842e-20
-3.49461e-05 -2.3849e-05 -1.36121e-19
-1.51259e-05 -3.86826e-05 1.3794e-19
-0.000101262 -2.09873e-05 -6.88184e-20
7.09259e-05 1.57725e-05 -4.9719e-20
-8.78909e-05 -1.24929e-05 -1.19144e-19
-6.48313e-05 -5.39853e-05 -2.63147e-19
-7.45606e-05 -0.000129138 -1.31877e-19
-7.47849e-05 0.000129526 -8.00355e-20
-7.79344e-05 -8.5647e-05 5.48728e-20
-5.6941e-05 3.31838e-05 -1.34908e-19
5.61947e-05 -3.00179e-05 4.54747e-20
1.34789e-05 -0.000140863 9.27685e-20
-1.38332e-05 0.00014111 5.6995e-20
-6.68072e-05 5.93429e-05 -3.27115e-19
4.82302e-06 6.40629e-05 3.63798e-21
-4.94836e-06 -6.46023e-05 1.20053e-19
4.12307e-05 -1.46238e-05 -1.12171e-20
3.9815e-05 1.37369e-05 -3.42576e-20
9.27534e-05 7.11843e-05 -7.88229e-20
5.02e-05 -4.72927e-05 6.97279e-21
4.96922e-05 4.77401e-05 -2.81943e-20
5.54392e-05 3.03933e-05 -8.70083e-20
2.62846e-05 -7.11113e-05 5.3357e-20
3.74906e-05 -3.39887e-05 1.12171e-20
3.62197e-05 3.34606e-05 -5.06285e-20
-5.96072e-05 2.70463e-05 -2.56174e-19
3.15128e-05 2.39638e-05 -9.09495e-20
-7.16125e-05 -4.91229e-05 -3.33481e-20
-2.56326e-05 6.1558e-06 -1.29755e-19
-9.5936e-06 1.58527e-05 1.33393e-20
7.47329e-05 -1.31156e-05 3.63798e-20
-5.84998e-05 3.47634e-05 -2.84369e-19
-6.16755e-05 -2.83533e-05 -1.9251e-19
-4.79573e-05 -5.81104e-05 2.97102e-20
-5.49354e-05 -3.59823e-05 -1.27936e-19
-1.22816e-06 -6.65355e-05 1.34302e-19
5.90593e-07 6.62623e-05 -2.9407e-20
9.14656e-05 3.95539e-05 -7.09406e-20
-3.49668e-05 2.36882e-05 -1.98573e-19
4.59253e-05 -7.26619e-05 4.79001e-20
4.52535e-05 7.26238e-05 -9.30716e-20
-5.68063e-05 3.31911e-05 -2.1555e-19
-2.32492e-05 3.66643e-05 -3.47427e-19
-2.3835e-05 -3.90937e-05 -2.70726e-19
-1.46278e-05 -6.74704e-05 1.0247e-19
-5.32951e-05 5.03058e-05 -1.03682e-19
6.84926e-06 -9.38576e-05 1.70227e-19
1.24967e-05 9.5544e-05 -1.11716e-19
9.68754e-05 5.46468e-06 -2.88007e-20
9.64464e-05 -6.98525e-05 6.0633e-20
6.40481e-05 4.41206e-05 -9.27685e-20
-9.66192e-05 0.000167362 3.69861e-20
9.65329e-05 -0.000167202 1.54614e-20
7.22183e-05 1.50374e-05 -7.18501e-20
1.11879e-05 3.86881e-05 -3.1226e-20
4.25521e-05 -1.55896e-05 -7.57912e-21
-1.38072e-05 6.79779e-05 -1.54311e-19
2.03124e-05 -4.03264e-05 1.10655e-19
-2.05877e-05 3.96884e-05 4.24431e-20
3.2106e-05 -2.42364e-05 1.05198e-19
2.33878e-05 -5.21063e-06 -7.54881e-20
-1.15049e-05 -3.69925e-05 2.395e-20
1.95518e-05 8.06036e-07 -3.94114e-21
6.39506e-05 -4.63082e-05 5.6995e-20
-2.47708e-05 -6.86003e-06 -1.85537e-19
6.41939e-05 -4.88823e-05 3.39545e-20
-7.47102e-05 9.11175e-05 -1.44003e-19
-3.9562e-05 3.00473e-05 -1.69469e-19
2.53695e-05 -0.000104405 1.36424e-19
2.64046e-05 0.000103014 -9.32232e-20
0.000107413 2.6945e-05 -5.32054e-20
6.43758e-05 4.93438e-05 -1.13687e-19
1.18305e-07 7.57455e-05 -6.82121e-20
-7.52786e-07 -7.60827e-05 1.30664e-19
5.10038e-05 -9.14083e-05 8.85242e-20
5.08659e-05 9.37006e-05 -8.2764e-20
6.64938e-06 -2.04356e-05 -1.36424e-20
7.14134e-06 2.01866e-05 -2.24342e-20
3.67888e-05 2.74887e-05 -6.27551e-20
2.49499e-05 3.59753e-05 2.42532e-20
-5.49431e-05 -3.26044e-05 -2.17672e-19
-0.000108565 -8.34837e-05 -4.85064e-21
1.34092e-05 7.04362e-05 -9.21621e-20
6.87268e-05 3.53047e-05 -9.48906e-20
6.89386e-05 -3.52289e-05 1.90994e-20
5.9444e-05 3.8806e-05 -1.16718e-19
5.75718e-05 -3.199e-05 6.03298e-20
5.74985e-05 3.20625e-05 -8.97368e-20
-2.77836e-05 -0.000313617 1.05653e-19
0.000311372 -4.7261e-05 5.32054e-20
1.35108e-05 -6.92904e-05 9.03431e-20
0.000110277 -0.00010039 -5.03254e-20
0.000110137 0.000100716 -2.2131e-20
-0.000135045 -7.98505e-06 -3.31966e-20
-4.50343e-06 5.93783e-05 -2.9407e-20
3.94797e-06 -6.02768e-05 8.88273e-20
-4.90986e-05 7.16125e-05 -1.39153e-19
2.16066e-05 6.58612e-06 1.10352e-19
-9.47379e-06 -1.85768e-05 -1.48551e-20
-5.27638e-05 4.17927e-05 7.36691e-20
5.20697e-05 -4.24041e-05 1.44306e-19
3.66132e-05 -2.69068e-05 8.21577e-20
-4.04325e-05 -2.73721e-05 -4.85064e-20
5.95444e-05 -3.86129e-05 5.36602e-20
-7.03569e-05 -4.41237e-05 -5.1538e-20
6.78192e-05 -1.68996e-05 -6.97279e-21
9.73287e-06 1.76073e-05 -3.51671e-20
-2.42164e-05 4.9477e-05 -1.06714e-19
-1.41521e-05 -6.8815e-05 1.3127e-19
5.24792e-05 3.2791e-05 -1.28845e-19
1.38922e-05 6.92597e-05 -7.67007e-20
-2.4759e-05 -3.5307e-05 1.47944e-19
-8.33354e-05 0.000157176 -6.0633e-20
-0.000152465 8.67687e-05 -1.79625e-20
5.72657e-05 -1.0708e-05 1.45519e-20
5.26213e-05 -3.27051e-05 7.09406e-20
0.000179664 -8.74171e-05 -3.91083e-20
0.000179745 8.75799e-05 1.06108e-20
1.12386e-05 -3.92977e-05 7.27596e-20
-9.83515e-05 6.71556e-05 -2.2131e-19
-9.6419e-05 -6.87302e-05 -3.06197e-19
-4.10795e-05 -1.79736e-05 -2.73758e-19
-9.68331e-06 1.52894e-05 -8.91305e-20
8.83034e-05 -0.000109133 1.33999e-19
-0.000105798 -8.33545e-05 5.85108e-20
8.9986e-05 -0.000129019 1.59768e-19
8.30255e-05 0.000121748 -8.76147e-20
0.000133477 7.77328e-05 -7.79134e-20
8.23683e-06 -1.525e-05 1.29148e-19
-4.07496e-06 -0.000138793 1.5613e-19
0.000141608 -9.28827e-06 3.57735e-20
7.64258e-05 0.000104876 1.07624e-19
-7.70527e-05 -0.000104737 1.23388e-19
-4.77825e-05 -3.77481e-05 -2.52536e-19
-2.06055e-05 1.51981e-06 -3.13473e-19
4.87962e-05 7.60308e-05 -8.73115e-20
4.94487e-05 -7.56237e-05 9.73159e-20
-4.68781e-05 1.36749e-05 -2.8831e-19
2.48288e-05 -4.99049e-05 5.85108e-20
7.51129e-05 -5.89507e-05 -2.00089e-20
7.48352e-05 5.91141e-05 -5.12349e-20
-5.7554e-05 -3.02687e-05 -2.5193e-19
-4.02431e-05 2.68536e-05 -1.27936e-19
-4.61908e-05 -2.14563e-05 -2.44351e-19
-8.7465e-05 -4.79225e-05 6.97279e-21
-1.17491e-05 3.9619e-05 -8.06419e-20
-0.00017874 0.000178741 -6.65447e-20
-1.29816e-05 7.01487e-05 -1.10352e-19
1.25654e-05 -7.13916e-05 1.00044e-19
1.34569e-05 -0.000140892 1.18537e-19
-1.38844e-05 0.000141044 8.0945e-20
1.97656e-05 -3.76388e-05 -1.54614e-20
1.96124e-05 3.63051e-05 6.0633e-22
-6.82744e-05 3.59636e-05 -3.46517e-19
-6.77497e-05 -3.47601e-05 -2.55568e-19
-0.000119342 -2.21059e-05 -3.04074e-19
-0.000117696 2.25924e-05 -2.56478e-19
0.000159607 -8.85905e-05 -5.8814e-20
0.000159528 8.87627e-05 0
4.30095e-05 2.27075e-06 6.66963e-20
4.22866e-05 -1.09053e-06 -8.57957e-20
6.18359e-05 -2.9191e-05 5.94203e-20
-4.12588e-06 6.19767e-05 -9.58001e-20
5.3303e-05 3.99143e-05 -1.1975e-19
3.69518e-06 -6.17531e-05 7.63976e-20
-9.77169e-05 6.70533e-05 -8.42798e-20
6.14545e-05 2.93966e-05 -1.06411e-19
-7.38152e-06 -6.55998e-05 1.00651e-19
-4.321e-05 -8.66868e-07 -3.02559e-19
-4.34273e-05 4.79141e-07 -2.30708e-19
-4.54594e-05 3.93586e-05 -3.3045e-19
7.84161e-05 0.000135823 2.2131e-20
-7.85155e-05 -0.000136003 1.42487e-20
-1.49104e-05 -4.74076e-05 1.17022e-19
-5.78474e-05 -3.42158e-05 -2.40713e-19
-8.19038e-06 -7.60444e-05 -2.72242e-19
5.36277e-05 -3.94212e-05 5.06285e-20
8.68313e-05 0.00016204 -9.03431e-20
0.000155911 7.67648e-05 -9.01916e-20
1.24081e-05 -4.67755e-05 -1.57646e-20
1.16124e-05 4.54715e-05 -1.30361e-20
-1.06986e-05 7.97514e-05 -2.97405e-19
6.42935e-06 6.36977e-05 -4.48684e-20
7.51848e-05 -3.96105e-05 7.48817e-20
6.28026e-05 -2.05314e-05 5.79045e-20
6.26558e-05 2.05698e-05 -1.47641e-19
-0.000155539 1.32778e-09 -4.24431e-20
-0.000155767 -1.29257e-09 -2.43441e-19
1.16887e-05 -3.66834e-05 1.13687e-19
-5.92458e-05 -3.53664e-05 -1.78564e-19
4.95072e-05 5.57629e-05 -5.60855e-20
5.00113e-05 -5.55879e-05 4.54747e-21
1.56363e-05 4.53754e-05 -1.33393e-20
6.97941e-06 1.24881e-05 -3.85019e-20
0.000174119 0.000174119 7.27596e-21
-5.1488e-05 -1.76707e-05 -3.6592e-19
-5.14139e-05 1.65659e-05 -2.45564e-19
-1.22506e-05 3.64639e-05 -4.9719e-20
7.51316e-05 3.96725e-05 -9.1859e-20
-5.81924e-05 2.92743e-05 -3.17717e-19
-7.52285e-05 9.75136e-06 -3.3621e-19
-7.51562e-05 -9.75315e-06 -2.55568e-19
-4.54156e-05 2.1612e-05 -3.05287e-19
2.28398e-05 -9.86261e-05 -3.57735e-20
2.23784e-05 9.89833e-05 0
3.05124e-05 0.000184477 7.03343e-20
-3.09104e-05 -0.000184355 4.27463e-20
-2.38532e-05 0.000313846 -5.66918e-20
-0.000314167 1.73278e-05 -3.97904e-20
4.70684e-05 6.58522e-06 -1.31574e-19
4.67968e-05 -6.6984e-06 9.33748e-20
-5.38253e-06 -1.33385e-05 1.35515e-19
0.000170391 0.00021539 -1.72046e-20
0.00021217 0.000168181 -3.28934e-20
7.55069e-05 0.000182281 1.84931e-20
7.54355e-05 -0.000182109 -3.4864e-20
-5.4706e-05 3.22482e-05 -2.51021e-19
4.6831e-05 -5.10312e-05 3.6683e-20
5.02706e-05 2.70085e-05 -1.29148e-19
5.03881e-05 -2.69923e-05 7.76102e-20
3.52612e-05 -3.56438e-05 6.36646e-20
4.64006e-05 5.18199e-05 -1.0156e-19
-2.03536e-06 -0.000141362 1.89933e-19
1.35426e-06 0.000143529 -1.12777e-19
0.000150635 -9.05987e-07 -5.54792e-20
3.52747e-05 3.57327e-05 -9.85286e-20
6.02641e-06 0.000148105 -1.04592e-19
-0.000148974 -1.89413e-05 1.03834e-20
6.71833e-05 -1.10211e-05 6.82121e-20
6.72217e-05 1.04805e-05 -1.35818e-19
6.39836e-05 -2.19443e-05 4.33526e-20
6.38907e-05 2.20283e-05 -1.3218e-19
-0.000175747 0.000218347 -7.45786e-20
-0.000215654 0.000175798 -3.04681e-20
5.29245e-05 2.89136e-05 -1.27936e-19
5.3022e-05 -2.88593e-05 6.79089e-20
1.82514e-05 0.000108262 8.57957e-20
-1.86496e-05 -0.000108138 1.09443e-19
4.91475e-05 1.98318e-05 3.4864e-20
4.8227e-05 -1.96363e-05 -1.00348e-19
7.38486e-05 -7.04732e-05 -2.09184e-20
7.35577e-05 7.07362e-05 -3.91083e-20
-4.3686e-05 1.02181e-05 -3.10441e-19
-4.46349e-05 -1.06856e-05 -2.31618e-19
6.88227e-05 0.000133577 2.0312e-20
0.00010205 0.000102828 6.66963e-21
6.90553e-05 -0.000133049 -3.39545e-20
0.000102015 -0.000102549 -2.51627e-20
-7.36993e-05 -0.000137253 5.82077e-20
-0.000154757 -2.5172e-06 -2.65876e-19
-0.000154701 2.1473e-06 -1.85537e-19
7.3091e-05 0.000137205 5.94203e-20
0.000124549 5.1592e-05 7.88229e-21
0.000323995 4.2649e-05 3.39545e-20
0.000124424 -5.15397e-05 -4.54747e-21
0.000324025 -4.26526e-05 1.69772e-20
0.000160576 -3.01698e-06 -4.39589e-20
0.000109059 3.1097e-05 -3.51671e-20
0.000150683 -4.88294e-05 -3.33481e-20
0.00016047 3.09907e-06 -1.69772e-20
0.000108906 -3.10458e-05 -5.06285e-20
0.00015058 4.88955e-05 1.09139e-20
0.000115315 -4.55653e-05 -4.09273e-20
0.000116698 -4.51345e-05 -7.67007e-20
0.000115169 4.57068e-05 -7.15469e-20
0.00011658 4.52673e-05 -3.3045e-20
-2.65623e-05 -7.32574e-05 -1.30361e-19
-1.006e-05 6.0728e-05 5.85108e-20
1.05877e-05 -6.04367e-05 -2.72848e-20
-5.45438e-05 9.96785e-06 2.46473e-19
-6.96545e-05 1.81115e-05 2.34043e-19
-1.16376e-05 7.90767e-05 1.91297e-19
1.21607e-05 -7.87298e-05 -2.24342e-20
-6.97044e-05 -1.79531e-05 1.45519e-19
-2.34061e-05 -3.68138e-05 -1.14899e-19
-3.93278e-05 -8.8371e-05 -9.48906e-20
3.99382e-05 9.05746e-05 -1.42487e-20
9.19831e-05 4.16499e-05 5.6995e-20
-5.13047e-05 -5.2879e-05 2.30405e-20
5.13595e-05 5.32586e-05 1.07017e-19
-5.60678e-05 3.35625e-05 1.70379e-19
-2.4818e-05 -5.03702e-05 -1.10352e-19
-8.43686e-06 -4.86417e-05 -5.57823e-20
-5.65462e-06 -8.0777e-05 -3.03165e-21
6.09311e-06 8.08025e-05 4.60811e-20
5.68846e-05 8.51654e-06 5.63887e-20
-3.02778e-05 -0.000106366 -8.54925e-20
2.86662e-05 0.000107829 -4.82032e-20
0.000111694 2.95415e-05 5.18412e-20
2.64217e-05 7.22506e-05 -1.23994e-19
-4.88181e-05 -4.91225e-05 -1.47338e-19
-5.12884e-05 -1.05364e-05 5.66918e-20
-7.65842e-05 -0.000158635 -5.6995e-20
-4.53623e-05 2.2869e-05 2.2222e-19
-2.28416e-06 7.54411e-05 1.73713e-19
3.06706e-06 -7.51951e-05 -1.54614e-20
-0.000169704 -8.22494e-05 -3.33481e-20
-0.000169306 8.52129e-05 1.42488e-19
-3.6687e-05 4.95529e-05 8.0945e-20
-4.4315e-05 5.2454e-05 8.2764e-20
-0.000102097 3.2922e-05 1.60981e-19
-7.23952e-05 -3.50566e-05 -1.03986e-19
-6.92905e-05 3.39283e-05 1.72804e-19
-1.18334e-05 2.43503e-05 2.107e-19
-2.1306e-05 -7.61357e-07 2.12215e-21
-7.34967e-05 4.79997e-05 1.93419e-19
-8.48542e-05 -1.33471e-05 9.39811e-20
-7.74256e-05 1.55651e-05 2.2222e-19
7.62792e-06 4.91497e-05 1.21872e-19
-2.41504e-05 7.28221e-05 -7.88229e-21
4.41334e-05 5.14025e-05 -1.11868e-19
-0.000171743 -0.000171741 1.63709e-20
-0.000169104 0.000169102 -1.97057e-20
1.53613e-05 3.96188e-05 8.15514e-20
2.55486e-05 5.10906e-05 -8.33703e-20
-0.000169596 0.000184462 5.35086e-20
-0.000178935 -0.000172089 -3.41061e-20
8.80088e-05 -1.74448e-05 3.57735e-20
8.85484e-05 1.6202e-05 -1.29755e-19
4.15421e-05 1.41991e-05 4.21399e-20
8.25395e-05 -5.59368e-05 1.97057e-20
8.2938e-05 5.5678e-05 -7.27596e-20
-7.18703e-05 -0.000132855 -1.07624e-19
-7.19078e-05 0.000131871 1.87962e-19
6.098e-05 -3.56247e-05 7.88229e-21
6.08396e-05 3.4961e-05 -9.12526e-20
-8.03669e-05 0.000124752 2.51021e-19
8.19973e-05 -0.000125023 -9.39811e-21
4.22947e-05 -5.04955e-05 7.88229e-20
8.30844e-05 0.000156995 1.69772e-20
0.000157707 8.31082e-05 5.07801e-20
6.44389e-06 4.89009e-05 6.76058e-20
-6.51074e-06 -4.81909e-05 -4.27463e-20
0.000171895 -7.12014e-05 9.70128e-21
0.000173979 7.20614e-05 9.09495e-21
-7.01822e-05 -4.87584e-05 -8.15514e-20
9.28823e-06 -1.54681e-05 -5.09317e-20
5.75862e-05 3.12716e-05 -1.54614e-20
5.77473e-05 -3.14764e-05 -2.54659e-20
-3.54552e-05 -2.40869e-05 -7.73071e-20
-1.45923e-05 -3.85442e-05 6.66963e-20
-6.47268e-05 5.40543e-05 2.50717e-19
-9.8472e-05 -2.22842e-05 1.40972e-19
-7.45767e-05 0.000129164 1.21266e-19
-7.48449e-05 -0.000129636 -2.66785e-20
-5.55324e-05 -3.4246e-05 -1.09139e-19
5.56365e-05 2.9617e-05 3.6683e-20
-7.87939e-05 -8.56416e-05 -1.04289e-19
1.41266e-05 -0.000141532 -1.81899e-21
-1.35495e-05 0.000141004 1.75229e-19
-6.69733e-05 -5.93755e-05 -1.59162e-19
5.12652e-06 6.45128e-05 -4.88095e-20
-4.41176e-06 -6.44509e-05 6.66963e-21
4.06786e-05 1.36157e-05 3.69861e-20
4.15253e-05 -1.50705e-05 -1.30361e-20
9.30445e-05 -6.99164e-05 4.91127e-20
6.99618e-05 1.50808e-05 4.66874e-20
5.03812e-05 -4.729e-05 -3.36513e-20
5.00196e-05 4.70806e-05 -4.12304e-20
5.66692e-05 -3.05992e-05 -2.27374e-20
2.64967e-05 -7.08369e-05 6.54836e-20
3.78826e-05 -3.41715e-05 -3.51671e-20
3.67012e-05 3.30357e-05 3.03165e-21
-6.00739e-05 -2.68798e-05 -7.63976e-20
-6.30729e-05 4.96296e-05 1.61587e-19
3.08359e-05 2.38079e-05 -8.36735e-20
-2.63706e-05 6.44225e-06 -2.54659e-20
-9.75242e-06 1.64508e-05 2.55871e-19
7.49425e-05 1.24538e-05 5.94203e-20
-0.000105788 0.000103013 6.91216e-20
-5.86269e-05 -3.50228e-05 -1.76139e-19
-6.05027e-05 2.87113e-05 2.68301e-19
-0.000143817 2.35153e-05 7.2608e-20
-5.61057e-05 3.4251e-05 2.4041e-19
-8.28605e-07 -6.63129e-05 -2.12215e-20
1.23549e-06 6.65347e-05 -7.76102e-20
-4.9758e-05 -5.91095e-05 -1.21569e-19
9.18859e-05 -3.9605e-05 1.27329e-20
-3.50361e-05 2.60627e-05 6.33615e-20
4.56729e-05 -7.17317e-05 8.57957e-20
-4.79704e-05 7.7348e-05 1.65528e-19
-5.76186e-05 -3.40831e-05 -1.21872e-19
-2.32826e-05 -3.66924e-05 -2.107e-19
-2.37972e-05 3.91827e-05 2.38591e-19
-1.4291e-05 -6.79426e-05 -7.94292e-20
1.32975e-05 6.95359e-05 -1.00044e-19
8.27818e-06 -9.3785e-05 -3.03165e-20
-1.23672e-05 9.65601e-05 -3.03165e-22
9.78664e-05 -1.06505e-05 3.41061e-20
6.50927e-05 -4.35424e-05 5.5176e-20
9.68568e-05 -0.000167767 6.66963e-21
-9.66131e-05 0.000167345 1.24298e-19
-6.89872e-05 -4.15984e-05 -2.9407e-20
7.24914e-05 -1.6023e-05 2.00089e-20
-0.000109463 -8.67755e-05 -4.15336e-20
1.07617e-05 3.89162e-05 -9.09495e-21
4.25939e-05 -1.58662e-05 1.06108e-20
2.02563e-05 -3.92474e-05 -4.27463e-20
-2.0764e-05 4.03252e-05 3.72286e-19
6.48325e-05 9.13708e-05 -3.81988e-20
9.64254e-05 6.4889e-05 6.66963e-21
3.24683e-05 -2.45554e-05 8.03387e-20
-0.00013798 -6.23074e-06 2.65269e-20
2.26596e-05 -5.62721e-06 1.03076e-20
-1.10145e-05 -3.95911e-05 -1.04895e-19
1.9775e-05 5.06439e-07 -2.72848e-21
-2.29454e-05 -5.95509e-06 6.21488e-20
-5.23913e-05 -4.99344e-05 -1.45216e-19
2.56776e-05 -0.000103694 2.63753e-20
-2.45667e-05 0.000103507 3.18323e-20
0.000106018 -2.78499e-05 3.24386e-20
6.53301e-05 -5.01631e-05 7.54881e-20
7.83848e-07 7.56184e-05 -9.1859e-20
-3.48584e-07 -7.59519e-05 9.09495e-22
5.21769e-05 -9.40029e-05 4.48684e-20
-4.95554e-05 9.89542e-05 1.04895e-19
7.33602e-06 1.93688e-05 1.18234e-20
7.00803e-06 -2.05537e-05 -1.21266e-21
3.67893e-05 2.77908e-05 -7.03343e-20
2.51424e-05 3.62147e-05 1.09746e-19
-5.39648e-05 3.30525e-05 1.64012e-19
6.90214e-05 3.47579e-05 -7.03343e-20
6.88673e-05 -3.53921e-05 -5.76013e-21
5.76822e-05 -3.22195e-05 -3.94114e-21
5.75612e-05 3.15647e-05 -7.27596e-20
-3.33136e-05 -0.000310172 6.50289e-20
4.56414e-05 7.13131e-05 -1.0732e-19
-0.000319503 3.74302e-05 -5.53276e-20
-4.0524e-05 -3.01344e-05 -1.437e-19
1.39776e-05 -6.90524e-05 3.21355e-20
-1.20201e-05 7.11757e-05 -2.12215e-20
0.000109658 -9.97081e-05 9.09495e-21
0.000110716 0.000100372 -2.72848e-20
5.98236e-05 3.85631e-05 -4.75969e-20
7.00943e-05 -1.74216e-05 1.21266e-20
6.51314e-05 4.52299e-05 3.03165e-21
-4.20841e-06 5.98284e-05 -7.09406e-20
4.37357e-06 -6.01793e-05 4.9719e-20
2.20881e-05 5.91648e-06 8.70083e-20
5.97123e-05 -3.88578e-05 2.33437e-20
-1.0719e-05 -1.78155e-05 -4.79001e-20
-5.21857e-05 4.23806e-05 3.42273e-19
5.33915e-05 -4.14145e-05 -2.33437e-20
3.68446e-05 -2.71483e-05 9.54969e-20
-4.11164e-05 -2.79173e-05 -1.2642e-19
8.4411e-06 1.80991e-05 1.97057e-19
1.36118e-05 6.86662e-05 -8.6402e-20
-1.40953e-05 -6.84959e-05 -3.91083e-20
5.25494e-05 3.22916e-05 -8.91305e-20
6.54218e-05 4.95063e-05 -5.39634e-20
-2.30766e-05 5.01185e-05 -7.03343e-20
-2.403e-05 -3.52372e-05 8.85242e-20
8.36613e-05 0.000151688 4.59295e-20
0.000153929 8.34624e-05 2.83459e-20
-9.56981e-05 7.15821e-05 1.36424e-19
5.27776e-05 -3.29282e-05 2.33437e-20
5.74454e-05 -1.0543e-05 -9.09495e-21
0.000180363 8.74276e-05 -1.27329e-20
0.000178418 -8.69028e-05 1.69772e-20
1.16692e-05 -3.94419e-05 1.01863e-19
-9.84115e-05 -6.73138e-05 -4.24431e-20
-9.65586e-05 6.87844e-05 1.33089e-19
-4.07403e-05 1.74661e-05 2.06455e-19
-1.02412e-05 1.53409e-05 9.42843e-20
-8.05587e-05 0.000107471 6.77574e-20
-0.000101126 -8.64434e-05 -8.76147e-20
8.66171e-05 -0.000124039 3.92599e-20
-7.87642e-05 0.000128615 7.77618e-20
0.000129762 -7.56614e-05 -1.98573e-20
-8.84295e-05 -4.78815e-05 -3.60766e-20
9.02337e-06 -1.54216e-05 1.04895e-19
-1.06018e-05 -0.000138771 -1.66741e-20
-0.000131355 1.17326e-06 -1.51582e-22
7.66594e-05 0.000105042 1.98573e-19
-7.66704e-05 -0.000104794 2.72848e-21
-4.7227e-05 3.73879e-05 2.75274e-19
-2.06874e-05 -1.50906e-06 7.57912e-20
-4.69225e-05 7.65665e-05 1.13687e-19
4.96268e-05 -7.50666e-05 5.97235e-20
-4.70035e-05 -1.39398e-05 1.17325e-19
2.50581e-05 -4.9891e-05 7.94292e-20
7.49393e-05 -5.87943e-05 -1.51582e-21
7.52379e-05 5.85615e-05 -4.27463e-20
-5.78514e-05 3.04343e-05 2.06758e-19
-3.59822e-05 2.65081e-05 2.63753e-20
-4.64316e-05 2.16075e-05 2.79215e-19
-1.06381e-05 4.31921e-05 -1.15203e-20
0.000177711 0.000177713 1.7432e-21
1.29867e-05 -7.12545e-05 2.00089e-20
-1.20574e-05 7.10951e-05 -1.06411e-19
-1.34816e-05 0.000141092 2.7679e-19
1.4335e-05 -0.000141262 -6.0633e-22
2.01987e-05 -3.77856e-05 -5.24475e-20
2.00106e-05 3.58906e-05 3.63798e-21
-6.86878e-05 -3.61142e-05 -1.35818e-19
-6.72225e-05 3.47717e-05 1.57646e-19
-0.000119349 2.17276e-05 7.57912e-21
-0.000117775 -2.22788e-05 6.21488e-20
0.000158385 -8.80751e-05 1.63709e-20
0.000160624 8.85825e-05 -1.81899e-20
4.32872e-05 1.64242e-06 6.91216e-20
4.119e-05 -1.58798e-06 -1.12777e-19
6.19901e-05 2.86436e-05 1.51582e-20
-3.76623e-06 6.27769e-05 -1.09746e-19
4.12576e-06 -6.16265e-05 5.97235e-20
6.15983e-05 -2.98245e-05 1.21266e-21
-6.82935e-06 -6.50454e-05 -5.5176e-20
6.70276e-06 6.45334e-05 -5.24475e-20
5.36076e-05 3.97379e-05 -7.97324e-20
-4.34525e-05 8.61816e-08 1.97057e-20
-4.38851e-05 -5.28912e-07 7.30627e-20
5.3567e-05 -3.99312e-05 6.33615e-20
-4.58983e-05 -3.96464e-05 -1.97057e-19
7.85181e-05 0.000136007 6.15425e-20
-7.85287e-05 -0.000136021 -3.06197e-20
-1.43739e-05 -4.7386e-05 9.03431e-20
-5.7615e-05 3.3727e-05 2.59812e-19
-8.17598e-06 7.60788e-05 2.41622e-19
9.03374e-05 -0.000159354 4.75969e-20
0.000156837 -7.4631e-05 -2.17521e-20
1.30161e-05 -4.67041e-05 -3.94114e-20
1.18992e-05 4.54321e-05 -1.54614e-20
-1.07149e-05 -7.98383e-05 -1.83112e-19
7.57372e-05 3.94469e-05 5.36602e-20
6.28125e-05 -2.09081e-05 2.88007e-20
6.27236e-05 1.99622e-05 -1.41275e-19
-0.000155504 -2.77501e-09 1.57646e-20
-0.000155778 4.38908e-10 5.39634e-20
1.21421e-05 -3.6695e-05 1.15506e-19
-5.79591e-05 3.39942e-05 2.72848e-19
4.98188e-05 5.52224e-05 -7.00311e-20
5.0198e-05 -5.54742e-05 -1.00044e-20
1.58541e-05 4.58154e-05 -1.00044e-20
8.13344e-06 1.31843e-05 7.48817e-20
0.000172507 -0.000172507 3.15291e-20
-5.24097e-05 1.73513e-05 8.18545e-21
-5.14392e-05 -1.62471e-05 6.15425e-20
-1.17667e-05 3.74213e-05 1.97057e-20
7.40353e-05 -3.99083e-05 2.0312e-20
-5.82517e-05 -2.92086e-05 -1.4946e-19
-7.61275e-05 -8.08375e-06 -6.88184e-20
-7.48006e-05 1.25202e-05 9.70128e-20
-4.555e-05 -2.13796e-05 -1.17931e-19
2.2597e-05 9.86076e-05 -1.90994e-20
2.33253e-05 -9.79438e-05 -3.57735e-20
3.07791e-05 0.000184494 1.90691e-19
-3.04064e-05 -0.000184898 -3.42576e-20
1.4242e-05 0.000307801 8.03387e-20
0.000310382 2.13753e-05 -1.25813e-20
4.69748e-05 -7.23722e-06 4.82032e-20
4.68386e-05 5.92697e-06 -1.70076e-19
-4.83695e-06 -1.34764e-05 1.19144e-19
0.000168276 -0.000209845 7.99597e-20
0.000204688 -0.000167545 1.50067e-20
7.56311e-05 0.000182575 -1.81899e-21
7.49422e-05 -0.000180913 3.69861e-20
-5.4769e-05 -3.22137e-05 -1.35212e-19
4.69826e-05 -5.11909e-05 7.94292e-20
5.05257e-05 -2.73026e-05 4.69906e-20
5.00715e-05 2.6541e-05 -1.44306e-19
3.54847e-05 -3.59339e-05 6.79089e-20
4.64976e-05 5.18156e-05 -1.19447e-19
-3.73073e-06 0.000136196 5.56308e-20
-1.79342e-06 -0.000148013 2.22826e-20
0.000141434 -4.65395e-06 1.51582e-20
3.53028e-05 3.54179e-05 -1.39759e-19
-1.48872e-05 0.000150585 5.54792e-20
0.00014885 -1.10255e-05 1.78867e-20
6.71222e-05 -1.15092e-05 3.72893e-20
6.70428e-05 9.83267e-06 -1.70379e-19
6.39651e-05 -2.2287e-05 3.78956e-20
6.37652e-05 2.11926e-05 -1.64922e-19
0.000174307 0.000214462 8.6402e-21
0.000215496 0.000174479 1.10655e-20
5.2972e-05 2.86225e-05 -1.2642e-19
5.31736e-05 -2.91795e-05 4.60811e-20
1.85424e-05 0.000108425 2.53446e-19
-1.80689e-05 -0.000108206 0
4.93289e-05 1.89284e-05 4.75969e-20
4.74753e-05 -2.12018e-05 -1.95238e-19
7.36949e-05 -7.0143e-05 -1.60677e-20
7.39479e-05 7.02667e-05 -4.12304e-20
-4.40406e-05 -1.03598e-05 -9.54969e-20
-4.68355e-05 1.15168e-05 8.39767e-20
-7.33102e-05 -0.000137376 -1.21266e-20
-0.00015456 -2.42307e-06 1.60677e-20
-0.000154683 2.72697e-06 4.09273e-20
7.33259e-05 0.000137355 1.14596e-19
6.91543e-05 0.000133285 -4.54747e-21
0.000102365 0.000102553 1.81899e-21
6.89093e-05 -0.000131896 -1.60677e-20
0.000101344 -0.00010188 -6.66963e-21
0.000123185 5.1028e-05 0
0.000126172 -5.22602e-05 -1.2642e-19
0.000325561 -4.28592e-05 -6.85153e-20
0.000321657 4.2345e-05 -3.51671e-20
0.000159212 -3.58001e-06 1.30361e-20
0.000108435 3.00427e-05 2.88007e-20
0.000161877 1.86373e-06 -1.43397e-19
0.000109451 -3.28538e-05 -1.79474e-19
0.000151718 4.88975e-05 -4.36557e-20
0.000149507 -4.85223e-05 4.24431e-21
0.000114607 -4.55819e-05 3.6683e-20
0.000115998 -4.51488e-05 2.36469e-20
0.000115804 4.50367e-05 -1.03986e-19
0.000117198 4.46028e-05 -2.66785e-20
-9.72614e-06 6.03722e-05 -2.51324e-19
7.32201e-06 -6.65107e-05 8.70083e-20
-5.40903e-05 -1.05792e-05 -3.94114e-21
-6.77191e-05 -1.86164e-05 3.78956e-20
-1.12633e-05 7.82469e-05 -2.48595e-19
6.59864e-06 -7.49259e-05 7.39722e-20
-7.23252e-05 1.73893e-05 3.15291e-20
-2.25173e-05 3.63188e-05 -5.66918e-20
-3.82676e-05 9.39392e-05 -1.69469e-19
-3.6609e-05 -9.17411e-05 1.30967e-19
9.38078e-05 3.772e-05 -4.9719e-20
5.31509e-05 -4.99221e-05 -2.54659e-20
5.09105e-05 5.27254e-05 -2.12215e-19
-5.27408e-05 -3.56357e-05 5.06285e-20
1.47838e-05 -7.32463e-05 9.09495e-22
6.10586e-06 7.99604e-05 -1.81596e-19
5.64838e-05 -1.32851e-05 7.70039e-20
-2.5223e-05 -0.000113267 1.10655e-19
-3.06061e-05 0.000108649 -2.36469e-19
0.00011191 2.60586e-05 9.09495e-22
-7.49636e-05 1.62289e-05 6.94248e-20
2.84651e-05 7.07013e-05 -1.76745e-19
3.54622e-05 -8.05425e-05 1.27026e-19
-5.10381e-05 8.85747e-06 -2.00089e-20
-7.69416e-05 -0.000166859 1.37182e-19
-4.37168e-05 -2.30886e-05 -3.27418e-20
0.000166616 7.90981e-05 9.09495e-21
-2.12256e-06 7.46941e-05 -2.21007e-19
1.33236e-05 -7.23118e-05 2.18279e-20
-0.000169049 8.21839e-05 5.85108e-20
-0.000164538 -8.51291e-05 8.79178e-21
-0.000109879 3.45637e-05 6.4271e-20
-3.40517e-05 -5.04428e-05 6.97279e-21
-6.62664e-05 -3.50489e-05 3.72893e-20
-7.15088e-05 3.47574e-05 4.60811e-20
-1.11917e-05 -2.45245e-05 -2.30405e-20
4.39784e-05 5.00237e-05 -1.0156e-19
4.8386e-05 -6.33135e-05 1.51279e-19
-7.04756e-05 4.60713e-05 3.00133e-20
-2.0387e-05 -2.48783e-07 -4.60811e-20
-4.53171e-05 -5.40578e-05 4.63842e-20
-4.6371e-05 4.92608e-05 -4.42621e-20
-1.99893e-05 -7.47471e-05 2.9407e-20
-2.56111e-05 7.15523e-05 -9.45875e-20
2.22735e-05 -5.97299e-05 1.46429e-19
8.23861e-06 4.88004e-05 -2.42229e-19
-7.18941e-05 4.59489e-05 -9.70128e-21
-0.000179206 -0.00017921 4.27463e-20
0.000178053 0.00017806 1.24298e-20
1.91443e-05 -3.7048e-05 -3.88051e-20
1.53108e-05 3.92467e-05 -2.01301e-19
0.000178773 0.000190293 -1.18234e-20
-0.000187404 -0.000179606 5.77529e-20
8.67353e-05 1.51325e-05 -5.60855e-20
6.99707e-05 -3.78364e-05 8.24609e-20
4.03167e-05 -1.9111e-05 1.23691e-19
8.13053e-05 5.33363e-05 1.51582e-20
6.66075e-05 -6.15108e-05 7.00311e-20
2.68468e-05 5.04032e-05 -1.95845e-19
3.40249e-05 -6.25363e-05 1.43094e-19
-6.90465e-05 -0.000131897 -1.18234e-20
-7.10187e-05 0.000133284 3.85019e-20
6.01695e-05 3.29183e-05 2.48595e-20
5.51805e-05 -4.63145e-05 8.0945e-20
-9.69535e-05 4.07101e-05 8.18545e-21
-7.93274e-05 0.000123378 -2.73455e-19
-3.57456e-05 -0.000101075 2.78912e-20
-8.61017e-05 0.000161173 -2.08881e-19
-0.000163834 8.50168e-05 -1.57646e-20
6.84539e-06 4.85043e-05 -2.89219e-19
1.80444e-05 -5.88311e-05 1.26723e-19
0.000169683 7.02915e-05 -4.36557e-20
0.000133959 -5.54803e-05 -5.45697e-21
5.72891e-05 2.79018e-05 8.48862e-20
5.41553e-05 -3.83703e-05 6.12393e-20
-0.000101545 -2.31988e-05 5.8814e-20
7.1975e-05 -2.15933e-05 6.18456e-20
-8.65929e-05 -1.36992e-05 6.63931e-20
-6.18791e-05 -5.43959e-05 2.27374e-20
-7.46743e-05 0.000129328 1.00044e-20
-7.35268e-05 -0.000127352 1.84931e-20
-7.64623e-05 -8.88931e-05 1.21872e-19
-5.68346e-05 3.26499e-05 3.3045e-20
5.63072e-05 2.71111e-05 5.03254e-20
1.00968e-06 -0.000110015 2.72848e-21
-1.32979e-05 0.000139439 -1.14293e-19
-6.60759e-05 5.91252e-05 1.94026e-20
1.43266e-05 -6.54335e-05 2.7588e-20
5.16335e-06 6.38419e-05 -1.97057e-19
4.08072e-05 1.07835e-05 1.94632e-19
3.75199e-05 -1.73516e-05 1.11565e-19
9.75148e-05 -8.01909e-05 1.2551e-19
4.91555e-05 4.35053e-05 1.92207e-19
4.32698e-05 -4.99519e-05 9.73159e-20
5.44495e-05 -3.86346e-05 5.57823e-20
3.69537e-05 3.07323e-05 1.92207e-19
3.34711e-05 -3.95672e-05 8.42798e-20
-5.90674e-05 2.64714e-05 -4.24431e-21
3.08714e-05 2.28389e-05 -1.43397e-19
3.72936e-05 -4.35918e-05 1.03682e-19
-7.10058e-05 -5.02628e-05 8.48862e-20
1.09429e-05 -3.83822e-05 1.51582e-19
-9.15579e-06 1.60257e-05 -2.26767e-19
7.58381e-05 9.35363e-06 6.97279e-21
-5.80247e-05 3.43431e-05 3.00133e-20
-6.01777e-05 -2.96201e-05 2.09184e-20
-4.56467e-05 -6.13413e-05 9.54969e-20
-5.28388e-05 -3.82177e-05 7.85197e-20
9.79971e-06 -6.7786e-05 7.03343e-20
1.10831e-06 6.59489e-05 -2.3374e-19
9.60907e-05 -4.52355e-05 9.32232e-20
-3.46933e-05 2.36226e-05 -9.27685e-20
-3.20097e-05 -2.75795e-05 -3.06197e-20
5.06302e-05 -8.1923e-05 1.83415e-19
4.64997e-05 7.10405e-05 -9.33748e-20
-5.62363e-05 3.26827e-05 3.21355e-20
-2.20813e-05 3.58902e-05 -1.39456e-20
-2.18878e-05 -3.7786e-05 -2.63753e-20
-5.31042e-05 5.01698e-05 1.42487e-20
1.19643e-05 -0.000100361 1.38395e-19
1.31564e-05 9.59266e-05 -2.27828e-19
9.9556e-05 -9.50477e-06 4.98706e-20
9.83988e-05 6.79664e-05 -8.30672e-20
6.773e-05 -5.21108e-05 1.60981e-19
-7.79729e-05 -0.000135062 -3.85019e-20
-9.5567e-05 0.000165527 -7.45786e-20
7.37329e-05 -2.05935e-05 5.82077e-20
1.15308e-05 3.78764e-05 -1.76745e-19
2.39181e-05 -5.42717e-05 1.42184e-19
4.21588e-05 1.17714e-05 1.50067e-19
-8.95559e-06 -7.16563e-05 6.48773e-20
-1.34258e-05 6.80086e-05 -1.87659e-19
-2.01377e-05 3.98345e-05 -3.09228e-19
5.46846e-06 -5.0252e-05 1.07017e-19
2.28804e-05 -5.85783e-06 -1.47641e-19
3.23951e-05 -2.60043e-05 1.47035e-19
1.90265e-05 -3.59393e-06 1.4461e-19
6.53262e-05 4.37136e-05 -4.82032e-20
-2.03323e-05 4.54462e-06 -4.63842e-20
-2.45495e-05 -6.76744e-06 -1.03076e-19
6.56121e-05 4.75024e-05 -5.3357e-20
-7.52445e-05 9.15152e-05 -7.79134e-20
-3.93514e-05 2.98831e-05 -1.84931e-20
3.27153e-05 -0.000111507 1.30664e-19
2.77915e-05 0.000103788 -2.02514e-19
0.000111218 -3.32748e-05 9.41327e-20
6.82543e-05 -6.04656e-05 1.74017e-19
6.20443e-07 7.57419e-05 -2.55871e-19
9.11412e-06 -8.15597e-05 9.004e-20
5.62967e-05 -0.000102349 1.31574e-19
5.30384e-05 9.08254e-05 -1.07927e-19
6.824e-06 1.64943e-05 2.17976e-19
6.26621e-06 -2.35221e-05 1.05198e-19
3.68202e-05 2.68136e-05 -1.34908e-19
4.16606e-05 -4.65094e-05 1.2642e-19
2.59232e-05 -3.46902e-05 -4.03209e-20
2.49139e-05 3.58167e-05 -2.1646e-19
-5.06443e-05 -3.4938e-05 5.12349e-20
-0.00010784 -8.80961e-05 9.06463e-20
2.00749e-05 -7.98205e-05 1.21266e-19
1.43292e-05 7.00376e-05 -2.13731e-19
6.75688e-05 3.26975e-05 6.73026e-20
5.64902e-05 -4.62853e-05 8.76147e-20
5.94836e-05 -5.05662e-05 1.18234e-19
5.71255e-05 2.97753e-05 1.97057e-20
5.36096e-05 -4.46799e-05 6.66963e-20
-3.32482e-05 -0.000325164 1.54614e-19
0.000322698 4.68039e-05 1.40972e-20
0.000108079 9.72991e-05 2.54659e-20
8.49961e-05 -9.42195e-05 5.27507e-20
5.97677e-05 3.67204e-05 -4.36557e-20
-0.000135137 -1.02709e-05 6.65447e-20
1.37247e-06 -5.8927e-05 6.97279e-21
-4.23167e-06 5.91228e-05 -1.81596e-19
-4.90949e-05 7.16013e-05 -7.00311e-20
-5.14442e-05 4.18819e-05 -3.43486e-19
-1.89036e-05 -5.18462e-05 6.63931e-20
-7.01899e-05 -4.77392e-05 8.73115e-20
6.86576e-05 1.32834e-05 6.0633e-20
8.80776e-06 1.76569e-05 -1.69469e-19
2.42648e-05 -3.95915e-05 1.52795e-19
-1.93062e-05 -5.14746e-05 -2.395e-20
-2.40046e-05 4.93834e-05 -9.64064e-20
5.24891e-05 3.04466e-05 -5.97235e-20
5.2803e-05 -4.4797e-05 9.94381e-20
1.47112e-05 6.91072e-05 -2.57993e-19
2.18166e-05 -7.55781e-05 1.01863e-19
-8.66528e-05 0.000154965 -1.08078e-19
-0.000154419 8.59453e-05 -5.98751e-20
5.74398e-05 6.7019e-06 9.33748e-20
0.000175749 8.48914e-05 -6.97279e-20
0.000143923 -7.94603e-05 2.12215e-20
-9.7707e-05 6.72393e-05 4.85064e-20
-9.27625e-05 -6.89186e-05 2.91038e-20
-3.99751e-05 -1.87145e-05 -3.60766e-20
-7.54483e-06 -1.68773e-05 -5.1538e-20
-9.53105e-06 1.52814e-05 -1.73713e-19
8.85544e-05 0.000110313 -2.45564e-20
-0.000103689 -8.79022e-05 1.24601e-19
9.13014e-05 -0.000132876 1.24298e-19
8.96701e-05 0.00012617 -1.00044e-19
0.000138864 -8.41049e-05 5.94203e-20
-9.54177e-06 -0.000145932 1.28087e-19
0.000145863 7.24032e-06 1.90994e-20
7.5939e-05 0.000103955 -1.77048e-19
7.34319e-05 -9.14289e-05 -2.9407e-20
-4.55069e-05 -3.88027e-05 4.15336e-20
-1.97625e-05 5.06046e-07 -3.18323e-20
5.43194e-05 -8.54708e-05 1.54008e-19
5.12355e-05 7.55372e-05 -1.43397e-19
-4.60994e-05 1.2937e-05 -6.48773e-20
7.33226e-05 5.6338e-05 6.12393e-20
5.94957e-05 -6.41706e-05 7.36691e-20
-5.55548e-05 -3.20936e-05 6.85153e-20
-4.00067e-05 2.681e-05 -8.76147e-20
-3.35635e-05 -2.83211e-05 -4.54747e-20
-4.38782e-05 -2.28981e-05 -3.03165e-21
-8.59745e-05 -5.12443e-05 1.02773e-19
-1.15687e-05 3.95508e-05 -1.13384e-19
-6.77487e-06 -4.26939e-05 -5.60855e-20
-0.000179565 0.000179558 -6.74542e-21
-1.26394e-05 7.00765e-05 -1.9736e-19
-7.94768e-06 -7.42705e-05 4.91127e-20
-1.31903e-05 0.000139579 -2.41926e-19
5.82853e-06 -0.000116263 -2.12215e-21
1.89509e-05 3.24002e-05 2.32831e-19
1.75472e-05 -3.81011e-05 7.18501e-20
-6.36979e-05 -3.60962e-05 5.82077e-20
-6.77972e-05 3.58162e-05 2.9407e-20
-0.000113549 2.02996e-05 1.72804e-20
-0.000118676 -2.19341e-05 5.30539e-20
0.000156889 8.59944e-05 -7.33659e-20
0.000116322 -8.10767e-05 7.09406e-20
4.08568e-05 -1.93816e-06 -1.81293e-19
4.30862e-05 -2.83348e-05 1.30967e-19
6.23518e-05 2.62251e-05 -2.2131e-20
2.08626e-06 -6.38386e-05 1.87962e-20
-3.82228e-06 6.19406e-05 -1.74926e-19
5.71283e-05 -5.09913e-05 1.6189e-19
-9.87336e-05 6.69458e-05 -2.30405e-20
6.2311e-05 -3.73317e-05 7.18501e-20
5.43497e-05 3.74616e-05 -4.18368e-20
-4.28868e-05 -8.07872e-07 -1.27329e-20
-4.04617e-05 -1.2978e-06 -8.79178e-21
-4.46408e-05 3.90594e-05 -1.06108e-20
7.77086e-05 0.00013461 -1.21266e-21
6.83072e-05 -0.000118309 3.94114e-21
-5.54382e-05 -3.56148e-05 6.48773e-20
-5.57026e-06 -7.63239e-05 -3.00133e-20
9.50488e-05 -0.000168443 2.82701e-20
0.000163949 -8.30221e-05 3.0847e-20
1.0435e-05 4.29753e-05 2.24645e-19
8.98619e-06 -4.79114e-05 9.03431e-20
-9.29764e-06 7.97767e-05 1.45519e-20
1.81812e-05 -7.28687e-05 1.28845e-19
6.98952e-06 6.33519e-05 -2.5284e-19
7.63113e-05 3.71356e-05 -2.33437e-20
6.19404e-05 1.88091e-05 -8.91305e-20
5.598e-05 -3.99437e-05 6.12393e-20
-0.000151024 -5.08126e-10 2.72848e-21
-0.000154859 -4.72967e-09 1.09139e-20
-5.71392e-05 -3.68573e-05 6.82121e-20
4.89454e-05 5.2729e-05 1.33089e-19
4.30242e-05 -6.06206e-05 8.88273e-20
1.57297e-05 4.52444e-05 -1.86143e-19
1.98585e-05 -4.60734e-05 -2.97102e-20
1.11087e-05 -1.46829e-05 -5.03254e-20
7.06781e-06 1.24912e-05 -2.03424e-19
0.000180897 -0.00018089 1.34908e-20
-4.81468e-05 1.43526e-05 -1.21266e-21
-5.11179e-05 -1.7517e-05 4.03209e-20
-1.20761e-05 3.63585e-05 -1.916e-19
-7.77009e-06 -3.77177e-05 -4.51716e-20
7.70199e-05 -4.83822e-05 9.39811e-20
-5.77332e-05 2.91391e-05 3.03165e-20
-7.17571e-05 -1.32422e-05 3.39545e-20
-7.47154e-05 9.73873e-06 8.48862e-21
-4.45958e-05 2.09299e-05 -4.88095e-20
2.09883e-05 9.54328e-05 1.73107e-19
1.80485e-05 -9.29437e-05 8.51893e-20
3.05497e-05 0.000182506 -5.72982e-20
3.66259e-05 -0.000150488 -2.88007e-20
-1.80637e-05 0.000320658 -1.38243e-19
-0.000319152 1.47697e-05 -3.10744e-20
4.65765e-05 5.2939e-06 -1.45519e-19
4.7323e-05 -3.23861e-05 6.36646e-20
0.000177234 -0.000220139 4.72179e-20
0.000220712 -0.000174694 -1.87204e-20
6.32769e-05 -0.000152738 -7.88229e-21
7.3602e-05 0.00017769 -5.5176e-20
-5.43123e-05 3.20572e-05 0
4.96942e-05 2.51805e-05 -1.14899e-19
4.90715e-05 -4.35357e-05 6.33615e-20
4.67728e-05 5.0515e-05 -8.15514e-20
4.98373e-05 -6.35682e-05 1.5522e-19
1.27888e-06 -0.000157194 1.45368e-19
3.55382e-06 0.000137277 -1.74168e-19
0.000156614 -2.7421e-06 4.62326e-20
3.54749e-05 3.41401e-05 -1.04289e-19
4.09008e-05 -5.06473e-05 1.20963e-19
1.54025e-05 0.000151407 -2.19946e-19
-0.000150401 -2.22778e-05 3.09228e-20
6.60309e-05 9.05307e-06 -1.61587e-19
5.82406e-05 -3.44959e-05 7.24564e-20
6.28922e-05 1.99336e-05 -1.29755e-19
5.64942e-05 -4.05511e-05 6.39678e-20
-0.00017676 0.000216673 -9.98928e-20
-0.000218652 0.000176442 -1.90994e-20
5.28312e-05 2.74312e-05 -9.004e-20
5.26527e-05 -4.61064e-05 1.01257e-19
2.75535e-05 -9.41004e-05 -3.27418e-20
1.84532e-05 0.0001073 -1.35212e-19
4.7002e-05 -2.11209e-05 -1.79474e-19
4.6881e-05 -1.64857e-05 1.03682e-19
7.21298e-05 6.72068e-05 1.12777e-19
5.88063e-05 -7.04451e-05 6.91216e-20
-4.29789e-05 -1.36991e-05 2.15247e-20
-4.33797e-05 1.02029e-05 -2.15247e-20
7.0725e-05 -0.000117681 -1.90994e-20
-0.000149417 -4.00081e-06 1.27329e-20
-0.00015397 2.27312e-06 3.69861e-20
7.26404e-05 0.000135925 -4.09273e-20
6.70388e-05 0.000129733 1.00954e-19
9.97301e-05 9.94799e-05 2.60722e-20
5.49622e-05 -0.000120435 4.06241e-20
8.2614e-05 -9.4842e-05 4.06241e-20
0.000123561 -5.11751e-05 -1.15506e-19
0.000317528 -4.17894e-05 -9.09495e-21
0.00025067 3.30182e-05 1.21266e-20
7.22394e-05 2.99293e-05 5.63887e-20
0.000158231 1.38467e-06 -1.33089e-19
0.000107169 -3.24317e-05 -1.46732e-19
0.000148261 4.75452e-05 -1.03682e-19
0.000110704 -2.83707e-05 4.66874e-20
0.000107657 -4.24804e-05 3.81988e-20
8.26066e-05 -9.76643e-06 1.0156e-19
0.000113344 4.32841e-05 -1.22479e-19
0.000114396 4.29568e-05 -3.45608e-20
8.63093e-05 -5.51198e-05 6.85153e-20
8.96591e-05 -5.40763e-05 5.09317e-20
9.66971e-06 1.99565e-06 -2.78912e-20
8.00416e-06 5.08835e-06 -5.09317e-20
2.24343e-05 -8.58421e-07 -4.63842e-20
7.64534e-06 -1.16347e-06 2.39197e-19
7.76882e-06 -1.0955e-06 2.66179e-19
6.9273e-06 1.7611e-05 -9.09495e-21
2.35945e-05 -1.43569e-05 -4.72937e-20
7.39672e-06 1.57368e-06 2.61025e-19
2.0401e-05 1.75565e-05 1.20053e-19
8.39793e-06 8.18364e-07 1.75836e-20
8.46674e-06 -7.32634e-07 1.27329e-19
7.39261e-06 5.94026e-08 -6.4271e-20
4.62867e-05 -7.91317e-07 9.33748e-20
-5.11321e-06 -8.88119e-06 -1.00044e-19
9.69139e-06 5.44841e-06 -4.39589e-20
1.60355e-05 5.06624e-06 -4.79001e-20
1.95696e-05 1.54498e-05 5.21444e-20
1.01511e-05 -1.82105e-05 -5.5176e-20
6.31294e-06 6.36492e-07 -1.04895e-19
8.84103e-06 -4.17861e-08 -2.7588e-20
8.87586e-06 5.28751e-08 6.57868e-20
7.00304e-06 3.10812e-07 -9.27685e-20
7.15567e-06 4.77442e-06 1.78867e-20
5.58155e-06 7.75382e-07 2.76486e-19
2.94019e-06 4.5541e-06 6.79089e-20
7.78958e-06 1.43109e-06 -1.15809e-19
8.41352e-06 1.16799e-06 2.25252e-19
7.89726e-06 -1.09272e-07 1.78867e-20
9.66007e-06 -1.04574e-05 1.77958e-19
6.96771e-06 -1.79934e-07 -5.3357e-20
1.68939e-05 1.37372e-05 3.81988e-20
1.89773e-05 -1.2562e-05 -3.45608e-20
-8.77442e-05 -4.46085e-05 3.57735e-20
-8.79445e-05 4.22407e-05 2.91038e-20
6.68691e-06 1.94924e-07 2.50717e-19
4.02067e-06 5.83231e-06 1.42487e-20
-1.70658e-05 -5.50621e-06 4.18368e-20
-1.97613e-05 6.42555e-06 8.6402e-20
2.577e-05 -1.11688e-05 1.30664e-19
7.995e-06 1.15727e-06 -1.18841e-19
5.33171e-06 -8.85849e-07 2.5193e-19
2.14259e-05 -3.63767e-08 1.42791e-19
7.18182e-06 -4.60648e-06 2.35559e-19
9.60511e-06 -2.00438e-06 1.90388e-19
5.2011e-06 4.19001e-06 -1.27936e-19
6.73048e-06 -7.65206e-07 2.46473e-19
9.69318e-06 -1.57927e-06 1.15203e-20
8.30883e-06 -3.133e-06 -4.24431e-20
2.68297e-05 -8.15825e-06 1.4461e-19
8.47796e-06 -2.76381e-07 -5.09317e-20
6.50827e-06 -1.73296e-06 4.00178e-20
1.40709e-05 -8.25982e-07 1.18234e-19
1.40779e-05 8.19266e-07 4.72937e-20
4.48251e-06 1.31425e-06 1.00309e-36
1.31759e-05 -7.12464e-06 1.38243e-19
1.31811e-05 7.12988e-06 5.94203e-20
7.87497e-06 2.50176e-06 -1.63709e-19
-2.29859e-05 -8.3387e-05 2.33437e-20
-2.30863e-05 8.36873e-05 3.60766e-20
9.55042e-06 -3.29069e-06 1.63103e-19
9.5433e-06 3.28983e-06 1.14596e-19
6.73826e-06 2.19337e-07 1.87659e-19
6.38712e-05 -4.39103e-05 -2.12215e-20
-1.60282e-05 3.64024e-05 2.24342e-20
7.99459e-06 -1.15505e-06 -9.09495e-21
7.95906e-06 -1.9023e-08 5.36602e-20
6.56391e-06 3.34841e-07 1.26117e-19
8.32986e-06 4.85509e-06 -1.11868e-19
1.46237e-05 4.73585e-06 -5.63887e-20
2.71516e-05 -1.12468e-05 1.33393e-20
2.71708e-05 1.12547e-05 8.48862e-21
2.45194e-05 2.07723e-05 -6.39678e-20
7.88794e-06 -2.95542e-06 1.16415e-19
7.86509e-06 3.05073e-06 3.09228e-20
5.1608e-07 1.27591e-05 -2.42532e-20
3.20482e-06 -5.63363e-06 -1.15809e-19
6.73564e-06 -1.42838e-07 2.4617e-19
5.9668e-06 -6.31272e-07 2.83762e-19
-1.2321e-05 -2.64327e-05 9.33748e-20
-3.86165e-05 6.68816e-05 1.94026e-20
-3.88529e-05 -6.72911e-05 3.03165e-20
6.90262e-06 9.21931e-07 6.73026e-20
3.60734e-06 8.10767e-07 2.41622e-19
6.25141e-06 1.68127e-06 -5.82077e-20
9.73846e-06 4.26711e-05 4.85064e-21
1.89996e-05 -5.48235e-05 -6.0633e-21
-1.4572e-05 2.97022e-05 8.33703e-20
1.88317e-05 2.83042e-06 7.54881e-20
1.11245e-05 -5.42654e-06 -3.69861e-20
5.03386e-06 -1.75901e-06 1.33393e-19
4.94513e-06 1.62677e-06 4.54747e-20
7.4649e-06 -5.43077e-07 -5.57823e-20
6.29805e-06 6.29036e-07 -1.3885e-19
7.20885e-06 -5.99292e-06 1.35212e-19
7.18082e-06 6.05149e-06 8.12482e-20
6.34216e-06 -1.69768e-06 1.00044e-19
7.81381e-06 -1.38782e-06 -6.0633e-22
4.72381e-06 -3.38465e-06 1.30361e-19
4.59695e-06 3.32678e-06 5.76013e-20
5.71936e-06 7.07812e-06 2.18582e-19
7.1888e-06 1.28143e-07 -3.81988e-20
5.8608e-06 1.40743e-06 1.85234e-19
6.02144e-06 3.04933e-05 -3.63798e-21
3.03005e-06 9.92866e-08 -8.73115e-20
6.94749e-06 2.85968e-07 -1.52189e-19
-4.36297e-06 7.45951e-06 1.64012e-19
5.68975e-06 -6.20127e-06 2.38591e-19
6.97168e-06 9.85371e-07 8.94336e-20
3.32564e-06 -5.90096e-07 1.57039e-19
1.23358e-05 -6.05606e-06 -2.48595e-20
1.12607e-05 6.76464e-06 -3.63798e-21
7.44746e-06 -8.70569e-08 -6.18456e-20
4.42249e-07 -1.29809e-05 1.57343e-19
7.9221e-06 -6.99334e-07 -4.06241e-20
7.93441e-06 6.52258e-07 -1.18841e-19
2.84354e-06 7.68932e-07 2.08274e-19
1.67837e-05 2.11126e-05 6.97279e-20
1.71695e-05 -2.18316e-05 7.67007e-20
9.68739e-06 2.00317e-06 -4.51716e-20
2.58605e-06 -3.98597e-06 2.18279e-19
8.53275e-06 -1.41765e-07 -3.78956e-20
8.5798e-06 1.38949e-07 -6.97279e-21
6.87369e-06 -2.26901e-08 -7.88229e-20
7.46505e-06 5.088e-07 -9.58001e-20
7.65248e-06 -7.20076e-07 -3.39545e-20
-3.23414e-05 5.60137e-05 -2.72848e-20
3.44813e-05 -5.97338e-05 6.66963e-21
6.93256e-06 -3.67478e-07 -4.36557e-20
6.13796e-06 1.08107e-06 -1.437e-19
4.57806e-06 -1.41961e-06 3.21355e-20
9.76518e-06 -2.05094e-06 9.73159e-20
4.04509e-07 5.79173e-06 -3.09228e-20
3.06232e-05 7.53743e-06 -5.97235e-20
7.24736e-06 -1.86014e-07 1.27329e-20
6.37069e-06 -2.80942e-06 -6.4271e-20
1.45748e-05 1.0327e-05 -4.54747e-20
2.26774e-06 1.82374e-08 1.63709e-19
7.63161e-06 6.2911e-07 -1.01257e-19
6.43298e-06 -3.09279e-05 1.46429e-19
7.6669e-06 1.00353e-06 -1.23085e-19
6.79452e-06 -8.42221e-07 1.94632e-19
4.46372e-06 -6.7557e-06 1.93419e-19
8.78713e-06 -2.86634e-07 -4.12304e-20
8.81291e-06 2.64165e-07 -4.24431e-20
7.04719e-06 -4.07916e-07 -7.76102e-20
7.66197e-06 -9.84752e-07 -2.91038e-20
1.15298e-05 1.36153e-06 -2.395e-20
1.20976e-05 -1.27141e-06 -4.57779e-20
8.11924e-06 -1.57435e-07 -4.72937e-20
8.16549e-06 1.77454e-07 -6.54836e-20
7.80712e-07 -2.43456e-06 2.08577e-19
7.26972e-07 2.35458e-06 8.42798e-20
7.63492e-06 4.26213e-07 -8.97368e-20
3.26334e-05 -1.02314e-05 1.60677e-19
-6.88571e-06 5.01262e-06 1.97057e-20
6.59719e-06 -2.45724e-07 1.20356e-19
9.30681e-06 1.50234e-06 -9.39811e-20
1.06039e-05 -3.25965e-06 1.26117e-19
1.06089e-05 3.26338e-06 9.94381e-20
7.9989e-06 -1.68867e-06 1.65528e-19
7.98248e-06 1.67296e-06 7.82165e-20
8.38039e-06 -2.66483e-07 4.54747e-21
5.3014e-06 -4.01839e-07 -3.51671e-20
9.22709e-06 -1.58932e-06 -3.09228e-20
1.73872e-05 -1.4499e-05 5.76013e-20
1.73989e-05 1.45073e-05 1.51582e-20
7.6783e-06 1.11371e-06 -4.66874e-20
6.53387e-06 -6.51823e-08 1.70985e-19
6.30364e-06 -7.34404e-07 -6.36646e-20
1.55604e-05 1.18716e-06 1.02167e-19
7.89135e-06 -6.99849e-06 -3.91083e-20
6.71551e-06 -7.82049e-07 2.42835e-19
6.21072e-06 2.85719e-06 -4.91127e-20
7.67445e-06 -1.12288e-06 7.39722e-20
1.3232e-05 1.94561e-05 -4.09273e-20
-5.69115e-06 6.19021e-06 6.0633e-21
4.66298e-05 6.49011e-06 -5.5176e-20
7.63292e-06 -4.14465e-07 3.39545e-20
2.81777e-06 1.42371e-05 -4.45652e-20
5.54145e-06 1.36049e-07 2.4041e-19
4.5476e-06 2.37118e-07 -9.70128e-20
9.87976e-06 -5.79432e-06 1.5522e-19
1.05485e-05 -4.31119e-07 -5.82077e-20
8.27752e-06 1.63017e-06 2.78912e-20
8.84571e-06 2.62539e-06 -8.67052e-20
-7.09778e-07 -4.26175e-06 -1.44306e-19
8.03231e-06 8.0604e-07 5.57823e-20
7.67747e-06 4.44645e-07 7.88229e-20
8.2874e-06 -1.647e-06 1.46125e-19
6.37789e-06 -7.74789e-07 1.21266e-20
2.78292e-05 -1.28777e-05 1.81899e-20
2.78482e-05 1.2885e-05 -1.57646e-20
6.0003e-06 -1.21166e-06 -1.69772e-20
-3.90539e-05 -3.36122e-05 1.75836e-20
-4.06581e-05 3.23344e-05 6.2452e-20
1.42981e-05 -5.0358e-06 2.01301e-19
1.33765e-05 -2.07336e-05 1.70682e-19
8.08351e-06 -6.25871e-07 -4.42621e-20
7.92251e-06 -1.83828e-07 5.27507e-20
8.15049e-06 -1.84692e-07 -3.54703e-20
8.13821e-06 1.51129e-07 -3.94114e-20
7.06757e-06 2.64096e-07 -5.3357e-20
4.62253e-06 2.63225e-07 -1.04895e-19
8.42232e-06 5.02877e-08 4.85064e-21
7.0159e-06 -1.85392e-08 -4.33526e-20
6.11922e-05 2.97188e-05 7.21532e-20
-1.48418e-05 -2.87919e-05 -8.91305e-20
5.63564e-06 -9.33127e-06 1.53705e-19
2.18024e-05 4.18689e-07 1.09746e-19
8.24388e-06 9.499e-07 -6.79089e-20
8.22683e-06 -9.56364e-07 -3.94114e-20
1.25479e-05 4.51644e-06 1.85234e-19
7.90375e-06 -2.69727e-06 4.24431e-21
1.16245e-05 -7.70792e-06 8.67052e-20
1.16313e-05 7.71028e-06 4.42621e-20
-2.51865e-06 1.10584e-06 7.21532e-20
2.83076e-06 -1.44138e-05 2.04636e-19
5.95294e-06 -6.08405e-06 1.89781e-19
7.0183e-06 4.63983e-07 1.55524e-19
1.42887e-05 -9.28045e-06 1.86143e-19
9.26611e-06 2.54108e-06 9.39811e-21
1.09723e-05 1.12335e-06 4.30494e-20
8.85645e-06 -2.41306e-06 -2.36469e-20
1.15564e-05 4.50283e-05 1.33393e-20
2.48831e-05 -4.71955e-05 -3.27418e-20
2.4979e-06 -4.67778e-06 2.43745e-19
2.49123e-06 4.65423e-06 7.82165e-20
-1.73061e-05 -5.40822e-06 2.66785e-20
-1.76379e-05 7.03125e-06 1.03076e-19
-5.49767e-05 3.47391e-05 5.45697e-21
-5.63277e-05 -3.43088e-05 5.57823e-20
2.55096e-05 -1.30134e-05 1.57646e-20
2.55288e-05 1.30207e-05 -1.45519e-20
8.44967e-06 2.40569e-06 -4.00178e-20
8.43807e-06 -2.35864e-06 -4.12304e-20
7.58836e-06 1.4778e-06 -9.45875e-20
1.50098e-05 -2.6024e-06 1.05805e-19
8.70474e-06 -2.24821e-06 -1.27329e-20
6.80924e-06 -8.26822e-07 2.07971e-19
7.59557e-06 -1.50072e-06 6.36646e-20
1.4562e-05 1.47475e-06 -5.12349e-20
7.77586e-06 1.10024e-06 -1.04289e-19
-8.48924e-06 -2.60781e-05 9.004e-20
-8.57126e-06 2.58385e-05 2.91038e-20
7.7963e-06 -1.1016e-06 1.09139e-20
5.48265e-06 1.09288e-05 1.33089e-19
3.43996e-05 5.95931e-05 1.51582e-20
-2.22949e-05 -3.86136e-05 -2.54659e-20
3.15876e-06 -3.76872e-06 -7.51849e-20
-3.06762e-06 -6.27694e-06 1.36727e-19
2.53249e-05 -4.10932e-05 5.94203e-20
8.05383e-06 7.33494e-07 -2.395e-20
7.69735e-06 2.91295e-07 -4.66874e-20
1.51069e-06 -5.9035e-06 1.47944e-19
1.51177e-06 5.80636e-06 7.45786e-20
2.32979e-05 4.34758e-05 5.60855e-20
8.30426e-06 2.22182e-06 -1.35818e-19
6.9726e-06 1.01845e-06 -1.31574e-19
9.90533e-06 -4.4047e-07 1.63709e-19
9.90358e-06 4.21095e-07 9.94381e-20
-8.06613e-05 -1.95537e-10 1.39456e-20
-8.06509e-05 2.15856e-10 1.21266e-20
5.73918e-06 -2.7284e-06 -5.94203e-20
3.76769e-06 -6.5326e-07 1.92813e-19
7.18777e-06 -6.9341e-06 9.70128e-20
7.15892e-06 6.94016e-06 7.82165e-20
2.69303e-05 -6.71823e-06 1.42488e-19
2.33196e-05 -2.24052e-05 1.77351e-19
9.32493e-06 2.65164e-06 -3.00133e-20
-1.10046e-05 3.07403e-05 9.70128e-21
-1.10865e-05 -3.13509e-05 7.67007e-20
1.40413e-05 -1.08372e-05 1.7341e-19
6.97319e-06 -9.96106e-07 6.0633e-22
-3.82551e-06 -2.13283e-06 1.34605e-19
-2.38084e-05 1.65478e-05 2.72848e-21
-2.38951e-05 -1.6557e-05 9.30716e-20
5.49202e-06 7.16518e-06 1.48551e-19
3.16603e-06 -1.41312e-05 1.09139e-19
3.18908e-06 1.41433e-05 8.06419e-20
2.96983e-05 6.43679e-05 1.21266e-21
2.70653e-06 -6.401e-05 -9.09495e-21
8.50106e-06 -2.91679e-07 -1.09139e-20
5.11739e-06 3.19189e-07 5.76013e-20
8.56949e-06 1.39237e-06 6.85153e-20
8.60525e-06 -1.45432e-06 3.27418e-20
3.42907e-06 4.30777e-07 -1.04289e-19
9.08443e-06 8.41685e-08 -1.84931e-20
6.50953e-06 2.2141e-06 -2.97102e-20
1.1492e-05 2.77443e-05 -1.03076e-20
1.14846e-05 -2.77265e-05 6.0633e-21
-7.24945e-06 -5.05341e-06 1.52189e-19
7.78338e-06 -1.1237e-06 1.81899e-20
8.97914e-06 -9.22467e-07 1.39456e-19
8.97507e-06 9.03879e-07 7.33659e-20
7.56749e-06 -8.37221e-07 5.82077e-20
7.76612e-06 1.11703e-06 -1.15203e-19
8.54469e-06 -7.79254e-08 -1.57646e-20
8.59052e-06 9.27871e-08 -4.85064e-21
7.00396e-06 -7.33096e-09 -4.79001e-20
7.56232e-06 8.21661e-07 -6.97279e-20
8.45662e-06 -6.69037e-08 4.85064e-21
6.6068e-06 -7.81362e-09 1.14293e-19
1.14464e-05 7.82275e-07 7.09406e-20
1.14852e-05 -8.97704e-07 4.85064e-20
1.07812e-05 -1.48843e-06 1.28542e-19
1.07995e-05 1.47942e-06 9.03431e-20
9.08065e-06 8.80784e-08 3.63798e-21
6.35428e-06 2.30891e-06 4.03209e-20
8.40608e-06 4.95534e-07 1.94026e-20
8.40681e-06 -5.16753e-07 1.01863e-19
2.44694e-05 3.18558e-05 1.21266e-21
8.15752e-06 -3.01319e-05 -4.24431e-20
9.21586e-06 4.59791e-06 1.51582e-20
9.15402e-06 -4.59395e-06 6.0633e-22
1.14196e-05 -9.57601e-06 7.82165e-20
1.14232e-05 9.5988e-06 7.33659e-20
-1.65934e-06 -1.62278e-05 1.23388e-19
-1.777e-06 1.58747e-05 -3.03165e-22
5.87626e-05 5.32697e-05 6.91216e-20
-8.60764e-05 -1.39054e-05 2.54659e-20
1.06332e-05 1.96878e-05 5.5176e-20
1.57723e-05 1.49321e-05 1.63709e-20
1.06192e-05 -1.96825e-05 7.63976e-20
1.57618e-05 -1.49236e-05 1.39456e-20
-1.35962e-05 -4.08721e-05 -6.36646e-20
-8.61343e-05 1.36306e-05 3.75924e-20
2.07996e-05 -8.61555e-06 -3.03165e-21
5.08447e-05 -6.69351e-06 1.27329e-20
5.08087e-05 6.68878e-06 1.87962e-20
2.07809e-05 8.6078e-06 -1.33393e-20
2.59983e-05 -7.35362e-07 3.03165e-21
1.77351e-05 -6.20732e-06 3.03165e-21
2.42541e-05 7.34141e-06 -1.39456e-20
2.59777e-05 7.30376e-07 9.70128e-21
2.42356e-05 -7.33693e-06 2.12215e-20
1.77222e-05 6.19724e-06 2.78912e-20
1.86945e-05 -5.71728e-06 6.2452e-20
1.83969e-05 -5.80995e-06 6.12393e-20
1.87082e-05 5.71771e-06 1.94026e-20
1.84096e-05 5.81072e-06 -6.0633e-21
-2.52039e-05 -7.18823e-05 7.73071e-20
7.48344e-06 6.65447e-05 1.97057e-20
1.01517e-05 -6.02989e-05 1.43094e-19
-5.38972e-05 -9.35041e-06 -1.21569e-19
-6.74711e-05 -1.68211e-05 -1.00044e-19
6.75855e-06 7.49775e-05 1.63709e-20
1.16989e-05 -7.82983e-05 8.91305e-20
-7.25554e-05 1.96545e-05 -3.3045e-20
-2.21808e-05 3.72233e-05 1.18234e-20
-3.9786e-05 -8.78232e-05 1.22782e-19
-3.56073e-05 9.86942e-05 -3.72893e-20
9.53483e-05 4.66866e-05 -1.37334e-19
5.3187e-05 5.00928e-05 -1.30361e-20
-5.08626e-05 -5.2558e-05 -8.18545e-21
-2.50702e-05 -5.06009e-05 1.81899e-20
-8.031e-06 -4.8468e-05 3.1226e-20
-5.83036e-06 -8.00789e-05 8.85242e-20
1.49198e-05 7.33562e-05 5.76013e-21
5.75713e-05 -4.00939e-06 9.70128e-21
-3.03072e-05 -0.000106224 2.13125e-19
-2.69705e-05 0.000115275 -3.27418e-20
0.000112198 3.58308e-05 -1.2551e-19
-4.7144e-05 -4.76322e-05 2.72848e-21
-7.38436e-05 1.9088e-05 -1.03076e-20
-5.3561e-05 -4.79674e-05 -1.17325e-19
3.56668e-05 8.03353e-05 -5.79045e-20
-5.03925e-05 1.08114e-05 -1.33393e-20
-7.84843e-05 -0.000159519 8.51893e-20
-4.42865e-05 -2.2001e-05 -1.07624e-19
0.000167629 8.77609e-05 -1.13687e-19
1.3412e-05 7.23912e-05 -1.51582e-21
2.52466e-06 -7.47321e-05 6.09361e-20
-0.00016515 8.19823e-05 1.30361e-20
-0.000168551 -8.54353e-05 -1.46125e-19
-0.000109651 3.78923e-05 -5.60855e-20
-3.94498e-05 -3.12738e-05 -1.5613e-19
-6.83406e-05 -3.41094e-05 -2.56478e-19
-6.95353e-05 3.58379e-05 3.18323e-20
-1.14602e-05 -2.3451e-05 -9.76191e-20
4.8579e-05 6.31229e-05 -7.24564e-20
-6.93162e-05 4.9187e-05 1.97057e-20
-2.00715e-05 1.00599e-06 -4.21399e-20
-4.36242e-05 5.20907e-05 5.76013e-21
-2.17185e-05 7.56111e-05 5.1538e-21
2.24697e-05 5.96945e-05 -3.33481e-20
-7.00542e-05 4.91233e-05 -1.94026e-20
-0.000174573 -0.000174565 5.77529e-20
0.000182004 0.000181998 -8.30672e-20
1.92303e-05 3.72376e-05 -9.09495e-21
0.000183021 0.000199276 -6.85153e-20
-0.000187669 -0.000175197 7.57912e-22
6.98212e-05 3.78716e-05 -1.24298e-20
8.67265e-05 -1.52176e-05 1.12777e-19
4.02607e-05 -1.02464e-05 5.5176e-20
6.6471e-05 6.14549e-05 -3.1226e-20
8.12961e-05 -5.34239e-05 1.37637e-19
3.42421e-05 6.24763e-05 -7.30627e-20
-6.93091e-05 0.000132418 2.51627e-20
-7.08581e-05 -0.000132776 -1.03682e-19
5.50484e-05 4.63638e-05 -2.54659e-20
6.02846e-05 -3.29472e-05 9.51938e-20
-9.5996e-05 4.4385e-05 -7.48817e-20
-3.56367e-05 0.000101089 8.79178e-21
7.95386e-05 -0.000123398 -2.45564e-20
4.29516e-05 -4.93663e-05 2.34953e-19
-8.51716e-05 0.000168366 -6.32099e-20
-0.00016374 8.9267e-05 -1.25662e-19
1.82884e-05 5.88059e-05 -1.72804e-20
-6.7766e-06 -4.81745e-05 7.67007e-20
0.000133666 5.53587e-05 5.8814e-20
0.000169696 -7.0297e-05 6.4271e-20
9.33125e-06 -1.6327e-05 8.73115e-20
5.40218e-05 3.7574e-05 -4.57779e-20
5.74279e-05 -2.88878e-05 5.1538e-20
-3.45659e-05 -2.37413e-05 -1.32483e-19
-1.48005e-05 -3.84779e-05 5.1538e-21
-0.000101271 -2.01993e-05 -1.16415e-19
7.19438e-05 -1.17185e-05 -5.24475e-20
-8.77356e-05 -1.16002e-05 -1.30967e-19
-6.3912e-05 -5.364e-05 -1.95845e-19
-7.45201e-05 -0.000129061 -5.85108e-20
-7.3705e-05 0.000127661 2.66785e-20
-7.75641e-05 -8.5206e-05 1.42487e-20
-5.48177e-05 3.49212e-05 2.84975e-20
5.50625e-05 3.8412e-05 -8.24609e-20
1.35347e-05 -0.00013945 2.27374e-20
1.06693e-06 0.000110017 -1.51582e-20
-6.42164e-05 5.96933e-05 7.27596e-20
1.44673e-05 6.56238e-05 1.84931e-20
-4.60624e-06 -6.40028e-05 1.65831e-19
3.89594e-05 1.84018e-05 5.79045e-20
3.93919e-05 -9.6998e-06 1.51582e-19
9.59626e-05 -6.88834e-05 7.94292e-20
4.34454e-05 4.93723e-05 2.72848e-21
4.89146e-05 -4.41903e-05 1.91903e-19
5.56982e-05 -2.73332e-05 3.57735e-20
2.67174e-05 -7.02683e-05 2.68907e-19
3.47387e-05 4.02591e-05 1.51582e-21
3.56644e-05 -3.0146e-05 1.28542e-19
-5.82163e-05 2.79755e-05 3.63798e-20
3.73897e-05 4.36057e-05 -6.63931e-20
-7.12081e-05 -4.87559e-05 -1.35818e-19
-2.53204e-05 6.04219e-06 -8.73115e-20
1.10789e-05 3.82334e-05 6.66963e-21
7.61103e-05 1.91203e-05 -1.22479e-19
-5.61537e-05 3.59272e-05 6.79089e-20
-6.10811e-05 -2.78572e-05 -1.7917e-19
-4.76334e-05 -5.7713e-05 -1.12171e-20
-5.4489e-05 -3.55828e-05 -1.54008e-19
-8.43906e-07 -6.5958e-05 1.95845e-19
1.01018e-05 6.78924e-05 1.03076e-20
9.46301e-05 -3.61339e-05 5.0477e-20
-3.20044e-05 2.53568e-05 -2.42532e-21
4.63786e-05 -7.09135e-05 2.0312e-19
5.07399e-05 8.11287e-05 -8.24609e-20
-5.50562e-05 3.49082e-05 5.76013e-20
-2.1369e-05 3.64253e-05 1.24298e-20
-2.26092e-05 -3.72734e-05 -9.1859e-20
-1.41479e-05 -6.71817e-05 1.85537e-19
-5.09508e-05 5.30799e-05 2.30405e-20
8.4264e-06 -9.36624e-05 2.20552e-19
1.68307e-05 0.00010254 -5.41149e-20
9.95636e-05 -5.3451e-07 -8.10966e-20
0.000100105 7.80124e-05 -1.43094e-19
6.64274e-05 -4.11053e-05 9.48906e-20
9.55132e-05 -0.000165449 1.20356e-19
-7.79868e-05 0.000135086 -9.09495e-22
7.3575e-05 -1.07907e-05 7.57912e-21
2.41247e-05 5.4202e-05 -7.39722e-20
4.21087e-05 2.07033e-05 1.42487e-20
-8.591e-06 7.1793e-05 9.09495e-22
2.02594e-05 -4.00218e-05 8.85242e-20
5.53096e-06 5.02626e-05 2.36469e-20
3.17322e-05 -2.33291e-05 1.66741e-19
3.26041e-05 2.64237e-05 -5.85108e-20
-1.12673e-05 -3.68121e-05 -2.7588e-20
1.90147e-05 3.53262e-06 2.37984e-19
6.73321e-05 5.39818e-05 -1.46732e-19
-2.15778e-05 -5.88232e-06 -1.21266e-21
6.77956e-05 6.01214e-05 -1.21872e-19
-7.35153e-05 9.62102e-05 -4.12304e-20
-3.65486e-05 3.18342e-05 2.18279e-20
2.61593e-05 -0.000103761 2.53143e-19
3.3221e-05 0.000111343 -4.15336e-20
0.000110768 -2.33751e-05 9.39811e-21
6.67411e-05 -4.85874e-05 1.47641e-19
-3.61646e-07 -7.56464e-05 2.36772e-19
9.4174e-06 8.1643e-05 -3.94114e-21
5.3275e-05 -9.4053e-05 1.2551e-19
5.67041e-05 9.98862e-05 -9.27685e-20
6.68885e-06 2.38264e-05 1.31574e-19
6.36629e-06 -1.62184e-05 2.52536e-19
4.17247e-05 4.65019e-05 -8.03387e-20
2.5915e-05 3.48497e-05 -8.48862e-21
-5.4388e-05 -3.23963e-05 -2.40713e-19
-0.000108698 -8.39342e-05 -6.54836e-20
2.05685e-05 7.9627e-05 -1.72804e-20
5.63986e-05 4.63235e-05 2.12215e-21
6.75834e-05 -3.27851e-05 1.44913e-19
5.34031e-05 4.46651e-05 -5.79045e-20
5.73414e-05 -2.98867e-05 5.1538e-20
-3.4602e-05 -0.000314542 1.47338e-19
0.000322761 5.42595e-05 -5.79045e-20
1.42474e-05 -6.84905e-05 2.85885e-19
8.4814e-05 9.40714e-05 -4.18368e-20
0.000108076 -9.7375e-05 1.90388e-19
5.92075e-05 5.03787e-05 -1.2642e-19
-0.000135698 -6.94888e-06 -1.05047e-19
1.44753e-06 5.90843e-05 1.72804e-20
4.35357e-06 -5.96467e-05 1.75836e-19
-4.64936e-05 7.56308e-05 -1.84931e-20
2.17092e-05 6.09778e-06 1.89175e-19
6.00647e-05 -3.68692e-05 8.36735e-20
-9.28793e-06 -1.84979e-05 4.36557e-20
-1.87925e-05 5.18537e-05 1.66741e-20
5.17203e-05 -4.20805e-05 3.60766e-20
3.66553e-05 -2.62462e-05 2.0312e-19
-4.00261e-05 -2.72475e-05 -1.02167e-19
-6.99394e-05 -4.37051e-05 -1.54008e-19
6.86226e-05 2.32187e-05 -9.39811e-20
2.47925e-05 3.94782e-05 -3.81988e-20
-1.9959e-05 5.13188e-05 2.24342e-20
-1.37159e-05 -6.84029e-05 1.82505e-19
5.26968e-05 4.47674e-05 -1.01257e-19
2.2215e-05 7.56165e-05 -1.75836e-20
-2.49989e-05 -3.49042e-05 -1.39456e-20
-8.58801e-05 0.000160388 -5.41149e-20
-0.000154854 9.01432e-05 -1.14748e-19
5.63053e-05 1.59928e-05 -7.27596e-20
5.2687e-05 -3.05606e-05 7.09406e-20
0.000143627 7.93303e-05 -3.63798e-21
0.000175781 -8.4942e-05 7.39722e-20
1.15762e-05 -3.84919e-05 2.13731e-19
-9.48778e-05 6.72599e-05 -1.00044e-20
-9.56072e-05 -6.89628e-05 -2.27374e-19
-4.02568e-05 -1.72904e-05 -8.2764e-20
-6.12326e-06 1.68055e-05 -8.18545e-21
9.15463e-05 0.000118188 -9.59517e-20
-0.000104158 -8.37222e-05 2.107e-20
8.82926e-05 -0.000124594 1.25207e-19
9.2703e-05 0.000134617 -4.24431e-20
0.000138093 -7.56331e-05 4.88095e-20
9.11734e-06 -1.44667e-05 1.35212e-19
-1.13786e-05 -0.000139129 1.30816e-19
0.000146567 1.48461e-05 -7.06374e-20
-7.5831e-05 -0.000103659 4.54747e-21
7.34295e-05 9.15208e-05 -3.18323e-20
-4.69102e-05 -3.74479e-05 -1.916e-19
-1.99036e-05 1.20894e-06 -7.30627e-20
5.06373e-05 -7.45037e-05 2.14034e-19
5.49644e-05 8.51396e-05 -6.60899e-20
-4.60496e-05 1.43287e-05 -4.91127e-20
2.52693e-05 -4.91791e-05 2.66785e-19
5.93936e-05 6.41167e-05 -1.63709e-20
7.3315e-05 -5.64082e-05 1.75532e-19
-5.69254e-05 -3.01263e-05 -2.59206e-19
-3.72579e-05 2.85084e-05 1.81899e-21
-4.52858e-05 -2.08221e-05 -1.45216e-19
-8.70864e-05 -4.75122e-05 -8.33703e-20
-7.80063e-06 4.1705e-05 1.45519e-20
-0.000182934 0.00018294 -6.63931e-20
-7.61175e-06 7.43677e-05 1.33393e-20
1.31724e-05 -7.08795e-05 3.01346e-19
1.35565e-05 -0.000139422 7.54881e-20
5.92211e-06 0.000116312 -2.30405e-20
1.76622e-05 3.82178e-05 7.73071e-20
1.87792e-05 -3.2262e-05 2.76183e-19
-6.71084e-05 -3.46119e-05 -2.94373e-19
-6.53747e-05 3.70247e-05 3.24386e-20
-0.000116882 2.23516e-05 -2.54962e-19
-0.000115384 -1.99406e-05 -3.91083e-20
0.000116041 8.09458e-05 1.27329e-20
0.000156875 -8.60477e-05 7.76102e-20
4.28129e-05 2.86491e-05 -7.30627e-20
4.09496e-05 2.21774e-06 1.78867e-19
6.24185e-05 3.73334e-05 -1.10049e-19
2.33469e-06 6.51889e-05 2.30405e-20
4.1153e-06 -6.10381e-05 2.63753e-19
-9.77888e-05 7.08218e-05 -6.60899e-20
6.23681e-05 -2.62281e-05 4.33526e-20
-7.10007e-06 -6.52615e-05 1.01257e-19
5.71781e-05 5.06564e-05 -1.34605e-19
-4.29963e-05 4.03868e-07 -1.64315e-19
-4.09914e-05 4.27254e-07 -3.1226e-20
5.42445e-05 -3.78913e-05 1.3218e-19
-4.3567e-05 4.03622e-05 7.97324e-20
6.83357e-05 0.000118358 -1.18234e-20
-7.759e-05 -0.000134392 2.27374e-20
-1.45972e-05 -4.67143e-05 9.64064e-20
-5.72013e-05 -3.38362e-05 -2.27374e-19
-6.15627e-06 -7.61328e-05 -1.23691e-19
9.20888e-05 -0.000160664 3.40303e-20
0.00016148 -7.46244e-05 -6.13909e-21
9.05829e-06 4.89035e-05 5.1538e-21
1.03725e-05 -4.18942e-05 2.00089e-19
-8.71009e-06 7.9881e-05 3.24386e-20
1.84247e-05 7.27916e-05 -3.00133e-20
7.6611e-05 4.84249e-05 -1.36727e-19
5.5848e-05 3.99902e-05 -2.12215e-20
6.20154e-05 -1.90583e-05 9.54969e-20
-0.000150997 3.80351e-10 -2.36469e-20
-0.000154987 4.77635e-09 -9.06463e-20
1.20073e-05 -3.59885e-05 1.48854e-19
-5.86086e-05 -3.49941e-05 -2.02817e-19
4.31919e-05 6.05305e-05 -3.6683e-20
4.87141e-05 -5.28697e-05 1.46125e-19
1.98624e-05 4.62802e-05 1.18234e-20
1.00304e-05 1.40897e-05 2.72848e-21
0.000175887 -0.000175893 -3.47124e-20
-5.0914e-05 1.63525e-05 -2.64966e-19
-4.88834e-05 -1.55933e-05 -3.69861e-20
-8.51492e-06 3.72124e-05 4.54747e-21
7.6668e-05 -3.69512e-05 6.48773e-20
-5.58617e-05 3.07129e-05 5.94203e-20
-7.44693e-05 -9.75815e-06 -2.73455e-19
-7.21919e-05 1.13291e-05 -3.03165e-22
-4.35226e-05 2.23486e-05 5.00222e-20
1.78861e-05 9.27705e-05 -1.94026e-20
2.11659e-05 -9.55446e-05 2.12822e-19
3.66714e-05 0.00015052 -3.72893e-20
-3.03371e-05 -0.000182387 1.17022e-19
-1.66847e-05 0.000331553 2.88007e-21
-0.000319053 1.86549e-05 -1.03682e-19
4.72994e-05 3.25336e-05 -6.48773e-20
4.63619e-05 -5.86488e-06 1.36121e-19
-5.19988e-06 -1.2457e-05 8.73115e-20
0.000172574 -0.000211358 3.91083e-20
0.00021993 -0.000169048 -4.07757e-20
7.3626e-05 -0.000177748 1.2551e-19
6.31567e-05 0.000152447 -7.70039e-20
-5.19268e-05 3.40692e-05 2.72848e-20
4.71681e-05 -4.9992e-05 1.9251e-19
4.90256e-05 4.35403e-05 -6.51805e-20
4.98181e-05 -2.54007e-05 1.03076e-19
3.53974e-05 -3.43715e-05 1.82505e-19
4.98165e-05 6.33404e-05 -1.23994e-19
-1.92973e-06 -0.000149029 1.65528e-19
6.81004e-06 0.000145699 -5.95719e-20
0.000155938 6.14477e-06 -4.00178e-20
4.09835e-05 5.05395e-05 -1.17022e-19
1.75293e-05 0.000158481 -2.27374e-20
-0.000150264 -1.84059e-05 -1.03682e-19
5.80731e-05 3.46147e-05 -4.03209e-20
6.57713e-05 -9.98276e-06 1.08836e-19
5.63514e-05 4.05849e-05 -1.21266e-20
6.28276e-05 -2.00299e-05 1.0732e-19
-0.000179777 0.000224696 -2.5769e-20
-0.000218692 0.00018009 -9.86802e-20
5.25493e-05 4.60681e-05 -1.05198e-19
5.29941e-05 -2.76534e-05 1.2066e-19
2.7608e-05 9.4189e-05 -2.69817e-20
-1.82106e-05 -0.000107015 7.45786e-20
4.66848e-05 1.65591e-05 -5.60855e-20
4.75699e-05 2.11566e-05 1.3218e-19
5.87233e-05 7.02281e-05 -9.09495e-21
7.21031e-05 -6.74313e-05 2.08881e-19
-4.41764e-05 -1.0684e-05 -2.33437e-19
-4.0784e-05 1.17938e-05 1.27329e-20
-0.000149616 3.53868e-06 -3.85019e-20
7.07261e-05 0.000117738 -6.0633e-21
5.48102e-05 0.00012027 -1.94026e-20
8.24478e-05 9.46896e-05 -2.72848e-20
6.7104e-05 -0.000129761 1.58858e-19
9.975e-05 -9.955e-05 1.98876e-19
-7.25259e-05 -0.000135706 -3.94114e-21
-0.000153892 -2.72206e-06 -1.76745e-19
7.20009e-05 -2.98305e-05 -1.21266e-21
0.000250122 -3.29465e-05 1.52189e-19
0.000317553 4.17927e-05 4.85064e-20
0.000123501 5.11503e-05 7.03343e-20
0.000110414 2.8392e-05 -2.69817e-20
8.23989e-05 9.84204e-06 -1.36424e-20
0.000107389 4.24048e-05 1.21266e-20
0.0001582 -1.45235e-06 7.09406e-20
0.000148239 -4.75664e-05 2.42532e-20
0.000107148 3.23568e-05 9.12526e-20
8.60925e-05 5.50838e-05 -1.57646e-20
8.94648e-05 5.40333e-05 -1.09139e-20
0.000113324 -4.33564e-05 8.0945e-20
0.000114394 -4.30231e-05 1.03682e-19
VECTORS seepage_velocity_TPM float
-7.23533e-06 -2.16942e-05 -9.73807e-21
-2.25828e-06 1.78493e-05 -9.10204e-21
3.56181e-06 -1.78599e-05 -2.82162e-20
-1.61812e-05 -3.08415e-06 4.73263e-21
-2.03061e-05 -5.35468e-06 1.36513e-21
-2.70654e-06 2.30619e-05 -3.54986e-21
4.01059e-06 -2.30791e-05 -2.41208e-20
-2.18169e-05 5.48178e-06 -3.18534e-21
-6.84178e-06 1.10462e-05 8.10071e-21
-1.14593e-05 -2.66152e-05 -4.36787e-21
-1.09848e-05 2.84705e-05 -1.27395e-21
2.97873e-05 1.21351e-05 2.82095e-21
1.58613e-05 1.53496e-05 1.21063e-20
-1.46283e-05 -1.5301e-05 -1.39269e-20
-7.19403e-06 -1.5064e-05 -1.4562e-20
-2.2161e-06 -1.43009e-05 -2.32095e-20
2.32472e-06 2.35775e-05 8.37397e-21
-1.06148e-06 -2.35911e-05 -1.6657e-20
2.06609e-05 2.0874e-06 3.18563e-21
-8.62378e-06 -3.21226e-05 -5.82421e-21
-8.70545e-06 3.28504e-05 -3.18511e-21
3.57874e-05 8.26493e-06 4.27722e-21
-1.38644e-05 -1.43671e-05 -5.55155e-21
-2.23621e-05 5.24125e-06 -2.36613e-21
-1.59405e-05 -1.44762e-05 -4.27761e-21
9.57557e-06 2.11827e-05 -1.20135e-20
-1.5353e-05 2.90262e-06 1.72926e-21
-2.32011e-05 -4.837e-05 -5.45966e-21
-1.3346e-05 -6.77041e-06 2.82153e-21
5.1533e-05 2.43843e-05 2.00186e-21
-7.77662e-08 2.20411e-05 -1.18333e-21
1.35293e-06 -2.20471e-05 -1.79322e-20
-5.06487e-05 -2.57336e-05 -8.64801e-21
-5.08259e-05 2.47613e-05 -3.4592e-21
-3.28156e-05 1.0731e-05 -2.27506e-21
-1.16975e-05 -9.45641e-06 -9.92063e-21
-2.05351e-05 -1.03252e-05 -1.31986e-20
-2.15056e-05 1.05121e-05 4.00512e-21
-3.54398e-06 -7.20345e-06 -1.00122e-21
1.44181e-05 1.47277e-05 -9.28308e-21
-2.10367e-05 1.40586e-05 -2.73016e-22
-6.2045e-06 1.07443e-07 4.45986e-21
-1.36089e-05 1.48663e-05 3.54934e-21
-7.34888e-06 2.15884e-05 3.64039e-21
3.32808e-06 1.43014e-05 -1.09223e-20
-2.12996e-05 1.40352e-05 1.72909e-21
-5.26374e-05 -5.26374e-05 -1.8194e-21
5.45201e-05 5.45201e-05 1.31905e-21
4.86895e-06 1.11876e-05 1.61107e-20
5.47243e-05 5.78499e-05 -1.45571e-21
-5.59047e-05 -5.28017e-05 -7.73335e-22
2.5425e-05 -2.63827e-06 1.26531e-20
2.54066e-05 2.6241e-06 -1.57481e-20
1.7766e-05 3.15979e-06 7.82791e-21
2.42204e-05 -1.1114e-05 1.43826e-20
2.41997e-05 1.11156e-05 -7.91952e-21
9.06896e-06 1.48266e-05 -1.3379e-20
-2.13143e-05 -3.99498e-05 -8.28368e-21
-2.13779e-05 4.01083e-05 4.64251e-21
1.93444e-05 -7.41668e-06 9.37549e-21
1.93139e-05 7.37381e-06 -1.81138e-20
-2.88398e-05 1.26196e-05 -8.18968e-22
-2.3115e-05 3.64702e-05 -2.73091e-22
2.45727e-05 -3.67654e-05 -1.29262e-20
1.40775e-05 -1.4545e-05 -7.73594e-21
-2.54899e-05 4.88587e-05 9.55408e-22
-4.88544e-05 2.58794e-05 3.59416e-21
2.84005e-06 1.41974e-05 -7.9185e-21
-1.6062e-06 -1.4158e-05 -2.61217e-20
4.32507e-05 -1.7915e-05 6.19049e-21
4.32637e-05 1.79204e-05 -2.02101e-20
3.07115e-06 -4.51272e-06 -3.54066e-20
1.96523e-05 6.81955e-06 -9.55723e-21
1.96948e-05 -6.82804e-06 6.55353e-21
-1.03664e-05 -7.11115e-06 -2.0024e-20
-3.62151e-06 -1.1003e-05 -1.18329e-20
-3.03336e-05 -6.46963e-06 3.68547e-21
-2.61922e-05 -3.83782e-06 2.09312e-21
-1.91952e-05 -1.62301e-05 -5.18824e-21
-2.24732e-05 3.89242e-05 4.91569e-21
-2.24191e-05 -3.88303e-05 -3.73228e-21
-2.30206e-05 -2.58157e-05 -3.64005e-21
-1.68979e-05 9.98616e-06 1.63819e-21
2.03477e-05 7.40996e-06 -4.09587e-21
-3.50646e-06 4.12404e-05 7.28254e-22
4.47658e-06 -4.16541e-05 -1.28353e-20
-1.98644e-05 1.78697e-05 1.27431e-20
2.05417e-06 1.89524e-05 2.36652e-21
-7.0818e-07 -1.89506e-05 -1.38351e-20
1.73056e-05 -2.91358e-06 4.55125e-21
1.71227e-05 2.72491e-06 1.45639e-21
3.04369e-05 -2.09161e-05 4.00414e-21
2.45341e-05 4.02804e-06 6.28e-21
1.83229e-05 -9.20386e-06 8.37452e-21
1.82272e-05 9.22099e-06 -7.91936e-21
2.05931e-05 -7.55918e-06 5.91623e-21
9.03042e-06 -2.10437e-05 -1.25596e-20
1.64757e-05 -7.26522e-06 9.10252e-21
1.62247e-05 7.1095e-06 -9.55766e-21
-1.77283e-05 8.11286e-06 4.09568e-21
1.00901e-05 6.22007e-06 -1.56556e-20
-2.12179e-05 -1.48117e-05 -2.09319e-21
-7.59662e-06 1.81217e-06 -2.66688e-20
-1.96633e-06 4.32582e-06 -7.64577e-21
2.53496e-05 3.59623e-06 2.54825e-21
-1.73783e-05 1.04565e-05 5.0059e-21
-1.82988e-05 -8.5387e-06 6.27998e-21
-1.4018e-05 -1.75463e-05 -3.27618e-21
-1.62106e-05 -1.08663e-05 -1.18313e-21
3.62196e-07 -1.95058e-05 -2.01144e-20
9.74791e-07 1.95124e-05 -6.91721e-21
3.00902e-05 -1.18732e-05 7.14347e-21
-1.03445e-05 7.0531e-06 1.25606e-20
1.51751e-05 -2.14486e-05 -4.45937e-21
1.52479e-05 2.16481e-05 -5.82446e-21
-1.68736e-05 9.98798e-06 2.73045e-21
-6.69307e-06 1.09001e-05 5.82534e-21
-6.84846e-06 -1.13005e-05 -7.3727e-21
-3.68201e-06 -2.01827e-05 -9.91973e-21
-1.57962e-05 1.51622e-05 4.09557e-21
3.28111e-06 -2.82604e-05 -2.32048e-21
4.71566e-06 2.89472e-05 -7.14346e-21
3.19884e-05 -1.52616e-06 5.86952e-21
3.11825e-05 2.07817e-05 2.73019e-22
2.15773e-05 -1.25562e-05 3.27626e-21
2.84347e-05 -4.92527e-05 -5.8261e-21
-2.83606e-05 4.91227e-05 2.54892e-21
2.46943e-05 -4.40709e-06 7.0077e-21
4.3361e-06 1.0956e-05 -1.0285e-20
1.79962e-05 -3.42818e-06 9.37529e-21
-3.46708e-06 2.04587e-05 -2.54818e-21
-5.27912e-06 1.15079e-05 -8.82917e-21
6.27617e-06 -1.14614e-05 -3.39509e-20
1.03005e-05 -6.40638e-06 6.09841e-21
7.71203e-06 -2.31947e-06 -1.28341e-20
-3.13107e-06 -1.10054e-05 -1.82032e-20
1.33618e-05 1.25716e-07 1.73867e-20
2.1173e-05 1.35514e-05 9.10001e-23
-7.21599e-06 -2.32023e-06 1.8295e-20
2.12002e-05 1.38331e-05 -4.00442e-21
-2.23057e-05 2.77297e-05 1.91101e-21
-1.16293e-05 9.01522e-06 4.00467e-21
8.77976e-06 -3.13934e-05 -6.09736e-21
9.24668e-06 3.13825e-05 -8.55445e-21
3.49109e-05 -8.01137e-06 6.37039e-21
2.16424e-05 -1.43536e-05 3.64041e-22
8.16074e-07 2.26984e-05 -6.46197e-21
5.19572e-07 -2.26662e-05 -1.51083e-20
1.71566e-05 -2.87415e-05 3.09396e-21
1.68875e-05 2.75427e-05 -4.09496e-21
1.09023e-05 -3.93088e-06 1.10144e-20
1.09444e-05 3.79117e-06 1.25619e-20
1.20971e-05 7.56098e-06 -1.34708e-20
7.32905e-06 1.03088e-05 2.07528e-20
-1.62805e-05 -9.801e-06 -1.27424e-20
-3.23909e-05 -2.55404e-05 -6.82459e-22
5.09365e-06 2.09716e-05 -1.1649e-20
2.16714e-05 7.31554e-06 -1.29258e-20
2.17133e-05 -7.34711e-06 1.06502e-20
1.96187e-05 -7.70018e-06 2.45762e-21
1.95816e-05 7.65142e-06 -1.33803e-20
-9.87768e-06 -9.54144e-05 -1.36479e-22
9.79723e-05 1.5077e-05 2.18365e-21
5.09438e-06 -2.04819e-05 -9.64686e-21
2.98807e-05 -1.98833e-05 1.42013e-20
2.98653e-05 1.99301e-05 -3.64115e-22
2.0014e-05 1.04666e-05 -9.19264e-21
-4.04448e-05 -2.57702e-06 3.59429e-21
2.4569e-05 -4.48119e-06 6.09794e-21
-8.47509e-07 1.74943e-05 8.00946e-21
2.11709e-06 -1.75763e-05 -1.0831e-20
-1.4447e-05 2.17454e-05 3.36717e-21
7.30485e-06 2.38817e-06 2.18453e-21
2.00971e-05 -1.05194e-05 -2.09338e-21
-3.00166e-06 -5.22085e-06 -3.76819e-20
-1.47864e-05 1.21301e-05 -4.00511e-21
1.61355e-05 -1.21068e-05 -2.5669e-20
1.20316e-05 -7.43203e-06 9.10559e-23
-1.18931e-05 -8.09149e-06 -1.72022e-20
-2.08715e-05 -1.34357e-05 1.82008e-21
3.44132e-06 4.81679e-06 -1.3016e-20
-6.85188e-06 1.4726e-05 6.64393e-21
-3.59337e-06 -2.04345e-05 -1.58358e-20
1.71556e-05 8.00284e-06 -1.43809e-20
5.24085e-06 2.06142e-05 -1.25595e-20
-6.45348e-06 -1.00107e-05 -1.02856e-20
-2.56591e-05 4.69222e-05 2.54754e-21
-4.60516e-05 2.61531e-05 3.77581e-21
1.72072e-05 -8.04813e-06 -3.0036e-21
2.07916e-05 -2.42619e-06 9.64791e-21
4.38184e-05 1.92549e-05 -1.2199e-20
4.3798e-05 -1.92316e-05 9.64997e-21
4.35778e-06 -1.1179e-05 -5.64308e-21
-2.87135e-05 -2.0779e-05 -1.42913e-20
-2.93729e-05 2.02663e-05 8.19239e-22
-1.21835e-05 -5.41164e-06 5.36991e-21
-2.56598e-06 4.5063e-06 2.53033e-20
2.76999e-05 3.39065e-05 -1.63778e-21
-3.09551e-05 -2.54715e-05 -2.41117e-21
2.75622e-05 -3.78157e-05 1.00094e-21
2.80091e-05 3.82726e-05 -5.64167e-21
4.27009e-05 -2.35309e-05 5.0047e-21
3.38861e-06 -4.00779e-06 -1.18328e-21
-2.83059e-06 -4.21771e-05 -3.68501e-21
4.52309e-05 3.28566e-06 2.63868e-21
2.34167e-05 3.08127e-05 9.10276e-21
-2.21153e-05 -3.06235e-05 -9.01178e-21
-1.40965e-05 -1.13742e-05 -3.45877e-21
-6.09325e-06 2.41999e-07 -1.82038e-21
1.63032e-05 -2.23996e-05 -9.10041e-22
1.64025e-05 2.27582e-05 -8.37221e-21
-1.39196e-05 4.06407e-06 7.64531e-21
8.57943e-06 -1.44735e-05 -1.53814e-20
2.28705e-05 -1.16222e-05 1.45652e-20
2.28234e-05 1.16317e-05 -2.18477e-21
-1.70321e-05 -9.12914e-06 -8.6468e-21
-1.18547e-05 7.95906e-06 1.1104e-20
-1.36152e-05 -6.45262e-06 2.36642e-21
-2.58673e-05 -1.45445e-05 -1.36498e-21
-3.19804e-06 1.18372e-05 1.09219e-20
-5.39633e-05 5.39633e-05 8.18705e-22
-3.28194e-06 2.09467e-05 -2.9123e-21
4.78895e-06 -2.11616e-05 -1.01932e-20
4.6567e-06 -4.14191e-05 -1.85697e-20
-3.38005e-06 4.14028e-05 4.09625e-21
1.29115e-05 -6.55533e-06 8.55693e-21
1.28996e-05 6.33945e-06 1.40188e-20
-2.0352e-05 1.08404e-05 7.64576e-21
-2.01248e-05 -1.04916e-05 -1.338e-20
-3.56706e-05 -6.51591e-06 3.91417e-21
-3.51043e-05 6.65219e-06 -2.15734e-20
4.14449e-05 1.93933e-05 -4.55178e-21
4.14431e-05 -1.93689e-05 9.64978e-21
1.31201e-05 1.21576e-06 6.37166e-22
1.3141e-05 -1.13601e-06 -1.1105e-20
2.07854e-05 7.34283e-06 -3.45856e-21
-6.92825e-07 1.85584e-05 5.64292e-21
2.0184e-06 -1.81521e-05 -1.28332e-20
-2.93652e-05 2.03454e-05 5.45992e-22
2.07191e-05 -7.53887e-06 9.10073e-23
-1.70794e-06 -1.954e-05 -2.24806e-20
1.77581e-05 1.07777e-05 -7.19006e-21
-1.30845e-05 -4.1305e-07 1.62928e-20
-1.29353e-05 1.09302e-07 -2.73974e-20
1.77129e-05 -1.09354e-05 -2.82141e-21
-1.34318e-05 1.18479e-05 1.10135e-20
2.32903e-05 4.03416e-05 -5.55295e-21
-2.29107e-05 -3.96829e-05 5.73502e-21
-3.55472e-06 -1.37064e-05 -1.22878e-20
-1.71194e-05 -1.03125e-05 -2.00234e-21
-1.91148e-06 -2.2962e-05 -1.19243e-20
2.87436e-05 -4.9059e-05 1.81991e-22
4.95647e-05 -2.32321e-05 1.66052e-21
1.08722e-05 -9.0873e-06 8.82996e-21
1.07253e-05 8.89693e-06 4.36947e-21
-2.86166e-06 2.40547e-05 9.55763e-21
2.88529e-06 1.88594e-05 -1.1741e-20
2.56019e-05 1.09362e-05 1.82012e-22
1.97121e-05 -4.4644e-06 8.55631e-21
1.96903e-05 4.37771e-06 -1.92972e-20
-4.65505e-05 -4.20832e-10 -2.27578e-21
-4.6563e-05 3.88336e-10 -9.46729e-21
4.48055e-06 -1.04665e-05 -3.91381e-21
-1.7559e-05 -1.06742e-05 -8.19133e-22
1.81828e-05 1.1034e-05 -7.82845e-21
1.82821e-05 -1.10384e-05 1.51108e-20
5.02434e-06 1.34122e-05 1.49272e-20
2.26762e-06 3.69371e-06 2.17536e-20
5.37534e-05 -5.37534e-05 -1.59192e-22
-1.52891e-05 4.85002e-06 -1.63843e-20
-1.54395e-05 -5.19295e-06 6.00756e-21
-3.37446e-06 1.0728e-05 1.74754e-20
2.51286e-05 -1.11143e-05 4.45961e-21
-1.72865e-05 8.8066e-06 7.28157e-21
-2.23506e-05 -2.97782e-06 -2.0389e-20
-2.24558e-05 2.91144e-06 7.64586e-21
-1.34179e-05 6.46229e-06 9.55681e-21
1.27951e-05 1.91841e-05 3.64132e-21
1.28936e-05 -1.91341e-05 9.55844e-21
9.61245e-06 5.42349e-05 -8.64817e-21
-8.58372e-06 -5.42359e-05 -4.46063e-21
-4.85009e-06 9.73093e-05 -2.00169e-21
-9.50662e-05 4.97606e-06 4.36722e-21
1.47932e-05 -1.04341e-06 8.64719e-21
1.48729e-05 8.77131e-07 -2.02071e-20
-6.57814e-07 -3.43983e-06 -3.82288e-21
5.2782e-05 -6.42012e-05 -9.32541e-22
6.71358e-05 -5.16814e-05 1.50117e-21
1.77628e-05 -4.2884e-05 4.36978e-21
1.77754e-05 4.29144e-05 -5.46225e-22
-1.62532e-05 9.68734e-06 8.19153e-21
1.54803e-05 -1.47536e-05 -8.1913e-21
1.5762e-05 -6.51967e-06 6.7356e-21
1.57433e-05 6.42953e-06 -2.05708e-20
1.16788e-05 -9.70902e-06 -5.73406e-21
1.53686e-05 1.48953e-05 -1.14678e-20
1.02491e-07 -4.52536e-05 -3.50331e-21
1.76349e-06 4.16579e-05 -5.59616e-21
4.83095e-05 3.98396e-07 4.64077e-21
1.17209e-05 9.60851e-06 -1.5928e-20
5.31645e-06 4.58919e-05 -3.27556e-21
-4.48555e-05 -6.04885e-06 3.23004e-21
1.97532e-05 -2.09509e-06 7.09997e-21
1.98389e-05 1.83673e-06 -1.72948e-20
1.92288e-05 -3.88581e-06 1.18334e-20
1.92547e-05 3.86273e-06 -1.51104e-20
-5.30825e-05 6.5701e-05 1.95602e-21
-6.51591e-05 5.30772e-05 2.82029e-21
1.72146e-05 7.48544e-06 -1.64746e-20
1.7257e-05 -7.57952e-06 9.10277e-23
6.00773e-06 3.18267e-05 7.55539e-21
-4.94589e-06 -3.16236e-05 -1.5475e-20
1.48782e-05 6.24482e-06 5.09748e-21
1.47658e-05 -6.20742e-06 -9.92189e-21
2.2636e-05 -1.37565e-05 1.15609e-20
2.25863e-05 1.37795e-05 -2.18472e-21
-1.32033e-05 -3.25727e-06 -1.76579e-20
-1.29344e-05 3.05235e-06 6.46242e-21
-2.11344e-05 -4.01435e-05 1.82085e-22
2.08222e-05 -2.50399e-05 7.82908e-21
2.50226e-05 -2.11528e-05 9.46771e-21
2.07776e-05 2.51301e-05 8.92152e-21
2.50319e-05 2.11932e-05 4.00557e-21
2.24114e-05 4.05691e-05 1.5475e-21
-4.6259e-05 7.4527e-07 2.91296e-21
-4.62119e-05 -8.72026e-07 -1.8115e-20
3.36114e-05 1.39228e-05 -1.82047e-22
8.09385e-05 1.06557e-05 1.12892e-20
8.09627e-05 -1.06588e-05 -1.47487e-20
3.36032e-05 -1.39194e-05 -7.2826e-22
4.22045e-05 8.9673e-07 -6.37226e-22
2.98694e-05 9.06377e-06 3.18608e-21
3.96011e-05 -1.11613e-05 8.9215e-21
4.22025e-05 -8.83832e-07 -3.27722e-21
3.95997e-05 1.11717e-05 -7.10078e-21
2.98719e-05 -9.04797e-06 -7.28245e-21
3.13344e-05 -8.8893e-06 6.55423e-21
3.11518e-05 -8.94678e-06 1.52937e-20
3.13361e-05 8.89642e-06 -9.55825e-21
3.11406e-05 8.95795e-06 -2.54895e-21
-2.89162e-06 1.81968e-05 -2.04793e-20
-3.07337e-06 -1.82883e-05 -3.64063e-21
-1.6374e-05 2.99654e-06 3.69506e-20
-2.09076e-05 5.4401e-06 2.50273e-20
-3.36407e-06 2.36912e-05 -2.02067e-20
-3.54249e-06 -2.37438e-05 3.10384e-20
-2.09227e-05 -5.37873e-06 4.38662e-20
-7.02848e-06 -1.10498e-05 6.6807e-20
-1.17344e-05 -2.64376e-05 -4.25868e-20
1.2041e-05 2.72373e-05 -2.55703e-20
2.76445e-05 1.25742e-05 -4.85012e-20
1.53861e-05 -1.59619e-05 -1.01037e-20
1.57568e-05 1.57374e-05 -2.45768e-21
-1.6826e-05 1.00539e-05 2.60298e-20
1.76958e-06 -2.42383e-05 -5.46123e-22
1.92727e-06 2.41519e-05 -5.73431e-21
1.70924e-05 2.68021e-06 -1.34698e-20
-8.81038e-06 -3.20715e-05 -6.07894e-20
8.67839e-06 3.23871e-05 -8.6452e-21
3.35314e-05 8.95938e-06 -4.06776e-20
8.0565e-06 2.17303e-05 -2.42995e-20
8.32732e-06 -2.14092e-05 -3.28541e-20
-1.54009e-05 -3.15494e-06 5.41519e-20
-2.29436e-05 -4.76855e-05 -5.09111e-20
-1.36205e-05 6.87082e-06 5.79772e-20
-5.20101e-07 2.25868e-05 -1.30166e-20
-7.18388e-07 -2.26472e-05 2.77629e-20
-5.10605e-05 -2.46929e-05 2.45796e-20
-5.08377e-05 2.56036e-05 7.19164e-21
-1.10036e-05 1.48572e-05 2.74856e-20
-1.32777e-05 1.57217e-05 1.083e-20
-3.06373e-05 9.88709e-06 -8.37196e-21
-2.17555e-05 -1.04762e-05 5.70733e-20
-2.08145e-05 1.01958e-05 1.86601e-20
-3.55338e-06 7.3155e-06 5.91609e-20
1.28828e-05 -1.53362e-05 -3.09425e-20
-6.39761e-06 -2.2384e-07 7.34493e-20
-2.20557e-05 1.44031e-05 8.46368e-21
-1.45021e-05 -1.46745e-05 -2.76663e-20
-2.54692e-05 -3.99596e-06 2.82117e-20
-2.32332e-05 4.67756e-06 7.46242e-21
-7.99014e-06 -2.17164e-05 -4.47763e-20
2.33069e-06 -1.48344e-05 -1.7293e-20
2.51786e-06 1.47344e-05 -4.27781e-20
-7.21468e-06 2.18461e-05 -1.91116e-21
1.33369e-05 1.55144e-05 -3.03058e-20
-5.15336e-05 -5.15321e-05 -1.35565e-20
-5.07454e-05 5.07459e-05 1.27377e-21
4.58848e-06 -1.18734e-05 -2.54855e-20
4.6024e-06 1.15107e-05 7.91877e-21
7.79385e-06 1.53609e-05 -2.93969e-20
-5.0894e-05 5.53824e-05 -1.43754e-20
-5.36852e-05 -5.16362e-05 -3.10711e-20
2.66081e-05 -4.85598e-06 -1.0923e-20
2.63849e-05 5.26274e-06 -3.34974e-20
1.24665e-05 4.39394e-06 -1.36523e-20
2.4926e-05 -1.66915e-05 -1.27435e-20
2.47413e-05 1.68273e-05 -3.54085e-20
7.84221e-06 -1.53277e-05 -3.92259e-20
-2.16098e-05 -3.9919e-05 4.47877e-20
-2.15962e-05 3.96107e-05 9.74028e-21
1.82739e-05 -1.05136e-05 2.27547e-21
1.82824e-05 1.06864e-05 -4.13229e-20
-2.41514e-05 -3.74599e-05 3.61394e-20
-2.40756e-05 3.7467e-05 -1.53839e-20
2.498e-05 4.71551e-05 -6.32396e-21
4.73473e-05 2.50025e-05 -4.81803e-20
2.07045e-06 1.46402e-05 -2.93072e-20
1.88193e-06 -1.47388e-05 -2.64853e-20
5.22083e-05 -2.16244e-05 -5.28026e-21
5.16299e-05 2.13858e-05 -4.73379e-21
-2.10836e-05 -1.46857e-05 2.14778e-20
1.73005e-05 9.51849e-06 -2.60305e-20
1.73063e-05 -9.32999e-06 -6.64413e-21
-1.9444e-05 1.62358e-05 2.66692e-20
-2.95497e-05 -6.67457e-06 5.46105e-22
-2.24004e-05 3.87989e-05 1.64776e-20
-2.24971e-05 -3.8964e-05 2.33971e-20
-1.66517e-05 -1.02878e-05 2.42087e-20
1.67177e-05 9.02391e-06 -1.83849e-20
-2.36185e-05 -2.56882e-05 -1.92923e-20
-4.09112e-06 -4.23407e-05 9.28546e-21
-3.93131e-06 4.23675e-05 -5.09768e-21
-2.01159e-05 -1.78263e-05 6.17137e-20
1.64009e-06 1.93132e-05 1.54731e-21
1.4803e-06 -1.92926e-05 -1.84766e-20
1.24422e-05 -4.38403e-06 -1.5746e-20
1.22272e-05 4.23216e-06 -1.09221e-20
2.78824e-05 -2.12737e-05 -3.74013e-20
2.10014e-05 4.64249e-06 -1.63817e-20
1.50002e-05 1.4228e-05 -2.41205e-20
1.51289e-05 -1.41111e-05 -1.18327e-20
1.69926e-05 -9.07484e-06 -9.37443e-21
1.13448e-05 -1.01391e-05 -1.28337e-20
1.10364e-05 1.00482e-05 -2.01153e-20
-1.80426e-05 -8.06836e-06 5.87951e-20
-1.8912e-05 1.48939e-05 -1.00098e-21
9.56814e-06 7.33247e-06 -4.0321e-20
9.27553e-06 -7.11165e-06 -9.19269e-21
-2.92101e-06 -4.93955e-06 5.73407e-21
-2.7476e-06 4.82828e-06 -4.25971e-20
2.25212e-05 3.84013e-06 -2.46624e-20
-3.17369e-05 3.09258e-05 -2.30217e-20
-1.75984e-05 -1.05136e-05 4.44161e-20
-1.81621e-05 8.61979e-06 4.04099e-20
-4.31518e-05 7.06456e-06 -1.54691e-20
-1.68377e-05 1.02778e-05 2.15693e-20
1.85308e-07 -1.99649e-05 -1.8931e-20
4.66433e-07 1.99221e-05 -4.45972e-21
-1.48204e-05 -1.77568e-05 -1.48337e-20
2.75201e-05 -1.18158e-05 -3.03022e-20
-1.05074e-05 -7.19708e-06 -1.6019e-20
-1.05314e-05 7.7848e-06 2.59401e-20
1.36514e-05 -2.17138e-05 -4.01332e-20
-1.43778e-05 2.32166e-05 4.55072e-22
-1.73005e-05 -1.0238e-05 4.31405e-20
-6.99196e-06 -1.10139e-05 6.31675e-20
-7.14693e-06 1.17709e-05 4.29608e-20
4.06988e-06 2.09051e-05 -1.15578e-20
-1.57311e-05 -1.49218e-05 -9.01014e-21
2.42781e-06 -2.81482e-05 -5.78299e-20
-3.66885e-06 2.89954e-05 -6.41544e-21
2.93743e-05 -3.12057e-06 -3.98119e-20
1.92664e-05 -1.31231e-05 -2.94852e-20
-2.90613e-05 5.03378e-05 -5.553e-21
-2.90085e-05 -5.0246e-05 -4.00587e-21
-2.07123e-05 -1.24652e-05 2.13861e-20
2.17516e-05 -4.70419e-06 -1.78371e-20
-3.28384e-05 -2.60362e-05 -2.07468e-20
3.30091e-06 -1.16142e-05 -3.08536e-20
3.42679e-06 1.17658e-05 -4.19581e-20
1.27823e-05 -4.6374e-06 -1.92043e-20
-4.18494e-06 -2.04224e-05 -5.12361e-20
-6.23601e-06 -1.21268e-05 3.08556e-20
-6.06186e-06 1.20138e-05 -3.08561e-20
1.95276e-05 2.74776e-05 -3.48532e-20
2.898e-05 1.95541e-05 -3.84933e-20
-4.13985e-05 -1.85884e-06 -2.34767e-20
7.14701e-06 -1.3837e-06 -4.45996e-20
6.82107e-06 1.70187e-06 -2.15708e-20
5.92854e-06 3.62835e-07 -1.95691e-20
-7.42146e-06 2.05157e-06 -1.82944e-20
-6.84122e-06 -1.98755e-06 3.23119e-20
-1.20121e-05 -8.992e-06 -1.72926e-20
8.00336e-06 -3.11441e-05 -4.66844e-20
-7.32737e-06 3.108e-05 -9.28232e-21
3.18071e-05 -8.25168e-06 -2.95302e-20
1.93597e-05 -1.47614e-05 -3.26712e-20
3.28809e-07 2.26897e-05 -6.55287e-21
4.33439e-08 -2.28145e-05 -4.76899e-20
-1.48447e-05 2.9708e-05 -1.31947e-20
1.54547e-05 -2.79506e-05 -4.1404e-20
2.24051e-06 5.95563e-06 -1.3926e-20
2.05005e-06 -6.03481e-06 -1.91141e-20
1.09842e-05 -8.2532e-06 -8.55531e-21
1.12173e-05 8.43571e-06 -4.03202e-20
7.50907e-06 -1.08301e-05 -1.4381e-20
7.17833e-06 1.06142e-05 1.63837e-20
-1.62162e-05 9.90615e-06 3.36759e-20
4.03939e-06 -2.12072e-05 -4.6959e-20
2.06174e-05 1.06288e-05 -3.83204e-20
2.07658e-05 -1.04405e-05 -6.91764e-21
1.78641e-05 -1.15482e-05 -3.8225e-21
1.72918e-05 -9.49902e-06 3.36763e-21
1.72892e-05 9.65771e-06 -3.81366e-20
-1.00201e-05 -9.30427e-05 -2.84312e-20
1.37883e-05 2.14796e-05 -3.02137e-20
-9.58668e-05 1.12413e-05 -1.90151e-20
-3.55078e-06 2.13482e-05 -1.10118e-20
3.32559e-05 -3.00512e-05 -2.45781e-20
3.28949e-05 3.00291e-05 -1.72956e-20
1.80053e-05 1.17131e-05 -3.40388e-20
2.1041e-05 -5.11949e-06 -1.79288e-20
1.96101e-05 1.36682e-05 -3.62196e-20
-1.32739e-06 -1.78819e-05 -5.39723e-20
-1.21153e-06 1.78815e-05 7.19023e-21
-1.55797e-05 1.26369e-05 -2.44855e-20
-1.56954e-05 -1.27462e-05 4.50573e-20
3.1066e-06 5.35856e-06 -4.59646e-20
2.54936e-06 -5.43613e-06 -9.64762e-21
-7.28499e-06 -1.48544e-05 -5.99766e-20
4.17988e-06 2.06018e-05 -8.73692e-21
1.57497e-05 -9.72192e-06 3.27652e-21
1.5861e-05 9.86439e-06 -3.68609e-20
1.96988e-05 1.49643e-05 -3.29447e-20
-6.89116e-06 1.50004e-05 5.73377e-21
4.17987e-06 -2.08663e-05 -5.46056e-20
2.5151e-05 4.55717e-05 -1.86528e-20
4.62286e-05 2.51064e-05 -3.84428e-20
-2.87076e-05 2.14851e-05 -1.95649e-20
1.72259e-05 -3.04445e-06 -1.438e-20
5.41097e-05 -2.62044e-05 -1.17436e-20
5.36063e-05 2.61421e-05 -9.83179e-21
-2.95948e-05 -2.01953e-05 4.2875e-20
-2.90113e-05 2.06732e-05 1.98439e-20
-1.22313e-05 5.24716e-06 5.59733e-20
-2.86816e-06 4.67233e-06 3.87739e-20
-2.89749e-06 -4.58988e-06 -2.2936e-20
-2.41572e-05 3.22635e-05 -2.06548e-20
-3.03361e-05 -2.59353e-05 -2.66146e-20
2.59994e-05 -3.71462e-05 -3.17111e-20
-2.3619e-05 3.86177e-05 -2.22936e-20
3.89253e-05 -2.2674e-05 -3.96276e-20
-2.65138e-05 -1.43396e-05 -4.45897e-21
-3.20894e-06 -4.16131e-05 -4.89073e-20
-3.94103e-05 3.60452e-07 -2.87529e-20
2.29892e-05 -3.1523e-05 1.34723e-20
2.34644e-05 3.15115e-05 -4.91545e-21
-1.41824e-05 1.12248e-05 4.09583e-20
-6.21171e-06 -4.48551e-07 7.10829e-20
-1.40531e-05 2.29739e-05 -1.17391e-20
1.4862e-05 -2.28781e-05 -4.24063e-20
-1.41114e-05 -4.17964e-06 5.80671e-20
2.26469e-05 -1.7549e-05 -2.0026e-20
2.24279e-05 1.76945e-05 -2.36671e-20
-1.73758e-05 9.12551e-06 3.21294e-20
-1.22036e-05 -8.21462e-06 -3.72251e-20
-1.07915e-05 7.90721e-06 2.69406e-20
-1.39433e-05 6.48986e-06 4.88753e-20
-3.54302e-06 -1.20506e-05 -5.48814e-20
-3.16647e-06 1.29266e-05 1.69288e-20
5.33665e-05 5.33659e-05 -2.63848e-21
-3.91986e-06 -2.11208e-05 -4.67787e-20
-3.5655e-06 2.13173e-05 -6.64368e-21
-4.07937e-06 -4.23537e-05 1.61123e-20
-3.90025e-06 4.24062e-05 -1.0013e-20
5.99678e-06 -1.1191e-05 -2.51218e-20
6.06131e-06 1.09361e-05 -4.73309e-21
-2.05648e-05 -1.0815e-05 3.98675e-20
-2.02146e-05 1.04394e-05 3.1675e-20
-3.59078e-05 6.65208e-06 3.81412e-20
-3.53707e-05 -6.62192e-06 2.82187e-20
4.75466e-05 2.64958e-05 -1.18342e-20
4.82168e-05 -2.65489e-05 -1.67504e-20
1.2807e-05 -1.50136e-07 -3.49522e-20
1.23793e-05 4.90103e-07 -3.18564e-20
1.86571e-05 8.72625e-06 -2.5847e-20
-1.21872e-06 -1.86289e-05 -5.72469e-20
1.60279e-05 -1.18774e-05 -1.37424e-20
-1.07134e-06 1.88157e-05 1.1832e-21
1.84197e-05 -8.85012e-06 -1.27414e-21
2.14903e-06 1.93879e-05 -2.12062e-20
1.61828e-05 1.20572e-05 -3.51299e-20
-1.29929e-05 2.40571e-07 1.01032e-20
-1.33854e-05 -2.91856e-07 3.79558e-20
-1.37862e-05 -1.1901e-05 5.66143e-20
2.35654e-05 -4.08193e-05 -1.33832e-20
2.37056e-05 4.10606e-05 5.00673e-21
-1.73035e-05 1.01243e-05 3.44947e-20
-2.45571e-06 2.28527e-05 2.61239e-20
2.71186e-05 -4.77734e-05 -1.95172e-20
4.70675e-05 -2.23632e-05 -3.62365e-20
3.7883e-06 -1.39334e-05 -2.20275e-20
3.67893e-06 1.37389e-05 -1.09227e-20
-3.21782e-06 -2.39737e-05 5.98951e-20
1.92514e-06 -1.91865e-05 -5.23323e-20
2.27608e-05 1.19512e-05 -2.82125e-20
1.88416e-05 -5.98986e-06 7.46358e-21
1.8836e-05 6.2806e-06 -4.50554e-20
-4.68006e-05 -1.26819e-10 1.28369e-20
-4.67728e-05 8.56694e-10 -4.55174e-22
-1.74011e-05 1.02002e-05 2.65758e-20
1.49402e-05 1.66796e-05 -3.30415e-20
1.50745e-05 -1.65629e-05 -1.27433e-20
4.77646e-06 1.36996e-05 1.11043e-20
4.7147e-06 -1.36813e-05 -5.23351e-20
2.09281e-06 -3.75097e-06 -3.17647e-20
2.3385e-06 4.0612e-06 2.48481e-20
5.17402e-05 -5.17411e-05 -1.80146e-20
-1.54935e-05 5.31733e-06 2.89454e-20
-1.55621e-05 -4.82046e-06 3.25864e-20
-3.71202e-06 -1.09882e-05 -5.37904e-20
-3.50788e-06 1.11818e-05 1.74752e-20
2.22196e-05 -1.19368e-05 -1.1467e-20
-1.74753e-05 -8.7757e-06 2.97631e-20
-2.2627e-05 -2.92061e-06 2.73067e-20
-2.25017e-05 3.72515e-06 2.88539e-20
-1.36758e-05 -6.41633e-06 5.81596e-20
6.92337e-06 -2.95166e-05 -3.39529e-20
6.8506e-06 2.95027e-05 -1.06501e-20
9.46667e-06 5.55242e-05 -1.0924e-21
9.21749e-06 -5.53881e-05 -5.82633e-21
4.30627e-06 9.24144e-05 1.04629e-21
9.31527e-05 6.46319e-06 -2.8568e-20
1.42159e-05 2.13944e-06 -3.72272e-20
1.40592e-05 -1.76768e-06 8.19146e-22
5.0477e-05 -6.2885e-05 -7.86996e-21
6.14266e-05 -5.02456e-05 -3.06838e-20
2.26817e-05 -5.47541e-05 -3.45927e-21
2.25262e-05 5.43787e-05 -7.64693e-21
-1.6459e-05 -9.65653e-06 5.73407e-21
1.51645e-05 8.18925e-06 -3.88647e-20
1.50318e-05 -7.97161e-06 1.51088e-20
1.40721e-05 1.56433e-05 -3.58586e-20
1.39174e-05 -1.55183e-05 -2.55741e-20
-5.95945e-07 -4.43384e-05 -5.45054e-20
-1.07538e-06 4.0895e-05 -4.4132e-21
4.24355e-05 -1.32271e-06 -5.3095e-20
1.07583e-05 1.07895e-05 -3.68608e-20
1.05452e-05 -1.06423e-05 -3.36747e-21
-4.43766e-06 4.52299e-05 -1.0009e-20
4.46872e-05 -3.25873e-06 -5.57772e-20
2.01374e-05 -2.94206e-06 -6.82653e-21
2.01847e-05 3.29313e-06 -3.36781e-20
1.91528e-05 -6.35697e-06 -1.91148e-21
1.91993e-05 6.70951e-06 -3.70462e-20
5.23443e-05 6.44009e-05 1.63767e-21
6.46869e-05 5.23968e-05 -1.36472e-20
1.59864e-05 8.7791e-06 -3.98653e-20
1.5881e-05 -8.58098e-06 6.55313e-21
5.54196e-06 -3.25393e-05 1.26533e-20
5.76948e-06 3.25422e-05 -1.01041e-20
1.42639e-05 6.37163e-06 -2.70335e-20
1.45616e-05 -5.62517e-06 -2.82173e-20
2.22621e-05 -2.10503e-05 -2.22099e-20
2.20506e-05 2.11128e-05 -2.28472e-20
-1.31883e-05 -3.05676e-06 4.64197e-21
-1.40703e-05 3.42253e-06 3.20387e-20
2.06209e-05 3.97601e-05 -2.00265e-21
3.0445e-05 3.06698e-05 -3.09507e-21
2.08201e-05 -3.98682e-05 -2.94024e-20
3.07114e-05 -3.07162e-05 -2.00268e-20
2.19895e-05 -4.12237e-05 6.00818e-21
-4.65454e-05 -6.42893e-07 2.22121e-20
-4.64239e-05 8.65864e-07 1.39276e-20
2.24469e-05 4.13866e-05 3.64121e-21
3.69608e-05 -1.53105e-05 -6.91831e-21
9.66163e-05 -1.27191e-05 -3.09531e-21
9.77026e-05 1.28623e-05 1.22001e-20
3.78863e-05 1.56924e-05 9.10426e-22
4.77865e-05 1.09876e-06 -1.17429e-20
3.25282e-05 -9.00374e-06 -1.89337e-20
4.48741e-05 1.45896e-05 -3.45921e-21
4.8596e-05 -5.44601e-07 -1.20162e-20
4.55498e-05 -1.46609e-05 -3.4594e-21
3.28673e-05 9.86946e-06 -1.75681e-20
3.47738e-05 -1.34937e-05 -1.33812e-20
3.51956e-05 -1.33629e-05 -1.25622e-20
3.43829e-05 1.37232e-05 -2.28478e-20
3.48051e-05 1.35926e-05 -1.47469e-20
-7.66919e-06 -2.16481e-05 1.61995e-20
-3.10634e-06 1.82037e-05 3.18569e-21
3.00759e-06 -1.82379e-05 4.60551e-20
-1.63891e-05 -3.03431e-06 -6.21607e-20
-2.04618e-05 -5.27605e-06 -5.49688e-20
-3.57467e-06 2.36497e-05 1.74761e-20
3.47982e-06 -2.373e-05 4.51464e-20
-2.19635e-05 5.49515e-06 -5.38772e-20
-7.05105e-06 1.10774e-05 -1.00757e-19
-1.19129e-05 -2.65028e-05 3.13941e-20
-1.15252e-05 2.80638e-05 -4.24955e-20
2.75798e-05 -1.19472e-05 1.96554e-20
1.53411e-05 1.59224e-05 2.6852e-20
-1.55435e-05 -1.59101e-05 3.91406e-20
-7.6295e-06 -1.52769e-05 1.47438e-20
-2.47044e-06 -1.4648e-05 1.98415e-20
1.73797e-06 2.41908e-05 1.37442e-20
-1.85701e-06 -2.42733e-05 3.82287e-20
1.7173e-05 2.5255e-06 -1.57451e-20
-9.17681e-06 -3.18167e-05 3.84029e-20
-9.23878e-06 3.24564e-05 -4.3226e-20
3.26626e-05 -8.67424e-06 1.07382e-20
-1.42475e-05 -1.43769e-05 6.18852e-21
-2.24854e-05 5.26499e-06 -2.90306e-20
-1.62162e-05 -1.44804e-05 -1.60181e-20
8.31724e-06 2.13462e-05 -2.08411e-20
-1.55276e-05 2.9272e-06 -7.31733e-20
-2.3795e-05 -4.85176e-05 3.64431e-20
-1.35489e-05 -6.81749e-06 -8.41905e-20
4.86163e-05 -2.39022e-05 1.66063e-20
-7.95514e-07 2.25705e-05 1.71128e-20
6.87934e-07 -2.26458e-05 4.38742e-20
-5.09621e-05 2.46549e-05 -5.40751e-20
-5.08353e-05 -2.55803e-05 -7.99291e-20
-3.28491e-05 1.07077e-05 -1.11931e-20
-1.19622e-05 -9.4476e-06 -3.79528e-20
-2.17005e-05 1.04556e-05 -9.15721e-20
-2.08187e-05 -1.02423e-05 -7.48229e-20
-3.54439e-06 -7.25946e-06 -8.39179e-20
1.28082e-05 1.53593e-05 -2.53003e-20
-2.11754e-05 1.39781e-05 -2.98503e-20
-6.416e-06 1.78435e-07 -9.97531e-20
-1.39251e-05 1.48214e-05 -3.58568e-20
-7.74794e-06 2.14546e-05 -4.66874e-20
2.41705e-06 1.47403e-05 3.73173e-21
-2.14416e-05 1.39546e-05 -2.4844e-20
-5.12289e-05 -5.12289e-05 8.14304e-21
5.18673e-05 -5.18684e-05 1.68775e-20
4.57022e-06 1.18441e-05 1.65656e-20
5.20556e-05 -5.50948e-05 3.66211e-20
-5.58866e-05 -5.14537e-05 8.96189e-21
2.65265e-05 -5.11557e-06 1.27433e-21
2.64716e-05 5.14623e-06 -3.16767e-20
1.22388e-05 4.30373e-06 -1.01027e-20
2.48613e-05 -1.68314e-05 -9.10399e-23
2.48046e-05 1.68754e-05 -2.95828e-20
7.83283e-06 1.52732e-05 -1.39248e-20
-2.15651e-05 3.98571e-05 -6.12645e-20
-2.15925e-05 -3.95839e-05 -5.68949e-20
1.82968e-05 -1.06484e-05 1.66565e-20
1.82492e-05 1.06526e-05 -3.34951e-20
-2.8821e-05 1.26217e-05 -1.61973e-20
2.40821e-05 -3.74235e-05 2.74e-20
-2.43641e-05 3.7454e-05 2.23932e-20
1.2726e-05 -1.51213e-05 1.41063e-20
-2.50216e-05 4.70343e-05 -2.89354e-20
-4.86486e-05 2.57578e-05 -9.09916e-21
1.8865e-06 1.46273e-05 1.36527e-21
-2.11906e-06 -1.45656e-05 3.53138e-20
5.19909e-05 -2.15362e-05 -6.37234e-21
5.1996e-05 2.15383e-05 1.05599e-20
2.78383e-06 -4.92084e-06 2.15709e-20
1.72577e-05 9.67633e-06 -2.12976e-20
1.73052e-05 -9.36187e-06 1.39253e-20
-1.04916e-05 -7.16e-06 -4.08667e-20
-4.54131e-06 -1.16138e-05 4.14143e-20
-3.03952e-05 -6.29967e-06 -2.06569e-20
2.12919e-05 4.73487e-06 -1.49256e-20
-2.63833e-05 -3.75013e-06 -3.57649e-20
-1.9465e-05 -1.62086e-05 -7.90073e-20
-2.23903e-05 -3.87797e-05 -3.96021e-20
-2.24577e-05 3.88963e-05 -2.40344e-20
-2.33936e-05 -2.57087e-05 1.64712e-20
-1.70937e-05 9.96178e-06 -4.04996e-20
1.68704e-05 -9.01179e-06 1.36521e-20
4.04737e-06 -4.22977e-05 2.78561e-20
-4.15365e-06 4.23708e-05 1.71137e-20
-2.00584e-05 1.78173e-05 -9.8214e-20
1.448e-06 1.92334e-05 1.09226e-21
-1.48564e-06 -1.93954e-05 3.60434e-20
1.23784e-05 -4.39041e-06 -3.36765e-21
1.19534e-05 4.12415e-06 -1.0285e-20
2.78418e-05 2.13674e-05 -2.36603e-20
1.50718e-05 -1.41989e-05 2.09346e-21
1.49193e-05 1.43332e-05 -8.46491e-21
1.66436e-05 9.1245e-06 -2.61211e-20
7.89057e-06 -2.13475e-05 1.60176e-20
1.12558e-05 -1.02044e-05 3.36771e-21
1.08743e-05 1.00459e-05 -1.52002e-20
-1.78949e-05 8.11968e-06 -7.69071e-20
9.46096e-06 7.19456e-06 -2.73054e-20
-2.14974e-05 -1.47462e-05 -1.00108e-20
-7.69549e-06 1.84811e-06 -3.89554e-20
-2.88028e-06 4.75944e-06 4.00484e-21
2.24337e-05 -3.93711e-06 1.09207e-20
-1.75629e-05 1.04367e-05 -8.53737e-20
-1.85157e-05 -8.51196e-06 -5.77936e-20
-1.43959e-05 -1.74436e-05 8.9184e-21
-1.64915e-05 -1.08019e-05 -3.84061e-20
-3.68713e-07 -1.9975e-05 4.03195e-20
1.77305e-07 1.98929e-05 -8.82839e-21
2.74542e-05 1.18725e-05 -2.12935e-20
-1.04978e-05 7.11175e-06 -5.96163e-20
1.3786e-05 -2.1812e-05 1.43788e-20
1.35844e-05 2.18005e-05 -2.79386e-20
-1.70539e-05 9.96436e-06 -6.47107e-20
-6.98013e-06 1.10078e-05 -1.04309e-19
-7.156e-06 -1.17372e-05 -8.12805e-20
-4.39104e-06 -2.02536e-05 3.07598e-20
-1.59995e-05 1.51021e-05 -3.11261e-20
2.0559e-06 -2.81726e-05 5.10959e-20
3.75104e-06 2.86788e-05 -3.35331e-20
2.90784e-05 1.64029e-06 -8.64491e-21
2.89503e-05 -2.09676e-05 1.82002e-20
1.9226e-05 1.32441e-05 -2.78473e-20
-2.90132e-05 5.02562e-05 1.11063e-20
2.8988e-05 -5.02093e-05 4.64291e-21
2.16789e-05 4.51403e-06 -2.15684e-20
3.35878e-06 1.16148e-05 -9.37452e-21
1.27749e-05 -4.68027e-06 -2.27538e-21
-4.1447e-06 2.04059e-05 -4.63218e-20
6.09837e-06 -1.21071e-05 3.32219e-20
-6.18115e-06 1.19159e-05 1.27429e-20
9.63906e-06 -7.27638e-06 3.15832e-20
7.02173e-06 -1.56439e-06 -2.26638e-20
-3.4539e-06 -1.11056e-05 7.19007e-21
5.87001e-06 2.41995e-07 -1.18324e-21
1.91967e-05 -1.39008e-05 1.71087e-20
-7.43676e-06 -2.05954e-06 -5.57025e-20
1.92704e-05 -1.4674e-05 1.01928e-20
-2.24255e-05 2.73504e-05 -4.3225e-20
-1.1877e-05 9.02056e-06 -5.08767e-20
7.61534e-06 -3.13398e-05 4.09514e-20
7.92605e-06 3.09225e-05 -2.79834e-20
3.22426e-05 8.08819e-06 -1.59709e-20
1.9325e-05 1.48125e-05 -3.41276e-20
3.55158e-08 2.27392e-05 -2.04776e-20
-2.2599e-07 -2.28404e-05 3.9226e-20
1.53093e-05 -2.74371e-05 2.65714e-20
1.52679e-05 2.81252e-05 -2.48425e-20
1.99635e-06 -6.1354e-06 -4.09587e-21
2.14405e-06 6.06064e-06 -6.73544e-21
1.10447e-05 8.25264e-06 -1.88403e-20
7.49063e-06 1.08007e-05 7.28149e-21
-1.64951e-05 -9.78853e-06 -6.53499e-20
-3.25858e-05 -2.50576e-05 -1.45593e-21
4.02528e-06 2.11441e-05 -2.7666e-20
2.06345e-05 1.05999e-05 -2.84899e-20
2.06981e-05 -1.05771e-05 5.73438e-21
1.78456e-05 1.16499e-05 -3.50399e-20
1.72845e-05 -9.60421e-06 1.81126e-20
1.72625e-05 9.62599e-06 -2.69413e-20
-8.33799e-06 -9.41179e-05 3.1707e-20
9.34427e-05 -1.4183e-05 1.59669e-20
4.05579e-06 -2.08001e-05 2.71199e-20
3.31121e-05 -3.01436e-05 -1.51109e-20
3.30701e-05 3.02414e-05 -6.64515e-21
-4.05337e-05 -2.39671e-06 -9.96394e-21
-1.35201e-06 1.78264e-05 -8.82844e-21
1.18526e-06 -1.80962e-05 2.66676e-20
-1.47384e-05 2.14967e-05 -4.17709e-20
6.48696e-06 1.97735e-06 3.3131e-20
-2.8442e-06 -5.57709e-06 -4.45976e-21
-1.58422e-05 1.25481e-05 2.2119e-20
1.56337e-05 -1.27316e-05 4.33273e-20
1.0992e-05 -8.07795e-06 2.46654e-20
-1.21385e-05 -8.21756e-06 -1.45624e-20
1.78757e-05 -1.15919e-05 1.61092e-20
-2.11197e-05 -1.3245e-05 -1.54707e-20
2.03592e-05 -5.07322e-06 -2.09321e-21
2.92208e-06 5.28622e-06 -1.05582e-20
-7.26985e-06 1.48532e-05 -3.2036e-20
-4.24842e-06 -2.0658e-05 3.94069e-20
1.5755e-05 9.84432e-06 -3.86811e-20
4.17043e-06 2.07917e-05 -2.30254e-20
-7.43355e-06 -1.06004e-05 4.44182e-20
-2.50113e-05 4.71729e-05 -1.81977e-20
-4.57592e-05 2.60417e-05 -5.39108e-21
1.71916e-05 -3.21461e-06 4.36859e-21
1.57976e-05 -9.81852e-06 2.12973e-20
5.39497e-05 -2.62496e-05 -1.17435e-20
5.39741e-05 2.62986e-05 3.18622e-21
3.37402e-06 -1.17978e-05 2.18437e-20
-2.95316e-05 2.01645e-05 -6.64518e-20
-2.89512e-05 -2.06373e-05 -9.19401e-20
-1.23326e-05 -5.3959e-06 -8.21855e-20
-2.9071e-06 4.59015e-06 -2.67585e-20
2.65028e-05 -3.27545e-05 4.02176e-20
-3.17537e-05 -2.50176e-05 1.75612e-20
2.7009e-05 -3.87247e-05 4.79538e-20
2.49197e-05 3.6542e-05 -2.62971e-20
4.00623e-05 2.3331e-05 -2.33852e-20
2.47293e-06 -4.57849e-06 3.8774e-20
-1.22304e-06 -4.16567e-05 4.686e-20
4.25014e-05 -2.78773e-06 1.07368e-20
2.29474e-05 3.14899e-05 3.23148e-20
-2.31357e-05 -3.14482e-05 3.70483e-20
-1.43457e-05 -1.13331e-05 -7.58187e-20
-6.18615e-06 4.56276e-07 -9.41103e-20
1.46472e-05 2.28222e-05 -2.62083e-20
1.48431e-05 -2.27e-05 2.92114e-20
-1.40735e-05 4.10539e-06 -8.65547e-20
7.45379e-06 -1.49818e-05 1.75654e-20
2.25531e-05 -1.77003e-05 -6.00779e-21
2.24697e-05 1.77494e-05 -1.53836e-20
-1.72792e-05 -9.08745e-06 -7.5636e-20
-1.20816e-05 8.06188e-06 -3.84083e-20
-1.38674e-05 -6.4416e-06 -7.33588e-20
-2.62539e-05 -1.43846e-05 2.093e-21
-3.52721e-06 1.18941e-05 -2.42097e-20
-5.36411e-05 5.36413e-05 -1.99705e-20
-3.89704e-06 2.10584e-05 -3.31273e-20
3.77209e-06 -2.14316e-05 3.00331e-20
4.04055e-06 -4.23041e-05 3.5592e-20
-4.16892e-06 4.23499e-05 2.43045e-20
5.93433e-06 -1.13005e-05 -4.64207e-21
5.88836e-06 1.09001e-05 1.82049e-22
-2.04986e-05 1.07976e-05 -1.04038e-19
-2.03409e-05 -1.04362e-05 -7.67308e-20
-3.58341e-05 -6.63759e-06 -9.13023e-20
-3.53397e-05 6.78367e-06 -7.70107e-20
4.79253e-05 -2.66011e-05 -1.76601e-20
4.79018e-05 2.66529e-05 4.09279e-27
1.2913e-05 6.81759e-07 2.00246e-20
1.2696e-05 -3.27416e-07 -2.57589e-20
1.85632e-05 -8.76316e-06 1.7838e-20
-1.23862e-06 1.86059e-05 -2.876e-20
1.60015e-05 1.19822e-05 -3.59489e-20
1.10933e-06 -1.8539e-05 2.29354e-20
-2.93312e-05 2.0127e-05 -2.52978e-20
1.84487e-05 8.82488e-06 -3.19446e-20
-2.21599e-06 -1.96936e-05 3.02162e-20
-1.2973e-05 -2.60261e-07 -9.08378e-20
-1.30382e-05 1.43853e-07 -6.9266e-20
-1.36484e-05 1.18167e-05 -9.92116e-20
2.35479e-05 4.07869e-05 6.64582e-21
-2.35762e-05 -4.08382e-05 4.27852e-21
-4.47654e-06 -1.42331e-05 3.51333e-20
-1.73668e-05 -1.02722e-05 -7.22664e-20
-2.45917e-06 -2.28324e-05 -8.1741e-20
1.6099e-05 -1.18342e-05 1.51986e-20
2.60609e-05 4.86336e-05 -2.71149e-20
4.67939e-05 2.30395e-05 -2.70693e-20
3.72544e-06 -1.40439e-05 -4.73319e-21
3.48654e-06 1.36524e-05 -3.91397e-21
-3.21228e-06 2.39456e-05 -8.92965e-20
1.93016e-06 1.91227e-05 -1.347e-20
2.257e-05 -1.18908e-05 2.2479e-20
1.88555e-05 -6.16423e-06 1.73849e-20
1.88115e-05 6.17577e-06 -4.43271e-20
-4.67089e-05 3.98737e-10 -1.27458e-20
-4.67776e-05 -3.88164e-10 -7.31064e-20
3.50921e-06 -1.10132e-05 3.41313e-20
-1.77861e-05 -1.06173e-05 -5.36066e-20
1.48642e-05 1.67424e-05 -1.68393e-20
1.50155e-05 -1.66899e-05 1.36534e-21
4.69439e-06 1.36227e-05 -4.00473e-21
2.09536e-06 3.74918e-06 -1.15591e-20
5.22549e-05 5.22549e-05 2.18356e-21
-1.54589e-05 -5.30553e-06 -1.09865e-19
-1.54367e-05 4.97381e-06 -7.37288e-20
-3.67786e-06 1.09471e-05 -1.49265e-20
2.25541e-05 1.19095e-05 -2.75756e-20
-1.7471e-05 8.78898e-06 -9.53877e-20
-2.25866e-05 2.92775e-06 -1.00944e-19
-2.25649e-05 -2.92829e-06 -7.67317e-20
-1.36347e-05 6.48838e-06 -9.16539e-20
6.8577e-06 -2.96127e-05 -1.07411e-20
6.71915e-06 2.97199e-05 5.50849e-28
9.16221e-06 5.53946e-05 2.11199e-20
-9.28177e-06 -5.53583e-05 1.28358e-20
-7.1584e-06 9.41859e-05 -1.70134e-20
-9.4283e-05 5.20015e-06 -1.19412e-20
1.41314e-05 1.97709e-06 -3.95026e-20
1.40499e-05 -2.01107e-06 2.80341e-20
-1.61599e-06 -4.00458e-06 4.06853e-20
5.11355e-05 6.46398e-05 -5.16325e-21
6.36738e-05 5.04726e-05 -9.87161e-21
2.26733e-05 5.47354e-05 5.55313e-21
2.26518e-05 -5.46838e-05 -1.0469e-20
-1.64239e-05 9.68162e-06 -7.5362e-20
1.40589e-05 -1.53198e-05 1.10124e-20
1.50925e-05 8.10864e-06 -3.87736e-20
1.51278e-05 -8.10377e-06 2.33005e-20
1.05859e-05 -1.07007e-05 1.91129e-20
1.39297e-05 1.55566e-05 -3.04889e-20
-6.10907e-07 -4.24296e-05 5.70078e-20
4.06478e-07 4.308e-05 -3.38498e-20
4.52125e-05 -2.71928e-07 -1.66518e-20
1.05899e-05 1.07274e-05 -2.95796e-20
1.80873e-06 4.44513e-05 -3.13916e-20
-4.4712e-05 -5.68493e-06 3.1164e-21
2.01709e-05 -3.30895e-06 2.04798e-20
2.01825e-05 3.14663e-06 -4.07776e-20
1.92104e-05 -6.58855e-06 1.30162e-20
1.91825e-05 6.61378e-06 -3.96857e-20
-5.27424e-05 6.55269e-05 -2.23814e-20
-6.47187e-05 5.27578e-05 -9.14356e-21
1.5889e-05 8.68046e-06 -3.84089e-20
1.59183e-05 -8.66416e-06 2.03877e-20
5.48024e-06 3.25074e-05 2.57614e-20
-5.59977e-06 -3.24698e-05 3.28614e-20
1.47562e-05 5.95435e-06 1.04676e-20
1.44798e-05 -5.89566e-06 -3.01286e-20
2.21728e-05 -2.11594e-05 -6.28069e-21
2.20855e-05 2.12383e-05 -1.17421e-20
-1.31158e-05 3.06776e-06 -9.32031e-20
-1.34006e-05 -3.2081e-06 -6.95382e-20
2.06649e-05 4.01083e-05 6.09897e-21
3.06425e-05 3.08762e-05 2.00268e-21
2.07348e-05 -3.99499e-05 -1.01953e-20
3.06319e-05 -3.07922e-05 -7.55557e-21
-2.21295e-05 -4.12125e-05 1.74778e-20
-4.64699e-05 -7.55856e-07 -7.98362e-20
-4.64532e-05 6.44783e-07 -5.57122e-20
2.19471e-05 4.11988e-05 1.78421e-20
3.73978e-05 1.54913e-05 2.3668e-21
9.7292e-05 1.2807e-05 1.01962e-20
3.73602e-05 -1.54756e-05 -1.36543e-21
9.73015e-05 -1.28082e-05 5.0981e-21
4.82155e-05 -9.05895e-07 -1.31993e-20
3.27455e-05 9.33703e-06 -1.05591e-20
4.52455e-05 -1.4662e-05 -1.00134e-20
4.81837e-05 9.30545e-07 -5.09766e-21
3.26996e-05 -9.32168e-06 -1.52015e-20
4.52148e-05 1.46819e-05 3.27714e-21
3.46238e-05 -1.36812e-05 -1.22886e-20
3.50404e-05 -1.35523e-05 -2.30306e-20
3.45801e-05 1.37237e-05 -2.14823e-20
3.50051e-05 1.35922e-05 -9.92227e-21
-7.97389e-06 -2.19916e-05 -3.91338e-20
-3.02027e-06 1.82322e-05 1.75666e-20
3.17875e-06 -1.81449e-05 -8.19172e-21
-1.63742e-05 2.99239e-06 7.39922e-20
-2.09099e-05 5.43696e-06 7.02584e-20
-3.49405e-06 2.37419e-05 5.74348e-20
3.65108e-06 -2.36375e-05 -6.73554e-21
-2.09249e-05 -5.38943e-06 4.36841e-20
-7.02703e-06 -1.10523e-05 -3.44955e-20
-1.18046e-05 -2.65254e-05 -2.84824e-20
1.19877e-05 2.71866e-05 -4.27694e-21
2.76092e-05 1.25014e-05 1.71074e-20
-1.54041e-05 -1.58768e-05 6.91785e-21
1.54206e-05 1.59908e-05 3.21318e-20
-1.68321e-05 1.00758e-05 5.11492e-20
-7.45048e-06 -1.51214e-05 -3.31282e-20
-2.53294e-06 -1.46033e-05 -1.67471e-20
-1.69771e-06 -2.42521e-05 -9.10204e-22
1.82938e-06 2.42599e-05 1.38353e-20
1.70772e-05 2.55673e-06 1.69283e-20
-9.08865e-06 -3.19283e-05 -2.56627e-20
8.60481e-06 3.23673e-05 -1.44693e-20
3.35273e-05 8.8675e-06 1.55612e-20
7.93167e-06 2.16893e-05 -3.72225e-20
-1.46549e-05 -1.47462e-05 -4.42299e-20
-1.5397e-05 -3.16308e-06 1.70191e-20
-2.29865e-05 -4.7614e-05 -1.71069e-20
-1.36187e-05 6.86575e-06 6.67151e-20
-6.85825e-07 2.26514e-05 5.2158e-20
9.20886e-07 -2.25774e-05 -4.64227e-21
-5.09583e-05 -2.46976e-05 -1.00137e-20
-5.08398e-05 2.5588e-05 4.27867e-20
-1.10136e-05 1.48761e-05 2.43001e-20
-1.3303e-05 1.57462e-05 2.4845e-20
-3.06463e-05 9.88213e-06 4.83212e-20
-2.17367e-05 -1.05258e-05 -3.12217e-20
-2.08045e-05 1.0187e-05 5.18845e-20
-3.55266e-06 7.31052e-06 6.3257e-20
-6.39644e-06 -2.28573e-07 6.37069e-22
-2.20629e-05 1.4409e-05 5.80623e-20
-2.54719e-05 -4.00658e-06 2.82116e-20
-2.32417e-05 4.67234e-06 6.67064e-20
2.29005e-06 1.47557e-05 3.65886e-20
-7.24984e-06 2.18609e-05 -2.36633e-21
1.32485e-05 1.54306e-05 -3.35817e-20
-5.15424e-05 -5.15419e-05 4.91313e-21
-5.07497e-05 5.07492e-05 -5.91388e-21
4.61196e-06 1.18948e-05 2.44844e-20
7.66977e-06 1.53376e-05 -2.5028e-20
-5.08976e-05 5.53591e-05 1.60585e-20
-5.37008e-05 -5.16462e-05 -1.02357e-20
2.64247e-05 -5.23783e-06 1.0741e-20
2.65865e-05 4.86461e-06 -3.89585e-20
1.24717e-05 4.26282e-06 1.26512e-20
2.47822e-05 -1.67948e-05 5.91658e-21
2.4902e-05 1.67172e-05 -2.18459e-20
-2.15803e-05 -3.98922e-05 -3.23158e-20
-2.15919e-05 3.95972e-05 5.64397e-20
1.83081e-05 -1.06956e-05 2.36651e-21
1.82659e-05 1.04963e-05 -2.73968e-20
-2.41318e-05 3.74593e-05 7.53739e-20
2.46207e-05 -3.75396e-05 -2.82189e-21
1.26967e-05 -1.51585e-05 2.36623e-20
2.4937e-05 4.71206e-05 5.09554e-21
4.73342e-05 2.49441e-05 1.52411e-20
1.93456e-06 1.46809e-05 2.02965e-20
-1.95464e-06 -1.44678e-05 -1.28332e-20
5.16164e-05 -2.13803e-05 2.91309e-21
5.22451e-05 2.16397e-05 2.73117e-21
-2.10681e-05 -1.46369e-05 -2.4481e-20
2.7886e-06 -4.64397e-06 -1.52912e-20
1.72884e-05 9.3883e-06 -4.64181e-21
1.73368e-05 -9.44978e-06 -7.64531e-21
-1.06446e-05 -7.23153e-06 -2.32096e-20
-4.38111e-06 -1.15723e-05 2.00245e-20
-1.94336e-05 1.62293e-05 7.52753e-20
-2.95581e-05 -6.68901e-06 4.23153e-20
-2.23951e-05 3.87875e-05 3.64157e-20
-2.2475e-05 -3.89281e-05 -8.0112e-21
-1.66709e-05 -1.02807e-05 -3.27638e-20
1.67028e-05 8.89138e-06 1.10127e-20
-2.36516e-05 -2.57071e-05 -3.13045e-20
4.24175e-06 -4.24973e-05 -5.46184e-22
-4.06866e-06 4.23407e-05 5.26179e-20
-2.0108e-05 -1.78268e-05 -4.77865e-20
1.53912e-06 1.93684e-05 -1.46539e-20
-1.32454e-06 -1.935e-05 2.00241e-21
1.22127e-05 4.08777e-06 1.11041e-20
1.24669e-05 -4.52452e-06 -3.91376e-21
2.79292e-05 -2.09868e-05 1.47422e-20
2.10024e-05 4.52723e-06 1.40155e-20
1.51262e-05 -1.41981e-05 -1.01033e-20
1.50176e-05 1.41352e-05 -1.23788e-20
1.70129e-05 -9.18629e-06 -6.82608e-21
7.95428e-06 -2.12651e-05 1.96581e-20
1.13735e-05 -1.02593e-05 -1.05583e-20
1.10188e-05 9.9183e-06 9.10176e-22
-1.80349e-05 -8.06965e-06 -2.29355e-20
-1.89329e-05 1.48976e-05 4.85045e-20
9.25759e-06 7.14765e-06 -2.51206e-20
-7.91729e-06 1.93417e-06 -7.64564e-21
-2.92789e-06 4.9389e-06 7.68181e-20
2.24966e-05 3.73845e-06 1.78371e-20
-3.1752e-05 3.09192e-05 2.07469e-20
-1.76009e-05 -1.05145e-05 -5.28804e-20
-1.81636e-05 8.61946e-06 8.05469e-20
-4.31666e-05 7.05813e-06 2.17934e-20
-1.68429e-05 1.02821e-05 7.21708e-20
-2.4876e-07 -1.99081e-05 -6.37107e-21
3.70913e-07 1.99748e-05 -2.32998e-20
-1.49364e-05 -1.77436e-05 -3.64928e-20
2.75804e-05 -1.18878e-05 3.82193e-21
-1.05186e-05 7.82462e-06 1.90226e-20
1.37103e-05 -2.15328e-05 2.57546e-20
-1.43999e-05 2.32185e-05 4.96886e-20
-1.72978e-05 -1.02322e-05 -3.65877e-20
-6.9901e-06 -1.10161e-05 -6.32582e-20
-7.14465e-06 1.17638e-05 7.16323e-20
-4.28996e-06 -2.03954e-05 -2.38435e-20
3.99171e-06 2.08736e-05 -3.00319e-20
2.48482e-06 -2.81509e-05 -9.0999e-21
-3.71217e-06 2.89838e-05 -9.10687e-23
2.93758e-05 -3.19687e-06 1.02374e-20
1.95396e-05 -1.30706e-05 1.65628e-20
2.90836e-05 -5.0376e-05 2.00272e-21
-2.90136e-05 5.02548e-05 3.73274e-20
-2.07086e-05 -1.2487e-05 -8.82744e-21
2.17609e-05 -4.80989e-06 6.00636e-21
-3.28554e-05 -2.60457e-05 -1.24663e-20
3.23077e-06 1.16831e-05 -2.73034e-21
1.27875e-05 -4.76333e-06 3.18554e-21
6.08164e-06 -1.17834e-05 -1.28339e-20
-6.23399e-06 1.21068e-05 1.11772e-19
1.94606e-05 2.74266e-05 -1.14661e-20
2.89438e-05 1.94775e-05 2.00198e-21
9.74784e-06 -7.3722e-06 2.41198e-20
-4.14149e-05 -1.87017e-06 7.96219e-21
6.80288e-06 -1.6894e-06 3.09453e-21
-3.30672e-06 -1.18859e-05 -3.14911e-20
5.93702e-06 1.52048e-07 -8.19178e-22
-6.88872e-06 -1.78785e-06 1.86585e-20
-1.57282e-05 -1.49906e-05 -4.35947e-20
7.70786e-06 -3.11265e-05 7.91728e-21
-7.37431e-06 3.10704e-05 9.55525e-21
3.18238e-05 -8.35983e-06 9.73726e-21
1.96115e-05 -1.50585e-05 2.26608e-20
2.35314e-07 2.27009e-05 -2.75764e-20
-1.04647e-07 -2.28013e-05 2.73047e-22
1.56615e-05 -2.8216e-05 1.34677e-20
-1.48745e-05 2.97021e-05 3.14853e-20
2.2025e-06 5.81511e-06 3.54975e-21
2.10403e-06 -6.17085e-06 -3.64093e-22
1.10447e-05 8.34318e-06 -2.11153e-20
7.54849e-06 1.08727e-05 3.29489e-20
-1.62013e-05 9.92302e-06 4.92397e-20
2.07228e-05 1.04356e-05 -2.1117e-20
2.06767e-05 -1.06261e-05 -1.72942e-21
1.73177e-05 -9.67315e-06 -1.18323e-21
1.72812e-05 9.47647e-06 -2.18441e-20
-9.99743e-06 -9.30829e-05 1.95152e-20
1.37007e-05 2.14069e-05 -3.22156e-20
-9.58842e-05 1.12329e-05 -1.6604e-20
-1.21659e-05 -9.04678e-06 -4.31408e-20
4.19591e-06 -2.07288e-05 9.64673e-21
-3.60826e-06 2.13659e-05 -6.37045e-21
3.29263e-05 -2.99388e-05 2.73089e-21
3.32442e-05 3.01382e-05 -8.19271e-21
1.79594e-05 1.15769e-05 -1.42889e-20
2.10422e-05 -5.22995e-06 3.64038e-21
1.95511e-05 1.35771e-05 9.10039e-22
-1.26344e-06 1.79616e-05 -2.12976e-20
1.31303e-06 -1.8067e-05 1.49266e-20
6.63154e-06 1.77631e-06 2.61226e-20
1.79261e-05 -1.16654e-05 7.00796e-21
-3.21814e-06 -5.34872e-06 -1.43809e-20
-1.56687e-05 1.27247e-05 1.02767e-19
1.60306e-05 -1.24346e-05 -7.00885e-21
1.10615e-05 -8.15048e-06 2.86701e-20
-1.23439e-05 -8.38129e-06 -3.79536e-20
2.53416e-06 5.43365e-06 5.916e-20
4.08621e-06 2.06134e-05 -2.59376e-20
-4.23136e-06 -2.05623e-05 -1.17402e-20
1.5776e-05 9.69435e-06 -2.67581e-20
1.96389e-05 1.48612e-05 -1.61992e-20
-6.9277e-06 1.50458e-05 -2.11147e-20
-7.21467e-06 -1.05794e-05 2.65781e-20
2.51092e-05 4.5526e-05 1.37848e-20
4.61988e-05 2.50495e-05 8.50744e-21
-2.87251e-05 2.14864e-05 4.09497e-20
1.58446e-05 -9.88551e-06 7.00812e-21
1.72456e-05 -3.16508e-06 -2.73038e-21
5.41605e-05 2.62532e-05 -3.82351e-21
5.35758e-05 -2.60953e-05 5.09796e-21
3.5033e-06 -1.18412e-05 3.05812e-20
-2.95487e-05 -2.02114e-05 -1.27438e-20
-2.89932e-05 2.06535e-05 3.99621e-20
-1.22307e-05 5.24353e-06 6.19803e-20
-3.0746e-06 4.60561e-06 2.83059e-20
-2.41784e-05 3.22558e-05 2.03363e-20
-3.03517e-05 -2.59447e-05 -2.62963e-20
2.59977e-05 -3.72296e-05 1.17836e-20
-2.36409e-05 3.86036e-05 2.334e-20
3.89474e-05 -2.27094e-05 -5.96007e-21
-2.65435e-05 -1.43724e-05 -1.0829e-20
2.70908e-06 -4.63002e-06 3.14926e-20
-3.18196e-06 -4.16501e-05 -5.00452e-21
-3.94241e-05 3.52136e-07 -4.54367e-23
2.3018e-05 3.15401e-05 5.96241e-20
-2.30207e-05 -3.14651e-05 8.19238e-22
-1.41789e-05 1.12249e-05 8.26449e-20
-6.21071e-06 -4.53045e-07 2.27538e-20
-1.40846e-05 2.29828e-05 3.41251e-20
1.48965e-05 -2.25328e-05 1.79273e-20
-1.41111e-05 -4.18492e-06 3.52224e-20
7.52262e-06 -1.49777e-05 2.38453e-20
2.25011e-05 -1.76534e-05 -4.55137e-22
2.25907e-05 1.75835e-05 -1.28348e-20
-1.73685e-05 9.13717e-06 6.20742e-20
-1.08024e-05 7.9581e-06 7.91828e-21
-1.39396e-05 6.48697e-06 8.38255e-20
-3.19368e-06 1.29668e-05 -3.45851e-21
5.33324e-05 5.33329e-05 5.23178e-22
3.89859e-06 -2.13905e-05 6.00665e-21
-3.61959e-06 2.13426e-05 -3.19443e-20
-4.04806e-06 4.23652e-05 8.31106e-20
4.30419e-06 -4.24148e-05 -1.82062e-22
6.0644e-06 -1.13446e-05 -1.57467e-20
6.0079e-06 1.07757e-05 1.09225e-21
-2.06225e-05 -1.08428e-05 -4.07773e-20
-2.01826e-05 1.04397e-05 4.73309e-20
-3.58356e-05 6.52391e-06 2.2757e-21
-3.53634e-05 -6.6895e-06 1.8661e-20
4.75585e-05 -2.64465e-05 4.91573e-21
4.82325e-05 2.65997e-05 -5.46209e-21
1.29964e-05 4.93115e-07 2.07529e-20
1.23664e-05 -4.76755e-07 -3.38589e-20
1.86094e-05 8.5988e-06 4.55048e-21
-1.13065e-06 1.88462e-05 -3.29466e-20
1.23861e-06 -1.8501e-05 1.79297e-20
1.84919e-05 -8.95337e-06 3.64025e-22
-2.05024e-06 -1.95273e-05 -1.65644e-20
2.01222e-06 1.93735e-05 -1.57451e-20
1.60928e-05 1.19292e-05 -2.39355e-20
-1.3046e-05 2.58749e-08 5.9164e-21
-1.31757e-05 -1.58796e-07 2.19358e-20
1.60808e-05 -1.19873e-05 1.90211e-20
-1.37801e-05 -1.19031e-05 -5.91627e-20
2.35793e-05 4.08435e-05 1.84815e-20
-2.35799e-05 -4.08432e-05 -9.19419e-21
-4.31547e-06 -1.42267e-05 2.71236e-20
-1.72971e-05 1.01254e-05 7.80002e-20
-2.45485e-06 2.28427e-05 7.25474e-20
2.71132e-05 -4.78272e-05 1.42854e-20
4.7072e-05 -2.23992e-05 -6.52849e-21
3.90798e-06 -1.40226e-05 -1.1833e-20
3.57263e-06 1.36406e-05 -4.64215e-21
-3.21711e-06 -2.39713e-05 -5.49788e-20
2.27357e-05 1.18416e-05 1.61083e-20
1.88586e-05 -6.27735e-06 8.64699e-21
1.88316e-05 5.99326e-06 -4.24151e-20
-4.66943e-05 -8.33269e-10 4.73373e-21
-4.67807e-05 1.31806e-10 1.62054e-20
3.64534e-06 -1.10167e-05 3.46775e-20
-1.73999e-05 1.02054e-05 8.19117e-20
1.49578e-05 1.65802e-05 -2.10264e-20
1.50716e-05 -1.66558e-05 -3.00376e-21
4.7598e-06 1.37549e-05 -3.00355e-21
2.44183e-06 3.95819e-06 2.24811e-20
5.17711e-05 -5.17709e-05 9.46219e-21
-1.57357e-05 5.20965e-06 2.45764e-21
-1.54443e-05 -4.87808e-06 1.84777e-20
-3.53259e-06 1.12346e-05 5.91606e-21
2.22251e-05 -1.19803e-05 6.09756e-21
-1.74889e-05 -8.76927e-06 -4.48723e-20
-2.28566e-05 -2.42707e-06 -2.06621e-20
-2.24581e-05 3.75906e-06 2.9127e-20
-1.36751e-05 -6.4186e-06 -3.54054e-20
6.78485e-06 2.96073e-05 -5.73466e-21
7.0035e-06 -2.94079e-05 -1.07411e-20
9.24254e-06 5.5401e-05 5.72618e-20
-9.13029e-06 -5.55205e-05 -1.02867e-20
4.27408e-06 9.23727e-05 2.41101e-20
9.31467e-05 6.4148e-06 -3.77571e-21
1.41034e-05 -2.17285e-06 1.44722e-20
1.40622e-05 1.77943e-06 -5.10611e-20
-1.4522e-06 -4.04601e-06 3.57705e-20
5.0501e-05 -6.29762e-05 2.39966e-20
6.14284e-05 -5.02814e-05 4.5036e-21
2.27103e-05 5.4823e-05 -5.46201e-22
2.25037e-05 -5.43246e-05 1.11062e-20
-1.64428e-05 -9.67127e-06 -4.05935e-20
1.41044e-05 -1.53678e-05 2.38451e-20
1.51691e-05 -8.19694e-06 1.41078e-20
1.50326e-05 7.96821e-06 -4.33242e-20
1.0653e-05 -1.07879e-05 2.03872e-20
1.39587e-05 1.55552e-05 -3.58583e-20
-1.11976e-06 4.08787e-05 1.66973e-20
-5.38292e-07 -4.44259e-05 6.68804e-21
4.2451e-05 -1.39687e-06 4.54973e-21
1.05983e-05 1.06328e-05 -4.1957e-20
-4.46817e-06 4.51958e-05 1.66512e-20
4.46752e-05 -3.30915e-06 5.36845e-21
2.01527e-05 -3.45549e-06 1.11957e-20
2.01285e-05 2.9521e-06 -5.11534e-20
1.9205e-05 -6.69149e-06 1.13778e-20
1.91448e-05 6.36286e-06 -4.9516e-20
5.23106e-05 6.43612e-05 2.59298e-21
6.46717e-05 5.23623e-05 3.32085e-21
1.59031e-05 8.59297e-06 -3.79534e-20
1.59639e-05 -8.76033e-06 1.38345e-20
5.56771e-06 3.25566e-05 7.6102e-20
-5.42536e-06 -3.24899e-05 -2.74479e-27
1.48107e-05 5.68314e-06 1.42907e-20
1.42539e-05 -6.3656e-06 -5.86181e-20
2.21268e-05 -2.10603e-05 -4.82432e-21
2.22026e-05 2.10974e-05 -1.23793e-20
-1.32223e-05 -3.11034e-06 -2.86711e-20
-1.40613e-05 3.45765e-06 2.5212e-20
-2.20126e-05 -4.12493e-05 -3.64123e-21
-4.64091e-05 -7.27567e-07 4.82457e-21
-4.64476e-05 8.18845e-07 1.22895e-20
2.20179e-05 4.12441e-05 3.44103e-20
2.07645e-05 4.00207e-05 -1.36545e-21
3.07371e-05 3.07934e-05 5.46187e-22
2.0691e-05 -3.96037e-05 -4.82455e-21
3.04307e-05 -3.05915e-05 -2.00268e-21
3.69884e-05 1.5322e-05 -2.69202e-26
3.78871e-05 -1.56927e-05 -3.79613e-20
9.77715e-05 -1.28714e-05 -2.05763e-20
9.65911e-05 1.27159e-05 -1.05604e-20
4.78061e-05 -1.07496e-06 3.91429e-21
3.25584e-05 9.02054e-06 8.64759e-21
4.86069e-05 5.59624e-07 -4.3058e-20
3.2863e-05 -9.8645e-06 -5.38878e-20
4.55591e-05 1.46833e-05 -1.31093e-20
4.48927e-05 -1.45699e-05 1.27445e-21
3.44114e-05 -1.36862e-05 1.10143e-20
3.48303e-05 -1.35567e-05 7.10037e-21
3.47715e-05 1.35227e-05 -3.12227e-20
3.51906e-05 1.33927e-05 -8.01064e-21
-2.92006e-06 1.81254e-05 -7.54543e-20
2.19843e-06 -1.99698e-05 2.61242e-20
-1.62383e-05 -3.17596e-06 -1.1832e-21
-2.03291e-05 -5.5886e-06 1.13761e-20
-3.3817e-06 2.34928e-05 -7.4638e-20
1.98129e-06 -2.24971e-05 2.22107e-20
-2.17119e-05 5.22024e-06 9.46496e-21
-6.76038e-06 1.0904e-05 -1.70206e-20
-1.14863e-05 2.81965e-05 -5.08674e-20
-1.09888e-05 -2.75377e-05 3.93121e-20
2.81574e-05 1.13221e-05 -1.49237e-20
1.5959e-05 -1.49896e-05 -7.64635e-21
1.52858e-05 1.58308e-05 -6.37175e-20
-1.58338e-05 -1.06985e-05 1.51996e-20
4.43884e-06 -2.19922e-05 2.73077e-22
1.83321e-06 2.40071e-05 -5.45219e-20
1.69573e-05 -3.98839e-06 2.31177e-20
-7.57153e-06 -3.4001e-05 3.32169e-20
-9.18718e-06 3.26137e-05 -7.09817e-20
3.35927e-05 7.82219e-06 2.73007e-22
-2.25029e-05 4.87166e-06 2.08403e-20
8.54517e-06 2.12244e-05 -5.30585e-20
1.06463e-05 -2.41801e-05 3.81351e-20
-1.53221e-05 2.65909e-06 -6.00688e-21
-2.30943e-05 -5.00832e-05 4.11757e-20
-1.31249e-05 -6.93176e-06 -9.8299e-21
5.00095e-05 2.37411e-05 2.72979e-21
-6.37306e-07 2.24272e-05 -6.63582e-20
4.00064e-06 -2.17128e-05 6.55418e-21
-5.07609e-05 2.46776e-05 1.75692e-20
-4.94064e-05 -2.5562e-05 2.63993e-21
-3.29827e-05 1.03751e-05 1.92924e-20
-1.02228e-05 -1.51436e-05 2.09329e-21
-1.98966e-05 -1.05235e-05 1.11961e-20
-2.14704e-05 1.04358e-05 1.38357e-20
-3.3601e-06 -7.36302e-06 -6.91748e-21
1.3202e-05 1.50168e-05 -3.04877e-20
1.45259e-05 -1.90073e-05 4.54154e-20
-2.11562e-05 1.38302e-05 9.00975e-21
-6.12067e-06 -7.46908e-08 -1.38347e-20
-1.36043e-05 -1.62283e-05 1.39246e-20
-1.39202e-05 1.47877e-05 -1.3287e-20
-6.00089e-06 -2.24395e-05 8.82806e-21
-7.68836e-06 2.14797e-05 -2.83947e-20
6.68761e-06 -1.79339e-05 4.39652e-20
2.47341e-06 1.4651e-05 -7.27225e-20
-2.15812e-05 1.37929e-05 -2.91213e-21
-5.37824e-05 -5.37837e-05 1.28288e-20
5.34361e-05 5.34384e-05 3.73035e-21
5.748e-06 -1.11235e-05 -1.16511e-20
4.59679e-06 1.17831e-05 -6.04372e-20
5.3652e-05 5.71094e-05 -3.54841e-21
-5.62428e-05 -5.39026e-05 1.73326e-20
2.60427e-05 4.54362e-06 -1.68399e-20
2.10101e-05 -1.13612e-05 2.47606e-20
1.21039e-05 -5.73749e-06 3.71346e-20
2.44122e-05 1.60144e-05 4.55133e-21
1.99999e-05 -1.84695e-05 2.10278e-20
8.05957e-06 1.51314e-05 -5.87938e-20
1.02151e-05 -1.8775e-05 4.29604e-20
-2.07323e-05 -3.96041e-05 -3.55015e-21
-2.13243e-05 4.00203e-05 1.15607e-20
1.80649e-05 9.88319e-06 7.46368e-21
1.65678e-05 -1.39058e-05 2.43036e-20
-2.91012e-05 1.22194e-05 2.45698e-21
-2.38197e-05 3.70467e-05 -8.21104e-20
-1.07338e-05 -3.03512e-05 8.37527e-21
-2.58426e-05 4.83747e-05 -6.26936e-20
-4.91733e-05 2.5517e-05 -4.73157e-21
2.05511e-06 1.45618e-05 -8.68287e-20
5.41764e-06 -1.76634e-05 3.80473e-20
5.09584e-05 2.11096e-05 -1.31105e-20
4.02281e-05 -1.66608e-05 -1.63874e-21
1.71995e-05 8.37674e-06 2.54848e-20
1.62591e-05 -1.15199e-05 1.83859e-20
-3.04808e-05 -6.96358e-06 1.76542e-20
2.16071e-05 -6.48239e-06 1.85663e-20
-2.59939e-05 -4.11229e-06 1.99302e-20
-1.85786e-05 -1.63318e-05 6.82666e-21
-2.24225e-05 3.88334e-05 3.00403e-21
-2.2078e-05 -3.82403e-05 5.55295e-21
-2.29523e-05 -2.66837e-05 3.65834e-20
-1.70618e-05 9.80152e-06 9.92012e-21
1.69042e-05 8.13914e-06 1.51084e-20
3.0319e-07 -3.30357e-05 8.19313e-22
-3.99309e-06 4.18709e-05 -3.432e-20
-1.98387e-05 1.77518e-05 5.82546e-21
4.30146e-06 -1.96459e-05 8.28307e-21
1.55018e-06 1.91671e-05 -5.91619e-20
1.22513e-05 3.23748e-06 5.84333e-20
1.12645e-05 -5.20943e-06 3.34948e-20
2.92719e-05 -2.40717e-05 3.76756e-20
1.47583e-05 1.30619e-05 5.77077e-20
1.29915e-05 -1.49977e-05 2.92184e-20
1.63469e-05 -1.15989e-05 1.6747e-20
1.10946e-05 9.22674e-06 5.77061e-20
1.00492e-05 -1.18794e-05 2.53038e-20
-1.77329e-05 7.94712e-06 -1.27424e-21
9.26834e-06 6.85678e-06 -4.30512e-20
1.11976e-05 -1.30887e-05 3.11312e-20
-2.13157e-05 -1.50888e-05 2.54826e-20
3.28572e-06 -1.15246e-05 4.55141e-20
-2.74878e-06 4.81127e-06 -6.80808e-20
2.27657e-05 2.80785e-06 2.09316e-21
-1.74202e-05 1.03105e-05 9.01061e-21
-1.80663e-05 -8.8924e-06 6.27998e-21
-1.37026e-05 -1.84139e-05 2.8667e-20
-1.58624e-05 -1.14731e-05 2.3572e-20
2.94218e-06 -2.03515e-05 2.11165e-20
3.32733e-07 1.9799e-05 -7.01728e-20
2.88433e-05 -1.35782e-05 2.79825e-20
-1.04157e-05 7.09203e-06 -2.78512e-20
-9.61034e-06 -8.28025e-06 -9.193e-21
1.51991e-05 -2.45931e-05 5.50608e-20
1.39586e-05 2.13254e-05 -2.80297e-20
-1.68829e-05 9.81178e-06 9.64747e-21
-6.6296e-06 1.07755e-05 -4.18695e-21
-6.57151e-06 -1.13447e-05 -7.91885e-21
-1.59422e-05 1.50613e-05 4.27758e-21
3.59137e-06 -3.01258e-05 4.15425e-20
3.9491e-06 2.87938e-05 -6.83861e-20
2.98834e-05 -2.85302e-06 1.49695e-20
2.95365e-05 2.04016e-05 -2.49344e-20
2.0332e-05 -1.56433e-05 4.83251e-20
-2.34142e-05 -4.05573e-05 -1.15616e-20
-2.86994e-05 4.97088e-05 -2.23965e-20
2.21341e-05 -6.18201e-06 1.74735e-20
3.46168e-06 1.1371e-05 -5.30611e-20
7.18117e-06 -1.62945e-05 4.26894e-20
1.26569e-05 3.53401e-06 4.50529e-20
-2.68845e-06 -2.15111e-05 1.9476e-20
-4.03024e-06 2.04152e-05 -5.63326e-20
-6.04598e-06 1.19596e-05 -9.28401e-20
1.64201e-06 -1.50891e-05 3.2134e-20
6.86921e-06 -1.75866e-06 -4.43253e-20
9.72706e-06 -7.80814e-06 4.41492e-20
5.71217e-06 -1.07898e-06 4.3415e-20
1.96098e-05 1.31221e-05 -1.44697e-20
-6.10452e-06 1.36447e-06 -1.39263e-20
-7.37027e-06 -2.03173e-06 -3.09456e-20
1.96961e-05 1.42598e-05 -1.60172e-20
-2.2586e-05 2.747e-05 -2.33871e-20
-1.18138e-05 8.97127e-06 -5.55186e-21
9.82079e-06 -3.34731e-05 3.9224e-20
8.3424e-06 3.11548e-05 -6.07903e-20
3.33855e-05 -9.98845e-06 2.82568e-20
2.04901e-05 -1.81519e-05 5.22401e-20
1.8626e-07 2.27381e-05 -7.68139e-20
2.73625e-06 -2.44859e-05 2.70319e-20
1.68986e-05 -3.0722e-05 3.94946e-20
1.59202e-05 2.72624e-05 -3.23956e-20
2.04875e-06 4.95201e-06 6.5442e-20
1.88129e-06 -7.06197e-06 3.15833e-20
1.1054e-05 8.04988e-06 -4.05017e-20
1.25083e-05 -1.39641e-05 3.79567e-20
7.78333e-06 -1.04156e-05 -1.21062e-20
7.47988e-06 1.07532e-05 -6.49875e-20
-1.52046e-05 -1.04892e-05 1.53819e-20
-3.23686e-05 -2.64425e-05 2.72079e-20
6.02652e-06 -2.39622e-05 3.64042e-20
4.30145e-06 2.10244e-05 -6.41594e-20
2.02871e-05 9.81722e-06 2.02071e-20
1.69614e-05 -1.38974e-05 2.63067e-20
1.78583e-05 -1.51811e-05 3.54965e-20
1.71506e-05 8.93932e-06 5.91624e-21
1.60957e-05 -1.34146e-05 2.00248e-20
-9.97798e-06 -9.75837e-05 4.64006e-20
9.68429e-05 1.4046e-05 4.23066e-21
3.24535e-05 2.92166e-05 7.64678e-21
2.55226e-05 -2.82922e-05 1.584e-20
1.79428e-05 1.10238e-05 -1.31059e-20
-4.05618e-05 -3.08283e-06 1.99736e-20
4.12057e-07 -1.76917e-05 2.09341e-21
-1.27043e-06 1.77498e-05 -5.45184e-20
-1.47374e-05 2.14934e-05 -2.1022e-20
-1.54461e-05 1.2575e-05 -1.03131e-19
-5.67621e-06 -1.55679e-05 1.99359e-20
-2.10699e-05 -1.43305e-05 2.62095e-20
2.06111e-05 3.9877e-06 1.82021e-20
2.64426e-06 5.30094e-06 -5.0878e-20
7.28595e-06 -1.18881e-05 4.58795e-20
-5.79605e-06 -1.54535e-05 -7.19019e-21
-7.20629e-06 1.48252e-05 -2.89417e-20
1.57581e-05 9.14056e-06 -1.79299e-20
1.58532e-05 -1.34495e-05 2.98545e-20
4.4163e-06 2.0746e-05 -7.74495e-20
6.54966e-06 -2.26896e-05 3.05808e-20
-2.60072e-05 4.65099e-05 -3.24376e-20
-4.6346e-05 2.57948e-05 -1.79704e-20
1.72441e-05 2.01198e-06 2.80322e-20
5.27781e-05 2.54932e-05 -2.09396e-20
4.32199e-05 -2.38618e-05 6.37278e-21
-2.93377e-05 2.01894e-05 1.45646e-20
-2.78528e-05 -2.06934e-05 8.73868e-21
-1.20013e-05 -5.61844e-06 -1.08309e-20
-2.26523e-06 -5.06718e-06 -1.54736e-20
-2.86138e-06 4.58774e-06 -5.21518e-20
2.65784e-05 3.3109e-05 -7.37029e-21
-3.11214e-05 -2.63831e-05 3.73979e-20
2.74044e-05 -3.9883e-05 3.73083e-20
2.69144e-05 3.78697e-05 -3.00282e-20
4.168e-05 -2.52441e-05 1.78351e-20
-2.86388e-06 -4.38004e-05 3.84443e-20
4.37792e-05 2.1731e-06 5.73247e-21
2.28017e-05 3.12138e-05 -5.31611e-20
2.20494e-05 -2.74533e-05 -8.83003e-21
-1.36627e-05 -1.16499e-05 1.24698e-20
-5.93327e-06 1.5193e-07 -9.55697e-21
1.63057e-05 -2.56568e-05 4.62303e-20
1.53794e-05 2.26741e-05 -4.30437e-20
-1.38399e-05 3.88392e-06 -1.94774e-20
2.20161e-05 1.69163e-05 1.83879e-20
1.78648e-05 -1.92686e-05 2.21207e-20
-1.66793e-05 -9.63554e-06 2.05705e-20
-1.20106e-05 8.04879e-06 -2.63033e-20
-1.00766e-05 -8.50275e-06 -1.36527e-20
-1.31733e-05 -6.87455e-06 -9.10177e-22
-2.5807e-05 -1.5382e-05 3.08494e-20
-3.47307e-06 1.18737e-05 -3.40393e-20
-2.03399e-06 -1.28178e-05 -1.68383e-20
-5.38892e-05 5.38871e-05 -2.02438e-21
-3.79431e-06 2.10368e-05 -5.92472e-20
-2.38597e-06 -2.22967e-05 1.47441e-20
-3.96061e-06 4.19108e-05 -7.26422e-20
1.75015e-06 -3.49107e-05 -6.37227e-22
5.68968e-06 9.72759e-06 6.99034e-20
5.26827e-06 -1.14392e-05 2.15718e-20
-1.91245e-05 -1.08374e-05 1.74761e-20
-2.03552e-05 1.07533e-05 8.82905e-21
-3.40942e-05 6.09516e-06 5.18861e-21
-3.56333e-05 -6.58585e-06 1.59297e-20
4.71124e-05 2.58234e-05 -2.20311e-20
3.49306e-05 -2.43468e-05 2.1303e-20
1.22665e-05 -5.81895e-07 -5.44297e-20
1.29377e-05 -8.50827e-06 3.93263e-20
1.87183e-05 7.8729e-06 -6.64385e-21
6.26342e-07 -1.91658e-05 5.64307e-21
-1.14748e-06 1.85951e-05 -5.25144e-20
1.71507e-05 -1.53083e-05 4.86017e-20
-2.96366e-05 2.00949e-05 -6.91596e-21
1.87066e-05 -1.12075e-05 2.15703e-20
1.63158e-05 1.1246e-05 -1.25594e-20
-1.28758e-05 -2.42546e-07 -3.82275e-21
-1.21483e-05 -3.89654e-07 -2.63965e-21
-1.34027e-05 1.17269e-05 -3.1857e-21
2.33363e-05 4.04239e-05 -3.64142e-22
2.05118e-05 -3.55267e-05 1.18349e-21
-1.66437e-05 -1.06923e-05 1.94775e-20
-1.67247e-06 -2.29163e-05 -9.01149e-21
2.8528e-05 -5.05567e-05 8.48501e-21
4.92073e-05 -2.49181e-05 9.25841e-21
3.13302e-06 1.2903e-05 6.7448e-20
2.69806e-06 -1.43852e-05 2.71251e-20
-2.79162e-06 2.3953e-05 4.36925e-21
5.45856e-06 -2.18774e-05 3.86832e-20
2.09833e-06 1.90189e-05 -7.5905e-20
2.29083e-05 1.11479e-05 -7.00762e-21
1.85967e-05 5.64718e-06 -2.67601e-20
1.68083e-05 -1.19933e-05 1.83874e-20
-4.53485e-05 -1.52577e-10 8.19293e-22
-4.65027e-05 -1.42027e-09 3.27734e-21
-1.71541e-05 -1.10652e-05 2.04784e-20
1.46957e-05 1.58317e-05 3.99597e-20
1.29182e-05 -1.82016e-05 2.66707e-20
4.72246e-06 1.35835e-05 -5.5885e-20
5.96231e-06 -1.38331e-05 -8.92017e-21
3.33525e-06 -4.40838e-06 -1.51096e-20
2.1219e-06 3.75011e-06 -6.1072e-20
5.42906e-05 -5.42885e-05 4.04884e-21
-1.4456e-05 4.30935e-06 -3.64101e-22
-1.53477e-05 -5.25933e-06 1.2106e-20
-3.62547e-06 1.09155e-05 -5.75219e-20
-2.33283e-06 -1.13241e-05 -1.3562e-20
2.31216e-05 -1.45245e-05 2.82134e-20
-1.73331e-05 8.74837e-06 9.10183e-21
-2.15445e-05 -3.97586e-06 1.01945e-20
-2.24323e-05 2.92392e-06 2.5486e-21
-1.33887e-05 6.28365e-06 -1.46537e-20
6.30194e-06 2.86546e-05 5.19771e-20
5.41927e-06 -2.79073e-05 2.5579e-20
9.17367e-06 5.4804e-05 -1.72059e-20
1.09983e-05 -4.51898e-05 -8.64849e-21
-5.42102e-06 9.62315e-05 -4.14877e-20
-9.57801e-05 4.43249e-06 -9.32564e-21
1.39836e-05 1.58938e-06 -4.36891e-20
1.42091e-05 -9.72416e-06 1.91158e-20
5.31904e-05 -6.6067e-05 1.41708e-20
6.62387e-05 -5.24281e-05 -5.61823e-21
1.90024e-05 -4.58679e-05 -2.3671e-21
2.21035e-05 5.33621e-05 -1.65699e-20
-1.63057e-05 9.62422e-06 -1.43014e-26
1.49195e-05 7.55987e-06 -3.44959e-20
1.47337e-05 -1.30715e-05 1.90242e-20
1.40415e-05 1.51649e-05 -2.44822e-20
1.49623e-05 -1.90846e-05 4.66008e-20
3.83864e-07 -4.71828e-05 4.3633e-20
1.06667e-06 4.12033e-05 -5.22762e-20
4.70081e-05 -8.23046e-07 1.38769e-20
1.065e-05 1.02493e-05 -3.13088e-20
1.22798e-05 -1.5206e-05 3.63171e-20
4.62285e-06 4.54427e-05 -6.60138e-20
-4.5141e-05 -6.6864e-06 9.28111e-21
1.9825e-05 2.71808e-06 -4.85147e-20
1.74877e-05 -1.03579e-05 2.17562e-20
1.88829e-05 5.98493e-06 -3.89579e-20
1.69631e-05 -1.2176e-05 1.92072e-20
-5.30471e-05 6.50252e-05 -2.99786e-20
-6.56192e-05 5.29516e-05 -5.73187e-21
1.5861e-05 8.23543e-06 -2.70319e-20
1.58085e-05 -1.3843e-05 3.04015e-20
8.27362e-06 -2.8256e-05 -9.83155e-21
5.54092e-06 3.2219e-05 -4.05999e-20
1.4112e-05 -6.34137e-06 -5.38856e-20
1.40772e-05 -4.95023e-06 3.11332e-20
2.16573e-05 2.01791e-05 3.38619e-20
1.76572e-05 -2.11519e-05 2.07545e-20
-1.29038e-05 -4.11296e-06 6.4625e-21
-1.30238e-05 3.06318e-06 -6.46229e-21
2.12372e-05 -3.53372e-05 -5.73515e-21
-4.48653e-05 -1.20132e-06 3.82329e-21
-4.62329e-05 6.82554e-07 1.11058e-20
2.18121e-05 4.08149e-05 -1.22894e-20
2.013e-05 3.89554e-05 3.03138e-20
2.9948e-05 2.98728e-05 7.82921e-21
1.65038e-05 -3.61637e-05 1.21984e-20
2.48081e-05 -2.848e-05 1.2199e-20
3.71035e-05 -1.53672e-05 -3.46847e-20
9.53598e-05 -1.25502e-05 -2.73139e-21
7.52774e-05 9.91552e-06 3.64167e-21
2.16935e-05 8.98776e-06 1.69335e-20
4.75133e-05 4.15786e-07 -3.99637e-20
3.21788e-05 -9.738e-06 -4.4058e-20
4.45225e-05 1.42777e-05 -3.11357e-20
3.32437e-05 -8.51955e-06 1.402e-20
3.23292e-05 -1.27567e-05 1.1471e-20
2.48055e-05 -2.93271e-06 3.0497e-20
3.40333e-05 1.29967e-05 -3.67759e-20
3.43505e-05 1.2899e-05 -1.03779e-20
2.59168e-05 -1.65513e-05 2.05736e-20
2.69234e-05 -1.62384e-05 1.52941e-20
2.90377e-06 5.99285e-07 -8.37558e-21
2.40373e-06 1.52808e-06 -1.52953e-20
6.73703e-06 -2.57785e-07 -1.39292e-20
2.29579e-06 -3.49373e-07 7.18276e-20
2.3329e-06 -3.28968e-07 7.99307e-20
2.08035e-06 5.28879e-06 -2.73133e-21
7.08542e-06 -4.31136e-06 -1.42023e-20
2.22115e-06 4.72559e-07 7.8383e-20
6.126e-06 5.27184e-06 3.60495e-20
2.52189e-06 2.45754e-07 5.28032e-21
2.54255e-06 -2.20009e-07 3.82368e-20
2.22008e-06 1.78393e-08 -1.93013e-20
1.38998e-05 -2.37631e-07 2.80403e-20
-1.53558e-06 -2.66717e-06 -3.0045e-20
2.91026e-06 1.63612e-06 -1.32006e-20
4.81527e-06 1.52134e-06 -1.43838e-20
5.87677e-06 4.63958e-06 1.5659e-20
3.04849e-06 -5.46879e-06 -1.65699e-20
1.89589e-06 1.9115e-07 -3.15019e-20
2.65497e-06 -1.25484e-08 -8.2847e-21
2.66543e-06 1.58784e-08 1.97558e-20
2.1031e-06 9.33408e-08 -2.78596e-20
2.1488e-06 1.43373e-06 5.37127e-21
1.67609e-06 2.3284e-07 8.30263e-20
8.82913e-07 1.36755e-06 2.03924e-20
2.33929e-06 4.29772e-07 -3.47786e-20
2.52647e-06 3.50733e-07 6.76401e-20
2.37155e-06 -3.28144e-08 5.37139e-21
2.90073e-06 -3.14016e-06 5.34372e-20
2.09247e-06 -5.40359e-08 -1.60236e-20
5.07343e-06 4.12544e-06 1.14715e-20
5.69907e-06 -3.77247e-06 -1.03789e-20
-2.63494e-05 -1.33958e-05 1.07427e-20
-2.64096e-05 1.26848e-05 8.73983e-21
2.00804e-06 5.85346e-08 7.52889e-20
1.20736e-06 1.75138e-06 4.27875e-21
-5.12471e-06 -1.65346e-06 1.25632e-20
-5.93412e-06 1.92953e-06 2.59457e-20
7.73818e-06 -3.35376e-06 3.92356e-20
2.401e-06 3.47543e-07 -3.56893e-20
1.60107e-06 -2.66014e-07 7.56527e-20
6.43373e-06 -1.09231e-08 4.28769e-20
2.15666e-06 -1.3833e-06 7.07369e-20
2.88437e-06 -6.01907e-07 5.71725e-20
1.56196e-06 1.25832e-06 -3.84209e-20
2.02112e-06 -2.29786e-07 7.40143e-20
2.91087e-06 -4.74257e-07 3.45954e-21
2.49519e-06 -9.40856e-07 -1.27459e-20
8.05663e-06 -2.44982e-06 4.34245e-20
2.54598e-06 -8.29988e-08 -1.52951e-20
1.95443e-06 -5.20408e-07 1.20173e-20
4.22584e-06 -2.48062e-07 3.55086e-20
4.22792e-06 2.46045e-07 1.42034e-20
1.34618e-06 3.94695e-07 5.6217e-27
3.95704e-06 -2.1397e-06 4.15178e-20
3.95862e-06 2.14128e-06 1.78454e-20
2.36495e-06 7.51309e-07 -4.91638e-20
-6.90242e-06 -2.50403e-05 7.00987e-21
-6.93258e-06 2.51304e-05 1.08334e-20
2.86819e-06 -9.88265e-07 4.89832e-20
2.86605e-06 9.88004e-07 3.44157e-20
2.02347e-06 6.58657e-08 5.63531e-20
1.91806e-05 -1.31863e-05 -6.37284e-21
-4.81362e-06 1.09324e-05 6.73747e-21
2.40087e-06 -3.46874e-07 -2.73132e-21
2.39011e-06 -5.71262e-09 1.61142e-20
1.97112e-06 1.00552e-07 3.78725e-20
2.50155e-06 1.45804e-06 -3.35952e-20
4.39142e-06 1.42215e-06 -1.69332e-20
8.15452e-06 -3.37778e-06 4.00621e-21
8.16029e-06 3.38017e-06 2.54941e-21
7.3628e-06 6.2376e-06 -1.92086e-20
2.3689e-06 -8.87571e-07 3.49618e-20
2.36204e-06 9.16194e-07 9.28674e-21
1.5497e-07 3.83134e-06 -7.28282e-21
9.62458e-07 -1.69187e-06 -3.47793e-20
2.02267e-06 -4.28933e-08 7.39232e-20
1.79178e-06 -1.89565e-07 8.52113e-20
-3.69981e-06 -7.93733e-06 2.8039e-20
-1.15964e-05 2.00843e-05 5.8265e-21
-1.16673e-05 -2.02072e-05 9.10391e-21
2.07283e-06 2.76852e-07 2.02107e-20
1.08325e-06 2.43465e-07 7.25567e-20
1.87741e-06 5.04917e-07 -1.74808e-20
2.92466e-06 1.2815e-05 1.45675e-21
5.70579e-06 -1.64641e-05 -1.82088e-21
-4.37574e-06 8.91913e-06 2.50349e-20
5.65522e-06 8.49985e-07 2.26693e-20
3.34078e-06 -1.62964e-06 -1.11073e-20
1.51177e-06 -5.28268e-07 4.00606e-20
1.48513e-06 4.88552e-07 1.3657e-20
2.24179e-06 -1.63092e-07 -1.6752e-20
1.89141e-06 1.8891e-07 -4.16988e-20
2.16498e-06 -1.79981e-06 4.06071e-20
2.15656e-06 1.8174e-06 2.44007e-20
1.90467e-06 -5.09844e-07 3.00452e-20
2.34657e-06 -4.16778e-07 -1.82084e-22
1.41866e-06 -1.01648e-06 3.91501e-20
1.38056e-06 9.99104e-07 1.72989e-20
1.71744e-06 2.12546e-06 6.56371e-20
2.15893e-06 3.84838e-08 -1.14718e-20
1.75996e-06 4.2264e-07 5.56244e-20
1.80812e-06 9.15657e-06 -1.09242e-21
9.09975e-07 2.98174e-08 -2.62211e-20
2.08644e-06 8.58805e-08 -4.57045e-20
-1.31014e-06 2.23999e-06 4.92506e-20
1.70856e-06 -1.86216e-06 7.16457e-20
2.09355e-06 2.959e-07 2.68563e-20
9.98654e-07 -1.772e-07 4.71573e-20
3.70448e-06 -1.81865e-06 -7.46538e-21
3.38163e-06 2.03145e-06 -1.09251e-21
2.23656e-06 -2.61442e-08 -1.85729e-20
1.328e-07 -3.89795e-06 4.72473e-20
2.37909e-06 -2.10018e-07 -1.21999e-20
2.38279e-06 1.9588e-07 -3.56891e-20
8.53883e-07 2.30902e-07 6.25425e-20
5.03971e-06 6.33957e-06 2.09375e-20
5.15557e-06 -6.55546e-06 2.30313e-20
2.90912e-06 6.01551e-07 -1.3565e-20
7.76568e-07 -1.19695e-06 6.55471e-20
2.56242e-06 -4.25727e-08 -1.13802e-20
2.57655e-06 4.17269e-08 -2.09396e-21
2.06425e-06 -6.81413e-09 -2.36715e-20
2.24184e-06 1.52798e-07 -2.87698e-20
2.29814e-06 -2.16248e-07 -1.0197e-20
-9.71304e-06 1.68225e-05 -8.1944e-21
1.03555e-05 -1.79395e-05 2.00304e-21
2.08195e-06 -1.10359e-07 -1.31105e-20
1.84332e-06 3.24659e-07 -4.31552e-20
1.37488e-06 -4.26338e-07 9.65092e-21
2.93248e-06 -6.15895e-07 2.92239e-20
1.21481e-07 1.73936e-06 -9.28666e-21
9.1956e-06 2.26335e-06 -1.79339e-20
2.17652e-06 -5.58634e-08 3.82393e-21
1.91324e-06 -8.4372e-07 -1.93018e-20
4.37668e-06 3.1011e-06 -1.36556e-20
6.81052e-07 5.47709e-09 4.91654e-20
2.29187e-06 1.8893e-07 -3.04088e-20
1.9317e-06 -9.28704e-06 4.39697e-20
2.30247e-06 3.01373e-07 -3.69641e-20
2.04037e-06 -2.52916e-07 5.84472e-20
1.34041e-06 -2.02866e-06 5.80816e-20
2.63883e-06 -8.6078e-08 -1.23817e-20
2.64657e-06 7.93303e-08 -1.27459e-20
2.11636e-06 -1.22503e-07 -2.33074e-20
2.30099e-06 -2.95734e-07 -8.74027e-21
3.46245e-06 4.08874e-07 -7.19232e-21
3.63297e-06 -3.81809e-07 -1.37473e-20
2.43828e-06 -4.72792e-08 -1.42027e-20
2.45217e-06 5.32911e-08 -1.96653e-20
2.34465e-07 -7.31153e-07 6.26404e-20
2.18326e-07 7.07133e-07 2.53111e-20
2.29289e-06 1.27999e-07 -2.69494e-20
9.79918e-06 -3.07228e-06 4.82483e-20
-2.06768e-06 1.50522e-06 5.91736e-21
1.98111e-06 -7.37901e-08 3.61426e-20
2.7949e-06 4.51164e-07 -2.82232e-20
3.18458e-06 -9.78948e-07 3.78757e-20
3.18611e-06 9.80068e-07 2.98635e-20
2.40222e-06 -5.07141e-07 4.97113e-20
2.39729e-06 5.02423e-07 2.349e-20
2.51666e-06 -8.00256e-08 1.36562e-21
1.59205e-06 -1.20676e-07 -1.0561e-20
2.77096e-06 -4.77284e-07 -9.28635e-21
5.22185e-06 -4.35446e-06 1.72993e-20
5.22538e-06 4.35693e-06 4.55244e-21
2.30592e-06 3.34467e-07 -1.4021e-20
1.96209e-06 -1.95739e-08 5.1346e-20
1.89309e-06 -2.20554e-07 -1.91195e-20
4.67272e-06 3.565e-07 3.06802e-20
2.36985e-06 -2.10172e-06 -1.17446e-20
2.01663e-06 -2.34845e-07 7.2922e-20
1.86519e-06 8.58067e-07 -1.47495e-20
2.30477e-06 -3.37219e-07 2.22151e-20
3.97323e-06 5.84217e-06 -1.22894e-20
-1.70915e-06 1.85903e-06 1.82091e-21
1.40027e-05 1.94895e-06 -1.65691e-20
2.29229e-06 -1.24471e-07 1.01971e-20
8.4614e-07 4.27522e-06 -1.33823e-20
1.66406e-06 4.08545e-08 7.21933e-20
1.36573e-06 7.12108e-08 -2.91347e-20
2.96682e-06 -1.73999e-06 4.66116e-20
3.16771e-06 -1.29465e-07 -1.74798e-20
2.48589e-06 4.8957e-07 8.37622e-21
2.65643e-06 7.88423e-07 -2.60381e-20
-2.13159e-07 -1.27988e-06 -4.33378e-20
2.4121e-06 2.42053e-07 1.67514e-20
2.30553e-06 1.33526e-07 2.36704e-20
2.48885e-06 -4.94623e-07 4.38841e-20
1.9154e-06 -2.32683e-07 3.64184e-21
8.358e-06 -3.86757e-06 5.463e-21
8.36369e-06 3.86978e-06 -4.7346e-21
1.80198e-06 -3.63878e-07 -5.09851e-21
-1.17275e-05 -1.00934e-05 5.28017e-21
-1.22092e-05 9.70968e-06 1.87537e-20
4.29349e-06 -1.51217e-06 6.04477e-20
4.01661e-06 -6.22577e-06 5.12514e-20
2.42754e-06 -1.87954e-07 -1.32922e-20
2.37912e-06 -5.52032e-08 1.58409e-20
2.44764e-06 -5.54642e-08 -1.0652e-20
2.44396e-06 4.53851e-08 -1.18355e-20
2.12246e-06 7.93106e-08 -1.60236e-20
1.38823e-06 7.90514e-08 -3.15019e-20
2.52924e-06 1.51015e-08 1.45666e-21
2.10694e-06 -5.56749e-09 -1.30192e-20
1.83761e-05 8.92459e-06 2.16677e-20
-4.45728e-06 -8.64675e-06 -2.67676e-20
1.69232e-06 -2.80207e-06 4.61557e-20
6.54661e-06 1.2572e-07 3.29534e-20
2.47571e-06 2.85263e-07 -2.03936e-20
2.47059e-06 -2.87204e-07 -1.18356e-20
3.76792e-06 1.35621e-06 5.56225e-20
2.37359e-06 -8.10021e-07 1.27462e-21
3.49113e-06 -2.31488e-06 2.60398e-20
3.49317e-06 2.31559e-06 1.3293e-20
-7.56325e-07 3.32071e-07 2.16669e-20
8.50038e-07 -4.32828e-06 6.14495e-20
1.78758e-06 -1.82695e-06 5.69884e-20
2.10756e-06 1.39332e-07 4.67029e-20
4.29075e-06 -2.78682e-06 5.58969e-20
2.78261e-06 7.63086e-07 2.82225e-21
3.29499e-06 3.37342e-07 1.29277e-20
2.65964e-06 -7.24657e-07 -7.1013e-21
3.47053e-06 1.35226e-05 4.00596e-21
7.47269e-06 -1.41734e-05 -9.83276e-21
7.50176e-07 -1.40485e-06 7.32021e-20
7.48174e-07 1.39777e-06 2.34902e-20
-5.1968e-06 -1.62402e-06 8.0112e-21
-5.29641e-06 2.11139e-06 3.09524e-20
-1.65089e-05 1.04317e-05 1.63866e-21
-1.69145e-05 -1.03025e-05 1.67508e-20
7.6613e-06 -3.9083e-06 4.73457e-21
7.66705e-06 3.91051e-06 -4.37037e-21
2.53761e-06 7.22478e-07 -1.20182e-20
2.53413e-06 -7.0835e-07 -1.23824e-20
2.27891e-06 4.43809e-07 -2.84062e-20
4.50742e-06 -7.81496e-07 3.17729e-20
2.61412e-06 -6.75161e-07 -3.82382e-21
2.04478e-06 -2.48291e-07 6.24528e-20
2.28108e-06 -4.50692e-07 1.91196e-20
4.37293e-06 4.42864e-07 -1.53857e-20
2.33521e-06 3.30419e-07 -3.13194e-20
-2.54911e-06 -7.83063e-06 2.70368e-20
-2.57374e-06 7.75866e-06 8.73917e-21
2.34134e-06 -3.30826e-07 3.27762e-21
1.64637e-06 3.28178e-06 3.99651e-20
1.03307e-05 1.78968e-05 4.55227e-21
-6.69585e-06 -1.15969e-05 -7.64819e-21
9.4862e-07 -1.1318e-06 -2.25791e-20
-9.21164e-07 -1.88488e-06 4.10573e-20
7.6047e-06 -1.23397e-05 1.78431e-20
2.41862e-06 2.20273e-07 -7.19235e-21
2.31158e-06 8.74781e-08 -1.40206e-20
4.53697e-07 -1.77296e-06 4.44313e-20
4.54022e-07 1.74379e-06 2.23977e-20
6.99602e-06 1.30552e-05 1.68417e-20
2.49385e-06 6.67234e-07 -4.07874e-20
2.09398e-06 3.05857e-07 -3.95135e-20
2.97478e-06 -1.32282e-07 4.91652e-20
2.97425e-06 1.26463e-07 2.98633e-20
-2.42221e-05 -5.87186e-11 4.18777e-21
-2.4219e-05 6.48201e-11 3.64154e-21
1.72356e-06 -8.1938e-07 -1.78448e-20
1.1314e-06 -1.96167e-07 5.78998e-20
2.15865e-06 -2.08247e-06 2.91352e-20
2.14999e-06 2.08429e-06 2.34902e-20
8.087e-06 -2.01745e-06 4.27881e-20
7.00246e-06 -6.72789e-06 5.32556e-20
2.80032e-06 7.96301e-07 -9.01315e-21
-3.30452e-06 9.23084e-06 2.91313e-21
-3.3291e-06 -9.41421e-06 2.30321e-20
4.21639e-06 -3.25427e-06 5.20726e-20
2.09415e-06 -2.99146e-07 1.82091e-22
-1.14876e-06 -6.40465e-07 4.04205e-20
-7.14932e-06 4.96908e-06 8.19325e-22
-7.17536e-06 -4.97182e-06 2.79481e-20
1.64916e-06 2.15159e-06 4.46074e-20
9.5084e-07 -4.24397e-06 3.27773e-20
9.57762e-07 4.24758e-06 2.42188e-20
8.91899e-06 1.93309e-05 3.64183e-22
8.12824e-07 -1.92234e-05 -2.73139e-21
2.5529e-06 -8.75921e-08 -3.2775e-21
1.53675e-06 9.5852e-08 1.72976e-20
2.57359e-06 4.18156e-07 2.05765e-20
2.58433e-06 -4.36762e-07 9.83301e-21
1.02981e-06 1.29369e-07 -3.13196e-20
2.7281e-06 2.52762e-08 -5.55355e-21
1.95486e-06 6.64909e-07 -8.92218e-21
3.45142e-06 8.3325e-06 -3.0957e-21
3.44919e-06 -8.32713e-06 1.821e-21
-2.17691e-06 -1.51747e-06 4.57001e-20
2.33746e-06 -3.37465e-07 5.46269e-21
2.69661e-06 -2.77035e-07 4.18813e-20
2.69539e-06 2.71452e-07 2.20332e-20
2.27264e-06 -2.51431e-07 1.74807e-20
2.33228e-06 3.3546e-07 -3.4597e-20
2.56601e-06 -2.34013e-08 -4.73417e-21
2.57977e-06 2.78644e-08 -1.45667e-21
2.10336e-06 -2.20156e-09 -1.43849e-20
2.27109e-06 2.46758e-07 -2.09404e-20
2.53954e-06 -2.00914e-08 1.45666e-21
1.984e-06 -2.3464e-09 3.43219e-20
3.43758e-06 2.34934e-07 2.1305e-20
3.44926e-06 -2.696e-07 1.45675e-20
3.23785e-06 -4.47008e-07 3.8604e-20
3.24334e-06 4.44304e-07 2.71321e-20
2.72693e-06 2.64501e-08 1.09249e-21
1.90819e-06 6.93364e-07 1.21084e-20
2.52449e-06 1.48818e-07 5.82694e-21
2.52472e-06 -1.5519e-07 3.05914e-20
7.34839e-06 9.56659e-06 3.64173e-22
2.44984e-06 -9.04912e-06 -1.27464e-20
2.76773e-06 1.38086e-06 4.55237e-21
2.74916e-06 -1.37967e-06 1.82094e-22
3.4296e-06 -2.87592e-06 2.34904e-20
3.43067e-06 2.88276e-06 2.20336e-20
-4.98278e-07 -4.87299e-06 3.70518e-20
-5.3361e-07 4.76695e-06 -9.10385e-23
1.76466e-05 1.5997e-05 2.07574e-20
-2.58478e-05 -4.17565e-06 7.64712e-21
3.19345e-06 5.9128e-06 1.65709e-20
4.73689e-06 4.48457e-06 4.91667e-21
3.18923e-06 -5.9112e-06 2.29443e-20
4.73373e-06 -4.48199e-06 4.18827e-21
-4.08324e-06 -1.22748e-05 -1.91199e-20
-2.58652e-05 4.09313e-06 1.12886e-20
6.24673e-06 -2.5875e-06 -9.10493e-22
1.52703e-05 -2.01028e-06 3.82411e-21
1.52595e-05 2.00886e-06 5.64512e-21
6.24111e-06 2.58517e-06 -4.00616e-21
7.808e-06 -2.2085e-07 9.10491e-22
5.32628e-06 -1.86421e-06 9.1048e-22
7.28424e-06 2.20485e-06 -4.18829e-21
7.80184e-06 2.19352e-07 2.91356e-21
7.27869e-06 -2.2035e-06 6.37348e-21
5.32242e-06 1.86118e-06 8.37641e-21
5.61445e-06 -1.71705e-06 1.8756e-20
5.5251e-06 -1.74489e-06 1.83919e-20
5.61856e-06 1.71718e-06 5.82709e-21
5.5289e-06 1.74512e-06 -1.82098e-21
-7.56611e-06 -2.15788e-05 2.32071e-20
2.24689e-06 1.998e-05 5.91662e-21
3.04782e-06 -1.81034e-05 4.29607e-20
-1.61803e-05 -2.80705e-06 -3.64958e-20
-2.02546e-05 -5.04963e-06 -3.0033e-20
2.0293e-06 2.25126e-05 4.91546e-21
3.51245e-06 -2.35082e-05 2.67604e-20
-2.17811e-05 5.90029e-06 -9.92009e-21
-6.65936e-06 1.11756e-05 3.54977e-21
-1.19422e-05 -2.6361e-05 3.68543e-20
-1.0688e-05 2.96245e-05 -1.11929e-20
2.86202e-05 1.40137e-05 -4.12228e-20
1.59699e-05 1.50408e-05 -3.9142e-21
-1.52715e-05 -1.57805e-05 -2.45769e-21
-7.5262e-06 -1.51906e-05 5.46064e-21
-2.41107e-06 -1.45511e-05 9.37471e-21
-1.7505e-06 -2.40428e-05 2.65783e-20
4.47968e-06 2.20252e-05 1.72946e-21
1.72836e-05 -1.20367e-06 2.91243e-21
-9.09748e-06 -3.18857e-05 6.39749e-20
-8.09608e-06 3.46036e-05 -9.82847e-21
3.36795e-05 1.07557e-05 -3.76755e-20
-1.41523e-05 -1.42988e-05 8.18944e-22
-2.21669e-05 5.72997e-06 -3.09418e-21
-1.60793e-05 -1.44001e-05 -3.52216e-20
1.07077e-05 2.41179e-05 -1.73838e-20
-1.51283e-05 3.24569e-06 -4.00457e-21
-2.3557e-05 -4.78796e-05 2.55696e-20
-1.32959e-05 -6.60523e-06 -3.23112e-20
5.03142e-05 2.63416e-05 -3.41233e-20
4.02717e-06 2.17366e-05 -4.55166e-22
7.58037e-07 -2.24385e-05 1.82962e-20
-4.95902e-05 2.46171e-05 3.91438e-21
-5.06114e-05 -2.56539e-05 -4.38775e-20
-3.29144e-05 1.13743e-05 -1.68354e-20
-1.18433e-05 -9.38878e-06 -4.68721e-20
-2.0519e-05 -1.02412e-05 -7.70065e-20
-2.08781e-05 1.07604e-05 9.55771e-21
-3.44071e-06 -7.0407e-06 -2.93082e-20
1.45839e-05 1.89501e-05 -2.17521e-20
-2.08084e-05 1.47657e-05 5.9156e-21
-6.02598e-06 3.02023e-07 -1.26515e-20
-1.3096e-05 1.56376e-05 1.7292e-21
-6.51999e-06 2.26988e-05 1.54722e-21
6.74654e-06 1.79233e-05 -1.00128e-20
-2.10292e-05 1.47461e-05 -5.82432e-21
-5.23919e-05 -5.23895e-05 1.73326e-20
5.46225e-05 5.46206e-05 -2.49299e-20
5.77383e-06 1.11805e-05 -2.73074e-21
5.49278e-05 5.98061e-05 -2.05626e-20
-5.63223e-05 -5.25791e-05 2.2749e-22
2.09653e-05 1.13717e-05 -3.7323e-21
2.60401e-05 -4.56916e-06 3.3862e-20
1.2087e-05 -3.07616e-06 1.6565e-20
1.99589e-05 1.84527e-05 -9.37606e-21
2.44094e-05 -1.60407e-05 4.13259e-20
1.02804e-05 1.8757e-05 -2.19353e-20
-2.08111e-05 3.97605e-05 7.55549e-21
-2.12761e-05 -3.98678e-05 -3.11321e-20
1.65282e-05 1.39207e-05 -7.64605e-21
1.80995e-05 -9.89188e-06 2.85804e-20
-2.8814e-05 1.33225e-05 -2.24763e-20
-1.07012e-05 3.03555e-05 2.64004e-21
2.38831e-05 -3.70527e-05 -7.37358e-21
1.28938e-05 -1.48195e-05 7.05314e-20
-2.55638e-05 5.05342e-05 -1.89721e-20
-4.91455e-05 2.67928e-05 -3.77165e-20
5.4909e-06 1.76559e-05 -5.18822e-21
-2.03445e-06 -1.44628e-05 2.30268e-20
4.01402e-05 1.66243e-05 1.7662e-20
5.09624e-05 -2.11113e-05 1.93016e-20
2.80145e-06 -4.90173e-06 2.62129e-20
1.6219e-05 1.12809e-05 -1.37439e-20
1.72412e-05 -8.67277e-06 1.54729e-20
-1.03774e-05 -7.12768e-06 -3.97744e-20
-4.44361e-06 -1.15523e-05 1.5473e-21
-3.03985e-05 -6.06319e-06 -3.49442e-20
2.15977e-05 -3.51791e-06 -1.57448e-20
-2.63368e-05 -3.48219e-06 -3.93143e-20
-1.91888e-05 -1.61048e-05 -5.88e-20
-2.23762e-05 -3.87532e-05 -1.7569e-20
-2.21315e-05 3.8333e-05 8.0108e-21
-2.32827e-05 -2.55765e-05 4.27713e-21
-1.64566e-05 1.04835e-05 8.55512e-21
1.65309e-05 1.15321e-05 -2.47565e-20
4.06422e-06 -4.18741e-05 6.82759e-21
3.20381e-07 3.30362e-05 -4.55176e-21
-1.92804e-05 1.79224e-05 2.18454e-20
4.34371e-06 1.9703e-05 5.5524e-21
-1.38292e-06 -1.92154e-05 4.97871e-20
1.16967e-05 5.52472e-06 1.73845e-20
1.18264e-05 -2.91212e-06 4.55089e-20
2.88053e-05 -2.06768e-05 2.38424e-20
1.30442e-05 1.48237e-05 8.19208e-22
1.4686e-05 -1.32676e-05 5.76167e-20
1.67214e-05 -8.20581e-06 1.07397e-20
8.02053e-06 -2.10945e-05 8.07256e-20
1.04298e-05 1.20872e-05 4.55133e-22
1.07075e-05 -9.05073e-06 3.85922e-20
-1.74776e-05 8.39874e-06 1.09219e-20
1.12265e-05 1.30929e-05 -1.99349e-20
-2.13761e-05 -1.46361e-05 -4.07715e-20
-7.60171e-06 1.81399e-06 -2.62128e-20
3.32657e-06 1.148e-05 2.00264e-21
2.28477e-05 5.73977e-06 -3.67671e-20
-1.68586e-05 1.07862e-05 2.03879e-20
-1.83373e-05 -8.36308e-06 -5.37892e-20
-1.42987e-05 -1.73244e-05 -3.36717e-21
-1.63575e-05 -1.06819e-05 -4.6233e-20
-2.53355e-07 -1.98017e-05 5.87959e-20
3.03289e-06 2.03834e-05 3.09468e-21
2.84044e-05 -1.0846e-05 1.51513e-20
-9.60876e-06 7.61293e-06 -7.28172e-22
1.39222e-05 -2.12873e-05 6.0974e-20
1.5232e-05 2.43547e-05 -2.47546e-20
-1.65288e-05 1.048e-05 1.72929e-20
-6.41576e-06 1.09362e-05 3.73187e-21
-6.78808e-06 -1.11908e-05 -2.75793e-20
-4.247e-06 -2.0167e-05 5.56955e-20
-1.52961e-05 1.59353e-05 6.91707e-21
2.52931e-06 -2.81142e-05 6.62022e-20
5.05213e-06 3.07798e-05 -1.62439e-20
2.98857e-05 -1.60442e-07 -2.43426e-20
3.00493e-05 2.34177e-05 -4.29537e-20
1.99404e-05 -1.23391e-05 2.84845e-20
2.86833e-05 -4.96855e-05 3.61439e-20
-2.34184e-05 4.05646e-05 -2.73102e-22
2.20864e-05 -3.23927e-06 2.27517e-21
7.24321e-06 1.62736e-05 -2.22094e-20
1.26419e-05 6.21556e-06 4.27782e-21
-2.57899e-06 2.15521e-05 2.73059e-22
6.08249e-06 -1.20158e-05 2.65777e-20
1.66078e-06 1.50923e-05 7.10043e-21
9.52678e-06 -7.00397e-06 5.00596e-20
9.78983e-06 7.93408e-06 -1.75687e-20
-3.38258e-06 -1.10514e-05 -8.28223e-21
5.70863e-06 1.06057e-06 7.14482e-20
2.02125e-05 1.62049e-05 -4.40476e-20
-6.47848e-06 -1.7661e-06 -3.64091e-22
2.03524e-05 1.80486e-05 -3.65864e-20
-2.20673e-05 2.88797e-05 -1.23762e-20
-1.09727e-05 9.55729e-06 6.55318e-21
7.85245e-06 -3.11469e-05 7.5988e-20
9.97259e-06 3.34241e-05 -1.24679e-20
3.32501e-05 -7.01669e-06 2.82108e-21
2.0035e-05 -1.45855e-05 4.43205e-20
-1.08568e-07 -2.27095e-05 7.10801e-20
2.8273e-06 2.45109e-05 -1.18318e-21
1.59911e-05 -2.82312e-05 3.76735e-20
1.70209e-05 2.9983e-05 -2.78465e-20
2.00818e-06 7.15334e-06 3.9502e-20
1.91133e-06 -4.86919e-06 7.58181e-20
1.25276e-05 1.39619e-05 -2.41212e-20
7.78085e-06 1.04635e-05 -2.54867e-21
-1.63283e-05 -9.72601e-06 -7.22668e-20
-3.2626e-05 -2.51931e-05 -1.96551e-20
6.17471e-06 2.39041e-05 -5.1876e-21
1.6934e-05 1.39089e-05 6.37193e-22
2.02915e-05 -9.8435e-06 4.35091e-20
1.60337e-05 1.34102e-05 -1.73852e-20
1.72154e-05 -8.97278e-06 1.54731e-20
-1.03841e-05 -9.4395e-05 4.42165e-20
9.68619e-05 1.62835e-05 -1.73774e-20
4.27688e-06 -2.056e-05 8.5819e-20
2.54679e-05 2.82477e-05 -1.25627e-20
3.24527e-05 -2.92394e-05 5.71688e-20
1.77754e-05 1.51248e-05 -3.7954e-20
-4.07301e-05 -2.08572e-06 -3.15301e-20
4.34593e-07 1.77389e-05 5.1881e-21
1.30703e-06 -1.79071e-05 5.27893e-20
-1.39568e-05 2.27034e-05 -5.55136e-21
6.51759e-06 1.83069e-06 5.67947e-20
1.8032e-05 -1.10685e-05 2.51195e-20
-2.7884e-06 -5.55341e-06 1.31063e-20
-5.64283e-06 1.55701e-05 5.00675e-21
1.5529e-05 -1.26346e-05 1.08319e-20
1.10046e-05 -7.87956e-06 6.09802e-20
-1.20165e-05 -8.18014e-06 -3.0672e-20
-2.09945e-05 -1.31194e-05 -4.62303e-20
2.06007e-05 6.97032e-06 -2.82134e-20
7.44441e-06 1.18541e-05 -1.14699e-20
-5.99201e-06 1.54067e-05 6.73509e-21
-4.11749e-06 -2.05344e-05 5.47877e-20
1.58213e-05 1.34406e-05 -3.04006e-20
6.66927e-06 2.27012e-05 -5.27883e-21
-7.50542e-06 -1.04793e-05 -4.18691e-21
-2.57755e-05 4.81379e-05 -1.62417e-20
-4.64768e-05 2.70549e-05 -3.44396e-20
1.69037e-05 4.80127e-06 -2.18435e-20
1.58175e-05 -9.17478e-06 2.12975e-20
4.31309e-05 2.38227e-05 -1.09248e-21
5.27877e-05 -2.55084e-05 2.22142e-20
3.47534e-06 -1.15558e-05 6.41651e-20
-2.84879e-05 2.01954e-05 -3.00392e-21
-2.87072e-05 -2.07068e-05 -6.82715e-20
-1.20858e-05 -5.19089e-06 -2.48472e-20
-1.83842e-06 5.04563e-06 -2.45757e-21
2.74769e-05 3.54732e-05 -2.87991e-20
-3.12619e-05 -2.51282e-05 6.32388e-21
2.65007e-05 -3.73964e-05 3.75805e-20
2.78253e-05 4.04061e-05 -1.27395e-20
4.14481e-05 -2.2701e-05 1.46501e-20
2.7372e-06 -4.34319e-06 4.0593e-20
-3.41514e-06 -4.17575e-05 3.92626e-20
4.39906e-05 4.4559e-06 -2.12011e-20
-2.27693e-05 -3.11251e-05 1.36545e-21
2.20486e-05 2.74809e-05 -9.55826e-21
-1.40839e-05 -1.1243e-05 -5.75242e-20
-5.97563e-06 3.62959e-07 -2.19355e-20
1.51999e-05 -2.23639e-05 6.4247e-20
1.64993e-05 2.55574e-05 -1.9839e-20
-1.38249e-05 4.30175e-06 -1.47445e-20
7.58604e-06 -1.47639e-05 8.00908e-20
1.78342e-05 1.92524e-05 -4.9157e-21
2.20138e-05 -1.69373e-05 5.2706e-20
-1.70905e-05 -9.04468e-06 -7.78203e-20
-1.11858e-05 8.559e-06 5.46095e-22
-1.35957e-05 -6.25122e-06 -4.35969e-20
-2.61404e-05 -1.42615e-05 -2.5025e-20
-2.34195e-06 1.25209e-05 4.36885e-21
-5.49003e-05 5.49021e-05 -1.99252e-20
-2.28511e-06 2.23258e-05 4.00458e-21
3.95434e-06 -2.1278e-05 9.04639e-20
4.07056e-06 -4.18637e-05 2.26666e-20
1.77825e-06 3.49253e-05 -6.91844e-21
5.3028e-06 1.14743e-05 2.32102e-20
5.63813e-06 -9.6861e-06 8.29192e-20
-2.01482e-05 -1.03917e-05 -8.83809e-20
-1.96281e-05 1.11163e-05 9.73932e-21
-3.50944e-05 6.71119e-06 -7.65535e-20
-3.4645e-05 -5.98735e-06 -1.17426e-20
3.48463e-05 2.43075e-05 3.82361e-21
4.71081e-05 -2.58394e-05 2.33057e-20
1.28557e-05 8.60263e-06 -2.1939e-20
1.22943e-05 6.65835e-07 5.37015e-20
1.87389e-05 1.1208e-05 -3.30382e-20
7.00927e-07 1.95712e-05 6.91728e-21
1.23545e-06 -1.83242e-05 7.91813e-20
-2.93534e-05 2.12587e-05 -1.98383e-20
1.87231e-05 -7.87378e-06 1.30146e-20
-2.13151e-06 -1.95921e-05 3.03983e-20
1.71657e-05 1.52078e-05 -4.04105e-20
-1.29087e-05 1.21253e-07 -4.93323e-20
-1.23073e-05 1.28279e-07 -9.37534e-21
1.62842e-05 -1.13749e-05 3.96804e-20
-1.30804e-05 1.21182e-05 2.39386e-20
2.05204e-05 3.55415e-05 -3.55042e-21
-2.33006e-05 -4.03585e-05 6.82814e-21
-4.38245e-06 -1.40248e-05 2.89437e-20
-1.71728e-05 -1.01582e-05 -6.82614e-20
-1.84841e-06 -2.28588e-05 -3.71382e-20
2.76391e-05 -4.82208e-05 1.02137e-20
4.84658e-05 -2.23974e-05 -1.8425e-21
2.71971e-06 1.46831e-05 1.54738e-21
3.11427e-06 -1.25784e-05 6.00751e-20
-2.61521e-06 2.39843e-05 9.73972e-21
5.53166e-06 2.18543e-05 -9.01092e-21
2.29988e-05 1.45373e-05 -4.10458e-20
1.67686e-05 1.20073e-05 -6.37184e-21
1.86192e-05 -5.72197e-06 2.86716e-20
-4.53402e-05 1.14209e-10 -7.10051e-21
-4.65409e-05 1.43429e-09 -2.72202e-20
3.60482e-06 -1.08044e-05 4.46889e-20
-1.7595e-05 -1.05056e-05 -6.08881e-20
1.29685e-05 1.81745e-05 -1.10142e-20
1.46263e-05 -1.5874e-05 4.38737e-20
5.96347e-06 1.38951e-05 3.54986e-21
3.0115e-06 4.23027e-06 8.19193e-22
5.27862e-05 -5.27882e-05 -1.04177e-20
-1.52865e-05 4.90968e-06 -7.95536e-20
-1.46772e-05 -4.68187e-06 -1.11051e-20
-2.55645e-06 1.11724e-05 1.3653e-21
2.30155e-05 -1.10926e-05 1.94759e-20
-1.67716e-05 9.22106e-06 1.784e-20
-2.23584e-05 -2.92975e-06 -8.21009e-20
-2.16752e-05 3.40149e-06 -9.104e-23
-1.30666e-05 6.7096e-06 1.50179e-20
5.3705e-06 2.78554e-05 -5.82582e-21
6.35526e-06 -2.86882e-05 6.39018e-20
1.1012e-05 4.51995e-05 -1.11975e-20
-9.10982e-06 -5.47684e-05 3.514e-20
-5.00722e-06 9.95023e-05 8.6429e-22
-9.57502e-05 5.59849e-06 -3.11159e-20
1.4202e-05 9.76845e-06 -1.94799e-20
1.39192e-05 -1.76081e-06 4.08675e-20
-1.56112e-06 -3.73986e-06 2.62128e-20
5.17913e-05 -6.34306e-05 1.17368e-20
6.60035e-05 -5.07333e-05 -1.22372e-20
2.21107e-05 -5.33795e-05 3.7692e-20
1.89663e-05 4.57808e-05 -2.31247e-20
-1.55898e-05 1.02285e-05 8.19162e-21
1.41602e-05 -1.50079e-05 5.77927e-20
1.47199e-05 1.30729e-05 -1.95704e-20
1.49567e-05 -7.62598e-06 3.09462e-20
1.06267e-05 -1.03188e-05 5.47903e-20
1.49561e-05 1.90163e-05 -3.7226e-20
-5.79206e-07 -4.47309e-05 4.96831e-20
2.04407e-06 4.37323e-05 -1.78809e-20
4.68049e-05 1.84436e-06 -1.20114e-20
1.23046e-05 1.51737e-05 -3.51339e-20
5.26125e-06 4.75667e-05 -6.82441e-21
-4.50998e-05 -5.5243e-06 -3.1119e-20
1.74374e-05 1.03936e-05 -1.2107e-20
1.97471e-05 -2.99721e-06 3.26768e-20
1.69203e-05 1.21861e-05 -3.64118e-21
1.88635e-05 -6.01385e-06 3.22222e-20
-5.39527e-05 6.74332e-05 -7.73352e-21
-6.56312e-05 5.40466e-05 -2.96147e-20
1.57775e-05 1.38315e-05 -3.15848e-20
1.59099e-05 -8.30213e-06 3.62245e-20
8.29e-06 2.82826e-05 -8.10192e-21
-5.46808e-06 -3.21333e-05 2.23937e-20
1.40183e-05 4.97227e-06 -1.68411e-20
1.42825e-05 6.35212e-06 3.9686e-20
1.76323e-05 2.10868e-05 -2.73086e-21
2.16493e-05 -2.02465e-05 6.27173e-20
-1.32629e-05 -3.20763e-06 -7.0084e-20
-1.22449e-05 3.54094e-06 3.8229e-21
-4.4925e-05 1.06256e-06 -1.15609e-20
2.12376e-05 3.53542e-05 -1.82066e-21
1.64582e-05 3.6114e-05 -5.82614e-21
2.47582e-05 2.84343e-05 -8.19336e-21
2.01496e-05 -3.89638e-05 4.77011e-20
2.99539e-05 -2.98939e-05 5.97205e-20
-2.17777e-05 -4.07492e-05 -1.18343e-21
-4.62093e-05 -8.17357e-07 -5.30714e-20
2.16219e-05 -8.95814e-06 -3.6413e-22
7.51128e-05 -9.894e-06 4.57031e-20
9.53673e-05 1.25511e-05 1.45674e-20
3.70855e-05 1.53597e-05 2.11203e-20
3.31568e-05 8.52599e-06 -8.10245e-21
2.47431e-05 2.95541e-06 -4.09663e-21
3.22486e-05 1.27341e-05 3.6416e-21
4.75038e-05 -4.36107e-07 2.13018e-20
4.4516e-05 -1.42841e-05 7.28319e-21
3.21726e-05 9.71552e-06 2.73997e-20
2.58518e-05 1.65405e-05 -4.73375e-21
2.6865e-05 1.62254e-05 -3.27728e-21
3.4027e-05 -1.30184e-05 2.43049e-20
3.43501e-05 -1.29189e-05 3.11336e-20
TENSORS solid_stress_TPM float
15.209 1.28001 2.25473e-11
1.28001 16.9605 1.66703e-11
2.25473e-11 1.66703e-11 15.2479

18.0094 0.852249 -1.7548e-11
0.852249 19.4466 -1.23338e-11
-1.7548e-11 -1.23338e-11 18.3389

17.886 0.684345 2.63156e-11
0.684345 19.2665 -3.14108e-11
2.63156e-11 -3.14108e-11 18.2329

17.9618 0.372889 1.06954e-11
0.372889 14.8859 3.04224e-13
1.06954e-11 3.04224e-13 16.1242

17.2549 0.147729 2.24512e-11
0.147729 14.3484 -6.91493e-12
2.24512e-11 -6.91493e-12 15.0475

18.2267 0.806676 -1.59941e-11
0.806676 19.6868 -3.08361e-12
-1.59941e-11 -3.08361e-12 19.1403

18.0967 0.748289 4.77301e-11
0.748289 19.5744 3.10256e-11
4.77301e-11 3.10256e-11 19.0492

17.4372 -0.186884 2.8811e-11
-0.186884 14.5593 -1.36256e-12
2.8811e-11 -1.36256e-12 15.2026

20.1022 0.0320502 -1.34881e-12
0.0320502 16.3901 3.85382e-12
-1.34881e-12 3.85382e-12 18.2929

12.0553 1.24258 4.07045e-12
1.24258 13.9727 -4.34106e-11
4.07045e-12 -4.34106e-11 11.596

11.8116 -1.32881 -3.33152e-11
-1.32881 13.696 -3.6906e-11
-3.33152e-11 -3.6906e-11 11.2378

13.9122 1.28491 -1.86939e-11
1.28491 12.544 -6.50461e-13
-1.86939e-11 -6.50461e-13 11.7248

19.3305 -1.05609 -2.67332e-12
-1.05609 20.2395 -1.13695e-11
-2.67332e-12 -1.13695e-11 19.6359

19.4599 -1.19424 3.21086e-11
-1.19424 20.4909 -9.53926e-12
3.21086e-11 -9.53926e-12 19.7763

15.5422 1.21138 1.19714e-11
1.21138 17.6076 -3.06408e-11
1.19714e-11 -3.06408e-11 16.2726

16.8164 1.45154 9.97255e-12
1.45154 18.86 9.0575e-12
9.97255e-12 9.0575e-12 17.8472

18.0285 -0.55239 -1.27183e-11
-0.55239 19.4909 -1.08877e-11
-1.27183e-11 -1.08877e-11 18.9804

18.1143 -0.596081 -3.45177e-11
-0.596081 19.5804 -4.23903e-12
-3.45177e-11 -4.23903e-12 19.052

18.9619 0.550164 2.4281e-11
0.550164 17.1367 -5.37174e-11
2.4281e-11 -5.37174e-11 17.6979

13.3115 0.48096 -1.99938e-11
0.48096 15.8674 1.10808e-11
-1.99938e-11 1.10808e-11 13.0665

13.2682 -0.460048 -2.57757e-12
-0.460048 15.859 3.12204e-11
-2.57757e-12 3.12204e-11 12.9928

15.8582 0.394147 -3.08342e-11
0.394147 14.0787 2.41659e-14
-3.08342e-11 2.41659e-14 13.3098

15.0962 1.42919 2.92438e-11
1.42919 16.4756 -1.92683e-12
2.92438e-11 -1.92683e-12 15.054

15.9981 -0.730098 -5.87778e-12
-0.730098 13.651 2.06683e-11
-5.87778e-12 2.06683e-11 13.9848

16.5304 1.31133 -2.80387e-11
1.31133 16.9743 1.12736e-11
-2.80387e-11 1.12736e-11 16.2035

15.5719 1.42861 -1.65241e-11
1.42861 17.3568 3.71931e-11
-1.65241e-11 3.71931e-11 15.5889

18.2497 -0.308537 5.29958e-12
-0.308537 14.9846 1.53833e-11
5.29958e-12 1.53833e-11 16.3339

11.4849 1.1057 2.64627e-11
1.1057 13.5896 -1.0383e-11
2.64627e-11 -1.0383e-11 10.0668

19.5066 0.136382 1.25261e-11
0.136382 15.9373 -4.13404e-11
1.25261e-11 -4.13404e-11 17.8125

13.2815 1.10807 1.83339e-11
1.10807 11.9127 3.67011e-11
1.83339e-11 3.67011e-11 10.1068

19.9142 0.174917 1.91134e-11
0.174917 20.5616 2.11979e-12
1.91134e-11 2.11979e-12 19.9085

19.9078 0.0604047 7.72027e-12
0.0604047 20.5284 2.83272e-11
7.72027e-12 2.83272e-11 19.8977

22.293 0.623962 -3.95031e-11
0.623962 21.1387 3.37215e-11
-3.95031e-11 3.37215e-11 21.1986

22.3086 -0.598387 -1.31037e-11
-0.598387 21.1666 5.68458e-11
-1.31037e-11 5.68458e-11 21.1948

15.3936 -0.462543 1.25271e-11
-0.462543 12.9471 3.38694e-11
1.25271e-11 3.38694e-11 12.5196

16.6424 1.41027 -1.09844e-11
1.41027 17.71 -4.43236e-12
-1.09844e-11 -4.43236e-12 17.0027

20.104 0.256312 -1.00209e-11
0.256312 19.5027 3.90202e-12
-1.00209e-11 3.90202e-12 19.649

20.1715 -0.232718 3.02542e-11
-0.232718 19.6058 -2.96758e-11
3.02542e-11 -2.96758e-11 19.7521

20.2914 0.00226236 -5.37659e-11
0.00226236 16.2127 -1.8439e-11
-5.37659e-11 -1.8439e-11 18.3404

15.3359 1.54611 1.38264e-11
1.54611 17.2264 -7.70819e-12
1.38264e-11 -7.70819e-12 15.4443

16.2728 -0.945115 1.95606e-11
-0.945115 14.9387 -2.55825e-11
1.95606e-11 -2.55825e-11 14.5853

19.9179 -0.090922 -7.22661e-12
-0.090922 15.7481 2.25339e-11
-7.22661e-12 2.25339e-11 17.9181

14.965 -1.43205 1.25361e-12
-1.43205 16.4207 -2.5631e-11
1.25361e-12 -2.5631e-11 14.9271

15.2059 -1.22768 3.37965e-11
-1.22768 16.981 5.87722e-12
3.37965e-11 5.87722e-12 15.2388

17.2301 1.63137 -1.8548e-11
1.63137 19.2847 -1.39719e-11
-1.8548e-11 -1.39719e-11 18.1538

14.9112 -1.5276 -1.63322e-11
-1.5276 14.3417 -3.85421e-12
-1.63322e-11 -3.85421e-12 13.5255

4.46774 3.11999 -5.06336e-13
3.11999 6.61569 4.82059e-13
-5.06336e-13 4.82059e-13 3.44768

6.30796 3.08298 1.7974e-11
3.08298 4.6313 4.08119e-11
1.7974e-11 4.08119e-11 3.38143

17.7832 -1.45981 5.28487e-11
-1.45981 19.5951 -1.21411e-11
5.28487e-11 -1.21411e-11 18.8846

7.74347 1.30892 -1.91764e-11
1.30892 10.3745 -3.06211e-11
-1.91764e-11 -3.06211e-11 6.16426

9.93312 1.17324 2.52357e-11
1.17324 8.0193 -2.25981e-11
2.52357e-11 -2.25981e-11 6.18397

20.4925 -1.02014 -5.54012e-11
-1.02014 21.38 -6.35876e-12
-5.54012e-11 -6.35876e-12 20.8388

20.4877 1.01632 2.45692e-11
1.01632 21.3684 3.27596e-11
2.45692e-11 3.27596e-11 20.839

20.245 0.029116 -3.1122e-11
0.029116 17.9745 -1.09292e-12
-3.1122e-11 -1.09292e-12 18.8916

20.4947 -0.888117 -4.54763e-11
-0.888117 21.1034 8.47897e-12
-4.54763e-11 8.47897e-12 20.8725

20.4915 0.885373 6.89859e-11
0.885373 21.1002 5.13558e-11
6.89859e-11 5.13558e-11 20.875

15.9188 1.42977 -3.19416e-11
1.42977 18.0847 -3.3918e-11
-3.19416e-11 -3.3918e-11 16.61

21.9905 0.585587 4.85609e-11
0.585587 20.1981 3.72869e-11
4.85609e-11 3.72869e-11 20.7727

22.0075 -0.581197 -5.10656e-11
-0.581197 20.1891 1.83142e-12
-5.10656e-11 1.83142e-12 20.7666

19.216 -1.17782 3.9215e-11
-1.17782 19.833 -2.91467e-11
3.9215e-11 -2.91467e-11 19.4826

19.2102 1.17063 6.4551e-12
1.17063 19.8324 -1.02134e-11
6.4551e-12 -1.02134e-11 19.489

13.3031 -1.26844 -4.4813e-12
-1.26844 11.6351 2.44273e-11
-4.4813e-12 2.44273e-11 10.9376

20.43 0.571006 -1.28986e-11
0.571006 21.9174 6.55135e-12
-1.28986e-11 6.55135e-12 20.8207

20.329 0.451693 -5.98572e-12
0.451693 21.8386 -2.48584e-11
-5.98572e-12 -2.48584e-11 20.7373

15.3778 -1.57543 1.41644e-11
-1.57543 17.3052 -3.26646e-11
1.41644e-11 -3.26646e-11 15.5119

10.8127 -1.04261 -3.62202e-11
-1.04261 13.3347 -2.79198e-11
-3.62202e-11 -2.79198e-11 9.51184

12.9948 -1.03326 1.89835e-11
-1.03326 10.8127 -1.30335e-11
1.89835e-11 -1.30335e-11 9.37352

16.7458 1.24621 -1.24173e-11
1.24621 18.9112 1.41635e-11
-1.24173e-11 1.41635e-11 17.6809

16.5392 1.15907 -1.19957e-11
1.15907 18.5776 9.63531e-12
-1.19957e-11 9.63531e-12 17.4921

23.4732 -1.72798 -2.30269e-10
-1.72798 22.3088 -6.29067e-11
-2.30269e-10 -6.29067e-11 22.6492

23.4726 1.72748 -2.75551e-11
1.72748 22.3118 -4.4609e-11
-2.75551e-11 -4.4609e-11 22.6517

17.3572 1.76695 -2.4473e-11
1.76695 19.2704 7.70808e-12
-2.4473e-11 7.70808e-12 18.3822

19.1363 0.864707 -1.1562e-11
0.864707 18.4345 -1.03583e-11
-1.1562e-11 -1.03583e-11 18.7

19.129 -0.879885 -3.08327e-12
-0.879885 18.3856 -7.4191e-12
-3.08327e-12 -7.4191e-12 18.6555

17.2176 1.68784 9.15347e-12
1.68784 18.7816 -7.90053e-12
9.15347e-12 -7.90053e-12 18.1317

18.0381 -1.54396 4.33098e-11
-1.54396 19.9188 -2.5342e-11
4.33098e-11 -2.5342e-11 19.0835

15.0311 -0.017682 8.72028e-12
-0.017682 12.1806 1.68439e-13
8.72028e-12 1.68439e-13 12.1781

16.1746 0.687995 1.17073e-11
0.687995 13.5978 -9.22581e-12
1.17073e-11 -9.22581e-12 13.8172

19.7064 0.278279 -8.86426e-12
0.278279 17.8345 4.67304e-12
-8.86426e-12 4.67304e-12 19.012

21.6404 -0.431567 2.8518e-11
-0.431567 21.4185 1.0791e-10
2.8518e-11 1.0791e-10 21.2195

21.6449 0.371225 1.30842e-10
0.371225 21.4529 3.85229e-13
1.30842e-10 3.85229e-13 21.2372

13.8827 1.2747 9.39434e-12
1.2747 14.5277 -3.05942e-11
9.39434e-12 -3.05942e-11 12.608

16.4112 -1.11229 -3.27616e-12
-1.11229 15.8629 2.85211e-11
-3.27616e-12 2.85211e-11 15.7468

19.0783 0.665667 1.53208e-11
0.665667 17.6553 3.1748e-11
1.53208e-11 3.1748e-11 17.8514

20.884 0.366217 1.87561e-11
0.366217 21.9153 3.54571e-11
1.87561e-11 3.54571e-11 21.0736

20.866 0.312472 7.35694e-11
0.312472 21.8988 -3.48787e-11
7.35694e-11 -3.48787e-11 21.0454

19.8333 -0.203404 2.66899e-11
-0.203404 18.0647 8.67153e-12
2.66899e-11 8.67153e-12 19.1846

17.8498 -0.436495 -1.00084e-11
-0.436495 19.2884 -1.32004e-11
-1.00084e-11 -1.32004e-11 18.2074

17.9292 -0.592931 -4.06602e-11
-0.592931 19.4183 -2.84237e-11
-4.06602e-11 -2.84237e-11 18.286

20.749 -0.408356 1.45492e-11
-0.408356 18.8039 -2.38506e-12
1.45492e-11 -2.38506e-12 19.8151

20.7852 0.413012 1.19475e-11
0.413012 18.8167 -5.08234e-12
1.19475e-11 -5.08234e-12 19.8587

14.5157 -1.26458 9.63452e-12
-1.26458 14.4761 1.90306e-11
9.63452e-12 1.90306e-11 12.7962

18.1949 0.0786671 -3.17968e-12
0.0786671 16.2363 -2.21158e-11
-3.17968e-12 -2.21158e-11 16.3883

20.9039 -0.61863 1.59945e-11
-0.61863 19.7744 -5.99848e-12
1.59945e-11 -5.99848e-12 20.4778

20.8959 0.612744 2.22083e-11
0.612744 19.7906 2.8429e-12
2.22083e-11 2.8429e-12 20.4923

19.0618 -0.69085 3.62291e-11
-0.69085 17.6779 7.94577e-13
3.62291e-11 7.94577e-13 17.8249

15.6426 -1.43488 2.76538e-11
-1.43488 17.5257 -9.15464e-12
2.76538e-11 -9.15464e-12 15.6987

20.7572 -0.458821 -3.85429e-12
-0.458821 19.0482 7.05754e-12
-3.85429e-12 7.05754e-12 19.7731

20.7913 0.46303 1.77287e-11
0.46303 19.0614 -2.50986e-11
1.77287e-11 -2.50986e-11 19.8203

18.3691 -0.301103 -6.2628e-12
-0.301103 16.0121 2.42326e-11
-6.2628e-12 2.42326e-11 16.875

17.8092 2.01495 -8.19028e-12
2.01495 19.6718 -8.19012e-12
-8.19028e-12 -8.19012e-12 18.6876

15.9496 1.10867 -1.18512e-11
1.10867 15.454 8.04584e-12
-1.18512e-11 8.04584e-12 14.6459

17.3793 1.70636 -1.11762e-11
1.70636 19.428 1.67654e-11
-1.11762e-11 1.67654e-11 18.487

17.7075 1.90574 3.2282e-12
1.90574 19.8133 3.0255e-11
3.2282e-12 3.0255e-11 18.7169

16.7647 0.822578 -1.25267e-11
0.822578 14.9619 5.56414e-12
-1.25267e-11 5.56414e-12 14.9275

17.961 -0.679926 -6.3598e-12
-0.679926 16.9593 1.0454e-11
-6.3598e-12 1.0454e-11 17.5655

18.1296 0.371311 2.38959e-11
0.371311 15.9463 2.82798e-11
2.38959e-11 2.82798e-11 16.6112

14.5436 1.40351 1.8789e-11
1.40351 14.9106 -1.88861e-11
1.8789e-11 -1.88861e-11 13.8556

16.2052 1.13892 -3.52662e-11
1.13892 15.7542 6.26284e-12
-3.52662e-11 6.26284e-12 15.6127

16.2567 0.0988891 1.1538e-11
0.0988891 18.3732 -4.13359e-11
1.1538e-11 -4.13359e-11 17.3278

16.2846 0.156167 -2.58464e-11
0.156167 18.3911 -1.98493e-11
-2.58464e-11 -1.98493e-11 17.3423

14.0556 -1.43014 7.6121e-12
-1.43014 12.9194 1.85488e-11
7.6121e-12 1.85488e-11 11.9661

17.2349 -1.70112 5.01027e-12
-1.70112 18.814 -1.44539e-12
5.01027e-12 -1.44539e-12 18.1614

14.9802 -1.67674 5.20378e-12
-1.67674 16.1227 -8.96128e-12
5.20378e-12 -8.96128e-12 14.4003

14.949 1.71743 -1.01258e-12
1.71743 16.0634 -1.67662e-11
-1.01258e-12 -1.67662e-11 14.3622

17.9727 -0.623044 2.0232e-12
-0.623044 16.4409 1.47901e-11
2.0232e-12 1.47901e-11 16.774

20.4814 -0.0928989 -7.90087e-12
-0.0928989 16.7036 -1.63828e-12
-7.90087e-12 -1.63828e-12 18.926

20.4672 0.104136 1.04063e-11
0.104136 16.7058 1.32964e-11
1.04063e-11 1.32964e-11 18.88

14.0838 0.911923 -1.3803e-11
0.911923 16.3327 -1.73448e-11
-1.3803e-11 -1.73448e-11 14.3668

16.5288 -1.37937 -3.08261e-12
-1.37937 16.9406 -1.56578e-11
-3.08261e-12 -1.56578e-11 16.1602

11.8492 -0.0307433 -1.54894e-11
-0.0307433 15.1176 -6.31147e-12
-1.54894e-11 -6.31147e-12 12.1737

11.8094 0.067665 1.9934e-11
0.067665 15.1213 3.06432e-11
1.9934e-11 3.06432e-11 12.1224

15.1641 -0.0110039 1.52252e-11
-0.0110039 12.4462 -1.90186e-11
1.52252e-11 -1.90186e-11 12.3731

14.4978 1.34287 -9.10583e-12
1.34287 14.5268 1.52244e-11
-9.10583e-12 1.52244e-11 12.7748

15.4538 -1.57423 9.34704e-12
-1.57423 15.27 7.70809e-13
9.34704e-12 7.70809e-13 14.3814

21.2006 -0.776571 -2.31919e-10
-0.776571 22.8806 4.35563e-11
-2.31919e-10 4.35563e-11 21.5002

21.2207 -0.71739 6.62154e-13
-0.71739 22.8906 7.49599e-11
6.62154e-13 7.49599e-11 21.5175

16.9446 -0.805831 -2.24512e-11
-0.805831 15.0532 1.24301e-11
-2.24512e-11 1.24301e-11 15.0873

16.8799 1.87228 -3.80626e-12
1.87228 18.9301 -1.77293e-11
-3.80626e-12 -1.77293e-11 17.5528

20.2405 -0.0488199 -2.42813e-11
-0.0488199 17.9504 3.05454e-12
-2.42813e-11 3.05454e-12 18.8601

14.086 -0.897461 8.38299e-12
-0.897461 16.4312 -4.04698e-12
8.38299e-12 -4.04698e-12 14.4046

18.0864 1.67785 1.6548e-11
1.67785 20.0669 -2.88989e-12
1.6548e-11 -2.88989e-12 19.1863

17.7047 1.57972 -1.23822e-11
1.57972 19.6862 -4.22027e-11
-1.23822e-11 -4.22027e-11 18.9216

17.8417 -2.01108 -1.47419e-11
-2.01108 19.6934 2.37989e-11
-1.47419e-11 2.37989e-11 18.7129

17.8779 1.94031 1.41636e-11
1.94031 20.1439 2.67866e-11
1.41636e-11 2.67866e-11 18.9651

16.4961 1.63766 2.84145e-12
1.63766 18.405 -4.11433e-11
2.84145e-12 -4.11433e-11 17.2181

22.0059 0.00375143 2.35096e-11
0.00375143 19.8094 1.68174e-12
2.35096e-11 1.68174e-12 21.1071

15.4317 1.5449 -1.87903e-11
1.5449 15.0871 -2.50557e-12
-1.87903e-11 -2.50557e-12 14.2611

17.3791 -1.72098 -2.22574e-11
-1.72098 19.4165 2.32217e-11
-2.22574e-11 2.32217e-11 18.4844

15.8013 1.3505 -3.22786e-11
1.3505 16.4163 7.27437e-12
-3.22786e-11 7.27437e-12 15.0496

13.4075 -1.16642 -4.44689e-11
-1.16642 14.2157 -1.15147e-11
-4.44689e-11 -1.15147e-11 12.1424

16.6541 -1.42889 -2.9966e-11
-1.42889 17.7947 1.15682e-12
-2.9966e-11 1.15682e-12 17.0339

13.7685 -0.813756 3.3568e-11
-0.813756 16.3921 -9.44363e-12
3.3568e-11 -9.44363e-12 13.5356

13.6943 0.793229 -7.70365e-13
0.793229 16.3046 2.50481e-12
-7.70365e-13 2.50481e-12 13.4684

16.0906 -0.558694 1.20496e-12
-0.558694 14.4371 -2.57029e-11
1.20496e-12 -2.57029e-11 13.6324

15.7913 -1.38746 3.19913e-11
-1.38746 16.4104 -5.29966e-11
3.19913e-11 -5.29966e-11 15.0157

16.0056 0.21512 -3.45789e-11
0.21512 18.1489 -4.07082e-16
-3.45789e-11 -4.07082e-16 16.2248

15.9942 -0.00204355 -2.57263e-11
-0.00204355 18.1148 3.17953e-12
-2.57263e-11 3.17953e-12 16.2128

12.9266 -1.60162 9.00909e-12
-1.60162 13.9348 2.29328e-11
9.00909e-12 2.29328e-11 11.826

12.872 1.62144 9.44208e-12
1.62144 14.0143 -2.72699e-11
9.44208e-12 -2.72699e-11 11.9077

21.7677 -0.14189 2.42805e-11
-0.14189 19.277 -3.9503e-12
2.42805e-11 -3.9503e-12 20.7483

21.7819 0.148843 3.04472e-11
0.148843 19.285 -1.16339e-11
3.04472e-11 -1.16339e-11 20.7649

17.2264 1.76439 -4.09526e-12
1.76439 19.1315 -2.01378e-11
-4.09526e-12 -2.01378e-11 17.8784

17.6915 -1.60739 -9.78009e-12
-1.60739 19.7194 2.88095e-11
-9.78009e-12 2.88095e-11 18.8901

17.2983 1.16786 3.40122e-11
1.16786 17.9183 -1.61865e-11
3.40122e-11 -1.61865e-11 17.6216

13.3431 1.29261 -1.93689e-11
1.29261 11.6583 -5.46903e-12
-1.93689e-11 -5.46903e-12 10.5455

14.3158 1.10629 8.79256e-12
1.10629 16.8876 3.59411e-11
8.79256e-12 3.59411e-11 14.6688

20.3311 0.768375 5.01007e-12
0.768375 20.2404 -1.01132e-12
5.01007e-12 -1.01132e-12 20.2923

20.3384 -0.773994 -2.81341e-11
-0.773994 20.2461 -5.14034e-11
-2.81341e-11 -5.14034e-11 20.288

19.2457 -1.05135 -4.81874e-13
-1.05135 19.0385 4.72117e-12
-4.81874e-13 4.72117e-12 18.7898

19.2353 1.0431 -2.83277e-11
1.0431 19.0356 -6.30145e-11
-2.83277e-11 -6.30145e-11 18.7969

8.44685 0.345555 4.07091e-12
0.345555 12.5943 -2.72236e-11
4.07091e-12 -2.72236e-11 6.72016

12.135 0.357707 4.04728e-12
0.357707 8.83842 1.83215e-11
4.04728e-12 1.83215e-11 6.71052

14.2837 -1.04979 3.54133e-12
-1.04979 16.9485 -7.80494e-12
3.54133e-12 -7.80494e-12 14.7226

22.0819 -0.836257 -3.62268e-11
-0.836257 22.3014 1.41635e-11
-3.62268e-11 1.41635e-11 22.0929

22.0762 0.838997 5.58819e-11
0.838997 22.2998 -1.52223e-11
5.58819e-11 -1.52223e-11 22.0934

17.6251 1.28389 1.57057e-11
1.28389 17.682 -2.25461e-11
1.57057e-11 -2.25461e-11 17.0291

13.7832 0.704081 -4.46154e-11
0.704081 11.0226 7.03358e-12
-4.46154e-11 7.03358e-12 10.4686

18.2007 -0.133618 1.73436e-11
-0.133618 16.2493 7.54411e-12
1.73436e-11 7.54411e-12 16.3936

16.5465 -0.924863 -1.26469e-12
-0.924863 18.5526 3.56519e-12
-1.26469e-12 3.56519e-12 17.4951

16.7676 -1.01137 1.44768e-11
-1.01137 18.791 1.78249e-11
1.44768e-11 1.78249e-11 17.6719

14.4935 -1.52687 -1.63326e-11
-1.52687 15.0568 -2.7895e-11
-1.63326e-11 -2.7895e-11 13.7175

17.8936 -1.9485 1.92392e-13
-1.9485 20.1776 1.27184e-11
1.92392e-13 1.27184e-11 18.9871

17.6219 -1.29782 -2.37993e-11
-1.29782 17.6989 1.12252e-11
-2.37993e-11 1.12252e-11 17.0102

17.1048 1.86712 -8.38238e-12
1.86712 19.2435 4.33586e-12
-8.38238e-12 4.33586e-12 18.3435

19.4244 1.35091 5.65899e-13
1.35091 20.5061 8.66973e-13
5.65899e-13 8.66973e-13 19.8135

19.2906 1.22769 -2.40523e-11
1.22769 20.1997 -4.55743e-11
-2.40523e-11 -4.55743e-11 19.657

17.2433 -1.77216 -2.26913e-11
-1.77216 19.1971 2.30289e-11
-2.26913e-11 2.30289e-11 17.927

16.8156 1.59989 -3.15072e-11
1.59989 18.519 -1.24296e-11
-3.15072e-11 -1.24296e-11 17.4558

15.4996 1.10594 -7.32314e-12
1.10594 13.8227 1.8067e-11
-7.32314e-12 1.8067e-11 13.6128

17.6993 2.05402 1.30557e-11
2.05402 19.8587 2.10054e-11
1.30557e-11 2.10054e-11 18.7896

15.5734 -1.25508 3.93846e-11
-1.25508 17.7092 -8.67343e-13
3.93846e-11 -8.67343e-13 16.3363

14.7899 0.488728 -4.69724e-11
0.488728 17.358 2.30288e-11
-4.69724e-11 2.30288e-11 15.4896

17.7635 1.48749 -1.74403e-11
1.48749 18.4196 -4.86587e-11
-1.74403e-11 -4.86587e-11 17.8388

15.0698 0.627658 2.92913e-11
0.627658 17.5435 -2.51489e-11
2.92913e-11 -2.51489e-11 15.681

18.0943 -1.74369 -3.6276e-11
-1.74369 20.1124 6.36011e-12
-3.6276e-11 6.36011e-12 19.1573

9.62004 -1.49479 -4.0966e-11
-1.49479 9.78485 -1.7754e-11
-4.0966e-11 -1.7754e-11 7.46393

9.66442 -1.51106 -2.69092e-11
-1.51106 9.67237 -1.28582e-11
-2.69092e-11 -1.28582e-11 7.43391

17.7634 -1.49637 -6.6489e-12
-1.49637 18.4206 2.23539e-11
-6.6489e-12 2.23539e-11 17.8308

18.9312 -0.564496 1.34413e-11
-0.564496 17.1225 2.46074e-11
1.34413e-11 2.46074e-11 17.6647

23.5664 1.78096 9.30701e-11
1.78096 22.7522 -7.14856e-11
9.30701e-11 -7.14856e-11 22.7596

23.567 -1.78113 -8.43987e-11
-1.78113 22.7527 -9.34546e-11
-8.43987e-11 -9.34546e-11 22.758

16.9397 -1.86082 1.51748e-11
-1.86082 19.03 2.37992e-11
1.51748e-11 2.37992e-11 17.6566

20.1746 0.3896 1.59937e-11
0.3896 20.5131 9.92386e-12
1.59937e-11 9.92386e-12 20.357

20.2 -0.357927 -4.20078e-11
-0.357927 20.5384 4.52852e-11
-4.20078e-11 4.52852e-11 20.3664

19.216 0.0235191 2.75576e-11
0.0235191 15.5014 -9.19105e-12
2.75576e-11 -9.19105e-12 17.0953

17.0949 -1.87615 -5.7733e-13
-1.87615 19.2678 -2.8617e-11
-5.7733e-13 -2.8617e-11 18.3358

10.5991 1.82108 6.52136e-11
1.82108 10.7579 8.67395e-12
6.52136e-11 8.67395e-12 8.69961

10.4126 1.72533 2.71389e-11
1.72533 10.7587 1.54901e-11
2.71389e-11 1.54901e-11 8.70786

11.2373 -1.29625 -1.94413e-11
-1.29625 13.6196 4.59652e-11
-1.94413e-11 4.59652e-11 10.1918

11.4636 1.35917 6.28027e-11
1.35917 13.8235 -5.0091e-12
6.28027e-11 -5.0091e-12 10.4118

13.4608 -1.07823 9.44393e-12
-1.07823 11.6842 -1.47196e-11
9.44393e-12 -1.47196e-11 10.2594

17.7068 -2.0629 2.09075e-11
-2.0629 19.9199 2.11967e-11
2.09075e-11 2.11967e-11 18.806

8.89205 0.477667 3.12328e-11
0.477667 12.5434 1.78758e-11
3.12328e-11 1.78758e-11 8.73939

12.368 0.60981 2.75365e-11
0.60981 9.4683 9.08226e-12
2.75365e-11 9.08226e-12 8.86953

20 -0.637883 2.41588e-11
-0.637883 21.0464 1.17547e-11
2.41588e-11 1.17547e-11 20.3572

20.1279 -0.771602 1.76801e-11
-0.771602 21.1445 -9.44258e-12
1.76801e-11 -9.44258e-12 20.4466

19.5143 0.23976 -1.08877e-11
0.23976 17.5265 -1.19954e-11
-1.08877e-11 -1.19954e-11 18.2252

20.2333 0.0150609 -3.75785e-11
0.0150609 15.8608 -2.90014e-11
-3.75785e-11 -2.90014e-11 18.2637

13.303 -1.17633 1.83556e-11
-1.17633 15.3982 -4.34583e-11
1.83556e-11 -4.34583e-11 13.0371

13.2269 1.15049 3.80609e-11
1.15049 15.3396 -3.68085e-11
3.80609e-11 -3.68085e-11 12.9849

19.232 0.000297102 4.17221e-11
0.000297102 15.4701 2.06479e-11
4.17221e-11 2.06479e-11 17.1482

15.9751 -1.42197 3.14588e-11
-1.42197 18.197 7.32251e-12
3.14588e-11 7.32251e-12 16.7105

21.7549 -0.604998 -1.36822e-11
-0.604998 21.6155 4.52816e-12
-1.36822e-11 4.52816e-12 21.6107

21.7419 0.603775 4.94274e-11
0.603775 21.6095 4.48117e-12
4.94274e-11 4.48117e-12 21.6096

18.1576 0.836805 1.93666e-11
0.836805 18.3096 2.04269e-11
1.93666e-11 2.04269e-11 17.9938

16.7662 -1.5928 -1.72953e-11
-1.5928 18.5141 3.27634e-12
-1.72953e-11 3.27634e-12 17.4354

19.1052 0.240506 -9.34656e-12
0.240506 16.0478 2.033e-11
-9.34656e-12 2.033e-11 17.5954

13.5588 1.32765 -2.55354e-11
1.32765 13.3122 2.7606e-11
-2.55354e-11 2.7606e-11 12.0334

16.5123 -1.6369 1.91738e-11
-1.6369 18.4153 1.50311e-11
1.91738e-11 1.50311e-11 17.237

4.95437 -2.87035 -9.38597e-12
-2.87035 5.05604 2.81045e-11
-9.38597e-12 2.81045e-11 2.79954

14.8685 -0.392227 -6.40752e-12
-0.392227 17.3042 1.3008e-11
-6.40752e-12 1.3008e-11 15.4997

15.0907 -0.536826 7.32307e-12
-0.536826 17.4502 2.42814e-11
7.32307e-12 2.42814e-11 15.6451

20.1692 -0.127157 1.57423e-11
-0.127157 20.9216 -1.01746e-10
1.57423e-11 -1.01746e-10 20.4613

20.1915 -0.0735344 9.20886e-12
-0.0735344 20.9089 1.92901e-13
9.20886e-12 1.92901e-13 20.466

22.2106 -0.444974 4.23955e-12
-0.444974 20.3361 1.90768e-11
4.23955e-12 1.90768e-11 21.5153

22.2095 0.445667 4.43192e-12
0.445667 20.3432 -2.90727e-11
4.43192e-12 -2.90727e-11 21.5274

18.5692 -0.876867 9.82775e-12
-0.876867 18.7723 -2.64967e-11
9.82775e-12 -2.64967e-11 18.8771

18.5186 0.904819 -4.19131e-11
0.904819 18.5742 1.55119e-11
-4.19131e-11 1.55119e-11 18.7492

19.9818 -0.77847 -4.18159e-11
-0.77847 20.8349 1.3586e-11
-4.18159e-11 1.3586e-11 20.2654

19.9609 0.810409 -1.1369e-11
0.810409 20.824 9.34587e-12
-1.1369e-11 9.34587e-12 20.2557

22.681 1.21052 2.00395e-11
1.21052 22.5806 -3.43953e-11
2.00395e-11 -3.43953e-11 22.3729

22.682 -1.20871 -1.15598e-11
-1.20871 22.5815 -1.4876e-10
-1.15598e-11 -1.4876e-10 22.3712

18.7002 -1.99948 2.80387e-11
-1.99948 20.4692 -2.20649e-11
2.80387e-11 -2.20649e-11 19.6415

18.7074 2.00642 9.44276e-12
2.00642 20.4504 1.426e-11
9.44276e-12 1.426e-11 19.6459

17.5115 1.19142 1.85003e-11
1.19142 16.9517 8.57585e-12
1.85003e-11 8.57585e-12 16.72

16.3016 -0.942173 3.42061e-12
-0.942173 18.1674 -1.34874e-12
3.42061e-12 -1.34874e-12 16.6675

16.4966 -1.17538 5.64862e-11
-1.17538 18.54 1.05978e-11
5.64862e-11 1.05978e-11 16.8983

13.8666 -1.18673 -1.72003e-11
-1.18673 13.5298 -1.76812e-11
-1.72003e-11 -1.76812e-11 11.9645

17.4999 -1.18952 -2.98698e-11
-1.18952 16.9837 -2.98632e-12
-2.98698e-11 -2.98632e-12 16.7063

16.2503 0.889015 -2.06681e-11
0.889015 18.0822 1.05986e-12
-2.06681e-11 1.05986e-12 16.6033

16.5557 1.66995 1.86929e-11
1.66995 17.194 -2.3221e-11
1.86929e-11 -2.3221e-11 16.22

17.8635 -1.73291 1.87879e-11
-1.73291 19.5865 2.05228e-11
1.87879e-11 2.05228e-11 18.9889

17.8915 1.70101 1.61864e-11
1.70101 19.5921 -2.14861e-11
1.61864e-11 -2.14861e-11 19.0073

16.5197 -1.69496 3.85318e-12
-1.69496 17.1724 3.96022e-11
3.85318e-12 3.96022e-11 16.1844

19.7017 -0.166069 3.1218e-11
-0.166069 17.7511 1.85951e-11
3.1218e-11 1.85951e-11 18.4813

21.2991 0.48122 -2.08108e-11
0.48122 22.1228 -3.96963e-11
-2.08108e-11 -3.96963e-11 21.3516

21.3494 0.423599 4.96076e-11
0.423599 22.1075 9.15319e-11
4.96076e-11 9.15319e-11 21.3737

17.8435 -1.49157 3.74805e-11
-1.49157 19.5942 2.16783e-11
3.74805e-11 2.16783e-11 18.4499

17.6947 0.727978 2.85209e-11
0.727978 16.7487 5.44353e-12
2.85209e-11 5.44353e-12 17.2996

21.0093 -0.181479 1.5416e-11
-0.181479 18.5078 -1.62351e-11
1.5416e-11 -1.62351e-11 19.7088

10.3249 -1.60238 -2.90289e-11
-1.60238 10.57 -1.8429e-11
-2.90289e-11 -1.8429e-11 8.15454

10.4073 -1.56515 -4.77396e-14
-1.56515 10.6205 1.2479e-11
-4.77396e-14 1.2479e-11 8.22239

22.107 -0.49986 -8.9603e-12
-0.49986 20.1865 -1.34643e-11
-8.9603e-12 -1.34643e-11 21.3599

22.088 0.508218 -2.35093e-11
0.508218 20.1906 9.105e-12
-2.35093e-11 9.105e-12 21.3645

21.0625 0.149738 -6.16647e-12
0.149738 18.6029 -1.14176e-11
-6.16647e-12 -1.14176e-11 19.7708

16.4935 1.16662 -2.41848e-11
1.16662 18.473 -3.28575e-11
-2.41848e-11 -3.28575e-11 16.8664

17.1281 0.918008 -1.11772e-11
0.918008 16.1397 2.69782e-12
-1.11772e-11 2.69782e-12 15.5344

19.2395 -1.32694 5.1355e-11
-1.32694 20.1684 -3.56587e-12
5.1355e-11 -3.56587e-12 19.5128

19.2334 1.31664 -3.17946e-12
1.31664 20.1663 7.53467e-11
-3.17946e-12 7.53467e-11 19.5171

22.1112 -0.240031 -4.18162e-11
-0.240031 20.82 -1.39785e-10
-4.18162e-11 -1.39785e-10 21.2489

22.15 0.24276 -8.47881e-12
0.24276 21.0148 1.46151e-10
-8.47881e-12 1.46151e-10 21.3186

17.1513 -1.70937 -7.5153e-12
-1.70937 19.2816 -1.54164e-11
-7.5153e-12 -1.54164e-11 18.1666

17.8462 0.730967 3.37212e-12
0.730967 16.3835 -3.03509e-11
3.37212e-12 -3.03509e-11 16.5554

21.0723 0.504137 2.22568e-11
0.504137 20.4398 -3.44442e-11
2.22568e-11 -3.44442e-11 20.6952

21.0853 -0.506755 5.49194e-12
-0.506755 20.4398 1.9221e-11
5.49194e-12 1.9221e-11 20.6916

17.5953 -1.32758 2.5678e-11
-1.32758 19.2049 -2.27398e-11
2.5678e-11 -2.27398e-11 18.2188

17.2349 -1.82494 -2.2638e-12
-1.82494 19.2705 -1.39712e-11
-2.2638e-12 -1.39712e-11 18.3322

5.12381 -2.97595 1.42866e-11
-2.97595 5.28117 4.40877e-12
1.42866e-11 4.40877e-12 2.95508

18.5595 1.24371 6.84116e-12
1.24371 20.3086 2.43771e-11
6.84116e-12 2.43771e-11 19.504

18.5512 -1.26255 1.83066e-11
-1.26255 20.3276 -9.82844e-12
1.83066e-11 -9.82844e-12 19.5125

16.7324 -1.58087 1.72476e-11
-1.58087 18.8359 -3.22793e-11
1.72476e-11 -3.22793e-11 17.8427

17.3255 -0.990515 -2.62086e-11
-0.990515 16.2396 -7.51525e-12
-2.62086e-11 -7.51525e-12 15.6836

18.3904 -0.789349 2.9873e-12
-0.789349 18.4448 1.85959e-11
2.9873e-12 1.85959e-11 18.1745

18.5626 1.07582 -1.92772e-13
1.07582 19.4479 -1.23328e-11
-1.92772e-13 -1.23328e-11 19.0561

18.5525 -1.11663 4.28757e-11
-1.11663 19.4958 1.31031e-11
4.28757e-11 1.31031e-11 19.0751

19.2463 -0.159561 1.46457e-11
-0.159561 16.1465 2.63519e-11
1.46457e-11 2.63519e-11 17.8078

22.3066 0.391912 -2.08113e-11
0.391912 21.2379 4.08512e-11
-2.08113e-11 4.08512e-11 21.8741

22.3308 -0.388058 -3.08315e-11
-0.388058 21.2401 7.13007e-12
-3.08315e-11 7.13007e-12 21.8795

21.2464 0.175035 -5.50338e-11
0.175035 23.1724 -2.891e-12
-5.50338e-11 -2.891e-12 21.4578

21.2741 0.116909 -1.82723e-11
0.116909 23.1776 9.80839e-11
-1.82723e-11 9.80839e-11 21.4703

8.08387 0.124934 9.43177e-12
0.124934 12.4715 4.43231e-12
9.43177e-12 4.43231e-12 6.55522

11.8924 0.111081 -1.23091e-11
0.111081 8.11256 5.63002e-11
-1.23091e-11 5.63002e-11 6.44413

18.4074 -1.70604 -2.22563e-11
-1.70604 20.2347 -4.72127e-11
-2.22563e-11 -4.72127e-11 19.1385

18.4097 1.70121 8.96024e-12
1.70121 20.2261 -3.46827e-12
8.96024e-12 -3.46827e-12 19.1425

17.5809 -1.94423 -2.26443e-12
-1.94423 19.8294 9.92439e-12
-2.26443e-12 9.92439e-12 18.6713

6.94701 -1.39874 -8.93863e-12
-1.39874 10.1772 -1.85506e-11
-8.93863e-12 -1.85506e-11 5.57982

9.92307 -1.33726 -3.75788e-12
-1.33726 7.2956 2.65047e-13
-3.75788e-12 2.65047e-13 5.64002

22.3143 -1.78605 7.88083e-11
-1.78605 23.7122 1.30358e-10
7.88083e-11 1.30358e-10 22.8357

22.3126 1.78573 5.31804e-11
1.78573 23.7127 -5.52074e-11
5.31804e-11 -5.52074e-11 22.8371

17.3418 -1.17825 2.92908e-11
-1.17825 17.9647 1.47414e-11
2.92908e-11 1.47414e-11 17.6894

16.6288 -1.63691 -1.01173e-11
-1.63691 17.769 -1.54168e-11
-1.01173e-11 -1.54168e-11 16.5756

18.2228 -1.7233 -3.64201e-11
-1.7233 19.5275 -9.92331e-12
-3.64201e-11 -9.92331e-12 18.791

18.2192 1.71659 1.9078e-11
1.71659 19.52 3.26641e-11
1.9078e-11 3.26641e-11 18.7931

17.0222 -1.84943 -3.4879e-11
-1.84943 18.6334 -1.6283e-11
-3.4879e-11 -1.6283e-11 17.4768

16.6246 1.6374 -7.36145e-11
1.6374 17.7152 -2.74629e-11
-7.36145e-11 -2.74629e-11 16.558

11.0903 -0.530544 -2.84866e-11
-0.530544 14.1486 3.48842e-11
-2.84866e-11 3.48842e-11 10.3881

10.9294 0.642507 1.89707e-11
0.642507 13.9322 2.26452e-11
1.89707e-11 2.26452e-11 10.3354

13.906 -0.404089 1.37808e-11
-0.404089 11.7238 1.39958e-11
1.37808e-11 1.39958e-11 10.5224

17.0172 1.83985 -1.49339e-11
1.83985 18.6043 9.05677e-12
-1.49339e-11 9.05677e-12 17.4579

8.7516 -0.33019 8.19539e-13
-0.33019 12.5937 -1.38284e-11
8.19539e-13 -1.38284e-11 8.60936

12.2349 -0.319838 4.22556e-11
-0.319838 8.8291 6.58561e-11
4.22556e-11 6.58561e-11 8.49814

19.1433 -1.68472 2.90972e-11
-1.68472 20.4783 -2.62085e-11
2.90972e-11 -2.62085e-11 19.8005

19.1508 1.67507 -7.61119e-12
1.67507 20.4742 5.68446e-12
-7.61119e-12 5.68446e-12 19.8076

19.4048 -1.46517 6.48422e-11
-1.46517 20.8311 2.41822e-11
6.48422e-11 2.41822e-11 20.0883

19.4064 1.4594 -7.61141e-12
1.4594 20.8221 1.73432e-11
-7.61141e-12 1.73432e-11 20.0915

6.61532 -1.40636 -2.15005e-11
-1.40636 9.77369 -3.63303e-11
-2.15005e-11 -3.63303e-11 5.17183

9.49526 -1.30121 -5.44725e-11
-1.30121 6.70391 3.28373e-11
-5.44725e-11 3.28373e-11 5.11746

17.9352 1.55348 -2.68815e-11
1.55348 19.0905 3.18924e-11
-2.68815e-11 3.18924e-11 18.1531

17.942 -1.56603 -2.07152e-11
-1.56603 19.1119 -5.8773e-12
-2.07152e-11 -5.8773e-12 18.1542

20.5708 -0.252112 -7.38838e-11
-0.252112 21.1701 4.18155e-11
-7.38838e-11 4.18155e-11 20.6832

20.6039 -0.3338 -6.48098e-11
-0.3338 21.2314 7.13011e-12
-6.48098e-11 7.13011e-12 20.7186

19.1499 -1.69251 7.41934e-12
-1.69251 21.2368 -2.39915e-11
7.41934e-12 -2.39915e-11 20.184

19.1461 1.70033 7.99727e-12
1.70033 21.2241 1.55125e-11
7.99727e-12 1.55125e-11 20.1862

21.5342 -0.661186 -5.54008e-11
-0.661186 20.7981 4.03225e-11
-5.54008e-11 4.03225e-11 21.3548

21.523 0.661362 -5.10619e-12
0.661362 20.8014 1.87828e-12
-5.10619e-12 1.87828e-12 21.3558

17.7495 1.40084 3.55534e-11
1.40084 19.1344 -5.78056e-12
3.55534e-11 -5.78056e-12 18.4172

17.7488 -1.39513 -3.3721e-12
-1.39513 19.1992 -1.9945e-11
-3.3721e-12 -1.9945e-11 18.4435

20.4431 -0.524396 2.13657e-11
-0.524396 22.5097 5.45337e-11
2.13657e-11 5.45337e-11 21.0279

22.8941 -0.955816 1.92697e-11
-0.955816 22.4018 4.14271e-12
1.92697e-11 4.14271e-12 22.5809

22.7958 -0.980124 1.62827e-10
-0.980124 22.4074 3.71865e-11
1.62827e-10 3.71865e-11 22.5649

22.8787 0.961146 1.94624e-11
0.961146 22.3995 4.18151e-11
1.94624e-11 4.18151e-11 22.5769

22.7915 0.982494 6.05063e-11
0.982494 22.4062 -5.45311e-11
6.05063e-11 -5.45311e-11 22.5652

20.3337 -0.407005 2.10046e-11
-0.407005 22.4685 -5.66541e-11
2.10046e-11 -5.66541e-11 20.9562

21.2355 -1.07397 1.13688e-11
-1.07397 21.1952 -8.86472e-12
1.13688e-11 -8.86472e-12 20.875

21.1895 1.11092 9.44271e-12
1.11092 21.2134 3.60348e-11
9.44271e-12 3.60348e-11 20.8848

22.0662 -1.39169 3.68827e-10
-1.39169 22.8389 -5.18072e-10
3.68827e-10 -5.18072e-10 22.0607

26.4007 -1.04211 1.39512e-10
-1.04211 22.6976 3.91113e-11
1.39512e-10 3.91113e-11 23.2654

26.4008 1.04134 8.13165e-11
1.04134 22.7011 6.85995e-11
8.13165e-11 6.85995e-11 23.2683

22.0628 1.39239 -3.87856e-13
1.39239 22.837 3.27984e-12
-3.87856e-13 3.27984e-12 22.0624

22.3041 -1.47694 -9.0374e-11
-1.47694 22.25 -9.92223e-12
-9.0374e-11 -9.92223e-12 21.8642

20.7392 -1.18941 -3.17894e-12
-1.18941 21.9235 -2.46656e-11
-3.17894e-12 -2.46656e-11 21.1184

22.6528 -1.1346 -4.29745e-11
-1.1346 22.6457 1.29203e-10
-4.29745e-11 1.29203e-10 22.3776

22.3018 1.47767 -2.56284e-11
1.47767 22.2435 -1.16582e-11
-2.56284e-11 -1.16582e-11 21.8654

22.6517 1.13558 -4.04647e-11
1.13558 22.6468 7.97745e-11
-4.04647e-11 7.97745e-11 22.38

20.7385 1.1891 9.15329e-12
1.1891 21.9148 5.7809e-12
9.15329e-12 5.7809e-12 21.1198

20.7964 -1.226 -1.43559e-11
-1.226 21.9616 -3.2951e-11
-1.43559e-11 -3.2951e-11 21.3303

22.0496 -0.997831 -1.38738e-11
-0.997831 22.4261 -3.94054e-11
-1.38738e-11 -3.94054e-11 22.0419

20.7961 1.22516 1.3585e-11
1.22516 21.9551 5.20322e-12
1.3585e-11 5.20322e-12 21.3319

22.044 0.996406 6.53236e-11
0.996406 22.4191 -8.18896e-12
6.53236e-11 -8.18896e-12 22.0418

17.7613 0.804797 -1.59941e-11
0.804797 18.764 3.23745e-11
-1.59941e-11 3.23745e-11 18.155

16.732 -0.23204 4.10457e-11
-0.23204 19.1906 1.54203e-12
4.10457e-11 1.54203e-12 18.0888

17.2476 -0.258335 -1.81148e-11
-0.258335 14.8945 -1.32965e-11
-1.81148e-11 -1.32965e-11 16.3036

16.577 0.00838648 -1.0599e-11
0.00838648 14.3383 9.64118e-13
-1.0599e-11 9.64118e-13 15.3744

18.0081 0.807851 8.0928e-12
0.807851 19.1951 -2.23537e-11
8.0928e-12 -2.23537e-11 18.97

17.1536 -0.351376 3.58418e-11
-0.351376 20.4756 -1.00209e-11
3.58418e-11 -1.00209e-11 19.0731

16.5975 0.452973 -8.47955e-12
0.452973 14.3685 7.9e-12
-8.47955e-12 7.9e-12 15.439

18.8392 0.577058 4.33676e-12
0.577058 16.5316 2.11976e-11
4.33676e-12 2.11976e-11 18.2423

11.8455 1.14763 7.71587e-13
1.14763 13.4626 2.31264e-11
7.71587e-13 2.31264e-11 12.3892

11.9238 1.11153 1.11778e-11
1.11153 13.4873 1.92679e-12
1.11778e-11 1.92679e-12 12.2696

13.2063 0.999789 2.00419e-11
0.999789 11.7451 -2.65951e-11
2.00419e-11 -2.65951e-11 12.0823

19.1124 0.505967 5.60742e-11
0.505967 20.4369 -3.39161e-11
5.60742e-11 -3.39161e-11 19.6525

19.2613 -0.977756 -1.9848e-11
-0.977756 19.8083 -3.27512e-12
-1.9848e-11 -3.27512e-12 19.5494

16.5897 -1.24147 -2.08124e-11
-1.24147 16.9384 -2.88963e-12
-2.08124e-11 -2.88963e-12 16.6567

17.1002 0.421881 -4.04746e-12
0.421881 20.4847 -3.27605e-11
-4.04746e-12 -3.27605e-11 19.0152

17.9133 -0.467903 -5.01122e-12
-0.467903 19.0556 -9.82819e-12
-5.01122e-12 -9.82819e-12 18.8845

17.8752 0.319062 -5.01079e-12
0.319062 15.1033 -5.78006e-12
-5.01079e-12 -5.78006e-12 16.523

12.8366 0.529182 2.50623e-12
0.529182 15.0757 -1.07922e-11
2.50623e-12 -1.07922e-11 13.49

13.159 0.402506 6.84158e-12
0.402506 14.8882 -1.05992e-11
6.84158e-12 -1.05992e-11 13.4477

14.7931 0.308429 1.44543e-11
0.308429 12.8831 -1.58045e-11
1.44543e-11 -1.58045e-11 13.2243

15.0573 1.23764 -7.22601e-12
1.23764 16.4676 -9.25053e-12
-7.22601e-12 -9.25053e-12 15.3965

14.6165 -0.74211 1.29122e-11
-0.74211 16.4549 2.04276e-11
1.29122e-11 2.04276e-11 15.4345

17.4086 0.713933 6.93649e-12
0.713933 14.9021 -1.04066e-11
6.93649e-12 -1.04066e-11 16.4439

11.2116 0.838959 -2.83313e-11
0.838959 12.4277 -6.01285e-11
-2.83313e-11 -6.01285e-11 11.2587

18.6689 -0.319839 1.19475e-11
-0.319839 15.7659 6.36077e-12
1.19475e-11 6.36077e-12 17.8218

19.7879 0.216144 -5.58824e-12
0.216144 20.0441 -1.65721e-11
-5.58824e-12 -1.65721e-11 19.772

19.2608 -0.0573526 3.85598e-13
-0.0573526 21.0477 -8.47916e-12
3.85598e-13 -8.47916e-12 19.8456

24.0764 1.2544 -3.8459e-13
1.2544 21.8972 6.93664e-12
-3.8459e-13 6.93664e-12 21.6017

23.8023 -0.562009 1.61867e-11
-0.562009 20.7396 2.63986e-11
1.61867e-11 2.63986e-11 21.4368

16.0529 -1.41918 -1.69579e-11
-1.41918 16.7161 -5.39546e-12
-1.69579e-11 -5.39546e-12 16.3641

14.7081 -1.19554 3.56508e-11
-1.19554 16.1524 3.84896e-13
3.56508e-11 3.84896e-13 15.1889

14.5264 -0.0139752 2.13924e-11
-0.0139752 12.3798 -1.25238e-11
2.13924e-11 -1.25238e-11 13.0653

20.8027 0.774855 3.0448e-11
0.774855 19.4093 -7.70745e-13
3.0448e-11 -7.70745e-13 19.8453

20.4833 -0.211182 2.3509e-11
-0.211182 19.0857 -3.08343e-12
2.3509e-11 -3.08343e-12 19.7168

18.7823 -0.125576 3.23755e-11
-0.125576 15.88 -3.0829e-12
3.23755e-11 -3.0829e-12 18.1766

14.4207 -0.906874 -4.75998e-11
-0.906874 15.895 -4.16248e-11
-4.75998e-11 -4.16248e-11 15.1775

18.4711 0.176572 1.33928e-11
0.176572 15.4174 -2.17753e-11
1.33928e-11 -2.17753e-11 17.7795

15.6211 -0.891352 1.54175e-11
-0.891352 14.654 -1.15691e-12
1.54175e-11 -1.15691e-12 14.7421

14.7406 1.31125 -1.44533e-11
1.31125 15.6231 -1.23331e-11
-1.44533e-11 -1.23331e-11 15.1492

15.732 0.973709 -7.51554e-12
0.973709 13.6662 1.9267e-12
-7.51554e-12 1.9267e-12 14.4483

15.4082 -0.562994 5.7739e-13
-0.562994 13.5171 2.15844e-11
5.7739e-13 2.15844e-11 14.2629

14.7911 1.10571 9.44287e-12
1.10571 16.3976 3.85532e-12
9.44287e-12 3.85532e-12 15.4006

15.9965 -0.822799 6.93751e-12
-0.822799 18.6083 -3.08335e-11
6.93751e-12 -3.08335e-11 17.8045

16.7445 1.47071 9.63646e-13
1.47071 18.5669 -5.78482e-13
9.63646e-13 -5.78482e-13 17.8314

15.0714 -1.03595 2.6594e-11
-1.03595 16.3749 -2.1969e-11
2.6594e-11 -2.1969e-11 15.4075

14.8114 1.35838 2.08126e-11
1.35838 16.2923 -2.62089e-11
2.08126e-11 -2.62089e-11 15.2345

8.74516 -1.14714 1.34927e-12
-1.14714 8.93588 3.73904e-11
1.34927e-12 3.73904e-11 8.90783

8.64526 1.31735 2.35108e-11
1.31735 9.12284 -3.93164e-11
2.35108e-11 -3.93164e-11 8.84317

16.9917 1.1291 -7.70863e-12
1.1291 19.5282 -5.39596e-12
-7.70863e-12 -5.39596e-12 18.7921

17.7218 -1.31981 3.00618e-11
-1.31981 19.2286 1.42598e-11
3.00618e-11 1.42598e-11 18.8263

15.408 1.24229 -2.22574e-11
1.24229 17.292 1.34896e-11
-2.22574e-11 1.34896e-11 16.3289

8.68269 0.423696 2.19705e-11
0.423696 8.73192 -1.31053e-11
2.19705e-11 -1.31053e-11 9.07526

8.69 -0.00716003 1.36831e-11
-0.00716003 9.11989 3.70037e-11
1.36831e-11 3.70037e-11 9.22134

19.4147 -0.946806 -1.72469e-11
-0.946806 19.8173 -2.85197e-11
-1.72469e-11 -2.85197e-11 19.8093

19.5943 0.460194 3.17479e-11
0.460194 20.2182 1.59947e-11
3.17479e-11 1.59947e-11 19.8843

18.9316 -0.0281664 -5.29982e-12
-0.0281664 15.6796 -2.96762e-11
-5.29982e-12 -2.96762e-11 17.3393

19.4446 -0.882805 1.75859e-11
-0.882805 19.861 2.92902e-11
1.75859e-11 2.92902e-11 19.8098

19.5044 0.314922 2.38465e-11
0.314922 19.6061 -6.1655e-12
2.38465e-11 -6.1655e-12 19.7415

14.9713 -0.781354 2.0427e-11
-0.781354 17.2818 1.61872e-11
2.0427e-11 1.61872e-11 16.3631

22.5494 1.18668 3.08278e-12
1.18668 21.2007 -1.88839e-11
3.08278e-12 -1.88839e-11 21.0193

22.6242 -0.978298 -3.46859e-11
-0.978298 20.1001 2.69757e-12
-3.46859e-11 2.69757e-12 20.9326

18.18 -0.946822 1.75354e-11
-0.946822 18.1283 1.30537e-11
1.75354e-11 1.30537e-11 18.4857

18.263 0.719139 1.585e-11
0.719139 18.3363 -1.23809e-11
1.585e-11 -1.23809e-11 18.4945

20.4121 0.0762177 9.63462e-12
0.0762177 23.0206 5.39527e-12
9.63462e-12 5.39527e-12 20.9387

20.2821 0.572111 -2.08117e-11
0.572111 21.5118 -1.61871e-11
-2.08117e-11 -1.61871e-11 20.6576

10.6531 0.391872 1.21408e-11
0.391872 11.9055 -3.14142e-11
1.21408e-11 -3.14142e-11 10.8879

11.8343 0.400606 2.98813e-12
0.400606 10.6918 1.81159e-11
2.98813e-12 1.81159e-11 10.8868

16.4023 1.18034 8.47941e-12
1.18034 18.2908 -1.07916e-11
8.47941e-12 -1.07916e-11 17.4774

15.6305 -0.719582 -9.24959e-12
-0.719582 18.4191 -5.47296e-11
-9.24959e-12 -5.47296e-11 17.4299

23.1093 -1.55394 2.55558e-10
-1.55394 24.8806 1.09446e-10
2.55558e-10 1.09446e-10 22.3342

23.2923 0.928263 -2.94407e-10
0.928263 21.7188 4.8145e-12
-2.94407e-10 4.8145e-12 21.7547

15.6028 1.25055 -2.21639e-11
1.25055 14.8618 9.25223e-12
-2.21639e-11 9.25223e-12 14.976

18.0995 0.478399 9.39597e-12
0.478399 16.457 7.28418e-11
9.39597e-12 7.28418e-11 17.5127

18 -0.629119 -1.46938e-11
-0.629119 16.3973 -3.27601e-11
-1.46938e-11 -3.27601e-11 17.4948

19.8414 -0.676784 -1.00206e-11
-0.676784 17.4215 7.12961e-12
-1.00206e-11 7.12961e-12 19.075

14.4828 0.286016 1.97539e-11
0.286016 12.3718 7.71008e-12
1.97539e-11 7.71008e-12 13.0913

24.7961 0.0887139 -1.0021e-11
0.0887139 21.5998 -6.16568e-12
-1.0021e-11 -6.16568e-12 21.9057

24.6493 -0.178158 -1.15546e-12
-0.178158 23.8297 3.85562e-13
-1.15546e-12 3.85562e-13 22.1919

16.2428 1.50131 2.0236e-11
1.50131 15.4759 4.50927e-11
2.0236e-11 4.50927e-11 15.9796

18.1025 0.39543 -3.2376e-11
0.39543 15.9887 1.50318e-11
-3.2376e-11 1.50318e-11 16.8429

13.4686 1.2218 3.46893e-11
1.2218 13.9297 1.44548e-11
3.46893e-11 1.44548e-11 13.1857

21.5533 -0.697405 -1.15634e-12
-0.697405 23.7516 8.09438e-12
-1.15634e-12 8.09438e-12 21.459

20.8314 0.436325 6.84074e-11
0.436325 21.5758 -1.3585e-11
6.84074e-11 -1.3585e-11 20.9656

20.2503 1.26238 4.23813e-12
1.26238 18.21 -2.89049e-11
4.23813e-12 -2.89049e-11 19.34

17.6962 -0.396652 1.16581e-11
-0.396652 18.6947 2.62082e-11
1.16581e-11 2.62082e-11 18.1058

16.6784 0.279833 -1.65721e-11
0.279833 19.2235 4.39365e-11
-1.65721e-11 4.39365e-11 18.0501

19.1978 -0.19332 1.64527e-11
-0.19332 16.1098 6.16604e-12
1.64527e-11 6.16604e-12 17.9586

19.381 0.140878 -1.03615e-12
0.140878 16.0645 -2.31286e-12
-1.03615e-12 -2.31286e-12 17.9952

13.8742 -0.804443 7.90212e-12
-0.804443 13.3699 8.48055e-12
7.90212e-12 8.48055e-12 13.0515

17.1638 0.040537 1.68624e-12
0.040537 14.5312 -9.63555e-12
1.68624e-12 -9.63555e-12 15.5447

19.6855 0.159203 -1.48372e-11
0.159203 17.4122 5.04876e-11
-1.48372e-11 5.04876e-11 18.841

19.4181 -0.3454 -3.62289e-11
-0.3454 17.6153 1.3489e-11
-3.62289e-11 1.3489e-11 18.843

17.9616 -0.470944 1.4457e-12
-0.470944 15.7935 -1.50309e-11
1.4457e-12 -1.50309e-11 16.7942

19.3836 -0.221249 2.21508e-12
-0.221249 16.9384 -3.16038e-11
2.21508e-12 -3.16038e-11 18.2568

19.6191 0.0933902 -4.11878e-12
0.0933902 16.9902 3.60359e-11
-4.11878e-12 3.60359e-11 18.3147

17.8502 0.994706 1.6574e-11
0.994706 15.8704 4.70198e-11
1.6574e-11 4.70198e-11 16.9879

14.1951 -1.31917 3.91211e-11
-1.31917 14.0546 -1.2717e-11
3.91211e-11 -1.2717e-11 13.8351

17.0755 1.72046 2.09073e-11
1.72046 18.7593 -2.7942e-11
2.09073e-11 -2.7942e-11 18.1271

16.6362 -1.46364 -2.37996e-11
-1.46364 17.9858 -3.84331e-13
-2.37996e-11 -3.84331e-13 18.0216

16.497 -1.0927 -1.35857e-11
-1.0927 18.1298 -1.65728e-11
-1.35857e-11 -1.65728e-11 18.1536

17.309 1.81736 -2.25459e-11
1.81736 19.1969 1.61869e-11
-2.25459e-11 1.61869e-11 18.3873

15.9098 0.629275 2.98735e-12
0.629275 13.5491 6.3593e-12
2.98735e-12 6.3593e-12 14.4474

12.4521 -0.752928 -1.71534e-11
-0.752928 11.5717 -3.46773e-12
-1.71534e-11 -3.46773e-12 11.5284

18.2116 1.43461 -2.37042e-11
1.43461 16.7121 -3.46871e-11
-2.37042e-11 -3.46871e-11 17.719

17.6023 -0.479895 1.15639e-11
-0.479895 15.7438 1.52226e-11
1.15639e-11 1.52226e-11 16.7333

12.6789 -0.58549 -7.70795e-12
-0.58549 11.4816 -1.86929e-11
-7.70795e-12 -1.86929e-11 11.6161

16.1124 -1.16486 -9.2516e-12
-1.16486 15.4113 1.02133e-11
-9.2516e-12 1.02133e-11 15.8274

15.3622 0.00777837 9.63484e-12
0.00777837 18.7718 2.1198e-11
9.63484e-12 2.1198e-11 17.3394

16.0971 0.180633 4.2398e-12
0.180633 17.8219 1.88857e-11
4.2398e-12 1.88857e-11 17.2474

14.3712 1.49268 4.81672e-12
1.49268 14.4203 -5.00894e-12
4.81672e-12 -5.00894e-12 14.2285

13.4771 -0.865215 -1.63961e-12
-0.865215 12.0053 4.39395e-11
-1.63961e-12 4.39395e-11 12.3932

17.3359 1.59234 5.20289e-12
1.59234 17.822 1.19476e-11
5.20289e-12 1.19476e-11 18.1273

17.2753 -1.52642 3.75776e-11
-1.52642 18.3251 -1.93484e-13
3.75776e-11 -1.93484e-13 18.0679

14.1588 -1.12553 -6.64852e-12
-1.12553 15.0876 5.39487e-12
-6.64852e-12 5.39487e-12 14.3163

14.3145 -1.24191 4.37456e-11
-1.24191 14.9713 -9.63748e-13
4.37456e-11 -9.63748e-13 14.2214

17.697 1.15886 -1.92601e-12
1.15886 16.0016 4.89478e-11
-1.92601e-12 4.89478e-11 16.8722

19.8622 0.71449 -1.34902e-11
0.71449 16.243 -1.6572e-11
-1.34902e-11 -1.6572e-11 18.8199

19.8196 -0.487203 -1.2333e-11
-0.487203 15.8469 1.69576e-11
-1.2333e-11 1.69576e-11 18.7448

14.0092 0.921074 2.54378e-11
0.921074 15.9875 1.05986e-11
2.54378e-11 1.05986e-11 14.6568

16.4655 1.41669 3.04473e-11
1.41669 16.1923 3.08416e-12
3.04473e-11 3.08416e-12 16.2958

11.6317 0.133215 4.04864e-12
0.133215 14.48 -5.78126e-12
4.04864e-12 -5.78126e-12 12.7967

11.9521 0.0733876 -1.61885e-11
0.0733876 14.3681 -4.04739e-12
-1.61885e-11 -4.04739e-12 12.7727

14.341 0.060092 -7.12811e-12
0.060092 11.6668 1.65726e-11
-7.12811e-12 1.65726e-11 12.6106

14.6708 -1.06394 1.78274e-11
-1.06394 13.9261 6.16403e-12
1.78274e-11 6.16403e-12 14.1632

21.2846 -0.734313 -9.07596e-11
-0.734313 22.6408 1.60926e-11
-9.07596e-11 1.60926e-11 21.4556

25.212 0.377799 -7.41868e-11
0.377799 25.2231 -1.65725e-11
-7.41868e-11 -1.65725e-11 22.6435

15.2361 1.27733 -2.54376e-11
1.27733 13.5977 2.96785e-11
-2.54376e-11 2.96785e-11 14.2073

16.0303 -0.531953 6.84153e-12
-0.531953 13.62 -2.27394e-11
6.84153e-12 -2.27394e-11 14.5941

12.6961 0.896689 1.38776e-11
0.896689 11.3692 -3.66162e-11
1.38776e-11 -3.66162e-11 11.6978

15.6328 -0.931202 1.7151e-11
-0.931202 17.5333 1.58012e-11
1.7151e-11 1.58012e-11 17.0643

16.3924 1.68829 -1.87874e-11
1.68829 18.1073 3.87343e-11
-1.87874e-11 3.87343e-11 17.2056

18.9241 -0.0249657 7.17892e-12
-0.0249657 15.6587 5.01033e-12
7.17892e-12 5.01033e-12 17.3236

13.4508 0.848648 1.98508e-11
0.848648 15.8838 5.39683e-12
1.98508e-11 5.39683e-12 14.5974

16.5918 -1.12974 -1.63794e-11
-1.12974 19.521 -1.23331e-11
-1.63794e-11 -1.23331e-11 18.7704

17.7003 1.58608 5.10669e-12
1.58608 19.5079 3.08351e-12
5.10669e-12 3.08351e-12 18.8933

13.3053 0.993239 1.33941e-11
0.993239 13.9029 1.58032e-11
1.33941e-11 1.58032e-11 13.0186

13.6951 1.04704 -2.98839e-12
1.04704 13.5124 1.32971e-11
-2.98839e-12 1.32971e-11 12.9261

12.8017 0.804858 -5.01052e-11
0.804858 11.471 3.93175e-11
-5.01052e-11 3.93175e-11 11.775

17.2505 1.74385 4.96127e-12
1.74385 19.4374 -1.40678e-11
4.96127e-12 -1.40678e-11 18.4683

16.4971 -1.25975 -2.74609e-11
-1.25975 17.7687 -1.15543e-12
-2.74609e-11 -1.15543e-12 18.1419

19.9989 0.0502669 -2.48117e-11
0.0502669 16.1604 -3.89253e-11
-2.48117e-11 -3.89253e-11 18.3783

17.0375 1.19041 1.11776e-11
1.19041 17.8499 2.85208e-11
1.11776e-11 2.85208e-11 18.2518

17.3709 -1.48523 1.44524e-11
-1.48523 19.0896 1.79214e-11
1.44524e-11 1.79214e-11 18.4462

16.5825 1.44 -5.01057e-12
1.44 16.8584 -2.62087e-11
-5.01057e-12 -2.62087e-11 17.0196

12.949 -0.311574 7.90252e-12
-0.311574 15.2027 1.50318e-11
7.90252e-12 1.50318e-11 13.6678

13.3529 -0.413689 -2.42814e-11
-0.413689 15.1497 -2.44762e-11
-2.42814e-11 -2.44762e-11 13.6774

14.8963 -0.253887 -4.43164e-12
-0.253887 13.0283 -8.47997e-12
-4.43164e-12 -8.47997e-12 13.4556

14.9601 -0.878718 1.33939e-11
-0.878718 14.9441 5.47296e-11
1.33939e-11 5.47296e-11 14.7319

15.7833 0.152943 1.19482e-11
0.152943 17.2991 -8.86446e-12
1.19482e-11 -8.86446e-12 16.181

14.8878 0.050639 8.67235e-12
0.050639 17.5827 5.1262e-11
8.67235e-12 5.1262e-11 16.1193

12.4396 -0.9843 -9.25203e-12
-0.9843 13.4305 3.25698e-11
-9.25203e-12 3.25698e-11 12.4278

12.3463 -0.936033 -1.99461e-11
-0.936033 13.1517 2.38971e-11
-1.99461e-11 2.38971e-11 12.3855

20.1571 -0.0564126 -1.32971e-11
-0.0564126 16.3782 -5.58838e-12
-1.32971e-11 -5.58838e-12 18.4719

19.9855 0.0622903 2.60156e-11
0.0622903 16.4461 1.15595e-12
2.60156e-11 1.15595e-12 18.4444

16.2108 -1.16359 4.43199e-12
-1.16359 17.3414 -2.35106e-11
4.43199e-12 -2.35106e-11 17.2931

16.5841 1.52939 4.37438e-11
1.52939 18.3365 -1.3484e-12
4.37438e-11 -1.3484e-12 17.4362

16.5841 0.986899 1.29116e-11
0.986899 19.3518 3.12183e-11
1.29116e-11 3.12183e-11 18.7012

17.6544 -1.45119 1.9463e-11
-1.45119 19.3364 9.24956e-12
1.9463e-11 9.24956e-12 18.8296

17.3825 -1.16051 -1.02137e-11
-1.16051 17.1993 1.48392e-11
-1.02137e-11 1.48392e-11 17.5693

13.5235 -0.608774 -8.67094e-12
-0.608774 16.0739 6.1667e-12
-8.67094e-12 6.1667e-12 14.6869

19.3211 0.180504 2.05713e-11
0.180504 18.7109 -2.68816e-11
2.05713e-11 -2.68816e-11 19.1528

19.0591 -0.579629 8.5027e-12
-0.579629 18.4483 1.54246e-12
8.5027e-12 1.54246e-12 19.0803

16.7109 -0.89498 2.37037e-11
-0.89498 16.0281 -1.54262e-12
2.37037e-11 -1.54262e-12 16.3513

18.186 -0.759712 2.79406e-12
-0.759712 17.1766 2.00413e-11
2.79406e-12 2.00413e-11 17.8098

18.3719 0.63883 -4.83317e-14
0.63883 17.643 -2.69766e-12
-4.83317e-14 -2.69766e-12 17.8918

8.21991 -0.350442 1.34901e-11
-0.350442 6.96286 -1.15685e-12
1.34901e-11 -1.15685e-12 8.69108

14.3941 1.50933 2.4668e-11
1.50933 14.9915 -1.13698e-11
2.4668e-11 -1.13698e-11 14.2811

7.45365 0.722836 2.56323e-11
0.722836 8.42475 -2.81399e-11
2.56323e-11 -2.81399e-11 8.79498

14.0193 -0.812891 -5.22252e-11
-0.812891 15.965 -1.38762e-11
-5.22252e-11 -1.38762e-11 14.6966

20.7666 -0.797323 5.64254e-11
-0.797323 21.6754 1.00589e-10
5.64254e-11 1.00589e-10 20.9103

21.2578 0.318357 1.91861e-11
0.318357 20.9142 1.96544e-11
1.91861e-11 1.96544e-11 20.8464

16.8434 0.981253 -1.52235e-11
0.981253 16.4408 2.35112e-11
-1.52235e-11 2.35112e-11 16.3927

17.145 -0.0536937 9.10764e-12
-0.0536937 14.4413 4.2392e-12
9.10764e-12 4.2392e-12 15.5362

14.845 1.22378 -9.72555e-14
1.22378 13.9062 -2.06208e-11
-9.72555e-14 -2.06208e-11 14.0743

15.7538 0.593614 -1.9463e-11
0.593614 18.7343 1.54165e-11
-1.9463e-11 1.54165e-11 17.5118

16.4179 -0.820634 -2.17761e-11
-0.820634 18.0525 2.04283e-11
-2.17761e-11 2.04283e-11 17.4436

19.2515 1.36117 -1.638e-11
1.36117 19.992 -1.77293e-11
-1.638e-11 -1.77293e-11 19.6151

19.1937 -0.753219 1.29105e-11
-0.753219 20.2721 4.80828e-13
1.29105e-11 4.80828e-13 19.6791

17.0949 1.85195 1.63758e-12
1.85195 19.1544 -1.04061e-11
1.63758e-12 -1.04061e-11 18.3433

15.6403 -1.75496 -2.00414e-11
-1.75496 18.0816 -1.58016e-11
-2.00414e-11 -1.58016e-11 18.0134

15.106 0.958776 1.02133e-11
0.958776 17.2166 -2.38965e-11
1.02133e-11 -2.38965e-11 16.3681

14.6726 0.486063 3.55551e-11
0.486063 16.7899 1.38746e-11
3.55551e-11 1.38746e-11 15.5999

16.8493 -1.0754 -1.87895e-11
-1.0754 16.6756 3.43029e-11
-1.87895e-11 3.43029e-11 17.075

16.936 1.13667 -6.00279e-11
1.13667 17.0487 1.15661e-12
-6.00279e-11 1.15661e-12 17.0995

15.2702 1.15903 -2.04271e-11
1.15903 15.3606 3.6615e-11
-2.04271e-11 3.6615e-11 14.8282

15.4441 -1.13913 9.8275e-12
-1.13913 17.2247 1.17555e-11
9.8275e-12 1.17555e-11 16.3699

14.2147 -0.201815 3.05446e-11
-0.201815 17.1873 3.19905e-11
3.05446e-11 3.19905e-11 15.6799

10.1557 0.818538 4.70241e-11
0.818538 10.7246 -2.11997e-11
4.70241e-11 -2.11997e-11 10.0831

10.6392 0.847124 4.24001e-11
0.847124 10.1999 -8.86509e-12
4.24001e-11 -8.86509e-12 10.0832

13.0826 -0.983469 -1.29119e-11
-0.983469 13.4103 1.90794e-11
-1.29119e-11 1.90794e-11 12.7155

17.7708 -0.368725 -2.55834e-11
-0.368725 15.0801 1.65734e-11
-2.55834e-11 1.65734e-11 16.5007

22.6301 -1.2367 9.62137e-11
-1.2367 23.3324 -2.8133e-11
9.62137e-11 -2.8133e-11 21.8895

23.6738 1.28607 -1.59759e-10
1.28607 21.7924 3.56461e-11
-1.59759e-10 3.56461e-11 21.7956

21.2296 1.25615 4.58626e-11
1.25615 21.253 5.27992e-11
4.58626e-11 5.27992e-11 20.6656

20.5862 -0.328618 -4.23976e-12
-0.328618 19.8978 2.11975e-11
-4.23976e-12 2.11975e-11 20.3515

17.8651 -0.0135851 2.83276e-11
-0.0135851 15.3801 -4.23864e-12
2.83276e-11 -4.23864e-12 17.063

17.1125 -1.64591 9.24938e-12
-1.64591 18.8986 2.56297e-11
9.24938e-12 2.56297e-11 18.2996

15.9581 1.71885 3.27656e-12
1.71885 18.0448 1.92705e-11
3.27656e-12 1.92705e-11 18.0327

10.6509 -0.798984 -2.79444e-11
-0.798984 11.0328 5.01184e-12
-2.79444e-11 5.01184e-12 10.4995

10.7439 1.03002 -2.23554e-11
1.03002 10.7624 -5.78134e-12
-2.23554e-11 -5.78134e-12 10.5388

10.6971 -0.371944 -3.27605e-12
-0.371944 12.3649 -3.39178e-11
-3.27605e-12 -3.39178e-11 11.2173

11.2041 -0.458308 -2.96793e-11
-0.458308 12.5885 2.58241e-11
-2.96793e-11 2.58241e-11 11.4092

12.4746 -0.320169 3.08348e-11
-0.320169 10.8016 -1.05038e-11
3.08348e-11 -1.05038e-11 11.2165

13.2744 1.21212 2.64023e-11
1.21212 13.0418 1.00199e-11
2.64023e-11 1.00199e-11 12.8198

9.69549 0.361088 9.24931e-12
0.361088 11.7412 -4.62551e-11
9.24931e-12 -4.62551e-11 10.5227

11.6241 0.0794856 -2.38964e-11
0.0794856 9.76717 -2.02341e-11
-2.38964e-11 -2.02341e-11 10.5113

20.0777 -0.144877 2.21599e-11
-0.144877 22.0182 9.63481e-12
2.21599e-11 9.63481e-12 20.5313

19.9676 -0.529015 -7.70727e-12
-0.529015 20.6554 5.66549e-11
-7.70727e-12 5.66549e-11 20.2739

18.8502 -0.409274 2.56285e-11
-0.409274 17.1071 1.25254e-11
2.56285e-11 1.25254e-11 18.1652

18.9055 0.182011 -2.69765e-12
0.182011 14.7706 -4.81718e-12
-2.69765e-12 -4.81718e-12 17.9943

12.7074 -0.800177 -7.32346e-12
-0.800177 14.3528 8.67269e-12
-7.32346e-12 8.67269e-12 13.1549

12.6472 -0.575304 -2.63066e-11
-0.575304 14.3694 -6.35969e-11
-2.63066e-11 -6.35969e-11 13.2463

18.114 0.383934 8.28719e-12
0.383934 15.556 -2.87133e-11
8.28719e-12 -2.87133e-11 17.2

20.2577 -0.380248 1.93192e-11
-0.380248 20.4998 4.35488e-11
1.93192e-11 4.35488e-11 20.3349

20.7611 -0.00769819 -2.66896e-11
-0.00769819 20.1226 -1.61872e-11
-2.66896e-11 -1.61872e-11 20.3433

18.0769 -0.808941 7.70822e-12
-0.808941 17.7686 3.43021e-11
7.70822e-12 3.43021e-11 18.0015

16.7822 1.34072 3.85358e-13
1.34072 17.3076 7.7075e-12
3.85358e-13 7.7075e-12 17.3781

16.5004 -1.41115 2.15831e-11
-1.41115 18.0135 1.52236e-11
2.15831e-11 1.52236e-11 17.3127

18.4694 -0.364367 2.92935e-11
-0.364367 15.7761 -1.59948e-11
2.92935e-11 -1.59948e-11 17.6035

15.9425 1.12544 1.69587e-11
1.12544 17.4796 -1.54119e-12
1.69587e-11 -1.54119e-12 17.1251

16.4352 -1.49577 2.44726e-11
-1.49577 17.8455 3.33389e-11
2.44726e-11 3.33389e-11 17.1905

8.34471 -1.67102 -7.51439e-12
-1.67102 8.46639 -5.85895e-11
-7.51439e-12 -5.85895e-11 8.54995

14.2245 0.357434 1.15623e-11
0.357434 17.1223 2.81359e-11
1.15623e-11 2.81359e-11 15.6223

14.8038 -0.325347 -4.22033e-11
-0.325347 16.6753 7.70421e-13
-4.22033e-11 7.70421e-13 15.6036

19.847 0.176414 1.40669e-11
0.176414 22.8586 5.78119e-12
1.40669e-11 5.78119e-12 20.7097

20.1003 -0.0202988 -2.11959e-12
-0.0202988 20.582 -3.2952e-11
-2.11959e-12 -3.2952e-11 20.3646

20.1522 -0.0692323 1.21886e-11
-0.0692323 17.1308 2.19677e-11
1.21886e-11 2.19677e-11 18.9803

20.4345 0.110017 -5.87743e-12
0.110017 16.9733 1.5994e-11
-5.87743e-12 1.5994e-11 19.006

19.2666 1.61125 -2.31269e-12
1.61125 18.4584 -1.31042e-11
-2.31269e-12 -1.31042e-11 19.0085

18.7274 -0.918256 4.54781e-11
-0.918256 18.0816 3.46911e-12
4.54781e-11 3.46911e-12 18.7739

21.4846 0.589092 7.93919e-11
0.589092 20.6461 4.0457e-12
7.93919e-11 4.0457e-12 20.4927

20.7049 -0.320909 -1.15622e-11
-0.320909 20.6181 3.08396e-12
-1.15622e-11 3.08396e-12 20.3905

22.1421 0.671937 8.47262e-11
0.671937 21.4856 -2.29306e-11
8.47262e-11 -2.29306e-11 21.3373

22.2924 -1.90491 -1.69353e-11
-1.90491 23.133 2.31234e-11
-1.69353e-11 2.31234e-11 21.6941

17.8833 1.67842 2.00896e-11
1.67842 19.612 1.98492e-11
2.00896e-11 1.98492e-11 18.9969

17.0123 -2.07531 -1.60917e-11
-2.07531 18.3993 -3.58425e-11
-1.60917e-11 -3.58425e-11 18.7116

16.6275 0.89474 5.29935e-12
0.89474 15.3577 2.13909e-11
5.29935e-12 2.13909e-11 15.9426

15.3226 0.712664 -9.44233e-12
0.712664 17.6334 -1.157e-12
-9.44233e-12 -1.157e-12 16.5759

15.6284 -1.16 7.13083e-12
-1.16 15.5926 -1.77297e-11
7.13083e-12 -1.77297e-11 15.6872

16.1464 -0.892874 -3.87336e-11
-0.892874 17.5661 -2.60164e-11
-3.87336e-11 -2.60164e-11 16.671

16.5303 -0.834285 3.51696e-11
-0.834285 15.2302 -1.27203e-11
3.51696e-11 -1.27203e-11 15.951

16.0968 0.99277 7.22511e-12
0.99277 17.6356 -4.91407e-11
7.22511e-12 -4.91407e-11 16.6415

15.8751 1.40868 3.95077e-12
1.40868 15.9474 1.04058e-11
3.95077e-12 1.04058e-11 15.7308

17.7869 1.86471 -5.20254e-12
1.86471 18.5968 -1.92792e-12
-5.20254e-12 -1.92792e-12 18.8599

18.0648 -1.38802 -3.71923e-11
-1.38802 19.2369 3.48801e-11
-3.71923e-11 3.48801e-11 18.9791

19.2782 0.849518 -2.31383e-12
0.849518 17.4835 -4.54772e-11
-2.31383e-12 -4.54772e-11 18.4623

25.145 0.629467 7.4767e-11
0.629467 24.787 -1.57282e-15
7.4767e-11 -1.57282e-15 22.5207

21.3311 0.601382 -8.53646e-11
0.601382 21.7694 -1.06178e-10
-8.53646e-11 -1.06178e-10 21.2755

17.6914 -0.858764 8.47787e-12
-0.858764 16.4518 -1.92692e-11
8.47787e-12 -1.92692e-11 17.4036

20.685 0.0569852 -2.31241e-11
0.0569852 18.3243 3.8529e-12
-2.31241e-11 3.8529e-12 19.7221

10.3123 -0.729123 7.90011e-12
-0.729123 10.8764 -1.54179e-11
7.90011e-12 -1.54179e-11 10.2618

10.8805 -0.600022 3.98937e-11
-0.600022 10.2698 3.47858e-11
3.98937e-11 3.47858e-11 10.2689

20.2132 0.0682079 2.00413e-11
0.0682079 17.8539 6.55126e-12
2.00413e-11 6.55126e-12 19.3199

20.6489 -0.101287 1.33933e-11
-0.101287 17.68 2.56287e-11
1.33933e-11 2.56287e-11 19.36

20.852 0.172339 -6.16741e-12
0.172339 19.3605 -1.54163e-11
-6.16741e-12 -1.54163e-11 19.9055

15.3213 -0.522517 1.46846e-12
-0.522517 17.7152 1.15667e-12
1.46846e-12 1.15667e-12 16.6098

16.2646 0.694094 1.54178e-11
0.694094 14.7516 1.6187e-11
1.54178e-11 1.6187e-11 15.0011

18.1713 -1.08445 1.01622e-11
-1.08445 18.2116 -1.42615e-11
1.01622e-11 -1.42615e-11 18.5714

18.3858 0.896529 1.55613e-11
0.896529 19.0518 5.97427e-12
1.55613e-11 5.97427e-12 18.7121

24.4006 0.107889 -3.43012e-11
0.107889 25.4764 1.24357e-11
-3.43012e-11 1.24357e-11 22.5186

23.2463 1.02474 3.27575e-11
1.02474 20.9448 -3.68668e-11
3.27575e-11 -3.68668e-11 21.5125

17.3247 -0.679632 -3.75793e-11
-0.679632 15.9559 -3.08277e-12
-3.75793e-11 -3.08277e-12 16.6229

20.0452 -0.0328151 9.3713e-12
-0.0328151 18.649 -3.46859e-11
9.3713e-12 -3.46859e-11 19.35

19.7745 -0.239303 -2.5125e-11
-0.239303 18.8567 -5.66531e-11
-2.5125e-11 -5.66531e-11 19.3589

17.5021 -1.23297 2.75562e-11
-1.23297 18.7068 9.0572e-12
2.75562e-11 9.0572e-12 18.1549

16.7657 0.637411 -3.14104e-11
0.637411 18.6834 3.35309e-11
-3.14104e-11 3.35309e-11 18.0779

16.5804 1.17918 1.77289e-11
1.17918 17.9461 1.11773e-11
1.77289e-11 1.11773e-11 18.095

17.1937 -1.67043 1.48385e-11
-1.67043 18.9191 -5.5884e-12
1.48385e-11 -5.5884e-12 18.2917

8.86636 2.13193 -1.46452e-11
2.13193 8.66876 5.04943e-11
-1.46452e-11 5.04943e-11 8.76668

18.6855 1.22386 3.00609e-11
1.22386 19.7906 1.88852e-11
3.00609e-11 1.88852e-11 19.4582

18.7166 -0.93788 -2.9676e-11
-0.93788 19.9182 1.86931e-11
-2.9676e-11 1.86931e-11 19.4819

16.2024 1.11755 -2.50475e-12
1.11755 18.1827 3.46904e-12
-2.50475e-12 3.46904e-12 17.7727

16.697 -1.41129 8.67162e-12
-1.41129 18.4098 6.55183e-12
8.67162e-12 6.55183e-12 17.8118

16.3543 -0.662952 -9.6367e-12
-0.662952 14.6237 7.70789e-12
-9.6367e-12 7.70789e-12 15.1267

18.4553 1.20738 -5.20307e-11
1.20738 17.7017 -4.62495e-11
-5.20307e-11 -4.62495e-11 18.164

19.5133 1.29466 -2.35103e-11
1.29466 18.5789 2.23522e-11
-2.35103e-11 2.23522e-11 19.1443

18.9127 -0.856606 2.37027e-11
-0.856606 18.8941 -5.41492e-11
2.37027e-11 -5.41492e-11 19.0538

18.8524 0.813014 7.90161e-12
0.813014 15.9638 2.11962e-11
7.90161e-12 2.11962e-11 17.8578

20.6336 0.159064 1.7511e-11
0.159064 19.704 -9.32668e-11
1.7511e-11 -9.32668e-11 20.1182

20.9747 -0.232923 -1.62951e-11
-0.232923 19.1831 1.02129e-11
-1.62951e-11 1.02129e-11 20.0672

21.2244 0.274719 -5.33761e-11
0.274719 22.9441 4.25865e-11
-5.33761e-11 4.25865e-11 21.3924

21.7575 -0.43407 -1.4066e-11
-0.43407 24.6719 -3.00591e-11
-1.4066e-11 -3.00591e-11 21.7407

8.79038 -0.200616 1.50337e-11
-0.200616 7.53007 -2.08147e-11
1.50337e-11 -2.08147e-11 8.86295

7.0636 -0.0422149 9.65376e-13
-0.0422149 8.75023 -1.15589e-12
9.65376e-13 -1.15589e-12 8.7872

17.6636 1.3968 -4.53323e-11
1.3968 19.3244 3.19895e-11
-4.53323e-11 3.19895e-11 18.5118

17.3399 -1.20229 -1.29602e-11
-1.20229 18.1135 8.86412e-12
-1.29602e-11 8.86412e-12 18.3171

8.46635 0.749516 -1.00213e-11
0.749516 8.39231 3.85501e-12
-1.00213e-11 3.85501e-12 8.90881

8.60735 0.969128 1.58045e-11
0.969128 8.21691 7.16929e-11
1.58045e-11 7.16929e-11 8.89725

19.7168 -1.538 3.62805e-11
-1.538 24.6043 -1.45683e-10
3.62805e-11 -1.45683e-10 21.6059

21.4461 1.1508 1.55204e-10
1.1508 23.812 -2.25653e-10
1.55204e-10 -2.25653e-10 21.7902

17.9154 1.46831 -5.43438e-11
1.46831 17.2697 -4.66368e-11
-5.43438e-11 -4.66368e-11 17.8154

17.3848 1.33739 -7.37568e-11
1.33739 18.375 4.23846e-12
-7.37568e-11 4.23846e-12 18.0794

17.2782 -1.33962 -1.81615e-11
-1.33962 17.7978 -8.86507e-12
-1.81615e-11 -8.86507e-12 18.0355

15.9683 1.34991 3.35299e-11
1.34991 16.6736 -4.85624e-11
3.35299e-11 -4.85624e-11 16.1403

15.7624 -1.07717 1.48382e-11
-1.07717 16.3934 -3.93126e-11
1.48382e-11 -3.93126e-11 16.1322

10.8813 -0.170698 -2.12053e-12
-0.170698 12.5581 -3.7388e-11
-2.12053e-12 -3.7388e-11 11.3867

11.1762 -0.347183 -5.59079e-12
-0.347183 12.6143 4.12415e-11
-5.59079e-12 4.12415e-11 11.4296

12.6092 -0.147042 3.85449e-11
-0.147042 11.0252 -1.34898e-11
3.85449e-11 -1.34898e-11 11.3475

16.3432 1.55658 3.24718e-11
1.55658 17.5607 9.05761e-12
3.24718e-11 9.05761e-12 16.9508

16.054 -1.20668 -4.91509e-12
-1.20668 17.0211 -4.62523e-12
-4.91509e-12 -4.62523e-12 16.8887

10.0293 0.240628 3.85424e-12
0.240628 11.6883 2.83304e-11
3.85424e-12 2.83304e-11 10.5336

11.6327 0.372025 1.19499e-11
0.372025 10.0517 2.69889e-12
1.19499e-11 2.69889e-12 10.5271

18.1414 -1.54441 4.4334e-12
-1.54441 18.5343 4.81769e-11
4.4334e-12 4.81769e-11 18.9374

18.2833 1.27177 4.7358e-11
1.27177 19.4826 6.20515e-11
4.7358e-11 6.20515e-11 19.0627

18.4223 -1.36592 1.26699e-11
-1.36592 19.3289 -5.66549e-11
1.26699e-11 -5.66549e-11 19.2141

18.5197 1.01465 9.92447e-12
1.01465 19.6383 1.73432e-11
9.92447e-12 1.73432e-11 19.2304

8.09162 -0.633961 -4.04728e-12
-0.633961 8.22906 -2.79462e-11
-4.04728e-12 -2.79462e-11 8.66549

8.09891 -0.637648 8.96346e-12
-0.637648 8.23645 1.77309e-11
8.96346e-12 1.77309e-11 8.69917

17.188 1.23001 -5.82918e-11
1.23001 18.0558 1.29113e-11
-5.82918e-11 1.29113e-11 17.5399

17.0227 -1.12692 -2.29317e-11
-1.12692 17.279 -4.23826e-12
-2.29317e-11 -4.23826e-12 17.4424

20.8757 0.323026 -5.35693e-11
0.323026 22.3125 1.02141e-11
-5.35693e-11 1.02141e-11 20.89

20.4999 -0.183323 -4.54775e-11
-0.183323 20.7734 3.35297e-11
-4.54775e-11 3.35297e-11 20.5816

17.7943 -1.41717 3.10728e-11
-1.41717 19.7078 3.16023e-11
3.10728e-11 3.16023e-11 19.3139

18.3242 1.33182 1.22371e-11
1.33182 20.2939 2.06197e-11
1.22371e-11 2.06197e-11 19.4461

19.9059 -0.29593 8.2644e-11
-0.29593 19.0621 -8.51757e-11
8.2644e-11 -8.51757e-11 19.8254

20.4101 0.0260677 -2.63758e-11
0.0260677 18.8238 -9.82749e-12
-2.63758e-11 -9.82749e-12 19.8618

17.819 1.31109 1.88847e-11
1.31109 18.0807 3.12198e-11
1.88847e-11 3.12198e-11 18.3474

17.7815 -1.28808 -1.32958e-11
-1.28808 18.5592 -4.56712e-11
-1.32958e-11 -4.56712e-11 18.318

21.7994 0.397554 1.9198e-11
0.397554 20.3824 1.42162e-11
1.9198e-11 1.42162e-11 20.8139

21.9323 0.117147 1.12753e-10
0.117147 21.2156 -1.92697e-11
1.12753e-10 -1.92697e-11 21.2319

21.1228 -0.358736 -3.88291e-11
-0.358736 20.7778 -3.69235e-11
-3.88291e-11 -3.69235e-11 20.7708

20.6237 -0.0461948 1.10403e-10
-0.0461948 22.1906 1.74586e-10
1.10403e-10 1.74586e-10 21.1731

20.6062 0.229815 4.04785e-12
0.229815 23.633 3.85398e-12
4.04785e-12 3.85398e-12 21.1698

22.7581 1.30344 -6.39771e-11
1.30344 21.8008 -3.50714e-11
-6.39771e-11 -3.50714e-11 21.224

21.5671 -0.510327 -1.5801e-11
-0.510327 20.8734 -1.59942e-11
-1.5801e-11 -1.59942e-11 20.8957

20.3131 -0.306831 2.02333e-11
-0.306831 22.1206 -5.31853e-11
2.02333e-11 -5.31853e-11 20.88

20.889 0.763277 2.31002e-10
0.763277 21.7836 2.00407e-10
2.31002e-10 2.00407e-10 21.0513

26.973 0.776327 -9.60795e-10
0.776327 20.6655 4.97483e-10
-9.60795e-10 4.97483e-10 22.2981

26.3354 -0.510045 1.4346e-10
-0.510045 25.9685 1.65326e-10
1.4346e-10 1.65326e-10 23.203

21.8754 -1.75447 3.23713e-10
-1.75447 23.3776 -1.5688e-10
3.23713e-10 -1.5688e-10 21.5682

21.3713 0.989523 1.9126e-11
0.989523 21.3026 4.89455e-11
1.9126e-11 4.89455e-11 20.9431

19.8914 0.717142 -2.7845e-11
0.717142 21.0076 5.78103e-12
-2.7845e-11 5.78103e-12 20.2844

21.9156 0.2102 6.16155e-11
0.2102 21.5964 -9.05682e-11
6.16155e-11 -9.05682e-11 21.3751

22.0235 -1.63665 -1.67645e-11
-1.63665 21.4679 3.6998e-11
-1.67645e-11 3.6998e-11 21.1231

22.4878 -1.87887 -5.23018e-11
-1.87887 24.122 -1.73415e-11
-5.23018e-11 -1.73415e-11 21.9781

19.9315 -0.916719 1.78239e-12
-0.916719 20.4816 2.35092e-11
1.78239e-12 2.35092e-11 20.2361

20.2369 -1.53196 -5.15508e-12
-1.53196 21.1436 -5.74247e-11
-5.15508e-12 -5.74247e-11 20.5173

20.7127 -1.01804 -4.7934e-11
-1.01804 21.6806 -1.46452e-11
-4.7934e-11 -1.46452e-11 20.9442

19.8398 0.640896 -5.46782e-11
0.640896 20.7647 -1.73417e-12
-5.46782e-11 -1.73417e-12 20.3356

21.3308 0.382985 5.63637e-11
0.382985 21.2609 -7.30341e-11
5.63637e-11 -7.30341e-11 20.9759

15.0568 1.09016 -3.85246e-12
1.09016 16.0829 1.89807e-11
-3.85246e-12 1.89807e-11 15.4024

17.4397 0.548457 -1.07914e-11
0.548457 18.8716 -7.12856e-12
-1.07914e-11 -7.12856e-12 18.1476

17.0491 0.468424 2.37025e-11
0.468424 18.6697 -2.59194e-11
2.37025e-11 -2.59194e-11 18.0802

17.4238 0.619096 9.2503e-12
0.619096 14.7937 -6.47864e-12
9.2503e-12 -6.47864e-12 16.2767

16.6169 0.209927 1.19477e-11
0.209927 14.0233 -2.77788e-11
1.19477e-11 -2.77788e-11 15.2539

17.7822 0.336539 7.70778e-12
0.336539 19.5141 -1.56083e-11
7.70778e-12 -1.56083e-11 19.0141

17.381 0.774053 -8.47822e-12
0.774053 19.7272 7.70882e-12
-8.47822e-12 7.70882e-12 19.028

16.8505 -0.246574 6.16581e-12
-0.246574 14.2785 2.44192e-11
6.16581e-12 2.44192e-11 15.4202

18.8705 -0.495745 -1.61872e-11
-0.495745 16.5843 2.12934e-11
-1.61872e-11 2.12934e-11 18.2421

12.1728 0.992141 1.1949e-11
0.992141 13.2019 -1.41634e-11
1.1949e-11 -1.41634e-11 12.3959

11.9939 -0.991266 -2.69747e-12
-0.991266 12.973 -1.06015e-12
-2.69747e-12 -1.06015e-12 12.1849

13.4077 -0.908934 -1.50326e-11
-0.908934 11.7393 1.98973e-11
-1.50326e-11 1.98973e-11 12.1862

18.7812 -0.936379 1.19464e-11
-0.936379 19.9609 2.02343e-11
1.19464e-11 2.02343e-11 19.5687

19.3366 -0.648476 1.00197e-11
-0.648476 20.0405 1.8499e-11
1.00197e-11 1.8499e-11 19.6345

15.372 0.92919 -3.85173e-13
0.92919 16.7538 2.88947e-12
-3.85173e-13 2.88947e-12 16.3206

16.3259 1.11924 1.77301e-11
1.11924 18.1186 2.89066e-11
1.77301e-11 2.89066e-11 17.7936

17.3875 -0.725996 -6.16646e-12
-0.725996 19.7088 1.05019e-11
-6.16646e-12 1.05019e-11 18.9734

17.6086 -0.212791 1.58023e-11
-0.212791 19.4698 3.27599e-11
1.58023e-11 3.27599e-11 18.9459

17.9913 0.284004 1.04065e-11
0.284004 14.9852 1.39771e-11
1.04065e-11 1.39771e-11 16.5159

13.1849 0.356693 -1.00223e-11
0.356693 14.8267 -2.40887e-11
-1.00223e-11 -2.40887e-11 13.4996

13.1258 -0.291348 -3.08223e-12
-0.291348 14.7246 -5.03471e-11
-3.08223e-12 -5.03471e-11 13.4463

15.0065 -0.251797 -1.92698e-12
-0.251797 12.8037 3.12898e-13
-1.92698e-12 3.12898e-13 13.261

15.0337 1.25283 -4.33548e-12
1.25283 15.4326 4.80245e-13
-4.33548e-12 4.80245e-13 15.214

15.7988 -0.832967 -4.1242e-11
-0.832967 13.3771 2.35106e-11
-4.1242e-11 2.35106e-11 14.4109

16.5944 1.32769 4.23969e-11
1.32769 15.965 4.02287e-11
4.23969e-11 4.02287e-11 16.2861

14.9952 1.05871 -2.58217e-11
1.05871 16.4153 1.84029e-11
-2.58217e-11 1.84029e-11 15.4481

17.5306 -0.525388 3.85414e-12
-0.525388 14.8239 2.26547e-11
3.85414e-12 2.26547e-11 16.4273

11.5542 0.697623 1.15612e-11
0.697623 12.2585 -3.75563e-11
1.15612e-11 -3.75563e-11 11.2832

18.8105 0.652315 -2.11973e-11
0.652315 16.116 2.15832e-11
-2.11973e-11 2.15832e-11 17.8794

12.3553 -0.603115 9.63707e-12
-0.603115 11.1327 1.32753e-11
9.63707e-12 1.32753e-11 11.1284

19.4175 -0.229946 -2.31229e-12
-0.229946 20.3249 3.08318e-11
-2.31229e-12 3.08318e-11 19.788

19.3935 0.408427 1.92747e-12
0.408427 20.3627 1.05982e-11
1.92747e-12 1.05982e-11 19.7977

24.084 -1.24555 -6.89866e-11
-1.24555 21.9121 2.69792e-11
-6.89866e-11 2.69792e-11 21.6095

24.0489 1.28878 -5.00898e-12
1.28878 21.8779 -8.18858e-12
-5.00898e-12 -8.18858e-12 21.6026

14.7088 -0.331515 6.9373e-12
-0.331515 12.448 -5.41996e-12
6.9373e-12 -5.41996e-12 13.1226

16.7696 1.45141 -2.00422e-11
1.45141 16.65 -4.02759e-11
-2.00422e-11 -4.02759e-11 17.0206

20.8363 -0.752718 -1.84988e-11
-0.752718 19.3875 -3.37239e-12
-1.84988e-11 -3.37239e-12 19.8528

20.6877 0.749867 -3.46861e-11
0.749867 19.2582 2.74596e-11
-3.46861e-11 2.74596e-11 19.7324

18.8183 0.261411 -2.46658e-11
0.261411 16.2236 5.06804e-11
-2.46658e-11 5.06804e-11 18.2019

14.7193 1.19588 9.82819e-12
1.19588 16.2361 -1.54154e-12
9.82819e-12 -1.54154e-12 15.2465

15.966 -1.03417 2.31111e-12
-1.03417 14.222 3.42065e-11
2.31111e-12 3.42065e-11 14.8475

18.5321 -0.0640383 -1.81146e-11
-0.0640383 15.616 -9.98452e-12
-1.81146e-11 -9.98452e-12 17.8055

14.896 -1.25733 -5.22246e-11
-1.25733 15.3709 -4.00841e-11
-5.22246e-11 -4.00841e-11 15.1132

15.0592 -1.03097 -2.54399e-11
-1.03097 16.0924 -4.62475e-12
-2.54399e-11 -4.62475e-12 15.4093

16.6797 1.17973 9.05806e-12
1.17973 18.5969 3.02548e-11
9.05806e-12 3.02548e-11 17.8455

14.7869 -1.43795 7.40017e-11
-1.43795 13.737 4.75505e-11
7.40017e-11 4.75505e-11 13.9845

9.17664 -1.0967 4.47127e-11
-1.0967 8.55388 2.35122e-11
4.47127e-11 2.35122e-11 8.89308

9.09367 1.52321 -2.85224e-11
1.52321 8.88704 1.33576e-11
-2.85224e-11 1.33576e-11 8.94117

16.9782 -1.40885 -1.19477e-11
-1.40885 19.2329 5.5887e-12
-1.19477e-11 5.5887e-12 18.7991

9.27521 0.199818 -3.08375e-11
0.199818 8.6034 4.30129e-11
-3.08375e-11 4.30129e-11 9.19995

8.81602 -0.368227 -1.11775e-11
-0.368227 8.61723 -7.47069e-13
-1.11775e-11 -7.47069e-13 9.1437

19.5867 -0.328144 2.90974e-11
-0.328144 19.9939 4.52847e-11
2.90974e-11 4.52847e-11 19.8322

19.6026 0.340816 -1.36821e-11
0.340816 19.9727 -3.76733e-11
-1.36821e-11 -3.76733e-11 19.8347

19.1561 -0.0238771 -2.6983e-12
-0.0238771 15.5346 3.8901e-12
-2.6983e-12 3.8901e-12 17.3454

19.4948 -0.176983 -1.54156e-11
-0.176983 19.3691 -5.78586e-11
-1.54156e-11 -5.78586e-11 19.6816

19.5151 0.194815 -3.93128e-11
0.194815 19.3749 7.44787e-11
-3.93128e-11 7.44787e-11 19.6901

15.371 1.09794 -3.66148e-11
1.09794 17.3397 -3.06424e-11
-3.66148e-11 -3.06424e-11 16.3871

22.5687 -1.16658 -1.04048e-11
-1.16658 21.2415 -3.23736e-11
-1.04048e-11 -3.23736e-11 21.0296

22.5349 1.17208 -7.86217e-11
1.17208 21.2188 -2.50025e-11
-7.86217e-11 -2.50025e-11 21.0299

18.2595 -0.581641 6.30149e-11
-0.581641 18.1331 -6.98573e-12
6.30149e-11 -6.98573e-12 18.4447

18.2698 0.586665 2.65938e-11
0.586665 18.134 2.76059e-11
2.65938e-11 2.76059e-11 18.4533

13.2049 -0.990872 1.73447e-11
-0.990872 11.4146 2.92446e-11
1.73447e-11 2.92446e-11 12.0061

19.7991 0.577058 1.426e-11
0.577058 22.5782 9.24983e-12
1.426e-11 9.24983e-12 20.8318

20.5017 -0.111588 -8.47917e-12
-0.111588 21.5234 -9.82788e-12
-8.47917e-12 -9.82788e-12 20.71

14.7831 -1.20876 7.71401e-13
-1.20876 16.2915 1.67647e-11
7.71401e-13 1.67647e-11 15.3012

10.6921 -0.303535 7.70826e-12
-0.303535 11.65 6.26269e-12
7.70826e-12 6.26269e-12 10.8534

11.8606 -0.313728 2.73668e-11
-0.313728 10.1955 1.76884e-11
2.73668e-11 1.76884e-11 10.766

16.1954 0.943635 -2.6208e-11
0.943635 18.3208 2.28354e-11
-2.6208e-11 2.28354e-11 17.4707

16.0447 0.940294 -3.54584e-11
0.940294 17.8999 -7.51617e-12
-3.54584e-11 -7.51617e-12 17.4379

23.2852 -0.93957 -1.45873e-10
-0.93957 21.0058 1.01072e-10
-1.45873e-10 1.01072e-10 21.5838

23.327 0.868619 7.05286e-11
0.868619 21.2716 1.70246e-10
7.05286e-11 1.70246e-10 21.6584

16.6028 1.23416 1.31035e-11
1.23416 17.9332 -1.48386e-11
1.31035e-11 -1.48386e-11 18.1606

18.1432 0.373926 1.17556e-11
0.373926 16.2865 -8.6225e-12
1.17556e-11 -8.6225e-12 17.4877

18.1151 -0.388897 1.25259e-11
-0.388897 16.2277 -2.07158e-11
1.25259e-11 -2.07158e-11 17.4371

17.3253 1.65607 1.84997e-11
1.65607 17.6555 -1.54183e-12
1.84997e-11 -1.54183e-12 18.0878

17.6279 -1.11707 2.42798e-11
-1.11707 19.3128 2.84234e-11
2.42798e-11 2.84234e-11 18.8299

14.4655 -0.0190809 7.32318e-12
-0.0190809 11.962 -4.64684e-11
7.32318e-12 -4.64684e-11 12.8921

17.313 0.0234785 1.92713e-12
0.0234785 14.4246 -1.07978e-11
1.92713e-12 -1.07978e-11 15.5349

15.7522 0.743309 3.70012e-11
0.743309 13.3538 -1.89098e-11
3.70012e-11 -1.89098e-11 14.2437

20.0969 1.23873 -5.0109e-12
1.23873 17.9223 -2.16304e-11
-5.0109e-12 -2.16304e-11 19.1599

24.6796 -0.185236 -1.00972e-10
-0.185236 23.7313 2.77007e-11
-1.00972e-10 2.77007e-11 22.1889

24.6523 0.184259 7.24522e-11
0.184259 23.8406 1.39896e-10
7.24522e-11 1.39896e-10 22.1965

13.7859 1.08016 7.32244e-12
1.08016 13.663 -2.49099e-11
7.32244e-12 -2.49099e-11 13.1949

16.4691 -1.37699 3.04487e-11
-1.37699 15.2853 -9.58766e-12
3.04487e-11 -9.58766e-12 15.9517

18.158 -0.340335 -2.38963e-11
-0.340335 15.8578 -2.72438e-11
-2.38963e-11 -2.72438e-11 16.8035

20.9134 1.33419 8.0547e-11
1.33419 23.2956 2.65912e-11
8.0547e-11 2.65912e-11 21.3523

21.0722 -0.349018 7.82357e-11
-0.349018 21.528 -2.0814e-11
7.82357e-11 -2.0814e-11 21.007

20.3115 -1.21157 -9.24836e-12
-1.21157 18.2512 -4.68264e-11
-9.24836e-12 -4.68264e-11 19.3598

17.0658 -0.350212 3.27589e-11
-0.350212 18.7342 -5.29917e-12
3.27589e-11 -5.29917e-12 18.0628

17.292 -0.367628 2.14879e-11
-0.367628 18.8578 -2.16798e-11
2.14879e-11 -2.16798e-11 18.1045

19.4631 -0.0956152 4.95265e-11
-0.0956152 15.8269 2.03541e-11
4.95265e-11 2.03541e-11 17.9098

19.5352 0.0899702 -6.45579e-11
0.0899702 15.8258 -3.49996e-11
-6.45579e-11 -3.49996e-11 17.9565

14.026 0.930587 2.7955e-12
0.930587 13.4389 9.78162e-12
2.7955e-12 9.78162e-12 13.0666

19.761 -0.0717312 8.14121e-12
-0.0717312 17.1665 -2.96757e-11
8.14121e-12 -2.96757e-11 18.7788

19.7676 0.0648729 -2.68825e-11
0.0648729 17.1903 5.63592e-12
-2.68825e-11 5.63592e-12 18.7918

18.2133 0.337746 -2.50533e-12
0.337746 15.859 -2.61837e-11
-2.50533e-12 -2.61837e-11 16.8293

15.0474 -1.07595 -5.78159e-12
-1.07595 16.5011 1.02141e-11
-5.78159e-12 1.02141e-11 15.5177

19.7243 -0.0338634 2.69784e-12
-0.0338634 16.8056 -3.29999e-11
2.69784e-12 -3.29999e-11 18.2545

19.7958 0.043598 -6.3208e-11
0.043598 16.8221 -2.70266e-11
-6.3208e-11 -2.70266e-11 18.3079

18.0087 -0.824947 1.54166e-11
-0.824947 15.8521 1.84989e-11
1.54166e-11 1.84989e-11 17.0015

17.0367 1.51988 -3.17964e-11
1.51988 18.6026 -8.86513e-12
-3.17964e-11 -8.86513e-12 18.1018

15.7396 1.15489 -6.55261e-12
1.15489 14.5946 -2.4666e-11
-6.55261e-12 -2.4666e-11 14.8772

17.0555 1.23304 -1.27187e-11
1.23304 17.7903 -1.96565e-11
-1.27187e-11 -1.96565e-11 18.2549

17.2333 1.51347 -5.58872e-12
1.51347 18.9998 -2.34141e-11
-5.58872e-12 -2.34141e-11 18.3541

16.0152 -0.586441 -6.35988e-12
-0.586441 13.4806 3.61334e-12
-6.35988e-12 3.61334e-12 14.458

18.3412 -1.34965 3.12179e-11
-1.34965 16.6806 -4.29742e-11
3.12179e-11 -4.29742e-11 17.739

17.7776 0.823663 1.31051e-11
0.823663 15.7222 2.88988e-12
1.31051e-11 2.88988e-12 16.7412

14.6038 1.34699 -2.89084e-13
1.34699 14.1975 -3.20396e-11
-2.89084e-13 -3.20396e-11 14.233

16.3332 1.38417 3.43027e-11
1.38417 15.1541 5.97411e-12
3.43027e-11 5.97411e-12 15.8226

15.7852 0.12652 2.00413e-11
0.12652 18.1019 -8.28763e-12
2.00413e-11 -8.28763e-12 17.2986

15.8319 0.0453661 -1.07905e-11
0.0453661 18.101 -1.15633e-11
-1.07905e-11 -1.15633e-11 17.3056

13.5935 0.973095 2.8908e-12
0.973095 11.9344 1.93563e-11
2.8908e-12 1.93563e-11 12.3768

17.36 -1.65452 1.81142e-11
-1.65452 17.686 -5.5897e-12
1.81142e-11 -5.5897e-12 18.1313

14.4107 -1.31694 -3.12197e-11
-1.31694 15.0656 -8.4797e-12
-3.12197e-11 -8.4797e-12 14.3377

14.359 1.33325 -1.85003e-11
1.33325 15.1019 9.73218e-12
-1.85003e-11 9.73218e-12 14.3159

17.7738 -0.994028 1.15636e-11
-0.994028 15.7694 -2.4185e-11
1.15636e-11 -2.4185e-11 16.8324

19.8999 -0.659978 -2.31251e-12
-0.659978 16.3783 -1.10869e-12
-2.31251e-12 -1.10869e-12 18.8406

19.8168 0.665366 -2.89062e-11
0.665366 16.4676 2.18241e-11
-2.89062e-11 2.18241e-11 18.7976

13.8424 0.729102 -1.07928e-11
0.729102 15.4687 2.79432e-11
-1.07928e-11 2.79432e-11 14.5532

16.6397 -1.38728 1.15635e-11
-1.38728 15.9695 -5.36692e-11
1.15635e-11 -5.36692e-11 16.28

11.9495 -0.0568893 -1.07923e-11
-0.0568893 14.2181 -7.71009e-12
-1.07923e-11 -7.71009e-12 12.7894

11.9338 0.0228936 -1.34891e-11
0.0228936 14.2144 -2.23569e-11
-1.34891e-11 -2.23569e-11 12.7784

14.4912 0.070147 2.29339e-11
0.070147 11.6348 3.73454e-13
2.29339e-11 3.73454e-13 12.6276

13.9014 -0.965411 -4.24031e-12
-0.965411 13.4606 -3.19914e-11
-4.24031e-12 -3.19914e-11 12.9997

14.7906 1.17355 -1.90777e-11
1.17355 13.966 1.54099e-12
-1.90777e-11 1.54099e-12 14.1535

22.3669 -2.39629 8.82558e-11
-2.39629 23.4327 -5.60777e-11
8.82558e-11 -5.60777e-11 21.8244

23.2598 1.03477 -2.02325e-10
1.03477 23.939 8.63279e-11
-2.02325e-10 8.63279e-11 22.1232

16.1094 0.534239 -6.74472e-12
0.534239 13.5608 -1.88616e-11
-6.74472e-12 -1.88616e-11 14.554

16.2558 1.46367 2.62086e-11
1.46367 17.9946 2.79456e-12
2.62086e-11 2.79456e-12 17.1799

19.1376 0.0220786 1.92707e-12
0.0220786 15.5112 3.56019e-11
1.92707e-12 3.56019e-11 17.3085

13.8621 -0.705105 -3.85349e-13
-0.705105 15.5431 -2.02356e-11
-3.85349e-13 -2.02356e-11 14.6046

16.4742 1.45829 1.54073e-12
1.45829 19.2215 -1.72473e-11
1.54073e-12 -1.72473e-11 18.7441

17.7355 1.19442 -1.54157e-11
1.19442 19.4205 1.76321e-11
-1.54157e-11 1.76321e-11 18.9031

17.0519 -1.51624 2.11966e-11
-1.51624 18.6006 4.07575e-11
2.11966e-11 4.07575e-11 18.1101

17.184 1.53282 -2.56295e-11
1.53282 19.1622 2.11976e-11
-2.56295e-11 2.11976e-11 18.4171

16.0297 1.16034 3.70001e-11
1.16034 17.1802 -2.03541e-16
3.70001e-11 -2.03541e-16 17.1018

20.2417 0.0131513 -5.01033e-12
0.0131513 15.8717 -2.93879e-11
-5.01033e-12 -2.93879e-11 18.3103

14.7966 -1.15833 -3.50732e-11
-1.15833 13.874 -3.34349e-11
-3.50732e-11 -3.34349e-11 14.0675

17.0636 -1.23887 2.46657e-11
-1.23887 17.8064 1.88841e-11
2.46657e-11 1.88841e-11 18.2774

15.1698 -0.991021 5.00986e-12
-0.991021 15.2589 6.0029e-11
5.00986e-12 6.0029e-11 14.7911

13.3584 -0.960862 -5.74287e-11
-0.960862 13.3841 -9.39319e-12
-5.74287e-11 -9.39319e-12 12.8776

16.7554 -1.43236 -1.19488e-11
-1.43236 16.7188 1.74886e-11
-1.19488e-11 1.74886e-11 17.0555

13.3502 -0.587519 3.81584e-11
-0.587519 15.0697 -3.58928e-11
3.81584e-11 -3.58928e-11 13.7166

13.323 0.557329 -3.85238e-13
0.557329 15.066 -4.56248e-11
-3.85238e-13 -4.56248e-11 13.697

14.9727 0.335626 7.70865e-13
0.335626 13.044 -1.80793e-11
7.70865e-13 -1.80793e-11 13.4473

15.1448 1.03348 -3.8529e-12
1.03348 15.2403 1.20444e-12
-3.8529e-12 1.20444e-12 14.7778

15.4271 0.183691 -1.38743e-11
0.183691 17.2931 2.52459e-11
-1.38743e-11 2.52459e-11 16.1653

15.4108 -0.0399516 -3.46754e-12
-0.0399516 17.2698 1.25315e-12
-3.46754e-12 1.25315e-12 16.152

12.575 -1.13176 3.48824e-11
-1.13176 13.1521 -3.20876e-11
3.48824e-11 -3.20876e-11 12.4343

12.5947 1.13379 -3.8158e-11
1.13379 13.115 1.84038e-11
-3.8158e-11 1.84038e-11 12.4048

20.341 0.0917119 3.4688e-11
0.0917119 16.1567 2.71225e-11
3.4688e-11 2.71225e-11 18.4041

20.3813 -0.0870214 8.47928e-12
-0.0870214 16.1452 -3.43245e-11
8.47928e-12 -3.43245e-11 18.423

16.5217 1.33403 3.52657e-11
1.33403 18.1967 2.57276e-11
3.52657e-11 2.57276e-11 17.415

16.2498 -1.30168 -1.34883e-11
-1.30168 19.0484 -2.02282e-12
-1.34883e-11 -2.02282e-12 18.6424

17.9292 1.46679 -2.00418e-11
1.46679 17.0198 -8.67049e-12
-2.00418e-11 -8.67049e-12 17.7236

12.8962 0.679745 -3.23765e-11
0.679745 11.0911 -1.52246e-11
-3.23765e-11 -1.52246e-11 11.648

13.9364 0.884773 1.42611e-11
0.884773 16.0434 -3.37241e-12
1.42611e-11 -3.37241e-12 14.7353

19.3684 0.0841062 -5.18366e-11
0.0841062 18.5122 1.71024e-11
-5.18366e-11 1.71024e-11 19.1152

19.3611 -0.0748738 -1.34892e-11
-0.0748738 18.5218 -4.48078e-12
-1.34892e-11 -4.48078e-12 19.1102

16.8721 0.852555 3.27623e-12
0.852555 16.3136 1.50795e-11
3.27623e-12 1.50795e-11 16.3808

18.4128 -0.52589 -1.15652e-12
-0.52589 17.4819 5.1163e-11
-1.15652e-12 5.1163e-11 17.8581

18.4189 0.536071 -4.4327e-12
0.536071 17.4938 -9.53783e-12
-4.4327e-12 -9.53783e-12 17.8683

8.61985 -0.53534 2.04292e-11
-0.53534 7.40957 2.92691e-11
2.04292e-11 2.92691e-11 8.85876

6.91504 0.674605 -2.27414e-11
0.674605 8.1641 1.22743e-11
-2.27414e-11 1.22743e-11 8.63268

13.9101 -0.869586 1.31041e-11
-0.869586 16.0702 1.53198e-11
1.31041e-11 1.53198e-11 14.7609

21.2878 -0.195234 -3.71909e-11
-0.195234 20.6562 -5.20283e-11
-3.71909e-11 -5.20283e-11 20.7832

21.2999 0.222741 5.78138e-12
0.222741 20.6796 9.76971e-11
5.78138e-12 9.76971e-11 20.7919

12.9709 0.584307 8.09404e-12
0.584307 11.0121 -4.83485e-11
8.09404e-12 -4.83485e-11 11.6419

16.0217 -0.720846 4.50933e-11
-0.720846 18.1703 7.03382e-12
4.50933e-11 7.03382e-12 17.49

16.2523 -0.704516 3.19901e-11
-0.704516 18.3299 -2.11002e-11
3.19901e-11 -2.11002e-11 17.5064

14.5376 -1.41519 -5.01077e-12
-1.41519 14.265 -2.00913e-11
-5.01077e-12 -2.00913e-11 14.1328

17.1895 -1.5425 1.38746e-11
-1.5425 19.1502 8.67157e-12
1.38746e-11 8.67157e-12 18.4097

15.9096 1.84024 -1.19485e-11
1.84024 17.9503 -1.31042e-11
-1.19485e-11 -1.31042e-11 18.0448

19.3251 0.834807 -4.70187e-11
0.834807 19.9349 -1.92716e-13
-4.70187e-11 -1.92716e-13 19.6331

18.8086 1.15102 6.55197e-12
1.15102 19.8995 4.91435e-12
6.55197e-12 4.91435e-12 19.6037

16.5331 -1.34727 2.2739e-11
-1.34727 18.2342 -7.71253e-13
2.2739e-11 -7.71253e-13 17.448

16.9486 1.41377 5.78199e-12
1.41377 17.1275 6.07092e-12
5.78199e-12 6.07092e-12 17.411

16.8688 -0.865595 8.67208e-12
-0.865595 16.333 2.78471e-11
8.67208e-12 2.78471e-11 16.3903

15.2958 1.03406 1.38763e-11
1.03406 13.2325 2.25e-11
1.38763e-11 2.25e-11 14.0346

17.3023 -0.0312341 1.48382e-11
-0.0312341 14.4209 1.6934e-11
1.48382e-11 1.6934e-11 15.5474

17.0708 1.60851 2.15826e-11
1.60851 18.9839 -1.94628e-11
2.15826e-11 -1.94628e-11 18.3267

15.3866 -0.967134 7.69884e-13
-0.967134 16.8223 3.63263e-11
7.69884e-13 3.63263e-11 16.385

14.4986 0.352544 -1.4259e-11
0.352544 16.6611 9.34508e-12
-1.4259e-11 9.34508e-12 15.5799

16.9134 0.988869 -2.42811e-11
0.988869 16.9011 6.16636e-12
-2.42811e-11 6.16636e-12 17.0683

14.6469 0.439208 2.19686e-11
0.439208 16.8852 1.48403e-11
2.19686e-11 1.48403e-11 15.682

17.7883 -1.24226 -6.51338e-11
-1.24226 19.443 3.73869e-11
-6.51338e-11 3.73869e-11 18.8716

10.2099 -0.695002 8.09793e-12
-0.695002 10.36 -3.98448e-11
8.09793e-12 -3.98448e-11 10.0236

10.7705 -0.699514 8.36432e-11
-0.699514 9.74099 3.39922e-11
8.36432e-11 3.39922e-11 9.9984

17.9276 -0.278471 -9.5392e-12
-0.278471 14.969 4.31902e-11
-9.5392e-12 4.31902e-11 16.4869

16.9018 -0.991364 2.1005e-11
-0.991364 16.8844 4.6732e-11
2.1005e-11 4.6732e-11 17.059

23.7302 -1.33312 8.24742e-11
-1.33312 21.3715 8.42049e-11
8.24742e-11 8.42049e-11 21.7002

23.7735 1.27677 -1.4067e-11
1.27677 21.4807 5.27985e-11
-1.4067e-11 5.27985e-11 21.737

16.3318 -1.44362 -1.32963e-11
-1.44362 18.078 -2.8617e-11
-1.32963e-11 -2.8617e-11 17.2716

21.2564 -1.2384 3.08289e-12
-1.2384 21.2677 2.34127e-11
3.08289e-12 2.34127e-11 20.6793

21.1887 1.25862 -2.89043e-11
1.25862 21.2301 -2.53401e-11
-2.89043e-11 -2.53401e-11 20.655

17.9762 0.271835 -8.09375e-12
0.271835 15.4592 -6.69637e-12
-8.09375e-12 -6.69637e-12 17.0693

15.8686 -1.84257 1.61872e-11
-1.84257 17.8974 7.61155e-12
1.61872e-11 7.61155e-12 18.0269

10.7538 -0.827704 1.25281e-11
-0.827704 10.6787 9.33513e-12
1.25281e-11 9.33513e-12 10.4378

11.1318 0.830556 -3.85062e-13
0.830556 10.5433 3.88341e-11
-3.85062e-13 3.88341e-11 10.5721

11.2276 -0.617058 2.42828e-11
-0.617058 12.3894 -1.82123e-11
2.42828e-11 -1.82123e-11 11.3621

10.9703 0.5739 -3.43032e-11
0.5739 12.327 3.94866e-12
-3.43032e-11 3.94866e-12 11.2485

12.4288 0.353387 -3.8541e-12
0.353387 10.6507 -2.08617e-11
-3.8541e-12 -2.08617e-11 11.1461

17.0664 -1.62094 -1.25256e-11
-1.62094 18.9966 7.61238e-12
-1.25256e-11 7.61238e-12 18.3171

9.95104 0.183528 -4.62477e-12
0.183528 11.5363 -1.22383e-11
-4.62477e-12 -1.22383e-11 10.5438

11.7663 -0.199931 1.04075e-11
-0.199931 9.76504 1.31291e-11
1.04075e-11 1.31291e-11 10.4816

19.4584 -0.510328 -2.58213e-11
-0.510328 21.5058 -4.97185e-11
-2.58213e-11 -4.97185e-11 20.3981

20.2587 -0.0308732 4.24084e-12
-0.0308732 20.8435 -4.95247e-11
4.24084e-12 -4.95247e-11 20.3821

19.0624 0.803304 2.04262e-11
0.803304 17.1493 -8.47877e-12
2.04262e-11 -8.47877e-12 18.1914

18.9463 -0.0571163 -6.16663e-12
-0.0571163 15.0565 -1.84273e-11
-6.16663e-12 -1.84273e-11 18.0212

12.9282 0.816085 -1.73767e-12
0.816085 14.4232 -1.38276e-11
-1.73767e-12 -1.38276e-11 13.2845

12.9314 -0.854028 3.68093e-11
-0.854028 14.4413 2.72224e-11
3.68093e-11 2.72224e-11 13.3065

18.2133 -0.15338 -6.16662e-12
-0.15338 15.5913 -2.48201e-11
-6.16662e-12 -2.48201e-11 17.1977

15.4321 -1.09514 -1.31037e-11
-1.09514 17.464 -4.1336e-11
-1.31037e-11 -4.1336e-11 16.4797

20.8263 0.117401 1.44523e-11
0.117401 19.8653 -1.9415e-11
1.44523e-11 -1.9415e-11 20.2892

20.8184 -0.101813 -4.93326e-11
-0.101813 19.8699 8.19453e-11
-4.93326e-11 8.19453e-11 20.2902

18.3308 1.22137 -6.36038e-12
1.22137 17.4763 -3.38192e-11
-6.36038e-12 -3.38192e-11 17.9951

16.9207 -1.3788 -1.88855e-11
-1.3788 17.1226 2.40875e-11
-1.88855e-11 2.40875e-11 17.4098

18.6856 0.732907 5.78121e-12
0.732907 15.8465 -7.65976e-12
5.78121e-12 -7.65976e-12 17.6385

13.5679 1.07869 -8.47833e-12
1.07869 12.7272 -9.16526e-13
-8.47833e-12 -9.16526e-13 12.7772

16.0789 -1.19486 -2.33175e-11
-1.19486 17.2658 2.37034e-11
-2.33175e-11 2.37034e-11 17.1555

8.59502 1.85687 -1.08698e-10
1.85687 8.18881 1.66332e-11
-1.08698e-10 1.66332e-11 8.56966

14.5783 -0.26338 4.00835e-11
-0.26338 16.666 5.39594e-11
4.00835e-11 5.39594e-11 15.6108

14.6642 -0.393526 -3.85479e-13
-0.393526 16.7873 6.45572e-12
-3.85479e-13 6.45572e-12 15.6401

19.7042 0.545085 2.8904e-11
0.545085 21.6257 -4.85617e-11
2.8904e-11 -4.85617e-11 20.5225

19.9884 -0.815769 3.83048e-13
-0.815769 21.3642 -2.50507e-11
3.83048e-13 -2.50507e-11 20.5184

20.5576 -0.0429519 4.85625e-11
-0.0429519 16.733 1.32958e-11
4.85625e-11 1.32958e-11 18.9257

20.5736 0.0400888 2.38959e-11
0.0400888 16.7242 -7.20251e-12
2.38959e-11 -7.20251e-12 18.9367

19.3263 -1.59747 2.54375e-11
-1.59747 18.4359 2.39914e-11
2.54375e-11 2.39914e-11 19.0251

19.2338 1.61122 3.1218e-11
1.61122 18.1273 -1.38737e-11
3.1218e-11 -1.38737e-11 18.868

21.5025 -0.581363 -3.16023e-11
-0.581363 20.6401 4.43246e-12
-3.16023e-11 4.43246e-12 20.5055

21.4484 0.57996 -5.43406e-11
0.57996 20.6312 -4.75976e-11
-5.43406e-11 -4.75976e-11 20.4875

22.1118 -0.50851 -4.06604e-11
-0.50851 21.0747 6.78288e-11
-4.06604e-11 6.78288e-11 21.2298

22.1382 0.547493 2.27387e-11
0.547493 21.1663 -2.18706e-11
2.27387e-11 -2.18706e-11 21.2617

17.7974 -1.53022 3.52645e-11
-1.53022 19.3502 1.48378e-11
3.52645e-11 1.48378e-11 18.9264

17.8357 1.52228 2.50498e-12
1.52228 19.3703 1.84996e-11
2.50498e-12 1.84996e-11 18.9535

16.6639 -0.790225 -4.23968e-12
-0.790225 15.2547 -3.94079e-11
-4.23968e-12 -3.94079e-11 15.9432

15.7051 -0.668598 3.2374e-11
-0.668598 17.3087 4.4033e-11
3.2374e-11 4.4033e-11 16.611

15.8178 1.28674 8.2867e-12
1.28674 15.8064 1.92229e-11
8.2867e-12 1.92229e-11 15.7056

15.8753 -0.939304 -1.04063e-11
-0.939304 17.6907 -1.78236e-11
-1.04063e-11 -1.78236e-11 16.6835

13.6386 -0.99656 3.16042e-11
-0.99656 12.8746 8.12304e-11
3.16042e-11 8.12304e-11 12.7392

16.6398 0.78005 9.05709e-12
0.78005 15.2193 -2.93879e-11
9.05709e-12 -2.93879e-11 15.9092

15.7277 0.664726 -1.25733e-11
0.664726 17.2526 1.63869e-12
-1.25733e-11 1.63869e-12 16.5616

17.7804 -1.90235 -2.351e-11
-1.90235 18.5378 1.53208e-11
-2.351e-11 1.53208e-11 18.8693

17.7848 1.90366 -1.00209e-11
1.90366 18.525 -1.25259e-11
-1.00209e-11 -1.25259e-11 18.8667

19.3225 -0.76317 -2.42799e-11
-0.76317 17.4312 -2.97242e-11
-2.42799e-11 -2.97242e-11 18.4587

23.3316 -1.4253 5.08718e-11
-1.4253 24.522 -3.42979e-11
5.08718e-11 -3.42979e-11 22.2155

22.4107 1.45683 6.59024e-11
1.45683 21.501 5.01114e-12
6.59024e-11 5.01114e-12 21.4465

17.4114 -1.07751 1.52232e-11
-1.07751 18.8836 -1.66696e-11
1.52232e-11 -1.66696e-11 18.1869

18.0449 1.34385 1.09844e-11
1.34385 16.4366 1.66693e-11
1.09844e-11 1.66693e-11 17.4706

20.7379 0.0856513 -1.54248e-12
0.0856513 19.2234 6.16647e-12
-1.54248e-12 6.16647e-12 19.8252

15.8203 -1.25826 1.15567e-12
-1.25826 15.877 3.84457e-11
1.15567e-12 3.84457e-11 15.7246

10.5423 0.805601 -3.43021e-11
0.805601 10.8348 8.43044e-12
-3.43021e-11 8.43044e-12 10.2831

10.9135 0.796645 -4.08559e-11
0.796645 10.1185 -4.43347e-12
-4.08559e-11 -4.43347e-12 10.2175

20.7761 0.16075 -7.51583e-12
0.16075 17.4674 -1.9005e-11
-7.51583e-12 -1.9005e-11 19.3081

20.742 -0.162247 3.21824e-11
-0.162247 17.4508 1.32961e-11
3.21824e-11 1.32961e-11 19.298

20.8553 -0.139749 -2.46652e-11
-0.139749 19.3765 -1.89828e-11
-2.46652e-11 -1.89828e-11 19.9044

15.8977 0.894401 -4.19615e-11
0.894401 17.6442 -2.45714e-11
-4.19615e-11 -2.45714e-11 16.6636

16.3788 -0.627665 -2.70287e-11
-0.627665 14.7102 -3.06885e-11
-2.70287e-11 -3.06885e-11 15.0404

18.38 -0.762892 5.53065e-11
-0.762892 18.8364 -1.23333e-11
5.53065e-11 -1.23333e-11 18.6648

18.3931 0.763981 2.90979e-11
0.763981 18.8468 -7.51478e-12
2.90979e-11 -7.51478e-12 18.6752

24.4093 -0.104814 -3.46861e-11
-0.104814 25.4833 -7.96733e-11
-3.46861e-11 -7.96733e-11 22.5263

24.4129 0.103362 -4.04635e-11
0.103362 25.4526 -3.07986e-11
-4.04635e-11 -3.07986e-11 22.5276

16.5808 -1.30631 -1.75359e-11
-1.30631 18.5348 -1.2718e-11
-1.75359e-11 -1.2718e-11 17.8208

17.5611 1.03288 2.11983e-11
1.03288 15.6552 1.13684e-11
2.11983e-11 1.13684e-11 16.5984

20.1241 -0.129878 -2.32201e-11
-0.129878 18.411 -7.85301e-12
-2.32201e-11 -7.85301e-12 19.3034

20.1232 0.141291 -1.80178e-11
0.141291 18.4042 -1.08391e-11
-1.80178e-11 -1.08391e-11 19.2981

16.7489 -0.828634 -1.50315e-11
-0.828634 18.3265 9.82755e-12
-1.50315e-11 9.82755e-12 18.0544

16.547 -1.32489 -2.0427e-11
-1.32489 17.8223 2.6979e-11
-2.0427e-11 2.6979e-11 18.1136

8.67914 -1.92598 5.78211e-12
-1.92598 8.73828 -2.85487e-11
5.78211e-12 -2.85487e-11 8.74136

18.7087 -1.23762 5.39559e-12
-1.23762 19.7834 -6.26275e-12
5.39559e-12 -6.26275e-12 19.4765

18.7011 1.24855 -1.19476e-11
1.24855 19.7503 -2.89053e-11
-1.19476e-11 -2.89053e-11 19.4596

16.2807 -1.27349 -2.31249e-11
-1.27349 17.8673 1.82108e-11
-2.31249e-11 1.82108e-11 17.7691

16.4896 0.66573 -5.78112e-12
0.66573 14.7733 -2.04758e-11
-5.78112e-12 -2.04758e-11 15.1281

18.5912 -1.17252 1.10802e-11
-1.17252 17.6213 2.74587e-11
1.10802e-11 2.74587e-11 18.181

19.5551 -1.30294 -6.16731e-12
-1.30294 18.5162 -1.32e-11
-6.16731e-12 -1.32e-11 19.1543

19.5727 1.27137 4.31665e-11
1.27137 18.4443 3.76743e-11
4.31665e-11 3.76743e-11 19.1248

18.9224 -0.727976 1.88851e-11
-0.727976 16.0163 1.4932e-12
1.88851e-11 1.4932e-12 17.8729

21.0781 0.321057 1.73359e-12
0.321057 18.9195 -2.99647e-11
1.73359e-12 -2.99647e-11 20.0078

21.0531 -0.315059 1.23338e-11
-0.315059 18.9328 -1.1562e-11
1.23338e-11 -1.1562e-11 20.001

21.0414 -0.505884 7.4765e-11
-0.505884 23.7408 3.62293e-11
7.4765e-11 3.62293e-11 21.516

21.562 1.10541 -1.42581e-11
1.10541 23.5436 8.82575e-11
-1.42581e-11 8.82575e-11 21.5917

8.77991 0.163782 -6.16461e-12
0.163782 6.888 4.46411e-11
-6.16461e-12 4.46411e-11 8.7498

7.5486 0.306054 -4.62586e-12
0.306054 8.47644 -2.88371e-11
-4.62586e-12 -2.88371e-11 8.83271

17.6128 1.21839 -5.43423e-11
1.21839 19.0925 -3.4695e-12
-5.43423e-11 -3.4695e-12 18.4653

17.6007 -1.21915 -1.67656e-11
-1.21915 19.0819 -1.40673e-11
-1.67656e-11 -1.40673e-11 18.4514

17.0703 -1.55849 -4.35509e-11
-1.55849 18.9676 1.04074e-11
-4.35509e-11 1.04074e-11 18.2754

8.34661 -0.812192 1.65753e-11
-0.812192 8.18409 3.16302e-11
1.65753e-11 3.16302e-11 8.81994

8.53016 -0.670395 -2.69817e-11
-0.670395 8.26934 -1.02148e-11
-2.69817e-11 -1.02148e-11 8.88694

21.5347 1.07751 -4.29705e-11
1.07751 23.6885 3.38192e-11
-4.29705e-11 3.38192e-11 21.761

21.506 -1.13272 -1.91342e-10
-1.13272 23.5748 -9.7698e-11
-1.91342e-10 -9.7698e-11 21.7324

18.0001 -1.47519 3.85408e-11
-1.47519 17.1126 -1.83187e-12
3.85408e-11 -1.83187e-12 17.813

15.9252 -1.19097 2.58232e-11
-1.19097 16.6644 2.90036e-11
2.58232e-11 2.90036e-11 16.1552

17.3558 1.17383 -2.06193e-11
1.17383 18.2154 4.09504e-11
-2.06193e-11 4.09504e-11 18.0489

17.3468 -1.17336 -3.96966e-11
-1.17336 18.2041 -6.0509e-11
-3.96966e-11 -6.0509e-11 18.0396

16.2762 -1.38645 2.23532e-11
-1.38645 17.4518 -5.02978e-11
2.23532e-11 -5.02978e-11 16.9425

15.9406 1.20757 1.29112e-11
1.20757 16.635 2.41009e-12
1.29112e-11 2.41009e-12 16.1446

11.1996 -0.444158 2.31171e-12
-0.444158 12.4553 6.55346e-12
2.31171e-12 6.55346e-12 11.4361

11.1958 0.373574 1.61862e-11
0.373574 12.5224 -2.16804e-12
1.61862e-11 -2.16804e-12 11.4134

12.5202 0.319271 3.89302e-11
0.319271 10.9251 1.33942e-11
3.89302e-11 1.33942e-11 11.2938

16.2717 1.38299 1.7152e-11
1.38299 17.4376 4.35532e-11
1.7152e-11 4.35532e-11 16.9284

10.0712 -0.209537 2.81381e-11
-0.209537 11.4367 -1.33463e-11
2.81381e-11 -1.33463e-11 10.4924

11.6482 -0.126019 2.46689e-11
-0.126019 9.68058 -3.75681e-11
2.46689e-11 -3.75681e-11 10.4682

18.2222 -1.13554 -2.50514e-11
-1.13554 19.2521 -1.23321e-11
-2.50514e-11 -1.23321e-11 19.0019

18.2521 1.12989 1.36813e-11
1.12989 19.272 -2.49551e-11
1.36813e-11 -2.49551e-11 19.0216

18.4753 -0.861879 -2.98686e-11
-0.861879 19.4175 6.60981e-11
-2.98686e-11 6.60981e-11 19.175

18.4914 0.86165 2.15822e-11
0.86165 19.4033 -3.68058e-11
2.15822e-11 -3.68058e-11 19.1804

8.36796 0.746222 -5.58897e-11
0.746222 7.91663 2.4934e-11
-5.58897e-11 2.4934e-11 8.70692

8.26342 0.711605 -2.69673e-12
0.711605 7.92267 4.34725e-11
-2.69673e-12 4.34725e-11 8.65689

17.1699 1.07741 -1.8885e-11
1.07741 17.9158 2.12942e-11
-1.8885e-11 2.12942e-11 17.5166

17.167 -1.08459 -2.56291e-11
-1.08459 17.9212 -5.56925e-11
-2.56291e-11 -5.56925e-11 17.5141

20.3469 -1.04634 5.39579e-11
-1.04634 21.8327 -1.02516e-10
5.39579e-11 -1.02516e-10 20.7832

20.6619 0.470755 -3.46858e-11
0.470755 20.9077 -4.08513e-11
-3.46858e-11 -4.08513e-11 20.6567

18.2674 -1.17161 1.29106e-11
-1.17161 20.0445 -5.13559e-11
1.29106e-11 -5.13559e-11 19.3892

18.2728 1.17217 -7.51541e-12
1.17217 20.0179 -6.74473e-12
-7.51541e-12 -6.74473e-12 19.389

20.478 0.0778417 4.12387e-11
0.0778417 18.5881 4.42248e-11
4.12387e-11 4.42248e-11 19.8089

20.4714 -0.0668877 -2.50424e-12
-0.0668877 18.5943 -1.41153e-11
-2.50424e-12 -1.41153e-11 19.8088

17.9103 -1.32571 -5.01033e-12
-1.32571 18.031 -1.7922e-11
-5.01033e-12 -1.7922e-11 18.3746

17.9185 1.34263 1.07924e-11
1.34263 17.9522 1.93676e-11
1.07924e-11 1.93676e-11 18.3369

21.8602 0.323831 4.5863e-11
0.323831 20.1558 1.92735e-12
4.5863e-11 1.92735e-12 20.7471

21.9922 0.055172 -1.31036e-10
0.055172 20.9603 7.00437e-11
-1.31036e-10 7.00437e-11 21.1697

21.8704 -0.328442 -1.02902e-10
-0.328442 20.1712 3.56504e-11
-1.02902e-10 3.56504e-11 20.7582

21.9908 -0.0879372 -2.01756e-10
-0.0879372 20.8996 -2.40849e-12
-2.01756e-10 -2.40849e-12 21.1589

20.5707 0.0547443 -6.1656e-12
0.0547443 22.0256 1.19474e-11
-6.1656e-12 1.19474e-11 20.921

22.76 1.30596 -2.38945e-11
1.30596 21.7971 2.17751e-11
-2.38945e-11 2.17751e-11 21.2363

22.767 -1.30091 5.20285e-11
-1.30091 21.8065 -4.2877e-11
5.20285e-11 -4.2877e-11 21.2355

20.002 -0.6992 -1.88837e-11
-0.6992 23.3752 1.079e-11
-1.88837e-11 1.079e-11 21.1003

20.9106 -0.617798 -1.09263e-10
-0.617798 21.274 3.62564e-10
-1.09263e-10 3.62564e-10 20.9321

27.0252 -0.895138 -7.94081e-11
-0.895138 19.6902 -4.63884e-10
-7.94081e-11 -4.63884e-10 22.0812

20.8488 0.650698 1.04059e-10
0.650698 21.3926 2.19774e-10
1.04059e-10 2.19774e-10 20.962

27.0374 0.827527 1.32505e-09
0.827527 19.9632 -8.10091e-10
1.32505e-09 -8.10091e-10 22.16

21.357 -0.846102 -5.00942e-12
-0.846102 21.0007 -7.51524e-11
-5.00942e-12 -7.51524e-11 20.8684

19.8471 -0.58912 -7.70798e-12
-0.58912 20.7451 -5.81001e-11
-7.70798e-12 -5.81001e-11 20.2247

21.8523 -0.0487655 1.58006e-11
-0.0487655 21.0239 -1.13693e-11
1.58006e-11 -1.13693e-11 21.2222

21.3304 0.888298 -3.46864e-11
0.888298 21.0191 -3.9792e-11
-3.46864e-11 -3.9792e-11 20.877

19.8626 0.609328 -1.19473e-11
0.609328 20.7107 -3.66123e-12
-1.19473e-11 -3.66123e-12 20.2224

21.8774 0.0551115 -4.14296e-11
0.0551115 21.1904 -3.87321e-11
-4.14296e-11 -3.87321e-11 21.2779

19.7891 -0.486119 -4.04652e-12
-0.486119 20.5073 6.42655e-11
-4.04652e-12 6.42655e-11 20.2656

21.3518 -0.27222 4.16233e-11
-0.27222 20.9781 4.97159e-11
4.16233e-11 4.97159e-11 20.9084

19.8157 0.509147 -2.81344e-11
0.509147 20.5125 -2.1679e-11
-2.81344e-11 -2.1679e-11 20.2776

21.3664 0.28461 -7.03354e-11
0.28461 20.9898 -2.80381e-11
-7.03354e-11 -2.80381e-11 20.9189

15.0174 1.14878 -1.3875e-11
1.14878 16.3422 -1.50322e-11
-1.3875e-11 -1.50322e-11 15.3245

16.7354 0.231843 9.63949e-13
0.231843 19.1767 2.1584e-11
9.63949e-13 2.1584e-11 18.0878

17.7502 0.619682 2.50512e-11
0.619682 18.7023 9.64025e-13
2.50512e-11 9.64025e-13 18.1418

17.3595 -0.751508 2.11988e-11
-0.751508 14.8628 1.6573e-11
2.11988e-11 1.6573e-11 16.3168

16.5541 -0.459533 -2.1007e-11
-0.459533 14.2773 2.58228e-11
-2.1007e-11 2.58228e-11 15.3602

17.1599 0.352632 5.58838e-12
0.352632 20.4754 8.86458e-12
5.58838e-12 8.86458e-12 19.0745

17.9968 0.64025 3.31447e-11
0.64025 19.1474 -4.64414e-11
3.31447e-11 -4.64414e-11 18.9598

16.6069 -0.00439397 -4.04658e-12
-0.00439397 14.4373 -2.04285e-11
-4.04658e-12 -2.04285e-11 15.4564

18.7624 0.290687 -2.44733e-11
0.290687 16.1013 1.17546e-11
-2.44733e-11 1.17546e-11 18.1784

12.1045 0.993023 -1.54093e-12
0.993023 13.5597 -2.1199e-12
-1.54093e-12 -2.1199e-12 12.4157

11.6348 0.785166 -9.63629e-12
0.785166 13.4341 -2.31273e-11
-9.63629e-12 -2.31273e-11 12.2475

13.1212 0.787005 2.89198e-12
0.787005 11.716 -9.2504e-12
2.89198e-12 -9.2504e-12 12.0812

19.2888 -1.20222 -3.92145e-11
-1.20222 19.9563 1.83076e-11
-3.92145e-11 1.83076e-11 19.5839

19.1079 -0.504685 1.0792e-11
-0.504685 20.4375 -3.08283e-12
1.0792e-11 -3.08283e-12 19.648

16.6491 -1.38578 -1.02151e-11
-1.38578 16.4718 1.31039e-11
-1.02151e-11 1.31039e-11 16.6118

15.3405 1.11557 -9.05719e-12
1.11557 17.0867 1.73441e-11
-9.05719e-12 1.73441e-11 16.2411

16.7684 1.30367 -1.73439e-11
1.30367 18.3939 2.44733e-11
-1.73439e-11 2.44733e-11 17.8078

17.9242 -0.630215 2.69832e-12
-0.630215 19.1032 -3.21823e-11
2.69832e-12 -3.21823e-11 18.9015

17.0937 -0.417755 -1.09841e-11
-0.417755 20.4825 4.70208e-11
-1.09841e-11 4.70208e-11 19.0106

17.8151 0.35022 1.08875e-11
0.35022 15.0892 -3.2374e-11
1.08875e-11 -3.2374e-11 16.5205

13.1523 0.326734 1.54172e-11
0.326734 15.0143 -2.67878e-11
1.54172e-11 -2.67878e-11 13.4849

12.7261 0.144125 -2.78459e-11
0.144125 14.9497 -2.35115e-11
-2.78459e-11 -2.35115e-11 13.4293

14.7734 0.135913 -7.41988e-12
0.135913 12.7729 -3.85543e-13
-7.41988e-12 -3.85543e-13 13.2088

14.5666 0.784268 1.35049e-12
0.784268 16.4742 -6.55209e-12
1.35049e-12 -6.55209e-12 15.3795

14.8828 1.28299 7.51504e-12
1.28299 15.9764 -3.41098e-11
7.51504e-12 -3.41098e-11 15.1822

17.3281 0.217769 2.11986e-11
0.217769 14.9236 8.09298e-12
2.11986e-11 8.09298e-12 16.4401

11.3464 0.593501 -1.34709e-12
0.593501 12.4651 8.09493e-12
-1.34709e-12 8.09493e-12 11.2604

18.7377 -0.80368 1.07918e-11
-0.80368 16.0098 -3.85412e-11
1.07918e-11 -3.85412e-11 17.8604

19.2609 0.0610552 1.29111e-11
0.0610552 21.044 2.31219e-12
1.29111e-11 2.31219e-12 19.8433

19.7841 0.0175929 1.77281e-11
0.0175929 20.028 -7.51469e-12
1.77281e-11 -7.51469e-12 19.7682

23.8334 0.539828 1.19479e-11
0.539828 20.7905 5.20226e-12
1.19479e-11 5.20226e-12 21.4545

24.0484 -1.30003 1.3103e-11
-1.30003 21.867 -1.00197e-11
1.3103e-11 -1.00197e-11 21.6037

16.1025 -1.47079 7.32179e-12
-1.47079 16.4936 -1.3876e-11
7.32179e-12 -1.3876e-11 16.3866

14.5266 -1.18923 1.46452e-11
-1.18923 15.8475 1.88864e-11
1.46452e-11 1.88864e-11 15.148

14.5182 -0.409347 2.41867e-11
-0.409347 12.3194 1.2305e-15
2.41867e-11 1.2305e-15 13.0593

20.6418 0.209954 -2.11968e-11
0.209954 19.1804 -4.45132e-11
-2.11968e-11 -4.45132e-11 19.8358

20.6591 -0.767903 -3.84914e-13
-0.767903 19.2939 -2.38944e-11
-3.84914e-13 -2.38944e-11 19.7368

18.8168 -0.341609 -1.54167e-11
-0.341609 16.1442 -6.55209e-12
-1.54167e-11 -6.55209e-12 18.2087

18.5125 -0.101951 -3.6615e-11
-0.101951 15.4805 2.69774e-12
-3.6615e-11 2.69774e-12 17.8151

15.6684 -1.21257 5.78226e-12
-1.21257 14.4803 -3.46906e-12
5.78226e-12 -3.46906e-12 14.7375

15.7226 0.560481 5.92119e-16
0.560481 13.6968 -3.16049e-11
5.92119e-16 -3.16049e-11 14.4505

15.4583 -0.989534 7.69385e-13
-0.989534 13.5029 2.46663e-11
7.69385e-13 2.46663e-11 14.2778

15.9936 0.815788 1.04061e-11
0.815788 18.6092 -2.31243e-11
1.04061e-11 -2.31243e-11 17.8048

14.7104 -0.98523 1.6381e-11
-0.98523 16.4106 -1.61888e-11
1.6381e-11 -1.61888e-11 15.407

14.4574 0.946971 2.96788e-11
0.946971 15.8713 -2.77503e-11
2.96788e-11 -2.77503e-11 15.1577

8.99126 -1.504 -4.20144e-11
-1.504 9.0575 3.08453e-12
-4.20144e-11 3.08453e-12 8.96528

8.47353 0.925806 -2.42841e-11
0.925806 8.95481 2.50538e-11
-2.42841e-11 2.50538e-11 8.78743

16.9783 -1.12955 1.19477e-11
-1.12955 19.5263 -8.479e-12
1.19477e-11 -8.479e-12 18.7867

14.9049 0.748435 -4.2385e-12
0.748435 17.255 4.0855e-11
-4.2385e-12 4.0855e-11 16.3131

8.52861 0.156603 1.52253e-11
0.156603 8.66581 -4.23978e-12
1.52253e-11 -4.23978e-12 9.05406

8.73439 -0.304207 -2.13932e-11
-0.304207 9.19955 -8.67347e-12
-2.13932e-11 -8.67347e-12 9.23372

19.5703 -0.446968 -5.78581e-11
-0.446968 20.2492 -2.83277e-11
-5.78581e-11 -2.83277e-11 19.8834

19.4224 0.94816 7.75457e-12
0.94816 19.8109 3.08297e-12
7.75457e-12 3.08297e-12 19.808

18.9295 0.0103767 -1.73442e-11
0.0103767 15.6633 -2.06199e-11
-1.73442e-11 -2.06199e-11 17.3402

19.4752 -0.298605 -3.66373e-11
-0.298605 19.61 3.25664e-11
-3.66373e-11 3.25664e-11 19.7342

19.4515 0.885471 1.19702e-11
0.885471 19.8532 1.69573e-11
1.19702e-11 1.69573e-11 19.808

22.6518 0.974181 6.16659e-12
0.974181 20.1253 3.85444e-12
6.16659e-12 3.85444e-12 20.936

22.5135 -1.19164 -2.1969e-11
-1.19164 21.1912 3.46856e-11
-2.1969e-11 3.46856e-11 21.0276

18.242 -0.716128 4.10936e-11
-0.716128 18.3492 3.13621e-11
4.10936e-11 3.13621e-11 18.4893

18.1884 0.94814 4.64903e-11
0.94814 18.1234 1.11287e-11
4.64903e-11 1.11287e-11 18.4872

20.4178 -0.076211 -2.75553e-11
-0.076211 23.021 6.55184e-12
-2.75553e-11 6.55184e-12 20.9396

20.2901 0.341172 -3.85636e-13
0.341172 21.4786 1.2622e-11
-3.85636e-13 1.2622e-11 20.6574

14.8338 -1.35451 1.14654e-11
-1.35451 16.3798 1.73461e-12
1.14654e-11 1.73461e-12 15.3177

10.4885 0.142633 1.84997e-11
0.142633 11.9136 -3.04502e-11
1.84997e-11 -3.04502e-11 10.8916

11.8126 0.183899 -2.62105e-11
0.183899 10.6432 -2.81389e-11
-2.62105e-11 -2.81389e-11 10.888

15.6286 0.712621 3.17965e-11
0.712621 18.4207 -2.27388e-11
3.17965e-11 -2.27388e-11 17.431

16.4073 1.0471 9.24998e-12
1.0471 18.1187 1.50319e-11
9.24998e-12 1.50319e-11 17.4487

23.2468 -0.993676 7.88732e-11
-0.993676 21.4721 -6.32034e-11
7.88732e-11 -6.32034e-11 21.6835

23.1263 1.53954 3.92999e-11
1.53954 24.8954 2.81328e-11
3.92999e-11 2.81328e-11 22.3367

15.6027 0.957719 -3.35314e-11
0.957719 15.0941 -2.60176e-11
-3.35314e-11 -2.60176e-11 15.0048

17.2952 1.61962 -2.92909e-11
1.61962 18.9185 -1.54217e-12
-2.92909e-11 -1.54217e-12 18.3389

18.0252 0.614332 -3.35307e-11
0.614332 16.4253 1.92695e-12
-3.35307e-11 1.92695e-12 17.5223

18.0665 -0.487089 3.49292e-11
-0.487089 16.4364 -1.65721e-11
3.49292e-11 -1.65721e-11 17.4827

17.3383 1.53774 -1.54166e-11
1.53774 18.3711 -1.52244e-11
-1.54166e-11 -1.52244e-11 18.1626

17.7433 -1.51816 -2.26421e-11
-1.51816 19.4 -2.56295e-11
-2.26421e-11 -2.56295e-11 18.8459

20.0318 -1.29808 -1.00219e-11
-1.29808 17.8882 -4.62597e-12
-1.00219e-11 -4.62597e-12 19.1483

14.5 -0.115727 3.8448e-11
-0.115727 12.4185 -7.70765e-12
3.8448e-11 -7.70765e-12 13.103

24.6839 0.181978 -7.28399e-11
0.181978 23.7307 -4.66342e-11
-7.28399e-11 -4.66342e-11 22.194

24.7664 -0.113451 4.62491e-11
-0.113451 21.6876 -4.20056e-11
4.62491e-11 -4.20056e-11 21.9174

16.1873 1.1792 -2.52448e-11
1.1792 15.667 8.47975e-12
-2.52448e-11 8.47975e-12 15.9915

17.9902 0.447768 2.51497e-11
0.447768 15.7615 9.24942e-12
2.51497e-11 9.24942e-12 16.8035

13.5254 1.00606 8.28822e-12
1.00606 13.9867 3.08246e-12
8.28822e-12 3.08246e-12 13.1698

20.8158 0.240689 4.74031e-11
0.240689 21.5587 2.35099e-11
4.74031e-11 2.35099e-11 20.9588

21.5545 0.698301 1.20434e-10
0.698301 23.7515 1.88851e-11
1.20434e-10 1.88851e-11 21.4582

20.055 0.643935 -2.08126e-11
0.643935 17.661 -3.68058e-11
-2.08126e-11 -3.68058e-11 19.2611

16.6721 -0.272555 -1.92832e-13
-0.272555 19.22 2.11983e-11
-1.92832e-13 2.11983e-11 18.0438

17.7094 -0.583365 -2.50521e-12
-0.583365 18.7564 9.24953e-12
-2.50521e-12 9.24953e-12 18.1267

19.2383 0.187344 -4.74493e-12
0.187344 16.0973 -1.42608e-11
-4.74493e-12 -1.42608e-11 17.9816

19.3346 -0.144972 -1.22615e-11
-0.144972 16.0699 -7.90179e-12
-1.22615e-11 -7.90179e-12 17.9687

13.967 -1.008 -3.85295e-12
-1.008 13.4978 -2.89075e-11
-3.85295e-12 -2.89075e-11 13.056

17.1388 0.00323544 1.58832e-12
0.00323544 14.4237 -1.5609e-11
1.58832e-12 -1.5609e-11 15.5246

19.6783 -0.162229 -6.46767e-11
-0.162229 17.4027 1.15558e-12
-6.46767e-11 1.15558e-12 18.8334

19.419 0.332455 1.02132e-11
0.332455 17.6265 -1.54154e-12
1.02132e-11 -1.54154e-12 18.8482

18.0666 -0.41831 -8.96289e-12
-0.41831 16.0324 3.89264e-11
-8.96289e-12 3.89264e-11 16.832

15.1706 -1.19596 1.77291e-11
-1.19596 16.5511 1.05978e-11
1.77291e-11 1.05978e-11 15.5353

19.5789 -0.0943151 4.62497e-12
-0.0943151 17.005 -4.62543e-12
4.62497e-12 -4.62543e-12 18.2893

19.4208 0.213389 8.81708e-12
0.213389 16.9291 -7.13047e-12
8.81708e-12 -7.13047e-12 18.2812

17.7586 0.487308 2.91e-11
0.487308 15.821 5.78117e-12
2.91e-11 5.78117e-12 16.975

14.0988 -1.52172 4.89492e-11
-1.52172 13.8976 -3.85247e-13
4.89492e-11 -3.85247e-13 13.817

16.639 1.46877 3.1604e-11
1.46877 17.9894 4.24108e-12
3.1604e-11 4.24108e-12 18.0226

17.4324 1.44383 1.21402e-11
1.44383 19.1466 -2.89034e-12
1.21402e-11 -2.89034e-12 18.4987

16.4999 1.08896 -2.40879e-11
1.08896 18.1386 -1.04066e-11
-2.40879e-11 -1.04066e-11 18.1577

15.8712 0.531098 -1.91752e-11
0.531098 13.531 5.39672e-12
-1.91752e-11 5.39672e-12 14.452

12.4311 -1.04937 1.56108e-11
-1.04937 11.5107 -2.69903e-12
1.56108e-11 -2.69903e-12 11.5329

17.9282 0.886675 2.27378e-11
0.886675 16.6983 -3.10267e-11
2.27378e-11 -3.10267e-11 17.676

17.6975 -0.944756 2.06196e-11
-0.944756 15.7621 -1.11759e-11
2.06196e-11 -1.11759e-11 16.7479

12.6214 -0.909399 3.08168e-12
-0.909399 11.453 8.86529e-12
3.08168e-12 8.86529e-12 11.611

16.274 -1.51666 -1.7345e-12
-1.51666 15.2577 -1.92737e-12
-1.7345e-12 -1.92737e-12 15.8479

16.0827 0.0389952 -1.98496e-11
0.0389952 17.8199 1.00207e-11
-1.98496e-11 1.00207e-11 17.2445

15.372 0.000154352 8.67199e-12
0.000154352 18.7676 1.8501e-11
8.67199e-12 1.8501e-11 17.3385

14.4131 1.29303 -8.09184e-12
1.29303 14.5275 -1.75372e-11
-8.09184e-12 -1.75372e-11 14.219

13.5514 -1.07568 -3.46922e-12
-1.07568 12.0439 2.58246e-11
-3.46922e-12 2.58246e-11 12.3911

17.2829 -1.57469 1.42607e-11
-1.57469 17.8247 -2.04268e-11
1.42607e-11 -2.04268e-11 18.0478

14.4416 -1.4062 -6.84162e-12
-1.4062 15.1676 -2.89043e-12
-6.84162e-12 -2.89043e-12 14.3503

14.2507 -1.42213 2.52477e-11
-1.42213 14.8903 -1.88852e-11
2.52477e-11 -1.88852e-11 14.2372

17.5707 0.727365 2.46651e-11
0.727365 16.2011 -1.32988e-11
2.46651e-11 -1.32988e-11 16.8899

19.9232 0.460476 -4.43225e-11
0.460476 15.7993 4.1431e-11
-4.43225e-11 4.1431e-11 18.8028

19.782 -0.725471 -3.69991e-11
-0.725471 16.3525 -3.27596e-11
-3.69991e-11 -3.27596e-11 18.786

13.9374 0.808796 1.96562e-11
0.808796 15.7768 8.28689e-12
1.96562e-11 8.28689e-12 14.5769

13.4605 0.551711 -9.9248e-12
0.551711 16.0227 -5.01095e-12
-9.9248e-12 -5.01095e-12 14.6201

11.9549 -0.116996 8.09473e-12
-0.116996 14.3885 -1.92809e-13
8.09473e-12 -1.92809e-13 12.7927

11.6593 -0.156231 -2.15842e-11
-0.156231 14.4733 -9.63592e-12
-2.15842e-11 -9.63592e-12 12.7854

14.3444 -0.102914 1.44496e-12
-0.102914 11.6888 7.13142e-12
1.44496e-12 7.13142e-12 12.6127

14.8042 -1.2813 -1.61885e-11
-1.2813 14.0595 -1.25263e-11
-1.61885e-11 -1.25263e-11 14.1695

21.1932 -0.947832 -9.94315e-11
-0.947832 22.6264 4.87553e-11
-9.94315e-11 4.87553e-11 21.433

25.2131 -0.377042 5.83852e-11
-0.377042 25.2231 4.5473e-11
5.83852e-11 4.5473e-11 22.6423

15.1626 0.903665 -2.83286e-11
0.903665 13.6466 3.19899e-11
-2.83286e-11 3.19899e-11 14.1921

16.0616 -0.61533 1.95604e-11
-0.61533 13.6665 -1.6574e-11
1.95604e-11 -1.6574e-11 14.5903

12.7292 0.564778 1.90792e-11
0.564778 11.4258 2.17772e-11
1.90792e-11 2.17772e-11 11.7004

15.6311 0.926937 -1.82107e-11
0.926937 17.553 1.04068e-11
-1.82107e-11 1.04068e-11 17.0645

18.9293 0.0161336 7.17865e-12
0.0161336 15.6821 7.32207e-12
7.17865e-12 7.32207e-12 17.323

17.6578 1.41542 -3.02547e-11
1.41542 19.3182 -1.19482e-11
-3.02547e-11 -1.19482e-11 18.8599

16.5968 1.12406 -2.37985e-11
1.12406 19.5232 -3.54578e-11
-2.37985e-11 -3.54578e-11 18.7735

13.0897 0.727057 6.25351e-11
0.727057 13.8733 -1.91745e-11
6.25351e-11 -1.91745e-11 13.0182

13.5734 0.809205 -1.22378e-11
0.809205 13.3541 2.15851e-11
-1.22378e-11 2.15851e-11 12.9067

17.0852 -1.70878 3.56603e-12
-1.70878 18.7597 -3.27603e-11
3.56603e-12 -3.27603e-11 18.1381

12.8442 0.456355 1.92724e-11
0.456355 11.4625 -3.08332e-11
1.92724e-11 -3.08332e-11 11.7771

16.4978 1.26196 -8.14124e-12
1.26196 17.7692 -4.16253e-11
-8.14124e-12 -4.16253e-11 18.1425

16.3894 1.53893 -2.29308e-11
1.53893 17.8289 1.88851e-11
-2.29308e-11 1.88851e-11 17.1369

20.004 -0.021608 2.56305e-11
-0.021608 16.153 -1.50299e-11
2.56305e-11 -1.50299e-11 18.378

16.9455 -1.16571 9.63448e-12
-1.16571 17.8696 3.04473e-11
9.63448e-12 3.04473e-11 18.2242

16.3249 1.25802 -1.67675e-11
1.25802 16.4078 -9.63466e-12
-1.67675e-11 -9.63466e-12 16.2608

13.4689 -0.615914 3.85472e-12
-0.615914 15.1836 -1.48396e-11
3.85472e-12 -1.48396e-11 13.7372

12.9638 -0.586685 -5.35752e-11
-0.586685 15.176 1.19486e-11
-5.35752e-11 1.19486e-11 13.6584

14.924 -0.43652 -2.49563e-11
-0.43652 13.1657 -1.32958e-11
-2.49563e-11 -1.32958e-11 13.4734

15.1726 -1.15087 2.31237e-12
-1.15087 15.3428 -3.64224e-11
2.31237e-12 -3.64224e-11 14.792

14.8913 -0.075829 -2.04259e-11
-0.075829 17.5348 -6.16721e-12
-2.04259e-11 -6.16721e-12 16.1104

15.7816 -0.0105938 -2.60156e-11
-0.0105938 17.3393 1.48393e-11
-2.60156e-11 1.48393e-11 16.1869

12.6144 -1.23244 -1.54191e-12
-1.23244 13.181 -3.43029e-11
-1.54191e-12 -3.43029e-11 12.3994

12.2674 -1.19798 -3.5654e-11
-1.19798 13.3763 3.73864e-11
-3.5654e-11 3.73864e-11 12.4209

20.0266 -0.0614531 -9.39568e-13
-0.0614531 16.4353 9.63502e-12
-9.39568e-13 9.63502e-12 18.4616

20.1187 0.0640773 1.16828e-11
0.0640773 16.3878 -1.15619e-12
1.16828e-11 -1.15619e-12 18.4549

16.2178 1.17546 2.09079e-11
1.17546 17.3552 8.09464e-12
2.09079e-11 8.09464e-12 17.2938

16.5763 -0.991175 -3.84896e-13
-0.991175 19.3547 -1.0407e-11
-3.84896e-13 -1.0407e-11 18.6966

17.7751 -1.52317 1.98477e-11
-1.52317 16.9292 -7.32257e-12
1.98477e-11 -7.32257e-12 17.6188

19.0618 0.579463 8.09375e-12
0.579463 18.4379 3.62281e-11
8.09375e-12 3.62281e-11 19.0794

19.3072 -0.174467 -2.50278e-11
-0.174467 18.7319 9.53761e-12
-2.50278e-11 9.53761e-12 19.1508

18.3509 -0.633514 1.56101e-11
-0.633514 17.652 1.93493e-13
1.56101e-11 1.93493e-13 17.8851

18.1975 0.763562 -2.89145e-12
0.763562 17.1733 -1.54165e-11
-2.89145e-12 -1.54165e-11 17.8129

8.35466 -0.638003 -1.98507e-11
-0.638003 6.95911 -1.02137e-11
-1.98507e-11 -1.02137e-11 8.69076

14.1383 1.21064 -3.46873e-12
1.21064 14.8994 -5.82e-11
-3.46873e-12 -5.82e-11 14.2728

7.49566 0.440701 -5.82033e-11
0.440701 8.41174 1.23333e-11
-5.82033e-11 1.23333e-11 8.80282

16.5615 1.36321 8.09327e-12
1.36321 17.3271 1.94641e-11
8.09327e-12 1.94641e-11 17.0512

14.0677 -0.954446 -2.11969e-11
-0.954446 16.1133 2.60162e-11
-2.11969e-11 2.60162e-11 14.7738

13.4959 -0.850877 -3.12178e-11
-0.850877 15.9923 -2.19688e-11
-3.12178e-11 -2.19688e-11 14.6572

21.2383 -0.292097 5.73762e-11
-0.292097 20.8977 3.77689e-11
5.73762e-11 3.77689e-11 20.8381

20.7762 0.804065 -6.95743e-11
0.804065 21.6675 1.07897e-11
-6.95743e-11 1.07897e-11 20.9069

16.7222 0.903462 1.25276e-11
0.903462 16.0222 5.78258e-12
1.25276e-11 5.78258e-12 16.3444

17.1742 -0.0912656 1.96556e-11
-0.0912656 14.564 4.62511e-12
1.96556e-11 4.62511e-12 15.5567

14.7319 1.01244 -1.33945e-11
1.01244 13.7946 -2.31291e-11
-1.33945e-11 -2.31291e-11 14.0722

15.7507 -0.584899 -1.71505e-11
-0.584899 18.7322 2.27393e-11
-1.71505e-11 2.27393e-11 17.5046

16.4502 -0.965053 3.29518e-11
-0.965053 18.1706 1.90777e-11
3.29518e-11 1.90777e-11 17.4844

17.2561 -1.75359 -2.20167e-11
-1.75359 19.4398 2.89064e-11
-2.20167e-11 2.89064e-11 18.4664

16.8242 -0.972628 -4.17217e-11
-0.972628 16.4497 -1.11776e-11
-4.17217e-11 -1.11776e-11 16.3971

17.1173 1.63301 5.20308e-12
1.63301 18.8835 9.44278e-12
5.20308e-12 9.44278e-12 18.3119

19.1988 0.754402 -1.6765e-11
0.754402 20.273 -1.41647e-11
-1.6765e-11 -1.41647e-11 19.6812

19.2281 1.14364 -1.04059e-11
1.14364 19.8132 -1.93662e-11
-1.04059e-11 -1.93662e-11 19.581

16.5891 -1.53453 -5.10662e-11
-1.53453 18.3819 -8.28517e-12
-5.10662e-11 -8.28517e-12 17.4773

16.7129 1.39372 -2.89032e-12
1.39372 18.0485 -9.05664e-12
-2.89032e-12 -9.05664e-12 17.4062

15.6399 1.7563 -9.1529e-12
1.7563 18.0903 -2.23545e-11
-9.1529e-12 -2.23545e-11 18.0162

14.1189 0.164735 -1.31992e-11
0.164735 17.1467 -1.92723e-11
-1.31992e-11 -1.92723e-11 15.6274

14.6084 0.382492 1.52245e-11
0.382492 16.7398 5.78226e-12
1.52245e-11 5.78226e-12 15.5562

16.8544 1.08156 -2.96767e-11
1.08156 16.6696 -1.65734e-11
-2.96767e-11 -1.65734e-11 17.0746

15.0861 0.908957 -1.25285e-12
0.908957 14.974 -2.7751e-11
-1.25285e-12 -2.7751e-11 14.7712

15.0681 -0.942378 1.15615e-12
-0.942378 17.2617 2.38951e-11
1.15615e-12 2.38951e-11 16.3756

17.708 -1.64875 4.26838e-11
-1.64875 19.5091 -1.69592e-11
4.26838e-11 -1.69592e-11 18.8429

10.0074 0.545373 1.86938e-11
0.545373 10.7824 -7.70802e-12
1.86938e-11 -7.70802e-12 10.0906

10.6088 0.568582 1.30101e-11
0.568582 10.1644 -1.54395e-12
1.30101e-11 -1.54395e-12 10.0886

13.0065 -1.21814 1.54146e-11
-1.21814 13.3083 1.69592e-11
1.54146e-11 1.69592e-11 12.7088

16.9141 -1.13144 -1.63786e-11
-1.13144 17.0586 -1.84984e-11
-1.63786e-11 -1.84984e-11 17.0957

17.8223 -0.337017 3.90388e-12
-0.337017 15.0985 3.86247e-13
3.90388e-12 3.86247e-13 16.4998

22.6528 1.22852 1.02515e-10
1.22852 23.3344 2.27411e-11
1.02515e-10 2.27411e-11 21.8903

23.6283 -1.33881 -5.2441e-11
-1.33881 21.6945 1.41631e-10
-5.2441e-11 1.41631e-10 21.7611

16.4371 -1.67585 -2.41846e-11
-1.67585 18.1666 2.21618e-11
-2.41846e-11 2.21618e-11 17.2945

20.6756 0.310848 1.54159e-11
0.310848 19.953 1.13695e-11
1.54159e-11 1.13695e-11 20.3884

21.1729 -1.27349 -4.81746e-11
-1.27349 21.2178 1.50314e-11
-4.81746e-11 1.50314e-11 20.6512

17.903 -0.442402 -1.13691e-11
-0.442402 15.4452 -3.85474e-13
-1.13691e-11 -3.85474e-13 17.077

15.9787 -1.74029 2.06195e-11
-1.74029 18.0093 -5.01083e-12
2.06195e-11 -5.01083e-12 18.0261

10.5021 -1.06381 -1.63811e-11
-1.06381 10.9587 -1.81151e-11
-1.63811e-11 -1.81151e-11 10.4806

10.8966 0.775761 -1.00227e-11
0.775761 10.8551 1.26239e-11
-1.00227e-11 1.26239e-11 10.5658

10.8486 -0.633657 1.13704e-11
-0.633657 12.3784 -2.29355e-11
1.13704e-11 -2.29355e-11 11.2138

11.0762 -0.695633 -1.73326e-12
-0.695633 12.5671 -8.47925e-12
-1.73326e-12 -8.47925e-12 11.4155

12.5194 -0.52758 1.97534e-11
-0.52758 10.8593 -2.63076e-11
1.97534e-11 -2.63076e-11 11.2191

13.3905 0.941319 2.37041e-11
0.941319 13.2021 6.91867e-11
2.37041e-11 6.91867e-11 12.8551

17.0892 -1.86438 -1.18505e-11
-1.86438 19.1911 -2.02341e-11
-1.18505e-11 -2.02341e-11 18.3387

9.84285 0.0949123 1.34902e-11
0.0949123 11.7673 -1.02137e-11
1.34902e-11 -1.02137e-11 10.5238

11.6178 -0.281924 1.96588e-11
-0.281924 9.78255 3.08408e-12
1.96588e-11 3.08408e-12 10.5162

20.0737 0.14634 -1.3105e-11
0.14634 22.0155 -1.11764e-11
-1.3105e-11 -1.11764e-11 20.527

19.9851 -0.758795 -4.4321e-12
-0.758795 20.7053 1.5414e-12
-4.4321e-12 1.5414e-12 20.2799

18.9644 -0.868991 -8.09325e-12
-0.868991 17.1558 3.73848e-11
-8.09325e-12 3.73848e-11 18.1679

18.8875 -0.0543197 -3.58444e-11
-0.0543197 14.7339 4.23914e-12
-3.58444e-11 4.23914e-12 17.9826

12.4957 -0.933912 -3.44955e-11
-0.933912 14.2244 -1.00226e-11
-3.44955e-11 -1.00226e-11 13.1336

12.947 -0.931402 1.40677e-11
-0.931402 14.5224 -6.16655e-12
1.40677e-11 -6.16655e-12 13.3074

18.1045 -0.0517032 -1.52241e-11
-0.0517032 15.4017 1.73437e-11
-1.52241e-11 1.73437e-11 17.1724

15.5481 -1.28104 4.35516e-11
-1.28104 17.4402 -1.54254e-12
4.35516e-11 -1.54254e-12 16.4791

20.7619 0.0213886 -1.60185e-11
0.0213886 20.1276 6.33981e-11
-1.60185e-11 6.33981e-11 20.3434

20.2557 0.382001 -3.04227e-11
0.382001 20.4904 4.70181e-11
-3.04227e-11 4.70181e-11 20.3298

18.2787 -1.2063 7.70772e-12
-1.2063 17.467 -2.69724e-12
7.70772e-12 -2.69724e-12 17.9788

16.3982 -1.23236 -1.31036e-11
-1.23236 17.2287 -3.31458e-11
-1.31036e-11 -3.31458e-11 17.2205

18.5934 -0.866453 -4.04734e-12
-0.866453 15.8396 1.92607e-12
-4.04734e-12 1.92607e-12 17.6152

15.929 -1.0852 2.96768e-11
-1.0852 17.5743 -1.0407e-11
2.96768e-11 -1.0407e-11 17.1284

8.41241 -2.06599 -1.96597e-11
-2.06599 8.61264 8.01747e-11
-1.96597e-11 8.01747e-11 8.6051

14.8173 -0.475933 -7.51573e-12
-0.475933 16.731 3.29534e-11
-7.51573e-12 3.29534e-11 15.6233

14.3033 -0.358435 -3.19892e-11
-0.358435 17.1396 -1.19478e-11
-3.19892e-11 -1.19478e-11 15.6568

19.8487 -0.175358 2.79419e-11
-0.175358 22.8575 -1.18705e-10
2.79419e-11 -1.18705e-10 20.7083

20.0959 -0.207162 -1.44522e-11
-0.207162 20.5863 8.38303e-12
-1.44522e-11 8.38303e-12 20.3645

20.4243 -0.115981 1.3104e-11
-0.115981 16.9937 -8.67133e-12
1.3104e-11 -8.67133e-12 19.0005

20.1623 0.0578099 -1.83551e-11
0.0578099 17.1227 -7.32267e-12
-1.83551e-11 -7.32267e-12 18.9886

18.808 0.90484 -2.10045e-11
0.90484 18.2729 -3.17968e-11
-2.10045e-11 -3.17968e-11 18.9118

19.1555 -1.62479 1.65724e-11
-1.62479 18.1612 -1.27203e-11
1.65724e-11 -1.27203e-11 18.8532

20.7654 0.322721 5.0102e-11
0.322721 20.594 2.73628e-11
5.0102e-11 2.73628e-11 20.4019

21.4418 -0.578959 -4.50922e-11
-0.578959 20.6216 2.17745e-11
-4.50922e-11 2.17745e-11 20.4825

22.1113 -0.633387 2.14611e-11
-0.633387 21.4043 4.47062e-11
2.14611e-11 4.47062e-11 21.3073

22.3038 1.9029 4.35503e-11
1.9029 23.1314 7.47691e-11
4.35503e-11 7.47691e-11 21.6926

17.8389 -1.67955 9.25001e-12
-1.67955 19.6035 4.04659e-12
9.25001e-12 4.04659e-12 18.9732

17.0131 2.07916 -7.80292e-12
2.07916 18.4005 -4.47086e-11
-7.80292e-12 -4.47086e-11 18.7117

16.5395 0.838478 6.16866e-12
0.838478 15.1804 3.08338e-11
6.16866e-12 3.08338e-11 15.9297

15.3241 -0.715673 -3.10256e-11
-0.715673 17.6551 -1.96567e-11
-3.10256e-11 -1.96567e-11 16.5919

16.1623 -1.08628 2.30295e-11
-1.08628 17.7112 -3.10275e-11
2.30295e-11 -3.10275e-11 16.716

16.6175 -0.881145 -2.41089e-12
-0.881145 15.4231 2.4473e-11
-2.41089e-12 2.4473e-11 15.9641

16.1005 0.81816 1.92762e-12
0.81816 17.4868 -1.44534e-11
1.92762e-12 -1.44534e-11 16.5973

15.308 0.48207 3.61799e-11
0.48207 17.7135 -1.77288e-11
3.61799e-11 -1.77288e-11 16.5796

15.6453 1.15866 7.51582e-12
1.15866 15.5891 7.70902e-13
7.51582e-12 7.70902e-13 15.6806

18.0869 1.3933 1.32965e-11
1.3933 19.2639 3.08348e-12
1.32965e-11 3.08348e-12 19.0215

17.8066 -1.86195 1.36805e-11
-1.86195 18.5597 3.62284e-11
1.36805e-11 3.62284e-11 18.8502

15.8361 -1.41874 -2.64978e-11
-1.41874 15.9553 -4.04687e-12
-2.64978e-11 -4.04687e-12 15.7319

19.163 0.410465 5.78071e-12
0.410465 17.3939 -2.21603e-11
5.78071e-12 -2.21603e-11 18.4634

25.1453 -0.629032 -2.85178e-11
-0.629032 24.7857 -2.38945e-11
-2.85178e-11 -2.38945e-11 22.5188

21.418 0.383409 1.00589e-10
0.383409 21.7815 1.49362e-11
1.00589e-10 1.49362e-11 21.293

17.5023 -1.40845 -1.01178e-11
-1.40845 18.8887 4.47084e-11
-1.01178e-11 4.47084e-11 18.183

17.9416 -1.39391 6.93697e-12
-1.39391 16.4546 6.5515e-12
6.93697e-12 6.5515e-12 17.445

20.7385 -0.119654 2.69729e-12
-0.119654 19.2224 1.5801e-11
2.69729e-12 1.5801e-11 19.836

10.4467 -0.977718 -9.05801e-12
-0.977718 10.8236 2.23553e-11
-9.05801e-12 2.23553e-11 10.2519

10.9176 -0.872592 -4.22057e-11
-0.872592 10.3191 -3.95084e-12
-4.22057e-11 -3.95084e-12 10.267

20.6751 0.0977162 2.99173e-11
0.0977162 17.6993 1.05986e-11
2.99173e-11 1.05986e-11 19.3706

20.1801 -0.0764601 -4.81046e-11
-0.0764601 17.8265 -6.93727e-12
-4.81046e-11 -6.93727e-12 19.306

20.7904 -0.0193299 -2.00418e-11
-0.0193299 18.4302 -1.90763e-11
-2.00418e-11 -1.90763e-11 19.7923

16.1648 0.593453 -1.31034e-11
0.593453 14.4737 -1.50312e-11
-1.31034e-11 -1.50312e-11 14.9591

18.3627 -0.8953 4.61525e-11
-0.8953 19.055 1.00208e-11
4.61525e-11 1.00208e-11 18.7047

18.1787 1.08821 2.83733e-11
1.08821 18.2073 2.00405e-11
2.83733e-11 2.00405e-11 18.5712

23.2502 -0.998144 1.73414e-11
-0.998144 21.0259 7.47008e-12
1.73414e-11 7.47008e-12 21.5394

24.4135 -0.10595 4.43199e-11
-0.10595 25.4634 1.33353e-10
4.43199e-11 1.33353e-10 22.532

16.6609 -1.58202 -2.89178e-12
-1.58202 18.5979 4.47082e-11
-2.89178e-12 4.47082e-11 17.8301

17.4641 -1.10877 1.31054e-11
-1.10877 15.7664 -8.86557e-12
1.31054e-11 -8.86557e-12 16.6139

19.7701 0.241738 1.59708e-11
0.241738 18.851 -1.3489e-11
1.59708e-11 -1.3489e-11 19.357

20.0411 0.0410017 -5.75702e-11
0.0410017 18.6519 -1.17553e-11
-5.75702e-11 -1.17553e-11 19.3475

16.7675 -0.635425 8.28632e-12
-0.635425 18.69 -1.04067e-11
8.28632e-12 -1.04067e-11 18.0762

16.5563 -1.16579 3.17959e-11
-1.16579 17.9677 3.27626e-12
3.17959e-11 3.27626e-12 18.0895

8.80911 1.74776 1.9851e-11
1.74776 8.53059 7.70967e-12
1.9851e-11 7.70967e-12 8.71518

18.7784 0.933413 1.46452e-11
0.933413 19.9333 4.23948e-11
1.46452e-11 4.23948e-11 19.5267

18.7028 -1.21466 -7.13023e-12
-1.21466 19.7466 4.33581e-11
-7.13023e-12 4.33581e-11 19.4403

16.1563 -1.10291 2.4473e-11
-1.10291 18.2061 -2.54375e-11
2.4473e-11 -2.54375e-11 17.7634

16.4381 -0.742353 4.22038e-11
-0.742353 14.901 -4.43268e-12
4.22038e-11 -4.43268e-12 15.1627

18.2799 0.808085 1.79213e-11
0.808085 18.018 -1.44541e-11
1.79213e-11 -1.44541e-11 18.2001

19.018 0.849095 -9.05605e-12
0.849095 19.1606 1.88837e-11
-9.05605e-12 1.88837e-11 19.1766

19.4903 -1.30816 5.20389e-12
-1.30816 18.3905 -1.15612e-11
5.20389e-12 -1.15612e-11 19.0733

18.7493 0.326009 2.25483e-11
0.326009 15.9377 -7.69903e-13
2.25483e-11 -7.69903e-13 17.8672

20.6118 -0.151693 -1.69576e-11
-0.151693 19.6964 1.92648e-12
-1.69576e-11 1.92648e-12 20.1067

20.9916 0.237779 3.22542e-11
0.237779 19.1756 -3.10238e-11
3.22542e-11 -3.10238e-11 20.0736

21.7571 0.434534 -6.12764e-11
0.434534 24.6713 3.27577e-11
-6.12764e-11 3.27577e-11 21.7388

21.2259 0.0824823 2.69696e-12
0.0824823 22.9583 5.02948e-11
2.69696e-12 5.02948e-11 21.3936

8.64617 -0.446826 6.16733e-12
-0.446826 7.50275 -2.4284e-11
6.16733e-12 -2.4284e-11 8.85612

7.06578 -0.296639 2.60169e-11
-0.296639 8.76126 1.03688e-10
2.60169e-11 1.03688e-10 8.78907

17.639 -1.39201 -1.1562e-12
-1.39201 19.3259 -1.6573e-11
-1.1562e-12 -1.6573e-11 18.5012

17.3481 1.20698 -1.30048e-12
1.20698 18.1104 6.16672e-11
-1.30048e-12 6.16672e-11 18.3172

17.1578 -1.86456 1.98488e-11
-1.86456 19.1991 -1.79221e-11
1.98488e-11 -1.79221e-11 18.3166

8.4748 0.476764 3.62335e-11
0.476764 8.40637 -1.83078e-11
3.62335e-11 -1.83078e-11 8.89068

8.61878 0.718822 -6.49472e-11
0.718822 8.14748 -1.5424e-12
-6.49472e-11 -1.5424e-12 8.87667

19.7534 1.52382 9.02549e-11
1.52382 24.613 1.50692e-10
9.02549e-11 1.50692e-10 21.6102

21.4093 -1.20472 -2.10588e-11
-1.20472 23.7074 2.16978e-10
-2.10588e-11 2.16978e-10 21.7622

17.5108 1.12565 -3.16031e-11
1.12565 17.5609 1.94622e-11
-3.16031e-11 1.94622e-11 17.7689

15.9565 -1.34215 -5.68494e-11
-1.34215 16.751 -2.69769e-12
-5.68494e-11 -2.69769e-12 16.1706

17.3655 -1.33372 1.3682e-11
-1.33372 18.3818 1.38744e-11
1.3682e-11 1.38744e-11 18.0751

17.2857 1.34302 2.71205e-11
1.34302 17.7938 6.62931e-11
2.71205e-11 6.62931e-11 18.0353

16.3347 -1.55738 -2.96765e-11
-1.55738 17.5798 5.78163e-12
-2.96765e-11 5.78163e-12 16.9716

15.7685 1.08213 5.62712e-11
1.08213 16.3513 -1.00191e-11
5.62712e-11 -1.00191e-11 16.1204

10.852 -0.567467 -6.74569e-12
-0.567467 12.5511 2.08136e-11
-6.74569e-12 2.08136e-11 11.3932

11.1965 -0.487712 1.05997e-11
-0.487712 12.5622 -2.60179e-11
1.05997e-11 -2.60179e-11 11.4106

12.6249 -0.39685 3.43043e-11
-0.39685 11.0195 1.11774e-11
3.43043e-11 1.11774e-11 11.344

16.059 1.21447 1.43565e-11
1.21447 17.0183 1.92755e-12
1.43565e-11 1.92755e-12 16.8851

9.86598 -0.062612 1.27195e-11
-0.062612 11.688 -1.19484e-11
1.27195e-11 -1.19484e-11 10.5361

11.6152 0.124633 -1.64793e-11
0.124633 10.0626 4.23971e-11
-1.64793e-11 4.23971e-11 10.5273

18.2452 -1.2739 7.91517e-11
-1.2739 19.4748 -5.78227e-13
7.91517e-11 -5.78227e-13 19.0462

18.1485 1.54794 -2.64481e-11
1.54794 18.5304 7.55387e-11
-2.64481e-11 7.55387e-11 18.9372

18.4928 -1.01374 7.86709e-11
-1.01374 19.6623 -1.50312e-11
7.86709e-11 -1.50312e-11 19.2268

18.4291 1.36885 -1.49475e-12
1.36885 19.3216 1.42597e-11
-1.49475e-12 1.42597e-11 19.213

8.10032 -0.911843 5.12652e-11
-0.911843 8.23546 -5.28079e-11
5.12652e-11 -5.28079e-11 8.69057

8.08617 -0.888998 9.92495e-12
-0.888998 8.33144 6.93843e-11
9.92495e-12 6.93843e-11 8.7235

17.0293 1.13265 -2.77503e-11
1.13265 17.28 5.01014e-12
-2.77503e-11 5.01014e-12 17.443

17.1708 -1.22894 -2.9869e-11
-1.22894 18.0705 8.48105e-12
-2.9869e-11 8.48105e-12 17.5401

20.8755 -0.32132 -5.66525e-11
-0.32132 22.3109 2.25454e-11
-5.66525e-11 2.25454e-11 20.8876

20.5043 -0.384664 -1.25259e-11
-0.384664 20.8172 -1.0596e-12
-1.25259e-11 -1.0596e-12 20.5893

18.3097 -1.3263 1.26212e-11
-1.3263 20.3296 3.48794e-11
1.26212e-11 3.48794e-11 19.4483

17.7968 1.41799 -1.82578e-11
1.41799 19.7043 7.39973e-11
-1.82578e-11 7.39973e-11 19.3128

20.4089 -0.0160459 -6.72111e-12
-0.0160459 18.8239 -4.54756e-11
-6.72111e-12 -4.54756e-11 19.862

19.9048 0.300396 -4.84163e-11
0.300396 19.0585 -3.6615e-11
-4.84163e-11 -3.6615e-11 19.8217

17.8056 1.2608 -5.39568e-12
1.2608 18.7075 4.43202e-12
-5.39568e-12 4.43202e-12 18.4483

17.8529 -1.33517 -2.31123e-12
-1.33517 17.9006 -1.58011e-11
-2.31123e-12 -1.58011e-11 18.2395

20.3259 -0.551272 -1.34834e-12
-0.551272 22.1352 2.59179e-11
-1.34834e-12 2.59179e-11 20.8778

21.6122 0.537163 3.46921e-12
0.537163 20.8964 5.89656e-11
3.46921e-12 5.89656e-11 20.9124

22.7606 -1.30629 -1.15733e-12
-1.30629 21.7887 -2.11981e-11
-1.15733e-12 -2.11981e-11 21.2345

20.6028 -0.229765 -5.58583e-12
-0.229765 23.6311 -6.47471e-11
-5.58583e-12 -6.47471e-11 21.1661

21.1198 0.368384 4.23695e-11
0.368384 20.7681 2.90486e-11
4.23695e-11 2.90486e-11 20.7616

20.6461 0.0467527 9.70217e-11
0.0467527 22.1889 -1.46442e-11
9.70217e-11 -1.46442e-11 21.1725

21.8026 -0.40204 -8.26204e-12
-0.40204 20.4006 1.56732e-11
-8.26204e-12 1.56732e-11 20.8244

21.9234 -0.147822 -7.21765e-11
-0.147822 21.1639 -8.80625e-11
-7.21765e-11 -8.80625e-11 21.2219

20.9408 -0.72696 1.52345e-10
-0.72696 21.6772 -1.39899e-10
1.52345e-10 -1.39899e-10 21.0226

21.8788 1.75225 8.01144e-11
1.75225 23.3791 1.49155e-10
8.01144e-11 1.49155e-10 21.5666

26.3383 0.503555 2.27317e-10
0.503555 25.9714 -3.08689e-10
2.27317e-10 -3.08689e-10 23.2006

26.9641 -0.838008 1.18961e-09
-0.838008 20.4098 1.49836e-11
1.18961e-09 1.49836e-11 22.2238

21.3908 -0.945186 -5.14984e-11
-0.945186 21.2937 1.426e-11
-5.14984e-11 1.426e-11 20.9358

19.8687 -0.694039 -3.38195e-11
-0.694039 21.0503 3.81545e-11
-3.38195e-11 3.81545e-11 20.2883

22.0282 1.63477 -2.12703e-11
1.63477 21.4658 1.07907e-11
-2.12703e-11 1.07907e-11 21.1213

19.9394 0.915353 -4.09497e-12
0.915353 20.48 4.35484e-11
-4.09497e-12 4.35484e-11 20.2357

22.4972 1.87082 1.87032e-11
1.87082 24.1269 -6.43597e-11
1.87032e-11 -6.43597e-11 21.9778

21.8848 -0.200743 -1.85379e-11
-0.200743 21.4436 2.28346e-10
-1.85379e-11 2.28346e-10 21.3215

19.8066 -0.617657 -1.52703e-11
-0.617657 20.7685 -1.03481e-10
-1.52703e-11 -1.03481e-10 20.3252

21.31 -0.370126 7.59353e-11
-0.370126 21.2583 -5.43406e-11
7.59353e-11 -5.43406e-11 20.9666

20.2434 1.53245 -4.86602e-12
1.53245 21.1352 -2.04286e-11
-4.86602e-12 -2.04286e-11 20.5147

20.7259 1.01543 -7.96556e-11
1.01543 21.6755 -2.73665e-11
-7.96556e-11 -2.73665e-11 20.9427

16.7645 0.357584 -2.31236e-12
0.357584 19.3045 8.09303e-12
-2.31236e-12 8.09303e-12 18.1826

19.45 -0.140786 -4.23861e-12
-0.140786 20.1698 -1.85001e-11
-4.23861e-12 -1.85001e-11 19.5959

17.8453 0.341557 -1.35859e-11
0.341557 15.028 5.01043e-12
-1.35859e-11 5.01043e-12 16.3857

17.0839 0.0818394 -1.59054e-12
0.0818394 14.4762 1.5033e-11
-1.59054e-12 1.5033e-11 15.4262

17.1953 0.405398 -2.06186e-11
0.405398 20.5671 -2.23551e-11
-2.06186e-11 -2.23551e-11 19.1609

19.8354 0.101172 -1.40666e-11
0.101172 20.8734 -1.32961e-11
-1.40666e-11 -1.32961e-11 20.5868

17.1825 -0.132445 1.07929e-11
-0.132445 14.5273 1.27196e-11
1.07929e-11 1.27196e-11 15.54

19.7879 -0.0784116 1.95058e-12
-0.0784116 16.6833 2.5822e-11
1.95058e-12 2.5822e-11 18.4028

11.7277 -0.792722 -5.29978e-12
-0.792722 13.4831 -7.32422e-12
-5.29978e-12 -7.32422e-12 12.2755

12.8167 1.28391 -3.17986e-12
1.28391 14.1871 3.27649e-12
-3.17986e-12 3.27649e-12 12.8965

13.4961 1.21567 3.71965e-11
1.21567 12.1818 -1.34879e-11
3.71965e-11 -1.34879e-11 12.5048

20.1624 1.47268 -1.94632e-11
1.47268 21.043 2.63996e-11
-1.94632e-11 2.63996e-11 20.4471

19.0515 -0.499278 5.78954e-13
-0.499278 20.543 -2.19677e-11
5.78954e-13 -2.19677e-11 19.7289

17.1418 1.25178 -3.31936e-11
1.25178 17.8067 5.77094e-13
-3.31936e-11 5.77094e-13 17.1272

19.0458 1.10649 -2.32205e-11
1.10649 20.5289 1.36814e-11
-2.32205e-11 1.36814e-11 19.9672

17.0037 -0.398455 2.10039e-11
-0.398455 20.5668 -5.3948e-12
2.10039e-11 -5.3948e-12 19.0778

18.3107 -0.246313 6.1687e-12
-0.246313 15.6162 -4.70192e-11
6.1687e-12 -4.70192e-11 17.1936

13.9491 0.585718 -2.33187e-11
0.585718 15.7583 7.70813e-12
-2.33187e-11 7.70813e-12 14.1015

12.7819 -0.152967 -1.93686e-11
-0.152967 15.1592 -1.15678e-12
-1.93686e-11 -1.15678e-12 13.5227

15.1785 0.597425 -3.66229e-12
0.597425 13.1803 3.3531e-11
-3.66229e-12 3.3531e-11 13.6418

15.8169 -0.619734 2.90999e-11
-0.619734 13.7254 1.11766e-11
2.90999e-11 1.11766e-11 14.5017

14.9174 1.06686 -2.8521e-11
1.06686 16.6116 -3.85173e-13
-2.8521e-11 -3.85173e-13 15.608

16.9123 -0.812095 -2.29301e-11
-0.812095 17.521 -4.5865e-11
-2.29301e-11 -4.5865e-11 16.6911

18.0309 -0.399273 -1.33448e-11
-0.399273 15.0727 1.92717e-12
-1.33448e-11 1.92717e-12 16.5654

11.9475 0.806679 3.66111e-12
0.806679 12.8725 3.46899e-11
3.66111e-12 3.46899e-11 11.6527

19.3742 0.0830941 3.18688e-11
0.0830941 16.1848 1.48391e-11
3.18688e-11 1.48391e-11 17.9762

12.3714 0.871903 5.70471e-11
0.871903 11.5159 -6.55067e-12
5.70471e-11 -6.55067e-12 11.3993

19.2216 0.0964041 1.98494e-11
0.0964041 21.1459 -2.89055e-11
1.98494e-11 -2.89055e-11 19.9184

20.9559 0.505132 1.61867e-11
0.505132 21.4194 -2.23522e-11
1.61867e-11 -2.23522e-11 21.0125

21.8033 -1.30477 -2.5557e-11
-1.30477 21.9366 8.86452e-12
-2.5557e-11 8.86452e-12 21.3139

22.3383 0.56712 2.78688e-11
0.56712 21.4311 5.47258e-11
2.78688e-11 5.47258e-11 21.322

14.9279 -0.185389 1.88867e-11
-0.185389 12.8863 1.54147e-12
1.88867e-11 1.54147e-12 13.2748

16.539 1.52498 -1.31041e-11
1.52498 17.3918 -2.52458e-11
-1.31041e-11 -2.52458e-11 16.8158

20.1433 0.224461 -2.38708e-11
0.224461 19.8499 -3.4691e-12
-2.38708e-11 -3.4691e-12 19.8369

19.6871 -0.693157 -3.64708e-14
-0.693157 19.544 1.38749e-11
-3.64708e-14 1.38749e-11 19.7655

20.0891 -0.0918424 -1.13219e-11
-0.0918424 16.4389 9.05713e-12
-1.13219e-11 9.05713e-12 18.4451

14.6957 1.26082 7.12878e-12
1.26082 15.9625 -1.5413e-12
7.12878e-12 -1.5413e-12 15.342

16.2599 -1.15081 7.1298e-12
-1.15081 17.1648 -1.21402e-11
7.1298e-12 -1.21402e-11 16.3758

16.0106 -0.810544 2.20651e-11
-0.810544 14.6613 -1.81149e-11
2.20651e-11 -1.81149e-11 14.9702

19.588 -0.192762 -5.68504e-12
-0.192762 15.9784 1.81142e-11
-5.68504e-12 1.81142e-11 18.0181

15.5169 1.48644 3.00627e-11
1.48644 17.0229 5.79222e-13
3.00627e-11 5.79222e-13 15.7609

14.5436 -1.02516 6.55302e-12
-1.02516 15.8615 -4.50946e-11
6.55302e-12 -4.50946e-11 15.1856

15.7715 1.37541 1.8693e-11
1.37541 17.2239 2.33178e-11
1.8693e-11 2.33178e-11 15.9877

14.603 -0.823779 3.86374e-11
-0.823779 16.6223 5.18104e-16
3.86374e-11 5.18104e-16 15.4716

19.5515 -0.686132 2.33167e-11
-0.686132 20.128 -7.70717e-13
2.33167e-11 -7.70717e-13 19.8284

16.2909 0.959351 1.09845e-11
0.959351 18.6938 4.2395e-12
1.09845e-11 4.2395e-12 17.9444

14.6176 -1.19541 -2.65971e-11
-1.19541 14.1294 -1.92768e-12
-2.65971e-11 -1.92768e-12 14.0596

9.2357 -1.05888 1.2913e-11
-1.05888 9.08411 -5.58992e-12
1.2913e-11 -5.58992e-12 9.14702

8.73902 -1.13749 -3.54596e-11
-1.13749 9.30974 -3.27642e-11
-3.54596e-11 -3.27642e-11 9.07427

18.574 1.78533 3.10244e-11
1.78533 20.4654 1.9277e-12
3.10244e-11 1.9277e-12 19.6278

16.8083 -1.16394 -2.97724e-11
-1.16394 19.5818 3.8459e-13
-2.97724e-11 3.8459e-13 18.8408

8.80546 -0.228692 -8.86543e-12
-0.228692 8.81641 2.69869e-12
-8.86543e-12 2.69869e-12 9.24878

9.00451 -0.24573 2.58257e-11
-0.24573 9.18116 -1.2912e-11
2.58257e-11 -1.2912e-11 9.389

20.8494 1.02027 5.39546e-12
1.02027 19.765 3.84697e-13
5.39546e-12 3.84697e-13 20.112

22.2526 -0.77503 4.97177e-11
-0.77503 20.7285 2.31517e-12
4.97177e-11 2.31517e-12 21.4847

18.5474 -0.0353124 4.81775e-11
-0.0353124 15.9614 -2.65916e-11
4.81775e-11 -2.65916e-11 17.8011

20.6673 1.43532 -5.54991e-11
1.43532 19.616 3.23704e-11
-5.54991e-11 3.23704e-11 20.0482

21.9287 -1.03366 1.15184e-12
-1.03366 19.8464 4.95229e-11
1.15184e-12 4.95229e-11 21.1124

15.2382 1.01262 -9.44315e-12
1.01262 17.3809 2.92923e-11
-9.44315e-12 2.92923e-11 16.5118

17.3343 -0.801277 3.4686e-12
-0.801277 18.5583 9.24975e-12
3.4686e-12 9.24975e-12 17.7984

21.9512 0.501414 5.56905e-11
0.501414 20.4375 6.31069e-13
5.56905e-11 6.31069e-13 20.8604

21.2455 -0.65996 4.7931e-12
-0.65996 20.799 3.3833e-11
4.7931e-12 3.3833e-11 20.7908

19.0099 1.54731 3.50724e-11
1.54731 17.9659 2.13439e-11
3.50724e-11 2.13439e-11 18.7147

20.4149 -1.22213 5.81961e-11
-1.22213 18.7901 -6.11668e-12
5.81961e-11 -6.11668e-12 19.8202

13.1973 -0.826416 1.57068e-11
-0.826416 11.8712 -2.96059e-16
1.57068e-11 -2.96059e-16 12.1203

20.4083 -0.0433084 -1.36817e-11
-0.0433084 23.0729 1.81136e-11
-1.36817e-11 1.81136e-11 21.0045

22.14 0.307644 -2.50509e-11
0.307644 23.008 4.88479e-11
-2.50509e-11 4.88479e-11 22.5165

10.5329 -0.145417 -9.05683e-12
-0.145417 12.0646 -3.04515e-11
-9.05683e-12 -3.04515e-11 10.9371

11.9972 -0.181079 -2.44756e-11
-0.181079 10.6821 1.54181e-11
-2.44756e-11 1.54181e-11 10.9192

15.7631 0.859691 1.71511e-11
0.859691 18.4735 5.78165e-12
1.71511e-11 5.78165e-12 17.5336

18.3266 -0.504935 7.70439e-13
-0.504935 19.6779 4.23842e-12
7.70439e-13 4.23842e-12 19.0428

25.5055 -0.298529 1.54538e-10
-0.298529 26.5251 -8.08752e-12
1.54538e-10 -8.08752e-12 23.0933

25.6575 -0.940129 -3.59563e-10
-0.940129 22.7924 -5.51248e-11
-3.59563e-10 -5.51248e-11 23.4387

18.5173 1.37432 -1.05999e-11
1.37432 16.5516 -3.77699e-11
-1.05999e-11 -3.77699e-11 17.8203

19.3451 -0.905342 1.86913e-11
-0.905342 17.0623 2.0618e-11
1.86913e-11 2.0618e-11 18.5141

14.7547 0.0221943 1.47419e-11
0.0221943 12.5321 -9.44245e-12
1.47419e-11 -9.44245e-12 13.0927

17.3703 0.0446608 -1.04044e-11
0.0446608 15.0014 -2.00404e-11
-1.04044e-11 -2.00404e-11 16.0769

15.9499 0.666373 1.53217e-11
0.666373 13.7248 -4.62341e-12
1.53217e-11 -4.62341e-12 14.3677

19.7308 0.242454 5.34785e-12
0.242454 18.0957 -3.1025e-11
5.34785e-12 -3.1025e-11 19.1804

20.1658 -0.483974 -2.10534e-11
-0.483974 23.0551 6.32053e-11
-2.10534e-11 6.32053e-11 21.3033

21.607 0.24885 -1.75867e-12
0.24885 21.8196 8.57501e-11
-1.75867e-12 8.57501e-11 21.3478

14.1463 1.15764 1.15623e-11
1.15764 14.6061 4.23813e-12
1.15623e-11 4.23813e-12 13.5829

16.1458 -1.00487 6.45513e-12
-1.00487 15.5982 1.23336e-11
6.45513e-12 1.23336e-11 15.9884

17.9874 1.10183 5.58862e-11
1.10183 15.9302 1.54185e-11
5.58862e-11 1.54185e-11 17.0559

21.9411 0.468911 5.26055e-11
0.468911 22.8533 3.44952e-11
5.26055e-11 3.44952e-11 22.3714

21.5067 0.701986 7.22603e-11
0.701986 23.778 5.01012e-12
7.22603e-11 5.01012e-12 21.5105

19.4792 -0.582879 2.26427e-11
-0.582879 18.4303 -3.16032e-11
2.26427e-11 -3.16032e-11 19.3006

18.7739 0.905157 -1.49354e-11
0.905157 19.8971 -1.38752e-11
-1.49354e-11 -1.38752e-11 19.0905

16.6147 -0.164426 1.93669e-11
-0.164426 19.3822 1.19492e-11
1.93669e-11 1.19492e-11 18.1364

19.1342 0.683231 -1.50313e-11
0.683231 16.0845 9.25069e-12
-1.50313e-11 9.25069e-12 18.2762

19.4947 -0.137207 -2.19698e-11
-0.137207 16.1619 1.86914e-11
-2.19698e-11 1.86914e-11 18.576

14.7659 -0.899846 -2.7463e-11
-0.899846 14.19 -1.81157e-11
-2.7463e-11 -1.81157e-11 13.7593

19.9997 1.2335 -3.34349e-11
1.2335 17.5204 -5.01008e-12
-3.34349e-11 -5.01008e-12 19.1227

20.6263 -0.778204 2.17748e-11
-0.778204 17.532 3.64223e-11
2.17748e-11 3.64223e-11 19.696

18.4901 -0.60117 5.35731e-11
-0.60117 16.4961 -7.32177e-12
5.35731e-11 -7.32177e-12 17.5778

19.2197 0.894652 -1.04065e-11
0.894652 16.9712 -3.02545e-11
-1.04065e-11 -3.02545e-11 18.4628

19.6266 -0.455381 -1.0408e-11
-0.455381 17.2749 2.26423e-11
-1.0408e-11 2.26423e-11 18.9861

18.1294 -0.3826 -7.03426e-12
-0.3826 16.0202 -7.70809e-13
-7.03426e-12 -7.70809e-13 17.0632

17.1702 1.61239 -2.98692e-11
1.61239 17.9561 -1.73441e-11
-2.98692e-11 -1.73441e-11 18.1781

20.6076 -1.3852 2.11995e-11
-1.3852 19.9438 -4.2586e-11
2.11995e-11 -4.2586e-11 20.3274

16.0602 1.08407 3.0833e-11
1.08407 15.675 1.42626e-11
3.0833e-11 1.42626e-11 15.2287

20.1837 -1.01592 8.86324e-12
-1.01592 20.9389 1.15617e-11
8.86324e-12 1.15617e-11 20.7766

16.6408 1.12405 -2.23537e-11
1.12405 18.1993 -4.31671e-11
-2.23537e-11 -4.31671e-11 18.2569

16.1081 0.991032 -3.1028e-11
0.991032 13.9309 9.63279e-12
-3.1028e-11 9.63279e-12 14.8547

17.7841 -0.885778 1.73389e-12
-0.885778 16.8969 -7.70833e-12
1.73389e-12 -7.70833e-12 17.725

18.1062 0.369298 -1.23336e-11
0.369298 16.2378 4.58639e-11
-1.23336e-11 4.58639e-11 16.9125

14.9126 1.41244 2.0042e-11
1.41244 15.1577 1.31053e-11
2.0042e-11 1.31053e-11 14.6284

16.5572 1.13991 -2.9919e-11
1.13991 15.9245 -2.23548e-11
-2.9919e-11 -2.23548e-11 16.1248

17.4317 0.452773 -3.08435e-12
0.452773 19.2144 -3.62292e-11
-3.08435e-12 -3.62292e-11 18.3981

15.3855 0.127787 -3.48795e-11
0.127787 18.9002 -3.85784e-13
-3.48795e-11 -3.85784e-13 17.4361

14.2715 -0.868745 -2.93896e-11
-0.868745 12.509 4.20132e-11
-2.93896e-11 4.20132e-11 12.9706

16.7571 -1.57908 5.39354e-12
-1.57908 18.0397 5.66553e-11
5.39354e-12 5.66553e-11 18.1667

17.5635 1.73275 -6.64874e-12
1.73275 19.2169 -5.78098e-12
-6.64874e-12 -5.78098e-12 18.4689

15.8612 -1.27841 5.01044e-12
-1.27841 15.9863 -7.70869e-12
5.01044e-12 -7.70869e-12 15.3103

14.4775 1.53858 -1.52265e-11
1.53858 15.2564 1.15552e-12
-1.52265e-11 1.15552e-12 14.5207

17.715 -0.715012 1.12239e-11
-0.715012 16.134 2.09075e-11
1.12239e-11 2.09075e-11 16.9276

19.9873 -0.184619 6.0269e-11
-0.184619 17.0862 -4.23891e-12
6.0269e-11 -4.23891e-12 18.9811

20.3376 0.0527107 -2.9677e-11
0.0527107 16.9726 3.46845e-12
-2.9677e-11 3.46845e-12 18.9814

16.2591 -1.19846 -3.56561e-12
-1.19846 16.4694 -2.17757e-11
-3.56561e-12 -2.17757e-11 16.3544

12.8023 0.24455 8.09419e-12
0.24455 15.2306 -1.58027e-11
8.09419e-12 -1.58027e-11 13.4779

11.7549 0.210925 4.91416e-11
0.210925 14.6441 1.69606e-11
4.91416e-11 1.69606e-11 12.9044

14.6369 0.222718 -2.27411e-11
0.222718 12.1264 -9.64645e-13
-2.27411e-11 -9.64645e-13 13.0495

13.9204 1.27319 1.3488e-11
1.27319 13.6235 1.31069e-11
1.3488e-11 1.31069e-11 13.2203

15.9557 -1.25033 9.05735e-12
-1.25033 14.7368 -2.54381e-11
9.05735e-12 -2.54381e-11 15.0207

21.8871 1.42988 -1.12917e-10
1.42988 23.6596 -3.61331e-11
-1.12917e-10 -3.61331e-11 22.663

25.1786 -0.376596 2.30267e-10
-0.376596 25.2541 2.23525e-11
2.30267e-10 2.23525e-11 22.6974

16.6164 -0.424345 2.15851e-11
-0.424345 14.1671 -1.90514e-13
2.15851e-11 -1.90514e-13 15.1949

15.8734 1.12583 4.43268e-12
1.12583 17.5536 1.69584e-11
4.43268e-12 1.69584e-11 17.1872

18.8276 -1.27518 2.81344e-11
-1.27518 19.268 2.3896e-11
2.81344e-11 2.3896e-11 18.9524

18.5982 0.583142 5.20313e-11
0.583142 15.8861 3.85424e-11
5.20313e-11 3.85424e-11 17.6866

14.8845 1.18805 5.49219e-12
1.18805 16.8493 4.10482e-11
5.49219e-12 4.10482e-11 15.3609

13.485 -0.528426 -2.05245e-11
-0.528426 16.1108 2.69803e-11
-2.05245e-11 2.69803e-11 14.6977

16.6906 1.19824 -2.10044e-11
1.19824 19.6036 -4.00831e-11
-2.10044e-11 -4.00831e-11 18.8665

20.961 -0.49906 1.15589e-12
-0.49906 21.6776 -1.75359e-11
1.15589e-12 -1.75359e-11 21.526

16.9141 1.21177 -3.83481e-11
1.21177 17.8775 2.62067e-11
-3.83481e-11 2.62067e-11 18.2952

20.7782 -1.2294 -8.09438e-12
-1.2294 20.9298 2.85194e-11
-8.09438e-12 2.85194e-11 21.0307

19.4841 0.0980251 -2.08121e-11
0.0980251 14.8901 -2.96766e-11
-2.08121e-11 -2.96766e-11 18.4914

14.9938 1.54344 -8.86265e-12
1.54344 14.1428 -2.85212e-11
-8.86265e-12 -2.85212e-11 14.3603

17.8227 1.8503 -8.57519e-12
1.8503 20.0113 1.2911e-11
-8.57519e-12 1.2911e-11 18.8929

16.5905 -1.37092 -3.90155e-12
-1.37092 17.8157 -2.42809e-11
-3.90155e-12 -2.42809e-11 18.2731

15.2541 1.3073 3.08461e-12
1.3073 15.0844 -3.04483e-11
3.08461e-12 -3.04483e-11 14.9567

13.1529 -0.793897 2.98703e-11
-0.793897 13.9021 -9.25082e-12
2.98703e-11 -9.25082e-12 12.9727

16.3043 -1.19225 -2.5051e-11
-1.19225 17.1208 -1.84991e-11
-2.5051e-11 -1.84991e-11 17.1095

14.5577 -0.254886 -3.10262e-11
-0.254886 16.0359 -2.65967e-11
-3.10262e-11 -2.65967e-11 14.5285

13.1201 0.67644 1.38751e-11
0.67644 15.4032 2.31234e-12
1.38751e-11 2.31234e-12 13.8214

15.4207 -0.260501 -5.39595e-11
-0.260501 13.6575 9.44017e-12
-5.39595e-11 9.44017e-12 14.0158

16.3378 -1.12142 -1.85009e-11
-1.12142 16.0625 6.35971e-12
-1.85009e-11 6.35971e-12 15.7258

14.9071 0.184841 -1.6381e-11
0.184841 17.7435 -8.86502e-12
-1.6381e-11 -8.86502e-12 16.2236

17.0021 0.256699 1.0599e-11
0.256699 18.4075 2.77491e-11
1.0599e-11 2.77491e-11 17.1676

13.5922 -1.06195 -1.61862e-11
-1.06195 13.9054 2.89113e-12
-1.61862e-11 2.89113e-12 13.1246

12.6001 1.31959 1.34887e-11
1.31959 13.4887 4.66378e-11
1.34887e-11 4.66378e-11 12.6491

19.0134 0.253817 -3.69997e-11
0.253817 16.3053 -5.2273e-16
-3.69997e-11 -5.2273e-16 18.603

19.1044 0.00236102 -2.46663e-11
0.00236102 16.2027 -1.11774e-11
-2.46663e-11 -1.11774e-11 18.7552

16.7118 1.34744 -1.54153e-12
1.34744 17.3899 8.86415e-12
-1.54153e-12 8.86415e-12 17.4731

19.22 -1.12086 -6.9363e-12
-1.12086 19.5196 -1.67654e-11
-6.9363e-12 -1.67654e-11 19.2741

18.4073 1.82875 -8.67501e-13
1.82875 20.4657 -9.4425e-12
-8.67501e-13 -9.4425e-12 19.5263

16.3882 -1.03804 -1.40664e-11
-1.03804 19.4206 -2.50519e-11
-1.40664e-11 -2.50519e-11 18.7575

17.5022 1.20248 4.50452e-11
1.20248 17.9704 2.50541e-11
4.50452e-11 2.50541e-11 17.8804

13.1351 0.750196 8.96213e-12
0.750196 11.8019 1.15682e-12
8.96213e-12 1.15682e-12 11.9136

15.3 -0.68463 -3.85265e-12
-0.68463 16.9865 -4.35529e-11
-3.85265e-12 -4.35529e-11 15.6874

13.6315 0.921845 2.11981e-11
0.921845 16.1805 -6.16677e-12
2.11981e-11 -6.16677e-12 14.8075

20.2019 1.10039 3.083e-12
1.10039 18.3684 3.80588e-11
3.083e-12 3.80588e-11 19.3807

21.1915 -0.630389 2.31356e-12
-0.630389 19.0876 -2.01364e-11
2.31356e-12 -2.01364e-11 20.3753

18.1536 -1.04664 -6.16651e-12
-1.04664 17.1343 -4.8184e-12
-6.16651e-12 -4.8184e-12 17.4616

18.6977 1.29971 1.07928e-11
1.29971 17.1762 -3.54575e-11
1.07928e-11 -3.54575e-11 18.041

19.658 -0.907471 4.81709e-12
-0.907471 18.1961 1.44512e-11
4.81709e-12 1.44512e-11 18.9844

8.8637 -0.346233 -2.54403e-11
-0.346233 7.26896 3.08365e-11
-2.54403e-11 3.08365e-11 9.04799

7.13157 -0.42901 7.13281e-12
-0.42901 8.60621 -4.66407e-11
7.13281e-12 -4.66407e-11 8.94536

22.8621 1.46911 5.58831e-11
1.46911 21.5188 4.6634e-11
5.58831e-11 4.6634e-11 21.2973

23.6092 -1.03173 -3.27611e-11
-1.03173 20.8471 3.17938e-11
-3.27611e-11 3.17938e-11 22.1147

17.1355 1.42846 1.13693e-11
1.42846 16.1355 -3.1988e-11
1.13693e-11 -3.1988e-11 16.6042

13.1544 0.678798 -4.32659e-11
0.678798 11.5221 2.89011e-12
-4.32659e-11 2.89011e-12 11.8259

17.3271 1.27567 -2.73639e-11
1.27567 19.2943 1.7335e-12
-2.73639e-11 1.7335e-12 18.2851

15.6059 -0.493431 1.75373e-11
-0.493431 18.8741 -1.42603e-11
1.75373e-11 -1.42603e-11 17.5821

14.1933 -1.21242 -2.29311e-11
-1.21242 14.7586 -2.42818e-11
-2.29311e-11 -2.42818e-11 14.2002

19.1916 0.786685 1.638e-11
0.786685 20.3355 4.52848e-12
1.638e-11 4.52848e-12 19.7506

21.1781 -0.449782 -1.83065e-11
-0.449782 21.7359 8.57479e-12
-1.83065e-11 8.57479e-12 21.5659

15.5662 0.954001 1.85011e-11
0.954001 13.911 2.52458e-11
1.85011e-11 2.52458e-11 14.2572

17.1942 0.515786 6.55291e-12
0.515786 14.7815 1.15633e-12
6.55291e-12 1.15633e-12 15.9468

15.9252 1.78904 -1.92704e-11
1.78904 18.1847 -4.35522e-11
-1.92704e-11 -4.35522e-11 18.1458

21.2902 -0.922697 -2.50679e-12
-0.922697 21.2453 3.44924e-11
-2.50679e-12 3.44924e-11 21.3433

16.2014 1.47831 4.14305e-12
1.47831 18.2856 -1.56093e-11
4.14305e-12 -1.56093e-11 17.0434

14.9489 -0.791281 3.32425e-11
-0.791281 17.4052 -4.16252e-11
3.32425e-11 -4.16252e-11 16.4605

17.4282 1.6142 7.72271e-13
1.6142 16.6883 -3.54591e-11
7.72271e-13 -3.54591e-11 17.3086

18.9779 -1.37397 -4.22078e-11
-1.37397 17.7944 3.41073e-11
-4.22078e-11 3.41073e-11 18.4168

14.3848 0.457869 -2.73659e-11
0.457869 17.3276 2.46658e-11
-2.73659e-11 2.46658e-11 15.8127

16.253 -0.0362191 2.35107e-11
-0.0362191 17.9746 1.8116e-11
2.35107e-11 1.8116e-11 16.7623

10.0687 -0.523087 -2.33195e-11
-0.523087 10.9165 -1.69604e-11
-2.33195e-11 -1.69604e-11 10.1303

10.7779 -0.507694 -1.6863e-11
-0.507694 10.2115 1.19483e-11
-1.6863e-11 1.19483e-11 10.1242

17.8976 0.83803 3.18933e-11
0.83803 15.4392 2.81354e-11
3.18933e-11 2.81354e-11 16.9151

25.8871 0.254949 6.08931e-11
0.254949 23.9207 -7.32219e-11
6.08931e-11 -7.32219e-11 22.6135

25.5491 -0.915807 -1.55305e-10
-0.915807 22.2201 -1.60706e-10
-1.55305e-10 -1.60706e-10 23.162

20.1703 -1.21388 3.8948e-11
-1.21388 21.4932 7.69477e-13
3.8948e-11 7.69477e-13 20.647

20.2561 0.378576 -9.46658e-12
0.378576 20.844 3.17951e-11
-9.46658e-12 3.17951e-11 20.5178

18.999 -0.0734259 8.9615e-12
-0.0734259 15.7382 2.48597e-11
8.9615e-12 2.48597e-11 17.293

17.606 1.98947 1.03094e-11
1.98947 19.8654 -7.32244e-12
1.03094e-11 -7.32244e-12 18.8018

15.5476 -1.86714 1.57049e-11
-1.86714 18.0975 1.07917e-11
1.57049e-11 1.07917e-11 18.0657

10.7395 0.991673 -1.23334e-11
0.991673 11.1558 2.58237e-11
-1.23334e-11 2.58237e-11 10.6734

11.4435 1.04089 7.70917e-12
1.04089 11.2966 -4.06624e-11
7.70917e-12 -4.06624e-11 10.8997

11.4853 -0.381151 2.69845e-12
-0.381151 13.0615 6.55243e-12
2.69845e-12 6.55243e-12 11.784

11.1847 0.78666 9.62175e-13
0.78666 12.7188 2.11974e-11
9.62175e-13 2.11974e-11 11.5422

12.8648 -0.19058 -1.23347e-11
-0.19058 11.2013 2.87548e-13
-1.23347e-11 2.87548e-13 11.6197

10.4358 0.462816 -2.48618e-11
0.462816 12.3 8.09371e-12
-2.48618e-11 8.09371e-12 10.9742

11.8579 0.542928 2.60194e-11
0.542928 10.2434 -2.69786e-11
2.60194e-11 -2.69786e-11 10.8051

20.0008 0.140497 -6.16609e-12
0.140497 22.0724 -1.7343e-11
-6.16609e-12 -1.7343e-11 20.59

20.8576 1.04581 -1.67643e-11
1.04581 21.9889 2.37977e-11
-1.67643e-11 2.37977e-11 21.2477

19.4691 0.164883 -5.97344e-12
0.164883 17.7574 -9.05681e-12
-5.97344e-12 -9.05681e-12 18.4333

19.9946 -0.0324972 -7.90103e-12
-0.0324972 16.1472 -7.32244e-12
-7.90103e-12 -7.32244e-12 18.3584

13.9256 -0.633149 5.78321e-12
-0.633149 15.2995 6.93756e-12
5.78321e-12 6.93756e-12 14.0793

12.8381 0.94891 -8.09317e-12
0.94891 14.5036 -7.71753e-13
-8.09317e-12 -7.71753e-13 13.4061

18.9773 -0.0478006 1.10811e-11
-0.0478006 15.6446 3.86075e-13
1.10811e-11 3.86075e-13 17.3198

21.7099 0.809823 4.16233e-11
0.809823 20.3978 2.96759e-11
4.16233e-11 2.96759e-11 20.637

22.5572 -0.57406 -6.55152e-12
-0.57406 20.4114 2.313e-12
-6.55152e-12 2.313e-12 21.5471

18.3658 0.782754 3.76254e-11
0.782754 18.5957 2.42818e-11
3.76254e-11 2.42818e-11 18.3188

16.3693 -1.30013 -1.10815e-11
-1.30013 17.4587 3.96984e-11
-1.10815e-11 3.96984e-11 17.4323

17.0707 1.67047 -1.46461e-11
1.67047 18.9943 -3.39166e-11
-1.46461e-11 -3.39166e-11 17.838

19.0615 0.163963 1.63812e-12
0.163963 16.2746 6.9375e-12
1.63812e-12 6.9375e-12 17.8113

13.8685 1.19242 2.66917e-11
1.19242 13.5317 -3.84563e-13
2.66917e-11 -3.84563e-13 13.0799

15.6968 -0.989316 -2.22575e-11
-0.989316 17.7566 -2.31217e-12
-2.22575e-11 -2.31217e-12 17.2292

17.0842 1.78637 2.81343e-11
1.78637 18.8208 -2.85194e-11
2.81343e-11 -2.85194e-11 17.7868

8.63264 2.08421 7.45852e-11
2.08421 8.78794 -4.81782e-11
7.45852e-11 -4.81782e-11 8.73698

14.1692 -0.124475 -2.92918e-11
-0.124475 17.2748 2.35115e-11
-2.92918e-11 2.35115e-11 15.7089

15.6615 0.679524 3.16033e-11
0.679524 17.744 1.79237e-11
3.16033e-11 1.79237e-11 16.3958

19.8082 -0.164753 7.71426e-13
-0.164753 22.9083 -2.85206e-11
7.71426e-13 -2.85206e-11 20.7704

21.3218 0.82475 2.56264e-11
0.82475 21.9974 1.16593e-11
2.56264e-11 1.16593e-11 21.6651

20.0805 0.676073 -4.58648e-11
0.676073 16.2391 3.93107e-11
-4.58648e-11 3.93107e-11 19.0623

20.4668 -0.461451 1.92812e-12
-0.461451 15.8515 -1.59936e-11
1.92812e-12 -1.59936e-11 19.3743

18.6745 0.903785 -2.9243e-11
0.903785 18.9049 6.35963e-12
-2.9243e-11 6.35963e-12 18.9813

18.4952 -1.36332 1.83152e-12
-1.36332 18.7721 -2.08116e-11
1.83152e-12 -2.08116e-11 19.0283

20.0761 0.765618 1.72953e-11
0.765618 21.2148 3.54576e-11
1.72953e-11 3.54576e-11 20.4435

20.0294 -1.07054 6.4066e-12
-1.07054 20.4497 2.04241e-11
6.4066e-12 2.04241e-11 20.3185

24.0498 1.40821 -9.0566e-11
1.40821 23.2829 -5.74268e-11
-9.0566e-11 -5.74268e-11 22.0417

24.7957 -0.990119 9.32717e-11
-0.990119 22.018 -9.73029e-11
9.32717e-11 -9.73029e-11 22.9446

17.6314 1.97202 -1.92695e-11
1.97202 18.515 -5.3965e-12
-1.92695e-11 -5.3965e-12 18.8888

22.4665 -1.06095 -4.10459e-11
-1.06095 21.2886 5.00844e-12
-4.10459e-11 5.00844e-12 21.9203

16.9527 1.45828 2.67862e-11
1.45828 15.4596 3.12198e-11
2.67862e-11 3.12198e-11 16.2793

17.0323 1.26035 -2.02335e-11
1.26035 18.6002 -2.71726e-11
-2.02335e-11 -2.71726e-11 17.4285

15.2382 -0.503167 3.60362e-11
-0.503167 17.8781 -3.50722e-11
3.60362e-11 -3.50722e-11 16.6778

17.4277 -1.47693 -1.9271e-11
-1.47693 16.6987 -3.06418e-11
-1.9271e-11 -3.06418e-11 16.8562

13.6168 -0.795458 2.40906e-11
-0.795458 13.2977 -5.01125e-12
2.40906e-11 -5.01125e-12 12.8451

17.8577 -1.06087 2.48583e-11
-1.06087 16.0599 1.27199e-11
2.48583e-11 1.27199e-11 16.8868

15.998 1.60622 3.23756e-11
1.60622 15.7307 -2.73639e-11
3.23756e-11 -2.73639e-11 15.9225

17.003 -2.15681 -1.07916e-11
-2.15681 18.6102 -7.32313e-12
-1.07916e-11 -7.32313e-12 18.8421

18.1781 1.71871 1.18995e-11
1.71871 20.0462 -5.39538e-12
1.18995e-11 -5.39538e-12 19.2845

19.334 -0.37778 -5.00565e-11
-0.37778 17.6462 -1.15687e-12
-5.00565e-11 -1.15687e-12 18.5428

25.1129 -0.636657 -1.58201e-10
-0.636657 24.8028 2.69249e-12
-1.58201e-10 2.69249e-12 22.5732

22.5284 0.542445 1.00587e-10
0.542445 23.4702 6.13754e-11
1.00587e-10 6.13754e-11 22.5591

17.9382 0.656205 1.88376e-11
0.656205 17.0477 3.08364e-12
1.88376e-11 3.08364e-12 17.6699

20.9166 -0.264764 -1.35126e-11
-0.264764 18.7958 -3.69982e-11
-1.35126e-11 -3.69982e-11 19.8219

11.0884 -0.742924 -2.11967e-12
-0.742924 11.5555 1.61884e-11
-2.11967e-12 1.61884e-11 10.7791

11.5854 -0.704353 -1.13711e-11
-0.704353 10.7128 1.02146e-11
-1.13711e-11 1.02146e-11 10.7123

20.5397 0.21522 2.27391e-11
0.21522 17.676 -1.8113e-11
2.27391e-11 -1.8113e-11 19.5288

20.8959 0.0558469 2.04282e-11
0.0558469 17.5277 -1.65715e-11
2.04282e-11 -1.65715e-11 20.0048

20.576 0.0230263 4.64656e-11
0.0230263 19.1818 -1.61862e-11
4.64656e-11 -1.61862e-11 19.8689

17.9594 -0.586794 2.23512e-11
-0.586794 18.8433 4.20105e-11
2.23512e-11 4.20105e-11 18.0302

15.4706 0.76042 1.42832e-11
0.76042 17.8235 3.08348e-11
1.42832e-11 3.08348e-11 16.7318

16.368 1.17092 -4.2972e-11
1.17092 14.7573 -2.23551e-11
-4.2972e-11 -2.23551e-11 15.2925

19.1324 1.33783 3.79607e-11
1.33783 18.1701 -2.6591e-11
3.79607e-11 -2.6591e-11 18.8199

20.7234 -1.04653 3.93174e-11
-1.04653 19.7074 -9.13379e-11
3.93174e-11 -9.13379e-11 20.2425

22.2402 0.173288 3.69525e-11
0.173288 21.5375 -1.40355e-10
3.69525e-11 -1.40355e-10 21.4871

22.4788 -1.48297 -8.64549e-13
-1.48297 24.4828 -9.51241e-11
-8.64549e-13 -9.51241e-11 22.1139

17.8969 0.585474 2.26393e-12
0.585474 16.6726 -4.06612e-11
2.26393e-12 -4.06612e-11 16.9366

20.3634 0.942703 -1.19451e-11
0.942703 18.8077 2.50521e-11
-1.19451e-11 2.50521e-11 19.5783

21.0481 -0.700462 -1.18492e-11
-0.700462 18.9992 -3.12165e-11
-1.18492e-11 -3.12165e-11 20.3207

16.6372 -0.571029 1.05972e-11
-0.571029 18.8867 4.54791e-11
1.05972e-11 4.54791e-11 18.17

18.333 1.61967 2.60145e-11
1.61967 19.8158 1.25271e-11
2.60145e-11 1.25271e-11 18.9001

17.9207 2.06242 -8.09338e-12
2.06242 19.9657 -3.4692e-12
-8.09338e-12 -3.4692e-12 18.9048

16.374 -1.23866 -1.61875e-11
-1.23866 18.004 6.55197e-12
-1.61875e-11 6.55197e-12 18.1572

9.44333 2.37926 -2.25494e-11
2.37926 9.50858 2.79429e-11
-2.25494e-11 2.79429e-11 9.22538

18.8161 1.27735 1.21884e-11
1.27735 20.7207 -6.16621e-12
1.21884e-11 -6.16621e-12 19.7481

17.9814 -1.45673 -1.16588e-11
-1.45673 19.8169 1.84999e-11
-1.16588e-11 1.84999e-11 19.4661

15.8569 -1.12958 -2.69799e-11
-1.12958 18.291 3.23749e-11
-2.69799e-11 3.23749e-11 17.8121

17.3361 1.77076 4.52877e-12
1.77076 19.4911 2.3896e-11
4.52877e-12 2.3896e-11 18.4369

17.0968 -0.783406 7.32484e-12
-0.783406 15.4525 -1.25262e-11
7.32484e-12 -1.25262e-11 15.8764

18.0873 -0.947998 -7.56338e-12
-0.947998 17.8971 3.08409e-12
-7.56338e-12 3.08409e-12 18.2129

18.6818 1.03861 -2.45695e-11
1.03861 19.6943 -9.82774e-12
-2.45695e-11 -9.82774e-12 19.2553

18.4601 -1.41501 1.83067e-11
-1.41501 18.6732 -3.85477e-12
1.83067e-11 -3.85477e-12 19.0803

18.9329 -0.370301 -2.53412e-11
-0.370301 16.2564 -3.46898e-12
-2.53412e-11 -3.46898e-12 17.9258

21.2116 0.38961 1.8885e-11
0.38961 20.1656 1.96555e-11
1.8885e-11 1.96555e-11 20.4203

21.6303 -0.397901 1.15608e-12
-0.397901 19.5082 2.85191e-11
1.15608e-12 2.85191e-11 20.9362

21.6893 0.435815 -3.41058e-11
0.435815 24.6954 -7.20711e-11
-3.41058e-11 -7.20711e-11 21.7881

22.1399 0.574036 -1.73422e-11
0.574036 23.9538 -5.39552e-11
-1.73422e-11 -5.39552e-11 22.5189

8.73938 0.449652 5.85915e-11
0.449652 7.55607 -5.66591e-11
5.85915e-11 -5.66591e-11 8.945

7.68954 0.447688 8.68305e-13
0.447688 9.02441 -1.31046e-11
8.68305e-13 -1.31046e-11 9.02264

18.0272 1.30013 -5.78352e-13
1.30013 18.0659 -2.08112e-11
-5.78352e-13 -2.08112e-11 18.4974

20.5681 -1.33577 2.6594e-11
-1.33577 20.2448 -2.40869e-11
2.6594e-11 -2.40869e-11 20.4428

9.00064 0.88579 -4.43271e-11
0.88579 8.87841 8.28435e-12
-4.43271e-11 8.28435e-12 9.2911

8.82083 0.969406 1.503e-11
0.969406 8.87605 1.25271e-11
1.503e-11 1.25271e-11 9.2575

25.0912 -0.346355 5.08535e-11
-0.346355 24.1683 2.14467e-10
5.08535e-11 2.14467e-10 23.4322

25.2708 -0.22592 -2.37012e-10
-0.22592 25.7598 6.93671e-11
-2.37012e-10 6.93671e-11 22.893

17.2395 -1.27978 -6.61934e-11
-1.27978 17.4628 7.70032e-13
-6.61934e-11 7.70032e-13 17.8094

18.0375 1.64983 1.92687e-11
1.64983 17.6826 3.2375e-11
1.92687e-11 3.2375e-11 18.233

20.2676 -1.38782 3.37291e-11
-1.38782 19.1735 -7.93898e-11
3.37291e-11 -7.93898e-11 19.8039

16.2376 1.45112 9.24777e-12
1.45112 16.515 -1.349e-11
9.24777e-12 -1.349e-11 16.3523

17.9486 -1.15274 -1.40676e-11
-1.15274 17.6838 4.62293e-12
-1.40676e-11 4.62293e-12 17.4893

11.961 -0.213596 -1.59945e-11
-0.213596 13.2785 -1.5225e-11
-1.59945e-11 -1.5225e-11 11.9931

10.9576 0.598565 3.95063e-11
0.598565 12.7295 1.00222e-11
3.95063e-11 1.00222e-11 11.5131

12.9868 -0.0887542 1.9465e-11
-0.0887542 11.4656 -1.77304e-11
1.9465e-11 -1.77304e-11 11.7495

16.4764 1.53898 1.92713e-11
1.53898 17.0105 3.62291e-11
1.92713e-11 3.62291e-11 17.0553

18.7045 -1.51537 -4.04668e-11
-1.51537 18.4555 2.69732e-12
-4.04668e-11 2.69732e-12 18.4929

9.9545 0.096443 4.20129e-11
0.096443 11.8357 -1.92664e-12
4.20129e-11 -1.92664e-12 10.6279

11.8115 -0.0110268 -2.48626e-11
-0.0110268 10.2456 1.81165e-11
-2.48626e-11 1.81165e-11 10.6555

19.1787 1.57116 7.5156e-12
1.57116 18.5232 4.6237e-12
7.5156e-12 4.6237e-12 19.1776

21.6923 -1.12041 -5.06798e-11
-1.12041 20.4738 6.74375e-12
-5.06798e-11 6.74375e-12 21.1398

19.3063 1.55332 -1.29107e-11
1.55332 19.1053 -2.38967e-11
-1.29107e-11 -2.38967e-11 19.3866

21.4525 -1.35943 -1.96566e-11
-1.35943 20.205 -2.12108e-12
-1.96566e-11 -2.12108e-12 20.9594

8.36299 0.908853 9.9449e-11
0.908853 8.4041 -5.16472e-11
9.9449e-11 -5.16472e-11 8.82872

8.36905 0.838999 -1.542e-11
0.838999 8.51862 -6.39846e-11
-1.542e-11 -6.39846e-11 8.83834

17.6482 1.47021 -2.13895e-11
1.47021 17.2789 5.77912e-12
-2.13895e-11 5.77912e-12 17.6535

19.356 -1.21571 -2.73626e-11
-1.21571 18.9053 -1.92697e-11
-2.73626e-11 -1.92697e-11 19.0394

21.5262 0.950499 2.83257e-11
0.950499 22.2048 -4.33578e-11
2.83257e-11 -4.33578e-11 21.7345

20.8208 -0.308058 -2.1003e-11
-0.308058 22.3684 -9.82795e-12
-2.1003e-11 -9.82795e-12 20.9491

18.4604 1.23874 5.79407e-13
1.23874 19.7411 3.46842e-12
5.79407e-13 3.46842e-12 19.4741

22.1828 -1.40738 -1.42606e-11
-1.40738 21.3662 -2.5063e-12
-1.42606e-11 -2.5063e-12 21.8335

21.2867 1.11138 -1.88848e-11
1.11138 19.0711 4.23935e-11
-1.88848e-11 4.23935e-11 20.1744

22.1344 -0.720688 -5.31865e-11
-0.720688 19.0034 3.83323e-13
-5.31865e-11 3.83323e-13 20.9605

18.0474 1.49431 1.60421e-11
1.49431 19.4316 -4.2009e-11
1.60421e-11 -4.2009e-11 18.6613

17.3184 -1.25316 -5.89185e-11
-1.25316 18.3168 -2.6975e-12
-5.89185e-11 -2.6975e-12 18.4091

21.214 0.908401 5.78352e-13
0.908401 23.3772 3.46853e-11
5.78352e-13 3.46853e-11 21.8763

21.2562 1.05442 -2.25701e-11
1.05442 21.5848 -1.25256e-11
-2.25701e-11 -1.25256e-11 21.0344

21.7352 -1.87685 1.81621e-11
-1.87685 21.6796 -3.85455e-12
1.81621e-11 -3.85455e-12 21.1641

20.5259 -0.254998 -1.81149e-11
-0.254998 23.6529 2.73634e-11
-1.81149e-11 2.73634e-11 21.2186

22.8174 1.10502 -3.46862e-12
1.10502 21.2464 -3.16005e-11
-3.46862e-12 -3.16005e-11 21.2315

24.411 0.23333 -1.56085e-10
0.23333 22.6623 2.23514e-11
-1.56085e-10 2.23514e-11 21.9968

23.405 -1.02019 2.85183e-11
-1.02019 20.3715 1.31035e-11
2.85183e-11 1.31035e-11 21.8533

24.6838 -0.334595 6.12737e-11
-0.334595 21.547 8.26654e-11
6.12737e-11 8.26654e-11 22.6386

22.6096 1.29827 1.55699e-10
1.29827 23.7213 1.90008e-10
1.55699e-10 1.90008e-10 21.7557

26.7068 -0.260122 8.94884e-10
-0.260122 25.9882 -3.84183e-10
8.94884e-10 -3.84183e-10 23.2362

26.2469 -0.905177 8.27767e-11
-0.905177 22.691 5.21279e-10
8.27767e-11 5.21279e-10 23.6538

25.3203 -1.11281 7.51627e-11
-1.11281 22.6064 -1.57032e-10
7.51627e-11 -1.57032e-10 23.4713

22.9015 1.24771 -6.20457e-11
1.24771 21.7298 -7.66961e-11
-6.20457e-11 -7.66961e-11 21.3302

21.181 0.555558 4.85621e-11
0.555558 20.7232 -1.00191e-11
4.85621e-11 -1.00191e-11 20.5336

23.92 0.624212 -9.94313e-11
0.624212 24.7978 4.66256e-11
-9.94313e-11 4.66256e-11 22.3619

24.9389 -0.8747 -6.93934e-12
-0.8747 22.0531 1.40656e-11
-6.93934e-12 1.40656e-11 23.1172

24.9596 -1.02997 -2.23613e-11
-1.02997 22.5232 1.34881e-10
-2.23613e-11 1.34881e-10 23.2556

23.2756 -0.710513 2.85188e-11
-0.710513 21.9938 -1.17536e-11
2.85188e-11 -1.17536e-11 22.4567

21.4087 1.45206 4.93308e-11
1.45206 20.8296 4.16247e-11
4.93308e-11 4.16247e-11 20.6889

23.1464 0.701706 4.81714e-11
0.701706 21.7491 7.66945e-11
4.81714e-11 7.66945e-11 21.4282

23.0994 -1.09105 -5.39611e-12
-1.09105 21.0859 5.78089e-12
-5.39611e-12 5.78089e-12 22.0835

23.9383 -0.640172 -2.89079e-11
-0.640172 21.6096 3.89225e-11
-2.89079e-11 3.89225e-11 22.4948

23.2894 0.120102 -1.27171e-11
0.120102 23.3512 3.69007e-11
-1.27171e-11 3.69007e-11 23.626

24.8957 -0.0615974 -3.7575e-11
-0.0615974 24.4457 1.95573e-11
-3.7575e-11 1.95573e-11 24.5113

24.2471 0.226591 -4.24042e-12
0.226591 23.5444 -4.60528e-11
-4.24042e-12 -4.60528e-11 23.8542

22.9913 -0.23296 2.9675e-11
-0.23296 22.0644 8.44824e-12
2.9675e-11 8.44824e-12 23.0928

23.1633 0.0388879 1.56083e-11
0.0388879 22.4852 1.19684e-12
1.56083e-11 1.19684e-12 23.3002

24.9964 -0.327761 -1.21387e-11
-0.327761 24.6343 -2.79404e-11
-1.21387e-11 -2.79404e-11 24.5576

24.1184 0.597314 7.32332e-12
0.597314 23.3885 2.44719e-11
7.32332e-12 2.44719e-11 23.7449

23.1697 -0.0553542 -8.67126e-12
-0.0553542 22.3759 4.15795e-12
-8.67126e-12 4.15795e-12 23.2736

22.8427 0.270263 -1.39706e-11
0.270263 21.1767 -3.7479e-11
-1.39706e-11 -3.7479e-11 22.4296

23.699 0.0572171 -1.42593e-11
0.0572171 23.5101 2.84229e-12
-1.42593e-11 2.84229e-12 23.8939

23.7227 -0.0533803 1.54155e-11
-0.0533803 23.5542 -1.06942e-11
1.54155e-11 -1.06942e-11 23.9141

24.5799 0.0314588 2.4279e-11
0.0314588 24.7784 -3.34558e-11
2.4279e-11 -3.34558e-11 24.731

24.5566 -0.342927 4.24029e-12
-0.342927 22.9882 -3.93084e-11
4.24029e-12 -3.93084e-11 23.5309

25.5373 0.019756 -2.85182e-11
0.019756 24.9815 1.83093e-12
-2.85182e-11 1.83093e-12 24.7827

23.2053 0.443133 -2.89039e-11
0.443133 23.0588 7.61157e-12
-2.89039e-11 7.61157e-12 23.4733

22.7801 0.62846 -2.56285e-11
0.62846 22.8262 -6.84069e-12
-2.56285e-11 -6.84069e-12 23.0945

24.2625 -0.591151 -1.46441e-11
-0.591151 23.54 -1.54154e-11
-1.46441e-11 -1.54154e-11 23.8929

24.8805 0.30437 -1.58003e-11
0.30437 24.5634 1.91731e-11
-1.58003e-11 1.91731e-11 24.4784

25.1385 0.0179586 4.21024e-11
0.0179586 25.4148 1.92358e-11
4.21024e-11 1.92358e-11 25.2085

23.7016 0.0608178 -2.004e-11
0.0608178 23.8702 -1.02606e-11
-2.004e-11 -1.02606e-11 24.0145

23.7072 -0.068296 7.70767e-12
-0.068296 23.8884 4.33709e-13
7.70767e-12 4.33709e-13 24.0238

24.637 -0.0709558 -4.23909e-12
-0.0709558 24.9724 -2.86627e-11
-4.23909e-12 -2.86627e-11 24.8426

23.2259 0.198493 1.11762e-11
0.198493 23.0992 -8.38221e-12
1.11762e-11 -8.38221e-12 23.5192

23.1513 0.160191 1.36813e-11
0.160191 22.6449 -3.0589e-12
1.36813e-11 -3.0589e-12 23.4048

22.9015 0.155344 -4.62465e-12
0.155344 22.9975 9.44183e-12
-4.62465e-12 9.44183e-12 23.3584

24.6504 -0.102989 7.70599e-13
-0.102989 24.6017 1.78239e-11
7.70599e-13 1.78239e-11 24.641

23.089 0.195552 1.02129e-11
0.195552 22.0819 -1.4813e-12
1.02129e-11 -1.4813e-12 23.096

23.6667 0.0346386 1.11761e-11
0.0346386 23.8079 1.92683e-13
1.11761e-11 1.92683e-13 23.995

22.9092 -0.266044 -1.88842e-11
-0.266044 21.1773 -7.94718e-13
-1.88842e-11 -7.94718e-13 22.656

24.3931 -0.0706612 -1.54141e-12
-0.0706612 24.6211 -3.33715e-11
-1.54141e-12 -3.33715e-11 24.6121

25.2943 -0.0577579 -3.31421e-11
-0.0577579 24.3527 -2.06184e-11
-3.31421e-11 -2.06184e-11 24.4017

25.2342 0.0881075 5.31834e-11
0.0881075 24.0657 2.3507e-11
5.31834e-11 2.3507e-11 24.2984

23.9583 -0.296098 -1.81133e-11
-0.296098 23.4999 -1.64749e-11
-1.81133e-11 -1.64749e-11 23.4526

23.9699 0.297818 3.46847e-11
0.297818 23.5327 6.45558e-12
3.46847e-11 6.45558e-12 23.4641

23.3749 -0.0684156 -1.36812e-11
-0.0684156 22.9781 -4.62464e-12
-1.36812e-11 -4.62464e-12 23.5761

22.7064 0.0584472 1.92638e-13
0.0584472 22.8365 3.90193e-12
1.92638e-13 3.90193e-12 23.2021

22.9692 -0.481428 5.01003e-11
-0.481428 22.9744 -9.68347e-12
5.01003e-11 -9.68347e-12 23.2132

22.9406 0.510237 2.87113e-11
0.510237 22.986 9.73159e-12
2.87113e-11 9.73159e-12 23.2062

22.8756 -0.234947 -2.15821e-11
-0.234947 21.1035 -1.52346e-11
-2.15821e-11 -1.52346e-11 22.3372

24.6183 -0.131607 -3.6611e-12
-0.131607 24.9238 -3.4683e-12
-3.6611e-12 -3.4683e-12 24.759

23.1643 0.00477846 2.00401e-11
0.00477846 22.9553 1.68607e-11
2.00401e-11 1.68607e-11 23.4735

22.8032 0.202874 -1.15617e-11
0.202874 21.0195 2.79527e-11
-1.15617e-11 2.79527e-11 22.3403

23.2467 -0.184517 -3.16014e-11
-0.184517 23.1396 -2.03293e-11
-3.16014e-11 -2.03293e-11 23.5402

23.2707 -0.122765 -9.24923e-12
-0.122765 23.3633 -8.86395e-12
-9.24923e-12 -8.86395e-12 23.6238

25.0489 -0.249472 5.78096e-12
-0.249472 24.9035 -1.56077e-11
5.78096e-12 -1.56077e-11 24.818

23.3078 0.0086787 9.05655e-12
0.0086787 23.0027 8.09325e-12
9.05655e-12 8.09325e-12 23.567

23.7646 0.0961499 -3.12161e-11
0.0961499 23.7413 -9.75505e-12
-3.12161e-11 -9.75505e-12 24.0414

24.12 0.12445 -6.93689e-12
0.12445 24.226 -2.44116e-11
-6.93689e-12 -2.44116e-11 24.3731

23.3614 -0.937006 5.78041e-12
-0.937006 22.2311 -6.93709e-12
5.78041e-12 -6.93709e-12 22.9702

24.0972 -0.0527889 -6.55165e-12
-0.0527889 24.2582 4.238e-11
-6.55165e-12 4.238e-11 24.3534

23.6258 0.0562788 2.35084e-11
0.0562788 23.6897 4.23926e-12
2.35084e-11 4.23926e-12 23.9436

25.7317 0.166371 4.97133e-11
0.166371 25.8505 -1.43555e-11
4.97133e-11 -1.43555e-11 25.5591

25.7311 -0.165683 8.09283e-12
-0.165683 25.8506 5.87721e-12
8.09283e-12 5.87721e-12 25.5588

25.2741 -0.0670883 3.16008e-11
-0.0670883 25.5233 2.87693e-11
3.16008e-11 2.87693e-11 25.3028

25.7161 0.0672414 2.35075e-11
0.0672414 25.9236 -9.79338e-11
2.35075e-11 -9.79338e-11 25.5843

25.7155 -0.0669001 -1.34878e-11
-0.0669001 25.9233 -6.45504e-11
-1.34878e-11 -6.45504e-11 25.5839

24.6867 -0.207068 -3.85164e-13
-0.207068 24.8223 -1.13687e-11
-3.85164e-13 -1.13687e-11 24.7076

23.4256 -0.386615 -3.66121e-11
-0.386615 22.5824 7.90088e-12
-3.66121e-11 7.90088e-12 22.9532

23.4256 0.399384 -1.15616e-11
0.399384 22.5845 6.14686e-11
-1.15616e-11 6.14686e-11 22.9555

25.3955 0.0927759 -7.70511e-13
0.0927759 25.6615 4.69196e-11
-7.70511e-13 4.69196e-11 25.3776

25.3954 -0.0929505 -1.88834e-11
-0.0929505 25.6631 2.93829e-12
-1.88834e-11 2.93829e-12 25.3779

23.4057 0.0638982 2.06181e-11
0.0638982 23.163 1.44761e-11
2.06181e-11 1.44761e-11 23.6836

24.5378 0.553468 1.54142e-12
0.553468 23.5936 -2.11913e-12
1.54142e-12 -2.11913e-12 23.6025

26.0286 -0.447538 8.09183e-12
-0.447538 25.49 4.89432e-11
8.09183e-12 4.89432e-11 24.922

24.6187 0.129055 -1.54153e-11
0.129055 24.9321 -1.54152e-11
-1.54153e-11 -1.54152e-11 24.7636

23.6728 -0.0619281 -1.11763e-11
-0.0619281 23.853 4.38615e-11
-1.11763e-11 4.38615e-11 24.0208

23.5656 -0.0902549 1.38738e-11
-0.0902549 23.431 1.72159e-11
1.38738e-11 1.72159e-11 23.8146

24.7 -0.206059 -5.39473e-12
-0.206059 24.8336 -3.30463e-11
-5.39473e-12 -3.30463e-11 24.6387

23.5748 0.572454 -2.19668e-11
0.572454 22.9979 2.11967e-12
-2.19668e-11 2.11967e-12 23.5022

26.5031 0.121824 -7.74587e-11
0.121824 26.679 1.36519e-10
-7.74587e-11 1.36519e-10 25.996

26.5021 -0.120972 -1.00967e-10
-0.120972 26.677 -1.45479e-11
-1.00967e-10 -1.45479e-11 25.9953

22.9216 0.769378 -2.0233e-11
0.769378 22.2045 4.04651e-12
-2.0233e-11 4.04651e-12 22.6819

25.2731 0.0423302 1.50295e-11
0.0423302 25.5486 -1.69086e-11
1.50295e-11 -1.69086e-11 25.3014

25.2745 -0.0416905 -3.31423e-11
-0.0416905 25.5571 -3.36725e-11
-3.31423e-11 -3.36725e-11 25.3049

21.994 0.372153 -4.8176e-12
0.372153 22.6124 -1.51267e-11
-4.8176e-12 -1.51267e-11 22.7533

25.1605 0.248118 2.81325e-11
0.248118 25.1932 -8.18967e-12
2.81325e-11 -8.18967e-12 24.8222

23.3196 0.0675405 -7.12963e-12
0.0675405 22.95 4.69685e-12
-7.12963e-12 4.69685e-12 23.5613

23.2513 -0.115294 2.50501e-12
-0.115294 22.6213 1.78241e-12
2.50501e-12 1.78241e-12 23.428

22.8244 -0.570194 1.15617e-11
-0.570194 22.0611 2.59652e-11
1.15617e-11 2.59652e-11 22.9466

23.1125 0.622762 -1.23515e-10
0.622762 23.9534 -1.43582e-11
-1.23515e-10 -1.43582e-11 23.3342

23.1244 -0.649949 -1.09449e-10
-0.649949 23.8915 -1.33893e-11
-1.09449e-10 -1.33893e-11 23.3206

23.4085 0.106078 -1.6957e-11
0.106078 23.4145 -1.55116e-11
-1.6957e-11 -1.55116e-11 23.7411

22.9368 0.15513 2.06182e-11
0.15513 22.6536 -6.26236e-12
2.06182e-11 -6.26236e-12 23.313

25.1525 -0.125007 3.31422e-11
-0.125007 25.3912 3.84655e-11
3.31422e-11 3.84655e-11 25.2005

25.8907 0.000513084 -1.23321e-10
0.000513084 25.718 1.57969e-11
-1.23321e-10 1.57969e-11 24.8424

26.0198 0.468686 6.51327e-11
0.468686 23.8875 3.892e-11
6.51327e-11 3.892e-11 24.2229

22.8046 0.601625 3.77682e-11
0.601625 22.1193 1.40672e-11
3.77682e-11 1.40672e-11 22.9514

24.3831 -0.194261 -1.25215e-12
-0.194261 23.7484 -7.22597e-12
-1.25215e-12 -7.22597e-12 24.0122

24.7749 0.0575075 -3.26619e-11
0.0575075 24.3199 -3.16005e-11
-3.26619e-11 -3.16005e-11 24.4134

25.3641 -0.00194417 -2.19664e-11
-0.00194417 25.652 7.2258e-12
-2.19664e-11 7.2258e-12 25.387

25.3684 0.00430106 -4.62453e-12
0.00430106 25.6518 1.20485e-13
-4.62453e-12 1.20485e-13 25.3894

24.5422 0.121882 -4.23907e-12
0.121882 24.7776 1.01645e-11
-4.23907e-12 1.01645e-11 24.7199

24.9754 -0.0774822 -4.23915e-11
-0.0774822 25.2719 -1.87586e-11
-4.23915e-11 -1.87586e-11 25.0909

25.5407 0.0436733 -1.792e-11
0.0436733 25.7674 -4.91597e-11
-1.792e-11 -4.91597e-11 25.4872

25.541 -0.0427435 1.68604e-12
-0.0427435 25.7677 -2.34356e-11
1.68604e-12 -2.34356e-11 25.4874

25.1424 0.126254 3.93085e-11
0.126254 25.3894 2.84938e-11
3.93085e-11 2.84938e-11 25.1969

24.647 0.0934322 1.42589e-11
0.0934322 24.6098 -2.15816e-11
1.42589e-11 -2.15816e-11 24.6428

25.4152 0.118956 -7.70943e-13
0.118956 25.618 -2.92646e-11
-7.70943e-13 -2.92646e-11 25.3917

25.4237 -0.115328 -1.15606e-12
-0.115328 25.6191 -3.03002e-11
-1.15606e-12 -3.03002e-11 25.3952

23.0109 0.259587 -1.75352e-11
0.259587 22.04 -1.54157e-12
-1.75352e-11 -1.54157e-12 23.0745

25.3174 -0.145099 5.78024e-12
-0.145099 25.3133 3.26608e-11
5.78024e-12 3.26608e-11 25.1445

23.2105 0.0445275 4.16219e-11
0.0445275 23.0042 1.27174e-11
4.16219e-11 1.27174e-11 23.4997

22.0688 0.599297 -1.31028e-11
0.599297 22.3472 3.33367e-11
-1.31028e-11 3.33367e-11 22.4412

25.1828 -0.153973 -4.23877e-12
-0.153973 25.1771 -2.89034e-11
-4.23877e-12 -2.89034e-11 24.9235

24.8503 0.025276 -5.00986e-12
0.025276 25.1131 -4.36683e-11
-5.00986e-12 -4.36683e-11 24.9751

22.638 0.364519 -8.6713e-12
0.364519 22.3268 2.23042e-11
-8.6713e-12 2.23042e-11 23.0932

23.0305 -0.206368 3.8538e-12
-0.206368 22.1667 -3.23723e-11
3.8538e-12 -3.23723e-11 23.1285

23.211 -0.0417498 8.28586e-12
-0.0417498 23.104 2.31222e-12
8.28586e-12 2.31222e-12 23.5797

22.8847 -0.148129 1.34897e-12
-0.148129 22.6761 1.95102e-11
1.34897e-12 1.95102e-11 23.3138

24.1481 0.395376 9.63386e-12
0.395376 23.8349 -3.13123e-11
9.63386e-12 -3.13123e-11 24.0924

24.2987 -0.356544 2.15814e-11
-0.356544 24.0193 1.18509e-11
2.15814e-11 1.18509e-11 24.2011

24.5661 -0.0285832 -5.00998e-12
-0.0285832 24.807 4.69719e-13
-5.00998e-12 4.69719e-13 24.7413

21.9551 -0.395936 -4.74029e-11
-0.395936 22.6124 1.3103e-11
-4.74029e-11 1.3103e-11 22.7361

24.6072 0.0373771 -2.31195e-12
0.0373771 24.7343 4.67273e-11
-2.31195e-12 4.67273e-11 24.7056

24.5943 -0.0365665 -3.46804e-12
-0.0365665 24.7168 -5.34715e-11
-3.46804e-12 -5.34715e-11 24.6952

22.9572 0.177073 -1.04055e-11
0.177073 22.6489 9.92362e-12
-1.04055e-11 9.92362e-12 23.2554

22.636 0.499032 -8.47891e-12
0.499032 20.5425 -4.8029e-11
-8.47891e-12 -4.8029e-11 22.0979

22.6401 -0.431302 6.3591e-12
-0.431302 20.5379 1.97993e-11
6.3591e-12 1.97993e-11 22.0955

23.828 0.216391 3.08376e-12
0.216391 23.5349 3.59369e-11
3.08376e-12 3.59369e-11 23.9167

22.8521 -0.136114 -7.70578e-13
-0.136114 23.0143 -3.24208e-11
-7.70578e-13 -3.24208e-11 23.3564

24.03 0.170949 2.08109e-11
0.170949 24.0334 1.92208e-11
2.08109e-11 1.92208e-11 24.2089

24.0504 -0.167473 -3.39135e-11
-0.167473 24.0419 -1.10799e-11
-3.39135e-11 -1.10799e-11 24.2179

24.7031 0.011311 1.31028e-11
0.011311 24.8478 -7.56311e-12
1.31028e-11 -7.56311e-12 24.8153

24.5117 -0.121529 3.27571e-11
-0.121529 24.76 2.72657e-11
3.27571e-11 2.72657e-11 24.7044

24.7211 0.014279 2.04251e-11
0.014279 24.9883 -1.58975e-12
2.04251e-11 -1.58975e-12 24.8604

27.2701 0.183799 -1.02897e-10
0.183799 25.7612 2.54339e-11
-1.02897e-10 2.54339e-11 25.046

27.1393 -0.906972 -6.62821e-11
-0.906972 25.1861 5.00983e-11
-6.62821e-11 5.00983e-11 24.743

24.8797 -0.0115806 -2.65911e-11
-0.0115806 25.1222 1.51262e-11
-2.65911e-11 1.51262e-11 24.9886

24.9489 -0.0804268 -4.23916e-12
-0.0804268 25.0281 2.89034e-12
-4.23916e-12 2.89034e-12 24.8658

25.261 0.0690511 -2.31229e-12
0.0690511 25.5193 -9.24008e-12
-2.31229e-12 -9.24008e-12 25.2979

23.82 -0.208176 1.58009e-11
-0.208176 23.5522 -3.85132e-13
1.58009e-11 -3.85132e-13 23.9135

25.4543 -0.390548 1.11762e-11
-0.390548 25.1852 -1.34881e-11
1.11762e-11 -1.34881e-11 24.9164

22.5461 1.06021 -2.35083e-11
1.06021 22.0218 2.05219e-11
-2.35083e-11 2.05219e-11 22.5168

25.3301 0.159113 -8.47806e-12
0.159113 25.314 3.9116e-11
-8.47806e-12 3.9116e-11 25.1491

25.2972 -0.189695 -2.15808e-11
-0.189695 25.3846 -2.24483e-11
-2.15808e-11 -2.24483e-11 25.1502

22.9888 0.36273 -2.46646e-11
0.36273 22.8921 2.69771e-12
-2.46646e-11 2.69771e-12 23.1892

25.4175 -0.00189223 8.86363e-12
-0.00189223 25.7643 1.08824e-11
8.86363e-12 1.08824e-11 25.4437

24.7241 -0.0107357 -7.70863e-13
-0.0107357 24.9463 1.35365e-11
-7.70863e-13 1.35365e-11 24.8461

22.0295 -0.59981 -2.58204e-11
-0.59981 22.3562 -2.61104e-11
-2.58204e-11 -2.61104e-11 22.4301

24.7158 -0.132508 -2.35081e-11
-0.132508 25.0325 -1.34402e-11
-2.35081e-11 -1.34402e-11 24.86

23.3475 -0.067481 5.01014e-12
-0.067481 23.4453 -1.45965e-11
5.01014e-12 -1.45965e-11 23.7491

22.7479 -0.0762242 9.24944e-12
-0.0762242 22.8356 -2.19188e-11
9.24944e-12 -2.19188e-11 23.2069

24.2694 0.0505075 -3.39133e-11
0.0505075 24.2214 3.60816e-11
-3.39133e-11 3.60816e-11 24.3638

24.2708 -0.0557268 -2.42788e-11
-0.0557268 24.2131 -2.05217e-11
-2.42788e-11 -2.05217e-11 24.361

24.6557 0.0635515 1.04052e-11
0.0635515 25.0107 7.17767e-12
1.04052e-11 7.17767e-12 24.8632

24.7166 0.136057 8.09328e-12
0.136057 25.0205 5.13518e-11
8.09328e-12 5.13518e-11 24.8585

24.2791 -0.0817852 1.11759e-11
-0.0817852 24.0655 1.62826e-11
1.11759e-11 1.62826e-11 24.222

24.2376 0.0971144 -7.70083e-13
0.0971144 24.0189 4.09468e-11
-7.70083e-13 4.09468e-11 24.1794

24.3904 -0.0138433 -6.93669e-12
-0.0138433 24.5475 2.37492e-11
-6.93669e-12 2.37492e-11 24.5545

24.3853 0.0108559 -1.19469e-11
0.0108559 24.5682 2.11477e-11
-1.19469e-11 2.11477e-11 24.557

25.4952 0.0396579 2.62055e-11
0.0396579 25.7036 7.99661e-12
2.62055e-11 7.99661e-12 25.4485

25.4971 -0.0378416 8.4783e-12
-0.0378416 25.7038 1.68623e-13
8.4783e-12 1.68623e-13 25.4492

25.0463 -0.218046 5.39524e-12
-0.218046 25.2126 7.03326e-12
5.39524e-12 7.03326e-12 25.0006

22.3505 -0.964255 -5.20205e-12
-0.964255 22.0475 -1.76319e-11
-5.20205e-12 -1.76319e-11 22.397

22.2942 0.0151372 2.79407e-11
0.0151372 22.7208 1.397e-11
2.79407e-11 1.397e-11 23.0642

23.4187 0.0352241 3.46836e-12
0.0352241 23.3957 -2.38457e-11
3.46836e-12 -2.38457e-11 23.7523

24.2581 -0.0978785 -4.62471e-12
-0.0978785 24.4833 1.41628e-11
-4.62471e-12 1.41628e-11 24.4344

25.6149 0.137177 -5.78061e-11
0.137177 25.7306 3.48284e-11
-5.78061e-11 3.48284e-11 25.4892

25.6152 -0.136195 6.55138e-11
-0.136195 25.7318 1.11279e-11
6.55138e-11 1.11279e-11 25.4894

25.2834 0.170533 4.48965e-11
0.170533 25.4874 1.99431e-11
4.48965e-11 1.99431e-11 25.2773

25.2822 -0.171285 -5.43379e-11
-0.171285 25.488 -3.03487e-11
-5.43379e-11 -3.03487e-11 25.2771

23.8753 -0.0262967 -1.11761e-11
-0.0262967 24.0683 -7.97262e-12
-1.11761e-11 -7.97262e-12 24.1824

24.3356 -0.0177492 7.70757e-12
-0.0177492 24.5056 1.56543e-13
7.70757e-12 1.56543e-13 24.5331

24.2572 0.113187 -2.69767e-11
0.113187 24.4902 -1.92668e-12
-2.69767e-11 -1.92668e-12 24.4348

26.0767 -0.000336818 5.3567e-11
-0.000336818 26.1947 -3.02522e-11
5.3567e-11 -3.02522e-11 25.7772

26.0761 0.000663395 3.6996e-11
0.000663395 26.1933 -3.53581e-11
3.6996e-11 -3.53581e-11 25.7767

25.0355 -0.149934 3.1601e-11
-0.149934 25.2394 -1.33916e-11
3.1601e-11 -1.33916e-11 25.0748

23.4638 -0.0617919 2.46647e-11
-0.0617919 23.1095 -1.18988e-11
2.46647e-11 -1.18988e-11 23.6828

24.9745 0.0795499 -5.78066e-11
0.0795499 25.2743 4.85792e-12
-5.78066e-11 4.85792e-12 25.0914

23.6403 -0.523422 -5.39585e-12
-0.523422 23.2719 1.77279e-11
-5.39585e-12 1.77279e-11 23.6338

24.7002 0.259704 5.00975e-12
0.259704 24.6086 -7.12967e-12
5.00975e-12 -7.12967e-12 24.5608

23.2202 0.032575 -4.7595e-11
0.032575 23.2485 1.92337e-13
-4.7595e-11 1.92337e-13 23.6239

25.3128 0.188363 4.23887e-12
0.188363 25.3831 -1.32953e-11
4.23887e-12 -1.32953e-11 25.1545

25.0251 0.15344 -4.70159e-11
0.15344 25.24 3.49251e-11
-4.70159e-11 3.49251e-11 25.0716

21.4542 0.9561 -5.78066e-12
0.9561 21.8519 2.20641e-11
-5.78066e-12 2.20641e-11 22.0373

25.612 -0.00586315 1.81128e-11
-0.00586315 25.1429 1.06944e-11
1.81128e-11 1.06944e-11 24.853

24.4696 0.479392 8.09417e-12
0.479392 22.6624 2.4857e-11
8.09417e-12 2.4857e-11 23.3772

25.0438 0.226743 1.27177e-11
0.226743 25.2148 1.94616e-11
1.27177e-11 1.94616e-11 25.0031

22.5068 0.463242 -2.58216e-11
0.463242 22.7248 -1.46445e-11
-2.58216e-11 -1.46445e-11 23.0073

23.1477 -0.0564039 5.00989e-12
-0.0564039 22.986 -3.31914e-11
5.00989e-12 -3.31914e-11 23.5058

25.4438 -0.282139 -1.73417e-11
-0.282139 25.2292 -1.7053e-11
-1.73417e-11 -1.7053e-11 25.0719

23.2406 -0.455909 -9.24893e-12
-0.455909 23.068 -1.48376e-11
-9.24893e-12 -1.48376e-11 23.4717

23.767 0.309303 -4.23886e-12
0.309303 23.7084 2.399e-11
-4.23886e-12 2.399e-11 23.9455

25.1158 -0.0769238 -2.4664e-11
-0.0769238 25.4019 -2.4086e-11
-2.4664e-11 -2.4086e-11 25.1636

24.3678 -0.225331 -6.93691e-12
-0.225331 24.2732 7.7077e-12
-6.93691e-12 7.7077e-12 24.3788

25.555 0.34045 2.08106e-11
0.34045 25.1746 1.48368e-11
2.08106e-11 1.48368e-11 24.952

23.6482 0.0382858 -1.27177e-11
0.0382858 23.6726 1.96064e-11
-1.27177e-11 1.96064e-11 23.9646

23.6262 -0.0204585 -1.96546e-11
-0.0204585 23.4731 6.13605e-12
-1.96546e-11 6.13605e-12 23.8837

25.1169 0.0778481 -5.78071e-12
0.0778481 25.402 4.9136e-12
-5.78071e-12 4.9136e-12 25.164

25.1372 -0.0124942 7.6594e-12
-0.0124942 25.4174 1.01583e-11
7.6594e-12 1.01583e-11 25.2075

26.5241 0.0832313 2.65905e-11
0.0832313 26.433 -4.97132e-11
2.65905e-11 -4.97132e-11 25.9472

26.5233 -0.0823369 -5.78167e-12
-0.0823369 26.4316 1.89507e-10
-5.78167e-12 1.89507e-10 25.9466

24.9628 0.0966727 8.09313e-12
0.0966727 25.0229 1.38735e-11
8.09313e-12 1.38735e-11 24.868

22.7387 -0.548004 2.6399e-11
-0.548004 23.115 -3.94062e-11
2.6399e-11 -3.94062e-11 23.1532

22.7361 0.557702 9.05653e-12
0.557702 23.1426 4.43219e-12
9.05653e-12 4.43219e-12 23.1593

23.1089 -0.0735057 -5.20268e-12
-0.0735057 21.7479 -3.15581e-14
-5.20268e-12 -3.15581e-14 22.8836

21.4237 -0.94182 1.40668e-11
-0.94182 21.8721 -9.34559e-12
1.40668e-11 -9.34559e-12 22.0254

24.2788 0.0550958 -2.71693e-11
0.0550958 24.463 -2.46163e-11
-2.71693e-11 -2.46163e-11 24.492

23.6352 0.004361 -1.07908e-11
0.004361 23.4604 -8.45424e-12
-1.07908e-11 -8.45424e-12 23.8788

24.1959 0.106602 1.4837e-11
0.106602 24.3172 -1.44037e-11
1.4837e-11 -1.44037e-11 24.4058

24.208 -0.108662 -2.63986e-11
-0.108662 24.3205 -1.68612e-12
-2.63986e-11 -1.68612e-12 24.4157

24.4806 0.0479763 1.84982e-11
0.0479763 24.6243 -2.83014e-11
1.84982e-11 -2.83014e-11 24.6397

25.4491 0.271845 -4.62466e-12
0.271845 25.2369 3.75771e-12
-4.62466e-12 3.75771e-12 25.0739

23.8746 0.0970066 -4.62593e-17
0.0970066 23.9072 -2.50498e-12
-4.62593e-17 -2.50498e-12 24.1308

24.4591 0.0276898 2.31224e-12
0.0276898 24.5661 1.02372e-12
2.31224e-12 1.02372e-12 24.6139

24.5834 -0.326854 -9.24634e-12
-0.326854 23.4498 -7.45712e-11
-9.24634e-12 -7.45712e-11 23.6303

25.9601 0.353633 -2.38933e-11
0.353633 25.1197 2.00399e-11
-2.38933e-11 2.00399e-11 24.8497

23.0732 -0.392879 2.9675e-11
-0.392879 22.4164 3.60333e-11
2.9675e-11 3.60333e-11 23.1082

22.5224 -0.0648521 -1.38743e-11
-0.0648521 20.0527 3.16156e-12
-1.38743e-11 3.16156e-12 21.8074

24.3416 -0.143195 -3.8506e-13
-0.143195 24.5626 -3.41544e-11
-3.8506e-13 -3.41544e-11 24.5319

24.3431 0.141548 -3.16007e-11
0.141548 24.5801 5.49652e-11
-3.16007e-11 5.49652e-11 24.5402

23.0299 -0.0485778 -3.16023e-11
-0.0485778 21.4521 1.17287e-11
-3.16023e-11 1.17287e-11 22.7949

24.685 0.215217 -1.58001e-11
0.215217 24.8408 3.10231e-11
-1.58001e-11 3.10231e-11 24.7076

25.8372 0.129048 4.74009e-11
0.129048 26.0068 -4.69198e-11
4.74009e-11 -4.69198e-11 25.663

25.8372 -0.128356 3.46867e-12
-0.128356 26.006 -9.00815e-11
3.46867e-12 -9.00815e-11 25.6627

22.8025 -0.149187 -1.31031e-11
-0.149187 22.8466 2.92895e-11
-1.31031e-11 2.92895e-11 23.2257

22.4803 -0.472728 8.67154e-12
-0.472728 22.7172 -1.30067e-11
8.67154e-12 -1.30067e-11 22.9965

22.9336 -0.411048 2.15818e-11
-0.411048 21.8905 -6.53231e-11
2.15818e-11 -6.53231e-11 22.9351

23.4033 0.0115983 -2.6978e-12
0.0115983 23.0927 -2.19669e-11
-2.6978e-12 -2.19669e-11 23.6535

22.9185 -0.354551 4.23935e-12
-0.354551 22.8921 -4.14284e-12
4.23935e-12 -4.14284e-12 23.1681

23.7028 -0.0725886 -5.00999e-11
-0.0725886 23.7038 7.64734e-12
-5.00999e-11 7.64734e-12 24.0179

23.7669 -0.290998 -2.69769e-11
-0.290998 23.7708 3.5648e-12
-2.69769e-11 3.5648e-12 23.9658

24.3559 0.220475 -1.15589e-12
0.220475 24.1729 1.58007e-11
-1.15589e-12 1.58007e-11 24.3435

25.4929 -0.339349 -4.66316e-11
-0.339349 24.7282 3.00584e-11
-4.66316e-11 3.00584e-11 24.4895

25.2826 0.243152 2.1196e-11
0.243152 24.6093 -1.34887e-11
2.1196e-11 -1.34887e-11 24.3893

25.5391 0.00397795 1.42588e-11
0.00397795 25.8283 -1.46925e-11
1.42588e-11 -1.46925e-11 25.5161

25.5363 -0.00456122 2.04249e-11
-0.00456122 25.8266 2.50976e-11
2.04249e-11 2.50976e-11 25.5154

22.4543 -0.253466 1.54159e-12
-0.253466 22.693 2.69771e-12
1.54159e-12 2.69771e-12 23.0773

22.4203 0.266714 -5.99276e-11
0.266714 22.7235 -1.82104e-11
-5.99276e-11 -1.82104e-11 23.0679

22.4726 -0.134956 3.4877e-11
-0.134956 23.1787 -3.69019e-11
3.4877e-11 -3.69019e-11 22.9556

22.462 0.150854 2.81338e-11
0.150854 23.1629 -2.34116e-11
2.81338e-11 -2.34116e-11 22.9487

26.2933 -0.001335 1.23324e-11
-0.001335 26.3603 2.48567e-11
1.23324e-11 2.48567e-11 25.8703

26.2922 0.00186658 4.7015e-11
0.00186658 26.3589 7.84238e-11
4.7015e-11 7.84238e-11 25.8696

25.6148 0.176843 3.12154e-11
0.176843 25.4725 2.21595e-12
3.12154e-11 2.21595e-12 25.3232

25.6139 -0.178805 1.50304e-11
-0.178805 25.4758 -4.91352e-11
1.50304e-11 -4.91352e-11 25.324

24.9821 -0.0382299 1.38734e-11
-0.0382299 25.3072 4.16692e-11
1.38734e-11 4.16692e-11 25.0939

23.804 -0.211181 1.11765e-11
-0.211181 23.4351 -1.34853e-12
1.11765e-11 -1.34853e-12 23.7558

24.6009 0.0471419 1.5416e-12
0.0471419 24.5636 1.00198e-11
1.5416e-12 1.00198e-11 24.5428

23.4441 -0.0969081 1.42596e-11
-0.0969081 23.2121 -4.40301e-11
1.42596e-11 -4.40301e-11 23.6965

24.9835 0.0408356 -4.39328e-11
0.0408356 25.3077 4.61975e-11
-4.39328e-11 4.61975e-11 25.0932

23.7068 0.175482 -8.38215e-12
0.175482 23.5004 -9.63697e-13
-8.38215e-12 -9.63697e-13 23.751

24.8336 -0.0694843 -6.93701e-12
-0.0694843 25.153 2.18221e-11
-6.93701e-12 2.18221e-11 24.9624

21.2162 -0.601841 1.8306e-11
-0.601841 22.2177 -2.21601e-11
1.8306e-11 -2.21601e-11 22.1562

21.2226 0.603815 -2.21601e-11
0.603815 22.2018 6.16709e-12
-2.21601e-11 6.16709e-12 22.1555

24.8266 0.071623 4.50894e-11
0.071623 25.1483 3.81524e-11
4.50894e-11 3.81524e-11 24.9587

23.0353 0.443127 2.73626e-11
0.443127 22.4255 1.91252e-11
2.73626e-11 1.91252e-11 23.0918

27.2489 0.106438 7.55357e-11
0.106438 23.6016 1.90815e-11
7.55357e-11 1.90815e-11 24.3779

27.2187 -0.220114 -3.16013e-11
-0.220114 26.3966 -9.44073e-12
-3.16013e-11 -9.44073e-12 25.1907

25.09 0.0927335 2.27368e-11
0.0927335 24.859 -2.8422e-11
2.27368e-11 -2.8422e-11 24.7564

22.6461 -0.338841 1.1562e-12
-0.338841 22.3366 3.69971e-11
1.1562e-12 3.69971e-11 23.1101

23.0694 -0.645981 -2.69763e-12
-0.645981 22.1088 2.95785e-11
-2.69763e-12 2.95785e-11 22.7889

24.2363 -0.0352654 3.08296e-12
-0.0352654 24.3167 -1.8113e-11
3.08296e-12 -1.8113e-11 24.4288

24.2542 0.0109395 -7.3223e-12
0.0109395 24.5531 -2.96021e-11
-7.3223e-12 -2.96021e-11 24.5273

25.7122 0.070917 1.92687e-11
0.070917 25.8159 -3.09023e-11
1.92687e-11 -3.09023e-11 25.5637

25.7138 -0.0677997 4.00791e-11
-0.0677997 25.8146 -3.47561e-11
4.00791e-11 -3.47561e-11 25.5638

23.0816 0.645027 1.15617e-11
0.645027 22.142 2.4088e-12
1.15617e-11 2.4088e-12 22.7989

24.631 -0.0668206 -2.47607e-11
-0.0668206 24.5503 1.18503e-11
-2.47607e-11 1.18503e-11 24.5602

24.8449 -0.127213 -4.52829e-12
-0.127213 25.1434 2.83254e-11
-4.52829e-12 2.83254e-11 24.9807

25.4058 0.192733 9.24897e-12
0.192733 25.5886 -6.84048e-12
9.24897e-12 -6.84048e-12 25.3475

25.4057 -0.192254 -1.3103e-11
-0.192254 25.5898 2.72653e-11
-1.3103e-11 2.72653e-11 25.3476

23.6048 -0.941793 1.04077e-11
-0.941793 23.1159 -1.08868e-10
1.04077e-11 -1.08868e-10 23.2639

23.5816 0.959283 3.2951e-11
0.959283 23.121 -1.61054e-11
3.2951e-11 -1.61054e-11 23.2607

25.0443 0.274802 8.86358e-12
0.274802 25.0661 -8.57465e-12
8.86358e-12 -8.57465e-12 24.8681

23.0381 -0.120479 -3.12165e-11
-0.120479 22.6902 -2.8421e-12
-3.12165e-11 -2.8421e-12 23.294

25.5663 0.145486 7.99718e-12
0.145486 25.836 9.61032e-11
7.99718e-12 9.61032e-11 25.5193

25.567 -0.144936 1.02126e-11
-0.144936 25.8356 7.56315e-12
1.02126e-11 7.56315e-12 25.5193

23.6724 -0.42029 -1.73521e-12
-0.42029 22.9808 3.30469e-11
-1.73521e-12 3.30469e-11 23.358

22.6771 -0.810824 2.89043e-11
-0.810824 22.1397 6.93776e-12
2.89043e-11 6.93776e-12 22.5305

24.0299 -0.11325 5.47242e-11
-0.11325 24.2082 -8.43038e-12
5.47242e-11 -8.43038e-12 24.3312

22.0208 0.0608532 -3.85261e-13
0.0608532 23.0089 -1.27174e-11
-3.85261e-13 -1.27174e-11 22.7562

22.008 -0.0610667 9.44221e-12
-0.0610667 23.0009 -2.34126e-11
9.44221e-12 -2.34126e-11 22.7506

22.6196 -0.799303 8.47782e-12
-0.799303 22.4759 2.13892e-11
8.47782e-12 2.13892e-11 22.8994

24.861 0.127387 1.9267e-12
0.127387 25.138 -4.25844e-11
1.9267e-12 -4.25844e-11 24.9874

22.7951 0.159171 1.2622e-11
0.159171 22.8592 -8.08349e-11
1.2622e-11 -8.08349e-11 23.2161

22.2167 0.0515597 -9.05691e-12
0.0515597 22.8158 -3.66117e-11
-9.05691e-12 -3.66117e-11 22.9372

22.193 -0.0610426 -4.08514e-11
-0.0610426 22.8297 3.09273e-11
-4.08514e-11 3.09273e-11 22.9314

22.8565 0.504543 2.63994e-11
0.504543 21.752 -5.49141e-12
2.63994e-11 -5.49141e-12 22.8727

25.7519 0.0931156 -1.58003e-11
0.0931156 26.0232 -1.87871e-11
-1.58003e-11 -1.87871e-11 25.6461

25.7523 -0.0923613 7.28359e-11
-0.0923613 26.0214 1.1754e-11
7.28359e-11 1.1754e-11 25.6456

26.0229 -0.0153048 3.7381e-11
-0.0153048 25.3813 3.54566e-11
3.7381e-11 3.54566e-11 24.6155

25.9664 0.450032 -7.74598e-11
0.450032 25.4052 4.00824e-11
-7.74598e-11 4.00824e-11 24.7096

23.923 0.0317676 3.08292e-12
0.0317676 24.1139 6.55632e-11
3.08292e-12 6.55632e-11 24.2181

23.8124 -0.0201683 -1.23323e-11
-0.0201683 23.4809 2.38276e-11
-1.23323e-11 2.38276e-11 23.9125

25.298 0.179163 -5.66503e-11
0.179163 25.5179 2.29301e-11
-5.66503e-11 2.29301e-11 25.2503

25.3014 -0.178447 5.78052e-12
-0.178447 25.5186 9.15289e-12
5.78052e-12 9.15289e-12 25.2512

25.1801 0.195741 5.3949e-12
0.195741 25.1873 -2.49532e-11
5.3949e-12 -2.49532e-11 24.9436

24.0557 0.046743 5.20264e-11
0.046743 24.183 -3.62742e-11
5.20264e-11 -3.62742e-11 24.3045

24.3263 -0.0156703 -1.96544e-11
-0.0156703 24.3271 9.82719e-12
-1.96544e-11 9.82719e-12 24.4772

26.4004 -0.105661 -1.00204e-11
-0.105661 26.5908 1.40469e-10
-1.00204e-11 1.40469e-10 25.9609

26.4013 0.106491 -5.08685e-11
0.106491 26.592 1.58292e-10
-5.08685e-11 1.58292e-10 25.9615

22.2573 -0.0190831 2.98676e-11
-0.0190831 22.6934 -2.07141e-11
2.98676e-11 -2.07141e-11 23.0404

24.9357 0.137251 8.47813e-12
0.137251 25.0191 -1.55115e-11
8.47813e-12 -1.55115e-11 24.9257

25.315 0.118161 -2.96746e-11
0.118161 25.4696 -6.04078e-11
-2.96746e-11 -6.04078e-11 25.2458

25.315 -0.117327 3.23712e-11
-0.117327 25.4705 6.04083e-11
3.23712e-11 6.04083e-11 25.2461

24.9931 0.0847574 -1.96546e-11
0.0847574 25.2144 -2.44714e-11
-1.96546e-11 -2.44714e-11 25.0145

24.9344 -0.130594 -2.54349e-11
-0.130594 25.012 -1.23323e-11
-2.54349e-11 -1.23323e-11 24.9233

23.9843 -0.00678645 -1.27213e-16
-0.00678645 24.1826 -1.94619e-11
-1.27213e-16 -1.94619e-11 24.2558

24.0005 -0.00995173 -8.8638e-12
-0.00995173 24.223 -1.20434e-12
-8.8638e-12 -1.20434e-12 24.2747

24.4651 -0.0342452 -4.62459e-12
-0.0342452 24.7649 -2.98667e-12
-4.62459e-12 -2.98667e-12 24.6893

24.9893 -0.0826864 -2.04248e-11
-0.0826864 25.2151 -3.24681e-11
-2.04248e-11 -3.24681e-11 25.0132

23.9417 -0.0878066 -1.04055e-11
-0.0878066 23.9402 2.9265e-11
-1.04055e-11 2.9265e-11 24.1685

23.5061 0.0506052 2.65915e-11
0.0506052 23.3698 6.81658e-12
2.65915e-11 6.81658e-12 23.7869

25.5416 0.16319 2.46639e-11
0.16319 25.591 -1.84982e-11
2.46639e-11 -1.84982e-11 25.3778

25.5418 -0.164167 -3.54546e-11
-0.164167 25.5911 -1.83071e-12
-3.54546e-11 -1.83071e-12 25.3778

25.5389 0.1083 2.46641e-11
0.1083 25.7684 1.07904e-11
2.46641e-11 1.07904e-11 25.4502

25.5392 -0.107773 -1.23321e-11
-0.107773 25.7688 1.51259e-11
-1.23321e-11 1.51259e-11 25.4502

23.7551 -0.0878838 -3.42992e-11
-0.0878838 23.9107 4.41264e-11
-3.42992e-11 4.41264e-11 24.0916

23.6889 -0.0789323 -1.50301e-11
-0.0789323 23.6876 2.40022e-11
-1.50301e-11 2.40022e-11 23.9569

25.1341 -0.191288 -2.62054e-11
-0.191288 25.3569 -2.49532e-11
-2.62054e-11 -2.49532e-11 25.1418

25.1325 0.193126 -2.8133e-11
0.193126 25.3543 -4.77868e-11
-2.8133e-11 -4.77868e-11 25.141

25.6072 -0.108018 7.47657e-11
-0.108018 23.7297 -2.98634e-11
7.47657e-11 -2.98634e-11 24.1745

25.7244 -0.0160432 -6.32015e-11
-0.0160432 25.0911 3.31443e-11
-6.32015e-11 3.31443e-11 24.6801

25.6114 0.114002 3.85261e-13
0.114002 25.7503 -1.24285e-11
3.85261e-13 -1.24285e-11 25.4472

25.6159 -0.111316 -3.08344e-12
-0.111316 25.7495 4.02718e-11
-3.08344e-12 4.02718e-11 25.4477

25.8054 0.0577436 4.93282e-11
0.0577436 25.965 3.78148e-11
4.93282e-11 3.78148e-11 25.6376

25.8054 -0.057544 1.65711e-11
-0.057544 25.9641 2.77952e-11
1.65711e-11 2.77952e-11 25.6372

22.3891 -0.145711 -4.43243e-12
-0.145711 22.8734 3.53595e-11
-4.43243e-12 3.53595e-11 22.9693

22.4252 0.146523 3.17936e-11
0.146523 22.8593 -7.00449e-11
3.17936e-11 -7.00449e-11 22.9818

24.7431 -0.795391 -2.42816e-11
-0.795391 23.6738 5.2604e-11
-2.42816e-11 5.2604e-11 23.635

22.6271 0.0339629 4.52838e-11
0.0339629 23.3298 -2.60127e-11
4.52838e-11 -2.60127e-11 22.9606

26.0473 0.0307052 1.27173e-11
0.0307052 26.1968 -2.51457e-11
1.27173e-11 -2.51457e-11 25.7765

26.3253 -0.0713359 3.27571e-11
-0.0713359 26.293 -1.05974e-11
3.27571e-11 -1.05974e-11 25.8726

26.047 -0.0302278 1.42589e-11
-0.0302278 26.1991 4.81755e-13
1.42589e-11 4.81755e-13 25.777

26.3259 0.0717869 -4.62444e-11
0.0717869 26.2945 2.97703e-11
-4.62444e-11 2.97703e-11 25.8732

26.0706 0.481627 -3.85016e-13
0.481627 25.7498 1.27174e-11
-3.85016e-13 1.27174e-11 24.9618

22.6316 -0.0291333 -2.9097e-11
-0.0291333 23.3242 -3.09268e-11
-2.9097e-11 -3.09268e-11 22.9604

26.2456 0.00920932 1.24472e-10
0.00920932 26.2535 4.17939e-10
1.24472e-10 4.17939e-10 25.8109

26.6346 -0.0781882 -3.21013e-10
-0.0781882 26.5322 -1.66095e-10
-3.21013e-10 -1.66095e-10 25.9932

26.6347 0.0787591 -8.10437e-10
0.0787591 26.5339 1.06656e-10
-8.10437e-10 1.06656e-10 25.9937

26.2474 -0.00822859 -1.21778e-10
-0.00822859 26.2544 6.07932e-11
-1.21778e-10 6.07932e-11 25.8116

26.1853 -0.0418659 -3.27571e-11
-0.0418659 26.0627 4.7208e-11
-3.27571e-11 4.7208e-11 25.7445

25.8578 -0.183938 2.04245e-11
-0.183938 25.8521 3.39133e-11
2.04245e-11 3.39133e-11 25.5894

26.2916 -0.0516092 7.70883e-12
-0.0516092 26.5007 -1.81029e-10
7.70883e-12 -1.81029e-10 25.9028

26.1867 0.0430953 1.81121e-11
0.0430953 26.0637 -6.63808e-11
1.81121e-11 -6.63808e-11 25.7451

26.2927 0.0521393 7.66904e-11
0.0521393 26.5023 1.71587e-10
7.66904e-11 1.71587e-10 25.9035

25.8587 0.185046 -4.04647e-11
0.185046 25.8534 -3.02519e-11
-4.04647e-11 -3.02519e-11 25.59

25.9349 0.0561038 -4.16201e-11
0.0561038 26.0317 3.45875e-11
-4.16201e-11 3.45875e-11 25.6713

26.0958 0.125886 -7.70699e-12
0.125886 26.1225 4.85573e-11
-7.70699e-12 4.85573e-11 25.7641

25.934 -0.055692 3.85366e-12
-0.055692 26.0311 3.34314e-11
3.85366e-12 3.34314e-11 25.6708

26.0953 -0.125038 3.58399e-11
-0.125038 26.1216 2.11965e-12
3.58399e-11 2.11965e-12 25.7637

14.6285 0.884176 -1.45494e-11
0.884176 16.6264 3.73868e-11
-1.45494e-11 3.73868e-11 15.4884

19.4578 0.146529 5.58718e-12
0.146529 20.1589 -1.42606e-11
5.58718e-12 -1.42606e-11 19.5937

16.7061 0.249283 -6.35998e-12
0.249283 19.3246 -1.11771e-11
-6.35998e-12 -1.11771e-11 18.1787

17.742 0.453944 -3.08838e-11
0.453944 14.983 -5.58843e-11
-3.08838e-11 -5.58843e-11 16.375

17.0333 0.130711 5.23221e-11
0.130711 14.3374 -3.85321e-13
5.23221e-11 -3.85321e-13 15.4055

19.8458 -0.0939224 -1.34863e-12
-0.0939224 20.8743 3.31437e-11
-1.34863e-12 3.31437e-11 20.5874

17.1145 0.379247 4.6244e-12
0.379247 20.567 -2.77501e-11
4.6244e-12 -2.77501e-11 19.1493

17.2314 -0.124169 4.15297e-11
-0.124169 14.747 1.0792e-11
4.15297e-11 1.0792e-11 15.5925

19.9268 0.104391 5.30427e-11
0.104391 16.6585 -9.05757e-12
5.30427e-11 -9.05757e-12 18.4212

11.9733 0.793662 -1.16598e-11
0.793662 13.7044 4.23898e-12
-1.16598e-11 4.23898e-12 12.5209

12.5532 -1.28326 3.07379e-11
-1.28326 13.929 -1.73453e-11
3.07379e-11 -1.73453e-11 12.6326

14.0474 0.80008 9.44156e-12
0.80008 12.3978 -2.42803e-11
9.44156e-12 -2.42803e-11 12.7945

20.1635 -1.46919 1.47413e-11
-1.46919 21.0526 9.44215e-12
1.47413e-11 9.44215e-12 20.444

19.0919 -0.513428 1.79217e-11
-0.513428 20.5447 4.08521e-11
1.79217e-11 4.08521e-11 19.745

14.9561 0.760197 -1.49348e-11
0.760197 17.3466 4.24003e-12
-1.49348e-11 4.24003e-12 16.4161

15.9734 0.882654 -2.48596e-11
0.882654 18.7091 7.71642e-13
-2.48596e-11 7.71642e-13 17.8881

17.0625 -0.420989 1.15706e-12
-0.420989 20.5884 2.27393e-11
1.15706e-12 2.27393e-11 19.1026

19.0461 -1.09845 -2.46664e-11
-1.09845 20.5309 -3.85303e-12
-2.46664e-11 -3.85303e-12 19.9623

17.9567 -0.78211 -9.53904e-12
-0.78211 15.4523 -1.44522e-11
-9.53904e-12 -1.44522e-11 16.9484

12.8619 0.250457 -1.56097e-11
0.250457 15.2954 3.84655e-13
-1.56097e-11 3.84655e-13 13.6044

13.8294 -0.500331 5.04898e-11
-0.500331 15.6136 -7.32385e-12
5.04898e-11 -7.32385e-12 14.0043

15.3529 0.188339 -8.86432e-12
0.188339 13.435 6.55218e-12
-8.86432e-12 6.55218e-12 13.8062

14.7053 1.0247 -1.56105e-11
1.0247 15.9228 1.54101e-12
-1.56105e-11 1.54101e-12 15.307

16.0255 -0.703232 -1.90784e-11
-0.703232 13.8503 -2.67861e-11
-1.90784e-11 -2.67861e-11 14.5739

16.2418 1.12568 -3.56432e-12
1.12568 16.4528 2.94842e-11
-3.56432e-12 2.94842e-11 16.3752

16.9301 0.80003 3.39151e-11
0.80003 17.495 -4.06637e-11
3.39151e-11 -4.06637e-11 16.6945

18.1486 -0.239536 -5.39589e-11
-0.239536 15.1412 5.8968e-11
-5.39589e-11 5.8968e-11 16.6016

11.4181 0.538373 -3.73873e-11
0.538373 12.6586 -4.35548e-11
-3.73873e-11 -4.35548e-11 11.4065

19.2195 0.270294 2.22823e-11
0.270294 16.2087 2.73642e-11
2.22823e-11 2.73642e-11 17.9517

12.7115 0.502737 7.26568e-11
0.502737 11.8083 -2.62124e-11
7.26568e-11 -2.62124e-11 11.6217

20.961 -0.49805 2.25462e-11
-0.49805 21.4194 2.66885e-11
2.25462e-11 2.66885e-11 21.0103

19.2129 0.0636495 -3.08259e-12
0.0636495 21.1597 1.00207e-11
-3.08259e-12 1.00207e-11 19.9231

22.3625 -0.536491 6.41441e-11
-0.536491 21.4589 2.67837e-11
6.41441e-11 2.67837e-11 21.3191

21.7639 1.29986 -4.89697e-11
1.29986 21.8978 -2.96762e-11
-4.89697e-11 -2.96762e-11 21.3032

15.0008 -0.340534 -2.49585e-11
-0.340534 13.1164 -2.81352e-11
-2.49585e-11 -2.81352e-11 13.3428

16.3116 1.19459 4.09501e-11
1.19459 17.0827 4.70208e-11
4.09501e-11 4.70208e-11 17.0876

19.6249 0.681904 2.76891e-11
0.681904 19.4186 1.58014e-11
2.76891e-11 1.58014e-11 19.6614

20.2057 -0.189369 3.91522e-12
-0.189369 19.9368 1.36816e-11
3.91522e-12 1.36816e-11 19.9276

19.9513 0.102736 -2.3879e-14
0.102736 16.4662 2.23534e-11
-2.3879e-14 2.23534e-11 18.4247

16.2953 1.12687 -1.59947e-11
1.12687 17.1647 -8.09356e-12
-1.59947e-11 -8.09356e-12 16.3909

16.3065 -0.89015 -3.28581e-11
-0.89015 15.1513 5.97433e-12
-3.28581e-11 5.97433e-12 15.144

19.7299 -0.009898 3.28806e-11
-0.009898 15.9637 -6.5521e-12
3.28806e-11 -6.5521e-12 18.0411

15.342 -1.53342 -4.07568e-11
-1.53342 16.7929 2.25485e-11
-4.07568e-11 2.25485e-11 15.5888

15.7077 -1.3376 -5.87749e-12
-1.3376 17.1766 2.40885e-11
-5.87749e-12 2.40885e-11 15.9123

19.5613 0.68234 -2.10047e-11
0.68234 20.1218 -1.17541e-11
-2.10047e-11 -1.17541e-11 19.8332

15.0794 -1.5343 -2.74624e-11
-1.5343 14.6074 8.67273e-12
-2.74624e-11 8.67273e-12 14.2815

9.20756 -1.52976 6.99595e-11
-1.52976 9.08982 1.85e-11
6.99595e-11 1.85e-11 9.09165

9.12246 -1.62098 -1.07935e-11
-1.62098 9.54403 -1.4068e-11
-1.07935e-11 -1.4068e-11 9.24275

18.5644 -1.78539 3.81541e-11
-1.78539 20.469 3.12165e-11
3.81541e-11 3.12165e-11 19.6165

9.22616 -0.604763 8.67347e-12
-0.604763 9.09998 3.79673e-11
8.67347e-12 3.79673e-11 9.47852

8.85314 -0.496014 -6.22505e-11
-0.496014 9.18599 -6.93791e-12
-6.22505e-11 -6.93791e-12 9.3237

22.2792 0.771829 3.08331e-11
0.771829 20.7339 1.83037e-11
3.08331e-11 1.83037e-11 21.498

20.8519 -1.02459 -1.77294e-11
-1.02459 19.765 5.74237e-11
-1.77294e-11 5.74237e-11 20.1135

18.5245 -0.535213 3.60362e-11
-0.535213 15.889 -7.70932e-12
3.60362e-11 -7.70932e-12 17.7106

21.9561 1.04064 3.08303e-11
1.04064 19.8711 -5.64622e-11
3.08303e-11 -5.64622e-11 21.1296

20.6669 -1.43891 1.46462e-11
-1.43891 19.6026 2.54323e-11
1.46462e-11 2.54323e-11 20.0463

17.3568 0.79062 2.50622e-12
0.79062 18.5509 2.52437e-11
2.50622e-12 2.52437e-11 17.8059

21.9696 -0.498723 -1.64997e-11
-0.498723 20.4243 1.84106e-11
-1.64997e-11 1.84106e-11 20.8534

21.2342 0.671172 -3.0808e-11
0.671172 20.8051 -1.78735e-11
-3.0808e-11 -1.78735e-11 20.796

20.4324 1.21965 -2.65931e-11
1.21965 18.7976 1.39221e-11
-2.65931e-11 1.39221e-11 19.8299

19.0194 -1.55298 4.37443e-11
-1.55298 17.9599 -2.64509e-11
4.37443e-11 -2.64509e-11 18.7174

13.4696 -1.05846 3.85803e-13
-1.05846 12.0147 -3.10262e-11
3.85803e-13 -3.10262e-11 12.2299

22.1482 -0.299863 1.31039e-11
-0.299863 23.01 6.06924e-12
1.31039e-11 6.06924e-12 22.5174

20.3699 -0.0512595 1.96535e-11
-0.0512595 23.0667 -7.36122e-11
1.96535e-11 -7.36122e-11 21.0006

14.7181 -1.29573 -5.78056e-13
-1.29573 16.0138 1.61882e-11
-5.78056e-13 1.61882e-11 15.3954

11.0219 -0.445905 4.81785e-11
-0.445905 12.3323 -5.80113e-11
4.81785e-11 -5.80113e-11 11.1861

12.0994 -0.416894 2.44749e-11
-0.416894 10.8682 -5.97402e-12
2.44749e-11 -5.97402e-12 11.0019

18.342 0.506222 -3.85417e-12
0.506222 19.6748 -2.89065e-12
-3.85417e-12 -2.89065e-12 19.0461

15.6239 0.756802 -2.17748e-11
0.756802 18.5074 1.69589e-11
-2.17748e-11 1.69589e-11 17.5177

25.6871 0.981183 -1.38783e-11
0.981183 22.8024 3.48794e-11
-1.38783e-11 3.48794e-11 23.4615

25.5026 0.295189 1.13686e-10
0.295189 26.5235 -1.00223e-11
1.13686e-10 -1.00223e-11 23.0933

16.4707 1.13897 -1.10803e-11
1.13897 18.1793 1.54158e-12
-1.10803e-11 1.54158e-12 18.226

19.3375 0.899992 -3.96987e-11
0.899992 17.0256 8.09552e-12
-3.96987e-11 8.09552e-12 18.4807

18.5467 -1.37179 -1.00205e-11
-1.37179 16.61 3.08339e-12
-1.00205e-11 3.08339e-12 17.8674

16.7405 1.56321 1.15299e-12
1.56321 18.0266 -4.85612e-11
1.15299e-12 -4.85612e-11 18.1357

17.0125 -1.18997 -9.44169e-12
-1.18997 19.5823 -4.23935e-12
-9.44169e-12 -4.23935e-12 18.8745

14.7364 -0.112077 -9.44311e-12
-0.112077 12.4101 -2.6981e-11
-9.44311e-12 -2.6981e-11 13.06

17.3149 -0.454383 -4.70227e-11
-0.454383 14.7952 -7.70707e-12
-4.70227e-11 -7.70707e-12 15.9628

15.8109 0.557993 1.45501e-11
0.557993 13.6744 -1.11776e-11
1.45501e-11 -1.11776e-11 14.3415

19.3555 0.619316 5.63417e-11
0.619316 18.1549 -3.84877e-13
5.63417e-11 -3.84877e-13 19.1237

20.1641 0.419697 -1.17077e-11
0.419697 22.9431 -5.04878e-11
-1.17077e-11 -5.04878e-11 21.286

21.6128 -0.310164 -1.5358e-10
-0.310164 21.787 -5.35687e-11
-1.5358e-10 -5.35687e-11 21.332

13.6616 0.895165 -2.87566e-13
0.895165 14.1792 -9.44222e-12
-2.87566e-13 -9.44222e-12 13.3266

16.6005 -1.14996 3.84822e-13
-1.14996 16.1445 -1.07922e-11
3.84822e-13 -1.07922e-11 16.1945

18.4899 0.622861 2.1971e-11
0.622861 16.5046 4.4323e-11
2.1971e-11 4.4323e-11 17.5763

21.502 0.697498 -4.97164e-11
0.697498 23.7801 -3.96935e-11
-4.97164e-11 -3.96935e-11 21.5139

21.9492 -0.461253 2.50507e-11
-0.461253 22.855 1.92653e-12
2.50507e-11 1.92653e-12 22.3714

19.8513 -0.167413 2.42813e-11
-0.167413 18.3363 5.97368e-12
2.42813e-11 5.97368e-12 19.3447

18.7742 -0.896242 -6.84148e-12
-0.896242 19.9001 -2.77484e-11
-6.84148e-12 -2.77484e-11 19.0841

16.6665 -0.290181 8.76714e-12
-0.290181 19.4044 6.16679e-12
8.76714e-12 6.16679e-12 18.1594

19.4517 0.198731 1.81129e-11
0.198731 16.1658 -2.73653e-11
1.81129e-11 -2.73653e-11 18.5425

19.1892 -0.624865 2.04273e-11
-0.624865 16.0797 1.77272e-11
2.04273e-11 1.77272e-11 18.3216

14.0919 -1.27207 3.56528e-11
-1.27207 13.5484 -2.62106e-11
3.56528e-11 -2.62106e-11 13.2739

20.6371 0.785815 4.48511e-11
0.785815 17.5316 -3.85773e-12
4.48511e-11 -3.85773e-12 19.6996

20.004 -1.2232 1.90305e-11
-1.2232 17.5475 8.47823e-12
1.90305e-11 8.47823e-12 19.1352

18.0132 -1.08776 2.10063e-11
-1.08776 15.9223 -1.38749e-11
2.10063e-11 -1.38749e-11 17.0698

14.9535 -1.08371 -9.05671e-12
-1.08371 16.7137 4.23979e-12
-9.05671e-12 4.23979e-12 15.689

19.5998 0.471812 9.24771e-12
0.471812 17.3149 -2.13906e-11
9.24771e-12 -2.13906e-11 18.9605

19.2614 -0.876119 -3.85136e-13
-0.876119 16.9466 -5.39697e-12
-3.85136e-13 -5.39697e-12 18.5015

18.3282 -0.284064 8.57638e-12
-0.284064 16.2756 -3.10257e-11
8.57638e-12 -3.10257e-11 17.1497

20.6154 1.36946 -7.32544e-12
1.36946 19.9489 -1.94623e-11
-7.32544e-12 -1.94623e-11 20.3383

15.6798 0.905151 -8.6721e-12
0.905151 15.0634 -1.23334e-11
-8.6721e-12 -1.23334e-11 15.0009

16.592 1.3583 8.04521e-12
1.3583 17.8262 3.43022e-11
8.04521e-12 3.43022e-11 18.2628

20.1966 1.01466 -1.17544e-11
1.01466 20.9444 1.38752e-11
-1.17544e-11 1.38752e-11 20.7841

16.5239 0.504104 -2.75592e-11
0.504104 14.1142 -1.13702e-11
-2.75592e-11 -1.13702e-11 15.1084

18.0576 -0.673096 -2.9385e-12
-0.673096 17.2373 -2.52448e-11
-2.9385e-12 -2.52448e-11 17.8347

17.8587 0.421473 -5.78004e-12
0.421473 15.8918 -9.6353e-12
-5.78004e-12 -9.6353e-12 16.8042

14.2608 1.08394 -1.44544e-11
1.08394 14.6513 -2.65954e-11
-1.44544e-11 -2.65954e-11 14.3088

15.9728 1.02407 1.68628e-11
1.02407 15.5003 6.5513e-12
1.68628e-11 6.5513e-12 15.8686

15.3566 0.0118131 3.00601e-11
0.0118131 18.9088 5.78019e-12
3.00601e-11 5.78019e-12 17.4343

17.4414 -0.439917 -9.44316e-12
-0.439917 19.2124 -1.56087e-11
-9.44316e-12 -1.56087e-11 18.3945

13.7191 -1.27677 2.05217e-11
-1.27677 12.2762 -2.31374e-12
2.05217e-11 -2.31374e-12 12.6701

17.5802 -1.74496 3.7481e-11
-1.74496 19.2462 -1.48395e-11
3.7481e-11 -1.48395e-11 18.5238

14.5127 -1.53652 -9.82747e-12
-1.53652 15.2991 5.78145e-11
-9.82747e-12 5.78145e-11 14.559

15.8785 1.24766 -1.73453e-11
1.24766 15.9205 -3.81573e-11
-1.73453e-11 -3.81573e-11 15.3076

17.9848 -0.567153 -1.02135e-11
-0.567153 16.6719 -7.1305e-12
-1.02135e-11 -7.1305e-12 17.0821

20.3706 -0.0435263 8.57596e-12
-0.0435263 16.9648 2.75561e-11
8.57596e-12 2.75561e-11 19.0274

20.0025 0.18348 -1.15137e-11
0.18348 17.0934 2.0426e-11
-1.15137e-11 2.0426e-11 18.9429

13.4735 0.571199 -1.50321e-11
0.571199 16.072 -1.34891e-11
-1.50321e-11 -1.34891e-11 14.6711

16.7403 -1.37246 -1.48374e-11
-1.37246 17.2055 3.31465e-11
-1.48374e-11 3.31465e-11 16.6166

11.7545 -0.188594 2.65942e-11
-0.188594 14.6884 -4.62604e-12
2.65942e-11 -4.62604e-12 12.9364

12.8127 -0.237449 1.34905e-11
-0.237449 15.1851 2.37041e-11
1.34905e-11 2.37041e-11 13.4484

14.6381 -0.315198 -1.02124e-11
-0.315198 12.1037 2.96764e-11
-1.02124e-11 2.96764e-11 13.0372

14.593 0.908221 3.06416e-11
0.908221 14.2062 5.20348e-11
3.06416e-11 5.20348e-11 13.6933

15.0095 -1.57642 1.02149e-11
-1.57642 14.146 -2.73654e-11
1.02149e-11 -2.73654e-11 14.4236

25.1792 -0.37593 -2.25835e-10
-0.37593 25.2528 3.58475e-11
-2.25835e-10 3.58475e-11 22.7008

21.9034 -1.42374 5.74217e-11
-1.42374 23.6638 -2.96824e-11
5.74217e-11 -2.96824e-11 22.665

16.2049 -0.93346 -1.59959e-11
-0.93346 13.9519 -7.69769e-13
-1.59959e-11 -7.69769e-13 14.9343

18.8434 1.26513 -1.58026e-11
1.26513 19.2661 6.35915e-12
-1.58026e-11 6.35915e-12 18.9613

18.6525 0.0840774 7.1303e-11
0.0840774 15.988 1.07884e-11
7.1303e-11 1.07884e-11 17.8093

14.8494 -1.14359 3.07366e-11
-1.14359 16.8035 3.93126e-11
3.07366e-11 3.93126e-11 15.3017

16.5463 1.19275 -1.32012e-11
1.19275 19.5874 -2.92913e-11
-1.32012e-11 -2.92913e-11 18.8444

20.9677 0.50213 -3.00596e-11
0.50213 21.6763 3.77695e-11
-3.00596e-11 3.77695e-11 21.5284

17.2249 -1.62436 -1.48383e-11
-1.62436 17.9605 3.85367e-12
-1.48383e-11 3.85367e-12 18.2054

20.7932 1.2183 4.62536e-12
1.2183 20.9548 3.19884e-11
4.62536e-12 3.19884e-11 21.0492

15.6336 0.96214 -4.91367e-12
0.96214 17.6572 2.85217e-11
-4.91367e-12 2.85217e-11 17.1802

19.4932 -0.114491 -1.04062e-11
-0.114491 14.8891 -1.15558e-12
-1.04062e-11 -1.15558e-12 18.4971

15.9443 1.18708 6.3591e-12
1.18708 14.6753 1.7338e-12
6.3591e-12 1.7338e-12 14.9436

17.8121 -1.84652 1.6717e-11
-1.84652 20.0065 -2.19689e-11
1.6717e-11 -2.19689e-11 18.8753

16.361 1.06893 -2.0622e-11
1.06893 16.0894 -5.74288e-11
-2.0622e-11 -5.74288e-11 15.7547

13.6739 -1.04759 8.76878e-12
-1.04759 14.305 -1.25265e-11
8.76878e-12 -1.25265e-11 13.2273

16.9775 -1.50944 -1.55129e-11
-1.50944 18.1738 6.1666e-12
-1.55129e-11 6.1666e-12 17.4525

13.1612 -0.681089 2.31308e-12
-0.681089 15.4867 1.00217e-11
2.31308e-12 1.00217e-11 13.8745

14.5734 0.261035 -2.23542e-11
0.261035 15.9956 2.85228e-11
-2.23542e-11 2.85228e-11 14.5244

15.1912 -0.64112 -1.11805e-11
-0.64112 13.3663 -2.23561e-11
-1.11805e-11 -2.23561e-11 13.8205

15.2766 -1.37491 2.42832e-11
-1.37491 15.0726 5.74288e-11
2.42832e-11 5.74288e-11 14.9413

14.8988 -0.0654353 1.29111e-11
-0.0654353 17.7688 2.00414e-11
1.29111e-11 2.00414e-11 16.2282

17.006 -0.245428 -5.20447e-12
-0.245428 18.3813 -3.00625e-11
-5.20447e-12 -3.00625e-11 17.1581

12.5912 -1.37555 -2.88902e-12
-1.37555 13.4334 -6.20537e-11
-2.88902e-12 -6.20537e-11 12.5973

13.6473 1.02062 3.7196e-11
1.02062 13.9853 3.21839e-11
3.7196e-11 3.21839e-11 13.1949

19.1401 0.00496434 8.47835e-12
0.00496434 16.238 -2.9484e-11
8.47835e-12 -2.9484e-11 18.7716

18.9887 -0.243716 -3.46864e-12
-0.243716 16.2879 1.19474e-11
-3.46864e-12 1.19474e-11 18.6023

19.2354 1.10571 4.81633e-12
1.10571 19.524 -1.11767e-11
4.81633e-12 -1.11767e-11 19.2859

18.4059 -1.8252 -3.6228e-11
-1.8252 20.4693 1.96565e-11
-3.6228e-11 1.96565e-11 19.5169

17.1857 1.25014 -2.21607e-11
1.25014 17.3927 2.8521e-11
-2.21607e-11 2.8521e-11 17.7334

12.9166 0.574147 -2.4668e-11
0.574147 11.6329 2.8522e-11
-2.4668e-11 2.8522e-11 11.8027

15.3137 0.687446 -3.73855e-11
0.687446 16.9605 -5.29951e-11
-3.73855e-11 -5.29951e-11 15.6863

21.2082 0.631568 3.93103e-11
0.631568 19.1055 8.66923e-12
3.93103e-11 8.66923e-12 20.3862

20.203 -1.10454 3.89273e-11
-1.10454 18.3525 -4.07581e-11
3.89273e-11 -4.07581e-11 19.3805

19.6667 0.902211 -5.18404e-11
0.902211 18.2015 -3.66104e-11
-5.18404e-11 -3.66104e-11 18.9928

18.7028 -1.305 -1.52247e-11
-1.305 17.1671 -6.55295e-12
-1.52247e-11 -6.55295e-12 18.0404

8.37993 -0.652348 6.53338e-11
-0.652348 7.1581 3.35318e-11
6.53338e-11 3.35318e-11 8.83704

7.13388 -0.763232 2.3318e-11
-0.763232 8.67278 -2.56346e-11
2.3318e-11 -2.56346e-11 8.9691

13.6023 -0.866984 9.82987e-12
-0.866984 16.2236 3.85418e-12
9.82987e-12 3.85418e-12 14.8493

23.6267 1.03727 7.32029e-12
1.03727 20.8582 -7.14891e-11
7.32029e-12 -7.14891e-11 22.1291

22.8627 -1.46884 2.31278e-12
-1.46884 21.5158 -7.68765e-13
2.31278e-12 -7.68765e-13 21.2974

18.1786 1.05023 3.31435e-11
1.05023 17.1568 -1.36824e-11
3.31435e-11 -1.36824e-11 17.4916

13.0324 0.424434 -2.52462e-11
0.424434 11.5075 -2.89078e-11
-2.52462e-11 -2.89078e-11 11.7877

17.3185 -1.26616 -2.50436e-12
-1.26616 19.2975 1.73432e-12
-2.50436e-12 1.73432e-12 18.2743

15.7624 -0.608062 -2.6401e-11
-0.608062 18.9139 -8.47946e-12
-2.6401e-11 -8.47946e-12 17.6358

14.8133 -1.50569 -3.31459e-11
-1.50569 15.2084 -5.24178e-11
-3.31459e-11 -5.24178e-11 14.4759

16.9067 -1.22139 3.0827e-12
-1.22139 17.899 1.61867e-11
3.0827e-12 1.61867e-11 18.3116

17.1234 -1.41767 -7.90109e-12
-1.41767 16.1032 2.62065e-11
-7.90109e-12 2.62065e-11 16.5808

15.6089 1.84948 2.02344e-11
1.84948 18.1923 1.04065e-11
2.02344e-11 1.04065e-11 18.101

21.1876 0.455791 1.77289e-11
0.455791 21.7345 2.76519e-11
1.77289e-11 2.76519e-11 21.5673

19.1582 0.776071 5.20335e-12
0.776071 20.3466 -8.76789e-12
5.20335e-12 -8.76789e-12 19.752

16.7255 -1.35896 3.19892e-11
-1.35896 17.4358 2.27367e-11
3.19892e-11 2.27367e-11 17.5169

16.4146 1.32603 4.47082e-11
1.32603 17.493 -3.85303e-13
4.47082e-11 -3.85303e-13 17.4511

15.2981 0.881856 6.16773e-12
0.881856 13.7118 2.23538e-11
6.16773e-12 2.23538e-11 14.1639

17.2786 -0.00247328 -4.10478e-11
-0.00247328 15.0127 -5.78163e-12
-4.10478e-11 -5.78163e-12 16.0882

21.2923 0.920596 2.65935e-11
0.920596 21.249 2.89045e-11
2.65935e-11 2.89045e-11 21.353

16.1616 -1.46788 -1.22362e-11
-1.46788 18.2702 -7.32264e-12
-1.22362e-11 -7.32264e-12 16.9969

14.1095 0.222161 -3.7586e-12
0.222161 17.3051 1.96584e-11
-3.7586e-12 1.96584e-11 15.7006

18.9922 1.37103 2.46653e-11
1.37103 17.8015 -2.46652e-11
2.46653e-11 -2.46652e-11 18.4305

16.2656 0.0403864 -3.77711e-11
0.0403864 17.9586 -3.6607e-12
-3.77711e-11 -3.6607e-12 16.7606

16.4974 -1.02341 -6.55121e-12
-1.02341 19.3697 9.63601e-12
-6.55121e-12 9.63601e-12 18.7516

10.4951 -0.862226 3.66169e-11
-0.862226 10.992 8.24856e-11
3.66169e-11 8.24856e-11 10.2933

10.9819 -0.881401 -2.47657e-11
-0.881401 10.3909 -1.15719e-12
-2.47657e-11 -1.15719e-12 10.2393

18.2848 0.302415 8.09456e-12
0.302415 15.6367 2.71729e-11
8.09456e-12 2.71729e-11 17.1933

17.436 -1.61641 9.24979e-12
-1.61641 16.6804 1.54159e-11
9.24979e-12 1.54159e-11 17.3064

25.5364 0.918363 -5.51101e-11
0.918363 22.2322 8.65204e-11
-5.51101e-11 8.65204e-11 23.1739

25.8835 -0.257792 4.81761e-11
-0.257792 23.9173 1.20238e-10
4.81761e-11 1.20238e-10 22.6129

15.9818 -1.13896 5.00918e-12
-1.13896 17.6811 1.15626e-11
5.00918e-12 1.15626e-11 17.3034

20.294 -0.343809 -1.92846e-13
-0.343809 20.8691 2.33153e-11
-1.92846e-13 2.33153e-11 20.5276

20.1234 1.19557 9.15638e-13
1.19557 21.45 -3.08319e-11
9.15638e-13 -3.08319e-11 20.6249

18.9367 0.107154 -4.09041e-11
0.107154 15.5754 -4.31652e-11
-4.09041e-11 -4.31652e-11 17.2488

17.5846 -1.97992 3.84437e-11
-1.97992 19.8514 5.7799e-12
3.84437e-11 5.7799e-12 18.7751

11.3847 0.664391 -2.29315e-11
0.664391 11.4402 2.11998e-11
-2.29315e-11 2.11998e-11 10.9831

11.0348 0.64023 -4.047e-11
0.64023 11.0495 1.63834e-12
-4.047e-11 1.63834e-12 10.7127

10.8161 -0.76878 -5.81998e-11
-0.76878 12.6071 2.85244e-11
-5.81998e-11 2.85244e-11 11.3872

11.8708 0.38337 -3.27629e-11
0.38337 13.1775 -8.67084e-12
-3.27629e-11 -8.67084e-12 11.9504

12.571 -0.652659 -1.34927e-11
-0.652659 10.9611 4.34615e-11
-1.34927e-11 4.34615e-11 11.4226

15.866 -1.81738 1.07912e-11
-1.81738 18.0888 1.27176e-11
1.07912e-11 1.27176e-11 18.116

9.85049 0.036361 1.83092e-11
0.036361 11.9495 6.16662e-12
1.83092e-11 6.16662e-12 10.6681

12.0477 0.0545468 5.31902e-11
0.0545468 10.2641 1.54188e-12
5.31902e-11 1.54188e-12 10.8733

20.0357 0.123256 2.35089e-11
0.123256 22.0833 -1.5416e-11
2.35089e-11 -1.5416e-11 20.6012

20.8594 -1.04206 -2.50559e-12
-1.04206 21.9925 -8.67134e-12
-2.50559e-12 -8.67134e-12 21.2452

19.1425 0.415927 1.43562e-11
0.415927 17.3826 -3.08376e-12
1.43562e-11 -3.08376e-12 18.2893

19.9328 0.0700243 1.40675e-11
0.0700243 16.1403 -2.15826e-11
1.40675e-11 -2.15826e-11 18.3443

12.8375 -0.981549 8.4777e-12
-0.981549 14.5417 7.70913e-12
8.4777e-12 7.70913e-12 13.44

13.9581 0.629124 3.29523e-11
0.629124 15.2778 -2.71732e-11
3.29523e-11 -2.71732e-11 14.085

18.9859 0.0835765 -2.64975e-11
0.0835765 15.7029 3.1989e-11
-2.64975e-11 3.1989e-11 17.3322

15.2676 -0.99934 1.38744e-11
-0.99934 17.4576 2.69768e-12
1.38744e-11 2.69768e-12 16.5977

22.5683 0.58048 -1.50346e-11
0.58048 20.4367 -9.07583e-11
-1.50346e-11 -9.07583e-11 21.5616

21.7111 -0.808177 4.62465e-11
-0.808177 20.3876 1.38737e-11
4.62465e-11 1.38737e-11 20.636

17.8727 0.950411 -2.48095e-11
0.950411 17.8028 3.89273e-11
-2.48095e-11 3.89273e-11 18.0486

17.1178 -1.67044 -3.08309e-12
-1.67044 19.0231 -5.78145e-12
-3.08309e-12 -5.78145e-12 17.8846

18.793 0.430579 1.50323e-11
0.430579 16.1325 3.46857e-11
1.50323e-11 3.46857e-11 17.7226

13.4376 0.872209 -1.80179e-11
0.872209 13.1514 5.74292e-11
-1.80179e-11 5.74292e-11 12.879

17.0581 -1.80247 3.46901e-12
-1.80247 18.8458 -1.59955e-11
3.46901e-12 -1.59955e-11 17.7666

8.65945 1.59716 -2.69684e-12
1.59716 8.68712 3.31489e-11
-2.69684e-12 3.31489e-11 8.75828

15.6061 -0.658036 2.1391e-11
-0.658036 17.72 -1.27193e-11
2.1391e-11 -1.27193e-11 16.3552

14.3745 -0.389251 2.87127e-11
-0.389251 17.3481 4.58656e-11
2.87127e-11 4.58656e-11 15.7975

19.7882 -0.175244 5.58836e-12
-0.175244 22.9142 9.63537e-12
5.58836e-12 9.63537e-12 20.7714

21.3277 -0.817712 2.31243e-11
-0.817712 22.0004 2.35083e-11
2.31243e-11 2.35083e-11 21.6642

20.4502 0.457669 1.15413e-12
0.457669 15.8772 -4.74039e-11
1.15413e-12 -4.74039e-11 19.3781

20.0987 -0.675033 6.93774e-12
-0.675033 16.2187 7.70765e-12
6.93774e-12 7.70765e-12 19.0675

18.4193 1.37837 6.40858e-12
1.37837 18.4831 4.27819e-11
6.40858e-12 4.27819e-11 18.8796

18.727 -0.881449 2.5437e-11
-0.881449 19.0975 -2.21603e-11
2.5437e-11 -2.21603e-11 19.1105

19.9846 1.05959 -4.52843e-12
1.05959 20.4469 1.86925e-11
-4.52843e-12 1.86925e-11 20.3054

20.1072 -0.736934 -2.93632e-11
-0.736934 21.2329 3.66019e-12
-2.93632e-11 3.66019e-12 20.4543

24.8454 1.00578 1.50342e-11
1.00578 22.0434 9.4032e-11
1.50342e-11 9.4032e-11 22.9711

24.0474 -1.41237 -8.86373e-11
-1.41237 23.2796 1.61481e-10
-8.86373e-11 1.61481e-10 22.0415

22.4572 1.04413 -1.84978e-11
1.04413 21.3049 4.08505e-11
-1.84978e-11 4.08505e-11 21.9296

17.6242 -1.96814 2.2545e-11
-1.96814 18.4984 -2.92939e-11
2.2545e-11 -2.92939e-11 18.8827

17.8896 1.0869 1.15637e-11
1.0869 16.1025 3.37247e-11
1.15637e-11 3.37247e-11 16.9396

17.0262 -1.23084 4.43242e-12
-1.23084 18.5994 -1.23335e-11
4.43242e-12 -1.23335e-11 17.3999

15.3377 -0.743464 1.07903e-11
-0.743464 17.8543 3.69996e-11
1.07903e-11 3.69996e-11 16.733

13.9727 -1.09121 1.72481e-11
-1.09121 13.7245 -1.67655e-11
1.72481e-11 -1.67655e-11 13.0435

16.9317 -1.44318 -1.25256e-11
-1.44318 15.4205 -1.61895e-11
-1.25256e-11 -1.61895e-11 16.236

15.3069 0.496485 -3.47813e-11
0.496485 17.8448 5.47303e-11
-3.47813e-11 5.47303e-11 16.6533

17.4409 1.4457 8.2841e-12
1.4457 16.7702 -2.64019e-11
8.2841e-12 -2.64019e-11 16.8944

17.0209 2.14866 4.52971e-12
2.14866 18.6191 4.08533e-11
4.52971e-12 4.08533e-11 18.8511

18.1383 -1.74564 -4.36952e-11
-1.74564 20.0462 2.98704e-11
-4.36952e-11 2.98704e-11 19.268

15.9747 -1.64373 2.89063e-11
-1.64373 15.6686 3.19878e-11
2.89063e-11 3.19878e-11 15.8893

19.6649 -0.114289 9.53807e-12
-0.114289 18.0406 5.20263e-12
9.53807e-12 5.20263e-12 18.6763

22.5397 -0.538728 -1.50302e-11
-0.538728 23.4724 1.55126e-11
-1.50302e-11 1.55126e-11 22.5593

25.1138 -0.634077 2.38943e-11
-0.634077 24.8034 3.77683e-11
2.38943e-11 3.77683e-11 22.5765

16.6994 -0.639777 -4.16239e-11
-0.639777 18.8722 -5.20303e-11
-4.16239e-11 -5.20303e-11 18.1796

17.5216 0.887119 -3.27595e-11
0.887119 16.6587 1.73444e-11
-3.27595e-11 1.73444e-11 17.4662

20.5171 -0.0677635 -3.97412e-12
-0.0677635 19.0342 2.50507e-11
-3.97412e-12 2.50507e-11 19.795

10.4617 -1.11742 -4.741e-11
-1.11742 11.2473 -5.01066e-12
-4.741e-11 -5.01066e-12 10.4727

11.1298 -1.00365 7.13004e-12
-1.00365 10.4499 1.73441e-11
7.13004e-12 1.73441e-11 10.4781

20.9077 -0.0427552 -3.5074e-11
-0.0427552 17.6246 -1.9847e-11
-3.5074e-11 -1.9847e-11 20.0303

20.5365 -0.206932 1.04062e-11
-0.206932 17.5827 3.43008e-11
1.04062e-11 3.43008e-11 19.5137

20.9772 0.226673 9.92414e-12
0.226673 18.8931 -2.13898e-11
9.92414e-12 -2.13898e-11 19.8835

17.9695 0.586246 -9.32215e-12
0.586246 18.8189 7.71124e-13
-9.32215e-12 7.71124e-13 18.0287

16.9328 0.755803 -1.01104e-12
0.755803 15.4231 1.27169e-11
-1.01104e-12 1.27169e-11 15.7949

20.7445 1.03354 -5.58809e-11
1.03354 19.7139 5.01016e-11
-5.58809e-11 5.01016e-11 20.2556

19.1346 -1.3536 3.06396e-11
-1.3536 18.1506 -1.11787e-11
3.06396e-11 -1.11787e-11 18.8159

22.2095 -0.170517 3.44449e-11
-0.170517 21.3376 2.55356e-11
3.44449e-11 2.55356e-11 21.4173

22.4517 1.48533 1.35176e-11
1.48533 24.4641 1.52232e-10
1.35176e-11 1.52232e-10 22.1108

16.189 -1.15903 -1.81149e-11
-1.15903 18.2582 -2.69782e-11
-1.81149e-11 -2.69782e-11 17.867

17.5645 0.759005 -2.57271e-11
0.759005 16.0524 -9.63452e-12
-2.57271e-11 -9.63452e-12 16.7178

21.0659 0.700005 3.44027e-11
0.700005 19.0231 8.45928e-11
3.44027e-11 8.45928e-11 20.333

20.3567 -0.946703 2.57257e-11
-0.946703 18.7966 -5.89663e-11
2.57257e-11 -5.89663e-11 19.5772

18.3217 -1.61615 3.05443e-11
-1.61615 19.8305 -4.58646e-11
3.05443e-11 -4.58646e-11 18.888

17.8946 -2.06833 -2.72676e-11
-2.06833 19.9637 1.09851e-11
-2.72676e-11 1.09851e-11 18.8859

9.03425 1.90834 -2.73673e-11
1.90834 9.23981 -1.54255e-12
-2.73673e-11 -1.54255e-12 9.04396

17.9856 1.45962 1.44037e-11
1.45962 19.805 3.50719e-11
1.44037e-11 3.50719e-11 19.4592

18.8026 -1.28884 -3.83957e-11
-1.28884 20.7514 5.01129e-12
-3.83957e-11 5.01129e-12 19.7603

17.3161 -1.77867 1.44501e-12
-1.77867 19.4975 -2.44739e-11
1.44501e-12 -2.44739e-11 18.4193

16.5319 -1.20708 -9.44219e-12
-1.20708 14.8034 -3.89268e-11
-9.44219e-12 -3.89268e-11 15.3787

18.506 -0.795679 6.16725e-12
-0.795679 18.7991 4.99101e-11
6.16725e-12 4.99101e-11 18.4548

18.4734 1.37941 -1.24298e-11
1.37941 18.6193 1.54164e-12
-1.24298e-11 1.54164e-12 19.0571

18.734 -1.10473 2.12946e-11
-1.10473 19.8871 -2.90977e-11
2.12946e-11 -2.90977e-11 19.3288

19.191 -0.108571 1.49347e-11
-0.108571 16.3554 -4.58637e-11
1.49347e-11 -4.58637e-11 17.9909

21.622 0.404213 -3.5069e-11
0.404213 19.5227 3.54571e-11
-3.5069e-11 3.54571e-11 20.9445

21.23 -0.390148 1.54156e-11
-0.390148 20.1575 -4.39352e-11
1.54156e-11 -4.39352e-11 20.4224

22.1445 -0.568001 1.27178e-11
-0.568001 23.9551 7.70698e-12
1.27178e-11 7.70698e-12 22.5176

21.6979 0.436298 3.85092e-13
0.436298 24.6957 1.38744e-11
3.85092e-13 1.38744e-11 21.7931

9.19936 0.146921 7.70115e-13
0.146921 7.69718 4.25922e-11
7.70115e-13 4.25922e-11 9.16122

7.67885 0.132311 -6.09962e-11
0.132311 9.00961 4.62695e-12
-6.09962e-11 4.62695e-12 9.01461

20.5882 1.31561 2.04237e-11
1.31561 20.2499 -3.2373e-11
2.04237e-11 -3.2373e-11 20.4562

18.0128 -1.31389 -1.86913e-11
-1.31389 18.0473 6.16746e-12
-1.86913e-11 6.16746e-12 18.4901

16.5772 -1.25931 -3.39158e-11
-1.25931 18.0438 1.8501e-11
-3.39158e-11 1.8501e-11 18.1898

8.59665 0.468039 -4.12442e-11
0.468039 8.6172 3.85469e-12
-4.12442e-11 3.85469e-12 9.06944

8.64818 0.510367 2.46648e-11
0.510367 8.66832 -6.47572e-11
2.46648e-11 -6.47572e-11 9.14474

25.2663 0.223042 7.01407e-11
0.223042 25.7569 1.51841e-10
7.01407e-11 1.51841e-10 22.8922

25.0833 0.354631 3.9707e-11
0.354631 24.1599 1.83632e-10
3.9707e-11 1.83632e-10 23.4399

17.5647 -1.18074 2.55344e-12
-1.18074 18.2785 -1.34962e-12
2.55344e-12 -1.34962e-12 18.0107

16.2505 -1.46391 -2.38957e-11
-1.46391 16.5483 -7.71716e-13
-2.38957e-11 -7.71716e-13 16.3725

20.2908 1.37611 1.98505e-11
1.37611 19.1781 2.06198e-11
1.98505e-11 2.06198e-11 19.8176

18.0432 -1.65718 4.68266e-11
-1.65718 17.6751 -4.66363e-11
4.68266e-11 -4.66363e-11 18.2335

16.4878 -1.55404 1.31028e-11
-1.55404 17.0179 -2.54394e-11
1.31028e-11 -2.54394e-11 17.0749

17.9544 1.12869 -1.94625e-11
1.12869 17.6774 9.62822e-13
-1.94625e-11 9.62822e-13 17.4992

11.0134 -0.508344 4.52896e-11
-0.508344 12.8392 2.73656e-11
4.52896e-11 2.73656e-11 11.5476

11.9027 0.302583 1.2911e-11
0.302583 13.2127 4.43316e-12
1.2911e-11 4.43316e-12 11.9714

12.7974 -0.469784 -1.07916e-11
-0.469784 11.4418 2.92962e-11
-1.07916e-11 2.92962e-11 11.6866

18.7212 1.49913 -5.20188e-12
1.49913 18.4625 1.38756e-11
-5.20188e-12 1.38756e-11 18.5067

10.5409 -0.364366 9.05701e-12
-0.364366 12.1711 -2.02356e-11
9.05701e-12 -2.02356e-11 10.9366

11.8547 -0.249672 9.24934e-12
-0.249672 10.1997 -3.86517e-13
9.24934e-12 -3.86517e-13 10.6546

21.7259 1.10015 -6.12811e-11
1.10015 20.4817 -7.63071e-11
-6.12811e-11 -7.63071e-11 21.1557

19.1629 -1.6 -2.96765e-11
-1.6 18.5176 -1.73413e-11
-2.96765e-11 -1.73413e-11 19.1714

21.4788 1.34912 -5.3762e-11
1.34912 20.214 3.04459e-11
-5.3762e-11 3.04459e-11 20.9733

19.3025 -1.56533 -2.37029e-11
-1.56533 19.0999 8.90292e-11
-2.37029e-11 8.90292e-11 19.385

8.48451 0.575033 4.87618e-11
0.575033 8.54621 7.34285e-11
4.87618e-11 7.34285e-11 8.94798

8.43734 0.56201 -7.9402e-11
0.56201 8.46652 1.19506e-11
-7.9402e-11 1.19506e-11 8.86123

19.3722 1.2026 -5.00912e-12
1.2026 18.9093 1.15612e-11
-5.00912e-12 1.15612e-11 19.0527

17.6553 -1.4843 -3.08364e-12
-1.4843 17.2862 -2.23539e-11
-3.08364e-12 -2.23539e-11 17.6574

21.5316 -0.94369 1.15672e-12
-0.94369 22.2089 6.45469e-12
1.15672e-12 6.45469e-12 21.7332

20.8229 -0.324736 3.60339e-11
-0.324736 22.3714 6.35775e-12
3.60339e-11 6.35775e-12 20.9534

22.1872 1.37033 -2.23525e-11
1.37033 21.3677 -1.23333e-11
-2.23525e-11 -1.23333e-11 21.8396

18.5005 -1.22451 -8.67341e-12
-1.22451 19.7434 -6.93739e-11
-8.67341e-12 -6.93739e-11 19.482

22.1469 0.720288 -3.39158e-11
0.720288 19.0267 2.2546e-11
-3.39158e-11 2.2546e-11 20.9746

21.2859 -1.11517 -2.0812e-11
-1.11517 19.0593 -5.62675e-11
-2.0812e-11 -5.62675e-11 20.1723

17.3407 1.25691 -4.27821e-11
1.25691 18.2685 1.15685e-12
-4.27821e-11 1.15685e-12 18.3855

18.0465 -1.46096 -6.59909e-12
-1.46096 19.625 -3.41087e-11
-6.59909e-12 -3.41087e-11 18.7673

21.3095 -1.01795 5.25349e-11
-1.01795 21.5697 -2.06192e-11
5.25349e-11 -2.06192e-11 21.0256

21.2161 -0.906948 -2.62061e-11
-0.906948 23.379 4.67302e-11
-2.62061e-11 4.67302e-11 21.874

23.4128 1.02184 -7.3208e-12
1.02184 20.3706 2.73629e-11
-7.3208e-12 2.73629e-11 21.8629

24.6877 0.332494 8.36267e-11
0.332494 21.5609 -7.92003e-11
8.36267e-11 -7.92003e-11 22.6517

22.821 -1.10457 1.96549e-11
-1.10457 21.2415 -7.70652e-13
1.96549e-11 -7.70652e-13 21.2316

24.4072 -0.234903 1.42611e-11
-0.234903 22.6571 9.36478e-11
1.42611e-11 9.36478e-11 21.9955

20.5549 -0.253695 1.02129e-11
-0.253695 23.6594 -4.6248e-12
1.02129e-11 -4.6248e-12 21.2276

21.7273 1.87469 3.0037e-11
1.87469 21.6861 1.46458e-11
3.0037e-11 1.46458e-11 21.1691

25.4928 1.11741 -1.86179e-10
1.11741 22.6088 -4.72079e-10
-1.86179e-10 -4.72079e-10 23.5213

26.2103 0.925054 3.54962e-10
0.925054 22.7742 -3.37087e-11
3.54962e-10 -3.37087e-11 23.6811

26.7056 0.258772 -7.47762e-11
0.258772 25.9903 -2.18122e-10
-7.47762e-11 -2.18122e-10 23.2373

22.6021 -1.30384 3.62249e-11
-1.30384 23.7186 7.93874e-11
3.62249e-11 7.93874e-11 21.7554

25.0528 0.849095 4.89451e-11
0.849095 22.0608 1.15604e-11
4.89451e-11 1.15604e-11 23.1521

23.3247 0.678969 3.08306e-11
0.678969 22.0025 -2.54377e-11
3.08306e-11 -2.54377e-11 22.4737

25.0337 1.08658 3.42996e-11
1.08658 22.5501 -4.52813e-11
3.42996e-11 -4.52813e-11 23.2911

22.8969 -1.25416 -5.47269e-11
-1.25416 21.721 3.19895e-11
-5.47269e-11 3.19895e-11 21.3293

23.9179 -0.628495 -2.96764e-11
-0.628495 24.7959 -6.01196e-11
-2.96764e-11 -6.01196e-11 22.3622

21.1812 -0.559501 6.47457e-11
-0.559501 20.7087 -6.78321e-11
6.47457e-11 -6.78321e-11 20.5327

23.1611 1.10341 1.88823e-11
1.10341 21.107 -9.63487e-12
1.88823e-11 -9.63487e-12 22.1081

23.9582 0.645582 -4.81729e-11
0.645582 21.63 3.14103e-11
-4.81729e-11 3.14103e-11 22.5123

21.4097 -1.45363 8.40183e-11
-1.45363 20.8214 -4.58654e-11
8.40183e-11 -4.58654e-11 20.6887

23.1447 -0.704274 2.65925e-11
-0.704274 21.7395 -5.0101e-11
2.65925e-11 -5.0101e-11 21.4269

TENSORS Lagrange_strain float
8.76466e-05 1.5306e-05 3.6286e-08
1.5306e-05 0.000108874 -5.20281e-08
3.6286e-08 -5.20281e-08 8.81691e-05

0.000104576 1.02118e-05 3.6264e-08
1.02118e-05 0.00012194 -3.91559e-08
3.6264e-08 -3.91559e-08 0.000108512

0.000103923 8.2257e-06 3.93971e-08
8.2257e-06 0.000120685 -3.84915e-08
3.93971e-08 -3.84915e-08 0.000108052

0.000117545 4.45022e-06 -5.77992e-08
4.45022e-06 8.07179e-05 -9.34936e-08
-5.77992e-08 -9.34936e-08 9.55996e-05

0.000113698 1.74136e-06 4.49035e-08
1.74136e-06 7.89013e-05 -3.69684e-08
4.49035e-08 -3.69684e-08 8.7306e-05

0.000104673 9.63593e-06 3.8546e-08
9.63593e-06 0.000122255 -6.5696e-08
3.8546e-08 -6.5696e-08 0.000115595

0.000103783 9.0024e-06 3.52429e-08
9.0024e-06 0.000121532 9.83071e-09
3.52429e-08 9.83071e-09 0.000115188

0.000114784 -2.25581e-06 3.03337e-08
-2.25581e-06 8.0352e-05 6.7544e-08
3.03337e-08 6.7544e-08 8.80768e-05

0.000131759 2.45713e-07 -3.87359e-08
2.45713e-07 8.71545e-05 -1.11041e-08
-3.87359e-08 -1.11041e-08 0.000110022

6.94177e-05 1.49716e-05 2.32186e-08
1.49716e-05 9.22993e-05 -4.76801e-08
2.32186e-08 -4.76801e-08 6.38977e-05

6.82747e-05 -1.59356e-05 -1.50158e-07
-1.59356e-05 9.09913e-05 -1.39606e-08
-1.50158e-07 -1.39606e-08 6.13852e-05

9.05527e-05 1.54175e-05 1.08504e-07
1.54175e-05 7.42275e-05 7.29528e-09
1.08504e-07 7.29528e-09 6.4347e-05

0.000113609 -1.26347e-05 -2.71123e-08
-1.26347e-05 0.000124384 1.40553e-08
-2.71123e-08 1.40553e-08 0.000117272

0.000114148 -1.45717e-05 7.78097e-08
-1.45717e-05 0.000126397 1.11939e-07
7.78097e-08 1.11939e-07 0.000117904

8.76362e-05 1.4482e-05 3.6611e-08
1.4482e-05 0.000112267 -2.3528e-10
3.6611e-08 -2.3528e-10 9.64669e-05

9.48818e-05 1.74682e-05 -7.58996e-08
1.74682e-05 0.000119532 2.94237e-08
-7.58996e-08 2.94237e-08 0.000107172

0.000103376 -6.72919e-06 -4.01628e-08
-6.72919e-06 0.000120986 2.19891e-08
-4.01628e-08 2.19891e-08 0.000114801

0.000103913 -7.20036e-06 6.19478e-08
-7.20036e-06 0.00012121 1.21632e-07
6.19478e-08 1.21632e-07 0.000115178

0.000120067 6.60586e-06 1.60066e-07
6.60586e-06 9.81054e-05 6.31374e-08
1.60066e-07 6.31374e-08 0.0001048

7.52882e-05 5.7317e-06 3.74022e-08
5.7317e-06 0.000106051 -7.52136e-08
3.74022e-08 -7.52136e-08 7.23316e-05

7.50017e-05 -5.56255e-06 -5.39337e-08
-5.56255e-06 0.000106025 1.7079e-07
-5.39337e-08 1.7079e-07 7.17043e-05

0.000103954 4.67571e-06 5.68531e-08
4.67571e-06 8.25109e-05 4.06298e-08
5.68531e-08 4.06298e-08 7.32561e-05

8.78803e-05 1.71777e-05 2.22684e-08
1.71777e-05 0.000104452 -3.65348e-08
2.22684e-08 -3.65348e-08 8.7409e-05

0.000104871 -8.75564e-06 -1.13372e-09
-8.75564e-06 7.65522e-05 5.37046e-08
-1.13372e-09 5.37046e-08 8.06074e-05

9.89538e-05 1.57586e-05 5.12055e-08
1.57586e-05 0.000104273 -3.50223e-08
5.12055e-08 -3.50223e-08 9.50291e-05

8.9868e-05 1.71206e-05 1.90281e-08
1.71206e-05 0.000111255 1.33781e-09
1.90281e-08 1.33781e-09 9.00857e-05

0.000119777 -3.7092e-06 3.81451e-09
-3.7092e-06 8.07169e-05 7.81254e-08
3.81451e-09 7.81254e-08 9.69218e-05

6.74871e-05 1.32977e-05 1.54758e-07
1.32977e-05 9.27244e-05 1.96036e-07
1.54758e-07 1.96036e-07 5.05275e-05

0.000127599 1.64472e-06 4.82723e-08
1.64472e-06 8.47848e-05 1.44698e-08
4.82723e-08 1.44698e-08 0.000107309

8.87547e-05 1.33084e-05 -1.16837e-07
1.33084e-05 7.2422e-05 -1.19634e-07
-1.16837e-07 -1.19634e-07 5.06857e-05

0.000118246 2.03503e-06 -9.56607e-08
2.03503e-06 0.000126113 -1.35293e-08
-9.56607e-08 -1.35293e-08 0.000118157

0.00011825 8.70583e-07 -5.68254e-08
8.70583e-07 0.000125668 4.56182e-08
-5.68254e-08 4.56182e-08 0.000118142

0.000138583 7.53692e-06 3.6195e-07
7.53692e-06 0.000124201 3.06286e-08
3.6195e-07 3.06286e-08 0.000125187

0.000138585 -7.39395e-06 -1.15331e-07
-7.39395e-06 0.000124723 1.51118e-07
-1.15331e-07 1.51118e-07 0.000125046

0.000103143 -5.50511e-06 -1.37994e-07
-5.50511e-06 7.36149e-05 1.25573e-07
-1.37994e-07 1.25573e-07 6.85331e-05

9.70201e-05 1.69163e-05 7.40214e-08
1.69163e-05 0.000109718 -8.03076e-09
7.40214e-08 -8.03076e-09 0.000101322

0.000123044 3.0754e-06 -4.49559e-08
3.0754e-06 0.000115453 -7.5526e-08
-4.49559e-08 -7.5526e-08 0.000117339

0.000122739 -2.72393e-06 1.38331e-07
-2.72393e-06 0.000116379 -1.69528e-07
1.38331e-07 -1.69528e-07 0.000117995

0.00013394 1.38104e-08 1.0873e-07
1.38104e-08 8.49165e-05 1.18002e-08
1.0873e-07 1.18002e-08 0.000110442

8.80842e-05 1.85136e-05 3.13213e-08
1.85136e-05 0.000110711 -1.5049e-08
3.13213e-08 -1.5049e-08 8.93798e-05

0.00010383 -1.13807e-05 -2.02379e-08
-1.13807e-05 8.76679e-05 -7.33178e-08
-2.02379e-08 -7.33178e-08 8.34843e-05

0.000131936 -1.11691e-06 -3.95335e-08
-1.11691e-06 8.18482e-05 2.58984e-09
-3.95335e-08 2.58984e-09 0.000107926

8.69306e-05 -1.71596e-05 6.39616e-08
-1.71596e-05 0.000104474 -1.8315e-08
6.39616e-08 -1.8315e-08 8.65332e-05

8.76911e-05 -1.46966e-05 8.61809e-08
-1.46966e-05 0.000108886 5.54313e-09
8.61809e-08 5.54313e-09 8.80674e-05

9.74554e-05 1.9534e-05 6.40374e-09
1.9534e-05 0.000121843 -5.3402e-08
6.40374e-09 -5.3402e-08 0.000108566

9.34307e-05 -1.82314e-05 -2.35505e-07
-1.82314e-05 8.65636e-05 -9.18828e-08
-2.35505e-07 -9.18828e-08 7.67658e-05

2.45616e-05 3.74544e-05 -7.77258e-08
3.74544e-05 5.03473e-05 -7.77258e-08
-7.77258e-08 -7.77258e-08 1.23241e-05

4.7033e-05 3.69836e-05 4.7819e-08
3.69836e-05 2.69341e-05 4.7819e-08
4.7819e-08 4.7819e-08 1.19428e-05

0.000101014 -1.75354e-05 -8.18998e-08
-1.75354e-05 0.000122478 -6.68612e-09
-8.18998e-08 -6.68612e-09 0.000114153

4.43435e-05 1.57199e-05 5.02685e-08
1.57199e-05 7.58768e-05 8.91795e-08
5.02685e-08 8.91795e-08 2.54319e-05

7.09771e-05 1.40873e-05 -7.04873e-08
1.40873e-05 4.79838e-05 -7.73775e-08
-7.04873e-08 -7.73775e-08 2.59678e-05

0.00012012 -1.20952e-05 -2.2237e-08
-1.20952e-05 0.000131017 -8.03464e-08
-2.2237e-08 -8.03464e-08 0.000124713

0.000120647 1.23739e-05 -3.67592e-09
1.23739e-05 0.000131017 9.26448e-08
-3.67592e-09 9.26448e-08 0.00012473

0.000128809 3.41204e-07 1.22234e-07
3.41204e-07 0.000101546 7.71467e-08
1.22234e-07 7.71467e-08 0.000112531

0.000120584 -1.0657e-05 -2.13858e-08
-1.0657e-05 0.00012827 -7.4356e-08
-2.13858e-08 -7.4356e-08 0.000125582

0.000121202 1.06202e-05 -4.04397e-09
1.06202e-05 0.000128214 9.52349e-08
-4.04397e-09 9.52349e-08 0.000125601

8.98476e-05 1.7184e-05 1.97952e-08
1.7184e-05 0.00011606 1.09536e-08
1.97952e-08 1.09536e-08 9.81548e-05

0.000138079 6.96054e-06 1.0923e-07
6.96054e-06 0.000116422 1.57562e-08
1.0923e-07 1.57562e-08 0.000123406

0.000138563 -7.09841e-06 -2.42521e-07
-7.09841e-06 0.000116422 -4.9283e-08
-2.42521e-07 -4.9283e-08 0.000123329

0.000113757 -1.4319e-05 -1.40875e-08
-1.4319e-05 0.000121125 4.39781e-08
-1.40875e-08 4.39781e-08 0.000116793

0.000113339 1.40441e-05 3.5945e-09
1.40441e-05 0.00012097 3.48016e-08
3.5945e-09 3.48016e-08 0.000116832

8.78192e-05 -1.52173e-05 -2.17074e-08
-1.52173e-05 6.78434e-05 1.80864e-07
-2.17074e-08 1.80864e-07 5.95214e-05

0.000118914 6.95036e-06 3.36728e-08
6.95036e-06 0.000136602 2.01321e-07
3.36728e-08 2.01321e-07 0.000123565

0.000118198 5.383e-06 4.98869e-08
5.383e-06 0.000136159 9.30638e-08
4.98869e-08 9.30638e-08 0.000123056

8.81415e-05 -1.88741e-05 9.80329e-08
-1.88741e-05 0.000111149 -7.69179e-08
9.80329e-08 -7.69179e-08 8.97911e-05

6.24642e-05 -1.24996e-05 -1.47231e-07
-1.24996e-05 9.28123e-05 -1.80719e-08
-1.47231e-07 -1.80719e-08 4.68165e-05

8.95062e-05 -1.2408e-05 6.32728e-08
-1.2408e-05 6.33807e-05 1.24563e-07
6.32728e-08 1.24563e-07 4.61154e-05

9.43431e-05 1.51478e-05 4.47691e-08
1.51478e-05 0.000120119 -4.52473e-08
4.47691e-08 -4.52473e-08 0.000105545

9.32177e-05 1.39501e-05 -6.04711e-08
1.39501e-05 0.000117977 3.30347e-08
-6.04711e-08 3.30347e-08 0.000104714

0.000146282 -2.10575e-05 3.622e-08
-2.10575e-05 0.000129594 -1.20527e-07
3.622e-08 -1.20527e-07 0.000134983

0.000145309 1.94745e-05 4.58149e-08
1.94745e-05 0.00013022 1.0452e-07
4.58149e-08 1.0452e-07 0.000134993

9.82726e-05 2.10927e-05 -2.22708e-08
2.10927e-05 0.000121331 1.28709e-07
-2.22708e-08 1.28709e-07 0.000110605

0.00011685 1.03357e-05 -9.98717e-08
1.03357e-05 0.000108665 -1.05933e-07
-9.98717e-08 -1.05933e-07 0.000111911

0.000117311 -1.06263e-05 1.2688e-07
-1.06263e-05 0.000108195 -1.11164e-07
1.2688e-07 -1.11164e-07 0.000111551

9.84724e-05 2.03346e-05 2.50772e-08
2.03346e-05 0.000117086 -1.69412e-07
2.50772e-08 -1.69412e-07 0.00010936

0.000102446 -1.85127e-05 -1.51901e-07
-1.85127e-05 0.000125104 2.22487e-08
-1.51901e-07 2.22487e-08 0.000114957

0.000101742 -2.0234e-07 -1.0394e-07
-2.0234e-07 6.74266e-05 -1.10473e-07
-1.0394e-07 -1.10473e-07 6.73717e-05

0.000106907 8.20357e-06 2.13252e-08
8.20357e-06 7.60225e-05 -3.08941e-08
2.13252e-08 -3.08941e-08 7.86752e-05

0.000123625 3.42995e-06 -6.52184e-08
3.42995e-06 0.000101017 1.38331e-08
-6.52184e-08 1.38331e-08 0.000115093

0.000131537 -5.27231e-06 -7.59274e-09
-5.27231e-06 0.000128601 2.04936e-07
-7.59274e-09 2.04936e-07 0.000126129

0.000131301 4.32064e-06 -1.30778e-07
4.32064e-06 0.000128753 2.59221e-07
-1.30778e-07 2.59221e-07 0.000126218

8.46558e-05 1.53496e-05 -3.32227e-08
1.53496e-05 9.21739e-05 -4.37717e-08
-3.32227e-08 -4.37717e-08 6.92549e-05

0.00010103 -1.34289e-05 -2.88693e-08
-1.34289e-05 9.44091e-05 -6.48262e-08
-2.88693e-08 -6.48262e-08 9.2966e-05

0.000119873 8.11522e-06 1.57176e-07
8.11522e-06 0.000102719 1.12211e-07
1.57176e-07 1.12211e-07 0.000105088

0.000122861 4.38739e-06 -9.95688e-08
4.38739e-06 0.000135121 1.68911e-07
-9.95688e-08 1.68911e-07 0.000125193

0.000122811 3.69661e-06 2.70502e-07
3.69661e-06 0.000135066 1.46729e-07
2.70502e-07 1.46729e-07 0.00012497

0.00012362 -2.28524e-06 1.55271e-07
-2.28524e-06 0.000102592 -9.35483e-08
1.55271e-07 -9.35483e-08 0.000116104

0.00010354 -5.32685e-06 -4.0369e-08
-5.32685e-06 0.000120941 1.84592e-08
-4.0369e-08 1.84592e-08 0.000107823

0.000103916 -7.15757e-06 5.76712e-08
-7.15757e-06 0.000121926 6.54565e-08
5.76712e-08 6.54565e-08 0.00010824

0.000130706 -4.87597e-06 2.43479e-08
-4.87597e-06 0.000106932 1.19306e-07
2.43479e-08 1.19306e-07 0.000119078

0.000130399 4.85066e-06 -1.32926e-07
4.85066e-06 0.000106913 -9.52227e-08
-1.32926e-07 -9.52227e-08 0.000119441

9.0607e-05 -1.51243e-05 -9.66907e-08
-1.51243e-05 9.01096e-05 4.8893e-08
-9.66907e-08 4.8893e-08 7.00026e-05

0.000116685 8.97071e-07 -9.28734e-08
8.97071e-07 9.32345e-05 -6.35714e-08
-9.28734e-08 -6.35714e-08 9.50268e-05

0.000128793 -7.43714e-06 3.70286e-09
-7.43714e-06 0.000115131 -1.60116e-07
3.70286e-09 -1.60116e-07 0.00012348

0.000128399 7.40941e-06 1.03749e-07
7.40941e-06 0.00011527 1.44552e-07
1.03749e-07 1.44552e-07 0.000123583

0.000119456 -8.279e-06 -1.59883e-07
-8.279e-06 0.000102955 1.22164e-07
-1.59883e-07 1.22164e-07 0.000104794

8.99038e-05 -1.7176e-05 1.59465e-07
-1.7176e-05 0.0001126 2.18342e-09
1.59465e-07 2.18342e-09 9.06671e-05

0.000130377 -5.51065e-06 -2.34984e-08
-5.51065e-06 0.000109343 -1.31565e-07
-2.34984e-08 -1.31565e-07 0.000118149

0.000130035 5.48432e-06 -1.31275e-07
5.48432e-06 0.00010939 -1.03281e-07
-1.31275e-07 -1.03281e-07 0.000118533

0.000117771 -3.536e-06 1.08553e-07
-3.536e-06 8.96148e-05 -1.51637e-07
1.08553e-07 -1.51637e-07 0.000100034

0.000101451 2.4248e-05 -7.52941e-08
2.4248e-05 0.000123901 -9.65506e-08
-7.52941e-08 -9.65506e-08 0.000111978

9.92356e-05 1.32572e-05 -6.90556e-08
1.32572e-05 9.33294e-05 4.47833e-08
-6.90556e-08 4.47833e-08 8.36727e-05

9.79718e-05 2.0381e-05 1.07549e-07
2.0381e-05 0.00012258 9.62621e-08
1.07549e-07 9.62621e-08 0.000111299

0.000100064 2.28909e-05 -1.9702e-08
2.28909e-05 0.000125234 -1.0259e-07
-1.9702e-08 -1.0259e-07 0.000112162

0.000107957 9.78476e-06 -1.31044e-07
9.78476e-06 8.628e-05 -4.34066e-08
-1.31044e-07 -4.34066e-08 8.58453e-05

0.000110776 -8.33048e-06 -9.05541e-08
-8.33048e-06 9.86724e-05 1.70914e-07
-9.05541e-08 1.70914e-07 0.00010586

0.000116257 4.5929e-06 5.53594e-08
4.5929e-06 9.00006e-05 1.98018e-07
5.53594e-08 1.98018e-07 9.80106e-05

8.78784e-05 1.68606e-05 2.44907e-08
1.68606e-05 9.22306e-05 9.2431e-09
2.44907e-08 9.2431e-09 7.96513e-05

9.93187e-05 1.37094e-05 3.88533e-08
1.37094e-05 9.39904e-05 1.29809e-07
3.88533e-08 1.29809e-07 9.22222e-05

9.12148e-05 1.12745e-06 1.4907e-07
1.12745e-06 0.000116745 1.79596e-08
1.4907e-07 1.79596e-08 0.000104068

9.13821e-05 1.81945e-06 5.34641e-08
1.81945e-06 0.000116797 -3.03024e-08
5.34641e-08 -3.03024e-08 0.000104095

9.0789e-05 -1.72577e-05 -9.403e-08
-1.72577e-05 7.71941e-05 -2.06904e-08
-9.403e-08 -2.06904e-08 6.57332e-05

9.82976e-05 -2.047e-05 -9.79831e-08
-2.047e-05 0.000117217 9.19634e-08
-9.79831e-08 9.19634e-08 0.000109536

8.8775e-05 -2.0192e-05 8.21346e-08
-2.0192e-05 0.000102685 2.30146e-08
8.21346e-08 2.30146e-08 8.18141e-05

8.87094e-05 2.06045e-05 5.45388e-08
2.06045e-05 0.000102147 1.7843e-07
5.45388e-08 1.7843e-07 8.16362e-05

0.000113086 -7.44045e-06 1.52654e-07
-7.44045e-06 9.50289e-05 -5.48851e-08
1.52654e-07 -5.48851e-08 9.89531e-05

0.000133334 -1.0554e-06 -3.90108e-08
-1.0554e-06 8.81901e-05 -1.08341e-08
-3.90108e-08 -1.08341e-08 0.00011498

0.0001338 1.35933e-06 6.05137e-08
1.35933e-06 8.84684e-05 -4.79768e-08
6.05137e-08 -4.79768e-08 0.00011449

7.94794e-05 1.09118e-05 4.92866e-08
1.09118e-05 0.000106614 -4.64998e-08
4.92866e-08 -4.64998e-08 8.28758e-05

9.91976e-05 -1.66978e-05 -1.66484e-08
-1.66978e-05 0.000104125 -7.43034e-09
-1.66484e-08 -7.43034e-09 9.46926e-05

6.3957e-05 -3.94449e-07 -1.05285e-09
-3.94449e-07 0.000103269 -8.76853e-08
-1.05285e-09 -8.76853e-08 6.78277e-05

6.3645e-05 8.0689e-07 3.72182e-08
8.0689e-07 0.000103282 1.44288e-07
3.72182e-08 1.44288e-07 6.73745e-05

0.000102219 -1.07129e-07 3.8311e-08
-1.07129e-07 6.93796e-05 -7.175e-09
3.8311e-08 -7.175e-09 6.85306e-05

9.03625e-05 1.61535e-05 1.0419e-07
1.61535e-05 9.06761e-05 -1.94671e-08
1.0419e-07 -1.94671e-08 6.97074e-05

9.53251e-05 -1.88944e-05 -6.20981e-08
-1.88944e-05 9.30237e-05 1.62524e-08
-6.20981e-08 1.62524e-08 8.23699e-05

0.000123311 -9.28267e-06 4.82798e-07
-9.28267e-06 0.000143247 7.94071e-08
4.82798e-07 7.94071e-08 0.000126899

0.000123414 -8.75746e-06 1.98729e-07
-8.75746e-06 0.000143402 7.43168e-08
1.98729e-07 7.43168e-08 0.000127034

0.000109178 -9.6091e-06 1.15522e-07
-9.6091e-06 8.64944e-05 2.27972e-08
1.15522e-07 2.27972e-08 8.69165e-05

9.58551e-05 2.23847e-05 -6.50643e-09
2.23847e-05 0.000120548 -1.0558e-08
-6.50643e-09 -1.0558e-08 0.000103975

0.000128866 -4.6446e-07 1.23336e-07
-4.6446e-07 0.000101383 4.55964e-08
1.23336e-07 4.55964e-08 0.000112247

7.92035e-05 -1.08114e-05 6.06835e-09
-1.08114e-05 0.000107344 2.88439e-08
6.06835e-09 2.88439e-08 8.30809e-05

0.000102426 2.00674e-05 -6.95331e-08
2.00674e-05 0.00012637 5.45238e-09
-6.95331e-08 5.45238e-09 0.000115586

9.97732e-05 1.89555e-05 1.72798e-08
1.89555e-05 0.000123545 4.29567e-08
1.72798e-08 4.29567e-08 0.000114442

0.000101682 -2.43008e-05 4.68054e-08
-2.43008e-05 0.000123966 7.63145e-08
4.68054e-08 7.63145e-08 0.000112128

0.000100649 2.33581e-05 -7.45775e-08
2.33581e-05 0.000127848 -9.39775e-08
-7.45775e-08 -9.39775e-08 0.00011364

9.38398e-05 1.97512e-05 -4.50203e-08
1.97512e-05 0.000116604 -8.17883e-08
-4.50203e-08 -8.17883e-08 0.000102434

0.000138293 8.58224e-08 -6.80116e-08
8.58224e-08 0.000111889 7.38204e-08
-6.80116e-08 7.38204e-08 0.000127509

9.55713e-05 1.862e-05 -4.47026e-08
1.862e-05 9.15216e-05 -1.2702e-07
-4.47026e-08 -1.2702e-07 8.15854e-05

9.80241e-05 -2.08989e-05 -8.04879e-08
-2.08989e-05 0.000122241 3.9549e-08
-8.04879e-08 3.9549e-08 0.000111297

9.50424e-05 1.63296e-05 -8.14947e-09
1.63296e-05 0.000102454 2.6075e-07
-8.14947e-09 2.6075e-07 8.60814e-05

8.12057e-05 -1.40301e-05 2.95739e-07
-1.40301e-05 9.11855e-05 1.5257e-08
2.95739e-07 1.5257e-08 6.61994e-05

9.69024e-05 -1.7199e-05 4.57759e-08
-1.7199e-05 0.000110598 -9.95144e-08
4.57759e-08 -9.95144e-08 0.00010146

7.78363e-05 -9.75742e-06 -1.13527e-07
-9.75742e-06 0.000109432 -2.36325e-08
-1.13527e-07 -2.36325e-08 7.50545e-05

7.73873e-05 9.53078e-06 6.74011e-09
9.53078e-06 0.000108689 1.27917e-07
6.74011e-09 1.27917e-07 7.47249e-05

0.000105005 -6.71057e-06 7.67859e-09
-6.71057e-06 8.49687e-05 6.08399e-08
7.67859e-09 6.08399e-08 7.52881e-05

9.51541e-05 -1.66849e-05 -5.687e-08
-1.66849e-05 0.000102701 -1.29506e-07
-5.687e-08 -1.29506e-07 8.57725e-05

9.13115e-05 2.52341e-06 5.66049e-08
2.52341e-06 0.00011701 -9.33893e-08
5.66049e-08 -9.33893e-08 9.3981e-05

9.13336e-05 -6.22621e-08 1.48888e-07
-6.22621e-08 0.000116606 2.15838e-08
1.48888e-07 2.15838e-08 9.39669e-05

7.76736e-05 -1.91532e-05 -9.66248e-09
-1.91532e-05 8.98531e-05 1.00184e-07
-9.66248e-09 1.00184e-07 6.45642e-05

7.68909e-05 1.94654e-05 -5.31236e-09
1.94654e-05 9.05575e-05 3.23345e-08
-5.31236e-09 3.23345e-08 6.52973e-05

0.000137577 -1.75931e-06 -4.73383e-08
-1.75931e-06 0.000107749 1.0792e-07
-4.73383e-08 1.0792e-07 0.000125437

0.000137975 1.68122e-06 6.61179e-08
1.68122e-06 0.000107782 -1.29568e-07
6.61179e-08 -1.29568e-07 0.000125575

9.83494e-05 2.11524e-05 2.97034e-08
2.11524e-05 0.000121149 -2.63987e-08
2.97034e-08 -2.63987e-08 0.000106143

9.96997e-05 -1.91179e-05 3.02413e-08
-1.91179e-05 0.000123777 -4.67474e-08
3.02413e-08 -4.67474e-08 0.000114148

0.000102144 1.40693e-05 -2.6608e-07
1.40693e-05 0.000109261 -3.35956e-08
-2.6608e-07 -3.35956e-08 0.000105805

8.90582e-05 1.54714e-05 -3.05788e-08
1.54714e-05 6.88659e-05 1.67612e-07
-3.05788e-08 1.67612e-07 5.54792e-05

8.00453e-05 1.33072e-05 -4.49509e-08
1.33072e-05 0.000110919 -1.66594e-09
-4.49509e-08 -1.66594e-09 8.43369e-05

0.000122469 9.24098e-06 -4.34701e-08
9.24098e-06 0.000121203 3.597e-08
-4.34701e-08 3.597e-08 0.000121805

0.000122089 -9.50223e-06 -9.84787e-08
-9.50223e-06 0.000121402 4.1491e-08
-9.84787e-08 4.1491e-08 0.00012177

0.0001169 -1.2697e-05 1.2765e-07
-1.2697e-05 0.000114424 -1.02372e-07
1.2765e-07 -1.02372e-07 0.000111375

0.000116452 1.24313e-05 -1.02499e-07
1.24313e-05 0.000114287 -7.51001e-08
-1.02499e-07 -7.51001e-08 0.000111463

4.58465e-05 4.14838e-06 -1.16764e-07
4.14838e-06 9.56744e-05 -3.86892e-08
-1.16764e-07 -3.86892e-08 2.51325e-05

9.02221e-05 4.29197e-06 -5.25308e-08
4.29197e-06 5.06924e-05 1.38952e-07
-5.25308e-08 1.38952e-07 2.51517e-05

7.95313e-05 -1.26178e-05 -1.36497e-07
-1.26178e-05 0.000111511 4.43756e-08
-1.36497e-07 4.43756e-08 8.47715e-05

0.000132332 -9.89073e-06 -9.31515e-08
-9.89073e-06 0.000135107 -1.44846e-07
-9.31515e-08 -1.44846e-07 0.000132202

0.000132219 1.02131e-05 -7.30994e-08
1.02131e-05 0.000134722 1.28074e-07
-7.30994e-08 1.28074e-07 0.000132211

0.000107229 1.53714e-05 1.14342e-07
1.53714e-05 0.000107533 1.63053e-07
1.14342e-07 1.63053e-07 9.97238e-05

9.48238e-05 8.49947e-06 9.36224e-08
8.49947e-06 6.17534e-05 -1.86505e-07
9.36224e-08 -1.86505e-07 5.50961e-05

0.000116705 -1.56291e-06 -9.27293e-08
-1.56291e-06 9.33211e-05 -9.87036e-08
-9.27293e-08 -9.87036e-08 9.50733e-05

9.34345e-05 -1.10251e-05 -4.61352e-08
-1.10251e-05 0.000117766 1.55628e-08
-4.61352e-08 1.55628e-08 0.000104785

9.47471e-05 -1.22569e-05 -7.16441e-08
-1.22569e-05 0.000119134 2.58078e-09
-7.16441e-08 2.58078e-09 0.000105676

8.73611e-05 -1.8293e-05 3.57243e-08
-1.8293e-05 9.41085e-05 2.13281e-07
3.57243e-08 2.13281e-07 7.80881e-05

0.0001006 -2.33757e-05 4.0236e-08
-2.33757e-05 0.000127864 9.55994e-08
4.0236e-08 9.55994e-08 0.000113779

0.000106691 -1.55058e-05 -5.11595e-09
-1.55058e-05 0.000107883 -1.97283e-08
-5.11595e-09 -1.97283e-08 9.94602e-05

9.58895e-05 2.22814e-05 7.86599e-08
2.22814e-05 0.000121641 1.40481e-07
7.86599e-08 1.40481e-07 0.000110768

0.0001137 1.62439e-05 1.0458e-07
1.62439e-05 0.000126822 -5.93312e-09
1.0458e-07 -5.93312e-09 0.000118304

0.000113256 1.46778e-05 6.81678e-08
1.46778e-05 0.000124046 3.96292e-08
6.81678e-08 3.96292e-08 0.000117612

9.82397e-05 -2.12935e-05 9.01998e-09
-2.12935e-05 0.000121611 9.87021e-08
9.01998e-09 9.87021e-08 0.000106459

9.62029e-05 1.92743e-05 9.10554e-08
1.92743e-05 0.00011666 -1.27041e-07
9.10554e-08 -1.27041e-07 0.000103927

0.000100071 1.32526e-05 -5.39537e-08
1.32526e-05 8.00515e-05 1.04905e-07
-5.39537e-08 1.04905e-07 7.75209e-05

9.97671e-05 2.47744e-05 -6.68612e-08
2.47744e-05 0.000125578 -1.06872e-07
-6.68612e-08 -1.06872e-07 0.000112799

8.77178e-05 -1.50332e-05 8.92629e-08
-1.50332e-05 0.000113106 -3.69809e-08
8.92629e-08 -3.69809e-08 9.68468e-05

8.22402e-05 5.91626e-06 -4.16489e-09
5.91626e-06 0.000112796 1.046e-07
-4.16489e-09 1.046e-07 9.06414e-05

0.000105226 1.76802e-05 -1.53409e-07
1.76802e-05 0.000113001 -6.77158e-08
-1.53409e-07 -6.77158e-08 0.00010608

8.42447e-05 7.60301e-06 -2.2607e-08
7.60301e-06 0.000113793 -5.6089e-08
-2.2607e-08 -5.6089e-08 9.16379e-05

0.00010249 -2.08988e-05 1.17125e-07
-2.08988e-05 0.000126771 -7.2026e-08
1.17125e-07 -7.2026e-08 0.000115193

6.17321e-05 -1.79189e-05 -1.59223e-07
-1.79189e-05 6.36007e-05 -1.53156e-07
-1.59223e-07 -1.53156e-07 3.58456e-05

6.24384e-05 -1.8088e-05 1.18839e-07
-1.8088e-05 6.25238e-05 1.30041e-07
1.18839e-07 1.30041e-07 3.5686e-05

0.000105223 -1.79568e-05 9.67538e-08
-1.79568e-05 0.000113148 -1.06834e-07
9.67538e-08 -1.06834e-07 0.000105962

0.000119584 -6.727e-06 -1.66872e-07
-6.727e-06 9.80872e-05 -5.83772e-08
-1.66872e-07 -5.83772e-08 0.000104562

0.000145489 2.0806e-05 1.50776e-08
2.0806e-05 0.000135588 3.05427e-08
1.50776e-08 3.05427e-08 0.000134999

0.000145489 -2.12004e-05 3.93089e-09
-2.12004e-05 0.000134871 -4.28154e-08
3.93089e-09 -4.28154e-08 0.00013499

9.60903e-05 -2.22231e-05 -1.6309e-08
-2.22231e-05 0.000121216 8.63337e-08
-1.6309e-08 8.63337e-08 0.000104684

0.000120181 4.4974e-06 -3.14087e-08
4.4974e-06 0.000123767 -5.82092e-08
-3.14087e-08 -5.82092e-08 0.000122284

0.00012015 -4.28533e-06 -1.21287e-07
-4.28533e-06 0.00012423 1.52365e-07
-1.21287e-07 1.52365e-07 0.000122203

0.000126934 2.48148e-07 -4.8646e-08
2.48148e-07 8.24287e-05 -9.88221e-08
-4.8646e-08 -9.88221e-08 0.000101576

9.59495e-05 -2.25538e-05 -5.68561e-08
-2.25538e-05 0.000121854 7.42436e-08
-5.68561e-08 7.42436e-08 0.000110677

6.70344e-05 2.19035e-05 -1.64091e-07
2.19035e-05 6.90212e-05 -1.00748e-07
-1.64091e-07 -1.00748e-07 4.43035e-05

6.51616e-05 2.06799e-05 1.61349e-07
2.06799e-05 6.94046e-05 1.76574e-07
1.61349e-07 1.76574e-07 4.47634e-05

6.48166e-05 -1.55412e-05 8.15015e-08
-1.55412e-05 9.33322e-05 2.0675e-08
8.15015e-08 2.0675e-08 5.22246e-05

6.61293e-05 1.63754e-05 -1.65611e-07
1.63754e-05 9.46127e-05 -1.22327e-07
-1.65611e-07 -1.22327e-07 5.35545e-05

9.06381e-05 -1.29726e-05 7.03044e-08
-1.29726e-05 6.9401e-05 -1.72592e-07
7.03044e-08 -1.72592e-07 5.23133e-05

9.94978e-05 -2.47266e-05 -4.49523e-08
-2.47266e-05 0.000126391 -4.3541e-08
-4.49523e-08 -4.3541e-08 0.000112852

4.63587e-05 5.71216e-06 -9.57744e-08
5.71216e-06 9.00652e-05 1.19901e-07
-9.57744e-08 1.19901e-07 4.45404e-05

8.698e-05 7.31869e-06 -3.87034e-08
7.31869e-06 5.22077e-05 1.42046e-07
-3.87034e-08 1.42046e-07 4.50232e-05

0.000117276 -7.61375e-06 -2.07475e-08
-7.61375e-06 0.000129579 2.70826e-08
-2.07475e-08 2.70826e-08 0.000121538

0.000118176 -9.4429e-06 -1.93151e-08
-9.4429e-06 0.000130515 -8.68485e-08
-1.93151e-08 -8.68485e-08 0.000121953

0.000123488 2.80436e-06 -7.66537e-08
2.80436e-06 9.99501e-05 2.94189e-09
-7.66537e-08 2.94189e-09 0.000108203

0.000134217 1.71499e-07 6.75597e-08
1.71499e-07 8.16292e-05 1.32033e-07
6.75597e-08 1.32033e-07 0.000110507

7.61086e-05 -1.41243e-05 -9.70149e-09
-1.41243e-05 0.00010146 1.00474e-07
-9.70149e-09 1.00474e-07 7.29731e-05

7.56232e-05 1.37534e-05 4.64435e-09
1.37534e-05 0.000101073 1.30443e-07
4.64435e-09 1.30443e-07 7.27301e-05

0.000127036 1.02494e-08 -7.00989e-08
1.02494e-08 8.19807e-05 1.82642e-08
-7.00989e-08 1.82642e-08 0.000102128

8.98586e-05 -1.69927e-05 1.63316e-07
-1.69927e-05 0.000116847 -5.3858e-08
1.63316e-07 -5.3858e-08 9.87995e-05

0.000131513 -7.01423e-06 -1.21141e-07
-7.01423e-06 0.000129465 -1.11861e-07
-1.21141e-07 -1.11861e-07 0.000129405

0.000130908 7.19163e-06 -7.75928e-08
7.19163e-06 0.00012942 1.22779e-07
-7.75928e-08 1.22779e-07 0.000129418

0.000108932 1.01846e-05 -8.36855e-08
1.01846e-05 0.00011078 -1.96764e-07
-8.36855e-08 -1.96764e-07 0.000107037

9.57832e-05 -1.91853e-05 6.5671e-08
-1.91853e-05 0.000116581 -6.21759e-09
6.5671e-08 -6.21759e-09 0.000103801

0.000123648 2.99094e-06 -6.27327e-08
2.99094e-06 8.71073e-05 1.45421e-07
-6.27327e-08 1.45421e-07 0.000105699

8.5003e-05 1.59484e-05 -6.98881e-08
1.59484e-05 8.19917e-05 1.01366e-07
-6.98881e-08 1.01366e-07 6.66006e-05

9.38384e-05 -1.96398e-05 5.5896e-08
-1.96398e-05 0.000116564 -1.05967e-08
5.5896e-08 -1.05967e-08 0.00010254

3.3848e-05 -3.44707e-05 -8.28626e-08
-3.44707e-05 3.50935e-05 8.28626e-08
-8.28626e-08 8.28626e-08 7.98291e-06

8.30896e-05 -4.76259e-06 -5.92401e-08
-4.76259e-06 0.000112285 -1.42884e-07
-5.92401e-08 -1.42884e-07 9.07062e-05

8.47877e-05 -6.46179e-06 -2.02435e-07
-6.46179e-06 0.00011291 -1.0217e-07
-2.02435e-07 -1.0217e-07 9.14143e-05

0.000118954 -1.41678e-06 -1.16722e-08
-1.41678e-06 0.00012829 -2.1913e-07
-1.16722e-08 -2.1913e-07 0.00012248

0.000119198 -8.85129e-07 -1.21849e-07
-8.85129e-07 0.000127607 1.40021e-07
-1.21849e-07 1.40021e-07 0.000122494

0.000138135 -5.26039e-06 8.22271e-08
-5.26039e-06 0.000115945 -6.1336e-08
8.22271e-08 -6.1336e-08 0.000130101

0.000138582 5.23839e-06 1.76715e-07
5.23839e-06 0.000116024 1.45913e-08
1.76715e-07 1.45913e-08 0.000130233

0.000110349 -1.0548e-05 -5.51993e-08
-1.0548e-05 0.000112923 -2.24731e-07
-5.51993e-08 -2.24731e-07 0.000114113

0.000110344 1.0928e-05 7.78505e-08
1.0928e-05 0.000111161 -1.25605e-07
7.78505e-08 -1.25605e-07 0.000113373

0.000117631 -9.23792e-06 -1.58062e-07
-9.23792e-06 0.000127675 -4.03139e-09
-1.58062e-07 -4.03139e-09 0.000121037

0.000117559 9.66766e-06 -6.9768e-08
9.66766e-06 0.000127696 1.06446e-07
-6.9768e-08 1.06446e-07 0.000121059

0.000136837 1.46401e-05 -2.84704e-07
1.46401e-05 0.000136339 4.80795e-08
-2.84704e-07 4.80795e-08 0.000133267

0.000136837 -1.45659e-05 1.83481e-07
-1.45659e-05 0.000135677 -3.23118e-08
1.83481e-07 -3.23118e-08 0.000133218

0.000106699 -2.39425e-05 -6.00441e-08
-2.39425e-05 0.000127844 1.15821e-07
-6.00441e-08 1.15821e-07 0.000118127

0.000106861 2.4091e-05 -1.69189e-08
2.4091e-05 0.000127872 -8.14066e-08
-1.69189e-08 -8.14066e-08 0.000118161

0.000108136 1.43296e-05 1.2572e-07
1.43296e-05 0.000101099 1.16997e-07
1.2572e-07 1.16997e-07 9.82838e-05

9.34029e-05 -1.12943e-05 -6.7984e-08
-1.12943e-05 0.000115557 -1.34816e-07
-6.7984e-08 -1.34816e-07 9.77826e-05

9.41038e-05 -1.41748e-05 -1.07282e-07
-1.41748e-05 0.000118672 -2.05565e-07
-1.07282e-07 -2.05565e-07 9.89519e-05

8.76079e-05 -1.42017e-05 9.81858e-09
-1.42017e-05 8.38222e-05 -2.83806e-07
9.81858e-09 -2.83806e-07 6.48771e-05

0.000107528 -1.41786e-05 3.07627e-08
-1.41786e-05 0.000101395 1.52121e-07
3.07627e-08 1.52121e-07 9.81175e-05

9.30946e-05 1.06666e-05 -5.9615e-08
1.06666e-05 0.00011486 7.82679e-08
-5.9615e-08 7.82679e-08 9.74043e-05

9.86376e-05 2.01371e-05 -8.69085e-08
2.01371e-05 0.00010638 1.90848e-07
-8.69085e-08 1.90848e-07 9.47501e-05

0.000101671 -2.08875e-05 1.36279e-07
-2.08875e-05 0.000121849 -3.09059e-08
1.36279e-07 -3.09059e-08 0.00011503

0.000101718 2.03359e-05 7.58944e-09
2.03359e-05 0.00012217 6.43741e-08
7.58944e-09 6.43741e-08 0.000115127

9.85216e-05 -2.03074e-05 -1.53318e-07
-2.03074e-05 0.000106455 -4.56133e-08
-1.53318e-07 -4.56133e-08 9.44743e-05

0.00012495 -2.18703e-06 -1.17207e-07
-2.18703e-06 0.000101242 1.61524e-07
-1.17207e-07 1.61524e-07 0.000109965

0.000126094 5.65619e-06 6.80062e-08
5.65619e-06 0.000136159 -2.99394e-08
6.80062e-08 -2.99394e-08 0.000126738

0.000126568 4.96052e-06 -1.24026e-07
4.96052e-06 0.000136095 -1.67602e-08
-1.24026e-07 -1.67602e-08 0.000126891

0.000102418 -1.79092e-05 -1.52782e-07
-1.79092e-05 0.000123277 5.79515e-08
-1.52782e-07 5.79515e-08 0.000109668

0.000108777 8.65229e-06 -6.90364e-08
8.65229e-06 9.76574e-05 2.6883e-10
-6.90364e-08 2.6883e-10 0.000104114

0.000133974 -2.0798e-06 5.40005e-08
-2.0798e-06 0.000103739 -3.2594e-08
5.40005e-08 -3.2594e-08 0.000118116

6.58595e-05 -1.92025e-05 7.13442e-08
-1.92025e-05 6.87914e-05 1.17149e-07
7.13442e-08 1.17149e-07 3.97884e-05

6.63808e-05 -1.88187e-05 -1.70621e-07
-1.88187e-05 6.89413e-05 -1.82996e-07
-1.70621e-07 -1.82996e-07 4.01889e-05

0.000137676 -5.89331e-06 2.68113e-09
-5.89331e-06 0.00011508 -1.60101e-07
2.68113e-09 -1.60101e-07 0.000129072

0.000137757 6.09961e-06 6.75609e-08
6.09961e-06 0.00011514 1.42988e-07
6.75609e-08 1.42988e-07 0.000129149

0.000133723 1.96436e-06 -8.8985e-08
1.96436e-06 0.000104346 -1.82386e-07
-8.8985e-08 -1.82386e-07 0.000118433

9.4325e-05 1.42072e-05 4.51549e-08
1.42072e-05 0.000118038 -5.58418e-09
4.51549e-08 -5.58418e-09 9.87846e-05

0.000108029 1.09947e-05 -1.3214e-07
1.09947e-05 9.61834e-05 -7.5362e-08
-1.3214e-07 -7.5362e-08 8.88141e-05

0.000113271 -1.60837e-05 7.09712e-09
-1.60837e-05 0.000124108 2.14115e-07
7.09712e-09 2.14115e-07 0.000116352

0.000112827 1.58746e-05 -1.61999e-08
1.58746e-05 0.00012424 1.92421e-07
-1.61999e-08 1.92421e-07 0.000116421

0.000136984 -2.51474e-06 -3.41696e-09
-2.51474e-06 0.0001219 -4.97064e-07
-3.41696e-09 -4.97064e-07 0.000126676

0.000137154 2.96112e-06 3.15646e-07
2.96112e-06 0.00012327 -2.61013e-07
3.15646e-07 -2.61013e-07 0.000126907

9.6685e-05 -2.04118e-05 -1.13809e-08
-2.04118e-05 0.000122191 1.14961e-07
-1.13809e-08 1.14961e-07 0.000108828

0.000112757 8.75479e-06 8.10804e-08
8.75479e-06 9.51319e-05 1.23776e-07
8.10804e-08 1.23776e-07 9.71122e-05

0.000128456 6.17857e-06 1.10468e-07
6.17857e-06 0.000120931 -1.28087e-07
1.10468e-07 -1.28087e-07 0.000123967

0.000128852 -6.04893e-06 1.08512e-08
-6.04893e-06 0.000121005 1.59091e-07
1.08512e-08 1.59091e-07 0.000123935

0.000101244 -1.59474e-05 -7.87599e-08
-1.59474e-05 0.000120836 3.82473e-08
-7.87599e-08 3.82473e-08 0.000108645

9.70983e-05 -2.16787e-05 1.02333e-07
-2.16787e-05 0.000121527 4.7477e-08
1.02333e-07 4.7477e-08 0.000110361

3.47804e-05 -3.57149e-05 1.08542e-07
-3.57149e-05 3.66495e-05 -1.08542e-07
1.08542e-07 -1.08542e-07 8.75422e-06

0.000105855 1.50148e-05 -1.0626e-08
1.50148e-05 0.000126821 1.01067e-07
-1.0626e-08 1.01067e-07 0.000117353

0.000106194 -1.50357e-05 1.59751e-07
-1.50357e-05 0.000126965 1.67441e-08
1.59751e-07 1.67441e-08 0.000117385

9.39721e-05 -1.89745e-05 7.12815e-08
-1.89745e-05 0.000119644 8.61921e-08
7.12815e-08 8.61921e-08 0.000107336

0.000109429 -1.18707e-05 1.11388e-07
-1.18707e-05 9.64029e-05 8.67502e-08
1.11388e-07 8.67502e-08 8.97289e-05

0.000110865 -9.47783e-06 -6.88996e-08
-9.47783e-06 0.000111276 -2.15639e-07
-6.88996e-08 -2.15639e-07 0.000108116

0.000108458 1.29455e-05 5.44368e-09
1.29455e-05 0.000119035 1.1888e-07
5.44368e-09 1.1888e-07 0.000114611

0.000108416 -1.32643e-05 4.42501e-08
-1.32643e-05 0.000119909 1.50152e-07
4.42501e-08 1.50152e-07 0.000114669

0.000124949 -1.97515e-06 -1.16645e-07
-1.97515e-06 8.73668e-05 -6.54037e-08
-1.16645e-07 -6.54037e-08 0.000107336

0.00013684 4.70178e-06 -9.18787e-09
4.70178e-06 0.000123887 -2.38482e-07
-9.18787e-09 -2.38482e-07 0.000131713

0.00013684 -4.70178e-06 -7.46921e-08
-4.70178e-06 0.000123887 2.24473e-07
-7.46921e-08 2.24473e-07 0.000131713

0.000123271 2.08582e-06 -7.32707e-09
2.08582e-06 0.000146324 4.65777e-08
-7.32707e-09 4.65777e-08 0.000125806

0.000123491 1.56593e-06 -1.36611e-07
1.56593e-06 0.000146165 -3.97708e-09
-1.36611e-07 -3.97708e-09 0.000125875

4.27907e-05 1.48932e-06 1.86603e-07
1.48932e-06 9.54084e-05 -1.11844e-09
1.86603e-07 -1.11844e-09 2.44441e-05

8.98564e-05 1.35502e-06 -1.8553e-08
1.35502e-06 4.44567e-05 -1.54002e-07
-1.8553e-08 -1.54002e-07 2.44391e-05

0.000105637 -2.04445e-05 -1.82665e-07
-2.04445e-05 0.000127537 -1.97636e-07
-1.82665e-07 -1.97636e-07 0.000114159

0.000105381 2.04833e-05 -4.22667e-08
2.04833e-05 0.000127407 -1.3345e-07
-4.22667e-08 -1.3345e-07 0.000114224

9.88629e-05 -2.32942e-05 1.21624e-07
-2.32942e-05 0.000126001 -6.69241e-08
1.21624e-07 -6.69241e-08 0.000111929

3.79776e-05 -1.67678e-05 1.26432e-07
-1.67678e-05 7.67913e-05 8.24379e-08
1.26432e-07 8.24379e-08 2.15625e-05

7.33162e-05 -1.60576e-05 -1.88127e-07
-1.60576e-05 4.18287e-05 -1.5465e-07
-1.88127e-07 -1.5465e-07 2.19631e-05

0.000130126 -2.13167e-05 3.22754e-07
-2.13167e-05 0.00014734 2.46833e-07
3.22754e-07 2.46833e-07 0.00013637

0.000130126 2.16686e-05 3.32503e-07
2.16686e-05 0.000146701 -2.57835e-07
3.32503e-07 -2.57835e-07 0.000136378

0.000102385 -1.40898e-05 6.41159e-08
-1.40898e-05 0.000109578 -1.0218e-07
6.41159e-08 -1.0218e-07 0.000106287

9.76455e-05 -1.96758e-05 -1.50095e-07
-1.96758e-05 0.000111177 -4.01022e-08
-1.50095e-07 -4.01022e-08 9.70063e-05

0.000105956 -2.07837e-05 -2.33385e-07
-2.07837e-05 0.000121197 8.89623e-08
-2.33385e-07 8.89623e-08 0.000112459

0.000105583 2.0643e-05 6.95143e-09
2.0643e-05 0.00012124 1.80382e-07
6.95143e-09 1.80382e-07 0.000112519

9.80712e-05 -2.21874e-05 -3.59126e-08
-2.21874e-05 0.000117093 -1.9162e-07
-3.59126e-08 -1.9162e-07 0.000103516

9.77049e-05 1.96538e-05 3.24741e-08
1.96538e-05 0.000110815 -1.48465e-08
3.24741e-08 -1.48465e-08 9.69762e-05

6.18668e-05 -6.42989e-06 1.58886e-08
-6.42989e-06 9.84842e-05 2.90354e-09
1.58886e-08 2.90354e-09 5.34066e-05

6.07878e-05 7.69549e-06 1.07298e-07
7.69549e-06 9.69408e-05 -1.5753e-07
1.07298e-07 -1.5753e-07 5.36369e-05

9.45127e-05 -4.82635e-06 1.11082e-07
-4.82635e-06 6.83739e-05 1.40475e-09
1.11082e-07 1.40475e-09 5.39589e-05

9.8141e-05 2.21015e-05 2.86106e-08
2.21015e-05 0.000116994 -2.04462e-08
2.86106e-08 -2.04462e-08 0.000103417

4.51192e-05 -3.99705e-06 1.96498e-07
-3.99705e-06 9.13364e-05 -5.11516e-08
1.96498e-07 -5.11516e-08 4.3398e-05

8.76148e-05 -3.81801e-06 1.01443e-07
-3.81801e-06 4.68363e-05 -1.8035e-07
1.01443e-07 -1.8035e-07 4.28515e-05

0.000110669 -2.00434e-05 1.44922e-07
-2.00434e-05 0.00012714 -2.67105e-07
1.44922e-07 -2.67105e-07 0.00011882

0.000111092 2.0089e-05 -1.7872e-08
2.0089e-05 0.000127042 -1.28736e-07
-1.7872e-08 -1.28736e-07 0.000118891

0.000112011 -1.74527e-05 2.13532e-07
-1.74527e-05 0.000129188 -3.28672e-08
2.13532e-07 -3.28672e-08 0.00012046

0.000112304 1.76737e-05 -8.65418e-08
1.76737e-05 0.000129221 1.09332e-07
-8.65418e-08 1.09332e-07 0.000120522

3.6284e-05 -1.68861e-05 -1.03589e-07
-1.68861e-05 7.41222e-05 -1.91254e-07
-1.03589e-07 -1.91254e-07 1.8938e-05

7.13263e-05 -1.55981e-05 1.39724e-07
-1.55981e-05 3.78647e-05 1.00611e-07
1.39724e-07 1.00611e-07 1.87784e-05

0.00010494 1.8621e-05 -1.67346e-07
1.8621e-05 0.000118668 5.52968e-08
-1.67346e-07 5.52968e-08 0.000107547

0.000105002 -1.87109e-05 9.29965e-08
-1.87109e-05 0.000118738 -1.42399e-07
9.29965e-08 -1.42399e-07 0.000107486

0.000122068 -3.04639e-06 -1.05586e-08
-3.04639e-06 0.00012903 2.64893e-08
-1.05586e-08 2.64893e-08 0.000123406

0.000122179 -3.82487e-06 -1.4873e-07
-3.82487e-06 0.000129847 -7.93129e-08
-1.4873e-07 -7.93129e-08 0.000123566

0.000108557 -2.02208e-05 -6.71098e-08
-2.02208e-05 0.000133926 9.56047e-08
-6.71098e-08 9.56047e-08 0.000121137

0.00010866 2.03191e-05 -7.18641e-09
2.03191e-05 0.000133885 -1.11794e-07
-7.18641e-09 -1.11794e-07 0.000121165

0.000131435 -7.7695e-06 -8.48748e-08
-7.7695e-06 0.000122147 2.18852e-07
-8.48748e-08 2.18852e-07 0.00012893

0.000130837 7.9141e-06 -3.9639e-08
7.9141e-06 0.000122169 -2.21675e-07
-3.9639e-08 -2.21675e-07 0.000128943

0.000102659 1.68594e-05 -1.91541e-07
1.68594e-05 0.000118801 1.24896e-07
-1.91541e-07 1.24896e-07 0.000110446

0.000102285 -1.65499e-05 -6.13303e-08
-1.65499e-05 0.000119813 1.48589e-07
-6.13303e-08 1.48589e-07 0.000110552

0.000117437 -6.48457e-06 -2.38622e-08
-6.48457e-06 0.000142652 -4.27623e-08
-2.38622e-08 -4.27623e-08 0.000124423

0.000138665 -1.15817e-05 2.60395e-07
-1.15817e-05 0.000133123 -2.51054e-08
2.60395e-07 -2.51054e-08 0.000135282

0.000138323 -1.12811e-05 2.19157e-07
-1.12811e-05 0.000133972 -6.32667e-08
2.19157e-07 -6.32667e-08 0.000135295

0.000139092 1.17408e-05 2.95413e-07
1.17408e-05 0.000133123 -1.1611e-08
2.95413e-07 -1.1611e-08 0.00013528

0.000137978 1.21521e-05 2.30033e-07
1.21521e-05 0.000133316 4.88922e-08
2.30033e-07 4.88922e-08 0.000135302

0.000116573 -4.86413e-06 -1.71463e-08
-4.86413e-06 0.000142263 -7.83408e-09
-1.71463e-08 -7.83408e-09 0.000124021

0.000127935 -1.29394e-05 1.15691e-07
-1.29394e-05 0.000127905 -1.91794e-07
1.15691e-07 -1.91794e-07 0.000123909

0.00012788 1.3523e-05 1.17229e-07
1.3523e-05 0.000128183 2.33136e-07
1.17229e-07 2.33136e-07 0.000124102

0.000132537 -1.87807e-05 5.16344e-07
-1.87807e-05 0.000143262 -7.79927e-07
5.16344e-07 -7.79927e-07 0.000130859

0.000179551 -9.43401e-06 6.19041e-07
-9.43401e-06 0.000128095 3.21343e-07
6.19041e-07 3.21343e-07 0.000134517

0.000166192 1.29598e-05 6.24179e-07
1.29598e-05 0.000128095 -3.33971e-07
6.24179e-07 -3.33971e-07 0.000134528

0.000129594 1.65504e-05 5.2168e-07
1.65504e-05 0.000143262 7.71304e-07
5.2168e-07 7.71304e-07 0.000130873

0.000134994 -1.77227e-05 1.07224e-07
-1.77227e-05 0.00013441 -1.59788e-07
1.07224e-07 -1.59788e-07 0.000129567

0.00012125 -1.41826e-05 -2.31714e-07
-1.41826e-05 0.000135748 6.46554e-08
-2.31714e-07 6.46554e-08 0.000125904

0.000136581 -1.39524e-05 1.58646e-07
-1.39524e-05 0.000135297 7.83344e-08
1.58646e-07 7.83344e-08 0.000133215

0.000134994 1.77227e-05 -1.74529e-07
1.77227e-05 0.00013441 -2.84e-07
-1.74529e-07 -2.84e-07 0.000129621

0.000136581 1.39524e-05 -2.65101e-07
1.39524e-05 0.000135297 1.35415e-07
-2.65101e-07 1.35415e-07 0.000133266

0.00012125 1.41826e-05 6.50202e-08
1.41826e-05 0.000135748 -1.25371e-07
6.50202e-08 -1.25371e-07 0.000125958

0.000121338 -1.46945e-05 -2.38557e-07
-1.46945e-05 0.000135153 1.48496e-07
-2.38557e-07 1.48496e-07 0.000127838

0.000131816 -1.20702e-05 -5.23236e-08
-1.20702e-05 0.000135772 2.06496e-07
-5.23236e-08 2.06496e-07 0.000131505

0.000121338 1.46945e-05 9.09854e-08
1.46945e-05 0.000135153 1.92786e-07
9.09854e-08 1.92786e-07 0.000127892

0.000131816 1.18772e-05 -8.70629e-08
1.18772e-05 0.000135892 2.48237e-07
-8.70629e-08 2.48237e-07 0.000131556

0.000104048 9.5773e-06 -1.47892e-07
9.5773e-06 0.000115984 9.47984e-08
-1.47892e-07 9.47984e-08 0.000108523

9.25781e-05 -2.97493e-06 -6.20218e-08
-2.97493e-06 0.000121285 -1.00575e-07
-6.20218e-08 -1.00575e-07 0.000109105

0.000109991 -2.80092e-06 3.5219e-08
-2.80092e-06 8.14606e-05 -4.84286e-08
3.5219e-08 -4.84286e-08 9.87553e-05

0.000107106 -2.07021e-07 -2.31851e-08
-2.07021e-07 7.95024e-05 -1.69528e-08
-2.31851e-08 -1.69528e-08 9.19189e-05

0.000103987 9.84968e-06 -1.38437e-07
9.84968e-06 0.00011787 -1.5181e-08
-1.38437e-07 -1.5181e-08 0.000115337

9.22635e-05 -4.34153e-06 -4.61944e-08
-4.34153e-06 0.000132053 8.35201e-08
-4.61944e-08 8.35201e-08 0.000115544

0.000107121 5.21293e-06 -2.31367e-08
5.21293e-06 7.96693e-05 1.80575e-08
-2.31367e-08 1.80575e-08 9.24631e-05

0.000118877 7.27998e-06 1.17781e-08
7.27998e-06 9.09547e-05 1.64928e-08
1.17781e-08 1.64928e-08 0.000111705

6.70804e-05 1.34995e-05 6.34219e-08
1.34995e-05 8.611e-05 -5.9307e-08
6.34219e-08 -5.9307e-08 7.32807e-05

6.7833e-05 1.35146e-05 3.01895e-08
1.35146e-05 8.61137e-05 3.89852e-08
3.01895e-08 3.89852e-08 7.19199e-05

8.44267e-05 1.21912e-05 5.83172e-08
1.21912e-05 6.73376e-05 1.70505e-07
5.83172e-08 1.70505e-07 7.09382e-05

0.000111274 5.34714e-06 -7.45973e-08
5.34714e-06 0.00012759 9.6731e-09
-7.45973e-08 9.6731e-09 0.000117453

0.000113992 -1.17558e-05 4.37642e-08
-1.17558e-05 0.000120639 3.7719e-08
4.37642e-08 3.7719e-08 0.000117378

9.81888e-05 -1.50156e-05 -7.36631e-08
-1.50156e-05 0.000102973 8.2577e-08
-7.36631e-08 8.2577e-08 9.95622e-05

9.21741e-05 4.91867e-06 1.21602e-07
4.91867e-06 0.000134128 1.28947e-07
1.21602e-07 1.28947e-07 0.000115026

0.000102995 -5.58906e-06 1.41581e-07
-5.58906e-06 0.000117206 -2.18054e-08
1.41581e-07 -2.18054e-08 0.00011495

0.000115651 4.11115e-06 8.30554e-08
4.11115e-06 8.18824e-05 -8.62274e-08
8.30554e-08 -8.62274e-08 9.93264e-05

7.13429e-05 6.37923e-06 1.05403e-08
6.37923e-06 9.77259e-05 4.25404e-08
1.05403e-08 4.25404e-08 7.9093e-05

7.49929e-05 4.81832e-06 3.50922e-08
4.81832e-06 9.59603e-05 3.14808e-08
3.50922e-08 3.14808e-08 7.84361e-05

9.6042e-05 3.69934e-06 1.73709e-07
3.69934e-06 7.33875e-05 9.96209e-08
1.73709e-07 9.96209e-08 7.69133e-05

8.70282e-05 1.47727e-05 1.31149e-07
1.47727e-05 0.000104421 -1.76974e-07
1.31149e-07 -1.76974e-07 9.09543e-05

8.23911e-05 -8.97877e-06 -6.3729e-08
-8.97877e-06 0.000104574 1.50728e-07
-6.3729e-08 1.50728e-07 9.22187e-05

0.000111303 8.43424e-06 -2.81605e-08
8.43424e-06 8.15858e-05 1.60345e-08
-2.81605e-08 1.60345e-08 9.98314e-05

6.51529e-05 9.89333e-06 3.19452e-08
9.89333e-06 7.93644e-05 -1.18973e-07
3.19452e-08 -1.18973e-07 6.52981e-05

0.000119222 -3.77227e-06 -1.1239e-07
-3.77227e-06 8.5061e-05 -9.49351e-08
-1.1239e-07 -9.49351e-08 0.000109374

0.000118367 2.57136e-06 4.22133e-08
2.57136e-06 0.000121356 -8.5401e-08
4.22133e-08 -8.5401e-08 0.000118118

0.000111032 5.21659e-08 1.02359e-07
5.21659e-08 0.000132633 1.41264e-07
1.02359e-07 1.41264e-07 0.000117893

0.000153186 1.52908e-05 -7.9097e-08
1.52908e-05 0.000126793 -6.14437e-08
-7.9097e-08 -6.14437e-08 0.000124118

0.000153708 -7.14538e-06 4.5731e-09
-7.14538e-06 0.000117089 5.04141e-08
4.5731e-09 5.04141e-08 0.000125345

9.45843e-05 -1.69932e-05 -3.36349e-08
-1.69932e-05 0.000102164 1.15602e-07
-3.36349e-08 1.15602e-07 9.81592e-05

8.43665e-05 -1.43452e-05 -2.01272e-08
-1.43452e-05 0.000101628 1.10464e-07
-2.01272e-08 1.10464e-07 9.01918e-05

9.4282e-05 -5.58272e-07 6.06236e-08
-5.58272e-07 6.91712e-05 -2.42998e-08
6.06236e-08 -2.42998e-08 7.68495e-05

0.000129971 9.41738e-06 6.50796e-08
9.41738e-06 0.0001132 5.4406e-08
6.50796e-08 5.4406e-08 0.000118066

0.000126796 -2.42443e-06 8.30453e-08
-2.42443e-06 0.000111004 5.1428e-08
8.30453e-08 5.1428e-08 0.000118104

0.000119666 -1.18139e-06 6.69685e-08
-1.18139e-06 8.52889e-05 -8.70152e-08
6.69685e-08 -8.70152e-08 0.000112473

8.22808e-05 -1.09187e-05 -1.73599e-08
-1.09187e-05 9.95976e-05 2.12542e-07
-1.73599e-08 2.12542e-07 9.11843e-05

0.000118284 1.91069e-06 1.55445e-08
1.91069e-06 8.15341e-05 8.11493e-08
1.55445e-08 8.11493e-08 0.000110057

9.78306e-05 -1.08373e-05 2.61567e-08
-1.08373e-05 8.58142e-05 -6.42363e-09
2.61567e-08 -6.42363e-09 8.68736e-05

8.58896e-05 1.56043e-05 -4.25933e-08
1.56043e-05 9.68705e-05 -8.40774e-09
-4.25933e-08 -8.40774e-09 9.08007e-05

0.000101009 1.13815e-05 1.13733e-07
1.13815e-05 7.64836e-05 -2.35541e-08
1.13733e-07 -2.35541e-08 8.56988e-05

9.89069e-05 -6.99284e-06 2.68678e-08
-6.99284e-06 7.59358e-05 -5.52206e-10
2.68678e-08 -5.52206e-10 8.47789e-05

8.42193e-05 1.32712e-05 -2.66188e-08
1.32712e-05 0.000103869 -2.56813e-08
-2.66188e-08 -2.56813e-08 9.166e-05

8.73049e-05 -9.93306e-06 -4.25827e-08
-9.93306e-06 0.00011816 4.16151e-09
-4.25827e-08 4.16151e-09 0.000108884

9.4506e-05 1.76246e-05 6.90981e-08
1.76246e-05 0.000116716 2.48495e-08
6.90981e-08 2.48495e-08 0.000107691

8.70825e-05 -1.20972e-05 -1.25654e-07
-1.20972e-05 0.000103398 3.87079e-09
-1.25654e-07 3.87079e-09 9.12039e-05

8.50734e-05 1.66095e-05 -1.40992e-07
1.66095e-05 0.000102805 1.4337e-07
-1.40992e-07 1.4337e-07 9.01769e-05

5.20106e-05 -1.37743e-05 3.16738e-08
-1.37743e-05 5.39808e-05 1.02434e-07
3.16738e-08 1.02434e-07 5.37169e-05

5.10472e-05 1.57748e-05 1.10053e-07
1.57748e-05 5.64217e-05 -4.41676e-08
1.10053e-07 -4.41676e-08 5.29185e-05

9.35902e-05 1.38933e-05 -1.4744e-07
1.38933e-05 0.000123654 3.72498e-08
-1.4744e-07 3.72498e-08 0.000114937

0.00010088 -1.59788e-05 3.98799e-08
-1.59788e-05 0.000119322 3.62472e-08
3.98799e-08 3.62472e-08 0.000114367

8.70411e-05 1.5024e-05 1.3408e-07
1.5024e-05 0.00010907 -1.05976e-07
1.3408e-07 -1.05976e-07 9.78967e-05

5.17364e-05 5.102e-06 1.08276e-07
5.102e-06 5.16819e-05 1.12842e-08
1.08276e-07 1.12842e-08 5.5946e-05

4.97659e-05 2.6771e-09 1.65823e-08
2.6771e-09 5.53157e-05 1.01706e-07
1.65823e-08 1.01706e-07 5.65917e-05

0.00011492 -1.14697e-05 -1.62165e-07
-1.14697e-05 0.000119354 -1.30972e-08
-1.62165e-07 -1.30972e-08 0.00011968

0.000115873 5.5071e-06 6.01662e-08
5.5071e-06 0.000122904 -2.25961e-07
6.01662e-08 -2.25961e-07 0.000119281

0.000123284 -4.15072e-07 -1.45491e-07
-4.15072e-07 8.41882e-05 -1.58007e-09
-1.45491e-07 -1.58007e-09 0.000104222

0.000115106 -1.06683e-05 -1.47653e-07
-1.06683e-05 0.000121431 8.90286e-08
-1.47653e-07 8.90286e-08 0.000119531

0.000116497 3.69497e-06 2.30586e-10
3.69497e-06 0.000117531 1.95838e-07
2.30586e-10 1.95838e-07 0.000119269

8.24229e-05 -9.40102e-06 -4.04142e-08
-9.40102e-06 0.000110165 -1.41398e-07
-4.04142e-08 -1.41398e-07 9.91357e-05

0.000140817 1.4073e-05 -2.1962e-07
1.4073e-05 0.000124694 1.563e-09
-2.1962e-07 1.563e-09 0.000122768

0.000144774 -1.17842e-05 -9.74032e-08
-1.17842e-05 0.000113878 8.03343e-08
-9.74032e-08 8.03343e-08 0.000123942

0.000108697 -1.12726e-05 1.26771e-07
-1.12726e-05 0.000108529 4.38473e-08
1.26771e-07 4.38473e-08 0.000112295

0.000108928 8.75473e-06 1.08581e-07
8.75473e-06 0.000109941 -4.81087e-08
1.08581e-07 -4.81087e-08 0.000111816

0.000115991 8.12624e-07 -6.34698e-08
8.12624e-07 0.000147751 9.50939e-09
-6.34698e-08 9.50939e-09 0.000122566

0.000118486 6.95281e-06 -4.15847e-08
6.95281e-06 0.000133603 -4.19297e-08
-4.15847e-08 -4.19297e-08 0.000123031

6.07848e-05 4.70548e-06 4.13199e-08
4.70548e-06 7.56948e-05 5.61198e-08
4.13199e-08 5.61198e-08 6.37872e-05

7.47881e-05 4.52993e-06 -9.67578e-08
4.52993e-06 6.15074e-05 7.26857e-08
-9.67578e-08 7.26857e-08 6.38138e-05

9.25629e-05 1.4143e-05 -2.32191e-08
1.4143e-05 0.000115339 5.45215e-09
-2.32191e-08 5.45215e-09 0.000105374

8.48506e-05 -8.32404e-06 5.51976e-08
-8.32404e-06 0.000117587 -1.66217e-08
5.51976e-08 -1.66217e-08 0.000106246

0.000136798 -2.25487e-05 -1.40841e-07
-2.25487e-05 0.000160426 -1.00863e-07
-1.40841e-07 -1.00863e-07 0.000127435

0.000146135 1.11175e-05 -8.42967e-07
1.11175e-05 0.000125494 -3.1896e-07
-8.42967e-07 -3.1896e-07 0.000127592

9.6299e-05 1.51167e-05 9.6253e-08
1.51167e-05 8.74107e-05 -3.97446e-09
9.6253e-08 -3.97446e-09 8.88631e-05

0.000113043 5.59408e-06 1.2323e-07
5.59408e-06 9.32608e-05 4.89209e-08
1.2323e-07 4.89209e-08 0.000106075

0.000112265 -7.63275e-06 1.00531e-07
-7.63275e-06 9.26644e-05 3.40619e-08
1.00531e-07 3.40619e-08 0.000106223

0.000124879 -8.34467e-06 8.57619e-08
-8.34467e-06 9.60726e-05 6.34091e-08
8.57619e-08 6.34091e-08 0.000116268

9.37962e-05 3.15325e-06 6.27709e-08
3.15325e-06 6.879e-05 -5.69976e-08
6.27709e-08 -5.69976e-08 7.72252e-05

0.00016225 1.88798e-06 -2.37702e-07
1.88798e-06 0.000123633 -6.19851e-08
-2.37702e-07 -6.19851e-08 0.000126342

0.000154191 -1.99742e-06 -2.31959e-07
-1.99742e-06 0.000143814 1.49142e-08
-2.31959e-07 1.49142e-08 0.000125031

9.95113e-05 1.82246e-05 -3.00621e-09
1.82246e-05 9.04156e-05 -1.02469e-07
-3.00621e-09 -1.02469e-07 9.63934e-05

0.000115504 5.09584e-06 7.73652e-08
5.09584e-06 9.06425e-05 9.9981e-09
7.73652e-08 9.9981e-09 0.00010028

7.99227e-05 1.47663e-05 -1.53307e-07
1.47663e-05 8.58988e-05 -4.56251e-08
-1.53307e-07 -4.56251e-08 7.70759e-05

0.000125892 -6.72492e-06 8.06566e-08
-6.72492e-06 0.000150832 -2.55494e-08
8.06566e-08 -2.55494e-08 0.000124034

0.000123329 4.8345e-06 5.28028e-08
4.8345e-06 0.000132286 -1.897e-08
5.28028e-08 -1.897e-08 0.00012489

0.000128012 1.49024e-05 8.00909e-08
1.49024e-05 0.000103394 -1.29229e-08
8.00909e-08 -1.29229e-08 0.000116513

0.000103096 -4.7893e-06 1.38333e-07
-4.7893e-06 0.000115447 -7.65331e-08
1.38333e-07 -7.65331e-08 0.000108333

9.24108e-05 3.22602e-06 1.35156e-07
3.22602e-06 0.000122838 -1.02781e-07
1.35156e-07 -1.02781e-07 0.000108738

0.000124003 -2.19124e-06 -5.3595e-08
-2.19124e-06 8.68869e-05 -1.15209e-07
-5.3595e-08 -1.15209e-07 0.00010903

0.000125695 1.45486e-06 3.19769e-08
1.45486e-06 8.56142e-05 1.18306e-07
3.19769e-08 1.18306e-07 0.000109114

8.60842e-05 -9.88279e-06 -3.09447e-08
-9.88279e-06 8.00254e-05 5.02872e-08
-3.09447e-08 5.02872e-08 7.60545e-05

0.000111476 7.5289e-07 5.44082e-08
7.5289e-07 7.95632e-05 -1.00606e-07
5.44082e-08 -1.00606e-07 9.21074e-05

0.000124404 2.03997e-06 -1.3186e-07
2.03997e-06 9.77547e-05 -1.30777e-07
-1.3186e-07 -1.30777e-07 0.000114293

0.00012125 -4.46135e-06 -2.97616e-08
-4.46135e-06 0.000100232 1.79254e-08
-2.97616e-08 1.79254e-08 0.000114445

0.000114367 -5.59815e-06 8.23727e-08
-5.59815e-06 8.79617e-05 4.88359e-08
8.23727e-08 4.88359e-08 0.000100489

0.000123584 -2.62904e-06 -2.84633e-08
-2.62904e-06 9.38137e-05 1.65628e-08
-2.84633e-08 1.65628e-08 0.000110012

0.000125585 8.67781e-07 4.48311e-08
8.67781e-07 9.39698e-05 5.55437e-08
4.48311e-08 5.55437e-08 0.000110014

0.000113216 1.23333e-05 -7.39564e-08
1.23333e-05 8.94703e-05 -6.91554e-08
-7.39564e-08 -6.91554e-08 0.000102462

8.67377e-05 -1.59801e-05 1.76096e-07
-1.59801e-05 8.44772e-05 1.7018e-08
1.76096e-07 1.7018e-08 8.18786e-05

9.71206e-05 2.05621e-05 2.51527e-09
2.05621e-05 0.000116825 6.88129e-08
2.51527e-09 6.88129e-08 0.000109617

9.42291e-05 -1.77139e-05 7.81533e-08
-1.77139e-05 0.000110233 -1.21534e-07
7.81533e-08 -1.21534e-07 0.000111001

9.25986e-05 -1.31496e-05 -6.0367e-08
-1.31496e-05 0.000111488 3.76697e-08
-6.0367e-08 3.76697e-08 0.000112316

9.79018e-05 2.18769e-05 3.30028e-08
2.18769e-05 0.000120697 -4.30601e-08
3.30028e-08 -4.30601e-08 0.000110869

0.00010308 7.18823e-06 -9.14666e-08
7.18823e-06 7.51103e-05 -2.36677e-08
-9.14666e-08 -2.36677e-08 8.55949e-05

7.78687e-05 -9.22078e-06 -1.07058e-08
-9.22078e-06 6.718e-05 7.64215e-09
-1.07058e-08 7.64215e-09 6.72328e-05

0.000112868 1.72864e-05 2.30624e-08
1.72864e-05 9.51889e-05 -1.69837e-08
2.30624e-08 -1.69837e-08 0.0001074

0.000110948 -5.4341e-06 3.34938e-08
-5.4341e-06 8.85508e-05 -4.30021e-08
3.34938e-08 -4.30021e-08 0.000100632

7.99582e-05 -7.091e-06 -3.64562e-08
-7.091e-06 6.69536e-05 -4.61869e-08
-3.64562e-08 -4.61869e-08 6.78454e-05

9.80784e-05 -1.36586e-05 -7.30823e-08
-1.36586e-05 9.01201e-05 7.20319e-08
-7.30823e-08 7.20319e-08 9.5245e-05

8.12218e-05 -6.16464e-07 3.91705e-08
-6.16464e-07 0.000121866 -1.5266e-07
3.91705e-08 -1.5266e-07 0.000105166

9.09776e-05 2.00758e-06 -1.69745e-07
2.00758e-06 0.000111656 8.35634e-08
-1.69745e-07 8.35634e-08 0.000104687

8.65365e-05 1.82072e-05 -3.54534e-08
1.82072e-05 8.67276e-05 6.06228e-08
-3.54534e-08 6.06228e-08 8.47408e-05

8.61614e-05 -1.06637e-05 -3.26197e-08
-1.06637e-05 6.80436e-05 9.40997e-08
-3.26197e-08 9.40997e-08 7.30101e-05

0.00010158 1.93955e-05 -4.11195e-08
1.93955e-05 0.000107533 3.52249e-08
-4.11195e-08 3.52249e-08 0.000110994

9.96204e-05 -1.81092e-05 1.04276e-07
-1.81092e-05 0.000112447 -4.64894e-08
1.04276e-07 -4.64894e-08 0.000109555

8.29826e-05 -1.3498e-05 2.89039e-08
-1.3498e-05 9.4113e-05 -1.71136e-07
2.89039e-08 -1.71136e-07 8.47248e-05

8.49213e-05 -1.55423e-05 3.23394e-08
-1.55423e-05 9.2203e-05 -2.4683e-07
3.23394e-08 -2.4683e-07 8.36672e-05

0.000111624 1.44114e-05 -6.41824e-08
1.44114e-05 9.09334e-05 -9.77335e-08
-6.41824e-08 -9.77335e-08 0.000101362

0.000128277 8.99798e-06 -9.66998e-08
8.99798e-06 8.52481e-05 -9.01484e-08
-9.66998e-08 -9.01484e-08 0.000116033

0.000129156 -5.50773e-06 -2.45718e-08
-5.50773e-06 8.14306e-05 2.64737e-08
-2.45718e-08 2.64737e-08 0.000116135

7.87115e-05 1.08987e-05 -6.48399e-08
1.08987e-05 0.000103174 -2.17515e-07
-6.48399e-08 -2.17515e-07 8.66094e-05

9.98778e-05 1.66744e-05 -2.25006e-08
1.66744e-05 9.6736e-05 -4.37178e-09
-2.25006e-08 -4.37178e-09 9.76958e-05

6.17251e-05 1.76137e-06 -4.50476e-08
1.76137e-06 9.5674e-05 2.3138e-08
-4.50476e-08 2.3138e-08 7.57573e-05

6.54513e-05 5.5923e-07 7.2748e-08
5.5923e-07 9.43406e-05 4.18222e-08
7.2748e-08 4.18222e-08 7.5118e-05

9.51028e-05 5.38383e-07 6.19238e-08
5.38383e-07 6.29469e-05 -2.25283e-07
6.19238e-08 -2.25283e-07 7.41156e-05

9.04569e-05 -1.27513e-05 -3.80096e-08
-1.27513e-05 8.15396e-05 5.69702e-08
-3.80096e-08 5.69702e-08 8.44534e-05

0.000124492 -9.1055e-06 -9.66885e-08
-9.1055e-06 0.00014101 2.84356e-08
-9.66885e-08 2.84356e-08 0.000126755

0.000156593 5.58895e-06 -5.00082e-07
5.58895e-06 0.000155555 -2.09709e-07
-5.00082e-07 -2.09709e-07 0.000125644

9.66327e-05 1.5221e-05 9.7738e-08
1.5221e-05 7.6683e-05 4.92456e-09
9.7738e-08 4.92456e-09 8.44371e-05

0.000103756 -6.33213e-06 1.88311e-08
-6.33213e-06 7.48945e-05 2.76709e-08
1.88311e-08 2.76709e-08 8.66807e-05

8.05636e-05 1.11575e-05 -7.80874e-08
1.11575e-05 6.44235e-05 5.18814e-08
-7.80874e-08 5.18814e-08 6.88535e-05

8.71973e-05 -1.13235e-05 -7.7344e-08
-1.13235e-05 0.000110117 -1.11198e-07
-7.7344e-08 -1.11198e-07 0.000104331

9.31273e-05 2.03385e-05 1.14176e-07
2.03385e-05 0.000113695 -1.22366e-07
1.14176e-07 -1.22366e-07 0.000103083

0.000123277 -3.23254e-07 -1.43868e-07
-3.23254e-07 8.45077e-05 -4.799e-08
-1.43868e-07 -4.799e-08 0.000104133

7.34248e-05 1.00308e-05 -1.49754e-08
1.00308e-05 0.000102914 -2.17238e-08
-1.49754e-08 -2.17238e-08 8.73236e-05

8.9515e-05 -1.34544e-05 -4.18386e-08
-1.34544e-05 0.000124662 7.78429e-08
-4.18386e-08 7.78429e-08 0.000115507

0.000100242 1.90256e-05 -5.82878e-09
1.90256e-05 0.00012206 4.11337e-08
-5.82878e-09 4.11337e-08 0.000114521

7.91233e-05 1.18222e-05 -1.34184e-07
1.18222e-05 8.59939e-05 3.37277e-08
-1.34184e-07 3.37277e-08 7.58096e-05

8.40619e-05 1.2569e-05 9.1923e-09
1.2569e-05 8.12719e-05 -8.64547e-08
9.1923e-09 -8.64547e-08 7.48816e-05

8.14451e-05 9.724e-06 -5.67306e-08
9.724e-06 6.54894e-05 -8.44044e-09
-5.67306e-08 -8.44044e-09 6.92261e-05

9.68262e-05 2.09041e-05 -3.03154e-08
2.09041e-05 0.000123103 -4.93697e-08
-3.03154e-08 -4.93697e-08 0.000111325

9.30004e-05 -1.5171e-05 3.14398e-08
-1.5171e-05 0.000107812 4.61926e-08
3.14398e-08 4.61926e-08 0.000112929

0.000130967 5.14923e-07 2.99505e-08
5.14923e-07 8.52477e-05 1.40765e-10
2.99505e-08 1.40765e-10 0.000111481

9.85575e-05 1.50411e-05 -5.36375e-08
1.50411e-05 0.000108583 -2.28991e-09
-5.36375e-08 -2.28991e-09 0.000112779

9.83995e-05 -1.78184e-05 1.03425e-07
-1.78184e-05 0.000119468 -4.4235e-08
1.03425e-07 -4.4235e-08 0.000111597

9.85843e-05 1.70082e-05 1.06303e-08
1.70082e-05 0.000101089 4.84524e-08
1.06303e-08 4.84524e-08 0.000103366

7.15166e-05 -3.87004e-06 1.23858e-07
-3.87004e-06 9.88986e-05 -6.75886e-08
1.23858e-07 -6.75886e-08 8.04026e-05

7.63148e-05 -4.70142e-06 7.51247e-08
-4.70142e-06 9.68092e-05 4.04691e-08
7.51247e-08 4.04691e-08 7.97893e-05

9.62095e-05 -3.15114e-06 -7.33775e-08
-3.15114e-06 7.35893e-05 6.01987e-08
-7.33775e-08 6.01987e-08 7.87532e-05

9.01979e-05 -1.07115e-05 -2.15987e-08
-1.07115e-05 9.01959e-05 -2.32652e-07
-2.15987e-08 -2.32652e-07 8.75426e-05

9.10037e-05 1.81259e-06 -1.63982e-07
1.81259e-06 0.000108913 -3.23152e-08
-1.63982e-07 -3.23152e-08 9.56879e-05

8.13035e-05 1.27263e-08 4.77347e-08
1.27263e-08 0.000114186 1.93422e-08
4.77347e-08 1.93422e-08 9.62631e-05

7.22907e-05 -1.14808e-05 -1.24031e-07
-1.14808e-05 8.56036e-05 1.4551e-07
-1.24031e-07 1.4551e-07 7.25624e-05

7.23911e-05 -1.14398e-05 5.19801e-09
-1.14398e-05 8.23059e-05 6.97085e-08
5.19801e-09 6.97085e-08 7.28783e-05

0.000131939 -5.04183e-07 -5.82431e-08
-5.04183e-07 8.61044e-05 1.33874e-07
-5.82431e-08 1.33874e-07 0.000111689

0.000130119 5.27112e-07 -3.85307e-08
5.27112e-07 8.75962e-05 -1.12817e-07
-3.85307e-08 -1.12817e-07 0.000111617

9.28963e-05 -1.43703e-05 7.27812e-09
-1.43703e-05 0.00010636 -7.41797e-08
7.27812e-09 -7.41797e-08 0.000105826

9.41353e-05 1.83542e-05 -1.28314e-07
1.83542e-05 0.000115207 -1.87136e-08
-1.28314e-07 -1.87136e-08 0.000104553

8.92678e-05 1.21601e-05 1.65203e-07
1.21601e-05 0.000122967 1.48938e-07
1.65203e-07 1.48938e-07 0.000115182

0.000100218 -1.76441e-05 -1.48676e-07
-1.76441e-05 0.000120561 1.01877e-07
-1.48676e-07 1.01877e-07 0.000114343

0.000104658 -1.39088e-05 2.10209e-08
-1.39088e-05 0.000102056 5.96146e-08
2.10209e-08 5.96146e-08 0.000106605

7.36644e-05 -7.67354e-06 3.86907e-08
-7.67354e-06 0.00010447 1.45918e-07
3.86907e-08 1.45918e-07 8.77025e-05

0.000117604 2.11053e-06 -1.5766e-07
2.11053e-06 0.000110266 -4.15004e-08
-1.5766e-07 -4.15004e-08 0.000115539

0.000115468 -6.73379e-06 -1.12885e-07
-6.73379e-06 0.00010879 3.67839e-08
-1.12885e-07 3.67839e-08 0.000115856

0.000102469 -1.0468e-05 5.11471e-08
-1.0468e-05 9.36535e-05 1.65247e-08
5.11471e-08 1.65247e-08 9.80473e-05

0.000111957 -9.04669e-06 1.03495e-07
-9.04669e-06 0.000100448 6.78979e-08
1.03495e-07 6.78979e-08 0.000107415

0.000112639 7.52922e-06 1.29638e-07
7.52922e-06 0.000103419 -2.62948e-08
1.29638e-07 -2.62948e-08 0.00010694

5.0832e-05 -3.99531e-06 4.12236e-08
-3.99531e-06 3.56015e-05 9.28848e-08
4.12236e-08 9.28848e-08 5.65281e-05

8.54233e-05 1.85545e-05 -1.50597e-07
1.85545e-05 9.31846e-05 1.6575e-08
-1.50597e-07 1.6575e-08 8.40601e-05

3.99161e-05 8.42662e-06 1.12822e-07
8.42662e-06 5.20869e-05 -4.17438e-08
1.12822e-07 -4.17438e-08 5.61968e-05

7.92599e-05 -9.67493e-06 1.01282e-07
-9.67493e-06 0.000102884 -2.69357e-08
1.01282e-07 -2.69357e-08 8.70143e-05

0.00012255 -8.87529e-06 1.90156e-07
-8.87529e-06 0.000133418 -8.58545e-08
1.90156e-07 -8.58545e-08 0.000124268

0.000129015 3.57048e-06 -2.26236e-08
3.57048e-06 0.000125085 -4.43662e-08
-2.26236e-08 -4.43662e-08 0.000124218

0.000103002 1.19145e-05 -2.4161e-08
1.19145e-05 9.77249e-05 7.7934e-08
-2.4161e-08 7.7934e-08 9.73988e-05

0.000111484 -2.78081e-07 5.38031e-08
-2.78081e-07 7.93282e-05 4.80748e-08
5.38031e-08 4.80748e-08 9.22511e-05

9.23947e-05 1.48659e-05 2.82093e-09
1.48659e-05 8.08693e-05 -9.04579e-08
2.82093e-09 -9.04579e-08 8.32723e-05

8.49869e-05 7.17569e-06 -1.46035e-07
7.17569e-06 0.000120743 3.84581e-08
-1.46035e-07 3.84581e-08 0.000106179

9.31426e-05 -9.92937e-06 9.75415e-09
-9.92937e-06 0.000112795 -1.41056e-07
9.75415e-09 -1.41056e-07 0.000105545

0.000113263 1.65134e-05 -7.14712e-08
1.65134e-05 0.000122333 4.54263e-08
-7.14712e-08 4.54263e-08 0.000117688

0.000111716 -9.30847e-06 -4.00508e-08
-9.30847e-06 0.00012511 7.796e-08
-4.00508e-08 7.796e-08 0.000117902

9.60975e-05 2.22106e-05 -3.06406e-08
2.22106e-05 0.000120772 -4.88271e-08
-3.06406e-08 -4.88271e-08 0.000110944

8.41082e-05 -2.10509e-05 2.18708e-08
-2.10509e-05 0.000112993 3.02018e-08
2.18708e-08 3.02018e-08 0.000112713

8.38603e-05 1.17684e-05 -3.31535e-08
1.17684e-05 0.000108614 -8.92533e-08
-3.31535e-08 -8.92533e-08 9.90914e-05

8.17147e-05 6.04176e-06 -1.23921e-07
6.04176e-06 0.000107058 -5.40273e-08
-1.23921e-07 -5.40273e-08 9.3082e-05

0.000100946 -1.31837e-05 7.72301e-09
-1.31837e-05 9.94804e-05 5.40283e-08
7.72301e-09 5.40283e-08 0.000103714

0.000101268 1.3589e-05 -1.05501e-07
1.3589e-05 0.000101901 7.80873e-09
-1.05501e-07 7.80873e-09 0.000103067

9.22559e-05 1.42992e-05 -1.10401e-09
1.42992e-05 9.42626e-05 -1.48237e-07
-1.10401e-09 -1.48237e-07 8.70264e-05

8.71873e-05 -1.33252e-05 -1.27874e-07
-1.33252e-05 0.000108478 5.07881e-08
-1.27874e-07 5.07881e-08 9.8405e-05

7.65094e-05 -2.47745e-06 -2.78973e-08
-2.47745e-06 0.000112904 -1.62721e-08
-2.78973e-08 -1.62721e-08 9.40084e-05

5.96984e-05 1.01727e-05 2.94059e-08
1.01727e-05 6.70636e-05 1.65745e-07
2.94059e-08 1.65745e-07 5.90732e-05

6.61748e-05 1.04196e-05 1.48984e-07
1.04196e-05 6.04786e-05 4.96412e-08
1.48984e-07 4.96412e-08 5.91537e-05

7.79949e-05 -1.19609e-05 -6.60118e-08
-1.19609e-05 8.30268e-05 1.79927e-07
-6.60118e-08 1.79927e-07 7.41935e-05

0.000114476 -4.28339e-06 8.17547e-08
-4.28339e-06 8.27995e-05 3.28749e-08
8.17547e-08 3.28749e-08 9.93813e-05

0.000135981 -1.80165e-05 -2.01467e-07
-1.80165e-05 0.000143346 4.50488e-08
-2.01467e-07 4.50488e-08 0.000127043

0.000149711 1.59175e-05 -6.46212e-07
1.59175e-05 0.000127886 1.5458e-07
-6.46212e-07 1.5458e-07 0.000127109

0.000128716 1.44039e-05 -1.80404e-08
1.44039e-05 0.000127495 -4.86523e-08
-1.80404e-08 -4.86523e-08 0.000121722

0.00012538 -3.88915e-06 1.00849e-07
-3.88915e-06 0.000117064 2.86706e-08
1.00849e-07 2.86706e-08 0.000122615

0.000113751 9.47423e-08 -9.27218e-08
9.47423e-08 8.34969e-05 -1.17925e-07
-9.27218e-08 -1.17925e-07 0.000104167

9.67209e-05 -1.9639e-05 1.0172e-07
-1.9639e-05 0.000118081 -4.70924e-08
1.0172e-07 -4.70924e-08 0.000111041

8.80165e-05 2.11172e-05 -7.35241e-08
2.11172e-05 0.000113462 2.69064e-08
-7.35241e-08 2.69064e-08 0.000112335

6.38711e-05 -9.3352e-06 9.15853e-08
-9.3352e-06 6.75766e-05 2.57172e-08
9.15853e-08 2.57172e-08 6.16329e-05

6.5023e-05 1.26001e-05 -2.68295e-08
1.26001e-05 6.45631e-05 5.39231e-08
-2.68295e-08 5.39231e-08 6.23559e-05

5.99112e-05 -4.6178e-06 9.548e-08
-4.6178e-06 7.98989e-05 -9.03036e-09
9.548e-08 -9.03036e-09 6.60563e-05

6.44373e-05 -5.41359e-06 8.38376e-08
-5.41359e-06 8.13798e-05 -6.55827e-08
8.38376e-08 -6.55827e-08 6.65187e-05

8.08752e-05 -3.96662e-06 1.59795e-07
-3.96662e-06 6.00834e-05 -8.90707e-08
1.59795e-07 -8.90707e-08 6.56442e-05

8.04475e-05 1.47378e-05 -1.46098e-07
1.47378e-05 7.80611e-05 -7.38758e-08
-1.46098e-07 -7.38758e-08 7.55908e-05

5.23117e-05 4.34373e-06 1.23712e-08
4.34373e-06 7.71651e-05 -1.24995e-07
1.23712e-08 -1.24995e-07 6.23451e-05

7.51531e-05 9.20636e-07 -5.7211e-08
9.20636e-07 5.36713e-05 -8.9777e-09
-5.7211e-08 -8.9777e-09 6.23336e-05

0.000116055 -2.3586e-06 2.64144e-08
-2.3586e-06 0.000139106 -1.9707e-07
2.64144e-08 -1.9707e-07 0.000121166

0.000117922 -6.33988e-06 9.22628e-08
-6.33988e-06 0.000126345 1.36982e-07
9.22628e-08 1.36982e-07 0.000121545

0.000117599 -5.3068e-06 -4.78007e-08
-5.3068e-06 9.68892e-05 1.9061e-07
-4.78007e-08 1.9061e-07 0.000109763

0.000123263 2.10251e-06 9.26421e-08
2.10251e-06 7.37961e-05 -1.20379e-08
9.26421e-08 -1.20379e-08 0.000112625

7.18281e-05 -9.8295e-06 -8.8489e-08
-9.8295e-06 9.09653e-05 -1.56704e-07
-8.8489e-08 -1.56704e-07 7.74543e-05

7.11798e-05 -6.84065e-06 3.39256e-08
-6.84065e-06 9.22279e-05 -1.75966e-07
3.39256e-08 -1.75966e-07 7.84594e-05

0.000115488 4.60336e-06 -6.08304e-08
4.60336e-06 8.5031e-05 4.19831e-08
-6.08304e-08 4.19831e-08 0.000104699

0.000121009 -4.49621e-06 -4.05713e-09
-4.49621e-06 0.000125238 1.43017e-07
-4.05713e-09 1.43017e-07 0.000121871

0.000126634 -3.5438e-07 1.37565e-07
-3.5438e-07 0.000119142 1.44409e-07
1.37565e-07 1.44409e-07 0.000121748

0.000109971 -9.73248e-06 -4.24983e-08
-9.73248e-06 0.000105272 1.68277e-08
-4.24983e-08 1.68277e-08 0.000108396

9.89886e-05 1.58086e-05 6.80939e-09
1.58086e-05 0.000104162 6.39785e-08
6.80939e-09 6.39785e-08 0.000105636

9.45779e-05 -1.70475e-05 -3.06192e-08
-1.70475e-05 0.000112565 1.70224e-08
-3.06192e-08 1.70224e-08 0.000104186

0.000117539 -4.42842e-06 -3.78397e-08
-4.42842e-06 8.58555e-05 -6.98911e-09
-3.78397e-08 -6.98911e-09 0.000107539

9.01441e-05 1.36099e-05 1.10209e-07
1.36099e-05 0.000107845 1.81796e-08
1.10209e-07 1.81796e-08 0.000104456

9.4651e-05 -1.7963e-05 -4.74021e-08
-1.7963e-05 0.000111328 5.97437e-09
-4.74021e-08 5.97437e-09 0.00010342

4.89873e-05 -2.00504e-05 -2.13284e-07
-2.00504e-05 5.06151e-05 -2.5142e-07
-2.13284e-07 -2.5142e-07 5.19046e-05

7.6463e-05 4.44489e-06 -4.57891e-08
4.44489e-06 0.000111283 5.93001e-08
-4.57891e-08 5.93001e-08 9.35425e-05

8.37738e-05 -4.16202e-06 1.49872e-07
-4.16202e-06 0.000105601 7.82403e-08
1.49872e-07 7.82403e-08 9.31223e-05

0.000111654 3.26061e-06 7.51307e-08
3.26061e-06 0.000148874 -1.83849e-08
7.51307e-08 -1.83849e-08 0.00012172

0.00011928 -4.49002e-07 3.48528e-08
-4.49002e-07 0.000125392 -4.22432e-08
3.48528e-08 -4.22432e-08 0.000122328

0.000129331 -9.81392e-07 -1.60095e-07
-9.81392e-07 9.28822e-05 4.59867e-08
-1.60095e-07 4.59867e-08 0.00011527

0.000132468 1.70881e-06 -1.01981e-07
1.70881e-06 9.09735e-05 7.6863e-08
-1.01981e-07 7.6863e-08 0.000115313

0.000117345 2.00711e-05 -1.11004e-07
2.00711e-05 0.000108149 1.04633e-07
-1.11004e-07 1.04633e-07 0.000114658

0.000113037 -1.12928e-05 -2.34375e-08
-1.12928e-05 0.000106059 8.00537e-09
-2.34375e-08 8.00537e-09 0.000114207

0.000132962 6.08191e-06 -2.35573e-08
6.08191e-06 0.000121473 -2.51901e-08
-2.35573e-08 -2.51901e-08 0.000120705

0.000125166 -3.57011e-06 9.9344e-08
-3.57011e-06 0.000123735 2.22102e-08
9.9344e-08 2.22102e-08 0.000121351

0.000135759 8.29579e-06 4.79068e-07
8.29579e-06 0.000128826 8.87535e-08
4.79068e-07 8.87535e-08 0.000126189

0.000133351 -2.1735e-05 -9.95194e-08
-2.1735e-05 0.00014292 5.10124e-08
-9.95194e-08 5.10124e-08 0.000126176

0.000101598 2.02617e-05 -3.68488e-08
2.02617e-05 0.000122596 -5.0794e-08
-3.68488e-08 -5.0794e-08 0.000114986

9.59155e-05 -2.46115e-05 -2.00532e-08
-2.46115e-05 0.000111791 5.74197e-08
-2.00532e-08 5.74197e-08 0.00011634

0.000103877 1.08454e-05 -1.23254e-08
1.08454e-05 8.91537e-05 2.37389e-08
-1.23254e-08 2.37389e-08 9.54762e-05

8.47266e-05 8.69935e-06 -1.36853e-07
8.69935e-06 0.000112098 -2.47344e-08
-1.36853e-07 -2.47344e-08 9.98856e-05

9.36601e-05 -1.37007e-05 -2.47526e-07
-1.37007e-05 9.27767e-05 -3.70953e-08
-2.47526e-07 -3.70953e-08 9.44587e-05

9.29887e-05 -1.06945e-05 5.66637e-08
-1.06945e-05 0.000109434 1.71758e-07
5.66637e-08 1.71758e-07 9.93331e-05

0.000103074 -9.69085e-06 5.69827e-08
-9.69085e-06 8.69543e-05 4.48459e-08
5.69827e-08 4.48459e-08 9.60144e-05

9.24967e-05 1.21067e-05 -2.32062e-08
1.21067e-05 0.000110456 6.22031e-09
-2.32062e-08 6.22031e-09 9.89327e-05

9.50435e-05 1.66377e-05 2.17258e-07
1.66377e-05 9.62239e-05 3.23078e-08
2.17258e-07 3.23078e-08 9.36872e-05

0.000102618 2.18702e-05 2.73747e-08
2.18702e-05 0.000112594 2.40458e-08
2.73747e-08 2.40458e-08 0.000115877

0.000104018 -1.66959e-05 -1.1908e-07
-1.66959e-05 0.000118509 1.3426e-08
-1.1908e-07 1.3426e-08 0.000115245

0.000121287 9.71796e-06 6.10083e-08
9.71796e-06 9.95809e-05 -3.0786e-08
6.10083e-08 -3.0786e-08 0.000111143

0.000156082 7.76479e-06 5.29492e-07
7.76479e-06 0.00015207 3.7375e-07
5.29492e-07 3.7375e-07 0.000125417

0.000127824 7.48939e-06 -2.85613e-07
7.48939e-06 0.000131628 1.28577e-07
-2.85613e-07 1.28577e-07 0.00012664

0.000109969 -1.01307e-05 -2.95597e-08
-1.01307e-05 9.44369e-05 1.97037e-07
-2.95597e-08 1.97037e-07 0.000105788

0.000130825 8.95398e-07 -2.76301e-08
8.95398e-07 0.000102368 1.92513e-08
-2.76301e-08 1.92513e-08 0.000119234

6.09002e-05 -8.66272e-06 1.0143e-07
-8.66272e-06 6.76388e-05 -6.54853e-08
1.0143e-07 -6.54853e-08 6.02403e-05

6.74618e-05 -7.54888e-06 8.05478e-08
-7.54888e-06 5.98303e-05 -9.20852e-08
8.05478e-08 -9.20852e-08 6.03919e-05

0.00012784 9.83368e-07 -1.80788e-07
9.83368e-07 0.000100059 2.02948e-08
-1.80788e-07 2.02948e-08 0.000117116

0.000132446 -1.04062e-06 6.72219e-08
-1.04062e-06 9.74733e-05 -1.2217e-07
6.72219e-08 -1.2217e-07 0.000117016

0.000129918 2.23357e-06 -1.42813e-07
2.23357e-06 0.000112357 6.81482e-08
-1.42813e-07 6.81482e-08 0.000118676

8.4806e-05 -6.01472e-06 5.58011e-08
-6.01472e-06 0.000113568 -7.86538e-08
5.58011e-08 -7.86538e-08 0.000100052

0.00010312 8.00693e-06 -9.19127e-08
8.00693e-06 8.51605e-05 -3.88041e-08
-9.19127e-08 -3.88041e-08 8.80105e-05

0.000108282 -1.29991e-05 1.03941e-07
-1.29991e-05 0.00010742 -1.38127e-07
1.03941e-07 -1.38127e-07 0.000112999

0.00010827 1.09792e-05 1.02446e-07
1.09792e-05 0.000116255 7.45142e-10
1.02446e-07 7.45142e-10 0.000112299

0.000147664 2.54294e-06 -7.19958e-08
2.54294e-06 0.000164364 -2.0315e-08
-7.19958e-08 -2.0315e-08 0.0001255

0.000147604 1.18042e-05 1.04337e-08
1.18042e-05 0.000120531 1.3502e-08
1.04337e-08 1.3502e-08 0.000126812

0.000108153 -7.60184e-06 1.00457e-07
-7.60184e-06 9.16049e-05 9.60737e-08
1.00457e-07 9.60737e-08 9.96797e-05

0.000124512 -2.71259e-07 -1.33424e-07
-2.71259e-07 0.000107496 -6.733e-08
-1.33424e-07 -6.733e-08 0.000116174

0.000121303 -3.18094e-06 -2.72771e-08
-3.18094e-06 0.000109683 1.28868e-07
-2.72771e-08 1.28868e-07 0.000116398

0.000101103 -1.47223e-05 2.49349e-08
-1.47223e-05 0.000115607 -1.5166e-07
2.49349e-08 -1.5166e-07 0.000109149

9.44324e-05 8.08317e-06 -1.47455e-07
8.08317e-06 0.000117439 3.74716e-08
-1.47455e-07 3.74716e-08 0.000109951

9.31823e-05 1.41857e-05 2.20716e-07
1.41857e-05 0.000110985 7.63808e-08
2.20716e-07 7.63808e-08 0.000111929

9.80016e-05 -2.00326e-05 -2.29939e-07
-2.00326e-05 0.000118156 -8.15657e-09
-2.29939e-07 -8.15657e-09 0.000110745

5.38067e-05 2.55548e-05 -4.2972e-08
2.55548e-05 5.12234e-05 2.17754e-07
-4.2972e-08 2.17754e-07 5.26137e-05

0.000108334 1.41131e-05 5.41198e-08
1.41131e-05 0.000120528 -3.02677e-08
5.41198e-08 -3.02677e-08 0.000117671

0.000108307 -1.12814e-05 -1.24647e-07
-1.12814e-05 0.000122472 1.84294e-09
-1.24647e-07 1.84294e-09 0.00011763

8.99936e-05 1.35632e-05 1.20767e-07
1.35632e-05 0.00011439 -4.8237e-08
1.20767e-07 -4.8237e-08 0.000109022

9.49554e-05 -1.68365e-05 -8.47508e-08
-1.68365e-05 0.000114889 -1.84992e-07
-8.47508e-08 -1.84992e-07 0.000107953

0.000103911 -7.80651e-06 1.55453e-08
-7.80651e-06 8.33408e-05 7.85023e-08
1.55453e-08 7.85023e-08 8.93364e-05

0.000112503 1.50121e-05 3.87369e-08
1.50121e-05 0.00010358 2.0348e-07
3.87369e-08 2.0348e-07 0.000109363

0.000119593 1.5649e-05 -4.56716e-08
1.5649e-05 0.000109061 -1.45503e-07
-4.56716e-08 -1.45503e-07 0.000115281

0.000112833 -1.0355e-05 -5.48185e-08
-1.0355e-05 0.000113328 -8.41409e-08
-5.48185e-08 -8.41409e-08 0.000114997

0.000121293 9.74002e-06 6.12645e-08
9.74002e-06 8.63519e-05 -1.79976e-08
6.12645e-08 -1.79976e-08 0.000108978

0.000126761 2.17352e-06 -1.80787e-07
2.17352e-06 0.000114892 2.02896e-08
-1.80787e-07 2.02896e-08 0.000120547

0.00013126 -2.84363e-06 1.15717e-07
-2.84363e-06 0.000108831 1.18866e-07
1.15717e-07 1.18866e-07 0.000120433

0.000123941 3.20612e-06 -1.7645e-07
3.20612e-06 0.000144335 1.76982e-08
-1.7645e-07 1.76982e-08 0.000125652

0.000124455 -4.90446e-06 -9.8202e-08
-4.90446e-06 0.000158962 -2.6381e-07
-9.8202e-08 -2.6381e-07 0.000124629

5.53172e-05 -2.428e-06 -7.41621e-08
-2.428e-06 3.99665e-05 -1.11112e-07
-7.41621e-08 -1.11112e-07 5.60171e-05

3.57771e-05 -3.88357e-07 -2.10415e-07
-3.88357e-07 5.64522e-05 -2.69533e-08
-2.10415e-07 -2.69533e-08 5.62613e-05

0.000101239 1.64787e-05 1.08288e-07
1.64787e-05 0.000120808 -4.93791e-08
1.08288e-07 -4.93791e-08 0.000111164

0.000100455 -1.37963e-05 1.75941e-07
-1.37963e-05 0.000111215 -1.22826e-08
1.75941e-07 -1.22826e-08 0.000112307

5.01381e-05 9.24271e-06 -6.30137e-08
9.24271e-06 4.89731e-05 4.09191e-08
-6.30137e-08 4.09191e-08 5.53591e-05

5.16754e-05 1.11255e-05 -7.6396e-08
1.11255e-05 4.68191e-05 2.12595e-07
-7.6396e-08 2.12595e-07 5.53356e-05

0.000104785 -1.94146e-05 2.3641e-07
-1.94146e-05 0.000166553 4.42856e-07
2.3641e-07 4.42856e-07 0.000127499

0.000123313 1.39074e-05 -1.33171e-07
1.39074e-05 0.000153326 -3.11513e-07
-1.33171e-07 -3.11513e-07 0.000127445

0.00010945 1.77792e-05 1.87111e-07
1.77792e-05 0.000101077 7.4818e-08
1.87111e-07 7.4818e-08 0.000107815

0.000101212 1.57916e-05 1.15116e-07
1.57916e-05 0.000113159 -5.8436e-09
1.15116e-07 -5.8436e-09 0.000109298

0.000101029 -1.52944e-05 1.88755e-07
-1.52944e-05 0.000106994 -9.39994e-08
1.88755e-07 -9.39994e-08 0.000110228

9.37884e-05 1.59162e-05 1.24565e-07
1.59162e-05 0.000102297 1.89773e-07
1.24565e-07 1.89773e-07 9.61576e-05

9.26238e-05 -1.25441e-05 -9.49035e-08
-1.25441e-05 9.98495e-05 2.26153e-07
-9.49035e-08 2.26153e-07 9.70304e-05

6.08108e-05 -2.03542e-06 -5.88467e-08
-2.03542e-06 8.12298e-05 -5.07648e-08
-5.88467e-08 -5.07648e-08 6.69921e-05

6.37916e-05 -4.64358e-06 4.85688e-08
-4.64358e-06 8.15419e-05 -6.91455e-08
4.85688e-08 -6.91455e-08 6.67393e-05

8.14979e-05 -1.87034e-06 1.39152e-07
-1.87034e-06 6.25416e-05 -2.14653e-07
1.39152e-07 -2.14653e-07 6.62131e-05

9.422e-05 1.86926e-05 -1.03768e-07
1.86926e-05 0.000109504 -1.44672e-07
-1.03768e-07 -1.44672e-07 0.000101744

9.2817e-05 -1.46595e-05 2.94208e-08
-1.46595e-05 0.000105563 4.63954e-08
2.94208e-08 4.63954e-08 0.000102728

5.60112e-05 2.73279e-06 -4.42144e-08
2.73279e-06 7.54571e-05 5.05234e-08
-4.42144e-08 5.05234e-08 6.19246e-05

7.47974e-05 4.3575e-06 -1.04127e-07
4.3575e-06 5.67862e-05 -5.63452e-09
-1.04127e-07 -5.63452e-09 6.18865e-05

0.00010654 -1.86172e-05 -2.19359e-08
-1.86172e-05 0.000112851 2.59508e-08
-2.19359e-08 2.59508e-08 0.00011609

0.000105744 1.51977e-05 -9.95946e-08
1.51977e-05 0.000120145 -8.95655e-08
-9.95946e-08 -8.95655e-08 0.000115122

0.000107261 -1.66893e-05 -2.52456e-08
-1.66893e-05 0.000117562 1.44752e-08
-2.52456e-08 1.44752e-08 0.000116709

0.0001074 1.2272e-05 -6.76741e-08
1.2272e-05 0.000120523 -2.00216e-07
-6.76741e-08 -2.00216e-07 0.000116034

4.66784e-05 -7.50428e-06 -2.34967e-07
-7.50428e-06 4.88244e-05 -1.73418e-08
-2.34967e-07 -1.73418e-08 5.40204e-05

4.75502e-05 -7.4111e-06 -6.33534e-08
-7.4111e-06 4.84618e-05 -2.64254e-07
-6.33534e-08 -2.64254e-07 5.43294e-05

0.0001009 1.46249e-05 -8.72091e-08
1.46249e-05 0.000111645 -1.51042e-07
-8.72091e-08 -1.51042e-07 0.000104942

0.000100727 -1.38185e-05 5.79769e-09
-1.38185e-05 0.000105032 3.7268e-08
5.79769e-09 3.7268e-08 0.000105823

0.000122043 4.132e-06 -1.07682e-07
4.132e-06 0.000139841 -2.04879e-07
-1.07682e-07 -2.04879e-07 0.000122567

0.00012262 -2.38645e-06 -1.54945e-07
-2.38645e-06 0.000125869 1.51377e-07
-1.54945e-07 1.51377e-07 0.000123326

9.99196e-05 -1.65666e-05 -2.73718e-08
-1.65666e-05 0.000122993 3.45696e-08
-2.73718e-08 3.45696e-08 0.000118195

0.000103783 1.60307e-05 -4.97529e-08
1.60307e-05 0.000127717 -1.05194e-08
-4.97529e-08 -1.05194e-08 0.000117235

0.000121388 -3.59261e-06 -6.99702e-09
-3.59261e-06 0.000110163 1.16208e-07
-6.99702e-09 1.16208e-07 0.000120374

0.000126693 4.12812e-08 1.41976e-07
4.12812e-08 0.000107038 1.04373e-07
1.41976e-07 1.04373e-07 0.000120213

0.000105557 1.58303e-05 7.70392e-08
1.58303e-05 0.000109059 -1.47273e-07
7.70392e-08 -1.47273e-07 0.000111702

0.000104037 -1.48929e-05 7.00972e-08
-1.48929e-05 0.000113665 -8.86243e-08
7.00972e-08 -8.86243e-08 0.000110571

0.000135707 5.18947e-06 -1.4571e-07
5.18947e-06 0.000118331 -7.58492e-08
-1.4571e-07 -7.58492e-08 0.000123852

0.000134487 1.80907e-06 -2.4152e-07
1.80907e-06 0.000125632 1.28129e-08
-2.4152e-07 1.28129e-08 0.000126103

0.000128176 -4.9333e-06 3.14864e-08
-4.9333e-06 0.000124693 -1.37816e-07
3.14864e-08 -1.37816e-07 0.000123956

0.000119566 -2.21192e-06 4.73171e-08
-2.21192e-06 0.000137103 -1.23167e-07
4.73171e-08 -1.23167e-07 0.000126181

0.000116805 1.92982e-06 7.30677e-08
1.92982e-06 0.000151688 2.55263e-07
7.30677e-08 2.55263e-07 0.000123265

0.000141853 1.64093e-05 -6.02689e-08
1.64093e-05 0.000131457 -5.03701e-08
-6.02689e-08 -5.03701e-08 0.000123177

0.0001324 -6.38557e-06 3.2197e-08
-6.38557e-06 0.000124229 6.77024e-08
3.2197e-08 6.77024e-08 0.000124158

0.000117226 -3.57108e-06 1.0355e-07
-3.57108e-06 0.000138085 2.75511e-08
1.0355e-07 2.75511e-08 0.000124008

0.000123329 9.57382e-06 -1.21426e-06
9.57382e-06 0.000135283 -2.09643e-06
-1.21426e-06 -2.09643e-06 0.000125208

0.000184141 5.32023e-06 -4.08572e-06
5.32023e-06 0.000112438 2.13957e-06
-4.08572e-06 2.13957e-06 0.0001278

0.000164976 -2.49958e-05 4.99392e-09
-2.49958e-05 0.000140519 9.70183e-09
4.99392e-09 9.70183e-09 0.000127506

0.000128989 -2.41151e-05 3.22642e-07
-2.41151e-05 0.000156969 -4.53037e-07
3.22642e-07 -4.53037e-07 0.000125253

0.000129238 1.19396e-05 3.10617e-07
1.19396e-05 0.000128879 2.1495e-07
3.10617e-07 2.1495e-07 0.000124122

0.000116342 8.57471e-06 -3.42689e-08
8.57471e-06 0.000130077 -1.34308e-08
-3.42689e-08 -1.34308e-08 0.000121049

0.000133211 2.68427e-06 4.07106e-07
2.68427e-06 0.00012941 -2.31863e-07
4.07106e-07 -2.31863e-07 0.000126804

0.000135159 -1.89003e-05 -4.87968e-08
-1.89003e-05 0.000126984 1.09986e-07
-4.87968e-08 1.09986e-07 0.000124322

0.000132777 -2.1598e-05 -8.01589e-08
-2.1598e-05 0.000153076 -3.52438e-08
-8.01589e-08 -3.52438e-08 0.000126645

0.000117955 -1.12258e-05 4.46433e-08
-1.12258e-05 0.000124364 4.81104e-08
4.46433e-08 4.81104e-08 0.000121604

0.000119121 -1.85911e-05 6.96525e-08
-1.85911e-05 0.00012972 -2.58335e-07
6.96525e-08 -2.58335e-07 0.000122471

0.000121937 -1.14879e-05 1.73885e-07
-1.14879e-05 0.000133871 -2.25874e-07
1.73885e-07 -2.25874e-07 0.000124719

0.00011621 7.63968e-06 -6.21765e-08
7.63968e-06 0.00012704 -3.55387e-07
-6.21765e-08 -3.55387e-07 0.000122182

0.000128805 4.31261e-06 1.63611e-08
4.31261e-06 0.000127891 -3.79847e-07
1.63611e-08 -3.79847e-07 0.00012464

8.71774e-05 1.34243e-05 -3.98378e-08
1.34243e-05 9.98342e-05 -4.05774e-08
-3.98378e-08 -4.05774e-08 9.17955e-05

0.00010007 6.92988e-06 -1.13024e-07
6.92988e-06 0.000117339 5.52549e-08
-1.13024e-07 5.52549e-08 0.000108894

9.71338e-05 5.70505e-06 -1.01641e-08
5.70505e-06 0.000116684 6.84422e-08
-1.01641e-08 6.84422e-08 0.000109421

0.00011166 6.75531e-06 3.91357e-08
6.75531e-06 8.05902e-05 1.77135e-07
3.91357e-08 1.77135e-07 9.83512e-05

0.000108697 2.26296e-06 -1.27931e-07
2.26296e-06 7.65428e-05 8.51849e-08
-1.27931e-07 8.51849e-08 9.12806e-05

0.000100554 3.93348e-06 -9.70457e-08
3.93348e-06 0.000121617 -1.30608e-07
-9.70457e-08 -1.30608e-07 0.000115581

9.64435e-05 9.37942e-06 -5.2047e-09
9.37942e-06 0.000124594 1.07572e-08
-5.2047e-09 1.07572e-08 0.00011611

0.000110161 -3.10946e-06 -1.04946e-07
-3.10946e-06 7.82941e-05 -7.96854e-08
-1.04946e-07 -7.96854e-08 9.19729e-05

0.000119447 -5.76909e-06 -4.74138e-08
-5.76909e-06 9.16427e-05 7.72504e-08
-4.74138e-08 7.72504e-08 0.000111543

7.10266e-05 1.15771e-05 9.01943e-08
1.15771e-05 8.29275e-05 -9.70097e-09
9.01943e-08 -9.70097e-09 7.32479e-05

7.00472e-05 -1.20381e-05 -1.63345e-07
-1.20381e-05 8.13387e-05 -2.58466e-08
-1.63345e-07 -2.58466e-08 7.19403e-05

8.62577e-05 -1.09174e-05 5.42817e-08
-1.09174e-05 6.61904e-05 4.98912e-08
5.42817e-08 4.98912e-08 7.16118e-05

0.000108604 -1.12901e-05 -3.95706e-08
-1.12901e-05 0.000123142 -7.1179e-08
-3.95706e-08 -7.1179e-08 0.000118268

0.000114104 -7.81371e-06 4.26962e-08
-7.81371e-06 0.000122743 -1.01957e-07
4.26962e-08 -1.01957e-07 0.000117652

8.71453e-05 1.08771e-05 -3.9316e-08
1.08771e-05 0.000104184 4.26827e-08
-3.9316e-08 4.26827e-08 9.90114e-05

9.09738e-05 1.36436e-05 -5.07253e-08
1.36436e-05 0.000113044 -1.28259e-09
-5.07253e-08 -1.28259e-09 0.000109106

9.63403e-05 -8.7947e-06 -6.84559e-09
-8.7947e-06 0.00012464 -9.10731e-08
-6.84559e-09 -9.10731e-08 0.000115616

9.93798e-05 -2.63047e-06 -5.25693e-08
-2.63047e-06 0.000121906 -4.37356e-08
-5.25693e-08 -4.37356e-08 0.000115341

0.000117148 3.56696e-06 -1.8018e-07
3.56696e-06 8.08438e-05 -5.65032e-08
-1.8018e-07 -5.65032e-08 9.92546e-05

7.5083e-05 4.51207e-06 1.13773e-08
4.51207e-06 9.50711e-05 1.43301e-07
1.13773e-08 1.43301e-07 7.9003e-05

7.52888e-05 -3.68794e-06 -8.29103e-08
-3.68794e-06 9.40806e-05 1.28588e-07
-8.29103e-08 1.28588e-07 7.87811e-05

9.79127e-05 -3.05125e-06 -4.5204e-08
-3.05125e-06 7.14884e-05 -1.41991e-08
-4.5204e-08 -1.41991e-08 7.70406e-05

8.86899e-05 1.52663e-05 -8.96472e-09
1.52663e-05 9.39146e-05 -7.47006e-08
-8.96472e-09 -7.47006e-08 9.12551e-05

0.000102614 -1.03229e-05 1.07103e-07
-1.03229e-05 7.3409e-05 1.35712e-08
1.07103e-07 1.35712e-08 8.5773e-05

0.000101987 1.62556e-05 6.30016e-08
1.62556e-05 9.39817e-05 -7.09389e-08
6.30016e-08 -7.09389e-08 9.77846e-05

8.64128e-05 1.26686e-05 7.77779e-08
1.26686e-05 0.000103401 -4.67216e-08
7.77779e-08 -4.67216e-08 9.16758e-05

0.000112011 -6.07362e-06 7.50095e-08
-6.07362e-06 8.03648e-05 -1.51485e-07
7.50095e-08 -1.51485e-07 9.95882e-05

6.9382e-05 8.43178e-06 6.95764e-08
8.43178e-06 7.69177e-05 -4.79003e-08
6.95764e-08 -4.79003e-08 6.52471e-05

0.000121874 7.5163e-06 -1.17168e-07
7.5163e-06 8.77969e-05 -1.17561e-07
-1.17168e-07 -1.17561e-07 0.000108976

7.97747e-05 -7.45838e-06 1.23971e-07
-7.45838e-06 6.43526e-05 1.0287e-08
1.23971e-07 1.0287e-08 6.43323e-05

0.000113438 -2.99679e-06 -7.9361e-08
-2.99679e-06 0.000125058 -1.37483e-07
-7.9361e-08 -1.37483e-07 0.000118442

0.000114132 4.85195e-06 1.83003e-08
4.85195e-06 0.000125441 1.6207e-09
1.83003e-08 1.6207e-09 0.000118516

0.000153524 -1.46032e-05 -1.1792e-07
-1.46032e-05 0.000127965 2.86655e-09
-1.1792e-07 2.86655e-09 0.000124135

0.000152766 1.51925e-05 3.63202e-07
1.51925e-05 0.000127277 5.66571e-08
3.63202e-07 5.66571e-08 0.000124247

9.48871e-05 -3.98479e-06 -5.19095e-08
-3.98479e-06 6.88831e-05 9.70722e-08
-5.19095e-08 9.70722e-08 7.69241e-05

0.000100525 1.74825e-05 1.73282e-07
1.74825e-05 9.89304e-05 5.95267e-08
1.73282e-07 5.95267e-08 0.000103392

0.000130077 -8.6033e-06 6.42241e-08
-8.6033e-06 0.00011249 1.27829e-07
6.42241e-08 1.27829e-07 0.00011813

0.000128398 9.08745e-06 -9.09181e-08
9.08745e-06 0.000111674 -9.68954e-08
-9.09181e-08 -9.68954e-08 0.000117495

0.000119368 2.9005e-06 -2.52127e-08
2.9005e-06 8.82094e-05 -1.21622e-07
-2.52127e-08 -1.21622e-07 0.000111987

8.41157e-05 1.45715e-05 1.27327e-08
1.45715e-05 0.00010241 3.99892e-08
1.27327e-08 3.99892e-08 9.05794e-05

0.000101806 -1.24729e-05 9.16524e-08
-1.24729e-05 8.05453e-05 -8.91576e-08
9.16524e-08 -8.91576e-08 8.81089e-05

0.000118839 -3.1511e-07 -4.30833e-08
-3.1511e-07 8.34991e-05 2.91117e-09
-4.30833e-08 2.91117e-09 0.000109773

8.79441e-05 -1.4569e-05 9.93428e-08
-1.4569e-05 9.37382e-05 1.31456e-07
9.93428e-08 1.31456e-07 9.06399e-05

8.72195e-05 -1.20297e-05 -1.27052e-08
-1.20297e-05 0.000100027 1.11428e-08
-1.27052e-08 1.11428e-08 9.18569e-05

9.41475e-05 1.423e-05 3.06044e-10
1.423e-05 0.000117101 -1.23046e-07
3.06044e-10 -1.23046e-07 0.000107952

9.39186e-05 -1.7243e-05 3.60758e-08
-1.7243e-05 7.97812e-05 -9.39502e-08
3.60758e-08 -9.39502e-08 8.28176e-05

5.69383e-05 -1.33763e-05 -1.76164e-08
-1.33763e-05 4.93885e-05 -7.33082e-08
-1.76164e-08 -7.33082e-08 5.34772e-05

5.51572e-05 1.7974e-05 -2.46971e-08
1.7974e-05 5.28357e-05 1.63809e-07
-2.46971e-08 1.63809e-07 5.34676e-05

9.45371e-05 -1.68038e-05 8.55005e-08
-1.68038e-05 0.000120983 -2.38296e-08
8.55005e-08 -2.38296e-08 0.00011563

5.69891e-05 2.38147e-06 -7.27356e-09
2.38147e-06 4.9086e-05 -1.34869e-07
-7.27356e-09 -1.34869e-07 5.62608e-05

5.24346e-05 -4.61768e-06 -1.26016e-08
-4.61768e-06 5.02443e-05 -7.30664e-08
-1.26016e-08 -7.30664e-08 5.65801e-05

0.00011571 -3.85178e-06 1.08308e-07
-3.85178e-06 0.000120776 -1.09598e-08
1.08308e-07 -1.09598e-08 0.000119175

0.000116764 4.56513e-06 -2.05877e-07
4.56513e-06 0.000120713 7.99804e-08
-2.05877e-07 7.99804e-08 0.00011927

0.00012581 -9.85323e-08 -9.11406e-08
-9.85323e-08 8.23608e-05 -8.85855e-08
-9.11406e-08 -8.85855e-08 0.000104095

0.000116449 -1.63976e-06 9.43477e-08
-1.63976e-06 0.000115323 -1.09207e-07
9.43477e-08 -1.09207e-07 0.000119099

0.000117693 1.6536e-06 -1.53473e-07
1.6536e-06 0.000115702 -2.88815e-07
-1.53473e-07 -2.88815e-07 0.000119193

8.64026e-05 1.28619e-05 9.33524e-08
1.28619e-05 0.000109853 1.4841e-07
9.33524e-08 1.4841e-07 9.84877e-05

0.000140675 -1.36577e-05 -1.04631e-07
-1.36577e-05 0.000125171 9.27702e-08
-1.04631e-07 9.27702e-08 0.00012272

0.000141738 1.40297e-05 1.50173e-07
1.40297e-05 0.000125171 9.89251e-09
1.50173e-07 9.89251e-09 0.000122856

0.000109624 -7.01617e-06 -9.0533e-08
-7.01617e-06 0.000107963 1.76042e-07
-9.0533e-08 1.76042e-07 0.000111696

0.000108663 7.03525e-06 1.49422e-07
7.03525e-06 0.000108032 1.28869e-07
1.49422e-07 1.28869e-07 0.000111766

8.54297e-05 -1.15955e-05 2.13143e-08
-1.15955e-05 6.37838e-05 1.31888e-07
2.13143e-08 1.31888e-07 7.08505e-05

0.000110798 6.61503e-06 8.48333e-09
6.61503e-06 0.000144643 -6.52627e-08
8.48333e-09 -6.52627e-08 0.000123629

0.000120842 -1.12274e-06 9.07989e-08
-1.12274e-06 0.000132892 1.5773e-07
9.07989e-08 1.5773e-07 0.000123101

8.50775e-05 -1.45656e-05 3.9333e-08
-1.45656e-05 0.000102845 1.56959e-07
3.9333e-08 1.56959e-07 9.08888e-05

6.14075e-05 -3.17303e-06 -4.23188e-08
-3.17303e-06 7.3487e-05 -1.95965e-07
-4.23188e-08 -1.95965e-07 6.38696e-05

7.68958e-05 -3.48237e-06 7.40782e-08
-3.48237e-06 5.67795e-05 9.69317e-08
7.40782e-08 9.69317e-08 6.35633e-05

9.05227e-05 1.12769e-05 1.0489e-07
1.12769e-05 0.000116009 -1.00817e-07
1.0489e-07 -1.00817e-07 0.000105712

8.93642e-05 1.16259e-05 5.3219e-08
1.16259e-05 0.000112188 2.30466e-08
5.3219e-08 2.30466e-08 0.000106546

0.000149002 -1.12714e-05 5.96849e-07
-1.12714e-05 0.000119691 -7.06501e-07
5.96849e-07 -7.06501e-07 0.000127302

0.000149002 1.09314e-05 -1.28519e-07
1.09314e-05 0.000123283 5.88066e-07
-1.28519e-07 5.88066e-07 0.000127445

9.33149e-05 1.49214e-05 -3.35725e-08
1.49214e-05 0.000109752 3.04732e-08
-3.35725e-08 3.04732e-08 0.000112597

0.000114084 4.30831e-06 -7.04306e-08
4.30831e-06 9.16654e-05 5.52696e-08
-7.04306e-08 5.52696e-08 0.000106038

0.000113859 -4.93161e-06 -9.15405e-09
-4.93161e-06 9.12503e-05 -4.6349e-09
-9.15405e-09 -4.6349e-09 0.000105756

0.000101564 1.94102e-05 -9.1857e-08
1.94102e-05 0.000105561 -2.39333e-07
-9.1857e-08 -2.39333e-07 0.000110973

9.99445e-05 -1.35446e-05 5.26205e-08
-1.35446e-05 0.000120426 -9.80815e-08
5.26205e-08 -9.80815e-08 0.000114472

9.38455e-05 -9.12503e-08 -2.68796e-08
-9.12503e-08 6.49538e-05 -7.64257e-08
-2.68796e-08 -7.64257e-08 7.60739e-05

0.000112848 2.64389e-07 3.56655e-08
2.64389e-07 7.85382e-05 5.92624e-08
3.56655e-08 5.92624e-08 9.19383e-05

0.000100977 8.97608e-06 1.24961e-07
8.97608e-06 7.35964e-05 2.00363e-08
1.24961e-07 2.00363e-08 8.42306e-05

0.000126314 1.49123e-05 -1.28033e-07
1.49123e-05 0.000100843 6.67854e-08
-1.28033e-07 6.67854e-08 0.000115626

0.000158761 -3.60279e-06 -1.1432e-07
-3.60279e-06 0.000143427 2.78195e-07
-1.1432e-07 2.78195e-07 0.000125123

0.000153596 2.52132e-06 -2.47556e-07
2.52132e-06 0.000145055 -6.18897e-08
-2.47556e-07 -6.18897e-08 0.00012504

8.4153e-05 1.2563e-05 2.29428e-08
1.2563e-05 8.2728e-05 -5.04367e-09
2.29428e-08 -5.04367e-09 7.70711e-05

0.000102463 -1.65538e-05 -9.56974e-08
-1.65538e-05 8.79404e-05 9.51785e-08
-9.56974e-08 9.51785e-08 9.60242e-05

0.000116197 -4.30502e-06 1.64227e-07
-4.30502e-06 8.87252e-05 -1.44253e-07
1.64227e-07 -1.44253e-07 0.000100042

0.000121392 1.65112e-05 3.34946e-08
1.65112e-05 0.00014883 -5.91788e-08
3.34946e-08 -5.91788e-08 0.000125178

0.000123919 -4.27171e-06 3.28441e-08
-4.27171e-06 0.000131178 1.43633e-07
3.28441e-08 1.43633e-07 0.000124904

0.000127746 -1.48652e-05 1.8623e-08
-1.48652e-05 0.000103214 -7.66994e-08
1.8623e-08 -7.66994e-08 0.00011651

9.6893e-05 -4.29954e-06 3.19442e-09
-4.29954e-06 0.000116806 8.05767e-08
3.19442e-09 8.05767e-08 0.000109097

9.91343e-05 -4.39833e-06 -5.41228e-08
-4.39833e-06 0.000117822 -6.41484e-08
-5.41228e-08 -6.41484e-08 0.000108762

0.000127661 -1.29128e-06 -8.25028e-09
-1.29128e-06 8.35543e-05 -9.01221e-08
-8.25028e-09 -9.01221e-08 0.000108571

0.000127285 1.13107e-06 4.27341e-08
1.13107e-06 8.3324e-05 -4.36689e-09
4.27341e-08 -4.36689e-09 0.000108849

8.74852e-05 1.13731e-05 7.92457e-08
1.13731e-05 8.01613e-05 -1.59388e-07
7.92457e-08 -1.59388e-07 7.5754e-05

0.00012539 -6.25141e-07 -8.31298e-08
-6.25141e-07 9.46561e-05 9.40231e-08
-8.31298e-08 9.40231e-08 0.000113997

0.000126331 1.15875e-06 3.32679e-08
1.15875e-06 9.48275e-05 4.96263e-08
3.32679e-08 4.96263e-08 0.000114031

0.000117045 3.90198e-06 -1.81164e-07
3.90198e-06 8.85432e-05 -4.42485e-08
-1.81164e-07 -4.42485e-08 0.000100192

8.68031e-05 -1.30471e-05 -1.63988e-08
-1.30471e-05 0.000103894 8.51991e-08
-1.63988e-08 8.51991e-08 9.20799e-05

0.000127604 -6.05356e-07 8.74231e-09
-6.05356e-07 9.21883e-05 -2.14387e-09
8.74231e-09 -2.14387e-09 0.00010956

0.000127275 3.61478e-07 3.29527e-08
3.61478e-07 9.20777e-05 4.92923e-08
3.29527e-08 4.92923e-08 0.000109855

0.000114247 -1.04029e-05 -7.03401e-08
-1.04029e-05 8.86003e-05 1.67366e-07
-7.03401e-08 1.67366e-07 0.000102313

9.70266e-05 1.83436e-05 3.35231e-08
1.83436e-05 0.000115516 3.53382e-08
3.35231e-08 3.53382e-08 0.000109803

9.73122e-05 1.34711e-05 6.37951e-08
1.34711e-05 8.47722e-05 -5.93345e-08
6.37951e-08 -5.93345e-08 8.81113e-05

9.87457e-05 1.51356e-05 4.41997e-08
1.51356e-05 0.000107263 1.98961e-07
4.41997e-08 1.98961e-07 0.000112914

9.79785e-05 1.82693e-05 9.47135e-08
1.82693e-05 0.000118722 5.48318e-08
9.47135e-08 5.48318e-08 0.000111131

0.000103788 -6.95952e-06 -1.50359e-07
-6.95952e-06 7.38482e-05 3.4495e-08
-1.50359e-07 3.4495e-08 8.5611e-05

0.000114325 -1.60633e-05 7.38862e-08
-1.60633e-05 9.4635e-05 -6.98756e-08
7.38862e-08 -6.98756e-08 0.000107402

0.000113154 1.01543e-05 -2.96754e-08
1.01543e-05 8.81908e-05 -1.31601e-10
-2.96754e-08 -1.31601e-10 0.000100401

8.87432e-05 1.55835e-05 -6.91439e-09
1.55835e-05 8.44039e-05 -3.24703e-08
-6.91439e-09 -3.24703e-08 8.47534e-05

0.000101928 1.6897e-05 6.22246e-08
1.6897e-05 8.73052e-05 -6.05727e-08
6.22246e-08 -6.05727e-08 9.52577e-05

8.70085e-05 1.46543e-06 -1.60431e-07
1.46543e-06 0.000115002 -8.90356e-09
-1.60431e-07 -8.90356e-09 0.000105247

8.67499e-05 6.48898e-07 -3.01573e-08
6.48898e-07 0.000114402 9.7908e-08
-3.01573e-08 9.7908e-08 0.000105236

8.75319e-05 1.16872e-05 9.44246e-08
1.16872e-05 6.74619e-05 2.13312e-07
9.44246e-08 2.13312e-07 7.27273e-05

0.000101285 -1.97196e-05 -1.56269e-08
-1.97196e-05 0.000106155 7.12054e-08
-1.56269e-08 7.12054e-08 0.000111281

8.56669e-05 -1.56541e-05 9.82393e-08
-1.56541e-05 9.31187e-05 -2.1469e-07
9.82393e-08 -2.1469e-07 8.4447e-05

8.44988e-05 1.56326e-05 2.49415e-08
1.56326e-05 9.36628e-05 1.41241e-07
2.49415e-08 1.41241e-07 8.42366e-05

0.000112821 -1.2011e-05 -1.03438e-07
-1.2011e-05 8.84069e-05 9.47551e-08
-1.03438e-07 9.47551e-08 0.00010128

0.000129483 -8.03635e-06 7.41491e-08
-8.03635e-06 8.64011e-05 -4.2254e-08
7.41491e-08 -4.2254e-08 0.000115886

0.000128027 7.95573e-06 8.97548e-08
7.95573e-06 8.74349e-05 2.0911e-08
8.97548e-08 2.0911e-08 0.000115471

7.84053e-05 9.07408e-06 -7.00388e-08
9.07408e-06 9.77207e-05 -5.34188e-08
-7.00388e-08 -5.34188e-08 8.69319e-05

0.000102368 -1.61419e-05 -8.27381e-08
-1.61419e-05 9.39e-05 1.56043e-07
-8.27381e-08 1.56043e-07 9.76264e-05

6.52041e-05 -5.06373e-07 -7.27819e-08
-5.06373e-07 9.2855e-05 1.16005e-07
-7.27819e-08 1.16005e-07 7.55873e-05

6.47298e-05 2.29853e-07 2.37402e-07
2.29853e-07 9.2695e-05 3.5458e-08
2.37402e-07 3.5458e-08 7.55127e-05

9.65436e-05 5.4292e-07 2.79639e-08
5.4292e-07 6.2141e-05 -2.24806e-07
2.79639e-08 -2.24806e-07 7.40437e-05

8.60731e-05 -1.14194e-05 4.08807e-08
-1.14194e-05 8.08152e-05 1.38158e-07
4.08807e-08 1.38158e-07 7.52895e-05

9.15391e-05 1.41231e-05 1.16431e-07
1.41231e-05 8.17434e-05 -1.24331e-07
1.16431e-07 -1.24331e-07 8.4051e-05

0.000133333 -2.90456e-05 4.39986e-07
-2.90456e-05 0.000145944 1.45224e-08
4.39986e-07 1.45224e-08 0.000126687

0.000139009 1.31078e-05 -5.97145e-07
1.31078e-05 0.000149217 1.40805e-07
-5.97145e-07 1.40805e-07 0.000126899

0.000104862 6.26368e-06 2.08983e-08
6.26368e-06 7.42973e-05 6.76604e-08
2.08983e-08 6.76604e-08 8.62662e-05

9.25753e-05 1.74278e-05 -4.69244e-08
1.74278e-05 0.000113193 3.3694e-08
-4.69244e-08 3.3694e-08 0.000103359

0.000125763 2.9587e-07 -9.4825e-08
2.9587e-07 8.22484e-05 -2.68486e-08
-9.4825e-08 -2.68486e-08 0.000103837

7.82896e-05 -8.18057e-06 -3.61477e-08
-8.18057e-06 9.85433e-05 1.7961e-08
-3.61477e-08 1.7961e-08 8.72888e-05

8.86226e-05 1.72664e-05 -2.07371e-08
1.72664e-05 0.000121641 2.64361e-09
-2.07371e-08 2.64361e-09 0.000116103

0.000101186 1.42931e-05 8.79093e-08
1.42931e-05 0.000120883 6.95855e-08
8.79093e-08 6.95855e-08 0.000114778

9.69548e-05 -1.81251e-05 4.87314e-08
-1.81251e-05 0.000115532 1.13293e-07
4.87314e-08 1.13293e-07 0.000109831

9.67787e-05 1.86163e-05 -1.47462e-08
1.86163e-05 0.000120671 -1.37974e-07
-1.47462e-08 -1.37974e-07 0.000111527

9.15306e-05 1.36965e-05 -5.78041e-08
1.36965e-05 0.000105441 2.42128e-08
-5.78041e-08 2.42128e-08 0.000104668

0.000134356 1.58843e-07 6.06021e-08
1.58843e-07 8.16292e-05 1.32033e-07
6.06021e-08 1.32033e-07 0.000110915

9.20422e-05 -1.3721e-05 8.80106e-08
-1.3721e-05 8.10168e-05 1.04012e-07
8.80106e-08 1.04012e-07 8.33577e-05

9.82546e-05 -1.5424e-05 5.21891e-08
-1.5424e-05 0.000107616 -1.31965e-07
5.21891e-08 -1.31965e-07 0.00011308

9.16088e-05 -1.19777e-05 1.15963e-07
-1.19777e-05 9.2622e-05 -1.9162e-07
1.15963e-07 -1.9162e-07 8.70816e-05

7.9946e-05 -1.17388e-05 1.1997e-07
-1.17388e-05 8.13354e-05 -7.28241e-09
1.1997e-07 -7.28241e-09 7.53369e-05

0.000100704 -1.68108e-05 6.46672e-08
-1.68108e-05 9.94937e-05 -6.13983e-08
6.46672e-08 -6.13983e-08 0.000103668

7.57318e-05 -6.82282e-06 2.94755e-08
-6.82282e-06 9.6635e-05 5.77699e-08
2.94755e-08 5.77699e-08 8.03395e-05

7.57822e-05 6.82324e-06 -9.90576e-08
6.82324e-06 9.65893e-05 -1.4527e-07
-9.90576e-08 -1.4527e-07 8.0234e-05

9.71503e-05 3.98074e-06 2.01406e-07
3.98074e-06 7.36354e-05 1.28731e-07
2.01406e-07 1.28731e-07 7.84647e-05

9.12297e-05 1.19964e-05 1.2542e-07
1.19964e-05 9.25403e-05 1.89135e-08
1.2542e-07 1.89135e-08 8.70201e-05

8.66065e-05 2.19967e-06 -2.37601e-08
2.19967e-06 0.000109985 -3.05585e-08
-2.37601e-08 -3.05585e-08 9.62433e-05

8.72231e-05 -5.50686e-07 -1.59365e-07
-5.50686e-07 0.000109415 -3.02782e-08
-1.59365e-07 -3.02782e-08 9.61775e-05

7.45945e-05 -1.34042e-05 -9.0173e-08
-1.34042e-05 8.1515e-05 7.59931e-08
-9.0173e-08 7.59931e-08 7.28931e-05

7.53382e-05 1.37593e-05 -1.72919e-07
1.37593e-05 8.11057e-05 -2.38403e-08
-1.72919e-07 -2.38403e-08 7.26467e-05

0.000134378 9.31368e-07 -8.18585e-08
9.31368e-07 8.41117e-05 -1.02492e-07
-8.18585e-08 -1.02492e-07 0.000111078

0.000135055 -1.117e-06 1.63175e-07
-1.117e-06 8.39088e-05 -2.81405e-08
1.63175e-07 -2.81405e-08 0.000111221

9.35147e-05 1.614e-05 2.04457e-10
1.614e-05 0.00011414 1.30771e-08
2.04457e-10 1.30771e-08 0.000104766

8.78355e-05 -1.53353e-05 -1.01733e-08
-1.53353e-05 0.00012079 1.03489e-08
-1.01733e-08 1.03489e-08 0.000115875

0.000110756 1.7593e-05 -1.7441e-07
1.7593e-05 9.88892e-05 3.33915e-08
-1.7441e-07 3.33915e-08 0.000107359

8.38764e-05 8.47596e-06 -2.45777e-08
8.47596e-06 6.18852e-05 -4.24957e-09
-2.45777e-08 -4.24957e-09 6.85271e-05

7.78016e-05 1.06796e-05 -6.23718e-08
1.06796e-05 0.000103233 -5.3302e-08
-6.23718e-08 -5.3302e-08 8.74068e-05

0.000119736 7.33794e-07 1.24432e-07
7.33794e-07 0.000108306 1.29425e-07
1.24432e-07 1.29425e-07 0.000115464

0.000118417 -7.89893e-07 -9.54224e-08
-7.89893e-07 0.000108327 1.75897e-07
-9.54224e-08 1.75897e-07 0.000115359

0.000102953 1.02785e-05 5.37027e-09
1.02785e-05 9.65952e-05 -6.2811e-08
5.37027e-09 -6.2811e-08 9.74768e-05

0.000113541 -6.27238e-06 -1.41008e-09
-6.27238e-06 0.000102258 8.40918e-08
-1.41008e-09 8.40918e-08 0.000106854

0.000113566 6.84059e-06 -5.81136e-08
6.84059e-06 0.000102318 -8.70899e-08
-5.81136e-08 -8.70899e-08 0.000106886

5.34399e-05 -6.48653e-06 2.38396e-08
-6.48653e-06 3.91074e-05 -1.14765e-07
2.38396e-08 -1.14765e-07 5.65588e-05

3.57657e-05 7.93448e-06 -1.49062e-07
7.93448e-06 5.05665e-05 5.10919e-08
-1.49062e-07 5.10919e-08 5.61844e-05

7.74134e-05 -1.04452e-05 2.20645e-08
-1.04452e-05 0.000103343 7.97152e-08
2.20645e-08 7.97152e-08 8.76508e-05

0.000130481 -2.27087e-06 1.13637e-07
-2.27087e-06 0.000122679 9.16658e-08
1.13637e-07 9.16658e-08 0.000124014

0.000130368 2.56496e-06 1.44952e-07
2.56496e-06 0.000122779 -1.76237e-07
1.44952e-07 -1.76237e-07 0.000124022

8.51658e-05 6.80514e-06 5.04629e-09
6.80514e-06 6.09312e-05 -8.8712e-08
5.04629e-09 -8.8712e-08 6.84622e-05

8.90662e-05 -8.53624e-06 5.66887e-08
-8.53624e-06 0.000114524 1.07446e-07
5.66887e-08 1.07446e-07 0.000106559

9.10655e-05 -8.57867e-06 2.01658e-08
-8.57867e-06 0.000115664 -2.80277e-08
2.01658e-08 -2.80277e-08 0.000105902

8.88296e-05 -1.7682e-05 1.15877e-07
-1.7682e-05 8.52354e-05 -4.16475e-09
1.15877e-07 -4.16475e-09 8.37464e-05

9.65838e-05 -1.84447e-05 1.10853e-07
-1.84447e-05 0.000120605 -6.9066e-08
1.10853e-07 -6.9066e-08 0.000111458

8.75001e-05 2.23384e-05 1.40974e-07
2.23384e-05 0.000111561 5.0832e-08
1.40974e-07 5.0832e-08 0.000112771

0.000114504 1.01113e-05 1.21711e-07
1.01113e-05 0.000121373 6.73754e-08
1.21711e-07 6.73754e-08 0.00011784

0.000108715 1.35241e-05 -1.46121e-08
1.35241e-05 0.000122045 2.2431e-09
-1.46121e-08 2.2431e-09 0.000118671

9.38974e-05 -1.62847e-05 1.28792e-07
-1.62847e-05 0.000114424 6.58553e-08
1.28792e-07 6.58553e-08 0.000104959

0.000100679 1.66931e-05 1.90139e-07
1.66931e-05 0.000102436 -5.82417e-08
1.90139e-07 -5.82417e-08 0.000106009

0.000103546 -1.01286e-05 6.67016e-08
-1.01286e-05 9.6925e-05 4.36846e-08
6.67016e-08 4.36846e-08 9.7547e-05

9.73827e-05 1.2211e-05 9.65874e-08
1.2211e-05 7.36214e-05 7.12208e-08
9.65874e-08 7.12208e-08 8.32967e-05

0.000112747 -2.69187e-07 4.33937e-08
-2.69187e-07 7.84877e-05 1.40534e-07
4.33937e-08 1.40534e-07 9.20539e-05

9.62985e-05 1.95282e-05 -1.18534e-07
1.95282e-05 0.000118965 3.54671e-08
-1.18534e-07 3.54671e-08 0.000111211

8.71544e-05 -1.17505e-05 -1.82162e-09
-1.17505e-05 0.000104715 -1.39064e-07
-1.82162e-09 -1.39064e-07 9.94833e-05

8.08943e-05 4.03897e-06 -5.89602e-08
4.03897e-06 0.000106298 -8.47378e-08
-5.89602e-08 -8.47378e-08 9.35172e-05

0.000101559 1.22301e-05 -2.78311e-08
1.22301e-05 0.000101006 -9.14848e-08
-2.78311e-08 -9.14848e-08 0.000103081

8.15325e-05 5.07452e-06 -8.32015e-08
5.07452e-06 0.000108403 -2.56804e-09
-8.32015e-08 -2.56804e-09 9.37718e-05

0.000101155 -1.50273e-05 -8.19201e-08
-1.50273e-05 0.000121316 -5.09346e-08
-8.19201e-08 -5.09346e-08 0.000114313

6.07141e-05 -8.69256e-06 -1.59204e-08
-8.69256e-06 6.31191e-05 1.9782e-07
-1.59204e-08 1.9782e-07 5.91247e-05

6.88463e-05 -8.0694e-06 -1.35246e-07
-8.0694e-06 5.59532e-05 7.62913e-08
-1.35246e-07 7.62913e-08 5.89794e-05

0.000116327 -3.3486e-06 1.75717e-07
-3.3486e-06 8.08687e-05 6.29066e-08
1.75717e-07 6.29066e-08 9.91115e-05

0.000101829 -1.17389e-05 1.63455e-08
-1.17389e-05 0.000100924 8.66563e-08
1.63455e-08 8.66563e-08 0.000103063

0.000152343 -1.5875e-05 1.23886e-07
-1.5875e-05 0.000122498 4.31805e-07
1.23886e-07 4.31805e-07 0.000126841

0.000152343 1.50863e-05 -3.84841e-07
1.50863e-05 0.000123931 -2.8839e-08
-3.84841e-07 -2.8839e-08 0.000126911

9.28946e-05 -1.72588e-05 -2.58502e-08
-1.72588e-05 0.000113712 -9.65896e-09
-2.58502e-08 -9.65896e-09 0.000103891

0.000129092 -1.46782e-05 2.22538e-07
-1.46782e-05 0.000129069 -6.8459e-08
2.22538e-07 -6.8459e-08 0.000121788

0.000126817 1.4592e-05 -4.24658e-08
1.4592e-05 0.00012833 -3.49604e-08
-4.24658e-08 -3.49604e-08 0.000121811

0.00011528 2.28268e-06 1.03091e-07
2.28268e-06 8.45704e-05 1.3991e-07
1.03091e-07 1.3991e-07 0.000103853

8.71478e-05 -2.24233e-05 1.07633e-07
-2.24233e-05 0.000111004 -5.05662e-08
1.07633e-07 -5.05662e-08 0.000112776

6.57468e-05 -1.02056e-05 -7.99264e-08
-1.02056e-05 6.44015e-05 -7.13489e-08
-7.99264e-08 -7.13489e-08 6.15368e-05

6.98137e-05 1.03064e-05 5.35543e-08
1.03064e-05 6.20869e-05 -6.00287e-10
5.35543e-08 -6.00287e-10 6.23926e-05

6.51718e-05 -7.41417e-06 -9.2593e-08
-7.41417e-06 7.87279e-05 7.8328e-08
-9.2593e-08 7.8328e-08 6.64199e-05

6.2244e-05 6.73654e-06 -8.65434e-08
6.73654e-06 7.88158e-05 5.14906e-08
-8.65434e-08 5.14906e-08 6.59383e-05

8.10349e-05 4.31551e-06 -1.32785e-07
4.31551e-06 5.94292e-05 6.83342e-09
-1.32785e-07 6.83342e-09 6.5295e-05

9.60161e-05 -1.93452e-05 1.12682e-07
-1.93452e-05 0.000119178 -6.60781e-08
1.12682e-07 -6.60781e-08 0.000111077

5.51019e-05 2.03063e-06 3.13313e-08
2.03063e-06 7.4346e-05 -5.95224e-08
3.13313e-08 -5.95224e-08 6.25162e-05

7.79093e-05 -2.61949e-06 1.30245e-07
-2.61949e-06 5.31794e-05 -1.13814e-08
1.30245e-07 -1.13814e-08 6.17731e-05

0.000110814 -6.05028e-06 -5.52497e-08
-6.05028e-06 0.000135335 -1.0327e-07
-5.52497e-08 -1.0327e-07 0.000122097

0.000120321 -4.27548e-07 1.23703e-07
-4.27548e-07 0.000126933 6.384e-08
1.23703e-07 6.384e-08 0.000121685

0.000120675 1.02634e-05 -1.55564e-07
1.02634e-05 9.71022e-05 4.05647e-08
-1.55564e-07 4.05647e-08 0.000109523

0.000123099 -5.70173e-07 -6.06038e-08
-5.70173e-07 7.66589e-05 -1.82655e-08
-6.06038e-08 -1.82655e-08 0.000112239

7.42486e-05 9.73478e-06 -1.76248e-07
9.73478e-06 9.17991e-05 -5.22468e-08
-1.76248e-07 -5.22468e-08 7.81603e-05

7.38128e-05 -9.94893e-06 -7.59603e-08
-9.94893e-06 9.19035e-05 -6.82565e-08
-7.59603e-08 -6.82565e-08 7.83267e-05

0.000116575 -1.29959e-06 1.45954e-07
-1.29959e-06 8.51042e-05 -9.40291e-08
1.45954e-07 -9.40291e-08 0.000104398

8.67902e-05 -1.32001e-05 -8.98169e-09
-1.32001e-05 0.000111095 -2.28251e-08
-8.98169e-09 -2.28251e-08 9.89984e-05

0.00012799 1.88516e-06 2.38192e-07
1.88516e-06 0.000116342 -5.51165e-08
2.38192e-07 -5.51165e-08 0.000121553

0.000127451 -1.67786e-06 5.49148e-10
-1.67786e-06 0.000116829 -3.46409e-07
5.49148e-10 -3.46409e-07 0.0001216

0.00011339 1.46827e-05 1.34556e-08
1.46827e-05 0.000101989 -1.34671e-07
1.34556e-08 -1.34671e-07 0.000108363

0.000100594 -1.67165e-05 8.06299e-08
-1.67165e-05 0.0001028 1.34578e-08
8.06299e-08 1.34578e-08 0.000106074

0.000120562 9.13185e-06 -1.65448e-07
9.13185e-06 8.58104e-05 -6.06047e-08
-1.65448e-07 -6.06047e-08 0.00010735

8.45586e-05 1.27976e-05 8.61155e-09
1.27976e-05 7.45142e-05 5.16851e-08
8.61155e-09 5.16851e-08 7.52049e-05

9.21199e-05 -1.47133e-05 -9.5131e-08
-1.47133e-05 0.000106296 -6.52826e-08
-9.5131e-08 -6.52826e-08 0.000104919

5.20878e-05 2.2468e-05 -5.61431e-08
2.2468e-05 4.75914e-05 -2.85352e-10
-5.61431e-08 -2.85352e-10 5.2108e-05

8.10765e-05 -2.99238e-06 -6.05832e-08
-2.99238e-06 0.000106558 -4.62911e-08
-6.05832e-08 -4.62911e-08 9.36647e-05

8.18417e-05 -4.65933e-06 -2.57718e-09
-4.65933e-06 0.000107188 2.49504e-08
-2.57718e-09 2.49504e-08 9.34878e-05

0.000113426 6.09145e-06 2.95435e-08
6.09145e-06 0.000135203 -6.43014e-08
2.95435e-08 -6.43014e-08 0.000122625

0.000115357 -9.26514e-06 -9.83048e-08
-9.26514e-06 0.000132623 -2.64121e-08
-9.83048e-08 -2.64121e-08 0.000122504

0.000133921 -4.3001e-07 -1.23425e-07
-4.3001e-07 8.84684e-05 -4.79768e-08
-1.23425e-07 -4.79768e-08 0.000114718

0.000134915 4.49068e-07 1.76567e-07
4.49068e-07 8.81901e-05 -1.08341e-08
1.76567e-07 -1.08341e-08 0.000114843

0.000118055 -1.88469e-05 -9.51577e-08
-1.88469e-05 0.000107625 8.23664e-08
-9.51577e-08 8.23664e-08 0.000114782

0.000118699 1.92595e-05 7.81416e-09
1.92595e-05 0.00010499 -1.37157e-07
7.81416e-09 -1.37157e-07 0.000114009

0.000132851 -7.47053e-06 2.37697e-07
-7.47053e-06 0.0001224 -3.98763e-09
2.37697e-07 -3.98763e-09 0.000120835

0.000130917 6.47076e-06 -5.51658e-08
6.47076e-06 0.000122517 1.95539e-08
-5.51658e-08 1.95539e-08 0.000120807

0.000136901 -5.65306e-06 -3.66553e-07
-5.65306e-06 0.000123747 4.03115e-07
-3.66553e-07 4.03115e-07 0.000125976

0.000136901 6.27887e-06 1.31076e-07
6.27887e-06 0.000125014 -5.90188e-08
1.31076e-07 -5.90188e-08 0.000126056

0.000101155 -1.84113e-05 -7.11703e-08
-1.84113e-05 0.000120406 -3.2362e-08
-7.11703e-08 -3.2362e-08 0.00011502

0.000101582 1.8607e-05 1.25918e-08
1.8607e-05 0.000120439 -1.32014e-07
1.25918e-08 -1.32014e-07 0.000115174

0.000104318 -9.69922e-06 1.57006e-08
-9.69922e-06 8.7399e-05 -1.66024e-07
1.57006e-08 -1.66024e-07 9.56234e-05

8.93671e-05 -7.93045e-06 2.31273e-08
-7.93045e-06 0.000108612 -1.23541e-07
2.31273e-08 -1.23541e-07 0.00010012

9.5783e-05 1.53734e-05 2.52423e-08
1.53734e-05 9.49898e-05 -6.63969e-08
2.52423e-08 -6.63969e-08 9.38365e-05

9.01988e-05 -1.14221e-05 2.4246e-08
-1.14221e-05 0.000112017 -4.19627e-09
2.4246e-08 -4.19627e-09 9.96973e-05

8.53562e-05 -1.14672e-05 3.66682e-08
-1.14672e-05 7.59847e-05 -9.44131e-08
3.66682e-08 -9.44131e-08 7.44081e-05

0.000103825 9.24846e-06 8.10451e-09
9.24846e-06 8.71344e-05 -7.5608e-08
8.10451e-09 -7.5608e-08 9.54352e-05

8.92185e-05 7.73513e-06 5.21781e-08
7.73513e-06 0.000107931 -3.19601e-08
5.21781e-08 -3.19601e-08 9.9712e-05

0.000103741 -2.36395e-05 -6.58866e-08
-2.36395e-05 0.000112377 -9.35873e-08
-6.58866e-08 -9.35873e-08 0.000116106

0.000103397 2.32171e-05 -2.32285e-08
2.32171e-05 0.000111946 1.77451e-07
-2.32285e-08 1.77451e-07 0.000116102

0.000120376 -9.06585e-06 2.84405e-08
-9.06585e-06 9.8815e-05 -8.58894e-08
2.84405e-08 -8.58894e-08 0.000111133

0.000139059 -1.76364e-05 -5.06365e-08
-1.76364e-05 0.000155102 -6.52507e-09
-5.06365e-08 -6.52507e-09 0.000126473

0.000139484 1.812e-05 2.73831e-07
1.812e-05 0.000126331 -1.58348e-07
2.73831e-07 -1.58348e-07 0.000126684

9.99114e-05 -1.28356e-05 5.14161e-08
-1.28356e-05 0.000117355 -4.93538e-08
5.14161e-08 -4.93538e-08 0.000109301

0.000113735 1.6687e-05 2.18548e-08
1.6687e-05 9.34484e-05 -2.16978e-08
2.18548e-08 -2.16978e-08 0.000105746

0.00012977 8.51903e-07 1.09498e-07
8.51903e-07 0.00011127 -2.57158e-08
1.09498e-07 -2.57158e-08 0.00011841

9.43031e-05 -1.49478e-05 -1.18565e-07
-1.49478e-05 9.57809e-05 1.83792e-08
-1.18565e-07 1.83792e-08 9.38977e-05

6.28626e-05 9.44445e-06 -9.89088e-08
9.44445e-06 6.6831e-05 -7.94145e-08
-9.89088e-08 -7.94145e-08 6.01197e-05

6.75902e-05 9.70267e-06 -1.7008e-07
9.70267e-06 5.89894e-05 8.44241e-09
-1.7008e-07 8.44241e-09 6.01368e-05

0.000134063 2.11839e-06 -9.88022e-09
2.11839e-06 9.45794e-05 9.30209e-08
-9.88022e-09 9.30209e-08 0.000116648

0.000133851 -1.67887e-06 1.19324e-07
-1.67887e-06 9.44627e-05 5.4753e-08
1.19324e-07 5.4753e-08 0.000116648

0.000130852 -1.92726e-06 6.95062e-08
-1.92726e-06 0.000112214 -5.81931e-08
6.95062e-08 -5.81931e-08 0.000118613

9.05058e-05 1.03865e-05 1.07228e-07
1.03865e-05 0.000111337 1.39361e-07
1.07228e-07 1.39361e-07 9.95829e-05

0.000103803 -7.49081e-06 -1.49133e-07
-7.49081e-06 8.42653e-05 -3.73653e-08
-1.49133e-07 -3.73653e-08 8.82503e-05

0.000109103 -8.71994e-06 -1.28279e-07
-8.71994e-06 0.000114171 -1.27069e-07
-1.28279e-07 -1.27069e-07 0.000112245

0.000108115 8.82511e-06 1.75442e-07
8.82511e-06 0.000114294 -7.84215e-08
1.75442e-07 -7.84215e-08 0.000112312

0.00014826 -2.14725e-06 -1.16631e-07
-2.14725e-06 0.000160254 -4.59882e-09
-1.16631e-07 -4.59882e-09 0.000125524

0.000147809 2.20129e-06 3.47682e-07
2.20129e-06 0.000160254 -4.10929e-08
3.47682e-07 -4.10929e-08 0.000125596

9.3426e-05 -1.54958e-05 -3.89561e-08
-1.54958e-05 0.000116264 -8.57898e-08
-3.89561e-08 -8.57898e-08 0.000107989

0.000111424 1.26268e-05 -1.2431e-08
1.26268e-05 8.83316e-05 -4.9906e-08
-1.2431e-08 -4.9906e-08 9.95434e-05

0.00012644 -1.32762e-06 2.90871e-08
-1.32762e-06 0.000105099 2.30914e-07
2.90871e-08 2.30914e-07 0.000116022

0.000125481 1.50806e-06 -8.09126e-08
1.50806e-06 0.000105098 1.91504e-07
-8.09126e-08 1.91504e-07 0.000115965

9.55029e-05 -1.01484e-05 9.29124e-08
-1.01484e-05 0.000113654 8.22595e-08
9.29124e-08 8.22595e-08 0.00011044

9.37404e-05 -1.61043e-05 -3.80395e-08
-1.61043e-05 0.000108692 -2.60724e-08
-3.80395e-08 -2.60724e-08 0.000112451

5.23052e-05 -2.26822e-05 2.37481e-07
-2.26822e-05 5.25202e-05 -1.37509e-08
2.37481e-07 -1.37509e-08 5.26048e-05

0.00010974 -1.53098e-05 -3.03839e-08
-1.53098e-05 0.000121473 -2.15122e-08
-3.03839e-08 -2.15122e-08 0.000117862

0.000109747 1.45171e-05 6.03711e-08
1.45171e-05 0.000121229 9.04817e-09
6.03711e-08 9.04817e-09 0.00011778

9.17307e-05 -1.55989e-05 -8.04862e-08
-1.55989e-05 0.000110556 2.68509e-08
-8.04862e-08 2.68509e-08 0.000109435

0.000105125 7.97623e-06 3.54921e-09
7.97623e-06 8.4489e-05 -7.903e-08
3.54921e-09 -7.903e-08 8.88259e-05

0.00011405 -1.38322e-05 7.15541e-08
-1.38322e-05 0.000102734 -2.82442e-08
7.15541e-08 -2.82442e-08 0.000109432

0.000119988 -1.52106e-05 -1.01059e-07
-1.52106e-05 0.000107572 6.01204e-08
-1.01059e-07 6.01204e-08 0.000115469

0.000121313 1.45391e-05 -1.17947e-08
1.45391e-05 0.000107066 -7.09469e-08
-1.17947e-08 -7.09469e-08 0.000115298

0.000120376 -9.02806e-06 2.79064e-08
-9.02806e-06 8.66487e-05 1.29746e-07
2.79064e-08 1.29746e-07 0.000108892

0.000132961 3.61848e-06 3.41977e-08
3.61848e-06 0.000106889 -1.26063e-07
3.41977e-08 -1.26063e-07 0.00012014

0.000132382 -4.05535e-06 1.23893e-07
-4.05535e-06 0.000107134 7.7463e-08
1.23893e-07 7.7463e-08 0.000120118

0.000119873 -6.49341e-06 -1.15177e-08
-6.49341e-06 0.000152259 -4.62586e-08
-1.15177e-08 -4.62586e-08 0.000125618

0.000125338 1.38212e-05 -8.81523e-08
1.38212e-05 0.000149657 2.09325e-07
-8.81523e-08 2.09325e-07 0.000125751

5.72577e-05 2.00563e-06 2.01079e-09
2.00563e-06 3.38813e-05 2.40122e-07
2.01079e-09 2.40122e-07 5.61814e-05

4.08486e-05 3.34106e-06 -7.05248e-08
3.34106e-06 5.19805e-05 1.2395e-08
-7.05248e-08 1.2395e-08 5.62777e-05

0.000101115 1.46931e-05 -6.69918e-08
1.46931e-05 0.00011857 1.47636e-07
-6.69918e-08 1.47636e-07 0.000111292

0.000100313 -1.48561e-05 -2.41106e-08
-1.48561e-05 0.000118551 2.63311e-08
-2.41106e-08 2.63311e-08 0.000111207

9.65904e-05 -1.86494e-05 -7.23658e-08
-1.86494e-05 0.000118971 -4.0102e-08
-7.23658e-08 -4.0102e-08 0.0001107

5.00004e-05 -9.70694e-06 2.24743e-07
-9.70694e-06 4.7619e-05 1.27228e-07
2.24743e-07 1.27228e-07 5.51649e-05

5.05938e-05 -7.53842e-06 -1.46824e-07
-7.53842e-06 4.78347e-05 4.62303e-08
-1.46824e-07 4.62303e-08 5.53088e-05

0.000123631 1.33063e-05 2.06443e-07
1.33063e-05 0.000150863 -5.66014e-07
2.06443e-07 -5.66014e-07 0.000127217

0.000123631 -1.40101e-05 -7.0612e-08
-1.40101e-05 0.000149584 2.55106e-07
-7.0612e-08 2.55106e-07 0.000127217

0.000110026 -1.74535e-05 3.73411e-08
-1.74535e-05 9.94836e-05 -5.74269e-08
3.73411e-08 -5.74269e-08 0.000107953

9.27011e-05 -1.43192e-05 -3.12928e-08
-1.43192e-05 0.000102603 1.67458e-07
-3.12928e-08 1.67458e-07 9.64013e-05

0.000100869 1.33549e-05 -8.1494e-08
1.33549e-05 0.000111542 5.51524e-08
-8.1494e-08 5.51524e-08 0.000109373

0.000100155 -1.3771e-05 -8.03712e-09
-1.3771e-05 0.000111337 -6.44909e-08
-8.03712e-09 -6.44909e-08 0.000109347

9.37871e-05 -1.71266e-05 1.14509e-07
-1.71266e-05 0.000108149 -2.64532e-08
1.14509e-07 -2.64532e-08 0.000101995

9.41057e-05 1.47411e-05 -3.18938e-08
1.47411e-05 0.000102162 3.21567e-08
-3.18938e-08 3.21567e-08 9.63229e-05

6.38368e-05 -5.43094e-06 -7.94989e-08
-5.43094e-06 7.9284e-05 8.00844e-08
-7.94989e-08 8.00844e-08 6.71013e-05

6.34913e-05 4.37211e-06 2.54817e-07
4.37211e-06 7.99883e-05 -3.95497e-08
2.54817e-07 -3.95497e-08 6.67306e-05

8.12812e-05 3.50863e-06 -8.51685e-08
3.50863e-06 6.16525e-05 -2.11399e-07
-8.51685e-08 -2.11399e-07 6.60557e-05

9.35941e-05 1.6467e-05 -9.29914e-09
1.6467e-05 0.000108222 6.48273e-08
-9.29914e-09 6.48273e-08 0.000101904

5.74253e-05 -2.01264e-06 8.27987e-08
-2.01264e-06 7.33005e-05 -2.08007e-07
8.27987e-08 -2.08007e-07 6.19284e-05

7.65655e-05 -1.89873e-06 8.90464e-08
-1.89873e-06 5.25597e-05 -2.26389e-08
8.90464e-08 -2.26389e-08 6.20253e-05

0.000106267 -1.40332e-05 -1.42161e-07
-1.40332e-05 0.000117934 5.13642e-08
-1.42161e-07 5.13642e-08 0.000115109

0.000106828 1.38996e-05 1.75843e-07
1.38996e-05 0.000118049 1.94576e-07
1.75843e-07 1.94576e-07 0.000115236

0.000108481 -1.01676e-05 -1.77261e-07
-1.01676e-05 0.000118526 -6.84673e-08
-1.77261e-07 -6.84673e-08 0.000115983

0.000108542 1.08625e-05 2.34474e-07
1.08625e-05 0.000118511 -8.69715e-09
2.34474e-07 -8.69715e-09 0.000116086

4.99985e-05 8.55286e-06 -3.99617e-08
8.55286e-06 4.49832e-05 2.13734e-07
-3.99617e-08 2.13734e-07 5.44966e-05

5.01845e-05 8.81291e-06 -7.95682e-08
8.81291e-06 4.5426e-05 -2.15304e-09
-7.95682e-08 -2.15304e-09 5.41896e-05

0.00010137 1.25318e-05 -4.74714e-08
1.25318e-05 0.000110102 7.95754e-08
-4.74714e-08 7.95754e-08 0.000105023

0.000101413 -1.32646e-05 6.72696e-12
-1.32646e-05 0.000109987 -7.01923e-08
6.72696e-12 -7.01923e-08 0.000105008

0.000118365 -1.24834e-05 -2.10098e-08
-1.24834e-05 0.000136058 -1.05264e-07
-2.10098e-08 -1.05264e-07 0.000123506

0.000123258 5.47129e-06 -1.09373e-07
5.47129e-06 0.000126236 7.74122e-08
-1.09373e-07 7.74122e-08 0.000123483

0.000103632 -1.39827e-05 -7.94193e-08
-1.39827e-05 0.000125471 -5.59641e-08
-7.94193e-08 -5.59641e-08 0.000117296

0.000104118 1.39263e-05 -1.79936e-09
1.39263e-05 0.000124947 -8.70822e-08
-1.79936e-09 -8.70822e-08 0.000117394

0.000127861 6.81884e-07 2.43055e-07
6.81884e-07 0.000105202 -1.0791e-08
2.43055e-07 -1.0791e-08 0.000119999

0.000127429 -9.37539e-07 -5.7017e-08
-9.37539e-07 0.000105201 1.7731e-07
-5.7017e-08 1.7731e-07 0.000120038

0.000106096 -1.5547e-05 -2.20458e-08
-1.5547e-05 0.000107565 6.12889e-08
-2.20458e-08 6.12889e-08 0.000111913

0.000106805 1.5308e-05 -2.20485e-07
1.5308e-05 0.000107032 -6.45726e-08
-2.20485e-07 -6.45726e-08 0.000111679

0.000136706 3.79013e-06 -4.62777e-08
3.79013e-06 0.000116422 -4.9283e-08
-4.62777e-08 -4.9283e-08 0.000123528

0.000135062 7.87642e-07 6.96576e-08
7.87642e-07 0.000123387 -1.5657e-07
6.96576e-08 -1.5657e-07 0.00012587

0.000136279 -4.0165e-06 -1.56211e-07
-4.0165e-06 0.000116422 1.57562e-08
-1.56211e-07 1.57562e-08 0.000123558

0.000135407 -8.08362e-07 -1.48049e-07
-8.08362e-07 0.000123107 2.33093e-08
-1.48049e-07 2.33093e-08 0.000125878

0.000119964 8.02255e-07 1.43119e-07
8.02255e-07 0.000136637 -1.24415e-07
1.43119e-07 -1.24415e-07 0.000124089

0.000141747 1.57896e-05 2.42385e-07
1.57896e-05 0.000130173 2.21144e-07
2.42385e-07 2.21144e-07 0.000123318

0.000142118 -1.59767e-05 -4.16381e-08
-1.59767e-05 0.000129708 1.87605e-07
-4.16381e-08 1.87605e-07 0.000123259

0.000111155 -8.57861e-06 -6.56294e-08
-8.57861e-06 0.00015228 -2.63293e-09
-6.56294e-08 -2.63293e-09 0.000124283

0.00012339 -7.32062e-06 4.6973e-07
-7.32062e-06 0.000132582 -6.06674e-07
4.6973e-07 -6.06674e-07 0.000125022

0.000185247 -1.11877e-05 2.42921e-06
-1.11877e-05 9.89841e-05 6.82724e-07
2.42921e-06 6.82724e-07 0.000127444

0.000126037 1.00569e-05 9.01933e-08
1.00569e-05 0.000132214 2.20016e-07
9.01933e-08 2.20016e-07 0.000125193

0.000193695 1.04407e-05 2.64411e-06
1.04407e-05 9.83378e-05 -1.51403e-06
2.64411e-06 -1.51403e-06 0.00012767

0.000130507 -1.03844e-05 3.02074e-08
-1.03844e-05 0.00012552 5.95493e-08
3.02074e-08 5.95493e-08 0.000124026

0.000115865 -7.12159e-06 1.41827e-07
-7.12159e-06 0.000127619 -1.43646e-08
1.41827e-07 -1.43646e-08 0.000121097

0.000134712 -8.0889e-07 -1.26529e-07
-8.0889e-07 0.000124019 -6.66264e-07
-1.26529e-07 -6.66264e-07 0.00012652

0.000129836 1.08793e-05 3.74583e-08
1.08793e-05 0.000125976 1.40081e-07
3.74583e-08 1.40081e-07 0.000124116

0.000115865 7.10033e-06 -2.38406e-07
7.10033e-06 0.000127098 -4.25946e-08
-2.38406e-07 -4.25946e-08 0.000121143

0.000134322 5.66651e-07 1.05276e-07
5.66651e-07 0.000125303 -1.73967e-07
1.05276e-07 -1.73967e-07 0.000126684

0.000115682 -5.90251e-06 1.4469e-07
-5.90251e-06 0.000125147 -4.94474e-08
1.4469e-07 -4.94474e-08 0.000122102

0.000130244 -3.12902e-06 9.54574e-08
-3.12902e-06 0.000125462 -6.47802e-08
9.54574e-08 -6.47802e-08 0.000124487

0.000115682 5.88497e-06 -2.30531e-07
5.88497e-06 0.000124717 5.38995e-08
-2.30531e-07 5.38995e-08 0.000122168

0.000130244 2.96253e-06 1.31304e-07
2.96253e-06 0.000125125 -5.87876e-08
1.31304e-07 -5.87876e-08 0.000124513

8.73769e-05 1.35123e-05 6.38512e-08
1.35123e-05 0.000102496 -4.34644e-08
6.38512e-08 -4.34644e-08 9.05265e-05

9.29112e-05 3.03461e-06 9.04165e-08
3.03461e-06 0.000121269 -8.47499e-09
9.04165e-08 -8.47499e-09 0.000109072

0.000103724 7.3903e-06 2.61959e-09
7.3903e-06 0.000115275 -1.77312e-07
2.61959e-09 -1.77312e-07 0.000108568

0.000111178 -8.70974e-06 -1.43479e-07
-8.70974e-06 8.13169e-05 4.05971e-08
-1.43479e-07 4.05971e-08 9.8741e-05

0.000106272 -5.13599e-06 -1.48862e-08
-5.13599e-06 7.88898e-05 -2.87048e-08
-1.48862e-08 -2.87048e-08 9.19318e-05

9.26187e-05 4.27251e-06 8.42823e-08
4.27251e-06 0.000132053 6.28799e-08
8.42823e-08 6.28799e-08 0.000115505

0.000103654 7.69193e-06 -2.05878e-08
7.69193e-06 0.00011763 9.26206e-08
-2.05878e-08 9.26206e-08 0.000115384

0.000106286 -8.23869e-08 -1.48312e-08
-8.23869e-08 8.00797e-05 1.09757e-08
-1.48312e-08 1.09757e-08 9.24716e-05

0.000119042 3.43058e-06 -5.89906e-08
3.43058e-06 8.70694e-05 2.33184e-09
-5.89906e-08 2.33184e-09 0.000112126

6.95769e-05 1.18084e-05 1.67662e-08
1.18084e-05 8.70178e-05 3.70426e-08
1.67662e-08 3.70426e-08 7.28243e-05

6.52311e-05 9.61539e-06 -1.06053e-07
9.61539e-06 8.70295e-05 -2.33306e-08
-1.06053e-07 -2.33306e-08 7.23457e-05

8.362e-05 9.34472e-06 5.07916e-08
9.34472e-06 6.63107e-05 -5.9649e-08
5.07916e-08 -5.9649e-08 7.11635e-05

0.000113597 -1.44914e-05 -7.63767e-08
-1.44914e-05 0.000122118 3.15818e-08
-7.63767e-08 3.15818e-08 0.000117375

0.000110732 -5.42992e-06 -9.2373e-08
-5.42992e-06 0.000127699 -1.81712e-08
-9.2373e-08 -1.81712e-08 0.000117434

0.000100081 -1.63629e-05 8.12647e-08
-1.63629e-05 9.89776e-05 6.68864e-08
8.12647e-08 6.68864e-08 9.99002e-05

8.73072e-05 1.32394e-05 6.20855e-08
1.32394e-05 0.000107328 -6.6634e-08
6.20855e-08 -6.6634e-08 9.75754e-05

9.55553e-05 1.58603e-05 8.52489e-08
1.58603e-05 0.000115108 -5.67496e-08
8.52489e-08 -5.67496e-08 0.0001078

0.000103135 -7.54059e-06 -8.8442e-08
-7.54059e-06 0.00011753 3.89556e-08
-8.8442e-08 3.89556e-08 0.000115015

9.1744e-05 -4.99718e-06 -1.00067e-07
-4.99718e-06 0.000134204 -1.34888e-08
-1.00067e-07 -1.34888e-08 0.000114973

0.00011494 4.18529e-06 -6.85875e-08
4.18529e-06 8.20729e-05 1.76791e-08
-6.85875e-08 1.76791e-08 9.93883e-05

7.48891e-05 4.15504e-06 4.24229e-09
4.15504e-06 9.64507e-05 6.19464e-08
4.24229e-09 6.19464e-08 7.85029e-05

7.06202e-05 1.95777e-06 -4.52138e-08
1.95777e-06 9.78456e-05 -1.16463e-07
-4.52138e-08 -1.16463e-07 7.8948e-05

9.56294e-05 1.45457e-06 1.04938e-09
1.45457e-06 7.14726e-05 -2.90927e-08
1.04938e-09 -2.90927e-08 7.70433e-05

8.20459e-05 9.25715e-06 -6.56215e-08
9.25715e-06 0.000104363 1.37971e-07
-6.56215e-08 1.37971e-07 9.17415e-05

8.64624e-05 1.51e-05 -1.29703e-07
1.51e-05 0.000100127 1.66436e-07
-1.29703e-07 1.66436e-07 9.01209e-05

0.000110494 2.59822e-06 -6.86927e-08
2.59822e-06 8.15563e-05 -1.07152e-08
-6.86927e-08 -1.07152e-08 9.99105e-05

6.64495e-05 7.05818e-06 -6.01459e-09
7.05818e-06 8.02238e-05 -5.92095e-09
-6.01459e-09 -5.92095e-09 6.4979e-05

0.00011995 -9.67691e-06 1.50008e-07
-9.67691e-06 8.72021e-05 5.11521e-08
1.50008e-07 5.11521e-08 0.000109137

0.000111032 -5.21659e-08 4.38288e-08
-5.21659e-08 0.000132633 7.86046e-08
4.38288e-08 7.86046e-08 0.000117846

0.000118445 2.25866e-07 -1.0635e-08
2.25866e-07 0.0001212 8.87521e-08
-1.0635e-08 8.87521e-08 0.000118119

0.000154402 6.76197e-06 1.42161e-08
6.76197e-06 0.000117433 4.7452e-08
1.42161e-08 4.7452e-08 0.000125352

0.000153903 -1.49139e-05 -1.12756e-08
-1.49139e-05 0.000127014 8.41484e-08
-1.12756e-08 8.41484e-08 0.000124303

9.54859e-05 -1.76184e-05 1.28837e-08
-1.76184e-05 0.000100034 1.04687e-08
1.28837e-08 1.04687e-08 9.87161e-05

8.32437e-05 -1.41835e-05 6.58587e-08
-1.41835e-05 9.91917e-05 -9.68023e-09
6.58587e-08 -9.68023e-09 9.07842e-05

9.51084e-05 -5.07217e-06 3.76943e-08
-5.07217e-06 6.82703e-05 5.23181e-08
3.76943e-08 5.23181e-08 7.69267e-05

0.000128506 2.46729e-06 5.59775e-08
2.46729e-06 0.000111446 -2.29355e-08
5.59775e-08 -2.29355e-08 0.000118796

0.000128558 -8.93382e-06 6.53868e-08
-8.93382e-06 0.00011301 5.28304e-09
6.53868e-08 5.28304e-09 0.000117549

0.000119825 -4.05067e-06 -3.30958e-08
-4.05067e-06 8.76993e-05 4.30667e-08
-3.30958e-08 4.30667e-08 0.00011218

0.000118497 -1.40483e-06 -6.61924e-08
-1.40483e-06 8.19239e-05 -1.21304e-07
-6.61924e-08 -1.21304e-07 0.000110208

9.80776e-05 -1.45696e-05 9.9519e-08
-1.45696e-05 8.43203e-05 8.45027e-09
9.9519e-08 8.45027e-09 8.70935e-05

0.000101072 6.31852e-06 -3.21872e-08
6.31852e-06 7.66696e-05 1.62523e-08
-3.21872e-08 1.62523e-08 8.56502e-05

9.89405e-05 -1.1543e-05 9.95606e-08
-1.1543e-05 7.54782e-05 8.7953e-09
9.95606e-08 8.7953e-09 8.48562e-05

8.71237e-05 1.03393e-05 -5.00867e-08
1.03393e-05 0.000119114 -3.7236e-08
-5.00867e-08 -3.7236e-08 0.000108888

8.32113e-05 -1.22305e-05 -3.94192e-08
-1.22305e-05 0.00010317 -1.16022e-07
-3.94192e-08 -1.16022e-07 9.1876e-05

8.22404e-05 1.12216e-05 -1.74925e-08
1.12216e-05 9.9469e-05 8.13171e-08
-1.74925e-08 8.13171e-08 9.09172e-05

5.38865e-05 -1.82107e-05 -5.55899e-08
-1.82107e-05 5.41892e-05 5.46232e-08
-5.55899e-08 5.46232e-08 5.35589e-05

4.88995e-05 1.13002e-05 5.59362e-08
1.13002e-05 5.58763e-05 4.65128e-08
5.59362e-08 4.65128e-08 5.3057e-05

9.38383e-05 -1.42312e-05 -9.08746e-08
-1.42312e-05 0.000123455 -1.76035e-08
-9.08746e-08 -1.76035e-08 0.000114925

8.2032e-05 9.19381e-06 -7.07203e-08
9.19381e-06 0.000109416 1.44604e-08
-7.07203e-08 1.44604e-08 9.88625e-05

4.9499e-05 2.0297e-06 6.2593e-08
2.0297e-06 5.09833e-05 -1.61114e-07
6.2593e-08 -1.61114e-07 5.61766e-05

5.03562e-05 -3.7519e-06 -7.41957e-08
-3.7519e-06 5.5593e-05 5.37255e-08
-7.41957e-08 5.37255e-08 5.64908e-05

0.00011543 -5.37178e-06 -2.39942e-07
-5.37178e-06 0.00012427 1.73808e-07
-2.39942e-07 1.73808e-07 0.000119231

0.000115052 1.14424e-05 -1.42073e-07
1.14424e-05 0.00012072 1.46902e-08
-1.42073e-07 1.46902e-08 0.000119673

0.000123355 -1.66918e-07 2.24244e-08
-1.66918e-07 8.41425e-05 -1.60294e-08
2.24244e-08 -1.60294e-08 0.000104206

0.000116073 -3.58146e-06 -2.42588e-07
-3.58146e-06 0.000117608 1.55185e-07
-2.42588e-07 1.55185e-07 0.000119218

0.000115279 1.07363e-05 -1.29476e-07
1.07363e-05 0.00011941 -7.39637e-08
-1.29476e-07 -7.39637e-08 0.000119523

0.000144203 1.16798e-05 6.48091e-09
1.16798e-05 0.000113878 -1.16099e-07
6.48091e-09 -1.16099e-07 0.000123868

0.000140881 -1.3892e-05 1.48066e-08
-1.3892e-05 0.000124694 -1.11623e-07
1.48066e-08 -1.11623e-07 0.000122932

0.000108875 -8.34454e-06 8.04384e-08
-8.34454e-06 0.000110181 -1.52406e-07
8.04384e-08 -1.52406e-07 0.000111759

0.000108734 1.12874e-05 1.24077e-07
1.12874e-05 0.000107444 8.74365e-09
1.24077e-07 8.74365e-09 0.0001123

0.000116419 -7.60645e-07 -7.76186e-08
-7.60645e-07 0.000147751 -6.30827e-09
-7.76186e-08 -6.30827e-09 0.000122564

0.00011881 3.94351e-06 -4.48872e-08
3.94351e-06 0.000132717 -1.39431e-08
-4.48872e-08 -1.39431e-08 0.000123094

8.50875e-05 -1.61673e-05 2.0368e-08
-1.61673e-05 0.000103204 -1.00454e-07
2.0368e-08 -1.00454e-07 9.0755e-05

5.95035e-05 1.67847e-06 4.13367e-09
1.67847e-06 7.61665e-05 1.46293e-07
4.13367e-09 1.46293e-07 6.41173e-05

7.50987e-05 2.0738e-06 2.06836e-07
2.0738e-06 6.05285e-05 3.87811e-08
2.06836e-07 3.87811e-08 6.39681e-05

8.49551e-05 8.00629e-06 8.95951e-08
8.00629e-06 0.00011823 -7.88651e-09
8.95951e-08 -7.88651e-09 0.000106252

9.26352e-05 1.24731e-05 -1.039e-07
1.24731e-05 0.000113682 -1.01021e-07
-1.039e-07 -1.01021e-07 0.000105476

0.000146181 -1.1581e-05 -1.15762e-07
-1.1581e-05 0.000125494 1.95624e-07
-1.15762e-07 1.95624e-07 0.000127451

0.000136841 1.91318e-05 -1.15252e-07
1.91318e-05 0.000165437 6.9726e-08
-1.15252e-07 6.9726e-08 0.000127416

9.59144e-05 1.14654e-05 8.77956e-08
1.14654e-05 8.90151e-05 -9.22775e-08
8.77956e-08 -9.22775e-08 8.86975e-05

9.84055e-05 1.92636e-05 1.22935e-07
1.92636e-05 0.000117864 1.37802e-08
1.22935e-07 1.37802e-08 0.000110997

0.000112381 7.44731e-06 5.5377e-08
7.44731e-06 9.3151e-05 1.32744e-07
5.5377e-08 1.32744e-07 0.000106346

0.000112901 -5.6957e-06 -7.40493e-08
-5.6957e-06 9.29704e-05 8.55278e-08
-7.40493e-08 8.55278e-08 0.000105863

0.000100225 1.83435e-05 9.14625e-08
1.83435e-05 0.000112369 2.18576e-07
9.14625e-08 2.18576e-07 0.000110231

0.000101138 -1.84041e-05 4.42174e-09
-1.84041e-05 0.000120962 6.31292e-08
4.42174e-09 6.31292e-08 0.000114194

0.000126133 -1.5674e-05 8.09891e-08
-1.5674e-05 0.000100732 7.40903e-08
8.09891e-08 7.40903e-08 0.000115706

9.46372e-05 -1.5144e-06 3.70777e-08
-1.5144e-06 6.916e-05 6.17079e-08
3.70777e-08 6.17079e-08 7.7181e-05

0.000154776 1.8928e-06 3.92431e-07
1.8928e-06 0.000142421 2.71441e-07
3.92431e-07 2.71441e-07 0.000125184

0.000159437 -1.3868e-06 -2.80884e-07
-1.3868e-06 0.000124318 1.94861e-07
-2.80884e-07 1.94861e-07 0.000126342

9.83265e-05 1.42788e-05 1.17714e-07
1.42788e-05 9.22222e-05 -6.26414e-08
1.17714e-07 -6.26414e-08 9.62395e-05

0.000114773 5.42039e-06 -6.91429e-08
5.42039e-06 8.79878e-05 2.707e-08
-6.91429e-08 2.707e-08 0.000100539

8.04109e-05 1.22163e-05 -1.19251e-07
1.22163e-05 8.69096e-05 4.64484e-08
-1.19251e-07 4.64484e-08 7.66884e-05

0.000123032 2.65367e-06 -1.98768e-08
2.65367e-06 0.000131839 -7.85932e-09
-1.98768e-08 -7.85932e-09 0.000124889

0.000124709 6.58102e-06 6.45416e-08
6.58102e-06 0.000150832 2.82723e-08
6.45416e-08 2.82723e-08 0.000124029

0.000126851 7.70343e-06 5.02134e-08
7.70343e-06 9.77779e-05 2.91738e-09
5.02134e-08 2.91738e-09 0.000117251

9.20127e-05 -3.07205e-06 -1.01672e-07
-3.07205e-06 0.000122786 -4.05481e-08
-1.01672e-07 -4.05481e-08 0.000108677

0.000103266 -6.74645e-06 -8.77025e-08
-6.74645e-06 0.000115779 4.86627e-08
-8.77025e-08 4.86627e-08 0.000108402

0.000124388 2.09198e-06 1.01698e-07
2.09198e-06 8.67228e-05 3.75226e-08
1.01698e-07 3.75226e-08 0.000109156

0.000125358 -1.84075e-06 -1.00011e-07
-1.84075e-06 8.59485e-05 -2.977e-08
-1.00011e-07 -2.977e-08 0.000108906

8.6327e-05 -1.20324e-05 1.51968e-07
-1.20324e-05 8.08225e-05 -1.75938e-07
1.51968e-07 -1.75938e-07 7.56621e-05

0.000111543 2.37647e-07 -1.37064e-07
2.37647e-07 7.89658e-05 -1.66921e-08
-1.37064e-07 -1.66921e-08 9.21395e-05

0.0001244 -2.19452e-06 3.13321e-08
-2.19452e-06 9.69099e-05 -2.99113e-08
3.13321e-08 -2.99113e-08 0.000114194

0.000121222 3.77037e-06 3.62624e-08
3.77037e-06 9.96592e-05 8.15047e-08
3.62624e-08 8.15047e-08 0.000114459

0.00011487 -5.10313e-06 1.02955e-09
-5.10313e-06 9.07023e-05 2.4439e-08
1.02955e-09 2.4439e-08 0.000100179

8.73791e-05 -1.44488e-05 7.59981e-08
-1.44488e-05 0.00010383 -2.88243e-08
7.59981e-08 -2.88243e-08 9.19173e-05

0.000125292 -1.25145e-06 -7.81265e-08
-1.25145e-06 9.39482e-05 8.49751e-08
-7.81265e-08 8.49751e-08 0.000109757

0.000123931 2.47236e-06 8.26682e-08
2.47236e-06 9.39091e-05 1.30439e-07
8.26682e-08 1.30439e-07 0.000110145

0.000112046 5.7794e-06 -8.32306e-08
5.7794e-06 8.80187e-05 -3.77585e-08
-8.32306e-08 -3.77585e-08 0.000102616

8.52417e-05 -1.83434e-05 -9.39123e-08
-1.83434e-05 8.3454e-05 -2.17908e-08
-9.39123e-08 -2.17908e-08 8.21968e-05

9.42185e-05 1.71762e-05 8.24518e-08
1.71762e-05 0.000111476 1.0233e-07
8.24518e-08 1.0233e-07 0.000110999

9.88764e-05 1.716e-05 -3.28194e-08
1.716e-05 0.000119647 -1.9906e-07
-3.28194e-08 -1.9906e-07 0.000111857

9.22801e-05 1.31416e-05 -5.33169e-08
1.31416e-05 0.000111407 -4.33131e-08
-5.33169e-08 -4.33131e-08 0.000112325

0.000102599 6.59592e-06 -5.98588e-08
6.59592e-06 7.47467e-05 -5.74111e-08
-5.98588e-08 -5.74111e-08 8.57524e-05

7.82209e-05 -1.26793e-05 -7.00126e-08
-1.26793e-05 6.71074e-05 -1.68979e-07
-7.00126e-08 -1.68979e-07 6.74535e-05

0.000110409 1.05627e-05 -8.65782e-08
1.05627e-05 9.58583e-05 -5.33305e-08
-8.65782e-08 -5.33305e-08 0.00010756

0.000112264 -1.16475e-05 -1.37779e-07
-1.16475e-05 8.90498e-05 2.26684e-08
-1.37779e-07 2.26684e-08 0.000100592

8.01373e-05 -1.0838e-05 3.56272e-08
-1.0838e-05 6.64314e-05 5.18517e-08
3.56272e-08 5.18517e-08 6.79835e-05

0.000100289 -1.79565e-05 8.37967e-08
-1.79565e-05 8.82935e-05 2.08806e-08
8.37967e-08 2.08806e-08 9.54171e-05

9.09066e-05 5.03464e-07 1.75705e-07
5.03464e-07 0.000111581 -8.82204e-08
1.75705e-07 -8.82204e-08 0.00010469

8.12664e-05 6.13284e-07 -3.71718e-08
6.13284e-07 0.000121857 -7.40664e-08
-3.71718e-08 -7.40664e-08 0.000105116

8.66227e-05 1.5355e-05 -1.43042e-07
1.5355e-05 8.74591e-05 2.47101e-08
-1.43042e-07 2.47101e-08 8.435e-05

8.6403e-05 -1.27864e-05 1.45135e-07
-1.27864e-05 6.82865e-05 2.7862e-09
1.45135e-07 2.7862e-09 7.27313e-05

0.000101125 -1.89118e-05 8.95428e-08
-1.89118e-05 0.000106404 -2.72696e-08
8.95428e-08 -2.72696e-08 0.000110297

8.55386e-05 -1.68898e-05 -4.03166e-08
-1.68898e-05 9.44614e-05 2.81011e-07
-4.03166e-08 2.81011e-07 8.42992e-05

8.42346e-05 -1.70102e-05 3.33402e-08
-1.70102e-05 9.17405e-05 2.11765e-07
3.33402e-08 2.11765e-07 8.41241e-05

0.000109518 8.63316e-06 -8.00094e-08
8.63316e-06 9.30354e-05 -4.72087e-08
-8.00094e-08 -4.72087e-08 0.000101378

0.000129672 5.46371e-06 7.18389e-08
5.46371e-06 8.07944e-05 1.30946e-07
7.18389e-08 1.30946e-07 0.000116641

0.000127681 -8.44486e-06 -7.23875e-08
-8.44486e-06 8.65205e-05 9.17793e-08
-7.23875e-08 9.17793e-08 0.00011564

7.86383e-05 9.54401e-06 -6.23612e-08
9.54401e-06 0.000100697 -9.81298e-08
-6.23612e-08 -9.81298e-08 8.63368e-05

7.3173e-05 6.27453e-06 6.79936e-08
6.27453e-06 0.000103509 1.6561e-07
6.79936e-08 1.6561e-07 8.72493e-05

6.53e-05 -1.14244e-06 2.85679e-08
-1.14244e-06 9.40145e-05 6.98838e-08
2.85679e-08 6.98838e-08 7.52338e-05

6.22751e-05 -1.80664e-06 6.19865e-08
-1.80664e-06 9.64074e-05 -8.70221e-08
6.19865e-08 -8.70221e-08 7.5602e-05

9.46922e-05 -1.25976e-06 3.89918e-08
-1.25976e-06 6.36119e-05 8.11874e-08
3.89918e-08 8.11874e-08 7.41007e-05

9.1697e-05 -1.55809e-05 -8.29904e-08
-1.55809e-05 8.2738e-05 4.57584e-08
-8.29904e-08 4.57584e-08 8.40241e-05

0.000124306 -1.13519e-05 9.89939e-08
-1.13519e-05 0.000140594 -4.55548e-08
9.89939e-08 -4.55548e-08 0.000126747

0.000157062 -5.99473e-06 4.59756e-07
-5.99473e-06 0.000155555 -9.70553e-08
4.59756e-07 -9.70553e-08 0.000125599

9.59509e-05 1.06207e-05 7.42712e-08
1.06207e-05 7.75844e-05 -1.73297e-07
7.42712e-08 -1.73297e-07 8.43082e-05

0.000104392 -7.2065e-06 -2.25922e-08
-7.2065e-06 7.51795e-05 3.34318e-09
-2.25922e-08 3.34318e-09 8.65064e-05

8.09012e-05 7.17944e-06 1.16364e-07
7.17944e-06 6.54948e-05 9.83008e-08
1.16364e-07 9.83008e-08 6.86991e-05

8.70331e-05 1.18271e-05 -6.68834e-08
1.18271e-05 0.000110362 1.76199e-08
-6.68834e-08 1.76199e-08 0.000104313

0.000123348 -7.79332e-08 2.6192e-08
-7.79332e-08 8.44375e-05 -1.23742e-07
2.6192e-08 -1.23742e-07 0.000104024

9.9937e-05 1.70861e-05 1.11315e-07
1.70861e-05 0.000120107 3.89745e-08
1.11315e-07 3.89745e-08 0.000114703

8.91611e-05 1.3466e-05 -4.27042e-08
1.3466e-05 0.000124662 -6.63237e-08
-4.27042e-08 -6.63237e-08 0.000115515

7.71069e-05 8.85e-06 -9.90475e-09
8.85e-06 8.69684e-05 -2.02552e-08
-9.90475e-09 -2.02552e-08 7.62464e-05

8.32161e-05 9.71434e-06 4.88996e-08
9.71434e-06 8.12268e-05 -6.95469e-08
4.88996e-08 -6.95469e-08 7.522e-05

9.72182e-05 -2.0595e-05 1.19387e-07
-2.0595e-05 0.00011725 -2.34479e-07
1.19387e-07 -2.34479e-07 0.00010974

8.18375e-05 5.90092e-06 1.44819e-07
5.90092e-06 6.52472e-05 1.79287e-08
1.44819e-07 1.79287e-08 6.91638e-05

9.30518e-05 1.47781e-05 3.86766e-08
1.47781e-05 0.000109329 -5.52506e-08
3.86766e-08 -5.52506e-08 0.000112931

9.44135e-05 1.84345e-05 8.33374e-08
1.84345e-05 0.000111108 -5.00387e-08
8.33374e-08 -5.00387e-08 0.000102943

0.000131053 -6.74783e-08 2.62424e-08
-6.74783e-08 8.52477e-05 -4.2215e-08
2.62424e-08 -4.2215e-08 0.000111482

9.71684e-05 -1.42676e-05 7.74063e-08
-1.42676e-05 0.000109554 4.8686e-09
7.74063e-08 4.8686e-09 0.000112636

9.7692e-05 1.51288e-05 6.30808e-08
1.51288e-05 9.95604e-05 2.10247e-07
6.30808e-08 2.10247e-07 9.7174e-05

7.66017e-05 -7.52736e-06 -1.71607e-08
-7.52736e-06 9.76215e-05 9.59265e-08
-1.71607e-08 9.59265e-08 8.00549e-05

7.2242e-05 -6.85808e-06 -1.55605e-07
-6.85808e-06 9.89284e-05 3.68954e-08
-1.55605e-07 3.68954e-08 8.03287e-05

9.5769e-05 -5.02692e-06 9.56554e-08
-5.02692e-06 7.47149e-05 -3.83706e-08
9.56554e-08 -3.83706e-08 7.85994e-05

9.15613e-05 -1.38879e-05 -8.94936e-08
-1.38879e-05 9.37979e-05 2.27054e-07
-8.94936e-08 2.27054e-07 8.69221e-05

8.13958e-05 -4.67299e-07 -4.29895e-08
-4.67299e-07 0.000112944 4.29696e-08
-4.29895e-08 4.29696e-08 9.62626e-05

9.0977e-05 -1.62177e-07 1.76355e-07
-1.62177e-07 0.000109905 -1.01305e-07
1.76355e-07 -1.01305e-07 9.56403e-05

7.48199e-05 -1.48257e-05 1.16537e-07
-1.48257e-05 8.15269e-05 -1.96819e-07
1.16537e-07 -1.96819e-07 7.24179e-05

7.13331e-05 -1.47504e-05 2.34792e-08
-1.47504e-05 8.46111e-05 8.55558e-08
2.34792e-08 8.55558e-08 7.29097e-05

0.000130522 -3.70948e-07 -4.27832e-08
-3.70948e-07 8.73901e-05 6.24524e-08
-4.27832e-08 6.24524e-08 0.000111711

0.000131565 7.7099e-07 4.80443e-08
7.7099e-07 8.66216e-05 -6.25343e-09
4.80443e-08 -6.25343e-09 0.000111556

9.3008e-05 1.38379e-05 -5.30237e-08
1.38379e-05 0.000107551 1.16955e-08
-5.30237e-08 1.16955e-08 0.000105809

8.91797e-05 -1.19238e-05 9.57763e-08
-1.19238e-05 0.000122413 -8.25706e-08
9.57763e-08 -8.25706e-08 0.000115164

0.000108977 -1.83811e-05 -3.38437e-08
-1.83811e-05 9.94333e-05 9.48032e-08
-3.38437e-08 9.48032e-08 0.000106808

0.000115691 7.13284e-06 -7.12292e-08
7.13284e-06 0.000107646 1.35915e-08
-7.12292e-08 1.35915e-08 0.000115859

0.000117392 -2.21898e-06 -3.56172e-08
-2.21898e-06 0.000110535 -1.55827e-07
-3.56172e-08 -1.55827e-07 0.000115483

0.000112514 -7.4054e-06 -8.03484e-08
-7.4054e-06 0.000104362 1.36135e-08
-8.03484e-08 1.36135e-08 0.00010688

0.000112049 9.13199e-06 7.0656e-08
9.13199e-06 9.94212e-05 -4.65947e-08
7.0656e-08 -4.65947e-08 0.000107423

5.24456e-05 -8.12013e-06 4.67461e-08
-8.12013e-06 3.5449e-05 -4.7713e-08
4.67461e-08 -4.7713e-08 5.62791e-05

8.27362e-05 1.42127e-05 -2.65012e-08
1.42127e-05 9.20289e-05 -3.76012e-08
-2.65012e-08 -3.76012e-08 8.46385e-05

4.02205e-05 5.11085e-06 -2.29956e-08
5.11085e-06 5.16911e-05 -2.25906e-08
-2.29956e-08 -2.25906e-08 5.62458e-05

9.66943e-05 1.64558e-05 -1.24273e-07
1.64558e-05 0.000106765 -1.02336e-07
-1.24273e-07 -1.02336e-07 0.000102766

7.88385e-05 -1.17885e-05 2.23925e-08
-1.17885e-05 0.000103245 -2.11822e-08
2.23925e-08 -2.11822e-08 8.73595e-05

7.39923e-05 -9.84354e-06 -9.94282e-08
-9.84354e-06 0.000102692 -1.07875e-07
-9.94282e-08 -1.07875e-07 8.76243e-05

0.000129031 -4.07097e-06 3.35297e-07
-4.07097e-06 0.000124684 6.48342e-08
3.35297e-07 6.48342e-08 0.000124174

0.000122714 9.73932e-06 2.20093e-07
9.73932e-06 0.000133017 7.23683e-08
2.20093e-07 7.23683e-08 0.000124249

0.000102539 1.0596e-05 3.16685e-08
1.0596e-05 9.3962e-05 -1.11433e-08
3.16685e-08 -1.11433e-08 9.79688e-05

0.000111553 -9.56369e-07 -1.36874e-07
-9.56369e-07 8.00351e-05 -6.33325e-08
-1.36874e-07 -6.33325e-08 9.21245e-05

9.14988e-05 1.22033e-05 1.04279e-08
1.22033e-05 8.10853e-05 -9.37155e-08
1.04279e-08 -9.37155e-08 8.36806e-05

8.54087e-05 -7.37229e-06 5.10153e-08
-7.37229e-06 0.000120133 3.60732e-08
5.10153e-08 3.60732e-08 0.000106109

9.33148e-05 -1.13126e-05 -1.41396e-07
-1.13126e-05 0.000113691 2.25554e-08
-1.41396e-07 2.25554e-08 0.000105637

9.68686e-05 -2.1075e-05 1.699e-08
-2.1075e-05 0.000123081 6.61127e-08
1.699e-08 6.61127e-08 0.000111346

0.000102454 -1.15348e-05 1.06745e-08
-1.15348e-05 9.81938e-05 -3.26382e-08
1.06745e-08 -3.26382e-08 9.747e-05

9.65885e-05 1.94836e-05 -1.49514e-07
1.94836e-05 0.00011794 -1.81914e-08
-1.49514e-07 -1.81914e-08 0.000111152

0.00011219 9.29299e-06 -5.74145e-08
9.29299e-06 0.00012511 -6.53619e-08
-5.74145e-08 -6.53619e-08 0.000117907

0.000113537 1.37416e-05 -6.69803e-08
1.37416e-05 0.000120486 5.06336e-08
-6.69803e-08 5.06336e-08 0.000117798

9.43252e-05 -1.84664e-05 -1.28028e-07
-1.84664e-05 0.000115743 -8.78817e-08
-1.28028e-07 -8.78817e-08 0.000104863

9.61364e-05 1.67834e-05 -1.63854e-07
1.67834e-05 0.00011213 4.58233e-08
-1.63854e-07 4.58233e-08 0.000104562

8.42879e-05 2.10206e-05 2.71538e-08
2.10206e-05 0.0001129 -3.60214e-08
2.71538e-08 -3.60214e-08 0.000112719

7.54062e-05 1.55882e-06 1.50139e-07
1.55882e-06 0.000112507 -6.17019e-08
1.50139e-07 -6.17019e-08 9.37654e-05

8.10605e-05 4.95828e-06 -1.17652e-07
4.95828e-06 0.000107267 5.81649e-08
-1.17652e-07 5.81649e-08 9.2861e-05

0.000101097 1.26778e-05 2.08405e-09
1.26778e-05 9.86231e-05 -3.66493e-08
2.08405e-09 -3.66493e-08 0.000103714

9.1255e-05 1.06919e-05 1.14012e-08
1.06919e-05 8.9438e-05 -7.93878e-08
1.14012e-08 -7.93878e-08 8.75838e-05

8.31732e-05 -1.20087e-05 -4.13055e-08
-1.20087e-05 0.000110824 -7.61487e-08
-4.13055e-08 -7.61487e-08 9.91217e-05

0.000100293 -1.9738e-05 1.01661e-07
-1.9738e-05 0.000122001 2.90539e-08
1.01661e-07 2.90539e-08 0.000114028

5.8531e-05 6.64912e-06 2.70688e-08
6.64912e-06 6.70305e-05 -6.47451e-08
2.70688e-08 -6.47451e-08 5.93173e-05

6.60334e-05 6.76748e-06 -1.10172e-07
6.76748e-06 5.97279e-05 6.85079e-08
-1.10172e-07 6.85079e-08 5.93239e-05

7.81067e-05 -1.48999e-05 -1.23697e-07
-1.48999e-05 8.20503e-05 -1.7485e-09
-1.23697e-07 -1.7485e-09 7.44548e-05

0.000100724 -1.35136e-05 -4.87544e-08
-1.35136e-05 0.000102843 1.81776e-08
-4.87544e-08 1.81776e-08 0.00010306

0.000114952 -4.202e-06 -5.14118e-09
-4.202e-06 8.25598e-05 -1.34971e-07
-5.14118e-09 -1.34971e-07 9.91907e-05

0.000136113 1.377e-05 -1.70726e-07
1.377e-05 0.000143842 -6.37868e-08
-1.70726e-07 -6.37868e-08 0.000127023

0.000149413 -1.54242e-05 -1.37879e-07
-1.54242e-05 0.000125268 2.48854e-07
-1.37879e-07 2.48854e-07 0.000127041

9.32702e-05 -2.02468e-05 1.11812e-07
-2.02468e-05 0.000114256 2.92336e-08
1.11812e-07 2.92336e-08 0.000103773

0.000126387 3.51531e-06 1.32781e-07
3.51531e-06 0.000117303 7.22912e-08
1.32781e-07 7.22912e-08 0.000122694

0.000128755 -1.50661e-05 6.90162e-09
-1.50661e-05 0.000128366 8.00429e-08
6.90162e-09 8.00429e-08 0.00012182

0.00011385 -4.98697e-06 6.30609e-08
-4.98697e-06 8.45727e-05 1.52787e-07
6.30609e-08 1.52787e-07 0.000104096

8.79273e-05 -2.09453e-05 4.56805e-08
-2.09453e-05 0.000113135 -4.83152e-08
4.56805e-08 -4.83152e-08 0.000112317

6.22583e-05 -1.30273e-05 4.76449e-08
-1.30273e-05 6.74828e-05 -1.48188e-07
4.76449e-08 -1.48188e-07 6.18778e-05

6.6361e-05 9.65443e-06 -3.93352e-08
9.65443e-06 6.57151e-05 9.20974e-08
-3.93352e-08 9.20974e-08 6.2168e-05

6.13803e-05 -7.53175e-06 -1.16678e-07
-7.53175e-06 7.90268e-05 6.57732e-09
-1.16678e-07 6.57732e-09 6.56801e-05

6.29126e-05 -8.60673e-06 6.39905e-08
-8.60673e-06 8.08169e-05 4.44153e-08
6.39905e-08 4.44153e-08 6.68545e-05

8.13605e-05 -6.83776e-06 -5.68173e-08
-6.83776e-06 6.15304e-05 1.95034e-07
-5.68173e-08 1.95034e-07 6.54381e-05

8.13151e-05 1.13767e-05 -5.27093e-08
1.13767e-05 7.96015e-05 -2.14332e-07
-5.27093e-08 -2.14332e-07 7.53742e-05

9.59515e-05 -2.23828e-05 -1.85996e-08
-2.23828e-05 0.000121255 7.98334e-09
-1.85996e-08 7.98334e-09 0.00011089

5.40367e-05 6.69991e-07 5.47065e-08
6.69991e-07 7.75025e-05 1.23596e-08
5.47065e-08 1.23596e-08 6.20219e-05

7.53783e-05 -2.96501e-06 8.92119e-08
-2.96501e-06 5.3498e-05 -4.42137e-08
8.92119e-08 -4.42137e-08 6.23878e-05

0.000115632 1.67642e-06 9.58589e-09
1.67642e-06 0.000136263 1.90511e-07
9.58589e-09 1.90511e-07 0.000121151

0.000117835 -9.14571e-06 -1.71541e-07
-9.14571e-06 0.000126247 -1.63192e-07
-1.71541e-07 -1.63192e-07 0.000121468

0.00011895 -1.0509e-05 3.74694e-08
-1.0509e-05 9.74097e-05 1.15537e-07
3.74694e-08 1.15537e-07 0.000109497

0.00012368 -9.11848e-07 -8.25919e-08
-9.11848e-07 7.31599e-05 -1.01482e-07
-8.25919e-08 -1.01482e-07 0.000112621

7.04318e-05 -1.12872e-05 6.26124e-09
-1.12872e-05 9.08822e-05 2.31962e-07
6.26124e-09 2.31962e-07 7.79202e-05

7.36151e-05 -1.11418e-05 6.40403e-08
-1.11418e-05 9.32477e-05 1.92989e-07
6.40403e-08 1.92989e-07 7.8157e-05

0.000115628 -6.40582e-07 1.6895e-08
-6.40582e-07 8.3462e-05 -7.86951e-08
1.6895e-08 -7.86951e-08 0.000104725

8.74867e-05 -1.54542e-05 6.97557e-08
-1.54542e-05 0.000110298 6.20562e-08
6.97557e-08 6.20562e-08 9.88258e-05

0.000126738 -1.67272e-07 1.37397e-07
-1.67272e-07 0.000118668 2.98049e-07
1.37397e-07 2.98049e-07 0.000121704

0.000120959 4.5576e-06 4.1566e-08
4.5576e-06 0.000123242 -1.38018e-07
4.1566e-08 -1.38018e-07 0.000121857

0.000112287 -1.47704e-05 -2.11579e-07
-1.47704e-05 0.000102796 -2.49201e-08
-2.11579e-07 -2.49201e-08 0.000108343

9.53275e-05 -1.50923e-05 1.29348e-08
-1.50923e-05 0.000104093 8.79914e-09
1.29348e-08 8.79914e-09 0.000105

0.000118989 -1.06248e-05 4.68495e-08
-1.06248e-05 8.6303e-05 -7.05426e-08
4.68495e-08 -7.05426e-08 0.000107333

8.99653e-05 -1.27321e-05 -8.18285e-08
-1.27321e-05 0.000109524 -5.35827e-08
-8.18285e-08 -5.35827e-08 0.000104314

4.98078e-05 -2.48201e-05 -1.53114e-07
-2.48201e-05 5.25826e-05 -1.6522e-07
-1.53114e-07 -1.6522e-07 5.20441e-05

8.34887e-05 -5.80857e-06 -4.94447e-08
-5.80857e-06 0.000106856 -1.80842e-07
-4.94447e-08 -1.80842e-07 9.31515e-05

7.7747e-05 -3.85918e-06 -2.71648e-08
-3.85918e-06 0.000111007 4.85437e-08
-2.71648e-08 4.85437e-08 9.36961e-05

0.00011148 -2.75036e-06 5.46097e-08
-2.75036e-06 0.000148874 1.53949e-08
5.46097e-08 1.53949e-08 0.000121713

0.000119232 -2.41465e-06 1.18481e-09
-2.41465e-06 0.000125084 1.94486e-08
1.18481e-09 1.94486e-08 0.000122327

0.000132302 -1.37645e-06 3.17499e-08
-1.37645e-06 9.09735e-05 1.50328e-08
3.17499e-08 1.50328e-08 0.000115197

0.00012942 1.01774e-06 -5.62723e-08
1.01774e-06 9.28822e-05 4.48703e-08
-5.62723e-08 4.48703e-08 0.000115349

0.000113197 1.11092e-05 -2.49888e-07
1.11092e-05 0.000107762 6.43106e-08
-2.49888e-07 6.43106e-08 0.000115013

0.000116903 -1.95836e-05 -1.16546e-07
-1.95836e-05 0.000106263 -6.89071e-08
-1.16546e-07 -6.89071e-08 0.00011398

0.000125888 3.84147e-06 1.4195e-07
3.84147e-06 0.000123553 3.3297e-08
1.4195e-07 3.3297e-08 0.000121371

0.000132915 -6.96674e-06 -1.11616e-08
-6.96674e-06 0.000121255 2.50715e-09
-1.11616e-08 2.50715e-09 0.000120799

0.000135778 -8.04011e-06 -1.1765e-08
-8.04011e-06 0.000126179 2.56231e-07
-1.1765e-08 2.56231e-07 0.000126112

0.00013347 2.17315e-05 -8.07246e-08
2.17315e-05 0.00014292 -6.90517e-08
-8.07246e-08 -6.90517e-08 0.000126159

0.000101192 -2.00374e-05 -4.17604e-08
-2.00374e-05 0.000122487 7.79597e-08
-4.17604e-08 7.79597e-08 0.00011492

9.59536e-05 2.52976e-05 -1.15783e-08
2.52976e-05 0.000113777 -6.62055e-08
-1.15783e-08 -6.62055e-08 0.000116339

0.000103178 9.90462e-06 2.65239e-08
9.90462e-06 8.6886e-05 1.24134e-08
2.65239e-08 1.24134e-08 9.58709e-05

8.50596e-05 -8.99909e-06 4.24163e-08
-8.99909e-06 0.000113959 -2.12669e-08
4.24163e-08 -2.12669e-08 9.99812e-05

9.28141e-05 -1.29702e-05 -1.56335e-07
-1.29702e-05 0.000111409 -6.46982e-08
-1.56335e-07 -6.46982e-08 9.94358e-05

0.000103328 -1.03678e-05 2.33223e-08
-1.03678e-05 8.93327e-05 2.7942e-08
2.33223e-08 2.7942e-08 9.56061e-05

9.25383e-05 9.86998e-06 -1.00736e-07
9.86998e-06 0.000109344 6.61988e-08
-1.00736e-07 6.61988e-08 9.88177e-05

8.48658e-05 5.2739e-06 8.80879e-08
5.2739e-06 0.000113566 -9.88216e-08
8.80879e-08 -9.88216e-08 9.97995e-05

9.42155e-05 1.40434e-05 8.23549e-08
1.40434e-05 9.29562e-05 -2.07226e-08
8.23549e-08 -2.07226e-08 9.43343e-05

0.000104583 1.65094e-05 -7.66053e-08
1.65094e-05 0.000118373 -2.15354e-07
-7.66053e-08 -2.15354e-07 0.000115563

0.000103429 -2.21107e-05 -1.52923e-07
-2.21107e-05 0.000113198 6.45576e-08
-1.52923e-07 6.45576e-08 0.000115808

9.50492e-05 -1.69702e-05 1.75885e-07
-1.69702e-05 9.6521e-05 -3.78221e-09
1.75885e-07 -3.78221e-09 9.37622e-05

0.000120213 5.02788e-06 -3.13161e-08
5.02788e-06 9.85856e-05 -7.34038e-08
-3.13161e-08 -7.34038e-08 0.000111586

0.000156082 -7.00773e-06 -1.68545e-07
-7.00773e-06 0.000154693 -2.01974e-07
-1.68545e-07 -2.01974e-07 0.00012537

0.000127787 4.41422e-06 -1.93029e-07
4.41422e-06 0.000132582 3.97961e-07
-1.93029e-07 3.97961e-07 0.000126589

0.000101067 -1.69392e-05 7.94261e-09
-1.69392e-05 0.00011776 -7.93576e-08
7.94261e-09 -7.93576e-08 0.000109069

0.000112023 -1.6935e-05 -2.07697e-07
-1.6935e-05 9.37409e-05 2.91422e-08
-2.07697e-07 2.91422e-08 0.000105703

0.000129286 -1.26684e-06 -1.1164e-07
-1.26684e-06 0.000111475 -9.24633e-10
-1.1164e-07 -9.24633e-10 0.000118503

6.23875e-05 -1.17266e-05 -1.40404e-07
-1.17266e-05 6.79122e-05 2.31801e-07
-1.40404e-07 2.31801e-07 5.99931e-05

6.78182e-05 -1.0885e-05 -1.72725e-07
-1.0885e-05 6.12421e-05 1.90623e-07
-1.72725e-07 1.90623e-07 6.02186e-05

0.000132654 1.18894e-06 -4.00184e-09
1.18894e-06 9.68017e-05 -2.9357e-08
-4.00184e-09 -2.9357e-08 0.000116985

0.000127596 -6.23556e-07 -8.30315e-08
-6.23556e-07 9.92673e-05 7.6347e-08
-8.30315e-08 7.6347e-08 0.000117107

0.000131122 -2.6051e-07 1.16117e-07
-2.6051e-07 0.000103006 -2.10521e-08
1.16117e-07 -2.10521e-08 0.000119529

0.000102633 7.29751e-06 -5.98004e-08
7.29751e-06 8.31248e-05 -5.54234e-08
-5.98004e-08 -5.54234e-08 8.83332e-05

0.000108215 -1.0625e-05 9.2365e-08
-1.0625e-05 0.000116141 -5.66213e-08
9.2365e-08 -5.66213e-08 0.000112282

0.000108302 1.29019e-05 1.07463e-07
1.29019e-05 0.000109066 1.41039e-07
1.07463e-07 1.41039e-07 0.000112995

0.00014791 -1.17728e-05 -2.74803e-08
-1.17728e-05 0.000120531 -1.94043e-07
-2.74803e-08 -1.94043e-07 0.000126901

0.000148244 -5.9363e-08 1.01066e-07
-5.9363e-08 0.000164364 -6.23429e-07
1.01066e-07 -6.23429e-07 0.000125645

9.36385e-05 -1.89084e-05 9.94709e-08
-1.89084e-05 0.00011738 -4.24553e-08
9.94709e-08 -4.24553e-08 0.000107815

0.000110431 -1.34821e-05 -1.54537e-07
-1.34821e-05 8.93386e-05 -1.21372e-08
-1.54537e-07 -1.21372e-08 9.96846e-05

0.000121267 2.72798e-06 4.08806e-08
2.72798e-06 0.000110702 -1.05888e-07
4.08806e-08 -1.05888e-07 0.000116398

0.000124504 2.37156e-07 3.00953e-08
2.37156e-07 0.00010759 -8.51439e-08
3.00953e-08 -8.51439e-08 0.000116124

9.4839e-05 -8.20891e-06 -7.93621e-08
-8.20891e-06 0.0001167 1.27142e-07
-7.93621e-08 1.27142e-07 0.000109895

9.31485e-05 -1.33483e-05 1.1506e-07
-1.33483e-05 0.000111279 -5.646e-08
1.1506e-07 -5.646e-08 0.000111904

5.37819e-05 2.11135e-05 1.86824e-07
2.11135e-05 4.98579e-05 3.7944e-08
1.86824e-07 3.7944e-08 5.25128e-05

0.000108813 1.13235e-05 -2.17801e-07
1.13235e-05 0.000122648 5.68138e-08
-2.17801e-07 5.68138e-08 0.000117894

0.000108504 -1.52058e-05 -1.90583e-07
-1.52058e-05 0.000119959 -1.38074e-08
-1.90583e-07 -1.38074e-08 0.000117569

8.98153e-05 -1.26312e-05 -4.4406e-08
-1.26312e-05 0.000114477 1.37765e-07
-4.4406e-08 1.37765e-07 0.00010896

0.00010456 -8.85931e-06 -2.68099e-08
-8.85931e-06 8.60766e-05 6.85882e-08
-2.68099e-08 6.85882e-08 8.90002e-05

0.000110257 9.75523e-06 -7.13626e-08
9.75523e-06 0.000107257 1.82441e-07
-7.13626e-08 1.82441e-07 0.000109442

0.000113002 1.04033e-05 -2.4123e-07
1.04033e-05 0.000115857 3.16878e-08
-2.4123e-07 3.16878e-08 0.000115434

0.000119253 -1.61714e-05 -1.25199e-07
-1.61714e-05 0.000106039 -9.43178e-08
-1.25199e-07 -9.43178e-08 0.000115021

0.000120182 4.10123e-06 -3.02539e-08
4.10123e-06 8.55809e-05 -1.76965e-08
-3.02539e-08 -1.76965e-08 0.000109348

0.000126594 -1.45502e-06 -1.04216e-07
-1.45502e-06 0.000115754 -2.89468e-08
-1.04216e-07 -2.89468e-08 0.000120519

0.00013146 2.8098e-06 2.25215e-08
2.8098e-06 0.000110182 -1.61188e-07
2.25215e-08 -1.61188e-07 0.000120455

0.000125215 6.32666e-06 -1.86224e-07
6.32666e-06 0.000159449 -1.84017e-07
-1.86224e-07 -1.84017e-07 0.000124582

0.000123551 9.80448e-07 2.26699e-07
9.80448e-07 0.000143928 -2.83632e-08
2.26699e-07 -2.83632e-08 0.000125642

5.36573e-05 -5.23328e-06 -5.82183e-08
-5.23328e-06 3.93663e-05 -2.42165e-07
-5.82183e-08 -2.42165e-07 5.62709e-05

3.58205e-05 -3.0383e-06 -2.08079e-07
-3.0383e-06 5.63145e-05 -2.42871e-07
-2.08079e-07 -2.42871e-07 5.62575e-05

0.000100873 -1.66435e-05 2.29344e-07
-1.66435e-05 0.000121476 -1.03209e-07
2.29344e-07 -1.03209e-07 0.000111135

0.000100452 1.47411e-05 1.69138e-07
1.47411e-05 0.000109135 5.46617e-09
1.69138e-07 5.46617e-09 0.000112303

9.64786e-05 -2.22499e-05 7.18748e-08
-2.22499e-05 0.000121208 -4.71701e-09
7.18748e-08 -4.71701e-09 0.000110509

5.0351e-05 5.98853e-06 1.84909e-07
5.98853e-06 5.00104e-05 2.10452e-08
1.84909e-07 2.10452e-08 5.51683e-05

5.19248e-05 8.46963e-06 -7.34259e-08
8.46963e-06 4.60025e-05 -2.18874e-09
-7.34259e-08 -2.18874e-09 5.52907e-05

0.000105127 1.82303e-05 -4.30249e-07
1.82303e-05 0.000161312 1.71987e-07
-4.30249e-07 1.71987e-07 0.000127436

0.000123215 -1.47321e-05 -4.12493e-07
-1.47321e-05 0.000148149 -6.29965e-10
-4.12493e-07 -6.29965e-10 0.000127447

0.00010443 1.32004e-05 2.03267e-07
1.32004e-05 0.00010565 -5.45225e-08
2.03267e-07 -5.45225e-08 0.000107579

9.38564e-05 -1.60984e-05 1.11451e-07
-1.60984e-05 0.000102991 -1.13969e-07
1.11451e-07 -1.13969e-07 9.63214e-05

0.000100903 -1.59424e-05 2.10242e-07
-1.59424e-05 0.000112587 4.72478e-09
2.10242e-07 4.72478e-09 0.000109289

0.000101029 1.644e-05 1.84148e-07
1.644e-05 0.000107353 1.01164e-07
1.84148e-07 1.01164e-07 0.000110224

9.4414e-05 -1.87068e-05 -9.05746e-08
-1.87068e-05 0.000108931 1.54111e-07
-9.05746e-08 1.54111e-07 0.000101915

9.28862e-05 1.31526e-05 1.85778e-08
1.31526e-05 9.98188e-05 8.76204e-08
1.85778e-08 8.76204e-08 9.69681e-05

6.07078e-05 -7.06535e-06 9.12242e-08
-7.06535e-06 8.11509e-05 4.71665e-08
9.12242e-08 4.71665e-08 6.71384e-05

6.40937e-05 -5.70865e-06 2.38896e-08
-5.70865e-06 7.9816e-05 4.46947e-08
2.38896e-08 4.46947e-08 6.65981e-05

8.1937e-05 -4.97737e-06 -7.81829e-08
-4.97737e-06 6.28302e-05 6.50609e-08
-7.81829e-08 6.50609e-08 6.61857e-05

9.29199e-05 1.44532e-05 -4.86346e-08
1.44532e-05 0.000103556 -1.0827e-08
-4.86346e-08 -1.0827e-08 0.000102708

5.40696e-05 -7.38644e-07 1.38734e-08
-7.38644e-07 7.58735e-05 1.4693e-07
1.38734e-08 1.4693e-07 6.2256e-05

7.50459e-05 1.60838e-06 1.87804e-07
1.60838e-06 5.66004e-05 -1.63468e-07
1.87804e-07 -1.63468e-07 6.19329e-05

0.000105368 -1.54393e-05 -1.82945e-07
-1.54393e-05 0.000120763 -1.57793e-08
-1.82945e-07 -1.57793e-08 0.000115085

0.000106695 1.89676e-05 -1.4439e-08
1.89676e-05 0.000110535 -3.00214e-08
-1.4439e-08 -3.00214e-08 0.000116085

0.000107102 -1.23268e-05 -1.2036e-07
-1.23268e-05 0.000121807 1.97888e-07
-1.2036e-07 1.97888e-07 0.000116019

0.000107386 1.65536e-05 -2.02609e-08
1.65536e-05 0.000118972 -9.84011e-09
-2.02609e-08 -9.84011e-09 0.000116704

4.72655e-05 -1.08915e-05 -1.50999e-07
-1.08915e-05 4.81387e-05 -1.88062e-07
-1.50999e-07 -1.88062e-07 5.42472e-05

4.72646e-05 -1.03535e-05 -2.61975e-07
-1.03535e-05 5.01246e-05 -1.55902e-07
-2.61975e-07 -1.55902e-07 5.44077e-05

0.000100859 1.3452e-05 1.32303e-09
1.3452e-05 0.000103152 -3.00406e-08
1.32303e-09 -3.00406e-08 0.000105819

0.000100378 -1.47146e-05 -3.20319e-08
-1.47146e-05 0.00011111 1.76465e-07
-3.20319e-08 1.76465e-07 0.000104946

0.000122919 -2.63781e-06 -1.24716e-07
-2.63781e-06 0.000136741 1.98332e-07
-1.24716e-07 1.98332e-07 0.000122556

0.000122331 -4.27991e-06 2.01514e-07
-4.27991e-06 0.000125665 -1.84915e-07
2.01514e-07 -1.84915e-07 0.000123317

0.000103466 -1.58601e-05 -1.1509e-07
-1.58601e-05 0.000127768 -1.31856e-07
-1.1509e-07 -1.31856e-07 0.000117264

0.000100038 1.75039e-05 -2.02294e-08
1.75039e-05 0.000122636 -3.92047e-08
-2.02294e-08 -3.92047e-08 0.00011819

0.000126765 -6.39905e-07 9.11933e-08
-6.39905e-07 0.000107804 -1.23287e-07
9.11933e-08 -1.23287e-07 0.000120215

0.000121308 3.60427e-06 3.82093e-08
3.60427e-06 0.000111779 -1.07554e-07
3.82093e-08 -1.07554e-07 0.00012036

0.000103606 1.47273e-05 2.29211e-07
1.47273e-05 0.000115291 -1.67695e-09
2.29211e-07 -1.67695e-09 0.000111477

0.00010651 -1.57465e-05 3.06183e-08
-1.57465e-05 0.000106025 -9.99104e-08
3.06183e-08 -9.99104e-08 0.00011092

0.000117241 -6.93486e-06 -2.30418e-07
-6.93486e-06 0.000139185 4.07666e-07
-2.30418e-07 4.07666e-07 0.000123892

0.000132839 6.79686e-06 -6.16861e-08
6.79686e-06 0.000124337 -1.06374e-07
-6.16861e-08 -1.06374e-07 0.000124173

0.000141145 -1.5886e-05 2.74649e-07
-1.5886e-05 0.000129563 -1.91129e-07
2.74649e-07 -1.91129e-07 0.000123317

0.000116373 -2.89771e-06 5.60807e-08
-2.89771e-06 0.000155235 -2.60286e-07
5.60807e-08 -2.60286e-07 0.000123251

0.000128161 4.27551e-06 -1.32713e-07
4.27551e-06 0.000123421 -5.01713e-08
-1.32713e-07 -5.01713e-08 0.000123884

0.000119782 1.53433e-07 -4.55965e-07
1.53433e-07 0.000138225 2.48966e-07
-4.55965e-07 2.48966e-07 0.000126118

0.000135624 -4.63829e-06 -2.55778e-07
-4.63829e-06 0.000118967 4.60939e-08
-2.55778e-07 4.60939e-08 0.000123883

0.000134545 -1.53645e-06 -4.60027e-07
-1.53645e-06 0.000125632 -1.42917e-07
-4.60027e-07 -1.42917e-07 0.000126113

0.000124121 -9.52697e-06 3.50268e-07
-9.52697e-06 0.000135774 -6.44195e-07
3.50268e-07 -6.44195e-07 0.000125042

0.000129026 2.41074e-05 3.35627e-07
2.41074e-05 0.000156969 4.44365e-07
3.35627e-07 4.44365e-07 0.00012524

0.000165197 2.48158e-05 1.46161e-08
2.48158e-05 0.000140519 -2.87343e-08
1.46161e-08 -2.87343e-08 0.000127489

0.000184621 -1.40663e-05 -7.77676e-08
-1.40663e-05 9.96297e-05 2.2443e-07
-7.77676e-08 2.2443e-07 0.000127538

0.000129508 -1.13272e-05 -6.98785e-08
-1.13272e-05 0.000128853 -7.34321e-09
-6.98785e-08 -7.34321e-09 0.000124037

0.000116042 -7.95736e-06 6.65711e-08
-7.95736e-06 0.000130295 -9.76991e-08
6.65711e-08 -9.76991e-08 0.000121088

0.000135171 1.88734e-05 -3.46895e-08
1.88734e-05 0.000126984 -1.16958e-07
-3.46895e-08 -1.16958e-07 0.00012431

0.000118027 1.1219e-05 5.99584e-08
1.1219e-05 0.000124364 -5.42822e-08
5.99584e-08 -5.42822e-08 0.000121596

0.000132837 2.14607e-05 -6.2535e-08
2.14607e-05 0.000153076 1.19878e-08
-6.2535e-08 1.19878e-08 0.000126629

0.000133382 -2.67436e-06 -1.23744e-08
-2.67436e-06 0.000125931 2.58946e-07
-1.23744e-08 2.58946e-07 0.000126603

0.000115923 -7.11057e-06 7.1283e-08
-7.11057e-06 0.000127397 -1.55434e-07
7.1283e-08 -1.55434e-07 0.000122121

0.000128757 -5.09237e-06 3.18653e-07
-5.09237e-06 0.00012741 -7.83961e-08
3.18653e-07 -7.83961e-08 0.000124579

0.000119202 1.87038e-05 8.52098e-08
1.87038e-05 0.00013144 2.55131e-07
8.52098e-08 2.55131e-07 0.00012246

0.000122117 1.2181e-05 2.03122e-07
1.2181e-05 0.00013522 2.18411e-07
2.03122e-07 2.18411e-07 0.000124703

9.27413e-05 4.22404e-06 1.28142e-07
4.22404e-06 0.000122508 1.20245e-08
1.28142e-07 1.20245e-08 0.000109738

0.000115183 -1.54504e-06 1.00712e-07
-1.54504e-06 0.000123884 6.90443e-09
1.00712e-07 6.90443e-09 0.00011675

0.000115546 4.13966e-06 -1.02294e-07
4.13966e-06 8.14988e-05 4.32948e-08
-1.02294e-07 4.32948e-08 9.81628e-05

0.000111099 1.30378e-06 -3.36924e-08
1.30378e-06 7.97004e-05 8.37476e-08
-3.36924e-08 8.37476e-08 9.11842e-05

9.25544e-05 4.81945e-06 1.37652e-07
4.81945e-06 0.000133953 -9.85784e-08
1.37652e-07 -9.85784e-08 0.000116121

0.00011566 1.39567e-06 9.25881e-08
1.39567e-06 0.000127847 -8.75966e-08
9.25881e-08 -8.75966e-08 0.000124499

0.000111755 -1.26194e-06 -1.57284e-08
-1.26194e-06 7.97425e-05 -5.66847e-08
-1.57284e-08 -5.66847e-08 9.20303e-05

0.000127731 -1.08516e-06 4.26022e-08
-1.08516e-06 9.07654e-05 -6.86803e-08
4.26022e-08 -6.86803e-08 0.000111097

6.5986e-05 -9.41514e-06 -7.55016e-08
-9.41514e-06 8.724e-05 3.05254e-08
-7.55016e-08 3.05254e-08 7.23826e-05

7.38217e-05 1.5391e-05 -6.36709e-08
1.5391e-05 9.04333e-05 -4.89413e-08
-6.36709e-08 -4.89413e-08 7.49764e-05

8.62415e-05 1.50201e-05 9.72626e-08
1.50201e-05 6.99131e-05 -3.02969e-09
9.72626e-08 -3.02969e-09 7.37221e-05

0.000118524 1.77395e-05 1.25745e-07
1.77395e-05 0.000129105 -4.2201e-08
1.25745e-07 -4.2201e-08 0.000122101

0.000110355 -6.01263e-06 1.9301e-08
-6.01263e-06 0.000127561 3.43129e-08
1.9301e-08 3.43129e-08 0.000118139

0.000101486 1.51127e-05 8.98726e-09
1.51127e-05 0.000109605 6.61538e-09
8.98726e-09 6.61538e-09 0.000101427

0.000109204 1.32777e-05 -3.00146e-08
1.32777e-05 0.000127125 -1.36891e-07
-3.00146e-08 -1.36891e-07 0.000120554

9.08897e-05 -5.12868e-06 -9.35845e-09
-5.12868e-06 0.00013368 5.17355e-08
-9.35845e-09 5.17355e-08 0.000115664

0.000117351 -3.10456e-06 2.05173e-08
-3.10456e-06 8.51804e-05 1.72335e-07
2.05173e-08 1.72335e-07 0.0001041

7.98896e-05 6.81509e-06 -2.98723e-08
6.81509e-06 0.000101171 -1.12845e-07
-2.98723e-08 -1.12845e-07 8.16373e-05

7.06145e-05 -1.8729e-06 -9.11711e-08
-1.8729e-06 9.91401e-05 4.41609e-10
-9.11711e-08 4.41609e-10 7.93829e-05

9.86876e-05 7.69659e-06 6.67674e-08
7.69659e-06 7.41836e-05 1.66162e-08
6.67674e-08 1.66162e-08 7.97551e-05

0.000101617 -7.50628e-06 6.90532e-08
-7.50628e-06 7.6211e-05 -1.93985e-08
6.90532e-08 -1.93985e-08 8.59774e-05

8.50123e-05 1.27918e-05 7.74713e-08
1.27918e-05 0.000104477 -8.4451e-10
7.74713e-08 -8.4451e-10 9.30171e-05

0.000100548 -9.66711e-06 9.63138e-08
-9.66711e-06 0.0001082 1.54252e-07
9.63138e-08 1.54252e-07 9.80918e-05

0.000117092 -4.84397e-06 2.62743e-08
-4.84397e-06 8.17565e-05 -7.352e-08
2.62743e-08 -7.352e-08 9.94911e-05

7.02997e-05 9.80342e-06 3.87893e-08
9.80342e-06 8.1837e-05 1.41878e-07
3.87893e-08 1.41878e-07 6.69033e-05

0.000125642 7.88672e-07 7.94555e-08
7.88672e-07 8.73433e-05 -1.10666e-07
7.94555e-08 -1.10666e-07 0.000108711

7.78499e-05 1.04729e-05 1.20576e-07
1.04729e-05 6.7455e-05 1.02195e-08
1.20576e-07 1.02195e-08 6.62188e-05

0.000110011 1.28755e-06 -9.99295e-08
1.28755e-06 0.000134061 -6.2296e-09
-9.99295e-08 -6.2296e-09 0.000118469

0.000124677 6.01887e-06 -3.16073e-08
6.01887e-06 0.000130079 -1.35872e-07
-3.16073e-08 -1.35872e-07 0.000125428

0.000131621 -1.57071e-05 -1.87395e-07
-1.57071e-05 0.000134102 -1.5235e-07
-1.87395e-07 -1.5235e-07 0.000125727

0.000137902 6.90399e-06 1.01571e-08
6.90399e-06 0.000127126 1.97624e-07
1.01571e-08 1.97624e-07 0.000125738

9.68395e-05 -2.58093e-06 -1.62194e-07
-2.58093e-06 7.23555e-05 1.02035e-07
-1.62194e-07 1.02035e-07 7.71448e-05

9.72391e-05 1.83866e-05 -1.1507e-08
1.83866e-05 0.000107083 2.28532e-08
-1.1507e-08 2.28532e-08 0.000100343

0.000122079 2.57842e-06 -1.15199e-07
2.57842e-06 0.000118319 1.09377e-07
-1.15199e-07 1.09377e-07 0.000118436

0.000118301 -8.05337e-06 -1.60059e-07
-8.05337e-06 0.000117038 -3.13308e-08
-1.60059e-07 -3.13308e-08 0.000119229

0.000131136 -8.71837e-07 1.41146e-08
-8.71837e-07 8.74793e-05 -1.0778e-07
1.41146e-08 -1.0778e-07 0.000111446

8.4503e-05 1.50617e-05 1.37167e-07
1.50617e-05 9.9331e-05 -8.04192e-08
1.37167e-07 -8.04192e-08 9.213e-05

9.54934e-05 -1.37091e-05 -3.30233e-09
-1.37091e-05 0.000106406 2.1455e-08
-3.30233e-09 2.1455e-08 9.69799e-05

0.000100798 -9.56005e-06 6.3071e-08
-9.56005e-06 8.51244e-05 -5.91747e-08
6.3071e-08 -5.91747e-08 8.83942e-05

0.000127908 -2.42536e-06 3.78114e-08
-2.42536e-06 8.43596e-05 1.35633e-08
3.78114e-08 1.35633e-08 0.000109069

8.95402e-05 1.7982e-05 1.13807e-08
1.7982e-05 0.000107616 3.01975e-08
1.13807e-08 3.01975e-08 9.2577e-05

8.31146e-05 -1.23161e-05 9.79857e-08
-1.23161e-05 9.84319e-05 2.38257e-08
9.79857e-08 2.38257e-08 9.10966e-05

9.09706e-05 1.63714e-05 -6.93044e-08
1.63714e-05 0.000109293 9.61088e-08
-6.93044e-08 9.61088e-08 9.39155e-05

8.18523e-05 -9.34491e-06 1.99375e-08
-9.34491e-06 0.000106268 -5.99797e-08
1.99375e-08 -5.99797e-08 9.23278e-05

0.000115484 -8.02093e-06 -8.66454e-08
-8.02093e-06 0.00012217 3.61938e-08
-8.66454e-08 3.61938e-08 0.000118979

8.998e-05 1.19368e-05 6.29226e-09
1.19368e-05 0.000118751 6.51512e-08
6.29226e-09 6.51512e-08 0.000109553

8.9939e-05 -1.42552e-05 -1.59856e-07
-1.42552e-05 8.43953e-05 -7.84004e-08
-1.59856e-07 -7.84004e-08 8.31256e-05

5.5524e-05 -1.27967e-05 -1.43561e-07
-1.27967e-05 5.37921e-05 7.39752e-10
-1.43561e-07 7.39752e-10 5.48565e-05

5.02883e-05 -1.38946e-05 -1.22221e-07
-1.38946e-05 5.75172e-05 5.63392e-08
-1.22221e-07 5.63392e-08 5.46473e-05

0.000105811 2.1309e-05 -5.91571e-08
2.1309e-05 0.000128225 2.77988e-08
-5.91571e-08 2.77988e-08 0.000118228

9.11011e-05 -1.34772e-05 -1.92459e-08
-1.34772e-05 0.000124669 1.97198e-08
-1.92459e-08 1.97198e-08 0.000115659

5.16112e-05 -2.81053e-06 -1.20943e-07
-2.81053e-06 5.22794e-05 7.8057e-08
-1.20943e-07 7.8057e-08 5.72662e-05

5.31823e-05 -2.84166e-06 1.2353e-08
-2.84166e-06 5.47584e-05 8.26398e-09
1.2353e-08 8.26398e-09 5.75589e-05

0.000128411 1.19154e-05 1.61728e-07
1.19154e-05 0.00011659 -1.44811e-07
1.61728e-07 -1.44811e-07 0.000119929

0.000138089 -9.54358e-06 -1.1735e-07
-9.54358e-06 0.000119374 -4.32924e-08
-1.1735e-07 -4.32924e-08 0.00012897

0.000118038 -6.2723e-07 -4.08608e-08
-6.2723e-07 8.68765e-05 1.50221e-07
-4.08608e-08 1.50221e-07 0.00010904

0.000126976 1.71402e-05 1.4192e-07
1.71402e-05 0.000114136 -5.41111e-09
1.4192e-07 -5.41111e-09 0.000119979

0.000137282 -1.28206e-05 -9.30771e-08
-1.28206e-05 0.000113222 1.27527e-07
-9.30771e-08 1.27527e-07 0.000127653

8.49165e-05 1.24206e-05 8.81848e-08
1.24206e-05 0.000110227 1.33469e-07
8.81848e-08 1.33469e-07 9.99016e-05

0.00010047 -9.47047e-06 1.1576e-07
-9.47047e-06 0.000115518 -8.93802e-08
1.1576e-07 -8.93802e-08 0.000106246

0.000136941 6.33316e-06 2.73687e-07
6.33316e-06 0.000118967 4.60939e-08
2.73687e-07 4.60939e-08 0.000123877

0.000129304 -7.9124e-06 2.06181e-07
-7.9124e-06 0.000123421 -5.01713e-08
2.06181e-07 -5.01713e-08 0.000123873

0.000117003 1.87931e-05 -2.13741e-08
1.87931e-05 0.000104064 -8.84961e-08
-2.13741e-08 -8.84961e-08 0.000113239

0.000127501 -1.45575e-05 3.90185e-08
-1.45575e-05 0.000106822 2.34362e-08
3.90185e-08 2.34362e-08 0.000119878

8.40217e-05 -9.96397e-06 -1.84388e-08
-9.96397e-06 6.82324e-05 1.70387e-07
-1.84388e-08 1.70387e-07 7.10888e-05

0.000116074 -9.90955e-07 1.29485e-07
-9.90955e-07 0.000147882 7.94631e-08
1.29485e-07 7.94631e-08 0.000123118

0.000130708 3.59904e-06 6.96331e-10
3.59904e-06 0.000140823 -2.50694e-09
6.96331e-10 -2.50694e-09 0.000134953

5.9494e-05 -1.56099e-06 -1.41633e-07
-1.56099e-06 7.79869e-05 1.23483e-07
-1.41633e-07 1.23483e-07 6.41883e-05

7.70202e-05 -2.20276e-06 -2.16434e-08
-2.20276e-06 6.10218e-05 1.72509e-07
-2.16434e-08 1.72509e-07 6.3823e-05

8.55815e-05 9.88189e-06 4.30537e-08
9.88189e-06 0.000118076 7.29647e-08
4.30537e-08 7.29647e-08 0.000106927

0.000106326 -6.17296e-06 8.93702e-08
-6.17296e-06 0.000121798 -1.2185e-09
8.93702e-08 -1.2185e-09 0.000114473

0.000154151 -5.79563e-06 3.19243e-07
-5.79563e-06 0.000165437 -1.40529e-07
3.19243e-07 -1.40529e-07 0.000126959

0.000166019 -1.16532e-05 5.0712e-07
-1.16532e-05 0.000129989 -7.56422e-07
5.0712e-07 -7.56422e-07 0.000137546

0.000116462 1.68267e-05 -2.95217e-08
1.68267e-05 9.27871e-05 1.16338e-07
-2.95217e-08 1.16338e-07 0.000108111

0.00012228 -1.1133e-05 2.47886e-08
-1.1133e-05 9.53441e-05 -1.8089e-07
2.47886e-08 -1.8089e-07 0.000112378

9.6211e-05 -2.11638e-07 -1.35959e-07
-2.11638e-07 6.97085e-05 -7.98115e-08
-1.35959e-07 -7.98115e-08 7.6373e-05

0.000111849 4.12811e-07 -3.4437e-09
4.12811e-07 8.29901e-05 1.85185e-07
-3.4437e-09 1.85185e-07 9.6072e-05

0.000103576 7.75016e-06 7.6363e-08
7.75016e-06 7.6852e-05 5.50739e-08
7.6363e-08 5.50739e-08 8.43595e-05

0.000122742 2.83449e-06 -9.72665e-08
2.83449e-06 0.000103155 3.02969e-08
-9.72665e-08 3.02969e-08 0.000116232

0.000112983 -4.47257e-06 3.68255e-07
-4.47257e-06 0.000149976 1.2521e-07
3.68255e-07 1.2521e-07 0.000126658

0.000129794 3.53666e-06 2.20515e-07
3.53666e-06 0.000131995 1.00032e-07
2.20515e-07 1.00032e-07 0.000126675

8.54018e-05 1.44752e-05 -9.68174e-08
1.44752e-05 9.0505e-05 -4.65727e-08
-9.68174e-08 -4.65727e-08 7.83683e-05

9.84406e-05 -1.19172e-05 4.09475e-08
-1.19172e-05 9.20445e-05 -3.74071e-08
4.09475e-08 -3.74071e-08 9.64121e-05

0.000113223 1.33119e-05 -9.95486e-08
1.33119e-05 8.92266e-05 5.99466e-08
-9.95486e-08 5.99466e-08 0.000102761

0.000128373 5.64868e-06 2.38351e-07
5.64868e-06 0.000139964 -6.03165e-08
2.38351e-07 -6.03165e-08 0.000134193

0.000124527 9.17373e-06 -4.96442e-07
9.17373e-06 0.000152327 -7.27938e-08
-4.96442e-07 -7.27938e-08 0.000124583

0.000119367 -6.84996e-06 -1.23819e-07
-6.84996e-06 0.000106378 1.3121e-07
-1.23819e-07 1.3121e-07 0.000117216

0.000109491 1.09309e-05 -4.11155e-08
1.09309e-05 0.000123265 5.29023e-08
-4.11155e-08 5.29023e-08 0.00011358

9.12398e-05 -2.4257e-06 -1.23473e-08
-2.4257e-06 0.000123765 6.34236e-10
-1.23473e-08 6.34236e-10 0.000109385

0.000122943 8.14758e-06 1.51342e-07
8.14758e-06 8.65213e-05 5.7312e-09
1.51342e-07 5.7312e-09 0.000112376

0.000125327 -1.65746e-06 1.41956e-07
-1.65746e-06 8.52881e-05 3.52141e-08
1.41956e-07 3.52141e-08 0.000114486

9.20308e-05 -1.07289e-05 6.00142e-08
-1.07289e-05 8.53408e-05 1.4244e-08
6.00142e-08 1.4244e-08 7.97068e-05

0.000127326 1.49483e-05 -8.5413e-08
1.49483e-05 9.62696e-05 -1.3655e-07
-8.5413e-08 -1.3655e-07 0.00011625

0.000131025 -8.68551e-06 -7.07463e-09
-8.68551e-06 9.42379e-05 -5.92669e-08
-7.07463e-09 -5.92669e-08 0.000120731

0.000116624 -7.31976e-06 -5.64299e-09
-7.31976e-06 9.3059e-05 -1.5354e-07
-5.64299e-09 -1.5354e-07 0.000105816

0.000121553 1.09925e-05 1.34385e-07
1.09925e-05 9.43127e-05 9.35234e-08
1.34385e-07 9.35234e-08 0.000112299

0.000123552 -5.54999e-06 1.03392e-07
-5.54999e-06 9.59855e-05 -1.76346e-07
1.03392e-07 -1.76346e-07 0.000116107

0.000115205 -4.53319e-06 -2.81919e-08
-4.53319e-06 8.94721e-05 4.59615e-08
-2.81919e-08 4.59615e-08 0.000102371

9.93311e-05 1.91243e-05 8.25517e-08
1.91243e-05 0.000107706 1.92696e-07
8.25517e-08 1.92696e-07 0.000111589

0.000125225 -1.66045e-05 4.49891e-08
-1.66045e-05 0.000118009 1.18929e-07
4.49891e-08 1.18929e-07 0.000122233

9.87387e-05 1.27111e-05 1.21458e-07
1.27111e-05 9.42959e-05 3.32813e-09
1.21458e-07 3.32813e-09 8.88567e-05

0.000118505 -1.22724e-05 -2.59008e-08
-1.22724e-05 0.000127467 -7.82593e-08
-2.59008e-08 -7.82593e-08 0.000125578

9.37752e-05 1.3662e-05 -4.26082e-08
1.3662e-05 0.000111779 -2.69847e-08
-4.26082e-08 -2.69847e-08 0.000112969

0.000103486 1.20078e-05 -4.70626e-08
1.20078e-05 7.71474e-05 -3.60956e-08
-4.70626e-08 -3.60956e-08 8.8527e-05

0.000108749 -1.06159e-05 2.88001e-08
-1.06159e-05 9.87525e-05 -1.34166e-07
2.88001e-08 -1.34166e-07 0.000107906

0.00011473 4.56847e-06 -1.26235e-07
4.56847e-06 9.21579e-05 -3.15848e-08
-1.26235e-07 -3.15848e-08 0.000100492

8.95024e-05 1.72139e-05 1.23229e-08
1.72139e-05 9.21245e-05 5.1006e-08
1.23229e-08 5.1006e-08 8.61992e-05

0.000101402 1.37202e-05 5.95395e-09
1.37202e-05 9.44633e-05 -7.32521e-08
5.95395e-09 -7.32521e-08 9.6318e-05

9.8761e-05 5.72403e-06 -1.50096e-08
5.72403e-06 0.000120751 6.64684e-08
-1.50096e-08 6.64684e-08 0.000110705

8.14862e-05 1.32247e-06 4.65497e-08
1.32247e-06 0.000122503 -2.99724e-08
4.65497e-08 -2.99724e-08 0.000105808

9.20353e-05 -1.04726e-05 6.72041e-08
-1.04726e-05 7.00853e-05 -1.62295e-07
6.72041e-08 -1.62295e-07 7.61524e-05

9.52291e-05 -1.92628e-05 -7.99991e-08
-1.92628e-05 0.000110317 2.59398e-07
-7.99991e-08 2.59398e-07 0.000112134

0.000100425 2.06027e-05 2.31318e-08
2.06027e-05 0.000119632 -4.66959e-08
2.31318e-08 -4.66959e-08 0.000111196

9.59906e-05 -1.51853e-05 1.76785e-08
-1.51853e-05 9.66936e-05 -1.52544e-07
1.76785e-08 -1.52544e-07 8.94631e-05

8.53332e-05 1.82307e-05 1.47555e-07
1.82307e-05 9.44936e-05 6.1483e-09
1.47555e-07 6.1483e-09 8.57645e-05

0.000111152 -8.31117e-06 -6.89367e-08
-8.31117e-06 9.24014e-05 -4.34253e-08
-6.89367e-08 -4.34253e-08 0.000101605

0.000127737 -2.16476e-06 -7.29042e-08
-2.16476e-06 9.28822e-05 4.48703e-08
-7.29042e-08 4.48703e-08 0.000115678

0.000131477 7.48257e-07 1.13176e-07
7.48257e-07 9.09735e-05 1.50328e-08
1.13176e-07 1.50328e-08 0.000115248

9.70766e-05 -1.44072e-05 5.52152e-08
-1.44072e-05 9.87421e-05 2.96013e-08
5.52152e-08 2.96013e-08 9.81121e-05

7.0592e-05 2.93103e-06 1.5091e-07
2.93103e-06 9.95949e-05 -5.01054e-08
1.5091e-07 -5.01054e-08 7.87565e-05

6.22754e-05 2.50841e-06 1.17298e-07
2.50841e-06 9.72974e-05 -6.01697e-08
1.17298e-07 -6.01697e-08 7.62801e-05

9.62494e-05 2.77694e-06 1.17964e-07
2.77694e-06 6.60627e-05 1.63981e-07
1.17964e-07 1.63981e-07 7.69911e-05

8.61459e-05 1.56389e-05 9.59485e-08
1.56389e-05 8.22101e-05 -1.16872e-08
9.59485e-08 -1.16872e-08 7.71421e-05

0.000100398 -1.48361e-05 1.78233e-08
-1.48361e-05 8.56483e-05 5.40223e-08
1.78233e-08 5.40223e-08 8.88589e-05

0.00012596 1.72201e-05 1.13183e-07
1.72201e-05 0.000147545 -1.00009e-07
1.13183e-07 -1.00009e-07 0.000135598

0.000156221 -4.67989e-06 -2.4393e-07
-4.67989e-06 0.000157926 -1.52869e-07
-2.4393e-07 -1.52869e-07 0.000126188

0.000107848 -5.1254e-06 -1.71108e-07
-5.1254e-06 7.79849e-05 8.98295e-08
-1.71108e-07 8.98295e-08 9.04156e-05

8.95399e-05 1.40225e-05 5.96836e-09
1.40225e-05 0.000109754 6.62257e-08
5.96836e-09 6.62257e-08 0.000105072

0.000111595 -1.51886e-05 -7.6987e-08
-1.51886e-05 0.00011743 6.82444e-08
-7.6987e-08 6.82444e-08 0.000113386

0.000118899 6.57507e-06 -5.86425e-08
6.57507e-06 8.63826e-05 -1.47735e-07
-5.86425e-08 -1.47735e-07 0.000107949

8.46635e-05 1.43876e-05 6.67177e-08
1.43876e-05 0.000108677 1.34212e-07
6.67177e-08 1.34212e-07 9.01792e-05

7.32404e-05 -6.26024e-06 -7.76265e-08
-6.26024e-06 0.000105202 -3.16027e-08
-7.76265e-08 -3.16027e-08 8.78354e-05

9.01305e-05 1.45936e-05 -3.27537e-08
1.45936e-05 0.000124873 -4.83515e-08
-3.27537e-08 -4.83515e-08 0.000116155

0.000123305 -6.0271e-06 8.61408e-09
-6.0271e-06 0.000131984 -3.42514e-09
8.61408e-09 -3.42514e-09 0.000130062

9.65738e-05 1.44563e-05 -1.29022e-09
1.44563e-05 0.000109732 -1.0834e-07
-1.29022e-09 -1.0834e-07 0.000113442

0.000123664 -1.4882e-05 3.90577e-08
-1.4882e-05 0.000125768 1.40227e-07
3.90577e-08 1.40227e-07 0.000126924

0.000128186 1.36844e-06 1.39328e-08
1.36844e-06 7.2524e-05 -4.98991e-08
1.39328e-08 -4.98991e-08 0.000116238

9.28719e-05 1.8636e-05 -9.60467e-09
1.8636e-05 8.29889e-05 -8.90889e-08
-9.60467e-09 -8.90889e-08 8.53651e-05

0.00010058 2.21594e-05 8.98817e-08
2.21594e-05 0.000127026 1.36919e-07
8.98817e-08 1.36919e-07 0.000113312

9.37596e-05 -1.66417e-05 5.55756e-08
-1.66417e-05 0.000107802 -1.4677e-07
5.55756e-08 -1.4677e-07 0.000113988

9.23837e-05 1.56706e-05 1.03407e-08
1.56706e-05 9.01048e-05 1.75147e-07
1.03407e-08 1.75147e-07 8.89318e-05

7.74156e-05 -9.62629e-06 2.57338e-07
-9.62629e-06 8.71633e-05 5.23349e-08
2.57338e-07 5.23349e-08 7.56553e-05

9.47764e-05 -1.46223e-05 1.0356e-07
-1.46223e-05 0.000104382 -4.17129e-08
1.0356e-07 -4.17129e-08 0.000104259

8.44238e-05 -3.38438e-06 -4.92625e-09
-3.38438e-06 0.000102389 3.36012e-08
-4.92625e-09 3.36012e-08 8.41673e-05

7.2829e-05 7.95477e-06 -1.40527e-07
7.95477e-06 0.000100103 -1.9866e-07
-1.40527e-07 -1.9866e-07 8.11876e-05

9.91264e-05 -2.96622e-06 2.19112e-07
-2.96622e-06 7.75222e-05 -4.2193e-08
2.19112e-07 -4.2193e-08 8.20315e-05

0.000100139 -1.30908e-05 2.98554e-08
-1.30908e-05 9.56445e-05 -1.3772e-07
2.98554e-08 -1.3772e-07 9.25019e-05

8.14399e-05 1.96873e-06 4.52554e-08
1.96873e-06 0.000115227 -3.98783e-09
4.52554e-08 -3.98783e-09 9.69537e-05

9.85314e-05 3.30077e-06 -1.41723e-08
3.30077e-06 0.000115994 8.32796e-08
-1.41723e-08 8.32796e-08 0.000100896

8.18686e-05 -1.30424e-05 -8.04013e-08
-1.30424e-05 8.579e-05 -6.12337e-08
-8.04013e-08 -6.12337e-08 7.62829e-05

7.41991e-05 1.60368e-05 -7.20548e-08
1.60368e-05 8.48433e-05 7.29792e-08
-7.20548e-08 7.29792e-08 7.43433e-05

0.000120678 2.72375e-06 -3.93231e-08
2.72375e-06 8.84083e-05 3.77733e-08
-3.93231e-08 3.77733e-08 0.000115463

0.000121272 3.63429e-07 5.78006e-08
3.63429e-07 8.62439e-05 1.86028e-08
5.78006e-08 1.86028e-08 0.000117013

9.69157e-05 1.69057e-05 -6.21418e-08
1.69057e-05 0.00010582 9.60219e-08
-6.21418e-08 9.60219e-08 0.000106565

0.000114614 -1.33787e-05 4.25687e-08
-1.33787e-05 0.000118436 1.20545e-07
4.25687e-08 1.20545e-07 0.000115322

0.000104024 2.1922e-05 7.25902e-08
2.1922e-05 0.000128867 7.36233e-08
7.25902e-08 7.36233e-08 0.000117537

8.75494e-05 -1.25677e-05 8.54166e-08
-1.25677e-05 0.000124472 -1.76698e-08
8.54166e-08 -1.76698e-08 0.000115979

0.000103231 1.41766e-05 1.58044e-07
1.41766e-05 0.000108789 5.62203e-08
1.58044e-07 5.62203e-08 0.000107891

8.38422e-05 8.93692e-06 -1.50287e-08
8.93692e-06 6.74997e-05 6.18237e-08
-1.50287e-08 6.18237e-08 6.92938e-05

8.7662e-05 -8.5879e-06 -5.59043e-08
-8.5879e-06 0.000108127 1.61398e-07
-5.59043e-08 1.61398e-07 9.23461e-05

7.42332e-05 1.055e-05 -6.42737e-08
1.055e-05 0.000104291 -7.49927e-09
-6.42737e-08 -7.49927e-09 8.84401e-05

0.000126815 1.37644e-05 8.45133e-08
1.37644e-05 0.000104356 -9.16564e-08
8.45133e-08 -9.16564e-08 0.000116723

0.000132779 -7.41069e-06 -2.29972e-08
-7.41069e-06 0.000107137 2.2058e-08
-2.29972e-08 2.2058e-08 0.000123289

0.000112642 -1.25376e-05 6.92506e-08
-1.25376e-05 0.000100399 8.8919e-08
6.92506e-08 8.8919e-08 0.00010408

0.000116575 1.59265e-05 -1.24485e-08
1.59265e-05 9.86009e-05 -7.92802e-08
-1.24485e-08 -7.92802e-08 0.00010872

0.000122269 -1.07942e-05 4.21823e-08
-1.07942e-05 0.000104656 2.01435e-08
4.21823e-08 2.01435e-08 0.000114215

5.5913e-05 -4.42912e-06 -1.30871e-07
-4.42912e-06 3.66681e-05 -1.19499e-08
-1.30871e-07 -1.19499e-08 5.82169e-05

3.61059e-05 -5.41041e-06 1.0879e-07
-5.41041e-06 5.37984e-05 -1.533e-07
1.0879e-07 -1.533e-07 5.79821e-05

0.000142853 1.73892e-05 -2.29481e-07
1.73892e-05 0.000126723 -7.15269e-08
-2.29481e-07 -7.15269e-08 0.000124265

0.000150073 -1.22685e-05 1.71955e-07
-1.22685e-05 0.000116475 -1.58057e-07
1.71955e-07 -1.58057e-07 0.000132315

0.000105451 1.66669e-05 7.13396e-08
1.66669e-05 9.35167e-05 6.99425e-08
7.13396e-08 6.99425e-08 9.95569e-05

8.47987e-05 7.99769e-06 6.12701e-08
7.99769e-06 6.508e-05 -1.55716e-07
6.12701e-08 -1.55716e-07 6.89218e-05

9.82574e-05 1.52063e-05 6.33816e-08
1.52063e-05 0.000121805 4.14591e-10
6.33816e-08 4.14591e-10 0.000109621

8.30295e-05 -5.62671e-06 -6.52552e-08
-5.62671e-06 0.00012262 -2.59408e-08
-6.52552e-08 -2.59408e-08 0.000106887

8.38021e-05 -1.46936e-05 7.7842e-08
-1.46936e-05 9.11773e-05 1.89037e-07
7.7842e-08 1.89037e-07 8.4128e-05

0.000111909 8.92041e-06 1.77927e-07
8.92041e-06 0.000125522 -6.21283e-08
1.77927e-07 -6.21283e-08 0.000118509

0.000125568 -5.41285e-06 1.93803e-10
-5.41285e-06 0.000132055 -3.97576e-09
1.93803e-10 -3.97576e-09 0.000129909

9.93913e-05 1.13792e-05 1.13362e-07
1.13792e-05 7.98137e-05 -2.17107e-08
1.13362e-07 -2.17107e-08 8.36551e-05

0.000110726 6.4114e-06 2.11478e-08
6.4114e-06 8.11048e-05 -7.34269e-08
2.11478e-08 -7.34269e-08 9.55842e-05

8.66655e-05 2.167e-05 -4.95936e-08
2.167e-05 0.000113292 -2.76191e-08
-4.95936e-08 -2.76191e-08 0.000113299

0.000127586 -1.11784e-05 -8.82947e-08
-1.11784e-05 0.000127194 -7.25936e-08
-8.82947e-08 -7.25936e-08 0.000128397

9.10358e-05 1.75815e-05 -7.01539e-08
1.75815e-05 0.00011613 6.72113e-08
-7.01539e-08 6.72113e-08 0.000101469

8.18032e-05 -9.17153e-06 1.70848e-08
-9.17153e-06 0.000110847 -2.06075e-08
1.70848e-08 -2.06075e-08 9.9949e-05

0.000106598 1.96125e-05 -8.89424e-08
1.96125e-05 9.77426e-05 -6.82034e-08
-8.89424e-08 -6.82034e-08 0.000104912

0.000116982 -1.6056e-05 1.33535e-07
-1.6056e-05 0.00010324 3.34026e-08
1.33535e-07 3.34026e-08 0.000110672

7.72393e-05 5.04835e-06 -9.2312e-08
5.04835e-06 0.000113258 6.07912e-08
-9.2312e-08 6.07912e-08 9.47112e-05

9.33606e-05 -5.4004e-07 -1.05665e-07
-5.4004e-07 0.000113524 4.01964e-08
-1.05665e-07 4.01964e-08 9.91969e-05

5.87606e-05 -6.07756e-06 -1.74418e-07
-6.07756e-06 6.92826e-05 -2.45788e-07
-1.74418e-07 -2.45788e-07 5.93597e-05

6.69801e-05 -6.2958e-06 2.63943e-07
-6.2958e-06 6.03123e-05 2.00668e-07
2.63943e-07 2.00668e-07 5.92857e-05

0.000113583 1.01978e-05 -8.85813e-08
1.01978e-05 8.4564e-05 -1.37802e-07
-8.85813e-08 -1.37802e-07 0.000102521

0.000164364 2.00762e-06 4.66365e-07
2.00762e-06 0.000143842 2.13557e-07
4.66365e-07 2.13557e-07 0.000126588

0.000165124 -9.72236e-06 -5.12844e-08
-9.72236e-06 0.000125879 5.87524e-07
-5.12844e-08 5.87524e-07 0.000136143

0.000117505 -1.44844e-05 -3.70507e-08
-1.44844e-05 0.000134209 -1.83846e-07
-3.70507e-08 -1.83846e-07 0.000123186

0.000119969 4.63066e-06 -5.82501e-08
4.63066e-06 0.000127013 1.82174e-07
-5.82501e-08 1.82174e-07 0.000123025

0.000124003 -1.2256e-06 1.07651e-07
-1.2256e-06 8.4874e-05 -7.77053e-08
1.07651e-07 -7.77053e-08 0.000103515

9.88005e-05 2.40084e-05 8.17558e-08
2.40084e-05 0.000125825 1.50532e-07
8.17558e-08 1.50532e-07 0.000113102

8.31613e-05 -2.23506e-05 4.79165e-08
-2.23506e-05 0.000113882 -1.58015e-07
4.79165e-08 -1.58015e-07 0.000113401

6.3588e-05 1.17623e-05 -9.85996e-08
1.17623e-05 6.87045e-05 9.7865e-08
-9.85996e-08 9.7865e-08 6.29505e-05

7.01317e-05 1.24195e-05 6.46455e-08
1.24195e-05 6.7855e-05 6.55447e-08
6.46455e-08 6.55447e-08 6.35484e-05

6.47589e-05 -4.47121e-06 5.84603e-08
-4.47121e-06 8.38536e-05 -1.82339e-07
5.84603e-08 -1.82339e-07 6.8764e-05

6.31514e-05 9.12139e-06 -1.02414e-07
9.12139e-06 8.17832e-05 4.3687e-08
-1.02414e-07 4.3687e-08 6.76551e-05

8.2715e-05 -2.37026e-06 -2.36711e-07
-2.37026e-06 6.30562e-05 1.13891e-07
-2.36711e-07 1.13891e-07 6.80737e-05

5.78276e-05 5.70666e-06 -1.16918e-07
5.70666e-06 8.04953e-05 9.35339e-08
-1.16918e-07 9.35339e-08 6.42742e-05

7.62497e-05 6.19011e-06 7.08958e-08
6.19011e-06 5.69796e-05 -1.61779e-07
7.08958e-08 -1.61779e-07 6.38692e-05

0.000114762 1.1256e-06 -5.1503e-08
1.1256e-06 0.000138318 -1.10603e-07
-5.1503e-08 -1.10603e-07 0.000121793

0.000122273 1.22291e-05 3.8129e-08
1.22291e-05 0.000135958 1.37125e-07
3.8129e-08 1.37125e-07 0.000126832

0.000122429 2.06043e-06 -1.33068e-08
2.06043e-06 0.000101965 1.10257e-07
-1.33068e-08 1.10257e-07 0.000109951

0.000130951 -2.1915e-07 -8.33621e-09
-2.1915e-07 8.52477e-05 -4.2215e-08
-8.33621e-09 -4.2215e-08 0.000111321

8.0519e-05 -7.94276e-06 -8.07999e-08
-7.94276e-06 9.70728e-05 -5.78352e-08
-8.07999e-08 -5.78352e-08 8.23962e-05

7.29445e-05 1.11542e-05 -1.08631e-07
1.11542e-05 9.22243e-05 -2.37097e-07
-1.08631e-07 -2.37097e-07 7.93991e-05

0.000123887 -8.19059e-07 9.57397e-08
-8.19059e-07 8.37697e-05 -1.61431e-08
9.57397e-08 -1.61431e-08 0.000103998

0.000134604 9.24852e-06 -9.71052e-08
9.24852e-06 0.000118993 8.44719e-08
-9.71052e-08 8.44719e-08 0.000122226

0.00014128 -7.24068e-06 -7.58494e-08
-7.24068e-06 0.000116836 1.33969e-07
-7.58494e-08 1.33969e-07 0.000129605

0.000110081 9.06777e-06 4.18957e-08
9.06777e-06 0.000112409 1.235e-07
4.18957e-08 1.235e-07 0.000109294

9.40966e-05 -1.59624e-05 1.39668e-07
-1.59624e-05 0.000106765 1.27612e-07
1.39668e-07 1.27612e-07 0.000106712

9.73132e-05 2.02055e-05 -1.34297e-08
2.02055e-05 0.000119962 -6.41471e-08
-1.34297e-08 -6.41471e-08 0.000106311

0.00012256 2.02104e-06 -2.34944e-08
2.02104e-06 8.87254e-05 1.07835e-08
-2.34944e-08 1.07835e-08 0.000107527

8.57504e-05 1.48558e-05 -9.16003e-08
1.48558e-05 8.20303e-05 -6.72231e-08
-9.16003e-08 -6.72231e-08 7.60406e-05

8.70593e-05 -1.18762e-05 -5.82371e-08
-1.18762e-05 0.000111838 3.89513e-08
-5.82371e-08 3.89513e-08 0.00010545

9.76156e-05 2.15383e-05 -1.51726e-07
2.15383e-05 0.000118444 1.00538e-08
-1.51726e-07 1.00538e-08 0.000106098

5.15192e-05 2.51769e-05 -3.67366e-08
2.51769e-05 5.28972e-05 4.93808e-08
-3.67366e-08 4.93808e-08 5.25798e-05

7.55212e-05 -1.755e-06 -8.89274e-08
-1.755e-06 0.000113125 -6.13173e-08
-8.89274e-08 -6.13173e-08 9.42276e-05

8.86997e-05 8.20403e-06 1.06178e-07
8.20403e-06 0.000113599 3.18599e-08
1.06178e-07 3.18599e-08 9.71764e-05

0.000110658 -1.7425e-06 -1.62437e-07
-1.7425e-06 0.000147335 3.60267e-07
-1.62437e-07 3.60267e-07 0.000122323

0.000125782 9.59929e-06 2.78314e-08
9.59929e-06 0.000134075 2.12637e-07
2.78314e-08 2.12637e-07 0.000130078

0.000130659 7.82131e-06 -1.0915e-07
7.82131e-06 8.46114e-05 -5.38067e-08
-1.0915e-07 -5.38067e-08 0.000118041

0.000134579 -5.38934e-06 7.62549e-08
-5.38934e-06 7.88871e-05 -5.2472e-09
7.62549e-08 -5.2472e-09 0.000121194

0.00011111 1.05635e-05 -4.50418e-08
1.05635e-05 0.000113631 8.07679e-08
-4.50418e-08 8.07679e-08 0.000114668

0.000109428 -1.64311e-05 5.49728e-08
-1.64311e-05 0.000112981 3.00055e-08
5.49728e-08 3.00055e-08 0.000115759

0.000117573 9.26978e-06 -3.85328e-10
9.26978e-06 0.000131336 -6.62069e-08
-3.85328e-10 -6.62069e-08 0.000121881

0.000118825 -1.298e-05 3.43847e-08
-1.298e-05 0.00012313 1.19952e-07
3.43847e-08 1.19952e-07 0.000122261

0.000150223 1.79422e-05 -8.64157e-08
1.79422e-05 0.000142026 2.45894e-07
-8.64157e-08 2.45894e-07 0.000125814

0.000157311 -1.18542e-05 -4.05247e-07
-1.18542e-05 0.000125656 5.66818e-07
-4.05247e-07 5.66818e-07 0.000135895

0.000101197 2.43322e-05 -1.28931e-07
2.43322e-05 0.000113819 -1.3617e-07
-1.28931e-07 -1.3617e-07 0.000116647

0.000138363 -1.30043e-05 -3.72144e-08
-1.30043e-05 0.00012425 1.56858e-07
-3.72144e-08 1.56858e-07 0.000131733

0.000105613 1.69793e-05 8.02897e-08
1.69793e-05 8.83149e-05 3.35845e-08
8.02897e-08 3.35845e-08 9.80141e-05

9.84709e-05 1.48336e-05 6.50282e-08
1.48336e-05 0.000116823 -1.09214e-08
6.50282e-08 -1.09214e-08 0.000103026

8.31147e-05 -5.93288e-06 -7.2586e-08
-5.93288e-06 0.00011437 -7.63983e-08
-7.2586e-08 -7.63983e-08 0.000100584

0.000107803 -1.80664e-05 -1.82859e-07
-1.80664e-05 9.85613e-05 4.34231e-08
-1.82859e-07 4.34231e-08 0.00010035

8.38906e-05 -9.4143e-06 7.31349e-09
-9.4143e-06 8.05228e-05 -2.09182e-07
7.31349e-09 -2.09182e-07 7.46529e-05

0.000112991 -1.26862e-05 1.82939e-08
-1.26862e-05 9.13804e-05 -1.49573e-07
1.82939e-08 -1.49573e-07 0.000101061

9.63998e-05 1.90965e-05 -8.38527e-08
1.90965e-05 9.30213e-05 9.11743e-08
-8.38527e-08 9.11743e-08 9.58264e-05

9.50895e-05 -2.57138e-05 -9.61308e-09
-2.57138e-05 0.000113558 -1.25582e-07
-9.61308e-09 -1.25582e-07 0.000117257

0.000103104 2.05047e-05 -1.04414e-08
2.05047e-05 0.000125853 1.07799e-07
-1.04414e-08 1.07799e-07 0.000116433

0.000121007 -4.88776e-06 1.23879e-07
-4.88776e-06 0.000101267 -1.00665e-07
1.23879e-07 -1.00665e-07 0.000111482

0.000157384 -6.45907e-06 7.0726e-08
-6.45907e-06 0.000153031 1.8713e-07
7.0726e-08 1.8713e-07 0.000125967

0.000133704 6.70311e-06 -6.38104e-08
6.70311e-06 0.000144073 -1.30262e-07
-6.38104e-08 -1.30262e-07 0.000133656

0.000110189 7.64762e-06 4.29315e-08
7.64762e-06 9.96397e-05 9.22044e-08
4.29315e-08 9.22044e-08 0.000106782

0.000131944 -3.05972e-06 1.46989e-07
-3.05972e-06 0.000106351 -6.48228e-08
1.46989e-07 -6.48228e-08 0.000118875

6.58443e-05 -8.97468e-06 3.34692e-08
-8.97468e-06 7.15455e-05 5.48971e-08
3.34692e-08 5.48971e-08 6.24979e-05

7.29288e-05 -8.20269e-06 9.25113e-08
-8.20269e-06 6.25712e-05 1.28094e-07
9.25113e-08 1.28094e-07 6.25484e-05

0.000130809 3.16419e-06 -4.29842e-08
3.16419e-06 9.59464e-05 -1.3597e-07
-4.29842e-08 -1.3597e-07 0.000118905

0.000134688 8.69723e-07 2.73189e-08
8.69723e-07 9.30864e-05 -6.13159e-08
2.73189e-08 -6.13159e-08 0.000123291

0.000127665 2.72459e-07 -3.87389e-08
2.72459e-07 0.000110461 1.62155e-07
-3.87389e-08 1.62155e-07 0.00011922

0.000106345 -7.10772e-06 9.03888e-08
-7.10772e-06 0.000116101 -1.05925e-07
9.03888e-08 -1.05925e-07 0.000106729

8.55639e-05 8.96015e-06 4.39235e-08
8.96015e-06 0.000114465 1.62333e-07
4.39235e-08 1.62333e-07 0.000100754

0.00010355 1.39254e-05 -4.75791e-08
1.39254e-05 8.48016e-05 -6.63495e-08
-4.75791e-08 -6.63495e-08 9.0717e-05

0.000117708 1.59367e-05 -3.9623e-08
1.59367e-05 0.000104758 5.69446e-08
-3.9623e-08 5.69446e-08 0.000113633

0.00012795 -1.22699e-05 7.06608e-08
-1.22699e-05 0.000114817 2.75518e-07
7.06608e-08 2.75518e-07 0.000121619

0.000136388 2.26512e-06 -9.41334e-08
2.26512e-06 0.000128749 -4.59232e-07
-9.41334e-08 -4.59232e-07 0.00012737

0.000131702 -1.7606e-05 -2.25276e-07
-1.7606e-05 0.000153405 6.70479e-08
-2.25276e-07 6.70479e-08 0.000127283

0.000111775 6.91873e-06 -1.26308e-07
6.91873e-06 9.77286e-05 -3.14108e-08
-1.26308e-07 -3.14108e-08 0.00010027

0.00012749 1.12011e-05 -9.0722e-08
1.12011e-05 0.00010909 9.68316e-08
-9.0722e-08 9.68316e-08 0.000117499

0.000131037 -8.26653e-06 -4.75122e-09
-8.26653e-06 0.000107289 4.14796e-08
-4.75122e-09 4.14796e-08 0.000123208

9.21254e-05 -6.33821e-06 -2.442e-08
-6.33821e-06 0.000119212 -5.43347e-08
-2.442e-08 -5.43347e-08 0.000110686

0.000106148 1.93513e-05 -5.07152e-08
1.93513e-05 0.000123754 -7.89194e-08
-5.07152e-08 -7.89194e-08 0.000112722

0.000101318 2.48181e-05 2.09428e-08
2.48181e-05 0.00012598 1.43377e-07
2.09428e-08 1.43377e-07 0.000113319

9.15541e-05 -1.5034e-05 -1.39977e-08
-1.5034e-05 0.000111184 -1.47604e-07
-1.39977e-08 -1.47604e-07 0.000112854

5.69483e-05 2.84721e-05 1.10715e-08
2.84721e-05 5.79989e-05 -3.26867e-08
1.10715e-08 -3.26867e-08 5.43448e-05

0.000107119 1.53191e-05 7.8521e-08
1.53191e-05 0.000130322 -7.33815e-08
7.8521e-08 -7.33815e-08 0.000118448

0.000101175 -1.72993e-05 1.13892e-07
-1.72993e-05 0.000122641 1.25149e-07
1.13892e-07 1.25149e-07 0.000119125

8.64635e-05 -1.3481e-05 -7.56688e-08
-1.3481e-05 0.000115225 -7.07109e-08
-7.56688e-08 -7.07109e-08 0.000109884

9.74818e-05 2.13858e-05 -1.39292e-07
2.13858e-05 0.000123316 -5.21307e-08
-1.39292e-07 -5.21307e-08 0.000110757

0.000108689 -9.31559e-06 -1.58505e-07
-9.31559e-06 8.8744e-05 -1.67409e-08
-1.58505e-07 -1.67409e-08 9.36885e-05

0.000108808 -1.13581e-05 1.82379e-08
-1.13581e-05 0.000106522 5.4378e-08
1.82379e-08 5.4378e-08 0.000110168

0.00010893 1.23654e-05 2.95115e-08
1.23654e-05 0.000120944 -1.30661e-07
2.95115e-08 -1.30661e-07 0.000115824

0.000109112 -1.71842e-05 8.81119e-08
-1.71842e-05 0.000111787 1.54926e-07
8.81119e-08 1.54926e-07 0.00011658

0.000121007 -4.8128e-06 1.23659e-07
-4.8128e-06 8.88356e-05 -1.2186e-08
1.23659e-07 -1.2186e-08 0.000108906

0.000130541 4.76205e-06 -7.14133e-09
4.76205e-06 0.000118455 4.21823e-08
-7.14133e-09 4.21823e-08 0.000121484

0.000136301 -4.93286e-06 -1.06772e-08
-4.93286e-06 0.000110939 1.27539e-07
-1.06772e-08 1.27539e-07 0.000127176

0.000124579 6.08287e-06 3.29468e-07
6.08287e-06 0.000161397 -7.56785e-08
3.29468e-07 -7.56785e-08 0.000125182

0.000128462 7.07246e-06 -1.67986e-08
7.07246e-06 0.000150232 -8.25111e-08
-1.67986e-08 -8.25111e-08 0.000133049

5.44487e-05 5.5187e-06 2.09821e-07
5.5187e-06 4.00013e-05 -1.41016e-07
2.09821e-07 -1.41016e-07 5.68793e-05

4.11382e-05 5.38296e-06 1.64874e-07
5.38296e-06 5.67074e-05 -2.16769e-07
1.64874e-07 -2.16769e-07 5.68103e-05

0.00010772 1.4699e-05 1.17178e-07
1.4699e-05 0.000107123 1.54011e-07
1.17178e-07 1.54011e-07 0.000112841

0.000124076 -1.59932e-05 -1.951e-07
-1.59932e-05 0.00012081 -1.49306e-07
-1.951e-07 -1.49306e-07 0.00012286

5.36226e-05 1.03869e-05 2.00395e-08
1.03869e-05 5.20226e-05 6.33448e-08
2.00395e-08 6.33448e-08 5.71431e-05

5.20293e-05 1.16714e-05 1.76156e-07
1.16714e-05 5.28887e-05 -6.99474e-09
1.76156e-07 -6.99474e-09 5.71961e-05

0.000156921 -3.08171e-06 7.46962e-08
-3.08171e-06 0.000144714 7.01976e-07
7.46962e-08 7.01976e-07 0.000135889

0.000156648 -1.28682e-06 -4.19951e-07
-1.28682e-06 0.000156196 1.01877e-06
-4.19951e-07 1.01877e-06 0.000126919

0.000101865 -1.55098e-05 -6.55931e-08
-1.55098e-05 0.00010449 -1.71276e-08
-6.55931e-08 -1.71276e-08 0.000108694

0.000109057 1.87301e-05 9.12755e-08
1.87301e-05 0.000104193 -1.11611e-08
9.12755e-08 -1.11611e-08 0.000110921

0.000124533 -1.66947e-05 -2.36663e-07
-1.66947e-05 0.00011114 1.15749e-07
-2.36663e-07 1.15749e-07 0.000119211

9.62542e-05 1.72708e-05 2.69859e-08
1.72708e-05 9.97446e-05 -9.9791e-08
2.69859e-08 -9.9791e-08 9.80777e-05

0.000109612 -1.42982e-05 -1.77836e-07
-1.42982e-05 0.000106178 5.20887e-08
-1.77836e-07 5.20887e-08 0.00010368

6.91739e-05 -2.23649e-06 1.2966e-07
-2.23649e-06 8.47387e-05 -1.63107e-07
1.2966e-07 -1.63107e-07 6.94666e-05

6.09303e-05 7.14245e-06 9.92211e-08
7.14245e-06 8.23307e-05 1.76777e-08
9.92211e-08 1.76777e-08 6.78034e-05

8.3028e-05 -1.41315e-06 -2.34906e-07
-1.41315e-06 6.52553e-05 1.22166e-07
-2.34906e-07 1.22166e-07 6.86085e-05

9.62849e-05 1.87844e-05 -1.50179e-08
1.87844e-05 0.000104067 -1.60667e-07
-1.50179e-08 -1.60667e-07 0.000103615

0.000113214 -1.80202e-05 -1.36106e-08
-1.80202e-05 0.00010941 -1.85369e-07
-1.36106e-08 -1.85369e-07 0.000110665

5.46324e-05 1.34992e-06 1.63332e-07
1.34992e-06 7.74716e-05 9.41337e-08
1.63332e-07 9.41337e-08 6.27119e-05

7.65545e-05 -1.16877e-07 2.31945e-08
-1.16877e-07 5.74152e-05 -1.85664e-07
2.31945e-08 -1.85664e-07 6.24277e-05

0.000116102 1.95624e-05 -2.05929e-07
1.95624e-05 0.00010869 9.15831e-08
-2.05929e-07 9.15831e-08 0.00011642

0.000134114 -1.32441e-05 1.98623e-07
-1.32441e-05 0.000119372 -2.25411e-07
1.98623e-07 -2.25411e-07 0.000127128

0.000115994 1.89466e-05 -1.56217e-07
1.89466e-05 0.000114262 -8.07837e-08
-1.56217e-07 -8.07837e-08 0.000117066

0.000132719 -1.60059e-05 2.73876e-07
-1.60059e-05 0.000116989 3.54923e-08
2.73876e-07 3.54923e-08 0.000126346

4.94456e-05 1.13463e-05 -6.47333e-08
1.13463e-05 4.97858e-05 -3.20905e-07
-6.47333e-08 -3.20905e-07 5.47785e-05

4.90661e-05 9.8189e-06 3.49465e-07
9.8189e-06 5.04638e-05 8.01731e-08
3.49465e-07 8.01731e-08 5.46283e-05

0.000107006 1.74887e-05 -8.13657e-08
1.74887e-05 0.000103467 -1.35021e-07
-8.13657e-08 -1.35021e-07 0.00010672

0.000117251 -1.44029e-05 1.14081e-07
-1.44029e-05 0.000111603 -1.36036e-07
1.14081e-07 -1.36036e-07 0.000113927

0.000127468 1.13213e-05 -5.12936e-08
1.13213e-05 0.000135834 1.31918e-07
-5.12936e-08 1.31918e-07 0.000129935

0.000122109 -3.41035e-06 3.20365e-07
-3.41035e-06 0.000138821 -1.32257e-07
3.20365e-07 -1.32257e-07 0.000123172

0.000105975 1.56201e-05 -2.03242e-07
1.56201e-05 0.000121646 9.58442e-08
-2.03242e-07 9.58442e-08 0.000118374

0.000135737 -1.67555e-05 -3.8986e-08
-1.67555e-05 0.000126427 1.51326e-07
-3.8986e-08 1.51326e-07 0.000131311

0.000133952 1.27898e-05 -9.7965e-08
1.27898e-05 0.000108554 9.23094e-08
-9.7965e-08 9.23094e-08 0.00012108

0.000140977 -9.28734e-06 -8.08106e-08
-9.28734e-06 0.000104708 8.88309e-08
-8.08106e-08 8.88309e-08 0.000127414

0.00010424 1.77373e-05 9.02448e-08
1.77373e-05 0.000120775 -1.31625e-07
9.02448e-08 -1.31625e-07 0.000111693

9.9773e-05 -1.52581e-05 -1.49901e-07
-1.52581e-05 0.000111846 1.51405e-07
-1.49901e-07 1.51405e-07 0.000112857

0.0001219 1.09942e-05 1.25972e-08
1.09942e-05 0.000147097 -1.10426e-07
1.25972e-08 -1.10426e-07 0.000129629

0.000127386 1.28781e-05 -1.98147e-07
1.28781e-05 0.000131721 -2.0019e-07
-1.98147e-07 -2.0019e-07 0.000124723

0.000131765 -2.2162e-05 -1.54173e-07
-2.2162e-05 0.000129638 2.49281e-07
-1.54173e-07 2.49281e-07 0.000124876

0.000115539 -3.46344e-06 -8.64184e-08
-3.46344e-06 0.000154295 2.27924e-07
-8.64184e-08 2.27924e-07 0.000123879

0.000143686 1.38451e-05 -1.22704e-07
1.38451e-05 0.000124693 -4.38902e-08
-1.22704e-07 -4.38902e-08 0.000124214

0.000155892 3.72389e-06 -3.90994e-08
3.72389e-06 0.000132973 -1.21258e-07
-3.90994e-08 -1.21258e-07 0.000125848

0.00015048 -1.17604e-05 9.39533e-08
-1.17604e-05 0.000113244 4.96086e-08
9.39533e-08 4.96086e-08 0.000131066

0.000158981 -4.10476e-06 -2.49388e-07
-4.10476e-06 0.000120132 -2.68119e-07
-2.49388e-07 -2.68119e-07 0.000134016

0.000137457 1.8114e-05 3.30556e-07
1.8114e-05 0.00015255 3.98632e-07
3.30556e-07 3.98632e-07 0.000124958

0.000178374 -1.544e-05 2.22864e-07
-1.544e-05 0.000166138 -6.74588e-08
2.22864e-07 -6.74588e-08 0.000127049

0.000186235 -1.99875e-06 4.82058e-06
-1.99875e-06 0.000133008 2.51385e-06
4.82058e-06 2.51385e-06 0.000138716

0.000164885 -1.61453e-05 -5.18156e-08
-1.61453e-05 0.000128372 3.15728e-08
-5.18156e-08 3.15728e-08 0.000138892

0.0001422 1.39286e-05 -5.29659e-08
1.39286e-05 0.000128964 -1.82707e-07
-5.29659e-08 -1.82707e-07 0.000124102

0.000130105 6.37844e-06 2.41423e-07
6.37844e-06 0.000124268 1.22362e-08
2.41423e-07 1.22362e-08 0.000121563

0.000144421 6.21944e-06 -1.16539e-07
6.21944e-06 0.000152733 1.11686e-07
-1.16539e-07 1.11686e-07 0.000126264

0.000158883 -1.05659e-05 -1.64498e-07
-1.05659e-05 0.000125248 2.02376e-07
-1.64498e-07 2.02376e-07 0.00013724

0.000157639 -1.30015e-05 -2.42438e-07
-1.30015e-05 0.000129359 -1.58545e-07
-2.42438e-07 -1.58545e-07 0.000137636

0.000144029 -8.62506e-06 -7.66992e-08
-8.62506e-06 0.000129191 1.44236e-07
-7.66992e-08 1.44236e-07 0.000134106

0.000131914 1.74719e-05 2.34926e-07
1.74719e-05 0.000124426 -6.73772e-08
2.34926e-07 -6.73772e-08 0.000122472

0.000144861 8.63538e-06 -2.4742e-07
8.63538e-06 0.000128674 8.28395e-08
-2.4742e-07 8.28395e-08 0.000124561

0.000144835 -1.31675e-05 -5.61071e-08
-1.31675e-05 0.000119492 -1.08081e-07
-5.61071e-08 -1.08081e-07 0.000132546

0.000151163 -7.22306e-06 1.86545e-07
-7.22306e-06 0.000122581 -3.2512e-08
1.86545e-07 -3.2512e-08 0.00013394

0.000139154 1.14416e-06 6.14307e-08
1.14416e-06 0.000139811 2.12372e-09
6.14307e-08 2.12372e-09 0.000143047

0.000151417 -9.18744e-07 9.03636e-09
-9.18744e-07 0.000145457 -1.34622e-08
9.03636e-09 -1.34622e-08 0.000146483

0.000147635 2.63801e-06 2.3401e-08
2.63801e-06 0.000139086 5.61189e-08
2.3401e-08 5.61189e-08 0.000143038

0.000139177 -2.94766e-06 -1.63356e-07
-2.94766e-06 0.00012853 -1.18002e-07
-1.63356e-07 -1.18002e-07 0.000140878

0.000140434 5.40255e-07 7.14088e-08
5.40255e-07 0.000131989 1.12063e-08
7.14088e-08 1.12063e-08 0.00014175

0.00015192 -3.93332e-06 -2.21506e-09
-3.93332e-06 0.000147446 1.17407e-07
-2.21506e-09 1.17407e-07 0.000146387

0.000146862 7.17188e-06 2.83493e-08
7.17188e-06 0.000138193 -1.43632e-09
2.83493e-08 -1.43632e-09 0.000142505

0.000140791 -6.7178e-07 7.84676e-08
-6.7178e-07 0.000130978 -3.94286e-08
7.84676e-08 -3.94286e-08 0.000141681

0.000141318 3.30901e-06 4.00035e-10
3.30901e-06 0.00012133 -1.24445e-08
4.00035e-10 -1.24445e-08 0.000136346

0.000142183 7.48282e-07 -2.65403e-08
7.48282e-07 0.000139879 7.07333e-09
-2.65403e-08 7.07333e-09 0.000144595

0.000142743 -3.96067e-07 -4.09498e-08
-3.96067e-07 0.000140364 3.61009e-08
-4.09498e-08 3.61009e-08 0.000144629

0.000146646 9.03699e-07 -9.78198e-08
9.03699e-07 0.000149245 -6.88059e-08
-9.78198e-08 -6.88059e-08 0.000148691

0.00015332 -3.86325e-06 8.32663e-08
-3.86325e-06 0.000133865 -6.80903e-08
8.32663e-08 -6.80903e-08 0.000140309

0.000155405 -2.16599e-07 -6.01787e-08
-2.16599e-07 0.000149135 -2.63336e-08
-6.01787e-08 -2.63336e-08 0.000146819

0.000139209 5.56727e-06 6.13091e-08
5.56727e-06 0.000137109 -1.72571e-08
6.13091e-08 -1.72571e-08 0.000142272

0.00013583 7.33481e-06 1.69264e-08
7.33481e-06 0.000136601 3.37681e-08
1.69264e-08 3.37681e-08 0.000139793

0.000147623 -6.75101e-06 -1.24174e-07
-6.75101e-06 0.000139482 5.80177e-08
-1.24174e-07 5.80177e-08 0.000143415

0.000150171 3.24995e-06 -1.11401e-07
3.24995e-06 0.000146853 4.97053e-09
-1.11401e-07 4.97053e-09 0.000145945

0.000149546 7.48203e-07 -6.43117e-08
7.48203e-07 0.000153529 -6.74128e-09
-6.43117e-08 -6.74128e-09 0.000151088

0.000141359 6.66368e-07 -2.47769e-08
6.66368e-07 0.0001433 3.65005e-09
-2.47769e-08 3.65005e-09 0.000145069

0.000141151 -1.12672e-06 -3.92511e-08
-1.12672e-06 0.000143429 3.93623e-08
-3.92511e-08 3.93623e-08 0.000145092

0.000147806 -6.73592e-07 -3.77985e-08
-6.73592e-07 0.000150798 -1.07542e-07
-3.77985e-08 -1.07542e-07 0.000149309

0.000138938 2.21381e-06 5.31954e-08
2.21381e-06 0.00013771 1.12259e-08
5.31954e-08 1.12259e-08 0.000142596

0.000139382 1.78906e-06 1.11581e-07
1.78906e-06 0.000133415 -2.48659e-08
1.11581e-07 -2.48659e-08 0.000142514

0.000136079 1.77395e-06 -4.85976e-09
1.77395e-06 0.000137672 8.19096e-09
-4.85976e-09 8.19096e-09 0.000141829

0.000147759 -1.23444e-06 7.61993e-08
-1.23444e-06 0.000147521 -9.63738e-08
7.61993e-08 -9.63738e-08 0.000147998

0.000140334 2.48201e-06 -1.37701e-07
2.48201e-06 0.000128534 4.68187e-08
-1.37701e-07 4.68187e-08 0.000140662

0.000141099 5.35343e-07 -5.1913e-08
5.35343e-07 0.000142809 -3.99368e-08
-5.1913e-08 -3.99368e-08 0.000145069

0.000141656 -3.23038e-06 1.68369e-07
-3.23038e-06 0.000120685 -8.76706e-08
1.68369e-07 -8.76706e-08 0.000138459

0.000144536 -5.19784e-07 -9.63765e-10
-5.19784e-07 0.000148311 -1.42485e-08
-9.63765e-10 -1.42485e-08 0.000148208

0.000154816 -5.95676e-07 -2.0359e-08
-5.95676e-07 0.000144414 1.24459e-07
-2.0359e-08 1.24459e-07 0.000144815

0.000155849 9.93536e-07 -6.48228e-08
9.93536e-07 0.000141639 3.47802e-08
-6.48228e-08 3.47802e-08 0.000144451

0.000146285 -3.68141e-06 -1.63294e-08
-3.68141e-06 0.000140405 5.20483e-08
-1.63294e-08 5.20483e-08 0.000139655

0.000146212 3.56384e-06 8.40999e-09
3.56384e-06 0.00014029 4.58607e-08
8.40999e-09 4.58607e-08 0.000139668

0.000140782 -9.6702e-07 -4.19895e-08
-9.6702e-07 0.000135923 5.57782e-08
-4.19895e-08 5.57782e-08 0.000143124

0.000134876 5.96096e-07 -3.74781e-09
5.96096e-07 0.000136568 9.50643e-09
-3.74781e-09 9.50643e-09 0.000140976

0.000137546 -5.83039e-06 5.04503e-08
-5.83039e-06 0.000137391 3.69012e-08
5.04503e-08 3.69012e-08 0.000140321

0.000137252 6.14971e-06 8.89899e-08
6.14971e-06 0.000137657 7.44056e-08
8.89899e-08 7.44056e-08 0.000140264

0.00014208 -2.85498e-06 2.09044e-09
-2.85498e-06 0.000120651 -8.03278e-08
2.09044e-09 -8.03278e-08 0.000135458

0.000147035 -1.84331e-06 -2.31499e-08
-1.84331e-06 0.000150431 3.60579e-08
-2.31499e-08 3.60579e-08 0.000148609

0.000138739 -1.3093e-07 1.25499e-07
-1.3093e-07 0.000136302 6.76765e-08
1.25499e-07 6.76765e-08 0.000142572

0.000141423 2.44721e-06 -7.65527e-09
2.44721e-06 0.000119943 1.2584e-07
-7.65527e-09 1.2584e-07 0.000135823

0.000139736 -1.97093e-06 -9.93736e-08
-1.97093e-06 0.000137841 -6.74005e-08
-9.93736e-08 -6.74005e-08 0.000142717

0.000138986 -1.45338e-06 -1.91772e-09
-1.45338e-06 0.000139818 3.72439e-08
-1.91772e-09 3.72439e-08 0.000143043

0.000151005 -2.86424e-06 -1.08298e-07
-2.86424e-06 0.000149138 -1.196e-07
-1.08298e-07 -1.196e-07 0.000148338

0.000140076 5.27496e-08 3.57573e-08
5.27496e-08 0.000136323 5.99368e-08
3.57573e-08 5.99368e-08 0.00014316

0.000143021 1.15286e-06 1.24125e-07
1.15286e-06 0.000141872 1.02471e-07
1.24125e-07 1.02471e-07 0.000145502

0.000144516 1.50965e-06 3.01919e-08
1.50965e-06 0.00014539 9.21436e-08
3.01919e-08 9.21436e-08 0.000147137

0.000142924 -1.139e-05 1.50905e-08
-1.139e-05 0.000129656 -9.39e-08
1.50905e-08 -9.39e-08 0.000138602

0.000144305 -2.65442e-07 1.69068e-08
-2.65442e-07 0.000145768 -1.32234e-07
1.69068e-08 -1.32234e-07 0.000146912

0.000141164 6.60286e-07 5.15036e-09
6.60286e-07 0.000141829 9.67293e-08
5.15036e-09 9.67293e-08 0.000144893

0.000154117 2.65324e-06 -2.20628e-07
2.65324e-06 0.000155999 1.48901e-07
-2.20628e-07 1.48901e-07 0.000152513

0.000154117 -2.6775e-06 -2.21241e-07
-2.6775e-06 0.000156341 -1.49406e-07
-2.21241e-07 -1.49406e-07 0.000152511

0.000152378 -6.11809e-07 -1.3073e-07
-6.11809e-07 0.000154148 1.78516e-08
-1.3073e-07 1.78516e-08 0.00015151

0.000153456 3.92747e-07 -2.23581e-07
3.92747e-07 0.000156917 1.28122e-07
-2.23581e-07 1.28122e-07 0.000152659

0.000153427 -2.82561e-07 -2.2432e-07
-2.82561e-07 0.000156826 -1.27737e-07
-2.2432e-07 -1.27737e-07 0.000152658

0.000147544 -2.49067e-06 8.9957e-08
-2.49067e-06 0.000149758 7.61134e-08
8.9957e-08 7.61134e-08 0.000148152

0.00014356 -4.71346e-06 -1.07287e-07
-4.71346e-06 0.000133123 -2.51054e-08
-1.07287e-07 -2.51054e-08 0.000137597

0.000143119 5.01181e-06 -2.36715e-07
5.01181e-06 0.000133123 -1.1611e-08
-2.36715e-07 -1.1611e-08 0.000137607

0.000152242 9.60237e-07 1.01046e-07
9.60237e-07 0.00015531 -2.4563e-08
1.01046e-07 -2.4563e-08 0.00015178

0.000152227 -6.77691e-07 1.01232e-07
-6.77691e-07 0.000155248 2.92953e-08
1.01232e-07 2.92953e-08 0.00015178

0.000140217 5.72474e-07 -9.44356e-08
5.72474e-07 0.000137515 3.0841e-08
-9.44356e-08 3.0841e-08 0.000143757

0.000151074 6.71641e-06 1.55556e-08
6.71641e-06 0.000139982 9.4104e-08
1.55556e-08 9.4104e-08 0.000139809

0.000159745 -5.02028e-06 -9.56212e-08
-5.02028e-06 0.000153151 -1.84567e-07
-9.56212e-08 -1.84567e-07 0.000146245

0.000147647 2.1328e-06 2.78681e-08
2.1328e-06 0.000150644 -2.10893e-08
2.78681e-08 -2.10893e-08 0.000148623

0.000141029 -2.18708e-07 -2.42454e-08
-2.18708e-07 0.000143253 1.26205e-08
-2.42454e-08 1.26205e-08 0.000145185

0.0001407 -1.17959e-06 1.49362e-07
-1.17959e-06 0.000139625 -1.30673e-07
1.49362e-07 -1.30673e-07 0.000144217

0.000147663 -2.39009e-06 9.64634e-08
-2.39009e-06 0.00014949 -7.60779e-08
9.64634e-08 -7.60779e-08 0.000147394

0.000142963 6.56932e-06 4.53267e-08
6.56932e-06 0.000135852 4.04156e-08
4.53267e-08 4.04156e-08 0.000141952

0.000160568 2.78261e-06 -4.71783e-07
2.78261e-06 0.000162046 9.90574e-08
-4.71783e-07 9.90574e-08 0.000153681

0.000160568 -3.02567e-06 -4.71973e-07
-3.02567e-06 0.000160877 -9.91952e-08
-4.71973e-07 -9.91952e-08 0.00015368

0.000139561 9.29044e-06 2.80841e-09
9.29044e-06 0.000131056 7.631e-09
2.80841e-09 7.631e-09 0.000136617

0.000150602 5.28025e-07 7.51985e-08
5.28025e-07 0.000154428 -7.73392e-09
7.51985e-08 -7.73392e-09 0.000151479

0.000149993 -8.15863e-07 6.91319e-08
-8.15863e-07 0.000154437 4.73314e-08
6.91319e-08 4.73314e-08 0.000151486

0.000129546 4.55129e-06 -1.07632e-07
4.55129e-06 0.00013643 -9.91957e-08
-1.07632e-07 -9.91957e-08 0.000138387

0.000151257 2.68543e-06 1.9851e-07
2.68543e-06 0.000152033 7.4671e-08
1.9851e-07 7.4671e-08 0.00014757

0.000140232 9.48391e-07 -3.3411e-08
9.48391e-07 0.000135809 -3.68481e-09
-3.3411e-08 -3.68481e-09 0.000143134

0.000140409 -1.26754e-06 1.35082e-08
-1.26754e-06 0.000132922 2.61223e-08
1.35082e-08 2.61223e-08 0.000142592

0.000138431 -6.84326e-06 5.60513e-08
-6.84326e-06 0.000129131 1.22005e-08
5.60513e-08 1.22005e-08 0.000139774

0.000135939 7.38918e-06 -3.48242e-07
7.38918e-06 0.000146675 -1.32295e-07
-3.48242e-07 -1.32295e-07 0.000139261

0.000137039 -7.91e-06 -3.24105e-07
-7.91e-06 0.000146318 1.94835e-07
-3.24105e-07 1.94835e-07 0.000139243

0.000139884 1.3321e-06 9.82951e-08
1.3321e-06 0.000139809 -1.57189e-09
9.82951e-08 -1.57189e-09 0.000143829

0.000137447 1.64354e-06 7.63003e-08
1.64354e-06 0.00013406 1.16084e-07
7.63003e-08 1.16084e-07 0.000142027

0.000149822 -1.5844e-06 -6.09931e-08
-1.5844e-06 0.000153256 -6.30992e-08
-6.09931e-08 -6.30992e-08 0.000151019

0.000158227 2.35455e-08 -9.47931e-08
2.35455e-08 0.000155695 -1.84365e-07
-9.47931e-08 -1.84365e-07 0.000145291

0.000164281 5.89618e-06 -1.67356e-07
5.89618e-06 0.000138801 4.9611e-08
-1.67356e-07 4.9611e-08 0.000142457

0.000138023 6.99878e-06 4.87122e-08
6.99878e-06 0.000129757 -1.06247e-07
4.87122e-08 -1.06247e-07 0.00013972

0.000148133 -2.35705e-06 -1.31842e-07
-2.35705e-06 0.000140568 -7.30838e-08
-1.31842e-07 -7.30838e-08 0.000143954

0.000149783 6.25057e-07 -1.06388e-07
6.25057e-07 0.000144741 7.0819e-08
-1.06388e-07 7.0819e-08 0.000146008

0.0001518 1.53561e-07 -1.01638e-07
1.53561e-07 0.000155112 -6.92431e-08
-1.01638e-07 -6.92431e-08 0.000151907

0.000151367 -2.78741e-07 -6.74028e-08
-2.78741e-07 0.000155059 6.0631e-08
-6.74028e-08 6.0631e-08 0.000151915

0.000146834 2.09866e-06 1.18193e-07
2.09866e-06 0.000149217 -1.43182e-07
1.18193e-07 -1.43182e-07 0.000148636

0.000148425 -3.90998e-07 -1.95201e-08
-3.90998e-07 0.000152669 1.56969e-08
-1.95201e-08 1.56969e-08 0.000150534

0.000152924 5.72047e-07 -7.76886e-08
5.72047e-07 0.000155548 -4.81533e-08
-7.76886e-08 -4.81533e-08 0.000152349

0.000153629 -2.50851e-07 -7.33984e-08
-2.50851e-07 0.000155826 5.21234e-08
-7.33984e-08 5.21234e-08 0.000152349

0.000149794 1.47421e-06 -1.76176e-08
1.47421e-06 0.000153423 6.7787e-08
-1.76176e-08 6.7787e-08 0.000151013

0.000147668 9.59249e-07 1.85788e-08
9.59249e-07 0.000147588 -3.30504e-08
1.85788e-08 -3.30504e-08 0.000148002

0.000152275 1.35379e-06 -9.42917e-08
1.35379e-06 0.000154621 -3.07269e-08
-9.42917e-08 -3.07269e-08 0.000151952

0.000151976 -1.71536e-06 -6.70348e-08
-1.71536e-06 0.000154575 5.88338e-08
-6.70348e-08 5.88338e-08 0.00015196

0.000140081 2.81453e-06 -1.49735e-07
2.81453e-06 0.000128292 7.32162e-08
-1.49735e-07 7.32162e-08 0.000140713

0.000153315 -1.31632e-06 1.15121e-07
-1.31632e-06 0.000152228 -7.17587e-08
1.15121e-07 -7.17587e-08 0.000150264

0.000139076 5.15418e-07 -2.24846e-08
5.15418e-07 0.000136591 -1.78256e-08
-2.24846e-08 -1.78256e-08 0.000142608

0.000131487 7.42519e-06 -6.53264e-08
7.42519e-06 0.000134812 3.70872e-08
-6.53264e-08 3.70872e-08 0.000135657

0.000151873 -1.37745e-06 1.3057e-08
-1.37745e-06 0.000151659 1.09052e-07
1.3057e-08 1.09052e-07 0.000148576

0.000149223 4.6966e-07 9.8433e-08
4.6966e-07 0.000151537 -4.66123e-08
9.8433e-08 -4.66123e-08 0.000149928

0.000135122 4.57626e-06 5.75958e-08
4.57626e-06 0.00013184 -7.47709e-08
5.75958e-08 -7.47709e-08 0.000141087

0.000139739 -2.06623e-06 -3.78809e-08
-2.06623e-06 0.000129339 2.05239e-07
-3.78809e-08 2.05239e-07 0.000140954

0.000138674 -5.17002e-07 5.04399e-08
-5.17002e-07 0.000137434 -4.55311e-08
5.04399e-08 -4.55311e-08 0.000143219

0.000136632 -1.7947e-06 -4.00149e-09
-1.7947e-06 0.000134468 -3.2622e-09
-4.00149e-09 -3.2622e-09 0.000142061

0.000145596 4.64549e-06 -2.75923e-08
4.64549e-06 0.000141693 2.98716e-08
-2.75923e-08 2.98716e-08 0.000145047

0.000146999 -4.42243e-06 -1.1938e-07
-4.42243e-06 0.000143021 -7.95605e-08
-1.1938e-07 -7.95605e-08 0.00014545

0.000146995 -9.75343e-09 1.12427e-07
-9.75343e-09 0.000149586 7.63085e-09
1.12427e-07 7.63085e-09 0.000148728

0.000128481 -4.50906e-06 6.6439e-11
-4.50906e-06 0.000136471 -1.69629e-08
6.6439e-11 -1.69629e-08 0.00013834

0.00014845 -2.47972e-07 1.19292e-08
-2.47972e-07 0.00014883 7.91027e-08
1.19292e-08 7.91027e-08 0.000148464

0.000147508 2.1884e-08 1.848e-09
2.1884e-08 0.00014868 2.44371e-07
1.848e-09 2.44371e-07 0.000148404

0.00013811 1.97499e-06 -1.35481e-07
1.97499e-06 0.000134095 1.04485e-07
-1.35481e-07 1.04485e-07 0.000141413

0.000141569 5.88428e-06 -2.71015e-08
5.88428e-06 0.000116024 1.45914e-08
-2.71015e-08 1.45914e-08 0.000134712

0.000141529 -5.09439e-06 1.7409e-08
-5.09439e-06 0.000115945 -6.13363e-08
1.7409e-08 -6.13363e-08 0.000134661

0.000143165 2.15407e-06 -4.3954e-08
2.15407e-06 0.000139945 -4.26865e-08
-4.3954e-08 -4.26865e-08 0.000144517

0.000135961 -1.45291e-06 3.34147e-08
-1.45291e-06 0.00013777 -8.53308e-08
3.34147e-08 -8.53308e-08 0.000141929

0.000144073 2.02414e-06 -7.10666e-08
2.02414e-06 0.000143896 -1.13631e-08
-7.10666e-08 -1.13631e-08 0.000146016

0.000143552 -2.22391e-06 1.10342e-08
-2.22391e-06 0.000143864 2.47421e-08
1.10342e-08 2.47421e-08 0.000146032

0.000147832 -8.95157e-07 5.28689e-08
-8.95157e-07 0.000149482 1.26217e-07
5.28689e-08 1.26217e-07 0.000149153

0.00014575 -1.87887e-06 -1.11915e-07
-1.87887e-06 0.000149214 -1.5624e-07
-1.11915e-07 -1.5624e-07 0.000148567

0.000147826 8.55435e-07 3.83975e-08
8.55435e-07 0.00015068 -6.789e-08
3.83975e-08 -6.789e-08 0.000149298

0.000172746 2.70527e-06 1.10295e-08
2.70527e-06 0.000152534 -2.17923e-07
1.10295e-08 -2.17923e-07 0.00014446

0.000170734 -1.06409e-05 6.54832e-07
-1.06409e-05 0.000148641 -2.11116e-07
6.54832e-07 -2.11116e-07 0.000142835

0.000148706 -3.98019e-07 4.50387e-08
-3.98019e-07 0.00015156 2.61876e-08
4.50387e-08 2.61876e-08 0.000149996

0.000149685 -9.35358e-07 -1.16413e-07
-9.35358e-07 0.00015087 -9.26718e-08
-1.16413e-07 -9.26718e-08 0.000148786

0.000152291 6.42583e-07 -1.28381e-07
6.42583e-07 0.000154111 -4.93291e-08
-1.28381e-07 -4.93291e-08 0.000151503

0.000142874 -2.45539e-06 -4.34635e-08
-2.45539e-06 0.000140072 4.93276e-08
-4.34635e-08 4.93276e-08 0.000144453

0.000154916 -4.63456e-06 7.888e-08
-4.63456e-06 0.000151476 -3.36638e-08
7.888e-08 -3.36638e-08 0.00014795

0.000136443 1.2871e-05 -6.83903e-10
1.2871e-05 0.000130187 1.52029e-08
-6.83903e-10 1.52029e-08 0.000136078

0.000152874 1.89237e-06 1.9542e-08
1.89237e-06 0.00015233 -3.18982e-08
1.9542e-08 -3.18982e-08 0.000150312

0.000152808 -2.08799e-06 1.07104e-07
-2.08799e-06 0.000153223 -1.00544e-07
1.07104e-07 -1.00544e-07 0.000150202

0.000137493 4.3653e-06 3.76553e-08
4.3653e-06 0.00013642 -4.0888e-08
3.76553e-08 -4.0888e-08 0.000140186

0.000151388 -2.14005e-08 1.03332e-07
-2.14005e-08 0.000155988 -2.796e-09
1.03332e-07 -2.796e-09 0.000152141

0.00014784 -2.87503e-07 1.39341e-07
-2.87503e-07 0.000150422 2.52529e-08
1.39341e-07 2.52529e-08 0.000149188

0.000130492 -7.29279e-06 9.23764e-09
-7.29279e-06 0.000135109 -4.44389e-08
9.23764e-09 -4.44389e-08 0.000135632

0.00014767 -1.13988e-06 1.42576e-07
-1.13988e-06 0.000151452 5.95732e-08
1.42576e-07 5.95732e-08 0.00014918

0.000139434 -5.7651e-07 -2.43705e-07
-5.7651e-07 0.000140354 2.28152e-08
-2.43705e-07 2.28152e-08 0.000143977

0.000135776 -9.16072e-07 -6.43021e-08
-9.16072e-07 0.000136588 5.88139e-08
-6.43021e-08 5.88139e-08 0.000140999

0.000145398 7.00571e-07 4.4657e-08
7.00571e-07 0.000144973 -7.72675e-08
4.4657e-08 -7.72675e-08 0.000146713

0.000145702 -7.57665e-07 1.32783e-07
-7.57665e-07 0.000144819 9.01388e-08
1.32783e-07 9.01388e-08 0.000146705

0.000146124 6.23116e-07 1.07909e-07
6.23116e-07 0.000151161 4.00898e-09
1.07909e-07 4.00898e-09 0.000149394

0.000147852 4.89591e-07 3.23224e-08
4.89591e-07 0.000151169 1.01479e-07
3.23224e-08 1.01479e-07 0.000149222

0.000146643 -8.67679e-07 -1.271e-07
-8.67679e-07 0.000143882 7.54773e-08
-1.271e-07 7.54773e-08 0.000145606

0.000145953 1.01377e-06 -2.33237e-08
1.01377e-06 0.000143606 -5.58531e-08
-2.33237e-08 -5.58531e-08 0.000145365

0.000145244 2.31825e-07 1.26222e-07
2.31825e-07 0.000147569 -1.3845e-07
1.26222e-07 -1.3845e-07 0.000147724

0.000145324 -2.90362e-07 -4.07436e-08
-2.90362e-07 0.000147806 -1.89908e-07
-4.07436e-08 -1.89908e-07 0.000147721

0.000152502 6.76597e-07 8.05962e-08
6.76597e-07 0.00015526 -4.02978e-08
8.05962e-08 -4.02978e-08 0.000152148

0.000152753 -7.94756e-07 7.80547e-08
-7.94756e-07 0.000155196 3.55331e-08
7.80547e-08 3.55331e-08 0.00015215

0.000150017 -2.47435e-06 4.59061e-09
-2.47435e-06 0.000152153 -1.45607e-07
4.59061e-09 -1.45607e-07 0.000149567

0.000134841 -1.19223e-05 1.31595e-07
-1.19223e-05 0.000131068 -1.3552e-07
1.31595e-07 -1.3552e-07 0.000135222

0.000131706 6.60465e-08 -4.41373e-08
6.60465e-08 0.000136506 6.47043e-09
-4.41373e-08 6.47043e-09 0.000140659

0.000139823 3.7886e-07 4.57025e-08
3.7886e-07 0.000139688 1.95681e-08
4.57025e-08 1.95681e-08 0.000143971

0.000144944 -1.16672e-06 5.80433e-08
-1.16672e-06 0.000147534 -9.72261e-08
5.80433e-08 -9.72261e-08 0.000146931

0.000152594 1.56349e-06 -1.17683e-07
1.56349e-06 0.000155345 -3.10094e-08
-1.17683e-07 -3.10094e-08 0.000152322

0.000152897 -1.19718e-06 -1.16262e-07
-1.19718e-06 0.000155273 3.46935e-08
-1.16262e-07 3.46935e-08 0.000152321

0.000150934 2.39634e-06 7.59905e-08
2.39634e-06 0.000153738 1.30772e-09
7.59905e-08 1.30772e-09 0.000151332

0.00015026 -2.35683e-06 7.31471e-08
-2.35683e-06 0.00015388 2.02406e-10
7.31471e-08 2.02406e-10 0.000151332

0.000142539 6.63727e-09 1.60221e-07
6.63727e-09 0.000144646 6.63745e-08
1.60221e-07 6.63745e-08 0.000146042

0.000145704 -1.54972e-07 1.05766e-07
-1.54972e-07 0.000147434 2.35122e-08
1.05766e-07 2.35122e-08 0.000147753

0.000144799 1.14584e-06 3.02866e-08
1.14584e-06 0.000147593 -3.47194e-08
3.02866e-08 -3.47194e-08 0.000146928

0.000158204 -3.19094e-07 2.35881e-07
-3.19094e-07 0.000158627 -3.24179e-07
2.35881e-07 -3.24179e-07 0.000153303

0.000158204 3.47331e-07 2.35133e-07
3.47331e-07 0.000158141 3.23972e-07
2.35133e-07 3.23972e-07 0.000153302

0.000150685 -1.42465e-06 -7.92199e-08
-1.42465e-06 0.000152216 5.71872e-08
-7.92199e-08 5.71872e-08 0.00015031

0.000140814 -5.40177e-07 6.74763e-08
-5.40177e-07 0.000136868 -4.25123e-08
6.74763e-08 -4.25123e-08 0.000143748

0.000148418 4.72019e-07 -1.94089e-08
4.72019e-07 0.000152673 -1.14134e-08
-1.94089e-08 -1.14134e-08 0.000150536

0.000142139 -6.35444e-06 5.84311e-08
-6.35444e-06 0.000138064 2.24883e-08
5.84311e-08 2.24883e-08 0.000142621

0.000148827 3.36177e-06 -9.16653e-08
3.36177e-06 0.000147628 7.79777e-08
-9.16653e-08 7.79777e-08 0.000147035

0.000139098 5.90581e-07 -9.67254e-08
5.90581e-07 0.000138772 -8.91212e-08
-9.67254e-08 -8.91212e-08 0.000143403

0.000152319 2.57283e-06 -3.02864e-08
2.57283e-06 0.000153118 1.14375e-07
-3.02864e-08 1.14375e-07 0.000150249

0.00015069 1.21529e-06 -1.12494e-07
1.21529e-06 0.000152468 -2.68672e-08
-1.12494e-07 -2.68672e-08 0.000150304

0.000127306 1.16197e-05 -4.26206e-08
1.16197e-05 0.000131766 2.33223e-09
-4.26206e-08 2.33223e-09 0.000133815

0.000156547 4.49671e-08 -1.52424e-07
4.49671e-08 0.000150857 -1.85385e-08
-1.52424e-07 -1.85385e-08 0.00014709

0.000152706 5.86122e-06 4.35391e-08
5.86122e-06 0.000131034 1.23112e-08
4.35391e-08 1.23112e-08 0.000139565

0.000150551 2.80855e-06 -5.41547e-09
2.80855e-06 0.00015206 -1.71106e-08
-5.41547e-09 -1.71106e-08 0.000149618

0.000133471 5.54089e-06 1.75636e-09
5.54089e-06 0.000136083 -2.89496e-08
1.75636e-09 -2.89496e-08 0.000139653

0.000138526 -5.81419e-07 -3.6646e-09
-5.81419e-07 0.000136573 5.7101e-08
-3.6646e-09 5.7101e-08 0.000142836

0.000154453 -2.90481e-06 -1.67011e-08
-2.90481e-06 0.00015136 1.0635e-07
-1.67011e-08 1.0635e-07 0.000149432

0.000139565 -5.3683e-06 -1.05886e-10
-5.3683e-06 0.000137417 1.22386e-08
-1.05886e-10 1.22386e-08 0.000142181

0.00014183 3.69296e-06 -4.30888e-08
3.69296e-06 0.000141913 -4.51323e-08
-4.30888e-08 -4.51323e-08 0.000144587

0.000149431 -1.18687e-06 -1.13867e-07
-1.18687e-06 0.000153558 2.7326e-08
-1.13867e-07 2.7326e-08 0.000150705

0.000146424 -2.5555e-06 1.45158e-08
-2.5555e-06 0.000145521 8.79208e-09
1.45158e-08 8.79208e-09 0.00014656

0.000156561 3.60753e-06 1.1074e-07
3.60753e-06 0.000150736 1.05428e-07
1.1074e-07 1.05428e-07 0.000148154

0.000141078 -1.87471e-08 -2.36327e-08
-1.87471e-08 0.000141498 1.95219e-08
-2.36327e-08 1.95219e-08 0.000145032

0.000142215 -2.79265e-07 -2.05456e-07
-2.79265e-07 0.000139788 -1.65659e-07
-2.05456e-07 -1.65659e-07 0.000144693

0.000149318 1.23552e-06 -1.1344e-07
1.23552e-06 0.000153437 -2.60584e-08
-1.1344e-07 -2.60584e-08 0.000150706

0.00014963 -6.45203e-07 -2.06572e-08
-6.45203e-07 0.00015353 -1.07344e-08
-2.06572e-08 -1.07344e-08 0.000151082

0.000161209 2.58337e-06 -4.75114e-07
2.58337e-06 0.000159296 1.07073e-07
-4.75114e-07 1.07073e-07 0.000153662

0.000161209 -2.58337e-06 -4.75343e-07
-2.58337e-06 0.000159296 -1.07306e-07
-4.75343e-07 -1.07306e-07 0.000153661

0.000149551 1.13957e-06 1.29588e-07
1.13957e-06 0.000150669 4.88127e-08
1.29588e-07 4.88127e-08 0.000148788

0.000134885 -6.64932e-06 7.91736e-08
-6.64932e-06 0.000139646 7.36171e-08
7.91736e-08 7.36171e-08 0.000139878

0.000134842 6.95354e-06 1.33077e-07
6.95354e-06 0.000139369 1.97432e-08
1.33077e-07 1.97432e-08 0.000139883

0.000141711 -1.11997e-06 4.07768e-08
-1.11997e-06 0.000125544 -2.36818e-07
4.07768e-08 -2.36818e-07 0.000139176

0.00012624 -1.14333e-05 -5.23479e-08
-1.14333e-05 0.000132115 -1.34855e-07
-5.23479e-08 -1.34855e-07 0.000133727

0.000144935 8.12175e-07 1.0312e-07
8.12175e-07 0.000147182 -5.58467e-08
1.0312e-07 -5.58467e-08 0.00014753

0.000141811 1.98672e-08 -7.02349e-08
1.98672e-08 0.00013965 1.4153e-08
-7.02349e-08 1.4153e-08 0.000144672

0.000144689 1.35313e-06 -2.19528e-07
1.35313e-06 0.000146034 1.63092e-07
-2.19528e-07 1.63092e-07 0.000147094

0.000144604 -1.58231e-06 1.03478e-07
-1.58231e-06 0.000145983 -5.07585e-08
1.03478e-07 -5.07585e-08 0.000147168

0.000147394 6.03846e-07 -8.93984e-08
6.03846e-07 0.000148111 1.94189e-07
-8.93984e-08 1.94189e-07 0.000148255

0.000153123 2.73901e-06 -1.10028e-07
2.73901e-06 0.000151516 -1.58696e-08
-1.10028e-07 -1.58696e-08 0.000149468

0.000142908 1.29816e-06 1.5445e-07
1.29816e-06 0.000143105 2.27751e-08
1.5445e-07 2.27751e-08 0.000145829

0.00014502 1.88234e-07 3.48334e-09
1.88234e-07 0.000147621 6.45632e-10
3.48334e-09 6.45632e-10 0.000148206

0.000151949 -4.28561e-06 8.44021e-08
-4.28561e-06 0.000137878 -6.57655e-08
8.44021e-08 -6.57655e-08 0.000140318

0.000159899 4.51632e-06 -1.4677e-07
4.51632e-06 0.000149683 -2.03563e-07
-1.4677e-07 -2.03563e-07 0.0001464

0.000139164 -5.01133e-06 -1.00501e-07
-5.01133e-06 0.000131955 -1.36896e-07
-1.00501e-07 -1.36896e-07 0.000140172

0.00014166 -7.41661e-07 -5.06927e-08
-7.41661e-07 0.000111889 7.38208e-08
-5.06927e-08 7.38208e-08 0.000132969

0.000145056 -1.60947e-06 3.49072e-09
-1.60947e-06 0.00014781 2.45951e-07
3.49072e-09 2.45951e-07 0.000147567

0.000144841 1.68844e-06 1.07815e-07
1.68844e-06 0.000148131 -1.7726e-09
1.07815e-07 -1.7726e-09 0.000147629

0.000141568 -4.87435e-07 -2.7539e-08
-4.87435e-07 0.000122915 1.36037e-07
-2.7539e-08 1.36037e-07 0.00013903

0.000147449 2.46892e-06 6.34806e-09
2.46892e-06 0.000149874 1.44997e-07
6.34806e-09 1.44997e-07 0.000148096

0.000156074 1.47366e-06 -1.66225e-07
1.47366e-06 0.00015736 1.49686e-07
-1.66225e-07 1.49686e-07 0.000153003

0.000156203 -1.24807e-06 -1.66536e-07
-1.24807e-06 0.00015716 -1.49377e-07
-1.66536e-07 -1.49377e-07 0.000153002

0.000135823 -1.73147e-06 -9.95116e-08
-1.73147e-06 0.000136427 5.60077e-08
-9.95116e-08 5.60077e-08 0.000141027

0.000133717 -5.79332e-06 -7.13275e-08
-5.79332e-06 0.000136127 2.58683e-08
-7.13275e-08 2.58683e-08 0.000139672

0.000139292 -4.58885e-06 -6.84013e-08
-4.58885e-06 0.000127181 1.91645e-07
-6.84013e-08 1.91645e-07 0.000139777

0.000140638 2.16712e-07 7.88443e-08
2.16712e-07 0.000136824 7.54226e-08
7.88443e-08 7.54226e-08 0.000143601

0.000137503 -4.17402e-06 -3.68671e-08
-4.17402e-06 0.000136819 4.13065e-08
-3.68671e-08 4.13065e-08 0.000140151

0.000141018 -7.11388e-07 1.84298e-07
-7.11388e-07 0.000141701 -2.45769e-07
1.84298e-07 -2.45769e-07 0.000145445

0.000141655 -3.60589e-06 -1.53635e-08
-3.60589e-06 0.000142453 1.23216e-07
-1.53635e-08 1.23216e-07 0.000144665

0.000146721 2.61766e-06 2.90838e-08
2.61766e-06 0.000144641 -3.73925e-08
2.90838e-08 -3.73925e-08 0.000146457

0.000156048 -4.48618e-06 9.29447e-09
-4.48618e-06 0.000147663 -4.94079e-08
9.29447e-09 -4.94079e-08 0.000144564

0.000155034 2.95021e-06 -8.54617e-08
2.95021e-06 0.000146707 1.55793e-07
-8.54617e-08 1.55793e-07 0.000144159

0.000152934 2.41953e-08 6.38686e-08
2.41953e-08 0.000156227 -1.84459e-08
6.38686e-08 -1.84459e-08 0.000152512

0.000153364 -1.63615e-08 6.73364e-08
-1.63615e-08 0.000156187 2.15622e-08
6.73364e-08 2.15622e-08 0.000152513

0.000132818 -3.01402e-06 -4.99466e-08
-3.01402e-06 0.000135881 7.7842e-08
-4.99466e-08 7.7842e-08 0.000140554

0.000132765 3.27858e-06 3.32985e-08
3.27858e-06 0.000136384 5.852e-08
3.32985e-08 5.852e-08 0.000140471

0.000132326 -1.30142e-06 1.06179e-07
-1.30142e-06 0.000140887 -4.23021e-08
1.06179e-07 -4.23021e-08 0.000138315

0.000132406 1.95811e-06 1.30972e-07
1.95811e-06 0.000140926 1.07907e-08
1.30972e-07 1.07907e-08 0.000138307

0.000156543 1.70115e-06 1.10043e-07
1.70115e-06 0.000159208 1.41304e-07
1.10043e-07 1.41304e-07 0.000153502

0.000156543 -1.4625e-06 1.09435e-07
-1.4625e-06 0.00015918 -1.41514e-07
1.09435e-07 -1.41514e-07 0.000153502

0.000154087 2.77165e-06 -1.12197e-07
2.77165e-06 0.000152966 1.30892e-07
-1.12197e-07 1.30892e-07 0.000151129

0.000154824 -2.08624e-06 -1.10742e-07
-2.08624e-06 0.000153128 -1.48041e-07
-1.10742e-07 -1.48041e-07 0.00015113

0.000150261 -6.58649e-07 -4.90561e-08
-6.58649e-07 0.000152964 -6.49159e-08
-4.90561e-08 -6.49159e-08 0.000150469

0.000143186 -2.65448e-06 6.26115e-08
-2.65448e-06 0.000139393 5.12597e-08
6.26115e-08 5.12597e-08 0.000143176

0.000147882 6.03842e-07 -8.93794e-08
6.03842e-07 0.000147646 9.13286e-08
-8.93794e-08 9.13286e-08 0.000147167

0.000140451 -1.16821e-06 -1.03818e-07
-1.16821e-06 0.000138004 1.69132e-07
-1.03818e-07 1.69132e-07 0.000143734

0.000150347 4.57365e-07 -9.528e-08
4.57365e-07 0.000153089 5.5583e-08
-9.528e-08 5.5583e-08 0.000150463

0.000142795 2.17627e-06 4.44953e-08
2.17627e-06 0.000140255 -3.53998e-09
4.44953e-08 -3.53998e-09 0.000143184

0.000148325 -5.31835e-07 1.10384e-07
-5.31835e-07 0.000152015 3.10002e-08
1.10384e-07 3.10002e-08 0.000149764

0.000123534 -7.3503e-06 3.76203e-08
-7.3503e-06 0.000135881 -5.36639e-08
3.76203e-08 -5.36639e-08 0.000134787

0.000123635 7.34505e-06 2.22117e-08
7.34505e-06 0.00013556 6.50129e-08
2.22117e-08 6.50129e-08 0.000134793

0.000147382 1.11259e-07 1.30984e-07
1.11259e-07 0.000152183 1.56588e-08
1.30984e-07 1.56588e-08 0.000149757

0.000138731 5.46122e-06 2.67127e-08
5.46122e-06 0.000132015 -8.56528e-08
2.67127e-08 -8.56528e-08 0.00014008

0.000175028 2.16185e-06 -2.05131e-08
2.16185e-06 0.000132121 -2.02745e-07
-2.05131e-08 -2.02745e-07 0.000142134

0.000169895 -2.59628e-06 6.17358e-08
-2.59628e-06 0.000158726 -3.2108e-08
6.17358e-08 -3.2108e-08 0.000144794

0.000151318 1.50519e-06 2.03405e-07
1.50519e-06 0.000149002 -1.23386e-07
2.03405e-07 -1.23386e-07 0.000147723

0.000135441 -4.46804e-06 -1.13514e-07
-4.46804e-06 0.000132032 -1.3233e-07
-1.13514e-07 -1.3233e-07 0.000141193

0.00014139 -7.78185e-06 -2.75055e-08
-7.78185e-06 0.000129413 4.47397e-08
-2.75055e-08 4.47397e-08 0.000137605

0.000145112 -6.51976e-07 -1.86406e-07
-6.51976e-07 0.000145947 -1.51531e-07
-1.86406e-07 -1.51531e-07 0.000147247

0.000144948 1.02915e-07 9.88553e-08
1.02915e-07 0.000148072 2.0232e-07
9.88553e-08 2.0232e-07 0.000147719

0.000154737 8.66265e-07 3.84744e-08
8.66265e-07 0.000155538 -4.99756e-08
3.84744e-08 -4.99756e-08 0.000152667

0.000154839 -7.12711e-07 3.72871e-08
-7.12711e-07 0.000155784 5.6909e-08
3.72871e-08 5.6909e-08 0.000152667

0.000141437 7.66369e-06 -7.54583e-08
7.66369e-06 0.000129789 -1.51408e-07
-7.54583e-08 -1.51408e-07 0.00013761

0.000147695 -7.79483e-07 9.78945e-08
-7.79483e-07 0.000147462 7.0937e-08
9.78945e-08 7.0937e-08 0.000147315

0.000149063 -1.85435e-06 1.01659e-07
-1.85435e-06 0.000151847 4.75156e-08
1.01659e-07 4.75156e-08 0.000149932

0.000152441 1.71087e-06 1.33761e-07
1.71087e-06 0.000154527 2.38178e-07
1.33761e-07 2.38178e-07 0.000151576

0.000152591 -2.07972e-06 1.35243e-07
-2.07972e-06 0.000154484 -2.41529e-07
1.35243e-07 -2.41529e-07 0.000151575

0.000143857 -1.15455e-05 -7.76361e-08
-1.15455e-05 0.000137653 -3.34083e-07
-7.76361e-08 -3.34083e-07 0.000139254

0.000143573 1.14341e-05 -3.86116e-08
1.14341e-05 0.000137653 3.18198e-07
-3.86116e-08 3.18198e-07 0.000139256

0.000150474 3.85166e-06 9.22279e-08
3.85166e-06 0.000151032 -1.6821e-07
9.22279e-08 -1.6821e-07 0.000148548

0.000138841 -1.64281e-06 3.6352e-08
-1.64281e-06 0.00013438 -9.02794e-09
3.6352e-08 -9.02794e-09 0.000141522

0.000152999 2.25373e-06 -7.63081e-08
2.25373e-06 0.000156362 1.34951e-08
-7.63081e-08 1.34951e-08 0.000152493

0.000153716 -2.0328e-06 -7.18012e-08
-2.0328e-06 0.000156124 -1.26894e-08
-7.18012e-08 -1.26894e-08 0.000152493

0.000143761 -5.188e-06 2.48537e-08
-5.188e-06 0.000135658 4.58352e-08
2.48537e-08 4.58352e-08 0.000140375

0.000137922 -9.83963e-06 1.11079e-07
-9.83963e-06 0.000131249 -1.62334e-07
1.11079e-07 -1.62334e-07 0.000135742

0.000142514 -1.36316e-06 -2.08741e-07
-1.36316e-06 0.000145428 6.36642e-08
-2.08741e-07 6.36642e-08 0.000146919

0.000128753 9.62499e-07 7.40347e-08
9.62499e-07 0.000140504 -3.93792e-08
7.40347e-08 -3.93792e-08 0.00013759

0.000128788 -8.61957e-07 6.73199e-08
-8.61957e-07 0.000140573 6.62979e-09
6.73199e-08 6.62979e-09 0.000137583

0.000135876 -9.53973e-06 -3.94114e-08
-9.53973e-06 0.000133682 2.52996e-08
-3.94114e-08 2.52996e-08 0.0001389

0.000148377 2.14942e-06 5.07946e-08
2.14942e-06 0.000151641 -6.28524e-08
5.07946e-08 -6.28524e-08 0.000149993

0.000135377 2.17105e-06 5.07785e-08
2.17105e-06 0.000136705 4.69224e-08
5.07785e-08 4.69224e-08 0.000140935

0.00013048 6.61243e-07 6.83195e-09
6.61243e-07 0.000137715 -1.13873e-07
6.83195e-09 -1.13873e-07 0.000139385

0.000130548 -7.04928e-07 3.07412e-08
-7.04928e-07 0.000137862 4.88798e-08
3.07412e-08 4.88798e-08 0.000139366

0.000138729 5.86676e-06 2.64863e-08
5.86676e-06 0.000126153 5.73666e-09
2.64863e-08 5.73666e-09 0.000139603

0.000154582 1.05563e-06 -5.39258e-09
1.05563e-06 0.000157493 1.6806e-07
-5.39258e-09 1.6806e-07 0.000152987

0.000154582 -1.16632e-06 -8.08581e-09
-1.16632e-06 0.000157615 -1.68611e-07
-8.08581e-09 -1.68611e-07 0.000152987

0.000160191 -9.3099e-08 -3.62827e-09
-9.3099e-08 0.000152008 -2.19896e-07
-3.62827e-09 -2.19896e-07 0.000143429

0.000158956 5.65848e-06 2.86758e-07
5.65848e-06 0.000153242 -2.60666e-07
2.86758e-07 -2.60666e-07 0.000144437

0.000143521 6.60413e-07 1.02037e-07
6.60413e-07 0.000144886 -1.88618e-07
1.02037e-07 -1.88618e-07 0.000146166

0.000143451 -2.18912e-07 5.34547e-08
-2.18912e-07 0.000139444 2.54599e-08
5.34547e-08 2.54599e-08 0.000144643

0.000152389 2.42219e-06 -1.13023e-07
2.42219e-06 0.000154286 -1.90159e-07
-1.13023e-07 -1.90159e-07 0.000150957

0.000152792 -1.90655e-06 -1.14825e-07
-1.90655e-06 0.0001542 1.85143e-07
-1.14825e-07 1.85143e-07 0.000150958

0.000152866 1.95632e-06 -8.77844e-09
1.95632e-06 0.000151741 -3.00825e-08
-8.77844e-09 -3.00825e-08 0.000148824

0.000142892 6.44551e-07 -2.2653e-07
6.44551e-07 0.000145194 -1.26252e-07
-2.2653e-07 -1.26252e-07 0.000146668

0.000146107 -1.11908e-07 1.50063e-07
-1.11908e-07 0.00014573 1.19427e-07
1.50063e-07 1.19427e-07 0.000147544

0.000159463 -2.94324e-06 1.79568e-07
-2.94324e-06 0.00016139 -7.02287e-07
1.79568e-07 -7.02287e-07 0.000153735

0.000159463 2.94324e-06 1.7983e-07
2.94324e-06 0.00016139 7.02084e-07
1.7983e-07 7.02084e-07 0.000153736

0.000130444 -7.80059e-08 4.59357e-08
-7.80059e-08 0.000136457 4.27915e-08
4.59357e-08 4.27915e-08 0.000140605

0.000150254 2.10311e-06 1.02978e-07
2.10311e-06 0.000150596 -3.22339e-08
1.02978e-07 -3.22339e-08 0.000149457

0.000152906 1.01652e-06 -1.61622e-07
1.01652e-06 0.000153679 8.44538e-08
-1.61622e-07 8.44538e-08 0.000150966

0.000152948 -1.44594e-06 -1.5784e-07
-1.44594e-06 0.000153728 -8.91344e-08
-1.5784e-07 -8.91344e-08 0.000150967

0.000150187 1.62756e-06 1.11108e-08
1.62756e-06 0.000151976 8.96703e-08
1.11108e-08 8.96703e-08 0.000149843

0.000150475 -1.88872e-06 9.53566e-08
-1.88872e-06 0.000150308 5.68927e-08
9.53566e-08 5.68927e-08 0.000149454

0.000143266 9.84549e-09 -2.87783e-08
9.84549e-09 0.000145411 2.14757e-07
-2.87783e-08 2.14757e-07 0.000146302

0.000142591 -3.68572e-07 2.6252e-08
-3.68572e-07 0.000145703 -4.07969e-08
2.6252e-08 -4.07969e-08 0.00014634

0.000146388 -1.39298e-06 -1.09823e-07
-1.39298e-06 0.000149384 1.07036e-07
-1.09823e-07 1.07036e-07 0.000148533

0.000149728 -1.7105e-06 -5.69776e-09
-1.7105e-06 0.000152394 -8.95651e-08
-5.69776e-09 -8.95651e-08 0.00014984

0.000144048 -5.14758e-07 6.3929e-08
-5.14758e-07 0.000143282 4.13477e-09
6.3929e-08 4.13477e-09 0.000145956

0.000140234 7.08576e-07 1.31975e-07
7.08576e-07 0.000139192 8.2207e-09
1.31975e-07 8.2207e-09 0.000144199

0.000152009 2.58881e-06 1.74949e-08
2.58881e-06 0.000154233 -2.17837e-07
1.74949e-08 -2.17837e-07 0.000151589

0.000152123 -1.80443e-06 2.41433e-08
-1.80443e-06 0.000154264 2.12001e-07
2.41433e-08 2.12001e-07 0.000151589

0.000151418 1.80496e-06 1.46575e-07
1.80496e-06 0.000155767 2.22848e-07
1.46575e-07 2.22848e-07 0.000151971

0.00015196 -1.78189e-06 1.49951e-07
-1.78189e-06 0.000156068 -2.24155e-07
1.49951e-07 -2.24155e-07 0.00015197

0.000140913 -1.3394e-06 1.93131e-07
-1.3394e-06 0.000143384 -1.28932e-07
1.93131e-07 -1.28932e-07 0.000145632

0.000141925 -7.49211e-07 -1.30768e-07
-7.49211e-07 0.000141689 -2.70889e-07
-1.30768e-07 -2.70889e-07 0.000144899

0.000149818 -2.87883e-06 -1.04971e-07
-2.87883e-06 0.000153284 -5.11932e-08
-1.04971e-07 -5.11932e-08 0.000150546

0.000149639 2.7269e-06 -1.05935e-07
2.7269e-06 0.000152896 4.49792e-08
-1.05935e-07 4.49792e-08 0.000150546

0.000160087 -1.58247e-06 2.17533e-08
-1.58247e-06 0.000137536 -6.21176e-08
2.17533e-08 -6.21176e-08 0.000143173

0.000157248 1.06069e-07 2.91836e-07
1.06069e-07 0.000150206 -2.29102e-07
2.91836e-07 -2.29102e-07 0.000145233

0.000152922 1.50657e-06 -1.39948e-07
1.50657e-06 0.000155263 5.14909e-08
-1.39948e-07 5.14909e-08 0.000151824

0.000153524 -3.92234e-07 -1.41792e-07
-3.92234e-07 0.00015522 -5.10956e-08
-1.41792e-07 -5.10956e-08 0.000151823

0.000155953 8.99044e-07 -1.74442e-07
8.99044e-07 0.000156902 7.47584e-08
-1.74442e-07 7.47584e-08 0.000152911

0.000156108 -7.93999e-07 -1.74539e-07
-7.93999e-07 0.000156739 -7.6743e-08
-1.74539e-07 -7.6743e-08 0.00015291

0.000131645 -1.62374e-06 4.28007e-08
-1.62374e-06 0.000137835 4.90582e-08
4.28007e-08 4.90582e-08 0.000139277

0.000133027 1.73877e-06 -9.9213e-08
1.73877e-06 0.000137647 -1.10635e-07
-9.9213e-08 -1.10635e-07 0.000139318

0.000152892 -8.93574e-06 1.01805e-07
-8.93574e-06 0.000139375 -2.34498e-07
1.01805e-07 -2.34498e-07 0.00013957

0.000134056 1.96926e-07 -9.74301e-08
1.96926e-07 0.000142566 1.67448e-07
-9.74301e-08 1.67448e-07 0.000137763

0.000156916 2.39042e-07 2.48013e-07
2.39042e-07 0.000158414 2.21351e-08
2.48013e-07 2.21351e-08 0.000153365

0.00015804 -3.31934e-07 -2.01371e-07
-3.31934e-07 0.000158507 4.37994e-07
-2.01371e-07 4.37994e-07 0.000153588

0.000156916 -4.31764e-07 2.49209e-07
-4.31764e-07 0.000158414 -2.1572e-08
2.49209e-07 -2.1572e-08 0.000153366

0.00015804 4.18176e-07 -2.01158e-07
4.18176e-07 0.000159024 -4.38341e-07
-2.01158e-07 -4.38341e-07 0.000153589

0.00015966 5.38669e-06 -1.70677e-07
5.38669e-06 0.000155271 2.82257e-08
-1.70677e-07 2.82257e-08 0.000146065

0.000133909 -1.24536e-08 -1.30429e-07
-1.24536e-08 0.000141907 -2.02603e-07
-1.30429e-07 -2.02603e-07 0.000137763

0.000163368 3.6397e-06 1.01634e-07
3.6397e-06 0.000156195 1.06265e-07
1.01634e-07 1.06265e-07 0.000153166

0.000143009 1.61291e-06 -1.13088e-07
1.61291e-06 0.000163936 -3.71285e-07
-1.13088e-07 -3.71285e-07 0.000153682

0.000143009 -7.06458e-06 -1.12897e-07
-7.06458e-06 0.000157208 3.71149e-07
-1.12897e-07 3.71149e-07 0.000153683

0.000152783 4.05554e-06 1.02113e-07
4.05554e-06 0.000160656 -1.06067e-07
1.02113e-07 -1.06067e-07 0.000153167

0.00015795 -1.50541e-07 -3.58039e-08
-1.50541e-07 0.000157153 -1.02061e-07
-3.58039e-08 -1.02061e-07 0.000153007

0.000156992 -1.65958e-06 7.00234e-10
-1.65958e-06 0.000155574 -7.78882e-08
7.00234e-10 -7.78882e-08 0.000152536

0.000157417 6.78305e-07 3.97552e-08
6.78305e-07 0.000160909 -4.51959e-07
3.97552e-08 -4.51959e-07 0.000153527

0.000158322 1.30126e-06 -3.52482e-08
1.30126e-06 0.000156278 1.02144e-07
-3.52482e-08 1.02144e-07 0.000153008

0.000157417 -3.6451e-07 4.03042e-08
-3.6451e-07 0.000160267 4.52012e-07
4.03042e-08 4.52012e-07 0.000153527

0.000156822 2.41152e-06 1.17383e-09
2.41152e-06 0.000155465 7.80256e-08
1.17383e-09 7.80256e-08 0.000152537

0.000157135 4.15537e-07 1.58018e-08
4.15537e-07 0.000157356 -1.01216e-07
1.58018e-08 -1.01216e-07 0.000152845

0.000158604 1.35375e-06 2.71027e-07
1.35375e-06 0.000157798 -2.17305e-08
2.71027e-07 -2.17305e-08 0.00015329

0.000157135 -7.19984e-07 1.5284e-08
-7.19984e-07 0.000157105 1.00812e-07
1.5284e-08 1.00812e-07 0.000152844

0.000158604 -1.32717e-06 2.70294e-07
-1.32717e-06 0.00015734 2.13937e-08
2.70294e-07 2.13937e-08 0.000153289

8.21163e-05 1.08012e-05 1.22832e-07
1.08012e-05 0.000106053 5.64853e-08
1.22832e-07 5.64853e-08 9.24213e-05

0.000114855 1.64335e-06 6.34173e-08
1.64335e-06 0.000123622 -5.23941e-09
6.34173e-08 -5.23941e-09 0.000116742

9.21829e-05 2.75378e-06 -1.07517e-07
2.75378e-06 0.000124626 1.11178e-08
-1.07517e-07 1.11178e-08 0.000109757

0.00011477 5.50299e-06 1.51032e-08
5.50299e-06 8.1449e-05 -9.1414e-09
1.51032e-08 -9.1414e-09 9.83743e-05

0.000110914 1.53514e-06 1.50251e-08
1.53514e-06 7.82491e-05 -9.18429e-09
1.50251e-08 -9.18429e-09 9.1386e-05

0.000115305 -1.14905e-06 5.59584e-08
-1.14905e-06 0.000127709 8.15242e-08
5.59584e-08 8.15242e-08 0.000124491

9.1877e-05 4.15295e-06 -9.69876e-08
4.15295e-06 0.000133467 -1.11358e-07
-9.69876e-08 -1.11358e-07 0.000116183

0.000111698 -1.51748e-06 2.24745e-08
-1.51748e-06 8.17263e-05 -6.26207e-08
2.24745e-08 -6.26207e-08 9.20246e-05

0.00012916 1.26942e-06 3.87182e-08
1.26942e-06 8.98284e-05 -3.63955e-08
3.87182e-08 -3.63955e-08 0.000111075

6.72841e-05 9.78026e-06 2.14785e-08
9.78026e-06 8.75335e-05 -1.63077e-07
2.14785e-08 -1.63077e-07 7.38806e-05

7.24332e-05 -1.52914e-05 -8.8469e-08
-1.52914e-05 8.87643e-05 -1.05678e-09
-8.8469e-08 -1.05678e-09 7.33629e-05

9.05628e-05 9.62256e-06 1.46785e-07
9.62256e-06 7.00436e-05 -1.21887e-08
1.46785e-07 -1.21887e-08 7.50633e-05

0.000119058 -1.75392e-05 1.13878e-07
-1.75392e-05 0.000129511 8.94531e-09
1.13878e-07 8.94531e-09 0.000122074

0.000110223 -5.34041e-06 3.6139e-08
-5.34041e-06 0.000128948 1.16217e-08
3.6139e-08 1.16217e-08 0.000118217

8.21005e-05 9.556e-06 1.228e-07
9.556e-06 0.000110149 5.11919e-08
1.228e-07 5.11919e-08 9.95841e-05

8.66863e-05 1.06306e-05 -7.13661e-08
1.06306e-05 0.000119861 -9.0077e-08
-7.13661e-08 -9.0077e-08 0.000109574

9.17116e-05 -4.25735e-06 7.0554e-08
-4.25735e-06 0.000134538 -9.4109e-09
7.0554e-08 -9.4109e-09 0.000115747

0.000109626 -1.29316e-05 -6.36054e-08
-1.29316e-05 0.000127395 1.16842e-07
-6.36054e-08 1.16842e-07 0.000120528

0.000114556 -9.59494e-06 -7.677e-08
-9.59494e-06 8.47459e-05 -9.30435e-08
-7.677e-08 -9.30435e-08 0.000102693

7.09594e-05 2.97288e-06 -7.37316e-08
2.97288e-06 0.000100113 2.17458e-08
-7.37316e-08 2.17458e-08 7.97695e-05

7.92386e-05 -5.77744e-06 1.32711e-09
-5.77744e-06 0.000100211 1.71351e-07
1.32711e-09 1.71351e-07 8.11825e-05

9.89774e-05 2.45873e-06 -5.25516e-08
2.45873e-06 7.57816e-05 1.16228e-07
-5.25516e-08 1.16228e-07 8.04975e-05

8.44573e-05 1.22377e-05 1.58063e-07
1.22377e-05 0.000100017 1.75455e-08
1.58063e-07 1.75455e-08 9.18301e-05

0.000103563 -8.48207e-06 8.42179e-08
-8.48207e-06 7.71738e-05 -3.54663e-08
8.42179e-08 -3.54663e-08 8.60437e-05

9.66787e-05 1.33596e-05 -7.69277e-08
1.33596e-05 0.000100101 5.26085e-09
-7.69277e-08 5.26085e-09 9.83665e-05

0.000101249 9.19483e-06 5.75175e-08
9.19483e-06 0.000108198 -1.28981e-07
5.75175e-08 -1.28981e-07 9.8117e-05

0.000118046 -3.10429e-06 -2.24198e-09
-3.10429e-06 8.19819e-05 -5.27596e-08
-2.24198e-09 -5.27596e-08 9.94863e-05

6.5645e-05 6.62358e-06 7.38532e-08
6.62358e-06 8.14629e-05 -6.6036e-08
7.38532e-08 -6.6036e-08 6.59102e-05

0.000123999 3.37459e-06 6.72737e-08
3.37459e-06 8.74545e-05 -8.29686e-08
6.72737e-08 -8.29686e-08 0.000108719

8.04391e-05 5.96631e-06 2.20734e-08
5.96631e-06 6.91575e-05 -8.30599e-08
2.20734e-08 -8.30599e-08 6.71647e-05

0.000124677 -6.01887e-06 -5.27599e-08
-6.01887e-06 0.000130079 1.23784e-07
-5.27599e-08 1.23784e-07 0.000125412

0.000109922 7.00195e-07 -9.18561e-08
7.00195e-07 0.000133425 -1.13353e-07
-9.18561e-08 -1.13353e-07 0.000118527

0.000138068 -6.15443e-06 3.0149e-07
-6.15443e-06 0.000127089 7.65251e-08
3.0149e-07 7.65251e-08 0.000125594

0.000131317 1.61796e-05 2.28338e-07
1.61796e-05 0.000132847 -2.99559e-10
2.28338e-07 -2.99559e-10 0.00012579

9.72792e-05 -3.95184e-06 -1.56646e-08
-3.95184e-06 7.41487e-05 1.69847e-08
-1.56646e-08 1.69847e-08 7.72592e-05

9.49941e-05 1.39836e-05 -5.68933e-08
1.39836e-05 0.000103936 2.8963e-08
-5.68933e-08 2.8963e-08 0.000104102

0.000118106 8.13954e-06 -1.34864e-08
8.13954e-06 0.000116366 2.13234e-07
-1.34864e-08 2.13234e-07 0.000118586

0.00012238 -2.30133e-06 1.05098e-07
-2.30133e-06 0.000119154 -4.63608e-08
1.05098e-07 -4.63608e-08 0.000119051

0.00012975 1.23335e-06 3.20277e-08
1.23335e-06 8.76324e-05 -8.14124e-08
3.20277e-08 -8.14124e-08 0.000111455

9.54619e-05 1.37018e-05 -4.61729e-08
1.37018e-05 0.000106465 9.23771e-09
-4.61729e-08 9.23771e-09 9.70198e-05

0.000102635 -1.06575e-05 6.99446e-08
-1.06575e-05 8.92786e-05 -1.3037e-07
6.99446e-08 -1.3037e-07 8.8555e-05

0.000129337 -1.06213e-07 3.4453e-08
-1.06213e-07 8.4762e-05 3.68253e-08
3.4453e-08 3.68253e-08 0.000109057

8.83844e-05 -1.86629e-05 6.72979e-08
-1.86629e-05 0.00010564 -4.33351e-08
6.72979e-08 -4.33351e-08 9.16166e-05

9.07127e-05 -1.60851e-05 1.29529e-07
-1.60851e-05 0.000108491 2.34861e-08
1.29529e-07 2.34861e-08 9.33781e-05

0.000116191 8.21603e-06 5.23033e-08
8.21603e-06 0.000122622 1.42258e-08
5.23033e-08 1.42258e-08 0.000119038

9.25542e-05 -1.84091e-05 1.81128e-07
-1.84091e-05 8.80166e-05 -1.2078e-07
1.81128e-07 -1.2078e-07 8.34895e-05

5.55791e-05 -1.85358e-05 -1.24844e-07
-1.85358e-05 5.39017e-05 1.01158e-07
-1.24844e-07 1.01158e-07 5.43304e-05

5.33787e-05 -1.95365e-05 4.76289e-08
-1.95365e-05 5.9579e-05 -2.35964e-08
4.76289e-08 -2.35964e-08 5.50662e-05

0.000105669 -2.16094e-05 6.21985e-08
-2.16094e-05 0.000128349 -1.06194e-08
6.21985e-08 -1.06194e-08 0.000118138

5.48392e-05 -7.31192e-06 4.81772e-08
-7.31192e-06 5.33667e-05 -1.42842e-08
4.81772e-08 -1.42842e-08 5.8099e-05

5.14304e-05 -5.50701e-06 -7.79217e-09
-5.50701e-06 5.51689e-05 1.06807e-07
-7.79217e-09 1.06807e-07 5.71849e-05

0.000138089 8.91965e-06 -1.32835e-07
8.91965e-06 0.000119625 5.41252e-08
-1.32835e-07 5.41252e-08 0.000129004

0.000128411 -1.20124e-05 1.12843e-07
-1.20124e-05 0.000115224 -1.85745e-07
1.12843e-07 -1.85745e-07 0.000119973

0.000117939 -6.25677e-06 6.35219e-08
-6.25677e-06 8.67121e-05 -4.24955e-08
6.35219e-08 -4.24955e-08 0.000108295

0.000137325 1.21653e-05 -1.02058e-07
1.21653e-05 0.000111796 -1.62468e-07
-1.02058e-07 -1.62468e-07 0.000127687

0.000126936 -1.72745e-05 1.38659e-07
-1.72745e-05 0.000114222 -4.06429e-09
1.38659e-07 -4.06429e-09 0.000119984

0.000101207 9.20484e-06 7.60795e-08
9.20484e-06 0.000114941 1.03734e-07
7.60795e-08 1.03734e-07 0.000106269

0.000137163 -5.82459e-06 -8.16309e-08
-5.82459e-06 0.000118331 -7.58492e-08
-8.16309e-08 -7.58492e-08 0.000123799

0.000129227 8.48802e-06 9.00155e-08
8.48802e-06 0.000124693 -1.37816e-07
9.00155e-08 -1.37816e-07 0.000123943

0.000127455 1.44954e-05 6.4851e-08
1.44954e-05 0.000107982 -1.03316e-07
6.4851e-08 -1.03316e-07 0.000119901

0.000117021 -1.88419e-05 -4.95377e-08
-1.88419e-05 0.000103405 2.77429e-08
-4.95377e-08 2.77429e-08 0.000113249

8.60539e-05 -1.26158e-05 -8.77277e-08
-1.26158e-05 6.84475e-05 -1.72804e-08
-8.77277e-08 -1.72804e-08 7.13764e-05

0.000130281 -3.43734e-06 -1.49408e-08
-3.43734e-06 0.000140927 -2.57783e-09
-1.49408e-08 -2.57783e-09 0.000134947

0.00011562 -8.78256e-07 3.98403e-08
-8.78256e-07 0.000146724 1.70453e-07
3.98403e-08 1.70453e-07 0.000123182

8.42206e-05 -1.56038e-05 -2.93512e-08
-1.56038e-05 0.000100295 -5.8435e-08
-2.93512e-08 -5.8435e-08 9.25179e-05

6.32568e-05 -5.58211e-06 -4.03532e-08
-5.58211e-06 7.95998e-05 -6.86897e-08
-4.03532e-08 -6.86897e-08 6.51423e-05

7.68302e-05 -4.96929e-06 -1.39373e-07
-4.96929e-06 6.23642e-05 1.69349e-08
-1.39373e-07 1.69349e-08 6.41033e-05

0.00010589 5.91074e-06 3.99154e-08
5.91074e-06 0.000122107 1.15927e-08
3.99154e-08 1.15927e-08 0.000114477

8.41153e-05 9.30442e-06 7.87857e-09
9.30442e-06 0.000119381 -7.15288e-08
7.87857e-09 -7.15288e-08 0.000106953

0.000166019 1.42777e-05 3.85311e-09
1.42777e-05 0.000132163 -6.93094e-07
3.85311e-09 -6.93094e-07 0.000137698

0.000154151 5.79563e-06 3.24564e-07
5.79563e-06 0.000165437 1.47192e-07
3.24564e-07 1.47192e-07 0.000126964

9.17206e-05 1.33341e-05 -3.16776e-08
1.33341e-05 0.000112617 -1.66005e-08
-3.16776e-08 -1.66005e-08 0.000113043

0.000122236 1.06076e-05 1.34526e-07
1.06076e-05 9.42188e-05 6.33695e-08
1.34526e-07 6.33695e-08 0.000112138

0.000116576 -1.64874e-05 -1.28317e-07
-1.64874e-05 9.34e-05 -6.65822e-09
-1.28317e-07 -6.65822e-09 0.000108414

9.51132e-05 1.93113e-05 1.26759e-07
1.93113e-05 0.000110808 -3.80372e-08
1.26759e-07 -3.80372e-08 0.000111853

9.26808e-05 -1.42402e-05 -6.4281e-08
-1.42402e-05 0.000124672 -2.75871e-08
-6.4281e-08 -2.75871e-08 0.000115584

9.65884e-05 -1.17629e-06 -2.81589e-08
-1.17629e-06 6.88634e-05 1.0359e-07
-2.81589e-08 1.0359e-07 7.63499e-05

0.000111864 -5.69278e-06 2.49113e-08
-5.69278e-06 8.13345e-05 -1.47578e-07
2.49113e-08 -1.47578e-07 9.54135e-05

0.000101964 6.4093e-06 -1.42002e-07
6.4093e-06 7.63318e-05 3.1268e-08
-1.42002e-07 3.1268e-08 8.44958e-05

0.000119003 7.50588e-06 3.56621e-08
7.50588e-06 0.000104506 -3.51308e-09
3.56621e-08 -3.51308e-09 0.000116303

0.000113225 6.01895e-06 -2.76375e-07
6.01895e-06 0.000146169 2.33853e-07
-2.76375e-07 2.33853e-07 0.000126724

0.000129963 -3.52546e-06 -1.4858e-07
-3.52546e-06 0.000131737 -1.48295e-07
-1.4858e-07 -1.48295e-07 0.000126545

8.15267e-05 1.08221e-05 -6.1393e-08
1.08221e-05 8.73209e-05 -1.57338e-07
-6.1393e-08 -1.57338e-07 7.76098e-05

0.000101526 -1.35559e-05 -9.73561e-08
-1.35559e-05 9.60561e-05 3.42391e-08
-9.73561e-08 3.42391e-08 9.64809e-05

0.000116968 7.73739e-06 6.45027e-08
7.73739e-06 9.30122e-05 6.98231e-09
6.45027e-08 6.98231e-09 0.0001058

0.000124104 9.90718e-06 1.24786e-07
9.90718e-06 0.000151469 1.91116e-07
1.24786e-07 1.91116e-07 0.000124642

0.000129556 -5.50478e-06 2.20526e-07
-5.50478e-06 0.000139964 5.46996e-08
2.20526e-07 5.46996e-08 0.000134183

0.000123176 -2.0811e-06 1.23801e-07
-2.0811e-06 0.000105122 3.75259e-08
1.23801e-07 3.75259e-08 0.000117119

0.00010991 -1.06166e-05 -7.54804e-08
-1.06166e-05 0.000123476 -8.61903e-08
-7.54804e-08 -8.61903e-08 0.000113544

9.19773e-05 -2.87501e-06 6.98611e-08
-2.87501e-06 0.000124994 -1.85073e-08
6.98611e-08 -1.85073e-08 0.000109465

0.000124903 2.52451e-06 2.67039e-08
2.52451e-06 8.57026e-05 4.68785e-08
2.67039e-08 4.68785e-08 0.000114241

0.000123762 -7.68409e-06 -1.70101e-08
-7.68409e-06 8.62036e-05 8.16605e-09
-1.70101e-08 8.16605e-09 0.000112708

8.67919e-05 -1.51395e-05 1.26714e-08
-1.51395e-05 8.08146e-05 -1.22109e-07
1.26714e-08 -1.22109e-07 7.74689e-05

0.000131965 9.859e-06 -8.68702e-08
9.859e-06 9.43987e-05 -3.30908e-08
-8.68702e-08 -3.30908e-08 0.000120738

0.000127339 -1.46202e-05 -1.58782e-08
-1.46202e-05 9.72079e-05 -3.1495e-09
-1.58782e-08 -3.1495e-09 0.000116281

0.000113947 -1.31934e-05 -7.37706e-08
-1.31934e-05 8.96029e-05 -5.56794e-08
-7.37706e-08 -5.56794e-08 0.00010289

8.48374e-05 -1.32712e-05 6.30205e-09
-1.32712e-05 0.00010528 -1.25273e-08
6.30205e-09 -1.25273e-08 9.35945e-05

0.000123256 5.83975e-06 2.04519e-08
5.83975e-06 9.55263e-05 7.92481e-08
2.04519e-08 7.92481e-08 0.00011585

0.000122456 -1.05505e-05 -1.85555e-08
-1.05505e-05 9.40668e-05 -3.11883e-10
-1.85555e-08 -3.11883e-10 0.00011263

0.000116429 -3.51467e-06 4.11833e-08
-3.51467e-06 9.15641e-05 -1.48021e-07
4.11833e-08 -1.48021e-07 0.000102311

0.000125225 1.66045e-05 -9.11281e-08
1.66045e-05 0.000118009 3.12239e-08
-9.11281e-08 3.12239e-08 0.000122314

9.68624e-05 1.08094e-05 -4.14771e-08
1.08094e-05 8.91574e-05 1.21821e-07
-4.14771e-08 1.21821e-07 8.85538e-05

9.36954e-05 1.67336e-05 8.70276e-08
1.67336e-05 0.000108914 -1.66029e-07
8.70276e-08 -1.66029e-07 0.000113847

0.000118797 1.19562e-05 1.92108e-08
1.19562e-05 0.000127467 -4.81261e-08
1.92108e-08 -4.81261e-08 0.000125636

0.000106514 6.2541e-06 -8.56328e-08
6.2541e-06 7.76805e-05 1.0091e-07
-8.56328e-08 1.0091e-07 8.98179e-05

0.000110547 -8.28005e-06 -5.41035e-08
-8.28005e-06 0.000100871 2.17554e-07
-5.41035e-08 2.17554e-07 0.000107802

0.000113353 5.29952e-06 8.23784e-09
5.29952e-06 8.98019e-05 -2.68276e-08
8.23784e-09 -2.68276e-08 0.000100621

8.45764e-05 1.31993e-05 1.59419e-07
1.31993e-05 8.91148e-05 4.54963e-08
1.59419e-07 4.54963e-08 8.52935e-05

9.68909e-05 1.22684e-05 -8.31989e-08
1.22684e-05 9.14389e-05 8.89482e-08
-8.31989e-08 8.89482e-08 9.57733e-05

8.08465e-05 1.04936e-07 -4.70443e-08
1.04936e-07 0.000124903 4.22441e-08
-4.70443e-08 4.22441e-08 0.000105819

9.91744e-05 -5.1932e-06 -8.46232e-08
-5.1932e-06 0.000120738 -8.14387e-08
-8.46232e-08 -8.14387e-08 0.000110679

8.68364e-05 -1.5459e-05 9.49555e-09
-1.5459e-05 6.9643e-05 -4.4131e-08
9.49555e-09 -4.4131e-08 7.46971e-05

0.000100296 -2.093e-05 4.45198e-08
-2.093e-05 0.000120795 -2.07986e-08
4.45198e-08 -2.07986e-08 0.000111619

8.52123e-05 -1.82963e-05 -5.40354e-08
-1.82963e-05 9.49601e-05 9.67321e-08
-5.40354e-08 9.67321e-08 8.59944e-05

9.57893e-05 1.4485e-05 -3.65242e-08
1.4485e-05 9.678e-05 8.96396e-08
-3.65242e-08 8.96396e-08 8.94979e-05

0.000112289 -6.87259e-06 1.29936e-07
-6.87259e-06 9.67558e-05 4.66874e-08
1.29936e-07 4.66874e-08 0.000101532

0.000131775 -5.98479e-07 -7.6491e-08
-5.98479e-07 9.09735e-05 7.6863e-08
-7.6491e-08 7.6863e-08 0.000115647

0.000127971 2.24778e-06 1.34788e-07
2.24778e-06 9.28822e-05 4.59867e-08
1.34788e-07 4.59867e-08 0.00011527

7.31393e-05 6.39615e-06 -9.82626e-08
6.39615e-06 0.00010393 -3.75254e-08
-9.82626e-08 -3.75254e-08 8.76754e-05

9.9947e-05 -1.63319e-05 -1.0881e-07
-1.63319e-05 0.0001048 -1.95555e-08
-1.0881e-07 -1.95555e-08 9.8284e-05

6.24103e-05 -2.11888e-06 6.61803e-08
-2.11888e-06 9.77096e-05 6.71234e-08
6.61803e-08 6.71234e-08 7.65126e-05

7.11935e-05 -2.64244e-06 1.87355e-07
-2.64244e-06 9.90677e-05 1.17263e-07
1.87355e-07 1.17263e-07 7.85278e-05

9.59587e-05 -3.55714e-06 -6.58641e-08
-3.55714e-06 6.61602e-05 7.79078e-08
-6.58641e-08 7.79078e-08 7.68736e-05

9.06813e-05 1.11602e-05 1.47643e-07
1.11602e-05 8.51599e-05 -6.54298e-09
1.47643e-07 -6.54298e-09 7.93392e-05

9.25999e-05 -1.9012e-05 -1.20799e-07
-1.9012e-05 8.29614e-05 3.41298e-09
-1.20799e-07 3.41298e-09 8.59347e-05

0.000156684 -6.95337e-06 2.56009e-07
-6.95337e-06 0.000158887 1.49504e-07
2.56009e-07 1.49504e-07 0.000126206

0.000127427 -1.71213e-05 9.66851e-08
-1.71213e-05 0.000147545 9.39714e-08
9.66851e-08 9.39714e-08 0.000135587

0.00010448 -1.13759e-05 1.19317e-07
-1.13759e-05 7.72584e-05 -9.38865e-08
1.19317e-07 -9.38865e-08 8.90403e-05

0.00011246 1.5217e-05 3.53654e-08
1.5217e-05 0.000117249 7.04352e-08
3.53654e-08 7.04352e-08 0.000113456

0.000118836 1.26239e-06 7.07781e-08
1.26239e-06 8.70987e-05 7.909e-08
7.07781e-08 7.909e-08 0.000108833

8.45718e-05 -1.36459e-05 5.46218e-08
-1.36459e-05 0.000107592 4.52729e-08
5.46218e-08 4.52729e-08 8.977e-05

8.83892e-05 1.41308e-05 -6.67753e-08
1.41308e-05 0.000124823 5.94972e-08
-6.67753e-08 5.94972e-08 0.000116244

0.000123305 6.0271e-06 -8.46525e-09
6.0271e-06 0.000131984 1.18803e-08
-8.46525e-09 1.18803e-08 0.000130069

0.000100461 -1.98796e-05 -1.38884e-07
-1.98796e-05 0.000108237 1.33673e-07
-1.38884e-07 1.33673e-07 0.000111745

0.000123664 1.4882e-05 -1.03311e-07
1.4882e-05 0.000125768 -1.25177e-08
-1.03311e-07 -1.25177e-08 0.000127054

8.68487e-05 1.1739e-05 -5.99084e-08
1.1739e-05 0.000109771 -1.31341e-07
-5.99084e-08 -1.31341e-07 0.000105251

0.000128638 -1.44331e-06 4.81234e-08
-1.44331e-06 7.2524e-05 6.34757e-08
4.81234e-08 6.34757e-08 0.000116258

9.98799e-05 1.43586e-05 9.6798e-08
1.43586e-05 8.49044e-05 -4.38277e-08
9.6798e-08 -4.38277e-08 8.82356e-05

0.000100381 -2.20625e-05 8.73353e-09
-2.20625e-05 0.000126826 8.64135e-08
8.73353e-09 8.64135e-08 0.000113162

9.95304e-05 1.24653e-05 9.46757e-08
1.24653e-05 9.60804e-05 -7.19506e-08
9.46757e-08 -7.19506e-08 9.26742e-05

8.17106e-05 -1.27865e-05 -1.94373e-07
-1.27865e-05 8.90527e-05 -7.99615e-09
-1.94373e-07 -7.99615e-09 7.6354e-05

9.87136e-05 -1.80543e-05 -1.02744e-07
-1.80543e-05 0.000112565 -2.85057e-08
-1.02744e-07 -2.85057e-08 0.000104249

7.29786e-05 -8.05182e-06 -1.27789e-08
-8.05182e-06 0.00010104 1.12091e-07
-1.27789e-08 1.12091e-07 8.14839e-05

8.46841e-05 2.99719e-06 -7.46512e-08
2.99719e-06 0.000101234 -2.34719e-08
-7.46512e-08 -2.34719e-08 8.41715e-05

9.76222e-05 -7.52896e-06 -1.66439e-09
-7.52896e-06 7.54403e-05 -5.29547e-08
-1.66439e-09 -5.29547e-08 8.1071e-05

9.23616e-05 -1.63347e-05 -1.21606e-07
-1.63347e-05 9.06663e-05 2.26418e-08
-1.21606e-07 2.26418e-08 8.87277e-05

8.09659e-05 -8.43455e-07 -4.60318e-08
-8.43455e-07 0.00011486 2.19182e-08
-4.60318e-08 2.19182e-08 9.696e-05

9.89657e-05 -2.96874e-06 -8.54519e-08
-2.96874e-06 0.000115585 -6.47781e-08
-8.54519e-08 -6.47781e-08 0.000100871

7.39976e-05 -1.63963e-05 -8.08557e-09
-1.63963e-05 8.37809e-05 -1.34348e-07
-8.08557e-09 -1.34348e-07 7.39542e-05

8.23356e-05 1.24085e-05 -9.87747e-08
1.24085e-05 8.60214e-05 1.17641e-07
-9.87747e-08 1.17641e-07 7.66939e-05

0.000121989 -2.84846e-07 6.17866e-08
-2.84846e-07 8.67292e-05 4.09828e-08
6.17866e-08 4.09828e-08 0.000117024

0.000120066 -3.13517e-06 1.70032e-08
-3.13517e-06 8.81435e-05 1.48799e-08
1.70032e-08 1.48799e-08 0.000115502

0.000114618 1.33832e-05 -5.60953e-09
1.33832e-05 0.00011844 8.83606e-08
-5.60953e-09 8.83606e-08 0.0001154

0.000104088 -2.19576e-05 1.62961e-10
-2.19576e-05 0.000128799 1.15421e-08
1.62961e-10 1.15421e-08 0.000117449

0.000101782 1.51427e-05 4.55613e-09
1.51427e-05 0.000104071 3.35822e-08
4.55613e-09 3.35822e-08 0.000108205

8.25056e-05 6.82005e-06 2.82716e-08
6.82005e-06 6.68613e-05 1.26159e-07
2.82716e-08 1.26159e-07 6.89329e-05

8.76599e-05 8.1016e-06 -1.20065e-07
8.1016e-06 0.000108125 -1.37318e-07
-1.20065e-07 -1.37318e-07 9.23527e-05

0.000132991 7.77257e-06 -6.0202e-08
7.77257e-06 0.000108379 -9.95848e-08
-6.0202e-08 -9.95848e-08 0.000123308

0.000126587 -1.34953e-05 1.15093e-07
-1.34953e-05 0.000103638 3.14017e-08
1.15093e-07 3.14017e-08 0.000116737

0.000122217 1.02549e-05 1.42112e-07
1.02549e-05 0.00010481 -2.35445e-08
1.42112e-07 -2.35445e-08 0.000114242

0.000116659 -1.58301e-05 -1.19084e-07
-1.58301e-05 9.75339e-05 1.00059e-07
-1.19084e-07 1.00059e-07 0.000108721

5.2085e-05 -8.20607e-06 6.18136e-08
-8.20607e-06 3.67363e-05 -8.55001e-08
6.18136e-08 -8.55001e-08 5.72908e-05

3.62312e-05 -9.11028e-06 8.57072e-08
-9.11028e-06 5.47773e-05 -5.8152e-08
8.57072e-08 -5.8152e-08 5.80707e-05

7.38402e-05 -9.91978e-06 3.04745e-08
-9.91978e-06 0.000104548 -1.59732e-08
3.04745e-08 -1.59732e-08 8.88682e-05

0.000150299 1.19511e-05 1.37698e-07
1.19511e-05 0.000118018 1.22712e-07
1.37698e-07 1.22712e-07 0.000132358

0.000142853 -1.80438e-05 -2.25616e-07
-1.80438e-05 0.000128266 8.01584e-08
-2.25616e-07 8.01584e-08 0.000124268

0.000112888 1.268e-05 -1.18339e-07
1.268e-05 0.000100408 4.67478e-09
-1.18339e-07 4.67478e-09 0.000104299

8.38426e-05 5.07579e-06 4.6229e-08
5.07579e-06 6.5939e-05 7.49603e-08
4.6229e-08 7.49603e-08 6.88286e-05

9.82574e-05 -1.52063e-05 4.29817e-08
-1.52063e-05 0.000121805 -2.6688e-08
4.29817e-08 -2.6688e-08 0.000109573

8.47482e-05 -7.67749e-06 8.95405e-08
-7.67749e-06 0.000122033 -8.93859e-09
8.95405e-08 -8.93859e-09 0.000107037

8.84702e-05 -1.8274e-05 8.93321e-08
-1.8274e-05 9.34905e-05 -2.24062e-07
8.93321e-08 -2.24062e-07 8.47481e-05

9.71552e-05 -1.49637e-05 -7.96569e-08
-1.49637e-05 0.000107861 -4.01927e-08
-7.96569e-08 -4.01927e-08 0.000113549

0.000105789 -1.74004e-05 1.99419e-07
-1.74004e-05 9.36158e-05 -1.35862e-07
1.99419e-07 -1.35862e-07 9.94067e-05

8.34801e-05 2.25996e-05 -1.2088e-08
2.25996e-05 0.00011489 -1.43156e-08
-1.2088e-08 -1.43156e-08 0.000113499

0.000125095 5.66509e-06 -2.01486e-08
5.66509e-06 0.000132024 1.26443e-08
-2.01486e-08 1.26443e-08 0.000129908

0.000111597 8.64268e-06 8.1109e-08
8.64268e-06 0.000125441 4.9827e-08
8.1109e-08 4.9827e-08 0.000118577

9.75241e-05 -1.63271e-05 7.77218e-08
-1.63271e-05 0.000105059 5.33077e-09
7.77218e-08 5.33077e-09 0.000106919

9.44741e-05 1.5628e-05 -3.26518e-08
1.5628e-05 0.000106341 -1.40406e-07
-3.26518e-08 -1.40406e-07 0.000106727

9.72859e-05 1.02248e-05 -8.84752e-08
1.02248e-05 7.77907e-05 -6.5291e-08
-8.84752e-08 -6.5291e-08 8.36556e-05

0.000110784 -1.12386e-07 6.05389e-09
-1.12386e-07 8.33702e-05 5.07311e-08
6.05389e-09 5.07311e-08 9.62864e-05

0.00012796 1.0866e-05 -7.67866e-08
1.0866e-05 0.000127193 -5.68437e-08
-7.67866e-08 -5.68437e-08 0.000128518

9.09229e-05 -1.7831e-05 1.2918e-07
-1.7831e-05 0.000116649 2.83229e-08
1.2918e-07 2.83229e-08 0.000101137

7.47754e-05 2.46256e-06 -1.36686e-07
2.46256e-06 0.000113095 7.10894e-08
-1.36686e-07 7.10894e-08 9.42156e-05

0.000117138 1.61383e-05 -1.08908e-07
1.61383e-05 0.000103213 1.28039e-08
-1.08908e-07 1.28039e-08 0.000110758

9.28634e-05 6.56232e-07 -1.65282e-07
6.56232e-07 0.000113524 -2.71869e-08
-1.65282e-07 -2.71869e-08 9.91917e-05

8.87054e-05 -1.23191e-05 5.3994e-08
-1.23191e-05 0.000123814 -6.90341e-08
5.3994e-08 -6.90341e-08 0.000115813

6.24827e-05 -1.04468e-05 -2.03727e-08
-1.04468e-05 6.82097e-05 1.56345e-07
-2.03727e-08 1.56345e-07 5.99444e-05

6.85414e-05 -1.07515e-05 -1.59172e-07
-1.07515e-05 6.13045e-05 1.49825e-08
-1.59172e-07 1.49825e-08 5.96333e-05

0.000117434 3.74409e-06 6.03109e-08
3.74409e-06 8.56063e-05 8.25621e-08
6.03109e-08 8.25621e-08 0.000104104

0.000106464 -1.94861e-05 -8.26655e-08
-1.94861e-05 9.66889e-05 1.05332e-07
-8.26655e-08 1.05332e-07 0.000104901

0.000166211 1.26089e-05 2.72258e-07
1.26089e-05 0.000123013 -4.71061e-08
2.72258e-07 -4.71061e-08 0.000136281

0.000164364 -2.00762e-06 4.71059e-07
-2.00762e-06 0.000143842 -2.05386e-07
4.71059e-07 -2.05386e-07 0.000126592

8.9414e-05 -1.36837e-05 1.25937e-08
-1.36837e-05 0.000109574 -2.64716e-08
1.25937e-08 -2.64716e-08 0.000105767

0.000120269 -4.17236e-06 -5.40956e-08
-4.17236e-06 0.000127039 1.5102e-07
-5.40956e-08 1.5102e-07 0.000123012

0.000117192 1.38776e-05 -2.68279e-07
1.38776e-05 0.000132528 -1.12458e-07
-2.68279e-07 -1.12458e-07 0.000123165

0.000123803 1.41674e-06 9.20938e-08
1.41674e-06 8.31454e-05 -5.39544e-08
9.20938e-08 -5.39544e-08 0.000103519

9.85187e-05 -2.37405e-05 -6.09318e-08
-2.37405e-05 0.000125912 -1.58645e-08
-6.09318e-08 -1.58645e-08 0.000112926

6.89264e-05 7.97205e-06 -1.34017e-08
7.97205e-06 6.93944e-05 -6.88736e-08
-1.34017e-08 -6.88736e-08 6.41522e-05

6.63302e-05 8.05961e-06 9.05468e-09
8.05961e-06 6.70123e-05 1.25261e-07
9.05468e-09 1.25261e-07 6.29584e-05

6.05439e-05 -9.03906e-06 -7.06033e-08
-9.03906e-06 8.11811e-05 -7.9823e-08
-7.06033e-08 -7.9823e-08 6.70495e-05

6.84127e-05 4.85125e-06 6.90466e-09
4.85125e-06 8.43993e-05 2.19602e-07
6.90466e-09 2.19602e-07 6.94056e-05

7.99484e-05 -8.07217e-06 -1.25965e-07
-8.07217e-06 6.19058e-05 7.89694e-08
-1.25965e-07 7.89694e-08 6.71566e-05

8.67471e-05 -2.17699e-05 -2.95647e-08
-2.17699e-05 0.000113394 4.16242e-08
-2.95647e-08 4.16242e-08 0.000113304

5.35371e-05 4.86417e-08 6.39939e-08
4.86417e-08 7.85849e-05 -6.90319e-08
6.39939e-08 -6.90319e-08 6.30972e-05

7.82009e-05 3.21097e-07 2.53686e-08
3.21097e-07 5.68967e-05 -7.16508e-08
2.53686e-08 -7.16508e-08 6.4116e-05

0.000114745 1.43518e-06 7.80876e-08
1.43518e-06 0.000137741 9.74785e-08
7.80876e-08 9.74785e-08 0.000121803

0.000122349 -1.25968e-05 3.39864e-08
-1.25968e-05 0.000135958 -1.54572e-07
3.39864e-08 -1.54572e-07 0.000126814

0.000120081 4.93694e-06 1.66989e-08
4.93694e-06 9.86353e-05 -2.15729e-08
1.66989e-08 -2.15729e-08 0.000109932

0.000130378 7.23851e-07 4.1024e-09
7.23851e-07 8.52477e-05 1.40765e-10
4.1024e-09 1.40765e-10 0.000111319

7.25699e-05 -1.17193e-05 -3.73768e-08
-1.17193e-05 9.2856e-05 8.26879e-08
-3.73768e-08 8.26879e-08 7.96867e-05

8.0973e-05 7.24424e-06 -1.10347e-07
7.24424e-06 9.63872e-05 1.95453e-08
-1.10347e-07 1.95453e-08 8.2414e-05

0.00012386 1.09485e-06 7.97136e-08
1.09485e-06 8.49706e-05 1.36149e-08
7.97136e-08 1.36149e-08 0.000103993

8.47552e-05 -1.28745e-05 6.95782e-09
-1.28745e-05 0.000111149 -2.20729e-08
6.95782e-09 -2.20729e-08 0.000100574

0.000142513 6.28801e-06 -1.03756e-07
6.28801e-06 0.000115482 -1.6183e-07
-1.03756e-07 -1.6183e-07 0.000129641

0.000134785 -9.37285e-06 -8.3617e-08
-9.37285e-06 0.000119034 -8.7181e-08
-8.3617e-08 -8.7181e-08 0.00012223

0.000107216 1.14344e-05 -9.54429e-08
1.14344e-05 0.000106357 1.2304e-07
-9.54429e-08 1.2304e-07 0.00010919

9.75439e-05 -1.99404e-05 -8.45841e-08
-1.99404e-05 0.000120598 5.66544e-08
-8.45841e-08 5.66544e-08 0.000106584

0.000120233 5.21262e-06 1.65471e-08
5.21262e-06 8.83597e-05 -2.31269e-08
1.65471e-08 -2.31269e-08 0.000107455

8.24069e-05 1.01929e-05 -8.48498e-08
1.01929e-05 7.85101e-05 -6.44856e-08
-8.48498e-08 -6.44856e-08 7.5614e-05

9.72137e-05 -2.18026e-05 2.89986e-08
-2.18026e-05 0.000118996 1.07539e-07
2.89986e-08 1.07539e-07 0.000105882

5.18779e-05 1.9229e-05 -1.95882e-08
1.9229e-05 5.21069e-05 -2.86943e-07
-1.95882e-08 -2.86943e-07 5.28766e-05

8.81885e-05 -7.77824e-06 3.1825e-08
-7.77824e-06 0.000113443 -1.46715e-08
3.1825e-08 -1.46715e-08 9.69754e-05

7.71107e-05 -4.42567e-06 6.51439e-08
-4.42567e-06 0.000112814 6.10798e-08
6.51439e-08 6.10798e-08 9.45472e-05

0.000110372 -1.58501e-06 -9.51493e-08
-1.58501e-06 0.000144753 -9.40466e-08
-9.51493e-08 -9.40466e-08 0.000122381

0.000125956 -1.01096e-05 6.37756e-09
-1.01096e-05 0.000134075 -2.22959e-07
6.37756e-09 -2.22959e-07 0.000130064

0.000134503 5.174e-06 1.19078e-08
5.174e-06 7.95233e-05 -2.44351e-08
1.19078e-08 -2.44351e-08 0.000121204

0.000129892 -7.8723e-06 5.30204e-09
-7.8723e-06 8.39752e-05 3.00026e-08
5.30204e-09 3.00026e-08 0.000118069

0.000109317 1.68513e-05 5.0274e-08
1.68513e-05 0.000110722 1.87232e-07
5.0274e-08 1.87232e-07 0.00011503

0.00011103 -1.04947e-05 7.71547e-08
-1.04947e-05 0.000115403 -5.43312e-08
7.71547e-08 -5.43312e-08 0.000115535

0.00011844 1.22938e-05 -2.75788e-07
1.22938e-05 0.00012313 -8.02278e-08
-2.75788e-07 -8.02278e-08 0.000122243

0.000117821 -8.93079e-06 -1.03248e-07
-8.93079e-06 0.000130837 -5.80178e-08
-1.03248e-07 -5.80178e-08 0.000121924

0.000157905 1.19261e-05 1.19145e-07
1.19261e-05 0.000123121 -3.81491e-08
1.19145e-07 -3.81491e-08 0.000135992

0.000150223 -1.79422e-05 -8.0125e-08
-1.79422e-05 0.000142026 -2.37629e-07
-8.0125e-08 -2.37629e-07 0.000125819

0.000138363 1.27942e-05 -4.21426e-09
1.27942e-05 0.000124159 9.08828e-09
-4.21426e-09 9.08828e-09 0.000131812

0.000101706 -2.33385e-05 -5.22606e-08
-2.33385e-05 0.000111054 -4.57172e-08
-5.22606e-08 -4.57172e-08 0.000116602

0.000113128 1.32951e-05 -1.25773e-07
1.32951e-05 9.14653e-05 3.48741e-08
-1.25773e-07 3.48741e-08 0.000101445

9.84788e-05 -1.47534e-05 4.3202e-08
-1.47534e-05 0.000117553 -2.51702e-08
4.3202e-08 -2.51702e-08 0.000102812

8.43506e-05 -9.42885e-06 9.58212e-08
-9.42885e-06 0.000115139 2.77471e-08
9.58212e-08 2.77471e-08 0.000100978

8.6048e-05 -1.3089e-05 -9.53828e-08
-1.3089e-05 8.36745e-05 9.5544e-08
-9.53828e-08 9.5544e-08 7.50954e-05

0.000106003 -1.74701e-05 2.27578e-07
-1.74701e-05 8.84038e-05 -5.74896e-09
2.27578e-07 -5.74896e-09 9.77025e-05

8.39966e-05 6.12155e-06 1.19114e-08
6.12155e-06 0.00011449 1.41657e-07
1.19114e-08 1.41657e-07 0.000100271

0.000107794 1.78379e-05 1.40852e-07
1.78379e-05 9.90922e-05 -3.07855e-08
1.40852e-07 -3.07855e-08 0.000100573

9.53223e-05 2.50933e-05 -3.58237e-08
2.50933e-05 0.000114082 -2.05221e-07
-3.58237e-08 -2.05221e-07 0.000117276

0.000102815 -2.09052e-05 2.95546e-08
-2.09052e-05 0.000125817 7.96464e-08
2.95546e-08 7.96464e-08 0.000116351

9.68179e-05 -1.96623e-05 8.6712e-08
-1.96623e-05 9.3098e-05 -1.55655e-07
8.6712e-08 -1.55655e-07 9.56294e-05

0.000123352 -1.56964e-06 -6.4573e-08
-1.56964e-06 0.00010401 2.13866e-07
-6.4573e-08 2.13866e-07 0.000111386

0.000132707 -6.19676e-06 -7.51761e-08
-6.19676e-06 0.000144073 1.22698e-07
-7.51761e-08 1.22698e-07 0.000133643

0.000155815 -5.43531e-06 -5.96534e-08
-5.43531e-06 0.00015111 -1.83586e-07
-5.96534e-08 -1.83586e-07 0.000125983

9.2361e-05 -7.69217e-06 -6.73878e-08
-7.69217e-06 0.000118508 9.81537e-08
-6.73878e-08 9.81537e-08 0.000110686

0.000107138 1.05373e-05 -1.03069e-07
1.05373e-05 9.62985e-05 2.04581e-08
-1.03069e-07 2.04581e-08 0.000106374

0.000127551 -8.14604e-07 1.79459e-07
-8.14604e-07 0.00010969 -5.95113e-08
1.79459e-07 -5.95113e-08 0.000118901

6.16219e-05 -1.36174e-05 -8.14751e-08
-1.36174e-05 7.08935e-05 2.34516e-08
-8.14751e-08 2.34516e-08 6.1318e-05

7.03325e-05 -1.19695e-05 -3.34845e-08
-1.19695e-05 6.15874e-05 8.29588e-08
-3.34845e-08 8.29588e-08 6.16297e-05

0.000133884 -3.1928e-07 1.77256e-08
-3.1928e-07 9.41198e-05 -3.16595e-08
1.77256e-08 -3.16595e-08 0.000123309

0.000130668 -2.29895e-06 -2.32496e-08
-2.29895e-06 9.57281e-05 -2.71039e-09
-2.32496e-08 -2.71039e-09 0.000118926

0.000132268 2.63204e-06 -1.13044e-07
2.63204e-06 0.000107347 -4.86157e-08
-1.13044e-07 -4.86157e-08 0.000119141

0.000105913 7.03018e-06 4.10345e-08
7.03018e-06 0.000115777 1.26588e-07
4.10345e-08 1.26588e-07 0.000106735

0.000106607 9.0634e-06 -8.62327e-08
9.0634e-06 8.8834e-05 6.5775e-08
-8.62327e-08 6.5775e-08 9.328e-05

0.000127909 1.22579e-05 3.50395e-08
1.22579e-05 0.000114824 1.34277e-07
3.50395e-08 1.34277e-07 0.000121695

0.000117654 -1.60472e-05 -6.18204e-08
-1.60472e-05 0.000107474 -7.08505e-08
-6.18204e-08 -7.08505e-08 0.00011363

0.000136597 -1.80186e-06 2.50215e-07
-1.80186e-06 0.000126009 3.735e-07
2.50215e-07 3.735e-07 0.000127135

0.000131437 1.8189e-05 2.14581e-07
1.8189e-05 0.000153405 -8.69497e-08
2.14581e-07 -8.69497e-08 0.000127352

8.92934e-05 -1.36344e-05 4.16133e-08
-1.36344e-05 0.000114215 1.42101e-07
4.16133e-08 1.42101e-07 0.00010982

0.000110343 9.25826e-06 -2.91999e-08
9.25826e-06 9.20245e-05 8.12332e-08
-2.91999e-08 8.12332e-08 0.000100012

0.000132021 8.47074e-06 -8.59888e-08
8.47074e-06 0.000108 -7.18478e-08
-8.59888e-08 -7.18478e-08 0.000123228

0.000127491 -1.1206e-05 -1.83574e-08
-1.1206e-05 0.000107487 -1.10647e-07
-1.83574e-08 -1.10647e-07 0.000117511

0.000105979 -1.95377e-05 6.02372e-08
-1.95377e-05 0.000124095 -3.86861e-08
6.02372e-08 -3.86861e-08 0.00011262

0.000101151 -2.48651e-05 -2.53798e-08
-2.48651e-05 0.000126216 -2.18424e-08
-2.53798e-08 -2.18424e-08 0.000113175

5.37121e-05 2.32135e-05 7.75011e-08
2.32135e-05 5.60009e-05 -8.68066e-08
7.75011e-08 -8.68066e-08 5.38824e-05

0.000101263 1.70431e-05 -8.9463e-08
1.70431e-05 0.000122409 -9.71698e-08
-8.9463e-08 -9.71698e-08 0.000119021

0.000107048 -1.55753e-05 -3.60935e-08
-1.55753e-05 0.000130014 -5.36277e-08
-3.60935e-08 -5.36277e-08 0.000118531

9.72108e-05 -2.14318e-05 2.83987e-09
-2.14318e-05 0.00012378 -5.7027e-08
2.83987e-09 -5.7027e-08 0.000110605

0.00010513 -1.45517e-05 9.73439e-08
-1.45517e-05 8.45182e-05 9.19033e-08
9.73439e-08 9.19033e-08 9.11322e-05

0.000110653 -9.59825e-06 -4.33515e-08
-9.59825e-06 0.00011438 2.56225e-08
-4.33515e-08 2.56225e-08 0.000110019

0.000109232 1.67957e-05 7.91489e-08
1.67957e-05 0.000112068 8.97354e-08
7.91489e-08 8.97354e-08 0.000116388

0.000109028 -1.33594e-05 5.07361e-08
-1.33594e-05 0.000122253 -1.53919e-07
5.07361e-08 -1.53919e-07 0.000116102

0.000123351 -1.39971e-06 -6.3776e-08
-1.39971e-06 8.89294e-05 -1.0783e-07
-6.3776e-08 -1.0783e-07 0.000108836

0.000135415 5.04137e-06 -5.42765e-09
5.04137e-06 0.000109588 -1.4674e-07
-5.42765e-09 -1.4674e-07 0.000127211

0.000130541 -4.1834e-06 -1.67187e-08
-4.1834e-06 0.000117593 -3.51716e-08
-1.67187e-08 -3.51716e-08 0.000121484

0.000128462 -7.07246e-06 -3.0091e-08
-7.07246e-06 0.000150232 7.69047e-08
-3.0091e-08 7.69047e-08 0.000133037

0.000123961 5.03288e-06 -3.12271e-07
5.03288e-06 0.000162707 7.30023e-08
-3.12271e-07 7.30023e-08 0.000125199

5.80653e-05 2.01782e-06 -8.22493e-08
2.01782e-06 3.95929e-05 7.21006e-08
-8.22493e-08 7.21006e-08 5.77864e-05

4.11308e-05 1.34885e-06 1.48783e-07
1.34885e-06 5.73591e-05 -1.24208e-07
1.48783e-07 -1.24208e-07 5.67956e-05

0.000124083 1.59884e-05 4.82389e-08
1.59884e-05 0.000120811 -1.24481e-07
4.82389e-08 -1.24481e-07 0.00012294

0.000107497 -1.60402e-05 -1.30969e-07
-1.60402e-05 0.000107376 1.43123e-07
-1.30969e-07 1.43123e-07 0.000112838

9.31502e-05 -1.52567e-05 1.31635e-07
-1.52567e-05 0.000111439 1.89958e-08
1.31635e-07 1.89958e-08 0.000112697

5.04837e-05 5.6966e-06 7.83947e-08
5.6966e-06 5.09823e-05 -7.72416e-08
7.83947e-08 -7.72416e-08 5.62729e-05

5.14914e-05 6.56294e-06 7.21283e-08
6.56294e-06 5.08777e-05 -8.76421e-08
7.21283e-08 -8.76421e-08 5.68185e-05

0.000156648 4.10188e-06 2.86568e-07
4.10188e-06 0.000161311 -3.72995e-07
2.86568e-07 -3.72995e-07 0.000126961

0.000155192 5.67049e-06 -3.33492e-07
5.67049e-06 0.000144715 5.03213e-07
-3.33492e-07 5.03213e-07 0.000135982

0.000102983 -1.45784e-05 -1.06218e-07
-1.45784e-05 0.000111464 -2.8001e-08
-1.06218e-07 -2.8001e-08 0.000108483

9.70005e-05 -1.7334e-05 1.29757e-07
-1.7334e-05 0.000100527 -8.20431e-08
1.29757e-07 -8.20431e-08 9.81711e-05

0.000124534 1.66685e-05 8.476e-08
1.66685e-05 0.000111147 1.08407e-07
8.476e-08 1.08407e-07 0.000119291

0.000109002 -2.01317e-05 -9.0467e-08
-2.01317e-05 0.000105565 -8.57468e-08
-9.0467e-08 -8.57468e-08 0.000110965

9.68942e-05 -1.84658e-05 7.5369e-08
-1.84658e-05 0.000103718 -9.86971e-09
7.5369e-08 -9.86971e-09 0.000103811

0.000109542 1.42613e-05 1.02456e-07
1.42613e-05 0.000106226 3.53685e-08
1.02456e-07 3.53685e-08 0.000103769

6.14554e-05 -6.0733e-06 4.45304e-08
-6.0733e-06 8.27208e-05 -4.86387e-08
4.45304e-08 -4.86387e-08 6.78107e-05

6.89248e-05 3.91887e-06 1.68428e-07
3.91887e-06 8.46313e-05 1.98766e-07
1.68428e-07 1.98766e-07 6.9482e-05

8.07909e-05 -5.70966e-06 -1.27798e-07
-5.70966e-06 6.58631e-05 7.05682e-08
-1.27798e-07 7.05682e-08 6.83906e-05

0.000113197 1.8068e-05 2.47846e-08
1.8068e-05 0.000109585 -7.71997e-08
2.47846e-08 -7.71997e-08 0.000110749

5.89755e-05 -4.21676e-06 -5.46877e-08
-4.21676e-06 7.93767e-05 -6.73101e-08
-5.46877e-08 -6.73101e-08 6.3916e-05

7.64422e-05 -3.12254e-06 -1.29348e-07
-3.12254e-06 5.76204e-05 -6.31449e-08
-1.29348e-07 -6.31449e-08 6.24648e-05

0.000134106 1.32386e-05 1.75783e-09
1.32386e-05 0.000119375 -1.33462e-07
1.75783e-09 -1.33462e-07 0.000127204

0.0001156 -1.82773e-05 1.29659e-07
-1.82773e-05 0.00010796 8.78335e-08
1.29659e-07 8.78335e-08 0.00011641

0.000132707 1.60082e-05 -4.7381e-08
1.60082e-05 0.000116989 3.69165e-08
-4.7381e-08 3.69165e-08 0.000126419

0.000115637 -1.7391e-05 4.55481e-08
-1.7391e-05 0.000113576 -1.99297e-07
4.55481e-08 -1.99297e-07 0.000117107

5.00745e-05 7.2165e-06 1.22388e-08
7.2165e-06 4.98358e-05 1.3401e-07
1.22388e-08 1.3401e-07 5.53829e-05

5.00617e-05 6.26049e-06 5.11242e-08
6.26049e-06 5.00505e-05 -2.81306e-07
5.11242e-08 -2.81306e-07 5.48043e-05

0.000117399 1.45031e-05 -1.04363e-07
1.45031e-05 0.000111713 -2.72774e-08
-1.04363e-07 -2.72774e-08 0.000114013

0.000106806 -1.75339e-05 -1.0198e-07
-1.75339e-05 0.000102985 -7.75809e-08
-1.0198e-07 -7.75809e-08 0.000106764

0.000127351 -1.16833e-05 -6.63882e-08
-1.16833e-05 0.000135834 -1.48728e-07
-6.63882e-08 -1.48728e-07 0.000129919

0.000121622 -4.1963e-06 -3.04746e-07
-4.1963e-06 0.000138373 1.19771e-07
-3.04746e-07 1.19771e-07 0.000123188

0.000135737 1.66065e-05 2.80771e-08
1.66065e-05 0.000125954 -9.17327e-08
2.80771e-08 -9.17327e-08 0.000131335

0.000106445 -1.46108e-05 4.5018e-08
-1.46108e-05 0.000122208 2.32624e-07
4.5018e-08 2.32624e-07 0.000118371

0.000142202 8.34561e-06 -1.11856e-07
8.34561e-06 0.000103874 -8.80003e-08
-1.11856e-07 -8.80003e-08 0.000127449

0.000134169 -1.28396e-05 -8.18514e-08
-1.28396e-05 0.000106933 -7.11194e-08
-8.18514e-08 -7.11194e-08 0.000121081

0.000100196 1.53595e-05 3.16477e-08
1.53595e-05 0.000112164 9.11859e-08
3.16477e-08 9.11859e-08 0.000112649

0.00010365 -1.79106e-05 -4.2539e-08
-1.79106e-05 0.000122119 -1.55298e-07
-4.2539e-08 -1.55298e-07 0.00011238

0.000127954 -1.20345e-05 4.27706e-08
-1.20345e-05 0.000130327 -1.5817e-07
4.27706e-08 -1.5817e-07 0.000124563

0.00012182 -1.06069e-05 7.60586e-09
-1.06069e-05 0.000147097 1.01208e-07
7.60586e-09 1.01208e-07 0.000129614

0.000148938 1.25312e-05 8.52935e-08
1.25312e-05 0.000113244 -7.91699e-08
8.52935e-08 -7.91699e-08 0.000131108

0.000159671 2.72715e-06 -2.39272e-07
2.72715e-06 0.000122197 2.21183e-07
-2.39272e-07 2.21183e-07 0.000134063

0.000143686 -1.3418e-05 8.75948e-08
-1.3418e-05 0.000124057 -1.12866e-07
8.75948e-08 -1.12866e-07 0.000124255

0.000155892 -1.23085e-06 5.01396e-07
-1.23085e-06 0.00013616 2.70065e-07
5.01396e-07 2.70065e-07 0.00012589

0.000115545 -3.21265e-06 1.11663e-07
-3.21265e-06 0.00015267 -2.28059e-07
1.11663e-07 -2.28059e-07 0.000123889

0.000131593 2.2506e-05 1.07588e-07
2.2506e-05 0.00013093 1.79508e-07
1.07588e-07 1.79508e-07 0.00012494

0.000165478 1.58743e-05 -1.85375e-07
1.58743e-05 0.000128495 -2.53908e-07
-1.85375e-07 -2.53908e-07 0.000139045

0.000186234 1.53578e-05 -1.78018e-06
1.53578e-05 0.000118905 6.59476e-07
-1.78018e-06 6.59476e-07 0.000138884

0.000178374 1.544e-05 2.24854e-07
1.544e-05 0.000166138 7.1597e-08
2.24854e-07 7.1597e-08 0.000127053

0.000136864 -1.88297e-05 3.41775e-07
-1.88297e-05 0.000152058 -3.91211e-07
3.41775e-07 -3.91211e-07 0.000124966

0.000159069 9.51115e-06 -1.12932e-08
9.51115e-06 0.000123929 9.96306e-09
-1.12932e-08 9.96306e-09 0.000137332

0.000145188 8.49489e-06 -1.22198e-07
8.49489e-06 0.00012867 -6.34775e-08
-1.22198e-07 -6.34775e-08 0.000134133

0.000157639 1.21368e-05 5.79618e-08
1.21368e-05 0.000130272 -3.10741e-07
5.79618e-08 -3.10741e-07 0.00013779

0.000142013 -1.45458e-05 -4.50462e-08
-1.45458e-05 0.00012724 1.95129e-07
-4.50462e-08 1.95129e-07 0.000124111

0.000144421 -6.21944e-06 -1.09876e-07
-6.21944e-06 0.000152733 -1.05081e-07
-1.09876e-07 -1.05081e-07 0.000126269

0.00013019 -8.05821e-06 -6.92307e-08
-8.05821e-06 0.000123833 2.11144e-07
-6.92307e-08 2.11144e-07 0.000121611

0.000146123 1.39189e-05 -1.10688e-07
1.39189e-05 0.000121212 7.75552e-08
-1.10688e-07 7.75552e-08 0.000132587

0.00015095 8.80388e-06 1.5247e-07
8.80388e-06 0.00012393 -4.39997e-09
1.5247e-07 -4.39997e-09 0.000133987

0.000131914 -1.86896e-05 -5.09845e-08
-1.86896e-05 0.000125431 -1.24336e-08
-5.09845e-08 -1.24336e-08 0.000122517

0.000144861 -9.30133e-06 -2.43337e-07
-9.30133e-06 0.000130023 -7.2338e-08
-2.43337e-07 -7.2338e-08 0.000124566

SCALARS pressure float
LOOKUP_TABLE default
-0.605816
-0.0190966
0.016458
-0.0132156
-0.506399
1.1066
1.12209
-0.570544
0.340736
-1.10434
-1.21968
-1.18311
0.67046
0.647406
-0.00672414
0.301069
1.15383
1.15012
-0.0969446
-1.30876
-1.36655
-1.45979
-0.464428
-0.515296
-0.308973
-0.628079
-0.00945074
-2.45729
0.403844
-2.47223
0.759692
0.769255
2.62743
2.63879
-1.47362
0.129382
0.948748
1.0356
0.341218
-0.563456
-0.789042
0.297142
-0.490199
-0.622982
0.203088
-0.811396
-2.38721
-2.38088
0.741363
-3.24012
-3.1073
0.826179
0.83177
-0.0413648
1.05708
1.059
-0.0889104
2.13491
2.14612
0.446698
0.452902
-1.23713
2.02924
2.02105
-0.553439
-2.57967
-2.55001
0.218106
0.286286
3.52334
3.52161
0.31935
0.26652
0.255805
0.476337
0.675509
-1.16873
-0.804522
1.21204
3.74502
3.70621
-1.39966
-0.052932
-0.294186
2.75926
2.75331
1.28104
0.0529342
0.0349182
0.259074
0.274239
-1.49144
-0.60662
0.605652
0.610557
-0.322485
-0.644338
0.14682
0.165572
-0.0448903
0.227585
-0.844901
0.349555
0.229215
-0.62678
0.602245
-0.177776
-0.541365
-0.0215018
0.524486
0.517501
-1.21751
0.482275
-0.873503
-0.867926
-0.157434
0.847669
0.773475
-0.515789
-0.328417
-0.96771
-1.01372
-1.11946
-1.54068
-0.64247
3.7589
3.74567
-0.602285
-0.129539
-0.0581033
-0.531782
0.607374
0.697388
0.231917
0.186591
-0.0243285
0.284708
-0.663664
0.355859
-0.804473
-1.46924
0.111591
-1.33749
-1.31932
-1.43943
-0.8283
-0.618737
-0.607144
-1.31981
-1.23913
0.399559
0.40223
-0.0743819
0.600684
0.433063
-1.80456
-0.626785
0.645403
0.637496
-0.0389472
-0.0278891
-4.44619
-4.41494
-0.577115
1.68099
1.6816
-0.369407
-1.77834
-0.609691
0.361529
0.324798
-0.764434
0.190055
-0.394174
0.378247
0.701693
0.738321
-0.061526
0.00410443
-0.760449
0.222967
-0.00843169
-0.250796
0.0832717
-0.296737
0.491239
-2.20742
-2.20723
0.0793151
-0.102816
2.77832
2.77892
-0.0972419
1.95057
1.97699
-0.0711283
0.361927
-1.79558
-1.67439
-2.12526
-2.12748
-2.2233
0.204237
-1.79791
-1.88944
1.41606
1.41628
0.0310476
0.422169
-0.998646
-0.982009
0.000158186
-0.0687664
1.13228
1.13805
0.156996
0.0193375
0.378754
-1.1164
-0.008288
-2.58144
-0.250933
-0.29223
1.82242
1.82244
0.509355
0.514357
1.05142
1.00468
1.39749
1.39012
2.37344
2.37385
0.431404
0.437958
-0.20354
-0.331641
-0.376052
-1.54444
-0.225836
-0.329056
-0.366596
0.756435
0.766981
-0.365605
0.154002
4.01456
4.01175
0.0579178
0.534936
0.87031
-2.2413
-2.23895
0.681437
0.688507
0.901408
-0.375644
-0.88417
0.25694
0.262009
4.23095
4.12518
0.240641
-0.320503
0.542871
0.536126
0.128792
0.301856
-2.62607
0.850262
0.857402
0.334393
-0.886579
0.183036
0.76534
0.77934
0.521213
0.942756
0.938836
2.66877
2.66732
-4.35331
-4.14493
0.138503
0.141213
0.210306
-3.38964
-3.37192
3.11703
3.11659
0.464432
-0.362678
0.297449
0.301753
-0.073816
-0.352654
-2.12866
-1.94975
-2.20328
-0.0801842
-1.92156
-1.90007
0.532935
0.53332
0.609556
0.613073
-3.47612
-3.42723
-0.0887293
-0.0995293
2.11403
2.10647
0.55815
0.565488
1.22249
1.22301
0.382444
0.374769
2.34592
1.69896
2.47809
1.7005
2.47835
2.33677
2.50654
2.51314
2.44608
2.2125
2.21025
2.4477
1.74251
0.894936
2.88896
1.74549
2.88809
0.897967
1.39675
1.78473
1.39828
1.78842
0.118007
0.326902
0.167671
-0.323594
1.20455
1.02008
-0.266812
0.72389
-1.28487
-1.5121
-1.523
0.610217
0.76792
-0.144554
0.996456
1.2328
0.0637201
-1.22224
-1.29401
-1.44063
-0.56105
-0.377025
0.249652
-2.53314
0.7111
0.879991
0.702914
1.66387
2.17482
-0.0443352
-0.460851
-1.18592
0.836212
0.917151
0.990972
-0.229391
0.922861
-0.772867
-0.270125
-0.67163
-0.58793
-0.471329
0.569262
0.362161
-0.537847
-0.512286
-6.45426
-6.55543
0.99826
0.811807
0.00117541
-4.0742
-4.19365
1.2932
1.12998
0.0694408
1.2987
1.42776
0.158963
1.55235
1.92149
0.756087
0.702499
1.51102
2.15454
-2.4567
-2.45398
0.316048
0.522414
2.83723
4.02688
-0.595205
0.507095
0.511073
1.27057
-1.13683
2.38526
1.61283
0.0682166
-0.205649
-1.38366
1.72695
2.8558
1.02551
0.16654
0.358372
0.485298
0.466459
-1.51425
-0.498219
0.848452
0.839649
-0.115039
0.303513
0.241043
0.116523
-0.75499
0.443544
0.812987
0.993124
0.330258
-0.591963
-2.24576
0.51538
-0.00863412
-2.17871
0.0196166
0.485504
0.589819
-0.560684
-1.39741
0.732854
0.464325
-0.768951
-0.860673
0.0222576
1.25314
1.3279
-0.596779
-0.141512
-1.13525
-1.24595
-1.36081
-0.508994
3.80407
1.24013
-0.659614
-0.532607
-1.93307
0.452839
-0.00201776
0.0533174
-0.354602
1.1299
0.748568
-1.44494
-1.61574
-1.93548
0.327788
1.153
0.429424
1.02704
0.387583
0.362284
-1.07496
-1.20107
-1.2187
-0.574968
-0.473339
-0.255906
-1.55441
-1.43176
0.364441
0.381246
0.508121
0.0505648
1.11278
0.688518
0.509931
-0.425742
0.890427
1.04746
-0.103708
0.299102
0.0946491
-3.26141
-0.775393
-3.5014
-0.561392
1.9945
2.1297
-0.281987
-0.455023
-0.668575
0.422322
0.435319
0.794275
0.687339
0.406492
1.28536
0.156116
-0.202916
0.413049
0.291688
-0.812129
0.0430543
-0.183438
-3.45222
-3.4224
-1.47182
0.0869981
2.98592
3.19082
1.27899
2.0055
0.406568
0.423084
1.20292
-2.71674
-2.56033
-2.15088
-2.18926
-2.23121
-1.21581
-2.57035
-2.51411
0.971624
1.51167
0.357743
1.30633
-1.04554
-0.9499
0.308962
1.50112
1.48725
0.307438
0.337451
0.0938075
0.621244
0.416705
0.0771478
-6.74763
-0.210265
-0.222521
1.11071
1.89223
0.716396
0.69867
0.843052
1.03984
0.853071
1.14022
2.94351
2.20266
0.699478
1.36766
-0.0462874
0.0513344
-0.051191
-0.217419
0.0257619
-0.247796
-0.252864
1.11797
0.742549
0.365645
1.44314
4.12932
0.534545
1.05031
-3.2562
-3.12773
0.87798
0.799105
0.679136
0.015947
-0.82248
0.790217
0.446943
1.48732
3.71403
-0.0608709
0.738359
0.723542
0.233753
0.525568
0.975401
0.365862
-6.96977
0.969247
0.863208
0.667707
0.397459
-0.672843
0.373441
0.701579
0.742827
0.675249
1.02599
1.12287
2.73213
1.87035
-3.70841
-3.53304
0.305328
0.809439
-4.50382
-4.37049
3.949
3.57988
0.41314
0.536934
0.722091
-0.225716
-0.0884028
-2.08885
-2.12131
-2.23161
0.0854997
0.342938
-2.73505
-2.76523
1.12642
0.800152
0.978991
0.90277
-4.57737
-4.57733
0.0485644
0.346774
1.50186
2.22859
1.13981
0.830926
1.68317
1.60862
0.704328
0.40813
2.24894
3.13647
2.34492
3.25601
1.7768
1.6605
2.48309
2.44495
3.34406
2.96993
1.1096
2.26128
2.36677
1.25155
3.64018
1.96942
2.38854
1.33897
1.51459
2.31154
1.88671
2.26661
-0.446058
0.185593
0.408345
0.106752
-0.301699
1.15199
1.21682
-0.395649
0.705195
-1.3045
-1.45714
-1.46109
0.914861
0.683818
0.195106
0.64302
1.18087
1.20605
0.0704627
-1.25439
-1.24832
-1.44098
-0.257704
-0.549021
-0.103804
-0.472647
0.222069
-2.60789
0.538918
-2.68123
0.913043
0.907384
1.65818
1.65869
-1.3344
0.361382
0.841038
0.788927
0.864979
-0.445178
-0.589428
0.837555
-0.26196
-0.440401
0.344924
-0.78544
-6.47886
-6.68665
1.10911
-4.37207
-4.00701
1.18901
1.19319
0.0533716
1.4991
1.4895
0.0167122
1.53447
1.54805
0.750668
0.754151
-1.54236
1.90439
2.04553
-0.446058
-2.4553
-2.47998
0.36379
0.574077
4.32167
4.19418
1.03803
0.554392
0.543711
0.769535
0.827992
-1.20545
-0.520392
-0.785398
0.99246
1.61991
1.60912
-1.39631
0.00253677
-0.208134
2.13048
2.77721
0.995955
0.399479
0.272022
0.482593
0.495837
-1.58644
0.889238
0.881745
-0.213094
-0.464051
0.223893
0.235021
0.0589447
0.47905
-0.647742
1.02153
0.397549
-0.590808
0.481834
-0.0696796
-0.558827
-0.00451855
0.585203
0.576479
-1.41966
0.78477
-0.797574
-0.821444
0.0776143
1.19888
1.1104
-0.392413
-0.142874
-1.15439
-1.17335
-1.377
-1.60796
-0.557305
3.05805
2.49304
-0.556422
0.0720428
0.0311487
-0.380395
1.2966
0.727846
0.484485
0.409478
0.486537
0.428226
-0.637171
1.03788
-0.751171
-1.49766
0.37442
-1.13709
-1.13197
-1.26479
-0.742295
-0.335921
-0.335776
-1.44834
-1.48609
0.343475
0.343775
0.101835
1.35569
0.430995
-1.92692
-0.545561
0.925991
0.919141
-0.255557
0.11007
0.111576
-3.53359
-3.30521
-0.506206
2.2075
2.19003
-1.96352
0.543266
0.414747
-0.734362
0.407324
1.26127
0.760871
0.975435
0.117148
0.363308
-0.250763
-0.71212
-0.491487
0.42822
0.230493
-0.145176
0.334194
-0.207624
0.594817
-3.43986
-3.49391
0.0865383
0.341011
3.33815
3.27436
0.0979803
1.26869
1.26194
0.340346
1.29646
-2.74917
-2.59305
-2.23353
-2.19516
-2.24772
0.412806
-2.52357
-2.72211
1.39811
1.34707
0.293364
1.19933
-1.04582
-1.03961
0.261284
0.0252181
1.54381
1.54298
0.329709
0.383014
0.54825
-1.27202
0.472204
-6.77183
-0.1522
-0.213384
1.63523
1.62502
0.712346
0.714462
0.837999
0.839173
0.854575
0.852735
3.11227
3.06221
0.747609
0.751464
-0.00780115
0.038118
-0.182285
-0.139863
-1.56847
-0.0188115
-0.013722
1.15026
1.15418
0.380399
2.23845
3.80745
0.204879
0.421416
0.702292
-0.203026
-3.3168
-3.1832
0.811716
0.825083
0.682366
-0.153797
-0.81916
0.49518
0.493225
1.48149
1.4842
0.393734
-0.049053
0.778133
0.778883
0.671793
1.03396
-6.94263
0.970634
0.962896
0.762269
-0.79802
0.357118
0.718111
0.69796
0.637355
1.17063
1.1638
2.49482
2.36142
-3.56593
-3.65296
0.37722
0.373393
0.391199
-4.35857
-4.47377
3.59686
3.65448
0.447797
-0.20886
0.578488
0.579138
0.147334
-0.214738
-2.09998
-2.20417
-2.21368
0.139873
-2.76227
-2.70203
0.860263
0.853803
0.965755
0.971694
-4.59254
-4.625
0.0825154
0.0777636
1.87571
2.12021
0.887764
0.908542
1.65629
1.65206
0.697421
0.693092
2.29997
3.20913
2.29792
3.23619
2.40094
1.65924
1.65781
2.09059
3.52261
3.34773
3.49577
3.22633
2.46511
1.32681
3.8927
2.46755
1.33836
3.8108
1.98086
2.35565
1.96874
2.34332
-0.594253
0.334605
0.125956
0.139853
-0.287585
1.01915
1.20388
-0.294609
0.918212
-1.41939
-1.40107
-1.49234
0.751797
0.608263
0.0104477
0.0220202
0.376245
1.23772
0.997443
0.0789746
-1.31269
-1.17372
-1.39687
-0.416396
-0.474132
0.274837
-2.58758
0.597139
0.703611
0.885975
2.16631
1.66173
0.010521
-0.282375
-1.15845
0.975504
0.7845
0.883775
0.879911
-0.72648
-0.675202
-0.602068
0.573715
-0.427285
-0.253834
-6.5956
-6.42342
1.00469
0.160424
-3.99411
-4.23814
1.12626
1.29195
0.0699524
1.43824
1.29777
1.90707
1.56415
0.701573
0.7566
1.50975
2.12953
-0.472824
-2.41221
-2.43569
0.527194
0.353389
4.14809
2.82555
-0.674947
0.387924
0.512605
0.504025
0.537754
0.771572
1.02942
-1.15874
1.61669
2.3806
0.0230318
-0.0998783
-1.42346
2.86053
1.72689
1.30427
0.356839
0.161374
0.494854
0.462299
-1.5821
-0.451904
0.854504
0.834852
-0.223838
-0.50356
0.228037
0.31485
0.172137
-0.662453
0.812041
0.391133
0.992453
-0.583159
-2.21898
0.630431
-0.0482093
-2.14671
0.0134112
0.594094
0.481549
-0.61188
-1.427
0.644036
-0.833168
-0.816312
-0.00622475
1.39042
1.16079
-0.5439
-0.426628
-1.20368
-1.1929
-1.36951
-0.587501
3.84613
1.23999
-0.641154
-0.548482
-1.96091
0.444854
0.0495492
0.775521
1.13064
-1.37701
-1.52845
0.453823
-1.94474
1.15483
0.0374357
0.430985
1.02708
-0.173648
-1.19955
-1.07689
-1.27397
-0.783898
-0.237385
-0.493392
-1.52793
-1.47712
0.380157
0.365828
0.498289
1.11286
0.457365
1.0517
0.885004
0.0940604
0.298603
-3.30306
-0.676548
-3.5129
0.181748
-0.560601
-0.384717
2.14737
1.99113
-0.116737
-0.507864
-0.610288
0.416853
0.421396
0.32356
-0.267622
0.44315
0.687564
0.824639
0.0743743
0.0562456
1.2853
-0.158285
-0.201384
0.414545
-0.625189
0.158613
0.636742
-3.42977
-3.40688
-1.40916
0.294155
0.0737389
2.97636
3.25087
0.0553087
1.99605
1.2709
0.370975
1.20265
-2.63647
-2.64925
-2.19679
-2.14296
-2.26262
-1.3153
0.384464
-2.62439
-2.51718
0.971945
1.52212
0.305541
1.33191
-0.925631
-1.05511
0.37647
0.0167819
1.48767
1.5028
0.352009
0.42796
0.557917
0.36509
-6.83828
-0.230445
-0.230367
1.10999
1.89083
0.69099
0.719776
1.09561
0.847208
1.15386
0.861058
2.99134
2.19849
0.696385
1.36799
0.0238556
0.0558115
-0.238174
-0.0518361
-0.239998
-0.00876687
-0.0695977
0.788444
1.10813
-0.228649
0.437848
1.44354
4.09587
0.193545
0.439726
0.697173
-3.27619
-3.15292
0.789414
0.893598
1.05158
-0.69892
0.449858
0.789117
3.68283
1.47888
0.372532
-0.0378536
0.72653
0.738878
0.521484
0.971117
-6.88675
0.906541
0.939843
0.672784
-0.789485
0.315673
0.693333
0.716282
0.71916
1.02698
1.12993
1.87055
2.73108
-3.65079
-3.53826
0.305041
0.807883
0.30802
-4.50304
-4.343
3.93161
3.63696
0.46754
-0.22877
0.538051
0.721041
0.105348
-0.0781463
-1.98367
-2.1948
-2.23284
0.339479
-2.68539
-2.76428
0.807326
1.12553
0.899158
0.979052
-4.59302
-4.6146
0.344205
0.0496559
1.50151
2.22151
0.811883
1.14058
1.61345
1.6804
0.495827
0.636231
2.46449
2.45802
1.66493
1.77746
2.34219
3.24617
2.24833
3.16273
3.37031
2.26019
1.10826
3.08299
2.36384
1.24062
1.96878
1.3365
2.38332
3.71903
1.89867
2.27804
1.51481
2.3074
0.339566
-0.0594767
-0.0439372
-0.557963
1.02311
0.835511
-0.52607
0.34562
-1.51493
-1.58853
-1.46656
0.438281
0.627407
-0.323345
0.830307
1.04579
0.137795
-1.43612
-1.23792
-1.3928
-0.606029
-0.443804
-0.754999
0.00768529
-2.69606
0.39081
-2.66348
0.720055
0.586067
2.51521
2.52137
-1.49775
-0.0843075
0.879623
1.22442
0.362909
-0.231276
-0.536833
-0.71914
0.344175
-0.688128
-0.272458
-0.674707
-0.424394
0.0764379
0.514236
-0.817161
-6.65049
-6.69153
0.507778
1.08845
-4.18423
-4.17559
0.863971
0.711456
0.502639
1.03486
1.01403
0.123096
-0.150676
2.07856
2.1965
0.646099
0.498904
-1.65251
1.51648
1.57149
-2.58556
-2.66754
0.533406
0.18222
1.245
2.38947
0.441035
0.393325
-1.41468
-0.372464
-0.878664
1.16232
3.66638
3.58179
-1.59231
0.0569139
0.04758
2.17321
1.74564
1.25564
-0.03513
0.375733
0.754467
0.776582
-1.67833
0.81271
0.910156
0.00633733
0.553782
0.636451
0.00615112
0.738828
0.156439
-0.942131
0.349542
1.0025
-0.53859
0.647289
-0.26474
-0.689202
-0.0838909
0.319976
0.492268
-1.51345
0.902605
0.349221
-1.04863
-0.823427
0.00424888
0.890005
0.755092
-0.150495
-1.36577
-1.22688
-1.32499
-1.51366
-0.714499
3.05595
1.23365
-0.543223
0.462914
-0.0786427
0.390411
-0.738295
-0.406002
1.13262
0.456077
1.06453
0.301698
1.40862
-0.652339
0.214816
1.23978
-0.570962
-1.5785
0.425509
-1.40111
-1.12516
-1.2914
-0.821226
-0.252073
-0.650509
-1.70479
-1.46326
1.05773
1.17506
0.415483
-0.0770468
0.427053
1.19817
0.463664
-2.1082
-0.706948
-0.411111
0.771598
0.682311
-0.269121
0.268152
0.149529
-3.48257
-3.47472
1.30845
1.48781
-0.123732
-2.10061
0.184012
0.479409
-0.745555
0.719027
0.674235
-0.909735
-0.282246
1.23969
0.113047
-0.154624
0.217697
0.345134
0.0869568
-0.219306
-0.447368
-3.6434
-3.65344
0.183619
1.48774
2.14293
1.5819
1.85612
-0.0683996
0.266089
1.37364
-2.7906
-2.7885
-2.34193
-2.21227
-2.33845
-2.7781
-2.75952
1.00441
1.01725
0.0408225
0.421721
-1.18585
-0.960312
0.0296379
1.07406
1.10051
0.119713
0.499426
-0.106392
0.366126
-1.47349
0.467307
-0.0858774
-7.03305
-0.179056
-0.365512
1.13283
1.38947
1.271
1.47346
0.908649
1.03673
1.30101
1.49543
1.49941
1.79398
1.19949
0.245085
-0.00824139
-0.391757
0.0473338
-0.326392
-1.67591
-0.181254
-0.0719977
1.43377
0.681366
0.314309
1.44082
2.87186
0.484796
0.835356
-3.58917
-3.45404
0.959951
1.14906
0.853941
-0.41658
0.00734659
-0.620766
0.568023
0.287895
3.89031
2.60024
-0.34746
0.657091
0.741702
0.540736
0.00316236
0.124451
1.06904
-7.54948
0.733786
1.23853
0.802893
0.196351
-0.732167
0.465842
0.740381
1.09146
0.582926
0.721497
1.07603
1.88989
2.04607
-3.78228
-3.8707
0.689546
0.2067
-4.8079
-4.73833
1.80376
1.30069
0.633019
0.609187
0.257693
-0.178177
-0.439455
-2.39798
-2.07308
-2.3572
0.320205
-0.0649453
-2.82446
-2.89566
0.846889
0.409365
0.849188
0.590064
-4.83777
-4.89188
0.247806
-0.0449581
1.58424
1.51917
0.986484
0.463565
1.2516
1.26699
0.234844
0.830974
1.73707
2.41046
2.08279
1.80862
1.55189
1.61422
1.72143
1.91279
1.88218
0.975914
2.15514
1.61824
1.58654
0.851557
1.58906
1.30797
2.03293
0.687761
1.27432
1.39364
1.16478
1.42236
0.270009
0.0185465
0.0858384
0.52637
0.385451
0.156168
0.411809
0.420122
0.511179
0.221721
0.204656
0.03613
0.149931
-0.0652263
0.351398
0.373735
0.434831
0.158233
-0.0277115
0.184079
0.183736
0.037767
0.304386
0.432288
0.378345
0.0455756
0.456618
0.181199
0.693814
0.0846412
0.112423
0.190592
1.69924
1.69964
0.28922
0.446329
0.884355
0.932121
0.397594
0.00792336
0.328404
0.440312
0.290406
0.273041
-0.0295455
0.334861
0.223018
0.165872
0.447261
0.130157
0.195934
0.00474559
0.00444556
-0.0467583
0.00154863
0.00153942
0.00895192
1.5872
1.59785
-0.0286948
-0.0294377
0.310572
0.843688
0.178621
0.00961913
0.18566
0.211715
-0.00596603
0.309445
0.157106
0.158309
0.173353
-0.0354877
-0.036884
0.570456
-0.0984042
0.323478
0.409163
1.03641
2.39612
2.40061
0.24623
0.498644
-0.0226527
0.329519
0.866315
1.07767
0.11329
0.0554124
-0.0511092
-0.050494
0.0548224
-0.00856483
-0.0389703
-0.0393975
-0.0197013
0.046595
-0.0357425
-0.0371645
0.550622
-0.0837741
0.30559
0.305423
-0.119777
0.00516878
0.762407
0.512168
0.368624
0.515426
0.262653
0.200679
0.0428646
0.575142
0.043265
0.049108
0.437985
0.813908
0.792029
0.205091
0.399232
0.145983
0.141364
0.0319897
0.0650466
0.0123481
0.239328
0.553392
0.00012892
-0.0558621
-0.0422628
0.197854
-0.17437
0.490903
-0.0837615
-0.0961126
0.229018
-0.0834048
0.0175622
0.311734
-0.00415521
0.281761
0.429293
0.105344
0.106676
0.0311389
0.000587693
0.0860763
0.077655
0.0637679
0.0583685
-0.0804387
-0.0811392
-0.062355
0.414954
0.688386
0.245914
0.0688074
-0.0177838
-0.018463
-0.0206049
-0.0202597
0.144633
0.072319
0.0652561
0.0533861
0.0538777
-0.0197124
0.300619
-0.00854704
0.301169
0.0554556
0.329231
-0.0966035
-0.017887
0.486594
-0.115424
0.208396
-0.0553981
0.414304
0.3528
-0.171871
0.326388
0.229356
-0.0313875
0.0995721
-0.209305
0.231769
0.254373
-0.0317142
-0.0299511
0.145648
0.146535
-0.0501167
1.4498
1.46373
0.399415
0.477181
0.0846153
0.253511
0.118285
0.12509
0.0645552
-0.176505
0.185387
0.0758208
0.426822
0.0304492
0.444652
0.617318
0.0684391
0.06745
0.532131
0.00382317
0.0471286
0.0470738
0.517082
0.423848
0.583119
0.32263
0.254677
0.253934
0.22099
0.12057
0.247785
0.333347
-0.0606148
-0.0587498
0.903946
0.929591
1.09543
1.11279
0.108967
0.109792
-0.103492
-0.104911
-0.0142989
0.144619
0.027549
0.278748
-0.0165923
0.148384
0.00404338
0.737037
0.744501
0.00629644
0.500585
1.08285
0.045565
-0.0573553
0.73235
0.745047
0.115989
0.0924293
-0.0618922
-0.0624722
0.759782
0.0397744
0.00506448
-0.0204077
-0.0211549
2.76187
2.77133
-0.077498
0.39231
-0.00953166
-0.00984135
0.111203
0.15356
0.174677
0.676968
0.689054
0.437475
0.00904298
0.533309
0.812324
0.820352
0.677015
-0.0113633
-0.0112314
0.484195
0.596737
0.137064
0.156116
-0.0535689
-0.0556528
-0.114474
0.133154
0.11621
0.17989
0.179038
0.706001
-0.0125247
-0.0523471
-0.0530087
-0.0311595
-0.0105484
0.124242
0.115511
0.0538577
-0.0319022
0.176446
0.250969
-0.039162
-0.0397222
-0.0390362
-0.039689
0.191208
0.170705
-0.0304114
-0.0283422
0.658363
0.309257
-0.0800164
-0.0822311
0.00374579
0.00364378
0.478631
0.478218
0.959301
1.87696
0.0919951
0.132759
0.0913597
0.132035
0.228885
1.87635
0.156221
0.16312
0.162372
0.155378
0.0984007
0.0154058
0.154425
0.0978519
0.153459
0.0151278
0.0163177
0.112616
0.0164632
0.112916
-0.425395
-0.0585081
0.347789
-0.00959559
-0.489216
0.831592
1.04825
-0.599147
0.338748
-1.34483
-1.75383
-1.54516
0.431581
0.635693
0.186188
0.602459
1.03582
0.826245
0.175107
-1.23541
-1.42928
-1.43752
-0.2577
-0.664203
-0.102844
-0.744208
-0.0207763
-2.61661
0.402003
-2.74803
0.583051
0.720237
2.52905
2.51932
-1.56945
0.415765
1.1409
0.971573
0.37685
-0.53864
-0.87987
0.307363
-0.657517
-0.700066
0.0812924
-1.0029
-6.68424
-6.90599
0.500625
-4.35535
-4.18681
0.705796
0.862466
0.46609
0.99903
1.0397
-0.150508
2.09081
2.18389
0.494371
0.646603
-1.71895
1.56924
1.52888
-0.203937
-2.6786
-2.71092
0.179504
0.562379
2.36923
1.2465
1.04386
0.380451
0.444099
0.884061
1.01609
-1.37636
-0.35436
-0.836312
1.20094
3.68964
3.61559
-1.46936
-0.164442
0.00333195
1.74508
2.16987
1.22689
-0.0422523
0.366994
0.762535
0.775209
-1.52751
0.910103
0.803016
0.0504323
-0.419557
0.59853
0.588926
-0.0954854
0.163729
-0.736178
1.21948
0.348526
-0.581574
0.543129
-0.101679
-0.52878
0.0638713
0.501374
0.312592
-1.43789
0.405305
-0.822365
-1.01525
-0.186154
0.825323
0.800575
-0.409992
-0.375537
-1.17527
-1.41975
-1.32918
-1.6407
-0.565559
1.23326
3.04828
-0.491688
-0.0755191
0.426373
-0.766334
1.179
0.457996
0.735813
0.302313
0.506549
1.40923
-0.785642
0.209187
-0.810612
-1.71561
0.013288
-1.12832
-1.39055
-1.22892
-0.606606
-0.256826
-0.648372
-1.53196
-1.65784
1.15134
1.07945
-0.0738996
0.417775
0.611132
-2.06063
-0.701089
0.671889
0.780413
0.150666
0.269792
-3.36153
-3.48495
-0.353976
1.47899
1.30818
-0.259153
-2.0846
0.177607
0.439898
-0.912907
1.07592
-0.128958
1.32461
0.673652
0.716738
0.43246
0.473956
-0.819018
-0.30369
0.124292
-0.17593
-0.173248
0.0913652
-0.448508
1.17604
-3.7192
-3.72015
0.144261
0.340859
2.14078
1.49007
0.462545
1.87724
1.57057
-0.00023916
0.260358
-2.94472
-2.6569
-2.20599
-2.34483
-2.28135
1.29485
-2.63483
-2.79779
0.993793
1.01452
0.203231
0.444458
-0.936444
-1.18115
0.0107807
0.17061
1.09025
1.07673
0.410742
-0.0821351
0.443423
-1.29843
-0.105209
-6.98754
-0.36724
-0.243193
1.14045
1.38584
1.47423
1.27422
1.03172
0.974259
1.49184
1.30067
1.76352
1.50127
0.259233
1.20528
-0.157238
-0.422926
0.0814499
-1.82689
-0.0310237
-0.0158734
-0.329503
1.43172
0.682503
-0.0638804
0.120519
2.86694
1.4408
0.546377
0.582446
0.845722
-3.42082
-3.32105
1.1125
0.997726
0.863
-0.408495
-0.730164
0.286944
0.571917
3.99493
2.61133
0.710973
-0.150375
0.728625
0.665507
-0.0112431
0.123723
-7.30874
1.22405
0.747442
0.187066
-0.628856
0.113952
1.07316
0.701924
0.506613
1.0796
0.7144
2.04404
1.88736
-3.90171
-3.86761
0.209108
0.700147
0.991482
-4.64577
-4.64659
1.30324
1.80769
0.406365
-0.184943
0.257891
0.608504
0.330961
-0.424668
-2.16928
-2.31132
-2.30585
-0.0617985
-2.95736
-2.89381
0.404131
0.851702
0.585314
0.850911
-4.87706
-4.86291
-0.0401496
0.241286
1.58001
1.52166
0.472796
0.968245
1.25845
1.25416
0.818105
0.268298
2.39895
1.73567
1.72051
1.90564
1.55126
1.61679
1.79861
2.08086
1.54719
2.13101
0.975193
1.88666
1.2615
0.672108
1.9898
1.59239
1.59039
0.858046
1.13675
1.40834
1.27699
1.39746
