# vtk DataFile Version 3.0
vtk output at time 0.1
ASCII
DATASET UNSTRUCTURED_GRID
POINTS 2586 float
-1.84029e-05 0.000489375 0 1.84029e-05 0.000489375 0 -0.000414597 0.000260625 0 
-0.00041175 0.00025 0 -0.000433 0.00022875 0 -0.000433 -0.00022875 0 
-0.00041175 -0.00025 0 -0.000414597 -0.000260625 0 -1.84029e-05 -0.000489375 0 
1.84029e-05 -0.000489375 0 0.000414597 -0.000260625 0 0.000433 -0.00022875 0 
0.000433 0.00022875 0 0.000414597 0.000260625 0 4.25e-05 0 0 
2.125e-05 0.0005 0 5.90898e-17 0.00052125 0 5.90919e-17 0.00097875 0 
2.125e-05 0.001 0 1.84029e-05 0.00101063 0 0.000414597 0.00123937 0 
0.000451403 0.00123937 0 0.000847597 0.00101063 0 0.000866 0.00097875 0 
0.000866 0.00052125 0 0.000847597 0.000489375 0 0.000451403 0.000260625 0 
0.0004755 0.00075 0 0.00045425 0.00025 0 0.000884403 0.000489375 0 
0.0012806 0.000260625 0 0.001299 0.00022875 0 0.001299 -0.00022875 0 
0.0012806 -0.000260625 0 0.000884403 -0.000489375 0 0.000847597 -0.000489375 0 
0.000451403 -0.000260625 0 0.00045425 -0.00025 0 0.0009085 0 0 
0.000866 -0.00052125 0 0.000866 -0.00097875 0 0.000847597 -0.00101063 0 
0.000451403 -0.00123937 0 0.000414597 -0.00123937 0 1.84029e-05 -0.00101063 0 
2.125e-05 -0.001 0 5.90898e-17 -0.00097875 0 5.90919e-17 -0.00052125 0 
2.125e-05 -0.0005 0 0.0004755 -0.00075 0 -1.84029e-05 -0.00101063 0 
-0.000414597 -0.00123937 0 -0.000451403 -0.00123937 0 -0.000847597 -0.00101063 0 
-0.00084475 -0.001 0 -0.000866 -0.00097875 0 -0.000866 -0.00052125 0 
-0.00084475 -0.0005 0 -0.000847597 -0.000489375 0 -0.000451403 -0.000260625 0 
-0.0003905 -0.00075 0 -0.000884403 -0.000489375 0 -0.0012806 -0.000260625 0 
-0.00127775 -0.00025 0 -0.001299 -0.00022875 0 -0.001299 0.00022875 0 
-0.00127775 0.00025 0 -0.0012806 0.000260625 0 -0.000884403 0.000489375 0 
-0.000847597 0.000489375 0 -0.000451403 0.000260625 0 -0.0008235 0 0 
-0.00084475 0.0005 0 -0.000866 0.00052125 0 -0.000866 0.00097875 0 
-0.00084475 0.001 0 -0.000847597 0.00101063 0 -0.000451403 0.00123937 0 
-0.000414597 0.00123937 0 -1.84029e-05 0.00101063 0 -0.0003905 0.00075 0 
-1.84029e-05 0.000489375 -0.0005 1.84029e-05 0.000489375 -0.0005 -0.000414597 0.000260625 -0.0005 
-0.00041175 0.00025 -0.0005 -0.000433 0.00022875 -0.0005 -0.000433 -0.00022875 -0.0005 
-0.00041175 -0.00025 -0.0005 -0.000414597 -0.000260625 -0.0005 -1.84029e-05 -0.000489375 -0.0005 
1.84029e-05 -0.000489375 -0.0005 0.000414597 -0.000260625 -0.0005 0.000433 -0.00022875 -0.0005 
0.000433 0.00022875 -0.0005 0.000414597 0.000260625 -0.0005 4.25e-05 0 -0.0005 
2.125e-05 0.0005 -0.0005 5.90898e-17 0.00052125 -0.0005 5.90919e-17 0.00097875 -0.0005 
2.125e-05 0.001 -0.0005 1.84029e-05 0.00101063 -0.0005 0.000414597 0.00123937 -0.0005 
0.000451403 0.00123937 -0.0005 0.000847597 0.00101063 -0.0005 0.000866 0.00097875 -0.0005 
0.000866 0.00052125 -0.0005 0.000847597 0.000489375 -0.0005 0.000451403 0.000260625 -0.0005 
0.0004755 0.00075 -0.0005 0.00045425 0.00025 -0.0005 0.000884403 0.000489375 -0.0005 
0.0012806 0.000260625 -0.0005 0.001299 0.00022875 -0.0005 0.001299 -0.00022875 -0.0005 
0.0012806 -0.000260625 -0.0005 0.000884403 -0.000489375 -0.0005 0.000847597 -0.000489375 -0.0005 
0.000451403 -0.000260625 -0.0005 0.00045425 -0.00025 -0.0005 0.0009085 0 -0.0005 
0.000866 -0.00052125 -0.0005 0.000866 -0.00097875 -0.0005 0.000847597 -0.00101063 -0.0005 
0.000451403 -0.00123937 -0.0005 0.000414597 -0.00123937 -0.0005 1.84029e-05 -0.00101063 -0.0005 
2.125e-05 -0.001 -0.0005 5.90898e-17 -0.00097875 -0.0005 5.90919e-17 -0.00052125 -0.0005 
2.125e-05 -0.0005 -0.0005 0.0004755 -0.00075 -0.0005 -1.84029e-05 -0.00101063 -0.0005 
-0.000414597 -0.00123937 -0.0005 -0.000451403 -0.00123937 -0.0005 -0.000847597 -0.00101063 -0.0005 
-0.00084475 -0.001 -0.0005 -0.000866 -0.00097875 -0.0005 -0.000866 -0.00052125 -0.0005 
-0.00084475 -0.0005 -0.0005 -0.000847597 -0.000489375 -0.0005 -0.000451403 -0.000260625 -0.0005 
-0.0003905 -0.00075 -0.0005 -0.000884403 -0.000489375 -0.0005 -0.0012806 -0.000260625 -0.0005 
-0.00127775 -0.00025 -0.0005 -0.001299 -0.00022875 -0.0005 -0.001299 0.00022875 -0.0005 
-0.00127775 0.00025 -0.0005 -0.0012806 0.000260625 -0.0005 -0.000884403 0.000489375 -0.0005 
-0.000847597 0.000489375 -0.0005 -0.000451403 0.000260625 -0.0005 -0.0008235 0 -0.0005 
-0.00084475 0.0005 -0.0005 -0.000866 0.00052125 -0.0005 -0.000866 0.00097875 -0.0005 
-0.00084475 0.001 -0.0005 -0.000847597 0.00101063 -0.0005 -0.000451403 0.00123937 -0.0005 
-0.000414597 0.00123937 -0.0005 -1.84029e-05 0.00101063 -0.0005 -0.0003905 0.00075 -0.0005 
-9.82724e-20 0.00047875 0 -0.000335358 0.000306375 0 -0.000256119 0.000352125 0 
-0.000176881 0.000397875 0 -9.76417e-05 0.000443625 0 -0.000412474 0.0002555 0 
-0.000417974 0.000234974 0 -0.000433 -0.00013725 0 -0.000433 -4.575e-05 0 
-0.000433 4.575e-05 0 -0.000433 0.00013725 0 -0.000417974 -0.000234974 0 
-0.000412474 -0.0002555 0 -9.76417e-05 -0.000443625 0 -0.000176881 -0.000397875 0 
-0.000256119 -0.000352125 0 -0.000335358 -0.000306375 0 -1.07223e-19 -0.00047875 0 
0.000335358 -0.000306375 0 0.000256119 -0.000352125 0 0.000176881 -0.000397875 0 
9.76417e-05 -0.000443625 0 0.000414597 -0.000239375 0 0.000433 0.00013725 0 
0.000433 4.575e-05 0 0.000433 -4.575e-05 0 0.000433 -0.00013725 0 
0.000414597 0.000239375 0 9.76417e-05 0.000443625 0 0.000176881 0.000397875 0 
0.000256119 0.000352125 0 0.000335358 0.000306375 0 -1.29514e-19 4.25e-05 0 
-4.25e-05 -3.53397e-19 0 4.07417e-19 -4.25e-05 0 2.05259e-05 0.0004945 0 
1.5026e-05 0.000515026 0 0 0.00061275 0 0 0.00070425 0 
0 0.00079575 0 0 0.00088725 0 1.5026e-05 0.000984974 0 
2.05259e-05 0.0010055 0 9.76417e-05 0.00105638 0 0.000176881 0.00110213 0 
0.000256119 0.00114787 0 0.000335358 0.00119362 0 0.000433 0.00122875 0 
0.000530642 0.00119362 0 0.000609881 0.00114787 0 0.000689119 0.00110213 0 
0.000768358 0.00105638 0 0.000847597 0.000989375 0 0.000866 0.00088725 0 
0.000866 0.00079575 0 0.000866 0.00070425 0 0.000866 0.00061275 0 
0.000847597 0.000510625 0 0.000530642 0.000306375 0 0.000609881 0.000352125 0 
0.000689119 0.000397875 0 0.000768358 0.000443625 0 0.000433 0.00027125 0 
0.000433 0.0007925 0 0.0003905 0.00075 0 0.000433 0.0007075 0 
0.000448026 0.000234974 0 0.000453526 0.0002555 0 0.000866 0.00047875 0 
0.000963642 0.000443625 0 0.00104288 0.000397875 0 0.00112212 0.000352125 0 
0.00120136 0.000306375 0 0.0012806 0.000239375 0 0.001299 0.00013725 0 
0.001299 4.575e-05 0 0.001299 -4.575e-05 0 0.001299 -0.00013725 0 
0.0012806 -0.000239375 0 0.00120136 -0.000306375 0 0.00112212 -0.000352125 0 
0.00104288 -0.000397875 0 0.000963642 -0.000443625 0 0.000866 -0.00047875 0 
0.000530642 -0.000306375 0 0.000609881 -0.000352125 0 0.000689119 -0.000397875 0 
0.000768358 -0.000443625 0 0.000453526 -0.0002555 0 0.000448026 -0.000234974 0 
0.000866 4.25e-05 0 0.0008235 -3.53397e-19 0 0.000866 -4.25e-05 0 
0.000433 -0.00027125 0 0.000847597 -0.000510625 0 0.000866 -0.00061275 0 
0.000866 -0.00070425 0 0.000866 -0.00079575 0 0.000866 -0.00088725 0 
0.000847597 -0.000989375 0 0.000768358 -0.00105638 0 0.000689119 -0.00110213 0 
0.000609881 -0.00114787 0 0.000530642 -0.00119362 0 0.000433 -0.00122875 0 
0.000335358 -0.00119362 0 0.000256119 -0.00114787 0 0.000176881 -0.00110213 0 
9.76417e-05 -0.00105638 0 2.05259e-05 -0.0010055 0 1.5026e-05 -0.000984974 0 
0 -0.00061275 0 0 -0.00070425 0 0 -0.00079575 0 
0 -0.00088725 0 1.5026e-05 -0.000515026 0 2.05259e-05 -0.0004945 0 
0.000433 -0.0007075 0 0.0003905 -0.00075 0 0.000433 -0.0007925 0 
-1.84031e-05 -0.000510625 0 -1.84031e-05 -0.000989375 0 -9.76417e-05 -0.00105638 0 
-0.000176881 -0.00110213 0 -0.000256119 -0.00114787 0 -0.000335358 -0.00119362 0 
-0.000433 -0.00122875 0 -0.000530642 -0.00119362 0 -0.000609881 -0.00114787 0 
-0.000689119 -0.00110213 0 -0.000768358 -0.00105638 0 -0.000845474 -0.0010055 0 
-0.000850974 -0.000984974 0 -0.000866 -0.00088725 0 -0.000866 -0.00079575 0 
-0.000866 -0.00070425 0 -0.000866 -0.00061275 0 -0.000850974 -0.000515026 0 
-0.000845474 -0.0004945 0 -0.000530642 -0.000306375 0 -0.000609881 -0.000352125 0 
-0.000689119 -0.000397875 0 -0.000768358 -0.000443625 0 -0.000433 -0.00027125 0 
-0.000433 -0.0007075 0 -0.0004755 -0.00075 0 -0.000433 -0.0007925 0 
-0.000451403 -0.000239375 0 -0.000866 -0.00047875 0 -0.000963642 -0.000443625 0 
-0.00104288 -0.000397875 0 -0.00112212 -0.000352125 0 -0.00120136 -0.000306375 0 
-0.00127847 -0.0002555 0 -0.00128397 -0.000234974 0 -0.001299 -0.00013725 0 
-0.001299 -4.575e-05 0 -0.001299 4.575e-05 0 -0.001299 0.00013725 0 
-0.00128397 0.000234974 0 -0.00127847 0.0002555 0 -0.00120136 0.000306375 0 
-0.00112212 0.000352125 0 -0.00104288 0.000397875 0 -0.000963642 0.000443625 0 
-0.000866 0.00047875 0 -0.000530642 0.000306375 0 -0.000609881 0.000352125 0 
-0.000689119 0.000397875 0 -0.000768358 0.000443625 0 -0.000451403 0.000239375 0 
-0.000866 4.25e-05 0 -0.0009085 -3.53397e-19 0 -0.000866 -4.25e-05 0 
-0.000433 0.00027125 0 -0.000845474 0.0004945 0 -0.000850974 0.000515026 0 
-0.000866 0.00061275 0 -0.000866 0.00070425 0 -0.000866 0.00079575 0 
-0.000866 0.00088725 0 -0.000850974 0.000984974 0 -0.000845474 0.0010055 0 
-0.000768358 0.00105638 0 -0.000689119 0.00110213 0 -0.000609881 0.00114787 0 
-0.000530642 0.00119362 0 -0.000433 0.00122875 0 -0.000335358 0.00119362 0 
-0.000256119 0.00114787 0 -0.000176881 0.00110213 0 -9.76417e-05 0.00105638 0 
-1.84031e-05 0.000989375 0 -1.84031e-05 0.000510625 0 -0.000433 0.0007925 0 
-0.0004755 0.00075 0 -0.000433 0.0007075 0 -9.82724e-20 0.00047875 -0.0005 
-0.000335358 0.000306375 -0.0005 -0.000256119 0.000352125 -0.0005 -0.000176881 0.000397875 -0.0005 
-9.76417e-05 0.000443625 -0.0005 -0.000412474 0.0002555 -0.0005 -0.000417974 0.000234974 -0.0005 
-0.000433 -0.00013725 -0.0005 -0.000433 -4.575e-05 -0.0005 -0.000433 4.575e-05 -0.0005 
-0.000433 0.00013725 -0.0005 -0.000417974 -0.000234974 -0.0005 -0.000412474 -0.0002555 -0.0005 
-9.76417e-05 -0.000443625 -0.0005 -0.000176881 -0.000397875 -0.0005 -0.000256119 -0.000352125 -0.0005 
-0.000335358 -0.000306375 -0.0005 -1.07223e-19 -0.00047875 -0.0005 0.000335358 -0.000306375 -0.0005 
0.000256119 -0.000352125 -0.0005 0.000176881 -0.000397875 -0.0005 9.76417e-05 -0.000443625 -0.0005 
0.000414597 -0.000239375 -0.0005 0.000433 0.00013725 -0.0005 0.000433 4.575e-05 -0.0005 
0.000433 -4.575e-05 -0.0005 0.000433 -0.00013725 -0.0005 0.000414597 0.000239375 -0.0005 
9.76417e-05 0.000443625 -0.0005 0.000176881 0.000397875 -0.0005 0.000256119 0.000352125 -0.0005 
0.000335358 0.000306375 -0.0005 -1.29514e-19 4.25e-05 -0.0005 -4.25e-05 -3.53397e-19 -0.0005 
4.07417e-19 -4.25e-05 -0.0005 2.05259e-05 0.0004945 -0.0005 1.5026e-05 0.000515026 -0.0005 
0 0.00061275 -0.0005 0 0.00070425 -0.0005 0 0.00079575 -0.0005 
0 0.00088725 -0.0005 1.5026e-05 0.000984974 -0.0005 2.05259e-05 0.0010055 -0.0005 
9.76417e-05 0.00105638 -0.0005 0.000176881 0.00110213 -0.0005 0.000256119 0.00114787 -0.0005 
0.000335358 0.00119362 -0.0005 0.000433 0.00122875 -0.0005 0.000530642 0.00119362 -0.0005 
0.000609881 0.00114787 -0.0005 0.000689119 0.00110213 -0.0005 0.000768358 0.00105638 -0.0005 
0.000847597 0.000989375 -0.0005 0.000866 0.00088725 -0.0005 0.000866 0.00079575 -0.0005 
0.000866 0.00070425 -0.0005 0.000866 0.00061275 -0.0005 0.000847597 0.000510625 -0.0005 
0.000530642 0.000306375 -0.0005 0.000609881 0.000352125 -0.0005 0.000689119 0.000397875 -0.0005 
0.000768358 0.000443625 -0.0005 0.000433 0.00027125 -0.0005 0.000433 0.0007925 -0.0005 
0.0003905 0.00075 -0.0005 0.000433 0.0007075 -0.0005 0.000448026 0.000234974 -0.0005 
0.000453526 0.0002555 -0.0005 0.000866 0.00047875 -0.0005 0.000963642 0.000443625 -0.0005 
0.00104288 0.000397875 -0.0005 0.00112212 0.000352125 -0.0005 0.00120136 0.000306375 -0.0005 
0.0012806 0.000239375 -0.0005 0.001299 0.00013725 -0.0005 0.001299 4.575e-05 -0.0005 
0.001299 -4.575e-05 -0.0005 0.001299 -0.00013725 -0.0005 0.0012806 -0.000239375 -0.0005 
0.00120136 -0.000306375 -0.0005 0.00112212 -0.000352125 -0.0005 0.00104288 -0.000397875 -0.0005 
0.000963642 -0.000443625 -0.0005 0.000866 -0.00047875 -0.0005 0.000530642 -0.000306375 -0.0005 
0.000609881 -0.000352125 -0.0005 0.000689119 -0.000397875 -0.0005 0.000768358 -0.000443625 -0.0005 
0.000453526 -0.0002555 -0.0005 0.000448026 -0.000234974 -0.0005 0.000866 4.25e-05 -0.0005 
0.0008235 -3.53397e-19 -0.0005 0.000866 -4.25e-05 -0.0005 0.000433 -0.00027125 -0.0005 
0.000847597 -0.000510625 -0.0005 0.000866 -0.00061275 -0.0005 0.000866 -0.00070425 -0.0005 
0.000866 -0.00079575 -0.0005 0.000866 -0.00088725 -0.0005 0.000847597 -0.000989375 -0.0005 
0.000768358 -0.00105638 -0.0005 0.000689119 -0.00110213 -0.0005 0.000609881 -0.00114787 -0.0005 
0.000530642 -0.00119362 -0.0005 0.000433 -0.00122875 -0.0005 0.000335358 -0.00119362 -0.0005 
0.000256119 -0.00114787 -0.0005 0.000176881 -0.00110213 -0.0005 9.76417e-05 -0.00105638 -0.0005 
2.05259e-05 -0.0010055 -0.0005 1.5026e-05 -0.000984974 -0.0005 0 -0.00061275 -0.0005 
0 -0.00070425 -0.0005 0 -0.00079575 -0.0005 0 -0.00088725 -0.0005 
1.5026e-05 -0.000515026 -0.0005 2.05259e-05 -0.0004945 -0.0005 0.000433 -0.0007075 -0.0005 
0.0003905 -0.00075 -0.0005 0.000433 -0.0007925 -0.0005 -1.84031e-05 -0.000510625 -0.0005 
-1.84031e-05 -0.000989375 -0.0005 -9.76417e-05 -0.00105638 -0.0005 -0.000176881 -0.00110213 -0.0005 
-0.000256119 -0.00114787 -0.0005 -0.000335358 -0.00119362 -0.0005 -0.000433 -0.00122875 -0.0005 
-0.000530642 -0.00119362 -0.0005 -0.000609881 -0.00114787 -0.0005 -0.000689119 -0.00110213 -0.0005 
-0.000768358 -0.00105638 -0.0005 -0.000845474 -0.0010055 -0.0005 -0.000850974 -0.000984974 -0.0005 
-0.000866 -0.00088725 -0.0005 -0.000866 -0.00079575 -0.0005 -0.000866 -0.00070425 -0.0005 
-0.000866 -0.00061275 -0.0005 -0.000850974 -0.000515026 -0.0005 -0.000845474 -0.0004945 -0.0005 
-0.000530642 -0.000306375 -0.0005 -0.000609881 -0.000352125 -0.0005 -0.000689119 -0.000397875 -0.0005 
-0.000768358 -0.000443625 -0.0005 -0.000433 -0.00027125 -0.0005 -0.000433 -0.0007075 -0.0005 
-0.0004755 -0.00075 -0.0005 -0.000433 -0.0007925 -0.0005 -0.000451403 -0.000239375 -0.0005 
-0.000866 -0.00047875 -0.0005 -0.000963642 -0.000443625 -0.0005 -0.00104288 -0.000397875 -0.0005 
-0.00112212 -0.000352125 -0.0005 -0.00120136 -0.000306375 -0.0005 -0.00127847 -0.0002555 -0.0005 
-0.00128397 -0.000234974 -0.0005 -0.001299 -0.00013725 -0.0005 -0.001299 -4.575e-05 -0.0005 
-0.001299 4.575e-05 -0.0005 -0.001299 0.00013725 -0.0005 -0.00128397 0.000234974 -0.0005 
-0.00127847 0.0002555 -0.0005 -0.00120136 0.000306375 -0.0005 -0.00112212 0.000352125 -0.0005 
-0.00104288 0.000397875 -0.0005 -0.000963642 0.000443625 -0.0005 -0.000866 0.00047875 -0.0005 
-0.000530642 0.000306375 -0.0005 -0.000609881 0.000352125 -0.0005 -0.000689119 0.000397875 -0.0005 
-0.000768358 0.000443625 -0.0005 -0.000451403 0.000239375 -0.0005 -0.000866 4.25e-05 -0.0005 
-0.0009085 -3.53397e-19 -0.0005 -0.000866 -4.25e-05 -0.0005 -0.000433 0.00027125 -0.0005 
-0.000845474 0.0004945 -0.0005 -0.000850974 0.000515026 -0.0005 -0.000866 0.00061275 -0.0005 
-0.000866 0.00070425 -0.0005 -0.000866 0.00079575 -0.0005 -0.000866 0.00088725 -0.0005 
-0.000850974 0.000984974 -0.0005 -0.000845474 0.0010055 -0.0005 -0.000768358 0.00105638 -0.0005 
-0.000689119 0.00110213 -0.0005 -0.000609881 0.00114787 -0.0005 -0.000530642 0.00119362 -0.0005 
-0.000433 0.00122875 -0.0005 -0.000335358 0.00119362 -0.0005 -0.000256119 0.00114787 -0.0005 
-0.000176881 0.00110213 -0.0005 -9.76417e-05 0.00105638 -0.0005 -1.84031e-05 0.000989375 -0.0005 
-1.84031e-05 0.000510625 -0.0005 -0.000433 0.0007925 -0.0005 -0.0004755 0.00075 -0.0005 
-0.000433 0.0007075 -0.0005 0.000166833 -0.000159585 0 0.000165961 0.000165961 0 
-0.000162277 0.000168837 0 -0.000162539 -0.000168697 0 -0.000316174 -0.000207462 0 
-0.000316174 0.000207462 0 -1.7625e-06 0.00020878 0 -0.000200494 5.10348e-06 0 
0.000198022 -6.49099e-06 0 -3.82827e-06 -0.000208798 0 -0.0003642 0.000214286 0 
-0.0003642 -0.000214286 0 0.000301049 0.000166193 0 0.000312424 -0.000170987 0 
-7.30908e-06 -0.00035148 0 7.30908e-06 0.00035148 0 0.000109232 0.000285545 0 
-0.000107519 -0.000286192 0 -0.000304808 7.69979e-05 0 -0.000308572 -7.52569e-05 0 
0.000106639 -0.000294843 0 -0.00010493 0.000296588 0 8.50608e-05 -8.41794e-05 0 
8.82006e-05 9.78925e-05 0 -9.29688e-05 8.1944e-05 0 -9.5784e-05 -8.5049e-05 0 
-0.00037448 0.000247295 0 -0.00037448 -0.000247295 0 -0.000226807 0.000247375 0 
-0.00022696 -0.000246565 0 0.000318161 -5.24395e-05 0 0.00030573 6.09258e-05 0 
-0.000251653 -0.000142326 0 -0.000251653 0.000142326 0 3.07451e-05 -0.00041094 0 
-3.07451e-05 0.00041094 0 0.00022921 -0.000246251 0 0.000229478 0.000241816 0 
2.27436e-05 0.000133221 0 1.86722e-05 -0.000131409 0 -0.000131489 -2.16615e-05 0 
0.00013003 -1.62999e-05 0 -0.00037383 0.000149154 0 -0.00037383 -0.000149154 0 
0.000234918 -9.03863e-05 0 0.000328799 0.000234244 0 0.000330695 -0.000235043 0 
0.000223602 9.28059e-05 0 -8.24081e-05 0.000181543 0 -7.93229e-05 -0.000178683 0 
-0.000174487 7.88274e-05 0 9.06107e-05 -0.000168878 0 9.31592e-05 0.000169495 0 
-0.000165177 -7.38619e-05 0 -9.20929e-05 -0.000358769 0 9.20929e-05 0.000358769 0 
3.47644e-05 0.000422113 0 -3.47644e-05 -0.000422113 0 -0.00039524 0.000187946 0 
-0.00039524 -0.000187946 0 -0.00036071 1.92365e-06 0 0.000388959 -0.000188051 0 
0.000390003 0.000186364 0 6.43444e-05 -0.000355671 0 -6.37768e-05 0.000356891 0 
2.80563e-05 -0.000283426 0 -2.80563e-05 0.000283426 0 0.000158032 5.64575e-05 0 
4.0579e-05 0.000286843 0 -4.0579e-05 -0.000286843 0 0.000187449 0.000307262 0 
0.000159892 -7.91024e-05 0 -0.000184905 -0.00030951 0 0.000358611 0.000105752 0 
0.000363074 -0.00011688 0 -0.000325009 0.000251333 0 -0.000325009 -0.000251333 0 
-0.000240838 -7.12684e-05 0 -0.000314691 -0.000147697 0 -0.000314417 0.000147824 0 
-0.000404578 0.00024054 0 -0.000403308 0.000218831 0 -0.000404578 -0.00024054 0 
-0.000403308 -0.000218831 0 0.000191925 -0.0003084 0 -0.000260053 0.000200474 0 
-0.000260078 -0.000200417 0 -2.84262e-05 0.000450764 0 2.84262e-05 -0.000450764 0 
-0.000189066 0.000311072 0 -0.000240999 7.45278e-05 0 -0.000278935 4.78174e-06 0 
0.000354779 1.89656e-05 0 0.000162497 0.000232229 0 0.000376671 0.000245397 0 
0.000376841 -0.000245894 0 0.000157204 -0.000230896 0 0.000234792 0.000171119 0 
-0.000151291 -0.000232673 0 -2.32986e-05 8.92785e-05 0 -3.11926e-05 -8.95957e-05 0 
-9.03847e-05 2.2115e-05 0 9.12302e-05 3.30279e-05 0 -0.000152334 0.000235849 0 
0.000239556 -0.000175069 0 -0.000374753 9.03378e-05 0 -0.000376425 -8.91537e-05 0 
4.61669e-05 -4.59906e-05 0 6.62281e-05 0.000232832 0 3.85868e-05 8.10868e-05 0 
-7.69579e-05 -3.79434e-05 0 0.000127486 -0.000360083 0 7.07506e-05 -0.00023716 0 
0.000272535 3.89675e-06 0 -7.65081e-05 -0.000238638 0 0.00014561 0.000112396 0 
-0.000352537 0.000183264 0 -0.000352576 -0.000183245 0 -0.000270615 -0.000285639 0 
-0.000269954 0.000283517 0 -7.38981e-05 0.000241237 0 0.00028245 0.000113194 0 
-0.000128597 0.00035529 0 0.000277733 0.00021912 0 0.000279019 -0.000221334 0 
0.000293419 -0.000117053 0 -4.98304e-05 4.71675e-05 0 -3.82924e-05 0.000144636 0 
-3.82924e-05 -0.000144636 0 -0.000137965 3.32657e-05 0 -0.00012318 0.000133204 0 
-0.000120047 -0.000136339 0 -0.000206789 -0.00019438 0 0.000125599 -0.000122936 0 
-0.000206748 0.000194842 0 -0.000279599 0.000238032 0 -0.000279767 -0.000238283 0 
-0.000195529 0.000130609 0 -0.000197761 -0.000129013 0 2.37414e-05 -7.8735e-05 0 
7.89976e-05 -2.26884e-05 0 0.000279552 0.000278672 0 0.000279873 -0.000279044 0 
4.48012e-06 0.00044547 0 -4.48012e-06 -0.00044547 0 0.000598961 0.000584039 0 
0.000602744 0.00091226 0 0.000270474 0.000918651 0 0.000270149 0.000581615 0 
0.000116826 0.000957462 0 0.000116826 0.000542538 0 0.000429172 0.000958798 0 
0.000232505 0.000755103 0 0.000636012 0.000747201 0 0.000434763 0.00054122 0 
6.87997e-05 0.000964286 0 6.87997e-05 0.000535714 0 0.000745424 0.000920987 0 
0.000734049 0.000583807 0 0.000425691 0.00039852 0 0.000425691 0.00110148 0 
0.000325481 0.00103619 0 0.00032556 0.000464273 0 0.000128192 0.000826998 0 
0.000124428 0.000674743 0 0.000539639 0.00104484 0 0.000539618 0.000454793 0 
0.000520463 0.000653783 0 0.000521988 0.00084822 0 0.000340031 0.000831944 0 
0.00034624 0.000661734 0 5.85195e-05 0.000997295 0 5.85195e-05 0.000502705 0 
0.00020604 0.000996565 0 0.00020604 0.000503435 0 0.000751161 0.00080244 0 
0.00073873 0.000689074 0 0.000181347 0.000607674 0 0.000181347 0.000892326 0 
0.000463745 0.00033906 0 0.000463745 0.00116094 0 0.00066221 0.000996251 0 
0.000655871 0.000515061 0 0.000455531 0.000883279 0 0.0004137 0.000617913 0 
0.000302544 0.000731006 0 0.000569409 0.000742828 0 5.91695e-05 0.000899154 0 
5.91695e-05 0.000600846 0 0.000666622 0.000847886 0 0.000763695 0.000985043 0 
0.000761799 0.000515756 0 0.000662952 0.000664982 0 0.000353677 0.000928683 0 
0.000512323 0.000571317 0 0.000258513 0.000828827 0 0.000526529 0.000920143 0 
0.000348994 0.000575642 0 0.000269055 0.00067649 0 0.000340907 0.000391231 0 
0.000340907 0.00110877 0 0.000398236 0.00117211 0 0.000398236 0.000327887 0 
3.77595e-05 0.000937946 0 3.77595e-05 0.000562054 0 7.22902e-05 0.000751924 0 
0.000821959 0.000938051 0 0.000823003 0.000563636 0 0.000497344 0.00110567 0 
0.000497341 0.000394268 0 0.000595975 0.000808208 0 0.000461056 0.000466574 0 
0.000461056 0.00103343 0 0.000392421 0.00103684 0 0.000392458 0.000463164 0 
0.000248106 0.000440556 0 0.000248095 0.00105951 0 0.000791611 0.000644248 0 
0.000796074 0.00086688 0 0.000107991 0.00100133 0 0.000107991 0.000498667 0 
0.000192237 0.000678753 0 0.000118309 0.000602303 0 0.000118584 0.000897824 0 
2.84222e-05 0.00099054 0 2.96921e-05 0.000968831 0 2.84222e-05 0.00050946 0 
2.96921e-05 0.000531169 0 0.000584827 0.000674445 0 0.000624925 0.0010584 0 
0.000620086 0.000439056 0 0.000172934 0.000950423 0 0.000172922 0.000549583 0 
0.000461426 0.00120076 0 0.000461426 0.000299236 0 0.000192001 0.000824528 0 
0.000154074 0.000754784 0 0.000787779 0.000731034 0 0.000809841 0.000995894 0 
0.000809671 0.000504603 0 0.000589469 0.00097835 0 0.000571747 0.000512487 0 
0.000673596 0.000588147 0 0.000281249 0.000518091 0 0.00028171 0.000982668 0 
0.000409676 0.000839285 0 0.000465934 0.000658411 0 0.000524589 0.000782934 0 
0.000342119 0.000777068 0 0.000672682 0.000926159 0 5.82468e-05 0.000840338 0 
5.65752e-05 0.000660846 0 0.000386493 0.000703192 0 0.000361584 0.000514775 0 
0.000471587 0.000831087 0 0.000510532 0.000709986 0 0.000559513 0.000389323 0 
0.000560486 0.00111008 0 0.000503751 0.00098716 0 0.000707209 0.000747103 0 
0.000356492 0.000988637 0 8.04633e-05 0.000933264 0 8.04241e-05 0.000566755 0 
0.000162386 0.000464369 0 0.000162385 0.00103564 0 0.000578393 0.000862613 0 
0.000503901 0.000509278 0 0.000714127 0.000640342 0 0.000712044 0.000971552 0 
0.000710619 0.000533186 0 0.000726252 0.00086828 0 0.000383065 0.000798159 0 
0.000471292 0.000605364 0 0.000394708 0.000894636 0 0.000295143 0.00078479 0 
0.000311567 0.000884914 0 0.000544105 0.000613927 0 0.000226145 0.000555712 0 
0.000226234 0.0009443 0 0.000307419 0.000615421 0 0.000153235 0.000988284 0 
0.000153233 0.000511718 0 0.000237647 0.000880726 0 0.000238317 0.000620115 0 
0.000410377 0.000668704 0 0.000352297 0.000726325 0 0.000712874 0.00102905 0 
0.000708438 0.00047242 0 0.00042852 0.00030453 0 0.00042852 0.00119547 0 
0.00103283 -0.000159585 0 0.00103196 0.000165961 0 0.00070371 0.000168883 0 
0.000703474 -0.000168651 0 0.000549826 0.000207462 0 0.000549826 -0.000207462 0 
0.000864237 0.00020878 0 0.000665505 -1.75358e-06 0 0.00106402 -6.49099e-06 0 
0.000862172 -0.000208798 0 0.0005018 0.000214286 0 0.0005018 -0.000214286 0 
0.00117842 -0.000170987 0 0.00116705 0.000166193 0 0.000858691 -0.00035148 0 
0.000873309 0.00035148 0 0.000975232 0.000285545 0 0.000758481 -0.000286192 0 
0.000561503 7.6703e-05 0 0.000555269 -7.65899e-05 0 0.000972639 -0.000294843 0 
0.00076107 0.000296588 0 0.000951061 -8.41794e-05 0 0.000954201 9.78925e-05 0 
0.000770216 8.5049e-05 0 0.000773031 -8.1944e-05 0 0.00049152 0.000247295 0 
0.00049152 -0.000247295 0 0.000639193 0.000247375 0 0.00063904 -0.000246565 0 
0.00118416 -5.24395e-05 0 0.00117173 6.09258e-05 0 0.000614347 -0.000142326 0 
0.000614347 0.000142326 0 0.000896745 -0.00041094 0 0.000835255 0.00041094 0 
0.00109521 -0.000246251 0 0.00109548 0.000241816 0 0.000888744 0.000133221 0 
0.000884672 -0.000131409 0 0.000734511 2.22198e-05 0 0.00099603 -1.62999e-05 0 
0.00049217 0.000149154 0 0.00049217 -0.000149154 0 0.00110092 -9.03863e-05 0 
0.0011967 -0.000235043 0 0.0011948 0.000234244 0 0.0010896 9.28059e-05 0 
0.000783591 0.000181545 0 0.000786677 -0.000178683 0 0.000691513 -7.86239e-05 0 
0.000956611 -0.000168878 0 0.000959159 0.000169495 0 0.000700823 7.45132e-05 0 
0.000773907 -0.000358769 0 0.000958093 0.000358769 0 0.000900764 0.000422113 0 
0.000831236 -0.000422113 0 0.00047076 0.000187946 0 0.00047076 -0.000187946 0 
0.000506327 1.20793e-06 0 0.00125496 -0.000188051 0 0.001256 0.000186364 0 
0.000930344 -0.000355671 0 0.000802223 0.000356891 0 0.000894056 -0.000283426 0 
0.000837944 0.000283426 0 0.00102403 5.64575e-05 0 0.000906579 0.000286843 0 
0.000825421 -0.000286843 0 0.00105345 0.000307262 0 0.00102589 -7.91024e-05 0 
0.000681095 -0.00030951 0 0.00122461 0.000105752 0 0.00122907 -0.00011688 0 
0.000540991 0.000251333 0 0.000540991 -0.000251333 0 0.000624479 7.32103e-05 0 
0.000551152 -0.000147794 0 0.000551606 0.000147802 0 0.000461422 0.00024054 0 
0.000462692 0.000218831 0 0.000461422 -0.00024054 0 0.000462692 -0.000218831 0 
0.00105793 -0.0003084 0 0.000605948 0.000200473 0 0.000605915 -0.000200421 0 
0.000894426 -0.000450764 0 0.000837574 0.000450764 0 0.000676934 0.000311072 0 
0.000626182 -7.08972e-05 0 0.000584992 5.90258e-06 0 0.00122078 1.89656e-05 0 
0.0010285 0.000232229 0 0.00124284 -0.000245894 0 0.00124267 0.000245397 0 
0.0010232 -0.000230896 0 0.00110079 0.000171119 0 0.00071471 -0.000232668 0 
0.000834965 9.05283e-05 0 0.000842673 -8.85226e-05 0 0.00095723 3.30279e-05 0 
0.000775615 -2.20485e-05 0 0.000713665 0.000235853 0 0.00110556 -0.000175069 0 
0.000491363 9.025e-05 0 0.000488571 -8.87482e-05 0 0.000912167 -4.59906e-05 0 
0.000932228 0.000232832 0 0.000904587 8.10868e-05 0 0.000789049 3.8011e-05 0 
0.000993486 -0.000360083 0 0.000936751 -0.00023716 0 0.00113854 3.89675e-06 0 
0.000789492 -0.000238637 0 0.00101161 0.000112396 0 0.000513466 0.00018326 0 
0.000513402 -0.000183259 0 0.000596046 0.000283517 0 0.000595385 -0.000285639 0 
0.000792102 0.000241238 0 0.00114845 0.000113194 0 0.000737403 0.00035529 0 
0.00114502 -0.000221334 0 0.00114373 0.00021912 0 0.00115942 -0.000117053 0 
0.000816164 -4.7003e-05 0 0.000827708 0.000144636 0 0.000827708 -0.000144636 0 
0.000728035 -3.243e-05 0 0.00074578 0.000136564 0 0.000744567 -0.000134897 0 
0.000659232 -0.0001943 0 0.000991599 -0.000122936 0 0.00065923 0.000194923 0 
0.000586401 0.000238032 0 0.000586231 -0.000238284 0 0.000670788 -0.000130267 0 
0.000668203 0.000129229 0 0.000889614 -8.00602e-05 0 0.000944998 -2.26884e-05 0 
0.00114587 -0.000279044 0 0.00114555 0.000278672 0 0.00087048 0.00044547 0 
0.00086152 -0.00044547 0 0.000598961 -0.000915961 0 0.000603317 -0.000588209 0 
0.000270723 -0.000581163 0 0.000270149 -0.000918385 0 0.000116826 -0.000542538 0 
0.000116826 -0.000957462 0 0.000431238 -0.00054122 0 0.000232505 -0.000744897 0 
0.000636012 -0.000752799 0 0.000434763 -0.00095878 0 6.87997e-05 -0.000535714 0 
6.87997e-05 -0.000964286 0 0.000745424 -0.000579013 0 0.000734049 -0.000916193 0 
0.000425691 -0.00110148 0 0.000440309 -0.00039852 0 0.000542232 -0.000464455 0 
0.00032556 -0.00103573 0 0.000128192 -0.000673002 0 0.000124428 -0.000825257 0 
0.000539618 -0.00104521 0 0.00032807 -0.000453412 0 0.000520463 -0.000846217 0 
0.000521988 -0.00065178 0 0.000340031 -0.000668056 0 0.00034624 -0.000838266 0 
5.85195e-05 -0.000502705 0 5.85195e-05 -0.000997295 0 0.000206193 -0.000502625 0 
0.00020604 -0.000996565 0 0.000751161 -0.00069756 0 0.00073873 -0.000810926 0 
0.000181347 -0.000892326 0 0.000181347 -0.000607674 0 0.000463745 -0.00116094 0 
0.000402255 -0.00033906 0 0.000662471 -0.000504287 0 0.000655871 -0.000984939 0 
0.000455875 -0.000616724 0 0.0004137 -0.000882087 0 0.000302544 -0.000768994 0 
0.000569409 -0.000757172 0 5.91695e-05 -0.000600846 0 5.91695e-05 -0.000899154 0 
0.000666622 -0.000652114 0 0.000763695 -0.000514957 0 0.000761799 -0.000984244 0 
0.000662952 -0.000835018 0 0.000350592 -0.000568457 0 0.000512323 -0.000928683 0 
0.000258513 -0.000671173 0 0.000526882 -0.000581015 0 0.000348994 -0.000924358 0 
0.000269055 -0.00082351 0 0.000340907 -0.00110877 0 0.000525093 -0.000391231 0 
0.000398236 -0.00117211 0 0.000467764 -0.000327887 0 3.77595e-05 -0.000562054 0 
3.77595e-05 -0.000937946 0 7.22902e-05 -0.000748076 0 0.000821959 -0.000561949 0 
0.000823003 -0.000936364 0 0.000497341 -0.00110573 0 0.000369223 -0.000393109 0 
0.000595975 -0.000691792 0 0.000461056 -0.00103343 0 0.000404944 -0.000466574 0 
0.000473579 -0.000463157 0 0.000392458 -0.00103684 0 0.000620449 -0.000442181 0 
0.000248106 -0.00105944 0 0.000791611 -0.000855752 0 0.000796074 -0.00063312 0 
0.000107991 -0.000498667 0 0.000107991 -0.00100133 0 0.000192237 -0.000821247 0 
0.000118309 -0.000897697 0 0.000118584 -0.000602176 0 2.84222e-05 -0.00050946 0 
2.96921e-05 -0.000531169 0 2.84222e-05 -0.00099054 0 2.96921e-05 -0.000968831 0 
0.000584827 -0.000825555 0 0.000620086 -0.00106094 0 0.000172947 -0.000549526 0 
0.000172922 -0.000950417 0 0.000461426 -0.00120076 0 0.000404574 -0.000299236 0 
0.000243934 -0.000438928 0 0.000192001 -0.000675472 0 0.000154074 -0.000745216 0 
0.000787779 -0.000768966 0 0.000588723 -0.000523989 0 0.000809841 -0.000504106 0 
0.000809671 -0.000995397 0 0.000571747 -0.000987513 0 0.000673596 -0.000911853 0 
0.000281249 -0.000981909 0 0.000409717 -0.000660715 0 0.000465934 -0.000841589 0 
0.000524589 -0.000717066 0 0.000342119 -0.000722933 0 0.000280666 -0.000514151 0 
0.000672694 -0.000574319 0 5.82468e-05 -0.000659662 0 5.65752e-05 -0.000839154 0 
0.000386493 -0.000796808 0 0.000361584 -0.000985225 0 0.000499228 -0.000517168 0 
0.000471587 -0.000668913 0 0.000510532 -0.000790014 0 0.000559513 -0.00111068 0 
0.000707209 -0.000752897 0 8.04633e-05 -0.000566736 0 8.04241e-05 -0.000933245 0 
0.000163046 -0.000466483 0 0.000162386 -0.00103563 0 0.000578393 -0.000637387 0 
0.000503901 -0.000990722 0 0.000359102 -0.000508763 0 0.000714127 -0.000859658 0 
0.000304403 -0.00039471 0 0.000712099 -0.000528651 0 0.000710619 -0.000966814 0 
0.000726254 -0.000631789 0 0.000383073 -0.000701841 0 0.000471292 -0.000894636 0 
0.000394708 -0.000605364 0 0.000295143 -0.00071521 0 0.000544105 -0.000886073 0 
0.00030982 -0.000616796 0 0.000226145 -0.000944288 0 0.000307419 -0.000884579 0 
0.000226252 -0.000555158 0 0.000153401 -0.000511968 0 0.000153233 -0.000988282 0 
0.000237471 -0.000619391 0 0.000238317 -0.000879885 0 0.000410377 -0.000831296 0 
0.000352297 -0.000773675 0 0.00071621 -0.000470678 0 0.000708438 -0.00102758 0 
0.00043748 -0.00030453 0 0.00042852 -0.00119547 0 -0.000266167 -0.000909585 0 
-0.00026339 -0.000582669 0 -0.000595526 -0.000581349 0 -0.000595539 -0.000918697 0 
-0.000749174 -0.000957462 0 -0.000749174 -0.000542538 0 -0.000436828 -0.000541202 0 
-0.000633495 -0.000748246 0 -0.000234978 -0.000756491 0 -0.000436828 -0.000958798 0 
-0.0007972 -0.000964286 0 -0.0007972 -0.000535714 0 -0.000131951 -0.000583807 0 
-0.000120576 -0.000920987 0 -0.000440309 -0.00110148 0 -0.000440309 -0.00039852 0 
-0.000540519 -0.000463808 0 -0.000540519 -0.00103619 0 -0.000737497 -0.000826703 0 
-0.000743731 -0.00067341 0 -0.000326361 -0.000455157 0 -0.000326361 -0.00104484 0 
-0.000347939 -0.000834179 0 -0.000344799 -0.000652107 0 -0.000525969 -0.000668056 0 
-0.000528784 -0.000835049 0 -0.00080748 -0.000997295 0 -0.00080748 -0.000502705 0 
-0.00065996 -0.000996565 0 -0.00065996 -0.000503435 0 -0.000114839 -0.00080244 0 
-0.00012727 -0.000689074 0 -0.000684653 -0.000892326 0 -0.000684653 -0.000607674 0 
-0.000402255 -0.00033906 0 -0.000402255 -0.00116094 0 -0.00020379 -0.000996251 0 
-0.000209694 -0.000514898 0 -0.000410601 -0.000616776 0 -0.000414328 -0.000881409 0 
-0.000564489 -0.00077222 0 -0.00030297 -0.0007663 0 -0.000806831 -0.000899154 0 
-0.000806831 -0.000600846 0 -0.000198082 -0.000840386 0 -0.000104201 -0.000515756 0 
-0.000102305 -0.000985043 0 -0.000210482 -0.000662469 0 -0.000512323 -0.000571317 0 
-0.000512323 -0.000928683 0 -0.000607487 -0.000671376 0 -0.000342389 -0.000918878 0 
-0.000339591 -0.000579218 0 -0.000598177 -0.000824513 0 -0.000525093 -0.00110877 0 
-0.000525093 -0.000391231 0 -0.000467764 -0.00117211 0 -0.000467764 -0.000327887 0 
-0.00082824 -0.000937946 0 -0.00082824 -0.000562054 0 -0.000792673 -0.000751208 0 
-4.40406e-05 -0.000938051 0 -4.29968e-05 -0.000563636 0 -0.000368656 -0.000394329 0 
-0.000368656 -0.00110567 0 -0.000404944 -0.000466574 0 -0.000404944 -0.00103343 0 
-0.000274968 -0.000693542 0 -0.000473579 -0.000463157 0 -0.000473579 -0.00103684 0 
-0.000273108 -0.000829102 0 -0.000617905 -0.00105951 0 -0.000617905 -0.00044049 0 
-7.4389e-05 -0.000644248 0 -6.99258e-05 -0.00086688 0 -0.000758009 -0.00100133 0 
-0.000758009 -0.000498667 0 -0.000674521 -0.00082321 0 -0.000747394 -0.000897802 0 
-0.000747848 -0.000602206 0 -0.000837578 -0.00099054 0 -0.000836308 -0.000968831 0 
-0.000837578 -0.00050946 0 -0.000836308 -0.000531169 0 -0.00024589 -0.000439066 0 
-0.000241075 -0.0010584 0 -0.000693065 -0.000950422 0 -0.000693085 -0.000549579 0 
-0.000404574 -0.00120076 0 -0.000404574 -0.000299236 0 -0.000672818 -0.000679103 0 
-0.000714008 -0.000755903 0 -7.82213e-05 -0.000731034 0 -5.6329e-05 -0.000504603 0 
-5.61586e-05 -0.000995894 0 -0.000275796 -0.000980896 0 -0.000285676 -0.000513219 0 
-0.000186165 -0.000585602 0 -0.000584291 -0.000982673 0 -0.00058429 -0.000517332 0 
-0.00045634 -0.000660721 0 -0.000464193 -0.000839596 0 -0.00034177 -0.000716972 0 
-0.000523385 -0.000727952 0 -0.000193444 -0.000925069 0 -0.000807637 -0.00084025 0 
-0.000810429 -0.000661252 0 -0.000386833 -0.000795991 0 -0.000394413 -0.000668913 0 
-0.000509958 -0.000787971 0 -0.000305514 -0.00111008 0 -0.000306477 -0.00038941 0 
-0.000362249 -0.00098716 0 -0.00035868 -0.000511074 0 -0.000160645 -0.000746982 0 
-0.000509508 -0.000511363 0 -0.000509508 -0.000988638 0 -0.00028739 -0.000637604 0 
-0.000785534 -0.00093326 0 -0.000785598 -0.000566741 0 -0.000703615 -0.00103564 0 
-0.000703615 -0.000464361 0 -0.000148903 -0.000636616 0 -0.00015636 -0.000534148 0 
-0.000153981 -0.000971334 0 -0.000139581 -0.000867053 0 -0.000482839 -0.000702846 0 
-0.000471292 -0.000605364 0 -0.000471292 -0.000894636 0 -0.000570965 -0.00071757 0 
-0.000554433 -0.000615103 0 -0.000553903 -0.000884892 0 -0.000639788 -0.00094438 0 
-0.000639768 -0.0005557 0 -0.000307401 -0.000872936 0 -0.000712765 -0.000988284 0 
-0.000712769 -0.000511716 0 -0.000628213 -0.000619733 0 -0.000630855 -0.000879083 0 
-0.000409259 -0.000828735 0 -0.000354002 -0.000772688 0 -0.000155373 -0.000471972 0 
-0.000153127 -0.00102904 0 -0.00043748 -0.00030453 0 -0.00043748 -0.00119547 0 
-0.000699167 -0.000159585 0 -0.00102828 0.000168837 0 -0.000700039 0.000165961 0 
-0.00102854 -0.000168697 0 -0.00118217 0.000207462 0 -0.00118217 -0.000207462 0 
-0.000867762 0.00020878 0 -0.00106649 5.10348e-06 0 -0.000667978 -6.49099e-06 0 
-0.000869828 -0.000208798 0 -0.0012302 0.000214286 0 -0.0012302 -0.000214286 0 
-0.000564951 0.000166193 0 -0.000553576 -0.000170987 0 -0.000873309 -0.00035148 0 
-0.000858691 0.00035148 0 -0.000756768 0.000285545 0 -0.000973519 -0.000286192 0 
-0.00117081 7.69979e-05 0 -0.00117457 -7.52569e-05 0 -0.000759361 -0.000294843 0 
-0.00097093 0.000296588 0 -0.000780939 -8.41794e-05 0 -0.000958969 8.1944e-05 0 
-0.000777799 9.78925e-05 0 -0.000961784 -8.5049e-05 0 -0.00124048 0.000247295 0 
-0.00124048 -0.000247295 0 -0.00109281 0.000247375 0 -0.00109296 -0.000246565 0 
-0.000547839 -5.24395e-05 0 -0.00056027 6.09258e-05 0 -0.00111765 0.000142326 0 
-0.00111765 -0.000142326 0 -0.000835255 -0.00041094 0 -0.000896745 0.00041094 0 
-0.00063679 -0.000246251 0 -0.000636522 0.000241816 0 -0.000843256 0.000133221 0 
-0.000847328 -0.000131409 0 -0.000997489 -2.16615e-05 0 -0.00073597 -1.62999e-05 0 
-0.00123983 0.000149154 0 -0.00123983 -0.000149154 0 -0.000631082 -9.03863e-05 0 
-0.000535305 -0.000235043 0 -0.000537201 0.000234244 0 -0.000642398 9.28059e-05 0 
-0.000948408 0.000181543 0 -0.000945323 -0.000178683 0 -0.00104049 7.88274e-05 0 
-0.000775389 -0.000168878 0 -0.000772841 0.000169495 0 -0.00103118 -7.38619e-05 0 
-0.000958093 -0.000358769 0 -0.000773907 0.000358769 0 -0.000900764 -0.000422113 0 
-0.000831236 0.000422113 0 -0.00126124 0.000187946 0 -0.00126124 -0.000187946 0 
-0.00122671 1.92365e-06 0 -0.000477041 -0.000188051 0 -0.000475997 0.000186364 0 
-0.000801656 -0.000355671 0 -0.000929777 0.000356891 0 -0.000837944 -0.000283426 0 
-0.000894056 0.000283426 0 -0.000707968 5.64575e-05 0 -0.000825421 0.000286843 0 
-0.000906579 -0.000286843 0 -0.000678551 0.000307262 0 -0.000706108 -7.91024e-05 0 
-0.0010509 -0.00030951 0 -0.000507389 0.000105752 0 -0.000502926 -0.00011688 0 
-0.00119101 0.000251333 0 -0.00119101 -0.000251333 0 -0.00110684 -7.12684e-05 0 
-0.00118042 0.000147824 0 -0.00118069 -0.000147697 0 -0.00127058 0.00024054 0 
-0.00126931 0.000218831 0 -0.00127058 -0.00024054 0 -0.00126931 -0.000218831 0 
-0.000674075 -0.0003084 0 -0.00112605 0.000200474 0 -0.00112608 -0.000200417 0 
-0.000837574 -0.000450764 0 -0.000894426 0.000450764 0 -0.00105507 0.000311072 0 
-0.001107 7.45278e-05 0 -0.00114494 4.78174e-06 0 -0.000511221 1.89656e-05 0 
-0.000703503 0.000232229 0 -0.000489329 0.000245397 0 -0.000489159 -0.000245894 0 
-0.000708796 -0.000230896 0 -0.000631208 0.000171119 0 -0.00101729 -0.000232673 0 
-0.000889299 8.92785e-05 0 -0.000897193 -8.95957e-05 0 -0.00077477 3.30279e-05 0 
-0.000956385 2.2115e-05 0 -0.00101833 0.000235849 0 -0.000626444 -0.000175069 0 
-0.00124075 9.03378e-05 0 -0.00124242 -8.91537e-05 0 -0.000819833 -4.59906e-05 0 
-0.000799772 0.000232832 0 -0.000827413 8.10868e-05 0 -0.000942958 -3.79434e-05 0 
-0.000738514 -0.000360083 0 -0.000795249 -0.00023716 0 -0.000593465 3.89675e-06 0 
-0.000942508 -0.000238638 0 -0.00072039 0.000112396 0 -0.00121854 0.000183264 0 
-0.00121858 -0.000183245 0 -0.00113595 0.000283517 0 -0.00113662 -0.000285639 0 
-0.000939898 0.000241237 0 -0.00058355 0.000113194 0 -0.000994597 0.00035529 0 
-0.000586981 -0.000221334 0 -0.000588267 0.00021912 0 -0.000572581 -0.000117053 0 
-0.00091583 4.71675e-05 0 -0.000904292 -0.000144636 0 -0.000904292 0.000144636 0 
-0.00100396 3.32657e-05 0 -0.00098918 0.000133204 0 -0.000986047 -0.000136339 0 
-0.00107279 -0.00019438 0 -0.000740401 -0.000122936 0 -0.00107275 0.000194842 0 
-0.0011456 0.000238032 0 -0.00114577 -0.000238283 0 -0.00106153 0.000130609 0 
-0.00106376 -0.000129013 0 -0.000842259 -7.8735e-05 0 -0.000787002 -2.26884e-05 0 
-0.000586448 0.000278672 0 -0.000586127 -0.000279044 0 -0.00087048 -0.00044547 0 
-0.00086152 0.00044547 0 -0.000266167 0.000590415 0 -0.000267039 0.000915961 0 
-0.000595277 0.000918837 0 -0.000595539 0.000581303 0 -0.000749174 0.000542538 0 
-0.000749174 0.000957462 0 -0.000434763 0.00095878 0 -0.000633495 0.000751754 0 
-0.000234978 0.000743509 0 -0.000436828 0.000541202 0 -0.0007972 0.000535714 0 
-0.0007972 0.000964286 0 -0.000131951 0.000916193 0 -0.000120576 0.000579013 0 
-0.000440309 0.00039852 0 -0.000425691 0.00110148 0 -0.000323768 0.00103554 0 
-0.000540519 0.000463808 0 -0.000737497 0.000673297 0 -0.000743731 0.00082659 0 
-0.000326361 0.000455157 0 -0.00053793 0.00104659 0 -0.000347939 0.000665821 0 
-0.000344799 0.000847893 0 -0.000525969 0.000831944 0 -0.000528784 0.000664951 0 
-0.00080748 0.000502705 0 -0.00080748 0.000997295 0 -0.00065996 0.000503435 0 
-0.000659807 0.000997375 0 -0.000114839 0.00069756 0 -0.00012727 0.000810926 0 
-0.000684653 0.000607674 0 -0.000684653 0.000892326 0 -0.000402255 0.00033906 0 
-0.000463745 0.00116094 0 -0.00020379 0.000503749 0 -0.000203522 0.000991815 0 
-0.000410256 0.000883221 0 -0.000414328 0.000618591 0 -0.000564489 0.00072778 0 
-0.00030297 0.0007337 0 -0.000806831 0.000600846 0 -0.000806831 0.000899154 0 
-0.000198082 0.000659614 0 -0.000104201 0.000984244 0 -0.000102305 0.000514957 0 
-0.000209398 0.000842806 0 -0.000515408 0.000931543 0 -0.000512323 0.000571317 0 
-0.000607487 0.000828624 0 -0.000342389 0.000581122 0 -0.000339841 0.000919495 0 
-0.000598177 0.000675487 0 -0.000525093 0.000391231 0 -0.000340907 0.00110877 0 
-0.000398236 0.00117211 0 -0.000467764 0.000327887 0 -0.00082824 0.000562054 0 
-0.00082824 0.000937946 0 -0.000792673 0.000748792 0 -4.40406e-05 0.000561949 0 
-4.29968e-05 0.000936364 0 -0.000368656 0.000394329 0 -0.000496777 0.00110689 0 
-0.000404944 0.000466574 0 -0.000461056 0.00103343 0 -0.000274968 0.000806458 0 
-0.000392421 0.00103684 0 -0.000473579 0.000463157 0 -0.000245551 0.00105726 0 
-0.000273108 0.000670898 0 -0.000617905 0.00044049 0 -7.4389e-05 0.000855752 0 
-6.99258e-05 0.00063312 0 -0.000758009 0.000498667 0 -0.000758009 0.00100133 0 
-0.000674521 0.00067679 0 -0.000747394 0.000602198 0 -0.000747848 0.000897794 0 
-0.000837578 0.00050946 0 -0.000836308 0.000531169 0 -0.000837578 0.00099054 0 
-0.000836308 0.000968831 0 -0.000241075 0.0004416 0 -0.000693065 0.000549578 0 
-0.000693072 0.000950473 0 -0.000404574 0.000299236 0 -0.000461426 0.00120076 0 
-0.000622066 0.00106107 0 -0.000672818 0.000820897 0 -0.000714008 0.000744097 0 
-7.82213e-05 0.000768966 0 -0.000270503 0.000982229 0 -5.6329e-05 0.000995397 0 
-5.61586e-05 0.000504106 0 -0.000275796 0.000519104 0 -0.000198208 0.000921119 0 
-0.000584291 0.000517327 0 -0.000456299 0.000839279 0 -0.000464193 0.000660404 0 
-0.00034177 0.000783028 0 -0.000523385 0.000772048 0 -0.000585334 0.000985849 0 
-0.000193444 0.000574931 0 -0.000807637 0.00065975 0 -0.000810429 0.000838748 0 
-0.000386833 0.000704009 0 -0.000366772 0.000982832 0 -0.000394413 0.000831087 0 
-0.000509958 0.000712029 0 -0.000305514 0.000389917 0 -0.000362249 0.00051284 0 
-0.000160465 0.000753897 0 -0.000509508 0.000511362 0 -0.00028739 0.000862396 0 
-0.000785534 0.00056674 0 -0.000785598 0.000933259 0 -0.000703615 0.000464361 0 
-0.000702954 0.00103352 0 -0.000506898 0.000991237 0 -0.00015055 0.000863194 0 
-0.000561597 0.00110529 0 -0.000153981 0.000528666 0 -0.000155267 0.00096912 0 
-0.000139581 0.000632947 0 -0.00048283 0.000797154 0 -0.000471292 0.000894636 0 
-0.000471292 0.000605364 0 -0.000570965 0.00078243 0 -0.00055618 0.00088318 0 
-0.000553903 0.000615108 0 -0.000639788 0.00055562 0 -0.000307401 0.000627064 0 
-0.00063975 0.000944842 0 -0.000712765 0.000511716 0 -0.000712603 0.000988032 0 
-0.000628389 0.00088015 0 -0.000630855 0.000620917 0 -0.000409259 0.000671265 0 
-0.000354002 0.000727312 0 -0.000153448 0.00102867 0 -0.000153127 0.000470956 0 
-0.00042852 0.00119547 0 -0.00043748 0.00030453 0 0.000166833 -0.000159585 -0.0005 
0.000165961 0.000165961 -0.0005 -0.000162277 0.000168837 -0.0005 -0.000162539 -0.000168697 -0.0005 
-0.000316174 -0.000207462 -0.0005 -0.000316174 0.000207462 -0.0005 -1.7625e-06 0.00020878 -0.0005 
-0.000200494 5.10348e-06 -0.0005 0.000198022 -6.49099e-06 -0.0005 -3.82827e-06 -0.000208798 -0.0005 
-0.0003642 0.000214286 -0.0005 -0.0003642 -0.000214286 -0.0005 0.000301049 0.000166193 -0.0005 
0.000312424 -0.000170987 -0.0005 -7.30908e-06 -0.00035148 -0.0005 7.30908e-06 0.00035148 -0.0005 
0.000109232 0.000285545 -0.0005 -0.000107519 -0.000286192 -0.0005 -0.000304808 7.69979e-05 -0.0005 
-0.000308572 -7.52569e-05 -0.0005 0.000106639 -0.000294843 -0.0005 -0.00010493 0.000296588 -0.0005 
8.50608e-05 -8.41794e-05 -0.0005 8.82006e-05 9.78925e-05 -0.0005 -9.29688e-05 8.1944e-05 -0.0005 
-9.5784e-05 -8.5049e-05 -0.0005 -0.00037448 0.000247295 -0.0005 -0.00037448 -0.000247295 -0.0005 
-0.000226807 0.000247375 -0.0005 -0.00022696 -0.000246565 -0.0005 0.000318161 -5.24395e-05 -0.0005 
0.00030573 6.09258e-05 -0.0005 -0.000251653 -0.000142326 -0.0005 -0.000251653 0.000142326 -0.0005 
3.07451e-05 -0.00041094 -0.0005 -3.07451e-05 0.00041094 -0.0005 0.00022921 -0.000246251 -0.0005 
0.000229478 0.000241816 -0.0005 2.27436e-05 0.000133221 -0.0005 1.86722e-05 -0.000131409 -0.0005 
-0.000131489 -2.16615e-05 -0.0005 0.00013003 -1.62999e-05 -0.0005 -0.00037383 0.000149154 -0.0005 
-0.00037383 -0.000149154 -0.0005 0.000234918 -9.03863e-05 -0.0005 0.000328799 0.000234244 -0.0005 
0.000330695 -0.000235043 -0.0005 0.000223602 9.28059e-05 -0.0005 -8.24081e-05 0.000181543 -0.0005 
-7.93229e-05 -0.000178683 -0.0005 -0.000174487 7.88274e-05 -0.0005 9.06107e-05 -0.000168878 -0.0005 
9.31592e-05 0.000169495 -0.0005 -0.000165177 -7.38619e-05 -0.0005 -9.20929e-05 -0.000358769 -0.0005 
9.20929e-05 0.000358769 -0.0005 3.47644e-05 0.000422113 -0.0005 -3.47644e-05 -0.000422113 -0.0005 
-0.00039524 0.000187946 -0.0005 -0.00039524 -0.000187946 -0.0005 -0.00036071 1.92365e-06 -0.0005 
0.000388959 -0.000188051 -0.0005 0.000390003 0.000186364 -0.0005 6.43444e-05 -0.000355671 -0.0005 
-6.37768e-05 0.000356891 -0.0005 2.80563e-05 -0.000283426 -0.0005 -2.80563e-05 0.000283426 -0.0005 
0.000158032 5.64575e-05 -0.0005 4.0579e-05 0.000286843 -0.0005 -4.0579e-05 -0.000286843 -0.0005 
0.000187449 0.000307262 -0.0005 0.000159892 -7.91024e-05 -0.0005 -0.000184905 -0.00030951 -0.0005 
0.000358611 0.000105752 -0.0005 0.000363074 -0.00011688 -0.0005 -0.000325009 0.000251333 -0.0005 
-0.000325009 -0.000251333 -0.0005 -0.000240838 -7.12684e-05 -0.0005 -0.000314691 -0.000147697 -0.0005 
-0.000314417 0.000147824 -0.0005 -0.000404578 0.00024054 -0.0005 -0.000403308 0.000218831 -0.0005 
-0.000404578 -0.00024054 -0.0005 -0.000403308 -0.000218831 -0.0005 0.000191925 -0.0003084 -0.0005 
-0.000260053 0.000200474 -0.0005 -0.000260078 -0.000200417 -0.0005 -2.84262e-05 0.000450764 -0.0005 
2.84262e-05 -0.000450764 -0.0005 -0.000189066 0.000311072 -0.0005 -0.000240999 7.45278e-05 -0.0005 
-0.000278935 4.78174e-06 -0.0005 0.000354779 1.89656e-05 -0.0005 0.000162497 0.000232229 -0.0005 
0.000376671 0.000245397 -0.0005 0.000376841 -0.000245894 -0.0005 0.000157204 -0.000230896 -0.0005 
0.000234792 0.000171119 -0.0005 -0.000151291 -0.000232673 -0.0005 -2.32986e-05 8.92785e-05 -0.0005 
-3.11926e-05 -8.95957e-05 -0.0005 -9.03847e-05 2.2115e-05 -0.0005 9.12302e-05 3.30279e-05 -0.0005 
-0.000152334 0.000235849 -0.0005 0.000239556 -0.000175069 -0.0005 -0.000374753 9.03378e-05 -0.0005 
-0.000376425 -8.91537e-05 -0.0005 4.61669e-05 -4.59906e-05 -0.0005 6.62281e-05 0.000232832 -0.0005 
3.85868e-05 8.10868e-05 -0.0005 -7.69579e-05 -3.79434e-05 -0.0005 0.000127486 -0.000360083 -0.0005 
7.07506e-05 -0.00023716 -0.0005 0.000272535 3.89675e-06 -0.0005 -7.65081e-05 -0.000238638 -0.0005 
0.00014561 0.000112396 -0.0005 -0.000352537 0.000183264 -0.0005 -0.000352576 -0.000183245 -0.0005 
-0.000270615 -0.000285639 -0.0005 -0.000269954 0.000283517 -0.0005 -7.38981e-05 0.000241237 -0.0005 
0.00028245 0.000113194 -0.0005 -0.000128597 0.00035529 -0.0005 0.000277733 0.00021912 -0.0005 
0.000279019 -0.000221334 -0.0005 0.000293419 -0.000117053 -0.0005 -4.98304e-05 4.71675e-05 -0.0005 
-3.82924e-05 0.000144636 -0.0005 -3.82924e-05 -0.000144636 -0.0005 -0.000137965 3.32657e-05 -0.0005 
-0.00012318 0.000133204 -0.0005 -0.000120047 -0.000136339 -0.0005 -0.000206789 -0.00019438 -0.0005 
0.000125599 -0.000122936 -0.0005 -0.000206748 0.000194842 -0.0005 -0.000279599 0.000238032 -0.0005 
-0.000279767 -0.000238283 -0.0005 -0.000195529 0.000130609 -0.0005 -0.000197761 -0.000129013 -0.0005 
2.37414e-05 -7.8735e-05 -0.0005 7.89976e-05 -2.26884e-05 -0.0005 0.000279552 0.000278672 -0.0005 
0.000279873 -0.000279044 -0.0005 4.48012e-06 0.00044547 -0.0005 -4.48012e-06 -0.00044547 -0.0005 
0.000598961 0.000584039 -0.0005 0.000602744 0.00091226 -0.0005 0.000270474 0.000918651 -0.0005 
0.000270149 0.000581615 -0.0005 0.000116826 0.000957462 -0.0005 0.000116826 0.000542538 -0.0005 
0.000429172 0.000958798 -0.0005 0.000232505 0.000755103 -0.0005 0.000636012 0.000747201 -0.0005 
0.000434763 0.00054122 -0.0005 6.87997e-05 0.000964286 -0.0005 6.87997e-05 0.000535714 -0.0005 
0.000745424 0.000920987 -0.0005 0.000734049 0.000583807 -0.0005 0.000425691 0.00039852 -0.0005 
0.000425691 0.00110148 -0.0005 0.000325481 0.00103619 -0.0005 0.00032556 0.000464273 -0.0005 
0.000128192 0.000826998 -0.0005 0.000124428 0.000674743 -0.0005 0.000539639 0.00104484 -0.0005 
0.000539618 0.000454793 -0.0005 0.000520463 0.000653783 -0.0005 0.000521988 0.00084822 -0.0005 
0.000340031 0.000831944 -0.0005 0.00034624 0.000661734 -0.0005 5.85195e-05 0.000997295 -0.0005 
5.85195e-05 0.000502705 -0.0005 0.00020604 0.000996565 -0.0005 0.00020604 0.000503435 -0.0005 
0.000751161 0.00080244 -0.0005 0.00073873 0.000689074 -0.0005 0.000181347 0.000607674 -0.0005 
0.000181347 0.000892326 -0.0005 0.000463745 0.00033906 -0.0005 0.000463745 0.00116094 -0.0005 
0.00066221 0.000996251 -0.0005 0.000655871 0.000515061 -0.0005 0.000455531 0.000883279 -0.0005 
0.0004137 0.000617913 -0.0005 0.000302544 0.000731006 -0.0005 0.000569409 0.000742828 -0.0005 
5.91695e-05 0.000899154 -0.0005 5.91695e-05 0.000600846 -0.0005 0.000666622 0.000847886 -0.0005 
0.000763695 0.000985043 -0.0005 0.000761799 0.000515756 -0.0005 0.000662952 0.000664982 -0.0005 
0.000353677 0.000928683 -0.0005 0.000512323 0.000571317 -0.0005 0.000258513 0.000828827 -0.0005 
0.000526529 0.000920143 -0.0005 0.000348994 0.000575642 -0.0005 0.000269055 0.00067649 -0.0005 
0.000340907 0.000391231 -0.0005 0.000340907 0.00110877 -0.0005 0.000398236 0.00117211 -0.0005 
0.000398236 0.000327887 -0.0005 3.77595e-05 0.000937946 -0.0005 3.77595e-05 0.000562054 -0.0005 
7.22902e-05 0.000751924 -0.0005 0.000821959 0.000938051 -0.0005 0.000823003 0.000563636 -0.0005 
0.000497344 0.00110567 -0.0005 0.000497341 0.000394268 -0.0005 0.000595975 0.000808208 -0.0005 
0.000461056 0.000466574 -0.0005 0.000461056 0.00103343 -0.0005 0.000392421 0.00103684 -0.0005 
0.000392458 0.000463164 -0.0005 0.000248106 0.000440556 -0.0005 0.000248095 0.00105951 -0.0005 
0.000791611 0.000644248 -0.0005 0.000796074 0.00086688 -0.0005 0.000107991 0.00100133 -0.0005 
0.000107991 0.000498667 -0.0005 0.000192237 0.000678753 -0.0005 0.000118309 0.000602303 -0.0005 
0.000118584 0.000897824 -0.0005 2.84222e-05 0.00099054 -0.0005 2.96921e-05 0.000968831 -0.0005 
2.84222e-05 0.00050946 -0.0005 2.96921e-05 0.000531169 -0.0005 0.000584827 0.000674445 -0.0005 
0.000624925 0.0010584 -0.0005 0.000620086 0.000439056 -0.0005 0.000172934 0.000950423 -0.0005 
0.000172922 0.000549583 -0.0005 0.000461426 0.00120076 -0.0005 0.000461426 0.000299236 -0.0005 
0.000192001 0.000824528 -0.0005 0.000154074 0.000754784 -0.0005 0.000787779 0.000731034 -0.0005 
0.000809841 0.000995894 -0.0005 0.000809671 0.000504603 -0.0005 0.000589469 0.00097835 -0.0005 
0.000571747 0.000512487 -0.0005 0.000673596 0.000588147 -0.0005 0.000281249 0.000518091 -0.0005 
0.00028171 0.000982668 -0.0005 0.000409676 0.000839285 -0.0005 0.000465934 0.000658411 -0.0005 
0.000524589 0.000782934 -0.0005 0.000342119 0.000777068 -0.0005 0.000672682 0.000926159 -0.0005 
5.82468e-05 0.000840338 -0.0005 5.65752e-05 0.000660846 -0.0005 0.000386493 0.000703192 -0.0005 
0.000361584 0.000514775 -0.0005 0.000471587 0.000831087 -0.0005 0.000510532 0.000709986 -0.0005 
0.000559513 0.000389323 -0.0005 0.000560486 0.00111008 -0.0005 0.000503751 0.00098716 -0.0005 
0.000707209 0.000747103 -0.0005 0.000356492 0.000988637 -0.0005 8.04633e-05 0.000933264 -0.0005 
8.04241e-05 0.000566755 -0.0005 0.000162386 0.000464369 -0.0005 0.000162385 0.00103564 -0.0005 
0.000578393 0.000862613 -0.0005 0.000503901 0.000509278 -0.0005 0.000714127 0.000640342 -0.0005 
0.000712044 0.000971552 -0.0005 0.000710619 0.000533186 -0.0005 0.000726252 0.00086828 -0.0005 
0.000383065 0.000798159 -0.0005 0.000471292 0.000605364 -0.0005 0.000394708 0.000894636 -0.0005 
0.000295143 0.00078479 -0.0005 0.000311567 0.000884914 -0.0005 0.000544105 0.000613927 -0.0005 
0.000226145 0.000555712 -0.0005 0.000226234 0.0009443 -0.0005 0.000307419 0.000615421 -0.0005 
0.000153235 0.000988284 -0.0005 0.000153233 0.000511718 -0.0005 0.000237647 0.000880726 -0.0005 
0.000238317 0.000620115 -0.0005 0.000410377 0.000668704 -0.0005 0.000352297 0.000726325 -0.0005 
0.000712874 0.00102905 -0.0005 0.000708438 0.00047242 -0.0005 0.00042852 0.00030453 -0.0005 
0.00042852 0.00119547 -0.0005 0.00103283 -0.000159585 -0.0005 0.00103196 0.000165961 -0.0005 
0.00070371 0.000168883 -0.0005 0.000703474 -0.000168651 -0.0005 0.000549826 0.000207462 -0.0005 
0.000549826 -0.000207462 -0.0005 0.000864237 0.00020878 -0.0005 0.000665505 -1.75358e-06 -0.0005 
0.00106402 -6.49099e-06 -0.0005 0.000862172 -0.000208798 -0.0005 0.0005018 0.000214286 -0.0005 
0.0005018 -0.000214286 -0.0005 0.00117842 -0.000170987 -0.0005 0.00116705 0.000166193 -0.0005 
0.000858691 -0.00035148 -0.0005 0.000873309 0.00035148 -0.0005 0.000975232 0.000285545 -0.0005 
0.000758481 -0.000286192 -0.0005 0.000561503 7.6703e-05 -0.0005 0.000555269 -7.65899e-05 -0.0005 
0.000972639 -0.000294843 -0.0005 0.00076107 0.000296588 -0.0005 0.000951061 -8.41794e-05 -0.0005 
0.000954201 9.78925e-05 -0.0005 0.000770216 8.5049e-05 -0.0005 0.000773031 -8.1944e-05 -0.0005 
0.00049152 0.000247295 -0.0005 0.00049152 -0.000247295 -0.0005 0.000639193 0.000247375 -0.0005 
0.00063904 -0.000246565 -0.0005 0.00118416 -5.24395e-05 -0.0005 0.00117173 6.09258e-05 -0.0005 
0.000614347 -0.000142326 -0.0005 0.000614347 0.000142326 -0.0005 0.000896745 -0.00041094 -0.0005 
0.000835255 0.00041094 -0.0005 0.00109521 -0.000246251 -0.0005 0.00109548 0.000241816 -0.0005 
0.000888744 0.000133221 -0.0005 0.000884672 -0.000131409 -0.0005 0.000734511 2.22198e-05 -0.0005 
0.00099603 -1.62999e-05 -0.0005 0.00049217 0.000149154 -0.0005 0.00049217 -0.000149154 -0.0005 
0.00110092 -9.03863e-05 -0.0005 0.0011967 -0.000235043 -0.0005 0.0011948 0.000234244 -0.0005 
0.0010896 9.28059e-05 -0.0005 0.000783591 0.000181545 -0.0005 0.000786677 -0.000178683 -0.0005 
0.000691513 -7.86239e-05 -0.0005 0.000956611 -0.000168878 -0.0005 0.000959159 0.000169495 -0.0005 
0.000700823 7.45132e-05 -0.0005 0.000773907 -0.000358769 -0.0005 0.000958093 0.000358769 -0.0005 
0.000900764 0.000422113 -0.0005 0.000831236 -0.000422113 -0.0005 0.00047076 0.000187946 -0.0005 
0.00047076 -0.000187946 -0.0005 0.000506327 1.20793e-06 -0.0005 0.00125496 -0.000188051 -0.0005 
0.001256 0.000186364 -0.0005 0.000930344 -0.000355671 -0.0005 0.000802223 0.000356891 -0.0005 
0.000894056 -0.000283426 -0.0005 0.000837944 0.000283426 -0.0005 0.00102403 5.64575e-05 -0.0005 
0.000906579 0.000286843 -0.0005 0.000825421 -0.000286843 -0.0005 0.00105345 0.000307262 -0.0005 
0.00102589 -7.91024e-05 -0.0005 0.000681095 -0.00030951 -0.0005 0.00122461 0.000105752 -0.0005 
0.00122907 -0.00011688 -0.0005 0.000540991 0.000251333 -0.0005 0.000540991 -0.000251333 -0.0005 
0.000624479 7.32103e-05 -0.0005 0.000551152 -0.000147794 -0.0005 0.000551606 0.000147802 -0.0005 
0.000461422 0.00024054 -0.0005 0.000462692 0.000218831 -0.0005 0.000461422 -0.00024054 -0.0005 
0.000462692 -0.000218831 -0.0005 0.00105793 -0.0003084 -0.0005 0.000605948 0.000200473 -0.0005 
0.000605915 -0.000200421 -0.0005 0.000894426 -0.000450764 -0.0005 0.000837574 0.000450764 -0.0005 
0.000676934 0.000311072 -0.0005 0.000626182 -7.08972e-05 -0.0005 0.000584992 5.90258e-06 -0.0005 
0.00122078 1.89656e-05 -0.0005 0.0010285 0.000232229 -0.0005 0.00124284 -0.000245894 -0.0005 
0.00124267 0.000245397 -0.0005 0.0010232 -0.000230896 -0.0005 0.00110079 0.000171119 -0.0005 
0.00071471 -0.000232668 -0.0005 0.000834965 9.05283e-05 -0.0005 0.000842673 -8.85226e-05 -0.0005 
0.00095723 3.30279e-05 -0.0005 0.000775615 -2.20485e-05 -0.0005 0.000713665 0.000235853 -0.0005 
0.00110556 -0.000175069 -0.0005 0.000491363 9.025e-05 -0.0005 0.000488571 -8.87482e-05 -0.0005 
0.000912167 -4.59906e-05 -0.0005 0.000932228 0.000232832 -0.0005 0.000904587 8.10868e-05 -0.0005 
0.000789049 3.8011e-05 -0.0005 0.000993486 -0.000360083 -0.0005 0.000936751 -0.00023716 -0.0005 
0.00113854 3.89675e-06 -0.0005 0.000789492 -0.000238637 -0.0005 0.00101161 0.000112396 -0.0005 
0.000513466 0.00018326 -0.0005 0.000513402 -0.000183259 -0.0005 0.000596046 0.000283517 -0.0005 
0.000595385 -0.000285639 -0.0005 0.000792102 0.000241238 -0.0005 0.00114845 0.000113194 -0.0005 
0.000737403 0.00035529 -0.0005 0.00114502 -0.000221334 -0.0005 0.00114373 0.00021912 -0.0005 
0.00115942 -0.000117053 -0.0005 0.000816164 -4.7003e-05 -0.0005 0.000827708 0.000144636 -0.0005 
0.000827708 -0.000144636 -0.0005 0.000728035 -3.243e-05 -0.0005 0.00074578 0.000136564 -0.0005 
0.000744567 -0.000134897 -0.0005 0.000659232 -0.0001943 -0.0005 0.000991599 -0.000122936 -0.0005 
0.00065923 0.000194923 -0.0005 0.000586401 0.000238032 -0.0005 0.000586231 -0.000238284 -0.0005 
0.000670788 -0.000130267 -0.0005 0.000668203 0.000129229 -0.0005 0.000889614 -8.00602e-05 -0.0005 
0.000944998 -2.26884e-05 -0.0005 0.00114587 -0.000279044 -0.0005 0.00114555 0.000278672 -0.0005 
0.00087048 0.00044547 -0.0005 0.00086152 -0.00044547 -0.0005 0.000598961 -0.000915961 -0.0005 
0.000603317 -0.000588209 -0.0005 0.000270723 -0.000581163 -0.0005 0.000270149 -0.000918385 -0.0005 
0.000116826 -0.000542538 -0.0005 0.000116826 -0.000957462 -0.0005 0.000431238 -0.00054122 -0.0005 
0.000232505 -0.000744897 -0.0005 0.000636012 -0.000752799 -0.0005 0.000434763 -0.00095878 -0.0005 
6.87997e-05 -0.000535714 -0.0005 6.87997e-05 -0.000964286 -0.0005 0.000745424 -0.000579013 -0.0005 
0.000734049 -0.000916193 -0.0005 0.000425691 -0.00110148 -0.0005 0.000440309 -0.00039852 -0.0005 
0.000542232 -0.000464455 -0.0005 0.00032556 -0.00103573 -0.0005 0.000128192 -0.000673002 -0.0005 
0.000124428 -0.000825257 -0.0005 0.000539618 -0.00104521 -0.0005 0.00032807 -0.000453412 -0.0005 
0.000520463 -0.000846217 -0.0005 0.000521988 -0.00065178 -0.0005 0.000340031 -0.000668056 -0.0005 
0.00034624 -0.000838266 -0.0005 5.85195e-05 -0.000502705 -0.0005 5.85195e-05 -0.000997295 -0.0005 
0.000206193 -0.000502625 -0.0005 0.00020604 -0.000996565 -0.0005 0.000751161 -0.00069756 -0.0005 
0.00073873 -0.000810926 -0.0005 0.000181347 -0.000892326 -0.0005 0.000181347 -0.000607674 -0.0005 
0.000463745 -0.00116094 -0.0005 0.000402255 -0.00033906 -0.0005 0.000662471 -0.000504287 -0.0005 
0.000655871 -0.000984939 -0.0005 0.000455875 -0.000616724 -0.0005 0.0004137 -0.000882087 -0.0005 
0.000302544 -0.000768994 -0.0005 0.000569409 -0.000757172 -0.0005 5.91695e-05 -0.000600846 -0.0005 
5.91695e-05 -0.000899154 -0.0005 0.000666622 -0.000652114 -0.0005 0.000763695 -0.000514957 -0.0005 
0.000761799 -0.000984244 -0.0005 0.000662952 -0.000835018 -0.0005 0.000350592 -0.000568457 -0.0005 
0.000512323 -0.000928683 -0.0005 0.000258513 -0.000671173 -0.0005 0.000526882 -0.000581015 -0.0005 
0.000348994 -0.000924358 -0.0005 0.000269055 -0.00082351 -0.0005 0.000340907 -0.00110877 -0.0005 
0.000525093 -0.000391231 -0.0005 0.000398236 -0.00117211 -0.0005 0.000467764 -0.000327887 -0.0005 
3.77595e-05 -0.000562054 -0.0005 3.77595e-05 -0.000937946 -0.0005 7.22902e-05 -0.000748076 -0.0005 
0.000821959 -0.000561949 -0.0005 0.000823003 -0.000936364 -0.0005 0.000497341 -0.00110573 -0.0005 
0.000369223 -0.000393109 -0.0005 0.000595975 -0.000691792 -0.0005 0.000461056 -0.00103343 -0.0005 
0.000404944 -0.000466574 -0.0005 0.000473579 -0.000463157 -0.0005 0.000392458 -0.00103684 -0.0005 
0.000620449 -0.000442181 -0.0005 0.000248106 -0.00105944 -0.0005 0.000791611 -0.000855752 -0.0005 
0.000796074 -0.00063312 -0.0005 0.000107991 -0.000498667 -0.0005 0.000107991 -0.00100133 -0.0005 
0.000192237 -0.000821247 -0.0005 0.000118309 -0.000897697 -0.0005 0.000118584 -0.000602176 -0.0005 
2.84222e-05 -0.00050946 -0.0005 2.96921e-05 -0.000531169 -0.0005 2.84222e-05 -0.00099054 -0.0005 
2.96921e-05 -0.000968831 -0.0005 0.000584827 -0.000825555 -0.0005 0.000620086 -0.00106094 -0.0005 
0.000172947 -0.000549526 -0.0005 0.000172922 -0.000950417 -0.0005 0.000461426 -0.00120076 -0.0005 
0.000404574 -0.000299236 -0.0005 0.000243934 -0.000438928 -0.0005 0.000192001 -0.000675472 -0.0005 
0.000154074 -0.000745216 -0.0005 0.000787779 -0.000768966 -0.0005 0.000588723 -0.000523989 -0.0005 
0.000809841 -0.000504106 -0.0005 0.000809671 -0.000995397 -0.0005 0.000571747 -0.000987513 -0.0005 
0.000673596 -0.000911853 -0.0005 0.000281249 -0.000981909 -0.0005 0.000409717 -0.000660715 -0.0005 
0.000465934 -0.000841589 -0.0005 0.000524589 -0.000717066 -0.0005 0.000342119 -0.000722933 -0.0005 
0.000280666 -0.000514151 -0.0005 0.000672694 -0.000574319 -0.0005 5.82468e-05 -0.000659662 -0.0005 
5.65752e-05 -0.000839154 -0.0005 0.000386493 -0.000796808 -0.0005 0.000361584 -0.000985225 -0.0005 
0.000499228 -0.000517168 -0.0005 0.000471587 -0.000668913 -0.0005 0.000510532 -0.000790014 -0.0005 
0.000559513 -0.00111068 -0.0005 0.000707209 -0.000752897 -0.0005 8.04633e-05 -0.000566736 -0.0005 
8.04241e-05 -0.000933245 -0.0005 0.000163046 -0.000466483 -0.0005 0.000162386 -0.00103563 -0.0005 
0.000578393 -0.000637387 -0.0005 0.000503901 -0.000990722 -0.0005 0.000359102 -0.000508763 -0.0005 
0.000714127 -0.000859658 -0.0005 0.000304403 -0.00039471 -0.0005 0.000712099 -0.000528651 -0.0005 
0.000710619 -0.000966814 -0.0005 0.000726254 -0.000631789 -0.0005 0.000383073 -0.000701841 -0.0005 
0.000471292 -0.000894636 -0.0005 0.000394708 -0.000605364 -0.0005 0.000295143 -0.00071521 -0.0005 
0.000544105 -0.000886073 -0.0005 0.00030982 -0.000616796 -0.0005 0.000226145 -0.000944288 -0.0005 
0.000307419 -0.000884579 -0.0005 0.000226252 -0.000555158 -0.0005 0.000153401 -0.000511968 -0.0005 
0.000153233 -0.000988282 -0.0005 0.000237471 -0.000619391 -0.0005 0.000238317 -0.000879885 -0.0005 
0.000410377 -0.000831296 -0.0005 0.000352297 -0.000773675 -0.0005 0.00071621 -0.000470678 -0.0005 
0.000708438 -0.00102758 -0.0005 0.00043748 -0.00030453 -0.0005 0.00042852 -0.00119547 -0.0005 
-0.000266167 -0.000909585 -0.0005 -0.00026339 -0.000582669 -0.0005 -0.000595526 -0.000581349 -0.0005 
-0.000595539 -0.000918697 -0.0005 -0.000749174 -0.000957462 -0.0005 -0.000749174 -0.000542538 -0.0005 
-0.000436828 -0.000541202 -0.0005 -0.000633495 -0.000748246 -0.0005 -0.000234978 -0.000756491 -0.0005 
-0.000436828 -0.000958798 -0.0005 -0.0007972 -0.000964286 -0.0005 -0.0007972 -0.000535714 -0.0005 
-0.000131951 -0.000583807 -0.0005 -0.000120576 -0.000920987 -0.0005 -0.000440309 -0.00110148 -0.0005 
-0.000440309 -0.00039852 -0.0005 -0.000540519 -0.000463808 -0.0005 -0.000540519 -0.00103619 -0.0005 
-0.000737497 -0.000826703 -0.0005 -0.000743731 -0.00067341 -0.0005 -0.000326361 -0.000455157 -0.0005 
-0.000326361 -0.00104484 -0.0005 -0.000347939 -0.000834179 -0.0005 -0.000344799 -0.000652107 -0.0005 
-0.000525969 -0.000668056 -0.0005 -0.000528784 -0.000835049 -0.0005 -0.00080748 -0.000997295 -0.0005 
-0.00080748 -0.000502705 -0.0005 -0.00065996 -0.000996565 -0.0005 -0.00065996 -0.000503435 -0.0005 
-0.000114839 -0.00080244 -0.0005 -0.00012727 -0.000689074 -0.0005 -0.000684653 -0.000892326 -0.0005 
-0.000684653 -0.000607674 -0.0005 -0.000402255 -0.00033906 -0.0005 -0.000402255 -0.00116094 -0.0005 
-0.00020379 -0.000996251 -0.0005 -0.000209694 -0.000514898 -0.0005 -0.000410601 -0.000616776 -0.0005 
-0.000414328 -0.000881409 -0.0005 -0.000564489 -0.00077222 -0.0005 -0.00030297 -0.0007663 -0.0005 
-0.000806831 -0.000899154 -0.0005 -0.000806831 -0.000600846 -0.0005 -0.000198082 -0.000840386 -0.0005 
-0.000104201 -0.000515756 -0.0005 -0.000102305 -0.000985043 -0.0005 -0.000210482 -0.000662469 -0.0005 
-0.000512323 -0.000571317 -0.0005 -0.000512323 -0.000928683 -0.0005 -0.000607487 -0.000671376 -0.0005 
-0.000342389 -0.000918878 -0.0005 -0.000339591 -0.000579218 -0.0005 -0.000598177 -0.000824513 -0.0005 
-0.000525093 -0.00110877 -0.0005 -0.000525093 -0.000391231 -0.0005 -0.000467764 -0.00117211 -0.0005 
-0.000467764 -0.000327887 -0.0005 -0.00082824 -0.000937946 -0.0005 -0.00082824 -0.000562054 -0.0005 
-0.000792673 -0.000751208 -0.0005 -4.40406e-05 -0.000938051 -0.0005 -4.29968e-05 -0.000563636 -0.0005 
-0.000368656 -0.000394329 -0.0005 -0.000368656 -0.00110567 -0.0005 -0.000404944 -0.000466574 -0.0005 
-0.000404944 -0.00103343 -0.0005 -0.000274968 -0.000693542 -0.0005 -0.000473579 -0.000463157 -0.0005 
-0.000473579 -0.00103684 -0.0005 -0.000273108 -0.000829102 -0.0005 -0.000617905 -0.00105951 -0.0005 
-0.000617905 -0.00044049 -0.0005 -7.4389e-05 -0.000644248 -0.0005 -6.99258e-05 -0.00086688 -0.0005 
-0.000758009 -0.00100133 -0.0005 -0.000758009 -0.000498667 -0.0005 -0.000674521 -0.00082321 -0.0005 
-0.000747394 -0.000897802 -0.0005 -0.000747848 -0.000602206 -0.0005 -0.000837578 -0.00099054 -0.0005 
-0.000836308 -0.000968831 -0.0005 -0.000837578 -0.00050946 -0.0005 -0.000836308 -0.000531169 -0.0005 
-0.00024589 -0.000439066 -0.0005 -0.000241075 -0.0010584 -0.0005 -0.000693065 -0.000950422 -0.0005 
-0.000693085 -0.000549579 -0.0005 -0.000404574 -0.00120076 -0.0005 -0.000404574 -0.000299236 -0.0005 
-0.000672818 -0.000679103 -0.0005 -0.000714008 -0.000755903 -0.0005 -7.82213e-05 -0.000731034 -0.0005 
-5.6329e-05 -0.000504603 -0.0005 -5.61586e-05 -0.000995894 -0.0005 -0.000275796 -0.000980896 -0.0005 
-0.000285676 -0.000513219 -0.0005 -0.000186165 -0.000585602 -0.0005 -0.000584291 -0.000982673 -0.0005 
-0.00058429 -0.000517332 -0.0005 -0.00045634 -0.000660721 -0.0005 -0.000464193 -0.000839596 -0.0005 
-0.00034177 -0.000716972 -0.0005 -0.000523385 -0.000727952 -0.0005 -0.000193444 -0.000925069 -0.0005 
-0.000807637 -0.00084025 -0.0005 -0.000810429 -0.000661252 -0.0005 -0.000386833 -0.000795991 -0.0005 
-0.000394413 -0.000668913 -0.0005 -0.000509958 -0.000787971 -0.0005 -0.000305514 -0.00111008 -0.0005 
-0.000306477 -0.00038941 -0.0005 -0.000362249 -0.00098716 -0.0005 -0.00035868 -0.000511074 -0.0005 
-0.000160645 -0.000746982 -0.0005 -0.000509508 -0.000511363 -0.0005 -0.000509508 -0.000988638 -0.0005 
-0.00028739 -0.000637604 -0.0005 -0.000785534 -0.00093326 -0.0005 -0.000785598 -0.000566741 -0.0005 
-0.000703615 -0.00103564 -0.0005 -0.000703615 -0.000464361 -0.0005 -0.000148903 -0.000636616 -0.0005 
-0.00015636 -0.000534148 -0.0005 -0.000153981 -0.000971334 -0.0005 -0.000139581 -0.000867053 -0.0005 
-0.000482839 -0.000702846 -0.0005 -0.000471292 -0.000605364 -0.0005 -0.000471292 -0.000894636 -0.0005 
-0.000570965 -0.00071757 -0.0005 -0.000554433 -0.000615103 -0.0005 -0.000553903 -0.000884892 -0.0005 
-0.000639788 -0.00094438 -0.0005 -0.000639768 -0.0005557 -0.0005 -0.000307401 -0.000872936 -0.0005 
-0.000712765 -0.000988284 -0.0005 -0.000712769 -0.000511716 -0.0005 -0.000628213 -0.000619733 -0.0005 
-0.000630855 -0.000879083 -0.0005 -0.000409259 -0.000828735 -0.0005 -0.000354002 -0.000772688 -0.0005 
-0.000155373 -0.000471972 -0.0005 -0.000153127 -0.00102904 -0.0005 -0.00043748 -0.00030453 -0.0005 
-0.00043748 -0.00119547 -0.0005 -0.000699167 -0.000159585 -0.0005 -0.00102828 0.000168837 -0.0005 
-0.000700039 0.000165961 -0.0005 -0.00102854 -0.000168697 -0.0005 -0.00118217 0.000207462 -0.0005 
-0.00118217 -0.000207462 -0.0005 -0.000867762 0.00020878 -0.0005 -0.00106649 5.10348e-06 -0.0005 
-0.000667978 -6.49099e-06 -0.0005 -0.000869828 -0.000208798 -0.0005 -0.0012302 0.000214286 -0.0005 
-0.0012302 -0.000214286 -0.0005 -0.000564951 0.000166193 -0.0005 -0.000553576 -0.000170987 -0.0005 
-0.000873309 -0.00035148 -0.0005 -0.000858691 0.00035148 -0.0005 -0.000756768 0.000285545 -0.0005 
-0.000973519 -0.000286192 -0.0005 -0.00117081 7.69979e-05 -0.0005 -0.00117457 -7.52569e-05 -0.0005 
-0.000759361 -0.000294843 -0.0005 -0.00097093 0.000296588 -0.0005 -0.000780939 -8.41794e-05 -0.0005 
-0.000958969 8.1944e-05 -0.0005 -0.000777799 9.78925e-05 -0.0005 -0.000961784 -8.5049e-05 -0.0005 
-0.00124048 0.000247295 -0.0005 -0.00124048 -0.000247295 -0.0005 -0.00109281 0.000247375 -0.0005 
-0.00109296 -0.000246565 -0.0005 -0.000547839 -5.24395e-05 -0.0005 -0.00056027 6.09258e-05 -0.0005 
-0.00111765 0.000142326 -0.0005 -0.00111765 -0.000142326 -0.0005 -0.000835255 -0.00041094 -0.0005 
-0.000896745 0.00041094 -0.0005 -0.00063679 -0.000246251 -0.0005 -0.000636522 0.000241816 -0.0005 
-0.000843256 0.000133221 -0.0005 -0.000847328 -0.000131409 -0.0005 -0.000997489 -2.16615e-05 -0.0005 
-0.00073597 -1.62999e-05 -0.0005 -0.00123983 0.000149154 -0.0005 -0.00123983 -0.000149154 -0.0005 
-0.000631082 -9.03863e-05 -0.0005 -0.000535305 -0.000235043 -0.0005 -0.000537201 0.000234244 -0.0005 
-0.000642398 9.28059e-05 -0.0005 -0.000948408 0.000181543 -0.0005 -0.000945323 -0.000178683 -0.0005 
-0.00104049 7.88274e-05 -0.0005 -0.000775389 -0.000168878 -0.0005 -0.000772841 0.000169495 -0.0005 
-0.00103118 -7.38619e-05 -0.0005 -0.000958093 -0.000358769 -0.0005 -0.000773907 0.000358769 -0.0005 
-0.000900764 -0.000422113 -0.0005 -0.000831236 0.000422113 -0.0005 -0.00126124 0.000187946 -0.0005 
-0.00126124 -0.000187946 -0.0005 -0.00122671 1.92365e-06 -0.0005 -0.000477041 -0.000188051 -0.0005 
-0.000475997 0.000186364 -0.0005 -0.000801656 -0.000355671 -0.0005 -0.000929777 0.000356891 -0.0005 
-0.000837944 -0.000283426 -0.0005 -0.000894056 0.000283426 -0.0005 -0.000707968 5.64575e-05 -0.0005 
-0.000825421 0.000286843 -0.0005 -0.000906579 -0.000286843 -0.0005 -0.000678551 0.000307262 -0.0005 
-0.000706108 -7.91024e-05 -0.0005 -0.0010509 -0.00030951 -0.0005 -0.000507389 0.000105752 -0.0005 
-0.000502926 -0.00011688 -0.0005 -0.00119101 0.000251333 -0.0005 -0.00119101 -0.000251333 -0.0005 
-0.00110684 -7.12684e-05 -0.0005 -0.00118042 0.000147824 -0.0005 -0.00118069 -0.000147697 -0.0005 
-0.00127058 0.00024054 -0.0005 -0.00126931 0.000218831 -0.0005 -0.00127058 -0.00024054 -0.0005 
-0.00126931 -0.000218831 -0.0005 -0.000674075 -0.0003084 -0.0005 -0.00112605 0.000200474 -0.0005 
-0.00112608 -0.000200417 -0.0005 -0.000837574 -0.000450764 -0.0005 -0.000894426 0.000450764 -0.0005 
-0.00105507 0.000311072 -0.0005 -0.001107 7.45278e-05 -0.0005 -0.00114494 4.78174e-06 -0.0005 
-0.000511221 1.89656e-05 -0.0005 -0.000703503 0.000232229 -0.0005 -0.000489329 0.000245397 -0.0005 
-0.000489159 -0.000245894 -0.0005 -0.000708796 -0.000230896 -0.0005 -0.000631208 0.000171119 -0.0005 
-0.00101729 -0.000232673 -0.0005 -0.000889299 8.92785e-05 -0.0005 -0.000897193 -8.95957e-05 -0.0005 
-0.00077477 3.30279e-05 -0.0005 -0.000956385 2.2115e-05 -0.0005 -0.00101833 0.000235849 -0.0005 
-0.000626444 -0.000175069 -0.0005 -0.00124075 9.03378e-05 -0.0005 -0.00124242 -8.91537e-05 -0.0005 
-0.000819833 -4.59906e-05 -0.0005 -0.000799772 0.000232832 -0.0005 -0.000827413 8.10868e-05 -0.0005 
-0.000942958 -3.79434e-05 -0.0005 -0.000738514 -0.000360083 -0.0005 -0.000795249 -0.00023716 -0.0005 
-0.000593465 3.89675e-06 -0.0005 -0.000942508 -0.000238638 -0.0005 -0.00072039 0.000112396 -0.0005 
-0.00121854 0.000183264 -0.0005 -0.00121858 -0.000183245 -0.0005 -0.00113595 0.000283517 -0.0005 
-0.00113662 -0.000285639 -0.0005 -0.000939898 0.000241237 -0.0005 -0.00058355 0.000113194 -0.0005 
-0.000994597 0.00035529 -0.0005 -0.000586981 -0.000221334 -0.0005 -0.000588267 0.00021912 -0.0005 
-0.000572581 -0.000117053 -0.0005 -0.00091583 4.71675e-05 -0.0005 -0.000904292 -0.000144636 -0.0005 
-0.000904292 0.000144636 -0.0005 -0.00100396 3.32657e-05 -0.0005 -0.00098918 0.000133204 -0.0005 
-0.000986047 -0.000136339 -0.0005 -0.00107279 -0.00019438 -0.0005 -0.000740401 -0.000122936 -0.0005 
-0.00107275 0.000194842 -0.0005 -0.0011456 0.000238032 -0.0005 -0.00114577 -0.000238283 -0.0005 
-0.00106153 0.000130609 -0.0005 -0.00106376 -0.000129013 -0.0005 -0.000842259 -7.8735e-05 -0.0005 
-0.000787002 -2.26884e-05 -0.0005 -0.000586448 0.000278672 -0.0005 -0.000586127 -0.000279044 -0.0005 
-0.00087048 -0.00044547 -0.0005 -0.00086152 0.00044547 -0.0005 -0.000266167 0.000590415 -0.0005 
-0.000267039 0.000915961 -0.0005 -0.000595277 0.000918837 -0.0005 -0.000595539 0.000581303 -0.0005 
-0.000749174 0.000542538 -0.0005 -0.000749174 0.000957462 -0.0005 -0.000434763 0.00095878 -0.0005 
-0.000633495 0.000751754 -0.0005 -0.000234978 0.000743509 -0.0005 -0.000436828 0.000541202 -0.0005 
-0.0007972 0.000535714 -0.0005 -0.0007972 0.000964286 -0.0005 -0.000131951 0.000916193 -0.0005 
-0.000120576 0.000579013 -0.0005 -0.000440309 0.00039852 -0.0005 -0.000425691 0.00110148 -0.0005 
-0.000323768 0.00103554 -0.0005 -0.000540519 0.000463808 -0.0005 -0.000737497 0.000673297 -0.0005 
-0.000743731 0.00082659 -0.0005 -0.000326361 0.000455157 -0.0005 -0.00053793 0.00104659 -0.0005 
-0.000347939 0.000665821 -0.0005 -0.000344799 0.000847893 -0.0005 -0.000525969 0.000831944 -0.0005 
-0.000528784 0.000664951 -0.0005 -0.00080748 0.000502705 -0.0005 -0.00080748 0.000997295 -0.0005 
-0.00065996 0.000503435 -0.0005 -0.000659807 0.000997375 -0.0005 -0.000114839 0.00069756 -0.0005 
-0.00012727 0.000810926 -0.0005 -0.000684653 0.000607674 -0.0005 -0.000684653 0.000892326 -0.0005 
-0.000402255 0.00033906 -0.0005 -0.000463745 0.00116094 -0.0005 -0.00020379 0.000503749 -0.0005 
-0.000203522 0.000991815 -0.0005 -0.000410256 0.000883221 -0.0005 -0.000414328 0.000618591 -0.0005 
-0.000564489 0.00072778 -0.0005 -0.00030297 0.0007337 -0.0005 -0.000806831 0.000600846 -0.0005 
-0.000806831 0.000899154 -0.0005 -0.000198082 0.000659614 -0.0005 -0.000104201 0.000984244 -0.0005 
-0.000102305 0.000514957 -0.0005 -0.000209398 0.000842806 -0.0005 -0.000515408 0.000931543 -0.0005 
-0.000512323 0.000571317 -0.0005 -0.000607487 0.000828624 -0.0005 -0.000342389 0.000581122 -0.0005 
-0.000339841 0.000919495 -0.0005 -0.000598177 0.000675487 -0.0005 -0.000525093 0.000391231 -0.0005 
-0.000340907 0.00110877 -0.0005 -0.000398236 0.00117211 -0.0005 -0.000467764 0.000327887 -0.0005 
-0.00082824 0.000562054 -0.0005 -0.00082824 0.000937946 -0.0005 -0.000792673 0.000748792 -0.0005 
-4.40406e-05 0.000561949 -0.0005 -4.29968e-05 0.000936364 -0.0005 -0.000368656 0.000394329 -0.0005 
-0.000496777 0.00110689 -0.0005 -0.000404944 0.000466574 -0.0005 -0.000461056 0.00103343 -0.0005 
-0.000274968 0.000806458 -0.0005 -0.000392421 0.00103684 -0.0005 -0.000473579 0.000463157 -0.0005 
-0.000245551 0.00105726 -0.0005 -0.000273108 0.000670898 -0.0005 -0.000617905 0.00044049 -0.0005 
-7.4389e-05 0.000855752 -0.0005 -6.99258e-05 0.00063312 -0.0005 -0.000758009 0.000498667 -0.0005 
-0.000758009 0.00100133 -0.0005 -0.000674521 0.00067679 -0.0005 -0.000747394 0.000602198 -0.0005 
-0.000747848 0.000897794 -0.0005 -0.000837578 0.00050946 -0.0005 -0.000836308 0.000531169 -0.0005 
-0.000837578 0.00099054 -0.0005 -0.000836308 0.000968831 -0.0005 -0.000241075 0.0004416 -0.0005 
-0.000693065 0.000549578 -0.0005 -0.000693072 0.000950473 -0.0005 -0.000404574 0.000299236 -0.0005 
-0.000461426 0.00120076 -0.0005 -0.000622066 0.00106107 -0.0005 -0.000672818 0.000820897 -0.0005 
-0.000714008 0.000744097 -0.0005 -7.82213e-05 0.000768966 -0.0005 -0.000270503 0.000982229 -0.0005 
-5.6329e-05 0.000995397 -0.0005 -5.61586e-05 0.000504106 -0.0005 -0.000275796 0.000519104 -0.0005 
-0.000198208 0.000921119 -0.0005 -0.000584291 0.000517327 -0.0005 -0.000456299 0.000839279 -0.0005 
-0.000464193 0.000660404 -0.0005 -0.00034177 0.000783028 -0.0005 -0.000523385 0.000772048 -0.0005 
-0.000585334 0.000985849 -0.0005 -0.000193444 0.000574931 -0.0005 -0.000807637 0.00065975 -0.0005 
-0.000810429 0.000838748 -0.0005 -0.000386833 0.000704009 -0.0005 -0.000366772 0.000982832 -0.0005 
-0.000394413 0.000831087 -0.0005 -0.000509958 0.000712029 -0.0005 -0.000305514 0.000389917 -0.0005 
-0.000362249 0.00051284 -0.0005 -0.000160465 0.000753897 -0.0005 -0.000509508 0.000511362 -0.0005 
-0.00028739 0.000862396 -0.0005 -0.000785534 0.00056674 -0.0005 -0.000785598 0.000933259 -0.0005 
-0.000703615 0.000464361 -0.0005 -0.000702954 0.00103352 -0.0005 -0.000506898 0.000991237 -0.0005 
-0.00015055 0.000863194 -0.0005 -0.000561597 0.00110529 -0.0005 -0.000153981 0.000528666 -0.0005 
-0.000155267 0.00096912 -0.0005 -0.000139581 0.000632947 -0.0005 -0.00048283 0.000797154 -0.0005 
-0.000471292 0.000894636 -0.0005 -0.000471292 0.000605364 -0.0005 -0.000570965 0.00078243 -0.0005 
-0.00055618 0.00088318 -0.0005 -0.000553903 0.000615108 -0.0005 -0.000639788 0.00055562 -0.0005 
-0.000307401 0.000627064 -0.0005 -0.00063975 0.000944842 -0.0005 -0.000712765 0.000511716 -0.0005 
-0.000712603 0.000988032 -0.0005 -0.000628389 0.00088015 -0.0005 -0.000630855 0.000620917 -0.0005 
-0.000409259 0.000671265 -0.0005 -0.000354002 0.000727312 -0.0005 -0.000153448 0.00102867 -0.0005 
-0.000153127 0.000470956 -0.0005 -0.00042852 0.00119547 -0.0005 -0.00043748 0.00030453 -0.0005 

CELLS 2380 16660
6 649 608 664 1664 1623 1679 
6 570 610 625 1585 1625 1640 
6 571 611 624 1586 1626 1639 
6 603 587 669 1618 1602 1684 
6 564 603 669 1579 1618 1684 
6 610 570 613 1625 1585 1628 
6 611 571 612 1626 1586 1627 
6 600 564 669 1615 1579 1684 
6 586 187 630 1601 384 1645 
6 579 594 608 1594 1609 1623 
6 595 578 607 1610 1593 1622 
6 596 581 609 1611 1596 1624 
6 183 590 619 380 1605 1634 
6 166 591 620 363 1606 1635 
6 572 649 664 1587 1664 1679 
6 572 611 626 1587 1626 1641 
6 590 570 619 1605 1585 1634 
6 591 571 620 1606 1586 1635 
6 633 575 647 1648 1590 1662 
6 594 562 608 1609 1577 1623 
6 565 595 607 1580 1610 1622 
6 563 596 609 1578 1611 1624 
6 557 608 649 1572 1623 1664 
6 564 600 627 1579 1615 1642 
6 557 649 653 1572 1664 1668 
6 654 605 670 1669 1620 1685 
6 586 600 669 1601 1615 1684 
6 594 579 665 1609 1594 1680 
6 587 629 648 1602 1644 1663 
6 581 596 666 1596 1611 1681 
6 570 590 613 1585 1605 1628 
6 571 591 612 1586 1606 1627 
6 189 618 650 386 1633 1665 
6 617 184 651 1632 381 1666 
6 597 564 627 1612 1579 1642 
6 649 593 653 1664 1608 1668 
6 568 601 618 1583 1616 1633 
6 602 569 617 1617 1584 1632 
6 629 186 648 1644 383 1663 
6 559 605 654 1574 1620 1669 
6 600 556 627 1615 1571 1642 
6 187 586 648 384 1601 1663 
6 607 556 652 1622 1571 1667 
6 607 652 668 1622 1667 1683 
6 573 610 628 1588 1625 1643 
6 627 556 689 1642 1571 1704 
6 14 194 665 95 391 1680 
6 195 196 666 392 393 1681 
6 183 619 667 380 1634 1682 
6 196 656 666 393 1671 1681 
6 658 14 665 1673 95 1680 
6 561 566 631 1576 1581 1646 
6 567 560 632 1582 1575 1647 
6 575 616 647 1590 1631 1662 
6 566 561 672 1581 1576 1687 
6 560 567 673 1575 1582 1688 
6 573 654 670 1588 1669 1685 
6 12 185 618 93 382 1633 
6 188 11 617 385 92 1632 
6 635 561 641 1650 1576 1656 
6 560 634 642 1575 1649 1657 
6 578 597 627 1593 1612 1642 
6 8 175 613 89 372 1628 
6 1 190 612 82 387 1627 
6 604 558 659 1619 1573 1674 
6 578 595 695 1593 1610 1710 
6 597 578 696 1612 1593 1711 
6 610 573 625 1625 1588 1640 
6 611 572 624 1626 1587 1639 
6 168 3 636 365 84 1651 
6 6 173 638 87 370 1653 
6 611 191 626 1626 388 1641 
6 575 588 634 1590 1603 1649 
6 589 574 635 1604 1589 1650 
6 593 626 697 1608 1641 1712 
6 166 620 678 363 1635 1693 
6 564 597 623 1579 1612 1638 
6 603 564 623 1618 1579 1638 
6 568 618 629 1583 1633 1644 
6 11 184 617 92 381 1632 
6 189 12 618 386 93 1633 
6 579 608 671 1594 1623 1686 
6 556 600 660 1571 1615 1675 
6 588 575 633 1603 1590 1648 
6 8 613 700 89 1628 1715 
6 1 612 699 82 1627 1714 
6 617 569 630 1632 1584 1645 
6 619 570 621 1634 1585 1636 
6 620 571 622 1635 1586 1637 
6 574 616 661 1589 1631 1676 
6 616 575 662 1631 1590 1677 
6 580 606 686 1595 1621 1701 
6 563 633 647 1578 1648 1662 
6 598 635 661 1613 1650 1676 
6 634 599 662 1649 1614 1677 
6 574 589 646 1589 1604 1661 
6 604 659 676 1619 1674 1691 
6 635 574 661 1650 1589 1676 
6 575 634 662 1590 1649 1677 
6 600 586 681 1615 1601 1696 
6 585 628 674 1600 1643 1689 
6 557 603 671 1572 1618 1686 
6 626 192 697 1641 389 1712 
6 610 176 628 1625 373 1643 
6 563 609 633 1578 1624 1648 
6 569 660 681 1584 1675 1696 
6 587 603 677 1602 1618 1692 
6 608 557 671 1623 1572 1686 
6 603 557 653 1618 1572 1668 
6 622 571 624 1637 1586 1639 
6 621 570 625 1636 1585 1640 
6 606 580 685 1621 1595 1700 
6 640 592 698 1655 1607 1713 
6 558 604 686 1573 1619 1701 
6 605 559 687 1620 1574 1702 
6 660 600 681 1675 1615 1696 
6 187 188 630 384 385 1645 
6 185 186 629 382 383 1644 
6 608 562 664 1623 1577 1679 
6 652 556 660 1667 1571 1675 
6 562 594 683 1577 1609 1698 
6 595 565 684 1610 1580 1699 
6 596 563 685 1611 1578 1700 
6 609 581 687 1624 1596 1702 
6 686 606 693 1701 1621 1708 
6 162 1 699 359 82 1714 
6 179 8 700 376 89 1715 
6 606 563 646 1621 1578 1661 
6 573 628 654 1588 1643 1669 
6 616 574 647 1631 1589 1662 
6 565 607 668 1580 1622 1683 
6 175 176 610 372 373 1625 
6 190 191 611 387 388 1626 
6 645 584 675 1660 1599 1690 
6 628 177 674 1643 374 1689 
6 572 626 649 1587 1641 1664 
6 170 171 616 367 368 1631 
6 609 687 694 1624 1702 1709 
6 181 640 698 378 1655 1713 
6 687 559 694 1702 1574 1709 
6 607 578 689 1622 1593 1704 
6 592 652 660 1607 1667 1675 
6 604 562 683 1619 1577 1698 
6 565 605 684 1580 1620 1699 
6 563 606 685 1578 1621 1700 
6 558 686 693 1573 1701 1708 
6 565 621 625 1580 1636 1640 
6 562 622 624 1577 1637 1639 
6 683 580 686 1698 1595 1701 
6 581 684 687 1596 1699 1702 
6 616 171 661 1631 368 1676 
6 170 616 662 367 1631 1677 
6 628 585 654 1643 1600 1669 
6 182 183 667 379 380 1682 
6 653 593 679 1668 1608 1694 
6 579 623 658 1594 1638 1673 
6 605 565 670 1620 1580 1685 
6 634 560 673 1649 1575 1688 
6 561 635 672 1576 1650 1687 
6 589 635 641 1604 1650 1656 
6 634 588 642 1649 1603 1657 
6 194 655 665 391 1670 1680 
6 657 195 666 1672 392 1681 
6 562 604 676 1577 1619 1691 
6 566 614 637 1581 1629 1652 
6 615 567 639 1630 1582 1654 
6 688 588 694 1703 1603 1709 
6 623 597 658 1638 1612 1673 
6 646 563 647 1661 1578 1662 
6 576 619 621 1591 1634 1636 
6 577 620 622 1592 1635 1637 
6 556 607 689 1571 1622 1704 
6 164 645 675 361 1660 1690 
6 589 690 693 1604 1705 1708 
6 191 192 626 388 389 1641 
6 175 610 613 372 1625 1628 
6 190 611 612 387 1626 1627 
6 584 645 659 1599 1660 1674 
6 626 593 649 1641 1608 1664 
6 603 623 671 1618 1638 1686 
6 176 177 628 373 374 1643 
6 652 576 668 1667 1591 1683 
6 562 624 664 1577 1639 1679 
6 642 588 688 1657 1603 1703 
6 565 625 670 1580 1640 1685 
6 165 166 678 362 363 1693 
6 663 578 695 1678 1593 1710 
6 578 663 696 1593 1678 1711 
6 589 641 690 1604 1656 1705 
6 574 646 647 1589 1661 1662 
6 638 173 639 1653 370 1654 
6 168 636 637 365 1651 1652 
6 645 577 659 1660 1592 1674 
6 618 601 650 1633 1616 1665 
6 602 617 651 1617 1632 1666 
6 587 648 669 1602 1663 1684 
6 181 182 640 378 379 1655 
6 656 581 666 1671 1596 1681 
6 579 658 665 1594 1673 1680 
6 655 580 683 1670 1595 1698 
6 581 656 684 1596 1671 1699 
6 580 657 685 1595 1672 1700 
6 164 165 645 361 362 1660 
6 655 594 665 1670 1609 1680 
6 596 657 666 1611 1672 1681 
6 590 183 644 1605 380 1659 
6 591 166 643 1606 363 1658 
6 568 629 677 1583 1644 1692 
6 186 187 648 383 384 1663 
6 604 683 686 1619 1698 1701 
6 684 605 687 1699 1620 1702 
6 648 586 669 1663 1601 1684 
6 659 577 676 1674 1592 1691 
6 614 566 672 1629 1581 1687 
6 567 615 673 1582 1630 1688 
6 568 653 679 1583 1668 1694 
6 592 640 652 1607 1655 1667 
6 629 587 677 1644 1602 1692 
6 623 579 671 1638 1594 1686 
6 640 576 652 1655 1591 1667 
6 196 14 663 393 95 1678 
6 621 565 668 1636 1580 1683 
6 622 562 676 1637 1577 1691 
6 612 591 699 1627 1606 1714 
6 613 590 700 1628 1605 1715 
6 171 172 661 368 369 1676 
6 169 170 662 366 367 1677 
6 569 602 680 1584 1617 1695 
6 601 568 679 1616 1583 1694 
6 180 602 651 377 1617 1666 
6 601 193 650 1616 390 1665 
6 583 638 639 1598 1653 1654 
6 636 582 637 1651 1597 1652 
6 163 164 675 360 361 1690 
6 177 178 674 374 375 1689 
6 588 633 694 1603 1648 1709 
6 576 621 668 1591 1636 1683 
6 577 622 676 1592 1637 1691 
6 578 627 689 1593 1642 1704 
6 646 589 693 1661 1604 1708 
6 624 572 664 1639 1587 1679 
6 559 688 694 1574 1703 1709 
6 180 181 698 377 378 1713 
6 192 193 697 389 390 1712 
6 690 558 693 1705 1573 1708 
6 630 569 681 1645 1584 1696 
6 9 179 644 90 376 1659 
6 0 162 643 81 359 1658 
6 620 577 678 1635 1592 1693 
6 653 568 677 1668 1583 1692 
6 618 185 629 1633 382 1644 
6 580 655 682 1595 1670 1697 
6 657 580 682 1672 1595 1697 
6 172 598 661 369 1613 1676 
6 599 169 662 1614 366 1677 
6 188 617 630 385 1632 1645 
6 625 573 670 1640 1588 1685 
6 633 609 694 1648 1624 1709 
6 641 561 691 1656 1576 1706 
6 560 642 692 1575 1657 1707 
6 184 10 651 381 91 1666 
6 13 189 650 94 386 1665 
6 577 645 678 1592 1660 1693 
6 603 653 677 1618 1668 1692 
6 599 634 673 1614 1649 1688 
6 635 598 672 1650 1613 1687 
6 619 576 667 1634 1591 1682 
6 640 182 667 1655 379 1682 
6 194 195 682 391 392 1697 
6 193 601 697 390 1616 1712 
6 602 180 698 1617 377 1713 
6 576 640 667 1591 1655 1682 
6 606 646 693 1621 1661 1708 
6 660 569 680 1675 1584 1695 
6 601 679 697 1616 1694 1712 
6 680 602 698 1695 1617 1713 
6 586 630 681 1601 1645 1696 
6 169 599 615 366 1614 1630 
6 598 172 614 1613 369 1629 
6 644 179 700 1659 376 1715 
6 643 162 699 1658 359 1714 
6 656 196 695 1671 393 1710 
6 14 658 696 95 1673 1711 
6 675 584 691 1690 1599 1706 
6 585 674 692 1600 1689 1707 
6 645 165 678 1660 362 1693 
6 655 194 682 1670 391 1697 
6 195 657 682 392 1672 1697 
6 4 168 637 85 365 1652 
6 173 5 639 370 86 1654 
6 592 660 680 1607 1675 1695 
6 659 558 690 1674 1573 1705 
6 584 641 691 1599 1656 1706 
6 642 585 692 1657 1600 1707 
6 584 659 690 1599 1674 1705 
6 559 654 688 1574 1669 1703 
6 594 655 683 1609 1670 1698 
6 656 595 684 1671 1610 1699 
6 657 596 685 1672 1611 1700 
6 654 585 688 1669 1600 1703 
6 595 656 695 1610 1671 1710 
6 658 597 696 1673 1612 1711 
6 631 675 691 1646 1690 1706 
6 674 632 692 1689 1647 1707 
6 561 631 691 1576 1646 1706 
6 632 560 692 1647 1575 1707 
6 196 663 695 393 1678 1710 
6 663 14 696 1678 95 1711 
6 585 642 688 1600 1657 1703 
6 641 584 690 1656 1599 1705 
6 590 644 700 1605 1659 1715 
6 591 643 699 1606 1658 1714 
6 631 163 675 1646 360 1690 
6 178 632 674 375 1647 1689 
6 598 614 672 1613 1629 1687 
6 615 599 673 1630 1614 1688 
6 679 593 697 1694 1608 1712 
6 592 680 698 1607 1695 1713 
6 166 0 643 363 81 1658 
6 172 4 614 369 85 1629 
6 614 4 637 1629 85 1652 
6 5 169 615 86 366 1630 
6 5 615 639 86 1630 1654 
6 183 9 644 380 90 1659 
6 10 180 651 91 377 1666 
6 193 13 650 390 94 1665 
6 2 163 167 83 360 364 
6 3 167 636 84 364 1651 
6 174 6 638 371 87 1653 
6 174 178 7 371 375 88 
6 167 163 582 364 360 1597 
6 582 163 631 1597 360 1646 
6 167 582 636 364 1597 1651 
6 178 174 583 375 371 1598 
6 583 174 638 1598 371 1653 
6 178 583 632 375 1598 1647 
6 566 582 631 1581 1597 1646 
6 582 566 637 1597 1581 1652 
6 583 567 632 1598 1582 1647 
6 567 583 639 1582 1598 1654 
6 715 755 770 1730 1770 1785 
6 756 716 769 1771 1731 1784 
6 732 748 815 1747 1763 1830 
6 748 709 815 1763 1724 1830 
6 755 715 758 1770 1730 1773 
6 716 756 757 1731 1771 1772 
6 709 745 815 1724 1760 1830 
6 216 731 774 413 1746 1789 
6 724 739 752 1739 1754 1767 
6 726 740 753 1741 1755 1768 
6 741 726 754 1756 1741 1769 
6 736 210 764 1751 407 1779 
6 220 735 765 417 1750 1780 
6 738 701 798 1753 1716 1813 
6 716 736 764 1731 1751 1779 
6 735 715 765 1750 1730 1780 
6 777 720 792 1792 1735 1807 
6 739 707 752 1754 1722 1767 
6 740 710 753 1755 1725 1768 
6 708 741 754 1723 1756 1769 
6 799 753 809 1814 1768 1824 
6 749 800 816 1764 1815 1831 
6 745 731 815 1760 1746 1830 
6 739 724 810 1754 1739 1825 
6 773 732 793 1788 1747 1808 
6 715 735 758 1730 1750 1773 
6 736 716 757 1751 1731 1772 
6 214 762 794 411 1777 1809 
6 763 219 795 1778 416 1810 
6 701 738 797 1716 1753 1812 
6 750 701 797 1765 1716 1812 
6 742 709 784 1757 1724 1799 
6 713 746 762 1728 1761 1777 
6 747 714 763 1762 1729 1778 
6 217 773 793 414 1788 1808 
6 749 703 800 1764 1718 1815 
6 731 216 793 1746 413 1808 
6 748 701 784 1763 1716 1799 
6 702 752 796 1717 1767 1811 
6 745 709 766 1760 1724 1781 
6 709 748 784 1724 1763 1799 
6 796 752 814 1811 1767 1829 
6 756 717 772 1771 1732 1787 
6 718 755 771 1733 1770 1786 
6 750 797 822 1765 1812 1837 
6 704 753 799 1719 1768 1814 
6 27 225 810 108 422 1825 
6 227 27 811 424 108 1826 
6 764 210 813 1779 407 1828 
6 220 765 812 417 1780 1827 
6 718 799 809 1733 1814 1824 
6 802 227 811 1817 424 1826 
6 803 27 810 1818 108 1825 
6 705 711 775 1720 1726 1790 
6 712 706 776 1727 1721 1791 
6 720 761 792 1735 1776 1807 
6 711 705 817 1726 1720 1832 
6 706 712 818 1721 1727 1833 
6 800 717 816 1815 1732 1831 
6 23 215 762 104 412 1777 
6 218 24 763 415 105 1778 
6 779 705 787 1794 1720 1802 
6 706 778 788 1721 1793 1803 
6 208 20 757 405 101 1772 
6 13 193 758 94 390 1773 
6 740 726 840 1755 1741 1855 
6 726 741 841 1741 1756 1856 
6 755 718 770 1770 1733 1785 
6 717 756 769 1732 1771 1784 
6 203 18 780 400 99 1795 
6 15 198 782 96 395 1797 
6 702 745 821 1717 1760 1836 
6 720 733 778 1735 1748 1793 
6 734 719 779 1749 1734 1794 
6 763 714 773 1778 1729 1788 
6 709 742 766 1724 1757 1781 
6 24 219 763 105 416 1778 
6 214 23 762 411 104 1777 
6 745 702 805 1760 1717 1820 
6 733 720 777 1748 1735 1792 
6 724 752 821 1739 1767 1836 
6 757 20 845 1772 101 1860 
6 13 758 844 94 1773 1859 
6 713 762 774 1728 1777 1789 
6 765 715 767 1780 1730 1782 
6 716 764 768 1731 1779 1783 
6 719 761 806 1734 1776 1821 
6 761 720 807 1776 1735 1822 
6 725 751 831 1740 1766 1846 
6 708 777 792 1723 1792 1807 
6 778 744 807 1793 1759 1822 
6 743 779 806 1758 1794 1821 
6 719 734 791 1734 1749 1806 
6 779 719 806 1794 1734 1821 
6 720 778 807 1735 1793 1822 
6 731 745 826 1746 1760 1841 
6 784 701 832 1799 1716 1847 
6 730 771 819 1745 1786 1834 
6 772 729 820 1787 1744 1835 
6 207 756 772 404 1771 1787 
6 755 192 771 1770 389 1786 
6 708 754 777 1723 1769 1792 
6 784 723 811 1799 1738 1826 
6 805 713 826 1820 1728 1841 
6 748 732 823 1763 1747 1838 
6 742 784 811 1757 1799 1826 
6 701 748 798 1716 1763 1813 
6 716 768 769 1731 1783 1784 
6 767 715 770 1782 1730 1785 
6 752 702 821 1767 1717 1836 
6 751 725 830 1766 1740 1845 
6 737 785 842 1752 1800 1857 
6 786 738 843 1801 1753 1858 
6 703 749 831 1718 1764 1846 
6 701 750 832 1716 1765 1847 
6 745 805 826 1760 1820 1841 
6 215 216 774 412 413 1789 
6 217 218 773 414 415 1788 
6 753 710 809 1768 1725 1824 
6 702 796 805 1717 1811 1820 
6 707 739 829 1722 1754 1844 
6 710 740 828 1725 1755 1843 
6 741 708 830 1756 1723 1845 
6 831 751 838 1846 1766 1853 
6 224 13 844 421 94 1859 
6 20 209 845 101 406 1860 
6 745 766 821 1760 1781 1836 
6 751 708 791 1766 1723 1806 
6 724 766 803 1739 1781 1818 
6 772 717 800 1787 1732 1815 
6 718 771 799 1733 1786 1814 
6 761 719 792 1776 1734 1807 
6 752 707 814 1767 1722 1829 
6 207 208 756 404 405 1771 
6 193 192 755 390 389 1770 
6 726 753 835 1741 1768 1850 
6 754 726 835 1769 1741 1850 
6 766 742 803 1781 1757 1818 
6 771 191 819 1786 388 1834 
6 206 772 820 403 1787 1835 
6 200 201 761 397 398 1776 
6 785 212 842 1800 409 1857 
6 222 786 843 419 1801 1858 
6 796 737 805 1811 1752 1820 
6 749 707 829 1764 1722 1844 
6 750 710 828 1765 1725 1843 
6 708 751 830 1723 1766 1845 
6 703 831 838 1718 1846 1853 
6 710 767 770 1725 1782 1785 
6 768 707 769 1783 1722 1784 
6 828 723 832 1843 1738 1847 
6 829 725 831 1844 1740 1846 
6 200 761 807 397 1776 1822 
6 761 201 806 1776 398 1821 
6 729 772 800 1744 1787 1815 
6 771 730 799 1786 1745 1814 
6 210 211 813 407 408 1828 
6 221 220 812 418 417 1827 
6 738 798 825 1753 1813 1840 
6 707 749 816 1722 1764 1831 
6 778 706 818 1793 1721 1833 
6 705 779 817 1720 1794 1832 
6 734 834 838 1749 1849 1853 
6 734 779 787 1749 1794 1802 
6 778 733 788 1793 1748 1803 
6 225 801 810 422 1816 1825 
6 753 704 835 1768 1719 1850 
6 27 803 811 108 1818 1826 
6 710 750 822 1725 1765 1837 
6 711 759 781 1726 1774 1796 
6 760 712 783 1775 1727 1798 
6 833 733 839 1848 1748 1854 
6 791 708 792 1806 1723 1807 
6 754 835 839 1769 1850 1854 
6 764 721 768 1779 1736 1783 
6 722 765 767 1737 1780 1782 
6 193 755 758 390 1770 1773 
6 756 208 757 1771 405 1772 
6 192 191 771 389 388 1786 
6 206 207 772 403 404 1787 
6 721 796 814 1736 1811 1829 
6 710 770 809 1725 1785 1824 
6 734 787 834 1749 1802 1849 
6 788 733 833 1803 1748 1848 
6 835 704 839 1850 1719 1854 
6 797 722 822 1812 1737 1837 
6 769 707 816 1784 1722 1831 
6 726 808 840 1741 1823 1855 
6 808 726 841 1823 1741 1856 
6 723 784 832 1738 1799 1847 
6 719 791 792 1734 1806 1807 
6 203 780 781 400 1795 1796 
6 782 198 783 1797 395 1798 
6 762 746 794 1777 1761 1809 
6 747 763 795 1762 1778 1810 
6 793 732 815 1808 1747 1830 
6 222 221 786 419 418 1801 
6 211 212 785 408 409 1800 
6 723 802 811 1738 1817 1826 
6 724 803 810 1739 1818 1825 
6 801 725 829 1816 1740 1844 
6 802 723 828 1817 1738 1843 
6 725 804 830 1740 1819 1845 
6 766 724 821 1781 1739 1836 
6 801 739 810 1816 1754 1825 
6 803 742 811 1818 1757 1826 
6 210 736 789 407 1751 1804 
6 735 220 790 1750 417 1805 
6 773 714 823 1788 1729 1838 
6 216 217 793 413 414 1808 
6 750 828 832 1765 1843 1847 
6 749 829 831 1764 1844 1846 
6 731 793 815 1746 1808 1830 
6 759 711 817 1774 1726 1832 
6 712 760 818 1727 1775 1833 
6 798 714 825 1813 1729 1840 
6 785 737 796 1800 1752 1811 
6 738 786 797 1753 1801 1812 
6 732 773 823 1747 1788 1838 
6 721 785 796 1736 1800 1811 
6 786 722 797 1801 1737 1812 
6 226 227 808 423 424 1823 
6 707 768 814 1722 1783 1829 
6 767 710 822 1782 1725 1837 
6 736 757 845 1751 1772 1860 
6 758 735 844 1773 1750 1859 
6 201 202 806 398 399 1821 
6 199 200 807 396 397 1822 
6 746 713 824 1761 1728 1839 
6 714 747 825 1729 1762 1840 
6 746 213 794 1761 410 1809 
6 223 747 795 420 1762 1810 
6 728 782 783 1743 1797 1798 
6 780 727 781 1795 1742 1796 
6 191 190 819 388 387 1834 
6 205 206 820 402 403 1835 
6 733 777 839 1748 1792 1854 
6 768 721 814 1783 1736 1829 
6 834 703 838 1849 1718 1853 
6 722 767 822 1737 1782 1837 
6 791 734 838 1806 1749 1853 
6 770 718 809 1785 1733 1824 
6 704 833 839 1719 1848 1854 
6 212 213 842 409 410 1857 
6 223 222 843 420 419 1858 
6 713 774 826 1728 1789 1841 
6 209 21 789 406 102 1804 
6 26 224 790 107 421 1805 
6 714 798 823 1729 1813 1838 
6 218 763 773 415 1778 1788 
6 725 801 827 1740 1816 1842 
6 804 725 827 1819 1740 1842 
6 202 743 806 399 1758 1821 
6 744 199 807 1759 396 1822 
6 762 215 774 1777 412 1789 
6 717 769 816 1732 1784 1831 
6 777 754 839 1792 1769 1854 
6 787 705 836 1802 1720 1851 
6 706 788 837 1721 1803 1852 
6 22 214 794 103 411 1809 
6 219 25 795 416 106 1810 
6 798 748 823 1813 1763 1838 
6 744 778 818 1759 1793 1833 
6 779 743 817 1794 1758 1832 
6 765 722 812 1780 1737 1827 
6 721 764 813 1736 1779 1828 
6 211 785 813 408 1800 1828 
6 786 221 812 1801 418 1827 
6 225 226 827 422 423 1842 
6 213 746 842 410 1761 1857 
6 747 223 843 1762 420 1858 
6 785 721 813 1800 1736 1828 
6 722 786 812 1737 1801 1827 
6 751 791 838 1766 1806 1853 
6 713 805 824 1728 1820 1839 
6 746 824 842 1761 1839 1857 
6 825 747 843 1840 1762 1858 
6 774 731 826 1789 1746 1841 
6 743 202 759 1758 399 1774 
6 199 744 760 396 1759 1775 
6 790 224 844 1805 421 1859 
6 209 789 845 406 1804 1860 
6 227 802 840 424 1817 1855 
6 804 226 841 1819 423 1856 
6 730 819 837 1745 1834 1852 
6 820 729 836 1835 1744 1851 
6 801 225 827 1816 422 1842 
6 226 804 827 423 1819 1842 
6 17 203 781 98 400 1796 
6 198 16 783 395 97 1798 
6 805 737 824 1820 1752 1839 
6 788 730 837 1803 1745 1852 
6 729 787 836 1744 1802 1851 
6 704 799 833 1719 1814 1848 
6 800 703 834 1815 1718 1849 
6 739 801 829 1754 1816 1844 
6 740 802 828 1755 1817 1843 
6 804 741 830 1819 1756 1845 
6 799 730 833 1814 1745 1848 
6 729 800 834 1744 1815 1849 
6 802 740 840 1817 1755 1855 
6 741 804 841 1756 1819 1856 
6 775 820 836 1790 1835 1851 
6 819 776 837 1834 1791 1852 
6 705 775 836 1720 1790 1851 
6 776 706 837 1791 1721 1852 
6 808 227 840 1823 424 1855 
6 226 808 841 423 1823 1856 
6 730 788 833 1745 1803 1848 
6 787 729 834 1802 1744 1849 
6 789 736 845 1804 1751 1860 
6 735 790 844 1750 1805 1859 
6 775 205 820 1790 402 1835 
6 190 776 819 387 1791 1834 
6 743 759 817 1758 1774 1832 
6 760 744 818 1775 1759 1833 
6 824 737 842 1839 1752 1857 
6 738 825 843 1753 1840 1858 
6 16 199 760 97 396 1775 
6 16 760 783 97 1775 1798 
6 202 17 759 399 98 1774 
6 759 17 781 1774 98 1796 
6 21 210 789 102 407 1804 
6 213 22 794 410 103 1809 
6 25 223 795 106 420 1810 
6 220 26 790 417 107 1805 
6 1 197 190 82 394 387 
6 197 15 782 394 96 1797 
6 18 204 780 99 401 1795 
6 19 205 204 100 402 401 
6 190 197 728 387 394 1743 
6 190 728 776 387 1743 1791 
6 728 197 782 1743 394 1797 
6 204 205 727 401 402 1742 
6 204 727 780 401 1742 1795 
6 727 205 775 1742 402 1790 
6 711 727 775 1726 1742 1790 
6 727 711 781 1742 1726 1796 
6 728 712 776 1743 1727 1791 
6 712 728 783 1727 1743 1798 
6 939 898 954 1954 1913 1969 
6 860 900 915 1875 1915 1930 
6 861 901 914 1876 1916 1929 
6 893 877 959 1908 1892 1974 
6 854 893 959 1869 1908 1974 
6 900 860 903 1915 1875 1918 
6 901 861 902 1916 1876 1917 
6 890 854 959 1905 1869 1974 
6 876 238 920 1891 435 1935 
6 869 884 898 1884 1899 1913 
6 885 868 897 1900 1883 1912 
6 870 886 899 1885 1901 1914 
6 244 880 909 441 1895 1924 
6 223 881 910 420 1896 1925 
6 862 939 954 1877 1954 1969 
6 862 901 916 1877 1916 1931 
6 880 860 909 1895 1875 1924 
6 881 861 910 1896 1876 1925 
6 936 865 937 1951 1880 1952 
6 884 852 898 1899 1867 1913 
6 855 885 897 1870 1900 1912 
6 886 853 899 1901 1868 1914 
6 847 898 939 1862 1913 1954 
6 854 890 917 1869 1905 1932 
6 847 939 943 1862 1954 1958 
6 944 895 960 1959 1910 1975 
6 876 890 959 1891 1905 1974 
6 884 869 955 1899 1884 1970 
6 877 919 938 1892 1934 1953 
6 886 870 956 1901 1885 1971 
6 860 880 903 1875 1895 1918 
6 861 881 902 1876 1896 1917 
6 907 240 940 1922 437 1955 
6 235 908 941 432 1923 1956 
6 887 854 917 1902 1869 1932 
6 939 883 943 1954 1898 1958 
6 891 858 907 1906 1873 1922 
6 859 892 908 1874 1907 1923 
6 919 237 938 1934 434 1953 
6 849 895 944 1864 1910 1959 
6 890 846 917 1905 1861 1932 
6 238 876 938 435 1891 1953 
6 897 846 942 1912 1861 1957 
6 897 942 958 1912 1957 1973 
6 863 900 918 1878 1915 1933 
6 917 846 979 1932 1861 1994 
6 38 252 955 119 449 1970 
6 252 253 956 449 450 1971 
6 244 909 957 441 1924 1972 
6 945 252 956 1960 449 1971 
6 947 38 955 1962 119 1970 
6 850 856 921 1865 1871 1936 
6 857 851 922 1872 1866 1937 
6 865 906 937 1880 1921 1952 
6 856 850 962 1871 1865 1977 
6 851 857 963 1866 1872 1978 
6 863 944 960 1878 1959 1975 
6 239 32 907 436 113 1922 
6 31 236 908 112 433 1923 
6 925 850 931 1940 1865 1946 
6 851 924 932 1866 1939 1947 
6 868 887 917 1883 1902 1932 
6 29 231 902 110 428 1917 
6 35 249 903 116 446 1918 
6 894 848 949 1909 1863 1964 
6 868 885 985 1883 1900 2000 
6 887 868 986 1902 1883 2001 
6 900 863 915 1915 1878 1930 
6 901 862 914 1916 1877 1929 
6 228 28 926 425 109 1941 
6 37 251 928 118 448 1943 
6 901 232 916 1916 429 1931 
6 865 878 924 1880 1893 1939 
6 879 864 925 1894 1879 1940 
6 883 916 988 1898 1931 2003 
6 223 910 968 420 1925 1983 
6 854 887 913 1869 1902 1928 
6 853 936 937 1868 1951 1952 
6 893 854 913 1908 1869 1928 
6 859 908 919 1874 1923 1934 
6 235 31 908 432 112 1923 
6 32 240 907 113 437 1922 
6 869 898 961 1884 1913 1976 
6 846 890 950 1861 1905 1965 
6 864 879 923 1879 1894 1938 
6 29 902 989 110 1917 2004 
6 35 903 990 116 1918 2005 
6 907 858 920 1922 1873 1935 
6 909 860 911 1924 1875 1926 
6 910 861 912 1925 1876 1927 
6 864 906 951 1879 1921 1966 
6 906 865 952 1921 1880 1967 
6 896 871 977 1911 1886 1992 
6 888 925 951 1903 1940 1966 
6 924 889 952 1939 1904 1967 
6 878 865 936 1893 1880 1951 
6 894 949 966 1909 1964 1981 
6 925 864 951 1940 1879 1966 
6 865 924 952 1880 1939 1967 
6 890 876 971 1905 1891 1986 
6 875 918 965 1890 1933 1980 
6 847 893 961 1862 1908 1976 
6 916 233 988 1931 430 2003 
6 900 248 918 1915 445 1933 
6 899 853 923 1914 1868 1938 
6 858 950 971 1873 1965 1986 
6 877 893 967 1892 1908 1982 
6 898 847 961 1913 1862 1976 
6 893 847 943 1908 1862 1958 
6 912 861 914 1927 1876 1929 
6 911 860 915 1926 1875 1930 
6 871 896 975 1886 1911 1990 
6 930 882 987 1945 1897 2002 
6 848 894 976 1863 1909 1991 
6 895 849 977 1910 1864 1992 
6 950 890 971 1965 1905 1986 
6 238 239 920 435 436 1935 
6 236 237 919 433 434 1934 
6 898 852 954 1913 1867 1969 
6 942 846 950 1957 1861 1965 
6 852 884 973 1867 1899 1988 
6 885 855 974 1900 1870 1989 
6 853 886 975 1868 1901 1990 
6 870 899 976 1885 1914 1991 
6 896 977 983 1911 1992 1998 
6 245 35 990 442 116 2005 
6 230 29 989 427 110 2004 
6 853 896 936 1868 1911 1951 
6 863 918 944 1878 1933 1959 
6 906 864 937 1921 1879 1952 
6 855 897 958 1870 1912 1973 
6 231 232 901 428 429 1916 
6 249 248 900 446 445 1915 
6 935 874 964 1950 1889 1979 
6 918 247 965 1933 444 1980 
6 862 916 939 1877 1931 1954 
6 187 186 906 384 383 1921 
6 976 899 984 1991 1914 1999 
6 242 930 987 439 1945 2002 
6 848 976 984 1863 1991 1999 
6 897 868 979 1912 1883 1994 
6 882 942 950 1897 1957 1965 
6 894 852 973 1909 1867 1988 
6 855 895 974 1870 1910 1989 
6 896 853 975 1911 1868 1990 
6 977 849 983 1992 1864 1998 
6 855 911 915 1870 1926 1930 
6 852 912 914 1867 1927 1929 
6 973 870 976 1988 1885 1991 
6 871 974 977 1886 1989 1992 
6 906 186 951 1921 383 1966 
6 187 906 952 384 1921 1967 
6 918 875 944 1933 1890 1959 
6 243 244 957 440 441 1972 
6 943 883 970 1958 1898 1985 
6 869 913 947 1884 1928 1962 
6 895 855 960 1910 1870 1975 
6 924 851 963 1939 1866 1978 
6 850 925 962 1865 1940 1977 
6 978 878 983 1993 1893 1998 
6 879 925 931 1894 1940 1946 
6 924 878 932 1939 1893 1947 
6 252 945 955 449 1960 1970 
6 253 948 956 450 1963 1971 
6 852 894 966 1867 1909 1981 
6 856 904 927 1871 1919 1942 
6 905 857 929 1920 1872 1944 
6 913 887 947 1928 1902 1962 
6 866 909 911 1881 1924 1926 
6 867 910 912 1882 1925 1927 
6 846 897 979 1861 1912 1994 
6 221 935 964 418 1950 1979 
6 232 233 916 429 430 1931 
6 249 900 903 446 1915 1918 
6 231 901 902 428 1916 1917 
6 874 935 949 1889 1950 1964 
6 916 883 939 1931 1898 1954 
6 879 980 984 1894 1995 1999 
6 893 913 961 1908 1928 1976 
6 923 853 937 1938 1868 1952 
6 248 247 918 445 444 1933 
6 942 866 958 1957 1881 1973 
6 852 914 954 1867 1929 1969 
6 932 878 978 1947 1893 1993 
6 855 915 960 1870 1930 1975 
6 222 223 968 419 420 1983 
6 953 868 985 1968 1883 2000 
6 868 953 986 1883 1968 2001 
6 864 923 937 1879 1938 1952 
6 879 931 980 1894 1946 1995 
6 228 926 927 425 1941 1942 
6 928 251 929 1943 448 1944 
6 935 867 949 1950 1882 1964 
6 891 907 940 1906 1922 1955 
6 908 892 941 1923 1907 1956 
6 877 938 959 1892 1953 1974 
6 242 243 930 439 440 1945 
6 870 945 956 1885 1960 1971 
6 869 947 955 1884 1962 1970 
6 945 870 973 1960 1885 1988 
6 871 946 974 1886 1961 1989 
6 948 871 975 1963 1886 1990 
6 221 222 935 418 419 1950 
6 945 884 955 1960 1899 1970 
6 948 886 956 1963 1901 1971 
6 880 244 933 1895 441 1948 
6 881 223 934 1896 420 1949 
6 859 919 967 1874 1934 1982 
6 237 238 938 434 435 1953 
6 974 895 977 1989 1910 1992 
6 894 973 976 1909 1988 1991 
6 938 876 959 1953 1891 1974 
6 949 867 966 1964 1882 1981 
6 904 856 962 1919 1871 1977 
6 857 905 963 1872 1920 1978 
6 859 943 970 1874 1958 1985 
6 882 930 942 1897 1945 1957 
6 919 877 967 1934 1892 1982 
6 913 869 961 1928 1884 1976 
6 930 866 942 1945 1881 1957 
6 254 38 953 451 119 1968 
6 911 855 958 1926 1870 1973 
6 912 852 966 1927 1867 1981 
6 902 881 989 1917 1896 2004 
6 903 880 990 1918 1895 2005 
6 186 185 951 383 382 1966 
6 188 187 952 385 384 1967 
6 858 891 969 1873 1906 1984 
6 892 859 970 1907 1874 1985 
6 241 891 940 438 1906 1955 
6 892 234 941 1907 431 1956 
6 926 872 927 1941 1887 1942 
6 873 928 929 1888 1943 1944 
6 220 221 964 417 418 1979 
6 247 246 965 444 443 1980 
6 923 879 984 1938 1894 1999 
6 866 911 958 1881 1926 1973 
6 849 978 983 1864 1993 1998 
6 867 912 966 1882 1927 1981 
6 868 917 979 1883 1932 1994 
6 878 936 983 1893 1951 1998 
6 914 862 954 1929 1877 1969 
6 241 242 987 438 439 2002 
6 233 234 988 430 431 2003 
6 920 858 971 1935 1873 1986 
6 34 245 933 115 442 1948 
6 25 230 934 106 427 1949 
6 910 867 968 1925 1882 1983 
6 943 859 967 1958 1874 1982 
6 908 236 919 1923 433 1934 
6 980 848 984 1995 1863 1999 
6 946 871 972 1961 1886 1987 
6 871 948 972 1886 1963 1987 
6 185 888 951 382 1903 1966 
6 889 188 952 1904 385 1967 
6 239 907 920 436 1922 1935 
6 915 863 960 1930 1878 1975 
6 899 923 984 1914 1938 1999 
6 931 850 981 1946 1865 1996 
6 851 932 982 1866 1947 1997 
6 240 33 940 437 114 1955 
6 30 235 941 111 432 1956 
6 867 935 968 1882 1950 1983 
6 893 943 967 1908 1958 1982 
6 889 924 963 1904 1939 1978 
6 925 888 962 1940 1903 1977 
6 909 866 957 1924 1881 1972 
6 930 243 957 1945 440 1972 
6 253 254 972 450 451 1987 
6 891 241 987 1906 438 2002 
6 234 892 988 431 1907 2003 
6 866 930 957 1881 1945 1972 
6 936 896 983 1951 1911 1998 
6 950 858 969 1965 1873 1984 
6 969 891 987 1984 1906 2002 
6 892 970 988 1907 1985 2003 
6 876 920 971 1891 1935 1986 
6 888 185 904 1903 382 1919 
6 188 889 905 385 1904 1920 
6 933 245 990 1948 442 2005 
6 934 230 989 1949 427 2004 
6 946 254 985 1961 451 2000 
6 38 947 986 119 1962 2001 
6 875 965 982 1890 1980 1997 
6 964 874 981 1979 1889 1996 
6 935 222 968 1950 419 1983 
6 254 946 972 451 1961 1987 
6 948 253 972 1963 450 1987 
6 251 11 929 448 92 1944 
6 12 228 927 93 425 1942 
6 882 950 969 1897 1965 1984 
6 949 848 980 1964 1863 1995 
6 932 875 982 1947 1890 1997 
6 874 931 981 1889 1946 1996 
6 874 949 980 1889 1964 1995 
6 849 944 978 1864 1959 1993 
6 884 945 973 1899 1960 1988 
6 946 885 974 1961 1900 1989 
6 886 948 975 1901 1963 1990 
6 944 875 978 1959 1890 1993 
6 885 946 985 1900 1961 2000 
6 947 887 986 1962 1902 2001 
6 921 964 981 1936 1979 1996 
6 965 922 982 1980 1937 1997 
6 850 921 981 1865 1936 1996 
6 922 851 982 1937 1866 1997 
6 254 953 985 451 1968 2000 
6 953 38 986 1968 119 2001 
6 875 932 978 1890 1947 1993 
6 931 874 980 1946 1889 1995 
6 880 933 990 1895 1948 2005 
6 881 934 989 1896 1949 2004 
6 921 220 964 1936 417 1979 
6 246 922 965 443 1937 1980 
6 888 904 962 1903 1919 1977 
6 905 889 963 1920 1904 1978 
6 882 969 987 1897 1984 2002 
6 970 883 988 1985 1898 2003 
6 11 188 905 92 385 1920 
6 11 905 929 92 1920 1944 
6 185 12 904 382 93 1919 
6 904 12 927 1919 93 1942 
6 223 25 934 420 106 1949 
6 234 30 941 431 111 1956 
6 33 241 940 114 438 1955 
6 244 34 933 441 115 1948 
6 26 220 229 107 417 426 
6 28 229 926 109 426 1941 
6 36 250 246 117 447 443 
6 250 37 928 447 118 1943 
6 229 220 872 426 417 1887 
6 872 220 921 1887 417 1936 
6 229 872 926 426 1887 1941 
6 246 250 873 443 447 1888 
6 246 873 922 443 1888 1937 
6 873 250 928 1888 447 1943 
6 856 872 921 1871 1887 1936 
6 872 856 927 1887 1871 1942 
6 873 857 922 1888 1872 1937 
6 857 873 929 1872 1888 1944 
6 1084 1042 1100 2099 2057 2115 
6 1005 1045 1060 2020 2060 2075 
6 1006 1046 1059 2021 2061 2074 
6 1022 1038 1104 2037 2053 2119 
6 1038 999 1104 2053 2014 2119 
6 1045 1005 1047 2060 2020 2062 
6 1046 1006 1048 2061 2021 2063 
6 999 1035 1104 2014 2050 2119 
6 258 1021 1064 455 2036 2079 
6 1014 1029 1042 2029 2044 2057 
6 1016 1030 1043 2031 2045 2058 
6 1031 1016 1044 2046 2031 2059 
6 180 1026 1055 377 2041 2070 
6 265 1025 1054 462 2040 2069 
6 1028 991 1088 2043 2006 2103 
6 1007 1084 1100 2022 2099 2115 
6 1007 1046 1061 2022 2061 2076 
6 1026 1006 1055 2041 2021 2070 
6 1025 1005 1054 2040 2020 2069 
6 1067 1010 1082 2082 2025 2097 
6 1029 997 1042 2044 2012 2057 
6 1030 1000 1043 2045 2015 2058 
6 998 1031 1044 2013 2046 2059 
6 1089 1043 1099 2104 2058 2114 
6 992 1042 1084 2007 2057 2099 
6 1035 1021 1104 2050 2036 2119 
6 1029 1014 1101 2044 2029 2116 
6 1063 1022 1083 2078 2037 2098 
6 1005 1025 1047 2020 2040 2062 
6 1006 1026 1048 2021 2041 2063 
6 256 1052 1085 453 2067 2100 
6 1053 261 1086 2068 458 2101 
6 991 1028 1087 2006 2043 2102 
6 1040 991 1087 2055 2006 2102 
6 1032 999 1074 2047 2014 2089 
6 1003 1036 1052 2018 2051 2067 
6 1037 1004 1053 2052 2019 2068 
6 259 1063 1083 456 2078 2098 
6 1021 258 1083 2036 455 2098 
6 1038 991 1074 2053 2006 2089 
6 1035 999 1056 2050 2014 2071 
6 999 1038 1074 2014 2053 2089 
6 1008 1045 1062 2023 2060 2077 
6 1040 1087 1110 2055 2102 2125 
6 994 1043 1089 2009 2058 2104 
6 49 279 1101 130 476 2116 
6 281 49 1102 478 130 2117 
6 265 1054 1103 462 2069 2118 
6 1008 1089 1099 2023 2104 2114 
6 1091 281 1102 2106 478 2117 
6 1092 49 1101 2107 130 2116 
6 995 1001 1065 2010 2016 2080 
6 1002 996 1066 2017 2011 2081 
6 1010 1051 1082 2025 2066 2097 
6 1001 995 1105 2016 2010 2120 
6 996 1002 1106 2011 2017 2121 
6 39 257 1052 120 454 2067 
6 260 40 1053 457 121 2068 
6 1069 995 1076 2084 2010 2091 
6 996 1068 1077 2011 2083 2092 
6 43 267 1047 124 464 2062 
6 36 246 1048 117 443 2063 
6 1039 993 1094 2054 2008 2109 
6 1030 1016 1130 2045 2031 2145 
6 1016 1031 1131 2031 2046 2146 
6 1045 1008 1060 2060 2023 2075 
6 1046 1007 1059 2061 2022 2074 
6 277 48 1070 474 129 2085 
6 45 272 1072 126 469 2087 
6 992 1035 1109 2007 2050 2124 
6 1046 247 1061 2061 444 2076 
6 1010 1023 1068 2025 2038 2083 
6 1024 1009 1069 2039 2024 2084 
6 1027 1061 1132 2042 2076 2147 
6 180 1055 1113 377 2070 2128 
6 1053 1004 1063 2068 2019 2078 
6 999 1032 1056 2014 2047 2071 
6 40 261 1053 121 458 2068 
6 256 39 1052 453 120 2067 
6 1035 992 1095 2050 2007 2110 
6 1023 1010 1067 2038 2025 2082 
6 1014 1042 1109 2029 2057 2124 
6 36 1048 1134 117 2063 2149 
6 43 1047 1135 124 2062 2150 
6 1003 1052 1064 2018 2067 2079 
6 1054 1005 1057 2069 2020 2072 
6 1055 1006 1058 2070 2021 2073 
6 1051 1010 1097 2066 2025 2112 
6 1009 1051 1096 2024 2066 2111 
6 1015 1041 1122 2030 2056 2137 
6 998 1067 1082 2013 2082 2097 
6 1033 1069 1096 2048 2084 2111 
6 1068 1034 1097 2083 2049 2112 
6 1009 1024 1081 2024 2039 2096 
6 1039 1094 1111 2054 2109 2126 
6 1069 1009 1096 2084 2024 2111 
6 1010 1068 1097 2025 2083 2112 
6 1021 1035 1116 2036 2050 2131 
6 1074 991 1121 2089 2006 2136 
6 1020 1062 1108 2035 2077 2123 
6 1061 248 1132 2076 445 2147 
6 1045 268 1062 2060 465 2077 
6 998 1044 1067 2013 2059 2082 
6 1074 1013 1102 2089 2028 2117 
6 1095 1003 1116 2110 2018 2131 
6 1038 1022 1112 2053 2037 2127 
6 1032 1074 1102 2047 2089 2117 
6 991 1038 1088 2006 2053 2103 
6 1058 1006 1059 2073 2021 2074 
6 1057 1005 1060 2072 2020 2075 
6 1042 992 1109 2057 2007 2124 
6 1041 1015 1120 2056 2030 2135 
6 1075 1028 1133 2090 2043 2148 
6 993 1039 1122 2008 2054 2137 
6 991 1040 1121 2006 2055 2136 
6 1035 1095 1116 2050 2110 2131 
6 257 258 1064 454 455 2079 
6 259 260 1063 456 457 2078 
6 1042 997 1100 2057 2012 2115 
6 1043 1000 1099 2058 2015 2114 
6 997 1029 1119 2012 2044 2134 
6 1000 1030 1118 2015 2045 2133 
6 1031 998 1120 2046 2013 2135 
6 1122 1041 1128 2137 2056 2143 
6 255 36 1134 452 117 2149 
6 266 43 1135 463 124 2150 
6 1035 1056 1109 2050 2071 2124 
6 1041 998 1081 2056 2013 2096 
6 1014 1056 1092 2029 2071 2107 
6 1008 1062 1089 2023 2077 2104 
6 1051 1009 1082 2066 2024 2097 
6 246 247 1046 443 444 2061 
6 267 268 1045 464 465 2060 
6 1016 1043 1124 2031 2058 2139 
6 1044 1016 1124 2059 2031 2139 
6 1080 1019 1107 2095 2034 2122 
6 1056 1032 1092 2071 2047 2107 
6 1062 269 1108 2077 466 2123 
6 1007 1061 1084 2022 2076 2099 
6 275 274 1051 472 471 2066 
6 263 1075 1133 460 2090 2148 
6 992 1084 1095 2007 2099 2110 
6 1039 997 1119 2054 2012 2134 
6 1040 1000 1118 2055 2015 2133 
6 998 1041 1120 2013 2056 2135 
6 993 1122 1128 2008 2137 2143 
6 1000 1057 1060 2015 2072 2075 
6 997 1058 1059 2012 2073 2074 
6 1119 1015 1122 2134 2030 2137 
6 1118 1013 1121 2133 2028 2136 
6 275 1051 1097 472 2066 2112 
6 1051 274 1096 2066 471 2111 
6 1062 1020 1089 2077 2035 2104 
6 264 265 1103 461 462 2118 
6 1028 1088 1115 2043 2103 2130 
6 1068 996 1106 2083 2011 2121 
6 995 1069 1105 2010 2084 2120 
6 1024 1069 1076 2039 2084 2091 
6 1068 1023 1077 2083 2038 2092 
6 279 1090 1101 476 2105 2116 
6 1043 994 1124 2058 2009 2139 
6 49 1092 1102 130 2107 2117 
6 1084 1027 1095 2099 2042 2110 
6 997 1039 1111 2012 2054 2126 
6 1000 1040 1110 2015 2055 2125 
6 1001 1049 1071 2016 2064 2086 
6 1050 1002 1073 2065 2017 2088 
6 1123 1023 1129 2138 2038 2144 
6 1081 998 1082 2096 2013 2097 
6 1044 1124 1129 2059 2139 2144 
6 1011 1054 1057 2026 2069 2072 
6 1012 1055 1058 2027 2070 2073 
6 182 1080 1107 379 2095 2122 
6 1024 1125 1128 2039 2140 2143 
6 247 248 1061 444 445 2076 
6 267 1045 1047 464 2060 2062 
6 246 1046 1048 443 2061 2063 
6 1019 1080 1094 2034 2095 2109 
6 1061 1027 1084 2076 2042 2099 
6 268 269 1062 465 466 2077 
6 1000 1060 1099 2015 2075 2114 
6 997 1059 1100 2012 2074 2115 
6 1077 1023 1123 2092 2038 2138 
6 1124 994 1129 2139 2009 2144 
6 1087 1011 1110 2102 2026 2125 
6 181 180 1113 378 377 2128 
6 1016 1098 1130 2031 2113 2145 
6 1098 1016 1131 2113 2031 2146 
6 1013 1074 1121 2028 2089 2136 
6 1024 1076 1125 2039 2091 2140 
6 1009 1081 1082 2024 2096 2097 
6 1072 272 1073 2087 469 2088 
6 277 1070 1071 474 2085 2086 
6 1080 1012 1094 2095 2027 2109 
6 1052 1036 1085 2067 2051 2100 
6 1037 1053 1086 2052 2068 2101 
6 1083 1022 1104 2098 2037 2119 
6 263 264 1075 460 461 2090 
6 1013 1091 1102 2028 2106 2117 
6 1014 1092 1101 2029 2107 2116 
6 1090 1015 1119 2105 2030 2134 
6 1091 1013 1118 2106 2028 2133 
6 1015 1093 1120 2030 2108 2135 
6 1056 1014 1109 2071 2029 2124 
6 182 181 1080 379 378 2095 
6 1090 1029 1101 2105 2044 2116 
6 1092 1032 1102 2107 2047 2117 
6 1025 265 1078 2040 462 2093 
6 1026 180 1079 2041 377 2094 
6 1063 1004 1112 2078 2019 2127 
6 258 259 1083 455 456 2098 
6 1040 1118 1121 2055 2133 2136 
6 1039 1119 1122 2054 2134 2137 
6 1021 1083 1104 2036 2098 2119 
6 1094 1012 1111 2109 2027 2126 
6 1049 1001 1105 2064 2016 2120 
6 1002 1050 1106 2017 2065 2121 
6 1088 1004 1115 2103 2019 2130 
6 1028 1075 1087 2043 2090 2102 
6 1022 1063 1112 2037 2078 2127 
6 1075 1011 1087 2090 2026 2102 
6 280 281 1098 477 478 2113 
6 1058 997 1111 2073 2012 2126 
6 1057 1000 1110 2072 2015 2125 
6 1047 1025 1135 2062 2040 2150 
6 1048 1026 1134 2063 2041 2149 
6 274 273 1096 471 470 2111 
6 276 275 1097 473 472 2112 
6 1036 1003 1114 2051 2018 2129 
6 1004 1037 1115 2019 2052 2130 
6 1036 249 1085 2051 446 2100 
6 262 1037 1086 459 2052 2101 
6 1070 1017 1071 2085 2032 2086 
6 1018 1072 1073 2033 2087 2088 
6 183 182 1107 380 379 2122 
6 269 270 1108 466 467 2123 
6 1023 1067 1129 2038 2082 2144 
6 1011 1057 1110 2026 2072 2125 
6 1012 1058 1111 2027 2073 2126 
6 1081 1024 1128 2096 2039 2143 
6 1059 1007 1100 2074 2022 2115 
6 1060 1008 1099 2075 2023 2114 
6 994 1123 1129 2009 2138 2144 
6 248 249 1132 445 446 2147 
6 262 263 1133 459 460 2148 
6 1125 993 1128 2140 2008 2143 
6 1003 1064 1116 2018 2079 2131 
6 42 266 1078 123 463 2093 
6 10 255 1079 91 452 2094 
6 1055 1012 1113 2070 2027 2128 
6 1004 1088 1112 2019 2103 2127 
6 260 1053 1063 457 2068 2078 
6 1015 1090 1117 2030 2105 2132 
6 1093 1015 1117 2108 2030 2132 
6 273 1033 1096 470 2048 2111 
6 1034 276 1097 2049 473 2112 
6 1052 257 1064 2067 454 2079 
6 1067 1044 1129 2082 2059 2144 
6 1076 995 1126 2091 2010 2141 
6 996 1077 1127 2011 2092 2142 
6 35 256 1085 116 453 2100 
6 261 41 1086 458 122 2101 
6 1012 1080 1113 2027 2095 2128 
6 1088 1038 1112 2103 2053 2127 
6 1034 1068 1106 2049 2083 2121 
6 1069 1033 1105 2084 2048 2120 
6 1054 1011 1103 2069 2026 2118 
6 1075 264 1103 2090 461 2118 
6 279 280 1117 476 477 2132 
6 249 1036 1132 446 2051 2147 
6 1037 262 1133 2052 459 2148 
6 1011 1075 1103 2026 2090 2118 
6 1041 1081 1128 2056 2096 2143 
6 1003 1095 1114 2018 2110 2129 
6 1036 1114 1132 2051 2129 2147 
6 1115 1037 1133 2130 2052 2148 
6 1064 1021 1116 2079 2036 2131 
6 276 1034 1050 473 2049 2065 
6 1033 273 1049 2048 470 2064 
6 1078 266 1135 2093 463 2150 
6 1079 255 1134 2094 452 2149 
6 281 1091 1130 478 2106 2145 
6 1093 280 1131 2108 477 2146 
6 1107 1019 1126 2122 2034 2141 
6 1020 1108 1127 2035 2123 2142 
6 1080 181 1113 2095 378 2128 
6 1090 279 1117 2105 476 2132 
6 280 1093 1117 477 2108 2132 
6 272 46 1073 469 127 2088 
6 47 277 1071 128 474 2086 
6 1095 1027 1114 2110 2042 2129 
6 1094 993 1125 2109 2008 2140 
6 1019 1076 1126 2034 2091 2141 
6 1077 1020 1127 2092 2035 2142 
6 1019 1094 1125 2034 2109 2140 
6 994 1089 1123 2009 2104 2138 
6 1030 1091 1118 2045 2106 2133 
6 1029 1090 1119 2044 2105 2134 
6 1093 1031 1120 2108 2046 2135 
6 1089 1020 1123 2104 2035 2138 
6 1091 1030 1130 2106 2045 2145 
6 1031 1093 1131 2046 2108 2146 
6 1065 1107 1126 2080 2122 2141 
6 1108 1066 1127 2123 2081 2142 
6 995 1065 1126 2010 2080 2141 
6 1066 996 1127 2081 2011 2142 
6 1098 281 1130 2113 478 2145 
6 280 1098 1131 477 2113 2146 
6 1020 1077 1123 2035 2092 2138 
6 1076 1019 1125 2091 2034 2140 
6 1025 1078 1135 2040 2093 2150 
6 1026 1079 1134 2041 2094 2149 
6 1065 183 1107 2080 380 2122 
6 270 1066 1108 467 2081 2123 
6 1033 1049 1105 2048 2064 2120 
6 1050 1034 1106 2065 2049 2121 
6 1114 1027 1132 2129 2042 2147 
6 1028 1115 1133 2043 2130 2148 
6 180 10 1079 377 91 2094 
6 249 35 1085 446 116 2100 
6 41 262 1086 122 459 2101 
6 265 42 1078 462 123 2093 
6 46 276 1050 127 473 2065 
6 46 1050 1073 127 2065 2088 
6 273 47 1049 470 128 2064 
6 1049 47 1071 2064 128 2086 
6 9 183 278 90 380 475 
6 44 271 270 125 468 467 
6 271 45 1072 468 126 2087 
6 48 278 1070 129 475 2085 
6 278 183 1017 475 380 2032 
6 1017 183 1065 2032 380 2080 
6 270 271 1018 467 468 2033 
6 270 1018 1066 467 2033 2081 
6 1018 271 1072 2033 468 2087 
6 278 1017 1070 475 2032 2085 
6 1001 1017 1065 2016 2032 2080 
6 1017 1001 1071 2032 2016 2086 
6 1018 1002 1066 2033 2017 2081 
6 1002 1018 1073 2017 2033 2088 
6 1150 1190 1205 2165 2205 2220 
6 1191 1151 1204 2206 2166 2219 
6 1183 1167 1250 2198 2182 2265 
6 1144 1183 1250 2159 2198 2265 
6 1190 1150 1192 2205 2165 2207 
6 1151 1191 1193 2166 2206 2208 
6 1180 1144 1250 2195 2159 2265 
6 1166 275 1210 2181 472 2225 
6 1175 1158 1187 2190 2173 2202 
6 1159 1174 1188 2174 2189 2203 
6 1176 1161 1189 2191 2176 2204 
6 1170 178 1199 2185 375 2214 
6 287 1171 1200 484 2186 2215 
6 1137 1173 1233 2152 2188 2248 
6 1151 1170 1199 2166 2185 2214 
6 1171 1150 1200 2186 2165 2215 
6 1155 1226 1227 2170 2241 2242 
6 1174 1142 1188 2189 2157 2203 
6 1145 1175 1187 2160 2190 2202 
6 1143 1176 1189 2158 2191 2204 
6 1144 1180 1206 2159 2195 2221 
6 1234 1185 1252 2249 2200 2267 
6 1184 1235 1251 2199 2250 2266 
6 1166 1180 1250 2181 2195 2265 
6 1174 1159 1244 2189 2174 2259 
6 1167 1209 1228 2182 2224 2243 
6 1161 1176 1245 2176 2191 2260 
6 1150 1171 1192 2165 2186 2207 
6 1170 1151 1193 2185 2166 2208 
6 1197 283 1230 2212 480 2245 
6 282 1198 1229 479 2213 2244 
6 1177 1144 1206 2192 2159 2221 
6 1173 1137 1232 2188 2152 2247 
6 1148 1181 1198 2163 2196 2213 
6 1182 1149 1197 2197 2164 2212 
6 1209 274 1228 2224 471 2243 
6 1139 1185 1234 2154 2200 2249 
6 1184 1138 1235 2199 2153 2250 
6 1180 1136 1206 2195 2151 2221 
6 275 1166 1228 472 2181 2243 
6 1137 1188 1232 2152 2203 2247 
6 1187 1136 1231 2202 2151 2246 
6 1232 1188 1249 2247 2203 2264 
6 1187 1231 1248 2202 2246 2263 
6 1191 1152 1208 2206 2167 2223 
6 1153 1190 1207 2168 2205 2222 
6 1206 1136 1270 2221 2151 2285 
6 60 306 1244 141 503 2259 
6 307 308 1245 504 505 2260 
6 1199 178 1247 2214 375 2262 
6 287 1200 1246 484 2215 2261 
6 308 1237 1245 505 2252 2260 
6 1238 60 1244 2253 141 2259 
6 1146 1140 1211 2161 2155 2226 
6 1141 1147 1212 2156 2162 2227 
6 1196 1155 1227 2211 2170 2242 
6 1140 1146 1254 2155 2161 2269 
6 1147 1141 1255 2162 2156 2270 
6 1153 1234 1252 2168 2249 2267 
6 1235 1152 1251 2250 2167 2266 
6 47 273 1198 128 470 2213 
6 276 46 1197 473 127 2212 
6 1140 1214 1222 2155 2229 2237 
6 1215 1141 1223 2230 2156 2238 
6 1158 1177 1206 2173 2192 2221 
6 52 289 1192 133 486 2207 
6 301 59 1193 498 140 2208 
6 1158 1175 1275 2173 2190 2290 
6 1177 1158 1276 2192 2173 2291 
6 1190 1153 1205 2205 2168 2220 
6 1152 1191 1204 2167 2206 2219 
6 54 294 1216 135 491 2231 
6 299 57 1218 496 138 2233 
6 1154 1168 1214 2169 2183 2229 
6 1169 1155 1215 2184 2170 2230 
6 1144 1177 1203 2159 2192 2218 
6 1226 1143 1227 2241 2158 2242 
6 1183 1144 1203 2198 2159 2218 
6 1148 1198 1209 2163 2213 2224 
6 46 283 1197 127 480 2212 
6 282 47 1198 479 128 2213 
6 1159 1188 1253 2174 2203 2268 
6 1136 1180 1240 2151 2195 2255 
6 1168 1154 1213 2183 2169 2228 
6 1193 59 1279 2208 140 2294 
6 52 1192 1280 133 2207 2295 
6 1197 1149 1210 2212 2164 2225 
6 1151 1199 1201 2166 2214 2216 
6 1200 1150 1202 2215 2165 2217 
6 1196 1154 1241 2211 2169 2256 
6 1155 1196 1242 2170 2211 2257 
6 1160 1186 1266 2175 2201 2281 
6 1214 1178 1241 2229 2193 2256 
6 1179 1215 1242 2194 2230 2257 
6 1155 1169 1226 2170 2184 2241 
6 1154 1214 1241 2169 2229 2256 
6 1215 1155 1242 2230 2170 2257 
6 1180 1166 1261 2195 2181 2276 
6 1164 1207 1256 2179 2222 2271 
6 1208 1165 1257 2223 2180 2272 
6 1137 1183 1253 2152 2198 2268 
6 302 1191 1208 499 2206 2223 
6 1190 290 1207 2205 487 2222 
6 1143 1189 1213 2158 2204 2228 
6 1149 1240 1261 2164 2255 2276 
6 1167 1183 1258 2182 2198 2273 
6 1188 1137 1253 2203 2152 2268 
6 1183 1137 1233 2198 2152 2248 
6 1151 1201 1204 2166 2216 2219 
6 1202 1150 1205 2217 2165 2220 
6 1186 1160 1265 2201 2175 2280 
6 1221 1172 1278 2236 2187 2293 
6 1173 1220 1277 2188 2235 2292 
6 1138 1184 1266 2153 2199 2281 
6 1185 1139 1267 2200 2154 2282 
6 1240 1180 1261 2255 2195 2276 
6 275 276 1210 472 473 2225 
6 273 274 1209 470 471 2224 
6 1231 1136 1240 2246 2151 2255 
6 1142 1174 1263 2157 2189 2278 
6 1175 1145 1264 2190 2160 2279 
6 1176 1143 1265 2191 2158 2280 
6 1189 1161 1267 2204 2176 2282 
6 1266 1186 1273 2281 2201 2288 
6 59 305 1279 140 502 2294 
6 288 52 1280 485 133 2295 
6 1186 1143 1226 2201 2158 2241 
6 1153 1207 1234 2168 2222 2249 
6 1208 1152 1235 2223 2167 2250 
6 1154 1196 1227 2169 2211 2242 
6 1188 1142 1249 2203 2157 2264 
6 1145 1187 1248 2160 2202 2263 
6 289 290 1190 486 487 2205 
6 302 301 1191 499 498 2206 
6 1207 291 1256 2222 488 2271 
6 303 1208 1257 500 2223 2272 
6 296 297 1196 493 494 2211 
6 1189 1267 1274 2204 2282 2289 
6 1220 176 1277 2235 373 2292 
6 285 1221 1278 482 2236 2293 
6 1267 1139 1274 2282 2154 2289 
6 1187 1158 1270 2202 2173 2285 
6 1172 1231 1240 2187 2246 2255 
6 1184 1142 1263 2199 2157 2278 
6 1145 1185 1264 2160 2200 2279 
6 1143 1186 1265 2158 2201 2280 
6 1138 1266 1273 2153 2281 2288 
6 1145 1202 1205 2160 2217 2220 
6 1201 1142 1204 2216 2157 2219 
6 1263 1160 1266 2278 2175 2281 
6 1161 1264 1267 2176 2279 2282 
6 296 1196 1241 493 2211 2256 
6 1196 297 1242 2211 494 2257 
6 1207 1164 1234 2222 2179 2249 
6 1165 1208 1235 2180 2223 2250 
6 178 177 1247 375 374 2262 
6 286 287 1246 483 484 2261 
6 1233 1173 1259 2248 2188 2274 
6 1159 1203 1238 2174 2218 2253 
6 1142 1184 1251 2157 2199 2266 
6 1185 1145 1252 2200 2160 2267 
6 1214 1140 1254 2229 2155 2269 
6 1141 1215 1255 2156 2230 2270 
6 1169 1269 1273 2184 2284 2288 
6 1214 1168 1222 2229 2183 2237 
6 1169 1215 1223 2184 2230 2238 
6 306 1236 1244 503 2251 2259 
6 1239 307 1245 2254 504 2260 
6 1194 1146 1217 2209 2161 2232 
6 1147 1195 1219 2162 2210 2234 
6 1268 1168 1274 2283 2183 2289 
6 1203 1177 1238 2218 2192 2253 
6 1199 1156 1201 2214 2171 2216 
6 1157 1200 1202 2172 2215 2217 
6 1136 1187 1270 2151 2202 2285 
6 289 1190 1192 486 2205 2207 
6 1191 301 1193 2206 498 2208 
6 1183 1203 1253 2198 2218 2268 
6 1143 1213 1227 2158 2228 2242 
6 290 291 1207 487 488 2222 
6 303 302 1208 500 499 2223 
6 1156 1232 1249 2171 2247 2264 
6 1231 1157 1248 2246 2172 2263 
6 1222 1168 1268 2237 2183 2283 
6 1169 1223 1269 2184 2238 2284 
6 1145 1205 1252 2160 2220 2267 
6 1204 1142 1251 2219 2157 2266 
6 1243 1158 1275 2258 2173 2290 
6 1158 1243 1276 2173 2258 2291 
6 1213 1154 1227 2228 2169 2242 
6 1216 294 1217 2231 491 2232 
6 299 1218 1219 496 2233 2234 
6 1182 1197 1230 2197 2212 2245 
6 1198 1181 1229 2213 2196 2244 
6 1167 1228 1250 2182 2243 2265 
6 177 176 1220 374 373 2235 
6 285 286 1221 482 483 2236 
6 1237 1161 1245 2252 2176 2260 
6 1159 1238 1244 2174 2253 2259 
6 1236 1160 1263 2251 2175 2278 
6 1161 1237 1264 2176 2252 2279 
6 1160 1239 1265 2175 2254 2280 
6 1236 1174 1244 2251 2189 2259 
6 1176 1239 1245 2191 2254 2260 
6 1171 287 1224 2186 484 2239 
6 178 1170 1225 375 2185 2240 
6 1148 1209 1258 2163 2224 2273 
6 274 275 1228 471 472 2243 
6 1184 1263 1266 2199 2278 2281 
6 1264 1185 1267 2279 2200 2282 
6 1228 1166 1250 2243 2181 2265 
6 1146 1194 1254 2161 2209 2269 
6 1195 1147 1255 2210 2162 2270 
6 1148 1233 1259 2163 2248 2274 
6 1172 1221 1231 2187 2236 2246 
6 1220 1173 1232 2235 2188 2247 
6 1209 1167 1258 2224 2182 2273 
6 1203 1159 1253 2218 2174 2268 
6 1221 1157 1231 2236 2172 2246 
6 1156 1220 1232 2171 2235 2247 
6 308 60 1243 505 141 2258 
6 1202 1145 1248 2217 2160 2263 
6 1142 1201 1249 2157 2216 2264 
6 1192 1171 1280 2207 2186 2295 
6 1170 1193 1279 2185 2208 2294 
6 295 296 1241 492 493 2256 
6 297 298 1242 494 495 2257 
6 1181 1148 1259 2196 2163 2274 
6 1149 1182 1260 2164 2197 2275 
6 1181 175 1229 2196 372 2244 
6 284 1182 1230 481 2197 2245 
6 1162 1216 1217 2177 2231 2232 
6 1218 1163 1219 2233 2178 2234 
6 291 292 1256 488 489 2271 
6 304 303 1257 501 500 2272 
6 1168 1213 1274 2183 2228 2289 
6 1201 1156 1249 2216 2171 2264 
6 1157 1202 1248 2172 2217 2263 
6 1269 1138 1273 2284 2153 2288 
6 1158 1206 1270 2173 2221 2285 
6 1226 1169 1273 2241 2184 2288 
6 1139 1268 1274 2154 2283 2289 
6 284 285 1278 481 482 2293 
6 176 175 1277 373 372 2292 
6 1210 1149 1261 2225 2164 2276 
6 51 288 1224 132 485 2239 
6 305 7 1225 502 88 2240 
6 1233 1148 1258 2248 2163 2273 
6 1198 273 1209 2213 470 2224 
6 1160 1236 1262 2175 2251 2277 
6 1239 1160 1262 2254 2175 2277 
6 1178 295 1241 2193 492 2256 
6 298 1179 1242 495 2194 2257 
6 276 1197 1210 473 2212 2225 
6 1152 1204 1251 2167 2219 2266 
6 1205 1153 1252 2220 2168 2267 
6 1213 1189 1274 2228 2204 2289 
6 1140 1222 1271 2155 2237 2286 
6 1223 1141 1272 2238 2156 2287 
6 8 282 1229 89 479 2244 
6 283 50 1230 480 131 2245 
6 1183 1233 1258 2198 2248 2273 
6 1178 1214 1254 2193 2229 2269 
6 1215 1179 1255 2230 2194 2270 
6 1200 1157 1246 2215 2172 2261 
6 1156 1199 1247 2171 2214 2262 
6 177 1220 1247 374 2235 2262 
6 1221 286 1246 2236 483 2261 
6 306 307 1262 503 504 2277 
6 175 1181 1277 372 2196 2292 
6 1182 284 1278 2197 481 2293 
6 1157 1221 1246 2172 2236 2261 
6 1220 1156 1247 2235 2171 2262 
6 1186 1226 1273 2201 2241 2288 
6 1240 1149 1260 2255 2164 2275 
6 1181 1259 1277 2196 2274 2292 
6 1260 1182 1278 2275 2197 2293 
6 1166 1210 1261 2181 2225 2276 
6 295 1178 1194 492 2193 2209 
6 1179 298 1195 2194 495 2210 
6 1224 288 1280 2239 485 2295 
6 305 1225 1279 502 2240 2294 
6 1237 308 1275 2252 505 2290 
6 60 1238 1276 141 2253 2291 
6 1164 1256 1271 2179 2271 2286 
6 1257 1165 1272 2272 2180 2287 
6 1236 306 1262 2251 503 2277 
6 307 1239 1262 504 2254 2277 
6 56 299 1219 137 496 2234 
6 294 55 1217 491 136 2232 
6 1172 1240 1260 2187 2255 2275 
6 1222 1164 1271 2237 2179 2286 
6 1165 1223 1272 2180 2238 2287 
6 1139 1234 1268 2154 2249 2283 
6 1235 1138 1269 2250 2153 2284 
6 1174 1236 1263 2189 2251 2278 
6 1237 1175 1264 2252 2190 2279 
6 1239 1176 1265 2254 2191 2280 
6 1234 1164 1268 2249 2179 2283 
6 1165 1235 1269 2180 2250 2284 
6 1175 1237 1275 2190 2252 2290 
6 1238 1177 1276 2253 2192 2291 
6 1256 1211 1271 2271 2226 2286 
6 1212 1257 1272 2227 2272 2287 
6 1211 1140 1271 2226 2155 2286 
6 1141 1212 1272 2156 2227 2287 
6 308 1243 1275 505 2258 2290 
6 1243 60 1276 2258 141 2291 
6 1164 1222 1268 2179 2237 2283 
6 1223 1165 1269 2238 2180 2284 
6 1225 1170 1279 2240 2185 2294 
6 1171 1224 1280 2186 2239 2295 
6 292 1211 1256 489 2226 2271 
6 1212 304 1257 2227 501 2272 
6 1194 1178 1254 2209 2193 2269 
6 1179 1195 1255 2194 2210 2270 
6 1259 1173 1277 2274 2188 2292 
6 1172 1260 1278 2187 2275 2293 
6 7 178 1225 88 375 2240 
6 175 8 1229 372 89 2244 
6 50 284 1230 131 481 2245 
6 287 51 1224 484 132 2239 
6 55 295 1194 136 492 2209 
6 55 1194 1217 136 2209 2232 
6 298 56 1195 495 137 2210 
6 1195 56 1219 2210 137 2234 
6 53 293 292 134 490 489 
6 293 54 1216 490 135 2231 
6 57 300 1218 138 497 2233 
6 58 304 300 139 501 497 
6 292 293 1162 489 490 2177 
6 292 1162 1211 489 2177 2226 
6 1162 293 1216 2177 490 2231 
6 300 304 1163 497 501 2178 
6 300 1163 1218 497 2178 2233 
6 1163 304 1212 2178 501 2227 
6 1162 1146 1211 2177 2161 2226 
6 1146 1162 1217 2161 2177 2232 
6 1147 1163 1212 2162 2178 2227 
6 1163 1147 1219 2178 2162 2234 
6 1374 1333 1389 2389 2348 2404 
6 1295 1335 1350 2310 2350 2365 
6 1296 1336 1349 2311 2351 2364 
6 1328 1312 1394 2343 2327 2409 
6 1289 1328 1394 2304 2343 2409 
6 1335 1295 1337 2350 2310 2352 
6 1336 1296 1338 2351 2311 2353 
6 1325 1289 1394 2340 2304 2409 
6 1311 170 1355 2326 367 2370 
6 1305 1319 1333 2320 2334 2348 
6 1320 1303 1332 2335 2318 2347 
6 1321 1306 1334 2336 2321 2349 
6 304 1315 1344 501 2330 2359 
6 326 1316 1345 523 2331 2360 
6 1297 1374 1389 2312 2389 2404 
6 1297 1336 1351 2312 2351 2366 
6 1315 1295 1344 2330 2310 2359 
6 1316 1296 1345 2331 2311 2360 
6 1358 1300 1372 2373 2315 2387 
6 1319 1287 1333 2334 2302 2348 
6 1290 1320 1332 2305 2335 2347 
6 1288 1321 1334 2303 2336 2349 
6 1283 1333 1374 2298 2348 2389 
6 1289 1325 1352 2304 2340 2367 
6 1283 1374 1378 2298 2389 2393 
6 1379 1330 1395 2394 2345 2410 
6 1311 1325 1394 2326 2340 2409 
6 1319 1305 1390 2334 2320 2405 
6 1312 1354 1373 2327 2369 2388 
6 1306 1321 1391 2321 2336 2406 
6 1295 1315 1337 2310 2330 2352 
6 1296 1316 1338 2311 2331 2353 
6 332 1343 1375 529 2358 2390 
6 1342 309 1376 2357 506 2391 
6 1322 1289 1352 2337 2304 2367 
6 1374 1318 1378 2389 2333 2393 
6 1293 1327 1343 2308 2342 2358 
6 1326 1294 1342 2341 2309 2357 
6 1354 171 1373 2369 368 2388 
6 1284 1330 1379 2299 2345 2394 
6 1325 1281 1352 2340 2296 2367 
6 170 1311 1373 367 2326 2388 
6 1332 1281 1377 2347 2296 2392 
6 1332 1377 1393 2347 2392 2408 
6 1298 1335 1353 2313 2350 2368 
6 1352 1281 1414 2367 2296 2429 
6 71 333 1390 152 530 2405 
6 334 335 1391 531 532 2406 
6 304 1344 1392 501 2359 2407 
6 335 1381 1391 532 2396 2406 
6 1382 71 1390 2397 152 2405 
6 1285 1291 1356 2300 2306 2371 
6 1292 1286 1357 2307 2301 2372 
6 1300 1341 1372 2315 2356 2387 
6 1291 1285 1397 2306 2300 2412 
6 1286 1292 1398 2301 2307 2413 
6 1298 1379 1395 2313 2394 2410 
6 4 172 1343 85 369 2358 
6 169 5 1342 366 86 2357 
6 1359 1285 1366 2374 2300 2381 
6 1286 1360 1367 2301 2375 2382 
6 1303 1322 1352 2318 2337 2367 
6 69 331 1338 150 528 2353 
6 61 311 1337 142 508 2352 
6 1329 1282 1384 2344 2297 2399 
6 1303 1320 1420 2318 2335 2435 
6 1322 1303 1421 2337 2318 2436 
6 1335 1298 1350 2350 2313 2365 
6 1336 1297 1349 2351 2312 2364 
6 321 66 1361 518 147 2376 
6 63 316 1363 144 513 2378 
6 1336 330 1351 2351 527 2366 
6 1313 1299 1359 2328 2314 2374 
6 1300 1314 1360 2315 2329 2375 
6 1318 1351 1422 2333 2366 2437 
6 326 1345 1403 523 2360 2418 
6 1289 1322 1348 2304 2337 2363 
6 1328 1289 1348 2343 2304 2363 
6 1293 1343 1354 2308 2358 2369 
6 5 309 1342 86 506 2357 
6 332 4 1343 529 85 2358 
6 1305 1333 1396 2320 2348 2411 
6 1281 1325 1385 2296 2340 2400 
6 1314 1300 1358 2329 2315 2373 
6 61 1337 1424 142 2352 2439 
6 69 1338 1425 150 2353 2440 
6 1342 1294 1355 2357 2309 2370 
6 1344 1295 1346 2359 2310 2361 
6 1345 1296 1347 2360 2311 2362 
6 1299 1341 1386 2314 2356 2401 
6 1341 1300 1387 2356 2315 2402 
6 1304 1331 1411 2319 2346 2426 
6 1288 1358 1372 2303 2373 2387 
6 1323 1359 1386 2338 2374 2401 
6 1360 1324 1387 2375 2339 2402 
6 1299 1313 1371 2314 2328 2386 
6 1329 1384 1401 2344 2399 2416 
6 1359 1299 1386 2374 2314 2401 
6 1300 1360 1387 2315 2375 2402 
6 1325 1311 1406 2340 2326 2421 
6 1310 1353 1400 2325 2368 2415 
6 1283 1328 1396 2298 2343 2411 
6 1351 329 1422 2366 526 2437 
6 1335 312 1353 2350 509 2368 
6 1288 1334 1358 2303 2349 2373 
6 1294 1385 1406 2309 2400 2421 
6 1312 1328 1402 2327 2343 2417 
6 1333 1283 1396 2348 2298 2411 
6 1328 1283 1378 2343 2298 2393 
6 1347 1296 1349 2362 2311 2364 
6 1346 1295 1350 2361 2310 2365 
6 1331 1304 1410 2346 2319 2425 
6 1365 1317 1423 2380 2332 2438 
6 1282 1329 1411 2297 2344 2426 
6 1330 1284 1412 2345 2299 2427 
6 1385 1325 1406 2400 2340 2421 
6 170 169 1355 367 366 2370 
6 172 171 1354 369 368 2369 
6 1333 1287 1389 2348 2302 2404 
6 1377 1281 1385 2392 2296 2400 
6 1287 1319 1409 2302 2334 2424 
6 1320 1290 1408 2335 2305 2423 
6 1321 1288 1410 2336 2303 2425 
6 1334 1306 1412 2349 2321 2427 
6 1411 1331 1418 2426 2346 2433 
6 310 61 1424 507 142 2439 
6 327 69 1425 524 150 2440 
6 1331 1288 1371 2346 2303 2386 
6 1298 1353 1379 2313 2368 2394 
6 1341 1299 1372 2356 2314 2387 
6 1290 1332 1393 2305 2347 2408 
6 311 312 1335 508 509 2350 
6 331 330 1336 528 527 2351 
6 1370 1309 1399 2385 2324 2414 
6 1353 313 1400 2368 510 2415 
6 1297 1351 1374 2312 2366 2389 
6 318 319 1341 515 516 2356 
6 1334 1412 1419 2349 2427 2434 
6 302 1365 1423 499 2380 2438 
6 1412 1284 1419 2427 2299 2434 
6 1332 1303 1414 2347 2318 2429 
6 1317 1377 1385 2332 2392 2400 
6 1329 1287 1409 2344 2302 2424 
6 1290 1330 1408 2305 2345 2423 
6 1288 1331 1410 2303 2346 2425 
6 1282 1411 1418 2297 2426 2433 
6 1290 1346 1350 2305 2361 2365 
6 1287 1347 1349 2302 2362 2364 
6 1409 1304 1411 2424 2319 2426 
6 1306 1408 1412 2321 2423 2427 
6 1341 319 1386 2356 516 2401 
6 318 1341 1387 515 2356 2402 
6 1353 1310 1379 2368 2325 2394 
6 303 304 1392 500 501 2407 
6 1378 1318 1405 2393 2333 2420 
6 1305 1348 1382 2320 2363 2397 
6 1330 1290 1395 2345 2305 2410 
6 1285 1359 1397 2300 2374 2412 
6 1360 1286 1398 2375 2301 2413 
6 1313 1359 1366 2328 2374 2381 
6 1360 1314 1367 2375 2329 2382 
6 333 1380 1390 530 2395 2405 
6 1383 334 1391 2398 531 2406 
6 1287 1329 1401 2302 2344 2416 
6 1291 1339 1362 2306 2354 2377 
6 1340 1292 1364 2355 2307 2379 
6 1413 1314 1419 2428 2329 2434 
6 1348 1322 1382 2363 2337 2397 
6 1371 1288 1372 2386 2303 2387 
6 1301 1344 1346 2316 2359 2361 
6 1302 1345 1347 2317 2360 2362 
6 1281 1332 1414 2296 2347 2429 
6 324 1370 1399 521 2385 2414 
6 1313 1415 1418 2328 2430 2433 
6 330 329 1351 527 526 2366 
6 311 1335 1337 508 2350 2352 
6 331 1336 1338 528 2351 2353 
6 1309 1370 1384 2324 2385 2399 
6 1351 1318 1374 2366 2333 2389 
6 1328 1348 1396 2343 2363 2411 
6 312 313 1353 509 510 2368 
6 1377 1301 1393 2392 2316 2408 
6 1287 1349 1389 2302 2364 2404 
6 1367 1314 1413 2382 2329 2428 
6 1290 1350 1395 2305 2365 2410 
6 325 326 1403 522 523 2418 
6 1388 1303 1420 2403 2318 2435 
6 1303 1388 1421 2318 2403 2436 
6 1313 1366 1415 2328 2381 2430 
6 1299 1371 1372 2314 2386 2387 
6 321 1361 1362 518 2376 2377 
6 1363 316 1364 2378 513 2379 
6 1370 1302 1384 2385 2317 2399 
6 1343 1327 1375 2358 2342 2390 
6 1326 1342 1376 2341 2357 2391 
6 1312 1373 1394 2327 2388 2409 
6 302 303 1365 499 500 2380 
6 1381 1306 1391 2396 2321 2406 
6 1305 1382 1390 2320 2397 2405 
6 1380 1304 1409 2395 2319 2424 
6 1306 1381 1408 2321 2396 2423 
6 1304 1383 1410 2319 2398 2425 
6 324 325 1370 521 522 2385 
6 1380 1319 1390 2395 2334 2405 
6 1321 1383 1391 2336 2398 2406 
6 1315 304 1368 2330 501 2383 
6 1316 326 1369 2331 523 2384 
6 1293 1354 1402 2308 2369 2417 
6 171 170 1373 368 367 2388 
6 1408 1330 1412 2423 2345 2427 
6 1329 1409 1411 2344 2424 2426 
6 1373 1311 1394 2388 2326 2409 
6 1384 1302 1401 2399 2317 2416 
6 1339 1291 1397 2354 2306 2412 
6 1292 1340 1398 2307 2355 2413 
6 1293 1378 1405 2308 2393 2420 
6 1317 1365 1377 2332 2380 2392 
6 1354 1312 1402 2369 2327 2417 
6 1348 1305 1396 2363 2320 2411 
6 1365 1301 1377 2380 2316 2392 
6 335 71 1388 532 152 2403 
6 1346 1290 1393 2361 2305 2408 
6 1347 1287 1401 2362 2302 2416 
6 1337 1315 1424 2352 2330 2439 
6 1338 1316 1425 2353 2331 2440 
6 319 320 1386 516 517 2401 
6 317 318 1387 514 515 2402 
6 1327 1293 1405 2342 2308 2420 
6 1294 1326 1404 2309 2341 2419 
6 1327 328 1375 2342 525 2390 
6 301 1326 1376 498 2341 2391 
6 1361 1307 1362 2376 2322 2377 
6 1308 1363 1364 2323 2378 2379 
6 323 324 1399 520 521 2414 
6 313 314 1400 510 511 2415 
6 1314 1358 1419 2329 2373 2434 
6 1301 1346 1393 2316 2361 2408 
6 1302 1347 1401 2317 2362 2416 
6 1303 1352 1414 2318 2367 2429 
6 1371 1313 1418 2386 2328 2433 
6 1349 1297 1389 2364 2312 2404 
6 1284 1413 1419 2299 2428 2434 
6 301 302 1423 498 499 2438 
6 329 328 1422 526 525 2437 
6 1415 1282 1418 2430 2297 2433 
6 1355 1294 1406 2370 2309 2421 
6 58 310 1368 139 507 2383 
6 68 327 1369 149 524 2384 
6 1345 1302 1403 2360 2317 2418 
6 1378 1293 1402 2393 2308 2417 
6 1343 172 1354 2358 369 2369 
6 1304 1380 1407 2319 2395 2422 
6 1383 1304 1407 2398 2319 2422 
6 320 1323 1386 517 2338 2401 
6 1324 317 1387 2339 514 2402 
6 169 1342 1355 366 2357 2370 
6 1350 1298 1395 2365 2313 2410 
6 1358 1334 1419 2373 2349 2434 
6 1366 1285 1416 2381 2300 2431 
6 1286 1367 1417 2301 2382 2432 
6 70 332 1375 151 529 2390 
6 309 59 1376 506 140 2391 
6 1302 1370 1403 2317 2385 2418 
6 1328 1378 1402 2343 2393 2417 
6 1359 1323 1397 2374 2338 2412 
6 1324 1360 1398 2339 2375 2413 
6 1344 1301 1392 2359 2316 2407 
6 1365 303 1392 2380 500 2407 
6 333 334 1407 530 531 2422 
6 328 1327 1422 525 2342 2437 
6 1326 301 1423 2341 498 2438 
6 1301 1365 1392 2316 2380 2407 
6 1331 1371 1418 2346 2386 2433 
6 1385 1294 1404 2400 2309 2419 
6 1327 1405 1422 2342 2420 2437 
6 1404 1326 1423 2419 2341 2438 
6 1311 1355 1406 2326 2370 2421 
6 1323 320 1339 2338 517 2354 
6 317 1324 1340 514 2339 2355 
6 1368 310 1424 2383 507 2439 
6 1369 327 1425 2384 524 2440 
6 1381 335 1420 2396 532 2435 
6 71 1382 1421 152 2397 2436 
6 1399 1309 1416 2414 2324 2431 
6 1310 1400 1417 2325 2415 2432 
6 1370 325 1403 2385 522 2418 
6 1380 333 1407 2395 530 2422 
6 334 1383 1407 531 2398 2422 
6 316 64 1364 513 145 2379 
6 65 321 1362 146 518 2377 
6 1317 1385 1404 2332 2400 2419 
6 1384 1282 1415 2399 2297 2430 
6 1309 1366 1416 2324 2381 2431 
6 1367 1310 1417 2382 2325 2432 
6 1309 1384 1415 2324 2399 2430 
6 1284 1379 1413 2299 2394 2428 
6 1319 1380 1409 2334 2395 2424 
6 1381 1320 1408 2396 2335 2423 
6 1383 1321 1410 2398 2336 2425 
6 1379 1310 1413 2394 2325 2428 
6 1320 1381 1420 2335 2396 2435 
6 1382 1322 1421 2397 2337 2436 
6 1356 1399 1416 2371 2414 2431 
6 1400 1357 1417 2415 2372 2432 
6 1285 1356 1416 2300 2371 2431 
6 1357 1286 1417 2372 2301 2432 
6 335 1388 1420 532 2403 2435 
6 1388 71 1421 2403 152 2436 
6 1310 1367 1413 2325 2382 2428 
6 1366 1309 1415 2381 2324 2430 
6 1315 1368 1424 2330 2383 2439 
6 1316 1369 1425 2331 2384 2440 
6 1356 323 1399 2371 520 2414 
6 314 1357 1400 511 2372 2415 
6 1323 1339 1397 2338 2354 2412 
6 1340 1324 1398 2355 2339 2413 
6 1317 1404 1423 2332 2419 2438 
6 1405 1318 1422 2420 2333 2437 
6 304 58 1368 501 139 2383 
6 59 301 1376 140 498 2391 
6 64 317 1340 145 514 2355 
6 64 1340 1364 145 2355 2379 
6 320 65 1339 517 146 2354 
6 1339 65 1362 2354 146 2377 
6 326 68 1369 523 149 2384 
6 328 70 1375 525 151 2390 
6 62 315 314 143 512 511 
6 315 63 1363 512 144 2378 
6 66 322 1361 147 519 2376 
6 67 323 322 148 520 519 
6 314 315 1308 511 512 2323 
6 314 1308 1357 511 2323 2372 
6 1308 315 1363 2323 512 2378 
6 322 323 1307 519 520 2322 
6 322 1307 1361 519 2322 2376 
6 1307 323 1356 2322 520 2371 
6 1291 1307 1356 2306 2322 2371 
6 1307 1291 1362 2322 2306 2377 
6 1308 1292 1357 2323 2307 2372 
6 1292 1308 1364 2307 2323 2379 
6 1519 1478 1534 2534 2493 2549 
6 1440 1480 1495 2455 2495 2510 
6 1441 1481 1494 2456 2496 2509 
6 1473 1457 1539 2488 2472 2554 
6 1434 1473 1539 2449 2488 2554 
6 1480 1440 1483 2495 2455 2498 
6 1481 1441 1482 2496 2456 2497 
6 1470 1434 1539 2485 2449 2554 
6 1456 200 1500 2471 397 2515 
6 1449 1464 1478 2464 2479 2493 
6 1465 1448 1477 2480 2463 2492 
6 1466 1451 1479 2481 2466 2494 
6 163 1460 1489 360 2475 2504 
6 348 1461 1490 545 2476 2505 
6 1442 1519 1534 2457 2534 2549 
6 1442 1481 1496 2457 2496 2511 
6 1461 1441 1490 2476 2456 2505 
6 1460 1440 1489 2475 2455 2504 
6 1445 1516 1517 2460 2531 2532 
6 1464 1432 1478 2479 2447 2493 
6 1435 1465 1477 2450 2480 2492 
6 1433 1466 1479 2448 2481 2494 
6 1427 1478 1519 2442 2493 2534 
6 1434 1470 1497 2449 2485 2512 
6 1427 1519 1523 2442 2534 2538 
6 1524 1475 1540 2539 2490 2555 
6 1456 1470 1539 2471 2485 2554 
6 1464 1449 1535 2479 2464 2550 
6 1457 1499 1518 2472 2514 2533 
6 1451 1466 1536 2466 2481 2551 
6 1440 1460 1483 2455 2475 2498 
6 1441 1461 1482 2456 2476 2497 
6 1487 355 1521 2502 552 2536 
6 354 1488 1520 551 2503 2535 
6 1467 1434 1497 2482 2449 2512 
6 1519 1463 1523 2534 2478 2538 
6 1438 1471 1488 2453 2486 2503 
6 1472 1439 1487 2487 2454 2502 
6 1499 201 1518 2514 398 2533 
6 1429 1475 1524 2444 2490 2539 
6 1470 1426 1497 2485 2441 2512 
6 200 1456 1518 397 2471 2533 
6 1477 1426 1522 2492 2441 2537 
6 1477 1522 1538 2492 2537 2553 
6 1443 1480 1498 2458 2495 2513 
6 1497 1426 1559 2512 2441 2574 
6 80 356 1535 161 553 2550 
6 357 358 1536 554 555 2551 
6 163 1489 1537 360 2504 2552 
6 358 1526 1536 555 2541 2551 
6 1527 80 1535 2542 161 2550 
6 1436 1430 1501 2451 2445 2516 
6 1431 1437 1502 2446 2452 2517 
6 1486 1445 1517 2501 2460 2532 
6 1430 1436 1542 2445 2451 2557 
6 1437 1431 1543 2452 2446 2558 
6 1443 1524 1540 2458 2539 2555 
6 199 16 1487 396 97 2502 
6 17 202 1488 98 399 2503 
6 1430 1504 1511 2445 2519 2526 
6 1505 1431 1512 2520 2446 2527 
6 1448 1467 1497 2463 2482 2512 
6 70 328 1483 151 525 2498 
6 78 350 1482 159 547 2497 
6 1474 1428 1529 2489 2443 2544 
6 1448 1465 1565 2463 2480 2580 
6 1467 1448 1566 2482 2463 2581 
6 1480 1443 1495 2495 2458 2510 
6 1481 1442 1494 2496 2457 2509 
6 72 338 1506 153 535 2521 
6 343 75 1508 540 156 2523 
6 1481 351 1496 2496 548 2511 
6 1444 1458 1504 2459 2473 2519 
6 1459 1445 1505 2474 2460 2520 
6 1463 1496 1567 2478 2511 2582 
6 348 1490 1548 545 2505 2563 
6 1434 1467 1493 2449 2482 2508 
6 1516 1433 1517 2531 2448 2532 
6 1473 1434 1493 2488 2449 2508 
6 1438 1488 1499 2453 2503 2514 
6 354 17 1488 551 98 2503 
6 16 355 1487 97 552 2502 
6 1449 1478 1541 2464 2493 2556 
6 1426 1470 1530 2441 2485 2545 
6 1458 1444 1503 2473 2459 2518 
6 78 1482 1569 159 2497 2584 
6 70 1483 1570 151 2498 2585 
6 1487 1439 1500 2502 2454 2515 
6 1489 1440 1491 2504 2455 2506 
6 1490 1441 1492 2505 2456 2507 
6 1486 1444 1531 2501 2459 2546 
6 1445 1486 1532 2460 2501 2547 
6 1450 1476 1556 2465 2491 2571 
6 1504 1468 1531 2519 2483 2546 
6 1469 1505 1532 2484 2520 2547 
6 1445 1459 1516 2460 2474 2531 
6 1474 1529 1546 2489 2544 2561 
6 1444 1504 1531 2459 2519 2546 
6 1505 1445 1532 2520 2460 2547 
6 1470 1456 1551 2485 2471 2566 
6 1454 1498 1544 2469 2513 2559 
6 1427 1473 1541 2442 2488 2556 
6 1496 352 1567 2511 549 2582 
6 1480 329 1498 2495 526 2513 
6 1433 1479 1503 2448 2494 2518 
6 1439 1530 1551 2454 2545 2566 
6 1457 1473 1547 2472 2488 2562 
6 1478 1427 1541 2493 2442 2556 
6 1473 1427 1523 2488 2442 2538 
6 1492 1441 1494 2507 2456 2509 
6 1491 1440 1495 2506 2455 2510 
6 1476 1450 1555 2491 2465 2570 
6 1510 1462 1568 2525 2477 2583 
6 1428 1474 1556 2443 2489 2571 
6 1475 1429 1557 2490 2444 2572 
6 1530 1470 1551 2545 2485 2566 
6 200 199 1500 397 396 2515 
6 202 201 1499 399 398 2514 
6 1478 1432 1534 2493 2447 2549 
6 1522 1426 1530 2537 2441 2545 
6 1432 1464 1553 2447 2479 2568 
6 1465 1435 1554 2480 2450 2569 
6 1466 1433 1555 2481 2448 2570 
6 1479 1451 1557 2494 2466 2572 
6 1556 1476 1563 2571 2491 2578 
6 349 78 1569 546 159 2584 
6 336 70 1570 533 151 2585 
6 1476 1433 1516 2491 2448 2531 
6 1443 1498 1524 2458 2513 2539 
6 1444 1486 1517 2459 2501 2532 
6 1435 1477 1538 2450 2492 2553 
6 350 351 1481 547 548 2496 
6 328 329 1480 525 526 2495 
6 1515 1455 1545 2530 2470 2560 
6 1498 330 1544 2513 527 2559 
6 1442 1496 1519 2457 2511 2534 
6 340 341 1486 537 538 2501 
6 1479 1557 1564 2494 2572 2579 
6 165 1510 1568 362 2525 2583 
6 1557 1429 1564 2572 2444 2579 
6 1477 1448 1559 2492 2463 2574 
6 1462 1522 1530 2477 2537 2545 
6 1474 1432 1553 2489 2447 2568 
6 1435 1475 1554 2450 2490 2569 
6 1433 1476 1555 2448 2491 2570 
6 1428 1556 1563 2443 2571 2578 
6 1432 1492 1494 2447 2507 2509 
6 1435 1491 1495 2450 2506 2510 
6 1553 1450 1556 2568 2465 2571 
6 1451 1554 1557 2466 2569 2572 
6 340 1486 1531 537 2501 2546 
6 1486 341 1532 2501 538 2547 
6 1498 1454 1524 2513 2469 2539 
6 164 163 1537 361 360 2552 
6 1523 1463 1550 2538 2478 2565 
6 1449 1493 1527 2464 2508 2542 
6 1475 1435 1540 2490 2450 2555 
6 1504 1430 1542 2519 2445 2557 
6 1431 1505 1543 2446 2520 2558 
6 1504 1458 1511 2519 2473 2526 
6 1459 1505 1512 2474 2520 2527 
6 356 1525 1535 553 2540 2550 
6 1528 357 1536 2543 554 2551 
6 1432 1474 1546 2447 2489 2561 
6 1484 1436 1507 2499 2451 2522 
6 1437 1485 1509 2452 2500 2524 
6 1558 1458 1564 2573 2473 2579 
6 1493 1467 1527 2508 2482 2542 
6 1446 1489 1491 2461 2504 2506 
6 1447 1490 1492 2462 2505 2507 
6 1426 1477 1559 2441 2492 2574 
6 346 1515 1545 543 2530 2560 
6 1459 1560 1563 2474 2575 2578 
6 351 352 1496 548 549 2511 
6 328 1480 1483 525 2495 2498 
6 350 1481 1482 547 2496 2497 
6 1455 1515 1529 2470 2530 2544 
6 1496 1463 1519 2511 2478 2534 
6 1473 1493 1541 2488 2508 2556 
6 1433 1503 1517 2448 2518 2532 
6 329 330 1498 526 527 2513 
6 1522 1446 1538 2537 2461 2553 
6 1432 1494 1534 2447 2509 2549 
6 1511 1458 1558 2526 2473 2573 
6 1435 1495 1540 2450 2510 2555 
6 347 348 1548 544 545 2563 
6 1533 1448 1565 2548 2463 2580 
6 1448 1533 1566 2463 2548 2581 
6 1503 1444 1517 2518 2459 2532 
6 1459 1512 1560 2474 2527 2575 
6 1506 338 1507 2521 535 2522 
6 343 1508 1509 540 2523 2524 
6 1515 1447 1529 2530 2462 2544 
6 1472 1487 1521 2487 2502 2536 
6 1488 1471 1520 2503 2486 2535 
6 1457 1518 1539 2472 2533 2554 
6 165 164 1510 362 361 2525 
6 1526 1451 1536 2541 2466 2551 
6 1449 1527 1535 2464 2542 2550 
6 1525 1450 1553 2540 2465 2568 
6 1451 1526 1554 2466 2541 2569 
6 1450 1528 1555 2465 2543 2570 
6 346 347 1515 543 544 2530 
6 1525 1464 1535 2540 2479 2550 
6 1466 1528 1536 2481 2543 2551 
6 1461 348 1514 2476 545 2529 
6 1460 163 1513 2475 360 2528 
6 1438 1499 1547 2453 2514 2562 
6 201 200 1518 398 397 2533 
6 1474 1553 1556 2489 2568 2571 
6 1554 1475 1557 2569 2490 2572 
6 1518 1456 1539 2533 2471 2554 
6 1529 1447 1546 2544 2462 2561 
6 1436 1484 1542 2451 2499 2557 
6 1485 1437 1543 2500 2452 2558 
6 1438 1523 1550 2453 2538 2565 
6 1462 1510 1522 2477 2525 2537 
6 1499 1457 1547 2514 2472 2562 
6 1493 1449 1541 2508 2464 2556 
6 1510 1446 1522 2525 2461 2537 
6 358 80 1533 555 161 2548 
6 1491 1435 1538 2506 2450 2553 
6 1492 1432 1546 2507 2447 2561 
6 1482 1461 1569 2497 2476 2584 
6 1483 1460 1570 2498 2475 2585 
6 339 340 1531 536 537 2546 
6 341 342 1532 538 539 2547 
6 1471 1438 1550 2486 2453 2565 
6 1439 1472 1549 2454 2487 2564 
6 1471 353 1520 2486 550 2535 
6 166 1472 1521 363 2487 2536 
6 1452 1506 1507 2467 2521 2522 
6 1508 1453 1509 2523 2468 2524 
6 330 331 1544 527 528 2559 
6 345 346 1545 542 543 2560 
6 1458 1503 1564 2473 2518 2579 
6 1446 1491 1538 2461 2506 2553 
6 1447 1492 1546 2462 2507 2561 
6 1448 1497 1559 2463 2512 2574 
6 1516 1459 1563 2531 2474 2578 
6 1494 1442 1534 2509 2457 2549 
6 1429 1558 1564 2444 2573 2579 
6 352 353 1567 549 550 2582 
6 166 165 1568 363 362 2583 
6 1560 1428 1563 2575 2443 2578 
6 1500 1439 1551 2515 2454 2566 
6 2 336 1513 83 533 2528 
6 77 349 1514 158 546 2529 
6 1490 1447 1548 2505 2462 2563 
6 1523 1438 1547 2538 2453 2562 
6 1488 202 1499 2503 399 2514 
6 1450 1525 1552 2465 2540 2567 
6 1528 1450 1552 2543 2465 2567 
6 1468 339 1531 2483 536 2546 
6 342 1469 1532 539 2484 2547 
6 199 1487 1500 396 2502 2515 
6 1495 1443 1540 2510 2458 2555 
6 1503 1479 1564 2518 2494 2579 
6 1430 1511 1561 2445 2526 2576 
6 1512 1431 1562 2527 2446 2577 
6 355 0 1521 552 81 2536 
6 79 354 1520 160 551 2535 
6 1447 1515 1548 2462 2530 2563 
6 1473 1523 1547 2488 2538 2562 
6 1468 1504 1542 2483 2519 2557 
6 1505 1469 1543 2520 2484 2558 
6 1489 1446 1537 2504 2461 2552 
6 1510 164 1537 2525 361 2552 
6 356 357 1552 553 554 2567 
6 353 1471 1567 550 2486 2582 
6 1472 166 1568 2487 363 2583 
6 1446 1510 1537 2461 2525 2552 
6 1476 1516 1563 2491 2531 2578 
6 1530 1439 1549 2545 2454 2564 
6 1471 1550 1567 2486 2565 2582 
6 1549 1472 1568 2564 2487 2583 
6 1456 1500 1551 2471 2515 2566 
6 339 1468 1484 536 2483 2499 
6 1469 342 1485 2484 539 2500 
6 1513 336 1570 2528 533 2585 
6 1514 349 1569 2529 546 2584 
6 1526 358 1565 2541 555 2580 
6 80 1527 1566 161 2542 2581 
6 1454 1544 1561 2469 2559 2576 
6 1545 1455 1562 2560 2470 2577 
6 1515 347 1548 2530 544 2563 
6 1525 356 1552 2540 553 2567 
6 357 1528 1552 554 2543 2567 
6 74 343 1509 155 540 2524 
6 338 73 1507 535 154 2522 
6 1462 1530 1549 2477 2545 2564 
6 1529 1428 1560 2544 2443 2575 
6 1511 1454 1561 2526 2469 2576 
6 1455 1512 1562 2470 2527 2577 
6 1455 1529 1560 2470 2544 2575 
6 1429 1524 1558 2444 2539 2573 
6 1464 1525 1553 2479 2540 2568 
6 1526 1465 1554 2541 2480 2569 
6 1528 1466 1555 2543 2481 2570 
6 1524 1454 1558 2539 2469 2573 
6 1465 1526 1565 2480 2541 2580 
6 1527 1467 1566 2542 2482 2581 
6 1544 1501 1561 2559 2516 2576 
6 1502 1545 1562 2517 2560 2577 
6 1501 1430 1561 2516 2445 2576 
6 1431 1502 1562 2446 2517 2577 
6 358 1533 1565 555 2548 2580 
6 1533 80 1566 2548 161 2581 
6 1454 1511 1558 2469 2526 2573 
6 1512 1455 1560 2527 2470 2575 
6 1460 1513 1570 2475 2528 2585 
6 1461 1514 1569 2476 2529 2584 
6 331 1501 1544 528 2516 2559 
6 1502 345 1545 2517 542 2560 
6 1484 1468 1542 2499 2483 2557 
6 1469 1485 1543 2484 2500 2558 
6 1550 1463 1567 2565 2478 2582 
6 1462 1549 1568 2477 2564 2583 
6 0 166 1521 81 363 2536 
6 163 2 1513 360 83 2528 
6 73 339 1484 154 536 2499 
6 73 1484 1507 154 2499 2522 
6 342 74 1485 539 155 2500 
6 1485 74 1509 2500 155 2524 
6 348 77 1514 545 158 2529 
6 353 79 1520 550 160 2535 
6 69 337 331 150 534 528 
6 337 72 1506 534 153 2521 
6 75 344 1508 156 541 2523 
6 76 345 344 157 542 541 
6 331 337 1452 528 534 2467 
6 331 1452 1501 528 2467 2516 
6 1452 337 1506 2467 534 2521 
6 344 345 1453 541 542 2468 
6 344 1453 1508 541 2468 2523 
6 1453 345 1502 2468 542 2517 
6 1452 1436 1501 2467 2451 2516 
6 1436 1452 1507 2451 2467 2522 
6 1437 1453 1502 2452 2468 2517 
6 1453 1437 1509 2468 2452 2524 

CELL_TYPES 2380
13
13
13
13
13
13
13
13
13
13
13
13
13
13
13
13
13
13
13
13
13
13
13
13
13
13
13
13
13
13
13
13
13
13
13
13
13
13
13
13
13
13
13
13
13
13
13
13
13
13
13
13
13
13
13
13
13
13
13
13
13
13
13
13
13
13
13
13
13
13
13
13
13
13
13
13
13
13
13
13
13
13
13
13
13
13
13
13
13
13
13
13
13
13
13
13
13
13
13
13
13
13
13
13
13
13
13
13
13
13
13
13
13
13
13
13
13
13
13
13
13
13
13
13
13
13
13
13
13
13
13
13
13
13
13
13
13
13
13
13
13
13
13
13
13
13
13
13
13
13
13
13
13
13
13
13
13
13
13
13
13
13
13
13
13
13
13
13
13
13
13
13
13
13
13
13
13
13
13
13
13
13
13
13
13
13
13
13
13
13
13
13
13
13
13
13
13
13
13
13
13
13
13
13
13
13
13
13
13
13
13
13
13
13
13
13
13
13
13
13
13
13
13
13
13
13
13
13
13
13
13
13
13
13
13
13
13
13
13
13
13
13
13
13
13
13
13
13
13
13
13
13
13
13
13
13
13
13
13
13
13
13
13
13
13
13
13
13
13
13
13
13
13
13
13
13
13
13
13
13
13
13
13
13
13
13
13
13
13
13
13
13
13
13
13
13
13
13
13
13
13
13
13
13
13
13
13
13
13
13
13
13
13
13
13
13
13
13
13
13
13
13
13
13
13
13
13
13
13
13
13
13
13
13
13
13
13
13
13
13
13
13
13
13
13
13
13
13
13
13
13
13
13
13
13
13
13
13
13
13
13
13
13
13
13
13
13
13
13
13
13
13
13
13
13
13
13
13
13
13
13
13
13
13
13
13
13
13
13
13
13
13
13
13
13
13
13
13
13
13
13
13
13
13
13
13
13
13
13
13
13
13
13
13
13
13
13
13
13
13
13
13
13
13
13
13
13
13
13
13
13
13
13
13
13
13
13
13
13
13
13
13
13
13
13
13
13
13
13
13
13
13
13
13
13
13
13
13
13
13
13
13
13
13
13
13
13
13
13
13
13
13
13
13
13
13
13
13
13
13
13
13
13
13
13
13
13
13
13
13
13
13
13
13
13
13
13
13
13
13
13
13
13
13
13
13
13
13
13
13
13
13
13
13
13
13
13
13
13
13
13
13
13
13
13
13
13
13
13
13
13
13
13
13
13
13
13
13
13
13
13
13
13
13
13
13
13
13
13
13
13
13
13
13
13
13
13
13
13
13
13
13
13
13
13
13
13
13
13
13
13
13
13
13
13
13
13
13
13
13
13
13
13
13
13
13
13
13
13
13
13
13
13
13
13
13
13
13
13
13
13
13
13
13
13
13
13
13
13
13
13
13
13
13
13
13
13
13
13
13
13
13
13
13
13
13
13
13
13
13
13
13
13
13
13
13
13
13
13
13
13
13
13
13
13
13
13
13
13
13
13
13
13
13
13
13
13
13
13
13
13
13
13
13
13
13
13
13
13
13
13
13
13
13
13
13
13
13
13
13
13
13
13
13
13
13
13
13
13
13
13
13
13
13
13
13
13
13
13
13
13
13
13
13
13
13
13
13
13
13
13
13
13
13
13
13
13
13
13
13
13
13
13
13
13
13
13
13
13
13
13
13
13
13
13
13
13
13
13
13
13
13
13
13
13
13
13
13
13
13
13
13
13
13
13
13
13
13
13
13
13
13
13
13
13
13
13
13
13
13
13
13
13
13
13
13
13
13
13
13
13
13
13
13
13
13
13
13
13
13
13
13
13
13
13
13
13
13
13
13
13
13
13
13
13
13
13
13
13
13
13
13
13
13
13
13
13
13
13
13
13
13
13
13
13
13
13
13
13
13
13
13
13
13
13
13
13
13
13
13
13
13
13
13
13
13
13
13
13
13
13
13
13
13
13
13
13
13
13
13
13
13
13
13
13
13
13
13
13
13
13
13
13
13
13
13
13
13
13
13
13
13
13
13
13
13
13
13
13
13
13
13
13
13
13
13
13
13
13
13
13
13
13
13
13
13
13
13
13
13
13
13
13
13
13
13
13
13
13
13
13
13
13
13
13
13
13
13
13
13
13
13
13
13
13
13
13
13
13
13
13
13
13
13
13
13
13
13
13
13
13
13
13
13
13
13
13
13
13
13
13
13
13
13
13
13
13
13
13
13
13
13
13
13
13
13
13
13
13
13
13
13
13
13
13
13
13
13
13
13
13
13
13
13
13
13
13
13
13
13
13
13
13
13
13
13
13
13
13
13
13
13
13
13
13
13
13
13
13
13
13
13
13
13
13
13
13
13
13
13
13
13
13
13
13
13
13
13
13
13
13
13
13
13
13
13
13
13
13
13
13
13
13
13
13
13
13
13
13
13
13
13
13
13
13
13
13
13
13
13
13
13
13
13
13
13
13
13
13
13
13
13
13
13
13
13
13
13
13
13
13
13
13
13
13
13
13
13
13
13
13
13
13
13
13
13
13
13
13
13
13
13
13
13
13
13
13
13
13
13
13
13
13
13
13
13
13
13
13
13
13
13
13
13
13
13
13
13
13
13
13
13
13
13
13
13
13
13
13
13
13
13
13
13
13
13
13
13
13
13
13
13
13
13
13
13
13
13
13
13
13
13
13
13
13
13
13
13
13
13
13
13
13
13
13
13
13
13
13
13
13
13
13
13
13
13
13
13
13
13
13
13
13
13
13
13
13
13
13
13
13
13
13
13
13
13
13
13
13
13
13
13
13
13
13
13
13
13
13
13
13
13
13
13
13
13
13
13
13
13
13
13
13
13
13
13
13
13
13
13
13
13
13
13
13
13
13
13
13
13
13
13
13
13
13
13
13
13
13
13
13
13
13
13
13
13
13
13
13
13
13
13
13
13
13
13
13
13
13
13
13
13
13
13
13
13
13
13
13
13
13
13
13
13
13
13
13
13
13
13
13
13
13
13
13
13
13
13
13
13
13
13
13
13
13
13
13
13
13
13
13
13
13
13
13
13
13
13
13
13
13
13
13
13
13
13
13
13
13
13
13
13
13
13
13
13
13
13
13
13
13
13
13
13
13
13
13
13
13
13
13
13
13
13
13
13
13
13
13
13
13
13
13
13
13
13
13
13
13
13
13
13
13
13
13
13
13
13
13
13
13
13
13
13
13
13
13
13
13
13
13
13
13
13
13
13
13
13
13
13
13
13
13
13
13
13
13
13
13
13
13
13
13
13
13
13
13
13
13
13
13
13
13
13
13
13
13
13
13
13
13
13
13
13
13
13
13
13
13
13
13
13
13
13
13
13
13
13
13
13
13
13
13
13
13
13
13
13
13
13
13
13
13
13
13
13
13
13
13
13
13
13
13
13
13
13
13
13
13
13
13
13
13
13
13
13
13
13
13
13
13
13
13
13
13
13
13
13
13
13
13
13
13
13
13
13
13
13
13
13
13
13
13
13
13
13
13
13
13
13
13
13
13
13
13
13
13
13
13
13
13
13
13
13
13
13
13
13
13
13
13
13
13
13
13
13
13
13
13
13
13
13
13
13
13
13
13
13
13
13
13
13
13
13
13
13
13
13
13
13
13
13
13
13
13
13
13
13
13
13
13
13
13
13
13
13
13
13
13
13
13
13
13
13
13
13
13
13
13
13
13
13
13
13
13
13
13
13
13
13
13
13
13
13
13
13
13
13
13
13
13
13
13
13
13
13
13
13
13
13
13
13
13
13
13
13
13
13
13
13
13
13
13
13
13
13
13
13
13
13
13
13
13
13
13
13
13
13
13
13
13
13
13
13
13
13
13
13
13
13
13
13
13
13
13
13
13
13
13
13
13
13
13
13
13
13
13
13
13
13
13
13
13
13
13
13
13
13
13
13
13
13
13
13
13
13
13
13
13
13
13
13
13
13
13
13
13
13
13
13
13
13
13
13
13
13
13
13
13
13
13
13
13
13
13
13
13
13
13
13
13
13
13
13
13
13
13
13
13
13
13
13
13
13
13
13
13
13
13
13
13
13
13
13
13
13
13
13
13
13
13
13
13
13
13
13
13
13
13
13
13
13
13
13
13
13
13
13
13
13
13
13
13
13
13
13
13
13
13
13
13
13
13
13
13
13
13
13
13
13
13
13
13
13
13
13
13
13
13
13
13
13
13
13
13
13
13
13
13
13
13
13
13
13
13
13
13
13
13
13
13
13
13
13
13
13
13
13
13
13
13
13
13
13
13
13
13
13
13
13
13
13
13
13
13
13
13
13
13
13
13
13
13
13
13
13
13
13
13
13
13
13
13
13
13
13
13
13
13
13
13
13
13
13
13
13
13
13
13
13
13
13
13
13
13
13
13
13
13
13
13
13
13
13
13
13
13
13
13
13
13
13
13
13
13
13
13
13
13
13
13
13
13
13
13
13
13
13
13
13
13
13
13
13
13
13
13
13
13
13
13
13
13
13
13
13
13
13
13
13
13
13
13
13
13
13
13
13
13
13
13
13
13
13
13
13
13
13
13
13
13
13
13
13
13
13
13
13
13
13
13
13
13
13
13
13
13
13
13
13
13
13
13
13
13
13
13
13
13
13
13
13
13
13
13
13
13
13
13
13
13
13
13
13
13
13
13
13
13
13
13
13
13
13
13
13
13
13
13
13
13
13
13
13
13
13
13
13
13
13
13
13
13
13
13
13
13
13
13
13
13
13
13
13
13
13
13
13
13
13
13
13
13
13
13
13
13
13
13
13
13
13
13
13
13
13
13
13
13
13
13
13
13
13
13
13
13
13
13
13
13
13
13
13
13
13
13
13
13
13
13
13
13
13
13
13
13
13
13
13
13
13
13
13
13
13
13
13
13
13
13
13
13
13
13
13
13
13
13
13
13
13
13
13
13
13
13
13
13
13
13
13
13
13
13
13
13
13
13
13
13
13
13
13
13
13
13
13
13
13
13
13
13
13
13
13
13
13
13
13
13
13
13
13
13
13
13
13
13
13
13
13
13
13
13
13
13
13
13
13
13
13
13
13
13
13
13
13
13
13
13
13
13
13
13
13
13
13
13
13
13
13
13
13
13
13
13
13
13
13
13
13
13
13
13
13
13
13
13
13
13
13
13
13
13
13
13
13
13
13
13
13
13
13
13
13
13
13
13
13
13
13
13
13
13
13
13
13
13
13
13
13
13
13
13
13
13
13
13
13
13
13
13
13
13
13
13
13
13
13
13
13
13
13
13
13
13
13
13
13
13
13
13
13
13
13
13
13
13
13
13
13
13
13
13
13
13
13
13
13
13
13
13
13
13
13
13
13
13
13
13
13
13
13
13
13
13
13
13
13
13
13
13
13
13
13
13
13
13
13
13
13
13
13
13
13
13
13
13
13

POINT_DATA 2586
VECTORS displacement float
-3.37527e-10 2.55153e-08 1.59808e-08
1.97547e-09 2.53465e-08 1.59964e-08
-2.12875e-08 1.58532e-08 1.67847e-08
-2.10851e-08 1.51081e-08 1.67919e-08
-2.23532e-08 1.3905e-08 1.72748e-08
-2.23765e-08 -1.39184e-08 1.72765e-08
-2.11088e-08 -1.5122e-08 1.67947e-08
-2.1311e-08 -1.58672e-08 1.67877e-08
-3.39596e-10 -2.54643e-08 1.60289e-08
1.96915e-09 -2.5372e-08 1.59537e-08
2.10823e-08 -1.31812e-08 1.59395e-08
2.22339e-08 -1.12017e-08 1.59808e-08
2.22628e-08 1.12155e-08 1.59881e-08
2.11039e-08 1.32278e-08 1.59873e-08
0 0 0
2.16113e-09 2.6002e-08 1.59581e-08
9.80753e-10 2.74928e-08 1.60175e-08
3.26715e-09 5.08427e-08 1.60292e-08
4.25663e-09 5.24834e-08 1.59205e-08
4.11291e-09 5.33661e-08 1.59438e-08
2.35008e-08 6.34446e-08 1.58374e-08
2.65799e-08 6.33554e-08 1.57633e-08
4.56835e-08 5.09761e-08 1.57764e-08
4.71256e-08 4.82673e-08 1.57976e-08
4.5729e-08 2.6394e-08 1.59711e-08
4.39916e-08 2.43806e-08 1.59514e-08
2.34402e-08 1.31622e-08 1.59418e-08
2.48556e-08 3.7339e-08 6.34986e-09
2.35739e-08 1.25344e-08 1.59168e-08
4.66365e-08 2.47952e-08 1.60043e-08
6.57523e-08 1.40672e-08 1.5791e-08
6.72928e-08 1.14187e-08 1.58118e-08
6.72753e-08 -1.1443e-08 1.58002e-08
6.57342e-08 -1.4096e-08 1.57817e-08
4.66189e-08 -2.48495e-08 1.59052e-08
4.39894e-08 -2.43683e-08 1.5978e-08
2.34222e-08 -1.31963e-08 1.59849e-08
2.355e-08 -1.25565e-08 1.59454e-08
4.54622e-08 9.58721e-12 6.33212e-09
4.572e-08 -2.63953e-08 1.59718e-08
4.71176e-08 -4.82854e-08 1.58167e-08
4.56707e-08 -5.09897e-08 1.57938e-08
2.65626e-08 -6.33521e-08 1.57613e-08
2.34832e-08 -6.34422e-08 1.58359e-08
4.09258e-09 -5.33563e-08 1.59396e-08
4.23569e-09 -5.24735e-08 1.59161e-08
3.24099e-09 -5.08301e-08 1.60222e-08
9.87047e-10 -2.74749e-08 1.60255e-08
2.16052e-09 -2.60162e-08 1.593e-08
2.48289e-08 -3.75252e-08 6.35041e-09
2.58183e-09 -5.34363e-08 1.6003e-08
-1.37398e-08 -6.7994e-08 1.58306e-08
-1.68123e-08 -6.83744e-08 1.59027e-08
-3.88716e-08 -6.14637e-08 1.58862e-08
-3.8894e-08 -6.05553e-08 1.5862e-08
-4.08433e-08 -5.88754e-08 1.59376e-08
-4.73133e-08 -3.72625e-08 1.70177e-08
-4.63183e-08 -3.52397e-08 1.73293e-08
-4.68668e-08 -3.46126e-08 1.75529e-08
-2.37202e-08 -1.63641e-08 1.72786e-08
-1.82222e-08 -4.14498e-08 6.40369e-09
-5.01579e-08 -3.56147e-08 1.81032e-08
-8.29992e-08 -2.04399e-08 1.9162e-08
-8.28201e-08 -1.95819e-08 1.9159e-08
-8.45862e-08 -1.78941e-08 1.91775e-08
-8.45821e-08 1.78874e-08 1.91777e-08
-8.28153e-08 1.95749e-08 1.91592e-08
-8.2994e-08 2.0433e-08 1.91622e-08
-5.00993e-08 3.55944e-08 1.80797e-08
-4.69079e-08 3.45961e-08 1.75828e-08
-2.36995e-08 1.63475e-08 1.72766e-08
-4.97951e-08 -5.33504e-12 1.80364e-08
-4.63509e-08 3.52236e-08 1.73525e-08
-4.73326e-08 3.72504e-08 1.70308e-08
-4.08176e-08 5.88586e-08 1.59384e-08
-3.88688e-08 6.05378e-08 1.58633e-08
-3.88464e-08 6.14464e-08 1.58875e-08
-1.69118e-08 6.83595e-08 1.58345e-08
-1.38396e-08 6.7999e-08 1.59073e-08
2.60288e-09 5.34458e-08 1.60115e-08
-1.82078e-08 4.14971e-08 6.40034e-09
-3.37527e-10 2.55153e-08 -1.59808e-08
1.97547e-09 2.53465e-08 -1.59964e-08
-2.12875e-08 1.58532e-08 -1.67847e-08
-2.10851e-08 1.51081e-08 -1.67919e-08
-2.23532e-08 1.3905e-08 -1.72748e-08
-2.23765e-08 -1.39184e-08 -1.72765e-08
-2.11088e-08 -1.5122e-08 -1.67947e-08
-2.1311e-08 -1.58672e-08 -1.67877e-08
-3.39596e-10 -2.54643e-08 -1.60289e-08
1.96915e-09 -2.5372e-08 -1.59537e-08
2.10823e-08 -1.31812e-08 -1.59395e-08
2.22339e-08 -1.12017e-08 -1.59808e-08
2.22628e-08 1.12155e-08 -1.59881e-08
2.11039e-08 1.32278e-08 -1.59873e-08
0 0 0
2.16113e-09 2.6002e-08 -1.59581e-08
9.80753e-10 2.74928e-08 -1.60175e-08
3.26715e-09 5.08427e-08 -1.60292e-08
4.25663e-09 5.24834e-08 -1.59205e-08
4.11291e-09 5.33661e-08 -1.59438e-08
2.35008e-08 6.34446e-08 -1.58374e-08
2.65799e-08 6.33554e-08 -1.57633e-08
4.56835e-08 5.09761e-08 -1.57764e-08
4.71256e-08 4.82673e-08 -1.57976e-08
4.5729e-08 2.6394e-08 -1.59711e-08
4.39916e-08 2.43806e-08 -1.59514e-08
2.34402e-08 1.31622e-08 -1.59418e-08
2.48556e-08 3.7339e-08 -6.34986e-09
2.35739e-08 1.25344e-08 -1.59168e-08
4.66365e-08 2.47952e-08 -1.60043e-08
6.57523e-08 1.40672e-08 -1.5791e-08
6.72928e-08 1.14187e-08 -1.58118e-08
6.72753e-08 -1.1443e-08 -1.58002e-08
6.57342e-08 -1.4096e-08 -1.57817e-08
4.66189e-08 -2.48495e-08 -1.59052e-08
4.39894e-08 -2.43683e-08 -1.5978e-08
2.34222e-08 -1.31963e-08 -1.59849e-08
2.355e-08 -1.25565e-08 -1.59454e-08
4.54622e-08 9.58721e-12 -6.33212e-09
4.572e-08 -2.63953e-08 -1.59718e-08
4.71176e-08 -4.82854e-08 -1.58167e-08
4.56707e-08 -5.09897e-08 -1.57938e-08
2.65626e-08 -6.33521e-08 -1.57613e-08
2.34832e-08 -6.34422e-08 -1.58359e-08
4.09258e-09 -5.33563e-08 -1.59396e-08
4.23569e-09 -5.24735e-08 -1.59161e-08
3.24099e-09 -5.08301e-08 -1.60222e-08
9.87047e-10 -2.74749e-08 -1.60255e-08
2.16052e-09 -2.60162e-08 -1.593e-08
2.48289e-08 -3.75252e-08 -6.35041e-09
2.58183e-09 -5.34363e-08 -1.6003e-08
-1.37398e-08 -6.7994e-08 -1.58306e-08
-1.68123e-08 -6.83744e-08 -1.59027e-08
-3.88716e-08 -6.14637e-08 -1.58862e-08
-3.8894e-08 -6.05553e-08 -1.5862e-08
-4.08433e-08 -5.88754e-08 -1.59376e-08
-4.73133e-08 -3.72625e-08 -1.70177e-08
-4.63183e-08 -3.52397e-08 -1.73293e-08
-4.68668e-08 -3.46126e-08 -1.75529e-08
-2.37202e-08 -1.63641e-08 -1.72786e-08
-1.82222e-08 -4.14498e-08 -6.40369e-09
-5.01579e-08 -3.56147e-08 -1.81032e-08
-8.29992e-08 -2.04399e-08 -1.9162e-08
-8.28201e-08 -1.95819e-08 -1.9159e-08
-8.45862e-08 -1.78941e-08 -1.91775e-08
-8.45821e-08 1.78874e-08 -1.91777e-08
-8.28153e-08 1.95749e-08 -1.91592e-08
-8.2994e-08 2.0433e-08 -1.91622e-08
-5.00993e-08 3.55944e-08 -1.80797e-08
-4.69079e-08 3.45961e-08 -1.75828e-08
-2.36995e-08 1.63475e-08 -1.72766e-08
-4.97951e-08 -5.33504e-12 -1.80364e-08
-4.63509e-08 3.52236e-08 -1.73525e-08
-4.73326e-08 3.72504e-08 -1.70308e-08
-4.08176e-08 5.88586e-08 -1.59384e-08
-3.88688e-08 6.05378e-08 -1.58633e-08
-3.88464e-08 6.14464e-08 -1.58875e-08
-1.69118e-08 6.83595e-08 -1.58345e-08
-1.38396e-08 6.7999e-08 -1.59073e-08
2.60288e-09 5.34458e-08 -1.60115e-08
-1.82078e-08 4.14971e-08 -6.40034e-09
7.95988e-10 2.48377e-08 1.59183e-08
-1.63607e-08 1.81688e-08 1.53956e-08
-1.25026e-08 1.98158e-08 1.42884e-08
-8.93707e-09 2.13752e-08 1.4162e-08
-5.16437e-09 2.30825e-08 1.49935e-08
-2.11206e-08 1.54707e-08 1.67949e-08
-2.14527e-08 1.42211e-08 1.69684e-08
-2.24034e-08 -7.84063e-09 1.67704e-08
-2.23192e-08 -2.55423e-09 1.63301e-08
-2.2308e-08 2.54384e-09 1.63144e-08
-2.2389e-08 7.82805e-09 1.67755e-08
-2.14763e-08 -1.42348e-08 1.69706e-08
-2.11442e-08 -1.54848e-08 1.67978e-08
-5.15727e-09 -2.3085e-08 1.49886e-08
-8.9521e-09 -2.13678e-08 1.42098e-08
-1.25252e-08 -1.98202e-08 1.42967e-08
-1.63845e-08 -1.81799e-08 1.54002e-08
7.72192e-10 -2.48231e-08 1.59211e-08
1.65106e-08 -1.59493e-08 1.48861e-08
1.30553e-08 -1.80529e-08 1.39614e-08
9.87744e-09 -2.00978e-08 1.39635e-08
6.47151e-09 -2.23257e-08 1.48978e-08
2.10878e-08 -1.18916e-08 1.59183e-08
2.20739e-08 5.89394e-09 1.48743e-08
2.20399e-08 1.86226e-09 1.39773e-08
2.20251e-08 -1.86007e-09 1.40113e-08
2.20701e-08 -5.88522e-09 1.48609e-08
2.11169e-08 1.19197e-08 1.594e-08
6.47271e-09 2.23549e-08 1.4885e-08
9.88936e-09 2.01195e-08 1.40073e-08
1.30776e-08 1.80813e-08 1.4007e-08
1.65435e-08 1.59504e-08 1.48791e-08
0 0 0
0 0 0
0 0 0
2.14865e-09 2.56914e-08 1.59989e-08
1.77557e-09 2.69149e-08 1.59298e-08
1.30773e-09 3.29121e-08 1.49217e-08
1.75138e-09 3.70574e-08 1.40881e-08
2.2306e-09 4.0928e-08 1.40589e-08
2.69259e-09 4.51746e-08 1.49438e-08
3.93039e-09 5.13716e-08 1.59251e-08
4.21988e-09 5.29326e-08 1.59498e-08
9.48079e-09 5.45931e-08 1.49891e-08
1.32185e-08 5.52782e-08 1.42317e-08
1.6163e-08 5.68606e-08 1.42381e-08
1.91409e-08 5.95849e-08 1.4911e-08
2.49542e-08 6.27214e-08 1.57357e-08
3.06442e-08 5.91369e-08 1.49326e-08
3.34729e-08 5.60261e-08 1.41564e-08
3.6354e-08 5.41026e-08 1.41715e-08
4.0178e-08 5.28788e-08 1.4875e-08
4.58145e-08 4.92658e-08 1.5748e-08
4.55116e-08 4.25592e-08 1.48909e-08
4.41031e-08 3.86783e-08 1.42641e-08
4.38346e-08 3.53091e-08 1.42373e-08
4.46065e-08 3.15988e-08 1.50213e-08
4.42875e-08 2.56545e-08 1.59227e-08
2.81917e-08 1.58419e-08 1.49082e-08
3.18292e-08 1.77704e-08 1.39881e-08
3.52472e-08 1.96038e-08 1.39998e-08
3.9003e-08 2.16161e-08 1.49169e-08
2.22835e-08 1.3755e-08 1.58966e-08
2.37444e-08 3.90555e-08 6.44294e-09
2.19094e-08 3.7575e-08 6.3699e-09
2.32861e-08 3.59745e-08 6.28606e-09
2.31005e-08 1.17075e-08 1.59014e-08
2.35931e-08 1.28245e-08 1.595e-08
4.52316e-08 2.39718e-08 1.59065e-08
5.04498e-08 2.10254e-08 1.50178e-08
5.32029e-08 1.83227e-08 1.42838e-08
5.61566e-08 1.66825e-08 1.42141e-08
6.01091e-08 1.57276e-08 1.48956e-08
6.59462e-08 1.23599e-08 1.57635e-08
6.59526e-08 5.70209e-09 1.49037e-08
6.48996e-08 1.71223e-09 1.41692e-08
6.48515e-08 -1.78161e-09 1.42307e-08
6.59541e-08 -5.71895e-09 1.48817e-08
6.59306e-08 -1.23854e-08 1.57523e-08
6.00857e-08 -1.57575e-08 1.48939e-08
5.61293e-08 -1.67048e-08 1.42115e-08
5.31723e-08 -1.83091e-08 1.42281e-08
5.04247e-08 -2.10291e-08 1.50466e-08
4.51555e-08 -2.40212e-08 1.58777e-08
2.81637e-08 -1.58274e-08 1.48973e-08
3.18083e-08 -1.77729e-08 1.40346e-08
3.52324e-08 -1.96073e-08 1.40416e-08
3.89901e-08 -2.16199e-08 1.48965e-08
2.35712e-08 -1.28533e-08 1.59875e-08
2.30709e-08 -1.17086e-08 1.59064e-08
4.40486e-08 1.40752e-09 6.38536e-09
4.22906e-08 9.87124e-11 6.4315e-09
4.38958e-08 -1.48925e-09 6.39484e-09
2.22901e-08 -1.37458e-08 1.58946e-08
4.42803e-08 -2.56502e-08 1.59279e-08
4.46049e-08 -3.16089e-08 1.49994e-08
4.37792e-08 -3.52825e-08 1.4303e-08
4.41392e-08 -3.86376e-08 1.42052e-08
4.54921e-08 -4.25792e-08 1.49191e-08
4.58028e-08 -4.92814e-08 1.57672e-08
4.01567e-08 -5.28733e-08 1.48905e-08
3.63285e-08 -5.41038e-08 1.41783e-08
3.34488e-08 -5.60207e-08 1.41463e-08
3.06253e-08 -5.91326e-08 1.49275e-08
2.49366e-08 -6.27186e-08 1.5734e-08
1.91208e-08 -5.95833e-08 1.4912e-08
1.61417e-08 -5.6853e-08 1.42403e-08
1.32003e-08 -5.52663e-08 1.42326e-08
9.46377e-09 -5.45823e-08 1.49878e-08
4.19937e-09 -5.29228e-08 1.59456e-08
3.90723e-09 -5.13606e-08 1.59195e-08
1.295e-09 -3.29013e-08 1.49352e-08
1.75248e-09 -3.70574e-08 1.40556e-08
2.20414e-09 -4.09243e-08 1.40923e-08
2.68443e-09 -4.51654e-08 1.49314e-08
1.7813e-09 -2.69102e-08 1.59255e-08
2.14613e-09 -2.57119e-08 1.59618e-08
2.3392e-08 -3.58958e-08 6.41763e-09
2.18931e-08 -3.74889e-08 6.36956e-09
2.36062e-08 -3.89849e-08 6.31271e-09
-2.02769e-10 -2.68223e-08 1.59901e-08
2.36053e-09 -5.17822e-08 1.59766e-08
-2.15879e-09 -5.54628e-08 1.50691e-08
-5.33754e-09 -5.70295e-08 1.43224e-08
-7.6949e-09 -5.94557e-08 1.4271e-08
-1.00771e-08 -6.31621e-08 1.50188e-08
-1.54466e-08 -6.75056e-08 1.58027e-08
-2.15164e-08 -6.51517e-08 1.49827e-08
-2.48748e-08 -6.30978e-08 1.43108e-08
-2.8289e-08 -6.21933e-08 1.42867e-08
-3.26628e-08 -6.21365e-08 1.49959e-08
-3.88243e-08 -6.10103e-08 1.58917e-08
-3.96628e-08 -5.93872e-08 1.58537e-08
-4.04573e-08 -5.31907e-08 1.51096e-08
-4.04381e-08 -4.93546e-08 1.4572e-08
-4.15991e-08 -4.60298e-08 1.47654e-08
-4.40329e-08 -4.24355e-08 1.56971e-08
-4.63661e-08 -3.63361e-08 1.70276e-08
-4.6537e-08 -3.49039e-08 1.74658e-08
-2.87389e-08 -2.0106e-08 1.68325e-08
-3.31186e-08 -2.34766e-08 1.64169e-08
-3.74191e-08 -2.67837e-08 1.64367e-08
-4.19186e-08 -3.02692e-08 1.69579e-08
-2.25252e-08 -1.67707e-08 1.69079e-08
-1.99269e-08 -4.0284e-08 6.61839e-09
-2.13367e-08 -4.25158e-08 6.62049e-09
-1.94481e-08 -4.34977e-08 6.43186e-09
-2.35904e-08 -1.49047e-08 1.74072e-08
-4.8776e-08 -3.44302e-08 1.79245e-08
-5.71735e-08 -3.29363e-08 1.83788e-08
-6.37527e-08 -2.99774e-08 1.8528e-08
-7.01754e-08 -2.6888e-08 1.87129e-08
-7.65475e-08 -2.3717e-08 1.89557e-08
-8.28523e-08 -2.00249e-08 1.91636e-08
-8.33786e-08 -1.83817e-08 1.91617e-08
-8.46879e-08 -1.06656e-08 1.90547e-08
-8.47391e-08 -3.55314e-09 1.8964e-08
-8.47389e-08 3.54496e-09 1.89635e-08
-8.46858e-08 1.06579e-08 1.90548e-08
-8.33743e-08 1.83748e-08 1.91619e-08
-8.28473e-08 2.0018e-08 1.91638e-08
-7.654e-08 2.37082e-08 1.89559e-08
-7.01659e-08 2.68744e-08 1.87113e-08
-6.37483e-08 2.99663e-08 1.85196e-08
-5.71716e-08 3.2939e-08 1.83823e-08
-4.87127e-08 3.44087e-08 1.79089e-08
-2.872e-08 2.00841e-08 1.68325e-08
-3.31024e-08 2.34509e-08 1.64204e-08
-3.74049e-08 2.67564e-08 1.64558e-08
-4.19046e-08 3.02516e-08 1.69577e-08
-2.35724e-08 1.48893e-08 1.74059e-08
-5.27334e-08 3.01833e-09 1.81789e-08
-5.57649e-08 -3.14025e-12 1.83353e-08
-5.273e-08 -3.02977e-09 1.81858e-08
-2.25029e-08 1.67554e-08 1.69052e-08
-4.65754e-08 3.48861e-08 1.74928e-08
-4.63876e-08 3.63218e-08 1.70426e-08
-4.40404e-08 4.24215e-08 1.57048e-08
-4.15966e-08 4.60288e-08 1.47676e-08
-4.04223e-08 4.93518e-08 1.45767e-08
-4.04354e-08 5.31765e-08 1.511e-08
-3.96375e-08 5.937e-08 1.58547e-08
-3.87992e-08 6.09929e-08 1.5893e-08
-3.264e-08 6.21131e-08 1.49996e-08
-2.82665e-08 6.21693e-08 1.42859e-08
-2.48646e-08 6.3027e-08 1.42563e-08
-2.15058e-08 6.51222e-08 1.50185e-08
-1.54192e-08 6.75006e-08 1.5807e-08
-1.00694e-08 6.31756e-08 1.49915e-08
-7.68591e-09 5.95177e-08 1.43322e-08
-5.31802e-09 5.70514e-08 1.43316e-08
-2.13447e-09 5.54747e-08 1.50753e-08
2.37862e-09 5.1793e-08 1.59859e-08
-2.0971e-10 2.6854e-08 1.59675e-08
-1.92648e-08 4.35503e-08 6.53578e-09
-2.1321e-08 4.23032e-08 6.62298e-09
-2.00706e-08 4.03475e-08 6.51268e-09
7.95988e-10 2.48377e-08 -1.59183e-08
-1.63607e-08 1.81688e-08 -1.53956e-08
-1.25026e-08 1.98158e-08 -1.42884e-08
-8.93707e-09 2.13752e-08 -1.4162e-08
-5.16437e-09 2.30825e-08 -1.49935e-08
-2.11206e-08 1.54707e-08 -1.67949e-08
-2.14527e-08 1.42211e-08 -1.69684e-08
-2.24034e-08 -7.84063e-09 -1.67704e-08
-2.23192e-08 -2.55423e-09 -1.63301e-08
-2.2308e-08 2.54384e-09 -1.63144e-08
-2.2389e-08 7.82805e-09 -1.67755e-08
-2.14763e-08 -1.42348e-08 -1.69706e-08
-2.11442e-08 -1.54848e-08 -1.67978e-08
-5.15727e-09 -2.3085e-08 -1.49886e-08
-8.9521e-09 -2.13678e-08 -1.42098e-08
-1.25252e-08 -1.98202e-08 -1.42967e-08
-1.63845e-08 -1.81799e-08 -1.54002e-08
7.72192e-10 -2.48231e-08 -1.59211e-08
1.65106e-08 -1.59493e-08 -1.48861e-08
1.30553e-08 -1.80529e-08 -1.39614e-08
9.87744e-09 -2.00978e-08 -1.39635e-08
6.47151e-09 -2.23257e-08 -1.48978e-08
2.10878e-08 -1.18916e-08 -1.59183e-08
2.20739e-08 5.89394e-09 -1.48743e-08
2.20399e-08 1.86226e-09 -1.39773e-08
2.20251e-08 -1.86007e-09 -1.40113e-08
2.20701e-08 -5.88522e-09 -1.48609e-08
2.11169e-08 1.19197e-08 -1.594e-08
6.47271e-09 2.23549e-08 -1.4885e-08
9.88936e-09 2.01195e-08 -1.40073e-08
1.30776e-08 1.80813e-08 -1.4007e-08
1.65435e-08 1.59504e-08 -1.48791e-08
0 0 0
0 0 0
0 0 0
2.14865e-09 2.56914e-08 -1.59989e-08
1.77557e-09 2.69149e-08 -1.59298e-08
1.30773e-09 3.29121e-08 -1.49217e-08
1.75138e-09 3.70574e-08 -1.40881e-08
2.2306e-09 4.0928e-08 -1.40589e-08
2.69259e-09 4.51746e-08 -1.49438e-08
3.93039e-09 5.13716e-08 -1.59251e-08
4.21988e-09 5.29326e-08 -1.59498e-08
9.48079e-09 5.45931e-08 -1.49891e-08
1.32185e-08 5.52782e-08 -1.42317e-08
1.6163e-08 5.68606e-08 -1.42381e-08
1.91409e-08 5.95849e-08 -1.4911e-08
2.49542e-08 6.27214e-08 -1.57357e-08
3.06442e-08 5.91369e-08 -1.49326e-08
3.34729e-08 5.60261e-08 -1.41564e-08
3.6354e-08 5.41026e-08 -1.41715e-08
4.0178e-08 5.28788e-08 -1.4875e-08
4.58145e-08 4.92658e-08 -1.5748e-08
4.55116e-08 4.25592e-08 -1.48909e-08
4.41031e-08 3.86783e-08 -1.42641e-08
4.38346e-08 3.53091e-08 -1.42373e-08
4.46065e-08 3.15988e-08 -1.50213e-08
4.42875e-08 2.56545e-08 -1.59227e-08
2.81917e-08 1.58419e-08 -1.49082e-08
3.18292e-08 1.77704e-08 -1.39881e-08
3.52472e-08 1.96038e-08 -1.39998e-08
3.9003e-08 2.16161e-08 -1.49169e-08
2.22835e-08 1.3755e-08 -1.58966e-08
2.37444e-08 3.90555e-08 -6.44294e-09
2.19094e-08 3.7575e-08 -6.3699e-09
2.32861e-08 3.59745e-08 -6.28606e-09
2.31005e-08 1.17075e-08 -1.59014e-08
2.35931e-08 1.28245e-08 -1.595e-08
4.52316e-08 2.39718e-08 -1.59065e-08
5.04498e-08 2.10254e-08 -1.50178e-08
5.32029e-08 1.83227e-08 -1.42838e-08
5.61566e-08 1.66825e-08 -1.42141e-08
6.01091e-08 1.57276e-08 -1.48956e-08
6.59462e-08 1.23599e-08 -1.57635e-08
6.59526e-08 5.70209e-09 -1.49037e-08
6.48996e-08 1.71223e-09 -1.41692e-08
6.48515e-08 -1.78161e-09 -1.42307e-08
6.59541e-08 -5.71895e-09 -1.48817e-08
6.59306e-08 -1.23854e-08 -1.57523e-08
6.00857e-08 -1.57575e-08 -1.48939e-08
5.61293e-08 -1.67048e-08 -1.42115e-08
5.31723e-08 -1.83091e-08 -1.42281e-08
5.04247e-08 -2.10291e-08 -1.50466e-08
4.51555e-08 -2.40212e-08 -1.58777e-08
2.81637e-08 -1.58274e-08 -1.48973e-08
3.18083e-08 -1.77729e-08 -1.40346e-08
3.52324e-08 -1.96073e-08 -1.40416e-08
3.89901e-08 -2.16199e-08 -1.48965e-08
2.35712e-08 -1.28533e-08 -1.59875e-08
2.30709e-08 -1.17086e-08 -1.59064e-08
4.40486e-08 1.40752e-09 -6.38536e-09
4.22906e-08 9.87124e-11 -6.4315e-09
4.38958e-08 -1.48925e-09 -6.39484e-09
2.22901e-08 -1.37458e-08 -1.58946e-08
4.42803e-08 -2.56502e-08 -1.59279e-08
4.46049e-08 -3.16089e-08 -1.49994e-08
4.37792e-08 -3.52825e-08 -1.4303e-08
4.41392e-08 -3.86376e-08 -1.42052e-08
4.54921e-08 -4.25792e-08 -1.49191e-08
4.58028e-08 -4.92814e-08 -1.57672e-08
4.01567e-08 -5.28733e-08 -1.48905e-08
3.63285e-08 -5.41038e-08 -1.41783e-08
3.34488e-08 -5.60207e-08 -1.41463e-08
3.06253e-08 -5.91326e-08 -1.49275e-08
2.49366e-08 -6.27186e-08 -1.5734e-08
1.91208e-08 -5.95833e-08 -1.4912e-08
1.61417e-08 -5.6853e-08 -1.42403e-08
1.32003e-08 -5.52663e-08 -1.42326e-08
9.46377e-09 -5.45823e-08 -1.49878e-08
4.19937e-09 -5.29228e-08 -1.59456e-08
3.90723e-09 -5.13606e-08 -1.59195e-08
1.295e-09 -3.29013e-08 -1.49352e-08
1.75248e-09 -3.70574e-08 -1.40556e-08
2.20414e-09 -4.09243e-08 -1.40923e-08
2.68443e-09 -4.51654e-08 -1.49314e-08
1.7813e-09 -2.69102e-08 -1.59255e-08
2.14613e-09 -2.57119e-08 -1.59618e-08
2.3392e-08 -3.58958e-08 -6.41763e-09
2.18931e-08 -3.74889e-08 -6.36956e-09
2.36062e-08 -3.89849e-08 -6.31271e-09
-2.02769e-10 -2.68223e-08 -1.59901e-08
2.36053e-09 -5.17822e-08 -1.59766e-08
-2.15879e-09 -5.54628e-08 -1.50691e-08
-5.33754e-09 -5.70295e-08 -1.43224e-08
-7.6949e-09 -5.94557e-08 -1.4271e-08
-1.00771e-08 -6.31621e-08 -1.50188e-08
-1.54466e-08 -6.75056e-08 -1.58027e-08
-2.15164e-08 -6.51517e-08 -1.49827e-08
-2.48748e-08 -6.30978e-08 -1.43108e-08
-2.8289e-08 -6.21933e-08 -1.42867e-08
-3.26628e-08 -6.21365e-08 -1.49959e-08
-3.88243e-08 -6.10103e-08 -1.58917e-08
-3.96628e-08 -5.93872e-08 -1.58537e-08
-4.04573e-08 -5.31907e-08 -1.51096e-08
-4.04381e-08 -4.93546e-08 -1.4572e-08
-4.15991e-08 -4.60298e-08 -1.47654e-08
-4.40329e-08 -4.24355e-08 -1.56971e-08
-4.63661e-08 -3.63361e-08 -1.70276e-08
-4.6537e-08 -3.49039e-08 -1.74658e-08
-2.87389e-08 -2.0106e-08 -1.68325e-08
-3.31186e-08 -2.34766e-08 -1.64169e-08
-3.74191e-08 -2.67837e-08 -1.64367e-08
-4.19186e-08 -3.02692e-08 -1.69579e-08
-2.25252e-08 -1.67707e-08 -1.69079e-08
-1.99269e-08 -4.0284e-08 -6.61839e-09
-2.13367e-08 -4.25158e-08 -6.62049e-09
-1.94481e-08 -4.34977e-08 -6.43186e-09
-2.35904e-08 -1.49047e-08 -1.74072e-08
-4.8776e-08 -3.44302e-08 -1.79245e-08
-5.71735e-08 -3.29363e-08 -1.83788e-08
-6.37527e-08 -2.99774e-08 -1.8528e-08
-7.01754e-08 -2.6888e-08 -1.87129e-08
-7.65475e-08 -2.3717e-08 -1.89557e-08
-8.28523e-08 -2.00249e-08 -1.91636e-08
-8.33786e-08 -1.83817e-08 -1.91617e-08
-8.46879e-08 -1.06656e-08 -1.90547e-08
-8.47391e-08 -3.55314e-09 -1.8964e-08
-8.47389e-08 3.54496e-09 -1.89635e-08
-8.46858e-08 1.06579e-08 -1.90548e-08
-8.33743e-08 1.83748e-08 -1.91619e-08
-8.28473e-08 2.0018e-08 -1.91638e-08
-7.654e-08 2.37082e-08 -1.89559e-08
-7.01659e-08 2.68744e-08 -1.87113e-08
-6.37483e-08 2.99663e-08 -1.85196e-08
-5.71716e-08 3.2939e-08 -1.83823e-08
-4.87127e-08 3.44087e-08 -1.79089e-08
-2.872e-08 2.00841e-08 -1.68325e-08
-3.31024e-08 2.34509e-08 -1.64204e-08
-3.74049e-08 2.67564e-08 -1.64558e-08
-4.19046e-08 3.02516e-08 -1.69577e-08
-2.35724e-08 1.48893e-08 -1.74059e-08
-5.27334e-08 3.01833e-09 -1.81789e-08
-5.57649e-08 -3.14025e-12 -1.83353e-08
-5.273e-08 -3.02977e-09 -1.81858e-08
-2.25029e-08 1.67554e-08 -1.69052e-08
-4.65754e-08 3.48861e-08 -1.74928e-08
-4.63876e-08 3.63218e-08 -1.70426e-08
-4.40404e-08 4.24215e-08 -1.57048e-08
-4.15966e-08 4.60288e-08 -1.47676e-08
-4.04223e-08 4.93518e-08 -1.45767e-08
-4.04354e-08 5.31765e-08 -1.511e-08
-3.96375e-08 5.937e-08 -1.58547e-08
-3.87992e-08 6.09929e-08 -1.5893e-08
-3.264e-08 6.21131e-08 -1.49996e-08
-2.82665e-08 6.21693e-08 -1.42859e-08
-2.48646e-08 6.3027e-08 -1.42563e-08
-2.15058e-08 6.51222e-08 -1.50185e-08
-1.54192e-08 6.75006e-08 -1.5807e-08
-1.00694e-08 6.31756e-08 -1.49915e-08
-7.68591e-09 5.95177e-08 -1.43322e-08
-5.31802e-09 5.70514e-08 -1.43316e-08
-2.13447e-09 5.54747e-08 -1.50753e-08
2.37862e-09 5.1793e-08 -1.59859e-08
-2.0971e-10 2.6854e-08 -1.59675e-08
-1.92648e-08 4.35503e-08 -6.53578e-09
-2.1321e-08 4.23032e-08 -6.62298e-09
-2.00706e-08 4.03475e-08 -6.51268e-09
6.60481e-09 -6.37367e-09 1.077e-08
6.66857e-09 6.73396e-09 1.09209e-08
-6.40768e-09 7.44715e-09 1.12273e-08
-6.44895e-09 -7.4634e-09 1.12496e-08
-1.48336e-08 -1.14095e-08 1.51323e-08
-1.48086e-08 1.13934e-08 1.51268e-08
6.06135e-11 8.16607e-09 1.01772e-08
-7.50597e-09 2.11241e-10 1.03833e-08
7.33395e-09 -2.32161e-10 9.6912e-09
-2.30566e-11 -8.15562e-09 1.01752e-08
-1.7723e-08 1.22347e-08 1.61188e-08
-1.77473e-08 -1.22495e-08 1.61223e-08
1.36897e-08 7.41939e-09 1.37411e-08
1.436e-08 -7.68337e-09 1.39862e-08
2.56064e-11 -1.64838e-08 1.3975e-08
7.75037e-10 1.64539e-08 1.39676e-08
5.29165e-09 1.28484e-08 1.27139e-08
-4.75472e-09 -1.34583e-08 1.28526e-08
-1.37641e-08 3.87681e-09 1.39416e-08
-1.40172e-08 -3.81521e-09 1.4038e-08
5.26023e-09 -1.33425e-08 1.28306e-08
-4.69165e-09 1.40537e-08 1.30023e-08
2.39807e-09 -2.40645e-09 6.31703e-09
2.7299e-09 3.03476e-09 7.03245e-09
-2.67635e-09 2.62301e-09 6.80823e-09
-2.83866e-09 -2.79863e-09 7.05894e-09
-1.84924e-08 1.45711e-08 1.63099e-08
-1.85164e-08 -1.45847e-08 1.63132e-08
-1.01961e-08 1.27584e-08 1.36619e-08
-1.02216e-08 -1.27267e-08 1.36614e-08
1.44748e-08 -2.14481e-09 1.30021e-08
1.3706e-08 2.4985e-09 1.27926e-08
-1.08612e-08 -7.00552e-09 1.31134e-08
-1.08291e-08 6.98696e-09 1.31002e-08
2.36837e-09 -2.00803e-08 1.50198e-08
-1.23338e-09 2.03078e-08 1.50564e-08
1.04835e-08 -1.14646e-08 1.33108e-08
1.04724e-08 1.12371e-08 1.32811e-08
7.6431e-10 4.24649e-09 7.2579e-09
5.85156e-10 -4.11869e-09 7.0925e-09
-4.00737e-09 -7.53344e-10 7.42892e-09
3.87703e-09 -4.65402e-10 6.89119e-09
-1.83264e-08 8.22625e-09 1.5932e-08
-1.83484e-08 -8.24019e-09 1.59351e-08
9.60573e-09 -3.60534e-09 1.13966e-08
1.56317e-08 1.13303e-08 1.48363e-08
1.57126e-08 -1.13848e-08 1.48587e-08
8.98506e-09 3.66773e-09 1.111e-08
-2.9901e-09 7.23049e-09 9.96357e-09
-2.86715e-09 -7.06365e-09 9.83254e-09
-6.34114e-09 3.22715e-09 9.95787e-09
3.38835e-09 -6.27995e-09 9.54e-09
3.51082e-09 6.3665e-09 9.60968e-09
-5.89479e-09 -2.96512e-09 9.56872e-09
-4.40897e-09 -1.76623e-08 1.40549e-08
5.21436e-09 1.70786e-08 1.39438e-08
2.67974e-09 2.07937e-08 1.51964e-08
-1.48106e-09 -2.1026e-08 1.52364e-08
-1.97478e-08 1.07478e-08 1.65669e-08
-1.97698e-08 -1.07621e-08 1.65682e-08
-1.73262e-08 9.65342e-11 1.50222e-08
1.9121e-08 -8.6081e-09 1.53261e-08
1.92117e-08 8.53641e-09 1.53344e-08
3.74868e-09 -1.67552e-08 1.39689e-08
-2.91414e-09 1.72491e-08 1.40755e-08
1.51339e-09 -1.23932e-08 1.24022e-08
-1.0212e-09 1.25529e-08 1.24399e-08
5.38341e-09 1.9401e-09 8.61122e-09
2.11043e-09 1.26441e-08 1.2519e-08
-1.60988e-09 -1.28464e-08 1.2569e-08
9.20545e-09 1.47217e-08 1.34301e-08
5.64105e-09 -2.82787e-09 9.04463e-09
-8.64434e-09 -1.59631e-08 1.36963e-08
1.71038e-08 4.44124e-09 1.39932e-08
1.7397e-08 -4.94618e-09 1.41368e-08
-1.55134e-08 1.43383e-08 1.54126e-08
-1.55372e-08 -1.43519e-08 1.54167e-08
-9.95559e-09 -3.32084e-09 1.2143e-08
-1.4557e-08 -7.78752e-09 1.46974e-08
-1.45134e-08 7.77582e-09 1.46826e-08
-2.05136e-08 1.43809e-08 1.67651e-08
-2.03055e-08 1.28983e-08 1.67947e-08
-2.05373e-08 -1.43948e-08 1.67677e-08
-2.03289e-08 -1.29124e-08 1.67968e-08
9.41144e-09 -1.47979e-08 1.34801e-08
-1.16077e-08 1.03665e-08 1.38726e-08
-1.16363e-08 -1.03812e-08 1.38812e-08
-1.07973e-09 2.28761e-08 1.56044e-08
2.46197e-09 -2.26559e-08 1.55727e-08
-8.83999e-09 1.61133e-08 1.37624e-08
-9.94761e-09 3.45573e-09 1.21488e-08
-1.20725e-08 2.26769e-10 1.30107e-08
1.67999e-08 7.71159e-10 1.33483e-08
7.14905e-09 1.0161e-08 1.21653e-08
1.852e-08 1.21572e-08 1.55913e-08
1.85019e-08 -1.21692e-08 1.55743e-08
6.86979e-09 -1.00155e-08 1.20496e-08
1.0116e-08 7.40655e-09 1.24689e-08
-6.40845e-09 -1.08672e-08 1.23276e-08
-4.56786e-10 2.17162e-09 4.78913e-09
-7.2728e-10 -2.24701e-09 5.03689e-09
-2.06924e-09 5.40589e-10 4.94296e-09
2.16503e-09 8.23174e-10 5.09514e-09
-6.46137e-09 1.10514e-08 1.23815e-08
1.03594e-08 -7.62308e-09 1.25998e-08
-1.83233e-08 4.8608e-09 1.55683e-08
-1.84518e-08 -4.81282e-09 1.55983e-08
8.38001e-10 -8.68035e-10 2.98045e-09
2.94522e-09 9.64712e-09 1.1199e-08
9.44989e-10 1.93668e-09 4.60163e-09
-1.69911e-09 -9.72229e-10 4.46081e-09
6.97927e-09 -1.73816e-08 1.3841e-08
3.14939e-09 -9.88005e-09 1.1337e-08
1.15834e-08 1.58015e-10 1.18472e-08
-3.09351e-09 -1.03582e-08 1.15178e-08
5.26665e-09 4.11957e-09 9.26306e-09
-1.69517e-08 1.01498e-08 1.57424e-08
-1.69786e-08 -1.01646e-08 1.57476e-08
-1.27685e-08 -1.58136e-08 1.45198e-08
-1.26973e-08 1.56555e-08 1.45077e-08
-2.97493e-09 1.04878e-08 1.15648e-08
1.24211e-08 4.77029e-09 1.27533e-08
-6.2155e-09 1.7963e-08 1.39475e-08
1.27238e-08 1.02461e-08 1.38404e-08
1.27922e-08 -1.03494e-08 1.38664e-08
1.30673e-08 -4.96342e-09 1.30174e-08
-9.45039e-10 9.95975e-10 3.26651e-09
-1.16959e-09 4.91845e-09 7.92325e-09
-1.20399e-09 -4.9241e-09 7.92586e-09
-4.31311e-09 1.1503e-09 7.80494e-09
-4.34875e-09 5.20262e-09 9.40243e-09
-4.25887e-09 -5.3539e-09 9.43615e-09
-8.80826e-09 -9.39893e-09 1.26715e-08
4.39297e-09 -4.36603e-09 8.89456e-09
-8.7804e-09 9.40527e-09 1.26625e-08
-1.29081e-08 1.2901e-08 1.45293e-08
-1.29423e-08 -1.29353e-08 1.45372e-08
-7.76333e-09 5.85326e-09 1.14437e-08
-7.90384e-09 -5.81372e-09 1.15026e-08
4.59316e-10 -1.71999e-09 4.10011e-09
1.64715e-09 -4.34863e-10 4.03899e-09
1.33759e-08 1.37979e-08 1.42033e-08
1.33695e-08 -1.3802e-08 1.41979e-08
9.26352e-10 2.23912e-08 1.55958e-08
4.25293e-10 -2.24084e-08 1.56027e-08
2.94248e-08 3.07613e-08 1.12976e-08
3.05303e-08 4.35858e-08 1.13755e-08
1.79672e-08 4.4411e-08 1.13667e-08
1.65812e-08 3.11992e-08 1.1275e-08
1.01417e-08 4.82479e-08 1.45459e-08
8.38397e-09 2.86037e-08 1.44855e-08
2.40892e-08 4.52778e-08 1.06854e-08
1.61336e-08 3.81679e-08 1.04136e-08
3.07533e-08 3.7146e-08 1.05139e-08
2.29255e-08 2.97382e-08 1.06156e-08
7.39908e-09 4.92888e-08 1.53201e-08
5.5586e-09 2.82798e-08 1.53001e-08
3.8208e-08 4.48557e-08 1.40827e-08
3.63915e-08 2.98186e-08 1.39015e-08
2.21745e-08 2.18973e-08 1.39881e-08
2.43406e-08 5.36704e-08 1.4014e-08
2.00139e-08 5.01064e-08 1.29452e-08
1.77594e-08 2.52909e-08 1.28179e-08
1.04858e-08 4.1631e-08 1.30805e-08
9.60752e-09 3.52569e-08 1.3118e-08
2.90294e-08 5.01343e-08 1.30534e-08
2.76454e-08 2.44836e-08 1.29425e-08
2.58263e-08 3.43986e-08 8.42095e-09
2.64901e-08 4.03683e-08 8.51361e-09
2.10703e-08 4.01035e-08 8.26521e-09
2.05958e-08 3.50244e-08 8.17856e-09
6.77527e-09 5.16168e-08 1.55936e-08
4.70675e-09 2.61814e-08 1.55878e-08
1.47733e-08 4.90981e-08 1.35136e-08
1.26486e-08 2.6694e-08 1.33675e-08
3.73638e-08 3.94072e-08 1.32722e-08
3.62769e-08 3.46399e-08 1.30771e-08
1.24278e-08 3.21261e-08 1.26607e-08
1.36117e-08 4.41397e-08 1.27182e-08
2.42297e-08 1.82724e-08 1.50224e-08
2.65149e-08 5.75273e-08 1.4972e-08
3.43036e-08 4.81569e-08 1.35021e-08
3.26512e-08 2.67226e-08 1.32263e-08
2.46178e-08 4.16072e-08 8.61714e-09
2.24538e-08 3.33828e-08 8.49864e-09
1.93533e-08 3.71895e-08 8.48741e-09
2.76147e-08 3.70679e-08 8.64719e-09
6.51774e-09 4.55708e-08 1.47483e-08
5.16269e-09 3.19782e-08 1.47289e-08
3.29872e-08 4.11253e-08 1.18244e-08
3.99344e-08 4.84776e-08 1.48503e-08
3.83845e-08 2.60894e-08 1.48904e-08
3.21224e-08 3.38692e-08 1.162e-08
2.1355e-08 4.41567e-08 1.0351e-08
2.58543e-08 3.08338e-08 1.0252e-08
1.7579e-08 4.07236e-08 1.02157e-08
2.73395e-08 4.34772e-08 1.02773e-08
1.98616e-08 3.1321e-08 1.02049e-08
1.74735e-08 3.52596e-08 9.8589e-09
1.77391e-08 2.11589e-08 1.39815e-08
2.0412e-08 5.43032e-08 1.40803e-08
2.29021e-08 5.83855e-08 1.51368e-08
2.03241e-08 1.76382e-08 1.51939e-08
5.42841e-09 4.79143e-08 1.54293e-08
3.68457e-09 2.9955e-08 1.54158e-08
6.72545e-09 3.87385e-08 1.35683e-08
4.33035e-08 4.58762e-08 1.52616e-08
4.21111e-08 2.87839e-08 1.54019e-08
2.76604e-08 5.37964e-08 1.40612e-08
2.58747e-08 2.13582e-08 1.4008e-08
2.91529e-08 3.92757e-08 9.71773e-09
2.39541e-08 2.5668e-08 1.2531e-08
2.56158e-08 4.94359e-08 1.26105e-08
2.28368e-08 4.98004e-08 1.27203e-08
2.08356e-08 2.55078e-08 1.26409e-08
1.38608e-08 2.33343e-08 1.35037e-08
1.65634e-08 5.19581e-08 1.3708e-08
3.95493e-08 3.26842e-08 1.42098e-08
4.0712e-08 4.21713e-08 1.42664e-08
9.71525e-09 5.09872e-08 1.49267e-08
7.5451e-09 2.59215e-08 1.48542e-08
1.3538e-08 3.52944e-08 1.17325e-08
8.84057e-09 3.18844e-08 1.38968e-08
1.01093e-08 4.50107e-08 1.39288e-08
4.80907e-09 5.16497e-08 1.58619e-08
5.01789e-09 5.00722e-08 1.57716e-08
2.72771e-09 2.665e-08 1.58815e-08
3.01583e-09 2.80356e-08 1.57697e-08
2.82782e-08 3.47106e-08 9.58155e-09
3.30088e-08 5.11274e-08 1.37125e-08
3.15516e-08 2.27858e-08 1.3545e-08
1.31669e-08 4.71121e-08 1.35395e-08
1.14779e-08 2.91187e-08 1.34475e-08
2.67035e-08 6.03148e-08 1.54526e-08
2.41248e-08 1.57782e-08 1.5566e-08
1.41265e-08 4.10746e-08 1.17821e-08
1.17695e-08 3.84841e-08 1.22941e-08
3.90911e-08 3.63537e-08 1.36397e-08
4.29806e-08 4.95092e-08 1.54609e-08
4.14063e-08 2.53538e-08 1.56003e-08
3.05763e-08 4.66805e-08 1.23055e-08
2.87116e-08 2.73555e-08 1.21837e-08
3.30744e-08 3.03207e-08 1.27126e-08
1.6364e-08 2.80006e-08 1.22418e-08
1.83124e-08 4.74946e-08 1.23818e-08
2.3158e-08 3.99917e-08 7.40754e-09
2.40807e-08 3.48416e-08 7.48211e-09
2.60734e-08 3.82618e-08 7.51929e-09
2.10964e-08 3.84338e-08 7.46269e-09
3.41566e-08 4.46937e-08 1.28557e-08
6.21615e-09 4.26545e-08 1.41329e-08
5.28053e-09 3.48909e-08 1.41294e-08
2.21728e-08 3.64362e-08 6.74329e-09
1.98116e-08 2.82341e-08 1.15666e-08
2.47288e-08 3.95779e-08 7.29507e-09
2.52693e-08 3.63577e-08 7.1447e-09
2.90476e-08 2.05277e-08 1.38948e-08
3.06706e-08 5.38956e-08 1.40128e-08
2.70607e-08 4.68695e-08 1.16992e-08
3.45299e-08 3.70975e-08 1.22546e-08
2.13759e-08 4.72597e-08 1.17639e-08
7.99004e-09 4.72746e-08 1.48732e-08
6.39932e-09 3.00836e-08 1.48451e-08
1.00264e-08 2.40787e-08 1.41483e-08
1.26017e-08 5.18888e-08 1.43128e-08
2.88871e-08 4.12872e-08 1.00344e-08
2.57768e-08 2.77185e-08 1.16777e-08
3.50031e-08 3.25778e-08 1.29637e-08
3.67613e-08 4.72774e-08 1.39838e-08
3.53759e-08 2.72579e-08 1.39305e-08
3.65134e-08 4.22429e-08 1.32385e-08
2.24968e-08 3.87421e-08 6.85592e-09
2.42933e-08 3.26825e-08 8.97061e-09
2.27866e-08 4.22819e-08 9.02963e-09
1.92135e-08 3.88968e-08 8.81085e-09
1.98246e-08 4.24728e-08 9.95675e-09
2.68889e-08 3.25606e-08 9.73935e-09
1.42162e-08 2.96742e-08 1.24465e-08
1.58547e-08 4.61428e-08 1.25499e-08
1.86086e-08 3.29481e-08 9.95736e-09
1.21208e-08 4.94296e-08 1.41948e-08
1.00793e-08 2.68826e-08 1.40842e-08
1.64977e-08 4.30453e-08 1.14148e-08
1.54698e-08 3.28452e-08 1.13219e-08
2.25763e-08 3.53063e-08 7.16868e-09
2.11923e-08 3.69992e-08 7.19983e-09
3.71808e-08 5.0398e-08 1.4316e-08
3.5657e-08 2.38375e-08 1.42023e-08
2.21096e-08 1.61527e-08 1.55779e-08
2.4648e-08 6.00907e-08 1.54619e-08
5.05666e-08 -5.95149e-09 1.12726e-08
5.06036e-08 6.23249e-09 1.13778e-08
3.76396e-08 6.60039e-09 1.12818e-08
3.76218e-08 -6.59226e-09 1.12939e-08
2.95986e-08 9.63693e-09 1.44787e-08
2.95784e-08 -9.63539e-09 1.44833e-08
4.39265e-08 7.51453e-09 1.06608e-08
3.64219e-08 -6.29556e-11 1.03874e-08
5.12903e-08 -2.45068e-10 1.03952e-08
4.38428e-08 -7.53423e-09 1.06789e-08
2.67974e-08 1.01281e-08 1.52855e-08
2.6772e-08 -1.01302e-08 1.52902e-08
5.85238e-08 -7.68391e-09 1.40892e-08
5.78112e-08 7.34895e-09 1.38627e-08
4.39368e-08 -1.55229e-08 1.4046e-08
4.46538e-08 1.54736e-08 1.40565e-08
4.89381e-08 1.18139e-08 1.29759e-08
3.93044e-08 -1.23552e-08 1.28513e-08
3.04236e-08 3.14493e-09 1.30292e-08
3.00342e-08 -3.14554e-09 1.31358e-08
4.88737e-08 -1.22928e-08 1.31018e-08
3.93756e-08 1.29291e-08 1.29864e-08
4.64888e-08 -2.32799e-09 8.11517e-09
4.67316e-08 2.85448e-09 8.50291e-09
4.09826e-08 2.53701e-09 8.35776e-09
4.11073e-08 -2.39011e-09 8.24303e-09
2.61225e-08 1.22245e-08 1.55713e-08
2.60935e-08 -1.22282e-08 1.55835e-08
3.40689e-08 1.12782e-08 1.338e-08
3.40485e-08 -1.12336e-08 1.33827e-08
5.80783e-08 -2.24822e-09 1.32511e-08
5.73968e-08 2.54738e-09 1.30465e-08
3.33269e-08 -5.9448e-09 1.26553e-08
3.33433e-08 5.95097e-09 1.26499e-08
4.63509e-08 -1.91747e-08 1.50773e-08
4.28919e-08 1.92594e-08 1.50469e-08
5.43582e-08 -1.07179e-08 1.35319e-08
5.43558e-08 1.04761e-08 1.34866e-08
4.46703e-08 3.98573e-09 8.60646e-09
4.45216e-08 -3.93318e-09 8.5456e-09
3.97624e-08 6.70939e-10 8.52179e-09
4.80606e-08 -4.78785e-10 8.48342e-09
2.60438e-08 6.54998e-09 1.47006e-08
2.60298e-08 -6.54973e-09 1.46989e-08
5.35233e-08 -3.52935e-09 1.17961e-08
6.00586e-08 -1.1347e-08 1.48626e-08
5.99639e-08 1.12453e-08 1.48359e-08
5.29282e-08 3.5395e-09 1.15392e-08
4.09327e-08 6.59169e-09 1.03911e-08
4.10544e-08 -6.43127e-09 1.03071e-08
3.75744e-08 -2.81562e-09 1.01749e-08
4.72883e-08 -5.7913e-09 1.02377e-08
4.73958e-08 5.83916e-09 1.02741e-08
3.80514e-08 2.59545e-09 9.88835e-09
3.96841e-08 -1.64446e-08 1.4005e-08
4.88018e-08 1.58615e-08 1.41424e-08
4.6684e-08 1.98411e-08 1.52537e-08
4.26691e-08 -1.99641e-08 1.52074e-08
2.47601e-08 8.61515e-09 1.53904e-08
2.47414e-08 -8.61611e-09 1.53886e-08
2.69398e-08 4.99469e-11 1.35084e-08
6.35813e-08 -8.91451e-09 1.52618e-08
6.36456e-08 8.79376e-09 1.52719e-08
4.74292e-08 -1.57078e-08 1.41329e-08
4.11431e-08 1.6132e-08 1.40629e-08
4.53077e-08 -1.15172e-08 1.26302e-08
4.28814e-08 1.16428e-08 1.25837e-08
4.94598e-08 1.84207e-09 9.57442e-09
4.58745e-08 1.17041e-08 1.27363e-08
4.23196e-08 -1.19255e-08 1.26916e-08
5.26967e-08 1.33985e-08 1.3695e-08
4.96437e-08 -2.67961e-09 9.89126e-09
3.55691e-08 -1.44463e-08 1.35256e-08
6.08498e-08 4.58977e-09 1.41305e-08
6.12202e-08 -5.13042e-09 1.4257e-08
2.89864e-08 1.2305e-08 1.48549e-08
2.89627e-08 -1.22988e-08 1.48589e-08
3.40843e-08 2.87518e-09 1.17419e-08
2.97307e-08 -6.41391e-09 1.38867e-08
2.97734e-08 6.41247e-09 1.38742e-08
2.40946e-08 1.1878e-08 1.58511e-08
2.42617e-08 1.05294e-08 1.57449e-08
2.40656e-08 -1.18916e-08 1.58671e-08
2.4234e-08 -1.05337e-08 1.57479e-08
5.2898e-08 -1.35229e-08 1.37562e-08
3.26719e-08 8.94369e-09 1.34457e-08
3.26527e-08 -8.93836e-09 1.34523e-08
4.66778e-08 -2.18795e-08 1.55822e-08
4.31838e-08 2.17788e-08 1.55782e-08
3.538e-08 1.45759e-08 1.35717e-08
3.41782e-08 -2.76991e-09 1.16844e-08
3.18772e-08 2.41576e-10 1.23007e-08
6.00718e-08 7.84361e-10 1.35972e-08
5.09351e-08 9.30732e-09 1.24725e-08
6.30756e-08 -1.2514e-08 1.54689e-08
6.3082e-08 1.2451e-08 1.54735e-08
5.06612e-08 -9.20881e-09 1.23855e-08
5.41265e-08 7.04231e-09 1.27237e-08
3.76951e-08 -9.77327e-09 1.22771e-08
4.30601e-08 2.4421e-09 7.47581e-09
4.32654e-08 -2.32518e-09 7.38855e-09
4.65768e-08 8.65812e-10 7.54523e-09
4.13341e-08 -6.10786e-10 7.40129e-09
3.76415e-08 9.9519e-09 1.23207e-08
5.43904e-08 -7.28925e-09 1.28555e-08
2.59688e-08 3.77152e-09 1.40762e-08
2.57757e-08 -3.69779e-09 1.40912e-08
4.50661e-08 -1.03942e-09 6.76707e-09
4.67333e-08 8.86276e-09 1.15789e-08
4.49548e-08 2.04015e-09 7.27822e-09
4.18648e-08 9.46931e-10 7.17121e-09
5.04536e-08 -1.60097e-08 1.40847e-08
4.69306e-08 -9.09991e-09 1.17189e-08
5.53179e-08 1.39931e-10 1.2209e-08
4.08818e-08 -9.49806e-09 1.17082e-08
4.92335e-08 3.82876e-09 1.00448e-08
2.74792e-08 8.31718e-09 1.48274e-08
2.74554e-08 -8.31848e-09 1.48307e-08
3.16864e-08 1.38004e-08 1.41413e-08
3.16191e-08 -1.39317e-08 1.41635e-08
4.09955e-08 9.61897e-09 1.1738e-08
5.63408e-08 4.7304e-09 1.29902e-08
3.79169e-08 1.65698e-08 1.38512e-08
5.69083e-08 -9.98676e-09 1.39995e-08
5.68329e-08 9.84981e-09 1.39641e-08
5.69993e-08 -4.98367e-09 1.32338e-08
4.26609e-08 -1.0518e-09 6.83565e-09
4.26853e-08 4.60121e-09 8.99535e-09
4.26739e-08 -4.60112e-09 9.01122e-09
3.93981e-08 -1.02162e-09 8.77827e-09
3.96972e-08 4.7838e-09 9.90913e-09
3.9642e-08 -4.70386e-09 9.9107e-09
3.53699e-08 -8.22709e-09 1.24583e-08
4.83911e-08 -4.09159e-09 9.80991e-09
3.53831e-08 8.25913e-09 1.24565e-08
3.14653e-08 1.11893e-08 1.40819e-08
3.14366e-08 -1.12034e-08 1.40921e-08
3.62986e-08 -5.08168e-09 1.13454e-08
3.61841e-08 5.03872e-09 1.13761e-08
4.45839e-08 -2.06244e-09 7.21872e-09
4.61228e-08 -5.79367e-10 7.16819e-09
5.71658e-08 -1.31003e-08 1.43414e-08
5.71655e-08 1.30522e-08 1.43337e-08
4.51944e-08 2.15074e-08 1.55995e-08
4.46723e-08 -2.1489e-08 1.55825e-08
3.0353e-08 -4.36893e-08 1.13488e-08
2.96018e-08 -3.08848e-08 1.1337e-08
1.65773e-08 -3.11664e-08 1.12727e-08
1.79454e-08 -4.43932e-08 1.13627e-08
8.37734e-09 -2.85913e-08 1.44828e-08
1.0125e-08 -4.82396e-08 1.45448e-08
2.27622e-08 -2.9755e-08 1.06075e-08
1.60771e-08 -3.77816e-08 1.04108e-08
3.07555e-08 -3.73455e-08 1.0516e-08
2.42701e-08 -4.52804e-08 1.0691e-08
5.5593e-09 -2.82733e-08 1.52964e-08
7.38006e-09 -4.92805e-08 1.5317e-08
3.70775e-08 -2.95528e-08 1.41339e-08
3.74658e-08 -4.45754e-08 1.38682e-08
2.43238e-08 -5.3669e-08 1.40122e-08
2.28905e-08 -2.18757e-08 1.39882e-08
2.76787e-08 -2.49991e-08 1.28311e-08
2.00014e-08 -5.00749e-08 1.29436e-08
9.81585e-09 -3.51644e-08 1.30589e-08
1.0239e-08 -4.15744e-08 1.31374e-08
2.90155e-08 -5.01497e-08 1.30446e-08
1.77289e-08 -2.46669e-08 1.29603e-08
2.64123e-08 -4.03012e-08 8.45843e-09
2.58508e-08 -3.43214e-08 8.47785e-09
2.04101e-08 -3.51991e-08 8.22668e-09
2.12658e-08 -4.02484e-08 8.21822e-09
4.70982e-09 -2.61754e-08 1.55767e-08
6.75559e-09 -5.16069e-08 1.55904e-08
1.263e-08 -2.6628e-08 1.33707e-08
1.47599e-08 -4.90856e-08 1.3512e-08
3.69803e-08 -3.49775e-08 1.3298e-08
3.66956e-08 -3.97361e-08 1.30588e-08
1.35977e-08 -4.4131e-08 1.27194e-08
1.24162e-08 -3.21137e-08 1.26555e-08
2.6497e-08 -5.75241e-08 1.49687e-08
2.05993e-08 -1.83158e-08 1.50206e-08
3.30616e-08 -2.60645e-08 1.34338e-08
3.38403e-08 -4.74861e-08 1.32975e-08
2.37348e-08 -3.32876e-08 8.56517e-09
2.3363e-08 -4.16448e-08 8.55458e-09
1.94947e-08 -3.83211e-08 8.49571e-09
2.76428e-08 -3.75275e-08 8.65164e-09
5.15666e-09 -3.19727e-08 1.47303e-08
6.50273e-09 -4.55639e-08 1.47452e-08
3.23396e-08 -3.33048e-08 1.18253e-08
3.84802e-08 -2.60276e-08 1.49204e-08
3.9808e-08 -4.84123e-08 1.48334e-08
3.26634e-08 -4.05745e-08 1.16246e-08
1.98226e-08 -3.09347e-08 1.03724e-08
2.68697e-08 -4.38705e-08 1.03204e-08
1.69164e-08 -3.50212e-08 1.01779e-08
2.63479e-08 -3.12308e-08 1.01966e-08
2.11793e-08 -4.39455e-08 1.02838e-08
1.80575e-08 -4.04267e-08 9.89285e-09
2.03926e-08 -5.43018e-08 1.40833e-08
2.72973e-08 -2.09723e-08 1.39849e-08
2.28835e-08 -5.83835e-08 1.51362e-08
2.44605e-08 -1.75778e-08 1.51962e-08
3.68191e-09 -2.99502e-08 1.54179e-08
5.41041e-09 -4.79063e-08 1.54237e-08
6.69557e-09 -3.85709e-08 1.35681e-08
4.20461e-08 -2.8694e-08 1.53963e-08
4.33417e-08 -4.57892e-08 1.52798e-08
2.76421e-08 -5.37956e-08 1.40558e-08
1.91968e-08 -2.14148e-08 1.40297e-08
2.87662e-08 -3.52652e-08 9.70711e-09
2.56014e-08 -4.94334e-08 1.26015e-08
2.1401e-08 -2.57367e-08 1.25313e-08
2.45022e-08 -2.54017e-08 1.2642e-08
2.28201e-08 -4.98033e-08 1.27234e-08
3.15285e-08 -2.29609e-08 1.35104e-08
1.65473e-08 -5.19427e-08 1.37091e-08
4.02897e-08 -4.16736e-08 1.4148e-08
3.98814e-08 -3.21825e-08 1.43422e-08
7.54035e-09 -2.59025e-08 1.48522e-08
9.69766e-09 -5.09773e-08 1.49251e-08
1.41168e-08 -4.09356e-08 1.17614e-08
1.00763e-08 -4.50012e-08 1.39338e-08
8.84991e-09 -3.1871e-08 1.38889e-08
2.73211e-09 -2.6656e-08 1.58661e-08
3.02033e-09 -2.80334e-08 1.57672e-08
4.78748e-09 -5.16397e-08 1.58573e-08
4.99607e-09 -5.00625e-08 1.57663e-08
2.87383e-08 -3.98406e-08 9.60406e-09
3.27825e-08 -5.12418e-08 1.3702e-08
1.14662e-08 -2.91e-08 1.34445e-08
1.31519e-08 -4.71018e-08 1.35388e-08
2.66855e-08 -6.03115e-08 1.54499e-08
2.05522e-08 -1.58103e-08 1.55617e-08
1.36286e-08 -2.31867e-08 1.35527e-08
1.34923e-08 -3.51555e-08 1.17501e-08
1.17154e-08 -3.8085e-08 1.22922e-08
3.92149e-08 -3.79124e-08 1.36302e-08
2.93685e-08 -2.78268e-08 1.21757e-08
4.14097e-08 -2.53202e-08 1.56059e-08
4.29567e-08 -4.94818e-08 1.54748e-08
2.98716e-08 -4.70865e-08 1.22767e-08
3.40503e-08 -4.40355e-08 1.27286e-08
1.82821e-08 -4.74407e-08 1.23694e-08
2.24987e-08 -3.50324e-08 7.36874e-09
2.46742e-08 -4.00168e-08 7.52275e-09
2.58337e-08 -3.64385e-08 7.50771e-09
2.08625e-08 -3.68711e-08 7.45037e-09
1.62676e-08 -2.77592e-08 1.23059e-08
3.30939e-08 -2.96712e-08 1.28351e-08
5.37581e-09 -3.48215e-08 1.41202e-08
6.08731e-09 -4.25995e-08 1.41414e-08
2.25201e-08 -3.86683e-08 6.7636e-09
2.15587e-08 -4.70387e-08 1.16605e-08
2.55323e-08 -2.81743e-08 1.14953e-08
2.41615e-08 -3.52708e-08 7.25929e-09
2.55216e-08 -3.83822e-08 7.16338e-09
3.06123e-08 -5.39292e-08 1.40145e-08
3.45299e-08 -3.7326e-08 1.22579e-08
6.39844e-09 -3.00762e-08 1.48431e-08
7.97e-09 -4.7267e-08 1.48714e-08
1.00717e-08 -2.4191e-08 1.41298e-08
1.25855e-08 -5.18764e-08 1.43123e-08
2.81888e-08 -3.32597e-08 1.00051e-08
2.70758e-08 -4.70612e-08 1.17597e-08
1.96425e-08 -2.78783e-08 1.17073e-08
3.57265e-08 -4.18192e-08 1.29475e-08
1.59498e-08 -2.10614e-08 1.38237e-08
3.54737e-08 -2.70265e-08 1.39818e-08
3.66224e-08 -4.70326e-08 1.39387e-08
3.57084e-08 -3.21655e-08 1.32688e-08
2.21051e-08 -3.63736e-08 6.83473e-09
2.5188e-08 -4.21611e-08 9.02858e-09
2.17198e-08 -3.28066e-08 8.96972e-09
1.8912e-08 -3.66548e-08 8.79417e-09
2.76776e-08 -4.20643e-08 9.78868e-09
1.86791e-08 -3.30173e-08 9.88385e-09
1.58375e-08 -4.61295e-08 1.25488e-08
1.9669e-08 -4.24976e-08 1.00215e-08
1.41981e-08 -2.96259e-08 1.24491e-08
1.00784e-08 -2.68814e-08 1.40774e-08
1.21051e-08 -4.94189e-08 1.41938e-08
1.5402e-08 -3.2789e-08 1.13486e-08
1.6523e-08 -4.2987e-08 1.13849e-08
2.31459e-08 -3.97236e-08 7.20484e-09
2.13665e-08 -3.82572e-08 7.20958e-09
3.60595e-08 -2.36748e-08 1.43033e-08
3.69102e-08 -5.02516e-08 1.42705e-08
2.25867e-08 -1.61396e-08 1.5577e-08
2.46299e-08 -6.0088e-08 1.54603e-08
-1.21777e-08 -4.66889e-08 1.13218e-08
-1.40627e-08 -3.35372e-08 1.15755e-08
-2.81679e-08 -3.69278e-08 1.20603e-08
-2.45991e-08 -5.05537e-08 1.15111e-08
-3.27268e-08 -5.57728e-08 1.46134e-08
-3.80759e-08 -3.61106e-08 1.5581e-08
-2.1543e-08 -3.3862e-08 1.1133e-08
-2.72447e-08 -4.42776e-08 1.08125e-08
-1.23015e-08 -4.04511e-08 1.04122e-08
-1.81491e-08 -4.99641e-08 1.07712e-08
-3.57609e-08 -5.71305e-08 1.53296e-08
-4.15631e-08 -3.6506e-08 1.63798e-08
-7.18583e-09 -3.20218e-08 1.39406e-08
-4.52869e-09 -4.73108e-08 1.41842e-08
-1.70268e-08 -5.84715e-08 1.40927e-08
-2.25662e-08 -2.55063e-08 1.4819e-08
-2.74271e-08 -3.01714e-08 1.39511e-08
-2.18242e-08 -5.57406e-08 1.30304e-08
-3.24512e-08 -4.91471e-08 1.34221e-08
-3.46299e-08 -4.26182e-08 1.38308e-08
-1.66361e-08 -2.74133e-08 1.33358e-08
-1.2799e-08 -5.39915e-08 1.31493e-08
-1.66116e-08 -4.3602e-08 8.14606e-09
-1.76394e-08 -3.79259e-08 8.64783e-09
-2.33288e-08 -4.04263e-08 8.61971e-09
-2.19386e-08 -4.56882e-08 8.5643e-09
-3.62162e-08 -5.94239e-08 1.55631e-08
-4.32769e-08 -3.46881e-08 1.69257e-08
-2.75262e-08 -5.5805e-08 1.35963e-08
-3.34135e-08 -3.30603e-08 1.46737e-08
-5.08201e-09 -4.17187e-08 1.32104e-08
-6.51211e-09 -3.70185e-08 1.30235e-08
-2.91958e-08 -5.11663e-08 1.29103e-08
-3.25024e-08 -3.88198e-08 1.34596e-08
-2.04555e-08 -2.12474e-08 1.57352e-08
-1.44249e-08 -6.20549e-08 1.50485e-08
-8.02335e-09 -5.11425e-08 1.36305e-08
-1.12533e-08 -2.91007e-08 1.34098e-08
-2.00742e-08 -3.73547e-08 8.88419e-09
-1.81149e-08 -4.59651e-08 8.61775e-09
-2.36861e-08 -4.4147e-08 8.81763e-09
-1.5507e-08 -4.1226e-08 8.51557e-09
-3.65842e-08 -5.35956e-08 1.4904e-08
-4.03961e-08 -4.02562e-08 1.55527e-08
-9.61955e-09 -4.35742e-08 1.18161e-08
-5.6485e-09 -2.78584e-08 1.49699e-08
-2.85625e-09 -5.10204e-08 1.50282e-08
-1.14074e-08 -3.65681e-08 1.15014e-08
-2.43931e-08 -3.59892e-08 1.08986e-08
-2.10647e-08 -4.95134e-08 1.04605e-08
-2.70034e-08 -4.10277e-08 1.07003e-08
-1.52207e-08 -4.72427e-08 1.02892e-08
-1.74607e-08 -3.45577e-08 1.0498e-08
-2.49376e-08 -4.65778e-08 1.01766e-08
-2.09027e-08 -5.98041e-08 1.41571e-08
-2.74946e-08 -2.56609e-08 1.53789e-08
-1.79308e-08 -6.34354e-08 1.52076e-08
-2.45832e-08 -2.1201e-08 1.63738e-08
-3.79689e-08 -5.59974e-08 1.54565e-08
-4.3028e-08 -3.86792e-08 1.6321e-08
-3.63172e-08 -4.67194e-08 1.41321e-08
1.48675e-10 -4.82286e-08 1.54153e-08
-1.81139e-09 -3.03925e-08 1.5413e-08
-1.86494e-08 -2.43283e-08 1.45531e-08
-1.37201e-08 -5.8035e-08 1.41488e-08
-2.04928e-08 -2.92349e-08 1.31214e-08
-1.62145e-08 -5.39058e-08 1.2694e-08
-1.46085e-08 -3.85208e-08 9.62853e-09
-2.39021e-08 -2.97277e-08 1.34712e-08
-1.8963e-08 -5.48466e-08 1.2804e-08
-1.35352e-08 -4.33106e-08 9.91637e-09
-2.52091e-08 -5.82562e-08 1.37822e-08
-3.21941e-08 -2.91243e-08 1.51548e-08
-3.43036e-09 -3.47501e-08 1.41292e-08
-1.88258e-09 -4.44334e-08 1.42725e-08
-3.29511e-08 -5.8485e-08 1.49442e-08
-3.98244e-08 -3.3634e-08 1.62759e-08
-2.88867e-08 -4.79179e-08 1.21013e-08
-3.28252e-08 -5.2631e-08 1.41066e-08
-3.64799e-08 -3.92954e-08 1.47357e-08
-3.85138e-08 -5.96504e-08 1.58054e-08
-3.8557e-08 -5.80946e-08 1.57281e-08
-4.54383e-08 -3.57121e-08 1.71188e-08
-4.46461e-08 -3.70389e-08 1.68033e-08
-1.26443e-08 -2.51082e-08 1.38067e-08
-8.8843e-09 -5.44099e-08 1.38363e-08
-2.94818e-08 -5.41755e-08 1.36478e-08
-3.43467e-08 -3.58873e-08 1.45069e-08
-1.39285e-08 -6.48716e-08 1.55249e-08
-2.06057e-08 -1.85799e-08 1.63296e-08
-3.03873e-08 -4.19759e-08 1.22903e-08
-3.16174e-08 -4.57508e-08 1.28155e-08
-3.22805e-09 -3.85445e-08 1.35057e-08
-2.82546e-09 -2.67599e-08 1.56698e-08
-5.49956e-11 -5.2011e-08 1.56713e-08
-1.16153e-08 -5.02277e-08 1.24501e-08
-1.49221e-08 -3.016e-08 1.25376e-08
-1.01555e-08 -3.26437e-08 1.29448e-08
-2.39106e-08 -5.35225e-08 1.24838e-08
-2.88291e-08 -3.34765e-08 1.32819e-08
-2.11531e-08 -3.96137e-08 7.66762e-09
-1.98722e-08 -4.48889e-08 7.59302e-09
-1.73428e-08 -4.00879e-08 7.62424e-09
-2.24805e-08 -4.22834e-08 7.67678e-09
-8.43753e-09 -4.74519e-08 1.29286e-08
-3.66545e-08 -5.07584e-08 1.44781e-08
-3.90201e-08 -4.31709e-08 1.48608e-08
-1.82786e-08 -4.25893e-08 6.80546e-09
-1.9323e-08 -3.92612e-08 7.47797e-09
-2.1478e-08 -4.37961e-08 7.37939e-09
-1.07393e-08 -5.76646e-08 1.41161e-08
-1.53465e-08 -2.30424e-08 1.4284e-08
-1.50547e-08 -5.09436e-08 1.17788e-08
-1.82431e-08 -3.11532e-08 1.20823e-08
-8.23079e-09 -3.96359e-08 1.21816e-08
-2.51656e-08 -3.2745e-08 1.24858e-08
-2.07285e-08 -5.2609e-08 1.18563e-08
-1.52119e-08 -3.64429e-08 1.01457e-08
-3.5109e-08 -5.51182e-08 1.49527e-08
-3.98815e-08 -3.80587e-08 1.57876e-08
-2.9548e-08 -5.89319e-08 1.43604e-08
-3.70214e-08 -3.10208e-08 1.58699e-08
-8.00925e-09 -3.48038e-08 1.30553e-08
-8.5365e-09 -2.94659e-08 1.40084e-08
-5.82119e-09 -4.9949e-08 1.4119e-08
-6.08714e-09 -4.46597e-08 1.32652e-08
-2.13207e-08 -4.13316e-08 7.0811e-09
-2.22936e-08 -3.74017e-08 9.41576e-09
-1.97754e-08 -4.72404e-08 9.12855e-09
-2.4578e-08 -4.24373e-08 9.15275e-09
-2.55009e-08 -3.83467e-08 1.04752e-08
-2.28208e-08 -4.82032e-08 1.00999e-08
-2.66734e-08 -5.27045e-08 1.26769e-08
-3.10847e-08 -3.58399e-08 1.3415e-08
-1.4501e-08 -4.51012e-08 9.84727e-09
-3.04153e-08 -5.66047e-08 1.42569e-08
-3.64949e-08 -3.39318e-08 1.53965e-08
-2.90865e-08 -3.89386e-08 1.20407e-08
-2.63935e-08 -4.94679e-08 1.16402e-08
-1.84792e-08 -4.38834e-08 7.23575e-09
-1.74026e-08 -4.17737e-08 7.20929e-09
-8.30046e-09 -2.56987e-08 1.437e-08
-5.139e-09 -5.317e-08 1.44795e-08
-2.26989e-08 -1.93148e-08 1.65631e-08
-1.6012e-08 -6.49055e-08 1.55316e-08
-4.07338e-08 -1.08078e-08 1.77555e-08
-6.41394e-08 1.26488e-08 1.85738e-08
-4.07546e-08 1.12369e-08 1.77467e-08
-6.41608e-08 -1.2651e-08 1.85741e-08
-7.55193e-08 1.5974e-08 1.89566e-08
-7.5523e-08 -1.59836e-08 1.89563e-08
-5.2262e-08 1.49617e-08 1.81456e-08
-6.72923e-08 3.79341e-10 1.86496e-08
-3.88568e-08 -4.35599e-10 1.77378e-08
-5.24092e-08 -1.49849e-08 1.8149e-08
-7.91922e-08 1.66155e-08 1.90732e-08
-7.9196e-08 -1.66238e-08 1.9073e-08
-3.1577e-08 1.0604e-08 1.75736e-08
-3.08014e-08 -1.08739e-08 1.75561e-08
-5.13459e-08 -2.52078e-08 1.81085e-08
-5.02541e-08 2.50473e-08 1.80423e-08
-4.37072e-08 1.97052e-08 1.76296e-08
-5.94278e-08 -2.11926e-08 1.84313e-08
-7.50011e-08 5.90139e-09 1.88651e-08
-7.52871e-08 -5.78021e-09 1.88707e-08
-4.37807e-08 -2.038e-08 1.75986e-08
-5.91561e-08 2.19462e-08 1.8424e-08
-4.6672e-08 -5.85744e-09 1.79724e-08
-5.93489e-08 6.02873e-09 1.84097e-08
-4.64052e-08 6.79594e-09 1.79618e-08
-5.95452e-08 -6.27463e-09 1.84167e-08
-7.9878e-08 1.9233e-08 1.90978e-08
-7.98829e-08 -1.9241e-08 1.90976e-08
-6.85728e-08 1.87942e-08 1.8726e-08
-6.85933e-08 -1.87449e-08 1.87263e-08
-3.04165e-08 -3.23184e-09 1.73665e-08
-3.13123e-08 3.77921e-09 1.74171e-08
-7.08682e-08 1.08404e-08 1.8784e-08
-7.08705e-08 -1.08517e-08 1.87839e-08
-4.75838e-08 -2.89887e-08 1.78117e-08
-5.23441e-08 2.97603e-08 1.82044e-08
-3.6003e-08 -1.64404e-08 1.74194e-08
-3.60118e-08 1.61228e-08 1.74393e-08
-5.0902e-08 9.46928e-09 1.811e-08
-5.11972e-08 -9.36687e-09 1.81193e-08
-6.22213e-08 -1.61714e-09 1.85017e-08
-4.36094e-08 -1.12154e-09 1.78824e-08
-8.01102e-08 1.15354e-08 1.90281e-08
-8.01123e-08 -1.15437e-08 1.90277e-08
-3.62253e-08 -5.90795e-09 1.76686e-08
-2.94359e-08 -1.51256e-08 1.74701e-08
-2.95478e-08 1.50556e-08 1.74742e-08
-3.7013e-08 6.0874e-09 1.769e-08
-5.82366e-08 1.33287e-08 1.83727e-08
-5.80261e-08 -1.31209e-08 1.83643e-08
-6.53031e-08 5.91383e-09 1.85977e-08
-4.59565e-08 -1.17585e-08 1.79124e-08
-4.57733e-08 1.17709e-08 1.79085e-08
-6.46299e-08 -5.54219e-09 1.85761e-08
-5.76563e-08 -2.65079e-08 1.8395e-08
-4.39263e-08 2.47804e-08 1.74676e-08
-5.25105e-08 -3.06426e-08 1.82178e-08
-4.70966e-08 2.96661e-08 1.77646e-08
-8.16766e-08 1.46024e-08 1.91054e-08
-8.16797e-08 -1.46101e-08 1.91052e-08
-7.92699e-08 1.43491e-10 1.89175e-08
-2.5538e-08 -1.14361e-08 1.7434e-08
-2.54448e-08 1.13034e-08 1.74237e-08
-4.60008e-08 -2.48498e-08 1.76851e-08
-5.55237e-08 2.61084e-08 1.8318e-08
-4.95111e-08 -2.01125e-08 1.79933e-08
-5.35909e-08 2.04681e-08 1.82043e-08
-4.16201e-08 3.80762e-09 1.78246e-08
-4.85722e-08 2.02569e-08 1.79411e-08
-5.44848e-08 -2.0818e-08 1.82417e-08
-3.81292e-08 2.07705e-08 1.71451e-08
-4.14461e-08 -5.3631e-09 1.78182e-08
-6.50528e-08 -2.33534e-08 1.86008e-08
-2.7601e-08 6.32668e-09 1.72611e-08
-2.73085e-08 -7.01669e-09 1.72606e-08
-7.60138e-08 1.94055e-08 1.89763e-08
-7.6019e-08 -1.94149e-08 1.8976e-08
-7.02221e-08 -5.42102e-09 1.87401e-08
-7.55819e-08 1.13612e-08 1.89263e-08
-7.56051e-08 -1.13612e-08 1.89266e-08
-8.22817e-08 1.87903e-08 1.91499e-08
-8.22461e-08 1.70589e-08 1.91431e-08
-8.22863e-08 -1.87975e-08 1.91497e-08
-8.225e-08 -1.70663e-08 1.91429e-08
-3.78247e-08 -2.08432e-08 1.71315e-08
-7.12932e-08 1.53076e-08 1.88164e-08
-7.12989e-08 -1.53146e-08 1.88161e-08
-4.70256e-08 -3.17671e-08 1.77062e-08
-5.15529e-08 3.27085e-08 1.81639e-08
-6.53431e-08 2.3476e-08 1.86085e-08
-7.02296e-08 5.65767e-09 1.8741e-08
-7.31157e-08 3.59692e-10 1.88035e-08
-2.78344e-08 1.12149e-09 1.70667e-08
-4.05697e-08 1.57928e-08 1.76069e-08
-2.63231e-08 1.55026e-08 1.74329e-08
-2.63283e-08 -1.55547e-08 1.74312e-08
-4.09496e-08 -1.57463e-08 1.76259e-08
-3.60476e-08 1.12832e-08 1.76371e-08
-6.3025e-08 -1.74082e-08 1.85438e-08
-5.43113e-08 6.429e-09 1.82363e-08
-5.48788e-08 -6.48199e-09 1.8256e-08
-4.63203e-08 2.28038e-09 1.79581e-08
-5.9234e-08 1.61782e-09 1.84138e-08
-6.30818e-08 1.76398e-08 1.85465e-08
-3.57196e-08 -1.15465e-08 1.76261e-08
-8.02772e-08 6.97685e-09 1.89705e-08
-8.0407e-08 -6.89531e-09 1.89709e-08
-4.94691e-08 -3.24661e-09 1.80605e-08
-4.72288e-08 1.63135e-08 1.79096e-08
-4.99394e-08 5.72351e-09 1.80818e-08
-5.82479e-08 -2.78771e-09 1.83847e-08
-4.14082e-08 -2.4623e-08 1.71653e-08
-4.68834e-08 -1.66166e-08 1.78833e-08
-3.36491e-08 2.37367e-10 1.75236e-08
-5.74774e-08 -1.75113e-08 1.83523e-08
-4.23501e-08 7.64965e-09 1.78321e-08
-7.83872e-08 1.41658e-08 1.90272e-08
-7.83932e-08 -1.41732e-08 1.9027e-08
-7.16408e-08 2.1704e-08 1.88136e-08
-7.16865e-08 -2.188e-08 1.88136e-08
-5.72702e-08 1.76761e-08 1.8345e-08
-3.29027e-08 7.22018e-09 1.75565e-08
-6.04351e-08 2.64822e-08 1.8463e-08
-3.28864e-08 -1.44845e-08 1.74888e-08
-3.2976e-08 1.43262e-08 1.74975e-08
-3.21489e-08 -7.43539e-09 1.75393e-08
-5.62881e-08 3.42104e-09 1.83158e-08
-5.52136e-08 -1.04962e-08 1.82626e-08
-5.52142e-08 1.04816e-08 1.82634e-08
-6.26865e-08 2.47064e-09 1.85153e-08
-6.14047e-08 9.88173e-09 1.84782e-08
-6.11651e-08 -1.0119e-08 1.84702e-08
-6.73361e-08 -1.4714e-08 1.86832e-08
-4.37121e-08 -8.43995e-09 1.78681e-08
-6.73276e-08 1.47374e-08 1.86835e-08
-7.26055e-08 1.82418e-08 1.88619e-08
-7.2622e-08 -1.82724e-08 1.8862e-08
-6.67271e-08 9.84688e-09 1.86508e-08
-6.68981e-08 -9.74306e-09 1.86557e-08
-5.09933e-08 -5.60088e-09 1.81184e-08
-4.71881e-08 -1.5856e-09 1.79823e-08
-3.24564e-08 1.84111e-08 1.71383e-08
-3.24482e-08 -1.84546e-08 1.71373e-08
-4.97564e-08 -3.19762e-08 1.80222e-08
-4.90445e-08 3.17994e-08 1.79543e-08
-1.42137e-08 3.39759e-08 1.13574e-08
-1.20842e-08 4.70272e-08 1.14471e-08
-2.45536e-08 5.05169e-08 1.14994e-08
-2.81762e-08 3.68955e-08 1.20745e-08
-3.80857e-08 3.6092e-08 1.55895e-08
-3.27008e-08 5.57531e-08 1.46143e-08
-1.80674e-08 4.99147e-08 1.07713e-08
-2.71953e-08 4.44056e-08 1.08094e-08
-1.23721e-08 3.9967e-08 1.04077e-08
-2.15247e-08 3.38364e-08 1.11283e-08
-4.1578e-08 3.64859e-08 1.63896e-08
-3.57355e-08 5.71127e-08 1.53306e-08
-5.20372e-09 4.70672e-08 1.39546e-08
-6.52664e-09 3.1681e-08 1.41605e-08
-2.25431e-08 2.54906e-08 1.4814e-08
-1.63749e-08 5.83135e-08 1.40967e-08
-1.28093e-08 5.34806e-08 1.304e-08
-2.74123e-08 3.01451e-08 1.39554e-08
-3.42592e-08 4.2512e-08 1.37282e-08
-3.27979e-08 4.92303e-08 1.35305e-08
-1.66152e-08 2.74127e-08 1.33212e-08
-2.16451e-08 5.62443e-08 1.3176e-08
-1.77934e-08 3.85435e-08 8.21195e-09
-1.62383e-08 4.41625e-08 8.57123e-09
-2.17738e-08 4.54718e-08 8.42233e-09
-2.35328e-08 4.02799e-08 8.77511e-09
-4.32973e-08 3.46667e-08 1.69386e-08
-3.61914e-08 5.94048e-08 1.55647e-08
-3.34112e-08 3.30376e-08 1.46845e-08
-2.7489e-08 5.58161e-08 1.36028e-08
-5.69096e-09 3.73165e-08 1.32065e-08
-5.76957e-09 4.21232e-08 1.30264e-08
-3.25072e-08 3.87978e-08 1.34711e-08
-2.91699e-08 5.11434e-08 1.29047e-08
-2.04318e-08 2.12349e-08 1.573e-08
-1.77988e-08 6.26687e-08 1.50528e-08
-1.09021e-08 2.83469e-08 1.35879e-08
-8.0536e-09 5.09242e-08 1.35938e-08
-1.79595e-08 4.59733e-08 8.7021e-09
-2.01733e-08 3.74435e-08 8.80348e-09
-2.41102e-08 4.27238e-08 8.87989e-09
-1.57113e-08 4.02033e-08 8.52171e-09
-4.04082e-08 4.02424e-08 1.55615e-08
-3.65567e-08 5.35811e-08 1.49034e-08
-1.07311e-08 3.63077e-08 1.18148e-08
-2.9427e-09 5.0967e-08 1.50036e-08
-5.55456e-09 2.77902e-08 1.49871e-08
-1.01898e-08 4.36965e-08 1.15696e-08
-2.11527e-08 4.96579e-08 1.05635e-08
-2.4385e-08 3.59495e-08 1.09051e-08
-2.53348e-08 4.69042e-08 1.04536e-08
-1.75618e-08 3.4705e-08 1.04173e-08
-1.51085e-08 4.72871e-08 1.03489e-08
-2.64773e-08 4.11182e-08 1.04095e-08
-2.74757e-08 2.56379e-08 1.53802e-08
-1.23872e-08 5.79327e-08 1.41651e-08
-1.4076e-08 6.27288e-08 1.52133e-08
-2.45614e-08 2.11835e-08 1.63717e-08
-4.30409e-08 3.86622e-08 1.6331e-08
-3.7944e-08 5.59804e-08 1.54569e-08
-3.63359e-08 4.66046e-08 1.41403e-08
-1.89124e-09 3.03247e-08 1.54044e-08
2.26599e-10 4.81397e-08 1.54194e-08
-1.86259e-08 2.432e-08 1.45435e-08
-1.95835e-08 5.94032e-08 1.41733e-08
-2.04693e-08 2.92244e-08 1.31095e-08
-1.84752e-08 5.44641e-08 1.26962e-08
-1.38505e-08 4.24537e-08 9.60999e-09
-1.56721e-08 5.40052e-08 1.28064e-08
-2.38822e-08 2.97051e-08 1.34689e-08
-9.08891e-09 5.43606e-08 1.37811e-08
-1.45653e-08 3.76069e-08 9.94129e-09
-3.21822e-08 2.9099e-08 1.51644e-08
-2.21895e-09 4.39245e-08 1.4133e-08
-3.19244e-09 3.42095e-08 1.42643e-08
-3.98321e-08 3.36158e-08 1.62837e-08
-3.29256e-08 5.84655e-08 1.4946e-08
-3.05224e-08 4.1872e-08 1.23694e-08
-3.64591e-08 3.9272e-08 1.47347e-08
-3.28276e-08 5.26232e-08 1.41146e-08
-4.54626e-08 3.56939e-08 1.71365e-08
-4.4664e-08 3.70217e-08 1.68161e-08
-3.84887e-08 5.96328e-08 1.58066e-08
-3.85318e-08 5.80771e-08 1.57289e-08
-1.24081e-08 2.51829e-08 1.37892e-08
-3.43511e-08 3.5865e-08 1.45171e-08
-2.94534e-08 5.41532e-08 1.36464e-08
-2.05826e-08 1.85665e-08 1.63259e-08
-1.75018e-08 6.5439e-08 1.55283e-08
-2.53789e-08 5.84011e-08 1.38417e-08
-2.87831e-08 4.77686e-08 1.20374e-08
-3.17439e-08 4.52335e-08 1.28417e-08
-2.99998e-09 4.01385e-08 1.35049e-08
-1.13407e-08 5.03104e-08 1.2553e-08
-4.81236e-11 5.19857e-08 1.56763e-08
-2.82565e-09 2.6747e-08 1.5651e-08
-1.4473e-08 3.03572e-08 1.24951e-08
-8.69087e-09 4.7264e-08 1.28036e-08
-2.88239e-08 3.34483e-08 1.32912e-08
-1.96391e-08 4.47121e-08 7.51178e-09
-2.13824e-08 3.96156e-08 7.75839e-09
-1.68627e-08 4.19846e-08 7.5968e-09
-2.20649e-08 4.35937e-08 7.62806e-09
-2.39227e-08 5.36704e-08 1.25376e-08
-1.05481e-08 3.21918e-08 1.29134e-08
-3.8882e-08 4.30368e-08 1.48586e-08
-3.68111e-08 5.07063e-08 1.44939e-08
-1.89429e-08 4.03074e-08 6.86138e-09
-1.52718e-08 5.07511e-08 1.16573e-08
-1.80797e-08 4.3776e-08 7.37583e-09
-2.21417e-08 4.17679e-08 7.46262e-09
-1.52777e-08 2.30524e-08 1.42602e-08
-1.83849e-08 3.13052e-08 1.20065e-08
-8.17123e-09 3.99144e-08 1.21826e-08
-2.51514e-08 3.27142e-08 1.2489e-08
-1.37136e-08 4.46682e-08 1.00989e-08
-3.98888e-08 3.80402e-08 1.5795e-08
-3.50878e-08 5.51031e-08 1.49543e-08
-3.70147e-08 3.1e-08 1.58809e-08
-2.95096e-08 5.87726e-08 1.43527e-08
-2.05897e-08 5.26701e-08 1.18993e-08
-6.72658e-09 4.45011e-08 1.3024e-08
-2.25915e-08 5.99708e-08 1.4064e-08
-8.40423e-09 2.91551e-08 1.40726e-08
-5.89837e-09 4.98494e-08 1.40885e-08
-7.47661e-09 3.45746e-08 1.32535e-08
-2.0501e-08 4.36166e-08 6.99135e-09
-1.97572e-08 4.71942e-08 9.131e-09
-2.22813e-08 3.73589e-08 9.41719e-09
-2.39166e-08 4.45983e-08 9.06403e-09
-2.28842e-08 4.81155e-08 1.00935e-08
-2.5483e-08 3.82959e-08 1.04806e-08
-3.10906e-08 3.58117e-08 1.34291e-08
-1.61398e-08 3.63138e-08 9.91004e-09
-2.66391e-08 5.26972e-08 1.26758e-08
-3.64984e-08 3.3911e-08 1.54062e-08
-3.03824e-08 5.65613e-08 1.42553e-08
-2.62357e-08 4.94487e-08 1.15926e-08
-2.921e-08 3.89999e-08 1.2092e-08
-1.96924e-08 3.94579e-08 7.34506e-09
-1.77103e-08 4.05209e-08 7.22927e-09
-5.13919e-09 5.31625e-08 1.44777e-08
-8.18026e-09 2.56102e-08 1.43809e-08
-1.55236e-08 6.48107e-08 1.55362e-08
-2.26765e-08 1.92993e-08 1.65601e-08
6.60481e-09 -6.37367e-09 -1.077e-08
6.66857e-09 6.73396e-09 -1.09209e-08
-6.40768e-09 7.44715e-09 -1.12273e-08
-6.44895e-09 -7.4634e-09 -1.12496e-08
-1.48336e-08 -1.14095e-08 -1.51323e-08
-1.48086e-08 1.13934e-08 -1.51268e-08
6.06135e-11 8.16607e-09 -1.01772e-08
-7.50597e-09 2.11241e-10 -1.03833e-08
7.33395e-09 -2.32161e-10 -9.6912e-09
-2.30566e-11 -8.15562e-09 -1.01752e-08
-1.7723e-08 1.22347e-08 -1.61188e-08
-1.77473e-08 -1.22495e-08 -1.61223e-08
1.36897e-08 7.41939e-09 -1.37411e-08
1.436e-08 -7.68337e-09 -1.39862e-08
2.56064e-11 -1.64838e-08 -1.3975e-08
7.75037e-10 1.64539e-08 -1.39676e-08
5.29165e-09 1.28484e-08 -1.27139e-08
-4.75472e-09 -1.34583e-08 -1.28526e-08
-1.37641e-08 3.87681e-09 -1.39416e-08
-1.40172e-08 -3.81521e-09 -1.4038e-08
5.26023e-09 -1.33425e-08 -1.28306e-08
-4.69165e-09 1.40537e-08 -1.30023e-08
2.39807e-09 -2.40645e-09 -6.31703e-09
2.7299e-09 3.03476e-09 -7.03245e-09
-2.67635e-09 2.62301e-09 -6.80823e-09
-2.83866e-09 -2.79863e-09 -7.05894e-09
-1.84924e-08 1.45711e-08 -1.63099e-08
-1.85164e-08 -1.45847e-08 -1.63132e-08
-1.01961e-08 1.27584e-08 -1.36619e-08
-1.02216e-08 -1.27267e-08 -1.36614e-08
1.44748e-08 -2.14481e-09 -1.30021e-08
1.3706e-08 2.4985e-09 -1.27926e-08
-1.08612e-08 -7.00552e-09 -1.31134e-08
-1.08291e-08 6.98696e-09 -1.31002e-08
2.36837e-09 -2.00803e-08 -1.50198e-08
-1.23338e-09 2.03078e-08 -1.50564e-08
1.04835e-08 -1.14646e-08 -1.33108e-08
1.04724e-08 1.12371e-08 -1.32811e-08
7.6431e-10 4.24649e-09 -7.2579e-09
5.85156e-10 -4.11869e-09 -7.0925e-09
-4.00737e-09 -7.53344e-10 -7.42892e-09
3.87703e-09 -4.65402e-10 -6.89119e-09
-1.83264e-08 8.22625e-09 -1.5932e-08
-1.83484e-08 -8.24019e-09 -1.59351e-08
9.60573e-09 -3.60534e-09 -1.13966e-08
1.56317e-08 1.13303e-08 -1.48363e-08
1.57126e-08 -1.13848e-08 -1.48587e-08
8.98506e-09 3.66773e-09 -1.111e-08
-2.9901e-09 7.23049e-09 -9.96357e-09
-2.86715e-09 -7.06365e-09 -9.83254e-09
-6.34114e-09 3.22715e-09 -9.95787e-09
3.38835e-09 -6.27995e-09 -9.54e-09
3.51082e-09 6.3665e-09 -9.60968e-09
-5.89479e-09 -2.96512e-09 -9.56872e-09
-4.40897e-09 -1.76623e-08 -1.40549e-08
5.21436e-09 1.70786e-08 -1.39438e-08
2.67974e-09 2.07937e-08 -1.51964e-08
-1.48106e-09 -2.1026e-08 -1.52364e-08
-1.97478e-08 1.07478e-08 -1.65669e-08
-1.97698e-08 -1.07621e-08 -1.65682e-08
-1.73262e-08 9.65342e-11 -1.50222e-08
1.9121e-08 -8.6081e-09 -1.53261e-08
1.92117e-08 8.53641e-09 -1.53344e-08
3.74868e-09 -1.67552e-08 -1.39689e-08
-2.91414e-09 1.72491e-08 -1.40755e-08
1.51339e-09 -1.23932e-08 -1.24022e-08
-1.0212e-09 1.25529e-08 -1.24399e-08
5.38341e-09 1.9401e-09 -8.61122e-09
2.11043e-09 1.26441e-08 -1.2519e-08
-1.60988e-09 -1.28464e-08 -1.2569e-08
9.20545e-09 1.47217e-08 -1.34301e-08
5.64105e-09 -2.82787e-09 -9.04463e-09
-8.64434e-09 -1.59631e-08 -1.36963e-08
1.71038e-08 4.44124e-09 -1.39932e-08
1.7397e-08 -4.94618e-09 -1.41368e-08
-1.55134e-08 1.43383e-08 -1.54126e-08
-1.55372e-08 -1.43519e-08 -1.54167e-08
-9.95559e-09 -3.32084e-09 -1.2143e-08
-1.4557e-08 -7.78752e-09 -1.46974e-08
-1.45134e-08 7.77582e-09 -1.46826e-08
-2.05136e-08 1.43809e-08 -1.67651e-08
-2.03055e-08 1.28983e-08 -1.67947e-08
-2.05373e-08 -1.43948e-08 -1.67677e-08
-2.03289e-08 -1.29124e-08 -1.67968e-08
9.41144e-09 -1.47979e-08 -1.34801e-08
-1.16077e-08 1.03665e-08 -1.38726e-08
-1.16363e-08 -1.03812e-08 -1.38812e-08
-1.07973e-09 2.28761e-08 -1.56044e-08
2.46197e-09 -2.26559e-08 -1.55727e-08
-8.83999e-09 1.61133e-08 -1.37624e-08
-9.94761e-09 3.45573e-09 -1.21488e-08
-1.20725e-08 2.26769e-10 -1.30107e-08
1.67999e-08 7.71159e-10 -1.33483e-08
7.14905e-09 1.0161e-08 -1.21653e-08
1.852e-08 1.21572e-08 -1.55913e-08
1.85019e-08 -1.21692e-08 -1.55743e-08
6.86979e-09 -1.00155e-08 -1.20496e-08
1.0116e-08 7.40655e-09 -1.24689e-08
-6.40845e-09 -1.08672e-08 -1.23276e-08
-4.56786e-10 2.17162e-09 -4.78913e-09
-7.2728e-10 -2.24701e-09 -5.03689e-09
-2.06924e-09 5.40589e-10 -4.94296e-09
2.16503e-09 8.23174e-10 -5.09514e-09
-6.46137e-09 1.10514e-08 -1.23815e-08
1.03594e-08 -7.62308e-09 -1.25998e-08
-1.83233e-08 4.8608e-09 -1.55683e-08
-1.84518e-08 -4.81282e-09 -1.55983e-08
8.38001e-10 -8.68035e-10 -2.98045e-09
2.94522e-09 9.64712e-09 -1.1199e-08
9.44989e-10 1.93668e-09 -4.60163e-09
-1.69911e-09 -9.72229e-10 -4.46081e-09
6.97927e-09 -1.73816e-08 -1.3841e-08
3.14939e-09 -9.88005e-09 -1.1337e-08
1.15834e-08 1.58015e-10 -1.18472e-08
-3.09351e-09 -1.03582e-08 -1.15178e-08
5.26665e-09 4.11957e-09 -9.26306e-09
-1.69517e-08 1.01498e-08 -1.57424e-08
-1.69786e-08 -1.01646e-08 -1.57476e-08
-1.27685e-08 -1.58136e-08 -1.45198e-08
-1.26973e-08 1.56555e-08 -1.45077e-08
-2.97493e-09 1.04878e-08 -1.15648e-08
1.24211e-08 4.77029e-09 -1.27533e-08
-6.2155e-09 1.7963e-08 -1.39475e-08
1.27238e-08 1.02461e-08 -1.38404e-08
1.27922e-08 -1.03494e-08 -1.38664e-08
1.30673e-08 -4.96342e-09 -1.30174e-08
-9.45039e-10 9.95975e-10 -3.26651e-09
-1.16959e-09 4.91845e-09 -7.92325e-09
-1.20399e-09 -4.9241e-09 -7.92586e-09
-4.31311e-09 1.1503e-09 -7.80494e-09
-4.34875e-09 5.20262e-09 -9.40243e-09
-4.25887e-09 -5.3539e-09 -9.43615e-09
-8.80826e-09 -9.39893e-09 -1.26715e-08
4.39297e-09 -4.36603e-09 -8.89456e-09
-8.7804e-09 9.40527e-09 -1.26625e-08
-1.29081e-08 1.2901e-08 -1.45293e-08
-1.29423e-08 -1.29353e-08 -1.45372e-08
-7.76333e-09 5.85326e-09 -1.14437e-08
-7.90384e-09 -5.81372e-09 -1.15026e-08
4.59316e-10 -1.71999e-09 -4.10011e-09
1.64715e-09 -4.34863e-10 -4.03899e-09
1.33759e-08 1.37979e-08 -1.42033e-08
1.33695e-08 -1.3802e-08 -1.41979e-08
9.26352e-10 2.23912e-08 -1.55958e-08
4.25293e-10 -2.24084e-08 -1.56027e-08
2.94248e-08 3.07613e-08 -1.12976e-08
3.05303e-08 4.35858e-08 -1.13755e-08
1.79672e-08 4.4411e-08 -1.13667e-08
1.65812e-08 3.11992e-08 -1.1275e-08
1.01417e-08 4.82479e-08 -1.45459e-08
8.38397e-09 2.86037e-08 -1.44855e-08
2.40892e-08 4.52778e-08 -1.06854e-08
1.61336e-08 3.81679e-08 -1.04136e-08
3.07533e-08 3.7146e-08 -1.05139e-08
2.29255e-08 2.97382e-08 -1.06156e-08
7.39908e-09 4.92888e-08 -1.53201e-08
5.5586e-09 2.82798e-08 -1.53001e-08
3.8208e-08 4.48557e-08 -1.40827e-08
3.63915e-08 2.98186e-08 -1.39015e-08
2.21745e-08 2.18973e-08 -1.39881e-08
2.43406e-08 5.36704e-08 -1.4014e-08
2.00139e-08 5.01064e-08 -1.29452e-08
1.77594e-08 2.52909e-08 -1.28179e-08
1.04858e-08 4.1631e-08 -1.30805e-08
9.60752e-09 3.52569e-08 -1.3118e-08
2.90294e-08 5.01343e-08 -1.30534e-08
2.76454e-08 2.44836e-08 -1.29425e-08
2.58263e-08 3.43986e-08 -8.42095e-09
2.64901e-08 4.03683e-08 -8.51361e-09
2.10703e-08 4.01035e-08 -8.26521e-09
2.05958e-08 3.50244e-08 -8.17856e-09
6.77527e-09 5.16168e-08 -1.55936e-08
4.70675e-09 2.61814e-08 -1.55878e-08
1.47733e-08 4.90981e-08 -1.35136e-08
1.26486e-08 2.6694e-08 -1.33675e-08
3.73638e-08 3.94072e-08 -1.32722e-08
3.62769e-08 3.46399e-08 -1.30771e-08
1.24278e-08 3.21261e-08 -1.26607e-08
1.36117e-08 4.41397e-08 -1.27182e-08
2.42297e-08 1.82724e-08 -1.50224e-08
2.65149e-08 5.75273e-08 -1.4972e-08
3.43036e-08 4.81569e-08 -1.35021e-08
3.26512e-08 2.67226e-08 -1.32263e-08
2.46178e-08 4.16072e-08 -8.61714e-09
2.24538e-08 3.33828e-08 -8.49864e-09
1.93533e-08 3.71895e-08 -8.48741e-09
2.76147e-08 3.70679e-08 -8.64719e-09
6.51774e-09 4.55708e-08 -1.47483e-08
5.16269e-09 3.19782e-08 -1.47289e-08
3.29872e-08 4.11253e-08 -1.18244e-08
3.99344e-08 4.84776e-08 -1.48503e-08
3.83845e-08 2.60894e-08 -1.48904e-08
3.21224e-08 3.38692e-08 -1.162e-08
2.1355e-08 4.41567e-08 -1.0351e-08
2.58543e-08 3.08338e-08 -1.0252e-08
1.7579e-08 4.07236e-08 -1.02157e-08
2.73395e-08 4.34772e-08 -1.02773e-08
1.98616e-08 3.1321e-08 -1.02049e-08
1.74735e-08 3.52596e-08 -9.8589e-09
1.77391e-08 2.11589e-08 -1.39815e-08
2.0412e-08 5.43032e-08 -1.40803e-08
2.29021e-08 5.83855e-08 -1.51368e-08
2.03241e-08 1.76382e-08 -1.51939e-08
5.42841e-09 4.79143e-08 -1.54293e-08
3.68457e-09 2.9955e-08 -1.54158e-08
6.72545e-09 3.87385e-08 -1.35683e-08
4.33035e-08 4.58762e-08 -1.52616e-08
4.21111e-08 2.87839e-08 -1.54019e-08
2.76604e-08 5.37964e-08 -1.40612e-08
2.58747e-08 2.13582e-08 -1.4008e-08
2.91529e-08 3.92757e-08 -9.71773e-09
2.39541e-08 2.5668e-08 -1.2531e-08
2.56158e-08 4.94359e-08 -1.26105e-08
2.28368e-08 4.98004e-08 -1.27203e-08
2.08356e-08 2.55078e-08 -1.26409e-08
1.38608e-08 2.33343e-08 -1.35037e-08
1.65634e-08 5.19581e-08 -1.3708e-08
3.95493e-08 3.26842e-08 -1.42098e-08
4.0712e-08 4.21713e-08 -1.42664e-08
9.71525e-09 5.09872e-08 -1.49267e-08
7.5451e-09 2.59215e-08 -1.48542e-08
1.3538e-08 3.52944e-08 -1.17325e-08
8.84057e-09 3.18844e-08 -1.38968e-08
1.01093e-08 4.50107e-08 -1.39288e-08
4.80907e-09 5.16497e-08 -1.58619e-08
5.01789e-09 5.00722e-08 -1.57716e-08
2.72771e-09 2.665e-08 -1.58815e-08
3.01583e-09 2.80356e-08 -1.57697e-08
2.82782e-08 3.47106e-08 -9.58155e-09
3.30088e-08 5.11274e-08 -1.37125e-08
3.15516e-08 2.27858e-08 -1.3545e-08
1.31669e-08 4.71121e-08 -1.35395e-08
1.14779e-08 2.91187e-08 -1.34475e-08
2.67035e-08 6.03148e-08 -1.54526e-08
2.41248e-08 1.57782e-08 -1.5566e-08
1.41265e-08 4.10746e-08 -1.17821e-08
1.17695e-08 3.84841e-08 -1.22941e-08
3.90911e-08 3.63537e-08 -1.36397e-08
4.29806e-08 4.95092e-08 -1.54609e-08
4.14063e-08 2.53538e-08 -1.56003e-08
3.05763e-08 4.66805e-08 -1.23055e-08
2.87116e-08 2.73555e-08 -1.21837e-08
3.30744e-08 3.03207e-08 -1.27126e-08
1.6364e-08 2.80006e-08 -1.22418e-08
1.83124e-08 4.74946e-08 -1.23818e-08
2.3158e-08 3.99917e-08 -7.40754e-09
2.40807e-08 3.48416e-08 -7.48211e-09
2.60734e-08 3.82618e-08 -7.51929e-09
2.10964e-08 3.84338e-08 -7.46269e-09
3.41566e-08 4.46937e-08 -1.28557e-08
6.21615e-09 4.26545e-08 -1.41329e-08
5.28053e-09 3.48909e-08 -1.41294e-08
2.21728e-08 3.64362e-08 -6.74329e-09
1.98116e-08 2.82341e-08 -1.15666e-08
2.47288e-08 3.95779e-08 -7.29507e-09
2.52693e-08 3.63577e-08 -7.1447e-09
2.90476e-08 2.05277e-08 -1.38948e-08
3.06706e-08 5.38956e-08 -1.40128e-08
2.70607e-08 4.68695e-08 -1.16992e-08
3.45299e-08 3.70975e-08 -1.22546e-08
2.13759e-08 4.72597e-08 -1.17639e-08
7.99004e-09 4.72746e-08 -1.48732e-08
6.39932e-09 3.00836e-08 -1.48451e-08
1.00264e-08 2.40787e-08 -1.41483e-08
1.26017e-08 5.18888e-08 -1.43128e-08
2.88871e-08 4.12872e-08 -1.00344e-08
2.57768e-08 2.77185e-08 -1.16777e-08
3.50031e-08 3.25778e-08 -1.29637e-08
3.67613e-08 4.72774e-08 -1.39838e-08
3.53759e-08 2.72579e-08 -1.39305e-08
3.65134e-08 4.22429e-08 -1.32385e-08
2.24968e-08 3.87421e-08 -6.85592e-09
2.42933e-08 3.26825e-08 -8.97061e-09
2.27866e-08 4.22819e-08 -9.02963e-09
1.92135e-08 3.88968e-08 -8.81085e-09
1.98246e-08 4.24728e-08 -9.95675e-09
2.68889e-08 3.25606e-08 -9.73935e-09
1.42162e-08 2.96742e-08 -1.24465e-08
1.58547e-08 4.61428e-08 -1.25499e-08
1.86086e-08 3.29481e-08 -9.95736e-09
1.21208e-08 4.94296e-08 -1.41948e-08
1.00793e-08 2.68826e-08 -1.40842e-08
1.64977e-08 4.30453e-08 -1.14148e-08
1.54698e-08 3.28452e-08 -1.13219e-08
2.25763e-08 3.53063e-08 -7.16868e-09
2.11923e-08 3.69992e-08 -7.19983e-09
3.71808e-08 5.0398e-08 -1.4316e-08
3.5657e-08 2.38375e-08 -1.42023e-08
2.21096e-08 1.61527e-08 -1.55779e-08
2.4648e-08 6.00907e-08 -1.54619e-08
5.05666e-08 -5.95149e-09 -1.12726e-08
5.06036e-08 6.23249e-09 -1.13778e-08
3.76396e-08 6.60039e-09 -1.12818e-08
3.76218e-08 -6.59226e-09 -1.12939e-08
2.95986e-08 9.63693e-09 -1.44787e-08
2.95784e-08 -9.63539e-09 -1.44833e-08
4.39265e-08 7.51453e-09 -1.06608e-08
3.64219e-08 -6.29556e-11 -1.03874e-08
5.12903e-08 -2.45068e-10 -1.03952e-08
4.38428e-08 -7.53423e-09 -1.06789e-08
2.67974e-08 1.01281e-08 -1.52855e-08
2.6772e-08 -1.01302e-08 -1.52902e-08
5.85238e-08 -7.68391e-09 -1.40892e-08
5.78112e-08 7.34895e-09 -1.38627e-08
4.39368e-08 -1.55229e-08 -1.4046e-08
4.46538e-08 1.54736e-08 -1.40565e-08
4.89381e-08 1.18139e-08 -1.29759e-08
3.93044e-08 -1.23552e-08 -1.28513e-08
3.04236e-08 3.14493e-09 -1.30292e-08
3.00342e-08 -3.14554e-09 -1.31358e-08
4.88737e-08 -1.22928e-08 -1.31018e-08
3.93756e-08 1.29291e-08 -1.29864e-08
4.64888e-08 -2.32799e-09 -8.11517e-09
4.67316e-08 2.85448e-09 -8.50291e-09
4.09826e-08 2.53701e-09 -8.35776e-09
4.11073e-08 -2.39011e-09 -8.24303e-09
2.61225e-08 1.22245e-08 -1.55713e-08
2.60935e-08 -1.22282e-08 -1.55835e-08
3.40689e-08 1.12782e-08 -1.338e-08
3.40485e-08 -1.12336e-08 -1.33827e-08
5.80783e-08 -2.24822e-09 -1.32511e-08
5.73968e-08 2.54738e-09 -1.30465e-08
3.33269e-08 -5.9448e-09 -1.26553e-08
3.33433e-08 5.95097e-09 -1.26499e-08
4.63509e-08 -1.91747e-08 -1.50773e-08
4.28919e-08 1.92594e-08 -1.50469e-08
5.43582e-08 -1.07179e-08 -1.35319e-08
5.43558e-08 1.04761e-08 -1.34866e-08
4.46703e-08 3.98573e-09 -8.60646e-09
4.45216e-08 -3.93318e-09 -8.5456e-09
3.97624e-08 6.70939e-10 -8.52179e-09
4.80606e-08 -4.78785e-10 -8.48342e-09
2.60438e-08 6.54998e-09 -1.47006e-08
2.60298e-08 -6.54973e-09 -1.46989e-08
5.35233e-08 -3.52935e-09 -1.17961e-08
6.00586e-08 -1.1347e-08 -1.48626e-08
5.99639e-08 1.12453e-08 -1.48359e-08
5.29282e-08 3.5395e-09 -1.15392e-08
4.09327e-08 6.59169e-09 -1.03911e-08
4.10544e-08 -6.43127e-09 -1.03071e-08
3.75744e-08 -2.81562e-09 -1.01749e-08
4.72883e-08 -5.7913e-09 -1.02377e-08
4.73958e-08 5.83916e-09 -1.02741e-08
3.80514e-08 2.59545e-09 -9.88835e-09
3.96841e-08 -1.64446e-08 -1.4005e-08
4.88018e-08 1.58615e-08 -1.41424e-08
4.6684e-08 1.98411e-08 -1.52537e-08
4.26691e-08 -1.99641e-08 -1.52074e-08
2.47601e-08 8.61515e-09 -1.53904e-08
2.47414e-08 -8.61611e-09 -1.53886e-08
2.69398e-08 4.99469e-11 -1.35084e-08
6.35813e-08 -8.91451e-09 -1.52618e-08
6.36456e-08 8.79376e-09 -1.52719e-08
4.74292e-08 -1.57078e-08 -1.41329e-08
4.11431e-08 1.6132e-08 -1.40629e-08
4.53077e-08 -1.15172e-08 -1.26302e-08
4.28814e-08 1.16428e-08 -1.25837e-08
4.94598e-08 1.84207e-09 -9.57442e-09
4.58745e-08 1.17041e-08 -1.27363e-08
4.23196e-08 -1.19255e-08 -1.26916e-08
5.26967e-08 1.33985e-08 -1.3695e-08
4.96437e-08 -2.67961e-09 -9.89126e-09
3.55691e-08 -1.44463e-08 -1.35256e-08
6.08498e-08 4.58977e-09 -1.41305e-08
6.12202e-08 -5.13042e-09 -1.4257e-08
2.89864e-08 1.2305e-08 -1.48549e-08
2.89627e-08 -1.22988e-08 -1.48589e-08
3.40843e-08 2.87518e-09 -1.17419e-08
2.97307e-08 -6.41391e-09 -1.38867e-08
2.97734e-08 6.41247e-09 -1.38742e-08
2.40946e-08 1.1878e-08 -1.58511e-08
2.42617e-08 1.05294e-08 -1.57449e-08
2.40656e-08 -1.18916e-08 -1.58671e-08
2.4234e-08 -1.05337e-08 -1.57479e-08
5.2898e-08 -1.35229e-08 -1.37562e-08
3.26719e-08 8.94369e-09 -1.34457e-08
3.26527e-08 -8.93836e-09 -1.34523e-08
4.66778e-08 -2.18795e-08 -1.55822e-08
4.31838e-08 2.17788e-08 -1.55782e-08
3.538e-08 1.45759e-08 -1.35717e-08
3.41782e-08 -2.76991e-09 -1.16844e-08
3.18772e-08 2.41576e-10 -1.23007e-08
6.00718e-08 7.84361e-10 -1.35972e-08
5.09351e-08 9.30732e-09 -1.24725e-08
6.30756e-08 -1.2514e-08 -1.54689e-08
6.3082e-08 1.2451e-08 -1.54735e-08
5.06612e-08 -9.20881e-09 -1.23855e-08
5.41265e-08 7.04231e-09 -1.27237e-08
3.76951e-08 -9.77327e-09 -1.22771e-08
4.30601e-08 2.4421e-09 -7.47581e-09
4.32654e-08 -2.32518e-09 -7.38855e-09
4.65768e-08 8.65812e-10 -7.54523e-09
4.13341e-08 -6.10786e-10 -7.40129e-09
3.76415e-08 9.9519e-09 -1.23207e-08
5.43904e-08 -7.28925e-09 -1.28555e-08
2.59688e-08 3.77152e-09 -1.40762e-08
2.57757e-08 -3.69779e-09 -1.40912e-08
4.50661e-08 -1.03942e-09 -6.76707e-09
4.67333e-08 8.86276e-09 -1.15789e-08
4.49548e-08 2.04015e-09 -7.27822e-09
4.18648e-08 9.46931e-10 -7.17121e-09
5.04536e-08 -1.60097e-08 -1.40847e-08
4.69306e-08 -9.09991e-09 -1.17189e-08
5.53179e-08 1.39931e-10 -1.2209e-08
4.08818e-08 -9.49806e-09 -1.17082e-08
4.92335e-08 3.82876e-09 -1.00448e-08
2.74792e-08 8.31718e-09 -1.48274e-08
2.74554e-08 -8.31848e-09 -1.48307e-08
3.16864e-08 1.38004e-08 -1.41413e-08
3.16191e-08 -1.39317e-08 -1.41635e-08
4.09955e-08 9.61897e-09 -1.1738e-08
5.63408e-08 4.7304e-09 -1.29902e-08
3.79169e-08 1.65698e-08 -1.38512e-08
5.69083e-08 -9.98676e-09 -1.39995e-08
5.68329e-08 9.84981e-09 -1.39641e-08
5.69993e-08 -4.98367e-09 -1.32338e-08
4.26609e-08 -1.0518e-09 -6.83565e-09
4.26853e-08 4.60121e-09 -8.99535e-09
4.26739e-08 -4.60112e-09 -9.01122e-09
3.93981e-08 -1.02162e-09 -8.77827e-09
3.96972e-08 4.7838e-09 -9.90913e-09
3.9642e-08 -4.70386e-09 -9.9107e-09
3.53699e-08 -8.22709e-09 -1.24583e-08
4.83911e-08 -4.09159e-09 -9.80991e-09
3.53831e-08 8.25913e-09 -1.24565e-08
3.14653e-08 1.11893e-08 -1.40819e-08
3.14366e-08 -1.12034e-08 -1.40921e-08
3.62986e-08 -5.08168e-09 -1.13454e-08
3.61841e-08 5.03872e-09 -1.13761e-08
4.45839e-08 -2.06244e-09 -7.21872e-09
4.61228e-08 -5.79367e-10 -7.16819e-09
5.71658e-08 -1.31003e-08 -1.43414e-08
5.71655e-08 1.30522e-08 -1.43337e-08
4.51944e-08 2.15074e-08 -1.55995e-08
4.46723e-08 -2.1489e-08 -1.55825e-08
3.0353e-08 -4.36893e-08 -1.13488e-08
2.96018e-08 -3.08848e-08 -1.1337e-08
1.65773e-08 -3.11664e-08 -1.12727e-08
1.79454e-08 -4.43932e-08 -1.13627e-08
8.37734e-09 -2.85913e-08 -1.44828e-08
1.0125e-08 -4.82396e-08 -1.45448e-08
2.27622e-08 -2.9755e-08 -1.06075e-08
1.60771e-08 -3.77816e-08 -1.04108e-08
3.07555e-08 -3.73455e-08 -1.0516e-08
2.42701e-08 -4.52804e-08 -1.0691e-08
5.5593e-09 -2.82733e-08 -1.52964e-08
7.38006e-09 -4.92805e-08 -1.5317e-08
3.70775e-08 -2.95528e-08 -1.41339e-08
3.74658e-08 -4.45754e-08 -1.38682e-08
2.43238e-08 -5.3669e-08 -1.40122e-08
2.28905e-08 -2.18757e-08 -1.39882e-08
2.76787e-08 -2.49991e-08 -1.28311e-08
2.00014e-08 -5.00749e-08 -1.29436e-08
9.81585e-09 -3.51644e-08 -1.30589e-08
1.0239e-08 -4.15744e-08 -1.31374e-08
2.90155e-08 -5.01497e-08 -1.30446e-08
1.77289e-08 -2.46669e-08 -1.29603e-08
2.64123e-08 -4.03012e-08 -8.45843e-09
2.58508e-08 -3.43214e-08 -8.47785e-09
2.04101e-08 -3.51991e-08 -8.22668e-09
2.12658e-08 -4.02484e-08 -8.21822e-09
4.70982e-09 -2.61754e-08 -1.55767e-08
6.75559e-09 -5.16069e-08 -1.55904e-08
1.263e-08 -2.6628e-08 -1.33707e-08
1.47599e-08 -4.90856e-08 -1.3512e-08
3.69803e-08 -3.49775e-08 -1.3298e-08
3.66956e-08 -3.97361e-08 -1.30588e-08
1.35977e-08 -4.4131e-08 -1.27194e-08
1.24162e-08 -3.21137e-08 -1.26555e-08
2.6497e-08 -5.75241e-08 -1.49687e-08
2.05993e-08 -1.83158e-08 -1.50206e-08
3.30616e-08 -2.60645e-08 -1.34338e-08
3.38403e-08 -4.74861e-08 -1.32975e-08
2.37348e-08 -3.32876e-08 -8.56517e-09
2.3363e-08 -4.16448e-08 -8.55458e-09
1.94947e-08 -3.83211e-08 -8.49571e-09
2.76428e-08 -3.75275e-08 -8.65164e-09
5.15666e-09 -3.19727e-08 -1.47303e-08
6.50273e-09 -4.55639e-08 -1.47452e-08
3.23396e-08 -3.33048e-08 -1.18253e-08
3.84802e-08 -2.60276e-08 -1.49204e-08
3.9808e-08 -4.84123e-08 -1.48334e-08
3.26634e-08 -4.05745e-08 -1.16246e-08
1.98226e-08 -3.09347e-08 -1.03724e-08
2.68697e-08 -4.38705e-08 -1.03204e-08
1.69164e-08 -3.50212e-08 -1.01779e-08
2.63479e-08 -3.12308e-08 -1.01966e-08
2.11793e-08 -4.39455e-08 -1.02838e-08
1.80575e-08 -4.04267e-08 -9.89285e-09
2.03926e-08 -5.43018e-08 -1.40833e-08
2.72973e-08 -2.09723e-08 -1.39849e-08
2.28835e-08 -5.83835e-08 -1.51362e-08
2.44605e-08 -1.75778e-08 -1.51962e-08
3.68191e-09 -2.99502e-08 -1.54179e-08
5.41041e-09 -4.79063e-08 -1.54237e-08
6.69557e-09 -3.85709e-08 -1.35681e-08
4.20461e-08 -2.8694e-08 -1.53963e-08
4.33417e-08 -4.57892e-08 -1.52798e-08
2.76421e-08 -5.37956e-08 -1.40558e-08
1.91968e-08 -2.14148e-08 -1.40297e-08
2.87662e-08 -3.52652e-08 -9.70711e-09
2.56014e-08 -4.94334e-08 -1.26015e-08
2.1401e-08 -2.57367e-08 -1.25313e-08
2.45022e-08 -2.54017e-08 -1.2642e-08
2.28201e-08 -4.98033e-08 -1.27234e-08
3.15285e-08 -2.29609e-08 -1.35104e-08
1.65473e-08 -5.19427e-08 -1.37091e-08
4.02897e-08 -4.16736e-08 -1.4148e-08
3.98814e-08 -3.21825e-08 -1.43422e-08
7.54035e-09 -2.59025e-08 -1.48522e-08
9.69766e-09 -5.09773e-08 -1.49251e-08
1.41168e-08 -4.09356e-08 -1.17614e-08
1.00763e-08 -4.50012e-08 -1.39338e-08
8.84991e-09 -3.1871e-08 -1.38889e-08
2.73211e-09 -2.6656e-08 -1.58661e-08
3.02033e-09 -2.80334e-08 -1.57672e-08
4.78748e-09 -5.16397e-08 -1.58573e-08
4.99607e-09 -5.00625e-08 -1.57663e-08
2.87383e-08 -3.98406e-08 -9.60406e-09
3.27825e-08 -5.12418e-08 -1.3702e-08
1.14662e-08 -2.91e-08 -1.34445e-08
1.31519e-08 -4.71018e-08 -1.35388e-08
2.66855e-08 -6.03115e-08 -1.54499e-08
2.05522e-08 -1.58103e-08 -1.55617e-08
1.36286e-08 -2.31867e-08 -1.35527e-08
1.34923e-08 -3.51555e-08 -1.17501e-08
1.17154e-08 -3.8085e-08 -1.22922e-08
3.92149e-08 -3.79124e-08 -1.36302e-08
2.93685e-08 -2.78268e-08 -1.21757e-08
4.14097e-08 -2.53202e-08 -1.56059e-08
4.29567e-08 -4.94818e-08 -1.54748e-08
2.98716e-08 -4.70865e-08 -1.22767e-08
3.40503e-08 -4.40355e-08 -1.27286e-08
1.82821e-08 -4.74407e-08 -1.23694e-08
2.24987e-08 -3.50324e-08 -7.36874e-09
2.46742e-08 -4.00168e-08 -7.52275e-09
2.58337e-08 -3.64385e-08 -7.50771e-09
2.08625e-08 -3.68711e-08 -7.45037e-09
1.62676e-08 -2.77592e-08 -1.23059e-08
3.30939e-08 -2.96712e-08 -1.28351e-08
5.37581e-09 -3.48215e-08 -1.41202e-08
6.08731e-09 -4.25995e-08 -1.41414e-08
2.25201e-08 -3.86683e-08 -6.7636e-09
2.15587e-08 -4.70387e-08 -1.16605e-08
2.55323e-08 -2.81743e-08 -1.14953e-08
2.41615e-08 -3.52708e-08 -7.25929e-09
2.55216e-08 -3.83822e-08 -7.16338e-09
3.06123e-08 -5.39292e-08 -1.40145e-08
3.45299e-08 -3.7326e-08 -1.22579e-08
6.39844e-09 -3.00762e-08 -1.48431e-08
7.97e-09 -4.7267e-08 -1.48714e-08
1.00717e-08 -2.4191e-08 -1.41298e-08
1.25855e-08 -5.18764e-08 -1.43123e-08
2.81888e-08 -3.32597e-08 -1.00051e-08
2.70758e-08 -4.70612e-08 -1.17597e-08
1.96425e-08 -2.78783e-08 -1.17073e-08
3.57265e-08 -4.18192e-08 -1.29475e-08
1.59498e-08 -2.10614e-08 -1.38237e-08
3.54737e-08 -2.70265e-08 -1.39818e-08
3.66224e-08 -4.70326e-08 -1.39387e-08
3.57084e-08 -3.21655e-08 -1.32688e-08
2.21051e-08 -3.63736e-08 -6.83473e-09
2.5188e-08 -4.21611e-08 -9.02858e-09
2.17198e-08 -3.28066e-08 -8.96972e-09
1.8912e-08 -3.66548e-08 -8.79417e-09
2.76776e-08 -4.20643e-08 -9.78868e-09
1.86791e-08 -3.30173e-08 -9.88385e-09
1.58375e-08 -4.61295e-08 -1.25488e-08
1.9669e-08 -4.24976e-08 -1.00215e-08
1.41981e-08 -2.96259e-08 -1.24491e-08
1.00784e-08 -2.68814e-08 -1.40774e-08
1.21051e-08 -4.94189e-08 -1.41938e-08
1.5402e-08 -3.2789e-08 -1.13486e-08
1.6523e-08 -4.2987e-08 -1.13849e-08
2.31459e-08 -3.97236e-08 -7.20484e-09
2.13665e-08 -3.82572e-08 -7.20958e-09
3.60595e-08 -2.36748e-08 -1.43033e-08
3.69102e-08 -5.02516e-08 -1.42705e-08
2.25867e-08 -1.61396e-08 -1.5577e-08
2.46299e-08 -6.0088e-08 -1.54603e-08
-1.21777e-08 -4.66889e-08 -1.13218e-08
-1.40627e-08 -3.35372e-08 -1.15755e-08
-2.81679e-08 -3.69278e-08 -1.20603e-08
-2.45991e-08 -5.05537e-08 -1.15111e-08
-3.27268e-08 -5.57728e-08 -1.46134e-08
-3.80759e-08 -3.61106e-08 -1.5581e-08
-2.1543e-08 -3.3862e-08 -1.1133e-08
-2.72447e-08 -4.42776e-08 -1.08125e-08
-1.23015e-08 -4.04511e-08 -1.04122e-08
-1.81491e-08 -4.99641e-08 -1.07712e-08
-3.57609e-08 -5.71305e-08 -1.53296e-08
-4.15631e-08 -3.6506e-08 -1.63798e-08
-7.18583e-09 -3.20218e-08 -1.39406e-08
-4.52869e-09 -4.73108e-08 -1.41842e-08
-1.70268e-08 -5.84715e-08 -1.40927e-08
-2.25662e-08 -2.55063e-08 -1.4819e-08
-2.74271e-08 -3.01714e-08 -1.39511e-08
-2.18242e-08 -5.57406e-08 -1.30304e-08
-3.24512e-08 -4.91471e-08 -1.34221e-08
-3.46299e-08 -4.26182e-08 -1.38308e-08
-1.66361e-08 -2.74133e-08 -1.33358e-08
-1.2799e-08 -5.39915e-08 -1.31493e-08
-1.66116e-08 -4.3602e-08 -8.14606e-09
-1.76394e-08 -3.79259e-08 -8.64783e-09
-2.33288e-08 -4.04263e-08 -8.61971e-09
-2.19386e-08 -4.56882e-08 -8.5643e-09
-3.62162e-08 -5.94239e-08 -1.55631e-08
-4.32769e-08 -3.46881e-08 -1.69257e-08
-2.75262e-08 -5.5805e-08 -1.35963e-08
-3.34135e-08 -3.30603e-08 -1.46737e-08
-5.08201e-09 -4.17187e-08 -1.32104e-08
-6.51211e-09 -3.70185e-08 -1.30235e-08
-2.91958e-08 -5.11663e-08 -1.29103e-08
-3.25024e-08 -3.88198e-08 -1.34596e-08
-2.04555e-08 -2.12474e-08 -1.57352e-08
-1.44249e-08 -6.20549e-08 -1.50485e-08
-8.02335e-09 -5.11425e-08 -1.36305e-08
-1.12533e-08 -2.91007e-08 -1.34098e-08
-2.00742e-08 -3.73547e-08 -8.88419e-09
-1.81149e-08 -4.59651e-08 -8.61775e-09
-2.36861e-08 -4.4147e-08 -8.81763e-09
-1.5507e-08 -4.1226e-08 -8.51557e-09
-3.65842e-08 -5.35956e-08 -1.4904e-08
-4.03961e-08 -4.02562e-08 -1.55527e-08
-9.61955e-09 -4.35742e-08 -1.18161e-08
-5.6485e-09 -2.78584e-08 -1.49699e-08
-2.85625e-09 -5.10204e-08 -1.50282e-08
-1.14074e-08 -3.65681e-08 -1.15014e-08
-2.43931e-08 -3.59892e-08 -1.08986e-08
-2.10647e-08 -4.95134e-08 -1.04605e-08
-2.70034e-08 -4.10277e-08 -1.07003e-08
-1.52207e-08 -4.72427e-08 -1.02892e-08
-1.74607e-08 -3.45577e-08 -1.0498e-08
-2.49376e-08 -4.65778e-08 -1.01766e-08
-2.09027e-08 -5.98041e-08 -1.41571e-08
-2.74946e-08 -2.56609e-08 -1.53789e-08
-1.79308e-08 -6.34354e-08 -1.52076e-08
-2.45832e-08 -2.1201e-08 -1.63738e-08
-3.79689e-08 -5.59974e-08 -1.54565e-08
-4.3028e-08 -3.86792e-08 -1.6321e-08
-3.63172e-08 -4.67194e-08 -1.41321e-08
1.48675e-10 -4.82286e-08 -1.54153e-08
-1.81139e-09 -3.03925e-08 -1.5413e-08
-1.86494e-08 -2.43283e-08 -1.45531e-08
-1.37201e-08 -5.8035e-08 -1.41488e-08
-2.04928e-08 -2.92349e-08 -1.31214e-08
-1.62145e-08 -5.39058e-08 -1.2694e-08
-1.46085e-08 -3.85208e-08 -9.62853e-09
-2.39021e-08 -2.97277e-08 -1.34712e-08
-1.8963e-08 -5.48466e-08 -1.2804e-08
-1.35352e-08 -4.33106e-08 -9.91637e-09
-2.52091e-08 -5.82562e-08 -1.37822e-08
-3.21941e-08 -2.91243e-08 -1.51548e-08
-3.43036e-09 -3.47501e-08 -1.41292e-08
-1.88258e-09 -4.44334e-08 -1.42725e-08
-3.29511e-08 -5.8485e-08 -1.49442e-08
-3.98244e-08 -3.3634e-08 -1.62759e-08
-2.88867e-08 -4.79179e-08 -1.21013e-08
-3.28252e-08 -5.2631e-08 -1.41066e-08
-3.64799e-08 -3.92954e-08 -1.47357e-08
-3.85138e-08 -5.96504e-08 -1.58054e-08
-3.8557e-08 -5.80946e-08 -1.57281e-08
-4.54383e-08 -3.57121e-08 -1.71188e-08
-4.46461e-08 -3.70389e-08 -1.68033e-08
-1.26443e-08 -2.51082e-08 -1.38067e-08
-8.8843e-09 -5.44099e-08 -1.38363e-08
-2.94818e-08 -5.41755e-08 -1.36478e-08
-3.43467e-08 -3.58873e-08 -1.45069e-08
-1.39285e-08 -6.48716e-08 -1.55249e-08
-2.06057e-08 -1.85799e-08 -1.63296e-08
-3.03873e-08 -4.19759e-08 -1.22903e-08
-3.16174e-08 -4.57508e-08 -1.28155e-08
-3.22805e-09 -3.85445e-08 -1.35057e-08
-2.82546e-09 -2.67599e-08 -1.56698e-08
-5.49956e-11 -5.2011e-08 -1.56713e-08
-1.16153e-08 -5.02277e-08 -1.24501e-08
-1.49221e-08 -3.016e-08 -1.25376e-08
-1.01555e-08 -3.26437e-08 -1.29448e-08
-2.39106e-08 -5.35225e-08 -1.24838e-08
-2.88291e-08 -3.34765e-08 -1.32819e-08
-2.11531e-08 -3.96137e-08 -7.66762e-09
-1.98722e-08 -4.48889e-08 -7.59302e-09
-1.73428e-08 -4.00879e-08 -7.62424e-09
-2.24805e-08 -4.22834e-08 -7.67678e-09
-8.43753e-09 -4.74519e-08 -1.29286e-08
-3.66545e-08 -5.07584e-08 -1.44781e-08
-3.90201e-08 -4.31709e-08 -1.48608e-08
-1.82786e-08 -4.25893e-08 -6.80546e-09
-1.9323e-08 -3.92612e-08 -7.47797e-09
-2.1478e-08 -4.37961e-08 -7.37939e-09
-1.07393e-08 -5.76646e-08 -1.41161e-08
-1.53465e-08 -2.30424e-08 -1.4284e-08
-1.50547e-08 -5.09436e-08 -1.17788e-08
-1.82431e-08 -3.11532e-08 -1.20823e-08
-8.23079e-09 -3.96359e-08 -1.21816e-08
-2.51656e-08 -3.2745e-08 -1.24858e-08
-2.07285e-08 -5.2609e-08 -1.18563e-08
-1.52119e-08 -3.64429e-08 -1.01457e-08
-3.5109e-08 -5.51182e-08 -1.49527e-08
-3.98815e-08 -3.80587e-08 -1.57876e-08
-2.9548e-08 -5.89319e-08 -1.43604e-08
-3.70214e-08 -3.10208e-08 -1.58699e-08
-8.00925e-09 -3.48038e-08 -1.30553e-08
-8.5365e-09 -2.94659e-08 -1.40084e-08
-5.82119e-09 -4.9949e-08 -1.4119e-08
-6.08714e-09 -4.46597e-08 -1.32652e-08
-2.13207e-08 -4.13316e-08 -7.0811e-09
-2.22936e-08 -3.74017e-08 -9.41576e-09
-1.97754e-08 -4.72404e-08 -9.12855e-09
-2.4578e-08 -4.24373e-08 -9.15275e-09
-2.55009e-08 -3.83467e-08 -1.04752e-08
-2.28208e-08 -4.82032e-08 -1.00999e-08
-2.66734e-08 -5.27045e-08 -1.26769e-08
-3.10847e-08 -3.58399e-08 -1.3415e-08
-1.4501e-08 -4.51012e-08 -9.84727e-09
-3.04153e-08 -5.66047e-08 -1.42569e-08
-3.64949e-08 -3.39318e-08 -1.53965e-08
-2.90865e-08 -3.89386e-08 -1.20407e-08
-2.63935e-08 -4.94679e-08 -1.16402e-08
-1.84792e-08 -4.38834e-08 -7.23575e-09
-1.74026e-08 -4.17737e-08 -7.20929e-09
-8.30046e-09 -2.56987e-08 -1.437e-08
-5.139e-09 -5.317e-08 -1.44795e-08
-2.26989e-08 -1.93148e-08 -1.65631e-08
-1.6012e-08 -6.49055e-08 -1.55316e-08
-4.07338e-08 -1.08078e-08 -1.77555e-08
-6.41394e-08 1.26488e-08 -1.85738e-08
-4.07546e-08 1.12369e-08 -1.77467e-08
-6.41608e-08 -1.2651e-08 -1.85741e-08
-7.55193e-08 1.5974e-08 -1.89566e-08
-7.5523e-08 -1.59836e-08 -1.89563e-08
-5.2262e-08 1.49617e-08 -1.81456e-08
-6.72923e-08 3.79341e-10 -1.86496e-08
-3.88568e-08 -4.35599e-10 -1.77378e-08
-5.24092e-08 -1.49849e-08 -1.8149e-08
-7.91922e-08 1.66155e-08 -1.90732e-08
-7.9196e-08 -1.66238e-08 -1.9073e-08
-3.1577e-08 1.0604e-08 -1.75736e-08
-3.08014e-08 -1.08739e-08 -1.75561e-08
-5.13459e-08 -2.52078e-08 -1.81085e-08
-5.02541e-08 2.50473e-08 -1.80423e-08
-4.37072e-08 1.97052e-08 -1.76296e-08
-5.94278e-08 -2.11926e-08 -1.84313e-08
-7.50011e-08 5.90139e-09 -1.88651e-08
-7.52871e-08 -5.78021e-09 -1.88707e-08
-4.37807e-08 -2.038e-08 -1.75986e-08
-5.91561e-08 2.19462e-08 -1.8424e-08
-4.6672e-08 -5.85744e-09 -1.79724e-08
-5.93489e-08 6.02873e-09 -1.84097e-08
-4.64052e-08 6.79594e-09 -1.79618e-08
-5.95452e-08 -6.27463e-09 -1.84167e-08
-7.9878e-08 1.9233e-08 -1.90978e-08
-7.98829e-08 -1.9241e-08 -1.90976e-08
-6.85728e-08 1.87942e-08 -1.8726e-08
-6.85933e-08 -1.87449e-08 -1.87263e-08
-3.04165e-08 -3.23184e-09 -1.73665e-08
-3.13123e-08 3.77921e-09 -1.74171e-08
-7.08682e-08 1.08404e-08 -1.8784e-08
-7.08705e-08 -1.08517e-08 -1.87839e-08
-4.75838e-08 -2.89887e-08 -1.78117e-08
-5.23441e-08 2.97603e-08 -1.82044e-08
-3.6003e-08 -1.64404e-08 -1.74194e-08
-3.60118e-08 1.61228e-08 -1.74393e-08
-5.0902e-08 9.46928e-09 -1.811e-08
-5.11972e-08 -9.36687e-09 -1.81193e-08
-6.22213e-08 -1.61714e-09 -1.85017e-08
-4.36094e-08 -1.12154e-09 -1.78824e-08
-8.01102e-08 1.15354e-08 -1.90281e-08
-8.01123e-08 -1.15437e-08 -1.90277e-08
-3.62253e-08 -5.90795e-09 -1.76686e-08
-2.94359e-08 -1.51256e-08 -1.74701e-08
-2.95478e-08 1.50556e-08 -1.74742e-08
-3.7013e-08 6.0874e-09 -1.769e-08
-5.82366e-08 1.33287e-08 -1.83727e-08
-5.80261e-08 -1.31209e-08 -1.83643e-08
-6.53031e-08 5.91383e-09 -1.85977e-08
-4.59565e-08 -1.17585e-08 -1.79124e-08
-4.57733e-08 1.17709e-08 -1.79085e-08
-6.46299e-08 -5.54219e-09 -1.85761e-08
-5.76563e-08 -2.65079e-08 -1.8395e-08
-4.39263e-08 2.47804e-08 -1.74676e-08
-5.25105e-08 -3.06426e-08 -1.82178e-08
-4.70966e-08 2.96661e-08 -1.77646e-08
-8.16766e-08 1.46024e-08 -1.91054e-08
-8.16797e-08 -1.46101e-08 -1.91052e-08
-7.92699e-08 1.43491e-10 -1.89175e-08
-2.5538e-08 -1.14361e-08 -1.7434e-08
-2.54448e-08 1.13034e-08 -1.74237e-08
-4.60008e-08 -2.48498e-08 -1.76851e-08
-5.55237e-08 2.61084e-08 -1.8318e-08
-4.95111e-08 -2.01125e-08 -1.79933e-08
-5.35909e-08 2.04681e-08 -1.82043e-08
-4.16201e-08 3.80762e-09 -1.78246e-08
-4.85722e-08 2.02569e-08 -1.79411e-08
-5.44848e-08 -2.0818e-08 -1.82417e-08
-3.81292e-08 2.07705e-08 -1.71451e-08
-4.14461e-08 -5.3631e-09 -1.78182e-08
-6.50528e-08 -2.33534e-08 -1.86008e-08
-2.7601e-08 6.32668e-09 -1.72611e-08
-2.73085e-08 -7.01669e-09 -1.72606e-08
-7.60138e-08 1.94055e-08 -1.89763e-08
-7.6019e-08 -1.94149e-08 -1.8976e-08
-7.02221e-08 -5.42102e-09 -1.87401e-08
-7.55819e-08 1.13612e-08 -1.89263e-08
-7.56051e-08 -1.13612e-08 -1.89266e-08
-8.22817e-08 1.87903e-08 -1.91499e-08
-8.22461e-08 1.70589e-08 -1.91431e-08
-8.22863e-08 -1.87975e-08 -1.91497e-08
-8.225e-08 -1.70663e-08 -1.91429e-08
-3.78247e-08 -2.08432e-08 -1.71315e-08
-7.12932e-08 1.53076e-08 -1.88164e-08
-7.12989e-08 -1.53146e-08 -1.88161e-08
-4.70256e-08 -3.17671e-08 -1.77062e-08
-5.15529e-08 3.27085e-08 -1.81639e-08
-6.53431e-08 2.3476e-08 -1.86085e-08
-7.02296e-08 5.65767e-09 -1.8741e-08
-7.31157e-08 3.59692e-10 -1.88035e-08
-2.78344e-08 1.12149e-09 -1.70667e-08
-4.05697e-08 1.57928e-08 -1.76069e-08
-2.63231e-08 1.55026e-08 -1.74329e-08
-2.63283e-08 -1.55547e-08 -1.74312e-08
-4.09496e-08 -1.57463e-08 -1.76259e-08
-3.60476e-08 1.12832e-08 -1.76371e-08
-6.3025e-08 -1.74082e-08 -1.85438e-08
-5.43113e-08 6.429e-09 -1.82363e-08
-5.48788e-08 -6.48199e-09 -1.8256e-08
-4.63203e-08 2.28038e-09 -1.79581e-08
-5.9234e-08 1.61782e-09 -1.84138e-08
-6.30818e-08 1.76398e-08 -1.85465e-08
-3.57196e-08 -1.15465e-08 -1.76261e-08
-8.02772e-08 6.97685e-09 -1.89705e-08
-8.0407e-08 -6.89531e-09 -1.89709e-08
-4.94691e-08 -3.24661e-09 -1.80605e-08
-4.72288e-08 1.63135e-08 -1.79096e-08
-4.99394e-08 5.72351e-09 -1.80818e-08
-5.82479e-08 -2.78771e-09 -1.83847e-08
-4.14082e-08 -2.4623e-08 -1.71653e-08
-4.68834e-08 -1.66166e-08 -1.78833e-08
-3.36491e-08 2.37367e-10 -1.75236e-08
-5.74774e-08 -1.75113e-08 -1.83523e-08
-4.23501e-08 7.64965e-09 -1.78321e-08
-7.83872e-08 1.41658e-08 -1.90272e-08
-7.83932e-08 -1.41732e-08 -1.9027e-08
-7.16408e-08 2.1704e-08 -1.88136e-08
-7.16865e-08 -2.188e-08 -1.88136e-08
-5.72702e-08 1.76761e-08 -1.8345e-08
-3.29027e-08 7.22018e-09 -1.75565e-08
-6.04351e-08 2.64822e-08 -1.8463e-08
-3.28864e-08 -1.44845e-08 -1.74888e-08
-3.2976e-08 1.43262e-08 -1.74975e-08
-3.21489e-08 -7.43539e-09 -1.75393e-08
-5.62881e-08 3.42104e-09 -1.83158e-08
-5.52136e-08 -1.04962e-08 -1.82626e-08
-5.52142e-08 1.04816e-08 -1.82634e-08
-6.26865e-08 2.47064e-09 -1.85153e-08
-6.14047e-08 9.88173e-09 -1.84782e-08
-6.11651e-08 -1.0119e-08 -1.84702e-08
-6.73361e-08 -1.4714e-08 -1.86832e-08
-4.37121e-08 -8.43995e-09 -1.78681e-08
-6.73276e-08 1.47374e-08 -1.86835e-08
-7.26055e-08 1.82418e-08 -1.88619e-08
-7.2622e-08 -1.82724e-08 -1.8862e-08
-6.67271e-08 9.84688e-09 -1.86508e-08
-6.68981e-08 -9.74306e-09 -1.86557e-08
-5.09933e-08 -5.60088e-09 -1.81184e-08
-4.71881e-08 -1.5856e-09 -1.79823e-08
-3.24564e-08 1.84111e-08 -1.71383e-08
-3.24482e-08 -1.84546e-08 -1.71373e-08
-4.97564e-08 -3.19762e-08 -1.80222e-08
-4.90445e-08 3.17994e-08 -1.79543e-08
-1.42137e-08 3.39759e-08 -1.13574e-08
-1.20842e-08 4.70272e-08 -1.14471e-08
-2.45536e-08 5.05169e-08 -1.14994e-08
-2.81762e-08 3.68955e-08 -1.20745e-08
-3.80857e-08 3.6092e-08 -1.55895e-08
-3.27008e-08 5.57531e-08 -1.46143e-08
-1.80674e-08 4.99147e-08 -1.07713e-08
-2.71953e-08 4.44056e-08 -1.08094e-08
-1.23721e-08 3.9967e-08 -1.04077e-08
-2.15247e-08 3.38364e-08 -1.11283e-08
-4.1578e-08 3.64859e-08 -1.63896e-08
-3.57355e-08 5.71127e-08 -1.53306e-08
-5.20372e-09 4.70672e-08 -1.39546e-08
-6.52664e-09 3.1681e-08 -1.41605e-08
-2.25431e-08 2.54906e-08 -1.4814e-08
-1.63749e-08 5.83135e-08 -1.40967e-08
-1.28093e-08 5.34806e-08 -1.304e-08
-2.74123e-08 3.01451e-08 -1.39554e-08
-3.42592e-08 4.2512e-08 -1.37282e-08
-3.27979e-08 4.92303e-08 -1.35305e-08
-1.66152e-08 2.74127e-08 -1.33212e-08
-2.16451e-08 5.62443e-08 -1.3176e-08
-1.77934e-08 3.85435e-08 -8.21195e-09
-1.62383e-08 4.41625e-08 -8.57123e-09
-2.17738e-08 4.54718e-08 -8.42233e-09
-2.35328e-08 4.02799e-08 -8.77511e-09
-4.32973e-08 3.46667e-08 -1.69386e-08
-3.61914e-08 5.94048e-08 -1.55647e-08
-3.34112e-08 3.30376e-08 -1.46845e-08
-2.7489e-08 5.58161e-08 -1.36028e-08
-5.69096e-09 3.73165e-08 -1.32065e-08
-5.76957e-09 4.21232e-08 -1.30264e-08
-3.25072e-08 3.87978e-08 -1.34711e-08
-2.91699e-08 5.11434e-08 -1.29047e-08
-2.04318e-08 2.12349e-08 -1.573e-08
-1.77988e-08 6.26687e-08 -1.50528e-08
-1.09021e-08 2.83469e-08 -1.35879e-08
-8.0536e-09 5.09242e-08 -1.35938e-08
-1.79595e-08 4.59733e-08 -8.7021e-09
-2.01733e-08 3.74435e-08 -8.80348e-09
-2.41102e-08 4.27238e-08 -8.87989e-09
-1.57113e-08 4.02033e-08 -8.52171e-09
-4.04082e-08 4.02424e-08 -1.55615e-08
-3.65567e-08 5.35811e-08 -1.49034e-08
-1.07311e-08 3.63077e-08 -1.18148e-08
-2.9427e-09 5.0967e-08 -1.50036e-08
-5.55456e-09 2.77902e-08 -1.49871e-08
-1.01898e-08 4.36965e-08 -1.15696e-08
-2.11527e-08 4.96579e-08 -1.05635e-08
-2.4385e-08 3.59495e-08 -1.09051e-08
-2.53348e-08 4.69042e-08 -1.04536e-08
-1.75618e-08 3.4705e-08 -1.04173e-08
-1.51085e-08 4.72871e-08 -1.03489e-08
-2.64773e-08 4.11182e-08 -1.04095e-08
-2.74757e-08 2.56379e-08 -1.53802e-08
-1.23872e-08 5.79327e-08 -1.41651e-08
-1.4076e-08 6.27288e-08 -1.52133e-08
-2.45614e-08 2.11835e-08 -1.63717e-08
-4.30409e-08 3.86622e-08 -1.6331e-08
-3.7944e-08 5.59804e-08 -1.54569e-08
-3.63359e-08 4.66046e-08 -1.41403e-08
-1.89124e-09 3.03247e-08 -1.54044e-08
2.26599e-10 4.81397e-08 -1.54194e-08
-1.86259e-08 2.432e-08 -1.45435e-08
-1.95835e-08 5.94032e-08 -1.41733e-08
-2.04693e-08 2.92244e-08 -1.31095e-08
-1.84752e-08 5.44641e-08 -1.26962e-08
-1.38505e-08 4.24537e-08 -9.60999e-09
-1.56721e-08 5.40052e-08 -1.28064e-08
-2.38822e-08 2.97051e-08 -1.34689e-08
-9.08891e-09 5.43606e-08 -1.37811e-08
-1.45653e-08 3.76069e-08 -9.94129e-09
-3.21822e-08 2.9099e-08 -1.51644e-08
-2.21895e-09 4.39245e-08 -1.4133e-08
-3.19244e-09 3.42095e-08 -1.42643e-08
-3.98321e-08 3.36158e-08 -1.62837e-08
-3.29256e-08 5.84655e-08 -1.4946e-08
-3.05224e-08 4.1872e-08 -1.23694e-08
-3.64591e-08 3.9272e-08 -1.47347e-08
-3.28276e-08 5.26232e-08 -1.41146e-08
-4.54626e-08 3.56939e-08 -1.71365e-08
-4.4664e-08 3.70217e-08 -1.68161e-08
-3.84887e-08 5.96328e-08 -1.58066e-08
-3.85318e-08 5.80771e-08 -1.57289e-08
-1.24081e-08 2.51829e-08 -1.37892e-08
-3.43511e-08 3.5865e-08 -1.45171e-08
-2.94534e-08 5.41532e-08 -1.36464e-08
-2.05826e-08 1.85665e-08 -1.63259e-08
-1.75018e-08 6.5439e-08 -1.55283e-08
-2.53789e-08 5.84011e-08 -1.38417e-08
-2.87831e-08 4.77686e-08 -1.20374e-08
-3.17439e-08 4.52335e-08 -1.28417e-08
-2.99998e-09 4.01385e-08 -1.35049e-08
-1.13407e-08 5.03104e-08 -1.2553e-08
-4.81236e-11 5.19857e-08 -1.56763e-08
-2.82565e-09 2.6747e-08 -1.5651e-08
-1.4473e-08 3.03572e-08 -1.24951e-08
-8.69087e-09 4.7264e-08 -1.28036e-08
-2.88239e-08 3.34483e-08 -1.32912e-08
-1.96391e-08 4.47121e-08 -7.51178e-09
-2.13824e-08 3.96156e-08 -7.75839e-09
-1.68627e-08 4.19846e-08 -7.5968e-09
-2.20649e-08 4.35937e-08 -7.62806e-09
-2.39227e-08 5.36704e-08 -1.25376e-08
-1.05481e-08 3.21918e-08 -1.29134e-08
-3.8882e-08 4.30368e-08 -1.48586e-08
-3.68111e-08 5.07063e-08 -1.44939e-08
-1.89429e-08 4.03074e-08 -6.86138e-09
-1.52718e-08 5.07511e-08 -1.16573e-08
-1.80797e-08 4.3776e-08 -7.37583e-09
-2.21417e-08 4.17679e-08 -7.46262e-09
-1.52777e-08 2.30524e-08 -1.42602e-08
-1.83849e-08 3.13052e-08 -1.20065e-08
-8.17123e-09 3.99144e-08 -1.21826e-08
-2.51514e-08 3.27142e-08 -1.2489e-08
-1.37136e-08 4.46682e-08 -1.00989e-08
-3.98888e-08 3.80402e-08 -1.5795e-08
-3.50878e-08 5.51031e-08 -1.49543e-08
-3.70147e-08 3.1e-08 -1.58809e-08
-2.95096e-08 5.87726e-08 -1.43527e-08
-2.05897e-08 5.26701e-08 -1.18993e-08
-6.72658e-09 4.45011e-08 -1.3024e-08
-2.25915e-08 5.99708e-08 -1.4064e-08
-8.40423e-09 2.91551e-08 -1.40726e-08
-5.89837e-09 4.98494e-08 -1.40885e-08
-7.47661e-09 3.45746e-08 -1.32535e-08
-2.0501e-08 4.36166e-08 -6.99135e-09
-1.97572e-08 4.71942e-08 -9.131e-09
-2.22813e-08 3.73589e-08 -9.41719e-09
-2.39166e-08 4.45983e-08 -9.06403e-09
-2.28842e-08 4.81155e-08 -1.00935e-08
-2.5483e-08 3.82959e-08 -1.04806e-08
-3.10906e-08 3.58117e-08 -1.34291e-08
-1.61398e-08 3.63138e-08 -9.91004e-09
-2.66391e-08 5.26972e-08 -1.26758e-08
-3.64984e-08 3.3911e-08 -1.54062e-08
-3.03824e-08 5.65613e-08 -1.42553e-08
-2.62357e-08 4.94487e-08 -1.15926e-08
-2.921e-08 3.89999e-08 -1.2092e-08
-1.96924e-08 3.94579e-08 -7.34506e-09
-1.77103e-08 4.05209e-08 -7.22927e-09
-5.13919e-09 5.31625e-08 -1.44777e-08
-8.18026e-09 2.56102e-08 -1.43809e-08
-1.55236e-08 6.48107e-08 -1.55362e-08
-2.26765e-08 1.92993e-08 -1.65601e-08
SCALARS effective_fluid_pressure_TPM float
LOOKUP_TABLE default
13.3
13.3
13.3
13.3
13.3
13.3
13.3
13.3
13.3
13.3
13.3
13.3
13.3
13.3
0.1
13.3
13.3
13.3
13.3
13.3
13.3
13.3
13.3
13.3
13.3
13.3
13.3
0.1
13.3
13.3
13.3
13.3
13.3
13.3
13.3
13.3
13.3
13.3
0.1
13.3
13.3
13.3
13.3
13.3
13.3
13.3
13.3
13.3
13.3
0.1
13.3
13.3
13.3
13.3
13.3
13.3
13.3
13.3
13.3
13.3
0.1
13.3
13.3
13.3
13.3
13.3
13.3
13.3
13.3
13.3
13.3
11.9275
13.3
13.3
13.3
13.3
13.3
13.3
13.3
13.3
0.1
13.3
13.3
13.3
13.3
13.3
13.3
13.3
13.3
13.3
13.3
13.3
13.3
13.3
13.3
0.1
13.3
13.3
13.3
13.3
13.3
13.3
13.3
13.3
13.3
13.3
13.3
13.3
0.1
13.3
13.3
13.3
13.3
13.3
13.3
13.3
13.3
13.3
13.3
0.1
13.3
13.3
13.3
13.3
13.3
13.3
13.3
13.3
13.3
13.3
0.1
13.3
13.3
13.3
13.3
13.3
13.3
13.3
13.3
13.3
13.3
0.1
13.3
13.3
13.3
13.3
13.3
13.3
13.3
13.3
13.3
13.3
11.9275
13.3
13.3
13.3
13.3
13.3
13.3
13.3
13.3
0.1
13.3
10.5321
9.61614
9.5459
10.358
13.3
13.3
11.36
10.8704
10.8608
11.367
13.3
13.3
10.3674
9.57562
9.61846
10.5327
13.3
10.2589
9.37552
9.37776
10.2582
13.3
10.239
9.37378
9.39218
10.2269
13.3
10.2605
9.40565
9.40494
10.267
0.1
0.1
0.1
13.3
13.3
10.2531
9.41572
9.3882
10.2451
13.3
13.3
10.1853
9.34593
9.38495
10.2626
13.3
10.2618
9.3496
9.36601
10.2366
13.3
10.2418
9.39837
9.36426
10.2654
13.3
10.2252
9.34308
9.35441
10.253
13.3
0.1
0.1
0.1
13.3
13.3
13.3
10.2686
9.40083
9.37601
10.2459
13.3
10.2674
9.36885
9.40355
10.2465
13.3
10.2427
9.3727
9.35567
10.2655
13.3
10.2283
9.37401
9.38268
10.2487
13.3
13.3
0.1
0.1
0.1
13.3
13.3
10.2438
9.40026
9.36582
10.2664
13.3
10.2498
9.37025
9.34275
10.2592
13.3
10.264
9.38716
9.34723
10.1853
13.3
13.3
10.2651
9.39654
9.40818
10.2335
13.3
13.3
0.1
0.1
0.1
13.3
13.3
10.2584
9.39538
9.38127
10.2887
13.3
10.2998
9.44083
9.4131
10.2486
13.3
13.3
10.3134
9.56762
9.64921
10.5244
13.3
13.3
11.4101
10.9365
10.9637
11.4997
13.3
0.1
0.1
0.1
13.3
13.3
12.5324
12.464
12.5502
12.7528
13.3
13.3
12.8125
12.6969
12.6964
12.8126
13.3
13.3
12.7533
12.5499
12.4561
12.5292
13.3
11.4121
10.9396
10.9787
11.5056
13.3
12.0463
12.1724
12.0519
13.3
13.3
13.3
10.5282
9.65033
9.57015
10.3128
13.3
13.3
10.2501
9.40955
9.39456
10.2934
13.3
10.2955
9.43214
9.40454
10.2651
13.3
13.3
0.1
0.1
0.1
13.3
10.5321
9.61614
9.5459
10.358
13.3
13.3
11.36
10.8704
10.8608
11.367
13.3
13.3
10.3674
9.57562
9.61846
10.5327
13.3
10.2589
9.37552
9.37776
10.2582
13.3
10.239
9.37378
9.39218
10.2269
13.3
10.2605
9.40565
9.40494
10.267
0.1
0.1
0.1
13.3
13.3
10.2531
9.41572
9.3882
10.2451
13.3
13.3
10.1853
9.34593
9.38495
10.2626
13.3
10.2618
9.3496
9.36601
10.2366
13.3
10.2418
9.39837
9.36426
10.2654
13.3
10.2252
9.34308
9.35441
10.253
13.3
0.1
0.1
0.1
13.3
13.3
13.3
10.2686
9.40083
9.37601
10.2459
13.3
10.2674
9.36885
9.40355
10.2465
13.3
10.2427
9.3727
9.35567
10.2655
13.3
10.2283
9.37401
9.38268
10.2487
13.3
13.3
0.1
0.1
0.1
13.3
13.3
10.2438
9.40026
9.36582
10.2664
13.3
10.2498
9.37025
9.34275
10.2592
13.3
10.264
9.38716
9.34723
10.1853
13.3
13.3
10.2651
9.39654
9.40818
10.2335
13.3
13.3
0.1
0.1
0.1
13.3
13.3
10.2584
9.39538
9.38127
10.2887
13.3
10.2998
9.44083
9.4131
10.2486
13.3
13.3
10.3134
9.56762
9.64921
10.5244
13.3
13.3
11.4101
10.9365
10.9637
11.4997
13.3
0.1
0.1
0.1
13.3
13.3
12.5324
12.464
12.5502
12.7528
13.3
13.3
12.8125
12.6969
12.6964
12.8126
13.3
13.3
12.7533
12.5499
12.4561
12.5292
13.3
11.4121
10.9396
10.9787
11.5056
13.3
12.0463
12.1724
12.0519
13.3
13.3
13.3
10.5282
9.65033
9.57015
10.3128
13.3
13.3
10.2501
9.40955
9.39456
10.2934
13.3
10.2955
9.43214
9.40454
10.2651
13.3
13.3
0.1
0.1
0.1
7.44493
7.53331
7.76211
7.77232
10.4064
10.4059
7.10425
7.24893
6.77521
7.10346
11.4433
11.443
9.41296
9.61802
9.62818
9.62066
8.6348
8.75206
9.44308
9.49808
8.71312
8.85062
4.64291
5.10533
4.97923
5.13758
11.9606
11.9605
9.27402
9.27095
8.79929
8.67365
8.94983
8.94497
10.7268
10.7597
9.03081
9.01386
5.26306
5.15382
5.38173
5.00876
10.9243
10.9228
7.82731
10.4765
10.5094
7.64948
6.98144
6.89759
6.98577
6.69698
6.73597
6.74152
9.57527
9.47653
10.892
10.9281
11.7795
11.7778
10.0635
11.1446
11.1145
9.57146
9.66328
8.49163
8.52351
6.10553
8.55859
8.60244
9.03747
6.38286
9.24322
9.51569
9.65019
10.6913
10.6912
8.32745
10.0126
10.0063
12.8972
12.4992
12.8971
12.4986
9.07364
9.45614
9.45842
11.8239
11.7997
9.28974
8.33486
8.84902
8.98172
8.28513
11.8211
11.8281
8.21749
8.50906
8.42123
3.61522
3.77994
3.71844
3.81088
8.45651
8.59688
10.4826
10.4963
2.32572
7.71645
3.47402
3.37808
9.35514
7.80137
8.07979
7.93141
6.51464
10.9165
10.917
9.84107
9.83786
7.96236
8.69117
9.45094
9.48459
9.50578
8.8715
2.53282
5.69712
5.69476
5.62342
6.63369
6.65154
8.65639
6.28712
8.65408
9.9178
9.92049
7.90392
7.93642
3.12374
3.07528
9.66577
9.66125
11.8202
11.824
7.4764
7.4896
7.47008
7.48046
9.98136
10.0066
6.9842
6.81411
6.84026
6.99128
11.0781
11.0967
9.60107
9.39683
9.53826
9.53887
8.56367
8.57781
8.73991
8.78605
8.65625
8.6477
4.96836
5.04224
4.79882
4.76223
11.7502
11.7719
8.95427
8.98273
8.78778
8.65339
8.4982
8.48199
10.6775
10.6873
8.99819
8.85081
5.16434
5.07902
5.04212
5.18056
10.197
10.2086
7.82359
10.4942
10.4593
7.68081
6.70668
6.68609
6.63237
6.66654
6.68307
6.38096
9.44311
9.43157
10.8595
10.8599
11.2794
11.2892
9.04411
11.1428
11.1167
9.5173
9.50827
6.19547
8.39355
8.39996
8.4673
8.4766
9.03055
9.00136
9.51122
9.64578
10.3558
10.3942
7.81225
9.45035
9.43064
12.8151
12.2812
12.8204
12.2881
6.1347
9.04349
9.02881
9.06325
9.08719
11.7826
11.7735
7.81861
8.18512
8.96915
11.8206
11.8146
8.13597
8.11135
8.48765
8.17687
8.16619
3.52137
3.75006
3.70123
3.69782
8.5783
9.51421
9.52675
2.35214
7.69867
3.40303
3.26284
9.3159
9.31814
7.72552
8.07871
7.75469
10.4015
10.419
9.56993
9.52375
6.45647
7.76265
8.63162
9.4843
9.44237
8.85687
2.48892
5.55689
5.55262
5.36222
6.39457
6.24378
8.33302
8.31378
6.44949
9.56208
9.59491
7.5331
7.52292
3.15858
3.18274
9.63937
9.58946
11.7882
11.7911
7.41292
7.48783
7.46945
7.47783
9.98884
9.99089
6.98246
6.81028
6.75014
6.99661
11.0838
11.0838
9.60858
9.39687
9.54249
9.54125
8.5791
8.57122
8.732
8.80475
8.66529
8.66994
4.61655
5.04146
4.91581
4.80328
11.7598
11.7606
8.96588
8.96774
8.79095
8.66092
8.48595
8.48261
10.6896
10.6887
9.00847
8.98242
5.17145
5.08199
5.11025
4.98154
10.1951
10.1909
7.80769
10.4998
10.4621
7.62127
6.78329
6.71978
6.63023
6.64471
6.66744
6.40147
9.43231
9.43831
10.8625
10.8569
11.2794
11.2762
9.02389
11.1466
11.1178
9.52267
9.54018
8.4079
8.39635
6.06954
8.47422
8.47455
9.00442
6.35535
9.01263
9.51359
9.65128
10.3722
10.375
7.82132
9.43962
9.43086
12.8171
12.2826
12.8171
12.2816
9.04965
9.06909
9.07339
11.7838
11.7818
9.04808
7.77895
8.20576
8.97559
8.23915
11.8235
11.8147
8.18037
8.47929
8.17584
3.63947
3.5615
3.77337
3.5566
8.20625
8.57631
9.50543
9.51126
2.31225
7.63594
3.38356
3.22145
9.32436
7.73505
8.06369
7.76465
6.4673
10.4041
10.4049
9.53211
9.54669
7.78727
8.67308
9.27779
9.49052
9.46189
8.86009
2.45821
5.54287
5.57463
5.3412
6.40108
6.40187
8.32281
6.25268
8.32189
9.56969
9.57735
7.53041
7.55467
3.17859
3.05602
9.64686
9.64091
11.7922
11.7907
7.47807
7.49462
7.47975
7.46738
10.0054
9.98094
6.98484
6.81425
6.84194
6.98823
11.0971
11.0768
9.6035
9.39843
9.53819
9.53647
8.56532
8.56475
8.74769
8.77771
8.65159
8.68029
4.96854
5.04353
4.80128
4.75792
11.7714
11.7497
8.98412
8.9542
8.7898
8.65504
8.48323
8.49488
10.6858
10.6879
9.00028
8.85408
5.16755
5.07587
5.04067
5.18173
10.212
10.1931
7.82615
10.499
10.4602
7.68238
6.79664
6.68624
6.63871
6.65121
6.67534
6.37527
9.43429
9.42087
10.8598
10.8484
11.2923
11.276
9.04434
11.1448
11.1174
9.51439
9.54469
6.19755
8.39329
8.39889
8.46973
8.47108
9.00068
9.00332
9.51259
9.64789
10.3925
10.3555
7.80518
9.43415
9.44567
12.8205
12.2891
12.8148
12.2799
6.13577
9.03505
9.0849
9.06345
11.7818
11.7815
9.06793
7.82509
8.1853
8.97087
8.10417
11.8238
11.8146
8.11399
8.4896
8.16024
3.52358
3.74931
3.70211
3.69867
8.21949
8.57653
9.52497
9.51595
2.35074
7.69023
7.63543
3.40354
3.26314
9.32311
8.08052
10.4192
10.4004
9.55709
9.52414
6.45954
7.76337
7.79606
8.63325
9.29094
9.48534
9.44465
8.85865
2.48994
5.55569
5.55947
5.36414
6.24439
6.39616
8.31392
6.44112
8.33435
9.58904
9.56207
7.54346
7.51151
3.15672
3.18159
9.68045
9.59359
11.787
11.7909
7.44284
7.72771
7.99719
7.56798
10.06
10.5864
7.37339
7.03775
6.81402
7.03591
11.1325
11.4977
9.48929
9.62632
9.57711
10.0624
9.33643
8.62445
8.89996
9.13646
8.96267
8.69454
4.63744
5.19698
5.03807
5.02408
11.7849
12.1782
9.03362
9.82137
8.82228
8.7193
8.6018
8.96661
11.0166
10.7123
9.0321
9.03903
5.404
5.11025
5.26793
5.03533
10.2876
10.5344
7.84487
10.5492
10.5131
7.66488
7.15129
6.7793
6.95384
6.67472
6.91178
6.54816
9.47956
10.3348
10.8868
11.4359
11.3314
11.5387
9.258
11.1495
11.1472
9.87492
9.55097
8.82115
8.4432
6.16505
9.04598
8.51843
6.39516
9.06771
10.1127
9.55764
9.6626
10.419
11.1561
7.99007
9.54006
9.87645
12.8265
12.3067
12.9249
12.4443
9.27078
9.07484
9.1552
9.72786
11.7971
11.9763
8.11644
8.44308
9.01285
11.8591
11.8298
8.20839
8.41235
8.72024
8.24357
8.87227
3.69671
3.72337
3.85428
3.6934
8.60224
9.65308
9.81589
2.32219
3.54634
3.31387
9.35103
9.62178
7.76751
8.08753
8.11487
8.33112
7.81764
6.61342
10.4781
10.8238
9.59461
10.6535
8.78273
9.5483
9.51045
8.88562
2.55615
5.8702
5.61347
5.55788
6.78855
6.48538
8.40923
8.95471
6.28274
9.63934
10.3814
7.9753
7.67658
3.10265
3.08657
9.77127
9.66655
12.078
11.807
11.7325
12.3905
11.7288
12.3911
12.7515
12.7512
12.0606
12.4309
11.6906
12.0646
12.9333
12.9331
11.7271
11.7556
12.2261
12.1716
11.7165
12.3394
12.616
12.6204
11.7049
12.3427
11.8796
12.2395
11.8737
12.2459
13.0364
13.0362
12.5391
12.5388
11.4785
11.5104
12.5593
12.5594
12.2813
12.5483
11.57
11.5828
12.0029
12.0107
12.3105
11.8012
12.8085
12.8081
11.6592
11.9565
11.9483
11.6711
12.2337
12.2268
12.3927
11.8552
11.8513
12.375
12.4013
11.6986
12.596
12.2763
12.9747
12.9745
12.6534
12.1748
12.1496
11.8933
12.3744
12.0044
12.1689
11.7584
11.9643
12.2021
11.3793
11.7566
12.4649
11.5063
11.5392
12.7952
12.7948
12.509
12.6931
12.6934
13.2189
13.1337
13.2188
13.1336
11.3726
12.6042
12.604
12.6237
12.8549
12.4735
12.5102
12.5577
11.2846
11.6587
12.5217
12.5254
11.6704
11.6775
12.3893
12.0984
12.1149
11.8639
12.2382
12.3923
11.6761
12.7145
12.7144
11.9483
11.8873
11.9693
12.2144
11.4606
11.8718
11.5538
12.2459
11.7744
12.8322
12.832
12.6226
12.6222
12.241
11.6247
12.4198
11.6958
11.6983
11.6288
12.1586
12.1329
12.1328
12.3222
12.3046
12.2994
12.4871
11.8054
12.4872
12.6602
12.6603
12.4446
12.4486
11.9997
11.8835
11.4647
11.4638
12.7819
12.7488
7.56583
7.52918
7.5585
8.00792
10.5917
10.0596
7.03792
7.03516
6.8151
7.36799
11.5012
11.1322
9.41984
9.68638
10.0606
9.57808
8.61726
9.33953
9.07212
8.97022
8.95534
8.72555
4.72279
5.09671
4.87164
5.20077
12.1809
11.7851
9.82886
9.03641
8.84083
8.69471
8.9743
8.59772
11.0151
10.7176
9.16896
9.01274
5.22099
5.29497
5.31854
5.04834
10.5401
10.2846
7.89502
10.4783
10.5814
7.66336
6.85886
7.15664
6.76538
6.85612
6.71436
6.72794
10.3365
9.47149
10.8857
11.4361
11.5419
11.3305
9.26217
11.1768
11.1187
9.8708
9.58224
8.81489
8.44629
6.12225
8.51711
9.04499
9.03699
6.45814
10.1194
9.52844
9.69182
11.1615
10.4195
8.17188
9.87488
9.54598
12.9257
12.4459
12.8265
12.3064
9.26315
9.73467
9.15366
11.9758
11.7994
9.10783
7.94419
8.45865
9.00642
8.27653
11.8219
11.8658
8.38784
8.51246
8.87863
3.5662
3.86106
3.82141
3.65332
8.2779
8.6976
9.81871
9.65753
2.3637
7.68154
3.45768
3.38466
9.60718
8.03671
8.11388
8.33326
6.51556
10.8272
10.4784
10.6622
9.59047
7.84945
8.70396
9.32514
9.60553
9.4867
8.93336
2.48823
5.61579
5.87177
5.48692
6.47485
6.79689
8.96439
6.39576
8.40743
10.3882
9.63646
7.64085
8.01164
3.19239
3.10745
9.66555
9.78375
11.8077
12.0777
7.44493
7.53331
7.76211
7.77232
10.4064
10.4059
7.10425
7.24893
6.77521
7.10346
11.4433
11.443
9.41296
9.61802
9.62818
9.62066
8.6348
8.75206
9.44308
9.49808
8.71312
8.85062
4.64291
5.10533
4.97923
5.13758
11.9606
11.9605
9.27402
9.27095
8.79929
8.67365
8.94983
8.94497
10.7268
10.7597
9.03081
9.01386
5.26306
5.15382
5.38173
5.00876
10.9243
10.9228
7.82731
10.4765
10.5094
7.64948
6.98144
6.89759
6.98577
6.69698
6.73597
6.74152
9.57527
9.47653
10.892
10.9281
11.7795
11.7778
10.0635
11.1446
11.1145
9.57146
9.66328
8.49163
8.52351
6.10553
8.55859
8.60244
9.03747
6.38286
9.24322
9.51569
9.65019
10.6913
10.6912
8.32745
10.0126
10.0063
12.8972
12.4992
12.8971
12.4986
9.07364
9.45614
9.45842
11.8239
11.7997
9.28974
8.33486
8.84902
8.98172
8.28513
11.8211
11.8281
8.21749
8.50906
8.42123
3.61522
3.77994
3.71844
3.81088
8.45651
8.59688
10.4826
10.4963
2.32572
7.71645
3.47402
3.37808
9.35514
7.80137
8.07979
7.93141
6.51464
10.9165
10.917
9.84107
9.83786
7.96236
8.69117
9.45094
9.48459
9.50578
8.8715
2.53282
5.69712
5.69476
5.62342
6.63369
6.65154
8.65639
6.28712
8.65408
9.9178
9.92049
7.90392
7.93642
3.12374
3.07528
9.66577
9.66125
11.8202
11.824
7.4764
7.4896
7.47008
7.48046
9.98136
10.0066
6.9842
6.81411
6.84026
6.99128
11.0781
11.0967
9.60107
9.39683
9.53826
9.53887
8.56367
8.57781
8.73991
8.78605
8.65625
8.6477
4.96836
5.04224
4.79882
4.76223
11.7502
11.7719
8.95427
8.98273
8.78778
8.65339
8.4982
8.48199
10.6775
10.6873
8.99819
8.85081
5.16434
5.07902
5.04212
5.18056
10.197
10.2086
7.82359
10.4942
10.4593
7.68081
6.70668
6.68609
6.63237
6.66654
6.68307
6.38096
9.44311
9.43157
10.8595
10.8599
11.2794
11.2892
9.04411
11.1428
11.1167
9.5173
9.50827
6.19547
8.39355
8.39996
8.4673
8.4766
9.03055
9.00136
9.51122
9.64578
10.3558
10.3942
7.81225
9.45035
9.43064
12.8151
12.2812
12.8204
12.2881
6.1347
9.04349
9.02881
9.06325
9.08719
11.7826
11.7735
7.81861
8.18512
8.96915
11.8206
11.8146
8.13597
8.11135
8.48765
8.17687
8.16619
3.52137
3.75006
3.70123
3.69782
8.5783
9.51421
9.52675
2.35214
7.69867
3.40303
3.26284
9.3159
9.31814
7.72552
8.07871
7.75469
10.4015
10.419
9.56993
9.52375
6.45647
7.76265
8.63162
9.4843
9.44237
8.85687
2.48892
5.55689
5.55262
5.36222
6.39457
6.24378
8.33302
8.31378
6.44949
9.56208
9.59491
7.5331
7.52292
3.15858
3.18274
9.63937
9.58946
11.7882
11.7911
7.41292
7.48783
7.46945
7.47783
9.98884
9.99089
6.98246
6.81028
6.75014
6.99661
11.0838
11.0838
9.60858
9.39687
9.54249
9.54125
8.5791
8.57122
8.732
8.80475
8.66529
8.66994
4.61655
5.04146
4.91581
4.80328
11.7598
11.7606
8.96588
8.96774
8.79095
8.66092
8.48595
8.48261
10.6896
10.6887
9.00847
8.98242
5.17145
5.08199
5.11025
4.98154
10.1951
10.1909
7.80769
10.4998
10.4621
7.62127
6.78329
6.71978
6.63023
6.64471
6.66744
6.40147
9.43231
9.43831
10.8625
10.8569
11.2794
11.2762
9.02389
11.1466
11.1178
9.52267
9.54018
8.4079
8.39635
6.06954
8.47422
8.47455
9.00442
6.35535
9.01263
9.51359
9.65128
10.3722
10.375
7.82132
9.43962
9.43086
12.8171
12.2826
12.8171
12.2816
9.04965
9.06909
9.07339
11.7838
11.7818
9.04808
7.77895
8.20576
8.97559
8.23915
11.8235
11.8147
8.18037
8.47929
8.17584
3.63947
3.5615
3.77337
3.5566
8.20625
8.57631
9.50543
9.51126
2.31225
7.63594
3.38356
3.22145
9.32436
7.73505
8.06369
7.76465
6.4673
10.4041
10.4049
9.53211
9.54669
7.78727
8.67308
9.27779
9.49052
9.46189
8.86009
2.45821
5.54287
5.57463
5.3412
6.40108
6.40187
8.32281
6.25268
8.32189
9.56969
9.57735
7.53041
7.55467
3.17859
3.05602
9.64686
9.64091
11.7922
11.7907
7.47807
7.49462
7.47975
7.46738
10.0054
9.98094
6.98484
6.81425
6.84194
6.98823
11.0971
11.0768
9.6035
9.39843
9.53819
9.53647
8.56532
8.56475
8.74769
8.77771
8.65159
8.68029
4.96854
5.04353
4.80128
4.75792
11.7714
11.7497
8.98412
8.9542
8.7898
8.65504
8.48323
8.49488
10.6858
10.6879
9.00028
8.85408
5.16755
5.07587
5.04067
5.18173
10.212
10.1931
7.82615
10.499
10.4602
7.68238
6.79664
6.68624
6.63871
6.65121
6.67534
6.37527
9.43429
9.42087
10.8598
10.8484
11.2923
11.276
9.04434
11.1448
11.1174
9.51439
9.54469
6.19755
8.39329
8.39889
8.46973
8.47108
9.00068
9.00332
9.51259
9.64789
10.3925
10.3555
7.80518
9.43415
9.44567
12.8205
12.2891
12.8148
12.2799
6.13577
9.03505
9.0849
9.06345
11.7818
11.7815
9.06793
7.82509
8.1853
8.97087
8.10417
11.8238
11.8146
8.11399
8.4896
8.16024
3.52358
3.74931
3.70211
3.69867
8.21949
8.57653
9.52497
9.51595
2.35074
7.69023
7.63543
3.40354
3.26314
9.32311
8.08052
10.4192
10.4004
9.55709
9.52414
6.45954
7.76337
7.79606
8.63325
9.29094
9.48534
9.44465
8.85865
2.48994
5.55569
5.55947
5.36414
6.24439
6.39616
8.31392
6.44112
8.33435
9.58904
9.56207
7.54346
7.51151
3.15672
3.18159
9.68045
9.59359
11.787
11.7909
7.44284
7.72771
7.99719
7.56798
10.06
10.5864
7.37339
7.03775
6.81402
7.03591
11.1325
11.4977
9.48929
9.62632
9.57711
10.0624
9.33643
8.62445
8.89996
9.13646
8.96267
8.69454
4.63744
5.19698
5.03807
5.02408
11.7849
12.1782
9.03362
9.82137
8.82228
8.7193
8.6018
8.96661
11.0166
10.7123
9.0321
9.03903
5.404
5.11025
5.26793
5.03533
10.2876
10.5344
7.84487
10.5492
10.5131
7.66488
7.15129
6.7793
6.95384
6.67472
6.91178
6.54816
9.47956
10.3348
10.8868
11.4359
11.3314
11.5387
9.258
11.1495
11.1472
9.87492
9.55097
8.82115
8.4432
6.16505
9.04598
8.51843
6.39516
9.06771
10.1127
9.55764
9.6626
10.419
11.1561
7.99007
9.54006
9.87645
12.8265
12.3067
12.9249
12.4443
9.27078
9.07484
9.1552
9.72786
11.7971
11.9763
8.11644
8.44308
9.01285
11.8591
11.8298
8.20839
8.41235
8.72024
8.24357
8.87227
3.69671
3.72337
3.85428
3.6934
8.60224
9.65308
9.81589
2.32219
3.54634
3.31387
9.35103
9.62178
7.76751
8.08753
8.11487
8.33112
7.81764
6.61342
10.4781
10.8238
9.59461
10.6535
8.78273
9.5483
9.51045
8.88562
2.55615
5.8702
5.61347
5.55788
6.78855
6.48538
8.40923
8.95471
6.28274
9.63934
10.3814
7.9753
7.67658
3.10265
3.08657
9.77127
9.66655
12.078
11.807
11.7325
12.3905
11.7288
12.3911
12.7515
12.7512
12.0606
12.4309
11.6906
12.0646
12.9333
12.9331
11.7271
11.7556
12.2261
12.1716
11.7165
12.3394
12.616
12.6204
11.7049
12.3427
11.8796
12.2395
11.8737
12.2459
13.0364
13.0362
12.5391
12.5388
11.4785
11.5104
12.5593
12.5594
12.2813
12.5483
11.57
11.5828
12.0029
12.0107
12.3105
11.8012
12.8085
12.8081
11.6592
11.9565
11.9483
11.6711
12.2337
12.2268
12.3927
11.8552
11.8513
12.375
12.4013
11.6986
12.596
12.2763
12.9747
12.9745
12.6534
12.1748
12.1496
11.8933
12.3744
12.0044
12.1689
11.7584
11.9643
12.2021
11.3793
11.7566
12.4649
11.5063
11.5392
12.7952
12.7948
12.509
12.6931
12.6934
13.2189
13.1337
13.2188
13.1336
11.3726
12.6042
12.604
12.6237
12.8549
12.4735
12.5102
12.5577
11.2846
11.6587
12.5217
12.5254
11.6704
11.6775
12.3893
12.0984
12.1149
11.8639
12.2382
12.3923
11.6761
12.7145
12.7144
11.9483
11.8873
11.9693
12.2144
11.4606
11.8718
11.5538
12.2459
11.7744
12.8322
12.832
12.6226
12.6222
12.241
11.6247
12.4198
11.6958
11.6983
11.6288
12.1586
12.1329
12.1328
12.3222
12.3046
12.2994
12.4871
11.8054
12.4872
12.6602
12.6603
12.4446
12.4486
11.9997
11.8835
11.4647
11.4638
12.7819
12.7488
7.56583
7.52918
7.5585
8.00792
10.5917
10.0596
7.03792
7.03516
6.8151
7.36799
11.5012
11.1322
9.41984
9.68638
10.0606
9.57808
8.61726
9.33953
9.07212
8.97022
8.95534
8.72555
4.72279
5.09671
4.87164
5.20077
12.1809
11.7851
9.82886
9.03641
8.84083
8.69471
8.9743
8.59772
11.0151
10.7176
9.16896
9.01274
5.22099
5.29497
5.31854
5.04834
10.5401
10.2846
7.89502
10.4783
10.5814
7.66336
6.85886
7.15664
6.76538
6.85612
6.71436
6.72794
10.3365
9.47149
10.8857
11.4361
11.5419
11.3305
9.26217
11.1768
11.1187
9.8708
9.58224
8.81489
8.44629
6.12225
8.51711
9.04499
9.03699
6.45814
10.1194
9.52844
9.69182
11.1615
10.4195
8.17188
9.87488
9.54598
12.9257
12.4459
12.8265
12.3064
9.26315
9.73467
9.15366
11.9758
11.7994
9.10783
7.94419
8.45865
9.00642
8.27653
11.8219
11.8658
8.38784
8.51246
8.87863
3.5662
3.86106
3.82141
3.65332
8.2779
8.6976
9.81871
9.65753
2.3637
7.68154
3.45768
3.38466
9.60718
8.03671
8.11388
8.33326
6.51556
10.8272
10.4784
10.6622
9.59047
7.84945
8.70396
9.32514
9.60553
9.4867
8.93336
2.48823
5.61579
5.87177
5.48692
6.47485
6.79689
8.96439
6.39576
8.40743
10.3882
9.63646
7.64085
8.01164
3.19239
3.10745
9.66555
9.78375
11.8077
12.0777
VECTORS nodal_fluid_flux_TPM float
-7.52755e-05 1.77402e-06 -1.86466e-21
6.19063e-05 -2.56435e-05 1.08683e-20
3.55943e-05 5.93465e-05 5.74633e-21
0.000135918 1.78941e-05 3.63203e-20
-1.97642e-05 -3.42314e-05 2.1838e-20
-1.96468e-05 3.40281e-05 2.36585e-21
0.00013596 -1.78997e-05 -8.10857e-20
3.55939e-05 -5.93185e-05 5.84564e-22
-7.51746e-05 -2.00745e-06 -1.08587e-20
6.19539e-05 2.56633e-05 1.45403e-20
-3.68669e-05 -6.90821e-05 -3.11687e-20
5.13212e-05 5.17006e-05 1.47085e-20
5.13034e-05 -5.15598e-05 -9.60624e-21
-4.8668e-05 8.42979e-05 -5.67677e-21
-0.000108232 8.81571e-05 -1.03533e-21
0.000161823 -2.13042e-05 -3.98118e-20
-3.70727e-05 6.42117e-05 5.20196e-20
-3.74736e-05 -6.49031e-05 -4.55045e-20
0.000163607 2.15392e-05 -1.9565e-20
6.34387e-05 2.6277e-05 -2.53745e-20
-4.85717e-05 -8.41308e-05 -5.84912e-20
3.68222e-05 -6.90326e-05 1.68663e-20
-7.79394e-05 -1.08054e-06 -1.96876e-20
-3.76668e-05 -6.52388e-05 3.55675e-21
-3.75075e-05 6.4965e-05 -1.10383e-21
-3.70562e-05 -6.90148e-05 -7.60886e-21
6.2627e-05 2.59418e-05 1.70006e-21
-0.000159243 1.86691e-05 2.9725e-20
0.000162936 2.14497e-05 2.70788e-20
4.85384e-05 -8.40721e-05 -1.86555e-20
-7.78132e-05 -1.26941e-06 2.63132e-21
-3.74891e-05 -6.49315e-05 -5.12986e-20
-3.76015e-05 6.51263e-05 -3.77353e-20
-7.77862e-05 1.08347e-06 -4.08837e-20
3.67517e-05 6.8992e-05 -3.39566e-20
-7.77154e-05 -1.22095e-06 1.64999e-20
4.87053e-05 -8.43621e-05 2.97914e-20
0.000162951 -2.14517e-05 7.71982e-21
-0.000107505 8.7632e-05 3.37543e-21
-3.76318e-05 -6.51802e-05 -6.30663e-20
-3.74967e-05 6.49443e-05 1.00204e-20
-7.77758e-05 1.37491e-06 -1.90022e-21
3.68691e-05 6.90661e-05 -8.52408e-20
-4.858e-05 8.41451e-05 -1.04281e-19
6.34401e-05 -2.62776e-05 -2.59575e-21
0.000163723 -2.15544e-05 3.08039e-20
-3.75506e-05 6.50363e-05 -1.02996e-20
-3.69835e-05 -6.40571e-05 -1.17741e-20
0.000161783 2.12989e-05 -4.59186e-20
-0.000159272 1.86576e-05 6.27435e-21
-7.74287e-05 1.14788e-06 2.95658e-20
3.65312e-05 6.83602e-05 2.37106e-20
-4.80629e-05 8.3248e-05 -1.89608e-20
6.21504e-05 -2.57426e-05 3.37702e-20
0.000159759 -2.10294e-05 1.11164e-19
5.01805e-05 5.00474e-05 -4.69253e-20
4.16839e-05 -4.77494e-05 -3.75054e-20
0.000126571 1.66678e-05 -2.71818e-20
2.96568e-05 2.73321e-05 -9.03548e-21
-4.37197e-05 -6.89106e-06 -2.83669e-20
-0.000108985 8.79455e-05 -2.13325e-20
-1.66784e-05 2.88872e-05 4.68817e-21
1.11444e-05 -4.61626e-06 -9.11088e-21
2.73863e-05 -3.60543e-06 8.65108e-21
8.50695e-06 8.08048e-06 -8.62348e-21
8.50144e-06 -8.07596e-06 -1.15362e-20
2.73674e-05 3.60294e-06 2.68134e-20
1.11346e-05 4.61218e-06 -1.6046e-20
-7.22603e-06 -2.11784e-05 6.2417e-21
3.65466e-05 -1.514e-05 3.37803e-20
-3.93451e-05 6.81505e-05 -1.64978e-20
3.12651e-06 1.15202e-06 4.2879e-20
0.000126295 -1.66316e-05 1.89704e-20
4.16003e-05 4.7673e-05 -1.28243e-20
5.01902e-05 -5.00824e-05 -1.99059e-20
0.000159771 2.1031e-05 -1.20806e-19
6.212e-05 2.573e-05 -1.35336e-20
-3.6476e-05 -6.82524e-05 -5.7433e-20
4.80375e-05 -8.32078e-05 -7.40136e-20
-7.73892e-05 -1.3734e-06 2.84779e-20
-0.000109006 8.97504e-05 -1.20265e-20
-7.52755e-05 1.77402e-06 1.12628e-20
6.19063e-05 -2.56435e-05 2.39957e-20
3.55943e-05 5.93465e-05 -4.23051e-21
0.000135918 1.78941e-05 3.94709e-20
-1.97642e-05 -3.42314e-05 -5.46707e-21
-1.96468e-05 3.40281e-05 5.51643e-21
0.00013596 -1.78997e-05 -7.89853e-20
3.55939e-05 -5.93185e-05 -3.61621e-21
-7.51746e-05 -2.00745e-06 2.90486e-20
6.19539e-05 2.56633e-05 -1.69656e-20
-3.68669e-05 -6.90821e-05 -1.27903e-20
5.13212e-05 5.17006e-05 1.05603e-21
5.13034e-05 -5.15598e-05 1.42079e-21
-4.8668e-05 8.42979e-05 -2.61555e-20
-0.000108232 8.81571e-05 2.77415e-22
0.000161823 -2.13042e-05 -2.93098e-20
-3.70727e-05 6.42117e-05 4.25679e-20
-3.74736e-05 -6.49031e-05 -4.39292e-20
0.000163607 2.15392e-05 -2.16654e-20
6.34387e-05 2.6277e-05 -5.16294e-20
-4.85717e-05 -8.41308e-05 -3.27614e-20
3.68222e-05 -6.90326e-05 1.73914e-20
-7.79394e-05 -1.08054e-06 -5.27688e-20
-3.76668e-05 -6.52388e-05 2.50655e-21
-3.75075e-05 6.4965e-05 1.99001e-20
-3.70562e-05 -6.90148e-05 -6.03356e-21
6.2627e-05 2.59418e-05 8.00122e-21
-0.000159243 1.86691e-05 2.89374e-20
0.000162936 2.14497e-05 1.65769e-20
4.85384e-05 -8.40721e-05 -2.07559e-20
-7.78132e-05 -1.26941e-06 1.31333e-20
-3.74891e-05 -6.49315e-05 -5.09007e-21
-3.76015e-05 6.51263e-05 -1.41059e-20
-7.77862e-05 1.08347e-06 -3.24822e-20
3.67517e-05 6.8992e-05 -1.24276e-20
-7.77154e-05 -1.22095e-06 -1.71063e-20
4.87053e-05 -8.43621e-05 3.08416e-20
0.000162951 -2.14517e-05 5.61943e-21
-0.000107505 8.7632e-05 3.90053e-21
-3.76318e-05 -6.51802e-05 -5.72902e-20
-3.74967e-05 6.49443e-05 -1.53176e-21
-7.77758e-05 1.37491e-06 -2.95042e-21
3.68691e-05 6.90661e-05 -8.78663e-20
-4.858e-05 8.41451e-05 -1.10057e-19
6.34401e-05 -2.62776e-05 1.07993e-21
0.000163723 -2.15544e-05 3.71051e-20
-3.75506e-05 6.50363e-05 -1.60757e-20
-3.69835e-05 -6.40571e-05 1.23804e-20
0.000161783 2.12989e-05 -4.38182e-20
-0.000159272 1.86576e-05 3.12376e-21
-7.74287e-05 1.14788e-06 -5.61574e-21
3.65312e-05 6.83602e-05 -2.24979e-20
-4.80629e-05 8.3248e-05 4.67765e-22
6.21504e-05 -2.57426e-05 2.74691e-20
0.000159759 -2.10294e-05 1.21666e-19
5.01805e-05 5.00474e-05 -3.43229e-20
4.16839e-05 -4.77494e-05 -2.07023e-20
0.000126571 1.66678e-05 -2.19309e-20
2.96568e-05 2.73321e-05 -1.21861e-20
-4.37197e-05 -6.89106e-06 -3.16225e-21
-0.000108985 8.79455e-05 -2.08074e-20
-1.66784e-05 2.88872e-05 2.58778e-21
1.11444e-05 -4.61626e-06 2.44125e-21
2.73863e-05 -3.60543e-06 1.07515e-20
8.50695e-06 8.08048e-06 9.22981e-21
8.50144e-06 -8.07596e-06 1.5934e-23
2.73674e-05 3.60294e-06 8.96008e-21
1.11346e-05 4.61218e-06 -1.18452e-20
-7.22603e-06 -2.11784e-05 -3.21005e-21
3.65466e-05 -1.514e-05 1.7413e-22
-3.93451e-05 6.81505e-05 -4.42057e-21
3.12651e-06 1.15202e-06 4.65547e-20
0.000126295 -1.66316e-05 5.25766e-20
4.16003e-05 4.7673e-05 1.34306e-20
5.01902e-05 -5.00824e-05 -1.46549e-20
0.000159771 2.1031e-05 -1.34459e-19
6.212e-05 2.573e-05 7.47029e-21
-3.6476e-05 -6.82524e-05 -3.95797e-20
4.80375e-05 -8.32078e-05 -1.03944e-19
-7.73892e-05 -1.3734e-06 2.74812e-21
-0.000109006 8.97504e-05 -1.4652e-20
-1.43918e-05 -9.08612e-05 2.24262e-20
3.55943e-05 5.93465e-05 -3.52701e-21
5.02723e-06 7.04461e-06 -1.72645e-20
-2.06062e-05 1.88422e-07 -3.0471e-20
-7.52755e-05 1.77402e-06 -1.6595e-20
6.64485e-05 -1.8774e-05 -9.93914e-21
2.98562e-05 -7.20798e-05 1.31651e-20
1.15518e-05 2.2063e-05 -3.07444e-20
1.07636e-05 2.09525e-07 -1.01874e-19
1.07636e-05 2.09525e-07 -9.73913e-20
1.25776e-05 -2.08554e-05 -3.00489e-20
2.98777e-05 7.21318e-05 -3.03165e-21
6.64468e-05 1.87916e-05 -1.62679e-20
-7.51746e-05 -2.00745e-06 -8.48543e-20
-2.03432e-05 -6.24198e-07 -1.36351e-19
5.56863e-06 -7.34244e-06 -1.41424e-19
3.55939e-05 -5.93185e-05 -1.08685e-19
1.60939e-05 9.08595e-05 -2.09263e-20
-3.68669e-05 -6.90821e-05 -9.03033e-20
-2.44439e-06 -6.74357e-06 -1.56411e-19
2.17335e-05 8.45163e-07 -1.11483e-19
5.45088e-05 1.5128e-05 -8.71193e-20
-7.79638e-05 -7.20875e-10 -3.60352e-20
3.47227e-05 -6.69036e-05 -4.00454e-20
9.90732e-06 -1.89107e-05 -1.11216e-19
9.83016e-06 1.82434e-05 -1.50719e-19
3.46062e-05 6.71687e-05 -1.14511e-19
-7.79837e-05 6.93647e-10 1.68387e-20
5.44583e-05 -1.50982e-05 -1.18181e-19
2.14194e-05 -2.72278e-07 -8.29997e-20
5.17713e-06 8.93578e-06 -2.92881e-20
-2.60863e-05 2.11228e-05 -4.07945e-20
8.76524e-05 -0.00010663 1.8616e-21
0.000111488 -8.58259e-05 4.80497e-23
-8.81663e-05 0.000109123 -2.41444e-21
7.51577e-05 2.44407e-05 -4.33137e-21
3.77276e-05 9.10789e-05 5.19734e-21
-4.35826e-06 4.01433e-05 -2.76098e-20
-9.96687e-06 6.01622e-07 -5.987e-20
-9.96687e-06 6.01622e-07 -8.75117e-20
-3.06879e-06 -3.82586e-05 -1.97514e-20
3.79846e-05 -9.16992e-05 1.78533e-20
7.62734e-05 -2.45574e-05 -1.5103e-20
5.50185e-05 1.65386e-05 -6.79439e-21
2.07033e-05 8.34908e-07 -1.03777e-19
4.25048e-06 -9.06753e-06 -1.76607e-19
-2.62737e-05 -2.13049e-05 -1.89197e-19
1.54367e-05 -9.27475e-05 -3.22682e-20
3.68222e-05 -6.90326e-05 -5.98403e-20
3.50956e-06 -6.25187e-06 3.19035e-19
-2.17317e-05 4.17204e-07 3.56847e-19
-7.79394e-05 -1.08054e-06 2.3226e-19
-7.83612e-05 2.61819e-10 -3.08793e-20
-5.35899e-06 -4.01183e-05 1.67266e-19
-1.0357e-05 -7.4553e-07 5.74983e-20
-1.0357e-05 -7.4553e-07 -1.04879e-19
-4.08294e-06 3.82404e-05 -4.19477e-20
-7.83237e-05 3.45819e-10 -2.01257e-20
5.48158e-05 1.56491e-05 -3.64334e-20
2.15953e-05 1.15594e-06 5.53326e-20
-2.71516e-06 -6.67652e-06 3.99206e-20
-3.70562e-05 -6.90148e-05 -2.74393e-20
1.58521e-05 9.29832e-05 -6.4339e-21
8.38417e-05 -0.000104457 3.03145e-20
0.000107449 8.70299e-05 1.05404e-20
8.69421e-05 0.000106974 -2.07113e-20
3.7934e-05 -9.15787e-05 -1.95135e-20
7.57696e-05 -2.45588e-05 5.48884e-21
-1.5544e-05 -9.26981e-05 1.21266e-20
2.61705e-05 -2.12807e-05 3.87775e-20
-4.74438e-06 -9.30244e-06 9.49421e-20
-2.18076e-05 2.55661e-07 2.52964e-19
-7.78132e-05 -1.26941e-06 2.69892e-19
-7.83229e-05 5.93522e-11 -1.51503e-20
-4.08834e-06 -3.82065e-05 2.02381e-19
-1.03143e-05 7.58279e-07 2.37763e-19
-1.03143e-05 7.58279e-07 1.08257e-19
-5.34986e-06 4.00716e-05 3.44599e-20
-7.8209e-05 -4.97735e-11 -2.02605e-20
-7.77862e-05 1.08347e-06 -8.73333e-20
-2.16986e-05 -4.50007e-07 -9.64978e-21
3.51384e-06 6.2491e-06 9.85822e-20
3.67517e-05 6.8992e-05 2.95198e-22
1.53442e-05 9.27608e-05 6.88146e-21
2.68357e-05 -2.07845e-05 -5.75281e-20
-5.36916e-06 -8.92068e-06 -9.83799e-20
-2.18232e-05 5.93369e-08 -8.03366e-20
-7.77154e-05 -1.22095e-06 -7.69821e-20
7.5718e-05 2.45922e-05 1.86062e-20
3.797e-05 9.16653e-05 2.30188e-20
-1.38499e-05 -0.000156338 1.44043e-20
0.000105767 8.38339e-05 -1.61287e-20
-8.76064e-05 0.000108846 2.49408e-20
-1.52939e-05 -9.29775e-05 -7.31152e-21
-7.81917e-05 -3.26935e-10 7.04023e-21
-5.35829e-06 -4.01147e-05 -2.78636e-19
-1.03553e-05 -7.52926e-07 -2.48809e-19
-1.03553e-05 -7.52926e-07 -2.13095e-19
-4.08104e-06 3.82235e-05 -9.75995e-20
-7.83279e-05 -2.57589e-10 9.96091e-21
-7.77758e-05 1.37491e-06 5.582e-20
-2.20367e-05 -2.81208e-07 -8.85242e-20
4.09324e-06 6.5984e-06 6.8045e-21
3.68691e-05 6.90661e-05 1.14746e-20
1.5478e-05 9.27684e-05 -7.90013e-20
-2.62293e-05 2.12691e-05 -4.88393e-20
4.22513e-06 9.06345e-06 -1.05295e-20
2.06816e-05 -8.12685e-07 3.6358e-20
5.50114e-05 -1.65303e-05 3.18026e-20
7.62892e-05 2.4595e-05 1.99335e-20
3.80325e-05 9.18148e-05 4.34657e-20
-2.77926e-06 -3.83531e-05 -6.08209e-20
-9.89694e-06 2.54389e-07 -5.07315e-20
-9.89694e-06 2.54389e-07 -2.21151e-20
-4.64796e-06 4.00919e-05 -7.61778e-20
3.76901e-05 -9.09886e-05 -1.7453e-20
7.51897e-05 -2.44077e-05 -2.16219e-20
8.38796e-05 -0.000104607 -2.4599e-20
0.000107424 8.69732e-05 1.83415e-20
8.68878e-05 0.00010691 5.32718e-20
-7.59808e-05 2.34442e-10 5.57377e-21
-7.78772e-05 -1.55267e-09 2.59235e-20
-7.74287e-05 1.14788e-06 1.67892e-19
-2.1539e-05 -4.2022e-07 1.57145e-19
3.55811e-06 6.25091e-06 2.64728e-19
3.65312e-05 6.83602e-05 3.48727e-19
1.53655e-05 9.17871e-05 2.73247e-20
-2.58633e-05 2.10233e-05 4.10839e-20
4.40649e-06 8.84471e-06 -5.72329e-20
2.05169e-05 -9.86416e-07 -8.1811e-20
5.38842e-05 -1.63227e-05 -6.61139e-20
7.45827e-05 2.39267e-05 -4.27723e-20
3.70325e-05 8.94039e-05 -1.68029e-19
3.37242e-05 6.52761e-05 6.74454e-20
9.5001e-06 1.63011e-05 -3.01678e-20
8.80313e-06 -1.91294e-05 -1.64797e-19
2.77294e-05 -6.06638e-05 -1.50475e-19
3.1906e-05 -7.70213e-05 -4.82728e-20
5.44251e-05 -2.14159e-05 5.38584e-21
-4.37197e-05 -6.89106e-06 -6.86459e-20
-4.45845e-06 -1.2982e-05 -1.07727e-19
1.16305e-05 -1.10931e-05 -1.22235e-19
2.96568e-05 2.73321e-05 -6.59115e-20
1.83881e-05 -7.59095e-05 1.81979e-20
8.83191e-05 -0.000109706 1.61693e-20
0.000109998 -8.70541e-05 -5.47528e-21
-8.81019e-05 0.000108004 -1.76797e-20
-4.1031e-05 -1.39441e-10 1.21266e-21
1.49483e-05 3.31453e-05 1.98624e-20
-3.15092e-06 3.29578e-06 6.56663e-21
2.28455e-06 1.86457e-07 -4.9117e-20
4.41974e-06 -1.2007e-06 1.69061e-20
9.48731e-06 -3.30876e-06 1.685e-19
1.30292e-05 3.97254e-06 7.69222e-21
6.20329e-06 1.49761e-05 6.1663e-21
5.72504e-06 1.06548e-05 1.18079e-21
1.32115e-06 2.52678e-06 -1.38287e-19
1.32405e-06 -2.5393e-06 2.64406e-20
5.71765e-06 -1.06521e-05 7.4329e-20
6.1994e-06 -1.49667e-05 -3.09112e-20
1.30195e-05 -3.97018e-06 -2.6104e-20
9.48059e-06 3.3034e-06 5.40388e-20
4.42551e-06 1.22624e-06 5.66977e-20
1.65189e-06 1.68935e-07 5.91665e-20
-7.22603e-06 -2.11784e-05 -6.00383e-21
1.1435e-06 -3.29688e-05 -8.01288e-21
-9.65131e-06 2.59811e-05 3.36731e-20
1.2353e-05 1.96846e-05 -9.80641e-21
2.15015e-05 1.42086e-05 -5.35811e-20
4.15904e-05 4.68111e-06 -2.60562e-20
-4.10378e-05 1.44692e-10 2.49349e-20
4.50845e-06 1.99237e-08 -4.64251e-21
3.24906e-06 1.09149e-06 8.01168e-20
4.49207e-06 6.58615e-08 1.35513e-19
1.84108e-05 7.59253e-05 1.67734e-20
5.42896e-05 2.1378e-05 1.31014e-20
3.18456e-05 7.68754e-05 -1.31609e-20
2.76529e-05 6.05809e-05 2.43168e-19
8.86066e-06 1.91879e-05 2.15439e-19
9.41441e-06 -1.62319e-05 2.14137e-20
3.37568e-05 -6.52899e-05 -1.17038e-19
3.70443e-05 -8.94325e-05 1.70686e-20
7.45714e-05 -2.39372e-05 3.85991e-21
5.38734e-05 1.6285e-05 -1.19683e-19
2.05629e-05 1.12716e-06 -2.43853e-19
-2.62618e-06 -6.23749e-06 -1.34405e-19
-3.6476e-05 -6.82524e-05 -9.26118e-20
-1.52599e-05 -9.1728e-05 -2.631e-20
2.59987e-05 -2.11208e-05 2.51452e-21
-4.65217e-06 -9.26364e-06 6.06032e-20
-2.15944e-05 2.17795e-07 -2.51452e-21
-7.73892e-05 -1.3734e-06 -6.48258e-20
-7.79413e-05 1.56478e-09 1.16036e-20
-7.59678e-05 -2.66616e-10 -1.56122e-20
8.60119e-05 -0.000105354 -6.47941e-20
0.000109613 -8.42541e-05 -2.13251e-20
-8.95976e-05 0.000111977 1.51474e-20
-1.43918e-05 -9.08612e-05 2.82023e-20
3.55943e-05 5.93465e-05 -4.05211e-21
5.02723e-06 7.04461e-06 -2.88166e-20
-2.06062e-05 1.88422e-07 -3.83474e-20
-7.52755e-05 1.77402e-06 5.9842e-21
6.64485e-05 -1.8774e-05 2.66319e-21
2.98562e-05 -7.20798e-05 -2.04411e-20
1.15518e-05 2.2063e-05 -4.01962e-20
1.07636e-05 2.09525e-07 -7.45685e-20
1.07636e-05 2.09525e-07 -8.26886e-20
1.25776e-05 -2.08554e-05 -4.42265e-20
2.98777e-05 7.21318e-05 -3.03165e-21
6.64468e-05 1.87916e-05 -1.10169e-20
-7.51746e-05 -2.00745e-06 -1.07959e-19
-2.03432e-05 -6.24198e-07 -1.29525e-19
5.56863e-06 -7.34244e-06 -1.33547e-19
3.55939e-05 -5.93185e-05 -1.38091e-19
1.60939e-05 9.08595e-05 -1.51503e-20
-3.68669e-05 -6.90821e-05 -1.19184e-19
-2.44439e-06 -6.74357e-06 -1.52211e-19
2.17335e-05 8.45163e-07 -1.10433e-19
5.45088e-05 1.5128e-05 -8.65942e-20
-7.79638e-05 -7.20875e-10 -6.1047e-21
3.47227e-05 -6.69036e-05 -5.99991e-20
9.90732e-06 -1.89107e-05 -1.24343e-19
9.83016e-06 1.82434e-05 -1.37591e-19
3.46062e-05 6.71687e-05 -1.56519e-19
-7.79837e-05 6.93647e-10 -2.58992e-21
5.44583e-05 -1.50982e-05 -1.37084e-19
2.14194e-05 -2.72278e-07 -9.19264e-20
5.17713e-06 8.93578e-06 -3.55892e-20
-2.60863e-05 2.11228e-05 -3.71189e-20
8.76524e-05 -0.00010663 9.42678e-22
0.000111488 -8.58259e-05 1.79324e-22
-8.81663e-05 0.000109123 -3.14048e-22
7.51577e-05 2.44407e-05 -2.11345e-20
3.77276e-05 9.10789e-05 1.35989e-20
-4.35826e-06 4.01433e-05 -3.18105e-20
-9.96687e-06 6.01622e-07 -7.35225e-20
-9.96687e-06 6.01622e-07 -8.22607e-20
-3.06879e-06 -3.82586e-05 -6.62396e-21
3.79846e-05 -9.16992e-05 -1.78533e-20
7.62734e-05 -2.45574e-05 2.48043e-20
5.50185e-05 1.65386e-05 -1.62461e-20
2.07033e-05 8.34908e-07 -1.14804e-19
4.25048e-06 -9.06753e-06 -1.57178e-19
-2.62737e-05 -2.13049e-05 -1.93397e-19
1.54367e-05 -9.27475e-05 -3.59439e-20
3.68222e-05 -6.90326e-05 -7.50681e-20
3.50956e-06 -6.25187e-06 3.02757e-19
-2.17317e-05 4.17204e-07 3.61048e-19
-7.79394e-05 -1.08054e-06 2.46437e-19
-7.83612e-05 2.61819e-10 -2.24777e-20
-5.35899e-06 -4.01183e-05 1.66216e-19
-1.0357e-05 -7.4553e-07 5.22474e-20
-1.0357e-05 -7.4553e-07 -1.16431e-19
-4.08294e-06 3.82404e-05 -4.14226e-20
-7.83237e-05 3.45819e-10 -3.53535e-20
5.48158e-05 1.56491e-05 -1.75299e-20
2.15953e-05 1.15594e-06 4.16801e-20
-2.71516e-06 -6.67652e-06 5.04225e-20
-3.70562e-05 -6.90148e-05 -3.53158e-20
1.58521e-05 9.29832e-05 2.49275e-21
8.38417e-05 -0.000104457 3.17585e-20
0.000107449 8.70299e-05 1.15906e-20
8.69421e-05 0.000106974 -2.09739e-20
3.7934e-05 -9.15787e-05 -1.89884e-20
7.57696e-05 -2.45588e-05 -1.76154e-20
-1.5544e-05 -9.26981e-05 1.21266e-20
2.61705e-05 -2.12807e-05 1.88238e-20
-4.74438e-06 -9.30244e-06 9.75676e-20
-2.18076e-05 2.55661e-07 2.62416e-19
-7.78132e-05 -1.26941e-06 2.55189e-19
-7.83229e-05 5.93522e-11 -2.09263e-20
-4.08834e-06 -3.82065e-05 1.98706e-19
-1.03143e-05 7.58279e-07 2.38813e-19
-1.03143e-05 7.58279e-07 1.28211e-19
-5.34986e-06 4.00716e-05 7.67999e-21
-7.8209e-05 -4.97735e-11 -1.76351e-20
-7.77862e-05 1.08347e-06 -9.1534e-20
-2.16986e-05 -4.50007e-07 -7.02429e-21
3.51384e-06 6.2491e-06 7.96787e-20
3.67517e-05 6.8992e-05 6.07126e-21
1.53442e-05 9.27608e-05 3.31363e-20
2.68357e-05 -2.07845e-05 -5.07018e-20
-5.36916e-06 -8.92068e-06 -1.06256e-19
-2.18232e-05 5.93369e-08 -1.01866e-19
-7.77154e-05 -1.22095e-06 -7.27813e-20
7.5718e-05 2.45922e-05 -3.44791e-21
3.797e-05 9.16653e-05 1.8818e-20
-1.38499e-05 -0.000156338 1.15163e-20
0.000105767 8.38339e-05 -1.69163e-20
-8.76064e-05 0.000108846 2.59909e-20
-1.52939e-05 -9.29775e-05 -2.14891e-20
-7.81917e-05 -3.26935e-10 -1.88642e-21
-5.35829e-06 -4.01147e-05 -2.9859e-19
-1.03553e-05 -7.52926e-07 -2.53535e-19
-1.03553e-05 -7.52926e-07 -2.1467e-19
-4.08104e-06 3.82235e-05 -7.18697e-20
-7.83279e-05 -2.57589e-10 1.55936e-21
-7.77758e-05 1.37491e-06 4.84687e-20
-2.20367e-05 -2.81208e-07 -8.85242e-20
4.09324e-06 6.5984e-06 -1.10488e-20
3.68691e-05 6.90661e-05 2.4602e-20
1.5478e-05 9.27684e-05 -6.95495e-20
-2.62293e-05 2.12691e-05 -4.7264e-20
4.22513e-06 9.06345e-06 -9.47934e-21
2.06816e-05 -8.12685e-07 3.21572e-20
5.50114e-05 -1.65303e-05 3.33779e-20
7.62892e-05 2.4595e-05 3.46362e-20
3.80325e-05 9.18148e-05 2.14116e-20
-2.77926e-06 -3.83531e-05 -1.04404e-19
-9.89694e-06 2.54389e-07 -5.59825e-20
-9.89694e-06 2.54389e-07 -3.36672e-20
-4.64796e-06 4.00919e-05 -5.5699e-20
3.76901e-05 -9.09886e-05 7.75169e-21
7.51897e-05 -2.44077e-05 -1.11199e-20
8.38796e-05 -0.000104607 -2.368e-20
0.000107424 8.69732e-05 1.83415e-20
8.68878e-05 0.00010691 5.51096e-20
-7.59808e-05 2.34442e-10 2.08016e-20
-7.78772e-05 -1.55267e-09 3.38e-20
-7.74287e-05 1.14788e-06 1.92571e-19
-2.1539e-05 -4.2022e-07 1.40867e-19
3.55811e-06 6.25091e-06 2.77331e-19
3.65312e-05 6.83602e-05 3.6553e-19
1.53655e-05 9.17871e-05 -1.55566e-21
-2.58633e-05 2.10233e-05 2.74314e-20
4.40649e-06 8.84471e-06 -4.46305e-20
2.05169e-05 -9.86416e-07 -7.34094e-20
5.38842e-05 -1.63227e-05 -4.87856e-20
7.45827e-05 2.39267e-05 -3.91511e-21
3.70325e-05 8.94039e-05 -1.53326e-19
3.37242e-05 6.52761e-05 4.38161e-20
9.5001e-06 1.63011e-05 -3.80443e-20
8.80313e-06 -1.91294e-05 -1.55345e-19
2.77294e-05 -6.06638e-05 -1.34197e-19
3.1906e-05 -7.70213e-05 -1.78172e-20
5.44251e-05 -2.14159e-05 -2.29694e-20
-4.37197e-05 -6.89106e-06 -9.38505e-20
-4.45845e-06 -1.2982e-05 -1.12978e-19
1.16305e-05 -1.10931e-05 -1.19084e-19
2.96568e-05 2.73321e-05 -7.53633e-20
1.83881e-05 -7.59095e-05 1.24218e-20
8.83191e-05 -0.000109706 1.7482e-20
0.000109998 -8.70541e-05 -7.18185e-21
-8.81019e-05 0.000108004 -1.79422e-20
-4.1031e-05 -1.39441e-10 1.21266e-21
1.49483e-05 3.31453e-05 6.20983e-21
-3.15092e-06 3.29578e-06 1.31566e-21
2.28455e-06 1.86457e-07 -6.05903e-21
4.41974e-06 -1.2007e-06 -1.14491e-20
9.48731e-06 -3.30876e-06 1.71651e-19
1.30292e-05 3.97254e-06 -1.43619e-20
6.20329e-06 1.49761e-05 1.14173e-20
5.72504e-06 1.06548e-05 2.42851e-20
1.32115e-06 2.52678e-06 -1.46688e-19
1.32405e-06 -2.5393e-06 3.9043e-20
5.71765e-06 -1.06521e-05 5.54255e-20
6.1994e-06 -1.49667e-05 5.94665e-22
1.30195e-05 -3.97018e-06 -2.99978e-21
9.48059e-06 3.3034e-06 3.9336e-20
4.42551e-06 1.22624e-06 7.24506e-20
1.65189e-06 1.68935e-07 8.3321e-20
-7.22603e-06 -2.11784e-05 -9.15441e-21
1.1435e-06 -3.29688e-05 -3.32175e-20
-9.65131e-06 2.59811e-05 3.78738e-20
1.2353e-05 1.96846e-05 6.4716e-21
2.15015e-05 1.42086e-05 -3.10019e-20
4.15904e-05 4.68111e-06 -3.76084e-20
-4.10378e-05 1.44692e-10 1.02322e-20
4.50845e-06 1.99237e-08 -1.56695e-20
3.24906e-06 1.09149e-06 8.1167e-20
4.49207e-06 6.58615e-08 1.57042e-19
1.84108e-05 7.59253e-05 -1.52575e-20
5.42896e-05 2.1378e-05 2.57037e-20
3.18456e-05 7.68754e-05 -2.26126e-20
2.76529e-05 6.05809e-05 2.41593e-19
8.86066e-06 1.91879e-05 2.15964e-19
9.41441e-06 -1.62319e-05 2.19388e-20
3.37568e-05 -6.52899e-05 -1.05485e-19
3.70443e-05 -8.94325e-05 -9.18628e-21
7.45714e-05 -2.39372e-05 2.80972e-21
5.38734e-05 1.6285e-05 -1.28609e-19
2.05629e-05 1.12716e-06 -2.64857e-19
-2.62618e-06 -6.23749e-06 -1.39656e-19
-3.6476e-05 -6.82524e-05 -1.06264e-19
-1.52599e-05 -9.1728e-05 -1.37077e-20
2.59987e-05 -2.11208e-05 -2.21135e-21
-4.65217e-06 -9.26364e-06 6.21785e-20
-2.15944e-05 2.17795e-07 2.21135e-21
-7.73892e-05 -1.3734e-06 -6.22003e-20
-7.79413e-05 1.56478e-09 -8.87515e-21
-7.59678e-05 -2.66616e-10 1.37932e-20
8.60119e-05 -0.000105354 -6.51879e-20
0.000109613 -8.42541e-05 -2.11938e-20
-8.95976e-05 0.000111977 1.3047e-20
-2.40312e-05 3.61435e-05 -5.68405e-20
-2.69948e-05 -1.80942e-05 -3.64908e-20
2.57585e-05 -2.45451e-05 -3.76577e-20
2.55724e-05 2.47807e-05 -6.25194e-20
3.21959e-05 6.49912e-06 -7.9245e-20
3.21526e-05 -6.53736e-06 -1.5188e-20
7.93976e-06 -3.52278e-05 -9.20591e-20
4.08258e-05 -7.46313e-06 -1.79621e-20
-4.3548e-05 -6.38967e-06 -5.56823e-20
-5.45363e-06 3.48704e-05 -8.43276e-20
5.22469e-05 -1.50706e-05 1.17698e-20
5.22286e-05 1.50898e-05 -3.83772e-20
-2.85628e-05 -1.72125e-05 -3.33699e-20
-2.88482e-05 1.46815e-05 -8.85539e-20
1.60715e-06 3.25639e-05 -1.08067e-19
5.9875e-07 -3.25526e-05 -1.30444e-19
-2.83514e-06 -3.25287e-05 -1.20763e-19
4.77542e-06 3.13984e-05 -6.3706e-20
3.45758e-05 -4.0636e-06 -3.53572e-20
2.69782e-05 1.19263e-05 -4.59027e-20
-5.61039e-06 1.78879e-05 -6.52399e-20
7.43263e-06 -1.7455e-05 -6.73621e-20
-4.87948e-05 3.38057e-05 -3.69346e-20
-4.29878e-05 -2.4172e-05 -1.27765e-20
8.23076e-05 -3.85893e-05 -1.86095e-20
4.65107e-05 6.35752e-05 -1.46995e-20
5.22469e-05 -1.50706e-05 -1.27213e-20
5.22286e-05 1.50898e-05 -5.15975e-20
2.87581e-05 -1.26198e-05 5.3322e-21
2.86875e-05 1.24629e-05 -8.99508e-20
-2.23839e-05 1.08064e-05 -6.85747e-20
-2.2704e-05 -1.07828e-05 -6.24005e-20
3.45803e-05 1.22534e-05 -4.2132e-20
3.44699e-05 -1.25799e-05 -7.36516e-21
1.0051e-05 5.32948e-05 -7.63678e-20
-8.2943e-06 -5.29589e-05 -5.624e-20
-2.16057e-05 5.06784e-06 -6.98309e-20
-2.20537e-05 -5.4108e-06 -5.54712e-20
1.64404e-07 -7.5168e-05 -3.67414e-20
8.81901e-06 7.62282e-05 -3.2505e-20
8.02251e-05 6.58604e-07 2.78795e-21
-7.45135e-05 -1.00447e-05 -4.24134e-20
3.78729e-05 -2.31823e-05 -3.17192e-20
3.779e-05 2.32217e-05 -5.5519e-20
-2.81135e-05 1.66346e-05 -7.86524e-20
-3.73815e-05 -4.94252e-06 -6.32962e-20
-3.75578e-05 4.83176e-06 -9.46788e-20
-2.92439e-05 -1.77729e-05 -3.15589e-20
2.70787e-05 -3.72273e-05 -4.98677e-20
2.72434e-05 3.78222e-05 -5.74904e-20
4.176e-05 -1.84907e-05 -6.99456e-21
-2.40312e-05 3.61435e-05 -4.39292e-20
-6.13284e-06 -3.35669e-05 -5.18056e-20
4.25434e-05 1.81938e-05 -7.47612e-21
-2.4777e-05 2.02884e-05 -1.36922e-19
2.70097e-05 -2.02441e-05 -1.32329e-19
7.79342e-06 -6.93707e-05 -6.94327e-20
-5.6814e-06 6.93437e-05 -9.29846e-20
4.20356e-05 -3.56239e-05 -5.58757e-21
4.20516e-05 3.56923e-05 -2.55253e-20
1.81178e-05 6.37748e-06 -1.11058e-19
-4.76495e-06 4.02595e-05 -1.01612e-19
-3.17394e-06 -3.84287e-05 -2.13681e-20
8.41439e-06 2.23695e-05 -8.278e-20
-5.98663e-06 -2.28654e-05 -7.01638e-20
-1.14752e-06 3.08967e-05 -8.31564e-20
3.33474e-06 -3.0224e-05 -1.25283e-19
-4.29878e-05 -2.4172e-05 -2.99916e-20
-2.83514e-06 -3.25287e-05 -1.1118e-19
4.77542e-06 3.13984e-05 -8.14563e-20
-1.98321e-05 -1.34567e-05 -7.21511e-20
-4.87948e-05 3.38057e-05 -7.53118e-20
5.72475e-06 8.04284e-06 -1.11164e-19
-3.17394e-06 -3.84287e-05 -6.0411e-20
-2.23839e-05 1.08064e-05 -8.64078e-20
5.25314e-05 -1.4982e-05 6.0495e-21
5.25348e-05 1.49945e-05 -7.20778e-20
4.25434e-05 1.81938e-05 -2.88166e-20
3.032e-05 1.85644e-05 -2.94128e-20
3.04863e-05 -1.85709e-05 -5.62857e-20
6.64485e-05 -1.8774e-05 -5.32637e-21
5.22469e-05 -1.50706e-05 4.23264e-21
6.64468e-05 1.87916e-05 -2.6825e-20
5.22286e-05 1.50898e-05 -1.02481e-20
-5.61039e-06 1.78879e-05 -9.38564e-20
2.87581e-05 -1.26198e-05 -2.59474e-20
2.86875e-05 1.24629e-05 -8.33406e-20
-3.54179e-05 -6.72598e-05 -2.78991e-20
3.75308e-05 6.79637e-05 -4.5883e-20
-1.132e-06 -5.74277e-06 -3.54862e-20
4.176e-05 -1.84907e-05 -1.32957e-20
3.45758e-05 -4.0636e-06 -2.77722e-20
-2.31729e-05 6.77433e-06 -9.06166e-20
-1.98321e-05 -1.34567e-05 -7.81433e-20
-7.73954e-05 -1.46461e-06 -5.41062e-20
-7.74752e-05 1.25134e-06 -4.03209e-20
-5.32107e-06 1.9708e-05 -5.8814e-20
-2.92439e-05 -1.77729e-05 -4.39828e-20
1.95187e-05 1.6007e-05 -8.8873e-20
1.64404e-07 -7.5168e-05 -1.33621e-20
8.81901e-06 7.62282e-05 -2.53183e-20
8.02251e-05 6.58604e-07 -8.97018e-21
-7.45135e-05 -1.00447e-05 -3.39842e-20
1.945e-05 -1.61739e-05 -3.12855e-20
-2.71426e-05 1.61363e-05 -6.01297e-20
1.80386e-05 -1.53034e-05 -8.31781e-20
1.77925e-05 1.49843e-05 -6.29633e-20
-0.000108232 8.81571e-05 -2.16208e-20
-2.83514e-06 -3.25287e-05 -1.00266e-19
-4.7108e-06 -7.006e-05 -1.36424e-20
7.51132e-05 5.45855e-06 -6.94996e-21
-5.61039e-06 1.78879e-05 -1.09561e-19
-1.14752e-06 3.08967e-05 -6.90919e-20
-2.31729e-05 6.77433e-06 -5.95154e-20
4.77542e-06 3.13984e-05 -8.57601e-20
-4.29878e-05 -2.4172e-05 -2.75068e-20
3.78729e-05 -2.31823e-05 -3.81638e-21
3.779e-05 2.32217e-05 -5.7338e-20
2.46969e-05 -1.04029e-05 -1.17349e-19
2.48849e-05 1.04657e-05 -2.82138e-21
3.33474e-06 -3.0224e-05 -7.84762e-20
-2.92439e-05 -1.77729e-05 -3.02273e-20
-1.132e-06 -5.74277e-06 -4.22748e-20
-2.20537e-05 -5.4108e-06 -4.47357e-20
-2.16057e-05 5.06784e-06 -7.48005e-20
-2.23839e-05 1.08064e-05 -8.13077e-20
0.000111488 -8.58259e-05 -8.1374e-21
1.64404e-07 -7.5168e-05 -3.85842e-20
2.92358e-06 6.91977e-05 -4.33982e-20
8.02251e-05 6.58604e-07 -6.63989e-21
2.70787e-05 -3.72273e-05 -2.53767e-20
2.72434e-05 3.78222e-05 -3.56625e-20
2.86875e-05 1.24629e-05 -6.92761e-20
-4.87948e-05 3.38057e-05 -4.8336e-20
2.87581e-05 -1.26198e-05 -2.2131e-20
3.21526e-05 -6.53736e-06 -1.8517e-20
3.21959e-05 6.49912e-06 -9.16211e-20
4.176e-05 -1.84907e-05 -3.31262e-20
4.25434e-05 1.81938e-05 -3.25852e-20
-8.81663e-05 0.000109123 -4.29872e-21
-0.000108232 8.81571e-05 -1.88923e-20
-2.20537e-05 -5.4108e-06 -6.02624e-20
-2.16057e-05 5.06784e-06 -1.28086e-19
-8.2943e-06 -5.29589e-05 -3.17489e-20
1.0051e-05 5.32948e-05 -2.50793e-20
-2.39102e-05 3.85939e-05 -1.46549e-20
-2.61991e-05 -2.48219e-05 4.76622e-20
2.31736e-05 -2.58137e-05 4.23082e-20
2.34308e-05 2.60185e-05 1.21266e-20
3.20213e-05 -1.06209e-05 8.63802e-20
3.21012e-05 1.1207e-05 -8.59422e-20
-6.50785e-06 -3.51594e-05 -5.67093e-21
3.49931e-05 -8.5204e-06 -6.62901e-20
-4.91087e-05 -1.10906e-05 -1.31986e-20
-5.91877e-06 3.54848e-05 7.0673e-20
5.89265e-05 -2.2369e-05 6.15228e-20
5.82799e-05 2.27528e-05 -6.20299e-20
-2.91589e-05 -1.463e-05 2.4342e-19
-2.8864e-05 1.68975e-05 -1.0562e-19
7.68789e-07 3.32395e-05 1.71386e-21
3.034e-07 -3.33107e-05 -9.11088e-21
3.18986e-06 -3.1941e-05 -1.29259e-19
3.56026e-06 3.22742e-05 -2.64369e-20
2.86783e-05 -5.08623e-06 -5.13204e-21
1.83932e-05 1.67859e-05 -7.45844e-20
-6.16861e-06 -1.83185e-05 1.41435e-19
-5.82592e-06 1.86408e-05 6.16455e-20
-3.92381e-05 6.41555e-05 3.6358e-20
-4.4062e-05 -2.38335e-05 -3.94274e-20
7.81824e-05 -3.71512e-05 3.89284e-20
7.67884e-05 4.17051e-05 -2.99103e-21
5.89265e-05 -2.2369e-05 2.19447e-20
5.82799e-05 2.27528e-05 -3.57198e-20
2.64813e-05 -1.42764e-05 -1.33373e-21
2.66568e-05 1.46032e-05 -6.72729e-20
-2.28113e-05 -1.07288e-05 1.39234e-19
-2.32492e-05 1.0844e-05 -7.47649e-20
3.10614e-05 1.45413e-05 -9.24435e-20
3.06675e-05 -1.47492e-05 3.36492e-20
9.65694e-06 5.44733e-05 -9.61208e-21
9.27816e-06 -5.44639e-05 -9.70128e-21
-2.20239e-05 -5.07541e-06 1.46811e-19
-2.3491e-05 5.68399e-06 -1.31609e-20
-9.87347e-07 -7.36594e-05 -8.03873e-20
-7.37098e-06 7.51351e-05 1.40674e-20
7.42337e-05 -5.41179e-06 -3.98473e-20
-6.54738e-05 5.98666e-07 -1.70287e-20
3.72489e-05 -3.52421e-05 8.95695e-22
3.68975e-05 3.5348e-05 -5.65134e-20
-3.44485e-05 -2.07267e-05 1.43633e-19
-3.78363e-05 -4.8472e-06 1.424e-19
-3.76277e-05 6.19133e-06 -8.69648e-20
-2.89785e-05 1.69864e-05 -7.10138e-20
2.46991e-05 -3.80241e-05 3.05522e-20
-2.33566e-05 3.81809e-05 3.36513e-20
3.69514e-05 -1.98533e-05 2.15985e-21
-6.96119e-06 -3.39673e-05 -5.00084e-20
2.29311e-05 3.57096e-05 6.36885e-20
3.78475e-05 1.98741e-05 -5.05473e-20
-2.60863e-05 2.11228e-05 -7.03012e-21
-2.62737e-05 -2.13049e-05 -1.13643e-19
-6.8359e-06 -7.09021e-05 -1.30591e-19
-6.5404e-06 7.09968e-05 -6.03356e-21
5.14363e-05 -5.14342e-05 2.93635e-20
5.09963e-05 5.13606e-05 -5.71357e-20
3.39967e-06 -1.00936e-05 -6.2993e-20
-5.35899e-06 -4.01183e-05 1.2871e-19
-4.08294e-06 3.82404e-05 -1.31529e-20
7.90225e-06 -2.28149e-05 8.33565e-20
8.00502e-06 2.28439e-05 6.10275e-20
-4.4062e-05 -2.38335e-05 -2.71818e-20
-1.77196e-06 3.13243e-05 6.74948e-20
-2.01619e-06 -3.10145e-05 8.03902e-20
3.18986e-06 -3.1941e-05 -4.22567e-20
3.56026e-06 3.22742e-05 4.27325e-20
5.17713e-06 8.93578e-06 -2.59591e-20
4.25048e-06 -9.06753e-06 -8.90689e-20
-4.08294e-06 3.82404e-05 -9.04424e-20
-2.28113e-05 -1.07288e-05 2.35153e-19
5.82113e-05 -2.25918e-05 4.15713e-20
5.75655e-05 2.29753e-05 -8.08914e-20
3.78475e-05 1.98741e-05 -6.74056e-20
2.49525e-05 2.79007e-05 -9.60677e-20
2.51767e-05 -2.77055e-05 5.80532e-20
7.62734e-05 -2.45574e-05 7.5942e-20
5.89265e-05 -2.2369e-05 2.82458e-20
7.51577e-05 2.44407e-05 -2.25213e-20
5.82799e-05 2.27528e-05 -5.94145e-20
-4.77012e-05 3.57021e-05 7.44056e-21
-6.16861e-06 -1.83185e-05 2.97429e-19
-5.82592e-06 1.86408e-05 7.2072e-20
2.64813e-05 -1.42764e-05 7.46242e-20
2.66568e-05 1.46032e-05 -6.84261e-20
3.68222e-05 -6.90326e-05 -1.25681e-19
3.75877e-05 6.93099e-05 1.90776e-20
3.69514e-05 -1.98533e-05 -1.73616e-20
2.86783e-05 -5.08623e-06 -5.45538e-20
-2.34919e-05 -6.96705e-06 -7.08811e-20
-7.79394e-05 -1.08054e-06 1.1802e-19
-7.7741e-05 1.45151e-06 -4.63545e-20
-5.8913e-06 -2.00631e-05 5.51404e-20
-5.26233e-06 2.15223e-05 2.72769e-20
-2.89785e-05 1.69864e-05 -7.08355e-20
1.7929e-05 1.79599e-05 -6.29903e-21
1.75744e-05 -1.77178e-05 -6.67101e-20
-9.87347e-07 -7.36594e-05 4.37261e-20
-7.37098e-06 7.51351e-05 2.65567e-20
-6.54738e-05 5.98666e-07 -4.4492e-20
7.42337e-05 -5.41179e-06 -4.13334e-21
-2.74806e-05 -1.60854e-05 1.58531e-19
6.31663e-06 -2.3317e-05 -2.27315e-20
6.13072e-06 2.29909e-05 -7.82978e-20
0.000107449 8.70299e-05 7.81194e-21
3.56026e-06 3.22742e-05 1.01606e-19
-5.33193e-06 -6.9131e-05 -8.29116e-20
-6.54738e-05 5.98666e-07 -1.46331e-20
-5.82592e-06 1.86408e-05 7.571e-20
-6.16861e-06 -1.83185e-05 1.97872e-19
-2.01619e-06 -3.10145e-05 2.35141e-20
-2.34919e-05 -6.96705e-06 1.39456e-20
3.18986e-06 -3.1941e-05 -7.71743e-20
3.72489e-05 -3.52421e-05 3.90945e-20
3.68975e-05 3.5348e-05 -8.82805e-20
2.43562e-05 -9.43802e-06 -1.09326e-19
2.38566e-05 1.06796e-05 -1.39318e-20
-4.4062e-05 -2.38335e-05 -2.70034e-20
-1.77196e-06 3.13243e-05 5.02797e-20
-2.89785e-05 1.69864e-05 -1.1933e-19
-2.20239e-05 -5.07541e-06 1.61411e-19
-2.3491e-05 5.68399e-06 -7.17253e-20
-2.28113e-05 -1.07288e-05 2.7202e-19
0.000102034 -8.34564e-05 -3.03319e-20
-1.79108e-06 6.79384e-05 6.42006e-20
-9.87347e-07 -7.36594e-05 -9.93409e-21
7.04967e-05 -2.20104e-06 9.91019e-21
2.46991e-05 -3.80241e-05 7.50522e-20
-2.33566e-05 3.81809e-05 4.82032e-20
2.66568e-05 1.46032e-05 -4.10106e-20
2.64813e-05 -1.42764e-05 2.58683e-20
3.27562e-05 2.48778e-05 3.11132e-22
3.20213e-05 -1.06209e-05 1.09849e-19
3.21012e-05 1.1207e-05 -9.64165e-20
3.69514e-05 -1.98533e-05 3.65423e-20
3.78475e-05 1.98741e-05 -6.87372e-20
8.69421e-05 0.000106974 1.19413e-20
0.000107449 8.70299e-05 -3.63312e-20
-2.20239e-05 -5.07541e-06 2.21616e-19
-2.3491e-05 5.68399e-06 -6.26304e-20
9.65694e-06 5.44733e-05 -2.27018e-20
9.27816e-06 -5.44639e-05 -4.60811e-20
-2.45128e-05 3.57343e-05 6.06627e-20
-2.7459e-05 -1.79879e-05 3.82959e-20
2.3409e-05 -2.54825e-05 -1.05073e-19
2.31945e-05 2.58764e-05 -1.25334e-19
3.21184e-05 -1.1007e-05 -4.106e-20
3.20726e-05 1.10496e-05 -1.52958e-19
6.25989e-06 -3.56758e-05 1.82696e-21
3.38597e-05 -8.44151e-06 -1.56671e-19
-4.3866e-05 -6.24444e-06 1.65416e-19
-6.47024e-06 3.50557e-05 -9.62063e-20
5.86675e-05 -2.26849e-05 -3.25018e-20
5.86085e-05 2.27521e-05 -1.07277e-19
-2.91518e-05 1.46519e-05 4.3412e-20
-2.89706e-05 -1.71446e-05 1.61847e-19
2.89383e-07 3.31912e-05 -1.17547e-19
-6.09483e-07 -3.33277e-05 -2.98812e-21
-3.67512e-06 -3.27849e-05 1.92321e-20
3.1976e-06 3.18343e-05 -1.1186e-19
2.86222e-05 -5.36882e-06 -9.71296e-20
1.81247e-05 1.67836e-05 -1.38279e-19
-6.11185e-06 1.82504e-05 4.29385e-20
5.82768e-06 -1.83589e-05 6.39243e-20
-4.87396e-05 3.34466e-05 1.75618e-20
-4.36299e-05 -2.39088e-05 9.43576e-20
4.48668e-05 -6.43347e-05 -3.59142e-20
7.77288e-05 3.82737e-05 -1.43264e-19
5.86675e-05 -2.26849e-05 -8.20191e-20
5.86085e-05 2.27521e-05 -5.3682e-20
2.65438e-05 -1.44143e-05 1.74211e-20
2.64953e-05 1.44411e-05 -9.97115e-20
-2.27429e-05 1.08488e-05 8.92494e-20
-2.31221e-05 -1.07641e-05 1.67377e-19
3.07163e-05 1.47056e-05 -9.49203e-20
3.09067e-05 -1.46042e-05 -6.85747e-20
9.17494e-06 5.44118e-05 -9.4649e-20
-9.37484e-06 -5.43491e-05 -1.41458e-20
-2.1903e-05 5.09392e-06 2.15109e-20
-2.2377e-05 -5.32873e-06 1.51997e-19
-1.01274e-06 -7.04887e-05 3.67568e-21
3.00155e-06 7.38439e-05 -6.49437e-20
7.51095e-05 -4.48731e-07 -5.70356e-20
-7.42775e-05 -9.44152e-06 -4.66335e-21
3.70999e-05 -3.54229e-05 -5.58397e-20
3.69542e-05 3.55555e-05 -1.40379e-19
-2.84117e-05 1.65958e-05 6.71401e-20
-3.77694e-05 4.8592e-06 -1.98942e-21
-3.77318e-05 -4.8597e-06 2.0868e-19
-2.96203e-05 -1.76791e-05 1.81847e-19
2.46669e-05 -3.77285e-05 -3.64828e-20
2.43422e-05 3.79304e-05 -1.41245e-19
3.7507e-05 1.98075e-05 -1.63043e-19
-2.45128e-05 3.57343e-05 -3.87159e-20
-7.30468e-06 -3.36868e-05 1.61787e-20
3.75314e-05 -1.97751e-05 -8.11967e-20
-2.65202e-05 2.0975e-05 -7.14954e-20
2.61705e-05 -2.12807e-05 1.65928e-20
6.77101e-06 -7.08201e-05 9.16608e-21
-6.98621e-06 7.08981e-05 -6.02326e-20
5.13034e-05 -5.15598e-05 -4.79834e-20
5.13212e-05 5.17006e-05 -1.18434e-19
3.55532e-06 1.01336e-05 -1.74534e-19
-5.34986e-06 4.00716e-05 -3.19157e-20
-4.08834e-06 -3.82065e-05 9.20889e-20
7.86824e-06 2.27178e-05 -4.46624e-21
-7.50887e-06 -2.37359e-05 -6.02773e-21
-2.0498e-06 3.09765e-05 -8.01624e-20
1.83269e-06 -3.08651e-05 3.25061e-20
-4.36299e-05 -2.39088e-05 1.2679e-19
-3.67512e-06 -3.27849e-05 3.21434e-20
3.1976e-06 3.18343e-05 -1.06712e-19
-2.0236e-05 -1.36672e-05 1.41431e-19
-4.87396e-05 3.34466e-05 8.48644e-20
4.87213e-06 8.81729e-06 -8.97803e-20
-4.08834e-06 -3.82065e-05 1.99231e-19
-2.27429e-05 1.08488e-05 7.83355e-20
5.79621e-05 -2.29046e-05 -6.02783e-20
5.78893e-05 2.29761e-05 -1.22976e-19
3.75314e-05 -1.97751e-05 -1.05997e-19
2.4826e-05 2.80049e-05 -1.46962e-19
2.50789e-05 -2.79164e-05 -4.44028e-20
7.57696e-05 -2.45588e-05 -4.31365e-20
5.86675e-05 -2.26849e-05 -5.52217e-20
7.5718e-05 2.45922e-05 -1.5824e-20
5.86085e-05 2.27521e-05 -1.9787e-20
-6.11185e-06 1.82504e-05 -1.36286e-20
2.65438e-05 -1.44143e-05 -4.34497e-20
2.64953e-05 1.44411e-05 -1.4439e-19
3.67517e-05 6.8992e-05 -2.43265e-20
-3.70562e-05 -6.90148e-05 3.30508e-21
-2.71516e-06 -6.67652e-06 3.44636e-20
3.7507e-05 1.98075e-05 -1.57099e-19
2.86222e-05 -5.36882e-06 -1.86974e-19
-2.3428e-05 6.84292e-06 1.78713e-19
-2.0236e-05 -1.36672e-05 3.19353e-20
-7.77862e-05 1.08347e-06 -4.08837e-20
-7.78132e-05 -1.26941e-06 4.35411e-20
-5.865e-06 1.98033e-05 -1.82276e-20
-2.96203e-05 -1.76791e-05 6.57411e-20
1.76495e-05 1.78587e-05 -1.17977e-19
-1.01274e-06 -7.04887e-05 -1.03888e-20
3.00155e-06 7.38439e-05 -5.82443e-20
-7.42775e-05 -9.44152e-06 1.70634e-20
7.51095e-05 -4.48731e-07 -7.63134e-20
1.76432e-05 -1.78142e-05 -4.71472e-20
-2.74222e-05 1.61272e-05 2.88739e-20
6.21178e-06 -2.34999e-05 -9.61845e-20
5.81294e-06 2.28462e-05 -1.65623e-19
-0.000107505 8.7632e-05 6.76971e-21
-3.67512e-06 -3.27849e-05 1.98979e-20
-2.03339e-06 -6.9203e-05 7.95006e-20
7.06043e-05 -4.63202e-06 -7.88388e-20
-6.11185e-06 1.82504e-05 9.98145e-20
-2.0498e-06 3.09765e-05 -4.67548e-20
-2.3428e-05 6.84292e-06 1.60523e-19
3.1976e-06 3.18343e-05 -1.2344e-19
-4.36299e-05 -2.39088e-05 1.13879e-19
3.70999e-05 -3.54229e-05 -2.89116e-20
3.69542e-05 3.55555e-05 -1.35101e-19
2.46804e-05 9.98274e-06 2.80758e-21
2.42203e-05 -9.88351e-06 -1.22219e-19
1.83269e-06 -3.08651e-05 1.59568e-20
-2.96203e-05 -1.76791e-05 1.56382e-19
-2.71516e-06 -6.67652e-06 9.45381e-20
-2.1903e-05 5.09392e-06 -1.22535e-20
-2.2377e-05 -5.32873e-06 2.00444e-19
-2.27429e-05 1.08488e-05 1.01982e-19
0.000105767 8.38339e-05 -9.05081e-20
-1.01274e-06 -7.04887e-05 -5.38901e-20
6.77805e-07 7.15683e-05 -9.624e-20
7.51095e-05 -4.48731e-07 -1.28374e-19
2.46669e-05 -3.77285e-05 -8.54649e-20
2.43422e-05 3.79304e-05 -1.55797e-19
2.64953e-05 1.44411e-05 -9.37672e-20
-4.87396e-05 3.34466e-05 1.0882e-19
2.65438e-05 -1.44143e-05 -4.40677e-20
3.21184e-05 -1.1007e-05 -1.52851e-20
3.20726e-05 1.10496e-05 -1.41069e-19
3.7507e-05 1.98075e-05 -9.8047e-20
3.75314e-05 -1.97751e-05 -9.70802e-20
-8.76064e-05 0.000108846 1.03888e-20
-0.000107505 8.7632e-05 5.64917e-21
-2.1903e-05 5.09392e-06 -4.59701e-20
-2.2377e-05 -5.32873e-06 2.39308e-19
-9.37484e-06 -5.43491e-05 2.80478e-20
9.17494e-06 5.44118e-05 -2.89392e-20
-2.39463e-05 3.8599e-05 -2.19589e-19
-2.61952e-05 -2.49349e-05 -1.27854e-19
2.34844e-05 -2.55608e-05 -9.44685e-20
2.32423e-05 2.58743e-05 -2.11562e-20
3.21103e-05 -1.11762e-05 -5.14191e-20
3.20079e-05 1.06309e-05 5.08584e-20
6.4696e-06 -3.56063e-05 -4.81496e-20
3.49949e-05 -8.70187e-06 4.10621e-20
-4.91227e-05 -1.1113e-05 -1.53231e-19
-6.0082e-06 3.5528e-05 -2.05627e-19
5.83223e-05 -2.26921e-05 -3.50163e-20
5.89183e-05 2.24191e-05 4.28217e-20
-2.91825e-05 -1.4618e-05 -1.33585e-19
-2.88521e-05 1.69004e-05 -1.23565e-20
6.11074e-07 3.3327e-05 -1.51563e-19
-4.10085e-07 -3.32163e-05 -5.32105e-20
-3.39918e-06 -3.25065e-05 -1.22243e-19
3.3343e-06 3.22522e-05 -3.55675e-20
2.87112e-05 -5.28467e-06 -2.70458e-21
1.83645e-05 1.65714e-05 -5.44232e-20
-5.86706e-06 1.87296e-05 -1.26547e-19
6.05284e-06 -1.83635e-05 -1.67723e-19
-3.92743e-05 6.41346e-05 -1.21952e-19
-4.41115e-05 -2.38862e-05 -1.3735e-19
7.81889e-05 -3.7209e-05 -7.33679e-20
7.67395e-05 4.16124e-05 -2.28444e-20
5.83223e-05 -2.26921e-05 -5.48946e-20
5.89183e-05 2.24191e-05 -2.39189e-21
2.66195e-05 -1.45722e-05 -1.35729e-19
2.65178e-05 1.42962e-05 4.09113e-20
-2.28109e-05 -1.0732e-05 -1.90388e-19
-2.32423e-05 1.084e-05 -1.29186e-19
3.09818e-05 1.43314e-05 2.94824e-20
3.07877e-05 -1.49189e-05 -3.88428e-20
9.3207e-06 5.44922e-05 -4.03034e-21
-9.08577e-06 -5.43867e-05 -6.63793e-20
-2.20822e-05 -5.16465e-06 -1.50037e-19
-2.34751e-05 5.74433e-06 -9.63985e-20
-8.92683e-07 -7.38018e-05 -1.28971e-19
-7.4211e-06 7.5081e-05 -1.03405e-19
7.42136e-05 -5.49387e-06 3.85049e-20
-6.54968e-05 5.86609e-07 -9.01756e-20
3.7025e-05 -3.52596e-05 -2.25691e-20
3.71496e-05 3.53213e-05 -8.67269e-20
-3.44428e-05 -2.07615e-05 -1.50281e-19
-3.8222e-05 -4.01988e-06 -6.50021e-20
-3.75534e-05 6.24957e-06 2.73799e-20
-2.89758e-05 1.69965e-05 -1.72828e-19
2.47557e-05 -3.74488e-05 -1.35796e-19
-2.34086e-05 3.81979e-05 -2.04052e-19
3.69604e-05 -1.99235e-05 -7.95264e-20
-7.1371e-06 -3.39202e-05 -9.84909e-20
2.2786e-05 3.5591e-05 -6.07121e-20
3.7806e-05 1.96941e-05 6.68826e-20
-2.62293e-05 2.12691e-05 -4.68419e-20
2.68357e-05 -2.07845e-05 -6.95952e-20
-6.78408e-06 7.0921e-05 -1.62875e-19
7.21094e-06 -7.10115e-05 -2.69222e-20
5.09725e-05 -5.12294e-05 -1.8071e-20
5.14797e-05 5.15637e-05 -5.69217e-20
3.48858e-06 -1.03175e-05 -6.44058e-20
-5.35829e-06 -4.01147e-05 -1.08852e-19
-4.08104e-06 3.82235e-05 3.47472e-20
7.97707e-06 2.29368e-05 -4.78841e-20
-7.24284e-06 -2.37241e-05 -8.60017e-20
-4.41115e-05 -2.38862e-05 -1.02432e-19
-1.87019e-06 3.13764e-05 -1.8133e-19
2.04694e-06 -3.08007e-05 -9.77221e-20
-3.39918e-06 -3.25065e-05 -8.79911e-20
3.3343e-06 3.22522e-05 -1.52958e-19
-2.05776e-05 -1.39359e-05 -1.14951e-19
4.22513e-06 9.06345e-06 -1.99813e-20
-4.08104e-06 3.82235e-05 -3.48618e-20
-2.28109e-05 -1.0732e-05 -1.95e-19
5.76134e-05 -2.29129e-05 -8.75849e-20
5.82075e-05 2.26404e-05 5.62835e-20
3.7806e-05 1.96941e-05 3.3475e-20
2.49817e-05 2.77349e-05 -5.83107e-20
2.51722e-05 -2.78601e-05 -2.15921e-20
7.51897e-05 -2.44077e-05 -2.49031e-20
5.83223e-05 -2.26921e-05 -1.42589e-20
7.62892e-05 2.4595e-05 -1.89439e-21
5.89183e-05 2.24191e-05 -6.55695e-22
-4.77303e-05 3.57063e-05 -1.5139e-19
-5.86706e-06 1.87296e-05 -8.90137e-20
2.66195e-05 -1.45722e-05 -8.72818e-20
2.65178e-05 1.42962e-05 1.07596e-19
3.68691e-05 6.90661e-05 4.57264e-20
-3.68669e-05 -6.90821e-05 -5.14865e-20
-2.44439e-06 -6.74357e-06 -1.4004e-19
3.69604e-05 -1.99235e-05 -3.25941e-21
2.87112e-05 -5.28467e-06 -5.36777e-21
-2.34913e-05 -6.97531e-06 -1.8992e-19
-2.05776e-05 -1.39359e-05 -1.54351e-19
-7.77154e-05 -1.22095e-06 4.38676e-20
-7.77758e-05 1.37491e-06 -8.02299e-21
-5.30749e-06 2.15907e-05 -1.19512e-19
-2.89758e-05 1.69965e-05 -1.60535e-19
1.76628e-05 1.77018e-05 2.57335e-20
-8.92683e-07 -7.38018e-05 -3.54475e-20
-7.4211e-06 7.5081e-05 -9.41555e-20
-6.54968e-05 5.86609e-07 -1.01024e-19
7.42136e-05 -5.49387e-06 -4.04428e-20
1.77543e-05 -1.79572e-05 -1.61698e-19
-2.74548e-05 -1.61087e-05 -1.90433e-19
6.51335e-06 -2.34642e-05 -5.31808e-20
5.95662e-06 2.28284e-05 -9.15202e-20
0.000107424 8.69732e-05 -7.58239e-20
3.3343e-06 3.22522e-05 -7.8379e-20
-3.39918e-06 -3.25065e-05 -1.05694e-19
-5.28796e-06 -6.91901e-05 -1.09763e-19
-6.54968e-05 5.86609e-07 -7.77103e-20
-5.86706e-06 1.87296e-05 -2.79644e-20
-2.34913e-05 -6.97531e-06 -1.77853e-19
3.7025e-05 -3.52596e-05 -6.93395e-22
3.71496e-05 3.53213e-05 -5.63393e-20
2.47711e-05 9.53635e-06 -1.21569e-19
2.384e-05 -1.06695e-05 6.42869e-20
-4.41115e-05 -2.38862e-05 -8.19358e-20
-1.87019e-06 3.13764e-05 -2.18554e-19
2.04694e-06 -3.08007e-05 -1.59437e-19
-2.89758e-05 1.69965e-05 -9.82015e-20
-2.44439e-06 -6.74357e-06 -1.60537e-19
-2.20822e-05 -5.16465e-06 -1.3287e-19
-2.34751e-05 5.74433e-06 -4.38262e-20
-2.28109e-05 -1.0732e-05 -1.64125e-19
0.000102037 -8.3515e-05 -3.02077e-21
-1.86417e-06 6.7914e-05 -1.49964e-19
-8.92683e-07 -7.38018e-05 -1.2906e-19
7.05222e-05 -2.32239e-06 -4.41997e-20
-2.34086e-05 3.81979e-05 -2.14966e-19
2.47557e-05 -3.74488e-05 -9.87505e-20
2.65178e-05 1.42962e-05 4.53154e-21
3.26569e-05 2.47088e-05 -3.48931e-21
2.66195e-05 -1.45722e-05 -1.20868e-19
3.21103e-05 -1.11762e-05 -1.11624e-19
3.20079e-05 1.06309e-05 9.71296e-20
3.69604e-05 -1.99235e-05 -8.2986e-20
3.7806e-05 1.96941e-05 1.65689e-20
8.68878e-05 0.00010691 9.85976e-21
0.000107424 8.69732e-05 4.33852e-20
-2.20822e-05 -5.16465e-06 -1.09353e-19
-2.34751e-05 5.74433e-06 -4.13414e-20
-9.08577e-06 -5.43867e-05 -5.38248e-20
9.3207e-06 5.44922e-05 -2.58104e-20
-2.45101e-05 3.57295e-05 1.6192e-19
-2.64285e-05 -1.90971e-05 -8.47752e-20
2.49008e-05 -3.17073e-05 -2.52794e-19
2.33774e-05 2.52291e-05 -2.18735e-20
3.15762e-05 1.00077e-05 -8.99508e-20
2.84068e-05 -2.02485e-05 -1.64072e-19
-3.97218e-06 -3.71003e-05 -1.73595e-19
3.42748e-05 6.64807e-06 -1.71304e-19
-4.32185e-05 -6.8386e-06 4.11035e-20
-6.29995e-06 3.50211e-05 -1.55426e-20
5.75338e-05 2.16059e-05 -4.71577e-21
4.52553e-05 -2.71328e-05 -1.34665e-19
-2.7779e-05 -1.78406e-05 -1.37599e-19
-2.89237e-05 1.45873e-05 9.45556e-20
5.46675e-07 3.30375e-05 1.57126e-19
4.86083e-06 -3.39505e-05 -1.46556e-19
9.03193e-06 -3.63879e-05 -1.86674e-19
3.47539e-06 3.16641e-05 1.18829e-20
2.87074e-05 3.38174e-06 -1.39829e-19
1.67605e-05 -1.98144e-05 -2.10139e-19
-3.88295e-06 -1.88747e-05 -1.49611e-19
-6.02504e-06 1.81989e-05 1.71223e-19
-4.92421e-05 3.33943e-05 1.27924e-20
-4.28868e-05 -2.55535e-05 -9.08247e-20
8.17128e-05 -4.13728e-05 -1.61354e-19
4.47013e-05 6.29114e-05 -9.51194e-20
5.75338e-05 2.16059e-05 1.04541e-20
4.52553e-05 -2.71328e-05 -1.08581e-19
2.64473e-05 1.37054e-05 -1.77598e-20
2.63625e-05 -2.29766e-05 -1.53645e-19
-2.23343e-05 1.05128e-05 3.11288e-21
-2.19735e-05 -1.14797e-05 -8.24014e-20
3.11608e-05 1.31331e-05 -5.06583e-20
3.11422e-05 -1.86427e-05 -2.38014e-19
1.38004e-05 -4.73934e-05 -5.76173e-20
9.27698e-06 5.39371e-05 2.73738e-19
-2.17514e-05 5.08774e-06 1.42945e-19
-2.15613e-05 -6.82947e-06 -1.11632e-19
6.30448e-07 -7.83523e-05 -1.31774e-19
7.67326e-06 7.54853e-05 -9.05274e-20
7.80722e-05 -1.35873e-06 -8.77325e-20
-7.49812e-05 -1.1095e-05 4.13602e-20
3.62486e-05 3.38072e-05 -4.22727e-20
2.96359e-05 -3.54179e-05 -1.78961e-19
-2.81276e-05 1.63457e-05 5.60021e-20
-3.60506e-05 -6.59947e-06 -9.23703e-20
-3.75163e-05 4.8544e-06 1.28158e-19
-2.85712e-05 -1.84193e-05 -7.51169e-21
2.70827e-05 -4.2613e-05 -2.23979e-19
2.55531e-05 3.76858e-05 -5.49482e-20
3.84433e-05 -2.41279e-05 -1.64833e-19
-2.45101e-05 3.57295e-05 9.26198e-20
-4.48771e-06 -3.57631e-05 -1.25283e-19
3.80881e-05 1.85471e-05 -9.48688e-20
-2.58633e-05 2.10233e-05 7.01049e-21
-9.7071e-06 -2.59774e-05 -1.28437e-19
-6.63994e-06 7.01739e-05 9.77816e-20
2.80398e-06 -5.86114e-05 -4.76702e-20
5.01805e-05 5.00474e-05 -2.87354e-20
4.16839e-05 -4.77494e-05 -1.39369e-19
3.12179e-06 -1.1787e-05 -1.65441e-19
-4.64796e-06 4.00919e-05 5.39931e-20
-2.77926e-06 -3.83531e-05 -5.54117e-20
9.96643e-06 -2.30632e-05 -1.24528e-19
7.91549e-06 2.26537e-05 2.90513e-19
1.03343e-06 -3.18962e-05 -1.90033e-19
-1.8986e-06 3.09596e-05 1.06108e-19
-4.28868e-05 -2.55535e-05 4.79059e-20
9.03193e-06 -3.63879e-05 -1.91026e-19
3.47539e-06 3.16641e-05 1.86715e-20
-4.92421e-05 3.33943e-05 7.69444e-20
4.40649e-06 8.84471e-06 -5.07533e-20
1.20866e-05 -1.97416e-05 -1.39757e-19
-2.77926e-06 -3.83531e-05 -1.461e-19
-2.23343e-05 1.05128e-05 2.08154e-20
5.69924e-05 2.17745e-05 -1.21208e-20
4.35735e-05 -2.76566e-05 -1.50776e-19
3.80881e-05 1.85471e-05 -1.0312e-19
2.45483e-05 2.65009e-05 -1.24173e-19
2.16089e-05 -3.04209e-05 -2.14446e-19
7.45827e-05 2.39267e-05 -3.01571e-21
5.75338e-05 2.16059e-05 -1.63433e-20
5.44251e-05 -2.14159e-05 -1.41356e-20
4.52553e-05 -2.71328e-05 -1.09817e-19
-3.88295e-06 -1.88747e-05 -1.15311e-19
-6.02504e-06 1.81989e-05 1.6856e-19
2.64473e-05 1.37054e-05 -6.78951e-20
2.63625e-05 -2.29766e-05 -2.18641e-19
3.65312e-05 6.83602e-05 1.36083e-19
3.55939e-05 -5.93185e-05 -5.88241e-20
3.84433e-05 -2.41279e-05 -1.3555e-19
2.87074e-05 3.38174e-06 -1.37783e-19
-2.30415e-05 6.47847e-06 -3.88109e-20
-7.51746e-05 -2.00745e-06 -4.50149e-20
-7.74287e-05 1.14788e-06 9.99711e-20
-5.77524e-06 1.97704e-05 9.94954e-20
-3.39162e-06 -2.13316e-05 -1.44639e-19
-2.85712e-05 -1.84193e-05 -1.17186e-19
1.77468e-05 1.70686e-05 -1.4639e-20
2.04441e-05 -2.52633e-05 -2.36344e-19
6.30448e-07 -7.83523e-05 -4.99192e-20
7.67326e-06 7.54853e-05 -9.004e-20
-7.49812e-05 -1.1095e-05 -2.7176e-21
7.80722e-05 -1.35873e-06 -4.98013e-20
-2.72274e-05 1.60342e-05 1.18922e-19
5.22212e-06 2.16135e-05 -5.47836e-20
4.5024e-06 -2.40574e-05 -1.81297e-19
-0.000108985 8.79455e-05 -1.47223e-20
-4.765e-06 -7.27368e-05 -6.67478e-20
7.27102e-05 3.61991e-06 1.0271e-20
-6.02504e-06 1.81989e-05 2.73217e-19
-3.88295e-06 -1.88747e-05 -1.11852e-19
-1.8986e-06 3.09596e-05 7.71823e-20
1.03343e-06 -3.18962e-05 -1.773e-19
-2.30415e-05 6.47847e-06 9.63598e-21
9.03193e-06 -3.63879e-05 -2.07706e-19
3.47539e-06 3.16641e-05 2.71006e-20
-4.28868e-05 -2.55535e-05 -9.10078e-21
3.62486e-05 3.38072e-05 -8.41094e-20
2.96359e-05 -3.54179e-05 -1.48917e-19
2.3606e-05 -1.06301e-05 -3.86129e-20
2.3559e-05 -8.05235e-06 -1.50354e-19
-2.85712e-05 -1.84193e-05 -1.19623e-19
-2.15613e-05 -6.82947e-06 -1.07328e-19
-2.17514e-05 5.08774e-06 1.72227e-19
-2.23343e-05 1.05128e-05 3.02193e-20
0.000109998 -8.70541e-05 -1.31562e-19
6.30448e-07 -7.83523e-05 -1.73587e-19
1.77267e-06 6.84485e-05 -1.36672e-19
7.80722e-05 -1.35873e-06 -1.70253e-19
2.70827e-05 -4.2613e-05 -2.3059e-19
2.55531e-05 3.76858e-05 -6.43522e-20
2.64473e-05 1.37054e-05 -2.2242e-20
2.63625e-05 -2.29766e-05 -2.43798e-19
-4.92421e-05 3.33943e-05 1.32358e-19
3.15762e-05 1.00077e-05 -3.65821e-20
2.84068e-05 -2.02485e-05 -1.63536e-19
3.84433e-05 -2.41279e-05 -2.21578e-19
3.80881e-05 1.85471e-05 -6.85588e-20
-8.81019e-05 0.000108004 -5.67879e-20
-0.000108985 8.79455e-05 -5.27427e-20
-2.15613e-05 -6.82947e-06 -1.08969e-19
-2.17514e-05 5.08774e-06 1.79682e-19
1.38004e-05 -4.73934e-05 -2.84656e-20
9.27698e-06 5.39371e-05 6.51725e-20
3.25714e-06 -3.13848e-07 9.55506e-20
3.97335e-06 -6.4405e-07 5.01788e-20
1.51887e-06 -3.79925e-07 9.75278e-21
3.96377e-06 6.41875e-07 7.51414e-20
5.69438e-06 -8.44591e-07 4.06082e-20
5.70392e-06 8.39705e-07 1.14862e-19
4.39215e-06 -1.35333e-06 7.55736e-21
3.23442e-06 -3.97159e-07 -1.81506e-20
2.85218e-06 -3.42228e-07 5.91448e-20
5.43966e-06 7.11971e-07 3.84504e-20
9.8793e-06 -3.16525e-06 6.12669e-20
9.88591e-06 3.16563e-06 7.637e-20
-1.73925e-06 -3.25505e-06 2.01358e-20
-2.12777e-06 -9.6339e-07 -1.98544e-20
5.5804e-06 3.61531e-06 4.61681e-20
6.12448e-06 -3.26291e-06 8.91868e-21
7.22964e-06 5.85528e-07 -5.04422e-20
4.11213e-06 1.24931e-06 -4.76999e-20
3.29929e-06 -4.32441e-07 -5.99874e-20
2.39873e-06 1.81316e-06 -8.12047e-20
6.95556e-06 -5.26443e-06 5.20849e-20
2.85447e-06 -1.47563e-06 8.99152e-20
3.30949e-06 -3.62037e-07 1.04624e-19
3.84877e-06 1.20698e-07 -5.30103e-20
3.41338e-06 1.88037e-07 1.03156e-20
4.0643e-06 1.29244e-07 5.50194e-20
9.8793e-06 -3.16525e-06 1.62796e-20
9.88591e-06 3.16563e-06 7.60132e-20
4.3565e-06 -3.12016e-07 6.01732e-20
4.35572e-06 3.00632e-07 6.99817e-20
2.56403e-06 3.672e-06 -4.63248e-20
2.80191e-06 -3.1252e-06 5.55413e-21
3.91249e-06 -8.34328e-07 -2.00248e-20
3.90966e-06 8.21663e-07 8.44742e-20
1.22673e-05 1.64779e-05 6.76594e-20
3.93396e-06 -1.56242e-05 -8.36968e-21
-1.022e-06 -8.05449e-06 -1.96463e-20
-1.08256e-06 7.87679e-06 1.95172e-21
4.24036e-06 -9.66287e-08 -3.12281e-20
4.1899e-06 1.34285e-08 5.59528e-20
3.52943e-06 -9.27306e-09 1.50074e-20
3.22847e-06 -3.97325e-09 6.21923e-20
6.10438e-06 -5.19909e-06 1.7556e-20
6.10616e-06 5.21127e-06 2.45941e-20
1.25229e-06 4.67409e-07 4.12028e-20
-1.22715e-05 -8.22094e-06 -2.612e-20
-1.22267e-05 8.21723e-06 -6.30116e-21
1.72033e-06 -4.08709e-07 4.69014e-20
4.1197e-06 -5.42712e-07 3.77549e-20
4.12743e-06 5.39413e-07 3.97958e-20
3.5669e-06 -5.54125e-07 -1.24123e-20
3.25714e-06 -3.13848e-07 7.27479e-20
4.78047e-06 8.93066e-07 -2.84322e-20
3.56275e-06 5.62873e-07 8.82746e-20
-3.15092e-06 3.29578e-06 -1.29549e-20
2.34822e-05 3.01332e-06 -3.14023e-20
5.64409e-06 2.32344e-05 1.48174e-20
1.24498e-05 -2.43118e-05 -3.46362e-20
8.50144e-06 -8.07596e-06 2.32508e-20
8.50695e-06 8.08048e-06 3.63639e-20
3.60993e-07 1.27525e-06 -7.95322e-20
1.15518e-05 2.2063e-05 -4.46783e-20
1.25776e-05 -2.08554e-05 -2.56145e-20
1.34812e-05 -3.17908e-06 4.49279e-20
1.45198e-06 -2.04107e-06 5.44072e-20
7.45672e-06 -1.14938e-06 9.78055e-20
4.30724e-06 -1.26106e-06 1.72825e-20
3.41338e-06 1.88037e-07 8.73789e-20
7.22964e-06 5.85528e-07 -7.18305e-20
4.11213e-06 1.24931e-06 4.20486e-20
1.26295e-06 7.02804e-06 -7.44458e-20
3.30949e-06 -3.62037e-07 5.04459e-20
2.28455e-06 1.86457e-07 -4.57402e-20
1.25776e-05 -2.08554e-05 -1.68286e-20
2.56403e-06 3.672e-06 -5.67513e-20
1.00053e-05 -3.12602e-06 6.48773e-20
1.00125e-05 3.12622e-06 1.05058e-19
3.56275e-06 5.62873e-07 -1.79404e-20
3.80009e-06 -3.76056e-06 -2.17525e-20
3.78464e-06 3.76387e-06 7.96076e-20
1.30195e-05 -3.97018e-06 5.03891e-20
9.8793e-06 -3.16525e-06 6.10057e-20
1.30292e-05 3.97254e-06 1.19482e-20
9.88591e-06 3.16563e-06 2.33931e-20
6.95556e-06 -5.26443e-06 -4.48089e-20
4.3565e-06 -3.12016e-07 3.77273e-20
4.35572e-06 3.00632e-07 1.07954e-19
2.96568e-05 2.73321e-05 4.05646e-20
-7.22603e-06 -2.11784e-05 -1.78926e-20
1.65189e-06 1.68935e-07 9.56419e-20
3.5669e-06 -5.54125e-07 -4.2793e-22
3.29929e-06 -4.32441e-07 -4.63147e-20
6.12575e-06 2.28676e-06 -5.2069e-20
1.26295e-06 7.02804e-06 1.15533e-21
-4.3749e-05 6.75236e-06 6.0357e-21
-4.37197e-05 -6.89106e-06 -4.49384e-21
7.07447e-06 -4.51633e-06 2.57988e-20
1.72033e-06 -4.08709e-07 5.65315e-20
3.86041e-06 4.92079e-07 -3.38845e-21
4.24036e-06 -9.66287e-08 -3.71247e-20
4.1899e-06 1.34285e-08 1.13138e-19
3.22847e-06 -3.97325e-09 6.20617e-20
3.52943e-06 -9.27306e-09 -1.9684e-20
3.86465e-06 -4.99815e-07 2.82161e-20
-3.8391e-06 -2.42312e-06 3.3079e-20
7.85002e-07 -3.20859e-06 7.25376e-20
7.85542e-07 3.15681e-06 -8.60553e-20
3.12651e-06 1.15202e-06 8.58689e-20
7.22964e-06 5.85528e-07 -9.09281e-21
4.16957e-06 -2.24524e-08 -2.51409e-20
3.52393e-06 -4.10928e-09 9.65392e-20
6.95556e-06 -5.26443e-06 -1.81899e-20
7.45672e-06 -1.14938e-06 6.28879e-20
6.12575e-06 2.28676e-06 -1.55586e-20
4.11213e-06 1.24931e-06 4.7066e-20
3.41338e-06 1.88037e-07 -4.59314e-21
6.10438e-06 -5.19909e-06 -1.03119e-20
6.10616e-06 5.21127e-06 8.41333e-20
4.84699e-06 2.43219e-06 1.11402e-19
4.81346e-06 -2.42998e-06 7.02589e-20
4.30724e-06 -1.26106e-06 4.70044e-20
1.72033e-06 -4.08709e-07 1.92597e-20
1.65189e-06 1.68935e-07 9.51895e-20
-1.022e-06 -8.05449e-06 -2.55363e-22
-1.08256e-06 7.87679e-06 2.12948e-20
2.56403e-06 3.672e-06 -6.43759e-21
3.24906e-06 1.09149e-06 -1.22949e-20
4.26527e-06 1.0332e-07 4.03289e-20
4.24036e-06 -9.66287e-08 3.19969e-20
3.52943e-06 -9.27306e-09 -1.75525e-21
4.1197e-06 -5.42712e-07 5.497e-20
4.12743e-06 5.39413e-07 6.49049e-20
4.35572e-06 3.00632e-07 1.08311e-19
3.30949e-06 -3.62037e-07 9.21998e-20
4.3565e-06 -3.12016e-07 4.10085e-20
5.69438e-06 -8.44591e-07 6.9094e-20
5.70392e-06 8.39705e-07 9.93351e-20
3.5669e-06 -5.54125e-07 3.59519e-20
3.56275e-06 5.62873e-07 8.06419e-20
4.49207e-06 6.58615e-08 1.18702e-19
3.12651e-06 1.15202e-06 3.72914e-20
-1.08256e-06 7.87679e-06 -2.35205e-21
-1.022e-06 -8.05449e-06 -7.54169e-20
1.22673e-05 1.64779e-05 4.05052e-20
3.93396e-06 -1.56242e-05 -1.69772e-20
-2.32203e-05 3.77243e-05 -5.73337e-20
-2.72362e-05 -1.77917e-05 -1.00938e-19
2.35751e-05 -2.49678e-05 -1.91267e-19
2.48907e-05 3.1594e-05 -3.63798e-21
2.83355e-05 2.02662e-05 1.22386e-19
3.15433e-05 -1.00561e-05 -6.61059e-20
6.56082e-06 -3.54217e-05 -2.53238e-19
3.42574e-05 1.15763e-05 -4.29109e-20
-4.3786e-05 -5.80431e-06 -1.50386e-19
-3.80413e-06 3.71488e-05 -2.56443e-20
4.51574e-05 2.71116e-05 9.97035e-20
5.75326e-05 -2.16391e-05 -1.86816e-20
-2.86492e-05 -1.6959e-05 -2.56145e-20
-2.79981e-05 1.53646e-05 1.28795e-20
5.01187e-06 3.40036e-05 1.989e-20
-4.18538e-07 -3.3042e-05 -9.6999e-20
-3.53496e-06 -3.26172e-05 -6.81765e-20
9.15378e-06 3.63496e-05 -3.6031e-20
2.81455e-05 7.99072e-06 1.34332e-19
1.78486e-05 -1.51392e-05 -8.07507e-20
-4.25753e-06 1.8621e-05 -2.81566e-20
5.98534e-06 -1.8014e-05 -1.93322e-19
-4.87739e-05 3.5312e-05 -9.20591e-20
-4.34378e-05 -2.37067e-05 -1.38192e-19
8.04893e-05 -3.72082e-05 -1.41067e-19
4.6205e-05 6.70993e-05 4.12936e-21
4.51574e-05 2.71116e-05 6.36806e-20
5.75326e-05 -2.16391e-05 -1.66364e-20
2.6311e-05 2.29583e-05 2.16675e-20
2.65288e-05 -1.38166e-05 -2.69034e-19
-2.1804e-05 1.12136e-05 -4.74859e-20
-2.26707e-05 -1.04516e-05 -1.01574e-19
3.11961e-05 1.86449e-05 4.84172e-20
3.1169e-05 -1.31335e-05 -1.79081e-19
1.38277e-05 4.74376e-05 -6.30231e-22
-9.15725e-06 -5.37948e-05 -1.53816e-19
-2.04668e-05 5.87333e-06 -1.9581e-20
-2.21496e-05 -5.32935e-06 -9.1637e-20
-9.61306e-07 -7.43062e-05 -2.67015e-19
8.72761e-06 7.89902e-05 -6.17673e-20
7.77366e-05 3.04879e-06 -7.28626e-20
-7.49127e-05 -9.18016e-06 -6.41422e-20
2.95942e-05 3.53088e-05 1.79983e-19
3.6235e-05 -3.39199e-05 6.69936e-21
-2.7544e-05 1.74457e-05 -4.7264e-20
-3.73922e-05 -4.86365e-06 -4.59324e-20
-3.62694e-05 5.63956e-06 -2.88463e-20
-2.93024e-05 -1.74965e-05 -1.08511e-19
2.52553e-05 -3.71711e-05 -2.45986e-19
2.7404e-05 4.24481e-05 -3.06414e-20
3.82682e-05 -1.84569e-05 -1.08755e-19
-2.32203e-05 3.77243e-05 -9.75299e-20
-7.06595e-06 -3.35435e-05 -2.32092e-19
3.82374e-05 2.41478e-05 -5.89982e-20
-9.65131e-06 2.59811e-05 -1.62838e-20
2.59987e-05 -2.11208e-05 2.18576e-20
6.82138e-06 -7.00952e-05 -1.40076e-19
2.85088e-06 5.86355e-05 2.95198e-22
4.16003e-05 4.7673e-05 1.59231e-19
5.01902e-05 -5.00824e-05 -7.66036e-21
3.17174e-06 -8.16362e-06 1.02175e-19
-4.35826e-06 4.01433e-05 -7.47029e-21
-3.06879e-06 -3.82586e-05 -1.64224e-20
9.96873e-06 2.31669e-05 -1.24972e-20
-7.35446e-06 -2.33922e-05 -1.55981e-19
1.15811e-06 3.25695e-05 -2.83074e-20
2.04093e-06 -3.05104e-05 -1.36468e-19
-4.34378e-05 -2.37067e-05 -1.41164e-19
-3.53496e-06 -3.26172e-05 -4.61703e-20
9.15378e-06 3.63496e-05 -3.47472e-20
-2.0034e-05 -1.3606e-05 -2.08966e-20
-4.87739e-05 3.5312e-05 -1.22495e-19
1.2353e-05 1.96846e-05 -2.31573e-20
-3.06879e-06 -3.82586e-05 -4.20667e-20
-2.1804e-05 1.12136e-05 2.18141e-20
4.34644e-05 2.7639e-05 4.7341e-20
5.69815e-05 -2.18107e-05 -1.37304e-19
3.82374e-05 2.41478e-05 3.8383e-20
2.16934e-05 3.03755e-05 9.45635e-20
2.4432e-05 -2.65717e-05 -4.09411e-20
5.42896e-05 2.1378e-05 5.84455e-20
4.51574e-05 2.71116e-05 5.73794e-20
7.45714e-05 -2.39372e-05 -6.92565e-20
5.75326e-05 -2.16391e-05 -1.29984e-20
-4.25753e-06 1.8621e-05 -2.85134e-20
2.6311e-05 2.29583e-05 5.84869e-20
2.65288e-05 -1.38166e-05 -1.27949e-19
3.55943e-05 5.93465e-05 1.58161e-20
-3.6476e-05 -6.82524e-05 3.20542e-20
-2.62618e-06 -6.23749e-06 -2.68523e-19
3.82682e-05 -1.84569e-05 -1.06449e-19
2.81455e-05 7.99072e-06 8.00711e-20
-2.30162e-05 7.16563e-06 -1.04673e-19
-2.0034e-05 -1.3606e-05 -1.16459e-19
-7.73892e-05 -1.3734e-06 -1.42031e-20
-7.52755e-05 1.77402e-06 1.6064e-20
-3.90534e-06 2.08364e-05 -2.92822e-20
-2.93024e-05 -1.74965e-05 -6.66745e-20
2.04858e-05 2.52102e-05 -2.13086e-20
-9.61306e-07 -7.43062e-05 -1.23136e-19
8.72761e-06 7.89902e-05 -8.46831e-20
-7.49127e-05 -9.18016e-06 -4.97448e-20
7.77366e-05 3.04879e-06 -7.78321e-20
1.77094e-05 -1.71838e-05 -2.80503e-19
-2.60471e-05 1.70288e-05 -2.56225e-20
4.5383e-06 2.45557e-05 1.80641e-19
5.19093e-06 -2.10711e-05 -1.20432e-20
-0.000109006 8.97504e-05 8.22607e-21
-3.53496e-06 -3.26172e-05 -1.24208e-19
-5.67569e-06 -6.93666e-05 -1.24938e-19
7.30597e-05 7.39158e-06 3.59765e-20
-4.25753e-06 1.8621e-05 -2.60286e-20
1.15811e-06 3.25695e-05 -3.66888e-20
-2.30162e-05 7.16563e-06 -1.10796e-19
9.15378e-06 3.63496e-05 -4.23321e-20
-4.34378e-05 -2.37067e-05 -1.13701e-19
2.95942e-05 3.53088e-05 1.32737e-19
3.6235e-05 -3.39199e-05 -3.465e-20
2.3461e-05 8.09038e-06 -1.50335e-20
2.38908e-05 1.0648e-05 -2.11986e-19
2.04093e-06 -3.05104e-05 -2.2032e-19
-2.93024e-05 -1.74965e-05 -6.33455e-20
-2.62618e-06 -6.23749e-06 -1.632e-19
-2.04668e-05 5.87333e-06 -1.19482e-20
-2.21496e-05 -5.32935e-06 -4.58055e-20
-2.1804e-05 1.12136e-05 -1.94047e-20
0.000109613 -8.42541e-05 -1.1467e-19
-9.61306e-07 -7.43062e-05 -2.58164e-19
3.38814e-06 7.26228e-05 -1.80938e-20
7.77366e-05 3.04879e-06 -8.33783e-20
2.52553e-05 -3.71711e-05 -2.20341e-19
2.7404e-05 4.24481e-05 -2.6516e-20
2.6311e-05 2.29583e-05 -1.31195e-20
-4.87739e-05 3.5312e-05 -6.98745e-20
2.65288e-05 -1.38166e-05 -1.97428e-19
2.83355e-05 2.02662e-05 6.38213e-20
3.15433e-05 -1.00561e-05 -1.12864e-19
3.82682e-05 -1.84569e-05 -1.80849e-19
3.82374e-05 2.41478e-05 7.15119e-21
-8.95976e-05 0.000111977 -1.17484e-19
-0.000109006 8.97504e-05 -4.91613e-20
-2.21496e-05 -5.32935e-06 -7.47787e-20
-2.04668e-05 5.87333e-06 -1.39456e-20
-9.15725e-06 -5.37948e-05 -1.95672e-20
1.38277e-05 4.74376e-05 2.48356e-20
-2.40312e-05 3.61435e-05 -4.8964e-20
-2.69948e-05 -1.80942e-05 -3.59657e-20
2.57585e-05 -2.45451e-05 -5.02601e-20
2.55724e-05 2.47807e-05 -5.35928e-20
3.21959e-05 6.49912e-06 -7.29438e-20
3.21526e-05 -6.53736e-06 -1.36127e-20
7.93976e-06 -3.52278e-05 -8.68082e-20
4.08258e-05 -7.46313e-06 -3.25941e-21
-4.3548e-05 -6.38967e-06 -5.83077e-20
-5.45363e-06 3.48704e-05 -4.96712e-20
5.22469e-05 -1.50706e-05 3.06733e-20
5.22286e-05 1.50898e-05 -2.89254e-20
-2.85628e-05 -1.72125e-05 -3.75707e-20
-2.88482e-05 1.46815e-05 -8.69786e-20
1.60715e-06 3.25639e-05 -1.05967e-19
5.9875e-07 -3.25526e-05 -1.09965e-19
-2.83514e-06 -3.25287e-05 -1.26014e-19
4.77542e-06 3.13984e-05 -9.36366e-20
3.45758e-05 -4.0636e-06 -5.74113e-20
2.69782e-05 1.19263e-05 -5.53544e-20
-5.61039e-06 1.78879e-05 -6.20893e-20
7.43263e-06 -1.7455e-05 -6.42115e-20
-4.87948e-05 3.38057e-05 -3.43091e-20
-4.29878e-05 -2.4172e-05 -2.1178e-20
8.23076e-05 -3.85893e-05 -1.91346e-20
4.65107e-05 6.35752e-05 -1.75875e-20
5.22469e-05 -1.50706e-05 1.87846e-20
5.22286e-05 1.50898e-05 -4.84469e-20
2.87581e-05 -1.26198e-05 -4.11954e-21
2.86875e-05 1.24629e-05 -9.46767e-20
-2.23839e-05 1.08064e-05 -6.54242e-20
-2.2704e-05 -1.07828e-05 -5.9775e-20
3.45803e-05 1.22534e-05 -4.7908e-20
3.44699e-05 -1.25799e-05 -2.63928e-21
1.0051e-05 5.32948e-05 -7.79431e-20
-8.2943e-06 -5.29589e-05 -6.41165e-20
-2.16057e-05 5.06784e-06 -7.50819e-20
-2.20537e-05 -5.4108e-06 -6.12473e-20
1.64404e-07 -7.5168e-05 -4.43553e-20
8.81901e-06 7.62282e-05 -3.43428e-20
8.02251e-05 6.58604e-07 -3.62631e-22
-7.45135e-05 -1.00447e-05 -4.39886e-20
3.78729e-05 -2.31823e-05 -5.37733e-20
3.779e-05 2.32217e-05 -2.66387e-20
-2.81135e-05 1.66346e-05 -8.23281e-20
-3.73815e-05 -4.94252e-06 -5.06938e-20
-3.75578e-05 4.83176e-06 -6.84239e-20
-2.92439e-05 -1.77729e-05 -2.99836e-20
2.70787e-05 -3.72273e-05 -4.19913e-20
2.72434e-05 3.78222e-05 -5.80155e-20
4.176e-05 -1.84907e-05 -1.11953e-20
-2.40312e-05 3.61435e-05 -4.55045e-20
-6.13284e-06 -3.35669e-05 -3.7628e-20
4.25434e-05 1.81938e-05 -2.22515e-21
-2.4777e-05 2.02884e-05 -1.15918e-19
2.70097e-05 -2.02441e-05 -1.24452e-19
7.79342e-06 -6.93707e-05 -6.36567e-20
-5.6814e-06 6.93437e-05 -7.61815e-20
4.20356e-05 -3.56239e-05 -3.07922e-20
4.20516e-05 3.56923e-05 -2.23747e-20
1.81178e-05 6.37748e-06 -7.90267e-20
-4.76495e-06 4.02595e-05 -1.04237e-19
-3.17394e-06 -3.84287e-05 -3.50206e-20
8.41439e-06 2.23695e-05 -7.12278e-20
-5.98663e-06 -2.28654e-05 -7.38395e-20
-1.14752e-06 3.08967e-05 -7.84305e-20
3.33474e-06 -3.0224e-05 -1.1058e-19
-4.29878e-05 -2.4172e-05 -2.57908e-20
-2.83514e-06 -3.25287e-05 -1.1013e-19
4.77542e-06 3.13984e-05 -7.04293e-20
-1.98321e-05 -1.34567e-05 -9.36801e-20
-4.87948e-05 3.38057e-05 -6.32346e-20
5.72475e-06 8.04284e-06 -1.21666e-19
-3.17394e-06 -3.84287e-05 -6.14612e-20
-2.23839e-05 1.08064e-05 -1.02161e-19
5.25314e-05 -1.4982e-05 -3.92734e-21
5.25348e-05 1.49945e-05 -8.67806e-20
4.25434e-05 1.81938e-05 -1.72645e-20
3.032e-05 1.85644e-05 -4.51657e-20
3.04863e-05 -1.85709e-05 -5.10347e-20
6.64485e-05 -1.8774e-05 1.98783e-20
5.22469e-05 -1.50706e-05 -2.72732e-20
6.64468e-05 1.87916e-05 -4.04776e-20
5.22286e-05 1.50898e-05 -1.33987e-20
-5.61039e-06 1.78879e-05 -8.44046e-20
2.87581e-05 -1.26198e-05 -1.64957e-20
2.86875e-05 1.24629e-05 -8.49159e-20
-3.54179e-05 -6.72598e-05 -2.21231e-20
3.75308e-05 6.79637e-05 -2.9605e-20
-1.132e-06 -5.74277e-06 -2.39341e-20
4.176e-05 -1.84907e-05 -4.89417e-21
3.45758e-05 -4.0636e-06 -3.40734e-20
-2.31729e-05 6.77433e-06 -9.21919e-20
-1.98321e-05 -1.34567e-05 -7.1317e-20
-7.73954e-05 -1.46461e-06 -3.04768e-20
-7.74752e-05 1.25134e-06 -4.03209e-20
-5.32107e-06 1.9708e-05 -5.8814e-20
-2.92439e-05 -1.77729e-05 -2.66546e-20
1.95187e-05 1.6007e-05 -7.57456e-20
1.64404e-07 -7.5168e-05 -6.79838e-21
8.81901e-06 7.62282e-05 -2.24302e-20
8.02251e-05 6.58604e-07 4.81564e-22
-7.45135e-05 -1.00447e-05 -3.24089e-20
1.945e-05 -1.61739e-05 -2.81349e-20
-2.71426e-05 1.61363e-05 -6.53806e-20
1.80386e-05 -1.53034e-05 -8.26531e-20
1.77925e-05 1.49843e-05 -5.19362e-20
-0.000108232 8.81571e-05 -2.18834e-20
-2.83514e-06 -3.25287e-05 -9.92162e-20
-4.7108e-06 -7.006e-05 -1.36424e-20
7.51132e-05 5.45855e-06 -1.35137e-20
-5.61039e-06 1.78879e-05 -1.0326e-19
-1.14752e-06 3.08967e-05 -7.06672e-20
-2.31729e-05 6.77433e-06 -7.05424e-20
4.77542e-06 3.13984e-05 -7.15825e-20
-4.29878e-05 -2.4172e-05 -2.64566e-20
3.78729e-05 -2.31823e-05 5.63537e-21
3.779e-05 2.32217e-05 -2.84577e-20
2.46969e-05 -1.04029e-05 -1.00021e-19
2.48849e-05 1.04657e-05 -3.53774e-20
3.33474e-06 -3.0224e-05 -7.00746e-20
-2.92439e-05 -1.77729e-05 -3.49532e-20
-1.132e-06 -5.74277e-06 -2.44215e-20
-2.20537e-05 -5.4108e-06 -4.106e-20
-2.16057e-05 5.06784e-06 -7.37503e-20
-2.23839e-05 1.08064e-05 -7.81571e-20
0.000111488 -8.58259e-05 -8.00613e-21
1.64404e-07 -7.5168e-05 -2.88699e-20
2.92358e-06 6.91977e-05 -3.02708e-20
8.02251e-05 6.58604e-07 -8.21519e-21
2.70787e-05 -3.72273e-05 -3.01025e-20
2.72434e-05 3.78222e-05 -3.61876e-20
2.86875e-05 1.24629e-05 -7.71526e-20
-4.87948e-05 3.38057e-05 -5.20116e-20
2.87581e-05 -1.26198e-05 -2.2131e-20
3.21526e-05 -6.53736e-06 -1.18876e-21
3.21959e-05 6.49912e-06 -1.04223e-19
4.176e-05 -1.84907e-05 -3.41764e-20
4.25434e-05 1.81938e-05 -4.62377e-20
-8.81663e-05 0.000109123 -1.48007e-20
-0.000108232 8.81571e-05 -1.91549e-20
-2.20537e-05 -5.4108e-06 -6.9189e-20
-2.16057e-05 5.06784e-06 -9.8681e-20
-8.2943e-06 -5.29589e-05 -5.22277e-20
1.0051e-05 5.32948e-05 -4.55581e-20
-2.39102e-05 3.85939e-05 -1.99059e-20
-2.61991e-05 -2.48219e-05 6.02645e-20
2.31736e-05 -2.58137e-05 6.01615e-20
2.34308e-05 2.60185e-05 1.21266e-20
3.20213e-05 -1.06209e-05 8.21795e-20
3.21012e-05 1.1207e-05 -9.95947e-20
-6.50785e-06 -3.51594e-05 -1.03968e-20
3.49931e-05 -8.5204e-06 -6.10391e-20
-4.91087e-05 -1.10906e-05 -1.52989e-20
-5.91877e-06 3.54848e-05 8.48506e-20
5.89265e-05 -2.2369e-05 3.57931e-20
5.82799e-05 2.27528e-05 -6.8331e-20
-2.91589e-05 -1.463e-05 2.39219e-19
-2.8864e-05 1.68975e-05 -9.93192e-20
7.68789e-07 3.32395e-05 1.79919e-20
3.034e-07 -3.33107e-05 2.44125e-21
3.18986e-06 -3.1941e-05 -1.28734e-19
3.56026e-06 3.22742e-05 -1.75739e-21
2.86783e-05 -5.08623e-06 -9.31261e-22
1.83932e-05 1.67859e-05 -9.03373e-20
-6.16861e-06 -1.83185e-05 1.65065e-19
-5.82592e-06 1.86408e-05 6.68964e-20
-3.92381e-05 6.41555e-05 3.21572e-20
-4.4062e-05 -2.38335e-05 -2.78752e-20
7.81824e-05 -3.71512e-05 4.44419e-20
7.67884e-05 4.17051e-05 -2.46594e-21
5.89265e-05 -2.2369e-05 3.71725e-20
5.82799e-05 2.27528e-05 -5.46233e-20
2.64813e-05 -1.42764e-05 2.64964e-20
2.66568e-05 1.46032e-05 -6.88482e-20
-2.28113e-05 -1.07288e-05 1.40284e-19
-2.32492e-05 1.0844e-05 -5.95371e-20
3.10614e-05 1.45413e-05 -8.82428e-20
3.06675e-05 -1.47492e-05 5.51781e-20
9.65694e-06 5.44733e-05 -1.43379e-20
9.27816e-06 -5.44639e-05 -9.70128e-21
-2.20239e-05 -5.07541e-06 1.6939e-19
-2.3491e-05 5.68399e-06 -2.26126e-20
-9.87347e-07 -7.36594e-05 -7.51363e-20
-7.37098e-06 7.51351e-05 1.56427e-20
7.42337e-05 -5.41179e-06 -4.3523e-20
-6.54738e-05 5.98666e-07 -1.96542e-20
3.72489e-05 -3.52421e-05 -9.08115e-21
3.68975e-05 3.5348e-05 -6.59652e-20
-3.44485e-05 -2.07267e-05 1.52559e-19
-3.78363e-05 -4.8472e-06 1.25597e-19
-3.76277e-05 6.19133e-06 -7.85632e-20
-2.89785e-05 1.69864e-05 -7.78401e-20
2.46991e-05 -3.80241e-05 3.94789e-20
-2.33566e-05 3.81809e-05 3.36513e-20
3.69514e-05 -1.98533e-05 -5.1915e-21
-6.96119e-06 -3.39673e-05 -4.00316e-20
2.29311e-05 3.57096e-05 4.63603e-20
3.78475e-05 1.98741e-05 -4.94971e-20
-2.60863e-05 2.11228e-05 -2.54085e-20
-2.62737e-05 -2.13049e-05 -1.05242e-19
-6.8359e-06 -7.09021e-05 -1.23765e-19
-6.5404e-06 7.09968e-05 -7.60886e-21
5.14363e-05 -5.14342e-05 2.09619e-20
5.09963e-05 5.13606e-05 -5.50353e-20
3.39967e-06 -1.00936e-05 -5.03907e-20
-5.35899e-06 -4.01183e-05 1.46564e-19
-4.08294e-06 3.82404e-05 -2.83807e-20
7.90225e-06 -2.28149e-05 7.33797e-20
8.00502e-06 2.28439e-05 3.47726e-20
-4.4062e-05 -2.38335e-05 -2.19309e-20
-1.77196e-06 3.13243e-05 6.80199e-20
-2.01619e-06 -3.10145e-05 8.30157e-20
3.18986e-06 -3.1941e-05 -5.74845e-20
3.56026e-06 3.22742e-05 3.27556e-20
5.17713e-06 8.93578e-06 -4.80132e-20
4.25048e-06 -9.06753e-06 -1.13748e-19
-4.08294e-06 3.82404e-05 -5.84115e-20
-2.28113e-05 -1.07288e-05 2.29902e-19
5.82113e-05 -2.25918e-05 3.42199e-20
5.75655e-05 2.29753e-05 -9.97949e-20
3.78475e-05 1.98741e-05 -7.26566e-20
2.49525e-05 2.79007e-05 -8.18901e-20
2.51767e-05 -2.77055e-05 5.01767e-20
7.62734e-05 -2.45574e-05 4.65366e-20
5.89265e-05 -2.2369e-05 3.08713e-20
7.51577e-05 2.44407e-05 -3.93244e-20
5.82799e-05 2.27528e-05 -4.36616e-20
-4.77012e-05 3.57021e-05 -1.1988e-20
-6.16861e-06 -1.83185e-05 2.801e-19
-5.82592e-06 1.86408e-05 7.10218e-20
2.64813e-05 -1.42764e-05 6.14968e-20
2.66568e-05 1.46032e-05 -7.31519e-20
3.68222e-05 -6.90326e-05 -1.22005e-19
3.75877e-05 6.93099e-05 1.48768e-20
3.69514e-05 -1.98533e-05 -1.84118e-20
2.86783e-05 -5.08623e-06 -6.61059e-20
-2.34919e-05 -6.96705e-06 -7.40317e-20
-7.79394e-05 -1.08054e-06 1.13294e-19
-7.7741e-05 1.45151e-06 -4.79298e-20
-5.8913e-06 -2.00631e-05 4.09628e-20
-5.26233e-06 2.15223e-05 3.30529e-20
-2.89785e-05 1.69864e-05 -8.71135e-20
1.7929e-05 1.79599e-05 -1.52257e-20
1.75744e-05 -1.77178e-05 -7.66869e-20
-9.87347e-07 -7.36594e-05 4.26759e-20
-7.37098e-06 7.51351e-05 2.49814e-20
-6.54738e-05 5.98666e-07 -3.76657e-20
7.42337e-05 -5.41179e-06 -4.65844e-21
-2.74806e-05 -1.60854e-05 1.7586e-19
6.31663e-06 -2.3317e-05 -6.97862e-21
6.13072e-06 2.29909e-05 -7.9348e-20
0.000107449 8.70299e-05 8.86213e-21
3.56026e-06 3.22742e-05 8.84785e-20
-5.33193e-06 -6.9131e-05 -8.57997e-20
-6.54738e-05 5.98666e-07 -1.56833e-20
-5.82592e-06 1.86408e-05 7.46598e-20
-6.16861e-06 -1.83185e-05 1.86845e-19
-2.01619e-06 -3.10145e-05 1.98385e-20
-2.34919e-05 -6.96705e-06 1.39456e-20
3.18986e-06 -3.1941e-05 -7.34986e-20
3.72489e-05 -3.52421e-05 2.91176e-20
3.68975e-05 3.5348e-05 -8.51299e-20
2.43562e-05 -9.43802e-06 -9.40979e-20
2.38566e-05 1.06796e-05 -3.95494e-21
-4.4062e-05 -2.38335e-05 -3.12042e-20
-1.77196e-06 3.13243e-05 6.34071e-20
-2.89785e-05 1.69864e-05 -1.04102e-19
-2.20239e-05 -5.07541e-06 1.49333e-19
-2.3491e-05 5.68399e-06 -6.22736e-20
-2.28113e-05 -1.07288e-05 2.7307e-19
0.000102034 -8.34564e-05 -2.4162e-20
-1.79108e-06 6.79384e-05 6.52508e-20
-9.87347e-07 -7.36594e-05 -1.09843e-20
7.04967e-05 -2.20104e-06 2.82886e-20
2.46991e-05 -3.80241e-05 7.13765e-20
-2.33566e-05 3.81809e-05 4.82032e-20
2.66568e-05 1.46032e-05 -2.05318e-20
2.64813e-05 -1.42764e-05 -6.1626e-21
3.27562e-05 2.48778e-05 -5.46494e-21
3.20213e-05 -1.06209e-05 1.151e-19
3.21012e-05 1.1207e-05 -6.91115e-20
3.69514e-05 -1.98533e-05 3.86426e-20
3.78475e-05 1.98741e-05 -6.7687e-20
8.69421e-05 0.000106974 1.64046e-20
0.000107449 8.70299e-05 -4.15822e-20
-2.20239e-05 -5.07541e-06 2.00087e-19
-2.3491e-05 5.68399e-06 -5.31786e-20
9.65694e-06 5.44733e-05 -8.52418e-21
9.27816e-06 -5.44639e-05 -4.60811e-20
-2.45128e-05 3.57343e-05 5.90874e-20
-2.7459e-05 -1.79879e-05 2.7794e-20
2.3409e-05 -2.54825e-05 -9.56217e-20
2.31945e-05 2.58764e-05 -1.13257e-19
3.21184e-05 -1.1007e-05 -4.47357e-20
3.20726e-05 1.10496e-05 -1.55058e-19
6.25989e-06 -3.56758e-05 -3.94911e-21
3.38597e-05 -8.44151e-06 -1.44069e-19
-4.3866e-05 -6.24444e-06 1.76706e-19
-6.47024e-06 3.50557e-05 -1.01457e-19
5.86675e-05 -2.26849e-05 -6.66331e-20
5.86085e-05 2.27521e-05 -9.88753e-20
-2.91518e-05 1.46519e-05 4.02615e-20
-2.89706e-05 -1.71446e-05 1.53445e-19
2.89383e-07 3.31912e-05 -1.16497e-19
-6.09483e-07 -3.33277e-05 5.41344e-21
-3.67512e-06 -3.27849e-05 2.29078e-20
3.1976e-06 3.18343e-05 -1.17636e-19
2.86222e-05 -5.36882e-06 -1.12357e-19
1.81247e-05 1.67836e-05 -1.52456e-19
-6.11185e-06 1.82504e-05 4.34635e-20
5.82768e-06 -1.83589e-05 5.55227e-20
-4.87396e-05 3.34466e-05 1.3361e-20
-4.36299e-05 -2.39088e-05 1.01184e-19
4.48668e-05 -6.43347e-05 -3.38138e-20
7.77288e-05 3.82737e-05 -1.4497e-19
5.86675e-05 -2.26849e-05 -6.25905e-20
5.86085e-05 2.27521e-05 -5.78827e-20
2.65438e-05 -1.44143e-05 1.53207e-20
2.64953e-05 1.44411e-05 -1.01287e-19
-2.27429e-05 1.08488e-05 8.29483e-20
-2.31221e-05 -1.07641e-05 1.65801e-19
3.07163e-05 1.47056e-05 -9.33451e-20
3.09067e-05 -1.46042e-05 -6.54242e-20
9.17494e-06 5.44118e-05 -6.99695e-20
-9.37484e-06 -5.43491e-05 -8.89478e-21
-2.1903e-05 5.09392e-06 1.15341e-20
-2.2377e-05 -5.32873e-06 1.51471e-19
-1.01274e-06 -7.04887e-05 -3.67568e-21
3.00155e-06 7.38439e-05 -6.67815e-20
7.51095e-05 -4.48731e-07 -5.75607e-20
-7.42775e-05 -9.44152e-06 -1.05707e-20
3.70999e-05 -3.54229e-05 -7.42181e-20
3.69542e-05 3.55555e-05 -1.50356e-19
-2.84117e-05 1.65958e-05 6.50398e-20
-3.77694e-05 4.8592e-06 1.68626e-21
-3.77318e-05 -4.8597e-06 2.13931e-19
-2.96203e-05 -1.76791e-05 1.79222e-19
2.46669e-05 -3.77285e-05 -4.17338e-20
2.43422e-05 3.79304e-05 -1.4282e-19
3.7507e-05 1.98075e-05 -1.66194e-19
-2.45128e-05 3.57343e-05 -4.34418e-20
-7.30468e-06 -3.36868e-05 1.56536e-20
3.75314e-05 -1.97751e-05 -7.85712e-20
-2.65202e-05 2.0975e-05 -6.88699e-20
2.61705e-05 -2.12807e-05 1.55426e-20
6.77101e-06 -7.08201e-05 3.75213e-20
-6.98621e-06 7.08981e-05 -7.07346e-20
5.13034e-05 -5.15598e-05 -2.75046e-20
5.13212e-05 5.17006e-05 -1.13184e-19
3.55532e-06 1.01336e-05 -1.7926e-19
-5.34986e-06 4.00716e-05 -1.14369e-20
-4.08834e-06 -3.82065e-05 8.52626e-20
7.86824e-06 2.27178e-05 -3.41605e-21
-7.50887e-06 -2.37359e-05 8.14989e-21
-2.0498e-06 3.09765e-05 -6.80852e-20
1.83269e-06 -3.08651e-05 2.35794e-20
-4.36299e-05 -2.39088e-05 1.17864e-19
-3.67512e-06 -3.27849e-05 2.63674e-20
3.1976e-06 3.18343e-05 -1.28241e-19
-2.0236e-05 -1.36672e-05 1.27779e-19
-4.87396e-05 3.34466e-05 8.06636e-20
4.87213e-06 8.81729e-06 -9.81819e-20
-4.08834e-06 -3.82065e-05 2.01856e-19
-2.27429e-05 1.08488e-05 7.20343e-20
5.79621e-05 -2.29046e-05 -5.76528e-20
5.78893e-05 2.29761e-05 -1.01972e-19
3.75314e-05 -1.97751e-05 -1.06522e-19
2.4826e-05 2.80049e-05 -1.40135e-19
2.50789e-05 -2.79164e-05 -4.23024e-20
7.57696e-05 -2.45588e-05 -5.99396e-20
5.86675e-05 -2.26849e-05 -4.20943e-20
7.5718e-05 2.45922e-05 -1.26735e-20
5.86085e-05 2.27521e-05 -2.08371e-20
-6.11185e-06 1.82504e-05 -3.65178e-21
2.65438e-05 -1.44143e-05 -3.29478e-20
2.64953e-05 1.44411e-05 -1.23911e-19
3.67517e-05 6.8992e-05 -3.11527e-20
-3.70562e-05 -6.90148e-05 4.88037e-21
-2.71516e-06 -6.67652e-06 4.49656e-20
3.7507e-05 1.98075e-05 -1.53948e-19
2.86222e-05 -5.36882e-06 -1.64394e-19
-2.3428e-05 6.84292e-06 1.70836e-19
-2.0236e-05 -1.36672e-05 3.71863e-20
-7.77862e-05 1.08347e-06 -3.24822e-20
-7.78132e-05 -1.26941e-06 6.78429e-21
-5.865e-06 1.98033e-05 -1.08762e-20
-2.96203e-05 -1.76791e-05 7.88685e-20
1.76495e-05 1.78587e-05 -1.04849e-19
-1.01274e-06 -7.04887e-05 -1.1439e-20
3.00155e-06 7.38439e-05 -6.16574e-20
-7.42775e-05 -9.44152e-06 2.4546e-20
7.51095e-05 -4.48731e-07 -6.73868e-20
1.76432e-05 -1.78142e-05 -3.34947e-20
-2.74222e-05 1.61272e-05 3.57002e-20
6.21178e-06 -2.34999e-05 -9.72347e-20
5.81294e-06 2.28462e-05 -1.7665e-19
-0.000107505 8.7632e-05 4.14423e-21
-3.67512e-06 -3.27849e-05 2.0423e-20
-2.03339e-06 -6.9203e-05 6.76859e-20
7.06043e-05 -4.63202e-06 -6.72867e-20
-6.11185e-06 1.82504e-05 1.06641e-19
-2.0498e-06 3.09765e-05 -3.78282e-20
-2.3428e-05 6.84292e-06 1.52646e-19
3.1976e-06 3.18343e-05 -1.26065e-19
-4.36299e-05 -2.39088e-05 1.14404e-19
3.70999e-05 -3.54229e-05 -2.83865e-20
3.69542e-05 3.55555e-05 -1.35626e-19
2.46804e-05 9.98274e-06 2.53868e-20
2.42203e-05 -9.88351e-06 -1.30621e-19
1.83269e-06 -3.08651e-05 1.64819e-20
-2.96203e-05 -1.76791e-05 1.53756e-19
-2.71516e-06 -6.67652e-06 7.03836e-20
-2.1903e-05 5.09392e-06 -1.76265e-22
-2.2377e-05 -5.32873e-06 2.03069e-19
-2.27429e-05 1.08488e-05 9.56812e-20
0.000105767 8.38339e-05 -8.57823e-20
-1.01274e-06 -7.04887e-05 -4.70638e-20
6.77805e-07 7.15683e-05 -9.70276e-20
7.51095e-05 -4.48731e-07 -1.39927e-19
2.46669e-05 -3.77285e-05 -6.55112e-20
2.43422e-05 3.79304e-05 -1.57372e-19
2.64953e-05 1.44411e-05 -8.90413e-20
-4.87396e-05 3.34466e-05 1.20372e-19
2.65438e-05 -1.44143e-05 -6.50716e-20
3.21184e-05 -1.1007e-05 -3.20791e-21
3.20726e-05 1.10496e-05 -1.30567e-19
3.7507e-05 1.98075e-05 -1.07499e-19
3.75314e-05 -1.97751e-05 -8.81536e-20
-8.76064e-05 0.000108846 1.1439e-20
-0.000107505 8.7632e-05 6.17426e-21
-2.1903e-05 5.09392e-06 -4.64952e-20
-2.2377e-05 -5.32873e-06 2.38783e-19
-9.37484e-06 -5.43491e-05 1.43953e-20
9.17494e-06 5.44118e-05 -4.83678e-20
-2.39463e-05 3.8599e-05 -2.09087e-19
-2.61952e-05 -2.49349e-05 -1.26804e-19
2.34844e-05 -2.55608e-05 -1.0077e-19
2.32423e-05 2.58743e-05 -8.55392e-21
3.21103e-05 -1.11762e-05 -5.77203e-20
3.20079e-05 1.06309e-05 4.40322e-20
6.4696e-06 -3.56063e-05 -6.70531e-20
3.49949e-05 -8.70187e-06 2.32088e-20
-4.91227e-05 -1.1113e-05 -1.56907e-19
-6.0082e-06 3.5528e-05 -2.06677e-19
5.83223e-05 -2.26921e-05 -6.44218e-20
5.89183e-05 2.24191e-05 2.81189e-20
-2.91825e-05 -1.4618e-05 -1.3411e-19
-2.88521e-05 1.69004e-05 -5.53023e-21
6.11074e-07 3.3327e-05 -1.25833e-19
-4.10085e-07 -3.32163e-05 -3.9558e-20
-3.39918e-06 -3.25065e-05 -1.13316e-19
3.3343e-06 3.22522e-05 -2.50655e-20
2.87112e-05 -5.28467e-06 -2.00328e-20
1.83645e-05 1.65714e-05 -4.07706e-20
-5.86706e-06 1.87296e-05 -1.14469e-19
6.05284e-06 -1.83635e-05 -1.7455e-19
-3.92743e-05 6.41346e-05 -1.33767e-19
-4.41115e-05 -2.38862e-05 -1.25797e-19
7.81889e-05 -3.7209e-05 -7.19239e-20
7.67395e-05 4.16124e-05 -2.52073e-20
5.83223e-05 -2.26921e-05 -5.90954e-20
5.89183e-05 2.24191e-05 3.33147e-20
2.66195e-05 -1.45722e-05 -1.40455e-19
2.65178e-05 1.42962e-05 5.24635e-20
-2.28109e-05 -1.0732e-05 -1.90388e-19
-2.32423e-05 1.084e-05 -1.21835e-19
3.09818e-05 1.43314e-05 1.47797e-20
3.07877e-05 -1.49189e-05 -3.14915e-20
9.3207e-06 5.44922e-05 6.9553e-22
-9.08577e-06 -5.43867e-05 -5.64025e-20
-2.20822e-05 -5.16465e-06 -1.51612e-19
-2.34751e-05 5.74433e-06 -1.02175e-19
-8.92683e-07 -7.38018e-05 -1.27658e-19
-7.4211e-06 7.5081e-05 -1.04718e-19
7.42136e-05 -5.49387e-06 4.63813e-20
-6.54968e-05 5.86609e-07 -1.01728e-19
3.7025e-05 -3.52596e-05 -4.71577e-21
3.71496e-05 3.53213e-05 -9.09277e-20
-3.44428e-05 -2.07615e-05 -1.55006e-19
-3.8222e-05 -4.01988e-06 -7.44538e-20
-3.75534e-05 6.24957e-06 3.84069e-20
-2.89758e-05 1.69965e-05 -1.555e-19
2.47557e-05 -3.74488e-05 -1.31595e-19
-2.34086e-05 3.81979e-05 -2.08253e-19
3.69604e-05 -1.99235e-05 -6.90244e-20
-7.1371e-06 -3.39202e-05 -1.05842e-19
2.2786e-05 3.5591e-05 -8.32913e-20
3.7806e-05 1.96941e-05 5.16548e-20
-2.62293e-05 2.12691e-05 -5.47183e-20
2.68357e-05 -2.07845e-05 -6.59195e-20
-6.78408e-06 7.0921e-05 -1.48172e-19
7.21094e-06 -7.10115e-05 -3.00728e-20
5.09725e-05 -5.12294e-05 -2.43721e-20
5.14797e-05 5.15637e-05 -5.00955e-20
3.48858e-06 -1.03175e-05 -4.65525e-20
-5.35829e-06 -4.01147e-05 -9.73e-20
-4.08104e-06 3.82235e-05 1.95194e-20
7.97707e-06 2.29368e-05 -5.94363e-20
-7.24284e-06 -2.37241e-05 -9.65036e-20
-4.41115e-05 -2.38862e-05 -1.09783e-19
-1.87019e-06 3.13764e-05 -1.73979e-19
2.04694e-06 -3.08007e-05 -1.02973e-19
-3.39918e-06 -3.25065e-05 -9.48173e-20
3.3343e-06 3.22522e-05 -1.55058e-19
-2.05776e-05 -1.39359e-05 -1.17576e-19
4.22513e-06 9.06345e-06 -2.75985e-23
-4.08104e-06 3.82235e-05 -5.63908e-20
-2.28109e-05 -1.0732e-05 -2.07603e-19
5.76134e-05 -2.29129e-05 -8.91602e-20
5.82075e-05 2.26404e-05 7.25615e-20
3.7806e-05 1.96941e-05 2.13978e-20
2.49817e-05 2.77349e-05 -6.35616e-20
2.51722e-05 -2.78601e-05 -1.26655e-20
7.51897e-05 -2.44077e-05 -3.33046e-20
5.83223e-05 -2.26921e-05 1.30462e-20
7.62892e-05 2.4595e-05 1.28083e-20
5.89183e-05 2.24191e-05 -2.48102e-20
-4.77303e-05 3.57063e-05 -1.50865e-19
-5.86706e-06 1.87296e-05 -7.37859e-20
2.66195e-05 -1.45722e-05 -8.8857e-20
2.65178e-05 1.42962e-05 8.76423e-20
3.68691e-05 6.90661e-05 4.31009e-20
-3.68669e-05 -6.90821e-05 -4.8861e-20
-2.44439e-06 -6.74357e-06 -1.3584e-19
3.69604e-05 -1.99235e-05 -1.79621e-20
2.87112e-05 -5.28467e-06 -1.00936e-20
-2.34913e-05 -6.97531e-06 -2.09348e-19
-2.05776e-05 -1.39359e-05 -1.2547e-19
-7.77154e-05 -1.22095e-06 7.01224e-20
-7.77758e-05 1.37491e-06 -5.9226e-21
-5.30749e-06 2.15907e-05 -1.32115e-19
-2.89758e-05 1.69965e-05 -1.84164e-19
1.76628e-05 1.77018e-05 1.15558e-20
-8.92683e-07 -7.38018e-05 -4.20112e-20
-7.4211e-06 7.5081e-05 -8.75918e-20
-6.54968e-05 5.86609e-07 -9.99741e-20
7.42136e-05 -5.49387e-06 -4.20181e-20
1.77543e-05 -1.79572e-05 -1.61173e-19
-2.74548e-05 -1.61087e-05 -1.77306e-19
6.51335e-06 -2.34642e-05 -4.11035e-20
5.95662e-06 2.28284e-05 -7.73426e-20
0.000107424 8.69732e-05 -8.2125e-20
3.3343e-06 3.22522e-05 -8.04794e-20
-3.39918e-06 -3.25065e-05 -1.06219e-19
-5.28796e-06 -6.91901e-05 -1.16852e-19
-6.54968e-05 5.86609e-07 -7.50848e-20
-5.86706e-06 1.87296e-05 -3.47907e-20
-2.34913e-05 -6.97531e-06 -1.94131e-19
3.7025e-05 -3.52596e-05 -1.74965e-20
3.71496e-05 3.53213e-05 -3.21848e-20
2.47711e-05 9.53635e-06 -1.21569e-19
2.384e-05 -1.06695e-05 5.27348e-20
-4.41115e-05 -2.38862e-05 -8.2986e-20
-1.87019e-06 3.13764e-05 -1.98601e-19
2.04694e-06 -3.08007e-05 -1.39483e-19
-2.89758e-05 1.69965e-05 -1.1553e-19
-2.44439e-06 -6.74357e-06 -1.62637e-19
-2.20822e-05 -5.16465e-06 -1.12391e-19
-2.34751e-05 5.74433e-06 -4.01505e-20
-2.28109e-05 -1.0732e-05 -1.42071e-19
0.000102037 -8.3515e-05 -9.20378e-22
-1.86417e-06 6.7914e-05 -1.44713e-19
-8.92683e-07 -7.38018e-05 -1.23022e-19
7.05222e-05 -2.32239e-06 -3.94738e-20
-2.34086e-05 3.81979e-05 -2.19166e-19
2.47557e-05 -3.74488e-05 -9.77003e-20
2.65178e-05 1.42962e-05 1.60837e-20
3.26569e-05 2.47088e-05 -1.13658e-20
2.66195e-05 -1.45722e-05 -1.09841e-19
3.21103e-05 -1.11762e-05 -1.08474e-19
3.20079e-05 1.06309e-05 1.12357e-19
3.69604e-05 -1.99235e-05 -8.19358e-20
3.7806e-05 1.96941e-05 3.28469e-20
8.68878e-05 0.00010691 1.48482e-20
0.000107424 8.69732e-05 4.96864e-20
-2.20822e-05 -5.16465e-06 -1.14079e-19
-2.34751e-05 5.74433e-06 -4.08163e-20
-9.08577e-06 -5.43867e-05 -3.43962e-20
9.3207e-06 5.44922e-05 -5.57409e-20
-2.45101e-05 3.57295e-05 1.60345e-19
-2.64285e-05 -1.90971e-05 -8.53003e-20
2.49008e-05 -3.17073e-05 -2.65921e-19
2.33774e-05 2.52291e-05 -8.74612e-21
3.15762e-05 1.00077e-05 -9.46767e-20
2.84068e-05 -2.02485e-05 -1.60921e-19
-3.97218e-06 -3.71003e-05 -1.79896e-19
3.42748e-05 6.64807e-06 -1.59752e-19
-4.32185e-05 -6.8386e-06 5.31808e-20
-6.29995e-06 3.50211e-05 -1.65928e-20
5.75338e-05 2.16059e-05 -2.25691e-20
4.52553e-05 -2.71328e-05 -1.31514e-19
-2.7779e-05 -1.78406e-05 -1.44951e-19
-2.89237e-05 1.45873e-05 1.1766e-19
5.46675e-07 3.30375e-05 1.7393e-19
4.86083e-06 -3.39505e-05 -1.34478e-19
9.03193e-06 -3.63879e-05 -2.01377e-19
3.47539e-06 3.16641e-05 8.73232e-21
2.87074e-05 3.38174e-06 -1.09373e-19
1.67605e-05 -1.98144e-05 -1.97012e-19
-3.88295e-06 -1.88747e-05 -1.20206e-19
-6.02504e-06 1.81989e-05 1.58621e-19
-4.92421e-05 3.33943e-05 9.64181e-21
-4.28868e-05 -2.55535e-05 -8.1373e-20
8.17128e-05 -4.13728e-05 -1.65686e-19
4.47013e-05 6.29114e-05 -9.90577e-20
5.75338e-05 2.16059e-05 2.41067e-20
4.52553e-05 -2.71328e-05 -7.39244e-20
2.64473e-05 1.37054e-05 -2.98371e-20
2.63625e-05 -2.29766e-05 -1.56796e-19
-2.23343e-05 1.05128e-05 4.16308e-21
-2.19735e-05 -1.14797e-05 -8.5552e-20
3.11608e-05 1.31331e-05 -4.9083e-20
3.11422e-05 -1.86427e-05 -2.36439e-19
1.38004e-05 -4.73934e-05 -4.60651e-20
9.27698e-06 5.39371e-05 2.48009e-19
-2.17514e-05 5.08774e-06 1.50822e-19
-2.15613e-05 -6.82947e-06 -1.02705e-19
6.30448e-07 -7.83523e-05 -1.26523e-19
7.67326e-06 7.54853e-05 -9.68285e-20
7.80722e-05 -1.35873e-06 -9.21958e-20
-7.49812e-05 -1.1095e-05 3.71595e-20
3.62486e-05 3.38072e-05 -4.59483e-20
2.96359e-05 -3.54179e-05 -1.31177e-19
-2.81276e-05 1.63457e-05 7.64809e-20
-3.60506e-05 -6.59947e-06 -8.13432e-20
-3.75163e-05 4.8544e-06 1.27107e-19
-2.85712e-05 -1.84193e-05 -1.64383e-20
2.70827e-05 -4.2613e-05 -2.2713e-19
2.55531e-05 3.76858e-05 -4.02455e-20
3.84433e-05 -2.41279e-05 -1.69558e-19
-2.45101e-05 3.57295e-05 1.00496e-19
-4.48771e-06 -3.57631e-05 -1.1058e-19
3.80881e-05 1.85471e-05 -9.06681e-20
-2.58633e-05 2.10233e-05 -3.40865e-22
-9.7071e-06 -2.59774e-05 -1.44715e-19
-6.63994e-06 7.01739e-05 9.98819e-20
2.80398e-06 -5.86114e-05 -5.44964e-20
5.01805e-05 5.00474e-05 -1.6133e-20
4.16839e-05 -4.77494e-05 -1.22566e-19
3.12179e-06 -1.1787e-05 -1.48638e-19
-4.64796e-06 4.00919e-05 5.24178e-20
-2.77926e-06 -3.83531e-05 -6.43384e-20
9.96643e-06 -2.30632e-05 -1.17701e-19
7.91549e-06 2.26537e-05 2.91563e-19
1.03343e-06 -3.18962e-05 -1.87407e-19
-1.8986e-06 3.09596e-05 1.06108e-19
-4.28868e-05 -2.55535e-05 6.36588e-20
9.03193e-06 -3.63879e-05 -1.67921e-19
3.47539e-06 3.16641e-05 9.21971e-21
-4.92421e-05 3.33943e-05 8.0095e-20
4.40649e-06 8.84471e-06 -6.0205e-20
1.20866e-05 -1.97416e-05 -1.61286e-19
-2.77926e-06 -3.83531e-05 -1.04617e-19
-2.23343e-05 1.05128e-05 1.55644e-20
5.69924e-05 2.17745e-05 3.63215e-21
4.35735e-05 -2.76566e-05 -1.56027e-19
3.80881e-05 1.85471e-05 -1.11521e-19
2.45483e-05 2.65009e-05 -1.14721e-19
2.16089e-05 -3.04209e-05 -2.3545e-19
7.45827e-05 2.39267e-05 -1.45678e-20
5.75338e-05 2.16059e-05 3.61038e-21
5.44251e-05 -2.14159e-05 -3.61897e-20
4.52553e-05 -2.71328e-05 -1.38172e-19
-3.88295e-06 -1.88747e-05 -1.36315e-19
-6.02504e-06 1.81989e-05 1.6856e-19
2.64473e-05 1.37054e-05 -5.79183e-20
2.63625e-05 -2.29766e-05 -2.15491e-19
3.65312e-05 6.83602e-05 1.43435e-19
3.55939e-05 -5.93185e-05 -3.1519e-20
3.84433e-05 -2.41279e-05 -1.49728e-19
2.87074e-05 3.38174e-06 -1.51436e-19
-2.30415e-05 6.47847e-06 -5.45639e-20
-7.51746e-05 -2.00745e-06 -5.86675e-20
-7.74287e-05 1.14788e-06 9.31449e-20
-5.77524e-06 1.97704e-05 1.17874e-19
-3.39162e-06 -2.13316e-05 -1.43064e-19
-2.85712e-05 -1.84193e-05 -9.77577e-20
1.77468e-05 1.70686e-05 -3.14421e-20
2.04441e-05 -2.52633e-05 -2.26892e-19
6.30448e-07 -7.83523e-05 -4.46682e-20
7.67326e-06 7.54853e-05 -9.004e-20
-7.49812e-05 -1.1095e-05 -6.17213e-22
7.80722e-05 -1.35873e-06 -4.0087e-20
-2.72274e-05 1.60342e-05 1.19972e-19
5.22212e-06 2.16135e-05 -5.95095e-20
4.5024e-06 -2.40574e-05 -1.38239e-19
-0.000108985 8.79455e-05 -1.10467e-20
-4.765e-06 -7.27368e-05 -6.93733e-20
7.27102e-05 3.61991e-06 6.85784e-21
-6.02504e-06 1.81989e-05 2.85819e-19
-3.88295e-06 -1.88747e-05 -1.23404e-19
-1.8986e-06 3.09596e-05 6.77305e-20
1.03343e-06 -3.18962e-05 -1.74674e-19
-2.30415e-05 6.47847e-06 -2.96635e-21
9.03193e-06 -3.63879e-05 -2.00354e-19
3.47539e-06 3.16641e-05 2.07994e-20
-4.28868e-05 -2.55535e-05 -2.48537e-20
3.62486e-05 3.38072e-05 -8.77851e-20
2.96359e-05 -3.54179e-05 -1.83048e-19
2.3606e-05 -1.06301e-05 -3.80878e-20
2.3559e-05 -8.05235e-06 -1.61906e-19
-2.85712e-05 -1.84193e-05 -1.317e-19
-2.15613e-05 -6.82947e-06 -1.01552e-19
-2.17514e-05 5.08774e-06 1.70652e-19
-2.23343e-05 1.05128e-05 4.07213e-20
0.000109998 -8.70541e-05 -1.34844e-19
6.30448e-07 -7.83523e-05 -1.85664e-19
1.77267e-06 6.84485e-05 -1.36934e-19
7.80722e-05 -1.35873e-06 -1.71566e-19
2.70827e-05 -4.2613e-05 -2.36891e-19
2.55531e-05 3.76858e-05 -6.54024e-20
2.64473e-05 1.37054e-05 -2.17169e-20
2.63625e-05 -2.29766e-05 -2.24895e-19
-4.92421e-05 3.33943e-05 1.22907e-19
3.15762e-05 1.00077e-05 -9.80214e-21
2.84068e-05 -2.02485e-05 -1.88741e-19
3.84433e-05 -2.41279e-05 -2.074e-19
3.80881e-05 1.85471e-05 -7.69604e-20
-8.81019e-05 0.000108004 -5.70505e-20
-0.000108985 8.79455e-05 -5.85188e-20
-2.15613e-05 -6.82947e-06 -1.12645e-19
-2.17514e-05 5.08774e-06 1.68655e-19
1.38004e-05 -4.73934e-05 -5.15699e-20
9.27698e-06 5.39371e-05 7.09486e-20
3.25714e-06 -3.13848e-07 7.66471e-20
3.97335e-06 -6.4405e-07 3.65263e-20
1.51887e-06 -3.79925e-07 1.23783e-20
3.96377e-06 6.41875e-07 6.67398e-20
5.69438e-06 -8.44591e-07 5.21603e-20
5.70392e-06 8.39705e-07 1.22213e-19
4.39215e-06 -1.35333e-06 3.35658e-21
3.23442e-06 -3.97159e-07 3.33089e-20
2.85218e-06 -3.42228e-07 7.90984e-20
5.43966e-06 7.11971e-07 3.5825e-20
9.8793e-06 -3.16525e-06 8.12206e-20
9.88591e-06 3.16563e-06 5.64163e-20
-1.73925e-06 -3.25505e-06 8.05855e-21
-2.12777e-06 -9.6339e-07 -1.19779e-20
5.5804e-06 3.61531e-06 6.29712e-20
6.12448e-06 -3.26291e-06 -3.15855e-21
7.22964e-06 5.85528e-07 -6.567e-20
4.11213e-06 1.24931e-06 -5.29509e-20
3.29929e-06 -4.32441e-07 -8.52788e-21
2.39873e-06 1.81316e-06 -7.28031e-20
6.95556e-06 -5.26443e-06 5.52355e-20
2.85447e-06 -1.47563e-06 8.04635e-20
3.30949e-06 -3.62037e-07 8.15195e-20
3.84877e-06 1.20698e-07 -4.46088e-20
3.41338e-06 1.88037e-07 4.53951e-21
4.0643e-06 1.29244e-07 6.86719e-20
9.8793e-06 -3.16525e-06 4.25344e-20
9.88591e-06 3.16563e-06 7.4963e-20
4.3565e-06 -3.12016e-07 7.38257e-20
4.35572e-06 3.00632e-07 4.58273e-20
2.56403e-06 3.672e-06 -4.94753e-20
2.80191e-06 -3.1252e-06 -4.94781e-21
3.91249e-06 -8.34328e-07 -8.47268e-21
3.90966e-06 8.21663e-07 6.34703e-20
1.22673e-05 1.64779e-05 4.87559e-20
3.93396e-06 -1.56242e-05 -1.46708e-20
-1.022e-06 -8.05449e-06 -2.27968e-20
-1.08256e-06 7.87679e-06 5.6274e-21
4.24036e-06 -9.66287e-08 -9.69914e-21
4.1899e-06 1.34285e-08 5.22771e-20
3.52943e-06 -9.27306e-09 4.44129e-20
3.22847e-06 -3.97325e-09 7.05939e-20
6.10438e-06 -5.19909e-06 -2.39772e-21
6.10616e-06 5.21127e-06 1.72427e-20
1.25229e-06 4.67409e-07 2.12491e-20
-1.22715e-05 -8.22094e-06 8.53642e-21
-1.22267e-05 8.21723e-06 6.30116e-21
1.72033e-06 -4.08709e-07 5.16272e-20
4.1197e-06 -5.42712e-07 3.98553e-20
4.12743e-06 5.39413e-07 4.0846e-20
3.5669e-06 -5.54125e-07 3.48465e-20
3.25714e-06 -3.13848e-07 4.12421e-20
4.78047e-06 8.93066e-07 -1.58299e-20
3.56275e-06 5.62873e-07 6.93711e-20
-3.15092e-06 3.29578e-06 -1.19047e-20
2.34822e-05 3.01332e-06 -4.34795e-20
5.64409e-06 2.32344e-05 2.21687e-20
1.24498e-05 -2.43118e-05 -1.99335e-20
8.50144e-06 -8.07596e-06 -9.30521e-21
8.50695e-06 8.08048e-06 4.7916e-20
3.60993e-07 1.27525e-06 -8.47832e-20
1.15518e-05 2.2063e-05 -2.26243e-20
1.25776e-05 -2.08554e-05 -1.77381e-20
1.34812e-05 -3.17908e-06 4.17773e-20
1.45198e-06 -2.04107e-06 5.23068e-20
7.45672e-06 -1.14938e-06 8.25777e-20
4.30724e-06 -1.26106e-06 -4.24644e-21
3.41338e-06 1.88037e-07 7.84523e-20
7.22964e-06 5.85528e-07 -4.61007e-20
4.11213e-06 1.24931e-06 6.83034e-20
1.26295e-06 7.02804e-06 -7.07702e-20
3.30949e-06 -3.62037e-07 1.02956e-19
2.28455e-06 1.86457e-07 -5.30916e-20
1.25776e-05 -2.08554e-05 -2.4705e-20
2.56403e-06 3.672e-06 -5.36007e-20
1.00053e-05 -3.12602e-06 6.48773e-20
1.00125e-05 3.12622e-06 1.07158e-19
3.56275e-06 5.62873e-07 9.63129e-22
3.80009e-06 -3.76056e-06 -3.64552e-20
3.78464e-06 3.76387e-06 7.01559e-20
1.30195e-05 -3.97018e-06 4.18057e-21
9.8793e-06 -3.16525e-06 3.05501e-20
1.30292e-05 3.97254e-06 2.13999e-20
9.88591e-06 3.16563e-06 4.75475e-20
6.95556e-06 -5.26443e-06 -4.79595e-20
4.3565e-06 -3.12016e-07 1.9874e-20
4.35572e-06 3.00632e-07 1.27908e-19
2.96568e-05 2.73321e-05 4.37152e-20
-7.22603e-06 -2.11784e-05 -3.36455e-20
1.65189e-06 1.68935e-07 5.04836e-20
3.5669e-06 -5.54125e-07 -9.87968e-21
3.29929e-06 -4.32441e-07 -7.67703e-20
6.12575e-06 2.28676e-06 -6.67717e-20
1.26295e-06 7.02804e-06 -1.72231e-20
-4.3749e-05 6.75236e-06 -1.3918e-20
-4.37197e-05 -6.89106e-06 -2.33973e-20
7.07447e-06 -4.51633e-06 2.42235e-20
1.72033e-06 -4.08709e-07 3.29021e-20
3.86041e-06 4.92079e-07 1.5515e-20
4.24036e-06 -9.66287e-08 -5.65533e-20
4.1899e-06 1.34285e-08 1.31516e-19
3.22847e-06 -3.97325e-09 4.52586e-20
3.52943e-06 -9.27306e-09 -1.54832e-20
3.86465e-06 -4.99815e-07 3.24169e-20
-3.8391e-06 -2.42312e-06 -1.15543e-20
7.85002e-07 -3.20859e-06 7.35878e-20
7.85542e-07 3.15681e-06 -7.76537e-20
3.12651e-06 1.15202e-06 9.26952e-20
7.22964e-06 5.85528e-07 -3.06218e-20
4.16957e-06 -2.24524e-08 -2.09401e-20
3.52393e-06 -4.10928e-09 1.00215e-19
6.95556e-06 -5.26443e-06 -1.81899e-20
7.45672e-06 -1.14938e-06 6.65635e-20
6.12575e-06 2.28676e-06 -5.05664e-21
4.11213e-06 1.24931e-06 3.23632e-20
3.41338e-06 1.88037e-07 8.53428e-21
6.10438e-06 -5.19909e-06 3.27461e-20
6.10616e-06 5.21127e-06 7.04808e-20
4.84699e-06 2.43219e-06 1.09302e-19
4.81346e-06 -2.42998e-06 8.49616e-20
4.30724e-06 -1.26106e-06 5.69812e-20
1.72033e-06 -4.08709e-07 4.28891e-20
1.65189e-06 1.68935e-07 1.38247e-19
-1.022e-06 -8.05449e-06 -3.49118e-20
-1.08256e-06 7.87679e-06 2.81211e-20
2.56403e-06 3.672e-06 -3.47928e-20
3.24906e-06 1.09149e-06 -3.01482e-20
4.26527e-06 1.0332e-07 3.45528e-20
4.24036e-06 -9.66287e-08 1.25683e-20
3.52943e-06 -9.27306e-09 -4.79638e-20
4.1197e-06 -5.42712e-07 4.44681e-20
4.12743e-06 5.39413e-07 8.48586e-20
4.35572e-06 3.00632e-07 1.09361e-19
3.30949e-06 -3.62037e-07 8.48485e-20
4.3565e-06 -3.12016e-07 4.20587e-20
5.69438e-06 -8.44591e-07 4.91403e-20
5.70392e-06 8.39705e-07 9.40841e-20
3.5669e-06 -5.54125e-07 2.65001e-20
3.56275e-06 5.62873e-07 8.06419e-20
4.49207e-06 6.58615e-08 9.92735e-20
3.12651e-06 1.15202e-06 1.57624e-20
-1.08256e-06 7.87679e-06 4.47421e-21
-1.022e-06 -8.05449e-06 -4.70617e-20
1.22673e-05 1.64779e-05 4.68063e-20
3.93396e-06 -1.56242e-05 -1.69772e-20
-2.32203e-05 3.77243e-05 -7.15114e-20
-2.72362e-05 -1.77917e-05 -1.1249e-19
2.35751e-05 -2.49678e-05 -1.92843e-19
2.48907e-05 3.1594e-05 -3.63798e-21
2.83355e-05 2.02662e-05 8.98297e-20
3.15433e-05 -1.00561e-05 -5.45538e-20
6.56082e-06 -3.54217e-05 -2.64265e-19
3.42574e-05 1.15763e-05 -2.34823e-20
-4.3786e-05 -5.80431e-06 -1.38834e-19
-3.80413e-06 3.71488e-05 -1.61925e-20
4.51574e-05 2.71116e-05 1.07055e-19
5.75326e-05 -2.16391e-05 1.80752e-20
-2.86492e-05 -1.6959e-05 -1.77381e-20
-2.79981e-05 1.53646e-05 2.6532e-20
5.01187e-06 3.40036e-05 2.61911e-20
-4.18538e-07 -3.3042e-05 -8.70221e-20
-3.53496e-06 -3.26172e-05 -5.39989e-20
9.15378e-06 3.63496e-05 -4.91584e-20
2.81455e-05 7.99072e-06 1.32756e-19
1.78486e-05 -1.51392e-05 -1.01755e-19
-4.25753e-06 1.8621e-05 -3.5508e-20
5.98534e-06 -1.8014e-05 -2.03824e-19
-4.87739e-05 3.5312e-05 -8.68082e-20
-4.34378e-05 -2.37067e-05 -1.35566e-19
8.04893e-05 -3.72082e-05 -1.52094e-19
4.6205e-05 6.70993e-05 7.54249e-21
4.51574e-05 2.71116e-05 5.21284e-20
5.75326e-05 -2.16391e-05 -2.39877e-20
2.6311e-05 2.29583e-05 -1.96182e-21
2.65288e-05 -1.38166e-05 -2.56957e-19
-2.1804e-05 1.12136e-05 -4.8011e-20
-2.26707e-05 -1.04516e-05 -1.11551e-19
3.11961e-05 1.86449e-05 5.31431e-20
3.1169e-05 -1.31335e-05 -1.83807e-19
1.38277e-05 4.74376e-05 1.6698e-20
-9.15725e-06 -5.37948e-05 -1.5329e-19
-2.04668e-05 5.87333e-06 -1.01292e-20
-2.21496e-05 -5.32935e-06 -9.26872e-20
-9.61306e-07 -7.43062e-05 -2.60189e-19
8.72761e-06 7.89902e-05 -6.85936e-20
7.77366e-05 3.04879e-06 -7.81135e-20
-7.49127e-05 -9.18016e-06 -5.75785e-20
2.95942e-05 3.53088e-05 1.90485e-19
3.6235e-05 -3.39199e-05 5.12407e-21
-2.7544e-05 1.74457e-05 -4.88393e-20
-3.73922e-05 -4.86365e-06 -5.38089e-20
-3.62694e-05 5.63956e-06 -1.57189e-20
-2.93024e-05 -1.74965e-05 -1.0431e-19
2.52553e-05 -3.71711e-05 -2.39685e-19
2.7404e-05 4.24481e-05 -3.48422e-20
3.82682e-05 -1.84569e-05 -1.07705e-19
-2.32203e-05 3.77243e-05 -1.02256e-19
-7.06595e-06 -3.35435e-05 -2.28416e-19
3.82374e-05 2.41478e-05 -6.52994e-20
-9.65131e-06 2.59811e-05 5.19265e-22
2.59987e-05 -2.11208e-05 2.02823e-20
6.82138e-06 -7.00952e-05 -1.50053e-19
2.85088e-06 5.86355e-05 6.07126e-21
4.16003e-05 4.7673e-05 1.28776e-19
5.01902e-05 -5.00824e-05 -8.71055e-21
3.17174e-06 -8.16362e-06 9.63985e-20
-4.35826e-06 4.01433e-05 1.35336e-20
-3.06879e-06 -3.82586e-05 -1.90479e-20
9.96873e-06 2.31669e-05 -3.57055e-21
-7.35446e-06 -2.33922e-05 -1.63858e-19
1.15811e-06 3.25695e-05 -6.25336e-21
2.04093e-06 -3.05104e-05 -1.44869e-19
-4.34378e-05 -2.37067e-05 -1.41689e-19
-3.53496e-06 -3.26172e-05 -4.14444e-20
9.15378e-06 3.63496e-05 -1.95194e-20
-2.0034e-05 -1.3606e-05 -1.66958e-20
-4.87739e-05 3.5312e-05 -1.10942e-19
1.2353e-05 1.96846e-05 -3.83851e-20
-3.06879e-06 -3.82586e-05 -3.52404e-20
-2.1804e-05 1.12136e-05 1.18372e-20
4.34644e-05 2.7639e-05 9.30244e-20
5.69815e-05 -2.18107e-05 -1.38879e-19
3.82374e-05 2.41478e-05 4.46842e-20
2.16934e-05 3.03755e-05 1.11892e-19
2.4432e-05 -2.65717e-05 -5.09179e-20
5.42896e-05 2.1378e-05 4.58432e-20
4.51574e-05 2.71116e-05 5.84296e-20
7.45714e-05 -2.39372e-05 -5.14032e-20
5.75326e-05 -2.16391e-05 -2.03497e-20
-4.25753e-06 1.8621e-05 -1.69613e-20
2.6311e-05 2.29583e-05 7.58151e-20
2.65288e-05 -1.38166e-05 -1.37926e-19
3.55943e-05 5.93465e-05 1.84416e-20
-3.6476e-05 -6.82524e-05 3.10041e-20
-2.62618e-06 -6.23749e-06 -2.67473e-19
3.82682e-05 -1.84569e-05 -9.90972e-20
2.81455e-05 7.99072e-06 9.42487e-20
-2.30162e-05 7.16563e-06 -1.05723e-19
-2.0034e-05 -1.3606e-05 -1.2486e-19
-7.73892e-05 -1.3734e-06 -2.73305e-20
-7.52755e-05 1.77402e-06 -2.12178e-20
-3.90534e-06 2.08364e-05 -1.98305e-20
-2.93024e-05 -1.74965e-05 -6.24737e-20
2.04858e-05 2.52102e-05 -3.81117e-20
-9.61306e-07 -7.43062e-05 -1.25762e-19
8.72761e-06 7.89902e-05 -8.20576e-20
-7.49127e-05 -9.18016e-06 -5.10575e-20
7.77366e-05 3.04879e-06 -7.6782e-20
1.77094e-05 -1.71838e-05 -2.658e-19
-2.60471e-05 1.70288e-05 -1.197e-20
4.5383e-06 2.45557e-05 1.93768e-19
5.19093e-06 -2.10711e-05 -3.2522e-20
-0.000109006 8.97504e-05 8.75117e-21
-3.53496e-06 -3.26172e-05 -1.28934e-19
-5.67569e-06 -6.93666e-05 -1.20474e-19
7.30597e-05 7.39158e-06 3.8602e-20
-4.25753e-06 1.8621e-05 -1.76271e-20
1.15811e-06 3.25695e-05 -5.24417e-20
-2.30162e-05 7.16563e-06 -1.08696e-19
9.15378e-06 3.63496e-05 -4.28572e-20
-4.34378e-05 -2.37067e-05 -1.23677e-19
2.95942e-05 3.53088e-05 1.08582e-19
3.6235e-05 -3.39199e-05 -2.99241e-20
2.3461e-05 8.09038e-06 -5.58173e-21
2.38908e-05 1.0648e-05 -2.18812e-19
2.04093e-06 -3.05104e-05 -2.19269e-19
-2.93024e-05 -1.74965e-05 -7.48977e-20
-2.62618e-06 -6.23749e-06 -1.52698e-19
-2.04668e-05 5.87333e-06 -2.13999e-20
-2.21496e-05 -5.32935e-06 -6.57592e-20
-2.1804e-05 1.12136e-05 2.12429e-21
0.000109613 -8.42541e-05 -1.16114e-19
-9.61306e-07 -7.43062e-05 -2.54488e-19
3.38814e-06 7.26228e-05 -1.78312e-20
7.77366e-05 3.04879e-06 -7.76022e-20
2.52553e-05 -3.71711e-05 -2.23492e-19
2.7404e-05 4.24481e-05 -2.44157e-20
2.6311e-05 2.29583e-05 7.35932e-21
-4.87739e-05 3.5312e-05 -8.3527e-20
2.65288e-05 -1.38166e-05 -1.88501e-19
2.83355e-05 2.02662e-05 5.01687e-20
3.15433e-05 -1.00561e-05 -1.29668e-19
3.82682e-05 -1.84569e-05 -1.82949e-19
3.82374e-05 2.41478e-05 -2.30055e-21
-8.95976e-05 0.000111977 -1.11708e-19
-0.000109006 8.97504e-05 -4.39103e-20
-2.21496e-05 -5.32935e-06 -6.95278e-20
-2.04668e-05 5.87333e-06 -1.39456e-20
-9.15725e-06 -5.37948e-05 -1.38565e-22
1.38277e-05 4.74376e-05 4.21638e-20

CELL_DATA 2380
TENSORS stress float
0.00553659 0.63916 6.38392e-12
0.63916 0.87898 -5.10725e-12
6.38392e-12 -5.10725e-12 0.0252878

-0.282424 0.42615 2.41389e-11
0.42615 0.43167 -1.02144e-11
2.41389e-11 -1.02144e-11 -0.119046

-0.293629 0.342778 -1.23225e-11
0.342778 0.392328 -1.70563e-11
-1.23225e-11 -1.70563e-11 -0.12159

0.825441 0.185391 9.63651e-12
0.185391 -0.710888 1.47949e-11
9.63651e-12 1.47949e-11 -0.0917293

1.10474 0.0733605 2.09113e-11
0.0733605 -0.345971 2.01987e-11
2.09113e-11 2.01987e-11 0.00336515

-0.948437 0.403921 2.08866e-11
0.403921 -0.221402 -7.90157e-12
2.08866e-11 -7.90157e-12 -0.492417

-0.965464 0.374946 4.66165e-12
0.374946 -0.229656 2.00435e-11
4.66165e-12 2.00435e-11 -0.490121

1.1362 -0.0929137 2.93915e-11
-0.0929137 -0.30011 -2.28999e-11
2.93915e-11 -2.28999e-11 0.0214658

0.750829 0.016914 2.03329e-11
0.016914 -1.10598 -1.70079e-11
2.03329e-11 -1.70079e-11 -0.15357

0.310119 0.619658 -2.7392e-11
0.619658 1.2658 -5.83063e-12
-2.7392e-11 -5.83063e-12 0.0806214

0.392123 -0.662662 -1.21662e-11
-0.662662 1.33138 -9.62748e-14
-1.21662e-11 -9.62748e-14 0.105558

1.1826 0.640205 -5.39657e-11
0.640205 0.49977 -3.51498e-11
-5.39657e-11 -3.51498e-11 0.0914864

-0.536614 -0.529418 2.02843e-11
-0.529418 -0.0849951 -1.63819e-11
2.02843e-11 -1.63819e-11 -0.385131

-0.547233 -0.598086 2.94867e-11
-0.598086 -0.0349341 -3.08382e-12
2.94867e-11 -3.08382e-12 -0.390312

-0.460904 0.605489 9.7089e-12
0.605489 0.569495 4.12442e-11
9.7089e-12 4.12442e-11 -0.0958532

-0.662206 0.726288 -1.16118e-11
0.726288 0.358439 1.54171e-12
-1.16118e-11 1.54171e-12 -0.146318

-0.978428 -0.276858 -1.95134e-11
-0.276858 -0.250594 1.47437e-11
-1.95134e-11 1.47437e-11 -0.503572

-0.974896 -0.298511 -3.32448e-12
-0.298511 -0.245297 3.75824e-12
-3.32448e-12 3.75824e-12 -0.507137

0.564576 0.273371 -8.96194e-12
0.273371 -0.349945 -2.72751e-11
-8.96194e-12 -2.72751e-11 -0.0672615

0.270272 0.239948 -2.99212e-11
0.239948 1.54381 -1.69608e-11
-2.99212e-11 -1.69608e-11 0.147675

0.29831 -0.22955 9.87932e-13
-0.22955 1.5893 4.24016e-12
9.87932e-13 4.24016e-12 0.160576

1.44932 0.196359 -3.93655e-11
0.196359 0.56078 -4.2232e-11
-3.93655e-11 -4.2232e-11 0.177906

0.0101687 0.713257 3.15594e-11
0.713257 0.69953 -5.8779e-12
3.15594e-11 -5.8779e-12 -0.0101146

0.983135 -0.363793 8.23934e-12
-0.363793 -0.187676 -1.06241e-11
8.23934e-12 -1.06241e-11 -0.0208544

0.134782 0.654258 1.18529e-11
0.654258 0.357467 -1.54183e-11
1.18529e-11 -1.54183e-11 -0.0270903

0.0145347 0.712871 -1.39241e-11
0.712871 0.904515 3.61369e-11
-1.39241e-11 3.61369e-11 0.0234994

0.868501 -0.153369 -2.51513e-11
-0.153369 -0.762557 6.33883e-12
-2.51513e-11 6.33883e-12 -0.0880156

1.11272 0.551233 2.9404e-11
0.551233 2.16141 3.55597e-11
2.9404e-11 3.55597e-11 0.405035

0.675748 0.0672984 2.17784e-11
0.0672984 -1.10913 1.14191e-11
2.17784e-11 1.14191e-11 -0.17052

1.98951 0.552264 4.53407e-11
0.552264 1.30645 -4.8301e-12
4.53407e-11 -4.8301e-12 0.40597

-0.485401 0.0873568 -3.29076e-11
0.0873568 -0.16656 1.32978e-11
-3.29076e-11 1.32978e-11 -0.490594

-0.485005 0.0305945 1.2768e-12
0.0305945 -0.179429 9.63701e-13
1.2768e-12 9.63701e-13 -0.492374

-0.942096 0.312109 3.60393e-11
0.312109 -1.52018 1.04069e-11
3.60393e-11 1.04069e-11 -1.49204

-0.946615 -0.299225 2.87159e-11
-0.299225 -1.51863 -3.20882e-11
2.87159e-11 -3.20882e-11 -1.50633

1.62084 -0.230414 -4.8858e-11
-0.230414 0.400728 1.17325e-11
-4.8858e-11 1.17325e-11 0.187466

-0.30252 0.704067 5.50236e-11
0.704067 0.232975 2.66934e-11
5.50236e-11 2.66934e-11 -0.120931

-0.299906 0.12614 -1.98506e-11
0.12614 -0.598894 1.53216e-11
-1.98506e-11 1.53216e-11 -0.526682

-0.355318 -0.114371 2.17781e-11
-0.114371 -0.636492 -3.92193e-11
2.17781e-11 -3.92193e-11 -0.564349

0.836016 0.000510985 -1.06e-11
0.000510985 -1.20449 -2.20421e-12
-1.06e-11 -2.20421e-12 -0.139665

-0.0501197 0.771315 4.86625e-12
0.771315 0.893268 -9.34728e-12
4.86625e-12 -9.34728e-12 0.0043813

0.897202 -0.470814 3.99921e-12
-0.470814 0.231989 -1.50326e-11
3.99921e-12 -1.50326e-11 0.0557346

0.881464 -0.0452149 1.25274e-11
-0.0452149 -1.2044 1.95013e-11
1.25274e-11 1.95013e-11 -0.11853

0.00974872 -0.714615 -1.10797e-12
-0.714615 0.737026 -1.40693e-11
-1.10797e-12 -1.40693e-11 -0.00851852

0.0111585 -0.613046 5.58925e-12
-0.613046 0.896323 -6.26386e-12
5.58925e-12 -6.26386e-12 0.027924

-0.597533 0.815696 2.3657e-11
0.815696 0.428725 -1.24305e-11
2.3657e-11 -1.24305e-11 -0.134921

0.730666 -0.761658 -5.49282e-11
-0.761658 0.447256 1.3395e-11
-5.49282e-11 1.3395e-11 0.0399927

1.00329 1.55579 -4.45721e-12
1.55579 2.07413 -1.83826e-11
-4.45721e-12 -1.83826e-11 0.494277

1.95297 1.5373 -1.69272e-13
1.5373 1.11634 4.02308e-12
-1.69272e-13 4.02308e-12 0.493076

-0.855613 -0.73109 -7.22616e-13
-0.73109 0.0496646 -1.35872e-11
-7.22616e-13 -1.35872e-11 -0.304747

1.44214 0.652612 -2.36344e-11
0.652612 2.75329 -1.41908e-11
-2.36344e-11 -1.41908e-11 0.653832

2.49189 0.585113 -4.3006e-12
0.585113 1.53724 -1.82378e-11
-4.3006e-12 -1.82378e-11 0.621734

-0.621736 -0.507171 6.44656e-11
-0.507171 -0.176008 2.31263e-11
6.44656e-11 2.31263e-11 -0.447702

-0.624227 0.505274 3.49793e-11
0.505274 -0.181883 1.19489e-11
3.49793e-11 1.19489e-11 -0.447686

0.627299 0.0141732 -1.08891e-11
0.0141732 -0.511135 -2.67479e-11
-1.08891e-11 -2.67479e-11 -0.0503944

-0.696002 -0.440876 2.84265e-11
-0.440876 -0.390845 3.53644e-11
2.84265e-11 3.53644e-11 -0.506574

-0.697888 0.439506 5.95514e-11
0.439506 -0.392753 6.07566e-11
5.95514e-11 6.07566e-11 -0.505613

-0.430065 0.714148 -2.26456e-11
0.714148 0.650256 -4.7315e-11
-2.26456e-11 -4.7315e-11 -0.0845775

-0.568119 0.29331 1.88868e-11
0.29331 -1.46536 -2.32231e-11
1.88868e-11 -2.32231e-11 -1.17899

-0.565557 -0.291081 5.18427e-11
-0.291081 -1.47579 2.88797e-13
5.18427e-11 2.88797e-13 -1.18803

-0.371869 -0.585954 -3.70994e-11
-0.585954 -0.0623958 1.08412e-11
-3.70994e-11 1.08412e-11 -0.237257

-0.377845 0.582364 6.2634e-12
0.582364 -0.0658103 -7.7089e-12
6.2634e-12 -7.7089e-12 -0.237127

1.28877 -0.632304 -2.06708e-11
-0.632304 0.457048 1.88398e-11
-2.06708e-11 1.88398e-11 0.108985

-1.33157 0.285482 1.19609e-11
0.285482 -0.587071 -2.46687e-11
1.19609e-11 -2.46687e-11 -1.1368

-1.33379 0.225975 -2.43672e-11
0.225975 -0.578294 -2.19706e-11
-2.43672e-11 -2.19706e-11 -1.13038

-0.0655575 -0.785951 -4.52883e-12
-0.785951 0.896281 -2.54403e-11
-4.52883e-12 -2.54403e-11 0.00178858

1.08495 -0.519837 2.66934e-11
-0.519837 2.34167 -1.74429e-11
2.66934e-11 -1.74429e-11 0.435642

2.23763 -0.515092 3.66921e-11
-0.515092 1.14948 -2.54593e-11
3.66921e-11 -2.54593e-11 0.431461

-0.623815 0.623186 -6.97429e-12
0.623186 0.456098 -2.20674e-11
-6.97429e-12 -2.20674e-11 -0.156803

-0.639706 0.579939 -9.82941e-12
0.579939 0.377059 -3.46911e-11
-9.82941e-12 -3.46911e-11 -0.163773

-1.43763 -0.864074 3.37258e-11
-0.864074 -2.02648 -7.03464e-12
3.37258e-11 -7.03464e-12 -1.85693

-1.43788 0.863821 -6.09008e-11
0.863821 -2.0249 2.96781e-11
-6.09008e-11 2.96781e-11 -1.85564

-0.64821 0.884363 -1.14673e-11
0.884363 0.308285 -1.57073e-11
-1.14673e-11 -1.57073e-11 -0.135323

0.0568299 0.429388 -2.09106e-11
0.429388 -0.296098 2.12477e-11
-2.09106e-11 2.12477e-11 -0.16106

0.07522 -0.436955 6.74546e-12
-0.436955 -0.298279 -9.87717e-12
6.74546e-12 -9.87717e-12 -0.16115

-0.65147 0.8439 -3.35348e-11
0.8439 0.132266 -5.11692e-11
-3.35348e-11 -5.11692e-11 -0.192866

-0.824889 -0.772997 2.5054e-12
-0.772997 0.11462 1.73458e-12
2.5054e-12 1.73458e-12 -0.301965

1.53259 -0.00894516 -4.97736e-11
-0.00894516 0.110864 -8.16692e-12
-4.97736e-11 -8.16692e-12 0.109542

1.22276 0.342841 9.97378e-12
0.342841 -0.0626072 1.3467e-11
9.97378e-12 1.3467e-11 0.047126

-0.179313 0.137659 -1.75381e-11
0.137659 -1.11475 -6.07076e-12
-1.75381e-11 -6.07076e-12 -0.525912

-1.77254 -0.215325 -4.37476e-11
-0.215325 -1.88262 -4.49046e-11
-4.37476e-11 -4.49046e-11 -1.98449

-1.76022 0.185052 -2.50522e-12
0.185052 -1.85519 2.82337e-11
-2.50522e-12 2.82337e-11 -1.96554

0.803972 0.635539 2.40922e-12
0.635539 1.12547 -8.33548e-12
2.40922e-12 -8.33548e-12 0.168304

0.228323 -0.554386 1.92729e-11
-0.554386 -0.0440339 -2.74668e-12
1.92729e-11 -2.74668e-12 -0.102114

0.589837 0.330574 -1.53218e-11
0.330574 -0.122341 1.99955e-12
-1.53218e-11 1.99955e-12 -0.0231816

-1.58761 0.183879 -3.46492e-11
0.183879 -1.07258 -3.60397e-11
-3.46492e-11 -3.60397e-11 -1.4946

-1.58331 0.157231 5.89113e-11
0.157231 -1.06705 2.11976e-12
5.89113e-11 2.11976e-12 -1.49524

-0.23883 -0.100162 2.19707e-11
-0.100162 -1.12269 1.02143e-11
2.19707e-11 1.02143e-11 -0.562645

-0.323309 -0.218814 -2.30063e-11
-0.218814 0.391324 -3.68108e-11
-2.30063e-11 -3.68108e-11 -0.146066

-0.322573 -0.296489 3.72923e-11
-0.296489 0.417126 2.89087e-11
3.72923e-11 2.89087e-11 -0.145754

0.353091 -0.202582 3.25705e-11
-0.202582 -0.624838 2.3223e-11
3.25705e-11 2.3223e-11 -0.115613

0.348283 0.204927 1.71525e-11
0.204927 -0.641457 -1.15392e-11
1.71525e-11 -1.15392e-11 -0.1168

1.03781 -0.630129 -1.32502e-11
-0.630129 1.01763 1.44866e-13
-1.32502e-11 1.44866e-13 0.180056

0.931298 0.0390051 -2.88991e-13
0.0390051 -0.0483808 -1.66437e-11
-2.88991e-13 -1.66437e-11 0.0290525

-0.0421293 -0.306524 3.27631e-12
-0.306524 -0.611685 2.45721e-12
3.27631e-12 2.45721e-12 -0.256809

-0.052281 0.303566 5.2951e-11
0.303566 -0.609832 5.91421e-11
5.2951e-11 5.91421e-11 -0.255774

0.59899 -0.343122 -6.26362e-12
-0.343122 -0.093471 -1.90798e-11
-6.26362e-12 -1.90798e-11 -0.0189061

-0.000148118 -0.715991 9.15647e-13
-0.715991 0.938842 -3.20897e-11
9.15647e-13 -3.20897e-11 0.0283242

0.377778 -0.226927 3.09324e-11
-0.226927 -0.47958 -2.3681e-11
3.09324e-11 -2.3681e-11 -0.115464

0.369841 0.229027 4.00868e-11
0.229027 -0.498087 -3.32435e-12
4.00868e-11 -3.32435e-12 -0.116941

0.663719 -0.149142 2.40937e-12
-0.149142 -0.513036 -2.16814e-12
2.40937e-12 -2.16814e-12 -0.0814273

-0.571351 1.00663 -8.96151e-12
1.00663 0.361436 2.77524e-11
-8.96151e-12 2.77524e-11 -0.130298

0.721697 0.552425 4.97726e-11
0.552425 0.475088 1.36841e-11
4.97726e-11 1.36841e-11 0.071815

-0.700677 0.85347 -3.17033e-11
0.85347 0.325376 -1.14674e-11
-3.17033e-11 -1.14674e-11 -0.14555

-0.632636 0.953393 1.61406e-11
0.953393 0.419576 -7.70888e-12
1.61406e-11 -7.70888e-12 -0.127589

0.919722 0.409614 3.20892e-11
0.409614 0.0189685 -1.43822e-11
3.20892e-11 -1.43822e-11 0.00289849

-0.0691623 -0.338142 -4.02804e-11
-0.338142 -0.568048 2.55846e-11
-4.02804e-11 2.55846e-11 -0.265089

0.705171 0.18418 3.85525e-13
0.18418 -0.384581 -8.0461e-12
3.85525e-13 -8.0461e-12 -0.0520298

0.324217 0.699958 2.36103e-12
0.699958 0.507876 -7.22829e-13
2.36103e-12 -7.22829e-13 -0.018402

0.184466 0.567667 1.39726e-11
0.567667 -0.0394052 -2.64522e-11
1.39726e-11 -2.64522e-11 -0.110048

-0.791184 0.0495526 7.39104e-11
0.0495526 0.262492 2.02364e-12
7.39104e-11 2.02364e-12 -0.256896

-0.78382 0.0779858 -2.51867e-11
0.0779858 0.264838 -2.94876e-11
-2.51867e-11 -2.94876e-11 -0.256216

1.14497 -0.712621 -1.30093e-11
-0.712621 0.577748 -8.41272e-11
-1.30093e-11 -8.41272e-11 0.102617

-0.659027 -0.85055 1.34909e-11
-0.85055 0.132275 1.5419e-12
1.34909e-11 1.5419e-12 -0.194213

0.343081 -0.835883 2.32718e-11
-0.835883 0.912902 2.68371e-11
2.32718e-11 2.68371e-11 0.0542851

0.346183 0.85618 1.68633e-11
0.85618 0.901888 -1.92248e-11
1.68633e-11 -1.92248e-11 0.0538648

0.53355 -0.309697 1.48401e-11
-0.309697 -0.23046 -1.05515e-11
1.48401e-11 -1.05515e-11 -0.0640972

0.4663 -0.0460678 7.5163e-12
-0.0460678 -1.42471 -7.22711e-12
7.5163e-12 -7.22711e-12 -0.311962

0.505794 0.05178 1.92734e-12
0.05178 -1.37677 2.15368e-11
1.92734e-12 2.15368e-11 -0.288189

-0.16177 0.455228 -1.37319e-11
0.455228 0.958959 -2.6019e-12
-1.37319e-11 -2.6019e-12 -0.0210079

0.156583 -0.688219 1.05038e-11
-0.688219 0.363263 -1.71048e-11
1.05038e-11 -1.71048e-11 -0.0260041

-0.112766 -0.0152906 1.53342e-11
-0.0152906 1.51599 -1.46959e-11
1.53342e-11 -1.46959e-11 0.0484735

-0.0951845 0.0336793 1.01908e-11
0.0336793 1.55533 -1.19495e-11
1.01908e-11 -1.19495e-11 0.060364

1.47605 -0.00544114 2.50072e-11
-0.00544114 0.119803 3.62575e-11
2.50072e-11 3.62575e-11 0.0835664

1.05159 0.66918 -2.14413e-11
0.66918 1.06556 -1.1034e-11
-2.14413e-11 -1.1034e-11 0.192045

0.530362 -0.784289 -2.91992e-11
-0.784289 0.438395 5.39163e-11
-2.91992e-11 5.39163e-11 -0.00428578

-2.21759 -0.389899 -5.98684e-11
-0.389899 -1.37639 6.74609e-12
-5.98684e-11 6.74609e-12 -2.06937

-2.20894 -0.360872 5.34304e-11
-0.360872 -1.37284 1.94649e-11
5.34304e-11 1.94649e-11 -2.06206

0.925558 -0.401166 -1.20458e-11
-0.401166 -0.0193457 -2.52947e-12
-1.20458e-11 -2.52947e-12 -0.00128325

-0.387551 0.935462 1.04554e-11
0.935462 0.636151 -1.44528e-12
1.04554e-11 -1.44528e-12 -0.0508851

0.643313 -0.0238654 -2.01402e-11
-0.0238654 -0.504725 3.03135e-11
-2.01402e-11 3.03135e-11 -0.0477496

-0.175723 -0.448065 1.45751e-11
-0.448065 0.99316 -1.05041e-11
1.45751e-11 -1.05041e-11 -0.0171424

-0.817748 0.839561 7.4681e-12
0.839561 0.173078 1.25273e-11
7.4681e-12 1.25273e-11 -0.266472

-0.882096 0.790846 4.04736e-12
0.790846 0.109111 1.92723e-12
4.04736e-12 1.92723e-12 -0.272611

-0.57056 -1.00469 8.76923e-12
-1.00469 0.356751 -2.77528e-11
8.76923e-12 -2.77528e-11 -0.133099

-0.652223 0.970072 -2.91014e-11
0.970072 0.481938 -1.6286e-11
-2.91014e-11 -1.6286e-11 -0.107202

-0.424734 0.818839 -1.82605e-11
0.818839 0.52902 1.84055e-11
-1.82605e-11 1.84055e-11 -0.0635183

0.378182 0.00194074 -8.86528e-12
0.00194074 -0.727627 -3.9493e-12
-8.86528e-12 -3.9493e-12 -0.0744672

0.584004 0.769698 1.15641e-11
0.769698 0.411814 1.12748e-11
1.15641e-11 1.12748e-11 0.000377409

-0.70155 -0.860782 2.34158e-11
-0.860782 0.318783 1.37798e-11
2.34158e-11 1.37798e-11 -0.147636

0.425162 0.673059 -7.70661e-13
0.673059 0.73213 4.96763e-11
-7.70661e-13 4.96763e-11 0.0505622

0.80988 -0.581527 1.77794e-11
-0.581527 1.21285 2.08633e-11
1.77794e-11 2.08633e-11 0.178966

-0.309023 -0.713356 -2.40945e-12
-0.713356 0.262962 2.66927e-11
-2.40945e-12 2.66927e-11 -0.117667

0.271357 -0.405638 -1.25515e-11
-0.405638 1.57875 2.69345e-11
-1.25515e-11 2.69345e-11 0.154835

0.263389 0.395385 -3.34504e-11
0.395385 1.56408 -1.93698e-11
-3.34504e-11 -1.93698e-11 0.150322

1.40324 -0.278342 4.01846e-11
-0.278342 0.577497 -1.24192e-11
4.01846e-11 -1.24192e-11 0.176843

0.440264 -0.691472 -1.92728e-11
-0.691472 0.749343 -5.3579e-11
-1.92728e-11 -5.3579e-11 0.0538161

-0.0818276 0.107234 -1.15637e-11
0.107234 0.984848 -1.63836e-12
-1.15637e-11 -1.63836e-12 0.026575

-0.0838056 -0.000717229 6.07329e-11
-0.000717229 0.971608 -1.5033e-11
6.07329e-11 -1.5033e-11 0.0243882

0.675008 -0.798169 -2.32726e-11
-0.798169 1.17724 2.7561e-11
-2.32726e-11 2.7561e-11 0.125923

0.589888 0.808077 -2.35135e-11
0.808077 1.1589 -6.79423e-12
-2.35135e-11 -6.79423e-12 0.108729

0.389715 -0.069943 -2.06216e-11
-0.069943 -0.861316 9.58783e-12
-2.06216e-11 9.58783e-12 -0.122863

0.389217 0.0734432 -1.05998e-11
0.0734432 -0.865205 -1.60441e-11
-1.05998e-11 -1.60441e-11 -0.122315

-0.388944 0.881205 -1.79233e-11
0.881205 0.564151 3.13181e-11
-1.79233e-11 3.13181e-11 -0.0615245

-0.838374 -0.80463 -2.60176e-12
-0.80463 0.175918 4.62536e-12
-2.60176e-12 4.62536e-12 -0.238023

-0.374808 0.582824 1.17566e-11
0.582824 -0.0627026 3.392e-11
1.17566e-11 3.392e-11 -0.211123

1.6463 0.644409 9.5889e-12
0.644409 0.806158 1.37562e-11
9.5889e-12 1.37562e-11 0.251033

-0.171632 0.551926 -1.96097e-11
0.551926 1.10992 2.98733e-11
-1.96097e-11 2.98733e-11 0.00398311

-0.302202 0.380454 -5.97454e-12
0.380454 -0.347529 -1.80677e-11
-5.97454e-12 -1.80677e-11 -0.321279

-0.296111 -0.38327 8.09439e-11
-0.38327 -0.342146 2.04282e-11
8.09439e-11 2.04282e-11 -0.320901

0.13008 -0.522688 -8.19058e-12
-0.522688 0.0267987 -3.21852e-11
-8.19058e-12 -3.21852e-11 -0.0969937

0.120468 0.518589 -2.10069e-11
0.518589 0.0208804 -1.49363e-11
-2.10069e-11 -1.49363e-11 -0.0979272

1.81602 0.172421 -4.10526e-11
0.172421 3.8834 -3.68372e-11
-4.10526e-11 -3.68372e-11 0.954155

3.65267 0.178499 1.11068e-11
0.178499 2.00779 -1.86591e-11
1.11068e-11 -1.86591e-11 0.946654

-0.226165 -0.523806 -1.23585e-11
-0.523806 1.1018 -3.2475e-11
-1.23585e-11 -3.2475e-11 -0.00766632

-0.882741 -0.416099 -1.27197e-11
-0.416099 -0.774201 6.84162e-11
-1.27197e-11 6.84162e-11 -0.879696

-0.884702 0.417476 -7.70948e-13
0.417476 -0.774149 5.69491e-11
-7.70948e-13 5.69491e-11 -0.87865

0.274472 0.639353 3.20891e-11
0.639353 0.303432 -7.08222e-12
3.20891e-11 -7.08222e-12 -0.0220766

1.89791 0.350947 2.43571e-11
0.350947 0.521384 -2.41397e-11
2.43571e-11 -2.41397e-11 0.244882

0.931686 -0.0662556 4.04715e-12
-0.0662556 -0.0443789 1.68177e-12
4.04715e-12 1.68177e-12 0.0292203

-0.671419 -0.462824 1.17926e-11
-0.462824 0.328525 -1.70564e-11
1.17926e-11 -1.70564e-11 -0.197754

-0.648669 -0.505765 -1.82366e-11
-0.505765 0.359882 1.43584e-11
-1.82366e-11 1.43584e-11 -0.197063

0.417466 -0.761441 -5.63763e-12
-0.761441 0.698882 2.79943e-11
-5.63763e-12 2.79943e-11 0.0308899

-0.657963 -0.974154 -1.97544e-11
-0.974154 0.485158 1.01185e-11
-1.97544e-11 1.01185e-11 -0.10982

0.286086 -0.646332 1.48403e-11
-0.646332 0.325089 -1.13229e-11
1.48403e-11 -1.13229e-11 -0.0182838

-0.751635 0.934175 -2.29827e-11
0.934175 0.318325 -2.74639e-11
-2.29827e-11 -2.74639e-11 -0.131249

-0.595048 0.676652 1.22379e-11
0.676652 -0.0568234 -1.30089e-11
1.22379e-11 -1.30089e-11 -0.401594

-0.580847 0.615409 -5.34326e-11
0.615409 -0.128529 4.14326e-12
-5.34326e-11 4.14326e-12 -0.398694

-0.408775 -0.885084 -5.15531e-12
-0.885084 0.568678 -3.42089e-11
-5.15531e-12 -3.42089e-11 -0.0654992

-0.392546 0.799327 3.97014e-11
0.799327 0.460052 -3.75768e-12
3.97014e-11 -3.75768e-12 -0.0710776

0.972996 0.551225 1.27681e-11
0.551225 0.136672 -1.3925e-11
1.27681e-11 -1.3925e-11 0.032072

-0.653278 1.02711 -1.20452e-11
1.02711 0.427221 1.03107e-11
-1.20452e-11 1.03107e-11 -0.106591

-0.477094 -0.627322 5.37196e-12
-0.627322 0.588488 1.80203e-11
5.37196e-12 1.80203e-11 -0.0958687

-0.416941 0.244183 -4.01836e-11
0.244183 0.862857 3.36314e-11
-4.01836e-11 3.36314e-11 -0.0679673

-0.16393 0.741014 2.54399e-11
0.741014 0.164699 -6.84143e-12
2.54399e-11 -6.84143e-12 -0.124834

-0.363778 0.31335 6.28758e-12
0.31335 0.868979 1.63828e-12
6.28758e-12 1.63828e-12 -0.0588172

-0.759794 -0.872306 4.33524e-13
-0.872306 0.249691 3.85449e-12
4.33524e-13 3.85449e-12 -0.226923

1.43299 -0.745208 3.59815e-11
-0.745208 1.51477 2.89343e-11
3.59815e-11 2.89343e-11 0.357312

1.47117 -0.75328 -3.8521e-13
-0.75328 1.47509 -7.50513e-12
-3.8521e-13 -7.50513e-12 0.358555

-0.160879 -0.745458 6.26355e-12
-0.745458 0.168332 -1.54201e-12
6.26355e-12 -1.54201e-12 -0.125686

0.56506 -0.280434 1.26236e-11
-0.280434 -0.34112 4.10023e-11
1.26236e-11 4.10023e-11 -0.067949

-1.12241 0.891873 5.06851e-11
0.891873 -1.53716 -7.15951e-11
5.06851e-11 -7.15951e-11 -1.53446

-1.12236 -0.891961 5.62741e-11
-0.891961 -1.53711 8.69156e-11
5.62741e-11 8.69156e-11 -1.53549

-0.418119 -0.929728 -2.12019e-12
-0.929728 0.625906 2.06218e-11
-2.12019e-12 2.06218e-11 -0.059176

-1.0657 0.193811 -2.56323e-11
0.193811 -0.893799 -2.30306e-11
-2.56323e-11 -2.30306e-11 -0.973823

-1.07632 -0.177921 -1.71522e-11
-0.177921 -0.904486 -3.84484e-11
-1.71522e-11 -3.84484e-11 -0.992479

1.00898 0.0110262 2.3802e-11
0.0110262 -0.847816 5.70194e-12
2.3802e-11 5.70194e-12 -0.0505084

-0.749579 -0.938691 2.1682e-11
-0.938691 0.337662 -2.90057e-11
2.1682e-11 -2.90057e-11 -0.128006

1.18621 0.90761 1.46237e-11
0.90761 1.26469 2.75854e-11
1.46237e-11 2.75854e-11 0.238426

1.06212 0.860183 2.9019e-11
0.860183 1.23461 6.07124e-12
2.9019e-11 6.07124e-12 0.211672

0.839364 -0.646119 1.31781e-11
-0.646119 2.02637 -9.54063e-12
1.31781e-11 -9.54063e-12 0.317324

0.845221 0.677486 -3.89011e-12
0.677486 2.02105 1.301e-11
-3.89011e-12 1.301e-11 0.320088

1.93774 -0.537404 -5.50739e-11
-0.537404 1.05141 -2.31518e-11
-5.50739e-11 -2.31518e-11 0.34084

-0.654346 -1.03159 -3.68103e-11
-1.03159 0.453083 -1.09848e-11
-3.68103e-11 -1.09848e-11 -0.103186

0.316811 0.238156 -1.30094e-11
0.238156 2.13647 4.55824e-11
-1.30094e-11 4.55824e-11 0.239829

2.00709 0.303915 -5.54105e-12
0.303915 0.560847 -5.08339e-12
-5.54105e-12 -5.08339e-12 0.262106

-0.943224 -0.319499 1.24906e-11
-0.319499 -0.421373 1.17561e-11
1.24906e-11 1.17561e-11 -0.76562

-0.932246 -0.386095 -1.60683e-11
-0.386095 -0.425142 -4.4324e-12
-1.60683e-11 -4.4324e-12 -0.77369

0.530707 0.117739 1.22384e-11
0.117739 -0.461977 -1.96579e-11
1.22384e-11 -1.96579e-11 -0.112766

0.847397 0.00754129 -3.66181e-12
0.00754129 -1.34015 2.05371e-11
-3.66181e-12 2.05371e-11 -0.1374

0.195654 -0.586544 -2.2116e-11
-0.586544 1.23992 1.00707e-11
-2.2116e-11 1.00707e-11 0.0627706

0.180462 0.573674 -1.37322e-11
0.573674 1.23341 -2.997e-11
-1.37322e-11 -2.997e-11 0.05948

0.974517 0.000415978 3.77748e-11
0.000415978 -0.905966 1.82411e-11
3.77748e-11 1.82411e-11 -0.0662293

-0.456862 -0.710363 5.54104e-12
-0.710363 0.651578 -1.64782e-11
5.54104e-12 -1.64782e-11 -0.0892347

-0.521415 -0.298974 8.6725e-12
-0.298974 -0.591989 1.62847e-11
8.6725e-12 1.62847e-11 -0.594686

-0.527437 0.298361 4.09536e-11
0.298361 -0.594507 4.9096e-11
4.09536e-11 4.9096e-11 -0.594769

-0.0773752 0.416687 1.64781e-11
0.416687 0.00127551 -1.86943e-11
1.64781e-11 -1.86943e-11 -0.15737

-0.41241 -0.795772 -3.7871e-11
-0.795772 0.462476 2.08149e-11
-3.7871e-11 2.08149e-11 -0.0764699

0.572443 0.118872 1.24311e-11
0.118872 -0.955674 3.07878e-11
1.24311e-11 3.07878e-11 -0.181691

0.852676 0.661888 -2.90068e-11
0.661888 0.729914 -2.7561e-11
-2.90068e-11 -2.7561e-11 0.0919267

-0.432558 -0.818426 4.19123e-12
-0.818426 0.518279 4.40384e-11
4.19123e-12 4.40384e-11 -0.0698071

1.62903 -1.43147 1.79378e-11
-1.43147 1.67944 -4.55954e-11
1.79378e-11 -4.55954e-11 0.554009

-0.383462 -0.196053 2.03809e-11
-0.196053 0.829925 7.90175e-12
2.03809e-11 7.90175e-12 -0.068722

-0.337507 -0.267983 -8.31135e-12
-0.267983 0.837979 -1.42621e-11
-8.31135e-12 -1.42621e-11 -0.0610065

-1.08633 -0.0637187 4.81358e-12
-0.0637187 -0.712626 -2.64032e-11
4.81358e-12 -2.64032e-11 -0.942155

-1.07764 -0.0371232 5.57551e-12
-0.0371232 -0.721358 -4.35556e-11
5.57551e-12 -4.35556e-11 -0.942208

0.177275 -0.221448 3.46909e-12
-0.221448 -0.767401 -2.01876e-11
3.46909e-12 -2.01876e-11 -0.173578

0.171279 0.221759 -1.92717e-12
0.221759 -0.769354 2.47886e-11
-1.92717e-12 2.47886e-11 -0.173026

-0.61268 -0.437337 8.57623e-12
-0.437337 -0.508292 -1.90796e-11
8.57623e-12 -1.90796e-11 -0.456943

-0.55163 0.451321 -1.57072e-11
0.451321 -0.521298 -1.02146e-11
-1.57072e-11 -1.02146e-11 -0.434628

-0.890793 -0.38867 1.48395e-11
-0.38867 -0.462384 2.65959e-11
1.48395e-11 2.65959e-11 -0.74848

-0.890652 0.404671 -1.21415e-11
0.404671 -0.457336 -2.79444e-12
-1.21415e-11 -2.79444e-12 -0.742709

-1.12433 0.604091 4.23928e-12
0.604091 -1.1775 -3.36298e-11
4.23928e-12 -3.36298e-11 -1.28262

-1.12407 -0.603183 -3.17992e-11
-0.603183 -1.1773 4.99144e-11
-3.17992e-11 4.99144e-11 -1.28373

-0.668988 -0.999894 -4.81966e-13
-0.999894 0.217042 2.80417e-11
-4.81966e-13 2.80417e-11 -0.196415

-0.66742 1.0034 1.43578e-11
1.0034 0.205559 -2.9294e-11
1.43578e-11 -2.9294e-11 -0.196298

0.327123 0.592964 3.4691e-11
0.592964 0.0467105 8.67894e-13
3.4691e-11 8.67894e-13 -0.0675277

-0.203825 -0.471164 -2.58978e-11
-0.471164 0.72565 3.25712e-11
-2.58978e-11 3.25712e-11 -0.0216322

-0.2171 -0.587121 -1.32497e-12
-0.587121 0.800686 -1.93692e-11
-1.32497e-12 -1.93692e-11 -0.0170986

1.14374 -0.59151 -1.49849e-11
-0.59151 0.975758 -3.53662e-11
-1.49849e-11 -3.53662e-11 0.195107

0.331273 -0.592007 1.62855e-11
-0.592007 0.0727523 -7.75733e-12
1.62855e-11 -7.75733e-12 -0.0643303

-0.197739 0.444531 -3.95078e-12
0.444531 0.715066 2.66929e-11
-3.95078e-12 2.66929e-11 -0.0216655

0.133286 0.832469 -2.86201e-11
0.832469 0.452165 5.87772e-12
-2.86201e-11 5.87772e-12 -0.0335001

-0.853643 -0.867265 -3.6618e-11
-0.867265 0.00944218 1.79238e-11
-3.6618e-11 1.79238e-11 -0.289553

-0.853615 0.851267 2.23567e-11
0.851267 -0.00172576 3.074e-11
2.23567e-11 3.074e-11 -0.294307

0.130322 -0.844941 -8.86528e-12
-0.844941 0.456375 -2.63071e-11
-8.86528e-12 -2.63071e-11 -0.0362653

0.451516 -0.0809112 -7.22747e-12
-0.0809112 -0.522658 2.57288e-11
-7.22747e-12 2.57288e-11 -0.157712

-2.16129 0.2414 -1.61356e-10
0.2414 -1.74976 1.63799e-11
-1.61356e-10 1.63799e-11 -2.13707

-2.14436 0.212985 -1.85373e-11
0.212985 -1.76616 5.66604e-11
-1.85373e-11 5.66604e-11 -2.13432

-0.420423 -0.745946 1.83096e-12
-0.745946 0.452651 -2.89082e-12
1.83096e-12 -2.89082e-12 -0.117419

-0.0447257 0.362095 2.35127e-11
0.362095 -0.515806 -3.08356e-12
2.35127e-11 -3.08356e-12 -0.240443

0.198664 -0.092377 2.40908e-11
-0.092377 -1.05294 -5.1746e-11
2.40908e-11 -5.1746e-11 -0.452143

1.43903 -0.798581 1.71059e-11
-0.798581 1.56059 -9.10723e-12
1.71059e-11 -9.10723e-12 0.356185

1.44557 -0.780093 5.44478e-11
-0.780093 1.55122 -1.72023e-11
5.44478e-11 -1.72023e-11 0.355477

0.107033 -0.247118 2.23561e-11
-0.247118 -0.858963 4.38422e-12
2.23561e-11 4.38422e-12 -0.269617

0.0957461 0.251269 -7.70754e-13
0.251269 -0.858738 6.26826e-11
-7.70754e-13 6.26826e-11 -0.26913

0.174479 0.0765128 9.63629e-12
0.0765128 -1.0561 -1.01209e-12
9.63629e-12 -1.01209e-12 -0.471876

-0.202291 0.582596 -1.78754e-11
0.582596 0.78396 -3.01622e-11
-1.78754e-11 -3.01622e-11 -0.01636

0.872179 0.456971 3.20897e-11
0.456971 0.378319 -5.39636e-12
3.20897e-11 -5.39636e-12 0.0769512

-0.330412 -0.66102 -6.56226e-11
-0.66102 0.136052 -8.47904e-12
-6.56226e-11 -8.47904e-12 -0.192024

-0.335297 0.655895 -3.98934e-11
0.655895 0.133146 1.56104e-11
-3.98934e-11 1.56104e-11 -0.191772

-1.76408 -0.119384 -3.0643e-11
-0.119384 -2.41053 1.44131e-12
-3.0643e-11 1.44131e-12 -2.1975

-1.74221 0.120778 1.46469e-11
0.120778 -2.31013 -8.00666e-11
1.46469e-11 -8.00666e-11 -2.1601

-0.644059 -0.854869 9.73279e-12
-0.854869 0.420501 -2.43802e-11
9.73279e-12 -2.43802e-11 -0.135582

0.618811 0.363577 1.92724e-12
0.363577 -0.110672 -3.24263e-11
1.92724e-12 -3.24263e-11 -0.0247682

-0.102986 0.248406 5.6275e-11
0.248406 -0.421273 -5.14566e-11
5.6275e-11 -5.14566e-11 -0.29246

-0.0947158 -0.249714 -1.10815e-11
-0.249714 -0.419462 -9.00962e-12
-1.10815e-11 -9.00962e-12 -0.292467

-0.435024 -0.664598 1.67673e-11
-0.664598 0.367762 -2.27419e-11
1.67673e-11 -2.27419e-11 -0.123564

-0.67192 -0.913357 -2.69813e-11
-0.913357 0.346087 -7.03439e-12
-2.69813e-11 -7.03439e-12 -0.12277

1.64436 -1.48398 3.69585e-11
-1.48398 1.72224 -1.38057e-11
3.69585e-11 -1.38057e-11 0.562353

-0.875548 0.62189 5.09752e-11
0.62189 0.00238652 -2.44758e-11
5.09752e-11 -2.44758e-11 -0.401664

-0.886511 -0.63136 -1.4069e-11
-0.63136 0.00523111 2.90053e-11
-1.4069e-11 2.90053e-11 -0.404162

-0.70198 -0.790955 -1.87856e-12
-0.790955 0.349114 -3.12219e-11
-1.87856e-12 -3.12219e-11 -0.146257

0.897541 -0.49309 -2.28389e-11
-0.49309 0.355188 4.87603e-11
-2.28389e-11 4.87603e-11 0.0783583

-0.0655551 -0.392933 -3.06434e-11
-0.392933 -0.0357173 -1.93689e-11
-3.06434e-11 -1.93689e-11 -0.171624

-0.614232 0.537189 1.91754e-11
0.537189 -0.16906 -6.86102e-11
1.91754e-11 -6.86102e-11 -0.365668

-0.63588 -0.557621 1.70567e-11
-0.557621 -0.161591 -3.89306e-11
1.70567e-11 -3.89306e-11 -0.372679

0.496301 -0.0784 -1.06964e-11
-0.0784 -1.05319 -8.96177e-12
-1.06964e-11 -8.96177e-12 -0.222248

-0.2212 0.192972 -6.9378e-12
0.192972 -0.758725 -9.65755e-14
-6.9378e-12 -9.65755e-14 -0.439551

-0.212422 -0.191053 1.05996e-11
-0.191053 -0.761001 -2.17777e-11
1.05996e-11 -2.17777e-11 -0.44021

-1.69564 0.0877274 -8.03194e-11
0.0877274 -0.730982 -4.43298e-12
-8.03194e-11 -4.43298e-12 -1.59181

-1.68871 0.0588518 -3.22478e-11
0.0588518 -0.735218 -3.52682e-11
-3.22478e-11 -3.52682e-11 -1.5924

1.69673 0.0621853 -1.85266e-11
0.0621853 3.88388 2.71041e-11
-1.85266e-11 2.71041e-11 0.933682

3.60218 0.0552835 -3.54102e-12
0.0552835 1.71682 1.00586e-11
-3.54102e-12 1.00586e-11 0.884479

-0.496625 -0.851758 8.67244e-12
-0.851758 0.419368 -5.39673e-12
8.67244e-12 -5.39673e-12 -0.129189

-0.496463 0.849368 4.4712e-11
0.849368 0.414097 -1.77302e-11
4.4712e-11 -1.77302e-11 -0.128168

-0.66054 -0.972666 1.19973e-11
-0.972666 0.463497 -3.58473e-11
1.19973e-11 -3.58473e-11 -0.114751

1.38177 -0.69742 9.56479e-12
-0.69742 2.99166 1.92983e-11
9.56479e-12 1.92983e-11 0.699182

2.83112 -0.666894 1.42144e-11
-0.666894 1.52057 2.79951e-11
1.42144e-11 2.79951e-11 0.694707

-1.891 -0.893769 -1.29139e-11
-0.893769 -1.18411 8.8267e-11
-1.29139e-11 8.8267e-11 -1.63122

-1.89164 0.893605 -1.11757e-11
0.893605 -1.18364 1.47335e-10
-1.11757e-11 1.47335e-10 -1.63034

-0.395065 -0.58806 -1.16603e-11
-0.58806 -0.0814696 3.54617e-11
-1.16603e-11 3.54617e-11 -0.219238

-3.72125e-05 -0.816419 1.77311e-11
-0.816419 0.569901 -1.49365e-11
1.77311e-11 -1.49365e-11 -0.0251385

-0.46228 -0.859689 2.6114e-11
-0.859689 0.192109 3.82557e-11
2.6114e-11 3.82557e-11 -0.17606

-0.464681 0.856342 3.11253e-11
0.856342 0.187724 1.94655e-11
3.11253e-11 1.94655e-11 -0.175673

-0.307131 -0.922872 -2.50544e-11
-0.922872 0.498702 -1.82123e-11
-2.50544e-11 -1.82123e-11 -0.0786405

0.00549312 0.81665 -4.5869e-11
0.81665 0.550654 -1.92798e-12
-4.5869e-11 -1.92798e-12 -0.0263477

0.671702 -0.264375 3.34271e-11
-0.264375 2.19558 -5.97444e-12
3.34271e-11 -5.97444e-12 0.320809

0.573764 0.320185 -4.64962e-12
0.320185 2.06996 1.26243e-11
-4.64962e-12 1.26243e-11 0.2768

2.02543 -0.201315 -6.47588e-11
-0.201315 0.936368 1.80448e-11
-6.47588e-11 1.80448e-11 0.337612

-0.29753 0.918074 -3.06433e-11
0.918074 0.496213 9.34676e-12
-3.06433e-11 9.34676e-12 -0.0760682

0.344946 -0.164678 -4.79434e-12
-0.164678 2.25981 -1.44662e-13
-4.79434e-12 -1.44662e-13 0.273208

2.13602 -0.159517 2.83084e-11
-0.159517 0.437699 -2.14779e-11
2.83084e-11 -2.14779e-11 0.272298

-0.601044 -0.841143 -3.93161e-11
-0.841143 0.068887 2.32237e-11
-3.93161e-11 2.32237e-11 -0.27027

-0.599202 0.836366 1.59958e-11
0.836366 0.0648908 -2.87158e-11
1.59958e-11 -2.87158e-11 -0.26865

-0.658841 -0.730621 -3.99902e-11
-0.730621 0.0570613 -6.16688e-12
-3.99902e-11 -6.16688e-12 -0.315276

-0.659063 0.727756 -1.30084e-11
0.727756 0.0515101 4.72174e-11
-1.30084e-11 4.72174e-11 -0.314744

1.44935 -0.701215 4.05715e-11
-0.701215 3.02355 6.25611e-13
4.05715e-11 6.25611e-13 0.728799

2.9017 -0.649004 -7.37469e-11
-0.649004 1.50948 -3.64031e-11
-7.37469e-11 -3.64031e-11 0.717999

-0.185089 0.774598 2.48619e-11
0.774598 0.393832 -1.70562e-11
2.48619e-11 -1.70562e-11 -0.0744171

-0.181193 -0.78086 2.53435e-11
-0.78086 0.405013 1.37797e-11
2.53435e-11 1.37797e-11 -0.0733626

-1.17775 -0.126729 -3.43982e-11
-0.126729 -0.880837 9.25068e-12
-3.43982e-11 9.25068e-12 -1.12364

-1.17908 -0.167189 -1.50971e-11
-0.167189 -0.868282 5.03008e-11
-1.50971e-11 5.03008e-11 -1.12384

-0.801408 -0.845743 -2.11973e-12
-0.845743 0.245124 -3.11251e-11
-2.11973e-12 -3.11251e-11 -0.282486

-0.804619 0.849685 2.01398e-11
0.849685 0.237502 1.83091e-11
2.01398e-11 1.83091e-11 -0.282636

-0.459777 -0.327168 1.74415e-11
-0.327168 -0.83107 -2.24527e-11
1.74415e-11 -2.24527e-11 -0.551269

-0.46446 0.327256 1.32978e-11
0.327256 -0.828536 -6.89466e-11
1.32978e-11 -6.89466e-11 -0.549869

-0.533891 0.699892 -3.16074e-11
0.699892 0.161419 -4.70255e-11
-3.16074e-11 -4.70255e-11 -0.19828

-0.545439 -0.697095 2.33202e-11
-0.697095 0.182631 -2.17783e-11
2.33202e-11 -2.17783e-11 -0.196368

-1.62003 -0.262364 2.14282e-11
-0.262364 -0.584321 3.77739e-11
2.14282e-11 3.77739e-11 -1.32796

-0.717961 -0.477147 9.05802e-12
-0.477147 -0.968523 1.4454e-11
9.05802e-12 1.4454e-11 -0.879008

-1.14212 -0.487562 3.70025e-11
-0.487562 -1.33926 -4.23987e-12
3.70025e-11 -4.23987e-12 -1.26187

-0.722799 0.479823 -1.32977e-11
0.479823 -0.966782 -1.66705e-11
-1.32977e-11 -1.66705e-11 -0.878161

-1.14351 0.488753 -1.40689e-11
0.488753 -1.33911 -7.42944e-11
-1.40689e-11 -7.42944e-11 -1.26097

-1.63281 -0.203706 -2.31506e-11
-0.203706 -0.562996 -3.66165e-12
-2.31506e-11 -3.66165e-12 -1.32206

-1.19014 -0.537932 6.16602e-12
-0.537932 -1.21023 9.48195e-11
6.16602e-12 9.48195e-11 -1.37202

-1.21354 0.556519 -2.64032e-11
0.556519 -1.20137 -6.5524e-12
-2.64032e-11 -6.5524e-12 -1.36741

-1.36009 -0.695208 -3.95031e-11
-0.695208 -0.974105 -1.49453e-10
-3.95031e-11 -1.49453e-10 -1.36454

0.0369255 -0.522535 1.0326e-09
-0.522535 -1.83891 4.95094e-11
1.0326e-09 4.95094e-11 -1.54774

0.0370413 0.522149 7.55856e-10
0.522149 -1.83713 -3.58634e-10
7.55856e-10 -3.58634e-10 -1.54625

-1.36199 0.695569 -1.40108e-10
0.695569 -0.975258 -2.24714e-10
-1.40108e-10 -2.24714e-10 -1.3639

-0.793971 -0.738217 3.94118e-11
-0.738217 -0.822361 -3.5658e-12
3.94118e-11 -3.5658e-12 -1.01638

-0.711516 -0.59315 1.11778e-11
-0.59315 -0.117782 -4.81819e-12
1.11778e-11 -4.81819e-12 -0.521446

-1.40644 -0.564619 1.29122e-11
-0.564619 -1.41223 -4.10497e-11
1.29122e-11 -4.10497e-11 -1.54733

-0.795341 0.738591 -3.60394e-11
0.738591 -0.825791 -5.46371e-11
-3.60394e-11 -5.46371e-11 -1.01602

-1.40691 0.565116 1.42616e-11
0.565116 -1.41165 -5.19385e-11
1.42616e-11 -5.19385e-11 -1.5461

-0.712009 0.593 7.19821e-11
0.593 -0.122283 1.49366e-11
7.19821e-11 1.49366e-11 -0.520959

-0.986582 -0.610902 1.9754e-11
-0.610902 -0.401865 3.85444e-11
1.9754e-11 3.85444e-11 -0.7191

-0.958816 -0.496557 1.85012e-11
-0.496557 -0.771331 -3.41121e-11
1.85012e-11 -3.41121e-11 -0.964822

-0.986596 0.610493 5.40582e-11
0.610493 -0.405008 -1.78263e-11
5.40582e-11 -1.78263e-11 -0.718209

-0.961312 0.495848 5.78204e-13
0.495848 -0.77455 7.03426e-12
5.78204e-13 7.03426e-12 -0.964609

-0.288969 0.402511 7.51658e-12
0.402511 0.208478 7.90175e-12
7.51658e-12 7.90175e-12 -0.0938552

-0.7976 -0.115724 -1.25271e-11
-0.115724 0.429456 -1.96581e-11
-1.25271e-11 -1.96581e-11 -0.120093

0.465232 -0.128559 -9.25092e-12
-0.128559 -0.70863 -7.51513e-12
-9.25092e-12 -7.51513e-12 -0.00506775

0.734457 0.00430547 -6.74581e-12
0.00430547 -0.38166 5.7869e-13
-6.74581e-12 5.7869e-13 0.135114

-0.959565 0.404555 3.68102e-11
0.404555 -0.368894 -1.56106e-11
3.68102e-11 -1.56106e-11 -0.479785

-1.38336 -0.175801 -3.6616e-12
-0.175801 0.277654 5.01091e-12
-3.6616e-12 5.01091e-12 -0.423958

0.697009 0.226262 8.86554e-12
0.226262 -0.414444 2.89011e-12
8.86554e-12 2.89011e-12 0.119758

0.121897 0.288557 3.85853e-13
0.288557 -1.03075 2.11999e-11
3.85853e-13 2.11999e-11 -0.175339

0.283121 0.57223 3.46951e-12
0.57223 1.08942 1.34908e-11
3.46951e-12 1.34908e-11 0.553884

0.438809 0.553867 3.2379e-11
0.553867 1.21793 3.18011e-11
3.2379e-11 3.18011e-11 0.610356

1.19097 0.497882 -2.48619e-11
0.497882 0.462221 -1.19495e-11
-2.48619e-11 -1.19495e-11 0.629834

-0.61449 0.253033 1.13701e-11
0.253033 0.045891 -2.19708e-11
1.13701e-11 -2.19708e-11 -0.345939

-0.521799 -0.490254 7.7095e-12
-0.490254 -0.250892 -3.66196e-12
7.7095e-12 -3.66196e-12 -0.379276

0.00340418 -0.61992 2.96797e-11
-0.61992 0.179302 2.38982e-11
2.96797e-11 2.38982e-11 0.0376956

-1.38102 0.211214 1.92721e-12
0.211214 0.311179 -1.54174e-12
1.92721e-12 -1.54174e-12 -0.42401

-0.967324 -0.234697 -1.36834e-11
-0.234697 -0.399428 3.85436e-12
-1.36834e-11 3.85436e-12 -0.483314

0.655909 0.158057 4.81291e-13
0.158057 -0.728801 -1.38759e-11
4.81291e-13 -1.38759e-11 -0.0193693

0.130009 0.263944 5.20362e-12
0.263944 1.24661 -1.38775e-11
5.20362e-12 -1.38775e-11 0.455798

0.311875 0.200352 3.7101e-11
0.200352 1.17338 5.41574e-11
3.7101e-11 5.41574e-11 0.455115

1.29863 0.153171 9.73257e-12
0.153171 0.345767 -2.38991e-11
9.73257e-12 -2.38991e-11 0.515634

-0.00981162 0.617644 1.28163e-11
0.617644 0.693426 -4.16295e-11
1.28163e-11 -4.16295e-11 0.159464

-0.252911 -0.369977 -4.82026e-13
-0.369977 0.664399 -6.16729e-12
-4.82026e-13 -6.16729e-12 0.155709

0.453569 0.356401 -3.77756e-11
0.356401 -0.797183 -1.11778e-11
-3.77756e-11 -1.11778e-11 -0.0272975

1.05467 0.418253 4.43211e-12
0.418253 1.66085 -1.19482e-11
4.43211e-12 -1.19482e-11 1.07762

0.269435 -0.159698 -6.97673e-11
-0.159698 -1.18119 -2.6403e-11
-6.97673e-11 -2.6403e-11 -0.153054

-0.478351 0.107987 -3.85506e-13
0.107987 -0.354634 -2.18742e-11
-3.85506e-13 -2.18742e-11 -0.488872

-0.745559 -0.0287329 -8.28722e-12
-0.0287329 0.14568 -2.31252e-12
-8.28722e-12 -2.31252e-12 -0.455147

-0.0560933 0.628449 3.46854e-12
0.628449 -1.14855 -2.42826e-11
3.46854e-12 -2.42826e-11 -1.29884

-0.182692 -0.281553 2.19708e-11
-0.281553 -1.71721 -1.90794e-11
2.19708e-11 -1.90794e-11 -1.37085

-0.139295 -0.709138 -1.92032e-13
-0.709138 0.192445 -3.8353e-11
-1.92032e-13 -3.8353e-11 0.0165449

-0.0887824 -0.597194 -2.77531e-11
-0.597194 0.632215 -5.3967e-12
-2.77531e-11 -5.3967e-12 0.151064

1.1922 -0.00693585 9.25088e-12
-0.00693585 0.122565 3.2766e-12
9.25088e-12 3.2766e-12 0.463752

-0.0263555 0.386539 -2.69806e-12
0.386539 -0.72295 -1.27194e-11
-2.69806e-12 -1.27194e-11 -0.505944

-0.0980588 -0.104269 -3.23781e-11
-0.104269 -0.795875 4.43228e-12
-3.23781e-11 4.43228e-12 -0.481897

0.0892761 -0.0625695 3.89313e-11
-0.0625695 -1.36103 -9.8286e-12
3.89313e-11 -9.8286e-12 -0.212567

-0.255475 -0.452036 -3.97015e-11
-0.452036 0.479897 -3.70039e-11
-3.97015e-11 -3.70039e-11 0.122287

0.163099 0.087994 8.96188e-12
0.087994 -1.36302 3.66164e-12
8.96188e-12 3.66164e-12 -0.181741

0.693302 -0.444617 3.35358e-11
-0.444617 0.211878 5.58865e-12
3.35358e-11 5.58865e-12 0.255287

-0.0789733 0.654108 -4.04662e-12
0.654108 0.361345 3.00654e-11
-4.04662e-12 3.00654e-11 0.125212

0.892905 0.485819 4.43283e-11
0.485819 -0.137034 -1.27203e-11
4.43283e-11 -1.27203e-11 0.252891

0.798993 -0.28076 2.85241e-11
-0.28076 -0.143538 2.58258e-11
2.85241e-11 2.58258e-11 0.228124

-0.1325 0.551632 -1.19492e-11
0.551632 0.669023 1.54173e-12
-1.19492e-11 1.54173e-12 0.172003

-1.02055 -0.411018 6.74561e-12
-0.411018 0.284879 3.85454e-11
6.74561e-12 3.85454e-11 -0.116153

-0.665133 0.735697 -3.33415e-11
0.735697 0.245271 -1.73475e-12
-3.33415e-11 -1.73475e-12 -0.121376

-0.00264054 -0.517773 -3.86288e-13
-0.517773 0.646865 3.95096e-11
-3.86288e-13 3.95096e-11 0.16464

-0.0597332 0.677612 -2.75605e-11
0.677612 0.679769 -9.05859e-12
-2.75605e-11 -9.05859e-12 0.151521

3.16135 -0.572567 7.86365e-11
-0.572567 3.25605 6.55175e-12
7.86365e-11 6.55175e-12 3.24104

3.1578 0.65708 2.73689e-11
0.65708 3.39615 4.51002e-11
2.73689e-11 4.51002e-11 3.25543

-1.22167 0.565132 -1.6189e-11
0.565132 0.0467962 1.85013e-11
-1.6189e-11 1.85013e-11 -0.321153

-0.83995 -0.661187 3.12214e-11
-0.661187 -0.0872392 2.15852e-11
3.12214e-11 2.15852e-11 -0.288119

-0.466083 0.620618 -9.25099e-12
0.620618 0.473746 8.48025e-12
-9.25099e-12 8.48025e-12 -0.00634239

1.95964 0.21118 1.56116e-11
0.21118 1.98389 1.85025e-11
1.56116e-11 1.85025e-11 2.1543

1.93243 -0.00377532 -6.7456e-12
-0.00377532 2.14721 -2.69776e-12
-6.7456e-12 -2.69776e-12 2.19675

-0.779528 -0.472706 -3.37316e-12
-0.472706 -0.578029 -3.08356e-11
-3.37316e-12 -3.08356e-11 -0.583234

-0.71972 0.228642 6.33583e-11
0.228642 -0.405128 3.52683e-11
6.33583e-11 3.52683e-11 -0.573574

0.77404 -0.0149612 -4.81861e-12
-0.0149612 -0.851782 -2.04288e-11
-4.81861e-12 -2.04288e-11 -0.0220176

-0.779815 -0.441245 -1.81632e-11
-0.441245 -0.570575 -7.24649e-11
-1.81632e-11 -7.24649e-11 -0.59808

-0.77291 0.155773 -4.55215e-12
0.155773 -0.719596 4.95303e-11
-4.55215e-12 4.95303e-11 -0.65324

-0.694509 -0.389844 -1.25276e-11
-0.389844 0.458672 8.86557e-12
-1.25276e-11 8.86557e-12 0.00066549

-0.297202 0.594998 2.92936e-11
0.594998 -0.972268 7.70652e-13
2.92936e-11 7.70652e-13 -1.06535

-0.258799 -0.490632 8.47964e-12
-0.490632 -1.52254 3.50756e-11
8.47964e-12 3.50756e-11 -1.10797

-0.419836 -0.472607 1.84526e-11
-0.472607 -0.444822 -5.05948e-12
1.84526e-11 -5.05948e-12 -0.266998

-0.403226 0.357661 -2.67403e-11
0.357661 -0.363913 -2.2597e-11
-2.67403e-11 -2.2597e-11 -0.285853

-1.28072 0.0387822 -6.16706e-12
0.0387822 0.0263463 1.31052e-11
-6.16706e-12 1.31052e-11 -1.01849

-1.3483 0.286219 -1.25269e-11
0.286219 -0.73254 1.18524e-11
-1.25269e-11 1.18524e-11 -1.16132

0.979712 0.194904 9.63658e-12
0.194904 1.60359 -2.77549e-11
9.63658e-12 -2.77549e-11 1.09583

1.57273 0.199137 5.63759e-11
0.199137 1.00297 2.27431e-11
5.63759e-11 2.27431e-11 1.09952

-0.649641 0.590295 7.32349e-12
0.590295 0.292206 -2.73674e-11
7.32349e-12 -2.73674e-11 -0.113101

-1.02405 -0.35956 5.49271e-11
-0.35956 0.368663 -3.85491e-12
5.49271e-11 -3.85491e-12 -0.124942

-1.58752 -0.776931 -7.84955e-11
-0.776931 -0.699817 -6.55229e-12
-7.84955e-11 -6.55229e-12 -1.98089

-1.50137 0.465603 -1.05081e-10
0.465603 -2.29135 9.09631e-11
-1.05081e-10 9.09631e-11 -2.27467

0.525285 0.623812 2.89098e-12
0.623812 0.155737 -6.8611e-11
2.89098e-12 -6.8611e-11 0.212906

0.117863 0.237033 -1.76345e-11
0.237033 -0.702297 1.7345e-11
-1.76345e-11 1.7345e-11 -0.174556

0.0969191 -0.313802 2.77533e-11
-0.313802 -0.704303 1.34912e-11
2.77533e-11 1.34912e-11 -0.155808

-0.104202 -0.33814 -4.62544e-11
-0.33814 -1.3141 -7.32371e-12
-4.62544e-11 -7.32371e-12 -0.487822

1.15012 0.142742 1.43578e-11
0.142742 0.0981289 -5.31936e-11
1.43578e-11 -5.31936e-11 0.45645

-0.179272 0.0454763 -6.01295e-11
0.0454763 -1.78002 -4.62606e-12
-6.01295e-11 -4.62606e-12 -1.63043

-0.261489 -0.0903009 7.40037e-11
-0.0903009 -0.671911 -4.2015e-11
7.40037e-11 -4.2015e-11 -1.49567

0.138114 0.749317 2.73674e-11
0.749317 -0.244307 -3.85997e-13
2.73674e-11 -3.85997e-13 0.00718149

0.665497 0.195781 -9.15439e-12
0.195781 -0.389969 2.38984e-11
-9.15439e-12 2.38984e-11 0.0365395

0.661726 0.609278 -3.66231e-12
0.609278 0.891664 -1.95627e-11
-3.66231e-12 -1.95627e-11 0.520542

-1.2164 -0.35014 -8.53753e-11
-0.35014 -0.115581 1.38766e-11
-8.53753e-11 1.38766e-11 -1.26632

-1.57834 0.218915 -7.20782e-11
0.218915 -1.20666 5.58905e-12
-7.20782e-11 5.58905e-12 -1.51326

-0.0207607 0.631369 5.78179e-12
0.631369 -1.04105 2.92941e-11
5.78179e-12 2.92941e-11 -0.476553

-0.315046 -0.198969 2.40868e-12
-0.198969 0.179951 8.28672e-12
2.40868e-12 8.28672e-12 -0.112306

-0.830296 0.139776 1.93688e-11
0.139776 0.439984 -1.34912e-11
1.93688e-11 -1.34912e-11 -0.145403

0.480318 -0.0966864 -2.62591e-11
-0.0966864 -1.06454 -6.16712e-12
-2.62591e-11 -6.16712e-12 -0.139795

0.551766 0.0692483 9.1061e-12
0.0692483 -1.10712 -9.82913e-12
9.1061e-12 -9.82913e-12 -0.141219

0.977567 -0.400864 -1.54184e-11
-0.400864 0.725499 -1.27198e-11
-1.54184e-11 -1.27198e-11 0.56669

0.957849 0.019369 -3.23309e-11
0.019369 -0.356771 -9.63616e-12
-3.23309e-11 -9.63616e-12 0.149312

0.0957133 0.0778426 1.0602e-12
0.0778426 -1.04174 -1.59961e-11
1.0602e-12 -1.59961e-11 -0.326598

-0.0219577 -0.172363 1.18287e-11
-0.172363 -0.924269 -1.92729e-11
1.18287e-11 -1.92729e-11 -0.310572

0.614335 -0.234541 1.28154e-11
-0.234541 -0.469016 3.89311e-11
1.28154e-11 3.89311e-11 0.0309693

0.445231 -0.109791 -1.41655e-11
-0.109791 -0.777642 2.58251e-11
-1.41655e-11 2.58251e-11 -0.118708

0.536124 0.0449258 -2.77287e-11
0.0449258 -0.778241 1.58037e-11
-2.77287e-11 1.58037e-11 -0.116057

0.415166 0.496819 -4.58697e-11
0.496819 -0.572905 1.38769e-11
-4.58697e-11 1.38769e-11 -0.0146195

0.46119 -0.658315 -1.92732e-11
-0.658315 0.391692 1.29136e-11
-1.92732e-11 1.29136e-11 0.28155

-0.677858 0.860025 3.75774e-12
0.860025 0.165966 -2.02363e-11
3.75774e-12 -2.02363e-11 -0.150632

-0.861884 -0.731416 -1.83573e-11
-0.731416 -0.186736 5.782e-12
-1.83573e-11 5.782e-12 -0.168529

-1.04382 -0.546113 2.89085e-12
-0.546113 -0.228399 2.46691e-11
2.89085e-12 2.46691e-11 -0.215367

-0.658078 0.909361 -1.89834e-11
0.909361 0.285578 2.11976e-12
-1.89834e-11 2.11976e-12 -0.118843

0.932628 0.313056 1.14673e-11
0.313056 -0.24541 -6.3601e-12
1.14673e-11 -6.3601e-12 0.202763

1.42094 -0.375456 -2.81391e-11
-0.375456 0.982442 -4.04746e-12
-2.81391e-11 -4.04746e-12 0.960103

0.0747568 0.716538 5.39695e-12
0.716538 -0.67404 1.42625e-11
5.39695e-12 1.42625e-11 -0.171032

0.458324 -0.23932 3.85416e-12
-0.23932 -0.468296 8.88481e-11
3.85416e-12 8.88481e-11 0.0255389

1.4633 -0.291964 -8.4809e-12
-0.291964 0.866922 -9.63142e-13
-8.4809e-12 -9.63142e-13 0.933191

0.154762 -0.581403 2.13931e-11
-0.581403 -0.193864 7.70597e-13
2.13931e-11 7.70597e-13 0.0132336

-1.13849 0.00390751 -3.85483e-13
0.00390751 0.564211 -2.38982e-11
-3.85483e-13 -2.38982e-11 -0.150905

-0.771459 0.0900955 1.40692e-11
0.0900955 0.0867241 1.54212e-12
1.40692e-11 1.54212e-12 -0.198086

0.296447 0.744554 2.505e-12
0.744554 0.321078 -4.54842e-11
2.505e-12 -4.54842e-11 0.225399

1.1236 -0.431391 -1.60934e-11
-0.431391 0.389239 3.85465e-11
-1.60934e-11 3.85465e-11 0.582373

-0.578831 0.795955 3.29563e-11
0.795955 -0.335526 4.00871e-11
3.29563e-11 4.00871e-11 -0.182541

-0.538393 -0.763485 -4.81795e-12
-0.763485 -0.0126115 -1.27201e-11
-4.81795e-12 -1.27201e-11 -0.141729

0.204265 -0.561082 -2.75596e-11
-0.561082 0.667392 6.43714e-11
-2.75596e-11 6.43714e-11 0.282782

0.336905 -0.619853 -3.9894e-11
-0.619853 0.664677 -1.92761e-12
-3.9894e-11 -1.92761e-12 0.290373

0.408945 0.578287 -3.46912e-11
0.578287 -0.43729 -2.64026e-11
-3.46912e-11 -2.64026e-11 -0.00237524

0.15118 0.357665 2.00438e-11
0.357665 -1.66044 2.69813e-11
2.00438e-11 2.69813e-11 -0.370442

0.177927 -0.243998 1.34909e-11
-0.243998 -1.8103 3.35342e-11
1.34909e-11 3.35342e-11 -0.359773

-0.136639 0.45941 1.08884e-11
0.45941 0.849017 -4.99176e-11
1.08884e-11 -4.99176e-11 0.185578

0.145092 0.707043 -5.39608e-12
0.707043 0.00854125 -3.50765e-11
-5.39608e-12 -3.50765e-11 0.0607952

-0.0993799 0.0665455 3.66192e-11
0.0665455 1.32081 2.00448e-11
3.66192e-11 2.00448e-11 0.481235

0.0854854 0.0361671 -1.0022e-11
0.0361671 1.28928 2.48631e-11
-1.0022e-11 2.48631e-11 0.493731

1.41296 0.029656 7.99906e-12
0.029656 0.0787983 6.93812e-12
7.99906e-12 6.93812e-12 0.549156

0.463683 -0.530359 1.44539e-12
-0.530359 0.0917629 2.69771e-12
1.44539e-12 2.69771e-12 0.21017

-2.16438 -0.369077 2.00815e-10
-0.369077 -1.48503 -1.3108e-11
2.00815e-10 -1.3108e-11 -2.08052

-0.193912 0.189833 6.16701e-11
0.189833 -0.18999 3.58461e-11
6.16701e-11 3.58461e-11 -1.48512

0.773615 0.637145 5.78263e-12
0.637145 -0.0434138 5.97468e-11
5.78263e-12 5.97468e-11 0.260596

0.907375 -0.26544 1.53225e-11
-0.26544 -0.296001 1.73455e-11
1.53225e-11 1.73455e-11 0.190205

1.35164 0.447007 -4.8954e-11
0.447007 0.69038 2.04289e-11
-4.8954e-11 2.04289e-11 0.853673

-0.780243 -0.46458 1.05968e-12
-0.46458 0.168858 1.9273e-11
1.05968e-12 1.9273e-11 -0.0646199

-0.418519 0.843793 -1.45504e-11
0.843793 0.438226 1.71528e-11
-1.45504e-11 1.71528e-11 -0.0121208

0.785625 -0.0126104 -1.19488e-11
-0.0126104 -0.84663 -1.04069e-11
-1.19488e-11 -1.04069e-11 -0.0144454

-0.417072 0.42336 -1.09856e-11
0.42336 0.796516 1.92731e-11
-1.09856e-11 1.92731e-11 0.154987

-1.4173 -0.565215 -2.49577e-11
-0.565215 0.0489843 8.86561e-12
-2.49577e-11 8.86561e-12 -0.326514

-0.874666 0.793985 -3.75822e-12
0.793985 0.029866 -8.09453e-12
-3.75822e-12 -8.09453e-12 -0.277234

0.670327 0.494869 -4.07628e-11
0.494869 0.968327 -1.25282e-11
-4.07628e-11 -1.25282e-11 0.527091

0.965766 0.521489 -1.83033e-12
0.521489 0.874587 2.42846e-11
-1.83033e-12 2.42846e-11 0.58173

1.35816 0.401305 -3.14154e-11
0.401305 0.695283 -5.66637e-11
-3.14154e-11 -5.66637e-11 0.846098

-0.730973 0.872228 1.26237e-11
0.872228 0.363942 2.81381e-11
1.26237e-11 2.81381e-11 -0.120982

-1.06215 -0.629437 -1.35867e-11
-0.629437 -0.426656 2.00438e-11
-1.35867e-11 2.00438e-11 -0.239162

0.697245 0.0248118 -2.64039e-11
0.0248118 -1.22354 5.78178e-12
-2.64039e-11 5.78178e-12 -0.113729

-0.850908 0.594826 5.20317e-12
0.594826 -0.445105 -6.32144e-11
5.20317e-12 -6.32144e-11 -0.243194

-0.65831 -0.742964 5.78181e-12
-0.742964 0.20227 -1.75382e-11
5.78181e-12 -1.75382e-11 -0.120362

-0.298972 0.718885 1.04067e-11
0.718885 -0.160887 -4.74106e-11
1.04067e-11 -4.74106e-11 -0.0801315

0.0433027 -0.155167 4.0478e-12
-0.155167 1.16709 4.58704e-11
4.0478e-12 4.58704e-11 0.401682

0.248476 -0.206801 -8.28737e-12
-0.206801 1.14362 6.74618e-12
-8.28737e-12 6.74618e-12 0.409497

1.15961 -0.126695 -1.9948e-11
-0.126695 0.227375 2.89099e-11
-1.9948e-11 2.89099e-11 0.440529

0.328836 -0.437861 -1.46476e-11
-0.437861 0.320424 6.16734e-11
-1.46476e-11 6.16734e-11 0.214821

-0.0793693 0.0760984 -5.78004e-13
0.0760984 0.674367 -1.46475e-11
-5.78004e-13 -1.46475e-11 0.11769

-0.524505 0.0253476 -1.54182e-11
0.0253476 0.819948 3.27638e-11
-1.54182e-11 3.27638e-11 0.0902605

0.614244 -0.491153 -2.81396e-11
-0.491153 1.10817 1.44547e-11
-2.81396e-11 1.44547e-11 0.607717

0.575242 -0.466461 1.07931e-11
-0.466461 0.97658 1.54189e-11
1.07931e-11 1.54189e-11 0.5943

0.730686 -0.028824 -8.28728e-12
-0.028824 -1.1602 1.69597e-11
-8.28728e-12 1.69597e-11 -0.112695

0.658533 0.0313509 -3.16797e-11
0.0313509 -1.11228 4.6255e-12
-3.16797e-11 4.6255e-12 -0.112951

-0.621686 -0.580929 -2.60177e-12
-0.580929 -0.0574661 1.15635e-11
-2.60177e-12 1.15635e-11 -0.0805237

-0.458878 0.764116 1.58036e-11
0.764116 0.418039 -9.25093e-12
1.58036e-11 -9.25093e-12 -0.0319535

-1.37176 0.493489 -1.79235e-11
0.493489 0.0136676 1.31053e-11
-1.79235e-11 1.31053e-11 -0.311546

-0.820287 -0.726683 -3.37269e-11
-0.726683 0.0212556 1.88873e-11
-3.37269e-11 1.88873e-11 -0.2321

-0.255287 -0.579818 -4.7989e-11
-0.579818 -0.345204 9.05789e-12
-4.7989e-11 9.05789e-12 -0.161157

-0.403893 -0.30347 2.23564e-11
-0.30347 0.86827 -8.86561e-12
2.23564e-11 -8.86561e-12 0.176551

-0.316635 0.0880512 -2.47171e-11
0.0880512 -0.619996 -3.58463e-11
-2.47171e-11 -3.58463e-11 -0.399836

-0.424669 -0.288822 -4.90012e-11
-0.288822 -0.730378 -1.57069e-11
-4.90012e-11 -1.57069e-11 -0.414958

0.226449 -0.446091 -3.83521e-11
-0.446091 -0.114778 6.16719e-12
-3.83521e-11 6.16719e-12 0.0468874

0.082412 -0.37856 5.56501e-11
-0.37856 -0.422267 -4.89522e-11
5.56501e-11 -4.89522e-11 -0.105803

0.153999 0.317312 -2.32722e-11
0.317312 -0.208648 -2.58251e-11
-2.32722e-11 -2.58251e-11 -0.0849318

1.75823 -0.174818 4.41367e-11
-0.174818 1.13084 -8.48123e-12
4.41367e-11 -8.48123e-12 1.99216

0.307447 0.752378 -4.23989e-12
0.752378 0.605772 3.77758e-11
-4.23989e-12 3.77758e-11 0.251123

1.36241 0.360331 -2.52485e-11
0.360331 1.84731 2.31234e-12
-2.52485e-11 2.31234e-12 2.03079

-0.153816 -0.406238 -9.25193e-12
-0.406238 0.815656 5.20391e-12
-9.25193e-12 5.20391e-12 0.183161

-1.17338 -0.399529 -3.4092e-12
-0.399529 -0.718499 1.15665e-12
-3.4092e-12 1.15665e-12 -1.10448

-0.942449 0.158523 1.48148e-12
0.158523 -1.11326 -1.61887e-11
1.48148e-12 -1.61887e-11 -1.14906

0.283072 0.488569 -5.3965e-12
0.488569 0.0835143 5.97433e-12
-5.3965e-12 5.97433e-12 0.058977

0.946323 -0.0269778 -1.8164e-11
-0.0269778 -0.403918 2.08144e-11
-1.8164e-11 2.08144e-11 0.142913

0.618752 0.609609 3.85969e-13
0.609609 0.150929 5.58944e-12
3.85969e-13 5.58944e-12 0.234486

-0.999367 0.29655 -1.86951e-11
0.29655 0.489617 -2.77556e-17
-1.86951e-11 -2.77556e-17 -0.120797

-0.658747 -0.410951 -2.4862e-11
-0.410951 0.155544 -6.55255e-12
-2.4862e-11 -6.55255e-12 -0.14715

-0.579989 0.681825 -5.58923e-12
0.681825 -0.211927 -1.37797e-11
-5.58923e-12 -1.37797e-11 -0.399486

-0.602772 -0.377033 -2.83302e-11
-0.377033 -0.0655042 3.66164e-12
-2.83302e-11 3.66164e-12 -0.361704

-0.754239 0.926615 1.73487e-12
0.926615 0.276392 1.67673e-11
1.73487e-12 1.67673e-11 -0.128971

-1.4458 -0.877943 -1.97544e-11
-0.877943 -0.224379 1.6575e-11
-1.97544e-11 1.6575e-11 -0.257629

-0.638212 0.478623 1.36837e-11
0.478623 0.415074 -1.46476e-11
1.36837e-11 -1.46476e-11 -0.00780581

-0.403551 0.242574 -8.09434e-12
0.242574 0.651465 -1.34911e-11
-8.09434e-12 -1.34911e-11 0.0587095

-0.214241 -0.536457 -2.11979e-12
-0.536457 -0.300698 -5.04941e-11
-2.11979e-12 -5.04941e-11 -0.101229

-0.192198 0.566337 -1.6093e-11
0.566337 -0.13366 -2.1585e-11
-1.6093e-11 -2.1585e-11 -0.109004

0.464682 0.577475 5.58818e-12
0.577475 0.510588 -1.75379e-11
5.58818e-12 -1.75379e-11 0.244456

-0.470174 -0.569712 -1.27196e-11
-0.569712 0.417764 -7.3236e-12
-1.27196e-11 -7.3236e-12 -0.00834925

-0.645806 -0.100539 4.54837e-11
-0.100539 0.837714 2.69822e-11
4.54837e-11 2.69822e-11 0.0857645

1.64072 0.407547 2.08157e-11
0.407547 1.92412 -5.97515e-12
2.08157e-11 -5.97515e-12 1.60351

1.87385 0.421794 1.46487e-11
0.421794 1.65442 2.42854e-11
1.46487e-11 2.42854e-11 1.59552

0.741997 -0.490627 -4.68345e-11
-0.490627 0.90576 -1.09857e-11
-4.68345e-11 -1.09857e-11 0.558666

0.617658 -0.184117 1.92734e-11
-0.184117 -0.727063 -5.01058e-12
1.92734e-11 -5.01058e-12 -0.0171113

-1.48747 -0.618785 -8.91936e-11
-0.618785 -1.13822 8.90382e-11
-8.91936e-11 8.90382e-11 -1.86457

-0.972645 0.645097 -5.13004e-11
0.645097 -1.9169 -3.66254e-12
-5.13004e-11 -3.66254e-12 -1.9168

-0.550556 0.628669 -3.08306e-12
0.628669 -0.537279 3.85011e-13
-3.08306e-12 3.85011e-13 -0.833884

-0.850582 -0.164168 -2.04285e-11
-0.164168 -1.19328 3.85499e-12
-2.04285e-11 3.85499e-12 -0.968999

0.344321 -0.00653597 -5.33856e-11
-0.00653597 -0.895811 -2.58249e-11
-5.33856e-11 -2.58249e-11 -0.0551238

-0.705962 -0.823713 6.93809e-12
-0.823713 0.187704 6.55258e-12
6.93809e-12 6.55258e-12 -0.112082

-1.29566 0.859895 -7.70889e-12
0.859895 -0.251572 1.15612e-12
-7.70889e-12 1.15612e-12 -0.256743

1.31813 -0.398455 4.00891e-11
-0.398455 1.5086 -7.70782e-13
4.00891e-11 -7.70782e-13 1.24184

1.3093 0.513324 1.1562e-12
0.513324 1.3186 3.16089e-11
1.1562e-12 3.16089e-11 1.20638

0.710654 -0.185208 1.38772e-11
-0.185208 1.54179 -3.85468e-12
1.38772e-11 -3.85468e-12 0.969245

0.829194 -0.228752 2.48628e-11
-0.228752 1.51912 -3.1994e-11
2.48628e-11 -3.1994e-11 0.930744

1.60154 -0.159538 3.85479e-11
-0.159538 0.767045 -1.32992e-11
3.85479e-11 -1.32992e-11 0.973446

0.72192 0.604398 -1.04063e-11
0.604398 0.60604 6.09024e-11
-1.04063e-11 6.09024e-11 0.495084

0.806072 0.180012 4.10518e-11
0.180012 1.82553 -1.54265e-12
4.10518e-11 -1.54265e-12 1.21758

1.74837 0.0396334 1.07932e-11
0.0396334 0.823228 -1.54186e-12
1.07932e-11 -1.54186e-12 1.19326

-0.885381 -0.0733069 -1.05995e-11
-0.0733069 0.0856421 6.59117e-11
-1.05995e-11 6.59117e-11 -0.659816

-0.922463 -0.265181 1.27198e-11
-0.265181 -0.579585 -3.17977e-12
1.27198e-11 -3.17977e-12 -0.770525

0.225788 -0.20349 -4.81824e-12
-0.20349 -0.643771 -4.10501e-11
-4.81824e-12 -4.10501e-11 -0.115746

0.188055 0.0911658 2.58257e-11
0.0911658 -1.88054 -8.28711e-12
2.58257e-11 -8.28711e-12 -0.266881

0.175402 -0.39955 -8.47876e-12
-0.39955 0.995769 -1.25277e-11
-8.47876e-12 -1.25277e-11 0.398009

0.08944 -0.28662 -9.73321e-12
-0.28662 0.947959 -3.46937e-12
-9.73321e-12 -3.46937e-12 0.387889

0.423761 0.192062 -5.72408e-11
0.192062 -0.853272 -1.83092e-11
-5.72408e-11 -1.83092e-11 -0.0316112

-0.804238 -0.189276 -3.09567e-11
-0.189276 -0.682815 -9.63615e-11
-3.09567e-11 -9.63615e-11 -0.767297

-0.569973 -0.00575197 2.9246e-11
-0.00575197 -0.888261 6.62966e-11
2.9246e-11 6.62966e-11 -0.778947

-0.089822 -0.403595 1.65738e-11
-0.403595 -0.24166 1.85017e-11
1.65738e-11 1.85017e-11 -0.126582

-0.354646 0.669488 -3.02586e-11
0.669488 -0.0927577 -3.85457e-12
-3.02586e-11 -3.85457e-12 -0.0564689

-0.432986 -0.705494 1.272e-11
-0.705494 0.323759 -6.16725e-12
1.272e-11 -6.16725e-12 -0.0268364

0.282896 -0.181431 -1.75385e-11
-0.181431 -1.06238 6.76468e-11
-1.75385e-11 6.76468e-11 -0.149211

-0.660366 0.561769 -4.24039e-12
0.561769 0.107256 -1.42616e-11
-4.24039e-12 -1.42616e-11 -0.0690256

-0.397636 -0.748262 1.85017e-11
-0.748262 0.306527 -1.5421e-12
1.85017e-11 -1.5421e-12 -0.0204174

3.31208 -0.834059 -3.52712e-11
-0.834059 3.37238 2.81403e-11
-3.52712e-11 2.81403e-11 3.41284

-0.608683 0.178357 -2.96802e-11
0.178357 0.837441 6.55283e-12
-2.96802e-11 6.55283e-12 0.0891713

-0.331416 -0.162964 -7.70869e-12
-0.162964 0.600436 -1.48407e-11
-7.70869e-12 -1.48407e-11 0.06691

-1.20171 0.0885056 2.7559e-11
0.0885056 0.305661 -2.35126e-11
2.7559e-11 -2.35126e-11 -0.771883

-1.0712 -0.0104679 1.32979e-11
-0.0104679 -0.832657 5.62753e-11
1.32979e-11 5.62753e-11 -0.941106

0.34265 -0.0349088 1.60928e-11
-0.0349088 -1.16962 -1.19488e-11
1.60928e-11 -1.19488e-11 -0.24445

0.46709 0.0545925 -1.12265e-11
0.0545925 -1.26562 -2.48613e-11
-1.12265e-11 -2.48613e-11 -0.247889

-0.243654 0.805666 2.11992e-11
0.805666 -0.646825 -3.35342e-11
2.11992e-11 -3.35342e-11 -0.372739

-0.420121 -0.458857 3.08358e-11
-0.458857 -0.741414 3.19922e-11
3.08358e-11 3.19922e-11 -0.396627

-0.120928 0.29398 -2.69804e-12
0.29398 -0.541571 7.90121e-12
-2.69804e-12 7.90121e-12 -0.619085

-0.503263 -0.159745 -1.58034e-11
-0.159745 -0.546422 1.07927e-11
-1.58034e-11 1.07927e-11 -0.662098

-1.233 0.336314 3.01204e-13
0.336314 -1.56176 3.46903e-11
3.01204e-13 3.46903e-11 -1.63774

-1.14329 -0.954126 -4.60364e-11
-0.954126 -0.722461 3.93159e-11
-4.60364e-11 3.93159e-11 -1.4468

-0.824219 0.840039 2.16818e-11
0.840039 0.0417351 2.17781e-11
2.16818e-11 2.17781e-11 -0.265932

-1.19893 -1.0388 1.55147e-11
-1.0388 -0.504963 -1.31052e-11
1.55147e-11 -1.31052e-11 -0.348214

0.348818 0.445126 -1.50329e-11
0.445126 -0.284377 -2.89092e-12
-1.50329e-11 -2.89092e-12 0.00754944

-0.617876 0.355653 -1.69593e-11
0.355653 0.535373 4.27859e-11
-1.69593e-11 4.27859e-11 0.00816485

0.0227717 -0.578413 1.02149e-11
-0.578413 0.004885 -1.96576e-11
1.02149e-11 -1.96576e-11 0.0523318

-0.212553 -0.446732 -2.91015e-11
-0.446732 0.494079 -2.0044e-11
-2.91015e-11 -2.0044e-11 0.0482819

0.301134 -0.415991 -1.86955e-11
-0.415991 -0.348304 4.04733e-11
-1.86955e-11 4.04733e-11 0.0118155

-0.221085 0.495882 6.60096e-12
0.495882 0.545514 8.09477e-12
6.60096e-12 8.09477e-12 0.0502522

0.138869 0.702262 -4.08585e-11
0.702262 0.176193 -9.44414e-12
-4.08585e-11 -9.44414e-12 0.0675199

-0.873204 0.93344 1.02141e-11
0.93344 -0.467878 -5.39633e-11
1.02141e-11 -5.39633e-11 -0.335888

-0.718317 -0.694781 -3.46906e-11
-0.694781 -0.131493 4.24022e-12
-3.46906e-11 4.24022e-12 -0.261085

0.252245 0.423782 1.58036e-11
0.423782 -0.643824 1.6189e-11
1.58036e-11 1.6189e-11 -0.15496

-0.224703 0.31587 -5.93589e-11
0.31587 -0.40581 -5.51174e-11
-5.93589e-11 -5.51174e-11 -1.54384

-2.13592 0.301413 -3.5654e-11
0.301413 -1.91695 -7.66074e-11
-3.5654e-11 -7.66074e-11 -2.1659

-0.012622 -0.42851 4.29786e-11
-0.42851 -0.6306 -5.14576e-11
4.29786e-11 -5.14576e-11 -0.155626

0.0286936 0.0295005 1.92717e-12
0.0295005 -1.15125 3.66232e-12
1.92717e-12 3.66232e-12 -0.453138

1.54002 -0.363338 1.67678e-11
-0.363338 1.82093 -3.93185e-11
1.67678e-11 -3.93185e-11 1.51391

1.76451 -0.298964 3.27697e-12
-0.298964 1.45958 -9.63753e-12
3.27697e-12 -9.63753e-12 1.4586

0.105542 0.0348737 2.66202e-11
0.0348737 -1.07608 -1.92724e-11
2.66202e-11 -1.92724e-11 -0.34305

0.311609 -0.0519252 7.13067e-12
-0.0519252 -1.17484 -1.61887e-11
7.13067e-12 -1.61887e-11 -0.333992

0.0666858 0.0853161 3.08354e-11
0.0853161 -0.678262 1.54175e-11
3.08354e-11 1.54175e-11 -0.406939

-0.619981 -0.26056 6.48521e-11
-0.26056 0.574801 2.85238e-11
6.48521e-11 2.85238e-11 0.0236871

0.873587 0.345122 2.73193e-11
0.345122 0.11892 3.27636e-11
2.73193e-11 3.27636e-11 0.243114

-0.468125 -0.541223 5.82891e-12
-0.541223 -0.447815 -6.05166e-11
5.82891e-12 -6.05166e-11 -0.268075

-0.390109 0.446773 -2.26441e-11
0.446773 -0.0544091 9.82902e-11
-2.26441e-11 9.82902e-11 -0.225277

-0.612068 0.0534768 2.04288e-11
0.0534768 -0.0713901 2.984e-11
2.04288e-11 2.984e-11 -1.55752

-1.1884 0.513771 3.08357e-11
0.513771 -2.33891 4.3386e-11
3.08357e-11 4.3386e-11 -2.05973

0.375298 -0.338783 -3.7196e-11
-0.338783 -0.306722 -2.11936e-12
-3.7196e-11 -2.11936e-12 0.0258061

-0.0211434 -0.0187526 8.91241e-13
-0.0187526 -0.718648 -7.073e-11
8.91241e-13 -7.073e-11 -0.36843

-0.138814 -0.118473 1.21897e-11
-0.118473 -0.597355 4.50976e-11
1.21897e-11 4.50976e-11 -0.34737

-0.424483 -0.617415 1.31052e-11
-0.617415 0.176024 -7.1308e-12
1.31052e-11 -7.1308e-12 -0.0989071

-0.799894 0.31818 -1.27193e-11
0.31818 0.15773 5.24217e-11
-1.27193e-11 5.24217e-11 -0.143994

-0.966752 0.589468 1.69598e-11
0.589468 -0.284799 -5.39623e-12
1.69598e-11 -5.39623e-12 -0.209201

-0.651783 -0.836183 -2.44761e-11
-0.836183 0.211045 1.21423e-11
-2.44761e-11 1.21423e-11 -0.102874

3.52636 1.0634 -1.59973e-11
1.0634 3.42747 1.61894e-11
-1.59973e-11 1.61894e-11 3.47527

-0.798232 0.611884 -3.66176e-11
0.611884 -0.243785 2.60173e-11
-3.66176e-11 2.60173e-11 -0.411269

-0.75964 -0.469078 -1.15597e-12
-0.469078 -0.156049 -9.05807e-12
-1.15597e-12 -9.05807e-12 -0.376549

-0.924781 0.558628 -1.13704e-11
0.558628 0.0647139 2.31271e-12
-1.13704e-11 2.31271e-12 -0.139275

-0.668378 -0.706394 7.32381e-12
-0.706394 0.187166 -2.98727e-11
7.32381e-12 -2.98727e-11 -0.111252

0.829382 -0.330355 9.6384e-13
-0.330355 -0.0347579 1.5033e-11
9.6384e-13 1.5033e-11 0.216496

-0.0124834 0.60272 -6.1682e-12
0.60272 -0.388285 3.08393e-12
-6.1682e-12 3.08393e-12 -0.157486

-0.133142 0.647026 -6.28286e-11
0.647026 -0.600842 4.39403e-11
-6.28286e-11 4.39403e-11 -0.317998

-0.391688 -0.427984 2.62106e-11
-0.427984 -0.399821 -2.1585e-11
2.62106e-11 -2.1585e-11 -0.321063

0.310131 0.405989 1.73446e-12
0.405989 -1.13336 2.38982e-11
1.73446e-12 2.38982e-11 -0.186628

-0.271629 0.0802937 9.63613e-12
0.0802937 -0.73586 5.39638e-12
9.63613e-12 5.39638e-12 -0.530709

-0.112438 -0.117909 1.41774e-11
-0.117909 -1.00877 8.0942e-12
1.41774e-11 8.0942e-12 -0.566643

-1.68523 0.137506 -1.04076e-11
0.137506 -0.823813 -1.01276e-10
-1.04076e-11 -1.01276e-10 -1.60331

-1.4213 -0.217685 5.31907e-11
-0.217685 0.039116 3.73882e-11
5.31907e-11 3.73882e-11 -1.43247

2.04822 -0.100313 -1.69609e-11
-0.100313 1.41893 -6.16762e-12
-1.69609e-11 -6.16762e-12 2.08309

1.19575 -0.021229 -2.12017e-12
-0.021229 2.03718 3.85479e-13
-2.12017e-12 3.85479e-13 2.05461

-0.571441 0.697765 -5.73395e-12
0.697765 0.261787 -2.33199e-11
-5.73395e-12 -2.33199e-11 -0.145686

-0.696052 -0.600274 7.32329e-12
-0.600274 -0.308933 -8.86554e-12
7.32329e-12 -8.86554e-12 -0.207065

2.18624 0.37384 -2.96811e-11
0.37384 2.14858 4.5871e-11
-2.96811e-11 4.5871e-11 2.40555

2.19729 0.483393 3.66207e-11
0.483393 2.00266 4.20165e-11
3.66207e-11 4.20165e-11 2.34091

-3.10857 -0.769005 6.10659e-11
-0.769005 -0.660793 1.3298e-10
6.10659e-11 1.3298e-10 -2.16793

-2.25176 0.577305 9.05925e-11
0.577305 -1.06263 7.97863e-11
9.05925e-11 7.97863e-11 -2.07954

-0.0816741 0.733548 -2.10079e-11
0.733548 -0.404312 -2.00429e-11
-2.10079e-11 -2.00429e-11 -0.131324

-0.550167 0.667589 3.25237e-11
0.667589 -0.0522405 4.35559e-11
3.25237e-11 4.35559e-11 -0.201077

-0.573252 -0.669093 2.31247e-12
-0.669093 -0.312922 -3.00653e-11
2.31247e-12 -3.00653e-11 -0.19429

-0.0332637 0.673425 4.62562e-12
0.673425 0.320023 -1.54164e-12
4.62562e-12 -1.54164e-12 0.053685

-0.121586 -0.537278 4.04846e-12
-0.537278 0.193177 -5.47344e-11
4.04846e-12 -5.47344e-11 0.063405

0.680474 -0.0849522 4.04738e-11
-0.0849522 1.51618 -1.61896e-11
4.04738e-11 -1.61896e-11 0.931897

0.778869 -0.173518 -3.37283e-11
-0.173518 1.49517 -2.19716e-11
-3.37283e-11 -2.19716e-11 0.904113

1.58745 -0.0734728 5.08824e-11
-0.0734728 0.79741 -1.96574e-11
5.08824e-11 -1.96574e-11 0.957657

-0.346266 0.77698 1.57076e-11
0.77698 0.263545 1.96582e-11
1.57076e-11 1.96582e-11 -0.041733

-0.470483 -0.602085 -1.35877e-11
-0.602085 0.0127125 -3.27642e-11
-1.35877e-11 -3.27642e-11 -0.0531151

1.00636 0.119569 -2.52488e-11
0.119569 1.83278 -2.13931e-11
-2.52488e-11 -2.13931e-11 1.2566

1.82709 0.18514 8.38407e-12
0.18514 1.03889 6.55391e-12
8.38407e-12 6.55391e-12 1.27502

-0.761249 -0.772203 -1.44549e-12
-0.772203 -0.564934 3.66185e-11
-1.44549e-12 3.66185e-11 -0.363261

-0.731619 0.635586 -1.90807e-11
0.635586 -0.129247 -5.89737e-11
-1.90807e-11 -5.89737e-11 -0.340065

-0.772651 -0.682684 -1.90806e-11
-0.682684 -0.317749 -2.85235e-11
-1.90806e-11 -2.85235e-11 -0.376579

-0.758114 0.506371 -1.06287e-10
0.506371 -0.19525 4.85669e-11
-1.06287e-10 4.85669e-11 -0.400959

2.16609 -0.316621 -3.56563e-11
-0.316621 2.23376 -2.35138e-11
-3.56563e-11 -2.35138e-11 2.45071

2.16112 -0.318495 -1.06964e-11
-0.318495 2.22989 2.04308e-11
-1.06964e-11 2.04308e-11 2.45944

-0.227925 0.613503 -2.60173e-11
0.613503 0.20789 4.52907e-11
-2.60173e-11 4.52907e-11 -0.0505425

-0.285189 -0.562217 7.69958e-13
-0.562217 -0.157306 -4.20135e-11
7.69958e-13 -4.20135e-11 -0.0751681

-0.993407 0.162012 6.51402e-11
0.162012 -0.275983 2.29336e-11
6.51402e-11 2.29336e-11 -0.989082

-1.17521 -0.0922987 6.8609e-11
-0.0922987 -1.04092 -2.64031e-11
6.8609e-11 -2.64031e-11 -1.13668

-1.14287 -0.708553 2.27416e-11
-0.708553 -0.183794 -2.77526e-11
2.27416e-11 -2.77526e-11 -0.382144

-0.932247 0.666144 8.57641e-12
0.666144 0.0559405 1.7538e-11
8.57641e-12 1.7538e-11 -0.369547

-0.687125 -0.14762 2.67169e-11
-0.14762 -1.10959 5.011e-12
2.67169e-11 5.011e-12 -0.729202

-0.44998 0.0112534 3.85206e-11
0.0112534 -1.24324 8.67242e-12
3.85206e-11 8.67242e-12 -0.72441

-0.483504 0.654907 3.10287e-11
0.654907 -0.35192 4.08588e-11
3.10287e-11 4.08588e-11 -0.218759

-0.422668 -0.64383 -2.33193e-11
-0.64383 -0.0316144 -2.38983e-11
-2.33193e-11 -2.38983e-11 -0.153727

-0.726909 0.19913 1.90556e-11
0.19913 -1.4366 -1.95869e-11
1.90556e-11 -1.95869e-11 -1.22167

-1.33728 0.0580363 -3.52319e-11
0.0580363 -1.69652 3.48826e-11
-3.52319e-11 3.48826e-11 -1.68972

-1.05717 -0.180544 5.23483e-11
-0.180544 -1.2302 -8.52708e-12
5.23483e-11 -8.52708e-12 -1.23657

-1.98224 -0.0227324 -1.25031e-11
-0.0227324 -1.20005 -7.74744e-11
-1.25031e-11 -7.74744e-11 -1.71243

-1.49047 0.114873 -7.13191e-12
0.114873 0.0270925 -9.1736e-11
-7.13191e-12 -9.1736e-11 -1.20966

-0.415515 0.653309 -9.25095e-12
0.653309 -0.895923 3.469e-11
-9.25095e-12 3.469e-11 -1.18665

-1.01536 -0.256047 -2.3512e-11
-0.256047 -1.36324 5.97462e-12
-2.3512e-11 5.97462e-12 -1.35462

-1.62266 -0.153743 7.7062e-13
-0.153743 -0.716355 -3.34375e-11
7.7062e-13 -3.34375e-11 -1.33991

-1.85504 0.382647 -1.74895e-10
0.382647 -1.40665 -7.26558e-11
-1.74895e-10 -7.26558e-11 -1.77493

0.34731 0.389611 7.46664e-10
0.389611 -2.82097 -2.48206e-10
7.46664e-10 -2.48206e-10 -2.00173

0.0294628 -0.254877 -2.9851e-10
-0.254877 -0.156709 3.66196e-11
-2.9851e-10 3.66196e-11 -1.54571

-1.33304 -0.879406 4.08918e-10
-0.879406 -0.580144 -3.50381e-10
4.08918e-10 -3.50381e-10 -1.48995

-1.10414 0.495876 -3.11745e-11
0.495876 -1.13898 -4.62531e-11
-3.11745e-11 -4.62531e-11 -1.32006

-0.879757 0.358224 6.95244e-11
0.358224 -0.320028 -1.31056e-11
6.95244e-11 -1.31056e-11 -0.682795

-1.68389 0.104725 -1.65619e-11
0.104725 -1.84339 -1.50324e-11
-1.65619e-11 -1.50324e-11 -1.95606

-0.742674 -0.820003 -8.86554e-12
-0.820003 -1.02226 -5.78163e-12
-8.86554e-12 -5.78163e-12 -1.19697

-1.38503 -0.940331 -5.33455e-11
-0.940331 -0.565064 -1.38759e-10
-5.33455e-11 -1.38759e-10 -1.64371

-0.811953 -0.457792 8.6763e-13
-0.457792 -0.5376 3.86318e-13
8.6763e-13 3.86318e-13 -0.661342

-0.955825 -0.766704 -1.9218e-13
-0.766704 -0.501428 -7.69984e-13
-1.9218e-13 -7.69984e-13 -0.817334

-1.35704 -0.508812 -6.27675e-11
-0.508812 -0.873402 2.58257e-11
-6.27675e-11 2.58257e-11 -1.24445

-1.18388 0.319885 4.33715e-12
0.319885 -0.718494 7.49695e-11
4.33715e-12 7.49695e-11 -0.93521

-1.06676 0.190726 4.01593e-11
0.190726 -1.10087 7.32346e-11
4.01593e-11 7.32346e-11 -1.24505

-0.00431272 0.543726 -2.1585e-11
0.543726 0.507067 2.19711e-11
-2.1585e-11 2.19711e-11 0.168147

-0.446933 0.274661 3.469e-12
0.274661 0.266476 1.68635e-11
3.469e-12 1.68635e-11 -0.094495

-0.644055 0.233743 1.21416e-11
0.233743 0.16368 -5.29033e-11
1.21416e-11 -5.29033e-11 -0.129671

0.576014 0.308906 1.31057e-11
0.308906 -0.736838 2.49023e-12
1.31057e-11 2.49023e-12 0.00390404

0.809474 0.104765 -3.85543e-13
0.104765 -0.484439 2.43446e-12
-3.85543e-13 2.43446e-12 0.129811

-1.0691 0.168702 1.58028e-11
0.168702 -0.204036 7.32351e-12
1.58028e-11 7.32351e-12 -0.454141

-1.27356 0.387293 -1.09861e-11
0.387293 -0.101047 7.32424e-12
-1.09861e-11 7.32424e-12 -0.450616

0.863919 -0.123079 -6.93843e-12
-0.123079 -0.419266 1.39575e-11
-6.93843e-12 1.39575e-11 0.15069

0.132954 -0.247886 2.3802e-11
-0.247886 -1.00907 -3.37752e-11
2.3802e-11 -3.37752e-11 -0.180082

0.444124 0.494424 -3.73902e-11
0.494424 0.956824 -1.61894e-11
-3.73902e-11 -1.61894e-11 0.554834

0.533915 -0.49396 -1.46479e-11
-0.49396 1.02165 1.18047e-11
-1.46479e-11 1.18047e-11 0.628533

1.21016 -0.452997 -1.17568e-11
-0.452997 0.379251 2.5079e-11
-1.17568e-11 2.5079e-11 0.601031

-0.784027 -0.46843 -1.23343e-11
-0.46843 -0.196214 -2.12017e-12
-1.23343e-11 -2.12017e-12 -0.39174

-0.506837 -0.324974 3.08356e-11
-0.324974 -0.157049 7.90155e-12
3.08356e-11 7.90155e-12 -0.359954

-0.484068 0.463788 1.04068e-11
0.463788 0.204745 -7.99779e-12
1.04068e-11 -7.99779e-12 -0.0104258

-0.86419 0.559326 -1.27204e-11
0.559326 0.0315146 5.78546e-13
-1.27204e-11 5.78546e-13 -0.129968

-1.24094 -0.363347 2.19715e-11
-0.363347 -0.0810589 -4.55802e-11
2.19715e-11 -4.55802e-11 -0.448825

-1.1351 -0.106855 -2.69742e-12
-0.106855 -0.205563 5.29031e-11
-2.69742e-12 5.29031e-11 -0.467593

0.711571 0.141045 2.28384e-11
0.141045 -0.789435 2.15431e-11
2.28384e-11 2.15431e-11 -0.0247357

0.302047 0.177508 -1.96585e-11
0.177508 1.12043 -4.09549e-11
-1.96585e-11 -4.09549e-11 0.458577

0.305159 -0.144925 5.78156e-12
-0.144925 1.10218 -7.03423e-12
5.78156e-12 -7.03423e-12 0.464617

1.37624 -0.125358 -3.31499e-11
-0.125358 0.278564 7.08317e-12
-3.31499e-11 7.08317e-12 0.505757

0.0334596 0.624879 1.484e-11
0.624879 0.232019 5.39663e-12
1.484e-11 5.39663e-12 0.123511

0.908632 -0.41551 -2.73679e-11
-0.41551 -0.299522 1.09373e-11
-2.73679e-11 1.09373e-11 0.216299

0.208701 0.662565 -7.32351e-12
0.662565 -0.106002 1.54661e-11
-7.32351e-12 1.54661e-11 0.0551168

-0.0749969 0.528671 3.08358e-11
0.528671 0.634416 -1.61893e-11
3.08358e-11 -1.61893e-11 0.151514

0.523878 -0.262153 -2.00436e-11
-0.262153 -0.827184 -5.39406e-14
-2.00436e-11 -5.39406e-14 -0.0263553

1.23007 0.347507 -1.31075e-11
0.347507 1.58095 9.58885e-12
-1.31075e-11 9.58885e-12 1.09426

0.334959 0.326095 -3.00657e-11
0.326095 -1.01158 -6.05281e-12
-3.00657e-11 -6.05281e-12 -0.129636

1.74532 -0.300506 2.7754e-11
-0.300506 1.13669 2.18056e-12
2.7754e-11 2.18056e-12 1.13334

-0.667863 -0.114789 3.8545e-11
-0.114789 -0.217007 1.92476e-13
3.8545e-11 1.92476e-13 -0.48507

-0.680986 0.204192 -3.00651e-11
0.204192 -0.199238 2.94873e-11
-3.00651e-11 2.94873e-11 -0.481302

-0.0545031 -0.624045 -2.73661e-11
-0.624045 -1.14333 -6.41761e-11
-2.73661e-11 -6.41761e-11 -1.29716

-0.0596357 0.645724 2.58251e-11
0.645724 -1.14793 1.39722e-11
2.58251e-11 1.39722e-11 -1.2881

1.30629 -0.165297 -1.86945e-11
-0.165297 0.178798 5.49312e-12
-1.86945e-11 5.49312e-12 0.515135

-0.20158 0.724639 -1.34911e-11
0.724639 -0.261203 2.79479e-12
-1.34911e-11 2.79479e-12 -0.0757865

-0.0151614 -0.375498 -6.55236e-12
-0.375498 -0.739516 -4.11465e-11
-6.55236e-12 -4.11465e-11 -0.507848

0.00293884 0.373989 -1.92725e-11
0.373989 -0.711636 -1.33942e-11
-1.92725e-11 -1.33942e-11 -0.475423

0.102832 0.130572 1.77309e-11
0.130572 -1.19376 -3.42089e-12
1.77309e-11 -3.42089e-12 -0.204408

-0.117023 0.596898 1.36833e-11
0.596898 0.641644 7.03506e-12
1.36833e-11 7.03506e-12 0.146692

0.771173 -0.515799 3.84988e-13
-0.515799 -0.0990554 -9.53991e-12
3.84988e-13 -9.53991e-12 0.213302

0.188639 -0.0316973 2.11036e-11
-0.0316973 -1.26872 8.89549e-12
2.11036e-11 8.89549e-12 -0.173666

0.0168967 -0.6271 2.15849e-11
-0.6271 0.253236 1.43591e-11
2.15849e-11 1.43591e-11 0.125267

-0.00907302 -0.514198 -4.24019e-12
-0.514198 0.505806 4.43362e-12
-4.24019e-12 4.43362e-12 0.165646

-0.685311 0.590138 -9.63479e-13
0.590138 0.273486 1.32978e-11
-9.63479e-13 1.32978e-11 -0.1022

0.701105 -0.717023 5.01097e-12
-0.717023 0.177202 3.80611e-12
5.01097e-12 3.80611e-12 0.300786

3.38281 -0.547386 2.38997e-11
-0.547386 3.07206 -2.18759e-11
2.38997e-11 -2.18759e-11 3.24014

3.39511 0.759943 -3.70056e-11
0.759943 3.29285 1.42143e-11
-3.70056e-11 1.42143e-11 3.31816

-1.23353 -0.705181 -1.15601e-12
-0.705181 -0.106183 -2.32235e-11
-1.15601e-12 -2.32235e-11 -0.322833

2.30566 0.0997875 -3.23801e-11
0.0997875 1.97076 3.32487e-12
-3.23801e-11 3.32487e-12 2.2672

1.97784 -0.183833 -3.81618e-11
-0.183833 1.87906 -3.58011e-11
-3.81618e-11 -3.58011e-11 2.14052

-0.705634 -0.162747 -3.50757e-11
-0.162747 -0.49884 9.1544e-11
-3.50757e-11 9.1544e-11 -0.581691

-0.699285 0.16911 2.79452e-11
0.16911 -0.511136 5.3963e-11
2.79452e-11 5.3963e-11 -0.582081

0.879403 -0.0122377 -1.61892e-11
-0.0122377 -0.930234 6.88695e-12
-1.61892e-11 6.88695e-12 -0.0252009

-0.762254 -0.0870225 -8.09443e-11
-0.0870225 -0.822338 6.33581e-11
-8.09443e-11 6.33581e-11 -0.66774

-0.753046 0.0959709 -2.19708e-11
0.0959709 -0.820396 2.85715e-11
-2.19708e-11 2.85715e-11 -0.664407

-0.50417 0.548737 8.47959e-12
0.548737 0.47946 -2.29348e-11
8.47959e-12 -2.29348e-11 0.00355219

-0.290327 -0.58496 5.93578e-11
-0.58496 -0.95471 4.87587e-11
5.93578e-11 4.87587e-11 -1.063

-0.304649 0.587723 -1.11777e-11
0.587723 -0.963543 5.20291e-12
-1.11777e-11 5.20291e-12 -1.06023

-0.386385 -0.289263 1.5611e-11
-0.289263 -0.446402 1.79236e-11
1.5611e-11 1.79236e-11 -0.292075

-0.386231 0.291768 -1.7731e-11
0.291768 -0.451037 8.2391e-12
-1.7731e-11 8.2391e-12 -0.292828

1.26756 -0.493927 -2.19712e-11
-0.493927 0.374732 -2.16762e-12
-2.19712e-11 -2.16762e-12 0.669366

-1.59071 0.288397 -1.5417e-12
0.288397 -0.198134 -6.16736e-12
-1.5417e-12 -6.16736e-12 -1.07507

-1.22976 -0.0563329 -3.31482e-11
-0.0563329 -0.717654 -3.9123e-11
-3.31482e-11 -3.9123e-11 -1.12751

-0.113683 -0.603333 1.272e-11
-0.603333 0.640849 3.12216e-11
1.272e-11 3.12216e-11 0.145488

1.03996 -0.151016 3.12218e-11
-0.151016 1.51727 -1.85992e-11
3.12218e-11 -1.85992e-11 1.11964

1.69665 -0.156277 2.00447e-11
-0.156277 0.866518 -1.42566e-11
2.00447e-11 -1.42566e-11 1.15041

-0.746678 0.472188 -1.5418e-11
0.472188 0.315129 3.58474e-11
-1.5418e-11 3.58474e-11 -0.109687

-0.826547 0.469881 -3.43059e-11
0.469881 0.099199 -2.99693e-11
-3.43059e-11 -2.99693e-11 -0.130656

-1.50356 -0.471322 -1.42808e-10
-0.471322 -2.64653 1.19296e-10
-1.42808e-10 1.19296e-10 -2.35881

-1.48257 0.43566 1.79232e-10
0.43566 -2.51277 -1.97517e-11
1.79232e-10 -1.97517e-11 -2.32125

-0.999409 0.616929 -1.8887e-11
0.616929 -0.335293 1.50326e-11
-1.8887e-11 1.50326e-11 -0.220371

0.14107 0.185243 2.69846e-12
0.185243 -0.785597 -2.15373e-11
2.69846e-12 -2.15373e-11 -0.185404

0.155248 -0.192722 -1.96583e-11
-0.192722 -0.78665 -6.87066e-11
-1.96583e-11 -6.87066e-11 -0.18241

-0.56636 0.827853 -4.62579e-12
0.827853 -0.401093 -2.5922e-11
-4.62579e-12 -2.5922e-11 -0.184536

-0.893968 -0.559486 -2.65959e-11
-0.559486 -0.0513649 1.34946e-12
-2.65959e-11 1.34946e-12 -0.293408

1.28025 -0.00949164 -2.50542e-12
-0.00949164 0.0317953 4.67397e-12
-2.50542e-12 4.67397e-12 0.495458

1.03716 0.0114169 3.2957e-11
0.0114169 -0.403971 1.07324e-11
3.2957e-11 1.07324e-11 0.149988

1.0426 0.370743 -4.24011e-12
0.370743 -0.153792 2.96335e-12
-4.24011e-12 2.96335e-12 0.290198

0.0226752 0.619516 -1.46472e-11
0.619516 -1.06482 3.25704e-11
-1.46472e-11 3.25704e-11 -0.446392

-0.237952 -0.0937884 3.08412e-12
-0.0937884 -0.712985 1.03584e-11
3.08412e-12 1.03584e-11 -1.48882

-0.261204 0.093347 1.0022e-11
0.093347 -0.667751 -4.05677e-11
1.0022e-11 -4.05677e-11 -1.49459

0.816583 0.538465 6.55206e-12
0.538465 0.754855 -8.67208e-12
6.55206e-12 -8.67208e-12 0.521484

0.282713 -0.687208 -2.31265e-12
-0.687208 -0.3081 -1.97068e-11
-2.31265e-12 -1.97068e-11 0.0247532

0.713039 -0.168678 -4.29785e-11
-0.168678 -0.434491 -3.50521e-11
-4.29785e-11 -3.50521e-11 0.0372378

-1.53793 0.668975 -8.36411e-11
0.668975 -0.345204 -2.27408e-11
-8.36411e-11 -2.27408e-11 -1.32116

-1.45619 -0.173841 1.29895e-10
-0.173841 -1.22804 -4.27843e-11
1.29895e-10 -4.27843e-11 -1.49185

0.00429114 -0.605987 3.85422e-12
-0.605987 -1.02611 3.82075e-11
3.85422e-12 3.82075e-11 -0.472259

-0.641854 -0.174737 1.47439e-11
-0.174737 0.189641 2.69769e-12
1.47439e-11 2.69769e-12 -0.144706

-0.530027 -0.184312 -1.72483e-11
-0.184312 0.250177 -2.34172e-11
-1.72483e-11 -2.34172e-11 -0.125319

0.624381 -0.0470191 3.25712e-11
-0.0470191 -1.19387 5.42041e-12
3.25712e-11 5.42041e-12 -0.151858

0.634285 0.0442045 -1.17564e-11
0.0442045 -1.22065 2.24052e-12
-1.17564e-11 2.24052e-12 -0.154735

1.04942 0.463784 3.21864e-11
0.463784 0.75779 -2.80907e-11
3.21864e-11 -2.80907e-11 0.571059

0.151575 -0.0344349 3.61345e-12
-0.0344349 -1.14606 -1.69595e-11
3.61345e-12 -1.69595e-11 -0.339315

0.151441 0.0310155 4.73141e-11
0.0310155 -1.13765 1.2431e-11
4.73141e-11 1.2431e-11 -0.336289

0.729532 0.167389 9.82913e-12
0.167389 -0.445183 -2.32959e-11
9.82913e-12 -2.32959e-11 0.0389107

-0.0877894 -0.537282 3.84526e-13
-0.537282 0.638474 4.18223e-11
3.84526e-13 4.18223e-11 0.147435

0.620146 -0.0154686 3.73889e-11
-0.0154686 -0.838358 -3.60876e-11
3.73889e-11 -3.60876e-11 -0.114257

0.626856 0.0203537 -1.11781e-11
0.0203537 -0.859247 -5.43e-11
-1.11781e-11 -5.43e-11 -0.116676

0.497561 -0.411967 -1.8501e-11
-0.411967 -0.578951 7.46884e-12
-1.8501e-11 7.46884e-12 -0.00466475

-0.677998 0.759873 1.71522e-11
0.759873 0.107286 -8.76881e-12
1.71522e-11 -8.76881e-12 -0.144196

0.658117 0.575966 -4.58697e-11
0.575966 0.0865385 -1.67675e-11
-4.58697e-11 -1.67675e-11 0.227959

-0.832707 0.616185 -1.11781e-11
0.616185 -0.46578 1.32017e-11
-1.11781e-11 1.32017e-11 -0.232466

-0.678299 0.75748 -1.07923e-11
0.75748 0.205202 1.91761e-11
-1.07923e-11 1.91761e-11 -0.118096

0.976227 -0.292117 -2.69836e-12
-0.292117 -0.287508 9.51605e-12
-2.69836e-12 9.51605e-12 0.199589

0.136632 -0.674106 -2.02408e-12
-0.674106 -0.692768 -2.89071e-12
-2.02408e-12 -2.89071e-12 -0.163929

0.549814 0.4112 1.34913e-11
0.4112 -0.476032 2.9728e-11
1.34913e-11 2.9728e-11 0.0330667

0.409491 0.671713 -1.25278e-11
0.671713 0.206374 -3.15119e-11
-1.25278e-11 -3.15119e-11 0.224335

0.284407 0.69075 -1.1949e-11
0.69075 -0.304156 6.31178e-12
-1.1949e-11 6.31178e-12 0.0297945

-0.928799 0.0629341 4.77956e-11
0.0629341 0.227169 -2.85234e-11
4.77956e-11 -2.85234e-11 -0.173281

-0.909874 0.0229901 -2.38978e-11
0.0229901 0.222384 1.18527e-11
-2.38978e-11 1.18527e-11 -0.174231

1.18722 0.485002 2.79428e-12
0.485002 0.360856 -1.89965e-11
2.79428e-12 -1.89965e-11 0.580422

-0.574763 -0.827101 -3.89305e-11
-0.827101 -0.411591 -2.91974e-11
-3.89305e-11 -2.91974e-11 -0.188528

0.301683 -0.656892 2.69815e-11
-0.656892 0.629785 -2.96328e-11
2.69815e-11 -2.96328e-11 0.265917

0.294055 0.665023 4.2406e-12
0.665023 0.666017 4.51961e-11
4.2406e-12 4.51961e-11 0.273127

0.452319 -0.495973 -2.19701e-11
-0.495973 -0.54851 -2.38491e-11
-2.19701e-11 -2.38491e-11 -0.0174284

0.164898 -0.330397 -1.15623e-12
-0.330397 -1.598 -3.70028e-11
-1.15623e-12 -3.70028e-11 -0.365228

0.173526 0.333216 2.38983e-11
0.333216 -1.5028 9.1062e-12
2.38983e-11 9.1062e-12 -0.336305

-0.191174 0.363425 2.69852e-12
0.363425 0.619164 3.17038e-11
2.69852e-12 3.17038e-11 0.163031

0.243561 -0.692323 1.46468e-11
-0.692323 -0.0915363 2.41385e-11
1.46468e-11 2.41385e-11 0.064266

0.0606005 -0.0286451 2.38983e-11
-0.0286451 1.19171 9.73401e-12
2.38983e-11 9.73401e-12 0.479013

0.0672893 0.0116771 4.23982e-12
0.0116771 1.20439 1.08893e-11
4.23982e-12 1.08893e-11 0.488013

1.4728 0.0349647 -2.23572e-11
0.0349647 0.0491018 1.65991e-11
-2.23572e-11 1.65991e-11 0.543262

1.02621 -0.481143 -4.62558e-12
-0.481143 0.807602 1.24796e-11
-4.62558e-12 1.24796e-11 0.57667

0.521625 0.584914 4.18221e-11
0.584914 0.111819 -1.09853e-11
4.18221e-11 -1.09853e-11 0.20445

-1.61863 -1.20059 5.82017e-11
-1.20059 -1.0866 -3.25696e-11
5.82017e-11 -3.25696e-11 -1.89541

-1.17212 0.517577 -8.78801e-11
0.517577 -0.833632 -1.9271e-12
-8.78801e-11 -1.9271e-12 -1.74625

0.961147 0.266059 1.61897e-11
0.266059 -0.309576 1.71771e-11
1.61897e-11 1.71771e-11 0.185409

-0.478152 0.731734 5.39561e-12
0.731734 0.391481 -4.54841e-11
5.39561e-12 -4.54841e-11 -0.0161954

0.894261 0.0114612 -1.23346e-11
0.0114612 -0.917656 3.4829e-11
-1.23346e-11 3.4829e-11 -0.0193793

-0.211576 -0.351452 -3.66177e-11
-0.351452 0.626142 3.07403e-11
-3.66177e-11 3.07403e-11 0.158474

-1.48572 0.729727 -3.19921e-11
0.729727 -0.110471 2.64037e-11
-3.19921e-11 2.64037e-11 -0.34919

-0.838882 0.597852 5.39656e-12
0.597852 0.00466155 2.7078e-11
5.39656e-12 2.7078e-11 -0.254791

-0.676734 -0.758047 4.41344e-11
-0.758047 0.0999309 2.73672e-11
4.41344e-11 2.73672e-11 -0.146385

-0.73939 0.766869 -2.11991e-12
0.766869 0.251634 1.47438e-11
-2.11991e-12 1.47438e-11 -0.121975

-0.612143 0.579159 -1.73458e-11
0.579159 -0.0381361 -2.38987e-11
-1.73458e-11 -2.38987e-11 -0.0762434

0.837654 0.00658883 7.51652e-12
0.00658883 -1.34868 2.5784e-11
7.51652e-12 2.5784e-11 -0.128148

0.593084 -0.57734 3.71974e-11
-0.57734 0.13432 2.36068e-12
3.71974e-11 2.36068e-12 0.22998

-0.84467 -0.619115 -4.3556e-11
-0.619115 -0.473706 -1.60923e-11
-4.3556e-11 -1.60923e-11 -0.237176

0.423547 -0.49406 2.19709e-11
-0.49406 0.469991 -2.8669e-11
2.19709e-11 -2.8669e-11 0.235346

0.824125 -0.478984 6.16744e-11
-0.478984 0.836496 -3.61302e-12
6.16744e-11 -3.61302e-12 0.583935

-0.2301 -0.715078 2.6211e-11
-0.715078 -0.248325 5.73345e-12
2.6211e-11 5.73345e-12 -0.0797634

0.22169 -0.293338 5.39473e-12
-0.293338 1.0794 2.25495e-11
5.39473e-12 2.25495e-11 0.404288

0.213961 0.278259 -1.61896e-11
0.278259 1.08337 -2.0238e-11
-1.61896e-11 -2.0238e-11 0.400387

1.20618 0.16717 6.16734e-12
0.16717 0.245164 -6.75763e-12
6.16734e-12 -6.75763e-12 0.445515

0.416091 0.515261 -4.43232e-12
0.515261 0.465714 1.643e-11
-4.43232e-12 1.643e-11 0.233748

-0.263875 0.0922753 -9.25137e-12
0.0922753 0.666294 2.19707e-11
-9.25137e-12 2.19707e-11 0.104064

-0.263262 -0.0204574 1.38765e-11
-0.0204574 0.663331 1.04082e-11
1.38765e-11 1.04082e-11 0.10614

0.650951 -0.564312 -7.90124e-12
-0.564312 0.939639 -1.17558e-11
-7.90124e-12 -1.17558e-11 0.580718

0.687392 0.565321 -9.25078e-12
0.565321 0.947711 1.4166e-11
-9.25078e-12 1.4166e-11 0.592645

0.85022 0.0463024 2.50559e-12
0.0463024 -1.24287 -1.56587e-11
2.50559e-12 -1.56587e-11 -0.118482

0.862339 -0.0439454 8.67283e-12
-0.0439454 -1.25673 1.20453e-11
8.67283e-12 1.20453e-11 -0.117149

-0.478572 0.666637 -9.44403e-12
0.666637 0.360632 -2.63076e-11
-9.44403e-12 -2.63076e-11 -0.0309228

-1.54455 -0.651102 5.01112e-12
-0.651102 -0.143646 -1.41656e-11
5.01112e-12 -1.41656e-11 -0.346411

-0.0290347 0.732767 2.54399e-11
0.732767 -0.483634 -3.08373e-12
2.54399e-11 -3.08373e-12 -0.131504

1.46988 0.338743 -1.6189e-11
0.338743 0.569778 1.09613e-11
-1.6189e-11 1.09613e-11 0.847041

-0.209504 0.441878 -2.46703e-11
0.441878 0.842029 -6.75034e-13
-2.46703e-11 -6.75034e-13 0.188938

-0.279275 0.0400707 -4.04744e-12
0.0400707 -0.705191 -8.91323e-12
-4.04744e-12 -8.91323e-12 -0.404852

-0.279059 -0.035443 -1.09853e-11
-0.035443 -0.696485 -1.23346e-11
-1.09853e-11 -1.23346e-11 -0.403473

0.302297 0.424633 -5.01138e-12
0.424633 0.0257385 -2.87161e-11
-5.01138e-12 -2.87161e-11 0.0582436

0.192126 -0.261165 -2.1778e-11
-0.261165 -0.270714 2.23562e-11
-2.1778e-11 2.23562e-11 -0.083777

0.189772 0.266263 -7.70754e-13
0.266263 -0.270199 -7.90185e-12
-7.70754e-13 -7.90185e-12 -0.0841534

1.92477 -0.267084 -1.34913e-11
-0.267084 1.32088 -5.51679e-12
-1.34913e-11 -5.51679e-12 2.04291

1.1557 0.336436 -5.58935e-11
0.336436 1.77966 2.61281e-11
-5.58935e-11 2.61281e-11 2.01181

-0.246602 -0.434346 -1.27208e-11
-0.434346 0.83147 5.60843e-11
-1.27208e-11 5.60843e-11 0.177763

-0.917685 -0.0970512 8.65327e-11
-0.0970512 -1.23239 1.6863e-11
8.65327e-11 1.6863e-11 -1.17087

-0.910218 0.110863 -5.76241e-11
0.110863 -1.21925 3.045e-11
-5.76241e-11 3.045e-11 -1.16513

1.52701 0.291271 1.88879e-11
0.291271 0.550375 9.03345e-13
1.88879e-11 9.03345e-13 0.863972

-0.872791 -0.360122 2.54398e-11
-0.360122 0.199881 1.73459e-11
2.54398e-11 1.73459e-11 -0.139252

-0.760815 -0.352561 2.65958e-11
-0.352561 0.27674 -2.28379e-11
2.65958e-11 -2.28379e-11 -0.134537

0.48044 -0.70566 3.16086e-11
-0.70566 0.343975 -1.85013e-11
3.16086e-11 -1.85013e-11 0.27832

-0.733205 -0.771696 2.87163e-11
-0.771696 0.24896 -3.17039e-11
2.87163e-11 -3.17039e-11 -0.122265

-1.32732 0.920691 9.63608e-12
0.920691 -0.306301 -5.97439e-12
9.63608e-12 -5.97439e-12 -0.258114

-0.531328 0.418425 -4.66394e-11
0.418425 -0.228378 -2.77527e-11
-4.66394e-11 -2.77527e-11 -0.379376

-0.800718 0.57611 -2.58252e-11
0.57611 -0.25724 1.27191e-11
-2.58252e-11 1.27191e-11 -0.40466

-0.494175 -0.67325 2.02361e-11
-0.67325 0.358097 1.70563e-11
2.02361e-11 1.70563e-11 -0.0357516

-0.287584 0.706045 -3.93163e-11
0.706045 -0.199094 -1.50329e-11
-3.93163e-11 -1.50329e-11 -0.0561262

0.293938 -0.431146 2.29344e-11
-0.431146 0.0287575 -2.12967e-11
2.29344e-11 -2.12967e-11 0.0563153

0.909345 0.515656 -1.96588e-11
0.515656 -0.120079 2.50546e-11
-1.96588e-11 2.50546e-11 0.280154

1.01787 -0.0152352 1.94655e-11
-0.0152352 -0.419848 -8.31151e-12
1.94655e-11 -8.31151e-12 0.142154

-0.741454 0.804842 5.78276e-13
0.804842 0.216241 -6.26352e-12
5.78276e-13 -6.26352e-12 -0.112901

-0.518964 -0.482767 9.25076e-12
-0.482767 0.196711 -1.99473e-11
9.25076e-12 -1.99473e-11 -0.0204734

-0.465855 0.175638 -2.46688e-11
0.175638 0.612632 1.1178e-11
-2.46688e-11 1.1178e-11 0.0736478

-0.191371 0.492847 3.46947e-12
0.492847 -0.194624 2.60188e-12
3.46947e-12 2.60188e-12 -0.112289

-0.439857 0.219653 -4.24e-11
0.219653 0.677207 1.41652e-11
-4.24e-11 1.41652e-11 0.0768062

-0.753115 -0.62164 -4.62525e-12
-0.62164 0.0750516 8.09468e-12
-4.62525e-12 8.09468e-12 -0.211216

1.72283 -0.346181 3.85484e-11
-0.346181 1.79769 3.14638e-11
3.85484e-11 3.14638e-11 1.62916

2.04318 -0.348477 -5.35804e-11
-0.348477 1.52972 -3.06688e-11
-5.35804e-11 -3.06688e-11 1.65741

0.689825 -0.138192 -2.21639e-11
-0.138192 -0.787466 4.90941e-11
-2.21639e-11 4.90941e-11 -0.0291581

-0.194328 -0.494109 -1.77308e-11
-0.494109 -0.200111 1.77314e-11
-1.77308e-11 1.77314e-11 -0.114101

-0.941335 -0.668582 -9.80966e-11
-0.668582 -2.12404 9.09652e-11
-9.80966e-11 9.09652e-11 -1.96131

-0.919293 0.640252 2.1797e-10
0.640252 -2.06875 5.69517e-11
2.1797e-10 5.69517e-11 -1.94245

-0.495229 -0.721695 -3.54611e-11
-0.721695 0.37825 -1.60924e-11
-3.54611e-11 -1.60924e-11 -0.0252138

-0.5412 -0.61982 3.39199e-11
-0.61982 -0.534033 -7.46803e-11
3.39199e-11 -7.46803e-11 -0.831084

-0.550101 0.629918 -6.93788e-12
0.629918 -0.527809 2.14886e-11
-6.93788e-12 2.14886e-11 -0.818151

0.400256 0.135711 -2.12002e-11
0.135711 -0.856137 1.11585e-11
-2.12002e-11 1.11585e-11 -0.0516297

-1.3468 -0.92186 -5.78209e-12
-0.92186 -0.331688 1.52256e-11
-5.78209e-12 1.52256e-11 -0.266045

1.43726 -0.4125 -1.86953e-11
-0.4125 1.40051 -5.76514e-11
-1.86953e-11 -5.76514e-11 1.27922

1.4855 0.413746 -6.55284e-12
0.413746 1.19184 9.80526e-12
-6.55284e-12 9.80526e-12 1.20568

0.899707 -0.307593 6.36062e-12
-0.307593 1.47933 -1.69129e-11
6.36062e-12 -1.69129e-11 0.966358

0.824372 0.28608 -2.94882e-11
0.28608 1.50114 -4.91429e-12
-2.94882e-11 -4.91429e-12 0.962591

1.6308 0.175987 4.74129e-11
0.175987 0.745158 1.21899e-11
4.74129e-11 1.21899e-11 0.990991

-0.735716 -0.811064 2.54399e-11
-0.811064 0.230607 -2.40911e-11
2.54399e-11 -2.40911e-11 -0.109752

0.898169 0.0912872 4.62559e-12
0.0912872 1.68821 3.53915e-11
4.62559e-12 3.53915e-11 1.19282

1.90476 -0.0995859 1.15641e-11
-0.0995859 0.907984 7.96216e-12
1.15641e-11 7.96216e-12 1.26384

-1.19797 -0.254779 -9.25175e-12
-0.254779 -0.173327 2.98719e-11
-9.25175e-12 2.98719e-11 -0.729025

-0.791305 -0.0150854 6.93784e-12
-0.0150854 -0.499529 -5.97444e-11
6.93784e-12 -5.97444e-11 -0.731708

0.317392 0.400663 -2.00436e-11
0.400663 -0.637915 -1.26715e-11
-2.00436e-11 -1.26715e-11 -0.117254

0.203051 -0.0286597 3.35347e-11
-0.0286597 -1.74301 8.40763e-12
3.35347e-11 8.40763e-12 -0.25882

0.215137 0.407194 -1.15583e-12
0.407194 0.961696 -7.2307e-13
-1.15583e-12 -7.2307e-13 0.392841

0.206416 -0.426134 -3.27727e-12
-0.426134 0.960472 2.87171e-11
-3.27727e-12 2.87171e-11 0.393534

0.475278 -0.0767594 -7.32364e-12
-0.0767594 -0.833927 1.38598e-11
-7.32364e-12 1.38598e-11 -0.0309158

-0.524228 -0.547402 1.61891e-11
-0.547402 0.491115 -4.27863e-11
1.61891e-11 -4.27863e-11 -0.000705255

-0.524539 0.0604662 3.58467e-11
0.0604662 -1.00371 5.72386e-11
3.58467e-11 5.72386e-11 -0.793098

-0.52771 -0.0526448 1.11776e-11
-0.0526448 -1.0006 1.77305e-11
1.11776e-11 1.77305e-11 -0.791789

0.0336622 0.609747 -1.09851e-11
0.609747 -0.392571 3.82553e-11
-1.09851e-11 3.82553e-11 -0.133529

-0.305683 -0.688555 2.69821e-12
-0.688555 -0.20568 -2.91981e-11
2.69821e-12 -2.91981e-11 -0.0609531

0.374182 0.365862 -7.70947e-12
0.365862 -1.04451 -3.53167e-11
-7.70947e-12 -3.53167e-11 -0.148793

0.9071 0.53773 9.25084e-12
0.53773 0.487547 3.06934e-11
9.25084e-12 3.06934e-11 0.512449

-0.612048 -0.59648 -2.50592e-12
-0.59648 -0.0196273 -1.8502e-11
-2.50592e-12 -1.8502e-11 -0.0737047

3.44983 0.926471 3.46985e-12
0.926471 3.24745 8.60078e-12
3.46985e-12 8.60078e-12 3.43601

-0.441802 -0.131121 -2.42832e-11
-0.131121 0.599355 -2.79389e-12
-2.42832e-11 -2.79389e-12 0.073352

-0.407922 -0.196849 -3.35347e-11
-0.196849 0.651337 -3.08371e-11
-3.35347e-11 -3.08371e-11 0.0791353

-1.27485 0.272716 -4.62572e-12
0.272716 -0.313525 -1.83085e-11
-4.62572e-12 -1.83085e-11 -0.867482

-1.13031 -0.408606 5.51188e-11
-0.408606 -0.442458 -2.40901e-11
5.51188e-11 -2.40901e-11 -0.867522

0.554384 -0.0213035 -1.46472e-11
-0.0213035 -1.35976 7.13066e-12
-1.46472e-11 7.13066e-12 -0.261964

0.558356 0.0198647 1.54186e-12
0.0198647 -1.36824 -7.46792e-12
1.54186e-12 -7.46792e-12 -0.260552

-0.220269 -0.798807 5.01087e-11
-0.798807 -0.664547 -1.56102e-11
5.01087e-11 -1.56102e-11 -0.370867

-0.173934 0.805655 -5.85888e-11
0.805655 -0.72656 3.84891e-13
-5.85888e-11 3.84891e-13 -0.356879

-0.116843 -0.290139 4.20139e-11
-0.290139 -0.549475 4.25917e-11
4.20139e-11 4.25917e-11 -0.61756

-0.12954 0.289387 -2.08144e-11
0.289387 -0.539464 2.77518e-11
-2.08144e-11 2.77518e-11 -0.612143

-1.24083 -0.254558 -1.09856e-11
-0.254558 -1.75978 9.02899e-11
-1.09856e-11 9.02899e-11 -1.68425

-1.22752 0.274176 -5.99367e-11
0.274176 -1.71367 8.67012e-13
-5.99367e-11 8.67012e-13 -1.66819

-0.82121 -0.766005 9.2511e-12
-0.766005 -0.0429429 -2.28382e-11
9.2511e-12 -2.28382e-11 -0.255514

-0.818193 0.761988 2.1778e-11
0.761988 -0.0490492 1.9851e-11
2.1778e-11 1.9851e-11 -0.25816

0.358377 -0.393362 5.58914e-11
-0.393362 -0.343557 -3.0548e-11
5.58914e-11 -3.0548e-11 -0.000376747

-0.43526 -0.333449 2.27416e-11
-0.333449 0.364186 -2.56331e-11
2.27416e-11 -2.56331e-11 0.0168587

0.111838 0.641758 -5.53134e-11
0.641758 0.108295 1.22857e-11
-5.53134e-11 1.22857e-11 0.0568264

-0.365129 -0.4697 -1.07922e-11
-0.4697 0.540799 -5.13617e-11
-1.07922e-11 -5.13617e-11 0.038075

1.06017 -0.496797 2.08152e-11
-0.496797 0.678939 9.87821e-12
2.08152e-11 9.87821e-12 0.611319

0.367414 0.388285 5.78093e-13
0.388285 -0.340237 -1.26236e-11
5.78093e-13 -1.26236e-11 0.00370542

-0.38441 0.331507 -2.59704e-11
0.331507 0.375874 -1.55143e-11
-2.59704e-11 -1.55143e-11 0.0318608

-0.883306 -0.952318 -2.54395e-11
-0.952318 -0.504231 -4.11463e-11
-2.54395e-11 -4.11463e-11 -0.338002

-0.881222 0.952988 3.85437e-13
0.952988 -0.51077 3.79672e-11
3.85437e-13 3.79672e-11 -0.339442

0.269029 -0.380645 6.5527e-11
-0.380645 -0.675483 1.02622e-11
6.5527e-11 1.02622e-11 -0.162191

-1.13333 -0.714353 4.241e-12
-0.714353 -0.538994 -5.58894e-11
4.241e-12 -5.58894e-11 -1.69724

-1.59399 0.728969 4.47115e-11
0.728969 -2.05126 -3.83508e-11
4.47115e-11 -3.83508e-11 -2.08186

-0.475119 -0.539164 -4.41342e-11
-0.539164 0.260049 2.21644e-11
-4.41342e-11 2.21644e-11 -0.0880958

0.15351 0.671066 6.55218e-12
0.671066 -0.649688 -3.074e-11
6.55218e-12 -3.074e-11 -0.13302

0.0533536 0.0419316 -4.23981e-12
0.0419316 -0.703193 2.47649e-11
-4.23981e-12 2.47649e-11 -0.403307

0.108097 -0.627531 1.17562e-11
-0.627531 0.138578 -3.65227e-11
1.17562e-11 -3.65227e-11 0.0613825

1.64973 0.401499 -4.70277e-11
0.401499 1.79616 3.48846e-11
-4.70277e-11 3.48846e-11 1.51993

1.83648 0.397002 2.31287e-11
0.397002 1.44076 1.34198e-11
2.31287e-11 1.34198e-11 1.48888

0.391622 0.0815445 -4.43278e-12
0.0815445 -1.2644 -6.67314e-12
-4.43278e-12 -6.67314e-12 -0.343307

0.378038 -0.0822888 1.52253e-11
-0.0822888 -1.2692 -1.52251e-11
1.52253e-11 -1.52251e-11 -0.344898

0.0636972 -0.0690251 5.74315e-11
-0.0690251 -0.674984 5.48787e-11
5.74315e-11 5.48787e-11 -0.412122

-0.339934 0.447145 -2.05011e-11
0.447145 0.531795 -7.80494e-12
-2.05011e-11 -7.80494e-12 0.0423635

0.909754 -0.312381 1.31538e-11
-0.312381 0.0785211 1.52739e-11
1.31538e-11 1.52739e-11 0.242401

-0.372411 -0.380191 2.79448e-11
-0.380191 -0.140872 9.3472e-12
2.79448e-11 9.3472e-12 -0.228267

-0.370516 0.380729 1.38765e-11
0.380729 -0.140342 9.10629e-11
1.38765e-11 9.10629e-11 -0.22773

-0.608718 -0.0519493 -6.70657e-11
-0.0519493 -0.0689275 7.57387e-11
-6.70657e-11 7.57387e-11 -1.55462

-0.603983 0.0512386 2.15854e-11
0.0512386 -0.0813746 -9.5373e-11
2.15854e-11 -9.5373e-11 -1.55102

-0.72813 -0.653582 -7.51615e-12
-0.653582 0.249377 3.81602e-11
-7.51615e-12 3.81602e-11 -0.107863

0.502591 0.515306 4.93386e-11
0.515306 -0.44886 -4.43266e-12
4.93386e-11 -4.43266e-12 0.0223608

0.0325835 -0.0670145 1.4936e-11
-0.0670145 -0.822834 -2.2982e-11
1.4936e-11 -2.2982e-11 -0.377272

0.0339193 0.0727294 -2.00435e-11
0.0727294 -0.824449 1.89838e-11
-2.00435e-11 1.89838e-11 -0.378158

-0.815137 -0.413803 -1.92726e-12
-0.413803 -0.0277978 1.07927e-11
-1.92726e-12 1.07927e-11 -0.16267

-0.989647 -0.662414 4.23972e-12
-0.662414 -0.352925 1.80199e-11
4.23972e-12 1.80199e-11 -0.206109

3.443 -0.960831 -2.00441e-11
-0.960831 3.47306 -2.35616e-11
-2.00441e-11 -2.35616e-11 3.47296

-0.793038 -0.618799 2.77525e-11
-0.618799 -0.253846 2.04288e-11
2.77525e-11 2.04288e-11 -0.408544

-0.783374 0.624295 1.85013e-11
0.624295 -0.256904 1.46476e-11
1.85013e-11 1.46476e-11 -0.403495

-0.892803 -0.636666 -1.5421e-12
-0.636666 -0.100336 2.06217e-11
-1.5421e-12 2.06217e-11 -0.148294

0.910934 0.331386 -1.73415e-12
0.331386 0.0559518 -7.13068e-12
-1.73415e-12 -7.13068e-12 0.232135

0.0515702 -0.585312 -3.44022e-11
-0.585312 -0.432489 1.24315e-11
-3.44022e-11 1.24315e-11 -0.152917

-0.118707 -0.651201 2.04286e-11
-0.651201 -0.638717 2.69813e-11
2.04286e-11 2.69813e-11 -0.319424

-0.085785 0.635408 -4.97234e-11
0.635408 -0.650612 -4.46159e-11
-4.97234e-11 -4.46159e-11 -0.310086

0.341196 -0.363471 5.43492e-11
-0.363471 -1.1112 -1.78754e-11
5.43492e-11 -1.78754e-11 -0.183056

-0.0480862 0.16184 -1.32986e-11
0.16184 -1.12759 -6.55283e-12
-1.32986e-11 -6.55283e-12 -0.583524

-0.0540759 -0.158865 -1.11779e-11
-0.158865 -1.11435 -6.19605e-11
-1.11779e-11 -6.19605e-11 -0.58041

-1.78006 -0.25306 1.92715e-11
-0.25306 -0.427393 8.28753e-12
1.92715e-11 8.28753e-12 -1.54534

-1.51891 0.553843 2.31216e-12
0.553843 -0.525974 -1.50321e-11
2.31216e-12 -1.50321e-11 -1.50717

2.09896 0.0817857 -1.34932e-11
0.0817857 1.15499 3.18108e-12
-1.34932e-11 3.18108e-12 2.08286

1.45472 0.152562 -2.96817e-11
0.152562 1.91784 9.75134e-12
-2.96817e-11 9.75134e-12 2.09451

-0.577851 0.608785 2.2163e-11
0.608785 0.165308 -4.00869e-11
2.2163e-11 -4.00869e-11 -0.149999

-0.575874 -0.609164 -1.56108e-11
-0.609164 0.168028 2.24526e-11
-1.56108e-11 2.24526e-11 -0.148923

-0.711022 -0.779999 -1.54159e-12
-0.779999 0.238195 -1.44545e-11
-1.54159e-12 -1.44545e-11 -0.10849

2.12306 -0.405238 -1.34917e-11
-0.405238 2.04189 3.64043e-11
-1.34917e-11 3.64043e-11 2.35805

2.21576 -0.334441 -6.93847e-11
-0.334441 2.08673 -4.77746e-11
-6.93847e-11 -4.77746e-11 2.39312

-2.20485 0.540524 -3.85418e-11
0.540524 -1.1218 1.48493e-10
-3.85418e-11 1.48493e-10 -2.0916

-2.21948 -0.568266 2.4472e-11
-0.568266 -1.17928 2.42542e-10
2.4472e-11 2.42542e-10 -2.1063

-0.0441771 -0.737015 -2.54403e-11
-0.737015 -0.487807 2.61145e-11
-2.54403e-11 2.61145e-11 -0.137376

-0.0572461 -0.594311 2.04282e-11
-0.594311 0.313976 2.80413e-11
2.04282e-11 2.80413e-11 0.0589935

-0.548898 0.586054 6.84178e-11
0.586054 -0.115747 2.41885e-11
6.84178e-11 2.41885e-11 -0.200531

-0.548777 -0.58583 5.78195e-13
-0.58583 -0.116811 1.44532e-12
5.78195e-13 1.44532e-12 -0.200568

-0.380231 -0.69229 3.70038e-11
-0.69229 0.209514 -4.04817e-12
3.70038e-11 -4.04817e-12 -0.0460922

-0.0424585 0.602583 -1.50322e-11
0.602583 0.306322 1.92718e-12
-1.50322e-11 1.92718e-12 0.0606795

0.800905 -0.221661 1.27207e-11
-0.221661 1.42696 3.85599e-12
1.27207e-11 3.85599e-12 0.918149

0.84419 0.18645 1.96581e-11
0.18645 1.50555 -9.78131e-12
1.96581e-11 -9.78131e-12 0.952027

1.57399 0.159133 2.73685e-11
0.159133 0.779564 8.01036e-12
2.73685e-11 8.01036e-12 0.962273

-0.373226 0.690552 -2.94866e-11
0.690552 0.211623 5.25184e-11
-2.94866e-11 5.25184e-11 -0.0439529

1.08231 -0.104268 1.96588e-11
-0.104268 1.76265 -7.29918e-12
1.96588e-11 -7.29918e-12 1.29133

1.87188 -0.062762 3.85484e-12
-0.062762 0.89116 -1.70326e-11
3.85484e-12 -1.70326e-11 1.28305

-0.733324 -0.567596 1.81165e-11
-0.567596 -0.215219 -1.68634e-11
1.81165e-11 -1.68634e-11 -0.341725

-0.726719 0.564764 -2.31311e-12
0.564764 -0.21362 -6.46596e-11
-2.31311e-12 -6.46596e-11 -0.34023

-0.758271 -0.430255 -3.66155e-12
-0.430255 -0.283198 5.70471e-11
-3.66155e-12 5.70471e-11 -0.406684

-0.754394 0.430123 -2.50538e-11
0.430123 -0.294556 1.63815e-11
-2.50538e-11 1.63815e-11 -0.40817

2.31015 0.372436 5.58935e-11
0.372436 2.08468 3.72711e-11
5.58935e-11 3.72711e-11 2.47802

2.29852 0.355025 -7.74799e-11
0.355025 2.12918 8.57707e-12
-7.74799e-11 8.57707e-12 2.49401

-0.223848 0.537488 2.13928e-11
0.537488 0.151853 3.99909e-11
2.13928e-11 3.99909e-11 -0.048899

-0.222933 -0.541087 -4.00872e-11
-0.541087 0.156921 1.32025e-11
-4.00872e-11 1.32025e-11 -0.0477744

-1.25905 -0.524132 -1.92861e-12
-0.524132 -0.51718 3.93151e-11
-1.92861e-12 3.93151e-11 -1.04365

-1.10065 0.235293 -3.46993e-12
0.235293 -0.97979 -3.9893e-11
-3.46993e-12 -3.9893e-11 -1.1065

-0.928274 -0.586246 2.77556e-16
-0.586246 -0.0360219 -5.07832e-11
2.77556e-16 -5.07832e-11 -0.365845

-0.932395 0.586506 5.0108e-12
0.586506 -0.0562863 1.8309e-11
5.0108e-12 1.8309e-11 -0.372779

-0.403074 0.0405242 3.64251e-11
0.0405242 -1.34788 -1.60926e-11
3.64251e-11 -1.60926e-11 -0.737834

-0.404164 -0.0350386 3.33415e-11
-0.0350386 -1.34258 -4.97706e-11
3.33415e-11 -4.97706e-11 -0.73567

-0.445886 -0.662255 -8.09477e-12
-0.662255 -0.384814 3.72925e-11
-8.09477e-12 3.72925e-11 -0.213159

-0.421528 0.67068 1.07925e-11
0.67068 -0.404032 -4.75068e-11
1.07925e-11 -4.75068e-11 -0.211796

-0.683152 0.162337 4.97227e-11
0.162337 -1.53634 3.08365e-12
4.97227e-11 3.08365e-12 -1.24163

-1.30043 0.0270302 -1.07929e-11
0.0270302 -1.81704 1.92716e-11
-1.07929e-11 1.92716e-11 -1.71394

-0.683117 -0.164689 -4.77957e-11
-0.164689 -1.53377 -2.50537e-11
-4.77957e-11 -2.50537e-11 -1.24118

-1.30246 -0.0435138 1.81165e-11
-0.0435138 -1.84895 -1.61892e-11
1.81165e-11 -1.61892e-11 -1.72076

-1.50442 0.0275436 1.85009e-11
0.0275436 -0.774356 -4.16285e-11
1.85009e-11 -4.16285e-11 -1.33103

-0.415713 0.65458 3.08354e-11
0.65458 -0.89892 1.53215e-11
3.08354e-11 1.53215e-11 -1.18159

-0.414076 -0.65207 -3.73883e-11
-0.65207 -0.896111 7.31384e-11
-3.73883e-11 7.31384e-11 -1.18393

-1.7947 -0.349992 6.55309e-12
-0.349992 -0.103586 -4.95303e-11
6.55309e-12 -4.95303e-11 -1.24619

-1.8316 -0.309864 -1.827e-10
-0.309864 -1.64917 -8.0076e-11
-1.827e-10 -8.0076e-11 -1.82237

0.374342 -0.449007 -1.73436e-12
-0.449007 -3.30703 -3.18933e-11
-1.73436e-12 -3.18933e-11 -2.10894

-1.86381 0.326423 1.76148e-10
0.326423 -1.59051 1.8328e-10
1.76148e-10 1.8328e-10 -1.80842

0.380518 0.415005 -2.27028e-10
0.415005 -3.16966 4.39341e-11
-2.27028e-10 4.39341e-11 -2.06928

-1.09486 -0.424034 -3.84748e-13
-0.424034 -1.2734 -4.01824e-11
-3.84748e-13 -4.01824e-11 -1.34121

-0.878271 -0.294235 -2.67882e-11
-0.294235 -0.427062 -3.05467e-11
-2.67882e-11 -3.05467e-11 -0.689007

-1.70998 -0.0241037 1.67665e-11
-0.0241037 -2.12417 -2.36086e-11
1.67665e-11 -2.36086e-11 -2.0271

-1.10959 0.445273 -1.04069e-11
0.445273 -1.26548 2.96792e-11
-1.04069e-11 2.96792e-11 -1.3382

-0.872758 0.304399 -5.78176e-12
0.304399 -0.446643 -6.64897e-12
-5.78176e-12 -6.64897e-12 -0.692468

-1.69767 0.0273122 -3.27625e-11
0.0273122 -2.04068 7.46797e-11
-3.27625e-11 7.46797e-11 -1.99935

-1.19311 -0.242595 -1.40685e-11
-0.242595 -0.830842 -1.19489e-11
-1.40685e-11 -1.19489e-11 -0.954137

-1.04566 -0.135371 5.41555e-11
-0.135371 -1.2314 6.04183e-11
5.41555e-11 6.04183e-11 -1.26824

-1.18098 0.254169 6.16743e-12
0.254169 -0.829464 3.30523e-11
6.16743e-12 3.30523e-11 -0.949383

-1.03834 0.141608 -1.9272e-11
0.141608 -1.22549 5.70456e-11
-1.9272e-11 5.70456e-11 -1.26293

0.0266999 0.574011 1.29133e-11
0.574011 0.687083 1.73419e-12
1.29133e-11 1.73419e-12 0.179636

-0.79783 0.115619 2.89086e-11
0.115619 0.420596 -2.54397e-11
2.89086e-11 -2.54397e-11 -0.122514

-0.284009 0.31054 -2.15849e-11
0.31054 0.188071 -1.54187e-11
-2.15849e-11 -1.54187e-11 -0.0901422

0.519722 -0.375142 3.66171e-12
-0.375142 -0.726199 -1.54153e-12
3.66171e-12 -1.54153e-12 -8.72068e-05

0.721247 -0.229501 1.93068e-13
-0.229501 -0.414061 2.11994e-11
1.93068e-13 2.11994e-11 0.126298

-1.38102 0.176423 -1.13707e-11
0.176423 0.276803 4.27853e-11
-1.13707e-11 4.27853e-11 -0.424051

-0.953147 0.321043 -6.36023e-12
0.321043 -0.380725 -1.37802e-11
-6.36023e-12 -1.37802e-11 -0.472988

0.69973 -0.00227118 -6.55239e-12
-0.00227118 -0.381774 -6.16764e-12
-6.55239e-12 -6.16764e-12 0.126459

0.0814382 0.145238 2.50517e-12
0.145238 -1.24798 1.52251e-11
2.50517e-12 1.52251e-11 -0.209345

0.416261 0.49563 -1.8117e-11
0.49563 1.14162 2.31274e-12
-1.8117e-11 2.31274e-12 0.570652

0.299425 0.391236 -2.11994e-12
0.391236 1.19632 3.4685e-12
-2.11994e-12 3.4685e-12 0.604463

1.1526 0.392384 1.64782e-11
0.392384 0.451431 -4.23953e-12
1.64782e-11 -4.23953e-12 0.633215

-0.535077 -0.602135 -2.89059e-12
-0.602135 -0.204049 -2.00435e-11
-2.89059e-12 -2.00435e-11 -0.388979

-0.614336 -0.252401 -1.07923e-11
-0.252401 0.0485496 -3.27633e-11
-1.07923e-11 -3.27633e-11 -0.345818

0.0309637 -0.691553 -1.85014e-11
-0.691553 -0.0571658 -9.25081e-12
-1.85014e-11 -9.25081e-12 0.0129984

-0.449795 0.557901 2.40908e-11
0.557901 0.420979 1.81166e-11
2.40908e-11 1.81166e-11 -0.000515494

-0.63083 0.652609 2.21636e-11
0.652609 0.180692 -1.34907e-11
2.21636e-11 -1.34907e-11 -0.111405

-0.977075 -0.315555 8.86531e-12
-0.315555 -0.39083 -2.48617e-11
8.86531e-12 -2.48617e-11 -0.489884

-1.38255 -0.209158 -2.89082e-12
-0.209158 0.311805 -9.25101e-12
-2.89082e-12 -9.25101e-12 -0.42458

0.631632 0.174939 2.14894e-11
0.174939 -0.730701 1.92733e-11
2.14894e-11 1.92733e-11 -0.0153936

0.291889 0.163341 -1.42628e-11
0.163341 1.21954 -7.90246e-12
-1.42628e-11 -7.90246e-12 0.456975

0.100192 0.0716777 -1.12736e-11
0.0716777 1.20894 7.70939e-13
-1.12736e-11 7.70939e-13 0.450703

1.29106 0.0679077 2.12962e-11
0.0679077 0.292849 -1.38762e-11
2.12962e-11 -1.38762e-11 0.510192

-0.243849 0.390982 3.38237e-11
0.390982 0.707879 2.58259e-11
3.38237e-11 2.58259e-11 0.162159

0.00620534 0.640753 -2.50533e-12
0.640753 0.552664 7.13083e-12
-2.50533e-12 7.13083e-12 0.155725

0.411043 0.108296 2.67894e-11
0.108296 -0.788494 -3.8531e-13
2.67894e-11 -3.8531e-13 -0.0313455

1.12033 0.296135 -9.05839e-12
0.296135 1.67773 3.95109e-11
-9.05839e-12 3.95109e-11 1.07666

0.302396 -0.401789 -3.66185e-11
-0.401789 -1.06073 1.31056e-11
-3.66185e-11 1.31056e-11 -0.135274

-0.744894 0.0305725 3.21848e-11
0.0305725 0.144477 1.5418e-11
3.21848e-11 1.5418e-11 -0.455643

-0.479299 0.00915213 4.04721e-12
0.00915213 -0.361685 -2.1778e-11
4.04721e-12 -2.1778e-11 -0.489824

-0.179497 0.270444 -3.66175e-11
0.270444 -1.70414 -2.92935e-11
-3.66175e-11 -2.92935e-11 -1.37437

-0.0597023 -0.651325 5.04938e-11
-0.651325 -1.15314 3.8544e-12
5.04938e-11 3.8544e-12 -1.28735

-0.116857 -0.734205 2.31279e-11
-0.734205 0.0783482 -1.77313e-11
2.31279e-11 -1.77313e-11 0.0254249

-0.181113 -0.593262 -1.50327e-11
-0.593262 0.477809 -3.08347e-12
-1.50327e-11 -3.08347e-12 0.129191

1.18677 -0.204208 5.87813e-12
-0.204208 0.0909011 8.86624e-12
5.87813e-12 8.86624e-12 0.45942

-0.110028 0.103706 4.54831e-11
0.103706 -0.839965 3.60395e-11
4.54831e-11 3.60395e-11 -0.513768

-0.0110402 -0.382976 -5.78133e-12
-0.382976 -0.693391 5.3961e-12
-5.78133e-12 5.3961e-12 -0.472957

0.105005 -0.170698 -3.97016e-11
-0.170698 -1.23042 -1.92728e-11
-3.97016e-11 -1.92728e-11 -0.198023

0.181872 -0.0513666 -9.44359e-12
-0.0513666 -1.3333 7.32323e-12
-9.44359e-12 7.32323e-12 -0.165814

0.715637 -0.604844 2.04303e-11
-0.604844 0.123251 1.92742e-12
2.04303e-11 1.92742e-12 0.251608

0.88596 0.279552 6.16753e-12
0.279552 -0.123747 -1.19493e-11
6.16753e-12 -1.19493e-11 0.251883

0.822818 -0.493692 -1.50333e-11
-0.493692 -0.152122 1.07933e-11
-1.50333e-11 1.07933e-11 0.234193

-1.02393 0.407518 1.05997e-11
0.407518 0.283404 7.70994e-13
1.05997e-11 7.70994e-13 -0.117943

-0.184552 -0.491523 3.50766e-11
-0.491523 0.663703 3.70039e-11
3.50766e-11 3.70039e-11 0.163383

-0.223812 0.472035 3.62334e-11
0.472035 0.481375 9.63686e-12
3.62334e-11 9.63686e-12 0.125754

3.28375 -0.750117 -3.89329e-11
-0.750117 3.31647 -2.54406e-11
-3.89329e-11 -2.54406e-11 3.26943

3.07217 0.462205 -1.27199e-11
0.462205 3.31244 2.8911e-11
-1.27199e-11 2.8911e-11 3.22762

-1.22815 -0.565357 3.08409e-12
-0.565357 0.0461054 -3.00653e-11
3.08409e-12 -3.00653e-11 -0.323642

-0.704522 0.373415 4.93386e-11
0.373415 0.468379 -5.24223e-11
4.93386e-11 -5.24223e-11 -0.0011865

1.883 0.0782743 1.5226e-11
0.0782743 1.95099 -3.00667e-11
1.5226e-11 -3.00667e-11 2.14395

1.95409 -0.151654 2.58266e-11
-0.151654 2.18641 -1.75395e-11
2.58266e-11 -1.75395e-11 2.20241

-0.730918 -0.222007 -1.87913e-12
-0.222007 -0.388719 -4.22066e-11
-1.87913e-12 -4.22066e-11 -0.573142

-0.77507 0.473377 4.48076e-11
0.473377 -0.580591 5.20365e-11
4.48076e-11 5.20365e-11 -0.583261

0.775635 0.00540033 2.75118e-11
0.00540033 -0.857099 2.56323e-11
2.75118e-11 2.56323e-11 -0.0188908

-0.787365 -0.147584 7.37102e-12
-0.147584 -0.717483 1.03493e-10
7.37102e-12 1.03493e-10 -0.656719

-0.775468 0.44257 2.06217e-11
0.44257 -0.573544 -1.73454e-11
2.06217e-11 -1.73454e-11 -0.598053

-0.247169 0.488566 -4.50975e-11
0.488566 -1.51204 3.6424e-11
-4.50975e-11 3.6424e-11 -1.10843

-0.314857 -0.597493 1.04075e-11
-0.597493 -0.976805 9.25116e-12
1.04075e-11 9.25116e-12 -1.06089

-0.41104 -0.356174 -3.85393e-12
-0.356174 -0.354771 -2.36573e-11
-3.85393e-12 -2.36573e-11 -0.285799

-0.41673 0.473257 9.15656e-13
0.473257 -0.448373 -1.62856e-11
9.15656e-13 -1.62856e-11 -0.267323

-1.27841 -0.0387804 -3.25704e-11
-0.0387804 0.0260071 -3.54615e-11
-3.25704e-11 -3.54615e-11 -1.01856

-1.32727 0.170854 1.13706e-11
0.170854 -0.732127 -1.02142e-11
1.13706e-11 -1.02142e-11 -1.1446

-0.100362 -0.675744 5.20359e-12
-0.675744 0.671628 4.62542e-12
5.20359e-12 4.62542e-12 0.14124

0.900718 0.0709123 -3.31505e-11
0.0709123 1.61079 -5.85917e-11
-3.31505e-11 -5.85917e-11 1.10091

1.56415 0.091593 -2.7561e-11
0.091593 0.980903 -2.96809e-11
-2.7561e-11 -2.96809e-11 1.10246

-1.02751 0.356089 -2.27417e-11
0.356089 0.366946 -6.16753e-12
-2.27417e-11 -6.16753e-12 -0.126904

-0.632957 0.524171 1.11782e-11
0.524171 0.220258 -2.21636e-11
1.11782e-11 -2.21636e-11 -0.113474

-1.52426 -0.498509 8.07266e-11
-0.498509 -2.4156 2.91005e-11
8.07266e-11 2.91005e-11 -2.31049

-1.57892 0.769761 -1.13077e-10
0.769761 -0.692321 1.80387e-10
-1.13077e-10 1.80387e-10 -1.97955

0.521557 0.477806 -1.85022e-11
0.477806 0.268822 -2.25494e-11
-1.85022e-11 -2.25494e-11 0.223738

-0.636738 0.810772 4.56759e-11
0.810772 0.17473 1.67678e-11
4.56759e-11 1.67678e-11 -0.115101

0.0953238 0.306429 -1.58961e-12
0.306429 -0.704564 -1.2334e-11
-1.58961e-12 -1.2334e-11 -0.156274

0.116817 -0.241369 -1.44061e-11
-0.241369 -0.697088 -1.29124e-11
-1.44061e-11 -1.29124e-11 -0.174074

-0.577537 0.769186 -1.92729e-11
0.769186 -0.0600757 -1.27205e-11
-1.92729e-11 -1.27205e-11 -0.165023

-0.844746 -0.760177 -1.10815e-11
-0.760177 -0.0171216 -2.02365e-11
-1.10815e-11 -2.02365e-11 -0.293627

-0.00991174 -0.649172 -3.23773e-11
-0.649172 -1.08181 -1.42616e-11
-3.23773e-11 -1.42616e-11 -0.452216

1.15719 -0.0577314 -2.20673e-11
-0.0577314 0.11995 -4.25934e-11
-2.20673e-11 -4.25934e-11 0.460693

-0.235661 0.0921606 1.61891e-11
0.0921606 -0.713136 -1.00214e-11
1.61891e-11 -1.00214e-11 -1.48612

-0.203513 -0.0579141 4.00871e-11
-0.0579141 -1.74519 -4.1627e-11
4.00871e-11 -4.1627e-11 -1.6339

0.108285 0.588669 1.23345e-11
0.588669 -0.150134 2.73676e-11
1.23345e-11 2.73676e-11 0.0111471

0.620112 0.222995 3.03544e-11
0.222995 -0.493537 -3.46838e-12
3.03544e-11 -3.46838e-12 0.0270857

0.69367 0.501987 2.8331e-11
0.501987 0.923877 2.89097e-11
2.8331e-11 2.89097e-11 0.516129

-1.58201 0.121308 -1.16982e-10
0.121308 -1.21072 -4.25919e-11
-1.16982e-10 -4.25919e-11 -1.51241

-1.21582 0.350584 3.10278e-11
0.350584 -0.115642 3.84327e-13
3.10278e-11 3.84327e-13 -1.26672

-0.120831 0.321736 3.81599e-11
0.321736 -1.31788 -2.89059e-12
3.81599e-11 -2.89059e-12 -0.518308

-0.829987 -0.136151 -8.57592e-12
-0.136151 0.441654 7.32365e-12
-8.57592e-12 7.32365e-12 -0.145112

-0.321884 -0.291737 3.26667e-11
-0.291737 0.197352 1.272e-11
3.26667e-11 1.272e-11 -0.11523

0.487344 0.0937067 -1.43823e-11
0.0937067 -1.08409 -1.88874e-11
-1.43823e-11 -1.88874e-11 -0.141568

0.541834 -0.0712574 1.54903e-11
-0.0712574 -1.0911 2.00432e-11
1.54903e-11 2.00432e-11 -0.141154

1.02016 -0.501984 -4.96285e-11
-0.501984 0.786155 4.04758e-12
-4.96285e-11 4.04758e-12 0.565363

0.947532 0.00189579 -1.65268e-11
0.00189579 -0.408364 -7.51584e-12
-1.65268e-11 -7.51584e-12 0.141486

0.0930936 -0.0793481 2.13443e-11
-0.0793481 -1.04549 -8.09442e-12
2.13443e-11 -8.09442e-12 -0.329367

-0.0219895 0.165891 8.28729e-12
0.165891 -0.919152 5.47334e-11
8.28729e-12 5.47334e-11 -0.308425

0.657072 -0.207178 -3.58473e-11
-0.207178 -0.35853 1.56108e-11
-3.58473e-11 1.56108e-11 0.0406877

-0.0378426 -0.59688 5.97485e-12
-0.59688 0.650612 -1.88878e-11
5.97485e-12 -1.88878e-11 0.144211

0.5309 -0.0453604 1.66714e-11
-0.0453604 -0.755887 -8.86518e-12
1.66714e-11 -8.86518e-12 -0.113828

0.449521 0.105876 -2.28863e-11
0.105876 -0.796667 -2.44765e-11
-2.28863e-11 -2.44765e-11 -0.120876

0.367039 0.243097 2.89021e-12
0.243097 -0.599442 -2.69824e-12
2.89021e-12 -2.69824e-12 -0.0232219

0.411962 -0.758947 2.69843e-12
-0.758947 0.31179 1.34909e-11
2.69843e-12 1.34909e-11 0.271464

-0.861231 0.733971 7.80526e-12
0.733971 -0.185705 -4.66401e-11
7.80526e-12 -4.66401e-11 -0.168795

-0.657896 0.722245 -7.3233e-12
0.722245 0.200481 4.43271e-11
-7.3233e-12 4.43271e-11 -0.124461

-1.04466 0.544243 4.14381e-12
0.544243 -0.226275 4.43272e-11
4.14381e-12 4.43272e-11 -0.215638

0.918065 0.265064 -2.21673e-12
0.265064 -0.250245 -8.09487e-12
-2.21673e-12 -8.09487e-12 0.209401

1.41006 -0.52313 -1.0407e-11
-0.52313 0.951395 -5.16527e-11
-1.0407e-11 -5.16527e-11 0.961899

-0.068122 0.442508 -2.50553e-11
0.442508 -0.681379 -2.08153e-11
-2.50553e-11 -2.08153e-11 -0.193424

0.504469 -0.47172 1.17562e-11
-0.47172 -0.461124 5.97452e-11
1.17562e-11 5.97452e-11 0.0312469

1.43384 -0.453373 3.35357e-11
-0.453373 0.851744 2.46696e-11
3.35357e-11 2.46696e-11 0.929843

0.234127 -0.75693 -5.78126e-12
-0.75693 -0.272782 -3.85756e-13
-5.78126e-12 -3.85756e-13 0.0218502

-0.777529 0.0197696 1.50325e-11
0.0197696 0.0868041 8.09464e-12
1.50325e-11 8.09464e-12 -0.198412

-1.13243 3.91669e-05 2.96798e-11
3.91669e-05 0.563348 -2.9295e-11
2.96798e-11 -2.9295e-11 -0.150184

0.31973 0.645364 3.08399e-12
0.645364 0.377266 -1.63824e-11
3.08399e-12 -1.63824e-11 0.222944

1.15682 -0.535717 -1.85027e-11
-0.535717 0.404959 3.1994e-11
-1.85027e-11 3.1994e-11 0.577614

-0.539258 -0.787057 -2.15857e-11
-0.787057 -0.268304 1.11777e-11
-2.15857e-11 1.11777e-11 -0.156254

0.311208 -0.701014 -1.73423e-12
-0.701014 0.673696 -1.44545e-11
-1.73423e-12 -1.44545e-11 0.265775

0.304278 -0.709308 -2.15848e-11
-0.709308 0.623321 -3.77747e-11
-2.15848e-11 -3.77747e-11 0.297625

0.344732 0.362596 3.54614e-11
0.362596 -0.337808 -5.78158e-12
3.54614e-11 -5.78158e-12 0.00558459

0.179655 0.230497 -1.92749e-12
0.230497 -1.88454 -2.9294e-11
-1.92749e-12 -2.9294e-11 -0.381026

0.157817 -0.363278 -1.54178e-11
-0.363278 -1.55856 -6.55243e-12
-1.54178e-11 -6.55243e-12 -0.340407

-0.138594 0.404145 2.50569e-12
0.404145 0.777749 -1.23353e-11
2.50569e-12 -1.23353e-11 0.179543

-0.404762 0.274994 -2.25495e-11
0.274994 0.873309 -8.09478e-12
-2.25495e-11 -8.09478e-12 0.173743

0.0585956 -0.0580147 -9.63641e-12
-0.0580147 1.27121 -5.58995e-12
-9.63641e-12 -5.58995e-12 0.475466

-0.0585059 -0.0780084 -1.50324e-11
-0.0780084 1.34461 8.4804e-12
-1.50324e-11 8.4804e-12 0.502714

1.4144 -0.05089 1.00217e-11
-0.05089 0.0895794 1.94657e-11
1.00217e-11 1.94657e-11 0.54998

0.523498 -0.638236 1.92706e-12
-0.638236 0.152471 -1.54184e-11
1.92706e-12 -1.54184e-11 0.207029

-2.20963 -0.475384 -3.95079e-11
-0.475384 -1.49177 -6.62966e-11
-3.95079e-11 -6.62966e-11 -2.09141

-0.19328 -0.189455 6.55245e-12
-0.189455 -0.189938 2.92933e-11
6.55245e-12 2.92933e-11 -1.48558

0.734095 0.450698 -2.12016e-11
0.450698 -0.0213751 2.65961e-11
-2.12016e-11 2.65961e-11 0.250364

0.918102 -0.306026 2.20678e-11
-0.306026 -0.277045 2.58257e-11
2.20678e-11 2.58257e-11 0.183868

1.36667 0.281586 -1.44555e-11
0.281586 0.717304 -1.34914e-11
-1.44555e-11 -1.34914e-11 0.853486

-0.780114 0.462449 -3.08362e-12
0.462449 0.179654 -5.55058e-11
-3.08362e-12 -5.55058e-11 -0.0635796

0.785428 0.00904187 1.68153e-11
0.00904187 -0.837898 3.21849e-11
1.68153e-11 3.21849e-11 -0.0175486

-0.86466 0.708869 3.91228e-11
0.708869 -0.0339546 1.92789e-12
3.91228e-11 1.92789e-12 -0.263075

-1.41688 0.56238 1.16597e-11
0.56238 0.0479816 1.00216e-11
1.16597e-11 1.00216e-11 -0.32704

0.569917 0.362286 8.38332e-12
0.362286 0.960366 6.74516e-12
8.38332e-12 6.74516e-12 0.533862

0.911239 0.403229 2.55367e-11
0.403229 0.801398 5.39717e-12
2.55367e-11 5.39717e-12 0.578234

-0.681694 -0.854213 -2.5921e-11
-0.854213 0.157414 -2.81379e-11
-2.5921e-11 -2.81379e-11 -0.153806

1.37792 0.227589 -2.44772e-11
0.227589 0.68966 -5.39559e-12
-2.44772e-11 -5.39559e-12 0.845734

-1.06304 0.630536 2.38018e-11
0.630536 -0.427609 1.23349e-11
2.38018e-11 1.23349e-11 -0.240066

-0.381063 0.769774 -1.13709e-11
0.769774 0.33774 1.85017e-11
-1.13709e-11 1.85017e-11 -0.00786898

0.699425 -0.0104549 -3.75831e-12
-0.0104549 -1.2275 2.50516e-12
-3.75831e-12 2.50516e-12 -0.114204

-0.880243 -0.582411 -1.07925e-11
-0.582411 -0.418531 2.7293e-16
-1.07925e-11 2.7293e-16 -0.240301

0.0840805 0.628212 -1.92836e-13
0.628212 0.126292 -1.06e-11
-1.92836e-13 -1.06e-11 0.0526756

0.270637 -0.306863 1.54188e-12
-0.306863 1.12491 -2.94879e-11
1.54188e-12 -2.94879e-11 0.403698

0.0551314 -0.292615 1.73506e-12
-0.292615 1.15831 -6.16759e-12
1.73506e-12 -6.16759e-12 0.401497

1.17059 -0.217002 1.34908e-11
-0.217002 0.293436 4.83748e-11
1.34908e-11 4.83748e-11 0.446612

0.427148 -0.573436 1.73493e-12
-0.573436 0.512838 -2.62112e-11
1.73493e-12 -2.62112e-11 0.237545

-0.523155 -0.0379301 2.29347e-11
-0.0379301 0.795721 -4.62565e-12
2.29347e-11 -4.62565e-12 0.0854217

-0.0775825 -0.00487897 2.2549e-11
-0.00487897 0.697034 9.63914e-13
2.2549e-11 9.63914e-13 0.123276

0.705263 -0.614024 -5.97564e-12
-0.614024 0.987608 5.4351e-11
-5.97564e-12 5.4351e-11 0.597479

0.52827 -0.597329 2.31232e-12
-0.597329 1.08123 2.38987e-11
2.31232e-12 2.38987e-11 0.604522

0.671769 -0.0309103 1.94415e-11
-0.0309103 -1.12507 -3.12211e-11
1.94415e-11 -3.12211e-11 -0.111703

0.718337 0.0326576 -1.75625e-11
0.0326576 -1.14848 1.00214e-11
-1.75625e-11 1.00214e-11 -0.114255

-0.616859 0.586849 1.25273e-11
0.586849 -0.0492548 -2.85236e-11
1.25273e-11 -2.85236e-11 -0.0788376

-1.37411 -0.495639 -2.46681e-11
-0.495639 0.0166888 -6.55302e-12
-2.46681e-11 -6.55302e-12 -0.3123

-0.0610249 -0.76091 6.16773e-12
-0.76091 -0.483434 -4.31717e-11
6.16773e-12 -4.31717e-11 -0.138745

-0.424008 0.288733 3.45225e-11
0.288733 -0.736239 -7.41916e-12
3.45225e-11 -7.41916e-12 -0.416109

-0.321736 -0.0850249 3.84251e-11
-0.0850249 -0.607637 -2.10062e-11
3.84251e-11 -2.10062e-11 -0.398958

0.14689 -0.314659 -1.93206e-11
-0.314659 -0.200764 3.46889e-12
-1.93206e-11 3.46889e-12 -0.084874

0.0865126 0.380483 1.37799e-11
0.380483 -0.425523 3.27641e-11
1.37799e-11 3.27641e-11 -0.105885

1.82468 -0.317927 -1.81171e-11
-0.317927 1.12804 -6.70725e-11
-1.81171e-11 -6.70725e-11 1.99102

0.189874 0.603512 2.82356e-11
0.603512 0.569335 2.12008e-11
2.82356e-11 2.12008e-11 0.25693

1.38295 0.219903 -1.5612e-11
0.219903 1.84037 2.15864e-11
-1.5612e-11 2.15864e-11 2.03429

-0.299054 0.681133 -1.98507e-11
0.681133 0.0849381 -4.24049e-12
-1.98507e-11 -4.24049e-12 -0.0538514

-0.175661 -0.476129 1.55151e-11
-0.476129 0.843762 1.07932e-11
1.55151e-11 1.07932e-11 0.175816

-0.415058 -0.424492 2.31262e-12
-0.424492 0.830173 5.31935e-11
2.31262e-12 5.31935e-11 0.164363

-0.953662 -0.145336 -7.86552e-12
-0.145336 -1.12309 2.3513e-11
-7.86552e-12 2.3513e-11 -1.15469

-1.16661 0.40289 4.85785e-11
0.40289 -0.72047 -3.08289e-12
4.85785e-11 -3.08289e-12 -1.10421

0.238838 0.450315 7.03546e-12
0.450315 -0.110975 -8.48027e-12
7.03546e-12 -8.48027e-12 0.0502021

0.958606 -0.0445817 -7.85398e-12
-0.0445817 -0.344765 -9.25017e-12
-7.85398e-12 -9.25017e-12 0.150932

0.571483 0.504705 -6.07122e-12
0.504705 0.103589 -2.77534e-11
-6.07122e-12 -2.77534e-11 0.242139

-0.996081 -0.292194 2.27416e-11
-0.292194 0.49334 -1.1562e-12
2.27416e-11 -1.1562e-12 -0.11963

-0.667717 -0.482653 -1.07927e-11
-0.482653 0.189559 5.78223e-13
-1.07927e-11 5.78223e-13 -0.151706

-0.727046 -0.87709 -2.98721e-11
-0.87709 0.366195 -5.20349e-12
-2.98721e-11 -5.20349e-12 -0.120843

0.267298 -0.484287 3.10292e-11
-0.484287 0.0817329 7.90164e-12
3.10292e-11 7.90164e-12 0.0549764

-0.713913 0.817271 -5.78169e-13
0.817271 0.169673 1.484e-11
-5.78169e-13 1.484e-11 -0.116337

-0.601705 0.377618 -4.10505e-11
0.377618 -0.0665081 -8.19051e-12
-4.10505e-11 -8.19051e-12 -0.362095

-0.567414 0.573369 -3.70031e-11
0.573369 -0.27689 1.43578e-11
-3.70031e-11 1.43578e-11 -0.392301

-0.483533 -0.766702 -6.74507e-12
-0.766702 0.413649 1.92721e-13
-6.74507e-12 1.92721e-13 -0.0385441

-0.365179 0.696649 3.85456e-12
0.696649 0.303052 -4.0475e-12
3.85456e-12 -4.0475e-12 -0.0182785

-1.44781 0.87861 -8.76906e-12
0.87861 -0.221844 2.38981e-11
-8.76906e-12 2.38981e-11 -0.258054

-0.674697 0.0820565 -2.58248e-11
0.0820565 0.836392 8.48042e-12
-2.58248e-11 8.48042e-12 0.0784265

-0.409836 0.191449 -3.60401e-11
0.191449 0.652042 1.56106e-11
-3.60401e-11 1.56106e-11 0.0624331

-0.212258 0.539526 3.498e-11
0.539526 -0.30422 -1.92733e-12
3.498e-11 -1.92733e-12 -0.101929

0.384206 0.452938 7.3239e-12
0.452938 0.327936 3.43061e-11
7.3239e-12 3.43061e-11 0.22706

-0.660885 -0.470426 3.19927e-11
-0.470426 0.433969 -1.46481e-11
3.19927e-11 -1.46481e-11 -0.00775763

-0.808004 -0.825162 1.15646e-12
-0.825162 0.0932252 -3.66169e-12
1.15646e-12 -3.66169e-12 -0.239485

1.56925 0.271696 -4.72202e-11
0.271696 1.95538 6.70715e-11
-4.72202e-11 6.70715e-11 1.6098

1.86082 0.283277 4.94371e-11
0.283277 1.63887 -1.19508e-11
4.94371e-11 -1.19508e-11 1.60047

0.703415 -0.607391 1.59969e-11
-0.607391 0.854007 -3.70052e-11
1.59969e-11 -3.70052e-11 0.554803

-0.201726 -0.563752 8.67243e-12
-0.563752 -0.127342 -9.63679e-12
8.67243e-12 -9.63679e-12 -0.109539

0.63789 -0.16694 -2.89102e-12
-0.16694 -0.722761 8.28669e-12
-2.89102e-12 8.28669e-12 -0.0224962

-1.47563 0.614716 -5.07472e-11
0.614716 -1.13669 -2.58248e-10
-5.07472e-11 -2.58248e-10 -1.86365

-0.995856 -0.671635 3.17876e-11
-0.671635 -1.96657 -4.58675e-11
3.17876e-11 -4.58675e-11 -1.93454

-0.457348 -0.837599 -1.33944e-11
-0.837599 0.406976 -1.54155e-12
-1.33944e-11 -1.54155e-12 -0.0285837

-0.831371 0.155298 2.00434e-11
0.155298 -1.19124 -2.67887e-11
2.00434e-11 -2.67887e-11 -0.976142

-0.55713 -0.637321 -1.92728e-11
-0.637321 -0.533065 3.73881e-11
-1.92728e-11 3.73881e-11 -0.819231

0.361537 -0.221014 -1.27199e-11
-0.221014 -0.865097 -1.19493e-11
-1.27199e-11 -1.19493e-11 -0.0498434

-1.28156 -0.870627 5.78512e-13
-0.870627 -0.26565 4.62561e-12
5.78512e-13 4.62561e-12 -0.256352

1.24389 -0.530195 3.37294e-11
-0.530195 1.47167 -3.39213e-11
3.37294e-11 -3.39213e-11 1.23257

1.38467 0.38688 4.04719e-12
0.38688 1.36409 -4.87616e-11
4.04719e-12 -4.87616e-11 1.21893

0.78244 -0.315449 1.7345e-11
-0.315449 1.54463 -1.17573e-11
1.7345e-11 -1.17573e-11 0.963568

0.765896 -0.346776 2.27425e-11
-0.346776 1.5091 1.34915e-11
2.27425e-11 1.34915e-11 0.934582

1.62211 -0.262428 -1.56116e-11
-0.262428 0.794207 -3.97027e-11
-1.56116e-11 -3.97027e-11 0.97294

0.777776 0.469578 4.04733e-11
0.469578 0.684363 6.2832e-11
4.04733e-11 6.2832e-11 0.510538

-0.750499 -0.932837 5.49276e-12
-0.932837 0.301501 -1.92774e-13
5.49276e-12 -1.92774e-13 -0.124601

0.877747 0.047625 -1.77313e-11
0.047625 1.83652 2.87178e-11
-1.77313e-11 2.87178e-11 1.21605

1.74444 -0.140478 2.79473e-11
-0.140478 0.830143 4.24006e-12
2.79473e-11 4.24006e-12 1.19493

-0.885706 0.0740302 -6.93834e-12
0.0740302 0.0859892 -3.8583e-13
-6.93834e-12 -3.8583e-13 -0.660299

-0.931446 -0.379861 1.272e-11
-0.379861 -0.572304 -8.86559e-12
1.272e-11 -8.86559e-12 -0.785074

0.281454 -0.433494 7.13143e-12
-0.433494 -0.621464 -4.50974e-11
7.13143e-12 -4.50974e-11 -0.11592

0.177305 -0.0271112 -5.78199e-12
-0.0271112 -1.90061 4.35557e-11
-5.78199e-12 4.35557e-11 -0.274434

0.0696949 -0.465722 1.6383e-11
-0.465722 0.931631 -4.16302e-11
1.6383e-11 -4.16302e-11 0.387567

0.206246 -0.464238 -2.91995e-11
-0.464238 0.991638 2.08156e-11
-2.91995e-11 2.08156e-11 0.385447

0.417168 -0.0258164 2.50563e-12
-0.0258164 -0.932234 3.8544e-12
2.50563e-12 3.8544e-12 -0.0472215

-0.476954 -0.640058 2.81381e-11
-0.640058 0.466987 7.13097e-12
2.81381e-11 7.13097e-12 -0.0121006

-0.570769 0.0126243 -3.50763e-11
0.0126243 -0.887 1.05034e-10
-3.50763e-11 1.05034e-10 -0.780075

-0.803333 0.190143 1.31058e-11
0.190143 -0.685601 -7.70839e-12
1.31058e-11 -7.70839e-12 -0.767919

0.00937691 -0.60218 1.73452e-11
-0.60218 -0.395333 -1.46473e-11
1.73452e-11 -1.46473e-11 -0.139869

-0.488209 -0.615284 2.02365e-11
-0.615284 -0.0739614 -5.01081e-12
2.02365e-11 -5.01081e-12 -0.077016

0.343565 -0.432652 -1.71532e-11
-0.432652 -1.03232 6.70681e-11
-1.71532e-11 6.70681e-11 -0.144841

-0.655413 -0.541733 8.86554e-12
-0.541733 0.166264 -2.50542e-11
8.86554e-12 -2.50542e-11 -0.0556305

3.34605 -1.03051 -9.05855e-11
-1.03051 3.44558 -6.93847e-11
-9.05855e-11 -6.93847e-11 3.44076

-0.335735 -0.237511 -1.13708e-11
-0.237511 0.617385 -1.52258e-11
-1.13708e-11 -1.52258e-11 0.0658656

-0.581095 -0.178841 5.78276e-13
-0.178841 0.834367 -2.73677e-11
5.78276e-13 -2.73677e-11 0.0946486

-1.20033 -0.0879804 2.19693e-11
-0.0879804 0.305572 2.11995e-11
2.19693e-11 2.11995e-11 -0.772078

-1.07255 -0.103676 -3.29561e-11
-0.103676 -0.829795 7.48731e-11
-3.29561e-11 7.48731e-11 -0.940423

0.465006 -0.0575987 9.44366e-12
-0.0575987 -1.2524 -1.98507e-11
9.44366e-12 -1.98507e-11 -0.247618

0.34431 0.0291865 4.83742e-11
0.0291865 -1.17711 1.73453e-11
4.83742e-11 1.73453e-11 -0.243695

-0.476214 0.452163 -4.66394e-11
0.452163 -0.741955 4.2785e-11
-4.66394e-11 4.2785e-11 -0.424

-0.207242 -0.812394 -4.89521e-11
-0.812394 -0.703627 -2.31234e-12
-4.89521e-11 -2.31234e-12 -0.358422

-0.487741 0.16068 -1.00216e-11
0.16068 -0.573387 6.74468e-12
-1.00216e-11 6.74468e-12 -0.671271

-0.133479 -0.288882 -2.08145e-11
-0.288882 -0.544883 2.46686e-11
-2.08145e-11 2.46686e-11 -0.615233

-1.24868 -0.316913 7.7969e-11
-0.316913 -1.60291 -2.54391e-11
7.7969e-11 -2.54391e-11 -1.65309

-1.13689 0.953125 -4.70966e-11
0.953125 -0.722551 -9.75189e-11
-4.70966e-11 -9.75189e-11 -1.44688

-0.832133 -0.840654 6.55304e-12
-0.840654 0.0518108 -1.75382e-11
6.55304e-12 -1.75382e-11 -0.263482

-1.19904 1.04072 -1.68154e-11
1.04072 -0.504884 1.92722e-11
-1.68154e-11 1.92722e-11 -0.348674

0.316968 0.418095 1.50323e-11
0.418095 -0.361927 1.07926e-11
1.50323e-11 1.07926e-11 0.0124348

-0.625876 -0.357168 -3.10281e-11
-0.357168 0.537442 -5.97461e-11
-3.10281e-11 -5.97461e-11 0.00737051

-0.228648 -0.542683 7.22739e-12
-0.542683 0.542691 -1.56111e-11
7.22739e-12 -1.56111e-11 0.0468612

0.333774 -0.438319 -1.34922e-12
-0.438319 -0.261692 3.00662e-11
-1.34922e-12 3.00662e-11 0.00827883

-0.191417 0.409354 1.12747e-11
0.409354 0.498817 3.54617e-11
1.12747e-11 3.54617e-11 0.0557639

-0.606753 0.240374 -1.35388e-11
0.240374 0.593824 3.97022e-11
-1.35388e-11 3.97022e-11 0.0284624

0.0392539 0.577745 -4.20147e-11
0.577745 0.0112022 1.73449e-11
-4.20147e-11 1.73449e-11 0.0570594

-0.745571 0.697488 2.81382e-11
0.697488 -0.156091 4.89524e-11
2.81382e-11 4.89524e-11 -0.278146

-0.853848 -0.932002 7.13111e-12
-0.932002 -0.47711 1.5424e-12
7.13111e-12 1.5424e-12 -0.33128

0.112354 -0.707292 -4.79897e-11
-0.707292 0.173042 1.02149e-11
-4.79897e-11 1.02149e-11 0.0609481

0.192411 0.20409 1.42619e-11
0.20409 -0.690286 -3.60398e-11
1.42619e-11 -3.60398e-11 -0.1565

-0.224284 -0.31565 7.03437e-11
-0.31565 -0.406145 -4.27837e-11
7.03437e-11 -4.27837e-11 -1.54451

-2.09526 0.192753 8.76888e-11
0.192753 -1.9141 4.33718e-12
8.76888e-11 4.33718e-12 -2.15997

-0.439615 -0.704583 -1.83084e-12
-0.704583 0.25189 -1.83089e-11
-1.83084e-12 -1.83089e-11 -0.0997853

0.111156 -0.696103 1.36839e-11
-0.696103 -0.631287 -1.38763e-11
1.36839e-11 -1.38763e-11 -0.13652

0.0545047 -0.0589292 1.31056e-11
-0.0589292 -0.702835 1.38764e-11
1.31056e-11 1.38764e-11 -0.397086

1.60518 -0.486925 1.7338e-12
-0.486925 1.79287 2.31273e-11
1.7338e-12 2.31273e-11 1.50706

1.78164 -0.4345 -4.95324e-11
-0.4345 1.48288 -2.34177e-11
-4.95324e-11 -2.34177e-11 1.45622

0.320193 0.0501323 -2.18984e-11
0.0501323 -1.16974 -1.44544e-11
-2.18984e-11 -1.44544e-11 -0.333227

0.0935939 -0.0389964 4.11931e-12
-0.0389964 -1.08518 5.35774e-11
4.11931e-12 5.35774e-11 -0.34541

0.0337976 -0.0106306 -2.35125e-11
-0.0106306 -1.14588 5.24208e-11
-2.35125e-11 5.24208e-11 -0.465717

0.832166 0.295701 4.09482e-12
0.295701 -0.0122432 -2.54409e-11
4.09482e-12 -2.54409e-11 0.230207

-0.398588 -0.446177 -1.36352e-11
-0.446177 -0.0497372 1.2335e-11
-1.36352e-11 1.2335e-11 -0.22587

-0.464362 0.543094 -3.74849e-11
0.543094 -0.449915 1.31051e-11
-3.74849e-11 1.31051e-11 -0.268089

-1.18946 -0.500464 -1.27204e-11
-0.500464 -2.3012 8.60285e-12
-1.27204e-11 8.60285e-12 -2.04925

-0.603633 -0.0525281 4.62523e-11
-0.0525281 -0.0759582 7.29427e-11
4.62523e-11 7.29427e-11 -1.54882

-0.703008 -0.791447 -4.81788e-12
-0.791447 0.265045 -6.16714e-12
-4.81788e-12 -6.16714e-12 -0.118057

0.44348 -0.553266 -1.07919e-11
-0.553266 -0.403693 -2.31291e-12
-1.07919e-11 -2.31291e-12 0.019602

-0.1405 0.119684 4.13406e-11
0.119684 -0.599669 -4.27845e-11
4.13406e-11 -4.27845e-11 -0.347838

-0.0228499 0.0228524 3.43298e-11
0.0228524 -0.716855 -2.77522e-11
3.43298e-11 -2.77522e-11 -0.369356

-0.798052 -0.317198 -3.85316e-13
-0.317198 0.161932 -1.11781e-11
-3.85316e-13 -1.11781e-11 -0.143921

-0.975322 -0.582759 2.77529e-11
-0.582759 -0.270496 -1.50328e-11
2.77529e-11 -1.50328e-11 -0.208494

3.49768 0.872311 4.39442e-11
0.872311 3.35843 -1.59961e-11
4.39442e-11 -1.59961e-11 3.44928

-0.770691 0.466803 6.03226e-11
0.466803 -0.190633 1.98509e-11
6.03226e-11 1.98509e-11 -0.396227

-0.767401 -0.607283 -8.09448e-12
-0.607283 -0.243623 2.89094e-11
-8.09448e-12 2.89094e-11 -0.398013

-0.945055 -0.551295 1.17568e-11
-0.551295 0.0792052 2.12793e-16
1.17568e-11 2.12793e-16 -0.141138

0.863092 -0.369152 3.74858e-11
-0.369152 0.096423 2.31223e-12
3.74858e-11 2.31223e-12 0.226707

-0.100955 0.403134 3.86163e-13
0.403134 -0.229648 3.25701e-11
3.86163e-13 3.25701e-11 -0.139968

-0.396809 0.424125 1.09848e-11
0.424125 -0.324237 -4.77952e-11
1.09848e-11 -4.77952e-11 -0.317422

-0.104823 -0.65386 -2.89091e-11
-0.65386 -0.655261 2.69829e-11
-2.89091e-11 2.69829e-11 -0.313675

0.256428 0.162274 -1.90804e-11
0.162274 -1.1483 1.00217e-11
-1.90804e-11 1.00217e-11 -0.183957

-0.276203 -0.0766201 -1.5779e-11
-0.0766201 -0.73332 -1.42614e-11
-1.5779e-11 -1.42614e-11 -0.530124

-0.110146 0.120315 -2.44037e-11
0.120315 -1.01878 2.96791e-11
-2.44037e-11 2.96791e-11 -0.569636

-1.42113 0.217916 1.94649e-11
0.217916 0.0392014 -4.04723e-11
1.94649e-11 -4.04723e-11 -1.43301

-1.68686 0.0415517 6.68743e-11
0.0415517 -0.818996 -3.28591e-11
6.68743e-11 -3.28591e-11 -1.60502

1.97703 -0.222756 3.83552e-11
-0.222756 1.40624 -4.08601e-11
3.83552e-11 -4.08601e-11 2.08063

1.19692 -0.14769 -2.42846e-11
-0.14769 2.04273 1.88878e-11
-2.42846e-11 1.88878e-11 2.05562

-0.577917 -0.695393 1.03104e-11
-0.695393 0.268241 3.27636e-11
1.03104e-11 3.27636e-11 -0.145184

-0.692045 0.602609 -6.21057e-11
0.602609 -0.31058 -2.6212e-11
-6.21057e-11 -2.6212e-11 -0.207095

-0.685941 -0.932994 -1.00216e-11
-0.932994 0.334758 1.73471e-12
-1.00216e-11 1.73471e-12 -0.106311

2.18952 0.238206 9.44412e-11
0.238206 2.15461 -2.88946e-12
9.44412e-11 -2.88946e-12 2.3954

2.20239 0.359012 -5.18452e-11
0.359012 1.96757 1.46478e-11
-5.18452e-11 1.46478e-11 2.33002

-3.0899 0.761943 -5.73736e-11
0.761943 -0.656016 -2.15081e-10
-5.73736e-11 -2.15081e-10 -2.16538

-2.27046 -0.604401 7.14267e-11
-0.604401 -1.1156 1.32982e-11
7.14267e-11 1.32982e-11 -2.09391

-0.284869 0.562427 -5.78161e-12
0.562427 -0.258438 5.20288e-12
-5.78161e-12 5.20288e-12 -0.155168

-0.0536237 -0.669592 -5.9746e-11
-0.669592 0.344198 2.92949e-11
-5.9746e-11 2.92949e-11 0.0543801

-0.557557 -0.665782 -3.28597e-11
-0.665782 -0.046616 8.48043e-12
-3.28597e-11 8.48043e-12 -0.200983

-0.569526 0.670785 -3.13665e-11
0.670785 -0.314932 -6.89263e-16
-3.13665e-11 -6.89263e-16 -0.194431

-0.365735 -0.777426 -2.48614e-11
-0.777426 0.257921 -8.48012e-12
-2.48614e-11 -8.48012e-12 -0.0465051

-0.115653 0.539743 -5.37714e-11
0.539743 0.174966 1.15625e-11
-5.37714e-11 1.15625e-11 0.0603144

0.618418 -0.282943 -2.29357e-11
-0.282943 1.46534 3.85728e-13
-2.29357e-11 3.85728e-13 0.887689

0.834023 -0.242808 4.43299e-12
-0.242808 1.5142 -1.98521e-11
4.43299e-12 -1.98521e-11 0.939663

1.59481 -0.197442 2.65985e-11
-0.197442 0.794106 -2.6979e-12
2.65985e-11 -2.6979e-12 0.955446

-0.466013 0.605962 -2.64998e-11
0.605962 0.0132795 2.00432e-11
-2.64998e-11 2.00432e-11 -0.052959

0.926677 -0.0313524 1.11783e-11
-0.0313524 1.83453 -3.66193e-11
1.11783e-11 -3.66193e-11 1.25986

1.81894 0.0623527 -3.34402e-11
0.0623527 1.04496 5.3967e-12
-3.34402e-11 5.3967e-12 1.27572

-0.743895 -0.63667 2.26927e-11
-0.63667 -0.126318 1.54178e-11
2.26927e-11 1.54178e-11 -0.341484

-0.757791 0.773965 -2.77996e-11
0.773965 -0.566898 -3.08354e-12
-2.77996e-11 -3.08354e-12 -0.363423

-0.768654 -0.505946 3.95029e-12
-0.505946 -0.180325 1.985e-11
3.95029e-12 1.985e-11 -0.399873

-0.769009 0.684144 1.19974e-11
0.684144 -0.321149 3.23781e-11
1.19974e-11 3.23781e-11 -0.37691

2.17134 -0.454796 -4.56796e-11
-0.454796 2.23801 2.8911e-11
-4.56796e-11 2.8911e-11 2.46434

2.15558 -0.4434 2.12144e-12
-0.4434 2.27796 -8.17204e-11
2.12144e-12 -8.17204e-11 2.47241

-0.28199 0.565069 2.65963e-11
0.565069 -0.156878 5.43494e-11
2.65963e-11 5.43494e-11 -0.0749586

-0.236685 -0.612986 4.76038e-11
-0.612986 0.215054 -1.44549e-11
4.76038e-11 -1.44549e-11 -0.0505907

-0.992637 -0.161164 5.16495e-11
-0.161164 -0.275881 1.13711e-11
5.16495e-11 1.13711e-11 -0.989407

-1.1788 -0.19264 1.4011e-10
-0.19264 -1.02503 -5.68536e-11
1.4011e-10 -5.68536e-11 -1.13862

-0.933856 -0.663411 3.42087e-11
-0.663411 0.0795253 -1.11785e-11
3.42087e-11 -1.11785e-11 -0.362791

-1.14162 0.708965 -1.94647e-11
0.708965 -0.185609 -2.31274e-11
-1.94647e-11 -2.31274e-11 -0.382731

-0.45283 -0.00623621 -3.61359e-11
-0.00623621 -1.2455 -6.35994e-12
-3.61359e-11 -6.35994e-12 -0.726597

-0.684879 0.149845 3.06188e-11
0.149845 -1.10861 -4.20137e-11
3.06188e-11 -4.20137e-11 -0.728259

-0.504883 0.63033 -1.88877e-11
0.63033 -0.0517965 -4.04729e-11
-1.88877e-11 -4.04729e-11 -0.182942

-0.390143 -0.666822 -2.33207e-11
-0.666822 -0.365553 4.62546e-11
-2.33207e-11 4.62546e-11 -0.196264

-1.6305 -0.275945 2.06212e-11
-0.275945 -0.723344 5.52151e-11
2.06212e-11 5.52151e-11 -1.35506

-0.994408 0.269517 5.01035e-12
0.269517 -1.35337 -2.23557e-11
5.01035e-12 -2.23557e-11 -1.34785

-0.416654 -0.65474 2.69813e-11
-0.65474 -0.904324 -1.88874e-11
2.69813e-11 -1.88874e-11 -1.18376

-1.49099 -0.114847 -1.48395e-11
-0.114847 0.0273218 -3.77746e-11
-1.48395e-11 -3.77746e-11 -1.21033

-1.05365 0.185368 -2.51741e-11
0.185368 -1.23001 -3.17314e-11
-2.51741e-11 -3.17314e-11 -1.23614

-1.96947 0.0230223 -1.62549e-10
0.0230223 -1.19933 5.20345e-11
-1.62549e-10 5.20345e-11 -1.7112

-0.730316 -0.201423 4.82461e-14
-0.201423 -1.43253 3.22575e-12
4.82461e-14 3.22575e-12 -1.22142

-1.34303 -0.0734838 3.81708e-11
-0.0734838 -1.72392 9.98303e-11
3.81708e-11 9.98303e-11 -1.69616

-1.82812 -0.364387 1.17813e-10
-0.364387 -1.45946 -6.88028e-11
1.17813e-10 -6.88028e-11 -1.78858

-1.33136 0.878299 5.47355e-11
0.878299 -0.579414 -2.80987e-10
5.47355e-11 -2.80987e-10 -1.49074

0.0309797 0.251646 1.43636e-10
0.251646 -0.155169 4.27857e-11
1.43636e-10 4.27857e-11 -1.54679

0.342748 -0.420662 8.25805e-11
-0.420662 -2.94974 -1.69977e-10
8.25805e-11 -1.69977e-10 -2.03917

-1.09334 -0.47357 1.46476e-11
-0.47357 -1.14255 -3.89299e-11
1.46476e-11 -3.89299e-11 -1.32279

-0.889626 -0.346617 -5.87819e-12
-0.346617 -0.297042 -2.50504e-12
-5.87819e-12 -2.50504e-12 -0.679307

-0.740126 0.819065 -1.9271e-12
0.819065 -1.02314 1.5416e-12
-1.9271e-12 1.5416e-12 -1.19768

-0.807794 0.45711 -9.58712e-12
0.45711 -0.538123 7.70848e-12
-9.58712e-12 7.70848e-12 -0.661278

-1.38009 0.936321 1.04671e-11
0.936321 -0.562327 1.02528e-10
1.04671e-11 1.02528e-10 -1.64361

-1.69921 -0.0999669 2.92937e-11
-0.0999669 -1.92023 4.62533e-11
2.92937e-11 4.62533e-11 -1.9829

-1.19988 -0.308209 -5.73312e-12
-0.308209 -0.715977 -5.18425e-11
-5.73312e-12 -5.18425e-11 -0.939771

-1.07744 -0.184257 -6.75665e-12
-0.184257 -1.10247 -5.7046e-11
-6.75665e-12 -5.7046e-11 -1.24998

-0.951974 0.766944 1.86931e-11
0.766944 -0.504986 1.1571e-12
1.86931e-11 1.1571e-12 -0.817949

-1.34951 0.50751 4.09015e-13
0.50751 -0.874982 3.84646e-13
4.09015e-13 3.84646e-13 -1.24422

-0.827352 0.178432 -5.20405e-12
0.178432 0.439858 1.61891e-11
-5.20405e-12 1.61891e-11 -0.119567

-0.112328 -0.072396 -9.63692e-12
-0.072396 0.243978 1.71525e-11
-9.63692e-12 1.71525e-11 -0.0407927

0.734991 0.169327 -2.26424e-12
0.169327 -0.672157 -1.06004e-11
-2.26424e-12 -1.06004e-11 0.00624943

0.989824 0.0399111 1.00216e-11
0.0399111 -0.312292 -2.50536e-12
1.00216e-11 -2.50536e-12 0.162152

-1.4005 0.202763 -2.69812e-11
0.202763 0.285008 -2.50548e-11
-2.69812e-11 -2.50548e-11 -0.41846

-0.716108 0.047553 8.09538e-17
0.047553 -0.199986 3.08381e-12
8.09538e-17 3.08381e-12 -0.341397

0.978812 -0.0662312 -1.33944e-11
-0.0662312 -0.346767 3.50764e-11
-1.33944e-11 3.50764e-11 0.159003

0.577199 -0.0386258 -9.87717e-12
-0.0386258 -0.975501 -1.1178e-11
-9.87717e-12 -1.1178e-11 -0.115816

0.374172 -0.394971 5.97443e-12
-0.394971 1.24908 -7.71124e-13
5.97443e-12 -7.71124e-13 0.646834

0.552894 0.639552 -1.27199e-11
0.639552 1.23584 -2.56335e-11
-1.27199e-11 -2.56335e-11 0.592083

1.1157 0.606005 -1.65743e-11
0.606005 0.460866 -3.08331e-12
-1.65743e-11 -3.08331e-12 0.621337

-0.412656 0.736733 -5.58897e-12
0.736733 0.0241281 -2.25487e-11
-5.58897e-12 -2.25487e-11 -0.271881

-0.67345 -0.249638 -2.14881e-11
-0.249638 0.0699882 -3.23778e-11
-2.14881e-11 -3.23778e-11 -0.336646

0.0531557 0.623805 2.8861e-11
0.623805 0.387045 -7.51599e-12
2.8861e-11 -7.51599e-12 0.0472068

-0.815433 0.552463 -1.7634e-11
0.552463 -0.0782124 -1.83088e-11
-1.7634e-11 -1.83088e-11 -0.35627

-1.46158 -0.199438 -2.33193e-11
-0.199438 0.319488 -1.73453e-11
-2.33193e-11 -1.73453e-11 -0.425455

0.565242 -0.122465 3.46956e-12
-0.122465 -0.77848 8.09462e-12
3.46956e-12 8.09462e-12 0.00891658

0.391959 0.291586 1.55147e-11
0.291586 1.29315 -2.10075e-11
1.55147e-11 -2.10075e-11 0.46735

0.100434 -0.076035 1.42621e-11
-0.076035 1.28554 -3.85459e-11
1.42621e-11 -3.85459e-11 0.469623

1.28278 0.297964 -2.4284e-11
0.297964 0.287311 -4.23997e-12
-2.4284e-11 -4.23997e-12 0.516987

0.870432 -0.309172 -2.40914e-11
-0.309172 -0.173553 1.00214e-11
-2.40914e-11 1.00214e-11 0.213964

-0.174245 0.532103 -1.61895e-11
0.532103 0.670788 -1.27207e-11
-1.61895e-11 -1.27207e-11 0.170632

0.312786 -0.40655 5.85893e-11
-0.40655 0.616819 -1.46468e-11
5.85893e-11 -1.46468e-11 0.203081

0.734668 -0.199292 4.62496e-12
-0.199292 -0.743778 2.79449e-11
4.62496e-12 2.79449e-11 0.00212461

1.24119 0.401605 2.60193e-11
0.401605 1.70178 6.05184e-11
2.60193e-11 6.05184e-11 1.09343

0.569883 0.0402316 -1.56351e-11
0.0402316 -1.02514 1.11778e-11
-1.56351e-11 1.11778e-11 -0.128745

1.63264 0.43454 -6.41805e-11
0.43454 1.20675 -3.00677e-11
-6.41805e-11 -3.00677e-11 1.14787

-0.795338 0.0482568 -1.19488e-11
0.0482568 0.164083 -3.85463e-12
-1.19488e-11 -3.85463e-12 -0.449384

-0.378441 0.250929 -3.12207e-11
0.250929 -0.152029 -1.54182e-11
-3.12207e-11 -1.54182e-11 -0.35319

-1.19878 -0.65325 -1.32474e-12
-0.65325 -1.13385 1.61886e-11
-1.32474e-12 1.61886e-11 -1.44852

-0.943496 0.283646 -2.81615e-11
0.283646 -1.39817 -1.04077e-11
-2.81615e-11 -1.04077e-11 -1.45444

1.36263 -0.0924873 9.05925e-12
-0.0924873 0.344192 -9.63608e-12
9.05925e-12 -9.63608e-12 0.537883

-0.146162 0.760968 9.63626e-12
0.760968 0.280936 -3.66171e-12
9.63626e-12 -3.66171e-12 -0.00656632

-0.341456 0.109994 -6.17921e-12
0.109994 -0.486796 -5.78163e-13
-6.17921e-12 -5.78163e-13 -0.494054

-0.601251 -0.345107 1.88274e-11
-0.345107 -0.672636 1.65744e-11
1.88274e-11 1.65744e-11 -0.563257

0.70295 -0.046633 4.86636e-12
-0.046633 -1.12355 1.1564e-12
4.86636e-12 1.1564e-12 -0.119699

-0.201729 0.628878 -5.01109e-12
0.628878 0.43011 1.15673e-12
-5.01109e-12 1.15673e-12 0.120926

0.0990564 -0.575084 1.11794e-11
-0.575084 0.551752 -2.12002e-11
1.11794e-11 -2.12002e-11 0.157402

0.757817 -0.403803 -3.46915e-11
-0.403803 0.0840205 1.54165e-12
-3.46915e-11 1.54165e-12 0.238423

0.693548 -0.0963462 -1.63338e-11
-0.0963462 -1.11261 -1.9274e-12
-1.63338e-11 -1.9274e-12 -0.0922277

0.0532475 0.741101 8.48025e-12
0.741101 0.805252 -5.20375e-12
8.48025e-12 -5.20375e-12 0.175473

-0.188824 -0.510913 -9.54018e-12
-0.510913 0.46851 4.39423e-11
-9.54018e-12 4.39423e-11 0.13161

0.0602269 0.686221 1.85018e-11
0.686221 0.784392 -1.29128e-11
1.85018e-11 -1.29128e-11 0.168282

-0.267612 -0.410619 5.30011e-12
-0.410619 0.739545 3.9317e-11
5.30011e-12 3.9317e-11 0.166046

-0.181327 -0.345654 1.88862e-11
-0.345654 0.108666 5.45412e-11
1.88862e-11 5.45412e-11 -0.0410615

-0.932184 0.479113 -9.44354e-12
0.479113 0.268451 -8.86557e-12
-9.44354e-12 -8.86557e-12 -0.105328

0.582806 -0.595799 -2.44772e-11
-0.595799 0.339055 -5.5905e-12
-2.44772e-11 -5.5905e-12 0.304418

3.35718 -0.528791 4.62581e-12
-0.528791 3.28117 -1.1563e-12
4.62581e-12 -1.1563e-12 3.31152

3.18673 -0.567738 2.75601e-11
-0.567738 3.47166 4.0475e-11
2.75601e-11 4.0475e-11 3.35292

-0.744441 0.893026 -2.24523e-11
0.893026 0.19981 -1.06003e-11
-2.24523e-11 -1.06003e-11 -0.217543

-1.34452 -0.582392 3.51726e-11
-0.582392 0.0420784 -5.39622e-12
3.51726e-11 -5.39622e-12 -0.328416

2.01197 -0.114208 3.79695e-11
-0.114208 2.01714 -3.08375e-11
3.79695e-11 -3.08375e-11 2.23206

1.98984 -0.123024 1.52267e-11
-0.123024 2.07803 -2.12007e-11
1.52267e-11 -2.12007e-11 2.18068

-0.128181 0.509308 -4.4711e-11
0.509308 -0.670295 1.69586e-11
-4.4711e-11 1.69586e-11 -0.498137

0.0238949 -0.385103 -3.85969e-13
-0.385103 -0.734309 1.75389e-11
-3.85969e-13 1.75389e-11 -0.359794

0.303676 -0.0175411 -9.63859e-13
-0.0175411 -0.986838 2.00436e-11
-9.63859e-13 2.00436e-11 -0.0678656

-0.239146 0.717791 -9.79042e-11
0.717791 -0.763943 2.77502e-11
-9.79042e-11 2.77502e-11 -0.549733

-0.0273924 -0.514878 -1.11749e-11
-0.514878 -1.06458 -8.92297e-11
-1.11749e-11 -8.92297e-11 -0.434709

-0.628887 0.50536 6.93746e-12
0.50536 0.440318 4.39427e-11
6.93746e-12 4.39427e-11 0.00715218

-0.204847 -0.40178 5.70474e-11
-0.40178 0.40606 -3.95085e-11
5.70474e-11 -3.95085e-11 0.0272723

-0.607636 0.251156 3.69066e-11
0.251156 -1.36571 -3.12361e-13
3.69066e-11 -3.12361e-13 -1.15514

-0.948789 -0.330874 -5.27817e-11
-0.330874 -1.17244 -4.18094e-11
-5.27817e-11 -4.18094e-11 -1.17949

-0.0994957 0.773021 2.44759e-11
0.773021 -0.620393 2.96802e-11
2.44759e-11 2.96802e-11 -0.246924

0.118098 -0.609446 4.79888e-11
-0.609446 -0.689489 -2.29342e-11
4.79888e-11 -2.29342e-11 -0.176997

1.22517 -0.412005 -2.79462e-12
-0.412005 0.563575 7.71559e-13
-2.79462e-12 7.71559e-13 0.687504

-1.30417 -0.0224154 -1.15637e-11
-0.0224154 0.0307175 1.65745e-11
-1.15637e-11 1.65745e-11 -1.0075

-0.998753 0.151596 1.98501e-11
0.151596 -0.562809 -4.2495e-11
1.98501e-11 -4.2495e-11 -0.811552

0.969078 -0.0722336 1.11786e-11
-0.0722336 1.73212 -1.50328e-11
1.11786e-11 -1.50328e-11 1.1698

1.72912 -0.0901815 3.82583e-11
-0.0901815 1.07338 9.25188e-12
3.82583e-11 9.25188e-12 1.19111

-1.01145 0.42955 4.43257e-12
0.42955 0.341866 1.9279e-12
4.43257e-12 1.9279e-12 -0.127038

-0.433938 -0.25463 1.69589e-11
-0.25463 0.239961 4.62539e-11
1.69589e-11 4.62539e-11 -0.076384

-0.392122 -0.150453 -3.4693e-11
-0.150453 0.120098 2.23941e-10
-3.4693e-11 2.23941e-10 -1.60507

-0.352303 -0.465262 4.00844e-11
-0.465262 -1.78823 7.36176e-11
4.00844e-11 7.36176e-11 -1.47116

0.223697 0.686435 4.02807e-11
0.686435 -0.757917 -1.88857e-11
4.02807e-11 -1.88857e-11 -0.124181

0.320958 -0.4513 1.59963e-11
-0.4513 -0.817293 2.4476e-11
1.59963e-11 2.4476e-11 -0.0926022

1.35314 0.0104583 2.6978e-12
0.0104583 0.244306 -2.19713e-11
2.6978e-12 -2.19713e-11 0.523662

0.795271 0.0224808 -1.98501e-11
0.0224808 -0.38549 -1.69598e-11
-1.98501e-11 -1.69598e-11 0.15092

1.07245 0.331467 1.32986e-11
0.331467 -0.0375928 -1.42608e-11
1.32986e-11 -1.42608e-11 0.283256

-0.217903 0.119459 -7.10685e-12
0.119459 -1.03496 3.66171e-12
-7.10685e-12 3.66171e-12 -0.492667

-2.50739 -0.240557 2.30647e-11
-0.240557 -1.06165 1.245e-10
2.30647e-11 1.245e-10 -1.94306

-1.79048 0.123909 3.03901e-11
0.123909 -1.68345 -4.25914e-11
3.03901e-11 -4.25914e-11 -1.92165

0.8128 0.576562 1.09859e-11
0.576562 1.04176 -2.50581e-12
1.09859e-11 -2.50581e-12 0.53152

0.0898736 -0.500962 -3.74852e-11
-0.500962 -0.183454 -5.78098e-12
-3.74852e-11 -5.78098e-12 0.0114716

0.473778 0.549784 2.3899e-11
0.549784 -0.552294 -1.77301e-11
2.3899e-11 -1.77301e-11 0.00965908

-1.3162 0.23155 -3.91225e-11
0.23155 -0.861173 -4.33636e-11
-3.91225e-11 -4.33636e-11 -1.10419

-1.25403 0.35246 -6.2056e-11
0.35246 -0.116938 3.46787e-12
-6.2056e-11 3.46787e-12 -1.25531

-0.422571 -0.290863 -4.74545e-12
-0.290863 -0.947233 -6.66824e-11
-4.74545e-12 -6.66824e-11 -0.513039

-0.219905 0.451823 -2.19708e-11
0.451823 0.336894 3.77739e-11
-2.19708e-11 3.77739e-11 -0.0634661

-0.900666 -0.0820733 -1.83085e-11
-0.0820733 0.480192 1.1178e-11
-1.83085e-11 1.1178e-11 -0.141162

0.274328 0.341396 3.85438e-12
0.341396 -1.24963 -1.8501e-11
3.85438e-12 -1.8501e-11 -0.153837

0.320086 -0.0681504 2.73672e-11
-0.0681504 -1.34485 9.05833e-12
2.73672e-11 9.05833e-12 -0.138111

1.10082 -0.448937 -7.13241e-12
-0.448937 0.814592 6.43718e-11
-7.13241e-12 6.43718e-11 0.599175

0.153703 0.616677 3.59908e-11
0.616677 -1.08599 6.05158e-11
3.59908e-11 6.05158e-11 -0.285079

0.215435 -0.388297 1.45978e-11
-0.388297 -1.33128 2.02355e-11
1.45978e-11 2.02355e-11 -0.249668

0.480428 -0.299466 3.14158e-11
-0.299466 -0.51326 -1.44541e-11
3.14158e-11 -1.44541e-11 0.0261454

0.223869 0.446447 -4.70255e-11
0.446447 -0.898625 6.35959e-12
-4.70255e-11 6.35959e-12 -0.153568

0.180376 -0.226609 4.47125e-11
-0.226609 -0.993639 1.92821e-12
4.47125e-11 1.92821e-12 -0.139068

0.526616 -0.190552 3.97022e-11
-0.190552 -0.526985 7.70217e-13
3.97022e-11 7.70217e-13 -0.00584329

-0.667573 0.805627 -2.71745e-11
0.805627 -0.27467 -3.0841e-12
-2.71745e-11 -3.0841e-12 -0.163326

0.0764071 -0.693394 -3.50761e-11
-0.693394 -0.249046 -4.24028e-12
-3.50761e-11 -4.24028e-12 -0.0600227

0.673489 0.53956 -2.03327e-11
0.53956 0.481663 -3.02584e-11
-2.03327e-11 -3.02584e-11 0.258889

-0.398752 -0.51058 1.90789e-11
-0.51058 -0.0190238 4.04711e-12
1.90789e-11 4.04711e-12 -0.10142

-1.029 0.561684 3.85439e-12
0.561684 -0.251047 -8.09446e-12
3.85439e-12 -8.09446e-12 -0.221167

0.839952 0.494344 -1.13715e-11
0.494344 -0.245422 3.4687e-12
-1.13715e-11 3.4687e-12 0.215175

-0.165069 -0.441697 4.48092e-11
-0.441697 -0.608304 -5.51202e-11
4.48092e-11 -5.51202e-11 -0.194614

0.642355 0.182651 9.55902e-14
0.182651 -0.290326 6.16715e-12
9.55902e-14 6.16715e-12 0.0469573

0.351203 0.703754 -9.34715e-12
0.703754 0.47399 -2.79463e-11
-9.34715e-12 -2.79463e-11 0.209777

0.218992 0.567622 -1.4431e-13
0.567622 -0.0954465 -2.46691e-11
-1.4431e-13 -2.46691e-11 0.00434665

-0.61617 0.224719 -3.33419e-11
0.224719 0.270437 2.21633e-11
-3.33419e-11 2.21633e-11 -0.134409

-1.17134 0.0638558 -2.698e-12
0.0638558 0.583497 -7.32392e-12
-2.698e-12 -7.32392e-12 -0.147371

1.26455 -0.433158 -7.99612e-12
-0.433158 0.387 -9.90635e-11
-7.99612e-12 -9.90635e-11 0.616271

-0.899196 -0.789019 -2.64976e-12
-0.789019 -0.257898 -1.15636e-11
-2.64976e-12 -1.15636e-11 -0.194141

-0.601582 0.865988 -4.81943e-13
0.865988 0.226616 -6.16714e-12
-4.81943e-13 -6.16714e-12 -0.147252

0.594388 -0.638206 -3.85532e-12
-0.638206 0.658016 1.09855e-11
-3.85532e-12 1.09855e-11 0.320323

0.275264 0.767263 2.31107e-12
0.767263 0.663613 2.15859e-11
2.31107e-12 2.15859e-11 0.296879

0.393615 -0.356057 2.97288e-11
-0.356057 -0.396458 7.6124e-12
2.97288e-11 7.6124e-12 0.000100967

0.208389 -0.0922883 -3.95101e-12
-0.0922883 -1.24411 2.27413e-11
-3.95101e-12 2.27413e-11 -0.296124

0.410625 0.0258908 -1.80201e-11
0.0258908 -1.27391 1.02142e-11
-1.80201e-11 1.02142e-11 -0.268128

0.0251752 -0.597596 -3.07399e-11
-0.597596 0.129722 3.16076e-11
-3.07399e-11 3.16076e-11 0.0729679

0.167037 0.121206 -3.16075e-11
0.121206 1.37684 -3.19941e-11
-3.16075e-11 -3.19941e-11 0.503167

-0.0579734 0.105262 4.64484e-11
0.105262 1.38243 -2.77526e-11
4.64484e-11 -2.77526e-11 0.514861

1.34253 0.11096 -9.25088e-12
0.11096 0.0919624 3.39209e-11
-9.25088e-12 3.39209e-11 0.551452

0.92154 0.634755 -2.50535e-12
0.634755 0.773873 5.0112e-12
-2.50535e-12 5.0112e-12 0.572539

0.71474 -0.623695 3.79681e-11
-0.623695 0.108635 -5.78198e-12
3.79681e-11 -5.78198e-12 0.249352

-1.96261 0.715701 5.39589e-12
0.715701 -1.07594 -5.36735e-11
5.39589e-12 -5.36735e-11 -1.57808

-0.215805 -0.189256 8.65312e-11
-0.189256 -0.179934 -1.07924e-11
8.65312e-11 -1.07924e-11 -1.46373

0.914752 -0.211476 -2.54401e-11
-0.211476 -0.305375 -5.7816e-12
-2.54401e-11 -5.7816e-12 0.206738

-0.728675 0.561814 -1.54185e-11
0.561814 0.109947 4.54834e-11
-1.54185e-11 4.54834e-11 -0.0721613

-0.0543559 -0.638619 1.90799e-11
-0.638619 0.167713 -6.93791e-12
1.90799e-11 -6.93791e-12 0.00913488

0.408083 0.291365 7.70874e-13
0.291365 -0.9451 1.22587e-16
7.70874e-13 1.22587e-16 -0.0458152

-0.0356609 0.592194 -9.54032e-12
0.592194 0.943313 -6.93865e-12
-9.54032e-12 -6.93865e-12 0.201457

-0.434362 -0.263353 -1.90809e-11
-0.263353 0.875151 3.70043e-11
-1.90809e-11 3.70043e-11 0.170524

-1.41508 0.599257 2.13919e-11
0.599257 0.0427027 -3.85452e-11
2.13919e-11 -3.85452e-11 -0.326056

-0.443695 -0.253233 -2.7752e-11
-0.253233 -0.0819212 -2.25489e-11
-2.7752e-11 -2.25489e-11 -0.158864

-0.922257 0.605278 -5.58907e-11
0.605278 -0.441077 2.197e-11
-5.58907e-11 2.197e-11 -0.231391

-0.219222 -0.615807 -2.17775e-11
-0.615807 -0.137852 -5.97451e-12
-2.17775e-11 -5.97451e-12 -0.090398

0.226878 0.0490456 -4.77968e-11
0.0490456 -2.07035 -6.168e-12
-4.77968e-11 -6.168e-12 -0.268631

0.573349 0.769738 1.02147e-11
0.769738 0.149112 3.8544e-12
1.02147e-11 3.8544e-12 0.257479

-0.650599 0.924976 1.38761e-11
0.924976 0.445193 1.8502e-11
1.38761e-11 1.8502e-11 -0.114049

-1.10383 -0.684816 -3.21851e-11
-0.684816 -0.491698 2.31287e-12
-3.21851e-11 2.31287e-12 -0.26224

0.363357 0.651987 -6.55267e-12
0.651987 0.27886 4.3557e-11
-6.55267e-12 4.3557e-11 0.215345

0.694069 -0.39549 5.62772e-11
-0.39549 1.06726 -1.00209e-11
5.62772e-11 -1.00209e-11 0.603842

-0.481711 -0.594708 5.97489e-12
-0.594708 -0.073599 -3.27638e-11
5.97489e-12 -3.27638e-11 -0.0791529

0.459502 -0.127845 -3.97014e-11
-0.127845 1.19611 -9.8299e-12
-3.97014e-11 -9.8299e-12 0.444568

0.0662896 0.337269 2.12007e-11
0.337269 1.20459 -3.97023e-11
2.12007e-11 -3.97023e-11 0.415971

1.17132 -0.129847 1.15649e-11
-0.129847 0.293288 -1.65732e-11
1.15649e-11 -1.65732e-11 0.471246

0.557664 -0.559717 1.5416e-11
-0.559717 0.42205 1.15646e-12
1.5416e-11 1.15646e-12 0.253224

-0.563897 0.0922981 -1.36838e-11
0.0922981 0.850746 3.19929e-11
-1.36838e-11 3.19929e-11 0.0930467

0.0657426 0.12717 -2.15851e-11
0.12717 0.764442 4.04719e-12
-2.15851e-11 4.04719e-12 0.147223

0.876949 -0.529836 2.11997e-11
-0.529836 1.03368 4.72201e-11
2.11997e-11 4.72201e-11 0.64372

0.575264 0.657837 -2.12009e-11
0.657837 1.01825 4.43286e-11
-2.12009e-11 4.43286e-11 0.599394

-0.00917887 0.126529 -3.85412e-13
0.126529 -1.36183 -3.1607e-11
-3.85412e-13 -3.1607e-11 -0.213223

-0.0457157 0.00135102 -2.08143e-11
0.00135102 -1.49542 -2.40911e-11
-2.08143e-11 -2.40911e-11 -0.219339

-0.446427 0.672695 -1.29126e-11
0.672695 -0.108384 5.78121e-12
-1.29126e-11 5.78121e-12 -0.065784

-0.0210824 -0.561209 1.04071e-11
-0.561209 0.13206 4.04734e-12
1.04071e-11 4.04734e-12 0.00799005

-0.743856 0.914863 4.50972e-11
0.914863 0.285358 -3.84683e-13
4.50972e-11 -3.84683e-13 -0.183205

-1.50016 -0.518844 5.0398e-11
-0.518844 0.0171708 -2.31268e-11
5.0398e-11 -2.31268e-11 -0.314278

-0.374047 0.59973 1.8116e-11
0.59973 -0.137531 5.39661e-12
1.8116e-11 5.39661e-12 -0.182938

1.47732 0.373348 -7.61261e-12
0.373348 0.812547 -2.89177e-12
-7.61261e-12 -2.89177e-12 0.867748

0.0098661 -0.34248 -3.39207e-11
-0.34248 0.850177 1.25275e-11
-3.39207e-11 1.25275e-11 0.202515

-0.412954 0.459864 3.5269e-11
0.459864 0.858228 -2.08141e-11
3.5269e-11 -2.08141e-11 0.173635

0.0571837 0.549211 -1.54238e-12
0.549211 -0.859533 4.75063e-11
-1.54238e-12 4.75063e-11 -0.354085

0.144443 -0.313156 -7.2079e-11
-0.313156 -0.90505 -3.8931e-11
-7.2079e-11 -3.8931e-11 -0.263332

0.418707 -0.522173 -7.90166e-12
-0.522173 -0.0875321 1.32982e-11
-7.90166e-12 1.32982e-11 0.07481

0.229093 0.648474 1.21415e-11
0.648474 -0.530551 1.96586e-11
1.21415e-11 1.96586e-11 -0.0986068

0.280322 -0.45218 3.85457e-12
-0.45218 -0.44732 2.89086e-11
3.85457e-12 2.89086e-11 -0.0549231

1.97198 -0.173022 -1.46477e-11
-0.173022 1.17638 -8.09458e-12
-1.46477e-11 -8.09458e-12 2.06272

1.18643 -0.214048 4.43295e-12
-0.214048 1.92245 1.50338e-11
4.43295e-12 1.50338e-11 2.09035

-0.169607 0.735893 3.04494e-11
0.735893 -0.841717 -1.96571e-11
3.04494e-11 -1.96571e-11 -0.955742

-0.0363923 -0.515596 -4.81766e-11
-0.515596 -1.4176 -9.13497e-11
-4.81766e-11 -9.13497e-11 -0.787704

0.317161 0.712611 -3.14152e-11
0.712611 -0.18177 8.09432e-12
-3.14152e-11 8.09432e-12 0.0524764

1.54082 0.337838 -1.53229e-11
0.337838 0.727024 -9.05906e-12
-1.53229e-11 -9.05906e-12 0.878043

-0.577838 0.637137 1.69597e-11
0.637137 0.401933 5.78546e-13
1.69597e-11 5.78546e-13 -0.0997776

-1.11185 -0.246368 2.56321e-11
-0.246368 0.520477 1.42621e-11
2.56321e-11 1.42621e-11 -0.12456

0.278058 -0.604298 -1.28179e-11
-0.604298 0.559637 2.77529e-11
-1.28179e-11 2.77529e-11 0.281372

-0.641416 0.393716 5.97408e-12
0.393716 -0.071866 -1.89835e-11
5.97408e-12 -1.89835e-11 -0.363968

-0.493769 -0.228419 4.37481e-11
-0.228419 -0.216911 -2.86191e-11
4.37481e-11 -2.86191e-11 -0.301506

0.94797 0.474896 5.10753e-12
0.474896 0.122311 2.13934e-11
5.10753e-12 2.13934e-11 0.294929

0.74963 0.25752 2.89109e-12
0.25752 -0.452929 -4.23995e-12
2.89109e-12 -4.23995e-12 0.128382

-1.36674 0.894688 -5.20366e-12
0.894688 -0.236652 -6.16706e-12
-5.20366e-12 -6.16706e-12 -0.255249

-0.0601483 -0.464113 -1.96586e-11
-0.464113 -0.0768019 4.0857e-11
-1.96586e-11 4.0857e-11 -0.0300725

-0.408709 0.738094 9.73262e-12
0.738094 0.630626 2.58259e-11
9.73262e-12 2.58259e-11 0.0118412

-0.767885 -0.394739 -7.22673e-12
-0.394739 0.457854 -2.31275e-11
-7.22673e-12 -2.31275e-11 -0.0130402

-0.0285993 0.805848 -2.02365e-11
0.805848 -0.39768 3.08356e-11
-2.02365e-11 3.08356e-11 -0.0879524

0.245473 -0.685615 -5.97566e-12
-0.685615 -0.341567 2.81382e-11
-5.97566e-12 2.81382e-11 -0.0324208

-0.616587 0.228417 2.50529e-12
0.228417 0.851755 3.27645e-11
2.50529e-12 3.27645e-11 0.0961646

-0.146632 -0.0194629 -2.87161e-11
-0.0194629 0.711013 -6.16764e-12
-2.87161e-11 -6.16764e-12 0.10736

1.66694 -0.260583 1.71536e-11
-0.260583 2.08929 9.25138e-12
1.71536e-11 9.25138e-12 1.69682

2.02581 -0.25294 -1.73415e-12
-0.25294 1.74314 -3.08277e-12
-1.73415e-12 -3.08277e-12 1.69905

0.481515 0.41837 2.28382e-11
0.41837 -0.745353 -3.85405e-12
2.28382e-11 -3.85405e-12 -0.00829723

0.130143 0.127121 -1.73443e-11
0.127121 -0.856201 -4.24036e-12
-1.73443e-11 -4.24036e-12 -1.515

-0.116314 -0.457754 1.58032e-10
-0.457754 -1.79051 3.21882e-11
1.58032e-10 3.21882e-11 -1.32337

-1.09199 -0.606991 3.38465e-11
-0.606991 -0.428435 5.43483e-11
3.38465e-11 5.43483e-11 -0.855074

-1.07346 0.188038 -3.26425e-11
0.188038 -0.776984 3.66177e-12
-3.26425e-11 3.66177e-12 -0.941952

0.863366 -0.0377981 -2.50064e-11
-0.0377981 -0.767008 9.25058e-12
-2.50064e-11 9.25058e-12 0.0105093

-0.708765 0.995065 -1.09852e-11
0.995065 0.421358 1.61889e-11
-1.09852e-11 1.61889e-11 -0.109651

-1.53166 -0.933723 -3.68106e-11
-0.933723 -0.256376 -8.48001e-12
-3.68106e-11 -8.48001e-12 -0.271463

1.3346 0.494125 -2.58258e-11
0.494125 1.54223 -3.58489e-11
-2.58258e-11 -3.58489e-11 1.30103

1.50667 0.518224 3.27648e-11
0.518224 1.43338 9.0591e-12
3.27648e-11 9.0591e-12 1.23484

0.857592 -0.190426 3.37278e-11
-0.190426 1.64315 2.56342e-11
3.37278e-11 2.56342e-11 1.00586

0.790066 0.392072 5.01081e-12
0.392072 1.55476 5.28086e-11
5.01081e-12 5.28086e-11 0.96788

1.65018 -0.095123 -6.66844e-11
-0.095123 0.821777 -3.8643e-11
-6.66844e-11 -3.8643e-11 1.0294

0.987743 0.230116 -9.63649e-12
0.230116 1.91634 8.28696e-12
-9.63649e-12 8.28696e-12 1.25506

1.82005 0.270429 -5.0496e-11
0.270429 1.01609 -1.00221e-11
-5.0496e-11 -1.00221e-11 1.29505

-0.945942 0.0712056 2.58251e-11
0.0712056 0.0903034 3.70034e-11
2.58251e-11 3.70034e-11 -0.652924

-0.764277 0.522525 -5.41546e-11
0.522525 -0.200746 4.84689e-11
-5.41546e-11 4.84689e-11 -0.57069

0.437784 0.0799734 2.16819e-11
0.0799734 -0.41723 3.27631e-11
2.16819e-11 3.27631e-11 -0.0793875

0.705011 -0.0164784 -9.54016e-12
-0.0164784 -1.21996 2.50539e-11
-9.54016e-12 2.50539e-11 -0.113597

0.338895 -0.316533 2.2357e-11
-0.316533 1.02399 2.6405e-11
2.2357e-11 2.6405e-11 0.415311

0.109025 0.473157 -3.84896e-13
0.473157 0.939408 -9.63668e-12
-3.84896e-13 -9.63668e-12 0.392111

0.81776 -0.0240979 -2.80423e-11
-0.0240979 -0.848075 5.39646e-12
-2.80423e-11 5.39646e-12 -0.0105021

-0.140189 0.404187 3.46911e-11
0.404187 -0.795668 -6.55291e-12
3.46911e-11 -6.55291e-12 -0.678221

-0.0258838 -0.284735 2.70176e-12
-0.284735 -1.09844 -1.01179e-10
2.70176e-12 -1.01179e-10 -0.533038

-0.0911388 0.389182 2.9487e-11
0.389182 0.0261842 -2.69809e-11
2.9487e-11 -2.69809e-11 -0.112947

-0.607136 -0.648858 8.67356e-12
-0.648858 -0.0635821 -1.65753e-11
8.67356e-12 -1.65753e-11 -0.0757476

-0.394753 0.834095 6.84151e-12
0.834095 0.567227 -1.29126e-11
6.84151e-12 -1.29126e-11 -0.0102474

0.490657 0.080265 -9.60343e-14
0.080265 -0.902345 -2.29344e-11
-9.60343e-14 -2.29344e-11 -0.134043

0.923338 0.593779 -7.70943e-12
0.593779 0.755471 1.02148e-11
-7.70943e-12 1.02148e-11 0.529821

-0.830745 -0.493556 -3.56468e-12
-0.493556 0.197749 -4.24001e-11
-3.56468e-12 -4.24001e-11 -0.0648347

-0.362453 0.892601 -4.91435e-12
0.892601 0.504997 1.44546e-11
-4.91435e-12 1.44546e-11 -0.0108287

3.46465 1.0393 -2.06232e-11
1.0393 3.5418 -2.85252e-11
-2.06232e-11 -2.85252e-11 3.51544

-0.682295 -0.0618811 -4.41345e-11
-0.0618811 0.867207 2.73678e-11
-4.41345e-11 2.73678e-11 0.0862077

-0.284555 0.338624 -7.51639e-12
0.338624 0.752216 -9.63685e-12
-7.51639e-12 -9.63685e-12 0.0812918

-1.24375 -0.082669 -1.27194e-11
-0.082669 0.307486 -1.88872e-11
-1.27194e-11 -1.88872e-11 -0.764614

-0.86644 0.410841 -4.14352e-11
0.410841 -0.53175 2.16808e-11
-4.14352e-11 2.16808e-11 -0.697377

0.174786 0.338464 1.1949e-11
0.338464 -1.74698 1.81163e-11
1.1949e-11 1.81163e-11 -0.334259

0.214896 -0.231109 -2.5825e-11
-0.231109 -2.09373 -1.831e-11
-2.5825e-11 -1.831e-11 -0.331562

-0.545563 0.450446 -1.54144e-12
0.450446 -0.427692 -7.51581e-12
-1.54144e-12 -7.51581e-12 -0.390454

-0.653054 -0.681203 -1.37794e-11
-0.681203 -0.513545 -1.00215e-11
-1.37794e-11 -1.00215e-11 -0.386738

-0.904298 0.38212 -9.49148e-12
0.38212 -0.333537 1.38759e-11
-9.49148e-12 1.38759e-11 -0.720048

-0.86566 -0.534487 3.12454e-11
-0.534487 -0.656563 6.74513e-12
3.12454e-11 6.74513e-12 -0.723325

-0.287868 0.705612 -8.71105e-11
0.705612 -0.671614 -1.04088e-11
-8.71105e-11 -1.04088e-11 -1.29733

-0.130691 -0.492731 -8.71091e-11
-0.492731 -1.52032 -3.85453e-12
-8.71091e-11 -3.85453e-12 -1.06139

-0.956675 0.986803 3.02577e-11
0.986803 -0.514935 2.96809e-11
3.02577e-11 2.96809e-11 -0.327462

0.160818 -0.532351 -1.56106e-11
-0.532351 -0.420618 -1.06002e-11
-1.56106e-11 -1.06002e-11 -0.108028

0.36531 0.72781 -9.63044e-13
0.72781 -0.379472 -2.69858e-12
-9.63044e-13 -2.69858e-12 0.0296776

-0.129208 0.62918 1.22378e-11
0.62918 0.651484 9.82921e-12
1.22378e-11 9.82921e-12 0.0679616

-0.701429 -0.250909 1.32985e-11
-0.250909 0.615673 -9.63618e-12
1.32985e-11 -9.63618e-12 0.0173455

0.379212 -0.737182 1.98508e-11
-0.737182 0.0178945 -1.34843e-12
1.98508e-11 -1.34843e-12 0.0953558

1.0186 -0.396253 4.52929e-11
-0.396253 0.85908 -2.46702e-11
4.52929e-11 -2.46702e-11 0.633322

0.550607 -0.529 -2.73667e-11
-0.529 -0.344348 2.89174e-12
-2.73667e-11 2.89174e-12 0.0675731

0.0938345 0.801406 -3.64264e-11
0.801406 -0.0393688 1.54176e-11
-3.64264e-11 1.54176e-11 0.0565432

-1.29141 -1.07918 2.0573e-11
-1.07918 -0.487556 3.54616e-11
2.0573e-11 3.54616e-11 -0.371334

-0.837409 0.859924 1.6719e-11
0.859924 0.0980345 2.65963e-11
1.6719e-11 2.65963e-11 -0.282606

0.257236 -0.187247 -3.11729e-11
-0.187247 -0.586471 -6.93808e-11
-3.11729e-11 -6.93808e-11 -0.138754

-0.245467 -0.319468 2.04296e-11
-0.319468 -0.402788 -4.66374e-11
2.04296e-11 -4.66374e-11 -1.52273

-1.609 0.267807 3.02569e-11
0.267807 -1.13941 3.08454e-12
3.02569e-11 3.08454e-12 -1.5963

-0.0500353 0.325764 2.06226e-11
0.325764 -0.493404 2.02365e-11
2.06226e-11 2.02365e-11 -0.182546

0.118508 -0.134115 4.45701e-12
-0.134115 -0.943147 -2.89085e-11
4.45701e-12 -2.89085e-11 -0.429639

1.76442 -0.37048 4.43295e-11
-0.37048 1.99768 4.43325e-12
4.43295e-11 4.43325e-12 1.60971

2.01344 -0.35117 -2.50544e-11
-0.35117 1.57887 -5.51217e-11
-2.50544e-11 -5.51217e-11 1.57764

0.166899 0.106595 2.08143e-11
0.106595 -1.26571 6.70679e-11
2.08143e-11 6.70679e-11 -0.339356

0.13686 0.0288466 -7.70988e-12
0.0288466 -1.54873 2.38978e-11
-7.70988e-12 2.38978e-11 -0.310311

-0.0756357 0.0130177 -2.36086e-11
0.0130177 -0.772757 -6.59114e-11
-2.36086e-11 -6.59114e-11 -0.430623

0.0504094 -0.294457 2.32478e-11
-0.294457 0.490858 -3.17998e-11
2.32478e-11 -3.17998e-11 0.0857512

-0.604048 0.379381 1.30569e-11
0.379381 0.56982 6.74555e-11
1.30569e-11 6.74555e-11 0.025717

0.756792 0.584039 1.44549e-11
0.584039 -0.0459224 -1.15636e-11
1.44549e-11 -1.15636e-11 0.220997

-0.0713407 0.667798 3.62325e-11
0.667798 -0.55202 -1.54049e-12
3.62325e-11 -1.54049e-12 -0.227443

0.10381 -0.521805 3.64248e-11
-0.521805 -0.399634 -5.78171e-12
3.64248e-11 -5.78171e-12 -0.134802

-1.71041 0.0858646 -9.3007e-12
0.0858646 -2.06253 2.1425e-10
-9.3007e-12 2.1425e-10 -2.08914

-1.57674 -0.741313 1.65504e-11
-0.741313 -0.571543 -1.67684e-10
1.65504e-11 -1.67684e-10 -1.7635

0.537792 0.290438 -2.40905e-11
0.290438 -0.0728872 -4.44089e-16
-2.40905e-11 -4.44089e-16 0.0588434

0.061325 0.470433 2.88118e-11
0.470433 -0.715025 -1.31047e-11
2.88118e-11 -1.31047e-11 -0.331141

0.0908965 -0.347989 8.09464e-12
-0.347989 -0.932055 2.85217e-11
8.09464e-12 2.85217e-11 -0.272818

-0.899144 -0.284915 2.15849e-11
-0.284915 0.223816 1.15637e-11
2.15849e-11 1.15637e-11 -0.133358

-0.341891 0.809808 -2.43798e-11
0.809808 0.397328 -9.44375e-12
-2.43798e-11 -9.44375e-12 -0.0586996

-0.566248 1.03144 1.50326e-11
1.03144 0.456208 1.79238e-11
1.50326e-11 1.79238e-11 -0.0735307

-1.10202 -0.619024 3.45944e-11
-0.619024 -0.28813 -2.31245e-12
3.45944e-11 -2.31245e-12 -0.210538

3.79032 1.18624 -2.31282e-12
1.18624 3.823 -1.13718e-11
-2.31282e-12 -1.13718e-11 3.68053

-0.841519 0.638389 4.61089e-11
0.638389 0.114259 3.66223e-12
4.61089e-11 3.66223e-12 -0.373605

-1.17305 -0.728026 2.36569e-11
-0.728026 -0.25332 2.06219e-11
2.36569e-11 2.06219e-11 -0.430329

-1.13178 -0.564422 2.91976e-11
-0.564422 0.084228 3.46924e-12
2.91976e-11 3.46924e-12 -0.154199

-0.640086 0.885301 9.63546e-13
0.885301 0.436141 -9.25086e-12
9.63546e-13 -9.25086e-12 -0.0892249

0.841922 -0.390602 -2.69808e-11
-0.390602 0.0233999 -3.44983e-11
-2.69808e-11 -3.44983e-11 0.234116

-0.221601 -0.472464 1.92726e-11
-0.472464 -0.315993 -1.92724e-12
1.92726e-11 -1.92724e-12 -0.15863

-0.636451 0.518344 -2.45242e-11
0.518344 -0.127875 -8.8656e-12
-2.45242e-11 -8.8656e-12 -0.347836

-0.684143 -0.706804 -9.63579e-12
-0.706804 -0.578006 1.42618e-11
-9.63579e-12 1.42618e-11 -0.374526

0.324234 -0.184397 -1.34432e-11
-0.184397 -1.01456 -3.46919e-12
-1.34432e-11 -3.46919e-12 -0.179933

-0.0551551 0.194333 -2.5825e-11
0.194333 -0.576132 2.69777e-12
-2.5825e-11 2.69777e-12 -0.451171

-0.0695644 -0.197581 -3.54619e-11
-0.197581 -1.12952 2.9294e-11
-3.54619e-11 2.9294e-11 -0.41774

-1.46538 0.218578 -6.01282e-11
0.218578 0.0406321 -7.24642e-11
-6.01282e-11 -7.24642e-11 -1.41918

-1.39516 0.284941 3.12207e-11
0.284941 -0.486669 -3.24736e-11
3.12207e-11 -3.24736e-11 -1.20852

2.04958 0.224109 -2.50498e-12
0.224109 1.4589 1.11786e-11
-2.50498e-12 1.11786e-11 2.15105

1.4872 0.222858 5.01173e-12
0.222858 2.15309 1.58048e-11
5.01173e-12 1.58048e-11 2.15131

-0.429028 0.649111 -8.09401e-12
0.649111 -0.409365 -7.16941e-11
-8.09401e-12 -7.16941e-11 -0.193625

-0.0303532 -0.667366 -2.23549e-11
-0.667366 -0.186088 -2.25492e-11
-2.23549e-11 -2.25492e-11 -0.0903027

2.37038 0.441362 4.18241e-11
0.441362 2.30904 -7.5157e-12
4.18241e-11 -7.5157e-12 2.51404

2.28123 0.48316 1.02139e-11
0.48316 2.30956 -1.56118e-11
1.02139e-11 -1.56118e-11 2.49848

-0.472993 -0.17126 -1.55331e-10
-0.17126 -0.934283 -1.02723e-10
-1.55331e-10 -1.02723e-10 -1.31202

-0.33795 -0.114027 -7.71092e-13
-0.114027 -0.0907101 -8.2871e-11
-7.71092e-13 -8.2871e-11 -1.53263

-0.447827 -0.63885 2.8909e-11
-0.63885 -0.336302 -1.58042e-11
2.8909e-11 -1.58042e-11 -0.16287

-0.277309 0.824142 4.00878e-11
0.824142 -0.454273 5.04938e-11
4.00878e-11 5.04938e-11 -0.179367

0.128028 -0.693309 -1.9079e-11
-0.693309 -0.412931 -2.17779e-11
-1.9079e-11 -2.17779e-11 -0.100536

0.0245211 0.724008 2.02365e-11
0.724008 0.162735 -1.19488e-11
2.02365e-11 -1.19488e-11 0.0821482

0.339152 -0.576128 -2.40896e-11
-0.576128 0.20942 -3.87383e-11
-2.40896e-11 -3.87383e-11 0.111694

0.973233 -0.106944 -2.85242e-11
-0.106944 1.62946 1.83089e-11
-2.85242e-11 1.83089e-11 0.988317

0.648451 0.298436 4.70263e-11
0.298436 1.53142 2.23577e-11
4.70263e-11 2.23577e-11 0.924783

1.6345 -0.0442737 -6.53362e-11
-0.0442737 0.877192 6.55176e-12
-6.53362e-11 6.55176e-12 1.01775

-0.344269 0.768166 -2.54399e-11
0.768166 -0.0776184 -7.71485e-13
-2.54399e-11 -7.71485e-13 -0.0548386

0.108201 -0.75716 -8.86434e-12
-0.75716 -0.0123067 -3.27669e-12
-8.86434e-12 -3.27669e-12 0.00468064

0.985406 0.0481943 2.48623e-11
0.0481943 1.92267 1.54234e-12
2.48623e-11 1.54234e-12 1.32027

1.89776 -0.00583164 3.02603e-11
-0.00583164 1.11705 1.88879e-11
3.02603e-11 1.88879e-11 1.32064

-0.31359 0.785346 4.24063e-12
0.785346 -0.641676 -9.32781e-11
4.24063e-12 -9.32781e-11 -0.314429

0.0872937 -0.560089 -3.8542e-12
-0.560089 -0.51604 1.15576e-12
-3.8542e-12 1.15576e-12 -0.186165

-0.404426 0.776431 2.96809e-11
0.776431 -0.503409 -4.0471e-11
2.96809e-11 -4.0471e-11 -0.364314

-0.00862589 -0.678186 1.02125e-11
-0.678186 -0.625547 3.25698e-11
1.02125e-11 3.25698e-11 -0.252331

2.3292 0.453264 1.81184e-11
0.453264 2.34909 8.09512e-12
1.81184e-11 8.09512e-12 2.56023

2.33733 0.418351 -2.39005e-11
0.418351 2.4119 -5.66644e-11
-2.39005e-11 -5.66644e-11 2.57035

-0.0626586 0.733734 -4.62542e-11
0.733734 -0.247212 -2.27423e-11
-4.62542e-11 -2.27423e-11 -0.0596094

0.149074 -0.607075 -1.00208e-11
-0.607075 -0.0722392 -4.12422e-11
-1.00208e-11 -4.12422e-11 -0.00697432

-0.943115 0.47421 1.13709e-11
0.47421 -0.607486 3.24735e-11
1.13709e-11 3.24735e-11 -0.84186

-1.03924 -0.15453 -1.3683e-11
-0.15453 -0.266769 1.29124e-11
-1.3683e-11 1.29124e-11 -0.978325

-0.875999 0.619205 3.50759e-11
0.619205 -0.233573 -3.19912e-11
3.50759e-11 -3.19912e-11 -0.368636

-0.0418311 -0.702804 -3.86284e-13
-0.702804 -0.441232 1.17558e-11
-3.86284e-13 1.17558e-11 -0.212584

-0.0708845 0.555678 5.20358e-11
0.555678 -1.1791 -4.66392e-11
5.20358e-11 -4.66392e-11 -0.628734

0.0831809 -0.359311 2.46679e-11
-0.359311 -1.48227 4.10493e-11
2.46679e-11 4.10493e-11 -0.505556

-0.451212 0.746049 1.82608e-11
0.746049 0.243732 -1.36831e-11
1.82608e-11 -1.36831e-11 -0.142383

-0.763012 -0.625584 -5.01103e-12
-0.625584 -0.263116 9.25126e-12
-5.01103e-12 9.25126e-12 -0.217404

-1.3459 0.453266 -6.86084e-11
0.453266 -0.262399 -6.68758e-11
-6.86084e-11 -6.68758e-11 -1.01578

-1.22713 0.528234 4.71452e-11
0.528234 -1.0628 7.38131e-11
4.71452e-11 7.38131e-11 -1.33949

-0.937533 -0.939967 1.11304e-11
-0.939967 -0.966753 -3.97011e-11
1.11304e-11 -3.97011e-11 -1.22725

-1.54436 -0.127364 1.58045e-11
-0.127364 0.0231051 -9.13511e-11
1.58045e-11 -9.13511e-11 -1.1994

-0.250574 0.554128 1.96579e-11
0.554128 -1.03697 8.09467e-12
1.96579e-11 8.09467e-12 -1.04721

-0.113345 0.116094 5.01067e-11
0.116094 -0.990208 -4.62597e-12
5.01067e-11 -4.62597e-12 -1.32671

-0.0980769 -0.511511 4.77946e-11
-0.511511 -1.61552 2.08151e-11
4.77946e-11 2.08151e-11 -0.878545

-0.0922257 -0.166798 -4.62504e-12
-0.166798 -1.66669 -2.71719e-11
-4.62504e-12 -2.71719e-11 -1.12419

-0.98683 0.650997 -3.47187e-12
0.650997 -0.429453 3.2146e-10
-3.47187e-12 3.2146e-10 -1.41778

0.211531 -0.130883 5.82792e-10
-0.130883 -0.150275 -2.62471e-10
5.82792e-10 -2.62471e-10 -1.53337

-0.0473235 -0.451289 -8.74199e-10
-0.451289 -1.85066 -5.12673e-11
-8.74199e-10 -5.12673e-11 -1.36425

-0.0625712 -0.554802 1.31008e-11
-0.554802 -1.41137 1.38181e-10
1.31008e-11 1.38181e-10 -0.986006

-0.336188 0.625141 -8.55668e-11
0.625141 -0.924383 -6.09018e-11
-8.55668e-11 -6.09018e-11 -1.12664

-0.241076 0.276775 -1.1178e-11
0.276775 -0.470931 7.70998e-12
-1.1178e-11 7.70998e-12 -0.566959

-0.683853 0.31241 -8.86497e-11
0.31241 -0.242095 -3.12237e-11
-8.86497e-11 -3.12237e-11 -1.46751

0.123492 -0.437185 2.54379e-11
-0.437185 -1.31535 2.50538e-11
2.54379e-11 2.50538e-11 -0.788805

-0.33648 -0.50797 -8.08787e-12
-0.50797 -1.55202 -1.01563e-10
-8.08787e-12 -1.01563e-10 -1.19174

0.00301186 -0.353221 -7.70962e-12
-0.353221 -0.633335 -5.39652e-12
-7.70962e-12 -5.39652e-12 -0.406278

-0.420937 0.726707 -2.15864e-11
0.726707 -0.710095 5.01088e-11
-2.15864e-11 5.01088e-11 -0.783079

-0.178103 0.350318 3.93133e-11
0.350318 -0.877911 8.09438e-11
3.93133e-11 8.09438e-11 -1.04119

-0.0837638 -0.543294 1.696e-11
-0.543294 -1.08462 -1.94647e-11
1.696e-11 -1.94647e-11 -0.590522

-0.0843488 -0.317237 -3.27631e-11
-0.317237 -1.24999 1.09839e-11
-3.27631e-11 1.09839e-11 -0.81108

-0.198974 0.0615349 2.81373e-11
0.0615349 -0.166162 2.6788e-11
2.81373e-11 2.6788e-11 -0.030653

0.128493 -0.0301158 -1.67669e-11
-0.0301158 -0.0946677 1.95607e-11
-1.67669e-11 1.95607e-11 -0.0614087

0.139928 0.114702 2.79445e-11
0.114702 -0.209451 -1.3492e-12
2.79445e-11 -1.3492e-12 -0.0555255

-0.120967 -0.116356 -1.75377e-11
-0.116356 -0.586755 -6.49818e-12
-1.75377e-11 -6.49818e-12 -0.0726055

-0.0976055 0.0189085 -1.38759e-11
0.0189085 -0.437731 -7.46641e-12
-1.38759e-11 -7.46641e-12 -0.0314459

0.0489464 -0.160483 -1.34899e-12
-0.160483 -0.125754 -9.44329e-12
-1.34899e-12 -9.44329e-12 -0.165509

-0.026216 0.298323 3.54607e-11
0.298323 -0.386119 1.36828e-11
3.54607e-11 1.36828e-11 -0.210016

-0.0906989 -0.0271359 -1.11778e-11
-0.0271359 -0.488088 1.31576e-11
-1.11778e-11 1.31576e-11 -0.0406002

0.0954902 0.135825 1.59959e-11
0.135825 -0.743164 -3.63759e-11
1.59959e-11 -3.63759e-11 -0.114208

-0.107916 0.0291778 -1.54176e-11
0.0291778 -0.200672 -8.04593e-12
-1.54176e-11 -8.04593e-12 -0.0114417

-0.102136 -0.0272638 -3.08357e-12
-0.0272638 -0.184758 7.51603e-12
-3.08357e-12 7.51603e-12 -0.00744342

-0.0717896 0.0158378 4.35544e-11
0.0158378 0.0257682 -1.65738e-11
4.35544e-11 -1.65738e-11 0.00215591

0.355323 -0.173245 -3.85394e-12
-0.173245 -0.425662 -2.40899e-11
-3.85394e-12 -2.40899e-11 -0.156457

0.247075 0.00713204 2.58244e-11
0.00713204 -0.0289749 8.19024e-12
2.58244e-11 8.19024e-12 -0.1278

-0.194985 0.222658 1.54176e-11
0.222658 -0.264235 -5.9744e-12
1.54176e-11 -5.9744e-12 -0.0596716

-0.247736 0.315844 -1.94644e-11
0.315844 -0.220125 2.89081e-11
-1.94644e-11 2.89081e-11 -0.0882206

-0.0397218 -0.294972 2.54392e-11
-0.294972 -0.395671 -2.68841e-11
2.54392e-11 -2.68841e-11 -0.221396

0.0349918 0.148888 -9.63558e-12
0.148888 -0.11777 3.34368e-11
-9.63558e-12 3.34368e-11 -0.161747

-0.0407221 0.00965188 1.99463e-11
0.00965188 0.092778 -6.4831e-12
1.99463e-11 -6.4831e-12 -0.00680513

-0.168587 0.0308644 -1.07923e-11
0.0308644 -0.0841035 -6.7451e-12
-1.07923e-11 -6.7451e-12 -0.0131494

-0.171118 -0.0345516 -2.698e-12
-0.0345516 -0.0803943 -1.83566e-11
-2.698e-12 -1.83566e-11 -0.0138473

-0.104645 -0.0350876 -2.04281e-11
-0.0350876 0.0606684 3.15576e-12
-2.04281e-11 3.15576e-12 -0.00338955

-0.177915 0.100147 2.20665e-11
0.100147 -0.236879 1.31049e-11
2.20665e-11 1.31049e-11 -0.0305774

-0.169837 0.0796645 7.70873e-13
0.0796645 -0.422749 -8.23882e-12
7.70873e-13 -8.23882e-12 -0.0446595

-0.279341 0.0782246 -8.86497e-12
0.0782246 -0.228801 1.8983e-11
-8.86497e-12 1.8983e-11 -0.0506588

-0.0112825 -0.050452 1.15632e-11
-0.050452 -0.0354844 -2.46679e-11
1.15632e-11 -2.46679e-11 -0.0153334

-0.0565298 0.0977057 -2.79446e-11
0.0977057 -0.562934 2.22816e-11
-2.79446e-11 2.22816e-11 -0.0557879

-0.164132 0.0174514 1.92732e-12
0.0174514 -0.0940855 4.36028e-11
1.92732e-12 4.36028e-11 -0.00187819

-0.0121134 -0.133189 2.50541e-12
-0.133189 -0.882267 -2.19039e-11
2.50541e-12 -2.19039e-11 -0.141197

-0.112198 -0.0351622 -2.77514e-11
-0.0351622 0.000576698 -5.8719e-11
-2.77514e-11 -5.8719e-11 -0.0043459

0.246643 -0.0277189 3.39189e-11
-0.0277189 -0.222999 -2.46675e-11
3.39189e-11 -2.46675e-11 -0.199186

0.252543 0.0435167 -2.31242e-12
0.0435167 -0.329872 1.98499e-11
-2.31242e-12 1.98499e-11 -0.2148

-0.693535 -0.145818 -2.17773e-11
-0.145818 -0.925584 3.73877e-11
-2.17773e-11 3.73877e-11 -0.951237

-0.697251 0.146703 -6.74523e-12
0.146703 -0.9187 1.70556e-11
-6.74523e-12 1.70556e-11 -0.955079

-0.107552 -0.0336861 3.08353e-12
-0.0336861 -0.30517 3.13168e-12
3.08353e-12 3.13168e-12 -0.00859632

-0.326949 0.0308616 -3.08353e-11
0.0308616 -0.256766 -1.79228e-11
-3.08353e-11 -1.79228e-11 -0.0775318

-0.484388 -0.241607 -6.55245e-12
-0.241607 -0.481165 6.26354e-12
-6.55245e-12 6.26354e-12 -0.36336

-0.518827 0.255893 -6.35984e-12
0.255893 -0.49555 1.78266e-11
-6.35984e-12 1.78266e-11 -0.387025

0.191846 -0.117746 -1.54175e-12
-0.117746 -0.701259 -3.91342e-11
-1.54175e-12 -3.91342e-11 -0.081279

-0.0758314 -0.0645024 -2.15845e-11
-0.0645024 0.075427 8.47956e-12
-2.15845e-11 8.47956e-12 -0.00553752

-0.176724 0.00268535 -9.25047e-12
0.00268535 -0.280603 -3.52678e-11
-9.25047e-12 -3.52678e-11 -0.0236307

0.160247 0.100974 2.98724e-12
0.100974 -0.738433 2.37769e-11
2.98724e-12 2.37769e-11 -0.07524

-0.174085 -0.0931035 7.70863e-12
-0.0931035 -0.223422 2.02357e-11
7.70863e-12 2.02357e-11 -0.0267598

-0.208397 -0.0627978 1.92735e-12
-0.0627978 -0.160228 -2.33191e-11
1.92735e-12 -2.33191e-11 -0.0318176

0.0734232 -0.121526 -4.23985e-12
-0.121526 0.00509716 -9.63564e-13
-4.23985e-12 -9.63564e-13 -0.0367936

-0.156562 0.00368327 2.91009e-11
0.00368327 -0.306802 -5.95986e-11
2.91009e-11 -5.95986e-11 -0.0274896

-0.147228 0.0464878 -2.35118e-11
0.0464878 -0.159384 -8.91325e-12
-2.35118e-11 -8.91325e-12 -0.0118686

-0.136772 0.0602978 2.69801e-12
0.0602978 -0.0838666 2.93896e-11
2.69801e-12 2.93896e-11 -0.012681

0.0264544 -0.469889 -1.13706e-11
-0.469889 -0.531129 -9.05818e-12
-1.13706e-11 -9.05818e-12 -0.165286

-0.129148 -0.0267901 -1.65737e-11
-0.0267901 -0.0502594 -4.19044e-11
-1.65737e-11 -4.19044e-11 -0.00350241

-0.156951 0.0274843 2.50536e-11
0.0274843 -0.124491 -2.81853e-12
2.50536e-11 -2.81853e-12 0.00021812

0.00615856 0.080977 -6.9378e-12
0.080977 0.0622083 9.63594e-12
-6.9378e-12 9.63594e-12 -0.083269

0.00611672 -0.0806207 -1.42611e-11
-0.0806207 0.0625159 -2.21623e-12
-1.42611e-11 -2.21623e-12 -0.0831442

-0.0212275 -0.032666 -4.08562e-11
-0.032666 0.0988976 1.15857e-11
-4.08562e-11 1.15857e-11 -0.00692978

-0.0146515 0.0293976 -1.31048e-11
0.0293976 0.0866633 -5.25146e-12
-1.31048e-11 -5.25146e-12 -0.0831604

-0.0147357 -0.0292184 -6.55243e-12
-0.0292184 0.0867098 1.85972e-11
-6.55243e-12 1.85972e-11 -0.0831274

-0.0300866 -0.101573 -1.23339e-11
-0.101573 0.0379498 -2.11991e-11
-1.23339e-11 -2.11991e-11 -0.0180108

-0.576841 -0.190502 3.77734e-11
-0.190502 -1.00201 1.7441e-11
3.77734e-11 1.7441e-11 -0.817301

-0.582921 0.196958 -2.25484e-11
0.196958 -1.00708 -1.37795e-11
-2.25484e-11 -1.37795e-11 -0.822269

-0.0266797 0.0428964 2.19698e-11
0.0428964 0.103949 -7.51603e-12
2.19698e-11 -7.51603e-12 -0.0361343

-0.02665 -0.0429937 -3.0835e-12
-0.0429937 0.104815 9.73224e-12
-3.0835e-12 9.73224e-12 -0.035955

-0.156504 0.0316365 7.13064e-12
0.0316365 -0.277032 2.24036e-12
7.13064e-12 2.24036e-12 -0.0192673

-0.116801 0.274055 -1.54176e-11
0.274055 -0.582478 -7.13014e-12
-1.54176e-11 -7.13014e-12 -0.583738

0.171048 -0.221107 -3.00641e-11
-0.221107 -0.0852527 7.3231e-12
-3.00641e-11 7.3231e-12 -0.376923

-0.0787659 0.0631938 6.16694e-12
0.0631938 0.0765185 -1.88864e-11
6.16694e-12 -1.88864e-11 -0.00633084

-0.176056 -0.0308549 6.55252e-12
-0.0308549 -0.086606 -1.19245e-11
6.55252e-12 -1.19245e-11 -0.00404561

-0.120448 -0.0445143 1.11777e-11
-0.0445143 -0.186958 1.76459e-11
1.11777e-11 1.76459e-11 0.0024387

-0.0105678 -0.100376 -7.70884e-12
-0.100376 0.0579919 6.74455e-13
-7.70884e-12 6.74455e-13 -0.0383106

-0.0473501 0.287459 -4.58668e-11
0.287459 -0.330103 4.04715e-11
-4.58668e-11 4.04715e-11 -0.0810548

-0.027716 0.0629138 8.09328e-12
0.0629138 0.0656147 -1.99077e-10
8.09328e-12 -1.99077e-10 -0.295232

-0.0281863 -0.0624939 1.52632e-10
-0.0624939 0.0646454 -8.56622e-11
1.52632e-10 -8.56622e-11 -0.295581

0.0709796 0.387498 -2.6017e-11
0.387498 -0.280735 2.68848e-11
-2.6017e-11 2.68848e-11 -0.0455204

-0.030517 0.0186449 -2.62096e-11
0.0186449 0.10251 2.41862e-11
-2.62096e-11 2.41862e-11 -0.0176062

-0.031351 -0.018319 -3.23766e-11
-0.018319 0.105201 1.77783e-11
-3.23766e-11 1.77783e-11 -0.017419

-0.515408 0.188764 1.13704e-11
0.188764 -0.201547 -3.66171e-12
1.13704e-11 -3.66171e-12 -0.133749

0.0939394 0.118511 1.46464e-11
0.118511 0.115613 -2.15845e-11
1.46464e-11 -2.15845e-11 -0.0693329

-0.135528 0.0333154 1.61885e-11
0.0333154 -0.319958 -2.37287e-11
1.61885e-11 -2.37287e-11 -0.0166616

-0.125106 -0.0573043 7.11139e-11
-0.0573043 -0.439377 -6.93805e-12
7.11139e-11 -6.93805e-12 -0.0380891

-0.411156 -0.284895 -1.54177e-11
-0.284895 -0.794637 -3.37247e-12
-1.54177e-11 -3.37247e-12 -0.351382

-1.38499 0.309807 2.42824e-11
0.309807 -0.965584 3.60391e-11
2.42824e-11 3.60391e-11 -1.27753

-1.37054 -0.323377 5.85867e-11
-0.323377 -0.988305 -1.89835e-11
5.85867e-11 -1.89835e-11 -1.2759

-0.175508 0.0530734 -1.54181e-12
0.0530734 -0.171685 -2.89079e-11
-1.54181e-12 -2.89079e-11 -0.0104967

-0.26258 0.076915 -5.29982e-11
0.076915 -0.401674 -1.01662e-11
-5.29982e-11 -1.01662e-11 -0.0745023

-0.0339576 -0.0610874 -1.46466e-11
-0.0610874 0.0818873 2.32467e-11
-1.46466e-11 2.32467e-11 -0.0105814

0.0271286 0.00633941 -6.0899e-11
0.00633941 -0.0504327 1.07913e-11
-6.0899e-11 1.07913e-11 -0.496172

0.209421 0.232774 -1.73437e-11
0.232774 -0.849229 2.60165e-11
-1.73437e-11 2.60165e-11 -0.687683

-0.449214 0.300746 -1.48395e-11
0.300746 -0.793685 7.32338e-12
-1.48395e-11 7.32338e-12 -0.377153

0.110786 -0.0982173 6.74512e-12
-0.0982173 -0.204621 3.08361e-12
6.74512e-12 3.08361e-12 -0.073505

0.107371 0.0281591 -1.92573e-13
0.0281591 -0.118475 1.57066e-11
-1.92573e-13 1.57066e-11 -0.0715238

-0.0239752 -0.00204813 -1.73446e-11
-0.00204813 0.11231 -1.12258e-11
-1.73446e-11 -1.12258e-11 -0.0137814

-0.0231457 0.00308326 -3.08348e-11
0.00308326 0.110728 -2.16808e-12
-3.08348e-11 -2.16808e-12 -0.0139774

-0.0919813 0.0602065 -2.75586e-11
0.0602065 0.0238335 5.26604e-11
-2.75586e-11 5.26604e-11 -0.00456514

-0.0609998 -0.0382431 -6.16697e-12
-0.0382431 0.0838568 -1.36167e-11
-6.16697e-12 -1.36167e-11 -0.00419896

-0.00740723 0.0186818 -7.80504e-12
0.0186818 0.0984317 1.24784e-11
-7.80504e-12 1.24784e-11 -0.0367778

-0.00718725 -0.0182156 -1.16594e-11
-0.0182156 0.0987015 -1.15872e-11
-1.16594e-11 -1.15872e-11 -0.036578

-0.0378476 0.0616714 1.85009e-11
0.0616714 0.0821087 -1.79469e-11
1.85009e-11 -1.79469e-11 -0.0112618

-0.0146163 0.0457058 6.16689e-12
0.0457058 -0.0330267 -2.53425e-11
6.16689e-12 -2.53425e-11 -0.0160027

-0.0107845 0.0581077 1.54177e-12
0.0581077 0.0861384 -2.86667e-12
1.54177e-12 -2.86667e-12 -0.0231246

-0.0080456 -0.0563413 -3.50746e-11
-0.0563413 0.0850515 4.45658e-12
-3.50746e-11 4.45658e-12 -0.0228662

-0.121009 0.130312 -2.11996e-12
0.130312 -0.60676 -4.66865e-11
-2.11996e-12 -4.66865e-11 -0.0903541

0.0683624 -0.0683076 -1.69591e-11
-0.0683076 0.0680732 -1.30084e-11
-1.69591e-11 -1.30084e-11 -0.0141787

-0.163028 0.0220022 8.6724e-12
0.0220022 -0.26438 -4.09533e-12
8.6724e-12 -4.09533e-12 -0.0193068

-0.262953 0.302281 2.4861e-11
0.302281 -0.116957 9.63609e-13
2.4861e-11 9.63609e-13 -0.0735303

0.0995011 -0.0735064 -2.04281e-11
-0.0735064 0.0987034 -1.32013e-11
-2.04281e-11 -1.32013e-11 -0.0248931

-0.0631357 0.0130847 -4.23981e-12
0.0130847 0.0651941 1.49357e-12
-4.23981e-12 1.49357e-12 -0.00212533

-0.404377 0.182088 9.92507e-12
0.182088 -0.558749 2.674e-11
9.92507e-12 2.674e-11 -0.176604

-0.125332 -0.103786 -1.5225e-11
-0.103786 -0.557081 -2.00909e-11
-1.5225e-11 -2.00909e-11 -0.077342

-0.224944 -0.0199074 2.87153e-11
-0.0199074 -0.276131 -1.84048e-11
2.87153e-11 -1.84048e-11 -0.0409356

-0.292131 -0.0734296 -6.35974e-12
-0.0734296 -0.394106 -1.3008e-12
-6.35974e-12 -1.3008e-12 -0.0776709

-0.0709669 0.196937 3.27624e-11
0.196937 -0.224315 1.15613e-12
3.27624e-11 1.15613e-12 -0.0965313

-0.0389938 -0.17726 8.86481e-12
-0.17726 -0.175407 1.05032e-11
8.86481e-12 1.05032e-11 -0.085195

-0.0861084 -0.0144965 -2.26444e-11
-0.0144965 0.0322941 1.3394e-11
-2.26444e-11 1.3394e-11 -0.000264586

-0.527848 -0.200609 -2.58252e-11
-0.200609 -0.19461 5.10712e-11
-2.58252e-11 5.10712e-11 -0.135382

-0.0557078 0.0178032 -7.70943e-13
0.0178032 0.00673473 -1.19486e-11
-7.70943e-13 -1.19486e-11 -0.00724338

-0.0582036 -0.0174112 -2.85224e-11
-0.0174112 0.00194169 2.24516e-11
-2.85224e-11 2.24516e-11 -0.00852296

-0.213677 0.0891196 1.32977e-11
0.0891196 -0.367913 1.16115e-11
1.32977e-11 1.16115e-11 -0.0660497

0.0353475 0.248625 -1.13706e-11
0.248625 -1.01793 2.31264e-11
-1.13706e-11 2.31264e-11 -0.236932

0.0487081 -0.214785 2.40905e-11
-0.214785 -1.0085 -2.11512e-11
2.40905e-11 -2.11512e-11 -0.226619

-0.0660248 0.108884 -1.15631e-11
0.108884 -0.2096 1.45504e-11
-1.15631e-11 1.45504e-11 -0.0213387

-0.308708 -0.0687207 -1.65742e-11
-0.0687207 -0.225339 2.71253e-11
-1.65742e-11 2.71253e-11 -0.0563936

-0.0997327 0.0852774 -1.46468e-11
0.0852774 -0.0972963 -2.42826e-11
-1.46468e-11 -2.42826e-11 -0.0110436

-0.0935402 -0.0835546 6.16721e-12
-0.0835546 -0.0970554 -4.38436e-11
6.16721e-12 -4.38436e-11 -0.0105352

-0.054515 0.00558217 -2.27408e-11
0.00558217 0.0161301 -5.63702e-12
-2.27408e-11 -5.63702e-12 0.000185434

-0.101751 -0.0600548 7.32337e-12
-0.0600548 0.0206854 -2.72215e-11
7.32337e-12 -2.72215e-11 -0.00683151

-0.0700464 0.00618803 3.31476e-11
0.00618803 0.0612409 6.456e-12
3.31476e-11 6.456e-12 -0.00158769

0.49079 0.0944514 -1.21799e-10
0.0944514 -0.258953 9.63568e-11
-1.21799e-10 9.63568e-11 -0.625083

0.433671 -0.460604 -1.77291e-11
-0.460604 -0.535463 1.34844e-12
-1.77291e-11 1.34844e-12 -0.765662

-0.0546749 -0.00635081 -1.73446e-11
-0.00635081 0.063513 -6.86557e-12
-1.73446e-11 -6.86557e-12 -0.00154837

0.0275542 -0.0383873 -2.08135e-11
-0.0383873 0.0681505 -6.84148e-12
-2.08135e-11 -6.84148e-12 -0.0111344

-0.0261885 0.033605 -2.89077e-11
0.033605 0.0984452 -1.00875e-13
-2.89077e-11 -1.00875e-13 -0.00787834

-0.067368 -0.104869 -2.19702e-11
-0.104869 -0.198278 2.20662e-11
-2.19702e-11 2.20662e-11 -0.020352

0.210784 -0.189519 6.55258e-12
-0.189519 0.0866314 -2.2548e-11
6.55258e-12 -2.2548e-11 -0.0481585

-0.156135 0.53111 -3.46954e-12
0.53111 -0.411556 -7.99794e-12
-3.46954e-12 -7.99794e-12 -0.167341

0.0717799 0.0752383 -1.9269e-12
0.0752383 0.0652969 5.70446e-11
-1.9269e-12 5.70446e-11 -0.0149209

0.0536625 -0.0916265 -2.38972e-11
-0.0916265 0.098793 2.77514e-11
-2.38972e-11 2.77514e-11 -0.0150478

-0.131239 0.18402 -1.15671e-12
0.18402 -0.174673 -6.04179e-11
-1.15671e-12 -6.04179e-11 -0.0292982

-0.0187421 -0.000870807 3.12202e-11
-0.000870807 0.141157 5.87941e-12
3.12202e-11 5.87941e-12 -0.00728258

-0.062221 -0.00448164 1.73446e-11
-0.00448164 0.0466558 -6.07058e-12
1.73446e-11 -6.07058e-12 -0.00241152

-0.278821 -0.302578 5.58944e-12
-0.302578 -0.108778 -4.36511e-11
5.58944e-12 -4.36511e-11 -0.0753376

-0.0715137 -0.06506 1.46467e-11
-0.06506 0.0845215 -3.93627e-11
1.46467e-11 -3.93627e-11 -0.000189548

-0.219964 -0.0337816 -5.04926e-11
-0.0337816 -0.170209 5.73327e-12
-5.04926e-11 5.73327e-12 -0.0205172

-0.305362 -0.0396916 6.93806e-12
-0.0396916 -0.256147 -2.20183e-11
6.93806e-12 -2.20183e-11 -0.0741812

-0.0570011 0.0254109 1.42611e-11
0.0254109 -0.0806929 -2.9486e-11
1.42611e-11 -2.9486e-11 -0.0103515

-0.0553214 -0.0280254 1.34905e-11
-0.0280254 -0.0838597 -2.69806e-11
1.34905e-11 -2.69806e-11 -0.0108191

-0.105059 0.0313312 -3.58456e-11
0.0313312 0.0699714 -1.24544e-11
-3.58456e-11 -1.24544e-11 -0.0028098

-0.0713281 0.0667849 4.85651e-11
0.0667849 0.078334 1.56101e-11
4.85651e-11 1.56101e-11 -0.00116385

0.00388957 -0.0414019 5.78132e-12
-0.0414019 -0.102051 2.98715e-11
5.78132e-12 2.98715e-11 -0.0242329

0.00908149 0.0493002 1.73448e-11
0.0493002 -0.0992965 2.31261e-12
1.73448e-11 2.31261e-12 -0.0195634

-0.0810102 -0.00700545 -1.23339e-11
-0.00700545 -0.0035882 4.49517e-11
-1.23339e-11 4.49517e-11 -0.000433143

-0.0838666 0.00548872 -4.47108e-11
0.00548872 0.00626247 1.17075e-11
-4.47108e-11 1.17075e-11 0.000495382

0.0130038 0.0196539 1.61883e-11
0.0196539 0.111403 2.3849e-12
1.61883e-11 2.3849e-12 -0.00954775

0.0137584 -0.0188061 2.89076e-11
-0.0188061 0.111263 3.77486e-11
2.89076e-11 3.77486e-11 -0.00935293

0.0106423 -0.105987 2.46681e-11
-0.105987 0.0925959 -2.10061e-11
2.46681e-11 -2.10061e-11 -0.0101999

-0.167206 -0.48347 5.01122e-12
-0.48347 -0.312725 -1.60921e-11
5.01122e-12 -1.60921e-11 -0.140812

-0.543654 0.00863786 5.87798e-11
0.00863786 -0.326964 -4.72198e-12
5.87798e-11 -4.72198e-12 -0.157386

-0.17005 0.0173855 -4.54818e-11
0.0173855 -0.181327 -1.08404e-11
-4.54818e-11 -1.08404e-11 -0.005068

-0.0983368 -0.0483714 6.16709e-12
-0.0483714 0.0136194 -2.07173e-11
6.16709e-12 -2.07173e-11 -0.0105823

0.0116315 0.0665338 -8.86501e-12
0.0665338 0.064028 4.81803e-12
-8.86501e-12 4.81803e-12 -0.0539558

0.0118226 -0.0660367 -4.5096e-11
-0.0660367 0.0646504 2.28851e-11
-4.5096e-11 2.28851e-11 -0.0537923

-0.0208406 0.0832336 -5.396e-12
0.0832336 0.0773694 2.75587e-11
-5.396e-12 2.75587e-11 -0.0248375

-0.0215243 -0.0836101 1.40684e-11
-0.0836101 0.0776333 -3.8543e-12
1.40684e-11 -3.8543e-12 -0.0249648

-0.150513 -0.0131456 1.65738e-11
-0.0131456 -0.0564704 -2.90525e-11
1.65738e-11 -2.90525e-11 0.000516945

-0.094277 -0.00913921 -1.42612e-11
-0.00913921 -0.00859347 1.02864e-11
-1.42612e-11 1.02864e-11 0.00399701

-0.0982461 0.0559929 3.08336e-12
0.0559929 0.0176273 -2.74624e-11
3.08336e-12 -2.74624e-11 -0.00969475

0.00250775 -0.00591313 7.32324e-11
-0.00591313 0.0568605 5.78144e-12
7.32324e-11 5.78144e-12 -0.155379

0.00240832 0.0060786 -3.77725e-11
0.0060786 0.056334 -3.50745e-11
-3.77725e-11 -3.50745e-11 -0.155486

-0.0281642 -0.073132 -1.04068e-11
-0.073132 0.0711124 -3.37258e-12
-1.04068e-11 -3.37258e-12 -0.00903537

-0.123555 -0.0306535 -1.15632e-11
-0.0306535 -0.299147 -2.41984e-11
-1.15632e-11 -2.41984e-11 -0.0153994

-0.0618319 0.0391743 2.00427e-11
0.0391743 0.0847415 -2.72515e-12
2.00427e-11 -2.72515e-12 -0.00429326

-0.0890184 -0.262361 2.35116e-11
-0.262361 -0.268794 1.71521e-11
2.35116e-11 1.71521e-11 -0.0899739

0.00845342 0.127626 9.63599e-12
0.127626 -0.0337142 4.62526e-12
9.63599e-12 4.62526e-12 -0.0577076

-0.233435 0.0153487 2.31286e-12
0.0153487 -0.217601 -6.37903e-11
2.31286e-12 -6.37903e-11 -0.0321901

0.0585387 0.0909764 4.27833e-11
0.0909764 0.0952896 -4.81893e-13
4.27833e-11 -4.81893e-13 -0.0156881

-0.0320875 0.0748703 -5.39616e-12
0.0748703 0.072629 -8.76866e-12
-5.39616e-12 -8.76866e-12 -0.00936953

-0.407422 0.480296 1.31055e-11
0.480296 -0.203566 3.59428e-11
1.31055e-11 3.59428e-11 -0.113505

0.258485 0.000896657 -8.09399e-12
0.000896657 0.0253538 -1.68629e-11
-8.09399e-12 -1.68629e-11 -0.118642

0.376715 0.241937 4.23964e-12
0.241937 -0.522856 -1.36829e-11
4.23964e-12 -1.36829e-11 -0.168153

0.00545919 0.110328 2.65954e-11
0.110328 0.0899794 3.34366e-11
2.65954e-11 3.34366e-11 -0.0127791

-0.326944 0.232997 -3.39192e-11
0.232997 -0.212434 -3.70023e-11
-3.39192e-11 -3.70023e-11 -0.0745979

-0.204615 -0.0279843 2.38974e-11
-0.0279843 -0.285625 4.32174e-11
2.38974e-11 4.32174e-11 -0.0274215

0.174371 -0.134605 2.77515e-11
-0.134605 0.0742257 -1.25265e-11
2.77515e-11 -1.25265e-11 -0.00224252

-0.172151 -0.229075 2.54426e-16
-0.229075 -0.254064 -1.84048e-11
2.54426e-16 -1.84048e-11 -0.0550908

-0.133216 0.154712 -8.09406e-12
0.154712 -0.159858 1.10815e-11
-8.09406e-12 1.10815e-11 -0.0430853

-0.0384011 -0.0358203 -1.27195e-11
-0.0358203 0.102354 -5.49242e-12
-1.27195e-11 -5.49242e-12 -0.0145573

-0.0348537 -0.111942 1.27193e-11
-0.111942 -0.0805017 2.197e-11
1.27193e-11 2.197e-11 -0.0281238

0.256772 0.165672 5.39598e-12
0.165672 0.0771552 -1.77301e-11
5.39598e-12 -1.77301e-11 -0.0339378

-0.167423 0.0190262 4.62523e-12
0.0190262 -0.154953 6.81749e-12
4.62523e-12 6.81749e-12 -0.0113332

-0.139253 -0.0100134 4.93362e-11
-0.0100134 -0.215187 2.29277e-11
4.93362e-11 2.29277e-11 -0.0126433

-0.0379561 0.036257 -2.69806e-12
0.036257 0.102288 -3.27617e-12
-2.69806e-12 -3.27617e-12 -0.0144651

-0.0403155 -0.00703157 1.00213e-11
-0.00703157 0.0951204 8.50669e-12
1.00213e-11 8.50669e-12 -0.00622661

0.0398665 0.0410941 -7.05343e-11
0.0410941 -0.014963 5.52136e-11
-7.05343e-11 5.52136e-11 -0.266718

0.0394753 -0.0406523 9.90566e-11
-0.0406523 -0.015636 2.51499e-11
9.90566e-11 2.51499e-11 -0.266973

0.0292811 0.0463345 -1.81154e-11
0.0463345 0.0608235 1.97538e-11
-1.81154e-11 1.97538e-11 -0.0148166

-0.861629 -0.273051 3.27628e-12
-0.273051 -0.670398 2.86191e-11
3.27628e-12 2.86191e-11 -0.654327

-0.875078 0.277893 -1.36831e-11
0.277893 -0.668821 1.68629e-11
-1.36831e-11 1.68629e-11 -0.663538

0.070467 -0.0375893 1.94648e-11
-0.0375893 -0.614523 -3.94068e-11
1.94648e-11 -3.94068e-11 -0.045652

-0.414272 -0.473261 2.58248e-11
-0.473261 -0.184931 -1.91756e-11
2.58248e-11 -1.91756e-11 -0.111012

-0.103493 0.0270414 -4.62522e-12
0.0270414 -0.0124974 -4.83966e-11
-4.62522e-12 -4.83966e-11 0.00114733

-0.133285 0.00221075 1.81156e-11
0.00221075 -0.219686 -2.10064e-11
1.81156e-11 -2.10064e-11 -0.0132751

-0.109834 0.0531422 9.63614e-12
0.0531422 -0.04982 6.31637e-11
9.63614e-12 6.31637e-11 -0.00642517

-0.111334 -0.0541843 1.4261e-11
-0.0541843 -0.0558134 5.89239e-11
1.4261e-11 5.89239e-11 -0.00905912

-0.078248 0.0239448 6.9378e-12
0.0239448 -0.00759769 -6.13809e-11
6.9378e-12 -6.13809e-11 -0.000260411

0.176621 0.129414 -4.70234e-11
0.129414 0.0777723 -2.59204e-11
-4.70234e-11 -2.59204e-11 -0.00147614

-0.135688 0.0483713 1.38759e-11
0.0483713 -0.119741 1.85974e-11
1.38759e-11 1.85974e-11 -0.00966154

-0.0768915 0.0136733 3.0835e-12
0.0136733 -0.023956 4.71318e-11
3.0835e-12 4.71318e-11 -0.00103024

0.129937 -0.162081 -5.78187e-12
-0.162081 -0.433438 5.97397e-12
-5.78187e-12 5.97397e-12 -0.346366

0.300232 0.174986 2.35109e-11
0.174986 -0.110771 -4.16273e-11
2.35109e-11 -4.16273e-11 -0.250188

-0.115388 -0.197766 -2.4861e-11
-0.197766 -0.445015 5.54083e-12
-2.4861e-11 5.54083e-12 -0.0996463

0.226924 -0.0321929 2.89083e-12
-0.0321929 -1.01399 -5.29984e-12
2.89083e-12 -5.29984e-12 -0.133695

-0.0990118 -0.0710054 -5.28051e-11
-0.0710054 0.0101776 3.31475e-11
-5.28051e-11 3.31475e-11 -0.00490975

-0.10238 0.0701484 8.86485e-12
0.0701484 0.0148454 -4.394e-11
8.86485e-12 -4.394e-11 -0.00479471

0.0409469 -0.0237081 -8.09434e-12
-0.0237081 -0.751873 4.11126e-11
-8.09434e-12 4.11126e-11 -0.0793764

-0.0313063 0.105534 -2.08136e-11
0.105534 0.0467276 -2.40892e-12
-2.08136e-11 -2.40892e-12 -0.0183557

-0.0242303 0.0629046 -2.35114e-11
0.0629046 0.0570823 5.15519e-11
-2.35114e-11 5.15519e-11 -0.115803

-0.0240243 -0.0625611 2.38967e-11
-0.0625611 0.0569016 5.60809e-11
2.38967e-11 5.60809e-11 -0.115766

-0.336062 -0.0746021 5.20363e-12
-0.0746021 -0.309945 3.52679e-11
5.20363e-12 3.52679e-11 -0.123462

-0.337539 -0.237664 7.70856e-12
-0.237664 -0.213472 6.64894e-12
7.70856e-12 6.64894e-12 -0.0772991

-0.113579 -0.205663 -2.75592e-11
-0.205663 -0.638851 -3.17971e-12
-2.75592e-11 -3.17971e-12 -0.115546

-0.147134 0.00603897 9.44349e-12
0.00603897 -0.300628 6.91864e-11
9.44349e-12 6.91864e-11 -0.0232221

-0.164131 -0.179858 -2.54393e-11
-0.179858 -0.172674 5.20339e-12
-2.54393e-11 5.20339e-12 -0.0375613

-0.173 -0.0345518 9.25049e-12
-0.0345518 -0.172584 2.66314e-11
9.25049e-12 2.66314e-11 -0.0184908

-0.142671 -0.14557 -3.35331e-11
-0.14557 -0.138964 -3.37275e-12
-3.35331e-11 -3.37275e-12 -0.042615

-0.0266976 0.109694 3.62311e-11
0.109694 -0.116325 -7.22705e-12
3.62311e-11 -7.22705e-12 -0.0316404

0.162298 -0.166914 -1.15664e-12
-0.166914 -0.212182 1.67666e-11
-1.15664e-12 1.67666e-11 -0.336561

0.0877365 0.11765 -1.27196e-11
0.11765 -0.243712 -1.59954e-11
-1.27196e-11 -1.59954e-11 -0.357716

-0.0123453 -0.000278031 1.92721e-12
-0.000278031 0.119434 3.09312e-11
1.92721e-12 3.09312e-11 -0.0265458

-0.0138221 -6.45027e-06 1.38757e-11
-6.45027e-06 0.118506 -2.31256e-12
1.38757e-11 -2.31256e-12 -0.0269379

-0.596888 -0.125437 -2.44754e-11
-0.125437 -0.474735 2.96792e-11
-2.44754e-11 2.96792e-11 -0.284454

-0.625003 0.132098 6.20559e-11
0.132098 -0.470031 1.89833e-11
6.20559e-11 1.89833e-11 -0.300018

-0.749436 -0.0660874 4.8373e-11
-0.0660874 -0.393806 4.1432e-12
4.8373e-11 4.1432e-12 -0.507882

-0.757793 0.0740047 -2.42828e-11
0.0740047 -0.404978 2.74627e-11
-2.42828e-11 2.74627e-11 -0.514541

0.00228111 -0.00651512 -4.16267e-11
-0.00651512 0.0332142 7.13055e-11
-4.16267e-11 7.13055e-11 -0.220399

0.00187235 0.00677931 -4.31686e-11
0.00677931 0.0326106 2.40896e-11
-4.31686e-11 2.40896e-11 -0.22061

0.117757 0.0812885 -1.15634e-12
0.0812885 0.0493321 -6.6487e-12
-1.15634e-12 -6.6487e-12 -0.0226894

0.11743 -0.0821811 9.63552e-12
-0.0821811 0.0511867 6.42713e-11
9.63552e-12 6.42713e-11 -0.0221069

-0.0624382 -0.0173739 -1.77301e-11
-0.0173739 0.0967374 5.8297e-12
-1.77301e-11 5.8297e-12 -0.00758379

-0.00156757 -0.107398 1.31054e-11
-0.107398 -0.183055 -4.40363e-11
1.31054e-11 -4.40363e-11 -0.0246319

0.00278609 0.0229137 -1.54164e-12
0.0229137 -0.0151832 1.8212e-11
-1.54164e-12 1.8212e-11 -0.0248461

-0.138564 -0.0482077 -1.73457e-12
-0.0482077 -0.253186 2.89561e-11
-1.73457e-12 2.89561e-11 -0.0136673

-0.0608516 0.0186459 -2.69802e-12
0.0186459 0.0979343 -9.63428e-14
-2.69802e-12 -9.63428e-14 -0.00698451

-0.0458697 0.0893807 -1.3346e-11
0.0893807 -0.146633 -2.57281e-11
-1.3346e-11 -2.57281e-11 -0.0229095

-0.0739804 -0.032927 1.07922e-11
-0.032927 0.0836578 2.89082e-12
1.07922e-11 2.89082e-12 -0.00999461

-0.693367 -0.304151 -2.10068e-11
-0.304151 -0.188979 -1.32979e-11
-2.10068e-11 -1.32979e-11 -0.221626

-0.692249 0.305124 -1.02142e-11
0.305124 -0.198972 -1.88869e-11
-1.02142e-11 -1.88869e-11 -0.224

-0.0759746 0.0339589 4.31689e-11
0.0339589 0.0827035 2.27889e-11
4.31689e-11 2.27889e-11 -0.0103815

-0.154962 0.222877 3.85391e-13
0.222877 -0.461363 -7.8533e-12
3.85391e-13 -7.8533e-12 -0.128608

0.529729 0.0577553 9.01916e-11
0.0577553 -1.28889 1.36855e-11
9.01916e-11 1.36855e-11 -0.907039

0.441282 -0.115524 7.67022e-11
-0.115524 0.0345734 1.84997e-11
7.67022e-11 1.84997e-11 -0.577224

0.119217 0.0447998 -2.77514e-11
0.0447998 0.00696179 -2.88894e-13
-2.77514e-11 -2.88894e-13 -0.0431484

-0.390859 -0.169322 -1.59958e-11
-0.169322 -0.54428 -9.29864e-12
-1.59958e-11 -9.29864e-12 -0.158682

-0.163434 -0.324012 1.27196e-11
-0.324012 -0.648489 -2.39456e-11
1.27196e-11 -2.39456e-11 -0.306981

-0.098446 -0.0172626 2.15845e-11
-0.0172626 -0.0587336 -3.95315e-11
2.15845e-11 -3.95315e-11 -0.0040961

-0.136064 0.00562933 -9.25052e-12
0.00562933 0.0115222 -1.64775e-11
-9.25052e-12 -1.64775e-11 -0.00187236

0.0405669 0.0360806 5.78157e-12
0.0360806 0.0833978 2.53424e-11
5.78157e-12 2.53424e-11 -0.0369799

0.0416191 -0.0345289 3.16056e-11
-0.0345289 0.0827613 -3.10757e-12
3.16056e-11 -3.10757e-12 -0.0367519

-0.174212 0.323473 -1.40687e-11
0.323473 -0.648582 -5.44448e-12
-1.40687e-11 -5.44448e-12 -0.318762

0.00590683 -0.0326979 -1.28879e-11
-0.0326979 -0.0334663 -2.91005e-11
-1.28879e-11 -2.91005e-11 -0.0279133

-0.0713985 -0.0624959 2.89054e-13
-0.0624959 0.075119 2.02356e-12
2.89054e-13 2.02356e-12 -0.00451426

-0.0103819 0.0936412 -2.31241e-12
0.0936412 0.0779803 3.26657e-11
-2.31241e-12 3.26657e-11 -0.0400829

-0.0102625 -0.093415 -4.62529e-12
-0.093415 0.0787793 1.57066e-11
-4.62529e-12 1.57066e-11 -0.039866

-1.25338 -0.468938 -3.16063e-11
-0.468938 -1.49967 9.90661e-11
-3.16063e-11 9.90661e-11 -1.42769

-1.26609 0.47772 3.23772e-11
0.47772 -1.49837 1.42637e-11
3.23772e-11 1.42637e-11 -1.4305

0.0604904 0.133384 -3.23766e-11
0.133384 0.0744166 6.8417e-12
-3.23766e-11 6.8417e-12 -0.0225063

-0.177233 -0.0608676 -1.86939e-11
-0.0608676 -0.350828 -1.98983e-11
-1.86939e-11 -1.98983e-11 -0.0505796

-0.0320512 0.0710471 -8.38305e-12
0.0710471 0.0996016 2.19217e-11
-8.38305e-12 2.19217e-11 -0.0574524

-0.0316292 -0.0707661 -5.49231e-12
-0.0707661 0.0994957 -2.91486e-11
-5.49231e-12 -2.91486e-11 -0.0573677

0.111598 -0.212515 -1.40687e-11
-0.212515 -0.229992 -6.6491e-12
-1.40687e-11 -6.6491e-12 -0.0436974

0.0353602 -0.408229 -1.13706e-11
-0.408229 -0.226298 -5.39617e-12
-1.13706e-11 -5.39617e-12 -0.0344664

-0.160445 -0.0544238 -8.47963e-12
-0.0544238 -0.0723082 -6.57653e-12
-8.47963e-12 -6.57653e-12 -0.01294

-0.62846 0.0331335 -1.92698e-12
0.0331335 -0.128343 -4.43251e-12
-1.92698e-12 -4.43251e-12 -0.25844

-0.636562 -0.033252 3.27619e-12
-0.033252 -0.134073 1.60922e-11
3.27619e-12 1.60922e-11 -0.262953

-0.242441 -0.401254 -6.55283e-12
-0.401254 -0.30853 -1.44539e-12
-6.55283e-12 -1.44539e-12 -0.0998163

-0.0682592 0.0625183 -1.92715e-12
0.0625183 0.0674848 1.73446e-12
-1.92715e-12 1.73446e-12 -0.00606786

-0.347167 0.0797356 -3.27629e-12
0.0797356 -0.311379 -1.12741e-11
-3.27629e-12 -1.12741e-11 -0.135845

-0.627831 0.0270353 -1.11777e-11
0.0270353 -0.324364 -8.67033e-13
-1.11777e-11 -8.67033e-13 -0.266105

-0.641229 -0.0318512 1.71523e-11
-0.0318512 -0.318881 -9.53961e-12
1.71523e-11 -9.53961e-12 -0.270497

-0.153055 0.252364 -7.32345e-12
0.252364 -0.709233 -6.53322e-11
-7.32345e-12 -6.53322e-11 -0.147627

-0.0228564 0.0458166 3.04494e-11
0.0458166 0.111631 -5.92606e-11
3.04494e-11 -5.92606e-11 -0.0780818

-0.0224048 -0.0454437 2.73657e-11
-0.0454437 0.11101 4.5385e-11
2.73657e-11 4.5385e-11 -0.0780485

0.0870077 -0.00309565 -8.09537e-12
-0.00309565 -0.224252 8.13272e-11
-8.09537e-12 8.13272e-11 -0.616492

-0.00968122 0.222091 -1.6573e-11
0.222091 -0.27762 2.56322e-11
-1.6573e-11 2.56322e-11 -0.636247

-0.144171 0.0156658 -2.08136e-11
0.0156658 -0.0512466 -2.81612e-11
-2.08136e-11 -2.81612e-11 0.000738018

-0.036767 -0.00996851 1.31049e-11
-0.00996851 -0.199353 1.49839e-11
1.31049e-11 1.49839e-11 0.0131722

-0.00326585 0.0867138 -5.2034e-11
0.0867138 0.106118 -2.62095e-11
-5.2034e-11 -2.62095e-11 -0.0253317

-0.00135813 -0.0863798 -4.31686e-11
-0.0863798 0.106665 -3.78692e-11
-4.31686e-11 -3.78692e-11 -0.0246602

0.0913564 0.0936753 -8.47979e-12
0.0936753 0.0969153 -2.59206e-11
-8.47979e-12 -2.59206e-11 -0.0217764

-0.123536 0.0238912 -6.55247e-12
0.0238912 -0.0616075 -1.39481e-11
-6.55247e-12 -1.39481e-11 -0.00179795

-0.0789622 -0.00702645 -3.50748e-11
-0.00702645 -0.0779838 5.70926e-12
-3.50748e-11 5.70926e-12 -0.00484616

-0.0532707 -0.0545134 -1.27193e-11
-0.0545134 0.0463678 2.36078e-11
-1.27193e-11 2.36078e-11 -0.28565

-0.0528346 0.0549239 -1.73442e-11
0.0549239 0.0469504 1.33553e-10
-1.73442e-11 1.33553e-10 -0.285395

-0.556302 -0.0106606 -1.38758e-11
-0.0106606 -0.334891 -1.85013e-11
-1.38758e-11 -1.85013e-11 -0.163458

-0.0042555 0.0665386 3.08344e-12
0.0665386 0.0360812 -1.65738e-11
3.08344e-12 -1.65738e-11 -0.00879201

0.011529 0.055296 -3.81581e-11
0.055296 0.0876419 1.72484e-11
-3.81581e-11 1.72484e-11 -0.0220251

0.0116413 -0.0548751 -1.69593e-11
-0.0548751 0.0882134 1.5032e-11
-1.69593e-11 1.5032e-11 -0.0217759

-0.0243101 0.0398813 -2.62097e-11
0.0398813 0.0857154 -1.45502e-11
-2.62097e-11 -1.45502e-11 -0.0123242

-0.00406773 -0.0632681 4.35542e-11
-0.0632681 0.033392 2.71734e-11
4.35542e-11 2.71734e-11 -0.00914647

-0.135706 -0.00308799 -9.25034e-12
-0.00308799 -0.0376515 5.07816e-11
-9.25034e-12 5.07816e-11 -0.00176856

-0.13575 -0.00520429 -1.5803e-11
-0.00520429 -0.0257916 1.56102e-11
-1.5803e-11 1.56102e-11 -0.000535043

-0.109676 -0.0170325 3.77728e-11
-0.0170325 0.0387434 9.63354e-14
3.77728e-11 9.63354e-14 0.000794083

-0.0249746 -0.0388978 1.0792e-11
-0.0388978 0.0871833 2.32227e-11
1.0792e-11 2.32227e-11 -0.0118396

-0.120628 -0.0437915 -4.16273e-11
-0.0437915 -0.121686 -2.00429e-11
-4.16273e-11 -2.00429e-11 -0.00926366

-0.144583 0.0250808 -4.62593e-18
0.0250808 -0.211852 4.27596e-12
-4.62593e-18 4.27596e-12 -0.00614638

0.0372576 0.0769508 5.16483e-11
0.0769508 0.0594292 -1.55139e-11
5.16483e-11 -1.55139e-11 -0.0444181

0.0376543 -0.077498 1.31049e-11
-0.077498 0.0596088 -3.06421e-11
1.31049e-11 -3.06421e-11 -0.0441817

-0.00593778 0.0499161 3.16057e-11
0.0499161 0.109465 -1.15638e-12
3.16057e-11 -1.15638e-12 -0.0497792

-0.00559104 -0.0496573 2.00426e-11
-0.0496573 0.109846 8.19061e-12
2.00426e-11 8.19061e-12 -0.0495686

-0.171624 -0.0430307 6.74516e-12
-0.0430307 -0.0954069 -9.53961e-12
6.74516e-12 -9.53961e-12 -0.00630003

-0.125152 -0.0385302 4.2398e-12
-0.0385302 -0.124976 2.83057e-11
4.2398e-12 2.83057e-11 0.00714749

-0.0222799 -0.0930058 -2.69821e-12
-0.0930058 0.0867092 2.91968e-11
-2.69821e-12 2.91968e-11 -0.0180373

-0.0232718 0.0939193 -2.50535e-11
0.0939193 0.085258 -3.39183e-11
-2.50535e-11 -3.39183e-11 -0.018632

0.214824 -0.052523 1.96576e-11
-0.052523 -0.720746 -2.89074e-11
1.96576e-11 -2.89074e-11 -0.501465

0.116503 -0.0120353 4.47104e-11
-0.0120353 -0.195918 -1.85014e-11
4.47104e-11 -1.85014e-11 -0.40493

0.0388296 0.0535706 1.42611e-11
0.0535706 0.11398 -1.10813e-11
1.42611e-11 -1.10813e-11 -0.0392819

0.0412818 -0.0521223 1.27195e-11
-0.0521223 0.113901 -3.40146e-11
1.27195e-11 -3.40146e-11 -0.0386342

-0.000411646 0.0257216 2.08135e-11
0.0257216 0.0723078 -3.98925e-11
2.08135e-11 -3.98925e-11 -0.0890469

-0.000140235 -0.0256129 3.66162e-11
-0.0256129 0.0721086 3.84954e-11
3.66162e-11 3.84954e-11 -0.0889743

-0.417898 -0.0749617 -2.60172e-11
-0.0749617 -0.169442 9.34681e-12
-2.60172e-11 9.34681e-12 -0.1254

-0.405365 0.0753361 1.15633e-11
0.0753361 -0.182109 -2.6016e-12
1.15633e-11 -2.6016e-12 -0.1247

-0.127859 -0.394841 -1.31057e-11
-0.394841 -0.65269 3.81581e-11
-1.31057e-11 3.81581e-11 -0.680022

-1.11585 0.0131683 -1.36829e-11
0.0131683 -0.765884 -8.38302e-12
-1.36829e-11 -8.38302e-12 -0.952562

-0.0279658 0.0203968 -1.92713e-12
0.0203968 0.0407801 -1.2623e-11
-1.92713e-12 -1.2623e-11 -0.171639

0.013634 -0.0355627 -3.4689e-11
-0.0355627 -0.0104741 -3.36293e-11
-3.4689e-11 -3.36293e-11 -0.226059

-0.0282241 -0.0201607 -7.70865e-12
-0.0201607 0.0418215 1.51282e-11
-7.70865e-12 1.51282e-11 -0.171486

0.0138652 0.0357871 -9.52024e-11
0.0357871 -0.00982275 -3.53634e-11
-9.52024e-11 -3.53634e-11 -0.225865

0.108063 0.237013 3.8519e-13
0.237013 -0.036468 -1.96572e-11
3.8519e-13 -1.96572e-11 -0.440745

-1.11308 -0.0107763 -1.98497e-11
-0.0107763 -0.768119 -1.95613e-11
-1.98497e-11 -1.95613e-11 -0.952156

-0.0160661 0.0105985 -6.47526e-11
0.0105985 -0.00699292 -7.93032e-11
-6.47526e-11 -7.93032e-11 -0.239474

0.0449943 -0.0406433 -3.85821e-10
-0.0406433 -0.0113805 4.04993e-10
-3.85821e-10 4.04993e-10 -0.295898

0.0450475 0.0409234 9.06929e-10
0.0409234 -0.0105626 6.90501e-10
9.06929e-10 6.90501e-10 -0.295663

-0.0153419 -0.0101207 -1.46468e-11
-0.0101207 -0.00667769 -2.96303e-10
-1.46468e-11 -2.96303e-10 -0.239279

0.0424673 -0.01562 -1.15633e-11
-0.01562 -0.024757 5.6948e-11
-1.15633e-11 5.6948e-11 -0.187131

0.0370733 -0.0911612 -1.1563e-11
-0.0911612 0.0316138 1.44547e-12
-1.1563e-11 1.44547e-12 -0.100878

-0.0543283 -0.0235541 -6.55263e-12
-0.0235541 0.0557653 8.15193e-11
-6.55263e-12 8.15193e-11 -0.257736

0.0429061 0.0162171 3.08337e-12
0.0162171 -0.0244975 -2.98702e-12
3.08337e-12 -2.98702e-12 -0.187036

-0.0538686 0.023816 6.55261e-12
0.023816 0.0564797 5.66589e-11
6.55261e-12 5.66589e-11 -0.257475

0.0371985 0.0917101 3.85422e-12
0.0917101 0.0318834 -2.53423e-11
3.85422e-12 -2.53423e-11 -0.100907

0.0169358 0.0230273 -2.35116e-11
0.0230273 0.0639318 -3.11237e-11
-2.35116e-11 -3.11237e-11 -0.118926

-0.00709382 0.061321 3.12201e-11
0.061321 0.000754645 -3.17983e-11
3.12201e-11 -3.17983e-11 -0.181859

0.0167335 -0.0228033 -5.70441e-11
-0.0228033 0.0638728 -5.28046e-11
-5.70441e-11 -5.28046e-11 -0.118917

-0.00720718 -0.0609031 -3.62307e-11
-0.0609031 0.000482157 -2.1488e-11
-3.62307e-11 -2.1488e-11 -0.181918

-0.26207 0.440744 -2.01401e-11
0.440744 0.734396 5.39641e-12
-2.01401e-11 5.39641e-12 0.167225

-0.108035 0.0752582 2.33194e-11
0.0752582 0.238948 -4.62554e-12
2.33194e-11 -4.62554e-12 -0.0415277

-0.853623 0.124302 -1.83085e-11
0.124302 0.452861 4.24e-11
-1.83085e-11 4.24e-11 -0.118603

0.693442 0.22648 -1.83095e-11
0.22648 -0.685473 -5.01076e-12
-1.83095e-11 -5.01076e-12 0.0102954

0.965058 0.0653341 -2.42838e-11
0.0653341 -0.380968 9.25156e-12
-2.42838e-11 9.25156e-12 0.15236

-0.710959 -0.043929 -1.81161e-11
-0.043929 -0.199578 2.9874e-12
-1.81161e-11 2.9874e-12 -0.341092

-1.43804 0.189639 -1.77303e-11
0.189639 0.287819 -1.11777e-11
-1.77303e-11 -1.11777e-11 -0.421398

0.986356 -0.0609959 -3.00662e-11
-0.0609959 -0.253961 7.32359e-12
-3.00662e-11 7.32359e-12 0.168368

0.627564 0.0532823 1.54183e-11
0.0532823 -1.00777 3.66179e-12
1.54183e-11 3.66179e-12 -0.125445

0.293442 0.395442 -1.35882e-11
0.395442 1.15621 -1.77319e-11
-1.35882e-11 -1.77319e-11 0.566062

0.634431 -0.639207 -5.20349e-12
-0.639207 1.32013 4.68342e-11
-5.20349e-12 4.68342e-11 0.673406

1.25359 0.398929 -4.87601e-11
0.398929 0.432386 2.27422e-11
-4.87601e-11 2.27422e-11 0.629244

-0.410014 -0.734979 6.16709e-12
-0.734979 0.0309579 3.08364e-12
6.16709e-12 3.08364e-12 -0.271332

-0.667072 -0.256682 -1.34906e-11
-0.256682 0.0569213 -3.12217e-11
-1.34906e-11 -3.12217e-11 -0.342443

-0.732605 0.379197 -5.9744e-12
0.379197 0.460251 1.3491e-11
-5.9744e-12 1.3491e-11 -0.00355089

-1.07516 0.440773 3.08369e-12
0.440773 0.291728 3.08363e-11
3.08369e-12 3.08363e-11 -0.117861

-1.44472 -0.210744 -3.21844e-11
-0.210744 0.317696 -2.73664e-11
-3.21844e-11 -2.73664e-11 -0.425588

-0.812837 -0.548442 7.41948e-12
-0.548442 -0.074762 -7.7092e-13
7.41948e-12 -7.7092e-13 -0.356235

0.497661 -0.390469 4.14348e-12
-0.390469 -0.752125 -1.48404e-11
4.14348e-12 -1.48404e-11 -0.00497344

0.0895666 0.124641 -2.29345e-11
0.124641 1.30268 3.46895e-12
-2.29345e-11 3.46895e-12 0.459611

0.388945 -0.249 -2.62111e-11
-0.249 1.2777 -1.92707e-12
-2.62111e-11 -1.92707e-12 0.47554

1.2935 0.0938728 -1.67664e-11
0.0938728 0.338272 -1.04078e-11
-1.67664e-11 -1.04078e-11 0.522687

-0.172865 0.51071 1.59969e-11
0.51071 0.434479 6.55293e-12
1.59969e-11 6.55293e-12 0.127541

0.935517 -0.349847 -1.12745e-11
-0.349847 -0.149583 1.52259e-11
-1.12745e-11 1.52259e-11 0.211468

-0.00501703 0.56124 2.04289e-11
0.56124 0.0998963 1.82129e-11
2.04289e-11 1.82129e-11 0.0617782

0.317077 0.400524 -3.44985e-11
0.400524 0.599265 2.6982e-11
-3.44985e-11 2.6982e-11 0.200189

0.770109 -0.118454 -4.4812e-12
-0.118454 -0.732322 3.85125e-13
-4.4812e-12 3.85125e-13 -0.00260985

1.10204 0.268138 1.56118e-11
0.268138 1.71992 2.23565e-11
1.56118e-11 2.23565e-11 1.09553

0.513452 0.134901 3.33659e-11
0.134901 -0.992293 -8.47962e-12
3.33659e-11 -8.47962e-12 -0.120633

1.70227 0.250683 2.0625e-11
0.250683 1.25281 3.10307e-11
2.0625e-11 3.10307e-11 1.15888

-0.374871 -0.247384 1.23344e-11
-0.247384 -0.150975 1.79229e-11
1.23344e-11 1.79229e-11 -0.353304

-0.80143 0.0318865 1.02145e-11
0.0318865 0.16926 -7.70652e-13
1.02145e-11 -7.70652e-13 -0.448748

-0.94347 -0.268241 3.78215e-11
-0.268241 -1.3964 -1.86943e-11
3.78215e-11 -1.86943e-11 -1.46801

-1.20572 0.650844 2.27648e-11
0.650844 -1.14044 -2.50539e-11
2.27648e-11 -2.50539e-11 -1.44105

1.3732 -0.169022 4.87615e-11
-0.169022 0.433237 -3.85556e-12
4.87615e-11 -3.85556e-12 0.545917

-0.46446 0.595921 3.24744e-11
0.595921 -0.0789199 2.54404e-11
3.24744e-11 2.54404e-11 -0.0764181

-0.541882 0.339409 -6.1164e-14
0.339409 -0.644892 1.04074e-11
-6.1164e-14 1.04074e-11 -0.524743

-0.396343 -0.0924924 -1.79596e-11
-0.0924924 -0.529434 -2.04289e-11
-1.79596e-11 -2.04289e-11 -0.534871

0.649169 0.0508678 6.98351e-13
0.0508678 -1.09441 -4.66392e-11
6.98351e-13 -4.66392e-11 -0.114992

0.109247 0.563137 5.01001e-12
0.563137 0.544228 -2.17782e-11
5.01001e-12 -2.17782e-11 0.157439

0.825651 -0.442861 -2.02371e-11
-0.442861 0.249458 -3.27665e-12
-2.02371e-11 -3.27665e-12 0.245746

0.757666 -0.00454802 1.92247e-11
-0.00454802 -1.12633 4.35556e-11
1.92247e-11 4.35556e-11 -0.0872727

0.0467599 -0.764533 1.66712e-11
-0.764533 0.771436 2.83309e-11
1.66712e-11 2.83309e-11 0.170345

0.0720148 -0.667317 -7.80538e-12
-0.667317 0.804408 -1.13713e-11
-7.80538e-12 -1.13713e-11 0.174329

-0.180252 0.343759 -1.92731e-12
0.343759 0.101748 7.51638e-12
-1.92731e-12 7.51638e-12 -0.0425038

0.712321 -0.764348 2.49583e-11
-0.764348 0.477448 -1.46482e-11
2.49583e-11 -1.46482e-11 0.314626

3.37276 -0.762923 -3.18015e-11
-0.762923 3.31362 -1.92595e-12
-3.18015e-11 -1.92595e-12 3.31378

3.35386 -0.808235 -1.94668e-11
-0.808235 3.56446 -4.99184e-11
-1.94668e-11 -4.99184e-11 3.41294

-0.742769 -0.89306 -1.90797e-11
-0.89306 0.208065 1.02149e-11
-1.90797e-11 1.02149e-11 -0.216748

2.15168 -0.301269 4.81811e-12
-0.301269 2.08854 -2.7369e-11
4.81811e-12 -2.7369e-11 2.27649

1.9552 -0.247414 2.69831e-11
-0.247414 2.12103 1.23356e-11
2.69831e-11 1.23356e-11 2.18893

0.0324906 0.383542 3.58465e-11
0.383542 -0.736441 1.23327e-11
3.58465e-11 1.23327e-11 -0.357893

-0.12685 -0.511448 -3.08424e-12
-0.511448 -0.670187 -5.43473e-11
-3.08424e-12 -5.43473e-11 -0.49729

0.341211 -0.267491 7.32352e-12
-0.267491 -0.973677 -1.77306e-11
7.32352e-12 -1.77306e-11 -0.0638606

-0.0176968 0.518406 2.31266e-11
0.518406 -1.05631 3.8533e-12
2.31266e-11 3.8533e-12 -0.430149

-0.239165 -0.719579 -7.70495e-13
-0.719579 -0.770447 6.93804e-11
-7.70495e-13 6.93804e-11 -0.550472

-0.197462 0.396457 -2.64036e-11
0.396457 0.398514 -8.28744e-12
-2.64036e-11 -8.28744e-12 0.0271677

-0.604308 -0.249775 5.63476e-11
-0.249775 -1.37817 1.21486e-11
5.63476e-11 1.21486e-11 -1.16451

-0.948132 0.336522 -4.89038e-12
0.336522 -1.16306 2.38346e-12
-4.89038e-12 2.38346e-12 -1.17053

0.12332 0.608201 -9.44427e-12
0.608201 -0.689268 -1.61403e-11
-9.44427e-12 -1.61403e-11 -0.175666

-0.0960551 -0.775848 -2.2356e-11
-0.775848 -0.624645 1.57561e-11
-2.2356e-11 1.57561e-11 -0.246871

1.30652 -0.527028 -2.69824e-11
-0.527028 0.581093 -3.52692e-11
-2.69824e-11 -3.52692e-11 0.687927

-0.995405 -0.147701 1.21413e-11
-0.147701 -0.56253 1.9272e-11
1.21413e-11 1.9272e-11 -0.811815

-1.32146 -0.0264104 -3.35326e-11
-0.0264104 0.0294812 7.32405e-12
-3.35326e-11 7.32405e-12 -1.00757

-0.22533 -0.646293 -2.69872e-12
-0.646293 0.420893 -1.92727e-11
-2.69872e-12 -1.92727e-11 0.112829

1.09216 -0.221727 9.25094e-12
-0.221727 1.74484 -6.16779e-12
9.25094e-12 -6.16779e-12 1.17311

1.74017 -0.207172 -6.47598e-11
-0.207172 1.12627 -2.54404e-11
-6.47598e-11 -2.54404e-11 1.19231

-0.427523 0.255265 1.73451e-12
0.255265 0.237194 3.02581e-11
1.73451e-12 3.02581e-11 -0.0759761

-1.07531 0.37807 3.6425e-11
0.37807 0.364572 8.09457e-12
3.6425e-11 8.09457e-12 -0.129262

-0.337782 0.485687 1.38374e-10
0.485687 -1.78303 4.58648e-11
1.38374e-10 4.58648e-11 -1.45993

-0.393562 0.148784 8.47476e-12
0.148784 0.1193 -2.79829e-10
8.47476e-12 -2.79829e-10 -1.60506

-1.09792 0.569099 2.05249e-11
0.569099 -0.244845 -2.69826e-12
2.05249e-11 -2.69826e-12 -0.22044

0.336566 0.448635 4.18223e-11
0.448635 -0.816173 1.19479e-11
4.18223e-11 1.19479e-11 -0.08989

0.214367 -0.685223 -5.97444e-12
-0.685223 -0.752755 -3.70017e-11
-5.97444e-12 -3.70017e-11 -0.124655

-0.8881 0.78107 -6.64962e-12
0.78107 -0.245062 1.5418e-11
-6.64962e-12 1.5418e-11 -0.190216

-1.24584 -0.59546 5.45409e-11
-0.59546 0.038749 7.70731e-13
5.45409e-11 7.70731e-13 -0.315077

1.35352 -0.0556623 3.54626e-11
-0.0556623 0.19304 2.58256e-11
3.54626e-11 2.58256e-11 0.516967

0.820825 -0.226918 7.70981e-12
-0.226918 -0.43513 -2.1201e-12
7.70981e-12 -2.1201e-12 0.147332

1.01817 0.278408 -2.361e-11
0.278408 -0.0480984 -3.85592e-13
-2.361e-11 -3.85592e-13 0.284957

-0.36095 0.309101 -1.02622e-11
0.309101 -0.961555 4.24027e-12
-1.02622e-11 4.24027e-12 -0.477938

-2.49792 0.208439 2.95076e-12
0.208439 -1.10759 -5.01083e-12
2.95076e-12 -5.01083e-12 -1.94147

-1.7975 -0.154668 -1.27676e-12
-0.154668 -1.70982 -6.41772e-11
-1.27676e-12 -6.41772e-11 -1.93947

0.704004 0.445977 2.76567e-11
0.445977 0.961622 -1.34909e-11
2.76567e-11 -1.34909e-11 0.536528

0.225661 -0.572596 1.54164e-12
-0.572596 -0.000590276 -7.51661e-12
1.54164e-12 -7.51661e-12 0.0240367

0.480697 0.310286 -3.7775e-11
0.310286 -0.508638 -2.27411e-11
-3.7775e-11 -2.27411e-11 0.0257662

-1.25627 0.350182 -6.55244e-11
0.350182 -0.115707 -5.39496e-12
-6.55244e-11 -5.39496e-12 -1.25345

-1.31212 -0.227711 9.52041e-11
-0.227711 -0.86028 2.25479e-11
9.52041e-11 2.25479e-11 -1.10414

-0.277743 -0.0819053 -6.98596e-12
-0.0819053 -1.03483 2.10069e-11
-6.98596e-12 2.10069e-11 -0.530621

-0.215693 -0.447375 -4.81787e-12
-0.447375 0.342509 8.48012e-12
-4.81787e-12 8.48012e-12 -0.0626175

-0.886538 -0.144955 -2.14885e-11
-0.144955 0.479471 1.69606e-11
-2.14885e-11 1.69606e-11 -0.141452

0.317674 0.0989161 5.01054e-12
0.0989161 -1.32373 5.39648e-12
5.01054e-12 5.39648e-12 -0.135776

0.27556 -0.312182 -4.08582e-11
-0.312182 -1.2783 2.38985e-11
-4.08582e-11 2.38985e-11 -0.157452

0.989068 -0.634203 -5.87798e-12
-0.634203 0.718354 2.04294e-11
-5.87798e-12 2.04294e-11 0.581232

0.218563 0.392104 -4.7893e-11
0.392104 -1.33376 -2.06207e-11
-4.7893e-11 -2.06207e-11 -0.250185

0.153375 -0.611544 -3.19447e-11
-0.611544 -1.07488 1.88874e-11
-3.19447e-11 1.88874e-11 -0.281301

0.479893 -0.54274 3.52688e-11
-0.54274 -0.562967 -4.08585e-11
3.52688e-11 -4.08585e-11 0.00987766

-0.204807 -0.540521 1.31055e-11
-0.540521 0.673148 1.00212e-11
1.31055e-11 1.00212e-11 0.162491

0.187974 0.234803 -6.55229e-12
0.234803 -0.952622 2.44763e-11
-6.55229e-12 2.44763e-11 -0.130828

0.217842 -0.437186 -3.27637e-11
-0.437186 -0.937802 -2.29339e-11
-3.27637e-11 -2.29339e-11 -0.161098

0.585982 -0.140067 5.30022e-12
-0.140067 -0.438868 -1.67667e-11
5.30022e-12 -1.67667e-11 -0.00189919

0.0726476 0.685536 4.14346e-11
0.685536 -0.254118 -2.10068e-11
4.14346e-11 -2.10068e-11 -0.0621829

0.584114 0.450911 -1.21424e-11
0.450911 0.276156 -1.34913e-11
-1.21424e-11 -1.34913e-11 0.245246

-1.09314 0.678494 -2.07185e-11
0.678494 -0.4766 -2.50547e-11
-2.07185e-11 -2.50547e-11 -0.257527

-0.39613 0.509937 -7.32315e-12
0.509937 -0.0201077 2.50543e-12
-7.32315e-12 2.50543e-12 -0.101498

0.926309 0.251258 2.3899e-11
0.251258 -0.274086 2.00439e-11
2.3899e-11 2.00439e-11 0.221282

-0.0985786 -0.334292 -1.21898e-11
-0.334292 -0.506747 3.85506e-13
-1.21898e-11 3.85506e-13 -0.208394

0.554802 0.209864 -2.69824e-11
0.209864 -0.427594 -3.08286e-12
-2.69824e-11 -3.08286e-12 0.0282766

0.192109 0.540213 -1.15553e-12
0.540213 0.386668 -5.78211e-12
-1.15553e-12 -5.78211e-12 0.216041

0.0651514 0.510506 1.17558e-11
0.510506 -0.170834 -2.5825e-11
1.17558e-11 -2.5825e-11 0.0132314

-1.18664 0.00581877 -3.97011e-11
0.00581877 0.586931 2.65969e-11
-3.97011e-11 2.65969e-11 -0.149137

-0.608319 -0.218304 1.5996e-11
-0.218304 0.272445 1.50322e-11
1.5996e-11 1.50322e-11 -0.133199

1.13241 -0.636503 8.28743e-12
-0.636503 0.413325 -5.70482e-11
8.28743e-12 -5.70482e-11 0.609257

-0.638035 -0.872157 4.81793e-12
-0.872157 0.196619 3.56543e-11
4.81793e-12 3.56543e-11 -0.164632

0.272985 -0.766244 9.8293e-12
-0.766244 0.66502 1.65751e-11
9.8293e-12 1.65751e-11 0.296118

0.594885 0.622863 1.00227e-11
0.622863 0.617071 -1.90803e-11
1.00227e-11 -1.90803e-11 0.310826

0.462358 -0.281358 9.1065e-12
-0.281358 -0.192558 -1.07922e-11
9.1065e-12 -1.07922e-11 0.0122027

0.380304 -0.0212066 2.93908e-11
-0.0212066 -1.32483 -2.27414e-11
2.93908e-11 -2.27414e-11 -0.292123

0.263157 0.0917889 3.05471e-11
0.0917889 -1.19304 -9.63629e-12
3.05471e-11 -9.63629e-12 -0.267852

-0.425328 0.284672 -1.14673e-11
0.284672 0.870625 -1.31052e-11
-1.14673e-11 -1.31052e-11 0.172058

0.130578 -0.684326 -1.06e-11
-0.684326 0.363678 2.46698e-11
-1.06e-11 2.46698e-11 0.0699813

-0.0965236 -0.0941332 -9.63626e-12
-0.0941332 1.36622 -6.93865e-12
-9.63626e-12 -6.93865e-12 0.492477

0.209843 -0.117666 1.31058e-11
-0.117666 1.39182 -5.01121e-12
1.31058e-11 -5.01121e-12 0.526106

1.35082 -0.1571 -9.82979e-12
-0.1571 0.0882894 2.89092e-11
-9.82979e-12 2.89092e-11 0.553017

1.03291 0.453075 -3.06462e-11
0.453075 0.840971 -5.33855e-11
-3.06462e-11 -5.33855e-11 0.584519

0.524226 -0.786202 -1.02155e-11
-0.786202 0.0937637 3.46908e-12
-1.02155e-11 3.46908e-12 0.232124

-0.215755 -0.188913 1.23339e-11
-0.188913 -0.180836 -2.81373e-11
1.23339e-11 -2.81373e-11 -1.46226

-1.95437 -0.712599 1.34325e-10
-0.712599 -1.07376 1.4836e-11
1.34325e-10 1.4836e-11 -1.57697

0.832031 -0.465643 -3.52702e-11
-0.465643 -0.291184 -1.8501e-11
-3.52702e-11 -1.8501e-11 0.198681

-0.0518306 0.633605 -1.32976e-11
0.633605 0.161393 2.52474e-11
-1.32976e-11 2.52474e-11 0.00824028

0.371022 0.0418279 5.01147e-12
0.0418279 -0.958707 5.78181e-12
5.01147e-12 5.78181e-12 -0.0489343

-0.015874 -0.569999 1.92975e-13
-0.569999 0.957756 -1.85023e-11
1.92975e-13 -1.85023e-11 0.209202

-1.47997 0.5965 2.26446e-11
0.5965 0.0418742 -9.63648e-12
2.26446e-11 -9.63648e-12 -0.329884

-0.442628 0.254766 -1.00211e-11
0.254766 -0.0848133 1.32977e-11
-1.00211e-11 1.32977e-11 -0.159949

-0.653109 -0.811608 -1.04074e-11
-0.811608 -0.285443 -3.50756e-11
-1.04074e-11 -3.50756e-11 -0.162563

-0.221796 0.610295 1.79229e-11
0.610295 -0.135379 -2.17775e-11
1.79229e-11 -2.17775e-11 -0.091209

-0.846471 0.479935 -1.58997e-11
0.479935 0.163765 3.12224e-11
-1.58997e-11 3.12224e-11 -0.073612

0.228814 -0.0573005 -5.39654e-12
-0.0573005 -2.07341 1.54195e-12
-5.39654e-12 1.54195e-12 -0.268399

0.769484 0.592181 3.3149e-11
0.592181 0.138317 -3.85434e-12
3.3149e-11 -3.85434e-12 0.271288

-0.647622 -0.92307 6.26115e-13
-0.92307 0.450929 4.08581e-11
6.26115e-13 4.08581e-11 -0.11457

0.550816 0.533526 4.95324e-11
0.533526 0.417028 -2.0815e-11
4.95324e-11 -2.0815e-11 0.249232

0.826233 -0.521734 -1.76348e-11
-0.521734 1.14075 5.10737e-11
-1.76348e-11 5.10737e-11 0.603233

-0.285096 -0.753024 7.80559e-12
-0.753024 0.314684 -2.85239e-11
7.80559e-12 -2.85239e-11 -0.0462582

0.0588183 -0.339585 -1.56107e-11
-0.339585 1.21825 -2.1586e-11
-1.56107e-11 -2.1586e-11 0.414502

0.46684 0.130899 -8.47911e-12
0.130899 1.17552 -1.54188e-11
-8.47911e-12 -1.54188e-11 0.442039

1.14472 -0.319793 4.04736e-11
-0.319793 0.23556 -4.04746e-11
4.04736e-11 -4.04746e-11 0.461655

0.393147 -0.685687 2.31259e-12
-0.685687 0.291526 8.86558e-12
2.31259e-12 8.86558e-12 0.226237

-0.56925 -0.0327363 -2.69819e-11
-0.0327363 0.862134 1.58043e-11
-2.69819e-11 1.58043e-11 0.0941356

0.071916 -0.121552 1.32979e-11
-0.121552 0.755581 -1.31056e-11
1.32979e-11 -1.31056e-11 0.146691

0.624366 -0.685733 -1.04074e-11
-0.685733 1.04421 7.32427e-12
-1.04074e-11 7.32427e-12 0.627081

0.846883 0.50922 -4.83757e-11
0.50922 1.01598 -5.08808e-11
-4.83757e-11 -5.08808e-11 0.621277

-0.0305565 0.00229452 -4.23975e-12
0.00229452 -1.48041 1.1756e-11
-4.23975e-12 1.1756e-11 -0.213834

-0.0252597 -0.121495 2.2742e-11
-0.121495 -1.37427 3.08358e-11
2.2742e-11 3.08358e-11 -0.217327

-0.0202593 0.553647 2.96799e-11
0.553647 0.127413 -5.78167e-13
2.96799e-11 -5.78167e-13 0.00707759

-0.738711 -0.913064 1.85015e-11
-0.913064 0.292948 -1.92756e-12
1.85015e-11 -1.92756e-12 -0.182026

-0.430467 0.624 1.97562e-12
0.624 -0.327096 3.84156e-13
1.97562e-12 3.84156e-13 -0.156604

1.42761 0.286092 2.2551e-11
0.286092 0.787212 1.81161e-11
2.2551e-11 1.81161e-11 0.871587

0.0160181 0.34387 1.52255e-11
0.34387 0.836513 3.08348e-12
1.52255e-11 3.08348e-12 0.201259

0.150429 0.313774 -1.19504e-11
0.313774 -0.898471 -4.49043e-11
-1.19504e-11 -4.49043e-11 -0.260259

0.055807 -0.551281 4.43273e-11
-0.551281 -0.869379 3.23772e-11
4.43273e-11 3.23772e-11 -0.356084

0.280387 0.449538 3.8161e-11
0.449538 -0.448964 4.10503e-11
3.8161e-11 4.10503e-11 -0.0550691

0.231563 -0.651111 -1.17558e-11
-0.651111 -0.535163 -1.65738e-11
-1.17558e-11 -1.65738e-11 -0.0989512

1.80442 -0.325217 -1.79251e-11
-0.325217 1.19454 -2.96809e-11
-1.79251e-11 -2.96809e-11 2.03128

1.17736 -0.380366 -1.21431e-11
-0.380366 1.94537 2.04311e-11
-1.21431e-11 2.04311e-11 2.09191

-0.465319 -0.432499 3.08385e-12
-0.432499 0.841979 -1.38764e-11
3.08385e-12 -1.38764e-11 0.156722

-0.0303883 0.518439 -3.85454e-11
0.518439 -1.41473 -2.96779e-11
-3.85454e-11 -2.96779e-11 -0.783244

-0.168773 -0.735743 5.04929e-11
-0.735743 -0.842702 -1.23346e-11
5.04929e-11 -1.23346e-11 -0.955153

0.413324 0.523957 -4.20152e-11
0.523957 -0.094214 -7.13116e-12
-4.20152e-11 -7.13116e-12 0.0718971

1.50119 0.211759 -2.60183e-12
0.211759 0.740787 4.70254e-11
-2.60183e-12 4.70254e-11 0.880091

-0.576251 -0.632407 -2.50544e-11
-0.632407 0.409426 2.50588e-12
-2.50544e-11 2.50588e-12 -0.0992506

-1.05559 -0.303692 -1.71521e-11
-0.303692 0.518496 1.96588e-11
-1.71521e-11 1.96588e-11 -0.119656

0.4466 -0.7503 2.22597e-11
-0.7503 0.644133 1.40687e-11
2.22597e-11 1.40687e-11 0.27868

-0.936736 -0.610071 -9.2509e-12
-0.610071 -0.441041 -1.54137e-12
-9.2509e-12 -1.54137e-12 -0.233958

0.324953 -0.707221 3.0837e-11
-0.707221 -0.183974 2.0813e-11
3.0837e-11 2.0813e-11 0.0546841

-1.50835 0.924889 -2.02358e-11
0.924889 -0.216353 8.47998e-12
-2.02358e-11 8.47998e-12 -0.261226

-0.490331 0.231426 1.50325e-11
0.231426 -0.218889 1.60921e-11
1.50325e-11 1.60921e-11 -0.302109

-0.65353 0.388401 -2.04285e-11
0.388401 -0.0616356 -1.4069e-11
-2.04285e-11 -1.4069e-11 -0.358639

-0.465313 -0.678429 -2.54396e-11
-0.678429 -0.111118 -6.16577e-12
-2.54396e-11 -6.16577e-12 -0.069575

-0.588197 0.661818 5.28073e-11
0.661818 -0.0501097 2.04298e-11
5.28073e-11 2.04298e-11 -0.0700128

0.862741 0.439602 -1.92743e-11
0.439602 0.0706712 -2.12005e-11
-1.92743e-11 -2.12005e-11 0.296378

0.726698 -0.00142625 8.86607e-12
-0.00142625 -0.402657 3.4112e-11
8.86607e-12 3.4112e-11 0.133721

-0.0672633 0.463085 1.25268e-11
0.463085 -0.0831877 -1.29125e-11
1.25268e-11 -1.29125e-11 -0.0334416

-0.400951 -0.732863 -2.24526e-11
-0.732863 0.650488 -1.71524e-11
-2.24526e-11 -1.71524e-11 0.016193

-0.708734 0.110625 -1.81166e-11
0.110625 0.885787 -9.63638e-12
-1.81166e-11 -9.63638e-12 0.085449

0.244585 0.684144 -7.51569e-12
0.684144 -0.346141 4.33637e-11
-7.51569e-12 4.33637e-11 -0.0335938

-0.138954 0.021527 -2.69817e-12
0.021527 0.704452 1.90806e-11
-2.69817e-12 1.90806e-11 0.107931

-1.44318 -0.511476 -1.31055e-11
-0.511476 -0.00600956 -4.23952e-12
-1.31055e-11 -4.23952e-12 -0.314887

1.80675 -0.429205 1.54191e-12
-0.429205 2.05447 -5.31952e-11
1.54191e-12 -5.31952e-11 1.70531

2.07798 -0.438703 3.86432e-11
-0.438703 1.78312 -2.50534e-12
3.86432e-11 -2.50534e-12 1.70684

0.550046 0.150444 -2.68857e-11
0.150444 -0.770554 -5.7807e-12
-2.68857e-11 -5.7807e-12 0.00650388

-0.0221842 -0.806957 6.53346e-11
-0.806957 -0.399106 1.46458e-11
6.53346e-11 1.46458e-11 -0.0865531

-0.123458 0.458989 2.27393e-11
0.458989 -1.78507 -2.5246e-11
2.27393e-11 -2.5246e-11 -1.31814

0.128449 -0.128537 -6.6681e-11
-0.128537 -0.857789 5.35761e-11
-6.6681e-11 5.35761e-11 -1.51518

-0.733184 -0.568412 4.87603e-11
-0.568412 0.115159 -1.54207e-12
4.87603e-11 -1.54207e-12 -0.072608

-1.07734 -0.170616 -5.56973e-11
-0.170616 -0.787265 3.27621e-12
-5.56973e-11 3.27621e-12 -0.959852

-1.09104 0.597804 -1.83818e-11
0.597804 -0.425623 -1.04071e-11
-1.83818e-11 -1.04071e-11 -0.841694

0.843157 0.0532656 2.08628e-11
0.0532656 -0.837207 -4.97231e-11
2.08628e-11 -4.97231e-11 -0.000765941

-0.706295 -0.990288 -2.04285e-11
-0.990288 0.427601 -4.06649e-11
-2.04285e-11 -4.06649e-11 -0.109772

1.52695 0.33127 3.95122e-11
0.33127 1.55509 3.00658e-11
3.95122e-11 3.00658e-11 1.32628

1.37738 0.31897 3.27653e-11
0.31897 1.38439 5.87863e-12
3.27653e-11 5.87863e-12 1.21607

0.708782 -0.383169 1.32975e-11
-0.383169 1.60152 -4.62632e-12
1.32975e-11 -4.62632e-12 0.993007

0.940179 0.191534 6.20606e-11
0.191534 1.59142 3.97025e-11
6.20606e-11 3.97025e-11 0.979317

1.59671 -0.325201 -9.25227e-12
-0.325201 0.794832 -5.13632e-11
-9.25227e-12 -5.13632e-11 1.02418

-1.39312 -0.908875 1.34907e-12
-0.908875 -0.281334 2.65966e-11
1.34907e-12 2.65966e-11 -0.266948

0.830738 0.0179991 -2.33206e-11
0.0179991 1.87661 2.15866e-11
-2.33206e-11 2.15866e-11 1.23749

1.88725 0.02729 -3.08442e-12
0.02729 0.999243 2.00433e-11
-3.08442e-12 2.00433e-11 1.30176

-0.93268 0.0625902 -1.17558e-11
0.0625902 0.0915553 -1.81161e-11
-1.17558e-11 -1.81161e-11 -0.651524

-0.762486 -0.520648 9.25059e-12
-0.520648 -0.198073 6.26353e-12
9.25059e-12 6.26353e-12 -0.571072

0.335101 0.206323 6.50469e-12
0.206323 -0.544546 1.6188e-11
6.50469e-12 1.6188e-11 -0.0916815

0.676628 0.0352601 1.95618e-11
0.0352601 -1.22103 6.16691e-12
1.95618e-11 6.16691e-12 -0.118266

0.0849369 -0.489434 1.29116e-11
-0.489434 0.934599 -1.11783e-11
1.29116e-11 -1.11783e-11 0.385267

0.350024 0.314515 -1.07913e-11
0.314515 1.00808 6.74536e-12
-1.07913e-11 6.74536e-12 0.413078

0.818282 0.0425332 6.07105e-12
0.0425332 -0.823291 2.8138e-11
6.07105e-12 2.8138e-11 -0.00817505

-0.669917 -0.498775 2.69792e-12
-0.498775 0.422909 1.38764e-11
2.69792e-12 1.38764e-11 -0.00565899

-0.0236958 0.287995 2.08154e-11
0.287995 -1.08917 2.29338e-11
2.08154e-11 2.29338e-11 -0.529127

-0.139231 -0.403351 -5.31916e-11
-0.403351 -0.800444 7.82467e-11
-5.31916e-11 7.82467e-11 -0.678389

-0.222432 0.473696 -1.09853e-11
0.473696 -0.256569 -4.62655e-12
-1.09853e-11 -4.62655e-12 -0.134239

-0.404178 -0.834079 3.71961e-11
-0.834079 0.548901 4.43214e-12
3.71961e-11 4.43214e-12 -0.0196029

0.401943 0.214504 1.01664e-11
0.214504 -0.928671 -1.1564e-11
1.01664e-11 -1.1564e-11 -0.133817

0.789467 0.434696 7.70774e-12
0.434696 0.646327 1.04081e-11
7.70774e-12 1.04081e-11 0.510495

-0.36235 -0.900548 -1.34905e-11
-0.900548 0.530854 -3.27634e-11
-1.34905e-11 -3.27634e-11 -0.00768109

3.46419 0.797142 -4.74143e-11
0.797142 3.47785 -2.9489e-11
-4.74143e-11 -2.9489e-11 3.51205

-0.291378 -0.327894 -1.8502e-11
-0.327894 0.761069 -8.09456e-12
-1.8502e-11 -8.09456e-12 0.0818791

-0.608975 -0.194151 4.62527e-12
-0.194151 0.874722 1.65753e-11
4.62527e-12 1.65753e-11 0.101327

-1.25538 -0.0879588 -3.84906e-13
-0.0879588 0.308801 -2.77513e-11
-3.84906e-13 -2.77513e-11 -0.765732

-0.863002 -0.407314 3.48825e-11
-0.407314 -0.529752 5.97386e-12
3.48825e-11 5.97386e-12 -0.697371

0.204057 0.229214 7.71304e-13
0.229214 -2.08336 2.15854e-11
7.71304e-13 2.15854e-11 -0.332174

0.181783 -0.337952 3.31488e-11
-0.337952 -1.75929 6.1669e-12
3.31488e-11 6.1669e-12 -0.333801

-0.602727 0.688735 5.16495e-11
0.688735 -0.570162 -5.39529e-12
5.16495e-11 -5.39529e-12 -0.37292

-0.61479 -0.439295 -7.66071e-12
-0.439295 -0.426595 -4.29778e-11
-7.66071e-12 -4.29778e-11 -0.421207

-0.876216 0.528963 -2.26208e-11
0.528963 -0.64603 3.39192e-11
-2.26208e-11 3.39192e-11 -0.717926

-0.89857 -0.36776 -7.41745e-11
-0.36776 -0.334197 4.43288e-12
-7.41745e-11 4.43288e-12 -0.724515

-0.10762 0.500673 -7.63174e-11
0.500673 -1.50915 3.75826e-11
-7.63174e-11 3.75826e-11 -1.04979

-0.289025 -0.707684 -8.90364e-11
-0.707684 -0.673189 6.74536e-11
-8.90364e-11 6.74536e-11 -1.29735

0.146363 0.523908 9.44323e-12
0.523908 -0.422277 8.86523e-12
9.44323e-12 8.86523e-12 -0.113197

-0.958168 -0.984815 7.70814e-13
-0.984815 -0.521164 -5.08797e-11
7.70814e-13 -5.08797e-11 -0.328393

0.533388 0.541989 -4.6448e-11
0.541989 -0.356258 -2.11993e-11
-4.6448e-11 -2.11993e-11 0.0607744

-0.110758 -0.614463 -4.16289e-11
-0.614463 0.672514 1.3106e-11
-4.16289e-11 1.3106e-11 0.0750985

-0.690512 -0.370968 -7.90191e-12
-0.370968 0.564966 1.38768e-11
-7.90191e-12 1.38768e-11 0.00608935

1.10826 -0.543266 -2.85243e-11
-0.543266 0.984292 -7.70078e-13
-2.85243e-11 -7.70078e-13 0.644484

0.383404 -0.720269 2.60175e-11
-0.720269 -0.370428 -3.8547e-11
2.60175e-11 -3.8547e-11 0.0366472

-0.63747 0.247522 4.23033e-11
0.247522 0.628835 2.69808e-12
4.23033e-11 2.69808e-12 0.0348513

0.366914 0.721584 6.93826e-11
0.721584 0.0347023 8.09575e-12
6.93826e-11 8.09575e-12 0.095513

-1.28738 1.07513 1.56583e-11
1.07513 -0.488076 -3.85451e-11
1.56583e-11 -3.85451e-11 -0.371796

-0.848453 -0.873494 -8.96174e-12
-0.873494 0.106885 1.11783e-11
-8.96174e-12 1.11783e-11 -0.281989

0.0978939 -0.820108 -4.24005e-11
-0.820108 -0.0546613 1.88891e-11
-4.24005e-11 1.88891e-11 0.0556606

0.375399 -0.0547294 1.25285e-12
-0.0547294 -0.435972 5.39632e-12
1.25285e-12 5.39632e-12 -0.118257

-1.60319 -0.265928 -9.05791e-11
-0.265928 -1.13814 -7.35228e-11
-9.05791e-11 -7.35228e-11 -1.59604

-0.245789 -0.318177 -5.78159e-12
-0.318177 -0.403324 -1.00207e-11
-5.78159e-12 -1.00207e-11 -1.52185

-0.880549 -0.319221 4.00866e-11
-0.319221 0.204225 -4.27858e-11
4.00866e-11 -4.27858e-11 -0.140947

-0.137275 0.442255 -7.51565e-12
0.442255 -0.56829 2.58246e-11
-7.51565e-12 2.58246e-11 -0.164884

-0.0540612 -0.0354197 1.36595e-11
-0.0354197 -0.795735 8.47975e-12
1.36595e-11 8.47975e-12 -0.416642

1.57453 -0.556813 1.02159e-11
-0.556813 1.96624 2.27418e-11
1.02159e-11 2.27418e-11 1.57938

1.87847 -0.50011 -4.33658e-11
-0.50011 1.53967 -2.49582e-11
-4.33658e-11 -2.49582e-11 1.55293

0.138639 -0.0223287 -1.9279e-12
-0.0223287 -1.50432 -2.77523e-11
-1.9279e-12 -2.77523e-11 -0.301639

0.165048 -0.10247 3.8544e-12
-0.10247 -1.31271 -3.85779e-13
3.8544e-12 -3.85779e-13 -0.347221

0.0982083 0.115088 5.51691e-12
0.115088 -0.945037 3.08356e-11
5.51691e-12 3.08356e-11 -0.449391

0.0540411 0.294176 -1.53695e-11
0.294176 0.477266 1.34912e-11
-1.53695e-11 1.34912e-11 0.0836064

0.804832 0.376841 1.88874e-11
0.376841 0.0534257 3.37272e-11
1.88874e-11 3.37272e-11 0.238158

0.108066 0.515303 -3.02561e-11
0.515303 -0.402712 7.09227e-11
-3.02561e-11 7.09227e-11 -0.13458

-0.068644 -0.675667 -3.77743e-11
-0.675667 -0.56017 -4.20133e-11
-3.77743e-11 -4.20133e-11 -0.227848

-1.72811 -0.084451 3.81827e-11
-0.084451 -2.16545 -6.09399e-11
3.81827e-11 -6.09399e-11 -2.12653

-1.58773 0.742495 4.2326e-11
0.742495 -0.578313 4.15024e-11
4.2326e-11 4.15024e-11 -1.76246

-0.978897 -0.579172 9.25067e-12
-0.579172 0.0547597 -3.89307e-11
9.25067e-12 -3.89307e-11 -0.139807

0.469113 0.377944 -1.57079e-11
0.377944 -0.286402 3.35345e-11
-1.57079e-11 3.35345e-11 0.0461269

0.0973481 0.347778 -4.9819e-11
0.347778 -0.922577 -3.85345e-12
-4.9819e-11 -3.85345e-12 -0.269104

0.0569193 -0.472433 -5.0976e-11
-0.472433 -0.721627 -5.01077e-11
-5.0976e-11 -5.01077e-11 -0.332787

-0.338868 -0.808059 6.64918e-12
-0.808059 0.4133 -2.83307e-11
6.64918e-12 -2.83307e-11 -0.0560936

-0.571101 -1.03437 -7.99794e-12
-1.03437 0.463397 -1.44543e-11
-7.99794e-12 -1.44543e-11 -0.0747556

3.60947 0.952041 1.90813e-11
0.952041 3.71204 5.78215e-12
1.90813e-11 5.78215e-12 3.61312

-1.16124 0.729499 1.14189e-11
0.729499 -0.249606 2.79455e-11
1.14189e-11 2.79455e-11 -0.424084

-0.859987 -0.644205 -5.30205e-13
-0.644205 0.117982 1.46472e-11
-5.30205e-13 1.46472e-11 -0.379222

-0.640277 -0.889231 -1.45508e-11
-0.889231 0.449191 9.05837e-12
-1.45508e-11 9.05837e-12 -0.0881873

0.793351 -0.602077 -2.71761e-11
-0.602077 -0.0681612 1.81174e-11
-2.71761e-11 1.81174e-11 0.218809

-0.0982001 -0.395669 -1.92719e-11
-0.395669 0.0506518 -3.81594e-11
-1.92719e-11 -3.81594e-11 -0.122122

-0.657586 0.689003 1.09371e-11
0.689003 -0.585156 6.93912e-12
1.09371e-11 6.93912e-12 -0.366303

-0.644328 -0.55143 1.5032e-11
-0.55143 -0.0653751 3.48835e-11
1.5032e-11 3.48835e-11 -0.344986

0.420026 -0.0526217 -5.54054e-12
-0.0526217 -0.997319 -1.92727e-11
-5.54054e-12 -1.92727e-11 -0.179623

-0.077936 0.200765 -8.09477e-12
0.200765 -1.12638 -3.66126e-12
-8.09477e-12 -3.66126e-12 -0.417777

-0.0444263 -0.194594 3.66181e-11
-0.194594 -0.578709 -1.58032e-11
3.66181e-11 -1.58032e-11 -0.448628

-1.39261 -0.281914 -4.04717e-11
-0.281914 -0.485757 -5.78133e-12
-4.04717e-11 -5.78133e-12 -1.20894

-1.46217 0.218782 2.4283e-11
0.218782 0.039752 8.09465e-12
2.4283e-11 8.09465e-12 -1.41771

2.20253 0.073588 -1.09871e-11
0.073588 1.45303 -3.83544e-11
-1.09871e-11 -3.83544e-11 2.18236

1.48588 0.0661326 1.46474e-11
0.0661326 2.1498 -1.85022e-11
1.46474e-11 -1.85022e-11 2.15135

-0.0279779 0.657294 4.31713e-11
0.657294 -0.191168 2.11994e-11
4.31713e-11 2.11994e-11 -0.0912493

-0.434791 -0.655985 4.97233e-11
-0.655985 -0.417229 2.31262e-11
4.97233e-11 2.31262e-11 -0.195871

-1.00747 -0.629453 -3.08361e-12
-0.629453 -0.275352 1.73454e-11
-3.08361e-12 1.73454e-11 -0.201345

2.23565 0.233576 2.31265e-12
0.233576 2.24544 4.16311e-11
2.31265e-12 4.16311e-11 2.47031

2.23141 0.254794 -7.51679e-11
0.254794 2.24227 -2.38983e-11
-7.51679e-11 -2.38983e-11 2.47853

-0.340119 0.11259 4.77951e-11
0.11259 -0.0920577 1.81156e-10
4.77951e-11 1.81156e-10 -1.53292

-0.477424 0.175364 -6.92839e-12
0.175364 -0.938835 2.54196e-10
-6.92839e-12 2.54196e-10 -1.30868

-0.397672 -0.588974 1.007e-11
-0.588974 -0.0387097 -1.98511e-11
1.007e-11 -1.98511e-11 -0.172703

0.0233074 -0.730393 -3.50771e-11
-0.730393 0.171625 -3.43039e-11
-3.50771e-11 -3.43039e-11 0.0845413

0.132608 0.687455 -1.3489e-11
0.687455 -0.417701 3.66174e-11
-1.3489e-11 3.66174e-11 -0.100705

-0.273914 -0.827802 8.0949e-12
-0.827802 -0.45747 2.31265e-12
8.0949e-12 2.31265e-12 -0.178524

-0.35035 -0.77569 -3.44985e-11
-0.77569 -0.0857037 -2.27407e-11
-3.44985e-11 -2.27407e-11 -0.0568384

0.333109 0.564122 2.79441e-11
0.564122 0.197307 -3.16076e-11
2.79441e-11 -3.16076e-11 0.107711

0.690965 -0.25345 -5.39681e-12
-0.25345 1.60077 -3.0835e-12
-5.39681e-12 -3.0835e-12 0.956717

0.925233 0.151318 -7.70814e-12
0.151318 1.5777 4.06667e-11
-7.70814e-12 4.06667e-11 0.958521

1.56059 -0.234111 1.58042e-11
-0.234111 0.885571 3.816e-11
1.58042e-11 3.816e-11 1.00671

0.108718 0.749048 1.88875e-11
0.749048 -0.0166515 -1.09849e-11
1.88875e-11 -1.09849e-11 0.00376145

1.13966 -0.181028 -2.50554e-11
-0.181028 1.95169 2.02374e-11
-2.50554e-11 2.02374e-11 1.33586

1.91885 -0.124197 -3.99945e-11
-0.124197 1.09385 -1.27199e-11
-3.99945e-11 -1.27199e-11 1.31984

0.0971206 0.549947 -4.62537e-11
0.549947 -0.519056 -3.2755e-12
-4.62537e-11 -3.2755e-12 -0.185196

-0.319273 -0.79976 -2.11925e-12
-0.79976 -0.642239 1.31044e-11
-2.11925e-12 1.31044e-11 -0.31537

-0.00131768 0.673009 -3.21842e-11
0.673009 -0.626971 1.07926e-11
-3.21842e-11 1.07926e-11 -0.251209

-0.4054 -0.782421 4.81848e-12
-0.782421 -0.505165 1.73445e-11
4.81848e-12 1.73445e-11 -0.36415

2.34588 0.287295 9.63285e-13
0.287295 2.37585 -6.41815e-11
9.63285e-13 -6.41815e-11 2.57547

2.35043 0.280704 5.00153e-11
0.280704 2.36519 -3.29583e-11
5.00153e-11 -3.29583e-11 2.56082

0.149193 0.600528 -2.42827e-11
0.600528 -0.0782604 2.00432e-11
-2.42827e-11 2.00432e-11 -0.0082801

-0.0589303 -0.740757 4.74113e-11
-0.740757 -0.243353 2.31257e-11
4.74113e-11 2.31257e-11 -0.0574427

-0.939682 -0.470794 -3.8159e-11
-0.470794 -0.604698 2.3705e-11
-3.8159e-11 2.3705e-11 -0.841762

-1.04098 -0.162875 -3.2767e-12
-0.162875 -0.268119 -3.73878e-11
-3.2767e-12 -3.73878e-11 -0.979005

-0.0462905 0.684265 3.46986e-12
0.684265 -0.447239 1.07925e-11
3.46986e-12 1.07925e-11 -0.216215

-0.85514 -0.612042 -3.27539e-12
-0.612042 -0.231678 2.6211e-11
-3.27539e-12 2.6211e-11 -0.363942

0.0853653 0.359154 -4.47121e-11
0.359154 -1.47462 3.43061e-11
-4.47121e-11 3.43061e-11 -0.502529

-0.0701068 -0.557574 -7.40066e-11
-0.557574 -1.18381 -6.39816e-11
-7.40066e-11 -6.39816e-11 -0.628632

-0.73713 0.62743 -2.36094e-11
0.62743 -0.272601 -1.04077e-11
-2.36094e-11 -1.04077e-11 -0.214502

-0.518093 -0.729542 -9.20288e-12
-0.729542 0.273948 3.44982e-11
-9.20288e-12 3.44982e-11 -0.15589

-1.19951 -0.509884 7.05612e-11
-0.509884 -1.06955 -1.05227e-10
7.05612e-11 -1.05227e-10 -1.34307

-1.34443 -0.452534 -1.25271e-11
-0.452534 -0.261064 -1.95611e-11
-1.25271e-11 -1.95611e-11 -1.01648

-0.0964912 0.512358 -2.89083e-11
0.512358 -1.61816 8.28683e-12
-2.89083e-11 8.28683e-12 -0.876026

-0.0918702 0.165762 7.97854e-11
0.165762 -1.66122 -6.64913e-11
7.97854e-11 -6.64913e-11 -1.11917

-0.248267 -0.553894 5.39602e-12
-0.553894 -1.03889 -1.77304e-11
5.39602e-12 -1.77304e-11 -1.04662

-0.114827 -0.116876 5.00968e-12
-0.116876 -0.992349 -6.93747e-12
5.00968e-12 -6.93747e-12 -1.32692

-1.53226 -0.12674 9.82931e-12
-0.12674 0.0239195 1.31054e-11
9.82931e-12 1.31054e-11 -1.1973

-0.941102 0.938876 2.95584e-11
0.938876 -0.963121 3.66181e-11
2.95584e-11 3.66181e-11 -1.22441

0.0213231 0.557221 6.82221e-11
0.557221 -1.41189 2.31012e-12
6.82221e-11 2.31012e-12 -0.962972

-0.0658333 0.461108 1.10197e-09
0.461108 -1.80884 -5.65451e-10
1.10197e-09 -5.65451e-10 -1.3507

0.210929 0.130208 8.31005e-10
0.130208 -0.149176 -5.89845e-11
8.31005e-10 -5.89845e-11 -1.53277

-0.991043 -0.653776 -2.77546e-11
-0.653776 -0.431286 -8.63383e-11
-2.77546e-11 -8.63383e-11 -1.41844

0.177382 0.424563 -7.67061e-11
0.424563 -1.31437 -8.40228e-11
-7.67061e-11 -8.40228e-11 -0.77427

0.0228484 0.337561 7.78604e-11
0.337561 -0.633829 1.8114e-11
7.78604e-11 1.8114e-11 -0.402491

-0.300691 0.536299 -1.12165e-10
0.536299 -1.53946 4.62949e-12
-1.12165e-10 4.62949e-12 -1.1751

-0.338996 -0.628357 2.69806e-11
-0.628357 -0.92934 -3.73888e-11
2.69806e-11 -3.73888e-11 -1.12763

-0.684928 -0.314546 1.5416e-11
-0.314546 -0.243096 -1.30279e-10
1.5416e-11 -1.30279e-10 -1.4674

-0.241696 -0.278737 1.92781e-12
-0.278737 -0.478866 1.15649e-11
1.92781e-12 1.15649e-11 -0.568132

-0.0568417 0.549525 8.86527e-11
0.549525 -1.07798 2.79425e-11
8.86527e-11 2.79425e-11 -0.582083

-0.0770307 0.320013 -9.21194e-11
0.320013 -1.24245 2.38996e-11
-9.21194e-11 2.38996e-11 -0.804954

-0.420501 -0.727473 2.00428e-11
-0.727473 -0.714307 -6.59106e-11
2.00428e-11 -6.59106e-11 -0.783284

-0.178771 -0.35159 2.27406e-11
-0.35159 -0.882498 -1.42612e-11
2.27406e-11 -1.42612e-11 -1.04166

VECTORS fluid_flux_TPM float
-1.204e-05 -3.60786e-05 -6.92732e-20
-3.80831e-06 2.97764e-05 -1.06108e-19
5.96137e-06 -2.97924e-05 -1.1975e-19
-2.69374e-05 -5.14637e-06 -4.94159e-20
-3.37723e-05 -8.90811e-06 -4.74453e-20
-4.56535e-06 3.85808e-05 -1.12474e-19
6.71928e-06 -3.86075e-05 -1.03834e-19
-3.62857e-05 9.122e-06 -6.13909e-20
-1.14003e-05 1.84617e-05 -1.02621e-19
-1.90504e-05 -4.42252e-05 -3.18323e-20
-1.82622e-05 4.73042e-05 -3.7744e-20
4.94764e-05 2.01658e-05 -6.66963e-21
2.65496e-05 2.56663e-05 -7.65491e-20
-2.45115e-05 -2.55898e-05 -4.42621e-20
-1.19711e-05 -2.50755e-05 -9.59517e-20
-3.67366e-06 -2.38488e-05 -1.09291e-19
3.89017e-06 3.94413e-05 -8.21577e-20
-1.80556e-06 -3.94663e-05 -7.77618e-20
3.43577e-05 3.49575e-06 -3.33481e-20
-1.43335e-05 -5.33814e-05 -5.76013e-20
-1.44676e-05 5.45894e-05 -4.63842e-20
5.94417e-05 1.37345e-05 -2.88007e-21
-2.30634e-05 -2.38948e-05 -5.1538e-20
-3.7191e-05 8.72385e-06 -6.26035e-20
-2.65465e-05 -2.40769e-05 -4.92643e-20
1.59089e-05 3.52316e-05 -7.59428e-20
-2.55587e-05 4.84207e-06 -7.15469e-20
-3.85431e-05 -8.0341e-05 -2.46321e-20
-2.22465e-05 -1.13225e-05 -7.09406e-20
8.55755e-05 4.04998e-05 -5.98751e-21
-1.41281e-07 3.68611e-05 -8.83726e-20
2.25054e-06 -3.68705e-05 -8.07934e-20
-8.4826e-05 -4.30952e-05 -2.06152e-20
-8.51231e-05 4.14653e-05 -4.57779e-20
-5.453e-05 1.78291e-05 -5.57823e-20
-1.95044e-05 -1.57459e-05 -5.5176e-20
-3.43422e-05 -1.72502e-05 -3.68345e-20
-3.59724e-05 1.75677e-05 -8.98884e-20
-5.89975e-06 -1.20444e-05 -8.89789e-20
2.39617e-05 2.44975e-05 -7.10922e-20
-3.49877e-05 2.33738e-05 -6.39678e-20
-1.03361e-05 1.91303e-07 -1.04743e-19
-2.26388e-05 2.47226e-05 -5.59339e-20
-1.22272e-05 3.5902e-05 -5.74497e-20
5.50487e-06 2.38535e-05 -1.06562e-19
-3.54136e-05 2.3337e-05 -5.22959e-20
-8.74365e-05 -8.74365e-05 -6.36646e-21
9.05497e-05 9.05497e-05 -2.12215e-21
8.15823e-06 1.87036e-05 -8.41283e-20
9.0877e-05 9.60792e-05 -1.0535e-20
-9.28584e-05 -8.7698e-05 -1.69014e-20
4.25665e-05 -4.4402e-06 -1.36424e-21
4.2536e-05 4.41684e-06 -7.36691e-20
2.95159e-05 5.28857e-06 -6.04814e-20
4.05376e-05 -1.87173e-05 2.42532e-21
4.05033e-05 1.87206e-05 -5.89656e-20
1.50679e-05 2.46864e-05 -8.39767e-20
-3.56992e-05 -6.69034e-05 -2.2889e-20
-3.58043e-05 6.71686e-05 -9.27685e-20
3.22944e-05 -1.24485e-05 -2.7588e-20
3.22434e-05 1.23775e-05 -6.59384e-20
-4.79241e-05 2.09702e-05 -4.95675e-20
-3.87397e-05 6.10984e-05 -6.77574e-20
4.1154e-05 -6.15861e-05 -6.10877e-20
2.33966e-05 -2.41947e-05 -4.06241e-20
-4.23418e-05 8.11514e-05 -2.80428e-20
-8.11514e-05 4.2983e-05 -3.62282e-20
4.70038e-06 2.36825e-05 -9.89833e-20
-2.66652e-06 -2.3613e-05 -1.2354e-19
7.26337e-05 -3.00859e-05 8.48862e-21
7.26562e-05 3.00952e-05 -3.33481e-20
5.14309e-06 -7.52611e-06 -9.59517e-20
3.27425e-05 1.14394e-05 -4.15336e-20
3.2814e-05 -1.14512e-05 -3.54703e-20
-1.73193e-05 -1.18431e-05 -6.48773e-20
-6.09692e-06 -1.83998e-05 -3.83504e-20
-5.04075e-05 -1.07474e-05 -3.98662e-20
-4.3548e-05 -6.38967e-06 -3.34997e-20
-3.20936e-05 -2.71664e-05 -3.68345e-20
-3.76359e-05 6.51866e-05 -4.04725e-20
-3.75457e-05 -6.50304e-05 4.54747e-22
-3.82577e-05 -4.28948e-05 -2.80428e-20
-2.8137e-05 1.66333e-05 -6.26035e-20
3.38353e-05 1.23668e-05 -3.68345e-20
-5.87492e-06 6.90928e-05 -5.18412e-20
7.47994e-06 -6.97771e-05 -3.10744e-20
-3.32207e-05 2.99099e-05 -9.44359e-20
3.43242e-06 3.16154e-05 -8.89789e-20
-1.20775e-06 -3.16138e-05 -1.00954e-19
2.87859e-05 -4.90782e-06 -7.51849e-20
2.84809e-05 4.58935e-06 -6.79089e-20
5.05553e-05 -3.47528e-05 -2.00089e-20
4.07676e-05 6.70679e-06 -2.48595e-20
3.05551e-05 -1.54998e-05 -5.65403e-20
3.03948e-05 1.55292e-05 -4.00178e-20
3.42447e-05 -1.26153e-05 -2.30405e-20
1.50035e-05 -3.50016e-05 -5.41149e-20
2.73978e-05 -1.2186e-05 -5.91172e-20
2.69782e-05 1.19263e-05 -4.94159e-20
-2.95238e-05 1.35404e-05 -7.48817e-20
1.68376e-05 1.03685e-05 -1.00651e-19
-3.52855e-05 -2.46268e-05 -2.91038e-20
-1.26956e-05 3.05176e-06 -5.92687e-20
-3.32241e-06 7.22136e-06 -1.21872e-19
4.21251e-05 5.98968e-06 -1.27329e-20
-2.90039e-05 1.74613e-05 -7.15469e-20
-3.04676e-05 -1.42408e-05 -4.04725e-20
-2.33196e-05 -2.91729e-05 -3.63798e-20
-2.69948e-05 -1.80942e-05 -3.92599e-20
5.9875e-07 -3.25526e-05 -1.18083e-19
1.60715e-06 3.25639e-05 -9.21621e-20
4.99813e-05 -1.97343e-05 -1.0156e-20
-1.72828e-05 1.17463e-05 -9.01916e-20
2.52205e-05 -3.56599e-05 -4.03209e-20
2.5341e-05 3.59926e-05 -5.5176e-20
-2.81135e-05 1.66346e-05 -6.86668e-20
-1.11783e-05 1.82434e-05 -1.30361e-19
-1.1438e-05 -1.89107e-05 -7.68523e-20
-6.13284e-06 -3.35669e-05 -7.53365e-20
-2.63091e-05 2.52182e-05 -5.50244e-20
5.43824e-06 -4.6969e-05 -5.22959e-20
7.82031e-06 4.81095e-05 -4.32768e-20
5.3131e-05 -2.53578e-06 -5.38118e-21
5.17922e-05 3.45312e-05 -2.07668e-20
3.5861e-05 -2.08878e-05 -2.56174e-20
4.76365e-05 -8.25114e-05 -9.39811e-21
-4.75133e-05 8.22967e-05 -1.27329e-20
4.10392e-05 -7.33861e-06 -8.79178e-21
7.19442e-06 1.82469e-05 -9.8377e-20
2.99013e-05 -5.73835e-06 -5.72982e-20
-5.77498e-06 3.40254e-05 -6.0633e-20
-8.86962e-06 1.92482e-05 -1.20205e-19
1.05113e-05 -1.91651e-05 -1.12019e-19
1.71895e-05 -1.06784e-05 -2.30405e-20
1.28663e-05 -3.89111e-06 -1.15657e-19
-5.20886e-06 -1.83199e-05 -9.23137e-20
2.21854e-05 2.09524e-07 -9.86802e-20
3.51896e-05 2.25385e-05 -2.395e-20
-1.20606e-05 -3.899e-06 -1.16718e-19
3.52333e-05 2.30026e-05 -4.38073e-20
-3.70678e-05 4.60718e-05 -4.51716e-20
-1.93885e-05 1.50094e-05 -6.48773e-20
1.45755e-05 -5.21726e-05 -5.5555e-20
1.53505e-05 5.21542e-05 -5.43423e-20
5.79867e-05 -1.33171e-05 -1.16718e-20
3.59679e-05 -2.38677e-05 -3.44092e-20
1.34758e-06 3.77762e-05 -7.50333e-20
8.562e-07 -3.77229e-05 -1.06562e-19
2.84963e-05 -4.77536e-05 -3.01649e-20
2.80493e-05 4.57632e-05 -3.06197e-20
1.80491e-05 -6.61326e-06 -9.14042e-20
1.81178e-05 6.37748e-06 -8.50378e-20
2.01478e-05 1.25802e-05 -9.62549e-20
1.22708e-05 1.72345e-05 -9.79223e-20
-2.71859e-05 -1.63232e-05 -4.38073e-20
-5.38176e-05 -4.2424e-05 -2.4329e-20
8.46063e-06 3.48819e-05 -6.92732e-20
3.62179e-05 1.22788e-05 -6.12393e-20
3.62876e-05 -1.23308e-05 -1.98573e-20
3.26908e-05 -1.28578e-05 -2.15247e-20
3.26286e-05 1.27765e-05 -5.18412e-20
-1.64121e-05 -0.000158459 -8.71599e-21
0.000162688 2.5037e-05 -3.33481e-21
8.46114e-06 -3.4069e-05 -6.39678e-20
5.01033e-05 -3.35165e-05 -2.42532e-21
5.0078e-05 3.35957e-05 -3.21355e-20
3.3302e-05 1.74279e-05 -4.9719e-20
-6.71936e-05 -4.28697e-06 -3.4864e-20
4.08258e-05 -7.46313e-06 -1.84931e-20
-1.39545e-06 2.91904e-05 -7.18501e-20
3.48768e-06 -2.93308e-05 -8.8221e-20
-2.40312e-05 3.61435e-05 -4.89611e-20
1.21875e-05 4.00559e-06 -2.72848e-20
3.34395e-05 -1.75152e-05 -1.83415e-20
-5.0112e-06 -8.71034e-06 -7.09406e-20
-2.4777e-05 2.02884e-05 -1.10049e-19
2.70097e-05 -2.02441e-05 -1.08988e-19
2.00393e-05 -1.23669e-05 -2.30405e-20
-1.98321e-05 -1.34567e-05 -7.0789e-20
-3.47096e-05 -2.23339e-05 -2.50111e-20
5.72475e-06 8.04284e-06 -1.27329e-19
-1.14023e-05 2.45165e-05 -6.57868e-20
-5.97297e-06 -3.40188e-05 -9.94381e-20
2.85855e-05 1.33629e-05 -6.29067e-20
8.69227e-06 3.43177e-05 -7.36691e-20
-1.08321e-05 -1.67405e-05 -1.90994e-20
-4.26274e-05 7.79351e-05 -2.4329e-20
-7.6495e-05 4.34422e-05 -2.64511e-20
2.86716e-05 -1.34384e-05 -1.31877e-20
3.45758e-05 -4.0636e-06 -3.09228e-20
7.36133e-05 3.23986e-05 -1.72804e-20
7.35781e-05 -3.2359e-05 9.39811e-21
7.23192e-06 -1.86208e-05 -4.54747e-20
-4.80664e-05 -3.47934e-05 -4.19883e-20
-4.91722e-05 3.39338e-05 -7.30627e-20
-2.02787e-05 -9.02221e-06 -7.16985e-20
-4.28413e-06 7.51769e-06 -1.16567e-19
4.59998e-05 5.6317e-05 -1.45519e-20
-5.1425e-05 -4.23123e-05 -2.33437e-20
4.57674e-05 -6.28163e-05 -2.37227e-20
4.65107e-05 6.35752e-05 -2.6148e-20
7.09117e-05 -3.90816e-05 -1.16718e-20
5.63711e-06 -6.69292e-06 -2.48595e-20
-4.7108e-06 -7.006e-05 -2.27374e-20
7.51132e-05 5.45855e-06 -2.50111e-21
3.92189e-05 5.15965e-05 -5.74497e-20
-3.70655e-05 -5.12836e-05 -1.94026e-20
-2.35056e-05 -1.89873e-05 -4.30494e-20
-1.01616e-05 4.02222e-07 -1.19599e-19
2.70787e-05 -3.72273e-05 -3.7744e-20
2.72434e-05 3.78222e-05 -4.41105e-20
-2.31729e-05 6.77433e-06 -7.68523e-20
1.42548e-05 -2.41019e-05 -6.56352e-20
3.8269e-05 -1.95702e-05 3.78956e-21
3.81905e-05 1.95868e-05 -4.3201e-20
-2.8415e-05 -1.52237e-05 -3.89567e-20
-1.97666e-05 1.32364e-05 -7.45786e-20
-2.2704e-05 -1.07828e-05 -4.98706e-20
-4.29878e-05 -2.4172e-05 -2.395e-20
-5.32107e-06 1.9708e-05 -7.21532e-20
-8.96397e-05 8.96397e-05 -6.48015e-21
-5.45363e-06 3.48704e-05 -7.03343e-20
7.93976e-06 -3.52278e-05 -9.51938e-20
7.79342e-06 -6.93707e-05 -5.35086e-20
-5.6814e-06 6.93437e-05 -6.63931e-20
2.14546e-05 -1.10621e-05 -7.01827e-20
2.14343e-05 1.07005e-05 -6.80605e-20
-3.40323e-05 1.81211e-05 -8.18545e-20
-3.36532e-05 -1.75312e-05 -4.44137e-20
-5.97207e-05 -1.09261e-05 -8.24609e-20
-5.87706e-05 1.11534e-05 -4.80516e-20
6.95541e-05 3.26361e-05 -4.12304e-20
6.95504e-05 -3.25946e-05 3.03165e-21
2.19398e-05 2.03918e-06 -2.09184e-20
2.19751e-05 -1.90522e-06 -1.17931e-19
3.45803e-05 1.22534e-05 -3.50155e-20
-1.14752e-06 3.08967e-05 -6.83637e-20
3.33474e-06 -3.0224e-05 -8.94336e-20
-4.87948e-05 3.38057e-05 -5.16896e-20
3.44699e-05 -1.25799e-05 -1.22782e-20
-2.83514e-06 -3.25287e-05 -1.11262e-19
2.95382e-05 1.79478e-05 -5.59339e-20
-2.18894e-05 -7.04521e-07 -1.25965e-19
-2.16427e-05 1.97654e-07 -4.75969e-20
2.94633e-05 -1.82097e-05 -3.07712e-20
-2.24062e-05 1.97861e-05 -8.67052e-20
3.90153e-05 6.75783e-05 -1.1975e-20
-3.8387e-05 -6.6489e-05 4.39589e-21
-5.98663e-06 -2.28654e-05 -6.07846e-20
-2.85628e-05 -1.72125e-05 -3.54703e-20
-3.17394e-06 -3.84287e-05 -4.45652e-20
4.77319e-05 -8.14783e-05 -1.4893e-20
8.23076e-05 -3.85893e-05 -8.86757e-21
1.80386e-05 -1.53034e-05 -6.26035e-20
1.77925e-05 1.49843e-05 -4.07757e-20
-4.76495e-06 4.02595e-05 -1.17173e-19
4.77542e-06 3.13984e-05 -7.77618e-20
4.25434e-05 1.81938e-05 -2.24342e-20
3.29167e-05 -7.45154e-06 -1.65225e-20
3.28802e-05 7.30737e-06 -9.07979e-20
-7.79638e-05 -7.20875e-10 -1.34908e-20
-7.79837e-05 6.93647e-10 -2.16763e-20
7.43263e-06 -1.7455e-05 -4.51716e-20
-2.92439e-05 -1.77729e-05 -3.28934e-20
3.032e-05 1.85644e-05 -3.91083e-20
3.04863e-05 -1.85709e-05 -2.63753e-20
8.41439e-06 2.23695e-05 -8.03387e-20
3.79678e-06 6.15906e-06 -1.00651e-19
8.9278e-05 -8.9278e-05 -2.16005e-21
-2.55834e-05 8.13549e-06 -5.45697e-20
-2.58331e-05 -8.71058e-06 -9.92865e-20
-5.61039e-06 1.78879e-05 -8.6402e-20
4.176e-05 -1.84907e-05 -1.72804e-20
-2.88482e-05 1.46815e-05 -7.13953e-20
-3.73815e-05 -4.94252e-06 -5.48728e-20
-3.75578e-05 4.83176e-06 -8.94336e-20
-2.23839e-05 1.08064e-05 -8.03387e-20
2.12827e-05 3.23324e-05 -2.86491e-20
2.14475e-05 -3.22478e-05 -3.53187e-20
1.60939e-05 9.08595e-05 -2.19795e-20
-1.43918e-05 -9.08612e-05 -7.12437e-21
-8.06113e-06 0.000161607 -1.24298e-20
-0.000157896 8.26243e-06 -1.39456e-20
2.46923e-05 -1.72143e-06 -2.07668e-20
2.48259e-05 1.444e-06 -1.03986e-19
-1.132e-06 -5.74277e-06 -3.21355e-20
8.76524e-05 -0.00010663 -8.45072e-21
0.000111488 -8.58259e-05 -2.84217e-21
2.98562e-05 -7.20798e-05 -3.63798e-21
2.98777e-05 7.21318e-05 -7.88229e-21
-2.71426e-05 1.61363e-05 -6.63931e-20
2.57585e-05 -2.45451e-05 -3.24386e-20
2.63144e-05 -1.08875e-05 -1.44003e-20
2.62833e-05 1.07376e-05 -9.38295e-20
1.945e-05 -1.61739e-05 -2.0312e-20
2.55724e-05 2.47807e-05 -7.38207e-20
1.64404e-07 -7.5168e-05 -2.81185e-20
2.92358e-06 6.91977e-05 -2.86491e-20
8.02251e-05 6.58604e-07 -3.4864e-21
1.95187e-05 1.6007e-05 -8.23093e-20
8.81901e-06 7.62282e-05 -2.34195e-20
-7.45135e-05 -1.00447e-05 -3.22871e-20
3.30445e-05 -3.49251e-06 -1.36424e-20
3.3188e-05 3.06002e-06 -9.53454e-20
3.21526e-05 -6.53736e-06 -8.33703e-21
3.21959e-05 6.49912e-06 -9.48906e-20
-8.81663e-05 0.000109123 -1.22782e-20
-0.000108232 8.81571e-05 -1.37182e-20
2.86875e-05 1.24629e-05 -8.32188e-20
2.87581e-05 -1.26198e-05 -1.42487e-20
1.0051e-05 5.32948e-05 -4.47168e-20
-8.2943e-06 -5.29589e-05 -3.80472e-20
2.48849e-05 1.04657e-05 -6.36646e-21
2.46969e-05 -1.04029e-05 -1.02318e-19
3.78729e-05 -2.31823e-05 -2.27374e-20
3.779e-05 2.32217e-05 -3.34997e-20
-2.20537e-05 -5.4108e-06 -5.53276e-20
-2.16057e-05 5.06784e-06 -8.67052e-20
-3.54179e-05 -6.72598e-05 -7.7307e-21
3.48758e-05 -4.22495e-05 -2.09184e-20
4.20356e-05 -3.56239e-05 -5.45697e-21
3.48015e-05 4.24015e-05 -1.80383e-20
4.20516e-05 3.56923e-05 -1.42487e-20
3.75308e-05 6.79637e-05 -4.22915e-20
-7.74752e-05 1.25134e-06 -5.42665e-20
-7.73954e-05 -1.46461e-06 -3.7744e-20
5.63759e-05 2.33524e-05 9.09495e-22
0.000135918 1.78941e-05 1.66741e-20
0.00013596 -1.78997e-05 -6.18456e-20
5.63625e-05 -2.33468e-05 -4.03209e-20
7.08183e-05 1.46059e-06 -1.06108e-20
5.00685e-05 1.52009e-05 -4.54747e-21
6.64485e-05 -1.8774e-05 0
7.08157e-05 -1.43874e-06 -5.66918e-20
6.64468e-05 1.87916e-05 -3.18323e-20
5.0073e-05 -1.51743e-05 -8.17029e-20
5.25314e-05 -1.4982e-05 2.5769e-21
5.22469e-05 -1.50706e-05 4.24431e-21
5.25348e-05 1.49945e-05 -6.2452e-20
5.22286e-05 1.50898e-05 -3.18323e-20
-4.85383e-06 3.03491e-05 1.9251e-20
-5.15341e-06 -3.0502e-05 -4.72937e-20
-2.72577e-05 4.99996e-06 -4.44137e-20
-3.47745e-05 9.05109e-06 -2.395e-20
-5.65074e-06 3.96177e-05 -7.57912e-22
-5.94452e-06 -3.97033e-05 -6.82121e-20
-3.47995e-05 -8.95184e-06 5.19928e-20
-1.17091e-05 -1.8467e-05 1.40214e-19
-1.95027e-05 -4.39347e-05 -4.42621e-20
2.00096e-05 4.52609e-05 3.63798e-20
4.59374e-05 2.08955e-05 -3.39545e-20
2.57566e-05 -2.66792e-05 -4.24431e-21
2.63763e-05 2.63052e-05 1.24298e-20
-2.80182e-05 1.67321e-05 -3.57735e-20
2.97247e-06 -4.05297e-05 2.16763e-20
3.23395e-06 4.03878e-05 2.09184e-20
2.8456e-05 4.47528e-06 -6.54836e-20
-1.46384e-05 -5.3303e-05 -3.47124e-20
1.44154e-05 5.38243e-05 6.4271e-20
5.57194e-05 1.48863e-05 -4.63842e-20
1.33961e-05 3.61403e-05 4.56263e-20
1.38467e-05 -3.56088e-05 -4.10788e-20
-2.56381e-05 -5.26237e-06 1.0444e-19
-3.81148e-05 -7.92159e-05 -5.60855e-20
-2.27026e-05 1.14889e-05 -7.79134e-20
-8.71843e-07 3.77601e-05 2.72848e-21
-1.20025e-06 -3.78592e-05 -4.27463e-20
-8.54994e-05 -4.13445e-05 9.11011e-20
-8.51301e-05 4.28707e-05 -5.48728e-20
-1.83354e-05 2.47209e-05 -4.69906e-21
-2.20824e-05 2.6146e-05 1.34908e-20
-5.09156e-05 1.64255e-05 -1.12171e-20
-3.63832e-05 -1.75058e-05 1.64619e-19
-3.48042e-05 1.70307e-05 -7.86713e-20
-5.91392e-06 1.22303e-05 -9.21621e-20
2.14248e-05 -2.55067e-05 6.97279e-21
-1.06557e-05 -3.84493e-07 4.41105e-20
-3.66778e-05 2.39459e-05 -3.22113e-20
-2.41213e-05 -2.44046e-05 2.34953e-20
-4.23512e-05 -6.65587e-06 5.35086e-20
-3.86353e-05 7.78606e-06 -3.20597e-20
-1.32888e-05 -3.61179e-05 8.33703e-21
3.85772e-06 -2.4735e-05 -1.12171e-19
4.16725e-06 2.45674e-05 -2.27374e-20
-1.19972e-05 3.6333e-05 3.63798e-20
2.21805e-05 2.58e-05 1.7432e-20
-8.55987e-05 -8.55975e-05 1.10655e-20
-8.42889e-05 8.42893e-05 -5.53276e-21
7.69448e-06 -1.9841e-05 6.19972e-20
7.71803e-06 1.92359e-05 3.69861e-20
1.29598e-05 2.55693e-05 1.90994e-20
-8.45359e-05 9.1993e-05 3.71377e-21
-8.91752e-05 -8.57701e-05 -1.03076e-20
4.4517e-05 -8.10454e-06 6.15425e-20
4.41478e-05 8.78104e-06 -8.85242e-20
2.0749e-05 7.32985e-06 -6.12393e-20
4.16986e-05 -2.79376e-05 6.26035e-20
4.13935e-05 2.8165e-05 -8.12482e-20
1.30413e-05 -2.55167e-05 -9.64064e-20
-3.61853e-05 -6.68419e-05 1.03986e-19
-3.61651e-05 6.63268e-05 -3.22871e-20
3.05204e-05 -1.75684e-05 6.44225e-20
3.05354e-05 1.78552e-05 -8.88273e-20
-4.04439e-05 -6.27231e-05 -1.21721e-19
-4.03252e-05 6.27408e-05 -2.5769e-20
4.14924e-05 7.8332e-05 1.4173e-20
7.86508e-05 4.15304e-05 -1.81141e-20
3.43003e-06 2.44125e-05 9.24653e-21
3.11822e-06 -2.45779e-05 -9.39811e-20
8.74308e-05 -3.62142e-05 2.395e-20
8.6478e-05 3.58204e-05 -2.27374e-20
-3.50646e-05 -2.44181e-05 6.29067e-20
2.88521e-05 1.59023e-05 -9.32232e-20
2.88619e-05 -1.55885e-05 3.04681e-20
-3.25047e-05 2.71718e-05 -8.07934e-20
-4.91087e-05 -1.10906e-05 -6.66963e-21
-3.75075e-05 6.4965e-05 -2.84975e-20
-3.76668e-05 -6.52388e-05 5.97235e-20
-2.77264e-05 -1.71365e-05 1.25207e-19
2.78315e-05 1.50362e-05 -8.53409e-20
-3.92509e-05 -4.26878e-05 -2.51627e-20
-6.83983e-06 -7.0897e-05 -8.67052e-20
-6.57646e-06 7.095e-05 -2.66785e-20
-3.36346e-05 -2.98338e-05 2.08577e-19
2.74868e-06 3.22107e-05 4.48684e-20
2.48394e-06 -3.21775e-05 5.41149e-20
2.07391e-05 -7.33944e-06 -2.92554e-20
2.03808e-05 7.08108e-06 -6.76058e-20
4.6334e-05 -3.53499e-05 4.39589e-20
3.49271e-05 7.72336e-06 -5.94203e-20
2.50533e-05 2.38089e-05 -7.57912e-20
2.52684e-05 -2.36144e-05 1.5613e-20
2.82897e-05 -1.51229e-05 4.09273e-21
1.89083e-05 -1.69388e-05 8.6402e-21
1.83932e-05 1.67859e-05 -8.30672e-20
-3.00485e-05 -1.34669e-05 1.96148e-19
-3.14456e-05 2.47639e-05 4.54747e-21
1.59754e-05 1.22084e-05 -7.09406e-20
1.54876e-05 -1.18436e-05 -3.56219e-20
-4.89863e-06 -8.2368e-06 -1.25207e-19
-4.61271e-06 8.04883e-06 -2.7588e-20
3.74504e-05 6.39245e-06 -5.10833e-20
-5.27313e-05 5.13718e-05 1.98573e-20
-2.93669e-05 -1.75555e-05 2.30102e-19
-3.02373e-05 1.4372e-05 -8.8221e-20
-7.16894e-05 1.17419e-05 -3.10744e-21
-2.80393e-05 1.71165e-05 -5.94203e-20
3.034e-07 -3.33107e-05 9.70128e-21
7.68789e-07 3.32395e-05 4.28978e-20
-2.46509e-05 -2.95258e-05 -1.27329e-20
4.57336e-05 -1.96416e-05 2.27374e-20
-1.75494e-05 -1.19861e-05 2.16611e-19
-1.75861e-05 1.29633e-05 2.12215e-21
2.27025e-05 -3.61032e-05 5.18412e-20
-2.39102e-05 3.85939e-05 1.90994e-20
-2.88225e-05 -1.70516e-05 2.00847e-19
-1.16755e-05 -1.84339e-05 1.45216e-19
-1.1935e-05 1.96952e-05 -8.03387e-20
6.76775e-06 3.47693e-05 7.73071e-20
-2.61991e-05 -2.48219e-05 9.33748e-20
4.03054e-06 -4.67871e-05 -1.69772e-20
-6.09372e-06 4.8192e-05 5.07801e-20
4.88138e-05 -5.18508e-06 -2.84217e-20
3.20395e-05 -2.18282e-05 3.38029e-20
-4.8668e-05 8.42979e-05 -2.13731e-20
-4.85717e-05 -8.41308e-05 -8.03387e-21
-3.44485e-05 -2.07267e-05 4.01693e-20
3.61744e-05 -7.8312e-06 -2.18279e-20
-5.45639e-05 -4.32526e-05 -1.5613e-20
5.48439e-06 -1.93369e-05 -1.03379e-19
5.6926e-06 1.9586e-05 -2.50111e-20
2.1276e-05 -7.73926e-06 -4.15336e-20
-6.96119e-06 -3.39673e-05 -5.91172e-21
-1.04486e-05 -2.02699e-05 -1.52795e-19
-1.01625e-05 2.00814e-05 -2.72848e-20
3.24505e-05 4.56587e-05 2.77396e-20
4.81548e-05 3.24947e-05 -1.47035e-20
-6.87808e-05 -3.09704e-06 -1.31119e-20
1.1934e-05 -2.33979e-06 -7.35175e-20
1.13912e-05 2.86518e-06 -7.38207e-20
9.88354e-06 6.01518e-07 -6.69994e-20
-1.23984e-05 3.45123e-06 2.81489e-19
-1.14278e-05 -3.34427e-06 2.41016e-20
-2.00207e-05 -1.4971e-05 1.3218e-19
1.32971e-05 -5.17645e-05 1.9251e-20
-1.21753e-05 5.16554e-05 4.94917e-20
5.2857e-05 -1.37164e-05 -1.25813e-20
3.21933e-05 -2.45428e-05 4.75969e-20
5.43999e-07 3.77613e-05 6.30583e-20
7.13587e-08 -3.79703e-05 1.13687e-20
-2.46716e-05 4.93631e-05 4.24431e-20
2.56839e-05 -4.64464e-05 5.3357e-20
3.71404e-06 9.95699e-06 -6.60899e-20
3.39967e-06 -1.00936e-05 -5.5176e-20
1.83072e-05 -1.37275e-05 -5.24475e-20
1.86952e-05 1.4028e-05 -3.69861e-20
1.25733e-05 -1.80982e-05 1.37182e-19
1.20214e-05 1.77381e-05 3.36513e-20
-2.70726e-05 1.65028e-05 -5.16896e-20
6.71908e-06 -3.52742e-05 -2.0312e-20
3.44698e-05 1.77576e-05 -8.89789e-20
3.4716e-05 -1.74448e-05 6.07846e-20
2.97467e-05 -1.9218e-05 2.78912e-20
2.88405e-05 -1.58326e-05 5.09317e-20
2.88357e-05 1.60946e-05 -8.8221e-20
-1.66442e-05 -0.000154553 1.24298e-20
2.29311e-05 3.57096e-05 2.68301e-20
-0.000159243 1.86691e-05 6.82121e-22
-5.90874e-06 3.55065e-05 5.92687e-20
5.56773e-05 -5.03265e-05 3.04681e-20
5.50795e-05 5.0294e-05 -5.01738e-20
2.99807e-05 1.94895e-05 -6.27551e-20
3.49931e-05 -8.5204e-06 -4.72937e-20
3.26103e-05 2.27298e-05 -3.25902e-20
-2.18818e-06 -2.98308e-05 1.06562e-19
-1.99611e-06 2.98297e-05 6.59384e-20
-2.60863e-05 2.11228e-05 -2.65269e-20
-2.62737e-05 -2.13049e-05 -1.34302e-19
5.17713e-06 8.93578e-06 -5.03254e-20
4.25048e-06 -9.06753e-06 -1.24146e-19
-1.21182e-05 -2.47293e-05 7.13953e-20
6.93902e-06 3.42953e-05 7.35175e-20
2.62596e-05 -1.62064e-05 3.88051e-20
2.64451e-05 1.64414e-05 -6.5332e-20
3.27562e-05 2.48778e-05 -1.83415e-20
-1.146e-05 2.49736e-05 5.1538e-20
6.94003e-06 -3.4736e-05 -4.00178e-20
4.17787e-05 7.56977e-05 -6.82121e-21
7.67884e-05 4.17051e-05 -1.36424e-21
-4.77012e-05 3.57021e-05 2.04636e-20
2.86783e-05 -5.08623e-06 -3.06197e-20
9.06172e-05 -4.38833e-05 2.395e-20
8.97864e-05 4.37832e-05 -2.80428e-20
-4.9533e-05 -3.38098e-05 1.25359e-19
-4.85575e-05 3.4611e-05 -7.65491e-20
-2.03578e-05 8.74795e-06 -4.75969e-20
-4.78476e-06 7.79166e-06 6.0633e-20
-4.83372e-06 -7.65461e-06 3.15898e-19
-4.01342e-05 5.35979e-05 2.2131e-20
-5.03968e-05 -4.30867e-05 -3.22113e-20
4.31888e-05 -6.17131e-05 3.10744e-20
-3.92381e-05 6.41555e-05 3.1226e-20
6.46668e-05 -3.76653e-05 1.97057e-20
-4.4062e-05 -2.38335e-05 -2.91038e-20
-5.33193e-06 -6.9131e-05 -4.11546e-20
-6.54738e-05 5.98666e-07 -2.48595e-20
3.85005e-05 -5.27625e-05 -6.3513e-20
3.92958e-05 5.27474e-05 -8.33703e-21
-2.3647e-05 1.8736e-05 -9.95897e-20
-1.0357e-05 -7.4553e-07 -4.30494e-20
-2.33566e-05 3.81809e-05 3.91083e-20
2.46991e-05 -3.80241e-05 4.3201e-20
-2.34919e-05 -6.96705e-06 2.97102e-20
3.78931e-05 -2.93683e-05 3.89567e-20
3.75295e-05 2.96121e-05 -6.92732e-20
-2.89849e-05 1.52148e-05 -8.17029e-20
-2.03429e-05 -1.3662e-05 1.69469e-19
-1.79815e-05 1.31494e-05 2.69817e-20
-2.32492e-05 1.0844e-05 -8.56441e-20
-5.8913e-06 -2.00631e-05 1.62951e-19
-5.26233e-06 2.15223e-05 5.71466e-20
8.86402e-05 8.86397e-05 -9.73917e-21
-6.50785e-06 -3.51594e-05 3.71377e-20
-5.91877e-06 3.54848e-05 6.59384e-20
-6.8359e-06 -7.09021e-05 -7.74586e-20
-6.5404e-06 7.09968e-05 -1.22782e-20
1.00108e-05 -1.87302e-05 -4.28978e-20
1.01164e-05 1.83024e-05 -6.44225e-20
-3.43807e-05 -1.8077e-05 1.78867e-19
-3.37963e-05 1.74417e-05 -9.292e-20
-6.01055e-05 1.11516e-05 1.61132e-19
-5.92078e-05 -1.11047e-05 -5.6995e-20
7.96325e-05 4.43773e-05 -4.07757e-20
8.07405e-05 -4.44611e-05 3.31966e-20
2.14194e-05 -2.72278e-07 -1.0444e-19
2.07033e-05 8.34908e-07 -4.44137e-20
3.10614e-05 1.45413e-05 -7.60944e-20
-2.01619e-06 -3.10145e-05 8.01871e-20
2.66782e-05 -1.97689e-05 3.41061e-20
-1.77196e-06 3.13243e-05 6.32099e-20
3.06675e-05 -1.47492e-05 2.19795e-20
3.56026e-06 3.22742e-05 3.9563e-20
2.69354e-05 2.00651e-05 -2.9407e-20
-2.17317e-05 4.17204e-07 2.70423e-19
-2.23871e-05 -5.04337e-07 -1.16718e-20
-2.29946e-05 -1.98735e-05 2.4814e-19
3.94591e-05 -6.83481e-05 -3.28934e-20
3.96988e-05 6.87619e-05 9.39811e-21
-2.8864e-05 1.68975e-05 -9.21621e-20
-4.08294e-06 3.82404e-05 -4.56263e-20
4.50485e-05 -7.93561e-05 2.88007e-20
7.81824e-05 -3.71512e-05 1.06108e-20
6.31663e-06 -2.3317e-05 -6.97279e-21
6.13072e-06 2.29909e-05 -5.94203e-20
-5.35899e-06 -4.01183e-05 1.80686e-19
3.18986e-06 -3.1941e-05 -8.47346e-20
3.78475e-05 1.98741e-05 -6.27551e-20
3.14733e-05 -9.97352e-06 8.59473e-20
3.14647e-05 1.04552e-05 -8.38251e-20
-7.83612e-05 2.61819e-10 2.7588e-20
-7.83237e-05 3.45819e-10 -2.95586e-20
-2.89785e-05 1.69864e-05 -8.83726e-20
2.49525e-05 2.79007e-05 -7.74586e-20
2.51767e-05 -2.77055e-05 3.50155e-20
8.00502e-06 2.28439e-05 6.12393e-20
7.90225e-06 -2.28149e-05 1.43549e-19
3.50956e-06 -6.25187e-06 2.52991e-19
3.92063e-06 6.76977e-06 6.59384e-20
8.59401e-05 -8.59408e-05 -6.63173e-21
-2.59172e-05 8.91676e-06 1.94632e-19
-2.60315e-05 -8.08787e-06 -6.0633e-20
-6.16861e-06 -1.83185e-05 2.11458e-19
-5.82592e-06 1.86408e-05 7.03343e-20
3.69514e-05 -1.98533e-05 6.0633e-21
-2.91589e-05 -1.463e-05 1.87962e-19
-3.78363e-05 -4.8472e-06 1.68863e-19
-3.76277e-05 6.19133e-06 -7.63976e-20
-2.28113e-05 -1.07288e-05 2.14944e-19
1.15674e-05 -4.9416e-05 7.42754e-21
1.14434e-05 4.93967e-05 -5.83592e-20
1.58521e-05 9.29832e-05 -9.85286e-21
1.54367e-05 -9.27475e-05 -7.95808e-20
7.14954e-06 0.000153504 4.77485e-21
0.000154731 1.07338e-05 -1.17476e-20
2.37388e-05 3.53346e-06 -8.17029e-20
2.34773e-05 -2.91758e-06 3.80472e-20
8.38417e-05 -0.000104457 1.47793e-21
0.000102034 -8.34564e-05 -2.18658e-20
3.79846e-05 -9.16992e-05 7.27596e-21
3.77276e-05 9.10789e-05 6.0633e-21
-2.74806e-05 -1.60854e-05 1.66589e-19
2.53253e-05 1.36476e-05 -7.71555e-20
2.51033e-05 -1.32877e-05 5.66918e-20
2.34308e-05 2.60185e-05 -9.39811e-21
2.31736e-05 -2.58137e-05 6.0633e-22
-9.87347e-07 -7.36594e-05 -1.50067e-20
-1.79108e-06 6.79384e-05 3.34997e-20
7.04967e-05 -2.20104e-06 -1.00044e-20
1.7929e-05 1.79599e-05 -3.38029e-20
1.75744e-05 -1.77178e-05 -1.28845e-20
-7.37098e-06 7.51351e-05 1.15203e-20
7.42337e-05 -5.41179e-06 -1.28845e-20
3.36748e-05 -4.88793e-06 5.5176e-20
3.37563e-05 5.46983e-06 -9.42843e-20
3.20213e-05 -1.06209e-05 8.39767e-20
3.21012e-05 1.1207e-05 -9.1859e-20
8.69421e-05 0.000106974 -5.07801e-21
0.000107449 8.70299e-05 -6.51805e-21
2.66568e-05 1.46032e-05 -5.65403e-20
2.64813e-05 -1.42764e-05 3.01649e-20
9.27816e-06 -5.44639e-05 -6.30583e-20
9.65694e-06 5.44733e-05 -9.85286e-21
2.38566e-05 1.06796e-05 1.25813e-20
2.43562e-05 -9.43802e-06 -1.05653e-19
3.72489e-05 -3.52421e-05 2.77396e-20
3.68975e-05 3.5348e-05 -6.60899e-20
-2.20239e-05 -5.07541e-06 1.74775e-19
-2.3491e-05 5.68399e-06 -4.75969e-20
3.4534e-05 6.6595e-05 -2.91038e-20
5.09963e-05 5.13606e-05 -2.48595e-20
3.48652e-05 -6.67689e-05 4.24431e-21
5.14363e-05 -5.14342e-05 1.57646e-20
3.68222e-05 -6.90326e-05 -5.80561e-20
-7.79394e-05 -1.08054e-06 1.06259e-19
-7.7741e-05 1.45151e-06 -3.28934e-20
3.75877e-05 6.93099e-05 1.21266e-21
6.19063e-05 -2.56435e-05 -4.65358e-20
0.000161823 -2.13042e-05 -3.45608e-20
0.000163607 2.15392e-05 6.0633e-22
6.34387e-05 2.6277e-05 -2.33437e-20
8.00382e-05 1.84031e-06 -6.5332e-20
5.44583e-05 -1.50982e-05 -9.42843e-20
7.51577e-05 2.44407e-05 -3.45608e-20
8.13789e-05 -9.17454e-07 2.27374e-21
7.62734e-05 -2.45574e-05 3.33481e-20
5.50185e-05 1.65386e-05 1.60677e-20
5.82113e-05 -2.25918e-05 4.57779e-20
5.89265e-05 -2.2369e-05 3.5925e-20
5.75655e-05 2.29753e-05 -7.33659e-20
5.82799e-05 2.27528e-05 -5.39634e-20
-1.2757e-05 -3.60051e-05 2.78912e-20
-5.20939e-06 3.03609e-05 -9.80738e-20
5.04317e-06 -3.04182e-05 1.51582e-20
-2.72821e-05 -5.06363e-06 1.67802e-19
-3.40311e-05 -8.77811e-06 1.61435e-19
-5.99925e-06 3.95473e-05 -8.94336e-20
5.83951e-06 -3.96806e-05 1.51582e-20
-3.65296e-05 9.14454e-06 1.21266e-19
-1.17467e-05 1.8513e-05 1.02015e-19
-1.97997e-05 -4.40434e-05 3.42576e-20
-1.91552e-05 4.6634e-05 -2.81943e-20
4.58312e-05 -1.9856e-05 -5.83592e-20
2.56818e-05 2.6614e-05 -2.62238e-20
-2.602e-05 -2.65946e-05 -1.86446e-20
-1.26907e-05 -2.54298e-05 2.53143e-20
-4.09305e-06 -2.44247e-05 6.13909e-20
2.91918e-06 4.04515e-05 -6.94248e-20
-3.12011e-06 -4.05897e-05 -3.33481e-21
2.85907e-05 4.21991e-06 -1.49157e-19
-1.52479e-05 -5.28794e-05 3.18323e-21
-1.53493e-05 5.39411e-05 -6.74542e-20
5.42776e-05 -1.44146e-05 -9.56485e-20
-2.36973e-05 -2.3913e-05 2.60722e-20
-3.73956e-05 8.76371e-06 1.03834e-19
-2.7002e-05 -2.40858e-05 4.42621e-20
1.38298e-05 3.55035e-05 -1.21872e-19
-2.58482e-05 4.88281e-06 1.04289e-19
-3.95289e-05 -8.05974e-05 5.97235e-20
-2.25827e-05 -1.14005e-05 1.80686e-19
8.07594e-05 -3.97053e-05 -3.56219e-20
-1.32962e-06 3.77322e-05 -9.45875e-20
1.14918e-06 -3.78574e-05 5.91172e-21
-8.53362e-05 4.12812e-05 -2.56174e-20
-8.51231e-05 -4.2832e-05 2.68301e-20
-5.45884e-05 1.77922e-05 9.74675e-20
-1.99405e-05 -1.57317e-05 8.94336e-20
-3.6292e-05 1.74715e-05 -5.00222e-21
-3.48099e-05 -1.71097e-05 1.51431e-19
-5.89871e-06 -1.21373e-05 1.99028e-19
2.13009e-05 2.55441e-05 -1.21418e-19
-3.52179e-05 2.32423e-05 8.18545e-20
-1.06862e-05 3.08711e-07 1.29451e-19
-2.31615e-05 2.465e-05 7.7307e-21
-1.28867e-05 3.56826e-05 -2.65269e-20
4.00127e-06 2.45779e-05 -9.33748e-20
-3.56487e-05 2.32051e-05 8.70083e-20
-8.50936e-05 -8.50936e-05 3.83504e-20
8.6152e-05 -8.61529e-05 -3.71377e-21
7.66386e-06 1.97926e-05 2.86491e-20
8.64648e-05 -9.15159e-05 -1.36424e-21
-9.28329e-05 -8.54671e-05 4.37315e-20
4.43812e-05 -8.53752e-06 -4.19883e-20
4.42898e-05 8.58931e-06 -1.1975e-19
2.03705e-05 7.18178e-06 -1.63709e-19
4.15914e-05 -2.81706e-05 -3.09228e-20
4.14968e-05 2.82445e-05 -1.28239e-19
1.30256e-05 2.54253e-05 -1.15961e-19
-3.61112e-05 6.6739e-05 -4.39589e-21
-3.6158e-05 -6.62817e-05 9.98928e-20
3.05592e-05 -1.77925e-05 -4.25947e-20
3.04799e-05 1.77997e-05 -1.37182e-19
-4.78935e-05 2.09755e-05 5.38118e-20
4.03281e-05 -6.26623e-05 3.21355e-20
-4.08009e-05 6.27152e-05 -5.18412e-20
2.11649e-05 -2.5149e-05 -6.07846e-20
-4.15643e-05 7.81332e-05 -1.08381e-20
-8.08154e-05 4.27861e-05 2.74364e-20
3.1252e-06 2.43917e-05 -1.01257e-19
-3.51443e-06 -2.42892e-05 2.24342e-20
8.70721e-05 -3.60672e-05 -2.27374e-20
8.70803e-05 3.60706e-05 -9.09495e-22
4.66827e-06 -8.20467e-06 8.35219e-20
2.87811e-05 1.61674e-05 -1.33544e-19
2.88606e-05 -1.56404e-05 -7.50333e-20
-1.75223e-05 -1.19245e-05 1.83112e-19
-7.61577e-06 -1.94087e-05 1.78867e-20
-5.05117e-05 -1.04664e-05 1.20281e-19
3.54115e-05 7.87822e-06 -1.55372e-19
-4.3866e-05 -6.24444e-06 1.65907e-19
-3.25385e-05 -2.71268e-05 1.4749e-19
-3.74891e-05 -6.49315e-05 1.54614e-20
-3.76015e-05 6.51263e-05 -1.59162e-20
-3.88771e-05 -4.27221e-05 6.82121e-20
-2.84602e-05 1.65932e-05 5.47213e-20
2.80871e-05 -1.50175e-05 -9.58001e-20
6.7669e-06 -7.08255e-05 1.48551e-20
-6.94575e-06 7.09506e-05 -3.91083e-20
-3.35391e-05 2.98187e-05 3.53187e-20
2.42948e-06 3.20791e-05 -6.77574e-20
-2.49277e-06 -3.2349e-05 2.5769e-21
2.06335e-05 -7.34801e-06 -1.20053e-19
1.9926e-05 6.90213e-06 -1.66892e-19
4.62668e-05 3.55049e-05 -1.5037e-19
2.51735e-05 -2.37594e-05 -6.21488e-20
2.49187e-05 2.39844e-05 -1.50521e-19
2.7709e-05 1.52039e-05 -1.33544e-19
1.31206e-05 -3.55067e-05 -2.42532e-20
1.87604e-05 -1.70463e-05 -7.89745e-20
1.81247e-05 1.67836e-05 -1.55675e-19
-2.97996e-05 1.3551e-05 8.41283e-20
1.57981e-05 1.19811e-05 -1.01409e-19
-3.57494e-05 -2.45202e-05 1.06108e-19
-1.28548e-05 3.11169e-06 2.13428e-19
-4.8311e-06 7.93623e-06 -8.04903e-20
3.73059e-05 -6.55541e-06 -1.10807e-19
-2.93073e-05 1.74273e-05 5.42665e-20
-3.0827e-05 -1.41959e-05 1.66741e-19
-2.39445e-05 -2.90052e-05 4.88095e-20
-2.7459e-05 -1.79879e-05 9.70128e-20
-6.09483e-07 -3.33277e-05 1.78867e-20
2.89383e-07 3.31912e-05 -1.05805e-19
4.56246e-05 1.97345e-05 -1.33165e-19
-1.75337e-05 1.18441e-05 -1.39456e-20
2.29269e-05 -3.62658e-05 -6.74542e-20
2.25913e-05 3.62466e-05 -1.37637e-19
-2.84117e-05 1.65958e-05 6.66963e-20
-1.16558e-05 1.84237e-05 7.29112e-20
-1.19498e-05 -1.96393e-05 2.05849e-19
-7.30468e-06 -3.36868e-05 1.13687e-20
-2.66445e-05 2.51203e-05 3.33481e-20
3.41243e-06 -4.68274e-05 -2.26616e-20
6.22749e-06 4.76678e-05 -9.1859e-20
4.8323e-05 2.72546e-06 -1.16188e-19
4.81064e-05 -3.4842e-05 -6.3513e-20
3.19728e-05 2.20285e-05 -1.42639e-19
-4.85845e-05 8.41546e-05 -1.12171e-20
4.85384e-05 -8.40721e-05 1.78867e-20
3.6053e-05 7.5134e-06 -1.48702e-19
5.58056e-06 1.9337e-05 -1.06562e-19
2.12652e-05 -7.80966e-06 -1.45216e-19
-6.89459e-06 3.39399e-05 -5.59339e-20
1.0218e-05 -2.02373e-05 4.79001e-20
-1.03575e-05 1.99181e-05 -7.47301e-20
1.6095e-05 -1.21171e-05 1.97057e-20
1.17268e-05 -2.63733e-06 -1.08078e-19
-5.7416e-06 -1.84875e-05 7.33659e-20
9.78701e-06 4.02219e-07 -1.42184e-19
3.19245e-05 -2.31178e-05 -7.48817e-20
-1.2424e-05 -3.46448e-06 -2.2131e-20
3.20454e-05 -2.43964e-05 -8.91305e-20
-3.72664e-05 4.54471e-05 1.72804e-20
-1.97968e-05 1.50189e-05 1.31877e-20
1.26522e-05 -5.20893e-05 -3.72135e-20
1.31683e-05 5.1396e-05 -1.17401e-19
5.35812e-05 1.34437e-05 -1.36879e-19
3.21358e-05 2.46268e-05 -1.35666e-19
5.76457e-08 3.78447e-05 -1.00802e-19
-3.76169e-07 -3.80133e-05 1.39456e-20
2.54418e-05 -4.5593e-05 -5.74497e-20
2.53736e-05 4.67358e-05 -1.33999e-19
3.31098e-06 -1.02592e-05 -1.23691e-19
3.55532e-06 1.01336e-05 -1.61435e-19
1.84086e-05 1.37253e-05 -1.00499e-19
1.25427e-05 1.80498e-05 5.6995e-20
-2.75381e-05 -1.63027e-05 1.293e-19
-5.41431e-05 -4.16271e-05 9.01158e-20
6.69517e-06 3.51685e-05 -1.1975e-19
3.44973e-05 1.77104e-05 -1.37637e-19
3.46032e-05 -1.76718e-05 -3.97146e-20
2.97162e-05 1.93862e-05 -1.17325e-19
2.88286e-05 -1.6007e-05 -5.36602e-20
2.87919e-05 1.60432e-05 -1.24601e-19
-1.38499e-05 -0.000156338 3.29692e-20
0.000155216 -2.35577e-05 -4.60811e-20
6.74498e-06 -3.45978e-05 -1.25813e-20
5.54375e-05 -5.04799e-05 -4.22915e-20
5.53673e-05 5.06437e-05 -8.30672e-20
-6.73444e-05 -3.98805e-06 8.0945e-20
-2.22962e-06 2.97389e-05 -1.80383e-20
1.94834e-06 -3.01897e-05 2.47079e-20
-2.45128e-05 3.57343e-05 3.10744e-20
1.08345e-05 3.3257e-06 3.62282e-20
-4.74438e-06 -9.30244e-06 1.61132e-19
-2.65202e-05 2.0975e-05 -7.16985e-20
2.61705e-05 -2.12807e-05 3.21355e-20
1.83207e-05 -1.34358e-05 6.97279e-21
-2.0236e-05 -1.36672e-05 1.10958e-19
2.9767e-05 -1.92905e-05 -7.47301e-20
-3.51213e-05 -2.20195e-05 1.49006e-19
3.38597e-05 -8.44151e-06 -1.42488e-19
4.87213e-06 8.81729e-06 -9.15558e-20
-1.2093e-05 2.47279e-05 -5.60855e-21
-7.05582e-06 -3.43903e-05 1.24298e-20
2.62693e-05 1.64093e-05 -1.13687e-19
6.92386e-06 3.46115e-05 -1.1399e-19
-1.24506e-05 -1.77144e-05 3.24386e-20
-4.15492e-05 7.83588e-05 2.14489e-20
-7.60118e-05 4.32598e-05 1.53098e-20
2.86222e-05 -5.36882e-06 -1.29906e-19
2.63404e-05 -1.63664e-05 -5.63887e-20
9.03507e-05 -4.39584e-05 -3.62282e-20
9.03916e-05 4.40404e-05 -7.57912e-22
5.60637e-06 -1.96444e-05 2.2889e-20
-4.9428e-05 3.37586e-05 -3.5925e-20
-4.84541e-05 -3.45507e-05 1.07169e-19
-2.0526e-05 -8.9962e-06 1.71591e-19
-4.84973e-06 7.65528e-06 2.37984e-20
4.40271e-05 -5.44123e-05 -1.69772e-20
-5.27515e-05 -4.15621e-05 7.38964e-20
4.48668e-05 -6.43347e-05 -3.92599e-20
4.13954e-05 6.0709e-05 -1.05805e-19
6.65555e-05 3.87558e-05 -1.20432e-19
4.12284e-06 -7.63634e-06 5.3357e-20
-2.03339e-06 -6.9203e-05 2.09942e-20
7.06043e-05 -4.63202e-06 -6.15425e-20
3.84312e-05 5.27086e-05 -4.38073e-20
-3.87451e-05 -5.26388e-05 -1.45519e-20
-2.39187e-05 -1.89175e-05 1.62496e-19
-1.03143e-05 7.58279e-07 1.77351e-19
2.43422e-05 3.79304e-05 -1.34454e-19
2.46669e-05 -3.77285e-05 -5.54792e-20
-2.3428e-05 6.84292e-06 1.45368e-19
1.23953e-05 -2.49433e-05 1.34908e-20
3.77366e-05 -2.96201e-05 -3.92599e-20
3.75975e-05 2.97026e-05 -1.18689e-19
-2.88226e-05 -1.51536e-05 1.45519e-19
-2.01403e-05 1.34079e-05 1.81899e-21
-2.31221e-05 -1.07641e-05 1.72652e-19
-4.36299e-05 -2.39088e-05 1.11413e-19
-5.865e-06 1.98033e-05 1.09139e-20
-8.90992e-05 8.90994e-05 2.76638e-20
-6.47024e-06 3.50557e-05 -7.21532e-20
6.25989e-06 -3.56758e-05 1.0156e-20
6.77101e-06 -7.08201e-05 2.0312e-20
-6.98621e-06 7.08981e-05 -6.91216e-20
9.90732e-06 -1.89107e-05 -8.59473e-20
9.83016e-06 1.82434e-05 -1.5325e-19
-3.42705e-05 1.80481e-05 6.0633e-21
-3.40067e-05 -1.74373e-05 1.88114e-19
-5.9983e-05 -1.11277e-05 -5.56308e-20
-5.91532e-05 1.13729e-05 1.72501e-19
8.02564e-05 -4.45489e-05 -6.66963e-20
8.02167e-05 4.46357e-05 -3.53187e-20
2.15953e-05 1.15594e-06 9.70128e-21
2.12354e-05 -5.64271e-07 -9.42843e-20
3.09067e-05 -1.46042e-05 -9.12526e-20
-2.0498e-06 3.09765e-05 -2.68301e-20
2.66349e-05 1.99422e-05 -1.15809e-19
1.83269e-06 -3.08651e-05 3.47124e-20
-4.87396e-05 3.34466e-05 7.09406e-20
3.07163e-05 1.47056e-05 -1.25056e-19
-3.67512e-06 -3.27849e-05 2.34953e-20
-2.16986e-05 -4.50007e-07 -6.07846e-20
-2.18076e-05 2.55661e-07 2.49808e-19
-2.27649e-05 1.97327e-05 7.09406e-20
3.94304e-05 6.82966e-05 -1.12171e-20
-3.94806e-05 -6.83854e-05 6.0633e-22
-7.50887e-06 -2.37359e-05 4.71421e-20
-2.89706e-05 -1.71446e-05 1.25207e-19
-4.08834e-06 -3.82065e-05 1.63254e-19
2.67963e-05 -1.96963e-05 -8.18545e-20
4.32918e-05 8.07843e-05 -1.03303e-19
7.77288e-05 3.82737e-05 -1.11678e-19
6.21178e-06 -2.34999e-05 -6.33615e-20
5.81294e-06 2.28462e-05 -1.59919e-19
-5.34986e-06 4.00716e-05 2.34953e-20
3.1976e-06 3.18343e-05 -1.18992e-19
3.75314e-05 -1.97751e-05 -9.292e-20
3.14969e-05 -1.02633e-05 -2.71333e-20
3.14235e-05 1.02829e-05 -1.34908e-19
-7.8209e-05 -4.97735e-11 -5.92687e-20
-7.83229e-05 5.93522e-11 -8.33703e-21
5.82768e-06 -1.83589e-05 6.30583e-20
-2.96203e-05 -1.76791e-05 1.35969e-19
2.4826e-05 2.80049e-05 -1.38395e-19
2.50789e-05 -2.79164e-05 -4.30494e-20
7.86824e-06 2.27178e-05 4.03209e-20
3.51384e-06 6.2491e-06 6.27551e-20
8.67948e-05 8.67948e-05 -4.29736e-20
-2.58597e-05 -8.8972e-06 -8.0945e-20
-2.58222e-05 8.34224e-06 2.37681e-19
-6.11185e-06 1.82504e-05 4.59295e-20
3.7507e-05 1.98075e-05 -1.40972e-19
-2.91518e-05 1.46519e-05 2.09184e-20
-3.77694e-05 4.8592e-06 -2.07668e-20
-3.77318e-05 -4.8597e-06 2.20704e-19
-2.27429e-05 1.08488e-05 8.67052e-20
1.14579e-05 -4.95753e-05 -4.62326e-20
1.12267e-05 4.9755e-05 -1.40972e-19
1.53442e-05 9.27608e-05 -2.45564e-20
-1.5544e-05 -9.26981e-05 4.24431e-21
-1.18905e-05 0.00015645 -2.65269e-20
-0.000156613 8.63551e-06 -4.54747e-22
2.35986e-05 3.26625e-06 -1.20963e-19
2.34616e-05 -3.32273e-06 -4.54747e-21
-2.71516e-06 -6.67652e-06 5.57823e-20
8.49357e-05 0.000107372 -7.17743e-20
0.000105767 8.38339e-05 -6.46499e-20
3.797e-05 9.16653e-05 -1.00044e-20
3.7934e-05 -9.15787e-05 -1.89478e-20
-2.74222e-05 1.61272e-05 1.86446e-20
2.3409e-05 -2.54825e-05 -6.15425e-20
2.52057e-05 1.35154e-05 -1.17325e-19
2.5264e-05 -1.35071e-05 -1.78867e-20
1.76432e-05 -1.78142e-05 -3.06197e-20
2.31945e-05 2.58764e-05 -1.13535e-19
-1.01274e-06 -7.04887e-05 -2.04636e-20
6.77805e-07 7.15683e-05 -7.43512e-20
7.51095e-05 -4.48731e-07 -8.77662e-20
1.76495e-05 1.78587e-05 -1.05956e-19
3.00155e-06 7.38439e-05 -4.60053e-20
-7.42775e-05 -9.44152e-06 1.05729e-20
3.37314e-05 -5.50041e-06 -2.01605e-20
3.37516e-05 5.2287e-06 -1.28239e-19
3.21184e-05 -1.1007e-05 -3.80472e-20
3.20726e-05 1.10496e-05 -1.37031e-19
-8.76064e-05 0.000108846 1.45519e-20
-0.000107505 8.7632e-05 5.00222e-21
2.64953e-05 1.44411e-05 -1.08685e-19
2.65438e-05 -1.44143e-05 -2.54659e-20
9.17494e-06 5.44118e-05 -4.8658e-20
-9.37484e-06 -5.43491e-05 4.24431e-21
2.46804e-05 9.98274e-06 -2.13731e-20
2.42203e-05 -9.88351e-06 -1.02773e-19
3.70999e-05 -3.54229e-05 -4.41105e-20
3.69542e-05 3.55555e-05 -1.33847e-19
-2.1903e-05 5.09392e-06 -1.1975e-20
-2.2377e-05 -5.32873e-06 1.97512e-19
3.46062e-05 6.71687e-05 -8.6402e-20
5.13212e-05 5.17006e-05 -4.33526e-20
3.47227e-05 -6.69036e-05 -2.81943e-20
5.13034e-05 -5.15598e-05 -2.95586e-20
-3.70562e-05 -6.90148e-05 -1.13687e-20
-7.78132e-05 -1.26941e-06 9.85286e-20
-7.77862e-05 1.08347e-06 -5.42665e-20
3.67517e-05 6.8992e-05 -1.59162e-20
6.2627e-05 2.59418e-05 -1.03076e-20
0.000162936 2.14497e-05 -2.18279e-20
6.25631e-05 -2.59153e-05 -7.12437e-21
0.000162951 -2.14517e-05 1.51582e-20
8.07446e-05 -1.52074e-06 -4.00178e-20
5.48158e-05 1.56491e-05 -4.85064e-20
7.57696e-05 -2.45588e-05 -4.30494e-20
8.06911e-05 1.56295e-06 -3.36513e-20
5.47394e-05 -1.5622e-05 -7.06374e-20
7.5718e-05 2.45922e-05 -1.48551e-20
5.79621e-05 -2.29046e-05 -5.01738e-20
5.86675e-05 -2.26849e-05 -5.68434e-20
5.78893e-05 2.29761e-05 -9.12526e-20
5.86085e-05 2.27521e-05 -5.97235e-20
-1.32623e-05 -3.65731e-05 -1.18537e-19
-5.06545e-06 3.04088e-05 -1.06411e-19
5.32879e-06 -3.02624e-05 -6.01782e-20
-2.72576e-05 4.99399e-06 -1.60223e-19
-3.47783e-05 9.04712e-06 -1.72046e-19
-5.86429e-06 3.97e-05 -1.03228e-19
6.12546e-06 -3.9528e-05 -4.88095e-20
-3.48032e-05 -8.96845e-06 -1.71137e-19
-1.1707e-05 -1.84712e-05 -2.21614e-19
-1.96201e-05 -4.40786e-05 -1.09897e-19
1.99217e-05 4.51789e-05 -5.94203e-20
4.58788e-05 2.07766e-05 3.81988e-20
-2.57919e-05 -2.65391e-05 -9.292e-20
2.58137e-05 2.67269e-05 -9.39811e-21
-2.80277e-05 1.67704e-05 -1.55524e-19
-1.23931e-05 -2.51691e-05 -1.22782e-19
-4.19728e-06 -2.43488e-05 -1.03834e-19
-2.85597e-06 -4.05561e-05 -6.41194e-20
3.07156e-06 4.05656e-05 -6.7151e-20
2.84306e-05 4.27208e-06 -7.27596e-21
-1.51018e-05 -5.30628e-05 -9.53454e-20
1.4294e-05 5.37936e-05 -1.30058e-19
5.57128e-05 1.47356e-05 4.94159e-20
1.31895e-05 3.60741e-05 -4.22915e-20
-2.43756e-05 -2.45214e-05 -1.24146e-19
-2.5632e-05 -5.27496e-06 -1.82808e-19
-3.81866e-05 -7.90943e-05 -1.23161e-19
-2.26991e-05 1.14808e-05 -1.19599e-19
-1.14639e-06 3.78661e-05 -9.09495e-20
1.53715e-06 -3.77445e-05 -4.01693e-20
-8.53313e-05 -4.13525e-05 -2.95586e-20
-8.51303e-05 4.28448e-05 1.25813e-20
-1.83513e-05 2.4754e-05 -1.55069e-19
-2.2124e-05 2.61889e-05 -1.76745e-19
-5.09307e-05 1.6419e-05 -1.38546e-19
-3.63531e-05 -1.7588e-05 -1.03379e-19
-3.47862e-05 1.70171e-05 2.65269e-20
-5.91252e-06 1.22223e-05 -1.47793e-19
-1.06539e-05 -3.92032e-07 -2.08123e-19
-3.66894e-05 2.39574e-05 -1.78791e-19
-4.23559e-05 -6.67222e-06 -1.5037e-19
-3.86491e-05 7.77876e-06 -1.65604e-19
3.79011e-06 2.46043e-05 -3.25902e-20
-1.20553e-05 3.63593e-05 -1.79322e-19
2.2034e-05 2.56632e-05 -2.2889e-20
-8.56118e-05 -8.56114e-05 -5.47213e-20
-8.42971e-05 8.42966e-05 -1.08381e-20
7.73368e-06 1.98766e-05 -1.75836e-20
1.27544e-05 2.55326e-05 -2.88007e-20
-8.45428e-05 9.19575e-05 -2.94828e-20
-8.92015e-05 -8.57847e-05 -1.02091e-19
4.42146e-05 -8.73861e-06 -6.79089e-20
4.4481e-05 8.11911e-06 5.30539e-20
2.07577e-05 7.11393e-06 -3.69861e-20
4.1462e-05 -2.81101e-05 -4.1382e-20
4.16584e-05 2.7981e-05 9.85286e-21
-3.61372e-05 -6.67976e-05 -1.37485e-19
-3.61567e-05 6.63037e-05 -2.36469e-20
3.05787e-05 -1.78699e-05 -5.42665e-20
3.05066e-05 1.754e-05 3.01649e-20
-4.04113e-05 6.27219e-05 -1.1111e-19
4.12317e-05 -6.28615e-05 -1.84931e-20
2.11156e-05 -2.52093e-05 -1.36273e-19
4.14218e-05 7.82768e-05 -5.1917e-20
7.86293e-05 4.14352e-05 2.02363e-20
3.20558e-06 2.44815e-05 -8.21577e-20
-3.24069e-06 -2.41249e-05 -9.11011e-20
8.64563e-05 -3.58114e-05 -1.72804e-20
8.74927e-05 3.62399e-05 1.03076e-20
-3.50394e-05 -2.43354e-05 -1.25056e-19
4.67602e-06 -7.74199e-06 -9.53454e-20
2.88314e-05 1.56873e-05 -2.78912e-20
2.89132e-05 -1.57861e-05 -2.53143e-20
-1.77802e-05 -1.20431e-05 -1.29906e-19
-7.35117e-06 -1.93389e-05 -1.22327e-19
-3.24859e-05 2.71613e-05 -8.79178e-21
-4.91227e-05 -1.1113e-05 -1.24146e-19
-3.74967e-05 6.49443e-05 3.03165e-21
-3.76318e-05 -6.51802e-05 -5.25991e-20
-2.77591e-05 -1.71234e-05 -1.56736e-19
2.78069e-05 1.48178e-05 1.21266e-21
-3.93064e-05 -4.27172e-05 -1.0535e-19
7.09178e-06 -7.1166e-05 -2.09184e-20
-6.80266e-06 7.08969e-05 -1.02924e-19
-3.36228e-05 -2.98344e-05 -1.45671e-19
2.58128e-06 3.23032e-05 -1.28239e-19
-2.22543e-06 -3.2273e-05 -8.12482e-20
2.0357e-05 6.84322e-06 -6.33615e-20
2.078e-05 -7.57085e-06 -3.81988e-20
4.64112e-05 -3.48708e-05 -8.12482e-20
3.49288e-05 7.53387e-06 1.78867e-20
2.52641e-05 -2.37583e-05 -2.09184e-20
2.50823e-05 2.36554e-05 -7.32143e-20
2.83233e-05 -1.53061e-05 -1.97057e-20
1.32258e-05 -3.53683e-05 -1.50976e-19
1.89556e-05 -1.7137e-05 -2.47079e-20
1.83645e-05 1.65714e-05 -5.60855e-20
-3.00364e-05 -1.34683e-05 -1.65831e-19
-3.148e-05 2.47719e-05 -1.90691e-19
1.54577e-05 1.19034e-05 3.3045e-20
-1.3227e-05 3.25804e-06 -1.09594e-19
-4.91015e-06 8.23577e-06 -2.60722e-20
3.74093e-05 6.22558e-06 4.38073e-20
-5.27563e-05 5.1363e-05 -1.13384e-19
-2.93721e-05 -1.75564e-05 -1.51279e-19
-3.02393e-05 1.43724e-05 -1.29148e-19
-7.17142e-05 1.1733e-05 -1.04213e-19
-2.80472e-05 1.71251e-05 -1.76594e-19
-4.10085e-07 -3.32163e-05 -7.82165e-20
6.11074e-07 3.3327e-05 -1.5234e-19
-2.48443e-05 -2.95022e-05 -1.1111e-19
4.58335e-05 -1.97591e-05 -6.55594e-20
-1.75641e-05 1.30312e-05 -7.57912e-20
2.28002e-05 -3.57995e-05 -1.09897e-19
-2.39463e-05 3.8599e-05 -2.14034e-19
-2.88187e-05 -1.70407e-05 -1.66438e-19
-1.16728e-05 -1.84375e-05 -2.49353e-19
-1.19308e-05 1.96836e-05 -1.13535e-19
-7.1371e-06 -3.39202e-05 -9.15558e-20
6.63862e-06 3.47191e-05 -1.15051e-19
4.12418e-06 -4.67893e-05 -8.90547e-20
-6.16517e-06 4.81749e-05 -1.51734e-19
4.88163e-05 -5.30979e-06 1.26571e-20
3.24935e-05 -2.17387e-05 -8.35219e-20
4.87053e-05 -8.43621e-05 2.42532e-21
-4.858e-05 8.41451e-05 -9.92865e-20
-3.44428e-05 -2.07615e-05 -1.22024e-19
3.61899e-05 -8.00467e-06 -1.81899e-20
-5.45923e-05 -4.32665e-05 -1.18234e-19
5.36806e-06 1.94512e-05 -1.03076e-20
2.12845e-05 -7.94653e-06 -2.34953e-20
1.01895e-05 -1.96958e-05 -7.18501e-20
-1.04453e-05 2.02368e-05 -3.69861e-20
3.23397e-05 4.55761e-05 -2.36469e-20
4.8095e-05 3.23696e-05 1.40972e-20
1.62753e-05 -1.22744e-05 -1.28845e-19
-6.88083e-05 -3.11415e-06 -1.08457e-19
1.1361e-05 -2.84441e-06 2.45564e-20
-5.49726e-06 -1.97842e-05 -1.29148e-19
9.8977e-06 2.54486e-07 -5.22959e-20
-1.15064e-05 -3.01003e-06 -7.04858e-20
-2.61952e-05 -2.49349e-05 -1.47338e-19
1.28055e-05 -5.17332e-05 -1.03834e-19
-1.22528e-05 5.16417e-05 -1.81065e-19
5.28846e-05 -1.3894e-05 -2.69817e-20
3.26117e-05 -2.5034e-05 -9.39811e-20
3.89605e-07 3.77816e-05 -1.80232e-19
-1.74526e-07 -3.79467e-05 -7.89745e-20
2.60265e-05 -4.68849e-05 -9.004e-20
-2.47207e-05 4.93556e-05 -1.65528e-19
3.65181e-06 9.72559e-06 -5.56308e-20
3.48858e-06 -1.03175e-05 -5.09317e-20
1.84081e-05 1.38773e-05 1.66741e-20
1.26389e-05 1.81693e-05 1.10655e-20
-2.70465e-05 1.65325e-05 -1.03228e-19
3.46443e-05 1.74373e-05 -5.91172e-21
3.45691e-05 -1.77523e-05 -2.72848e-20
2.88839e-05 -1.612e-05 -5.10833e-20
2.88222e-05 1.57951e-05 1.95541e-20
-1.66075e-05 -0.000154616 -7.2608e-20
2.2786e-05 3.5591e-05 -2.80428e-20
-0.000159272 1.86576e-05 -6.29067e-20
-2.02771e-05 -1.50609e-05 -1.57949e-19
6.97744e-06 -3.44776e-05 -1.15809e-19
-6.00366e-06 3.55378e-05 -2.11306e-19
5.51324e-05 -5.01427e-05 -2.88007e-20
5.5658e-05 5.04722e-05 -1.22782e-20
2.99043e-05 1.92652e-05 1.60677e-20
3.49949e-05 -8.70187e-06 6.97279e-21
3.25123e-05 2.25805e-05 2.54659e-20
-2.08215e-06 2.9963e-05 -1.19447e-19
2.15994e-06 -3.01407e-05 -1.21114e-19
1.10739e-05 2.99445e-06 -1.22024e-19
2.985e-05 -1.94105e-05 -8.15514e-20
-5.36916e-06 -8.92068e-06 -1.01409e-19
-2.62293e-05 2.12691e-05 -7.47301e-20
2.68357e-05 -2.07845e-05 -5.13865e-20
1.84358e-05 -1.35545e-05 -1.43549e-19
-2.05776e-05 -1.39359e-05 -1.40214e-19
4.22513e-06 9.06345e-06 2.72848e-21
6.78431e-06 3.43159e-05 -1.45519e-19
-7.02766e-06 -3.42295e-05 -8.30672e-20
2.63031e-05 1.61605e-05 4.53232e-20
3.26569e-05 2.47088e-05 -4.39589e-21
-1.15204e-05 2.50505e-05 -1.54463e-19
-1.20891e-05 -1.76787e-05 -1.40972e-19
4.17101e-05 7.56237e-05 -2.80428e-20
7.67395e-05 4.16124e-05 -5.98751e-21
-4.77303e-05 3.57063e-05 -1.63557e-19
2.64184e-05 -1.64762e-05 -8.32188e-20
2.87112e-05 -5.28467e-06 -1.04592e-20
9.07024e-05 4.3965e-05 -7.42754e-21
8.97359e-05 -4.37048e-05 -6.66963e-21
5.8202e-06 -1.97148e-05 -1.59162e-19
-4.94587e-05 -3.38373e-05 -4.74453e-20
-4.8524e-05 3.45778e-05 2.34953e-20
-2.03566e-05 8.74262e-06 -1.68863e-19
-5.12879e-06 7.68091e-06 -4.9719e-20
-4.01694e-05 5.35873e-05 -9.55727e-20
-5.04227e-05 -4.31004e-05 -1.21721e-19
4.31849e-05 -6.18492e-05 -7.35933e-20
-3.92743e-05 6.41346e-05 -1.09518e-19
6.47031e-05 -3.77222e-05 -5.91929e-20
-4.41115e-05 -2.38862e-05 -1.06714e-19
4.51378e-06 -7.72022e-06 -1.32331e-19
-5.28796e-06 -6.91901e-05 -9.95139e-20
-6.54968e-05 5.86609e-07 -9.09495e-20
3.85479e-05 5.27906e-05 2.25858e-20
-3.85595e-05 -5.26706e-05 -8.15514e-20
-2.36404e-05 1.8737e-05 -5.27507e-20
-1.03553e-05 -7.52926e-07 -2.17218e-19
-2.34086e-05 3.81979e-05 -1.83112e-19
2.47557e-05 -3.74488e-05 -1.12777e-19
-2.34913e-05 -6.97531e-06 -1.92358e-19
1.25091e-05 -2.49352e-05 -1.63406e-19
3.76519e-05 -2.95427e-05 -3.18323e-20
3.77992e-05 2.94263e-05 -1.65225e-20
-2.89716e-05 1.52357e-05 -7.00311e-20
-1.7999e-05 1.3236e-05 -1.01257e-19
-2.32423e-05 1.084e-05 -9.73159e-20
-5.30749e-06 2.15907e-05 -1.10655e-19
8.85851e-05 8.85855e-05 2.12215e-21
6.4696e-06 -3.56063e-05 -1.07927e-19
-6.0082e-06 3.5528e-05 -2.02211e-19
-6.78408e-06 7.0921e-05 -5.82077e-20
7.21094e-06 -7.10115e-05 -3.69861e-20
1.01222e-05 -1.89833e-05 -5.95719e-20
1.00289e-05 1.80382e-05 -5.54792e-20
-3.44789e-05 -1.81226e-05 -1.05653e-19
-3.37412e-05 1.74433e-05 -7.42754e-21
-5.99873e-05 1.09385e-05 -3.3045e-20
-5.91927e-05 -1.12152e-05 2.09184e-20
7.96534e-05 -4.42947e-05 -2.45564e-20
8.0767e-05 4.45463e-05 2.50772e-37
2.17335e-05 8.45163e-07 -1.00954e-19
2.06816e-05 -8.12685e-07 4.03209e-20
3.09818e-05 1.43314e-05 2.24342e-20
-1.87019e-06 3.13764e-05 -1.62496e-19
2.04694e-06 -3.08007e-05 -1.41578e-19
3.07877e-05 -1.49189e-05 -4.48684e-20
-3.39918e-06 -3.25065e-05 -1.05047e-19
3.3343e-06 3.22522e-05 -8.79178e-20
2.67859e-05 1.98546e-05 2.27374e-21
-2.18232e-05 5.93369e-08 -8.62504e-20
-2.20367e-05 -2.81208e-07 -3.88051e-20
2.6766e-05 -1.99492e-05 -1.00954e-19
-2.29853e-05 -1.98764e-05 -1.61587e-19
3.9482e-05 6.83878e-05 -2.27374e-21
-3.94903e-05 -6.84011e-05 -2.63753e-20
-7.24284e-06 -2.37241e-05 -1.44306e-19
-2.88521e-05 1.69004e-05 -8.92821e-20
-4.08104e-06 3.82235e-05 -3.44092e-20
4.50384e-05 -7.94435e-05 -4.36557e-20
7.81889e-05 -3.7209e-05 -4.39968e-20
6.51335e-06 -2.34642e-05 -4.38073e-20
5.95662e-06 2.28284e-05 -7.20017e-20
-5.35829e-06 -4.01147e-05 -2.00695e-19
3.7806e-05 1.96941e-05 3.71377e-20
3.15027e-05 -1.04492e-05 -8.60988e-20
3.14562e-05 9.9792e-06 8.2764e-20
-7.81917e-05 -3.26935e-10 1.10655e-20
-7.83279e-05 -2.57589e-10 1.51582e-21
6.05284e-06 -1.83635e-05 -1.5901e-19
-2.89758e-05 1.69965e-05 -1.47793e-19
2.49817e-05 2.77349e-05 -6.18456e-20
2.51722e-05 -2.78601e-05 -1.9251e-20
7.97707e-06 2.29368e-05 -7.27596e-20
4.09324e-06 6.5984e-06 -3.51671e-20
8.59897e-05 -8.59895e-05 -5.38118e-21
-2.63256e-05 8.7379e-06 -8.10966e-20
-2.58336e-05 -8.18195e-06 4.54747e-22
-5.86706e-06 1.87296e-05 -7.77618e-20
3.69604e-05 -1.99235e-05 -5.57823e-20
-2.91825e-05 -1.4618e-05 -1.43549e-19
-3.8222e-05 -4.01988e-06 -1.01257e-19
-3.75534e-05 6.24957e-06 -1.83415e-20
-2.28109e-05 -1.0732e-05 -1.81596e-19
1.13363e-05 4.9568e-05 -6.3513e-20
1.16988e-05 -4.92377e-05 -3.9563e-20
1.5478e-05 9.27684e-05 -2.0312e-20
-1.52939e-05 -9.29775e-05 -4.28978e-20
7.09707e-06 0.000153439 -1.2354e-20
0.000154721 1.06543e-05 4.01693e-21
2.35506e-05 -3.58888e-06 -1.16264e-19
2.3482e-05 2.93714e-06 7.32143e-20
-2.44439e-06 -6.74357e-06 -1.51279e-19
8.38796e-05 -0.000104607 -1.29224e-20
0.000102037 -8.3515e-05 -8.03387e-21
3.80325e-05 9.18148e-05 -1.15203e-20
3.76901e-05 -9.09886e-05 1.21266e-20
-2.74548e-05 -1.61087e-05 -1.53553e-19
2.34844e-05 -2.55608e-05 -1.27936e-19
2.53329e-05 -1.36602e-05 -1.05805e-19
2.51045e-05 1.3282e-05 8.44314e-20
1.77543e-05 -1.79572e-05 -1.36879e-19
2.32423e-05 2.58743e-05 6.66963e-21
-1.86417e-06 6.7914e-05 -1.16415e-19
-8.92683e-07 -7.38018e-05 -9.76949e-20
7.05222e-05 -2.32239e-06 -1.09139e-20
1.76628e-05 1.77018e-05 2.95586e-20
-7.4211e-06 7.5081e-05 -7.41996e-20
7.42136e-05 -5.49387e-06 1.48551e-20
3.37022e-05 -5.7415e-06 -1.07624e-19
3.36599e-05 4.90465e-06 7.82165e-20
3.21103e-05 -1.11762e-05 -8.6402e-20
3.20079e-05 1.06309e-05 7.35175e-20
8.68878e-05 0.00010691 -1.4173e-20
0.000107424 8.69732e-05 -4.69906e-21
2.65178e-05 1.42962e-05 5.1538e-20
2.66195e-05 -1.45722e-05 -1.13838e-19
9.3207e-06 5.44922e-05 7.57912e-22
-9.08577e-06 -5.43867e-05 -5.41149e-20
2.47711e-05 9.53635e-06 -9.67096e-20
2.384e-05 -1.06695e-05 6.15425e-20
3.7025e-05 -3.52596e-05 -1.63709e-20
3.71496e-05 3.53213e-05 -5.76013e-20
-2.20822e-05 -5.16465e-06 -1.2839e-19
-2.34751e-05 5.74433e-06 -6.07846e-20
-3.68669e-05 -6.90821e-05 -5.89656e-20
-7.77154e-05 -1.22095e-06 -6.0633e-21
-7.77758e-05 1.37491e-06 1.42487e-20
3.68691e-05 6.90661e-05 -8.03387e-21
3.47726e-05 6.70241e-05 -4.03209e-20
5.14797e-05 5.15637e-05 -3.47124e-20
3.46513e-05 -6.63332e-05 -2.84975e-20
5.09725e-05 -5.12294e-05 -2.42532e-21
6.19539e-05 2.56633e-05 -3.51671e-20
6.34401e-05 -2.62776e-05 1.89478e-20
0.000163723 -2.15544e-05 2.78912e-20
0.000161783 2.12989e-05 -4.42621e-20
8.00718e-05 -1.79932e-06 -5.21444e-20
5.45088e-05 1.5128e-05 -7.86713e-20
8.13973e-05 9.42646e-07 2.45564e-20
5.50114e-05 -1.65303e-05 5.38118e-20
7.62892e-05 2.4595e-05 1.63709e-20
7.51897e-05 -2.44077e-05 -2.91038e-20
5.76134e-05 -2.29129e-05 -6.44225e-20
5.83223e-05 -2.26921e-05 -3.57735e-20
5.82075e-05 2.26404e-05 4.10788e-20
5.89183e-05 2.24191e-05 1.27329e-20
-4.9008e-06 3.02336e-05 7.94292e-20
3.56378e-06 -3.32829e-05 -1.5613e-19
-2.70342e-05 -5.29362e-06 -3.68345e-20
-3.38105e-05 -9.28968e-06 7.12437e-21
-5.67956e-06 3.92904e-05 1.07624e-19
3.1885e-06 -3.76482e-05 -1.11413e-19
-3.61109e-05 8.69218e-06 3.47124e-20
-1.12652e-05 1.82278e-05 1.51582e-22
-1.90899e-05 4.68535e-05 6.97279e-21
-1.82699e-05 -4.57445e-05 -1.08381e-19
4.67816e-05 1.88241e-05 -1.04743e-19
2.67148e-05 -2.50706e-05 -9.59517e-20
2.55921e-05 2.64632e-05 2.89068e-19
-2.63791e-05 -1.77959e-05 -1.03986e-19
7.38732e-06 -3.68202e-05 -1.03986e-19
3.07765e-06 4.01496e-05 2.33134e-19
2.82337e-05 -6.63672e-06 -1.67802e-19
-1.2589e-05 -5.6485e-05 -1.47793e-19
-1.52631e-05 5.4201e-05 1.21266e-21
5.58111e-05 1.30072e-05 -1.21114e-19
-3.74229e-05 8.11515e-06 6.13909e-20
1.42058e-05 3.53028e-05 -9.09495e-21
1.76797e-05 -4.01859e-05 -2.34346e-19
-2.55068e-05 4.4421e-06 1.84931e-20
-3.83643e-05 -8.31687e-05 -8.99642e-20
-2.18817e-05 -1.1588e-05 -8.65536e-20
8.30554e-05 3.94385e-05 -5.7374e-20
-1.06649e-06 3.74973e-05 1.80535e-19
6.60561e-06 -3.63199e-05 -8.71599e-20
-8.50128e-05 4.13274e-05 5.97235e-20
-8.27777e-05 -4.28117e-05 -3.81988e-20
-5.48058e-05 1.72433e-05 4.502e-20
-1.70508e-05 -2.51867e-05 -1.102e-19
-3.32879e-05 -1.7575e-05 -9.71644e-20
-3.59124e-05 1.74427e-05 9.27685e-20
-5.59571e-06 -1.23071e-05 -7.86713e-20
2.19514e-05 2.49784e-05 -2.48595e-20
2.41399e-05 -3.15737e-05 -2.39349e-19
-3.51844e-05 2.2999e-05 9.77707e-20
-1.0197e-05 -1.08358e-07 -2.50111e-20
-2.26355e-05 -2.69788e-05 -1.11565e-19
-2.31526e-05 2.45955e-05 1.16264e-19
-9.9938e-06 -3.73055e-05 -1.37637e-19
-1.27877e-05 3.5725e-05 8.94336e-20
1.10623e-05 -2.98611e-05 -1.53098e-19
4.09265e-06 2.44325e-05 9.09495e-22
-3.5878e-05 2.29392e-05 1.1975e-19
-8.93114e-05 -8.93126e-05 1.06108e-21
8.87432e-05 8.87451e-05 -2.42532e-21
9.61302e-06 -1.85963e-05 -1.09897e-19
7.70863e-06 1.96926e-05 2.96192e-19
8.91028e-05 9.48542e-05 -3.35755e-20
-9.34125e-05 -8.95105e-05 -1.58404e-20
4.35842e-05 7.58961e-06 -4.18368e-20
3.52648e-05 -1.88673e-05 -1.47338e-19
2.01478e-05 -9.55032e-06 -1.65376e-19
4.08509e-05 2.6823e-05 -6.79089e-20
3.35574e-05 -3.08847e-05 -1.60071e-19
1.33996e-05 2.51924e-05 3.03165e-21
1.69637e-05 -3.12153e-05 -2.06152e-19
-3.47395e-05 -6.63334e-05 -4.45652e-20
-3.5714e-05 6.70237e-05 3.03165e-22
3.01747e-05 1.6528e-05 -9.62549e-20
2.77022e-05 -2.31795e-05 -1.99937e-19
-4.83545e-05 2.03109e-05 3.6683e-20
-3.98979e-05 6.20439e-05 4.48684e-20
-1.8262e-05 -5.09829e-05 -4.92643e-20
-4.29234e-05 8.03541e-05 -5.92687e-20
-8.16765e-05 4.23862e-05 -1.59162e-21
3.40366e-06 2.42861e-05 2.92554e-20
8.96401e-06 -2.94152e-05 -1.64164e-19
8.53735e-05 3.53645e-05 -3.3045e-20
6.76391e-05 -2.80152e-05 -2.00089e-20
2.86842e-05 1.40123e-05 -1.09443e-19
2.71307e-05 -1.92146e-05 -2.10245e-19
-5.06503e-05 -1.156e-05 4.15336e-20
3.59309e-05 -1.07649e-05 -1.45822e-19
-4.32185e-05 -6.8386e-06 2.56174e-20
-3.1075e-05 -2.73341e-05 -1.08988e-19
-3.75506e-05 6.50363e-05 2.86491e-20
-3.69835e-05 -6.40571e-05 -2.0312e-20
-3.81446e-05 -4.43242e-05 -7.03343e-20
-2.84067e-05 1.63304e-05 1.0823e-19
2.81419e-05 1.35756e-05 -1.00044e-19
4.26421e-07 -5.55288e-05 -3.25902e-20
-6.678e-06 7.01246e-05 6.15425e-20
-3.31761e-05 2.97159e-05 5.86624e-20
7.14984e-06 -3.2761e-05 -1.47338e-19
2.59934e-06 3.19709e-05 1.89478e-19
2.04226e-05 5.4417e-06 -1.15203e-19
1.87873e-05 -8.69444e-06 -1.77048e-19
4.86281e-05 -3.99715e-05 -1.96451e-19
2.46535e-05 2.18794e-05 -7.0789e-20
2.17319e-05 -2.50833e-05 -1.81141e-19
2.72179e-05 -1.9293e-05 -1.90842e-19
1.84931e-05 1.54308e-05 -1.04592e-19
1.67605e-05 -1.98144e-05 -1.94783e-19
-2.95303e-05 1.32683e-05 3.56219e-20
1.54753e-05 1.14229e-05 -4.39589e-20
1.86705e-05 -2.17287e-05 -1.51582e-19
-3.54497e-05 -2.50783e-05 -3.91083e-20
5.36751e-06 -1.91315e-05 -1.24601e-19
-4.61511e-06 8.02547e-06 -2.25858e-20
3.78518e-05 4.69044e-06 -1.18083e-19
-2.90713e-05 1.72218e-05 8.74631e-20
-3.00809e-05 -1.48232e-05 -7.47301e-20
-2.27997e-05 -3.06047e-05 -7.65491e-20
-2.64285e-05 -1.90971e-05 -7.04858e-20
4.86083e-06 -3.39505e-05 -1.68711e-19
5.46675e-07 3.30375e-05 9.91349e-20
4.79185e-05 -2.25501e-05 -1.60602e-19
-1.73984e-05 1.18127e-05 1.66286e-19
-1.60676e-05 -1.37813e-05 -1.11565e-19
2.52597e-05 -4.08598e-05 -2.37227e-19
2.3209e-05 3.54601e-05 -3.78956e-20
-2.81276e-05 1.63457e-05 7.47301e-20
-1.10722e-05 1.80381e-05 -1.94026e-20
-1.09807e-05 -1.89834e-05 -8.83726e-20
-2.65492e-05 2.50541e-05 1.2551e-19
5.95183e-06 -5.00504e-05 -1.66438e-19
6.554e-06 4.78581e-05 -7.04858e-20
4.96504e-05 -4.72697e-06 -1.33923e-19
4.90709e-05 3.39042e-05 -8.4583e-20
3.37998e-05 -2.59916e-05 -2.03575e-19
-3.93383e-05 -6.81388e-05 -8.18545e-21
-4.80629e-05 8.3248e-05 3.28934e-20
3.6804e-05 -1.02683e-05 -1.57039e-19
5.74922e-06 1.89353e-05 -1.94026e-20
1.19016e-05 -2.70757e-05 -1.90539e-19
2.10706e-05 5.91532e-06 -1.44306e-19
-4.48771e-06 -3.57631e-05 -1.57646e-19
-6.70502e-06 3.39559e-05 5.89656e-20
-1.01358e-05 1.99948e-05 -9.09495e-22
2.58078e-06 -2.51737e-05 -1.04137e-19
1.14702e-05 -2.95895e-06 -6.07846e-20
1.62017e-05 -1.28646e-05 -1.38546e-19
9.52767e-06 -1.78328e-06 -1.11868e-19
3.26056e-05 2.18301e-05 -7.29112e-20
-1.02163e-05 2.31514e-06 -1.19295e-19
-1.23145e-05 -3.41831e-06 1.63861e-19
3.27476e-05 2.37123e-05 -4.6839e-20
-3.753e-05 4.5645e-05 7.67007e-20
-1.96922e-05 1.49391e-05 1.25662e-19
1.62993e-05 -5.56083e-05 -1.988e-19
1.38567e-05 5.17807e-05 -4.84306e-20
5.54665e-05 -1.65822e-05 -1.56357e-19
3.40604e-05 -3.01451e-05 -2.19946e-19
3.07281e-07 3.7844e-05 3.81988e-20
4.52332e-06 -4.07299e-05 -1.80535e-19
2.8068e-05 -5.10236e-05 -1.77806e-19
2.64515e-05 4.53032e-05 -9.20106e-20
3.40135e-06 8.30212e-06 -7.95808e-20
3.12179e-06 -1.1787e-05 -1.63103e-19
1.84219e-05 1.33916e-05 -3.34997e-20
2.08284e-05 -2.31704e-05 -1.84779e-19
1.30231e-05 -1.74102e-05 -1.18992e-19
1.25258e-05 1.79718e-05 2.96495e-19
-2.5402e-05 -1.74707e-05 -1.1399e-19
-5.37789e-05 -4.39107e-05 2.72848e-21
1.00033e-05 -3.98255e-05 -2.12215e-19
7.15175e-06 3.49716e-05 -9.09495e-22
3.39241e-05 1.64161e-05 -1.01105e-19
2.84267e-05 -2.31634e-05 -1.84021e-19
2.97364e-05 -2.52225e-05 -2.14792e-19
2.8606e-05 1.49082e-05 -8.20061e-20
2.68632e-05 -2.23065e-05 -2.25403e-19
-1.65784e-05 -0.000162045 -2.03878e-20
0.000160826 2.33331e-05 -6.51805e-21
5.4355e-05 4.8957e-05 -1.57646e-20
4.28968e-05 -4.74325e-05 -1.2551e-19
2.9876e-05 1.83519e-05 -4.82032e-20
-6.73847e-05 -5.11965e-06 2.88765e-20
6.87427e-07 -2.9515e-05 -1.4749e-19
-2.09419e-06 2.96133e-05 1.75987e-19
-2.45101e-05 3.57295e-05 1.26268e-19
-2.58633e-05 2.10233e-05 5.85108e-20
-9.7071e-06 -2.59774e-05 -8.98884e-20
-3.504e-05 -2.38111e-05 4.39589e-21
3.42748e-05 6.64807e-06 -1.33696e-19
4.40649e-06 8.84471e-06 -6.45741e-20
1.20866e-05 -1.97416e-05 -1.22327e-19
-9.65358e-06 -2.57194e-05 -1.49915e-19
-1.19875e-05 2.46825e-05 1.16112e-19
2.62726e-05 1.52461e-05 -5.19928e-20
2.64322e-05 -2.23691e-05 -2.21917e-19
7.33013e-06 3.45372e-05 1.27329e-20
1.08564e-05 -3.77476e-05 -1.89933e-19
-4.31988e-05 7.72522e-05 -2.91038e-20
-7.69771e-05 4.28496e-05 -1.00802e-20
2.87074e-05 3.38174e-06 -1.28239e-19
8.84267e-05 4.2713e-05 -3.91083e-20
7.26284e-05 -4.00226e-05 -2.7588e-20
-4.91103e-05 3.38063e-05 8.4583e-20
-4.66471e-05 -3.46517e-05 -6.3513e-20
-1.99767e-05 -9.36116e-06 -4.59295e-20
-3.79406e-06 -8.44394e-06 -1.28239e-19
-4.77423e-06 7.65175e-06 2.01605e-19
4.41444e-05 5.49984e-05 -7.38964e-20
-5.16958e-05 -4.38134e-05 -4.24431e-20
4.55049e-05 -6.62306e-05 -1.31574e-19
4.47013e-05 6.29114e-05 -1.01181e-19
6.92244e-05 -4.19118e-05 -1.28466e-19
-4.765e-06 -7.27368e-05 -9.56485e-20
7.27102e-05 3.61991e-06 -5.58581e-20
3.81927e-05 5.22538e-05 2.3662e-19
3.69628e-05 -4.60447e-05 -7.10922e-20
-2.27889e-05 -1.94424e-05 -1.22175e-19
-9.89694e-06 2.54389e-07 -4.48684e-20
2.70827e-05 -4.2613e-05 -2.13731e-19
2.55531e-05 3.76858e-05 -7.33659e-20
-2.30415e-05 6.47847e-06 -1.42487e-20
3.685e-05 2.83275e-05 -3.81988e-20
2.99873e-05 -3.22198e-05 -1.47944e-19
-2.78379e-05 -1.60596e-05 -1.17022e-19
-2.00231e-05 1.33873e-05 1.43245e-19
-1.68067e-05 -1.4134e-05 -1.2263e-19
-2.19735e-05 -1.14797e-05 -1.15203e-19
-4.28868e-05 -2.55535e-05 -1.57646e-20
-5.77524e-06 1.97704e-05 1.45974e-19
-3.39162e-06 -2.13316e-05 -1.32635e-19
-8.95006e-05 8.94989e-05 -2.32679e-20
-6.29995e-06 3.50211e-05 5.97235e-20
-3.97218e-06 -3.71003e-05 -1.81596e-19
-6.63994e-06 7.01739e-05 1.43094e-19
2.80398e-06 -5.86114e-05 -4.53232e-20
9.5001e-06 1.63011e-05 -1.59162e-20
8.80313e-06 -1.91294e-05 -1.56433e-19
-3.19942e-05 -1.81026e-05 -1.08078e-19
-3.40347e-05 1.79783e-05 1.30361e-19
-5.71046e-05 1.02349e-05 -8.0945e-20
-5.96562e-05 -1.10419e-05 1.35666e-19
7.89236e-05 4.32689e-05 -9.39811e-21
5.87836e-05 -4.0833e-05 -6.27551e-20
2.05169e-05 -9.86416e-07 -6.15425e-20
2.16382e-05 -1.40498e-05 -1.09443e-19
3.11608e-05 1.31331e-05 -7.10922e-20
1.03343e-06 -3.18962e-05 -1.65983e-19
-1.8986e-06 3.09596e-05 1.13081e-19
2.85345e-05 -2.54394e-05 -2.22371e-19
-4.92421e-05 3.33943e-05 7.24564e-20
3.11422e-05 -1.86427e-05 -1.99331e-19
2.71529e-05 1.87245e-05 -2.9407e-20
-2.1539e-05 -4.2022e-07 1.70227e-19
-2.03432e-05 -6.24198e-07 -1.15354e-19
-2.23568e-05 1.95878e-05 5.60855e-20
3.9083e-05 6.76978e-05 5.21444e-20
3.44232e-05 -5.96224e-05 -1.18234e-20
-2.7779e-05 -1.78406e-05 -1.22479e-19
-2.77926e-06 -3.83531e-05 -8.92821e-20
4.73714e-05 -8.39481e-05 -1.22479e-19
8.17128e-05 -4.13728e-05 -1.23199e-19
5.22212e-06 2.16135e-05 -1.5613e-20
4.5024e-06 -2.40574e-05 -1.60374e-19
-4.64796e-06 4.00919e-05 3.18323e-21
9.03193e-06 -3.63879e-05 -1.9251e-19
3.47539e-06 3.16641e-05 1.60677e-20
3.80881e-05 1.85471e-05 -9.09495e-20
3.10683e-05 9.40774e-06 -5.83592e-20
2.81135e-05 -1.99021e-05 -1.89175e-19
-7.59808e-05 2.34442e-10 -1.40972e-20
-7.78772e-05 -1.55267e-09 3.83504e-20
-2.85712e-05 -1.84193e-05 -8.17029e-20
2.45483e-05 2.65009e-05 -7.60944e-20
2.16089e-05 -3.04209e-05 -1.79777e-19
7.91549e-06 2.26537e-05 2.37378e-19
9.96643e-06 -2.30632e-05 -1.27178e-19
5.56863e-06 -7.34244e-06 -1.24449e-19
3.55811e-06 6.25091e-06 2.41016e-19
9.01455e-05 -9.01437e-05 -3.81988e-20
-2.42064e-05 7.24345e-06 -9.64064e-20
-2.5677e-05 -8.82047e-06 1.60223e-19
-6.02504e-06 1.81989e-05 2.04333e-19
-3.88295e-06 -1.88747e-05 -1.26117e-19
3.84433e-05 -2.41279e-05 -1.74775e-19
-2.89237e-05 1.45873e-05 1.30361e-19
-3.60506e-05 -6.59947e-06 -1.05956e-19
-3.75163e-05 4.8544e-06 1.51582e-19
-2.23343e-05 1.05128e-05 1.90994e-20
1.0531e-05 4.80012e-05 -1.50067e-20
9.07222e-06 -4.67683e-05 -1.47793e-19
1.53655e-05 9.17871e-05 7.71555e-20
1.83881e-05 -7.59095e-05 -1.62193e-20
-9.00338e-06 0.000159831 -8.82968e-20
-0.000159075 7.36735e-06 -1.3794e-20
2.3352e-05 2.62308e-06 -3.06197e-20
2.3729e-05 -1.60771e-05 -1.60829e-19
8.83191e-05 -0.000109706 -4.45652e-20
0.000109998 -8.70541e-05 -7.14332e-20
3.1906e-05 -7.70213e-05 -5.79045e-20
3.70325e-05 8.94039e-05 -7.57912e-20
-2.72274e-05 1.60342e-05 1.48854e-19
2.49176e-05 1.26079e-05 -3.60766e-20
2.46141e-05 -2.17215e-05 -1.84627e-19
2.33774e-05 2.52291e-05 -2.01605e-20
2.49008e-05 -3.17073e-05 -2.35408e-19
6.30448e-07 -7.83523e-05 -1.18689e-19
1.77267e-06 6.84485e-05 -1.03303e-19
7.80722e-05 -1.35873e-06 -1.01939e-19
1.77468e-05 1.70686e-05 -2.51627e-20
2.04441e-05 -2.52633e-05 -2.09487e-19
7.67326e-06 7.54853e-05 -9.68612e-20
-7.49812e-05 -1.1095e-05 1.44003e-20
3.31595e-05 4.5181e-06 -2.53143e-20
2.92994e-05 -1.71538e-05 -1.50067e-19
3.15762e-05 1.00077e-05 -4.59295e-20
2.84068e-05 -2.02485e-05 -1.58555e-19
-8.81019e-05 0.000108004 -3.03923e-20
-0.000108985 8.79455e-05 -2.98617e-20
2.64473e-05 1.37054e-05 -3.62282e-20
2.63625e-05 -2.29766e-05 -2.02211e-19
1.38004e-05 -4.73934e-05 -4.00178e-20
9.27698e-06 5.39371e-05 1.50218e-19
2.3606e-05 -1.06301e-05 -3.44092e-20
2.3559e-05 -8.05235e-06 -1.16718e-19
3.62486e-05 3.38072e-05 -4.502e-20
2.96359e-05 -3.54179e-05 -1.50521e-19
-2.15613e-05 -6.82947e-06 -1.07472e-19
-2.17514e-05 5.08774e-06 1.64164e-19
3.55939e-05 -5.93185e-05 -5.66918e-20
-7.51746e-05 -2.00745e-06 -4.63842e-20
-7.74287e-05 1.14788e-06 9.62549e-20
3.65312e-05 6.83602e-05 1.65831e-19
3.37242e-05 6.52761e-05 -4.69906e-21
5.01805e-05 5.00474e-05 -2.30405e-20
2.77294e-05 -6.06638e-05 -1.09594e-19
4.16839e-05 -4.77494e-05 -8.73115e-20
6.21504e-05 -2.57426e-05 9.39811e-21
0.000159759 -2.10294e-05 5.09317e-20
0.000126571 1.66678e-05 -3.36513e-20
3.66675e-05 1.51901e-05 -2.69817e-20
7.95978e-05 7.0549e-07 4.69906e-21
5.38842e-05 -1.63227e-05 -1.07624e-20
7.45827e-05 2.39267e-05 -5.76013e-21
5.60014e-05 -1.41152e-05 -5.79045e-20
5.44251e-05 -2.14159e-05 -4.03209e-20
4.16948e-05 -4.64186e-06 -9.64064e-20
5.69924e-05 2.17745e-05 -1.03076e-20
5.75338e-05 2.16059e-05 -9.09495e-22
4.35735e-05 -2.76566e-05 -1.30361e-19
4.52553e-05 -2.71328e-05 -1.16112e-19
4.75461e-06 8.82068e-07 -2.60722e-20
3.89541e-06 2.74799e-06 3.36513e-20
1.12119e-05 -6.44364e-07 -3.80472e-20
3.67501e-06 -6.16697e-07 1.87962e-20
3.75236e-06 -5.74128e-07 3.68345e-20
3.34295e-06 9.17315e-06 1.94026e-20
1.18059e-05 -7.55399e-06 -2.5769e-20
3.55852e-06 8.16328e-07 3.19839e-20
1.00699e-05 8.90342e-06 -6.80605e-20
4.13027e-06 3.41411e-07 -1.75836e-20
4.16559e-06 -3.01422e-07 7.20017e-20
3.73052e-06 6.22478e-08 6.51805e-20
2.33055e-05 -1.26542e-07 7.88229e-21
-2.86131e-06 -4.68618e-06 1.66741e-20
4.76536e-06 2.59597e-06 -3.6683e-20
7.96745e-06 2.35174e-06 -5.53276e-20
9.76429e-06 8.10527e-06 5.3357e-20
4.98377e-06 -9.4808e-06 1.60677e-20
3.26608e-06 3.56946e-07 -4.42621e-20
4.36421e-06 -1.12713e-07 -1.40972e-20
4.38391e-06 1.17749e-07 5.72982e-20
3.55626e-06 1.7471e-07 3.88051e-20
3.47512e-06 2.29626e-06 -1.07624e-20
2.66005e-06 4.21189e-07 5.92687e-20
1.32675e-06 2.18397e-06 1.03076e-20
3.90158e-06 8.21697e-07 2.16763e-20
4.06209e-06 6.15411e-07 -4.69906e-21
3.88764e-06 -1.08125e-07 -1.48551e-20
4.65759e-06 -5.31437e-06 -2.37984e-20
3.50598e-06 -6.42281e-08 7.53365e-20
8.37611e-06 7.2168e-06 4.33526e-20
9.43474e-06 -6.63226e-06 -1.1975e-20
-4.46405e-05 -2.26904e-05 -5.76013e-21
-4.4742e-05 2.14924e-05 -1.36424e-20
3.23423e-06 1.19675e-07 6.85153e-20
1.8651e-06 2.82085e-06 9.39811e-21
-8.84058e-06 -2.89569e-06 -2.42532e-21
-1.02051e-05 3.36273e-06 -2.72848e-20
1.27779e-05 -5.67294e-06 -5.76013e-20
4.02801e-06 6.5317e-07 3.39545e-20
2.5396e-06 -3.79676e-07 6.41194e-20
1.05887e-05 -1.91789e-09 -6.3513e-20
3.48875e-06 -2.21344e-06 5.13865e-20
4.72371e-06 -8.87369e-07 4.89611e-20
2.56562e-06 2.25199e-06 -3.21355e-20
3.25335e-06 -3.18118e-07 7.94292e-20
4.79183e-06 -7.9796e-07 2.12215e-21
4.13187e-06 -1.54164e-06 1.13081e-19
1.34334e-05 -3.86415e-06 -1.59162e-20
4.21628e-06 -1.16032e-07 1.20356e-19
3.20396e-06 -8.74587e-07 2.2889e-20
7.50421e-06 -4.8014e-07 6.85153e-20
7.50772e-06 4.76466e-07 1.00954e-19
2.31708e-06 7.08335e-07 -6.51805e-20
7.02094e-06 -3.8811e-06 4.51716e-20
7.02353e-06 3.8839e-06 8.51893e-20
3.94441e-06 1.35869e-06 -1.36424e-21
-1.18601e-05 -4.22495e-05 -2.68301e-20
-1.19089e-05 4.24015e-05 -1.9251e-20
5.02283e-06 -1.80961e-06 1.51582e-20
5.01879e-06 1.80912e-06 1.00651e-19
3.27547e-06 1.39288e-07 7.86713e-20
3.22427e-05 -2.25942e-05 -1.77351e-20
-8.47883e-06 1.88682e-05 1.51582e-21
4.02826e-06 -6.52198e-07 3.63798e-20
3.92335e-06 3.90797e-08 8.88273e-20
3.20467e-06 1.86196e-07 6.38162e-20
4.12511e-06 2.58347e-06 2.72848e-21
7.25993e-06 2.18615e-06 -5.03254e-20
1.46249e-05 -6.05788e-06 4.24431e-21
1.4635e-05 6.06205e-06 1.63709e-20
1.2244e-05 1.0269e-05 -5.00222e-20
4.12137e-06 -1.61842e-06 -2.63753e-20
4.1093e-06 1.66867e-06 2.42532e-20
9.44297e-08 6.27766e-06 -1.53098e-20
1.4755e-06 -2.99294e-06 5.06285e-20
3.26319e-06 -8.112e-08 6.73026e-20
2.85218e-06 -3.42228e-07 7.00311e-20
-6.44829e-06 -1.34462e-05 -1.10655e-20
-1.96468e-05 3.40281e-05 -5.76013e-21
-1.97642e-05 -3.42314e-05 -6.36646e-21
3.36117e-06 3.94676e-07 -1.24298e-20
1.65618e-06 4.89529e-07 3.53187e-20
3.23265e-06 9.247e-07 1.00309e-36
4.76069e-06 2.20889e-05 1.15203e-20
9.50988e-06 -2.81235e-05 -9.70128e-21
-7.58787e-06 1.51018e-05 -3.56219e-20
9.38605e-06 1.63769e-06 6.56352e-20
5.48254e-06 -2.92931e-06 1.75836e-20
2.63306e-06 -9.62795e-07 -1.87962e-20
2.58758e-06 8.91067e-07 -8.2764e-20
3.77067e-06 -3.16623e-07 7.88229e-21
3.2314e-06 3.39572e-07 -1.72804e-20
3.81139e-06 -3.25607e-06 1.18234e-20
3.79639e-06 3.287e-06 3.63798e-21
3.27988e-06 -9.33736e-07 -2.24342e-20
3.91255e-06 -8.01188e-07 3.94114e-20
2.46517e-06 -1.84309e-06 7.27596e-21
2.39873e-06 1.81316e-06 -3.39545e-20
2.69087e-06 3.62343e-06 -6.66963e-21
3.7051e-06 1.26882e-07 2.48595e-20
2.80664e-06 6.34744e-07 2.36469e-20
2.86779e-06 1.52116e-05 -2.50111e-20
1.4281e-06 1.08676e-07 -3.1226e-20
3.54934e-06 1.71619e-07 2.0312e-20
-2.39779e-06 3.85619e-06 -8.18545e-21
2.68022e-06 -3.1794e-06 2.31921e-20
3.3838e-06 4.15464e-07 -4.85064e-21
1.51887e-06 -3.79925e-07 3.71377e-20
6.12448e-06 -3.26291e-06 -1.65225e-20
5.5804e-06 3.61531e-06 6.82121e-20
3.76167e-06 -8.11529e-08 -2.69817e-20
5.69329e-08 -6.38761e-06 -4.33526e-20
3.99398e-06 -4.36664e-07 4.85064e-20
3.99961e-06 4.16482e-07 5.82077e-20
1.25229e-06 4.67409e-07 1.24298e-20
8.2419e-06 1.07005e-05 -6.29067e-20
8.43102e-06 -1.10621e-05 -4.77485e-20
4.78047e-06 8.93066e-07 -1.87962e-20
1.14797e-06 -1.89738e-06 3.33481e-20
4.22916e-06 -1.56513e-07 4.54747e-22
4.25309e-06 1.55783e-07 5.19928e-20
3.48276e-06 -1.47759e-08 2.72848e-21
3.76934e-06 3.03057e-07 7.00311e-20
3.88527e-06 -4.24752e-07 3.33481e-20
-1.66784e-05 2.88872e-05 1.63709e-20
1.77429e-05 -3.07345e-05 -9.09495e-22
3.54504e-06 -2.15938e-07 -7.27596e-21
3.05421e-06 6.30598e-07 -2.9407e-20
2.36861e-06 -7.65877e-07 -5.48728e-20
4.82071e-06 -9.1558e-07 5.77529e-20
5.47918e-08 3.08619e-06 -9.70128e-21
1.53449e-05 3.54559e-06 -2.91038e-20
3.73876e-06 -1.56413e-07 7.70039e-20
3.26526e-06 -1.45241e-06 8.48862e-21
7.21904e-06 5.04724e-06 -4.69906e-20
1.19557e-06 9.73566e-09 -5.91172e-20
3.87425e-06 3.78839e-07 7.15469e-20
3.07545e-06 -1.54306e-05 -6.80605e-20
3.89122e-06 5.58819e-07 7.45786e-20
3.31409e-06 -3.57219e-07 7.73071e-20
2.0884e-06 -3.28461e-06 -3.4864e-21
4.37386e-06 -2.38917e-07 1.87962e-20
4.38636e-06 2.2737e-07 4.21399e-20
3.57871e-06 -2.27816e-07 -1.21266e-20
3.8898e-06 -5.50969e-07 4.24431e-20
5.71904e-06 8.3134e-07 6.33615e-20
6.00118e-06 -7.86557e-07 -1.3794e-20
4.06583e-06 -1.42671e-07 7.57912e-21
4.08814e-06 1.52246e-07 5.82077e-20
3.89969e-07 -1.31908e-06 5.76013e-21
3.60993e-07 1.27525e-06 -9.97413e-20
3.90316e-06 2.59212e-07 6.36646e-21
1.63611e-05 -4.90998e-06 -6.92732e-20
-3.65562e-06 2.40589e-06 2.41016e-20
3.21118e-06 -1.52731e-07 4.33526e-20
4.63722e-06 8.56239e-07 3.3045e-20
5.63051e-06 -1.7917e-06 1.36424e-20
5.63314e-06 1.79387e-06 9.03431e-20
4.18078e-06 -9.40153e-07 -6.66963e-21
4.17206e-06 9.31992e-07 8.79178e-20
4.15165e-06 -1.57785e-07 -2.65269e-20
2.65317e-06 -1.9878e-07 5.80561e-20
4.5967e-06 -8.98724e-07 3.16807e-20
9.33391e-06 -7.8585e-06 4.45652e-20
9.34005e-06 7.86286e-06 4.48684e-20
3.95663e-06 6.31532e-07 9.03431e-20
3.17402e-06 -4.68026e-08 6.74542e-20
3.23442e-06 -3.97159e-07 -2.0312e-20
7.74164e-06 8.11698e-07 6.27551e-20
3.88893e-06 -3.70414e-06 5.30539e-20
3.25714e-06 -3.13848e-07 7.30627e-20
3.18237e-06 1.47692e-06 8.48862e-20
3.95405e-06 -6.35276e-07 2.18279e-20
6.53199e-06 9.60283e-06 -3.74409e-20
-3.15092e-06 3.29578e-06 -3.03165e-22
2.34822e-05 3.01332e-06 -2.44048e-20
3.90276e-06 -2.53585e-07 5.21444e-20
1.26295e-06 7.02804e-06 -2.83459e-20
2.65196e-06 1.89636e-08 4.72937e-20
2.28455e-06 1.86457e-07 -2.33437e-20
4.85978e-06 -2.76516e-06 4.41105e-20
5.22587e-06 -3.66014e-07 -3.10744e-20
4.28606e-06 9.15459e-07 1.04289e-19
4.39061e-06 1.45687e-06 4.33526e-20
-5.20069e-07 -2.29361e-06 6.00266e-20
3.95819e-06 4.31494e-07 9.74675e-20
3.7723e-06 2.42167e-07 7.04858e-20
4.29184e-06 -9.24109e-07 1.94026e-20
3.29929e-06 -4.32441e-07 -3.3045e-20
1.50032e-05 -6.96854e-06 1.63709e-20
1.50132e-05 6.97241e-06 1.97057e-20
2.98795e-06 -7.00287e-07 6.03298e-20
-1.99671e-05 -1.71181e-05 -1.30361e-20
-2.07783e-05 1.6472e-05 -2.60722e-20
7.01379e-06 -2.56008e-06 -1.77351e-20
6.60534e-06 -1.02482e-05 -8.47346e-20
4.03577e-06 -2.75962e-07 9.68612e-20
3.89198e-06 -1.20934e-07 6.36646e-21
4.06691e-06 -1.43609e-07 -2.00089e-20
4.0643e-06 1.29244e-07 7.63976e-20
3.55694e-06 1.08094e-07 -3.27418e-20
2.3238e-06 7.46095e-08 7.70039e-20
4.16957e-06 -2.24524e-08 -2.78912e-20
3.52393e-06 -4.10928e-09 4.71421e-20
3.08883e-05 1.53939e-05 2.42532e-21
-7.86971e-06 -1.49367e-05 -1.18234e-20
2.63909e-06 -4.79158e-06 5.60855e-21
1.07636e-05 2.09525e-07 -8.54925e-20
4.12743e-06 5.39413e-07 4.88095e-20
4.1197e-06 -5.42712e-07 3.75924e-20
6.12575e-06 2.28676e-06 -3.69861e-20
3.9576e-06 -1.45708e-06 5.79045e-20
6.21572e-06 -4.18384e-06 3.45608e-20
6.21923e-06 4.1851e-06 6.36646e-20
-1.46412e-06 4.45383e-07 2.41016e-20
1.27137e-06 -7.11617e-06 -1.84931e-20
2.80191e-06 -3.1252e-06 -3.03165e-22
3.41338e-06 1.88037e-07 3.07712e-20
7.07447e-06 -4.51633e-06 1.13687e-20
4.58297e-06 1.26815e-06 8.80694e-20
5.43966e-06 7.11971e-07 6.65447e-20
4.39215e-06 -1.35333e-06 2.09184e-20
5.64409e-06 2.32344e-05 3.78956e-20
1.24498e-05 -2.43118e-05 -1.81899e-20
1.32405e-06 -2.5393e-06 5.27507e-20
1.32115e-06 2.52678e-06 -6.85153e-20
-8.94858e-06 -2.85164e-06 1.30361e-20
-9.11626e-06 3.67331e-06 -2.19795e-20
-2.80117e-05 1.74141e-05 1.54614e-20
-2.86948e-05 -1.71962e-05 -3.21355e-20
1.37095e-05 -7.04422e-06 2.7588e-20
1.37195e-05 7.04809e-06 3.63798e-20
4.42551e-06 1.22624e-06 8.0945e-20
4.41974e-06 -1.2007e-06 7.18501e-20
3.90966e-06 8.21663e-07 5.5176e-20
7.45672e-06 -1.14938e-06 6.62415e-20
4.30724e-06 -1.26106e-06 5.35086e-20
3.30949e-06 -3.62037e-07 8.60988e-20
3.91249e-06 -8.34328e-07 6.97279e-21
7.22964e-06 5.85528e-07 -4.56263e-20
3.97092e-06 6.2956e-07 8.54925e-20
-4.45845e-06 -1.2982e-05 -7.70039e-20
-4.50013e-06 1.28612e-05 1.34908e-20
3.98126e-06 -6.30524e-07 4.09273e-20
2.55924e-06 5.60287e-06 -2.65269e-20
1.75872e-05 3.0465e-05 2.18279e-20
-1.15757e-05 -2.00492e-05 -1.36424e-20
1.45198e-06 -2.04107e-06 8.67052e-20
-1.73925e-06 -3.25505e-06 2.59206e-20
1.25776e-05 -2.08554e-05 -2.65269e-20
4.0171e-06 3.29499e-07 -3.97146e-20
3.84877e-06 1.20698e-07 -2.7588e-20
7.85002e-07 -3.20859e-06 4.33526e-20
7.85542e-07 3.15681e-06 -2.00089e-20
1.15518e-05 2.2063e-05 -4.00178e-20
4.11213e-06 1.24931e-06 1.48551e-20
3.56275e-06 5.62873e-07 5.03254e-20
5.21449e-06 -2.70433e-07 5.3357e-20
5.21331e-06 2.60189e-07 1.06714e-19
-4.10378e-05 1.44692e-10 9.70128e-21
-4.1031e-05 -1.39441e-10 -1.03076e-20
2.85447e-06 -1.47563e-06 8.94336e-20
1.72033e-06 -4.08709e-07 4.16852e-20
3.80009e-06 -3.76056e-06 -5.45697e-21
3.78464e-06 3.76387e-06 5.79045e-20
1.34812e-05 -3.17908e-06 2.66785e-20
1.16305e-05 -1.10931e-05 -6.03298e-20
4.62891e-06 1.30593e-06 1.81899e-20
-5.7556e-06 1.53903e-05 1.18234e-20
-5.79691e-06 -1.56992e-05 -4.95675e-20
6.95556e-06 -5.26443e-06 -3.63798e-21
3.5669e-06 -5.54125e-07 1.24298e-20
-2.12777e-06 -9.6339e-07 -1.31877e-20
-1.22267e-05 8.21723e-06 1.36424e-20
-1.22715e-05 -8.22094e-06 -3.3045e-20
2.56403e-06 3.672e-06 -4.12304e-20
1.67708e-06 -7.64258e-06 3.81988e-20
1.68933e-06 7.64898e-06 2.78912e-20
1.49483e-05 3.31453e-05 2.15247e-20
1.1435e-06 -3.29688e-05 -1.39456e-20
4.21537e-06 -1.15432e-07 1.19447e-19
2.50644e-06 1.5455e-07 3.86535e-20
4.46385e-06 7.0922e-07 8.00355e-20
4.48294e-06 -7.42129e-07 6.79089e-20
1.65189e-06 1.68935e-07 8.70083e-20
4.50845e-06 1.99237e-08 -2.80428e-20
3.24906e-06 1.09149e-06 1.39456e-20
6.20329e-06 1.49761e-05 1.12171e-20
6.1994e-06 -1.49667e-05 1.69772e-20
-3.8391e-06 -2.42312e-06 -9.85286e-21
3.97335e-06 -6.4405e-07 3.3045e-20
4.6859e-06 -5.45517e-07 4.82032e-20
4.68334e-06 5.35754e-07 8.70083e-20
3.86465e-06 -4.99815e-07 4.60811e-20
3.96377e-06 6.41875e-07 6.00266e-20
4.24036e-06 -9.66287e-08 -1.50067e-20
4.26527e-06 1.0332e-07 7.16985e-20
3.52943e-06 -9.27306e-09 -4.24431e-21
3.86041e-06 4.92079e-07 6.12393e-20
4.1899e-06 1.34285e-08 9.50422e-20
3.22847e-06 -3.97325e-09 4.91127e-20
6.05093e-06 3.72657e-07 8.2764e-20
6.07163e-06 -4.35086e-07 8.8221e-20
5.69438e-06 -8.44591e-07 6.45741e-20
5.70392e-06 8.39705e-07 1.07017e-19
4.49207e-06 6.58615e-08 1.12929e-19
3.12651e-06 1.15202e-06 5.35086e-20
4.35572e-06 3.00632e-07 9.48906e-20
4.3565e-06 -3.12016e-07 4.57779e-20
1.22673e-05 1.64779e-05 4.36557e-20
3.93396e-06 -1.56242e-05 -1.21266e-20
4.84699e-06 2.43219e-06 7.88229e-20
4.81346e-06 -2.42998e-06 1.18841e-19
6.10438e-06 -5.19909e-06 1.78867e-20
6.10616e-06 5.21127e-06 4.63842e-20
-1.022e-06 -8.05449e-06 -3.33481e-20
-1.08256e-06 7.87679e-06 9.85286e-21
2.96568e-05 2.73321e-05 -1.30361e-20
-4.37197e-05 -6.89106e-06 -3.69861e-20
5.72504e-06 1.06548e-05 1.63709e-20
8.50695e-06 8.08048e-06 2.51627e-20
5.71765e-06 -1.06521e-05 2.97102e-20
8.50144e-06 -8.07596e-06 1.48551e-20
-7.22603e-06 -2.11784e-05 -1.06108e-20
-4.3749e-05 6.75236e-06 1.12171e-20
1.11444e-05 -4.61626e-06 5.79045e-20
2.73863e-05 -3.60543e-06 3.03165e-21
2.73674e-05 3.60294e-06 3.03165e-22
1.11346e-05 4.61218e-06 6.66963e-21
1.39618e-05 -3.45782e-07 8.30672e-20
9.48731e-06 -3.30876e-06 1.22782e-19
1.30292e-05 3.97254e-06 2.69817e-20
1.3951e-05 3.4312e-07 1.87962e-20
1.30195e-05 -3.97018e-06 1.63709e-20
9.48059e-06 3.3034e-06 5.1538e-20
1.00053e-05 -3.12602e-06 5.1538e-20
9.8793e-06 -3.16525e-06 4.88095e-20
1.00125e-05 3.12622e-06 8.30672e-20
9.88591e-06 3.16563e-06 5.91172e-20
-1.25857e-05 -3.58905e-05 -1.65073e-19
3.6446e-06 3.32998e-05 2.42532e-21
5.11017e-06 -3.01963e-05 -4.07757e-20
-2.6935e-05 -4.69036e-06 -1.0535e-19
-3.36866e-05 -8.4062e-06 -1.23388e-19
3.26857e-06 3.76739e-05 9.54969e-21
5.89411e-06 -3.93154e-05 -4.66874e-20
-3.62261e-05 9.81144e-06 -1.04743e-19
-1.10992e-05 1.86746e-05 -3.54703e-20
-1.98474e-05 -4.38072e-05 -2.05243e-19
-1.77701e-05 4.92079e-05 -7.94292e-20
4.75464e-05 2.32707e-05 -4.53232e-20
2.67327e-05 2.51561e-05 -6.21488e-21
-2.55717e-05 -2.63814e-05 -1.06866e-19
-1.25192e-05 -2.52876e-05 -9.4739e-20
-3.99449e-06 -2.42649e-05 -1.25813e-20
-2.94419e-06 -4.02101e-05 -1.20053e-19
7.4555e-06 3.68752e-05 5.91172e-21
2.87725e-05 -2.03533e-06 -3.18323e-20
-1.51156e-05 -5.29927e-05 -2.48595e-19
-1.3459e-05 5.74849e-05 -6.57868e-20
5.59541e-05 1.78541e-05 -5.06285e-20
-2.35383e-05 -2.37847e-05 -1.51431e-19
-3.68679e-05 9.52917e-06 -1.07017e-19
-2.67745e-05 -2.39539e-05 -9.33748e-20
1.7782e-05 4.00828e-05 -3.27418e-20
-2.51875e-05 5.40712e-06 -7.45786e-20
-3.91297e-05 -7.95324e-05 -1.6568e-19
-2.21629e-05 -1.10507e-05 -8.15514e-20
8.35573e-05 4.37348e-05 -1.28087e-20
6.64987e-06 3.63596e-05 1.40972e-20
1.26524e-06 -3.75161e-05 -1.08078e-19
-8.30857e-05 4.12272e-05 -3.33481e-21
-8.47628e-05 -4.29638e-05 -1.51582e-21
-5.46922e-05 1.88894e-05 -1.05805e-19
-1.97435e-05 -1.56361e-05 -8.73115e-20
-3.43144e-05 -1.7112e-05 -2.7588e-20
-3.49373e-05 1.79767e-05 -1.51582e-21
-5.72854e-06 -1.17765e-05 -7.35175e-20
2.42364e-05 3.1479e-05 -2.74364e-20
-3.46101e-05 2.454e-05 -7.8065e-20
-1.00413e-05 5.11711e-07 -7.48817e-20
-2.17904e-05 2.59952e-05 -6.77574e-20
-1.08563e-05 3.77355e-05 -5.72982e-20
1.11609e-05 2.98435e-05 -2.45564e-20
-3.49659e-05 2.45093e-05 -9.07979e-20
-8.70155e-05 -8.70135e-05 -3.37271e-20
9.07e-05 9.06985e-05 1.51582e-22
9.65595e-06 1.86913e-05 -1.47035e-20
9.12069e-05 9.93073e-05 -3.64556e-20
-9.35433e-05 -8.73285e-05 -4.43379e-20
3.51898e-05 1.88857e-05 9.01916e-20
4.35794e-05 -7.63235e-06 -4.92643e-20
2.01203e-05 -5.15275e-06 3.1226e-20
3.3489e-05 3.08568e-05 1.09594e-19
4.08459e-05 -2.6867e-05 -3.42576e-20
1.70723e-05 3.11855e-05 -3.97146e-20
-3.487e-05 6.65952e-05 -7.7307e-21
-3.56348e-05 -6.67685e-05 -1.69772e-20
2.76364e-05 2.32045e-05 8.91305e-20
3.0232e-05 -1.65426e-05 -8.77662e-20
-4.78797e-05 2.21287e-05 -8.04903e-20
-1.82073e-05 5.09897e-05 1.69772e-20
4.00018e-05 -6.20521e-05 -4.33526e-20
2.14401e-05 -2.4651e-05 -2.35408e-19
-4.24623e-05 8.39169e-05 -8.48104e-20
-8.16306e-05 4.44889e-05 -6.2452e-20
9.08611e-06 2.94025e-05 -2.25858e-20
-3.37415e-06 -2.41198e-05 -2.31921e-20
6.74916e-05 2.79541e-05 2.0312e-20
8.53797e-05 -3.5367e-05 -1.12171e-20
4.69775e-06 -8.17328e-06 1.15203e-20
2.70645e-05 1.88124e-05 9.1859e-20
2.87531e-05 -1.45088e-05 -1.03076e-19
-1.73339e-05 -1.18721e-05 -5.97235e-20
-7.45534e-06 -1.9308e-05 -1.33847e-19
-5.05135e-05 -1.00782e-05 -1.1634e-19
3.59158e-05 -5.86667e-06 -1.13687e-20
-4.3786e-05 -5.80431e-06 -1.28693e-19
-3.20813e-05 -2.69601e-05 -2.07668e-20
-3.74736e-05 -6.49031e-05 -1.16718e-20
-3.70727e-05 6.42117e-05 1.18234e-20
-3.86896e-05 -4.25021e-05 -1.62345e-19
-2.74076e-05 1.74532e-05 -5.12349e-20
2.75249e-05 1.91831e-05 6.48773e-20
6.79548e-06 -7.01288e-05 -6.00266e-20
4.55118e-07 5.55293e-05 1.48551e-20
-3.22574e-05 2.99963e-05 8.79178e-21
7.22035e-06 3.28559e-05 -3.94114e-21
-2.32311e-06 -3.20522e-05 -1.32331e-19
1.95063e-05 9.22148e-06 1.39911e-19
1.97156e-05 -4.89812e-06 -5.76013e-21
4.78584e-05 -3.43597e-05 -1.51279e-19
2.18203e-05 2.47918e-05 1.51128e-19
2.45324e-05 -2.22233e-05 -2.88007e-20
2.78371e-05 -1.36855e-05 -1.1778e-19
1.33343e-05 -3.50878e-05 -2.36923e-19
1.73941e-05 2.01587e-05 1.44458e-19
1.78486e-05 -1.51392e-05 -5.97235e-20
-2.91096e-05 1.40112e-05 -4.04725e-20
1.87193e-05 2.17365e-05 -8.6402e-21
-3.55461e-05 -2.43392e-05 -1.05501e-19
-1.27001e-05 3.05506e-06 -3.89567e-20
5.43572e-06 1.90565e-05 -1.47035e-20
3.79878e-05 9.53457e-06 -1.5613e-20
-2.8146e-05 1.80046e-05 -7.57912e-22
-3.05303e-05 -1.39522e-05 -9.50422e-20
-2.37823e-05 -2.88087e-05 -1.48248e-19
-2.72362e-05 -1.77917e-05 -9.06463e-20
-4.18538e-07 -3.3042e-05 -9.89833e-20
5.01187e-06 3.40036e-05 -1.12171e-20
4.71939e-05 -1.80364e-05 -1.24525e-19
-1.60673e-05 1.26699e-05 -1.9251e-20
2.31492e-05 -3.53955e-05 -2.15095e-19
2.53147e-05 4.04645e-05 -2.88007e-20
-2.7544e-05 1.74457e-05 -2.47079e-20
-1.07206e-05 1.83025e-05 -3.47124e-20
-1.13373e-05 -1.87301e-05 -4.47168e-20
-7.06595e-06 -3.35435e-05 -2.14489e-19
-2.54826e-05 2.64937e-05 -4.42621e-20
4.19642e-06 -4.67295e-05 -2.59812e-19
8.37711e-06 5.1136e-05 -5.28265e-20
4.96544e-05 -2.78635e-07 -6.753e-20
4.99174e-05 3.88869e-05 -3.50155e-20
3.31547e-05 -2.05312e-05 -1.75532e-19
4.80375e-05 -8.32078e-05 -3.65314e-20
-3.93451e-05 6.81505e-05 6.82121e-21
3.6725e-05 -5.40647e-06 -8.10966e-20
1.20053e-05 2.70414e-05 -3.27418e-20
2.10455e-05 1.03464e-05 1.05047e-19
-4.30559e-06 3.58302e-05 -5.66918e-20
1.01924e-05 -2.00868e-05 2.0312e-20
2.61192e-06 2.51791e-05 5.76013e-21
1.59073e-05 -1.16677e-05 -2.3662e-19
1.63073e-05 1.30762e-05 -2.395e-20
-5.62332e-06 -1.83986e-05 -6.38162e-20
9.52184e-06 1.75236e-06 1.07169e-19
3.36023e-05 2.69235e-05 -2.66785e-20
-1.0842e-05 -2.98509e-06 -2.01605e-20
3.38325e-05 2.99735e-05 -1.18234e-20
-3.66726e-05 4.79693e-05 -8.32188e-20
-1.83033e-05 1.59033e-05 -2.06152e-20
1.30435e-05 -5.17679e-05 -2.67619e-19
1.65515e-05 5.55267e-05 -3.56977e-20
5.52437e-05 -1.16721e-05 -8.86757e-20
3.33108e-05 -2.42538e-05 -1.94632e-19
-1.81819e-07 -3.77967e-05 -1.5901e-19
4.67494e-06 4.07713e-05 -2.60722e-20
2.65698e-05 -4.69121e-05 -2.02363e-19
2.82708e-05 4.97963e-05 -3.38029e-20
3.334e-06 1.19397e-05 1.68408e-19
3.17174e-06 -8.16362e-06 3.25902e-20
2.08608e-05 2.31672e-05 -1.40972e-20
1.30192e-05 1.74898e-05 -1.7432e-20
-2.72627e-05 -1.62012e-05 -7.10922e-20
-5.42043e-05 -4.18516e-05 -9.81496e-20
1.02497e-05 3.97292e-05 -3.38029e-20
2.83805e-05 2.31823e-05 1.10352e-19
3.39314e-05 -1.64604e-05 -4.91127e-20
2.67602e-05 2.22998e-05 7.12438e-20
2.87137e-05 -1.49637e-05 -1.14748e-19
-1.72479e-05 -0.000156783 -6.91216e-20
0.000160856 2.70318e-05 -8.33703e-22
7.11033e-06 -3.42005e-05 -2.38136e-19
4.28052e-05 4.73582e-05 9.91349e-20
5.43533e-05 -4.89949e-05 3.33481e-21
2.95997e-05 2.51304e-05 2.04636e-20
-6.7663e-05 -3.47776e-06 -7.82165e-20
7.25707e-07 2.95938e-05 -1.7432e-20
2.14927e-06 -2.98777e-05 -1.73259e-19
-2.32203e-05 3.77243e-05 -8.56441e-20
1.08841e-05 3.07892e-06 -2.40258e-19
3.00236e-05 -1.84253e-05 -1.90842e-19
-4.65217e-06 -9.26364e-06 7.7307e-21
-9.65131e-06 2.59811e-05 1.69772e-20
2.59987e-05 -2.11208e-05 -2.92554e-20
1.83401e-05 -1.31092e-05 -2.57084e-19
-2.0034e-05 -1.3606e-05 -7.21532e-20
-3.49117e-05 -2.18136e-05 -1.20811e-19
3.42574e-05 1.15763e-05 2.50111e-20
1.2353e-05 1.96846e-05 -2.74364e-20
-9.98003e-06 2.56398e-05 -3.71377e-20
-6.83869e-06 -3.4186e-05 -1.51582e-19
2.63794e-05 2.2355e-05 3.45608e-20
1.10554e-05 3.77668e-05 -3.33481e-20
-1.25728e-05 -1.75147e-05 -1.30512e-19
-4.28157e-05 7.99373e-05 -7.16985e-20
-7.71923e-05 4.49265e-05 -4.69148e-20
2.81455e-05 7.99072e-06 8.38251e-20
2.63718e-05 -1.53028e-05 -1.6189e-19
7.24792e-05 3.99574e-05 2.9407e-20
8.84422e-05 -4.27382e-05 -1.33393e-20
5.77332e-06 -1.92455e-05 -2.38288e-19
-4.77126e-05 3.38165e-05 -1.18234e-20
-4.8053e-05 -3.46734e-05 -2.18279e-20
-2.01169e-05 -8.65905e-06 -1.09746e-19
-3.08156e-06 8.40798e-06 -1.86446e-20
4.5628e-05 5.89029e-05 -1.50825e-20
-5.19292e-05 -4.17454e-05 -9.30716e-20
4.40131e-05 -6.21252e-05 -1.86371e-19
4.6205e-05 6.70993e-05 -4.13062e-20
6.88428e-05 -3.77106e-05 -9.23895e-20
4.56206e-06 -7.24653e-06 -2.21462e-19
-5.67569e-06 -6.93666e-05 -1.66513e-19
7.30597e-05 7.39158e-06 -2.45564e-20
-3.81411e-05 -5.2107e-05 -7.92776e-20
3.69613e-05 4.60905e-05 3.4864e-21
-2.34837e-05 -1.87718e-05 -3.80472e-20
-9.96687e-06 6.01622e-07 -8.79178e-20
2.52553e-05 -3.71711e-05 -2.43745e-19
2.7404e-05 4.24481e-05 -4.00178e-20
-2.30162e-05 7.16563e-06 -8.67052e-20
1.26129e-05 -2.45836e-05 -2.22068e-19
2.9936e-05 3.2193e-05 1.26723e-19
3.68459e-05 -2.83627e-05 -2.18279e-20
-2.85099e-05 -1.50855e-05 -5.1538e-20
-1.86611e-05 1.42259e-05 -1.89478e-20
-2.26707e-05 -1.04516e-05 -6.897e-20
-4.34378e-05 -2.37067e-05 -1.32331e-19
-3.90534e-06 2.08364e-05 -2.27374e-20
-9.11706e-05 9.11721e-05 -3.78956e-22
-3.80413e-06 3.71488e-05 -3.27418e-20
6.56082e-06 -3.54217e-05 -2.06001e-19
6.82138e-06 -7.00952e-05 -1.1687e-19
2.85088e-06 5.86355e-05 1.13687e-20
8.86066e-06 1.91879e-05 2.18127e-19
9.41441e-06 -1.62319e-05 -2.98617e-20
-3.36891e-05 -1.7367e-05 -4.82032e-20
-3.28376e-05 1.85756e-05 -7.12437e-21
-5.87527e-05 1.12527e-05 -5.36602e-20
-5.80289e-05 -1.00551e-05 -1.36424e-20
5.86419e-05 4.07674e-05 4.91127e-20
7.89159e-05 -4.32954e-05 -2.88007e-20
2.15015e-05 1.42086e-05 -2.86491e-20
2.05629e-05 1.12716e-06 -1.97664e-19
3.11961e-05 1.86449e-05 3.01649e-20
1.15811e-06 3.25695e-05 -3.18323e-20
2.04093e-06 -3.05104e-05 -1.87659e-19
-4.87739e-05 3.5312e-05 -9.42843e-20
3.1169e-05 -1.31335e-05 -1.47793e-19
-3.53496e-06 -3.26172e-05 -7.71555e-20
2.85595e-05 2.52727e-05 -2.42532e-21
-2.15944e-05 2.17795e-07 -4.98706e-20
-2.06062e-05 1.88422e-07 -1.83415e-20
2.71008e-05 -1.89386e-05 -1.99179e-19
-2.18263e-05 2.02314e-05 8.6402e-21
3.44373e-05 5.96469e-05 9.54969e-21
-3.90232e-05 -6.75912e-05 -2.2131e-20
-7.35446e-06 -2.33922e-05 -1.71137e-19
-2.86492e-05 -1.6959e-05 -5.19928e-20
-3.06879e-06 -3.82586e-05 -2.31921e-20
4.59042e-05 -8.00917e-05 -1.21001e-19
8.04893e-05 -3.72082e-05 -8.48862e-20
4.5383e-06 2.45557e-05 2.02059e-19
5.19093e-06 -2.10711e-05 -3.5925e-20
-4.35826e-06 4.01433e-05 -1.03076e-20
9.15378e-06 3.63496e-05 -3.74409e-20
3.82374e-05 2.41478e-05 -6.0633e-21
2.80477e-05 1.99263e-05 7.32143e-20
3.11055e-05 -9.53225e-06 -1.02621e-19
-7.59678e-05 -2.66616e-10 9.09495e-22
-7.79413e-05 1.56478e-09 -3.18323e-21
5.98534e-06 -1.8014e-05 -2.08881e-19
-2.93024e-05 -1.74965e-05 -8.00355e-20
2.16934e-05 3.03755e-05 1.36879e-19
2.4432e-05 -2.65717e-05 -3.31966e-20
9.96873e-06 2.31669e-05 -2.19795e-20
5.02723e-06 7.04461e-06 -1.97057e-20
8.7664e-05 -8.76656e-05 -4.68769e-20
-2.55749e-05 8.23572e-06 -6.59384e-20
-2.45748e-05 -7.86816e-06 -1.65225e-20
-4.25753e-06 1.8621e-05 -2.54659e-20
3.82682e-05 -1.84569e-05 -1.30967e-19
-2.79981e-05 1.53646e-05 -4.24431e-21
-3.73922e-05 -4.86365e-06 -6.01782e-20
-3.62694e-05 5.63956e-06 -1.77351e-20
-2.1804e-05 1.12136e-05 -1.31877e-20
8.99035e-06 4.66814e-05 1.81293e-19
1.06202e-05 -4.80572e-05 -3.83504e-20
1.84108e-05 7.59253e-05 2.01605e-20
-1.52599e-05 -9.1728e-05 -2.63753e-20
-8.32138e-06 0.000165229 -8.20819e-20
-0.000159026 9.28779e-06 -2.76638e-20
2.37176e-05 1.61521e-05 1.72804e-20
2.3244e-05 -2.9091e-06 -1.95693e-19
-2.62618e-06 -6.23749e-06 -1.87659e-19
8.60119e-05 -0.000105354 -9.37158e-20
0.000109613 -8.42541e-05 -4.92264e-20
3.70443e-05 -8.94325e-05 -9.39811e-21
3.18456e-05 7.68754e-05 -3.94114e-21
-2.60471e-05 1.70288e-05 -1.66741e-20
2.35751e-05 -2.49678e-05 -2.21765e-19
2.45915e-05 2.17246e-05 4.18368e-20
2.49795e-05 -1.27178e-05 -1.72956e-19
1.77094e-05 -1.71838e-05 -2.37984e-19
2.48907e-05 3.1594e-05 -4.54747e-21
-9.61306e-07 -7.43062e-05 -2.14792e-19
3.38814e-06 7.26228e-05 -6.9349e-20
7.77366e-05 3.04879e-06 -7.77618e-20
2.04858e-05 2.52102e-05 -7.57912e-21
8.72761e-06 7.89902e-05 -9.48906e-20
-7.49127e-05 -9.18016e-06 -4.78243e-20
2.92156e-05 1.72143e-05 3.50155e-20
3.3029e-05 -4.98499e-06 -1.38546e-19
2.83355e-05 2.02662e-05 7.39722e-20
3.15433e-05 -1.00561e-05 -9.33748e-20
-8.95976e-05 0.000111977 -5.09317e-20
-0.000109006 8.97504e-05 -1.71288e-20
2.6311e-05 2.29583e-05 2.47079e-20
2.65288e-05 -1.38166e-05 -1.96299e-19
1.38277e-05 4.74376e-05 1.3794e-20
-9.15725e-06 -5.37948e-05 -6.29067e-20
2.3461e-05 8.09038e-06 1.75836e-20
2.38908e-05 1.0648e-05 -1.37485e-19
2.95942e-05 3.53088e-05 1.55827e-19
3.6235e-05 -3.39199e-05 -1.86446e-20
-2.21496e-05 -5.32935e-06 -7.33659e-20
-2.04668e-05 5.87333e-06 -1.51582e-20
-7.52755e-05 1.77402e-06 -1.06108e-21
3.55943e-05 5.93465e-05 4.69906e-21
2.76529e-05 6.05809e-05 1.26875e-19
4.16003e-05 4.7673e-05 5.97235e-20
3.37568e-05 -6.52899e-05 -4.06241e-20
5.01902e-05 -5.00824e-05 -8.18545e-21
-3.6476e-05 -6.82524e-05 -3.88051e-20
-7.73892e-05 -1.3734e-06 -2.2889e-20
3.65466e-05 -1.514e-05 2.12215e-21
0.000126295 -1.66316e-05 5.3357e-20
0.000159771 2.1031e-05 -8.33703e-20
6.212e-05 2.573e-05 -5.1538e-20
5.58553e-05 1.41268e-05 1.71288e-20
4.15904e-05 4.68111e-06 3.45608e-20
5.42896e-05 2.1378e-05 4.24431e-20
7.95814e-05 -7.39478e-07 -7.38207e-20
7.45714e-05 -2.39372e-05 -3.42576e-20
5.38734e-05 1.6285e-05 -8.59473e-20
4.34644e-05 2.7639e-05 7.53365e-20
4.51574e-05 2.71116e-05 7.30627e-20
5.69815e-05 -2.18107e-05 -4.74453e-20
5.75326e-05 -2.16391e-05 -1.24298e-20
VECTORS seepage_velocity_TPM float
-3.6132e-06 -1.08272e-05 -2.07888e-20
-1.14294e-06 8.93641e-06 -3.18447e-20
1.7891e-06 -8.94117e-06 -3.59389e-20
-8.08399e-06 -1.54444e-06 -1.48298e-20
-1.0135e-05 -2.6733e-06 -1.42382e-20
-1.37015e-06 1.15788e-05 -3.37557e-20
2.01658e-06 -1.15868e-05 -3.11625e-20
-1.08893e-05 2.7375e-06 -1.84233e-20
-3.42141e-06 5.54063e-06 -3.07982e-20
-5.71661e-06 -1.3271e-05 -9.55221e-21
-5.48006e-06 1.41949e-05 -1.13261e-20
1.48469e-05 6.05136e-06 -2.00142e-21
7.96819e-06 7.70307e-06 -2.29742e-20
-7.35653e-06 -7.68013e-06 -1.32842e-20
-3.59257e-06 -7.52524e-06 -2.87954e-20
-1.10251e-06 -7.1573e-06 -3.27995e-20
1.16751e-06 1.1837e-05 -2.4657e-20
-5.41883e-07 -1.18446e-05 -2.33378e-20
1.03112e-05 1.04912e-06 -1.00082e-20
-4.30132e-06 -1.60192e-05 -1.72855e-20
-4.34157e-06 1.63816e-05 -1.39194e-20
1.78379e-05 4.1216e-06 -8.64284e-22
-6.92127e-06 -7.17078e-06 -1.54665e-20
-1.11607e-05 2.61795e-06 -1.87868e-20
-7.96671e-06 -7.22556e-06 -1.47844e-20
4.77429e-06 1.0573e-05 -2.27906e-20
-7.67027e-06 1.45312e-06 -2.14715e-20
-1.15658e-05 -2.41082e-05 -7.39146e-21
-6.67644e-06 -3.39802e-06 -2.12901e-20
2.5679e-05 1.21529e-05 -1.79669e-21
-4.2402e-08 1.1063e-05 -2.6523e-20
6.75448e-07 -1.10658e-05 -2.42482e-20
-2.54593e-05 -1.29344e-05 -6.18736e-21
-2.55485e-05 1.24452e-05 -1.37396e-20
-1.63637e-05 5.35025e-06 -1.67395e-20
-5.85342e-06 -4.72545e-06 -1.65587e-20
-1.03069e-05 -5.17721e-06 -1.10549e-20
-1.07962e-05 5.27251e-06 -2.69777e-20
-1.7706e-06 -3.6147e-06 -2.67039e-20
7.19091e-06 7.35171e-06 -2.13348e-20
-1.04997e-05 7.01437e-06 -1.91965e-20
-3.10198e-06 5.74125e-08 -3.14348e-20
-6.79383e-06 7.41918e-06 -1.67856e-20
-3.66939e-06 1.07742e-05 -1.72406e-20
1.65209e-06 7.15879e-06 -3.19809e-20
-1.06272e-05 7.0032e-06 -1.56935e-20
-2.62336e-05 -2.62336e-05 -1.91015e-21
2.71676e-05 2.71676e-05 -6.36711e-22
2.44843e-06 5.61327e-06 -2.52484e-20
2.72677e-05 2.88286e-05 -3.16104e-21
-2.78622e-05 -2.63138e-05 -5.07131e-21
1.27755e-05 -1.33264e-06 -4.09447e-22
1.27664e-05 1.32563e-06 -2.21104e-20
8.85831e-06 1.5872e-06 -1.81517e-20
1.21666e-05 -5.61764e-06 7.27916e-22
1.21563e-05 5.61864e-06 -1.76974e-20
4.52198e-06 7.40854e-06 -2.52019e-20
-1.07145e-05 -2.00799e-05 -6.8697e-21
-1.0746e-05 2.01594e-05 -2.78428e-20
9.69228e-06 -3.73608e-06 -8.27979e-21
9.67697e-06 3.71476e-06 -1.97896e-20
-1.43808e-05 6.29262e-06 -1.4874e-20
-1.1627e-05 1.83376e-05 -2.03362e-20
1.23516e-05 -1.8484e-05 -1.83344e-20
7.02136e-06 -7.26084e-06 -1.21913e-20
-1.27055e-05 2.43511e-05 -8.41481e-21
-2.4351e-05 1.28979e-05 -1.0871e-20
1.41064e-06 7.10741e-06 -2.97061e-20
-8.00249e-07 -7.08651e-06 -3.70755e-20
2.18005e-05 -9.03007e-06 2.5478e-21
2.18073e-05 9.03288e-06 -1.00092e-20
1.54352e-06 -2.2587e-06 -2.87966e-20
9.82661e-06 3.43317e-06 -1.2465e-20
9.84806e-06 -3.43671e-06 -1.06453e-20
-5.19775e-06 -3.55428e-06 -1.94705e-20
-1.8298e-06 -5.52214e-06 -1.15097e-20
-1.51264e-05 -3.22512e-06 -1.19631e-20
-1.30684e-05 -1.91749e-06 -1.0053e-20
-9.63189e-06 -8.15315e-06 -1.10547e-20
-1.12958e-05 1.95648e-05 -1.21472e-20
-1.12688e-05 -1.95179e-05 1.36487e-22
-1.14806e-05 -1.28721e-05 -8.41524e-21
-8.44394e-06 4.99166e-06 -1.87874e-20
1.01545e-05 3.71146e-06 -1.10546e-20
-1.76326e-06 2.07371e-05 -1.55593e-20
2.24498e-06 -2.09425e-05 -9.32647e-21
-9.97018e-06 8.97655e-06 -2.83421e-20
1.03012e-06 9.48828e-06 -2.6704e-20
-3.62467e-07 -9.48783e-06 -3.02979e-20
8.63936e-06 -1.47295e-06 -2.25648e-20
8.54781e-06 1.37738e-06 -2.03811e-20
1.5171e-05 -1.04289e-05 -6.00441e-21
1.22346e-05 2.01275e-06 -7.46051e-21
9.17043e-06 -4.65192e-06 -1.69693e-20
9.12234e-06 4.66075e-06 -1.20105e-20
1.02773e-05 -3.78604e-06 -6.9148e-21
4.50258e-06 -1.05041e-05 -1.624e-20
8.22277e-06 -3.65731e-06 -1.77425e-20
8.09683e-06 3.5794e-06 -1.48309e-20
-8.86032e-06 4.06359e-06 -2.24726e-20
5.05326e-06 3.11178e-06 -3.02071e-20
-1.05891e-05 -7.3904e-06 -8.73396e-21
-3.81016e-06 9.15881e-07 -1.77875e-20
-9.97115e-07 2.16726e-06 -3.6576e-20
1.26417e-05 1.79749e-06 -3.82113e-21
-8.70436e-06 5.24031e-06 -2.14719e-20
-9.14352e-06 -4.27374e-06 -1.21461e-20
-6.998e-06 -8.75453e-06 -1.09172e-20
-8.10114e-06 -5.43007e-06 -1.17819e-20
1.7969e-07 -9.76932e-06 -3.54377e-20
4.82319e-07 9.77271e-06 -2.76587e-20
1.49985e-05 -5.92191e-06 -3.04764e-21
-5.1868e-06 3.52523e-06 -2.70677e-20
7.56854e-06 -1.07014e-05 -1.21001e-20
7.60471e-06 1.08012e-05 -1.6558e-20
-8.43705e-06 4.99216e-06 -2.06074e-20
-3.35479e-06 5.47516e-06 -3.91236e-20
-3.43275e-06 -5.67544e-06 -2.30647e-20
-1.84043e-06 -1.00732e-05 -2.2608e-20
-7.89546e-06 7.56807e-06 -1.65131e-20
1.63192e-06 -1.40946e-05 -1.56931e-20
2.34673e-06 1.44368e-05 -1.29866e-20
1.59438e-05 -7.60945e-07 -1.61481e-21
1.55422e-05 1.03624e-05 -6.23186e-21
1.07617e-05 -6.26832e-06 -7.68766e-21
1.42975e-05 -2.47648e-05 -2.82073e-21
-1.42605e-05 2.47003e-05 -3.82163e-21
1.23158e-05 -2.20231e-06 -2.6384e-21
2.15913e-06 5.47611e-06 -2.95241e-20
8.97397e-06 -1.72219e-06 -1.71963e-20
-1.73304e-06 1.02108e-05 -1.81956e-20
-2.66195e-06 5.77676e-06 -3.60759e-20
3.15463e-06 -5.75178e-06 -3.3619e-20
5.15887e-06 -3.20478e-06 -6.91488e-21
3.86142e-06 -1.1678e-06 -3.4711e-20
-1.56323e-06 -5.49796e-06 -2.77042e-20
6.65853e-06 6.28848e-08 -2.9617e-20
1.05602e-05 6.76367e-06 -7.18726e-21
-3.61957e-06 -1.17015e-06 -3.50291e-20
1.05735e-05 6.90307e-06 -1.31465e-20
-1.11234e-05 1.38254e-05 -1.35552e-20
-5.81863e-06 4.50443e-06 -1.94702e-20
4.374e-06 -1.56565e-05 -1.66716e-20
4.60655e-06 1.5651e-05 -1.63076e-20
1.74014e-05 -3.99638e-06 -3.50263e-21
1.07939e-05 -7.16266e-06 -1.03262e-20
4.04416e-07 1.13368e-05 -2.25179e-20
2.5695e-07 -1.13209e-05 -3.198e-20
8.5512e-06 -1.433e-05 -9.05192e-21
8.41706e-06 1.37327e-05 -9.18839e-21
5.41706e-06 -1.98483e-06 -2.74331e-20
5.43769e-06 1.91407e-06 -2.55223e-20
6.04664e-06 3.77548e-06 -2.88874e-20
3.68268e-06 5.17237e-06 -2.93882e-20
-8.15878e-06 -4.89877e-06 -1.31471e-20
-1.61493e-05 -1.27304e-05 -7.30051e-21
2.539e-06 1.04679e-05 -2.07886e-20
1.087e-05 3.68521e-06 -1.83796e-20
1.08909e-05 -3.70081e-06 -5.95972e-21
9.81114e-06 -3.85887e-06 -6.45999e-21
9.79248e-06 3.83448e-06 -1.55586e-20
-4.92458e-06 -4.75469e-05 -2.61531e-21
4.88157e-05 7.51255e-06 -1.00064e-21
2.53916e-06 -1.0224e-05 -1.91965e-20
1.5038e-05 -1.00596e-05 -7.27935e-22
1.50304e-05 1.00834e-05 -9.64512e-21
9.99425e-06 5.23029e-06 -1.49212e-20
-2.01631e-05 -1.28641e-06 -1.04618e-20
1.22521e-05 -2.23973e-06 -5.54989e-21
-4.18788e-07 8.76033e-06 -2.15629e-20
1.04669e-06 -8.80252e-06 -2.64761e-20
-7.21153e-06 1.08463e-05 -1.46928e-20
3.6577e-06 1.20215e-06 -8.18871e-21
1.00355e-05 -5.25649e-06 -5.50445e-21
-1.50394e-06 -2.6141e-06 -2.12903e-20
-7.43619e-06 6.08907e-06 -3.30284e-20
8.10625e-06 -6.07574e-06 -3.27098e-20
6.01407e-06 -3.71149e-06 -6.91478e-21
-5.95182e-06 -4.0385e-06 -2.12445e-20
-1.0416e-05 -6.70216e-06 -7.50558e-21
1.7181e-06 2.4138e-06 -3.82138e-20
-3.42188e-06 7.35749e-06 -1.97429e-20
-1.79249e-06 -1.0209e-05 -2.98414e-20
8.57889e-06 4.01038e-06 -1.88791e-20
2.60856e-06 1.02988e-05 -2.21082e-20
-3.25092e-06 -5.02417e-06 -5.73211e-21
-1.27906e-05 2.33849e-05 -7.30008e-21
-2.29528e-05 1.30351e-05 -7.93683e-21
8.60474e-06 -4.03304e-06 -3.9578e-21
1.03766e-05 -1.21954e-06 -9.28033e-21
2.20946e-05 9.72429e-06 -5.18662e-21
2.20841e-05 -9.71238e-06 2.8208e-21
2.17039e-06 -5.58834e-06 -1.36475e-20
-1.44261e-05 -1.04425e-05 -1.26019e-20
-1.4758e-05 1.01845e-05 -2.19282e-20
-6.08581e-06 -2.70764e-06 -2.15173e-20
-1.28573e-06 2.25617e-06 -3.49834e-20
1.38028e-05 1.68986e-05 -4.36649e-21
-1.54307e-05 -1.26963e-05 -7.00457e-21
1.37336e-05 -1.88495e-05 -7.11854e-21
1.39567e-05 1.90773e-05 -7.84635e-21
2.12788e-05 -1.17274e-05 -3.50243e-21
1.6918e-06 -2.00867e-06 -7.4608e-21
-1.41354e-06 -2.10224e-05 -6.82266e-21
2.25388e-05 1.63791e-06 -7.50489e-22
1.17707e-05 1.54856e-05 -1.72423e-20
-1.11245e-05 -1.53917e-05 -5.82328e-21
-7.0544e-06 -5.69839e-06 -1.29198e-20
-3.04963e-06 1.20712e-07 -3.58932e-20
8.12599e-06 -1.11714e-05 -1.13265e-20
8.1754e-06 1.135e-05 -1.3237e-20
-6.9544e-06 2.03303e-06 -2.3064e-20
4.27797e-06 -7.23314e-06 -1.96976e-20
1.14859e-05 -5.87373e-06 1.13738e-21
1.14624e-05 5.8787e-06 -1.29662e-20
-8.52773e-06 -4.56884e-06 -1.16915e-20
-5.93215e-06 3.97237e-06 -2.23818e-20
-6.81371e-06 -3.23604e-06 -1.49667e-20
-1.28998e-05 -7.25357e-06 -7.18696e-21
-1.5969e-06 5.91454e-06 -2.16539e-20
-2.68943e-05 2.68943e-05 -1.94423e-21
-1.63663e-06 1.04646e-05 -2.11073e-20
2.38273e-06 -1.05719e-05 -2.85677e-20
2.33903e-06 -2.08202e-05 -1.60595e-20
-1.70515e-06 2.08121e-05 -1.99265e-20
6.43925e-06 -3.3201e-06 -2.10642e-20
6.43317e-06 3.21159e-06 -2.04273e-20
-1.02137e-05 5.43847e-06 -2.4566e-20
-1.00999e-05 -5.26141e-06 -1.33293e-20
-1.79239e-05 -3.27922e-06 -2.47488e-20
-1.76387e-05 3.34745e-06 -1.44216e-20
2.08761e-05 9.79546e-06 -1.2375e-20
2.0875e-05 -9.78301e-06 9.09927e-22
6.58463e-06 6.12006e-07 -6.27809e-21
6.59524e-06 -5.71802e-07 -3.53939e-20
1.03778e-05 3.67734e-06 -1.05084e-20
-3.44378e-07 9.27233e-06 -2.05164e-20
1.00078e-06 -9.0705e-06 -2.68398e-20
-1.46425e-05 1.01445e-05 -1.55112e-20
1.03447e-05 -3.77533e-06 -3.68477e-21
-8.50845e-07 -9.76209e-06 -3.33903e-20
8.86456e-06 5.38621e-06 -1.6786e-20
-6.56942e-06 -2.1144e-07 -3.78044e-20
-6.49538e-06 5.93195e-08 -1.42847e-20
8.84208e-06 -5.46483e-06 -9.23458e-21
-6.72448e-06 5.93816e-06 -2.60217e-20
1.17099e-05 2.02827e-05 -3.59413e-21
-1.15213e-05 -1.99558e-05 1.31937e-21
-1.79669e-06 -6.86229e-06 -1.82425e-20
-8.57194e-06 -5.16562e-06 -1.06449e-20
-9.52576e-07 -1.15334e-05 -1.33751e-20
1.43225e-05 -2.44484e-05 -4.4688e-21
2.46973e-05 -1.15791e-05 -2.66082e-21
5.41398e-06 -4.59307e-06 -1.87894e-20
5.34014e-06 4.4973e-06 -1.22381e-20
-1.43008e-06 1.20829e-05 -3.51666e-20
1.43314e-06 9.42293e-06 -2.3337e-20
1.27674e-05 5.45999e-06 -6.73256e-21
9.87906e-06 -2.23638e-06 -4.95878e-21
9.86811e-06 2.19311e-06 -2.72506e-20
-2.33996e-05 -2.1636e-10 -4.04907e-21
-2.34057e-05 2.08188e-10 -6.50582e-21
2.23064e-06 -5.2385e-06 -1.35566e-20
-8.77628e-06 -5.33375e-06 -9.87152e-21
9.09995e-06 5.57174e-06 -1.17376e-20
9.14986e-06 -5.5737e-06 -7.91604e-21
2.52529e-06 6.71344e-06 -2.41109e-20
1.13947e-06 1.84843e-06 -3.02068e-20
2.67859e-05 -2.67859e-05 -6.48079e-22
-7.67814e-06 2.44164e-06 -1.63776e-20
-7.7531e-06 -2.61424e-06 -2.97981e-20
-1.68375e-06 5.36838e-06 -2.59303e-20
1.25323e-05 -5.54911e-06 -5.1859e-21
-8.65778e-06 4.40615e-06 -2.14268e-20
-1.12189e-05 -1.48335e-06 -1.64684e-20
-1.12718e-05 1.45011e-06 -2.68408e-20
-6.71768e-06 3.24311e-06 -2.41106e-20
6.38773e-06 9.70414e-06 -8.59865e-21
6.4372e-06 -9.67876e-06 -1.06005e-20
4.83039e-06 2.72704e-05 -6.59687e-21
-4.31953e-06 -2.72709e-05 -2.1383e-21
-2.4188e-06 4.84912e-05 -3.72965e-21
-4.73777e-05 2.47919e-06 -4.18446e-21
7.41068e-06 -5.16636e-07 -6.23255e-21
7.45077e-06 4.33376e-07 -3.12083e-20
-3.39734e-07 -1.72351e-06 -9.64442e-21
2.62999e-05 -3.1994e-05 -2.53563e-21
3.34517e-05 -2.57519e-05 -8.52789e-22
8.96116e-06 -2.16344e-05 -1.09192e-21
8.96763e-06 2.165e-05 -2.36583e-21
-8.14581e-06 4.84269e-06 -1.99253e-20
7.7303e-06 -7.36615e-06 -9.73505e-21
7.89742e-06 -3.26755e-06 -4.32181e-21
7.88809e-06 3.22254e-06 -2.816e-20
5.83717e-06 -4.85398e-06 -6.09587e-21
7.67445e-06 7.43684e-06 -2.21541e-20
4.93336e-08 -2.2556e-05 -8.43767e-21
8.77289e-07 2.07644e-05 -8.59684e-21
2.40736e-05 1.97631e-07 -1.04618e-21
5.85778e-06 4.80387e-06 -2.47019e-20
2.64626e-06 2.28732e-05 -7.02732e-21
-2.23587e-05 -3.01403e-06 -9.68813e-21
9.91746e-06 -1.04819e-06 -4.09442e-21
9.96053e-06 9.18388e-07 -2.86155e-20
9.64984e-06 -1.96203e-06 -2.50216e-21
9.66285e-06 1.95056e-06 -2.84792e-20
-2.64539e-05 3.27417e-05 -3.68401e-21
-3.24744e-05 2.64511e-05 -4.11609e-21
8.60957e-06 3.74032e-06 -2.49753e-20
8.63077e-06 -3.78741e-06 -4.27627e-21
3.01661e-06 1.59954e-05 -1.34209e-20
-2.48938e-06 -1.58946e-05 -1.14191e-20
7.46864e-06 3.14103e-06 -1.91074e-21
7.41221e-06 -3.1222e-06 -3.07084e-20
1.13669e-05 -6.95779e-06 -6.82425e-21
1.1342e-05 6.96961e-06 -1.00544e-20
-6.61866e-06 -1.62387e-06 -1.66047e-20
-6.48422e-06 1.52094e-06 -2.60216e-20
-1.06301e-05 -2.0187e-05 -2.32025e-21
1.04677e-05 -1.26809e-05 -6.27849e-21
1.26166e-05 -1.06922e-05 -1.63787e-21
1.04454e-05 1.27265e-05 -5.41406e-21
1.26215e-05 1.07128e-05 -4.27665e-21
1.12643e-05 2.03982e-05 -1.26931e-20
-2.32529e-05 3.75569e-07 -1.62871e-20
-2.32289e-05 -4.39578e-07 -1.13282e-20
1.69207e-05 7.00899e-06 2.72976e-22
4.07961e-05 5.37095e-06 5.00475e-21
4.08088e-05 -5.37262e-06 -1.85631e-20
1.69167e-05 -7.00733e-06 -1.21019e-20
2.12553e-05 4.38382e-07 -3.18471e-21
1.50272e-05 4.5623e-06 -1.36485e-21
1.9944e-05 -5.63486e-06 3.60982e-28
2.12546e-05 -4.31821e-07 -1.70154e-20
1.99435e-05 5.64014e-06 -9.55421e-21
1.50286e-05 -4.55433e-06 -2.45218e-20
1.57665e-05 -4.49662e-06 7.73416e-22
1.56814e-05 -4.52329e-06 1.27388e-21
1.57675e-05 4.50036e-06 -1.8744e-20
1.56759e-05 4.52905e-06 -9.55413e-21
-1.45671e-06 9.1082e-06 5.77749e-21
-1.5466e-06 -9.15404e-06 -1.41935e-20
-8.18007e-06 1.5005e-06 -1.33286e-20
-1.04357e-05 2.7162e-06 -7.18733e-21
-1.69589e-06 1.189e-05 -2.27462e-22
-1.78406e-06 -1.19157e-05 -2.04717e-20
-1.04432e-05 -2.68642e-06 1.56029e-20
-3.51403e-06 -5.54217e-06 4.20799e-20
-5.85235e-06 -1.31839e-05 -1.32821e-20
6.00446e-06 1.35818e-05 1.09168e-20
1.37848e-05 6.27028e-06 -1.0189e-20
7.73019e-06 -8.00706e-06 -1.27384e-21
7.91613e-06 7.89479e-06 3.73044e-21
-8.4084e-06 5.0214e-06 -1.07358e-20
8.92092e-07 -1.21637e-05 6.50545e-21
9.70563e-07 1.21211e-05 6.27796e-21
8.53976e-06 1.34305e-06 -1.96519e-20
-4.39278e-06 -1.59955e-05 -1.04167e-20
4.32588e-06 1.6152e-05 1.92869e-20
1.67206e-05 4.46717e-06 -1.39192e-20
4.02014e-06 1.08456e-05 1.36924e-20
4.15536e-06 -1.06861e-05 -1.23277e-20
-7.69403e-06 -1.57925e-06 3.13428e-20
-1.14372e-05 -2.37706e-05 -1.68297e-20
-6.81325e-06 3.44794e-06 -2.33825e-20
-2.61662e-07 1.13328e-05 8.18879e-22
-3.60228e-07 -1.13625e-05 -1.28293e-20
-2.5662e-05 -1.24092e-05 2.73432e-20
-2.55508e-05 1.28672e-05 -1.64694e-20
-5.5025e-06 7.41882e-06 -1.4102e-21
-6.62685e-06 7.84634e-06 4.04855e-21
-1.5279e-05 4.92903e-06 -3.36608e-21
-1.09196e-05 -5.25395e-06 4.94063e-20
-1.04456e-05 5.11133e-06 -2.36112e-20
-1.77483e-06 3.67046e-06 -2.76588e-20
6.42949e-06 -7.65445e-06 2.09249e-21
-3.19786e-06 -1.1539e-07 1.32379e-20
-1.10068e-05 7.18602e-06 -9.66644e-21
-7.23869e-06 -7.3237e-06 7.05085e-21
-1.27092e-05 -1.99737e-06 1.60575e-20
-1.15941e-05 2.33652e-06 -9.62083e-21
-3.98794e-06 -1.08389e-05 2.50195e-21
1.15774e-06 -7.42323e-06 -3.36636e-20
1.25064e-06 7.37294e-06 -6.82374e-21
-3.60034e-06 1.09035e-05 1.09175e-20
6.6563e-06 7.74252e-06 5.23127e-21
-2.56844e-05 -2.5684e-05 3.32026e-21
-2.52914e-05 2.52915e-05 -1.66014e-21
2.30924e-06 -5.95461e-06 1.86063e-20
2.31631e-06 5.77302e-06 1.11001e-20
3.88926e-06 7.67341e-06 5.73176e-21
-2.53655e-05 2.7603e-05 1.11434e-21
-2.67576e-05 -2.57359e-05 -3.09288e-21
1.33606e-05 -2.43237e-06 1.84704e-20
1.32499e-05 2.63541e-06 -2.65683e-20
6.22696e-06 2.19975e-06 -1.83785e-20
1.25147e-05 -8.38473e-06 1.87888e-20
1.24232e-05 8.45298e-06 -2.43845e-20
3.91371e-06 -7.65762e-06 -2.89318e-20
-1.08605e-05 -2.00617e-05 3.12098e-20
-1.08544e-05 1.99069e-05 -9.69042e-21
9.15961e-06 -5.27254e-06 1.93342e-20
9.16414e-06 5.35864e-06 -2.66585e-20
-1.21386e-05 -1.88254e-05 -3.65326e-20
-1.21028e-05 1.88305e-05 -7.73408e-21
1.24506e-05 2.35051e-05 4.25288e-21
2.36008e-05 1.2462e-05 -5.4355e-21
1.02938e-06 7.32641e-06 2.77496e-21
9.35801e-07 -7.37601e-06 -2.82045e-20
2.62421e-05 -1.08696e-05 7.18854e-21
2.59555e-05 1.07511e-05 -6.8244e-21
-1.05227e-05 -7.32776e-06 1.8878e-20
8.65879e-06 4.77242e-06 -2.79771e-20
8.6617e-06 -4.67824e-06 9.14374e-21
-9.75525e-06 8.15476e-06 -2.42476e-20
-1.47367e-05 -3.32811e-06 -2.00145e-21
-1.12576e-05 1.94988e-05 -8.55333e-21
-1.13056e-05 -1.95813e-05 1.79259e-20
-8.32069e-06 -5.14266e-06 3.75747e-20
8.35243e-06 4.51245e-06 -2.56114e-20
-1.17786e-05 -1.281e-05 -7.55094e-21
-2.05291e-06 -2.1279e-05 -2.60237e-20
-1.97381e-06 2.12944e-05 -8.0071e-21
-1.00945e-05 -8.95376e-06 6.25985e-20
8.24919e-07 9.66688e-06 1.34656e-20
7.45464e-07 -9.6569e-06 1.62406e-20
6.22404e-06 -2.20265e-06 -8.77989e-21
6.11651e-06 2.12512e-06 -2.02893e-20
1.39041e-05 -1.0608e-05 1.31914e-20
1.04816e-05 2.31777e-06 -1.7832e-20
7.51893e-06 7.14548e-06 -2.27463e-20
7.58348e-06 -7.0871e-06 4.68572e-21
8.4899e-06 -4.53847e-06 1.22826e-21
5.67464e-06 -5.08357e-06 2.59305e-21
5.52009e-06 5.03769e-06 -2.49297e-20
-9.01775e-06 -4.04149e-06 5.88652e-20
-9.43644e-06 7.43135e-06 1.36464e-21
4.79442e-06 3.6639e-06 -2.12902e-20
4.648e-06 -3.55439e-06 -1.06905e-20
-1.47013e-06 -2.47195e-06 -3.7576e-20
-1.38434e-06 2.41557e-06 -8.27957e-21
1.12386e-05 1.91832e-06 -1.53297e-20
-1.58233e-05 1.54154e-05 5.95867e-21
-8.81332e-06 -5.2686e-06 6.9056e-20
-9.07436e-06 4.31312e-06 -2.64756e-20
-2.15122e-05 3.52345e-06 -9.32463e-22
-8.41458e-06 5.13665e-06 -1.7832e-20
9.10526e-08 -9.99679e-06 2.91142e-21
2.30719e-07 9.97543e-06 1.28739e-20
-7.3975e-06 -8.86039e-06 -3.82101e-21
1.37237e-05 -5.89403e-06 6.823e-21
-5.26679e-06 -3.59718e-06 6.50076e-20
-5.27781e-06 3.89045e-06 6.36878e-22
6.81281e-06 -1.08342e-05 1.55571e-20
-7.17524e-06 1.15817e-05 5.73154e-21
-8.6498e-06 -5.11729e-06 6.02753e-20
-3.50398e-06 -5.5323e-06 4.35815e-20
-3.58187e-06 5.91082e-06 -2.41108e-20
2.03096e-06 1.0434e-05 2.31994e-20
-7.86241e-06 -7.44912e-06 2.8022e-20
1.20949e-06 -1.40399e-05 -5.09454e-21
-1.82862e-06 1.44616e-05 1.52382e-20
1.46481e-05 -1.55594e-06 -8.52882e-21
9.61473e-06 -6.55041e-06 1.01439e-20
-1.46071e-05 2.53009e-05 -6.41487e-21
-1.4579e-05 -2.52522e-05 -2.41139e-21
-1.03376e-05 -6.21989e-06 1.20545e-20
1.08557e-05 -2.35009e-06 -6.55038e-21
-1.63732e-05 -1.2979e-05 -4.68506e-21
1.6459e-06 -5.80311e-06 -3.10247e-20
1.7084e-06 5.87794e-06 -7.50604e-21
6.38512e-06 -2.32262e-06 -1.24646e-20
-2.089e-06 -1.01933e-05 -1.77405e-21
-3.13578e-06 -6.08331e-06 -4.58561e-20
-3.04994e-06 6.02678e-06 -8.18867e-21
9.73787e-06 1.37015e-05 8.32422e-21
1.44505e-05 9.75115e-06 -4.41229e-21
-2.06394e-05 -9.29345e-07 -3.93454e-21
3.58158e-06 -7.02209e-07 -2.20637e-20
3.41862e-06 8.5987e-07 -2.21543e-20
2.96619e-06 1.80524e-07 -2.01075e-20
-3.72091e-06 1.03575e-06 8.44779e-20
-3.42967e-06 -1.00367e-06 7.23325e-21
-6.00832e-06 -4.49289e-06 3.9668e-20
3.99029e-06 -1.55339e-05 5.77698e-21
-3.65366e-06 1.55012e-05 1.48519e-20
1.58617e-05 -4.11611e-06 -3.7755e-21
9.661e-06 -7.36513e-06 1.42835e-20
1.63256e-07 1.13323e-05 1.8924e-20
2.14149e-08 -1.1395e-05 3.41176e-21
-7.40346e-06 1.48129e-05 1.27363e-20
7.7072e-06 -1.39376e-05 1.60113e-20
1.11464e-06 2.98824e-06 -1.98346e-20
1.02029e-06 -3.02923e-06 -1.65591e-20
5.49412e-06 -4.11971e-06 -1.57398e-20
5.61062e-06 4.20993e-06 -1.10999e-20
3.77343e-06 -5.43154e-06 4.11703e-20
3.60782e-06 5.3235e-06 1.00993e-20
-8.12475e-06 4.95266e-06 -1.55125e-20
2.01635e-06 -1.05855e-05 -6.09552e-21
1.03451e-05 5.3294e-06 -2.67043e-20
1.04189e-05 -5.2355e-06 1.82426e-20
8.92707e-06 -5.76739e-06 8.37022e-21
8.65536e-06 -4.75154e-06 1.52852e-20
8.65398e-06 4.8302e-06 -2.64763e-20
-4.99408e-06 -4.63736e-05 3.72954e-21
6.88144e-06 1.07162e-05 8.05147e-21
-4.77812e-05 5.60169e-06 2.04664e-22
-1.77318e-06 1.06553e-05 1.77862e-20
1.67106e-05 -1.51046e-05 9.14447e-21
1.65311e-05 1.50948e-05 -1.50588e-20
8.99734e-06 5.84888e-06 -1.88331e-20
1.05014e-05 -2.55696e-06 -1.41928e-20
9.78601e-06 6.82099e-06 -9.78e-21
-6.56692e-07 -8.95249e-06 3.19804e-20
-5.99049e-07 8.95215e-06 1.97887e-20
-7.82912e-06 6.33946e-06 -7.96135e-21
-7.88537e-06 -6.39412e-06 -4.03073e-20
1.55373e-06 2.68176e-06 -1.51034e-20
1.2756e-06 -2.72124e-06 -3.72573e-20
-3.63669e-06 -7.42131e-06 2.14259e-20
2.08239e-06 1.0292e-05 2.20625e-20
7.88066e-06 -4.86363e-06 1.16457e-20
7.93637e-06 4.93416e-06 -1.96066e-20
9.82997e-06 7.46571e-06 -5.5042e-21
-3.43917e-06 7.49465e-06 1.54667e-20
2.08269e-06 -1.04242e-05 -1.20093e-20
1.25363e-05 2.27142e-05 -2.0468e-21
2.30415e-05 1.25142e-05 -4.0936e-22
-1.43143e-05 1.07136e-05 6.14077e-21
8.60644e-06 -1.52639e-06 -9.18906e-21
2.71981e-05 -1.31712e-05 7.18842e-21
2.69486e-05 1.31411e-05 -8.41678e-21
-1.48665e-05 -1.01474e-05 3.76242e-20
-1.45734e-05 1.03877e-05 -2.29745e-20
-6.10947e-06 2.62531e-06 -1.42841e-20
-1.43597e-06 2.33839e-06 1.81968e-20
-1.45064e-06 -2.29722e-06 9.48038e-20
-1.2043e-05 1.6083e-05 6.64081e-21
-1.51224e-05 -1.29289e-05 -9.66554e-21
1.29597e-05 -1.85183e-05 9.32455e-21
-1.17743e-05 1.92514e-05 9.3701e-21
1.94047e-05 -1.13023e-05 5.91314e-21
-1.32222e-05 -7.152e-06 -8.73353e-21
-1.59994e-06 -2.07439e-05 -1.23492e-20
-1.96465e-05 1.7964e-07 -7.45952e-21
1.15552e-05 -1.58357e-05 -1.90623e-20
1.17938e-05 1.5831e-05 -2.50217e-21
-7.09679e-06 5.62291e-06 -2.98882e-20
-3.10822e-06 -2.2374e-07 -1.29195e-20
-7.00894e-06 1.14575e-05 1.17358e-20
7.4118e-06 -1.14104e-05 1.29639e-20
-7.05007e-06 -2.09086e-06 8.91621e-21
1.13728e-05 -8.81425e-06 1.1692e-20
1.12637e-05 8.88742e-06 -2.07908e-20
-8.69873e-06 4.56614e-06 -2.45201e-20
-6.10505e-06 -4.10006e-06 5.08591e-20
-5.39639e-06 3.94626e-06 8.09743e-21
-6.97729e-06 3.25439e-06 -2.57025e-20
-1.76802e-06 -6.02105e-06 4.89026e-20
-1.57927e-06 6.45901e-06 1.71501e-20
2.65968e-05 2.65966e-05 -2.92227e-21
-1.953e-06 -1.05513e-05 1.1145e-20
-1.77622e-06 1.06489e-05 1.9788e-20
-2.05168e-06 -2.12801e-05 -2.32479e-20
-1.96296e-06 2.13081e-05 -3.68503e-21
3.00443e-06 -5.62128e-06 -1.28744e-20
3.03613e-06 5.49288e-06 -1.93344e-20
-1.03183e-05 -5.42526e-06 5.36815e-20
-1.01428e-05 5.23455e-06 -2.78868e-20
-1.80395e-05 3.34696e-06 4.83608e-20
-1.777e-05 -3.33283e-06 -1.71059e-20
2.39006e-05 1.33192e-05 -1.22383e-20
2.42335e-05 -1.33446e-05 9.96364e-21
6.42837e-06 -8.17157e-08 -3.13445e-20
6.21334e-06 2.50567e-07 -1.33291e-20
9.32153e-06 4.36385e-06 -2.2836e-20
-6.05067e-07 -9.30756e-06 2.40645e-20
8.00607e-06 -5.93262e-06 1.02352e-20
-5.31774e-07 9.4006e-06 1.89696e-20
9.20333e-06 -4.42625e-06 6.59604e-21
1.06845e-06 9.68567e-06 1.18731e-20
8.08329e-06 6.02152e-06 -8.82503e-21
-6.52201e-06 1.25209e-07 8.11582e-20
-6.71877e-06 -1.5136e-07 -3.50294e-21
-6.90104e-06 -5.96434e-06 7.44709e-20
1.18437e-05 -2.05148e-05 -9.87302e-21
1.1915e-05 2.06379e-05 2.8207e-21
-8.66233e-06 5.07108e-06 -2.76586e-20
-1.22539e-06 1.14768e-05 -1.36935e-20
1.35175e-05 -2.38121e-05 8.64211e-21
2.34599e-05 -1.11478e-05 3.18394e-21
1.89575e-06 -6.99792e-06 -2.09268e-21
1.83996e-06 6.90004e-06 -1.78333e-20
-1.60837e-06 -1.20405e-05 5.42286e-20
9.57289e-07 -9.58561e-06 -2.54292e-20
1.13579e-05 5.96415e-06 -1.88326e-20
9.44562e-06 -2.9932e-06 2.57941e-20
9.44312e-06 3.13779e-06 -2.51574e-20
-2.35203e-05 7.85856e-11 8.28059e-21
-2.35079e-05 1.03793e-10 -8.87165e-21
-8.69658e-06 5.0977e-06 -2.6521e-20
7.48878e-06 8.37359e-06 -2.3247e-20
7.55608e-06 -8.31502e-06 1.05089e-20
2.40242e-06 6.85578e-06 1.83788e-20
2.37156e-06 -6.84703e-06 4.30807e-20
1.05325e-06 -1.87625e-06 7.59252e-20
1.17664e-06 2.0317e-06 1.9789e-20
2.57868e-05 -2.5787e-05 -1.98989e-21
-7.77829e-06 2.67611e-06 5.84132e-20
-7.81263e-06 -2.42735e-06 -1.81973e-20
-1.85126e-06 -5.49756e-06 6.34604e-20
-1.74842e-06 5.59431e-06 2.11081e-20
1.1089e-05 -5.95792e-06 1.81958e-21
-8.751e-06 -4.39068e-06 5.64101e-20
-1.13554e-05 -1.45474e-06 5.06791e-20
-1.12928e-05 1.85814e-06 -2.29284e-20
-6.84591e-06 -3.21984e-06 6.45069e-20
3.47168e-06 -1.48311e-05 2.22921e-21
3.43448e-06 1.48253e-05 -1.75151e-20
4.7578e-06 2.79078e-05 -2.95721e-21
4.63321e-06 -2.78375e-05 -2.38856e-20
2.14524e-06 4.60594e-05 1.43272e-21
4.64273e-05 3.22068e-06 -3.52488e-21
7.12441e-06 1.06045e-06 -2.45204e-20
7.04582e-06 -8.75603e-07 1.14184e-20
2.5157e-05 -3.13428e-05 4.43457e-22
3.06158e-05 -2.50414e-05 -6.56091e-21
1.14006e-05 -2.75224e-05 2.18379e-21
1.13236e-05 2.73365e-05 1.81984e-21
-8.24722e-06 -4.82742e-06 4.99952e-20
7.60044e-06 4.09583e-06 -2.31553e-20
7.53378e-06 -3.98779e-06 1.70139e-20
7.03163e-06 7.80821e-06 -2.8204e-21
6.95441e-06 -7.74671e-06 1.81949e-22
-2.96276e-07 -2.21032e-05 -4.50311e-21
-5.37456e-07 2.03865e-05 1.00524e-20
2.11542e-05 -6.60474e-07 -3.00207e-21
5.38061e-06 5.38989e-06 -1.01445e-20
5.27416e-06 -5.31721e-06 -3.86669e-21
-2.21179e-06 2.25456e-05 3.45686e-21
2.22751e-05 -1.6239e-06 -3.86623e-21
1.01064e-05 -1.46695e-06 1.65592e-20
1.01309e-05 1.6416e-06 -2.82965e-20
9.61022e-06 -3.18753e-06 2.5203e-20
9.63422e-06 3.36346e-06 -2.75687e-20
2.60872e-05 3.20979e-05 -1.52367e-21
3.22402e-05 2.61135e-05 -1.95576e-21
7.99999e-06 4.38257e-06 -1.69683e-20
7.94726e-06 -4.28446e-06 9.05275e-21
2.78469e-06 -1.63465e-05 -1.8926e-20
2.89834e-06 1.6349e-05 -2.95714e-21
7.15984e-06 3.20515e-06 3.7759e-21
7.30983e-06 -2.83256e-06 -3.17088e-20
1.11793e-05 -1.0577e-05 8.3253e-21
1.10738e-05 1.06088e-05 -1.98352e-20
-6.60966e-06 -1.5232e-06 5.24522e-20
-7.04999e-06 1.70585e-06 -1.42845e-20
1.03647e-05 1.99873e-05 -8.73498e-21
1.53058e-05 1.54151e-05 -7.46121e-21
1.04641e-05 -2.00395e-05 1.27386e-21
1.54378e-05 -1.54372e-05 4.73149e-21
1.10517e-05 -2.07193e-05 -1.74248e-20
-2.33926e-05 -3.2431e-07 3.18924e-20
-2.33326e-05 4.35645e-07 -9.87239e-21
1.12813e-05 2.08022e-05 3.63966e-22
1.85802e-05 -7.69647e-06 -1.39669e-20
4.85708e-05 -6.39437e-06 -1.03733e-20
4.91082e-05 6.46516e-06 1.81994e-22
1.90405e-05 7.88679e-06 -7.00638e-21
2.40221e-05 5.52339e-07 -1.96083e-20
1.63445e-05 -4.5314e-06 -2.82974e-20
2.25575e-05 7.33554e-06 -1.03729e-20
2.44247e-05 -2.7536e-07 6.82433e-22
2.2893e-05 -7.37077e-06 1.00092e-20
1.65125e-05 4.96367e-06 4.82236e-21
1.74709e-05 -6.78046e-06 1.37393e-20
1.76858e-05 -6.71368e-06 1.07823e-20
1.7277e-05 6.89553e-06 -2.20191e-20
1.74917e-05 6.82888e-06 -1.61962e-20
-3.82833e-06 -1.0805e-05 8.37008e-21
-1.56341e-06 9.11173e-06 -2.94333e-20
1.51352e-06 -9.1289e-06 4.54918e-21
-8.18742e-06 -1.5196e-06 5.03576e-20
-1.02126e-05 -2.63428e-06 4.84461e-20
-1.80048e-06 1.18689e-05 -2.68406e-20
1.75254e-06 -1.19088e-05 4.54927e-21
-1.09625e-05 2.74425e-06 3.63916e-20
-3.52532e-06 5.55599e-06 3.0616e-20
-5.94149e-06 -1.32165e-05 1.028e-20
-5.74805e-06 1.39938e-05 -8.4605e-21
1.37529e-05 -5.95836e-06 -1.75123e-20
7.70767e-06 7.98744e-06 -7.87034e-21
-7.80923e-06 -7.98167e-06 -5.5957e-21
-3.8085e-06 -7.63153e-06 7.59685e-21
-1.22836e-06 -7.33007e-06 1.8424e-20
8.76098e-07 1.21402e-05 -2.08356e-20
-9.36399e-07 -1.21817e-05 -1.00084e-21
8.58018e-06 1.26641e-06 -4.47626e-20
-4.5757e-06 -1.58684e-05 9.55252e-22
-4.60612e-06 1.6187e-05 -2.02421e-20
1.62879e-05 -4.32563e-06 -2.87028e-20
-7.11146e-06 -7.1762e-06 7.82416e-21
-1.12221e-05 2.62991e-06 3.11597e-20
-8.10336e-06 -7.2282e-06 1.32832e-20
4.15031e-06 1.06545e-05 -3.65736e-20
-7.7571e-06 1.46534e-06 3.12973e-20
-1.18616e-05 -2.41851e-05 1.79214e-20
-6.77731e-06 -3.4214e-06 5.42259e-20
2.42337e-05 -1.19145e-05 -1.06891e-20
-3.99051e-07 1.13244e-05 -2.8388e-20
3.44899e-07 -1.1362e-05 1.77426e-21
-2.5613e-05 1.23902e-05 -7.68887e-21
-2.5549e-05 -1.28557e-05 8.05282e-21
-1.63811e-05 5.33916e-06 2.92485e-20
-5.98426e-06 -4.72117e-06 2.68396e-20
-1.08922e-05 5.24364e-06 -1.5013e-21
-1.04473e-05 -5.13505e-06 4.54482e-20
-1.77027e-06 -3.64255e-06 5.97305e-20
6.39234e-06 7.66569e-06 -3.6437e-20
-1.05687e-05 6.97488e-06 2.45641e-20
-3.20703e-06 9.26468e-08 3.88495e-20
-6.95065e-06 7.39735e-06 2.31995e-21
-3.86727e-06 1.07083e-05 -7.96066e-21
1.20083e-06 7.3761e-06 -2.80228e-20
-1.06978e-05 6.9636e-06 2.61102e-20
-2.55328e-05 -2.55328e-05 1.15073e-20
2.58504e-05 -2.58507e-05 -1.11435e-21
2.30004e-06 5.94005e-06 8.59802e-21
2.59444e-05 -2.74599e-05 -4.09353e-22
-2.7855e-05 -2.56449e-05 1.31219e-20
1.33199e-05 -2.56232e-06 -1.26017e-20
1.32924e-05 2.57786e-06 -3.594e-20
6.11338e-06 2.15532e-06 -4.91306e-20
1.24825e-05 -8.45463e-06 -9.28064e-21
1.24541e-05 8.47683e-06 -3.84874e-20
3.90901e-06 7.63022e-06 -3.48001e-20
-1.08383e-05 2.00308e-05 -1.31937e-21
-1.08523e-05 -1.98935e-05 2.99814e-20
9.17128e-06 -5.33979e-06 -1.27833e-20
9.14747e-06 5.34195e-06 -4.11704e-20
-1.43717e-05 6.29427e-06 1.61477e-20
1.21038e-05 -1.8807e-05 9.6449e-21
-1.22456e-05 1.88228e-05 -1.55592e-20
6.35154e-06 -7.54713e-06 -1.82413e-20
-1.24722e-05 2.34454e-05 -3.2522e-21
-2.42502e-05 1.28388e-05 8.23282e-21
9.379e-07 7.32016e-06 -3.03881e-20
-1.05471e-06 -7.28938e-06 6.73268e-21
2.61337e-05 -1.08252e-05 -6.82435e-21
2.61362e-05 1.08262e-05 -2.72975e-22
1.401e-06 -2.46231e-06 2.50658e-20
8.63747e-06 4.85199e-06 -4.00778e-20
8.66132e-06 -4.69383e-06 -2.25181e-20
-5.25863e-06 -3.57869e-06 5.49539e-20
-2.28562e-06 -5.82487e-06 5.3681e-21
-1.51577e-05 -3.14078e-06 3.60941e-20
1.0627e-05 2.36425e-06 -4.6627e-20
-1.31638e-05 -1.8739e-06 4.97872e-20
-9.76545e-06 -8.14131e-06 4.42646e-20
-1.12523e-05 -1.94891e-05 4.64071e-21
-1.1286e-05 1.95476e-05 -4.77721e-21
-1.16664e-05 -1.28203e-05 2.04694e-20
-8.5409e-06 4.97961e-06 1.64218e-20
8.42912e-06 -4.50686e-06 -2.87502e-20
2.031e-06 -2.12574e-05 4.45856e-21
-2.08465e-06 2.12946e-05 -1.17377e-20
-1.00658e-05 8.94922e-06 1.05999e-20
7.29117e-07 9.62735e-06 -2.03349e-20
-7.48114e-07 -9.70839e-06 7.73359e-22
6.19236e-06 -2.20522e-06 -3.60294e-20
5.98002e-06 2.07141e-06 -5.00863e-20
1.3884e-05 1.06545e-05 -4.51237e-20
7.55499e-06 -7.13059e-06 -1.86519e-20
7.47853e-06 7.19813e-06 -4.5174e-20
8.31565e-06 4.56278e-06 -4.00775e-20
3.93746e-06 -1.06555e-05 -7.27834e-21
5.63027e-06 -5.11586e-06 -2.37014e-20
5.43951e-06 5.03701e-06 -4.67205e-20
-8.94304e-06 4.06675e-06 2.52474e-20
4.74119e-06 3.59569e-06 -3.0434e-20
-1.07282e-05 -7.35839e-06 3.18424e-20
-3.85788e-06 9.33853e-07 6.40522e-20
-1.44988e-06 2.38178e-06 -2.41563e-20
1.11952e-05 -1.96723e-06 -3.32522e-20
-8.79542e-06 5.23013e-06 1.6286e-20
-9.25135e-06 -4.26026e-06 5.00398e-20
-7.18551e-06 -8.70419e-06 1.46473e-20
-8.24043e-06 -5.39815e-06 2.91134e-20
-1.8291e-07 -1.00019e-05 5.36793e-21
8.6846e-08 9.96092e-06 -3.17527e-20
1.3691e-05 5.92192e-06 -3.99601e-20
-5.26205e-06 3.55456e-06 -4.18524e-21
6.88017e-06 -1.08831e-05 -2.02425e-20
6.77948e-06 1.08773e-05 -4.13037e-20
-8.5265e-06 4.9805e-06 2.00159e-20
-3.49808e-06 5.52924e-06 2.18818e-20
-3.58631e-06 -5.89405e-06 6.17785e-20
-2.19208e-06 -1.01091e-05 3.41165e-21
-7.99608e-06 7.53866e-06 1.00079e-20
1.02401e-06 -1.4052e-05 -6.80032e-21
1.86876e-06 1.43042e-05 -2.75652e-20
1.45008e-05 8.17858e-07 -3.48658e-20
1.4436e-05 -1.04556e-05 -1.90593e-20
9.59472e-06 6.61053e-06 -4.28045e-20
-1.45822e-05 2.52583e-05 -3.36672e-21
1.45686e-05 -2.52339e-05 5.36862e-21
1.08192e-05 2.25472e-06 -4.46245e-20
1.67477e-06 5.80319e-06 -3.19802e-20
6.38187e-06 -2.34375e-06 -4.35806e-20
-2.06901e-06 1.01851e-05 -1.67853e-20
3.06656e-06 -6.0735e-06 1.43755e-20
-3.10846e-06 5.97776e-06 -2.24278e-20
4.83033e-06 -3.63651e-06 5.91393e-21
3.51937e-06 -7.91502e-07 -3.24359e-20
-1.72308e-06 -5.5482e-06 2.20175e-20
2.93722e-06 1.20712e-07 -4.26715e-20
9.58022e-06 -6.9374e-06 -2.24712e-20
-3.72858e-06 -1.03973e-06 -6.64178e-21
9.61666e-06 -7.32124e-06 -2.67476e-20
-1.1183e-05 1.36379e-05 5.18555e-21
-5.94113e-06 4.50727e-06 3.9577e-21
3.79678e-06 -1.56314e-05 -1.11673e-20
3.95165e-06 1.54233e-05 -3.52305e-20
1.6079e-05 4.03428e-06 -4.10756e-20
9.64379e-06 7.39036e-06 -4.07127e-20
1.72996e-08 1.13573e-05 -3.0251e-20
-1.12889e-07 -1.14079e-05 4.18511e-21
7.63457e-06 -1.36815e-05 -1.72395e-20
7.61411e-06 1.40245e-05 -4.02104e-20
9.93675e-07 -3.07894e-06 -3.71216e-20
1.067e-06 3.04124e-06 -4.84492e-20
5.52459e-06 4.11908e-06 -3.01607e-20
3.76422e-06 5.41697e-06 1.71049e-20
-8.26447e-06 -4.89262e-06 3.88042e-20
-1.6247e-05 -1.24912e-05 2.70415e-20
2.00918e-06 1.05539e-05 -3.59363e-20
1.03533e-05 5.31524e-06 -4.13075e-20
1.03851e-05 -5.30365e-06 -1.19191e-20
8.91795e-06 5.81786e-06 -3.52096e-20
8.65184e-06 -4.8039e-06 -1.61041e-20
8.64081e-06 4.81476e-06 -3.73943e-20
-4.15571e-06 -4.69095e-05 9.89248e-21
4.65725e-05 -7.06847e-06 -1.38266e-20
2.02413e-06 -1.03826e-05 -3.77557e-21
1.66385e-05 -1.51506e-05 -1.2693e-20
1.66175e-05 1.51998e-05 -2.49311e-20
-2.02083e-05 -1.19671e-06 2.42896e-20
-6.69128e-07 8.92488e-06 -5.41344e-21
5.84715e-07 -9.06021e-06 7.41507e-21
-7.35606e-06 1.07235e-05 9.32512e-21
3.25159e-06 9.98092e-07 1.08726e-20
-1.42383e-06 -2.79174e-06 4.83572e-20
-7.95933e-06 6.2951e-06 -2.15184e-20
7.85433e-06 -6.38681e-06 9.64458e-21
5.49821e-06 -4.03222e-06 2.09261e-21
-6.07299e-06 -4.10164e-06 3.32995e-20
8.9332e-06 -5.78916e-06 -2.24268e-20
-1.05395e-05 -6.60781e-06 4.4715e-20
1.01613e-05 -2.53329e-06 -4.27604e-20
1.4622e-06 2.64619e-06 -2.74772e-20
-3.62913e-06 7.42088e-06 -1.68312e-21
-2.11744e-06 -1.03205e-05 3.73015e-21
7.88359e-06 4.92454e-06 -3.41182e-20
2.07784e-06 1.03869e-05 -3.42083e-20
-3.73664e-06 -5.31642e-06 9.73539e-21
-1.24674e-05 2.35127e-05 6.43605e-21
-2.28084e-05 1.29807e-05 4.59393e-21
8.58963e-06 -1.6112e-06 -3.89853e-20
7.90493e-06 -4.91167e-06 -1.69226e-20
2.71179e-05 -1.31937e-05 -1.08735e-20
2.71302e-05 1.32183e-05 -2.2748e-22
1.68252e-06 -5.89546e-06 6.86918e-21
-1.4835e-05 1.01321e-05 -1.07823e-20
-1.45426e-05 -1.03698e-05 3.21648e-20
-6.15996e-06 -2.69981e-06 5.14956e-20
-1.45544e-06 2.29741e-06 7.14212e-21
1.32111e-05 -1.63273e-05 -5.09431e-21
-1.5829e-05 -1.24714e-05 2.21739e-20
1.34633e-05 -1.93051e-05 -1.17808e-20
1.24216e-05 1.82171e-05 -3.1749e-20
1.99714e-05 1.16295e-05 -3.61383e-20
1.23732e-06 -2.29177e-06 1.60132e-20
-6.10154e-07 -2.07656e-05 6.29965e-21
2.1186e-05 -1.38992e-06 -1.84669e-20
1.15343e-05 1.58194e-05 -1.31478e-20
-1.16285e-05 -1.57984e-05 -4.36745e-21
-7.17834e-06 -5.67741e-06 4.87675e-20
-3.09541e-06 2.27566e-07 5.32248e-20
7.30472e-06 1.13823e-05 -4.03475e-20
7.40218e-06 -1.13218e-05 -1.66485e-20
-7.03091e-06 2.05361e-06 4.36258e-20
3.71988e-06 -7.48558e-06 4.04865e-21
1.13258e-05 -8.88982e-06 -1.1783e-20
1.12841e-05 8.91458e-06 -3.56219e-20
-8.65004e-06 -4.54779e-06 4.36722e-20
-6.04427e-06 4.02383e-06 5.45892e-22
-6.93917e-06 -3.23041e-06 5.18146e-20
-1.30926e-05 -7.17461e-06 3.34331e-20
-1.76012e-06 5.94309e-06 3.27534e-21
-2.67345e-05 2.67345e-05 8.30061e-21
-1.94171e-06 1.05201e-05 -2.16531e-20
1.87858e-06 -1.07063e-05 3.04781e-21
2.03218e-06 -2.12552e-05 6.09625e-21
-2.09677e-06 2.12786e-05 -2.07454e-20
2.97336e-06 -5.67545e-06 -2.57943e-20
2.95021e-06 5.47517e-06 -4.5993e-20
-1.02852e-05 5.41658e-06 1.81971e-21
-1.0206e-05 -5.23324e-06 5.64563e-20
-1.80028e-05 -3.33978e-06 -1.66965e-20
-1.77537e-05 3.41336e-06 5.17729e-20
2.40878e-05 -1.33707e-05 -2.00179e-20
2.40759e-05 1.33968e-05 -1.06004e-20
6.48113e-06 3.46918e-07 2.91152e-21
6.37312e-06 -1.69348e-07 -2.82964e-20
9.27512e-06 -4.38272e-06 -2.73849e-20
-6.15154e-07 9.29616e-06 -8.05181e-21
7.9931e-06 5.98465e-06 -3.47542e-20
5.5e-07 -9.26279e-06 1.04174e-20
-1.46259e-05 1.00367e-05 2.1288e-20
9.21796e-06 4.41314e-06 -3.75292e-20
-1.10292e-06 -9.83887e-06 7.05102e-21
-6.51209e-06 -1.35054e-07 -1.82424e-20
-6.5448e-06 7.67277e-08 7.49712e-20
-6.8321e-06 5.92209e-06 2.12904e-20
1.18349e-05 2.0499e-05 -3.36678e-21
-1.18496e-05 -2.0525e-05 1.81983e-22
-2.25352e-06 -7.12349e-06 1.4148e-20
-8.69434e-06 -5.14524e-06 3.75758e-20
-1.22701e-06 -1.14667e-05 4.89967e-20
8.04156e-06 -5.91084e-06 -2.45645e-20
1.29904e-05 2.42406e-05 -3.09979e-20
2.33237e-05 1.14846e-05 -3.35108e-20
1.86428e-06 -7.0528e-06 -1.90161e-20
1.74458e-06 6.85662e-06 -4.79951e-20
-1.60563e-06 1.20265e-05 7.05154e-21
9.59616e-07 9.55364e-06 -3.57102e-20
1.12631e-05 -5.93443e-06 -2.7885e-20
9.45275e-06 -3.0802e-06 -8.14315e-21
9.43072e-06 3.08608e-06 -4.04883e-20
-2.34746e-05 -1.49396e-11 -1.77896e-20
-2.35088e-05 1.78147e-11 -2.50238e-21
1.74895e-06 -5.50971e-06 1.89245e-20
-8.88917e-06 -5.30556e-06 4.0805e-20
7.45081e-06 8.40487e-06 -4.15352e-20
7.52672e-06 -8.37832e-06 -1.292e-20
2.36135e-06 6.81786e-06 1.21008e-20
1.05454e-06 1.87542e-06 1.88334e-20
2.60432e-05 2.60432e-05 -1.28944e-20
-7.76105e-06 -2.67024e-06 -2.42933e-20
-7.74978e-06 2.50369e-06 7.13332e-20
-1.83422e-06 5.47711e-06 1.37838e-20
1.12557e-05 5.94418e-06 -4.23052e-20
-8.74887e-06 4.39724e-06 6.27789e-21
-1.13354e-05 1.45834e-06 -6.23253e-21
-1.13241e-05 -1.45849e-06 6.62377e-20
-6.82538e-06 3.25585e-06 2.60211e-20
3.43881e-06 -1.48788e-05 -1.38756e-20
3.36942e-06 1.49327e-05 -4.23092e-20
4.60539e-06 2.78412e-05 -7.37032e-21
-4.66536e-06 -2.78224e-05 1.27389e-21
-3.56777e-06 4.6943e-05 -7.95944e-21
-4.69921e-05 2.5911e-06 -1.36449e-22
7.08231e-06 9.80252e-07 -3.63028e-20
7.0412e-06 -9.97204e-07 -1.36477e-21
-8.14858e-07 -2.00372e-06 1.67411e-20
2.54852e-05 3.22175e-05 -2.15361e-20
3.17358e-05 2.51547e-05 -1.93985e-20
1.13963e-05 2.75125e-05 -3.00274e-21
1.13855e-05 -2.74865e-05 -5.687e-21
-8.22971e-06 4.83994e-06 5.59546e-21
7.02508e-06 -7.64736e-06 -1.8469e-20
7.56454e-06 4.05613e-06 -3.52106e-20
7.58203e-06 -4.05366e-06 -5.36803e-21
5.29483e-06 -5.34616e-06 -9.18914e-21
6.96071e-06 7.76556e-06 -3.40722e-20
-3.03895e-07 -2.11518e-05 -6.1406e-21
2.03391e-07 2.14758e-05 -2.23108e-20
2.25383e-05 -1.34652e-07 -2.63363e-20
5.29671e-06 5.35951e-06 -3.17981e-20
9.00667e-07 2.21581e-05 -1.38047e-20
-2.22882e-05 -2.83309e-06 3.17256e-21
1.01234e-05 -1.65077e-06 -6.05053e-21
1.01295e-05 1.56923e-06 -3.84868e-20
9.63937e-06 -3.30341e-06 -1.14187e-20
9.62561e-06 3.3162e-06 -4.11256e-20
-2.62865e-05 3.26596e-05 4.36634e-21
-3.22572e-05 2.62942e-05 1.50093e-21
7.95151e-06 4.33393e-06 -3.26174e-20
7.96605e-06 -4.32588e-06 -7.64256e-21
2.75369e-06 1.63307e-05 -1.46038e-20
-2.81368e-06 -1.63118e-05 1.27385e-21
7.40709e-06 2.99603e-06 -6.41453e-21
7.26902e-06 -2.96625e-06 -3.08443e-20
1.11346e-05 -1.06312e-05 -1.32386e-20
1.10908e-05 1.0671e-05 -4.01707e-20
-6.5734e-06 1.52876e-06 -3.59387e-21
-6.71565e-06 -1.59922e-06 5.9276e-20
1.03864e-05 2.01594e-05 -2.5932e-20
1.54033e-05 1.55171e-05 -1.30116e-20
1.04214e-05 -2.00799e-05 -8.46201e-21
1.53979e-05 -1.54749e-05 -8.87154e-21
-1.11218e-05 -2.07136e-05 -3.41212e-21
-2.33547e-05 -3.80998e-07 2.95721e-20
-2.33466e-05 3.25192e-07 -1.62874e-20
1.10305e-05 2.07069e-05 -4.777e-21
1.87964e-05 7.78598e-06 -3.09364e-21
4.89043e-05 6.43801e-06 -6.55151e-21
1.87772e-05 -7.77802e-06 -2.13825e-21
4.8909e-05 -6.43861e-06 4.54967e-21
2.42341e-05 -4.56422e-07 -1.20106e-20
1.64517e-05 4.69671e-06 -1.45581e-20
2.27411e-05 -7.37095e-06 -1.29206e-20
2.4218e-05 4.69093e-07 -1.00998e-20
1.64288e-05 -4.68858e-06 -2.12002e-20
2.27256e-05 7.38097e-06 -4.45853e-21
1.7396e-05 -6.87428e-06 -1.50585e-20
1.7608e-05 -6.80848e-06 -1.70606e-20
1.73742e-05 6.89576e-06 -2.73874e-20
1.75903e-05 6.82866e-06 -1.7925e-20
-3.97998e-06 -1.09755e-05 -3.55728e-20
-1.52021e-06 9.12608e-06 -3.19353e-20
1.59925e-06 -9.08218e-06 -1.80604e-20
-8.18005e-06 1.4987e-06 -4.80831e-20
-1.04369e-05 2.71501e-06 -5.16305e-20
-1.75998e-06 1.19147e-05 -3.09806e-20
1.83836e-06 -1.1863e-05 -1.46486e-20
-1.04444e-05 -2.69141e-06 -5.13577e-20
-3.5134e-06 -5.54341e-06 -6.65087e-20
-5.88758e-06 -1.32271e-05 -3.29779e-20
5.97808e-06 1.35572e-05 -1.78307e-20
1.37672e-05 6.2346e-06 1.14626e-20
-7.74074e-06 -7.96502e-06 -2.78875e-20
7.7473e-06 8.02139e-06 -2.82059e-21
-8.41123e-06 5.03287e-06 -4.66733e-20
-3.71919e-06 -7.55331e-06 -3.68471e-20
-1.25965e-06 -7.30735e-06 -3.11617e-20
-8.57127e-07 -1.21716e-05 -1.92433e-20
9.21833e-07 1.21745e-05 -2.01533e-20
8.53212e-06 1.28207e-06 -2.18355e-21
-4.53186e-06 -1.59235e-05 -2.86119e-20
4.28944e-06 1.61427e-05 -3.90285e-20
1.67186e-05 4.42195e-06 1.4829e-20
3.95813e-06 1.08257e-05 -1.26915e-20
-7.31502e-06 -7.35878e-06 -3.72558e-20
-7.69222e-06 -1.58303e-06 -5.48612e-20
-1.14588e-05 -2.37341e-05 -3.69573e-20
-6.81222e-06 3.44552e-06 -3.58927e-20
-3.44063e-07 1.13646e-05 -2.72963e-20
4.61338e-07 -1.13281e-05 -1.20558e-20
-2.56112e-05 -1.24115e-05 -8.87166e-21
-2.55511e-05 1.28595e-05 3.77618e-21
-5.50727e-06 7.42873e-06 -4.65365e-20
-6.63931e-06 7.85916e-06 -5.30404e-20
-1.52835e-05 4.92706e-06 -4.15755e-20
-1.09105e-05 -5.27861e-06 -3.10267e-20
-1.04402e-05 5.10727e-06 7.96141e-21
-1.77442e-06 3.66805e-06 -4.43543e-20
-3.19732e-06 -1.17652e-07 -6.24594e-20
-1.10103e-05 7.18946e-06 -5.36543e-20
-1.27107e-05 -2.00228e-06 -4.51248e-20
-1.15982e-05 2.33433e-06 -4.96961e-20
1.13745e-06 7.38399e-06 -9.78065e-21
-3.61775e-06 1.09113e-05 -5.38141e-20
6.61231e-06 7.7014e-06 -6.86884e-21
-2.56884e-05 -2.56883e-05 -1.64195e-20
-2.52938e-05 2.52936e-05 -3.25206e-21
2.321e-06 5.96527e-06 -5.27709e-21
3.82762e-06 7.66239e-06 -8.64312e-21
-2.53675e-05 2.75923e-05 -8.84648e-21
-2.67655e-05 -2.57403e-05 -3.06331e-20
1.32699e-05 -2.62268e-06 -2.03812e-20
1.33498e-05 2.43674e-06 1.59227e-20
6.22957e-06 2.13495e-06 -1.10999e-20
1.24437e-05 -8.43651e-06 -1.24197e-20
1.25027e-05 8.39778e-06 2.95708e-21
-1.0846e-05 -2.00482e-05 -4.12639e-20
-1.08519e-05 1.99001e-05 -7.09726e-21
9.17713e-06 -5.36304e-06 -1.62862e-20
9.15549e-06 5.264e-06 9.05293e-21
-1.21289e-05 1.8825e-05 -3.3348e-20
1.23749e-05 -1.88667e-05 -5.55033e-21
6.33673e-06 -7.56526e-06 -4.08951e-20
1.24294e-05 2.34885e-05 -1.55787e-20
2.35943e-05 1.24334e-05 6.07229e-21
9.6202e-07 7.34708e-06 -2.46562e-20
-9.72559e-07 -7.24011e-06 -2.73402e-20
2.59489e-05 -1.07484e-05 -5.18653e-21
2.62607e-05 1.08773e-05 3.0938e-21
-1.05152e-05 -7.30294e-06 -3.75286e-20
1.40334e-06 -2.32348e-06 -2.86145e-20
8.65257e-06 4.70789e-06 -8.3704e-21
8.6771e-06 -4.73755e-06 -7.59703e-21
-5.33608e-06 -3.6143e-06 -3.89865e-20
-2.20621e-06 -5.80394e-06 -3.67125e-20
-9.74967e-06 8.15165e-06 -2.63857e-21
-1.47409e-05 -3.33484e-06 -3.72542e-20
-1.12546e-05 1.94929e-05 9.0994e-22
-1.12949e-05 -1.95634e-05 -1.57873e-20
-8.33051e-06 -5.13875e-06 -4.70366e-20
8.34501e-06 4.44691e-06 3.63913e-22
-1.17953e-05 -1.28188e-05 -3.16139e-20
2.12848e-06 -2.13592e-05 -6.27829e-21
-2.04175e-06 2.1279e-05 -3.08918e-20
-1.00908e-05 -8.9539e-06 -4.37186e-20
7.74676e-07 9.69461e-06 -3.84861e-20
-6.67882e-07 -9.68558e-06 -2.43837e-20
6.10936e-06 2.05373e-06 -1.90155e-20
6.23633e-06 -2.2721e-06 -1.14639e-20
1.39273e-05 -1.04642e-05 -2.43814e-20
1.04821e-05 2.2609e-06 5.36777e-21
7.58218e-06 -7.13028e-06 -6.27797e-21
7.52762e-06 7.09941e-06 -2.19729e-20
8.50001e-06 -4.59348e-06 -5.91382e-21
3.96904e-06 -1.0614e-05 -4.53078e-20
5.68886e-06 -5.14307e-06 -7.41523e-21
5.51146e-06 4.97332e-06 -1.68321e-20
-9.01411e-06 -4.04191e-06 -4.97669e-20
-9.44677e-06 7.43373e-06 -5.72239e-20
4.63901e-06 3.57235e-06 9.91714e-21
-3.96961e-06 9.77788e-07 -3.28909e-20
-1.47359e-06 2.47164e-06 -7.82454e-21
1.12262e-05 1.86825e-06 1.31462e-20
-1.58308e-05 1.54127e-05 -3.40235e-20
-8.81485e-06 -5.26885e-06 -4.54004e-20
-9.07496e-06 4.31324e-06 -3.8758e-20
-2.15196e-05 3.52078e-06 -3.12717e-20
-8.41695e-06 5.13924e-06 -5.29956e-20
-1.23069e-07 -9.96845e-06 -2.34733e-20
1.83388e-07 1.00017e-05 -4.57185e-20
-7.45555e-06 -8.85333e-06 -3.3343e-20
1.37537e-05 -5.92931e-06 -1.9673e-20
-5.27118e-06 3.91082e-06 -2.27458e-20
6.84217e-06 -1.07431e-05 -3.29793e-20
-7.18607e-06 1.15832e-05 -6.42298e-20
-8.64868e-06 -5.11403e-06 -4.99489e-20
-3.50316e-06 -5.53336e-06 -7.48344e-20
-3.58062e-06 5.90735e-06 -3.40736e-20
-2.14179e-06 -1.01792e-05 -2.74752e-20
1.9922e-06 1.04189e-05 -3.4526e-20
1.23759e-06 -1.40406e-05 -2.67237e-20
-1.85005e-06 1.44564e-05 -4.55326e-20
1.46488e-05 -1.59337e-06 3.79817e-21
9.75098e-06 -6.52358e-06 -2.50641e-20
1.46182e-05 -2.53202e-05 7.27931e-22
-1.45814e-05 2.52564e-05 -2.98012e-20
-1.0336e-05 -6.23033e-06 -3.66182e-20
1.08603e-05 -2.40215e-06 -5.45865e-21
-1.63818e-05 -1.29832e-05 -3.54792e-20
1.61098e-06 5.83741e-06 -3.09337e-21
6.38768e-06 -2.38482e-06 -7.05115e-21
3.05804e-06 -5.91105e-06 -2.15634e-20
-3.1348e-06 6.07338e-06 -1.11001e-20
9.70462e-06 1.36767e-05 -7.09605e-21
1.44325e-05 9.71358e-06 4.23034e-21
4.88442e-06 -3.6837e-06 -3.86681e-20
-2.06477e-05 -9.34481e-07 -3.25454e-20
3.40954e-06 -8.53634e-07 7.36961e-21
-1.64977e-06 -5.93738e-06 -3.87584e-20
2.97044e-06 7.6375e-08 -1.56948e-20
-3.45319e-06 -9.03342e-07 -2.11536e-20
-7.86124e-06 -7.48302e-06 -4.42166e-20
3.84279e-06 -1.55246e-05 -3.11594e-20
-3.67691e-06 1.5497e-05 -5.43354e-20
1.587e-05 -4.1694e-06 -8.09684e-21
9.78661e-06 -7.51258e-06 -2.82033e-20
1.16921e-07 1.13383e-05 -5.40878e-20
-5.23759e-08 -1.13879e-05 -2.37005e-20
7.81003e-06 -1.40692e-05 -2.70192e-20
-7.41819e-06 1.48106e-05 -4.96716e-20
1.09596e-06 2.9188e-06 -1.66956e-20
1.04698e-06 -3.09644e-06 -1.52854e-20
5.52439e-06 4.16466e-06 5.004e-21
3.79311e-06 5.45288e-06 3.32093e-21
-8.11692e-06 4.96155e-06 -3.09796e-20
1.03974e-05 5.23325e-06 -1.77421e-21
1.03749e-05 -5.32781e-06 -8.18872e-21
8.66844e-06 -4.83783e-06 -1.53308e-20
8.64988e-06 4.74029e-06 5.86841e-21
-4.98308e-06 -4.63926e-05 -2.1786e-20
6.83788e-06 1.06805e-05 -8.41537e-21
-4.77899e-05 5.59823e-06 -1.88753e-20
-6.08529e-06 -4.51988e-06 -4.74015e-20
2.09389e-06 -1.03465e-05 -3.47536e-20
-1.80165e-06 1.06646e-05 -6.34113e-20
1.6547e-05 -1.50494e-05 -8.644e-21
1.67048e-05 1.51484e-05 -3.68509e-21
8.97436e-06 5.78155e-06 4.82197e-21
1.0502e-05 -2.61142e-06 2.09252e-21
9.7566e-06 6.77618e-06 7.64202e-21
-6.24872e-07 8.99216e-06 -3.58471e-20
6.48218e-07 -9.0455e-06 -3.63475e-20
3.32346e-06 8.9868e-07 -3.66213e-20
8.9581e-06 -5.82517e-06 -2.44739e-20
-1.61136e-06 -2.67722e-06 -3.04341e-20
-7.87205e-06 6.38338e-06 -2.24283e-20
8.054e-06 -6.23789e-06 -1.54222e-20
5.53276e-06 -4.06783e-06 -4.30803e-20
-6.17554e-06 -4.18228e-06 -4.20795e-20
1.268e-06 2.72002e-06 8.18843e-22
2.03596e-06 1.02981e-05 -4.367e-20
-2.10899e-06 -1.02722e-05 -2.49283e-20
7.89371e-06 4.84985e-06 1.36018e-20
9.80013e-06 7.41497e-06 -1.31918e-21
-3.45729e-06 7.5177e-06 -4.63545e-20
-3.62815e-06 -5.30568e-06 -4.23081e-20
1.25157e-05 2.2692e-05 -8.41463e-21
2.30268e-05 1.24864e-05 -1.79664e-21
-1.4323e-05 1.07148e-05 -4.90806e-20
7.92834e-06 -4.94464e-06 -2.49745e-20
8.61633e-06 -1.58595e-06 -3.13884e-21
2.72236e-05 1.31958e-05 -2.22932e-21
2.69334e-05 -1.31176e-05 -2.00183e-21
1.74669e-06 -5.91658e-06 -4.77658e-20
-1.48439e-05 -1.01555e-05 -1.42397e-20
-1.45636e-05 1.03779e-05 7.05169e-21
-6.10913e-06 2.62371e-06 -5.06767e-20
-1.5392e-06 2.30511e-06 -1.49211e-20
-1.20535e-05 1.60798e-05 -2.86782e-20
-1.51302e-05 -1.2933e-05 -3.65245e-20
1.29586e-05 -1.85592e-05 -2.20833e-20
-1.17852e-05 1.92451e-05 -3.28636e-20
1.94156e-05 -1.13194e-05 -1.77622e-20
-1.32371e-05 -7.16783e-06 -3.2023e-20
1.35465e-06 -2.31695e-06 -3.97146e-20
-1.58674e-06 -2.07617e-05 -2.98609e-20
-1.96534e-05 1.76022e-07 -2.72909e-20
1.15694e-05 1.58441e-05 6.7787e-21
-1.15728e-05 -1.58079e-05 -2.44758e-20
-7.09481e-06 5.62324e-06 -1.58312e-20
-3.10771e-06 -2.25959e-07 -6.51888e-20
-7.02452e-06 1.14625e-05 -5.49488e-20
7.42883e-06 -1.12378e-05 -3.38428e-20
-7.04987e-06 -2.09333e-06 -5.77279e-20
3.75404e-06 -7.48314e-06 -4.90387e-20
1.13004e-05 -8.8666e-06 -9.55378e-21
1.13446e-05 8.83165e-06 -4.95886e-21
-8.69475e-06 4.57242e-06 -2.10172e-20
-5.40161e-06 3.97221e-06 -3.03879e-20
-6.97523e-06 3.25318e-06 -2.92054e-20
-1.59281e-06 6.47951e-06 -3.32083e-20
2.65803e-05 2.65804e-05 6.36759e-22
1.94152e-06 -1.06854e-05 -3.23887e-20
-1.80305e-06 1.06619e-05 -6.06832e-20
-2.03613e-06 2.12857e-05 -1.747e-20
2.1642e-06 -2.13125e-05 -1.11006e-20
3.03785e-06 -5.69725e-06 -1.78786e-20
3.00986e-06 5.41358e-06 -1.66503e-20
-1.03477e-05 -5.43892e-06 -3.17083e-20
-1.01263e-05 5.23503e-06 -2.22913e-21
-1.80039e-05 3.28296e-06 -9.91776e-21
-1.77656e-05 -3.36604e-06 6.27825e-21
2.39068e-05 -1.32944e-05 -7.37025e-21
2.42415e-05 1.33702e-05 1.80148e-28
6.52261e-06 2.53649e-07 -3.02981e-20
6.20684e-06 -2.43898e-07 1.21009e-20
9.29764e-06 4.30084e-06 6.7325e-21
-5.6125e-07 9.41619e-06 -4.87658e-20
6.14298e-07 -9.24347e-06 -4.24884e-20
9.23942e-06 -4.47716e-06 -1.3465e-20
-1.02011e-06 -9.75535e-06 -3.1525e-20
1.00064e-06 9.679e-06 -2.63845e-20
8.03841e-06 5.95832e-06 6.82349e-22
-6.54955e-06 1.78081e-08 -2.58853e-20
-6.61356e-06 -8.4395e-08 -1.1646e-20
8.03245e-06 -5.98674e-06 -3.02962e-20
-6.89823e-06 -5.96521e-06 -4.84947e-20
1.18506e-05 2.05267e-05 -6.82471e-22
-1.18524e-05 -2.05296e-05 -7.91617e-21
-2.17368e-06 -7.11995e-06 -4.33084e-20
-8.65877e-06 5.07195e-06 -2.67943e-20
-1.22482e-06 1.14718e-05 -1.03271e-20
1.35145e-05 -2.38383e-05 -1.30996e-20
2.34618e-05 -1.11652e-05 -1.3202e-20
1.95479e-06 -7.04211e-06 -1.31475e-20
1.7877e-06 6.85127e-06 -2.16091e-20
-1.60815e-06 -1.20394e-05 -6.02334e-20
1.13454e-05 5.91012e-06 1.11448e-20
9.4545e-06 -3.136e-06 -2.58398e-20
9.44049e-06 2.99491e-06 2.48387e-20
-2.34683e-05 -9.81258e-11 3.32118e-21
-2.35103e-05 -7.73158e-11 4.54978e-22
1.81652e-06 -5.51109e-06 -4.77207e-20
-8.69578e-06 5.10072e-06 -4.43533e-20
7.49754e-06 8.32385e-06 -1.85612e-20
7.55473e-06 -8.36141e-06 -5.77763e-21
2.39402e-06 6.88362e-06 -2.1836e-20
1.22842e-06 1.98025e-06 -1.0554e-20
2.58016e-05 -2.58015e-05 -1.61465e-21
-7.9009e-06 2.62244e-06 -2.43389e-20
-7.75322e-06 -2.45558e-06 1.36487e-22
-1.76076e-06 5.62093e-06 -2.3337e-20
1.10917e-05 -5.979e-06 -1.67401e-20
-8.75807e-06 -4.38706e-06 -4.3081e-20
-1.14712e-05 -1.20645e-06 -3.03893e-20
-1.12705e-05 1.87562e-06 -5.50462e-21
-6.84578e-06 -3.22078e-06 -5.44987e-20
3.40231e-06 1.48767e-05 -1.9062e-20
3.51113e-06 -1.47775e-05 -1.18739e-20
4.64562e-06 2.78438e-05 -6.09652e-21
-4.59026e-06 -2.7906e-05 -1.28753e-20
2.12949e-06 4.60397e-05 -3.70686e-21
4.64243e-05 3.19685e-06 1.20529e-21
7.06791e-06 -1.07708e-06 -3.48926e-20
7.04724e-06 8.81474e-07 2.19726e-20
-7.33598e-07 -2.02384e-06 -4.54011e-20
2.51684e-05 -3.13876e-05 -3.87742e-21
3.06165e-05 -2.5059e-05 -2.4106e-21
1.1415e-05 2.75572e-05 -3.45767e-21
1.13123e-05 -2.73093e-05 3.63968e-21
-8.23948e-06 -4.83438e-06 -4.60829e-20
7.04773e-06 -7.67085e-06 -3.83938e-20
7.60273e-06 -4.09959e-06 -3.17533e-20
7.53415e-06 3.98607e-06 2.53388e-20
5.32819e-06 -5.38908e-06 -4.10783e-20
6.97503e-06 7.7649e-06 2.00157e-21
-5.59387e-07 2.03791e-05 -3.49331e-20
-2.67871e-07 -2.2146e-05 -2.93157e-20
2.11618e-05 -6.96887e-07 -3.27497e-21
5.30068e-06 5.31239e-06 8.87067e-21
-2.22683e-06 2.25294e-05 -2.22649e-20
2.22691e-05 -1.64853e-06 4.45753e-21
1.01147e-05 -1.72313e-06 -3.22999e-20
1.01019e-05 1.47197e-06 2.34741e-20
9.63695e-06 -3.35421e-06 -2.5931e-20
9.60619e-06 3.19054e-06 2.2064e-20
2.60709e-05 3.20787e-05 -4.25264e-21
3.22328e-05 2.60965e-05 -1.40996e-21
7.95821e-06 4.29041e-06 1.5467e-20
7.9888e-06 -4.37327e-06 -3.41641e-20
2.79746e-06 1.6355e-05 2.27476e-22
-2.72691e-06 -1.63231e-05 -1.62415e-20
7.43434e-06 2.86207e-06 -2.90247e-20
7.15484e-06 -3.20212e-06 1.84701e-20
1.11121e-05 -1.05822e-05 -4.9133e-21
1.11495e-05 1.06008e-05 -1.72875e-20
-6.6272e-06 -1.54999e-06 -3.85319e-20
-7.04518e-06 1.72395e-06 -1.82422e-20
-1.1065e-05 -2.07338e-05 -1.76975e-20
-2.3325e-05 -3.66447e-07 -1.81978e-21
-2.33435e-05 4.12663e-07 4.27659e-21
1.10658e-05 2.07293e-05 -2.41127e-21
1.04363e-05 2.0116e-05 -1.21016e-20
1.54508e-05 1.5476e-05 -1.04184e-20
1.04e-05 -1.99087e-05 -8.55301e-21
1.52986e-05 -1.53757e-05 -7.27921e-22
1.85945e-05 7.70241e-06 -1.05548e-20
1.90409e-05 -7.88697e-06 5.68699e-21
4.91429e-05 -6.46974e-06 8.37177e-21
4.85585e-05 6.39278e-06 -1.32851e-20
2.40322e-05 -5.40036e-07 -1.56503e-20
1.63596e-05 4.54035e-06 -2.36115e-20
2.44302e-05 2.82922e-07 7.37023e-21
1.65104e-05 -4.96118e-06 1.61504e-20
2.28977e-05 7.38204e-06 4.91363e-21
2.25671e-05 -7.32563e-06 -8.7351e-21
1.72914e-05 -6.87679e-06 -1.9335e-20
1.75045e-05 -6.81066e-06 -1.07368e-20
1.74698e-05 6.79507e-06 1.2329e-20
1.76833e-05 6.72871e-06 3.82157e-21
-1.4708e-06 9.07351e-06 2.38378e-20
1.06958e-06 -9.98899e-06 -4.68583e-20
-8.11305e-06 -1.58863e-06 -1.10542e-20
-1.01465e-05 -2.78782e-06 2.138e-21
-1.70455e-06 1.17918e-05 3.22999e-20
9.56961e-07 -1.12993e-05 -3.34382e-20
-1.08368e-05 2.60852e-06 1.04171e-20
-3.38086e-06 5.47044e-06 4.54913e-23
-5.72847e-06 1.40597e-05 2.09242e-21
-5.48249e-06 -1.37272e-05 -3.25235e-20
1.40382e-05 5.64873e-06 -3.14314e-20
8.01789e-06 -7.52443e-06 -2.87979e-20
7.68081e-06 7.94226e-06 8.67563e-20
-7.9166e-06 -5.3407e-06 -3.1207e-20
2.21712e-06 -1.10507e-05 -3.12086e-20
9.23659e-07 1.20496e-05 6.99678e-20
8.47315e-06 -1.99173e-06 -5.03585e-20
-3.77785e-06 -1.69507e-05 -4.43514e-20
-4.58025e-06 1.6265e-05 3.63939e-22
1.67482e-05 3.9033e-06 -3.6345e-20
-1.12303e-05 2.43529e-06 1.84229e-20
4.26315e-06 1.05943e-05 -2.72939e-21
5.3058e-06 -1.20601e-05 -7.0329e-20
-7.65471e-06 1.33309e-06 5.54984e-21
-1.15122e-05 -2.4957e-05 -2.69961e-20
-6.56696e-06 -3.4777e-06 -2.59758e-20
2.49228e-05 1.18345e-05 -1.72164e-20
-3.20081e-07 1.12539e-05 5.41832e-20
1.98256e-06 -1.09008e-05 -2.61595e-20
-2.55154e-05 1.24039e-05 1.79252e-20
-2.48446e-05 -1.28494e-05 -1.14648e-20
-1.64464e-05 5.17448e-06 1.35099e-20
-5.11704e-06 -7.55867e-06 -3.30719e-20
-9.99056e-06 -5.27472e-06 -2.91615e-20
-1.07782e-05 5.23498e-06 2.7842e-20
-1.67936e-06 -3.69354e-06 -2.36105e-20
6.58753e-06 7.49593e-06 -7.46025e-21
7.24449e-06 -9.47541e-06 -7.18296e-20
-1.05587e-05 6.9019e-06 2.93406e-20
-3.06026e-06 -3.25197e-08 -7.50614e-21
-6.79295e-06 -8.09636e-06 -3.34807e-20
-6.94799e-06 7.38099e-06 3.48902e-20
-2.99916e-06 -1.11955e-05 -4.13052e-20
-3.83756e-06 1.0721e-05 2.68388e-20
3.32006e-06 -8.96206e-06 -4.59486e-20
1.22825e-06 7.33246e-06 2.72948e-22
-1.07666e-05 6.88381e-06 3.59358e-20
-2.67986e-05 -2.67989e-05 3.18374e-22
2.6628e-05 2.66286e-05 -7.27732e-22
2.88509e-06 -5.58117e-06 -3.29827e-20
2.31348e-06 5.91005e-06 8.88919e-20
2.67358e-05 2.84616e-05 -1.00746e-20
-2.80292e-05 -2.68583e-05 -4.75303e-21
1.30808e-05 2.27785e-06 -1.25563e-20
1.05842e-05 -5.66274e-06 -4.42213e-20
6.04656e-06 -2.86614e-06 -4.96311e-20
1.22604e-05 8.0503e-06 -2.03813e-20
1.00717e-05 -9.26949e-06 -4.80424e-20
4.02125e-06 7.56033e-06 9.09804e-22
5.09101e-06 -9.3681e-06 -6.18688e-20
-1.04265e-05 -1.99088e-05 -1.33755e-20
-1.07189e-05 2.01159e-05 9.1e-23
9.05595e-06 4.96032e-06 -2.88877e-20
8.31408e-06 -6.95672e-06 -6.00059e-20
-1.45101e-05 6.09485e-06 1.10078e-20
-1.19748e-05 1.86216e-05 1.34666e-20
-5.4812e-06 -1.53021e-05 -1.47863e-20
-1.288e-05 2.41119e-05 -1.77848e-20
-2.45087e-05 1.27188e-05 -4.77585e-22
1.02147e-06 7.28845e-06 8.7798e-21
2.69027e-06 -8.82806e-06 -4.92687e-20
2.56255e-05 1.06149e-05 -9.9187e-21
2.03019e-05 -8.40879e-06 -6.00569e-21
8.60843e-06 4.20525e-06 -3.28449e-20
8.14232e-06 -5.76658e-06 -6.30976e-20
-1.51994e-05 -3.46898e-06 1.24636e-20
1.07829e-05 -3.23056e-06 -4.37615e-20
-1.29695e-05 -2.05221e-06 7.68758e-21
-9.32621e-06 -8.20349e-06 -3.27093e-20
-1.12703e-05 1.95197e-05 8.5986e-21
-1.11001e-05 -1.92258e-05 -6.09637e-21
-1.14468e-05 -1.33012e-05 -2.11065e-20
-8.52485e-06 4.90074e-06 3.24798e-20
8.44557e-06 4.07414e-06 -3.0024e-20
1.27986e-07 -1.66665e-05 -9.78165e-21
-2.00434e-06 2.10472e-05 1.84714e-20
-9.9568e-06 8.91833e-06 1.76058e-20
2.14582e-06 -9.83225e-06 -4.42193e-20
7.80096e-07 9.59489e-06 5.68649e-20
6.12906e-06 1.63312e-06 -3.45737e-20
5.63833e-06 -2.60932e-06 -5.31346e-20
1.45928e-05 -1.1995e-05 -5.89528e-20
7.39897e-06 6.56642e-06 -2.12451e-20
6.52221e-06 -7.52803e-06 -5.43643e-20
8.16837e-06 -5.79001e-06 -5.72737e-20
5.55005e-06 4.63102e-06 -3.13895e-20
5.03011e-06 -5.94664e-06 -5.84578e-20
-8.86226e-06 3.98192e-06 1.06904e-20
4.64432e-06 3.42813e-06 -1.31926e-20
5.60354e-06 -6.52139e-06 -4.54941e-20
-1.06384e-05 -7.52596e-06 -1.17363e-20
1.61095e-06 -5.74194e-06 -3.73964e-20
-1.38505e-06 2.40853e-06 -6.77825e-21
1.13591e-05 1.40757e-06 -3.54359e-20
-8.72457e-06 5.16842e-06 2.62485e-20
-9.02751e-06 -4.44854e-06 -2.24271e-20
-6.84203e-06 -9.18428e-06 -2.29719e-20
-7.93123e-06 -5.73108e-06 -2.11529e-20
1.45881e-06 -1.01891e-05 -5.06328e-20
1.64062e-07 9.91484e-06 2.97512e-20
1.43795e-05 -6.76691e-06 -4.81938e-20
-5.22146e-06 3.54513e-06 4.99042e-20
-4.82216e-06 -4.13597e-06 -3.34823e-20
7.58039e-06 -1.2262e-05 -7.11914e-20
6.96485e-06 1.06413e-05 -1.13722e-20
-8.44127e-06 4.90544e-06 2.2427e-20
-3.32296e-06 5.41354e-06 -5.82305e-21
-3.29551e-06 -5.69727e-06 -2.65222e-20
-7.9675e-06 7.5188e-06 3.7666e-20
1.78607e-06 -1.50195e-05 -4.99457e-20
1.96674e-06 1.43614e-05 -2.11515e-20
1.48992e-05 -1.41849e-06 -4.01881e-20
1.47254e-05 1.01741e-05 -2.53821e-20
1.01432e-05 -7.79996e-06 -6.10921e-20
-1.18071e-05 -2.04514e-05 -2.45681e-21
-1.44263e-05 2.49872e-05 9.87306e-21
1.10447e-05 -3.08149e-06 -4.71269e-20
1.72538e-06 5.68261e-06 -5.82283e-21
3.57189e-06 -8.12595e-06 -5.71845e-20
6.32348e-06 1.77524e-06 -4.33077e-20
-1.34676e-06 -1.07325e-05 -4.73093e-20
-2.01213e-06 1.01899e-05 1.76951e-20
-3.04191e-06 6.00076e-06 -2.72949e-22
7.74581e-07 -7.5555e-06 -3.12551e-20
3.44232e-06 -8.88013e-07 -1.82421e-20
4.86264e-06 -3.86107e-06 -4.15821e-20
2.85936e-06 -5.35182e-07 -3.35727e-20
9.78465e-06 6.55103e-06 -2.188e-20
-3.06609e-06 6.94818e-07 -3.58028e-20
-3.6957e-06 -1.02587e-06 4.91763e-20
9.8274e-06 7.11594e-06 -1.40561e-20
-1.12621e-05 1.36973e-05 2.30167e-20
-5.90973e-06 4.48332e-06 3.77119e-20
4.89132e-06 -1.66877e-05 -5.96589e-20
4.15824e-06 1.55388e-05 -1.45334e-20
1.6645e-05 -4.97615e-06 -4.69213e-20
1.02216e-05 -9.04657e-06 -6.6006e-20
9.22157e-08 1.13571e-05 1.14636e-20
1.35749e-06 -1.22234e-05 -5.41803e-20
8.42278e-06 -1.53114e-05 -5.3357e-20
7.93759e-06 1.35946e-05 -2.76106e-20
1.02079e-06 2.49158e-06 -2.38832e-20
9.3689e-07 -3.53743e-06 -4.89493e-20
5.52856e-06 4.01892e-06 -1.00535e-20
6.25105e-06 -6.95394e-06 -5.54561e-20
3.90854e-06 -5.22519e-06 -3.57122e-20
3.75917e-06 5.39361e-06 8.89825e-20
-7.62343e-06 -5.24316e-06 -3.42097e-20
-1.61378e-05 -1.31766e-05 8.18763e-22
3.002e-06 -1.19517e-05 -6.36859e-20
2.14619e-06 1.04948e-05 -2.72926e-22
1.01814e-05 4.92682e-06 -3.03439e-20
8.53163e-06 -6.95196e-06 -5.52297e-20
8.9242e-06 -7.56955e-06 -6.44614e-20
8.58503e-06 4.47414e-06 -2.46111e-20
8.06216e-06 -6.6946e-06 -6.76478e-20
-4.97438e-06 -4.8622e-05 -6.11744e-21
4.8256e-05 7.00115e-06 -1.95576e-21
1.6314e-05 1.46938e-05 -4.73154e-21
1.2875e-05 -1.42364e-05 -3.76706e-20
8.96593e-06 5.50749e-06 -1.4466e-20
-2.02206e-05 -1.53629e-06 8.66516e-21
2.06307e-07 -8.85791e-06 -4.42639e-20
-6.28486e-07 8.88724e-06 5.28154e-20
-7.35525e-06 1.07221e-05 3.78919e-20
-7.76221e-06 6.30961e-06 1.75605e-20
-2.91344e-06 -7.79672e-06 -2.69787e-20
-1.05152e-05 -7.14551e-06 1.31916e-21
1.02859e-05 1.99509e-06 -4.01221e-20
1.32243e-06 2.65438e-06 -1.93793e-20
3.6276e-06 -5.92511e-06 -3.67145e-20
-2.89712e-06 -7.7186e-06 -4.49907e-20
-3.59748e-06 7.40726e-06 3.48455e-20
7.88461e-06 4.57546e-06 -1.56034e-20
7.93272e-06 -6.7133e-06 -6.66007e-20
2.19977e-06 1.03646e-05 3.82116e-21
3.25808e-06 -1.13283e-05 -5.70001e-20
-1.29624e-05 2.31807e-05 -8.73304e-21
-2.30981e-05 1.28577e-05 -3.02472e-21
8.61525e-06 1.01488e-06 -3.84851e-20
2.65414e-05 1.28204e-05 -1.17384e-20
2.17993e-05 -1.20127e-05 -8.2805e-21
-1.47395e-05 1.01463e-05 2.5386e-20
-1.40001e-05 -1.04e-05 -1.90621e-20
-5.9952e-06 -2.80937e-06 -1.37839e-20
-1.13867e-06 -2.53418e-06 -3.84867e-20
-1.43279e-06 2.29635e-06 6.05032e-20
1.32463e-05 1.65033e-05 -2.2174e-20
-1.55124e-05 -1.31471e-05 -1.27359e-20
1.36549e-05 -1.98742e-05 -3.94821e-20
1.34137e-05 1.88781e-05 -3.03619e-20
2.07725e-05 -1.25767e-05 -3.85495e-20
-1.42984e-06 -2.18262e-05 -2.87013e-20
2.18181e-05 1.08622e-06 -1.67613e-20
1.14628e-05 1.5683e-05 7.10171e-20
1.10938e-05 -1.38196e-05 -2.13372e-20
-6.83933e-06 -5.835e-06 -3.66669e-20
-2.97021e-06 7.63456e-08 -1.34656e-20
8.12725e-06 -1.27877e-05 -6.41388e-20
7.6681e-06 1.13089e-05 -2.2016e-20
-6.91497e-06 1.94425e-06 -4.27618e-21
1.10598e-05 8.50198e-06 -1.14647e-20
9.00026e-06 -9.67031e-06 -4.44033e-20
-8.35461e-06 -4.81975e-06 -3.512e-20
-6.00908e-06 4.01762e-06 4.2989e-20
-5.0439e-06 -4.2418e-06 -3.68029e-20
-6.59448e-06 -3.4452e-06 -3.45736e-20
-1.28697e-05 -7.66822e-06 -4.73069e-21
-1.73319e-06 5.93323e-06 4.38077e-20
-1.01787e-06 -6.40188e-06 -3.98053e-20
-2.68551e-05 2.68546e-05 -6.98165e-21
-1.89061e-06 1.05098e-05 1.7923e-20
-1.19207e-06 -1.11339e-05 -5.44977e-20
-1.99287e-06 2.10615e-05 4.29472e-20
8.41576e-07 -1.75914e-05 -1.36031e-20
2.85113e-06 4.89223e-06 -4.77669e-21
2.64197e-06 -5.74106e-06 -4.69482e-20
-9.60206e-06 -5.43293e-06 -3.24363e-20
-1.02144e-05 5.39563e-06 3.91237e-20
-1.71388e-05 3.07179e-06 -2.4294e-20
-1.79045e-05 -3.31398e-06 4.07172e-20
2.36886e-05 1.2987e-05 -2.8208e-21
1.76437e-05 -1.22559e-05 -1.88357e-20
6.15745e-06 -2.96039e-07 -1.84698e-20
6.49444e-06 -4.21687e-06 -3.28478e-20
9.35143e-06 3.94127e-06 -2.13349e-20
3.10145e-07 -9.5724e-06 -4.98133e-20
-5.69778e-07 9.2911e-06 3.3936e-20
8.5634e-06 -7.63455e-06 -6.67352e-20
-1.47767e-05 1.00211e-05 2.1743e-20
9.34597e-06 -5.59478e-06 -5.98205e-20
8.14858e-06 5.61921e-06 -8.82503e-21
-6.46417e-06 -1.26114e-07 5.10876e-20
-6.1054e-06 -1.87335e-07 -3.46202e-20
-6.70964e-06 5.87861e-06 1.68322e-20
1.17308e-05 2.03196e-05 1.56512e-20
1.03319e-05 -1.78953e-05 -3.54873e-21
-8.33675e-06 -5.35415e-06 -3.67571e-20
-8.34125e-07 -1.15107e-05 -2.67958e-20
1.42147e-05 -2.51903e-05 -3.67522e-20
2.45195e-05 -1.24147e-05 -3.69681e-20
1.56727e-06 6.48666e-06 -4.68578e-21
1.35127e-06 -7.22015e-06 -4.81319e-20
-1.39497e-06 1.20326e-05 9.5537e-22
2.71062e-06 -1.09205e-05 -5.7775e-20
1.04298e-06 9.50255e-06 4.822e-21
1.14301e-05 5.56595e-06 -2.72937e-20
9.32414e-06 2.82343e-06 -1.75146e-20
8.43763e-06 -5.97317e-06 -5.67765e-20
-2.28046e-05 7.03647e-11 -4.23108e-21
-2.33744e-05 -4.66027e-10 1.15107e-20
-8.57444e-06 -5.52777e-06 -2.45197e-20
7.36751e-06 7.95352e-06 -2.28377e-20
6.4854e-06 -9.13011e-06 -5.39558e-20
2.37554e-06 6.79867e-06 7.12402e-20
2.99112e-06 -6.92171e-06 -3.81685e-20
1.67125e-06 -2.20361e-06 -3.73496e-20
1.06782e-06 1.87596e-06 7.23314e-20
2.7049e-05 -2.70484e-05 -1.14619e-20
-7.26493e-06 2.17393e-06 -2.89339e-20
-7.70617e-06 -2.6472e-06 4.8086e-20
-1.80817e-06 5.46166e-06 6.13222e-20
-1.16533e-06 -5.66459e-06 -3.78496e-20
1.15369e-05 -7.24083e-06 -5.24501e-20
-8.68039e-06 4.37785e-06 3.91231e-20
-1.08195e-05 -1.98064e-06 -3.17996e-20
-1.12593e-05 1.45689e-06 4.54926e-20
-6.70278e-06 3.15501e-06 5.73194e-21
3.16065e-06 1.44066e-05 -4.50394e-21
2.72285e-06 -1.40366e-05 -4.43571e-20
4.61183e-06 2.75493e-05 2.31577e-20
5.51908e-06 -2.27838e-05 -4.86813e-21
-2.70149e-06 4.79578e-05 -2.64937e-20
-4.77311e-05 2.2106e-06 -4.13896e-21
7.00828e-06 7.87224e-07 -9.1894e-21
7.12173e-06 -4.8252e-06 -4.82693e-20
2.65008e-05 -3.2918e-05 -1.33721e-20
3.30058e-05 -2.61211e-05 -2.1434e-20
9.57667e-06 -2.31181e-05 -1.73802e-20
1.11155e-05 2.68351e-05 -2.27491e-20
-8.17121e-06 4.81203e-06 4.46726e-20
7.47809e-06 3.78378e-06 -1.08271e-20
7.38728e-06 -6.51914e-06 -5.54111e-20
7.01562e-06 7.57133e-06 -6.05021e-21
7.47302e-06 -9.51571e-06 -7.06484e-20
1.89183e-07 -2.35118e-05 -3.5616e-20
5.31931e-07 2.05396e-05 -3.09987e-20
2.34276e-05 -4.07723e-07 -3.05895e-20
5.32591e-06 5.12237e-06 -7.55147e-21
6.1356e-06 -7.58193e-06 -6.28705e-20
2.3025e-06 2.26507e-05 -2.90649e-20
-2.24995e-05 -3.32927e-06 4.32109e-21
9.95182e-06 1.35597e-06 -7.5973e-21
8.79371e-06 -5.1484e-06 -4.50399e-20
9.47667e-06 3.00352e-06 -1.37844e-20
8.52577e-06 -6.07722e-06 -4.75874e-20
-2.64353e-05 3.24069e-05 -9.11932e-21
-3.27013e-05 2.63884e-05 -8.96014e-21
7.93712e-06 4.11312e-06 -1.08725e-20
7.91191e-06 -6.89572e-06 -6.06876e-20
4.14201e-06 -1.42245e-05 -1.20108e-20
2.78434e-06 1.61884e-05 4.50857e-20
7.08465e-06 -3.19033e-06 -1.03269e-20
7.07093e-06 -2.41681e-06 -3.50315e-20
1.08792e-05 1.01464e-05 -1.35117e-20
8.89463e-06 -1.063e-05 -4.5176e-20
-6.47092e-06 -2.04965e-06 -3.22542e-20
-6.52789e-06 1.5269e-06 4.92677e-20
1.06831e-05 -1.78038e-05 -1.70154e-20
-2.25625e-05 -6.02504e-07 -1.39215e-20
-2.32391e-05 3.44521e-07 2.88895e-20
1.09644e-05 2.05174e-05 4.97721e-20
1.01219e-05 1.95918e-05 -1.41037e-21
1.50614e-05 1.50215e-05 -6.9155e-21
8.32265e-06 -1.82075e-05 -3.28933e-20
1.25112e-05 -1.43317e-05 -2.62061e-20
1.8654e-05 -7.72645e-06 2.82078e-21
4.79533e-05 -6.31219e-06 1.52876e-20
3.79906e-05 5.00288e-06 -1.01005e-20
1.10057e-05 4.55929e-06 -8.09854e-21
2.38904e-05 2.11745e-07 1.41037e-21
1.61723e-05 -4.89894e-06 -3.23011e-21
2.23859e-05 7.18157e-06 -1.7289e-21
1.68087e-05 -4.23664e-06 -1.73799e-20
1.63356e-05 -6.42796e-06 -1.21023e-20
1.25144e-05 -1.39322e-06 -2.89356e-20
1.71052e-05 6.53522e-06 -3.09364e-21
1.72681e-05 6.48477e-06 -2.72974e-22
1.30781e-05 -8.30084e-06 -3.91264e-20
1.3583e-05 -8.14372e-06 -3.48502e-20
1.42708e-06 2.6475e-07 -7.82549e-21
1.16922e-06 8.2482e-07 1.01006e-20
3.36526e-06 -1.93406e-07 -1.14199e-20
1.10303e-06 -1.85097e-07 5.64155e-21
1.12625e-06 -1.72321e-07 1.10557e-20
1.0034e-06 2.75337e-06 5.82378e-21
3.54353e-06 -2.26732e-06 -7.73455e-21
1.06807e-06 2.45016e-07 9.59978e-21
3.02239e-06 2.67226e-06 -2.04276e-20
1.2397e-06 1.02474e-07 -5.27768e-21
1.2503e-06 -9.04714e-08 2.16112e-20
1.11973e-06 1.8684e-08 1.95642e-20
6.99513e-06 -3.79815e-08 2.36588e-21
-8.58843e-07 -1.40659e-06 5.00485e-21
1.4303e-06 7.79169e-07 -1.10102e-20
2.39138e-06 7.05861e-07 -1.66062e-20
2.93075e-06 2.4328e-06 1.60151e-20
1.4959e-06 -2.84571e-06 4.82281e-21
9.80343e-07 1.0714e-07 -1.32856e-20
1.30992e-06 -3.38309e-08 -4.23126e-21
1.31583e-06 3.53423e-08 1.7198e-20
1.06743e-06 5.24403e-08 1.16476e-20
1.04305e-06 6.89215e-07 -3.23028e-21
7.984e-07 1.26418e-07 1.77892e-20
3.98217e-07 6.55507e-07 3.09378e-21
1.17108e-06 2.46636e-07 6.50624e-21
1.21921e-06 1.84711e-07 -1.41039e-21
1.16687e-06 -3.24538e-08 -4.45874e-21
1.39793e-06 -1.59505e-06 -7.14286e-21
1.05234e-06 -1.92783e-08 2.26125e-20
2.51413e-06 2.16616e-06 1.30125e-20
2.83188e-06 -1.9907e-06 -3.59435e-21
-1.33988e-05 -6.8105e-06 -1.7289e-21
-1.34293e-05 6.4509e-06 -4.09476e-21
9.70741e-07 3.59199e-08 2.05646e-20
5.59798e-07 8.46659e-07 2.82079e-21
-2.65346e-06 -8.69125e-07 -7.27946e-22
-3.063e-06 1.00931e-06 -8.1894e-21
3.83514e-06 -1.70267e-06 -1.72884e-20
1.20903e-06 1.96052e-07 1.01916e-20
7.62251e-07 -1.13958e-07 1.92452e-20
3.17808e-06 -5.75634e-10 -1.90627e-20
1.04714e-06 -6.64354e-07 1.54235e-20
1.41781e-06 -2.66341e-07 1.46955e-20
7.70088e-07 6.75949e-07 -9.64567e-21
9.7648e-07 -9.54818e-08 2.38404e-20
1.43826e-06 -2.39508e-07 6.36963e-22
1.24019e-06 -4.62727e-07 3.39413e-20
4.03194e-06 -1.1598e-06 -4.77712e-21
1.26552e-06 -3.48272e-08 3.61252e-20
9.61665e-07 -2.62506e-07 6.8701e-21
2.25247e-06 -1.4412e-07 2.05657e-20
2.25353e-06 1.43017e-07 3.03025e-20
6.95494e-07 2.12613e-07 -1.95645e-20
2.10742e-06 -1.16496e-06 1.35588e-20
2.1082e-06 1.1658e-06 2.55706e-20
1.18394e-06 4.07817e-07 -4.09484e-22
-3.55975e-06 -1.26809e-05 -8.0529e-21
-3.57438e-06 1.27266e-05 -5.77807e-21
1.50765e-06 -5.43173e-07 4.5499e-21
1.50644e-06 5.43025e-07 3.02113e-20
9.83124e-07 4.1807e-08 2.36129e-20
9.67766e-06 -6.78165e-06 -5.32321e-21
-2.54501e-06 5.66348e-06 4.5499e-22
1.2091e-06 -1.95761e-07 1.09196e-20
1.17759e-06 1.17298e-08 2.66615e-20
9.61875e-07 5.58865e-08 1.91543e-20
1.23817e-06 7.75443e-07 8.18967e-22
2.17904e-06 6.56166e-07 -1.5105e-20
4.38989e-06 -1.81837e-06 1.274e-21
4.39292e-06 1.81962e-06 4.91399e-21
3.67495e-06 3.08215e-06 -1.50138e-20
1.23707e-06 -4.85783e-07 -7.91681e-21
1.23344e-06 5.00866e-07 7.27982e-21
2.83422e-08 1.88418e-06 -4.59511e-21
4.42881e-07 -8.98352e-07 1.51965e-20
9.79435e-07 -2.43478e-08 2.02006e-20
8.56069e-07 -1.02718e-07 2.10195e-20
-1.9354e-06 -4.03576e-06 -3.32123e-21
-5.89694e-06 1.02135e-05 -1.72889e-21
-5.93218e-06 -1.02745e-05 -1.91088e-21
1.00885e-06 1.18461e-07 -3.73076e-21
4.97094e-07 1.46929e-07 1.06007e-20
9.70307e-07 2.77556e-07 -1.50854e-27
1.42897e-06 6.63022e-06 3.45793e-21
2.85444e-06 -8.44142e-06 -2.91189e-21
-2.27744e-06 4.53268e-06 -1.06916e-20
2.81723e-06 4.91555e-07 1.97005e-20
1.64561e-06 -8.79245e-07 5.27778e-21
7.9034e-07 -2.88992e-07 -5.64187e-21
7.76688e-07 2.67462e-07 -2.48424e-20
1.13179e-06 -9.5036e-08 2.36591e-21
9.6993e-07 1.01925e-07 -5.18684e-21
1.14403e-06 -9.77345e-07 3.54893e-21
1.13953e-06 9.86628e-07 1.09198e-21
9.84485e-07 -2.80269e-07 -6.73382e-21
1.17437e-06 -2.4048e-07 1.18295e-20
7.39946e-07 -5.53222e-07 2.18395e-21
7.20003e-07 5.44239e-07 -1.01918e-20
8.07645e-07 1.08755e-06 -2.00184e-21
1.11212e-06 3.80846e-08 7.4618e-21
8.424e-07 1.90516e-07 7.09751e-21
8.60738e-07 4.5656e-06 -7.50683e-21
4.28654e-07 3.26199e-08 -9.37272e-21
1.06536e-06 5.15126e-08 6.0968e-21
-7.19678e-07 1.15741e-06 -2.4568e-21
8.0445e-07 -9.54276e-07 6.96095e-21
1.01564e-06 1.247e-07 -1.4559e-21
4.5588e-07 -1.14032e-07 1.11467e-20
1.83827e-06 -9.79366e-07 -4.95924e-21
1.67497e-06 1.08514e-06 2.0474e-20
1.12908e-06 -2.43585e-08 -8.09868e-21
1.70879e-08 -1.91718e-06 -1.30119e-20
1.19881e-06 -1.31067e-07 1.45594e-20
1.2005e-06 1.25009e-07 1.74713e-20
3.75868e-07 1.4029e-07 3.73072e-21
2.4737e-06 3.21162e-06 -1.88806e-20
2.53046e-06 -3.32013e-06 -1.43311e-20
1.43485e-06 2.68053e-07 -5.64167e-21
3.44557e-07 -5.69487e-07 1.00093e-20
1.26939e-06 -4.69774e-08 1.36493e-22
1.27657e-06 4.67583e-08 1.56057e-20
1.04537e-06 -4.43505e-09 8.18969e-22
1.13138e-06 9.09639e-08 2.10202e-20
1.16619e-06 -1.27492e-07 1.00096e-20
-5.00625e-06 8.67088e-06 4.91395e-21
5.32574e-06 -9.22532e-06 -2.72997e-22
1.06407e-06 -6.48151e-08 -2.18393e-21
9.1674e-07 1.89278e-07 -8.8267e-21
7.10959e-07 -2.29885e-07 -1.64706e-20
1.44693e-06 -2.74811e-07 1.73345e-20
1.64462e-08 9.26345e-07 -2.91192e-21
4.60563e-06 1.06418e-06 -8.73524e-21
1.12222e-06 -4.69486e-08 2.31134e-20
9.80096e-07 -4.35954e-07 2.54793e-21
2.16675e-06 1.5149e-06 -1.4104e-20
3.58863e-07 2.92226e-09 -1.77446e-20
1.16288e-06 1.13711e-07 2.14752e-20
9.23066e-07 -4.63134e-06 -2.04277e-20
1.16797e-06 1.67733e-07 2.23852e-20
9.94717e-07 -1.07219e-07 2.32035e-20
6.26821e-07 -9.85856e-07 -1.04642e-21
1.31282e-06 -7.17115e-08 5.64173e-21
1.31658e-06 6.82458e-08 1.26484e-20
1.07417e-06 -6.83804e-08 -3.63987e-21
1.16755e-06 -1.65377e-07 1.27395e-20
1.71658e-06 2.49528e-07 1.90181e-20
1.80127e-06 -2.36086e-07 -4.14029e-21
1.22037e-06 -4.28231e-08 2.2749e-21
1.22707e-06 4.56972e-08 1.74712e-20
1.17053e-07 -3.95935e-07 1.72896e-21
1.08356e-07 3.8278e-07 -2.99384e-20
1.17156e-06 7.78044e-08 1.91094e-21
4.91061e-06 -1.47368e-06 -2.07916e-20
-1.09721e-06 7.22111e-07 7.23392e-21
9.63827e-07 -4.58417e-08 1.30122e-20
1.39187e-06 2.57003e-07 9.91855e-21
1.69006e-06 -5.378e-07 4.09492e-21
1.69085e-06 5.3845e-07 2.71175e-20
1.2549e-06 -2.82196e-07 -2.00195e-21
1.25228e-06 2.79746e-07 2.63893e-20
1.24612e-06 -4.73593e-08 -7.96208e-21
7.96358e-07 -5.96645e-08 1.74257e-20
1.37971e-06 -2.69755e-07 9.50907e-21
2.8017e-06 -2.35884e-06 1.33769e-20
2.80354e-06 2.36014e-06 1.34679e-20
1.18761e-06 1.89559e-07 2.71172e-20
9.52674e-07 -1.40476e-08 2.02462e-20
9.70837e-07 -1.1921e-07 -6.09682e-21
2.32363e-06 2.43629e-07 1.88358e-20
1.16728e-06 -1.11181e-06 1.59244e-20
9.77621e-07 -9.42004e-08 2.19295e-20
9.55216e-07 4.4331e-07 2.54793e-20
1.18684e-06 -1.90683e-07 6.5518e-21
1.96049e-06 2.88216e-06 -1.12374e-20
-9.45775e-07 9.89256e-07 -9.09978e-23
7.04813e-06 9.04442e-07 -7.32504e-21
1.17144e-06 -7.61155e-08 1.56515e-20
3.79064e-07 2.10941e-06 -8.50782e-21
7.95975e-07 5.69185e-09 1.4195e-20
6.85727e-07 5.59665e-08 -7.00681e-21
1.45864e-06 -8.29951e-07 1.32396e-20
1.56854e-06 -1.09859e-07 -9.32696e-21
1.2865e-06 2.74783e-07 3.13031e-20
1.31785e-06 4.37285e-07 1.30124e-20
-1.56103e-07 -6.88446e-07 1.80175e-20
1.18805e-06 1.29512e-07 2.92548e-20
1.13225e-06 7.2686e-08 2.11562e-20
1.28823e-06 -2.77379e-07 5.82384e-21
9.9031e-07 -1.29801e-07 -9.91873e-21
4.50346e-06 -2.09172e-06 4.91398e-21
4.50645e-06 2.09288e-06 5.91498e-21
8.96853e-07 -2.10196e-07 1.81084e-20
-5.99301e-06 -5.13791e-06 -3.91271e-21
-6.23649e-06 4.94399e-06 -7.82543e-21
2.10513e-06 -7.68386e-07 -5.32306e-21
1.9825e-06 -3.07586e-06 -2.5432e-20
1.21135e-06 -8.2831e-08 2.90732e-20
1.16817e-06 -3.62981e-08 1.91088e-21
1.22069e-06 -4.31045e-08 -6.00572e-21
1.21991e-06 3.87928e-08 2.29309e-20
1.06763e-06 3.24447e-08 -9.82759e-21
6.97509e-07 2.23947e-08 2.31134e-20
1.2515e-06 -6.73911e-09 -8.37155e-21
1.05772e-06 -1.23342e-09 1.41499e-20
9.27112e-06 4.62049e-06 7.27976e-22
-2.36217e-06 -4.4834e-06 -3.54891e-21
7.92106e-07 -1.43816e-06 1.68337e-21
3.23054e-06 6.28859e-08 -2.56593e-20
1.23886e-06 1.61907e-07 1.46504e-20
1.23654e-06 -1.62897e-07 1.12835e-20
1.83859e-06 6.86349e-07 -1.1101e-20
1.1879e-06 -4.3735e-07 1.73803e-20
1.86572e-06 -1.25583e-06 1.03739e-20
1.86678e-06 1.25621e-06 1.91097e-20
-4.39446e-07 1.33679e-07 7.23396e-21
3.81591e-07 -2.13587e-06 -5.55055e-21
8.4097e-07 -9.38005e-07 -9.09914e-23
1.02451e-06 5.64385e-08 9.23589e-21
2.12336e-06 -1.35555e-06 3.41225e-21
1.37558e-06 3.80634e-07 2.6434e-20
1.63271e-06 2.13698e-07 1.99734e-20
1.31832e-06 -4.06204e-07 6.2787e-21
1.69411e-06 6.97395e-06 1.13746e-20
3.73686e-06 -7.29733e-06 -5.4598e-21
3.97428e-07 -7.62199e-07 1.58337e-20
3.96558e-07 7.58442e-07 -2.05656e-20
-2.68585e-06 -8.55901e-07 3.91269e-21
-2.73618e-06 1.10252e-06 -6.59698e-21
-8.40755e-06 5.22674e-06 4.64064e-21
-8.61256e-06 -5.16133e-06 -9.64526e-21
4.1151e-06 -2.11443e-06 8.28094e-21
4.11811e-06 2.11559e-06 1.09199e-20
1.32836e-06 3.68067e-07 2.42965e-20
1.32663e-06 -3.60401e-07 2.15665e-20
1.17352e-06 2.46628e-07 1.65615e-20
2.23812e-06 -3.44984e-07 1.98823e-20
1.29284e-06 -3.78513e-07 1.60608e-20
9.93334e-07 -1.08664e-07 2.58423e-20
1.17436e-06 -2.5043e-07 2.09294e-21
2.16996e-06 1.75745e-07 -1.36947e-20
1.1919e-06 1.88967e-07 2.56612e-20
-1.33815e-06 -3.89638e-06 -2.31117e-20
-1.35066e-06 3.86013e-06 4.04911e-21
1.195e-06 -1.89256e-07 1.22846e-20
7.6814e-07 1.68166e-06 -7.96188e-21
5.27894e-06 9.14432e-06 6.55181e-21
-3.47461e-06 -6.01808e-06 -4.09498e-21
4.35822e-07 -6.1264e-07 2.60251e-20
-5.22024e-07 -9.7698e-07 7.77987e-21
3.77507e-06 -6.25959e-06 -7.96185e-21
1.20574e-06 9.89001e-08 -1.19204e-20
1.15522e-06 3.62278e-08 -8.28063e-21
2.35627e-07 -9.63094e-07 1.30128e-20
2.35789e-07 9.47554e-07 -6.00589e-21
3.46717e-06 6.62203e-06 -1.2011e-20
1.23427e-06 3.74986e-07 4.45881e-21
1.06938e-06 1.6895e-07 1.51055e-20
1.56518e-06 -8.11731e-08 1.60156e-20
1.56483e-06 7.80983e-08 3.20313e-20
-1.23174e-05 4.34289e-11 2.91181e-21
-1.23153e-05 -4.18529e-11 -3.09379e-21
8.56789e-07 -4.42921e-07 2.68441e-20
5.16346e-07 -1.22672e-07 1.25116e-20
1.14064e-06 -1.12877e-06 -1.63797e-21
1.136e-06 1.12977e-06 1.73807e-20
4.04635e-06 -9.5419e-07 8.00747e-21
3.49078e-06 -3.32948e-06 -1.81074e-20
1.38938e-06 3.91978e-07 5.45973e-21
-1.7275e-06 4.61926e-06 3.5487e-21
-1.73989e-06 -4.712e-06 -1.48773e-20
2.08766e-06 -1.58008e-06 -1.09191e-21
1.07063e-06 -1.66324e-07 3.73088e-21
-6.38638e-07 -2.89156e-07 -3.9582e-21
-3.66975e-06 2.46634e-06 4.09467e-21
-3.6832e-06 -2.46745e-06 -9.91819e-21
7.69573e-07 1.10212e-06 -1.2375e-20
5.03397e-07 -2.29401e-06 1.14658e-20
5.07072e-07 2.29593e-06 8.37187e-21
4.48687e-06 9.94889e-06 6.46084e-21
3.43231e-07 -9.89589e-06 -4.1859e-21
1.26525e-06 -3.4647e-08 3.58521e-20
7.52305e-07 4.6388e-08 1.16018e-20
1.33987e-06 2.12879e-07 2.40234e-20
1.3456e-06 -2.22757e-07 2.03835e-20
4.95826e-07 5.07071e-08 2.61162e-20
1.35322e-06 5.98013e-09 -8.41708e-21
9.75216e-07 3.27613e-07 4.18581e-21
1.86201e-06 4.49531e-06 3.36699e-21
1.86085e-06 -4.49249e-06 5.09598e-21
-1.15228e-06 -7.27281e-07 -2.95726e-21
1.19263e-06 -1.93316e-07 9.91867e-21
1.40652e-06 -1.63742e-07 1.44686e-20
1.40575e-06 1.60811e-07 2.61163e-20
1.16e-06 -1.50023e-07 1.38316e-20
1.18975e-06 1.92663e-07 1.80174e-20
1.27275e-06 -2.90033e-08 -4.50427e-21
1.28023e-06 3.10117e-08 2.15204e-20
1.05938e-06 -2.78335e-09 -1.27395e-21
1.15873e-06 1.47701e-07 1.83814e-20
1.2576e-06 4.03059e-09 2.8527e-20
9.6902e-07 -1.19256e-09 1.47411e-20
1.81625e-06 1.11857e-07 2.48425e-20
1.82246e-06 -1.30596e-07 2.64804e-20
1.70923e-06 -2.53513e-07 1.93826e-20
1.71209e-06 2.52047e-07 3.21224e-20
1.34829e-06 1.97683e-08 3.38956e-20
9.38419e-07 3.45779e-07 1.60606e-20
1.3074e-06 9.02371e-08 2.84822e-20
1.30764e-06 -9.3654e-08 1.37406e-20
3.68209e-06 4.94591e-06 1.31034e-20
1.18081e-06 -4.68974e-06 -3.6399e-21
1.45487e-06 7.30047e-07 2.36595e-20
1.44481e-06 -7.29384e-07 3.56713e-20
1.8323e-06 -1.56057e-06 5.36892e-21
1.83284e-06 1.56422e-06 1.39228e-20
-3.06745e-07 -2.4175e-06 -1.00092e-20
-3.24921e-07 2.36416e-06 2.95727e-21
8.90153e-06 8.20376e-06 -3.91279e-21
-1.31222e-05 -2.06831e-06 -1.11012e-20
1.71845e-06 3.1982e-06 4.91395e-21
2.55349e-06 2.42547e-06 7.55295e-21
1.71623e-06 -3.19736e-06 8.91791e-21
2.55183e-06 -2.42412e-06 4.45897e-21
-2.16897e-06 -6.35694e-06 -3.18494e-21
-1.3131e-05 2.02668e-06 3.36675e-21
3.34516e-06 -1.38564e-06 1.73808e-20
8.22044e-06 -1.08223e-06 9.09998e-22
8.21478e-06 1.08148e-06 9.09998e-23
3.3422e-06 1.38441e-06 2.00198e-21
4.19081e-06 -1.03791e-07 2.49337e-20
2.84773e-06 -9.93163e-07 3.68544e-20
3.91091e-06 1.19242e-06 8.09896e-21
4.18757e-06 1.02992e-07 5.64194e-21
3.908e-06 -1.19171e-06 4.91397e-21
2.84571e-06 9.91555e-07 1.54698e-20
3.00321e-06 -9.38314e-07 1.54698e-20
2.96541e-06 -9.50093e-07 1.46508e-20
3.00537e-06 9.38374e-07 2.49337e-20
2.96739e-06 9.50206e-07 1.77448e-20
-3.77695e-06 -1.07707e-05 -4.95381e-20
1.09383e-06 9.99408e-06 7.27902e-22
1.53363e-06 -9.06233e-06 -1.22373e-20
-8.08328e-06 -1.40759e-06 -3.16158e-20
-1.01093e-05 -2.52268e-06 -3.70285e-20
9.8099e-07 1.1307e-05 2.86613e-21
1.76893e-06 -1.17993e-05 -1.40118e-20
-1.08714e-05 2.94441e-06 -3.14335e-20
-3.33103e-06 5.60453e-06 -1.06452e-20
-5.9558e-06 -1.31457e-05 -6.15892e-20
-5.33249e-06 1.47664e-05 -2.38353e-20
1.42678e-05 6.98313e-06 -1.36007e-20
8.02326e-06 7.55009e-06 -1.86527e-21
-7.67471e-06 -7.91772e-06 -3.2073e-20
-3.75704e-06 -7.58886e-06 -2.84314e-20
-1.19879e-06 -7.28216e-06 -3.77578e-21
-8.83608e-07 -1.20678e-05 -3.60303e-20
2.23758e-06 1.10672e-05 1.77425e-21
8.63479e-06 -6.10813e-07 -9.55305e-21
-4.536e-06 -1.59024e-05 -7.46003e-20
-4.03892e-06 1.72507e-05 -1.9742e-20
1.67912e-05 5.35782e-06 -1.51931e-20
-7.06377e-06 -7.13771e-06 -4.54438e-20
-1.10638e-05 2.85964e-06 -3.21151e-20
-8.03509e-06 -7.18862e-06 -2.8022e-20
5.33652e-06 1.20291e-05 -9.82605e-21
-7.55889e-06 1.6227e-06 -2.23814e-20
-1.17418e-05 -2.38656e-05 -4.97162e-20
-6.65134e-06 -3.31644e-06 -2.44745e-20
2.50735e-05 1.31237e-05 -3.84361e-21
1.99584e-06 1.09127e-05 4.23103e-21
3.79732e-07 -1.12596e-05 -3.24372e-20
-2.49371e-05 1.23738e-05 -1.0009e-21
-2.54404e-05 -1.2895e-05 -4.54953e-22
-1.64124e-05 5.66847e-06 -3.17506e-20
-5.92513e-06 -4.69247e-06 -2.62027e-20
-1.02985e-05 -5.13571e-06 -8.2798e-21
-1.04856e-05 5.39526e-06 -4.5494e-22
-1.71922e-06 -3.53431e-06 -2.20637e-20
7.27346e-06 9.44698e-06 -8.23379e-21
-1.03864e-05 7.36439e-06 -2.34271e-20
-3.01351e-06 1.53571e-07 -2.24729e-20
-6.5393e-06 7.80115e-06 -2.0334e-20
-3.258e-06 1.13245e-05 -1.71953e-20
3.34967e-06 8.95677e-06 -7.36996e-21
-1.0493e-05 7.35505e-06 -2.72477e-20
-2.61097e-05 -2.6109e-05 -1.01201e-20
2.72153e-05 2.72149e-05 4.54949e-23
2.89797e-06 5.60968e-06 -4.41285e-21
2.73674e-05 2.9798e-05 -1.09388e-20
-2.80684e-05 -2.62036e-05 -1.33039e-20
1.05617e-05 5.66825e-06 2.70697e-20
1.30794e-05 -2.29068e-06 -1.47856e-20
6.03829e-06 -1.54639e-06 9.37121e-21
1.00511e-05 9.26112e-06 3.28927e-20
1.22589e-05 -8.06349e-06 -1.02816e-20
5.12362e-06 9.35917e-06 -1.19188e-20
-1.04656e-05 1.99874e-05 -2.32023e-21
-1.06951e-05 -2.00393e-05 -5.09541e-21
8.29435e-06 6.96422e-06 2.67502e-20
9.07313e-06 -4.9647e-06 -2.63401e-20
-1.43677e-05 6.64036e-06 -2.41534e-20
-5.46477e-06 1.53042e-05 5.09558e-21
1.20059e-05 -1.8624e-05 -1.30116e-20
6.43411e-06 -7.39768e-06 -7.0645e-20
-1.27418e-05 2.51811e-05 -2.54493e-20
-2.4495e-05 1.33498e-05 -1.874e-20
2.72692e-06 8.82427e-06 -6.77843e-21
-1.01261e-06 -7.23854e-06 -6.96013e-21
2.02577e-05 8.39044e-06 6.09668e-21
2.56274e-05 -1.06157e-05 -3.3669e-21
1.40985e-06 -2.45289e-06 3.45736e-21
8.12247e-06 5.64589e-06 2.75683e-20
8.62912e-06 -4.35424e-06 -3.09343e-20
-5.20209e-06 -3.56296e-06 -1.79237e-20
-2.23747e-06 -5.79464e-06 -4.01697e-20
-1.51583e-05 -3.0243e-06 -3.49117e-20
1.07784e-05 -1.76059e-06 -3.41172e-21
-1.31398e-05 -1.74183e-06 -3.86199e-20
-9.62821e-06 -8.09122e-06 -6.2325e-21
-1.12472e-05 -1.94797e-05 -3.50313e-21
-1.11269e-05 1.92722e-05 3.54864e-21
-1.16102e-05 -1.27543e-05 -4.87175e-20
-8.2251e-06 5.23775e-06 -1.53757e-20
8.26049e-06 5.75705e-06 1.94703e-20
2.0396e-06 -2.10485e-05 -1.80164e-20
1.366e-07 1.66666e-05 4.45861e-21
-9.68111e-06 9.00252e-06 2.63859e-21
2.16698e-06 9.86074e-06 -1.18282e-21
-6.97196e-07 -9.61931e-06 -3.97145e-20
5.85411e-06 2.76749e-06 4.19891e-20
5.91689e-06 -1.46999e-06 -1.72868e-21
1.43616e-05 -1.03109e-05 -4.53967e-20
6.54874e-06 7.44054e-06 4.53566e-20
7.36262e-06 -6.66963e-06 -8.64362e-21
8.3541e-06 -4.10712e-06 -3.53465e-20
4.00162e-06 -1.05298e-05 -7.11005e-20
5.22026e-06 6.04998e-06 4.33543e-20
5.35663e-06 -4.5435e-06 -1.79239e-20
-8.73604e-06 4.20489e-06 -1.21461e-20
5.61819e-06 6.52372e-06 -2.59317e-21
-1.06672e-05 -7.3041e-06 -3.16605e-20
-3.81144e-06 9.16857e-07 -1.16913e-20
1.63142e-06 5.71943e-06 -4.41295e-21
1.14e-05 2.86129e-06 -4.68537e-21
-8.44692e-06 5.40338e-06 -2.27453e-22
-9.16232e-06 -4.18714e-06 -2.85227e-20
-7.13683e-06 -8.64521e-06 -4.44877e-20
-8.17357e-06 -5.33928e-06 -2.72029e-20
-1.25607e-07 -9.91617e-06 -2.97057e-20
1.50414e-06 1.0205e-05 -3.36641e-21
1.4162e-05 -5.41239e-06 -3.73676e-20
-4.82207e-06 3.80243e-06 -5.77752e-21
6.94692e-06 -1.0622e-05 -6.45486e-20
7.59692e-06 1.21433e-05 -8.64303e-21
-8.2662e-06 5.23561e-06 -7.41505e-21
-3.21746e-06 5.49291e-06 -1.04178e-20
-3.40252e-06 -5.62124e-06 -1.34203e-20
-2.12044e-06 -1.00662e-05 -6.43666e-20
-7.64747e-06 7.95092e-06 -1.32833e-20
1.25927e-06 -1.40227e-05 -7.79651e-20
2.51386e-06 1.53453e-05 -1.58525e-20
1.49005e-05 -8.36137e-08 -2.02646e-20
1.49797e-05 1.16695e-05 -1.05078e-20
9.94943e-06 -6.16123e-06 -5.26758e-20
1.44186e-05 -2.49751e-05 -1.0965e-20
-1.18092e-05 2.04549e-05 2.04734e-21
1.1021e-05 -1.62245e-06 -2.43366e-20
3.60301e-06 8.11565e-06 -9.82646e-21
6.31597e-06 3.10505e-06 3.15255e-20
-1.2921e-06 1.07526e-05 -1.70131e-20
3.05889e-06 -6.02836e-06 6.09595e-21
7.83928e-07 7.55711e-06 1.72882e-21
4.77395e-06 -3.50161e-06 -7.10125e-20
4.89434e-06 3.92459e-06 -7.18816e-21
-1.68759e-06 -5.52152e-06 -1.91516e-20
2.85761e-06 5.25901e-07 3.21625e-20
1.00839e-05 8.07961e-06 -8.00608e-21
-3.2539e-06 -8.95882e-07 -6.05053e-21
1.01532e-05 8.99507e-06 -3.54821e-21
-1.10049e-05 1.43949e-05 -2.49728e-20
-5.49302e-06 4.77273e-06 -6.18683e-21
3.91421e-06 -1.5535e-05 -8.03095e-20
4.967e-06 1.66633e-05 -1.07127e-20
1.6578e-05 -3.50266e-06 -2.66106e-20
9.99641e-06 -7.27843e-06 -5.8408e-20
-5.45642e-08 -1.13429e-05 -4.77192e-20
1.403e-06 1.22359e-05 -7.82452e-21
7.9731e-06 -1.40774e-05 -6.07252e-20
8.48365e-06 1.49431e-05 -1.01438e-20
1.00058e-06 3.58325e-06 5.05415e-20
9.51881e-07 -2.45001e-06 9.78074e-21
6.26078e-06 6.95298e-06 -4.23086e-21
3.90735e-06 5.24908e-06 -5.23173e-21
-8.1818e-06 -4.86213e-06 -2.13354e-20
-1.62654e-05 -1.25587e-05 -2.94524e-20
3.07593e-06 1.19228e-05 -1.01443e-20
8.51776e-06 6.95763e-06 3.31196e-20
1.01835e-05 -4.94011e-06 -1.47398e-20
8.03125e-06 6.6926e-06 2.13816e-20
8.61735e-06 -4.49081e-06 -3.44373e-20
-5.17524e-06 -4.70429e-05 -2.074e-20
4.82652e-05 8.11095e-06 -2.50162e-22
2.13376e-06 -1.02633e-05 -7.14631e-20
1.28475e-05 1.42141e-05 2.97543e-20
1.63135e-05 -1.47052e-05 1.0009e-21
8.88317e-06 7.54189e-06 6.14136e-21
-2.03041e-05 -1.04359e-06 -2.34709e-20
2.17796e-07 8.88153e-06 -5.2316e-21
6.45016e-07 -8.9666e-06 -5.19966e-20
-6.96824e-06 1.13208e-05 -2.57012e-20
3.26644e-06 9.2402e-07 -7.21042e-20
9.01021e-06 -5.52951e-06 -5.72726e-20
-1.39616e-06 -2.7801e-06 2.32006e-21
-2.8967e-06 7.79784e-06 5.09547e-21
7.80284e-06 -6.33886e-06 -8.78027e-21
5.50401e-06 -3.93417e-06 -7.7153e-20
-6.01236e-06 -4.08328e-06 -2.16537e-20
-1.04767e-05 -6.54604e-06 -3.62543e-20
1.02807e-05 3.47406e-06 7.50589e-21
3.70754e-06 5.908e-06 -8.2346e-21
-2.99508e-06 7.69469e-06 -1.11453e-20
-2.05228e-06 -1.02592e-05 -4.54896e-20
7.91688e-06 6.70908e-06 1.03722e-20
3.31779e-06 1.13341e-05 -1.0008e-20
-3.77328e-06 -5.25642e-06 -3.91687e-20
-1.28476e-05 2.39865e-05 -2.15143e-20
-2.31628e-05 1.34809e-05 -1.40775e-20
8.44665e-06 2.39807e-06 2.51565e-20
7.9144e-06 -4.59249e-06 -4.85845e-20
2.17545e-05 1.19932e-05 8.82648e-21
2.65461e-05 -1.2828e-05 -4.0038e-21
1.73261e-06 -5.7757e-06 -7.15117e-20
-1.43199e-05 1.01493e-05 -3.54855e-21
-1.44222e-05 -1.04066e-05 -6.55121e-21
-6.03725e-06 -2.59865e-06 -3.29356e-20
-9.2483e-07 2.52338e-06 -5.59559e-21
1.36916e-05 1.76751e-05 -4.5258e-21
-1.55823e-05 -1.25265e-05 -2.79279e-20
1.32071e-05 -1.86421e-05 -5.59248e-20
1.38651e-05 2.0135e-05 -1.2395e-20
2.06579e-05 -1.13159e-05 -2.77236e-20
1.36911e-06 -2.17475e-06 -6.64627e-20
-1.70309e-06 -2.08147e-05 -4.99653e-20
2.1923e-05 2.21799e-06 -7.36862e-21
-1.14474e-05 -1.56389e-05 -2.37937e-20
1.10934e-05 1.38334e-05 1.04639e-21
-7.04779e-06 -5.63371e-06 -1.14185e-20
-2.9912e-06 1.80555e-07 -2.63854e-20
7.57876e-06 -1.11545e-05 -7.31442e-20
8.22367e-06 1.27383e-05 -1.2009e-20
-6.90737e-06 2.15047e-06 -2.6021e-20
3.78518e-06 -7.37761e-06 -6.66434e-20
8.98485e-06 9.66226e-06 3.8034e-20
1.10586e-05 -8.51254e-06 -6.55123e-21
-8.55617e-06 -4.52734e-06 -1.54672e-20
-5.60043e-06 4.26938e-06 -5.68648e-21
-6.80372e-06 -3.13663e-06 -2.06986e-20
-1.30349e-05 -7.11398e-06 -3.97104e-20
-1.17204e-06 6.25326e-06 -6.82377e-21
-2.73562e-05 2.73566e-05 -1.1371e-22
-1.14164e-06 1.11485e-05 -9.82595e-21
1.9689e-06 -1.063e-05 -6.18206e-20
2.04732e-06 -2.10379e-05 -3.50766e-20
8.55653e-07 1.75986e-05 3.41216e-21
2.65923e-06 5.75862e-06 6.54636e-20
2.82542e-06 -4.87146e-06 -8.962e-21
-1.01107e-05 -5.21213e-06 -1.44666e-20
-9.8552e-06 5.57489e-06 -2.13816e-21
-1.76333e-05 3.37725e-06 -1.61049e-20
-1.74162e-05 -3.01783e-06 -4.09449e-21
1.76012e-05 1.22362e-05 1.4741e-20
2.36862e-05 -1.29949e-05 -8.64439e-21
6.45341e-06 4.26454e-06 -8.59867e-21
6.17125e-06 3.38277e-07 -5.93218e-20
9.36216e-06 5.59545e-06 9.0527e-21
3.47562e-07 9.77447e-06 -9.55323e-21
6.12493e-07 -9.15632e-06 -5.63173e-20
-1.46363e-05 1.05966e-05 -2.82933e-20
9.35386e-06 -3.94138e-06 -4.43529e-20
-1.06086e-06 -9.78855e-06 -2.31547e-20
8.57092e-06 7.58451e-06 -7.2785e-22
-6.4808e-06 6.53635e-08 -1.49669e-20
-6.18434e-06 5.65494e-08 -5.50465e-21
8.13294e-06 -5.68346e-06 -5.97736e-20
-6.55047e-06 6.0718e-06 2.59308e-21
1.03361e-05 1.79026e-05 2.86628e-21
-1.17129e-05 -2.02876e-05 -6.64268e-21
-2.20717e-06 -7.02028e-06 -5.13603e-20
-8.59785e-06 -5.08954e-06 -1.56035e-20
-9.21019e-07 -1.14823e-05 -6.96052e-21
1.37744e-05 -2.40329e-05 -3.63084e-20
2.41522e-05 -1.1165e-05 -2.54716e-20
1.36205e-06 7.36973e-06 6.06426e-20
1.5579e-06 -6.32387e-06 -1.07819e-20
-1.30802e-06 1.2048e-05 -3.09357e-21
2.74719e-06 1.0909e-05 -1.12366e-20
1.14751e-05 7.24677e-06 -1.81958e-21
8.41789e-06 5.98042e-06 2.19736e-20
9.33531e-06 -2.8608e-06 -3.07985e-20
-2.28007e-05 -8.0021e-11 2.72973e-22
-2.33937e-05 4.69661e-10 -9.55429e-22
1.79626e-06 -5.40616e-06 -6.26871e-20
-8.79381e-06 -5.25078e-06 -2.40191e-20
6.51077e-06 9.1165e-06 4.1081e-20
7.33261e-06 -7.97478e-06 -9.96305e-21
2.99181e-06 6.95285e-06 -6.59646e-21
1.50877e-06 2.11422e-06 -5.91406e-21
2.63042e-05 -2.63047e-05 -1.40657e-20
-7.67553e-06 2.47171e-06 -1.97894e-20
-7.37551e-06 -2.36143e-06 -4.9588e-21
-1.27775e-06 5.58846e-06 -7.6427e-21
1.14842e-05 -5.53887e-06 -3.9303e-20
-8.4027e-06 4.61119e-06 -1.27378e-21
-1.12221e-05 -1.45967e-06 -1.80606e-20
-1.08852e-05 1.69255e-06 -5.3227e-21
-6.54365e-06 3.36535e-06 -3.95777e-21
2.69827e-06 1.40105e-05 5.44114e-20
3.18742e-06 -1.44234e-05 -1.15101e-20
5.52589e-06 2.27885e-05 6.05104e-21
-4.58015e-06 -2.75315e-05 -7.91638e-21
-2.49687e-06 4.95777e-05 -2.4629e-20
-4.77164e-05 2.78684e-06 -8.30064e-21
7.11832e-06 4.84772e-06 5.18634e-21
6.97585e-06 -8.73064e-07 -5.87302e-20
-7.88146e-07 -1.87194e-06 -5.63185e-20
2.58083e-05 -3.16119e-05 -2.81199e-20
3.28898e-05 -2.52809e-05 -1.47706e-20
1.1119e-05 -2.68436e-05 -2.82089e-21
9.55853e-06 2.30744e-05 -1.18295e-21
-7.81707e-06 5.11055e-06 -5.0041e-21
7.07496e-06 -7.4929e-06 -6.65524e-20
7.3805e-06 6.52009e-06 1.25562e-20
7.49669e-06 -3.81677e-06 -5.19062e-20
5.31469e-06 -5.15695e-06 -7.14206e-20
7.46997e-06 9.48172e-06 -1.36475e-21
-2.88463e-07 -2.22974e-05 -6.44537e-20
1.0167e-06 2.17925e-05 -2.08101e-20
2.33268e-05 9.14867e-07 -2.33344e-20
6.14812e-06 7.566e-06 -2.27461e-21
2.6189e-06 2.37026e-05 -2.84739e-20
-2.24789e-05 -2.75468e-06 -1.43506e-20
8.76856e-06 5.16658e-06 1.05093e-20
9.91263e-06 -1.49609e-06 -4.15804e-20
8.50436e-06 6.08251e-06 2.22014e-20
9.46683e-06 -3.01804e-06 -2.80237e-20
-2.68842e-05 3.35991e-05 -1.52823e-20
-3.27076e-05 2.693e-05 -5.13957e-21
7.89647e-06 6.89024e-06 7.41536e-21
7.96157e-06 -4.14651e-06 -5.89114e-20
4.1502e-06 1.42378e-05 4.1401e-21
-2.74841e-06 -1.61457e-05 -1.88805e-20
7.04151e-06 2.42822e-06 5.27748e-21
7.17012e-06 3.1957e-06 -4.12622e-20
8.88211e-06 1.05972e-05 4.67683e-20
1.08751e-05 -1.01803e-05 -5.59576e-21
-6.64737e-06 -1.59941e-06 -2.20181e-20
-6.14245e-06 1.76269e-06 -4.54927e-21
-2.25927e-05 5.32444e-07 -3.18464e-22
1.06832e-05 1.78122e-05 1.41037e-21
8.29968e-06 1.81826e-05 3.80798e-20
1.24861e-05 1.43088e-05 1.79257e-20
1.01317e-05 -1.95959e-05 -1.21928e-20
1.50643e-05 -1.5032e-05 -2.45682e-21
-1.09478e-05 -2.04851e-05 -1.16469e-20
-2.32273e-05 -4.12206e-07 -6.86978e-21
1.09695e-05 -4.54428e-06 6.36969e-22
3.79077e-05 -4.99201e-06 1.60152e-20
4.79567e-05 6.31264e-06 -2.50244e-20
1.86449e-05 7.72266e-06 -1.54688e-20
1.67648e-05 4.24013e-06 5.14117e-21
1.2483e-05 1.405e-06 1.03731e-20
1.62949e-05 6.41658e-06 1.27392e-20
2.38854e-05 -2.21946e-07 -2.21564e-20
2.23825e-05 -7.18473e-06 -1.02824e-20
1.61691e-05 4.88764e-06 -2.57954e-20
1.30454e-05 8.29554e-06 2.26114e-20
1.35537e-05 8.13736e-06 2.19293e-20
1.7102e-05 -6.5461e-06 -1.42398e-20
1.72678e-05 -6.49474e-06 -3.73066e-21
TENSORS solid_stress_TPM float
7.58472 0.63916 6.38392e-12
0.63916 8.45816 -5.10725e-12
6.38392e-12 -5.10725e-12 7.60447

8.98621 0.42615 2.41389e-11
0.42615 9.7003 -1.02144e-11
2.41389e-11 -1.02144e-11 9.14958

8.92496 0.342778 -1.23225e-11
0.342778 9.61092 -1.70563e-11
-1.23225e-11 -1.70563e-11 9.097

8.95975 0.185391 9.63651e-12
0.185391 7.42342 1.47949e-11
9.63651e-12 1.47949e-11 8.04258

8.60623 0.0733605 2.09113e-11
0.0733605 7.15552 2.01987e-11
2.09113e-11 2.01987e-11 7.50486

9.09542 0.403921 2.08866e-11
0.403921 9.82246 -7.90157e-12
2.08866e-11 -7.90157e-12 9.55144

9.03092 0.374946 4.66165e-12
0.374946 9.76673 2.00435e-11
4.66165e-12 2.00435e-11 9.50627

8.69697 -0.0929137 2.93915e-11
-0.0929137 7.26066 -2.28999e-11
2.93915e-11 -2.28999e-11 7.58223

10.0314 0.016914 2.03329e-11
0.016914 8.17457 -1.70079e-11
2.03329e-11 -1.70079e-11 9.12699

6.01157 0.619658 -2.7392e-11
0.619658 6.96725 -5.83063e-12
-2.7392e-11 -5.83063e-12 5.78207

5.89003 -0.662662 -1.21662e-11
-0.662662 6.82929 -9.62748e-14
-1.21662e-11 -9.62748e-14 5.60346

6.93621 0.640205 -5.39657e-11
0.640205 6.25338 -3.51498e-11
-5.39657e-11 -3.51498e-11 5.8451

9.64887 -0.529418 2.02843e-11
-0.529418 10.1005 -1.63819e-11
2.02843e-11 -1.63819e-11 9.80036

9.71311 -0.598086 2.94867e-11
-0.598086 10.2254 -3.08382e-12
2.94867e-11 -3.08382e-12 9.87003

7.75122 0.605489 9.7089e-12
0.605489 8.78162 4.12442e-11
9.7089e-12 4.12442e-11 8.11627

8.38739 0.726288 -1.16118e-11
0.726288 9.40804 1.54171e-12
-1.16118e-11 1.54171e-12 8.90328

8.99706 -0.276858 -1.95134e-11
-0.276858 9.72489 1.47437e-11
-1.95134e-11 1.47437e-11 9.47191

9.03966 -0.298511 -3.32448e-12
-0.298511 9.76925 3.75824e-12
-3.32448e-12 3.75824e-12 9.50741

9.45609 0.273371 -8.96194e-12
0.273371 8.54157 -2.72751e-11
-8.96194e-12 -2.72751e-11 8.82426

6.63803 0.239948 -2.99212e-11
0.239948 7.91157 -1.69608e-11
-2.99212e-11 -1.69608e-11 6.51544

6.6164 -0.22955 9.87932e-13
-0.22955 7.90739 4.24016e-12
9.87932e-13 4.24016e-12 6.47866

7.90672 0.196359 -3.93655e-11
0.196359 7.01817 -4.2232e-11
-3.93655e-11 -4.2232e-11 6.6353

7.5283 0.713257 3.15594e-11
0.713257 8.21766 -5.8779e-12
3.15594e-11 -5.8779e-12 7.50802

7.97826 -0.363793 8.23934e-12
-0.363793 6.80745 -1.06241e-11
8.23934e-12 -1.06241e-11 6.97427

8.24395 0.654258 1.18529e-11
0.654258 8.46663 -1.54183e-11
1.18529e-11 -1.54183e-11 8.08208

7.76461 0.712871 -1.39241e-11
0.712871 8.65459 3.61369e-11
-1.39241e-11 3.61369e-11 7.77358

9.10397 -0.153369 -2.51513e-11
-0.153369 7.47291 6.33883e-12
-2.51513e-11 6.33883e-12 8.14745

5.72685 0.551233 2.9404e-11
0.551233 6.77555 3.55597e-11
2.9404e-11 3.55597e-11 5.01917

9.73277 0.0672984 2.17784e-11
0.0672984 7.94789 1.14191e-11
2.17784e-11 1.14191e-11 8.8865

6.62198 0.552264 4.53407e-11
0.552264 5.93891 -4.8301e-12
4.53407e-11 -4.8301e-12 5.03843

9.9423 0.0873568 -3.29076e-11
0.0873568 10.2611 1.32978e-11
-3.29076e-11 1.32978e-11 9.93711

9.93911 0.0305945 1.2768e-12
0.0305945 10.2447 9.63701e-13
1.2768e-12 9.63701e-13 9.93174

11.1364 0.312109 3.60393e-11
0.312109 10.5583 1.04069e-11
3.60393e-11 1.04069e-11 10.5865

11.1443 -0.299225 2.87159e-11
-0.299225 10.5723 -3.20882e-11
2.87159e-11 -3.20882e-11 10.5846

7.67645 -0.230414 -4.8858e-11
-0.230414 6.45634 1.17325e-11
-4.8858e-11 1.17325e-11 6.24308

8.30016 0.704067 5.50236e-11
0.704067 8.83566 2.66934e-11
5.50236e-11 2.66934e-11 8.48175

10.0347 0.12614 -1.98506e-11
0.12614 9.73575 1.53216e-11
-1.98506e-11 1.53216e-11 9.80797

10.0687 -0.114371 2.17781e-11
-0.114371 9.78751 -3.92193e-11
2.17781e-11 -3.92193e-11 9.85965

10.1264 0.000510985 -1.06e-11
0.000510985 8.0859 -2.20421e-12
-1.06e-11 -2.20421e-12 9.15073

7.64693 0.771315 4.86625e-12
0.771315 8.59031 -9.34728e-12
4.86625e-12 -9.34728e-12 7.70143

8.11557 -0.470814 3.99921e-12
-0.470814 7.45036 -1.50326e-11
3.99921e-12 -1.50326e-11 7.2741

9.9392 -0.0452149 1.25274e-11
-0.0452149 7.85333 1.95013e-11
1.25274e-11 1.95013e-11 8.9392

7.46288 -0.714615 -1.10797e-12
-0.714615 8.19016 -1.40693e-11
-1.10797e-12 -1.40693e-11 7.44462

7.58311 -0.613046 5.58925e-12
-0.613046 8.46827 -6.26386e-12
5.58925e-12 -6.26386e-12 7.59987

8.59265 0.815696 2.3657e-11
0.815696 9.61891 -1.24305e-11
2.3657e-11 -1.24305e-11 9.05526

7.43564 -0.761658 -5.49282e-11
-0.761658 7.15223 1.3395e-11
-5.49282e-11 1.3395e-11 6.74496

2.22796 1.55579 -4.45721e-12
1.55579 3.2988 -1.83826e-11
-4.45721e-12 -1.83826e-11 1.71895

3.14566 1.5373 -1.69272e-13
1.5373 2.30903 4.02308e-12
-1.69272e-13 4.02308e-12 1.68577

8.87265 -0.73109 -7.22616e-13
-0.73109 9.77793 -1.35872e-11
-7.22616e-13 -1.35872e-11 9.42352

3.86148 0.652612 -2.36344e-11
0.652612 5.17264 -1.41908e-11
-2.36344e-11 -1.41908e-11 3.07317

4.95352 0.585113 -4.3006e-12
0.585113 3.99887 -1.82378e-11
-4.3006e-12 -1.82378e-11 3.08337

10.2251 -0.507171 6.44656e-11
-0.507171 10.6708 2.31263e-11
6.44656e-11 2.31263e-11 10.3991

10.2227 0.505274 3.49793e-11
0.505274 10.665 1.19489e-11
3.49793e-11 1.19489e-11 10.3992

10.0975 0.0141732 -1.08891e-11
0.0141732 8.95906 -2.67479e-11
-1.08891e-11 -2.67479e-11 9.4198

10.2259 -0.440876 2.84265e-11
-0.440876 10.531 3.53644e-11
2.84265e-11 3.53644e-11 10.4153

10.2242 0.439506 5.95514e-11
0.439506 10.5294 6.07566e-11
5.95514e-11 6.07566e-11 10.4165

7.93817 0.714148 -2.26456e-11
0.714148 9.01849 -4.7315e-11
-2.26456e-11 -4.7315e-11 8.28366

10.983 0.29331 1.88868e-11
0.29331 10.0858 -2.32231e-11
1.88868e-11 -2.32231e-11 10.3722

10.9916 -0.291081 5.18427e-11
-0.291081 10.0814 2.88797e-13
5.18427e-11 2.88797e-13 10.3691

9.58423 -0.585954 -3.70994e-11
-0.585954 9.8937 1.08412e-11
-3.70994e-11 1.08412e-11 9.71884

9.58131 0.582364 6.2634e-12
0.582364 9.89335 -7.7089e-12
6.2634e-12 -7.7089e-12 9.72203

6.63361 -0.632304 -2.06708e-11
-0.632304 5.80189 1.88398e-11
-2.06708e-11 1.88398e-11 5.45383

10.2003 0.285482 1.19609e-11
0.285482 10.9448 -2.46687e-11
1.19609e-11 -2.46687e-11 10.395

10.1504 0.225975 -2.43672e-11
0.225975 10.9059 -2.19706e-11
-2.43672e-11 -2.19706e-11 10.3538

7.6678 -0.785951 -4.52883e-12
-0.785951 8.62964 -2.54403e-11
-4.52883e-12 -2.54403e-11 7.73514

5.39177 -0.519837 2.66934e-11
-0.519837 6.6485 -1.74429e-11
2.66934e-11 -1.74429e-11 4.74247

6.47995 -0.515092 3.66921e-11
-0.515092 5.39179 -2.54593e-11
3.66921e-11 -2.54593e-11 4.67378

8.35278 0.623186 -6.97429e-12
0.623186 9.43269 -2.20674e-11
-6.97429e-12 -2.20674e-11 8.81979

8.25027 0.579939 -9.82941e-12
0.579939 9.26703 -3.46911e-11
-9.82941e-12 -3.46911e-11 8.7262

11.7281 -0.864074 3.37258e-11
-0.864074 11.1392 -7.03464e-12
3.37258e-11 -7.03464e-12 11.3088

11.7278 0.863821 -6.09008e-11
0.863821 11.1408 2.96781e-11
-6.09008e-11 2.96781e-11 11.3101

8.65834 0.884363 -1.14673e-11
0.884363 9.61483 -1.57073e-11
-1.14673e-11 -1.57073e-11 9.17122

9.54367 0.429388 -2.09106e-11
0.429388 9.19075 2.12477e-11
-2.09106e-11 2.12477e-11 9.32578

9.54 -0.436955 6.74546e-12
-0.436955 9.1665 -9.87717e-12
6.74546e-12 -9.87717e-12 9.30363

8.58756 0.8439 -3.35348e-11
0.8439 9.3713 -5.11692e-11
-3.35348e-11 -5.11692e-11 9.04617

8.99919 -0.772997 2.5054e-12
-0.772997 9.9387 1.73458e-12
2.5054e-12 1.73458e-12 9.52212

7.49576 -0.00894516 -4.97736e-11
-0.00894516 6.07403 -8.16692e-12
-4.97736e-11 -8.16692e-12 6.07271

8.06616 0.342841 9.97378e-12
0.342841 6.7808 1.3467e-11
9.97378e-12 1.3467e-11 6.89053

9.83507 0.137659 -1.75381e-11
0.137659 8.89963 -6.07076e-12
-1.75381e-11 -6.07076e-12 9.48847

10.809 -0.215325 -4.37476e-11
-0.215325 10.6989 -4.49046e-11
-4.37476e-11 -4.49046e-11 10.597

10.8113 0.185052 -2.50522e-12
0.185052 10.7163 2.82337e-11
-2.50522e-12 2.82337e-11 10.606

6.92262 0.635539 2.40922e-12
0.635539 7.24411 -8.33548e-12
2.40922e-12 -8.33548e-12 6.28695

8.1847 -0.554386 1.92729e-11
-0.554386 7.91234 -2.74668e-12
1.92729e-11 -2.74668e-12 7.85426

9.51496 0.330574 -1.53218e-11
0.330574 8.80278 1.99955e-12
-1.53218e-11 1.99955e-12 8.90194

10.4298 0.183879 -3.46492e-11
0.183879 10.9448 -3.60397e-11
-3.46492e-11 -3.60397e-11 10.5228

10.4207 0.157231 5.89113e-11
0.157231 10.937 2.11976e-12
5.89113e-11 2.11976e-12 10.5088

9.89877 -0.100162 2.19707e-11
-0.100162 9.01491 1.02143e-11
2.19707e-11 1.02143e-11 9.57496

8.90711 -0.218814 -2.30063e-11
-0.218814 9.62175 -3.68108e-11
-2.30063e-11 -3.68108e-11 9.08436

8.94658 -0.296489 3.72923e-11
-0.296489 9.68628 2.89087e-11
3.72923e-11 2.89087e-11 9.1234

10.3495 -0.202582 3.25705e-11
-0.202582 9.37155 2.3223e-11
3.25705e-11 2.3223e-11 9.88077

10.3676 0.204927 1.71525e-11
0.204927 9.37783 -1.15392e-11
1.71525e-11 -1.15392e-11 9.90248

7.23737 -0.630129 -1.32502e-11
-0.630129 7.21719 1.44866e-13
-1.32502e-11 1.44866e-13 6.37962

9.0731 0.0390051 -2.88991e-13
0.0390051 8.09342 -1.66437e-11
-2.88991e-13 -1.66437e-11 8.17085

10.4289 -0.306524 3.27631e-12
-0.306524 9.85939 2.45721e-12
3.27631e-12 2.45721e-12 10.2143

10.4249 0.303566 5.2951e-11
0.303566 9.8674 5.91421e-11
5.2951e-11 5.91421e-11 10.2215

9.50663 -0.343122 -6.26362e-12
-0.343122 8.81417 -1.90798e-11
-6.26362e-12 -1.90798e-11 8.88873

7.79996 -0.715991 9.15647e-13
-0.715991 8.73895 -3.20897e-11
9.15647e-13 -3.20897e-11 7.82843

10.3551 -0.226927 3.09324e-11
-0.226927 9.49774 -2.3681e-11
3.09324e-11 -2.3681e-11 9.86185

10.3722 0.229027 4.00868e-11
0.229027 9.50424 -3.32435e-12
4.00868e-11 -3.32435e-12 9.88539

9.16309 -0.149142 2.40937e-12
-0.149142 7.98633 -2.16814e-12
2.40937e-12 -2.16814e-12 8.41794

8.88039 1.00663 -8.96151e-12
1.00663 9.81318 2.77524e-11
-8.96151e-12 2.77524e-11 9.32145

7.95417 0.552425 4.97726e-11
0.552425 7.70756 1.36841e-11
4.97726e-11 1.36841e-11 7.30429

8.66872 0.85347 -3.17033e-11
0.85347 9.69477 -1.14674e-11
-3.17033e-11 -1.14674e-11 9.22384

8.83207 0.953393 1.61406e-11
0.953393 9.88428 -7.70888e-12
1.61406e-11 -7.70888e-12 9.33712

8.35902 0.409614 3.20892e-11
0.409614 7.45827 -1.43822e-11
3.20892e-11 -1.43822e-11 7.4422

8.95964 -0.338142 -4.02804e-11
-0.338142 8.46075 2.55846e-11
-4.02804e-11 2.55846e-11 8.76371

9.04327 0.18418 3.85525e-13
0.18418 7.95352 -8.0461e-12
3.85525e-13 -8.0461e-12 8.28607

7.25219 0.699958 2.36103e-12
0.699958 7.43585 -7.22829e-13
2.36103e-12 -7.22829e-13 6.90957

8.08175 0.567667 1.39726e-11
0.567667 7.85788 -2.64522e-11
1.39726e-11 -2.64522e-11 7.78723

8.10974 0.0495526 7.39104e-11
0.0495526 9.16341 2.02364e-12
7.39104e-11 2.02364e-12 8.64403

8.1236 0.0779858 -2.51867e-11
0.0779858 9.17226 -2.94876e-11
-2.51867e-11 -2.94876e-11 8.6512

7.00778 -0.712621 -1.30093e-11
-0.712621 6.44055 -8.41272e-11
-1.30093e-11 -8.41272e-11 5.96542

8.59621 -0.85055 1.34909e-11
-0.85055 9.38751 1.5419e-12
1.34909e-11 1.5419e-12 9.06102

7.46883 -0.835883 2.32718e-11
-0.835883 8.03865 2.68371e-11
2.32718e-11 2.68371e-11 7.18003

7.45333 0.85618 1.68633e-11
0.85618 8.00904 -1.92248e-11
1.68633e-11 -1.92248e-11 7.16102

8.96545 -0.309697 1.48401e-11
-0.309697 8.20144 -1.05515e-11
1.48401e-11 -1.05515e-11 8.3678

10.2227 -0.0460678 7.5163e-12
-0.0460678 8.3317 -7.22711e-12
7.5163e-12 -7.22711e-12 9.44445

10.2153 0.05178 1.92734e-12
0.05178 8.33272 2.15368e-11
1.92734e-12 2.15368e-11 9.4213

7.02379 0.455228 -1.37319e-11
0.455228 8.14452 -2.6019e-12
-1.37319e-11 -2.6019e-12 7.16455

8.24302 -0.688219 1.05038e-11
-0.688219 8.4497 -1.71048e-11
1.05038e-11 -1.71048e-11 8.06043

5.90871 -0.0152906 1.53342e-11
-0.0152906 7.53747 -1.46959e-11
1.53342e-11 -1.46959e-11 6.06995

5.88883 0.0336793 1.01908e-11
0.0336793 7.53934 -1.19495e-11
1.01908e-11 -1.19495e-11 6.04438

7.56074 -0.00544114 2.50072e-11
-0.00544114 6.20449 3.62575e-11
2.50072e-11 3.62575e-11 6.16826

7.22847 0.66918 -2.14413e-11
0.66918 7.24244 -1.1034e-11
-2.14413e-11 -1.1034e-11 6.36892

7.70482 -0.784289 -2.91992e-11
-0.784289 7.61285 5.39163e-11
-2.91992e-11 5.39163e-11 7.17017

10.5891 -0.389899 -5.98684e-11
-0.389899 11.4303 6.74609e-12
-5.98684e-11 6.74609e-12 10.7374

10.5991 -0.360872 5.34304e-11
-0.360872 11.4352 1.94649e-11
5.34304e-11 1.94649e-11 10.7459

8.44874 -0.401166 -1.20458e-11
-0.401166 7.50384 -2.52947e-12
-1.20458e-11 -2.52947e-12 7.5219

8.41795 0.935462 1.04554e-11
0.935462 9.44165 -1.44528e-12
1.04554e-11 -1.44528e-12 8.75462

10.0952 -0.0238654 -2.01402e-11
-0.0238654 8.94713 3.03135e-11
-2.01402e-11 3.03135e-11 9.40411

7.02488 -0.448065 1.45751e-11
-0.448065 8.19376 -1.05041e-11
1.45751e-11 -1.05041e-11 7.18346

9.02167 0.839561 7.4681e-12
0.839561 10.0125 1.25273e-11
7.4681e-12 1.25273e-11 9.57295

8.83214 0.790846 4.04736e-12
0.790846 9.82335 1.92723e-12
4.04736e-12 1.92723e-12 9.44163

8.89665 -1.00469 8.76923e-12
-1.00469 9.82396 -2.77528e-11
8.76923e-12 -2.77528e-11 9.33411

8.91536 0.970072 -2.91014e-11
0.970072 10.0495 -1.6286e-11
-2.91014e-11 -1.6286e-11 9.46038

8.22773 0.818839 -1.82605e-11
0.818839 9.18149 1.84055e-11
-1.82605e-11 1.84055e-11 8.58895

10.9764 0.00194074 -8.86528e-12
0.00194074 9.87062 -3.9493e-12
-8.86528e-12 -3.9493e-12 10.5238

7.69383 0.769698 1.15641e-11
0.769698 7.52164 1.12748e-11
1.15641e-11 1.12748e-11 7.1102

8.66859 -0.860782 2.34158e-11
-0.860782 9.68892 1.37798e-11
2.34158e-11 1.37798e-11 9.2225

7.87859 0.673059 -7.70661e-13
0.673059 8.18556 4.96763e-11
-7.70661e-13 4.96763e-11 7.50399

6.68555 -0.581527 1.77794e-11
-0.581527 7.08852 2.08633e-11
1.77794e-11 2.08633e-11 6.05464

8.30604 -0.713356 -2.40945e-12
-0.713356 8.87802 2.66927e-11
-2.40945e-12 2.66927e-11 8.49739

6.86563 -0.405638 -1.25515e-11
-0.405638 8.17302 2.69345e-11
-1.25515e-11 2.69345e-11 6.74911

6.82866 0.395385 -3.34504e-11
0.395385 8.12935 -1.93698e-11
-3.34504e-11 -1.93698e-11 6.71559

8.02261 -0.278342 4.01846e-11
-0.278342 7.19687 -1.24192e-11
4.01846e-11 -1.24192e-11 6.79621

7.8735 -0.691472 -1.92728e-11
-0.691472 8.18258 -5.3579e-11
-1.92728e-11 -5.3579e-11 7.48706

7.98402 0.107234 -1.15637e-11
0.107234 9.05069 -1.63836e-12
-1.15637e-11 -1.63836e-12 8.09242

7.97831 -0.000717229 6.07329e-11
-0.000717229 9.03373 -1.5033e-11
6.07329e-11 -1.5033e-11 8.08651

6.44502 -0.798169 -2.32726e-11
-0.798169 6.94725 2.7561e-11
-2.32726e-11 2.7561e-11 5.89593

6.41785 0.808077 -2.35135e-11
0.808077 6.98686 -6.79423e-12
-2.35135e-11 -6.79423e-12 5.93669

10.8587 -0.069943 -2.06216e-11
-0.069943 9.60766 9.58783e-12
-2.06216e-11 9.58783e-12 10.3461

10.8659 0.0734432 -1.05998e-11
0.0734432 9.61153 -1.60441e-11
-1.05998e-11 -1.60441e-11 10.3544

8.58952 0.881205 -1.79233e-11
0.881205 9.54261 3.13181e-11
-1.79233e-11 3.13181e-11 8.91694

8.82533 -0.80463 -2.60176e-12
-0.80463 9.83962 4.62536e-12
-2.60176e-12 4.62536e-12 9.42568

8.6277 0.582824 1.17566e-11
0.582824 8.9398 3.392e-11
1.17566e-11 3.392e-11 8.79138

6.65355 0.644409 9.5889e-12
0.644409 5.81341 1.37562e-11
9.5889e-12 1.37562e-11 5.25828

7.13919 0.551926 -1.96097e-11
0.551926 8.42074 2.98733e-11
-1.96097e-11 2.98733e-11 7.3148

10.1431 0.380454 -5.97454e-12
0.380454 10.0978 -1.80677e-11
-5.97454e-12 -1.80677e-11 10.1241

10.1468 -0.38327 8.09439e-11
-0.38327 10.1007 2.04282e-11
8.09439e-11 2.04282e-11 10.122

9.59921 -0.522688 -8.19058e-12
-0.522688 9.49593 -3.21852e-11
-8.19058e-12 -3.21852e-11 9.37214

9.59409 0.518589 -2.10069e-11
0.518589 9.4945 -1.49363e-11
-2.10069e-11 -1.49363e-11 9.3757

4.21244 0.172421 -4.10526e-11
0.172421 6.27981 -3.68372e-11
-4.10526e-11 -3.68372e-11 3.35057

6.05151 0.178499 1.11068e-11
0.178499 4.40662 -1.86591e-11
1.11068e-11 -1.86591e-11 3.34549

7.12319 -0.523806 -1.23585e-11
-0.523806 8.45116 -3.2475e-11
-1.23585e-11 -3.2475e-11 7.34169

11.0246 -0.416099 -1.27197e-11
-0.416099 11.1331 6.84162e-11
-1.27197e-11 6.84162e-11 11.0276

11.0218 0.417476 -7.70948e-13
0.417476 11.1323 5.69491e-11
-7.70948e-13 5.69491e-11 11.0278

8.78868 0.639353 3.20891e-11
0.639353 8.81764 -7.08222e-12
3.20891e-11 -7.08222e-12 8.49214

6.87296 0.350947 2.43571e-11
0.350947 5.49644 -2.41397e-11
2.43571e-11 -2.41397e-11 5.21994

9.07596 -0.0662556 4.04715e-12
-0.0662556 8.09989 1.68177e-12
4.04715e-12 1.68177e-12 8.17349

8.25398 -0.462824 1.17926e-11
-0.462824 9.25393 -1.70564e-11
1.17926e-11 -1.70564e-11 8.72765

8.3638 -0.505765 -1.82366e-11
-0.505765 9.37235 1.43584e-11
-1.82366e-11 1.43584e-11 8.81541

7.22714 -0.761441 -5.63763e-12
-0.761441 7.50856 2.79943e-11
-5.63763e-12 2.79943e-11 6.84057

8.92328 -0.974154 -1.97544e-11
-0.974154 10.0664 1.01185e-11
-1.97544e-11 1.01185e-11 9.47143

8.78708 -0.646332 1.48403e-11
-0.646332 8.82608 -1.13229e-11
1.48403e-11 -1.13229e-11 8.48271

8.53105 0.934175 -2.29827e-11
0.934175 9.60101 -2.74639e-11
-2.29827e-11 -2.74639e-11 9.15143

9.69521 0.676652 1.22379e-11
0.676652 10.2334 -1.30089e-11
1.22379e-11 -1.30089e-11 9.88866

9.62883 0.615409 -5.34326e-11
0.615409 10.0812 4.14326e-12
-5.34326e-11 4.14326e-12 9.81099

8.59798 -0.885084 -5.15531e-12
-0.885084 9.57543 -3.42089e-11
-5.15531e-12 -3.42089e-11 8.94126

8.38627 0.799327 3.97014e-11
0.799327 9.23887 -3.75768e-12
3.97014e-11 -3.75768e-12 8.70774

7.72955 0.551225 1.27681e-11
0.551225 6.89322 -1.3925e-11
1.27681e-11 -1.3925e-11 6.78862

8.82582 1.02711 -1.20452e-11
1.02711 9.90632 1.03107e-11
-1.20452e-11 1.03107e-11 9.37251

7.7669 -0.627322 5.37196e-12
-0.627322 8.83248 1.80203e-11
5.37196e-12 1.80203e-11 8.14812

7.37616 0.244183 -4.01836e-11
0.244183 8.65595 3.36314e-11
-4.01836e-11 3.36314e-11 7.72513

8.85762 0.741014 2.54399e-11
0.741014 9.18624 -6.84143e-12
2.54399e-11 -6.84143e-12 8.89671

7.51533 0.31335 6.28758e-12
0.31335 8.74808 1.63828e-12
6.28758e-12 1.63828e-12 7.82029

9.02516 -0.872306 4.33524e-13
-0.872306 10.0346 3.85449e-12
4.33524e-13 3.85449e-12 9.55803

4.79711 -0.745208 3.59815e-11
-0.745208 4.87889 2.89343e-11
3.59815e-11 2.89343e-11 3.72143

4.81914 -0.75328 -3.8521e-13
-0.75328 4.82306 -7.50513e-12
-3.8521e-13 -7.50513e-12 3.70652

8.85752 -0.745458 6.26355e-12
-0.745458 9.18673 -1.54201e-12
6.26355e-12 -1.54201e-12 8.89271

9.44071 -0.280434 1.26236e-11
-0.280434 8.53453 4.10023e-11
1.26236e-11 4.10023e-11 8.8077

11.7761 0.891873 5.06851e-11
0.891873 11.3614 -7.15951e-11
5.06851e-11 -7.15951e-11 11.3641

11.7764 -0.891961 5.62741e-11
-0.891961 11.3617 8.69156e-11
5.62741e-11 8.69156e-11 11.3633

8.4475 -0.929728 -2.12019e-12
-0.929728 9.49153 2.06218e-11
-2.12019e-12 2.06218e-11 8.80645

10.0717 0.193811 -2.56323e-11
0.193811 10.2436 -2.30306e-11
-2.56323e-11 -2.30306e-11 10.1635

10.0844 -0.177921 -1.71522e-11
-0.177921 10.2562 -3.84484e-11
-1.71522e-11 -3.84484e-11 10.1682

9.58737 0.0110262 2.3802e-11
0.0110262 7.73057 5.70194e-12
2.3802e-11 5.70194e-12 8.52788

8.52606 -0.938691 2.1682e-11
-0.938691 9.6133 -2.90057e-11
2.1682e-11 -2.90057e-11 9.14763

5.28474 0.90761 1.46237e-11
0.90761 5.36322 2.75854e-11
1.46237e-11 2.75854e-11 4.33696

5.19219 0.860183 2.9019e-11
0.860183 5.36469 6.07124e-12
2.9019e-11 6.07124e-12 4.34175

5.60322 -0.646119 1.31781e-11
-0.646119 6.79022 -9.54063e-12
1.31781e-11 -9.54063e-12 5.08118

5.71598 0.677486 -3.89011e-12
0.677486 6.89181 1.301e-11
-3.89011e-12 1.301e-11 5.19085

6.71143 -0.537404 -5.50739e-11
-0.537404 5.8251 -2.31518e-11
-5.50739e-11 -2.31518e-11 5.11453

8.82958 -1.03159 -3.68103e-11
-1.03159 9.93701 -1.09848e-11
-3.68103e-11 -1.09848e-11 9.38074

4.43424 0.238156 -1.30094e-11
0.238156 6.2539 4.55824e-11
-1.30094e-11 4.55824e-11 4.35726

6.1665 0.303915 -5.54105e-12
0.303915 4.72026 -5.08339e-12
-5.54105e-12 -5.08339e-12 4.42152

9.98502 -0.319499 1.24906e-11
-0.319499 10.5069 1.17561e-11
1.24906e-11 1.17561e-11 10.1626

10.0483 -0.386095 -1.60683e-11
-0.386095 10.5554 -4.4324e-12
-1.60683e-11 -4.4324e-12 10.2069

9.73732 0.117739 1.22384e-11
0.117739 8.74463 -1.96579e-11
1.22384e-11 -1.96579e-11 9.09384

10.0966 0.00754129 -3.66181e-12
0.00754129 7.90908 2.05371e-11
-3.66181e-12 2.05371e-11 9.11183

6.63307 -0.586544 -2.2116e-11
-0.586544 7.67734 1.00707e-11
-2.2116e-11 1.00707e-11 6.50019

6.59509 0.573674 -1.37322e-11
0.573674 7.64804 -2.997e-11
-1.37322e-11 -2.997e-11 6.47411

9.59478 0.000415978 3.77748e-11
0.000415978 7.7143 1.82411e-11
3.77748e-11 1.82411e-11 8.55404

7.9663 -0.710363 5.54104e-12
-0.710363 9.07474 -1.64782e-11
5.54104e-12 -1.64782e-11 8.33393

10.8583 -0.298974 8.6725e-12
-0.298974 10.7877 1.62847e-11
8.6725e-12 1.62847e-11 10.785

10.8518 0.298361 4.09536e-11
0.298361 10.7847 4.9096e-11
4.09536e-11 4.9096e-11 10.7845

9.05816 0.416687 1.64781e-11
0.416687 9.13681 -1.86943e-11
1.64781e-11 -1.86943e-11 8.97817

8.36157 -0.795772 -3.7871e-11
-0.795772 9.23646 2.08149e-11
-3.7871e-11 2.08149e-11 8.69751

9.53261 0.118872 1.24311e-11
0.118872 8.0045 3.07878e-11
1.24311e-11 3.07878e-11 8.77848

6.76118 0.661888 -2.90068e-11
0.661888 6.63841 -2.7561e-11
-2.90068e-11 -2.7561e-11 6.00043

8.23553 -0.818426 4.19123e-12
-0.818426 9.18636 4.40384e-11
4.19123e-12 4.40384e-11 8.59828

2.47094 -1.43147 1.79378e-11
-1.43147 2.52134 -4.55954e-11
1.79378e-11 -4.55954e-11 1.39591

7.41536 -0.196053 2.03809e-11
-0.196053 8.62875 7.90175e-12
2.03809e-11 7.90175e-12 7.7301

7.52587 -0.267983 -8.31135e-12
-0.267983 8.70136 -1.42621e-11
-8.31135e-12 -1.42621e-11 7.80237

10.071 -0.0637187 4.81358e-12
-0.0637187 10.4447 -2.64032e-11
4.81358e-12 -2.64032e-11 10.2151

10.082 -0.0371232 5.57551e-12
-0.0371232 10.4383 -4.35556e-11
5.57551e-12 -4.35556e-11 10.2175

11.0807 -0.221448 3.46909e-12
-0.221448 10.1361 -2.01876e-11
3.46909e-12 -2.01876e-11 10.7299

11.0802 0.221759 -1.92717e-12
0.221759 10.1396 2.47886e-11
-1.92717e-12 2.47886e-11 10.7359

9.26505 -0.437337 8.57623e-12
-0.437337 9.36943 -1.90796e-11
8.57623e-12 -1.90796e-11 9.42078

9.23972 0.451321 -1.57072e-11
0.451321 9.27005 -1.02146e-11
-1.57072e-11 -1.02146e-11 9.35672

9.97468 -0.38867 1.48395e-11
-0.38867 10.4031 2.65959e-11
1.48395e-11 2.65959e-11 10.117

9.9642 0.404671 -1.21415e-11
0.404671 10.3975 -2.79444e-12
-1.21415e-11 -2.79444e-12 10.1121

11.3277 0.604091 4.23928e-12
0.604091 11.2746 -3.36298e-11
4.23928e-12 -3.36298e-11 11.1695

11.3283 -0.603183 -3.17992e-11
-0.603183 11.275 4.99144e-11
-3.17992e-11 4.99144e-11 11.1686

9.32637 -0.999894 -4.81966e-13
-0.999894 10.2124 2.80417e-11
-4.81966e-13 2.80417e-11 9.79894

9.33 1.0034 1.43578e-11
1.0034 10.203 -2.9294e-11
1.43578e-11 -2.9294e-11 9.80112

8.73169 0.592964 3.4691e-11
0.592964 8.45128 8.67894e-13
3.4691e-11 8.67894e-13 8.33704

8.13155 -0.471164 -2.58978e-11
-0.471164 9.06102 3.25712e-11
-2.58978e-11 3.25712e-11 8.31374

8.2284 -0.587121 -1.32497e-12
-0.587121 9.24618 -1.93692e-11
-1.32497e-12 -1.93692e-11 8.4284

6.9147 -0.59151 -1.49849e-11
-0.59151 6.74672 -3.53662e-11
-1.49849e-11 -3.53662e-11 5.96607

8.72586 -0.592007 1.62855e-11
-0.592007 8.46734 -7.75733e-12
1.62855e-11 -7.75733e-12 8.33025

8.10554 0.444531 -3.95078e-12
0.444531 9.01834 2.66929e-11
-3.95078e-12 2.66929e-11 8.28161

8.25499 0.832469 -2.86201e-11
0.832469 8.57387 5.87772e-12
-2.86201e-11 5.87772e-12 8.08821

8.91159 -0.867265 -3.6618e-11
-0.867265 9.77467 1.79238e-11
-3.6618e-11 1.79238e-11 9.47568

8.92561 0.851267 2.23567e-11
0.851267 9.7775 3.074e-11
2.23567e-11 3.074e-11 9.48492

8.23703 -0.844941 -8.86528e-12
-0.844941 8.56308 -2.63071e-11
-8.86528e-12 -2.63071e-11 8.07044

9.83142 -0.0809112 -7.22747e-12
-0.0809112 8.85725 2.57288e-11
-7.22747e-12 2.57288e-11 9.22219

10.6386 0.2414 -1.61356e-10
0.2414 11.0501 1.63799e-11
-1.61356e-10 1.63799e-11 10.6628

10.6636 0.212985 -1.85373e-11
0.212985 11.0418 5.66604e-11
-1.85373e-11 5.66604e-11 10.6737

8.90119 -0.745946 1.83096e-12
-0.745946 9.77426 -2.89082e-12
1.83096e-12 -2.89082e-12 9.20419

8.82634 0.362095 2.35127e-11
0.362095 8.35526 -3.08356e-12
2.35127e-11 -3.08356e-12 8.63062

10.4884 -0.092377 2.40908e-11
-0.092377 9.23678 -5.1746e-11
2.40908e-11 -5.1746e-11 9.83758

5.14812 -0.798581 1.71059e-11
-0.798581 5.26968 -9.10723e-12
1.71059e-11 -9.10723e-12 4.06527

5.18906 -0.780093 5.44478e-11
-0.780093 5.29471 -1.72023e-11
5.44478e-11 -1.72023e-11 4.09897

11.0317 -0.247118 2.23561e-11
-0.247118 10.0657 4.38422e-12
2.23561e-11 4.38422e-12 10.655

11.0221 0.251269 -7.70754e-13
0.251269 10.0676 6.26826e-11
-7.70754e-13 6.26826e-11 10.6572

10.515 0.0765128 9.63629e-12
0.0765128 9.28444 -1.01209e-12
9.63629e-12 -1.01209e-12 9.86867

8.22635 0.582596 -1.78754e-11
0.582596 9.2126 -3.01622e-11
-1.78754e-11 -3.01622e-11 8.41228

8.54064 0.456971 3.20897e-11
0.456971 8.04678 -5.39636e-12
3.20897e-11 -5.39636e-12 7.74541

9.59619 -0.66102 -6.56226e-11
-0.66102 10.0627 -8.47904e-12
-6.56226e-11 -8.47904e-12 9.73458

9.59315 0.655895 -3.98934e-11
0.655895 10.0616 1.56104e-11
-3.98934e-11 1.56104e-11 9.73667

11.0453 -0.119384 -3.0643e-11
-0.119384 10.3988 1.44131e-12
-3.0643e-11 1.44131e-12 10.6119

11.0648 0.120778 1.46469e-11
0.120778 10.4969 -8.00666e-11
1.46469e-11 -8.00666e-11 10.6469

8.55304 -0.854869 9.73279e-12
-0.854869 9.6176 -2.43802e-11
9.73279e-12 -2.43802e-11 9.06152

8.90205 0.363577 1.92724e-12
0.363577 8.17257 -3.24263e-11
1.92724e-12 -3.24263e-11 8.25847

10.5145 0.248406 5.6275e-11
0.248406 10.1962 -5.14566e-11
5.6275e-11 -5.14566e-11 10.325

10.521 -0.249714 -1.10815e-11
-0.249714 10.1962 -9.00962e-12
-1.10815e-11 -9.00962e-12 10.3232

8.77822 -0.664598 1.67673e-11
-0.664598 9.581 -2.27419e-11
1.67673e-11 -2.27419e-11 9.08968

8.59693 -0.913357 -2.69813e-11
-0.913357 9.61493 -7.03439e-12
-2.69813e-11 -7.03439e-12 9.14608

2.5553 -1.48398 3.69585e-11
-1.48398 2.63318 -1.38057e-11
3.69585e-11 -1.38057e-11 1.47329

9.26086 0.62189 5.09752e-11
0.62189 10.1388 -2.44758e-11
5.09752e-11 -2.44758e-11 9.73475

9.25667 -0.63136 -1.4069e-11
-0.63136 10.1484 2.90053e-11
-1.4069e-11 2.90053e-11 9.73902

8.34532 -0.790955 -1.87856e-12
-0.790955 9.39642 -3.12219e-11
-1.87856e-12 -3.12219e-11 8.90104

8.63906 -0.49309 -2.28389e-11
-0.49309 8.0967 4.87603e-11
-2.28389e-11 4.87603e-11 7.81988

9.17467 -0.392933 -3.06434e-11
-0.392933 9.20451 -1.93689e-11
-3.06434e-11 -1.93689e-11 9.0686

9.26138 0.537189 1.91754e-11
0.537189 9.70656 -6.86102e-11
1.91754e-11 -6.86102e-11 9.50995

9.25625 -0.557621 1.70567e-11
-0.557621 9.73054 -3.89306e-11
1.70567e-11 -3.89306e-11 9.51945

9.6033 -0.0784 -1.06964e-11
-0.0784 8.0538 -8.96177e-12
-1.06964e-11 -8.96177e-12 8.88475

11.1323 0.192972 -6.9378e-12
0.192972 10.5948 -9.65755e-14
-6.9378e-12 -9.65755e-14 10.914

11.1445 -0.191053 1.05996e-11
-0.191053 10.5959 -2.17777e-11
1.05996e-11 -2.17777e-11 10.9167

10.6123 0.0877274 -8.03194e-11
0.0877274 11.5769 -4.43298e-12
-8.03194e-11 -4.43298e-12 10.7161

10.626 0.0588518 -3.22478e-11
0.0588518 11.5795 -3.52682e-11
-3.22478e-11 -3.52682e-11 10.7223

4.03129 0.0621853 -1.85266e-11
0.0621853 6.21845 2.71041e-11
-1.85266e-11 2.71041e-11 3.26824

5.9309 0.0552835 -3.54102e-12
0.0552835 4.04555 1.00586e-11
-3.54102e-12 1.00586e-11 3.2132

9.17993 -0.851758 8.67244e-12
-0.851758 10.0959 -5.39673e-12
8.67244e-12 -5.39673e-12 9.54737

9.18104 0.849368 4.4712e-11
0.849368 10.0916 -1.77302e-11
4.4712e-11 -1.77302e-11 9.54934

8.76832 -0.972666 1.19973e-11
-0.972666 9.89235 -3.58473e-11
1.19973e-11 -3.58473e-11 9.31411

3.46445 -0.69742 9.56479e-12
-0.69742 5.07433 1.92983e-11
9.56479e-12 1.92983e-11 2.78186

4.94821 -0.666894 1.42144e-11
-0.666894 3.63765 2.79951e-11
1.42144e-11 2.79951e-11 2.81179

11.1421 -0.893769 -1.29139e-11
-0.893769 11.849 8.8267e-11
-1.29139e-11 8.8267e-11 11.4018

11.1412 0.893605 -1.11757e-11
0.893605 11.8492 1.47335e-10
-1.11757e-11 1.47335e-10 11.4025

8.64943 -0.58806 -1.16603e-11
-0.58806 8.96302 3.54617e-11
-1.16603e-11 3.54617e-11 8.82525

8.29086 -0.816419 1.77311e-11
-0.816419 8.8608 -1.49365e-11
1.77311e-11 -1.49365e-11 8.26576

9.08704 -0.859689 2.6114e-11
-0.859689 9.74143 3.82557e-11
2.6114e-11 3.82557e-11 9.37326

9.08527 0.856342 3.11253e-11
0.856342 9.73767 1.94655e-11
3.11253e-11 1.94655e-11 9.37428

8.48774 -0.922872 -2.50544e-11
-0.922872 9.29357 -1.82123e-11
-2.50544e-11 -1.82123e-11 8.71623

8.2888 0.81665 -4.5869e-11
0.81665 8.83396 -1.92798e-12
-4.5869e-11 -1.92798e-12 8.25696

5.53017 -0.264375 3.34271e-11
-0.264375 7.05404 -5.97444e-12
3.34271e-11 -5.97444e-12 5.17927

5.44994 0.320185 -4.64962e-12
0.320185 6.94613 1.26243e-11
-4.64962e-12 1.26243e-11 5.15297

6.93329 -0.201315 -6.47588e-11
-0.201315 5.84423 1.80448e-11
-6.47588e-11 1.80448e-11 5.24547

8.48532 0.918074 -3.06433e-11
0.918074 9.27907 9.34676e-12
-3.06433e-11 9.34676e-12 8.70679

4.36411 -0.164678 -4.79434e-12
-0.164678 6.27898 -1.44662e-13
-4.79434e-12 -1.44662e-13 4.29238

6.101 -0.159517 2.83084e-11
-0.159517 4.40267 -2.14779e-11
2.83084e-11 -2.14779e-11 4.23727

9.54795 -0.841143 -3.93161e-11
-0.841143 10.2179 2.32237e-11
-3.93161e-11 2.32237e-11 9.87873

9.55173 0.836366 1.59958e-11
0.836366 10.2158 -2.87158e-11
1.59958e-11 -2.87158e-11 9.88228

9.6795 -0.730621 -3.99902e-11
-0.730621 10.3954 -6.16688e-12
-3.99902e-11 -6.16688e-12 10.0231

9.68032 0.727756 -1.30084e-11
0.727756 10.3909 4.72174e-11
-1.30084e-11 4.72174e-11 10.0246

3.29917 -0.701215 4.05715e-11
-0.701215 4.87337 6.25611e-13
4.05715e-11 6.25611e-13 2.57862

4.73537 -0.649004 -7.37469e-11
-0.649004 3.34314 -3.64031e-11
-7.37469e-11 -3.64031e-11 2.55167

8.94349 0.774598 2.48619e-11
0.774598 9.52241 -1.70562e-11
2.48619e-11 -1.70562e-11 9.05417

8.94688 -0.78086 2.53435e-11
-0.78086 9.53309 1.37797e-11
2.53435e-11 1.37797e-11 9.05471

10.2724 -0.126729 -3.43982e-11
-0.126729 10.5694 9.25068e-12
-3.43982e-11 9.25068e-12 10.3266

10.2889 -0.167189 -1.50971e-11
-0.167189 10.5997 5.03008e-11
-1.50971e-11 5.03008e-11 10.3441

9.55235 -0.845743 -2.11973e-12
-0.845743 10.5989 -3.11251e-11
-2.11973e-12 -3.11251e-11 10.0713

9.55039 0.849685 2.01398e-11
0.849685 10.5925 1.83091e-11
2.01398e-11 1.83091e-11 10.0724

10.747 -0.327168 1.74415e-11
-0.327168 10.3757 -2.24527e-11
1.74415e-11 -2.24527e-11 10.6555

10.7414 0.327256 1.32978e-11
0.327256 10.3773 -6.89466e-11
1.32978e-11 -6.89466e-11 10.656

8.85418 0.699892 -3.16074e-11
0.699892 9.54949 -4.70255e-11
-3.16074e-11 -4.70255e-11 9.18979

8.85384 -0.697095 2.33202e-11
-0.697095 9.58191 -2.17783e-11
2.33202e-11 -2.17783e-11 9.20291

10.2073 -0.262364 2.14282e-11
-0.262364 11.243 3.77739e-11
2.14282e-11 3.77739e-11 10.4994

11.4309 -0.477147 9.05802e-12
-0.477147 11.1803 1.4454e-11
9.05802e-12 1.4454e-11 11.2698

11.3841 -0.487562 3.70025e-11
-0.487562 11.187 -4.23987e-12
3.70025e-11 -4.23987e-12 11.2644

11.4231 0.479823 -1.32977e-11
0.479823 11.1791 -1.66705e-11
-1.32977e-11 -1.66705e-11 11.2678

11.382 0.488753 -1.40689e-11
0.488753 11.1864 -7.42944e-11
-1.40689e-11 -7.42944e-11 11.2645

10.1532 -0.203706 -2.31506e-11
-0.203706 11.223 -3.66165e-12
-2.31506e-11 -3.66165e-12 10.4639

10.6055 -0.537932 6.16602e-12
-0.537932 10.5855 9.48195e-11
6.16602e-12 9.48195e-11 10.4237

10.5825 0.556519 -2.64032e-11
0.556519 10.5946 -6.5524e-12
-2.64032e-11 -6.5524e-12 10.4286

11.0173 -0.695208 -3.95031e-11
-0.695208 11.4033 -1.49453e-10
-3.95031e-11 -1.49453e-10 11.0128

13.2027 -0.522535 1.0326e-09
-0.522535 11.3268 4.95094e-11
1.0326e-09 4.95094e-11 11.618

13.2027 0.522149 7.55856e-10
0.522149 11.3286 -3.58634e-10
7.55856e-10 -3.58634e-10 11.6194

11.0156 0.695569 -1.40108e-10
0.695569 11.4023 -2.24714e-10
-1.40108e-10 -2.24714e-10 11.0137

11.1369 -0.738217 3.94118e-11
-0.738217 11.1085 -3.5658e-12
3.94118e-11 -3.5658e-12 10.9145

10.3498 -0.59315 1.11778e-11
-0.59315 10.9435 -4.81819e-12
1.11778e-11 -4.81819e-12 10.5399

11.3128 -0.564619 1.29122e-11
-0.564619 11.307 -4.10497e-11
1.29122e-11 -4.10497e-11 11.1719

11.1357 0.738591 -3.60394e-11
0.738591 11.1053 -5.46371e-11
-3.60394e-11 -5.46371e-11 10.9151

11.3123 0.565116 1.42616e-11
0.565116 11.3076 -5.19385e-11
1.42616e-11 -5.19385e-11 11.1731

10.3495 0.593 7.19821e-11
0.593 10.9392 1.49366e-11
7.19821e-11 1.49366e-11 10.5405

10.3785 -0.610902 1.9754e-11
-0.610902 10.9632 3.85444e-11
1.9754e-11 3.85444e-11 10.646

11.0089 -0.496557 1.85012e-11
-0.496557 11.1963 -3.41121e-11
1.85012e-11 -3.41121e-11 11.0029

10.3783 0.610493 5.40582e-11
0.610493 10.9599 -1.78263e-11
5.40582e-11 -1.78263e-11 10.6467

11.0061 0.495848 5.78204e-13
0.495848 11.1928 7.03426e-12
5.78204e-13 7.03426e-12 11.0028

8.86369 0.402511 7.51658e-12
0.402511 9.36114 7.90175e-12
7.51658e-12 7.90175e-12 9.0588

8.34831 -0.115724 -1.25271e-11
-0.115724 9.57537 -1.96581e-11
-1.25271e-11 -1.96581e-11 9.02582

8.60287 -0.128559 -9.25092e-12
-0.128559 7.42901 -7.51513e-12
-9.25092e-12 -7.51513e-12 8.13257

8.26772 0.00430547 -6.74581e-12
0.00430547 7.1516 5.7869e-13
-6.74581e-12 5.7869e-13 7.66837

8.98753 0.404555 3.68102e-11
0.404555 9.5782 -1.56106e-11
3.68102e-11 -1.56106e-11 9.46731

8.55996 -0.175801 -3.6616e-12
-0.175801 10.221 5.01091e-12
-3.6616e-12 5.01091e-12 9.51936

8.27786 0.226262 8.86554e-12
0.226262 7.16641 2.89011e-12
8.86554e-12 2.89011e-12 7.70061

9.3992 0.288557 3.85853e-13
0.288557 8.24655 2.11999e-11
3.85853e-13 2.11999e-11 9.10197

5.90749 0.57223 3.46951e-12
0.57223 6.7138 1.34908e-11
3.46951e-12 1.34908e-11 6.17826

5.94692 0.553867 3.2379e-11
0.553867 6.72603 3.18011e-11
3.2379e-11 3.18011e-11 6.11846

6.58607 0.497882 -2.48619e-11
0.497882 5.85732 -1.19495e-11
-2.48619e-11 -1.19495e-11 6.02494

9.54098 0.253033 1.13701e-11
0.253033 10.2014 -2.19708e-11
1.13701e-11 -2.19708e-11 9.80953

9.61518 -0.490254 7.7095e-12
-0.490254 9.88609 -3.66196e-12
7.7095e-12 -3.66196e-12 9.75771

8.27502 -0.61992 2.96797e-11
-0.61992 8.45092 2.38982e-11
2.96797e-11 2.38982e-11 8.30931

8.53348 0.211214 1.92721e-12
0.211214 10.2257 -1.54174e-12
1.92721e-12 -1.54174e-12 9.49049

8.94069 -0.234697 -1.36834e-11
-0.234697 9.50859 3.85436e-12
-1.36834e-11 3.85436e-12 9.4247

8.91705 0.158057 4.81291e-13
0.158057 7.53234 -1.38759e-11
4.81291e-13 -1.38759e-11 8.24177

6.4017 0.263944 5.20362e-12
0.263944 7.5183 -1.38775e-11
5.20362e-12 -1.38775e-11 6.72749

6.563 0.200352 3.7101e-11
0.200352 7.4245 5.41574e-11
3.7101e-11 5.41574e-11 6.70624

7.37769 0.153171 9.73257e-12
0.153171 6.42483 -2.38991e-11
9.73257e-12 -2.38991e-11 6.5947

7.50972 0.617644 1.28163e-11
0.617644 8.21296 -4.16295e-11
1.28163e-11 -4.16295e-11 7.679

7.28961 -0.369977 -4.82026e-13
-0.369977 8.20692 -6.16729e-12
-4.82026e-13 -6.16729e-12 7.69823

8.68359 0.356401 -3.77756e-11
0.356401 7.43284 -1.11778e-11
-3.77756e-11 -1.11778e-11 8.20273

5.5912 0.418253 4.43211e-12
0.418253 6.19739 -1.19482e-11
4.43211e-12 -1.19482e-11 5.61416

9.31402 -0.159698 -6.97673e-11
-0.159698 7.8634 -2.6403e-11
-6.97673e-11 -2.6403e-11 8.89153

9.88022 0.107987 -3.85506e-13
0.107987 10.0039 -2.18742e-11
-3.85506e-13 -2.18742e-11 9.8697

9.61635 -0.0287329 -8.28722e-12
-0.0287329 10.5076 -2.31252e-12
-8.28722e-12 -2.31252e-12 9.90676

12.0317 0.628449 3.46854e-12
0.628449 10.9393 -2.42826e-11
3.46854e-12 -2.42826e-11 10.789

11.8944 -0.281553 2.19708e-11
-0.281553 10.3599 -1.90794e-11
2.19708e-11 -1.90794e-11 10.7063

8.00689 -0.709138 -1.92032e-13
-0.709138 8.33863 -3.8353e-11
-1.92032e-13 -3.8353e-11 8.16273

7.33583 -0.597194 -2.77531e-11
-0.597194 8.05683 -5.3967e-12
-2.77531e-11 -5.3967e-12 7.57568

7.24405 -0.00693585 9.25088e-12
-0.00693585 6.17441 3.2766e-12
9.25088e-12 3.2766e-12 6.51559

10.3864 0.386539 -2.69806e-12
0.386539 9.68976 -1.27194e-11
-2.69806e-12 -1.27194e-11 9.90676

10.2262 -0.104269 -3.23781e-11
-0.104269 9.5284 4.43228e-12
-3.23781e-11 4.43228e-12 9.84237

9.37082 -0.0625695 3.89313e-11
-0.0625695 7.92051 -9.8286e-12
3.89313e-11 -9.8286e-12 9.06897

7.19217 -0.452036 -3.97015e-11
-0.452036 7.92755 -3.70039e-11
-3.97015e-11 -3.70039e-11 7.56994

9.21486 0.087994 8.96188e-12
0.087994 7.68874 3.66164e-12
8.96188e-12 3.66164e-12 8.87002

7.7906 -0.444617 3.35358e-11
-0.444617 7.30918 5.58865e-12
3.35358e-11 5.58865e-12 7.35259

7.35173 0.654108 -4.04662e-12
0.654108 7.79205 3.00654e-11
-4.04662e-12 3.00654e-11 7.55591

7.84601 0.485819 4.43283e-11
0.485819 6.81607 -1.27203e-11
4.43283e-11 -1.27203e-11 7.206

7.68425 -0.28076 2.85241e-11
-0.28076 6.74172 2.58258e-11
2.85241e-11 2.58258e-11 7.11338

7.37684 0.551632 -1.19492e-11
0.551632 8.17837 1.54173e-12
-1.19492e-11 1.54173e-12 7.68135

7.97832 -0.411018 6.74561e-12
-0.411018 9.28375 3.85454e-11
6.74561e-12 3.85454e-11 8.88271

8.35203 0.735697 -3.33415e-11
0.735697 9.26243 -1.73475e-12
-3.33415e-11 -1.73475e-12 8.89578

7.51739 -0.517773 -3.86288e-13
-0.517773 8.16689 3.95096e-11
-3.86288e-13 3.95096e-11 7.68467

7.38706 0.677612 -2.75605e-11
0.677612 8.12657 -9.05859e-12
-2.75605e-11 -9.05859e-12 7.59832

4.36235 -0.572567 7.86365e-11
-0.572567 4.45706 6.55175e-12
7.86365e-11 6.55175e-12 4.44205

4.31208 0.65708 2.73689e-11
0.65708 4.55043 4.51002e-11
2.73689e-11 4.51002e-11 4.40971

8.47741 0.565132 -1.6189e-11
0.565132 9.74587 1.85013e-11
-1.6189e-11 1.85013e-11 9.37792

8.84316 -0.661187 3.12214e-11
-0.661187 9.59587 2.15852e-11
3.12214e-11 2.15852e-11 9.39499

7.68503 0.620618 -9.25099e-12
0.620618 8.62486 8.48025e-12
-9.25099e-12 8.48025e-12 8.14477

4.33061 0.21118 1.56116e-11
0.21118 4.35485 1.85025e-11
1.56116e-11 1.85025e-11 4.52526

4.33384 -0.00377532 -6.7456e-12
-0.00377532 4.54863 -2.69776e-12
-6.7456e-12 -2.69776e-12 4.59817

9.69222 -0.472706 -3.37316e-12
-0.472706 9.89371 -3.08356e-11
-3.37316e-12 -3.08356e-11 9.88851

9.77947 0.228642 6.33583e-11
0.228642 10.0941 3.52683e-11
6.33583e-11 3.52683e-11 9.92562

9.4458 -0.0149612 -4.81861e-12
-0.0149612 7.81998 -2.04288e-11
-4.81861e-12 -2.04288e-11 8.64974

9.70716 -0.441245 -1.81632e-11
-0.441245 9.9164 -7.24649e-11
-1.81632e-11 -7.24649e-11 9.8889

9.73452 0.155773 -4.55215e-12
0.155773 9.78784 4.95303e-11
-4.55215e-12 4.95303e-11 9.85419

7.46701 -0.389844 -1.25276e-11
-0.389844 8.62019 8.86557e-12
-1.25276e-11 8.86557e-12 8.16218

11.2643 0.594998 2.92936e-11
0.594998 10.5893 7.70652e-13
2.92936e-11 7.70652e-13 10.4962

11.3019 -0.490632 8.47964e-12
-0.490632 10.0381 3.50756e-11
8.47964e-12 3.50756e-11 10.4527

9.07191 -0.472607 1.84526e-11
-0.472607 9.04693 -5.05948e-12
1.84526e-11 -5.05948e-12 9.22475

9.11148 0.357661 -2.67403e-11
0.357661 9.15079 -2.2597e-11
-2.67403e-11 -2.2597e-11 9.22885

10.1933 0.0387822 -6.16706e-12
0.0387822 11.5004 1.31052e-11
-6.16706e-12 1.31052e-11 10.4556

10.1273 0.286219 -1.25269e-11
0.286219 10.7431 1.18524e-11
-1.25269e-11 1.18524e-11 10.3143

5.31299 0.194904 9.63658e-12
0.194904 5.93687 -2.77549e-11
9.63658e-12 -2.77549e-11 5.42911

5.90176 0.199137 5.63759e-11
0.199137 5.332 2.27431e-11
5.63759e-11 2.27431e-11 5.42855

8.18287 0.590295 7.32349e-12
0.590295 9.12471 -2.73674e-11
7.32349e-12 -2.73674e-11 8.71941

7.79679 -0.35956 5.49271e-11
-0.35956 9.18951 -3.85491e-12
5.49271e-11 -3.85491e-12 8.69591

11.5509 -0.776931 -7.84955e-11
-0.776931 12.4386 -6.55229e-12
-7.84955e-11 -6.55229e-12 11.1575

11.6388 0.465603 -1.05081e-10
0.465603 10.8488 9.09631e-11
-1.05081e-10 9.09631e-11 10.8655

7.78184 0.623812 2.89098e-12
0.623812 7.41229 -6.8611e-11
2.89098e-12 -6.8611e-11 7.46946

9.0294 0.237033 -1.76345e-11
0.237033 8.20924 1.7345e-11
-1.76345e-11 1.7345e-11 8.73698

8.9811 -0.313802 2.77533e-11
-0.313802 8.17988 1.34912e-11
2.77533e-11 1.34912e-11 8.72837

9.90404 -0.33814 -4.62544e-11
-0.33814 8.69414 -7.32371e-12
-4.62544e-11 -7.32371e-12 9.52042

7.22222 0.142742 1.43578e-11
0.142742 6.17023 -5.31936e-11
1.43578e-11 -5.31936e-11 6.52855

12.393 0.0454763 -6.01295e-11
0.0454763 10.7922 -4.62606e-12
-6.01295e-11 -4.62606e-12 10.9418

12.3195 -0.0903009 7.40037e-11
-0.0903009 11.909 -4.2015e-11
7.40037e-11 -4.2015e-11 11.0853

8.10194 0.749317 2.73674e-11
0.749317 7.71952 -3.85997e-13
2.73674e-11 -3.85997e-13 7.97101

9.031 0.195781 -9.15439e-12
0.195781 7.97553 2.38984e-11
-9.15439e-12 2.38984e-11 8.40204

6.71681 0.609278 -3.66231e-12
0.609278 6.94675 -1.95627e-11
-3.66231e-12 -1.95627e-11 6.57563

10.7672 -0.35014 -8.53753e-11
-0.35014 11.868 1.38766e-11
-8.53753e-11 1.38766e-11 10.7172

10.4044 0.218915 -7.20782e-11
0.218915 10.776 5.58905e-12
-7.20782e-11 5.58905e-12 10.4694

10.1091 0.631369 5.78179e-12
0.631369 9.08885 2.92941e-11
5.78179e-12 2.92941e-11 9.65335

8.83165 -0.198969 2.40868e-12
-0.198969 9.32664 8.28672e-12
2.40868e-12 8.28672e-12 9.03439

8.32175 0.139776 1.93688e-11
0.139776 9.59203 -1.34912e-11
1.93688e-11 -1.34912e-11 9.00664

9.57973 -0.0966864 -2.62591e-11
-0.0966864 8.03487 -6.16712e-12
-2.62591e-11 -6.16712e-12 8.95962

9.67074 0.0692483 9.1061e-12
0.0692483 8.01185 -9.82913e-12
9.1061e-12 -9.82913e-12 8.97775

6.91949 -0.400864 -1.54184e-11
-0.400864 6.66742 -1.27198e-11
-1.54184e-11 -1.27198e-11 6.50861

8.56167 0.019369 -3.23309e-11
0.019369 7.24705 -9.63616e-12
-3.23309e-11 -9.63616e-12 7.75314

9.82426 0.0778426 1.0602e-12
0.0778426 8.68681 -1.59961e-11
1.0602e-12 -1.59961e-11 9.40195

9.69201 -0.172363 1.18287e-11
-0.172363 8.7897 -1.92729e-11
1.18287e-11 -1.92729e-11 9.40339

8.96117 -0.234541 1.28154e-11
-0.234541 7.87782 3.89311e-11
1.28154e-11 3.89311e-11 8.37781

9.67348 -0.109791 -1.41655e-11
-0.109791 8.45061 2.58251e-11
-1.41655e-11 2.58251e-11 9.10955

9.7905 0.0449258 -2.77287e-11
0.0449258 8.47614 1.58037e-11
-2.77287e-11 1.58037e-11 9.13832

8.90458 0.496819 -4.58697e-11
0.496819 7.91651 1.38769e-11
-4.58697e-11 1.38769e-11 8.47479

7.07948 -0.658315 -1.92732e-11
-0.658315 7.00998 1.29136e-11
-1.92732e-11 1.29136e-11 6.89984

8.51655 0.860025 3.75774e-12
0.860025 9.36037 -2.02363e-11
3.75774e-12 -2.02363e-11 9.04377

8.29791 -0.731416 -1.83573e-11
-0.731416 8.97306 5.782e-12
-1.83573e-11 5.782e-12 8.99127

8.22881 -0.546113 2.89085e-12
-0.546113 9.04423 2.46691e-11
2.89085e-12 2.46691e-11 9.05726

8.63479 0.909361 -1.89834e-11
0.909361 9.57845 2.11976e-12
-1.89834e-11 2.11976e-12 9.17402

7.93507 0.313056 1.14673e-11
0.313056 6.75703 -6.3601e-12
1.14673e-11 -6.3601e-12 7.2052

6.20957 -0.375456 -2.81391e-11
-0.375456 5.77108 -4.04746e-12
-2.81391e-11 -4.04746e-12 5.74874

9.08684 0.716538 5.39695e-12
0.716538 8.33804 1.42625e-11
5.39695e-12 1.42625e-11 8.84105

8.78026 -0.23932 3.85416e-12
-0.23932 7.85364 8.88481e-11
3.85416e-12 8.88481e-11 8.34748

6.32266 -0.291964 -8.4809e-12
-0.291964 5.72629 -9.63142e-13
-8.4809e-12 -9.63142e-13 5.79256

8.03638 -0.581403 2.13931e-11
-0.581403 7.68775 7.70597e-13
2.13931e-11 7.70597e-13 7.89485

7.66356 0.00390751 -3.85483e-13
0.00390751 9.36625 -2.38982e-11
-3.85483e-13 -2.38982e-11 8.65114

8.03135 0.0900955 1.40692e-11
0.0900955 8.88953 1.54212e-12
1.40692e-11 1.54212e-12 8.60472

7.16732 0.744554 2.505e-12
0.744554 7.19195 -4.54842e-11
2.505e-12 -4.54842e-11 7.09627

6.72141 -0.431391 -1.60934e-11
-0.431391 5.98704 3.85465e-11
-1.60934e-11 3.85465e-11 6.18018

8.64818 0.795955 3.29563e-11
0.795955 8.89149 4.00871e-11
3.29563e-11 4.00871e-11 9.04447

8.61796 -0.763485 -4.81795e-12
-0.763485 9.14375 -1.27201e-11
-4.81795e-12 -1.27201e-11 9.01463

7.06138 -0.561082 -2.75596e-11
-0.561082 7.5245 6.43714e-11
-2.75596e-11 6.43714e-11 7.13989

7.13899 -0.619853 -3.9894e-11
-0.619853 7.46676 -1.92761e-12
-3.9894e-11 -1.92761e-12 7.09246

8.82853 0.578287 -3.46912e-11
0.578287 7.9823 -2.64026e-11
-3.46912e-11 -2.64026e-11 8.41721

9.91315 0.357665 2.00438e-11
0.357665 8.10152 2.69813e-11
2.00438e-11 2.69813e-11 9.39153

9.89154 -0.243998 1.34909e-11
-0.243998 7.90331 3.35342e-11
1.34909e-11 3.35342e-11 9.35384

6.9877 0.45941 1.08884e-11
0.45941 7.97336 -4.99176e-11
1.08884e-11 -4.99176e-11 7.30992

8.21305 0.707043 -5.39608e-12
0.707043 8.0765 -3.50765e-11
-5.39608e-12 -3.50765e-11 8.12875

5.80101 0.0665455 3.66192e-11
0.0665455 7.22119 2.00448e-11
3.66192e-11 2.00448e-11 6.38162

5.96122 0.0361671 -1.0022e-11
0.0361671 7.16501 2.48631e-11
-1.0022e-11 2.48631e-11 6.36946

7.15245 0.029656 7.99906e-12
0.029656 5.81828 6.93812e-12
7.99906e-12 6.93812e-12 6.28864

7.31703 -0.530359 1.44539e-12
-0.530359 6.94511 2.69771e-12
1.44539e-12 2.69771e-12 7.06352

10.6317 -0.369077 2.00815e-10
-0.369077 11.311 -1.3108e-11
2.00815e-10 -1.3108e-11 10.7155

12.6031 0.189833 6.16701e-11
0.189833 12.6071 3.58461e-11
6.16701e-11 3.58461e-11 11.3119

7.59879 0.637145 5.78263e-12
0.637145 6.78176 5.97468e-11
5.78263e-12 5.97468e-11 7.08577

7.99574 -0.26544 1.53225e-11
-0.26544 6.79236 1.73455e-11
1.53225e-11 1.73455e-11 7.27857

6.33129 0.447007 -4.8954e-11
0.447007 5.67003 2.04289e-11
-4.8954e-11 2.04289e-11 5.83332

7.79683 -0.46458 1.05968e-12
-0.46458 8.74593 1.9273e-11
1.05968e-12 1.9273e-11 8.51245

8.17656 0.843793 -1.45504e-11
0.843793 9.0333 1.71528e-11
-1.45504e-11 1.71528e-11 8.58296

9.44201 -0.0126104 -1.19488e-11
-0.0126104 7.80975 -1.04069e-11
-1.19488e-11 -1.04069e-11 8.64194

6.70835 0.42336 -1.09856e-11
0.42336 7.92194 1.92731e-11
-1.09856e-11 1.92731e-11 7.28041

8.27575 -0.565215 -2.49577e-11
-0.565215 9.74204 8.86561e-12
-2.49577e-11 8.86561e-12 9.36654

8.83034 0.793985 -3.75822e-12
0.793985 9.73487 -8.09453e-12
-3.75822e-12 -8.09453e-12 9.42777

6.63526 0.494869 -4.07628e-11
0.494869 6.93326 -1.25282e-11
-4.07628e-11 -1.25282e-11 6.49202

6.82999 0.521489 -1.83033e-12
0.521489 6.73881 2.42846e-11
-1.83033e-12 2.42846e-11 6.44596

6.38392 0.401305 -3.14154e-11
0.401305 5.72104 -5.66637e-11
-3.14154e-11 -5.66637e-11 5.87185

8.6044 0.872228 1.26237e-11
0.872228 9.69932 2.81381e-11
1.26237e-11 2.81381e-11 9.2144

8.22819 -0.629437 -1.35867e-11
-0.629437 8.86369 2.00438e-11
-1.35867e-11 2.00438e-11 9.05119

9.97992 0.0248118 -2.64039e-11
0.0248118 8.05913 5.78178e-12
-2.64039e-11 5.78178e-12 9.16895

8.49871 0.594826 5.20317e-12
0.594826 8.90452 -6.32144e-11
5.20317e-12 -6.32144e-11 9.10643

8.66592 -0.742964 5.78181e-12
-0.742964 9.5265 -1.75382e-11
5.78181e-12 -1.75382e-11 9.20386

8.27185 0.718885 1.04067e-11
0.718885 8.40993 -4.74106e-11
1.04067e-11 -4.74106e-11 8.49069

6.4578 -0.155167 4.0478e-12
-0.155167 7.58159 4.58704e-11
4.0478e-12 4.58704e-11 6.81618

6.6599 -0.206801 -8.28737e-12
-0.206801 7.55504 6.74618e-12
-8.28737e-12 6.74618e-12 6.82092

7.42918 -0.126695 -1.9948e-11
-0.126695 6.49694 2.89099e-11
-1.9948e-11 2.89099e-11 6.7101

7.46142 -0.437861 -1.46476e-11
-0.437861 7.45301 6.16734e-11
-1.46476e-11 6.16734e-11 7.3474

7.87444 0.0760984 -5.78004e-13
0.0760984 8.62818 -1.46475e-11
-5.78004e-13 -1.46475e-11 8.0715

7.42598 0.0253476 -1.54182e-11
0.0253476 8.77044 3.27638e-11
-1.54182e-11 3.27638e-11 8.04075

6.20392 -0.491153 -2.81396e-11
-0.491153 6.69785 1.44547e-11
-2.81396e-11 1.44547e-11 6.1974

6.15725 -0.466461 1.07931e-11
-0.466461 6.55858 1.54189e-11
1.07931e-11 1.54189e-11 6.1763

10.0595 -0.028824 -8.28728e-12
-0.028824 8.16866 1.69597e-11
-8.28728e-12 1.69597e-11 9.21616

9.97404 0.0313509 -3.16797e-11
0.0313509 8.20322 4.6255e-12
-3.16797e-11 4.6255e-12 9.20256

8.08559 -0.580929 -2.60177e-12
-0.580929 8.64981 1.15635e-11
-2.60177e-12 1.15635e-11 8.62675

8.27117 0.764116 1.58036e-11
0.764116 9.14809 -9.25093e-12
1.58036e-11 -9.25093e-12 8.6981

8.27142 0.493489 -1.79235e-11
0.493489 9.65684 1.31053e-11
-1.79235e-11 1.31053e-11 9.33163

8.80776 -0.726683 -3.37269e-11
-0.726683 9.6493 1.88873e-11
-3.37269e-11 1.88873e-11 9.39594

8.67166 -0.579818 -4.7989e-11
-0.579818 8.58174 9.05789e-12
-4.7989e-11 9.05789e-12 8.76579

6.74463 -0.30347 2.23564e-11
-0.30347 8.01679 -8.86561e-12
2.23564e-11 -8.86561e-12 7.32508

9.642 0.0880512 -2.47171e-11
0.0880512 9.33864 -3.58463e-11
-2.47171e-11 -3.58463e-11 9.5588

9.51316 -0.288822 -4.90012e-11
-0.288822 9.20746 -1.57069e-11
-4.90012e-11 -1.57069e-11 9.52288

8.33607 -0.446091 -3.83521e-11
-0.446091 7.99484 6.16719e-12
-3.83521e-11 6.16719e-12 8.15651

9.07437 -0.37856 5.56501e-11
-0.37856 8.56969 -4.89522e-11
5.56501e-11 -4.89522e-11 8.88616

9.16591 0.317312 -2.32722e-11
0.317312 8.80326 -2.58251e-11
-2.32722e-11 -2.58251e-11 8.92698

4.0997 -0.174818 4.41367e-11
-0.174818 3.4723 -8.48123e-12
4.41367e-11 -8.48123e-12 4.33362

7.17845 0.752378 -4.23989e-12
0.752378 7.47678 3.77758e-11
-4.23989e-12 3.77758e-11 7.12213

3.7171 0.360331 -2.52485e-11
0.360331 4.202 2.31234e-12
-2.52485e-11 2.31234e-12 4.38547

6.99285 -0.406238 -9.25193e-12
-0.406238 7.96233 5.20391e-12
-9.25193e-12 5.20391e-12 7.32983

10.3729 -0.399529 -3.4092e-12
-0.399529 10.8277 1.15665e-12
-3.4092e-12 1.15665e-12 10.4417

10.6156 0.158523 1.48148e-12
0.158523 10.4448 -1.61887e-11
1.48148e-12 -1.61887e-11 10.409

8.40112 0.488569 -5.3965e-12
0.488569 8.20156 5.97433e-12
-5.3965e-12 5.97433e-12 8.17702

8.55227 -0.0269778 -1.8164e-11
-0.0269778 7.20203 2.08144e-11
-1.8164e-11 2.08144e-11 7.74886

7.40321 0.609609 3.85969e-13
0.609609 6.93538 5.58944e-12
3.85969e-13 5.58944e-12 7.01894

7.85847 0.29655 -1.86951e-11
0.29655 9.34746 -2.77556e-17
-1.86951e-11 -2.77556e-17 8.73704

8.19109 -0.410951 -2.4862e-11
-0.410951 9.00538 -6.55255e-12
-2.4862e-11 -6.55255e-12 8.70269

9.61001 0.681825 -5.58923e-12
0.681825 9.97807 -1.37797e-11
-5.58923e-12 -1.37797e-11 9.79051

9.58181 -0.377033 -2.83302e-11
-0.377033 10.1191 3.66164e-12
-2.83302e-11 3.66164e-12 9.82288

8.52614 0.926615 1.73487e-12
0.926615 9.55677 1.67673e-11
1.73487e-12 1.67673e-11 9.15141

7.79829 -0.877943 -1.97544e-11
-0.877943 9.0197 1.6575e-11
-1.97544e-11 1.6575e-11 8.98645

7.53437 0.478623 1.36837e-11
0.478623 8.58765 -1.46476e-11
1.36837e-11 -1.46476e-11 8.16477

7.31863 0.242574 -8.09434e-12
0.242574 8.37365 -1.34911e-11
-8.09434e-12 -1.34911e-11 7.78089

8.40543 -0.536457 -2.11979e-12
-0.536457 8.31898 -5.04941e-11
-2.11979e-12 -5.04941e-11 8.51845

8.44727 0.566337 -1.6093e-11
0.566337 8.50581 -2.1585e-11
-1.6093e-11 -2.1585e-11 8.53046

7.61564 0.577475 5.58818e-12
0.577475 7.66154 -1.75379e-11
5.58818e-12 -1.75379e-11 7.39541

7.70372 -0.569712 -1.27196e-11
-0.569712 8.59166 -7.3236e-12
-1.27196e-11 -7.3236e-12 8.16555

7.08959 -0.100539 4.54837e-11
-0.100539 8.57311 2.69822e-11
4.54837e-11 2.69822e-11 7.82116

5.06503 0.407547 2.08157e-11
0.407547 5.34843 -5.97515e-12
2.08157e-11 -5.97515e-12 5.02783

5.30622 0.421794 1.46487e-11
0.421794 5.08678 2.42854e-11
1.46487e-11 2.42854e-11 5.02789

6.52428 -0.490627 -4.68345e-11
-0.490627 6.68804 -1.09857e-11
-4.68345e-11 -1.09857e-11 6.34095

8.86554 -0.184117 1.92734e-11
-0.184117 7.52082 -5.01058e-12
1.92734e-11 -5.01058e-12 8.23077

11.3113 -0.618785 -8.91936e-11
-0.618785 11.6606 8.90382e-11
-8.91936e-11 8.90382e-11 10.9342

11.8302 0.645097 -5.13004e-11
0.645097 10.8859 -3.66254e-12
-5.13004e-11 -3.66254e-12 10.886

10.602 0.628669 -3.08306e-12
0.628669 10.6153 3.85011e-13
-3.08306e-12 3.85011e-13 10.3187

10.2796 -0.164168 -2.04285e-11
-0.164168 9.93693 3.85499e-12
-2.04285e-11 3.85499e-12 10.1612

8.9114 -0.00653597 -5.33856e-11
-0.00653597 7.67127 -2.58249e-11
-5.33856e-11 -2.58249e-11 8.51196

8.53614 -0.823713 6.93809e-12
-0.823713 9.4298 6.55258e-12
6.93809e-12 6.55258e-12 9.13002

7.95737 0.859895 -7.70889e-12
0.859895 9.00146 1.15612e-12
-7.70889e-12 1.15612e-12 8.99629

5.31188 -0.398455 4.00891e-11
-0.398455 5.50235 -7.70782e-13
4.00891e-11 -7.70782e-13 5.23559

5.35813 0.513324 1.1562e-12
0.513324 5.36743 3.16089e-11
1.1562e-12 3.16089e-11 5.25521

5.33492 -0.185208 1.38772e-11
-0.185208 6.16606 -3.85468e-12
1.38772e-11 -3.85468e-12 5.59352

5.58763 -0.228752 2.48628e-11
-0.228752 6.27755 -3.1994e-11
2.48628e-11 -3.1994e-11 5.68918

6.22116 -0.159538 3.85479e-11
-0.159538 5.38667 -1.32992e-11
3.85479e-11 -1.32992e-11 5.59307

6.61998 0.604398 -1.04063e-11
0.604398 6.5041 6.09024e-11
-1.04063e-11 6.09024e-11 6.39315

4.83565 0.180012 4.10518e-11
0.180012 5.8551 -1.54265e-12
4.10518e-11 -1.54265e-12 5.24716

5.79658 0.0396334 1.07932e-11
0.0396334 4.87144 -1.54186e-12
1.07932e-11 -1.54186e-12 5.24147

10.0252 -0.0733069 -1.05995e-11
-0.0733069 10.9962 6.59117e-11
-1.05995e-11 6.59117e-11 10.2508

9.96958 -0.265181 1.27198e-11
-0.265181 10.3125 -3.17977e-12
1.27198e-11 -3.17977e-12 10.1215

9.40568 -0.20349 -4.81824e-12
-0.20349 8.53612 -4.10501e-11
-4.81824e-12 -4.10501e-11 9.06414

9.43198 0.0911658 2.58257e-11
0.0911658 7.36338 -8.28711e-12
2.58257e-11 -8.28711e-12 8.97704

6.33766 -0.39955 -8.47876e-12
-0.39955 7.15802 -1.25277e-11
-8.47876e-12 -1.25277e-11 6.56026

6.3074 -0.28662 -9.73321e-12
-0.28662 7.16592 -3.46937e-12
-9.73321e-12 -3.46937e-12 6.60585

9.03564 0.192062 -5.72408e-11
0.192062 7.7586 -1.83092e-11
-5.72408e-11 -1.83092e-11 8.58027

10.1154 -0.189276 -3.09567e-11
-0.189276 10.2368 -9.63615e-11
-3.09567e-11 -9.63615e-11 10.1524

10.365 -0.00575197 2.9246e-11
-0.00575197 10.0467 6.62966e-11
2.9246e-11 6.62966e-11 10.156

9.01913 -0.403595 1.65738e-11
-0.403595 8.86729 1.85017e-11
1.65738e-11 1.85017e-11 8.98237

8.37123 0.669488 -3.02586e-11
0.669488 8.63312 -3.85457e-12
-3.02586e-11 -3.85457e-12 8.66941

8.23067 -0.705494 1.272e-11
-0.705494 8.98741 -6.16725e-12
1.272e-11 -6.16725e-12 8.63682

9.21497 -0.181431 -1.75385e-11
-0.181431 7.8697 6.76468e-11
-1.75385e-11 6.76468e-11 8.78287

7.95154 0.561769 -4.24039e-12
0.561769 8.71916 -1.42616e-11
-4.24039e-12 -1.42616e-11 8.54288

8.19831 -0.748262 1.85017e-11
-0.748262 8.90248 -1.5421e-12
1.85017e-11 -1.5421e-12 8.57553

4.16279 -0.834059 -3.52712e-11
-0.834059 4.2231 2.81403e-11
-3.52712e-11 2.81403e-11 4.26355

7.09454 0.178357 -2.96802e-11
0.178357 8.54067 6.55283e-12
-2.96802e-11 6.55283e-12 7.7924

7.38441 -0.162964 -7.70869e-12
-0.162964 8.31626 -1.48407e-11
-7.70869e-12 -1.48407e-11 7.78274

9.91096 0.0885056 2.7559e-11
0.0885056 11.4183 -2.35126e-11
2.7559e-11 -2.35126e-11 10.3408

10.0373 -0.0104679 1.32979e-11
-0.0104679 10.2759 5.62753e-11
1.32979e-11 5.62753e-11 10.1674

10.0585 -0.0349088 1.60928e-11
-0.0349088 8.54623 -1.19488e-11
1.60928e-11 -1.19488e-11 9.4714

10.1989 0.0545925 -1.12265e-11
0.0545925 8.46624 -2.48613e-11
-1.12265e-11 -2.48613e-11 9.48396

9.61621 0.805666 2.11992e-11
0.805666 9.21304 -3.35342e-11
2.11992e-11 -3.35342e-11 9.48712

9.34604 -0.458857 3.08358e-11
-0.458857 9.02475 3.19922e-11
3.08358e-11 3.19922e-11 9.36954

10.7295 0.29398 -2.69804e-12
0.29398 10.3089 7.90121e-12
-2.69804e-12 7.90121e-12 10.2314

10.339 -0.159745 -1.58034e-11
-0.159745 10.2959 1.07927e-11
-1.58034e-11 1.07927e-11 10.1802

11.0605 0.336314 3.01204e-13
0.336314 10.7317 3.46903e-11
3.01204e-13 3.46903e-11 10.6557

11.1389 -0.954126 -4.60364e-11
-0.954126 11.5597 3.93159e-11
-4.60364e-11 3.93159e-11 10.8354

8.92115 0.840039 2.16818e-11
0.840039 9.78711 2.17781e-11
2.16818e-11 2.17781e-11 9.47944

8.48608 -1.0388 1.55147e-11
-1.0388 9.18004 -1.31052e-11
1.55147e-11 -1.31052e-11 9.33679

8.29327 0.445126 -1.50329e-11
0.445126 7.66008 -2.89092e-12
-1.50329e-11 -2.89092e-12 7.952

7.6427 0.355653 -1.69593e-11
0.355653 8.79595 4.27859e-11
-1.69593e-11 4.27859e-11 8.26874

7.79509 -0.578413 1.02149e-11
-0.578413 7.7772 -1.96576e-11
1.02149e-11 -1.96576e-11 7.82465

8.05541 -0.446732 -2.91015e-11
-0.446732 8.76204 -2.0044e-11
-2.91015e-11 -2.0044e-11 8.31625

8.2457 -0.415991 -1.86955e-11
-0.415991 7.59626 4.04733e-11
-1.86955e-11 4.04733e-11 7.95638

8.02994 0.495882 6.60096e-12
0.495882 8.79654 8.09477e-12
6.60096e-12 8.09477e-12 8.30128

7.91767 0.702262 -4.08585e-11
0.702262 7.95499 -9.44414e-12
-4.08585e-11 -9.44414e-12 7.84632

8.87412 0.93344 1.02141e-11
0.93344 9.27944 -5.39633e-11
1.02141e-11 -5.39633e-11 9.41143

9.01396 -0.694781 -3.46906e-11
-0.694781 9.60078 4.24022e-12
-3.46906e-11 4.24022e-12 9.47119

9.62015 0.423782 1.58036e-11
0.423782 8.72408 1.6189e-11
1.58036e-11 1.6189e-11 9.21295

12.5695 0.31587 -5.93589e-11
0.31587 12.3884 -5.51174e-11
-5.93589e-11 -5.51174e-11 11.2504

10.6552 0.301413 -3.5654e-11
0.301413 10.8742 -7.66074e-11
-3.5654e-11 -7.66074e-11 10.6252

8.82608 -0.42851 4.29786e-11
-0.42851 8.2081 -5.14576e-11
4.29786e-11 -5.14576e-11 8.68307

10.3264 0.0295005 1.92717e-12
0.0295005 9.1465 3.66232e-12
1.92717e-12 3.66232e-12 9.84462

5.14305 -0.363338 1.67678e-11
-0.363338 5.42397 -3.93185e-11
1.67678e-11 -3.93185e-11 5.11695

5.42636 -0.298964 3.27697e-12
-0.298964 5.12143 -9.63753e-12
3.27697e-12 -9.63753e-12 5.12046

10.091 0.0348737 2.66202e-11
0.0348737 8.90938 -1.92724e-11
2.66202e-11 -1.92724e-11 9.64242

10.3077 -0.0519252 7.13067e-12
-0.0519252 8.82129 -1.61887e-11
7.13067e-12 -1.61887e-11 9.66214

10.4101 0.0853161 3.08354e-11
0.0853161 9.6652 1.54175e-11
3.08354e-11 1.54175e-11 9.93652

7.64191 -0.26056 6.48521e-11
-0.26056 8.83669 2.85238e-11
6.48521e-11 2.85238e-11 8.28557

8.11229 0.345122 2.73193e-11
0.345122 7.35763 3.27636e-11
2.73193e-11 3.27636e-11 7.48182

9.06744 -0.541223 5.82891e-12
-0.541223 9.08775 -6.05166e-11
5.82891e-12 -6.05166e-11 9.26749

9.17279 0.446773 -2.26441e-11
0.446773 9.50849 9.82902e-11
-2.26441e-11 9.82902e-11 9.33762

12.1948 0.0534768 2.04288e-11
0.0534768 12.7355 2.984e-11
2.04288e-11 2.984e-11 11.2493

11.6165 0.513771 3.08357e-11
0.513771 10.466 4.3386e-11
3.08357e-11 4.3386e-11 10.7451

8.64199 -0.338783 -3.7196e-11
-0.338783 7.95997 -2.11936e-12
-3.7196e-11 -2.11936e-12 8.2925

10.0048 -0.0187526 8.91241e-13
-0.0187526 9.30731 -7.073e-11
8.91241e-13 -7.073e-11 9.65753

9.87091 -0.118473 1.21897e-11
-0.118473 9.41237 4.50976e-11
1.21897e-11 4.50976e-11 9.66236

8.7328 -0.617415 1.31052e-11
-0.617415 9.33331 -7.1308e-12
1.31052e-11 -7.1308e-12 9.05838

8.364 0.31818 -1.27193e-11
0.31818 9.32163 5.24217e-11
-1.27193e-11 5.24217e-11 9.0199

8.27032 0.589468 1.69598e-11
0.589468 8.95228 -5.39623e-12
1.69598e-11 -5.39623e-12 9.02787

8.57748 -0.836183 -2.44761e-11
-0.836183 9.44031 1.21423e-11
-2.44761e-11 1.21423e-11 9.12639

4.42266 1.0634 -1.59973e-11
1.0634 4.32378 1.61894e-11
-1.59973e-11 1.61894e-11 4.37158

9.32516 0.611884 -3.66176e-11
0.611884 9.8796 2.60173e-11
-3.66176e-11 2.60173e-11 9.71212

9.34093 -0.469078 -1.15597e-12
-0.469078 9.94452 -9.05807e-12
-1.15597e-12 -9.05807e-12 9.72402

8.08118 0.558628 -1.13704e-11
0.558628 9.07067 2.31271e-12
-1.13704e-11 2.31271e-12 8.86668

8.32909 -0.706394 7.32381e-12
-0.706394 9.18463 -2.98727e-11
7.32381e-12 -2.98727e-11 8.88621

8.15741 -0.330355 9.6384e-13
-0.330355 7.29327 1.5033e-11
9.6384e-13 1.5033e-11 7.54452

9.20874 0.60272 -6.1682e-12
0.60272 8.83294 3.08393e-12
-6.1682e-12 3.08393e-12 9.06374

9.73948 0.647026 -6.28286e-11
0.647026 9.27178 4.39403e-11
-6.28286e-11 4.39403e-11 9.55463

9.43868 -0.427984 2.62106e-11
-0.427984 9.43055 -2.1585e-11
2.62106e-11 -2.1585e-11 9.50931

9.40694 0.405989 1.73446e-12
0.405989 7.96345 2.38982e-11
1.73446e-12 2.38982e-11 8.91018

10.3022 0.0802937 9.63613e-12
0.0802937 9.83801 5.39638e-12
9.63613e-12 5.39638e-12 10.0432

10.4712 -0.117909 1.41774e-11
-0.117909 9.57486 8.0942e-12
1.41774e-11 8.0942e-12 10.017

10.602 0.137506 -1.04076e-11
0.137506 11.4634 -1.01276e-10
-1.04076e-11 -1.01276e-10 10.6839

10.87 -0.217685 5.31907e-11
-0.217685 12.3304 3.73882e-11
5.31907e-11 3.73882e-11 10.8588

4.38444 -0.100313 -1.69609e-11
-0.100313 3.75515 -6.16762e-12
-1.69609e-11 -6.16762e-12 4.4193

3.5226 -0.021229 -2.12017e-12
-0.021229 4.36403 3.85479e-13
-2.12017e-12 3.85479e-13 4.38146

8.81108 0.697765 -5.73395e-12
0.697765 9.64431 -2.33199e-11
-5.73395e-12 -2.33199e-11 9.23684

8.65065 -0.600274 7.32329e-12
-0.600274 9.03777 -8.86554e-12
7.32329e-12 -8.86554e-12 9.13964

4.223 0.37384 -2.96811e-11
0.37384 4.18534 4.5871e-11
-2.96811e-11 4.5871e-11 4.44232

4.29287 0.483393 3.66207e-11
0.483393 4.09824 4.20165e-11
3.66207e-11 4.20165e-11 4.43649

9.85183 -0.769005 6.10659e-11
-0.769005 12.2996 1.3298e-10
6.10659e-11 1.3298e-10 10.7925

10.7109 0.577305 9.05925e-11
0.577305 11.9001 7.97863e-11
9.05925e-11 7.97863e-11 10.8832

8.93859 0.733548 -2.10079e-11
0.733548 8.61595 -2.00429e-11
-2.10079e-11 -2.00429e-11 8.88894

8.67144 0.667589 3.25237e-11
0.667589 9.16937 4.35559e-11
3.25237e-11 4.35559e-11 9.02053

8.61995 -0.669093 2.31247e-12
-0.669093 8.88028 -3.00653e-11
2.31247e-12 -3.00653e-11 8.99891

7.96352 0.673425 4.62562e-12
0.673425 8.3168 -1.54164e-12
4.62562e-12 -1.54164e-12 8.05047

7.86176 -0.537278 4.04846e-12
-0.537278 8.17652 -5.47344e-11
4.04846e-12 -5.47344e-11 8.04675

5.42658 -0.0849522 4.04738e-11
-0.0849522 6.26229 -1.61896e-11
4.04738e-11 -1.61896e-11 5.67801

5.57419 -0.173518 -3.37283e-11
-0.173518 6.29049 -2.19716e-11
-3.37283e-11 -2.19716e-11 5.69944

6.28817 -0.0734728 5.08824e-11
-0.0734728 5.49813 -1.96574e-11
5.08824e-11 -1.96574e-11 5.65838

8.15127 0.77698 1.57076e-11
0.77698 8.76108 1.96582e-11
1.57076e-11 1.96582e-11 8.45581

8.0076 -0.602085 -1.35877e-11
-0.602085 8.49079 -3.27642e-11
-1.35877e-11 -3.27642e-11 8.42496

5.00225 0.119569 -2.52488e-11
0.119569 5.82867 -2.13931e-11
-2.52488e-11 -2.13931e-11 5.25248

5.80131 0.18514 8.38407e-12
0.18514 5.01312 6.55391e-12
8.38407e-12 6.55391e-12 5.24925

9.05263 -0.772203 -1.44549e-12
-0.772203 9.24894 3.66185e-11
-1.44549e-12 3.66185e-11 9.45062

9.12141 0.635586 -1.90807e-11
0.635586 9.72378 -5.89737e-11
-1.90807e-11 -5.89737e-11 9.51297

9.19376 -0.682684 -1.90806e-11
-0.682684 9.64867 -2.85235e-11
-1.90806e-11 -2.85235e-11 9.58984

9.24047 0.506371 -1.06287e-10
0.506371 9.80333 4.85669e-11
-1.06287e-10 4.85669e-11 9.59762

4.03633 -0.316621 -3.56563e-11
-0.316621 4.10399 -2.35138e-11
-3.56563e-11 -2.35138e-11 4.32095

4.03941 -0.318495 -1.06964e-11
-0.318495 4.10818 2.04308e-11
-1.06964e-11 2.04308e-11 4.33773

8.57305 0.613503 -2.60173e-11
0.613503 9.00887 4.52907e-11
-2.60173e-11 4.52907e-11 8.75044

8.49191 -0.562217 7.69958e-13
-0.562217 8.61979 -4.20135e-11
7.69958e-13 -4.20135e-11 8.70193

10.427 0.162012 6.51402e-11
0.162012 11.1444 2.29336e-11
6.51402e-11 2.29336e-11 10.4313

10.2378 -0.0922987 6.8609e-11
-0.0922987 10.3721 -2.64031e-11
6.8609e-11 -2.64031e-11 10.2764

8.87876 -0.708553 2.27416e-11
-0.708553 9.83783 -2.77526e-11
2.27416e-11 -2.77526e-11 9.63948

9.14266 0.666144 8.57641e-12
0.666144 10.1308 1.7538e-11
8.57641e-12 1.7538e-11 9.70536

9.93886 -0.14762 2.67169e-11
-0.14762 9.51639 5.011e-12
2.67169e-11 5.011e-12 9.89679

10.1889 0.0112534 3.85206e-11
0.0112534 9.39568 8.67242e-12
3.85206e-11 8.67242e-12 9.91451

8.89045 0.654907 3.10287e-11
0.654907 9.02203 4.08588e-11
3.10287e-11 4.08588e-11 9.15519

8.87154 -0.64383 -2.33193e-11
-0.64383 9.2626 -2.38983e-11
-2.33193e-11 -2.38983e-11 9.14048

10.8872 0.19913 1.90556e-11
0.19913 10.1775 -1.95869e-11
1.90556e-11 -1.95869e-11 10.3924

10.9552 0.0580363 -3.52319e-11
0.0580363 10.5959 3.48826e-11
-3.52319e-11 3.48826e-11 10.6027

10.551 -0.180544 5.23483e-11
-0.180544 10.378 -8.52708e-12
5.23483e-11 -8.52708e-12 10.3716

10.3046 -0.0227324 -1.25031e-11
-0.0227324 11.0868 -7.74744e-11
-1.25031e-11 -7.74744e-11 10.5744

10.291 0.114873 -7.13191e-12
0.114873 11.8086 -9.1736e-11
-7.13191e-12 -9.1736e-11 10.5718

11.3702 0.653309 -9.25095e-12
0.653309 10.8898 3.469e-11
-9.25095e-12 3.469e-11 10.5991

10.7738 -0.256047 -2.3512e-11
-0.256047 10.426 5.97462e-12
-2.3512e-11 5.97462e-12 10.4346

10.1435 -0.153743 7.7062e-13
-0.153743 11.0498 -3.34375e-11
7.7062e-13 -3.34375e-11 10.4263

10.4318 0.382647 -1.74895e-10
0.382647 10.8802 -7.26558e-11
-1.74895e-10 -7.26558e-11 10.5119

13.4874 0.389611 7.46664e-10
0.389611 10.3192 -2.48206e-10
7.46664e-10 -2.48206e-10 11.1384

13.1678 -0.254877 -2.9851e-10
-0.254877 12.9817 3.66196e-11
-2.9851e-10 3.66196e-11 11.5927

10.9287 -0.879406 4.08918e-10
-0.879406 11.6816 -3.50381e-10
4.08918e-10 -3.50381e-10 10.7718

10.6733 0.495876 -3.11745e-11
0.495876 10.6385 -4.62531e-11
-3.11745e-11 -4.62531e-11 10.4574

9.92913 0.358224 6.95244e-11
0.358224 10.4889 -1.31056e-11
6.95244e-11 -1.31056e-11 10.1261

10.9469 0.104725 -1.65619e-11
0.104725 10.7874 -1.50324e-11
-1.65619e-11 -1.50324e-11 10.6747

11.0025 -0.820003 -8.86554e-12
-0.820003 10.7229 -5.78163e-12
-8.86554e-12 -5.78163e-12 10.5482

11.2367 -0.940331 -5.33455e-11
-0.940331 12.0567 -1.38759e-10
-5.33455e-11 -1.38759e-10 10.9781

9.95182 -0.457792 8.6763e-13
-0.457792 10.2262 3.86318e-13
8.6763e-13 3.86318e-13 10.1024

10.1055 -0.766704 -1.9218e-13
-0.766704 10.5599 -7.69984e-13
-1.9218e-13 -7.69984e-13 10.244

10.3461 -0.508812 -6.27675e-11
-0.508812 10.8298 2.58257e-11
-6.27675e-11 2.58257e-11 10.4587

9.90374 0.319885 4.33715e-12
0.319885 10.3691 7.49695e-11
4.33715e-12 7.49695e-11 10.1524

10.6521 0.190726 4.01593e-11
0.190726 10.618 7.32346e-11
4.01593e-11 7.32346e-11 10.4739

7.50986 0.543726 -2.1585e-11
0.543726 8.02124 2.19711e-11
-2.1585e-11 2.19711e-11 7.68232

8.70285 0.274661 3.469e-12
0.274661 9.41626 1.68635e-11
3.469e-12 1.68635e-11 9.05529

8.50721 0.233743 1.21416e-11
0.233743 9.31494 -5.29033e-11
1.21416e-11 -5.29033e-11 9.02159

8.69131 0.308906 1.31057e-11
0.308906 7.37846 2.49023e-12
1.31057e-11 2.49023e-12 8.1192

8.28784 0.104765 -3.85543e-13
0.104765 6.99393 2.43446e-12
-3.85543e-13 2.43446e-12 7.60818

8.87479 0.168702 1.58028e-11
0.168702 9.73985 7.32351e-12
1.58028e-11 7.32351e-12 9.48975

8.67381 0.387293 -1.09861e-11
0.387293 9.84632 7.32424e-12
-1.09861e-11 7.32424e-12 9.49675

8.40443 -0.123079 -6.93843e-12
-0.123079 7.12124 1.39575e-11
-6.93843e-12 1.39575e-11 7.6912

9.41488 -0.247886 2.3802e-11
-0.247886 8.27285 -3.37752e-11
2.3802e-11 -3.37752e-11 9.10184

6.07091 0.494424 -3.73902e-11
0.494424 6.58361 -1.61894e-11
-3.73902e-11 -1.61894e-11 6.18162

5.98166 -0.49396 -1.46479e-11
-0.49396 6.4694 1.18047e-11
-1.46479e-11 1.18047e-11 6.07628

6.68601 -0.452997 -1.17568e-11
-0.452997 5.8551 2.5079e-11
-1.17568e-11 2.5079e-11 6.07688

9.37525 -0.46843 -1.23343e-11
-0.46843 9.96306 -2.12017e-12
-1.23343e-11 -2.12017e-12 9.76754

9.65377 -0.324974 3.08356e-11
-0.324974 10.0036 7.90155e-12
3.08356e-11 7.90155e-12 9.80065

7.66733 0.463788 1.04068e-11
0.463788 8.35614 -7.99779e-12
1.04068e-11 -7.99779e-12 8.14097

8.14309 0.559326 -1.27204e-11
0.559326 9.03879 5.78546e-13
-1.27204e-11 5.78546e-13 8.87731

8.67733 -0.363347 2.19715e-11
-0.363347 9.8372 -4.55802e-11
2.19715e-11 -4.55802e-11 9.46944

8.78827 -0.106855 -2.69742e-12
-0.106855 9.71781 5.29031e-11
-2.69742e-12 5.29031e-11 9.45578

8.97472 0.141045 2.28384e-11
0.141045 7.47372 2.15431e-11
2.28384e-11 2.15431e-11 8.23842

6.57583 0.177508 -1.96585e-11
0.177508 7.39422 -4.09549e-11
-1.96585e-11 -4.09549e-11 6.73236

6.54626 -0.144925 5.78156e-12
-0.144925 7.34328 -7.03423e-12
5.78156e-12 -7.03423e-12 6.70572

7.48358 -0.125358 -3.31499e-11
-0.125358 6.3859 7.08317e-12
-3.31499e-11 7.08317e-12 6.61309

7.49827 0.624879 1.484e-11
0.624879 7.69683 5.39663e-12
1.484e-11 5.39663e-12 7.58832

7.87969 -0.41551 -2.73679e-11
-0.41551 6.67154 1.09373e-11
-2.73679e-11 1.09373e-11 7.18736

8.27746 0.662565 -7.32351e-12
0.662565 7.96275 1.54661e-11
-7.32351e-12 1.54661e-11 8.12387

7.47843 0.528671 3.08358e-11
0.528671 8.18784 -1.61893e-11
3.08358e-11 -1.61893e-11 7.70494

8.74465 -0.262153 -2.00436e-11
-0.262153 7.39359 -5.39406e-14
-2.00436e-11 -5.39406e-14 8.19442

5.76223 0.347507 -1.31075e-11
0.347507 6.11311 9.58885e-12
-1.31075e-11 9.58885e-12 5.62641

9.38499 0.326095 -3.00657e-11
0.326095 8.03845 -6.05281e-12
-3.00657e-11 -6.05281e-12 8.9204

6.16116 -0.300506 2.7754e-11
-0.300506 5.55253 2.18056e-12
2.7754e-11 2.18056e-12 5.54918

9.69514 -0.114789 3.8545e-11
-0.114789 10.146 1.92476e-13
3.8545e-11 1.92476e-13 9.87793

9.68317 0.204192 -3.00651e-11
0.204192 10.1649 2.94873e-11
-3.00651e-11 2.94873e-11 9.88285

12.0355 -0.624045 -2.73661e-11
-0.624045 10.9467 -6.41761e-11
-2.73661e-11 -6.41761e-11 10.7929

12.0178 0.645724 2.58251e-11
0.645724 10.9296 1.39722e-11
2.58251e-11 1.39722e-11 10.7894

7.3353 -0.165297 -1.86945e-11
-0.165297 6.20781 5.49312e-12
-1.86945e-11 5.49312e-12 6.54415

8.36537 0.724639 -1.34911e-11
0.724639 8.30575 2.79479e-12
-1.34911e-11 2.79479e-12 8.49117

10.4031 -0.375498 -6.55236e-12
-0.375498 9.67879 -4.11465e-11
-6.55236e-12 -4.11465e-11 9.91046

10.3285 0.373989 -1.92725e-11
0.373989 9.61395 -1.33942e-11
-1.92725e-11 -1.33942e-11 9.85017

9.38884 0.130572 1.77309e-11
0.130572 8.09226 -3.42089e-12
1.77309e-11 -3.42089e-12 9.0816

7.34079 0.596898 1.36833e-11
0.596898 8.09946 7.03506e-12
1.36833e-11 7.03506e-12 7.60451

7.96316 -0.515799 3.84988e-13
-0.515799 7.09293 -9.53991e-12
3.84988e-13 -9.53991e-12 7.40529

9.24533 -0.0316973 2.11036e-11
-0.0316973 7.78797 8.89549e-12
2.11036e-11 8.89549e-12 8.88303

7.42956 -0.6271 2.15849e-11
-0.6271 7.6659 1.43591e-11
2.15849e-11 1.43591e-11 7.53793

7.51097 -0.514198 -4.24019e-12
-0.514198 8.02585 4.43362e-12
-4.24019e-12 4.43362e-12 7.68569

8.32007 0.590138 -9.63479e-13
0.590138 9.27887 1.32978e-11
-9.63479e-13 1.32978e-11 8.90318

7.37475 -0.717023 5.01097e-12
-0.717023 6.85085 3.80611e-12
5.01097e-12 3.80611e-12 6.97443

4.57733 -0.547386 2.38997e-11
-0.547386 4.26657 -2.18759e-11
2.38997e-11 -2.18759e-11 4.43466

4.53559 0.759943 -3.70056e-11
0.759943 4.43333 1.42143e-11
-3.70056e-11 1.42143e-11 4.45865

8.47066 -0.705181 -1.15601e-12
-0.705181 9.598 -2.32235e-11
-1.15601e-12 -2.32235e-11 9.38135

4.62596 0.0997875 -3.23801e-11
0.0997875 4.29106 3.32487e-12
-3.23801e-11 3.32487e-12 4.5875

4.39681 -0.183833 -3.81618e-11
-0.183833 4.29804 -3.58011e-11
-3.81618e-11 -3.58011e-11 4.5595

9.77596 -0.162747 -3.50757e-11
-0.162747 9.98276 9.1544e-11
-3.50757e-11 9.1544e-11 9.89991

9.78394 0.16911 2.79452e-11
0.16911 9.97209 5.3963e-11
2.79452e-11 5.3963e-11 9.90114

9.55754 -0.0122377 -1.61892e-11
-0.0122377 7.7479 6.88695e-12
-1.61892e-11 6.88695e-12 8.65293

9.72998 -0.0870225 -8.09443e-11
-0.0870225 9.6699 6.33581e-11
-8.09443e-11 6.33581e-11 9.82449

9.74014 0.0959709 -2.19708e-11
0.0959709 9.67279 2.85715e-11
-2.19708e-11 2.85715e-11 9.82878

7.6664 0.548737 8.47959e-12
0.548737 8.65003 -2.29348e-11
8.47959e-12 -2.29348e-11 8.17412

11.274 -0.58496 5.93578e-11
-0.58496 10.6096 4.87587e-11
5.93578e-11 4.87587e-11 10.5013

11.2571 0.587723 -1.11777e-11
0.587723 10.5982 5.20291e-12
-1.11777e-11 5.20291e-12 10.5015

9.10988 -0.289263 1.5611e-11
-0.289263 9.04986 1.79236e-11
1.5611e-11 1.79236e-11 9.20419

9.11507 0.291768 -1.7731e-11
0.291768 9.05026 8.2391e-12
-1.7731e-11 8.2391e-12 9.20847

6.58537 -0.493927 -2.19712e-11
-0.493927 5.69254 -2.16762e-12
-2.19712e-11 -2.16762e-12 5.98718

9.88634 0.288397 -1.5417e-12
0.288397 11.2789 -6.16736e-12
-1.5417e-12 -6.16736e-12 10.402

10.2388 -0.0563329 -3.31482e-11
-0.0563329 10.7509 -3.9123e-11
-3.31482e-11 -3.9123e-11 10.341

7.37265 -0.603333 1.272e-11
-0.603333 8.12718 3.12216e-11
1.272e-11 3.12216e-11 7.63182

5.33234 -0.151016 3.12218e-11
-0.151016 5.80965 -1.85992e-11
3.12218e-11 -1.85992e-11 5.41202

5.91469 -0.156277 2.00447e-11
-0.156277 5.08456 -1.42566e-11
2.00447e-11 -1.42566e-11 5.36845

8.07935 0.472188 -1.5418e-11
0.472188 9.14115 3.58474e-11
-1.5418e-11 3.58474e-11 8.71634

8.004 0.469881 -3.43059e-11
0.469881 8.92974 -2.99693e-11
-3.43059e-11 -2.99693e-11 8.69989

11.6355 -0.471322 -1.42808e-10
-0.471322 10.4925 1.19296e-10
-1.42808e-10 1.19296e-10 10.7802

11.6565 0.43566 1.79232e-10
0.43566 10.6263 -1.97517e-11
1.79232e-10 -1.97517e-11 10.8178

8.28178 0.616929 -1.8887e-11
0.616929 8.9459 1.50326e-11
-1.8887e-11 1.50326e-11 9.06082

9.05118 0.185243 2.69846e-12
0.185243 8.12451 -2.15373e-11
2.69846e-12 -2.15373e-11 8.7247

9.03707 -0.192722 -1.96583e-11
-0.192722 8.09517 -6.87066e-11
-1.96583e-11 -6.87066e-11 8.69941

8.64289 0.827853 -4.62579e-12
0.827853 8.80816 -2.5922e-11
-4.62579e-12 -2.5922e-11 9.02472

8.79634 -0.559486 -2.65959e-11
-0.559486 9.63894 1.34946e-12
-2.65959e-11 1.34946e-12 9.3969

7.21399 -0.00949164 -2.50542e-12
-0.00949164 5.96554 4.67397e-12
-2.50542e-12 4.67397e-12 6.4292

8.63549 0.0114169 3.2957e-11
0.0114169 7.19436 1.07324e-11
3.2957e-11 1.07324e-11 7.74832

7.85625 0.370743 -4.24011e-12
0.370743 6.65986 2.96335e-12
-4.24011e-12 2.96335e-12 7.10385

10.0321 0.619516 -1.46472e-11
0.619516 8.9446 3.25704e-11
-1.46472e-11 3.25704e-11 9.56303

12.3346 -0.0937884 3.08412e-12
-0.0937884 11.8596 1.03584e-11
3.08412e-12 1.03584e-11 11.0838

12.321 0.093347 1.0022e-11
0.093347 11.9144 -4.05677e-11
1.0022e-11 -4.05677e-11 11.0876

6.87532 0.538465 6.55206e-12
0.538465 6.81359 -8.67208e-12
6.55206e-12 -8.67208e-12 6.58022

8.21502 -0.687208 -2.31265e-12
-0.687208 7.62421 -1.97068e-11
-2.31265e-12 -1.97068e-11 7.95706

9.05835 -0.168678 -4.29785e-11
-0.168678 7.91082 -3.50521e-11
-4.29785e-11 -3.50521e-11 8.38255

10.447 0.668975 -8.36411e-11
0.668975 11.6397 -2.27408e-11
-8.36411e-11 -2.27408e-11 10.6638

10.5263 -0.173841 1.29895e-10
-0.173841 10.7545 -4.27843e-11
1.29895e-10 -4.27843e-11 10.4907

10.1398 -0.605987 3.85422e-12
-0.605987 9.10936 3.82075e-11
3.85422e-12 3.82075e-11 9.66322

8.51583 -0.174737 1.47439e-11
-0.174737 9.34732 2.69769e-12
1.47439e-11 2.69769e-12 9.01298

8.62923 -0.184312 -1.72483e-11
-0.184312 9.40944 -2.34172e-11
-1.72483e-11 -2.34172e-11 9.03394

9.71149 -0.0470191 3.25712e-11
-0.0470191 7.89324 5.42041e-12
3.25712e-11 5.42041e-12 8.93525

9.74759 0.0442045 -1.17564e-11
0.0442045 7.89265 2.24052e-12
-1.17564e-11 2.24052e-12 8.95857

6.99455 0.463784 3.21864e-11
0.463784 6.70292 -2.80907e-11
3.21864e-11 -2.80907e-11 6.51619

9.86203 -0.0344349 3.61345e-12
-0.0344349 8.5644 -1.69595e-11
3.61345e-12 -1.69595e-11 9.37114

9.86536 0.0310155 4.73141e-11
0.0310155 8.57627 1.2431e-11
4.73141e-11 1.2431e-11 9.37763

9.08608 0.167389 9.82913e-12
0.167389 7.91137 -2.32959e-11
9.82913e-12 -2.32959e-11 8.39546

7.50448 -0.537282 3.84526e-13
-0.537282 8.23074 4.18223e-11
3.84526e-13 4.18223e-11 7.7397

9.84291 -0.0154686 3.73889e-11
-0.0154686 8.38441 -3.60876e-11
3.73889e-11 -3.60876e-11 9.10851

9.87873 0.0203537 -1.11781e-11
0.0203537 8.39263 -5.43e-11
-1.11781e-11 -5.43e-11 9.1352

8.9838 -0.411967 -1.8501e-11
-0.411967 7.90729 7.46884e-12
-1.8501e-11 7.46884e-12 8.48158

8.49769 0.759873 1.71522e-11
0.759873 9.28297 -8.76881e-12
1.71522e-11 -8.76881e-12 9.03149

7.85025 0.575966 -4.58697e-11
0.575966 7.27867 -1.67675e-11
-4.58697e-11 -1.67675e-11 7.42009

8.50774 0.616185 -1.11781e-11
0.616185 8.87467 1.32017e-11
-1.11781e-11 1.32017e-11 9.10798

8.59757 0.75748 -1.07923e-11
0.75748 9.48107 1.91761e-11
-1.07923e-11 1.91761e-11 9.15777

7.98725 -0.292117 -2.69836e-12
-0.292117 6.72352 9.51605e-12
-2.69836e-12 9.51605e-12 7.21061

9.15162 -0.674106 -2.02408e-12
-0.674106 8.32223 -2.89071e-12
-2.02408e-12 -2.89071e-12 8.85106

8.86824 0.4112 1.34913e-11
0.4112 7.84239 2.9728e-11
1.34913e-11 2.9728e-11 8.35149

7.28368 0.671713 -1.25278e-11
0.671713 7.08056 -3.15119e-11
-1.25278e-11 -3.15119e-11 7.09852

8.1472 0.69075 -1.1949e-11
0.69075 7.55864 6.31178e-12
-1.1949e-11 6.31178e-12 7.89259

7.87514 0.0629341 4.77956e-11
0.0629341 9.03111 -2.85234e-11
4.77956e-11 -2.85234e-11 8.63066

7.89844 0.0229901 -2.38978e-11
0.0229901 9.0307 1.18527e-11
-2.38978e-11 1.18527e-11 8.63408

6.77879 0.485002 2.79428e-12
0.485002 5.95243 -1.89965e-11
2.79428e-12 -1.89965e-11 6.17199

8.66023 -0.827101 -3.89305e-11
-0.827101 8.8234 -2.91974e-11
-3.89305e-11 -2.91974e-11 9.04646

7.18629 -0.656892 2.69815e-11
-0.656892 7.51439 -2.96328e-11
2.69815e-11 -2.96328e-11 7.15052

7.16055 0.665023 4.2406e-12
0.665023 7.53251 4.51961e-11
4.2406e-12 4.51961e-11 7.13962

8.86702 -0.495973 -2.19701e-11
-0.495973 7.86619 -2.38491e-11
-2.19701e-11 -2.38491e-11 8.39727

9.932 -0.330397 -1.15623e-12
-0.330397 8.1691 -3.70028e-11
-1.15623e-12 -3.70028e-11 9.40187

9.89014 0.333216 2.38983e-11
0.333216 8.21382 9.1062e-12
2.38983e-11 9.1062e-12 9.38031

6.90411 0.363425 2.69852e-12
0.363425 7.71444 3.17038e-11
2.69852e-12 3.17038e-11 7.25831

8.30009 -0.692323 1.46468e-11
-0.692323 7.965 2.41385e-11
1.46468e-11 2.41385e-11 8.1208

5.95953 -0.0286451 2.38983e-11
-0.0286451 7.09064 9.73401e-12
2.38983e-11 9.73401e-12 6.37794

5.9517 0.0116771 4.23982e-12
0.0116771 7.0888 1.08893e-11
4.23982e-12 1.08893e-11 6.37242

7.22672 0.0349647 -2.23572e-11
0.0349647 5.80302 1.65991e-11
-2.23572e-11 1.65991e-11 6.29718

6.93233 -0.481143 -4.62558e-12
-0.481143 6.71372 1.24796e-11
-4.62558e-12 1.24796e-11 6.48279

7.3758 0.584914 4.18221e-11
0.584914 6.96599 -1.09853e-11
4.18221e-11 -1.09853e-11 7.05862

11.1783 -1.20059 5.82017e-11
-1.20059 11.7103 -3.25696e-11
5.82017e-11 -3.25696e-11 10.9015

11.6253 0.517577 -8.78801e-11
0.517577 11.9638 -1.9271e-12
-8.78801e-11 -1.9271e-12 11.0512

8.0343 0.266059 1.61897e-11
0.266059 6.76358 1.71771e-11
1.61897e-11 1.71771e-11 7.25856

8.10841 0.731734 5.39561e-12
0.731734 8.97804 -4.54841e-11
5.39561e-12 -4.54841e-11 8.57037

9.54815 0.0114612 -1.23346e-11
0.0114612 7.73623 3.4829e-11
-1.23346e-11 3.4829e-11 8.63451

6.91388 -0.351452 -3.66177e-11
-0.351452 7.7516 3.07403e-11
-3.66177e-11 3.07403e-11 7.28393

8.21687 0.729727 -3.19921e-11
0.729727 9.59212 2.64037e-11
-3.19921e-11 2.64037e-11 9.3534

8.84901 0.597852 5.39656e-12
0.597852 9.69255 2.7078e-11
5.39656e-12 2.7078e-11 9.4331

8.50529 -0.758047 4.41344e-11
-0.758047 9.28196 2.73672e-11
4.41344e-11 2.73672e-11 9.03564

8.57172 0.766869 -2.11991e-12
0.766869 9.56274 1.47438e-11
-2.11991e-12 1.47438e-11 9.18913

7.99541 0.579159 -1.73458e-11
0.579159 8.56942 -2.38987e-11
-1.73458e-11 -2.38987e-11 8.53131

10.1009 0.00658883 7.51652e-12
0.00658883 7.9146 2.5784e-11
7.51652e-12 2.5784e-11 9.13514

7.37882 -0.57734 3.71974e-11
-0.57734 6.92006 2.36068e-12
3.71974e-11 2.36068e-12 7.01572

8.51173 -0.619115 -4.3556e-11
-0.619115 8.8827 -1.60923e-11
-4.3556e-11 -1.60923e-11 9.11923

7.56528 -0.49406 2.19709e-11
-0.49406 7.61172 -2.8669e-11
2.19709e-11 -2.8669e-11 7.37708

6.6621 -0.478984 6.16744e-11
-0.478984 6.67448 -3.61302e-12
6.16744e-11 -3.61302e-12 6.42191

8.35828 -0.715078 2.6211e-11
-0.715078 8.34006 5.73345e-12
2.6211e-11 5.73345e-12 8.50862

6.6579 -0.293338 5.39473e-12
-0.293338 7.51561 2.25495e-11
5.39473e-12 2.25495e-11 6.8405

6.6443 0.278259 -1.61896e-11
0.278259 7.51371 -2.0238e-11
-1.61896e-11 -2.0238e-11 6.83073

7.46675 0.16717 6.16734e-12
0.16717 6.50574 -6.75763e-12
6.16734e-12 -6.75763e-12 6.70609

7.5528 0.515261 -4.43232e-12
0.515261 7.60242 1.643e-11
-4.43232e-12 1.643e-11 7.37045

7.69581 0.0922753 -9.25137e-12
0.0922753 8.62598 2.19707e-11
-9.25137e-12 2.19707e-11 8.06375

7.68775 -0.0204574 1.38765e-11
-0.0204574 8.61435 1.04082e-11
1.38765e-11 1.04082e-11 8.05715

6.27087 -0.564312 -7.90124e-12
-0.564312 6.55956 -1.17558e-11
-7.90124e-12 -1.17558e-11 6.20064

6.28065 0.565321 -9.25078e-12
0.565321 6.54097 1.4166e-11
-9.25078e-12 1.4166e-11 6.18591

10.1513 0.0463024 2.50559e-12
0.0463024 8.05817 -1.56587e-11
2.50559e-12 -1.56587e-11 9.18255

10.1715 -0.0439454 8.67283e-12
-0.0439454 8.05238 1.20453e-11
8.67283e-12 1.20453e-11 9.19196

8.24016 0.666637 -9.44403e-12
0.666637 9.07937 -2.63076e-11
-9.44403e-12 -2.63076e-11 8.68781

8.10397 -0.651102 5.01112e-12
-0.651102 9.50487 -1.41656e-11
5.01112e-12 -1.41656e-11 9.30211

8.9455 0.732767 2.54399e-11
0.732767 8.4909 -3.08373e-12
2.54399e-11 -3.08373e-12 8.84303

6.43133 0.338743 -1.6189e-11
0.338743 5.53123 1.09613e-11
-1.6189e-11 1.09613e-11 5.8085

6.95084 0.441878 -2.46703e-11
0.441878 8.00238 -6.75034e-13
-2.46703e-11 -6.75034e-13 7.34928

9.66585 0.0400707 -4.04744e-12
0.0400707 9.23994 -8.91323e-12
-4.04744e-12 -8.91323e-12 9.54028

9.66221 -0.035443 -1.09853e-11
-0.035443 9.24478 -1.23346e-11
-1.09853e-11 -1.23346e-11 9.53779

8.41536 0.424633 -5.01138e-12
0.424633 8.1388 -2.87161e-11
-5.01138e-12 -2.87161e-11 8.1713

9.18631 -0.261165 -2.1778e-11
-0.261165 8.72347 2.23562e-11
-2.1778e-11 2.23562e-11 8.91041

9.18942 0.266263 -7.70754e-13
0.266263 8.72945 -7.90185e-12
-7.70754e-13 -7.90185e-12 8.9155

4.29911 -0.267084 -1.34913e-11
-0.267084 3.69522 -5.51679e-12
-1.34913e-11 -5.51679e-12 4.41726

3.44838 0.336436 -5.58935e-11
0.336436 4.07235 2.61281e-11
-5.58935e-11 2.61281e-11 4.3045

6.93774 -0.434346 -1.27208e-11
-0.434346 8.01581 5.60843e-11
-1.27208e-11 5.60843e-11 7.3621

10.6309 -0.0970512 8.65327e-11
-0.0970512 10.3162 1.6863e-11
8.65327e-11 1.6863e-11 10.3777

10.637 0.110863 -5.76241e-11
0.110863 10.3279 3.045e-11
-5.76241e-11 3.045e-11 10.3821

6.46849 0.291271 1.88879e-11
0.291271 5.49186 9.03345e-13
1.88879e-11 9.03345e-13 5.80546

7.99249 -0.360122 2.54398e-11
-0.360122 9.06517 1.73459e-11
2.54398e-11 1.73459e-11 8.72603

8.10801 -0.352561 2.65958e-11
-0.352561 9.14556 -2.28379e-11
2.65958e-11 -2.28379e-11 8.73429

7.25054 -0.70566 3.16086e-11
-0.70566 7.11408 -1.85013e-11
3.16086e-11 -1.85013e-11 7.04842

8.57455 -0.771696 2.87163e-11
-0.771696 9.55672 -3.17039e-11
2.87163e-11 -3.17039e-11 9.18549

7.9331 0.920691 9.63608e-12
0.920691 8.95412 -5.97439e-12
9.63608e-12 -5.97439e-12 9.00231

9.64797 0.418425 -4.66394e-11
0.418425 9.95092 -2.77527e-11
-4.66394e-11 -2.77527e-11 9.79992

9.38911 0.57611 -2.58252e-11
0.57611 9.93259 1.27191e-11
-2.58252e-11 1.27191e-11 9.78517

8.2459 -0.67325 2.02361e-11
-0.67325 9.09817 1.70563e-11
2.02361e-11 1.70563e-11 8.70432

8.45441 0.706045 -3.93163e-11
0.706045 8.5429 -1.50329e-11
-3.93163e-11 -1.50329e-11 8.68587

8.41366 -0.431146 2.29344e-11
-0.431146 8.14848 -2.12967e-11
2.29344e-11 -2.12967e-11 8.17604

7.62871 0.515656 -1.96588e-11
0.515656 6.59929 2.50546e-11
-1.96588e-11 2.50546e-11 6.99952

8.63033 -0.0152352 1.94655e-11
-0.0152352 7.19261 -8.31151e-12
1.94655e-11 -8.31151e-12 7.75461

8.51499 0.804842 5.78276e-13
0.804842 9.47268 -6.26352e-12
5.78276e-13 -6.26352e-12 9.14354

7.67461 -0.482767 9.25076e-12
-0.482767 8.39028 -1.99473e-11
9.25076e-12 -1.99473e-11 8.1731

7.23169 0.175638 -2.46688e-11
0.175638 8.31017 1.1178e-11
-2.46688e-11 1.1178e-11 7.77119

8.43601 0.492847 3.46947e-12
0.492847 8.43276 2.60188e-12
3.46947e-12 2.60188e-12 8.5151

7.30542 0.219653 -4.24e-11
0.219653 8.42248 1.41652e-11
-4.24e-11 1.41652e-11 7.82208

8.87527 -0.62164 -4.62525e-12
-0.62164 9.70344 8.09468e-12
-4.62525e-12 8.09468e-12 9.41717

5.09196 -0.346181 3.85484e-11
-0.346181 5.16683 3.14638e-11
3.85484e-11 3.14638e-11 4.99829

5.37146 -0.348477 -5.35804e-11
-0.348477 4.858 -3.06688e-11
-5.35804e-11 -3.06688e-11 4.98568

8.94285 -0.138192 -2.21639e-11
-0.138192 7.46556 4.90941e-11
-2.21639e-11 4.90941e-11 8.22387

8.4302 -0.494109 -1.77308e-11
-0.494109 8.42442 1.77314e-11
-1.77308e-11 1.77314e-11 8.51043

11.8586 -0.668582 -9.80966e-11
-0.668582 10.6759 9.09652e-11
-9.80966e-11 9.09652e-11 10.8386

11.8803 0.640252 2.1797e-10
0.640252 10.7308 5.69517e-11
2.1797e-10 5.69517e-11 10.8571

8.1462 -0.721695 -3.54611e-11
-0.721695 9.01968 -1.60924e-11
-3.54611e-11 -1.60924e-11 8.61621

10.6154 -0.61982 3.39199e-11
-0.61982 10.6226 -7.46803e-11
3.39199e-11 -7.46803e-11 10.3255

10.5814 0.629918 -6.93788e-12
0.629918 10.6037 2.14886e-11
-6.93788e-12 2.14886e-11 10.3134

8.96699 0.135711 -2.12002e-11
0.135711 7.7106 1.11585e-11
-2.12002e-11 1.11585e-11 8.5151

7.91254 -0.92186 -5.78209e-12
-0.92186 8.92765 1.52256e-11
-5.78209e-12 1.52256e-11 8.99329

5.36283 -0.4125 -1.86953e-11
-0.4125 5.32609 -5.76514e-11
-1.86953e-11 -5.76514e-11 5.2048

5.55163 0.413746 -6.55284e-12
0.413746 5.25797 9.80526e-12
-6.55284e-12 9.80526e-12 5.27181

5.59909 -0.307593 6.36062e-12
-0.307593 6.17872 -1.69129e-11
6.36062e-12 -1.69129e-11 5.66574

5.47084 0.28608 -2.94882e-11
0.28608 6.14761 -4.91429e-12
-2.94882e-11 -4.91429e-12 5.60906

6.19783 0.175987 4.74129e-11
0.175987 5.31219 1.21899e-11
4.74129e-11 1.21899e-11 5.55802

8.51281 -0.811064 2.54399e-11
-0.811064 9.47913 -2.40911e-11
2.54399e-11 -2.40911e-11 9.13877

4.963 0.0912872 4.62559e-12
0.0912872 5.75304 3.53915e-11
4.62559e-12 3.53915e-11 5.25765

5.86753 -0.0995859 1.15641e-11
-0.0995859 4.87075 7.96216e-12
1.15641e-11 7.96216e-12 5.2266

9.71501 -0.254779 -9.25175e-12
-0.254779 10.7397 2.98719e-11
-9.25175e-12 2.98719e-11 10.184

10.1165 -0.0150854 6.93784e-12
-0.0150854 10.4083 -5.97444e-11
6.93784e-12 -5.97444e-11 10.1761

9.51191 0.400663 -2.00436e-11
0.400663 8.5566 -1.26715e-11
-2.00436e-11 -1.26715e-11 9.07726

9.45238 -0.0286597 3.35347e-11
-0.0286597 7.50632 8.40763e-12
3.35347e-11 8.40763e-12 8.99051

6.44723 0.407194 -1.15583e-12
0.407194 7.19379 -7.2307e-13
-1.15583e-12 -7.2307e-13 6.62494

6.44883 -0.426134 -3.27727e-12
-0.426134 7.20289 2.87171e-11
-3.27727e-12 2.87171e-11 6.63595

9.08535 -0.0767594 -7.32364e-12
-0.0767594 7.77615 1.38598e-11
-7.32364e-12 1.38598e-11 8.57916

7.69693 -0.547402 1.61891e-11
-0.547402 8.71227 -4.27863e-11
1.61891e-11 -4.27863e-11 8.22045

10.3979 0.0604662 3.58467e-11
0.0604662 9.91869 5.72386e-11
3.58467e-11 5.72386e-11 10.1293

10.3939 -0.0526448 1.11776e-11
-0.0526448 9.92101 1.77305e-11
1.11776e-11 1.77305e-11 10.1298

9.14634 0.609747 -1.09851e-11
0.609747 8.72011 3.82553e-11
-1.09851e-11 3.82553e-11 8.97915

8.44048 -0.688555 2.69821e-12
-0.688555 8.54048 -2.91981e-11
2.69821e-12 -2.91981e-11 8.68521

9.32338 0.365862 -7.70947e-12
0.365862 7.90469 -3.53167e-11
-7.70947e-12 -3.53167e-11 8.80041

6.76653 0.53773 9.25084e-12
0.53773 6.34698 3.06934e-11
9.25084e-12 3.06934e-11 6.37188

8.01972 -0.59648 -2.50592e-12
-0.59648 8.61214 -1.8502e-11
-2.50592e-12 -1.8502e-11 8.55806

4.28724 0.926471 3.46985e-12
0.926471 4.08487 8.60078e-12
3.46985e-12 8.60078e-12 4.27343

7.27139 -0.131121 -2.42832e-11
-0.131121 8.31254 -2.79389e-12
-2.42832e-11 -2.79389e-12 7.78654

7.31411 -0.196849 -3.35347e-11
-0.196849 8.37337 -3.08371e-11
-3.35347e-11 -3.08371e-11 7.80116

9.83963 0.272716 -4.62572e-12
0.272716 10.801 -1.83085e-11
-4.62572e-12 -1.83085e-11 10.247

9.9821 -0.408606 5.51188e-11
-0.408606 10.67 -2.40901e-11
5.51188e-11 -2.40901e-11 10.2449

10.2605 -0.0213035 -1.46472e-11
-0.0213035 8.34631 7.13066e-12
-1.46472e-11 7.13066e-12 9.4441

10.2685 0.0198647 1.54186e-12
0.0198647 8.34187 -7.46792e-12
1.54186e-12 -7.46792e-12 9.44955

9.64602 -0.798807 5.01087e-11
-0.798807 9.20174 -1.56102e-11
5.01087e-11 -1.56102e-11 9.49542

9.59969 0.805655 -5.85888e-11
0.805655 9.04706 3.84891e-13
-5.85888e-11 3.84891e-13 9.41674

10.7385 -0.290139 4.20139e-11
-0.290139 10.3058 4.25917e-11
4.20139e-11 4.25917e-11 10.2378

10.7113 0.289387 -2.08144e-11
0.289387 10.3014 2.77518e-11
-2.08144e-11 2.77518e-11 10.2287

11.0457 -0.254558 -1.09856e-11
-0.254558 10.5267 9.02899e-11
-1.09856e-11 9.02899e-11 10.6022

11.0589 0.274176 -5.99367e-11
0.274176 10.5728 8.67012e-13
-5.99367e-11 8.67012e-13 10.6182

8.87891 -0.766005 9.2511e-12
-0.766005 9.65717 -2.28382e-11
9.2511e-12 -2.28382e-11 9.4446

8.89814 0.761988 2.1778e-11
0.761988 9.66728 1.9851e-11
2.1778e-11 1.9851e-11 9.45817

8.31124 -0.393362 5.58914e-11
-0.393362 7.60931 -3.0548e-11
5.58914e-11 -3.0548e-11 7.95249

7.83415 -0.333449 2.27416e-11
-0.333449 8.6336 -2.56331e-11
2.27416e-11 -2.56331e-11 8.28627

7.88886 0.641758 -5.53134e-11
0.641758 7.88531 1.22857e-11
-5.53134e-11 1.22857e-11 7.83385

7.91939 -0.4697 -1.07922e-11
-0.4697 8.82532 -5.13617e-11
-1.07922e-11 -5.13617e-11 8.3226

6.8017 -0.496797 2.08152e-11
-0.496797 6.42046 9.87821e-12
2.08152e-11 9.87821e-12 6.35284

8.29918 0.388285 5.78093e-13
0.388285 7.59153 -1.26236e-11
5.78093e-13 -1.26236e-11 7.93548

7.84534 0.331507 -2.59704e-11
0.331507 8.60563 -1.55143e-11
-2.59704e-11 -1.55143e-11 8.26161

8.87079 -0.952318 -2.54395e-11
-0.952318 9.24986 -4.11463e-11
-2.54395e-11 -4.11463e-11 9.41609

8.87305 0.952988 3.85437e-13
0.952988 9.24351 3.79672e-11
3.85437e-13 3.79672e-11 9.41483

9.64234 -0.380645 6.5527e-11
-0.380645 8.69783 1.02622e-11
6.5527e-11 1.02622e-11 9.21112

11.6613 -0.714353 4.241e-12
-0.714353 12.2556 -5.58894e-11
4.241e-12 -5.58894e-11 11.0974

11.1999 0.728969 4.47115e-11
0.728969 10.7427 -3.83508e-11
4.47115e-11 -3.83508e-11 10.7121

8.68752 -0.539164 -4.41342e-11
-0.539164 9.42269 2.21644e-11
-4.41342e-11 2.21644e-11 9.07454

9.00326 0.671066 6.55218e-12
0.671066 8.20006 -3.074e-11
6.55218e-12 -3.074e-11 8.71673

10.3529 0.0419316 -4.23981e-12
0.0419316 9.5964 2.47649e-11
-4.23981e-12 2.47649e-11 9.89629

7.8901 -0.627531 1.17562e-11
-0.627531 7.92058 -3.65227e-11
1.17562e-11 -3.65227e-11 7.84339

5.25739 0.401499 -4.70277e-11
0.401499 5.40382 3.48846e-11
-4.70277e-11 3.48846e-11 5.12759

5.44251 0.397002 2.31287e-11
0.397002 5.04679 1.34198e-11
2.31287e-11 1.34198e-11 5.09491

10.3715 0.0815445 -4.43278e-12
0.0815445 8.71544 -6.67314e-12
-4.43278e-12 -6.67314e-12 9.63653

10.3544 -0.0822888 1.52253e-11
-0.0822888 8.70713 -1.52251e-11
1.52253e-11 -1.52251e-11 9.63143

10.4118 -0.0690251 5.74315e-11
-0.0690251 9.67312 5.48787e-11
5.74315e-11 5.48787e-11 9.93598

7.93021 0.447145 -2.05011e-11
0.447145 8.80194 -7.80494e-12
-2.05011e-11 -7.80494e-12 8.3125

8.16891 -0.312381 1.31538e-11
-0.312381 7.33767 1.52739e-11
1.31538e-11 1.52739e-11 7.50155

9.17013 -0.380191 2.79448e-11
-0.380191 9.40167 9.3472e-12
2.79448e-11 9.3472e-12 9.31427

9.17669 0.380729 1.38765e-11
0.380729 9.40687 9.10629e-11
1.38765e-11 9.10629e-11 9.31948

12.1991 -0.0519493 -6.70657e-11
-0.0519493 12.7389 7.57387e-11
-6.70657e-11 7.57387e-11 11.2532

12.2009 0.0512386 2.15854e-11
0.0512386 12.7235 -9.5373e-11
2.15854e-11 -9.5373e-11 11.2539

8.27048 -0.653582 -7.51615e-12
-0.653582 9.24798 3.81602e-11
-7.51615e-12 3.81602e-11 8.89074

8.76047 0.515306 4.93386e-11
0.515306 7.80902 -4.43266e-12
4.93386e-11 -4.43266e-12 8.28024

10.0444 -0.0670145 1.4936e-11
-0.0670145 9.18895 -2.2982e-11
1.4936e-11 -2.2982e-11 9.63451

10.0439 0.0727294 -2.00435e-11
0.0727294 9.18556 1.89838e-11
-2.00435e-11 1.89838e-11 9.63186

8.35564 -0.413803 -1.92726e-12
-0.413803 9.14298 1.07927e-11
-1.92726e-12 1.07927e-11 9.0081

8.25358 -0.662414 4.23972e-12
-0.662414 8.8903 1.80199e-11
4.23972e-12 1.80199e-11 9.03712

4.32907 -0.960831 -2.00441e-11
-0.960831 4.35913 -2.35616e-11
-2.00441e-11 -2.35616e-11 4.35903

9.33675 -0.618799 2.77525e-11
-0.618799 9.87594 2.04288e-11
2.77525e-11 2.04288e-11 9.72124

9.33294 0.624295 1.85013e-11
0.624295 9.85941 1.46476e-11
1.85013e-11 1.46476e-11 9.71281

8.1203 -0.636666 -1.5421e-12
-0.636666 8.91277 2.06217e-11
-1.5421e-12 2.06217e-11 8.86481

8.22413 0.331386 -1.73415e-12
0.331386 7.36915 -7.13068e-12
-1.73415e-12 -7.13068e-12 7.54533

9.27671 -0.585312 -3.44022e-11
-0.585312 8.79265 1.24315e-11
-3.44022e-11 1.24315e-11 9.07222

9.76034 -0.651201 2.04286e-11
-0.651201 9.24033 2.69813e-11
2.04286e-11 2.69813e-11 9.55963

9.76919 0.635408 -4.97234e-11
0.635408 9.20436 -4.46159e-11
-4.97234e-11 -4.46159e-11 9.54488

9.44197 -0.363471 5.43492e-11
-0.363471 7.98957 -1.78754e-11
5.43492e-11 -1.78754e-11 8.91771

10.5231 0.16184 -1.32986e-11
0.16184 9.44355 -6.55283e-12
-1.32986e-11 -6.55283e-12 9.98762

10.5105 -0.158865 -1.11779e-11
-0.158865 9.45027 -6.19605e-11
-1.11779e-11 -6.19605e-11 9.98421

10.5114 -0.25306 1.92715e-11
-0.25306 11.8641 8.28753e-12
1.92715e-11 8.28753e-12 10.7462

10.7724 0.553843 2.31216e-12
0.553843 11.7654 -1.50321e-11
2.31216e-12 -1.50321e-11 10.7842

4.37899 0.0817857 -1.34932e-11
0.0817857 3.43502 3.18108e-12
-1.34932e-11 3.18108e-12 4.36289

3.76451 0.152562 -2.96817e-11
0.152562 4.22763 9.75134e-12
-2.96817e-11 9.75134e-12 4.40431

8.78608 0.608785 2.2163e-11
0.608785 9.52923 -4.00869e-11
2.2163e-11 -4.00869e-11 9.21393

8.78002 -0.609164 -1.56108e-11
-0.609164 9.52393 2.24526e-11
-1.56108e-11 2.24526e-11 9.20697

8.51574 -0.779999 -1.54159e-12
-0.779999 9.46496 -1.44545e-11
-1.54159e-12 -1.44545e-11 9.11827

4.16297 -0.405238 -1.34917e-11
-0.405238 4.0818 3.64043e-11
-1.34917e-11 3.64043e-11 4.39796

4.25403 -0.334441 -6.93847e-11
-0.334441 4.125 -4.77746e-11
-6.93847e-11 -4.77746e-11 4.43139

10.7557 0.540524 -3.85418e-11
0.540524 11.8387 1.48493e-10
-3.85418e-11 1.48493e-10 10.8689

10.7414 -0.568266 2.4472e-11
-0.568266 11.7816 2.42542e-10
2.4472e-11 2.42542e-10 10.8546

8.98092 -0.737015 -2.54403e-11
-0.737015 8.53729 2.61145e-11
-2.54403e-11 2.61145e-11 8.88772

7.94195 -0.594311 2.04282e-11
-0.594311 8.31318 2.80413e-11
2.04282e-11 2.80413e-11 8.05819

8.65726 0.586054 6.84178e-11
0.586054 9.09041 2.41885e-11
6.84178e-11 2.41885e-11 9.00563

8.65278 -0.58583 5.78195e-13
-0.58583 9.08475 1.44532e-12
5.78195e-13 1.44532e-12 9.00099

8.11778 -0.69229 3.70038e-11
-0.69229 8.70752 -4.04817e-12
3.70038e-11 -4.04817e-12 8.45192

7.9497 0.602583 -1.50322e-11
0.602583 8.29848 1.92718e-12
-1.50322e-11 1.92718e-12 8.05284

5.5855 -0.221661 1.27207e-11
-0.221661 6.21156 3.85599e-12
1.27207e-11 3.85599e-12 5.70275

5.58356 0.18645 1.96581e-11
0.18645 6.24492 -9.78131e-12
1.96581e-11 -9.78131e-12 5.6914

6.24334 0.159133 2.73685e-11
0.159133 5.44892 8.01036e-12
2.73685e-11 8.01036e-12 5.63163

8.11557 0.690552 -2.94866e-11
0.690552 8.70042 5.25184e-11
-2.94866e-11 5.25184e-11 8.44485

5.02301 -0.104268 1.96588e-11
-0.104268 5.70334 -7.29918e-12
1.96588e-11 -7.29918e-12 5.23203

5.80886 -0.062762 3.85484e-12
-0.062762 4.82814 -1.70326e-11
3.85484e-12 -1.70326e-11 5.22002

9.09134 -0.567596 1.81165e-11
-0.567596 9.60945 -1.68634e-11
1.81165e-11 -1.68634e-11 9.48294

9.10628 0.564764 -2.31311e-12
0.564764 9.61938 -6.46596e-11
-2.31311e-12 -6.46596e-11 9.49277

9.21863 -0.430255 -3.66155e-12
-0.430255 9.69371 5.70471e-11
-3.66155e-12 5.70471e-11 9.57022

9.22668 0.430123 -2.50538e-11
0.430123 9.68652 1.63815e-11
-2.50538e-11 1.63815e-11 9.5729

4.17377 0.372436 5.58935e-11
0.372436 3.9483 3.72711e-11
5.58935e-11 3.72711e-11 4.34164

4.12128 0.355025 -7.74799e-11
0.355025 3.95194 8.57707e-12
-7.74799e-11 8.57707e-12 4.31677

8.56413 0.537488 2.13928e-11
0.537488 8.93983 3.99909e-11
2.13928e-11 3.99909e-11 8.73908

8.56269 -0.541087 -4.00872e-11
-0.541087 8.94254 1.32025e-11
-4.00872e-11 1.32025e-11 8.73785

10.1623 -0.524132 -1.92861e-12
-0.524132 10.9042 3.93151e-11
-1.92861e-12 3.93151e-11 10.3777

10.3203 0.235293 -3.46993e-12
0.235293 10.4411 -3.9893e-11
-3.46993e-12 -3.9893e-11 10.3144

9.11488 -0.586246 2.77556e-16
-0.586246 10.0071 -5.07832e-11
2.77556e-16 -5.07832e-11 9.67731

9.11759 0.586506 5.0108e-12
0.586506 9.9937 1.8309e-11
5.0108e-12 1.8309e-11 9.6772

10.2231 0.0405242 3.64251e-11
0.0405242 9.2783 -1.60926e-11
3.64251e-11 -1.60926e-11 9.88835

10.2198 -0.0350386 3.33415e-11
-0.0350386 9.28138 -4.97706e-11
3.33415e-11 -4.97706e-11 9.88829

8.93606 -0.662255 -8.09477e-12
-0.662255 8.99713 3.72925e-11
-8.09477e-12 3.72925e-11 9.16879

8.94021 0.67068 1.07925e-11
0.67068 8.95771 -4.75068e-11
1.07925e-11 -4.75068e-11 9.14994

10.9179 0.162337 4.97227e-11
0.162337 10.0647 3.08365e-12
4.97227e-11 3.08365e-12 10.3594

10.9855 0.0270302 -1.07929e-11
0.0270302 10.4689 1.92716e-11
-1.07929e-11 1.92716e-11 10.572

10.923 -0.164689 -4.77957e-11
-0.164689 10.0724 -2.50537e-11
-4.77957e-11 -2.50537e-11 10.3649

10.9848 -0.0435138 1.81165e-11
-0.0435138 10.4384 -1.61892e-11
1.81165e-11 -1.61892e-11 10.5665

10.2738 0.0275436 1.85009e-11
0.0275436 11.0039 -4.16285e-11
1.85009e-11 -4.16285e-11 10.4472

11.3711 0.65458 3.08354e-11
0.65458 10.8879 1.53215e-11
3.08354e-11 1.53215e-11 10.6053

11.3747 -0.65207 -3.73883e-11
-0.65207 10.8926 7.31384e-11
-3.73883e-11 7.31384e-11 10.6048

9.9884 -0.349992 6.55309e-12
-0.349992 11.6795 -4.95303e-11
6.55309e-12 -4.95303e-11 10.5369

10.4435 -0.309864 -1.827e-10
-0.309864 10.6259 -8.0076e-11
-1.827e-10 -8.0076e-11 10.4527

13.5134 -0.449007 -1.73436e-12
-0.449007 9.83201 -3.18933e-11
-1.73436e-12 -3.18933e-11 11.0301

10.4123 0.326423 1.76148e-10
0.326423 10.6856 1.8328e-10
1.76148e-10 1.8328e-10 10.4677

13.5195 0.415005 -2.27028e-10
0.415005 9.96936 4.39341e-11
-2.27028e-10 4.39341e-11 11.0697

10.6668 -0.424034 -3.84748e-13
-0.424034 10.4882 -4.01824e-11
-3.84748e-13 -4.01824e-11 10.4204

9.90743 -0.294235 -2.67882e-11
-0.294235 10.3586 -3.05467e-11
-2.67882e-11 -3.05467e-11 10.0967

10.9157 -0.0241037 1.67665e-11
-0.0241037 10.5015 -2.36086e-11
1.67665e-11 -2.36086e-11 10.5985

10.6534 0.445273 -1.04069e-11
0.445273 10.4975 2.96792e-11
-1.04069e-11 2.96792e-11 10.4248

9.9152 0.304399 -5.78176e-12
0.304399 10.3413 -6.64897e-12
-5.78176e-12 -6.64897e-12 10.0955

10.9282 0.0273122 -3.27625e-11
0.0273122 10.5852 7.46797e-11
-3.27625e-11 7.46797e-11 10.6265

9.87879 -0.242595 -1.40685e-11
-0.242595 10.2411 -1.19489e-11
-1.40685e-11 -1.19489e-11 10.1178

10.663 -0.135371 5.41555e-11
-0.135371 10.4773 6.04183e-11
5.41555e-11 6.04183e-11 10.4405

9.89214 0.254169 6.16743e-12
0.254169 10.2437 3.30523e-11
6.16743e-12 3.30523e-11 10.1237

10.6703 0.141608 -1.9272e-11
0.141608 10.4832 5.70456e-11
-1.9272e-11 5.70456e-11 10.4457

7.4903 0.574011 1.29133e-11
0.574011 8.15069 1.73419e-12
1.29133e-11 1.73419e-12 7.64324

8.35002 0.115619 2.89086e-11
0.115619 9.56845 -2.54397e-11
2.89086e-11 -2.54397e-11 9.02534

8.85835 0.31054 -2.15849e-11
0.31054 9.33043 -1.54187e-11
-2.15849e-11 -1.54187e-11 9.05221

8.65903 -0.375142 3.66171e-12
-0.375142 7.41311 -1.54153e-12
3.66171e-12 -1.54153e-12 8.13923

8.2562 -0.229501 1.93068e-13
-0.229501 7.12089 2.11994e-11
1.93068e-13 2.11994e-11 7.66125

8.56308 0.176423 -1.13707e-11
0.176423 10.2209 4.27853e-11
-1.13707e-11 4.27853e-11 9.52005

8.98211 0.321043 -6.36023e-12
0.321043 9.55453 -1.37802e-11
-6.36023e-12 -1.37802e-11 9.46227

8.2826 -0.00227118 -6.55239e-12
-0.00227118 7.2011 -6.16764e-12
-6.55239e-12 -6.16764e-12 7.70933

9.36075 0.145238 2.50517e-12
0.145238 8.03133 1.52251e-11
2.50517e-12 1.52251e-11 9.06997

6.03703 0.49563 -1.8117e-11
0.49563 6.76238 2.31274e-12
-1.8117e-11 2.31274e-12 6.19142

5.80247 0.391236 -2.11994e-12
0.391236 6.69937 3.4685e-12
-2.11994e-12 3.4685e-12 6.10751

6.54389 0.392384 1.64782e-11
0.392384 5.84272 -4.23953e-12
1.64782e-11 -4.23953e-12 6.0245

9.62877 -0.602135 -2.89059e-12
-0.602135 9.9598 -2.00435e-11
-2.89059e-12 -2.00435e-11 9.77487

9.5388 -0.252401 -1.07923e-11
-0.252401 10.2017 -3.27633e-11
-1.07923e-11 -3.27633e-11 9.80731

8.30488 -0.691553 -1.85014e-11
-0.691553 8.21675 -9.25081e-12
-1.85014e-11 -9.25081e-12 8.28692

7.65184 0.557901 2.40908e-11
0.557901 8.52262 1.81166e-11
2.40908e-11 1.81166e-11 8.10112

8.36479 0.652609 2.21636e-11
0.652609 9.17631 -1.34907e-11
2.21636e-11 -1.34907e-11 8.88422

8.94595 -0.315555 8.86531e-12
-0.315555 9.5322 -2.48617e-11
8.86531e-12 -2.48617e-11 9.43314

8.53025 -0.209158 -2.89082e-12
-0.209158 10.2246 -9.25101e-12
-2.89082e-12 -9.25101e-12 9.48823

8.88769 0.174939 2.14894e-11
0.174939 7.52536 1.92733e-11
2.14894e-11 1.92733e-11 8.24067

6.55976 0.163341 -1.42628e-11
0.163341 7.48741 -7.90246e-12
-1.42628e-11 -7.90246e-12 6.72485

6.34667 0.0716777 -1.12736e-11
0.0716777 7.45542 7.70939e-13
-1.12736e-11 7.70939e-13 6.69718

7.36779 0.0679077 2.12962e-11
0.0679077 6.36958 -1.38762e-11
2.12962e-11 -1.38762e-11 6.58692

7.26476 0.390982 3.38237e-11
0.390982 8.21648 2.58259e-11
3.38237e-11 2.58259e-11 7.67076

7.42287 0.640753 -2.50533e-12
0.640753 7.96933 7.13083e-12
-2.50533e-12 7.13083e-12 7.57239

8.6432 0.108296 2.67894e-11
0.108296 7.44366 -3.8531e-13
2.67894e-11 -3.8531e-13 8.20081

5.65854 0.296135 -9.05839e-12
0.296135 6.21594 3.95109e-11
-9.05839e-12 3.95109e-11 5.61487

9.34856 -0.401789 -3.66185e-11
-0.401789 7.98543 1.31056e-11
-3.66185e-11 1.31056e-11 8.91089

9.6164 0.0305725 3.21848e-11
0.0305725 10.5058 1.5418e-11
3.21848e-11 1.5418e-11 9.90565

9.87831 0.00915213 4.04721e-12
0.00915213 9.99593 -2.1778e-11
4.04721e-12 -2.1778e-11 9.86779

11.91 0.270444 -3.66175e-11
0.270444 10.3854 -2.92935e-11
-3.66175e-11 -2.92935e-11 10.7152

12.0176 -0.651325 5.04938e-11
-0.651325 10.9242 3.8544e-12
5.04938e-11 3.8544e-12 10.79

8.03186 -0.734205 2.31279e-11
-0.734205 8.22706 -1.77313e-11
2.31279e-11 -1.77313e-11 8.17414

7.24499 -0.593262 -1.50327e-11
-0.593262 7.90391 -3.08347e-12
-1.50327e-11 -3.08347e-12 7.55529

7.23991 -0.204208 5.87813e-12
-0.204208 6.14405 8.86624e-12
5.87813e-12 8.86624e-12 6.51256

10.3057 0.103706 4.54831e-11
0.103706 9.5758 3.60395e-11
4.54831e-11 3.60395e-11 9.90199

10.3143 -0.382976 -5.78133e-12
-0.382976 9.63193 5.3961e-12
-5.78133e-12 5.3961e-12 9.85237

9.3881 -0.170698 -3.97016e-11
-0.170698 8.05268 -1.92728e-11
-3.97016e-11 -1.92728e-11 9.08507

9.23552 -0.0513666 -9.44359e-12
-0.0513666 7.72035 7.32323e-12
-9.44359e-12 7.32323e-12 8.88783

7.81438 -0.604844 2.04303e-11
-0.604844 7.22199 1.92742e-12
2.04303e-11 1.92742e-12 7.35035

7.84117 0.279552 6.16753e-12
0.279552 6.83147 -1.19493e-11
6.16753e-12 -1.19493e-11 7.2071

7.70952 -0.493692 -1.50333e-11
-0.493692 6.73458 1.07933e-11
-1.50333e-11 1.07933e-11 7.12089

7.97685 0.407518 1.05997e-11
0.407518 9.28419 7.70994e-13
1.05997e-11 7.70994e-13 8.88284

7.33665 -0.491523 3.50766e-11
-0.491523 8.1849 3.70039e-11
3.50766e-11 3.70039e-11 7.68458

7.21051 0.472035 3.62334e-11
0.472035 7.9157 9.63686e-12
3.62334e-11 9.63686e-12 7.56007

4.48493 -0.750117 -3.89329e-11
-0.750117 4.51765 -2.54406e-11
-3.89329e-11 -2.54406e-11 4.47061

4.22655 0.462205 -1.27199e-11
0.462205 4.46682 2.8911e-11
-1.27199e-11 2.8911e-11 4.382

8.47074 -0.565357 3.08409e-12
-0.565357 9.74499 -3.00653e-11
3.08409e-12 -3.00653e-11 9.37525

7.43388 0.373415 4.93386e-11
0.373415 8.60678 -5.24223e-11
4.93386e-11 -5.24223e-11 8.13722

4.25382 0.0782743 1.5226e-11
0.0782743 4.3218 -3.00667e-11
1.5226e-11 -3.00667e-11 4.51476

4.35597 -0.151654 2.58266e-11
-0.151654 4.5883 -1.75395e-11
2.58266e-11 -1.75395e-11 4.60429

9.7674 -0.222007 -1.87913e-12
-0.222007 10.1096 -4.22066e-11
-1.87913e-12 -4.22066e-11 9.92518

9.69603 0.473377 4.48076e-11
0.473377 9.89051 5.20365e-11
4.48076e-11 5.20365e-11 9.88784

9.44475 0.00540033 2.75118e-11
0.00540033 7.81202 2.56323e-11
2.75118e-11 2.56323e-11 8.65022

9.71986 -0.147584 7.37102e-12
-0.147584 9.78974 1.03493e-10
7.37102e-12 1.03493e-10 9.85051

9.71058 0.44257 2.06217e-11
0.44257 9.91251 -1.73454e-11
2.06217e-11 -1.73454e-11 9.888

11.3157 0.488566 -4.50975e-11
0.488566 10.0508 3.6424e-11
-4.50975e-11 3.6424e-11 10.4544

11.2464 -0.597493 1.04075e-11
-0.597493 10.5844 9.25116e-12
1.04075e-11 9.25116e-12 10.5004

9.10096 -0.356174 -3.85393e-12
-0.356174 9.15723 -2.36573e-11
-3.85393e-12 -2.36573e-11 9.2262

9.07611 0.473257 9.15656e-13
0.473257 9.04447 -1.62856e-11
9.15656e-13 -1.62856e-11 9.22552

10.1962 -0.0387804 -3.25704e-11
-0.0387804 11.5006 -3.54615e-11
-3.25704e-11 -3.54615e-11 10.456

10.1316 0.170854 1.13706e-11
0.170854 10.7268 -1.02142e-11
1.13706e-11 -1.02142e-11 10.3143

7.39826 -0.675744 5.20359e-12
-0.675744 8.17025 4.62542e-12
5.20359e-12 4.62542e-12 7.63986

5.23089 0.0709123 -3.31505e-11
0.0709123 5.94096 -5.85917e-11
-3.31505e-11 -5.85917e-11 5.43108

5.89088 0.091593 -2.7561e-11
0.091593 5.30763 -2.96809e-11
-2.7561e-11 -2.96809e-11 5.42919

7.79586 0.356089 -2.27417e-11
0.356089 9.19032 -6.16753e-12
-2.27417e-11 -6.16753e-12 8.69647

8.18568 0.524171 1.11782e-11
0.524171 9.0389 -2.21636e-11
1.11782e-11 -2.21636e-11 8.70516

11.6159 -0.498509 8.07266e-11
-0.498509 10.7246 2.91005e-11
8.07266e-11 2.91005e-11 10.8297

11.5593 0.769761 -1.13077e-10
0.769761 12.4459 1.80387e-10
-1.13077e-10 1.80387e-10 11.1587

7.78166 0.477806 -1.85022e-11
0.477806 7.52892 -2.25494e-11
-1.85022e-11 -2.25494e-11 7.48384

8.62845 0.810772 4.56759e-11
0.810772 9.43992 1.67678e-11
4.56759e-11 1.67678e-11 9.15008

8.99369 0.306429 -1.58961e-12
0.306429 8.1938 -1.2334e-11
-1.58961e-12 -1.2334e-11 8.74209

9.0129 -0.241369 -1.44061e-11
-0.241369 8.19899 -1.29124e-11
-1.44061e-11 -1.29124e-11 8.72201

8.6496 0.769186 -1.92729e-11
0.769186 9.16706 -1.27205e-11
-1.92729e-11 -1.27205e-11 9.06211

8.85344 -0.760177 -1.10815e-11
-0.760177 9.68106 -2.02365e-11
-1.10815e-11 -2.02365e-11 9.40456

9.99955 -0.649172 -3.23773e-11
-0.649172 8.92765 -1.42616e-11
-3.23773e-11 -1.42616e-11 9.55724

7.23092 -0.0577314 -2.20673e-11
-0.0577314 6.19369 -4.25934e-11
-2.20673e-11 -4.25934e-11 6.53443

12.3368 0.0921606 1.61891e-11
0.0921606 11.8593 -1.00214e-11
1.61891e-11 -1.00214e-11 11.0863

12.3781 -0.0579141 4.00871e-11
-0.0579141 10.8364 -4.1627e-11
4.00871e-11 -4.1627e-11 10.9477

8.07405 0.588669 1.23345e-11
0.588669 7.81563 2.73676e-11
1.23345e-11 2.73676e-11 7.97691

8.97548 0.222995 3.03544e-11
0.222995 7.86183 -3.46838e-12
3.03544e-11 -3.46838e-12 8.38246

6.74509 0.501987 2.8331e-11
0.501987 6.9753 2.89097e-11
2.8331e-11 2.89097e-11 6.56755

10.3965 0.121308 -1.16982e-10
0.121308 10.7678 -4.25919e-11
-1.16982e-10 -4.25919e-11 10.4661

10.7677 0.350584 3.10278e-11
0.350584 11.8679 3.84327e-13
3.10278e-11 3.84327e-13 10.7169

10.0112 0.321736 3.81599e-11
0.321736 8.81419 -2.89059e-12
3.81599e-11 -2.89059e-12 9.61376

8.31864 -0.136151 -8.57592e-12
-0.136151 9.59028 7.32365e-12
-8.57592e-12 7.32365e-12 9.00351

8.83813 -0.291737 3.26667e-11
-0.291737 9.35737 1.272e-11
3.26667e-11 1.272e-11 9.04479

9.60001 0.0937067 -1.43823e-11
0.0937067 8.02857 -1.88874e-11
-1.43823e-11 -1.88874e-11 8.9711

9.6475 -0.0712574 1.54903e-11
-0.0712574 8.01457 2.00432e-11
1.54903e-11 2.00432e-11 8.96451

6.96555 -0.501984 -4.96285e-11
-0.501984 6.73154 4.04758e-12
-4.96285e-11 4.04758e-12 6.51075

8.5491 0.00189579 -1.65268e-11
0.00189579 7.19321 -7.51584e-12
-1.65268e-11 -7.51584e-12 7.74306

9.82065 -0.0793481 2.13443e-11
-0.0793481 8.68207 -8.09442e-12
2.13443e-11 -8.09442e-12 9.39819

9.69241 0.165891 8.28729e-12
0.165891 8.79525 5.47334e-11
8.28729e-12 5.47334e-11 9.40598

9.01296 -0.207178 -3.58473e-11
-0.207178 7.99736 1.56108e-11
-3.58473e-11 1.56108e-11 8.39658

7.56622 -0.59688 5.97485e-12
-0.59688 8.25467 -1.88878e-11
5.97485e-12 -1.88878e-11 7.74827

9.77034 -0.0453604 1.66714e-11
-0.0453604 8.48355 -8.86518e-12
1.66714e-11 -8.86518e-12 9.12562

9.69212 0.105876 -2.28863e-11
0.105876 8.44593 -2.44765e-11
-2.28863e-11 -2.44765e-11 9.12173

8.85857 0.243097 2.89021e-12
0.243097 7.89209 -2.69824e-12
2.89021e-12 -2.69824e-12 8.46831

7.03137 -0.758947 2.69843e-12
-0.758947 6.9312 1.34909e-11
2.69843e-12 1.34909e-11 6.89087

8.29932 0.733971 7.80526e-12
0.733971 8.97485 -4.66401e-11
7.80526e-12 -4.66401e-11 8.99176

8.6967 0.722245 -7.3233e-12
0.722245 9.55508 4.43271e-11
-7.3233e-12 4.43271e-11 9.23014

8.23027 0.544243 4.14381e-12
0.544243 9.04865 4.43272e-11
4.14381e-12 4.43272e-11 9.05928

7.9163 0.265064 -2.21673e-12
0.265064 6.74799 -8.09487e-12
-2.21673e-12 -8.09487e-12 7.20763

6.19921 -0.52313 -1.0407e-11
-0.52313 5.74054 -5.16527e-11
-1.0407e-11 -5.16527e-11 5.75105

8.94477 0.442508 -2.50553e-11
0.442508 8.33151 -2.08153e-11
-2.50553e-11 -2.08153e-11 8.81947

8.82803 -0.47172 1.17562e-11
-0.47172 7.86243 5.97452e-11
1.17562e-11 5.97452e-11 8.3548

6.29405 -0.453373 3.35357e-11
-0.453373 5.71195 2.46696e-11
3.35357e-11 2.46696e-11 5.79005

8.11748 -0.75693 -5.78126e-12
-0.75693 7.61057 -3.85756e-13
-5.78126e-12 -3.85756e-13 7.9052

8.02417 0.0197696 1.50325e-11
0.0197696 8.8885 8.09464e-12
1.50325e-11 8.09464e-12 8.60329

7.66843 3.91669e-05 2.96798e-11
3.91669e-05 9.3642 -2.9295e-11
2.96798e-11 -2.9295e-11 8.65067

7.18819 0.645364 3.08399e-12
0.645364 7.24572 -1.63824e-11
3.08399e-12 -1.63824e-11 7.0914

6.7582 -0.535717 -1.85027e-11
-0.535717 6.00634 3.1994e-11
-1.85027e-11 3.1994e-11 6.17899

8.62165 -0.787057 -2.15857e-11
-0.787057 8.8926 1.11777e-11
-2.15857e-11 1.11777e-11 9.00465

7.20206 -0.701014 -1.73423e-12
-0.701014 7.56455 -1.44545e-11
-1.73423e-12 -1.44545e-11 7.15663

7.10718 -0.709308 -2.15848e-11
-0.709308 7.42622 -3.77747e-11
-2.15848e-11 -3.77747e-11 7.10053

8.76517 0.362596 3.54614e-11
0.362596 8.08263 -5.78158e-12
3.54614e-11 -5.78158e-12 8.42603

9.94364 0.230497 -1.92749e-12
0.230497 7.87945 -2.9294e-11
-1.92749e-12 -2.9294e-11 9.38296

9.87275 -0.363278 -1.54178e-11
-0.363278 8.15638 -6.55243e-12
-1.54178e-11 -6.55243e-12 9.37452

6.9519 0.404145 2.50569e-12
0.404145 7.86824 -1.23353e-11
2.50569e-12 -1.23353e-11 7.27004

6.71317 0.274994 -2.25495e-11
0.274994 7.99124 -8.09478e-12
-2.25495e-11 -8.09478e-12 7.29168

5.96255 -0.0580147 -9.63641e-12
-0.0580147 7.17516 -5.58995e-12
-9.63641e-12 -5.58995e-12 6.37942

5.81476 -0.0780084 -1.50324e-11
-0.0780084 7.21787 8.4804e-12
-1.50324e-11 8.4804e-12 6.37598

7.15408 -0.05089 1.00217e-11
-0.05089 5.82927 1.94657e-11
1.00217e-11 1.94657e-11 6.28967

7.38294 -0.638236 1.92706e-12
-0.638236 7.01192 -1.54184e-11
1.92706e-12 -1.54184e-11 7.06647

10.586 -0.475384 -3.95079e-11
-0.475384 11.3039 -6.62966e-11
-3.95079e-11 -6.62966e-11 10.7043

12.6037 -0.189455 6.55245e-12
-0.189455 12.607 2.92933e-11
6.55245e-12 2.92933e-11 11.3114

7.56184 0.450698 -2.12016e-11
0.450698 6.80637 2.65961e-11
-2.12016e-11 2.65961e-11 7.07811

8.01079 -0.306026 2.20678e-11
-0.306026 6.81564 2.58257e-11
2.20678e-11 2.58257e-11 7.27655

6.34773 0.281586 -1.44555e-11
0.281586 5.69836 -1.34914e-11
-1.44555e-11 -1.34914e-11 5.83455

7.79599 0.462449 -3.08362e-12
0.462449 8.75576 -5.55058e-11
-3.08362e-12 -5.55058e-11 8.51252

9.44454 0.00904187 1.68153e-11
0.00904187 7.82121 3.21849e-11
1.68153e-11 3.21849e-11 8.64156

8.80973 0.708869 3.91228e-11
0.708869 9.64044 1.92789e-12
3.91228e-11 1.92789e-12 9.41131

8.27825 0.56238 1.16597e-11
0.56238 9.74312 1.00216e-11
1.16597e-11 1.00216e-11 9.36809

6.52805 0.362286 8.38332e-12
0.362286 6.91849 6.74516e-12
8.38332e-12 6.74516e-12 6.49199

6.76934 0.403229 2.55367e-11
0.403229 6.6595 5.39717e-12
2.55367e-11 5.39717e-12 6.43634

8.52135 -0.854213 -2.5921e-11
-0.854213 9.36046 -2.81379e-11
-2.5921e-11 -2.81379e-11 9.04924

6.40505 0.227589 -2.44772e-11
0.227589 5.71679 -5.39559e-12
-2.44772e-11 -5.39559e-12 5.87286

8.22852 0.630536 2.38018e-11
0.630536 8.86395 1.23349e-11
2.38018e-11 1.23349e-11 9.0515

8.17566 0.769774 -1.13709e-11
0.769774 8.89446 1.85017e-11
-1.13709e-11 1.85017e-11 8.54885

9.98245 -0.0104549 -3.75831e-12
-0.0104549 8.05552 2.50516e-12
-3.75831e-12 2.50516e-12 9.16882

8.45272 -0.582411 -1.07925e-11
-0.582411 8.91443 2.7293e-16
-1.07925e-11 2.7293e-16 9.09266

8.14252 0.628212 -1.92836e-13
0.628212 8.18473 -1.06e-11
-1.92836e-13 -1.06e-11 8.11111

6.71762 -0.306863 1.54188e-12
-0.306863 7.57189 -2.94879e-11
1.54188e-12 -2.94879e-11 6.85068

6.46518 -0.292615 1.73506e-12
-0.292615 7.56837 -6.16759e-12
1.73506e-12 -6.16759e-12 6.81155

7.44296 -0.217002 1.34908e-11
-0.217002 6.5658 4.83748e-11
1.34908e-11 4.83748e-11 6.71898

7.56694 -0.573436 1.73493e-12
-0.573436 7.65263 -2.62112e-11
1.73493e-12 -2.62112e-11 7.37734

7.42771 -0.0379301 2.29347e-11
-0.0379301 8.74659 -4.62565e-12
2.29347e-11 -4.62565e-12 8.03629

7.87357 -0.00487897 2.2549e-11
-0.00487897 8.64819 9.63914e-13
2.2549e-11 9.63914e-13 8.07443

6.2909 -0.614024 -5.97564e-12
-0.614024 6.57325 5.4351e-11
-5.97564e-12 5.4351e-11 6.18312

6.11781 -0.597329 2.31232e-12
-0.597329 6.67077 2.38987e-11
2.31232e-12 2.38987e-11 6.19406

9.99459 -0.0309103 1.94415e-11
-0.0309103 8.19775 -3.12211e-11
1.94415e-11 -3.12211e-11 9.21112

10.0403 0.0326576 -1.75625e-11
0.0326576 8.17347 1.00214e-11
-1.75625e-11 1.00214e-11 9.2077

8.08906 0.586849 1.25273e-11
0.586849 8.65667 -2.85236e-11
1.25273e-11 -2.85236e-11 8.62708

8.26756 -0.495639 -2.46681e-11
-0.495639 9.65836 -6.55302e-12
-2.46681e-11 -6.55302e-12 9.32938

8.86842 -0.76091 6.16773e-12
-0.76091 8.44601 -4.31717e-11
6.16773e-12 -4.31717e-11 8.7907

9.51448 0.288733 3.45225e-11
0.288733 9.20225 -7.41916e-12
3.45225e-11 -7.41916e-12 9.52238

9.63503 -0.0850249 3.84251e-11
-0.0850249 9.34913 -2.10062e-11
3.84251e-11 -2.10062e-11 9.55781

9.15537 -0.314659 -1.93206e-11
-0.314659 8.80772 3.46889e-12
-1.93206e-11 3.46889e-12 8.92361

9.08012 0.380483 1.37799e-11
0.380483 8.56808 3.27641e-11
1.37799e-11 3.27641e-11 8.88772

4.16705 -0.317927 -1.81171e-11
-0.317927 3.47042 -6.70725e-11
-1.81171e-11 -6.70725e-11 4.3334

7.05115 0.603512 2.82356e-11
0.603512 7.43062 2.12008e-11
2.82356e-11 2.12008e-11 7.11821

3.73804 0.219903 -1.5612e-11
0.219903 4.19546 2.15864e-11
-1.5612e-11 2.15864e-11 4.38937

8.26127 0.681133 -1.98507e-11
0.681133 8.64526 -4.24049e-12
-1.98507e-11 -4.24049e-12 8.50647

7.01685 -0.476129 1.55151e-11
-0.476129 8.03627 1.07932e-11
1.55151e-11 1.07932e-11 7.36833

6.73089 -0.424492 2.31262e-12
-0.424492 7.97612 5.31935e-11
2.31262e-12 5.31935e-11 7.31031

10.6058 -0.145336 -7.86552e-12
-0.145336 10.4364 2.3513e-11
-7.86552e-12 2.3513e-11 10.4048

10.3776 0.40289 4.85785e-11
0.40289 10.8238 -3.08289e-12
4.85785e-11 -3.08289e-12 10.44

8.34172 0.450315 7.03546e-12
0.450315 7.99191 -8.48027e-12
7.03546e-12 -8.48027e-12 8.15309

8.56682 -0.0445817 -7.85398e-12
-0.0445817 7.26345 -9.25017e-12
-7.85398e-12 -9.25017e-12 7.75914

7.34745 0.504705 -6.07122e-12
0.504705 6.87956 -2.77534e-11
-6.07122e-12 -2.77534e-11 7.01811

7.85701 -0.292194 2.27416e-11
-0.292194 9.34643 -1.1562e-12
2.27416e-11 -1.1562e-12 8.73346

8.20691 -0.482653 -1.07927e-11
-0.482653 9.06418 5.78223e-13
-1.07927e-11 5.78223e-13 8.72292

8.60721 -0.87709 -2.98721e-11
-0.87709 9.70045 -5.20349e-12
-2.98721e-11 -5.20349e-12 9.21342

8.39153 -0.484287 3.10292e-11
-0.484287 8.20596 7.90164e-12
3.10292e-11 7.90164e-12 8.1792

8.53854 0.817271 -5.78169e-13
0.817271 9.42213 1.484e-11
-5.78169e-13 1.484e-11 9.13612

9.58432 0.377618 -4.10505e-11
0.377618 10.1195 -8.19051e-12
-4.10505e-11 -8.19051e-12 9.82393

9.59845 0.573369 -3.70031e-11
0.573369 9.88898 1.43578e-11
-3.70031e-11 1.43578e-11 9.77357

8.27365 -0.766702 -6.74507e-12
-0.766702 9.17083 1.92721e-13
-6.74507e-12 1.92721e-13 8.71864

8.33653 0.696649 3.85456e-12
0.696649 9.00476 -4.0475e-12
3.85456e-12 -4.0475e-12 8.68343

7.79809 0.87861 -8.76906e-12
0.87861 9.02406 2.38981e-11
-8.76906e-12 2.38981e-11 8.98785

7.04182 0.0820565 -2.58248e-11
0.0820565 8.55291 8.48042e-12
-2.58248e-11 8.48042e-12 7.79494

7.28683 0.191449 -3.60401e-11
0.191449 8.34871 1.56106e-11
-3.60401e-11 1.56106e-11 7.7591

8.40794 0.539526 3.498e-11
0.539526 8.31598 -1.92733e-12
3.498e-11 -1.92733e-12 8.51827

7.52421 0.452938 7.3239e-12
0.452938 7.46794 3.43061e-11
7.3239e-12 3.43061e-11 7.36706

7.51543 -0.470426 3.19927e-11
-0.470426 8.61029 -1.46481e-11
3.19927e-11 -1.46481e-11 8.16856

8.83379 -0.825162 1.15646e-12
-0.825162 9.73502 -3.66169e-12
1.15646e-12 -3.66169e-12 9.40231

4.99105 0.271696 -4.72202e-11
0.271696 5.37717 6.70715e-11
-4.72202e-11 6.70715e-11 5.0316

5.29091 0.283277 4.94371e-11
0.283277 5.06896 -1.19508e-11
4.94371e-11 -1.19508e-11 5.03056

6.48632 -0.607391 1.59969e-11
-0.607391 6.63691 -3.70052e-11
1.59969e-11 -3.70052e-11 6.3377

8.43632 -0.563752 8.67243e-12
-0.563752 8.5107 -9.63679e-12
8.67243e-12 -9.63679e-12 8.5285

8.89058 -0.16694 -2.89102e-12
-0.16694 7.52993 8.28669e-12
-2.89102e-12 8.28669e-12 8.2302

11.3226 0.614716 -5.07472e-11
0.614716 11.6615 -2.58248e-10
-5.07472e-11 -2.58248e-10 10.9346

11.8074 -0.671635 3.17876e-11
-0.671635 10.8366 -4.58675e-11
3.17876e-11 -4.58675e-11 10.8687

8.19855 -0.837599 -1.33944e-11
-0.837599 9.06288 -1.54155e-12
-1.33944e-11 -1.54155e-12 8.62732

10.3245 0.155298 2.00434e-11
0.155298 9.96463 -2.67887e-11
2.00434e-11 -2.67887e-11 10.1797

10.5736 -0.637321 -1.92728e-11
-0.637321 10.5976 3.73881e-11
-1.92728e-11 3.73881e-11 10.3115

8.93035 -0.221014 -1.27199e-11
-0.221014 7.70371 -1.19493e-11
-1.27199e-11 -1.19493e-11 8.51897

7.96779 -0.870627 5.78512e-13
-0.870627 8.9837 4.62561e-12
5.78512e-13 4.62561e-12 8.993

5.23756 -0.530195 3.37294e-11
-0.530195 5.46534 -3.39213e-11
3.37294e-11 -3.39213e-11 5.22623

5.43439 0.38688 4.04719e-12
0.38688 5.41382 -4.87616e-11
4.04719e-12 -4.87616e-11 5.26866

5.41055 -0.315449 1.7345e-11
-0.315449 6.17274 -1.17573e-11
1.7345e-11 -1.17573e-11 5.59168

5.52374 -0.346776 2.27425e-11
-0.346776 6.26695 1.34915e-11
2.27425e-11 1.34915e-11 5.69243

6.24347 -0.262428 -1.56116e-11
-0.262428 5.41557 -3.97027e-11
-1.56116e-11 -3.97027e-11 5.5943

6.67798 0.469578 4.04733e-11
0.469578 6.58457 6.2832e-11
4.04733e-11 6.2832e-11 6.41074

8.52324 -0.932837 5.49276e-12
-0.932837 9.57524 -1.92774e-13
5.49276e-12 -1.92774e-13 9.14914

4.9093 0.047625 -1.77313e-11
0.047625 5.86807 2.87178e-11
-1.77313e-11 2.87178e-11 5.24761

5.79343 -0.140478 2.79473e-11
-0.140478 4.87913 4.24006e-12
2.79473e-11 4.24006e-12 5.24392

10.0232 0.0740302 -6.93834e-12
0.0740302 10.9949 -3.8583e-13
-6.93834e-12 -3.8583e-13 10.2486

9.97799 -0.379861 1.272e-11
-0.379861 10.3371 -8.86559e-12
1.272e-11 -8.86559e-12 10.1244

9.46288 -0.433494 7.13143e-12
-0.433494 8.55996 -4.50974e-11
7.13143e-12 -4.50974e-11 9.0655

9.42295 -0.0271112 -5.78199e-12
-0.0271112 7.34504 4.35557e-11
-5.78199e-12 4.35557e-11 8.97122

6.2318 -0.465722 1.6383e-11
-0.465722 7.09374 -4.16302e-11
1.6383e-11 -4.16302e-11 6.54967

6.457 -0.464238 -2.91995e-11
-0.464238 7.24239 2.08156e-11
-2.91995e-11 2.08156e-11 6.6362

9.0309 -0.0258164 2.50563e-12
-0.0258164 7.6815 3.8544e-12
2.50563e-12 3.8544e-12 8.56651

7.75499 -0.640058 2.81381e-11
-0.640058 8.69893 7.13097e-12
2.81381e-11 7.13097e-12 8.21984

10.3654 0.0126243 -3.50763e-11
0.0126243 10.0492 1.05034e-10
-3.50763e-11 1.05034e-10 10.1561

10.1144 0.190143 1.31058e-11
0.190143 10.2321 -7.70839e-12
1.31058e-11 -7.70839e-12 10.1498

9.12027 -0.60218 1.73452e-11
-0.60218 8.71556 -1.46473e-11
1.73452e-11 -1.46473e-11 8.97103

8.1795 -0.615284 2.02365e-11
-0.615284 8.59375 -5.01081e-12
2.02365e-11 -5.01081e-12 8.59069

9.27719 -0.432652 -1.71532e-11
-0.432652 7.90131 6.70681e-11
-1.71532e-11 6.70681e-11 8.78879

7.9448 -0.541733 8.86554e-12
-0.541733 8.76648 -2.50542e-11
8.86554e-12 -2.50542e-11 8.54458

4.19629 -1.03051 -9.05855e-11
-1.03051 4.29583 -6.93847e-11
-9.05855e-11 -6.93847e-11 4.29101

7.39086 -0.237511 -1.13708e-11
-0.237511 8.34398 -1.52258e-11
-1.13708e-11 -1.52258e-11 7.79246

7.13387 -0.178841 5.78276e-13
-0.178841 8.54933 -2.73677e-11
5.78276e-13 -2.73677e-11 7.80961

9.91185 -0.0879804 2.19693e-11
-0.0879804 11.4178 2.11995e-11
2.19693e-11 2.11995e-11 10.3401

10.0352 -0.103676 -3.29561e-11
-0.103676 10.278 7.48731e-11
-3.29561e-11 7.48731e-11 10.1674

10.1939 -0.0575987 9.44366e-12
-0.0575987 8.47646 -1.98507e-11
9.44366e-12 -1.98507e-11 9.48124

10.0635 0.0291865 4.83742e-11
0.0291865 8.54209 1.73453e-11
4.83742e-11 1.73453e-11 9.4755

9.38639 0.452163 -4.66394e-11
0.452163 9.12065 4.2785e-11
-4.66394e-11 4.2785e-11 9.4386

9.56051 -0.812394 -4.89521e-11
-0.812394 9.06413 -2.31234e-12
-4.89521e-11 -2.31234e-12 9.40934

10.3694 0.16068 -1.00216e-11
0.16068 10.2838 6.74468e-12
-1.00216e-11 6.74468e-12 10.1859

10.708 -0.288882 -2.08145e-11
-0.288882 10.2966 2.46686e-11
-2.08145e-11 2.46686e-11 10.2263

11.045 -0.316913 7.7969e-11
-0.316913 10.6908 -2.54391e-11
7.7969e-11 -2.54391e-11 10.6406

11.1446 0.953125 -4.70966e-11
0.953125 11.5589 -9.75189e-11
-4.70966e-11 -9.75189e-11 10.8346

8.89888 -0.840654 6.55304e-12
-0.840654 9.78282 -1.75382e-11
6.55304e-12 -1.75382e-11 9.46753

8.4865 1.04072 -1.68154e-11
1.04072 9.18066 1.92722e-11
-1.68154e-11 1.92722e-11 9.33687

8.25027 0.418095 1.50323e-11
0.418095 7.57138 1.07926e-11
1.50323e-11 1.07926e-11 7.94574

7.64354 -0.357168 -3.10281e-11
-0.357168 8.80686 -5.97461e-11
-3.10281e-11 -5.97461e-11 8.27679

8.0631 -0.542683 7.22739e-12
-0.542683 8.83444 -1.56111e-11
7.22739e-12 -1.56111e-11 8.33861

8.28825 -0.438319 -1.34922e-12
-0.438319 7.69278 3.00662e-11
-1.34922e-12 3.00662e-11 7.96275

8.03208 0.409354 1.12747e-11
0.409354 8.72231 3.54617e-11
1.12747e-11 3.54617e-11 8.27926

7.63527 0.240374 -1.35388e-11
0.240374 8.83584 3.97022e-11
-1.35388e-11 3.97022e-11 8.27048

7.80352 0.577745 -4.20147e-11
0.577745 7.77547 1.73449e-11
-4.20147e-11 1.73449e-11 7.82133

9.02504 0.697488 2.81382e-11
0.697488 9.61452 4.89524e-11
2.81382e-11 4.89524e-11 9.49246

8.88404 -0.932002 7.13111e-12
-0.932002 9.26077 1.5424e-12
7.13111e-12 1.5424e-12 9.4066

7.89821 -0.707292 -4.79897e-11
-0.707292 7.9589 1.02149e-11
-4.79897e-11 1.02149e-11 7.8468

9.56242 0.20409 1.42619e-11
0.20409 8.67972 -3.60398e-11
1.42619e-11 -3.60398e-11 9.21351

12.5696 -0.31565 7.03437e-11
-0.31565 12.3878 -4.27837e-11
7.03437e-11 -4.27837e-11 11.2494

10.6986 0.192753 8.76888e-11
0.192753 10.8797 4.33718e-12
8.76888e-11 4.33718e-12 10.6339

8.73236 -0.704583 -1.83084e-12
-0.704583 9.42386 -1.83089e-11
-1.83084e-12 -1.83089e-11 9.07219

8.95158 -0.696103 1.36839e-11
-0.696103 8.20914 -1.38763e-11
1.36839e-11 -1.38763e-11 8.70391

10.3533 -0.0589292 1.31056e-11
-0.0589292 9.59594 1.38764e-11
1.31056e-11 1.38764e-11 9.90169

5.21011 -0.486925 1.7338e-12
-0.486925 5.3978 2.31273e-11
1.7338e-12 2.31273e-11 5.11199

5.44493 -0.4345 -4.95324e-11
-0.4345 5.14617 -2.34177e-11
-4.95324e-11 -2.34177e-11 5.11951

10.3209 0.0501323 -2.18984e-11
0.0501323 8.83096 -1.44544e-11
-2.18984e-11 -1.44544e-11 9.66747

10.0744 -0.0389964 4.11931e-12
-0.0389964 8.89566 5.35774e-11
4.11931e-12 5.35774e-11 9.63543

10.3793 -0.0106306 -2.35125e-11
-0.0106306 9.19962 5.24208e-11
-2.35125e-11 5.24208e-11 9.87979

8.06282 0.295701 4.09482e-12
0.295701 7.21841 -2.54409e-11
4.09482e-12 -2.54409e-11 7.46086

9.16121 -0.446177 -1.36352e-11
-0.446177 9.51006 1.2335e-11
-1.36352e-11 1.2335e-11 9.33393

9.07113 0.543094 -3.74849e-11
0.543094 9.08557 1.31051e-11
-3.74849e-11 1.31051e-11 9.2674

11.6185 -0.500464 -1.27204e-11
-0.500464 10.5067 8.60285e-12
-1.27204e-11 8.60285e-12 10.7587

12.2012 -0.0525281 4.62523e-11
-0.0525281 12.7289 7.29427e-11
4.62523e-11 7.29427e-11 11.256

8.31005 -0.791447 -4.81788e-12
-0.791447 9.2781 -6.16714e-12
-4.81788e-12 -6.16714e-12 8.895

8.71189 -0.553266 -1.07919e-11
-0.553266 7.86472 -2.31291e-12
-1.07919e-11 -2.31291e-12 8.28802

9.86872 0.119684 4.13406e-11
0.119684 9.40955 -4.27845e-11
4.13406e-11 -4.27845e-11 9.66138

10.0028 0.0228524 3.43298e-11
0.0228524 9.30878 -2.77522e-11
3.43298e-11 -2.77522e-11 9.65627

8.36498 -0.317198 -3.85316e-13
-0.317198 9.32496 -1.11781e-11
-3.85316e-13 -1.11781e-11 9.01911

8.25832 -0.582759 2.77529e-11
-0.582759 8.96314 -1.50328e-11
2.77529e-11 -1.50328e-11 9.02514

4.39432 0.872311 4.39442e-11
0.872311 4.25508 -1.59961e-11
4.39442e-11 -1.59961e-11 4.34593

9.37202 0.466803 6.03226e-11
0.466803 9.95208 1.98509e-11
6.03226e-11 1.98509e-11 9.74648

9.3338 -0.607283 -8.09448e-12
-0.607283 9.85757 2.89094e-11
-8.09448e-12 2.89094e-11 9.70318

8.0582 -0.551295 1.17568e-11
-0.551295 9.08246 2.12793e-16
1.17568e-11 2.12793e-16 8.86211

8.19885 -0.369152 3.74858e-11
-0.369152 7.43218 2.31223e-12
3.74858e-11 2.31223e-12 7.56246

9.12083 0.403134 3.86163e-13
0.403134 8.99214 3.25701e-11
3.86163e-13 3.25701e-11 9.08182

9.49145 0.424125 1.09848e-11
0.424125 9.56402 -4.77952e-11
1.09848e-11 -4.77952e-11 9.57083

9.72799 -0.65386 -2.89091e-11
-0.65386 9.17755 2.69829e-11
-2.89091e-11 2.69829e-11 9.51914

9.3552 0.162274 -1.90804e-11
0.162274 7.95048 1.00217e-11
-1.90804e-11 1.00217e-11 8.91482

10.2913 -0.0766201 -1.5779e-11
-0.0766201 9.83419 -1.42614e-11
-1.5779e-11 -1.42614e-11 10.0374

10.4797 0.120315 -2.44037e-11
0.120315 9.57104 2.96791e-11
-2.44037e-11 2.96791e-11 10.0202

10.8698 0.217916 1.94649e-11
0.217916 12.3301 -4.04723e-11
1.94649e-11 -4.04723e-11 10.8579

10.6026 0.0415517 6.68743e-11
0.0415517 11.4705 -3.28591e-11
6.68743e-11 -3.28591e-11 10.6845

4.31237 -0.222756 3.83552e-11
-0.222756 3.74159 -4.08601e-11
3.83552e-11 -4.08601e-11 4.41597

3.52368 -0.14769 -2.42846e-11
-0.14769 4.36948 1.88878e-11
-2.42846e-11 1.88878e-11 4.38237

8.79883 -0.695393 1.03104e-11
-0.695393 9.64499 3.27636e-11
1.03104e-11 3.27636e-11 9.23157

8.65476 0.602609 -6.21057e-11
0.602609 9.03623 -2.6212e-11
-6.21057e-11 -2.6212e-11 9.13971

8.55886 -0.932994 -1.00216e-11
-0.932994 9.57956 1.73471e-12
-1.00216e-11 1.73471e-12 9.13849

4.22736 0.238206 9.44412e-11
0.238206 4.19245 -2.88946e-12
9.44412e-11 -2.88946e-12 4.43324

4.29859 0.359012 -5.18452e-11
0.359012 4.06377 1.46478e-11
-5.18452e-11 1.46478e-11 4.42622

9.87008 0.761943 -5.73736e-11
0.761943 12.304 -2.15081e-10
-5.73736e-11 -2.15081e-10 10.7946

10.6926 -0.604401 7.14267e-11
-0.604401 11.8474 1.32982e-11
7.14267e-11 1.32982e-11 10.8691

8.73585 0.562427 -5.78161e-12
0.562427 8.76228 5.20288e-12
-5.78161e-12 5.20288e-12 8.86555

7.95757 -0.669592 -5.9746e-11
-0.669592 8.3554 2.92949e-11
-5.9746e-11 2.92949e-11 8.06558

8.6618 -0.665782 -3.28597e-11
-0.665782 9.17274 8.48043e-12
-3.28597e-11 8.48043e-12 9.01837

8.62372 0.670785 -3.13665e-11
0.670785 8.87831 -6.89263e-16
-3.13665e-11 -6.89263e-16 8.99881

8.14692 -0.777426 -2.48614e-11
-0.777426 8.77058 -8.48012e-12
-2.48614e-11 -8.48012e-12 8.46615

7.86486 0.539743 -5.37714e-11
0.539743 8.15548 1.15625e-11
-5.37714e-11 1.15625e-11 8.04083

5.41204 -0.282943 -2.29357e-11
-0.282943 6.25897 3.85728e-13
-2.29357e-11 3.85728e-13 5.68131

5.58422 -0.242808 4.43299e-12
-0.242808 6.2644 -1.98521e-11
4.43299e-12 -1.98521e-11 5.68986

6.29597 -0.197442 2.65985e-11
-0.197442 5.49527 -2.6979e-12
2.65985e-11 -2.6979e-12 5.65661

8.01011 0.605962 -2.64998e-11
0.605962 8.4894 2.00432e-11
-2.64998e-11 2.00432e-11 8.42316

4.92064 -0.0313524 1.11783e-11
-0.0313524 5.8285 -3.66193e-11
1.11783e-11 -3.66193e-11 5.25382

5.79258 0.0623527 -3.34402e-11
0.0623527 5.0186 5.3967e-12
-3.34402e-11 5.3967e-12 5.24936

9.1023 -0.63667 2.26927e-11
-0.63667 9.71988 1.54178e-11
2.26927e-11 1.54178e-11 9.50471

9.05613 0.773965 -2.77996e-11
0.773965 9.24702 -3.08354e-12
-2.77996e-11 -3.08354e-12 9.4505

9.227 -0.505946 3.95029e-12
-0.505946 9.81532 1.985e-11
3.95029e-12 1.985e-11 9.59578

9.19718 0.684144 1.19974e-11
0.684144 9.64504 3.23781e-11
1.19974e-11 3.23781e-11 9.58927

4.04049 -0.454796 -4.56796e-11
-0.454796 4.10716 2.8911e-11
-4.56796e-11 2.8911e-11 4.33349

4.03302 -0.4434 2.12144e-12
-0.4434 4.15541 -8.17204e-11
2.12144e-12 -8.17204e-11 4.34986

8.4952 0.565069 2.65963e-11
0.565069 8.62031 5.43494e-11
2.65963e-11 5.43494e-11 8.70223

8.56444 -0.612986 4.76038e-11
-0.612986 9.01618 -1.44549e-11
4.76038e-11 -1.44549e-11 8.75054

10.4269 -0.161164 5.16495e-11
-0.161164 11.1436 1.13711e-11
5.16495e-11 1.13711e-11 10.4301

10.24 -0.19264 1.4011e-10
-0.19264 10.3938 -5.68536e-11
1.4011e-10 -5.68536e-11 10.2802

9.13539 -0.663411 3.42087e-11
-0.663411 10.1488 -1.11785e-11
3.42087e-11 -1.11785e-11 9.70646

8.88003 0.708965 -1.94647e-11
0.708965 9.83604 -2.31274e-11
-1.94647e-11 -2.31274e-11 9.63891

10.1884 -0.00623621 -3.61359e-11
-0.00623621 9.39569 -6.35994e-12
-3.61359e-11 -6.35994e-12 9.91459

9.93827 0.149845 3.06188e-11
0.149845 9.51455 -4.20137e-11
3.06188e-11 -4.20137e-11 9.89489

8.88381 0.63033 -1.88877e-11
0.63033 9.33689 -4.04729e-11
-1.88877e-11 -4.04729e-11 9.20575

8.9073 -0.666822 -2.33207e-11
-0.666822 8.93189 4.62546e-11
-2.33207e-11 4.62546e-11 9.10118

10.1496 -0.275945 2.06212e-11
-0.275945 11.0568 5.52151e-11
2.06212e-11 5.52151e-11 10.4251

10.7964 0.269517 5.01035e-12
0.269517 10.4375 -2.23557e-11
5.01035e-12 -2.23557e-11 10.443

11.3715 -0.65474 2.69813e-11
-0.65474 10.8838 -1.88874e-11
2.69813e-11 -1.88874e-11 10.6044

10.2893 -0.114847 -1.48395e-11
-0.114847 11.8076 -3.77746e-11
-1.48395e-11 -3.77746e-11 10.57

10.5495 0.185368 -2.51741e-11
0.185368 10.3731 -3.17314e-11
-2.51741e-11 -3.17314e-11 10.367

10.3158 0.0230223 -1.62549e-10
0.0230223 11.086 5.20345e-11
-1.62549e-10 5.20345e-11 10.5741

10.8888 -0.201423 4.82461e-14
-0.201423 10.1866 3.22575e-12
4.82461e-14 3.22575e-12 10.3977

10.9508 -0.0734838 3.81708e-11
-0.0734838 10.5699 9.98303e-11
3.81708e-11 9.98303e-11 10.5977

10.4579 -0.364387 1.17813e-10
-0.364387 10.8266 -6.88028e-11
1.17813e-10 -6.88028e-11 10.4975

10.9304 0.878299 5.47355e-11
0.878299 11.6823 -2.80987e-10
5.47355e-11 -2.80987e-10 10.771

13.1692 0.251646 1.43636e-10
0.251646 12.9831 4.27857e-11
1.43636e-10 4.27857e-11 11.5915

13.4829 -0.420662 8.25805e-11
-0.420662 10.1904 -1.69977e-10
8.25805e-11 -1.69977e-10 11.101

10.6832 -0.47357 1.46476e-11
-0.47357 10.634 -3.89299e-11
1.46476e-11 -3.89299e-11 10.4537

9.91773 -0.346617 -5.87819e-12
-0.346617 10.5103 -2.50504e-12
-5.87819e-12 -2.50504e-12 10.128

11.0049 0.819065 -1.9271e-12
0.819065 10.7219 1.5416e-12
-1.9271e-12 1.5416e-12 10.5473

9.95572 0.45711 -9.58712e-12
0.45711 10.2254 7.70848e-12
-9.58712e-12 7.70848e-12 10.1022

11.2414 0.936321 1.04671e-11
0.936321 12.0592 1.02528e-10
1.04671e-11 1.02528e-10 10.9779

10.9314 -0.0999669 2.92937e-11
-0.0999669 10.7104 4.62533e-11
2.92937e-11 4.62533e-11 10.6478

9.88709 -0.308209 -5.73312e-12
-0.308209 10.371 -5.18425e-11
-5.73312e-12 -5.18425e-11 10.1472

10.6417 -0.184257 -6.75665e-12
-0.184257 10.6167 -5.7046e-11
-6.75665e-12 -5.7046e-11 10.4692

10.1087 0.766944 1.86931e-11
0.766944 10.5557 1.1571e-12
1.86931e-11 1.1571e-12 10.2428

10.3527 0.50751 4.09015e-13
0.50751 10.8272 3.84646e-13
4.09015e-13 3.84646e-13 10.4579

8.36435 0.178432 -5.20405e-12
0.178432 9.63156 1.61891e-11
-5.20405e-12 1.61891e-11 9.07213

9.70207 -0.072396 -9.63692e-12
-0.072396 10.0584 1.71525e-11
-9.63692e-12 1.71525e-11 9.77361

8.90134 0.169327 -2.26424e-12
0.169327 7.49419 -1.06004e-11
-2.26424e-12 -1.06004e-11 8.1726

8.52108 0.0399111 1.00216e-11
0.0399111 7.21896 -2.50536e-12
1.00216e-11 -2.50536e-12 7.6934

8.58067 0.202763 -2.69812e-11
0.202763 10.2662 -2.50548e-11
-2.69812e-11 -2.50548e-11 9.56271

9.89492 0.047553 8.09538e-17
0.047553 10.411 3.08381e-12
8.09538e-17 3.08381e-12 10.2696

8.57006 -0.0662312 -1.33944e-11
-0.0662312 7.24448 3.50764e-11
-1.33944e-11 3.50764e-11 7.75025

9.87489 -0.0386258 -9.87717e-12
-0.0386258 8.32219 -1.1178e-11
-9.87717e-12 -1.1178e-11 9.18187

5.84831 -0.394971 5.97443e-12
-0.394971 6.72322 -7.71124e-13
5.97443e-12 -7.71124e-13 6.12097

6.39048 0.639552 -1.27199e-11
0.639552 7.07343 -2.56335e-11
-1.27199e-11 -2.56335e-11 6.42967

6.72909 0.606005 -1.65743e-11
0.606005 6.07426 -3.08331e-12
-1.65743e-11 -3.08331e-12 6.23473

10.0621 0.736733 -5.58897e-12
0.736733 10.4989 -2.25487e-11
-5.58897e-12 -2.25487e-11 10.2029

9.51053 -0.249638 -2.14881e-11
-0.249638 10.254 -3.23778e-11
-2.14881e-11 -3.23778e-11 9.84733

8.54881 0.623805 2.8861e-11
0.623805 8.8827 -7.51599e-12
2.8861e-11 -7.51599e-12 8.54286

9.50254 0.552463 -1.7634e-11
0.552463 10.2398 -1.83088e-11
-1.7634e-11 -1.83088e-11 9.96171

8.4852 -0.199438 -2.33193e-11
-0.199438 10.2663 -1.73453e-11
-2.33193e-11 -1.73453e-11 9.52133

9.13057 -0.122465 3.46956e-12
-0.122465 7.78685 8.09462e-12
3.46956e-12 8.09462e-12 8.57424

6.95502 0.291586 1.55147e-11
0.291586 7.85621 -2.10075e-11
1.55147e-11 -2.10075e-11 7.03041

6.37406 -0.076035 1.42621e-11
-0.076035 7.55917 -3.85459e-11
1.42621e-11 -3.85459e-11 6.74325

7.56739 0.297964 -2.4284e-11
0.297964 6.57192 -4.23997e-12
-2.4284e-11 -4.23997e-12 6.8016

7.88845 -0.309172 -2.40914e-11
-0.309172 6.84446 1.00214e-11
-2.40914e-11 1.00214e-11 7.23198

7.43926 0.532103 -1.61895e-11
0.532103 8.28429 -1.27207e-11
-1.61895e-11 -1.27207e-11 7.78413

8.43102 -0.40655 5.85893e-11
-0.40655 8.73505 -1.46468e-11
5.85893e-11 -1.46468e-11 8.32131

8.99534 -0.199292 4.62496e-12
-0.199292 7.51689 2.79449e-11
4.62496e-12 2.79449e-11 8.2628

5.95696 0.401605 2.60193e-11
0.401605 6.41755 6.05184e-11
2.60193e-11 6.05184e-11 5.80921

9.66648 0.0402316 -1.56351e-11
0.0402316 8.07145 1.11778e-11
-1.56351e-11 1.11778e-11 8.96785

6.16793 0.43454 -6.41805e-11
0.43454 5.74204 -3.00677e-11
-6.41805e-11 -3.00677e-11 5.68316

9.59673 0.0482568 -1.19488e-11
0.0482568 10.5562 -3.85463e-12
-1.19488e-11 -3.85463e-12 9.94269

10.4599 0.250929 -3.12207e-11
0.250929 10.6863 -1.54182e-11
-3.12207e-11 -1.54182e-11 10.4851

10.8943 -0.65325 -1.32474e-12
-0.65325 10.9592 1.61886e-11
-1.32474e-12 1.61886e-11 10.6446

11.1586 0.283646 -2.81615e-11
0.283646 10.7039 -1.04077e-11
-2.81615e-11 -1.04077e-11 10.6477

7.44414 -0.0924873 9.05925e-12
-0.0924873 6.42569 -9.63608e-12
9.05925e-12 -9.63608e-12 6.61939

8.24687 0.760968 9.63626e-12
0.760968 8.67397 -3.66171e-12
9.63626e-12 -3.66171e-12 8.38646

10.0538 0.109994 -6.17921e-12
0.109994 9.90845 -5.78163e-13
-6.17921e-12 -5.78163e-13 9.90119

9.82841 -0.345107 1.88274e-11
-0.345107 9.75703 1.65744e-11
1.88274e-11 1.65744e-11 9.86641

10.0253 -0.046633 4.86636e-12
-0.046633 8.19879 1.1564e-12
4.86636e-12 1.1564e-12 9.20264

7.32855 0.628878 -5.01109e-12
0.628878 7.96039 1.15673e-12
-5.01109e-12 1.15673e-12 7.65121

8.10598 -0.575084 1.11794e-11
-0.575084 8.55867 -2.12002e-11
1.11794e-11 -2.12002e-11 8.16432

7.98544 -0.403803 -3.46915e-11
-0.403803 7.31164 1.54165e-12
-3.46915e-11 1.54165e-12 7.46604

9.77465 -0.0963462 -1.63338e-11
-0.0963462 7.96849 -1.9274e-12
-1.63338e-11 -1.9274e-12 8.98888

7.7372 0.741101 8.48025e-12
0.741101 8.4892 -5.20375e-12
8.48025e-12 -5.20375e-12 7.85942

7.25316 -0.510913 -9.54018e-12
-0.510913 7.91049 4.39423e-11
-9.54018e-12 4.39423e-11 7.57359

7.86412 0.686221 1.85018e-11
0.686221 8.58828 -1.29128e-11
1.85018e-11 -1.29128e-11 7.97217

7.28259 -0.410619 5.30011e-12
-0.410619 8.28975 3.9317e-11
5.30011e-12 3.9317e-11 7.71625

9.74664 -0.345654 1.88862e-11
-0.345654 10.0366 5.45412e-11
1.88862e-11 5.45412e-11 9.88691

8.12506 0.479113 -9.44354e-12
0.479113 9.32569 -8.86557e-12
-9.44354e-12 -8.86557e-12 8.95191

7.28972 -0.595799 -2.44772e-11
-0.595799 7.04597 -5.5905e-12
-2.44772e-11 -5.5905e-12 7.01133

4.60596 -0.528791 4.62581e-12
-0.528791 4.52995 -1.1563e-12
4.62581e-12 -1.1563e-12 4.5603

4.35802 -0.567738 2.75601e-11
-0.567738 4.64295 4.0475e-11
2.75601e-11 4.0475e-11 4.52421

9.26537 0.893026 -2.24523e-11
0.893026 10.2096 -1.06003e-11
-2.24523e-11 -1.06003e-11 9.79227

8.3857 -0.582392 3.51726e-11
-0.582392 9.77231 -5.39622e-12
3.51726e-11 -5.39622e-12 9.40181

4.39105 -0.114208 3.79695e-11
-0.114208 4.39622 -3.08375e-11
3.79695e-11 -3.08375e-11 4.61114

4.49004 -0.123024 1.52267e-11
-0.123024 4.57823 -2.12007e-11
1.52267e-11 -2.12007e-11 4.68088

10.409 0.509308 -4.4711e-11
0.509308 9.86687 1.69586e-11
-4.4711e-11 1.69586e-11 10.039

11.104 -0.385103 -3.85969e-13
-0.385103 10.3457 1.75389e-11
-3.85969e-13 1.75389e-11 10.7203

9.24952 -0.0175411 -9.63859e-13
-0.0175411 7.95901 2.00436e-11
-9.63859e-13 2.00436e-11 8.87798

10.3177 0.717791 -9.79042e-11
0.717791 9.79292 2.77502e-11
-9.79042e-11 2.77502e-11 10.0071

10.9419 -0.514878 -1.11749e-11
-0.514878 9.90472 -8.92297e-11
-1.11749e-11 -8.92297e-11 10.5346

7.59967 0.50536 6.93746e-12
0.50536 8.66887 4.39427e-11
6.93746e-12 4.39427e-11 8.2357

8.64176 -0.40178 5.70474e-11
-0.40178 9.25267 -3.95085e-11
5.70474e-11 -3.95085e-11 8.87388

10.9631 0.251156 3.69066e-11
0.251156 10.205 -3.12361e-13
3.69066e-11 -3.12361e-13 10.4156

10.6122 -0.330874 -5.27817e-11
-0.330874 10.3886 -4.18094e-11
-5.27817e-11 -4.18094e-11 10.3815

9.48558 0.773021 2.44759e-11
0.773021 8.96469 2.96802e-11
2.44759e-11 2.96802e-11 9.33815

10.1817 -0.609446 4.79888e-11
-0.609446 9.37408 -2.29342e-11
4.79888e-11 -2.29342e-11 9.88658

6.58115 -0.412005 -2.79462e-12
-0.412005 5.91955 7.71559e-13
-2.79462e-12 7.71559e-13 6.04348

10.1914 -0.0224154 -1.15637e-11
-0.0224154 11.5263 1.65745e-11
-1.15637e-11 1.65745e-11 10.4881

11.0499 0.151596 1.98501e-11
0.151596 11.4858 -4.2495e-11
1.98501e-11 -4.2495e-11 11.2371

5.25252 -0.0722336 1.11786e-11
-0.0722336 6.01556 -1.50328e-11
1.11786e-11 -1.50328e-11 5.45325

5.98223 -0.0901815 3.82583e-11
-0.0901815 5.3265 9.25188e-12
3.82583e-11 9.25188e-12 5.44422

7.86269 0.42955 4.43257e-12
0.42955 9.21601 1.9279e-12
4.43257e-12 1.9279e-12 8.74711

9.13847 -0.25463 1.69589e-11
-0.25463 9.81237 4.62539e-11
1.69589e-11 4.62539e-11 9.49602

12.7501 -0.150453 -3.4693e-11
-0.150453 13.2623 2.23941e-10
-3.4693e-11 2.23941e-10 11.5371

12.8227 -0.465262 4.00844e-11
-0.465262 11.3867 7.36176e-11
4.00844e-11 7.36176e-11 11.7038

9.23764 0.686435 4.02807e-11
0.686435 8.25603 -1.88857e-11
4.02807e-11 -1.88857e-11 8.88976

9.64746 -0.4513 1.59963e-11
-0.4513 8.50921 2.4476e-11
1.59963e-11 2.4476e-11 9.2339

7.35794 0.0104583 2.6978e-12
0.0104583 6.24911 -2.19713e-11
2.6978e-12 -2.19713e-11 6.52846

8.66103 0.0224808 -1.98501e-11
0.0224808 7.48027 -1.69598e-11
-1.98501e-11 -1.69598e-11 8.01668

7.95377 0.331467 1.32986e-11
0.331467 6.84372 -1.42608e-11
1.32986e-11 -1.42608e-11 7.16457

9.84681 0.119459 -7.10685e-12
0.119459 9.02975 3.66171e-12
-7.10685e-12 3.66171e-12 9.57204

10.0758 -0.240557 2.30647e-11
-0.240557 11.5215 1.245e-10
2.30647e-11 1.245e-10 10.6401

10.7919 0.123909 3.03901e-11
0.123909 10.899 -4.25914e-11
3.03901e-11 -4.25914e-11 10.6607

7.05353 0.576562 1.09859e-11
0.576562 7.28249 -2.50581e-12
1.09859e-11 -2.50581e-12 6.77225

8.05319 -0.500962 -3.74852e-11
-0.500962 7.77986 -5.78098e-12
-3.74852e-11 -5.78098e-12 7.97479

8.97106 0.549784 2.3899e-11
0.549784 7.94498 -1.77301e-11
2.3899e-11 -1.77301e-11 8.50694

10.9551 0.23155 -3.91225e-11
0.23155 11.4101 -4.33636e-11
-3.91225e-11 -4.33636e-11 11.1671

10.7439 0.35246 -6.2056e-11
0.35246 11.881 3.46787e-12
-6.2056e-11 3.46787e-12 10.7426

9.72358 -0.290863 -4.74545e-12
-0.290863 9.19892 -6.66824e-11
-4.74545e-12 -6.66824e-11 9.63311

9.36626 0.451823 -2.19708e-11
0.451823 9.92306 3.77739e-11
-2.19708e-11 3.77739e-11 9.5227

8.28976 -0.0820733 -1.83085e-11
-0.0820733 9.67062 1.1178e-11
-1.83085e-11 1.1178e-11 9.04926

9.54468 0.341396 3.85438e-12
0.341396 8.02072 -1.8501e-11
3.85438e-12 -1.8501e-11 9.11651

9.72354 -0.0681504 2.73672e-11
-0.0681504 8.0586 9.05833e-12
2.73672e-11 9.05833e-12 9.26534

7.36098 -0.448937 -7.13241e-12
-0.448937 7.07474 6.43718e-11
-7.13241e-12 6.43718e-11 6.85933

9.98061 0.616677 3.59908e-11
0.616677 8.74091 6.05158e-11
3.59908e-11 6.05158e-11 9.54183

10.291 -0.388297 1.45978e-11
-0.388297 8.74431 2.02355e-11
1.45978e-11 2.02355e-11 9.82592

9.22027 -0.299466 3.14158e-11
-0.299466 8.22658 -1.44541e-11
3.14158e-11 -1.44541e-11 8.76598

9.58824 0.446447 -4.70255e-11
0.446447 8.46574 6.35959e-12
-4.70255e-11 6.35959e-12 9.2108

9.78998 -0.226609 4.47125e-11
-0.226609 8.61596 1.92821e-12
4.47125e-11 1.92821e-12 9.47053

9.0442 -0.190552 3.97022e-11
-0.190552 7.9906 7.70217e-13
3.97022e-11 7.70217e-13 8.51174

8.56441 0.805627 -2.71745e-11
0.805627 8.95731 -3.0841e-12
-2.71745e-11 -3.0841e-12 9.06865

10.2722 -0.693394 -3.50761e-11
-0.693394 9.94679 -4.24028e-12
-3.50761e-11 -4.24028e-12 10.1358

8.00882 0.53956 -2.03327e-11
0.53956 7.817 -3.02584e-11
-2.03327e-11 -3.02584e-11 7.59422

10.0626 -0.51058 1.90789e-11
-0.51058 10.4423 4.04711e-12
1.90789e-11 4.04711e-12 10.3599

8.30037 0.561684 3.85439e-12
0.561684 9.07832 -8.09446e-12
3.85439e-12 -8.09446e-12 9.1082

8.03195 0.494344 -1.13715e-11
0.494344 6.94657 3.4687e-12
-1.13715e-11 3.4687e-12 7.40717

8.87299 -0.441697 4.48092e-11
-0.441697 8.42976 -5.51202e-11
4.48092e-11 -5.51202e-11 8.84345

9.03132 0.182651 9.55902e-14
0.182651 8.09864 6.16715e-12
9.55902e-14 6.16715e-12 8.43592

7.43551 0.703754 -9.34715e-12
0.703754 7.55829 -2.79463e-11
-9.34715e-12 -2.79463e-11 7.29408

8.2566 0.567622 -1.4431e-13
0.567622 7.94216 -2.46691e-11
-1.4431e-13 -2.46691e-11 8.04195

8.69368 0.224719 -3.33419e-11
0.224719 9.58029 2.21633e-11
-3.33419e-11 2.21633e-11 9.17544

7.67491 0.0638558 -2.698e-12
0.0638558 9.42974 -7.32392e-12
-2.698e-12 -7.32392e-12 8.69887

7.11448 -0.433158 -7.99612e-12
-0.433158 6.23693 -9.90635e-11
-7.99612e-12 -9.90635e-11 6.4662

8.35864 -0.789019 -2.64976e-12
-0.789019 8.99994 -1.15636e-11
-2.64976e-12 -1.15636e-11 9.06369

8.75878 0.865988 -4.81943e-13
0.865988 9.58697 -6.16714e-12
-4.81943e-13 -6.16714e-12 9.21311

7.90673 -0.638206 -3.85532e-12
-0.638206 7.97036 1.09855e-11
-3.85532e-12 1.09855e-11 7.63267

7.21948 0.767263 2.31107e-12
0.767263 7.60783 2.15859e-11
2.31107e-12 2.15859e-11 7.2411

8.83786 -0.356057 2.97288e-11
-0.356057 8.04778 7.6124e-12
2.97288e-11 7.6124e-12 8.44434

9.97647 -0.0922883 -3.95101e-12
-0.0922883 8.52397 2.27413e-11
-3.95101e-12 2.27413e-11 9.47196

10.1504 0.0258908 -1.80201e-11
0.0258908 8.46584 1.02142e-11
-1.80201e-11 1.02142e-11 9.47162

8.10966 -0.597596 -3.07399e-11
-0.597596 8.21421 3.16076e-11
-3.07399e-11 3.16076e-11 8.15746

6.3829 0.121206 -3.16075e-11
0.121206 7.5927 -3.19941e-11
-3.16075e-11 -3.19941e-11 6.71903

5.8619 0.105262 4.64484e-11
0.105262 7.30231 -2.77526e-11
4.64484e-11 -2.77526e-11 6.43474

7.29705 0.11096 -9.25088e-12
0.11096 6.04648 3.39209e-11
-9.25088e-12 3.39209e-11 6.50597

6.94075 0.634755 -2.50535e-12
0.634755 6.79308 5.0112e-12
-2.50535e-12 5.0112e-12 6.59175

7.95397 -0.623695 3.79681e-11
-0.623695 7.34787 -5.78198e-12
3.79681e-11 -5.78198e-12 7.48858

10.93 0.715701 5.39589e-12
0.715701 11.8167 -5.36735e-11
5.39589e-12 -5.36735e-11 11.3146

12.5865 -0.189256 8.65312e-11
-0.189256 12.6224 -1.07924e-11
8.65312e-11 -1.07924e-11 11.3386

8.28409 -0.211476 -2.54401e-11
-0.211476 7.06397 -5.7816e-12
-2.54401e-11 -5.7816e-12 7.57608

7.91657 0.561814 -1.54185e-11
0.561814 8.75519 4.54834e-11
-1.54185e-11 4.54834e-11 8.57308

9.3861 -0.638619 1.90799e-11
-0.638619 9.60817 -6.93791e-12
1.90799e-11 -6.93791e-12 9.44959

9.2751 0.291365 7.70874e-13
0.291365 7.92191 1.22587e-16
7.70874e-13 1.22587e-16 8.8212

7.42191 0.592194 -9.54032e-12
0.592194 8.40088 -6.93865e-12
-9.54032e-12 -6.93865e-12 7.65902

6.72502 -0.263353 -1.90809e-11
-0.263353 8.03453 3.70043e-11
-1.90809e-11 3.70043e-11 7.32991

8.32499 0.599257 2.13919e-11
0.599257 9.78277 -3.85452e-11
2.13919e-11 -3.85452e-11 9.41402

10.4501 -0.253233 -2.7752e-11
-0.253233 10.8119 -2.25489e-11
-2.7752e-11 -2.25489e-11 10.7349

8.43621 0.605278 -5.58907e-11
0.605278 8.91739 2.197e-11
-5.58907e-11 2.197e-11 9.12708

10.3574 -0.615807 -2.17775e-11
-0.615807 10.4388 -5.97451e-12
-2.17775e-11 -5.97451e-12 10.4862

9.71849 0.0490456 -4.77968e-11
0.0490456 7.42126 -6.168e-12
-4.77968e-11 -6.168e-12 9.22298

7.47672 0.769738 1.02147e-11
0.769738 7.05249 3.8544e-12
1.02147e-11 3.8544e-12 7.16085

8.88862 0.924976 1.38761e-11
0.924976 9.98442 1.8502e-11
1.38761e-11 1.8502e-11 9.42517

8.2751 -0.684816 -3.21851e-11
-0.684816 8.88723 2.31287e-12
-3.21851e-11 2.31287e-12 9.11669

7.60667 0.651987 -6.55267e-12
0.651987 7.52217 4.3557e-11
-6.55267e-12 4.3557e-11 7.45866

6.55904 -0.39549 5.62772e-11
-0.39549 6.93223 -1.00209e-11
5.62772e-11 -1.00209e-11 6.46881

8.13253 -0.594708 5.97489e-12
-0.594708 8.54065 -3.27638e-11
5.97489e-12 -3.27638e-11 8.53509

7.2578 -0.127845 -3.97014e-11
-0.127845 7.99441 -9.8299e-12
-3.97014e-11 -9.8299e-12 7.24286

6.54251 0.337269 2.12007e-11
0.337269 7.68081 -3.97023e-11
2.12007e-11 -3.97023e-11 6.8922

7.68781 -0.129847 1.15649e-11
-0.129847 6.80978 -1.65732e-11
1.15649e-11 -1.65732e-11 6.98773

8.14468 -0.559717 1.5416e-11
-0.559717 8.00906 1.15646e-12
1.5416e-11 1.15646e-12 7.84024

7.43528 0.0922981 -1.36838e-11
0.0922981 8.84993 3.19929e-11
-1.36838e-11 3.19929e-11 8.09223

8.47925 0.12717 -2.15851e-11
0.12717 9.17795 4.04719e-12
-2.15851e-11 4.04719e-12 8.56073

6.77589 -0.529836 2.11997e-11
-0.529836 6.93262 4.72201e-11
2.11997e-11 4.72201e-11 6.54266

6.28291 0.657837 -2.12009e-11
0.657837 6.72589 4.43286e-11
-2.12009e-11 4.43286e-11 6.30703

9.48372 0.126529 -3.85412e-13
0.126529 8.13107 -3.1607e-11
-3.85412e-13 -3.1607e-11 9.27968

9.52865 0.00135102 -2.08143e-11
0.00135102 8.07895 -2.40911e-11
-2.08143e-11 -2.40911e-11 9.35503

8.3352 0.672695 -1.29126e-11
0.672695 8.67325 5.78121e-12
-1.29126e-11 5.78121e-12 8.71585

9.58102 -0.561209 1.04071e-11
-0.561209 9.73416 4.04734e-12
1.04071e-11 4.04734e-12 9.61009

9.18047 0.914863 4.50972e-11
0.914863 10.2097 -3.84683e-13
4.50972e-11 -3.84683e-13 9.74112

8.1735 -0.518844 5.0398e-11
-0.518844 9.69083 -2.31268e-11
5.0398e-11 -2.31268e-11 9.35938

8.72847 0.59973 1.8116e-11
0.59973 8.96499 5.39661e-12
1.8116e-11 5.39661e-12 8.91958

6.54943 0.373348 -7.61261e-12
0.373348 5.88465 -2.89177e-12
-7.61261e-12 -2.89177e-12 5.93985

7.62847 -0.34248 -3.39207e-11
-0.34248 8.46878 1.25275e-11
-3.39207e-11 1.25275e-11 7.82112

6.798 0.459864 3.5269e-11
0.459864 8.06918 -2.08141e-11
3.5269e-11 -2.08141e-11 7.38458

10.0832 0.549211 -1.54238e-12
0.549211 9.16651 4.75063e-11
-1.54238e-12 4.75063e-11 9.67196

10.5733 -0.313156 -7.2079e-11
-0.313156 9.52384 -3.8931e-11
-7.2079e-11 -3.8931e-11 10.1656

9.05091 -0.522173 -7.90166e-12
-0.522173 8.54467 1.32982e-11
-7.90166e-12 1.32982e-11 8.70702

9.32811 0.648474 1.21415e-11
0.648474 8.56847 1.96586e-11
1.21415e-11 1.96586e-11 9.00041

9.80396 -0.45218 3.85457e-12
-0.45218 9.07632 2.89086e-11
3.85457e-12 2.89086e-11 9.46872

4.41967 -0.173022 -1.46477e-11
-0.173022 3.62407 -8.09458e-12
-1.46477e-11 -8.09458e-12 4.51041

3.55552 -0.214048 4.43295e-12
-0.214048 4.29154 1.50338e-11
4.43295e-12 1.50338e-11 4.45944

11.4206 0.735893 3.04494e-11
0.735893 10.7485 -1.96571e-11
3.04494e-11 -1.96571e-11 10.6345

11.7905 -0.515596 -4.81766e-11
-0.515596 10.4093 -9.13497e-11
-4.81766e-11 -9.13497e-11 11.0392

8.54637 0.712611 -3.14152e-11
0.712611 8.04744 8.09432e-12
-3.14152e-11 8.09432e-12 8.28168

6.55904 0.337838 -1.53229e-11
0.337838 5.74524 -9.05906e-12
-1.53229e-11 -9.05906e-12 5.89626

8.64174 0.637137 1.69597e-11
0.637137 9.62151 5.78546e-13
1.69597e-11 5.78546e-13 9.1198

7.78438 -0.246368 2.56321e-11
-0.246368 9.41671 1.42621e-11
2.56321e-11 1.42621e-11 8.77168

7.07816 -0.604298 -1.28179e-11
-0.604298 7.35974 2.77529e-11
-1.28179e-11 2.77529e-11 7.08147

9.58066 0.393716 5.97408e-12
0.393716 10.1502 -1.89835e-11
5.97408e-12 -1.89835e-11 9.8581

10.5665 -0.228419 4.37481e-11
-0.228419 10.8433 -2.86191e-11
4.37481e-11 -2.86191e-11 10.7587

7.76242 0.474896 5.10753e-12
0.474896 6.93676 2.13934e-11
5.10753e-12 2.13934e-11 7.10938

8.57326 0.25752 2.89109e-12
0.25752 7.3707 -4.23995e-12
2.89109e-12 -4.23995e-12 7.95201

7.94047 0.894688 -5.20366e-12
0.894688 9.07056 -6.16706e-12
-5.20366e-12 -6.16706e-12 9.05196

10.6108 -0.464113 -1.96586e-11
-0.464113 10.5942 4.0857e-11
-1.96586e-11 4.0857e-11 10.6409

8.07881 0.738094 9.73262e-12
0.738094 9.11814 2.58259e-11
9.73262e-12 2.58259e-11 8.49936

7.45559 -0.394739 -7.22673e-12
-0.394739 8.68133 -2.31275e-11
-7.22673e-12 -2.31275e-11 8.21044

8.69348 0.805848 -2.02365e-11
0.805848 8.3244 3.08356e-11
-2.02365e-11 3.08356e-11 8.63412

9.46186 -0.685615 -5.97566e-12
-0.685615 8.87482 2.81382e-11
-5.97566e-12 2.81382e-11 9.18397

7.17407 0.228417 2.50529e-12
0.228417 8.64241 3.27645e-11
2.50529e-12 3.27645e-11 7.88682

8.10353 -0.0194629 -2.87161e-11
-0.0194629 8.96118 -6.16764e-12
-2.87161e-11 -6.16764e-12 8.35752

5.02104 -0.260583 1.71536e-11
-0.260583 5.44339 9.25138e-12
1.71536e-11 9.25138e-12 5.05092

5.37455 -0.25294 -1.73415e-12
-0.25294 5.09187 -3.08277e-12
-1.73415e-12 -3.08277e-12 5.04779

8.92589 0.41837 2.28382e-11
0.41837 7.69902 -3.85405e-12
2.28382e-11 -3.85405e-12 8.43607

12.9412 0.127121 -1.73443e-11
0.127121 11.9549 -4.24036e-12
-1.73443e-11 -4.24036e-12 11.2961

12.7734 -0.457754 1.58032e-10
-0.457754 11.0992 3.21882e-11
1.58032e-10 3.21882e-11 11.5664

10.0721 -0.606991 3.38465e-11
-0.606991 10.7357 5.43483e-11
3.38465e-11 5.43483e-11 10.3091

10.1117 0.188038 -3.26425e-11
0.188038 10.4082 3.66177e-12
-3.26425e-11 3.66177e-12 10.2432

9.47904 -0.0377981 -2.50064e-11
-0.0377981 7.84866 9.25058e-12
-2.50064e-11 9.25058e-12 8.62618

8.77952 0.995065 -1.09852e-11
0.995065 9.90965 1.61889e-11
-1.09852e-11 1.61889e-11 9.37864

7.75217 -0.933723 -3.68106e-11
-0.933723 9.02746 -8.48001e-12
-3.68106e-11 -8.48001e-12 9.01237

5.35504 0.494125 -2.58258e-11
0.494125 5.56267 -3.58489e-11
-2.58258e-11 -3.58489e-11 5.32147

5.70587 0.518224 3.27648e-11
0.518224 5.63258 9.0591e-12
3.27648e-11 9.0591e-12 5.43404

5.72592 -0.190426 3.37278e-11
-0.190426 6.51148 2.56342e-11
3.37278e-11 2.56342e-11 5.87419

5.57704 0.392072 5.01081e-12
0.392072 6.34173 5.28086e-11
5.01081e-12 5.28086e-11 5.75485

6.4133 -0.095123 -6.66844e-11
-0.095123 5.58489 -3.8643e-11
-6.66844e-11 -3.8643e-11 5.79252

5.20343 0.230116 -9.63649e-12
0.230116 6.13202 8.28696e-12
-9.63649e-12 8.28696e-12 5.47074

5.91178 0.270429 -5.0496e-11
0.270429 5.10782 -1.00221e-11
-5.0496e-11 -1.00221e-11 5.38678

9.98674 0.0712056 2.58251e-11
0.0712056 11.023 3.70034e-11
2.58251e-11 3.70034e-11 10.2798

10.4109 0.522525 -5.41546e-11
0.522525 10.9745 4.84689e-11
-5.41546e-11 4.84689e-11 10.6045

9.71434 0.0799734 2.16819e-11
0.0799734 8.85932 3.27631e-11
2.16819e-11 3.27631e-11 9.19716

9.97754 -0.0164784 -9.54016e-12
-0.0164784 8.05256 2.50539e-11
-9.54016e-12 2.50539e-11 9.15893

6.94224 -0.316533 2.2357e-11
-0.316533 7.62734 2.6405e-11
2.2357e-11 2.6405e-11 7.01866

6.40174 0.473157 -3.84896e-13
0.473157 7.23212 -9.63668e-12
-3.84896e-13 -9.63668e-12 6.68482

9.46776 -0.0240979 -2.80423e-11
-0.0240979 7.80192 5.39646e-12
-2.80423e-11 5.39646e-12 8.63949

10.8405 0.404187 3.46911e-11
0.404187 10.185 -6.55291e-12
3.46911e-11 -6.55291e-12 10.3025

11.2608 -0.284735 2.70176e-12
-0.284735 10.1883 -1.01179e-10
2.70176e-12 -1.01179e-10 10.7537

9.16147 0.389182 2.9487e-11
0.389182 9.27879 -2.69809e-11
2.9487e-11 -2.69809e-11 9.13966

8.16464 -0.648858 8.67356e-12
-0.648858 8.7082 -1.65753e-11
8.67356e-12 -1.65753e-11 8.69603

8.51263 0.834095 6.84151e-12
0.834095 9.47461 -1.29126e-11
6.84151e-12 -1.29126e-11 8.89714

9.51055 0.080265 -9.60343e-14
0.080265 8.11754 -2.29344e-11
-9.60343e-14 -2.29344e-11 8.88585

6.91515 0.593779 -7.70943e-12
0.593779 6.74729 1.02148e-11
-7.70943e-12 1.02148e-11 6.52164

7.82851 -0.493556 -3.56468e-12
-0.493556 8.85701 -4.24001e-11
-3.56468e-12 -4.24001e-11 8.59442

8.51948 0.892601 -4.91435e-12
0.892601 9.38693 1.44546e-11
-4.91435e-12 1.44546e-11 8.8711

4.30538 1.0393 -2.06232e-11
1.0393 4.38253 -2.85252e-11
-2.06232e-11 -2.85252e-11 4.35617

7.06658 -0.0618811 -4.41345e-11
-0.0618811 8.61608 2.73678e-11
-4.41345e-11 2.73678e-11 7.83508

7.80947 0.338624 -7.51639e-12
0.338624 8.84624 -9.63685e-12
-7.51639e-12 -9.63685e-12 8.17532

9.89161 -0.082669 -1.27194e-11
-0.082669 11.4428 -1.88872e-11
-1.27194e-11 -1.88872e-11 10.3707

10.6437 0.410841 -4.14352e-11
0.410841 10.9784 2.16808e-11
-4.14352e-11 2.16808e-11 10.8128

10.0195 0.338464 1.1949e-11
0.338464 8.09772 1.81163e-11
1.1949e-11 1.81163e-11 9.51045

10.2114 -0.231109 -2.5825e-11
-0.231109 7.90278 -1.831e-11
-2.5825e-11 -1.831e-11 9.66495

9.31671 0.450446 -1.54144e-12
0.450446 9.43458 -7.51581e-12
-1.54144e-12 -7.51581e-12 9.47182

9.23025 -0.681203 -1.37794e-11
-0.681203 9.36976 -1.00215e-11
-1.37794e-11 -1.00215e-11 9.49656

10.0209 0.38212 -9.49148e-12
0.38212 10.5917 1.38759e-11
-9.49148e-12 1.38759e-11 10.2052

10.0014 -0.534487 3.12454e-11
-0.534487 10.2105 6.74513e-12
3.12454e-11 6.74513e-12 10.1438

12.0182 0.705612 -8.71105e-11
0.705612 11.6344 -1.04088e-11
-8.71105e-11 -1.04088e-11 11.0087

12.3851 -0.492731 -8.71091e-11
-0.492731 10.9955 -3.85453e-12
-8.71091e-11 -3.85453e-12 11.4544

8.79542 0.986803 3.02577e-11
0.986803 9.23716 2.96809e-11
3.02577e-11 2.96809e-11 9.42463

11.1998 -0.532351 -1.56106e-11
-0.532351 10.6183 -1.06002e-11
-1.56106e-11 -1.06002e-11 10.9309

8.45479 0.72781 -9.63044e-13
0.72781 7.71001 -2.69858e-12
-9.63044e-13 -2.69858e-12 8.11916

8.49458 0.62918 1.22378e-11
0.62918 9.27527 9.82921e-12
1.22378e-11 9.82921e-12 8.69175

7.60032 -0.250909 1.32985e-11
-0.250909 8.91742 -9.63618e-12
1.32985e-11 -9.63618e-12 8.31909

8.68828 -0.737182 1.98508e-11
-0.737182 8.32696 -1.34843e-12
1.98508e-11 -1.34843e-12 8.40442

6.79038 -0.396253 4.52929e-11
-0.396253 6.63086 -2.46702e-11
4.52929e-11 -2.46702e-11 6.4051

8.90339 -0.529 -2.73667e-11
-0.529 8.00843 2.89174e-12
-2.73667e-11 2.89174e-12 8.42036

7.97843 0.801406 -3.64264e-11
0.801406 7.84523 1.54176e-11
-3.64264e-11 1.54176e-11 7.94114

8.48204 -1.07918 2.0573e-11
-1.07918 9.28589 3.54616e-11
2.0573e-11 3.54616e-11 9.40211

9.06734 0.859924 1.6719e-11
0.859924 10.0028 2.65963e-11
1.6719e-11 2.65963e-11 9.62215

9.64875 -0.187247 -3.11729e-11
-0.187247 8.80504 -6.93808e-11
-3.11729e-11 -6.93808e-11 9.25276

12.5536 -0.319468 2.04296e-11
-0.319468 12.3962 -4.66374e-11
2.04296e-11 -4.66374e-11 11.2763

11.2498 0.267807 3.02569e-11
0.267807 11.7194 3.08454e-12
3.02569e-11 3.08454e-12 11.2625

8.94738 0.325764 2.06226e-11
0.325764 8.50401 2.02365e-11
2.06226e-11 2.02365e-11 8.81487

10.4418 -0.134115 4.45701e-12
-0.134115 9.38016 -2.89085e-11
4.45701e-12 -2.89085e-11 9.89366

5.52806 -0.37048 4.43295e-11
-0.37048 5.76132 4.43325e-12
4.43295e-11 4.43325e-12 5.37336

5.77598 -0.35117 -2.50544e-11
-0.35117 5.34141 -5.51217e-11
-2.50544e-11 -5.51217e-11 5.34019

10.2516 0.106595 2.08143e-11
0.106595 8.81898 6.70679e-11
2.08143e-11 6.70679e-11 9.74534

10.4284 0.0288466 -7.70988e-12
0.0288466 8.74286 2.38978e-11
-7.70988e-12 2.38978e-11 9.98128

10.2729 0.0130177 -2.36086e-11
0.0130177 9.57578 -6.59114e-11
-2.36086e-11 -6.59114e-11 9.91791

8.95492 -0.294457 2.32478e-11
-0.294457 9.39537 -3.17998e-11
2.32478e-11 -3.17998e-11 8.99026

7.71612 0.379381 1.30569e-11
0.379381 8.88999 6.74555e-11
1.30569e-11 6.74555e-11 8.34589

8.16173 0.584039 1.44549e-11
0.584039 7.35902 -1.15636e-11
1.44549e-11 -1.15636e-11 7.62594

9.54683 0.667798 3.62325e-11
0.667798 9.06615 -1.54049e-12
3.62325e-11 -1.54049e-12 9.39073

10.3357 -0.521805 3.64248e-11
-0.521805 9.83225 -5.78171e-12
3.64248e-11 -5.78171e-12 10.0971

11.1093 0.0858646 -9.3007e-12
0.0858646 10.7572 2.1425e-10
-9.3007e-12 2.1425e-10 10.7305

11.2332 -0.741313 1.65504e-11
-0.741313 12.2384 -1.67684e-10
1.65504e-11 -1.67684e-10 11.0464

8.92707 0.290438 -2.40905e-11
0.290438 8.31639 -4.44089e-16
-2.40905e-11 -4.44089e-16 8.44812

10.1632 0.470433 2.88118e-11
0.470433 9.38688 -1.31047e-11
2.88118e-11 -1.31047e-11 9.77077

10.5025 -0.347989 8.09464e-12
-0.347989 9.47951 2.85217e-11
8.09464e-12 2.85217e-11 10.1387

8.2997 -0.284915 2.15849e-11
-0.284915 9.42266 1.15637e-11
2.15849e-11 1.15637e-11 9.06549

9.14457 0.809808 -2.43798e-11
0.809808 9.88378 -9.44375e-12
-2.43798e-11 -9.44375e-12 9.42776

8.93743 1.03144 1.50326e-11
1.03144 9.95988 1.79238e-11
1.50326e-11 1.79238e-11 9.43014

8.16703 -0.619024 3.45944e-11
-0.619024 8.98092 -2.31245e-12
3.45944e-11 -2.31245e-12 9.05851

4.70904 1.18624 -2.31282e-12
1.18624 4.74172 -1.13718e-11
-2.31282e-12 -1.13718e-11 4.59925

9.38777 0.638389 4.61089e-11
0.638389 10.3435 3.66223e-12
4.61089e-11 3.66223e-12 9.85569

8.97297 -0.728026 2.36569e-11
-0.728026 9.89271 2.06219e-11
2.36569e-11 2.06219e-11 9.7157

7.90835 -0.564422 2.91976e-11
-0.564422 9.12436 3.46924e-12
2.91976e-11 3.46924e-12 8.88594

8.64499 0.885301 9.63546e-13
0.885301 9.72122 -9.25086e-12
9.63546e-13 -9.25086e-12 9.19585

8.52378 -0.390602 -2.69808e-11
-0.390602 7.70526 -3.44983e-11
-2.69808e-11 -3.44983e-11 7.91598

9.02474 -0.472464 1.92726e-11
-0.472464 8.93034 -1.92724e-12
1.92726e-11 -1.92724e-12 9.08771

9.31982 0.518344 -2.45242e-11
0.518344 9.82839 -8.8656e-12
-2.45242e-11 -8.8656e-12 9.60843

9.21257 -0.706804 -9.63579e-12
-0.706804 9.31871 1.42618e-11
-9.63579e-12 1.42618e-11 9.52219

9.44773 -0.184397 -1.34432e-11
-0.184397 8.10894 -3.46919e-12
-1.34432e-11 -3.46919e-12 8.94357

10.589 0.194333 -2.5825e-11
0.194333 10.068 2.69777e-12
-2.5825e-11 2.69777e-12 10.193

10.7963 -0.197581 -3.54619e-11
-0.197581 9.73634 2.9294e-11
-3.54619e-11 2.9294e-11 10.4481

10.836 0.218578 -6.01282e-11
0.218578 12.342 -7.24642e-11
-6.01282e-11 -7.24642e-11 10.8822

11.0563 0.284941 3.12207e-11
0.284941 11.9648 -3.24736e-11
3.12207e-11 -3.24736e-11 11.2429

4.35826 0.224109 -2.50498e-12
0.224109 3.76758 1.11786e-11
-2.50498e-12 1.11786e-11 4.45972

3.83415 0.222858 5.01173e-12
0.222858 4.50004 1.58048e-11
5.01173e-12 1.58048e-11 4.49826

8.99349 0.649111 -8.09401e-12
0.649111 9.01316 -7.16941e-11
-8.09401e-12 -7.16941e-11 9.2289

10.2551 -0.667366 -2.23549e-11
-0.667366 10.0993 -2.25492e-11
-2.23549e-11 -2.25492e-11 10.1951

4.488 0.441362 4.18241e-11
0.441362 4.42666 -7.5157e-12
4.18241e-11 -7.5157e-12 4.63166

4.39775 0.48316 1.02139e-11
0.48316 4.42608 -1.56118e-11
1.02139e-11 -1.56118e-11 4.615

12.5418 -0.17126 -1.55331e-10
-0.17126 12.0805 -1.02723e-10
-1.55331e-10 -1.02723e-10 11.7027

12.631 -0.114027 -7.71092e-13
-0.114027 12.8782 -8.2871e-11
-7.71092e-13 -8.2871e-11 11.4363

8.60044 -0.63885 2.8909e-11
-0.63885 8.71196 -1.58042e-11
2.8909e-11 -1.58042e-11 8.8854

8.99874 0.824142 4.00878e-11
0.824142 8.82178 5.04938e-11
4.00878e-11 5.04938e-11 9.09668

10.1049 -0.693309 -1.9079e-11
-0.693309 9.56394 -2.17779e-11
-1.9079e-11 -2.17779e-11 9.87634

8.09811 0.724008 2.02365e-11
0.724008 8.23633 -1.19488e-11
2.02365e-11 -1.19488e-11 8.15574

8.94721 -0.576128 -2.40896e-11
-0.576128 8.81748 -3.87383e-11
-2.40896e-11 -3.87383e-11 8.71975

5.96354 -0.106944 -2.85242e-11
-0.106944 6.61976 1.83089e-11
-2.85242e-11 1.83089e-11 5.97862

5.46415 0.298436 4.70263e-11
0.298436 6.34711 2.23577e-11
4.70263e-11 2.23577e-11 5.74048

6.47423 -0.0442737 -6.53362e-11
-0.0442737 5.71693 6.55176e-12
-6.53362e-11 6.55176e-12 5.85749

8.21787 0.768166 -2.54399e-11
0.768166 8.48452 -7.71485e-13
-2.54399e-11 -7.71485e-13 8.5073

9.32432 -0.75716 -8.86434e-12
-0.75716 9.20381 -3.27669e-12
-8.86434e-12 -3.27669e-12 9.2208

4.96416 0.0481943 2.48623e-11
0.0481943 5.90142 1.54234e-12
2.48623e-11 1.54234e-12 5.29902

5.88982 -0.00583164 3.02603e-11
-0.00583164 5.10912 1.88879e-11
3.02603e-11 1.88879e-11 5.3127

9.57072 0.785346 4.24063e-12
0.785346 9.24264 -9.32781e-11
4.24063e-12 -9.32781e-11 9.56989

10.8176 -0.560089 -3.8542e-12
-0.560089 10.2143 1.15576e-12
-3.8542e-12 1.15576e-12 10.5442

9.63501 0.776431 2.96809e-11
0.776431 9.53603 -4.0471e-11
2.96809e-11 -4.0471e-11 9.67512

10.6993 -0.678186 1.02125e-11
-0.678186 10.0824 3.25698e-11
1.02125e-11 3.25698e-11 10.4556

4.17082 0.453264 1.81184e-11
0.453264 4.1907 8.09512e-12
1.81184e-11 8.09512e-12 4.40185

4.17359 0.418351 -2.39005e-11
0.418351 4.24816 -5.66644e-11
-2.39005e-11 -5.66644e-11 4.40661

8.80336 0.733734 -4.62542e-11
0.733734 8.6188 -2.27423e-11
-4.62542e-11 -2.27423e-11 8.80641

9.65039 -0.607075 -1.00208e-11
-0.607075 9.42907 -4.12422e-11
-1.00208e-11 -4.12422e-11 9.49434

10.7472 0.47421 1.13709e-11
0.47421 11.0828 3.24735e-11
1.13709e-11 3.24735e-11 10.8484

10.3995 -0.15453 -1.3683e-11
-0.15453 11.172 1.29124e-11
-1.3683e-11 1.29124e-11 10.4604

9.21139 0.619205 3.50759e-11
0.619205 9.85382 -3.19912e-11
3.50759e-11 -3.19912e-11 9.71876

11.0612 -0.702804 -3.86284e-13
-0.702804 10.6618 1.17558e-11
-3.86284e-13 1.17558e-11 10.8905

10.6281 0.555678 5.20358e-11
0.555678 9.51992 -4.66392e-11
5.20358e-11 -4.66392e-11 10.0703

11.0488 -0.359311 2.46679e-11
-0.359311 9.48339 4.10493e-11
2.46679e-11 4.10493e-11 10.4601

9.00165 0.746049 1.82608e-11
0.746049 9.6966 -1.36831e-11
1.82608e-11 -1.36831e-11 9.31048

8.64002 -0.625584 -5.01103e-12
-0.625584 9.13992 9.25126e-12
-5.01103e-12 9.25126e-12 9.18563

10.5905 0.453266 -6.86084e-11
0.453266 11.674 -6.68758e-11
-6.86084e-11 -6.68758e-11 10.9206

10.615 0.528234 4.71452e-11
0.528234 10.7794 7.38131e-11
4.71452e-11 7.38131e-11 10.5027

10.8585 -0.939967 1.11304e-11
-0.939967 10.8293 -3.97011e-11
1.11304e-11 -3.97011e-11 10.5688

10.2509 -0.127364 1.58045e-11
-0.127364 11.8184 -9.13511e-11
1.58045e-11 -9.13511e-11 10.5959

11.3977 0.554128 1.96579e-11
0.554128 10.6113 8.09467e-12
1.96579e-11 8.09467e-12 10.6011

12.1994 0.116094 5.01067e-11
0.116094 11.3225 -4.62597e-12
5.01067e-11 -4.62597e-12 10.986

11.6896 -0.511511 4.77946e-11
-0.511511 10.1722 2.08151e-11
4.77946e-11 2.08151e-11 10.9092

12.3354 -0.166798 -4.62504e-12
-0.166798 10.761 -2.71719e-11
-4.62504e-12 -2.71719e-11 11.3035

11.296 0.650997 -3.47187e-12
0.650997 11.8534 3.2146e-10
-3.47187e-12 3.2146e-10 10.8651

13.3537 -0.130883 5.82792e-10
-0.130883 12.9919 -2.62471e-10
5.82792e-10 -2.62471e-10 11.6088

13.1276 -0.451289 -8.74199e-10
-0.451289 11.3243 -5.12673e-11
-8.74199e-10 -5.12673e-11 11.8107

12.6373 -0.554802 1.31008e-11
-0.554802 11.2885 1.38181e-10
1.31008e-11 1.38181e-10 11.7139

11.4416 0.625141 -8.55668e-11
0.625141 10.8534 -6.09018e-11
-8.55668e-11 -6.09018e-11 10.6512

10.5764 0.276775 -1.1178e-11
0.276775 10.3466 7.70998e-12
-1.1178e-11 7.70998e-12 10.2505

11.9533 0.31241 -8.86497e-11
0.31241 12.3951 -3.12237e-11
-8.86497e-11 -3.12237e-11 11.1696

12.4494 -0.437185 2.54379e-11
-0.437185 11.0106 2.50538e-11
2.54379e-11 2.50538e-11 11.5371

12.4645 -0.50797 -8.08787e-12
-0.50797 11.249 -1.01563e-10
-8.08787e-12 -1.01563e-10 11.6093

11.6143 -0.353221 -7.70962e-12
-0.353221 10.978 -5.39652e-12
-7.70962e-12 -5.39652e-12 11.205

10.6912 0.726707 -2.15864e-11
0.726707 10.402 5.01088e-11
-2.15864e-11 5.01088e-11 10.3291

11.5633 0.350318 3.93133e-11
0.350318 10.8635 8.09438e-11
3.93133e-11 8.09438e-11 10.7002

11.5269 -0.543294 1.696e-11
-0.543294 10.526 -1.94647e-11
1.696e-11 -1.94647e-11 11.0201

11.9557 -0.317237 -3.27631e-11
-0.317237 10.79 1.09839e-11
-3.27631e-11 1.09839e-11 11.229

11.6001 0.0615349 2.81373e-11
0.0615349 11.633 2.6788e-11
2.81373e-11 2.6788e-11 11.7685

12.405 -0.0301158 -1.67669e-11
-0.0301158 12.1819 1.95607e-11
-1.67669e-11 1.95607e-11 12.2151

12.0848 0.114702 2.79445e-11
0.114702 11.7354 -1.3492e-12
2.79445e-11 -1.3492e-12 11.8893

11.4575 -0.116356 -1.75377e-11
-0.116356 10.9917 -6.49818e-12
-1.75377e-11 -6.49818e-12 11.5058

11.5409 0.0189085 -1.38759e-11
0.0189085 11.2008 -7.46641e-12
-1.38759e-11 -7.46641e-12 11.6071

12.4568 -0.160483 -1.34899e-12
-0.160483 12.2821 -9.44329e-12
-1.34899e-12 -9.44329e-12 12.2423

12.0226 0.298323 3.54607e-11
0.298323 11.6627 1.36828e-11
3.54607e-11 1.36828e-11 11.8388

11.5438 -0.0271359 -1.11778e-11
-0.0271359 11.1465 1.31576e-11
-1.11778e-11 1.31576e-11 11.5939

11.3915 0.135825 1.59959e-11
0.135825 10.5529 -3.63759e-11
1.59959e-11 -3.63759e-11 11.1818

11.8014 0.0291778 -1.54176e-11
0.0291778 11.7086 -8.04593e-12
-1.54176e-11 -8.04593e-12 11.8978

11.813 -0.0272638 -3.08357e-12
-0.0272638 11.7304 7.51603e-12
-3.08357e-12 7.51603e-12 11.9077

12.2387 0.0158378 4.35544e-11
0.0158378 12.3362 -1.65738e-11
4.35544e-11 -1.65738e-11 12.3126

12.2467 -0.173245 -3.85394e-12
-0.173245 11.4658 -2.40899e-11
-3.85394e-12 -2.40899e-11 11.735

12.7311 0.00713204 2.58244e-11
0.00713204 12.455 8.19024e-12
2.58244e-11 8.19024e-12 12.3562

11.5592 0.222658 1.54176e-11
0.222658 11.4899 -5.9744e-12
1.54176e-11 -5.9744e-12 11.6945

11.3504 0.315844 -1.94644e-11
0.315844 11.378 2.89081e-11
-1.94644e-11 2.89081e-11 11.5099

12.0939 -0.294972 2.54392e-11
-0.294972 11.7379 -2.68841e-11
2.54392e-11 -2.68841e-11 11.9122

12.3998 0.148888 -9.63558e-12
0.148888 12.247 3.34368e-11
-9.63558e-12 3.34368e-11 12.203

12.5216 0.00965188 1.99463e-11
0.00965188 12.6551 -6.4831e-12
1.99463e-11 -6.4831e-12 12.5556

11.803 0.0308644 -1.07923e-11
0.0308644 11.8875 -6.7451e-12
-1.07923e-11 -6.7451e-12 11.9584

11.8057 -0.0345516 -2.698e-12
-0.0345516 11.8965 -1.83566e-11
-2.698e-12 -1.83566e-11 11.963

12.2675 -0.0350876 -2.04281e-11
-0.0350876 12.4328 3.15576e-12
-2.04281e-11 3.15576e-12 12.3687

11.5684 0.100147 2.20665e-11
0.100147 11.5094 1.31049e-11
2.20665e-11 1.31049e-11 11.7157

11.5323 0.0796645 7.70873e-13
0.0796645 11.2794 -8.23882e-12
7.70873e-13 -8.23882e-12 11.6575

11.409 0.0782246 -8.86497e-12
0.0782246 11.4596 1.8983e-11
-8.86497e-12 1.8983e-11 11.6377

12.2761 -0.050452 1.15632e-11
-0.050452 12.2518 -2.46679e-11
1.15632e-11 -2.46679e-11 12.272

11.5073 0.0977057 -2.79446e-11
0.0977057 11.0009 2.22816e-11
-2.79446e-11 2.22816e-11 11.508

11.7845 0.0174514 1.92732e-12
0.0174514 11.8545 4.36028e-11
1.92732e-12 4.36028e-11 11.9467

11.4217 -0.133189 2.50541e-12
-0.133189 10.5515 -2.19039e-11
2.50541e-12 -2.19039e-11 11.2926

12.1447 -0.0351622 -2.77514e-11
-0.0351622 12.2575 -5.8719e-11
-2.77514e-11 -5.8719e-11 12.2526

12.6145 -0.0277189 3.39189e-11
-0.0277189 12.1448 -2.46675e-11
3.39189e-11 -2.46675e-11 12.1686

12.5846 0.0435167 -2.31242e-12
0.0435167 12.0022 1.98499e-11
-2.31242e-12 1.98499e-11 12.1173

11.9636 -0.145818 -2.17773e-11
-0.145818 11.7315 3.73877e-11
-2.17773e-11 3.73877e-11 11.7059

11.9695 0.146703 -6.74523e-12
0.146703 11.748 1.70556e-11
-6.74523e-12 1.70556e-11 11.7117

11.6419 -0.0336861 3.08353e-12
-0.0336861 11.4443 3.13168e-12
3.08353e-12 3.13168e-12 11.7409

11.3127 0.0308616 -3.08353e-11
0.0308616 11.3829 -1.79228e-11
-3.08353e-11 -1.79228e-11 11.5621

11.4573 -0.241607 -6.55245e-12
-0.241607 11.4605 6.26354e-12
-6.55245e-12 6.26354e-12 11.5783

11.4435 0.255893 -6.35984e-12
0.255893 11.4668 1.78266e-11
-6.35984e-12 1.78266e-11 11.5753

11.4091 -0.117746 -1.54175e-12
-0.117746 10.516 -3.91342e-11
-1.54175e-12 -3.91342e-11 11.136

12.2599 -0.0645024 -2.15845e-11
-0.0645024 12.4112 8.47956e-12
-2.15845e-11 8.47956e-12 12.3302

11.5394 0.00268535 -9.25047e-12
0.00268535 11.4355 -3.52678e-11
-9.25047e-12 -3.52678e-11 11.6925

11.3714 0.100974 2.98724e-12
0.100974 10.4727 2.37769e-11
2.98724e-12 2.37769e-11 11.1359

11.5786 -0.0931035 7.70863e-12
-0.0931035 11.5293 2.02357e-11
7.70863e-12 2.02357e-11 11.726

11.5908 -0.0627978 1.92735e-12
-0.0627978 11.6389 -2.33191e-11
1.92735e-12 -2.33191e-11 11.7673

12.4753 -0.121526 -4.23985e-12
-0.121526 12.407 -9.63564e-13
-4.23985e-12 -9.63564e-13 12.3651

11.6083 0.00368327 2.91009e-11
0.00368327 11.4581 -5.95986e-11
2.91009e-11 -5.95986e-11 11.7374

11.8338 0.0464878 -2.35118e-11
0.0464878 11.8217 -8.91325e-12
-2.35118e-11 -8.91325e-12 11.9692

12.0095 0.0602978 2.69801e-12
0.0602978 12.0624 2.93896e-11
2.69801e-12 2.93896e-11 12.1336

11.6443 -0.469889 -1.13706e-11
-0.469889 11.0867 -9.05818e-12
-1.13706e-11 -9.05818e-12 11.4526

11.9979 -0.0267901 -1.65737e-11
-0.0267901 12.0768 -4.19044e-11
-1.65737e-11 -4.19044e-11 12.1236

11.7633 0.0274843 2.50536e-11
0.0274843 11.7957 -2.81853e-12
2.50536e-11 -2.81853e-12 11.9205

12.8328 0.080977 -6.9378e-12
0.080977 12.8889 9.63594e-12
-6.9378e-12 9.63594e-12 12.7434

12.8325 -0.0806207 -1.42611e-11
-0.0806207 12.8889 -2.21623e-12
-1.42611e-11 -2.21623e-12 12.7432

12.5893 -0.032666 -4.08562e-11
-0.032666 12.7094 1.15857e-11
-4.08562e-11 1.15857e-11 12.6036

12.8243 0.0293976 -1.31048e-11
0.0293976 12.9257 -5.25146e-12
-1.31048e-11 -5.25146e-12 12.7558

12.824 -0.0292184 -6.55243e-12
-0.0292184 12.9255 1.85972e-11
-6.55243e-12 1.85972e-11 12.7556

12.2948 -0.101573 -1.23339e-11
-0.101573 12.3628 -2.11991e-11
-1.23339e-11 -2.11991e-11 12.3069

11.6953 -0.190502 3.77734e-11
-0.190502 11.2702 1.7441e-11
3.77734e-11 1.7441e-11 11.4549

11.6954 0.196958 -2.25484e-11
0.196958 11.2712 -1.37795e-11
-2.25484e-11 -1.37795e-11 11.456

12.6563 0.0428964 2.19698e-11
0.0428964 12.7869 -7.51603e-12
2.19698e-11 -7.51603e-12 12.6468

12.6562 -0.0429937 -3.0835e-12
-0.0429937 12.7877 9.73224e-12
-3.0835e-12 9.73224e-12 12.6469

11.6559 0.0316365 7.13064e-12
0.0316365 11.5354 2.24036e-12
7.13064e-12 2.24036e-12 11.7932

12.2438 0.274055 -1.54176e-11
0.274055 11.7782 -7.13014e-12
-1.54176e-11 -7.13014e-12 11.7769

12.9805 -0.221107 -3.00641e-11
-0.221107 12.7242 7.3231e-12
-3.00641e-11 7.3231e-12 12.4326

12.2601 0.0631938 6.16694e-12
0.0631938 12.4154 -1.88864e-11
6.16694e-12 -1.88864e-11 12.3325

11.7873 -0.0308549 6.55252e-12
-0.0308549 11.8767 -1.19245e-11
6.55252e-12 -1.19245e-11 11.9593

11.7343 -0.0445143 1.11777e-11
-0.0445143 11.6678 1.76459e-11
1.11777e-11 1.76459e-11 11.8572

12.3037 -0.100376 -7.70884e-12
-0.100376 12.3723 6.74455e-13
-7.70884e-12 6.74455e-13 12.276

11.7458 0.287459 -4.58668e-11
0.287459 11.463 4.04715e-11
-4.58668e-11 4.04715e-11 11.7121

13.2452 0.0629138 8.09328e-12
0.0629138 13.3386 -1.99077e-10
8.09328e-12 -1.99077e-10 12.9777

13.2448 -0.0624939 1.52632e-10
-0.0624939 13.3376 -8.56622e-11
1.52632e-10 -8.56622e-11 12.9774

11.4232 0.387498 -2.6017e-11
0.387498 11.0715 2.68848e-11
-2.6017e-11 2.68848e-11 11.3067

12.5923 0.0186449 -2.62096e-11
0.0186449 12.7253 2.41862e-11
-2.62096e-11 2.41862e-11 12.6052

12.593 -0.018319 -3.23766e-11
-0.018319 12.7296 1.77783e-11
-3.23766e-11 1.77783e-11 12.607

10.9602 0.188764 1.13704e-11
0.188764 11.274 -3.66171e-12
1.13704e-11 -3.66171e-12 11.3418

12.5351 0.118511 1.46464e-11
0.118511 12.5568 -2.15845e-11
1.46464e-11 -2.15845e-11 12.3718

11.6145 0.0333154 1.61885e-11
0.0333154 11.4301 -2.37287e-11
1.61885e-11 -2.37287e-11 11.7334

11.5816 -0.0573043 7.11139e-11
-0.0573043 11.2674 -6.93805e-12
7.11139e-11 -6.93805e-12 11.6686

11.3832 -0.284895 -1.54177e-11
-0.284895 10.9997 -3.37247e-12
-1.54177e-11 -3.37247e-12 11.443

11.54 0.309807 2.42824e-11
0.309807 11.9594 3.60391e-11
2.42824e-11 3.60391e-11 11.6474

11.546 -0.323377 5.85867e-11
-0.323377 11.9282 -1.89835e-11
5.85867e-11 -1.89835e-11 11.6406

11.6576 0.0530734 -1.54181e-12
0.0530734 11.6614 -2.89079e-11
-1.54181e-12 -2.89079e-11 11.8226

11.4267 0.076915 -5.29982e-11
0.076915 11.2876 -1.01662e-11
-5.29982e-11 -1.01662e-11 11.6148

12.529 -0.0610874 -1.46466e-11
-0.0610874 12.6448 2.32467e-11
-1.46466e-11 2.32467e-11 12.5523

12.9198 0.00633941 -6.0899e-11
0.00633941 12.8422 1.07913e-11
-6.0899e-11 1.07913e-11 12.3965

12.9845 0.232774 -1.73437e-11
0.232774 11.9258 2.60165e-11
-1.73437e-11 2.60165e-11 12.0874

11.374 0.300746 -1.48395e-11
0.300746 11.0295 7.32338e-12
-1.48395e-11 7.32338e-12 11.4461

12.1521 -0.0982173 6.74512e-12
-0.0982173 11.8367 3.08361e-12
6.74512e-12 3.08361e-12 11.9678

12.3457 0.0281591 -1.92573e-13
0.0281591 12.1198 1.57066e-11
-1.92573e-13 1.57066e-11 12.1668

12.6373 -0.00204813 -1.73446e-11
-0.00204813 12.7736 -1.12258e-11
-1.73446e-11 -1.12258e-11 12.6475

12.6396 0.00308326 -3.08348e-11
0.00308326 12.7735 -2.16808e-12
-3.08348e-11 -2.16808e-12 12.6487

12.2203 0.0602065 -2.75586e-11
0.0602065 12.3361 5.26604e-11
-2.75586e-11 5.26604e-11 12.3077

12.4382 -0.0382431 -6.16697e-12
-0.0382431 12.5831 -1.36167e-11
-6.16697e-12 -1.36167e-11 12.495

12.7313 0.0186818 -7.80504e-12
0.0186818 12.8371 1.24784e-11
-7.80504e-12 1.24784e-11 12.7019

12.7314 -0.0182156 -1.16594e-11
-0.0182156 12.8373 -1.15872e-11
-1.16594e-11 -1.15872e-11 12.702

12.524 0.0616714 1.85009e-11
0.0616714 12.6439 -1.79469e-11
1.85009e-11 -1.79469e-11 12.5506

12.2744 0.0457058 6.16689e-12
0.0457058 12.256 -2.53425e-11
6.16689e-12 -2.53425e-11 12.273

12.6637 0.0581077 1.54177e-12
0.0581077 12.7607 -2.86667e-12
1.54177e-12 -2.86667e-12 12.6514

12.668 -0.0563413 -3.50746e-11
-0.0563413 12.7611 4.45658e-12
-3.50746e-11 4.45658e-12 12.6532

11.4678 0.130312 -2.11996e-12
0.130312 10.9821 -4.66865e-11
-2.11996e-12 -4.66865e-11 11.4985

12.6103 -0.0683076 -1.69591e-11
-0.0683076 12.61 -1.30084e-11
-1.69591e-11 -1.30084e-11 12.5278

11.5617 0.0220022 8.6724e-12
0.0220022 11.4604 -4.09533e-12
8.6724e-12 -4.09533e-12 11.7055

10.9982 0.302281 2.4861e-11
0.302281 11.1442 9.63609e-13
2.4861e-11 9.63609e-13 11.1877

12.5429 -0.0735064 -2.04281e-11
-0.0735064 12.5421 -1.32013e-11
-2.04281e-11 -1.32013e-11 12.4185

12.3752 0.0130847 -4.23981e-12
0.0130847 12.5035 1.49357e-12
-4.23981e-12 1.49357e-12 12.4362

11.2825 0.182088 9.92507e-12
0.182088 11.1281 2.674e-11
9.92507e-12 2.674e-11 11.5102

11.4767 -0.103786 -1.5225e-11
-0.103786 11.045 -2.00909e-11
-1.5225e-11 -2.00909e-11 11.5247

11.5599 -0.0199074 2.87153e-11
-0.0199074 11.5087 -1.84048e-11
2.87153e-11 -1.84048e-11 11.7439

11.4004 -0.0734296 -6.35974e-12
-0.0734296 11.2984 -1.3008e-12
-6.35974e-12 -1.3008e-12 11.6148

12.0306 0.196937 3.27624e-11
0.196937 11.8773 1.15613e-12
3.27624e-11 1.15613e-12 12.005

12.1052 -0.17726 8.86481e-12
-0.17726 11.9688 1.05032e-11
8.86481e-12 1.05032e-11 12.059

12.232 -0.0144965 -2.26444e-11
-0.0144965 12.3505 1.3394e-11
-2.26444e-11 1.3394e-11 12.3179

10.9409 -0.200609 -2.58252e-11
-0.200609 11.2742 5.10712e-11
-2.58252e-11 5.10712e-11 11.3334

12.2539 0.0178032 -7.70943e-13
0.0178032 12.3163 -1.19486e-11
-7.70943e-13 -1.19486e-11 12.3024

12.2475 -0.0174112 -2.85224e-11
-0.0174112 12.3077 2.24516e-11
-2.85224e-11 2.24516e-11 12.2972

11.441 0.0891196 1.32977e-11
0.0891196 11.2868 1.16115e-11
1.32977e-11 1.16115e-11 11.5887

11.2919 0.248625 -1.13706e-11
0.248625 10.2386 2.31264e-11
-1.13706e-11 2.31264e-11 11.0196

11.2934 -0.214785 2.40905e-11
-0.214785 10.2362 -2.11512e-11
2.40905e-11 -2.11512e-11 11.0181

11.867 0.108884 -1.15631e-11
0.108884 11.7235 1.45504e-11
-1.15631e-11 1.45504e-11 11.9117

11.3843 -0.0687207 -1.65742e-11
-0.0687207 11.4677 2.71253e-11
-1.65742e-11 2.71253e-11 11.6366

11.9657 0.0852774 -1.46468e-11
0.0852774 11.9682 -2.42826e-11
-1.46468e-11 -2.42826e-11 12.0544

11.9759 -0.0835546 6.16721e-12
-0.0835546 11.9723 -4.38436e-11
6.16721e-12 -4.38436e-11 12.0589

12.3 0.00558217 -2.27408e-11
0.00558217 12.3707 -5.63702e-12
-2.27408e-11 -5.63702e-12 12.3547

12.205 -0.0600548 7.32337e-12
-0.0600548 12.3274 -2.72215e-11
7.32337e-12 -2.72215e-11 12.2999

12.3106 0.00618803 3.31476e-11
0.00618803 12.4419 6.456e-12
3.31476e-11 6.456e-12 12.3791

13.6181 0.0944514 -1.21799e-10
0.0944514 12.8684 9.63568e-11
-1.21799e-10 9.63568e-11 12.5022

13.5499 -0.460604 -1.77291e-11
-0.460604 12.5808 1.34844e-12
-1.77291e-11 1.34844e-12 12.3506

12.3899 -0.00635081 -1.73446e-11
-0.00635081 12.5081 -6.86557e-12
-1.73446e-11 -6.86557e-12 12.4431

12.4254 -0.0383873 -2.08135e-11
-0.0383873 12.466 -6.84148e-12
-2.08135e-11 -6.84148e-12 12.3867

12.5828 0.033605 -2.89077e-11
0.033605 12.7075 -1.00875e-13
-2.89077e-11 -1.00875e-13 12.6012

11.8632 -0.104869 -2.19702e-11
-0.104869 11.7323 2.20662e-11
-2.19702e-11 2.20662e-11 11.9102

12.6767 -0.189519 6.55258e-12
-0.189519 12.5525 -2.2548e-11
6.55258e-12 -2.2548e-11 12.4177

11.2382 0.53111 -3.46954e-12
0.53111 10.9828 -7.99794e-12
-3.46954e-12 -7.99794e-12 11.227

12.6168 0.0752383 -1.9269e-12
0.0752383 12.6104 5.70446e-11
-1.9269e-12 5.70446e-11 12.5301

12.5994 -0.0916265 -2.38972e-11
-0.0916265 12.6446 2.77514e-11
-2.38972e-11 2.77514e-11 12.5307

11.4536 0.18402 -1.15671e-12
0.18402 11.4102 -6.04179e-11
-1.15671e-12 -6.04179e-11 11.5555

12.6635 -0.000870807 3.12202e-11
-0.000870807 12.8234 5.87941e-12
3.12202e-11 5.87941e-12 12.675

12.3121 -0.00448164 1.73446e-11
-0.00448164 12.421 -6.07058e-12
1.73446e-11 -6.07058e-12 12.3719

10.9788 -0.302578 5.58944e-12
-0.302578 11.1488 -4.36511e-11
5.58944e-12 -4.36511e-11 11.1823

12.3082 -0.06506 1.46467e-11
-0.06506 12.4642 -3.93627e-11
1.46467e-11 -3.93627e-11 12.3795

11.6268 -0.0337816 -5.04926e-11
-0.0337816 11.6765 5.73327e-12
-5.04926e-11 5.73327e-12 11.8262

11.3335 -0.0396916 6.93806e-12
-0.0396916 11.3827 -2.20183e-11
6.93806e-12 -2.20183e-11 11.5647

12.0854 0.0254109 1.42611e-11
0.0254109 12.0617 -2.9486e-11
1.42611e-11 -2.9486e-11 12.132

12.0861 -0.0280254 1.34905e-11
-0.0280254 12.0576 -2.69806e-11
1.34905e-11 -2.69806e-11 12.1306

12.2769 0.0313312 -3.58456e-11
0.0313312 12.4519 -1.24544e-11
-3.58456e-11 -1.24544e-11 12.3791

12.3086 0.0667849 4.85651e-11
0.0667849 12.4582 1.56101e-11
4.85651e-11 1.56101e-11 12.3787

12.0943 -0.0414019 5.78132e-12
-0.0414019 11.9883 2.98715e-11
5.78132e-12 2.98715e-11 12.0662

12.0737 0.0493002 1.73448e-11
0.0493002 11.9653 2.31261e-12
1.73448e-11 2.31261e-12 12.045

12.1447 -0.00700545 -1.23339e-11
-0.00700545 12.2221 4.49517e-11
-1.23339e-11 4.49517e-11 12.2252

12.1422 0.00548872 -4.47108e-11
0.00548872 12.2323 1.17075e-11
-4.47108e-11 1.17075e-11 12.2265

12.7011 0.0196539 1.61883e-11
0.0196539 12.7995 2.3849e-12
1.61883e-11 2.3849e-12 12.6786

12.702 -0.0188061 2.89076e-11
-0.0188061 12.7995 3.77486e-11
2.89076e-11 3.77486e-11 12.6789

12.475 -0.105987 2.46681e-11
-0.105987 12.557 -2.10061e-11
2.46681e-11 -2.10061e-11 12.4542

11.1408 -0.48347 5.01122e-12
-0.48347 10.9953 -1.60921e-11
5.01122e-12 -1.60921e-11 11.1672

11.1092 0.00863786 5.87798e-11
0.00863786 11.3259 -4.72198e-12
5.87798e-11 -4.72198e-12 11.4955

11.662 0.0173855 -4.54818e-11
0.0173855 11.6507 -1.08404e-11
-4.54818e-11 -1.08404e-11 11.827

12.0807 -0.0483714 6.16709e-12
-0.0483714 12.1927 -2.07173e-11
6.16709e-12 -2.07173e-11 12.1685

12.7706 0.0665338 -8.86501e-12
0.0665338 12.823 4.81803e-12
-8.86501e-12 4.81803e-12 12.705

12.7707 -0.0660367 -4.5096e-11
-0.0660367 12.8235 2.28851e-11
-4.5096e-11 2.28851e-11 12.7051

12.598 0.0832336 -5.396e-12
0.0832336 12.6962 2.75587e-11
-5.396e-12 2.75587e-11 12.594

12.5974 -0.0836101 1.40684e-11
-0.0836101 12.6966 -3.8543e-12
1.40684e-11 -3.8543e-12 12.594

11.8875 -0.0131456 1.65738e-11
-0.0131456 11.9815 -2.90525e-11
1.65738e-11 -2.90525e-11 12.0385

12.1141 -0.00913921 -1.42612e-11
-0.00913921 12.1997 1.02864e-11
-1.42612e-11 1.02864e-11 12.2123

12.0802 0.0559929 3.08336e-12
0.0559929 12.1961 -2.74624e-11
3.08336e-12 -2.74624e-11 12.1688

13.0164 -0.00591313 7.32324e-11
-0.00591313 13.0708 5.78144e-12
7.32324e-11 5.78144e-12 12.8585

13.0161 0.0060786 -3.77725e-11
0.0060786 13.0701 -3.50745e-11
-3.77725e-11 -3.50745e-11 12.8583

12.4702 -0.073132 -1.04068e-11
-0.073132 12.5694 -3.37258e-12
-1.04068e-11 -3.37258e-12 12.4893

11.6843 -0.0306535 -1.15632e-11
-0.0306535 11.5087 -2.41984e-11
-1.15632e-11 -2.41984e-11 11.7924

12.4378 0.0391743 2.00427e-11
0.0391743 12.5843 -2.72515e-12
2.00427e-11 -2.72515e-12 12.4953

11.7785 -0.262361 2.35116e-11
-0.262361 11.5987 1.71521e-11
2.35116e-11 1.71521e-11 11.7776

12.3038 0.127626 9.63599e-12
0.127626 12.2616 4.62526e-12
9.63599e-12 4.62526e-12 12.2376

11.5643 0.0153487 2.31286e-12
0.0153487 11.5801 -6.37903e-11
2.31286e-12 -6.37903e-11 11.7655

12.6072 0.0909764 4.27833e-11
0.0909764 12.644 -4.81893e-13
4.27833e-11 -4.81893e-13 12.533

12.465 0.0748703 -5.39616e-12
0.0748703 12.5697 -8.76866e-12
-5.39616e-12 -8.76866e-12 12.4877

10.6918 0.480296 1.31055e-11
0.480296 10.8956 3.59428e-11
1.31055e-11 3.59428e-11 10.9857

12.7684 0.000896657 -8.09399e-12
0.000896657 12.5353 -1.68629e-11
-8.09399e-12 -1.68629e-11 12.3913

12.2036 0.241937 4.23964e-12
0.241937 11.304 -1.36829e-11
4.23964e-12 -1.36829e-11 11.6587

12.4738 0.110328 2.65954e-11
0.110328 12.5583 3.34366e-11
2.65954e-11 3.34366e-11 12.4555

11.2133 0.232997 -3.39192e-11
0.232997 11.3278 -3.70023e-11
-3.39192e-11 -3.70023e-11 11.4657

11.53 -0.0279843 2.38974e-11
-0.0279843 11.449 4.32174e-11
2.38974e-11 4.32174e-11 11.7072

12.6674 -0.134605 2.77515e-11
-0.134605 12.5673 -1.25265e-11
2.77515e-11 -1.25265e-11 12.4908

11.5769 -0.229075 2.54426e-16
-0.229075 11.495 -1.84048e-11
2.54426e-16 -1.84048e-11 11.6939

11.8375 0.154712 -8.09406e-12
0.154712 11.8109 1.10815e-11
-8.09406e-12 1.10815e-11 11.9277

12.5118 -0.0358203 -1.27195e-11
-0.0358203 12.6525 -5.49242e-12
-1.27195e-11 -5.49242e-12 12.5356

12.136 -0.111942 1.27193e-11
-0.111942 12.0904 2.197e-11
1.27193e-11 2.197e-11 12.1428

12.7252 0.165672 5.39598e-12
0.165672 12.5455 -1.77301e-11
5.39598e-12 -1.77301e-11 12.4344

11.7751 0.0190262 4.62523e-12
0.0190262 11.7876 6.81749e-12
4.62523e-12 6.81749e-12 11.9312

11.7645 -0.0100134 4.93362e-11
-0.0100134 11.6886 2.29277e-11
4.93362e-11 2.29277e-11 11.8912

12.5123 0.036257 -2.69806e-12
0.036257 12.6525 -3.27617e-12
-2.69806e-12 -3.27617e-12 12.5358

12.521 -0.00703157 1.00213e-11
-0.00703157 12.6564 8.50669e-12
1.00213e-11 8.50669e-12 12.5551

13.2574 0.0410941 -7.05343e-11
0.0410941 13.2026 5.52136e-11
-7.05343e-11 5.52136e-11 12.9508

13.257 -0.0406523 9.90566e-11
-0.0406523 13.2018 2.51499e-11
9.90566e-11 2.51499e-11 12.9505

12.4321 0.0463345 -1.81154e-11
0.0463345 12.4637 1.97538e-11
-1.81154e-11 1.97538e-11 12.388

11.3449 -0.273051 3.27628e-12
-0.273051 11.5361 2.86191e-11
3.27628e-12 2.86191e-11 11.5522

11.3438 0.277893 -1.36831e-11
0.277893 11.5501 1.68629e-11
-1.36831e-11 1.68629e-11 11.5554

11.5201 -0.0375893 1.94648e-11
-0.0375893 10.8351 -3.94068e-11
1.94648e-11 -3.94068e-11 11.404

10.6766 -0.473261 2.58248e-11
-0.473261 10.906 -1.91756e-11
2.58248e-11 -1.91756e-11 10.9799

12.0882 0.0270414 -4.62522e-12
0.0270414 12.1792 -4.83966e-11
-4.62522e-12 -4.83966e-11 12.1929

11.769 0.00221075 1.81156e-11
0.00221075 11.6826 -2.10064e-11
1.81156e-11 -2.10064e-11 11.889

12.0471 0.0531422 9.63614e-12
0.0531422 12.1071 6.31637e-11
9.63614e-12 6.31637e-11 12.1505

12.0532 -0.0541843 1.4261e-11
-0.0541843 12.1087 5.89239e-11
1.4261e-11 5.89239e-11 12.1555

12.1884 0.0239448 6.9378e-12
0.0239448 12.259 -6.13809e-11
6.9378e-12 -6.13809e-11 12.2664

12.6698 0.129414 -4.70234e-11
0.129414 12.571 -2.59204e-11
-4.70234e-11 -2.59204e-11 12.4917

11.8878 0.0483713 1.38759e-11
0.0483713 11.9038 1.85974e-11
1.38759e-11 1.85974e-11 12.0138

12.1775 0.0136733 3.0835e-12
0.0136733 12.2304 4.71318e-11
3.0835e-12 4.71318e-11 12.2533

12.2648 -0.162081 -5.78187e-12
-0.162081 11.7014 5.97397e-12
-5.78187e-12 5.97397e-12 11.7885

12.9444 0.174986 2.35109e-11
0.174986 12.5334 -4.16273e-11
2.35109e-11 -4.16273e-11 12.3939

11.504 -0.197766 -2.4861e-11
-0.197766 11.1744 5.54083e-12
-2.4861e-11 5.54083e-12 11.5197

11.2322 -0.0321929 2.89083e-12
-0.0321929 9.99131 -5.29984e-12
2.89083e-12 -5.29984e-12 10.8716

12.1207 -0.0710054 -5.28051e-11
-0.0710054 12.2299 3.31475e-11
-5.28051e-11 3.31475e-11 12.2148

12.1214 0.0701484 8.86485e-12
0.0701484 12.2386 -4.394e-11
8.86485e-12 -4.394e-11 12.2189

11.4799 -0.0237081 -8.09434e-12
-0.0237081 10.6871 4.11126e-11
-8.09434e-12 4.11126e-11 11.3596

12.294 0.105534 -2.08136e-11
0.105534 12.3721 -2.40892e-12
-2.08136e-11 -2.40892e-12 12.307

12.8892 0.0629046 -2.35114e-11
0.0629046 12.9705 5.15519e-11
-2.35114e-11 5.15519e-11 12.7976

12.8892 -0.0625611 2.38967e-11
-0.0625611 12.9701 5.60809e-11
2.38967e-11 5.60809e-11 12.7974

11.3649 -0.0746021 5.20363e-12
-0.0746021 11.391 3.52679e-11
5.20363e-12 3.52679e-11 11.5775

11.2001 -0.237664 7.70856e-12
-0.237664 11.3242 6.64894e-12
7.70856e-12 6.64894e-12 11.4604

11.4336 -0.205663 -2.75592e-11
-0.205663 10.9083 -3.17971e-12
-2.75592e-11 -3.17971e-12 11.4316

11.655 0.00603897 9.44349e-12
0.00603897 11.5015 6.91864e-11
9.44349e-12 6.91864e-11 11.779

11.4185 -0.179858 -2.54393e-11
-0.179858 11.4099 5.20339e-12
-2.54393e-11 5.20339e-12 11.545

11.8029 -0.0345518 9.25049e-12
-0.0345518 11.8033 2.66314e-11
9.25049e-12 2.66314e-11 11.9574

11.8376 -0.14557 -3.35331e-11
-0.14557 11.8413 -3.37275e-12
-3.35331e-11 -3.37275e-12 11.9377

12.1301 0.109694 3.62311e-11
0.109694 12.0405 -7.22705e-12
3.62311e-11 -7.22705e-12 12.1252

12.7154 -0.166914 -1.15664e-12
-0.166914 12.3409 1.67666e-11
-1.15664e-12 1.67666e-11 12.2165

12.6122 0.11765 -1.27196e-11
0.11765 12.2808 -1.59954e-11
-1.27196e-11 -1.59954e-11 12.1668

12.7288 -0.000278031 1.92721e-12
-0.000278031 12.8606 3.09312e-11
1.92721e-12 3.09312e-11 12.7146

12.7274 -6.45027e-06 1.38757e-11
-6.45027e-06 12.8598 -2.31256e-12
1.38757e-11 -2.31256e-12 12.7143

11.1943 -0.125437 -2.44754e-11
-0.125437 11.3165 2.96792e-11
-2.44754e-11 2.96792e-11 11.5068

11.1776 0.132098 6.20559e-11
0.132098 11.3326 1.89833e-11
6.20559e-11 1.89833e-11 11.5026

11.2113 -0.0660874 4.8373e-11
-0.0660874 11.5669 4.1432e-12
4.8373e-11 4.1432e-12 11.4528

11.2062 0.0740047 -2.42828e-11
0.0740047 11.559 2.74627e-11
-2.42828e-11 2.74627e-11 11.4495

13.1319 -0.00651512 -4.16267e-11
-0.00651512 13.1629 7.13055e-11
-4.16267e-11 7.13055e-11 12.9093

13.1314 0.00677931 -4.31686e-11
0.00677931 13.1622 2.40896e-11
-4.31686e-11 2.40896e-11 12.9089

12.7597 0.0812885 -1.15634e-12
0.0812885 12.6913 -6.6487e-12
-1.15634e-12 -6.6487e-12 12.6192

12.7592 -0.0821811 9.63552e-12
-0.0821811 12.6929 6.42713e-11
9.63552e-12 6.42713e-11 12.6196

12.4432 -0.0173739 -1.77301e-11
-0.0173739 12.6024 5.8297e-12
-1.77301e-11 5.8297e-12 12.4981

11.8588 -0.107398 1.31054e-11
-0.107398 11.6773 -4.40363e-11
1.31054e-11 -4.40363e-11 11.8357

12.2537 0.0229137 -1.54164e-12
0.0229137 12.2357 1.8212e-11
-1.54164e-12 1.8212e-11 12.226

11.6753 -0.0482077 -1.73457e-12
-0.0482077 11.5607 2.89561e-11
-1.73457e-12 2.89561e-11 11.8002

12.4439 0.0186459 -2.69802e-12
0.0186459 12.6026 -9.63428e-14
-2.69802e-12 -9.63428e-14 12.4977

11.8102 0.0893807 -1.3346e-11
0.0893807 11.7094 -2.57281e-11
-1.3346e-11 -2.57281e-11 11.8331

12.3683 -0.032927 1.07922e-11
-0.032927 12.5259 2.89082e-12
1.07922e-11 2.89082e-12 12.4322

10.5768 -0.304151 -2.10068e-11
-0.304151 11.0811 -1.32979e-11
-2.10068e-11 -1.32979e-11 11.0485

10.5799 0.305124 -1.02142e-11
0.305124 11.0732 -1.88869e-11
-1.02142e-11 -1.88869e-11 11.0481

12.3648 0.0339589 4.31689e-11
0.0339589 12.5235 2.27889e-11
4.31689e-11 2.27889e-11 12.4304

11.4862 0.222877 3.85391e-13
0.222877 11.1798 -7.8533e-12
3.85391e-13 -7.8533e-12 11.5126

13.6043 0.0577553 9.01916e-11
0.0577553 11.7857 1.36855e-11
9.01916e-11 1.36855e-11 12.1675

13.5929 -0.115524 7.67022e-11
-0.115524 13.1862 1.84997e-11
7.67022e-11 1.84997e-11 12.5744

12.4982 0.0447998 -2.77514e-11
0.0447998 12.386 -2.88894e-13
-2.77514e-11 -2.88894e-13 12.3358

11.2856 -0.169322 -1.59958e-11
-0.169322 11.1322 -9.29864e-12
-1.59958e-11 -9.29864e-12 11.5178

11.5109 -0.324012 1.27196e-11
-0.324012 11.0258 -2.39456e-11
1.27196e-11 -2.39456e-11 11.3673

12.0671 -0.0172626 2.15845e-11
-0.0172626 12.1068 -3.95315e-11
2.15845e-11 -3.95315e-11 12.1614

12.076 0.00562933 -9.25052e-12
0.00562933 12.2236 -1.64775e-11
-9.25052e-12 -1.64775e-11 12.2102

12.8191 0.0360806 5.78157e-12
0.0360806 12.8619 2.53424e-11
5.78157e-12 2.53424e-11 12.7416

12.8199 -0.0345289 3.16056e-11
-0.0345289 12.8611 -3.10757e-12
3.16056e-11 -3.10757e-12 12.7416

11.5171 0.323473 -1.40687e-11
0.323473 11.0428 -5.44448e-12
-1.40687e-11 -5.44448e-12 11.3726

12.2684 -0.0326979 -1.28879e-11
-0.0326979 12.229 -2.91005e-11
-1.28879e-11 -2.91005e-11 12.2346

12.3728 -0.0624959 2.89054e-13
-0.0624959 12.5193 2.02356e-12
2.89054e-13 2.02356e-12 12.4397

12.6616 0.0936412 -2.31241e-12
0.0936412 12.75 3.26657e-11
-2.31241e-12 3.26657e-11 12.6319

12.6616 -0.093415 -4.62529e-12
-0.093415 12.7506 1.57066e-11
-4.62529e-12 1.57066e-11 12.632

11.7872 -0.468938 -3.16063e-11
-0.468938 11.5409 9.90661e-11
-3.16063e-11 9.90661e-11 11.6129

11.7757 0.47772 3.23772e-11
0.47772 11.5434 1.42637e-11
3.23772e-11 1.42637e-11 11.6113

12.4725 0.133384 -3.23766e-11
0.133384 12.4865 6.8417e-12
-3.23766e-11 6.8417e-12 12.3895

11.4805 -0.0608676 -1.86939e-11
-0.0608676 11.3069 -1.98983e-11
-1.86939e-11 -1.98983e-11 11.6072

12.7459 0.0710471 -8.38305e-12
0.0710471 12.8775 2.19217e-11
-8.38305e-12 2.19217e-11 12.7205

12.7462 -0.0707661 -5.49231e-12
-0.0707661 12.8773 -2.91486e-11
-5.49231e-12 -2.91486e-11 12.7204

11.7979 -0.212515 -1.40687e-11
-0.212515 11.4563 -6.6491e-12
-1.40687e-11 -6.6491e-12 11.6426

11.301 -0.408229 -1.13706e-11
-0.408229 11.0393 -5.39617e-12
-1.13706e-11 -5.39617e-12 11.2312

11.9653 -0.0544238 -8.47963e-12
-0.0544238 12.0535 -6.57653e-12
-8.47963e-12 -6.57653e-12 12.1129

10.9799 0.0331335 -1.92698e-12
0.0331335 11.48 -4.43251e-12
-1.92698e-12 -4.43251e-12 11.3499

10.9736 -0.033252 3.27619e-12
-0.033252 11.4761 1.60922e-11
3.27619e-12 1.60922e-11 11.3472

11.2702 -0.401254 -6.55283e-12
-0.401254 11.2042 -1.44539e-12
-6.55283e-12 -1.44539e-12 11.4129

12.3809 0.0625183 -1.92715e-12
0.0625183 12.5167 1.73446e-12
-1.92715e-12 1.73446e-12 12.4431

11.362 0.0797356 -3.27629e-12
0.0797356 11.3978 -1.12741e-11
-3.27629e-12 -1.12741e-11 11.5733

11.0759 0.0270353 -1.11777e-11
0.0270353 11.3794 -8.67033e-13
-1.11777e-11 -8.67033e-13 11.4377

11.0642 -0.0318512 1.71523e-11
-0.0318512 11.3865 -9.53961e-12
1.71523e-11 -9.53961e-12 11.4349

11.3958 0.252364 -7.32345e-12
0.252364 10.8396 -6.53322e-11
-7.32345e-12 -6.53322e-11 11.4012

12.8424 0.0458166 3.04494e-11
0.0458166 12.9769 -5.92606e-11
3.04494e-11 -5.92606e-11 12.7872

12.8426 -0.0454437 2.73657e-11
-0.0454437 12.976 4.5385e-11
2.73657e-11 4.5385e-11 12.787

12.9889 -0.00309565 -8.09537e-12
-0.00309565 12.6776 8.13272e-11
-8.09537e-12 8.13272e-11 12.2854

12.9582 0.222091 -1.6573e-11
0.222091 12.6903 2.56322e-11
-1.6573e-11 2.56322e-11 12.3316

11.9113 0.0156658 -2.08136e-11
0.0156658 12.0043 -2.81612e-11
-2.08136e-11 -2.81612e-11 12.0562

11.8549 -0.00996851 1.31049e-11
-0.00996851 11.6923 1.49839e-11
1.31049e-11 1.49839e-11 11.9048

12.604 0.0867138 -5.2034e-11
0.0867138 12.7134 -2.62095e-11
-5.2034e-11 -2.62095e-11 12.582

12.6057 -0.0863798 -4.31686e-11
-0.0863798 12.7138 -3.78692e-11
-4.31686e-11 -3.78692e-11 12.5824

12.5412 0.0936753 -8.47979e-12
0.0936753 12.5467 -2.59206e-11
-8.47979e-12 -2.59206e-11 12.4281

11.9776 0.0238912 -6.55247e-12
0.0238912 12.0395 -1.39481e-11
-6.55247e-12 -1.39481e-11 12.0993

12.1108 -0.00702645 -3.50748e-11
-0.00702645 12.1118 5.70926e-12
-3.50748e-11 5.70926e-12 12.1849

13.1913 -0.0545134 -1.27193e-11
-0.0545134 13.2909 2.36078e-11
-1.27193e-11 2.36078e-11 12.9589

13.1917 0.0549239 -1.73442e-11
0.0549239 13.2915 1.33553e-10
-1.73442e-11 1.33553e-10 12.9592

11.091 -0.0106606 -1.38758e-11
-0.0106606 11.3124 -1.85013e-11
-1.38758e-11 -1.85013e-11 11.4838

12.4191 0.0665386 3.08344e-12
0.0665386 12.4594 -1.65738e-11
3.08344e-12 -1.65738e-11 12.4145

12.6127 0.055296 -3.81581e-11
0.055296 12.6888 1.72484e-11
-3.81581e-11 1.72484e-11 12.5792

12.6127 -0.0548751 -1.69593e-11
-0.0548751 12.6893 1.5032e-11
-1.69593e-11 1.5032e-11 12.5793

12.4486 0.0398813 -2.62097e-11
0.0398813 12.5586 -1.45502e-11
-2.62097e-11 -1.45502e-11 12.4605

12.4184 -0.0632681 4.35542e-11
-0.0632681 12.4559 2.71734e-11
4.35542e-11 2.71734e-11 12.4134

11.9423 -0.00308799 -9.25034e-12
-0.00308799 12.0404 5.07816e-11
-9.25034e-12 5.07816e-11 12.0763

11.9504 -0.00520429 -1.5803e-11
-0.00520429 12.0604 1.56102e-11
-1.5803e-11 1.56102e-11 12.0856

12.1806 -0.0170325 3.77728e-11
-0.0170325 12.329 9.63354e-14
3.77728e-11 9.63354e-14 12.2911

12.4468 -0.0388978 1.0792e-11
-0.0388978 12.5589 2.32227e-11
1.0792e-11 2.32227e-11 12.4599

11.9212 -0.0437915 -4.16273e-11
-0.0437915 11.9201 -2.00429e-11
-4.16273e-11 -2.00429e-11 12.0325

11.705 0.0250808 -4.62593e-18
0.0250808 11.6377 4.27596e-12
-4.62593e-18 4.27596e-12 11.8434

12.7299 0.0769508 5.16483e-11
0.0769508 12.7521 -1.55139e-11
5.16483e-11 -1.55139e-11 12.6482

12.7301 -0.077498 1.31049e-11
-0.077498 12.752 -3.06421e-11
1.31049e-11 -3.06421e-11 12.6482

12.7297 0.0499161 3.16057e-11
0.0499161 12.8451 -1.15638e-12
3.16057e-11 -1.15638e-12 12.6859

12.7298 -0.0496573 2.00426e-11
-0.0496573 12.8453 8.19061e-12
2.00426e-11 8.19061e-12 12.6858

11.8283 -0.0430307 6.74516e-12
-0.0430307 11.9046 -9.53961e-12
6.74516e-12 -9.53961e-12 11.9937

11.7946 -0.0385302 4.2398e-12
-0.0385302 11.7948 2.83057e-11
4.2398e-12 2.83057e-11 11.9269

12.521 -0.0930058 -2.69821e-12
-0.0930058 12.63 2.91968e-11
-2.69821e-12 2.91968e-11 12.5253

12.5202 0.0939193 -2.50535e-11
0.0939193 12.6288 -3.39183e-11
-2.50535e-11 -3.39183e-11 12.5249

12.7771 -0.052523 1.96576e-11
-0.052523 11.8416 -2.89074e-11
1.96576e-11 -2.89074e-11 12.0608

12.8338 -0.0120353 4.47104e-11
-0.0120353 12.5214 -1.85014e-11
4.47104e-11 -1.85014e-11 12.3124

12.7625 0.0535706 1.42611e-11
0.0535706 12.8377 -1.10813e-11
1.42611e-11 -1.10813e-11 12.6844

12.7646 -0.0521223 1.27195e-11
-0.0521223 12.8372 -3.40146e-11
1.27195e-11 -3.40146e-11 12.6846

12.8714 0.0257216 2.08135e-11
0.0257216 12.9441 -3.98925e-11
2.08135e-11 -3.98925e-11 12.7828

12.8714 -0.0256129 3.66162e-11
-0.0256129 12.9436 3.84954e-11
3.66162e-11 3.84954e-11 12.7825

11.1586 -0.0749617 -2.60172e-11
-0.0749617 11.4071 9.34681e-12
-2.60172e-11 9.34681e-12 11.4511

11.1765 0.0753361 1.15633e-11
0.0753361 11.3998 -2.6016e-12
1.15633e-11 -2.6016e-12 11.4572

12.3466 -0.394841 -1.31057e-11
-0.394841 11.8218 3.81581e-11
-1.31057e-11 3.81581e-11 11.7944

11.296 0.0131683 -1.36829e-11
0.0131683 11.6459 -8.38302e-12
-1.36829e-11 -8.38302e-12 11.4593

13.001 0.0203968 -1.92713e-12
0.0203968 13.0698 -1.2623e-11
-1.92713e-12 -1.2623e-11 12.8574

13.1497 -0.0355627 -3.4689e-11
-0.0355627 13.1256 -3.36293e-11
-3.4689e-11 -3.36293e-11 12.91

13.0009 -0.0201607 -7.70865e-12
-0.0201607 13.0709 1.51282e-11
-7.70865e-12 1.51282e-11 12.8576

13.15 0.0357871 -9.52024e-11
0.0357871 13.1263 -3.53634e-11
-9.52024e-11 -3.53634e-11 12.9103

13.0028 0.237013 3.8519e-13
0.237013 12.8582 -1.96572e-11
3.8519e-13 -1.96572e-11 12.4539

11.2982 -0.0107763 -1.98497e-11
-0.0107763 11.6432 -1.95613e-11
-1.98497e-11 -1.95613e-11 11.4591

13.1015 0.0105985 -6.47526e-11
0.0105985 13.1106 -7.93032e-11
-6.47526e-11 -7.93032e-11 12.8781

13.3179 -0.0406433 -3.85821e-10
-0.0406433 13.2616 4.04993e-10
-3.85821e-10 4.04993e-10 12.977

13.318 0.0409234 9.06929e-10
0.0409234 13.2624 6.90501e-10
9.06929e-10 6.90501e-10 12.9773

13.1024 -0.0101207 -1.46468e-11
-0.0101207 13.1111 -2.96303e-10
-1.46468e-11 -2.96303e-10 12.8785

13.0721 -0.01562 -1.15633e-11
-0.01562 13.0049 5.6948e-11
-1.15633e-11 5.6948e-11 12.8425

12.8983 -0.0911612 -1.1563e-11
-0.0911612 12.8929 1.44547e-12
-1.1563e-11 1.44547e-12 12.7604

13.1307 -0.0235541 -6.55263e-12
-0.0235541 13.2408 8.15193e-11
-6.55263e-12 8.15193e-11 12.9273

13.0728 0.0162171 3.08337e-12
0.0162171 13.0054 -2.98702e-12
3.08337e-12 -2.98702e-12 12.8429

13.1312 0.023816 6.55261e-12
0.023816 13.2416 5.66589e-11
6.55261e-12 5.66589e-11 12.9276

12.8988 0.0917101 3.85422e-12
0.0917101 12.8935 -2.53423e-11
3.85422e-12 -2.53423e-11 12.7607

12.9386 0.0230273 -2.35116e-11
0.0230273 12.9856 -3.11237e-11
-2.35116e-11 -3.11237e-11 12.8027

13.0274 0.061321 3.12201e-11
0.061321 13.0352 -3.17983e-11
3.12201e-11 -3.17983e-11 12.8526

12.9381 -0.0228033 -5.70441e-11
-0.0228033 12.9852 -5.28046e-11
-5.70441e-11 -5.28046e-11 12.8024

13.0271 -0.0609031 -3.62307e-11
-0.0609031 13.0348 -2.1488e-11
-3.62307e-11 -2.1488e-11 12.8524

7.29541 0.440744 -2.01401e-11
0.440744 8.29188 5.39641e-12
-2.01401e-11 5.39641e-12 7.72471

9.706 0.0752582 2.33194e-11
0.0752582 10.053 -4.62554e-12
2.33194e-11 -4.62554e-12 9.77251

8.33527 0.124302 -1.83085e-11
0.124302 9.64175 4.24e-11
-1.83085e-11 4.24e-11 9.07029

8.85076 0.22648 -1.83095e-11
0.22648 7.47184 -5.01076e-12
-1.83095e-11 -5.01076e-12 8.16761

8.49584 0.0653341 -2.42838e-11
0.0653341 7.14981 9.25156e-12
-2.42838e-11 9.25156e-12 7.68314

9.90011 -0.043929 -1.81161e-11
-0.043929 10.4115 2.9874e-12
-1.81161e-11 2.9874e-12 10.27

8.54039 0.189639 -1.77303e-11
0.189639 10.2662 -1.11777e-11
-1.77303e-11 -1.11777e-11 9.55703

8.59436 -0.0609959 -3.00662e-11
-0.0609959 7.35404 7.32359e-12
-3.00662e-11 7.32359e-12 7.77637

9.94369 0.0532823 1.54183e-11
0.0532823 8.30835 3.66179e-12
1.54183e-11 3.66179e-12 9.19068

5.9708 0.395442 -1.35882e-11
0.395442 6.83356 -1.77319e-11
-1.35882e-11 -1.77319e-11 6.24342

6.25906 -0.639207 -5.20349e-12
-0.639207 6.94476 4.68342e-11
-5.20349e-12 4.68342e-11 6.29803

7.00267 0.398929 -4.87601e-11
0.398929 6.18147 2.27422e-11
-4.87601e-11 2.27422e-11 6.37833

10.0627 -0.734979 6.16709e-12
-0.734979 10.5036 3.08364e-12
6.16709e-12 3.08364e-12 10.2013

9.53066 -0.256682 -1.34906e-11
-0.256682 10.2547 -3.12217e-11
-1.34906e-11 -3.12217e-11 9.85529

7.45918 0.379197 -5.9744e-12
0.379197 8.65203 1.3491e-11
-5.9744e-12 1.3491e-11 8.18823

7.96675 0.440773 3.08369e-12
0.440773 9.33364 3.08363e-11
3.08369e-12 3.08363e-11 8.92405

8.51458 -0.210744 -3.21844e-11
-0.210744 10.277 -2.73664e-11
-3.21844e-11 -2.73664e-11 9.53371

9.50268 -0.548442 7.41948e-12
-0.548442 10.2408 -7.7092e-13
7.41948e-12 -7.7092e-13 9.95929

8.95535 -0.390469 4.14348e-12
-0.390469 7.70556 -1.48404e-11
4.14348e-12 -1.48404e-11 8.45271

6.41399 0.124641 -2.29345e-11
0.124641 7.6271 3.46895e-12
-2.29345e-11 3.46895e-12 6.78404

6.8953 -0.249 -2.62111e-11
-0.249 7.78406 -1.92707e-12
-2.62111e-11 -1.92707e-12 6.9819

7.65405 0.0938728 -1.67664e-11
0.0938728 6.69882 -1.04078e-11
-1.67664e-11 -1.04078e-11 6.88323

7.33383 0.51071 1.59969e-11
0.51071 7.94117 6.55293e-12
1.59969e-11 6.55293e-12 7.63423

7.99161 -0.349847 -1.12745e-11
-0.349847 6.9065 1.52259e-11
-1.12745e-11 1.52259e-11 7.26756

8.10104 0.56124 2.04289e-11
0.56124 8.20595 1.82129e-11
2.04289e-11 1.82129e-11 8.16783

8.43992 0.400524 -3.44985e-11
0.400524 8.72211 2.6982e-11
-3.44985e-11 2.6982e-11 8.32303

9.05335 -0.118454 -4.4812e-12
-0.118454 7.55092 3.85125e-13
-4.4812e-12 3.85125e-13 8.28063

5.69383 0.268138 1.56118e-11
0.268138 6.31171 2.23565e-11
1.56118e-11 2.23565e-11 5.68732

9.58997 0.134901 3.33659e-11
0.134901 8.08423 -8.47962e-12
3.33659e-11 -8.47962e-12 8.95589

6.33693 0.250683 2.0625e-11
0.250683 5.88747 3.10307e-11
2.0625e-11 3.10307e-11 5.79354

10.4624 -0.247384 1.23344e-11
-0.247384 10.6863 1.79229e-11
1.23344e-11 1.79229e-11 10.484

9.59237 0.0318865 1.02145e-11
0.0318865 10.5631 -7.70652e-13
1.02145e-11 -7.70652e-13 9.94505

11.1707 -0.268241 3.78215e-11
-0.268241 10.7178 -1.86943e-11
3.78215e-11 -1.86943e-11 10.6462

10.8745 0.650844 2.27648e-11
0.650844 10.9398 -2.50539e-11
2.27648e-11 -2.50539e-11 10.6392

7.4804 -0.169022 4.87615e-11
-0.169022 6.54043 -3.85556e-12
4.87615e-11 -3.85556e-12 6.65311

8.13612 0.595921 3.24744e-11
0.595921 8.52166 2.54404e-11
3.24744e-11 2.54404e-11 8.52416

9.79707 0.339409 -6.1164e-14
0.339409 9.69406 1.04074e-11
-6.1164e-14 1.04074e-11 9.81421

10.0852 -0.0924924 -1.79596e-11
-0.0924924 9.9521 -2.04289e-11
-1.79596e-11 -2.04289e-11 9.94666

9.95685 0.0508678 6.98351e-13
0.0508678 8.21327 -4.66392e-11
6.98351e-13 -4.66392e-11 9.19269

8.12365 0.563137 5.01001e-12
0.563137 8.55863 -2.17782e-11
5.01001e-12 -2.17782e-11 8.17184

8.13198 -0.442861 -2.02371e-11
-0.442861 7.55579 -3.27665e-12
-2.02371e-11 -3.27665e-12 7.55208

9.84532 -0.00454802 1.92247e-11
-0.00454802 7.96133 4.35556e-11
1.92247e-11 4.35556e-11 9.00038

7.65002 -0.764533 1.66712e-11
-0.764533 8.3747 2.83309e-11
1.66712e-11 2.83309e-11 7.77361

7.83224 -0.667317 -7.80538e-12
-0.667317 8.56463 -1.13713e-11
-7.80538e-12 -1.13713e-11 7.93455

9.75155 0.343759 -1.92731e-12
0.343759 10.0336 7.51638e-12
-1.92731e-12 7.51638e-12 9.8893

7.5189 -0.764348 2.49583e-11
-0.764348 7.28403 -1.46482e-11
2.49583e-11 -1.46482e-11 7.1212

4.59198 -0.762923 -3.18015e-11
-0.762923 4.53284 -1.92595e-12
-3.18015e-11 -1.92595e-12 4.533

4.54874 -0.808235 -1.94668e-11
-0.808235 4.75935 -4.99184e-11
-1.94668e-11 -4.99184e-11 4.60783

9.26058 -0.89306 -1.90797e-11
-0.89306 10.2114 1.02149e-11
-1.90797e-11 1.02149e-11 9.7866

4.60025 -0.301269 4.81811e-12
-0.301269 4.53712 -2.7369e-11
4.81811e-12 -2.7369e-11 4.72507

4.4149 -0.247414 2.69831e-11
-0.247414 4.58073 1.23356e-11
2.69831e-11 1.23356e-11 4.64863

11.1173 0.383542 3.58465e-11
0.383542 10.3484 1.23327e-11
3.58465e-11 1.23327e-11 10.7269

10.4102 -0.511448 -3.08424e-12
-0.511448 9.8669 -5.43473e-11
-3.08424e-12 -5.43473e-11 10.0398

9.23823 -0.267491 7.32352e-12
-0.267491 7.92334 -1.77306e-11
7.32352e-12 -1.77306e-11 8.83315

10.9557 0.518406 2.31266e-11
0.518406 9.91707 3.8533e-12
2.31266e-11 3.8533e-12 10.5432

10.3175 -0.719579 -7.70495e-13
-0.719579 9.78626 6.93804e-11
-7.70495e-13 6.93804e-11 10.0062

8.65301 0.396457 -2.64036e-11
0.396457 9.24899 -8.28744e-12
-2.64036e-11 -8.28744e-12 8.87764

10.9723 -0.249775 5.63476e-11
-0.249775 10.1985 1.21486e-11
5.63476e-11 1.21486e-11 10.4121

10.6065 0.336522 -4.89038e-12
0.336522 10.3916 2.38346e-12
-4.89038e-12 2.38346e-12 10.3841

10.1904 0.608201 -9.44427e-12
0.608201 9.37783 -1.61403e-11
-9.44427e-12 -1.61403e-11 9.89143

9.49035 -0.775848 -2.2356e-11
-0.775848 8.96176 1.57561e-11
-2.2356e-11 1.57561e-11 9.33953

6.71628 -0.527028 -2.69824e-11
-0.527028 5.99085 -3.52692e-11
-2.69824e-11 -3.52692e-11 6.09768

11.054 -0.147701 1.21413e-11
-0.147701 11.4869 1.9272e-11
1.21413e-11 1.9272e-11 11.2376

10.1723 -0.0264104 -3.35326e-11
-0.0264104 11.5232 7.32405e-12
-3.35326e-11 7.32405e-12 10.4862

7.33976 -0.646293 -2.69872e-12
-0.646293 7.98598 -1.92727e-11
-2.69872e-12 -1.92727e-11 7.67792

5.49555 -0.221727 9.25094e-12
-0.221727 6.14823 -6.16779e-12
9.25094e-12 -6.16779e-12 5.57649

6.03302 -0.207172 -6.47598e-11
-0.207172 5.41913 -2.54404e-11
-6.47598e-11 -2.54404e-11 5.48517

9.14615 0.255265 1.73451e-12
0.255265 9.81087 3.02581e-11
1.73451e-12 3.02581e-11 9.4977

7.79331 0.37807 3.6425e-11
0.37807 9.23319 8.09457e-12
3.6425e-11 8.09457e-12 8.73936

12.8375 0.485687 1.38374e-10
0.485687 11.3922 4.58648e-11
1.38374e-10 4.58648e-11 11.7153

12.7486 0.148784 8.47476e-12
0.148784 13.2615 -2.79829e-10
8.47476e-12 -2.79829e-10 11.5371

8.21562 0.569099 2.05249e-11
0.569099 9.06869 -2.69826e-12
2.05249e-11 -2.69826e-12 9.0931

9.64367 0.448635 4.18223e-11
0.448635 8.49093 1.19479e-11
4.18223e-11 1.19479e-11 9.21721

9.25234 -0.685223 -5.97444e-12
-0.685223 8.28522 -3.70017e-11
-5.97444e-12 -3.70017e-11 8.91332

8.35033 0.78107 -6.64962e-12
0.78107 8.99337 1.5418e-11
-6.64962e-12 1.5418e-11 9.04821

8.48774 -0.59546 5.45409e-11
-0.59546 9.77234 7.70731e-13
5.45409e-11 7.70731e-13 9.41851

7.34875 -0.0556623 3.54626e-11
-0.0556623 6.18827 2.58256e-11
3.54626e-11 2.58256e-11 6.5122

8.63349 -0.226918 7.70981e-12
-0.226918 7.37754 -2.1201e-12
7.70981e-12 -2.1201e-12 7.96

7.88508 0.278408 -2.361e-11
0.278408 6.81881 -3.85592e-13
-2.361e-11 -3.85592e-13 7.15186

9.66139 0.309101 -1.02622e-11
0.309101 9.06078 4.24027e-12
-1.02622e-11 4.24027e-12 9.5444

10.075 0.208439 2.95076e-12
0.208439 11.4653 -5.01083e-12
2.95076e-12 -5.01083e-12 10.6314

10.7948 -0.154668 -1.27676e-12
-0.154668 10.8825 -6.41772e-11
-1.27676e-12 -6.41772e-11 10.6528

6.81288 0.445977 2.76567e-11
0.445977 7.0705 -1.34909e-11
2.76567e-11 -1.34909e-11 6.64541

8.27848 -0.572596 1.54164e-12
-0.572596 8.05223 -7.51661e-12
1.54164e-12 -7.51661e-12 8.07685

9.22013 0.310286 -3.7775e-11
0.310286 8.2308 -2.27411e-11
-3.7775e-11 -2.27411e-11 8.7652

10.7415 0.350182 -6.55244e-11
0.350182 11.8821 -5.39496e-12
-6.55244e-11 -5.39496e-12 10.7444

10.9592 -0.227711 9.52041e-11
-0.227711 11.411 2.25479e-11
9.52041e-11 2.25479e-11 11.1671

9.90727 -0.0819053 -6.98596e-12
-0.0819053 9.15018 2.10069e-11
-6.98596e-12 2.10069e-11 9.65439

9.36641 -0.447375 -4.81787e-12
-0.447375 9.92461 8.48012e-12
-4.81787e-12 8.48012e-12 9.51949

8.31566 -0.144955 -2.14885e-11
-0.144955 9.68167 1.69606e-11
-2.14885e-11 1.69606e-11 9.06075

9.70201 0.0989161 5.01054e-12
0.0989161 8.0606 5.39648e-12
5.01054e-12 5.39648e-12 9.24856

9.5722 -0.312182 -4.08582e-11
-0.312182 8.01835 2.38985e-11
-4.08582e-11 2.38985e-11 9.13919

7.02636 -0.634203 -5.87798e-12
-0.634203 6.75564 2.04294e-11
-5.87798e-12 2.04294e-11 6.61852

10.2965 0.392104 -4.7893e-11
0.392104 8.74415 -2.06207e-11
-4.7893e-11 -2.06207e-11 9.82773

9.98276 -0.611544 -3.19447e-11
-0.611544 8.7545 1.88874e-11
-3.19447e-11 1.88874e-11 9.54808

8.98394 -0.54274 3.52688e-11
-0.54274 7.94108 -4.08585e-11
3.52688e-11 -4.08585e-11 8.51392

7.45726 -0.540521 1.31055e-11
-0.540521 8.33522 1.00212e-11
1.31055e-11 1.00212e-11 7.82456

9.77655 0.234803 -6.55229e-12
0.234803 8.63595 2.44763e-11
-6.55229e-12 2.44763e-11 9.45774

9.60909 -0.437186 -3.27637e-11
-0.437186 8.45344 -2.29339e-11
-3.27637e-11 -2.29339e-11 9.23015

9.14239 -0.140067 5.30022e-12
-0.140067 8.11754 -1.67667e-11
5.30022e-12 -1.67667e-11 8.5545

10.2761 0.685536 4.14346e-11
0.685536 9.94936 -2.10068e-11
4.14346e-11 -2.10068e-11 10.1413

7.82015 0.450911 -1.21424e-11
0.450911 7.51219 -1.34913e-11
-1.21424e-11 -1.34913e-11 7.48128

8.27589 0.678494 -2.07185e-11
0.678494 8.89243 -2.50547e-11
-2.07185e-11 -2.50547e-11 9.1115

10.069 0.509937 -7.32315e-12
0.509937 10.445 2.50543e-12
-7.32315e-12 2.50543e-12 10.3637

8.23797 0.251258 2.3899e-11
0.251258 7.03758 2.00439e-11
2.3899e-11 2.00439e-11 7.53294

9.00721 -0.334292 -1.21898e-11
-0.334292 8.59904 3.85506e-13
-1.21898e-11 3.85506e-13 8.89739

8.90881 0.209864 -2.69824e-11
0.209864 7.92642 -3.08286e-12
-2.69824e-11 -3.08286e-12 8.38229

7.11181 0.540213 -1.15553e-12
0.540213 7.30637 -5.78211e-12
-1.15553e-12 -5.78211e-12 7.13574

7.96682 0.510506 1.17558e-11
0.510506 7.73083 -2.5825e-11
1.17558e-11 -2.5825e-11 7.9149

7.66052 0.00581877 -3.97011e-11
0.00581877 9.43409 2.65969e-11
-3.97011e-11 2.65969e-11 8.69802

8.69851 -0.218304 1.5996e-11
-0.218304 9.57928 1.50322e-11
1.5996e-11 1.50322e-11 9.17363

6.84038 -0.636503 8.28743e-12
-0.636503 6.1213 -5.70482e-11
8.28743e-12 -5.70482e-11 6.31723

8.76725 -0.872157 4.81793e-12
-0.872157 9.6019 3.56543e-11
4.81793e-12 3.56543e-11 9.24065

7.23706 -0.766244 9.8293e-12
-0.766244 7.62909 1.65751e-11
9.8293e-12 1.65751e-11 7.26019

7.91537 0.622863 1.00227e-11
0.622863 7.93756 -1.90803e-11
1.00227e-11 -1.90803e-11 7.63131

8.97102 -0.281358 9.1065e-12
-0.281358 8.3161 -1.07922e-11
9.1065e-12 -1.07922e-11 8.52086

10.1672 -0.0212066 2.93908e-11
-0.0212066 8.46205 -2.27414e-11
2.93908e-11 -2.27414e-11 9.49475

9.98375 0.0917889 3.05471e-11
0.0917889 8.52755 -9.63629e-12
3.05471e-11 -9.63629e-12 9.45274

6.71928 0.284672 -1.14673e-11
0.284672 8.01523 -1.31052e-11
-1.14673e-11 -1.31052e-11 7.31667

8.34767 -0.684326 -1.06e-11
-0.684326 8.58077 2.46698e-11
-1.06e-11 2.46698e-11 8.28707

5.86171 -0.0941332 -9.63626e-12
-0.0941332 7.32445 -6.93865e-12
-9.63626e-12 -6.93865e-12 6.45071

6.38809 -0.117666 1.31058e-11
-0.117666 7.57007 -5.01121e-12
1.31058e-11 -5.01121e-12 6.70435

7.29769 -0.1571 -9.82979e-12
-0.1571 6.03516 2.89092e-11
-9.82979e-12 2.89092e-11 6.49989

7.27477 0.453075 -3.06462e-11
0.453075 7.08284 -5.33855e-11
-3.06462e-11 -5.33855e-11 6.82639

7.48459 -0.786202 -1.02155e-11
-0.786202 7.05412 3.46908e-12
-1.02155e-11 3.46908e-12 7.19248

12.5868 -0.188913 1.23339e-11
-0.188913 12.6217 -2.81373e-11
1.23339e-11 -2.81373e-11 11.3403

10.9382 -0.712599 1.34325e-10
-0.712599 11.8188 1.4836e-11
1.34325e-10 1.4836e-11 11.3156

8.08028 -0.465643 -3.52702e-11
-0.465643 6.95706 -1.8501e-11
-3.52702e-11 -1.8501e-11 7.44693

9.39402 0.633605 -1.32976e-11
0.633605 9.60724 2.52474e-11
-1.32976e-11 2.52474e-11 9.45409

9.302 0.0418279 5.01147e-12
0.0418279 7.97228 5.78181e-12
5.01147e-12 5.78181e-12 8.88205

7.4044 -0.569999 1.92975e-13
-0.569999 8.37803 -1.85023e-11
1.92975e-13 -1.85023e-11 7.62947

8.25307 0.5965 2.26446e-11
0.5965 9.77491 -9.63648e-12
2.26446e-11 -9.63648e-12 9.40315

10.4534 0.254766 -1.00211e-11
0.254766 10.8113 1.32977e-11
-1.00211e-11 1.32977e-11 10.7361

8.5918 -0.811608 -1.04074e-11
-0.811608 8.95946 -3.50756e-11
-1.04074e-11 -3.50756e-11 9.08234

10.365 0.610295 1.79229e-11
0.610295 10.4514 -2.17775e-11
1.79229e-11 -2.17775e-11 10.4955

7.79713 0.479935 -1.58997e-11
0.479935 8.80736 3.12224e-11
-1.58997e-11 3.12224e-11 8.56998

9.72303 -0.0573005 -5.39654e-12
-0.0573005 7.42081 1.54195e-12
-5.39654e-12 1.54195e-12 9.22582

7.94831 0.592181 3.3149e-11
0.592181 7.31714 -3.85434e-12
3.3149e-11 -3.85434e-12 7.45011

8.88331 -0.92307 6.26115e-13
-0.92307 9.98186 4.08581e-11
6.26115e-13 4.08581e-11 9.41636

8.1563 0.533526 4.95324e-11
0.533526 8.02251 -2.0815e-11
4.95324e-11 -2.0815e-11 7.85472

6.81779 -0.521734 -1.76348e-11
-0.521734 7.13231 5.10737e-11
-1.76348e-11 5.10737e-11 6.59479

8.46637 -0.753024 7.80559e-12
-0.753024 9.06615 -2.85239e-11
7.80559e-12 -2.85239e-11 8.70521

6.56301 -0.339585 -1.56107e-11
-0.339585 7.72244 -2.1586e-11
-1.56107e-11 -2.1586e-11 6.91869

7.26564 0.130899 -8.47911e-12
0.130899 7.97432 -1.54188e-11
-8.47911e-12 -1.54188e-11 7.24084

7.57388 -0.319793 4.04736e-11
-0.319793 6.66471 -4.04746e-11
4.04736e-11 -4.04746e-11 6.89081

7.61788 -0.685687 2.31259e-12
-0.685687 7.51626 8.86558e-12
2.31259e-12 8.86558e-12 7.45097

7.43119 -0.0327363 -2.69819e-11
-0.0327363 8.86257 1.58043e-11
-2.69819e-11 1.58043e-11 8.09457

8.4812 -0.121552 1.32979e-11
-0.121552 9.16487 -1.31056e-11
1.32979e-11 -1.31056e-11 8.55598

6.27846 -0.685733 -1.04074e-11
-0.685733 6.6983 7.32427e-12
-1.04074e-11 7.32427e-12 6.28118

6.80336 0.50922 -4.83757e-11
0.50922 6.97246 -5.08808e-11
-4.83757e-11 -5.08808e-11 6.57775

9.54651 0.00229452 -4.23975e-12
0.00229452 8.09666 1.1756e-11
-4.23975e-12 1.1756e-11 9.36324

9.47136 -0.121495 2.2742e-11
-0.121495 8.12235 3.08358e-11
2.2742e-11 3.08358e-11 9.27929

9.5887 0.553647 2.96799e-11
0.553647 9.73637 -5.78167e-13
2.96799e-11 -5.78167e-13 9.61604

9.17975 -0.913064 1.85015e-11
-0.913064 10.2114 -1.92756e-12
1.85015e-11 -1.92756e-12 9.73644

8.5735 0.624 1.97562e-12
0.624 8.67687 3.84156e-13
1.97562e-12 3.84156e-13 8.84736

6.44107 0.286092 2.2551e-11
0.286092 5.80067 1.81161e-11
2.2551e-11 1.81161e-11 5.88505

7.63532 0.34387 1.52255e-11
0.34387 8.45581 3.08348e-12
1.52255e-11 3.08348e-12 7.82056

10.5817 0.313774 -1.19504e-11
0.313774 9.53279 -4.49043e-11
-1.19504e-11 -4.49043e-11 10.171

10.0838 -0.551281 4.43273e-11
-0.551281 9.1586 3.23772e-11
4.43273e-11 3.23772e-11 9.67189

9.80834 0.449538 3.8161e-11
0.449538 9.07899 4.10503e-11
3.8161e-11 4.10503e-11 9.47288

9.33068 -0.651111 -1.17558e-11
-0.651111 8.56396 -1.65738e-11
-1.17558e-11 -1.65738e-11 9.00017

4.17905 -0.325217 -1.79251e-11
-0.325217 3.56916 -2.96809e-11
-1.79251e-11 -2.96809e-11 4.4059

3.55669 -0.380366 -1.21431e-11
-0.380366 4.3247 2.04311e-11
-1.21431e-11 2.04311e-11 4.47123

6.78342 -0.432499 3.08385e-12
-0.432499 8.09072 -1.38764e-11
3.08385e-12 -1.38764e-11 7.40546

11.7993 0.518439 -3.85454e-11
0.518439 10.4149 -2.96779e-11
-3.85454e-11 -2.96779e-11 11.0464

11.4209 -0.735743 5.04929e-11
-0.735743 10.747 -1.23346e-11
5.04929e-11 -1.23346e-11 10.6345

9.06343 0.523957 -4.20152e-11
0.523957 8.5559 -7.13116e-12
-4.20152e-11 -7.13116e-12 8.72201

6.49852 0.211759 -2.60183e-12
0.211759 5.73812 4.70254e-11
-2.60183e-12 4.70254e-11 5.87743

8.63743 -0.632407 -2.50544e-11
-0.632407 9.6231 2.50588e-12
-2.50544e-11 2.50588e-12 9.11443

7.86244 -0.303692 -1.71521e-11
-0.303692 9.43652 1.96588e-11
-1.71521e-11 1.96588e-11 8.79837

7.38584 -0.7503 2.22597e-11
-0.7503 7.58337 1.40687e-11
2.22597e-11 1.40687e-11 7.21792

8.43255 -0.610071 -9.2509e-12
-0.610071 8.92824 -1.54137e-12
-9.2509e-12 -1.54137e-12 9.13533

8.54029 -0.707221 3.0837e-11
-0.707221 8.03136 2.0813e-11
3.0837e-11 2.0813e-11 8.27002

7.78288 0.924889 -2.02358e-11
0.924889 9.07487 8.47998e-12
-2.02358e-11 8.47998e-12 9.03

10.5712 0.231426 1.50325e-11
0.231426 10.8427 1.60921e-11
1.50325e-11 1.60921e-11 10.7595

9.56404 0.388401 -2.04285e-11
0.388401 10.1559 -1.4069e-11
-2.04285e-11 -1.4069e-11 9.85893

8.34207 -0.678429 -2.54396e-11
-0.678429 8.69626 -6.16577e-12
-2.54396e-11 -6.16577e-12 8.73781

8.18723 0.661818 5.28073e-11
0.661818 8.72531 2.04298e-11
5.28073e-11 2.04298e-11 8.70541

7.6298 0.439602 -1.92743e-11
0.439602 6.83773 -2.12005e-11
-1.92743e-11 -2.12005e-11 7.06344

8.61526 -0.00142625 8.86607e-12
-0.00142625 7.48591 3.4112e-11
8.86607e-12 3.4112e-11 8.02229

10.612 0.463085 1.25268e-11
0.463085 10.596 -1.29125e-11
1.25268e-11 -1.29125e-11 10.6458

8.05901 -0.732863 -2.24526e-11
-0.732863 9.11045 -1.71524e-11
-2.24526e-11 -1.71524e-11 8.47616

7.03679 0.110625 -1.81166e-11
0.110625 8.63131 -9.63638e-12
-1.81166e-11 -9.63638e-12 7.83097

9.46904 0.684144 -7.51569e-12
0.684144 8.87831 4.33637e-11
-7.51569e-12 4.33637e-11 9.19086

8.10979 0.021527 -2.69817e-12
0.021527 8.9532 1.90806e-11
-2.69817e-12 1.90806e-11 8.35668

8.22785 -0.511476 -1.31055e-11
-0.511476 9.66502 -4.23952e-12
-1.31055e-11 -4.23952e-12 9.35614

5.23305 -0.429205 1.54191e-12
-0.429205 5.48077 -5.31952e-11
1.54191e-12 -5.31952e-11 5.1316

5.47596 -0.438703 3.86432e-11
-0.438703 5.1811 -2.50534e-12
3.86432e-11 -2.50534e-12 5.10482

9.1176 0.150444 -2.68857e-11
0.150444 7.797 -5.7807e-12
-2.68857e-11 -5.7807e-12 8.57405

8.69742 -0.806957 6.53346e-11
-0.806957 8.3205 1.46458e-11
6.53346e-11 1.46458e-11 8.63305

12.7671 0.458989 2.27393e-11
0.458989 11.1055 -2.5246e-11
2.27393e-11 -2.5246e-11 11.5724

12.9394 -0.128537 -6.6681e-11
-0.128537 11.9532 5.35761e-11
-6.6681e-11 5.35761e-11 11.2958

7.97058 -0.568412 4.87603e-11
-0.568412 8.81892 -1.54207e-12
4.87603e-11 -1.54207e-12 8.63115

10.1307 -0.170616 -5.56973e-11
-0.170616 10.4207 3.27621e-12
-5.56973e-11 3.27621e-12 10.2481

10.0486 0.597804 -1.83818e-11
0.597804 10.714 -1.04071e-11
-1.83818e-11 -1.04071e-11 10.2979

9.44816 0.0532656 2.08628e-11
0.0532656 7.76779 -4.97231e-11
2.08628e-11 -4.97231e-11 8.60423

8.76877 -0.990288 -2.04285e-11
-0.990288 9.90266 -4.06649e-11
-2.04285e-11 -4.06649e-11 9.36529

5.67578 0.33127 3.95122e-11
0.33127 5.70392 3.00658e-11
3.95122e-11 3.00658e-11 5.4751

5.50264 0.31897 3.27653e-11
0.31897 5.50966 5.87863e-12
3.27653e-11 5.87863e-12 5.34134

5.39332 -0.383169 1.32975e-11
-0.383169 6.28606 -4.62632e-12
1.32975e-11 -4.62632e-12 5.67755

5.91804 0.191534 6.20606e-11
0.191534 6.56929 3.97025e-11
6.20606e-11 3.97025e-11 5.95718

6.26734 -0.325201 -9.25227e-12
-0.325201 5.46546 -5.13632e-11
-9.25227e-12 -5.13632e-11 5.69481

7.91086 -0.908875 1.34907e-12
-0.908875 9.02265 2.65966e-11
1.34907e-12 2.65966e-11 9.03703

4.91236 0.0179991 -2.33206e-11
0.0179991 5.95823 2.15866e-11
-2.33206e-11 2.15866e-11 5.31911

6.00609 0.02729 -3.08442e-12
0.02729 5.11808 2.00433e-11
-3.08442e-12 2.00433e-11 5.4206

10.0041 0.0625902 -1.17558e-11
0.0625902 11.0284 -1.81161e-11
-1.17558e-11 -1.81161e-11 10.2853

10.4119 -0.520648 9.25059e-12
-0.520648 10.9763 6.26353e-12
9.25059e-12 6.26353e-12 10.6033

9.55251 0.206323 6.50469e-12
0.206323 8.67287 1.6188e-11
6.50469e-12 1.6188e-11 9.12573

9.94674 0.0352601 1.95618e-11
0.0352601 8.04908 6.16691e-12
1.95618e-11 6.16691e-12 9.15184

6.40144 -0.489434 1.29116e-11
-0.489434 7.2511 -1.11783e-11
1.29116e-11 -1.11783e-11 6.70177

6.95846 0.314515 -1.07913e-11
0.314515 7.61652 6.74536e-12
-1.07913e-11 6.74536e-12 7.02151

9.47199 0.0425332 6.07105e-12
0.0425332 7.83042 2.8138e-11
6.07105e-12 2.8138e-11 8.64553

7.61438 -0.498775 2.69792e-12
-0.498775 8.70721 1.38764e-11
2.69792e-12 1.38764e-11 8.27864

11.2664 0.287995 2.08154e-11
0.287995 10.2009 2.29338e-11
2.08154e-11 2.29338e-11 10.761

10.8411 -0.403351 -5.31916e-11
-0.403351 10.1799 7.82467e-11
-5.31916e-11 7.82467e-11 10.302

8.91723 0.473696 -1.09853e-11
0.473696 8.8831 -4.62655e-12
-1.09853e-11 -4.62655e-12 9.00543

8.5358 -0.834079 3.71961e-11
-0.834079 9.48888 4.43214e-12
3.71961e-11 4.43214e-12 8.92038

9.37764 0.214504 1.01664e-11
0.214504 8.04703 -1.1564e-11
1.01664e-11 -1.1564e-11 8.84189

6.70098 0.434696 7.70774e-12
0.434696 6.55784 1.04081e-11
7.70774e-12 1.04081e-11 6.422

8.50643 -0.900548 -1.34905e-11
-0.900548 9.39963 -3.27634e-11
-1.34905e-11 -3.27634e-11 8.8611

4.31875 0.797142 -4.74143e-11
0.797142 4.33242 -2.9489e-11
-4.74143e-11 -2.9489e-11 4.36662

7.78182 -0.327894 -1.8502e-11
-0.327894 8.83426 -8.09456e-12
-1.8502e-11 -8.09456e-12 8.15508

7.16891 -0.194151 4.62527e-12
-0.194151 8.65261 1.65753e-11
4.62527e-12 1.65753e-11 7.87921

9.88163 -0.0879588 -3.84906e-13
-0.0879588 11.4458 -2.77513e-11
-3.84906e-13 -2.77513e-11 10.3713

10.6467 -0.407314 3.48825e-11
-0.407314 10.9799 5.97386e-12
3.48825e-11 5.97386e-12 10.8123

10.2031 0.229214 7.71304e-13
0.229214 7.91573 2.15854e-11
7.71304e-13 2.15854e-11 9.66691

10.0286 -0.337952 3.31488e-11
-0.337952 8.08754 6.1669e-12
3.31488e-11 6.1669e-12 9.51303

9.19221 0.688735 5.16495e-11
0.688735 9.22478 -5.39529e-12
5.16495e-11 -5.39529e-12 9.42202

9.34297 -0.439295 -7.66071e-12
-0.439295 9.53117 -4.29778e-11
-7.66071e-12 -4.29778e-11 9.53655

9.97888 0.528963 -2.26208e-11
0.528963 10.2091 3.39192e-11
-2.26208e-11 3.39192e-11 10.1372

10.0365 -0.36776 -7.41745e-11
-0.36776 10.6009 4.43288e-12
-7.41745e-11 4.43288e-12 10.2106

12.4099 0.500673 -7.63174e-11
0.500673 11.0083 3.75826e-11
-7.63174e-11 3.75826e-11 11.4677

12.017 -0.707684 -8.90364e-11
-0.707684 11.6328 6.74536e-11
-8.90364e-11 6.74536e-11 11.0086

11.1952 0.523908 9.44323e-12
0.523908 10.6266 8.86523e-12
9.44323e-12 8.86523e-12 10.9356

8.79186 -0.984815 7.70814e-13
-0.984815 9.22887 -5.08797e-11
7.70814e-13 -5.08797e-11 9.42164

8.91933 0.541989 -4.6448e-11
0.541989 8.02968 -2.11993e-11
-4.6448e-11 -2.11993e-11 8.44671

8.49156 -0.614463 -4.16289e-11
-0.614463 9.27483 1.3106e-11
-4.16289e-11 1.3106e-11 8.67741

7.64992 -0.370968 -7.90191e-12
-0.370968 8.90539 1.38768e-11
-7.90191e-12 1.38768e-11 8.34652

6.96716 -0.543266 -2.85243e-11
-0.543266 6.84319 -7.70078e-13
-2.85243e-11 -7.70078e-13 6.50338

8.44432 -0.720269 2.60175e-11
-0.720269 7.69049 -3.8547e-11
2.60175e-11 -3.8547e-11 8.09757

7.6345 0.247522 4.23033e-11
0.247522 8.90081 2.69808e-12
4.23033e-11 2.69808e-12 8.30682

8.6949 0.721584 6.93826e-11
0.721584 8.36269 8.09575e-12
6.93826e-11 8.09575e-12 8.4235

8.49102 1.07513 1.56583e-11
1.07513 9.29033 -3.85451e-11
1.56583e-11 -3.85451e-11 9.40661

9.04744 -0.873494 -8.96174e-12
-0.873494 10.0028 1.11783e-11
-8.96174e-12 1.11783e-11 9.6139

7.96682 -0.820108 -4.24005e-11
-0.820108 7.81427 1.88891e-11
-4.24005e-11 1.88891e-11 7.92459

9.81259 -0.0547294 1.25285e-12
-0.0547294 9.00122 5.39632e-12
1.25285e-12 5.39632e-12 9.31893

11.2554 -0.265928 -9.05791e-11
-0.265928 11.7205 -7.35228e-11
-9.05791e-11 -7.35228e-11 11.2626

12.554 -0.318177 -5.78159e-12
-0.318177 12.3965 -1.00207e-11
-5.78159e-12 -1.00207e-11 11.278

8.33043 -0.319221 4.00866e-11
-0.319221 9.4152 -4.27858e-11
4.00866e-11 -4.27858e-11 9.07003

8.74148 0.442255 -7.51565e-12
0.442255 8.31046 2.58246e-11
-7.51565e-12 2.58246e-11 8.71387

10.2434 -0.0354197 1.36595e-11
-0.0354197 9.5017 8.47975e-12
1.36595e-11 8.47975e-12 9.8808

5.21655 -0.556813 1.02159e-11
-0.556813 5.60826 2.27418e-11
1.02159e-11 2.27418e-11 5.2214

5.54953 -0.50011 -4.33658e-11
-0.50011 5.21073 -2.49582e-11
-4.33658e-11 -2.49582e-11 5.22399

10.4343 -0.0223287 -1.9279e-12
-0.0223287 8.79137 -2.77523e-11
-1.9279e-12 -2.77523e-11 9.99405

10.25 -0.10247 3.8544e-12
-0.10247 8.77228 -3.85779e-13
3.8544e-12 -3.85779e-13 9.73777

10.4721 0.115088 5.51691e-12
0.115088 9.42888 3.08356e-11
5.51691e-12 3.08356e-11 9.92452

8.95997 0.294176 -1.53695e-11
0.294176 9.38319 1.34912e-11
-1.53695e-11 1.34912e-11 8.98953

8.44199 0.376841 1.88874e-11
0.376841 7.69058 3.37272e-11
1.88874e-11 3.37272e-11 7.87531

10.3463 0.515303 -3.02561e-11
0.515303 9.83549 7.09227e-11
-3.02561e-11 7.09227e-11 10.1036

9.54792 -0.675667 -3.77743e-11
-0.675667 9.05639 -4.20133e-11
-3.77743e-11 -4.20133e-11 9.38872

11.0938 -0.084451 3.81827e-11
-0.084451 10.6565 -6.09399e-11
3.81827e-11 -6.09399e-11 10.6954

11.2196 0.742495 4.2326e-11
0.742495 12.229 4.15024e-11
4.2326e-11 4.15024e-11 11.0448

8.07395 -0.579172 9.25067e-12
-0.579172 9.1076 -3.89307e-11
9.25067e-12 -3.89307e-11 8.91304

8.76237 0.377944 -1.57079e-11
0.377944 8.00686 3.35345e-11
-1.57079e-11 3.35345e-11 8.33939

10.5114 0.347778 -4.9819e-11
0.347778 9.49148 -3.85345e-12
-4.9819e-11 -3.85345e-12 10.145

10.1599 -0.472433 -5.0976e-11
-0.472433 9.38137 -5.01077e-11
-5.0976e-11 -5.01077e-11 9.77021

9.13891 -0.808059 6.64918e-12
-0.808059 9.89107 -2.83307e-11
6.64918e-12 -2.83307e-11 9.42168

8.92439 -1.03437 -7.99794e-12
-1.03437 9.95889 -1.44543e-11
-7.99794e-12 -1.44543e-11 9.42073

4.50555 0.952041 1.90813e-11
0.952041 4.60812 5.78215e-12
1.90813e-11 5.78215e-12 4.50919

8.97508 0.729499 1.14189e-11
0.729499 9.88671 2.79455e-11
1.14189e-11 2.79455e-11 9.71223

9.38106 -0.644205 -5.30205e-13
-0.644205 10.359 1.46472e-11
-5.30205e-13 1.46472e-11 9.86183

8.63494 -0.889231 -1.45508e-11
-0.889231 9.72441 9.05837e-12
-1.45508e-11 9.05837e-12 9.18704

8.24349 -0.602077 -2.71761e-11
-0.602077 7.38198 1.81174e-11
-2.71761e-11 1.81174e-11 7.66895

9.23164 -0.395669 -1.92719e-11
-0.395669 9.38049 -3.81594e-11
-1.92719e-11 -3.81594e-11 9.20772

9.21926 0.689003 1.09371e-11
0.689003 9.29169 6.93912e-12
1.09371e-11 6.93912e-12 9.51054

9.34589 -0.55143 1.5032e-11
-0.55143 9.92484 3.48835e-11
1.5032e-11 3.48835e-11 9.64523

9.57536 -0.0526217 -5.54054e-12
-0.0526217 8.15802 -1.92727e-11
-5.54054e-12 -1.92727e-11 8.97572

10.7921 0.200765 -8.09477e-12
0.200765 9.74369 -3.66126e-12
-8.09477e-12 -3.66126e-12 10.4523

10.5982 -0.194594 3.66181e-11
-0.194594 10.0639 -1.58032e-11
3.66181e-11 -1.58032e-11 10.194

11.0586 -0.281914 -4.04717e-11
-0.281914 11.9654 -5.78133e-12
-4.04717e-11 -5.78133e-12 11.2422

10.8402 0.218782 2.4283e-11
0.218782 12.3421 8.09465e-12
2.4283e-11 8.09465e-12 10.8847

4.58701 0.073588 -1.09871e-11
0.073588 3.83751 -3.83544e-11
-1.09871e-11 -3.83544e-11 4.56685

3.82883 0.0661326 1.46474e-11
0.0661326 4.49275 -1.85022e-11
1.46474e-11 -1.85022e-11 4.4943

10.2651 0.657294 4.31713e-11
0.657294 10.1019 2.11994e-11
4.31713e-11 2.11994e-11 10.2018

8.98632 -0.655985 4.97233e-11
-0.655985 9.00389 2.31262e-11
4.97233e-11 2.31262e-11 9.22524

8.26838 -0.629453 -3.08361e-12
-0.629453 9.00049 1.73454e-11
-3.08361e-12 1.73454e-11 9.0745

4.28712 0.233576 2.31265e-12
0.233576 4.29692 4.16311e-11
2.31265e-12 4.16311e-11 4.52179

4.31193 0.254794 -7.51679e-11
0.254794 4.32279 -2.38983e-11
-7.51679e-11 -2.38983e-11 4.55905

12.6287 0.11259 4.77951e-11
0.11259 12.8767 1.81156e-10
4.77951e-11 1.81156e-10 11.4359

12.5379 0.175364 -6.92839e-12
0.175364 12.0765 2.54196e-10
-6.92839e-12 2.54196e-10 11.7066

8.75969 -0.588974 1.007e-11
-0.588974 9.11866 -1.98511e-11
1.007e-11 -1.98511e-11 8.98466

8.10458 -0.730393 -3.50771e-11
-0.730393 8.2529 -3.43039e-11
-3.50771e-11 -3.43039e-11 8.16582

10.1165 0.687455 -1.3489e-11
0.687455 9.56622 3.66174e-11
-1.3489e-11 3.66174e-11 9.88321

9.0016 -0.827802 8.0949e-12
-0.827802 8.81804 2.31265e-12
8.0949e-12 2.31265e-12 9.09699

8.22357 -0.77569 -3.44985e-11
-0.77569 8.48821 -2.27407e-11
-3.44985e-11 -2.27407e-11 8.51708

8.95009 0.564122 2.79441e-11
0.564122 8.81429 -3.16076e-11
2.79441e-11 -3.16076e-11 8.72469

5.49196 -0.25345 -5.39681e-12
-0.25345 6.40177 -3.0835e-12
-5.39681e-12 -3.0835e-12 5.75771

5.9345 0.151318 -7.70814e-12
0.151318 6.58697 4.06667e-11
-7.70814e-12 4.06667e-11 5.96779

6.38018 -0.234111 1.58042e-11
-0.234111 5.70516 3.816e-11
1.58042e-11 3.816e-11 5.82631

9.33268 0.749048 1.88875e-11
0.749048 9.20731 -1.09849e-11
1.88875e-11 -1.09849e-11 9.22772

5.2558 -0.181028 -2.50554e-11
-0.181028 6.06783 2.02374e-11
-2.50554e-11 2.02374e-11 5.452

5.91125 -0.124197 -3.99945e-11
-0.124197 5.08625 -1.27199e-11
-3.99945e-11 -1.27199e-11 5.31224

10.8344 0.549947 -4.62537e-11
0.549947 10.2182 -3.2755e-12
-4.62537e-11 -3.2755e-12 10.5521

9.56287 -0.79976 -2.11925e-12
-0.79976 9.23991 1.31044e-11
-2.11925e-12 1.31044e-11 9.56678

10.7125 0.673009 -3.21842e-11
0.673009 10.0868 1.07926e-11
-3.21842e-11 1.07926e-11 10.4626

9.63311 -0.782421 4.81848e-12
-0.782421 9.53335 1.73445e-11
4.81848e-12 1.73445e-11 9.67437

4.23124 0.287295 9.63285e-13
0.287295 4.26121 -6.41815e-11
9.63285e-13 -6.41815e-11 4.46084

4.20748 0.280704 5.00153e-11
0.280704 4.22224 -3.29583e-11
5.00153e-11 -3.29583e-11 4.41787

9.6585 0.600528 -2.42827e-11
0.600528 9.43105 2.00432e-11
-2.42827e-11 2.00432e-11 9.50103

8.8069 -0.740757 4.74113e-11
-0.740757 8.62248 2.31257e-11
4.74113e-11 2.31257e-11 8.80839

10.7499 -0.470794 -3.8159e-11
-0.470794 11.0849 2.3705e-11
-3.8159e-11 2.3705e-11 10.8478

10.4006 -0.162875 -3.2767e-12
-0.162875 11.1735 -3.73878e-11
-3.2767e-12 -3.73878e-11 10.4626

11.0635 0.684265 3.46986e-12
0.684265 10.6625 1.07925e-11
3.46986e-12 1.07925e-11 10.8935

9.23154 -0.612042 -3.27539e-12
-0.612042 9.85501 2.6211e-11
-3.27539e-12 2.6211e-11 9.72274

11.0551 0.359154 -4.47121e-11
0.359154 9.4951 3.43061e-11
-4.47121e-11 3.43061e-11 10.4672

10.6277 -0.557574 -7.40066e-11
-0.557574 9.51403 -6.39816e-11
-7.40066e-11 -6.39816e-11 10.0692

8.6512 0.62743 -2.36094e-11
0.62743 9.11573 -1.04077e-11
-2.36094e-11 -1.04077e-11 9.17383

9.00132 -0.729542 -9.20288e-12
-0.729542 9.79336 3.44982e-11
-9.20288e-12 3.44982e-11 9.36352

10.6418 -0.509884 7.05612e-11
-0.509884 10.7717 -1.05227e-10
7.05612e-11 -1.05227e-10 10.4982

10.5915 -0.452534 -1.25271e-11
-0.452534 11.6749 -1.95611e-11
-1.25271e-11 -1.95611e-11 10.9195

11.6935 0.512358 -2.89083e-11
0.512358 10.1719 8.28683e-12
-2.89083e-11 8.28683e-12 10.914

12.3374 0.165762 7.97854e-11
0.165762 10.768 -6.64913e-11
7.97854e-11 -6.64913e-11 11.3101

11.3995 -0.553894 5.39602e-12
-0.553894 10.6089 -1.77304e-11
5.39602e-12 -1.77304e-11 10.6011

12.1975 -0.116876 5.00968e-12
-0.116876 11.32 -6.93747e-12
5.00968e-12 -6.93747e-12 10.9854

10.2653 -0.12674 9.82931e-12
-0.12674 11.8215 1.31054e-11
9.82931e-12 1.31054e-11 10.6003

10.8546 0.938876 2.95584e-11
0.938876 10.8326 3.66181e-11
2.95584e-11 3.66181e-11 10.5713

12.7232 0.557221 6.82221e-11
0.557221 11.29 2.31012e-12
6.82221e-11 2.31012e-12 11.7389

13.1094 0.461108 1.10197e-09
0.461108 11.3664 -5.65451e-10
1.10197e-09 -5.65451e-10 11.8245

13.3531 0.130208 8.31005e-10
0.130208 12.993 -5.89845e-11
8.31005e-10 -5.89845e-11 11.6094

11.2923 -0.653776 -2.77546e-11
-0.653776 11.8521 -8.63383e-11
-2.77546e-11 -8.63383e-11 10.8649

12.5062 0.424563 -7.67061e-11
0.424563 11.0145 -8.40228e-11
-7.67061e-11 -8.40228e-11 11.5546

11.6388 0.337561 7.78604e-11
0.337561 10.9822 1.8114e-11
7.78604e-11 1.8114e-11 11.2135

12.5015 0.536299 -1.12165e-10
0.536299 11.2627 4.62949e-12
-1.12165e-10 4.62949e-12 11.6271

11.4394 -0.628357 2.69806e-11
-0.628357 10.849 -3.73888e-11
2.69806e-11 -3.73888e-11 10.6507

11.9523 -0.314546 1.5416e-11
-0.314546 12.3941 -1.30279e-10
1.5416e-11 -1.30279e-10 11.1698

10.5765 -0.278737 1.92781e-12
-0.278737 10.3394 1.15649e-11
1.92781e-12 1.15649e-11 10.2501

11.5577 0.549525 8.86527e-11
0.549525 10.5366 2.79425e-11
8.86527e-11 2.79425e-11 11.0325

11.9656 0.320013 -9.21194e-11
0.320013 10.8002 2.38996e-11
-9.21194e-11 2.38996e-11 11.2377

10.6917 -0.727473 2.00428e-11
-0.727473 10.3979 -6.59106e-11
2.00428e-11 -6.59106e-11 10.329

11.5624 -0.35159 2.27406e-11
-0.35159 10.8587 -1.42612e-11
2.27406e-11 -1.42612e-11 10.6995

TENSORS Lagrange_strain float
4.36708e-05 7.61934e-06 -6.00936e-08
7.61934e-06 5.40901e-05 4.4251e-08
-6.00936e-08 4.4251e-08 4.39473e-05

5.2176e-05 5.18613e-06 -5.83603e-08
5.18613e-06 6.08373e-05 -6.48061e-08
-5.83603e-08 -6.48061e-08 5.41146e-05

5.18735e-05 4.20988e-06 -6.5029e-08
4.20988e-06 6.02096e-05 -5.89216e-08
-6.5029e-08 -5.89216e-08 5.39246e-05

5.87706e-05 2.22475e-06 6.29299e-09
2.22475e-06 4.02428e-05 5.82473e-08
6.29299e-09 5.82473e-08 4.76995e-05

5.67568e-05 8.46035e-07 -1.81243e-07
8.46035e-07 3.93352e-05 -4.49673e-08
-1.81243e-07 -4.49673e-08 4.35362e-05

5.22191e-05 4.93495e-06 -7.21705e-08
4.93495e-06 6.08434e-05 9.58215e-08
-7.21705e-08 9.58215e-08 5.76781e-05

5.18039e-05 4.60284e-06 -7.45304e-08
4.60284e-06 6.04822e-05 5.15902e-08
-7.45304e-08 5.15902e-08 5.74948e-05

5.72872e-05 -1.10906e-06 -1.92659e-07
-1.10906e-06 4.00922e-05 3.69233e-08
-1.92659e-07 3.69233e-08 4.39213e-05

6.58773e-05 1.3441e-07 -8.71319e-08
1.3441e-07 4.34513e-05 5.38763e-08
-8.71319e-08 5.38763e-08 5.48702e-05

3.46413e-05 7.47423e-06 5.63925e-08
7.47423e-06 4.62012e-05 5.23124e-08
5.63925e-08 5.23124e-08 3.18828e-05

3.40683e-05 -7.983e-06 -2.43235e-08
-7.983e-06 4.53611e-05 -6.51994e-08
-2.43235e-08 -6.51994e-08 3.06282e-05

4.51803e-05 7.73273e-06 -5.33671e-08
7.73273e-06 3.70341e-05 -1.77831e-07
-5.33671e-08 -1.77831e-07 3.20647e-05

5.66524e-05 -6.35372e-06 -2.13225e-08
-6.35372e-06 6.19869e-05 -1.32874e-09
-2.13225e-08 -1.32874e-09 5.85184e-05

5.69966e-05 -7.11162e-06 -1.17428e-09
-7.11162e-06 6.2992e-05 -3.89003e-08
-1.17428e-09 -3.89003e-08 5.88717e-05

4.36659e-05 7.23245e-06 -6.00191e-08
7.23245e-06 5.58574e-05 5.61599e-08
-6.00191e-08 5.61599e-08 4.80736e-05

4.73395e-05 8.83407e-06 -7.63245e-08
8.83407e-06 5.98052e-05 -1.90734e-07
-7.63245e-08 -1.90734e-07 5.34634e-05

5.15665e-05 -3.46631e-06 -2.15192e-08
-3.46631e-06 6.03559e-05 -1.20915e-09
-2.15192e-08 -1.20915e-09 5.72822e-05

5.1904e-05 -3.69891e-06 2.58333e-08
-3.69891e-06 6.07227e-05 -5.54058e-08
2.58333e-08 -5.54058e-08 5.74892e-05

6.00317e-05 3.2824e-06 -1.14659e-07
3.2824e-06 4.88308e-05 -7.53803e-08
-1.14659e-07 -7.53803e-08 5.22838e-05

3.75764e-05 2.93178e-06 5.83924e-08
2.93178e-06 5.27764e-05 4.84308e-08
5.83924e-08 4.84308e-08 3.60749e-05

3.74219e-05 -2.81379e-06 1.17756e-08
-2.81379e-06 5.2848e-05 4.10968e-09
1.17756e-08 4.10968e-09 3.57616e-05

5.18911e-05 2.36989e-06 -1.93284e-07
2.36989e-06 4.11611e-05 -8.75344e-08
-1.93284e-07 -8.75344e-08 3.6493e-05

4.37388e-05 8.52775e-06 -9.09683e-08
8.52775e-06 5.1999e-05 7.83761e-08
-9.09683e-08 7.83761e-08 4.36066e-05

5.21366e-05 -4.38028e-06 -1.03659e-07
-4.38028e-06 3.82111e-05 7.60641e-08
-1.03659e-07 7.60641e-08 4.01513e-05

4.93704e-05 7.83172e-06 1.19019e-07
7.83172e-06 5.19108e-05 8.9354e-08
1.19019e-07 8.9354e-08 4.74144e-05

4.47376e-05 8.55528e-06 1.80486e-08
8.55528e-06 5.5626e-05 1.23363e-08
1.80486e-08 1.23363e-08 4.49211e-05

5.96732e-05 -1.80171e-06 1.46843e-07
-1.80171e-06 4.02651e-05 -9.85319e-08
1.46843e-07 -9.85319e-08 4.83407e-05

3.36486e-05 6.59229e-06 -3.21824e-08
6.59229e-06 4.63409e-05 -1.11798e-07
-3.21824e-08 -1.11798e-07 2.52066e-05

6.36497e-05 8.80657e-07 1.67044e-07
8.80657e-07 4.22159e-05 6.16911e-09
1.67044e-07 6.16911e-09 5.34942e-05

4.40967e-05 6.62974e-06 -5.04402e-08
6.62974e-06 3.61354e-05 -1.76182e-07
-5.04402e-08 -1.76182e-07 2.52832e-05

5.9033e-05 9.31195e-07 5.36651e-08
9.31195e-07 6.29264e-05 4.69086e-08
5.36651e-08 4.69086e-08 5.89811e-05

5.90687e-05 2.13937e-07 9.19207e-08
2.13937e-07 6.27965e-05 -1.31101e-08
9.19207e-08 -1.31101e-08 5.89739e-05

6.96873e-05 3.62431e-06 -2.76754e-08
3.62431e-06 6.21366e-05 -1.5056e-07
-2.76754e-08 -1.5056e-07 6.24839e-05

6.92899e-05 -3.67419e-06 3.30422e-07
-3.67419e-06 6.20987e-05 1.15886e-07
3.30422e-07 1.15886e-07 6.24137e-05

5.14857e-05 -2.83064e-06 2.06343e-08
-2.83064e-06 3.67631e-05 1.07942e-08
2.06343e-08 1.07942e-08 3.41207e-05

4.84943e-05 8.51592e-06 3.79265e-08
8.51592e-06 5.47558e-05 -6.58147e-09
3.79265e-08 -6.58147e-09 5.05402e-05

6.13399e-05 1.57436e-06 7.69149e-08
1.57436e-06 5.77249e-05 -7.07147e-08
7.69149e-08 -7.07147e-08 5.85353e-05

6.15164e-05 -1.53204e-06 4.53738e-09
-1.53204e-06 5.79161e-05 3.55102e-09
4.53738e-09 3.55102e-09 5.88633e-05

6.67206e-05 1.09461e-07 -4.11056e-08
1.09461e-07 4.2278e-05 1.53606e-08
-4.11056e-08 1.53606e-08 5.50602e-05

4.38624e-05 9.27829e-06 -4.81511e-08
9.27829e-06 5.52535e-05 1.0058e-07
-4.81511e-08 1.0058e-07 4.45483e-05

5.16327e-05 -5.64275e-06 -1.06715e-07
-5.64275e-06 4.36998e-05 5.57443e-08
-1.06715e-07 5.57443e-08 4.16079e-05

6.59656e-05 -5.46812e-07 -8.59191e-08
-5.46812e-07 4.07967e-05 3.30577e-08
-8.59191e-08 3.30577e-08 5.38012e-05

4.33546e-05 -8.5083e-06 2.49382e-08
-8.5083e-06 5.20279e-05 -2.69103e-10
2.49382e-08 -2.69103e-10 4.31496e-05

4.36726e-05 -7.31504e-06 3.96473e-08
-7.31504e-06 5.42238e-05 1.5525e-08
3.96473e-08 1.5525e-08 4.39158e-05

4.86097e-05 9.77579e-06 -5.01625e-08
9.77579e-06 6.11081e-05 -1.42019e-07
-5.01625e-08 -1.42019e-07 5.41178e-05

4.66101e-05 -9.13986e-06 1.4624e-07
-9.13986e-06 4.3134e-05 7.75598e-08
1.4624e-07 7.75598e-08 3.82711e-05

1.22568e-05 1.86679e-05 1.04357e-08
1.86679e-05 2.5079e-05 1.04357e-08
1.04357e-08 1.04357e-08 6.13337e-06

2.35161e-05 1.84663e-05 7.31511e-08
1.84663e-05 1.34164e-05 7.31511e-08
7.31511e-08 7.31511e-08 5.96188e-06

5.04523e-05 -8.62352e-06 -4.59817e-08
-8.62352e-06 6.11569e-05 -1.06642e-08
-4.59817e-08 -1.06642e-08 5.69564e-05

2.21692e-05 7.8161e-06 7.44418e-08
7.8161e-06 3.78935e-05 9.49428e-08
7.44418e-08 9.49428e-08 1.26959e-05

3.54303e-05 7.02408e-06 -1.41298e-07
7.02408e-06 2.39011e-05 3.11325e-09
-1.41298e-07 3.11325e-09 1.29451e-05

6.0058e-05 -6.03509e-06 -1.7656e-08
-6.03509e-06 6.56771e-05 -3.34697e-08
-1.7656e-08 -3.34697e-08 6.22292e-05

6.0058e-05 6.05936e-06 -8.38771e-09
6.05936e-06 6.53356e-05 3.95703e-08
-8.38771e-09 3.95703e-08 6.22378e-05

6.4042e-05 2.38706e-07 -9.62119e-08
2.38706e-07 5.05349e-05 -8.22111e-08
-9.62119e-08 -8.22111e-08 5.61049e-05

6.02197e-05 -5.55835e-06 -5.11997e-08
-5.55835e-06 6.43809e-05 -2.69535e-07
-5.11997e-08 -2.69535e-07 6.26431e-05

6.02085e-05 5.63486e-06 2.78547e-08
5.63486e-06 6.38573e-05 -2.15487e-07
2.78547e-08 -2.15487e-07 6.26913e-05

4.47261e-05 8.55595e-06 1.78043e-08
8.55595e-06 5.74464e-05 9.2716e-09
1.78043e-08 9.2716e-09 4.89526e-05

6.88803e-05 3.55958e-06 -2.814e-07
3.55958e-06 5.82094e-05 2.1286e-08
-2.814e-07 2.1286e-08 6.1611e-05

6.89487e-05 -3.46638e-06 -1.36951e-07
-3.46638e-06 5.82094e-05 1.20889e-07
-1.36951e-07 1.20889e-07 6.15528e-05

5.66469e-05 -7.04809e-06 1.06697e-07
-7.04809e-06 6.04381e-05 -8.65117e-08
1.06697e-07 -8.65117e-08 5.82269e-05

5.6637e-05 7.15142e-06 1.46126e-07
7.15142e-06 6.03609e-05 -1.18147e-07
1.46126e-07 -1.18147e-07 5.82849e-05

4.38691e-05 -7.67425e-06 1.61922e-07
-7.67425e-06 3.3879e-05 7.79745e-08
1.61922e-07 7.79745e-08 2.96592e-05

5.9358e-05 3.52432e-06 9.70327e-08
3.52432e-06 6.80988e-05 -1.09496e-07
9.70327e-08 -1.09496e-07 6.16879e-05

5.90257e-05 2.81011e-06 -5.69749e-08
2.81011e-06 6.79295e-05 -6.90387e-08
-5.69749e-08 -6.90387e-08 6.14541e-05

4.39008e-05 -9.46063e-06 6.01223e-08
-9.46063e-06 5.53504e-05 -4.58214e-08
6.01223e-08 -4.58214e-08 4.47731e-05

3.11743e-05 -6.27366e-06 -2.00619e-07
-6.27366e-06 4.62738e-05 1.8261e-07
-2.00619e-07 1.8261e-07 2.33537e-05

4.46186e-05 -6.23719e-06 -2.51493e-08
-6.23719e-06 3.1646e-05 2.01906e-07
-2.51493e-08 2.01906e-07 2.29847e-05

4.69535e-05 7.4926e-06 2.6651e-08
7.4926e-06 6.02124e-05 -1.25692e-07
2.6651e-08 -1.25692e-07 5.26289e-05

4.65022e-05 6.98721e-06 7.08998e-08
6.98721e-06 5.89865e-05 -1.56274e-07
7.08998e-08 -1.56274e-07 5.2235e-05

7.13398e-05 -9.79287e-06 1.94176e-07
-9.79287e-06 6.53798e-05 8.5687e-07
1.94176e-07 8.5687e-07 6.73687e-05

7.13398e-05 1.00359e-05 6.84973e-07
1.00359e-05 6.65496e-05 3.04888e-07
6.84973e-07 3.04888e-07 6.74125e-05

4.90592e-05 1.05704e-05 2.06472e-08
1.05704e-05 6.03399e-05 -1.12074e-08
2.06472e-08 -1.12074e-08 5.52183e-05

5.84407e-05 5.07284e-06 1.71122e-07
5.07284e-06 5.41792e-05 1.20189e-07
1.71122e-07 1.20189e-07 5.58016e-05

5.86536e-05 -5.2633e-06 -2.99831e-08
-5.2633e-06 5.3904e-05 1.45713e-07
-2.99831e-08 1.45713e-07 5.56411e-05

4.91363e-05 1.01351e-05 1.79574e-08
1.01351e-05 5.85411e-05 -8.62322e-08
1.79574e-08 -8.62322e-08 5.45579e-05

5.09984e-05 -9.16317e-06 4.52535e-08
-9.16317e-06 6.23044e-05 -2.07726e-08
4.52535e-08 -2.07726e-08 5.7395e-05

5.07564e-05 -7.43212e-08 3.72488e-08
-7.43212e-08 3.35964e-05 -1.04371e-07
3.72488e-08 -1.04371e-07 3.35601e-05

5.32404e-05 4.09687e-06 4.07415e-08
4.09687e-06 3.78936e-05 -1.02153e-07
4.07415e-08 -1.02153e-07 3.92056e-05

6.17212e-05 1.55741e-06 6.49665e-08
1.55741e-06 5.04579e-05 -1.80219e-08
6.49665e-08 -1.80219e-08 5.73911e-05

6.51525e-05 -2.87919e-06 -5.46277e-07
-2.87919e-06 6.39253e-05 -3.22045e-07
-5.46277e-07 -3.22045e-07 6.29563e-05

6.51495e-05 2.5378e-06 -1.83057e-07
2.5378e-06 6.41214e-05 -7.84741e-08
-1.83057e-07 -7.84741e-08 6.302e-05

4.2198e-05 7.64015e-06 6.85507e-08
7.64015e-06 4.6142e-05 5.14705e-08
6.85507e-08 5.14705e-08 3.4539e-05

5.03113e-05 -6.68755e-06 6.36474e-08
-6.68755e-06 4.70351e-05 -1.11878e-07
6.36474e-08 -1.11878e-07 4.63453e-05

5.9947e-05 3.93304e-06 -1.12025e-07
3.93304e-06 5.11597e-05 -1.20103e-07
-1.12025e-07 -1.20103e-07 5.23911e-05

6.13692e-05 1.81488e-06 4.63205e-08
1.81488e-06 6.71481e-05 -1.21832e-07
4.63205e-08 -1.21832e-07 6.24854e-05

6.13688e-05 1.72772e-06 2.93515e-08
1.72772e-06 6.72643e-05 -4.80399e-08
2.93515e-08 -4.80399e-08 6.23936e-05

6.20148e-05 -1.15665e-06 -1.73794e-08
-1.15665e-06 5.12569e-05 -9.47496e-08
-1.73794e-08 -9.47496e-08 5.79163e-05

5.16499e-05 -2.75978e-06 -2.10617e-08
-2.75978e-06 6.01558e-05 6.61182e-09
-2.10617e-08 6.61182e-09 5.37908e-05

5.19014e-05 -3.71064e-06 3.27576e-08
-3.71064e-06 6.08576e-05 3.55591e-08
3.27576e-08 3.55591e-08 5.39984e-05

6.51041e-05 -2.53292e-06 -1.90554e-07
-2.53292e-06 5.32638e-05 3.26626e-08
-1.90554e-07 3.26626e-08 5.93757e-05

6.49409e-05 2.52511e-06 3.95854e-08
2.52511e-06 5.32138e-05 9.52464e-09
3.95854e-08 9.52464e-09 5.95376e-05

4.52151e-05 -7.56437e-06 -1.46917e-08
-7.56437e-06 4.50101e-05 -1.31309e-07
-1.46917e-08 -1.31309e-07 3.49086e-05

5.82482e-05 4.27176e-07 1.59525e-07
4.27176e-07 4.64177e-05 6.19711e-08
1.59525e-07 6.19711e-08 4.74024e-05

6.41496e-05 -3.65868e-06 1.26763e-07
-3.65868e-06 5.72527e-05 -1.87944e-07
1.26763e-07 -1.87944e-07 6.15629e-05

6.39573e-05 3.51956e-06 -6.56972e-08
3.51956e-06 5.73859e-05 4.91871e-08
-6.56972e-08 4.91871e-08 6.16725e-05

5.96158e-05 -4.06875e-06 4.87588e-08
-4.06875e-06 5.13231e-05 8.1643e-08
4.87588e-08 8.1643e-08 5.22831e-05

4.48571e-05 -8.52982e-06 2.45601e-09
-8.52982e-06 5.61618e-05 -1.20074e-07
2.45601e-09 -1.20074e-07 4.5231e-05

6.49726e-05 -2.76307e-06 -1.72685e-07
-2.76307e-06 5.44661e-05 1.26354e-07
-1.72685e-07 1.26354e-07 5.89165e-05

6.48391e-05 2.63742e-06 1.42057e-08
2.63742e-06 5.4545e-05 1.33445e-07
1.42057e-08 1.33445e-07 5.9127e-05

5.87961e-05 -1.83816e-06 3.17132e-08
-1.83816e-06 4.4646e-05 1.54027e-07
3.17132e-08 1.54027e-07 4.9897e-05

5.0699e-05 1.21909e-05 -7.83614e-08
1.21909e-05 6.16644e-05 -1.90792e-07
-7.83614e-08 -1.90792e-07 5.58208e-05

4.94151e-05 6.61993e-06 -7.83635e-08
6.61993e-06 4.66474e-05 -1.11295e-07
-7.83635e-08 -1.11295e-07 4.17406e-05

4.88287e-05 1.00319e-05 2.4245e-08
1.00319e-05 6.1068e-05 -6.59777e-08
2.4245e-08 -6.59777e-08 5.55463e-05

4.98657e-05 1.1355e-05 4.28814e-08
1.1355e-05 6.25999e-05 3.32906e-08
4.28814e-08 3.32906e-08 5.59152e-05

5.37851e-05 4.84472e-06 1.51028e-07
4.84472e-06 4.2996e-05 6.6459e-08
1.51028e-07 6.6459e-08 4.27792e-05

5.49653e-05 -3.96572e-06 -2.63046e-08
-3.96572e-06 4.92026e-05 -1.82786e-07
-2.63046e-08 -1.82786e-07 5.27911e-05

5.81266e-05 2.30679e-06 2.25678e-08
2.30679e-06 4.4939e-05 1.00173e-07
2.25678e-08 1.00173e-07 4.88857e-05

4.37354e-05 8.35147e-06 -9.97815e-08
8.35147e-06 4.61515e-05 -1.03158e-07
-9.97815e-08 -1.03158e-07 3.97314e-05

4.95512e-05 6.81385e-06 1.22212e-07
6.81385e-06 4.68684e-05 4.67449e-08
1.22212e-07 4.67449e-08 4.60123e-05

4.54744e-05 5.63363e-07 7.54378e-08
5.63363e-07 5.81511e-05 1.33797e-08
7.54378e-08 1.33797e-08 5.19129e-05

4.56237e-05 8.12281e-07 2.94219e-08
8.12281e-07 5.80707e-05 -1.96226e-08
2.94219e-08 -1.96226e-08 5.19261e-05

4.53068e-05 -8.64008e-06 -1.89724e-08
-8.64008e-06 3.85535e-05 -1.93412e-08
-1.89724e-08 -1.93412e-08 3.2757e-05

4.89349e-05 -1.02389e-05 5.99047e-08
-1.02389e-05 5.83141e-05 -1.45293e-08
5.99047e-08 -1.45293e-08 5.46849e-05

4.4176e-05 -9.9791e-06 2.56038e-08
-9.9791e-06 5.09934e-05 1.71161e-07
2.56038e-08 1.71161e-07 4.08078e-05

4.41793e-05 1.03299e-05 -5.92164e-08
1.03299e-05 5.07787e-05 8.36803e-09
-5.92164e-08 8.36803e-09 4.06802e-05

5.65414e-05 -3.69641e-06 -9.34144e-08
-3.69641e-06 4.7344e-05 -1.2048e-07
-9.34144e-08 -1.2048e-07 4.93572e-05

6.65032e-05 -4.19285e-07 6.39918e-08
-4.19285e-07 4.3935e-05 -9.46887e-08
6.39918e-08 -9.46887e-08 5.73512e-05

6.6378e-05 6.13532e-07 -1.29118e-07
6.13532e-07 4.40543e-05 -9.37543e-08
-1.29118e-07 -9.37543e-08 5.71254e-05

3.96553e-05 5.49089e-06 8.15971e-08
5.49089e-06 5.3006e-05 1.04498e-07
8.15971e-08 1.04498e-07 4.13024e-05

4.94241e-05 -8.25825e-06 8.56654e-08
-8.25825e-06 5.18497e-05 -8.46907e-09
8.56654e-08 -8.46907e-09 4.72076e-05

3.18404e-05 -1.71644e-07 -1.03398e-07
-1.71644e-07 5.13667e-05 -4.04297e-09
-1.03398e-07 -4.04297e-09 3.38252e-05

3.17371e-05 3.69202e-07 -8.86898e-08
3.69202e-07 5.14777e-05 3.33196e-08
-8.86898e-08 3.33196e-08 3.35989e-05

5.09976e-05 -5.94656e-08 -1.17439e-07
-5.94656e-08 3.45734e-05 1.0801e-07
-1.17439e-07 1.0801e-07 3.41529e-05

4.50615e-05 8.02291e-06 -1.61558e-08
8.02291e-06 4.52052e-05 5.29903e-08
-1.61558e-08 5.29903e-08 3.47224e-05

4.7354e-05 -9.26456e-06 -8.85468e-09
-9.26456e-06 4.63143e-05 -1.36818e-07
-8.85468e-09 -1.36818e-07 4.11035e-05

6.15677e-05 -5.01758e-06 -6.09129e-07
-5.01758e-06 7.15224e-05 1.54431e-07
-6.09129e-07 1.54431e-07 6.33406e-05

6.16725e-05 -5.09666e-06 -7.49581e-07
-5.09666e-06 7.15011e-05 1.30559e-07
-7.49581e-07 1.30559e-07 6.34076e-05

5.44823e-05 -4.80403e-06 8.45142e-08
-4.80403e-06 4.31318e-05 -9.07158e-08
8.45142e-08 -9.07158e-08 4.33142e-05

4.7818e-05 1.12811e-05 -7.32982e-08
1.12811e-05 5.98359e-05 -6.52392e-08
-7.32982e-08 -6.52392e-08 5.18408e-05

6.40793e-05 -2.94618e-07 -9.78132e-08
-2.94618e-07 5.04986e-05 -3.63936e-08
-9.78132e-08 -3.63936e-08 5.60019e-05

3.95214e-05 -5.43035e-06 2.36689e-09
-5.43035e-06 5.34786e-05 2.63681e-08
2.36689e-09 2.63681e-08 4.14243e-05

5.10144e-05 1.00541e-05 -1.81495e-08
1.00541e-05 6.2841e-05 1.65616e-07
-1.81495e-08 1.65616e-07 5.76694e-05

4.98411e-05 9.43099e-06 2.09965e-09
9.43099e-06 6.16051e-05 2.9007e-08
2.09965e-09 2.9007e-08 5.71584e-05

5.05657e-05 -1.19474e-05 -2.66493e-08
-1.19474e-05 6.21337e-05 1.81624e-07
-2.66493e-08 1.81624e-07 5.58959e-05

5.0168e-05 1.1552e-05 2.72356e-08
1.1552e-05 6.39219e-05 1.88357e-07
2.72356e-08 1.88357e-07 5.66712e-05

4.68163e-05 9.99462e-06 -1.26449e-07
9.99462e-06 5.82321e-05 -1.02059e-08
-1.26449e-07 -1.02059e-08 5.10746e-05

6.90393e-05 1.24033e-07 3.00636e-08
1.24033e-07 5.57044e-05 1.16349e-07
3.00636e-08 1.16349e-07 6.35612e-05

4.7684e-05 9.2674e-06 1.06814e-07
9.2674e-06 4.56347e-05 1.41817e-07
1.06814e-07 1.41817e-07 4.0673e-05

4.8807e-05 -1.05153e-05 5.70894e-08
-1.05153e-05 6.11187e-05 -6.09461e-09
5.70894e-08 -6.09461e-09 5.55456e-05

4.74178e-05 8.10961e-06 7.73321e-08
8.10961e-06 5.10255e-05 -1.70942e-07
7.73321e-08 -1.70942e-07 4.2919e-05

4.05501e-05 -6.91706e-06 4.29733e-08
-6.91706e-06 4.5473e-05 -6.07899e-08
4.29733e-08 -6.07899e-08 3.30326e-05

4.82751e-05 -8.54578e-06 -3.22597e-08
-8.54578e-06 5.51982e-05 1.65486e-07
-3.22597e-08 1.65486e-07 5.0609e-05

3.88347e-05 -4.91165e-06 -4.73638e-08
-4.91165e-06 5.44971e-05 -3.59547e-08
-4.73638e-08 -3.59547e-08 3.74141e-05

3.85929e-05 4.74318e-06 1.32653e-08
4.74318e-06 5.41985e-05 8.80846e-08
1.32653e-08 8.80846e-08 3.72495e-05

5.24155e-05 -3.39489e-06 -4.91774e-08
-3.39489e-06 4.23948e-05 -4.35536e-08
-4.91774e-08 -4.35536e-08 3.75076e-05

4.72715e-05 -8.20101e-06 -1.81785e-08
-8.20101e-06 5.11686e-05 1.23122e-07
-1.81785e-08 1.23122e-07 4.28036e-05

4.55873e-05 1.16932e-06 3.03267e-08
1.16932e-06 5.84146e-05 -3.77961e-08
3.03267e-08 -3.77961e-08 4.68703e-05

4.55338e-05 -3.24468e-08 7.60067e-08
-3.24468e-08 5.81098e-05 1.94571e-09
7.60067e-08 1.94571e-09 4.68634e-05

3.88162e-05 -9.61731e-06 1.08673e-07
-9.61731e-06 4.48129e-05 -5.86023e-08
1.08673e-07 -5.86023e-08 3.21939e-05

3.83035e-05 9.73034e-06 1.34647e-08
9.73034e-06 4.51021e-05 3.89779e-08
1.34647e-08 3.89779e-08 3.25405e-05

6.84532e-05 -9.74719e-07 -2.56936e-09
-9.74719e-07 5.36743e-05 6.25218e-08
-2.56936e-09 6.25218e-08 6.251e-05

6.88663e-05 9.33861e-07 1.08335e-07
9.33861e-07 5.36461e-05 -2.33766e-09
1.08335e-07 -2.33766e-09 6.2618e-05

4.89643e-05 1.05546e-05 3.72028e-08
1.05546e-05 6.02522e-05 -1.1358e-07
3.72028e-08 -1.1358e-07 5.29234e-05

4.9759e-05 -9.75207e-06 7.88177e-09
-9.75207e-06 6.20517e-05 -2.99063e-08
7.88177e-09 -2.99063e-08 5.69528e-05

5.06522e-05 7.04489e-06 -1.27253e-07
7.04489e-06 5.45225e-05 -1.89977e-08
-1.27253e-07 -1.89977e-08 5.27824e-05

4.43867e-05 7.6966e-06 6.50889e-08
7.6966e-06 3.43194e-05 6.64429e-08
6.50889e-08 6.64429e-08 2.76797e-05

3.99144e-05 6.65076e-06 -1.76187e-08
6.65076e-06 5.54578e-05 1.06617e-08
-1.76187e-08 1.06617e-08 4.20503e-05

6.06056e-05 4.80823e-06 9.34799e-08
4.80823e-06 6.04748e-05 -1.1684e-07
9.34799e-08 -1.1684e-07 6.08099e-05

6.04908e-05 -4.499e-06 -1.67616e-07
-4.499e-06 6.0585e-05 -9.45968e-08
-1.67616e-07 -9.45968e-08 6.07153e-05

5.84483e-05 -6.30055e-06 -3.73005e-08
-6.30055e-06 5.69739e-05 6.21708e-08
-3.73005e-08 6.21708e-08 5.55175e-05

5.82029e-05 6.3475e-06 1.87753e-07
6.3475e-06 5.7015e-05 -7.50247e-08
1.87753e-07 -7.50247e-08 5.55806e-05

2.28785e-05 2.0877e-06 -4.35036e-08
2.0877e-06 4.76176e-05 6.43751e-08
-4.35036e-08 6.43751e-08 1.25082e-05

4.5003e-05 2.19228e-06 6.26545e-08
2.19228e-06 2.5254e-05 8.26844e-08
6.26545e-08 8.26844e-08 1.25557e-05

3.96604e-05 -6.32693e-06 -2.00362e-08
-6.32693e-06 5.56394e-05 -1.16867e-07
-2.00362e-08 -1.16867e-07 4.22867e-05

6.61637e-05 -4.7955e-06 1.44412e-07
-4.7955e-06 6.69227e-05 -2.88681e-09
1.44412e-07 -2.88681e-09 6.60123e-05

6.53961e-05 4.89574e-06 1.54438e-07
4.89574e-06 6.69227e-05 -5.59916e-09
1.54438e-07 -5.59916e-09 6.60169e-05

5.32221e-05 7.54529e-06 -1.83519e-07
7.54529e-06 5.35732e-05 7.28727e-09
-1.83519e-07 7.28727e-09 4.97336e-05

4.72219e-05 4.27726e-06 1.38692e-07
4.27726e-06 3.07704e-05 -1.43412e-07
1.38692e-07 -1.43412e-07 2.74691e-05

5.82583e-05 -8.06655e-07 1.59971e-07
-8.06655e-07 4.65109e-05 -4.66924e-08
1.59971e-07 -4.66924e-08 4.74063e-05

4.65926e-05 -5.41511e-06 7.44371e-08
-5.41511e-06 5.87642e-05 5.45796e-08
7.44371e-08 5.45796e-08 5.22516e-05

4.72903e-05 -6.16042e-06 -1.32897e-07
-6.16042e-06 5.95654e-05 -4.49855e-08
-1.32897e-07 -4.49855e-08 5.26951e-05

4.35743e-05 -9.10602e-06 3.12262e-08
-9.10602e-06 4.70531e-05 -5.18437e-08
3.12262e-08 -5.18437e-08 3.89506e-05

5.02606e-05 -1.17989e-05 1.97355e-08
-1.17989e-05 6.38908e-05 4.54594e-08
1.97355e-08 4.54594e-08 5.67017e-05

5.33442e-05 -7.77703e-06 -1.26561e-07
-7.77703e-06 5.3705e-05 -3.58539e-08
-1.26561e-07 -3.58539e-08 4.96408e-05

4.75994e-05 1.11592e-05 -9.25815e-09
1.11592e-05 6.04971e-05 -1.46955e-08
-9.25815e-09 -1.46955e-08 5.52992e-05

5.67443e-05 8.2063e-06 3.3911e-09
8.2063e-06 6.30582e-05 1.64208e-07
3.3911e-09 1.64208e-07 5.90524e-05

5.65376e-05 7.48975e-06 -9.26382e-08
7.48975e-06 6.18304e-05 3.52021e-08
-9.26382e-08 3.52021e-08 5.87273e-05

4.90452e-05 -1.05064e-05 2.40178e-08
-1.05064e-05 6.09598e-05 1.51602e-07
2.40178e-08 1.51602e-07 5.30813e-05

4.81003e-05 9.63664e-06 4.66862e-08
9.63664e-06 5.83282e-05 -6.77831e-08
4.66862e-08 -6.77831e-08 5.18408e-05

4.98366e-05 6.61144e-06 -3.96436e-08
6.61144e-06 3.98981e-05 4.28576e-08
-3.96436e-08 4.28576e-08 3.86485e-05

4.95914e-05 1.23733e-05 1.16051e-07
1.23733e-05 6.27871e-05 3.99351e-08
1.16051e-07 3.99351e-08 5.62705e-05

4.36881e-05 -7.49722e-06 5.05347e-08
-7.49722e-06 5.63098e-05 -1.3473e-07
5.05347e-08 -1.3473e-07 4.82828e-05

4.10369e-05 2.97925e-06 1.27817e-07
2.97925e-06 5.61657e-05 -2.61564e-08
1.27817e-07 -2.61564e-08 4.51824e-05

5.25828e-05 8.90477e-06 -2.11788e-07
8.90477e-06 5.63915e-05 -1.7077e-08
-2.11788e-07 -1.7077e-08 5.28716e-05

4.19901e-05 3.87529e-06 -4.44634e-09
3.87529e-06 5.66638e-05 -2.14219e-08
-4.44634e-09 -2.14219e-08 4.56986e-05

5.10452e-05 -1.04162e-05 -1.61356e-07
-1.04162e-05 6.31768e-05 5.16292e-08
-1.61356e-07 5.16292e-08 5.74915e-05

3.08003e-05 -9.02734e-06 -2.13168e-07
-9.02734e-06 3.1681e-05 4.12557e-08
-2.13168e-07 4.12557e-08 1.78571e-05

3.11543e-05 -9.0747e-06 -5.8677e-08
-9.0747e-06 3.12173e-05 1.98599e-07
-5.8677e-08 1.98599e-07 1.77775e-05

5.26103e-05 -8.99131e-06 -2.1173e-07
-8.99131e-06 5.63183e-05 3.69716e-08
-2.1173e-07 3.69716e-08 5.28513e-05

5.96744e-05 -3.3589e-06 4.61867e-08
-3.3589e-06 4.88683e-05 1.51975e-08
4.61867e-08 1.51975e-08 5.21847e-05

7.22251e-05 1.12849e-05 4.0911e-07
1.12849e-05 6.74333e-05 -3.59046e-07
4.0911e-07 -3.59046e-07 6.74139e-05

7.16813e-05 -1.06305e-05 4.03594e-07
-1.06305e-05 6.74333e-05 3.52852e-07
4.03594e-07 3.52852e-07 6.74094e-05

4.7797e-05 -1.11598e-05 1.51637e-08
-1.11598e-05 6.06193e-05 1.47279e-07
1.51637e-08 1.47279e-07 5.21758e-05

5.97998e-05 2.27451e-06 2.34914e-08
2.27451e-06 6.20312e-05 -1.39005e-07
2.34914e-08 -1.39005e-07 6.10107e-05

6.00733e-05 -2.24586e-06 -1.70746e-07
-2.24586e-06 6.19047e-05 2.20879e-07
-1.70746e-07 2.20879e-07 6.10087e-05

6.32667e-05 1.79641e-07 1.4335e-07
1.79641e-07 4.11003e-05 -2.15278e-08
1.4335e-07 -2.15278e-08 5.06664e-05

4.78719e-05 -1.1218e-05 2.4554e-08
-1.1218e-05 6.10708e-05 -5.38609e-08
2.4554e-08 -5.38609e-08 5.52341e-05

3.34238e-05 1.08626e-05 -1.75257e-07
1.08626e-05 3.44567e-05 -1.26297e-07
-1.75257e-07 -1.26297e-07 2.20975e-05

3.24906e-05 1.02921e-05 -9.01025e-08
1.02921e-05 3.45878e-05 5.91941e-08
-9.01025e-08 5.91941e-08 2.23289e-05

3.23104e-05 -7.78977e-06 6.75804e-08
-7.78977e-06 4.65736e-05 -2.27642e-08
6.75804e-08 -2.27642e-08 2.60138e-05

3.2978e-05 8.13693e-06 -1.76527e-07
8.13693e-06 4.69849e-05 -1.44332e-07
-1.76527e-07 -1.44332e-07 2.66971e-05

4.51635e-05 -6.47365e-06 -4.94349e-08
-6.47365e-06 3.46708e-05 8.81729e-09
-4.94349e-08 8.81729e-09 2.60763e-05

4.99001e-05 -1.2457e-05 -2.01207e-08
-1.2457e-05 6.27023e-05 -1.96388e-08
-2.01207e-08 -1.96388e-08 5.62384e-05

2.31307e-05 2.87055e-06 -6.82755e-08
2.87055e-06 4.50502e-05 -1.22766e-07
-6.82755e-08 -1.22766e-07 2.21976e-05

4.32418e-05 3.68656e-06 2.42916e-08
3.68656e-06 2.60102e-05 7.41086e-08
2.42916e-08 7.41086e-08 2.24755e-05

5.84883e-05 -3.87772e-06 6.68977e-08
-3.87772e-06 6.44319e-05 1.79233e-07
6.68977e-08 1.79233e-07 6.06743e-05

5.89854e-05 -4.61631e-06 8.93496e-08
-4.61631e-06 6.48753e-05 1.46377e-07
8.93496e-08 1.46377e-07 6.09001e-05

6.17164e-05 1.21344e-06 5.50868e-08
1.21344e-06 4.98071e-05 -2.74308e-08
5.50868e-08 -2.74308e-08 5.39627e-05

6.69749e-05 1.26044e-08 -5.85096e-08
1.26044e-08 4.06746e-05 6.61875e-08
-5.85096e-08 6.61875e-08 5.51111e-05

3.80293e-05 -7.07712e-06 8.44101e-08
-7.07712e-06 5.04709e-05 1.2156e-07
8.44101e-08 1.2156e-07 3.63931e-05

3.76822e-05 6.93043e-06 1.78836e-08
6.93043e-06 5.02494e-05 8.25189e-08
1.78836e-08 8.25189e-08 3.62523e-05

6.33205e-05 5.30593e-08 1.56087e-07
5.30593e-08 4.08771e-05 -9.10457e-08
1.56087e-07 -9.10457e-08 5.09225e-05

4.48389e-05 -8.46755e-06 -1.76697e-08
-8.46755e-06 5.82188e-05 1.72904e-07
-1.76697e-08 1.72904e-07 4.92748e-05

6.60562e-05 -3.84902e-06 2.68641e-07
-3.84902e-06 6.48412e-05 -1.49285e-07
2.68641e-07 -1.49285e-07 6.45734e-05

6.53981e-05 3.85356e-06 -1.12426e-08
3.85356e-06 6.44636e-05 -2.00846e-07
-1.12426e-08 -2.00846e-07 6.46189e-05

5.42375e-05 5.03674e-06 -3.87958e-08
5.03674e-06 5.52461e-05 -9.81304e-08
-3.87958e-08 -9.81304e-08 5.33996e-05

4.7667e-05 -9.66432e-06 -5.58395e-08
-9.66432e-06 5.8081e-05 5.4909e-08
-5.58395e-08 5.4909e-08 5.18168e-05

6.18218e-05 1.44188e-06 6.96008e-08
1.44188e-06 4.34355e-05 1.21122e-07
6.96008e-08 1.21122e-07 5.27095e-05

4.23806e-05 7.94611e-06 6.4864e-08
7.94611e-06 4.08585e-05 6.60636e-08
6.4864e-08 6.60636e-08 3.32136e-05

4.68262e-05 -9.85602e-06 -1.4103e-07
-9.85602e-06 5.8078e-05 1.6744e-08
-1.4103e-07 1.6744e-08 5.11474e-05

1.68504e-05 -1.71801e-05 5.97052e-08
-1.71801e-05 1.75098e-05 -5.97052e-08
5.97052e-08 -5.97052e-08 3.96603e-06

4.14619e-05 -2.37281e-06 -3.21934e-08
-2.37281e-06 5.6141e-05 -6.45077e-08
-3.21934e-08 -6.45077e-08 4.5234e-05

4.22792e-05 -3.28572e-06 2.54018e-08
-3.28572e-06 5.62217e-05 -1.58799e-08
2.54018e-08 -1.58799e-08 4.56064e-05

5.94286e-05 -9.15758e-07 8.54688e-08
-9.15758e-07 6.36711e-05 2.47205e-08
8.54688e-08 2.47205e-08 6.1146e-05

5.95128e-05 -5.73408e-07 7.59026e-08
-5.73408e-07 6.40758e-05 -8.34761e-08
7.59026e-08 -8.34761e-08 6.11529e-05

6.86872e-05 -2.69593e-06 5.50221e-08
-2.69593e-06 5.7772e-05 -1.2712e-08
5.50221e-08 -1.2712e-08 6.48432e-05

6.91532e-05 2.71876e-06 4.12169e-08
2.71876e-06 5.78117e-05 -8.98235e-08
4.12169e-08 -8.98235e-08 6.49478e-05

5.4803e-05 -5.39649e-06 1.51103e-08
-5.39649e-06 5.62578e-05 6.56687e-09
1.51103e-08 6.56687e-09 5.69199e-05

5.51704e-05 5.54474e-06 4.91456e-08
5.54474e-06 5.55127e-05 -5.93906e-08
4.91456e-08 -5.93906e-08 5.6569e-05

5.88623e-05 -4.58298e-06 -2.00363e-07
-4.58298e-06 6.39284e-05 9.49241e-08
-2.00363e-07 9.49241e-08 6.04437e-05

5.8515e-05 4.83425e-06 3.62586e-09
4.83425e-06 6.3729e-05 -5.37331e-08
3.62586e-09 -5.37331e-08 6.04355e-05

6.91904e-05 7.81082e-06 1.73418e-08
7.81082e-06 6.78501e-05 -3.36127e-07
1.73418e-08 -3.36127e-07 6.65099e-05

6.88934e-05 -6.91053e-06 1.2802e-08
-6.91053e-06 6.78781e-05 3.2999e-07
1.2802e-08 3.2999e-07 6.65046e-05

5.32092e-05 -1.20648e-05 -3.67173e-08
-1.20648e-05 6.38781e-05 5.68429e-08
-3.67173e-08 5.68429e-08 5.88771e-05

5.32842e-05 1.20246e-05 1.29384e-07
1.20246e-05 6.39799e-05 2.10629e-07
1.29384e-07 2.10629e-07 5.89714e-05

5.36983e-05 6.97607e-06 -1.53612e-07
6.97607e-06 5.03782e-05 -1.13773e-07
-1.53612e-07 -1.13773e-07 4.9032e-05

4.65806e-05 -5.5394e-06 4.65731e-08
-5.5394e-06 5.76263e-05 -1.37195e-07
4.65731e-08 -1.37195e-07 4.87507e-05

4.69722e-05 -7.13392e-06 -1.03864e-07
-7.13392e-06 5.90436e-05 1.2458e-07
-1.03864e-07 1.2458e-07 4.93526e-05

4.37516e-05 -7.07153e-06 1.62832e-07
-7.07153e-06 4.16473e-05 6.45782e-08
1.62832e-07 6.45782e-08 3.23531e-05

5.37859e-05 -7.05083e-06 -1.07145e-07
-7.05083e-06 5.05298e-05 5.71436e-08
-1.07145e-07 5.71436e-08 4.8949e-05

4.64392e-05 5.30505e-06 7.28673e-08
5.30505e-06 5.71564e-05 -5.22516e-08
7.28673e-08 -5.22516e-08 4.85423e-05

4.9209e-05 1.00007e-05 2.15973e-07
1.00007e-05 5.29715e-05 -4.78874e-08
2.15973e-07 -4.78874e-08 4.72492e-05

5.05235e-05 -1.06053e-05 -3.47642e-08
-1.06053e-05 6.09958e-05 2.37602e-08
-3.47642e-08 2.37602e-08 5.74144e-05

5.04925e-05 1.00525e-05 -5.61386e-08
1.00525e-05 6.09118e-05 -9.16212e-08
-5.61386e-08 -9.16212e-08 5.74826e-05

4.90773e-05 -1.00606e-05 1.15901e-07
-1.00606e-05 5.30375e-05 6.49493e-09
1.15901e-07 6.49493e-09 4.71502e-05

6.22629e-05 -8.60467e-07 4.85064e-08
-8.60467e-07 5.04849e-05 -1.56426e-07
4.85064e-08 -1.56426e-07 5.48636e-05

6.29913e-05 2.90595e-06 2.81357e-07
2.90595e-06 6.8405e-05 -2.78574e-07
2.81357e-07 -2.78574e-07 6.32986e-05

6.32568e-05 2.61445e-06 5.3534e-07
2.61445e-06 6.7211e-05 -3.40217e-07
5.3534e-07 -3.40217e-07 6.3336e-05

5.09821e-05 -8.82336e-06 4.89176e-08
-8.82336e-06 6.14806e-05 -1.69061e-07
4.89176e-08 -1.69061e-07 5.47092e-05

5.41529e-05 4.22222e-06 -3.12859e-08
4.22222e-06 4.86268e-05 2.88046e-09
-3.12859e-08 2.88046e-09 5.19375e-05

6.64652e-05 -1.13703e-06 -2.05838e-07
-1.13703e-06 5.18371e-05 8.74366e-08
-2.05838e-07 8.74366e-08 5.89228e-05

3.28337e-05 -9.6254e-06 6.36428e-08
-9.6254e-06 3.42342e-05 1.46354e-08
6.36428e-08 1.46354e-08 1.98047e-05

3.30588e-05 -9.4027e-06 6.28624e-08
-9.4027e-06 3.44404e-05 1.36674e-08
6.28624e-08 1.36674e-08 2.00237e-05

6.85891e-05 -2.97501e-06 -8.34547e-08
-2.97501e-06 5.72302e-05 -1.84646e-07
-8.34547e-08 -1.84646e-07 6.43553e-05

6.9075e-05 2.97006e-06 -7.65608e-08
2.97006e-06 5.73288e-05 4.87175e-08
-7.65608e-08 4.87175e-08 6.44128e-05

6.66264e-05 9.97991e-07 7.36149e-08
9.97991e-07 5.22142e-05 -6.16547e-08
7.36149e-08 -6.16547e-08 5.90816e-05

4.69438e-05 6.98667e-06 2.79007e-08
6.98667e-06 5.855e-05 2.68741e-09
2.79007e-08 2.68741e-09 4.92688e-05

5.38199e-05 5.43878e-06 1.52683e-07
5.43878e-06 4.80169e-05 1.14718e-07
1.52683e-07 1.14718e-07 4.43016e-05

5.63566e-05 -8.10061e-06 8.85314e-08
-8.10061e-06 6.22591e-05 -2.32399e-07
8.85314e-08 -2.32399e-07 5.80471e-05

5.6412e-05 7.93681e-06 1.028e-07
7.93681e-06 6.2118e-05 2.26849e-07
1.028e-07 2.26849e-07 5.80617e-05

6.83714e-05 -9.14878e-07 2.75255e-07
-9.14878e-07 6.09483e-05 4.35402e-07
2.75255e-07 4.35402e-07 6.32495e-05

6.88496e-05 1.00056e-06 -2.41447e-08
1.00056e-06 6.2318e-05 -1.28323e-07
-2.41447e-08 -1.28323e-07 6.33849e-05

4.80854e-05 -1.03108e-05 -4.58729e-08
-1.03108e-05 6.07521e-05 -2.07278e-07
-4.58729e-08 -2.07278e-07 5.42676e-05

5.63769e-05 4.40256e-06 3.68527e-08
4.40256e-06 4.74182e-05 5.89412e-08
3.68527e-08 5.89412e-08 4.8437e-05

6.39834e-05 2.95037e-06 -6.57887e-08
2.95037e-06 6.05983e-05 5.28975e-08
-6.57887e-08 5.28975e-08 6.18885e-05

6.4192e-05 -2.68046e-06 1.36172e-07
-2.68046e-06 6.02149e-05 2.32169e-07
1.36172e-07 2.32169e-07 6.17955e-05

5.05616e-05 -7.87277e-06 -3.60552e-08
-7.87277e-06 6.02631e-05 1.31407e-07
-3.60552e-08 1.31407e-07 5.41811e-05

4.84174e-05 -1.10337e-05 -6.45669e-09
-1.10337e-05 6.09934e-05 -4.86467e-08
-6.45669e-09 -4.86467e-08 5.50762e-05

1.73565e-05 -1.78238e-05 -3.15622e-08
-1.78238e-05 1.8291e-05 3.15622e-08
-3.15622e-08 3.15622e-08 4.35077e-06

5.24849e-05 7.45238e-06 -7.86618e-08
7.45238e-06 6.33027e-05 -4.62506e-08
-7.86618e-08 -4.62506e-08 5.85788e-05

5.29285e-05 -7.53043e-06 6.96547e-09
-7.53043e-06 6.35684e-05 1.08477e-07
6.96547e-09 1.08477e-07 5.85947e-05

4.6895e-05 -9.51979e-06 -1.27446e-07
-9.51979e-06 5.95849e-05 1.02204e-07
-1.27446e-07 1.02204e-07 5.35447e-05

5.45889e-05 -5.78429e-06 8.50284e-08
-5.78429e-06 4.79481e-05 -9.8668e-08
8.50284e-08 -9.8668e-08 4.47585e-05

5.50499e-05 -4.89703e-06 -3.89204e-08
-4.89703e-06 5.54863e-05 4.24152e-08
-3.89204e-08 4.24152e-08 5.39005e-05

5.41546e-05 6.66757e-06 1.46279e-08
6.66757e-06 5.95111e-05 5.71602e-08
1.46279e-08 5.71602e-08 5.71877e-05

5.3991e-05 -6.47019e-06 3.3894e-08
-6.47019e-06 5.97017e-05 7.73734e-08
3.3894e-08 7.73734e-08 5.72163e-05

6.22639e-05 -1.06002e-06 4.77527e-08
-1.06002e-06 4.35415e-05 1.47886e-07
4.77527e-08 1.47886e-07 5.35478e-05

6.86392e-05 2.36198e-06 -6.94322e-08
2.36198e-06 6.20491e-05 8.415e-08
-6.94322e-08 8.415e-08 6.57192e-05

6.81965e-05 -2.48416e-06 -1.02238e-07
-2.48416e-06 6.20491e-05 -9.12881e-08
-1.02238e-07 -9.12881e-08 6.57196e-05

6.15266e-05 1.27936e-06 -1.94954e-07
1.27936e-06 7.32204e-05 2.05222e-07
-1.94954e-07 2.05222e-07 6.28317e-05

6.16931e-05 5.49544e-07 -2.85958e-08
5.49544e-07 7.3019e-05 2.32581e-07
-2.85958e-08 2.32581e-07 6.28076e-05

2.13658e-05 7.81926e-07 2.43421e-07
7.81926e-07 4.75637e-05 -1.69763e-08
2.43421e-07 -1.69763e-08 1.21838e-05

4.47875e-05 7.14129e-07 1.43896e-08
7.14129e-07 2.21515e-05 -2.26592e-07
1.43896e-08 -2.26592e-07 1.21819e-05

5.26151e-05 -1.0154e-05 -8.73452e-09
-1.0154e-05 6.34947e-05 2.03011e-07
-8.73452e-09 2.03011e-07 5.69505e-05

5.28312e-05 1.02885e-05 -4.78066e-08
1.02885e-05 6.32538e-05 -2.24929e-07
-4.78066e-08 -2.24929e-07 5.69636e-05

4.92302e-05 -1.17376e-05 -2.01728e-07
-1.17376e-05 6.25135e-05 5.85439e-09
-2.01728e-07 5.85439e-09 5.5817e-05

1.89521e-05 -8.37522e-06 -2.77542e-08
-8.37522e-06 3.81693e-05 7.22191e-08
-2.77542e-08 7.22191e-08 1.07256e-05

3.65129e-05 -8.00962e-06 4.45042e-08
-8.00962e-06 2.08788e-05 4.33842e-08
4.45042e-08 4.33842e-08 1.09446e-05

6.47894e-05 -1.0682e-05 -1.80896e-07
-1.0682e-05 7.3028e-05 -1.78153e-07
-1.80896e-07 -1.78153e-07 6.80985e-05

6.5332e-05 1.09851e-05 -1.7612e-07
1.09851e-05 7.36673e-05 1.72631e-07
-1.7612e-07 1.72631e-07 6.81024e-05

5.12935e-05 -6.9733e-06 8.53278e-08
-6.9733e-06 5.46774e-05 1.48396e-07
8.53278e-08 1.48396e-07 5.30233e-05

4.86125e-05 -9.78402e-06 8.32972e-08
-9.78402e-06 5.53426e-05 -4.92602e-08
8.32972e-08 -4.92602e-08 4.83964e-05

5.28503e-05 -1.0566e-05 7.00258e-08
-1.0566e-05 6.06427e-05 -2.42029e-07
7.00258e-08 -2.42029e-07 5.61002e-05

5.29174e-05 1.03515e-05 2.90587e-08
1.03515e-05 6.05517e-05 2.65191e-07
2.90587e-08 2.65191e-07 5.61109e-05

4.89077e-05 -1.1146e-05 8.32738e-09
-1.1146e-05 5.84374e-05 5.0222e-08
8.32738e-09 5.0222e-08 5.16495e-05

4.8702e-05 9.76862e-06 1.13327e-07
9.76862e-06 5.52764e-05 1.2897e-07
1.13327e-07 1.2897e-07 4.83425e-05

3.08079e-05 -3.13438e-06 -1.16208e-07
-3.13438e-06 4.92057e-05 -7.2544e-08
-1.16208e-07 -7.2544e-08 2.6624e-05

3.03191e-05 3.80959e-06 -4.34535e-08
3.80959e-06 4.81455e-05 -1.61498e-07
-4.34535e-08 -1.61498e-07 2.67583e-05

4.7098e-05 -2.41667e-06 -2.35958e-08
-2.41667e-06 3.40718e-05 1.19073e-07
-2.35958e-08 1.19073e-07 2.6917e-05

4.88897e-05 1.09392e-05 1.80299e-08
1.09392e-05 5.82749e-05 -9.1435e-09
1.80299e-08 -9.1435e-09 5.15804e-05

2.25221e-05 -1.94039e-06 2.11811e-07
-1.94039e-06 4.55199e-05 1.42918e-07
2.11811e-07 1.42918e-07 2.16465e-05

4.36514e-05 -1.85404e-06 2.88907e-08
-1.85404e-06 2.33339e-05 -2.29778e-07
2.88907e-08 -2.29778e-07 2.13552e-05

5.51192e-05 -9.8826e-06 2.5186e-09
-9.8826e-06 6.32669e-05 2.00626e-07
2.5186e-09 2.00626e-07 5.92819e-05

5.52396e-05 1.00012e-05 2.56981e-08
1.00012e-05 6.30528e-05 -2.10724e-07
2.56981e-08 -2.10724e-07 5.9298e-05

5.56631e-05 -8.7343e-06 -6.90831e-08
-8.7343e-06 6.47682e-05 -4.38259e-08
-6.90831e-08 -4.38259e-08 6.01216e-05

5.59104e-05 8.63463e-06 -4.88485e-08
8.63463e-06 6.44666e-05 4.77181e-08
-4.88485e-08 4.77181e-08 6.01332e-05

1.80588e-05 -8.45719e-06 5.35292e-08
-8.45719e-06 3.68763e-05 -1.41394e-07
5.35292e-08 -1.41394e-07 9.41584e-06

3.55045e-05 -7.76534e-06 1.2118e-07
-7.76534e-06 1.88925e-05 -5.48041e-08
1.2118e-07 -5.48041e-08 9.33629e-06

5.24852e-05 9.18216e-06 -2.23253e-07
9.18216e-06 5.90959e-05 8.41197e-08
-2.23253e-07 8.41197e-08 5.36251e-05

5.24842e-05 -9.43472e-06 -2.19522e-07
-9.43472e-06 5.92228e-05 -3.67768e-08
-2.19522e-07 -3.67768e-08 5.36138e-05

6.0926e-05 -1.31865e-06 -1.96665e-07
-1.31865e-06 6.41256e-05 1.94581e-07
-1.96665e-07 1.94581e-07 6.16099e-05

6.10326e-05 -2.18174e-06 -4.124e-08
-2.18174e-06 6.45848e-05 1.53981e-07
-4.124e-08 1.53981e-07 6.16897e-05

5.4277e-05 -1.00896e-05 9.41242e-09
-1.00896e-05 6.64394e-05 1.88833e-07
9.41242e-09 1.88833e-07 6.04028e-05

5.40892e-05 1.0301e-05 1.83965e-07
1.0301e-05 6.68953e-05 4.02141e-08
1.83965e-07 4.02141e-08 6.04555e-05

6.60783e-05 -3.95483e-06 2.99303e-07
-3.95483e-06 6.10709e-05 1.30329e-07
2.99303e-07 1.30329e-07 6.43324e-05

6.54164e-05 3.94581e-06 -4.09105e-08
3.94581e-06 6.12825e-05 6.84084e-08
-4.09105e-08 6.84084e-08 6.43776e-05

5.09954e-05 8.55652e-06 -8.99333e-08
8.55652e-06 5.93987e-05 6.03536e-08
-8.99333e-08 6.03536e-08 5.5103e-05

5.11608e-05 -8.08564e-06 1.20218e-07
-8.08564e-06 5.96545e-05 7.865e-08
1.20218e-07 7.865e-08 5.51753e-05

5.86137e-05 -3.10425e-06 1.28647e-07
-3.10425e-06 7.0493e-05 -2.3464e-07
1.28647e-07 -2.3464e-07 6.21373e-05

6.89445e-05 -5.7371e-06 -1.34729e-07
-5.7371e-06 6.64798e-05 -6.70887e-08
-1.34729e-07 -6.70887e-08 6.75075e-05

6.86221e-05 -6.10815e-06 -1.47849e-07
-6.10815e-06 6.60692e-05 -7.92298e-08
-1.47849e-07 -7.92298e-08 6.75591e-05

6.97153e-05 5.63033e-06 -1.17207e-07
5.63033e-06 6.63208e-05 4.85667e-08
-1.17207e-07 4.85667e-08 6.75061e-05

6.9696e-05 5.69938e-06 -1.42489e-07
5.69938e-06 6.62094e-05 7.19627e-08
-1.42489e-07 7.19627e-08 6.75625e-05

5.81415e-05 -2.56483e-06 1.09514e-07
-2.56483e-06 7.15722e-05 -2.33964e-07
1.09514e-07 -2.33964e-07 6.19178e-05

6.37355e-05 -6.2701e-06 7.00442e-08
-6.2701e-06 6.39502e-05 -9.05438e-08
7.00442e-08 -9.05438e-08 6.19016e-05

6.39379e-05 6.79875e-06 -4.17507e-08
6.79875e-06 6.39018e-05 -8.44756e-08
-4.17507e-08 -8.44756e-08 6.1979e-05

6.33237e-05 -6.5722e-06 -1.07085e-06
-6.5722e-06 6.92755e-05 1.89781e-06
-1.07085e-06 1.89781e-06 6.52874e-05

7.64133e-05 -6.74434e-06 -5.13977e-06
-6.74434e-06 6.7086e-05 -3.1871e-06
-5.13977e-06 -3.1871e-06 6.71366e-05

7.64134e-05 1.21955e-05 1.54152e-06
1.21955e-05 6.03587e-05 -3.44509e-07
1.54152e-06 -3.44509e-07 6.71809e-05

6.33237e-05 6.42399e-06 -1.21642e-06
6.42399e-06 6.93983e-05 -1.8408e-06
-1.21642e-06 -1.8408e-06 6.53331e-05

6.77832e-05 -9.12603e-06 2.37192e-07
-9.12603e-06 6.67715e-05 -8.49086e-08
2.37192e-07 -8.49086e-08 6.46603e-05

6.03335e-05 -7.0968e-06 -1.35148e-07
-7.0968e-06 6.73507e-05 1.61652e-07
-1.35148e-07 1.61652e-07 6.28074e-05

6.87203e-05 -6.68382e-06 1.72827e-07
-6.68382e-06 6.92932e-05 -3.8297e-07
1.72827e-07 -3.8297e-07 6.65048e-05

6.77832e-05 9.07949e-06 1.94053e-07
9.07949e-06 6.72025e-05 2.9718e-07
1.94053e-07 2.9718e-07 6.47063e-05

6.87203e-05 6.80236e-06 1.77105e-07
6.80236e-06 6.81953e-05 3.75665e-07
1.77105e-07 3.75665e-07 6.65106e-05

6.03335e-05 7.11806e-06 -1.10413e-07
7.11806e-06 6.78715e-05 9.55649e-08
-1.10413e-07 9.55649e-08 6.28541e-05

6.0345e-05 -7.18524e-06 -1.28822e-07
-7.18524e-06 6.77893e-05 8.41313e-08
-1.28822e-07 8.41313e-08 6.37941e-05

6.59591e-05 -5.59966e-06 1.65164e-07
-5.59966e-06 6.82324e-05 1.75688e-07
1.65164e-07 1.75688e-07 6.56469e-05

6.0345e-05 7.1677e-06 -1.25055e-07
7.1677e-06 6.73594e-05 -8.38512e-08
-1.25055e-07 -8.38512e-08 6.38013e-05

6.51869e-05 5.74647e-06 1.74368e-07
5.74647e-06 6.7775e-05 -1.77101e-07
1.74368e-07 -1.77101e-07 6.56528e-05

5.16751e-05 4.73875e-06 2.12653e-08
4.73875e-06 5.76904e-05 -2.14569e-08
2.12653e-08 -2.14569e-08 5.41222e-05

4.62694e-05 -1.26644e-06 -1.87445e-08
-1.26644e-06 6.03023e-05 6.03211e-08
-1.87445e-08 6.03211e-08 5.44525e-05

5.46662e-05 -1.65311e-06 1.44203e-08
-1.65311e-06 4.05515e-05 -2.49501e-08
1.44203e-08 -2.49501e-08 4.93158e-05

5.31428e-05 -1.7076e-07 -1.95021e-08
-1.7076e-07 3.93962e-05 -6.66828e-09
-1.95021e-08 -6.66828e-09 4.58994e-05

5.16369e-05 4.91397e-06 1.48928e-08
4.91397e-06 5.87891e-05 5.26644e-08
1.48928e-08 5.26644e-08 5.75318e-05

4.6149e-05 -1.67226e-06 -1.94623e-08
-1.67226e-06 6.7153e-05 5.19727e-08
-1.94623e-08 5.19727e-08 5.76546e-05

5.31511e-05 2.81311e-06 -1.93821e-08
2.81311e-06 4.01228e-05 8.00312e-08
-1.93821e-08 8.00312e-08 4.61521e-05

5.93863e-05 3.07129e-06 6.04276e-09
3.07129e-06 4.5212e-05 1.40104e-08
6.04276e-09 1.40104e-08 5.57321e-05

3.33224e-05 7.06731e-06 -2.53652e-08
7.06731e-06 4.26356e-05 -1.39998e-07
-2.53652e-08 -1.39998e-07 3.65499e-05

3.40281e-05 6.95551e-06 1.8894e-08
6.95551e-06 4.34011e-05 -1.36586e-07
1.8894e-08 -1.36586e-07 3.585e-05

4.23812e-05 5.99788e-06 -1.72105e-07
5.99788e-06 3.31904e-05 -4.43027e-08
-1.72105e-07 -4.43027e-08 3.5379e-05

5.5033e-05 3.15583e-06 -1.77834e-07
3.15583e-06 6.33888e-05 6.24768e-08
-1.77834e-07 6.24768e-08 5.86489e-05

5.65906e-05 -5.75639e-06 -3.63547e-08
-5.75639e-06 6.02167e-05 -9.08764e-08
-3.63547e-08 -9.08764e-08 5.8592e-05

4.86979e-05 -7.26186e-06 5.94992e-08
-7.26186e-06 5.13895e-05 2.04677e-08
5.94992e-08 2.04677e-08 4.9622e-05

4.5875e-05 2.55651e-06 -4.68096e-08
2.55651e-06 6.60446e-05 1.4213e-07
-4.68096e-08 1.4213e-07 5.74156e-05

5.19032e-05 -2.69599e-06 -1.35455e-07
-2.69599e-06 5.82278e-05 -3.05713e-08
-1.35455e-07 -3.05713e-08 5.73576e-05

5.76045e-05 1.66823e-06 -1.74414e-07
1.66823e-06 4.08937e-05 3.6559e-08
-1.74414e-07 3.6559e-08 4.9522e-05

3.56708e-05 3.18949e-06 -4.33756e-08
3.18949e-06 4.88617e-05 -1.05312e-07
-4.33756e-08 -1.05312e-07 3.94725e-05

3.76864e-05 2.62594e-06 -2.07552e-08
2.62594e-06 4.80838e-05 -7.58921e-08
-2.07552e-08 -7.58921e-08 3.90658e-05

4.77625e-05 1.85278e-06 -5.84957e-08
1.85278e-06 3.62523e-05 -1.14093e-07
-5.84957e-08 -1.14093e-07 3.83438e-05

4.35032e-05 7.25549e-06 -1.03434e-07
7.25549e-06 5.17268e-05 1.2336e-07
-1.03434e-07 1.2336e-07 4.53387e-05

4.10188e-05 -4.58695e-06 6.96414e-08
-4.58695e-06 5.17982e-05 6.29388e-08
6.96414e-08 6.29388e-08 4.60103e-05

5.56067e-05 4.37637e-06 3.24442e-08
4.37637e-06 4.09837e-05 1.00903e-07
3.24442e-08 1.00903e-07 4.98149e-05

3.20531e-05 5.12747e-06 7.49157e-09
5.12747e-06 3.98422e-05 -7.7714e-08
7.49157e-09 -7.7714e-08 3.25437e-05

5.99047e-05 -1.28771e-06 1.61643e-07
-1.28771e-06 4.22317e-05 4.15977e-08
1.61643e-07 4.15977e-08 5.45659e-05

5.94195e-05 1.37714e-06 2.26876e-09
1.37714e-06 6.03628e-05 5.75715e-08
2.26876e-09 5.75715e-08 5.89244e-05

5.53143e-05 -7.8624e-07 5.11653e-08
-7.8624e-07 6.6457e-05 7.94261e-08
5.11653e-08 7.94261e-08 5.88312e-05

7.72997e-05 7.4676e-06 -5.30037e-08
7.4676e-06 6.33942e-05 -1.55673e-07
-5.30037e-08 -1.55673e-07 6.19876e-05

7.76472e-05 -3.66231e-06 -1.66658e-07
-3.66231e-06 5.8543e-05 -6.31346e-08
-1.66658e-07 -6.31346e-08 6.2601e-05

4.72784e-05 -8.28408e-06 -1.40014e-08
-8.28408e-06 5.0669e-05 -4.0174e-08
-1.40014e-08 -4.0174e-08 4.89201e-05

4.24749e-05 -7.17077e-06 5.1528e-10
-7.17077e-06 5.0517e-05 -4.56951e-08
5.1528e-10 -4.56951e-08 4.4958e-05

4.71674e-05 -4.88838e-07 1.59306e-08
-4.88838e-07 3.4585e-05 -7.52354e-09
1.59306e-08 -7.52354e-09 3.83711e-05

6.49833e-05 4.66761e-06 4.1278e-08
4.66761e-06 5.52584e-05 3.10349e-08
4.1278e-08 3.10349e-08 5.89178e-05

6.33962e-05 -9.05036e-07 -3.96478e-08
-9.05036e-07 5.53232e-05 -1.39654e-08
-3.96478e-08 -1.39654e-08 5.89561e-05

5.95702e-05 -4.87033e-07 -1.26473e-07
-4.87033e-07 4.2303e-05 2.88751e-08
-1.26473e-07 2.88751e-08 5.61156e-05

4.11395e-05 -5.28038e-06 -6.46734e-08
-5.28038e-06 4.97348e-05 -1.16115e-07
-6.46734e-08 -1.16115e-07 4.54739e-05

5.91401e-05 8.12394e-07 1.54749e-09
8.12394e-07 4.02121e-05 -6.31598e-08
1.54749e-09 -6.31598e-08 5.48874e-05

4.85344e-05 -5.25823e-06 -5.76082e-09
-5.25823e-06 4.29655e-05 -7.83002e-08
-5.76082e-09 -7.83002e-08 4.33591e-05

4.28973e-05 7.55369e-06 1.68337e-07
7.55369e-06 4.79843e-05 2.90322e-08
1.68337e-07 2.90322e-08 4.52633e-05

5.03072e-05 6.0153e-06 -2.58292e-09
6.0153e-06 3.84386e-05 7.49236e-08
-2.58292e-09 7.49236e-08 4.27532e-05

4.90643e-05 -3.38819e-06 3.8422e-09
-3.38819e-06 3.77257e-05 9.80769e-10
3.8422e-09 9.80769e-10 4.23321e-05

4.17569e-05 6.24678e-06 8.31157e-08
6.24678e-06 5.21441e-05 1.21184e-07
8.31157e-08 1.21184e-07 4.57119e-05

4.35379e-05 -5.1547e-06 1.29933e-07
-5.1547e-06 5.90783e-05 -1.27653e-07
1.29933e-07 -1.27653e-07 5.43207e-05

4.73092e-05 8.65864e-06 3.81337e-08
8.65864e-06 5.8132e-05 1.01771e-08
3.81337e-08 1.01771e-08 5.37233e-05

4.31308e-05 -6.25508e-06 1.43975e-07
-6.25508e-06 5.16976e-05 9.92133e-08
1.43975e-07 9.92133e-08 4.54831e-05

4.21793e-05 8.20074e-06 1.04357e-07
8.20074e-06 5.13359e-05 -1.21236e-07
1.04357e-07 -1.21236e-07 4.49503e-05

2.58337e-05 -6.97254e-06 1.89212e-07
-6.97254e-06 2.73324e-05 5.19479e-08
1.89212e-07 5.19479e-08 2.678e-05

2.51468e-05 8.10947e-06 -4.93212e-08
8.10947e-06 2.7115e-05 8.21951e-08
-4.93212e-08 8.21951e-08 2.63812e-05

4.68177e-05 6.77639e-06 4.01813e-08
6.77639e-06 6.18249e-05 -2.00592e-08
4.01813e-08 -2.00592e-08 5.73885e-05

5.00104e-05 -7.85962e-06 7.28819e-09
-7.85962e-06 5.95676e-05 -7.43408e-08
7.28819e-09 -7.43408e-08 5.71028e-05

4.35196e-05 7.51162e-06 -1.11174e-07
7.51162e-06 5.45334e-05 -6.41418e-08
-1.11174e-07 -6.41418e-08 4.88271e-05

2.54911e-05 2.76581e-06 -4.9909e-08
2.76581e-06 2.55068e-05 1.00525e-07
-4.9909e-08 1.00525e-07 2.79121e-05

2.50532e-05 -2.14416e-08 -1.77855e-09
-2.14416e-08 2.80052e-05 4.27309e-08
-1.77855e-09 4.27309e-08 2.81961e-05

5.73684e-05 -5.78506e-06 -6.74154e-08
-5.78506e-06 5.96752e-05 1.66263e-07
-6.74154e-08 1.66263e-07 5.97048e-05

5.77253e-05 2.37963e-06 1.76979e-08
2.37963e-06 6.15758e-05 -1.14398e-07
1.76979e-08 -1.14398e-07 5.95251e-05

6.15949e-05 -3.73055e-07 2.07637e-08
-3.73055e-07 4.18584e-05 -3.57299e-08
2.07637e-08 -3.57299e-08 5.19489e-05

5.7489e-05 -5.28689e-06 -4.8423e-08
-5.28689e-06 6.07137e-05 2.99922e-07
-4.8423e-08 2.99922e-07 5.96691e-05

5.80067e-05 1.57227e-06 -1.13483e-08
1.57227e-06 5.90034e-05 9.00163e-08
-1.13483e-08 9.00163e-08 5.95191e-05

4.09792e-05 -4.42326e-06 6.41108e-08
-4.42326e-06 5.39176e-05 1.32237e-07
6.41108e-08 1.32237e-07 4.94473e-05

7.07729e-05 7.56197e-06 -1.56852e-08
7.56197e-06 6.2981e-05 9.16239e-08
-1.56852e-08 9.16239e-08 6.12525e-05

7.27477e-05 -6.57087e-06 2.13946e-07
-6.57087e-06 5.72552e-05 -5.044e-08
2.13946e-07 -5.044e-08 6.18591e-05

5.42246e-05 -5.86765e-06 -8.78932e-08
-5.86765e-06 5.42475e-05 -9.95037e-08
-8.78932e-08 -9.95037e-08 5.60283e-05

5.44625e-05 4.34645e-06 4.72893e-08
4.34645e-06 5.54575e-05 -2.88804e-08
4.72893e-08 -2.88804e-08 5.5789e-05

5.78573e-05 4.97167e-07 -2.32506e-08
4.97167e-07 7.2866e-05 1.35064e-08
-2.32506e-08 1.35064e-08 6.11704e-05

5.92413e-05 3.43769e-06 6.18619e-08
3.43769e-06 6.63479e-05 9.49813e-08
6.18619e-08 9.49813e-08 6.14424e-05

3.03919e-05 2.35267e-06 1.4185e-07
2.35267e-06 3.78467e-05 5.26973e-08
1.4185e-07 5.26973e-08 3.18079e-05

3.73723e-05 2.44315e-06 -3.09916e-08
2.44315e-06 3.06988e-05 4.47086e-08
-3.09916e-08 4.47086e-08 3.18599e-05

4.6277e-05 6.86038e-06 -9.04406e-09
6.86038e-06 5.74219e-05 2.64258e-10
-9.04406e-09 2.64258e-10 5.2566e-05

4.22104e-05 -3.90388e-06 -1.87112e-07
-3.90388e-06 5.86065e-05 -6.02647e-08
-1.87112e-07 -6.02647e-08 5.30025e-05

6.83449e-05 -7.01643e-06 -7.49232e-08
-7.01643e-06 8.05408e-05 -4.6522e-08
-7.49232e-08 -4.6522e-08 6.3666e-05

7.30649e-05 6.38447e-06 -1.32601e-08
6.38447e-06 6.14923e-05 -4.77304e-07
-1.32601e-08 -4.77304e-07 6.37073e-05

4.85437e-05 8.10429e-06 -3.61524e-08
8.10429e-06 4.39471e-05 2.91546e-08
-3.61524e-08 2.91546e-08 4.4276e-05

5.64122e-05 2.7512e-06 -6.56151e-08
2.7512e-06 4.66293e-05 1.30239e-07
-6.56151e-08 1.30239e-07 5.29168e-05

5.59502e-05 -3.85414e-06 5.7879e-08
-3.85414e-06 4.63311e-05 1.25674e-07
5.7879e-08 1.25674e-07 5.29514e-05

6.24377e-05 -3.8132e-06 -1.66425e-08
-3.8132e-06 4.83147e-05 8.74888e-08
-1.66425e-08 8.74888e-08 5.80367e-05

4.6867e-05 1.80523e-06 9.97509e-09
1.80523e-06 3.43944e-05 8.31646e-08
9.97509e-09 8.31646e-08 3.85395e-05

8.13717e-05 -5.19995e-07 5.11655e-07
-5.19995e-07 6.0657e-05 2.51557e-07
5.11655e-07 2.51557e-07 6.3081e-05

7.83198e-05 -7.77003e-08 4.40793e-07
-7.77003e-08 7.06778e-05 -4.02336e-07
4.40793e-07 -4.02336e-07 6.2406e-05

4.94068e-05 8.9769e-06 -1.09902e-07
8.9769e-06 4.48291e-05 -4.4026e-08
-1.09902e-07 -4.4026e-08 4.80585e-05

5.7546e-05 2.05233e-06 -1.7449e-07
2.05233e-06 4.46265e-05 3.78417e-08
-1.7449e-07 3.78417e-08 5.0038e-05

3.98556e-05 7.1165e-06 7.00488e-08
7.1165e-06 4.26034e-05 -1.46022e-07
7.00488e-08 -1.46022e-07 3.84262e-05

6.27636e-05 -5.5119e-06 -2.52125e-07
-5.5119e-06 7.54991e-05 6.91801e-08
-2.52125e-07 6.91801e-08 6.19258e-05

6.22539e-05 2.57939e-06 -1.62467e-07
2.57939e-06 6.57521e-05 4.04135e-08
-1.62467e-07 4.04135e-08 6.2374e-05

6.3905e-05 7.46631e-06 4.76647e-08
7.46631e-06 5.1846e-05 2.38915e-09
4.76647e-08 2.38915e-09 5.81405e-05

5.19407e-05 -2.39839e-06 -1.30026e-07
-2.39839e-06 5.76196e-05 6.091e-08
-1.30026e-07 6.091e-08 5.40278e-05

4.60072e-05 1.58601e-06 -3.87268e-08
1.58601e-06 6.0587e-05 3.94244e-09
-3.87268e-08 3.94244e-09 5.42888e-05

6.19004e-05 -1.32984e-06 -2.69548e-08
-1.32984e-06 4.30349e-05 -5.37565e-08
-2.69548e-08 -5.37565e-08 5.43917e-05

6.26722e-05 1.06918e-06 1.26565e-07
1.06918e-06 4.33153e-05 3.57426e-08
1.26565e-07 3.57426e-08 5.44144e-05

4.28662e-05 -4.98819e-06 8.53559e-08
-4.98819e-06 4.00119e-05 6.24711e-08
8.53559e-08 6.24711e-08 3.79348e-05

5.56429e-05 4.47886e-07 -5.72354e-08
4.47886e-07 4.01628e-05 9.53751e-08
-5.72354e-08 9.53751e-08 4.59339e-05

6.20781e-05 1.25389e-06 -7.09622e-08
1.25389e-06 4.84128e-05 -7.57096e-08
-7.09622e-08 -7.57096e-08 5.70268e-05

6.04693e-05 -2.25038e-06 -1.63627e-08
-2.25038e-06 4.96198e-05 1.42016e-07
-1.63627e-08 1.42016e-07 5.70634e-05

5.70629e-05 -2.64087e-06 1.59803e-07
-2.64087e-06 4.36201e-05 4.27423e-08
1.59803e-07 4.27423e-08 5.00844e-05

6.16733e-05 -1.56168e-06 5.92215e-09
-1.56168e-06 4.68478e-05 1.18626e-07
5.92215e-09 1.18626e-07 5.48648e-05

6.26205e-05 8.27281e-07 1.10254e-07
8.27281e-07 4.691e-05 1.15383e-07
1.10254e-07 1.15383e-07 5.48662e-05

5.5876e-05 5.591e-06 3.54949e-08
5.591e-06 4.45706e-05 1.06578e-07
3.54949e-08 1.06578e-07 5.10918e-05

4.33679e-05 -7.9897e-06 -1.12838e-07
-7.9897e-06 4.22377e-05 -9.50405e-08
-1.12838e-07 -9.50405e-08 4.08246e-05

4.82858e-05 1.04949e-05 -4.24318e-08
1.04949e-05 5.89742e-05 -1.06687e-07
-4.24318e-08 -1.06687e-07 5.47055e-05

4.70091e-05 -9.08063e-06 -2.92453e-08
-9.08063e-06 5.45365e-05 -1.33262e-07
-2.92453e-08 -1.33262e-07 5.5398e-05

4.60606e-05 -6.64605e-06 5.55375e-08
-6.64605e-06 5.57426e-05 1.25198e-08
5.55375e-08 1.25198e-08 5.60753e-05

4.91144e-05 1.09453e-05 6.67212e-08
1.09453e-05 6.03464e-05 6.39612e-08
6.67212e-08 6.39612e-08 5.5331e-05

5.1355e-05 4.06866e-06 1.53257e-07
4.06866e-06 3.75362e-05 -1.56431e-08
1.53257e-07 -1.56431e-08 4.26804e-05

3.90909e-05 -4.93391e-06 -1.88998e-08
-4.93391e-06 3.40795e-05 1.58441e-08
-1.88998e-08 1.58441e-08 3.3568e-05

5.60426e-05 8.71366e-06 5.99938e-09
8.71366e-06 4.75933e-05 -1.39615e-07
5.99938e-09 -1.39615e-07 5.35615e-05

5.5015e-05 -2.71709e-06 1.35077e-08
-2.71709e-06 4.3794e-05 -2.20796e-08
1.35077e-08 -2.20796e-08 5.02542e-05

4.01892e-05 -3.95397e-06 -3.56403e-08
-3.95397e-06 3.33772e-05 -1.91505e-08
-3.56403e-08 -1.91505e-08 3.3874e-05

4.86509e-05 -6.66226e-06 6.81524e-08
-6.66226e-06 4.51126e-05 -1.36734e-07
6.81524e-08 -1.36734e-07 4.75033e-05

4.03924e-05 4.87197e-08 2.57211e-08
4.87197e-08 6.05055e-05 3.74336e-08
2.57211e-08 3.74336e-08 5.25023e-05

4.527e-05 1.16921e-06 2.48894e-08
1.16921e-06 5.57131e-05 -1.95937e-08
2.48894e-08 -1.95937e-08 5.21851e-05

4.3325e-05 9.411e-06 1.58476e-07
9.411e-06 4.39207e-05 -6.6304e-08
1.58476e-07 -6.6304e-08 4.22356e-05

4.28945e-05 -5.25573e-06 9.56367e-08
-5.25573e-06 3.46618e-05 -2.06442e-07
9.56367e-08 -2.06442e-07 3.63947e-05

5.09842e-05 9.79464e-06 3.86597e-08
9.79464e-06 5.25942e-05 -6.71569e-08
3.86597e-08 -6.71569e-08 5.53954e-05

5.02096e-05 -9.20464e-06 1.24691e-08
-9.20464e-06 5.60835e-05 9.45121e-08
1.24691e-08 9.45121e-08 5.46361e-05

4.14904e-05 -6.55084e-06 -7.87127e-08
-6.55084e-06 4.66746e-05 3.19164e-10
-7.87127e-08 3.19164e-10 4.22272e-05

4.27243e-05 -7.66026e-06 -1.78416e-08
-7.66026e-06 4.56147e-05 7.93138e-08
-1.78416e-08 7.93138e-08 4.16985e-05

5.49381e-05 6.86778e-06 9.2358e-08
6.86778e-06 4.51225e-05 -5.96844e-08
9.2358e-08 -5.96844e-08 5.05424e-05

6.46455e-05 4.33959e-06 -4.56461e-08
4.33959e-06 4.2623e-05 -3.68033e-08
-4.56461e-08 -3.68033e-08 5.78979e-05

6.45759e-05 -2.94928e-06 -4.30419e-08
-2.94928e-06 4.07144e-05 -7.45603e-08
-4.30419e-08 -7.45603e-08 5.79681e-05

3.94354e-05 5.4183e-06 7.39385e-08
5.4183e-06 5.11407e-05 1.60051e-07
7.39385e-08 1.60051e-07 4.3168e-05

4.96216e-05 8.12692e-06 -1.13183e-07
8.12692e-06 4.79433e-05 -2.75159e-08
-1.13183e-07 -2.75159e-08 4.86897e-05

3.08621e-05 1.13662e-06 -4.01662e-08
1.13662e-06 4.80145e-05 -1.04191e-07
-4.01662e-08 -1.04191e-07 3.77869e-05

3.24563e-05 -2.60489e-08 1.28455e-08
-2.60489e-08 4.70216e-05 -6.66642e-08
1.28455e-08 -6.66642e-08 3.7428e-05

4.72231e-05 1.48921e-07 3.42017e-08
1.48921e-07 3.09049e-05 1.55332e-07
3.42017e-08 1.55332e-07 3.69465e-05

4.50349e-05 -6.41409e-06 -1.8611e-08
-6.41409e-06 4.07689e-05 1.60817e-07
-1.8611e-08 1.60817e-07 4.21302e-05

6.29776e-05 -4.3859e-06 4.36084e-07
-4.3859e-06 7.00969e-05 -1.49395e-07
4.36084e-07 -1.49395e-07 6.33082e-05

7.80594e-05 3.0599e-06 3.50739e-07
3.0599e-06 7.93974e-05 2.60356e-07
3.50739e-07 2.60356e-07 6.27132e-05

4.85695e-05 7.68528e-06 -2.25717e-08
7.68528e-06 3.80006e-05 1.10514e-07
-2.25717e-08 1.10514e-07 4.20843e-05

5.17712e-05 -3.19671e-06 -1.98658e-07
-3.19671e-06 3.74465e-05 -9.14703e-09
-1.98658e-07 -9.14703e-09 4.3223e-05

4.04366e-05 5.40414e-06 -5.28454e-08
5.40414e-06 3.31064e-05 1.62441e-08
-5.28454e-08 1.62441e-08 3.43195e-05

4.36634e-05 -5.68388e-06 1.7975e-07
-5.68388e-06 5.41843e-05 3.76704e-08
1.7975e-07 3.76704e-08 5.20629e-05

4.65625e-05 1.00937e-05 2.62454e-08
1.00937e-05 5.67224e-05 4.90015e-08
2.62454e-08 4.90015e-08 5.13992e-05

6.15926e-05 -3.3831e-07 2.26872e-08
-3.3831e-07 4.17289e-05 -9.07205e-08
2.26872e-08 -9.07205e-08 5.19239e-05

3.67117e-05 5.11489e-06 4.08488e-08
5.11489e-06 5.19575e-05 1.06818e-07
4.08488e-08 1.06818e-07 4.3584e-05

4.46611e-05 -6.48116e-06 7.33296e-08
-6.48116e-06 6.30365e-05 5.10958e-08
7.33296e-08 5.10958e-08 5.76534e-05

5.01335e-05 9.72412e-06 5.20525e-08
9.72412e-06 6.08515e-05 9.57658e-08
5.20525e-08 9.57658e-08 5.71794e-05

3.97277e-05 6.16491e-06 -4.43879e-08
6.16491e-06 4.33447e-05 -1.38611e-07
-4.43879e-08 -1.38611e-07 3.77927e-05

4.22443e-05 6.40334e-06 -1.70005e-07
6.40334e-06 4.11767e-05 -3.33143e-08
-1.70005e-07 -3.33143e-08 3.73292e-05

4.05376e-05 5.35991e-06 -9.10754e-08
5.35991e-06 3.25507e-05 1.24224e-07
-9.10754e-08 1.24224e-07 3.4525e-05

4.81084e-05 1.05121e-05 1.37613e-08
1.05121e-05 6.13954e-05 9.55942e-08
1.37613e-08 9.55942e-08 5.55588e-05

4.64411e-05 -7.99503e-06 -1.10012e-07
-7.99503e-06 5.40624e-05 1.56734e-07
-1.10012e-07 1.56734e-07 5.63425e-05

6.53211e-05 4.49768e-07 6.67283e-08
4.49768e-07 4.19868e-05 -7.96833e-08
6.67283e-08 -7.96833e-08 5.5635e-05

4.92775e-05 7.52015e-06 1.06996e-07
7.52015e-06 5.42899e-05 1.3764e-07
1.06996e-07 1.3764e-07 5.62686e-05

4.95636e-05 -8.9656e-06 1.42185e-08
-8.9656e-06 5.93468e-05 8.98798e-08
1.42185e-08 8.98798e-08 5.56951e-05

4.90035e-05 8.61124e-06 -9.06626e-08
8.61124e-06 5.10589e-05 8.39097e-09
-9.06626e-08 8.39097e-09 5.15434e-05

3.57577e-05 -2.05007e-06 1.15447e-09
-2.05007e-06 5.00254e-05 -1.26387e-07
1.15447e-09 -1.26387e-07 4.01071e-05

3.75471e-05 -2.17745e-06 -3.01577e-08
-2.17745e-06 4.78209e-05 -4.21741e-08
-3.01577e-08 -4.21741e-08 3.97612e-05

4.77413e-05 -1.83994e-06 1.74552e-07
-1.83994e-06 3.69908e-05 -1.40803e-07
1.74552e-07 -1.40803e-07 3.92629e-05

4.49137e-05 -5.44481e-06 -1.39842e-08
-5.44481e-06 4.42899e-05 7.91631e-08
-1.39842e-08 7.91631e-08 4.36349e-05

4.52828e-05 1.06958e-06 2.26111e-08
1.06958e-06 5.45287e-05 2.62331e-08
2.26111e-08 2.62331e-08 4.76859e-05

4.04338e-05 3.80003e-07 2.40537e-08
3.80003e-07 5.71187e-05 3.949e-09
2.40537e-08 3.949e-09 4.80711e-05

3.61447e-05 -5.74018e-06 6.47431e-08
-5.74018e-06 4.28009e-05 -1.98884e-07
6.47431e-08 -1.98884e-07 3.61711e-05

3.61949e-05 -5.88436e-06 1.00543e-08
-5.88436e-06 4.09751e-05 2.20073e-08
1.00543e-08 2.20073e-08 3.63292e-05

6.58347e-05 -5.28444e-07 -2.68492e-08
-5.28444e-07 4.37725e-05 6.22137e-08
-2.68492e-08 6.22137e-08 5.57208e-05

6.49308e-05 6.09125e-07 9.4104e-08
6.09125e-07 4.35744e-05 -3.45279e-08
9.4104e-08 -3.45279e-08 5.57037e-05

4.62757e-05 -7.20318e-06 -1.01158e-07
-7.20318e-06 5.23551e-05 -8.5215e-08
-1.01158e-07 -8.5215e-08 5.283e-05

4.6961e-05 9.00807e-06 1.26334e-07
9.00807e-06 5.75777e-05 6.21876e-09
1.26334e-07 6.21876e-09 5.21537e-05

4.48423e-05 5.48022e-06 1.28841e-07
5.48022e-06 6.11509e-05 1.16137e-08
1.28841e-07 1.16137e-08 5.74907e-05

5.03137e-05 -8.50369e-06 9.62465e-08
-8.50369e-06 5.99792e-05 -1.05304e-07
9.62465e-08 -1.05304e-07 5.70508e-05

5.23275e-05 -7.24304e-06 1.57554e-08
-7.24304e-06 5.11669e-05 3.10766e-08
1.57554e-08 3.10766e-08 5.31237e-05

3.69302e-05 -3.86159e-06 -7.71162e-08
-3.86159e-06 5.17391e-05 6.98295e-08
-7.71162e-08 6.98295e-08 4.37539e-05

5.85053e-05 8.24925e-07 -8.82075e-08
8.24925e-07 5.56299e-05 -2.55172e-08
-8.82075e-08 -2.55172e-08 5.76521e-05

5.76924e-05 -3.3368e-06 2.11512e-07
-3.3368e-06 5.43937e-05 -9.06793e-08
2.11512e-07 -9.06793e-08 5.78101e-05

5.12578e-05 -4.90591e-06 -1.29812e-07
-4.90591e-06 4.6922e-05 -1.37504e-07
-1.29812e-07 -1.37504e-07 4.89036e-05

5.5812e-05 -4.49467e-06 2.76945e-08
-4.49467e-06 4.97152e-05 -2.1894e-07
2.76945e-08 -2.1894e-07 5.35679e-05

5.62121e-05 3.68785e-06 -4.40018e-08
3.68785e-06 5.22157e-05 -1.23449e-07
-4.40018e-08 -1.23449e-07 5.33693e-05

2.54157e-05 -1.99762e-06 4.22728e-08
-1.99762e-06 1.78006e-05 1.98887e-07
4.22728e-08 1.98887e-07 2.81837e-05

4.23098e-05 8.86689e-06 1.15717e-07
8.86689e-06 4.61721e-05 2.87238e-08
1.15717e-07 2.87238e-08 4.19138e-05

1.99909e-05 4.71694e-06 -3.605e-08
4.71694e-06 2.51267e-05 9.3814e-08
-3.605e-08 9.3814e-08 2.80183e-05

3.92271e-05 -5.04452e-06 -9.77566e-08
-5.04452e-06 5.14409e-05 1.32028e-07
-9.77566e-08 1.32028e-07 4.33899e-05

6.12046e-05 -4.43155e-06 8.65076e-08
-4.43155e-06 6.67069e-05 -3.36577e-08
8.65076e-08 -3.36577e-08 6.20213e-05

6.44646e-05 1.76101e-06 -2.10589e-08
1.76101e-06 6.25405e-05 -3.20167e-08
-2.10589e-08 -3.20167e-08 6.19976e-05

5.12588e-05 5.70821e-06 1.64163e-08
5.70821e-06 4.84905e-05 -7.54737e-08
1.64163e-08 -7.54737e-08 4.8618e-05

5.56479e-05 -1.66064e-07 -5.71461e-08
-1.66064e-07 3.96633e-05 7.34159e-08
-5.71461e-08 7.34159e-08 4.59669e-05

4.59763e-05 7.38043e-06 1.27873e-07
7.38043e-06 4.09316e-05 1.53811e-07
1.27873e-07 1.53811e-07 4.15204e-05

4.27239e-05 3.49202e-06 1.24149e-07
3.49202e-06 5.95006e-05 -7.78682e-08
1.24149e-07 -7.78682e-08 5.29887e-05

4.65049e-05 -5.19838e-06 3.43016e-08
-5.19838e-06 5.61782e-05 1.43372e-07
3.43016e-08 1.43372e-07 5.26323e-05

5.65101e-05 8.34329e-06 6.18115e-08
8.34329e-06 6.10048e-05 9.51278e-08
6.18115e-08 9.51278e-08 5.87468e-05

5.59166e-05 -3.97274e-06 -1.2306e-08
-3.97274e-06 6.33165e-05 4.5496e-08
-1.2306e-08 4.5496e-08 5.88347e-05

4.76599e-05 1.1184e-05 3.44683e-08
1.1184e-05 6.04016e-05 6.10387e-08
3.44683e-08 6.10387e-08 5.5387e-05

4.19597e-05 -1.09906e-05 -1.8333e-07
-1.09906e-05 5.65654e-05 3.42111e-08
-1.8333e-07 3.42111e-08 5.62538e-05

4.16101e-05 5.66407e-06 7.28646e-08
5.66407e-06 5.47027e-05 2.14522e-08
7.28646e-08 2.14522e-08 4.93867e-05

4.08565e-05 2.97886e-06 1.46577e-07
2.97886e-06 5.37593e-05 -4.09536e-08
1.46577e-07 -4.09536e-08 4.6422e-05

5.04864e-05 -6.00178e-06 -2.64427e-08
-6.00178e-06 4.93903e-05 -2.26779e-07
-2.64427e-08 -2.26779e-07 5.1756e-05

5.03692e-05 6.99934e-06 -3.9917e-08
6.99934e-06 5.1378e-05 -1.24041e-07
-3.9917e-08 -1.24041e-07 5.14322e-05

4.58766e-05 6.82956e-06 1.19121e-07
6.82956e-06 4.63291e-05 2.4971e-08
1.19121e-07 2.4971e-08 4.34346e-05

4.31766e-05 -6.79864e-06 1.53138e-07
-6.79864e-06 5.42374e-05 -9.44938e-08
1.53138e-07 -9.44938e-08 4.9062e-05

3.85022e-05 -1.02688e-06 -1.34892e-07
-1.02688e-06 5.6222e-05 -7.08971e-08
-1.34892e-07 -7.08971e-08 4.69246e-05

2.98914e-05 4.93262e-06 1.5039e-07
4.93262e-06 3.27463e-05 -2.58837e-08
1.5039e-07 -2.58837e-08 2.94734e-05

3.29435e-05 4.70354e-06 8.93029e-08
4.70354e-06 3.03138e-05 3.3428e-08
8.93029e-08 3.3428e-08 2.9533e-05

3.89966e-05 -5.98019e-06 5.23845e-08
-5.98019e-06 4.15125e-05 -2.06216e-07
5.23845e-08 -2.06216e-07 3.70053e-05

5.71209e-05 -1.93899e-06 1.56493e-07
-1.93899e-06 4.1156e-05 -4.27633e-08
1.56493e-07 -4.27633e-08 4.953e-05

6.79386e-05 -5.33154e-06 3.02834e-08
-5.33154e-06 7.47843e-05 -2.99729e-07
3.02834e-08 -2.99729e-07 6.34504e-05

7.48356e-05 8.99831e-06 2.02027e-07
8.99831e-06 6.38169e-05 4.08392e-08
2.02027e-07 4.08392e-08 6.34652e-05

6.38673e-05 7.49987e-06 -1.20756e-07
7.49987e-06 6.39973e-05 -1.69867e-07
-1.20756e-07 -1.69867e-07 6.07681e-05

6.26878e-05 -1.65566e-06 3.43279e-08
-1.65566e-06 5.83996e-05 -1.08526e-07
3.43279e-08 -1.08526e-07 6.12141e-05

5.72788e-05 3.5996e-07 1.53804e-07
3.5996e-07 4.19677e-05 5.07611e-08
1.53804e-07 5.07611e-08 5.19817e-05

4.85666e-05 -9.94672e-06 -9.3897e-08
-9.94672e-06 5.88593e-05 -9.13604e-08
-9.3897e-08 -9.13604e-08 5.5397e-05

4.40073e-05 1.07569e-05 1.17829e-07
1.07569e-05 5.61456e-05 1.21736e-07
1.17829e-07 1.21736e-07 5.60457e-05

3.21614e-05 -5.15501e-06 3.66649e-08
-5.15501e-06 3.42177e-05 2.56624e-08
3.66649e-08 2.56624e-08 3.07713e-05

3.20908e-05 6.20394e-06 -2.48282e-08
6.20394e-06 3.31834e-05 1.73602e-08
-2.48282e-08 1.73602e-08 3.10745e-05

2.99552e-05 -2.28185e-06 5.74546e-08
-2.28185e-06 3.94374e-05 -1.93324e-08
5.74546e-08 -1.93324e-08 3.29222e-05

3.24638e-05 -3.07714e-06 2.13487e-08
-3.07714e-06 4.11881e-05 -1.54816e-07
2.13487e-08 -1.54816e-07 3.31916e-05

4.04368e-05 -1.93939e-06 -5.9577e-08
-1.93939e-06 3.0575e-05 -5.86855e-08
-5.9577e-08 -5.86855e-08 3.26966e-05

4.0349e-05 6.70787e-06 2.52118e-09
6.70787e-06 3.82274e-05 1.18622e-07
2.52118e-09 1.18622e-07 3.7665e-05

2.61555e-05 2.17182e-06 5.56577e-09
2.17182e-06 3.85818e-05 -7.83063e-08
5.56577e-09 -7.83063e-08 3.1069e-05

3.73265e-05 6.56227e-07 -1.06191e-07
6.56227e-07 2.60479e-05 1.07331e-07
-1.06191e-07 1.07331e-07 3.11021e-05

5.72174e-05 -5.96938e-07 -1.87812e-07
-5.96938e-07 6.95997e-05 8.28975e-08
-1.87812e-07 8.28975e-08 6.04692e-05

5.84984e-05 -3.07937e-06 -5.08839e-08
-3.07937e-06 6.3183e-05 -1.20614e-07
-5.08839e-08 -1.20614e-07 6.06397e-05

5.87979e-05 -2.48146e-06 7.67275e-08
-2.48146e-06 4.90793e-05 -1.43467e-09
7.67275e-08 -1.43467e-09 5.47812e-05

6.13664e-05 1.10131e-06 -1.11287e-07
1.10131e-06 3.62612e-05 7.3223e-08
-1.11287e-07 7.3223e-08 5.61906e-05

3.58253e-05 -4.49615e-06 3.68203e-08
-4.49615e-06 4.47329e-05 3.8542e-08
3.68203e-08 3.8542e-08 3.85948e-05

3.55893e-05 -3.61739e-06 2.4164e-08
-3.61739e-06 4.64924e-05 -9.86578e-08
2.4164e-08 -9.86578e-08 3.91168e-05

5.81447e-05 2.56064e-06 1.45841e-07
2.56064e-06 4.22669e-05 1.08356e-08
1.45841e-07 1.08356e-08 5.22282e-05

6.03826e-05 -2.21186e-06 -1.60729e-07
-2.21186e-06 6.26169e-05 2.57699e-07
-1.60729e-07 2.57699e-07 6.08402e-05

6.33148e-05 -1.77186e-07 5.98645e-08
-1.77186e-07 5.95693e-05 6.3348e-08
5.98645e-08 6.3348e-08 6.07602e-05

5.44778e-05 -5.26936e-06 -1.44233e-07
-5.26936e-06 5.28502e-05 -7.66927e-08
-1.44233e-07 -7.66927e-08 5.40395e-05

4.9044e-05 8.45241e-06 -5.78255e-08
8.45241e-06 5.1682e-05 -1.25041e-07
-5.78255e-08 -1.25041e-07 5.26968e-05

4.72878e-05 -8.52034e-06 -1.85691e-08
-8.52034e-06 5.60868e-05 1.09125e-07
-1.85691e-08 1.09125e-07 5.1932e-05

5.87677e-05 -2.00592e-06 7.94462e-08
-2.00592e-06 4.21194e-05 -5.53691e-08
7.94462e-08 -5.53691e-08 5.36883e-05

4.47039e-05 6.51881e-06 -9.85499e-08
6.51881e-06 5.42463e-05 -1.07003e-07
-9.85499e-08 -1.07003e-07 5.20872e-05

4.69092e-05 -9.03612e-06 -1.07444e-07
-9.03612e-06 5.55718e-05 5.06197e-08
-1.07444e-07 5.06197e-08 5.15488e-05

2.44933e-05 -1.0054e-05 2.86834e-08
-1.0054e-05 2.59339e-05 1.79479e-07
2.86834e-08 1.79479e-07 2.58553e-05

3.83193e-05 2.25038e-06 9.08184e-08
2.25038e-06 5.59064e-05 -2.45762e-08
9.08184e-08 -2.45762e-08 4.66918e-05

4.17422e-05 -2.00875e-06 -1.79529e-07
-2.00875e-06 5.27993e-05 -4.49708e-08
-1.79529e-07 -4.49708e-08 4.64228e-05

5.55566e-05 4.17263e-07 -5.18832e-09
4.17263e-07 7.22395e-05 -2.50991e-07
-5.18832e-09 -2.50991e-07 6.07667e-05

5.99069e-05 -2.27193e-07 -2.51664e-08
-2.27193e-07 6.24198e-05 2.18433e-07
-2.51664e-08 2.18433e-07 6.1071e-05

6.45821e-05 -2.59945e-07 4.3043e-08
-2.59945e-07 4.644e-05 3.21753e-08
4.3043e-08 3.21753e-08 5.75521e-05

6.61339e-05 4.45779e-07 -1.13834e-07
4.45779e-07 4.58038e-05 -5.11678e-08
-1.13834e-07 -5.11678e-08 5.75157e-05

5.80619e-05 9.70529e-06 -4.67072e-08
9.70529e-06 5.29476e-05 5.6132e-08
-4.67072e-08 5.6132e-08 5.72122e-05

5.58565e-05 -5.53509e-06 -1.67295e-07
-5.53509e-06 5.28008e-05 -6.60188e-08
-1.67295e-07 -6.60188e-08 5.69661e-05

6.58383e-05 3.60484e-06 -1.35149e-07
3.60484e-06 6.14795e-05 -1.08657e-07
-1.35149e-07 -1.08657e-07 6.02776e-05

6.24851e-05 -1.7045e-06 3.90579e-08
-1.7045e-06 6.17158e-05 -8.82228e-08
3.90579e-08 -8.82228e-08 6.05415e-05

6.78383e-05 4.12781e-06 -1.00939e-08
4.12781e-06 6.44107e-05 5.32477e-08
-1.00939e-08 5.32477e-08 6.30044e-05

6.6563e-05 -1.3097e-05 2.53808e-07
-1.3097e-05 7.38805e-05 -2.86653e-07
2.53808e-07 -2.86653e-07 6.29965e-05

5.06726e-05 9.98969e-06 4.44013e-08
9.98969e-06 6.10459e-05 1.02273e-07
4.44013e-08 1.02273e-07 5.74112e-05

4.78185e-05 -1.23448e-05 1.19894e-07
-1.23448e-05 5.58937e-05 1.06608e-07
1.19894e-07 1.06608e-07 5.80503e-05

5.17193e-05 5.16498e-06 -2.57864e-09
5.16498e-06 4.38095e-05 1.15042e-08
-2.57864e-09 1.15042e-08 4.76763e-05

4.2566e-05 4.28615e-06 1.13381e-07
4.28615e-06 5.60473e-05 -3.75578e-09
1.13381e-07 -3.75578e-09 4.98228e-05

4.63522e-05 -7.20275e-06 1.73435e-07
-7.20275e-06 4.62554e-05 -8.30628e-08
1.73435e-07 -8.30628e-08 4.711e-05

4.64932e-05 -5.34698e-06 -1.82134e-08
-5.34698e-06 5.47153e-05 -2.06819e-07
-1.82134e-08 -2.06819e-07 4.95264e-05

5.15128e-05 -4.67925e-06 -1.0112e-07
-4.67925e-06 4.31165e-05 1.74024e-09
-1.0112e-07 1.74024e-09 4.78484e-05

4.62473e-05 5.94557e-06 -1.12918e-08
5.94557e-06 5.53796e-05 -1.35391e-07
-1.12918e-08 -1.35391e-07 4.93649e-05

4.77815e-05 8.38695e-06 1.13176e-09
8.38695e-06 4.76022e-05 -7.2585e-08
1.13176e-09 -7.2585e-08 4.67628e-05

5.08554e-05 1.0861e-05 -1.33358e-07
1.0861e-05 5.62953e-05 5.95055e-08
-1.33358e-07 5.95055e-08 5.78198e-05

5.15757e-05 -8.26698e-06 9.94736e-08
-8.26698e-06 5.88496e-05 6.77865e-08
9.94736e-08 6.77865e-08 5.75023e-05

6.02279e-05 4.72703e-06 -7.32405e-08
4.72703e-06 4.99397e-05 -1.10793e-07
-7.32405e-08 -1.10793e-07 5.54334e-05

7.8915e-05 2.43201e-06 -2.36678e-07
2.43201e-06 7.53179e-05 -3.11317e-07
-2.36678e-07 -3.11317e-07 6.25799e-05

6.27236e-05 3.49377e-06 -5.14731e-08
3.49377e-06 6.64968e-05 2.18494e-07
-5.14731e-08 2.18494e-07 6.31923e-05

5.44892e-05 -5.38014e-06 -1.44425e-07
-5.38014e-06 4.75715e-05 -7.93665e-08
-1.44425e-07 -7.93665e-08 5.27741e-05

6.54102e-05 2.13465e-07 3.3908e-08
2.13465e-07 5.10001e-05 1.07175e-07
3.3908e-08 1.07175e-07 5.95206e-05

3.04496e-05 -4.29119e-06 4.03913e-08
-4.29119e-06 3.30593e-05 1.42539e-07
4.03913e-08 1.42539e-07 3.00371e-05

3.37303e-05 -3.21116e-06 -1.19369e-07
-3.21116e-06 3.04879e-05 -6.09601e-08
-1.19369e-07 -6.09601e-08 3.01127e-05

6.38436e-05 5.26688e-07 1.29664e-07
5.26688e-07 4.95319e-05 1.39725e-07
1.29664e-07 1.39725e-07 5.84386e-05

6.61244e-05 -5.86788e-07 -9.21901e-08
-5.86788e-07 4.82461e-05 -7.66276e-08
-9.21901e-08 -7.66276e-08 5.83698e-05

6.52891e-05 1.26071e-06 -6.9474e-08
1.26071e-06 5.61769e-05 4.4993e-08
-6.9474e-08 4.4993e-08 5.92227e-05

4.21801e-05 -2.33557e-06 -1.87389e-07
-2.33557e-06 5.61297e-05 -3.17714e-08
-1.87389e-07 -3.17714e-08 4.99059e-05

5.13646e-05 4.30744e-06 1.57768e-07
4.30744e-06 4.26808e-05 1.37511e-07
1.57768e-07 1.37511e-07 4.39069e-05

5.40005e-05 -6.65803e-06 -6.73185e-08
-6.65803e-06 5.58869e-05 6.44921e-08
-6.73185e-08 6.44921e-08 5.63997e-05

5.41592e-05 5.43816e-06 4.35185e-08
5.43816e-06 5.73035e-05 1.14582e-09
4.35185e-08 1.14582e-09 5.60304e-05

7.46001e-05 1.27134e-06 3.15017e-08
1.27134e-06 8.21784e-05 3.33765e-07
3.15017e-08 3.33765e-07 6.26801e-05

7.45668e-05 5.90167e-06 -1.23192e-07
5.90167e-06 6.02635e-05 -3.36901e-07
-1.23192e-07 -3.36901e-07 6.33166e-05

5.34655e-05 -3.84294e-06 -4.95487e-08
-3.84294e-06 4.58014e-05 -1.5304e-07
-4.95487e-08 -1.5304e-07 4.97395e-05

6.21357e-05 2.67502e-08 -7.17674e-08
2.67502e-08 5.32078e-05 -4.3038e-08
-7.17674e-08 -4.3038e-08 5.79696e-05

6.04949e-05 -1.62217e-06 -2.73273e-08
-1.62217e-06 5.48398e-05 -3.47583e-07
-2.73273e-08 -3.47583e-07 5.80614e-05

5.00707e-05 -7.55357e-06 2.5114e-08
-7.55357e-06 5.77287e-05 1.4979e-07
2.5114e-08 1.4979e-07 5.44729e-05

4.7247e-05 3.84513e-06 4.79235e-08
3.84513e-06 5.78049e-05 -1.3087e-07
4.79235e-08 -1.3087e-07 5.48549e-05

4.65901e-05 6.79096e-06 5.29339e-08
6.79096e-06 5.47389e-05 1.10825e-07
5.29339e-08 1.10825e-07 5.58623e-05

4.8772e-05 -9.96081e-06 9.05521e-08
-9.96081e-06 5.88598e-05 -1.13014e-07
9.05521e-08 -1.13014e-07 5.52494e-05

2.69029e-05 1.24804e-05 -5.08388e-08
1.24804e-05 2.55197e-05 -2.04347e-07
-5.08388e-08 -2.04347e-07 2.6229e-05

5.36233e-05 6.86624e-06 -4.77376e-08
6.86624e-06 6.11053e-05 -1.14371e-07
-4.77376e-08 -1.14371e-07 5.87381e-05

5.34413e-05 -5.79813e-06 2.38366e-08
-5.79813e-06 6.10461e-05 -8.96067e-08
2.38366e-08 -8.96067e-08 5.86781e-05

4.4711e-05 6.3189e-06 -1.02391e-07
6.3189e-06 5.64829e-05 -8.28376e-08
-1.02391e-07 -8.28376e-08 5.43896e-05

4.7092e-05 -8.38007e-06 -9.51998e-08
-8.38007e-06 5.75014e-05 1.13228e-07
-9.51998e-08 1.13228e-07 5.38538e-05

5.18477e-05 -3.92453e-06 -2.04806e-07
-3.92453e-06 4.16695e-05 8.5958e-08
-2.04806e-07 8.5958e-08 4.45501e-05

5.58728e-05 7.64758e-06 2.31974e-08
7.64758e-06 5.11848e-05 1.02278e-07
2.31974e-08 1.02278e-07 5.45629e-05

5.92289e-05 7.26248e-06 -1.27318e-08
7.26248e-06 5.45454e-05 -7.39474e-08
-1.27318e-08 -7.39474e-08 5.7523e-05

5.56917e-05 -5.20341e-06 -1.16485e-07
-5.20341e-06 5.61691e-05 8.31808e-08
-1.16485e-07 8.31808e-08 5.73608e-05

6.02159e-05 4.35751e-06 -6.96811e-08
4.35751e-06 4.30161e-05 6.67872e-08
-6.96811e-08 6.67872e-08 5.43498e-05

6.3306e-05 1.06671e-06 1.62394e-07
1.06671e-06 5.74441e-05 -2.29523e-08
1.62394e-07 -2.29523e-08 6.01567e-05

6.55307e-05 -1.50972e-06 -5.55159e-08
-1.50972e-06 5.37388e-05 1.05657e-07
-5.55159e-08 1.05657e-07 6.00812e-05

6.15166e-05 1.53658e-06 3.25394e-07
1.53658e-06 7.17179e-05 -1.64295e-07
3.25394e-07 -1.64295e-07 6.27168e-05

6.27495e-05 -2.84975e-06 3.29026e-07
-2.84975e-06 8.12659e-05 2.63279e-07
3.29026e-07 2.63279e-07 6.2185e-05

2.71227e-05 -1.30812e-06 -1.55729e-07
-1.30812e-06 1.9306e-05 2.95306e-08
-1.55729e-07 2.95306e-08 2.79281e-05

1.78884e-05 1.21994e-07 1.6982e-07
1.21994e-07 2.72054e-05 1.81999e-07
1.6982e-07 1.81999e-07 2.80307e-05

5.0217e-05 8.58601e-06 -9.38438e-08
8.58601e-06 6.0829e-05 -4.92387e-08
-9.38438e-08 -4.92387e-08 5.54806e-05

5.00843e-05 -7.35306e-06 8.31175e-08
-7.35306e-06 5.45582e-05 -7.72701e-09
8.31175e-08 -7.72701e-09 5.60331e-05

2.50687e-05 4.31237e-06 -7.97757e-09
4.31237e-06 2.41783e-05 1.73835e-07
-7.97757e-09 1.73835e-07 2.76193e-05

2.58374e-05 6.22103e-06 -4.5901e-08
6.22103e-06 2.36124e-05 -2.03585e-07
-4.5901e-08 -2.03585e-07 2.75685e-05

5.23728e-05 -1.05799e-05 -4.56239e-07
-1.05799e-05 7.80954e-05 -7.4173e-07
-4.56239e-07 -7.4173e-07 6.36395e-05

6.15512e-05 7.24331e-06 -2.8896e-07
7.24331e-06 7.79701e-05 4.86896e-07
-2.8896e-07 4.86896e-07 6.36335e-05

5.51319e-05 8.19243e-06 9.88231e-08
8.19243e-06 5.0797e-05 3.66994e-08
9.88231e-08 3.66994e-08 5.37878e-05

5.01947e-05 8.10499e-06 -7.61775e-08
8.10499e-06 5.56021e-05 6.33858e-08
-7.61775e-08 6.33858e-08 5.45477e-05

5.03858e-05 -8.35672e-06 6.12989e-08
-8.35672e-06 5.50978e-05 1.31409e-07
6.12989e-08 1.31409e-07 5.5013e-05

4.69208e-05 8.07469e-06 3.67274e-08
8.07469e-06 5.11471e-05 -1.33054e-07
3.67274e-08 -1.33054e-07 4.79582e-05

4.58629e-05 -6.53101e-06 1.3405e-07
-6.53101e-06 5.00283e-05 -1.50994e-07
1.3405e-07 -1.50994e-07 4.84145e-05

3.04049e-05 -8.17379e-07 -2.86697e-08
-8.17379e-07 4.01966e-05 -4.26229e-08
-2.86697e-08 -4.26229e-08 3.33896e-05

3.15758e-05 -2.67225e-06 -6.98575e-09
-2.67225e-06 4.12789e-05 -1.57679e-07
-6.98575e-09 -1.57679e-07 3.32822e-05

4.07481e-05 -9.8066e-07 -2.57524e-08
-9.8066e-07 3.07166e-05 1.4708e-07
-2.57524e-08 1.4708e-07 3.3e-05

4.70043e-05 9.21541e-06 1.2755e-07
9.21541e-06 5.43096e-05 -2.38692e-11
1.2755e-07 -2.38692e-11 5.07504e-05

4.61728e-05 -7.49934e-06 -6.13529e-08
-7.49934e-06 5.21807e-05 1.31536e-07
-6.13529e-08 1.31536e-07 5.12817e-05

2.74749e-05 1.34902e-06 -1.55036e-07
1.34902e-06 3.77278e-05 3.32725e-08
-1.55036e-07 3.32725e-08 3.08779e-05

3.7398e-05 2.42177e-06 -2.16873e-08
2.42177e-06 2.73431e-05 1.43588e-07
-2.16873e-08 1.43588e-07 3.08782e-05

5.31924e-05 -8.85926e-06 -1.72598e-07
-8.85926e-06 5.50242e-05 4.16818e-08
-1.72598e-07 4.16818e-08 5.79066e-05

5.28284e-05 7.93391e-06 -6.08703e-08
7.93391e-06 6.04793e-05 -4.28646e-08
-6.08703e-08 -4.28646e-08 5.74419e-05

5.35179e-05 -7.71379e-06 -1.40939e-07
-7.71379e-06 5.90545e-05 1.51457e-07
-1.40939e-07 1.51457e-07 5.82172e-05

5.37494e-05 6.38912e-06 -4.38075e-08
6.38912e-06 6.01222e-05 -1.02012e-07
-4.38075e-08 -1.02012e-07 5.78995e-05

2.33756e-05 -3.91357e-06 5.3896e-08
-3.91357e-06 2.36188e-05 -9.27081e-08
5.3896e-08 -9.27081e-08 2.69311e-05

2.37748e-05 -3.90893e-06 1.79375e-07
-3.90893e-06 2.48872e-05 1.6658e-07
1.79375e-07 1.6658e-07 2.70854e-05

5.01626e-05 7.68674e-06 -6.26201e-08
7.68674e-06 5.50183e-05 7.31149e-08
-6.26201e-08 7.31149e-08 5.23692e-05

5.03455e-05 -6.44375e-06 1.82518e-08
-6.44375e-06 5.23735e-05 1.62294e-07
1.82518e-08 1.62294e-07 5.28297e-05

6.13993e-05 2.25967e-06 3.52978e-07
2.25967e-06 6.99182e-05 1.14387e-07
3.52978e-07 1.14387e-07 6.11713e-05

6.0928e-05 -9.99374e-07 3.28863e-07
-9.99374e-07 6.29326e-05 -1.42726e-07
3.28863e-07 -1.42726e-07 6.15519e-05

4.98613e-05 -8.25886e-06 7.59362e-09
-8.25886e-06 6.14946e-05 -2.4402e-07
7.59362e-09 -2.4402e-07 5.89794e-05

5.17333e-05 7.96712e-06 3.97665e-08
7.96712e-06 6.33389e-05 1.16739e-07
3.97665e-08 1.16739e-07 5.85191e-05

6.05562e-05 -1.83376e-06 -2.14303e-07
-1.83376e-06 5.50801e-05 -2.30858e-07
-2.14303e-07 -2.30858e-07 6.00709e-05

6.33556e-05 1.47071e-08 6.23717e-08
1.47071e-08 5.27186e-05 4.05933e-08
6.23717e-08 4.05933e-08 5.99913e-05

5.33572e-05 7.33067e-06 4.35821e-08
7.33067e-06 5.45447e-05 -7.47596e-08
4.35821e-08 -7.47596e-08 5.57316e-05

5.21776e-05 -7.87718e-06 -1.11247e-10
-7.87718e-06 5.63656e-05 7.90034e-08
-1.11247e-10 7.90034e-08 5.51259e-05

6.77655e-05 2.96429e-06 -1.60046e-07
2.96429e-06 5.91636e-05 2.78022e-08
-1.60046e-07 2.78022e-08 6.17941e-05

6.71635e-05 1.42216e-06 -1.24644e-07
1.42216e-06 6.25334e-05 -4.95873e-09
-1.24644e-07 -4.95873e-09 6.29415e-05

6.40106e-05 -2.48544e-06 -6.64725e-09
-2.48544e-06 6.23446e-05 1.02953e-07
-6.64725e-09 1.02953e-07 6.18645e-05

5.97779e-05 -1.09158e-06 -2.48966e-07
-1.09158e-06 6.85492e-05 -1.21289e-07
-2.48966e-07 -1.21289e-07 6.29597e-05

5.74969e-05 1.09121e-06 -2.28245e-07
1.09121e-06 7.60651e-05 -3.09128e-07
-2.28245e-07 -3.09128e-07 6.154e-05

7.13839e-05 8.60247e-06 1.32497e-07
8.60247e-06 6.57262e-05 7.49177e-08
1.32497e-07 7.49177e-08 6.15159e-05

6.66506e-05 -3.5469e-06 -9.99533e-09
-3.5469e-06 6.23003e-05 -5.49895e-08
-9.99533e-09 -5.49895e-08 6.19474e-05

5.81394e-05 -1.66368e-06 -8.68047e-08
-1.66368e-06 6.94834e-05 2.27666e-07
-8.68047e-08 2.27666e-07 6.18735e-05

6.15431e-05 4.87089e-06 4.28344e-08
4.87089e-06 6.75164e-05 1.03831e-07
4.28344e-08 1.03831e-07 6.25324e-05

9.20662e-05 -1.56316e-06 -2.04395e-06
-1.56316e-06 6.26214e-05 1.06229e-06
-2.04395e-06 1.06229e-06 6.37922e-05

8.27476e-05 9.60834e-07 2.11333e-06
9.60834e-07 8.43582e-05 1.61251e-06
2.11333e-06 1.61251e-06 6.36825e-05

6.44269e-05 -6.48128e-06 7.77834e-08
-6.48128e-06 6.03955e-05 -2.62317e-07
7.77834e-08 -2.62317e-07 6.2534e-05

6.45904e-05 6.31105e-06 -2.44004e-08
6.31105e-06 6.4881e-05 1.91744e-09
-2.44004e-08 1.91744e-09 6.19884e-05

5.80554e-05 3.9538e-06 1.2484e-07
3.9538e-06 6.46246e-05 1.00743e-07
1.2484e-07 1.00743e-07 6.0449e-05

6.65762e-05 1.54439e-06 -2.30347e-08
1.54439e-06 6.64424e-05 -4.40705e-09
-2.30347e-08 -4.40705e-09 6.33124e-05

6.74667e-05 -1.06758e-05 -5.7867e-08
-1.06758e-05 6.61271e-05 -5.66989e-08
-5.7867e-08 -5.66989e-08 6.20677e-05

6.62662e-05 -1.25288e-05 6.96515e-08
-1.25288e-05 7.47097e-05 5.33811e-07
6.96515e-08 5.33811e-07 6.32317e-05

5.88616e-05 -5.01078e-06 1.76931e-07
-5.01078e-06 6.23978e-05 -2.12181e-07
1.76931e-07 -2.12181e-07 6.06871e-05

5.94555e-05 -8.69461e-06 1.66216e-07
-8.69461e-06 6.34953e-05 -8.0894e-08
1.66216e-07 -8.0894e-08 6.11018e-05

6.08874e-05 -5.88972e-06 7.78194e-08
-5.88972e-06 6.51035e-05 -1.08424e-07
7.78194e-08 -1.08424e-07 6.22472e-05

5.79912e-05 3.52262e-06 1.15747e-07
3.52262e-06 6.36966e-05 -1.06726e-08
1.15747e-07 -1.06726e-08 6.09974e-05

6.43587e-05 2.13509e-06 -2.87693e-08
2.13509e-06 6.39433e-05 3.43344e-08
-2.87693e-08 3.43344e-08 6.22287e-05

4.4194e-05 6.84073e-06 5.39566e-08
6.84073e-06 4.99158e-05 1.18851e-07
5.39566e-08 1.18851e-07 4.57797e-05

5.0071e-05 3.25841e-06 1.21034e-07
3.25841e-06 5.8452e-05 1.7252e-09
1.21034e-07 1.7252e-09 5.43268e-05

4.8237e-05 2.6856e-06 -9.89464e-08
2.6856e-06 5.82555e-05 1.02628e-07
-9.89464e-08 1.02628e-07 5.45716e-05

5.55737e-05 3.9658e-06 1.61898e-08
3.9658e-06 4.01424e-05 8.9524e-08
1.61898e-08 8.9524e-08 4.90558e-05

5.27264e-05 1.34318e-06 1.87676e-08
1.34318e-06 3.8118e-05 9.09425e-08
1.87676e-08 9.09425e-08 4.55419e-05

5.0239e-05 2.17977e-06 1.24482e-07
2.17977e-06 6.08069e-05 -3.83739e-08
1.24482e-07 -3.83739e-08 5.76728e-05

4.78654e-05 4.67889e-06 -8.53024e-08
4.67889e-06 6.2151e-05 -5.6074e-08
-8.53024e-08 -5.6074e-08 5.79187e-05

5.35156e-05 -1.55048e-06 3.11582e-08
-1.55048e-06 3.90225e-05 2.06232e-09
3.11582e-08 2.06232e-09 4.59072e-05

5.92346e-05 -3.05016e-06 1.0451e-07
-3.05016e-06 4.56846e-05 9.25231e-09
1.0451e-07 9.25231e-09 5.56507e-05

3.55127e-05 5.72189e-06 -1.30972e-08
5.72189e-06 4.13196e-05 -1.1534e-07
-1.30972e-08 -1.1534e-07 3.65335e-05

3.45558e-05 -5.71367e-06 6.43093e-08
-5.71367e-06 4.05795e-05 9.60802e-08
6.43093e-08 9.60802e-08 3.58609e-05

4.26689e-05 -5.32566e-06 -3.62822e-08
-5.32566e-06 3.30629e-05 -1.68851e-07
-3.62822e-08 -1.68851e-07 3.56962e-05

5.44991e-05 -5.49135e-06 5.71903e-08
-5.49135e-06 6.1366e-05 -9.38849e-08
5.71903e-08 -9.38849e-08 5.89981e-05

5.70502e-05 -3.90662e-06 -1.37792e-07
-3.90662e-06 6.13694e-05 5.88698e-08
-1.37792e-07 5.88698e-08 5.87283e-05

4.41767e-05 5.46714e-06 5.29408e-08
5.46714e-06 5.19534e-05 -4.31734e-08
5.29408e-08 -4.31734e-08 4.93662e-05

4.60425e-05 6.42768e-06 5.96358e-08
6.42768e-06 5.6293e-05 2.194e-08
5.96358e-08 2.194e-08 5.44127e-05

4.81987e-05 -4.24838e-06 -1.03063e-07
-4.24838e-06 6.21832e-05 3.53684e-09
-1.03063e-07 3.53684e-09 5.76713e-05

4.92974e-05 -1.09778e-06 1.72521e-07
-1.09778e-06 6.08318e-05 -1.30777e-07
1.72521e-07 -1.30777e-07 5.75726e-05

5.81498e-05 1.81263e-06 4.05664e-09
1.81263e-06 4.03116e-05 1.13765e-07
4.05664e-09 1.13765e-07 4.95062e-05

3.73708e-05 2.39618e-06 -8.70193e-08
2.39618e-06 4.72294e-05 2.8158e-08
-8.70193e-08 2.8158e-08 3.9408e-05

3.71111e-05 -1.57842e-06 -4.2832e-08
-1.57842e-06 4.70392e-05 -1.09628e-07
-4.2832e-08 -1.09628e-07 3.92776e-05

4.84525e-05 -1.41501e-06 3.25973e-08
-1.41501e-06 3.57013e-05 -1.24478e-07
3.25973e-08 -1.24478e-07 3.83688e-05

4.51456e-05 7.65376e-06 1.907e-07
7.65376e-06 4.69561e-05 -3.22886e-08
1.907e-07 -3.22886e-08 4.54904e-05

5.22484e-05 -4.61709e-06 -5.91031e-08
-4.61709e-06 3.65703e-05 -3.76334e-08
-5.91031e-08 -3.76334e-08 4.28097e-05

5.01497e-05 8.10536e-06 -1.81581e-07
8.10536e-06 4.69897e-05 -5.17506e-08
-1.81581e-07 -5.17506e-08 4.87535e-05

4.24241e-05 6.35962e-06 4.27816e-08
6.35962e-06 5.1582e-05 -1.50804e-08
4.27816e-08 -1.50804e-08 4.57189e-05

5.63481e-05 -3.41979e-06 -8.62698e-09
-3.41979e-06 4.00632e-05 1.79359e-08
-8.62698e-09 1.79359e-08 4.97128e-05

3.46904e-05 4.18249e-06 2.61778e-08
4.18249e-06 3.84379e-05 -4.25717e-08
2.61778e-08 -4.25717e-08 3.25183e-05

6.03442e-05 4.13001e-06 -1.31541e-07
4.13001e-06 4.38011e-05 3.27818e-08
-1.31541e-07 3.27818e-08 5.43866e-05

3.92478e-05 -3.5625e-06 8.80137e-10
-3.5625e-06 3.21638e-05 -1.89969e-07
8.80137e-10 -1.89969e-07 3.20609e-05

5.66423e-05 -1.27765e-06 -5.78239e-08
-1.27765e-06 6.25272e-05 3.24896e-08
-5.78239e-08 3.24896e-08 5.90862e-05

5.65887e-05 2.53714e-06 1.47719e-07
2.53714e-06 6.2498e-05 -1.4665e-07
1.47719e-07 -1.4665e-07 5.91427e-05

7.53394e-05 -7.63306e-06 -7.24019e-08
-7.63306e-06 6.37196e-05 1.26384e-07
-7.24019e-08 1.26384e-07 6.19958e-05

7.4788e-05 7.23723e-06 -2.86723e-08
7.23723e-06 6.38025e-05 -1.38696e-07
-2.86723e-08 -1.38696e-07 6.20132e-05

4.81185e-05 -1.36776e-06 -2.54615e-08
-1.36776e-06 3.42965e-05 -5.52992e-08
-2.54615e-08 -5.52992e-08 3.83892e-05

4.94015e-05 8.66205e-06 -1.27418e-07
8.66205e-06 4.93541e-05 1.23274e-08
-1.27418e-07 1.23274e-08 5.15953e-05

6.42244e-05 -4.46799e-06 1.38189e-08
-4.46799e-06 5.62146e-05 -6.12409e-08
1.38189e-08 -6.12409e-08 5.89305e-05

6.44108e-05 4.0271e-06 5.29736e-08
4.0271e-06 5.5872e-05 -8.16169e-08
5.29736e-08 -8.16169e-08 5.86132e-05

5.86935e-05 1.80602e-06 1.46846e-07
1.80602e-06 4.40095e-05 2.0489e-08
1.46846e-07 2.0489e-08 5.58725e-05

4.19449e-05 6.82094e-06 1.15086e-08
6.82094e-06 5.12037e-05 2.66092e-08
1.15086e-08 2.66092e-08 4.5171e-05

5.16878e-05 -6.2057e-06 -4.67478e-08
-6.2057e-06 4.0226e-05 4.45165e-08
-4.67478e-08 4.45165e-08 4.39768e-05

5.89443e-05 -4.40279e-07 1.0894e-07
-4.40279e-07 4.16305e-05 -6.67965e-08
1.0894e-07 -6.67965e-08 5.47839e-05

4.3684e-05 -7.6666e-06 -3.98316e-08
-7.6666e-06 4.67642e-05 -1.90312e-08
-3.98316e-08 -1.90312e-08 4.52216e-05

4.36403e-05 -6.26739e-06 -8.72274e-08
-6.26739e-06 4.98195e-05 -6.99229e-08
-8.72274e-08 -6.99229e-08 4.57909e-05

4.68327e-05 6.76867e-06 -1.13325e-07
6.76867e-06 5.80967e-05 1.22296e-08
-1.13325e-07 1.22296e-08 5.38534e-05

4.39004e-05 -8.77472e-06 9.60844e-08
-8.77472e-06 3.98408e-05 5.68346e-08
9.60844e-08 5.68346e-08 4.13332e-05

2.77492e-05 -6.70865e-06 7.85571e-08
-6.70865e-06 2.46063e-05 4.9364e-08
7.85571e-08 4.9364e-08 2.66798e-05

2.79799e-05 8.78827e-06 -8.37454e-08
8.78827e-06 2.6337e-05 -1.87684e-07
-8.37454e-08 -1.87684e-07 2.66359e-05

4.58708e-05 -8.38797e-06 3.25532e-08
-8.38797e-06 6.04095e-05 -1.03212e-07
3.25532e-08 -1.03212e-07 5.76766e-05

2.88586e-05 1.30847e-06 -1.03752e-07
1.30847e-06 2.45427e-05 1.55269e-07
-1.03752e-07 1.55269e-07 2.80306e-05

2.62169e-05 -2.29626e-06 -7.58519e-08
-2.29626e-06 2.50357e-05 4.19125e-08
-7.58519e-08 4.19125e-08 2.82292e-05

5.90043e-05 -2.19535e-06 6.57473e-08
-2.19535e-06 6.06964e-05 1.66526e-07
6.57473e-08 1.66526e-07 5.95114e-05

5.79506e-05 1.63801e-06 6.4577e-08
1.63801e-06 6.06964e-05 -1.63496e-07
6.4577e-08 -1.63496e-07 5.95202e-05

6.29028e-05 -4.8954e-08 4.08639e-08
-4.8954e-08 4.1036e-05 1.00503e-07
4.08639e-08 1.00503e-07 5.19252e-05

5.93626e-05 -1.17225e-06 3.53956e-08
-1.17225e-06 5.73517e-05 -4.70755e-08
3.53956e-08 -4.70755e-08 5.9493e-05

5.80639e-05 1.47697e-06 3.62618e-08
1.47697e-06 5.73541e-05 3.57735e-08
3.62618e-08 3.57735e-08 5.95014e-05

4.24604e-05 6.72393e-06 5.0189e-08
6.72393e-06 5.50101e-05 7.7727e-08
5.0189e-08 7.7727e-08 4.91226e-05

7.16568e-05 -6.69992e-06 -3.16723e-08
-6.69992e-06 6.25037e-05 -1.23993e-07
-3.16723e-08 -1.23993e-07 6.12482e-05

7.01396e-05 6.82004e-06 -1.82637e-07
6.82004e-06 6.25037e-05 -6.34237e-08
-1.82637e-07 -6.34237e-08 6.13162e-05

5.37693e-05 -3.40854e-06 4.70741e-08
-3.40854e-06 5.3743e-05 -1.48401e-07
4.70741e-08 -1.48401e-07 5.57293e-05

5.47888e-05 3.70653e-06 8.27404e-08
3.70653e-06 5.37728e-05 -6.24593e-08
8.27404e-08 -6.24593e-08 5.5784e-05

4.15226e-05 -5.58901e-06 -8.89027e-08
-5.58901e-06 3.17735e-05 -8.54643e-08
-8.89027e-08 -8.54643e-08 3.53168e-05

5.58246e-05 3.28669e-06 -4.04693e-09
3.28669e-06 7.2067e-05 -2.36188e-08
-4.04693e-09 -2.36188e-08 6.17025e-05

6.01288e-05 -8.47227e-07 2.07725e-08
-8.47227e-07 6.66435e-05 1.69621e-07
2.07725e-08 1.69621e-07 6.14568e-05

4.17915e-05 -7.25598e-06 -5.09741e-08
-7.25598e-06 5.12123e-05 -2.53385e-08
-5.09741e-08 -2.53385e-08 4.53644e-05

3.11362e-05 -1.89541e-06 9.81836e-08
-1.89541e-06 3.6602e-05 4.8464e-08
9.81836e-08 4.8464e-08 3.18303e-05

3.91276e-05 -2.15598e-06 -1.06044e-07
-2.15598e-06 2.82759e-05 -7.41078e-08
-1.06044e-07 -7.41078e-08 3.16775e-05

4.52564e-05 5.54421e-06 5.60896e-08
5.54421e-06 5.76474e-05 4.82389e-08
5.60896e-08 4.82389e-08 5.27541e-05

4.50918e-05 5.46137e-06 2.5025e-08
5.46137e-06 5.58927e-05 1.3839e-08
2.5025e-08 1.3839e-08 5.31526e-05

7.3672e-05 -6.3981e-06 4.96455e-08
-6.3981e-06 6.07004e-05 2.34864e-07
4.96455e-08 2.34864e-07 6.35241e-05

7.3672e-05 5.74201e-06 -7.25911e-07
5.74201e-06 6.01568e-05 1.77901e-08
-7.25911e-07 1.77901e-08 6.36348e-05

4.72632e-05 7.22083e-06 6.17007e-08
7.22083e-06 5.50458e-05 2.57625e-08
6.17007e-08 2.57625e-08 5.61384e-05

5.70401e-05 2.09841e-06 1.9353e-07
2.09841e-06 4.5787e-05 9.18395e-09
1.9353e-07 9.18395e-09 5.29184e-05

5.64945e-05 -2.29343e-06 1.712e-09
-2.29343e-06 4.55723e-05 1.0603e-07
1.712e-09 1.0603e-07 5.27189e-05

5.03359e-05 9.96346e-06 4.48216e-08
9.96346e-06 5.25014e-05 1.57677e-07
4.48216e-08 1.57677e-07 5.53464e-05

5.04157e-05 -6.68512e-06 -8.35178e-08
-6.68512e-06 6.02111e-05 8.00609e-08
-8.35178e-08 8.00609e-08 5.71161e-05

4.78281e-05 -2.21138e-07 -5.81113e-08
-2.21138e-07 3.23522e-05 1.71017e-07
-5.81113e-08 1.71017e-07 3.79451e-05

5.64605e-05 3.34845e-07 3.56979e-08
3.34845e-07 3.92123e-05 1.30735e-07
3.56979e-08 1.30735e-07 4.58111e-05

5.15228e-05 4.3386e-06 -1.25611e-07
4.3386e-06 3.66546e-05 1.28136e-07
-1.25611e-07 1.28136e-07 4.20003e-05

6.31548e-05 7.43892e-06 1.04289e-08
7.43892e-06 5.02077e-05 1.06007e-07
1.04289e-08 1.06007e-07 5.76772e-05

7.8877e-05 -2.07842e-06 -1.75657e-07
-2.07842e-06 7.15661e-05 -7.05049e-08
-1.75657e-07 -7.05049e-08 6.24716e-05

7.92502e-05 1.9373e-06 4.3302e-07
1.9373e-06 7.2305e-05 3.78854e-07
4.3302e-07 3.78854e-07 6.24107e-05

4.20756e-05 6.30085e-06 -1.01935e-07
6.30085e-06 4.1208e-05 -1.09188e-07
-1.01935e-07 -1.09188e-07 3.84626e-05

5.1378e-05 -7.9334e-06 3.18544e-08
-7.9334e-06 4.39257e-05 -3.28213e-08
3.18544e-08 -3.28213e-08 4.79322e-05

5.80968e-05 -2.12622e-06 -1.97172e-08
-2.12622e-06 4.4264e-05 1.23286e-07
-1.97172e-08 1.23286e-07 4.99003e-05

6.06941e-05 8.15236e-06 1.38204e-08
8.15236e-06 7.4146e-05 -1.92726e-08
1.38204e-08 -1.92726e-08 6.24784e-05

6.15465e-05 -2.00358e-06 -1.72392e-07
-2.00358e-06 6.5997e-05 1.22634e-07
-1.72392e-07 1.22634e-07 6.23798e-05

6.32419e-05 -7.18934e-06 1.6953e-08
-7.18934e-06 5.15679e-05 -4.7184e-08
1.6953e-08 -4.7184e-08 5.81387e-05

4.8421e-05 -2.46182e-06 -1.04155e-07
-2.46182e-06 5.82961e-05 -1.51432e-08
-1.04155e-07 -1.51432e-08 5.44099e-05

4.91408e-05 -2.20393e-06 1.80285e-07
-2.20393e-06 5.88067e-05 -2.87751e-08
1.80285e-07 -2.87751e-08 5.42616e-05

6.38285e-05 -6.34797e-07 -5.2404e-09
-6.34797e-07 4.16197e-05 -4.08843e-08
-5.2404e-09 -4.08843e-08 5.41632e-05

6.36404e-05 5.52807e-07 -9.30035e-08
5.52807e-07 4.15012e-05 1.62892e-08
-9.30035e-08 1.62892e-08 5.4322e-05

4.30209e-05 5.62564e-06 -4.0206e-08
5.62564e-06 3.99891e-05 -1.57114e-07
-4.0206e-08 -1.57114e-07 3.77846e-05

6.36607e-05 -5.06455e-07 1.94804e-07
-5.06455e-07 4.72018e-05 -6.99795e-08
1.94804e-07 -6.99795e-08 5.68797e-05

6.31636e-05 5.19137e-07 8.34039e-09
5.19137e-07 4.7285e-05 1.35111e-07
8.34039e-09 1.35111e-07 5.69358e-05

5.81379e-05 1.72894e-06 2.46369e-08
1.72894e-06 4.42362e-05 -1.42602e-07
2.46369e-08 -1.42602e-07 4.99754e-05

4.26511e-05 -6.4656e-06 -4.52403e-09
-6.4656e-06 5.18226e-05 3.44701e-08
-4.52403e-09 3.44701e-08 4.5979e-05

6.38812e-05 -7.07482e-08 2.37273e-08
-7.07482e-08 4.60479e-05 1.09094e-07
2.37273e-08 1.09094e-07 5.464e-05

6.36353e-05 1.5787e-07 -9.47467e-08
1.5787e-07 4.59893e-05 2.58519e-08
-9.47467e-08 2.58519e-08 5.48459e-05

5.71219e-05 -5.20201e-06 8.68101e-08
-5.20201e-06 4.4159e-05 -1.91423e-07
8.68101e-08 -1.91423e-07 5.10557e-05

4.85121e-05 9.34036e-06 -2.73686e-08
9.34036e-06 5.77512e-05 -1.23198e-07
-2.73686e-08 -1.23198e-07 5.47403e-05

4.95854e-05 7.05717e-06 1.70822e-07
7.05717e-06 4.22153e-05 1.79839e-07
1.70822e-07 1.79839e-07 4.39391e-05

4.8397e-05 7.01571e-06 -8.29811e-09
7.01571e-06 5.36302e-05 -1.34427e-08
-8.29811e-09 -1.34427e-08 5.62972e-05

4.8988e-05 9.18005e-06 -1.13552e-07
9.18005e-06 5.95323e-05 1.18025e-08
-1.13552e-07 1.18025e-08 5.54231e-05

5.18925e-05 -3.45518e-06 3.17887e-08
-3.45518e-06 3.68531e-05 -1.24104e-07
3.17887e-08 -1.24104e-07 4.26888e-05

5.79443e-05 -7.84056e-06 3.35374e-08
-7.84056e-06 4.72186e-05 9.393e-08
3.35374e-08 9.393e-08 5.35626e-05

5.57184e-05 4.90173e-06 -1.8073e-08
4.90173e-06 4.4004e-05 1.25858e-09
-1.8073e-08 1.25858e-09 5.00811e-05

4.52075e-05 8.17095e-06 2.00452e-07
8.17095e-06 4.2001e-05 1.68581e-07
2.00452e-07 1.68581e-07 4.22808e-05

5.01642e-05 8.13702e-06 -1.7832e-07
8.13702e-06 4.35577e-05 -9.52618e-08
-1.7832e-07 -9.52618e-08 4.75103e-05

4.30898e-05 6.2629e-07 -8.56983e-08
6.2629e-07 5.74992e-05 1.09447e-07
-8.56983e-08 1.09447e-07 5.24846e-05

4.33959e-05 1.10361e-07 -8.4057e-09
1.10361e-07 5.69798e-05 -6.49004e-08
-8.4057e-09 -6.49004e-08 5.24789e-05

4.30483e-05 5.83093e-06 -3.26788e-08
5.83093e-06 3.35817e-05 2.7702e-08
-3.26788e-08 2.7702e-08 3.62922e-05

5.10779e-05 -9.52198e-06 -3.16571e-09
-9.52198e-06 5.3076e-05 3.59819e-08
-3.16571e-09 3.59819e-08 5.54614e-05

4.21101e-05 -7.88435e-06 -2.08609e-08
-7.88435e-06 4.646e-05 -2.15325e-07
-2.08609e-08 -2.15325e-07 4.21268e-05

4.23391e-05 8.19193e-06 1.79847e-08
8.19193e-06 4.68303e-05 8.03175e-08
1.79847e-08 8.03175e-08 4.20022e-05

5.67303e-05 -5.63086e-06 1.62363e-07
-5.63086e-06 4.41619e-05 -2.5674e-08
1.62363e-07 -2.5674e-08 5.05203e-05

6.45543e-05 -4.31e-06 -1.7961e-08
-4.31e-06 4.30206e-05 1.2965e-07
-1.7961e-08 1.2965e-07 5.78244e-05

6.34728e-05 4.61035e-06 8.13116e-08
4.61035e-06 4.3617e-05 -6.07588e-08
8.13116e-08 -6.07588e-08 5.75973e-05

3.88298e-05 4.50425e-06 -7.1576e-08
4.50425e-06 4.88987e-05 6.54737e-08
-7.1576e-08 6.54737e-08 4.33688e-05

5.10136e-05 -8.47783e-06 3.27052e-08
-8.47783e-06 4.68497e-05 -2.88258e-08
3.27052e-08 -2.88258e-08 4.87132e-05

3.26782e-05 -1.34388e-08 9.21665e-08
-1.34388e-08 4.616e-05 8.62734e-08
9.21665e-08 8.62734e-08 3.77017e-05

3.28186e-05 2.3692e-07 3.05954e-08
2.3692e-07 4.63464e-05 -1.30976e-07
3.05954e-08 -1.30976e-07 3.7645e-05

4.78307e-05 2.95822e-07 -6.83963e-08
2.95822e-07 3.10039e-05 1.66224e-07
-6.83963e-08 1.66224e-07 3.68914e-05

4.26443e-05 -5.79726e-06 -8.38608e-08
-5.79726e-06 4.03409e-05 1.44524e-07
-8.38608e-08 1.44524e-07 3.75525e-05

4.53837e-05 7.13416e-06 6.58744e-08
7.13416e-06 4.07334e-05 -5.71023e-08
6.58744e-08 -5.71023e-08 4.19096e-05

6.71322e-05 -1.41938e-05 2.20203e-07
-1.41938e-05 7.31667e-05 -1.86365e-09
2.20203e-07 -1.86365e-09 6.32924e-05

6.95022e-05 6.18654e-06 -2.98245e-07
6.18654e-06 7.45071e-05 7.96873e-08
-2.98245e-07 7.96873e-08 6.33405e-05

5.28939e-05 3.23338e-06 3.08074e-08
3.23338e-06 3.7069e-05 1.33516e-07
3.08074e-08 1.33516e-07 4.29967e-05

4.57218e-05 8.87545e-06 -9.68321e-08
8.87545e-06 5.6348e-05 -4.25041e-08
-9.68321e-08 -4.25041e-08 5.15373e-05

6.28794e-05 1.48163e-07 5.17893e-08
1.48163e-07 4.09822e-05 -8.25643e-08
5.17893e-08 -8.25643e-08 5.17765e-05

3.89981e-05 -4.23065e-06 -5.57456e-08
-4.23065e-06 4.90274e-05 -7.90793e-08
-5.57456e-08 -7.90793e-08 4.34888e-05

4.4338e-05 9.10418e-06 7.26442e-08
9.10418e-06 6.06303e-05 2.03529e-09
7.26442e-08 2.03529e-09 5.79129e-05

5.05919e-05 7.23462e-06 -8.56228e-08
7.23462e-06 6.04283e-05 -4.87537e-08
-8.56228e-08 -4.87537e-08 5.72685e-05

4.87319e-05 -8.8606e-06 1.97417e-08
-8.8606e-06 5.7478e-05 5.54255e-08
1.97417e-08 5.54255e-08 5.47932e-05

4.83881e-05 9.45596e-06 2.12539e-08
9.45596e-06 6.01796e-05 5.13826e-08
2.12539e-08 5.13826e-08 5.56018e-05

4.61742e-05 6.72177e-06 7.23352e-08
6.72177e-06 5.24666e-05 -2.37979e-08
7.23352e-08 -2.37979e-08 5.2174e-05

6.70789e-05 -7.10178e-09 2.89217e-08
-7.10178e-09 4.06746e-05 6.61875e-08
2.89217e-08 6.61875e-08 5.53342e-05

4.56649e-05 -6.91273e-06 -4.91072e-08
-6.91273e-06 4.03717e-05 1.19344e-07
-4.91072e-08 1.19344e-07 4.1544e-05

4.95702e-05 -7.34822e-06 -7.42354e-09
-7.34822e-06 5.3583e-05 4.87379e-08
-7.42354e-09 4.87379e-08 5.63802e-05

4.53934e-05 -5.7633e-06 -1.78363e-08
-5.7633e-06 4.64186e-05 -2.11389e-07
-1.78363e-08 -2.11389e-07 4.34043e-05

4.14391e-05 -5.42555e-06 -2.45072e-07
-5.42555e-06 4.05877e-05 7.58082e-08
-2.45072e-07 7.58082e-08 3.75576e-05

5.01816e-05 -8.7737e-06 1.09915e-07
-8.7737e-06 4.95331e-05 -1.4272e-07
1.09915e-07 -1.4272e-07 5.16942e-05

3.81223e-05 -3.32188e-06 8.33363e-08
-3.32188e-06 4.81626e-05 9.13025e-08
8.33363e-08 9.13025e-08 4.00945e-05

3.78904e-05 3.41147e-06 2.00093e-08
3.41147e-06 4.82935e-05 -1.36663e-07
2.00093e-08 -1.36663e-07 3.99836e-05

4.80159e-05 1.88548e-06 -1.07379e-07
1.88548e-06 3.67153e-05 8.67627e-08
-1.07379e-07 8.67627e-08 3.91189e-05

4.52975e-05 6.62157e-06 7.04867e-08
6.62157e-06 4.62691e-05 1.63993e-08
7.04867e-08 1.63993e-08 4.3393e-05

4.33023e-05 1.10452e-06 -1.59225e-08
1.10452e-06 5.48003e-05 8.60568e-08
-1.59225e-08 8.60568e-08 4.79832e-05

4.31939e-05 -3.4872e-07 -7.92037e-08
-3.4872e-07 5.47059e-05 -2.09742e-08
-7.92037e-08 -2.09742e-08 4.79699e-05

3.69572e-05 -6.82142e-06 -1.35912e-07
-6.82142e-06 4.06489e-05 1.19833e-07
-1.35912e-07 1.19833e-07 3.63751e-05

3.72785e-05 6.70556e-06 -9.42802e-08
6.70556e-06 4.04874e-05 -1.28048e-07
-9.42802e-08 -1.28048e-07 3.62326e-05

6.71868e-05 4.50744e-07 -3.96288e-08
4.50744e-07 4.18897e-05 -4.66635e-08
-3.96288e-08 -4.66635e-08 5.54163e-05

6.7298e-05 -5.34611e-07 8.31416e-08
-5.34611e-07 4.1788e-05 -1.84798e-08
8.31416e-08 -1.84798e-08 5.54877e-05

4.70988e-05 8.11728e-06 1.81331e-08
8.11728e-06 5.67478e-05 -9.27967e-08
1.81331e-08 -9.27967e-08 5.22408e-05

4.44236e-05 -8.10625e-06 5.21982e-08
-8.10625e-06 6.03929e-05 -1.1023e-07
5.21982e-08 -1.1023e-07 5.77789e-05

5.41258e-05 8.80211e-06 7.4149e-08
8.80211e-06 4.93484e-05 2.74788e-08
7.4149e-08 2.74788e-08 5.35987e-05

4.19373e-05 4.22183e-06 1.49536e-07
4.22183e-06 3.08004e-05 1.08592e-07
1.49536e-07 1.08592e-07 3.41565e-05

3.89e-05 5.31487e-06 6.89998e-08
5.31487e-06 5.14917e-05 -1.38493e-08
6.89998e-08 -1.38493e-08 4.35667e-05

5.86106e-05 7.4173e-07 -2.73843e-08
7.4173e-07 5.39027e-05 -6.00121e-08
-2.73843e-08 -6.00121e-08 5.76343e-05

5.99918e-05 -4.99836e-07 1.01754e-07
-4.99836e-07 5.39111e-05 -1.4677e-07
1.01754e-07 -1.4677e-07 5.75819e-05

5.14752e-05 5.21865e-06 -1.29069e-07
5.21865e-06 4.8154e-05 -3.7228e-09
-1.29069e-07 -3.7228e-09 4.85991e-05

5.6255e-05 -3.42342e-06 -1.49127e-08
-3.42342e-06 5.11279e-05 -8.44478e-08
-1.49127e-08 -8.44478e-08 5.32683e-05

5.67812e-05 3.37278e-06 1.90066e-07
3.37278e-06 5.09208e-05 4.92227e-08
1.90066e-07 4.92227e-08 5.33234e-05

2.62614e-05 -3.41986e-06 -5.73386e-08
-3.41986e-06 1.95165e-05 1.8526e-07
-5.73386e-08 1.8526e-07 2.81796e-05

1.85603e-05 3.89531e-06 1.0906e-07
3.89531e-06 2.52054e-05 -1.29362e-08
1.0906e-07 -1.29362e-08 2.79729e-05

3.90851e-05 -5.32255e-06 1.07945e-07
-5.32255e-06 5.15691e-05 1.84358e-08
1.07945e-07 1.84358e-08 4.37469e-05

6.40869e-05 -1.28574e-06 -3.3728e-07
-1.28574e-06 6.13375e-05 -4.50345e-08
-3.3728e-07 -4.50345e-08 6.18768e-05

6.48544e-05 1.18549e-06 5.70056e-09
1.18549e-06 6.13375e-05 3.88268e-07
5.70056e-09 3.88268e-07 6.19196e-05

4.2582e-05 3.38057e-06 1.56628e-07
3.38057e-06 3.03569e-05 8.83716e-08
1.56628e-07 8.83716e-08 3.41435e-05

4.48685e-05 -4.28499e-06 2.60815e-08
-4.28499e-06 5.73608e-05 5.02729e-08
2.60815e-08 5.02729e-08 5.31595e-05

4.59447e-05 -4.10394e-06 -4.75268e-09
-4.10394e-06 5.77146e-05 -1.18744e-07
-4.75268e-09 -1.18744e-07 5.28496e-05

4.37374e-05 -7.63278e-06 -3.157e-08
-7.63278e-06 4.26167e-05 -8.6791e-08
-3.157e-08 -8.6791e-08 4.1797e-05

4.85219e-05 -9.03302e-06 1.29281e-08
-9.03302e-06 6.03007e-05 7.54272e-08
1.29281e-08 7.54272e-08 5.55867e-05

4.25637e-05 1.07295e-05 -2.71414e-08
1.07295e-05 5.59282e-05 1.54002e-08
-2.71414e-08 1.54002e-08 5.62251e-05

5.67768e-05 5.07082e-06 9.96286e-08
5.07082e-06 6.06849e-05 -6.08678e-08
9.96286e-08 -6.08678e-08 5.88219e-05

5.45895e-05 7.00872e-06 -1.47797e-08
7.00872e-06 6.08605e-05 7.75207e-09
-1.47797e-08 7.75207e-09 5.92193e-05

4.73703e-05 -8.09963e-06 -2.59862e-08
-8.09963e-06 5.70542e-05 8.25196e-08
-2.59862e-08 8.25196e-08 5.23764e-05

4.94259e-05 8.46267e-06 -1.31972e-07
8.46267e-06 5.09491e-05 4.41453e-08
-1.31972e-07 4.41453e-08 5.28637e-05

5.166e-05 -5.2932e-06 7.75764e-09
-5.2932e-06 4.84613e-05 -9.6086e-08
7.75764e-09 -9.6086e-08 4.86148e-05

4.94806e-05 6.15966e-06 6.94503e-08
6.15966e-06 3.67301e-05 -2.23744e-07
6.94503e-08 -2.23744e-07 4.15338e-05

5.6372e-05 -1.33496e-07 1.03492e-08
-1.33496e-07 3.91472e-05 -1.35838e-07
1.03492e-08 -1.35838e-07 4.58882e-05

4.8148e-05 9.81375e-06 3.67701e-08
9.81375e-06 5.96543e-05 2.54531e-08
3.67701e-08 2.54531e-08 5.54429e-05

4.36112e-05 -6.14788e-06 -9.25676e-08
-6.14788e-06 5.20647e-05 3.77328e-09
-9.25676e-08 3.77328e-09 4.96018e-05

4.00799e-05 1.99859e-06 -3.1923e-08
1.99859e-06 5.30756e-05 -4.66193e-08
-3.1923e-08 -4.66193e-08 4.66403e-05

5.0778e-05 6.12936e-06 -3.06662e-08
6.12936e-06 5.0247e-05 8.12601e-08
-3.06662e-08 8.12601e-08 5.14009e-05

4.07654e-05 2.52252e-06 3.85055e-08
2.52252e-06 5.40274e-05 6.04271e-08
3.85055e-08 6.04271e-08 4.67475e-05

4.98774e-05 -7.34115e-06 1.37004e-07
-7.34115e-06 6.0737e-05 2.78366e-09
1.37004e-07 2.78366e-09 5.70353e-05

3.08101e-05 -4.5014e-06 9.74993e-08
-4.5014e-06 3.14057e-05 3.82584e-08
9.74993e-08 3.82584e-08 2.94415e-05

3.42219e-05 -4.50443e-06 -2.83748e-09
-4.50443e-06 2.78605e-05 -6.39311e-08
-2.83748e-09 -6.39311e-08 2.9369e-05

5.81619e-05 -1.64879e-06 -3.26881e-08
-1.64879e-06 4.03091e-05 -1.1059e-07
-3.26881e-08 -1.1059e-07 4.94346e-05

5.08601e-05 -6.12328e-06 -7.18865e-09
-6.12328e-06 5.04605e-05 -8.33319e-08
-7.18865e-09 -8.33319e-08 5.13917e-05

7.53798e-05 -8.49238e-06 1.9156e-07
-8.49238e-06 6.08889e-05 -1.0669e-07
1.9156e-07 -1.0669e-07 6.32931e-05

7.53798e-05 8.09806e-06 -7.28582e-07
8.09806e-06 6.16054e-05 1.13614e-08
-7.28582e-07 1.13614e-08 6.33867e-05

4.56908e-05 -8.9169e-06 7.21562e-09
-8.9169e-06 5.66565e-05 9.87326e-08
7.21562e-09 9.87326e-08 5.18423e-05

6.43184e-05 -7.77121e-06 -1.50744e-07
-7.77121e-06 6.42612e-05 1.42796e-07
-1.50744e-07 1.42796e-07 6.07817e-05

6.45617e-05 7.47089e-06 1.6259e-08
7.47089e-06 6.44296e-05 -1.28548e-07
1.6259e-08 -1.28548e-07 6.07738e-05

5.74292e-05 1.71377e-06 -5.00272e-08
1.71377e-06 4.21354e-05 1.28066e-07
-5.00272e-08 1.28066e-07 5.1825e-05

4.31753e-05 -1.14509e-05 -4.70015e-08
-1.14509e-05 5.53201e-05 -9.36774e-09
-4.70015e-08 -9.36774e-09 5.6227e-05

3.28222e-05 -4.80341e-06 1.99955e-07
-4.80341e-06 3.22002e-05 -1.10264e-07
1.99955e-07 -1.10264e-07 3.0665e-05

3.49062e-05 5.14033e-06 -2.23071e-08
5.14033e-06 3.09016e-05 1.00565e-07
-2.23071e-08 1.00565e-07 3.11122e-05

3.26304e-05 -3.96444e-06 2.08613e-07
-3.96444e-06 3.91637e-05 -2.12575e-07
2.08613e-07 -2.12575e-07 3.31229e-05

3.11215e-05 3.30823e-06 6.81781e-08
3.30823e-06 3.92446e-05 1.36387e-08
6.81781e-08 1.36387e-08 3.28824e-05

3.98991e-05 2.17975e-06 7.7266e-08
2.17975e-06 2.95464e-05 1.27615e-07
7.7266e-08 1.27615e-07 3.25804e-05

4.80068e-05 -9.67207e-06 -9.16112e-08
-9.67207e-06 5.95871e-05 -9.53195e-08
-9.16112e-08 -9.53195e-08 5.54148e-05

2.71145e-05 9.21788e-07 -9.31529e-08
9.21788e-07 3.71557e-05 -7.88352e-08
-9.31529e-08 -7.88352e-08 3.1135e-05

3.83833e-05 -1.25201e-06 -6.14197e-08
-1.25201e-06 2.65163e-05 2.51955e-08
-6.14197e-08 2.51955e-08 3.07635e-05

5.50583e-05 -3.38032e-06 1.5664e-07
-3.38032e-06 6.76649e-05 1.0966e-07
1.5664e-07 1.0966e-07 6.09346e-05

6.01586e-05 -3.00557e-07 -1.39791e-07
-3.00557e-07 6.31091e-05 5.47782e-08
-1.39791e-07 5.47782e-08 6.07476e-05

6.03358e-05 5.14801e-06 -7.61234e-08
5.14801e-06 4.84009e-05 2.35762e-08
-7.61234e-08 2.35762e-08 5.46425e-05

6.10214e-05 -6.00196e-07 1.56889e-07
-6.00196e-07 3.82094e-05 -8.84102e-09
1.56889e-07 -8.84102e-09 5.59782e-05

3.68168e-05 5.05202e-06 -8.10266e-08
5.05202e-06 4.58985e-05 -1.49033e-08
-8.10266e-08 -1.49033e-08 3.89669e-05

3.65879e-05 -5.20392e-06 -1.10296e-07
-5.20392e-06 4.58557e-05 -1.40145e-07
-1.10296e-07 -1.40145e-07 3.90889e-05

5.84507e-05 -1.10178e-06 -2.71066e-08
-1.10178e-06 4.24388e-05 2.96956e-09
-2.71066e-08 2.96956e-09 5.21166e-05

4.26795e-05 -6.78701e-06 -9.85109e-09
-6.78701e-06 5.51662e-05 1.12053e-07
-9.85109e-09 1.12053e-07 4.94168e-05

6.35304e-05 4.6188e-07 -2.45815e-07
4.6188e-07 5.79913e-05 -1.52821e-07
-2.45815e-07 -1.52821e-07 6.0683e-05

6.43279e-05 -5.44908e-07 -2.14004e-07
-5.44908e-07 5.79903e-05 1.29356e-07
-2.14004e-07 1.29356e-07 6.06872e-05

5.66086e-05 6.77242e-06 1.23309e-07
6.77242e-06 5.09929e-05 -1.64995e-08
1.23309e-07 -1.64995e-08 5.40823e-05

5.04728e-05 -7.89784e-06 1.30874e-07
-7.89784e-06 5.13451e-05 -4.44324e-08
1.30874e-07 -4.44324e-08 5.28768e-05

6.02792e-05 4.58531e-06 -8.10441e-08
4.58531e-06 4.28173e-05 -2.67887e-08
-8.10441e-08 -2.67887e-08 5.35551e-05

4.22784e-05 6.40633e-06 -6.54293e-08
6.40633e-06 3.71948e-05 -2.53694e-07
-6.54293e-08 -2.53694e-07 3.74916e-05

4.50851e-05 -7.29875e-06 2.7158e-08
-7.29875e-06 5.29631e-05 -9.08968e-08
2.7158e-08 -9.08968e-08 5.23184e-05

2.60435e-05 1.12122e-05 1.1383e-07
1.12122e-05 2.37481e-05 -1.4039e-07
1.1383e-07 -1.4039e-07 2.59961e-05

4.05374e-05 -1.4239e-06 1.1514e-08
-1.4239e-06 5.31444e-05 9.77789e-08
1.1514e-08 9.77789e-08 4.6675e-05

4.13995e-05 -2.30503e-06 1.22122e-07
-2.30503e-06 5.35503e-05 4.9943e-08
1.22122e-07 4.9943e-08 4.66446e-05

5.63473e-05 2.80969e-06 1.05681e-07
2.80969e-06 6.7599e-05 9.98314e-08
1.05681e-07 9.98314e-08 6.12192e-05

5.76766e-05 -4.58879e-06 -9.11612e-08
-4.58879e-06 6.5799e-05 2.27956e-07
-9.11612e-08 2.27956e-07 6.11584e-05

6.70797e-05 -3.04233e-07 -3.72385e-09
-3.04233e-07 4.40543e-05 -9.37543e-08
-3.72385e-09 -9.37543e-08 5.72584e-05

6.73165e-05 3.07992e-07 2.4175e-08
3.07992e-07 4.3935e-05 -9.46886e-08
2.4175e-08 -9.46886e-08 5.7282e-05

5.90257e-05 -9.49909e-06 2.33299e-07
-9.49909e-06 5.37674e-05 1.364e-09
2.33299e-07 1.364e-09 5.7274e-05

5.9636e-05 9.14275e-06 1.27375e-08
9.14275e-06 5.24938e-05 -6.52089e-08
1.27375e-08 -6.52089e-08 5.68875e-05

6.66179e-05 -3.27711e-06 -1.64666e-07
-3.27711e-06 6.08976e-05 8.35882e-08
-1.64666e-07 8.35882e-08 6.03036e-05

6.66984e-05 3.29237e-06 -1.52759e-08
3.29237e-06 6.09335e-05 6.81341e-09
-1.52759e-08 6.81341e-09 6.029e-05

6.85964e-05 -3.12005e-06 -3.58916e-07
-3.12005e-06 6.15406e-05 -1.38891e-07
-3.58916e-07 -1.38891e-07 6.2879e-05

6.76419e-05 3.46085e-06 5.40285e-08
3.46085e-06 6.21744e-05 -3.44193e-08
5.40285e-08 -3.44193e-08 6.29774e-05

5.07149e-05 -8.90307e-06 -1.0873e-08
-8.90307e-06 6.01591e-05 8.02268e-08
-1.0873e-08 8.02268e-08 5.73703e-05

5.03696e-05 9.18486e-06 6.86604e-08
9.18486e-06 5.99672e-05 6.17187e-08
6.86604e-08 6.17187e-08 5.74477e-05

5.21576e-05 -4.86266e-06 6.40963e-08
-4.86266e-06 4.35894e-05 1.35571e-07
6.40963e-08 1.35571e-07 4.76728e-05

4.50091e-05 -4.03408e-06 3.04455e-08
-4.03408e-06 5.41538e-05 8.03089e-08
3.04455e-08 8.03089e-08 4.99202e-05

4.64209e-05 7.76388e-06 1.60958e-08
7.76388e-06 4.74e-05 -2.99192e-08
1.60958e-08 -2.99192e-08 4.67989e-05

4.55171e-05 -5.52598e-06 3.95009e-08
-5.52598e-06 5.56883e-05 1.39722e-07
3.95009e-08 1.39722e-07 4.97473e-05

4.16352e-05 -6.62513e-06 -1.09468e-07
-6.62513e-06 3.78638e-05 2.17645e-07
-1.09468e-07 2.17645e-07 3.70937e-05

5.20015e-05 4.48527e-06 -1.03948e-07
4.48527e-06 4.34913e-05 -1.21296e-07
-1.03948e-07 -1.21296e-07 4.75787e-05

4.50361e-05 3.96767e-06 2.4387e-08
3.96767e-06 5.38281e-05 -1.98786e-08
2.4387e-08 -1.98786e-08 4.97361e-05

5.13029e-05 -1.12581e-05 -9.54384e-08
-1.12581e-05 5.59416e-05 7.73452e-08
-9.54384e-08 7.73452e-08 5.79148e-05

5.11361e-05 1.11222e-05 -7.34288e-08
1.11222e-05 5.59715e-05 -3.42203e-08
-7.34288e-08 -3.42203e-08 5.79126e-05

6.01862e-05 -4.5325e-06 -8.80313e-08
-4.5325e-06 4.92715e-05 5.10939e-08
-8.80313e-08 5.10939e-08 5.54284e-05

6.95269e-05 -8.91223e-06 2.21213e-07
-8.91223e-06 7.72203e-05 -2.64663e-07
2.21213e-07 -2.64663e-07 6.31661e-05

6.83639e-05 9.08333e-06 2.34793e-07
9.08333e-06 6.39975e-05 9.38468e-08
2.34793e-07 9.38468e-08 6.32522e-05

5.0399e-05 -6.32785e-06 -7.98718e-08
-6.32785e-06 5.86755e-05 -6.74808e-08
-7.98718e-08 -6.74808e-08 5.45484e-05

5.68658e-05 8.3381e-06 1.21142e-07
8.3381e-06 4.65893e-05 -4.56511e-08
1.21142e-07 -4.56511e-08 5.27732e-05

6.48827e-05 4.53811e-07 1.07536e-08
4.53811e-07 5.5386e-05 1.05881e-07
1.07536e-08 1.05881e-07 5.90698e-05

4.75797e-05 -7.57687e-06 -1.26176e-07
-7.57687e-06 4.79136e-05 -1.1438e-07
-1.26176e-07 -1.1438e-07 4.68101e-05

3.15013e-05 5.03727e-06 8.88454e-08
5.03727e-06 3.32973e-05 2.32424e-07
8.88454e-08 2.32424e-07 2.99574e-05

3.44937e-05 4.79696e-06 1.77244e-07
4.79696e-06 2.93306e-05 1.23301e-07
1.77244e-07 1.23301e-07 2.99659e-05

6.68822e-05 8.25547e-07 1.73775e-08
8.25547e-07 4.71647e-05 -6.75513e-08
1.73775e-08 -6.75513e-08 5.82451e-05

6.69234e-05 -8.51663e-07 -1.67262e-07
-8.51663e-07 4.71083e-05 1.2465e-07
-1.67262e-07 1.2465e-07 5.82062e-05

6.56904e-05 -4.47917e-07 -7.9716e-08
-4.47917e-07 5.61478e-05 -8.2343e-08
-7.9716e-08 -8.2343e-08 5.92104e-05

4.52519e-05 5.30172e-06 5.63374e-08
5.30172e-06 5.56779e-05 7.37175e-08
5.63374e-08 7.37175e-08 4.96706e-05

5.19001e-05 -3.71996e-06 2.68608e-08
-3.71996e-06 4.19624e-05 1.64634e-07
2.68608e-08 1.64634e-07 4.40077e-05

5.35442e-05 -4.10828e-06 6.6513e-08
-4.10828e-06 5.70209e-05 7.69715e-09
6.6513e-08 7.69715e-09 5.60231e-05

5.45077e-05 4.60981e-06 7.97103e-08
4.60981e-06 5.72174e-05 -3.83191e-08
7.97103e-08 -3.83191e-08 5.60374e-05

7.30582e-05 -2.44321e-06 9.20108e-09
-2.44321e-06 8.01239e-05 -3.46242e-07
9.20108e-09 -3.46242e-07 6.26917e-05

7.2802e-05 2.27836e-06 4.46986e-08
2.27836e-06 8.01239e-05 3.2342e-07
4.46986e-08 3.2342e-07 6.27086e-05

4.59684e-05 -7.9903e-06 -1.70366e-08
-7.9903e-06 5.80552e-05 -4.2147e-08
-1.70366e-08 -4.2147e-08 5.38717e-05

5.49406e-05 6.01333e-06 2.54538e-08
6.01333e-06 4.40671e-05 -1.24378e-07
2.54538e-08 -1.24378e-07 4.96719e-05

6.32376e-05 -1.14767e-06 1.38526e-08
-1.14767e-06 5.26825e-05 -1.03906e-07
1.38526e-08 -1.03906e-07 5.79333e-05

6.37234e-05 9.35943e-07 1.95347e-07
9.35943e-07 5.26824e-05 -4.60981e-08
1.95347e-07 -4.60981e-08 5.78851e-05

4.64315e-05 -4.49759e-06 4.24802e-08
-4.49759e-06 5.69008e-05 3.88707e-08
4.24802e-08 3.88707e-08 5.50994e-05

4.74722e-05 -8.4829e-06 1.09265e-07
-8.4829e-06 5.42005e-05 -3.56429e-08
1.09265e-07 -3.56429e-08 5.60649e-05

2.55598e-05 -1.12739e-05 -1.71339e-07
-1.12739e-05 2.62056e-05 4.43372e-08
-1.71339e-07 4.43372e-08 2.61857e-05

5.41997e-05 -7.21063e-06 -8.99578e-08
-7.21063e-06 6.04364e-05 8.84718e-08
-8.99578e-08 8.84718e-08 5.87758e-05

5.37795e-05 7.38643e-06 -9.75111e-08
7.38643e-06 6.02958e-05 1.4291e-08
-9.75111e-08 1.4291e-08 5.8754e-05

4.50098e-05 -7.35629e-06 4.80694e-08
-7.35629e-06 5.5219e-05 4.06567e-08
4.80694e-08 4.06567e-08 5.45766e-05

5.29864e-05 3.92121e-06 1.08735e-08
3.92121e-06 4.20878e-05 -3.50296e-08
1.08735e-08 -3.50296e-08 4.42951e-05

5.78529e-05 -7.13492e-06 3.12118e-08
-7.13492e-06 5.11465e-05 1.35445e-07
3.12118e-08 1.35445e-07 5.46164e-05

5.99922e-05 -7.67556e-06 1.75169e-07
-7.67556e-06 5.37827e-05 -2.1776e-07
1.75169e-07 -2.1776e-07 5.75974e-05

6.03627e-05 7.81713e-06 -3.22363e-08
7.81713e-06 5.31615e-05 8.66474e-08
-3.22363e-08 8.66474e-08 5.7512e-05

6.01861e-05 -4.5136e-06 -8.7596e-08
-4.5136e-06 4.31825e-05 -1.24639e-07
-8.7596e-08 -1.24639e-07 5.43263e-05

6.6053e-05 2.25452e-06 -5.43358e-08
2.25452e-06 5.34433e-05 2.8889e-07
-5.43358e-08 2.8889e-07 5.9975e-05

6.61889e-05 -2.02754e-06 -2.30801e-07
-2.02754e-06 5.35655e-05 -1.91164e-07
-2.30801e-07 -1.91164e-07 5.9925e-05

6.0695e-05 -3.85865e-06 -7.36035e-09
-3.85865e-06 7.60659e-05 -3.2498e-08
-7.36035e-09 -3.2498e-08 6.27569e-05

6.1763e-05 7.07532e-06 1.84722e-07
7.07532e-06 7.48866e-05 1.44704e-07
1.84722e-07 1.44704e-07 6.27847e-05

2.86284e-05 1.04545e-06 3.26046e-08
1.04545e-06 1.68973e-05 -3.92171e-08
3.26046e-08 -3.92171e-08 2.80104e-05

2.00081e-05 1.97077e-06 5.29195e-08
1.97077e-06 2.59602e-05 -1.4808e-07
5.29195e-08 -1.4808e-07 2.80782e-05

5.05564e-05 7.42962e-06 -6.45329e-08
7.42962e-06 5.9469e-05 -8.1677e-08
-6.45329e-08 -8.1677e-08 5.55061e-05

4.97001e-05 -7.613e-06 -1.81314e-08
-7.613e-06 5.90769e-05 1.0211e-08
-1.81314e-08 1.0211e-08 5.54827e-05

4.72212e-05 -9.38301e-06 3.48246e-08
-9.38301e-06 5.95214e-05 -1.13068e-07
3.48246e-08 -1.13068e-07 5.52459e-05

2.43878e-05 -4.67912e-06 -1.73216e-07
-4.67912e-06 2.37898e-05 6.51049e-08
-1.73216e-07 6.51049e-08 2.74834e-05

2.59515e-05 -3.82337e-06 1.02358e-07
-3.82337e-06 2.38703e-05 1.61954e-09
1.02358e-07 1.61954e-09 2.75163e-05

6.25172e-05 6.33311e-06 3.12057e-07
6.33311e-06 7.54284e-05 -9.34049e-07
3.12057e-07 -9.34049e-07 6.35401e-05

6.25172e-05 -6.68497e-06 4.44475e-07
-6.68497e-06 7.47891e-05 1.23081e-07
4.44475e-07 1.23081e-07 6.35009e-05

5.54524e-05 -9.11208e-06 -2.35964e-07
-9.11208e-06 4.95201e-05 -9.24488e-08
-2.35964e-07 -9.24488e-08 5.38568e-05

4.69514e-05 -7.18727e-06 -7.22035e-08
-7.18727e-06 5.10779e-05 -2.21829e-08
-7.22035e-08 -2.21829e-08 4.80996e-05

5.05444e-05 7.09616e-06 -4.7374e-08
7.09616e-06 5.57034e-05 2.77485e-08
-4.7374e-08 2.77485e-08 5.45663e-05

4.94458e-05 -6.58289e-06 -1.05854e-08
-6.58289e-06 5.55552e-05 -3.24274e-08
-1.05854e-08 -3.24274e-08 5.45532e-05

4.73078e-05 -8.53544e-06 -4.73088e-08
-8.53544e-06 5.40336e-05 -5.52923e-08
-4.73088e-08 -5.52923e-08 5.08956e-05

4.6336e-05 6.77811e-06 -1.40733e-08
6.77811e-06 5.10534e-05 2.21192e-08
-1.40733e-08 2.21192e-08 4.8041e-05

3.18147e-05 -2.94945e-06 3.18421e-08
-2.94945e-06 3.94507e-05 -2.36285e-07
3.18421e-08 -2.36285e-07 3.3444e-05

3.22898e-05 2.13742e-06 -7.68134e-09
2.13742e-06 3.9786e-05 3.38703e-08
-7.68134e-09 3.38703e-08 3.32782e-05

4.00118e-05 1.7891e-06 7.24845e-08
1.7891e-06 3.07598e-05 1.49529e-07
7.24845e-08 1.49529e-07 3.29215e-05

4.70998e-05 8.36308e-06 -5.30002e-09
8.36308e-06 5.40398e-05 3.48047e-08
-5.30002e-09 3.48047e-08 5.08307e-05

2.88162e-05 -1.24226e-06 1.53607e-08
-1.24226e-06 3.64978e-05 5.64354e-08
1.53607e-08 5.64354e-08 3.08802e-05

3.88012e-05 -7.24717e-07 -1.01015e-07
-7.24717e-07 2.62379e-05 -1.14284e-07
-1.01015e-07 -1.14284e-07 3.09483e-05

5.29556e-05 -7.41493e-06 -8.23568e-08
-7.41493e-06 5.88466e-05 2.38303e-08
-8.23568e-08 2.38303e-08 5.74362e-05

5.21939e-05 6.8868e-06 -3.38386e-08
6.8868e-06 5.91979e-05 -7.57441e-08
-3.38386e-08 -7.57441e-08 5.74605e-05

5.40324e-05 -5.46952e-06 -4.72236e-08
-5.46952e-06 5.95793e-05 1.43776e-07
-4.72236e-08 1.43776e-07 5.7894e-05

5.33097e-05 4.89871e-06 -1.3036e-08
4.89871e-06 5.95713e-05 -1.47866e-07
-1.3036e-08 -1.47866e-07 5.79065e-05

2.49989e-05 4.25181e-06 1.25915e-07
4.25181e-06 2.23636e-05 1.94481e-08
1.25915e-07 1.94481e-08 2.71692e-05

2.42529e-05 4.36139e-06 5.47727e-08
4.36139e-06 2.26671e-05 -1.45099e-07
5.47727e-08 -1.45099e-07 2.70161e-05

5.06165e-05 6.56529e-06 -2.62623e-08
6.56529e-06 5.4904e-05 4.29036e-08
-2.62623e-08 4.29036e-08 5.23904e-05

5.0705e-05 -6.63197e-06 -2.48413e-09
-6.63197e-06 5.49921e-05 -3.81697e-08
-2.48413e-09 -3.81697e-08 5.23829e-05

5.99406e-05 -6.84798e-06 1.68182e-08
-6.84798e-06 6.80522e-05 1.17802e-07
1.68182e-08 1.17802e-07 6.16799e-05

6.07506e-05 2.95094e-06 1.67378e-07
2.95094e-06 6.27284e-05 3.68917e-08
1.67378e-07 3.68917e-08 6.16684e-05

5.16169e-05 -7.25376e-06 -4.99551e-08
-7.25376e-06 6.22125e-05 -3.15976e-08
-4.99551e-08 -3.15976e-08 5.85303e-05

5.13992e-05 7.21451e-06 6.33388e-08
7.21451e-06 6.2235e-05 7.83342e-08
6.33388e-08 7.83342e-08 5.85405e-05

6.36969e-05 9.30496e-07 -2.06567e-07
9.30496e-07 5.26995e-05 2.04871e-07
-2.06567e-07 2.04871e-07 5.99049e-05

6.44391e-05 -7.60085e-07 -1.75413e-07
-7.60085e-07 5.26994e-05 -2.21734e-07
-1.75413e-07 -2.21734e-07 5.99048e-05

5.30464e-05 -7.77308e-06 -1.70719e-07
-7.77308e-06 5.37813e-05 -2.22875e-07
-1.70719e-07 -2.22875e-07 5.58177e-05

5.26651e-05 8.1429e-06 1.00076e-07
8.1429e-06 5.31488e-05 8.26061e-08
1.00076e-07 8.26061e-08 5.57199e-05

6.83507e-05 1.89496e-06 1.88166e-07
1.89496e-06 5.82094e-05 1.2089e-07
1.88166e-07 1.2089e-07 6.16333e-05

6.8238e-05 6.55341e-08 -1.42641e-07
6.55341e-08 6.16917e-05 4.27018e-07
-1.42641e-07 4.27018e-07 6.28457e-05

6.86944e-05 -1.92862e-06 3.04954e-07
-1.92862e-06 5.82094e-05 2.1286e-08
3.04954e-07 2.1286e-08 6.16871e-05

6.8238e-05 -3.34026e-07 4.57685e-07
-3.34026e-07 6.15515e-05 1.62623e-07
4.57685e-07 1.62623e-07 6.28109e-05

5.99802e-05 2.53158e-07 -1.54237e-07
2.53158e-07 6.9147e-05 1.94837e-07
-1.54237e-07 1.94837e-07 6.19327e-05

7.11722e-05 7.44355e-06 1.31813e-07
7.44355e-06 6.45049e-05 1.06466e-07
1.31813e-07 1.06466e-07 6.15478e-05

7.13526e-05 -7.64524e-06 1.04797e-07
-7.64524e-06 6.46622e-05 -1.01233e-07
1.04797e-07 -1.01233e-07 6.15373e-05

5.51441e-05 -4.21305e-06 1.94533e-07
-4.21305e-06 7.57498e-05 -2.57737e-07
1.94533e-07 -2.57737e-07 6.20299e-05

6.41911e-05 -4.65921e-06 2.23527e-07
-4.65921e-06 6.1706e-05 -3.09828e-07
2.23527e-07 -3.09828e-07 6.24012e-05

9.68423e-05 -5.2205e-06 -2.12657e-06
-5.2205e-06 4.91675e-05 -1.41505e-06
-2.12657e-06 -1.41505e-06 6.35953e-05

6.15451e-05 2.51597e-06 1.06937e-07
2.51597e-06 6.15832e-05 8.50777e-08
1.06937e-07 8.50777e-08 6.25253e-05

9.6842e-05 -2.30464e-07 -2.01868e-06
-2.30464e-07 5.58947e-05 9.97915e-07
-2.01868e-06 9.97915e-07 6.37665e-05

6.4823e-05 -5.48724e-06 -1.41297e-07
-5.48724e-06 6.27643e-05 2.43167e-07
-1.41297e-07 2.43167e-07 6.19214e-05

5.79732e-05 -3.65486e-06 2.02072e-07
-3.65486e-06 6.33411e-05 1.57897e-08
2.02072e-07 1.57897e-08 6.04539e-05

6.71586e-05 -6.71588e-08 -2.90054e-07
-6.71588e-08 6.28776e-05 -4.45693e-07
-2.90054e-07 -4.45693e-07 6.3171e-05

6.43389e-05 5.16943e-06 2.9333e-08
5.16943e-06 6.32081e-05 -3.25539e-08
2.9333e-08 -3.25539e-08 6.19861e-05

5.91321e-05 3.54591e-06 1.67276e-07
3.54591e-06 6.33411e-05 5.87915e-08
1.67276e-07 5.87915e-08 6.04574e-05

6.6294e-05 6.09108e-07 4.16476e-08
6.09108e-07 6.35191e-05 -8.95801e-08
4.16476e-08 -8.95801e-08 6.32924e-05

5.77693e-05 -2.36893e-06 2.0149e-07
-2.36893e-06 6.24458e-05 2.29257e-08
2.0149e-07 2.29257e-08 6.09772e-05

6.40677e-05 -1.30064e-06 -3.49316e-07
-1.30064e-06 6.25003e-05 -1.48613e-07
-3.49316e-07 -1.48613e-07 6.21527e-05

5.90571e-05 3.05013e-06 1.57126e-07
3.05013e-06 6.24458e-05 -6.55903e-08
1.57126e-07 -6.55903e-08 6.09911e-05

6.46273e-05 2.09524e-06 5.47358e-08
2.09524e-06 6.25003e-05 -3.37029e-08
5.47358e-08 -3.37029e-08 6.22047e-05

4.33871e-05 6.93666e-06 -4.66894e-08
6.93666e-06 5.17179e-05 5.07065e-08
-4.66894e-08 5.07065e-08 4.51251e-05

4.63087e-05 1.03841e-06 -3.39049e-08
1.03841e-06 6.02948e-05 -4.93418e-08
-3.39049e-08 -4.93418e-08 5.44553e-05

5.16776e-05 3.76971e-06 -1.16874e-08
3.76971e-06 5.74203e-05 2.24023e-08
-1.16874e-08 2.24023e-08 5.41253e-05

5.52599e-05 -4.67534e-06 1.56639e-07
-4.67534e-06 4.09074e-05 -1.05698e-07
1.56639e-07 -1.05698e-07 4.927e-05

5.3134e-05 -2.54069e-06 -1.53409e-08
-2.54069e-06 3.9224e-05 -1.30128e-08
-1.53409e-08 -1.30128e-08 4.5906e-05

4.61123e-05 1.88541e-06 -3.37772e-08
1.88541e-06 6.7153e-05 -5.08287e-08
-3.37772e-08 -5.08287e-08 5.7655e-05

5.16849e-05 3.6671e-06 -5.59172e-09
3.6671e-06 5.88134e-05 -4.84988e-08
-5.59172e-09 -4.84988e-08 5.75357e-05

5.31423e-05 4.52276e-07 -1.52177e-08
4.52276e-07 4.02038e-05 7.60326e-08
-1.52177e-08 7.60326e-08 4.61562e-05

5.95194e-05 1.83696e-06 -9.01286e-08
1.83696e-06 4.3364e-05 4.93016e-08
-9.01286e-08 4.93016e-08 5.59034e-05

3.43612e-05 6.01919e-06 -5.06886e-08
6.01919e-06 4.31112e-05 1.12048e-07
-5.06886e-08 1.12048e-07 3.63212e-05

3.23947e-05 4.80397e-06 8.9019e-09
4.80397e-06 4.35138e-05 8.72494e-08
8.9019e-09 8.72494e-08 3.60827e-05

4.20235e-05 5.16861e-06 3.87093e-08
5.16861e-06 3.36957e-05 -2.44958e-08
3.87093e-08 -2.44958e-08 3.54724e-05

5.69642e-05 -7.21269e-06 5.42275e-08
-7.21269e-06 6.09547e-05 -2.71589e-08
5.42275e-08 -2.71589e-08 5.85905e-05

5.55629e-05 -3.04558e-06 8.02742e-08
-3.04558e-06 6.34428e-05 3.44263e-08
8.02742e-08 3.44263e-08 5.85621e-05

5.04122e-05 -8.20254e-06 -4.96519e-08
-8.20254e-06 4.87761e-05 -1.4212e-07
-4.96519e-08 -1.4212e-07 4.98307e-05

4.33464e-05 6.74428e-06 -4.86083e-08
6.74428e-06 5.36625e-05 2.5535e-08
-4.86083e-08 2.5535e-08 4.86279e-05

4.75337e-05 7.66841e-06 -4.80087e-08
7.66841e-06 5.71389e-05 -4.66508e-08
-4.80087e-08 -4.66508e-08 5.37388e-05

5.1566e-05 -3.8679e-06 5.63189e-08
-3.8679e-06 5.88826e-05 -2.84371e-08
5.63189e-08 -2.84371e-08 5.73709e-05

4.59011e-05 -2.27429e-06 1.51523e-07
-2.27429e-06 6.60819e-05 -8.93057e-09
1.51523e-07 -8.93057e-09 5.73697e-05

5.72545e-05 2.08675e-06 7.38612e-08
2.08675e-06 4.10356e-05 5.98251e-08
7.38612e-08 5.98251e-08 4.95916e-05

3.7351e-05 1.70659e-06 -2.34652e-09
1.70659e-06 4.84404e-05 1.59212e-08
-2.34652e-09 1.59212e-08 3.9138e-05

3.51188e-05 9.52639e-07 2.47097e-08
9.52639e-07 4.89216e-05 6.30515e-08
2.47097e-08 6.30515e-08 3.94e-05

4.78894e-05 1.16062e-06 1.67876e-08
1.16062e-06 3.64064e-05 -1.10295e-08
1.67876e-08 -1.10295e-08 3.84088e-05

4.1032e-05 5.11433e-06 1.43579e-07
5.11433e-06 5.23315e-05 -1.26183e-07
1.43579e-07 -1.26183e-07 4.57718e-05

4.32303e-05 7.74422e-06 -7.04138e-08
7.74422e-06 5.01508e-05 7.64346e-08
-7.04138e-08 7.64346e-08 4.4942e-05

5.47628e-05 1.27098e-06 1.22244e-07
1.27098e-06 4.06004e-05 1.31391e-07
1.22244e-07 1.31391e-07 4.98349e-05

3.27903e-05 3.56654e-06 -5.45215e-08
3.56654e-06 3.94475e-05 1.04818e-07
-5.45215e-08 1.04818e-07 3.24226e-05

6.02687e-05 -4.37806e-06 -6.70807e-08
-4.37806e-06 4.36253e-05 1.47974e-08
-6.70807e-08 1.47974e-08 5.44286e-05

5.5239e-05 1.0069e-06 4.07766e-08
1.0069e-06 6.6457e-05 -7.98082e-08
4.07766e-08 -7.98082e-08 5.88274e-05

5.88199e-05 -1.34217e-07 1.34235e-08
-1.34217e-07 6.06905e-05 -5.58902e-08
1.34235e-08 -5.58902e-08 5.89248e-05

7.7998e-05 3.06461e-06 -1.60448e-07
3.06461e-06 5.85474e-05 1.1772e-07
-1.60448e-07 1.1772e-07 6.26044e-05

7.68671e-05 -7.16013e-06 2.37001e-08
-7.16013e-06 6.29936e-05 -9.15234e-08
2.37001e-08 -9.15234e-08 6.20605e-05

4.74043e-05 -9.27915e-06 9.37763e-08
-9.27915e-06 4.90471e-05 -2.37843e-08
9.37763e-08 -2.37843e-08 4.9219e-05

4.09726e-05 -7.07659e-06 -6.11195e-08
-7.07659e-06 4.83021e-05 3.51295e-08
-6.11195e-08 3.51295e-08 4.5255e-05

4.66918e-05 -2.6055e-06 1.13494e-08
-2.6055e-06 3.32957e-05 -7.45853e-08
1.13494e-08 -7.45853e-08 3.83904e-05

6.38449e-05 1.29148e-06 -9.11098e-08
1.29148e-06 5.57217e-05 1.42096e-07
-9.11098e-08 1.42096e-07 5.92826e-05

6.4277e-05 -4.52006e-06 -1.12573e-07
-4.52006e-06 5.60321e-05 4.3421e-08
-1.12573e-07 4.3421e-08 5.86593e-05

5.92719e-05 -2.06049e-06 -1.68155e-08
-2.06049e-06 4.38319e-05 1.70171e-08
-1.68155e-08 1.70171e-08 5.5969e-05

5.9222e-05 -7.94073e-07 -9.22968e-08
-7.94073e-07 4.06749e-05 1.20792e-08
-9.22968e-08 1.20792e-08 5.4963e-05

4.87374e-05 -7.15596e-06 -5.41415e-08
-7.15596e-06 4.2428e-05 -4.30614e-09
-5.41415e-08 -4.30614e-09 4.34501e-05

5.064e-05 3.58273e-06 4.86867e-08
3.58273e-06 3.85316e-05 5.66039e-08
4.86867e-08 5.66039e-08 4.27481e-05

4.90364e-05 -6.23542e-06 -5.68432e-08
-6.23542e-06 3.72427e-05 -2.66115e-08
-5.68432e-08 -2.66115e-08 4.23516e-05

4.32651e-05 4.80024e-06 1.25714e-07
4.80024e-06 5.86582e-05 1.09987e-07
1.25714e-07 1.09987e-07 5.43224e-05

4.15824e-05 -5.43595e-06 -2.83536e-08
-5.43595e-06 5.09943e-05 6.82264e-08
-2.83536e-08 6.82264e-08 4.58006e-05

4.11369e-05 5.93125e-06 -8.79342e-08
5.93125e-06 5.0263e-05 1.46338e-07
-8.79342e-08 1.46338e-07 4.53792e-05

2.65831e-05 -8.92521e-06 -1.28372e-07
-8.92521e-06 2.74714e-05 -7.53857e-08
-1.28372e-07 -7.53857e-08 2.67009e-05

2.42555e-05 5.95216e-06 -7.07994e-08
5.95216e-06 2.68424e-05 -4.98445e-08
-7.07994e-08 -4.98445e-08 2.64118e-05

4.64625e-05 -6.55331e-06 -1.70573e-07
-6.55331e-06 6.20911e-05 -6.06148e-08
-1.70573e-07 -6.06148e-08 5.7305e-05

4.10152e-05 4.9486e-06 1.44027e-07
4.9486e-06 5.42044e-05 -1.15349e-07
1.44027e-07 -1.15349e-07 4.92914e-05

2.45747e-05 1.00113e-06 -7.2843e-08
1.00113e-06 2.51575e-05 1.38924e-08
-7.2843e-08 1.38924e-08 2.79695e-05

2.54649e-05 -1.69845e-06 1.11646e-08
-1.69845e-06 2.81715e-05 -6.86518e-08
1.11646e-08 -6.86518e-08 2.81649e-05

5.75693e-05 -2.39534e-06 2.36422e-08
-2.39534e-06 6.15758e-05 1.19624e-07
2.36422e-08 1.19624e-07 5.95195e-05

5.75243e-05 5.76936e-06 -5.73388e-08
5.76936e-06 5.96752e-05 -1.65493e-07
-5.73388e-08 -1.65493e-07 5.97008e-05

6.15436e-05 2.56126e-07 1.13385e-08
2.56126e-07 4.18033e-05 8.29821e-08
1.13385e-08 8.29821e-08 5.19992e-05

5.78924e-05 -1.43865e-06 -7.89393e-09
-1.43865e-06 5.9043e-05 -1.02313e-07
-7.89393e-09 -1.02313e-07 5.95134e-05

5.76379e-05 5.29748e-06 -1.09689e-07
5.29748e-06 6.06938e-05 2.02924e-07
-1.09689e-07 2.02924e-07 5.96262e-05

7.20988e-05 6.02293e-06 1.89338e-07
6.02293e-06 5.72552e-05 1.12379e-07
1.89338e-07 1.12379e-07 6.18412e-05

6.97115e-05 -6.96586e-06 1.66545e-07
-6.96586e-06 6.23448e-05 9.20996e-08
1.66545e-07 9.20996e-08 6.13738e-05

5.43137e-05 -4.37311e-06 4.84158e-08
-4.37311e-06 5.55634e-05 5.09783e-08
4.84158e-08 5.09783e-08 5.57798e-05

5.42351e-05 5.87458e-06 -8.9096e-08
5.87458e-06 5.41962e-05 1.24805e-07
-8.9096e-08 1.24805e-07 5.60304e-05

5.7994e-05 -6.96903e-07 -3.02878e-08
-6.96903e-07 7.2866e-05 -1.19102e-08
-3.02878e-08 -1.19102e-08 6.11697e-05

5.948e-05 2.16317e-06 1.77378e-09
2.16317e-06 6.65558e-05 -9.70654e-08
1.77378e-09 -9.70654e-08 6.14544e-05

4.2205e-05 -8.1314e-06 7.31021e-08
-8.1314e-06 5.11559e-05 1.52092e-07
7.31021e-08 1.52092e-07 4.52584e-05

2.93316e-05 6.82212e-07 -8.65031e-08
6.82212e-07 3.80825e-05 -5.96209e-08
-8.65031e-08 -5.96209e-08 3.19733e-05

3.72377e-05 9.38806e-07 -3.46024e-08
9.38806e-07 3.02638e-05 -7.07391e-08
-3.46024e-08 -7.07391e-08 3.18984e-05

4.2255e-05 3.87341e-06 -1.69636e-07
3.87341e-06 5.83133e-05 4.79296e-08
-1.69636e-07 4.79296e-08 5.30055e-05

4.67348e-05 6.18913e-06 5.20334e-08
6.18913e-06 5.64902e-05 -2.3235e-08
5.20334e-08 -2.3235e-08 5.25777e-05

7.30315e-05 -6.58942e-06 -6.29305e-08
-6.58942e-06 6.14923e-05 1.01111e-07
-6.29305e-08 1.01111e-07 6.36754e-05

6.83875e-05 6.90417e-06 -6.21847e-08
6.90417e-06 8.05408e-05 3.09021e-08
-6.21847e-08 3.09021e-08 6.35399e-05

4.83513e-05 5.88263e-06 3.5908e-08
5.88263e-06 4.39609e-05 -5.30245e-08
3.5908e-08 -5.30245e-08 4.42315e-05

4.90173e-05 9.49423e-06 -2.40571e-08
9.49423e-06 5.87767e-05 -1.82444e-09
-2.40571e-08 -1.82444e-09 5.53561e-05

5.59564e-05 3.73331e-06 -1.88999e-07
3.73331e-06 4.65744e-05 -1.21174e-07
-1.88999e-07 -1.21174e-07 5.30711e-05

5.62685e-05 -2.90383e-06 1.76972e-07
-2.90383e-06 4.60682e-05 -1.28349e-07
1.76972e-07 -1.28349e-07 5.27911e-05

4.95249e-05 9.34597e-06 -4.45135e-08
9.34597e-06 5.66049e-05 4.37889e-08
-4.45135e-08 4.37889e-08 5.50126e-05

5.05717e-05 -9.1714e-06 -1.01269e-07
-9.1714e-06 6.03997e-05 -8.78721e-08
-1.01269e-07 -8.78721e-08 5.69776e-05

6.29746e-05 -8.03454e-06 -1.09351e-07
-8.03454e-06 5.03649e-05 5.76305e-08
-1.09351e-07 5.76305e-08 5.77366e-05

4.64496e-05 -8.03412e-07 4.63272e-09
-8.03412e-07 3.45794e-05 2.76928e-08
4.63272e-09 2.76928e-08 3.85367e-05

7.58873e-05 -2.48898e-07 -4.66397e-08
-2.48898e-07 6.96172e-05 -1.24156e-07
-4.66397e-08 -1.24156e-07 6.25213e-05

7.87418e-05 9.33761e-07 4.80086e-07
9.33761e-07 6.04906e-05 -2.02242e-07
4.80086e-07 -2.02242e-07 6.30812e-05

4.9162e-05 7.17711e-06 -3.12938e-08
7.17711e-06 4.573e-05 -1.19596e-07
-3.12938e-08 -1.19596e-07 4.80198e-05

5.71685e-05 2.72668e-06 7.14919e-08
2.72668e-06 4.3993e-05 9.98917e-08
7.14919e-08 9.98917e-08 5.01869e-05

4.00978e-05 6.63327e-06 3.42829e-08
6.63327e-06 4.29988e-05 1.06172e-07
3.42829e-08 1.06172e-07 3.82513e-05

6.13335e-05 1.91959e-06 1.78646e-07
1.91959e-06 6.63276e-05 -5.40412e-08
1.78646e-07 -5.40412e-08 6.23733e-05

6.23528e-05 5.24557e-06 -2.60122e-07
5.24557e-06 7.54991e-05 -6.78175e-08
-2.60122e-07 -6.78175e-08 6.19233e-05

6.30095e-05 3.92673e-06 -2.04634e-08
3.92673e-06 4.88877e-05 -1.74766e-07
-2.04634e-08 -1.74766e-07 5.85091e-05

4.60053e-05 -1.56059e-06 1.56923e-07
-1.56059e-06 6.05611e-05 8.2082e-08
1.56923e-07 8.2082e-08 5.42004e-05

5.16472e-05 -3.38432e-06 5.66955e-08
-3.38432e-06 5.75786e-05 -2.34881e-08
5.66955e-08 -2.34881e-08 5.40426e-05

6.21131e-05 1.29907e-06 -6.05297e-08
1.29907e-06 4.29524e-05 3.44327e-08
-6.05297e-08 3.44327e-08 5.44739e-05

6.26167e-05 -8.41256e-07 1.47807e-07
-8.41256e-07 4.33128e-05 -6.10893e-08
1.47807e-07 -6.10893e-08 5.43299e-05

4.31519e-05 -5.88773e-06 8.91729e-08
-5.88773e-06 4.09657e-05 -9.79301e-08
8.91729e-08 -9.79301e-08 3.77189e-05

5.56771e-05 -4.17984e-08 -5.96322e-08
-4.17984e-08 3.92962e-05 -7.18043e-09
-5.96322e-08 -7.18043e-09 4.59499e-05

6.20451e-05 -1.34082e-06 -1.0913e-07
-1.34082e-06 4.84615e-05 1.20845e-07
-1.0913e-07 1.20845e-07 5.70163e-05

6.05769e-05 2.16055e-06 1.69332e-08
2.16055e-06 4.98496e-05 -8.9855e-08
1.69332e-08 -8.9855e-08 5.70703e-05

5.72041e-05 -2.57779e-06 -1.0665e-07
-2.57779e-06 4.49182e-05 1.02423e-07
-1.0665e-07 1.02423e-07 4.99293e-05

4.36717e-05 -7.08403e-06 -5.20234e-08
-7.08403e-06 5.14214e-05 -9.02161e-09
-5.20234e-08 -9.02161e-09 4.58198e-05

6.25537e-05 -6.9768e-07 1.33863e-07
-6.9768e-07 4.65511e-05 -1.34197e-07
1.33863e-07 -1.34197e-07 5.47766e-05

6.18818e-05 1.45785e-06 -2.58376e-08
1.45785e-06 4.69166e-05 -1.34957e-07
-2.58376e-08 -1.34957e-07 5.49506e-05

5.5157e-05 2.50972e-06 -1.00931e-08
2.50972e-06 4.38447e-05 -1.14783e-07
-1.00931e-08 -1.14783e-07 5.11686e-05

4.30034e-05 -8.72355e-06 -5.48125e-08
-8.72355e-06 4.2078e-05 -4.41106e-09
-5.48125e-08 -4.41106e-09 4.09843e-05

4.71334e-05 8.9986e-06 -2.7113e-08
8.9986e-06 5.45784e-05 1.23732e-07
-2.7113e-08 1.23732e-07 5.53973e-05

4.88872e-05 8.69567e-06 -3.09274e-08
8.69567e-06 5.94356e-05 8.94436e-08
-3.09274e-08 8.94436e-08 5.58059e-05

4.60661e-05 6.64944e-06 5.90864e-08
6.64944e-06 5.57019e-05 -1.53649e-08
5.90864e-08 -1.53649e-08 5.60795e-05

5.11118e-05 2.96843e-06 -1.99495e-08
2.96843e-06 3.73908e-05 -2.81098e-08
-1.99495e-08 -2.81098e-08 4.27592e-05

3.9267e-05 -6.58443e-06 -4.85159e-08
-6.58443e-06 3.35531e-05 -7.30065e-08
-4.85159e-08 -7.30065e-08 3.36204e-05

5.48466e-05 5.6215e-06 5.8973e-08
5.6215e-06 4.7928e-05 -5.91711e-08
5.8973e-08 -5.91711e-08 5.36798e-05

5.58992e-05 -6.06624e-06 1.56477e-07
-6.06624e-06 4.3332e-05 -1.0519e-07
1.56477e-07 -1.0519e-07 5.01567e-05

4.05069e-05 -5.5975e-06 -5.65995e-08
-5.5975e-06 3.2261e-05 -8.99045e-08
-5.65995e-08 -8.99045e-08 3.39045e-05

5.05301e-05 -9.15485e-06 -5.73788e-08
-9.15485e-06 4.4468e-05 -1.74698e-09
-5.73788e-08 -1.74698e-09 4.76288e-05

4.54413e-05 2.63568e-07 -2.16975e-08
2.63568e-07 5.54632e-05 1.72498e-08
-2.16975e-08 1.72498e-08 5.21861e-05

4.08501e-05 -1.63701e-07 1.89156e-07
-1.63701e-07 6.05014e-05 6.53314e-08
1.89156e-07 6.53314e-08 5.24584e-05

4.33635e-05 8.11476e-06 -7.72032e-08
8.11476e-06 4.29795e-05 4.29973e-09
-7.72032e-08 4.29973e-09 4.20591e-05

4.32128e-05 -6.55308e-06 8.55864e-08
-6.55308e-06 3.41426e-05 -4.123e-09
8.55864e-08 -4.123e-09 3.62551e-05

5.05613e-05 -9.8561e-06 -5.12076e-08
-9.8561e-06 5.35779e-05 3.40782e-08
-5.12076e-08 3.40782e-08 5.49889e-05

4.24028e-05 -8.44086e-06 9.05986e-08
-8.44086e-06 4.72295e-05 4.21067e-08
9.05986e-08 4.21067e-08 4.20525e-05

4.15872e-05 -8.99039e-06 -5.52068e-08
-8.99039e-06 4.58691e-05 -5.13456e-09
-5.52068e-08 -5.13456e-09 4.19276e-05

5.37547e-05 4.17028e-06 -7.82818e-09
4.17028e-06 4.61714e-05 -1.21428e-07
-7.82818e-09 -1.21428e-07 5.05883e-05

6.48338e-05 2.77797e-06 -1.46163e-07
2.77797e-06 4.00782e-05 -5.7832e-09
-1.46163e-07 -5.7832e-09 5.82019e-05

6.39604e-05 -4.73582e-06 3.07225e-08
-4.73582e-06 4.32592e-05 -4.19191e-08
3.07225e-08 -4.19191e-08 5.7682e-05

3.95497e-05 4.7943e-06 2.50559e-08
4.7943e-06 5.05819e-05 8.17811e-08
2.50559e-08 8.17811e-08 4.30318e-05

3.65054e-05 3.24834e-06 -6.88759e-08
3.24834e-06 5.17532e-05 -1.70131e-07
-6.88759e-08 -1.70131e-07 4.35274e-05

3.28646e-05 -5.94371e-07 1.59126e-08
-5.94371e-07 4.74165e-05 2.18792e-08
1.59126e-08 2.18792e-08 3.75051e-05

3.05995e-05 -9.77115e-07 5.1528e-08
-9.77115e-07 4.82025e-05 7.04165e-08
5.1528e-08 7.04165e-08 3.77094e-05

4.7345e-05 -6.07164e-07 3.40589e-08
-6.07164e-07 3.07294e-05 3.91697e-08
3.40589e-08 3.91697e-08 3.6939e-05

4.58375e-05 -7.66152e-06 -3.35708e-08
-7.66152e-06 4.19221e-05 1.78856e-08
-3.35708e-08 1.78856e-08 4.18958e-05

6.19166e-05 -5.70695e-06 -4.35721e-07
-5.70695e-06 7.1106e-05 1.40783e-07
-4.35721e-07 1.40783e-07 6.33046e-05

7.85279e-05 -3.46566e-06 3.46635e-07
-3.46566e-06 7.93974e-05 -2.60228e-07
3.46635e-07 -2.60228e-07 6.27099e-05

4.8323e-05 5.41366e-06 5.29424e-08
5.41366e-06 3.93569e-05 4.90267e-08
5.29424e-08 4.90267e-08 4.20583e-05

5.18718e-05 -3.85567e-06 -2.33904e-09
-3.85567e-06 3.7343e-05 5.48034e-10
-2.33904e-09 5.48034e-10 4.31358e-05

4.02033e-05 3.23859e-06 -1.72236e-08
3.23859e-06 3.22913e-05 -7.49681e-08
-1.72236e-08 -7.49681e-08 3.42809e-05

4.32155e-05 5.62185e-06 1.84507e-07
5.62185e-06 5.38215e-05 -8.20208e-08
1.84507e-07 -8.20208e-08 5.20543e-05

6.15335e-05 3.95407e-07 1.28633e-08
3.95407e-07 4.20717e-05 3.93915e-08
1.28633e-08 3.93915e-08 5.18692e-05

4.96132e-05 8.55416e-06 8.24713e-10
8.55416e-06 6.00515e-05 -5.57727e-08
8.24713e-10 -5.57727e-08 5.72122e-05

4.4498e-05 6.65799e-06 7.29178e-08
6.65799e-06 6.30365e-05 -4.53536e-08
7.29178e-08 -4.53536e-08 5.76576e-05

3.85527e-05 4.42481e-06 -9.28987e-08
4.42481e-06 4.34833e-05 8.39934e-08
-9.28987e-08 8.39934e-08 3.80309e-05

4.17697e-05 5.11387e-06 3.8408e-08
5.11387e-06 4.00677e-05 -2.60722e-08
3.8408e-08 -2.60722e-08 3.74986e-05

4.84952e-05 -1.023e-05 6.64001e-09
-1.023e-05 5.78982e-05 2.47987e-08
6.64001e-09 2.47987e-08 5.47667e-05

4.06258e-05 2.54902e-06 -6.33504e-08
2.54902e-06 3.28166e-05 5.53163e-08
-6.33504e-08 5.53163e-08 3.45132e-05

4.66151e-05 7.9919e-06 -4.15548e-08
7.9919e-06 5.40464e-05 7.17446e-08
-4.15548e-08 7.17446e-08 5.63822e-05

4.67873e-05 9.22178e-06 -6.49348e-08
9.22178e-06 5.54336e-05 1.27856e-08
-6.49348e-08 1.27856e-08 5.13296e-05

6.53646e-05 -2.08598e-07 -4.00268e-08
-2.08598e-07 4.19867e-05 5.89482e-08
-4.00268e-08 5.89482e-08 5.55966e-05

4.8583e-05 -7.33516e-06 -9.01529e-08
-7.33516e-06 5.4099e-05 1.37207e-07
-9.01529e-08 1.37207e-07 5.6197e-05

4.88448e-05 7.56403e-06 -7.05343e-08
7.56403e-06 4.97789e-05 7.64075e-08
-7.05343e-08 7.64075e-08 4.84862e-05

3.83001e-05 -3.8584e-06 -4.40598e-09
-3.8584e-06 4.93713e-05 3.34507e-08
-4.40598e-09 3.34507e-08 3.9913e-05

3.63464e-05 -3.961e-06 1.02957e-07
-3.961e-06 4.97373e-05 4.11281e-08
1.02957e-07 4.11281e-08 4.00509e-05

4.79957e-05 -2.79849e-06 6.33451e-08
-2.79849e-06 3.70795e-05 -2.26231e-08
6.33451e-08 -2.26231e-08 3.91859e-05

4.57655e-05 -6.74718e-06 -2.97049e-08
-6.74718e-06 4.68978e-05 -8.9894e-08
-2.97049e-08 -8.9894e-08 4.3363e-05

4.09056e-05 -6.32981e-07 1.96929e-07
-6.32981e-07 5.69428e-05 -9.10334e-08
1.96929e-07 -9.10334e-08 4.80321e-05

4.54875e-05 -1.75742e-07 -2.09737e-08
-1.75742e-07 5.44943e-05 2.71445e-09
-2.09737e-08 2.71445e-09 4.76814e-05

3.7215e-05 -7.52209e-06 6.57097e-08
-7.52209e-06 4.11014e-05 -1.11758e-07
6.57097e-08 -1.11758e-07 3.60985e-05

3.51317e-05 -7.03009e-06 5.04007e-09
-7.03009e-06 4.27656e-05 5.64859e-08
5.04007e-09 5.64859e-08 3.63452e-05

6.51199e-05 -5.18847e-07 -1.9151e-08
-5.18847e-07 4.34903e-05 2.7293e-08
-1.9151e-08 2.7293e-08 5.57314e-05

6.56484e-05 5.36922e-07 -1.4057e-07
5.36922e-07 4.36741e-05 -1.06894e-07
-1.4057e-07 -1.06894e-07 5.56541e-05

4.63716e-05 6.91854e-06 -1.32265e-07
6.91854e-06 5.21362e-05 5.33835e-08
-1.32265e-07 5.33835e-08 5.28213e-05

4.50485e-05 -5.83549e-06 -9.73485e-09
-5.83549e-06 6.17627e-05 -1.16597e-07
-9.73485e-09 -1.16597e-07 5.7443e-05

5.43436e-05 -8.83021e-06 5.95806e-08
-8.83021e-06 4.88494e-05 -1.68611e-07
5.95806e-08 -1.68611e-07 5.32649e-05

5.78439e-05 3.33231e-06 -1.60479e-07
3.33231e-06 5.43202e-05 1.26577e-07
-1.60479e-07 1.26577e-07 5.77727e-05

5.85564e-05 -8.47699e-07 -1.0686e-07
-8.47699e-07 5.57675e-05 4.64019e-08
-1.0686e-07 4.64019e-08 5.76436e-05

5.60905e-05 -3.65184e-06 1.80714e-07
-3.65184e-06 5.21796e-05 -8.5625e-08
1.80714e-07 -8.5625e-08 5.33198e-05

5.57997e-05 4.51931e-06 -2.00154e-07
4.51931e-06 4.97094e-05 9.75975e-09
-2.00154e-07 9.75975e-09 5.36104e-05

2.59706e-05 -3.87081e-06 1.01147e-09
-3.87081e-06 1.7975e-05 -2.0477e-07
1.01147e-09 -2.0477e-07 2.80783e-05

4.13672e-05 7.30648e-06 -9.2636e-08
7.30648e-06 4.64324e-05 8.42687e-08
-9.2636e-08 8.42687e-08 4.22229e-05

2.01431e-05 3.24584e-06 -2.71128e-08
3.24584e-06 2.52558e-05 -1.15977e-08
-2.71128e-08 -1.15977e-08 2.80234e-05

4.8073e-05 7.86325e-06 -8.84286e-08
7.86325e-06 5.29258e-05 4.65529e-08
-8.84286e-08 4.65529e-08 5.12812e-05

3.9332e-05 -5.67943e-06 1.30733e-08
-5.67943e-06 5.11091e-05 -1.83017e-08
1.30733e-08 -1.83017e-08 4.35621e-05

3.68033e-05 -4.77594e-06 9.91589e-08
-4.77594e-06 5.09032e-05 5.09165e-08
9.91589e-08 5.09165e-08 4.36956e-05

6.43969e-05 -1.65206e-06 -3.40468e-08
-1.65206e-06 6.25405e-05 -8.11705e-09
-3.40468e-08 -8.11705e-09 6.19949e-05

6.11905e-05 4.4923e-06 1.01482e-07
4.4923e-06 6.67069e-05 2.68558e-08
1.01482e-07 2.68558e-08 6.20118e-05

5.11347e-05 5.14681e-06 1.93145e-08
5.14681e-06 4.61378e-05 -2.68139e-09
1.93145e-08 -2.68139e-09 4.89226e-05

5.56819e-05 -6.37949e-07 -5.95279e-08
-6.37949e-07 3.98007e-05 -3.28178e-08
-5.95279e-08 -3.28178e-08 4.59424e-05

4.58414e-05 6.19764e-06 1.23544e-07
6.19764e-06 3.98225e-05 2.74097e-08
1.23544e-07 2.74097e-08 4.17442e-05

4.19022e-05 -3.55166e-06 -7.71719e-08
-3.55166e-06 5.9596e-05 -3.5391e-08
-7.71719e-08 -3.5391e-08 5.28956e-05

4.64868e-05 -5.51343e-06 1.20796e-07
-5.51343e-06 5.67282e-05 7.67886e-09
1.20796e-07 7.67886e-09 5.26976e-05

4.83365e-05 -1.05462e-05 5.15152e-09
-1.05462e-05 6.11219e-05 2.91683e-08
5.15152e-09 2.91683e-08 5.555e-05

5.11405e-05 -5.44125e-06 -1.26629e-07
-5.44125e-06 4.87194e-05 -4.31702e-08
-1.26629e-07 -4.31702e-08 4.85953e-05

4.80929e-05 9.5179e-06 2.42971e-08
9.5179e-06 5.8795e-05 3.84987e-09
2.42971e-08 3.84987e-09 5.54328e-05

5.57965e-05 4.14817e-06 -2.09458e-08
4.14817e-06 6.33165e-05 -3.92158e-08
-2.09458e-08 -3.92158e-08 5.8837e-05

5.70035e-05 6.86267e-06 -1.2655e-08
6.86267e-06 6.02412e-05 -5.48914e-08
-1.2655e-08 -5.48914e-08 5.87627e-05

4.69825e-05 -9.40727e-06 1.30476e-07
-9.40727e-06 5.74543e-05 -4.85755e-08
1.30476e-07 -4.85755e-08 5.23088e-05

4.76267e-05 8.283e-06 -8.10804e-08
8.283e-06 5.60355e-05 1.90469e-08
-8.10804e-08 1.90469e-08 5.21583e-05

4.21464e-05 1.09798e-05 1.31393e-08
1.09798e-05 5.65188e-05 -1.95283e-08
1.31393e-08 -1.95283e-08 5.62954e-05

3.76186e-05 8.95268e-07 -1.69161e-07
8.95268e-07 5.62518e-05 1.0738e-07
-1.69161e-07 1.0738e-07 4.67838e-05

4.10591e-05 2.1929e-06 7.05963e-08
2.1929e-06 5.32276e-05 -4.69533e-08
7.05963e-08 -4.69533e-08 4.62921e-05

5.02838e-05 6.57314e-06 6.30156e-11
6.57314e-06 4.92296e-05 -1.92788e-08
6.30156e-11 -1.92788e-08 5.17944e-05

4.57243e-05 5.51486e-06 1.12076e-07
5.51486e-06 4.5087e-05 -1.4142e-07
1.12076e-07 -1.4142e-07 4.36943e-05

4.15612e-05 -5.32894e-06 -2.34463e-08
-5.32894e-06 5.59561e-05 -3.55232e-08
-2.34463e-08 -3.55232e-08 4.94407e-05

4.98039e-05 -1.00062e-05 6.29054e-08
-1.00062e-05 6.1079e-05 -1.45404e-07
6.29054e-08 -1.45404e-07 5.68933e-05

2.88004e-05 3.37453e-06 -1.04369e-07
3.37453e-06 3.35147e-05 1.04778e-07
-1.04369e-07 1.04778e-07 2.95763e-05

3.28728e-05 3.27771e-06 8.8267e-08
3.27771e-06 2.98635e-05 -8.22609e-08
8.8267e-08 -8.22609e-08 2.95795e-05

3.86587e-05 -6.93466e-06 -7.48686e-08
-6.93466e-06 4.16377e-05 9.08447e-09
-7.48686e-08 9.08447e-09 3.7117e-05

5.03742e-05 -6.69293e-06 -3.97337e-08
-6.69293e-06 5.14202e-05 -1.17472e-07
-3.97337e-08 -1.17472e-07 5.13897e-05

5.72512e-05 -2.04804e-06 -1.10806e-07
-2.04804e-06 4.08703e-05 -4.93254e-09
-1.10806e-07 -4.93254e-09 4.94542e-05

6.80712e-05 5.32767e-06 -2.26314e-07
5.32767e-06 7.47843e-05 -3.64118e-07
-2.26314e-07 -3.64118e-07 6.33624e-05

7.46368e-05 -9.00413e-06 6.13482e-08
-9.00413e-06 6.38169e-05 -1.97998e-07
6.13482e-08 -1.97998e-07 6.34505e-05

4.64815e-05 -1.00816e-05 -5.45351e-08
-1.00816e-05 5.69152e-05 -1.38918e-07
-5.45351e-08 -1.38918e-07 5.17635e-05

6.25905e-05 1.69458e-06 -1.0067e-07
1.69458e-06 5.86496e-05 1.30243e-07
-1.0067e-07 1.30243e-07 6.12342e-05

6.3907e-05 -7.28772e-06 -1.35939e-08
-7.28772e-06 6.37123e-05 -8.31007e-08
-1.35939e-08 -8.31007e-08 6.0817e-05

5.73287e-05 -2.32721e-06 7.42737e-08
-2.32721e-06 4.28479e-05 -1.50438e-07
7.42737e-08 -1.50438e-07 5.19266e-05

4.35893e-05 -1.09717e-05 -1.26621e-07
-1.09717e-05 5.59398e-05 7.60738e-08
-1.26621e-07 7.60738e-08 5.60366e-05

3.10841e-05 -6.77631e-06 1.47266e-08
-6.77631e-06 3.37408e-05 -6.18312e-08
1.47266e-08 -6.18312e-08 3.08358e-05

3.30446e-05 4.39135e-06 6.27723e-09
4.39135e-06 3.23945e-05 -7.40316e-08
6.27723e-09 -7.40316e-08 3.10191e-05

3.06897e-05 -3.76575e-06 -1.63668e-07
-3.76575e-06 3.95126e-05 8.82911e-08
-1.63668e-07 8.82911e-08 3.27531e-05

3.15028e-05 -4.02652e-06 2.32024e-08
-4.02652e-06 4.04076e-05 3.80417e-08
2.32024e-08 3.80417e-08 3.33211e-05

4.03677e-05 -2.88894e-06 -1.20902e-08
-2.88894e-06 2.97447e-05 8.88601e-08
-1.20902e-08 8.88601e-08 3.26128e-05

4.06567e-05 5.86341e-06 4.9175e-08
5.86341e-06 4.04482e-05 4.7809e-08
4.9175e-08 4.7809e-08 3.76145e-05

4.78746e-05 -1.10839e-05 -9.53477e-09
-1.10839e-05 6.05977e-05 5.1808e-09
-9.53477e-09 5.1808e-09 5.53213e-05

2.685e-05 7.95028e-07 4.60461e-08
7.95028e-07 3.83171e-05 1.35095e-07
4.60461e-08 1.35095e-07 3.09459e-05

3.79929e-05 -1.74148e-06 -1.0909e-07
-1.74148e-06 2.65151e-05 4.19974e-09
-1.0909e-07 4.19974e-09 3.11098e-05

5.76405e-05 5.84619e-07 1.53463e-08
5.84619e-07 6.95997e-05 -9.84632e-08
1.53463e-08 -9.84632e-08 6.04229e-05

5.89534e-05 -4.65063e-06 1.17084e-07
-4.65063e-06 6.31091e-05 1.01492e-07
1.17084e-07 1.01492e-07 6.06209e-05

5.91039e-05 -5.51651e-06 -7.19228e-08
-5.51651e-06 4.90794e-05 2.19851e-08
-7.19228e-08 2.19851e-08 5.45906e-05

6.12027e-05 -4.28389e-07 -4.01067e-08
-4.28389e-07 3.68973e-05 -5.10028e-08
-4.01067e-08 -5.10028e-08 5.61888e-05

3.49532e-05 -6.44776e-06 1.87769e-08
-6.44776e-06 4.57669e-05 -6.03179e-08
1.87769e-08 -6.03179e-08 3.88284e-05

3.66592e-05 -5.85235e-06 3.91432e-08
-5.85235e-06 4.6949e-05 8.55068e-08
3.91432e-08 8.55068e-08 3.89649e-05

5.81243e-05 -4.89386e-07 1.29354e-07
-4.89386e-07 4.12761e-05 1.25744e-07
1.29354e-07 1.25744e-07 5.22413e-05

4.37424e-05 -7.71806e-06 -4.24528e-08
-7.71806e-06 5.48944e-05 -1.48347e-07
-4.24528e-08 -1.48347e-07 4.92914e-05

6.32026e-05 2.99566e-07 3.28775e-08
2.99566e-07 5.95994e-05 -8.69843e-08
3.28775e-08 -8.69843e-08 6.07578e-05

6.03441e-05 2.24976e-06 1.63936e-07
2.24976e-06 6.25969e-05 1.00455e-07
1.63936e-07 1.00455e-07 6.07943e-05

5.61819e-05 -6.89354e-06 1.30271e-07
-6.89354e-06 5.06243e-05 -1.20994e-07
1.30271e-07 -1.20994e-07 5.40334e-05

4.73116e-05 -7.81417e-06 9.40994e-08
-7.81417e-06 5.23755e-05 -3.43358e-08
9.40994e-08 -3.43358e-08 5.23402e-05

5.91384e-05 -5.68301e-06 -7.1309e-08
-5.68301e-06 4.21195e-05 9.80924e-09
-7.1309e-08 9.80924e-09 5.35077e-05

4.50706e-05 -6.04933e-06 3.92539e-08
-6.04933e-06 5.56701e-05 -7.044e-08
3.92539e-08 -7.044e-08 5.20163e-05

2.46172e-05 -1.28393e-05 7.33575e-08
-1.28393e-05 2.57181e-05 6.53246e-08
7.33575e-08 6.53246e-08 2.58863e-05

4.15038e-05 -2.81087e-06 3.07228e-08
-2.81087e-06 5.31321e-05 2.09246e-08
3.07228e-08 2.09246e-08 4.64373e-05

3.837e-05 -1.80292e-06 1.83045e-09
-1.80292e-06 5.64332e-05 -1.59757e-07
1.83045e-09 -1.59757e-07 4.67299e-05

5.55566e-05 -4.17263e-07 -1.53876e-08
-4.17263e-07 7.22395e-05 2.49499e-07
-1.53876e-08 2.49499e-07 6.0763e-05

5.91635e-05 -1.23546e-06 4.30851e-08
-1.23546e-06 6.17941e-05 -2.29806e-07
4.30851e-08 -2.29806e-07 6.10706e-05

6.60553e-05 -5.44007e-07 -1.14133e-07
-5.44007e-07 4.58038e-05 -1.4143e-07
-1.14133e-07 -1.4143e-07 5.74969e-05

6.45952e-05 2.70678e-07 3.10793e-08
2.70678e-07 4.644e-05 9.27666e-08
3.10793e-08 9.27666e-08 5.75718e-05

5.72072e-05 5.16212e-06 4.62726e-09
5.16212e-06 5.40536e-05 1.14787e-07
4.62726e-09 1.14787e-07 5.73694e-05

5.91099e-05 -9.74119e-06 -1.72315e-07
-9.74119e-06 5.26332e-05 1.90586e-08
-1.72315e-07 1.90586e-08 5.68337e-05

6.23015e-05 1.96591e-06 -5.11681e-08
1.96591e-06 6.15676e-05 -8.02772e-08
-5.11681e-08 -8.02772e-08 6.05517e-05

6.59301e-05 -3.30528e-06 6.74128e-09
-3.30528e-06 6.06258e-05 4.18716e-09
6.74128e-09 4.18716e-09 6.02858e-05

6.78383e-05 -4.12781e-06 5.75645e-08
-4.12781e-06 6.44107e-05 -1.98219e-07
5.75645e-08 -1.98219e-07 6.29851e-05

6.66823e-05 1.30935e-05 -3.6256e-07
1.30935e-05 7.38805e-05 -3.56147e-07
-3.6256e-07 -3.56147e-07 6.29489e-05

5.05425e-05 -1.00822e-05 -3.03604e-08
-1.00822e-05 6.0845e-05 3.63291e-08
-3.03604e-08 3.63291e-08 5.73394e-05

4.78178e-05 1.23418e-05 -1.51491e-07
1.23418e-05 5.58857e-05 4.77807e-08
-1.51491e-07 4.77807e-08 5.80497e-05

5.14555e-05 4.69793e-06 -5.66784e-09
4.69793e-06 4.3523e-05 1.11713e-07
-5.66784e-09 1.11713e-07 4.78543e-05

4.1796e-05 -4.06159e-06 -8.30508e-08
-4.06159e-06 5.75168e-05 -7.45956e-08
-8.30508e-08 -7.45956e-08 4.98513e-05

4.61965e-05 -6.46365e-06 1.08579e-07
-6.46365e-06 5.55296e-05 -6.36732e-08
1.08579e-07 -6.36732e-08 4.9597e-05

5.15286e-05 -4.97241e-06 -9.58783e-08
-4.97241e-06 4.43058e-05 1.04115e-07
-9.58783e-08 1.04115e-07 4.76636e-05

4.66855e-05 4.8688e-06 5.14122e-08
4.8688e-06 5.45002e-05 -5.60638e-08
5.14122e-08 -5.60638e-08 4.92492e-05

4.2217e-05 2.71349e-06 -1.68645e-07
2.71349e-06 5.67816e-05 1.07689e-07
-1.68645e-07 1.07689e-07 4.97603e-05

4.72926e-05 6.55891e-06 2.31398e-07
6.55891e-06 4.57413e-05 -4.27632e-08
2.31398e-07 -4.27632e-08 4.70867e-05

5.2584e-05 8.47879e-06 1.03485e-09
8.47879e-06 5.87623e-05 1.01337e-07
1.03485e-09 1.01337e-07 5.76614e-05

5.1713e-05 -1.07896e-05 -2.64199e-08
-1.07896e-05 5.56792e-05 1.20691e-07
-2.64199e-08 1.20691e-07 5.78044e-05

4.7671e-05 -8.14162e-06 -9.06459e-08
-8.14162e-06 4.78819e-05 -3.68854e-08
-9.06459e-08 -3.68854e-08 4.67808e-05

6.0115e-05 2.78765e-06 9.07057e-08
2.78765e-06 4.92916e-05 -7.06976e-08
9.07057e-08 -7.06976e-08 5.56548e-05

7.85365e-05 -2.7598e-06 -2.41784e-07
-2.7598e-06 7.53179e-05 3.0795e-07
-2.41784e-07 3.0795e-07 6.25756e-05

6.4579e-05 2.36693e-06 6.07405e-08
2.36693e-06 6.57827e-05 -2.0796e-07
6.07405e-08 -2.0796e-07 6.31865e-05

5.05324e-05 -8.35496e-06 -1.07479e-07
-8.35496e-06 5.87224e-05 1.6346e-07
-1.07479e-07 1.6346e-07 5.4413e-05

5.60099e-05 -8.20113e-06 1.46052e-07
-8.20113e-06 4.75715e-05 9.8797e-08
1.46052e-07 9.8797e-08 5.27129e-05

6.49261e-05 -9.92536e-07 1.08854e-07
-9.92536e-07 5.55536e-05 1.42605e-07
1.08854e-07 1.42605e-07 5.91358e-05

3.12333e-05 -6.01299e-06 -1.32637e-07
-6.01299e-06 3.31959e-05 -2.06271e-07
-1.32637e-07 -2.06271e-07 2.98938e-05

3.4257e-05 -5.51628e-06 1.02437e-07
-5.51628e-06 2.95537e-05 9.3217e-08
1.02437e-07 9.3217e-08 2.99871e-05

6.62068e-05 5.9541e-07 9.45312e-08
5.9541e-07 4.83997e-05 1.1765e-07
9.45312e-08 1.1765e-07 5.84125e-05

6.36687e-05 -5.32269e-07 1.80326e-07
-5.32269e-07 4.96109e-05 -8.27905e-08
1.80326e-07 -8.27905e-08 5.8434e-05

6.55588e-05 -1.30293e-07 -1.05999e-07
-1.30293e-07 5.15016e-05 -1.43656e-07
-1.05999e-07 -1.43656e-07 5.96682e-05

5.11251e-05 3.25555e-06 -1.60715e-08
3.25555e-06 4.14601e-05 1.03537e-07
-1.60715e-08 1.03537e-07 4.40683e-05

5.4019e-05 -5.41841e-06 3.84393e-08
-5.41841e-06 5.77803e-05 -2.91447e-08
3.84393e-08 -2.91447e-08 5.60219e-05

5.40109e-05 6.66097e-06 -6.55038e-08
6.66097e-06 5.58876e-05 -6.30555e-08
-6.55038e-08 -6.30555e-08 5.63978e-05

7.47229e-05 -6.27142e-06 -1.97199e-07
-6.27142e-06 6.02635e-05 -9.51328e-08
-1.97199e-07 -9.51328e-08 6.33803e-05

7.43368e-05 -7.14493e-07 5.88988e-08
-7.14493e-07 8.21785e-05 -3.13221e-07
5.88988e-08 -3.13221e-07 6.27137e-05

4.66322e-05 -9.51409e-06 5.34982e-09
-9.51409e-06 5.84217e-05 2.0895e-07
5.34982e-09 2.0895e-07 5.37845e-05

5.52138e-05 -6.3383e-06 2.25129e-07
-6.3383e-06 4.51585e-05 3.73904e-08
2.25129e-07 3.73904e-08 4.97425e-05

6.05999e-05 1.63347e-06 1.62408e-08
1.63347e-06 5.4811e-05 -6.17594e-08
1.62408e-08 -6.17594e-08 5.80227e-05

6.20977e-05 -1.11573e-07 -1.10894e-07
-1.11573e-07 5.32538e-05 4.20623e-08
-1.10894e-07 4.20623e-08 5.79639e-05

4.69024e-05 -3.96144e-06 -1.63756e-07
-3.96144e-06 5.77288e-05 2.50883e-08
-1.63756e-07 2.50883e-08 5.48079e-05

4.66498e-05 -7.24071e-06 1.11882e-07
-7.24071e-06 5.50216e-05 4.80743e-08
1.11882e-07 4.80743e-08 5.5811e-05

2.66635e-05 1.05445e-05 -4.94852e-08
1.05445e-05 2.48371e-05 -1.01393e-08
-4.94852e-08 -1.01393e-08 2.61201e-05

5.49826e-05 5.55286e-06 1.00393e-07
5.55286e-06 6.11299e-05 -9.01845e-08
1.00393e-07 -9.01845e-08 5.88294e-05

5.44532e-05 -6.88355e-06 -8.64808e-08
-6.88355e-06 6.007e-05 -4.28941e-09
-8.64808e-08 -4.28941e-09 5.8668e-05

4.48142e-05 -6.64405e-06 7.19456e-08
-6.64405e-06 5.62913e-05 9.6716e-08
7.19456e-08 9.6716e-08 5.43391e-05

5.19412e-05 -4.58838e-06 -4.23054e-09
-4.58838e-06 4.34118e-05 2.98084e-08
-4.23054e-09 2.98084e-08 4.43819e-05

5.467e-05 4.45667e-06 7.31248e-08
4.45667e-06 5.42309e-05 1.60112e-07
7.31248e-08 1.60112e-07 5.46208e-05

5.70741e-05 4.96141e-06 6.81933e-08
4.96141e-06 5.7456e-05 -1.24716e-07
6.81933e-08 -1.24716e-07 5.75987e-05

6.01863e-05 -7.93417e-06 -1.52557e-07
-7.93417e-06 5.39645e-05 7.70755e-08
-1.52557e-07 7.70755e-08 5.73736e-05

6.00892e-05 2.0505e-06 9.05921e-08
2.0505e-06 4.27895e-05 -7.66543e-08
9.05921e-08 -7.66543e-08 5.45153e-05

6.31535e-05 -1.02463e-06 2.0071e-07
-1.02463e-06 5.74441e-05 1.85258e-08
2.0071e-07 1.85258e-08 6.01426e-05

6.55966e-05 1.5748e-06 1.19169e-07
1.5748e-06 5.37388e-05 -4.80937e-09
1.19169e-07 -4.80937e-09 6.01314e-05

6.26057e-05 2.40279e-06 3.20999e-07
2.40279e-06 8.12659e-05 -2.63679e-07
3.20999e-07 -2.63679e-07 6.21809e-05

6.18455e-05 3.33526e-07 -3.00524e-07
3.33526e-07 7.27336e-05 1.58983e-07
-3.00524e-07 1.58983e-07 6.2712e-05

2.70647e-05 -2.74822e-06 1.51373e-07
-2.74822e-06 1.90059e-05 1.64318e-07
1.51373e-07 1.64318e-07 2.80359e-05

1.75713e-05 -1.89192e-06 1.70984e-07
-1.89192e-06 2.80209e-05 7.35282e-08
1.70984e-07 7.35282e-08 2.80287e-05

5.01783e-05 -8.08764e-06 -3.43706e-08
-8.08764e-06 6.06147e-05 -2.41614e-08
-3.43706e-08 -2.41614e-08 5.54658e-05

5.00828e-05 7.3564e-06 7.97539e-08
7.3564e-06 5.45658e-05 4.31674e-09
7.97539e-08 4.31674e-09 5.60309e-05

4.79699e-05 -1.12396e-05 1.73106e-07
-1.12396e-05 6.06396e-05 -2.04574e-08
1.73106e-07 -2.04574e-08 5.51117e-05

2.48662e-05 2.60843e-06 -7.58846e-08
2.60843e-06 2.46974e-05 -2.43038e-07
-7.58846e-08 -2.43038e-07 2.74848e-05

2.60029e-05 4.21084e-06 1.40572e-07
4.21084e-06 2.28994e-05 1.91691e-08
1.40572e-07 1.91691e-08 2.75072e-05

5.25281e-05 1.05658e-05 -5.39658e-09
1.05658e-05 7.80954e-05 -5.64819e-07
-5.39658e-09 -5.64819e-07 6.35887e-05

6.15039e-05 -7.18031e-06 -4.29035e-07
-7.18031e-06 7.79701e-05 -6.43507e-07
-4.29035e-07 -6.43507e-07 6.36343e-05

5.13621e-05 6.85177e-06 1.62313e-07
6.85177e-06 5.25604e-05 8.31562e-08
1.62313e-07 8.31562e-08 5.36884e-05

4.68102e-05 -7.96448e-06 2.41137e-08
-7.96448e-06 5.10049e-05 1.59361e-07
2.41137e-08 1.59361e-07 4.80399e-05

5.01352e-05 -7.60664e-06 -2.74227e-08
-7.60664e-06 5.65545e-05 -6.34207e-08
-2.74227e-08 -6.34207e-08 5.45432e-05

5.03859e-05 8.36415e-06 5.90285e-08
8.36415e-06 5.50965e-05 -1.2781e-07
5.90285e-08 -1.2781e-07 5.50107e-05

4.69982e-05 -9.55468e-06 1.39053e-07
-9.55468e-06 5.48943e-05 6.84207e-09
1.39053e-07 6.84207e-09 5.08358e-05

4.64696e-05 5.97095e-06 1.00681e-07
5.97095e-06 5.0114e-05 1.79296e-07
1.00681e-07 1.79296e-07 4.84028e-05

2.99589e-05 -3.27816e-06 4.49524e-08
-3.27816e-06 4.05746e-05 4.02388e-08
4.49524e-08 4.02388e-08 3.34628e-05

3.22969e-05 -2.82027e-06 3.84245e-08
-2.82027e-06 3.99072e-05 1.43092e-07
3.84245e-08 1.43092e-07 3.32116e-05

4.06507e-05 -1.9675e-06 -2.15159e-08
-1.9675e-06 3.04817e-05 3.15212e-08
-2.15159e-08 3.15212e-08 3.29862e-05

4.62789e-05 7.0153e-06 -9.96274e-08
7.0153e-06 5.35825e-05 -1.141e-07
-9.96274e-08 -1.141e-07 5.12716e-05

2.72458e-05 -5.0566e-07 1.12292e-07
-5.0566e-07 3.7936e-05 -4.66141e-08
1.12292e-07 -4.66141e-08 3.1044e-05

3.72241e-05 7.74282e-07 -2.47208e-08
7.74282e-07 2.82998e-05 3.42748e-08
-2.47208e-08 3.42748e-08 3.0882e-05

5.27139e-05 -7.80254e-06 -1.02478e-07
-7.80254e-06 6.03797e-05 -9.71871e-09
-1.02478e-07 -9.71871e-09 5.74237e-05

5.31937e-05 8.85919e-06 -1.68817e-07
8.85919e-06 5.50306e-05 -4.37348e-08
-1.68817e-07 -4.37348e-08 5.79044e-05

5.36604e-05 -6.21367e-06 -7.01231e-08
-6.21367e-06 6.01965e-05 1.00742e-07
-7.01231e-08 1.00742e-07 5.78918e-05

5.35206e-05 7.71207e-06 -1.38401e-07
7.71207e-06 5.90551e-05 -1.49168e-07
-1.38401e-07 -1.49168e-07 5.82146e-05

2.33017e-05 -5.6432e-06 5.92098e-08
-5.6432e-06 2.36618e-05 2.18061e-07
5.92098e-08 2.18061e-07 2.70253e-05

2.34332e-05 -5.52237e-06 1.81821e-07
-5.52237e-06 2.44741e-05 5.60402e-08
1.81821e-07 5.60402e-08 2.71052e-05

5.01587e-05 6.89333e-06 1.61078e-08
6.89333e-06 5.31024e-05 -1.58612e-07
1.61078e-08 -1.58612e-07 5.28274e-05

5.01878e-05 -7.32643e-06 -3.35635e-08
-7.32643e-06 5.61309e-05 -5.90675e-08
-3.35635e-08 -5.90675e-08 5.2371e-05

6.13993e-05 -2.25967e-06 3.44494e-07
-2.25967e-06 6.99182e-05 -1.17629e-07
3.44494e-07 -1.17629e-07 6.11662e-05

6.11054e-05 -2.75899e-06 -3.05811e-07
-2.75899e-06 6.28816e-05 1.26117e-07
-3.05811e-07 1.26117e-07 6.15472e-05

5.16723e-05 -7.93521e-06 -6.7416e-08
-7.93521e-06 6.38819e-05 -6.96969e-08
-6.7416e-08 -6.96969e-08 5.8514e-05

4.98608e-05 8.25472e-06 -1.37886e-07
8.25472e-06 6.14961e-05 5.31892e-09
-1.37886e-07 5.31892e-09 5.89383e-05

6.32154e-05 -1.99407e-08 3.69102e-08
-1.99407e-08 5.27038e-05 -5.02096e-08
3.69102e-08 -5.02096e-08 5.99923e-05

6.0527e-05 1.83371e-06 1.71166e-07
1.83371e-06 5.50891e-05 3.48315e-08
1.71166e-07 3.48315e-08 6.0025e-05

5.12347e-05 7.83098e-06 6.05308e-08
7.83098e-06 5.70783e-05 -1.24172e-07
6.05308e-08 -1.24172e-07 5.56374e-05

5.32536e-05 -8.0333e-06 -2.01837e-08
-8.0333e-06 5.39805e-05 7.23238e-08
-2.01837e-08 7.23238e-08 5.53019e-05

5.86187e-05 -3.33921e-06 1.51429e-07
-3.33921e-06 6.91469e-05 -2.31502e-07
1.51429e-07 -2.31502e-07 6.18544e-05

6.68774e-05 3.52955e-06 -1.70942e-07
3.52955e-06 6.15599e-05 -1.62428e-07
-1.70942e-07 -1.62428e-07 6.19942e-05

7.11733e-05 -8.14684e-06 1.47938e-07
-8.14684e-06 6.47795e-05 -9.14732e-08
1.47938e-07 -9.14732e-08 6.15471e-05

5.80088e-05 -1.53457e-06 -2.06499e-08
-1.53457e-06 7.60652e-05 2.50544e-07
-2.06499e-08 2.50544e-07 6.14946e-05

6.40091e-05 2.58375e-06 1.80359e-08
2.58375e-06 6.23446e-05 -1.17533e-07
1.80359e-08 -1.17533e-07 6.18478e-05

5.98944e-05 1.13525e-06 -2.32176e-07
1.13525e-06 6.85492e-05 1.14013e-07
-2.32176e-07 1.14013e-07 6.29477e-05

6.77271e-05 -2.86036e-06 -4.33491e-08
-2.86036e-06 5.91636e-05 1.16237e-07
-4.33491e-08 1.16237e-07 6.18486e-05

6.71517e-05 -1.30589e-06 -2.34237e-07
-1.30589e-06 6.25334e-05 -6.04099e-08
-2.34237e-07 -6.04099e-08 6.29466e-05

6.18553e-05 -4.71652e-06 1.64403e-07
-4.71652e-06 6.78848e-05 -3.29031e-07
1.64403e-07 -3.29031e-07 6.24101e-05

6.44825e-05 6.46977e-06 2.3246e-07
6.46977e-06 6.03955e-05 1.96512e-07
2.3246e-07 1.96512e-07 6.24888e-05

8.24407e-05 -9.40628e-07 -2.10553e-06
-9.40628e-07 8.43582e-05 1.58007e-06
-2.10553e-06 1.58007e-06 6.35961e-05

9.21525e-05 -7.04311e-06 2.07107e-06
-7.04311e-06 4.98136e-05 1.71903e-06
2.07107e-06 1.71903e-06 6.36996e-05

6.46811e-05 -5.71671e-06 -1.90846e-07
-5.71671e-06 6.44243e-05 2.0945e-07
-1.90846e-07 2.0945e-07 6.19259e-05

5.78381e-05 -3.99548e-06 1.64774e-07
-3.99548e-06 6.51454e-05 -2.60393e-08
1.64774e-07 -2.60393e-08 6.04488e-05

6.75202e-05 1.06627e-05 -4.26987e-09
1.06627e-05 6.61271e-05 -1.62321e-07
-4.26987e-09 -1.62321e-07 6.20231e-05

5.8934e-05 5.00397e-06 1.63353e-07
5.00397e-06 6.23978e-05 -5.13219e-08
1.63353e-07 -5.13219e-08 6.06442e-05

6.63498e-05 1.24459e-05 -1.58622e-07
1.24459e-05 7.47097e-05 5.5245e-07
-1.58622e-07 5.5245e-07 6.31849e-05

6.66494e-05 -1.31704e-06 -1.13907e-07
-1.31704e-06 6.29634e-05 5.65738e-07
-1.13907e-07 5.65738e-07 6.32312e-05

5.77672e-05 -3.50238e-06 1.65099e-07
-3.50238e-06 6.36966e-05 -3.00217e-08
1.65099e-07 -3.00217e-08 6.09861e-05

6.42755e-05 -2.09295e-06 -4.41656e-08
-2.09295e-06 6.39433e-05 -9.51933e-08
-4.41656e-08 -9.51933e-08 6.22172e-05

5.95185e-05 8.6297e-06 1.74009e-07
8.6297e-06 6.34953e-05 7.92475e-08
1.74009e-07 7.92475e-08 6.10965e-05

6.09007e-05 5.83254e-06 9.24419e-08
5.83254e-06 6.51035e-05 1.0465e-07
9.24419e-08 1.0465e-07 6.22395e-05

4.62052e-05 2.39829e-06 -1.46315e-08
2.39829e-06 6.15906e-05 -3.93435e-08
-1.46315e-08 -3.93435e-08 5.47283e-05

5.72613e-05 -7.06422e-07 -1.17356e-07
-7.06422e-07 6.15086e-05 -1.29651e-07
-1.17356e-07 -1.29651e-07 5.82183e-05

5.76235e-05 1.96466e-06 -1.41901e-08
1.96466e-06 4.09188e-05 -1.26451e-07
-1.41901e-08 -1.26451e-07 4.89583e-05

5.52545e-05 4.48923e-07 8.64261e-08
4.48923e-07 3.99549e-05 -6.71183e-08
8.64261e-08 -6.71183e-08 4.5471e-05

4.60985e-05 2.79918e-06 -1.58292e-08
2.79918e-06 6.66981e-05 -2.54143e-08
-1.58292e-08 -2.54143e-08 5.79219e-05

5.74547e-05 5.22166e-07 -9.68457e-08
5.22166e-07 6.39214e-05 1.08922e-07
-9.68457e-08 1.08922e-07 6.20938e-05

5.55768e-05 -8.16265e-07 7.61679e-08
-8.16265e-07 4.00358e-05 1.30749e-08
7.61679e-08 1.30749e-08 4.58748e-05

6.37198e-05 -3.32516e-07 2.1359e-08
-3.32516e-07 4.46834e-05 -4.0796e-08
2.1359e-08 -4.0796e-08 5.54252e-05

3.25736e-05 -4.72116e-06 -4.28556e-08
-4.72116e-06 4.36189e-05 2.83165e-08
-4.28556e-08 2.83165e-08 3.60804e-05

3.70198e-05 7.5914e-06 6.82127e-08
7.5914e-06 4.52156e-05 1.5202e-07
6.82127e-08 1.5202e-07 3.73914e-05

4.22016e-05 7.0579e-06 8.25115e-08
7.0579e-06 3.52021e-05 1.2845e-07
8.25115e-08 1.2845e-07 3.67279e-05

5.92602e-05 8.78531e-06 -1.56983e-07
8.78531e-06 6.44486e-05 -1.46725e-08
-1.56983e-07 -1.46725e-08 6.09229e-05

5.52748e-05 -3.43854e-06 1.35935e-07
-3.43854e-06 6.33742e-05 6.03542e-08
1.35935e-07 6.03542e-08 5.8971e-05

5.05547e-05 7.38543e-06 9.99999e-08
7.38543e-06 5.4674e-05 3.09896e-08
9.99999e-08 3.09896e-08 5.05502e-05

5.44041e-05 6.48074e-06 8.02229e-08
6.48074e-06 6.34413e-05 1.29531e-07
8.02229e-08 1.29531e-07 6.01473e-05

4.54586e-05 -2.85919e-06 8.25394e-10
-2.85919e-06 6.62976e-05 1.42491e-07
8.25394e-10 1.42491e-07 5.77327e-05

5.86738e-05 -1.55209e-06 1.04958e-07
-1.55209e-06 4.25892e-05 -6.03755e-08
1.04958e-07 -6.03755e-08 5.19197e-05

3.97718e-05 3.57004e-06 7.0962e-08
3.57004e-06 5.05842e-05 1.46823e-07
7.0962e-08 1.46823e-07 4.06782e-05

3.51253e-05 -8.92206e-07 -4.97453e-08
-8.92206e-07 4.89155e-05 1.50887e-08
-4.97453e-08 1.50887e-08 3.95768e-05

4.86818e-05 3.67674e-06 1.77077e-07
3.67674e-06 3.68691e-05 6.75294e-08
1.77077e-07 6.75294e-08 3.97402e-05

5.07313e-05 -3.86266e-06 -7.87283e-08
-3.86266e-06 3.82935e-05 -5.50464e-08
-7.87283e-08 -5.50464e-08 4.28511e-05

4.25051e-05 6.39557e-06 -1.52055e-07
6.39557e-06 5.22373e-05 -2.03511e-09
-1.52055e-07 -2.03511e-09 4.64069e-05

5.02339e-05 -4.94146e-06 -1.17951e-07
-4.94146e-06 5.31604e-05 -1.72129e-07
-1.17951e-07 -1.72129e-07 4.88926e-05

5.84807e-05 -2.44804e-06 -3.39814e-08
-2.44804e-06 4.08774e-05 5.72231e-08
-3.39814e-08 5.72231e-08 4.96031e-05

3.52347e-05 4.77522e-06 -1.67421e-07
4.77522e-06 4.09177e-05 -2.8682e-07
-1.67421e-07 -2.8682e-07 3.33601e-05

6.27452e-05 5.85586e-07 4.11836e-08
5.85586e-07 4.33223e-05 -5.00056e-08
4.11836e-08 -5.00056e-08 5.42319e-05

3.89241e-05 5.31635e-06 -1.98111e-07
5.31635e-06 3.42811e-05 -3.10247e-08
-1.98111e-07 -3.10247e-08 3.30003e-05

5.47658e-05 6.8992e-07 -1.68688e-07
6.8992e-07 6.70283e-05 3.40026e-08
-1.68688e-07 3.40026e-08 5.91371e-05

6.22988e-05 2.77994e-06 3.33502e-08
2.77994e-06 6.49447e-05 1.5953e-07
3.33502e-08 1.5953e-07 6.25642e-05

6.57529e-05 -7.78641e-06 1.15963e-07
-7.78641e-06 6.65266e-05 -1.24561e-07
1.15963e-07 -1.24561e-07 6.2732e-05

6.89536e-05 3.42716e-06 -1.81699e-07
3.42716e-06 6.30494e-05 6.05954e-08
-1.81699e-07 6.05954e-08 6.27773e-05

4.85187e-05 -1.26656e-06 -8.11457e-08
-1.26656e-06 3.61771e-05 -5.37765e-08
-8.11457e-08 -5.37765e-08 3.84387e-05

4.85218e-05 8.98443e-06 -4.6974e-10
8.98443e-06 5.34163e-05 1.10593e-07
-4.6974e-10 1.10593e-07 5.0007e-05

6.09432e-05 1.41526e-06 -1.09947e-07
1.41526e-06 5.86866e-05 -2.27697e-08
-1.09947e-07 -2.27697e-08 5.90814e-05

5.90368e-05 -4.26843e-06 3.4498e-09
-4.26843e-06 5.7431e-05 -1.12641e-07
3.4498e-09 -1.12641e-07 5.95171e-05

6.5471e-05 -7.11324e-07 1.01407e-07
-7.11324e-07 4.34315e-05 -5.2665e-08
1.01407e-07 -5.2665e-08 5.55797e-05

4.22504e-05 7.53046e-06 -2.8451e-08
7.53046e-06 4.96643e-05 -1.66799e-07
-2.8451e-08 -1.66799e-07 4.59439e-05

4.76895e-05 -6.77271e-06 7.91343e-09
-6.77271e-06 5.27997e-05 -4.34076e-09
7.91343e-09 -4.34076e-09 4.82985e-05

5.02717e-05 -5.09967e-06 -4.7803e-08
-5.09967e-06 4.21609e-05 1.50574e-07
-4.7803e-08 1.50574e-07 4.40784e-05

6.3818e-05 -1.11071e-06 1.86823e-08
-1.11071e-06 4.24651e-05 5.1538e-09
1.86823e-08 5.1538e-09 5.44094e-05

4.4769e-05 8.99054e-06 -8.96167e-08
8.99054e-06 5.38067e-05 8.19854e-08
-8.96167e-08 8.19854e-08 4.61254e-05

4.17252e-05 -5.84774e-06 -4.08695e-08
-5.84774e-06 4.87473e-05 -7.30255e-08
-4.08695e-08 -7.30255e-08 4.54482e-05

4.54842e-05 8.18524e-06 1.60374e-07
8.18524e-06 5.46451e-05 -1.22231e-07
1.60374e-07 -1.22231e-07 4.68125e-05

4.07691e-05 -4.41223e-06 -7.10992e-08
-4.41223e-06 5.29324e-05 -1.05485e-07
-7.10992e-08 -1.05485e-07 4.60246e-05

5.77405e-05 -4.09861e-06 -8.99073e-08
-4.09861e-06 6.11205e-05 1.25339e-07
-8.99073e-08 1.25339e-07 5.93054e-05

4.46354e-05 5.22349e-06 3.50285e-08
5.22349e-06 5.90733e-05 -6.40139e-08
3.50285e-08 -6.40139e-08 5.46334e-05

4.47944e-05 -7.017e-06 -1.06605e-07
-7.017e-06 4.18709e-05 1.45503e-07
-1.06605e-07 1.45503e-07 4.14464e-05

2.81214e-05 -6.57804e-06 1.98057e-07
-6.57804e-06 2.65185e-05 9.13947e-08
1.98057e-07 9.13947e-08 2.73265e-05

2.53447e-05 -6.84668e-06 1.28713e-07
-6.84668e-06 2.8758e-05 -1.31274e-07
1.28713e-07 -1.31274e-07 2.72421e-05

5.29038e-05 1.06606e-05 9.66009e-08
1.06606e-05 6.39398e-05 -1.10674e-07
9.66009e-08 -1.10674e-07 5.89851e-05

4.53246e-05 -6.22473e-06 -1.32499e-07
-6.22473e-06 6.26907e-05 -4.12691e-08
-1.32499e-07 -4.12691e-08 5.77284e-05

2.60047e-05 -1.3168e-06 1.32218e-07
-1.3168e-06 2.61393e-05 -7.17248e-08
1.32218e-07 -7.17248e-08 2.85114e-05

2.63016e-05 -1.59916e-06 -6.26957e-08
-1.59916e-06 2.70033e-05 7.88111e-08
-6.26957e-08 7.88111e-08 2.86568e-05

6.41064e-05 6.08394e-06 -1.10338e-07
6.08394e-06 5.70529e-05 1.27314e-07
-1.10338e-07 1.27314e-07 5.98453e-05

6.90421e-05 -4.50797e-06 -2.28641e-07
-4.50797e-06 5.91276e-05 -6.66948e-08
-2.28641e-07 -6.66948e-08 6.43293e-05

5.90171e-05 -1.24419e-07 6.59743e-08
-1.24419e-07 4.35734e-05 -7.44219e-08
6.59743e-08 -7.44219e-08 5.43894e-05

6.34859e-05 8.31991e-06 -6.40251e-08
8.31991e-06 5.63161e-05 -1.98615e-07
-6.40251e-08 -1.98615e-07 5.9851e-05

6.86386e-05 -6.08973e-06 -2.19162e-07
-6.08973e-06 5.68482e-05 9.91631e-12
-2.19162e-07 9.91631e-12 6.36545e-05

4.24572e-05 6.20994e-06 -1.48349e-07
6.20994e-06 5.51118e-05 4.4439e-08
-1.48349e-07 4.4439e-08 4.98277e-05

5.02338e-05 -5.11658e-06 -1.29193e-07
-5.11658e-06 5.75654e-05 -3.12789e-08
-1.29193e-07 -3.12789e-08 5.29845e-05

6.84125e-05 3.00064e-06 6.20714e-08
3.00064e-06 5.91636e-05 1.16237e-07
6.20714e-08 1.16237e-07 6.18454e-05

6.45851e-05 -3.9734e-06 3.22017e-08
-3.9734e-06 6.23446e-05 -1.17533e-07
3.22017e-08 -1.17533e-07 6.18422e-05

5.85608e-05 8.89086e-06 9.83452e-08
8.89086e-06 5.20463e-05 6.85514e-08
9.83452e-08 6.85514e-08 5.64581e-05

6.32896e-05 -7.5291e-06 1.27527e-07
-7.5291e-06 5.38755e-05 -1.13484e-07
1.27527e-07 -1.13484e-07 5.97641e-05

4.201e-05 -4.98177e-06 7.89361e-08
-4.98177e-06 3.41155e-05 2.23398e-08
7.89361e-08 2.23398e-08 3.54144e-05

5.81807e-05 1.94403e-07 -3.30763e-08
1.94403e-07 7.3347e-05 4.68436e-09
-3.30763e-08 4.68436e-09 6.14254e-05

6.52067e-05 1.99791e-06 -5.42915e-09
1.99791e-06 7.01572e-05 -9.74379e-08
-5.42915e-09 -9.74379e-08 6.73029e-05

2.94869e-05 -9.06149e-07 -7.87046e-08
-9.06149e-07 3.89926e-05 7.87078e-08
-7.87046e-08 7.87078e-08 3.19879e-05

3.81984e-05 -6.87365e-07 1.27153e-07
-6.87365e-07 3.00984e-05 -9.60391e-09
1.27153e-07 -9.60391e-09 3.18245e-05

4.25719e-05 5.35317e-06 2.32963e-08
5.35317e-06 5.92217e-05 -6.65075e-08
2.32963e-08 -6.65075e-08 5.33214e-05

5.27258e-05 -2.82218e-06 1.63474e-07
-2.82218e-06 6.08045e-05 7.1482e-08
1.63474e-07 7.1482e-08 5.70575e-05

7.44483e-05 -8.16707e-07 -6.71466e-07
-8.16707e-07 8.48893e-05 5.52168e-07
-6.71466e-07 5.52168e-07 6.33866e-05

8.20334e-05 -7.28038e-06 6.55677e-07
-7.28038e-06 6.71657e-05 -9.38679e-08
6.55677e-07 -9.38679e-08 6.8662e-05

5.77956e-05 8.00366e-06 -1.15615e-07
8.00366e-06 4.64579e-05 -1.39073e-07
-1.15615e-07 -1.39073e-07 5.39304e-05

6.16011e-05 -5.57046e-06 2.77551e-08
-5.57046e-06 4.72599e-05 1.13057e-07
2.77551e-08 1.13057e-07 5.60362e-05

4.81871e-05 8.85939e-09 -9.78139e-08
8.85939e-09 3.44301e-05 6.17613e-08
-9.78139e-08 6.17613e-08 3.80528e-05

5.55421e-05 1.18195e-07 -7.78052e-08
1.18195e-07 4.16984e-05 3.76472e-08
-7.78052e-08 3.76472e-08 4.78894e-05

5.15713e-05 4.12239e-06 -1.88099e-07
4.12239e-06 3.82908e-05 4.40498e-09
-1.88099e-07 4.40498e-09 4.20614e-05

6.13188e-05 1.39316e-06 -1.28736e-07
1.39316e-06 5.15764e-05 6.00912e-08
-1.28736e-07 6.00912e-08 5.79776e-05

5.64259e-05 -3.31727e-06 -5.168e-08
-3.31727e-06 7.33188e-05 -2.08303e-07
-5.168e-08 -2.08303e-07 6.31988e-05

6.47878e-05 1.68522e-06 3.68599e-07
1.68522e-06 6.55623e-05 -1.94706e-07
3.68599e-07 -1.94706e-07 6.32472e-05

4.2235e-05 7.15404e-06 1.48962e-07
7.15404e-06 4.52515e-05 1.4625e-07
1.48962e-07 1.4625e-07 3.90474e-05

4.88327e-05 -5.99997e-06 1.18303e-07
-5.99997e-06 4.53256e-05 -1.28597e-08
1.18303e-07 -1.28597e-08 4.81046e-05

5.74947e-05 6.77897e-06 7.05038e-08
6.77897e-06 4.46806e-05 1.08021e-08
7.05038e-08 1.08021e-08 5.1274e-05

6.45706e-05 2.39654e-06 -3.49356e-07
2.39654e-06 7.00009e-05 -1.37776e-08
-3.49356e-07 -1.37776e-08 6.6968e-05

6.24671e-05 3.12579e-06 -2.4459e-07
3.12579e-06 7.45195e-05 -4.67664e-08
-2.4459e-07 -4.67664e-08 6.21794e-05

5.9539e-05 -3.53288e-06 4.93024e-08
-3.53288e-06 5.39271e-05 9.30157e-08
4.93024e-08 9.30157e-08 5.85088e-05

5.4547e-05 5.30929e-06 9.53527e-08
5.30929e-06 6.17359e-05 -1.29143e-07
9.53527e-08 -1.29143e-07 5.66584e-05

4.56188e-05 -1.60709e-06 -7.66272e-09
-1.60709e-06 6.22901e-05 -2.62866e-09
-7.66272e-09 -2.62866e-09 5.45718e-05

6.09753e-05 4.34388e-06 -3.21739e-08
4.34388e-06 4.2584e-05 1.43673e-08
-3.21739e-08 1.43673e-08 5.60792e-05

6.22698e-05 -4.79043e-07 -1.41459e-07
-4.79043e-07 4.27323e-05 5.60712e-08
-1.41459e-07 5.60712e-08 5.71113e-05

4.5643e-05 -5.36388e-06 4.60229e-08
-5.36388e-06 4.24815e-05 -9.19843e-09
4.60229e-08 -9.19843e-09 3.97324e-05

6.36607e-05 7.71297e-06 7.50629e-08
7.71297e-06 4.86343e-05 -7.72902e-08
7.50629e-08 -7.72902e-08 5.79816e-05

6.5499e-05 -4.58289e-06 -9.59632e-09
-4.58289e-06 4.71175e-05 -2.67636e-08
-9.59632e-09 -2.67636e-08 6.01752e-05

5.83432e-05 -3.46969e-06 1.12749e-07
-3.46969e-06 4.61152e-05 3.66717e-08
1.12749e-07 3.66717e-08 5.2776e-05

6.04295e-05 5.31533e-06 5.86464e-10
5.31533e-06 4.71552e-05 -1.55248e-07
5.86464e-10 -1.55248e-07 5.60234e-05

6.1333e-05 -2.6046e-06 -1.32763e-07
-2.6046e-06 4.76037e-05 1.03776e-07
-1.32763e-07 1.03776e-07 5.79018e-05

5.74951e-05 -2.1218e-06 -1.69544e-08
-2.1218e-06 4.41893e-05 1.98714e-08
-1.69544e-08 1.98714e-08 5.10629e-05

4.99231e-05 9.83419e-06 -1.53076e-09
9.83419e-06 5.44093e-05 -4.58959e-08
-1.53076e-09 -4.58959e-08 5.56895e-05

6.26107e-05 -8.3269e-06 1.28143e-07
-8.3269e-06 5.8574e-05 -2.45112e-08
1.28143e-07 -2.45112e-08 6.09294e-05

4.94431e-05 6.63713e-06 -1.50319e-07
6.63713e-06 4.7002e-05 -4.98975e-08
-1.50319e-07 -4.98975e-08 4.43071e-05

5.92508e-05 -6.17229e-06 4.53548e-09
-6.17229e-06 6.35733e-05 -5.26064e-08
4.53548e-09 -5.26064e-08 6.25792e-05

4.65569e-05 6.3404e-06 6.50358e-08
6.3404e-06 5.64606e-05 -7.47571e-09
6.50358e-08 -7.47571e-09 5.63408e-05

5.17351e-05 5.80811e-06 -1.28086e-08
5.80811e-06 3.81883e-05 -2.04017e-08
-1.28086e-08 -2.04017e-08 4.41413e-05

5.42677e-05 -5.45463e-06 -8.70667e-08
-5.45463e-06 4.9237e-05 2.63767e-08
-8.70667e-08 2.63767e-08 5.38508e-05

5.72642e-05 2.20095e-06 8.59303e-08
2.20095e-06 4.59117e-05 1.8669e-07
8.59303e-08 1.8669e-07 5.01229e-05

4.47618e-05 8.73645e-06 -9.66502e-08
8.73645e-06 4.60612e-05 -7.33437e-08
-9.66502e-08 -7.33437e-08 4.29396e-05

5.05134e-05 6.68883e-06 1.03314e-07
6.68883e-06 4.66001e-05 1.18262e-07
1.03314e-07 1.18262e-07 4.8036e-05

4.93792e-05 2.54079e-06 -1.09843e-08
2.54079e-06 6.02541e-05 -1.84402e-07
-1.09843e-08 -1.84402e-07 5.51997e-05

4.07422e-05 6.61098e-07 2.43638e-08
6.61098e-07 6.12496e-05 -1.92717e-08
2.43638e-08 -1.92717e-08 5.27826e-05

4.56707e-05 -5.54571e-06 4.93623e-08
-5.54571e-06 3.47684e-05 -9.11937e-08
4.93623e-08 -9.11937e-08 3.79583e-05

4.75157e-05 -9.89832e-06 -3.52494e-08
-9.89832e-06 5.56534e-05 1.2993e-07
-3.52494e-08 1.2993e-07 5.59443e-05

4.99488e-05 1.04793e-05 -7.80603e-08
1.04793e-05 5.99069e-05 -7.21031e-08
-7.80603e-08 -7.21031e-08 5.54327e-05

4.79941e-05 -7.83544e-06 -4.09497e-09
-7.83544e-06 4.94779e-05 9.52476e-08
-4.09497e-09 9.52476e-08 4.45645e-05

4.27555e-05 9.53497e-06 -1.82857e-08
9.53497e-06 4.79958e-05 -8.20895e-08
-1.82857e-08 -8.20895e-08 4.28023e-05

5.54873e-05 -4.02032e-06 -3.57191e-08
-4.02032e-06 4.55225e-05 -2.1295e-08
-3.57191e-08 -2.1295e-08 5.06809e-05

6.38122e-05 -1.27139e-06 -1.14504e-07
-1.27139e-06 4.644e-05 9.27666e-08
-1.14504e-07 9.27666e-08 5.77368e-05

6.5596e-05 3.22861e-07 2.98093e-08
3.22861e-07 4.58038e-05 -1.4143e-07
2.98093e-08 -1.4143e-07 5.7503e-05

4.81903e-05 -7.12002e-06 1.01402e-07
-7.12002e-06 4.8973e-05 -9.22367e-08
1.01402e-07 -9.22367e-08 4.89542e-05

3.51163e-05 1.62688e-06 -9.37455e-09
1.62688e-06 4.97962e-05 1.18942e-07
-9.37455e-09 1.18942e-07 3.92581e-05

3.10435e-05 1.54937e-06 6.1349e-08
1.54937e-06 4.78408e-05 -1.72114e-08
6.1349e-08 -1.72114e-08 3.80269e-05

4.78765e-05 1.76362e-06 1.36805e-07
1.76362e-06 3.25274e-05 -4.839e-08
1.36805e-07 -4.839e-08 3.8359e-05

4.22102e-05 7.50825e-06 8.39857e-08
7.50825e-06 4.07581e-05 1.38159e-07
8.39857e-08 1.38159e-07 3.84753e-05

5.01975e-05 -7.61007e-06 1.96835e-08
-7.61007e-06 4.26686e-05 1.56346e-08
1.96835e-08 1.56346e-08 4.43028e-05

6.29777e-05 8.72655e-06 6.80573e-07
8.72655e-06 7.41757e-05 3.12826e-07
6.80573e-07 3.12826e-07 6.76734e-05

7.78734e-05 -3.13591e-06 3.61777e-07
-3.13591e-06 7.69416e-05 -2.39053e-07
3.61777e-07 -2.39053e-07 6.29643e-05

5.34585e-05 -2.71601e-06 -7.51647e-08
-2.71601e-06 3.91486e-05 3.91487e-08
-7.51647e-08 3.91487e-08 4.50822e-05

4.44671e-05 6.28395e-06 -2.74482e-08
6.28395e-06 5.38884e-05 1.43322e-07
-2.74482e-08 1.43322e-07 5.23924e-05

5.5796e-05 -7.76791e-06 -1.35537e-07
-7.76791e-06 5.8182e-05 -2.60911e-08
-1.35537e-07 -2.60911e-08 5.65102e-05

5.94959e-05 3.85994e-06 7.59909e-08
3.85994e-06 4.26669e-05 9.34194e-08
7.59909e-08 9.34194e-08 5.38453e-05

4.19946e-05 7.14634e-06 -5.81613e-08
7.14634e-06 5.43369e-05 -1.83449e-07
-5.81613e-08 -1.83449e-07 4.49447e-05

3.67222e-05 -3.60295e-06 1.13599e-08
-3.60295e-06 5.2804e-05 -1.29468e-07
1.13599e-08 -1.29468e-07 4.37799e-05

4.45471e-05 7.13084e-06 7.85305e-08
7.13084e-06 6.2481e-05 -3.67342e-08
7.85305e-08 -3.67342e-08 5.79173e-05

6.14875e-05 -3.23099e-06 2.74117e-08
-3.23099e-06 6.5813e-05 -3.00692e-09
2.74117e-08 -3.00692e-09 6.48232e-05

4.85172e-05 7.26583e-06 -3.56036e-08
7.26583e-06 5.409e-05 -1.68235e-07
-3.56036e-08 -1.68235e-07 5.65767e-05

6.18301e-05 -7.53092e-06 8.12908e-08
-7.53092e-06 6.29212e-05 1.43715e-07
8.12908e-08 1.43715e-07 6.3269e-05

6.40909e-05 4.85911e-07 -4.51511e-08
4.85911e-07 3.62612e-05 -1.0785e-07
-4.51511e-08 -1.0785e-07 5.79687e-05

4.60728e-05 9.42594e-06 -8.62184e-08
9.42594e-06 4.14936e-05 1.33506e-08
-8.62184e-08 1.33506e-08 4.25827e-05

4.99689e-05 1.11317e-05 -3.82484e-08
1.11317e-05 6.33435e-05 3.7411e-08
-3.82484e-08 3.7411e-08 5.65094e-05

4.68414e-05 -8.6358e-06 3.1587e-08
-8.6358e-06 5.41405e-05 -7.03045e-08
3.1587e-08 -7.03045e-08 5.68712e-05

4.5904e-05 8.47164e-06 -8.70315e-08
8.47164e-06 4.58391e-05 2.58008e-09
-8.70315e-08 2.58008e-09 4.43649e-05

3.909e-05 -4.80043e-06 1.18542e-07
-4.80043e-06 4.35806e-05 3.88922e-08
1.18542e-07 3.88922e-08 3.7715e-05

4.71911e-05 -7.33886e-06 5.23168e-08
-7.33886e-06 5.1793e-05 -1.98294e-08
5.23168e-08 -1.98294e-08 5.20069e-05

4.20958e-05 -1.79315e-06 -5.11758e-08
-1.79315e-06 5.14565e-05 1.41396e-07
-5.11758e-08 1.41396e-07 4.19206e-05

3.63987e-05 4.46028e-06 5.75349e-08
4.46028e-06 4.94229e-05 -1.92603e-08
5.75349e-08 -1.92603e-08 4.04973e-05

4.95619e-05 -1.48298e-06 1.27498e-07
-1.48298e-06 3.87602e-05 -2.94177e-08
1.27498e-07 -2.94177e-08 4.08948e-05

5.00683e-05 -6.77857e-06 1.33546e-08
-6.77857e-06 4.89769e-05 1.16492e-07
1.33546e-08 1.16492e-07 4.61021e-05

4.07191e-05 9.84232e-07 2.32215e-08
9.84232e-07 5.76117e-05 3.66685e-09
2.32215e-08 3.66685e-09 4.83562e-05

4.92645e-05 1.32933e-06 -2.36706e-10
1.32933e-06 5.78796e-05 3.14363e-08
-2.36706e-10 3.14363e-08 5.02586e-05

4.07082e-05 -6.30663e-06 -2.92531e-08
-6.30663e-06 4.28939e-05 -4.96616e-08
-2.92531e-08 -4.96616e-08 3.80223e-05

3.68674e-05 7.58556e-06 7.19618e-08
7.58556e-06 4.20371e-05 1.44218e-07
7.19618e-08 1.44218e-07 3.7078e-05

6.01162e-05 1.54399e-06 -1.29306e-07
1.54399e-06 4.35494e-05 3.06909e-08
-1.29306e-07 3.06909e-08 5.75832e-05

6.08714e-05 1.39871e-07 8.89463e-08
1.39871e-07 4.30312e-05 1.0155e-07
8.89463e-08 1.0155e-07 5.83553e-05

4.8532e-05 7.56121e-06 1.5936e-07
7.56121e-06 5.19929e-05 6.15993e-08
1.5936e-07 6.15993e-08 5.31577e-05

5.73055e-05 -6.72679e-06 2.52389e-08
-6.72679e-06 5.8804e-05 4.42418e-08
2.52389e-08 4.42418e-08 5.74577e-05

5.20107e-05 1.10119e-05 -9.45032e-08
1.10119e-05 6.42922e-05 -1.77144e-07
-9.45032e-08 -1.77144e-07 5.86589e-05

4.37737e-05 -6.53709e-06 9.98297e-08
-6.53709e-06 6.31118e-05 -1.24266e-07
9.98297e-08 -1.24266e-07 5.78875e-05

5.13462e-05 7.40489e-06 -2.22934e-07
7.40489e-06 5.45993e-05 -7.64802e-08
-2.22934e-07 -7.64802e-08 5.38021e-05

4.18427e-05 4.57869e-06 1.25023e-07
4.57869e-06 3.37493e-05 -8.72543e-08
1.25023e-07 -8.72543e-08 3.45359e-05

4.36327e-05 -4.04553e-06 7.75501e-08
-4.04553e-06 5.30909e-05 -1.81308e-07
7.75501e-08 -1.81308e-07 4.60241e-05

3.69194e-05 5.66299e-06 6.85374e-08
5.66299e-06 5.21809e-05 8.32147e-09
6.85374e-08 8.32147e-09 4.41398e-05

6.30872e-05 6.64269e-06 1.13504e-07
6.64269e-06 5.21765e-05 6.80991e-08
1.13504e-07 6.80991e-08 5.82206e-05

6.60678e-05 -3.23061e-06 -1.39802e-07
-3.23061e-06 5.40652e-05 -1.19425e-07
-1.39802e-07 -1.19425e-07 6.14717e-05

5.53479e-05 -6.17933e-06 -7.03593e-08
-6.17933e-06 4.97253e-05 1.26257e-07
-7.03593e-08 1.26257e-07 5.18667e-05

5.79042e-05 7.25454e-06 -1.14552e-07
7.25454e-06 4.93673e-05 -1.51261e-07
-1.14552e-07 -1.51261e-07 5.41973e-05

6.15552e-05 -5.63852e-06 1.80143e-08
-5.63852e-06 5.18189e-05 4.74132e-10
1.80143e-08 4.74132e-10 5.69139e-05

2.80001e-05 -2.09199e-06 1.87768e-07
-2.09199e-06 1.76676e-05 1.01685e-07
1.87768e-07 1.01685e-07 2.90229e-05

1.79629e-05 -2.47278e-06 -3.61941e-08
-2.47278e-06 2.68987e-05 1.83779e-08
-3.61941e-08 1.83779e-08 2.89258e-05

7.14238e-05 9.0778e-06 9.64196e-08
9.0778e-06 6.31591e-05 -3.38758e-07
9.64196e-08 -3.38758e-07 6.20167e-05

7.50334e-05 -6.40444e-06 2.37597e-07
-6.40444e-06 5.99786e-05 -2.73928e-07
2.37597e-07 -2.73928e-07 6.59892e-05

5.37302e-05 8.54389e-06 3.92566e-08
8.54389e-06 4.6296e-05 3.674e-08
3.92566e-08 3.674e-08 4.96548e-05

4.23173e-05 4.19545e-06 9.93754e-08
4.19545e-06 3.2077e-05 -1.41291e-08
9.93754e-08 -1.41291e-08 3.43313e-05

4.87594e-05 7.69426e-06 -5.06992e-08
7.69426e-06 6.08002e-05 -5.5783e-08
-5.06992e-08 -5.5783e-08 5.46605e-05

4.13141e-05 -3.19988e-06 -3.51132e-08
-3.19988e-06 6.1776e-05 -1.64167e-08
-3.51132e-08 -1.64167e-08 5.33219e-05

4.20681e-05 -7.04156e-06 -7.22284e-08
-7.04156e-06 4.52669e-05 1.8418e-07
-7.22284e-08 1.8418e-07 4.19666e-05

5.60699e-05 5.10111e-06 -2.11356e-08
5.10111e-06 6.26972e-05 -3.02169e-08
-2.11356e-08 -3.02169e-08 5.90973e-05

6.24253e-05 -2.80107e-06 2.68659e-08
-2.80107e-06 6.58652e-05 -3.04261e-09
2.68659e-08 -3.04261e-09 6.47557e-05

4.96037e-05 5.75307e-06 -1.54982e-07
5.75307e-06 3.99966e-05 -6.43216e-08
-1.54982e-07 -6.43216e-08 4.16896e-05

5.50188e-05 2.934e-06 -7.55505e-08
2.934e-06 4.03507e-05 1.39362e-08
-7.55505e-08 1.39362e-08 4.7647e-05

4.33316e-05 1.06474e-05 -1.21657e-07
1.06474e-05 5.72694e-05 -2.4429e-08
-1.21657e-07 -2.4429e-08 5.65048e-05

6.3791e-05 -5.73248e-06 -3.40893e-08
-5.73248e-06 6.3456e-05 -4.9099e-08
-3.40893e-08 -4.9099e-08 6.3983e-05

4.55168e-05 8.7865e-06 1.65253e-07
8.7865e-06 5.78073e-05 4.37949e-08
1.65253e-07 4.37949e-08 5.0606e-05

4.07047e-05 -4.07217e-06 -8.33082e-08
-4.07217e-06 5.58229e-05 6.3009e-08
-8.33082e-08 6.3009e-08 4.9833e-05

5.28573e-05 9.61436e-06 -1.69617e-07
9.61436e-06 4.87897e-05 -1.43287e-07
-1.69617e-07 -1.43287e-07 5.23127e-05

5.84307e-05 -8.31151e-06 6.70464e-08
-8.31151e-06 5.11088e-05 7.59077e-09
6.70464e-08 7.59077e-09 5.51408e-05

3.83706e-05 3.07884e-06 8.17675e-08
3.07884e-06 5.61598e-05 -2.39019e-08
8.17675e-08 -2.39019e-08 4.72544e-05

4.61827e-05 -9.12555e-08 2.04469e-07
-9.12555e-08 5.72251e-05 1.2783e-07
2.04469e-07 1.2783e-07 4.94467e-05

2.91561e-05 -2.9993e-06 -9.53751e-08
-2.9993e-06 3.38027e-05 -1.09053e-07
-9.53751e-08 -1.09053e-07 2.95767e-05

3.33325e-05 -2.88021e-06 -1.11154e-08
-2.88021e-06 2.97133e-05 -2.32376e-08
-1.11154e-08 -2.32376e-08 2.95591e-05

5.7685e-05 5.13752e-06 6.5733e-08
5.13752e-06 4.20185e-05 9.68222e-08
6.5733e-08 9.68222e-08 5.11331e-05

8.06013e-05 3.29757e-06 -6.96958e-07
3.29757e-06 6.90524e-05 4.90813e-07
-6.96958e-07 4.90813e-07 6.31809e-05

8.3102e-05 -7.09235e-06 4.87815e-07
-7.09235e-06 6.00709e-05 3.10133e-07
4.87815e-07 3.10133e-07 6.79621e-05

5.872e-05 -7.88034e-06 -7.85847e-09
-7.88034e-06 6.68746e-05 -9.86205e-08
-7.85847e-09 -9.86205e-08 6.14788e-05

5.97591e-05 2.35991e-06 -1.53367e-08
2.35991e-06 6.30363e-05 9.81672e-08
-1.53367e-08 9.81672e-08 6.13986e-05

6.19001e-05 -3.85365e-07 -2.09038e-08
-3.85365e-07 4.2207e-05 -1.22582e-07
-2.09038e-08 -1.22582e-07 5.1614e-05

4.91033e-05 1.19861e-05 3.94431e-08
1.19861e-05 6.29103e-05 -9.27502e-08
3.94431e-08 -9.27502e-08 5.64217e-05

4.13787e-05 -1.14472e-05 2.48666e-08
-1.14472e-05 5.76598e-05 -8.01708e-08
2.48666e-08 -8.01708e-08 5.6577e-05

3.17934e-05 6.12122e-06 6.11711e-08
6.12122e-06 3.47777e-05 -1.34708e-07
6.11711e-08 -1.34708e-07 3.13689e-05

3.49903e-05 6.31996e-06 -2.29413e-07
6.31996e-06 3.39269e-05 -1.03809e-07
-2.29413e-07 -1.03809e-07 3.16663e-05

3.25821e-05 -2.20812e-06 -7.33588e-08
-2.20812e-06 4.19258e-05 -1.11951e-08
-7.33588e-08 -1.11951e-08 3.42878e-05

3.15567e-05 4.67119e-06 8.14498e-08
4.67119e-06 4.13572e-05 1.53372e-07
8.14498e-08 1.53372e-07 3.36992e-05

4.12496e-05 -1.22859e-06 -9.95567e-08
-1.22859e-06 3.05731e-05 4.41373e-08
-9.95567e-08 4.41373e-08 3.39246e-05

2.88748e-05 2.70765e-06 1.49386e-07
2.70765e-06 4.02468e-05 -1.88458e-07
1.49386e-07 -1.88458e-07 3.20469e-05

3.82738e-05 3.35422e-06 -1.9404e-07
3.35422e-06 2.84894e-05 -1.69337e-08
-1.9404e-07 -1.69337e-08 3.18265e-05

5.75528e-05 3.17276e-07 7.14442e-08
3.17276e-07 6.92056e-05 -7.16415e-08
7.14442e-08 -7.16415e-08 6.08199e-05

6.09609e-05 6.18603e-06 -2.29906e-08
6.18603e-06 6.79643e-05 -2.88919e-07
-2.29906e-08 -2.88919e-07 6.33103e-05

6.09961e-05 9.27129e-07 -9.82072e-08
9.27129e-07 5.09814e-05 8.91653e-08
-9.82072e-08 8.91653e-08 5.48146e-05

6.53963e-05 -3.54756e-07 6.31886e-08
-3.54756e-07 4.19867e-05 5.89482e-08
6.31886e-08 5.89482e-08 5.55162e-05

4.00614e-05 -3.92026e-06 -5.15773e-08
-3.92026e-06 4.92842e-05 1.40912e-07
-5.15773e-08 1.40912e-07 4.10551e-05

3.63613e-05 5.70263e-06 5.32827e-08
5.70263e-06 4.64828e-05 -1.4136e-08
5.32827e-08 -1.4136e-08 3.96228e-05

6.18654e-05 -2.88661e-07 -5.2702e-08
-2.88661e-07 4.21354e-05 4.17604e-08
-5.2702e-08 4.17604e-08 5.1855e-05

6.72995e-05 4.67768e-06 1.47761e-07
4.67768e-06 5.85161e-05 -2.78255e-07
1.47761e-07 -2.78255e-07 6.09952e-05

7.06374e-05 -3.26405e-06 -4.88873e-08
-3.26405e-06 5.86819e-05 6.36815e-08
-4.88873e-08 6.36815e-08 6.46135e-05

5.47698e-05 4.80494e-06 3.62591e-08
4.80494e-06 5.64626e-05 -2.26619e-07
3.62591e-08 -2.26619e-07 5.45052e-05

4.69123e-05 -7.82325e-06 7.06981e-08
-7.82325e-06 5.33808e-05 6.6369e-08
7.06981e-08 6.6369e-08 5.3233e-05

4.85649e-05 1.0031e-05 -3.72301e-09
1.0031e-05 5.97942e-05 -3.66205e-08
-3.72301e-09 -3.66205e-08 5.29692e-05

6.11036e-05 1.11328e-06 -9.58983e-08
1.11328e-06 4.43617e-05 1.11709e-07
-9.58983e-08 1.11709e-07 5.36211e-05

4.24563e-05 7.25112e-06 1.83188e-07
7.25112e-06 4.10143e-05 1.07705e-08
1.83188e-07 1.07705e-08 3.78857e-05

4.34093e-05 -5.40942e-06 -3.03226e-08
-5.40942e-06 5.62466e-05 2.1112e-08
-3.03226e-08 2.1112e-08 5.26018e-05

4.89651e-05 1.07668e-05 2.69803e-08
1.07668e-05 5.88894e-05 -5.3094e-08
2.69803e-08 -5.3094e-08 5.28811e-05

2.54659e-05 1.21245e-05 -1.82054e-07
1.21245e-05 2.69838e-05 1.63753e-08
-1.82054e-07 1.63753e-08 2.61717e-05

3.79928e-05 -1.29375e-06 6.95133e-08
-1.29375e-06 5.61628e-05 2.3445e-08
6.95133e-08 2.3445e-08 4.69742e-05

4.39029e-05 4.287e-06 -1.68764e-07
4.287e-06 5.6331e-05 1.03439e-07
-1.68764e-07 1.03439e-07 4.844e-05

5.51456e-05 -1.16325e-06 -1.71152e-07
-1.16325e-06 7.57057e-05 4.84506e-08
-1.71152e-07 4.84506e-08 6.10666e-05

6.2976e-05 4.87645e-06 -6.01585e-08
4.87645e-06 6.62508e-05 -3.88742e-07
-6.01585e-08 -3.88742e-07 6.48912e-05

6.48287e-05 4.03856e-06 -6.01004e-08
4.03856e-06 4.19867e-05 1.21457e-07
-6.01004e-08 1.21457e-07 5.88946e-05

6.73186e-05 -2.63797e-06 1.6669e-07
-2.63797e-06 3.94424e-05 1.0751e-09
1.6669e-07 1.0751e-09 6.04465e-05

5.55093e-05 5.1061e-06 1.96635e-07
5.1061e-06 5.658e-05 -1.4779e-07
1.96635e-07 -1.4779e-07 5.72136e-05

5.45327e-05 -7.98125e-06 1.56208e-07
-7.98125e-06 5.56794e-05 -6.90676e-08
1.56208e-07 -6.90676e-08 5.77991e-05

5.85636e-05 4.59541e-06 4.02847e-08
4.59541e-06 6.5872e-05 -1.40584e-07
4.02847e-08 -1.40584e-07 6.0844e-05

5.93948e-05 -7.07967e-06 3.00912e-08
-7.07967e-06 6.14795e-05 6.27707e-08
3.00912e-08 6.27707e-08 6.10151e-05

7.63597e-05 9.30718e-06 4.98633e-07
9.30718e-06 6.83638e-05 4.20872e-07
4.98633e-07 4.20872e-07 6.2793e-05

8.08583e-05 -5.75807e-06 -2.1421e-07
-5.75807e-06 6.02347e-05 2.69066e-07
-2.1421e-07 2.69066e-07 6.78165e-05

5.03078e-05 1.2046e-05 6.55369e-08
1.2046e-05 5.60893e-05 -1.46184e-07
6.55369e-08 -1.46184e-07 5.82008e-05

6.8759e-05 -6.45586e-06 -9.71496e-08
-6.45586e-06 6.2123e-05 1.82621e-07
-9.71496e-08 1.82621e-07 6.56742e-05

5.37121e-05 8.84388e-06 4.47109e-08
8.84388e-06 4.41565e-05 1.45829e-08
4.47109e-08 1.45829e-08 4.88829e-05

4.88298e-05 7.65492e-06 -8.6291e-08
7.65492e-06 5.80086e-05 1.89183e-07
-8.6291e-08 1.89183e-07 5.13833e-05

4.14335e-05 -3.15954e-06 -1.76363e-08
-3.15954e-06 5.66764e-05 1.03868e-07
-1.76363e-08 1.03868e-07 5.01508e-05

5.34594e-05 -8.25756e-06 -1.07449e-08
-8.25756e-06 4.90367e-05 1.37015e-07
-1.07449e-08 1.37015e-07 5.00024e-05

4.19682e-05 -4.88225e-06 8.0512e-08
-4.88225e-06 4.02606e-05 -8.85899e-10
8.0512e-08 -8.85899e-10 3.71948e-05

5.55148e-05 -6.26518e-06 -9.69228e-08
-6.26518e-06 4.52665e-05 1.93126e-09
-9.69228e-08 1.93126e-09 5.03795e-05

4.7203e-05 9.2648e-06 -3.70105e-08
9.2648e-06 4.62209e-05 4.71742e-08
-3.70105e-08 4.71742e-08 4.77905e-05

4.74163e-05 -1.23336e-05 3.72736e-09
-1.23336e-05 5.64835e-05 -6.12495e-08
3.72736e-09 -6.12495e-08 5.85081e-05

5.13429e-05 1.03129e-05 -1.03027e-07
1.03129e-05 6.27524e-05 1.86085e-08
-1.03027e-07 1.86085e-08 5.81123e-05

6.02925e-05 -2.20436e-06 6.37281e-08
-2.20436e-06 5.07795e-05 7.95111e-08
6.37281e-08 7.95111e-08 5.56394e-05

7.84996e-05 -3.39315e-06 -4.06008e-07
-3.39315e-06 7.65121e-05 1.05849e-08
-4.06008e-07 1.05849e-08 6.28729e-05

6.68499e-05 3.35131e-06 -2.1003e-07
3.35131e-06 7.20341e-05 2.72914e-07
-2.1003e-07 2.72914e-07 6.66859e-05

5.48306e-05 3.99922e-06 2.71381e-08
3.99922e-06 4.96444e-05 4.89291e-08
2.71381e-08 4.89291e-08 5.321e-05

6.58528e-05 -1.54077e-06 -4.10619e-08
-1.54077e-06 5.31739e-05 2.59487e-08
-4.10619e-08 2.59487e-08 5.93393e-05

3.31064e-05 -4.33365e-06 -8.28057e-08
-4.33365e-06 3.5032e-05 7.84861e-08
-8.28057e-08 7.84861e-08 3.11791e-05

3.60576e-05 -4.40943e-06 -1.10907e-07
-4.40943e-06 3.03083e-05 4.36475e-08
-1.10907e-07 4.36475e-08 3.11852e-05

6.49092e-05 1.38186e-06 9.96794e-08
1.38186e-06 4.84608e-05 -7.69534e-08
9.96794e-08 -7.69534e-08 5.93489e-05

6.64439e-05 -2.79809e-08 1.34881e-07
-2.79809e-08 4.65714e-05 -3.53703e-08
1.34881e-07 -3.53703e-08 6.14759e-05

6.37742e-05 5.20514e-08 -1.33835e-07
5.20514e-08 5.59746e-05 2.64079e-08
-1.33835e-07 2.64079e-08 5.95115e-05

5.27388e-05 -3.48001e-06 1.62622e-07
-3.48001e-06 5.86346e-05 1.5902e-07
1.62622e-07 1.5902e-07 5.32271e-05

4.25649e-05 4.98227e-06 2.32866e-08
4.98227e-06 5.66672e-05 -6.74899e-08
2.32866e-08 -6.74899e-08 5.0274e-05

5.17733e-05 6.96244e-06 -1.29811e-08
6.96244e-06 4.23999e-05 -3.05055e-08
-1.29811e-08 -3.05055e-08 4.52365e-05

5.86459e-05 8.56445e-06 8.67085e-08
8.56445e-06 5.18437e-05 1.61294e-07
8.67085e-08 1.61294e-07 5.66747e-05

6.34176e-05 -6.78235e-06 1.14725e-07
-6.78235e-06 5.7652e-05 -2.15477e-07
1.14725e-07 -2.15477e-07 6.06704e-05

6.8178e-05 1.19844e-06 -1.18716e-07
1.19844e-06 6.5742e-05 4.57282e-07
-1.18716e-07 4.57282e-07 6.3576e-05

6.57709e-05 -8.7168e-06 2.97965e-08
-8.7168e-06 7.66997e-05 3.74499e-07
2.97965e-08 3.74499e-07 6.35119e-05

5.58859e-05 3.36999e-06 1.16396e-07
3.36999e-06 4.81623e-05 1.14124e-07
1.16396e-07 1.14124e-07 4.99927e-05

6.37618e-05 5.4305e-06 7.07085e-08
5.4305e-06 5.40037e-05 1.14131e-07
7.07085e-08 1.14131e-07 5.86084e-05

6.55357e-05 -3.71222e-06 -8.51036e-09
-3.71222e-06 5.36428e-05 2.03256e-08
-8.51036e-09 2.03256e-08 6.1414e-05

4.58258e-05 -2.7671e-06 -1.26331e-07
-2.7671e-06 5.89929e-05 4.70086e-08
-1.26331e-07 4.70086e-08 5.52402e-05

5.30547e-05 9.79744e-06 8.48057e-08
9.79744e-06 6.16483e-05 3.84363e-08
8.48057e-08 3.84363e-08 5.62117e-05

5.06578e-05 1.24083e-05 -1.41248e-07
1.24083e-05 6.29881e-05 -1.1401e-07
-1.41248e-07 -1.1401e-07 5.651e-05

4.56657e-05 -7.89029e-06 1.21177e-07
-7.89029e-06 5.63425e-05 -9.63647e-08
1.21177e-07 -9.63647e-08 5.6323e-05

2.84442e-05 1.40498e-05 1.24815e-08
1.40498e-05 2.83727e-05 -2.48354e-08
1.24815e-08 -2.48354e-08 2.71288e-05

5.33859e-05 7.58982e-06 -2.79061e-08
7.58982e-06 6.53703e-05 -1.34383e-07
-2.79061e-08 -1.34383e-07 5.91236e-05

5.0435e-05 -8.06109e-06 6.59724e-08
-8.06109e-06 6.13895e-05 6.51161e-08
6.59724e-08 6.51161e-08 5.94443e-05

4.30511e-05 -6.48414e-06 -2.08485e-08
-6.48414e-06 5.69007e-05 8.07148e-08
-2.08485e-08 8.07148e-08 5.48379e-05

4.8885e-05 1.07083e-05 3.77803e-09
1.07083e-05 6.14788e-05 6.29416e-08
3.77803e-09 6.29416e-08 5.52096e-05

5.39175e-05 -4.9555e-06 -6.82119e-08
-4.9555e-06 4.42001e-05 -1.96393e-08
-6.82119e-08 -1.96393e-08 4.6716e-05

5.42987e-05 -5.83493e-06 -9.09047e-08
-5.83493e-06 5.29343e-05 9.48875e-08
-9.09047e-08 9.48875e-08 5.50022e-05

5.44218e-05 6.0021e-06 1.27756e-07
6.0021e-06 6.02438e-05 4.75472e-08
1.27756e-07 4.75472e-08 5.78104e-05

5.43761e-05 -8.18003e-06 1.62292e-07
-8.18003e-06 5.64064e-05 -4.61364e-08
1.62292e-07 -4.61364e-08 5.819e-05

6.02923e-05 -2.15651e-06 6.39524e-08
-2.15651e-06 4.38058e-05 -1.11099e-08
6.39524e-08 -1.11099e-08 5.43305e-05

6.46897e-05 1.8761e-06 1.38164e-07
1.8761e-06 5.87947e-05 1.14331e-07
1.38164e-07 1.14331e-07 6.06609e-05

6.71263e-05 -2.52623e-06 1.01478e-07
-2.52623e-06 5.45478e-05 1.30653e-07
1.01478e-07 1.30653e-07 6.34196e-05

6.14554e-05 3.96401e-06 -9.91441e-08
3.96401e-06 7.91507e-05 -3.01102e-07
-9.91441e-08 -3.01102e-07 6.24796e-05

6.42289e-05 3.72602e-06 -7.11102e-08
3.72602e-06 7.54994e-05 4.14017e-07
-7.11102e-08 4.14017e-07 6.64198e-05

2.71536e-05 2.63229e-06 -4.56237e-08
2.63229e-06 2.04042e-05 4.60645e-08
-4.56237e-08 4.60645e-08 2.82992e-05

2.0218e-05 2.37907e-06 -3.76967e-08
2.37907e-06 2.85074e-05 4.19269e-08
-3.76967e-08 4.19269e-08 2.83224e-05

5.38585e-05 7.91752e-06 -8.81606e-08
7.91752e-06 5.37798e-05 5.08893e-08
-8.81606e-08 5.08893e-08 5.63165e-05

6.20359e-05 -7.97126e-06 1.58876e-07
-7.97126e-06 6.00861e-05 9.82373e-09
1.58876e-07 9.82373e-09 6.12846e-05

2.68411e-05 5.32597e-06 1.63078e-08
5.32597e-06 2.53583e-05 1.61373e-08
1.63078e-08 1.61373e-08 2.85254e-05

2.55339e-05 5.49078e-06 -6.13849e-08
5.49078e-06 2.57791e-05 -3.63313e-08
-6.13849e-08 -3.63313e-08 2.85329e-05

7.75923e-05 -2.83494e-06 -5.43788e-07
-2.83494e-06 7.23541e-05 -6.2707e-07
-5.43788e-07 -6.2707e-07 6.7817e-05

7.97283e-05 -1.28268e-06 3.50535e-07
-1.28268e-06 7.80952e-05 -4.60827e-07
3.50535e-07 -4.60827e-07 6.33466e-05

5.07739e-05 -7.94783e-06 -1.84963e-07
-7.94783e-06 5.18943e-05 1.46577e-08
-1.84963e-07 1.46577e-08 5.4245e-05

5.47495e-05 1.05292e-05 -5.89615e-08
1.05292e-05 5.0854e-05 2.37085e-07
-5.89615e-08 2.37085e-07 5.53369e-05

6.22648e-05 -8.40252e-06 1.88214e-07
-8.40252e-06 5.6279e-05 -1.77272e-07
1.88214e-07 -1.77272e-07 5.94445e-05

4.75289e-05 7.98565e-06 7.64752e-08
7.98565e-06 4.96612e-05 -1.48352e-07
7.64752e-08 -1.48352e-07 4.88962e-05

5.44465e-05 -6.41247e-06 -8.34034e-08
-6.41247e-06 5.24651e-05 1.16869e-08
-8.34034e-08 1.16869e-08 5.16449e-05

3.43337e-05 -1.15236e-06 -3.17298e-08
-1.15236e-06 4.23684e-05 4.9475e-11
-3.17298e-08 4.9475e-11 3.46582e-05

3.05279e-05 3.37149e-06 1.98963e-08
3.37149e-06 4.17096e-05 1.61312e-07
1.98963e-08 1.61312e-07 3.37737e-05

4.16324e-05 -1.78823e-07 -1.26554e-07
-1.78823e-07 3.21548e-05 -7.95967e-08
-1.26554e-07 -7.95967e-08 3.41729e-05

4.80308e-05 8.97406e-06 1.72385e-07
8.97406e-06 5.14718e-05 -9.3525e-09
1.72385e-07 -9.3525e-09 5.16835e-05

5.66054e-05 -8.95452e-06 -2.28062e-09
-8.95452e-06 5.53027e-05 -1.05611e-07
-2.28062e-09 -1.05611e-07 5.51336e-05

2.73715e-05 2.6402e-07 -5.15611e-08
2.6402e-07 3.8787e-05 7.60955e-08
-5.15611e-08 7.60955e-08 3.12312e-05

3.79833e-05 2.67003e-07 1.25179e-07
2.67003e-07 2.85784e-05 6.1676e-09
1.25179e-07 6.1676e-09 3.11274e-05

5.74395e-05 9.11247e-06 3.99836e-08
9.11247e-06 5.41079e-05 7.56486e-08
3.99836e-08 7.56486e-08 5.81077e-05

6.64453e-05 -6.60463e-06 -2.15636e-08
-6.60463e-06 5.9393e-05 4.47018e-08
-2.15636e-08 4.47018e-08 6.34394e-05

5.71087e-05 9.41385e-06 3.3433e-08
9.41385e-06 5.59955e-05 9.83612e-08
3.3433e-08 9.83612e-08 5.84316e-05

6.56742e-05 -8.1727e-06 -4.29061e-08
-8.1727e-06 5.77882e-05 -2.92918e-08
-4.29061e-08 -2.92918e-08 6.30528e-05

2.44225e-05 5.14432e-06 -1.86803e-07
5.14432e-06 2.48684e-05 -4.64373e-08
-1.86803e-07 -4.64373e-08 2.72697e-05

2.43202e-05 4.84651e-06 -4.68807e-08
4.84651e-06 2.58305e-05 2.71528e-08
-4.68807e-08 2.71528e-08 2.72333e-05

5.28638e-05 9.49777e-06 -2.0118e-07
9.49777e-06 5.03447e-05 1.35051e-07
-2.0118e-07 1.35051e-07 5.32357e-05

5.86239e-05 -7.16756e-06 5.6664e-08
-7.16756e-06 5.63822e-05 -8.28376e-08
5.6664e-08 -8.28376e-08 5.67652e-05

6.36735e-05 6.06035e-06 4.13675e-08
6.06035e-06 6.79404e-05 -2.85172e-07
4.13675e-08 -2.85172e-07 6.48617e-05

6.02346e-05 -6.2229e-07 -6.09903e-08
-6.2229e-07 6.9306e-05 -6.39299e-08
-6.09903e-08 -6.39299e-08 6.1511e-05

5.25074e-05 7.6743e-06 9.81027e-09
7.6743e-06 6.19465e-05 2.78077e-08
9.81027e-09 2.78077e-08 5.91049e-05

6.73879e-05 -8.4672e-06 -1.00989e-07
-8.4672e-06 6.29298e-05 1.70634e-07
-1.00989e-07 1.70634e-07 6.54894e-05

6.70614e-05 6.03904e-06 1.02527e-07
6.03904e-06 5.34771e-05 1.34e-07
1.02527e-07 1.34e-07 6.04399e-05

7.05735e-05 -3.92436e-06 -5.07616e-08
-3.92436e-06 5.19544e-05 4.66293e-08
-5.07616e-08 4.66293e-08 6.35187e-05

5.18892e-05 9.15777e-06 -1.76426e-07
9.15777e-06 6.01443e-05 5.23748e-08
-1.76426e-07 5.23748e-08 5.57225e-05

4.96776e-05 -7.9824e-06 -1.52225e-07
-7.9824e-06 5.64132e-05 -5.0788e-08
-1.52225e-07 -5.0788e-08 5.63268e-05

6.07319e-05 5.36062e-06 4.16953e-08
5.36062e-06 7.34896e-05 3.3826e-07
4.16953e-08 3.3826e-07 6.47105e-05

6.36155e-05 6.73673e-06 1.04011e-07
6.73673e-06 6.64547e-05 -9.74103e-08
1.04011e-07 -9.74103e-08 6.22486e-05

6.57938e-05 -1.11537e-05 -6.60918e-08
-1.11537e-05 6.40578e-05 1.28741e-07
-6.60918e-08 1.28741e-07 6.23247e-05

5.80235e-05 -2.38554e-06 7.58655e-08
-2.38554e-06 7.73689e-05 -1.14508e-07
7.58655e-08 -1.14508e-07 6.18458e-05

7.22674e-05 7.08117e-06 -6.32936e-08
7.08117e-06 6.23446e-05 -3.57187e-08
-6.32936e-08 -3.57187e-08 6.20485e-05

7.90169e-05 1.72156e-06 3.30152e-07
1.72156e-06 6.64842e-05 -3.99813e-07
3.30152e-07 -3.99813e-07 6.28489e-05

7.4893e-05 -6.80938e-06 1.30093e-07
-6.80938e-06 5.66195e-05 1.0934e-07
1.30093e-07 1.0934e-07 6.53665e-05

7.94871e-05 -1.70698e-06 -4.89239e-07
-1.70698e-06 6.21288e-05 -4.63789e-07
-4.89239e-07 -4.63789e-07 6.68414e-05

6.87254e-05 9.05624e-06 8.14821e-08
9.05624e-06 7.62717e-05 2.35222e-07
8.14821e-08 2.35222e-07 6.23837e-05

7.58249e-05 7.17417e-07 2.22204e-06
7.17417e-07 8.17719e-05 -1.64154e-06
2.22204e-06 -1.64154e-06 6.34507e-05

9.66485e-05 -1.14782e-05 2.399e-06
-1.14782e-05 5.23998e-05 1.22784e-06
2.399e-06 1.22784e-06 6.92258e-05

8.21425e-05 -8.05913e-06 7.80697e-07
-8.05913e-06 6.42448e-05 -1.10467e-06
7.80697e-07 -1.10467e-06 6.93064e-05

7.16741e-05 7.97849e-06 8.39992e-08
7.97849e-06 6.62296e-05 2.39037e-07
8.39992e-08 2.39037e-07 6.19355e-05

6.44705e-05 3.28604e-06 -1.80848e-07
3.28604e-06 6.31737e-05 6.36563e-08
-1.80848e-07 6.36563e-08 6.06828e-05

7.30721e-05 3.27173e-06 2.67299e-07
3.27173e-06 7.98423e-05 -6.09783e-07
2.67299e-07 -6.09783e-07 6.30185e-05

7.93451e-05 -5.18605e-06 -6.76011e-08
-5.18605e-06 6.19623e-05 1.81166e-07
-6.76011e-08 1.81166e-07 6.84613e-05

7.97648e-05 -3.8719e-06 -1.29816e-07
-3.8719e-06 6.51332e-05 -1.06935e-07
-1.29816e-07 -1.06935e-07 6.8685e-05

7.14323e-05 -4.35601e-06 -6.2597e-08
-4.35601e-06 6.43328e-05 1.77852e-07
-6.2597e-08 1.77852e-07 6.68919e-05

6.5381e-05 8.78965e-06 -1.81825e-07
8.78965e-06 6.13512e-05 5.16881e-08
-1.81825e-07 5.16881e-08 6.10994e-05

7.24278e-05 4.75669e-06 5.97917e-08
4.75669e-06 6.31797e-05 -2.35586e-08
5.97917e-08 -2.35586e-08 6.21265e-05

7.17708e-05 -6.24254e-06 -2.50629e-08
-6.24254e-06 5.97439e-05 -2.82058e-07
-2.50629e-08 -2.82058e-07 6.61184e-05

7.56848e-05 -3.53978e-06 2.4648e-07
-3.53978e-06 6.10477e-05 -1.97492e-07
2.4648e-07 -1.97492e-07 6.68193e-05

6.8971e-05 6.7244e-07 1.21152e-07
6.7244e-07 6.95575e-05 5.5953e-08
1.21152e-07 5.5953e-08 7.12423e-05

7.56684e-05 -2.43714e-07 7.27781e-09
-2.43714e-07 7.27258e-05 6.87666e-08
7.27781e-09 6.87666e-08 7.29763e-05

7.31572e-05 1.06748e-06 2.57007e-08
1.06748e-06 6.94561e-05 -4.55941e-08
2.57007e-08 -4.55941e-08 7.12596e-05

6.9586e-05 -1.47548e-06 5.87917e-08
-1.47548e-06 6.40259e-05 9.09457e-09
5.87917e-08 9.09457e-09 7.01694e-05

7.02144e-05 2.68335e-07 6.12184e-08
2.68335e-07 6.57551e-05 1.04301e-08
6.12184e-08 1.04301e-08 7.0616e-05

7.59573e-05 -1.95734e-06 1.14179e-08
-1.95734e-06 7.35071e-05 2.06123e-08
1.14179e-08 2.06123e-08 7.29603e-05

7.27546e-05 3.44008e-06 1.83291e-08
3.44008e-06 6.87369e-05 4.01466e-08
1.83291e-08 4.01466e-08 7.10256e-05

7.04387e-05 -4.9805e-07 5.47532e-08
-4.9805e-07 6.5206e-05 5.68057e-08
5.47532e-08 5.68057e-08 7.06018e-05

7.06819e-05 1.43005e-06 -1.08365e-07
1.43005e-06 6.03705e-05 1.0939e-07
-1.08365e-07 1.0939e-07 6.7967e-05

7.06601e-05 3.89661e-07 -1.0828e-07
3.89661e-07 6.97338e-05 2.47418e-08
-1.0828e-07 2.47418e-08 7.20006e-05

7.09503e-05 -1.88091e-07 -1.13253e-07
-1.88091e-07 6.98819e-05 -2.13025e-09
-1.13253e-07 -2.13025e-09 7.20165e-05

7.29406e-05 6.25283e-07 3.82685e-08
6.25283e-07 7.42752e-05 -1.02171e-07
3.82685e-08 -1.02171e-07 7.39804e-05

7.57875e-05 -2.11354e-06 3.83303e-08
-2.11354e-06 6.6626e-05 -6.94265e-08
3.83303e-08 -6.94265e-08 6.99356e-05

7.79021e-05 3.17213e-07 -4.70491e-09
3.17213e-07 7.45671e-05 1.59159e-08
-4.70491e-09 1.59159e-08 7.32378e-05

6.89937e-05 2.47905e-06 1.20513e-07
2.47905e-06 6.84145e-05 -4.59362e-08
1.20513e-07 -4.59362e-08 7.08623e-05

6.79127e-05 3.80633e-06 -6.77544e-08
3.80633e-06 6.79657e-05 2.72344e-08
-6.77544e-08 2.72344e-08 6.96776e-05

7.37788e-05 -3.74244e-06 -5.62998e-08
-3.74244e-06 6.93489e-05 -1.18986e-08
-5.62998e-08 -1.18986e-08 7.14789e-05

7.5513e-05 1.968e-06 5.25766e-08
1.968e-06 7.34417e-05 -1.90915e-08
5.25766e-08 -1.90915e-08 7.27783e-05

7.5649e-05 1.95416e-07 -5.17283e-08
1.95416e-07 7.63927e-05 -8.6738e-09
-5.17283e-08 -8.6738e-09 7.52145e-05

7.04929e-05 1.51441e-07 -4.87709e-08
1.51441e-07 7.12888e-05 -9.07776e-08
-4.87709e-08 -9.07776e-08 7.22395e-05

7.00515e-05 -6.51507e-07 -5.57227e-08
-6.51507e-07 7.14158e-05 1.08327e-07
-5.57227e-08 1.08327e-07 7.22507e-05

7.39002e-05 -3.28621e-07 -1.1531e-07
-3.28621e-07 7.51068e-05 -3.05724e-09
-1.1531e-07 -3.05724e-09 7.42909e-05

6.90658e-05 1.08833e-06 5.07412e-08
1.08833e-06 6.85222e-05 1.33776e-07
5.07412e-08 1.33776e-07 7.10173e-05

6.96326e-05 7.11987e-07 -1.13385e-07
7.11987e-07 6.64263e-05 -1.71396e-08
-1.13385e-07 -1.71396e-08 7.09922e-05

6.8037e-05 8.46561e-07 1.47898e-08
8.46561e-07 6.84998e-05 1.31896e-07
1.47898e-08 1.31896e-07 7.06423e-05

7.34471e-05 -8.89426e-07 1.42636e-07
-8.89426e-07 7.32705e-05 5.67796e-08
1.42636e-07 5.67796e-08 7.3669e-05

6.94817e-05 1.22058e-06 1.29199e-07
1.22058e-06 6.3987e-05 2.71033e-08
1.29199e-07 2.71033e-08 7.00825e-05

7.03757e-05 4.9712e-07 -5.80278e-08
4.9712e-07 7.11083e-05 1.17848e-07
-5.80278e-08 1.17848e-07 7.22325e-05

7.08255e-05 -1.59427e-06 -9.67737e-08
-1.59427e-06 6.01295e-05 -1.06497e-07
-9.67737e-08 -1.06497e-07 6.89967e-05

7.11469e-05 -3.37206e-07 -4.76136e-08
-3.37206e-07 7.376e-05 -1.50547e-07
-4.76136e-08 -1.50547e-07 7.37363e-05

7.78806e-05 -3.71451e-07 8.9167e-10
-3.71451e-07 7.19837e-05 2.47038e-08
8.9167e-10 2.47038e-08 7.21833e-05

7.75208e-05 2.87169e-07 9.72212e-08
2.87169e-07 7.04678e-05 9.48091e-09
9.72212e-08 9.48091e-09 7.20213e-05

7.23842e-05 -1.91226e-06 -1.78344e-07
-1.91226e-06 7.00272e-05 -1.16442e-09
-1.78344e-07 -1.16442e-09 6.96523e-05

7.19485e-05 1.69951e-06 -1.21926e-07
1.69951e-06 6.99235e-05 -2.13843e-07
-1.21926e-07 -2.13843e-07 6.96976e-05

6.95248e-05 -4.50069e-07 -1.00155e-07
-4.50069e-07 6.76765e-05 -2.40873e-08
-1.00155e-07 -2.40873e-08 7.12512e-05

6.70642e-05 1.39239e-07 -1.77259e-07
1.39239e-07 6.81878e-05 -9.53052e-08
-1.77259e-07 -9.53052e-08 7.02433e-05

6.84438e-05 -3.26265e-06 6.09906e-08
-3.26265e-06 6.85754e-05 3.76502e-08
6.09906e-08 3.76502e-08 6.99468e-05

6.85286e-05 3.26125e-06 -4.81275e-08
3.26125e-06 6.85837e-05 -1.32315e-07
-4.81275e-08 -1.32315e-07 6.99781e-05

7.08484e-05 -1.43402e-06 5.2907e-08
-1.43402e-06 6.01153e-05 -1.13107e-07
5.2907e-08 -1.13107e-07 6.75242e-05

7.28001e-05 -1.08767e-06 8.50717e-08
-1.08767e-06 7.49486e-05 1.33512e-07
8.50717e-08 1.33512e-07 7.39721e-05

6.94222e-05 1.28527e-07 -1.10141e-07
1.28527e-07 6.79695e-05 4.43462e-09
-1.10141e-07 4.43462e-09 7.10041e-05

7.06847e-05 1.42494e-06 -1.03304e-07
1.42494e-06 5.97239e-05 2.2505e-08
-1.03304e-07 2.2505e-08 6.76825e-05

6.94773e-05 -1.03727e-06 5.34027e-08
-1.03727e-06 6.86333e-05 3.9081e-08
5.34027e-08 3.9081e-08 7.10773e-05

6.85217e-05 -1.04713e-06 -6.46712e-08
-1.04713e-06 6.97139e-05 -8.77023e-08
-6.46712e-08 -8.77023e-08 7.12401e-05

7.5386e-05 -1.33193e-06 3.69607e-08
-1.33193e-06 7.45284e-05 -6.78637e-08
3.69607e-08 -6.78637e-08 7.39354e-05

6.96191e-05 1.02215e-07 3.86552e-08
1.02215e-07 6.79635e-05 1.72673e-08
3.86552e-08 1.72673e-08 7.12535e-05

7.11307e-05 3.82414e-07 -2.02748e-07
3.82414e-07 7.06613e-05 -4.95209e-08
-2.02748e-07 -4.95209e-08 7.24059e-05

7.18965e-05 8.95767e-07 1.0768e-07
8.95767e-07 7.23494e-05 -4.00717e-08
1.0768e-07 -4.00717e-08 7.31998e-05

7.14832e-05 -5.53055e-06 1.06581e-08
-5.53055e-06 6.46557e-05 -7.99025e-08
1.06581e-08 -7.99025e-08 6.90778e-05

7.17505e-05 -3.30814e-07 1.19886e-07
-3.30814e-07 7.2562e-05 1.66084e-07
1.19886e-07 1.66084e-07 7.31081e-05

6.96585e-05 1.25279e-07 -7.40518e-08
1.25279e-07 7.06399e-05 -4.33101e-08
-7.40518e-08 -4.33101e-08 7.21422e-05

7.58078e-05 1.18874e-06 1.50324e-08
1.18874e-06 7.78258e-05 1.15488e-07
1.50324e-08 1.15488e-07 7.6036e-05

7.58078e-05 -1.18874e-06 1.47487e-08
-1.18874e-06 7.78258e-05 -1.15704e-07
1.47487e-08 -1.15704e-07 7.60354e-05

7.54651e-05 -1.71255e-07 8.77106e-09
-1.71255e-07 7.66894e-05 -3.10752e-08
8.77106e-09 -3.10752e-08 7.54492e-05

7.54447e-05 -4.4356e-08 -1.61638e-08
-4.4356e-08 7.84556e-05 -1.04057e-07
-1.61638e-08 -1.04057e-07 7.61087e-05

7.54302e-05 1.33625e-07 -1.65138e-08
1.33625e-07 7.79149e-05 1.04307e-07
-1.65138e-08 1.04307e-07 7.61082e-05

7.34458e-05 -8.51116e-07 1.46197e-07
-8.51116e-07 7.44397e-05 1.01431e-07
1.46197e-07 1.01431e-07 7.37913e-05

7.14387e-05 -2.31738e-06 -1.22866e-07
-2.31738e-06 6.64798e-05 -6.70888e-08
-1.22866e-07 -6.70888e-08 6.8622e-05

7.10794e-05 2.39859e-06 1.42115e-07
2.39859e-06 6.63208e-05 4.85668e-08
1.42115e-07 4.85668e-08 6.86655e-05

7.70372e-05 -1.72892e-08 1.39198e-07
-1.72892e-08 7.72845e-05 -1.13225e-07
1.39198e-07 -1.13225e-07 7.55985e-05

7.70287e-05 1.67467e-07 1.39237e-07
1.67467e-07 7.71324e-05 1.15896e-07
1.39237e-07 1.15896e-07 7.55983e-05

7.00755e-05 4.96671e-07 6.45668e-08
4.96671e-07 6.84523e-05 5.42351e-08
6.45668e-08 5.42351e-08 7.15629e-05

7.52433e-05 3.17453e-06 3.76334e-08
3.17453e-06 6.95887e-05 -1.7673e-08
3.76334e-08 -1.7673e-08 6.97195e-05

7.9305e-05 -2.46899e-06 5.23196e-08
-2.46899e-06 7.65206e-05 6.06447e-09
5.23196e-08 6.06447e-09 7.29459e-05

7.3589e-05 6.75712e-07 -6.83899e-08
6.75712e-07 7.49857e-05 -9.14784e-08
-6.83899e-08 -9.14784e-08 7.40181e-05

7.00412e-05 -6.94472e-08 -1.20029e-07
-6.94472e-08 7.13445e-05 7.39463e-09
-1.20029e-07 7.39463e-09 7.22703e-05

7.09107e-05 -5.69183e-07 7.45563e-08
-5.69183e-07 6.9498e-05 4.76171e-08
7.45563e-08 4.76171e-08 7.17887e-05

7.38327e-05 -9.9403e-07 1.61182e-07
-9.9403e-07 7.47422e-05 -4.14604e-08
1.61182e-07 -4.14604e-08 7.34243e-05

7.0627e-05 3.28742e-06 -7.39584e-08
3.28742e-06 6.75741e-05 2.57823e-08
-7.39584e-08 2.57823e-08 7.07128e-05

7.50322e-05 2.02867e-06 -2.47386e-07
2.02867e-06 8.18767e-05 5.76039e-08
-2.47386e-07 5.76039e-08 7.66176e-05

7.50322e-05 -2.68478e-06 -2.47531e-07
-2.68478e-06 8.13331e-05 -5.76346e-08
-2.47531e-07 -5.76346e-08 7.66172e-05

6.95927e-05 4.57892e-06 -7.35011e-08
4.57892e-06 6.50684e-05 1.65951e-08
-7.35011e-08 1.65951e-08 6.81189e-05

7.43594e-05 1.30277e-07 -1.03476e-07
1.30277e-07 7.6935e-05 -3.25838e-09
-1.03476e-07 -3.25838e-09 7.54384e-05

7.41325e-05 -7.64702e-07 -1.05401e-07
-7.64702e-07 7.70134e-05 1.68247e-08
-1.05401e-07 1.68247e-08 7.54422e-05

6.41542e-05 2.39844e-06 1.69532e-07
2.39844e-06 6.83394e-05 9.68029e-08
1.69532e-07 9.68029e-08 6.89819e-05

7.51728e-05 1.42403e-06 -1.09664e-07
1.42403e-06 7.58475e-05 -2.50652e-08
-1.09664e-07 -2.50652e-08 7.35655e-05

6.92681e-05 4.41751e-07 -1.0994e-07
4.41751e-07 6.76483e-05 4.37399e-08
-1.0994e-07 4.37399e-08 7.12554e-05

6.9684e-05 -5.54748e-07 -9.78637e-08
-5.54748e-07 6.62143e-05 5.14119e-08
-9.78637e-08 5.14119e-08 7.10107e-05

6.87194e-05 -3.39314e-06 4.06348e-08
-3.39314e-06 6.43654e-05 1.2742e-07
4.06348e-08 1.2742e-07 6.96883e-05

6.8327e-05 4.09945e-06 -8.19123e-08
4.09945e-06 7.32248e-05 -1.93855e-07
-8.19123e-08 -1.93855e-07 6.95169e-05

6.83918e-05 -3.81361e-06 -1.9587e-07
-3.81361e-06 7.26507e-05 6.96663e-09
-1.9587e-07 6.96663e-09 6.94692e-05

6.89077e-05 6.95616e-07 1.94882e-07
6.95616e-07 6.96998e-05 3.74697e-09
1.94882e-07 3.74697e-09 7.16212e-05

6.84644e-05 1.22723e-06 -5.5252e-08
1.22723e-06 6.67347e-05 -4.95711e-08
-5.5252e-08 -4.95711e-08 7.07596e-05

7.57268e-05 -4.64316e-07 -5.57128e-08
-4.64316e-07 7.6375e-05 5.89929e-08
-5.57128e-08 5.89929e-08 7.52014e-05

7.8338e-05 1.3423e-07 -2.1921e-07
1.3423e-07 7.78443e-05 -5.99852e-08
-2.1921e-07 -5.99852e-08 7.24754e-05

8.29093e-05 2.32415e-06 -1.78819e-07
2.32415e-06 6.87214e-05 -7.03251e-08
-1.78819e-07 -7.03251e-08 7.10437e-05

6.88518e-05 3.55419e-06 -1.92351e-08
3.55419e-06 6.47094e-05 -2.72758e-09
-1.92351e-08 -2.72758e-09 6.9722e-05

7.40394e-05 -1.49058e-06 -5.37002e-08
-1.49058e-06 7.01763e-05 3.2546e-08
-5.37002e-08 3.2546e-08 7.17164e-05

7.53141e-05 6.20625e-07 5.53744e-08
6.20625e-07 7.23688e-05 1.76628e-08
5.53744e-08 1.76628e-08 7.27782e-05

7.66258e-05 -1.76822e-07 3.77437e-08
-1.76822e-07 7.71932e-05 -8.64757e-09
3.77437e-08 -8.64757e-09 7.56732e-05

7.55451e-05 2.26376e-07 5.89287e-08
2.26376e-07 7.71901e-05 2.80807e-09
5.89287e-08 2.80807e-09 7.56772e-05

7.26736e-05 1.40539e-06 1.32452e-07
1.40539e-06 7.42585e-05 1.28323e-07
1.32452e-07 1.28323e-07 7.39744e-05

7.42131e-05 -5.78145e-07 6.58399e-08
-5.78145e-07 7.5978e-05 5.02215e-08
6.58399e-08 5.02215e-08 7.49119e-05

7.64811e-05 7.78613e-07 6.17384e-08
7.78613e-07 7.75854e-05 -3.58873e-09
6.17384e-08 -3.58873e-09 7.59042e-05

7.68353e-05 -7.26934e-07 6.44641e-08
-7.26934e-07 7.74149e-05 8.81238e-09
6.44641e-08 8.81238e-09 7.59044e-05

7.48608e-05 3.25447e-07 -3.23304e-08
3.25447e-07 7.62854e-05 -6.11471e-08
-3.23304e-08 -6.11471e-08 7.51984e-05

7.38649e-05 2.88687e-07 9.18612e-08
2.88687e-07 7.35317e-05 1.14864e-07
9.18612e-08 1.14864e-07 7.37104e-05

7.69892e-05 7.63052e-07 4.25497e-08
7.63052e-07 7.70583e-05 1.65515e-08
4.25497e-08 1.65515e-08 7.56791e-05

7.61527e-05 -1.24555e-06 5.89005e-08
-1.24555e-06 7.70802e-05 2.9456e-09
5.89005e-08 2.9456e-09 7.56833e-05

6.94396e-05 1.27929e-06 1.67735e-07
1.27929e-06 6.3932e-05 -5.7432e-08
1.67735e-07 -5.7432e-08 7.0093e-05

7.61368e-05 -2.3925e-07 -1.24472e-07
-2.3925e-07 7.58216e-05 -4.69887e-08
-1.24472e-07 -4.69887e-08 7.48768e-05

6.96601e-05 5.46224e-07 -1.04355e-07
5.46224e-07 6.80587e-05 -8.70515e-08
-1.04355e-07 -8.70515e-08 7.10217e-05

6.50396e-05 3.61988e-06 1.32056e-07
3.61988e-06 6.702e-05 -2.3922e-08
1.32056e-07 -2.3922e-08 6.76041e-05

7.56041e-05 -8.31918e-07 7.77263e-09
-8.31918e-07 7.56385e-05 -1.22859e-07
7.77263e-09 -1.22859e-07 7.40387e-05

7.38272e-05 3.05012e-08 3.74029e-08
3.05012e-08 7.54426e-05 6.52434e-08
3.74029e-08 6.52434e-08 7.46051e-05

6.79506e-05 2.31544e-06 -5.02817e-08
2.31544e-06 6.56185e-05 1.74277e-07
-5.02817e-08 1.74277e-07 7.03076e-05

6.98672e-05 -1.04482e-06 -1.223e-08
-1.04482e-06 6.43786e-05 -1.73867e-07
-1.223e-08 -1.73867e-07 7.02301e-05

6.89678e-05 7.79943e-08 3.74052e-08
7.79943e-08 6.85144e-05 -1.40909e-07
3.74052e-08 -1.40909e-07 7.13227e-05

6.82853e-05 -7.48802e-07 2.36397e-08
-7.48802e-07 6.68714e-05 1.38001e-08
2.36397e-08 1.38001e-08 7.07753e-05

7.3209e-05 2.53235e-06 1.01763e-07
2.53235e-06 7.09504e-05 -6.44345e-09
1.01763e-07 -6.44345e-09 7.22553e-05

7.26482e-05 -2.30771e-06 -5.83734e-08
-2.30771e-06 7.14012e-05 3.49745e-08
-5.83734e-08 3.49745e-08 7.24368e-05

7.28493e-05 -8.9648e-07 1.40201e-07
-8.9648e-07 7.44804e-05 -7.43705e-08
1.40201e-07 -7.43705e-08 7.4038e-05

6.48479e-05 -2.7259e-06 2.6079e-08
-2.7259e-06 6.80644e-05 -2.82655e-08
2.6079e-08 -2.82655e-08 6.88813e-05

7.39121e-05 -2.66534e-07 -5.08315e-08
-2.66534e-07 7.40645e-05 -2.01851e-07
-5.08315e-08 -2.01851e-07 7.38949e-05

7.31469e-05 3.08863e-07 6.96286e-08
3.08863e-07 7.41472e-05 4.82168e-09
6.96286e-08 4.82168e-09 7.38454e-05

6.88637e-05 1.28756e-06 1.77119e-07
1.28756e-06 6.67401e-05 -3.6845e-08
1.77119e-07 -3.6845e-08 7.04602e-05

7.02038e-05 2.96652e-06 9.42797e-08
2.96652e-06 5.78117e-05 -8.98237e-08
9.42797e-08 -8.98237e-08 6.71815e-05

7.04382e-05 -2.63339e-06 1.33886e-07
-2.63339e-06 5.7772e-05 -1.2712e-08
1.33886e-07 -1.2712e-08 6.7136e-05

7.18109e-05 1.40879e-06 -1.13639e-08
1.40879e-06 6.96702e-05 -3.93355e-10
-1.13639e-08 -3.93355e-10 7.19895e-05

6.75889e-05 -6.34557e-07 -3.3867e-08
-6.34557e-07 6.8559e-05 5.0865e-08
-3.3867e-08 5.0865e-08 7.06923e-05

7.24647e-05 9.77848e-07 7.78294e-08
9.77848e-07 7.16175e-05 -4.97173e-08
7.78294e-08 -4.97173e-08 7.2709e-05

7.18669e-05 -1.4154e-06 1.24605e-07
-1.4154e-06 7.17065e-05 5.58973e-08
1.24605e-07 5.58973e-08 7.2717e-05

7.4344e-05 1.07779e-07 -9.44251e-08
1.07779e-07 7.44069e-05 5.07876e-08
-9.44251e-08 5.07876e-08 7.42116e-05

7.23976e-05 -1.06431e-06 5.43085e-08
-1.06431e-06 7.42053e-05 -2.67559e-09
5.43085e-08 -2.67559e-09 7.39205e-05

7.39103e-05 3.81849e-07 -2.12266e-09
3.81849e-07 7.50891e-05 2.55302e-07
-2.12266e-09 2.55302e-07 7.42904e-05

8.63691e-05 1.35262e-06 2.47271e-08
1.35262e-06 7.62639e-05 -1.37341e-07
2.47271e-08 -1.37341e-07 7.20859e-05

8.5363e-05 -5.45281e-06 4.73612e-07
-5.45281e-06 7.3407e-05 -2.7722e-07
4.73612e-07 -2.7722e-07 7.12563e-05

7.34548e-05 -5.82959e-08 -9.17841e-08
-5.82959e-08 7.54653e-05 -1.43725e-07
-9.17841e-08 -1.43725e-07 7.46589e-05

7.45768e-05 -5.7462e-08 1.76322e-08
-5.7462e-08 7.49814e-05 -3.71951e-09
1.76322e-08 -3.71951e-09 7.4151e-05

7.54116e-05 5.93648e-07 7.19209e-09
5.93648e-07 7.6719e-05 1.41017e-08
7.19209e-09 1.41017e-08 7.54455e-05

7.11425e-05 -1.60397e-06 4.00105e-08
-1.60397e-06 6.98162e-05 -1.18149e-07
4.00105e-08 -1.18149e-07 7.19381e-05

7.72642e-05 -2.57778e-06 -7.32292e-08
-2.57778e-06 7.54048e-05 5.27674e-08
-7.32292e-08 5.27674e-08 7.37354e-05

6.7865e-05 6.48739e-06 -8.73886e-08
6.48739e-06 6.49142e-05 4.67059e-08
-8.73886e-08 4.67059e-08 6.78386e-05

7.55325e-05 1.26198e-06 -1.16396e-07
1.26198e-06 7.58759e-05 6.47827e-08
-1.16396e-07 6.47827e-08 7.48818e-05

7.56782e-05 -1.00688e-06 -1.36087e-07
-1.00688e-06 7.62214e-05 -8.8695e-08
-1.36087e-07 -8.8695e-08 7.48291e-05

6.87441e-05 2.27016e-06 -1.09669e-08
2.27016e-06 6.82462e-05 -1.77289e-07
-1.09669e-08 -1.77289e-07 6.98481e-05

7.56911e-05 -1.99893e-09 4.11683e-08
-1.99893e-09 7.75735e-05 -1.49982e-09
4.11683e-08 -1.49982e-09 7.58121e-05

7.47209e-05 2.23472e-07 1.58901e-07
2.23472e-07 7.48535e-05 7.28762e-08
1.58901e-07 7.28762e-08 7.42739e-05

6.54657e-05 -3.53865e-06 -9.46003e-09
-3.53865e-06 6.7389e-05 7.82058e-08
-9.46003e-09 7.82058e-08 6.75532e-05

7.44988e-05 -9.43084e-07 1.43359e-07
-9.43084e-07 7.51039e-05 -9.19982e-08
1.43359e-07 -9.19982e-08 7.42726e-05

6.97146e-05 -2.97959e-07 8.49902e-08
-2.97959e-07 6.98728e-05 1.08598e-08
8.49902e-08 1.08598e-08 7.16938e-05

6.74937e-05 -4.40085e-07 6.95779e-08
-4.40085e-07 6.81925e-05 -1.01729e-07
6.95779e-08 -1.01729e-07 7.02354e-05

7.18027e-05 5.96326e-07 2.42864e-08
5.96326e-07 7.22667e-05 -1.92247e-08
2.42864e-08 -1.92247e-08 7.30781e-05

7.26182e-05 -6.34926e-07 -1.7692e-07
-6.34926e-07 7.23282e-05 -1.06065e-07
-1.7692e-07 -1.06065e-07 7.30355e-05

7.41661e-05 1.14392e-07 9.22837e-09
1.14392e-07 7.5255e-05 -1.79359e-07
9.22837e-09 -1.79359e-07 7.43532e-05

7.39231e-05 2.03444e-07 1.18096e-08
2.03444e-07 7.50827e-05 -1.33119e-07
1.18096e-08 -1.33119e-07 7.42356e-05

7.24504e-05 -3.23618e-07 -5.23605e-08
-3.23618e-07 7.1468e-05 -8.57806e-08
-5.23605e-08 -8.57806e-08 7.25026e-05

7.33907e-05 6.96361e-07 9.96095e-08
6.96361e-07 7.1395e-05 3.67951e-08
9.96095e-08 3.67951e-08 7.24018e-05

7.15244e-05 3.43561e-07 -1.15943e-07
3.43561e-07 7.34061e-05 -1.80724e-08
-1.15943e-07 -1.80724e-08 7.35186e-05

7.15853e-05 -1.92032e-07 -9.39302e-08
-1.92032e-07 7.35618e-05 6.74504e-08
-9.39302e-08 6.74504e-08 7.35174e-05

7.58064e-05 1.16285e-09 3.67381e-08
1.16285e-09 7.72704e-05 -8.80729e-09
3.67381e-08 -8.80729e-09 7.58164e-05

7.58977e-05 -6.15017e-08 3.56822e-08
-6.15017e-08 7.72789e-05 6.81914e-09
3.56822e-08 6.81914e-09 7.58171e-05

7.48543e-05 -8.30225e-07 -2.91068e-08
-8.30225e-07 7.56044e-05 1.67273e-08
-2.91068e-08 1.67273e-08 7.45417e-05

6.67022e-05 -5.59526e-06 6.5795e-08
-5.59526e-06 6.53121e-05 -9.95995e-08
6.5795e-08 -9.95995e-08 6.73917e-05

6.50251e-05 -2.28958e-07 -4.03512e-08
-2.28958e-07 6.8144e-05 -8.5014e-08
-4.03512e-08 -8.5014e-08 7.01315e-05

6.9754e-05 4.23198e-07 1.46458e-07
4.23198e-07 6.9534e-05 2.1e-08
1.46458e-07 2.1e-08 7.16881e-05

7.2272e-05 -8.80249e-07 -1.16821e-07
-8.80249e-07 7.32739e-05 4.45984e-08
-1.16821e-07 4.45984e-08 7.31341e-05

7.53612e-05 3.99341e-07 -7.19153e-09
3.99341e-07 7.73105e-05 -1.17539e-07
-7.19153e-09 -1.17539e-07 7.58943e-05

7.55099e-05 -6.26366e-08 -6.3992e-09
-6.26366e-08 7.71447e-05 1.19511e-07
-6.3992e-09 1.19511e-07 7.58941e-05

7.46137e-05 1.56738e-06 -9.21824e-08
1.56738e-06 7.65957e-05 1.25684e-07
-9.21824e-08 1.25684e-07 7.53671e-05

7.42784e-05 -1.59623e-06 -9.33179e-08
-1.59623e-06 7.64296e-05 -1.25007e-07
-9.33179e-08 -1.25007e-07 7.5367e-05

7.07633e-05 -1.12645e-07 -1.65557e-07
-1.12645e-07 7.20189e-05 -8.67113e-08
-1.65557e-07 -8.67113e-08 7.26555e-05

7.28495e-05 -7.93517e-08 -5.60248e-08
-7.93517e-08 7.33346e-05 1.08595e-07
-5.60248e-08 1.08595e-07 7.3507e-05

7.18113e-05 3.66667e-07 -2.67105e-08
3.66667e-07 7.35512e-05 1.31767e-07
-2.67105e-08 1.31767e-07 7.31714e-05

7.80156e-05 1.66565e-06 -9.64639e-08
1.66565e-06 7.91176e-05 -1.91664e-07
-9.64639e-08 -1.91664e-07 7.64404e-05

8.06341e-05 6.90958e-08 -9.6828e-08
6.90958e-08 7.90173e-05 1.91572e-07
-9.6828e-08 1.91572e-07 7.644e-05

7.46767e-05 -1.57e-06 -2.97125e-08
-1.57e-06 7.56636e-05 -1.01066e-07
-2.97125e-08 -1.01066e-07 7.4865e-05

7.05668e-05 -4.97836e-07 1.77248e-07
-4.97836e-07 6.81792e-05 -6.67872e-08
1.77248e-07 -6.67872e-08 7.15575e-05

7.4203e-05 6.53389e-07 6.62572e-08
6.53389e-07 7.60411e-05 -5.15185e-08
6.62572e-08 -5.15185e-08 7.49125e-05

7.14035e-05 -3.29394e-06 5.2998e-08
-3.29394e-06 6.90297e-05 8.61392e-08
5.2998e-08 8.61392e-08 7.10272e-05

7.35847e-05 1.46145e-06 4.47913e-08
1.46145e-06 7.35953e-05 1.2517e-08
4.47913e-08 1.2517e-08 7.33044e-05

6.91254e-05 3.71613e-07 5.39625e-08
3.71613e-07 6.91946e-05 3.44898e-08
5.39625e-08 3.44898e-08 7.1394e-05

7.60047e-05 5.69559e-07 -1.20074e-07
5.69559e-07 7.58726e-05 7.5578e-08
-1.20074e-07 7.5578e-08 7.48332e-05

7.55387e-05 1.16334e-06 1.69748e-07
1.16334e-06 7.58076e-05 -6.96602e-08
1.69748e-07 -6.96602e-08 7.48231e-05

6.30584e-05 5.66212e-06 9.29049e-08
5.66212e-06 6.54099e-05 3.60044e-08
9.29049e-08 3.60044e-08 6.67221e-05

7.7917e-05 -1.95805e-07 3.88488e-08
-1.95805e-07 7.50905e-05 4.54384e-08
3.88488e-08 4.54384e-08 7.33346e-05

7.58767e-05 2.9758e-06 1.79646e-08
2.9758e-06 6.53392e-05 3.98167e-08
1.79646e-08 3.98167e-08 6.95651e-05

7.45565e-05 1.55534e-06 -1.53203e-08
1.55534e-06 7.58709e-05 4.89399e-09
-1.53203e-08 4.89399e-09 7.45485e-05

6.62768e-05 2.89587e-06 -1.73249e-07
2.89587e-06 6.81029e-05 -1.23321e-07
-1.73249e-07 -1.23321e-07 6.96048e-05

6.91221e-05 -5.35367e-07 -7.83969e-08
-5.35367e-07 6.79729e-05 1.62947e-08
-7.83969e-08 1.62947e-08 7.11124e-05

7.64482e-05 -1.44075e-06 -1.09283e-07
-1.44075e-06 7.5521e-05 -1.33488e-07
-1.09283e-07 -1.33488e-07 7.44446e-05

6.87789e-05 -2.77034e-06 -6.60649e-08
-2.77034e-06 6.82941e-05 -6.84674e-08
-6.60649e-08 -6.84674e-08 7.0798e-05

7.12791e-05 1.99458e-06 -5.39918e-08
1.99458e-06 7.06079e-05 1.20109e-07
-5.39918e-08 1.20109e-07 7.20113e-05

7.4828e-05 -1.14337e-06 -6.26505e-08
-1.14337e-06 7.62867e-05 -1.29455e-07
-6.26505e-08 -1.29455e-07 7.50496e-05

7.27127e-05 -1.20458e-06 -6.5911e-08
-1.20458e-06 7.22395e-05 -7.93999e-08
-6.5911e-08 -7.93999e-08 7.29748e-05

7.82775e-05 1.74811e-06 -3.64274e-08
1.74811e-06 7.52391e-05 -5.07294e-08
-3.64274e-08 -5.07294e-08 7.38163e-05

7.00891e-05 1.6484e-07 -1.1358e-07
1.6484e-07 7.05511e-05 8.0038e-08
-1.1358e-07 8.0038e-08 7.21923e-05

7.02766e-05 -2.19853e-07 -1.68992e-07
-2.19853e-07 6.9573e-05 2.36026e-08
-1.68992e-07 2.36026e-08 7.20239e-05

7.47634e-05 1.1126e-06 -6.35446e-08
1.1126e-06 7.64612e-05 1.29821e-07
-6.35446e-08 1.29821e-07 7.50499e-05

7.48437e-05 1.08491e-07 -2.99324e-08
1.08491e-07 7.64443e-05 8.00949e-10
-2.99324e-08 8.00949e-10 7.52114e-05

7.85343e-05 -1.71546e-06 -2.50247e-07
-1.71546e-06 7.96136e-05 6.44909e-08
-2.50247e-07 6.44909e-08 7.66068e-05

7.63589e-05 -1.43263e-06 -2.50418e-07
-1.43263e-06 7.96756e-05 -6.45832e-08
-2.50418e-07 -6.45832e-08 7.66065e-05

7.45403e-05 7.9646e-07 -2.96131e-08
7.9646e-07 7.51336e-05 -2.08527e-09
-2.96131e-08 -2.08527e-09 7.41531e-05

6.79634e-05 -3.12846e-06 7.54692e-08
-3.12846e-06 6.97033e-05 5.61577e-08
7.54692e-08 5.61577e-08 6.97366e-05

6.79633e-05 3.26548e-06 4.60022e-08
3.26548e-06 6.94422e-05 -2.49024e-07
4.60022e-08 -2.49024e-07 6.97784e-05

7.0853e-05 -5.53984e-07 2.09531e-08
-5.53984e-07 6.25239e-05 3.11188e-08
2.09531e-08 3.11188e-08 6.93269e-05

6.31179e-05 -5.81571e-06 -6.25712e-08
-5.81571e-06 6.57636e-05 2.31347e-10
-6.25712e-08 2.31347e-10 6.66203e-05

7.19845e-05 1.52536e-07 -1.78455e-07
1.52536e-07 7.32348e-05 -9.82548e-08
-1.78455e-07 -9.82548e-08 7.34172e-05

7.07534e-05 2.10042e-07 -2.25485e-08
2.10042e-07 6.9512e-05 1.31062e-08
-2.25485e-08 1.31062e-08 7.20536e-05

7.23958e-05 4.44462e-07 1.8835e-08
4.44462e-07 7.25673e-05 -1.35618e-07
1.8835e-08 -1.35618e-07 7.32021e-05

7.18899e-05 -5.42015e-07 -1.721e-07
-5.42015e-07 7.2603e-05 -7.97033e-09
-1.721e-07 -7.97033e-09 7.32582e-05

7.12224e-05 2.43293e-07 7.50383e-08
2.43293e-07 7.37634e-05 -1.41368e-08
7.50383e-08 -1.41368e-08 7.37601e-05

7.69799e-05 1.20978e-06 -1.0847e-07
1.20978e-06 7.53622e-05 9.45309e-08
-1.0847e-07 9.45309e-08 7.44431e-05

7.10382e-05 8.76794e-07 -1.41852e-07
8.76794e-07 7.12778e-05 9.23745e-08
-1.41852e-07 9.23745e-08 7.25708e-05

7.13637e-05 -2.28273e-08 3.5897e-08
-2.28273e-08 7.34341e-05 1.29145e-07
3.5897e-08 1.29145e-07 7.37344e-05

7.58197e-05 -1.42625e-06 3.76004e-08
-1.42625e-06 6.93043e-05 -7.09205e-08
3.76004e-08 -7.09205e-08 6.99497e-05

7.92518e-05 1.67201e-06 4.06226e-08
1.67201e-06 7.44587e-05 1.08689e-07
4.06226e-08 1.08689e-07 7.30187e-05

6.96313e-05 -2.20032e-06 -6.20125e-09
-2.20032e-06 6.58103e-05 8.28144e-08
-6.20125e-09 8.28144e-08 6.98933e-05

7.05869e-05 -2.96953e-07 -2.56628e-08
-2.96953e-07 5.57044e-05 1.16349e-07
-2.56628e-08 1.16349e-07 6.62826e-05

7.14965e-05 -6.12108e-07 -1.18665e-07
-6.12108e-07 7.39022e-05 -1.7627e-07
-1.18665e-07 -1.7627e-07 7.34437e-05

7.13489e-05 9.68428e-07 -9.63653e-08
9.68428e-07 7.38047e-05 -1.63445e-07
-9.63653e-08 -1.63445e-07 7.34939e-05

7.06989e-05 -1.13092e-08 3.55808e-08
-1.13092e-08 6.11933e-05 -4.87166e-08
3.55808e-08 -4.87166e-08 6.92544e-05

7.36872e-05 1.5496e-06 1.07231e-07
1.5496e-06 7.44777e-05 -1.08888e-07
1.07231e-07 -1.08888e-07 7.37834e-05

7.94557e-05 1.00405e-06 -1.33402e-07
1.00405e-06 7.86769e-05 -1.48135e-07
-1.33402e-07 -1.48135e-07 7.62856e-05

7.95216e-05 -9.5247e-07 -1.33654e-07
-9.5247e-07 7.81546e-05 1.48175e-07
-1.33654e-07 1.48175e-07 7.62851e-05

6.78249e-05 -1.33653e-06 -2.7348e-08
-1.33653e-06 6.78849e-05 -9.66466e-08
-2.7348e-08 -9.66466e-08 7.02987e-05

6.64093e-05 -3.01871e-06 7.8533e-08
-3.01871e-06 6.78538e-05 -5.97342e-08
7.8533e-08 -5.97342e-08 6.95563e-05

6.96435e-05 -2.25856e-06 -3.21466e-08
-2.25856e-06 6.33418e-05 -1.82737e-07
-3.21466e-08 -1.82737e-07 6.96725e-05

6.94811e-05 -2.35703e-07 1.77364e-07
-2.35703e-07 6.80882e-05 7.30878e-08
1.77364e-07 7.30878e-08 7.14877e-05

6.80141e-05 -2.3594e-06 -2.08195e-08
-2.3594e-06 6.81224e-05 -1.04244e-07
-2.08195e-08 -1.04244e-07 6.97922e-05

7.05547e-05 -1.10581e-08 -5.80898e-08
-1.10581e-08 7.05004e-05 -1.35568e-07
-5.80898e-08 -1.35568e-07 7.23575e-05

7.1179e-05 -1.36744e-06 7.26292e-08
-1.36744e-06 7.08081e-05 -3.23788e-08
7.26292e-08 -3.23788e-08 7.20308e-05

7.28781e-05 1.15391e-06 -1.01282e-07
1.15391e-06 7.1781e-05 -3.39689e-08
-1.01282e-07 -3.39689e-08 7.29427e-05

7.82108e-05 -1.49678e-06 -2.71379e-08
-1.49678e-06 7.38287e-05 1.8905e-07
-2.71379e-08 1.8905e-07 7.2087e-05

7.73241e-05 5.94374e-07 5.83797e-08
5.94374e-07 7.3625e-05 2.37221e-07
5.83797e-08 2.37221e-07 7.1885e-05

7.49778e-05 3.80685e-07 -3.92399e-08
3.80685e-07 7.76928e-05 9.04458e-08
-3.92399e-08 9.04458e-08 7.59856e-05

7.51619e-05 -3.67089e-07 -3.76496e-08
-3.67089e-07 7.77325e-05 -8.87663e-08
-3.76496e-08 -8.87663e-08 7.59862e-05

6.66948e-05 -1.81329e-06 1.73428e-07
-1.81329e-06 6.76842e-05 -8.20066e-09
1.73428e-07 -8.20066e-09 7.00736e-05

6.59015e-05 1.76546e-06 -1.31969e-07
1.76546e-06 6.79441e-05 -1.5623e-07
-1.31969e-07 -1.5623e-07 7.00146e-05

6.6686e-05 -4.48758e-07 9.16145e-08
-4.48758e-07 7.02347e-05 -1.31453e-08
9.16145e-08 -1.31453e-08 6.89544e-05

6.68415e-05 9.99909e-07 1.03947e-07
9.99909e-07 7.04606e-05 -2.59393e-09
1.03947e-07 -2.59393e-09 6.89505e-05

8.13655e-05 -1.74032e-06 3.26893e-08
-1.74032e-06 7.9601e-05 8.10423e-08
3.26893e-08 8.10423e-08 7.65253e-05

8.01774e-05 -6.67722e-07 3.24044e-08
-6.67722e-07 7.95731e-05 -8.1128e-08
3.24044e-08 -8.1128e-08 7.65249e-05

7.64863e-05 3.85296e-07 1.32124e-07
3.85296e-07 7.59273e-05 2.47234e-08
1.32124e-07 2.47234e-08 7.52977e-05

7.7409e-05 -9.77506e-07 1.35177e-07
-9.77506e-07 7.61519e-05 -2.95513e-08
1.35177e-07 -2.95513e-08 7.52985e-05

7.37948e-05 1.44429e-07 -6.97815e-08
1.44429e-07 7.62345e-05 6.11341e-08
-6.97815e-08 6.11341e-08 7.49417e-05

7.20784e-05 -9.53325e-07 4.01349e-08
-9.53325e-07 6.92779e-05 -2.39264e-09
4.01349e-08 -2.39264e-09 7.12758e-05

7.32002e-05 3.08134e-07 1.51677e-08
3.08134e-07 7.32387e-05 -1.60502e-07
1.51677e-08 -1.60502e-07 7.33224e-05

7.02229e-05 -5.97842e-07 6.86679e-08
-5.97842e-07 6.86893e-05 -6.21276e-09
6.86679e-08 -6.21276e-09 7.15534e-05

7.49852e-05 -1.27482e-07 1.78441e-07
-1.27482e-07 7.614e-05 -2.80262e-08
1.78441e-07 -2.80262e-08 7.49003e-05

7.05392e-05 9.87986e-07 -7.23389e-08
9.87986e-07 6.98187e-05 1.11396e-07
-7.23389e-08 1.11396e-07 7.1318e-05

7.38535e-05 -9.94818e-07 1.11214e-07
-9.94818e-07 7.55205e-05 -1.2053e-07
1.11214e-07 -1.2053e-07 7.45699e-05

6.10299e-05 -3.39859e-06 -2.17919e-08
-3.39859e-06 6.77666e-05 8.22139e-08
-2.17919e-08 8.22139e-08 6.71598e-05

6.22658e-05 3.71648e-06 -2.87719e-08
3.71648e-06 6.73639e-05 -7.5228e-08
-2.87719e-08 -7.5228e-08 6.71628e-05

7.28206e-05 3.76542e-07 -2.25348e-08
3.76542e-07 7.56157e-05 -1.03245e-07
-2.25348e-08 -1.03245e-07 7.45277e-05

6.9363e-05 2.75686e-06 -1.651e-07
2.75686e-06 6.57543e-05 1.3382e-07
-1.651e-07 1.3382e-07 6.9831e-05

8.85065e-05 -1.82855e-08 -1.44611e-07
-1.82855e-08 6.67429e-05 2.76503e-07
-1.44611e-07 2.76503e-07 7.09262e-05

8.49436e-05 -2.14044e-06 -3.87128e-08
-2.14044e-06 8.0551e-05 -1.58012e-07
-3.87128e-08 -1.58012e-07 7.22318e-05

7.52234e-05 4.20473e-07 -1.13258e-07
4.20473e-07 7.42529e-05 1.20374e-07
-1.13258e-07 1.20374e-07 7.36321e-05

6.77579e-05 -1.86421e-06 -1.38071e-08
-1.86421e-06 6.58051e-05 8.54836e-08
-1.38071e-08 8.54836e-08 7.03768e-05

7.03157e-05 -3.92033e-06 8.12481e-08
-3.92033e-06 6.45339e-05 1.11604e-07
8.12481e-08 1.11604e-07 6.86129e-05

7.25536e-05 -3.13787e-07 -1.98456e-08
-3.13787e-07 7.27393e-05 2.31807e-07
-1.98456e-08 2.31807e-07 7.32759e-05

7.24715e-05 4.00514e-08 -2.28691e-07
4.00514e-08 7.37435e-05 -2.72548e-08
-2.28691e-07 -2.72548e-08 7.35107e-05

7.6179e-05 1.07936e-06 -1.12771e-07
1.07936e-06 7.7576e-05 -8.51056e-10
-1.12771e-07 -8.51056e-10 7.60675e-05

7.6227e-05 -8.54333e-07 -1.14043e-07
-8.54333e-07 7.74051e-05 1.09443e-09
-1.14043e-07 1.09443e-09 7.60675e-05

7.00844e-05 3.76487e-06 1.3611e-07
3.76487e-06 6.46996e-05 5.37721e-08
1.3611e-07 5.37721e-08 6.86549e-05

7.38504e-05 -8.78324e-08 1.6247e-07
-8.78324e-08 7.32721e-05 9.08196e-08
1.6247e-07 9.08196e-08 7.3357e-05

7.38101e-05 -2.15068e-07 4.0071e-08
-2.15068e-07 7.56896e-05 1.43082e-07
4.0071e-08 1.43082e-07 7.46479e-05

7.71204e-05 3.02426e-07 1.52719e-07
3.02426e-07 7.70535e-05 -4.63225e-09
1.52719e-07 -4.63225e-09 7.55168e-05

7.71962e-05 -5.06065e-07 1.53602e-07
-5.06065e-07 7.72389e-05 1.50572e-09
1.53602e-07 1.50572e-09 7.55165e-05

7.1267e-05 -5.49865e-06 -2.02197e-07
-5.49865e-06 6.91665e-05 -1.51395e-07
-2.02197e-07 -1.51395e-07 6.94766e-05

7.07456e-05 5.30744e-06 -1.83595e-07
5.30744e-06 6.84816e-05 1.43328e-07
-1.83595e-07 1.43328e-07 6.94776e-05

7.47706e-05 1.46848e-06 -7.21104e-10
1.46848e-06 7.51716e-05 1.65746e-07
-7.21104e-10 1.65746e-07 7.40198e-05

6.92826e-05 -6.23155e-07 -8.25015e-08
-6.23155e-07 6.68152e-05 2.89656e-08
-8.25015e-08 2.89656e-08 7.0532e-05

7.64963e-05 1.11971e-06 6.08249e-08
1.11971e-06 7.75469e-05 -4.43782e-08
6.08249e-08 -4.43782e-08 7.59808e-05

7.68552e-05 -1.1375e-06 6.35738e-08
-1.1375e-06 7.79078e-05 4.49385e-08
6.35738e-08 4.49385e-08 7.59806e-05

7.18781e-05 -2.5938e-06 2.36834e-08
-2.5938e-06 6.78265e-05 1.06522e-07
2.36834e-08 1.06522e-07 6.99318e-05

6.79144e-05 -4.81141e-06 1.18839e-07
-4.81141e-06 6.52902e-05 -3.02714e-08
1.18839e-07 -3.02714e-08 6.76238e-05

7.12545e-05 -6.42484e-07 1.823e-07
-6.42484e-07 7.23759e-05 -7.49789e-08
1.823e-07 -7.49789e-08 7.31104e-05

6.4711e-05 5.83589e-07 -6.67394e-08
5.83589e-07 7.00633e-05 1.25366e-09
-6.67394e-08 1.25366e-09 6.85639e-05

6.33077e-05 -4.66393e-07 -6.914e-08
-4.66393e-07 7.0284e-05 -1.39086e-08
-6.914e-08 -1.39086e-08 6.85605e-05

6.72167e-05 -4.9743e-06 1.20944e-08
-4.9743e-06 6.67812e-05 1.02819e-07
1.20944e-08 1.02819e-07 6.91747e-05

7.33328e-05 8.81346e-07 -1.14623e-07
8.81346e-07 7.55904e-05 2.09586e-07
-1.14623e-07 2.09586e-07 7.46596e-05

6.81009e-05 9.04376e-07 -2.78987e-08
9.04376e-07 6.81185e-05 -2.25279e-07
-2.78987e-08 -2.25279e-07 7.02351e-05

6.52378e-05 4.37884e-07 1.11962e-07
4.37884e-07 6.90929e-05 1.99343e-07
1.11962e-07 1.99343e-07 6.94729e-05

6.4572e-05 -6.09798e-07 -8.83326e-08
-6.09798e-07 6.89286e-05 8.25944e-09
-8.83326e-08 8.25944e-09 6.9425e-05

6.93631e-05 2.73417e-06 -1.64942e-07
2.73417e-06 6.2829e-05 6.99585e-08
-1.64942e-07 6.99585e-08 6.95494e-05

7.66743e-05 -2.30271e-07 -1.23989e-07
-2.30271e-07 7.83589e-05 5.49068e-08
-1.23989e-07 5.49068e-08 7.6235e-05

7.66743e-05 3.74925e-07 -1.25366e-07
3.74925e-07 7.85744e-05 -5.51883e-08
-1.25366e-07 -5.51883e-08 7.62346e-05

8.00923e-05 -2.7253e-07 2.34965e-07
-2.7253e-07 7.59401e-05 -1.09039e-07
2.34965e-07 -1.09039e-07 7.15495e-05

7.94747e-05 2.98312e-06 1.24872e-07
2.98312e-06 7.5785e-05 -3.24167e-07
1.24872e-07 -3.24167e-07 7.20318e-05

7.12887e-05 1.39847e-07 1.38516e-07
1.39847e-07 7.21411e-05 1.53744e-07
1.38516e-07 1.53744e-07 7.27365e-05

7.03198e-05 4.31847e-08 -3.48397e-08
4.31847e-08 6.94428e-05 -1.01165e-07
-3.48397e-08 -1.01165e-07 7.19983e-05

7.59565e-05 1.90528e-06 -1.06227e-07
1.90528e-06 7.68076e-05 7.69231e-08
-1.06227e-07 7.69231e-08 7.5206e-05

7.63931e-05 -8.35952e-07 -1.02618e-07
-8.35952e-07 7.6835e-05 -7.14041e-08
-1.02618e-07 -7.14041e-08 7.52062e-05

7.5904e-05 5.48136e-07 6.96385e-08
5.48136e-07 7.55692e-05 6.95289e-08
6.96385e-08 6.95289e-08 7.41223e-05

7.14435e-05 3.64409e-07 1.98169e-07
3.64409e-07 7.23254e-05 9.44473e-08
1.98169e-07 9.44473e-08 7.29668e-05

7.3051e-05 -5.00579e-08 -1.6579e-07
-5.00579e-08 7.25166e-05 -1.29077e-07
-1.6579e-07 -1.29077e-07 7.34223e-05

8.14581e-05 -3.95206e-06 -2.79146e-07
-3.95206e-06 8.00447e-05 -3.84841e-08
-2.79146e-07 -3.84841e-08 7.6625e-05

8.36286e-05 1.54824e-06 -2.79029e-07
1.54824e-06 8.1339e-05 3.83432e-08
-2.79029e-07 3.83432e-08 7.66254e-05

6.58498e-05 -5.72324e-08 1.10051e-07
-5.72324e-08 6.81159e-05 -1.07612e-07
1.10051e-07 -1.07612e-07 7.00275e-05

7.34524e-05 7.28805e-07 -1.98647e-08
7.28805e-07 7.4973e-05 -9.86784e-08
-1.98647e-08 -9.86784e-08 7.44194e-05

7.67012e-05 -1.85684e-07 -7.11733e-08
-1.85684e-07 7.6659e-05 -1.21151e-07
-7.11733e-08 -1.21151e-07 7.52078e-05

7.66941e-05 1.15195e-07 -7.27275e-08
1.15195e-07 7.67286e-05 1.1919e-07
-7.27275e-08 1.1919e-07 7.52079e-05

7.40777e-05 2.94971e-09 -2.93932e-08
2.94971e-09 7.57983e-05 -8.60345e-08
-2.93932e-08 -8.60345e-08 7.46373e-05

7.4041e-05 -9.8932e-07 -2.49976e-08
-9.8932e-07 7.49449e-05 1.14161e-07
-2.49976e-08 1.14161e-07 7.44176e-05

7.20293e-05 -1.23703e-07 6.40552e-08
-1.23703e-07 7.22864e-05 -1.2337e-07
6.40552e-08 -1.2337e-07 7.28083e-05

7.11663e-05 4.07837e-09 1.49054e-07
4.07837e-09 7.24741e-05 -4.93967e-08
1.49054e-07 -4.93967e-08 7.28659e-05

7.09305e-05 -3.10243e-07 9.55014e-08
-3.10243e-07 7.43558e-05 7.31792e-08
9.55014e-08 7.31792e-08 7.38991e-05

7.46408e-05 -2.65263e-07 -4.23714e-08
-2.65263e-07 7.57838e-05 8.89812e-08
-4.23714e-08 8.89812e-08 7.46355e-05

7.14813e-05 -2.71043e-07 1.73026e-07
-2.71043e-07 7.137e-05 -2.08083e-08
1.73026e-07 -2.08083e-08 7.26534e-05

7.07008e-05 2.80256e-07 9.67994e-08
2.80256e-07 6.93203e-05 -1.30066e-07
9.67994e-08 -1.30066e-07 7.17791e-05

7.63543e-05 1.85268e-06 2.55819e-08
1.85268e-06 7.68121e-05 4.89717e-08
2.55819e-08 4.89717e-08 7.55281e-05

7.60587e-05 -1.01251e-06 2.66524e-08
-1.01251e-06 7.67792e-05 -4.64209e-08
2.66524e-08 -4.64209e-08 7.5528e-05

7.5706e-05 8.76601e-07 4.69475e-08
8.76601e-07 7.77042e-05 1.21915e-07
4.69475e-08 1.21915e-07 7.57398e-05

7.59772e-05 -1.01085e-06 4.86033e-08
-1.01085e-06 7.77473e-05 -1.22522e-07
4.86033e-08 -1.22522e-07 7.57395e-05

7.04543e-05 -6.38181e-07 -4.53227e-08
-6.38181e-07 7.14798e-05 3.32914e-08
-4.53227e-08 3.32914e-08 7.2451e-05

6.96956e-05 -1.34567e-07 -5.6129e-08
-1.34567e-07 7.04862e-05 -1.35412e-07
-5.6129e-08 -1.35412e-07 7.21054e-05

7.47738e-05 -9.02638e-07 -8.946e-08
-9.02638e-07 7.62567e-05 1.07182e-07
-8.946e-08 1.07182e-07 7.49723e-05

7.46946e-05 7.78382e-07 -8.87435e-08
7.78382e-07 7.63005e-05 -1.08696e-07
-8.87435e-08 -1.08696e-07 7.49724e-05

8.0273e-05 -2.56928e-07 2.39209e-07
-2.56928e-07 6.9153e-05 -8.26603e-08
2.39209e-07 -8.26603e-08 7.13967e-05

7.83878e-05 -4.81136e-07 1.93077e-07
-4.81136e-07 7.47124e-05 9.98113e-08
1.93077e-07 9.98113e-08 7.24228e-05

7.68536e-05 1.20014e-06 9.7564e-08
1.20014e-06 7.75836e-05 -7.41636e-08
9.7564e-08 -7.41636e-08 7.56684e-05

7.67592e-05 -1.96103e-07 1.0221e-07
-1.96103e-07 7.76071e-05 7.33787e-08
1.0221e-07 7.33787e-08 7.5668e-05

7.92495e-05 1.84087e-08 -1.10308e-07
1.84087e-08 7.78489e-05 6.24574e-08
-1.10308e-07 6.24574e-08 7.62166e-05

7.93277e-05 -7.87706e-08 -1.10332e-07
-7.87706e-08 7.82669e-05 -6.34862e-08
-1.10332e-07 -6.34862e-08 7.62161e-05

6.6651e-05 -1.05786e-06 5.10553e-08
-1.05786e-06 6.89149e-05 1.03209e-08
5.10553e-08 1.03209e-08 6.93524e-05

6.59169e-05 9.35062e-07 9.3648e-08
9.35062e-07 6.90619e-05 1.99902e-07
9.3648e-08 1.99902e-07 6.94497e-05

7.65229e-05 -4.87473e-06 5.79495e-09
-4.87473e-06 7.00719e-05 2.37458e-07
5.79495e-09 2.37458e-07 6.9622e-05

6.65655e-05 4.96824e-07 -1.67805e-07
4.96824e-07 7.12806e-05 1.83797e-07
-1.67805e-07 1.83797e-07 6.87064e-05

7.70797e-05 8.41646e-07 -7.47304e-08
8.41646e-07 7.90447e-05 -1.74737e-08
-7.47304e-08 -1.74737e-08 7.64121e-05

7.90171e-05 -1.65954e-07 -3.80782e-07
-1.65954e-07 7.92505e-05 2.65746e-07
-3.80782e-07 2.65746e-07 7.65485e-05

7.70797e-05 -8.41646e-07 -7.41282e-08
-8.41646e-07 7.90447e-05 1.77698e-08
-7.41282e-08 1.77698e-08 7.64124e-05

8.46928e-05 2.79213e-06 -3.8067e-07
2.79213e-06 7.92505e-05 -2.65904e-07
-3.8067e-07 -2.65904e-07 7.65489e-05

7.89626e-05 2.87335e-06 7.10689e-08
2.87335e-06 7.83509e-05 -1.86511e-07
7.10689e-08 -1.86511e-07 7.28579e-05

6.66506e-05 -7.07323e-08 -1.83002e-07
-7.07323e-08 7.07631e-05 -1.99197e-07
-1.83002e-07 -1.99197e-07 6.87062e-05

7.57955e-05 -2.56636e-06 -4.51146e-08
-2.56636e-06 7.80333e-05 9.54632e-08
-4.51146e-08 9.54632e-08 7.63747e-05

4.47864e-05 1.05824e-05 -5.87491e-08
1.05824e-05 7.86012e-05 -2.00761e-07
-5.87491e-08 -2.00761e-07 7.66185e-05

4.47864e-05 -1.18102e-05 -5.87821e-08
-1.18102e-05 7.82779e-05 2.00595e-07
-5.87821e-08 2.00595e-07 7.66189e-05

7.69812e-05 2.81193e-06 -4.48387e-08
2.81193e-06 7.80333e-05 -9.53489e-08
-4.48387e-08 -9.53489e-08 7.63751e-05

8.01262e-05 8.22853e-07 -6.52037e-08
8.22853e-07 7.83578e-05 6.50123e-08
-6.52037e-08 6.50123e-08 7.62929e-05

7.73341e-05 -5.75907e-07 -1.83396e-08
-5.75907e-07 7.77296e-05 9.60454e-08
-1.83396e-08 9.60454e-08 7.60514e-05

8.04346e-05 -5.79785e-08 -1.25823e-09
-5.79785e-08 7.99022e-05 -2.31106e-07
-1.25823e-09 -2.31106e-07 7.65388e-05

8.04985e-05 3.9195e-08 -6.49145e-08
3.9195e-08 7.83578e-05 -6.49182e-08
-6.49145e-08 -6.49182e-08 7.62934e-05

8.04346e-05 1.76525e-07 -9.90964e-10
1.76525e-07 8.10002e-05 2.31098e-07
-9.90964e-10 2.31098e-07 7.65391e-05

7.71641e-05 1.61751e-06 -1.8108e-08
1.61751e-06 7.77296e-05 -9.59131e-08
-1.8108e-08 -9.59131e-08 7.60519e-05

7.74171e-05 3.78365e-08 -4.01223e-08
3.78365e-08 7.84599e-05 1.73836e-07
-4.01223e-08 1.73836e-07 7.62078e-05

7.77545e-05 5.19566e-07 -5.45118e-08
5.19566e-07 7.87272e-05 1.69354e-07
-5.45118e-08 1.69354e-07 7.64354e-05

7.74171e-05 -3.78365e-08 -4.03801e-08
-3.78365e-08 7.84599e-05 -1.74024e-07
-4.03801e-08 -1.74024e-07 7.62073e-05

8.08433e-05 -8.07499e-07 -5.48681e-08
-8.07499e-07 7.8607e-05 -1.69512e-07
-5.48681e-08 -1.69512e-07 7.64349e-05

4.09057e-05 5.06649e-06 -9.22271e-08
5.06649e-06 5.32278e-05 7.07342e-08
-9.22271e-08 7.07342e-08 4.60907e-05

5.72613e-05 8.70793e-07 -1.36015e-07
8.70793e-07 6.16779e-05 1.30474e-07
-1.36015e-07 1.30474e-07 5.82142e-05

4.5963e-05 1.48482e-06 2.56805e-08
1.48482e-06 6.1787e-05 5.0809e-08
2.56805e-08 5.0809e-08 5.47379e-05

5.73512e-05 2.82438e-06 -3.6729e-08
2.82438e-06 4.07236e-05 -1.0708e-07
-3.6729e-08 -1.0708e-07 4.90451e-05

5.51624e-05 7.6861e-07 1.00569e-07
7.6861e-07 3.91238e-05 -3.15143e-08
1.00569e-07 -3.15143e-08 4.55529e-05

5.74913e-05 -5.57742e-07 -1.15173e-07
-5.57742e-07 6.37833e-05 -1.11956e-07
-1.15173e-07 -1.11956e-07 6.20899e-05

4.57598e-05 2.46616e-06 2.77328e-08
2.46616e-06 6.6455e-05 2.69398e-08
2.77328e-08 2.69398e-08 5.79337e-05

5.55714e-05 -8.19444e-07 9.4592e-08
-8.19444e-07 4.08623e-05 1.13606e-08
9.4592e-08 1.13606e-08 4.58716e-05

6.44388e-05 7.77049e-07 1.9897e-08
7.77049e-07 4.46489e-05 -2.5092e-08
1.9897e-08 -2.5092e-08 5.54143e-05

3.35358e-05 4.68629e-06 1.12431e-07
4.68629e-06 4.33738e-05 -1.01277e-07
1.12431e-07 -1.01277e-07 3.68479e-05

3.62158e-05 -7.64535e-06 -4.71283e-08
-7.64535e-06 4.43812e-05 1.62075e-08
-4.71283e-08 1.62075e-08 3.65664e-05

4.52804e-05 5.04054e-06 -2.57154e-08
5.04054e-06 3.52819e-05 -6.0937e-08
-2.57154e-08 -6.0937e-08 3.74532e-05

5.92602e-05 -8.95303e-06 4.80942e-09
-8.95303e-06 6.46526e-05 -1.03955e-07
4.80942e-09 -1.03955e-07 6.08711e-05

5.43699e-05 -3.18494e-06 -1.59231e-07
-3.18494e-06 6.36424e-05 -1.42819e-07
-1.59231e-07 -1.42819e-07 5.899e-05

4.0899e-05 4.53494e-06 -9.26221e-08
4.53494e-06 5.44648e-05 7.80768e-09
-9.26221e-08 7.80768e-09 4.967e-05

4.32711e-05 5.35381e-06 -6.40513e-08
5.35381e-06 6.08387e-05 5.03926e-08
-6.40513e-08 5.03926e-08 5.46444e-05

4.49939e-05 -2.4431e-06 -7.93981e-08
-2.4431e-06 6.62376e-05 -1.91608e-07
-7.93981e-08 -1.91608e-07 5.77545e-05

5.47964e-05 -6.59997e-06 6.34086e-08
-6.59997e-06 6.34413e-05 -1.39579e-07
6.34086e-08 -1.39579e-07 6.01341e-05

5.7276e-05 -4.586e-06 -1.25451e-07
-4.586e-06 4.25243e-05 1.01862e-07
-1.25451e-07 1.01862e-07 5.12192e-05

3.5387e-05 1.19813e-06 4.9463e-09
1.19813e-06 4.99404e-05 1.07375e-07
4.9463e-09 1.07375e-07 3.97894e-05

3.96184e-05 -2.88854e-06 -4.3231e-08
-2.88854e-06 5.0104e-05 2.36907e-08
-4.3231e-08 2.36907e-08 4.0451e-05

4.94874e-05 1.30823e-06 -4.75674e-08
1.30823e-06 3.83448e-05 -4.68597e-08
-4.75674e-08 -4.68597e-08 4.01677e-05

4.22171e-05 6.18752e-06 -2.67064e-08
6.18752e-06 4.91477e-05 -1.68431e-09
-2.67064e-08 -1.68431e-09 4.58341e-05

5.14686e-05 -4.1017e-06 3.39444e-08
-4.1017e-06 3.87688e-05 -1.53114e-08
3.39444e-08 -1.53114e-08 4.29027e-05

4.82493e-05 6.60016e-06 6.41216e-08
6.60016e-06 4.91744e-05 3.06392e-09
6.41216e-08 3.06392e-09 4.91006e-05

5.02324e-05 4.58802e-06 -1.37374e-07
4.58802e-06 5.40974e-05 1.84685e-07
-1.37374e-07 1.84685e-07 4.89053e-05

5.88833e-05 -1.64033e-06 -4.68051e-08
-1.64033e-06 4.09901e-05 6.77756e-08
-4.68051e-08 6.77756e-08 4.96003e-05

3.2822e-05 3.3117e-06 1.61181e-07
3.3117e-06 4.07305e-05 -1.09541e-08
1.61181e-07 -1.09541e-08 3.28867e-05

6.17141e-05 1.6515e-06 3.42192e-08
1.6515e-06 4.37263e-05 -3.63803e-08
3.42192e-08 -3.63803e-08 5.42358e-05

4.02187e-05 3.30228e-06 1.92023e-07
3.30228e-06 3.49409e-05 6.28013e-08
1.92023e-07 6.28013e-08 3.35095e-05

6.23741e-05 -3.0006e-06 2.27824e-08
-3.0006e-06 6.49447e-05 -1.6558e-07
2.27824e-08 -1.6558e-07 6.2556e-05

5.49596e-05 8.25986e-07 1.73532e-07
8.25986e-07 6.63401e-05 -2.97332e-08
1.73532e-07 -2.97332e-08 5.91464e-05

6.9037e-05 -3.8481e-06 1.85555e-07
-3.8481e-06 6.33554e-05 -9.84778e-08
1.85555e-07 -9.84778e-08 6.27051e-05

6.56014e-05 7.35286e-06 -2.5385e-07
7.35286e-06 6.70846e-05 4.4564e-08
-2.5385e-07 4.4564e-08 6.2783e-05

4.85695e-05 -2.13939e-06 -1.39167e-07
-2.13939e-06 3.75074e-05 7.5594e-08
-1.39167e-07 7.5594e-08 3.84952e-05

4.75105e-05 6.99887e-06 -1.30791e-08
6.99887e-06 5.11517e-05 -8.82677e-08
-1.30791e-08 -8.82677e-08 5.19677e-05

5.89926e-05 3.98134e-06 2.84757e-08
3.98134e-06 5.78568e-05 -6.87082e-09
2.84757e-08 -6.87082e-09 5.91951e-05

6.10478e-05 -9.95968e-07 -1.38824e-07
-9.95968e-07 5.9691e-05 -8.4959e-08
-1.38824e-07 -8.4959e-08 5.9389e-05

6.47492e-05 3.88488e-07 -7.88284e-08
3.88488e-07 4.38319e-05 -3.13884e-08
-7.88284e-08 -3.13884e-08 5.56227e-05

4.7674e-05 6.76899e-06 -1.35278e-08
6.76899e-06 5.28289e-05 1.95995e-08
-1.35278e-08 1.95995e-08 4.83185e-05

5.10213e-05 -5.19981e-06 2.76477e-08
-5.19981e-06 4.39394e-05 -5.71778e-08
2.76477e-08 -5.71778e-08 4.41568e-05

6.45303e-05 6.14447e-08 1.74617e-08
6.14447e-08 4.22461e-05 1.67138e-08
1.74617e-08 1.67138e-08 5.44035e-05

4.41911e-05 -8.94275e-06 1.79042e-08
-8.94275e-06 5.27137e-05 9.03258e-08
1.79042e-08 9.03258e-08 4.57039e-05

4.55114e-05 -7.77055e-06 -9.93004e-08
-7.77055e-06 5.37088e-05 -3.55241e-08
-9.93004e-08 -3.55241e-08 4.65635e-05

5.77405e-05 4.09861e-06 6.78463e-08
4.09861e-06 6.11205e-05 -8.13718e-08
6.78463e-08 -8.13718e-08 5.93543e-05

4.70403e-05 -9.13704e-06 -1.08419e-07
-9.13704e-06 4.32899e-05 -6.89125e-08
-1.08419e-07 -6.89125e-08 4.16063e-05

2.77889e-05 -8.90787e-06 -1.63107e-07
-8.90787e-06 2.69852e-05 -5.11673e-08
-1.63107e-07 -5.11673e-08 2.70846e-05

2.6287e-05 -1.01698e-05 -6.65131e-08
-1.01698e-05 2.93872e-05 -1.02483e-07
-6.65131e-08 -1.02483e-07 2.74696e-05

5.25961e-05 -1.08488e-05 2.39411e-08
-1.08488e-05 6.41723e-05 -9.67118e-08
2.39411e-08 -9.67118e-08 5.8921e-05

2.70551e-05 -3.73483e-06 -6.52328e-08
-3.73483e-06 2.63293e-05 -8.0728e-08
-6.52328e-08 -8.0728e-08 2.89639e-05

2.6004e-05 -3.03562e-06 -1.00262e-07
-3.03562e-06 2.75561e-05 -4.81345e-08
-1.00262e-07 -4.81345e-08 2.85293e-05

6.90421e-05 4.50797e-06 7.55071e-08
4.50797e-06 5.91276e-05 9.29275e-09
7.55071e-08 9.29275e-09 6.43855e-05

6.41064e-05 -6.08394e-06 -1.10484e-07
-6.08394e-06 5.70529e-05 -1.21836e-07
-1.10484e-07 -1.21836e-07 5.98478e-05

5.89679e-05 -3.31738e-06 -4.94145e-08
-3.31738e-06 4.32188e-05 1.29259e-07
-4.94145e-08 1.29259e-07 5.40182e-05

6.866e-05 6.0117e-06 2.59628e-08
6.0117e-06 5.6887e-05 3.57963e-07
2.59628e-08 3.57963e-07 6.37104e-05

6.34659e-05 -8.38714e-06 -6.55821e-08
-8.38714e-06 5.63578e-05 1.94165e-07
-6.55821e-08 1.94165e-07 5.98533e-05

5.02325e-05 4.72283e-06 -1.49042e-07
4.72283e-06 5.7469e-05 3.83999e-08
-1.49042e-07 3.83999e-08 5.29957e-05

6.85286e-05 -3.25826e-06 2.01663e-07
-3.25826e-06 5.91636e-05 2.78022e-08
2.01663e-07 2.78022e-08 6.17865e-05

6.4552e-05 4.2248e-06 5.99941e-08
4.2248e-06 6.23446e-05 1.02953e-07
5.99941e-08 1.02953e-07 6.18579e-05

6.32049e-05 7.25495e-06 1.40443e-07
7.25495e-06 5.39894e-05 7.26179e-08
1.40443e-07 7.26179e-08 5.97759e-05

5.85087e-05 -9.65014e-06 8.43266e-08
-9.65014e-06 5.21789e-05 -9.97657e-08
8.43266e-08 -9.97657e-08 5.64631e-05

4.30412e-05 -6.43516e-06 -6.39993e-08
-6.43516e-06 3.46721e-05 1.11335e-07
-6.39993e-08 1.11335e-07 3.55567e-05

6.47793e-05 -1.83621e-06 -1.32128e-08
-1.83621e-06 7.02611e-05 9.48776e-08
-1.32128e-08 9.48776e-08 6.73002e-05

5.78767e-05 -1.11491e-07 -1.68081e-07
-1.11491e-07 7.35672e-05 -5.767e-08
-1.68081e-07 -5.767e-08 6.14769e-05

4.24825e-05 -7.7938e-06 1.42515e-07
-7.7938e-06 4.97015e-05 1.60369e-07
1.42515e-07 1.60369e-07 4.61183e-05

3.18388e-05 -2.93921e-06 -2.64842e-08
-2.93921e-06 3.97991e-05 -1.28106e-08
-2.64842e-08 -1.28106e-08 3.24614e-05

3.87545e-05 -2.42279e-06 5.39881e-08
-2.42279e-06 3.12372e-05 3.31688e-08
5.39881e-08 3.31688e-08 3.19247e-05

5.27258e-05 3.04003e-06 1.38735e-07
3.04003e-06 6.08971e-05 -6.63041e-08
1.38735e-07 -6.63041e-08 5.70597e-05

4.18363e-05 4.00924e-06 4.01693e-09
4.00924e-06 6.02879e-05 6.63245e-08
4.01693e-09 6.63245e-08 5.33349e-05

8.20335e-05 4.65603e-06 6.47051e-07
4.65603e-06 6.49916e-05 -4.68188e-08
6.47051e-07 -4.68188e-08 6.86993e-05

7.96971e-05 -2.70307e-07 -6.68805e-07
-2.70307e-07 8.48893e-05 -5.48837e-07
-6.68805e-07 -5.48837e-07 6.33888e-05

4.60221e-05 6.49109e-06 -5.40576e-08
6.49109e-06 5.56209e-05 6.88945e-08
-5.40576e-08 6.88945e-08 5.63596e-05

6.11884e-05 5.14186e-06 7.37926e-08
5.14186e-06 4.66282e-05 -6.97338e-08
7.37926e-08 -6.97338e-08 5.58972e-05

5.82504e-05 -8.23507e-06 -1.81325e-07
-8.23507e-06 4.63148e-05 -3.34875e-09
-1.81325e-07 -3.34875e-09 5.40431e-05

4.73581e-05 9.76422e-06 1.24783e-08
9.76422e-06 5.65135e-05 5.62438e-08
1.24783e-08 5.62438e-08 5.58429e-05

4.67922e-05 -7.19082e-06 1.9736e-07
-7.19082e-06 6.16695e-05 -3.58816e-09
1.9736e-07 -3.58816e-09 5.76711e-05

4.82102e-05 -6.11152e-07 -1.2653e-07
-6.11152e-07 3.3584e-05 -1.20013e-08
-1.2653e-07 -1.20013e-08 3.80415e-05

5.55492e-05 -2.57272e-06 1.26181e-08
-2.57272e-06 4.08614e-05 2.78101e-08
1.26181e-08 2.78101e-08 4.76198e-05

5.10282e-05 3.67955e-06 -8.28624e-08
3.67955e-06 3.78983e-05 1.57402e-08
-8.28624e-08 1.57402e-08 4.21302e-05

5.94772e-05 3.57741e-06 2.50811e-08
3.57741e-06 5.19954e-05 8.09952e-09
2.50811e-08 8.09952e-09 5.80326e-05

5.65571e-05 2.98757e-06 4.30567e-07
2.98757e-06 7.30816e-05 -2.72959e-07
4.30567e-07 -2.72959e-07 6.32512e-05

6.48787e-05 -1.93256e-06 -1.28314e-09
-1.93256e-06 6.63067e-05 -1.91808e-07
-1.28314e-09 -1.91808e-07 6.31823e-05

4.08148e-05 5.10168e-06 8.73651e-08
5.10168e-06 4.32814e-05 -9.95414e-08
8.73651e-08 -9.95414e-08 3.86717e-05

5.03749e-05 -6.9477e-06 -4.98933e-08
-6.9477e-06 4.80047e-05 1.91157e-08
-4.98933e-08 1.91157e-08 4.81174e-05

5.89718e-05 3.64551e-06 -6.91822e-08
3.64551e-06 4.56557e-05 -1.84866e-07
-6.91822e-08 -1.84866e-07 5.2768e-05

6.12531e-05 3.56519e-06 2.52294e-07
3.56519e-06 7.51561e-05 4.45863e-08
2.52294e-07 4.45863e-08 6.21893e-05

6.45706e-05 -2.98806e-06 -3.58275e-07
-2.98806e-06 6.97131e-05 1.09412e-08
-3.58275e-07 1.09412e-08 6.69633e-05

6.1463e-05 -8.43205e-07 -1.09987e-07
-8.43205e-07 5.271e-05 4.4376e-08
-1.09987e-07 4.4376e-08 5.84414e-05

5.49655e-05 -5.21632e-06 7.81539e-08
-5.21632e-06 6.13208e-05 1.12522e-07
7.81539e-08 1.12522e-07 5.66406e-05

4.51842e-05 -1.36685e-06 -6.13893e-08
-1.36685e-06 6.16722e-05 4.49665e-08
-6.13893e-08 4.49665e-08 5.45923e-05

6.20206e-05 1.26543e-06 -7.87796e-08
1.26543e-06 4.31881e-05 -4.2381e-08
-7.87796e-08 -4.2381e-08 5.69693e-05

6.14876e-05 -3.55365e-06 1.03893e-07
-3.55365e-06 4.2519e-05 3.28153e-08
1.03893e-07 3.28153e-08 5.62063e-05

4.33948e-05 -7.7551e-06 9.98425e-09
-7.7551e-06 4.07556e-05 2.07848e-07
9.98425e-09 2.07848e-07 3.86386e-05

6.59912e-05 4.92679e-06 -4.9541e-08
4.92679e-06 4.72046e-05 -1.9331e-08
-4.9541e-08 -1.9331e-08 6.01789e-05

6.31636e-05 -7.77652e-06 1.10706e-07
-7.77652e-06 4.91133e-05 1.87112e-09
1.10706e-07 1.87112e-09 5.79971e-05

5.69383e-05 -6.61153e-06 -1.37089e-07
-6.61153e-06 4.44564e-05 -4.31044e-08
-1.37089e-07 -4.31044e-08 5.13e-05

4.21106e-05 -7.08398e-06 7.33831e-09
-7.08398e-06 5.21461e-05 -1.36862e-08
7.33831e-09 -1.36862e-08 4.66178e-05

6.1362e-05 2.56921e-06 -7.75658e-08
2.56921e-06 4.73411e-05 -4.86659e-08
-7.75658e-08 -4.86659e-08 5.77537e-05

6.07096e-05 -5.31146e-06 1.00269e-07
-5.31146e-06 4.66447e-05 1.29328e-08
1.00269e-07 1.29328e-08 5.61504e-05

5.79793e-05 -1.74071e-06 -4.32161e-08
-1.74071e-06 4.5781e-05 5.99025e-08
-4.32161e-08 5.99025e-08 5.10516e-05

6.26107e-05 8.40601e-06 -4.70265e-09
8.40601e-06 5.91421e-05 1.71822e-07
-4.70265e-09 1.71822e-07 6.09892e-05

4.81974e-05 5.71576e-06 -1.7722e-07
5.71576e-06 4.48148e-05 -1.60515e-07
-1.7722e-07 -1.60515e-07 4.41582e-05

4.67054e-05 8.25685e-06 2.78908e-08
8.25685e-06 5.35759e-05 1.05894e-07
2.78908e-08 1.05894e-07 5.68005e-05

5.92508e-05 6.17229e-06 6.35088e-08
6.17229e-06 6.35733e-05 -8.9545e-08
6.35088e-08 -8.9545e-08 6.26277e-05

5.28712e-05 3.04112e-06 6.26616e-08
3.04112e-06 3.92241e-05 4.18433e-09
6.26616e-08 4.18433e-09 4.48226e-05

5.51215e-05 -4.13262e-06 9.2162e-08
-4.13262e-06 5.04342e-05 -1.24785e-07
9.2162e-08 -1.24785e-07 5.37783e-05

5.65024e-05 2.54159e-06 4.20881e-10
2.54159e-06 4.48999e-05 -1.13767e-08
4.20881e-10 -1.13767e-08 5.01881e-05

4.22743e-05 6.67523e-06 -3.70039e-08
6.67523e-06 4.49407e-05 -2.13786e-07
-3.70039e-08 -2.13786e-07 4.25294e-05

4.83444e-05 6.10866e-06 6.22406e-08
6.10866e-06 4.53427e-05 2.81639e-08
6.22406e-08 2.81639e-08 4.77853e-05

4.0651e-05 -9.18709e-08 -2.37106e-08
-9.18709e-08 6.15713e-05 2.53863e-08
-2.37106e-08 2.53863e-08 5.27884e-05

4.97927e-05 -2.64111e-06 -4.57732e-08
-2.64111e-06 6.00413e-05 1.76922e-07
-4.57732e-08 1.76922e-07 5.51868e-05

4.33922e-05 -7.60942e-06 1.94625e-08
-7.60942e-06 3.51578e-05 -2.48756e-08
1.94625e-08 -2.48756e-08 3.72926e-05

5.00434e-05 -1.03845e-05 -1.86912e-08
-1.03845e-05 6.01029e-05 1.38183e-07
-1.86912e-08 1.38183e-07 5.56635e-05

4.30259e-05 -9.26981e-06 1.89921e-07
-9.26981e-06 4.67839e-05 -1.37631e-07
1.89921e-07 -1.37631e-07 4.2859e-05

4.78935e-05 7.39454e-06 -3.10536e-08
7.39454e-06 4.80133e-05 -1.26447e-07
-3.10536e-08 -1.26447e-07 4.45819e-05

5.59281e-05 -3.39905e-06 -6.21129e-08
-3.39905e-06 4.83768e-05 1.84465e-08
-6.21129e-08 1.84465e-08 5.06621e-05

6.57953e-05 -4.77162e-07 4.6422e-08
-4.77162e-07 4.58038e-05 -5.11679e-08
4.6422e-08 -5.11679e-08 5.76832e-05

6.38922e-05 9.09097e-07 -2.7558e-08
9.09097e-07 4.644e-05 3.21753e-08
-2.7558e-08 3.21753e-08 5.75522e-05

3.65689e-05 3.12735e-06 7.29548e-09
3.12735e-06 5.23628e-05 1.13052e-07
7.29548e-09 1.13052e-07 4.36999e-05

4.95831e-05 -8.33378e-06 -3.326e-08
-8.33378e-06 5.2451e-05 9.72348e-08
-3.326e-08 9.72348e-08 4.90367e-05

3.11662e-05 -1.16183e-06 -7.24511e-08
-1.16183e-06 4.88536e-05 8.22724e-08
-7.24511e-08 8.22724e-08 3.81625e-05

3.55961e-05 -1.59507e-06 1.2233e-07
-1.59507e-06 4.96919e-05 -2.44456e-08
1.2233e-07 -2.44456e-08 3.91246e-05

4.77851e-05 -2.15278e-06 -1.68459e-08
-2.15278e-06 3.25241e-05 4.15694e-08
-1.68459e-08 4.15694e-08 3.83781e-05

4.53396e-05 5.77465e-06 -2.76582e-08
5.77465e-06 4.23826e-05 -7.37331e-08
-2.76582e-08 -7.37331e-08 3.95682e-05

4.67183e-05 -9.70292e-06 4.20724e-08
-9.70292e-06 4.14798e-05 1.77672e-07
4.20724e-08 1.77672e-07 4.28478e-05

7.7839e-05 -3.26014e-06 6.12524e-07
-3.26014e-06 7.7817e-05 -6.96473e-08
6.12524e-07 -6.96473e-08 6.3012e-05

6.29777e-05 -8.49228e-06 6.72317e-07
-8.49228e-06 7.33642e-05 -3.15873e-07
6.72317e-07 -3.15873e-07 6.76683e-05

5.17745e-05 -5.6093e-06 -4.6242e-08
-5.6093e-06 3.86284e-05 -5.66491e-09
-4.6242e-08 -5.66491e-09 4.44366e-05

5.57953e-05 7.70282e-06 -3.99241e-09
7.70282e-06 5.86224e-05 1.57033e-07
-3.99241e-09 1.57033e-07 5.65645e-05

5.944e-05 6.51192e-07 -5.87859e-08
6.51192e-07 4.36687e-05 -2.77686e-08
-5.87859e-08 -2.77686e-08 5.43052e-05

4.21822e-05 -6.59835e-06 -6.832e-09
-6.59835e-06 5.33085e-05 -6.24186e-08
-6.832e-09 -6.24186e-08 4.47208e-05

4.4289e-05 6.79386e-06 4.25534e-08
6.79386e-06 6.24553e-05 -1.40575e-07
4.25534e-08 -1.40575e-07 5.79816e-05

6.18138e-05 2.87732e-06 1.88576e-08
2.87732e-06 6.5813e-05 7.26659e-09
1.88576e-08 7.26659e-09 6.48264e-05

4.9973e-05 -1.00312e-05 3.98841e-08
-1.00312e-05 5.5873e-05 1.89217e-10
3.98841e-08 1.89217e-10 5.57673e-05

6.18301e-05 7.53092e-06 -4.79409e-08
7.53092e-06 6.29212e-05 1.65742e-08
-4.79409e-08 1.65742e-08 6.33731e-05

4.32184e-05 6.19467e-06 -6.09992e-08
6.19467e-06 5.54661e-05 3.94005e-08
-6.09992e-08 3.94005e-08 5.25218e-05

6.41236e-05 -3.64308e-07 -2.54446e-08
-3.64308e-07 3.62613e-05 1.14664e-07
-2.54446e-08 1.14664e-07 5.79788e-05

4.99387e-05 7.15964e-06 5.89915e-08
7.15964e-06 4.19408e-05 -1.01941e-08
5.89915e-08 -1.01941e-08 4.39916e-05

5.01334e-05 -1.10713e-05 4.86118e-08
-1.10713e-05 6.34111e-05 -6.345e-08
4.86118e-08 -6.345e-08 5.64344e-05

4.97639e-05 6.23232e-06 4.33037e-08
6.23232e-06 4.80389e-05 -2.18028e-07
4.33037e-08 -2.18028e-07 4.61882e-05

4.00884e-05 -6.03508e-06 8.58604e-08
-6.03508e-06 4.45756e-05 2.49217e-08
8.58604e-08 2.49217e-08 3.80414e-05

4.90403e-05 -9.25088e-06 1.2682e-07
-9.25088e-06 5.63378e-05 -1.38903e-07
1.2682e-07 -1.38903e-07 5.19984e-05

3.59132e-05 -3.75183e-06 -1.13235e-07
-3.75183e-06 5.0264e-05 1.05499e-07
-1.13235e-07 1.05499e-07 4.06065e-05

4.20958e-05 1.30249e-06 -8.59589e-08
1.30249e-06 5.09294e-05 -1.36327e-07
-8.59589e-08 -1.36327e-07 4.19227e-05

4.82517e-05 -3.94902e-06 1.67885e-08
-3.94902e-06 3.79082e-05 -2.69898e-08
1.67885e-08 -2.69898e-08 4.04751e-05

4.65976e-05 -8.32952e-06 6.12261e-08
-8.32952e-06 4.45518e-05 -2.78743e-07
6.12261e-08 -2.78743e-07 4.42436e-05

4.06904e-05 -3.84928e-07 -2.27115e-08
-3.84928e-07 5.74282e-05 5.32401e-09
-2.27115e-08 5.32401e-09 4.83594e-05

4.96987e-05 -1.62967e-06 -3.58577e-08
-1.62967e-06 5.73203e-05 -2.22025e-08
-3.58577e-08 -2.22025e-08 5.02459e-05

3.66804e-05 -8.32693e-06 -1.10381e-07
-8.32693e-06 4.24157e-05 1.36876e-07
-1.10381e-07 1.36876e-07 3.68643e-05

4.10007e-05 6.41216e-06 -5.45775e-08
6.41216e-06 4.2842e-05 -6.01668e-08
-5.45775e-08 -6.01668e-08 3.82469e-05

6.09925e-05 -3.21232e-08 8.68603e-08
-3.21232e-08 4.36532e-05 -7.02176e-08
8.68603e-08 -7.02176e-08 5.83608e-05

5.98138e-05 -1.43722e-06 -1.04158e-07
-1.43722e-06 4.34197e-05 -8.25163e-09
-1.04158e-07 -8.25163e-09 5.76023e-05

5.73075e-05 6.69125e-06 -1.77972e-08
6.69125e-06 5.9218e-05 1.63073e-07
-1.77972e-08 1.63073e-07 5.75163e-05

5.17065e-05 -1.08895e-05 5.92157e-08
-1.08895e-05 6.43149e-05 -1.09313e-07
5.92157e-08 -1.09313e-07 5.85569e-05

5.06832e-05 7.62363e-06 1.13544e-07
7.62363e-06 5.12277e-05 -7.87499e-08
1.13544e-07 -7.87499e-08 5.40004e-05

4.09007e-05 3.21207e-06 6.83479e-08
3.21207e-06 3.38715e-05 1.69346e-07
6.83479e-08 1.69346e-07 3.43766e-05

4.36325e-05 3.8496e-06 4.55174e-08
3.8496e-06 5.40426e-05 1.93271e-07
4.55174e-08 1.93271e-07 4.60274e-05

6.64933e-05 3.49347e-06 -1.58038e-07
3.49347e-06 5.4211e-05 8.15255e-08
-1.58038e-07 8.15255e-08 6.14816e-05

6.32912e-05 -6.90702e-06 1.29063e-07
-6.90702e-06 5.22985e-05 -9.87717e-08
1.29063e-07 -9.87717e-08 5.82276e-05

6.10622e-05 5.59357e-06 6.79051e-08
5.59357e-06 5.28429e-05 -2.27616e-09
6.79051e-08 -2.27616e-09 5.69277e-05

5.83274e-05 -7.70338e-06 -1.67052e-07
-7.70338e-06 4.83264e-05 1.61623e-07
-1.67052e-07 1.61623e-07 5.4198e-05

2.60421e-05 -3.85124e-06 -9.47615e-08
-3.85124e-06 1.86187e-05 -1.19513e-07
-9.47615e-08 -1.19513e-07 2.85629e-05

1.74377e-05 -4.75525e-06 -1.10135e-07
-4.75525e-06 2.68476e-05 -6.28966e-08
-1.10135e-07 -6.28966e-08 2.89505e-05

3.66966e-05 -5.1552e-06 -7.7044e-08
-5.1552e-06 5.17062e-05 -1.6567e-09
-7.7044e-08 -1.6567e-09 4.4276e-05

7.50334e-05 6.5174e-06 -1.06918e-07
6.5174e-06 5.80348e-05 -1.29606e-07
-1.06918e-07 -1.29606e-07 6.60886e-05

7.14238e-05 -9.0778e-06 9.83854e-08
-9.0778e-06 6.31591e-05 3.43068e-07
9.83854e-08 3.43068e-07 6.20182e-05

5.54364e-05 5.90564e-06 -1.95442e-07
5.90564e-06 5.02792e-05 3.34722e-08
-1.95442e-07 3.34722e-08 5.19956e-05

4.14978e-05 2.68127e-06 1.72288e-07
2.68127e-06 3.2044e-05 -1.27004e-07
1.72288e-07 -1.27004e-07 3.43048e-05

4.87594e-05 -7.52607e-06 -6.09974e-08
-7.52607e-06 6.05663e-05 4.26281e-08
-6.09974e-08 4.26281e-08 5.46364e-05

4.22776e-05 -3.22554e-06 -3.64418e-08
-3.22554e-06 6.05519e-05 5.70964e-08
-3.64418e-08 5.70964e-08 5.33576e-05

4.43191e-05 -9.10739e-06 1.97387e-08
-9.10739e-06 4.68014e-05 7.52791e-08
1.97387e-08 7.52791e-08 4.22341e-05

4.83449e-05 -7.28384e-06 -2.33237e-08
-7.28384e-06 5.37733e-05 1.85739e-07
-2.33237e-08 1.85739e-07 5.66496e-05

5.23553e-05 -8.57936e-06 1.03385e-07
-8.57936e-06 4.59659e-05 -6.98147e-08
1.03385e-07 -6.98147e-08 4.95798e-05

4.16407e-05 1.10947e-05 4.45487e-08
1.10947e-05 5.67545e-05 8.03958e-08
4.45487e-08 8.03958e-08 5.65871e-05

6.21919e-05 2.70244e-06 1.67133e-08
2.70244e-06 6.58343e-05 7.40682e-09
1.67133e-08 7.40682e-09 6.47551e-05

5.57367e-05 4.88235e-06 -1.43887e-07
4.88235e-06 6.26564e-05 -1.28384e-07
-1.43887e-07 -1.28384e-07 5.91512e-05

4.83379e-05 -7.7788e-06 1.28471e-07
-7.7788e-06 5.37779e-05 -5.22998e-08
1.28471e-07 -5.22998e-08 5.33153e-05

4.72359e-05 7.75534e-06 -2.98705e-08
7.75534e-06 5.39838e-05 2.90485e-08
-2.98705e-08 2.90485e-08 5.32791e-05

4.85133e-05 5.62318e-06 -1.1733e-07
5.62318e-06 3.907e-05 7.79188e-08
-1.1733e-07 7.79188e-08 4.16916e-05

5.50479e-05 1.44671e-08 1.22407e-08
1.44671e-08 4.1885e-05 3.17793e-08
1.22407e-08 3.17793e-08 4.8074e-05

6.3791e-05 5.73248e-06 1.80322e-08
5.73248e-06 6.3456e-05 -9.36748e-08
1.80322e-08 -9.36748e-08 6.40821e-05

4.56214e-05 -8.69509e-06 -1.04725e-07
-8.69509e-06 5.82816e-05 3.93327e-08
-1.04725e-07 3.93327e-08 5.04398e-05

3.73053e-05 1.34665e-06 6.15777e-08
1.34665e-06 5.65457e-05 -4.03947e-08
6.15777e-08 -4.03947e-08 4.69682e-05

5.85093e-05 8.29446e-06 -1.93074e-07
8.29446e-06 5.21143e-05 3.55143e-08
-1.93074e-07 3.55143e-08 5.52034e-05

4.61824e-05 2.80719e-07 1.74689e-07
2.80719e-07 5.63009e-05 -1.21347e-07
1.74689e-07 -1.21347e-07 4.94442e-05

4.43517e-05 -5.92069e-06 -2.55961e-08
-5.92069e-06 6.1079e-05 7.45422e-08
-2.55961e-08 7.45422e-08 5.7804e-05

3.14645e-05 -5.33703e-06 -3.54033e-08
-5.33703e-06 3.32664e-05 -1.13266e-07
-3.54033e-08 -1.13266e-07 2.9886e-05

3.41697e-05 -5.20296e-06 1.14206e-07
-5.20296e-06 3.07335e-05 3.91064e-08
1.14206e-07 3.91064e-08 2.97312e-05

5.91627e-05 2.00314e-06 -7.82531e-08
2.00314e-06 4.28021e-05 -2.131e-08
-7.82531e-08 -2.131e-08 5.19604e-05

5.26762e-05 -9.80954e-06 -1.67254e-07
-9.80954e-06 4.7835e-05 1.61593e-07
-1.67254e-07 1.61593e-07 5.23073e-05

8.31021e-05 5.51503e-06 5.13799e-07
5.51503e-06 6.29368e-05 -3.67523e-07
5.13799e-07 -3.67523e-07 6.79924e-05

8.3756e-05 -1.86457e-06 -6.9462e-07
-1.86457e-06 6.90524e-05 -4.86707e-07
-6.9462e-07 -4.86707e-07 6.31829e-05

4.47059e-05 -7.14645e-06 8.47667e-08
-7.14645e-06 5.52615e-05 -7.3641e-08
8.47667e-08 -7.3641e-08 5.27203e-05

5.99001e-05 -1.53268e-06 -1.91658e-07
-1.53268e-06 6.27863e-05 -1.94522e-08
-1.91658e-07 -1.94522e-08 6.13917e-05

5.84206e-05 7.37184e-06 1.37934e-07
7.37184e-06 6.74595e-05 1.33046e-07
1.37934e-07 1.33046e-07 6.14684e-05

6.18238e-05 7.941e-07 -2.97417e-08
7.941e-07 4.15718e-05 -1.11147e-07
-2.97417e-08 -1.11147e-07 5.16159e-05

4.93077e-05 -1.19325e-05 2.51023e-08
-1.19325e-05 6.26622e-05 -9.7965e-08
2.51023e-08 -9.7965e-08 5.62951e-05

3.40243e-05 4.31381e-06 1.26315e-07
4.31381e-06 3.51225e-05 8.90771e-08
1.26315e-07 8.90771e-08 3.19856e-05

3.32394e-05 3.84444e-06 9.96124e-08
3.84444e-06 3.39473e-05 1.70806e-07
9.96124e-08 1.70806e-07 3.14125e-05

2.98652e-05 -4.60123e-06 7.73918e-08
-4.60123e-06 4.11009e-05 -2.6888e-08
7.73918e-08 -2.6888e-08 3.34356e-05

3.37407e-05 2.54664e-06 1.28225e-07
2.54664e-06 4.21411e-05 1.16206e-07
1.28225e-07 1.16206e-07 3.46081e-05

4.05908e-05 -3.76742e-06 8.29678e-08
-3.76742e-06 3.04885e-05 -8.25862e-08
8.29678e-08 -8.25862e-08 3.35073e-05

4.33724e-05 -1.08627e-05 -1.14731e-07
-1.08627e-05 5.53479e-05 3.64402e-08
-1.14731e-07 3.64402e-08 5.65077e-05

2.67681e-05 2.69392e-07 -9.05166e-08
2.69392e-07 3.94405e-05 -8.74426e-08
-9.05166e-08 -8.74426e-08 3.14818e-05

3.90996e-05 3.70921e-07 1.74081e-07
3.70921e-07 2.80571e-05 6.85098e-10
1.74081e-07 6.85098e-10 3.19686e-05

5.71215e-05 1.25476e-06 -5.76156e-08
1.25476e-06 7.02894e-05 6.51598e-08
-5.76156e-08 6.51598e-08 6.08247e-05

6.0961e-05 -6.39755e-06 1.28647e-08
-6.39755e-06 6.79889e-05 -8.74682e-08
1.28647e-08 -8.74682e-08 6.32236e-05

5.9874e-05 2.35988e-06 9.63768e-09
2.35988e-06 4.93164e-05 -6.60835e-09
9.63768e-09 -6.60835e-09 5.48445e-05

6.50485e-05 2.67333e-07 -6.22914e-08
2.67333e-07 4.19868e-05 -7.96833e-08
-6.22914e-08 -7.96833e-08 5.55539e-05

3.58972e-05 -5.65044e-06 -1.07131e-07
-5.65044e-06 4.57478e-05 1.12795e-07
-1.07131e-07 1.12795e-07 3.96889e-05

4.02873e-05 3.68205e-06 -6.63491e-08
3.68205e-06 4.78206e-05 -1.59959e-07
-6.63491e-08 -1.59959e-07 4.1064e-05

6.18996e-05 5.03625e-07 -6.04933e-08
5.03625e-07 4.24844e-05 5.66899e-08
-6.04933e-08 5.66899e-08 5.18524e-05

4.19845e-05 -6.28386e-06 7.30383e-09
-6.28386e-06 5.55728e-05 -1.3184e-08
7.30383e-09 -1.3184e-08 5.01058e-05

7.0543e-05 3.93444e-06 2.38878e-07
3.93444e-06 5.8183e-05 2.77899e-07
2.38878e-07 2.77899e-07 6.47093e-05

6.73903e-05 -4.73992e-06 1.54808e-07
-4.73992e-06 5.85367e-05 2.76577e-07
1.54808e-07 2.76577e-07 6.09972e-05

5.32766e-05 5.89775e-06 -4.48289e-08
5.89775e-06 5.22402e-05 6.29283e-08
-4.48289e-08 6.29283e-08 5.44738e-05

4.85019e-05 -1.00903e-05 1.62701e-07
-1.00903e-05 6.03048e-05 2.93601e-08
1.62701e-07 2.93601e-08 5.31644e-05

5.99504e-05 2.49998e-06 9.56991e-09
2.49998e-06 4.41788e-05 -7.30182e-09
9.56991e-09 -7.30182e-09 5.36047e-05

4.11404e-05 4.97937e-06 3.40426e-08
4.97937e-06 3.91476e-05 1.11531e-07
3.40426e-08 1.11531e-07 3.76746e-05

4.85619e-05 -1.07536e-05 4.3402e-11
-1.07536e-05 5.96984e-05 -4.35101e-08
4.3402e-11 -4.35101e-08 5.28314e-05

2.59386e-05 9.32118e-06 -1.06282e-09
9.32118e-06 2.66391e-05 2.50024e-08
-1.06282e-09 2.50024e-08 2.6377e-05

4.37717e-05 -3.91062e-06 1.70607e-08
-3.91062e-06 5.64532e-05 4.06828e-10
1.70607e-08 4.06828e-10 4.83008e-05

3.87943e-05 -1.69094e-06 -8.35448e-08
-1.69094e-06 5.67434e-05 -1.61046e-08
-8.35448e-08 -1.61046e-08 4.71337e-05

5.50976e-05 -3.4747e-07 1.77416e-07
-3.4747e-07 7.53581e-05 -5.24991e-08
1.77416e-07 -5.24991e-08 6.10763e-05

6.2976e-05 -4.96348e-06 -7.08765e-08
-4.96348e-06 6.72713e-05 3.83573e-07
-7.08765e-08 3.83573e-07 6.48843e-05

6.72489e-05 2.46527e-06 1.28225e-07
2.46527e-06 3.94424e-05 -1.59663e-08
1.28225e-07 -1.59663e-08 6.04516e-05

6.54361e-05 -4.51595e-06 -7.34575e-09
-4.51595e-06 4.19867e-05 -1.33373e-07
-7.34575e-09 -1.33373e-07 5.89086e-05

5.45581e-05 8.86825e-06 -9.18713e-08
8.86825e-06 5.46086e-05 4.22054e-08
-9.18713e-08 4.22054e-08 5.74153e-05

5.54972e-05 -5.58243e-06 2.03205e-07
-5.58243e-06 5.75261e-05 1.26023e-08
2.03205e-07 1.26023e-08 5.76086e-05

5.90601e-05 6.60318e-06 1.61508e-07
6.60318e-06 6.22748e-05 3.18556e-08
1.61508e-07 3.18556e-08 6.10061e-05

5.86808e-05 -3.83084e-06 -1.46628e-07
-3.83084e-06 6.52928e-05 1.72047e-07
-1.46628e-07 1.72047e-07 6.08461e-05

7.89492e-05 7.06539e-06 -2.65184e-07
7.06539e-06 6.27697e-05 -3.21953e-07
-2.65184e-07 -3.21953e-07 6.78455e-05

7.38566e-05 -8.0397e-06 5.01803e-07
-8.0397e-06 6.83639e-05 -4.16718e-07
5.01803e-07 -4.16718e-07 6.27955e-05

6.8759e-05 6.45586e-06 -1.12972e-07
6.45586e-06 6.2123e-05 2.39571e-09
-1.12972e-07 2.39571e-09 6.57329e-05

5.0713e-05 -1.22825e-05 3.53214e-08
-1.22825e-05 5.56929e-05 1.73913e-07
3.53214e-08 1.73913e-07 5.81977e-05

5.55472e-05 6.33786e-06 -1.44408e-07
6.33786e-06 4.49399e-05 -1.73838e-07
-1.44408e-07 -1.73838e-07 5.05906e-05

4.88309e-05 -7.42129e-06 -5.71778e-08
-7.42129e-06 5.86242e-05 6.89153e-08
-5.71778e-08 6.89153e-08 5.12374e-05

4.20645e-05 -4.06317e-06 -5.43975e-08
-4.06317e-06 5.80376e-05 -4.77761e-08
-5.43975e-08 -4.77761e-08 5.0328e-05

4.29754e-05 -6.16983e-06 -4.85949e-08
-6.16983e-06 4.11352e-05 -1.15714e-07
-4.85949e-08 -1.15714e-07 3.74136e-05

5.23719e-05 -8.76791e-06 1.18324e-07
-8.76791e-06 4.38672e-05 -7.85204e-10
1.18324e-07 -7.85204e-10 4.87273e-05

4.17887e-05 2.71806e-06 1.45798e-09
2.71806e-06 5.68371e-05 -6.89449e-08
1.45798e-09 -6.89449e-08 4.99942e-05

5.3462e-05 8.72525e-06 2.56117e-07
8.72525e-06 4.95446e-05 -2.83064e-08
2.56117e-07 -2.83064e-08 5.01331e-05

4.75049e-05 1.31908e-05 1.83361e-08
1.31908e-05 5.66425e-05 1.02846e-07
1.83361e-08 1.02846e-07 5.85171e-05

5.11944e-05 -1.04673e-05 -1.28068e-07
-1.04673e-05 6.29063e-05 -6.02445e-09
-1.28068e-07 -6.02445e-09 5.80522e-05

4.84075e-05 -9.75921e-06 -1.34146e-07
-9.75921e-06 4.56732e-05 -1.11529e-07
-1.34146e-07 -1.11529e-07 4.77115e-05

6.15173e-05 -5.69942e-07 7.65818e-08
-5.69942e-07 5.21508e-05 -1.30275e-07
7.65818e-08 -1.30275e-07 5.55715e-05

6.68499e-05 -3.35131e-06 -2.64094e-08
-3.35131e-06 7.20341e-05 5.10248e-08
-2.64094e-08 5.10248e-08 6.66409e-05

7.7715e-05 -2.88134e-06 -2.75837e-07
-2.88134e-06 7.5552e-05 1.69882e-07
-2.75837e-07 1.69882e-07 6.29194e-05

4.6624e-05 -3.75621e-06 1.99845e-07
-3.75621e-06 5.92521e-05 -1.04152e-07
1.99845e-07 -1.04152e-07 5.52009e-05

5.32267e-05 5.40496e-06 -4.84822e-08
5.40496e-06 4.79978e-05 1.3788e-08
-4.84822e-08 1.3788e-08 5.30655e-05

6.36906e-05 -5.79066e-07 -2.57445e-08
-5.79066e-07 5.45937e-05 2.78924e-08
-2.57445e-08 2.78924e-08 5.93518e-05

3.04019e-05 -6.85258e-06 8.21561e-08
-6.85258e-06 3.54461e-05 -7.21457e-08
8.21561e-08 -7.21457e-08 3.05733e-05

3.4816e-05 -6.19512e-06 7.34036e-08
-6.19512e-06 3.02898e-05 -8.29986e-08
7.34036e-08 -8.29986e-08 3.07285e-05

6.73331e-05 -6.50889e-07 1.28968e-07
-6.50889e-07 4.70517e-05 -1.68881e-08
1.28968e-07 -1.68881e-08 6.14854e-05

6.59277e-05 -1.45715e-06 1.10695e-07
-1.45715e-06 4.83506e-05 1.87182e-09
1.10695e-07 1.87182e-09 5.93593e-05

6.60498e-05 1.08104e-06 9.60882e-08
1.08104e-06 5.35029e-05 1.19327e-07
9.60882e-08 1.19327e-07 5.94534e-05

5.27388e-05 3.69337e-06 1.37932e-07
3.69337e-06 5.77458e-05 -1.48744e-07
1.37932e-07 -1.48744e-07 5.32306e-05

5.29244e-05 4.6399e-06 6.23817e-08
4.6399e-06 4.38879e-05 -1.22241e-08
6.23817e-08 -1.22241e-08 4.65315e-05

6.33975e-05 6.32449e-06 1.22622e-07
6.32449e-06 5.65874e-05 2.14647e-07
1.22622e-07 2.14647e-07 6.06893e-05

5.88252e-05 -8.30054e-06 7.55923e-08
-8.30054e-06 5.3447e-05 -1.69877e-07
7.55923e-08 -1.69877e-07 5.66733e-05

6.82812e-05 -1.62899e-06 7.73252e-08
-1.62899e-06 6.30027e-05 5.28361e-07
7.73252e-08 5.28361e-07 6.34775e-05

6.56546e-05 8.2836e-06 -2.13236e-07
8.2836e-06 7.66997e-05 3.0037e-07
-2.13236e-07 3.0037e-07 6.35658e-05

4.46456e-05 -7.18855e-06 7.05399e-08
-7.18855e-06 5.6806e-05 -1.56284e-07
7.05399e-08 -1.56284e-07 5.47858e-05

5.49437e-05 4.66631e-06 -1.7211e-08
4.66631e-06 4.56201e-05 3.95161e-08
-1.7211e-08 3.95161e-08 4.98844e-05

6.6008e-05 4.49555e-06 -4.91716e-08
4.49555e-06 5.26167e-05 -3.55746e-08
-4.91716e-08 -3.55746e-08 6.14241e-05

6.32377e-05 -6.11519e-06 1.07865e-07
-6.11519e-06 5.40448e-05 -1.21336e-07
1.07865e-07 -1.21336e-07 5.86145e-05

5.27522e-05 -9.81389e-06 2.92902e-08
-9.81389e-06 6.18174e-05 -2.01507e-08
2.92902e-08 -2.01507e-08 5.61797e-05

5.03682e-05 -1.23536e-05 6.302e-08
-1.23536e-05 6.27739e-05 -1.04341e-07
6.302e-08 -1.04341e-07 5.64381e-05

2.65886e-05 1.17107e-05 6.09955e-08
1.17107e-05 2.73735e-05 1.10853e-07
6.09955e-08 1.10853e-07 2.68603e-05

5.05722e-05 8.78447e-06 4.84752e-08
8.78447e-06 6.19483e-05 4.21335e-08
4.84752e-08 4.21335e-08 5.94309e-05

5.3345e-05 -7.81939e-06 -3.68182e-08
-7.81939e-06 6.47942e-05 1.79225e-07
-3.68182e-08 1.79225e-07 5.91455e-05

4.85142e-05 -1.07483e-05 2.3902e-09
-1.07483e-05 6.1653e-05 -2.87464e-08
2.3902e-09 -2.87464e-08 5.51723e-05

5.2202e-05 -7.6313e-06 -6.28896e-08
-7.6313e-06 4.22582e-05 1.35094e-07
-6.28896e-08 1.35094e-07 4.54633e-05

5.51733e-05 -4.76795e-06 7.9882e-08
-4.76795e-06 5.65879e-05 9.44247e-08
7.9882e-08 9.44247e-08 5.48677e-05

5.45792e-05 8.55137e-06 -5.71682e-08
8.55137e-06 5.6508e-05 -7.49714e-08
-5.71682e-08 -7.49714e-08 5.81133e-05

5.4479e-05 -6.99172e-06 1.80744e-07
-6.99172e-06 6.13693e-05 -7.20673e-08
1.80744e-07 -7.20673e-08 5.79107e-05

6.15169e-05 -4.88887e-07 7.6224e-08
-4.88887e-07 4.43036e-05 1.4166e-08
7.6224e-08 1.4166e-08 5.43146e-05

6.80118e-05 1.83914e-06 1.72063e-07
1.83914e-06 5.50365e-05 1.97309e-07
1.72063e-07 1.97309e-07 6.34761e-05

6.5847e-05 -2.30706e-06 1.33361e-07
-2.30706e-06 5.87947e-05 -1.10788e-07
1.33361e-07 -1.10788e-07 6.0661e-05

6.42289e-05 -3.34587e-06 3.74308e-07
-3.34587e-06 7.47271e-05 -3.5599e-07
3.74308e-07 -3.5599e-07 6.63747e-05

6.19068e-05 3.05315e-06 3.63501e-08
3.05315e-06 7.98055e-05 -1.47211e-07
3.63501e-08 -1.47211e-07 6.25265e-05

2.90322e-05 7.74327e-07 -2.60386e-09
7.74327e-07 1.94889e-05 -1.22209e-07
-2.60386e-09 -1.22209e-07 2.88079e-05

2.05001e-05 7.99919e-07 -1.34539e-08
7.99919e-07 2.82195e-05 -1.76213e-07
-1.34539e-08 -1.76213e-07 2.83152e-05

6.20397e-05 8.01853e-06 1.63264e-07
8.01853e-06 6.07206e-05 -1.58351e-08
1.63264e-07 -1.58351e-08 6.13057e-05

5.37469e-05 -8.59246e-06 -4.06626e-08
-8.59246e-06 5.39295e-05 -9.59707e-08
-4.06626e-08 -9.59707e-08 5.63146e-05

4.65739e-05 -7.61781e-06 -6.5319e-08
-7.61781e-06 5.43739e-05 2.9504e-08
-6.5319e-08 2.9504e-08 5.62433e-05

2.49353e-05 2.77195e-06 4.60285e-08
2.77195e-06 2.54908e-05 -4.93909e-08
4.60285e-08 -4.93909e-08 2.8035e-05

2.52436e-05 3.24364e-06 -3.71575e-08
3.24364e-06 2.47735e-05 9.55951e-08
-3.71575e-08 9.55951e-08 2.83259e-05

7.69135e-05 4.04404e-09 3.51936e-07
4.04404e-09 7.80952e-05 4.6408e-07
3.51936e-07 4.6408e-07 6.33483e-05

7.75923e-05 2.83494e-06 1.72147e-07
2.83494e-06 7.23541e-05 -5.71348e-08
1.72147e-07 -5.71348e-08 6.78831e-05

5.12301e-05 -7.00592e-06 -1.47006e-07
-7.00592e-06 5.5639e-05 -9.91046e-08
-1.47006e-07 -9.91046e-08 5.40979e-05

4.84989e-05 -8.48232e-06 3.42413e-08
-8.48232e-06 4.97734e-05 1.76435e-07
3.42413e-08 1.76435e-07 4.89624e-05

6.22652e-05 8.27799e-06 1.93615e-07
8.27799e-06 5.48612e-05 1.7771e-07
1.93615e-07 1.7771e-07 5.9465e-05

5.44993e-05 -1.05701e-05 -1.88894e-08
-1.05701e-05 5.22563e-05 -2.19008e-07
-1.88894e-08 -2.19008e-07 5.53393e-05

4.81215e-05 -8.69307e-06 1.41785e-07
-8.69307e-06 5.09973e-05 3.37251e-08
1.41785e-07 3.37251e-08 5.17618e-05

5.44124e-05 6.99119e-06 2.05919e-07
6.99119e-06 5.26987e-05 5.81808e-08
2.05919e-07 5.81808e-08 5.17087e-05

3.07272e-05 -2.98471e-06 -1.0195e-07
-2.98471e-06 4.19133e-05 -7.54634e-08
-1.0195e-07 -7.54634e-08 3.38162e-05

3.4525e-05 1.55977e-06 8.84809e-08
1.55977e-06 4.23826e-05 1.21333e-07
8.84809e-08 1.21333e-07 3.46271e-05

4.09032e-05 -2.83658e-06 1.13425e-07
-2.83658e-06 3.24586e-05 5.70059e-08
1.13425e-07 5.70059e-08 3.41228e-05

5.65967e-05 9.08861e-06 4.44267e-08
9.08861e-06 5.41904e-05 -1.75867e-07
4.44267e-08 -1.75867e-07 5.51952e-05

2.95429e-05 -2.51912e-06 -2.41887e-08
-2.51912e-06 3.97395e-05 -1.30315e-08
-2.41887e-08 -1.30315e-08 3.18486e-05

3.84463e-05 -9.98036e-07 8.28461e-08
-9.98036e-07 2.81439e-05 -1.97356e-07
8.28461e-08 -1.97356e-07 3.11265e-05

6.64414e-05 6.51796e-06 -9.59456e-09
6.51796e-06 5.99764e-05 -4.92339e-08
-9.59456e-09 -4.92339e-08 6.34584e-05

5.84015e-05 -9.20216e-06 1.13854e-08
-9.20216e-06 5.39787e-05 -1.07012e-07
1.13854e-08 -1.07012e-07 5.81027e-05

6.56683e-05 8.17385e-06 -3.27624e-08
8.17385e-06 5.7788e-05 3.10959e-08
-3.27624e-08 3.10959e-08 6.30701e-05

5.82914e-05 -9.08217e-06 1.44107e-08
-9.08217e-06 5.60811e-05 -9.66849e-08
1.44107e-08 -9.66849e-08 5.84323e-05

2.50369e-05 3.27652e-06 -1.26928e-08
3.27652e-06 2.4483e-05 -1.28819e-07
-1.26928e-08 -1.28819e-07 2.76277e-05

2.4611e-05 3.32039e-06 1.17507e-07
3.32039e-06 2.56906e-05 3.44561e-08
1.17507e-07 3.44561e-08 2.73204e-05

5.86978e-05 7.28421e-06 -1.78893e-07
7.28421e-06 5.52714e-05 -8.95427e-08
-1.78893e-07 -8.95427e-08 5.68274e-05

5.28937e-05 -8.64738e-06 -1.94305e-07
-8.64738e-06 5.03365e-05 -9.45931e-08
-1.94305e-07 -9.45931e-08 5.32384e-05

6.36734e-05 -5.6222e-06 4.13749e-07
-5.6222e-06 6.78894e-05 -1.10812e-07
4.13749e-07 -1.10812e-07 6.4815e-05

6.08671e-05 -9.2419e-07 6.9325e-08
-9.2419e-07 7.05305e-05 5.77682e-08
6.9325e-08 5.77682e-08 6.15191e-05

6.73879e-05 8.37709e-06 -6.71882e-08
8.37709e-06 6.34925e-05 -1.40551e-07
-6.71882e-08 -1.40551e-07 6.55018e-05

5.34182e-05 -7.30045e-06 -3.50805e-08
-7.30045e-06 6.20549e-05 -2.7526e-08
-3.50805e-08 -2.7526e-08 5.91035e-05

7.04602e-05 4.69861e-06 2.52598e-07
4.69861e-06 5.11343e-05 1.52861e-07
2.52598e-07 1.52861e-07 6.3575e-05

6.69945e-05 -6.81883e-06 1.10865e-07
-6.81883e-06 5.34649e-05 -1.23204e-07
1.10865e-07 -1.23204e-07 6.04408e-05

4.98914e-05 8.03203e-06 1.12878e-07
8.03203e-06 5.65441e-05 -8.01648e-08
1.12878e-07 -8.01648e-08 5.6242e-05

5.15963e-05 -8.7921e-06 -1.58025e-07
-8.7921e-06 6.13167e-05 -7.70776e-08
-1.58025e-07 -7.70776e-08 5.60465e-05

6.39001e-05 -6.54835e-06 -7.96289e-08
-6.54835e-06 6.65653e-05 1.26094e-07
-7.96289e-08 1.26094e-07 6.22072e-05

6.07319e-05 -5.57666e-06 -7.31615e-10
-5.57666e-06 7.36018e-05 4.43588e-08
-7.31615e-10 4.43588e-08 6.46254e-05

7.55805e-05 5.72049e-06 -4.61094e-08
5.72049e-06 5.66195e-05 3.48111e-08
-4.61094e-08 3.48111e-08 6.54647e-05

7.94871e-05 2.05195e-06 2.25354e-07
2.05195e-06 6.00638e-05 -2.164e-07
2.25354e-07 -2.164e-07 6.6943e-05

7.14132e-05 -6.76307e-06 -6.48981e-08
-6.76307e-06 6.23446e-05 3.68787e-08
-6.48981e-08 3.68787e-08 6.20495e-05

7.68689e-05 -2.0021e-06 3.31885e-07
-2.0021e-06 6.64842e-05 4.04062e-07
3.31885e-07 4.04062e-07 6.28503e-05

5.75948e-05 -1.33971e-06 -6.27102e-08
-1.33971e-06 7.61075e-05 1.14555e-07
-6.27102e-08 1.14555e-07 6.18504e-05

6.57285e-05 1.06117e-05 -4.83328e-08
1.06117e-05 6.46455e-05 -1.10311e-07
-4.83328e-08 -1.10311e-07 6.23378e-05

8.27354e-05 8.08457e-06 -6.83987e-07
8.08457e-06 6.4122e-05 -1.26752e-06
-6.83987e-07 -1.26752e-06 6.9383e-05

7.97546e-05 4.52421e-06 -1.78495e-06
4.52421e-06 6.65014e-05 1.79701e-06
-1.78495e-06 1.79701e-06 6.93099e-05

8.56472e-05 -7.06887e-08 2.22316e-06
-7.06887e-08 8.17719e-05 1.64371e-06
2.22316e-06 1.64371e-06 6.34532e-05

6.28405e-05 -4.59616e-06 8.70827e-08
-4.59616e-06 7.62719e-05 -2.31429e-07
8.70827e-08 -2.31429e-07 6.2388e-05

7.95312e-05 5.3787e-06 1.75998e-07
5.3787e-06 6.3281e-05 3.60345e-08
1.75998e-07 3.60345e-08 6.85266e-05

7.25912e-05 4.26832e-06 -8.54768e-08
4.26832e-06 6.48536e-05 -1.37112e-07
-8.54768e-08 -1.37112e-07 6.69055e-05

7.88164e-05 6.93241e-06 -9.33458e-10
6.93241e-06 6.42206e-05 8.55363e-07
-9.33458e-10 8.55363e-07 6.87623e-05

7.16741e-05 -7.97849e-06 8.79789e-08
-7.97849e-06 6.62296e-05 -2.32787e-07
8.79789e-08 -2.32787e-07 6.194e-05

7.21237e-05 -5.46761e-06 2.70651e-07
-5.46761e-06 7.98423e-05 6.13125e-07
2.70651e-07 6.13125e-07 6.30213e-05

6.44705e-05 -3.28604e-06 -1.80657e-07
-3.28604e-06 6.31737e-05 -5.48981e-08
-1.80657e-07 -5.48981e-08 6.06877e-05

7.30586e-05 6.92377e-06 -8.76114e-08
6.92377e-06 5.97439e-05 -1.63269e-07
-8.76114e-08 -1.63269e-07 6.61775e-05

7.54721e-05 4.45463e-06 -1.03584e-07
4.45463e-06 6.10478e-05 -1.58295e-07
-1.03584e-07 -1.58295e-07 6.68818e-05

6.5381e-05 -8.78965e-06 -1.81308e-07
-8.78965e-06 6.13512e-05 -4.69123e-08
-1.81308e-07 -4.69123e-08 6.11024e-05

7.24278e-05 -4.75669e-06 6.18681e-08
-4.75669e-06 6.31797e-05 2.88201e-08
6.18681e-08 2.88201e-08 6.21289e-05

SCALARS pressure float
LOOKUP_TABLE default
-0.303268
-0.0100664
0.00763026
-0.00760775
-0.254046
0.554085
0.561747
-0.285852
0.169575
-0.552179
-0.609687
-0.591287
0.33558
0.32416
-0.00424582
0.150028
0.577531
0.575776
-0.049123
-0.653917
-0.682728
-0.729336
-0.233195
-0.258201
-0.155053
-0.314183
-0.00597638
-1.22639
0.201301
-1.23398
0.380852
0.385603
1.3181
1.32386
-0.736344
0.0634922
0.475161
0.51872
0.169381
-0.28251
-0.394975
0.147154
-0.246086
-0.311802
0.101243
-0.405971
-1.19056
-1.18746
0.370232
-1.61642
-1.55029
0.415149
0.417932
-0.0219232
0.53114
0.532084
-0.0452044
1.07082
1.07646
0.223841
0.226927
-0.618267
1.01848
1.01415
-0.277504
-1.28742
-1.27286
0.108173
0.14214
1.77368
1.7728
0.158416
0.133443
0.12807
0.237357
0.337411
-0.584332
-0.402425
0.606659
1.87988
1.86032
-0.699248
-0.0273915
-0.148105
1.38493
1.38187
0.641389
0.0260171
0.0170668
0.12912
0.136658
-0.745167
-0.30399
0.303541
0.305962
-0.162204
-0.322339
0.0724223
0.0817289
-0.0230851
0.113404
-0.422867
0.173617
0.11355
-0.313863
0.300766
-0.0895199
-0.271231
-0.011671
0.261862
0.258399
-0.608445
0.240322
-0.436756
-0.433978
-0.0796643
0.423458
0.386388
-0.258727
-0.164614
-0.4839
-0.506835
-0.559806
-0.769732
-0.32149
1.88778
1.88128
-0.301643
-0.0659048
-0.0302791
-0.266765
0.303714
0.348532
0.115636
0.0924956
-0.0135894
0.141304
-0.332065
0.176801
-0.402618
-0.7339
0.0545761
-0.668315
-0.659265
-0.719193
-0.414474
-0.309865
-0.304064
-0.659389
-0.619174
0.198155
0.199434
-0.0378941
0.30016
0.216211
-0.901164
-0.314092
0.32367
0.319719
-0.0199615
-0.0144736
-2.21786
-2.20237
-0.289324
0.845546
0.845834
-0.185276
-0.888058
-0.305509
0.180216
0.16195
-0.382413
0.0942082
-0.19763
0.188186
0.351155
0.369357
-0.0314681
0.00119076
-0.38058
0.110882
-0.00517512
-0.125983
0.0413548
-0.148795
0.245675
-1.10169
-1.10161
0.0394107
-0.0519972
1.39801
1.39832
-0.0495368
0.977773
0.991094
-0.0368864
0.179974
-0.896442
-0.836134
-1.06102
-1.06212
-1.11
0.101483
-0.897703
-0.943346
0.710072
0.710359
0.0146784
0.210051
-0.499449
-0.491118
-0.000773979
-0.0351606
0.569363
0.572238
0.0778233
0.00880101
0.188308
-0.558172
-0.00530477
-1.28749
-0.125914
-0.146489
0.913705
0.913736
0.254568
0.257034
0.525971
0.502519
0.700552
0.696899
1.19482
1.19503
0.21612
0.219386
-0.102102
-0.166731
-0.188829
-0.771536
-0.113232
-0.16522
-0.183984
0.377918
0.383216
-0.183477
0.0762846
2.01604
2.01495
0.0283971
0.266991
0.435473
-1.1186
-1.11742
0.340516
0.344041
0.451166
-0.188436
-0.442483
0.128795
0.131308
2.12403
2.07081
0.119714
-0.161124
0.27224
0.268882
0.0636087
0.149534
-1.30965
0.424942
0.42848
0.166374
-0.443696
0.0909654
0.382987
0.39005
0.259714
0.473159
0.471211
1.33948
1.33878
-2.17143
-2.06783
0.0688152
0.0701779
0.103931
-1.69087
-1.68213
1.56878
1.56854
0.231924
-0.181575
0.148744
0.150877
-0.0376437
-0.1766
-1.0627
-0.973508
-1.0998
-0.0408718
-0.959321
-0.948673
0.267476
0.267654
0.305685
0.307433
-1.7339
-1.70973
-0.0447753
-0.0501522
1.06074
1.05707
0.27959
0.283251
0.614039
0.614289
0.190251
0.186392
1.17744
0.855164
1.24775
0.855914
1.24786
1.17262
1.25746
1.26078
1.23291
1.11658
1.11544
1.23371
0.877569
0.450248
1.45533
0.879052
1.45489
0.45175
0.702516
0.898323
0.703271
0.900157
0.0581157
0.162746
0.0828217
-0.162637
0.602748
0.509888
-0.134108
0.361398
-0.642142
-0.755698
-0.761007
0.304846
0.383989
-0.0734672
0.497952
0.616689
0.0307537
-0.610805
-0.64679
-0.720011
-0.281026
-0.189066
0.123637
-1.26438
0.354935
0.440619
0.351675
0.834492
1.09025
-0.0232317
-0.231499
-0.59284
0.418417
0.45861
0.494773
-0.11557
0.460555
-0.386822
-0.135861
-0.336254
-0.294526
-0.236175
0.28394
0.180413
-0.269621
-0.257186
-3.21948
-3.26979
0.498675
0.405103
-0.000440179
-2.03261
-2.09213
0.646931
0.56614
0.0332533
0.64949
0.715249
0.0783905
0.778273
0.963103
0.377219
0.350997
0.757623
1.08072
-1.22638
-1.22507
0.156846
0.260111
1.42274
2.02246
-0.297976
0.252997
0.254397
0.635376
-0.568233
1.19657
0.809689
0.033004
-0.104022
-0.691311
0.8661
1.43275
0.512787
0.0824667
0.178572
0.24134
0.232191
-0.756586
-0.25013
0.424207
0.418933
-0.0587627
0.150373
0.119391
0.0574528
-0.378144
0.220841
0.405716
0.495861
0.163781
-0.29666
-1.12116
0.256772
-0.00518881
-1.0878
0.00862257
0.241727
0.294274
-0.280975
-0.698405
0.365632
0.230911
-0.384813
-0.430652
0.0102402
0.626568
0.664047
-0.299319
-0.0714762
-0.567554
-0.622833
-0.680306
-0.255205
1.90998
0.623006
-0.330266
-0.267193
-0.965232
0.225335
-0.00252879
0.0251501
-0.178144
0.564943
0.374011
-0.721915
-0.807361
-0.966515
0.162671
0.575991
0.213343
0.513069
0.192134
0.179997
-0.537358
-0.60053
-0.609173
-0.288027
-0.237562
-0.128568
-0.776709
-0.715374
0.180738
0.188901
0.253225
0.0242644
0.556544
0.34371
0.253883
-0.213642
0.445489
0.523335
-0.0528525
0.148553
0.046527
-1.62708
-0.388114
-1.74684
-0.281667
0.998788
1.06825
-0.141854
-0.228439
-0.334722
0.210182
0.216785
0.397134
0.343327
0.202273
0.642601
0.0769811
-0.102208
0.205389
0.144954
-0.406575
0.0202533
-0.0925576
-1.72278
-1.70793
-0.735474
0.042172
1.49675
1.60212
0.640573
1.00429
0.202205
0.210113
0.601324
-1.35619
-1.27809
-1.0739
-1.09302
-1.11401
-0.607681
-1.28306
-1.25495
0.486518
0.757524
0.17791
0.653123
-0.52306
-0.475096
0.153708
0.75145
0.745727
0.152688
0.167958
0.0453542
0.309565
0.207378
0.0371755
-3.36577
-0.105976
-0.111977
0.555977
0.948319
0.35714
0.348805
0.421073
0.519387
0.427195
0.570594
1.4775
1.10418
0.349472
0.684035
-0.0239969
0.0247793
-0.0266628
-0.109936
0.0117848
-0.124894
-0.127527
0.55899
0.370298
0.18218
0.724786
2.07293
0.266283
0.525233
-1.62495
-1.56089
0.437864
0.399075
0.339505
0.00716458
-0.411874
0.394672
0.223265
0.746993
1.86235
-0.0314605
0.369407
0.36118
0.115789
0.262053
0.486917
0.181204
-3.47637
0.484429
0.430746
0.333114
0.197488
-0.33704
0.186085
0.350661
0.370857
0.336618
0.512733
0.562617
1.37078
0.938218
-1.85008
-1.76251
0.15178
0.404017
-2.24679
-2.18028
1.9791
1.79798
0.20577
0.267828
0.360155
-0.113482
-0.0449986
-1.04285
-1.05938
-1.11417
0.0414846
0.170295
-1.36525
-1.38033
0.563148
0.40031
0.488993
0.451441
-2.28352
-2.28348
0.0235257
0.172554
0.752824
1.1176
0.569603
0.415285
0.841973
0.805878
0.351394
0.20267
1.12839
1.57451
1.17464
1.63157
0.891014
0.832696
1.24441
1.22631
1.67887
1.4918
0.557653
1.13438
1.18773
0.627527
1.82778
0.987302
1.19794
0.670298
0.758196
1.1583
0.945861
1.13756
-0.223634
0.0916507
0.203349
0.0523065
-0.151615
0.57576
0.608407
-0.198448
0.352066
-0.651927
-0.728031
-0.730148
0.457327
0.34128
0.0965828
0.320881
0.590273
0.60275
0.0342
-0.62702
-0.623984
-0.720188
-0.129663
-0.275136
-0.0526052
-0.236978
0.109887
-1.30176
0.268752
-1.33845
0.456647
0.453842
0.831664
0.831887
-0.666742
0.179523
0.420842
0.394707
0.431777
-0.223771
-0.29514
0.417916
-0.1318
-0.220793
0.171342
-0.393031
-3.23167
-3.33537
0.554181
-2.1812
-1.99914
0.595388
0.5975
0.0253442
0.750777
0.74595
0.00705266
0.769346
0.776141
0.374954
0.376699
-0.770553
0.954639
1.02498
-0.224218
-1.22563
-1.23786
0.180412
0.286002
2.16963
2.10553
0.518358
0.276644
0.271271
0.383997
0.412914
-0.6025
-0.261058
-0.393002
0.496178
0.813252
0.807847
-0.69764
0.000211148
-0.105262
1.0681
1.39202
0.498027
0.198973
0.135057
0.240449
0.247032
-0.792757
0.444598
0.440833
-0.107753
-0.232707
0.110823
0.116356
0.0286848
0.238303
-0.324205
0.510318
0.197064
-0.296103
0.240022
-0.0356165
-0.280066
-0.00334866
0.291637
0.28724
-0.709499
0.391628
-0.399128
-0.411067
0.037873
0.599444
0.555192
-0.197007
-0.0720969
-0.577109
-0.586565
-0.688389
-0.803495
-0.279298
1.53355
1.25067
-0.278993
0.034289
0.014258
-0.191013
0.648461
0.363004
0.241063
0.203244
0.242174
0.213059
-0.319128
0.518517
-0.376295
-0.748185
0.186063
-0.568458
-0.565906
-0.632286
-0.371851
-0.168827
-0.168736
-0.723769
-0.742583
0.170377
0.170513
0.0496212
0.678203
0.214724
-0.962232
-0.273821
0.463106
0.459672
-0.12876
0.0541216
0.0548602
-1.76285
-1.64906
-0.25421
1.10698
1.0982
-0.980453
0.270721
0.206204
-0.367578
0.20217
0.630577
0.379694
0.487539
0.0572764
0.180935
-0.126337
-0.356474
-0.246727
0.212705
0.114242
-0.073475
0.166094
-0.104719
0.296427
-1.71656
-1.74344
0.0422665
0.169513
1.67556
1.6435
0.0473975
0.635439
0.63202
0.16917
0.648178
-1.37233
-1.29434
-1.11513
-1.09603
-1.12232
0.204954
-1.25973
-1.35886
0.700108
0.674181
0.145926
0.599593
-0.523225
-0.520141
0.129855
0.0112728
0.773784
0.773366
0.164146
0.190772
0.273039
-0.635699
0.235127
-3.37776
-0.0769683
-0.107517
0.818617
0.813431
0.355779
0.35681
0.418561
0.419124
0.42796
0.427049
1.56162
1.53646
0.373222
0.375134
-0.0048142
0.0180717
-0.0923196
-0.0712486
-0.783477
-0.0102941
-0.00777477
0.57518
0.577145
0.189548
1.12319
1.90904
0.101055
0.209732
0.351049
-0.102686
-1.65527
-1.58871
0.40536
0.412019
0.341136
-0.0780749
-0.410226
0.247183
0.246196
0.744087
0.745459
0.195539
-0.0253639
0.389174
0.389563
0.335202
0.516227
-3.46301
0.485143
0.481258
0.380477
-0.399674
0.177945
0.358949
0.348828
0.317689
0.5864
0.582947
1.25093
1.18402
-1.77894
-1.82235
0.187514
0.18559
0.193772
-2.17434
-2.23187
1.80608
1.83502
0.22312
-0.105241
0.288392
0.288719
0.0722697
-0.108181
-1.04867
-1.10059
-1.10528
0.0685184
-1.37877
-1.3487
0.430089
0.426856
0.482718
0.485706
-2.29095
-2.30724
0.040298
0.0379288
0.939958
1.06231
0.44338
0.45382
0.829597
0.827472
0.347953
0.345785
1.15371
1.61047
1.15269
1.62406
1.20327
0.832074
0.831373
1.04816
1.76772
1.68054
1.75424
1.61947
1.23649
0.66478
1.95375
1.23776
0.670623
1.91257
0.992697
1.18177
0.986611
1.17559
-0.297806
0.166583
0.0620267
0.0688548
-0.144495
0.509424
0.602287
-0.148138
0.45863
-0.70951
-0.700071
-0.745748
0.376035
0.303868
0.00440126
0.00977718
0.187181
0.619263
0.498442
0.0381541
-0.656134
-0.586613
-0.698033
-0.20873
-0.238198
0.136265
-1.29158
0.29787
0.35202
0.443603
1.086
0.833395
0.00436116
-0.141962
-0.57903
0.48792
0.392463
0.441144
0.43908
-0.363499
-0.338032
-0.30163
0.286158
-0.214178
-0.127772
-3.28988
-3.20408
0.501894
0.0791098
-1.99265
-2.1143
0.56426
0.646307
0.0334514
0.720523
0.649022
0.955879
0.784183
0.350536
0.377475
0.756986
1.068
-0.237502
-1.20414
-1.21584
0.262489
0.175391
2.08345
1.41693
-0.338039
0.19237
0.255171
0.251448
0.267545
0.385165
0.514647
-0.579276
0.811639
1.1942
0.010234
-0.0512202
-0.711225
1.43505
0.866063
0.652339
0.177815
0.0799205
0.246106
0.230138
-0.790561
-0.226885
0.427255
0.416522
-0.113076
-0.252327
0.112939
0.156007
0.0852084
-0.331739
0.405243
0.193959
0.495523
-0.292407
-1.10779
0.314308
-0.0248641
-1.07181
0.0056015
0.296379
0.239755
-0.306647
-0.713131
0.321272
-0.416893
-0.408408
-0.00416969
0.695304
0.580382
-0.272899
-0.214096
-0.601756
-0.596271
-0.684652
-0.294333
1.93093
0.622933
-0.321028
-0.274975
-0.979154
0.221347
0.0233395
0.38723
0.565314
-0.688048
-0.763624
0.226028
-0.971105
0.576905
0.0170641
0.214093
0.513025
-0.0876827
-0.599748
-0.538314
-0.63688
-0.39251
-0.119329
-0.247576
-0.76345
-0.738008
0.188335
0.181467
0.248317
0.556574
0.227734
0.525452
0.442777
0.0462492
0.148298
-1.64792
-0.338713
-1.75254
0.0893223
-0.281306
-0.193159
1.07715
0.997098
-0.0593551
-0.254924
-0.305737
0.207457
0.209955
0.160565
-0.134669
0.220192
0.343436
0.412201
0.0361427
0.0268017
0.64257
-0.0800406
-0.101546
0.206135
-0.313067
0.0782247
0.318088
-1.71148
-1.70006
-0.704075
0.146203
0.0357891
1.49199
1.63232
0.0263188
0.999584
0.636476
0.184468
0.601186
-1.31604
-1.32256
-1.09688
-1.06986
-1.12975
-0.657559
0.1912
-1.31011
-1.2565
0.486672
0.762942
0.151977
0.665912
-0.462964
-0.527777
0.187429
0.00735561
0.745948
0.752284
0.175275
0.213062
0.277865
0.181593
-3.41079
-0.115839
-0.115974
0.555614
0.947589
0.345004
0.358833
0.54739
0.423097
0.577466
0.431198
1.50156
1.10211
0.347935
0.684201
0.0108412
0.0270212
-0.120301
-0.026787
-0.121054
-0.00517779
-0.0358385
0.39327
0.554079
-0.115448
0.218125
0.724981
2.05644
0.0958368
0.218884
0.348472
-1.63503
-1.57358
0.394257
0.445666
0.525934
-0.350043
0.224732
0.394122
1.84663
0.742805
0.18534
-0.0197964
0.362669
0.369687
0.260014
0.484771
-3.43513
0.452517
0.469679
0.335663
-0.395407
0.156857
0.346156
0.35792
0.358609
0.513216
0.566186
0.938311
1.37029
-1.8213
-1.76509
0.15162
0.40324
0.152498
-2.24651
-2.16666
1.97043
1.82666
0.232825
-0.114985
0.268386
0.35963
0.0514399
-0.039876
-0.990483
-1.09596
-1.11479
0.168564
-1.34036
-1.37987
0.403899
0.562704
0.449617
0.489023
-2.29123
-2.30199
0.171276
0.0240737
0.752642
1.11415
0.405707
0.569986
0.80831
0.840581
0.246541
0.31732
1.2363
1.23188
0.834913
0.891332
1.17327
1.62666
1.12809
1.5877
1.69205
1.13384
0.556992
1.54872
1.18623
0.621992
0.986984
0.669065
1.19534
1.86745
0.951876
1.1433
0.758303
1.15624
0.16902
-0.0302857
-0.023028
-0.279895
0.511318
0.419164
-0.263682
0.171373
-0.756695
-0.793607
-0.732635
0.220136
0.313369
-0.162469
0.416638
0.522516
0.0681073
-0.717487
-0.618532
-0.695691
-0.303614
-0.222392
-0.377562
0.00232852
-1.34547
0.194668
-1.32909
0.360213
0.294553
1.26038
1.26537
-0.748236
-0.042736
0.440769
0.612381
0.1801
-0.116435
-0.269403
-0.360087
0.170431
-0.344657
-0.137099
-0.337633
-0.212659
0.0379074
0.256354
-0.40876
-3.31662
-3.3371
0.254058
0.543621
-2.08706
-2.08285
0.432205
0.356736
0.250342
0.517607
0.508893
0.0604721
-0.0761617
1.04283
1.10024
0.322271
0.249462
-0.825417
0.760319
0.791038
-1.29033
-1.3312
0.265542
0.0901203
0.625696
1.2039
0.219467
0.196313
-0.707036
-0.1869
-0.439373
0.581842
1.83737
1.79853
-0.795362
0.0273697
0.0229523
1.09385
0.875425
0.627614
-0.017841
0.187212
0.37638
0.387624
-0.838196
0.40579
0.455172
0.00222884
0.276108
0.317444
0.00207087
0.368523
0.077554
-0.471347
0.173066
0.500403
-0.269902
0.322663
-0.132995
-0.34499
-0.0426308
0.160047
0.245071
-0.755939
0.450411
0.174072
-0.524242
-0.411919
0.000914068
0.443948
0.377138
-0.075955
-0.682349
-0.613106
-0.661983
-0.755984
-0.357576
1.53888
0.619821
-0.272038
0.230296
-0.0408307
0.194277
-0.369703
-0.203771
0.566146
0.22816
0.531575
0.149157
0.704034
-0.326647
0.106485
0.619255
-0.285854
-0.788392
0.211488
-0.700061
-0.562282
-0.645286
-0.410979
-0.126632
-0.325802
-0.851451
-0.730968
0.528077
0.586825
0.206865
-0.039656
0.213901
0.599088
0.231505
-1.05254
-0.354186
-0.206303
0.385478
0.341313
-0.135328
0.133355
0.0739739
-1.73703
-1.73307
0.655689
0.747231
-0.0626224
-1.04863
0.0918941
0.238645
-0.373023
0.359083
0.337395
-0.45507
-0.141694
0.619548
0.0556742
-0.0779193
0.10769
0.17141
0.0428384
-0.110444
-0.223914
-1.81768
-1.82267
0.0907117
0.747018
1.07673
0.791834
0.930798
-0.0356223
0.132353
0.686498
-1.39262
-1.39163
-1.16887
-1.10423
-1.16712
-1.38638
-1.37706
0.502854
0.511904
0.0196114
0.209516
-0.592732
-0.480182
0.0136057
0.538026
0.552455
0.0593005
0.248822
-0.0540758
0.18191
-0.73621
0.23261
-0.043905
-3.5073
-0.0903732
-0.182984
0.566958
0.698523
0.635486
0.736798
0.454569
0.517779
0.652628
0.748516
0.75227
0.904135
0.599691
0.122609
-0.00517162
-0.196746
0.0228034
-0.164154
-0.837
-0.0912771
-0.037003
0.716766
0.34066
0.155997
0.723663
1.44824
0.241995
0.418093
-1.7906
-1.72332
0.479389
0.574059
0.426339
-0.209006
0.00283706
-0.310622
0.283601
0.143542
1.95403
1.30393
-0.174583
0.32828
0.371326
0.269562
0.00108769
0.0611904
0.533561
-3.76462
0.366955
0.618901
0.400585
0.0977233
-0.366479
0.232075
0.370721
0.545558
0.290086
0.360819
0.538942
0.947974
1.03012
-1.88651
-1.93053
0.344006
0.102248
-2.39782
-2.36309
0.906431
0.653764
0.315666
0.303649
0.128479
-0.0898014
-0.220089
-1.197
-1.03488
-1.17648
0.158909
-0.0335251
-1.40945
-1.44515
0.423232
0.204971
0.424049
0.295501
-2.41284
-2.43986
0.12316
-0.0232868
0.797487
0.761445
0.492736
0.231883
0.626239
0.634881
0.116621
0.414511
0.87469
1.20981
1.04385
0.906885
0.778251
0.810088
0.864046
0.961032
0.944689
0.490704
1.08741
0.819983
0.795738
0.426322
0.79782
0.660222
1.02675
0.345534
0.638037
0.699069
0.586302
0.715138
0.13193
0.00919428
0.0416826
0.260109
0.188927
0.0807722
0.20745
0.206462
0.253961
0.106676
0.0981126
0.0146218
0.0755984
-0.0301002
0.172964
0.18536
0.21893
0.0815084
-0.0150836
0.0886134
0.0884532
0.0157888
0.148457
0.212415
0.186267
0.0207001
0.225084
0.0866986
0.345192
0.0386556
0.0585142
0.0973764
0.856785
0.85701
0.14044
0.220416
0.442971
0.467134
0.196897
0.00198065
0.160319
0.217809
0.141422
0.133481
-0.0139089
0.163618
0.10616
0.0777733
0.22332
0.0609698
0.0937413
0.00496739
0.00483717
-0.0235801
0.00371618
0.00371778
0.00338253
0.798716
0.804089
-0.0137116
-0.0140701
0.150934
0.427672
0.0970427
0.00285941
0.0889027
0.101656
-0.00303786
0.152836
0.0857778
0.0863739
0.0850918
-0.0181289
-0.0188104
0.283568
-0.0467398
0.157382
0.200857
0.519058
1.20937
1.21158
0.11923
0.246252
-0.0124495
0.173159
0.442497
0.540017
0.0557799
0.0275426
-0.0248512
-0.0245349
0.0242376
-0.00621934
-0.0180822
-0.0183121
-0.0109998
0.0212152
-0.0174098
-0.0180466
0.272708
-0.0407523
0.148905
0.151147
-0.0577705
2.22981e-05
0.37991
0.253252
0.18067
0.254636
0.130604
0.0998653
0.0180263
0.285947
0.0187388
0.0215949
0.21588
0.406505
0.39547
0.0989879
0.196814
0.0693575
0.0670436
0.0127332
0.0292989
0.0034644
0.131082
0.289151
-0.0024299
-0.0281901
-0.0214594
0.0953327
-0.0830855
0.245011
-0.0407186
-0.0458026
0.111737
-0.0383774
0.00599225
0.154312
-0.00427277
0.136897
0.211897
0.0493485
0.05
0.0126326
-0.00194733
0.040798
0.0365928
0.0283438
0.0257029
-0.0382865
-0.038556
-0.0310128
0.206914
0.342668
0.118815
0.0317666
-0.00723455
-0.00756025
-0.0105638
-0.0103814
0.0688221
0.0329578
0.0301045
0.0320036
0.0322477
-0.0113043
0.146034
-0.00620543
0.149262
0.0276561
0.161075
-0.0460467
-0.0103907
0.241498
-0.0550655
0.104765
-0.0275532
0.204659
0.172554
-0.0821181
0.160435
0.112053
-0.0164653
0.0478264
-0.0999966
0.111236
0.122361
-0.0166224
-0.0161928
0.080605
0.0810447
-0.025096
0.728785
0.735812
0.196569
0.236738
0.038281
0.122082
0.0553598
0.0587355
0.028702
-0.0843056
0.0883635
0.0339593
0.216622
0.0202422
0.220016
0.306921
0.031248
0.0307763
0.263434
0.000978108
0.0276503
0.0276297
0.25649
0.209437
0.289325
0.156995
0.124789
0.121358
0.108084
0.0582211
0.128815
0.171231
-0.0268477
-0.0259152
0.452026
0.465017
0.550375
0.559104
0.0616346
0.0620424
-0.0481334
-0.0488365
-0.00890514
0.0697515
0.0124144
0.135139
-0.0100327
0.071804
0.000105722
0.36799
0.37174
0.00121755
0.248311
0.555401
0.0337895
-0.0276769
0.364607
0.372968
0.0537586
0.0421381
-0.028995
-0.0292095
0.380519
0.0184909
0.000264589
-0.00917184
-0.00955026
1.39358
1.39832
-0.0374669
0.19288
-0.00336598
-0.00349959
0.0540305
0.0751349
0.0818977
0.338414
0.344529
0.216929
0.00228072
0.264797
0.4061
0.410202
0.336638
-0.00356422
-0.00351905
0.251245
0.307849
0.0648932
0.0743159
-0.0258403
-0.0268822
-0.0554984
0.0623139
0.0539307
0.0975177
0.0970929
0.35155
-0.0076779
-0.0257152
-0.0260263
-0.0163604
-0.00672593
0.0583753
0.0540256
0.0233796
-0.0167897
0.0838591
0.120861
-0.0174229
-0.0176938
-0.0179162
-0.0182287
0.0911103
0.0809933
-0.015464
-0.0144514
0.335796
0.161448
-0.0378426
-0.0388495
0.0057169
0.00566863
0.23758
0.237391
0.486857
0.944764
0.0529416
0.0742997
0.0526297
0.0739409
0.12305
0.944453
0.0875112
0.0874281
0.0870595
0.0870995
0.0564734
0.0107303
0.0854331
0.0562092
0.0849545
0.0106083
0.0126863
0.0627328
0.0127701
0.0628811
-0.213184
-0.0297951
0.173122
-0.00608814
-0.245483
0.41721
0.523872
-0.300254
0.16855
-0.671904
-0.875989
-0.771741
0.216796
0.317531
0.0919684
0.300432
0.517538
0.414611
0.0864789
-0.617284
-0.714062
-0.718154
-0.129718
-0.332468
-0.0522192
-0.372177
-0.0117258
-1.30583
0.199825
-1.37132
0.29305
0.360306
1.26929
1.2624
-0.784119
0.206599
0.570506
0.486883
0.186745
-0.270305
-0.440285
0.151977
-0.329514
-0.350251
0.0403359
-0.501465
-3.33338
-3.44375
0.250484
-2.17224
-2.08839
0.353948
0.431442
0.232109
0.501384
0.520028
-0.076073
1.049
1.09391
0.247205
0.322524
-0.858513
0.789917
0.766516
-0.102798
-1.3367
-1.35291
0.0887684
0.280001
1.19358
0.62644
0.521067
0.189832
0.221014
0.441126
0.50739
-0.687843
-0.177676
-0.418343
0.600148
1.849
1.8156
-0.734052
-0.0830356
0.000724927
0.875142
1.09218
0.614397
-0.0213995
0.18284
0.380611
0.386729
-0.762885
0.455126
0.400936
0.0243989
-0.210277
0.298492
0.293686
-0.0484047
0.0812177
-0.368505
0.609088
0.172578
-0.291168
0.27124
-0.0518279
-0.264939
0.0308171
0.249614
0.156358
-0.71833
0.202016
-0.411374
-0.507594
-0.0940007
0.412217
0.399246
-0.205785
-0.188079
-0.58739
-0.709257
-0.664041
-0.819465
-0.283371
0.619616
1.53504
-0.246509
-0.0392674
0.212206
-0.383694
0.589327
0.22913
0.367038
0.149461
0.252106
0.704332
-0.393029
0.103754
-0.405692
-0.856738
0.00555705
-0.563856
-0.694798
-0.613979
-0.303637
-0.129007
-0.324729
-0.765217
-0.828046
0.574934
0.538951
-0.0380772
0.209263
0.304722
-1.0288
-0.351263
0.3361
0.389885
0.0745486
0.134184
-1.67675
-1.73821
-0.177794
0.742789
0.655542
-0.130336
-1.04069
0.0886918
0.218916
-0.456471
0.537245
-0.0652209
0.661975
0.337109
0.357935
0.215336
0.236106
-0.40993
-0.152587
0.0612976
-0.0885767
-0.0875007
0.0450501
-0.224477
0.588025
-1.85551
-1.85598
0.0713349
0.169281
1.07556
0.748175
0.230211
0.941484
0.78612
-0.00172827
0.129488
-1.46944
-1.32595
-1.1011
-1.17031
-1.13858
0.647133
-1.31495
-1.39609
0.497549
0.510544
0.100376
0.22089
-0.468267
-0.590395
0.00439464
0.0842225
0.547332
0.539355
0.204413
-0.0417066
0.220182
-0.648763
-0.0536077
-3.48469
-0.183857
-0.122358
0.57077
0.696708
0.737158
0.637101
0.51527
0.487531
0.746724
0.652427
0.888853
0.753187
0.129704
0.602575
-0.0793013
-0.212285
0.039819
-0.912346
-0.0165413
-0.00873866
-0.16571
0.715752
0.341186
-0.0329644
0.0596102
1.44579
0.723655
0.272424
0.290149
0.422146
-1.70672
-1.65702
0.555774
0.498293
0.432073
-0.204971
-0.365472
0.143075
0.285554
2.0067
1.3095
0.354648
-0.0762793
0.364778
0.332499
-0.00611262
0.06082
-3.64488
0.611643
0.373743
0.0930912
-0.314666
0.0565568
0.536348
0.351563
0.252305
0.540698
0.357254
1.0291
0.946708
-1.94597
-1.92901
0.103465
0.349297
0.494722
-2.31713
-2.31741
0.655034
0.908312
0.203028
-0.0931579
0.128599
0.303303
0.164297
-0.212709
-1.08282
-1.15382
-1.15096
-0.0319425
-1.47574
-1.44418
0.202377
0.425627
0.293166
0.424905
-2.4324
-2.42548
-0.0208842
0.119909
0.795381
0.762702
0.236581
0.483587
0.630594
0.627515
0.408078
0.133345
1.20404
0.873994
0.863559
0.957419
0.777926
0.811367
0.901882
1.04288
0.784514
1.07512
0.490339
0.946925
0.637087
0.337824
1.00508
0.798656
0.798476
0.429565
0.572303
0.708144
0.639364
0.700978
