# vtk DataFile Version 3.0
vtk output at time 0.9
ASCII
DATASET UNSTRUCTURED_GRID
POINTS 2586 float
-1.84029e-05 0.000489375 0 1.84029e-05 0.000489375 0 -0.000414597 0.000260625 0 
-0.00041175 0.00025 0 -0.000433 0.00022875 0 -0.000433 -0.00022875 0 
-0.00041175 -0.00025 0 -0.000414597 -0.000260625 0 -1.84029e-05 -0.000489375 0 
1.84029e-05 -0.000489375 0 0.000414597 -0.000260625 0 0.000433 -0.00022875 0 
0.000433 0.00022875 0 0.000414597 0.000260625 0 4.25e-05 0 0 
2.125e-05 0.0005 0 5.90898e-17 0.00052125 0 5.90919e-17 0.00097875 0 
2.125e-05 0.001 0 1.84029e-05 0.00101063 0 0.000414597 0.00123937 0 
0.000451403 0.00123937 0 0.000847597 0.00101063 0 0.000866 0.00097875 0 
0.000866 0.00052125 0 0.000847597 0.000489375 0 0.000451403 0.000260625 0 
0.0004755 0.00075 0 0.00045425 0.00025 0 0.000884403 0.000489375 0 
0.0012806 0.000260625 0 0.001299 0.00022875 0 0.001299 -0.00022875 0 
0.0012806 -0.000260625 0 0.000884403 -0.000489375 0 0.000847597 -0.000489375 0 
0.000451403 -0.000260625 0 0.00045425 -0.00025 0 0.0009085 0 0 
0.000866 -0.00052125 0 0.000866 -0.00097875 0 0.000847597 -0.00101063 0 
0.000451403 -0.00123937 0 0.000414597 -0.00123937 0 1.84029e-05 -0.00101063 0 
2.125e-05 -0.001 0 5.90898e-17 -0.00097875 0 5.90919e-17 -0.00052125 0 
2.125e-05 -0.0005 0 0.0004755 -0.00075 0 -1.84029e-05 -0.00101063 0 
-0.000414597 -0.00123937 0 -0.000451403 -0.00123937 0 -0.000847597 -0.00101063 0 
-0.00084475 -0.001 0 -0.000866 -0.00097875 0 -0.000866 -0.00052125 0 
-0.00084475 -0.0005 0 -0.000847597 -0.000489375 0 -0.000451403 -0.000260625 0 
-0.0003905 -0.00075 0 -0.000884403 -0.000489375 0 -0.0012806 -0.000260625 0 
-0.00127775 -0.00025 0 -0.001299 -0.00022875 0 -0.001299 0.00022875 0 
-0.00127775 0.00025 0 -0.0012806 0.000260625 0 -0.000884403 0.000489375 0 
-0.000847597 0.000489375 0 -0.000451403 0.000260625 0 -0.0008235 0 0 
-0.00084475 0.0005 0 -0.000866 0.00052125 0 -0.000866 0.00097875 0 
-0.00084475 0.001 0 -0.000847597 0.00101063 0 -0.000451403 0.00123937 0 
-0.000414597 0.00123937 0 -1.84029e-05 0.00101063 0 -0.0003905 0.00075 0 
-1.84029e-05 0.000489375 -0.0005 1.84029e-05 0.000489375 -0.0005 -0.000414597 0.000260625 -0.0005 
-0.00041175 0.00025 -0.0005 -0.000433 0.00022875 -0.0005 -0.000433 -0.00022875 -0.0005 
-0.00041175 -0.00025 -0.0005 -0.000414597 -0.000260625 -0.0005 -1.84029e-05 -0.000489375 -0.0005 
1.84029e-05 -0.000489375 -0.0005 0.000414597 -0.000260625 -0.0005 0.000433 -0.00022875 -0.0005 
0.000433 0.00022875 -0.0005 0.000414597 0.000260625 -0.0005 4.25e-05 0 -0.0005 
2.125e-05 0.0005 -0.0005 5.90898e-17 0.00052125 -0.0005 5.90919e-17 0.00097875 -0.0005 
2.125e-05 0.001 -0.0005 1.84029e-05 0.00101063 -0.0005 0.000414597 0.00123937 -0.0005 
0.000451403 0.00123937 -0.0005 0.000847597 0.00101063 -0.0005 0.000866 0.00097875 -0.0005 
0.000866 0.00052125 -0.0005 0.000847597 0.000489375 -0.0005 0.000451403 0.000260625 -0.0005 
0.0004755 0.00075 -0.0005 0.00045425 0.00025 -0.0005 0.000884403 0.000489375 -0.0005 
0.0012806 0.000260625 -0.0005 0.001299 0.00022875 -0.0005 0.001299 -0.00022875 -0.0005 
0.0012806 -0.000260625 -0.0005 0.000884403 -0.000489375 -0.0005 0.000847597 -0.000489375 -0.0005 
0.000451403 -0.000260625 -0.0005 0.00045425 -0.00025 -0.0005 0.0009085 0 -0.0005 
0.000866 -0.00052125 -0.0005 0.000866 -0.00097875 -0.0005 0.000847597 -0.00101063 -0.0005 
0.000451403 -0.00123937 -0.0005 0.000414597 -0.00123937 -0.0005 1.84029e-05 -0.00101063 -0.0005 
2.125e-05 -0.001 -0.0005 5.90898e-17 -0.00097875 -0.0005 5.90919e-17 -0.00052125 -0.0005 
2.125e-05 -0.0005 -0.0005 0.0004755 -0.00075 -0.0005 -1.84029e-05 -0.00101063 -0.0005 
-0.000414597 -0.00123937 -0.0005 -0.000451403 -0.00123937 -0.0005 -0.000847597 -0.00101063 -0.0005 
-0.00084475 -0.001 -0.0005 -0.000866 -0.00097875 -0.0005 -0.000866 -0.00052125 -0.0005 
-0.00084475 -0.0005 -0.0005 -0.000847597 -0.000489375 -0.0005 -0.000451403 -0.000260625 -0.0005 
-0.0003905 -0.00075 -0.0005 -0.000884403 -0.000489375 -0.0005 -0.0012806 -0.000260625 -0.0005 
-0.00127775 -0.00025 -0.0005 -0.001299 -0.00022875 -0.0005 -0.001299 0.00022875 -0.0005 
-0.00127775 0.00025 -0.0005 -0.0012806 0.000260625 -0.0005 -0.000884403 0.000489375 -0.0005 
-0.000847597 0.000489375 -0.0005 -0.000451403 0.000260625 -0.0005 -0.0008235 0 -0.0005 
-0.00084475 0.0005 -0.0005 -0.000866 0.00052125 -0.0005 -0.000866 0.00097875 -0.0005 
-0.00084475 0.001 -0.0005 -0.000847597 0.00101063 -0.0005 -0.000451403 0.00123937 -0.0005 
-0.000414597 0.00123937 -0.0005 -1.84029e-05 0.00101063 -0.0005 -0.0003905 0.00075 -0.0005 
-9.82724e-20 0.00047875 0 -0.000335358 0.000306375 0 -0.000256119 0.000352125 0 
-0.000176881 0.000397875 0 -9.76417e-05 0.000443625 0 -0.000412474 0.0002555 0 
-0.000417974 0.000234974 0 -0.000433 -0.00013725 0 -0.000433 -4.575e-05 0 
-0.000433 4.575e-05 0 -0.000433 0.00013725 0 -0.000417974 -0.000234974 0 
-0.000412474 -0.0002555 0 -9.76417e-05 -0.000443625 0 -0.000176881 -0.000397875 0 
-0.000256119 -0.000352125 0 -0.000335358 -0.000306375 0 -1.07223e-19 -0.00047875 0 
0.000335358 -0.000306375 0 0.000256119 -0.000352125 0 0.000176881 -0.000397875 0 
9.76417e-05 -0.000443625 0 0.000414597 -0.000239375 0 0.000433 0.00013725 0 
0.000433 4.575e-05 0 0.000433 -4.575e-05 0 0.000433 -0.00013725 0 
0.000414597 0.000239375 0 9.76417e-05 0.000443625 0 0.000176881 0.000397875 0 
0.000256119 0.000352125 0 0.000335358 0.000306375 0 -1.29514e-19 4.25e-05 0 
-4.25e-05 -3.53397e-19 0 4.07417e-19 -4.25e-05 0 2.05259e-05 0.0004945 0 
1.5026e-05 0.000515026 0 0 0.00061275 0 0 0.00070425 0 
0 0.00079575 0 0 0.00088725 0 1.5026e-05 0.000984974 0 
2.05259e-05 0.0010055 0 9.76417e-05 0.00105638 0 0.000176881 0.00110213 0 
0.000256119 0.00114787 0 0.000335358 0.00119362 0 0.000433 0.00122875 0 
0.000530642 0.00119362 0 0.000609881 0.00114787 0 0.000689119 0.00110213 0 
0.000768358 0.00105638 0 0.000847597 0.000989375 0 0.000866 0.00088725 0 
0.000866 0.00079575 0 0.000866 0.00070425 0 0.000866 0.00061275 0 
0.000847597 0.000510625 0 0.000530642 0.000306375 0 0.000609881 0.000352125 0 
0.000689119 0.000397875 0 0.000768358 0.000443625 0 0.000433 0.00027125 0 
0.000433 0.0007925 0 0.0003905 0.00075 0 0.000433 0.0007075 0 
0.000448026 0.000234974 0 0.000453526 0.0002555 0 0.000866 0.00047875 0 
0.000963642 0.000443625 0 0.00104288 0.000397875 0 0.00112212 0.000352125 0 
0.00120136 0.000306375 0 0.0012806 0.000239375 0 0.001299 0.00013725 0 
0.001299 4.575e-05 0 0.001299 -4.575e-05 0 0.001299 -0.00013725 0 
0.0012806 -0.000239375 0 0.00120136 -0.000306375 0 0.00112212 -0.000352125 0 
0.00104288 -0.000397875 0 0.000963642 -0.000443625 0 0.000866 -0.00047875 0 
0.000530642 -0.000306375 0 0.000609881 -0.000352125 0 0.000689119 -0.000397875 0 
0.000768358 -0.000443625 0 0.000453526 -0.0002555 0 0.000448026 -0.000234974 0 
0.000866 4.25e-05 0 0.0008235 -3.53397e-19 0 0.000866 -4.25e-05 0 
0.000433 -0.00027125 0 0.000847597 -0.000510625 0 0.000866 -0.00061275 0 
0.000866 -0.00070425 0 0.000866 -0.00079575 0 0.000866 -0.00088725 0 
0.000847597 -0.000989375 0 0.000768358 -0.00105638 0 0.000689119 -0.00110213 0 
0.000609881 -0.00114787 0 0.000530642 -0.00119362 0 0.000433 -0.00122875 0 
0.000335358 -0.00119362 0 0.000256119 -0.00114787 0 0.000176881 -0.00110213 0 
9.76417e-05 -0.00105638 0 2.05259e-05 -0.0010055 0 1.5026e-05 -0.000984974 0 
0 -0.00061275 0 0 -0.00070425 0 0 -0.00079575 0 
0 -0.00088725 0 1.5026e-05 -0.000515026 0 2.05259e-05 -0.0004945 0 
0.000433 -0.0007075 0 0.0003905 -0.00075 0 0.000433 -0.0007925 0 
-1.84031e-05 -0.000510625 0 -1.84031e-05 -0.000989375 0 -9.76417e-05 -0.00105638 0 
-0.000176881 -0.00110213 0 -0.000256119 -0.00114787 0 -0.000335358 -0.00119362 0 
-0.000433 -0.00122875 0 -0.000530642 -0.00119362 0 -0.000609881 -0.00114787 0 
-0.000689119 -0.00110213 0 -0.000768358 -0.00105638 0 -0.000845474 -0.0010055 0 
-0.000850974 -0.000984974 0 -0.000866 -0.00088725 0 -0.000866 -0.00079575 0 
-0.000866 -0.00070425 0 -0.000866 -0.00061275 0 -0.000850974 -0.000515026 0 
-0.000845474 -0.0004945 0 -0.000530642 -0.000306375 0 -0.000609881 -0.000352125 0 
-0.000689119 -0.000397875 0 -0.000768358 -0.000443625 0 -0.000433 -0.00027125 0 
-0.000433 -0.0007075 0 -0.0004755 -0.00075 0 -0.000433 -0.0007925 0 
-0.000451403 -0.000239375 0 -0.000866 -0.00047875 0 -0.000963642 -0.000443625 0 
-0.00104288 -0.000397875 0 -0.00112212 -0.000352125 0 -0.00120136 -0.000306375 0 
-0.00127847 -0.0002555 0 -0.00128397 -0.000234974 0 -0.001299 -0.00013725 0 
-0.001299 -4.575e-05 0 -0.001299 4.575e-05 0 -0.001299 0.00013725 0 
-0.00128397 0.000234974 0 -0.00127847 0.0002555 0 -0.00120136 0.000306375 0 
-0.00112212 0.000352125 0 -0.00104288 0.000397875 0 -0.000963642 0.000443625 0 
-0.000866 0.00047875 0 -0.000530642 0.000306375 0 -0.000609881 0.000352125 0 
-0.000689119 0.000397875 0 -0.000768358 0.000443625 0 -0.000451403 0.000239375 0 
-0.000866 4.25e-05 0 -0.0009085 -3.53397e-19 0 -0.000866 -4.25e-05 0 
-0.000433 0.00027125 0 -0.000845474 0.0004945 0 -0.000850974 0.000515026 0 
-0.000866 0.00061275 0 -0.000866 0.00070425 0 -0.000866 0.00079575 0 
-0.000866 0.00088725 0 -0.000850974 0.000984974 0 -0.000845474 0.0010055 0 
-0.000768358 0.00105638 0 -0.000689119 0.00110213 0 -0.000609881 0.00114787 0 
-0.000530642 0.00119362 0 -0.000433 0.00122875 0 -0.000335358 0.00119362 0 
-0.000256119 0.00114787 0 -0.000176881 0.00110213 0 -9.76417e-05 0.00105638 0 
-1.84031e-05 0.000989375 0 -1.84031e-05 0.000510625 0 -0.000433 0.0007925 0 
-0.0004755 0.00075 0 -0.000433 0.0007075 0 -9.82724e-20 0.00047875 -0.0005 
-0.000335358 0.000306375 -0.0005 -0.000256119 0.000352125 -0.0005 -0.000176881 0.000397875 -0.0005 
-9.76417e-05 0.000443625 -0.0005 -0.000412474 0.0002555 -0.0005 -0.000417974 0.000234974 -0.0005 
-0.000433 -0.00013725 -0.0005 -0.000433 -4.575e-05 -0.0005 -0.000433 4.575e-05 -0.0005 
-0.000433 0.00013725 -0.0005 -0.000417974 -0.000234974 -0.0005 -0.000412474 -0.0002555 -0.0005 
-9.76417e-05 -0.000443625 -0.0005 -0.000176881 -0.000397875 -0.0005 -0.000256119 -0.000352125 -0.0005 
-0.000335358 -0.000306375 -0.0005 -1.07223e-19 -0.00047875 -0.0005 0.000335358 -0.000306375 -0.0005 
0.000256119 -0.000352125 -0.0005 0.000176881 -0.000397875 -0.0005 9.76417e-05 -0.000443625 -0.0005 
0.000414597 -0.000239375 -0.0005 0.000433 0.00013725 -0.0005 0.000433 4.575e-05 -0.0005 
0.000433 -4.575e-05 -0.0005 0.000433 -0.00013725 -0.0005 0.000414597 0.000239375 -0.0005 
9.76417e-05 0.000443625 -0.0005 0.000176881 0.000397875 -0.0005 0.000256119 0.000352125 -0.0005 
0.000335358 0.000306375 -0.0005 -1.29514e-19 4.25e-05 -0.0005 -4.25e-05 -3.53397e-19 -0.0005 
4.07417e-19 -4.25e-05 -0.0005 2.05259e-05 0.0004945 -0.0005 1.5026e-05 0.000515026 -0.0005 
0 0.00061275 -0.0005 0 0.00070425 -0.0005 0 0.00079575 -0.0005 
0 0.00088725 -0.0005 1.5026e-05 0.000984974 -0.0005 2.05259e-05 0.0010055 -0.0005 
9.76417e-05 0.00105638 -0.0005 0.000176881 0.00110213 -0.0005 0.000256119 0.00114787 -0.0005 
0.000335358 0.00119362 -0.0005 0.000433 0.00122875 -0.0005 0.000530642 0.00119362 -0.0005 
0.000609881 0.00114787 -0.0005 0.000689119 0.00110213 -0.0005 0.000768358 0.00105638 -0.0005 
0.000847597 0.000989375 -0.0005 0.000866 0.00088725 -0.0005 0.000866 0.00079575 -0.0005 
0.000866 0.00070425 -0.0005 0.000866 0.00061275 -0.0005 0.000847597 0.000510625 -0.0005 
0.000530642 0.000306375 -0.0005 0.000609881 0.000352125 -0.0005 0.000689119 0.000397875 -0.0005 
0.000768358 0.000443625 -0.0005 0.000433 0.00027125 -0.0005 0.000433 0.0007925 -0.0005 
0.0003905 0.00075 -0.0005 0.000433 0.0007075 -0.0005 0.000448026 0.000234974 -0.0005 
0.000453526 0.0002555 -0.0005 0.000866 0.00047875 -0.0005 0.000963642 0.000443625 -0.0005 
0.00104288 0.000397875 -0.0005 0.00112212 0.000352125 -0.0005 0.00120136 0.000306375 -0.0005 
0.0012806 0.000239375 -0.0005 0.001299 0.00013725 -0.0005 0.001299 4.575e-05 -0.0005 
0.001299 -4.575e-05 -0.0005 0.001299 -0.00013725 -0.0005 0.0012806 -0.000239375 -0.0005 
0.00120136 -0.000306375 -0.0005 0.00112212 -0.000352125 -0.0005 0.00104288 -0.000397875 -0.0005 
0.000963642 -0.000443625 -0.0005 0.000866 -0.00047875 -0.0005 0.000530642 -0.000306375 -0.0005 
0.000609881 -0.000352125 -0.0005 0.000689119 -0.000397875 -0.0005 0.000768358 -0.000443625 -0.0005 
0.000453526 -0.0002555 -0.0005 0.000448026 -0.000234974 -0.0005 0.000866 4.25e-05 -0.0005 
0.0008235 -3.53397e-19 -0.0005 0.000866 -4.25e-05 -0.0005 0.000433 -0.00027125 -0.0005 
0.000847597 -0.000510625 -0.0005 0.000866 -0.00061275 -0.0005 0.000866 -0.00070425 -0.0005 
0.000866 -0.00079575 -0.0005 0.000866 -0.00088725 -0.0005 0.000847597 -0.000989375 -0.0005 
0.000768358 -0.00105638 -0.0005 0.000689119 -0.00110213 -0.0005 0.000609881 -0.00114787 -0.0005 
0.000530642 -0.00119362 -0.0005 0.000433 -0.00122875 -0.0005 0.000335358 -0.00119362 -0.0005 
0.000256119 -0.00114787 -0.0005 0.000176881 -0.00110213 -0.0005 9.76417e-05 -0.00105638 -0.0005 
2.05259e-05 -0.0010055 -0.0005 1.5026e-05 -0.000984974 -0.0005 0 -0.00061275 -0.0005 
0 -0.00070425 -0.0005 0 -0.00079575 -0.0005 0 -0.00088725 -0.0005 
1.5026e-05 -0.000515026 -0.0005 2.05259e-05 -0.0004945 -0.0005 0.000433 -0.0007075 -0.0005 
0.0003905 -0.00075 -0.0005 0.000433 -0.0007925 -0.0005 -1.84031e-05 -0.000510625 -0.0005 
-1.84031e-05 -0.000989375 -0.0005 -9.76417e-05 -0.00105638 -0.0005 -0.000176881 -0.00110213 -0.0005 
-0.000256119 -0.00114787 -0.0005 -0.000335358 -0.00119362 -0.0005 -0.000433 -0.00122875 -0.0005 
-0.000530642 -0.00119362 -0.0005 -0.000609881 -0.00114787 -0.0005 -0.000689119 -0.00110213 -0.0005 
-0.000768358 -0.00105638 -0.0005 -0.000845474 -0.0010055 -0.0005 -0.000850974 -0.000984974 -0.0005 
-0.000866 -0.00088725 -0.0005 -0.000866 -0.00079575 -0.0005 -0.000866 -0.00070425 -0.0005 
-0.000866 -0.00061275 -0.0005 -0.000850974 -0.000515026 -0.0005 -0.000845474 -0.0004945 -0.0005 
-0.000530642 -0.000306375 -0.0005 -0.000609881 -0.000352125 -0.0005 -0.000689119 -0.000397875 -0.0005 
-0.000768358 -0.000443625 -0.0005 -0.000433 -0.00027125 -0.0005 -0.000433 -0.0007075 -0.0005 
-0.0004755 -0.00075 -0.0005 -0.000433 -0.0007925 -0.0005 -0.000451403 -0.000239375 -0.0005 
-0.000866 -0.00047875 -0.0005 -0.000963642 -0.000443625 -0.0005 -0.00104288 -0.000397875 -0.0005 
-0.00112212 -0.000352125 -0.0005 -0.00120136 -0.000306375 -0.0005 -0.00127847 -0.0002555 -0.0005 
-0.00128397 -0.000234974 -0.0005 -0.001299 -0.00013725 -0.0005 -0.001299 -4.575e-05 -0.0005 
-0.001299 4.575e-05 -0.0005 -0.001299 0.00013725 -0.0005 -0.00128397 0.000234974 -0.0005 
-0.00127847 0.0002555 -0.0005 -0.00120136 0.000306375 -0.0005 -0.00112212 0.000352125 -0.0005 
-0.00104288 0.000397875 -0.0005 -0.000963642 0.000443625 -0.0005 -0.000866 0.00047875 -0.0005 
-0.000530642 0.000306375 -0.0005 -0.000609881 0.000352125 -0.0005 -0.000689119 0.000397875 -0.0005 
-0.000768358 0.000443625 -0.0005 -0.000451403 0.000239375 -0.0005 -0.000866 4.25e-05 -0.0005 
-0.0009085 -3.53397e-19 -0.0005 -0.000866 -4.25e-05 -0.0005 -0.000433 0.00027125 -0.0005 
-0.000845474 0.0004945 -0.0005 -0.000850974 0.000515026 -0.0005 -0.000866 0.00061275 -0.0005 
-0.000866 0.00070425 -0.0005 -0.000866 0.00079575 -0.0005 -0.000866 0.00088725 -0.0005 
-0.000850974 0.000984974 -0.0005 -0.000845474 0.0010055 -0.0005 -0.000768358 0.00105638 -0.0005 
-0.000689119 0.00110213 -0.0005 -0.000609881 0.00114787 -0.0005 -0.000530642 0.00119362 -0.0005 
-0.000433 0.00122875 -0.0005 -0.000335358 0.00119362 -0.0005 -0.000256119 0.00114787 -0.0005 
-0.000176881 0.00110213 -0.0005 -9.76417e-05 0.00105638 -0.0005 -1.84031e-05 0.000989375 -0.0005 
-1.84031e-05 0.000510625 -0.0005 -0.000433 0.0007925 -0.0005 -0.0004755 0.00075 -0.0005 
-0.000433 0.0007075 -0.0005 0.000166833 -0.000159585 0 0.000165961 0.000165961 0 
-0.000162277 0.000168837 0 -0.000162539 -0.000168697 0 -0.000316174 -0.000207462 0 
-0.000316174 0.000207462 0 -1.7625e-06 0.00020878 0 -0.000200494 5.10348e-06 0 
0.000198022 -6.49099e-06 0 -3.82827e-06 -0.000208798 0 -0.0003642 0.000214286 0 
-0.0003642 -0.000214286 0 0.000301049 0.000166193 0 0.000312424 -0.000170987 0 
-7.30908e-06 -0.00035148 0 7.30908e-06 0.00035148 0 0.000109232 0.000285545 0 
-0.000107519 -0.000286192 0 -0.000304808 7.69979e-05 0 -0.000308572 -7.52569e-05 0 
0.000106639 -0.000294843 0 -0.00010493 0.000296588 0 8.50608e-05 -8.41794e-05 0 
8.82006e-05 9.78925e-05 0 -9.29688e-05 8.1944e-05 0 -9.5784e-05 -8.5049e-05 0 
-0.00037448 0.000247295 0 -0.00037448 -0.000247295 0 -0.000226807 0.000247375 0 
-0.00022696 -0.000246565 0 0.000318161 -5.24395e-05 0 0.00030573 6.09258e-05 0 
-0.000251653 -0.000142326 0 -0.000251653 0.000142326 0 3.07451e-05 -0.00041094 0 
-3.07451e-05 0.00041094 0 0.00022921 -0.000246251 0 0.000229478 0.000241816 0 
2.27436e-05 0.000133221 0 1.86722e-05 -0.000131409 0 -0.000131489 -2.16615e-05 0 
0.00013003 -1.62999e-05 0 -0.00037383 0.000149154 0 -0.00037383 -0.000149154 0 
0.000234918 -9.03863e-05 0 0.000328799 0.000234244 0 0.000330695 -0.000235043 0 
0.000223602 9.28059e-05 0 -8.24081e-05 0.000181543 0 -7.93229e-05 -0.000178683 0 
-0.000174487 7.88274e-05 0 9.06107e-05 -0.000168878 0 9.31592e-05 0.000169495 0 
-0.000165177 -7.38619e-05 0 -9.20929e-05 -0.000358769 0 9.20929e-05 0.000358769 0 
3.47644e-05 0.000422113 0 -3.47644e-05 -0.000422113 0 -0.00039524 0.000187946 0 
-0.00039524 -0.000187946 0 -0.00036071 1.92365e-06 0 0.000388959 -0.000188051 0 
0.000390003 0.000186364 0 6.43444e-05 -0.000355671 0 -6.37768e-05 0.000356891 0 
2.80563e-05 -0.000283426 0 -2.80563e-05 0.000283426 0 0.000158032 5.64575e-05 0 
4.0579e-05 0.000286843 0 -4.0579e-05 -0.000286843 0 0.000187449 0.000307262 0 
0.000159892 -7.91024e-05 0 -0.000184905 -0.00030951 0 0.000358611 0.000105752 0 
0.000363074 -0.00011688 0 -0.000325009 0.000251333 0 -0.000325009 -0.000251333 0 
-0.000240838 -7.12684e-05 0 -0.000314691 -0.000147697 0 -0.000314417 0.000147824 0 
-0.000404578 0.00024054 0 -0.000403308 0.000218831 0 -0.000404578 -0.00024054 0 
-0.000403308 -0.000218831 0 0.000191925 -0.0003084 0 -0.000260053 0.000200474 0 
-0.000260078 -0.000200417 0 -2.84262e-05 0.000450764 0 2.84262e-05 -0.000450764 0 
-0.000189066 0.000311072 0 -0.000240999 7.45278e-05 0 -0.000278935 4.78174e-06 0 
0.000354779 1.89656e-05 0 0.000162497 0.000232229 0 0.000376671 0.000245397 0 
0.000376841 -0.000245894 0 0.000157204 -0.000230896 0 0.000234792 0.000171119 0 
-0.000151291 -0.000232673 0 -2.32986e-05 8.92785e-05 0 -3.11926e-05 -8.95957e-05 0 
-9.03847e-05 2.2115e-05 0 9.12302e-05 3.30279e-05 0 -0.000152334 0.000235849 0 
0.000239556 -0.000175069 0 -0.000374753 9.03378e-05 0 -0.000376425 -8.91537e-05 0 
4.61669e-05 -4.59906e-05 0 6.62281e-05 0.000232832 0 3.85868e-05 8.10868e-05 0 
-7.69579e-05 -3.79434e-05 0 0.000127486 -0.000360083 0 7.07506e-05 -0.00023716 0 
0.000272535 3.89675e-06 0 -7.65081e-05 -0.000238638 0 0.00014561 0.000112396 0 
-0.000352537 0.000183264 0 -0.000352576 -0.000183245 0 -0.000270615 -0.000285639 0 
-0.000269954 0.000283517 0 -7.38981e-05 0.000241237 0 0.00028245 0.000113194 0 
-0.000128597 0.00035529 0 0.000277733 0.00021912 0 0.000279019 -0.000221334 0 
0.000293419 -0.000117053 0 -4.98304e-05 4.71675e-05 0 -3.82924e-05 0.000144636 0 
-3.82924e-05 -0.000144636 0 -0.000137965 3.32657e-05 0 -0.00012318 0.000133204 0 
-0.000120047 -0.000136339 0 -0.000206789 -0.00019438 0 0.000125599 -0.000122936 0 
-0.000206748 0.000194842 0 -0.000279599 0.000238032 0 -0.000279767 -0.000238283 0 
-0.000195529 0.000130609 0 -0.000197761 -0.000129013 0 2.37414e-05 -7.8735e-05 0 
7.89976e-05 -2.26884e-05 0 0.000279552 0.000278672 0 0.000279873 -0.000279044 0 
4.48012e-06 0.00044547 0 -4.48012e-06 -0.00044547 0 0.000598961 0.000584039 0 
0.000602744 0.00091226 0 0.000270474 0.000918651 0 0.000270149 0.000581615 0 
0.000116826 0.000957462 0 0.000116826 0.000542538 0 0.000429172 0.000958798 0 
0.000232505 0.000755103 0 0.000636012 0.000747201 0 0.000434763 0.00054122 0 
6.87997e-05 0.000964286 0 6.87997e-05 0.000535714 0 0.000745424 0.000920987 0 
0.000734049 0.000583807 0 0.000425691 0.00039852 0 0.000425691 0.00110148 0 
0.000325481 0.00103619 0 0.00032556 0.000464273 0 0.000128192 0.000826998 0 
0.000124428 0.000674743 0 0.000539639 0.00104484 0 0.000539618 0.000454793 0 
0.000520463 0.000653783 0 0.000521988 0.00084822 0 0.000340031 0.000831944 0 
0.00034624 0.000661734 0 5.85195e-05 0.000997295 0 5.85195e-05 0.000502705 0 
0.00020604 0.000996565 0 0.00020604 0.000503435 0 0.000751161 0.00080244 0 
0.00073873 0.000689074 0 0.000181347 0.000607674 0 0.000181347 0.000892326 0 
0.000463745 0.00033906 0 0.000463745 0.00116094 0 0.00066221 0.000996251 0 
0.000655871 0.000515061 0 0.000455531 0.000883279 0 0.0004137 0.000617913 0 
0.000302544 0.000731006 0 0.000569409 0.000742828 0 5.91695e-05 0.000899154 0 
5.91695e-05 0.000600846 0 0.000666622 0.000847886 0 0.000763695 0.000985043 0 
0.000761799 0.000515756 0 0.000662952 0.000664982 0 0.000353677 0.000928683 0 
0.000512323 0.000571317 0 0.000258513 0.000828827 0 0.000526529 0.000920143 0 
0.000348994 0.000575642 0 0.000269055 0.00067649 0 0.000340907 0.000391231 0 
0.000340907 0.00110877 0 0.000398236 0.00117211 0 0.000398236 0.000327887 0 
3.77595e-05 0.000937946 0 3.77595e-05 0.000562054 0 7.22902e-05 0.000751924 0 
0.000821959 0.000938051 0 0.000823003 0.000563636 0 0.000497344 0.00110567 0 
0.000497341 0.000394268 0 0.000595975 0.000808208 0 0.000461056 0.000466574 0 
0.000461056 0.00103343 0 0.000392421 0.00103684 0 0.000392458 0.000463164 0 
0.000248106 0.000440556 0 0.000248095 0.00105951 0 0.000791611 0.000644248 0 
0.000796074 0.00086688 0 0.000107991 0.00100133 0 0.000107991 0.000498667 0 
0.000192237 0.000678753 0 0.000118309 0.000602303 0 0.000118584 0.000897824 0 
2.84222e-05 0.00099054 0 2.96921e-05 0.000968831 0 2.84222e-05 0.00050946 0 
2.96921e-05 0.000531169 0 0.000584827 0.000674445 0 0.000624925 0.0010584 0 
0.000620086 0.000439056 0 0.000172934 0.000950423 0 0.000172922 0.000549583 0 
0.000461426 0.00120076 0 0.000461426 0.000299236 0 0.000192001 0.000824528 0 
0.000154074 0.000754784 0 0.000787779 0.000731034 0 0.000809841 0.000995894 0 
0.000809671 0.000504603 0 0.000589469 0.00097835 0 0.000571747 0.000512487 0 
0.000673596 0.000588147 0 0.000281249 0.000518091 0 0.00028171 0.000982668 0 
0.000409676 0.000839285 0 0.000465934 0.000658411 0 0.000524589 0.000782934 0 
0.000342119 0.000777068 0 0.000672682 0.000926159 0 5.82468e-05 0.000840338 0 
5.65752e-05 0.000660846 0 0.000386493 0.000703192 0 0.000361584 0.000514775 0 
0.000471587 0.000831087 0 0.000510532 0.000709986 0 0.000559513 0.000389323 0 
0.000560486 0.00111008 0 0.000503751 0.00098716 0 0.000707209 0.000747103 0 
0.000356492 0.000988637 0 8.04633e-05 0.000933264 0 8.04241e-05 0.000566755 0 
0.000162386 0.000464369 0 0.000162385 0.00103564 0 0.000578393 0.000862613 0 
0.000503901 0.000509278 0 0.000714127 0.000640342 0 0.000712044 0.000971552 0 
0.000710619 0.000533186 0 0.000726252 0.00086828 0 0.000383065 0.000798159 0 
0.000471292 0.000605364 0 0.000394708 0.000894636 0 0.000295143 0.00078479 0 
0.000311567 0.000884914 0 0.000544105 0.000613927 0 0.000226145 0.000555712 0 
0.000226234 0.0009443 0 0.000307419 0.000615421 0 0.000153235 0.000988284 0 
0.000153233 0.000511718 0 0.000237647 0.000880726 0 0.000238317 0.000620115 0 
0.000410377 0.000668704 0 0.000352297 0.000726325 0 0.000712874 0.00102905 0 
0.000708438 0.00047242 0 0.00042852 0.00030453 0 0.00042852 0.00119547 0 
0.00103283 -0.000159585 0 0.00103196 0.000165961 0 0.00070371 0.000168883 0 
0.000703474 -0.000168651 0 0.000549826 0.000207462 0 0.000549826 -0.000207462 0 
0.000864237 0.00020878 0 0.000665505 -1.75358e-06 0 0.00106402 -6.49099e-06 0 
0.000862172 -0.000208798 0 0.0005018 0.000214286 0 0.0005018 -0.000214286 0 
0.00117842 -0.000170987 0 0.00116705 0.000166193 0 0.000858691 -0.00035148 0 
0.000873309 0.00035148 0 0.000975232 0.000285545 0 0.000758481 -0.000286192 0 
0.000561503 7.6703e-05 0 0.000555269 -7.65899e-05 0 0.000972639 -0.000294843 0 
0.00076107 0.000296588 0 0.000951061 -8.41794e-05 0 0.000954201 9.78925e-05 0 
0.000770216 8.5049e-05 0 0.000773031 -8.1944e-05 0 0.00049152 0.000247295 0 
0.00049152 -0.000247295 0 0.000639193 0.000247375 0 0.00063904 -0.000246565 0 
0.00118416 -5.24395e-05 0 0.00117173 6.09258e-05 0 0.000614347 -0.000142326 0 
0.000614347 0.000142326 0 0.000896745 -0.00041094 0 0.000835255 0.00041094 0 
0.00109521 -0.000246251 0 0.00109548 0.000241816 0 0.000888744 0.000133221 0 
0.000884672 -0.000131409 0 0.000734511 2.22198e-05 0 0.00099603 -1.62999e-05 0 
0.00049217 0.000149154 0 0.00049217 -0.000149154 0 0.00110092 -9.03863e-05 0 
0.0011967 -0.000235043 0 0.0011948 0.000234244 0 0.0010896 9.28059e-05 0 
0.000783591 0.000181545 0 0.000786677 -0.000178683 0 0.000691513 -7.86239e-05 0 
0.000956611 -0.000168878 0 0.000959159 0.000169495 0 0.000700823 7.45132e-05 0 
0.000773907 -0.000358769 0 0.000958093 0.000358769 0 0.000900764 0.000422113 0 
0.000831236 -0.000422113 0 0.00047076 0.000187946 0 0.00047076 -0.000187946 0 
0.000506327 1.20793e-06 0 0.00125496 -0.000188051 0 0.001256 0.000186364 0 
0.000930344 -0.000355671 0 0.000802223 0.000356891 0 0.000894056 -0.000283426 0 
0.000837944 0.000283426 0 0.00102403 5.64575e-05 0 0.000906579 0.000286843 0 
0.000825421 -0.000286843 0 0.00105345 0.000307262 0 0.00102589 -7.91024e-05 0 
0.000681095 -0.00030951 0 0.00122461 0.000105752 0 0.00122907 -0.00011688 0 
0.000540991 0.000251333 0 0.000540991 -0.000251333 0 0.000624479 7.32103e-05 0 
0.000551152 -0.000147794 0 0.000551606 0.000147802 0 0.000461422 0.00024054 0 
0.000462692 0.000218831 0 0.000461422 -0.00024054 0 0.000462692 -0.000218831 0 
0.00105793 -0.0003084 0 0.000605948 0.000200473 0 0.000605915 -0.000200421 0 
0.000894426 -0.000450764 0 0.000837574 0.000450764 0 0.000676934 0.000311072 0 
0.000626182 -7.08972e-05 0 0.000584992 5.90258e-06 0 0.00122078 1.89656e-05 0 
0.0010285 0.000232229 0 0.00124284 -0.000245894 0 0.00124267 0.000245397 0 
0.0010232 -0.000230896 0 0.00110079 0.000171119 0 0.00071471 -0.000232668 0 
0.000834965 9.05283e-05 0 0.000842673 -8.85226e-05 0 0.00095723 3.30279e-05 0 
0.000775615 -2.20485e-05 0 0.000713665 0.000235853 0 0.00110556 -0.000175069 0 
0.000491363 9.025e-05 0 0.000488571 -8.87482e-05 0 0.000912167 -4.59906e-05 0 
0.000932228 0.000232832 0 0.000904587 8.10868e-05 0 0.000789049 3.8011e-05 0 
0.000993486 -0.000360083 0 0.000936751 -0.00023716 0 0.00113854 3.89675e-06 0 
0.000789492 -0.000238637 0 0.00101161 0.000112396 0 0.000513466 0.00018326 0 
0.000513402 -0.000183259 0 0.000596046 0.000283517 0 0.000595385 -0.000285639 0 
0.000792102 0.000241238 0 0.00114845 0.000113194 0 0.000737403 0.00035529 0 
0.00114502 -0.000221334 0 0.00114373 0.00021912 0 0.00115942 -0.000117053 0 
0.000816164 -4.7003e-05 0 0.000827708 0.000144636 0 0.000827708 -0.000144636 0 
0.000728035 -3.243e-05 0 0.00074578 0.000136564 0 0.000744567 -0.000134897 0 
0.000659232 -0.0001943 0 0.000991599 -0.000122936 0 0.00065923 0.000194923 0 
0.000586401 0.000238032 0 0.000586231 -0.000238284 0 0.000670788 -0.000130267 0 
0.000668203 0.000129229 0 0.000889614 -8.00602e-05 0 0.000944998 -2.26884e-05 0 
0.00114587 -0.000279044 0 0.00114555 0.000278672 0 0.00087048 0.00044547 0 
0.00086152 -0.00044547 0 0.000598961 -0.000915961 0 0.000603317 -0.000588209 0 
0.000270723 -0.000581163 0 0.000270149 -0.000918385 0 0.000116826 -0.000542538 0 
0.000116826 -0.000957462 0 0.000431238 -0.00054122 0 0.000232505 -0.000744897 0 
0.000636012 -0.000752799 0 0.000434763 -0.00095878 0 6.87997e-05 -0.000535714 0 
6.87997e-05 -0.000964286 0 0.000745424 -0.000579013 0 0.000734049 -0.000916193 0 
0.000425691 -0.00110148 0 0.000440309 -0.00039852 0 0.000542232 -0.000464455 0 
0.00032556 -0.00103573 0 0.000128192 -0.000673002 0 0.000124428 -0.000825257 0 
0.000539618 -0.00104521 0 0.00032807 -0.000453412 0 0.000520463 -0.000846217 0 
0.000521988 -0.00065178 0 0.000340031 -0.000668056 0 0.00034624 -0.000838266 0 
5.85195e-05 -0.000502705 0 5.85195e-05 -0.000997295 0 0.000206193 -0.000502625 0 
0.00020604 -0.000996565 0 0.000751161 -0.00069756 0 0.00073873 -0.000810926 0 
0.000181347 -0.000892326 0 0.000181347 -0.000607674 0 0.000463745 -0.00116094 0 
0.000402255 -0.00033906 0 0.000662471 -0.000504287 0 0.000655871 -0.000984939 0 
0.000455875 -0.000616724 0 0.0004137 -0.000882087 0 0.000302544 -0.000768994 0 
0.000569409 -0.000757172 0 5.91695e-05 -0.000600846 0 5.91695e-05 -0.000899154 0 
0.000666622 -0.000652114 0 0.000763695 -0.000514957 0 0.000761799 -0.000984244 0 
0.000662952 -0.000835018 0 0.000350592 -0.000568457 0 0.000512323 -0.000928683 0 
0.000258513 -0.000671173 0 0.000526882 -0.000581015 0 0.000348994 -0.000924358 0 
0.000269055 -0.00082351 0 0.000340907 -0.00110877 0 0.000525093 -0.000391231 0 
0.000398236 -0.00117211 0 0.000467764 -0.000327887 0 3.77595e-05 -0.000562054 0 
3.77595e-05 -0.000937946 0 7.22902e-05 -0.000748076 0 0.000821959 -0.000561949 0 
0.000823003 -0.000936364 0 0.000497341 -0.00110573 0 0.000369223 -0.000393109 0 
0.000595975 -0.000691792 0 0.000461056 -0.00103343 0 0.000404944 -0.000466574 0 
0.000473579 -0.000463157 0 0.000392458 -0.00103684 0 0.000620449 -0.000442181 0 
0.000248106 -0.00105944 0 0.000791611 -0.000855752 0 0.000796074 -0.00063312 0 
0.000107991 -0.000498667 0 0.000107991 -0.00100133 0 0.000192237 -0.000821247 0 
0.000118309 -0.000897697 0 0.000118584 -0.000602176 0 2.84222e-05 -0.00050946 0 
2.96921e-05 -0.000531169 0 2.84222e-05 -0.00099054 0 2.96921e-05 -0.000968831 0 
0.000584827 -0.000825555 0 0.000620086 -0.00106094 0 0.000172947 -0.000549526 0 
0.000172922 -0.000950417 0 0.000461426 -0.00120076 0 0.000404574 -0.000299236 0 
0.000243934 -0.000438928 0 0.000192001 -0.000675472 0 0.000154074 -0.000745216 0 
0.000787779 -0.000768966 0 0.000588723 -0.000523989 0 0.000809841 -0.000504106 0 
0.000809671 -0.000995397 0 0.000571747 -0.000987513 0 0.000673596 -0.000911853 0 
0.000281249 -0.000981909 0 0.000409717 -0.000660715 0 0.000465934 -0.000841589 0 
0.000524589 -0.000717066 0 0.000342119 -0.000722933 0 0.000280666 -0.000514151 0 
0.000672694 -0.000574319 0 5.82468e-05 -0.000659662 0 5.65752e-05 -0.000839154 0 
0.000386493 -0.000796808 0 0.000361584 -0.000985225 0 0.000499228 -0.000517168 0 
0.000471587 -0.000668913 0 0.000510532 -0.000790014 0 0.000559513 -0.00111068 0 
0.000707209 -0.000752897 0 8.04633e-05 -0.000566736 0 8.04241e-05 -0.000933245 0 
0.000163046 -0.000466483 0 0.000162386 -0.00103563 0 0.000578393 -0.000637387 0 
0.000503901 -0.000990722 0 0.000359102 -0.000508763 0 0.000714127 -0.000859658 0 
0.000304403 -0.00039471 0 0.000712099 -0.000528651 0 0.000710619 -0.000966814 0 
0.000726254 -0.000631789 0 0.000383073 -0.000701841 0 0.000471292 -0.000894636 0 
0.000394708 -0.000605364 0 0.000295143 -0.00071521 0 0.000544105 -0.000886073 0 
0.00030982 -0.000616796 0 0.000226145 -0.000944288 0 0.000307419 -0.000884579 0 
0.000226252 -0.000555158 0 0.000153401 -0.000511968 0 0.000153233 -0.000988282 0 
0.000237471 -0.000619391 0 0.000238317 -0.000879885 0 0.000410377 -0.000831296 0 
0.000352297 -0.000773675 0 0.00071621 -0.000470678 0 0.000708438 -0.00102758 0 
0.00043748 -0.00030453 0 0.00042852 -0.00119547 0 -0.000266167 -0.000909585 0 
-0.00026339 -0.000582669 0 -0.000595526 -0.000581349 0 -0.000595539 -0.000918697 0 
-0.000749174 -0.000957462 0 -0.000749174 -0.000542538 0 -0.000436828 -0.000541202 0 
-0.000633495 -0.000748246 0 -0.000234978 -0.000756491 0 -0.000436828 -0.000958798 0 
-0.0007972 -0.000964286 0 -0.0007972 -0.000535714 0 -0.000131951 -0.000583807 0 
-0.000120576 -0.000920987 0 -0.000440309 -0.00110148 0 -0.000440309 -0.00039852 0 
-0.000540519 -0.000463808 0 -0.000540519 -0.00103619 0 -0.000737497 -0.000826703 0 
-0.000743731 -0.00067341 0 -0.000326361 -0.000455157 0 -0.000326361 -0.00104484 0 
-0.000347939 -0.000834179 0 -0.000344799 -0.000652107 0 -0.000525969 -0.000668056 0 
-0.000528784 -0.000835049 0 -0.00080748 -0.000997295 0 -0.00080748 -0.000502705 0 
-0.00065996 -0.000996565 0 -0.00065996 -0.000503435 0 -0.000114839 -0.00080244 0 
-0.00012727 -0.000689074 0 -0.000684653 -0.000892326 0 -0.000684653 -0.000607674 0 
-0.000402255 -0.00033906 0 -0.000402255 -0.00116094 0 -0.00020379 -0.000996251 0 
-0.000209694 -0.000514898 0 -0.000410601 -0.000616776 0 -0.000414328 -0.000881409 0 
-0.000564489 -0.00077222 0 -0.00030297 -0.0007663 0 -0.000806831 -0.000899154 0 
-0.000806831 -0.000600846 0 -0.000198082 -0.000840386 0 -0.000104201 -0.000515756 0 
-0.000102305 -0.000985043 0 -0.000210482 -0.000662469 0 -0.000512323 -0.000571317 0 
-0.000512323 -0.000928683 0 -0.000607487 -0.000671376 0 -0.000342389 -0.000918878 0 
-0.000339591 -0.000579218 0 -0.000598177 -0.000824513 0 -0.000525093 -0.00110877 0 
-0.000525093 -0.000391231 0 -0.000467764 -0.00117211 0 -0.000467764 -0.000327887 0 
-0.00082824 -0.000937946 0 -0.00082824 -0.000562054 0 -0.000792673 -0.000751208 0 
-4.40406e-05 -0.000938051 0 -4.29968e-05 -0.000563636 0 -0.000368656 -0.000394329 0 
-0.000368656 -0.00110567 0 -0.000404944 -0.000466574 0 -0.000404944 -0.00103343 0 
-0.000274968 -0.000693542 0 -0.000473579 -0.000463157 0 -0.000473579 -0.00103684 0 
-0.000273108 -0.000829102 0 -0.000617905 -0.00105951 0 -0.000617905 -0.00044049 0 
-7.4389e-05 -0.000644248 0 -6.99258e-05 -0.00086688 0 -0.000758009 -0.00100133 0 
-0.000758009 -0.000498667 0 -0.000674521 -0.00082321 0 -0.000747394 -0.000897802 0 
-0.000747848 -0.000602206 0 -0.000837578 -0.00099054 0 -0.000836308 -0.000968831 0 
-0.000837578 -0.00050946 0 -0.000836308 -0.000531169 0 -0.00024589 -0.000439066 0 
-0.000241075 -0.0010584 0 -0.000693065 -0.000950422 0 -0.000693085 -0.000549579 0 
-0.000404574 -0.00120076 0 -0.000404574 -0.000299236 0 -0.000672818 -0.000679103 0 
-0.000714008 -0.000755903 0 -7.82213e-05 -0.000731034 0 -5.6329e-05 -0.000504603 0 
-5.61586e-05 -0.000995894 0 -0.000275796 -0.000980896 0 -0.000285676 -0.000513219 0 
-0.000186165 -0.000585602 0 -0.000584291 -0.000982673 0 -0.00058429 -0.000517332 0 
-0.00045634 -0.000660721 0 -0.000464193 -0.000839596 0 -0.00034177 -0.000716972 0 
-0.000523385 -0.000727952 0 -0.000193444 -0.000925069 0 -0.000807637 -0.00084025 0 
-0.000810429 -0.000661252 0 -0.000386833 -0.000795991 0 -0.000394413 -0.000668913 0 
-0.000509958 -0.000787971 0 -0.000305514 -0.00111008 0 -0.000306477 -0.00038941 0 
-0.000362249 -0.00098716 0 -0.00035868 -0.000511074 0 -0.000160645 -0.000746982 0 
-0.000509508 -0.000511363 0 -0.000509508 -0.000988638 0 -0.00028739 -0.000637604 0 
-0.000785534 -0.00093326 0 -0.000785598 -0.000566741 0 -0.000703615 -0.00103564 0 
-0.000703615 -0.000464361 0 -0.000148903 -0.000636616 0 -0.00015636 -0.000534148 0 
-0.000153981 -0.000971334 0 -0.000139581 -0.000867053 0 -0.000482839 -0.000702846 0 
-0.000471292 -0.000605364 0 -0.000471292 -0.000894636 0 -0.000570965 -0.00071757 0 
-0.000554433 -0.000615103 0 -0.000553903 -0.000884892 0 -0.000639788 -0.00094438 0 
-0.000639768 -0.0005557 0 -0.000307401 -0.000872936 0 -0.000712765 -0.000988284 0 
-0.000712769 -0.000511716 0 -0.000628213 -0.000619733 0 -0.000630855 -0.000879083 0 
-0.000409259 -0.000828735 0 -0.000354002 -0.000772688 0 -0.000155373 -0.000471972 0 
-0.000153127 -0.00102904 0 -0.00043748 -0.00030453 0 -0.00043748 -0.00119547 0 
-0.000699167 -0.000159585 0 -0.00102828 0.000168837 0 -0.000700039 0.000165961 0 
-0.00102854 -0.000168697 0 -0.00118217 0.000207462 0 -0.00118217 -0.000207462 0 
-0.000867762 0.00020878 0 -0.00106649 5.10348e-06 0 -0.000667978 -6.49099e-06 0 
-0.000869828 -0.000208798 0 -0.0012302 0.000214286 0 -0.0012302 -0.000214286 0 
-0.000564951 0.000166193 0 -0.000553576 -0.000170987 0 -0.000873309 -0.00035148 0 
-0.000858691 0.00035148 0 -0.000756768 0.000285545 0 -0.000973519 -0.000286192 0 
-0.00117081 7.69979e-05 0 -0.00117457 -7.52569e-05 0 -0.000759361 -0.000294843 0 
-0.00097093 0.000296588 0 -0.000780939 -8.41794e-05 0 -0.000958969 8.1944e-05 0 
-0.000777799 9.78925e-05 0 -0.000961784 -8.5049e-05 0 -0.00124048 0.000247295 0 
-0.00124048 -0.000247295 0 -0.00109281 0.000247375 0 -0.00109296 -0.000246565 0 
-0.000547839 -5.24395e-05 0 -0.00056027 6.09258e-05 0 -0.00111765 0.000142326 0 
-0.00111765 -0.000142326 0 -0.000835255 -0.00041094 0 -0.000896745 0.00041094 0 
-0.00063679 -0.000246251 0 -0.000636522 0.000241816 0 -0.000843256 0.000133221 0 
-0.000847328 -0.000131409 0 -0.000997489 -2.16615e-05 0 -0.00073597 -1.62999e-05 0 
-0.00123983 0.000149154 0 -0.00123983 -0.000149154 0 -0.000631082 -9.03863e-05 0 
-0.000535305 -0.000235043 0 -0.000537201 0.000234244 0 -0.000642398 9.28059e-05 0 
-0.000948408 0.000181543 0 -0.000945323 -0.000178683 0 -0.00104049 7.88274e-05 0 
-0.000775389 -0.000168878 0 -0.000772841 0.000169495 0 -0.00103118 -7.38619e-05 0 
-0.000958093 -0.000358769 0 -0.000773907 0.000358769 0 -0.000900764 -0.000422113 0 
-0.000831236 0.000422113 0 -0.00126124 0.000187946 0 -0.00126124 -0.000187946 0 
-0.00122671 1.92365e-06 0 -0.000477041 -0.000188051 0 -0.000475997 0.000186364 0 
-0.000801656 -0.000355671 0 -0.000929777 0.000356891 0 -0.000837944 -0.000283426 0 
-0.000894056 0.000283426 0 -0.000707968 5.64575e-05 0 -0.000825421 0.000286843 0 
-0.000906579 -0.000286843 0 -0.000678551 0.000307262 0 -0.000706108 -7.91024e-05 0 
-0.0010509 -0.00030951 0 -0.000507389 0.000105752 0 -0.000502926 -0.00011688 0 
-0.00119101 0.000251333 0 -0.00119101 -0.000251333 0 -0.00110684 -7.12684e-05 0 
-0.00118042 0.000147824 0 -0.00118069 -0.000147697 0 -0.00127058 0.00024054 0 
-0.00126931 0.000218831 0 -0.00127058 -0.00024054 0 -0.00126931 -0.000218831 0 
-0.000674075 -0.0003084 0 -0.00112605 0.000200474 0 -0.00112608 -0.000200417 0 
-0.000837574 -0.000450764 0 -0.000894426 0.000450764 0 -0.00105507 0.000311072 0 
-0.001107 7.45278e-05 0 -0.00114494 4.78174e-06 0 -0.000511221 1.89656e-05 0 
-0.000703503 0.000232229 0 -0.000489329 0.000245397 0 -0.000489159 -0.000245894 0 
-0.000708796 -0.000230896 0 -0.000631208 0.000171119 0 -0.00101729 -0.000232673 0 
-0.000889299 8.92785e-05 0 -0.000897193 -8.95957e-05 0 -0.00077477 3.30279e-05 0 
-0.000956385 2.2115e-05 0 -0.00101833 0.000235849 0 -0.000626444 -0.000175069 0 
-0.00124075 9.03378e-05 0 -0.00124242 -8.91537e-05 0 -0.000819833 -4.59906e-05 0 
-0.000799772 0.000232832 0 -0.000827413 8.10868e-05 0 -0.000942958 -3.79434e-05 0 
-0.000738514 -0.000360083 0 -0.000795249 -0.00023716 0 -0.000593465 3.89675e-06 0 
-0.000942508 -0.000238638 0 -0.00072039 0.000112396 0 -0.00121854 0.000183264 0 
-0.00121858 -0.000183245 0 -0.00113595 0.000283517 0 -0.00113662 -0.000285639 0 
-0.000939898 0.000241237 0 -0.00058355 0.000113194 0 -0.000994597 0.00035529 0 
-0.000586981 -0.000221334 0 -0.000588267 0.00021912 0 -0.000572581 -0.000117053 0 
-0.00091583 4.71675e-05 0 -0.000904292 -0.000144636 0 -0.000904292 0.000144636 0 
-0.00100396 3.32657e-05 0 -0.00098918 0.000133204 0 -0.000986047 -0.000136339 0 
-0.00107279 -0.00019438 0 -0.000740401 -0.000122936 0 -0.00107275 0.000194842 0 
-0.0011456 0.000238032 0 -0.00114577 -0.000238283 0 -0.00106153 0.000130609 0 
-0.00106376 -0.000129013 0 -0.000842259 -7.8735e-05 0 -0.000787002 -2.26884e-05 0 
-0.000586448 0.000278672 0 -0.000586127 -0.000279044 0 -0.00087048 -0.00044547 0 
-0.00086152 0.00044547 0 -0.000266167 0.000590415 0 -0.000267039 0.000915961 0 
-0.000595277 0.000918837 0 -0.000595539 0.000581303 0 -0.000749174 0.000542538 0 
-0.000749174 0.000957462 0 -0.000434763 0.00095878 0 -0.000633495 0.000751754 0 
-0.000234978 0.000743509 0 -0.000436828 0.000541202 0 -0.0007972 0.000535714 0 
-0.0007972 0.000964286 0 -0.000131951 0.000916193 0 -0.000120576 0.000579013 0 
-0.000440309 0.00039852 0 -0.000425691 0.00110148 0 -0.000323768 0.00103554 0 
-0.000540519 0.000463808 0 -0.000737497 0.000673297 0 -0.000743731 0.00082659 0 
-0.000326361 0.000455157 0 -0.00053793 0.00104659 0 -0.000347939 0.000665821 0 
-0.000344799 0.000847893 0 -0.000525969 0.000831944 0 -0.000528784 0.000664951 0 
-0.00080748 0.000502705 0 -0.00080748 0.000997295 0 -0.00065996 0.000503435 0 
-0.000659807 0.000997375 0 -0.000114839 0.00069756 0 -0.00012727 0.000810926 0 
-0.000684653 0.000607674 0 -0.000684653 0.000892326 0 -0.000402255 0.00033906 0 
-0.000463745 0.00116094 0 -0.00020379 0.000503749 0 -0.000203522 0.000991815 0 
-0.000410256 0.000883221 0 -0.000414328 0.000618591 0 -0.000564489 0.00072778 0 
-0.00030297 0.0007337 0 -0.000806831 0.000600846 0 -0.000806831 0.000899154 0 
-0.000198082 0.000659614 0 -0.000104201 0.000984244 0 -0.000102305 0.000514957 0 
-0.000209398 0.000842806 0 -0.000515408 0.000931543 0 -0.000512323 0.000571317 0 
-0.000607487 0.000828624 0 -0.000342389 0.000581122 0 -0.000339841 0.000919495 0 
-0.000598177 0.000675487 0 -0.000525093 0.000391231 0 -0.000340907 0.00110877 0 
-0.000398236 0.00117211 0 -0.000467764 0.000327887 0 -0.00082824 0.000562054 0 
-0.00082824 0.000937946 0 -0.000792673 0.000748792 0 -4.40406e-05 0.000561949 0 
-4.29968e-05 0.000936364 0 -0.000368656 0.000394329 0 -0.000496777 0.00110689 0 
-0.000404944 0.000466574 0 -0.000461056 0.00103343 0 -0.000274968 0.000806458 0 
-0.000392421 0.00103684 0 -0.000473579 0.000463157 0 -0.000245551 0.00105726 0 
-0.000273108 0.000670898 0 -0.000617905 0.00044049 0 -7.4389e-05 0.000855752 0 
-6.99258e-05 0.00063312 0 -0.000758009 0.000498667 0 -0.000758009 0.00100133 0 
-0.000674521 0.00067679 0 -0.000747394 0.000602198 0 -0.000747848 0.000897794 0 
-0.000837578 0.00050946 0 -0.000836308 0.000531169 0 -0.000837578 0.00099054 0 
-0.000836308 0.000968831 0 -0.000241075 0.0004416 0 -0.000693065 0.000549578 0 
-0.000693072 0.000950473 0 -0.000404574 0.000299236 0 -0.000461426 0.00120076 0 
-0.000622066 0.00106107 0 -0.000672818 0.000820897 0 -0.000714008 0.000744097 0 
-7.82213e-05 0.000768966 0 -0.000270503 0.000982229 0 -5.6329e-05 0.000995397 0 
-5.61586e-05 0.000504106 0 -0.000275796 0.000519104 0 -0.000198208 0.000921119 0 
-0.000584291 0.000517327 0 -0.000456299 0.000839279 0 -0.000464193 0.000660404 0 
-0.00034177 0.000783028 0 -0.000523385 0.000772048 0 -0.000585334 0.000985849 0 
-0.000193444 0.000574931 0 -0.000807637 0.00065975 0 -0.000810429 0.000838748 0 
-0.000386833 0.000704009 0 -0.000366772 0.000982832 0 -0.000394413 0.000831087 0 
-0.000509958 0.000712029 0 -0.000305514 0.000389917 0 -0.000362249 0.00051284 0 
-0.000160465 0.000753897 0 -0.000509508 0.000511362 0 -0.00028739 0.000862396 0 
-0.000785534 0.00056674 0 -0.000785598 0.000933259 0 -0.000703615 0.000464361 0 
-0.000702954 0.00103352 0 -0.000506898 0.000991237 0 -0.00015055 0.000863194 0 
-0.000561597 0.00110529 0 -0.000153981 0.000528666 0 -0.000155267 0.00096912 0 
-0.000139581 0.000632947 0 -0.00048283 0.000797154 0 -0.000471292 0.000894636 0 
-0.000471292 0.000605364 0 -0.000570965 0.00078243 0 -0.00055618 0.00088318 0 
-0.000553903 0.000615108 0 -0.000639788 0.00055562 0 -0.000307401 0.000627064 0 
-0.00063975 0.000944842 0 -0.000712765 0.000511716 0 -0.000712603 0.000988032 0 
-0.000628389 0.00088015 0 -0.000630855 0.000620917 0 -0.000409259 0.000671265 0 
-0.000354002 0.000727312 0 -0.000153448 0.00102867 0 -0.000153127 0.000470956 0 
-0.00042852 0.00119547 0 -0.00043748 0.00030453 0 0.000166833 -0.000159585 -0.0005 
0.000165961 0.000165961 -0.0005 -0.000162277 0.000168837 -0.0005 -0.000162539 -0.000168697 -0.0005 
-0.000316174 -0.000207462 -0.0005 -0.000316174 0.000207462 -0.0005 -1.7625e-06 0.00020878 -0.0005 
-0.000200494 5.10348e-06 -0.0005 0.000198022 -6.49099e-06 -0.0005 -3.82827e-06 -0.000208798 -0.0005 
-0.0003642 0.000214286 -0.0005 -0.0003642 -0.000214286 -0.0005 0.000301049 0.000166193 -0.0005 
0.000312424 -0.000170987 -0.0005 -7.30908e-06 -0.00035148 -0.0005 7.30908e-06 0.00035148 -0.0005 
0.000109232 0.000285545 -0.0005 -0.000107519 -0.000286192 -0.0005 -0.000304808 7.69979e-05 -0.0005 
-0.000308572 -7.52569e-05 -0.0005 0.000106639 -0.000294843 -0.0005 -0.00010493 0.000296588 -0.0005 
8.50608e-05 -8.41794e-05 -0.0005 8.82006e-05 9.78925e-05 -0.0005 -9.29688e-05 8.1944e-05 -0.0005 
-9.5784e-05 -8.5049e-05 -0.0005 -0.00037448 0.000247295 -0.0005 -0.00037448 -0.000247295 -0.0005 
-0.000226807 0.000247375 -0.0005 -0.00022696 -0.000246565 -0.0005 0.000318161 -5.24395e-05 -0.0005 
0.00030573 6.09258e-05 -0.0005 -0.000251653 -0.000142326 -0.0005 -0.000251653 0.000142326 -0.0005 
3.07451e-05 -0.00041094 -0.0005 -3.07451e-05 0.00041094 -0.0005 0.00022921 -0.000246251 -0.0005 
0.000229478 0.000241816 -0.0005 2.27436e-05 0.000133221 -0.0005 1.86722e-05 -0.000131409 -0.0005 
-0.000131489 -2.16615e-05 -0.0005 0.00013003 -1.62999e-05 -0.0005 -0.00037383 0.000149154 -0.0005 
-0.00037383 -0.000149154 -0.0005 0.000234918 -9.03863e-05 -0.0005 0.000328799 0.000234244 -0.0005 
0.000330695 -0.000235043 -0.0005 0.000223602 9.28059e-05 -0.0005 -8.24081e-05 0.000181543 -0.0005 
-7.93229e-05 -0.000178683 -0.0005 -0.000174487 7.88274e-05 -0.0005 9.06107e-05 -0.000168878 -0.0005 
9.31592e-05 0.000169495 -0.0005 -0.000165177 -7.38619e-05 -0.0005 -9.20929e-05 -0.000358769 -0.0005 
9.20929e-05 0.000358769 -0.0005 3.47644e-05 0.000422113 -0.0005 -3.47644e-05 -0.000422113 -0.0005 
-0.00039524 0.000187946 -0.0005 -0.00039524 -0.000187946 -0.0005 -0.00036071 1.92365e-06 -0.0005 
0.000388959 -0.000188051 -0.0005 0.000390003 0.000186364 -0.0005 6.43444e-05 -0.000355671 -0.0005 
-6.37768e-05 0.000356891 -0.0005 2.80563e-05 -0.000283426 -0.0005 -2.80563e-05 0.000283426 -0.0005 
0.000158032 5.64575e-05 -0.0005 4.0579e-05 0.000286843 -0.0005 -4.0579e-05 -0.000286843 -0.0005 
0.000187449 0.000307262 -0.0005 0.000159892 -7.91024e-05 -0.0005 -0.000184905 -0.00030951 -0.0005 
0.000358611 0.000105752 -0.0005 0.000363074 -0.00011688 -0.0005 -0.000325009 0.000251333 -0.0005 
-0.000325009 -0.000251333 -0.0005 -0.000240838 -7.12684e-05 -0.0005 -0.000314691 -0.000147697 -0.0005 
-0.000314417 0.000147824 -0.0005 -0.000404578 0.00024054 -0.0005 -0.000403308 0.000218831 -0.0005 
-0.000404578 -0.00024054 -0.0005 -0.000403308 -0.000218831 -0.0005 0.000191925 -0.0003084 -0.0005 
-0.000260053 0.000200474 -0.0005 -0.000260078 -0.000200417 -0.0005 -2.84262e-05 0.000450764 -0.0005 
2.84262e-05 -0.000450764 -0.0005 -0.000189066 0.000311072 -0.0005 -0.000240999 7.45278e-05 -0.0005 
-0.000278935 4.78174e-06 -0.0005 0.000354779 1.89656e-05 -0.0005 0.000162497 0.000232229 -0.0005 
0.000376671 0.000245397 -0.0005 0.000376841 -0.000245894 -0.0005 0.000157204 -0.000230896 -0.0005 
0.000234792 0.000171119 -0.0005 -0.000151291 -0.000232673 -0.0005 -2.32986e-05 8.92785e-05 -0.0005 
-3.11926e-05 -8.95957e-05 -0.0005 -9.03847e-05 2.2115e-05 -0.0005 9.12302e-05 3.30279e-05 -0.0005 
-0.000152334 0.000235849 -0.0005 0.000239556 -0.000175069 -0.0005 -0.000374753 9.03378e-05 -0.0005 
-0.000376425 -8.91537e-05 -0.0005 4.61669e-05 -4.59906e-05 -0.0005 6.62281e-05 0.000232832 -0.0005 
3.85868e-05 8.10868e-05 -0.0005 -7.69579e-05 -3.79434e-05 -0.0005 0.000127486 -0.000360083 -0.0005 
7.07506e-05 -0.00023716 -0.0005 0.000272535 3.89675e-06 -0.0005 -7.65081e-05 -0.000238638 -0.0005 
0.00014561 0.000112396 -0.0005 -0.000352537 0.000183264 -0.0005 -0.000352576 -0.000183245 -0.0005 
-0.000270615 -0.000285639 -0.0005 -0.000269954 0.000283517 -0.0005 -7.38981e-05 0.000241237 -0.0005 
0.00028245 0.000113194 -0.0005 -0.000128597 0.00035529 -0.0005 0.000277733 0.00021912 -0.0005 
0.000279019 -0.000221334 -0.0005 0.000293419 -0.000117053 -0.0005 -4.98304e-05 4.71675e-05 -0.0005 
-3.82924e-05 0.000144636 -0.0005 -3.82924e-05 -0.000144636 -0.0005 -0.000137965 3.32657e-05 -0.0005 
-0.00012318 0.000133204 -0.0005 -0.000120047 -0.000136339 -0.0005 -0.000206789 -0.00019438 -0.0005 
0.000125599 -0.000122936 -0.0005 -0.000206748 0.000194842 -0.0005 -0.000279599 0.000238032 -0.0005 
-0.000279767 -0.000238283 -0.0005 -0.000195529 0.000130609 -0.0005 -0.000197761 -0.000129013 -0.0005 
2.37414e-05 -7.8735e-05 -0.0005 7.89976e-05 -2.26884e-05 -0.0005 0.000279552 0.000278672 -0.0005 
0.000279873 -0.000279044 -0.0005 4.48012e-06 0.00044547 -0.0005 -4.48012e-06 -0.00044547 -0.0005 
0.000598961 0.000584039 -0.0005 0.000602744 0.00091226 -0.0005 0.000270474 0.000918651 -0.0005 
0.000270149 0.000581615 -0.0005 0.000116826 0.000957462 -0.0005 0.000116826 0.000542538 -0.0005 
0.000429172 0.000958798 -0.0005 0.000232505 0.000755103 -0.0005 0.000636012 0.000747201 -0.0005 
0.000434763 0.00054122 -0.0005 6.87997e-05 0.000964286 -0.0005 6.87997e-05 0.000535714 -0.0005 
0.000745424 0.000920987 -0.0005 0.000734049 0.000583807 -0.0005 0.000425691 0.00039852 -0.0005 
0.000425691 0.00110148 -0.0005 0.000325481 0.00103619 -0.0005 0.00032556 0.000464273 -0.0005 
0.000128192 0.000826998 -0.0005 0.000124428 0.000674743 -0.0005 0.000539639 0.00104484 -0.0005 
0.000539618 0.000454793 -0.0005 0.000520463 0.000653783 -0.0005 0.000521988 0.00084822 -0.0005 
0.000340031 0.000831944 -0.0005 0.00034624 0.000661734 -0.0005 5.85195e-05 0.000997295 -0.0005 
5.85195e-05 0.000502705 -0.0005 0.00020604 0.000996565 -0.0005 0.00020604 0.000503435 -0.0005 
0.000751161 0.00080244 -0.0005 0.00073873 0.000689074 -0.0005 0.000181347 0.000607674 -0.0005 
0.000181347 0.000892326 -0.0005 0.000463745 0.00033906 -0.0005 0.000463745 0.00116094 -0.0005 
0.00066221 0.000996251 -0.0005 0.000655871 0.000515061 -0.0005 0.000455531 0.000883279 -0.0005 
0.0004137 0.000617913 -0.0005 0.000302544 0.000731006 -0.0005 0.000569409 0.000742828 -0.0005 
5.91695e-05 0.000899154 -0.0005 5.91695e-05 0.000600846 -0.0005 0.000666622 0.000847886 -0.0005 
0.000763695 0.000985043 -0.0005 0.000761799 0.000515756 -0.0005 0.000662952 0.000664982 -0.0005 
0.000353677 0.000928683 -0.0005 0.000512323 0.000571317 -0.0005 0.000258513 0.000828827 -0.0005 
0.000526529 0.000920143 -0.0005 0.000348994 0.000575642 -0.0005 0.000269055 0.00067649 -0.0005 
0.000340907 0.000391231 -0.0005 0.000340907 0.00110877 -0.0005 0.000398236 0.00117211 -0.0005 
0.000398236 0.000327887 -0.0005 3.77595e-05 0.000937946 -0.0005 3.77595e-05 0.000562054 -0.0005 
7.22902e-05 0.000751924 -0.0005 0.000821959 0.000938051 -0.0005 0.000823003 0.000563636 -0.0005 
0.000497344 0.00110567 -0.0005 0.000497341 0.000394268 -0.0005 0.000595975 0.000808208 -0.0005 
0.000461056 0.000466574 -0.0005 0.000461056 0.00103343 -0.0005 0.000392421 0.00103684 -0.0005 
0.000392458 0.000463164 -0.0005 0.000248106 0.000440556 -0.0005 0.000248095 0.00105951 -0.0005 
0.000791611 0.000644248 -0.0005 0.000796074 0.00086688 -0.0005 0.000107991 0.00100133 -0.0005 
0.000107991 0.000498667 -0.0005 0.000192237 0.000678753 -0.0005 0.000118309 0.000602303 -0.0005 
0.000118584 0.000897824 -0.0005 2.84222e-05 0.00099054 -0.0005 2.96921e-05 0.000968831 -0.0005 
2.84222e-05 0.00050946 -0.0005 2.96921e-05 0.000531169 -0.0005 0.000584827 0.000674445 -0.0005 
0.000624925 0.0010584 -0.0005 0.000620086 0.000439056 -0.0005 0.000172934 0.000950423 -0.0005 
0.000172922 0.000549583 -0.0005 0.000461426 0.00120076 -0.0005 0.000461426 0.000299236 -0.0005 
0.000192001 0.000824528 -0.0005 0.000154074 0.000754784 -0.0005 0.000787779 0.000731034 -0.0005 
0.000809841 0.000995894 -0.0005 0.000809671 0.000504603 -0.0005 0.000589469 0.00097835 -0.0005 
0.000571747 0.000512487 -0.0005 0.000673596 0.000588147 -0.0005 0.000281249 0.000518091 -0.0005 
0.00028171 0.000982668 -0.0005 0.000409676 0.000839285 -0.0005 0.000465934 0.000658411 -0.0005 
0.000524589 0.000782934 -0.0005 0.000342119 0.000777068 -0.0005 0.000672682 0.000926159 -0.0005 
5.82468e-05 0.000840338 -0.0005 5.65752e-05 0.000660846 -0.0005 0.000386493 0.000703192 -0.0005 
0.000361584 0.000514775 -0.0005 0.000471587 0.000831087 -0.0005 0.000510532 0.000709986 -0.0005 
0.000559513 0.000389323 -0.0005 0.000560486 0.00111008 -0.0005 0.000503751 0.00098716 -0.0005 
0.000707209 0.000747103 -0.0005 0.000356492 0.000988637 -0.0005 8.04633e-05 0.000933264 -0.0005 
8.04241e-05 0.000566755 -0.0005 0.000162386 0.000464369 -0.0005 0.000162385 0.00103564 -0.0005 
0.000578393 0.000862613 -0.0005 0.000503901 0.000509278 -0.0005 0.000714127 0.000640342 -0.0005 
0.000712044 0.000971552 -0.0005 0.000710619 0.000533186 -0.0005 0.000726252 0.00086828 -0.0005 
0.000383065 0.000798159 -0.0005 0.000471292 0.000605364 -0.0005 0.000394708 0.000894636 -0.0005 
0.000295143 0.00078479 -0.0005 0.000311567 0.000884914 -0.0005 0.000544105 0.000613927 -0.0005 
0.000226145 0.000555712 -0.0005 0.000226234 0.0009443 -0.0005 0.000307419 0.000615421 -0.0005 
0.000153235 0.000988284 -0.0005 0.000153233 0.000511718 -0.0005 0.000237647 0.000880726 -0.0005 
0.000238317 0.000620115 -0.0005 0.000410377 0.000668704 -0.0005 0.000352297 0.000726325 -0.0005 
0.000712874 0.00102905 -0.0005 0.000708438 0.00047242 -0.0005 0.00042852 0.00030453 -0.0005 
0.00042852 0.00119547 -0.0005 0.00103283 -0.000159585 -0.0005 0.00103196 0.000165961 -0.0005 
0.00070371 0.000168883 -0.0005 0.000703474 -0.000168651 -0.0005 0.000549826 0.000207462 -0.0005 
0.000549826 -0.000207462 -0.0005 0.000864237 0.00020878 -0.0005 0.000665505 -1.75358e-06 -0.0005 
0.00106402 -6.49099e-06 -0.0005 0.000862172 -0.000208798 -0.0005 0.0005018 0.000214286 -0.0005 
0.0005018 -0.000214286 -0.0005 0.00117842 -0.000170987 -0.0005 0.00116705 0.000166193 -0.0005 
0.000858691 -0.00035148 -0.0005 0.000873309 0.00035148 -0.0005 0.000975232 0.000285545 -0.0005 
0.000758481 -0.000286192 -0.0005 0.000561503 7.6703e-05 -0.0005 0.000555269 -7.65899e-05 -0.0005 
0.000972639 -0.000294843 -0.0005 0.00076107 0.000296588 -0.0005 0.000951061 -8.41794e-05 -0.0005 
0.000954201 9.78925e-05 -0.0005 0.000770216 8.5049e-05 -0.0005 0.000773031 -8.1944e-05 -0.0005 
0.00049152 0.000247295 -0.0005 0.00049152 -0.000247295 -0.0005 0.000639193 0.000247375 -0.0005 
0.00063904 -0.000246565 -0.0005 0.00118416 -5.24395e-05 -0.0005 0.00117173 6.09258e-05 -0.0005 
0.000614347 -0.000142326 -0.0005 0.000614347 0.000142326 -0.0005 0.000896745 -0.00041094 -0.0005 
0.000835255 0.00041094 -0.0005 0.00109521 -0.000246251 -0.0005 0.00109548 0.000241816 -0.0005 
0.000888744 0.000133221 -0.0005 0.000884672 -0.000131409 -0.0005 0.000734511 2.22198e-05 -0.0005 
0.00099603 -1.62999e-05 -0.0005 0.00049217 0.000149154 -0.0005 0.00049217 -0.000149154 -0.0005 
0.00110092 -9.03863e-05 -0.0005 0.0011967 -0.000235043 -0.0005 0.0011948 0.000234244 -0.0005 
0.0010896 9.28059e-05 -0.0005 0.000783591 0.000181545 -0.0005 0.000786677 -0.000178683 -0.0005 
0.000691513 -7.86239e-05 -0.0005 0.000956611 -0.000168878 -0.0005 0.000959159 0.000169495 -0.0005 
0.000700823 7.45132e-05 -0.0005 0.000773907 -0.000358769 -0.0005 0.000958093 0.000358769 -0.0005 
0.000900764 0.000422113 -0.0005 0.000831236 -0.000422113 -0.0005 0.00047076 0.000187946 -0.0005 
0.00047076 -0.000187946 -0.0005 0.000506327 1.20793e-06 -0.0005 0.00125496 -0.000188051 -0.0005 
0.001256 0.000186364 -0.0005 0.000930344 -0.000355671 -0.0005 0.000802223 0.000356891 -0.0005 
0.000894056 -0.000283426 -0.0005 0.000837944 0.000283426 -0.0005 0.00102403 5.64575e-05 -0.0005 
0.000906579 0.000286843 -0.0005 0.000825421 -0.000286843 -0.0005 0.00105345 0.000307262 -0.0005 
0.00102589 -7.91024e-05 -0.0005 0.000681095 -0.00030951 -0.0005 0.00122461 0.000105752 -0.0005 
0.00122907 -0.00011688 -0.0005 0.000540991 0.000251333 -0.0005 0.000540991 -0.000251333 -0.0005 
0.000624479 7.32103e-05 -0.0005 0.000551152 -0.000147794 -0.0005 0.000551606 0.000147802 -0.0005 
0.000461422 0.00024054 -0.0005 0.000462692 0.000218831 -0.0005 0.000461422 -0.00024054 -0.0005 
0.000462692 -0.000218831 -0.0005 0.00105793 -0.0003084 -0.0005 0.000605948 0.000200473 -0.0005 
0.000605915 -0.000200421 -0.0005 0.000894426 -0.000450764 -0.0005 0.000837574 0.000450764 -0.0005 
0.000676934 0.000311072 -0.0005 0.000626182 -7.08972e-05 -0.0005 0.000584992 5.90258e-06 -0.0005 
0.00122078 1.89656e-05 -0.0005 0.0010285 0.000232229 -0.0005 0.00124284 -0.000245894 -0.0005 
0.00124267 0.000245397 -0.0005 0.0010232 -0.000230896 -0.0005 0.00110079 0.000171119 -0.0005 
0.00071471 -0.000232668 -0.0005 0.000834965 9.05283e-05 -0.0005 0.000842673 -8.85226e-05 -0.0005 
0.00095723 3.30279e-05 -0.0005 0.000775615 -2.20485e-05 -0.0005 0.000713665 0.000235853 -0.0005 
0.00110556 -0.000175069 -0.0005 0.000491363 9.025e-05 -0.0005 0.000488571 -8.87482e-05 -0.0005 
0.000912167 -4.59906e-05 -0.0005 0.000932228 0.000232832 -0.0005 0.000904587 8.10868e-05 -0.0005 
0.000789049 3.8011e-05 -0.0005 0.000993486 -0.000360083 -0.0005 0.000936751 -0.00023716 -0.0005 
0.00113854 3.89675e-06 -0.0005 0.000789492 -0.000238637 -0.0005 0.00101161 0.000112396 -0.0005 
0.000513466 0.00018326 -0.0005 0.000513402 -0.000183259 -0.0005 0.000596046 0.000283517 -0.0005 
0.000595385 -0.000285639 -0.0005 0.000792102 0.000241238 -0.0005 0.00114845 0.000113194 -0.0005 
0.000737403 0.00035529 -0.0005 0.00114502 -0.000221334 -0.0005 0.00114373 0.00021912 -0.0005 
0.00115942 -0.000117053 -0.0005 0.000816164 -4.7003e-05 -0.0005 0.000827708 0.000144636 -0.0005 
0.000827708 -0.000144636 -0.0005 0.000728035 -3.243e-05 -0.0005 0.00074578 0.000136564 -0.0005 
0.000744567 -0.000134897 -0.0005 0.000659232 -0.0001943 -0.0005 0.000991599 -0.000122936 -0.0005 
0.00065923 0.000194923 -0.0005 0.000586401 0.000238032 -0.0005 0.000586231 -0.000238284 -0.0005 
0.000670788 -0.000130267 -0.0005 0.000668203 0.000129229 -0.0005 0.000889614 -8.00602e-05 -0.0005 
0.000944998 -2.26884e-05 -0.0005 0.00114587 -0.000279044 -0.0005 0.00114555 0.000278672 -0.0005 
0.00087048 0.00044547 -0.0005 0.00086152 -0.00044547 -0.0005 0.000598961 -0.000915961 -0.0005 
0.000603317 -0.000588209 -0.0005 0.000270723 -0.000581163 -0.0005 0.000270149 -0.000918385 -0.0005 
0.000116826 -0.000542538 -0.0005 0.000116826 -0.000957462 -0.0005 0.000431238 -0.00054122 -0.0005 
0.000232505 -0.000744897 -0.0005 0.000636012 -0.000752799 -0.0005 0.000434763 -0.00095878 -0.0005 
6.87997e-05 -0.000535714 -0.0005 6.87997e-05 -0.000964286 -0.0005 0.000745424 -0.000579013 -0.0005 
0.000734049 -0.000916193 -0.0005 0.000425691 -0.00110148 -0.0005 0.000440309 -0.00039852 -0.0005 
0.000542232 -0.000464455 -0.0005 0.00032556 -0.00103573 -0.0005 0.000128192 -0.000673002 -0.0005 
0.000124428 -0.000825257 -0.0005 0.000539618 -0.00104521 -0.0005 0.00032807 -0.000453412 -0.0005 
0.000520463 -0.000846217 -0.0005 0.000521988 -0.00065178 -0.0005 0.000340031 -0.000668056 -0.0005 
0.00034624 -0.000838266 -0.0005 5.85195e-05 -0.000502705 -0.0005 5.85195e-05 -0.000997295 -0.0005 
0.000206193 -0.000502625 -0.0005 0.00020604 -0.000996565 -0.0005 0.000751161 -0.00069756 -0.0005 
0.00073873 -0.000810926 -0.0005 0.000181347 -0.000892326 -0.0005 0.000181347 -0.000607674 -0.0005 
0.000463745 -0.00116094 -0.0005 0.000402255 -0.00033906 -0.0005 0.000662471 -0.000504287 -0.0005 
0.000655871 -0.000984939 -0.0005 0.000455875 -0.000616724 -0.0005 0.0004137 -0.000882087 -0.0005 
0.000302544 -0.000768994 -0.0005 0.000569409 -0.000757172 -0.0005 5.91695e-05 -0.000600846 -0.0005 
5.91695e-05 -0.000899154 -0.0005 0.000666622 -0.000652114 -0.0005 0.000763695 -0.000514957 -0.0005 
0.000761799 -0.000984244 -0.0005 0.000662952 -0.000835018 -0.0005 0.000350592 -0.000568457 -0.0005 
0.000512323 -0.000928683 -0.0005 0.000258513 -0.000671173 -0.0005 0.000526882 -0.000581015 -0.0005 
0.000348994 -0.000924358 -0.0005 0.000269055 -0.00082351 -0.0005 0.000340907 -0.00110877 -0.0005 
0.000525093 -0.000391231 -0.0005 0.000398236 -0.00117211 -0.0005 0.000467764 -0.000327887 -0.0005 
3.77595e-05 -0.000562054 -0.0005 3.77595e-05 -0.000937946 -0.0005 7.22902e-05 -0.000748076 -0.0005 
0.000821959 -0.000561949 -0.0005 0.000823003 -0.000936364 -0.0005 0.000497341 -0.00110573 -0.0005 
0.000369223 -0.000393109 -0.0005 0.000595975 -0.000691792 -0.0005 0.000461056 -0.00103343 -0.0005 
0.000404944 -0.000466574 -0.0005 0.000473579 -0.000463157 -0.0005 0.000392458 -0.00103684 -0.0005 
0.000620449 -0.000442181 -0.0005 0.000248106 -0.00105944 -0.0005 0.000791611 -0.000855752 -0.0005 
0.000796074 -0.00063312 -0.0005 0.000107991 -0.000498667 -0.0005 0.000107991 -0.00100133 -0.0005 
0.000192237 -0.000821247 -0.0005 0.000118309 -0.000897697 -0.0005 0.000118584 -0.000602176 -0.0005 
2.84222e-05 -0.00050946 -0.0005 2.96921e-05 -0.000531169 -0.0005 2.84222e-05 -0.00099054 -0.0005 
2.96921e-05 -0.000968831 -0.0005 0.000584827 -0.000825555 -0.0005 0.000620086 -0.00106094 -0.0005 
0.000172947 -0.000549526 -0.0005 0.000172922 -0.000950417 -0.0005 0.000461426 -0.00120076 -0.0005 
0.000404574 -0.000299236 -0.0005 0.000243934 -0.000438928 -0.0005 0.000192001 -0.000675472 -0.0005 
0.000154074 -0.000745216 -0.0005 0.000787779 -0.000768966 -0.0005 0.000588723 -0.000523989 -0.0005 
0.000809841 -0.000504106 -0.0005 0.000809671 -0.000995397 -0.0005 0.000571747 -0.000987513 -0.0005 
0.000673596 -0.000911853 -0.0005 0.000281249 -0.000981909 -0.0005 0.000409717 -0.000660715 -0.0005 
0.000465934 -0.000841589 -0.0005 0.000524589 -0.000717066 -0.0005 0.000342119 -0.000722933 -0.0005 
0.000280666 -0.000514151 -0.0005 0.000672694 -0.000574319 -0.0005 5.82468e-05 -0.000659662 -0.0005 
5.65752e-05 -0.000839154 -0.0005 0.000386493 -0.000796808 -0.0005 0.000361584 -0.000985225 -0.0005 
0.000499228 -0.000517168 -0.0005 0.000471587 -0.000668913 -0.0005 0.000510532 -0.000790014 -0.0005 
0.000559513 -0.00111068 -0.0005 0.000707209 -0.000752897 -0.0005 8.04633e-05 -0.000566736 -0.0005 
8.04241e-05 -0.000933245 -0.0005 0.000163046 -0.000466483 -0.0005 0.000162386 -0.00103563 -0.0005 
0.000578393 -0.000637387 -0.0005 0.000503901 -0.000990722 -0.0005 0.000359102 -0.000508763 -0.0005 
0.000714127 -0.000859658 -0.0005 0.000304403 -0.00039471 -0.0005 0.000712099 -0.000528651 -0.0005 
0.000710619 -0.000966814 -0.0005 0.000726254 -0.000631789 -0.0005 0.000383073 -0.000701841 -0.0005 
0.000471292 -0.000894636 -0.0005 0.000394708 -0.000605364 -0.0005 0.000295143 -0.00071521 -0.0005 
0.000544105 -0.000886073 -0.0005 0.00030982 -0.000616796 -0.0005 0.000226145 -0.000944288 -0.0005 
0.000307419 -0.000884579 -0.0005 0.000226252 -0.000555158 -0.0005 0.000153401 -0.000511968 -0.0005 
0.000153233 -0.000988282 -0.0005 0.000237471 -0.000619391 -0.0005 0.000238317 -0.000879885 -0.0005 
0.000410377 -0.000831296 -0.0005 0.000352297 -0.000773675 -0.0005 0.00071621 -0.000470678 -0.0005 
0.000708438 -0.00102758 -0.0005 0.00043748 -0.00030453 -0.0005 0.00042852 -0.00119547 -0.0005 
-0.000266167 -0.000909585 -0.0005 -0.00026339 -0.000582669 -0.0005 -0.000595526 -0.000581349 -0.0005 
-0.000595539 -0.000918697 -0.0005 -0.000749174 -0.000957462 -0.0005 -0.000749174 -0.000542538 -0.0005 
-0.000436828 -0.000541202 -0.0005 -0.000633495 -0.000748246 -0.0005 -0.000234978 -0.000756491 -0.0005 
-0.000436828 -0.000958798 -0.0005 -0.0007972 -0.000964286 -0.0005 -0.0007972 -0.000535714 -0.0005 
-0.000131951 -0.000583807 -0.0005 -0.000120576 -0.000920987 -0.0005 -0.000440309 -0.00110148 -0.0005 
-0.000440309 -0.00039852 -0.0005 -0.000540519 -0.000463808 -0.0005 -0.000540519 -0.00103619 -0.0005 
-0.000737497 -0.000826703 -0.0005 -0.000743731 -0.00067341 -0.0005 -0.000326361 -0.000455157 -0.0005 
-0.000326361 -0.00104484 -0.0005 -0.000347939 -0.000834179 -0.0005 -0.000344799 -0.000652107 -0.0005 
-0.000525969 -0.000668056 -0.0005 -0.000528784 -0.000835049 -0.0005 -0.00080748 -0.000997295 -0.0005 
-0.00080748 -0.000502705 -0.0005 -0.00065996 -0.000996565 -0.0005 -0.00065996 -0.000503435 -0.0005 
-0.000114839 -0.00080244 -0.0005 -0.00012727 -0.000689074 -0.0005 -0.000684653 -0.000892326 -0.0005 
-0.000684653 -0.000607674 -0.0005 -0.000402255 -0.00033906 -0.0005 -0.000402255 -0.00116094 -0.0005 
-0.00020379 -0.000996251 -0.0005 -0.000209694 -0.000514898 -0.0005 -0.000410601 -0.000616776 -0.0005 
-0.000414328 -0.000881409 -0.0005 -0.000564489 -0.00077222 -0.0005 -0.00030297 -0.0007663 -0.0005 
-0.000806831 -0.000899154 -0.0005 -0.000806831 -0.000600846 -0.0005 -0.000198082 -0.000840386 -0.0005 
-0.000104201 -0.000515756 -0.0005 -0.000102305 -0.000985043 -0.0005 -0.000210482 -0.000662469 -0.0005 
-0.000512323 -0.000571317 -0.0005 -0.000512323 -0.000928683 -0.0005 -0.000607487 -0.000671376 -0.0005 
-0.000342389 -0.000918878 -0.0005 -0.000339591 -0.000579218 -0.0005 -0.000598177 -0.000824513 -0.0005 
-0.000525093 -0.00110877 -0.0005 -0.000525093 -0.000391231 -0.0005 -0.000467764 -0.00117211 -0.0005 
-0.000467764 -0.000327887 -0.0005 -0.00082824 -0.000937946 -0.0005 -0.00082824 -0.000562054 -0.0005 
-0.000792673 -0.000751208 -0.0005 -4.40406e-05 -0.000938051 -0.0005 -4.29968e-05 -0.000563636 -0.0005 
-0.000368656 -0.000394329 -0.0005 -0.000368656 -0.00110567 -0.0005 -0.000404944 -0.000466574 -0.0005 
-0.000404944 -0.00103343 -0.0005 -0.000274968 -0.000693542 -0.0005 -0.000473579 -0.000463157 -0.0005 
-0.000473579 -0.00103684 -0.0005 -0.000273108 -0.000829102 -0.0005 -0.000617905 -0.00105951 -0.0005 
-0.000617905 -0.00044049 -0.0005 -7.4389e-05 -0.000644248 -0.0005 -6.99258e-05 -0.00086688 -0.0005 
-0.000758009 -0.00100133 -0.0005 -0.000758009 -0.000498667 -0.0005 -0.000674521 -0.00082321 -0.0005 
-0.000747394 -0.000897802 -0.0005 -0.000747848 -0.000602206 -0.0005 -0.000837578 -0.00099054 -0.0005 
-0.000836308 -0.000968831 -0.0005 -0.000837578 -0.00050946 -0.0005 -0.000836308 -0.000531169 -0.0005 
-0.00024589 -0.000439066 -0.0005 -0.000241075 -0.0010584 -0.0005 -0.000693065 -0.000950422 -0.0005 
-0.000693085 -0.000549579 -0.0005 -0.000404574 -0.00120076 -0.0005 -0.000404574 -0.000299236 -0.0005 
-0.000672818 -0.000679103 -0.0005 -0.000714008 -0.000755903 -0.0005 -7.82213e-05 -0.000731034 -0.0005 
-5.6329e-05 -0.000504603 -0.0005 -5.61586e-05 -0.000995894 -0.0005 -0.000275796 -0.000980896 -0.0005 
-0.000285676 -0.000513219 -0.0005 -0.000186165 -0.000585602 -0.0005 -0.000584291 -0.000982673 -0.0005 
-0.00058429 -0.000517332 -0.0005 -0.00045634 -0.000660721 -0.0005 -0.000464193 -0.000839596 -0.0005 
-0.00034177 -0.000716972 -0.0005 -0.000523385 -0.000727952 -0.0005 -0.000193444 -0.000925069 -0.0005 
-0.000807637 -0.00084025 -0.0005 -0.000810429 -0.000661252 -0.0005 -0.000386833 -0.000795991 -0.0005 
-0.000394413 -0.000668913 -0.0005 -0.000509958 -0.000787971 -0.0005 -0.000305514 -0.00111008 -0.0005 
-0.000306477 -0.00038941 -0.0005 -0.000362249 -0.00098716 -0.0005 -0.00035868 -0.000511074 -0.0005 
-0.000160645 -0.000746982 -0.0005 -0.000509508 -0.000511363 -0.0005 -0.000509508 -0.000988638 -0.0005 
-0.00028739 -0.000637604 -0.0005 -0.000785534 -0.00093326 -0.0005 -0.000785598 -0.000566741 -0.0005 
-0.000703615 -0.00103564 -0.0005 -0.000703615 -0.000464361 -0.0005 -0.000148903 -0.000636616 -0.0005 
-0.00015636 -0.000534148 -0.0005 -0.000153981 -0.000971334 -0.0005 -0.000139581 -0.000867053 -0.0005 
-0.000482839 -0.000702846 -0.0005 -0.000471292 -0.000605364 -0.0005 -0.000471292 -0.000894636 -0.0005 
-0.000570965 -0.00071757 -0.0005 -0.000554433 -0.000615103 -0.0005 -0.000553903 -0.000884892 -0.0005 
-0.000639788 -0.00094438 -0.0005 -0.000639768 -0.0005557 -0.0005 -0.000307401 -0.000872936 -0.0005 
-0.000712765 -0.000988284 -0.0005 -0.000712769 -0.000511716 -0.0005 -0.000628213 -0.000619733 -0.0005 
-0.000630855 -0.000879083 -0.0005 -0.000409259 -0.000828735 -0.0005 -0.000354002 -0.000772688 -0.0005 
-0.000155373 -0.000471972 -0.0005 -0.000153127 -0.00102904 -0.0005 -0.00043748 -0.00030453 -0.0005 
-0.00043748 -0.00119547 -0.0005 -0.000699167 -0.000159585 -0.0005 -0.00102828 0.000168837 -0.0005 
-0.000700039 0.000165961 -0.0005 -0.00102854 -0.000168697 -0.0005 -0.00118217 0.000207462 -0.0005 
-0.00118217 -0.000207462 -0.0005 -0.000867762 0.00020878 -0.0005 -0.00106649 5.10348e-06 -0.0005 
-0.000667978 -6.49099e-06 -0.0005 -0.000869828 -0.000208798 -0.0005 -0.0012302 0.000214286 -0.0005 
-0.0012302 -0.000214286 -0.0005 -0.000564951 0.000166193 -0.0005 -0.000553576 -0.000170987 -0.0005 
-0.000873309 -0.00035148 -0.0005 -0.000858691 0.00035148 -0.0005 -0.000756768 0.000285545 -0.0005 
-0.000973519 -0.000286192 -0.0005 -0.00117081 7.69979e-05 -0.0005 -0.00117457 -7.52569e-05 -0.0005 
-0.000759361 -0.000294843 -0.0005 -0.00097093 0.000296588 -0.0005 -0.000780939 -8.41794e-05 -0.0005 
-0.000958969 8.1944e-05 -0.0005 -0.000777799 9.78925e-05 -0.0005 -0.000961784 -8.5049e-05 -0.0005 
-0.00124048 0.000247295 -0.0005 -0.00124048 -0.000247295 -0.0005 -0.00109281 0.000247375 -0.0005 
-0.00109296 -0.000246565 -0.0005 -0.000547839 -5.24395e-05 -0.0005 -0.00056027 6.09258e-05 -0.0005 
-0.00111765 0.000142326 -0.0005 -0.00111765 -0.000142326 -0.0005 -0.000835255 -0.00041094 -0.0005 
-0.000896745 0.00041094 -0.0005 -0.00063679 -0.000246251 -0.0005 -0.000636522 0.000241816 -0.0005 
-0.000843256 0.000133221 -0.0005 -0.000847328 -0.000131409 -0.0005 -0.000997489 -2.16615e-05 -0.0005 
-0.00073597 -1.62999e-05 -0.0005 -0.00123983 0.000149154 -0.0005 -0.00123983 -0.000149154 -0.0005 
-0.000631082 -9.03863e-05 -0.0005 -0.000535305 -0.000235043 -0.0005 -0.000537201 0.000234244 -0.0005 
-0.000642398 9.28059e-05 -0.0005 -0.000948408 0.000181543 -0.0005 -0.000945323 -0.000178683 -0.0005 
-0.00104049 7.88274e-05 -0.0005 -0.000775389 -0.000168878 -0.0005 -0.000772841 0.000169495 -0.0005 
-0.00103118 -7.38619e-05 -0.0005 -0.000958093 -0.000358769 -0.0005 -0.000773907 0.000358769 -0.0005 
-0.000900764 -0.000422113 -0.0005 -0.000831236 0.000422113 -0.0005 -0.00126124 0.000187946 -0.0005 
-0.00126124 -0.000187946 -0.0005 -0.00122671 1.92365e-06 -0.0005 -0.000477041 -0.000188051 -0.0005 
-0.000475997 0.000186364 -0.0005 -0.000801656 -0.000355671 -0.0005 -0.000929777 0.000356891 -0.0005 
-0.000837944 -0.000283426 -0.0005 -0.000894056 0.000283426 -0.0005 -0.000707968 5.64575e-05 -0.0005 
-0.000825421 0.000286843 -0.0005 -0.000906579 -0.000286843 -0.0005 -0.000678551 0.000307262 -0.0005 
-0.000706108 -7.91024e-05 -0.0005 -0.0010509 -0.00030951 -0.0005 -0.000507389 0.000105752 -0.0005 
-0.000502926 -0.00011688 -0.0005 -0.00119101 0.000251333 -0.0005 -0.00119101 -0.000251333 -0.0005 
-0.00110684 -7.12684e-05 -0.0005 -0.00118042 0.000147824 -0.0005 -0.00118069 -0.000147697 -0.0005 
-0.00127058 0.00024054 -0.0005 -0.00126931 0.000218831 -0.0005 -0.00127058 -0.00024054 -0.0005 
-0.00126931 -0.000218831 -0.0005 -0.000674075 -0.0003084 -0.0005 -0.00112605 0.000200474 -0.0005 
-0.00112608 -0.000200417 -0.0005 -0.000837574 -0.000450764 -0.0005 -0.000894426 0.000450764 -0.0005 
-0.00105507 0.000311072 -0.0005 -0.001107 7.45278e-05 -0.0005 -0.00114494 4.78174e-06 -0.0005 
-0.000511221 1.89656e-05 -0.0005 -0.000703503 0.000232229 -0.0005 -0.000489329 0.000245397 -0.0005 
-0.000489159 -0.000245894 -0.0005 -0.000708796 -0.000230896 -0.0005 -0.000631208 0.000171119 -0.0005 
-0.00101729 -0.000232673 -0.0005 -0.000889299 8.92785e-05 -0.0005 -0.000897193 -8.95957e-05 -0.0005 
-0.00077477 3.30279e-05 -0.0005 -0.000956385 2.2115e-05 -0.0005 -0.00101833 0.000235849 -0.0005 
-0.000626444 -0.000175069 -0.0005 -0.00124075 9.03378e-05 -0.0005 -0.00124242 -8.91537e-05 -0.0005 
-0.000819833 -4.59906e-05 -0.0005 -0.000799772 0.000232832 -0.0005 -0.000827413 8.10868e-05 -0.0005 
-0.000942958 -3.79434e-05 -0.0005 -0.000738514 -0.000360083 -0.0005 -0.000795249 -0.00023716 -0.0005 
-0.000593465 3.89675e-06 -0.0005 -0.000942508 -0.000238638 -0.0005 -0.00072039 0.000112396 -0.0005 
-0.00121854 0.000183264 -0.0005 -0.00121858 -0.000183245 -0.0005 -0.00113595 0.000283517 -0.0005 
-0.00113662 -0.000285639 -0.0005 -0.000939898 0.000241237 -0.0005 -0.00058355 0.000113194 -0.0005 
-0.000994597 0.00035529 -0.0005 -0.000586981 -0.000221334 -0.0005 -0.000588267 0.00021912 -0.0005 
-0.000572581 -0.000117053 -0.0005 -0.00091583 4.71675e-05 -0.0005 -0.000904292 -0.000144636 -0.0005 
-0.000904292 0.000144636 -0.0005 -0.00100396 3.32657e-05 -0.0005 -0.00098918 0.000133204 -0.0005 
-0.000986047 -0.000136339 -0.0005 -0.00107279 -0.00019438 -0.0005 -0.000740401 -0.000122936 -0.0005 
-0.00107275 0.000194842 -0.0005 -0.0011456 0.000238032 -0.0005 -0.00114577 -0.000238283 -0.0005 
-0.00106153 0.000130609 -0.0005 -0.00106376 -0.000129013 -0.0005 -0.000842259 -7.8735e-05 -0.0005 
-0.000787002 -2.26884e-05 -0.0005 -0.000586448 0.000278672 -0.0005 -0.000586127 -0.000279044 -0.0005 
-0.00087048 -0.00044547 -0.0005 -0.00086152 0.00044547 -0.0005 -0.000266167 0.000590415 -0.0005 
-0.000267039 0.000915961 -0.0005 -0.000595277 0.000918837 -0.0005 -0.000595539 0.000581303 -0.0005 
-0.000749174 0.000542538 -0.0005 -0.000749174 0.000957462 -0.0005 -0.000434763 0.00095878 -0.0005 
-0.000633495 0.000751754 -0.0005 -0.000234978 0.000743509 -0.0005 -0.000436828 0.000541202 -0.0005 
-0.0007972 0.000535714 -0.0005 -0.0007972 0.000964286 -0.0005 -0.000131951 0.000916193 -0.0005 
-0.000120576 0.000579013 -0.0005 -0.000440309 0.00039852 -0.0005 -0.000425691 0.00110148 -0.0005 
-0.000323768 0.00103554 -0.0005 -0.000540519 0.000463808 -0.0005 -0.000737497 0.000673297 -0.0005 
-0.000743731 0.00082659 -0.0005 -0.000326361 0.000455157 -0.0005 -0.00053793 0.00104659 -0.0005 
-0.000347939 0.000665821 -0.0005 -0.000344799 0.000847893 -0.0005 -0.000525969 0.000831944 -0.0005 
-0.000528784 0.000664951 -0.0005 -0.00080748 0.000502705 -0.0005 -0.00080748 0.000997295 -0.0005 
-0.00065996 0.000503435 -0.0005 -0.000659807 0.000997375 -0.0005 -0.000114839 0.00069756 -0.0005 
-0.00012727 0.000810926 -0.0005 -0.000684653 0.000607674 -0.0005 -0.000684653 0.000892326 -0.0005 
-0.000402255 0.00033906 -0.0005 -0.000463745 0.00116094 -0.0005 -0.00020379 0.000503749 -0.0005 
-0.000203522 0.000991815 -0.0005 -0.000410256 0.000883221 -0.0005 -0.000414328 0.000618591 -0.0005 
-0.000564489 0.00072778 -0.0005 -0.00030297 0.0007337 -0.0005 -0.000806831 0.000600846 -0.0005 
-0.000806831 0.000899154 -0.0005 -0.000198082 0.000659614 -0.0005 -0.000104201 0.000984244 -0.0005 
-0.000102305 0.000514957 -0.0005 -0.000209398 0.000842806 -0.0005 -0.000515408 0.000931543 -0.0005 
-0.000512323 0.000571317 -0.0005 -0.000607487 0.000828624 -0.0005 -0.000342389 0.000581122 -0.0005 
-0.000339841 0.000919495 -0.0005 -0.000598177 0.000675487 -0.0005 -0.000525093 0.000391231 -0.0005 
-0.000340907 0.00110877 -0.0005 -0.000398236 0.00117211 -0.0005 -0.000467764 0.000327887 -0.0005 
-0.00082824 0.000562054 -0.0005 -0.00082824 0.000937946 -0.0005 -0.000792673 0.000748792 -0.0005 
-4.40406e-05 0.000561949 -0.0005 -4.29968e-05 0.000936364 -0.0005 -0.000368656 0.000394329 -0.0005 
-0.000496777 0.00110689 -0.0005 -0.000404944 0.000466574 -0.0005 -0.000461056 0.00103343 -0.0005 
-0.000274968 0.000806458 -0.0005 -0.000392421 0.00103684 -0.0005 -0.000473579 0.000463157 -0.0005 
-0.000245551 0.00105726 -0.0005 -0.000273108 0.000670898 -0.0005 -0.000617905 0.00044049 -0.0005 
-7.4389e-05 0.000855752 -0.0005 -6.99258e-05 0.00063312 -0.0005 -0.000758009 0.000498667 -0.0005 
-0.000758009 0.00100133 -0.0005 -0.000674521 0.00067679 -0.0005 -0.000747394 0.000602198 -0.0005 
-0.000747848 0.000897794 -0.0005 -0.000837578 0.00050946 -0.0005 -0.000836308 0.000531169 -0.0005 
-0.000837578 0.00099054 -0.0005 -0.000836308 0.000968831 -0.0005 -0.000241075 0.0004416 -0.0005 
-0.000693065 0.000549578 -0.0005 -0.000693072 0.000950473 -0.0005 -0.000404574 0.000299236 -0.0005 
-0.000461426 0.00120076 -0.0005 -0.000622066 0.00106107 -0.0005 -0.000672818 0.000820897 -0.0005 
-0.000714008 0.000744097 -0.0005 -7.82213e-05 0.000768966 -0.0005 -0.000270503 0.000982229 -0.0005 
-5.6329e-05 0.000995397 -0.0005 -5.61586e-05 0.000504106 -0.0005 -0.000275796 0.000519104 -0.0005 
-0.000198208 0.000921119 -0.0005 -0.000584291 0.000517327 -0.0005 -0.000456299 0.000839279 -0.0005 
-0.000464193 0.000660404 -0.0005 -0.00034177 0.000783028 -0.0005 -0.000523385 0.000772048 -0.0005 
-0.000585334 0.000985849 -0.0005 -0.000193444 0.000574931 -0.0005 -0.000807637 0.00065975 -0.0005 
-0.000810429 0.000838748 -0.0005 -0.000386833 0.000704009 -0.0005 -0.000366772 0.000982832 -0.0005 
-0.000394413 0.000831087 -0.0005 -0.000509958 0.000712029 -0.0005 -0.000305514 0.000389917 -0.0005 
-0.000362249 0.00051284 -0.0005 -0.000160465 0.000753897 -0.0005 -0.000509508 0.000511362 -0.0005 
-0.00028739 0.000862396 -0.0005 -0.000785534 0.00056674 -0.0005 -0.000785598 0.000933259 -0.0005 
-0.000703615 0.000464361 -0.0005 -0.000702954 0.00103352 -0.0005 -0.000506898 0.000991237 -0.0005 
-0.00015055 0.000863194 -0.0005 -0.000561597 0.00110529 -0.0005 -0.000153981 0.000528666 -0.0005 
-0.000155267 0.00096912 -0.0005 -0.000139581 0.000632947 -0.0005 -0.00048283 0.000797154 -0.0005 
-0.000471292 0.000894636 -0.0005 -0.000471292 0.000605364 -0.0005 -0.000570965 0.00078243 -0.0005 
-0.00055618 0.00088318 -0.0005 -0.000553903 0.000615108 -0.0005 -0.000639788 0.00055562 -0.0005 
-0.000307401 0.000627064 -0.0005 -0.00063975 0.000944842 -0.0005 -0.000712765 0.000511716 -0.0005 
-0.000712603 0.000988032 -0.0005 -0.000628389 0.00088015 -0.0005 -0.000630855 0.000620917 -0.0005 
-0.000409259 0.000671265 -0.0005 -0.000354002 0.000727312 -0.0005 -0.000153448 0.00102867 -0.0005 
-0.000153127 0.000470956 -0.0005 -0.00042852 0.00119547 -0.0005 -0.00043748 0.00030453 -0.0005 

CELLS 2380 16660
6 649 608 664 1664 1623 1679 
6 570 610 625 1585 1625 1640 
6 571 611 624 1586 1626 1639 
6 603 587 669 1618 1602 1684 
6 564 603 669 1579 1618 1684 
6 610 570 613 1625 1585 1628 
6 611 571 612 1626 1586 1627 
6 600 564 669 1615 1579 1684 
6 586 187 630 1601 384 1645 
6 579 594 608 1594 1609 1623 
6 595 578 607 1610 1593 1622 
6 596 581 609 1611 1596 1624 
6 183 590 619 380 1605 1634 
6 166 591 620 363 1606 1635 
6 572 649 664 1587 1664 1679 
6 572 611 626 1587 1626 1641 
6 590 570 619 1605 1585 1634 
6 591 571 620 1606 1586 1635 
6 633 575 647 1648 1590 1662 
6 594 562 608 1609 1577 1623 
6 565 595 607 1580 1610 1622 
6 563 596 609 1578 1611 1624 
6 557 608 649 1572 1623 1664 
6 564 600 627 1579 1615 1642 
6 557 649 653 1572 1664 1668 
6 654 605 670 1669 1620 1685 
6 586 600 669 1601 1615 1684 
6 594 579 665 1609 1594 1680 
6 587 629 648 1602 1644 1663 
6 581 596 666 1596 1611 1681 
6 570 590 613 1585 1605 1628 
6 571 591 612 1586 1606 1627 
6 189 618 650 386 1633 1665 
6 617 184 651 1632 381 1666 
6 597 564 627 1612 1579 1642 
6 649 593 653 1664 1608 1668 
6 568 601 618 1583 1616 1633 
6 602 569 617 1617 1584 1632 
6 629 186 648 1644 383 1663 
6 559 605 654 1574 1620 1669 
6 600 556 627 1615 1571 1642 
6 187 586 648 384 1601 1663 
6 607 556 652 1622 1571 1667 
6 607 652 668 1622 1667 1683 
6 573 610 628 1588 1625 1643 
6 627 556 689 1642 1571 1704 
6 14 194 665 95 391 1680 
6 195 196 666 392 393 1681 
6 183 619 667 380 1634 1682 
6 196 656 666 393 1671 1681 
6 658 14 665 1673 95 1680 
6 561 566 631 1576 1581 1646 
6 567 560 632 1582 1575 1647 
6 575 616 647 1590 1631 1662 
6 566 561 672 1581 1576 1687 
6 560 567 673 1575 1582 1688 
6 573 654 670 1588 1669 1685 
6 12 185 618 93 382 1633 
6 188 11 617 385 92 1632 
6 635 561 641 1650 1576 1656 
6 560 634 642 1575 1649 1657 
6 578 597 627 1593 1612 1642 
6 8 175 613 89 372 1628 
6 1 190 612 82 387 1627 
6 604 558 659 1619 1573 1674 
6 578 595 695 1593 1610 1710 
6 597 578 696 1612 1593 1711 
6 610 573 625 1625 1588 1640 
6 611 572 624 1626 1587 1639 
6 168 3 636 365 84 1651 
6 6 173 638 87 370 1653 
6 611 191 626 1626 388 1641 
6 575 588 634 1590 1603 1649 
6 589 574 635 1604 1589 1650 
6 593 626 697 1608 1641 1712 
6 166 620 678 363 1635 1693 
6 564 597 623 1579 1612 1638 
6 603 564 623 1618 1579 1638 
6 568 618 629 1583 1633 1644 
6 11 184 617 92 381 1632 
6 189 12 618 386 93 1633 
6 579 608 671 1594 1623 1686 
6 556 600 660 1571 1615 1675 
6 588 575 633 1603 1590 1648 
6 8 613 700 89 1628 1715 
6 1 612 699 82 1627 1714 
6 617 569 630 1632 1584 1645 
6 619 570 621 1634 1585 1636 
6 620 571 622 1635 1586 1637 
6 574 616 661 1589 1631 1676 
6 616 575 662 1631 1590 1677 
6 580 606 686 1595 1621 1701 
6 563 633 647 1578 1648 1662 
6 598 635 661 1613 1650 1676 
6 634 599 662 1649 1614 1677 
6 574 589 646 1589 1604 1661 
6 604 659 676 1619 1674 1691 
6 635 574 661 1650 1589 1676 
6 575 634 662 1590 1649 1677 
6 600 586 681 1615 1601 1696 
6 585 628 674 1600 1643 1689 
6 557 603 671 1572 1618 1686 
6 626 192 697 1641 389 1712 
6 610 176 628 1625 373 1643 
6 563 609 633 1578 1624 1648 
6 569 660 681 1584 1675 1696 
6 587 603 677 1602 1618 1692 
6 608 557 671 1623 1572 1686 
6 603 557 653 1618 1572 1668 
6 622 571 624 1637 1586 1639 
6 621 570 625 1636 1585 1640 
6 606 580 685 1621 1595 1700 
6 640 592 698 1655 1607 1713 
6 558 604 686 1573 1619 1701 
6 605 559 687 1620 1574 1702 
6 660 600 681 1675 1615 1696 
6 187 188 630 384 385 1645 
6 185 186 629 382 383 1644 
6 608 562 664 1623 1577 1679 
6 652 556 660 1667 1571 1675 
6 562 594 683 1577 1609 1698 
6 595 565 684 1610 1580 1699 
6 596 563 685 1611 1578 1700 
6 609 581 687 1624 1596 1702 
6 686 606 693 1701 1621 1708 
6 162 1 699 359 82 1714 
6 179 8 700 376 89 1715 
6 606 563 646 1621 1578 1661 
6 573 628 654 1588 1643 1669 
6 616 574 647 1631 1589 1662 
6 565 607 668 1580 1622 1683 
6 175 176 610 372 373 1625 
6 190 191 611 387 388 1626 
6 645 584 675 1660 1599 1690 
6 628 177 674 1643 374 1689 
6 572 626 649 1587 1641 1664 
6 170 171 616 367 368 1631 
6 609 687 694 1624 1702 1709 
6 181 640 698 378 1655 1713 
6 687 559 694 1702 1574 1709 
6 607 578 689 1622 1593 1704 
6 592 652 660 1607 1667 1675 
6 604 562 683 1619 1577 1698 
6 565 605 684 1580 1620 1699 
6 563 606 685 1578 1621 1700 
6 558 686 693 1573 1701 1708 
6 565 621 625 1580 1636 1640 
6 562 622 624 1577 1637 1639 
6 683 580 686 1698 1595 1701 
6 581 684 687 1596 1699 1702 
6 616 171 661 1631 368 1676 
6 170 616 662 367 1631 1677 
6 628 585 654 1643 1600 1669 
6 182 183 667 379 380 1682 
6 653 593 679 1668 1608 1694 
6 579 623 658 1594 1638 1673 
6 605 565 670 1620 1580 1685 
6 634 560 673 1649 1575 1688 
6 561 635 672 1576 1650 1687 
6 589 635 641 1604 1650 1656 
6 634 588 642 1649 1603 1657 
6 194 655 665 391 1670 1680 
6 657 195 666 1672 392 1681 
6 562 604 676 1577 1619 1691 
6 566 614 637 1581 1629 1652 
6 615 567 639 1630 1582 1654 
6 688 588 694 1703 1603 1709 
6 623 597 658 1638 1612 1673 
6 646 563 647 1661 1578 1662 
6 576 619 621 1591 1634 1636 
6 577 620 622 1592 1635 1637 
6 556 607 689 1571 1622 1704 
6 164 645 675 361 1660 1690 
6 589 690 693 1604 1705 1708 
6 191 192 626 388 389 1641 
6 175 610 613 372 1625 1628 
6 190 611 612 387 1626 1627 
6 584 645 659 1599 1660 1674 
6 626 593 649 1641 1608 1664 
6 603 623 671 1618 1638 1686 
6 176 177 628 373 374 1643 
6 652 576 668 1667 1591 1683 
6 562 624 664 1577 1639 1679 
6 642 588 688 1657 1603 1703 
6 565 625 670 1580 1640 1685 
6 165 166 678 362 363 1693 
6 663 578 695 1678 1593 1710 
6 578 663 696 1593 1678 1711 
6 589 641 690 1604 1656 1705 
6 574 646 647 1589 1661 1662 
6 638 173 639 1653 370 1654 
6 168 636 637 365 1651 1652 
6 645 577 659 1660 1592 1674 
6 618 601 650 1633 1616 1665 
6 602 617 651 1617 1632 1666 
6 587 648 669 1602 1663 1684 
6 181 182 640 378 379 1655 
6 656 581 666 1671 1596 1681 
6 579 658 665 1594 1673 1680 
6 655 580 683 1670 1595 1698 
6 581 656 684 1596 1671 1699 
6 580 657 685 1595 1672 1700 
6 164 165 645 361 362 1660 
6 655 594 665 1670 1609 1680 
6 596 657 666 1611 1672 1681 
6 590 183 644 1605 380 1659 
6 591 166 643 1606 363 1658 
6 568 629 677 1583 1644 1692 
6 186 187 648 383 384 1663 
6 604 683 686 1619 1698 1701 
6 684 605 687 1699 1620 1702 
6 648 586 669 1663 1601 1684 
6 659 577 676 1674 1592 1691 
6 614 566 672 1629 1581 1687 
6 567 615 673 1582 1630 1688 
6 568 653 679 1583 1668 1694 
6 592 640 652 1607 1655 1667 
6 629 587 677 1644 1602 1692 
6 623 579 671 1638 1594 1686 
6 640 576 652 1655 1591 1667 
6 196 14 663 393 95 1678 
6 621 565 668 1636 1580 1683 
6 622 562 676 1637 1577 1691 
6 612 591 699 1627 1606 1714 
6 613 590 700 1628 1605 1715 
6 171 172 661 368 369 1676 
6 169 170 662 366 367 1677 
6 569 602 680 1584 1617 1695 
6 601 568 679 1616 1583 1694 
6 180 602 651 377 1617 1666 
6 601 193 650 1616 390 1665 
6 583 638 639 1598 1653 1654 
6 636 582 637 1651 1597 1652 
6 163 164 675 360 361 1690 
6 177 178 674 374 375 1689 
6 588 633 694 1603 1648 1709 
6 576 621 668 1591 1636 1683 
6 577 622 676 1592 1637 1691 
6 578 627 689 1593 1642 1704 
6 646 589 693 1661 1604 1708 
6 624 572 664 1639 1587 1679 
6 559 688 694 1574 1703 1709 
6 180 181 698 377 378 1713 
6 192 193 697 389 390 1712 
6 690 558 693 1705 1573 1708 
6 630 569 681 1645 1584 1696 
6 9 179 644 90 376 1659 
6 0 162 643 81 359 1658 
6 620 577 678 1635 1592 1693 
6 653 568 677 1668 1583 1692 
6 618 185 629 1633 382 1644 
6 580 655 682 1595 1670 1697 
6 657 580 682 1672 1595 1697 
6 172 598 661 369 1613 1676 
6 599 169 662 1614 366 1677 
6 188 617 630 385 1632 1645 
6 625 573 670 1640 1588 1685 
6 633 609 694 1648 1624 1709 
6 641 561 691 1656 1576 1706 
6 560 642 692 1575 1657 1707 
6 184 10 651 381 91 1666 
6 13 189 650 94 386 1665 
6 577 645 678 1592 1660 1693 
6 603 653 677 1618 1668 1692 
6 599 634 673 1614 1649 1688 
6 635 598 672 1650 1613 1687 
6 619 576 667 1634 1591 1682 
6 640 182 667 1655 379 1682 
6 194 195 682 391 392 1697 
6 193 601 697 390 1616 1712 
6 602 180 698 1617 377 1713 
6 576 640 667 1591 1655 1682 
6 606 646 693 1621 1661 1708 
6 660 569 680 1675 1584 1695 
6 601 679 697 1616 1694 1712 
6 680 602 698 1695 1617 1713 
6 586 630 681 1601 1645 1696 
6 169 599 615 366 1614 1630 
6 598 172 614 1613 369 1629 
6 644 179 700 1659 376 1715 
6 643 162 699 1658 359 1714 
6 656 196 695 1671 393 1710 
6 14 658 696 95 1673 1711 
6 675 584 691 1690 1599 1706 
6 585 674 692 1600 1689 1707 
6 645 165 678 1660 362 1693 
6 655 194 682 1670 391 1697 
6 195 657 682 392 1672 1697 
6 4 168 637 85 365 1652 
6 173 5 639 370 86 1654 
6 592 660 680 1607 1675 1695 
6 659 558 690 1674 1573 1705 
6 584 641 691 1599 1656 1706 
6 642 585 692 1657 1600 1707 
6 584 659 690 1599 1674 1705 
6 559 654 688 1574 1669 1703 
6 594 655 683 1609 1670 1698 
6 656 595 684 1671 1610 1699 
6 657 596 685 1672 1611 1700 
6 654 585 688 1669 1600 1703 
6 595 656 695 1610 1671 1710 
6 658 597 696 1673 1612 1711 
6 631 675 691 1646 1690 1706 
6 674 632 692 1689 1647 1707 
6 561 631 691 1576 1646 1706 
6 632 560 692 1647 1575 1707 
6 196 663 695 393 1678 1710 
6 663 14 696 1678 95 1711 
6 585 642 688 1600 1657 1703 
6 641 584 690 1656 1599 1705 
6 590 644 700 1605 1659 1715 
6 591 643 699 1606 1658 1714 
6 631 163 675 1646 360 1690 
6 178 632 674 375 1647 1689 
6 598 614 672 1613 1629 1687 
6 615 599 673 1630 1614 1688 
6 679 593 697 1694 1608 1712 
6 592 680 698 1607 1695 1713 
6 166 0 643 363 81 1658 
6 172 4 614 369 85 1629 
6 614 4 637 1629 85 1652 
6 5 169 615 86 366 1630 
6 5 615 639 86 1630 1654 
6 183 9 644 380 90 1659 
6 10 180 651 91 377 1666 
6 193 13 650 390 94 1665 
6 2 163 167 83 360 364 
6 3 167 636 84 364 1651 
6 174 6 638 371 87 1653 
6 174 178 7 371 375 88 
6 167 163 582 364 360 1597 
6 582 163 631 1597 360 1646 
6 167 582 636 364 1597 1651 
6 178 174 583 375 371 1598 
6 583 174 638 1598 371 1653 
6 178 583 632 375 1598 1647 
6 566 582 631 1581 1597 1646 
6 582 566 637 1597 1581 1652 
6 583 567 632 1598 1582 1647 
6 567 583 639 1582 1598 1654 
6 715 755 770 1730 1770 1785 
6 756 716 769 1771 1731 1784 
6 732 748 815 1747 1763 1830 
6 748 709 815 1763 1724 1830 
6 755 715 758 1770 1730 1773 
6 716 756 757 1731 1771 1772 
6 709 745 815 1724 1760 1830 
6 216 731 774 413 1746 1789 
6 724 739 752 1739 1754 1767 
6 726 740 753 1741 1755 1768 
6 741 726 754 1756 1741 1769 
6 736 210 764 1751 407 1779 
6 220 735 765 417 1750 1780 
6 738 701 798 1753 1716 1813 
6 716 736 764 1731 1751 1779 
6 735 715 765 1750 1730 1780 
6 777 720 792 1792 1735 1807 
6 739 707 752 1754 1722 1767 
6 740 710 753 1755 1725 1768 
6 708 741 754 1723 1756 1769 
6 799 753 809 1814 1768 1824 
6 749 800 816 1764 1815 1831 
6 745 731 815 1760 1746 1830 
6 739 724 810 1754 1739 1825 
6 773 732 793 1788 1747 1808 
6 715 735 758 1730 1750 1773 
6 736 716 757 1751 1731 1772 
6 214 762 794 411 1777 1809 
6 763 219 795 1778 416 1810 
6 701 738 797 1716 1753 1812 
6 750 701 797 1765 1716 1812 
6 742 709 784 1757 1724 1799 
6 713 746 762 1728 1761 1777 
6 747 714 763 1762 1729 1778 
6 217 773 793 414 1788 1808 
6 749 703 800 1764 1718 1815 
6 731 216 793 1746 413 1808 
6 748 701 784 1763 1716 1799 
6 702 752 796 1717 1767 1811 
6 745 709 766 1760 1724 1781 
6 709 748 784 1724 1763 1799 
6 796 752 814 1811 1767 1829 
6 756 717 772 1771 1732 1787 
6 718 755 771 1733 1770 1786 
6 750 797 822 1765 1812 1837 
6 704 753 799 1719 1768 1814 
6 27 225 810 108 422 1825 
6 227 27 811 424 108 1826 
6 764 210 813 1779 407 1828 
6 220 765 812 417 1780 1827 
6 718 799 809 1733 1814 1824 
6 802 227 811 1817 424 1826 
6 803 27 810 1818 108 1825 
6 705 711 775 1720 1726 1790 
6 712 706 776 1727 1721 1791 
6 720 761 792 1735 1776 1807 
6 711 705 817 1726 1720 1832 
6 706 712 818 1721 1727 1833 
6 800 717 816 1815 1732 1831 
6 23 215 762 104 412 1777 
6 218 24 763 415 105 1778 
6 779 705 787 1794 1720 1802 
6 706 778 788 1721 1793 1803 
6 208 20 757 405 101 1772 
6 13 193 758 94 390 1773 
6 740 726 840 1755 1741 1855 
6 726 741 841 1741 1756 1856 
6 755 718 770 1770 1733 1785 
6 717 756 769 1732 1771 1784 
6 203 18 780 400 99 1795 
6 15 198 782 96 395 1797 
6 702 745 821 1717 1760 1836 
6 720 733 778 1735 1748 1793 
6 734 719 779 1749 1734 1794 
6 763 714 773 1778 1729 1788 
6 709 742 766 1724 1757 1781 
6 24 219 763 105 416 1778 
6 214 23 762 411 104 1777 
6 745 702 805 1760 1717 1820 
6 733 720 777 1748 1735 1792 
6 724 752 821 1739 1767 1836 
6 757 20 845 1772 101 1860 
6 13 758 844 94 1773 1859 
6 713 762 774 1728 1777 1789 
6 765 715 767 1780 1730 1782 
6 716 764 768 1731 1779 1783 
6 719 761 806 1734 1776 1821 
6 761 720 807 1776 1735 1822 
6 725 751 831 1740 1766 1846 
6 708 777 792 1723 1792 1807 
6 778 744 807 1793 1759 1822 
6 743 779 806 1758 1794 1821 
6 719 734 791 1734 1749 1806 
6 779 719 806 1794 1734 1821 
6 720 778 807 1735 1793 1822 
6 731 745 826 1746 1760 1841 
6 784 701 832 1799 1716 1847 
6 730 771 819 1745 1786 1834 
6 772 729 820 1787 1744 1835 
6 207 756 772 404 1771 1787 
6 755 192 771 1770 389 1786 
6 708 754 777 1723 1769 1792 
6 784 723 811 1799 1738 1826 
6 805 713 826 1820 1728 1841 
6 748 732 823 1763 1747 1838 
6 742 784 811 1757 1799 1826 
6 701 748 798 1716 1763 1813 
6 716 768 769 1731 1783 1784 
6 767 715 770 1782 1730 1785 
6 752 702 821 1767 1717 1836 
6 751 725 830 1766 1740 1845 
6 737 785 842 1752 1800 1857 
6 786 738 843 1801 1753 1858 
6 703 749 831 1718 1764 1846 
6 701 750 832 1716 1765 1847 
6 745 805 826 1760 1820 1841 
6 215 216 774 412 413 1789 
6 217 218 773 414 415 1788 
6 753 710 809 1768 1725 1824 
6 702 796 805 1717 1811 1820 
6 707 739 829 1722 1754 1844 
6 710 740 828 1725 1755 1843 
6 741 708 830 1756 1723 1845 
6 831 751 838 1846 1766 1853 
6 224 13 844 421 94 1859 
6 20 209 845 101 406 1860 
6 745 766 821 1760 1781 1836 
6 751 708 791 1766 1723 1806 
6 724 766 803 1739 1781 1818 
6 772 717 800 1787 1732 1815 
6 718 771 799 1733 1786 1814 
6 761 719 792 1776 1734 1807 
6 752 707 814 1767 1722 1829 
6 207 208 756 404 405 1771 
6 193 192 755 390 389 1770 
6 726 753 835 1741 1768 1850 
6 754 726 835 1769 1741 1850 
6 766 742 803 1781 1757 1818 
6 771 191 819 1786 388 1834 
6 206 772 820 403 1787 1835 
6 200 201 761 397 398 1776 
6 785 212 842 1800 409 1857 
6 222 786 843 419 1801 1858 
6 796 737 805 1811 1752 1820 
6 749 707 829 1764 1722 1844 
6 750 710 828 1765 1725 1843 
6 708 751 830 1723 1766 1845 
6 703 831 838 1718 1846 1853 
6 710 767 770 1725 1782 1785 
6 768 707 769 1783 1722 1784 
6 828 723 832 1843 1738 1847 
6 829 725 831 1844 1740 1846 
6 200 761 807 397 1776 1822 
6 761 201 806 1776 398 1821 
6 729 772 800 1744 1787 1815 
6 771 730 799 1786 1745 1814 
6 210 211 813 407 408 1828 
6 221 220 812 418 417 1827 
6 738 798 825 1753 1813 1840 
6 707 749 816 1722 1764 1831 
6 778 706 818 1793 1721 1833 
6 705 779 817 1720 1794 1832 
6 734 834 838 1749 1849 1853 
6 734 779 787 1749 1794 1802 
6 778 733 788 1793 1748 1803 
6 225 801 810 422 1816 1825 
6 753 704 835 1768 1719 1850 
6 27 803 811 108 1818 1826 
6 710 750 822 1725 1765 1837 
6 711 759 781 1726 1774 1796 
6 760 712 783 1775 1727 1798 
6 833 733 839 1848 1748 1854 
6 791 708 792 1806 1723 1807 
6 754 835 839 1769 1850 1854 
6 764 721 768 1779 1736 1783 
6 722 765 767 1737 1780 1782 
6 193 755 758 390 1770 1773 
6 756 208 757 1771 405 1772 
6 192 191 771 389 388 1786 
6 206 207 772 403 404 1787 
6 721 796 814 1736 1811 1829 
6 710 770 809 1725 1785 1824 
6 734 787 834 1749 1802 1849 
6 788 733 833 1803 1748 1848 
6 835 704 839 1850 1719 1854 
6 797 722 822 1812 1737 1837 
6 769 707 816 1784 1722 1831 
6 726 808 840 1741 1823 1855 
6 808 726 841 1823 1741 1856 
6 723 784 832 1738 1799 1847 
6 719 791 792 1734 1806 1807 
6 203 780 781 400 1795 1796 
6 782 198 783 1797 395 1798 
6 762 746 794 1777 1761 1809 
6 747 763 795 1762 1778 1810 
6 793 732 815 1808 1747 1830 
6 222 221 786 419 418 1801 
6 211 212 785 408 409 1800 
6 723 802 811 1738 1817 1826 
6 724 803 810 1739 1818 1825 
6 801 725 829 1816 1740 1844 
6 802 723 828 1817 1738 1843 
6 725 804 830 1740 1819 1845 
6 766 724 821 1781 1739 1836 
6 801 739 810 1816 1754 1825 
6 803 742 811 1818 1757 1826 
6 210 736 789 407 1751 1804 
6 735 220 790 1750 417 1805 
6 773 714 823 1788 1729 1838 
6 216 217 793 413 414 1808 
6 750 828 832 1765 1843 1847 
6 749 829 831 1764 1844 1846 
6 731 793 815 1746 1808 1830 
6 759 711 817 1774 1726 1832 
6 712 760 818 1727 1775 1833 
6 798 714 825 1813 1729 1840 
6 785 737 796 1800 1752 1811 
6 738 786 797 1753 1801 1812 
6 732 773 823 1747 1788 1838 
6 721 785 796 1736 1800 1811 
6 786 722 797 1801 1737 1812 
6 226 227 808 423 424 1823 
6 707 768 814 1722 1783 1829 
6 767 710 822 1782 1725 1837 
6 736 757 845 1751 1772 1860 
6 758 735 844 1773 1750 1859 
6 201 202 806 398 399 1821 
6 199 200 807 396 397 1822 
6 746 713 824 1761 1728 1839 
6 714 747 825 1729 1762 1840 
6 746 213 794 1761 410 1809 
6 223 747 795 420 1762 1810 
6 728 782 783 1743 1797 1798 
6 780 727 781 1795 1742 1796 
6 191 190 819 388 387 1834 
6 205 206 820 402 403 1835 
6 733 777 839 1748 1792 1854 
6 768 721 814 1783 1736 1829 
6 834 703 838 1849 1718 1853 
6 722 767 822 1737 1782 1837 
6 791 734 838 1806 1749 1853 
6 770 718 809 1785 1733 1824 
6 704 833 839 1719 1848 1854 
6 212 213 842 409 410 1857 
6 223 222 843 420 419 1858 
6 713 774 826 1728 1789 1841 
6 209 21 789 406 102 1804 
6 26 224 790 107 421 1805 
6 714 798 823 1729 1813 1838 
6 218 763 773 415 1778 1788 
6 725 801 827 1740 1816 1842 
6 804 725 827 1819 1740 1842 
6 202 743 806 399 1758 1821 
6 744 199 807 1759 396 1822 
6 762 215 774 1777 412 1789 
6 717 769 816 1732 1784 1831 
6 777 754 839 1792 1769 1854 
6 787 705 836 1802 1720 1851 
6 706 788 837 1721 1803 1852 
6 22 214 794 103 411 1809 
6 219 25 795 416 106 1810 
6 798 748 823 1813 1763 1838 
6 744 778 818 1759 1793 1833 
6 779 743 817 1794 1758 1832 
6 765 722 812 1780 1737 1827 
6 721 764 813 1736 1779 1828 
6 211 785 813 408 1800 1828 
6 786 221 812 1801 418 1827 
6 225 226 827 422 423 1842 
6 213 746 842 410 1761 1857 
6 747 223 843 1762 420 1858 
6 785 721 813 1800 1736 1828 
6 722 786 812 1737 1801 1827 
6 751 791 838 1766 1806 1853 
6 713 805 824 1728 1820 1839 
6 746 824 842 1761 1839 1857 
6 825 747 843 1840 1762 1858 
6 774 731 826 1789 1746 1841 
6 743 202 759 1758 399 1774 
6 199 744 760 396 1759 1775 
6 790 224 844 1805 421 1859 
6 209 789 845 406 1804 1860 
6 227 802 840 424 1817 1855 
6 804 226 841 1819 423 1856 
6 730 819 837 1745 1834 1852 
6 820 729 836 1835 1744 1851 
6 801 225 827 1816 422 1842 
6 226 804 827 423 1819 1842 
6 17 203 781 98 400 1796 
6 198 16 783 395 97 1798 
6 805 737 824 1820 1752 1839 
6 788 730 837 1803 1745 1852 
6 729 787 836 1744 1802 1851 
6 704 799 833 1719 1814 1848 
6 800 703 834 1815 1718 1849 
6 739 801 829 1754 1816 1844 
6 740 802 828 1755 1817 1843 
6 804 741 830 1819 1756 1845 
6 799 730 833 1814 1745 1848 
6 729 800 834 1744 1815 1849 
6 802 740 840 1817 1755 1855 
6 741 804 841 1756 1819 1856 
6 775 820 836 1790 1835 1851 
6 819 776 837 1834 1791 1852 
6 705 775 836 1720 1790 1851 
6 776 706 837 1791 1721 1852 
6 808 227 840 1823 424 1855 
6 226 808 841 423 1823 1856 
6 730 788 833 1745 1803 1848 
6 787 729 834 1802 1744 1849 
6 789 736 845 1804 1751 1860 
6 735 790 844 1750 1805 1859 
6 775 205 820 1790 402 1835 
6 190 776 819 387 1791 1834 
6 743 759 817 1758 1774 1832 
6 760 744 818 1775 1759 1833 
6 824 737 842 1839 1752 1857 
6 738 825 843 1753 1840 1858 
6 16 199 760 97 396 1775 
6 16 760 783 97 1775 1798 
6 202 17 759 399 98 1774 
6 759 17 781 1774 98 1796 
6 21 210 789 102 407 1804 
6 213 22 794 410 103 1809 
6 25 223 795 106 420 1810 
6 220 26 790 417 107 1805 
6 1 197 190 82 394 387 
6 197 15 782 394 96 1797 
6 18 204 780 99 401 1795 
6 19 205 204 100 402 401 
6 190 197 728 387 394 1743 
6 190 728 776 387 1743 1791 
6 728 197 782 1743 394 1797 
6 204 205 727 401 402 1742 
6 204 727 780 401 1742 1795 
6 727 205 775 1742 402 1790 
6 711 727 775 1726 1742 1790 
6 727 711 781 1742 1726 1796 
6 728 712 776 1743 1727 1791 
6 712 728 783 1727 1743 1798 
6 939 898 954 1954 1913 1969 
6 860 900 915 1875 1915 1930 
6 861 901 914 1876 1916 1929 
6 893 877 959 1908 1892 1974 
6 854 893 959 1869 1908 1974 
6 900 860 903 1915 1875 1918 
6 901 861 902 1916 1876 1917 
6 890 854 959 1905 1869 1974 
6 876 238 920 1891 435 1935 
6 869 884 898 1884 1899 1913 
6 885 868 897 1900 1883 1912 
6 870 886 899 1885 1901 1914 
6 244 880 909 441 1895 1924 
6 223 881 910 420 1896 1925 
6 862 939 954 1877 1954 1969 
6 862 901 916 1877 1916 1931 
6 880 860 909 1895 1875 1924 
6 881 861 910 1896 1876 1925 
6 936 865 937 1951 1880 1952 
6 884 852 898 1899 1867 1913 
6 855 885 897 1870 1900 1912 
6 886 853 899 1901 1868 1914 
6 847 898 939 1862 1913 1954 
6 854 890 917 1869 1905 1932 
6 847 939 943 1862 1954 1958 
6 944 895 960 1959 1910 1975 
6 876 890 959 1891 1905 1974 
6 884 869 955 1899 1884 1970 
6 877 919 938 1892 1934 1953 
6 886 870 956 1901 1885 1971 
6 860 880 903 1875 1895 1918 
6 861 881 902 1876 1896 1917 
6 907 240 940 1922 437 1955 
6 235 908 941 432 1923 1956 
6 887 854 917 1902 1869 1932 
6 939 883 943 1954 1898 1958 
6 891 858 907 1906 1873 1922 
6 859 892 908 1874 1907 1923 
6 919 237 938 1934 434 1953 
6 849 895 944 1864 1910 1959 
6 890 846 917 1905 1861 1932 
6 238 876 938 435 1891 1953 
6 897 846 942 1912 1861 1957 
6 897 942 958 1912 1957 1973 
6 863 900 918 1878 1915 1933 
6 917 846 979 1932 1861 1994 
6 38 252 955 119 449 1970 
6 252 253 956 449 450 1971 
6 244 909 957 441 1924 1972 
6 945 252 956 1960 449 1971 
6 947 38 955 1962 119 1970 
6 850 856 921 1865 1871 1936 
6 857 851 922 1872 1866 1937 
6 865 906 937 1880 1921 1952 
6 856 850 962 1871 1865 1977 
6 851 857 963 1866 1872 1978 
6 863 944 960 1878 1959 1975 
6 239 32 907 436 113 1922 
6 31 236 908 112 433 1923 
6 925 850 931 1940 1865 1946 
6 851 924 932 1866 1939 1947 
6 868 887 917 1883 1902 1932 
6 29 231 902 110 428 1917 
6 35 249 903 116 446 1918 
6 894 848 949 1909 1863 1964 
6 868 885 985 1883 1900 2000 
6 887 868 986 1902 1883 2001 
6 900 863 915 1915 1878 1930 
6 901 862 914 1916 1877 1929 
6 228 28 926 425 109 1941 
6 37 251 928 118 448 1943 
6 901 232 916 1916 429 1931 
6 865 878 924 1880 1893 1939 
6 879 864 925 1894 1879 1940 
6 883 916 988 1898 1931 2003 
6 223 910 968 420 1925 1983 
6 854 887 913 1869 1902 1928 
6 853 936 937 1868 1951 1952 
6 893 854 913 1908 1869 1928 
6 859 908 919 1874 1923 1934 
6 235 31 908 432 112 1923 
6 32 240 907 113 437 1922 
6 869 898 961 1884 1913 1976 
6 846 890 950 1861 1905 1965 
6 864 879 923 1879 1894 1938 
6 29 902 989 110 1917 2004 
6 35 903 990 116 1918 2005 
6 907 858 920 1922 1873 1935 
6 909 860 911 1924 1875 1926 
6 910 861 912 1925 1876 1927 
6 864 906 951 1879 1921 1966 
6 906 865 952 1921 1880 1967 
6 896 871 977 1911 1886 1992 
6 888 925 951 1903 1940 1966 
6 924 889 952 1939 1904 1967 
6 878 865 936 1893 1880 1951 
6 894 949 966 1909 1964 1981 
6 925 864 951 1940 1879 1966 
6 865 924 952 1880 1939 1967 
6 890 876 971 1905 1891 1986 
6 875 918 965 1890 1933 1980 
6 847 893 961 1862 1908 1976 
6 916 233 988 1931 430 2003 
6 900 248 918 1915 445 1933 
6 899 853 923 1914 1868 1938 
6 858 950 971 1873 1965 1986 
6 877 893 967 1892 1908 1982 
6 898 847 961 1913 1862 1976 
6 893 847 943 1908 1862 1958 
6 912 861 914 1927 1876 1929 
6 911 860 915 1926 1875 1930 
6 871 896 975 1886 1911 1990 
6 930 882 987 1945 1897 2002 
6 848 894 976 1863 1909 1991 
6 895 849 977 1910 1864 1992 
6 950 890 971 1965 1905 1986 
6 238 239 920 435 436 1935 
6 236 237 919 433 434 1934 
6 898 852 954 1913 1867 1969 
6 942 846 950 1957 1861 1965 
6 852 884 973 1867 1899 1988 
6 885 855 974 1900 1870 1989 
6 853 886 975 1868 1901 1990 
6 870 899 976 1885 1914 1991 
6 896 977 983 1911 1992 1998 
6 245 35 990 442 116 2005 
6 230 29 989 427 110 2004 
6 853 896 936 1868 1911 1951 
6 863 918 944 1878 1933 1959 
6 906 864 937 1921 1879 1952 
6 855 897 958 1870 1912 1973 
6 231 232 901 428 429 1916 
6 249 248 900 446 445 1915 
6 935 874 964 1950 1889 1979 
6 918 247 965 1933 444 1980 
6 862 916 939 1877 1931 1954 
6 187 186 906 384 383 1921 
6 976 899 984 1991 1914 1999 
6 242 930 987 439 1945 2002 
6 848 976 984 1863 1991 1999 
6 897 868 979 1912 1883 1994 
6 882 942 950 1897 1957 1965 
6 894 852 973 1909 1867 1988 
6 855 895 974 1870 1910 1989 
6 896 853 975 1911 1868 1990 
6 977 849 983 1992 1864 1998 
6 855 911 915 1870 1926 1930 
6 852 912 914 1867 1927 1929 
6 973 870 976 1988 1885 1991 
6 871 974 977 1886 1989 1992 
6 906 186 951 1921 383 1966 
6 187 906 952 384 1921 1967 
6 918 875 944 1933 1890 1959 
6 243 244 957 440 441 1972 
6 943 883 970 1958 1898 1985 
6 869 913 947 1884 1928 1962 
6 895 855 960 1910 1870 1975 
6 924 851 963 1939 1866 1978 
6 850 925 962 1865 1940 1977 
6 978 878 983 1993 1893 1998 
6 879 925 931 1894 1940 1946 
6 924 878 932 1939 1893 1947 
6 252 945 955 449 1960 1970 
6 253 948 956 450 1963 1971 
6 852 894 966 1867 1909 1981 
6 856 904 927 1871 1919 1942 
6 905 857 929 1920 1872 1944 
6 913 887 947 1928 1902 1962 
6 866 909 911 1881 1924 1926 
6 867 910 912 1882 1925 1927 
6 846 897 979 1861 1912 1994 
6 221 935 964 418 1950 1979 
6 232 233 916 429 430 1931 
6 249 900 903 446 1915 1918 
6 231 901 902 428 1916 1917 
6 874 935 949 1889 1950 1964 
6 916 883 939 1931 1898 1954 
6 879 980 984 1894 1995 1999 
6 893 913 961 1908 1928 1976 
6 923 853 937 1938 1868 1952 
6 248 247 918 445 444 1933 
6 942 866 958 1957 1881 1973 
6 852 914 954 1867 1929 1969 
6 932 878 978 1947 1893 1993 
6 855 915 960 1870 1930 1975 
6 222 223 968 419 420 1983 
6 953 868 985 1968 1883 2000 
6 868 953 986 1883 1968 2001 
6 864 923 937 1879 1938 1952 
6 879 931 980 1894 1946 1995 
6 228 926 927 425 1941 1942 
6 928 251 929 1943 448 1944 
6 935 867 949 1950 1882 1964 
6 891 907 940 1906 1922 1955 
6 908 892 941 1923 1907 1956 
6 877 938 959 1892 1953 1974 
6 242 243 930 439 440 1945 
6 870 945 956 1885 1960 1971 
6 869 947 955 1884 1962 1970 
6 945 870 973 1960 1885 1988 
6 871 946 974 1886 1961 1989 
6 948 871 975 1963 1886 1990 
6 221 222 935 418 419 1950 
6 945 884 955 1960 1899 1970 
6 948 886 956 1963 1901 1971 
6 880 244 933 1895 441 1948 
6 881 223 934 1896 420 1949 
6 859 919 967 1874 1934 1982 
6 237 238 938 434 435 1953 
6 974 895 977 1989 1910 1992 
6 894 973 976 1909 1988 1991 
6 938 876 959 1953 1891 1974 
6 949 867 966 1964 1882 1981 
6 904 856 962 1919 1871 1977 
6 857 905 963 1872 1920 1978 
6 859 943 970 1874 1958 1985 
6 882 930 942 1897 1945 1957 
6 919 877 967 1934 1892 1982 
6 913 869 961 1928 1884 1976 
6 930 866 942 1945 1881 1957 
6 254 38 953 451 119 1968 
6 911 855 958 1926 1870 1973 
6 912 852 966 1927 1867 1981 
6 902 881 989 1917 1896 2004 
6 903 880 990 1918 1895 2005 
6 186 185 951 383 382 1966 
6 188 187 952 385 384 1967 
6 858 891 969 1873 1906 1984 
6 892 859 970 1907 1874 1985 
6 241 891 940 438 1906 1955 
6 892 234 941 1907 431 1956 
6 926 872 927 1941 1887 1942 
6 873 928 929 1888 1943 1944 
6 220 221 964 417 418 1979 
6 247 246 965 444 443 1980 
6 923 879 984 1938 1894 1999 
6 866 911 958 1881 1926 1973 
6 849 978 983 1864 1993 1998 
6 867 912 966 1882 1927 1981 
6 868 917 979 1883 1932 1994 
6 878 936 983 1893 1951 1998 
6 914 862 954 1929 1877 1969 
6 241 242 987 438 439 2002 
6 233 234 988 430 431 2003 
6 920 858 971 1935 1873 1986 
6 34 245 933 115 442 1948 
6 25 230 934 106 427 1949 
6 910 867 968 1925 1882 1983 
6 943 859 967 1958 1874 1982 
6 908 236 919 1923 433 1934 
6 980 848 984 1995 1863 1999 
6 946 871 972 1961 1886 1987 
6 871 948 972 1886 1963 1987 
6 185 888 951 382 1903 1966 
6 889 188 952 1904 385 1967 
6 239 907 920 436 1922 1935 
6 915 863 960 1930 1878 1975 
6 899 923 984 1914 1938 1999 
6 931 850 981 1946 1865 1996 
6 851 932 982 1866 1947 1997 
6 240 33 940 437 114 1955 
6 30 235 941 111 432 1956 
6 867 935 968 1882 1950 1983 
6 893 943 967 1908 1958 1982 
6 889 924 963 1904 1939 1978 
6 925 888 962 1940 1903 1977 
6 909 866 957 1924 1881 1972 
6 930 243 957 1945 440 1972 
6 253 254 972 450 451 1987 
6 891 241 987 1906 438 2002 
6 234 892 988 431 1907 2003 
6 866 930 957 1881 1945 1972 
6 936 896 983 1951 1911 1998 
6 950 858 969 1965 1873 1984 
6 969 891 987 1984 1906 2002 
6 892 970 988 1907 1985 2003 
6 876 920 971 1891 1935 1986 
6 888 185 904 1903 382 1919 
6 188 889 905 385 1904 1920 
6 933 245 990 1948 442 2005 
6 934 230 989 1949 427 2004 
6 946 254 985 1961 451 2000 
6 38 947 986 119 1962 2001 
6 875 965 982 1890 1980 1997 
6 964 874 981 1979 1889 1996 
6 935 222 968 1950 419 1983 
6 254 946 972 451 1961 1987 
6 948 253 972 1963 450 1987 
6 251 11 929 448 92 1944 
6 12 228 927 93 425 1942 
6 882 950 969 1897 1965 1984 
6 949 848 980 1964 1863 1995 
6 932 875 982 1947 1890 1997 
6 874 931 981 1889 1946 1996 
6 874 949 980 1889 1964 1995 
6 849 944 978 1864 1959 1993 
6 884 945 973 1899 1960 1988 
6 946 885 974 1961 1900 1989 
6 886 948 975 1901 1963 1990 
6 944 875 978 1959 1890 1993 
6 885 946 985 1900 1961 2000 
6 947 887 986 1962 1902 2001 
6 921 964 981 1936 1979 1996 
6 965 922 982 1980 1937 1997 
6 850 921 981 1865 1936 1996 
6 922 851 982 1937 1866 1997 
6 254 953 985 451 1968 2000 
6 953 38 986 1968 119 2001 
6 875 932 978 1890 1947 1993 
6 931 874 980 1946 1889 1995 
6 880 933 990 1895 1948 2005 
6 881 934 989 1896 1949 2004 
6 921 220 964 1936 417 1979 
6 246 922 965 443 1937 1980 
6 888 904 962 1903 1919 1977 
6 905 889 963 1920 1904 1978 
6 882 969 987 1897 1984 2002 
6 970 883 988 1985 1898 2003 
6 11 188 905 92 385 1920 
6 11 905 929 92 1920 1944 
6 185 12 904 382 93 1919 
6 904 12 927 1919 93 1942 
6 223 25 934 420 106 1949 
6 234 30 941 431 111 1956 
6 33 241 940 114 438 1955 
6 244 34 933 441 115 1948 
6 26 220 229 107 417 426 
6 28 229 926 109 426 1941 
6 36 250 246 117 447 443 
6 250 37 928 447 118 1943 
6 229 220 872 426 417 1887 
6 872 220 921 1887 417 1936 
6 229 872 926 426 1887 1941 
6 246 250 873 443 447 1888 
6 246 873 922 443 1888 1937 
6 873 250 928 1888 447 1943 
6 856 872 921 1871 1887 1936 
6 872 856 927 1887 1871 1942 
6 873 857 922 1888 1872 1937 
6 857 873 929 1872 1888 1944 
6 1084 1042 1100 2099 2057 2115 
6 1005 1045 1060 2020 2060 2075 
6 1006 1046 1059 2021 2061 2074 
6 1022 1038 1104 2037 2053 2119 
6 1038 999 1104 2053 2014 2119 
6 1045 1005 1047 2060 2020 2062 
6 1046 1006 1048 2061 2021 2063 
6 999 1035 1104 2014 2050 2119 
6 258 1021 1064 455 2036 2079 
6 1014 1029 1042 2029 2044 2057 
6 1016 1030 1043 2031 2045 2058 
6 1031 1016 1044 2046 2031 2059 
6 180 1026 1055 377 2041 2070 
6 265 1025 1054 462 2040 2069 
6 1028 991 1088 2043 2006 2103 
6 1007 1084 1100 2022 2099 2115 
6 1007 1046 1061 2022 2061 2076 
6 1026 1006 1055 2041 2021 2070 
6 1025 1005 1054 2040 2020 2069 
6 1067 1010 1082 2082 2025 2097 
6 1029 997 1042 2044 2012 2057 
6 1030 1000 1043 2045 2015 2058 
6 998 1031 1044 2013 2046 2059 
6 1089 1043 1099 2104 2058 2114 
6 992 1042 1084 2007 2057 2099 
6 1035 1021 1104 2050 2036 2119 
6 1029 1014 1101 2044 2029 2116 
6 1063 1022 1083 2078 2037 2098 
6 1005 1025 1047 2020 2040 2062 
6 1006 1026 1048 2021 2041 2063 
6 256 1052 1085 453 2067 2100 
6 1053 261 1086 2068 458 2101 
6 991 1028 1087 2006 2043 2102 
6 1040 991 1087 2055 2006 2102 
6 1032 999 1074 2047 2014 2089 
6 1003 1036 1052 2018 2051 2067 
6 1037 1004 1053 2052 2019 2068 
6 259 1063 1083 456 2078 2098 
6 1021 258 1083 2036 455 2098 
6 1038 991 1074 2053 2006 2089 
6 1035 999 1056 2050 2014 2071 
6 999 1038 1074 2014 2053 2089 
6 1008 1045 1062 2023 2060 2077 
6 1040 1087 1110 2055 2102 2125 
6 994 1043 1089 2009 2058 2104 
6 49 279 1101 130 476 2116 
6 281 49 1102 478 130 2117 
6 265 1054 1103 462 2069 2118 
6 1008 1089 1099 2023 2104 2114 
6 1091 281 1102 2106 478 2117 
6 1092 49 1101 2107 130 2116 
6 995 1001 1065 2010 2016 2080 
6 1002 996 1066 2017 2011 2081 
6 1010 1051 1082 2025 2066 2097 
6 1001 995 1105 2016 2010 2120 
6 996 1002 1106 2011 2017 2121 
6 39 257 1052 120 454 2067 
6 260 40 1053 457 121 2068 
6 1069 995 1076 2084 2010 2091 
6 996 1068 1077 2011 2083 2092 
6 43 267 1047 124 464 2062 
6 36 246 1048 117 443 2063 
6 1039 993 1094 2054 2008 2109 
6 1030 1016 1130 2045 2031 2145 
6 1016 1031 1131 2031 2046 2146 
6 1045 1008 1060 2060 2023 2075 
6 1046 1007 1059 2061 2022 2074 
6 277 48 1070 474 129 2085 
6 45 272 1072 126 469 2087 
6 992 1035 1109 2007 2050 2124 
6 1046 247 1061 2061 444 2076 
6 1010 1023 1068 2025 2038 2083 
6 1024 1009 1069 2039 2024 2084 
6 1027 1061 1132 2042 2076 2147 
6 180 1055 1113 377 2070 2128 
6 1053 1004 1063 2068 2019 2078 
6 999 1032 1056 2014 2047 2071 
6 40 261 1053 121 458 2068 
6 256 39 1052 453 120 2067 
6 1035 992 1095 2050 2007 2110 
6 1023 1010 1067 2038 2025 2082 
6 1014 1042 1109 2029 2057 2124 
6 36 1048 1134 117 2063 2149 
6 43 1047 1135 124 2062 2150 
6 1003 1052 1064 2018 2067 2079 
6 1054 1005 1057 2069 2020 2072 
6 1055 1006 1058 2070 2021 2073 
6 1051 1010 1097 2066 2025 2112 
6 1009 1051 1096 2024 2066 2111 
6 1015 1041 1122 2030 2056 2137 
6 998 1067 1082 2013 2082 2097 
6 1033 1069 1096 2048 2084 2111 
6 1068 1034 1097 2083 2049 2112 
6 1009 1024 1081 2024 2039 2096 
6 1039 1094 1111 2054 2109 2126 
6 1069 1009 1096 2084 2024 2111 
6 1010 1068 1097 2025 2083 2112 
6 1021 1035 1116 2036 2050 2131 
6 1074 991 1121 2089 2006 2136 
6 1020 1062 1108 2035 2077 2123 
6 1061 248 1132 2076 445 2147 
6 1045 268 1062 2060 465 2077 
6 998 1044 1067 2013 2059 2082 
6 1074 1013 1102 2089 2028 2117 
6 1095 1003 1116 2110 2018 2131 
6 1038 1022 1112 2053 2037 2127 
6 1032 1074 1102 2047 2089 2117 
6 991 1038 1088 2006 2053 2103 
6 1058 1006 1059 2073 2021 2074 
6 1057 1005 1060 2072 2020 2075 
6 1042 992 1109 2057 2007 2124 
6 1041 1015 1120 2056 2030 2135 
6 1075 1028 1133 2090 2043 2148 
6 993 1039 1122 2008 2054 2137 
6 991 1040 1121 2006 2055 2136 
6 1035 1095 1116 2050 2110 2131 
6 257 258 1064 454 455 2079 
6 259 260 1063 456 457 2078 
6 1042 997 1100 2057 2012 2115 
6 1043 1000 1099 2058 2015 2114 
6 997 1029 1119 2012 2044 2134 
6 1000 1030 1118 2015 2045 2133 
6 1031 998 1120 2046 2013 2135 
6 1122 1041 1128 2137 2056 2143 
6 255 36 1134 452 117 2149 
6 266 43 1135 463 124 2150 
6 1035 1056 1109 2050 2071 2124 
6 1041 998 1081 2056 2013 2096 
6 1014 1056 1092 2029 2071 2107 
6 1008 1062 1089 2023 2077 2104 
6 1051 1009 1082 2066 2024 2097 
6 246 247 1046 443 444 2061 
6 267 268 1045 464 465 2060 
6 1016 1043 1124 2031 2058 2139 
6 1044 1016 1124 2059 2031 2139 
6 1080 1019 1107 2095 2034 2122 
6 1056 1032 1092 2071 2047 2107 
6 1062 269 1108 2077 466 2123 
6 1007 1061 1084 2022 2076 2099 
6 275 274 1051 472 471 2066 
6 263 1075 1133 460 2090 2148 
6 992 1084 1095 2007 2099 2110 
6 1039 997 1119 2054 2012 2134 
6 1040 1000 1118 2055 2015 2133 
6 998 1041 1120 2013 2056 2135 
6 993 1122 1128 2008 2137 2143 
6 1000 1057 1060 2015 2072 2075 
6 997 1058 1059 2012 2073 2074 
6 1119 1015 1122 2134 2030 2137 
6 1118 1013 1121 2133 2028 2136 
6 275 1051 1097 472 2066 2112 
6 1051 274 1096 2066 471 2111 
6 1062 1020 1089 2077 2035 2104 
6 264 265 1103 461 462 2118 
6 1028 1088 1115 2043 2103 2130 
6 1068 996 1106 2083 2011 2121 
6 995 1069 1105 2010 2084 2120 
6 1024 1069 1076 2039 2084 2091 
6 1068 1023 1077 2083 2038 2092 
6 279 1090 1101 476 2105 2116 
6 1043 994 1124 2058 2009 2139 
6 49 1092 1102 130 2107 2117 
6 1084 1027 1095 2099 2042 2110 
6 997 1039 1111 2012 2054 2126 
6 1000 1040 1110 2015 2055 2125 
6 1001 1049 1071 2016 2064 2086 
6 1050 1002 1073 2065 2017 2088 
6 1123 1023 1129 2138 2038 2144 
6 1081 998 1082 2096 2013 2097 
6 1044 1124 1129 2059 2139 2144 
6 1011 1054 1057 2026 2069 2072 
6 1012 1055 1058 2027 2070 2073 
6 182 1080 1107 379 2095 2122 
6 1024 1125 1128 2039 2140 2143 
6 247 248 1061 444 445 2076 
6 267 1045 1047 464 2060 2062 
6 246 1046 1048 443 2061 2063 
6 1019 1080 1094 2034 2095 2109 
6 1061 1027 1084 2076 2042 2099 
6 268 269 1062 465 466 2077 
6 1000 1060 1099 2015 2075 2114 
6 997 1059 1100 2012 2074 2115 
6 1077 1023 1123 2092 2038 2138 
6 1124 994 1129 2139 2009 2144 
6 1087 1011 1110 2102 2026 2125 
6 181 180 1113 378 377 2128 
6 1016 1098 1130 2031 2113 2145 
6 1098 1016 1131 2113 2031 2146 
6 1013 1074 1121 2028 2089 2136 
6 1024 1076 1125 2039 2091 2140 
6 1009 1081 1082 2024 2096 2097 
6 1072 272 1073 2087 469 2088 
6 277 1070 1071 474 2085 2086 
6 1080 1012 1094 2095 2027 2109 
6 1052 1036 1085 2067 2051 2100 
6 1037 1053 1086 2052 2068 2101 
6 1083 1022 1104 2098 2037 2119 
6 263 264 1075 460 461 2090 
6 1013 1091 1102 2028 2106 2117 
6 1014 1092 1101 2029 2107 2116 
6 1090 1015 1119 2105 2030 2134 
6 1091 1013 1118 2106 2028 2133 
6 1015 1093 1120 2030 2108 2135 
6 1056 1014 1109 2071 2029 2124 
6 182 181 1080 379 378 2095 
6 1090 1029 1101 2105 2044 2116 
6 1092 1032 1102 2107 2047 2117 
6 1025 265 1078 2040 462 2093 
6 1026 180 1079 2041 377 2094 
6 1063 1004 1112 2078 2019 2127 
6 258 259 1083 455 456 2098 
6 1040 1118 1121 2055 2133 2136 
6 1039 1119 1122 2054 2134 2137 
6 1021 1083 1104 2036 2098 2119 
6 1094 1012 1111 2109 2027 2126 
6 1049 1001 1105 2064 2016 2120 
6 1002 1050 1106 2017 2065 2121 
6 1088 1004 1115 2103 2019 2130 
6 1028 1075 1087 2043 2090 2102 
6 1022 1063 1112 2037 2078 2127 
6 1075 1011 1087 2090 2026 2102 
6 280 281 1098 477 478 2113 
6 1058 997 1111 2073 2012 2126 
6 1057 1000 1110 2072 2015 2125 
6 1047 1025 1135 2062 2040 2150 
6 1048 1026 1134 2063 2041 2149 
6 274 273 1096 471 470 2111 
6 276 275 1097 473 472 2112 
6 1036 1003 1114 2051 2018 2129 
6 1004 1037 1115 2019 2052 2130 
6 1036 249 1085 2051 446 2100 
6 262 1037 1086 459 2052 2101 
6 1070 1017 1071 2085 2032 2086 
6 1018 1072 1073 2033 2087 2088 
6 183 182 1107 380 379 2122 
6 269 270 1108 466 467 2123 
6 1023 1067 1129 2038 2082 2144 
6 1011 1057 1110 2026 2072 2125 
6 1012 1058 1111 2027 2073 2126 
6 1081 1024 1128 2096 2039 2143 
6 1059 1007 1100 2074 2022 2115 
6 1060 1008 1099 2075 2023 2114 
6 994 1123 1129 2009 2138 2144 
6 248 249 1132 445 446 2147 
6 262 263 1133 459 460 2148 
6 1125 993 1128 2140 2008 2143 
6 1003 1064 1116 2018 2079 2131 
6 42 266 1078 123 463 2093 
6 10 255 1079 91 452 2094 
6 1055 1012 1113 2070 2027 2128 
6 1004 1088 1112 2019 2103 2127 
6 260 1053 1063 457 2068 2078 
6 1015 1090 1117 2030 2105 2132 
6 1093 1015 1117 2108 2030 2132 
6 273 1033 1096 470 2048 2111 
6 1034 276 1097 2049 473 2112 
6 1052 257 1064 2067 454 2079 
6 1067 1044 1129 2082 2059 2144 
6 1076 995 1126 2091 2010 2141 
6 996 1077 1127 2011 2092 2142 
6 35 256 1085 116 453 2100 
6 261 41 1086 458 122 2101 
6 1012 1080 1113 2027 2095 2128 
6 1088 1038 1112 2103 2053 2127 
6 1034 1068 1106 2049 2083 2121 
6 1069 1033 1105 2084 2048 2120 
6 1054 1011 1103 2069 2026 2118 
6 1075 264 1103 2090 461 2118 
6 279 280 1117 476 477 2132 
6 249 1036 1132 446 2051 2147 
6 1037 262 1133 2052 459 2148 
6 1011 1075 1103 2026 2090 2118 
6 1041 1081 1128 2056 2096 2143 
6 1003 1095 1114 2018 2110 2129 
6 1036 1114 1132 2051 2129 2147 
6 1115 1037 1133 2130 2052 2148 
6 1064 1021 1116 2079 2036 2131 
6 276 1034 1050 473 2049 2065 
6 1033 273 1049 2048 470 2064 
6 1078 266 1135 2093 463 2150 
6 1079 255 1134 2094 452 2149 
6 281 1091 1130 478 2106 2145 
6 1093 280 1131 2108 477 2146 
6 1107 1019 1126 2122 2034 2141 
6 1020 1108 1127 2035 2123 2142 
6 1080 181 1113 2095 378 2128 
6 1090 279 1117 2105 476 2132 
6 280 1093 1117 477 2108 2132 
6 272 46 1073 469 127 2088 
6 47 277 1071 128 474 2086 
6 1095 1027 1114 2110 2042 2129 
6 1094 993 1125 2109 2008 2140 
6 1019 1076 1126 2034 2091 2141 
6 1077 1020 1127 2092 2035 2142 
6 1019 1094 1125 2034 2109 2140 
6 994 1089 1123 2009 2104 2138 
6 1030 1091 1118 2045 2106 2133 
6 1029 1090 1119 2044 2105 2134 
6 1093 1031 1120 2108 2046 2135 
6 1089 1020 1123 2104 2035 2138 
6 1091 1030 1130 2106 2045 2145 
6 1031 1093 1131 2046 2108 2146 
6 1065 1107 1126 2080 2122 2141 
6 1108 1066 1127 2123 2081 2142 
6 995 1065 1126 2010 2080 2141 
6 1066 996 1127 2081 2011 2142 
6 1098 281 1130 2113 478 2145 
6 280 1098 1131 477 2113 2146 
6 1020 1077 1123 2035 2092 2138 
6 1076 1019 1125 2091 2034 2140 
6 1025 1078 1135 2040 2093 2150 
6 1026 1079 1134 2041 2094 2149 
6 1065 183 1107 2080 380 2122 
6 270 1066 1108 467 2081 2123 
6 1033 1049 1105 2048 2064 2120 
6 1050 1034 1106 2065 2049 2121 
6 1114 1027 1132 2129 2042 2147 
6 1028 1115 1133 2043 2130 2148 
6 180 10 1079 377 91 2094 
6 249 35 1085 446 116 2100 
6 41 262 1086 122 459 2101 
6 265 42 1078 462 123 2093 
6 46 276 1050 127 473 2065 
6 46 1050 1073 127 2065 2088 
6 273 47 1049 470 128 2064 
6 1049 47 1071 2064 128 2086 
6 9 183 278 90 380 475 
6 44 271 270 125 468 467 
6 271 45 1072 468 126 2087 
6 48 278 1070 129 475 2085 
6 278 183 1017 475 380 2032 
6 1017 183 1065 2032 380 2080 
6 270 271 1018 467 468 2033 
6 270 1018 1066 467 2033 2081 
6 1018 271 1072 2033 468 2087 
6 278 1017 1070 475 2032 2085 
6 1001 1017 1065 2016 2032 2080 
6 1017 1001 1071 2032 2016 2086 
6 1018 1002 1066 2033 2017 2081 
6 1002 1018 1073 2017 2033 2088 
6 1150 1190 1205 2165 2205 2220 
6 1191 1151 1204 2206 2166 2219 
6 1183 1167 1250 2198 2182 2265 
6 1144 1183 1250 2159 2198 2265 
6 1190 1150 1192 2205 2165 2207 
6 1151 1191 1193 2166 2206 2208 
6 1180 1144 1250 2195 2159 2265 
6 1166 275 1210 2181 472 2225 
6 1175 1158 1187 2190 2173 2202 
6 1159 1174 1188 2174 2189 2203 
6 1176 1161 1189 2191 2176 2204 
6 1170 178 1199 2185 375 2214 
6 287 1171 1200 484 2186 2215 
6 1137 1173 1233 2152 2188 2248 
6 1151 1170 1199 2166 2185 2214 
6 1171 1150 1200 2186 2165 2215 
6 1155 1226 1227 2170 2241 2242 
6 1174 1142 1188 2189 2157 2203 
6 1145 1175 1187 2160 2190 2202 
6 1143 1176 1189 2158 2191 2204 
6 1144 1180 1206 2159 2195 2221 
6 1234 1185 1252 2249 2200 2267 
6 1184 1235 1251 2199 2250 2266 
6 1166 1180 1250 2181 2195 2265 
6 1174 1159 1244 2189 2174 2259 
6 1167 1209 1228 2182 2224 2243 
6 1161 1176 1245 2176 2191 2260 
6 1150 1171 1192 2165 2186 2207 
6 1170 1151 1193 2185 2166 2208 
6 1197 283 1230 2212 480 2245 
6 282 1198 1229 479 2213 2244 
6 1177 1144 1206 2192 2159 2221 
6 1173 1137 1232 2188 2152 2247 
6 1148 1181 1198 2163 2196 2213 
6 1182 1149 1197 2197 2164 2212 
6 1209 274 1228 2224 471 2243 
6 1139 1185 1234 2154 2200 2249 
6 1184 1138 1235 2199 2153 2250 
6 1180 1136 1206 2195 2151 2221 
6 275 1166 1228 472 2181 2243 
6 1137 1188 1232 2152 2203 2247 
6 1187 1136 1231 2202 2151 2246 
6 1232 1188 1249 2247 2203 2264 
6 1187 1231 1248 2202 2246 2263 
6 1191 1152 1208 2206 2167 2223 
6 1153 1190 1207 2168 2205 2222 
6 1206 1136 1270 2221 2151 2285 
6 60 306 1244 141 503 2259 
6 307 308 1245 504 505 2260 
6 1199 178 1247 2214 375 2262 
6 287 1200 1246 484 2215 2261 
6 308 1237 1245 505 2252 2260 
6 1238 60 1244 2253 141 2259 
6 1146 1140 1211 2161 2155 2226 
6 1141 1147 1212 2156 2162 2227 
6 1196 1155 1227 2211 2170 2242 
6 1140 1146 1254 2155 2161 2269 
6 1147 1141 1255 2162 2156 2270 
6 1153 1234 1252 2168 2249 2267 
6 1235 1152 1251 2250 2167 2266 
6 47 273 1198 128 470 2213 
6 276 46 1197 473 127 2212 
6 1140 1214 1222 2155 2229 2237 
6 1215 1141 1223 2230 2156 2238 
6 1158 1177 1206 2173 2192 2221 
6 52 289 1192 133 486 2207 
6 301 59 1193 498 140 2208 
6 1158 1175 1275 2173 2190 2290 
6 1177 1158 1276 2192 2173 2291 
6 1190 1153 1205 2205 2168 2220 
6 1152 1191 1204 2167 2206 2219 
6 54 294 1216 135 491 2231 
6 299 57 1218 496 138 2233 
6 1154 1168 1214 2169 2183 2229 
6 1169 1155 1215 2184 2170 2230 
6 1144 1177 1203 2159 2192 2218 
6 1226 1143 1227 2241 2158 2242 
6 1183 1144 1203 2198 2159 2218 
6 1148 1198 1209 2163 2213 2224 
6 46 283 1197 127 480 2212 
6 282 47 1198 479 128 2213 
6 1159 1188 1253 2174 2203 2268 
6 1136 1180 1240 2151 2195 2255 
6 1168 1154 1213 2183 2169 2228 
6 1193 59 1279 2208 140 2294 
6 52 1192 1280 133 2207 2295 
6 1197 1149 1210 2212 2164 2225 
6 1151 1199 1201 2166 2214 2216 
6 1200 1150 1202 2215 2165 2217 
6 1196 1154 1241 2211 2169 2256 
6 1155 1196 1242 2170 2211 2257 
6 1160 1186 1266 2175 2201 2281 
6 1214 1178 1241 2229 2193 2256 
6 1179 1215 1242 2194 2230 2257 
6 1155 1169 1226 2170 2184 2241 
6 1154 1214 1241 2169 2229 2256 
6 1215 1155 1242 2230 2170 2257 
6 1180 1166 1261 2195 2181 2276 
6 1164 1207 1256 2179 2222 2271 
6 1208 1165 1257 2223 2180 2272 
6 1137 1183 1253 2152 2198 2268 
6 302 1191 1208 499 2206 2223 
6 1190 290 1207 2205 487 2222 
6 1143 1189 1213 2158 2204 2228 
6 1149 1240 1261 2164 2255 2276 
6 1167 1183 1258 2182 2198 2273 
6 1188 1137 1253 2203 2152 2268 
6 1183 1137 1233 2198 2152 2248 
6 1151 1201 1204 2166 2216 2219 
6 1202 1150 1205 2217 2165 2220 
6 1186 1160 1265 2201 2175 2280 
6 1221 1172 1278 2236 2187 2293 
6 1173 1220 1277 2188 2235 2292 
6 1138 1184 1266 2153 2199 2281 
6 1185 1139 1267 2200 2154 2282 
6 1240 1180 1261 2255 2195 2276 
6 275 276 1210 472 473 2225 
6 273 274 1209 470 471 2224 
6 1231 1136 1240 2246 2151 2255 
6 1142 1174 1263 2157 2189 2278 
6 1175 1145 1264 2190 2160 2279 
6 1176 1143 1265 2191 2158 2280 
6 1189 1161 1267 2204 2176 2282 
6 1266 1186 1273 2281 2201 2288 
6 59 305 1279 140 502 2294 
6 288 52 1280 485 133 2295 
6 1186 1143 1226 2201 2158 2241 
6 1153 1207 1234 2168 2222 2249 
6 1208 1152 1235 2223 2167 2250 
6 1154 1196 1227 2169 2211 2242 
6 1188 1142 1249 2203 2157 2264 
6 1145 1187 1248 2160 2202 2263 
6 289 290 1190 486 487 2205 
6 302 301 1191 499 498 2206 
6 1207 291 1256 2222 488 2271 
6 303 1208 1257 500 2223 2272 
6 296 297 1196 493 494 2211 
6 1189 1267 1274 2204 2282 2289 
6 1220 176 1277 2235 373 2292 
6 285 1221 1278 482 2236 2293 
6 1267 1139 1274 2282 2154 2289 
6 1187 1158 1270 2202 2173 2285 
6 1172 1231 1240 2187 2246 2255 
6 1184 1142 1263 2199 2157 2278 
6 1145 1185 1264 2160 2200 2279 
6 1143 1186 1265 2158 2201 2280 
6 1138 1266 1273 2153 2281 2288 
6 1145 1202 1205 2160 2217 2220 
6 1201 1142 1204 2216 2157 2219 
6 1263 1160 1266 2278 2175 2281 
6 1161 1264 1267 2176 2279 2282 
6 296 1196 1241 493 2211 2256 
6 1196 297 1242 2211 494 2257 
6 1207 1164 1234 2222 2179 2249 
6 1165 1208 1235 2180 2223 2250 
6 178 177 1247 375 374 2262 
6 286 287 1246 483 484 2261 
6 1233 1173 1259 2248 2188 2274 
6 1159 1203 1238 2174 2218 2253 
6 1142 1184 1251 2157 2199 2266 
6 1185 1145 1252 2200 2160 2267 
6 1214 1140 1254 2229 2155 2269 
6 1141 1215 1255 2156 2230 2270 
6 1169 1269 1273 2184 2284 2288 
6 1214 1168 1222 2229 2183 2237 
6 1169 1215 1223 2184 2230 2238 
6 306 1236 1244 503 2251 2259 
6 1239 307 1245 2254 504 2260 
6 1194 1146 1217 2209 2161 2232 
6 1147 1195 1219 2162 2210 2234 
6 1268 1168 1274 2283 2183 2289 
6 1203 1177 1238 2218 2192 2253 
6 1199 1156 1201 2214 2171 2216 
6 1157 1200 1202 2172 2215 2217 
6 1136 1187 1270 2151 2202 2285 
6 289 1190 1192 486 2205 2207 
6 1191 301 1193 2206 498 2208 
6 1183 1203 1253 2198 2218 2268 
6 1143 1213 1227 2158 2228 2242 
6 290 291 1207 487 488 2222 
6 303 302 1208 500 499 2223 
6 1156 1232 1249 2171 2247 2264 
6 1231 1157 1248 2246 2172 2263 
6 1222 1168 1268 2237 2183 2283 
6 1169 1223 1269 2184 2238 2284 
6 1145 1205 1252 2160 2220 2267 
6 1204 1142 1251 2219 2157 2266 
6 1243 1158 1275 2258 2173 2290 
6 1158 1243 1276 2173 2258 2291 
6 1213 1154 1227 2228 2169 2242 
6 1216 294 1217 2231 491 2232 
6 299 1218 1219 496 2233 2234 
6 1182 1197 1230 2197 2212 2245 
6 1198 1181 1229 2213 2196 2244 
6 1167 1228 1250 2182 2243 2265 
6 177 176 1220 374 373 2235 
6 285 286 1221 482 483 2236 
6 1237 1161 1245 2252 2176 2260 
6 1159 1238 1244 2174 2253 2259 
6 1236 1160 1263 2251 2175 2278 
6 1161 1237 1264 2176 2252 2279 
6 1160 1239 1265 2175 2254 2280 
6 1236 1174 1244 2251 2189 2259 
6 1176 1239 1245 2191 2254 2260 
6 1171 287 1224 2186 484 2239 
6 178 1170 1225 375 2185 2240 
6 1148 1209 1258 2163 2224 2273 
6 274 275 1228 471 472 2243 
6 1184 1263 1266 2199 2278 2281 
6 1264 1185 1267 2279 2200 2282 
6 1228 1166 1250 2243 2181 2265 
6 1146 1194 1254 2161 2209 2269 
6 1195 1147 1255 2210 2162 2270 
6 1148 1233 1259 2163 2248 2274 
6 1172 1221 1231 2187 2236 2246 
6 1220 1173 1232 2235 2188 2247 
6 1209 1167 1258 2224 2182 2273 
6 1203 1159 1253 2218 2174 2268 
6 1221 1157 1231 2236 2172 2246 
6 1156 1220 1232 2171 2235 2247 
6 308 60 1243 505 141 2258 
6 1202 1145 1248 2217 2160 2263 
6 1142 1201 1249 2157 2216 2264 
6 1192 1171 1280 2207 2186 2295 
6 1170 1193 1279 2185 2208 2294 
6 295 296 1241 492 493 2256 
6 297 298 1242 494 495 2257 
6 1181 1148 1259 2196 2163 2274 
6 1149 1182 1260 2164 2197 2275 
6 1181 175 1229 2196 372 2244 
6 284 1182 1230 481 2197 2245 
6 1162 1216 1217 2177 2231 2232 
6 1218 1163 1219 2233 2178 2234 
6 291 292 1256 488 489 2271 
6 304 303 1257 501 500 2272 
6 1168 1213 1274 2183 2228 2289 
6 1201 1156 1249 2216 2171 2264 
6 1157 1202 1248 2172 2217 2263 
6 1269 1138 1273 2284 2153 2288 
6 1158 1206 1270 2173 2221 2285 
6 1226 1169 1273 2241 2184 2288 
6 1139 1268 1274 2154 2283 2289 
6 284 285 1278 481 482 2293 
6 176 175 1277 373 372 2292 
6 1210 1149 1261 2225 2164 2276 
6 51 288 1224 132 485 2239 
6 305 7 1225 502 88 2240 
6 1233 1148 1258 2248 2163 2273 
6 1198 273 1209 2213 470 2224 
6 1160 1236 1262 2175 2251 2277 
6 1239 1160 1262 2254 2175 2277 
6 1178 295 1241 2193 492 2256 
6 298 1179 1242 495 2194 2257 
6 276 1197 1210 473 2212 2225 
6 1152 1204 1251 2167 2219 2266 
6 1205 1153 1252 2220 2168 2267 
6 1213 1189 1274 2228 2204 2289 
6 1140 1222 1271 2155 2237 2286 
6 1223 1141 1272 2238 2156 2287 
6 8 282 1229 89 479 2244 
6 283 50 1230 480 131 2245 
6 1183 1233 1258 2198 2248 2273 
6 1178 1214 1254 2193 2229 2269 
6 1215 1179 1255 2230 2194 2270 
6 1200 1157 1246 2215 2172 2261 
6 1156 1199 1247 2171 2214 2262 
6 177 1220 1247 374 2235 2262 
6 1221 286 1246 2236 483 2261 
6 306 307 1262 503 504 2277 
6 175 1181 1277 372 2196 2292 
6 1182 284 1278 2197 481 2293 
6 1157 1221 1246 2172 2236 2261 
6 1220 1156 1247 2235 2171 2262 
6 1186 1226 1273 2201 2241 2288 
6 1240 1149 1260 2255 2164 2275 
6 1181 1259 1277 2196 2274 2292 
6 1260 1182 1278 2275 2197 2293 
6 1166 1210 1261 2181 2225 2276 
6 295 1178 1194 492 2193 2209 
6 1179 298 1195 2194 495 2210 
6 1224 288 1280 2239 485 2295 
6 305 1225 1279 502 2240 2294 
6 1237 308 1275 2252 505 2290 
6 60 1238 1276 141 2253 2291 
6 1164 1256 1271 2179 2271 2286 
6 1257 1165 1272 2272 2180 2287 
6 1236 306 1262 2251 503 2277 
6 307 1239 1262 504 2254 2277 
6 56 299 1219 137 496 2234 
6 294 55 1217 491 136 2232 
6 1172 1240 1260 2187 2255 2275 
6 1222 1164 1271 2237 2179 2286 
6 1165 1223 1272 2180 2238 2287 
6 1139 1234 1268 2154 2249 2283 
6 1235 1138 1269 2250 2153 2284 
6 1174 1236 1263 2189 2251 2278 
6 1237 1175 1264 2252 2190 2279 
6 1239 1176 1265 2254 2191 2280 
6 1234 1164 1268 2249 2179 2283 
6 1165 1235 1269 2180 2250 2284 
6 1175 1237 1275 2190 2252 2290 
6 1238 1177 1276 2253 2192 2291 
6 1256 1211 1271 2271 2226 2286 
6 1212 1257 1272 2227 2272 2287 
6 1211 1140 1271 2226 2155 2286 
6 1141 1212 1272 2156 2227 2287 
6 308 1243 1275 505 2258 2290 
6 1243 60 1276 2258 141 2291 
6 1164 1222 1268 2179 2237 2283 
6 1223 1165 1269 2238 2180 2284 
6 1225 1170 1279 2240 2185 2294 
6 1171 1224 1280 2186 2239 2295 
6 292 1211 1256 489 2226 2271 
6 1212 304 1257 2227 501 2272 
6 1194 1178 1254 2209 2193 2269 
6 1179 1195 1255 2194 2210 2270 
6 1259 1173 1277 2274 2188 2292 
6 1172 1260 1278 2187 2275 2293 
6 7 178 1225 88 375 2240 
6 175 8 1229 372 89 2244 
6 50 284 1230 131 481 2245 
6 287 51 1224 484 132 2239 
6 55 295 1194 136 492 2209 
6 55 1194 1217 136 2209 2232 
6 298 56 1195 495 137 2210 
6 1195 56 1219 2210 137 2234 
6 53 293 292 134 490 489 
6 293 54 1216 490 135 2231 
6 57 300 1218 138 497 2233 
6 58 304 300 139 501 497 
6 292 293 1162 489 490 2177 
6 292 1162 1211 489 2177 2226 
6 1162 293 1216 2177 490 2231 
6 300 304 1163 497 501 2178 
6 300 1163 1218 497 2178 2233 
6 1163 304 1212 2178 501 2227 
6 1162 1146 1211 2177 2161 2226 
6 1146 1162 1217 2161 2177 2232 
6 1147 1163 1212 2162 2178 2227 
6 1163 1147 1219 2178 2162 2234 
6 1374 1333 1389 2389 2348 2404 
6 1295 1335 1350 2310 2350 2365 
6 1296 1336 1349 2311 2351 2364 
6 1328 1312 1394 2343 2327 2409 
6 1289 1328 1394 2304 2343 2409 
6 1335 1295 1337 2350 2310 2352 
6 1336 1296 1338 2351 2311 2353 
6 1325 1289 1394 2340 2304 2409 
6 1311 170 1355 2326 367 2370 
6 1305 1319 1333 2320 2334 2348 
6 1320 1303 1332 2335 2318 2347 
6 1321 1306 1334 2336 2321 2349 
6 304 1315 1344 501 2330 2359 
6 326 1316 1345 523 2331 2360 
6 1297 1374 1389 2312 2389 2404 
6 1297 1336 1351 2312 2351 2366 
6 1315 1295 1344 2330 2310 2359 
6 1316 1296 1345 2331 2311 2360 
6 1358 1300 1372 2373 2315 2387 
6 1319 1287 1333 2334 2302 2348 
6 1290 1320 1332 2305 2335 2347 
6 1288 1321 1334 2303 2336 2349 
6 1283 1333 1374 2298 2348 2389 
6 1289 1325 1352 2304 2340 2367 
6 1283 1374 1378 2298 2389 2393 
6 1379 1330 1395 2394 2345 2410 
6 1311 1325 1394 2326 2340 2409 
6 1319 1305 1390 2334 2320 2405 
6 1312 1354 1373 2327 2369 2388 
6 1306 1321 1391 2321 2336 2406 
6 1295 1315 1337 2310 2330 2352 
6 1296 1316 1338 2311 2331 2353 
6 332 1343 1375 529 2358 2390 
6 1342 309 1376 2357 506 2391 
6 1322 1289 1352 2337 2304 2367 
6 1374 1318 1378 2389 2333 2393 
6 1293 1327 1343 2308 2342 2358 
6 1326 1294 1342 2341 2309 2357 
6 1354 171 1373 2369 368 2388 
6 1284 1330 1379 2299 2345 2394 
6 1325 1281 1352 2340 2296 2367 
6 170 1311 1373 367 2326 2388 
6 1332 1281 1377 2347 2296 2392 
6 1332 1377 1393 2347 2392 2408 
6 1298 1335 1353 2313 2350 2368 
6 1352 1281 1414 2367 2296 2429 
6 71 333 1390 152 530 2405 
6 334 335 1391 531 532 2406 
6 304 1344 1392 501 2359 2407 
6 335 1381 1391 532 2396 2406 
6 1382 71 1390 2397 152 2405 
6 1285 1291 1356 2300 2306 2371 
6 1292 1286 1357 2307 2301 2372 
6 1300 1341 1372 2315 2356 2387 
6 1291 1285 1397 2306 2300 2412 
6 1286 1292 1398 2301 2307 2413 
6 1298 1379 1395 2313 2394 2410 
6 4 172 1343 85 369 2358 
6 169 5 1342 366 86 2357 
6 1359 1285 1366 2374 2300 2381 
6 1286 1360 1367 2301 2375 2382 
6 1303 1322 1352 2318 2337 2367 
6 69 331 1338 150 528 2353 
6 61 311 1337 142 508 2352 
6 1329 1282 1384 2344 2297 2399 
6 1303 1320 1420 2318 2335 2435 
6 1322 1303 1421 2337 2318 2436 
6 1335 1298 1350 2350 2313 2365 
6 1336 1297 1349 2351 2312 2364 
6 321 66 1361 518 147 2376 
6 63 316 1363 144 513 2378 
6 1336 330 1351 2351 527 2366 
6 1313 1299 1359 2328 2314 2374 
6 1300 1314 1360 2315 2329 2375 
6 1318 1351 1422 2333 2366 2437 
6 326 1345 1403 523 2360 2418 
6 1289 1322 1348 2304 2337 2363 
6 1328 1289 1348 2343 2304 2363 
6 1293 1343 1354 2308 2358 2369 
6 5 309 1342 86 506 2357 
6 332 4 1343 529 85 2358 
6 1305 1333 1396 2320 2348 2411 
6 1281 1325 1385 2296 2340 2400 
6 1314 1300 1358 2329 2315 2373 
6 61 1337 1424 142 2352 2439 
6 69 1338 1425 150 2353 2440 
6 1342 1294 1355 2357 2309 2370 
6 1344 1295 1346 2359 2310 2361 
6 1345 1296 1347 2360 2311 2362 
6 1299 1341 1386 2314 2356 2401 
6 1341 1300 1387 2356 2315 2402 
6 1304 1331 1411 2319 2346 2426 
6 1288 1358 1372 2303 2373 2387 
6 1323 1359 1386 2338 2374 2401 
6 1360 1324 1387 2375 2339 2402 
6 1299 1313 1371 2314 2328 2386 
6 1329 1384 1401 2344 2399 2416 
6 1359 1299 1386 2374 2314 2401 
6 1300 1360 1387 2315 2375 2402 
6 1325 1311 1406 2340 2326 2421 
6 1310 1353 1400 2325 2368 2415 
6 1283 1328 1396 2298 2343 2411 
6 1351 329 1422 2366 526 2437 
6 1335 312 1353 2350 509 2368 
6 1288 1334 1358 2303 2349 2373 
6 1294 1385 1406 2309 2400 2421 
6 1312 1328 1402 2327 2343 2417 
6 1333 1283 1396 2348 2298 2411 
6 1328 1283 1378 2343 2298 2393 
6 1347 1296 1349 2362 2311 2364 
6 1346 1295 1350 2361 2310 2365 
6 1331 1304 1410 2346 2319 2425 
6 1365 1317 1423 2380 2332 2438 
6 1282 1329 1411 2297 2344 2426 
6 1330 1284 1412 2345 2299 2427 
6 1385 1325 1406 2400 2340 2421 
6 170 169 1355 367 366 2370 
6 172 171 1354 369 368 2369 
6 1333 1287 1389 2348 2302 2404 
6 1377 1281 1385 2392 2296 2400 
6 1287 1319 1409 2302 2334 2424 
6 1320 1290 1408 2335 2305 2423 
6 1321 1288 1410 2336 2303 2425 
6 1334 1306 1412 2349 2321 2427 
6 1411 1331 1418 2426 2346 2433 
6 310 61 1424 507 142 2439 
6 327 69 1425 524 150 2440 
6 1331 1288 1371 2346 2303 2386 
6 1298 1353 1379 2313 2368 2394 
6 1341 1299 1372 2356 2314 2387 
6 1290 1332 1393 2305 2347 2408 
6 311 312 1335 508 509 2350 
6 331 330 1336 528 527 2351 
6 1370 1309 1399 2385 2324 2414 
6 1353 313 1400 2368 510 2415 
6 1297 1351 1374 2312 2366 2389 
6 318 319 1341 515 516 2356 
6 1334 1412 1419 2349 2427 2434 
6 302 1365 1423 499 2380 2438 
6 1412 1284 1419 2427 2299 2434 
6 1332 1303 1414 2347 2318 2429 
6 1317 1377 1385 2332 2392 2400 
6 1329 1287 1409 2344 2302 2424 
6 1290 1330 1408 2305 2345 2423 
6 1288 1331 1410 2303 2346 2425 
6 1282 1411 1418 2297 2426 2433 
6 1290 1346 1350 2305 2361 2365 
6 1287 1347 1349 2302 2362 2364 
6 1409 1304 1411 2424 2319 2426 
6 1306 1408 1412 2321 2423 2427 
6 1341 319 1386 2356 516 2401 
6 318 1341 1387 515 2356 2402 
6 1353 1310 1379 2368 2325 2394 
6 303 304 1392 500 501 2407 
6 1378 1318 1405 2393 2333 2420 
6 1305 1348 1382 2320 2363 2397 
6 1330 1290 1395 2345 2305 2410 
6 1285 1359 1397 2300 2374 2412 
6 1360 1286 1398 2375 2301 2413 
6 1313 1359 1366 2328 2374 2381 
6 1360 1314 1367 2375 2329 2382 
6 333 1380 1390 530 2395 2405 
6 1383 334 1391 2398 531 2406 
6 1287 1329 1401 2302 2344 2416 
6 1291 1339 1362 2306 2354 2377 
6 1340 1292 1364 2355 2307 2379 
6 1413 1314 1419 2428 2329 2434 
6 1348 1322 1382 2363 2337 2397 
6 1371 1288 1372 2386 2303 2387 
6 1301 1344 1346 2316 2359 2361 
6 1302 1345 1347 2317 2360 2362 
6 1281 1332 1414 2296 2347 2429 
6 324 1370 1399 521 2385 2414 
6 1313 1415 1418 2328 2430 2433 
6 330 329 1351 527 526 2366 
6 311 1335 1337 508 2350 2352 
6 331 1336 1338 528 2351 2353 
6 1309 1370 1384 2324 2385 2399 
6 1351 1318 1374 2366 2333 2389 
6 1328 1348 1396 2343 2363 2411 
6 312 313 1353 509 510 2368 
6 1377 1301 1393 2392 2316 2408 
6 1287 1349 1389 2302 2364 2404 
6 1367 1314 1413 2382 2329 2428 
6 1290 1350 1395 2305 2365 2410 
6 325 326 1403 522 523 2418 
6 1388 1303 1420 2403 2318 2435 
6 1303 1388 1421 2318 2403 2436 
6 1313 1366 1415 2328 2381 2430 
6 1299 1371 1372 2314 2386 2387 
6 321 1361 1362 518 2376 2377 
6 1363 316 1364 2378 513 2379 
6 1370 1302 1384 2385 2317 2399 
6 1343 1327 1375 2358 2342 2390 
6 1326 1342 1376 2341 2357 2391 
6 1312 1373 1394 2327 2388 2409 
6 302 303 1365 499 500 2380 
6 1381 1306 1391 2396 2321 2406 
6 1305 1382 1390 2320 2397 2405 
6 1380 1304 1409 2395 2319 2424 
6 1306 1381 1408 2321 2396 2423 
6 1304 1383 1410 2319 2398 2425 
6 324 325 1370 521 522 2385 
6 1380 1319 1390 2395 2334 2405 
6 1321 1383 1391 2336 2398 2406 
6 1315 304 1368 2330 501 2383 
6 1316 326 1369 2331 523 2384 
6 1293 1354 1402 2308 2369 2417 
6 171 170 1373 368 367 2388 
6 1408 1330 1412 2423 2345 2427 
6 1329 1409 1411 2344 2424 2426 
6 1373 1311 1394 2388 2326 2409 
6 1384 1302 1401 2399 2317 2416 
6 1339 1291 1397 2354 2306 2412 
6 1292 1340 1398 2307 2355 2413 
6 1293 1378 1405 2308 2393 2420 
6 1317 1365 1377 2332 2380 2392 
6 1354 1312 1402 2369 2327 2417 
6 1348 1305 1396 2363 2320 2411 
6 1365 1301 1377 2380 2316 2392 
6 335 71 1388 532 152 2403 
6 1346 1290 1393 2361 2305 2408 
6 1347 1287 1401 2362 2302 2416 
6 1337 1315 1424 2352 2330 2439 
6 1338 1316 1425 2353 2331 2440 
6 319 320 1386 516 517 2401 
6 317 318 1387 514 515 2402 
6 1327 1293 1405 2342 2308 2420 
6 1294 1326 1404 2309 2341 2419 
6 1327 328 1375 2342 525 2390 
6 301 1326 1376 498 2341 2391 
6 1361 1307 1362 2376 2322 2377 
6 1308 1363 1364 2323 2378 2379 
6 323 324 1399 520 521 2414 
6 313 314 1400 510 511 2415 
6 1314 1358 1419 2329 2373 2434 
6 1301 1346 1393 2316 2361 2408 
6 1302 1347 1401 2317 2362 2416 
6 1303 1352 1414 2318 2367 2429 
6 1371 1313 1418 2386 2328 2433 
6 1349 1297 1389 2364 2312 2404 
6 1284 1413 1419 2299 2428 2434 
6 301 302 1423 498 499 2438 
6 329 328 1422 526 525 2437 
6 1415 1282 1418 2430 2297 2433 
6 1355 1294 1406 2370 2309 2421 
6 58 310 1368 139 507 2383 
6 68 327 1369 149 524 2384 
6 1345 1302 1403 2360 2317 2418 
6 1378 1293 1402 2393 2308 2417 
6 1343 172 1354 2358 369 2369 
6 1304 1380 1407 2319 2395 2422 
6 1383 1304 1407 2398 2319 2422 
6 320 1323 1386 517 2338 2401 
6 1324 317 1387 2339 514 2402 
6 169 1342 1355 366 2357 2370 
6 1350 1298 1395 2365 2313 2410 
6 1358 1334 1419 2373 2349 2434 
6 1366 1285 1416 2381 2300 2431 
6 1286 1367 1417 2301 2382 2432 
6 70 332 1375 151 529 2390 
6 309 59 1376 506 140 2391 
6 1302 1370 1403 2317 2385 2418 
6 1328 1378 1402 2343 2393 2417 
6 1359 1323 1397 2374 2338 2412 
6 1324 1360 1398 2339 2375 2413 
6 1344 1301 1392 2359 2316 2407 
6 1365 303 1392 2380 500 2407 
6 333 334 1407 530 531 2422 
6 328 1327 1422 525 2342 2437 
6 1326 301 1423 2341 498 2438 
6 1301 1365 1392 2316 2380 2407 
6 1331 1371 1418 2346 2386 2433 
6 1385 1294 1404 2400 2309 2419 
6 1327 1405 1422 2342 2420 2437 
6 1404 1326 1423 2419 2341 2438 
6 1311 1355 1406 2326 2370 2421 
6 1323 320 1339 2338 517 2354 
6 317 1324 1340 514 2339 2355 
6 1368 310 1424 2383 507 2439 
6 1369 327 1425 2384 524 2440 
6 1381 335 1420 2396 532 2435 
6 71 1382 1421 152 2397 2436 
6 1399 1309 1416 2414 2324 2431 
6 1310 1400 1417 2325 2415 2432 
6 1370 325 1403 2385 522 2418 
6 1380 333 1407 2395 530 2422 
6 334 1383 1407 531 2398 2422 
6 316 64 1364 513 145 2379 
6 65 321 1362 146 518 2377 
6 1317 1385 1404 2332 2400 2419 
6 1384 1282 1415 2399 2297 2430 
6 1309 1366 1416 2324 2381 2431 
6 1367 1310 1417 2382 2325 2432 
6 1309 1384 1415 2324 2399 2430 
6 1284 1379 1413 2299 2394 2428 
6 1319 1380 1409 2334 2395 2424 
6 1381 1320 1408 2396 2335 2423 
6 1383 1321 1410 2398 2336 2425 
6 1379 1310 1413 2394 2325 2428 
6 1320 1381 1420 2335 2396 2435 
6 1382 1322 1421 2397 2337 2436 
6 1356 1399 1416 2371 2414 2431 
6 1400 1357 1417 2415 2372 2432 
6 1285 1356 1416 2300 2371 2431 
6 1357 1286 1417 2372 2301 2432 
6 335 1388 1420 532 2403 2435 
6 1388 71 1421 2403 152 2436 
6 1310 1367 1413 2325 2382 2428 
6 1366 1309 1415 2381 2324 2430 
6 1315 1368 1424 2330 2383 2439 
6 1316 1369 1425 2331 2384 2440 
6 1356 323 1399 2371 520 2414 
6 314 1357 1400 511 2372 2415 
6 1323 1339 1397 2338 2354 2412 
6 1340 1324 1398 2355 2339 2413 
6 1317 1404 1423 2332 2419 2438 
6 1405 1318 1422 2420 2333 2437 
6 304 58 1368 501 139 2383 
6 59 301 1376 140 498 2391 
6 64 317 1340 145 514 2355 
6 64 1340 1364 145 2355 2379 
6 320 65 1339 517 146 2354 
6 1339 65 1362 2354 146 2377 
6 326 68 1369 523 149 2384 
6 328 70 1375 525 151 2390 
6 62 315 314 143 512 511 
6 315 63 1363 512 144 2378 
6 66 322 1361 147 519 2376 
6 67 323 322 148 520 519 
6 314 315 1308 511 512 2323 
6 314 1308 1357 511 2323 2372 
6 1308 315 1363 2323 512 2378 
6 322 323 1307 519 520 2322 
6 322 1307 1361 519 2322 2376 
6 1307 323 1356 2322 520 2371 
6 1291 1307 1356 2306 2322 2371 
6 1307 1291 1362 2322 2306 2377 
6 1308 1292 1357 2323 2307 2372 
6 1292 1308 1364 2307 2323 2379 
6 1519 1478 1534 2534 2493 2549 
6 1440 1480 1495 2455 2495 2510 
6 1441 1481 1494 2456 2496 2509 
6 1473 1457 1539 2488 2472 2554 
6 1434 1473 1539 2449 2488 2554 
6 1480 1440 1483 2495 2455 2498 
6 1481 1441 1482 2496 2456 2497 
6 1470 1434 1539 2485 2449 2554 
6 1456 200 1500 2471 397 2515 
6 1449 1464 1478 2464 2479 2493 
6 1465 1448 1477 2480 2463 2492 
6 1466 1451 1479 2481 2466 2494 
6 163 1460 1489 360 2475 2504 
6 348 1461 1490 545 2476 2505 
6 1442 1519 1534 2457 2534 2549 
6 1442 1481 1496 2457 2496 2511 
6 1461 1441 1490 2476 2456 2505 
6 1460 1440 1489 2475 2455 2504 
6 1445 1516 1517 2460 2531 2532 
6 1464 1432 1478 2479 2447 2493 
6 1435 1465 1477 2450 2480 2492 
6 1433 1466 1479 2448 2481 2494 
6 1427 1478 1519 2442 2493 2534 
6 1434 1470 1497 2449 2485 2512 
6 1427 1519 1523 2442 2534 2538 
6 1524 1475 1540 2539 2490 2555 
6 1456 1470 1539 2471 2485 2554 
6 1464 1449 1535 2479 2464 2550 
6 1457 1499 1518 2472 2514 2533 
6 1451 1466 1536 2466 2481 2551 
6 1440 1460 1483 2455 2475 2498 
6 1441 1461 1482 2456 2476 2497 
6 1487 355 1521 2502 552 2536 
6 354 1488 1520 551 2503 2535 
6 1467 1434 1497 2482 2449 2512 
6 1519 1463 1523 2534 2478 2538 
6 1438 1471 1488 2453 2486 2503 
6 1472 1439 1487 2487 2454 2502 
6 1499 201 1518 2514 398 2533 
6 1429 1475 1524 2444 2490 2539 
6 1470 1426 1497 2485 2441 2512 
6 200 1456 1518 397 2471 2533 
6 1477 1426 1522 2492 2441 2537 
6 1477 1522 1538 2492 2537 2553 
6 1443 1480 1498 2458 2495 2513 
6 1497 1426 1559 2512 2441 2574 
6 80 356 1535 161 553 2550 
6 357 358 1536 554 555 2551 
6 163 1489 1537 360 2504 2552 
6 358 1526 1536 555 2541 2551 
6 1527 80 1535 2542 161 2550 
6 1436 1430 1501 2451 2445 2516 
6 1431 1437 1502 2446 2452 2517 
6 1486 1445 1517 2501 2460 2532 
6 1430 1436 1542 2445 2451 2557 
6 1437 1431 1543 2452 2446 2558 
6 1443 1524 1540 2458 2539 2555 
6 199 16 1487 396 97 2502 
6 17 202 1488 98 399 2503 
6 1430 1504 1511 2445 2519 2526 
6 1505 1431 1512 2520 2446 2527 
6 1448 1467 1497 2463 2482 2512 
6 70 328 1483 151 525 2498 
6 78 350 1482 159 547 2497 
6 1474 1428 1529 2489 2443 2544 
6 1448 1465 1565 2463 2480 2580 
6 1467 1448 1566 2482 2463 2581 
6 1480 1443 1495 2495 2458 2510 
6 1481 1442 1494 2496 2457 2509 
6 72 338 1506 153 535 2521 
6 343 75 1508 540 156 2523 
6 1481 351 1496 2496 548 2511 
6 1444 1458 1504 2459 2473 2519 
6 1459 1445 1505 2474 2460 2520 
6 1463 1496 1567 2478 2511 2582 
6 348 1490 1548 545 2505 2563 
6 1434 1467 1493 2449 2482 2508 
6 1516 1433 1517 2531 2448 2532 
6 1473 1434 1493 2488 2449 2508 
6 1438 1488 1499 2453 2503 2514 
6 354 17 1488 551 98 2503 
6 16 355 1487 97 552 2502 
6 1449 1478 1541 2464 2493 2556 
6 1426 1470 1530 2441 2485 2545 
6 1458 1444 1503 2473 2459 2518 
6 78 1482 1569 159 2497 2584 
6 70 1483 1570 151 2498 2585 
6 1487 1439 1500 2502 2454 2515 
6 1489 1440 1491 2504 2455 2506 
6 1490 1441 1492 2505 2456 2507 
6 1486 1444 1531 2501 2459 2546 
6 1445 1486 1532 2460 2501 2547 
6 1450 1476 1556 2465 2491 2571 
6 1504 1468 1531 2519 2483 2546 
6 1469 1505 1532 2484 2520 2547 
6 1445 1459 1516 2460 2474 2531 
6 1474 1529 1546 2489 2544 2561 
6 1444 1504 1531 2459 2519 2546 
6 1505 1445 1532 2520 2460 2547 
6 1470 1456 1551 2485 2471 2566 
6 1454 1498 1544 2469 2513 2559 
6 1427 1473 1541 2442 2488 2556 
6 1496 352 1567 2511 549 2582 
6 1480 329 1498 2495 526 2513 
6 1433 1479 1503 2448 2494 2518 
6 1439 1530 1551 2454 2545 2566 
6 1457 1473 1547 2472 2488 2562 
6 1478 1427 1541 2493 2442 2556 
6 1473 1427 1523 2488 2442 2538 
6 1492 1441 1494 2507 2456 2509 
6 1491 1440 1495 2506 2455 2510 
6 1476 1450 1555 2491 2465 2570 
6 1510 1462 1568 2525 2477 2583 
6 1428 1474 1556 2443 2489 2571 
6 1475 1429 1557 2490 2444 2572 
6 1530 1470 1551 2545 2485 2566 
6 200 199 1500 397 396 2515 
6 202 201 1499 399 398 2514 
6 1478 1432 1534 2493 2447 2549 
6 1522 1426 1530 2537 2441 2545 
6 1432 1464 1553 2447 2479 2568 
6 1465 1435 1554 2480 2450 2569 
6 1466 1433 1555 2481 2448 2570 
6 1479 1451 1557 2494 2466 2572 
6 1556 1476 1563 2571 2491 2578 
6 349 78 1569 546 159 2584 
6 336 70 1570 533 151 2585 
6 1476 1433 1516 2491 2448 2531 
6 1443 1498 1524 2458 2513 2539 
6 1444 1486 1517 2459 2501 2532 
6 1435 1477 1538 2450 2492 2553 
6 350 351 1481 547 548 2496 
6 328 329 1480 525 526 2495 
6 1515 1455 1545 2530 2470 2560 
6 1498 330 1544 2513 527 2559 
6 1442 1496 1519 2457 2511 2534 
6 340 341 1486 537 538 2501 
6 1479 1557 1564 2494 2572 2579 
6 165 1510 1568 362 2525 2583 
6 1557 1429 1564 2572 2444 2579 
6 1477 1448 1559 2492 2463 2574 
6 1462 1522 1530 2477 2537 2545 
6 1474 1432 1553 2489 2447 2568 
6 1435 1475 1554 2450 2490 2569 
6 1433 1476 1555 2448 2491 2570 
6 1428 1556 1563 2443 2571 2578 
6 1432 1492 1494 2447 2507 2509 
6 1435 1491 1495 2450 2506 2510 
6 1553 1450 1556 2568 2465 2571 
6 1451 1554 1557 2466 2569 2572 
6 340 1486 1531 537 2501 2546 
6 1486 341 1532 2501 538 2547 
6 1498 1454 1524 2513 2469 2539 
6 164 163 1537 361 360 2552 
6 1523 1463 1550 2538 2478 2565 
6 1449 1493 1527 2464 2508 2542 
6 1475 1435 1540 2490 2450 2555 
6 1504 1430 1542 2519 2445 2557 
6 1431 1505 1543 2446 2520 2558 
6 1504 1458 1511 2519 2473 2526 
6 1459 1505 1512 2474 2520 2527 
6 356 1525 1535 553 2540 2550 
6 1528 357 1536 2543 554 2551 
6 1432 1474 1546 2447 2489 2561 
6 1484 1436 1507 2499 2451 2522 
6 1437 1485 1509 2452 2500 2524 
6 1558 1458 1564 2573 2473 2579 
6 1493 1467 1527 2508 2482 2542 
6 1446 1489 1491 2461 2504 2506 
6 1447 1490 1492 2462 2505 2507 
6 1426 1477 1559 2441 2492 2574 
6 346 1515 1545 543 2530 2560 
6 1459 1560 1563 2474 2575 2578 
6 351 352 1496 548 549 2511 
6 328 1480 1483 525 2495 2498 
6 350 1481 1482 547 2496 2497 
6 1455 1515 1529 2470 2530 2544 
6 1496 1463 1519 2511 2478 2534 
6 1473 1493 1541 2488 2508 2556 
6 1433 1503 1517 2448 2518 2532 
6 329 330 1498 526 527 2513 
6 1522 1446 1538 2537 2461 2553 
6 1432 1494 1534 2447 2509 2549 
6 1511 1458 1558 2526 2473 2573 
6 1435 1495 1540 2450 2510 2555 
6 347 348 1548 544 545 2563 
6 1533 1448 1565 2548 2463 2580 
6 1448 1533 1566 2463 2548 2581 
6 1503 1444 1517 2518 2459 2532 
6 1459 1512 1560 2474 2527 2575 
6 1506 338 1507 2521 535 2522 
6 343 1508 1509 540 2523 2524 
6 1515 1447 1529 2530 2462 2544 
6 1472 1487 1521 2487 2502 2536 
6 1488 1471 1520 2503 2486 2535 
6 1457 1518 1539 2472 2533 2554 
6 165 164 1510 362 361 2525 
6 1526 1451 1536 2541 2466 2551 
6 1449 1527 1535 2464 2542 2550 
6 1525 1450 1553 2540 2465 2568 
6 1451 1526 1554 2466 2541 2569 
6 1450 1528 1555 2465 2543 2570 
6 346 347 1515 543 544 2530 
6 1525 1464 1535 2540 2479 2550 
6 1466 1528 1536 2481 2543 2551 
6 1461 348 1514 2476 545 2529 
6 1460 163 1513 2475 360 2528 
6 1438 1499 1547 2453 2514 2562 
6 201 200 1518 398 397 2533 
6 1474 1553 1556 2489 2568 2571 
6 1554 1475 1557 2569 2490 2572 
6 1518 1456 1539 2533 2471 2554 
6 1529 1447 1546 2544 2462 2561 
6 1436 1484 1542 2451 2499 2557 
6 1485 1437 1543 2500 2452 2558 
6 1438 1523 1550 2453 2538 2565 
6 1462 1510 1522 2477 2525 2537 
6 1499 1457 1547 2514 2472 2562 
6 1493 1449 1541 2508 2464 2556 
6 1510 1446 1522 2525 2461 2537 
6 358 80 1533 555 161 2548 
6 1491 1435 1538 2506 2450 2553 
6 1492 1432 1546 2507 2447 2561 
6 1482 1461 1569 2497 2476 2584 
6 1483 1460 1570 2498 2475 2585 
6 339 340 1531 536 537 2546 
6 341 342 1532 538 539 2547 
6 1471 1438 1550 2486 2453 2565 
6 1439 1472 1549 2454 2487 2564 
6 1471 353 1520 2486 550 2535 
6 166 1472 1521 363 2487 2536 
6 1452 1506 1507 2467 2521 2522 
6 1508 1453 1509 2523 2468 2524 
6 330 331 1544 527 528 2559 
6 345 346 1545 542 543 2560 
6 1458 1503 1564 2473 2518 2579 
6 1446 1491 1538 2461 2506 2553 
6 1447 1492 1546 2462 2507 2561 
6 1448 1497 1559 2463 2512 2574 
6 1516 1459 1563 2531 2474 2578 
6 1494 1442 1534 2509 2457 2549 
6 1429 1558 1564 2444 2573 2579 
6 352 353 1567 549 550 2582 
6 166 165 1568 363 362 2583 
6 1560 1428 1563 2575 2443 2578 
6 1500 1439 1551 2515 2454 2566 
6 2 336 1513 83 533 2528 
6 77 349 1514 158 546 2529 
6 1490 1447 1548 2505 2462 2563 
6 1523 1438 1547 2538 2453 2562 
6 1488 202 1499 2503 399 2514 
6 1450 1525 1552 2465 2540 2567 
6 1528 1450 1552 2543 2465 2567 
6 1468 339 1531 2483 536 2546 
6 342 1469 1532 539 2484 2547 
6 199 1487 1500 396 2502 2515 
6 1495 1443 1540 2510 2458 2555 
6 1503 1479 1564 2518 2494 2579 
6 1430 1511 1561 2445 2526 2576 
6 1512 1431 1562 2527 2446 2577 
6 355 0 1521 552 81 2536 
6 79 354 1520 160 551 2535 
6 1447 1515 1548 2462 2530 2563 
6 1473 1523 1547 2488 2538 2562 
6 1468 1504 1542 2483 2519 2557 
6 1505 1469 1543 2520 2484 2558 
6 1489 1446 1537 2504 2461 2552 
6 1510 164 1537 2525 361 2552 
6 356 357 1552 553 554 2567 
6 353 1471 1567 550 2486 2582 
6 1472 166 1568 2487 363 2583 
6 1446 1510 1537 2461 2525 2552 
6 1476 1516 1563 2491 2531 2578 
6 1530 1439 1549 2545 2454 2564 
6 1471 1550 1567 2486 2565 2582 
6 1549 1472 1568 2564 2487 2583 
6 1456 1500 1551 2471 2515 2566 
6 339 1468 1484 536 2483 2499 
6 1469 342 1485 2484 539 2500 
6 1513 336 1570 2528 533 2585 
6 1514 349 1569 2529 546 2584 
6 1526 358 1565 2541 555 2580 
6 80 1527 1566 161 2542 2581 
6 1454 1544 1561 2469 2559 2576 
6 1545 1455 1562 2560 2470 2577 
6 1515 347 1548 2530 544 2563 
6 1525 356 1552 2540 553 2567 
6 357 1528 1552 554 2543 2567 
6 74 343 1509 155 540 2524 
6 338 73 1507 535 154 2522 
6 1462 1530 1549 2477 2545 2564 
6 1529 1428 1560 2544 2443 2575 
6 1511 1454 1561 2526 2469 2576 
6 1455 1512 1562 2470 2527 2577 
6 1455 1529 1560 2470 2544 2575 
6 1429 1524 1558 2444 2539 2573 
6 1464 1525 1553 2479 2540 2568 
6 1526 1465 1554 2541 2480 2569 
6 1528 1466 1555 2543 2481 2570 
6 1524 1454 1558 2539 2469 2573 
6 1465 1526 1565 2480 2541 2580 
6 1527 1467 1566 2542 2482 2581 
6 1544 1501 1561 2559 2516 2576 
6 1502 1545 1562 2517 2560 2577 
6 1501 1430 1561 2516 2445 2576 
6 1431 1502 1562 2446 2517 2577 
6 358 1533 1565 555 2548 2580 
6 1533 80 1566 2548 161 2581 
6 1454 1511 1558 2469 2526 2573 
6 1512 1455 1560 2527 2470 2575 
6 1460 1513 1570 2475 2528 2585 
6 1461 1514 1569 2476 2529 2584 
6 331 1501 1544 528 2516 2559 
6 1502 345 1545 2517 542 2560 
6 1484 1468 1542 2499 2483 2557 
6 1469 1485 1543 2484 2500 2558 
6 1550 1463 1567 2565 2478 2582 
6 1462 1549 1568 2477 2564 2583 
6 0 166 1521 81 363 2536 
6 163 2 1513 360 83 2528 
6 73 339 1484 154 536 2499 
6 73 1484 1507 154 2499 2522 
6 342 74 1485 539 155 2500 
6 1485 74 1509 2500 155 2524 
6 348 77 1514 545 158 2529 
6 353 79 1520 550 160 2535 
6 69 337 331 150 534 528 
6 337 72 1506 534 153 2521 
6 75 344 1508 156 541 2523 
6 76 345 344 157 542 541 
6 331 337 1452 528 534 2467 
6 331 1452 1501 528 2467 2516 
6 1452 337 1506 2467 534 2521 
6 344 345 1453 541 542 2468 
6 344 1453 1508 541 2468 2523 
6 1453 345 1502 2468 542 2517 
6 1452 1436 1501 2467 2451 2516 
6 1436 1452 1507 2451 2467 2522 
6 1437 1453 1502 2452 2468 2517 
6 1453 1437 1509 2468 2452 2524 

CELL_TYPES 2380
13
13
13
13
13
13
13
13
13
13
13
13
13
13
13
13
13
13
13
13
13
13
13
13
13
13
13
13
13
13
13
13
13
13
13
13
13
13
13
13
13
13
13
13
13
13
13
13
13
13
13
13
13
13
13
13
13
13
13
13
13
13
13
13
13
13
13
13
13
13
13
13
13
13
13
13
13
13
13
13
13
13
13
13
13
13
13
13
13
13
13
13
13
13
13
13
13
13
13
13
13
13
13
13
13
13
13
13
13
13
13
13
13
13
13
13
13
13
13
13
13
13
13
13
13
13
13
13
13
13
13
13
13
13
13
13
13
13
13
13
13
13
13
13
13
13
13
13
13
13
13
13
13
13
13
13
13
13
13
13
13
13
13
13
13
13
13
13
13
13
13
13
13
13
13
13
13
13
13
13
13
13
13
13
13
13
13
13
13
13
13
13
13
13
13
13
13
13
13
13
13
13
13
13
13
13
13
13
13
13
13
13
13
13
13
13
13
13
13
13
13
13
13
13
13
13
13
13
13
13
13
13
13
13
13
13
13
13
13
13
13
13
13
13
13
13
13
13
13
13
13
13
13
13
13
13
13
13
13
13
13
13
13
13
13
13
13
13
13
13
13
13
13
13
13
13
13
13
13
13
13
13
13
13
13
13
13
13
13
13
13
13
13
13
13
13
13
13
13
13
13
13
13
13
13
13
13
13
13
13
13
13
13
13
13
13
13
13
13
13
13
13
13
13
13
13
13
13
13
13
13
13
13
13
13
13
13
13
13
13
13
13
13
13
13
13
13
13
13
13
13
13
13
13
13
13
13
13
13
13
13
13
13
13
13
13
13
13
13
13
13
13
13
13
13
13
13
13
13
13
13
13
13
13
13
13
13
13
13
13
13
13
13
13
13
13
13
13
13
13
13
13
13
13
13
13
13
13
13
13
13
13
13
13
13
13
13
13
13
13
13
13
13
13
13
13
13
13
13
13
13
13
13
13
13
13
13
13
13
13
13
13
13
13
13
13
13
13
13
13
13
13
13
13
13
13
13
13
13
13
13
13
13
13
13
13
13
13
13
13
13
13
13
13
13
13
13
13
13
13
13
13
13
13
13
13
13
13
13
13
13
13
13
13
13
13
13
13
13
13
13
13
13
13
13
13
13
13
13
13
13
13
13
13
13
13
13
13
13
13
13
13
13
13
13
13
13
13
13
13
13
13
13
13
13
13
13
13
13
13
13
13
13
13
13
13
13
13
13
13
13
13
13
13
13
13
13
13
13
13
13
13
13
13
13
13
13
13
13
13
13
13
13
13
13
13
13
13
13
13
13
13
13
13
13
13
13
13
13
13
13
13
13
13
13
13
13
13
13
13
13
13
13
13
13
13
13
13
13
13
13
13
13
13
13
13
13
13
13
13
13
13
13
13
13
13
13
13
13
13
13
13
13
13
13
13
13
13
13
13
13
13
13
13
13
13
13
13
13
13
13
13
13
13
13
13
13
13
13
13
13
13
13
13
13
13
13
13
13
13
13
13
13
13
13
13
13
13
13
13
13
13
13
13
13
13
13
13
13
13
13
13
13
13
13
13
13
13
13
13
13
13
13
13
13
13
13
13
13
13
13
13
13
13
13
13
13
13
13
13
13
13
13
13
13
13
13
13
13
13
13
13
13
13
13
13
13
13
13
13
13
13
13
13
13
13
13
13
13
13
13
13
13
13
13
13
13
13
13
13
13
13
13
13
13
13
13
13
13
13
13
13
13
13
13
13
13
13
13
13
13
13
13
13
13
13
13
13
13
13
13
13
13
13
13
13
13
13
13
13
13
13
13
13
13
13
13
13
13
13
13
13
13
13
13
13
13
13
13
13
13
13
13
13
13
13
13
13
13
13
13
13
13
13
13
13
13
13
13
13
13
13
13
13
13
13
13
13
13
13
13
13
13
13
13
13
13
13
13
13
13
13
13
13
13
13
13
13
13
13
13
13
13
13
13
13
13
13
13
13
13
13
13
13
13
13
13
13
13
13
13
13
13
13
13
13
13
13
13
13
13
13
13
13
13
13
13
13
13
13
13
13
13
13
13
13
13
13
13
13
13
13
13
13
13
13
13
13
13
13
13
13
13
13
13
13
13
13
13
13
13
13
13
13
13
13
13
13
13
13
13
13
13
13
13
13
13
13
13
13
13
13
13
13
13
13
13
13
13
13
13
13
13
13
13
13
13
13
13
13
13
13
13
13
13
13
13
13
13
13
13
13
13
13
13
13
13
13
13
13
13
13
13
13
13
13
13
13
13
13
13
13
13
13
13
13
13
13
13
13
13
13
13
13
13
13
13
13
13
13
13
13
13
13
13
13
13
13
13
13
13
13
13
13
13
13
13
13
13
13
13
13
13
13
13
13
13
13
13
13
13
13
13
13
13
13
13
13
13
13
13
13
13
13
13
13
13
13
13
13
13
13
13
13
13
13
13
13
13
13
13
13
13
13
13
13
13
13
13
13
13
13
13
13
13
13
13
13
13
13
13
13
13
13
13
13
13
13
13
13
13
13
13
13
13
13
13
13
13
13
13
13
13
13
13
13
13
13
13
13
13
13
13
13
13
13
13
13
13
13
13
13
13
13
13
13
13
13
13
13
13
13
13
13
13
13
13
13
13
13
13
13
13
13
13
13
13
13
13
13
13
13
13
13
13
13
13
13
13
13
13
13
13
13
13
13
13
13
13
13
13
13
13
13
13
13
13
13
13
13
13
13
13
13
13
13
13
13
13
13
13
13
13
13
13
13
13
13
13
13
13
13
13
13
13
13
13
13
13
13
13
13
13
13
13
13
13
13
13
13
13
13
13
13
13
13
13
13
13
13
13
13
13
13
13
13
13
13
13
13
13
13
13
13
13
13
13
13
13
13
13
13
13
13
13
13
13
13
13
13
13
13
13
13
13
13
13
13
13
13
13
13
13
13
13
13
13
13
13
13
13
13
13
13
13
13
13
13
13
13
13
13
13
13
13
13
13
13
13
13
13
13
13
13
13
13
13
13
13
13
13
13
13
13
13
13
13
13
13
13
13
13
13
13
13
13
13
13
13
13
13
13
13
13
13
13
13
13
13
13
13
13
13
13
13
13
13
13
13
13
13
13
13
13
13
13
13
13
13
13
13
13
13
13
13
13
13
13
13
13
13
13
13
13
13
13
13
13
13
13
13
13
13
13
13
13
13
13
13
13
13
13
13
13
13
13
13
13
13
13
13
13
13
13
13
13
13
13
13
13
13
13
13
13
13
13
13
13
13
13
13
13
13
13
13
13
13
13
13
13
13
13
13
13
13
13
13
13
13
13
13
13
13
13
13
13
13
13
13
13
13
13
13
13
13
13
13
13
13
13
13
13
13
13
13
13
13
13
13
13
13
13
13
13
13
13
13
13
13
13
13
13
13
13
13
13
13
13
13
13
13
13
13
13
13
13
13
13
13
13
13
13
13
13
13
13
13
13
13
13
13
13
13
13
13
13
13
13
13
13
13
13
13
13
13
13
13
13
13
13
13
13
13
13
13
13
13
13
13
13
13
13
13
13
13
13
13
13
13
13
13
13
13
13
13
13
13
13
13
13
13
13
13
13
13
13
13
13
13
13
13
13
13
13
13
13
13
13
13
13
13
13
13
13
13
13
13
13
13
13
13
13
13
13
13
13
13
13
13
13
13
13
13
13
13
13
13
13
13
13
13
13
13
13
13
13
13
13
13
13
13
13
13
13
13
13
13
13
13
13
13
13
13
13
13
13
13
13
13
13
13
13
13
13
13
13
13
13
13
13
13
13
13
13
13
13
13
13
13
13
13
13
13
13
13
13
13
13
13
13
13
13
13
13
13
13
13
13
13
13
13
13
13
13
13
13
13
13
13
13
13
13
13
13
13
13
13
13
13
13
13
13
13
13
13
13
13
13
13
13
13
13
13
13
13
13
13
13
13
13
13
13
13
13
13
13
13
13
13
13
13
13
13
13
13
13
13
13
13
13
13
13
13
13
13
13
13
13
13
13
13
13
13
13
13
13
13
13
13
13
13
13
13
13
13
13
13
13
13
13
13
13
13
13
13
13
13
13
13
13
13
13
13
13
13
13
13
13
13
13
13
13
13
13
13
13
13
13
13
13
13
13
13
13
13
13
13
13
13
13
13
13
13
13
13
13
13
13
13
13
13
13
13
13
13
13
13
13
13
13
13
13
13
13
13
13
13
13
13
13
13
13
13
13
13
13
13
13
13
13
13
13
13
13
13
13
13
13
13
13
13
13
13
13
13
13
13
13
13
13
13
13
13
13
13
13
13
13
13
13
13
13
13
13
13
13
13
13
13
13
13
13
13
13
13
13
13
13
13
13
13
13
13
13
13
13
13
13
13
13
13
13
13
13
13
13
13
13
13
13
13
13
13
13
13
13
13
13
13
13
13
13
13
13
13
13
13
13
13
13
13
13
13
13
13
13
13
13
13
13
13
13
13
13
13
13
13
13
13
13
13
13
13
13
13
13
13
13
13
13
13
13
13
13
13
13
13
13
13
13
13
13
13
13
13
13
13
13
13
13
13
13
13
13
13
13
13
13
13
13
13
13
13
13
13
13
13
13
13
13
13
13
13
13
13
13
13
13
13
13
13
13
13
13
13
13
13
13
13
13
13
13
13
13
13
13
13
13
13
13
13
13
13
13
13
13
13
13
13
13
13
13
13
13
13
13
13
13
13
13
13
13
13
13
13
13
13
13
13
13
13
13
13
13
13
13
13
13
13
13
13
13
13
13
13
13
13
13
13
13
13
13
13
13
13
13
13
13
13
13
13
13
13
13
13
13
13
13
13
13
13
13
13
13
13
13
13
13
13
13
13
13
13
13
13
13
13
13
13
13
13
13
13
13
13
13
13
13
13
13
13
13
13
13
13
13
13
13
13
13
13
13
13
13
13
13
13
13
13
13
13
13
13
13
13
13
13
13
13
13
13
13
13
13
13
13
13
13
13
13
13
13
13
13
13
13
13
13
13
13
13
13
13
13
13
13
13
13
13
13
13
13
13
13
13
13
13
13
13
13
13
13
13
13
13
13
13
13
13
13
13
13
13
13
13
13
13
13
13
13
13
13
13
13
13
13
13
13
13
13
13
13
13
13
13
13
13
13
13
13
13
13
13
13
13
13
13
13
13
13
13
13
13
13
13
13
13
13
13
13
13
13
13
13
13
13
13
13
13
13
13
13
13
13
13
13
13
13
13
13
13
13
13
13
13
13
13
13
13
13
13
13
13
13
13
13
13
13
13
13
13
13
13
13
13
13
13
13
13
13
13
13
13
13
13
13
13
13
13
13
13
13
13
13
13
13
13
13
13
13
13
13
13
13
13
13
13
13
13
13

POINT_DATA 2586
VECTORS displacement float
-2.96018e-09 2.30925e-07 1.44376e-07
1.7924e-08 2.29387e-07 1.44511e-07
-1.92675e-07 1.43617e-07 1.51733e-07
-1.90842e-07 1.36875e-07 1.51804e-07
-2.02306e-07 1.26024e-07 1.56196e-07
-2.02515e-07 -1.26147e-07 1.56212e-07
-1.91055e-07 -1.37003e-07 1.51829e-07
-1.92886e-07 -1.43746e-07 1.5176e-07
-2.97735e-09 -2.30469e-07 1.44807e-07
1.78691e-08 -2.29613e-07 1.44128e-07
1.90784e-07 -1.19228e-07 1.43991e-07
2.01173e-07 -1.01357e-07 1.4436e-07
2.01432e-07 1.01483e-07 1.44426e-07
1.90978e-07 1.19647e-07 1.44419e-07
0 0 0
1.96088e-08 2.35309e-07 1.44168e-07
8.95019e-09 2.48772e-07 1.44701e-07
2.98287e-08 4.59978e-07 1.44817e-07
3.87581e-08 4.74756e-07 1.4384e-07
3.74571e-08 4.82714e-07 1.44048e-07
2.12911e-07 5.73833e-07 1.4308e-07
2.40662e-07 5.73016e-07 1.42417e-07
4.13416e-07 4.60939e-07 1.42532e-07
4.26402e-07 4.3652e-07 1.42722e-07
4.13647e-07 2.38625e-07 1.44283e-07
3.97978e-07 2.20478e-07 1.44106e-07
2.12071e-07 1.19057e-07 1.44011e-07
2.2501e-07 3.37778e-07 5.74968e-08
2.1328e-07 1.13385e-07 1.43788e-07
4.21822e-07 2.24215e-07 1.44579e-07
5.94785e-07 1.27164e-07 1.42663e-07
6.0867e-07 1.03295e-07 1.42849e-07
6.08515e-07 -1.03503e-07 1.42746e-07
5.94626e-07 -1.27414e-07 1.4258e-07
4.21665e-07 -2.24697e-07 1.43693e-07
3.9796e-07 -2.20366e-07 1.44345e-07
2.11909e-07 -1.19358e-07 1.44398e-07
2.13066e-07 -1.13579e-07 1.44045e-07
4.11324e-07 8.92519e-11 5.73351e-08
4.13568e-07 -2.38634e-07 1.44289e-07
4.26333e-07 -4.3668e-07 1.42893e-07
4.13304e-07 -4.6106e-07 1.42688e-07
2.40511e-07 -5.72984e-07 1.42398e-07
2.12757e-07 -5.73809e-07 1.43067e-07
3.72775e-08 -4.82627e-07 1.44011e-07
3.85729e-08 -4.74668e-07 1.43801e-07
2.95961e-08 -4.59865e-07 1.44754e-07
9.00821e-09 -2.48611e-07 1.44772e-07
1.96048e-08 -2.35434e-07 1.43916e-07
2.24771e-07 -3.39461e-07 5.75018e-08
2.36899e-08 -4.83369e-07 1.44583e-07
-1.23777e-07 -6.15393e-07 1.43036e-07
-1.51468e-07 -6.18869e-07 1.43681e-07
-3.51224e-07 -5.56728e-07 1.43556e-07
-3.51432e-07 -5.48535e-07 1.43341e-07
-3.69037e-07 -5.33437e-07 1.44018e-07
-4.28123e-07 -3.37842e-07 1.53875e-07
-4.1924e-07 -3.19551e-07 1.56739e-07
-4.2424e-07 -3.13886e-07 1.58779e-07
-2.14648e-07 -1.4826e-07 1.5623e-07
-1.64687e-07 -3.75327e-07 5.80015e-08
-4.53978e-07 -3.22994e-07 1.63801e-07
-7.52277e-07 -1.85363e-07 1.73533e-07
-7.50645e-07 -1.77629e-07 1.73511e-07
-7.66579e-07 -1.62458e-07 1.73667e-07
-7.66544e-07 1.62388e-07 1.73669e-07
-7.50604e-07 1.77556e-07 1.73512e-07
-7.52233e-07 1.85292e-07 1.73535e-07
-4.53444e-07 3.22798e-07 1.63603e-07
-4.24615e-07 3.13738e-07 1.59046e-07
-2.14462e-07 1.48108e-07 1.56212e-07
-4.51162e-07 -5.082e-11 1.63899e-07
-4.19538e-07 3.19406e-07 1.56947e-07
-4.28299e-07 3.37732e-07 1.53993e-07
-3.68807e-07 5.33282e-07 1.44025e-07
-3.51207e-07 5.48374e-07 1.43352e-07
-3.50998e-07 5.56568e-07 1.43568e-07
-1.52364e-07 6.18731e-07 1.43071e-07
-1.24677e-07 6.15437e-07 1.43722e-07
2.38765e-08 4.83455e-07 1.44659e-07
-1.64559e-07 3.75752e-07 5.79707e-08
-2.96018e-09 2.30925e-07 -1.44376e-07
1.7924e-08 2.29387e-07 -1.44511e-07
-1.92675e-07 1.43617e-07 -1.51733e-07
-1.90842e-07 1.36875e-07 -1.51804e-07
-2.02306e-07 1.26024e-07 -1.56196e-07
-2.02515e-07 -1.26147e-07 -1.56212e-07
-1.91055e-07 -1.37003e-07 -1.51829e-07
-1.92886e-07 -1.43746e-07 -1.5176e-07
-2.97735e-09 -2.30469e-07 -1.44807e-07
1.78691e-08 -2.29613e-07 -1.44128e-07
1.90784e-07 -1.19228e-07 -1.43991e-07
2.01173e-07 -1.01357e-07 -1.4436e-07
2.01432e-07 1.01483e-07 -1.44426e-07
1.90978e-07 1.19647e-07 -1.44419e-07
0 0 0
1.96088e-08 2.35309e-07 -1.44168e-07
8.95019e-09 2.48772e-07 -1.44701e-07
2.98287e-08 4.59978e-07 -1.44817e-07
3.87581e-08 4.74756e-07 -1.4384e-07
3.74571e-08 4.82714e-07 -1.44048e-07
2.12911e-07 5.73833e-07 -1.4308e-07
2.40662e-07 5.73016e-07 -1.42417e-07
4.13416e-07 4.60939e-07 -1.42532e-07
4.26402e-07 4.3652e-07 -1.42722e-07
4.13647e-07 2.38625e-07 -1.44283e-07
3.97978e-07 2.20478e-07 -1.44106e-07
2.12071e-07 1.19057e-07 -1.44011e-07
2.2501e-07 3.37778e-07 -5.74968e-08
2.1328e-07 1.13385e-07 -1.43788e-07
4.21822e-07 2.24215e-07 -1.44579e-07
5.94785e-07 1.27164e-07 -1.42663e-07
6.0867e-07 1.03295e-07 -1.42849e-07
6.08515e-07 -1.03503e-07 -1.42746e-07
5.94626e-07 -1.27414e-07 -1.4258e-07
4.21665e-07 -2.24697e-07 -1.43693e-07
3.9796e-07 -2.20366e-07 -1.44345e-07
2.11909e-07 -1.19358e-07 -1.44398e-07
2.13066e-07 -1.13579e-07 -1.44045e-07
4.11324e-07 8.92519e-11 -5.73351e-08
4.13568e-07 -2.38634e-07 -1.44289e-07
4.26333e-07 -4.3668e-07 -1.42893e-07
4.13304e-07 -4.6106e-07 -1.42688e-07
2.40511e-07 -5.72984e-07 -1.42398e-07
2.12757e-07 -5.73809e-07 -1.43067e-07
3.72775e-08 -4.82627e-07 -1.44011e-07
3.85729e-08 -4.74668e-07 -1.43801e-07
2.95961e-08 -4.59865e-07 -1.44754e-07
9.00821e-09 -2.48611e-07 -1.44772e-07
1.96048e-08 -2.35434e-07 -1.43916e-07
2.24771e-07 -3.39461e-07 -5.75018e-08
2.36899e-08 -4.83369e-07 -1.44583e-07
-1.23777e-07 -6.15393e-07 -1.43036e-07
-1.51468e-07 -6.18869e-07 -1.43681e-07
-3.51224e-07 -5.56728e-07 -1.43556e-07
-3.51432e-07 -5.48535e-07 -1.43341e-07
-3.69037e-07 -5.33437e-07 -1.44018e-07
-4.28123e-07 -3.37842e-07 -1.53875e-07
-4.1924e-07 -3.19551e-07 -1.56739e-07
-4.2424e-07 -3.13886e-07 -1.58779e-07
-2.14648e-07 -1.4826e-07 -1.5623e-07
-1.64687e-07 -3.75327e-07 -5.80015e-08
-4.53978e-07 -3.22994e-07 -1.63801e-07
-7.52277e-07 -1.85363e-07 -1.73533e-07
-7.50645e-07 -1.77629e-07 -1.73511e-07
-7.66579e-07 -1.62458e-07 -1.73667e-07
-7.66544e-07 1.62388e-07 -1.73669e-07
-7.50604e-07 1.77556e-07 -1.73512e-07
-7.52233e-07 1.85292e-07 -1.73535e-07
-4.53444e-07 3.22798e-07 -1.63603e-07
-4.24615e-07 3.13738e-07 -1.59046e-07
-2.14462e-07 1.48108e-07 -1.56212e-07
-4.51162e-07 -5.082e-11 -1.63899e-07
-4.19538e-07 3.19406e-07 -1.56947e-07
-4.28299e-07 3.37732e-07 -1.53993e-07
-3.68807e-07 5.33282e-07 -1.44025e-07
-3.51207e-07 5.48374e-07 -1.43352e-07
-3.50998e-07 5.56568e-07 -1.43568e-07
-1.52364e-07 6.18731e-07 -1.43071e-07
-1.24677e-07 6.15437e-07 -1.43722e-07
2.38765e-08 4.83455e-07 -1.44659e-07
-1.64559e-07 3.75752e-07 -5.79707e-08
7.26937e-09 2.24789e-07 1.43814e-07
-1.48127e-07 1.64502e-07 1.39252e-07
-1.13145e-07 1.7941e-07 1.29308e-07
-8.07985e-08 1.93528e-07 1.28149e-07
-4.65975e-08 2.08976e-07 1.35568e-07
-1.9117e-07 1.4016e-07 1.51825e-07
-1.94154e-07 1.28853e-07 1.53416e-07
-2.02764e-07 -7.11634e-08 1.518e-07
-2.02006e-07 -2.31932e-08 1.47936e-07
-2.01907e-07 2.30974e-08 1.47795e-07
-2.02634e-07 7.10469e-08 1.51844e-07
-1.94365e-07 -1.28979e-07 1.53437e-07
-1.91382e-07 -1.40289e-07 1.51851e-07
-4.65324e-08 -2.08999e-07 1.35524e-07
-8.09328e-08 -1.93463e-07 1.28579e-07
-1.13345e-07 -1.79452e-07 1.29383e-07
-1.4834e-07 -1.64605e-07 1.39294e-07
7.05842e-09 -2.24656e-07 1.4384e-07
1.49483e-07 -1.44246e-07 1.34576e-07
1.18187e-07 -1.63317e-07 1.26302e-07
8.93867e-08 -1.81864e-07 1.26323e-07
5.8537e-08 -2.02068e-07 1.34688e-07
1.90824e-07 -1.07582e-07 1.43801e-07
1.99724e-07 5.3402e-08 1.34468e-07
1.99412e-07 1.68809e-08 1.26441e-07
1.99279e-07 -1.68591e-08 1.26748e-07
1.9969e-07 -5.33217e-08 1.34348e-07
1.91085e-07 1.07837e-07 1.43996e-07
5.85472e-08 2.02331e-07 1.34572e-07
8.94937e-08 1.82062e-07 1.26717e-07
1.18387e-07 1.63574e-07 1.26712e-07
1.49778e-07 1.44259e-07 1.34513e-07
0 0 0
0 0 0
0 0 0
1.94886e-08 2.325e-07 1.44532e-07
1.61385e-08 2.4356e-07 1.43914e-07
1.19463e-08 2.97738e-07 1.34905e-07
1.59947e-08 3.35286e-07 1.2745e-07
2.0368e-08 3.70358e-07 1.27188e-07
2.45913e-08 4.08802e-07 1.3511e-07
3.58193e-08 4.64734e-07 1.43884e-07
3.84239e-08 4.78806e-07 1.44102e-07
8.58984e-08 4.93873e-07 1.35505e-07
1.19738e-07 5.00158e-07 1.28721e-07
1.46457e-07 5.14492e-07 1.28777e-07
1.73484e-07 5.39075e-07 1.34796e-07
2.2601e-07 5.67296e-07 1.4217e-07
2.77401e-07 5.34979e-07 1.34991e-07
3.03055e-07 5.06863e-07 1.2804e-07
3.29173e-07 4.89405e-07 1.28174e-07
3.63759e-07 4.78222e-07 1.34472e-07
4.14578e-07 4.45521e-07 1.42279e-07
4.11888e-07 3.84975e-07 1.34614e-07
3.99205e-07 3.49819e-07 1.2901e-07
3.9675e-07 3.19262e-07 1.28767e-07
4.03633e-07 2.85642e-07 1.35786e-07
4.00642e-07 2.31969e-07 1.4385e-07
2.55003e-07 1.43252e-07 1.34773e-07
2.87954e-07 1.60715e-07 1.26538e-07
3.18926e-07 1.77318e-07 1.26645e-07
3.52929e-07 1.95528e-07 1.34856e-07
2.0163e-07 1.24418e-07 1.43608e-07
2.1497e-07 3.53316e-07 5.83392e-08
1.98358e-07 3.39927e-07 5.7681e-08
2.10798e-07 3.25439e-07 5.69222e-08
2.09009e-07 1.05913e-07 1.43651e-07
2.13449e-07 1.16009e-07 1.44085e-07
4.09158e-07 2.1678e-07 1.43704e-07
4.56324e-07 1.90249e-07 1.35756e-07
4.81318e-07 1.65841e-07 1.29184e-07
5.08108e-07 1.50965e-07 1.28557e-07
5.43871e-07 1.42234e-07 1.34656e-07
5.96523e-07 1.11773e-07 1.42417e-07
5.96657e-07 5.16718e-08 1.34728e-07
5.87209e-07 1.55337e-08 1.28154e-07
5.8678e-07 -1.61476e-08 1.28709e-07
5.96673e-07 -5.18141e-08 1.34532e-07
5.96386e-07 -1.11992e-07 1.42317e-07
5.43664e-07 -1.42495e-07 1.34642e-07
5.07867e-07 -1.51159e-07 1.28535e-07
4.81047e-07 -1.65713e-07 1.28685e-07
4.56103e-07 -1.9028e-07 1.36017e-07
4.08479e-07 -2.17221e-07 1.43447e-07
2.54753e-07 -1.4312e-07 1.34675e-07
2.87767e-07 -1.60733e-07 1.26957e-07
3.18794e-07 -1.77348e-07 1.27021e-07
3.52816e-07 -1.95559e-07 1.34673e-07
2.13252e-07 -1.16262e-07 1.44421e-07
2.08744e-07 -1.0592e-07 1.43695e-07
3.98534e-07 1.27335e-08 5.78186e-08
3.82625e-07 8.95549e-10 5.82382e-08
3.97151e-07 -1.34674e-08 5.79046e-08
2.01689e-07 -1.24333e-07 1.43589e-07
4.00579e-07 -2.31929e-07 1.43896e-07
4.03621e-07 -2.8573e-07 1.3559e-07
3.96255e-07 -3.1902e-07 1.2936e-07
3.9953e-07 -3.49451e-07 1.28478e-07
4.11715e-07 -3.85152e-07 1.34866e-07
4.14476e-07 -4.45659e-07 1.4245e-07
3.63569e-07 -4.7817e-07 1.34611e-07
3.28946e-07 -4.89413e-07 1.28236e-07
3.02842e-07 -5.0681e-07 1.27948e-07
2.77236e-07 -5.34937e-07 1.34944e-07
2.25856e-07 -5.67269e-07 1.42154e-07
1.73308e-07 -5.39059e-07 1.34806e-07
1.46269e-07 -5.14422e-07 1.28797e-07
1.19579e-07 -5.0005e-07 1.28729e-07
8.5749e-08 -4.93776e-07 1.35494e-07
3.82426e-08 -4.78718e-07 1.44065e-07
3.56139e-08 -4.64635e-07 1.43833e-07
1.18335e-08 -2.97642e-07 1.35026e-07
1.60063e-08 -3.35287e-07 1.27157e-07
2.01326e-08 -3.70324e-07 1.2749e-07
2.45206e-08 -4.0872e-07 1.34999e-07
1.61911e-08 -2.43516e-07 1.43876e-07
1.94675e-08 -2.32681e-07 1.442e-07
2.1176e-07 -3.24726e-07 5.81132e-08
1.98214e-07 -3.39146e-07 5.76779e-08
2.13722e-07 -3.52676e-07 5.71603e-08
-1.74155e-09 -2.42732e-07 1.44459e-07
2.16614e-08 -4.68459e-07 1.44347e-07
-1.90359e-08 -5.01825e-07 1.36232e-07
-4.77662e-08 -5.16154e-07 1.29548e-07
-6.91191e-08 -5.38204e-07 1.29087e-07
-9.07033e-08 -5.71756e-07 1.35781e-07
-1.3917e-07 -6.11002e-07 1.42787e-07
-1.94038e-07 -5.89926e-07 1.35459e-07
-2.24536e-07 -5.71464e-07 1.29453e-07
-2.55532e-07 -5.63321e-07 1.29242e-07
-2.95152e-07 -5.62789e-07 1.35593e-07
-3.50801e-07 -5.52638e-07 1.43606e-07
-3.58378e-07 -5.38016e-07 1.43268e-07
-3.65766e-07 -4.82097e-07 1.36633e-07
-3.65771e-07 -4.47332e-07 1.31848e-07
-3.76379e-07 -4.17165e-07 1.33612e-07
-3.98429e-07 -3.84574e-07 1.41994e-07
-4.19598e-07 -3.29466e-07 1.53983e-07
-4.21246e-07 -3.16512e-07 1.57981e-07
-2.60027e-07 -1.82164e-07 1.52367e-07
-2.99748e-07 -2.12782e-07 1.48736e-07
-3.3877e-07 -2.42841e-07 1.48929e-07
-3.79561e-07 -2.74513e-07 1.53537e-07
-2.03851e-07 -1.51937e-07 1.52865e-07
-1.8014e-07 -3.64808e-07 5.99571e-08
-1.92875e-07 -3.85045e-07 5.99713e-08
-1.75751e-07 -3.93897e-07 5.82527e-08
-2.13483e-07 -1.35069e-07 1.57412e-07
-4.41525e-07 -3.12256e-07 1.62185e-07
-5.17712e-07 -2.98995e-07 1.66514e-07
-5.77636e-07 -2.72257e-07 1.6802e-07
-6.36103e-07 -2.44164e-07 1.69723e-07
-6.93976e-07 -2.15205e-07 1.71818e-07
-7.50945e-07 -1.81623e-07 1.73547e-07
-7.5567e-07 -1.66816e-07 1.73538e-07
-7.67755e-07 -9.70148e-08 1.72729e-07
-7.68391e-07 -3.23402e-08 1.72029e-07
-7.6839e-07 3.2257e-08 1.72024e-07
-7.67738e-07 9.69352e-08 1.72729e-07
-7.55633e-07 1.66743e-07 1.7354e-07
-7.50902e-07 1.81551e-07 1.73548e-07
-6.93912e-07 2.15116e-07 1.7182e-07
-6.36022e-07 2.44033e-07 1.6971e-07
-5.776e-07 2.72152e-07 1.6795e-07
-5.17703e-07 2.9902e-07 1.66546e-07
-4.40961e-07 3.12052e-07 1.62047e-07
-2.59859e-07 1.81964e-07 1.52367e-07
-2.99604e-07 2.12547e-07 1.48767e-07
-3.38644e-07 2.42593e-07 1.49099e-07
-3.79436e-07 2.74349e-07 1.53535e-07
-2.13322e-07 1.34928e-07 1.574e-07
-4.77831e-07 2.73987e-08 1.65205e-07
-5.05346e-07 -2.83997e-11 1.66641e-07
-4.77796e-07 -2.75068e-08 1.65271e-07
-2.03651e-07 1.51796e-07 1.5284e-07
-4.21596e-07 3.16352e-07 1.58222e-07
-4.19795e-07 3.29337e-07 1.54117e-07
-3.98499e-07 3.84446e-07 1.42062e-07
-3.76358e-07 4.17153e-07 1.33632e-07
-3.6563e-07 4.47304e-07 1.3189e-07
-3.6557e-07 4.81965e-07 1.36637e-07
-3.58152e-07 5.37858e-07 1.43276e-07
-3.50576e-07 5.52477e-07 1.43617e-07
-2.94948e-07 5.62575e-07 1.35627e-07
-2.55332e-07 5.63101e-07 1.29235e-07
-2.24447e-07 5.70822e-07 1.28962e-07
-1.93947e-07 5.8966e-07 1.35782e-07
-1.38928e-07 6.10954e-07 1.42825e-07
-9.06385e-08 5.71874e-07 1.35535e-07
-6.90421e-08 5.38762e-07 1.29637e-07
-4.7594e-08 5.16352e-07 1.29631e-07
-1.88201e-08 5.01932e-07 1.36288e-07
2.18217e-08 4.68557e-07 1.4443e-07
-1.80522e-09 2.43017e-07 1.44257e-07
-1.74094e-07 3.94372e-07 5.91933e-08
-1.92735e-07 3.83118e-07 5.99941e-08
-1.81443e-07 3.65381e-07 5.9e-08
7.26937e-09 2.24789e-07 -1.43814e-07
-1.48127e-07 1.64502e-07 -1.39252e-07
-1.13145e-07 1.7941e-07 -1.29308e-07
-8.07985e-08 1.93528e-07 -1.28149e-07
-4.65975e-08 2.08976e-07 -1.35568e-07
-1.9117e-07 1.4016e-07 -1.51825e-07
-1.94154e-07 1.28853e-07 -1.53416e-07
-2.02764e-07 -7.11634e-08 -1.518e-07
-2.02006e-07 -2.31932e-08 -1.47936e-07
-2.01907e-07 2.30974e-08 -1.47795e-07
-2.02634e-07 7.10469e-08 -1.51844e-07
-1.94365e-07 -1.28979e-07 -1.53437e-07
-1.91382e-07 -1.40289e-07 -1.51851e-07
-4.65324e-08 -2.08999e-07 -1.35524e-07
-8.09328e-08 -1.93463e-07 -1.28579e-07
-1.13345e-07 -1.79452e-07 -1.29383e-07
-1.4834e-07 -1.64605e-07 -1.39294e-07
7.05842e-09 -2.24656e-07 -1.4384e-07
1.49483e-07 -1.44246e-07 -1.34576e-07
1.18187e-07 -1.63317e-07 -1.26302e-07
8.93867e-08 -1.81864e-07 -1.26323e-07
5.8537e-08 -2.02068e-07 -1.34688e-07
1.90824e-07 -1.07582e-07 -1.43801e-07
1.99724e-07 5.3402e-08 -1.34468e-07
1.99412e-07 1.68809e-08 -1.26441e-07
1.99279e-07 -1.68591e-08 -1.26748e-07
1.9969e-07 -5.33217e-08 -1.34348e-07
1.91085e-07 1.07837e-07 -1.43996e-07
5.85472e-08 2.02331e-07 -1.34572e-07
8.94937e-08 1.82062e-07 -1.26717e-07
1.18387e-07 1.63574e-07 -1.26712e-07
1.49778e-07 1.44259e-07 -1.34513e-07
0 0 0
0 0 0
0 0 0
1.94886e-08 2.325e-07 -1.44532e-07
1.61385e-08 2.4356e-07 -1.43914e-07
1.19463e-08 2.97738e-07 -1.34905e-07
1.59947e-08 3.35286e-07 -1.2745e-07
2.0368e-08 3.70358e-07 -1.27188e-07
2.45913e-08 4.08802e-07 -1.3511e-07
3.58193e-08 4.64734e-07 -1.43884e-07
3.84239e-08 4.78806e-07 -1.44102e-07
8.58984e-08 4.93873e-07 -1.35505e-07
1.19738e-07 5.00158e-07 -1.28721e-07
1.46457e-07 5.14492e-07 -1.28777e-07
1.73484e-07 5.39075e-07 -1.34796e-07
2.2601e-07 5.67296e-07 -1.4217e-07
2.77401e-07 5.34979e-07 -1.34991e-07
3.03055e-07 5.06863e-07 -1.2804e-07
3.29173e-07 4.89405e-07 -1.28174e-07
3.63759e-07 4.78222e-07 -1.34472e-07
4.14578e-07 4.45521e-07 -1.42279e-07
4.11888e-07 3.84975e-07 -1.34614e-07
3.99205e-07 3.49819e-07 -1.2901e-07
3.9675e-07 3.19262e-07 -1.28767e-07
4.03633e-07 2.85642e-07 -1.35786e-07
4.00642e-07 2.31969e-07 -1.4385e-07
2.55003e-07 1.43252e-07 -1.34773e-07
2.87954e-07 1.60715e-07 -1.26538e-07
3.18926e-07 1.77318e-07 -1.26645e-07
3.52929e-07 1.95528e-07 -1.34856e-07
2.0163e-07 1.24418e-07 -1.43608e-07
2.1497e-07 3.53316e-07 -5.83392e-08
1.98358e-07 3.39927e-07 -5.7681e-08
2.10798e-07 3.25439e-07 -5.69222e-08
2.09009e-07 1.05913e-07 -1.43651e-07
2.13449e-07 1.16009e-07 -1.44085e-07
4.09158e-07 2.1678e-07 -1.43704e-07
4.56324e-07 1.90249e-07 -1.35756e-07
4.81318e-07 1.65841e-07 -1.29184e-07
5.08108e-07 1.50965e-07 -1.28557e-07
5.43871e-07 1.42234e-07 -1.34656e-07
5.96523e-07 1.11773e-07 -1.42417e-07
5.96657e-07 5.16718e-08 -1.34728e-07
5.87209e-07 1.55337e-08 -1.28154e-07
5.8678e-07 -1.61476e-08 -1.28709e-07
5.96673e-07 -5.18141e-08 -1.34532e-07
5.96386e-07 -1.11992e-07 -1.42317e-07
5.43664e-07 -1.42495e-07 -1.34642e-07
5.07867e-07 -1.51159e-07 -1.28535e-07
4.81047e-07 -1.65713e-07 -1.28685e-07
4.56103e-07 -1.9028e-07 -1.36017e-07
4.08479e-07 -2.17221e-07 -1.43447e-07
2.54753e-07 -1.4312e-07 -1.34675e-07
2.87767e-07 -1.60733e-07 -1.26957e-07
3.18794e-07 -1.77348e-07 -1.27021e-07
3.52816e-07 -1.95559e-07 -1.34673e-07
2.13252e-07 -1.16262e-07 -1.44421e-07
2.08744e-07 -1.0592e-07 -1.43695e-07
3.98534e-07 1.27335e-08 -5.78186e-08
3.82625e-07 8.95549e-10 -5.82382e-08
3.97151e-07 -1.34674e-08 -5.79046e-08
2.01689e-07 -1.24333e-07 -1.43589e-07
4.00579e-07 -2.31929e-07 -1.43896e-07
4.03621e-07 -2.8573e-07 -1.3559e-07
3.96255e-07 -3.1902e-07 -1.2936e-07
3.9953e-07 -3.49451e-07 -1.28478e-07
4.11715e-07 -3.85152e-07 -1.34866e-07
4.14476e-07 -4.45659e-07 -1.4245e-07
3.63569e-07 -4.7817e-07 -1.34611e-07
3.28946e-07 -4.89413e-07 -1.28236e-07
3.02842e-07 -5.0681e-07 -1.27948e-07
2.77236e-07 -5.34937e-07 -1.34944e-07
2.25856e-07 -5.67269e-07 -1.42154e-07
1.73308e-07 -5.39059e-07 -1.34806e-07
1.46269e-07 -5.14422e-07 -1.28797e-07
1.19579e-07 -5.0005e-07 -1.28729e-07
8.5749e-08 -4.93776e-07 -1.35494e-07
3.82426e-08 -4.78718e-07 -1.44065e-07
3.56139e-08 -4.64635e-07 -1.43833e-07
1.18335e-08 -2.97642e-07 -1.35026e-07
1.60063e-08 -3.35287e-07 -1.27157e-07
2.01326e-08 -3.70324e-07 -1.2749e-07
2.45206e-08 -4.0872e-07 -1.34999e-07
1.61911e-08 -2.43516e-07 -1.43876e-07
1.94675e-08 -2.32681e-07 -1.442e-07
2.1176e-07 -3.24726e-07 -5.81132e-08
1.98214e-07 -3.39146e-07 -5.76779e-08
2.13722e-07 -3.52676e-07 -5.71603e-08
-1.74155e-09 -2.42732e-07 -1.44459e-07
2.16614e-08 -4.68459e-07 -1.44347e-07
-1.90359e-08 -5.01825e-07 -1.36232e-07
-4.77662e-08 -5.16154e-07 -1.29548e-07
-6.91191e-08 -5.38204e-07 -1.29087e-07
-9.07033e-08 -5.71756e-07 -1.35781e-07
-1.3917e-07 -6.11002e-07 -1.42787e-07
-1.94038e-07 -5.89926e-07 -1.35459e-07
-2.24536e-07 -5.71464e-07 -1.29453e-07
-2.55532e-07 -5.63321e-07 -1.29242e-07
-2.95152e-07 -5.62789e-07 -1.35593e-07
-3.50801e-07 -5.52638e-07 -1.43606e-07
-3.58378e-07 -5.38016e-07 -1.43268e-07
-3.65766e-07 -4.82097e-07 -1.36633e-07
-3.65771e-07 -4.47332e-07 -1.31848e-07
-3.76379e-07 -4.17165e-07 -1.33612e-07
-3.98429e-07 -3.84574e-07 -1.41994e-07
-4.19598e-07 -3.29466e-07 -1.53983e-07
-4.21246e-07 -3.16512e-07 -1.57981e-07
-2.60027e-07 -1.82164e-07 -1.52367e-07
-2.99748e-07 -2.12782e-07 -1.48736e-07
-3.3877e-07 -2.42841e-07 -1.48929e-07
-3.79561e-07 -2.74513e-07 -1.53537e-07
-2.03851e-07 -1.51937e-07 -1.52865e-07
-1.8014e-07 -3.64808e-07 -5.99571e-08
-1.92875e-07 -3.85045e-07 -5.99713e-08
-1.75751e-07 -3.93897e-07 -5.82527e-08
-2.13483e-07 -1.35069e-07 -1.57412e-07
-4.41525e-07 -3.12256e-07 -1.62185e-07
-5.17712e-07 -2.98995e-07 -1.66514e-07
-5.77636e-07 -2.72257e-07 -1.6802e-07
-6.36103e-07 -2.44164e-07 -1.69723e-07
-6.93976e-07 -2.15205e-07 -1.71818e-07
-7.50945e-07 -1.81623e-07 -1.73547e-07
-7.5567e-07 -1.66816e-07 -1.73538e-07
-7.67755e-07 -9.70148e-08 -1.72729e-07
-7.68391e-07 -3.23402e-08 -1.72029e-07
-7.6839e-07 3.2257e-08 -1.72024e-07
-7.67738e-07 9.69352e-08 -1.72729e-07
-7.55633e-07 1.66743e-07 -1.7354e-07
-7.50902e-07 1.81551e-07 -1.73548e-07
-6.93912e-07 2.15116e-07 -1.7182e-07
-6.36022e-07 2.44033e-07 -1.6971e-07
-5.776e-07 2.72152e-07 -1.6795e-07
-5.17703e-07 2.9902e-07 -1.66546e-07
-4.40961e-07 3.12052e-07 -1.62047e-07
-2.59859e-07 1.81964e-07 -1.52367e-07
-2.99604e-07 2.12547e-07 -1.48767e-07
-3.38644e-07 2.42593e-07 -1.49099e-07
-3.79436e-07 2.74349e-07 -1.53535e-07
-2.13322e-07 1.34928e-07 -1.574e-07
-4.77831e-07 2.73987e-08 -1.65205e-07
-5.05346e-07 -2.83997e-11 -1.66641e-07
-4.77796e-07 -2.75068e-08 -1.65271e-07
-2.03651e-07 1.51796e-07 -1.5284e-07
-4.21596e-07 3.16352e-07 -1.58222e-07
-4.19795e-07 3.29337e-07 -1.54117e-07
-3.98499e-07 3.84446e-07 -1.42062e-07
-3.76358e-07 4.17153e-07 -1.33632e-07
-3.6563e-07 4.47304e-07 -1.3189e-07
-3.6557e-07 4.81965e-07 -1.36637e-07
-3.58152e-07 5.37858e-07 -1.43276e-07
-3.50576e-07 5.52477e-07 -1.43617e-07
-2.94948e-07 5.62575e-07 -1.35627e-07
-2.55332e-07 5.63101e-07 -1.29235e-07
-2.24447e-07 5.70822e-07 -1.28962e-07
-1.93947e-07 5.8966e-07 -1.35782e-07
-1.38928e-07 6.10954e-07 -1.42825e-07
-9.06385e-08 5.71874e-07 -1.35535e-07
-6.90421e-08 5.38762e-07 -1.29637e-07
-4.7594e-08 5.16352e-07 -1.29631e-07
-1.88201e-08 5.01932e-07 -1.36288e-07
2.18217e-08 4.68557e-07 -1.4443e-07
-1.80522e-09 2.43017e-07 -1.44257e-07
-1.74094e-07 3.94372e-07 -5.91933e-08
-1.92735e-07 3.83118e-07 -5.99941e-08
-1.81443e-07 3.65381e-07 -5.9e-08
5.98078e-08 -5.77012e-08 9.74909e-08
6.03849e-08 6.0962e-08 9.88552e-08
-5.80197e-08 6.74665e-08 1.0167e-07
-5.83924e-08 -6.76144e-08 1.01872e-07
-1.3433e-07 -1.03389e-07 1.36905e-07
-1.34105e-07 1.03241e-07 1.36856e-07
5.59552e-10 7.39579e-08 9.21477e-08
-6.79597e-08 1.91431e-09 9.40644e-08
6.63913e-08 -2.10256e-09 8.77395e-08
-1.97726e-10 -7.38639e-08 9.21298e-08
-1.60478e-07 1.10886e-07 1.45775e-07
-1.60696e-07 -1.11021e-07 1.45807e-07
1.23948e-07 6.71707e-08 1.24277e-07
1.30014e-07 -6.95583e-08 1.26481e-07
2.6945e-10 -1.49283e-07 1.26399e-07
7.04528e-09 1.49009e-07 1.26331e-07
4.79064e-08 1.16323e-07 1.15055e-07
-4.30074e-08 -1.21894e-07 1.16332e-07
-1.2462e-07 3.51631e-08 1.26251e-07
-1.26909e-07 -3.46062e-08 1.27124e-07
4.76196e-08 -1.20795e-07 1.16107e-07
-4.24302e-08 1.27282e-07 1.17681e-07
2.17094e-08 -2.17873e-08 5.72068e-08
2.47141e-08 2.74762e-08 6.36835e-08
-2.42279e-08 2.37611e-08 6.16762e-08
-2.56972e-08 -2.53525e-08 6.39464e-08
-1.67434e-07 1.32007e-07 1.47469e-07
-1.67649e-07 -1.32132e-07 1.475e-07
-9.23195e-08 1.15558e-07 1.23656e-07
-9.2549e-08 -1.15273e-07 1.23652e-07
1.31014e-07 -1.94323e-08 1.17647e-07
1.24062e-07 2.26353e-08 1.15754e-07
-9.83551e-08 -6.34944e-08 1.18726e-07
-9.80657e-08 6.33252e-08 1.18607e-07
2.14533e-08 -1.8181e-07 1.35772e-07
-1.10852e-08 1.83887e-07 1.36108e-07
9.49303e-08 -1.03753e-07 1.20425e-07
9.48289e-08 1.01695e-07 1.20157e-07
6.92233e-09 3.84546e-08 6.57308e-08
5.30067e-09 -3.72978e-08 6.42339e-08
-3.62793e-08 -6.82615e-09 6.7305e-08
3.5095e-08 -4.21349e-09 6.24022e-08
-1.65908e-07 7.46189e-08 1.44173e-07
-1.66105e-07 -7.47467e-08 1.44202e-07
8.69641e-08 -3.26461e-08 1.03149e-07
1.41533e-07 1.02523e-07 1.34115e-07
1.42268e-07 -1.03014e-07 1.34316e-07
8.13463e-08 3.32106e-08 1.00561e-07
-2.70635e-08 6.54936e-08 9.02301e-08
-2.595e-08 -6.39829e-08 8.90444e-08
-5.74159e-08 2.92438e-08 9.02019e-08
3.06815e-08 -5.68609e-08 8.63786e-08
3.17899e-08 5.7645e-08 8.7008e-08
-5.33731e-08 -2.6869e-08 8.66794e-08
-3.98303e-08 -1.59949e-07 1.2715e-07
4.71882e-08 1.54616e-07 1.26129e-07
2.42658e-08 1.88261e-07 1.37355e-07
-1.33161e-08 -1.90386e-07 1.37723e-07
-1.78775e-07 9.74621e-08 1.49846e-07
-1.78972e-07 -9.7593e-08 1.49859e-07
-1.5684e-07 8.75789e-10 1.36069e-07
1.73065e-07 -7.79391e-08 1.38504e-07
1.73882e-07 7.72925e-08 1.38578e-07
3.3933e-08 -1.51707e-07 1.26347e-07
-2.63107e-08 1.56211e-07 1.27321e-07
1.37148e-08 -1.12236e-07 1.12238e-07
-9.21779e-09 1.13693e-07 1.12584e-07
4.87371e-08 1.75658e-08 7.79686e-08
1.91157e-08 1.14502e-07 1.13291e-07
-1.45422e-08 -1.16351e-07 1.13753e-07
8.33371e-08 1.33229e-07 1.21522e-07
5.10707e-08 -2.56031e-08 8.18904e-08
-7.82203e-08 -1.44556e-07 1.23967e-07
1.548e-07 4.02422e-08 1.2656e-07
1.57456e-07 -4.48115e-08 1.27847e-07
-1.40483e-07 1.29872e-07 1.39409e-07
-1.40696e-07 -1.29997e-07 1.39446e-07
-9.01436e-08 -3.01041e-08 1.09983e-07
-1.31812e-07 -7.06101e-08 1.33026e-07
-1.31419e-07 7.05029e-08 1.3289e-07
-1.85685e-07 1.30306e-07 1.51571e-07
-1.83814e-07 1.16906e-07 1.5186e-07
-1.85898e-07 -1.30434e-07 1.51595e-07
-1.84024e-07 -1.17035e-07 1.5188e-07
8.52044e-08 -1.33916e-07 1.21971e-07
-1.0512e-07 9.39247e-08 1.25559e-07
-1.05377e-07 -9.40585e-08 1.25636e-07
-9.67826e-09 2.07102e-07 1.41014e-07
2.23054e-08 -2.0509e-07 1.40722e-07
-7.99948e-08 1.45914e-07 1.24562e-07
-9.00726e-08 3.13266e-08 1.10034e-07
-1.09301e-07 2.05615e-09 1.1785e-07
1.52036e-07 6.99053e-09 1.20776e-07
6.47319e-08 9.19768e-08 1.10103e-07
1.67647e-07 1.09992e-07 1.40877e-07
1.67486e-07 -1.10098e-07 1.40725e-07
6.22039e-08 -9.0662e-08 1.0906e-07
9.1601e-08 6.7047e-08 1.12824e-07
-5.80088e-08 -9.84329e-08 1.1161e-07
-4.13282e-09 1.96661e-08 4.33807e-08
-6.58104e-09 -2.035e-08 4.56258e-08
-1.87304e-08 4.89759e-09 4.47838e-08
1.9597e-08 7.45285e-09 4.61418e-08
-5.84882e-08 1.001e-07 1.12097e-07
9.38061e-08 -6.90046e-08 1.14005e-07
-1.65869e-07 4.4111e-08 1.40963e-07
-1.6703e-07 -4.36783e-08 1.41237e-07
7.58357e-09 -7.85836e-09 2.6993e-08
2.66709e-08 8.73571e-08 1.01376e-07
8.55353e-09 1.75343e-08 4.16758e-08
-1.53782e-08 -8.80662e-09 4.0414e-08
6.31631e-08 -1.57332e-07 1.25213e-07
2.85195e-08 -8.94637e-08 1.02624e-07
1.04852e-07 1.43142e-09 1.07226e-07
-2.79863e-08 -9.38202e-08 1.04275e-07
4.76837e-08 3.72972e-08 8.38666e-08
-1.53492e-07 9.20205e-08 1.42417e-07
-1.53735e-07 -9.21554e-08 1.42465e-07
-1.15603e-07 -1.43204e-07 1.31385e-07
-1.14962e-07 1.41772e-07 1.31275e-07
-2.69126e-08 9.49926e-08 1.04699e-07
1.12449e-07 4.31984e-08 1.15388e-07
-5.61888e-08 1.62662e-07 1.26202e-07
1.15216e-07 9.27267e-08 1.25176e-07
1.15837e-07 -9.36598e-08 1.2541e-07
1.18297e-07 -4.49469e-08 1.17768e-07
-8.55226e-09 9.0199e-09 2.95927e-08
-1.05836e-08 4.45473e-08 7.17611e-08
-1.08946e-08 -4.4599e-08 7.17846e-08
-3.90487e-08 1.04235e-08 7.07101e-08
-3.93733e-08 4.71319e-08 8.51618e-08
-3.85584e-08 -4.85021e-08 8.54664e-08
-7.97601e-08 -8.51492e-08 1.14721e-07
3.9775e-08 -3.95298e-08 8.05331e-08
-7.95089e-08 8.52058e-08 1.14639e-07
-1.16893e-07 1.16861e-07 1.31468e-07
-1.172e-07 -1.17173e-07 1.3154e-07
-7.03002e-08 5.30381e-08 1.03637e-07
-7.15718e-08 -5.26812e-08 1.0417e-07
4.15838e-09 -1.55736e-08 3.71353e-08
1.49077e-08 -3.9371e-09 3.6578e-08
1.21113e-07 1.24832e-07 1.28455e-07
1.21057e-07 -1.24867e-07 1.28406e-07
8.43657e-09 2.0271e-07 1.40931e-07
3.91088e-09 -2.02869e-07 1.40994e-07
2.66321e-07 2.78227e-07 1.02253e-07
2.76416e-07 3.94284e-07 1.02948e-07
1.62705e-07 4.01828e-07 1.02874e-07
1.50076e-07 2.82238e-07 1.02053e-07
9.19046e-08 4.36547e-07 1.31519e-07
7.58576e-08 2.5878e-07 1.30973e-07
2.18124e-07 4.0964e-07 9.67153e-08
1.4609e-07 3.45316e-07 9.42724e-08
2.78398e-07 3.35992e-07 9.51672e-08
2.07487e-07 2.68984e-07 9.60939e-08
6.71164e-08 4.45946e-07 1.38464e-07
5.03004e-08 2.55856e-07 1.38277e-07
3.45882e-07 4.05726e-07 1.27345e-07
3.2937e-07 2.69656e-07 1.25719e-07
2.00662e-07 1.98e-07 1.26498e-07
2.20428e-07 4.85572e-07 1.26728e-07
1.81252e-07 4.53363e-07 1.17121e-07
1.60733e-07 2.28752e-07 1.15985e-07
9.50115e-08 3.76687e-07 1.18352e-07
8.70079e-08 3.18963e-07 1.1869e-07
2.62852e-07 4.53567e-07 1.18095e-07
2.50154e-07 2.21417e-07 1.17105e-07
2.3377e-07 3.11161e-07 7.62423e-08
2.3983e-07 3.65181e-07 7.70765e-08
1.90782e-07 3.62821e-07 7.48332e-08
1.86442e-07 3.16851e-07 7.40538e-08
6.14842e-08 4.6696e-07 1.40914e-07
4.25886e-08 2.36909e-07 1.40854e-07
1.33803e-07 4.44249e-07 1.22245e-07
1.14456e-07 2.41497e-07 1.20938e-07
3.38238e-07 3.56425e-07 1.20068e-07
3.28376e-07 3.13273e-07 1.18308e-07
1.12486e-07 2.9063e-07 1.14555e-07
1.23291e-07 3.99386e-07 1.15071e-07
2.19215e-07 1.65208e-07 1.35783e-07
2.40092e-07 5.2042e-07 1.35332e-07
3.10583e-07 4.35628e-07 1.22135e-07
2.95494e-07 2.41684e-07 1.1966e-07
2.22893e-07 3.76408e-07 7.8014e-08
2.03242e-07 3.01983e-07 7.69492e-08
1.75222e-07 3.36451e-07 7.68477e-08
2.49982e-07 3.35303e-07 7.82858e-08
5.91525e-08 4.12356e-07 1.33346e-07
4.67722e-08 2.89285e-07 1.33166e-07
2.98638e-07 3.71997e-07 1.07001e-07
3.61501e-07 4.38457e-07 1.3424e-07
3.47359e-07 2.35937e-07 1.34605e-07
2.90768e-07 3.06329e-07 1.05158e-07
1.9337e-07 3.99509e-07 9.36956e-08
2.33997e-07 2.78896e-07 9.28068e-08
1.59185e-07 3.6845e-07 9.24765e-08
2.47536e-07 3.93321e-07 9.30279e-08
1.79771e-07 2.83327e-07 9.23838e-08
1.58187e-07 3.18985e-07 8.92545e-08
1.60564e-07 1.91356e-07 1.26459e-07
1.84891e-07 4.91324e-07 1.27341e-07
2.07453e-07 5.28194e-07 1.3681e-07
1.83941e-07 1.5948e-07 1.37321e-07
4.9315e-08 4.33538e-07 1.39447e-07
3.33844e-08 2.70994e-07 1.39316e-07
6.09841e-08 3.50502e-07 1.22768e-07
3.91926e-07 4.14935e-07 1.37926e-07
3.81049e-07 2.6024e-07 1.39189e-07
2.50459e-07 4.86697e-07 1.2716e-07
2.34106e-07 1.93127e-07 1.26686e-07
2.63923e-07 3.55276e-07 8.79669e-08
2.1677e-07 2.32131e-07 1.13383e-07
2.31954e-07 4.47263e-07 1.14093e-07
2.06804e-07 4.50576e-07 1.15085e-07
1.88565e-07 2.30692e-07 1.14377e-07
1.25445e-07 2.11093e-07 1.22181e-07
1.50018e-07 4.70135e-07 1.24007e-07
3.57955e-07 2.95537e-07 1.28501e-07
3.68518e-07 3.8144e-07 1.29007e-07
8.80434e-08 4.61298e-07 1.3494e-07
6.8252e-08 2.34549e-07 1.34286e-07
1.22571e-07 3.19304e-07 1.06188e-07
8.00249e-08 2.88439e-07 1.25685e-07
9.16149e-08 4.07276e-07 1.25976e-07
4.37418e-08 4.67244e-07 1.43316e-07
4.56198e-08 4.53013e-07 1.4251e-07
2.47243e-08 2.41152e-07 1.43482e-07
2.73284e-08 2.53663e-07 1.42482e-07
2.55971e-07 3.13968e-07 8.67395e-08
2.98879e-07 4.62531e-07 1.24044e-07
2.85497e-07 2.06076e-07 1.2255e-07
1.19266e-07 4.26279e-07 1.22469e-07
1.03863e-07 2.63429e-07 1.21645e-07
2.41793e-07 5.45591e-07 1.39638e-07
2.18256e-07 1.42669e-07 1.40651e-07
1.27943e-07 3.71639e-07 1.06633e-07
1.06603e-07 3.48186e-07 1.11266e-07
3.53856e-07 3.28767e-07 1.23386e-07
3.89019e-07 4.47743e-07 1.3971e-07
3.74654e-07 2.29271e-07 1.40965e-07
2.76848e-07 4.22298e-07 1.11351e-07
2.59832e-07 2.47411e-07 1.10262e-07
2.99358e-07 2.74223e-07 1.15017e-07
1.481e-07 2.53292e-07 1.1079e-07
1.65836e-07 4.29737e-07 1.12043e-07
2.09675e-07 3.61793e-07 6.70696e-08
2.17974e-07 3.15181e-07 6.77481e-08
2.3604e-07 3.46116e-07 6.80798e-08
1.91009e-07 3.47707e-07 6.75721e-08
3.09237e-07 4.04287e-07 1.16302e-07
5.64118e-08 3.85971e-07 1.27835e-07
4.78738e-08 3.15649e-07 1.27801e-07
2.00727e-07 3.29624e-07 6.10621e-08
1.79307e-07 2.55379e-07 1.04687e-07
2.23884e-07 3.58036e-07 6.60507e-08
2.28742e-07 3.28893e-07 6.46918e-08
2.62803e-07 1.85633e-07 1.25687e-07
2.77699e-07 4.87594e-07 1.2674e-07
2.45026e-07 4.24031e-07 1.05874e-07
3.12583e-07 3.3553e-07 1.10891e-07
1.93569e-07 4.27595e-07 1.06458e-07
7.24562e-08 4.27751e-07 1.34458e-07
5.79222e-08 2.72154e-07 1.342e-07
9.07137e-08 2.17871e-07 1.27967e-07
1.14149e-07 4.69483e-07 1.29439e-07
2.6153e-07 3.73486e-07 9.08299e-08
2.33273e-07 2.50695e-07 1.05688e-07
3.1683e-07 2.94624e-07 1.17279e-07
3.32811e-07 4.27641e-07 1.2646e-07
3.2016e-07 2.46516e-07 1.25987e-07
3.30548e-07 3.82095e-07 1.19752e-07
2.03684e-07 3.50489e-07 6.20787e-08
2.19882e-07 2.95635e-07 8.12181e-08
2.06322e-07 3.82529e-07 8.17461e-08
1.73969e-07 3.51907e-07 7.97723e-08
1.79513e-07 3.84275e-07 9.01323e-08
2.43375e-07 2.9452e-07 8.81688e-08
1.28657e-07 2.68447e-07 1.12628e-07
1.43587e-07 4.17507e-07 1.13553e-07
1.6844e-07 2.9806e-07 9.01441e-08
1.09801e-07 4.47237e-07 1.28368e-07
9.11919e-08 2.43219e-07 1.27376e-07
1.49404e-07 3.89472e-07 1.03309e-07
1.40027e-07 2.97135e-07 1.02475e-07
2.04366e-07 3.19395e-07 6.49125e-08
1.91863e-07 3.34724e-07 6.51944e-08
3.36628e-07 4.55864e-07 1.29458e-07
3.22674e-07 2.15598e-07 1.28447e-07
2.00061e-07 1.46053e-07 1.40757e-07
2.23234e-07 5.43573e-07 1.39721e-07
4.57525e-07 -5.38691e-08 1.02019e-07
4.57858e-07 5.64198e-08 1.02969e-07
3.40511e-07 5.9721e-08 1.02111e-07
3.40351e-07 -5.96436e-08 1.02221e-07
2.67716e-07 8.72008e-08 1.30906e-07
2.67535e-07 -8.71841e-08 1.30948e-07
3.97428e-07 6.80082e-08 9.64956e-08
3.29499e-07 -5.67814e-10 9.40331e-08
4.64076e-07 -2.2142e-09 9.4093e-08
3.96673e-07 -6.81813e-08 9.666e-08
2.42381e-07 9.16548e-08 1.38139e-07
2.42154e-07 -9.1671e-08 1.38181e-07
5.29513e-07 -6.95351e-08 1.27404e-07
5.23069e-07 6.65155e-08 1.25366e-07
3.97514e-07 -1.40468e-07 1.2702e-07
4.03994e-07 1.4003e-07 1.27113e-07
4.42772e-07 1.06939e-07 1.17396e-07
3.55603e-07 -1.11785e-07 1.16284e-07
2.75211e-07 2.8481e-08 1.17883e-07
2.71689e-07 -2.84845e-08 1.18845e-07
4.4219e-07 -1.11269e-07 1.18532e-07
3.56249e-07 1.1698e-07 1.17501e-07
4.20617e-07 -2.1064e-08 7.34721e-08
4.22813e-07 2.58361e-08 7.69798e-08
3.70783e-07 2.29537e-08 7.56724e-08
3.71913e-07 -2.16202e-08 7.46346e-08
2.36283e-07 1.10586e-07 1.40699e-07
2.36023e-07 -1.10617e-07 1.40808e-07
3.08186e-07 1.02027e-07 1.21046e-07
3.08003e-07 -1.0162e-07 1.21071e-07
5.25505e-07 -2.03486e-08 1.19878e-07
5.19337e-07 2.30665e-08 1.18031e-07
3.01468e-07 -5.38006e-08 1.14502e-07
3.01615e-07 5.38594e-08 1.14453e-07
4.19309e-07 -1.73488e-07 1.36279e-07
3.8806e-07 1.74244e-07 1.36007e-07
4.91834e-07 -9.69998e-08 1.22404e-07
4.91809e-07 9.48193e-08 1.21994e-07
4.04159e-07 3.60687e-08 7.79189e-08
4.02814e-07 -3.55873e-08 7.73687e-08
3.59739e-07 6.07245e-09 7.71578e-08
4.34841e-07 -4.32964e-09 7.68031e-08
2.35592e-07 5.93192e-08 1.32903e-07
2.35468e-07 -5.93141e-08 1.32889e-07
4.84284e-07 -3.19435e-08 1.06746e-07
5.43382e-07 -1.02643e-07 1.3435e-07
5.42523e-07 1.01736e-07 1.34109e-07
4.78898e-07 3.20437e-08 1.04426e-07
3.70329e-07 5.96443e-08 9.40633e-08
3.71432e-07 -5.8189e-08 9.33042e-08
3.39928e-07 -2.54762e-08 9.21088e-08
4.27855e-07 -5.2416e-08 9.26711e-08
4.28826e-07 5.28554e-08 9.29984e-08
3.44246e-07 2.34874e-08 8.95181e-08
3.5906e-07 -1.48776e-07 1.26671e-07
4.41507e-07 1.4356e-07 1.27897e-07
4.2231e-07 1.79519e-07 1.37861e-07
3.8605e-07 -1.8061e-07 1.37448e-07
2.2398e-07 7.79979e-08 1.3908e-07
2.23813e-07 -7.80036e-08 1.39065e-07
2.43711e-07 4.54053e-10 1.2222e-07
5.7521e-07 -8.06644e-08 1.37928e-07
5.75788e-07 7.95843e-08 1.38019e-07
4.29095e-07 -1.42156e-07 1.27807e-07
3.72251e-07 1.45961e-07 1.27181e-07
4.09924e-07 -1.04237e-07 1.14273e-07
3.87971e-07 1.05364e-07 1.13855e-07
4.47506e-07 1.6677e-08 8.66708e-08
4.15049e-07 1.05935e-07 1.15229e-07
3.8289e-07 -1.07913e-07 1.14832e-07
4.76789e-07 1.21281e-07 1.23885e-07
4.49172e-07 -2.42512e-08 8.95361e-08
3.21796e-07 -1.30675e-07 1.22375e-07
5.50557e-07 4.15634e-08 1.27787e-07
5.53903e-07 -4.64458e-08 1.28922e-07
2.62176e-07 1.11303e-07 1.34286e-07
2.61965e-07 -1.11245e-07 1.34323e-07
3.08335e-07 2.60266e-08 1.06269e-07
2.68927e-07 -5.80638e-08 1.25589e-07
2.69312e-07 5.80538e-08 1.25476e-07
2.17976e-07 1.07463e-07 1.43201e-07
2.19477e-07 9.52851e-08 1.42251e-07
2.17717e-07 -1.07581e-07 1.43344e-07
2.19229e-07 -9.53205e-08 1.42278e-07
4.78616e-07 -1.22399e-07 1.24438e-07
2.95532e-07 8.09242e-08 1.21623e-07
2.95359e-07 -8.0873e-08 1.21683e-07
4.22234e-07 -1.97913e-07 1.40804e-07
3.90689e-07 1.97002e-07 1.40768e-07
3.2008e-07 1.31849e-07 1.2279e-07
3.09186e-07 -2.50701e-08 1.05749e-07
2.8837e-07 2.18871e-09 1.11321e-07
5.43548e-07 7.1093e-09 1.23004e-07
4.60854e-07 8.42534e-08 1.12857e-07
5.70633e-07 -1.13166e-07 1.39781e-07
5.70687e-07 1.12608e-07 1.39822e-07
4.58379e-07 -8.33553e-08 1.12073e-07
4.89737e-07 6.3746e-08 1.15112e-07
3.41022e-07 -8.84192e-08 1.11106e-07
3.89588e-07 2.20933e-08 6.76893e-08
3.91447e-07 -2.10305e-08 6.68996e-08
4.2141e-07 7.83753e-09 6.83139e-08
3.73968e-07 -5.52246e-09 6.70168e-08
3.40536e-07 9.00385e-08 1.11499e-07
4.92127e-07 -6.59718e-08 1.16301e-07
2.34925e-07 3.41708e-08 1.27313e-07
2.33181e-07 -3.35017e-08 1.27449e-07
4.0774e-07 -9.39965e-09 6.12723e-08
4.22827e-07 8.02233e-08 1.04787e-07
4.06732e-07 1.84599e-08 6.58987e-08
3.78772e-07 8.56674e-09 6.49341e-08
4.5646e-07 -1.44903e-07 1.27387e-07
4.24615e-07 -8.23649e-08 1.06053e-07
5.00529e-07 1.27154e-09 1.10479e-07
3.69873e-07 -8.59411e-08 1.05962e-07
4.45458e-07 3.46598e-08 9.09234e-08
2.48554e-07 7.52899e-08 1.34033e-07
2.4834e-07 -7.52987e-08 1.34064e-07
2.86624e-07 1.24821e-07 1.27898e-07
2.86018e-07 -1.26004e-07 1.28098e-07
3.70901e-07 8.70391e-08 1.06231e-07
5.09775e-07 4.28234e-08 1.17515e-07
3.43066e-07 1.499e-07 1.25297e-07
5.14902e-07 -9.03673e-08 1.26602e-07
5.14218e-07 8.91373e-08 1.26282e-07
5.15731e-07 -4.51063e-08 1.1971e-07
3.85977e-07 -9.50995e-09 6.18963e-08
3.86194e-07 4.16341e-08 8.14391e-08
3.86093e-07 -4.16286e-08 8.1583e-08
3.56441e-07 -9.24157e-09 7.94778e-08
3.59142e-07 4.32846e-08 8.97055e-08
3.58644e-07 -4.25575e-08 8.97197e-08
3.19962e-07 -7.44336e-08 1.1273e-07
4.37835e-07 -3.70309e-08 8.88e-08
3.20079e-07 7.47268e-08 1.12714e-07
2.8461e-07 1.01223e-07 1.2735e-07
2.84352e-07 -1.01347e-07 1.27443e-07
3.28372e-07 -4.5981e-08 1.02684e-07
3.27334e-07 4.55966e-08 1.02961e-07
4.03377e-07 -1.8655e-08 6.5361e-08
4.17302e-07 -5.23861e-09 6.49019e-08
5.17239e-07 -1.18527e-07 1.29687e-07
5.17232e-07 1.18102e-07 1.29617e-07
4.0884e-07 1.94553e-07 1.40957e-07
4.04129e-07 -1.94383e-07 1.40806e-07
2.74816e-07 -3.95221e-07 1.02708e-07
2.67927e-07 -2.79341e-07 1.02608e-07
1.50042e-07 -2.8194e-07 1.02033e-07
1.62511e-07 -4.01666e-07 1.02838e-07
7.5799e-08 -2.58669e-07 1.30948e-07
9.17572e-08 -4.36471e-07 1.31509e-07
2.06013e-07 -2.69135e-07 9.60206e-08
1.45578e-07 -3.41818e-07 9.42469e-08
2.78422e-07 -3.37796e-07 9.51855e-08
2.19765e-07 -4.0966e-07 9.67657e-08
5.03075e-08 -2.55796e-07 1.38243e-07
6.69484e-08 -4.45871e-07 1.38436e-07
3.35573e-07 -2.67244e-07 1.27809e-07
3.39174e-07 -4.03193e-07 1.25416e-07
2.20281e-07 -4.85557e-07 1.26712e-07
2.07137e-07 -1.97801e-07 1.26499e-07
2.50464e-07 -2.2608e-07 1.16102e-07
1.81144e-07 -4.53077e-07 1.17106e-07
8.88934e-08 -3.18125e-07 1.18157e-07
9.27824e-08 -3.76175e-07 1.18866e-07
2.6273e-07 -4.53704e-07 1.18015e-07
1.60463e-07 -2.23103e-07 1.17269e-07
2.39129e-07 -3.64572e-07 7.65765e-08
2.33995e-07 -3.1046e-07 7.67577e-08
1.84767e-07 -3.18431e-07 7.44894e-08
1.92556e-07 -3.6413e-07 7.44076e-08
4.26168e-08 -2.36854e-07 1.40755e-07
6.13103e-08 -4.66872e-07 1.40886e-07
1.1429e-07 -2.40899e-07 1.20967e-07
1.33687e-07 -4.44136e-07 1.2223e-07
3.34747e-07 -3.16321e-07 1.20301e-07
3.32196e-07 -3.59404e-07 1.18142e-07
1.23168e-07 -3.99306e-07 1.15082e-07
1.12383e-07 -2.90517e-07 1.14508e-07
2.39935e-07 -5.20389e-07 1.35301e-07
1.86428e-07 -1.65607e-07 1.35767e-07
2.99206e-07 -2.35729e-07 1.2153e-07
3.06392e-07 -4.29559e-07 1.20291e-07
2.14835e-07 -3.01114e-07 7.75507e-08
2.11541e-07 -3.76756e-07 7.74482e-08
1.76515e-07 -3.46694e-07 7.69219e-08
2.50243e-07 -3.3946e-07 7.83255e-08
4.67193e-08 -2.89235e-07 1.33178e-07
5.90203e-08 -4.12293e-07 1.33319e-07
2.92732e-07 -3.01219e-07 1.07012e-07
3.48227e-07 -2.35375e-07 1.34874e-07
3.60361e-07 -4.37866e-07 1.34087e-07
2.95709e-07 -3.67011e-07 1.05197e-07
1.79419e-07 -2.79828e-07 9.38991e-08
2.43289e-07 -3.96883e-07 9.34168e-08
1.53146e-07 -3.16828e-07 9.21387e-08
2.38471e-07 -2.82485e-07 9.23061e-08
1.91783e-07 -3.97597e-07 9.30879e-08
1.63517e-07 -3.6576e-07 8.95582e-08
1.8472e-07 -4.9131e-07 1.27368e-07
2.4697e-07 -1.8964e-07 1.26488e-07
2.07291e-07 -5.28174e-07 1.36805e-07
2.21298e-07 -1.58924e-07 1.37342e-07
3.33617e-08 -2.7095e-07 1.39335e-07
4.91561e-08 -4.33466e-07 1.39397e-07
6.07152e-08 -3.48982e-07 1.22766e-07
3.80462e-07 -2.59426e-07 1.39138e-07
3.92274e-07 -4.14147e-07 1.3809e-07
2.50298e-07 -4.86688e-07 1.27111e-07
1.73749e-07 -1.93655e-07 1.26883e-07
2.60396e-07 -3.18981e-07 8.7873e-08
2.31827e-07 -4.47238e-07 1.14011e-07
1.93682e-07 -2.32758e-07 1.13388e-07
2.21728e-07 -2.29719e-07 1.14387e-07
2.06657e-07 -4.50601e-07 1.15112e-07
2.85293e-07 -2.07658e-07 1.22239e-07
1.49877e-07 -4.69995e-07 1.24017e-07
3.64704e-07 -3.76935e-07 1.27944e-07
3.60953e-07 -2.90993e-07 1.2969e-07
6.82101e-08 -2.34378e-07 1.34268e-07
8.78886e-08 -4.61208e-07 1.34925e-07
1.27858e-07 -3.7038e-07 1.06447e-07
9.13198e-08 -4.0719e-07 1.26021e-07
8.01107e-08 -2.88318e-07 1.25614e-07
2.47648e-08 -2.41203e-07 1.43344e-07
2.73698e-08 -2.53642e-07 1.4246e-07
4.35507e-08 -4.67154e-07 1.43275e-07
4.54263e-08 -4.52927e-07 1.42462e-07
2.60178e-07 -3.6039e-07 8.69397e-08
2.96834e-07 -4.63565e-07 1.23948e-07
1.03759e-07 -2.63259e-07 1.21617e-07
1.19135e-07 -4.26186e-07 1.22463e-07
2.41636e-07 -5.45559e-07 1.39613e-07
1.86003e-07 -1.42963e-07 1.40613e-07
1.23344e-07 -2.09758e-07 1.22623e-07
1.22157e-07 -3.18046e-07 1.06346e-07
1.06113e-07 -3.44572e-07 1.11248e-07
3.54988e-07 -3.42883e-07 1.23301e-07
2.65787e-07 -2.51675e-07 1.10189e-07
3.74686e-07 -2.28966e-07 1.41016e-07
3.88805e-07 -4.47494e-07 1.39834e-07
2.70474e-07 -4.25976e-07 1.1109e-07
3.08276e-07 -3.98329e-07 1.15156e-07
1.65565e-07 -4.29248e-07 1.1193e-07
2.03665e-07 -3.16915e-07 6.67238e-08
2.23397e-07 -3.62007e-07 6.81109e-08
2.33856e-07 -3.29618e-07 6.79764e-08
1.88881e-07 -3.33564e-07 6.74624e-08
1.4723e-07 -2.51106e-07 1.11369e-07
2.99531e-07 -2.68346e-07 1.16122e-07
4.87364e-08 -3.15021e-07 1.27717e-07
5.52503e-08 -3.85474e-07 1.27913e-07
2.03899e-07 -3.49819e-07 6.1243e-08
1.95228e-07 -4.25592e-07 1.05524e-07
2.31067e-07 -2.54817e-07 1.04041e-07
2.1871e-07 -3.19063e-07 6.57312e-08
2.31051e-07 -3.47206e-07 6.48588e-08
2.77176e-07 -4.87895e-07 1.26754e-07
3.12588e-07 -3.37597e-07 1.1092e-07
5.79154e-08 -2.72087e-07 1.34181e-07
7.22789e-08 -4.27682e-07 1.34443e-07
9.11256e-08 -2.18885e-07 1.27801e-07
1.14007e-07 -4.6937e-07 1.29434e-07
2.55154e-07 -3.00838e-07 9.05697e-08
2.45166e-07 -4.25763e-07 1.06418e-07
1.77779e-07 -2.5216e-07 1.05958e-07
3.23432e-07 -3.78263e-07 1.17131e-07
1.44374e-07 -1.90496e-07 1.25052e-07
3.21045e-07 -2.4442e-07 1.26449e-07
3.31557e-07 -4.25426e-07 1.26053e-07
3.2321e-07 -2.90885e-07 1.20027e-07
2.00117e-07 -3.29056e-07 6.189e-08
2.2806e-07 -3.81417e-07 8.1735e-08
1.966e-07 -2.96767e-07 8.12122e-08
1.71225e-07 -3.31611e-07 7.96233e-08
2.50592e-07 -3.80525e-07 8.86081e-08
1.69081e-07 -2.98685e-07 8.94805e-08
1.43436e-07 -4.17387e-07 1.13544e-07
1.78109e-07 -3.845e-07 9.07173e-08
1.28496e-07 -2.68009e-07 1.12652e-07
9.11857e-08 -2.43207e-07 1.27315e-07
1.09664e-07 -4.4714e-07 1.28359e-07
1.39415e-07 -2.96626e-07 1.02717e-07
1.49636e-07 -3.88943e-07 1.03039e-07
2.09567e-07 -3.59365e-07 6.5235e-08
1.93456e-07 -3.46106e-07 6.52812e-08
3.26318e-07 -2.14124e-07 1.29353e-07
3.34183e-07 -4.54542e-07 1.29049e-07
2.04373e-07 -1.45932e-07 1.40749e-07
2.23076e-07 -5.43546e-07 1.39705e-07
-1.09849e-07 -4.22671e-07 1.02478e-07
-1.27102e-07 -3.03595e-07 1.04801e-07
-2.54862e-07 -3.34545e-07 1.09244e-07
-2.22286e-07 -4.57913e-07 1.04201e-07
-2.95794e-07 -5.05264e-07 1.32155e-07
-3.44648e-07 -3.27293e-07 1.41007e-07
-1.94863e-07 -3.06642e-07 1.0084e-07
-2.46386e-07 -4.01122e-07 9.79178e-08
-1.11087e-07 -3.66173e-07 9.42719e-08
-1.63862e-07 -4.52446e-07 9.75061e-08
-3.23205e-07 -5.1758e-07 1.38578e-07
-3.76207e-07 -3.30911e-07 1.48172e-07
-6.48352e-08 -2.89788e-07 1.26096e-07
-4.06295e-08 -4.28186e-07 1.28277e-07
-1.53581e-07 -5.29431e-07 1.27454e-07
-2.04184e-07 -2.30944e-07 1.34111e-07
-2.48178e-07 -2.73301e-07 1.26358e-07
-1.9706e-07 -5.0482e-07 1.17909e-07
-2.93454e-07 -4.45303e-07 1.2147e-07
-3.13332e-07 -3.86181e-07 1.25193e-07
-1.50487e-07 -2.48177e-07 1.2072e-07
-1.15365e-07 -4.88815e-07 1.18975e-07
-1.50048e-07 -3.9478e-07 7.37652e-08
-1.59463e-07 -3.4339e-07 7.83277e-08
-2.1097e-07 -3.66168e-07 7.80898e-08
-1.98264e-07 -4.13805e-07 7.75591e-08
-3.27276e-07 -5.38301e-07 1.40666e-07
-3.91762e-07 -3.14499e-07 1.53115e-07
-2.48713e-07 -5.05495e-07 1.23016e-07
-3.02434e-07 -2.99602e-07 1.32894e-07
-4.57366e-08 -3.77574e-07 1.19538e-07
-5.87244e-08 -3.35008e-07 1.17853e-07
-2.63919e-07 -4.63532e-07 1.16835e-07
-2.9412e-07 -3.51749e-07 1.21867e-07
-1.85126e-07 -1.92366e-07 1.42317e-07
-1.30009e-07 -5.61783e-07 1.36034e-07
-7.21711e-08 -4.62923e-07 1.23308e-07
-1.01689e-07 -2.63417e-07 1.21353e-07
-1.81527e-07 -3.38263e-07 8.04804e-08
-1.63616e-07 -4.16222e-07 7.80329e-08
-2.14135e-07 -3.99882e-07 7.98627e-08
-1.40098e-07 -3.73237e-07 7.71145e-08
-3.30737e-07 -4.85646e-07 1.3478e-07
-3.65566e-07 -3.64833e-07 1.40703e-07
-8.67583e-08 -3.94427e-07 1.06947e-07
-5.09406e-08 -2.52131e-07 1.3534e-07
-2.54428e-08 -4.61693e-07 1.35855e-07
-1.03033e-07 -3.30994e-07 1.04117e-07
-2.20663e-07 -3.25971e-07 9.87325e-08
-1.9028e-07 -4.48425e-07 9.47036e-08
-2.44258e-07 -3.71677e-07 9.69191e-08
-1.37387e-07 -4.27739e-07 9.31488e-08
-1.57878e-07 -3.12883e-07 9.50762e-08
-2.25429e-07 -4.21918e-07 9.21509e-08
-1.88635e-07 -5.41571e-07 1.2805e-07
-2.48783e-07 -2.32435e-07 1.39245e-07
-1.61672e-07 -5.74326e-07 1.37463e-07
-2.22434e-07 -1.9199e-07 1.48119e-07
-3.43185e-07 -5.07387e-07 1.39721e-07
-3.89399e-07 -3.50587e-07 1.47612e-07
-3.28536e-07 -4.23367e-07 1.27898e-07
1.65844e-09 -4.36421e-07 1.39325e-07
-1.62398e-08 -2.74981e-07 1.393e-07
-1.68756e-07 -2.2025e-07 1.3169e-07
-1.23666e-07 -5.25423e-07 1.27964e-07
-1.85392e-07 -2.64701e-07 1.18799e-07
-1.46289e-07 -4.88098e-07 1.14861e-07
-1.32001e-07 -3.48724e-07 8.71897e-08
-2.16252e-07 -2.69215e-07 1.21984e-07
-1.71161e-07 -4.96669e-07 1.15856e-07
-1.22205e-07 -3.92091e-07 8.9781e-08
-2.27682e-07 -5.27656e-07 1.24699e-07
-2.91385e-07 -2.63924e-07 1.37287e-07
-3.08649e-08 -3.14424e-07 1.27799e-07
-1.67621e-08 -4.02129e-07 1.29084e-07
-2.97781e-07 -5.29786e-07 1.35125e-07
-3.60529e-07 -3.04914e-07 1.47305e-07
-2.6119e-07 -4.34116e-07 1.09549e-07
-2.96751e-07 -4.76846e-07 1.27609e-07
-3.3014e-07 -3.56101e-07 1.33361e-07
-3.48013e-07 -5.4037e-07 1.42835e-07
-3.48435e-07 -5.26332e-07 1.42146e-07
-4.11259e-07 -3.23796e-07 1.54827e-07
-4.04054e-07 -3.35779e-07 1.51961e-07
-1.14345e-07 -2.27303e-07 1.24962e-07
-7.99129e-08 -4.92532e-07 1.25174e-07
-2.6645e-07 -4.90771e-07 1.23475e-07
-3.10869e-07 -3.25218e-07 1.31344e-07
-1.25497e-07 -5.87221e-07 1.40302e-07
-1.86504e-07 -1.68242e-07 1.47649e-07
-2.74906e-07 -3.80312e-07 1.1129e-07
-2.85981e-07 -4.14526e-07 1.16017e-07
-2.90105e-08 -3.48799e-07 1.22208e-07
-2.54182e-08 -2.4218e-07 1.416e-07
-1.23085e-10 -4.70577e-07 1.41616e-07
-1.04697e-07 -4.54712e-07 1.12669e-07
-1.34924e-07 -2.73035e-07 1.13506e-07
-9.17183e-08 -2.95457e-07 1.17141e-07
-2.15998e-07 -4.84781e-07 1.12985e-07
-2.60875e-07 -3.03284e-07 1.20312e-07
-1.9127e-07 -3.58757e-07 6.94654e-08
-1.79554e-07 -4.06515e-07 6.87634e-08
-1.56745e-07 -3.62963e-07 6.90538e-08
-2.03246e-07 -3.82979e-07 6.9541e-08
-7.59853e-08 -4.29521e-07 1.16976e-07
-3.31469e-07 -4.5997e-07 1.3098e-07
-3.53075e-07 -3.91229e-07 1.34472e-07
-1.65166e-07 -3.85638e-07 6.16339e-08
-1.74697e-07 -3.55518e-07 6.77408e-08
-1.94127e-07 -3.9666e-07 6.68383e-08
-9.669e-08 -5.22034e-07 1.27685e-07
-1.38864e-07 -2.08606e-07 1.29267e-07
-1.35828e-07 -4.61257e-07 1.06607e-07
-1.65e-07 -2.82059e-07 1.09406e-07
-7.42527e-08 -3.58738e-07 1.10259e-07
-2.27682e-07 -2.96582e-07 1.13095e-07
-1.87186e-07 -4.76448e-07 1.07311e-07
-1.37488e-07 -3.29919e-07 9.18744e-08
-3.17356e-07 -4.99384e-07 1.35204e-07
-3.60956e-07 -3.44938e-07 1.42832e-07
-2.66979e-07 -5.33811e-07 1.29895e-07
-3.35155e-07 -2.81206e-07 1.43721e-07
-7.22829e-08 -3.14975e-07 1.18132e-07
-7.70744e-08 -2.66694e-07 1.26718e-07
-5.22689e-08 -4.52073e-07 1.27693e-07
-5.47776e-08 -4.04213e-07 1.20013e-07
-1.92761e-07 -3.74332e-07 6.41499e-08
-2.01629e-07 -3.38733e-07 8.53019e-08
-1.78635e-07 -4.27813e-07 8.26564e-08
-2.22252e-07 -3.84409e-07 8.29058e-08
-2.30679e-07 -3.47358e-07 9.48956e-08
-2.06214e-07 -4.36597e-07 9.1448e-08
-2.41041e-07 -4.77418e-07 1.14726e-07
-2.81307e-07 -3.24738e-07 1.21496e-07
-1.30911e-07 -4.08326e-07 8.91522e-08
-2.74861e-07 -5.12762e-07 1.28955e-07
-3.30358e-07 -3.07549e-07 1.39391e-07
-2.63165e-07 -3.52779e-07 1.09053e-07
-2.38565e-07 -4.48111e-07 1.05372e-07
-1.66956e-07 -3.9737e-07 6.55273e-08
-1.57255e-07 -3.78232e-07 6.52912e-08
-7.49714e-08 -2.32632e-07 1.29988e-07
-4.60354e-08 -4.812e-07 1.30945e-07
-2.05413e-07 -1.74909e-07 1.49776e-07
-1.44312e-07 -5.87559e-07 1.40362e-07
-3.68842e-07 -9.80924e-08 1.61161e-07
-5.81392e-07 1.14923e-07 1.68663e-07
-3.6903e-07 1.01981e-07 1.61075e-07
-5.81583e-07 -1.14947e-07 1.68665e-07
-6.84629e-07 1.45055e-07 1.71873e-07
-6.8466e-07 -1.4515e-07 1.7187e-07
-4.73514e-07 1.35884e-07 1.64773e-07
-6.10068e-07 3.44401e-09 1.69412e-07
-3.51831e-07 -3.95647e-09 1.61045e-07
-4.74849e-07 -1.36099e-07 1.64804e-07
-7.17887e-07 1.50842e-07 1.72826e-07
-7.17919e-07 -1.50926e-07 1.72824e-07
-2.85767e-07 9.61998e-08 1.59255e-07
-2.78736e-07 -9.86457e-08 1.59065e-07
-4.65089e-07 -2.2885e-07 1.64152e-07
-4.55186e-07 2.27374e-07 1.63548e-07
-3.95826e-07 1.78822e-07 1.59914e-07
-5.38523e-07 -1.92506e-07 1.67246e-07
-6.80028e-07 5.36181e-08 1.71209e-07
-6.82623e-07 -5.25249e-08 1.71256e-07
-3.96491e-07 -1.84943e-07 1.59622e-07
-5.36048e-07 1.99343e-07 1.67167e-07
-4.22774e-07 -5.31891e-08 1.63278e-07
-5.37914e-07 5.47747e-08 1.67287e-07
-4.2035e-07 6.17057e-08 1.63169e-07
-5.39695e-07 -5.70127e-08 1.67347e-07
-7.24071e-07 1.74528e-07 1.73008e-07
-7.24113e-07 -1.74609e-07 1.73006e-07
-6.21597e-07 1.70713e-07 1.69899e-07
-6.2178e-07 -1.70272e-07 1.69903e-07
-2.75296e-07 -2.93417e-08 1.57467e-07
-2.83411e-07 3.43069e-08 1.57942e-07
-6.42487e-07 9.84827e-08 1.70489e-07
-6.42506e-07 -9.85917e-08 1.70488e-07
-4.30901e-07 -2.6304e-07 1.61301e-07
-4.74023e-07 2.70112e-07 1.6489e-07
-3.25897e-07 -1.4911e-07 1.57923e-07
-3.25978e-07 1.46229e-07 1.58107e-07
-4.61184e-07 8.60026e-08 1.64528e-07
-4.63864e-07 -8.50769e-08 1.64615e-07
-5.64009e-07 -1.46967e-08 1.68124e-07
-3.94973e-07 -1.01841e-08 1.6244e-07
-7.26274e-07 1.04799e-07 1.72504e-07
-7.26291e-07 -1.04884e-07 1.725e-07
-3.27945e-07 -5.36233e-08 1.60327e-07
-2.66342e-07 -1.37127e-07 1.58166e-07
-2.67358e-07 1.36494e-07 1.58208e-07
-3.35091e-07 5.52502e-08 1.60539e-07
-5.27783e-07 1.21089e-07 1.66868e-07
-5.2587e-07 -1.19205e-07 1.66796e-07
-5.91992e-07 5.3734e-08 1.68942e-07
-4.16262e-07 -1.06758e-07 1.62659e-07
-4.146e-07 1.06866e-07 1.6262e-07
-5.85878e-07 -5.03626e-08 1.68757e-07
-5.22335e-07 -2.40727e-07 1.6679e-07
-3.97801e-07 2.24834e-07 1.58319e-07
-4.75505e-07 -2.78117e-07 1.64986e-07
-4.26477e-07 2.69165e-07 1.60847e-07
-7.40396e-07 1.32616e-07 1.73107e-07
-7.40422e-07 -1.32696e-07 1.73105e-07
-7.18795e-07 1.30008e-09 1.71658e-07
-2.31081e-07 -1.03734e-07 1.57762e-07
-2.30241e-07 1.0253e-07 1.57669e-07
-4.16611e-07 -2.25508e-07 1.60292e-07
-5.02984e-07 2.37067e-07 1.66072e-07
-4.48502e-07 -1.82607e-07 1.6325e-07
-4.85534e-07 1.85879e-07 1.65181e-07
-3.76906e-07 3.45644e-08 1.61872e-07
-4.3998e-07 1.83899e-07 1.62767e-07
-4.93645e-07 -1.89067e-07 1.65515e-07
-3.45202e-07 1.88373e-07 1.55443e-07
-3.75325e-07 -4.86875e-08 1.61802e-07
-5.89589e-07 -2.12137e-07 1.6875e-07
-2.49788e-07 5.74332e-08 1.56393e-07
-2.47136e-07 -6.36919e-08 1.56367e-07
-6.89095e-07 1.76152e-07 1.72006e-07
-6.89139e-07 -1.76246e-07 1.72004e-07
-6.36656e-07 -4.92607e-08 1.70164e-07
-6.8524e-07 1.03202e-07 1.71671e-07
-6.85448e-07 -1.03209e-07 1.71673e-07
-7.45782e-07 1.70488e-07 1.73439e-07
-7.45481e-07 1.54846e-07 1.73393e-07
-7.45821e-07 -1.70563e-07 1.73437e-07
-7.45514e-07 -1.54922e-07 1.73392e-07
-3.42436e-07 -1.89029e-07 1.5531e-07
-6.46309e-07 1.39041e-07 1.70711e-07
-6.46358e-07 -1.39111e-07 1.70709e-07
-4.25772e-07 -2.88176e-07 1.60249e-07
-4.66745e-07 2.96772e-07 1.64435e-07
-5.9223e-07 2.13241e-07 1.68815e-07
-6.36724e-07 5.14041e-08 1.70171e-07
-6.62939e-07 3.26456e-09 1.70715e-07
-2.51921e-07 1.01835e-08 1.54715e-07
-3.67348e-07 1.43297e-07 1.5974e-07
-2.38166e-07 1.40506e-07 1.57709e-07
-2.38212e-07 -1.40979e-07 1.57692e-07
-3.70795e-07 -1.42882e-07 1.59921e-07
-3.2631e-07 1.02372e-07 1.59965e-07
-5.71235e-07 -1.58156e-07 1.68329e-07
-4.92154e-07 5.83969e-08 1.65716e-07
-4.97308e-07 -5.8883e-08 1.65895e-07
-4.1959e-07 2.07038e-08 1.63158e-07
-5.36872e-07 1.46959e-08 1.67345e-07
-5.71751e-07 1.60254e-07 1.6835e-07
-3.23333e-07 -1.04759e-07 1.59852e-07
-7.27875e-07 6.34073e-08 1.72068e-07
-7.29052e-07 -6.26761e-08 1.72072e-07
-4.48183e-07 -2.94857e-08 1.64115e-07
-4.27803e-07 1.48104e-07 1.62564e-07
-4.5245e-07 5.19773e-08 1.64299e-07
-5.27913e-07 -2.53291e-08 1.67083e-07
-3.74957e-07 -2.23356e-07 1.5558e-07
-4.24666e-07 -1.50853e-07 1.62316e-07
-3.04596e-07 2.153e-09 1.58985e-07
-5.20852e-07 -1.59073e-07 1.66605e-07
-3.83527e-07 6.94404e-08 1.61923e-07
-7.1063e-07 1.28648e-07 1.72472e-07
-7.10681e-07 -1.28723e-07 1.7247e-07
-6.49433e-07 1.97085e-07 1.7062e-07
-6.49844e-07 -1.98689e-07 1.7062e-07
-5.18972e-07 1.60564e-07 1.66537e-07
-2.9781e-07 6.55235e-08 1.59203e-07
-5.4758e-07 2.40516e-07 1.67441e-07
-2.97622e-07 -1.31357e-07 1.58475e-07
-2.98437e-07 1.29921e-07 1.58558e-07
-2.90975e-07 -6.7477e-08 1.59021e-07
-5.10114e-07 3.10769e-08 1.66456e-07
-5.00339e-07 -9.53517e-08 1.65915e-07
-5.00345e-07 9.52162e-08 1.65922e-07
-5.68234e-07 2.24467e-08 1.6824e-07
-5.56573e-07 8.97838e-08 1.67857e-07
-5.54394e-07 -9.19427e-08 1.67783e-07
-6.10398e-07 -1.33678e-07 1.69585e-07
-3.9589e-07 -7.66238e-08 1.62263e-07
-6.10324e-07 1.33884e-07 1.69587e-07
-6.58195e-07 1.65657e-07 1.71061e-07
-6.58342e-07 -1.65941e-07 1.71061e-07
-6.04904e-07 8.94667e-08 1.69364e-07
-6.06455e-07 -8.8529e-08 1.69408e-07
-4.62021e-07 -5.08693e-08 1.64639e-07
-4.27473e-07 -1.43987e-08 1.63389e-07
-2.93727e-07 1.66896e-07 1.5526e-07
-2.93649e-07 -1.67292e-07 1.5525e-07
-4.50495e-07 -2.90116e-07 1.63135e-07
-4.44051e-07 2.88501e-07 1.62516e-07
-1.28468e-07 3.07567e-07 1.0283e-07
-1.09e-07 4.25733e-07 1.0361e-07
-2.21876e-07 4.57577e-07 1.04096e-07
-2.5494e-07 3.34251e-07 1.09372e-07
-3.44738e-07 3.27122e-07 1.41082e-07
-2.95561e-07 5.05083e-07 1.32163e-07
-1.63125e-07 4.51995e-07 9.75069e-08
-2.45939e-07 4.02278e-07 9.78886e-08
-1.11736e-07 3.61788e-07 9.42318e-08
-1.947e-07 3.06408e-07 1.00798e-07
-3.76343e-07 3.30727e-07 1.4826e-07
-3.22977e-07 5.17417e-07 1.38587e-07
-4.67408e-08 4.25991e-07 1.26213e-07
-5.88748e-08 2.86696e-07 1.28072e-07
-2.03977e-07 2.308e-07 1.34066e-07
-1.47687e-07 5.27986e-07 1.27489e-07
-1.15469e-07 4.84187e-07 1.17989e-07
-2.48047e-07 2.73061e-07 1.26396e-07
-3.09978e-07 3.85212e-07 1.24268e-07
-2.96594e-07 4.4606e-07 1.22447e-07
-1.50301e-07 2.48169e-07 1.20589e-07
-1.95431e-07 5.09375e-07 1.19222e-07
-1.60853e-07 3.48983e-07 7.43809e-08
-1.46661e-07 3.9985e-07 7.76117e-08
-1.96777e-07 4.11841e-07 7.62744e-08
-2.12822e-07 3.64842e-07 7.94971e-08
-3.91948e-07 3.14304e-07 1.5323e-07
-3.27054e-07 5.38126e-07 1.40681e-07
-3.02416e-07 2.99394e-07 1.32991e-07
-2.48379e-07 5.05593e-07 1.23075e-07
-5.12974e-08 3.37696e-07 1.19505e-07
-5.19515e-08 3.81245e-07 1.17875e-07
-2.94165e-07 3.51547e-07 1.2197e-07
-2.63687e-07 4.63322e-07 1.16783e-07
-1.84914e-07 1.92251e-07 1.42269e-07
-1.60495e-07 5.67388e-07 1.36074e-07
-9.85173e-08 2.56593e-07 1.22959e-07
-7.2452e-08 4.60947e-07 1.22976e-07
-1.62211e-07 4.16291e-07 7.87959e-08
-1.82425e-07 3.39068e-07 7.975e-08
-2.18011e-07 3.86996e-07 8.04343e-08
-1.4197e-07 3.63977e-07 7.71733e-08
-3.65677e-07 3.64706e-07 1.40782e-07
-3.3049e-07 4.85512e-07 1.34775e-07
-9.69145e-08 3.28627e-07 1.06947e-07
-2.62292e-08 4.61213e-07 1.35634e-07
-5.00917e-08 2.51513e-07 1.35494e-07
-9.19193e-08 3.9554e-07 1.04721e-07
-1.91077e-07 4.49735e-07 9.5635e-08
-2.20592e-07 3.25609e-07 9.87906e-08
-2.29024e-07 4.24879e-07 9.46545e-08
-1.58796e-07 3.14217e-07 9.43467e-08
-1.36374e-07 4.28137e-07 9.36882e-08
-2.39491e-07 3.72486e-07 9.42875e-08
-2.48615e-07 2.32225e-07 1.39256e-07
-1.11608e-07 5.24478e-07 1.28118e-07
-1.2685e-07 5.6787e-07 1.37513e-07
-2.22239e-07 1.91829e-07 1.48099e-07
-3.89518e-07 3.50432e-07 1.47702e-07
-3.42963e-07 5.0723e-07 1.39724e-07
-3.2871e-07 4.22324e-07 1.27973e-07
-1.69631e-08 2.74367e-07 1.39222e-07
2.35735e-09 4.35617e-07 1.39362e-07
-1.68546e-07 2.20173e-07 1.31603e-07
-1.76705e-07 5.37909e-07 1.28188e-07
-1.85182e-07 2.64604e-07 1.1869e-07
-1.66752e-07 4.93195e-07 1.14883e-07
-1.25077e-07 3.84332e-07 8.70116e-08
-1.41381e-07 4.88986e-07 1.15876e-07
-2.16075e-07 2.69009e-07 1.21963e-07
-8.17702e-08 4.92088e-07 1.24677e-07
-1.31622e-07 3.40446e-07 9.0021e-08
-2.9128e-07 2.63693e-07 1.37372e-07
-1.98148e-08 3.97526e-07 1.27834e-07
-2.87178e-08 3.09527e-07 1.2901e-07
-3.60601e-07 3.04746e-07 1.47374e-07
-2.97553e-07 5.29607e-07 1.35141e-07
-2.76134e-07 3.79371e-07 1.12005e-07
-3.29954e-07 3.55886e-07 1.33352e-07
-2.96775e-07 4.76773e-07 1.27682e-07
-4.11481e-07 3.23631e-07 1.54985e-07
-4.04218e-07 3.35623e-07 1.52076e-07
-3.47788e-07 5.40208e-07 1.42846e-07
-3.48209e-07 5.26171e-07 1.42153e-07
-1.12206e-07 2.27976e-07 1.24803e-07
-3.10911e-07 3.25014e-07 1.31435e-07
-2.66196e-07 4.90567e-07 1.23461e-07
-1.86297e-07 1.68119e-07 1.47615e-07
-1.57758e-07 5.92403e-07 1.40333e-07
-2.29222e-07 5.28967e-07 1.25235e-07
-2.60257e-07 4.32761e-07 1.08973e-07
-2.8714e-07 4.0984e-07 1.16257e-07
-2.6933e-08 3.63241e-07 1.22201e-07
-1.02214e-07 4.55454e-07 1.13597e-07
-6.51219e-11 4.70349e-07 1.4166e-07
-2.54205e-08 2.42062e-07 1.41432e-07
-1.30855e-07 2.74815e-07 1.13121e-07
-7.82844e-08 4.27824e-07 1.15849e-07
-2.60831e-07 3.03026e-07 1.20396e-07
-1.77446e-07 4.04907e-07 6.80275e-08
-1.93349e-07 3.58779e-07 7.02879e-08
-1.52362e-07 3.8013e-07 6.87977e-08
-1.99455e-07 3.94837e-07 6.90924e-08
-2.16109e-07 4.86119e-07 1.13471e-07
-9.52788e-08 2.91372e-07 1.1686e-07
-3.51828e-07 3.9001e-07 1.34452e-07
-3.3289e-07 4.59499e-07 1.31123e-07
-1.7124e-07 3.64982e-07 6.21524e-08
-1.37799e-07 4.59515e-07 1.05509e-07
-1.63342e-07 3.96385e-07 6.67943e-08
-2.00191e-07 3.783e-07 6.76042e-08
-1.38243e-07 2.08695e-07 1.29053e-07
-1.66286e-07 2.83435e-07 1.08722e-07
-7.37127e-08 3.61259e-07 1.10268e-07
-2.27557e-07 2.963e-07 1.13123e-07
-1.23796e-07 4.0439e-07 9.14289e-08
-3.61024e-07 3.44768e-07 1.42898e-07
-3.17166e-07 4.99245e-07 1.35218e-07
-3.35097e-07 2.81016e-07 1.43819e-07
-2.66636e-07 5.32367e-07 1.29824e-07
-1.8593e-07 4.76997e-07 1.07699e-07
-6.05677e-08 4.02786e-07 1.17841e-07
-2.03929e-07 5.43118e-07 1.27224e-07
-7.58816e-08 2.63881e-07 1.27296e-07
-5.29721e-08 4.51173e-07 1.27419e-07
-6.74666e-08 3.12892e-07 1.19916e-07
-1.85279e-07 3.9501e-07 6.33222e-08
-1.78474e-07 4.27392e-07 8.26785e-08
-2.01521e-07 3.38344e-07 8.53146e-08
-2.16217e-07 4.03971e-07 8.20905e-08
-2.06791e-07 4.35803e-07 9.139e-08
-2.30519e-07 3.46895e-07 9.49449e-08
-2.81362e-07 3.2448e-07 1.21622e-07
-1.45897e-07 3.28762e-07 8.97454e-08
-2.40733e-07 4.77349e-07 1.14715e-07
-3.30392e-07 3.07358e-07 1.39478e-07
-2.74567e-07 5.12366e-07 1.2894e-07
-2.37138e-07 4.47934e-07 1.04942e-07
-2.64285e-07 3.53334e-07 1.09516e-07
-1.78043e-07 3.57308e-07 6.65385e-08
-1.6007e-07 3.6689e-07 6.54775e-08
-4.60413e-08 4.81132e-07 1.30929e-07
-7.3885e-08 2.31831e-07 1.30086e-07
-1.39905e-07 5.86691e-07 1.40403e-07
-2.05213e-07 1.74766e-07 1.49749e-07
5.98078e-08 -5.77012e-08 -9.74909e-08
6.03849e-08 6.0962e-08 -9.88552e-08
-5.80197e-08 6.74665e-08 -1.0167e-07
-5.83924e-08 -6.76144e-08 -1.01872e-07
-1.3433e-07 -1.03389e-07 -1.36905e-07
-1.34105e-07 1.03241e-07 -1.36856e-07
5.59552e-10 7.39579e-08 -9.21477e-08
-6.79597e-08 1.91431e-09 -9.40644e-08
6.63913e-08 -2.10256e-09 -8.77395e-08
-1.97726e-10 -7.38639e-08 -9.21298e-08
-1.60478e-07 1.10886e-07 -1.45775e-07
-1.60696e-07 -1.11021e-07 -1.45807e-07
1.23948e-07 6.71707e-08 -1.24277e-07
1.30014e-07 -6.95583e-08 -1.26481e-07
2.6945e-10 -1.49283e-07 -1.26399e-07
7.04528e-09 1.49009e-07 -1.26331e-07
4.79064e-08 1.16323e-07 -1.15055e-07
-4.30074e-08 -1.21894e-07 -1.16332e-07
-1.2462e-07 3.51631e-08 -1.26251e-07
-1.26909e-07 -3.46062e-08 -1.27124e-07
4.76196e-08 -1.20795e-07 -1.16107e-07
-4.24302e-08 1.27282e-07 -1.17681e-07
2.17094e-08 -2.17873e-08 -5.72068e-08
2.47141e-08 2.74762e-08 -6.36835e-08
-2.42279e-08 2.37611e-08 -6.16762e-08
-2.56972e-08 -2.53525e-08 -6.39464e-08
-1.67434e-07 1.32007e-07 -1.47469e-07
-1.67649e-07 -1.32132e-07 -1.475e-07
-9.23195e-08 1.15558e-07 -1.23656e-07
-9.2549e-08 -1.15273e-07 -1.23652e-07
1.31014e-07 -1.94323e-08 -1.17647e-07
1.24062e-07 2.26353e-08 -1.15754e-07
-9.83551e-08 -6.34944e-08 -1.18726e-07
-9.80657e-08 6.33252e-08 -1.18607e-07
2.14533e-08 -1.8181e-07 -1.35772e-07
-1.10852e-08 1.83887e-07 -1.36108e-07
9.49303e-08 -1.03753e-07 -1.20425e-07
9.48289e-08 1.01695e-07 -1.20157e-07
6.92233e-09 3.84546e-08 -6.57308e-08
5.30067e-09 -3.72978e-08 -6.42339e-08
-3.62793e-08 -6.82615e-09 -6.7305e-08
3.5095e-08 -4.21349e-09 -6.24022e-08
-1.65908e-07 7.46189e-08 -1.44173e-07
-1.66105e-07 -7.47467e-08 -1.44202e-07
8.69641e-08 -3.26461e-08 -1.03149e-07
1.41533e-07 1.02523e-07 -1.34115e-07
1.42268e-07 -1.03014e-07 -1.34316e-07
8.13463e-08 3.32106e-08 -1.00561e-07
-2.70635e-08 6.54936e-08 -9.02301e-08
-2.595e-08 -6.39829e-08 -8.90444e-08
-5.74159e-08 2.92438e-08 -9.02019e-08
3.06815e-08 -5.68609e-08 -8.63786e-08
3.17899e-08 5.7645e-08 -8.7008e-08
-5.33731e-08 -2.6869e-08 -8.66794e-08
-3.98303e-08 -1.59949e-07 -1.2715e-07
4.71882e-08 1.54616e-07 -1.26129e-07
2.42658e-08 1.88261e-07 -1.37355e-07
-1.33161e-08 -1.90386e-07 -1.37723e-07
-1.78775e-07 9.74621e-08 -1.49846e-07
-1.78972e-07 -9.7593e-08 -1.49859e-07
-1.5684e-07 8.75789e-10 -1.36069e-07
1.73065e-07 -7.79391e-08 -1.38504e-07
1.73882e-07 7.72925e-08 -1.38578e-07
3.3933e-08 -1.51707e-07 -1.26347e-07
-2.63107e-08 1.56211e-07 -1.27321e-07
1.37148e-08 -1.12236e-07 -1.12238e-07
-9.21779e-09 1.13693e-07 -1.12584e-07
4.87371e-08 1.75658e-08 -7.79686e-08
1.91157e-08 1.14502e-07 -1.13291e-07
-1.45422e-08 -1.16351e-07 -1.13753e-07
8.33371e-08 1.33229e-07 -1.21522e-07
5.10707e-08 -2.56031e-08 -8.18904e-08
-7.82203e-08 -1.44556e-07 -1.23967e-07
1.548e-07 4.02422e-08 -1.2656e-07
1.57456e-07 -4.48115e-08 -1.27847e-07
-1.40483e-07 1.29872e-07 -1.39409e-07
-1.40696e-07 -1.29997e-07 -1.39446e-07
-9.01436e-08 -3.01041e-08 -1.09983e-07
-1.31812e-07 -7.06101e-08 -1.33026e-07
-1.31419e-07 7.05029e-08 -1.3289e-07
-1.85685e-07 1.30306e-07 -1.51571e-07
-1.83814e-07 1.16906e-07 -1.5186e-07
-1.85898e-07 -1.30434e-07 -1.51595e-07
-1.84024e-07 -1.17035e-07 -1.5188e-07
8.52044e-08 -1.33916e-07 -1.21971e-07
-1.0512e-07 9.39247e-08 -1.25559e-07
-1.05377e-07 -9.40585e-08 -1.25636e-07
-9.67826e-09 2.07102e-07 -1.41014e-07
2.23054e-08 -2.0509e-07 -1.40722e-07
-7.99948e-08 1.45914e-07 -1.24562e-07
-9.00726e-08 3.13266e-08 -1.10034e-07
-1.09301e-07 2.05615e-09 -1.1785e-07
1.52036e-07 6.99053e-09 -1.20776e-07
6.47319e-08 9.19768e-08 -1.10103e-07
1.67647e-07 1.09992e-07 -1.40877e-07
1.67486e-07 -1.10098e-07 -1.40725e-07
6.22039e-08 -9.0662e-08 -1.0906e-07
9.1601e-08 6.7047e-08 -1.12824e-07
-5.80088e-08 -9.84329e-08 -1.1161e-07
-4.13282e-09 1.96661e-08 -4.33807e-08
-6.58104e-09 -2.035e-08 -4.56258e-08
-1.87304e-08 4.89759e-09 -4.47838e-08
1.9597e-08 7.45285e-09 -4.61418e-08
-5.84882e-08 1.001e-07 -1.12097e-07
9.38061e-08 -6.90046e-08 -1.14005e-07
-1.65869e-07 4.4111e-08 -1.40963e-07
-1.6703e-07 -4.36783e-08 -1.41237e-07
7.58357e-09 -7.85836e-09 -2.6993e-08
2.66709e-08 8.73571e-08 -1.01376e-07
8.55353e-09 1.75343e-08 -4.16758e-08
-1.53782e-08 -8.80662e-09 -4.0414e-08
6.31631e-08 -1.57332e-07 -1.25213e-07
2.85195e-08 -8.94637e-08 -1.02624e-07
1.04852e-07 1.43142e-09 -1.07226e-07
-2.79863e-08 -9.38202e-08 -1.04275e-07
4.76837e-08 3.72972e-08 -8.38666e-08
-1.53492e-07 9.20205e-08 -1.42417e-07
-1.53735e-07 -9.21554e-08 -1.42465e-07
-1.15603e-07 -1.43204e-07 -1.31385e-07
-1.14962e-07 1.41772e-07 -1.31275e-07
-2.69126e-08 9.49926e-08 -1.04699e-07
1.12449e-07 4.31984e-08 -1.15388e-07
-5.61888e-08 1.62662e-07 -1.26202e-07
1.15216e-07 9.27267e-08 -1.25176e-07
1.15837e-07 -9.36598e-08 -1.2541e-07
1.18297e-07 -4.49469e-08 -1.17768e-07
-8.55226e-09 9.0199e-09 -2.95927e-08
-1.05836e-08 4.45473e-08 -7.17611e-08
-1.08946e-08 -4.4599e-08 -7.17846e-08
-3.90487e-08 1.04235e-08 -7.07101e-08
-3.93733e-08 4.71319e-08 -8.51618e-08
-3.85584e-08 -4.85021e-08 -8.54664e-08
-7.97601e-08 -8.51492e-08 -1.14721e-07
3.9775e-08 -3.95298e-08 -8.05331e-08
-7.95089e-08 8.52058e-08 -1.14639e-07
-1.16893e-07 1.16861e-07 -1.31468e-07
-1.172e-07 -1.17173e-07 -1.3154e-07
-7.03002e-08 5.30381e-08 -1.03637e-07
-7.15718e-08 -5.26812e-08 -1.0417e-07
4.15838e-09 -1.55736e-08 -3.71353e-08
1.49077e-08 -3.9371e-09 -3.6578e-08
1.21113e-07 1.24832e-07 -1.28455e-07
1.21057e-07 -1.24867e-07 -1.28406e-07
8.43657e-09 2.0271e-07 -1.40931e-07
3.91088e-09 -2.02869e-07 -1.40994e-07
2.66321e-07 2.78227e-07 -1.02253e-07
2.76416e-07 3.94284e-07 -1.02948e-07
1.62705e-07 4.01828e-07 -1.02874e-07
1.50076e-07 2.82238e-07 -1.02053e-07
9.19046e-08 4.36547e-07 -1.31519e-07
7.58576e-08 2.5878e-07 -1.30973e-07
2.18124e-07 4.0964e-07 -9.67153e-08
1.4609e-07 3.45316e-07 -9.42724e-08
2.78398e-07 3.35992e-07 -9.51672e-08
2.07487e-07 2.68984e-07 -9.60939e-08
6.71164e-08 4.45946e-07 -1.38464e-07
5.03004e-08 2.55856e-07 -1.38277e-07
3.45882e-07 4.05726e-07 -1.27345e-07
3.2937e-07 2.69656e-07 -1.25719e-07
2.00662e-07 1.98e-07 -1.26498e-07
2.20428e-07 4.85572e-07 -1.26728e-07
1.81252e-07 4.53363e-07 -1.17121e-07
1.60733e-07 2.28752e-07 -1.15985e-07
9.50115e-08 3.76687e-07 -1.18352e-07
8.70079e-08 3.18963e-07 -1.1869e-07
2.62852e-07 4.53567e-07 -1.18095e-07
2.50154e-07 2.21417e-07 -1.17105e-07
2.3377e-07 3.11161e-07 -7.62423e-08
2.3983e-07 3.65181e-07 -7.70765e-08
1.90782e-07 3.62821e-07 -7.48332e-08
1.86442e-07 3.16851e-07 -7.40538e-08
6.14842e-08 4.6696e-07 -1.40914e-07
4.25886e-08 2.36909e-07 -1.40854e-07
1.33803e-07 4.44249e-07 -1.22245e-07
1.14456e-07 2.41497e-07 -1.20938e-07
3.38238e-07 3.56425e-07 -1.20068e-07
3.28376e-07 3.13273e-07 -1.18308e-07
1.12486e-07 2.9063e-07 -1.14555e-07
1.23291e-07 3.99386e-07 -1.15071e-07
2.19215e-07 1.65208e-07 -1.35783e-07
2.40092e-07 5.2042e-07 -1.35332e-07
3.10583e-07 4.35628e-07 -1.22135e-07
2.95494e-07 2.41684e-07 -1.1966e-07
2.22893e-07 3.76408e-07 -7.8014e-08
2.03242e-07 3.01983e-07 -7.69492e-08
1.75222e-07 3.36451e-07 -7.68477e-08
2.49982e-07 3.35303e-07 -7.82858e-08
5.91525e-08 4.12356e-07 -1.33346e-07
4.67722e-08 2.89285e-07 -1.33166e-07
2.98638e-07 3.71997e-07 -1.07001e-07
3.61501e-07 4.38457e-07 -1.3424e-07
3.47359e-07 2.35937e-07 -1.34605e-07
2.90768e-07 3.06329e-07 -1.05158e-07
1.9337e-07 3.99509e-07 -9.36956e-08
2.33997e-07 2.78896e-07 -9.28068e-08
1.59185e-07 3.6845e-07 -9.24765e-08
2.47536e-07 3.93321e-07 -9.30279e-08
1.79771e-07 2.83327e-07 -9.23838e-08
1.58187e-07 3.18985e-07 -8.92545e-08
1.60564e-07 1.91356e-07 -1.26459e-07
1.84891e-07 4.91324e-07 -1.27341e-07
2.07453e-07 5.28194e-07 -1.3681e-07
1.83941e-07 1.5948e-07 -1.37321e-07
4.9315e-08 4.33538e-07 -1.39447e-07
3.33844e-08 2.70994e-07 -1.39316e-07
6.09841e-08 3.50502e-07 -1.22768e-07
3.91926e-07 4.14935e-07 -1.37926e-07
3.81049e-07 2.6024e-07 -1.39189e-07
2.50459e-07 4.86697e-07 -1.2716e-07
2.34106e-07 1.93127e-07 -1.26686e-07
2.63923e-07 3.55276e-07 -8.79669e-08
2.1677e-07 2.32131e-07 -1.13383e-07
2.31954e-07 4.47263e-07 -1.14093e-07
2.06804e-07 4.50576e-07 -1.15085e-07
1.88565e-07 2.30692e-07 -1.14377e-07
1.25445e-07 2.11093e-07 -1.22181e-07
1.50018e-07 4.70135e-07 -1.24007e-07
3.57955e-07 2.95537e-07 -1.28501e-07
3.68518e-07 3.8144e-07 -1.29007e-07
8.80434e-08 4.61298e-07 -1.3494e-07
6.8252e-08 2.34549e-07 -1.34286e-07
1.22571e-07 3.19304e-07 -1.06188e-07
8.00249e-08 2.88439e-07 -1.25685e-07
9.16149e-08 4.07276e-07 -1.25976e-07
4.37418e-08 4.67244e-07 -1.43316e-07
4.56198e-08 4.53013e-07 -1.4251e-07
2.47243e-08 2.41152e-07 -1.43482e-07
2.73284e-08 2.53663e-07 -1.42482e-07
2.55971e-07 3.13968e-07 -8.67395e-08
2.98879e-07 4.62531e-07 -1.24044e-07
2.85497e-07 2.06076e-07 -1.2255e-07
1.19266e-07 4.26279e-07 -1.22469e-07
1.03863e-07 2.63429e-07 -1.21645e-07
2.41793e-07 5.45591e-07 -1.39638e-07
2.18256e-07 1.42669e-07 -1.40651e-07
1.27943e-07 3.71639e-07 -1.06633e-07
1.06603e-07 3.48186e-07 -1.11266e-07
3.53856e-07 3.28767e-07 -1.23386e-07
3.89019e-07 4.47743e-07 -1.3971e-07
3.74654e-07 2.29271e-07 -1.40965e-07
2.76848e-07 4.22298e-07 -1.11351e-07
2.59832e-07 2.47411e-07 -1.10262e-07
2.99358e-07 2.74223e-07 -1.15017e-07
1.481e-07 2.53292e-07 -1.1079e-07
1.65836e-07 4.29737e-07 -1.12043e-07
2.09675e-07 3.61793e-07 -6.70696e-08
2.17974e-07 3.15181e-07 -6.77481e-08
2.3604e-07 3.46116e-07 -6.80798e-08
1.91009e-07 3.47707e-07 -6.75721e-08
3.09237e-07 4.04287e-07 -1.16302e-07
5.64118e-08 3.85971e-07 -1.27835e-07
4.78738e-08 3.15649e-07 -1.27801e-07
2.00727e-07 3.29624e-07 -6.10621e-08
1.79307e-07 2.55379e-07 -1.04687e-07
2.23884e-07 3.58036e-07 -6.60507e-08
2.28742e-07 3.28893e-07 -6.46918e-08
2.62803e-07 1.85633e-07 -1.25687e-07
2.77699e-07 4.87594e-07 -1.2674e-07
2.45026e-07 4.24031e-07 -1.05874e-07
3.12583e-07 3.3553e-07 -1.10891e-07
1.93569e-07 4.27595e-07 -1.06458e-07
7.24562e-08 4.27751e-07 -1.34458e-07
5.79222e-08 2.72154e-07 -1.342e-07
9.07137e-08 2.17871e-07 -1.27967e-07
1.14149e-07 4.69483e-07 -1.29439e-07
2.6153e-07 3.73486e-07 -9.08299e-08
2.33273e-07 2.50695e-07 -1.05688e-07
3.1683e-07 2.94624e-07 -1.17279e-07
3.32811e-07 4.27641e-07 -1.2646e-07
3.2016e-07 2.46516e-07 -1.25987e-07
3.30548e-07 3.82095e-07 -1.19752e-07
2.03684e-07 3.50489e-07 -6.20787e-08
2.19882e-07 2.95635e-07 -8.12181e-08
2.06322e-07 3.82529e-07 -8.17461e-08
1.73969e-07 3.51907e-07 -7.97723e-08
1.79513e-07 3.84275e-07 -9.01323e-08
2.43375e-07 2.9452e-07 -8.81688e-08
1.28657e-07 2.68447e-07 -1.12628e-07
1.43587e-07 4.17507e-07 -1.13553e-07
1.6844e-07 2.9806e-07 -9.01441e-08
1.09801e-07 4.47237e-07 -1.28368e-07
9.11919e-08 2.43219e-07 -1.27376e-07
1.49404e-07 3.89472e-07 -1.03309e-07
1.40027e-07 2.97135e-07 -1.02475e-07
2.04366e-07 3.19395e-07 -6.49125e-08
1.91863e-07 3.34724e-07 -6.51944e-08
3.36628e-07 4.55864e-07 -1.29458e-07
3.22674e-07 2.15598e-07 -1.28447e-07
2.00061e-07 1.46053e-07 -1.40757e-07
2.23234e-07 5.43573e-07 -1.39721e-07
4.57525e-07 -5.38691e-08 -1.02019e-07
4.57858e-07 5.64198e-08 -1.02969e-07
3.40511e-07 5.9721e-08 -1.02111e-07
3.40351e-07 -5.96436e-08 -1.02221e-07
2.67716e-07 8.72008e-08 -1.30906e-07
2.67535e-07 -8.71841e-08 -1.30948e-07
3.97428e-07 6.80082e-08 -9.64956e-08
3.29499e-07 -5.67814e-10 -9.40331e-08
4.64076e-07 -2.2142e-09 -9.4093e-08
3.96673e-07 -6.81813e-08 -9.666e-08
2.42381e-07 9.16548e-08 -1.38139e-07
2.42154e-07 -9.1671e-08 -1.38181e-07
5.29513e-07 -6.95351e-08 -1.27404e-07
5.23069e-07 6.65155e-08 -1.25366e-07
3.97514e-07 -1.40468e-07 -1.2702e-07
4.03994e-07 1.4003e-07 -1.27113e-07
4.42772e-07 1.06939e-07 -1.17396e-07
3.55603e-07 -1.11785e-07 -1.16284e-07
2.75211e-07 2.8481e-08 -1.17883e-07
2.71689e-07 -2.84845e-08 -1.18845e-07
4.4219e-07 -1.11269e-07 -1.18532e-07
3.56249e-07 1.1698e-07 -1.17501e-07
4.20617e-07 -2.1064e-08 -7.34721e-08
4.22813e-07 2.58361e-08 -7.69798e-08
3.70783e-07 2.29537e-08 -7.56724e-08
3.71913e-07 -2.16202e-08 -7.46346e-08
2.36283e-07 1.10586e-07 -1.40699e-07
2.36023e-07 -1.10617e-07 -1.40808e-07
3.08186e-07 1.02027e-07 -1.21046e-07
3.08003e-07 -1.0162e-07 -1.21071e-07
5.25505e-07 -2.03486e-08 -1.19878e-07
5.19337e-07 2.30665e-08 -1.18031e-07
3.01468e-07 -5.38006e-08 -1.14502e-07
3.01615e-07 5.38594e-08 -1.14453e-07
4.19309e-07 -1.73488e-07 -1.36279e-07
3.8806e-07 1.74244e-07 -1.36007e-07
4.91834e-07 -9.69998e-08 -1.22404e-07
4.91809e-07 9.48193e-08 -1.21994e-07
4.04159e-07 3.60687e-08 -7.79189e-08
4.02814e-07 -3.55873e-08 -7.73687e-08
3.59739e-07 6.07245e-09 -7.71578e-08
4.34841e-07 -4.32964e-09 -7.68031e-08
2.35592e-07 5.93192e-08 -1.32903e-07
2.35468e-07 -5.93141e-08 -1.32889e-07
4.84284e-07 -3.19435e-08 -1.06746e-07
5.43382e-07 -1.02643e-07 -1.3435e-07
5.42523e-07 1.01736e-07 -1.34109e-07
4.78898e-07 3.20437e-08 -1.04426e-07
3.70329e-07 5.96443e-08 -9.40633e-08
3.71432e-07 -5.8189e-08 -9.33042e-08
3.39928e-07 -2.54762e-08 -9.21088e-08
4.27855e-07 -5.2416e-08 -9.26711e-08
4.28826e-07 5.28554e-08 -9.29984e-08
3.44246e-07 2.34874e-08 -8.95181e-08
3.5906e-07 -1.48776e-07 -1.26671e-07
4.41507e-07 1.4356e-07 -1.27897e-07
4.2231e-07 1.79519e-07 -1.37861e-07
3.8605e-07 -1.8061e-07 -1.37448e-07
2.2398e-07 7.79979e-08 -1.3908e-07
2.23813e-07 -7.80036e-08 -1.39065e-07
2.43711e-07 4.54053e-10 -1.2222e-07
5.7521e-07 -8.06644e-08 -1.37928e-07
5.75788e-07 7.95843e-08 -1.38019e-07
4.29095e-07 -1.42156e-07 -1.27807e-07
3.72251e-07 1.45961e-07 -1.27181e-07
4.09924e-07 -1.04237e-07 -1.14273e-07
3.87971e-07 1.05364e-07 -1.13855e-07
4.47506e-07 1.6677e-08 -8.66708e-08
4.15049e-07 1.05935e-07 -1.15229e-07
3.8289e-07 -1.07913e-07 -1.14832e-07
4.76789e-07 1.21281e-07 -1.23885e-07
4.49172e-07 -2.42512e-08 -8.95361e-08
3.21796e-07 -1.30675e-07 -1.22375e-07
5.50557e-07 4.15634e-08 -1.27787e-07
5.53903e-07 -4.64458e-08 -1.28922e-07
2.62176e-07 1.11303e-07 -1.34286e-07
2.61965e-07 -1.11245e-07 -1.34323e-07
3.08335e-07 2.60266e-08 -1.06269e-07
2.68927e-07 -5.80638e-08 -1.25589e-07
2.69312e-07 5.80538e-08 -1.25476e-07
2.17976e-07 1.07463e-07 -1.43201e-07
2.19477e-07 9.52851e-08 -1.42251e-07
2.17717e-07 -1.07581e-07 -1.43344e-07
2.19229e-07 -9.53205e-08 -1.42278e-07
4.78616e-07 -1.22399e-07 -1.24438e-07
2.95532e-07 8.09242e-08 -1.21623e-07
2.95359e-07 -8.0873e-08 -1.21683e-07
4.22234e-07 -1.97913e-07 -1.40804e-07
3.90689e-07 1.97002e-07 -1.40768e-07
3.2008e-07 1.31849e-07 -1.2279e-07
3.09186e-07 -2.50701e-08 -1.05749e-07
2.8837e-07 2.18871e-09 -1.11321e-07
5.43548e-07 7.1093e-09 -1.23004e-07
4.60854e-07 8.42534e-08 -1.12857e-07
5.70633e-07 -1.13166e-07 -1.39781e-07
5.70687e-07 1.12608e-07 -1.39822e-07
4.58379e-07 -8.33553e-08 -1.12073e-07
4.89737e-07 6.3746e-08 -1.15112e-07
3.41022e-07 -8.84192e-08 -1.11106e-07
3.89588e-07 2.20933e-08 -6.76893e-08
3.91447e-07 -2.10305e-08 -6.68996e-08
4.2141e-07 7.83753e-09 -6.83139e-08
3.73968e-07 -5.52246e-09 -6.70168e-08
3.40536e-07 9.00385e-08 -1.11499e-07
4.92127e-07 -6.59718e-08 -1.16301e-07
2.34925e-07 3.41708e-08 -1.27313e-07
2.33181e-07 -3.35017e-08 -1.27449e-07
4.0774e-07 -9.39965e-09 -6.12723e-08
4.22827e-07 8.02233e-08 -1.04787e-07
4.06732e-07 1.84599e-08 -6.58987e-08
3.78772e-07 8.56674e-09 -6.49341e-08
4.5646e-07 -1.44903e-07 -1.27387e-07
4.24615e-07 -8.23649e-08 -1.06053e-07
5.00529e-07 1.27154e-09 -1.10479e-07
3.69873e-07 -8.59411e-08 -1.05962e-07
4.45458e-07 3.46598e-08 -9.09234e-08
2.48554e-07 7.52899e-08 -1.34033e-07
2.4834e-07 -7.52987e-08 -1.34064e-07
2.86624e-07 1.24821e-07 -1.27898e-07
2.86018e-07 -1.26004e-07 -1.28098e-07
3.70901e-07 8.70391e-08 -1.06231e-07
5.09775e-07 4.28234e-08 -1.17515e-07
3.43066e-07 1.499e-07 -1.25297e-07
5.14902e-07 -9.03673e-08 -1.26602e-07
5.14218e-07 8.91373e-08 -1.26282e-07
5.15731e-07 -4.51063e-08 -1.1971e-07
3.85977e-07 -9.50995e-09 -6.18963e-08
3.86194e-07 4.16341e-08 -8.14391e-08
3.86093e-07 -4.16286e-08 -8.1583e-08
3.56441e-07 -9.24157e-09 -7.94778e-08
3.59142e-07 4.32846e-08 -8.97055e-08
3.58644e-07 -4.25575e-08 -8.97197e-08
3.19962e-07 -7.44336e-08 -1.1273e-07
4.37835e-07 -3.70309e-08 -8.88e-08
3.20079e-07 7.47268e-08 -1.12714e-07
2.8461e-07 1.01223e-07 -1.2735e-07
2.84352e-07 -1.01347e-07 -1.27443e-07
3.28372e-07 -4.5981e-08 -1.02684e-07
3.27334e-07 4.55966e-08 -1.02961e-07
4.03377e-07 -1.8655e-08 -6.5361e-08
4.17302e-07 -5.23861e-09 -6.49019e-08
5.17239e-07 -1.18527e-07 -1.29687e-07
5.17232e-07 1.18102e-07 -1.29617e-07
4.0884e-07 1.94553e-07 -1.40957e-07
4.04129e-07 -1.94383e-07 -1.40806e-07
2.74816e-07 -3.95221e-07 -1.02708e-07
2.67927e-07 -2.79341e-07 -1.02608e-07
1.50042e-07 -2.8194e-07 -1.02033e-07
1.62511e-07 -4.01666e-07 -1.02838e-07
7.5799e-08 -2.58669e-07 -1.30948e-07
9.17572e-08 -4.36471e-07 -1.31509e-07
2.06013e-07 -2.69135e-07 -9.60206e-08
1.45578e-07 -3.41818e-07 -9.42469e-08
2.78422e-07 -3.37796e-07 -9.51855e-08
2.19765e-07 -4.0966e-07 -9.67657e-08
5.03075e-08 -2.55796e-07 -1.38243e-07
6.69484e-08 -4.45871e-07 -1.38436e-07
3.35573e-07 -2.67244e-07 -1.27809e-07
3.39174e-07 -4.03193e-07 -1.25416e-07
2.20281e-07 -4.85557e-07 -1.26712e-07
2.07137e-07 -1.97801e-07 -1.26499e-07
2.50464e-07 -2.2608e-07 -1.16102e-07
1.81144e-07 -4.53077e-07 -1.17106e-07
8.88934e-08 -3.18125e-07 -1.18157e-07
9.27824e-08 -3.76175e-07 -1.18866e-07
2.6273e-07 -4.53704e-07 -1.18015e-07
1.60463e-07 -2.23103e-07 -1.17269e-07
2.39129e-07 -3.64572e-07 -7.65765e-08
2.33995e-07 -3.1046e-07 -7.67577e-08
1.84767e-07 -3.18431e-07 -7.44894e-08
1.92556e-07 -3.6413e-07 -7.44076e-08
4.26168e-08 -2.36854e-07 -1.40755e-07
6.13103e-08 -4.66872e-07 -1.40886e-07
1.1429e-07 -2.40899e-07 -1.20967e-07
1.33687e-07 -4.44136e-07 -1.2223e-07
3.34747e-07 -3.16321e-07 -1.20301e-07
3.32196e-07 -3.59404e-07 -1.18142e-07
1.23168e-07 -3.99306e-07 -1.15082e-07
1.12383e-07 -2.90517e-07 -1.14508e-07
2.39935e-07 -5.20389e-07 -1.35301e-07
1.86428e-07 -1.65607e-07 -1.35767e-07
2.99206e-07 -2.35729e-07 -1.2153e-07
3.06392e-07 -4.29559e-07 -1.20291e-07
2.14835e-07 -3.01114e-07 -7.75507e-08
2.11541e-07 -3.76756e-07 -7.74482e-08
1.76515e-07 -3.46694e-07 -7.69219e-08
2.50243e-07 -3.3946e-07 -7.83255e-08
4.67193e-08 -2.89235e-07 -1.33178e-07
5.90203e-08 -4.12293e-07 -1.33319e-07
2.92732e-07 -3.01219e-07 -1.07012e-07
3.48227e-07 -2.35375e-07 -1.34874e-07
3.60361e-07 -4.37866e-07 -1.34087e-07
2.95709e-07 -3.67011e-07 -1.05197e-07
1.79419e-07 -2.79828e-07 -9.38991e-08
2.43289e-07 -3.96883e-07 -9.34168e-08
1.53146e-07 -3.16828e-07 -9.21387e-08
2.38471e-07 -2.82485e-07 -9.23061e-08
1.91783e-07 -3.97597e-07 -9.30879e-08
1.63517e-07 -3.6576e-07 -8.95582e-08
1.8472e-07 -4.9131e-07 -1.27368e-07
2.4697e-07 -1.8964e-07 -1.26488e-07
2.07291e-07 -5.28174e-07 -1.36805e-07
2.21298e-07 -1.58924e-07 -1.37342e-07
3.33617e-08 -2.7095e-07 -1.39335e-07
4.91561e-08 -4.33466e-07 -1.39397e-07
6.07152e-08 -3.48982e-07 -1.22766e-07
3.80462e-07 -2.59426e-07 -1.39138e-07
3.92274e-07 -4.14147e-07 -1.3809e-07
2.50298e-07 -4.86688e-07 -1.27111e-07
1.73749e-07 -1.93655e-07 -1.26883e-07
2.60396e-07 -3.18981e-07 -8.7873e-08
2.31827e-07 -4.47238e-07 -1.14011e-07
1.93682e-07 -2.32758e-07 -1.13388e-07
2.21728e-07 -2.29719e-07 -1.14387e-07
2.06657e-07 -4.50601e-07 -1.15112e-07
2.85293e-07 -2.07658e-07 -1.22239e-07
1.49877e-07 -4.69995e-07 -1.24017e-07
3.64704e-07 -3.76935e-07 -1.27944e-07
3.60953e-07 -2.90993e-07 -1.2969e-07
6.82101e-08 -2.34378e-07 -1.34268e-07
8.78886e-08 -4.61208e-07 -1.34925e-07
1.27858e-07 -3.7038e-07 -1.06447e-07
9.13198e-08 -4.0719e-07 -1.26021e-07
8.01107e-08 -2.88318e-07 -1.25614e-07
2.47648e-08 -2.41203e-07 -1.43344e-07
2.73698e-08 -2.53642e-07 -1.4246e-07
4.35507e-08 -4.67154e-07 -1.43275e-07
4.54263e-08 -4.52927e-07 -1.42462e-07
2.60178e-07 -3.6039e-07 -8.69397e-08
2.96834e-07 -4.63565e-07 -1.23948e-07
1.03759e-07 -2.63259e-07 -1.21617e-07
1.19135e-07 -4.26186e-07 -1.22463e-07
2.41636e-07 -5.45559e-07 -1.39613e-07
1.86003e-07 -1.42963e-07 -1.40613e-07
1.23344e-07 -2.09758e-07 -1.22623e-07
1.22157e-07 -3.18046e-07 -1.06346e-07
1.06113e-07 -3.44572e-07 -1.11248e-07
3.54988e-07 -3.42883e-07 -1.23301e-07
2.65787e-07 -2.51675e-07 -1.10189e-07
3.74686e-07 -2.28966e-07 -1.41016e-07
3.88805e-07 -4.47494e-07 -1.39834e-07
2.70474e-07 -4.25976e-07 -1.1109e-07
3.08276e-07 -3.98329e-07 -1.15156e-07
1.65565e-07 -4.29248e-07 -1.1193e-07
2.03665e-07 -3.16915e-07 -6.67238e-08
2.23397e-07 -3.62007e-07 -6.81109e-08
2.33856e-07 -3.29618e-07 -6.79764e-08
1.88881e-07 -3.33564e-07 -6.74624e-08
1.4723e-07 -2.51106e-07 -1.11369e-07
2.99531e-07 -2.68346e-07 -1.16122e-07
4.87364e-08 -3.15021e-07 -1.27717e-07
5.52503e-08 -3.85474e-07 -1.27913e-07
2.03899e-07 -3.49819e-07 -6.1243e-08
1.95228e-07 -4.25592e-07 -1.05524e-07
2.31067e-07 -2.54817e-07 -1.04041e-07
2.1871e-07 -3.19063e-07 -6.57312e-08
2.31051e-07 -3.47206e-07 -6.48588e-08
2.77176e-07 -4.87895e-07 -1.26754e-07
3.12588e-07 -3.37597e-07 -1.1092e-07
5.79154e-08 -2.72087e-07 -1.34181e-07
7.22789e-08 -4.27682e-07 -1.34443e-07
9.11256e-08 -2.18885e-07 -1.27801e-07
1.14007e-07 -4.6937e-07 -1.29434e-07
2.55154e-07 -3.00838e-07 -9.05697e-08
2.45166e-07 -4.25763e-07 -1.06418e-07
1.77779e-07 -2.5216e-07 -1.05958e-07
3.23432e-07 -3.78263e-07 -1.17131e-07
1.44374e-07 -1.90496e-07 -1.25052e-07
3.21045e-07 -2.4442e-07 -1.26449e-07
3.31557e-07 -4.25426e-07 -1.26053e-07
3.2321e-07 -2.90885e-07 -1.20027e-07
2.00117e-07 -3.29056e-07 -6.189e-08
2.2806e-07 -3.81417e-07 -8.1735e-08
1.966e-07 -2.96767e-07 -8.12122e-08
1.71225e-07 -3.31611e-07 -7.96233e-08
2.50592e-07 -3.80525e-07 -8.86081e-08
1.69081e-07 -2.98685e-07 -8.94805e-08
1.43436e-07 -4.17387e-07 -1.13544e-07
1.78109e-07 -3.845e-07 -9.07173e-08
1.28496e-07 -2.68009e-07 -1.12652e-07
9.11857e-08 -2.43207e-07 -1.27315e-07
1.09664e-07 -4.4714e-07 -1.28359e-07
1.39415e-07 -2.96626e-07 -1.02717e-07
1.49636e-07 -3.88943e-07 -1.03039e-07
2.09567e-07 -3.59365e-07 -6.5235e-08
1.93456e-07 -3.46106e-07 -6.52812e-08
3.26318e-07 -2.14124e-07 -1.29353e-07
3.34183e-07 -4.54542e-07 -1.29049e-07
2.04373e-07 -1.45932e-07 -1.40749e-07
2.23076e-07 -5.43546e-07 -1.39705e-07
-1.09849e-07 -4.22671e-07 -1.02478e-07
-1.27102e-07 -3.03595e-07 -1.04801e-07
-2.54862e-07 -3.34545e-07 -1.09244e-07
-2.22286e-07 -4.57913e-07 -1.04201e-07
-2.95794e-07 -5.05264e-07 -1.32155e-07
-3.44648e-07 -3.27293e-07 -1.41007e-07
-1.94863e-07 -3.06642e-07 -1.0084e-07
-2.46386e-07 -4.01122e-07 -9.79178e-08
-1.11087e-07 -3.66173e-07 -9.42719e-08
-1.63862e-07 -4.52446e-07 -9.75061e-08
-3.23205e-07 -5.1758e-07 -1.38578e-07
-3.76207e-07 -3.30911e-07 -1.48172e-07
-6.48352e-08 -2.89788e-07 -1.26096e-07
-4.06295e-08 -4.28186e-07 -1.28277e-07
-1.53581e-07 -5.29431e-07 -1.27454e-07
-2.04184e-07 -2.30944e-07 -1.34111e-07
-2.48178e-07 -2.73301e-07 -1.26358e-07
-1.9706e-07 -5.0482e-07 -1.17909e-07
-2.93454e-07 -4.45303e-07 -1.2147e-07
-3.13332e-07 -3.86181e-07 -1.25193e-07
-1.50487e-07 -2.48177e-07 -1.2072e-07
-1.15365e-07 -4.88815e-07 -1.18975e-07
-1.50048e-07 -3.9478e-07 -7.37652e-08
-1.59463e-07 -3.4339e-07 -7.83277e-08
-2.1097e-07 -3.66168e-07 -7.80898e-08
-1.98264e-07 -4.13805e-07 -7.75591e-08
-3.27276e-07 -5.38301e-07 -1.40666e-07
-3.91762e-07 -3.14499e-07 -1.53115e-07
-2.48713e-07 -5.05495e-07 -1.23016e-07
-3.02434e-07 -2.99602e-07 -1.32894e-07
-4.57366e-08 -3.77574e-07 -1.19538e-07
-5.87244e-08 -3.35008e-07 -1.17853e-07
-2.63919e-07 -4.63532e-07 -1.16835e-07
-2.9412e-07 -3.51749e-07 -1.21867e-07
-1.85126e-07 -1.92366e-07 -1.42317e-07
-1.30009e-07 -5.61783e-07 -1.36034e-07
-7.21711e-08 -4.62923e-07 -1.23308e-07
-1.01689e-07 -2.63417e-07 -1.21353e-07
-1.81527e-07 -3.38263e-07 -8.04804e-08
-1.63616e-07 -4.16222e-07 -7.80329e-08
-2.14135e-07 -3.99882e-07 -7.98627e-08
-1.40098e-07 -3.73237e-07 -7.71145e-08
-3.30737e-07 -4.85646e-07 -1.3478e-07
-3.65566e-07 -3.64833e-07 -1.40703e-07
-8.67583e-08 -3.94427e-07 -1.06947e-07
-5.09406e-08 -2.52131e-07 -1.3534e-07
-2.54428e-08 -4.61693e-07 -1.35855e-07
-1.03033e-07 -3.30994e-07 -1.04117e-07
-2.20663e-07 -3.25971e-07 -9.87325e-08
-1.9028e-07 -4.48425e-07 -9.47036e-08
-2.44258e-07 -3.71677e-07 -9.69191e-08
-1.37387e-07 -4.27739e-07 -9.31488e-08
-1.57878e-07 -3.12883e-07 -9.50762e-08
-2.25429e-07 -4.21918e-07 -9.21509e-08
-1.88635e-07 -5.41571e-07 -1.2805e-07
-2.48783e-07 -2.32435e-07 -1.39245e-07
-1.61672e-07 -5.74326e-07 -1.37463e-07
-2.22434e-07 -1.9199e-07 -1.48119e-07
-3.43185e-07 -5.07387e-07 -1.39721e-07
-3.89399e-07 -3.50587e-07 -1.47612e-07
-3.28536e-07 -4.23367e-07 -1.27898e-07
1.65844e-09 -4.36421e-07 -1.39325e-07
-1.62398e-08 -2.74981e-07 -1.393e-07
-1.68756e-07 -2.2025e-07 -1.3169e-07
-1.23666e-07 -5.25423e-07 -1.27964e-07
-1.85392e-07 -2.64701e-07 -1.18799e-07
-1.46289e-07 -4.88098e-07 -1.14861e-07
-1.32001e-07 -3.48724e-07 -8.71897e-08
-2.16252e-07 -2.69215e-07 -1.21984e-07
-1.71161e-07 -4.96669e-07 -1.15856e-07
-1.22205e-07 -3.92091e-07 -8.9781e-08
-2.27682e-07 -5.27656e-07 -1.24699e-07
-2.91385e-07 -2.63924e-07 -1.37287e-07
-3.08649e-08 -3.14424e-07 -1.27799e-07
-1.67621e-08 -4.02129e-07 -1.29084e-07
-2.97781e-07 -5.29786e-07 -1.35125e-07
-3.60529e-07 -3.04914e-07 -1.47305e-07
-2.6119e-07 -4.34116e-07 -1.09549e-07
-2.96751e-07 -4.76846e-07 -1.27609e-07
-3.3014e-07 -3.56101e-07 -1.33361e-07
-3.48013e-07 -5.4037e-07 -1.42835e-07
-3.48435e-07 -5.26332e-07 -1.42146e-07
-4.11259e-07 -3.23796e-07 -1.54827e-07
-4.04054e-07 -3.35779e-07 -1.51961e-07
-1.14345e-07 -2.27303e-07 -1.24962e-07
-7.99129e-08 -4.92532e-07 -1.25174e-07
-2.6645e-07 -4.90771e-07 -1.23475e-07
-3.10869e-07 -3.25218e-07 -1.31344e-07
-1.25497e-07 -5.87221e-07 -1.40302e-07
-1.86504e-07 -1.68242e-07 -1.47649e-07
-2.74906e-07 -3.80312e-07 -1.1129e-07
-2.85981e-07 -4.14526e-07 -1.16017e-07
-2.90105e-08 -3.48799e-07 -1.22208e-07
-2.54182e-08 -2.4218e-07 -1.416e-07
-1.23085e-10 -4.70577e-07 -1.41616e-07
-1.04697e-07 -4.54712e-07 -1.12669e-07
-1.34924e-07 -2.73035e-07 -1.13506e-07
-9.17183e-08 -2.95457e-07 -1.17141e-07
-2.15998e-07 -4.84781e-07 -1.12985e-07
-2.60875e-07 -3.03284e-07 -1.20312e-07
-1.9127e-07 -3.58757e-07 -6.94654e-08
-1.79554e-07 -4.06515e-07 -6.87634e-08
-1.56745e-07 -3.62963e-07 -6.90538e-08
-2.03246e-07 -3.82979e-07 -6.9541e-08
-7.59853e-08 -4.29521e-07 -1.16976e-07
-3.31469e-07 -4.5997e-07 -1.3098e-07
-3.53075e-07 -3.91229e-07 -1.34472e-07
-1.65166e-07 -3.85638e-07 -6.16339e-08
-1.74697e-07 -3.55518e-07 -6.77408e-08
-1.94127e-07 -3.9666e-07 -6.68383e-08
-9.669e-08 -5.22034e-07 -1.27685e-07
-1.38864e-07 -2.08606e-07 -1.29267e-07
-1.35828e-07 -4.61257e-07 -1.06607e-07
-1.65e-07 -2.82059e-07 -1.09406e-07
-7.42527e-08 -3.58738e-07 -1.10259e-07
-2.27682e-07 -2.96582e-07 -1.13095e-07
-1.87186e-07 -4.76448e-07 -1.07311e-07
-1.37488e-07 -3.29919e-07 -9.18744e-08
-3.17356e-07 -4.99384e-07 -1.35204e-07
-3.60956e-07 -3.44938e-07 -1.42832e-07
-2.66979e-07 -5.33811e-07 -1.29895e-07
-3.35155e-07 -2.81206e-07 -1.43721e-07
-7.22829e-08 -3.14975e-07 -1.18132e-07
-7.70744e-08 -2.66694e-07 -1.26718e-07
-5.22689e-08 -4.52073e-07 -1.27693e-07
-5.47776e-08 -4.04213e-07 -1.20013e-07
-1.92761e-07 -3.74332e-07 -6.41499e-08
-2.01629e-07 -3.38733e-07 -8.53019e-08
-1.78635e-07 -4.27813e-07 -8.26564e-08
-2.22252e-07 -3.84409e-07 -8.29058e-08
-2.30679e-07 -3.47358e-07 -9.48956e-08
-2.06214e-07 -4.36597e-07 -9.1448e-08
-2.41041e-07 -4.77418e-07 -1.14726e-07
-2.81307e-07 -3.24738e-07 -1.21496e-07
-1.30911e-07 -4.08326e-07 -8.91522e-08
-2.74861e-07 -5.12762e-07 -1.28955e-07
-3.30358e-07 -3.07549e-07 -1.39391e-07
-2.63165e-07 -3.52779e-07 -1.09053e-07
-2.38565e-07 -4.48111e-07 -1.05372e-07
-1.66956e-07 -3.9737e-07 -6.55273e-08
-1.57255e-07 -3.78232e-07 -6.52912e-08
-7.49714e-08 -2.32632e-07 -1.29988e-07
-4.60354e-08 -4.812e-07 -1.30945e-07
-2.05413e-07 -1.74909e-07 -1.49776e-07
-1.44312e-07 -5.87559e-07 -1.40362e-07
-3.68842e-07 -9.80924e-08 -1.61161e-07
-5.81392e-07 1.14923e-07 -1.68663e-07
-3.6903e-07 1.01981e-07 -1.61075e-07
-5.81583e-07 -1.14947e-07 -1.68665e-07
-6.84629e-07 1.45055e-07 -1.71873e-07
-6.8466e-07 -1.4515e-07 -1.7187e-07
-4.73514e-07 1.35884e-07 -1.64773e-07
-6.10068e-07 3.44401e-09 -1.69412e-07
-3.51831e-07 -3.95647e-09 -1.61045e-07
-4.74849e-07 -1.36099e-07 -1.64804e-07
-7.17887e-07 1.50842e-07 -1.72826e-07
-7.17919e-07 -1.50926e-07 -1.72824e-07
-2.85767e-07 9.61998e-08 -1.59255e-07
-2.78736e-07 -9.86457e-08 -1.59065e-07
-4.65089e-07 -2.2885e-07 -1.64152e-07
-4.55186e-07 2.27374e-07 -1.63548e-07
-3.95826e-07 1.78822e-07 -1.59914e-07
-5.38523e-07 -1.92506e-07 -1.67246e-07
-6.80028e-07 5.36181e-08 -1.71209e-07
-6.82623e-07 -5.25249e-08 -1.71256e-07
-3.96491e-07 -1.84943e-07 -1.59622e-07
-5.36048e-07 1.99343e-07 -1.67167e-07
-4.22774e-07 -5.31891e-08 -1.63278e-07
-5.37914e-07 5.47747e-08 -1.67287e-07
-4.2035e-07 6.17057e-08 -1.63169e-07
-5.39695e-07 -5.70127e-08 -1.67347e-07
-7.24071e-07 1.74528e-07 -1.73008e-07
-7.24113e-07 -1.74609e-07 -1.73006e-07
-6.21597e-07 1.70713e-07 -1.69899e-07
-6.2178e-07 -1.70272e-07 -1.69903e-07
-2.75296e-07 -2.93417e-08 -1.57467e-07
-2.83411e-07 3.43069e-08 -1.57942e-07
-6.42487e-07 9.84827e-08 -1.70489e-07
-6.42506e-07 -9.85917e-08 -1.70488e-07
-4.30901e-07 -2.6304e-07 -1.61301e-07
-4.74023e-07 2.70112e-07 -1.6489e-07
-3.25897e-07 -1.4911e-07 -1.57923e-07
-3.25978e-07 1.46229e-07 -1.58107e-07
-4.61184e-07 8.60026e-08 -1.64528e-07
-4.63864e-07 -8.50769e-08 -1.64615e-07
-5.64009e-07 -1.46967e-08 -1.68124e-07
-3.94973e-07 -1.01841e-08 -1.6244e-07
-7.26274e-07 1.04799e-07 -1.72504e-07
-7.26291e-07 -1.04884e-07 -1.725e-07
-3.27945e-07 -5.36233e-08 -1.60327e-07
-2.66342e-07 -1.37127e-07 -1.58166e-07
-2.67358e-07 1.36494e-07 -1.58208e-07
-3.35091e-07 5.52502e-08 -1.60539e-07
-5.27783e-07 1.21089e-07 -1.66868e-07
-5.2587e-07 -1.19205e-07 -1.66796e-07
-5.91992e-07 5.3734e-08 -1.68942e-07
-4.16262e-07 -1.06758e-07 -1.62659e-07
-4.146e-07 1.06866e-07 -1.6262e-07
-5.85878e-07 -5.03626e-08 -1.68757e-07
-5.22335e-07 -2.40727e-07 -1.6679e-07
-3.97801e-07 2.24834e-07 -1.58319e-07
-4.75505e-07 -2.78117e-07 -1.64986e-07
-4.26477e-07 2.69165e-07 -1.60847e-07
-7.40396e-07 1.32616e-07 -1.73107e-07
-7.40422e-07 -1.32696e-07 -1.73105e-07
-7.18795e-07 1.30008e-09 -1.71658e-07
-2.31081e-07 -1.03734e-07 -1.57762e-07
-2.30241e-07 1.0253e-07 -1.57669e-07
-4.16611e-07 -2.25508e-07 -1.60292e-07
-5.02984e-07 2.37067e-07 -1.66072e-07
-4.48502e-07 -1.82607e-07 -1.6325e-07
-4.85534e-07 1.85879e-07 -1.65181e-07
-3.76906e-07 3.45644e-08 -1.61872e-07
-4.3998e-07 1.83899e-07 -1.62767e-07
-4.93645e-07 -1.89067e-07 -1.65515e-07
-3.45202e-07 1.88373e-07 -1.55443e-07
-3.75325e-07 -4.86875e-08 -1.61802e-07
-5.89589e-07 -2.12137e-07 -1.6875e-07
-2.49788e-07 5.74332e-08 -1.56393e-07
-2.47136e-07 -6.36919e-08 -1.56367e-07
-6.89095e-07 1.76152e-07 -1.72006e-07
-6.89139e-07 -1.76246e-07 -1.72004e-07
-6.36656e-07 -4.92607e-08 -1.70164e-07
-6.8524e-07 1.03202e-07 -1.71671e-07
-6.85448e-07 -1.03209e-07 -1.71673e-07
-7.45782e-07 1.70488e-07 -1.73439e-07
-7.45481e-07 1.54846e-07 -1.73393e-07
-7.45821e-07 -1.70563e-07 -1.73437e-07
-7.45514e-07 -1.54922e-07 -1.73392e-07
-3.42436e-07 -1.89029e-07 -1.5531e-07
-6.46309e-07 1.39041e-07 -1.70711e-07
-6.46358e-07 -1.39111e-07 -1.70709e-07
-4.25772e-07 -2.88176e-07 -1.60249e-07
-4.66745e-07 2.96772e-07 -1.64435e-07
-5.9223e-07 2.13241e-07 -1.68815e-07
-6.36724e-07 5.14041e-08 -1.70171e-07
-6.62939e-07 3.26456e-09 -1.70715e-07
-2.51921e-07 1.01835e-08 -1.54715e-07
-3.67348e-07 1.43297e-07 -1.5974e-07
-2.38166e-07 1.40506e-07 -1.57709e-07
-2.38212e-07 -1.40979e-07 -1.57692e-07
-3.70795e-07 -1.42882e-07 -1.59921e-07
-3.2631e-07 1.02372e-07 -1.59965e-07
-5.71235e-07 -1.58156e-07 -1.68329e-07
-4.92154e-07 5.83969e-08 -1.65716e-07
-4.97308e-07 -5.8883e-08 -1.65895e-07
-4.1959e-07 2.07038e-08 -1.63158e-07
-5.36872e-07 1.46959e-08 -1.67345e-07
-5.71751e-07 1.60254e-07 -1.6835e-07
-3.23333e-07 -1.04759e-07 -1.59852e-07
-7.27875e-07 6.34073e-08 -1.72068e-07
-7.29052e-07 -6.26761e-08 -1.72072e-07
-4.48183e-07 -2.94857e-08 -1.64115e-07
-4.27803e-07 1.48104e-07 -1.62564e-07
-4.5245e-07 5.19773e-08 -1.64299e-07
-5.27913e-07 -2.53291e-08 -1.67083e-07
-3.74957e-07 -2.23356e-07 -1.5558e-07
-4.24666e-07 -1.50853e-07 -1.62316e-07
-3.04596e-07 2.153e-09 -1.58985e-07
-5.20852e-07 -1.59073e-07 -1.66605e-07
-3.83527e-07 6.94404e-08 -1.61923e-07
-7.1063e-07 1.28648e-07 -1.72472e-07
-7.10681e-07 -1.28723e-07 -1.7247e-07
-6.49433e-07 1.97085e-07 -1.7062e-07
-6.49844e-07 -1.98689e-07 -1.7062e-07
-5.18972e-07 1.60564e-07 -1.66537e-07
-2.9781e-07 6.55235e-08 -1.59203e-07
-5.4758e-07 2.40516e-07 -1.67441e-07
-2.97622e-07 -1.31357e-07 -1.58475e-07
-2.98437e-07 1.29921e-07 -1.58558e-07
-2.90975e-07 -6.7477e-08 -1.59021e-07
-5.10114e-07 3.10769e-08 -1.66456e-07
-5.00339e-07 -9.53517e-08 -1.65915e-07
-5.00345e-07 9.52162e-08 -1.65922e-07
-5.68234e-07 2.24467e-08 -1.6824e-07
-5.56573e-07 8.97838e-08 -1.67857e-07
-5.54394e-07 -9.19427e-08 -1.67783e-07
-6.10398e-07 -1.33678e-07 -1.69585e-07
-3.9589e-07 -7.66238e-08 -1.62263e-07
-6.10324e-07 1.33884e-07 -1.69587e-07
-6.58195e-07 1.65657e-07 -1.71061e-07
-6.58342e-07 -1.65941e-07 -1.71061e-07
-6.04904e-07 8.94667e-08 -1.69364e-07
-6.06455e-07 -8.8529e-08 -1.69408e-07
-4.62021e-07 -5.08693e-08 -1.64639e-07
-4.27473e-07 -1.43987e-08 -1.63389e-07
-2.93727e-07 1.66896e-07 -1.5526e-07
-2.93649e-07 -1.67292e-07 -1.5525e-07
-4.50495e-07 -2.90116e-07 -1.63135e-07
-4.44051e-07 2.88501e-07 -1.62516e-07
-1.28468e-07 3.07567e-07 -1.0283e-07
-1.09e-07 4.25733e-07 -1.0361e-07
-2.21876e-07 4.57577e-07 -1.04096e-07
-2.5494e-07 3.34251e-07 -1.09372e-07
-3.44738e-07 3.27122e-07 -1.41082e-07
-2.95561e-07 5.05083e-07 -1.32163e-07
-1.63125e-07 4.51995e-07 -9.75069e-08
-2.45939e-07 4.02278e-07 -9.78886e-08
-1.11736e-07 3.61788e-07 -9.42318e-08
-1.947e-07 3.06408e-07 -1.00798e-07
-3.76343e-07 3.30727e-07 -1.4826e-07
-3.22977e-07 5.17417e-07 -1.38587e-07
-4.67408e-08 4.25991e-07 -1.26213e-07
-5.88748e-08 2.86696e-07 -1.28072e-07
-2.03977e-07 2.308e-07 -1.34066e-07
-1.47687e-07 5.27986e-07 -1.27489e-07
-1.15469e-07 4.84187e-07 -1.17989e-07
-2.48047e-07 2.73061e-07 -1.26396e-07
-3.09978e-07 3.85212e-07 -1.24268e-07
-2.96594e-07 4.4606e-07 -1.22447e-07
-1.50301e-07 2.48169e-07 -1.20589e-07
-1.95431e-07 5.09375e-07 -1.19222e-07
-1.60853e-07 3.48983e-07 -7.43809e-08
-1.46661e-07 3.9985e-07 -7.76117e-08
-1.96777e-07 4.11841e-07 -7.62744e-08
-2.12822e-07 3.64842e-07 -7.94971e-08
-3.91948e-07 3.14304e-07 -1.5323e-07
-3.27054e-07 5.38126e-07 -1.40681e-07
-3.02416e-07 2.99394e-07 -1.32991e-07
-2.48379e-07 5.05593e-07 -1.23075e-07
-5.12974e-08 3.37696e-07 -1.19505e-07
-5.19515e-08 3.81245e-07 -1.17875e-07
-2.94165e-07 3.51547e-07 -1.2197e-07
-2.63687e-07 4.63322e-07 -1.16783e-07
-1.84914e-07 1.92251e-07 -1.42269e-07
-1.60495e-07 5.67388e-07 -1.36074e-07
-9.85173e-08 2.56593e-07 -1.22959e-07
-7.2452e-08 4.60947e-07 -1.22976e-07
-1.62211e-07 4.16291e-07 -7.87959e-08
-1.82425e-07 3.39068e-07 -7.975e-08
-2.18011e-07 3.86996e-07 -8.04343e-08
-1.4197e-07 3.63977e-07 -7.71733e-08
-3.65677e-07 3.64706e-07 -1.40782e-07
-3.3049e-07 4.85512e-07 -1.34775e-07
-9.69145e-08 3.28627e-07 -1.06947e-07
-2.62292e-08 4.61213e-07 -1.35634e-07
-5.00917e-08 2.51513e-07 -1.35494e-07
-9.19193e-08 3.9554e-07 -1.04721e-07
-1.91077e-07 4.49735e-07 -9.5635e-08
-2.20592e-07 3.25609e-07 -9.87906e-08
-2.29024e-07 4.24879e-07 -9.46545e-08
-1.58796e-07 3.14217e-07 -9.43467e-08
-1.36374e-07 4.28137e-07 -9.36882e-08
-2.39491e-07 3.72486e-07 -9.42875e-08
-2.48615e-07 2.32225e-07 -1.39256e-07
-1.11608e-07 5.24478e-07 -1.28118e-07
-1.2685e-07 5.6787e-07 -1.37513e-07
-2.22239e-07 1.91829e-07 -1.48099e-07
-3.89518e-07 3.50432e-07 -1.47702e-07
-3.42963e-07 5.0723e-07 -1.39724e-07
-3.2871e-07 4.22324e-07 -1.27973e-07
-1.69631e-08 2.74367e-07 -1.39222e-07
2.35735e-09 4.35617e-07 -1.39362e-07
-1.68546e-07 2.20173e-07 -1.31603e-07
-1.76705e-07 5.37909e-07 -1.28188e-07
-1.85182e-07 2.64604e-07 -1.1869e-07
-1.66752e-07 4.93195e-07 -1.14883e-07
-1.25077e-07 3.84332e-07 -8.70116e-08
-1.41381e-07 4.88986e-07 -1.15876e-07
-2.16075e-07 2.69009e-07 -1.21963e-07
-8.17702e-08 4.92088e-07 -1.24677e-07
-1.31622e-07 3.40446e-07 -9.0021e-08
-2.9128e-07 2.63693e-07 -1.37372e-07
-1.98148e-08 3.97526e-07 -1.27834e-07
-2.87178e-08 3.09527e-07 -1.2901e-07
-3.60601e-07 3.04746e-07 -1.47374e-07
-2.97553e-07 5.29607e-07 -1.35141e-07
-2.76134e-07 3.79371e-07 -1.12005e-07
-3.29954e-07 3.55886e-07 -1.33352e-07
-2.96775e-07 4.76773e-07 -1.27682e-07
-4.11481e-07 3.23631e-07 -1.54985e-07
-4.04218e-07 3.35623e-07 -1.52076e-07
-3.47788e-07 5.40208e-07 -1.42846e-07
-3.48209e-07 5.26171e-07 -1.42153e-07
-1.12206e-07 2.27976e-07 -1.24803e-07
-3.10911e-07 3.25014e-07 -1.31435e-07
-2.66196e-07 4.90567e-07 -1.23461e-07
-1.86297e-07 1.68119e-07 -1.47615e-07
-1.57758e-07 5.92403e-07 -1.40333e-07
-2.29222e-07 5.28967e-07 -1.25235e-07
-2.60257e-07 4.32761e-07 -1.08973e-07
-2.8714e-07 4.0984e-07 -1.16257e-07
-2.6933e-08 3.63241e-07 -1.22201e-07
-1.02214e-07 4.55454e-07 -1.13597e-07
-6.51219e-11 4.70349e-07 -1.4166e-07
-2.54205e-08 2.42062e-07 -1.41432e-07
-1.30855e-07 2.74815e-07 -1.13121e-07
-7.82844e-08 4.27824e-07 -1.15849e-07
-2.60831e-07 3.03026e-07 -1.20396e-07
-1.77446e-07 4.04907e-07 -6.80275e-08
-1.93349e-07 3.58779e-07 -7.02879e-08
-1.52362e-07 3.8013e-07 -6.87977e-08
-1.99455e-07 3.94837e-07 -6.90924e-08
-2.16109e-07 4.86119e-07 -1.13471e-07
-9.52788e-08 2.91372e-07 -1.1686e-07
-3.51828e-07 3.9001e-07 -1.34452e-07
-3.3289e-07 4.59499e-07 -1.31123e-07
-1.7124e-07 3.64982e-07 -6.21524e-08
-1.37799e-07 4.59515e-07 -1.05509e-07
-1.63342e-07 3.96385e-07 -6.67943e-08
-2.00191e-07 3.783e-07 -6.76042e-08
-1.38243e-07 2.08695e-07 -1.29053e-07
-1.66286e-07 2.83435e-07 -1.08722e-07
-7.37127e-08 3.61259e-07 -1.10268e-07
-2.27557e-07 2.963e-07 -1.13123e-07
-1.23796e-07 4.0439e-07 -9.14289e-08
-3.61024e-07 3.44768e-07 -1.42898e-07
-3.17166e-07 4.99245e-07 -1.35218e-07
-3.35097e-07 2.81016e-07 -1.43819e-07
-2.66636e-07 5.32367e-07 -1.29824e-07
-1.8593e-07 4.76997e-07 -1.07699e-07
-6.05677e-08 4.02786e-07 -1.17841e-07
-2.03929e-07 5.43118e-07 -1.27224e-07
-7.58816e-08 2.63881e-07 -1.27296e-07
-5.29721e-08 4.51173e-07 -1.27419e-07
-6.74666e-08 3.12892e-07 -1.19916e-07
-1.85279e-07 3.9501e-07 -6.33222e-08
-1.78474e-07 4.27392e-07 -8.26785e-08
-2.01521e-07 3.38344e-07 -8.53146e-08
-2.16217e-07 4.03971e-07 -8.20905e-08
-2.06791e-07 4.35803e-07 -9.139e-08
-2.30519e-07 3.46895e-07 -9.49449e-08
-2.81362e-07 3.2448e-07 -1.21622e-07
-1.45897e-07 3.28762e-07 -8.97454e-08
-2.40733e-07 4.77349e-07 -1.14715e-07
-3.30392e-07 3.07358e-07 -1.39478e-07
-2.74567e-07 5.12366e-07 -1.2894e-07
-2.37138e-07 4.47934e-07 -1.04942e-07
-2.64285e-07 3.53334e-07 -1.09516e-07
-1.78043e-07 3.57308e-07 -6.65385e-08
-1.6007e-07 3.6689e-07 -6.54775e-08
-4.60413e-08 4.81132e-07 -1.30929e-07
-7.3885e-08 2.31831e-07 -1.30086e-07
-1.39905e-07 5.86691e-07 -1.40403e-07
-2.05213e-07 1.74766e-07 -1.49749e-07
SCALARS effective_fluid_pressure_TPM float
LOOKUP_TABLE default
119.7
119.7
119.7
119.7
119.7
119.7
119.7
119.7
119.7
119.7
119.7
119.7
119.7
119.7
0.9
119.7
119.7
119.7
119.7
119.7
119.7
119.7
119.7
119.7
119.7
119.7
119.7
0.9
119.7
119.7
119.7
119.7
119.7
119.7
119.7
119.7
119.7
119.7
0.9
119.7
119.7
119.7
119.7
119.7
119.7
119.7
119.7
119.7
119.7
0.9
119.7
119.7
119.7
119.7
119.7
119.7
119.7
119.7
119.7
119.7
0.9
119.7
119.7
119.7
119.7
119.7
119.7
119.7
119.7
119.7
119.7
108.232
119.7
119.7
119.7
119.7
119.7
119.7
119.7
119.7
0.9
119.7
119.7
119.7
119.7
119.7
119.7
119.7
119.7
119.7
119.7
119.7
119.7
119.7
119.7
0.9
119.7
119.7
119.7
119.7
119.7
119.7
119.7
119.7
119.7
119.7
119.7
119.7
0.9
119.7
119.7
119.7
119.7
119.7
119.7
119.7
119.7
119.7
119.7
0.9
119.7
119.7
119.7
119.7
119.7
119.7
119.7
119.7
119.7
119.7
0.9
119.7
119.7
119.7
119.7
119.7
119.7
119.7
119.7
119.7
119.7
0.9
119.7
119.7
119.7
119.7
119.7
119.7
119.7
119.7
119.7
119.7
108.232
119.7
119.7
119.7
119.7
119.7
119.7
119.7
119.7
0.9
119.7
95.1145
86.9355
86.2925
93.5206
119.7
119.7
102.652
98.3526
98.2665
102.713
119.7
119.7
93.6027
86.5591
86.9566
95.1206
119.7
92.6121
84.7321
84.7543
92.6109
119.7
92.4315
84.7132
84.8794
92.3233
119.7
92.6308
85.0043
84.9958
92.6827
0.9
0.9
0.9
119.7
119.7
92.563
85.0934
84.8433
92.4859
119.7
119.7
91.9484
84.4562
84.805
92.6362
119.7
92.6307
84.4873
84.6336
92.4027
119.7
92.4483
84.9255
84.6175
92.6592
119.7
92.3051
84.4323
84.5327
92.5508
119.7
0.9
0.9
0.9
119.7
119.7
119.7
92.6896
84.9462
84.7231
92.4859
119.7
92.6773
84.6589
84.9723
92.4909
119.7
92.4582
84.6941
84.5422
92.6648
119.7
92.3325
84.7102
84.7865
92.512
119.7
119.7
0.9
0.9
0.9
119.7
119.7
92.4671
84.9426
84.6313
92.668
119.7
92.5207
84.6712
84.4251
92.6066
119.7
92.648
84.8249
84.468
91.9479
119.7
119.7
92.6698
84.9202
85.0237
92.3818
119.7
119.7
0.9
0.9
0.9
119.7
119.7
92.6049
84.9051
84.7795
92.8787
119.7
92.9786
85.3194
85.0743
92.5305
119.7
119.7
93.123
86.4856
87.2303
95.0491
119.7
119.7
103.103
98.9558
99.2104
103.929
119.7
0.9
0.9
0.9
119.7
119.7
113.334
112.883
113.677
115.364
119.7
119.7
115.91
115.017
115.013
115.911
119.7
119.7
115.368
113.674
112.817
113.31
119.7
103.121
98.9837
99.3433
103.982
119.7
109.317
110.47
109.369
119.7
119.7
119.7
95.083
87.2403
86.5082
93.1171
119.7
119.7
92.5435
85.042
84.9044
92.9234
119.7
92.9373
85.2354
84.9873
92.665
119.7
119.7
0.9
0.9
0.9
119.7
95.1145
86.9355
86.2925
93.5206
119.7
119.7
102.652
98.3526
98.2665
102.713
119.7
119.7
93.6027
86.5591
86.9566
95.1206
119.7
92.6121
84.7321
84.7543
92.6109
119.7
92.4315
84.7132
84.8794
92.3233
119.7
92.6308
85.0043
84.9958
92.6827
0.9
0.9
0.9
119.7
119.7
92.563
85.0934
84.8433
92.4859
119.7
119.7
91.9484
84.4562
84.805
92.6362
119.7
92.6307
84.4873
84.6336
92.4027
119.7
92.4483
84.9255
84.6175
92.6592
119.7
92.3051
84.4323
84.5327
92.5508
119.7
0.9
0.9
0.9
119.7
119.7
119.7
92.6896
84.9462
84.7231
92.4859
119.7
92.6773
84.6589
84.9723
92.4909
119.7
92.4582
84.6941
84.5422
92.6648
119.7
92.3325
84.7102
84.7865
92.512
119.7
119.7
0.9
0.9
0.9
119.7
119.7
92.4671
84.9426
84.6313
92.668
119.7
92.5207
84.6712
84.4251
92.6066
119.7
92.648
84.8249
84.468
91.9479
119.7
119.7
92.6698
84.9202
85.0237
92.3818
119.7
119.7
0.9
0.9
0.9
119.7
119.7
92.6049
84.9051
84.7795
92.8787
119.7
92.9786
85.3194
85.0743
92.5305
119.7
119.7
93.123
86.4856
87.2303
95.0491
119.7
119.7
103.103
98.9558
99.2104
103.929
119.7
0.9
0.9
0.9
119.7
119.7
113.334
112.883
113.677
115.364
119.7
119.7
115.91
115.017
115.013
115.911
119.7
119.7
115.368
113.674
112.817
113.31
119.7
103.121
98.9837
99.3433
103.982
119.7
109.317
110.47
109.369
119.7
119.7
119.7
95.083
87.2403
86.5082
93.1171
119.7
119.7
92.5435
85.042
84.9044
92.9234
119.7
92.9373
85.2354
84.9873
92.665
119.7
119.7
0.9
0.9
0.9
67.3407
68.1384
70.2328
70.3251
93.996
93.9906
64.277
65.6161
61.2964
64.27
103.235
103.233
85.0319
86.8678
86.9739
86.9051
78.0716
79.1455
85.4202
85.9177
78.7763
80.0313
42.0208
46.2038
45.0773
46.51
107.814
107.814
83.853
83.8258
79.5455
78.4126
80.9458
80.9018
96.7822
97.082
81.6229
81.4696
47.6349
46.6469
48.7235
45.3282
98.6819
98.6686
70.7866
94.5402
94.8342
69.1836
63.1776
62.4198
63.2297
60.5947
60.9463
61.0219
86.5283
85.626
98.2567
98.5861
106.26
106.246
91.0526
100.499
100.232
86.4686
87.3033
76.7774
77.0691
55.2447
77.3804
77.7822
81.7014
57.7512
83.5834
85.9653
87.1666
96.5271
96.5266
75.3548
90.4996
90.4419
116.13
112.613
116.129
112.608
82.0256
85.4852
85.5061
106.562
106.342
84.001
75.4206
80.0765
81.1937
74.9233
106.527
106.59
74.3144
76.923
76.1779
32.7274
34.2191
33.667
34.4914
76.4958
77.7124
94.7883
94.914
21.0503
69.7966
31.4453
30.5849
84.545
70.5629
73.0689
71.7474
58.942
98.5661
98.5712
88.9419
88.9125
72.0265
78.5599
85.4285
85.6777
85.8678
80.1792
22.9306
51.5651
51.5437
50.9096
60.0401
60.2013
78.2961
56.8861
78.2749
89.621
89.6454
71.5178
71.8115
28.2753
27.8339
87.3145
87.2743
106.526
106.561
67.6115
67.7274
67.5539
67.6518
90.1107
90.3422
63.168
61.6383
61.8697
63.2354
99.9001
100.071
86.7044
84.876
86.1465
86.1474
77.412
77.5464
78.9989
79.4168
78.245
78.171
44.9497
45.6174
43.4173
43.0886
105.892
106.09
80.9238
81.1867
79.429
78.2174
76.8167
76.6671
96.328
96.4132
81.3148
79.9924
46.7223
45.9532
45.6193
46.8681
92.0457
92.1532
70.7385
94.6894
94.3785
69.4526
60.6635
60.4791
59.9926
60.3008
60.455
57.7236
85.3151
85.2039
97.9521
97.9598
101.698
101.789
81.7532
100.477
100.245
85.963
85.8853
56.0428
75.8739
75.928
76.5354
76.6246
81.6336
81.3618
85.9142
87.1164
93.4603
93.8109
70.6454
85.3646
85.1837
115.381
110.624
115.429
110.687
55.4954
81.7383
81.6099
81.8901
82.1106
106.181
106.1
70.7003
74.0123
81.0684
106.518
106.465
73.562
73.3431
76.7164
73.9387
73.8363
31.8597
33.9297
33.4868
33.4569
77.531
85.9544
86.0708
21.2806
69.6206
30.7885
29.5206
84.1785
84.1955
69.8577
73.0455
70.1205
93.8641
94.0249
86.4591
86.0361
58.4007
70.195
78.0125
85.6626
85.2881
80.0347
22.5172
50.2736
50.2333
48.5129
57.8435
56.4809
75.3358
75.1573
58.3424
86.3657
86.667
68.1217
68.0329
28.5783
28.7968
87.0657
86.6214
106.231
106.256
67.0359
67.7114
67.5491
67.6249
90.1782
90.1968
63.1523
61.6031
61.0558
63.2805
99.9513
99.9517
86.7723
84.8756
86.1807
86.1686
77.5502
77.4816
78.9277
79.5826
78.3267
78.3694
41.7676
45.6101
44.4755
43.4581
105.978
105.985
81.0293
81.0462
79.4578
78.285
76.7032
76.673
96.4342
96.425
81.4077
81.1721
46.7864
45.9775
46.2348
45.0684
92.0285
91.9912
70.5958
94.7398
94.4026
68.9148
61.3562
60.7828
59.9735
60.104
60.3083
57.907
85.2121
85.2639
97.9788
97.9287
101.698
101.669
81.5701
100.511
100.255
86.0117
86.1681
76
75.8956
54.9048
76.5973
76.6019
81.3874
57.4877
81.4652
85.9354
87.1661
93.6073
93.6322
70.7251
85.2649
85.186
115.398
110.636
115.398
110.628
81.7941
81.9432
81.982
106.191
106.173
81.783
70.343
74.1977
81.1264
74.4913
106.544
106.465
73.9626
76.6405
73.9248
32.9285
32.2229
34.1393
32.1792
74.1987
77.5135
85.8756
85.9292
20.9183
69.0486
30.612
29.1463
84.2519
69.944
72.9102
70.2116
58.4983
93.8877
93.8948
86.1117
86.2429
70.4153
78.384
83.8358
85.7189
85.4614
80.0642
22.2396
50.1454
50.4328
48.3228
57.9031
57.9102
75.2398
56.5589
75.2314
86.4348
86.5036
68.098
68.3166
28.7577
27.6485
87.1333
87.0794
106.265
106.252
67.6245
67.7743
67.646
67.5293
90.332
90.1071
63.1777
61.6397
61.8847
63.2041
100.074
99.8892
86.7269
84.8894
86.1411
86.1305
77.4307
77.422
79.071
79.3398
78.2019
78.4686
44.9501
45.63
43.4419
43.0474
106.085
105.888
81.1996
80.9232
79.4473
78.2318
76.6782
76.7869
96.3994
96.4227
81.3358
80.0191
46.7535
45.9221
45.6057
46.8785
92.184
92.0109
70.7622
94.7328
94.3854
69.466
61.4806
60.4777
60.0522
60.1645
60.3811
57.6704
85.2284
85.112
97.9547
97.8557
101.817
101.667
81.7554
100.495
100.251
85.9361
86.2146
56.0618
75.8672
75.9235
76.5617
76.5695
81.3583
81.3795
85.9261
87.1357
93.7954
93.4581
70.5799
85.2155
85.3225
115.43
110.696
115.378
110.613
55.5043
81.6619
82.0903
81.8919
106.172
106.173
81.9693
70.7608
74.0141
81.0837
73.2781
106.547
106.464
73.3635
76.7325
73.7827
31.8814
33.9218
33.4949
33.4654
74.3234
77.5164
86.0537
85.9711
21.2669
69.5393
69.0482
30.7939
29.5231
84.239
73.0617
94.0267
93.8543
86.3438
86.0396
58.4294
70.1978
70.4994
78.0265
83.9616
85.6733
85.3068
80.0513
22.5276
50.2604
50.2985
48.5313
56.4846
57.8616
75.1585
58.2633
75.3483
86.6146
86.3657
68.2187
67.9267
28.5599
28.7858
87.4351
86.656
106.221
106.253
67.3139
69.9055
72.3728
68.4526
90.8338
95.6361
66.7299
63.6849
61.6457
63.6438
100.402
103.732
85.7283
86.9394
86.4996
90.9346
84.4715
77.9712
80.4665
82.6167
81.0546
78.5976
41.9627
47.0366
45.6079
45.4659
106.212
109.797
81.6533
88.8409
79.752
78.8277
77.7666
81.0971
99.4273
96.6429
81.6277
81.7177
48.917
46.2399
47.6779
45.5646
92.8798
95.1334
70.9415
95.2062
94.8652
69.3283
64.7302
61.3306
62.9341
60.3826
62.5482
59.2503
85.6457
93.4506
98.2035
103.215
102.179
104.071
83.712
100.542
100.531
89.2393
86.2732
79.7834
76.3261
55.7845
81.8261
77.006
57.8566
81.9723
91.5053
86.3476
87.2769
94.0418
100.762
72.2709
86.1889
89.2581
115.486
110.86
116.383
112.115
83.8284
82.028
82.735
87.9607
106.314
107.954
73.4302
76.3696
81.476
106.875
106.603
74.2228
76.0927
78.8332
74.5475
80.2878
33.465
33.6943
34.8822
33.4317
77.7552
87.2294
88.716
21.0116
32.0998
29.9913
84.4988
86.98
70.2445
73.1687
73.3861
75.3903
70.6994
59.8414
94.5693
97.7235
86.6879
96.3433
79.3913
86.2668
85.9052
80.3037
23.1375
53.1398
50.7923
50.3059
61.4475
58.6775
76.0339
81.0136
56.8381
87.0762
93.8446
72.166
69.4344
28.075
27.9305
88.2843
87.317
108.877
106.402
106.346
112.357
106.309
112.362
115.37
115.367
109.367
112.762
105.997
109.402
116.821
116.819
106.105
106.334
110.64
110.144
106.131
111.816
114.327
114.364
106.018
111.838
107.773
111.062
107.713
111.117
117.623
117.622
113.6
113.598
103.939
104.238
113.819
113.819
110.949
113.382
104.745
104.863
108.892
108.965
111.705
107.05
115.864
115.86
105.653
108.017
107.949
105.773
110.958
110.897
112.416
107.506
107.468
112.263
112.278
105.87
113.787
110.874
117.163
117.161
114.662
109.887
109.664
107.62
112.005
108.759
110.26
106.636
108.388
110.559
103.033
106.611
112.939
104.097
104.373
115.706
115.703
113.423
114.927
114.929
119.064
118.401
119.063
118.4
102.966
114.166
114.164
113.852
115.959
113.013
113.432
113.851
102.167
105.632
112.912
112.943
105.743
105.764
112.31
109.784
109.934
107.638
111.061
112.335
105.742
115.139
115.139
108.418
107.752
108.604
110.847
103.728
107.605
104.684
111.018
106.769
116.031
116.03
114.293
114.29
110.973
105.264
112.482
105.812
105.838
105.281
110.34
110.072
110.072
111.807
111.619
111.571
113.179
107.059
113.181
114.613
114.614
112.846
112.881
108.884
107.822
103.704
103.695
115.292
114.99
68.4436
68.0931
68.3668
72.4695
95.6836
90.8299
63.6619
63.661
61.6564
66.6811
103.764
100.398
85.0907
87.4924
90.9183
86.508
77.9022
84.4991
82.0379
81.0985
80.989
78.8806
42.7457
46.1167
44.0871
47.0801
109.821
106.213
88.9079
81.6781
79.923
78.6014
81.1664
77.7293
99.4141
96.6915
82.8863
81.453
47.2415
47.9307
48.1401
45.6842
95.1842
92.8534
71.403
94.5539
95.4932
69.305
62.0494
64.7785
61.2124
62.0455
60.7401
60.8921
93.4656
85.57
98.1926
103.217
104.099
102.171
83.7497
100.794
100.268
89.2022
86.5554
79.7267
76.3549
55.391
76.9923
81.817
81.6885
58.4353
91.5651
86.0789
87.5463
100.81
94.046
73.9307
89.2442
86.2416
116.39
112.129
115.486
110.857
83.759
88.0218
82.7207
107.949
106.335
82.3322
71.8569
76.5114
81.417
74.8364
106.533
106.935
75.8706
76.9481
80.3449
32.2714
34.9531
34.5805
33.0654
74.8569
78.6324
88.7409
87.27
21.3923
69.4686
31.2874
30.6379
86.849
72.7105
73.377
75.4094
58.9429
97.7534
94.5716
96.4207
86.65
70.9864
78.6723
84.2719
86.7802
85.6923
80.7434
22.5168
50.8134
53.1538
49.6575
58.5823
61.5231
81.1007
57.8754
76.0173
93.9056
87.05
69.1116
72.4935
28.8967
28.1221
87.3082
88.3958
106.408
108.875
67.3407
68.1384
70.2328
70.3251
93.996
93.9906
64.277
65.6161
61.2964
64.27
103.235
103.233
85.0319
86.8678
86.9739
86.9051
78.0716
79.1455
85.4202
85.9177
78.7763
80.0313
42.0208
46.2038
45.0773
46.51
107.814
107.814
83.853
83.8258
79.5455
78.4126
80.9458
80.9018
96.7822
97.082
81.6229
81.4696
47.6349
46.6469
48.7235
45.3282
98.6819
98.6686
70.7866
94.5402
94.8342
69.1836
63.1776
62.4198
63.2297
60.5947
60.9463
61.0219
86.5283
85.626
98.2567
98.5861
106.26
106.246
91.0526
100.499
100.232
86.4686
87.3033
76.7774
77.0691
55.2447
77.3804
77.7822
81.7014
57.7512
83.5834
85.9653
87.1666
96.5271
96.5266
75.3548
90.4996
90.4419
116.13
112.613
116.129
112.608
82.0256
85.4852
85.5061
106.562
106.342
84.001
75.4206
80.0765
81.1937
74.9233
106.527
106.59
74.3144
76.923
76.1779
32.7274
34.2191
33.667
34.4914
76.4958
77.7124
94.7883
94.914
21.0503
69.7966
31.4453
30.5849
84.545
70.5629
73.0689
71.7474
58.942
98.5661
98.5712
88.9419
88.9125
72.0265
78.5599
85.4285
85.6777
85.8678
80.1792
22.9306
51.5651
51.5437
50.9096
60.0401
60.2013
78.2961
56.8861
78.2749
89.621
89.6454
71.5178
71.8115
28.2753
27.8339
87.3145
87.2743
106.526
106.561
67.6115
67.7274
67.5539
67.6518
90.1107
90.3422
63.168
61.6383
61.8697
63.2354
99.9001
100.071
86.7044
84.876
86.1465
86.1474
77.412
77.5464
78.9989
79.4168
78.245
78.171
44.9497
45.6174
43.4173
43.0886
105.892
106.09
80.9238
81.1867
79.429
78.2174
76.8167
76.6671
96.328
96.4132
81.3148
79.9924
46.7223
45.9532
45.6193
46.8681
92.0457
92.1532
70.7385
94.6894
94.3785
69.4526
60.6635
60.4791
59.9926
60.3008
60.455
57.7236
85.3151
85.2039
97.9521
97.9598
101.698
101.789
81.7532
100.477
100.245
85.963
85.8853
56.0428
75.8739
75.928
76.5354
76.6246
81.6336
81.3618
85.9142
87.1164
93.4603
93.8109
70.6454
85.3646
85.1837
115.381
110.624
115.429
110.687
55.4954
81.7383
81.6099
81.8901
82.1106
106.181
106.1
70.7003
74.0123
81.0684
106.518
106.465
73.562
73.3431
76.7164
73.9387
73.8363
31.8597
33.9297
33.4868
33.4569
77.531
85.9544
86.0708
21.2806
69.6206
30.7885
29.5206
84.1785
84.1955
69.8577
73.0455
70.1205
93.8641
94.0249
86.4591
86.0361
58.4007
70.195
78.0125
85.6626
85.2881
80.0347
22.5172
50.2736
50.2333
48.5129
57.8435
56.4809
75.3358
75.1573
58.3424
86.3657
86.667
68.1217
68.0329
28.5783
28.7968
87.0657
86.6214
106.231
106.256
67.0359
67.7114
67.5491
67.6249
90.1782
90.1968
63.1523
61.6031
61.0558
63.2805
99.9513
99.9517
86.7723
84.8756
86.1807
86.1686
77.5502
77.4816
78.9277
79.5826
78.3267
78.3694
41.7676
45.6101
44.4755
43.4581
105.978
105.985
81.0293
81.0462
79.4578
78.285
76.7032
76.673
96.4342
96.425
81.4077
81.1721
46.7864
45.9775
46.2348
45.0684
92.0285
91.9912
70.5958
94.7398
94.4026
68.9148
61.3562
60.7828
59.9735
60.104
60.3083
57.907
85.2121
85.2639
97.9788
97.9287
101.698
101.669
81.5701
100.511
100.255
86.0117
86.1681
76
75.8956
54.9048
76.5973
76.6019
81.3874
57.4877
81.4652
85.9354
87.1661
93.6073
93.6322
70.7251
85.2649
85.186
115.398
110.636
115.398
110.628
81.7941
81.9432
81.982
106.191
106.173
81.783
70.343
74.1977
81.1264
74.4913
106.544
106.465
73.9626
76.6405
73.9248
32.9285
32.2229
34.1393
32.1792
74.1987
77.5135
85.8756
85.9292
20.9183
69.0486
30.612
29.1463
84.2519
69.944
72.9102
70.2116
58.4983
93.8877
93.8948
86.1117
86.2429
70.4153
78.384
83.8358
85.7189
85.4614
80.0642
22.2396
50.1454
50.4328
48.3228
57.9031
57.9102
75.2398
56.5589
75.2314
86.4348
86.5036
68.098
68.3166
28.7577
27.6485
87.1333
87.0794
106.265
106.252
67.6245
67.7743
67.646
67.5293
90.332
90.1071
63.1777
61.6397
61.8847
63.2041
100.074
99.8892
86.7269
84.8894
86.1411
86.1305
77.4307
77.422
79.071
79.3398
78.2019
78.4686
44.9501
45.63
43.4419
43.0474
106.085
105.888
81.1996
80.9232
79.4473
78.2318
76.6782
76.7869
96.3994
96.4227
81.3358
80.0191
46.7535
45.9221
45.6057
46.8785
92.184
92.0109
70.7622
94.7328
94.3854
69.466
61.4806
60.4777
60.0522
60.1645
60.3811
57.6704
85.2284
85.112
97.9547
97.8557
101.817
101.667
81.7554
100.495
100.251
85.9361
86.2146
56.0618
75.8672
75.9235
76.5617
76.5695
81.3583
81.3795
85.9261
87.1357
93.7954
93.4581
70.5799
85.2155
85.3225
115.43
110.696
115.378
110.613
55.5043
81.6619
82.0903
81.8919
106.172
106.173
81.9693
70.7608
74.0141
81.0837
73.2781
106.547
106.464
73.3635
76.7325
73.7827
31.8814
33.9218
33.4949
33.4654
74.3234
77.5164
86.0537
85.9711
21.2669
69.5393
69.0482
30.7939
29.5231
84.239
73.0617
94.0267
93.8543
86.3438
86.0396
58.4294
70.1978
70.4994
78.0265
83.9616
85.6733
85.3068
80.0513
22.5276
50.2604
50.2985
48.5313
56.4846
57.8616
75.1585
58.2633
75.3483
86.6146
86.3657
68.2187
67.9267
28.5599
28.7858
87.4351
86.656
106.221
106.253
67.3139
69.9055
72.3728
68.4526
90.8338
95.6361
66.7299
63.6849
61.6457
63.6438
100.402
103.732
85.7283
86.9394
86.4996
90.9346
84.4715
77.9712
80.4665
82.6167
81.0546
78.5976
41.9627
47.0366
45.6079
45.4659
106.212
109.797
81.6533
88.8409
79.752
78.8277
77.7666
81.0971
99.4273
96.6429
81.6277
81.7177
48.917
46.2399
47.6779
45.5646
92.8798
95.1334
70.9415
95.2062
94.8652
69.3283
64.7302
61.3306
62.9341
60.3826
62.5482
59.2503
85.6457
93.4506
98.2035
103.215
102.179
104.071
83.712
100.542
100.531
89.2393
86.2732
79.7834
76.3261
55.7845
81.8261
77.006
57.8566
81.9723
91.5053
86.3476
87.2769
94.0418
100.762
72.2709
86.1889
89.2581
115.486
110.86
116.383
112.115
83.8284
82.028
82.735
87.9607
106.314
107.954
73.4302
76.3696
81.476
106.875
106.603
74.2228
76.0927
78.8332
74.5475
80.2878
33.465
33.6943
34.8822
33.4317
77.7552
87.2294
88.716
21.0116
32.0998
29.9913
84.4988
86.98
70.2445
73.1687
73.3861
75.3903
70.6994
59.8414
94.5693
97.7235
86.6879
96.3433
79.3913
86.2668
85.9052
80.3037
23.1375
53.1398
50.7923
50.3059
61.4475
58.6775
76.0339
81.0136
56.8381
87.0762
93.8446
72.166
69.4344
28.075
27.9305
88.2843
87.317
108.877
106.402
106.346
112.357
106.309
112.362
115.37
115.367
109.367
112.762
105.997
109.402
116.821
116.819
106.105
106.334
110.64
110.144
106.131
111.816
114.327
114.364
106.018
111.838
107.773
111.062
107.713
111.117
117.623
117.622
113.6
113.598
103.939
104.238
113.819
113.819
110.949
113.382
104.745
104.863
108.892
108.965
111.705
107.05
115.864
115.86
105.653
108.017
107.949
105.773
110.958
110.897
112.416
107.506
107.468
112.263
112.278
105.87
113.787
110.874
117.163
117.161
114.662
109.887
109.664
107.62
112.005
108.759
110.26
106.636
108.388
110.559
103.033
106.611
112.939
104.097
104.373
115.706
115.703
113.423
114.927
114.929
119.064
118.401
119.063
118.4
102.966
114.166
114.164
113.852
115.959
113.013
113.432
113.851
102.167
105.632
112.912
112.943
105.743
105.764
112.31
109.784
109.934
107.638
111.061
112.335
105.742
115.139
115.139
108.418
107.752
108.604
110.847
103.728
107.605
104.684
111.018
106.769
116.031
116.03
114.293
114.29
110.973
105.264
112.482
105.812
105.838
105.281
110.34
110.072
110.072
111.807
111.619
111.571
113.179
107.059
113.181
114.613
114.614
112.846
112.881
108.884
107.822
103.704
103.695
115.292
114.99
68.4436
68.0931
68.3668
72.4695
95.6836
90.8299
63.6619
63.661
61.6564
66.6811
103.764
100.398
85.0907
87.4924
90.9183
86.508
77.9022
84.4991
82.0379
81.0985
80.989
78.8806
42.7457
46.1167
44.0871
47.0801
109.821
106.213
88.9079
81.6781
79.923
78.6014
81.1664
77.7293
99.4141
96.6915
82.8863
81.453
47.2415
47.9307
48.1401
45.6842
95.1842
92.8534
71.403
94.5539
95.4932
69.305
62.0494
64.7785
61.2124
62.0455
60.7401
60.8921
93.4656
85.57
98.1926
103.217
104.099
102.171
83.7497
100.794
100.268
89.2022
86.5554
79.7267
76.3549
55.391
76.9923
81.817
81.6885
58.4353
91.5651
86.0789
87.5463
100.81
94.046
73.9307
89.2442
86.2416
116.39
112.129
115.486
110.857
83.759
88.0218
82.7207
107.949
106.335
82.3322
71.8569
76.5114
81.417
74.8364
106.533
106.935
75.8706
76.9481
80.3449
32.2714
34.9531
34.5805
33.0654
74.8569
78.6324
88.7409
87.27
21.3923
69.4686
31.2874
30.6379
86.849
72.7105
73.377
75.4094
58.9429
97.7534
94.5716
96.4207
86.65
70.9864
78.6723
84.2719
86.7802
85.6923
80.7434
22.5168
50.8134
53.1538
49.6575
58.5823
61.5231
81.1007
57.8754
76.0173
93.9056
87.05
69.1116
72.4935
28.8967
28.1221
87.3082
88.3958
106.408
108.875
VECTORS nodal_fluid_flux_TPM float
-0.000669595 1.5912e-05 -6.96844e-20
0.000551062 -0.000228293 -1.37917e-20
0.00031646 0.000526123 2.00431e-19
0.00120386 0.000158472 2.70939e-19
-0.000172356 -0.000298455 4.33075e-20
-0.000171287 0.000296603 2.12383e-19
0.00120421 -0.000158518 -5.49549e-19
0.000316453 -0.000525867 3.26896e-19
-0.000668713 -1.79742e-05 1.10996e-19
0.000551462 0.000228464 3.66814e-20
-0.000328208 -0.000615084 -2.13988e-20
0.000456907 0.000460442 -5.05368e-20
0.000456749 -0.000459191 -6.03204e-22
-0.000433295 0.000750597 -4.8215e-19
-0.000979436 0.000797892 2.65596e-20
0.00144017 -0.000189541 2.32262e-19
-0.000329932 0.000571479 4.76314e-19
-0.000333721 -0.000577802 -1.5934e-19
0.00145648 0.000191701 1.5522e-19
0.000564993 0.000233963 -1.9276e-19
-0.000432475 -0.000749152 6.20661e-19
0.000327862 -0.000614728 8.9087e-20
-0.000694087 -9.58224e-06 6.56901e-19
-0.000335502 -0.000580984 -1.06969e-19
-0.000334022 0.000578584 5.83156e-19
-0.000330024 -0.000614589 2.21481e-19
0.000557695 0.000231023 1.85148e-19
-0.00144074 0.000169004 3.99203e-19
0.00145045 0.000190824 1.25548e-19
0.000432259 -0.000748697 3.50418e-19
-0.000692958 -1.12826e-05 -4.82685e-19
-0.000333891 -0.000578233 -1.27323e-19
-0.000334898 0.000579976 6.63017e-19
-0.000692702 9.62574e-06 -8.69309e-19
0.000327251 0.000614363 -2.31183e-19
-0.0006921 -1.08446e-05 6.15378e-20
0.000433638 -0.000751159 -2.62062e-19
0.00145058 -0.000190834 -6.10008e-19
-0.00097259 0.000792904 -1.69328e-19
-0.00033514 -0.000580519 -2.06105e-19
-0.000333977 0.000578344 -4.08881e-19
-0.000692627 1.22087e-05 7.45954e-19
0.000328291 0.000615037 -6.32265e-19
-0.000432553 0.000749287 1.72975e-19
0.000565004 -0.000233967 -2.41105e-19
0.0014575 -0.000191834 -6.52933e-19
-0.000334416 0.000579003 4.02348e-19
-0.000329133 -0.000570089 -9.09807e-21
0.0014398 0.000189499 -6.3534e-20
-0.00144101 0.000168811 -2.49396e-19
-0.000689367 1.01368e-05 1.7532e-19
0.000325142 0.000608558 -3.67221e-19
-0.00042784 0.000740999 3.92902e-19
0.000553143 -0.000228989 2.76074e-19
0.00142096 -0.000186774 1.05294e-18
0.000446286 0.000445251 -9.67578e-20
0.000368959 -0.000424165 -1.17494e-19
0.00111857 0.000147593 6.67367e-20
0.000262302 0.000234657 -7.27596e-20
-0.000382293 -6.2998e-05 -1.68948e-19
-0.000986258 0.000795793 3.81338e-19
-0.000141862 0.000245634 2.07364e-20
8.82521e-05 -3.65525e-05 1.96233e-20
0.00021471 -2.82589e-05 1.26686e-19
6.65217e-05 6.27896e-05 7.24113e-20
6.64763e-05 -6.27528e-05 7.92582e-21
0.000214555 2.82384e-05 -3.10068e-20
8.81715e-05 3.65191e-05 -1.61881e-19
-5.81196e-05 -0.000178529 -4.02323e-20
0.000319908 -0.000132635 1.76305e-19
-0.000348196 0.000603246 -1.09441e-19
2.89365e-05 1.04009e-05 6.43922e-20
0.00111612 -0.00014728 4.43311e-19
0.000368215 0.000423481 1.0719e-19
0.000446378 -0.000445566 9.9833e-20
0.00142108 0.00018679 3.9506e-19
0.000552878 0.000228879 -1.28716e-19
-0.000324689 -0.00060752 -2.07278e-19
0.000427494 -0.000740714 9.18139e-20
-0.000689014 -1.21486e-05 2.2002e-20
-0.000986343 0.000812462 -3.82432e-19
-0.000669595 1.5912e-05 -6.12828e-20
0.000551062 -0.000228293 7.44246e-20
0.00031646 0.000526123 3.23998e-20
0.00120386 0.000158472 1.36514e-19
-0.000172356 -0.000298455 -2.39049e-20
-0.000171287 0.000296603 1.07461e-20
0.00120421 -0.000158518 -4.73935e-19
0.000316453 -0.000525867 2.26077e-19
-0.000668713 -1.79742e-05 -1.15846e-19
0.000551462 0.000228464 -2.21295e-20
-0.000328208 -0.000615084 -1.72627e-19
0.000456907 0.000460442 1.42699e-19
0.000456749 -0.000459191 1.17019e-19
-0.000433295 0.000750597 -3.6868e-20
-0.000979436 0.000797892 3.28607e-20
0.00144017 -0.000189541 5.41969e-21
-0.000329932 0.000571479 4.25905e-19
-0.000333721 -0.000577802 -3.69379e-19
0.00145648 0.000191701 1.5522e-19
0.000564993 0.000233963 1.68507e-19
-0.000432475 -0.000749152 4.61031e-19
0.000327862 -0.000614728 8.06854e-20
-0.000694087 -9.58224e-06 1.19201e-19
-0.000335502 -0.000580984 7.78652e-20
-0.000334022 0.000578584 4.40329e-19
-0.000330024 -0.000614589 1.37466e-19
0.000557695 0.000231023 2.27156e-19
-0.00144074 0.000169004 3.86601e-19
0.00145045 0.000190824 -1.01294e-19
0.000432259 -0.000748697 4.59638e-19
-0.000692958 -1.12826e-05 -6.08708e-19
-0.000333891 -0.000578233 1.0792e-19
-0.000334898 0.000579976 4.86584e-19
-0.000692702 9.62574e-06 -1.07095e-18
0.000327251 0.000614363 -1.47167e-19
-0.0006921 -1.08446e-05 -1.14895e-19
0.000433638 -0.000751159 -1.69645e-19
0.00145058 -0.000190834 -5.00788e-19
-0.00097259 0.000792904 -1.71429e-19
-0.00033514 -0.000580519 -8.00822e-20
-0.000333977 0.000578344 -3.33267e-19
-0.000692627 1.22087e-05 5.44316e-19
0.000328291 0.000615037 -3.71817e-19
-0.000432553 0.000749287 8.89595e-20
0.000565004 -0.000233967 -3.16719e-19
0.0014575 -0.000191834 -7.53752e-19
-0.000334416 0.000579003 5.87182e-19
-0.000329133 -0.000570089 -1.2672e-19
0.0014398 0.000189499 -3.83294e-20
-0.00144101 0.000168811 -2.28392e-19
-0.000689367 1.01368e-05 3.09744e-19
0.000325142 0.000608558 -4.42835e-19
-0.00042784 0.000740999 3.92902e-19
0.000553143 -0.000228989 2.55071e-19
0.00142096 -0.000186774 1.12015e-18
0.000446286 0.000445251 -2.81592e-19
0.000368959 -0.000424165 2.53321e-20
0.00111857 0.000147593 -4.24835e-20
0.000262302 0.000234657 -7.27596e-20
-0.000382293 -6.2998e-05 -1.26941e-19
-0.000986258 0.000795793 3.72936e-19
-0.000141862 0.000245634 -3.06924e-19
8.82521e-05 -3.65525e-05 1.79253e-19
0.00021471 -2.82589e-05 3.53528e-19
6.65217e-05 6.27896e-05 5.1989e-21
6.64763e-05 -6.27528e-05 1.63274e-20
0.000214555 2.82384e-05 6.98119e-20
8.81715e-05 3.65191e-05 1.90985e-19
-5.81196e-05 -0.000178529 3.53817e-20
0.000319908 -0.000132635 -8.4143e-20
-0.000348196 0.000603246 -5.06301e-20
2.89365e-05 1.04009e-05 -2.63268e-19
0.00111612 -0.00014728 3.42492e-19
0.000368215 0.000423481 8.19851e-20
0.000446378 -0.000445566 2.93069e-19
0.00142108 0.00018679 1.09407e-19
0.000552878 0.000228879 -1.62322e-19
-0.000324689 -0.00060752 -1.90475e-19
0.000427494 -0.000740714 2.46015e-20
-0.000689014 -1.21486e-05 5.56082e-20
-0.000986343 0.000812462 -3.80331e-19
-0.000127883 -0.000808396 5.63047e-20
0.00031646 0.000526123 9.96122e-20
4.50192e-05 6.33989e-05 -6.67833e-20
-0.000183586 2.12466e-06 4.27043e-20
-0.000669595 1.5912e-05 -1.17239e-19
0.000589485 -0.000165823 9.32411e-20
0.000264022 -0.000637462 8.11611e-20
0.000105461 0.000193216 -1.29319e-19
9.90278e-05 1.88195e-06 -2.84073e-20
9.90278e-05 1.88195e-06 -2.84073e-20
0.00011449 -0.000182616 -1.09696e-19
0.000264207 0.000637907 -1.63274e-20
0.000589461 0.000165974 -2.18185e-19
-0.000668713 -1.79742e-05 7.32262e-21
-0.000181191 -6.03613e-06 4.7869e-21
4.98527e-05 -6.60594e-05 -2.27649e-19
0.000316453 -0.000525867 1.6578e-19
0.00014334 0.000808388 1.38545e-19
-0.000328208 -0.000615084 -3.4725e-19
-2.15558e-05 -6.05993e-05 5.53237e-20
0.000194065 7.20509e-06 2.97537e-20
0.000485633 0.000134355 6.0633e-20
-0.000694064 -5.27885e-09 -8.86112e-20
0.000309212 -0.000595724 -2.60635e-19
8.87443e-05 -0.00016864 -1.38957e-19
8.80601e-05 0.000162644 -6.40098e-20
0.000308169 0.000598088 4.95512e-20
-0.000694253 3.09552e-09 -3.46298e-19
0.000485185 -0.000134117 -8.33782e-21
0.000191218 -2.07892e-06 -6.08708e-20
4.65279e-05 8.02111e-05 -1.13625e-19
-0.000232356 0.000188769 3.86947e-20
0.000793517 -0.000965073 4.00644e-21
0.00100927 -0.000776958 -1.79139e-21
-0.000797963 0.00098764 -2.17727e-20
0.000669061 0.000217504 2.4599e-19
0.000335906 0.000810657 -2.07626e-19
-3.91578e-05 0.000357851 1.70239e-20
-8.94244e-05 5.46876e-06 1.97118e-19
-8.94244e-05 5.46876e-06 -5.84455e-20
-2.77769e-05 -0.000341064 -1.97101e-19
0.000338259 -0.000816332 1.15613e-18
0.00067918 -0.000218536 3.52355e-19
0.000490336 0.000147063 1.34901e-20
0.000184868 7.19801e-06 1.68218e-19
3.8171e-05 -8.13569e-05 2.94177e-19
-0.000234138 -0.00019041 4.11608e-19
0.000137404 -0.000825862 -2.09784e-19
0.000327862 -0.000614728 6.44914e-19
3.11768e-05 -5.61784e-05 1.37576e-19
-0.000194 3.47992e-06 2.51821e-19
-0.000694087 -9.58224e-06 2.96237e-19
-0.000697814 -3.15097e-08 2.02775e-19
-4.82442e-05 -0.000357731 2.74932e-19
-9.29991e-05 -6.72872e-06 3.98814e-19
-9.29991e-05 -6.72872e-06 2.54722e-19
-3.68731e-05 0.000341042 -2.22828e-19
-0.000697469 8.07667e-08 3.5007e-19
0.00048849 0.000139149 5.42914e-20
0.000192815 1.0068e-05 9.74589e-20
-2.40322e-05 -5.99497e-05 1.42334e-19
-0.000330024 -0.000614589 -1.7058e-20
0.000141182 0.000827909 8.5536e-20
0.000758596 -0.000945037 6.51268e-20
0.000972152 0.00078748 -2.51091e-20
0.000786726 0.000967828 -4.56729e-19
0.000337779 -0.000815302 6.05705e-21
0.000674694 -0.000218639 1.52621e-19
-0.000138399 -0.000825462 4.02603e-19
0.00023322 -0.000190206 -1.44376e-19
-4.25636e-05 -8.34697e-05 -4.36621e-19
-0.000194676 2.02885e-06 -3.37833e-19
-0.000692958 -1.12826e-05 -2.52709e-19
-0.00069747 -5.00965e-08 -4.73018e-19
-3.69239e-05 -0.000340722 -3.60421e-19
-9.26139e-05 6.84952e-06 -3.81332e-19
-9.26139e-05 6.84952e-06 -5.83351e-20
-4.8153e-05 0.00035731 2.23257e-19
-0.000696439 5.0762e-08 -2.15331e-19
-0.000692702 9.62574e-06 -5.62674e-19
-0.000193702 -3.77011e-06 -1.56694e-19
3.12173e-05 5.61526e-05 -1.77176e-19
0.000327251 0.000614363 -5.08509e-20
0.000136602 0.000826014 1.64573e-19
0.00023915 -0.000185741 3.13945e-19
-4.81414e-05 -8.00474e-05 1.14275e-19
-0.000194753 2.68411e-07 -1.27765e-20
-0.0006921 -1.08446e-05 -2.08298e-20
0.000674235 0.000218932 2.59811e-19
0.000338102 0.000816064 1.00912e-19
-0.000125312 -0.00141446 8.95308e-20
0.000956885 0.000758561 -1.21488e-19
-0.000792664 0.000984742 -1.02664e-19
-0.0001361 -0.000827853 -5.69048e-22
-0.0006963 -7.91523e-08 -6.2965e-20
-4.82272e-05 -0.000357711 -5.09619e-19
-9.2984e-05 -6.8056e-06 -2.24557e-19
-9.2984e-05 -6.8056e-06 1.68373e-20
-3.68669e-05 0.000340877 -1.41858e-19
-0.000697518 3.18404e-08 3.02388e-19
-0.000692627 1.22087e-05 -4.1611e-19
-0.000196734 -2.25375e-06 -1.65635e-19
3.63886e-05 5.92737e-05 -3.23803e-19
0.000328291 0.000615037 -5.44189e-19
0.000137781 0.000826058 -1.21173e-19
-0.000233735 0.000190086 -2.89785e-19
3.79434e-05 8.13194e-05 -1.57315e-19
0.000184674 -6.99795e-06 9.9676e-20
0.000490271 -0.000146989 5.73199e-20
0.000679317 0.000218869 -2.39074e-19
0.000338685 0.000817358 -2.42184e-19
-2.51011e-05 -0.000341936 1.33282e-19
-8.87852e-05 2.25802e-06 -1.15672e-19
-8.87852e-05 2.25802e-06 1.03511e-20
-4.18463e-05 0.000357371 -7.05255e-20
0.000335568 -0.000809856 -2.24777e-20
0.000669336 -0.000217212 -4.15412e-21
0.000759005 -0.000946403 -1.76264e-19
0.000971891 0.000786981 1.92726e-19
0.00078617 0.000967237 -1.01095e-19
-0.000675919 -3.28509e-08 1.55603e-19
-0.000693352 -7.27393e-08 3.1022e-19
-0.000689367 1.01368e-05 4.33075e-20
-0.000192244 -3.51817e-06 -7.60726e-20
3.16076e-05 5.61646e-05 3.43835e-20
0.000325142 0.000608558 -4.49589e-19
0.000136694 0.000817029 -9.34619e-20
-0.000230375 0.000187805 3.03768e-19
3.96e-05 7.93148e-05 3.01279e-19
0.000183154 -8.57234e-06 1.29922e-19
0.000479904 -0.000145038 -5.17655e-19
0.000663578 0.000212803 -2.18627e-19
0.000329382 0.000795177 -7.72806e-19
0.000300053 0.000580581 -6.3534e-20
8.50689e-05 0.000145024 1.59676e-19
7.87505e-05 -0.000170823 1.81168e-19
0.000245534 -0.000538464 3.27592e-19
0.000282822 -0.000682263 4.68736e-19
0.000479975 -0.000189738 -4.09288e-20
-0.000382293 -6.2998e-05 -1.27765e-20
-3.66533e-05 -0.000117704 -1.12899e-19
0.000105098 -0.000101545 -2.74558e-20
0.000262302 0.000234657 2.47383e-19
0.000164219 -0.000672084 2.93246e-20
0.000799633 -0.000993013 -1.11635e-20
0.000995641 -0.000788052 -2.33826e-19
-0.000797364 0.000977203 -4.2974e-20
-0.000357709 1.619e-08 1.34994e-19
0.00013282 0.000282661 -1.42223e-19
-2.34297e-05 2.64098e-05 -1.33439e-19
2.03746e-05 5.84124e-07 -2.54833e-19
3.65209e-05 -1.04543e-05 -2.65485e-19
7.53559e-05 -2.64571e-05 -2.36254e-19
0.000102667 3.08748e-05 -4.90754e-20
4.84334e-05 0.000116932 4.01048e-20
4.49184e-05 8.27806e-05 -3.34694e-19
1.06663e-05 1.95117e-05 -5.82238e-19
1.06993e-05 -1.96123e-05 -3.62753e-19
4.48579e-05 -8.27576e-05 -7.79835e-21
4.84014e-05 -0.000116854 1.15243e-19
0.000102587 -3.08554e-05 1.90857e-19
7.53003e-05 2.6414e-05 -1.15022e-19
3.65733e-05 1.06515e-05 -8.23992e-22
1.5866e-05 2.26735e-06 2.76766e-20
-5.81196e-05 -0.000178529 -7.42801e-20
1.3633e-05 -0.000281021 -6.87329e-20
-8.26969e-05 0.000232848 3.19241e-20
0.000111831 0.00017795 -1.0792e-19
0.000191891 0.000129669 -6.13637e-20
0.000367817 4.59357e-05 5.75102e-19
-0.000357744 -1.57881e-08 -1.02703e-20
4.10946e-05 5.36008e-07 -1.83236e-20
2.93151e-05 1.00678e-05 -1.88351e-19
4.11809e-05 2.40897e-07 -2.02903e-19
0.000164424 0.000672231 7.70412e-20
0.000478774 0.000189397 -5.67463e-21
0.000282285 0.000680963 5.06301e-20
0.000244854 0.000537721 -4.41315e-20
7.92685e-05 0.000171346 8.24438e-20
8.42953e-05 -0.000144403 4.83242e-19
0.000300346 -0.00058071 5.30274e-19
0.000329491 -0.00079544 6.65268e-19
0.000663485 -0.000212899 1.30746e-19
0.000479814 0.000144703 3.53383e-19
0.000183575 9.8235e-06 9.49528e-20
-2.31981e-05 -5.59799e-05 -1.61545e-19
-0.000324689 -0.00060752 -2.86791e-19
-0.000135836 -0.000816477 -2.04678e-19
0.000231612 -0.000188742 2.85473e-20
-4.17326e-05 -8.3105e-05 -2.42184e-19
-0.000192732 1.70354e-06 -5.37661e-19
-0.000689014 -1.21486e-05 2.39236e-19
-0.000693923 7.3659e-08 -2.49413e-19
-0.000675792 3.0276e-08 -9.91365e-20
0.000778386 -0.00095332 2.27461e-19
0.000991981 -0.00076261 1.79846e-19
-0.000810919 0.00101366 4.19992e-20
-0.000127883 -0.000808396 1.57123e-19
0.00031646 0.000526123 1.33218e-19
4.50192e-05 6.33989e-05 -8.35864e-20
-0.000183586 2.12466e-06 9.31136e-20
-0.000669595 1.5912e-05 -1.59247e-19
0.000589485 -0.000165823 -4.95853e-20
0.000264022 -0.000637462 6.4358e-20
0.000105461 0.000193216 -4.53037e-20
9.90278e-05 1.88195e-06 1.06018e-19
9.90278e-05 1.88195e-06 1.06018e-19
0.00011449 -0.000182616 1.33949e-19
0.000264207 0.000637907 -7.92582e-21
0.000589461 0.000165974 3.38612e-20
-0.000668713 -1.79742e-05 1.33346e-19
-0.000181191 -6.03613e-06 5.09954e-20
4.98527e-05 -6.60594e-05 1.17954e-20
0.000316453 -0.000525867 -1.36676e-19
0.00014334 0.000808388 7.97339e-20
-0.000328208 -0.000615084 -1.96022e-19
-2.15558e-05 -6.05993e-05 -9.17035e-20
0.000194065 7.20509e-06 3.81552e-20
0.000485633 0.000134355 6.0633e-20
-0.000694064 -5.27885e-09 -1.05414e-19
0.000309212 -0.000595724 -2.43832e-19
8.87443e-05 -0.00016864 -1.0115e-19
8.80601e-05 0.000162644 -1.36005e-20
0.000308169 0.000598088 2.51188e-19
-0.000694253 3.09552e-09 -2.4548e-19
0.000485185 -0.000134117 -3.77432e-20
0.000191218 -2.07892e-06 -4.82685e-20
4.65279e-05 8.02111e-05 -2.18644e-19
-0.000232356 0.000188769 -4.112e-20
0.000793517 -0.000965073 1.66088e-20
0.00100927 -0.000776958 1.81623e-20
-0.000797963 0.00098764 1.81347e-20
0.000669061 0.000217504 -2.28602e-20
0.000335906 0.000810657 -2.58035e-19
-3.91578e-05 0.000357851 1.43047e-19
-8.94244e-05 5.46876e-06 3.32875e-20
-8.94244e-05 5.46876e-06 -4.58432e-20
-2.77769e-05 -0.000341064 -2.05502e-19
0.000338259 -0.000816332 8.95686e-19
0.00067918 -0.000218536 1.62932e-20
0.000490336 0.000147063 -1.59154e-20
0.000184868 7.19801e-06 3.36249e-19
3.8171e-05 -8.13569e-05 2.5637e-19
-0.000234138 -0.00019041 2.77183e-19
0.000137404 -0.000825862 2.54596e-20
0.000327862 -0.000614728 4.85285e-19
3.11768e-05 -5.61784e-05 3.01407e-19
-0.000194 3.47992e-06 2.30817e-19
-0.000694087 -9.58224e-06 3.6345e-19
-0.000697814 -3.15097e-08 2.53185e-19
-4.82442e-05 -0.000357731 4.42963e-19
-9.29991e-05 -6.72872e-06 4.2822e-19
-9.29991e-05 -6.72872e-06 2.08514e-19
-3.68731e-05 0.000341042 -2.81639e-19
-0.000697469 8.07667e-08 3.92078e-19
0.00048849 0.000139149 1.76114e-19
0.000192815 1.0068e-05 -2.26001e-19
-2.40322e-05 -5.99497e-05 5.41173e-20
-0.000330024 -0.000614589 2.01382e-19
0.000141182 0.000827909 9.39376e-20
0.000758596 -0.000945037 8.40303e-20
0.000972152 0.00078748 -4.40125e-20
0.000786726 0.000967828 -4.58829e-19
0.000337779 -0.000815302 -2.29186e-19
0.000674694 -0.000218639 1.19015e-19
-0.000138399 -0.000825462 4.02603e-19
0.00023322 -0.000190206 -3.33411e-19
-4.25636e-05 -8.34697e-05 -3.90413e-19
-0.000194676 2.02885e-06 -3.00026e-19
-0.000692958 -1.12826e-05 -2.27504e-19
-0.00069747 -5.00965e-08 -2.54578e-19
-3.69239e-05 -0.000340722 -4.1083e-19
-9.26139e-05 6.84952e-06 -1.37687e-19
-9.26139e-05 6.84952e-06 3.40819e-20
-4.8153e-05 0.00035731 1.3084e-19
-0.000696439 5.0762e-08 -1.14512e-19
-0.000692702 9.62574e-06 -5.62674e-19
-0.000193702 -3.77011e-06 -2.07104e-19
3.12173e-05 5.61526e-05 -8.47587e-20
0.000327251 0.000614363 -2.69291e-19
0.000136602 0.000826014 9.7361e-20
0.00023915 -0.000185741 1.71119e-19
-4.81414e-05 -8.00474e-05 2.27695e-19
-0.000194753 2.68411e-07 -2.1178e-20
-0.0006921 -1.08446e-05 5.47842e-20
0.000674235 0.000218932 2.01e-19
0.000338102 0.000816064 1.51321e-19
-0.000125312 -0.00141446 7.90289e-20
0.000956885 0.000758561 -1.20438e-19
-0.000792664 0.000984742 -8.16602e-20
-0.0001361 -0.000827853 -2.27411e-19
-0.0006963 -7.91523e-08 1.89082e-19
-4.82272e-05 -0.000357711 -4.50808e-19
-9.2984e-05 -6.8056e-06 -1.48943e-19
-9.2984e-05 -6.8056e-06 -3.61233e-19
-3.68669e-05 0.000340877 -7.88462e-20
-0.000697518 3.18404e-08 3.86403e-19
-0.000692627 1.22087e-05 -2.14473e-19
-0.000196734 -2.25375e-06 -1.27828e-19
3.63886e-05 5.92737e-05 -3.86815e-19
0.000328291 0.000615037 -8.38243e-19
0.000137781 0.000826058 1.30874e-19
-0.000233735 0.000190086 -3.99005e-19
3.79434e-05 8.13194e-05 8.21297e-20
0.000184674 -6.99795e-06 8.70736e-20
0.000490271 -0.000146989 6.15207e-20
0.000679317 0.000218869 -5.07924e-19
0.000338685 0.000817358 -1.74971e-19
-2.51011e-05 -0.000341936 5.34674e-20
-8.87852e-05 2.25802e-06 1.44776e-19
-8.87852e-05 2.25802e-06 1.87527e-20
-4.18463e-05 0.000357371 6.81001e-20
0.000335568 -0.000809856 -3.08793e-20
0.000669336 -0.000217212 1.30271e-19
0.000759005 -0.000946403 -1.85715e-19
0.000971891 0.000786981 1.75923e-19
0.00078617 0.000967237 -9.89942e-20
-0.000675919 -3.28509e-08 -1.21648e-19
-0.000693352 -7.27393e-08 1.50591e-19
-0.000689367 1.01368e-05 -2.39049e-20
-0.000192244 -3.51817e-06 -7.18718e-20
3.16076e-05 5.61646e-05 -1.16844e-19
0.000325142 0.000608558 -2.73156e-19
0.000136694 0.000817029 -1.10265e-19
-0.000230375 0.000187805 1.86146e-19
3.96e-05 7.93148e-05 2.29866e-19
0.000183154 -8.57234e-06 -7.17148e-20
0.000479904 -0.000145038 -5.4706e-19
0.000663578 0.000212803 -2.85839e-19
0.000329382 0.000795177 -6.04775e-19
0.000300053 0.000580581 -3.83294e-20
8.50689e-05 0.000145024 -3.35596e-20
7.87505e-05 -0.000170823 3.91207e-19
0.000245534 -0.000538464 3.61198e-19
0.000282822 -0.000682263 4.77138e-19
0.000479975 -0.000189738 -9.97397e-20
-0.000382293 -6.2998e-05 -2.1178e-20
-3.66533e-05 -0.000117704 2.14762e-19
0.000105098 -0.000101545 5.65597e-20
0.000262302 0.000234657 2.47383e-19
0.000164219 -0.000672084 1.88954e-19
0.000799633 -0.000993013 -3.0067e-20
0.000995641 -0.000788052 -1.91818e-19
-0.000797364 0.000977203 -5.76767e-20
-0.000357709 1.619e-08 9.29861e-20
0.00013282 0.000282661 2.58079e-20
-2.34297e-05 2.64098e-05 -2.59462e-19
2.03746e-05 5.84124e-07 -2.88439e-19
3.65209e-05 -1.04543e-05 -2.48682e-19
7.53559e-05 -2.64571e-05 -3.11868e-19
0.000102667 3.08748e-05 -2.75917e-19
4.84334e-05 0.000116932 5.69079e-20
4.49184e-05 8.27806e-05 -3.34694e-19
1.06663e-05 1.95117e-05 -1.45358e-19
1.06993e-05 -1.96123e-05 -1.61116e-19
4.48579e-05 -8.27576e-05 -1.08617e-19
4.84014e-05 -0.000116854 6.02289e-21
0.000102587 -3.08554e-05 -6.95911e-20
7.53003e-05 2.6414e-05 1.53827e-19
3.65733e-05 1.06515e-05 -4.28318e-20
1.5866e-05 2.26735e-06 1.03291e-19
-5.81196e-05 -0.000178529 -2.50713e-19
1.3633e-05 -0.000281021 -1.10741e-19
-8.26969e-05 0.000232848 2.2516e-19
0.000111831 0.00017795 1.27323e-19
0.000191891 0.000129669 1.48675e-19
0.000367817 4.59357e-05 5.16291e-19
-0.000357744 -1.57881e-08 -2.37112e-19
4.10946e-05 5.36008e-07 -1.6115e-19
2.93151e-05 1.00678e-05 -1.46343e-19
4.11809e-05 2.40897e-07 -1.60895e-19
0.000164424 0.000672231 -1.49801e-19
0.000478774 0.000189397 -4.76824e-20
0.000282285 0.000680963 1.09441e-19
0.000244854 0.000537721 -1.89268e-20
7.92685e-05 0.000171346 2.54676e-19
8.42953e-05 -0.000144403 3.6562e-19
0.000300346 -0.00058071 3.62243e-19
0.000329491 -0.00079544 4.55229e-19
0.000663485 -0.000212899 -2.8883e-20
0.000479814 0.000144703 3.9119e-19
0.000183575 9.8235e-06 -1.00666e-20
-2.31981e-05 -5.59799e-05 -2.11954e-19
-0.000324689 -0.00060752 -1.69169e-19
-0.000135836 -0.000816477 -1.54269e-19
0.000231612 -0.000188742 2.72192e-19
-4.17326e-05 -8.3105e-05 -1.74971e-19
-0.000192732 1.70354e-06 -4.49444e-19
-0.000689014 -1.21486e-05 7.12049e-20
-0.000693923 7.3659e-08 -5.61773e-20
-0.000675792 3.0276e-08 -1.57947e-19
0.000778386 -0.00095332 2.44264e-19
0.000991981 -0.00076261 1.49391e-19
-0.000810919 0.00101366 4.40996e-20
-0.000216719 0.00032642 4.85701e-20
-0.000242925 -0.000162841 9.59043e-20
0.000232097 -0.000221247 1.21504e-19
0.000230422 0.000223373 -1.45298e-19
0.000287476 5.73973e-05 -7.31078e-20
0.000287092 -5.77445e-05 2.45972e-19
7.20199e-05 -0.000317196 7.34265e-20
0.000368778 -6.71473e-05 -6.24722e-20
-0.000393062 -5.7524e-05 4.55587e-20
-4.9269e-05 0.000313974 -1.09543e-20
0.000463896 -0.00013277 -1.25548e-19
0.000463724 0.000132933 -1.64922e-19
-0.000256112 -0.000154227 -1.95406e-19
-0.000258542 0.000131825 -1.68965e-19
1.47229e-05 0.000291843 -1.77546e-21
5.45703e-06 -0.000291748 -6.87329e-20
-2.56581e-05 -0.000292867 -1.80727e-19
4.34412e-05 0.000282636 5.09954e-20
0.000311851 -3.61809e-05 1.82566e-19
0.000243325 0.000105878 -1.38086e-19
-5.06264e-05 0.000160567 2.94771e-21
6.7336e-05 -0.000156625 1.53759e-21
-0.000440964 0.000305528 -3.93912e-20
-0.000388405 -0.000218371 -4.04702e-20
0.000744973 -0.000349079 7.40678e-20
0.000420876 0.000574945 3.72504e-21
0.000463896 -0.00013277 4.14683e-19
0.000463724 0.000132933 -3.82156e-19
0.000258387 -0.000113579 3.64264e-20
0.000257752 0.000112171 -2.04806e-19
-0.000200754 9.64922e-05 1.18255e-19
-0.000203777 -9.6407e-05 -9.99138e-20
0.000311677 0.000109842 -2.53898e-19
0.000310683 -0.00011278 5.37224e-20
8.9651e-05 0.000474602 -9.48049e-21
-7.36775e-05 -0.000471537 -1.18667e-19
-0.000193305 4.58412e-05 -7.92582e-21
-0.000197331 -4.88985e-05 -1.14941e-19
1.57103e-06 -0.00067985 1.20629e-20
7.99894e-05 0.000689574 -6.05226e-20
0.000725885 6.01257e-06 -2.68526e-20
-0.000673964 -9.09346e-05 1.26679e-19
0.000337752 -0.000204082 3.43027e-20
0.000337009 0.000204419 -1.67776e-19
-0.000252729 0.000149644 2.43169e-20
-0.000333675 -4.47231e-05 -1.57994e-19
-0.000335242 4.37302e-05 -7.3299e-20
-0.00026308 -0.00015996 -1.12855e-20
0.000244874 -0.000336286 -3.85252e-21
0.000246371 0.000341678 -1.22171e-19
0.000377163 -0.000166684 2.60286e-20
-0.000216719 0.00032642 -8.38243e-20
-5.51691e-05 -0.000302787 4.09926e-20
0.000384299 0.00016402 -1.7041e-20
-0.000220396 0.000181066 -5.07576e-20
0.000240706 -0.00018077 -6.34874e-20
6.94668e-05 -0.000617565 2.11084e-19
-5.02633e-05 0.000617318 9.79301e-20
0.000372135 -0.00031394 9.58405e-20
0.000372269 0.000314535 -5.34208e-19
0.000164695 5.63295e-05 -1.14292e-19
-4.28756e-05 0.000358893 -2.45879e-19
-2.87045e-05 -0.000342607 -7.21564e-20
7.49334e-05 0.000200696 9.17968e-20
-5.27755e-05 -0.00020505 -1.12644e-19
-1.04283e-05 0.000278136 -9.13552e-20
3.04333e-05 -0.000272011 7.86254e-20
-0.000388405 -0.000218371 8.02267e-20
-2.56581e-05 -0.000292867 -9.73144e-20
4.34412e-05 0.000282636 -1.64378e-20
-0.000178 -0.000121362 -2.28077e-21
-0.000440964 0.000305528 -3.01657e-20
5.15924e-05 7.19943e-05 -1.81661e-19
-2.87045e-05 -0.000342607 -9.4889e-20
-0.000200754 9.64922e-05 -1.83819e-19
0.000466788 -0.000131869 -1.49592e-19
0.000466812 0.000131971 -1.12452e-19
0.000384299 0.00016402 4.25939e-20
0.000272052 0.000163917 -1.25293e-19
0.000273531 -0.000163988 2.59012e-20
0.000589485 -0.000165823 6.12828e-20
0.000463896 -0.00013277 1.57692e-19
0.000589461 0.000165974 8.14161e-20
0.000463724 0.000132933 -2.12477e-19
-5.06264e-05 0.000160567 -6.30583e-20
0.000258387 -0.000113579 1.77002e-19
0.000257752 0.000112171 -1.1464e-19
-0.000314975 -0.000598333 -1.01515e-19
0.00033418 0.000604762 2.72935e-19
-9.59286e-06 -5.14223e-05 -6.91449e-20
0.000377163 -0.000166684 1.45298e-19
0.000311851 -3.61809e-05 -9.00213e-20
-0.000208614 6.08522e-05 -1.18968e-19
-0.000178 -0.000121362 -1.16607e-19
-0.000689048 -1.29589e-05 -3.06243e-20
-0.000689741 1.10756e-05 5.90317e-20
-4.79503e-05 0.000177394 7.98614e-20
-0.00026308 -0.00015996 -4.85701e-20
0.000175606 0.000143925 -1.01324e-19
1.57103e-06 -0.00067985 -6.60231e-20
7.99894e-05 0.000689574 3.01145e-21
0.000725885 6.01257e-06 2.25119e-21
-0.000673964 -9.09346e-05 -5.13204e-20
0.000174965 -0.000145434 -7.59622e-20
-0.000242965 0.000145113 5.58927e-20
0.000163311 -0.00013489 -4.75732e-22
0.000161121 0.000132054 -1.26291e-19
-0.000979436 0.000797892 2.06852e-21
-2.56581e-05 -0.000292867 8.54894e-20
-4.24624e-05 -0.000633722 1.14704e-19
0.000679733 4.93536e-05 4.74849e-20
-5.06264e-05 0.000160567 1.18318e-19
-1.04283e-05 0.000278136 -4.62723e-20
-0.000208614 6.08522e-05 1.51147e-19
4.34412e-05 0.000282636 1.1063e-19
-0.000388405 -0.000218371 -9.72506e-20
0.000337752 -0.000204082 -9.77093e-20
0.000337009 0.000204419 8.14161e-20
0.000220414 -9.2504e-05 -1.4314e-20
0.000222093 9.30609e-05 3.01602e-22
3.04333e-05 -0.000272011 1.29035e-19
-0.00026308 -0.00015996 -2.35273e-19
-9.59286e-06 -5.14223e-05 6.71487e-20
-0.000197331 -4.88985e-05 8.22742e-21
-0.000193305 4.58412e-05 -1.34994e-19
-0.000200754 9.64922e-05 1.79317e-19
0.00100927 -0.000776958 9.8836e-20
1.57103e-06 -0.00067985 -5.78423e-20
2.65225e-05 0.000625822 -3.10068e-20
0.000725885 6.01257e-06 -5.34845e-20
0.000244874 -0.000336286 -3.15291e-20
0.000246371 0.000341678 -8.24142e-20
0.000257752 0.000112171 1.55475e-19
-0.000440964 0.000305528 -8.59014e-20
0.000258387 -0.000113579 -2.56804e-20
0.000287092 -5.77445e-05 7.66758e-20
0.000287476 5.73973e-05 1.27765e-20
0.000377163 -0.000166684 1.20094e-19
0.000384299 0.00016402 -5.0044e-20
-0.000797963 0.00098764 -7.22076e-21
-0.000979436 0.000797892 -6.46511e-20
-0.000197331 -4.88985e-05 -3.29563e-20
-0.000193305 4.58412e-05 -1.22914e-19
-7.36775e-05 -0.000471537 -5.10558e-21
8.9651e-05 0.000474602 1.20442e-19
-0.00021574 0.000348502 2.34084e-19
-0.00023573 -0.000223823 2.91816e-19
0.000208595 -0.000232789 2.02648e-19
0.000210918 0.00023468 1.17825e-19
0.000286045 -9.50192e-05 4.92833e-19
0.000286717 0.000100291 4.53504e-20
-5.89015e-05 -0.000316628 3.36995e-20
0.000315687 -7.67674e-05 -9.44133e-20
-0.00044371 -0.000100237 -3.63862e-19
-5.35683e-05 0.000319595 3.47318e-20
0.000524937 -0.000199352 7.58348e-20
0.00051905 0.000202758 1.83849e-19
-0.000261424 -0.000131375 4.78693e-19
-0.000258936 0.000151436 1.65049e-19
7.05962e-06 0.000298074 7.60089e-20
2.81154e-06 -0.000298702 6.74413e-19
2.89674e-05 -0.000287605 3.22805e-19
3.23522e-05 0.000290638 -2.94054e-20
0.000258208 -4.55025e-05 4.66205e-20
0.00016527 0.000150173 1.6516e-19
-5.57277e-05 -0.000164515 3.43397e-19
-5.2677e-05 0.000167412 1.02925e-19
-0.000354808 0.000580136 -2.60269e-19
-0.000398146 -0.000215293 2.31531e-19
0.000707228 -0.000336012 -2.0102e-19
0.000694647 0.000377232 3.53817e-20
0.000524937 -0.000199352 2.76707e-19
0.00051905 0.000202758 -7.3142e-20
0.000237723 -0.0001287 1.54443e-19
0.000239295 0.000131682 -6.3122e-20
-0.000204659 -9.58164e-05 1.73323e-19
-0.000208736 9.69851e-05 4.02152e-20
0.000279672 0.000130705 4.40677e-20
0.000276102 -0.000132555 8.99109e-20
8.60861e-05 0.000485453 1.18794e-19
8.2647e-05 -0.000485418 2.00397e-19
-0.000197169 -4.59227e-05 -6.20602e-20
-0.000210386 5.14034e-05 6.11554e-20
-8.98977e-06 -0.000666078 7.95156e-19
-6.66701e-05 0.000679569 -1.62171e-19
0.000671413 -4.89795e-05 -2.05621e-19
-0.00059208 5.41542e-06 -1.87843e-19
0.000332234 -0.000314017 1.27718e-19
0.000329068 0.00031492 -1.30224e-19
-0.000310776 -0.000187063 1.92853e-19
-0.000337872 -4.38846e-05 -1.74359e-20
-0.000335998 5.59047e-05 4.12525e-19
-0.000260769 0.000152859 2.74409e-19
0.000223157 -0.000343508 1.38133e-19
-0.000210997 0.000344965 2.60049e-19
0.00033339 -0.000179094 1.74211e-19
-6.27886e-05 -0.000306408 9.36997e-20
0.000206897 0.000322396 -7.87358e-20
0.000341547 0.000179329 1.78824e-19
-0.000232356 0.000188769 6.63713e-20
-0.000234138 -0.00019041 3.61198e-19
-6.08057e-05 -0.000631732 -5.01264e-19
-5.80825e-05 0.000632523 8.76939e-20
0.000457969 -0.00045806 1.38417e-19
0.000453933 0.000457317 -5.10125e-20
3.08241e-05 -9.01006e-05 3.28926e-20
-4.82442e-05 -0.000357731 2.3803e-19
-3.68731e-05 0.000341042 -1.02513e-19
7.02635e-05 -0.000204783 2.78755e-19
7.12043e-05 0.000205062 1.99249e-20
-0.000398146 -0.000215293 -8.86112e-20
-1.61369e-05 0.000282042 -4.39744e-20
-1.83696e-05 -0.000279231 1.44759e-19
2.89674e-05 -0.000287605 5.02755e-19
3.23522e-05 0.000290638 -7.02068e-20
4.65279e-05 8.02111e-05 -1.14007e-19
3.8171e-05 -8.13569e-05 4.01367e-19
-3.68731e-05 0.000341042 1.52668e-19
-0.000204659 -9.58164e-05 1.59816e-19
0.00051871 -0.000201291 3.87941e-19
0.000512837 0.000204694 -9.01192e-20
0.000341547 0.000179329 -1.37419e-19
0.000223319 0.000248988 1.75795e-19
0.000225309 -0.000247254 1.55696e-19
0.00067918 -0.000218536 2.08926e-19
0.000524937 -0.000199352 3.8038e-19
0.000669061 0.000217504 4.59569e-21
0.00051905 0.000202758 2.34258e-19
-0.000431134 0.000322658 4.1532e-20
-5.57277e-05 -0.000164515 2.52187e-19
-5.2677e-05 0.000167412 -1.20629e-20
0.000237723 -0.0001287 1.32093e-19
0.000239295 0.000131682 1.56584e-19
0.000327862 -0.000614728 3.0841e-19
0.000334761 0.000617149 -2.0354e-19
0.00033339 -0.000179094 8.15731e-20
0.000258208 -4.55025e-05 1.28606e-19
-0.000211532 -6.25797e-05 1.65142e-19
-0.000694087 -9.58224e-06 4.28249e-19
-0.000692316 1.29148e-05 4.65661e-19
-5.31666e-05 -0.000180623 2.20118e-19
-4.75239e-05 0.000193746 1.75749e-19
-0.000260769 0.000152859 3.52878e-19
0.000161126 0.000161751 -3.69193e-20
0.000157931 -0.000159529 9.14485e-20
-8.98977e-06 -0.000666078 1.99573e-19
-6.66701e-05 0.000679569 -3.93053e-19
-0.00059208 5.41542e-06 1.82517e-19
0.000671413 -4.89795e-05 -3.02846e-20
-0.000246101 -0.000144663 -7.26958e-20
5.6693e-05 -0.000207927 6.0633e-20
5.50984e-05 0.000205035 1.92076e-19
0.000972152 0.00078748 -2.31499e-19
3.23522e-05 0.000290638 8.92394e-21
-4.82135e-05 -0.000625197 -2.28827e-19
-0.00059208 5.41542e-06 -6.04e-19
-5.2677e-05 0.000167412 6.45959e-20
-5.57277e-05 -0.000164515 1.56694e-19
-1.83696e-05 -0.000279231 -1.03682e-20
-0.000211532 -6.25797e-05 1.57727e-19
2.89674e-05 -0.000287605 9.92002e-20
0.000332234 -0.000314017 1.67475e-19
0.000329068 0.00031492 2.43564e-19
0.000217391 -8.37467e-05 5.79869e-20
0.00021299 9.49352e-05 2.35749e-19
-0.000398146 -0.000215293 -8.05329e-21
-1.61369e-05 0.000282042 9.41288e-20
-0.000260769 0.000152859 -1.45124e-19
-0.000197169 -4.59227e-05 1.08664e-19
-0.000210386 5.14034e-05 4.45214e-19
-0.000204659 -9.58164e-05 2.10608e-19
0.000923101 -0.000755168 -5.56517e-20
-1.61025e-05 0.000614351 3.05289e-19
-8.98977e-06 -0.000666078 -1.45392e-19
0.000637509 -1.98454e-05 1.2802e-19
0.000223157 -0.000343508 -2.47927e-20
-0.000210997 0.000344965 -9.20517e-20
0.000239295 0.000131682 1.83216e-19
0.000237723 -0.0001287 1.18968e-19
0.000295603 0.000224598 1.66523e-19
0.000286045 -9.50192e-05 9.27949e-20
0.000286717 0.000100291 2.01905e-19
0.00033339 -0.000179094 1.26656e-19
0.000341547 0.000179329 3.11218e-19
0.000786726 0.000967828 -2.23898e-19
0.000972152 0.00078748 5.61625e-20
-0.000197169 -4.59227e-05 1.90649e-19
-0.000210386 5.14034e-05 2.82288e-19
8.60861e-05 0.000485453 1.23738e-19
8.2647e-05 -0.000485418 1.79856e-19
-0.000221139 0.000322686 -9.52715e-21
-0.000247186 -0.000161885 -2.53231e-19
0.000210717 -0.000229807 1.26244e-19
0.000208776 0.000233358 1.6357e-20
0.000286899 -9.84596e-05 2.04045e-19
0.000286477 9.8833e-05 6.83209e-20
5.66961e-05 -0.000321299 -5.41173e-20
0.000305463 -7.6082e-05 6.15036e-21
-0.000395965 -5.62089e-05 -1.33694e-19
-5.85518e-05 0.0003157 8.9087e-20
0.000522614 -0.000202166 -3.96291e-20
0.000522086 0.000202757 2.1178e-19
-0.000261357 0.000131581 -1.50179e-19
-0.000259867 -0.000153639 -2.26187e-19
2.69923e-06 0.00029763 1.10394e-22
-5.56143e-06 -0.000298861 5.86834e-20
-3.33245e-05 -0.000295214 -3.56237e-19
2.90476e-05 0.000286648 7.00497e-20
0.000257695 -4.80542e-05 -1.46836e-19
0.000162838 0.00015012 1.68668e-20
-5.52121e-05 0.000163904 -5.06768e-20
5.27081e-05 -0.00016489 -8.87853e-20
-0.000440477 0.000302246 -1.60483e-19
-0.000394241 -0.00021597 -2.21528e-19
0.00040577 -0.000581727 1.15005e-19
0.000703122 0.000346165 -1.66416e-19
0.000522614 -0.000202166 -2.24905e-19
0.000522086 0.000202757 -1.58771e-19
0.000238277 -0.000129934 -4.58432e-20
0.000237837 0.00013018 6.17119e-20
-0.000204043 9.68996e-05 -6.54836e-20
-0.000207593 -9.62529e-05 8.73286e-20
0.000276538 0.00013218 2.44911e-20
0.000278256 -0.000131245 1.15005e-19
8.17289e-05 0.000484949 9.9264e-20
-8.35371e-05 -0.000484396 3.22648e-19
-0.000196081 4.60906e-05 -2.12192e-19
-0.000200352 -4.81856e-05 -1.9095e-19
-9.19528e-06 -0.000637394 -1.06175e-19
2.72003e-05 0.000667857 1.04257e-19
0.000679233 -4.11259e-06 -4.73256e-20
-0.000671768 -8.54375e-05 -5.67253e-20
0.000330913 -0.000315633 -1.26941e-19
0.000329607 0.000316808 4.79032e-20
-0.000255474 0.000149303 -2.48444e-19
-0.000337264 4.39978e-05 1.3095e-19
-0.000336949 -4.40087e-05 -3.47946e-19
-0.000266529 -0.00015912 -1.08735e-20
0.000222883 -0.000340823 1.07666e-19
0.000219939 0.000342667 3.08793e-20
0.000338421 0.000178677 -1.26546e-19
-0.000221139 0.000322686 -4.60637e-19
-6.58702e-05 -0.000303878 -2.59747e-19
0.000338677 -0.00017841 -5.96986e-20
-0.000236336 0.000187424 3.39545e-20
0.00023322 -0.000190206 -5.04658e-19
6.02061e-05 -0.000631034 -4.34008e-20
-6.21492e-05 0.000631699 1.25293e-19
0.000456749 -0.000459191 3.42094e-20
0.000456907 0.000460442 3.15071e-19
3.22589e-05 9.05106e-05 1.05669e-19
-4.8153e-05 0.00035731 -6.28375e-20
-3.69239e-05 -0.000340722 -1.79287e-20
6.99658e-05 0.000203911 -2.03204e-19
-6.66787e-05 -0.000213024 -8.9516e-20
-1.86619e-05 0.000278894 -7.95598e-20
1.67331e-05 -0.000277877 -1.59723e-19
-0.000394241 -0.00021597 -3.0494e-19
-3.33245e-05 -0.000295214 7.9429e-21
2.90476e-05 0.000286648 -6.90983e-20
-0.000181736 -0.000123278 -4.35449e-19
-0.000440477 0.000302246 -6.78315e-21
4.37432e-05 7.91012e-05 1.30984e-19
-3.69239e-05 -0.000340722 -3.69647e-19
-0.000204043 9.68996e-05 -1.59549e-19
0.000516491 -0.000204073 -5.12504e-20
0.000515837 0.000204703 5.55445e-20
0.000338677 -0.00017841 -4.11417e-19
0.000222185 0.000249922 1.51258e-19
0.000224446 -0.000249142 -6.84951e-20
0.000674694 -0.000218639 2.10829e-19
0.000522614 -0.000202166 -1.95801e-19
0.000674235 0.000218932 -1.15685e-19
0.000522086 0.000202757 -1.00564e-19
-5.52121e-05 0.000163904 -2.74664e-19
0.000238277 -0.000129934 -3.61465e-21
0.000237837 0.00013018 -6.10371e-21
0.000327251 0.000614363 3.85502e-20
-0.000330024 -0.000614589 3.62057e-20
-2.40322e-05 -5.99497e-05 9.33515e-20
0.000338421 0.000178677 1.92552e-19
0.000257695 -4.80542e-05 1.15481e-19
-0.000210962 6.14754e-05 -5.18194e-20
-0.000181736 -0.000123278 -1.66378e-19
-0.000692702 9.62574e-06 -1.1052e-19
-0.000692958 -1.12826e-05 -7.80859e-20
-5.29263e-05 0.000178278 -1.56265e-19
-0.000266529 -0.00015912 -7.19356e-20
0.000158594 0.000160798 1.6374e-20
-9.19528e-06 -0.000637394 1.27127e-20
2.72003e-05 0.000667857 1.45249e-19
-0.000671768 -8.54375e-05 -1.57875e-19
0.000679233 -4.11259e-06 1.28011e-19
0.00015853 -0.000160399 -4.922e-20
-0.000245572 0.000145045 -1.77617e-19
5.57768e-05 -0.000209586 -1.93805e-19
5.22058e-05 0.000203732 5.22314e-20
-0.00097259 0.000792904 -3.75718e-19
-3.33245e-05 -0.000295214 -3.05828e-19
-1.83547e-05 -0.000625857 -1.81867e-19
0.00063857 -4.1873e-05 -1.87518e-19
-5.52121e-05 0.000163904 -6.56111e-20
-1.86619e-05 0.000278894 -1.28542e-19
-0.000210962 6.14754e-05 1.06186e-21
2.90476e-05 0.000286648 1.03053e-19
-0.000394241 -0.00021597 2.62584e-19
0.000330913 -0.000315633 -1.29972e-21
0.000329607 0.000316808 9.05141e-20
0.000220312 8.87193e-05 -8.69166e-20
0.000216171 -8.7851e-05 4.45901e-20
1.67331e-05 -0.000277877 -7.38385e-20
-0.000266529 -0.00015912 -2.57211e-19
-2.40322e-05 -5.99497e-05 -3.56799e-21
-0.000196081 4.60906e-05 -5.37661e-19
-0.000200352 -4.81856e-05 -3.04511e-19
-0.000204043 9.68996e-05 -1.73718e-19
0.000956885 0.000758561 3.53756e-19
-9.19528e-06 -0.000637394 -1.67237e-19
6.08143e-06 0.000647177 -2.53788e-20
0.000679233 -4.11259e-06 3.37064e-19
0.000222883 -0.000340823 1.22217e-19
0.000219939 0.000342667 2.55529e-20
0.000237837 0.00013018 -7.35369e-20
-0.000440477 0.000302246 -1.92441e-19
0.000238277 -0.000129934 -1.34582e-19
0.000286899 -9.84596e-05 -1.11153e-19
0.000286477 9.8833e-05 8.6772e-20
0.000338421 0.000178677 1.02768e-19
0.000338677 -0.00017841 4.64464e-20
-0.000792664 0.000984742 -2.96261e-19
-0.00097259 0.000792904 1.5809e-19
-0.000196081 4.60906e-05 -1.18127e-19
-0.000200352 -4.81856e-05 -3.12692e-19
-8.35371e-05 -0.000484396 -4.79032e-20
8.17289e-05 0.000484949 4.10563e-20
-0.000216085 0.000348503 -7.89099e-20
-0.000235678 -0.000224874 -7.29974e-20
0.000211403 -0.000230541 2.36144e-19
0.000209214 0.000233348 -2.00715e-19
0.000286804 -0.000100027 1.75273e-19
0.000285927 9.51059e-05 -2.23478e-19
5.86084e-05 -0.000320694 -1.86423e-20
0.000315708 -7.84354e-05 4.63189e-20
-0.000443835 -0.000100478 -3.17194e-19
-5.43988e-05 0.000319956 1.57994e-19
0.000519424 -0.000202227 8.50603e-20
0.00052486 0.000199796 -1.861e-19
-0.000261622 -0.000131292 -1.13688e-19
-0.000258843 0.000151434 -2.01998e-19
5.6026e-06 0.000298851 -3.34822e-19
-3.74846e-06 -0.000297863 -5.20106e-20
-3.0827e-05 -0.000292729 -7.78947e-20
3.02766e-05 0.000290408 6.25826e-20
0.000258502 -4.7325e-05 9.03229e-20
0.000164993 0.000148217 -1.07555e-19
-5.30591e-05 0.000168201 -2.57815e-19
5.4766e-05 -0.000164961 6.15207e-20
-0.000355153 0.000579885 -1.98766e-19
-0.000398584 -0.000215811 -2.37635e-19
0.000707309 -0.000336542 1.73648e-19
0.000694183 0.000376388 -1.52415e-19
0.000519424 -0.000202227 2.7319e-19
0.00052486 0.000199796 -2.33655e-19
0.000238957 -0.000131398 1.49639e-20
0.000238055 0.000128881 -2.24607e-20
-0.000204649 -9.58647e-05 -1.89906e-20
-0.00020868 9.69264e-05 -2.03204e-19
0.000278958 0.000128784 -1.37483e-19
0.000277184 -0.000134113 1.56932e-19
8.30349e-05 0.000485679 -5.54527e-19
-8.08915e-05 -0.000484664 -2.81524e-20
-0.000197658 -4.67199e-05 -7.10183e-21
-0.000210265 5.19203e-05 -1.03894e-19
-8.08937e-06 -0.000667411 -1.09853e-19
-6.71628e-05 0.000679032 4.09673e-19
0.000671236 -4.97376e-05 -3.47239e-21
-0.000592284 5.26435e-06 -1.04382e-20
0.000330206 -0.000314141 2.68578e-19
0.000331345 0.000314716 8.94352e-20
-0.000310717 -0.000187416 3.13084e-20
-0.00034129 -3.65254e-05 1.66285e-19
-0.000335354 5.64027e-05 -9.46341e-20
-0.000260753 0.000152917 -8.79614e-20
0.000223692 -0.000338326 1.78395e-19
-0.000211486 0.000345074 5.07576e-20
0.000333475 -0.000179754 1.69135e-20
-6.43402e-05 -0.000306024 -2.74061e-19
0.000205571 0.000321298 2.41058e-19
0.000341167 0.000177678 -1.88631e-20
-0.000233735 0.000190086 2.16677e-19
0.00023915 -0.000185741 -4.49088e-20
-6.03345e-05 0.000631908 2.85439e-21
6.41801e-05 -0.000632648 -7.01601e-20
0.000453718 -0.000456152 2.14762e-19
0.000458353 0.000459211 -1.25641e-19
3.16461e-05 -9.21666e-05 -8.81992e-20
-4.82272e-05 -0.000357711 -1.93376e-19
-3.68669e-05 0.000340877 2.22322e-19
7.09414e-05 0.000205891 -3.11851e-19
-6.42355e-05 -0.000212946 -8.30003e-20
-0.000398584 -0.000215811 -2.99741e-19
-1.7045e-05 0.000282486 -2.05502e-19
1.86901e-05 -0.000277324 2.90105e-21
-3.0827e-05 -0.000292729 1.09853e-19
3.02766e-05 0.000290408 -3.12913e-19
-0.000184811 -0.000125756 -3.81723e-20
3.79434e-05 8.13194e-05 -1.57315e-19
-3.68669e-05 0.000340877 -2.10718e-19
-0.000204649 -9.58647e-05 -7.96702e-20
0.000513261 -0.000204147 6.85121e-20
0.000518674 0.000201722 -2.19625e-19
0.000341167 0.000177678 4.91437e-21
0.000223567 0.000247509 1.30781e-20
0.00022528 -0.000248636 2.51473e-19
0.000669336 -0.000217212 1.44219e-19
0.000519424 -0.000202227 5.31021e-20
0.000679317 0.000218869 -2.18534e-19
0.00052486 0.000199796 -1.01643e-19
-0.000431405 0.000322645 1.89888e-19
-5.30591e-05 0.000168201 -1.25038e-19
0.000238957 -0.000131398 -5.92229e-20
0.000238055 0.000128881 -3.78843e-19
0.000328291 0.000615037 3.49467e-19
-0.000328208 -0.000615084 -5.05026e-20
-2.15558e-05 -6.05993e-05 8.97539e-20
0.000333475 -0.000179754 1.85165e-19
0.000258502 -4.7325e-05 9.85037e-20
-0.000211526 -6.26746e-05 -2.17837e-19
-0.000184811 -0.000125756 -1.73039e-19
-0.0006921 -1.08446e-05 1.64446e-19
-0.000692627 1.22087e-05 3.54097e-19
-4.79461e-05 0.000194339 2.95329e-20
-0.000260753 0.000152917 -1.4227e-19
0.000158726 0.00015939 6.13932e-20
-8.08937e-06 -0.000667411 3.32031e-19
-6.71628e-05 0.000679032 4.43912e-19
-0.000592284 5.26435e-06 1.31704e-19
0.000671236 -4.97376e-05 -1.68679e-19
0.000159541 -0.000161727 3.12913e-20
-0.000245852 -0.000144899 -6.99223e-20
5.85205e-05 -0.000209276 -2.98345e-20
5.34686e-05 0.000203548 -1.72865e-19
0.000971891 0.000786981 -4.58211e-19
3.02766e-05 0.000290408 2.37206e-19
-3.0827e-05 -0.000292729 -2.14571e-19
-4.77739e-05 -0.000625777 8.32296e-20
-0.000592284 5.26435e-06 -1.23477e-19
-5.30591e-05 0.000168201 -1.34263e-19
-0.000211526 -6.26746e-05 -1.36514e-19
0.000330206 -0.000314141 8.43467e-20
0.000331345 0.000314716 -6.88262e-20
0.000221121 8.46027e-05 8.79614e-20
0.000212841 -9.48452e-05 -2.35567e-20
-0.000398584 -0.000215811 -2.42999e-20
-1.7045e-05 0.000282486 1.79219e-19
1.86901e-05 -0.000277324 2.13521e-20
-0.000260753 0.000152917 -7.34094e-20
-2.15558e-05 -6.05993e-05 -1.07602e-19
-0.000197658 -4.67199e-05 -4.14555e-19
-0.000210265 5.19203e-05 -6.41372e-20
-0.000204649 -9.58647e-05 -1.06302e-19
0.000923159 -0.000755689 1.49688e-19
-1.67986e-05 0.000614083 2.98964e-19
-8.08937e-06 -0.000667411 4.84304e-19
0.00063774 -2.0958e-05 -3.01424e-20
-0.000211486 0.000345074 -3.40819e-20
0.000223692 -0.000338326 2.79316e-20
0.000238055 0.000128881 -2.4892e-19
0.0002947 0.000223044 5.34674e-20
0.000238957 -0.000131398 -6.45492e-20
0.000286804 -0.000100027 -1.78012e-20
0.000285927 9.51059e-05 -3.25723e-19
0.000333475 -0.000179754 8.04475e-20
0.000341167 0.000177678 -2.30771e-19
0.00078617 0.000967237 1.02278e-18
0.000971891 0.000786981 -1.3008e-19
-0.000197658 -4.67199e-05 3.40819e-20
-0.000210265 5.19203e-05 1.43311e-20
-8.08915e-05 -0.000484664 5.89542e-21
8.30349e-05 0.000485679 5.6778e-19
-0.000221148 0.000322621 -5.86197e-20
-0.000237617 -0.000172021 -1.31031e-19
0.000224329 -0.000286489 1.44806e-19
0.000210451 0.000227464 -5.71458e-20
0.000281951 8.94027e-05 -2.02436e-20
0.000252975 -0.000182553 -3.85035e-20
-3.5763e-05 -0.000334357 1.00802e-19
0.00030925 5.97322e-05 -4.35275e-19
-0.000390115 -6.17252e-05 -9.6949e-20
-5.70243e-05 0.000315354 -1.4227e-19
0.000512106 0.000192343 -1.8147e-19
0.000400256 -0.000242483 -3.51149e-19
-0.000248934 -0.000159977 1.44759e-19
-0.000259292 0.000130948 -3.66478e-19
5.0236e-06 0.000296191 -2.27475e-19
4.4363e-05 -0.000304497 2.85006e-20
8.22122e-05 -0.000328118 -8.94352e-20
3.15684e-05 0.000285073 -1.97814e-19
0.000258481 2.99378e-05 -1.88699e-19
0.000150418 -0.000177738 1.03511e-20
-3.49746e-05 -0.000169563 -1.51847e-20
-5.44375e-05 0.000163414 -4.5379e-19
-0.000445113 0.000301731 -1.4842e-19
-0.000387509 -0.000231055 1.46157e-20
0.000739538 -0.000374479 2.47725e-20
0.000404362 0.000568915 -1.47898e-20
0.000512106 0.000192343 -3.19191e-19
0.000400256 -0.000242483 -1.18318e-19
0.000237407 0.000123494 -2.01301e-19
0.000236594 -0.000207919 8.43638e-20
-0.000200345 9.37842e-05 -2.05995e-19
-0.00019713 -0.000102792 3.62694e-20
0.000280584 0.000117837 -3.50673e-19
0.000280409 -0.000168067 -1.93202e-19
0.000123764 -0.000420779 2.0021e-19
8.26033e-05 0.000480574 -2.75917e-19
-0.000194701 4.60069e-05 -1.40669e-19
-0.000192809 -6.17968e-05 7.58348e-20
5.84516e-06 -0.00070899 3.5546e-19
6.94656e-05 0.000682784 -9.73696e-20
0.000706318 -1.23701e-05 -1.20918e-19
-0.000678261 -0.000100595 -1.28986e-19
0.000323096 0.000300832 -2.14571e-19
0.000262886 -0.000315405 -2.60286e-19
-0.00025291 0.000146979 -3.25579e-19
-0.000321525 -5.97507e-05 -7.91011e-20
-0.000334945 4.39186e-05 -1.19354e-20
-0.000257018 -0.000165883 -7.86208e-21
0.000244947 -0.000385377 4.25939e-20
0.000230947 0.000340443 -2.17089e-19
0.00034698 -0.000218072 -1.31443e-19
-0.000221148 0.000322621 -1.29952e-19
-4.0209e-05 -0.000322829 7.77206e-20
0.000343769 0.000167232 -1.24579e-19
-0.000230375 0.000187805 1.22392e-19
-8.3195e-05 -0.000232815 1.2672e-19
-5.90444e-05 0.000625025 2.10735e-19
2.70133e-05 -0.000519485 7.43142e-20
0.000446286 0.000445251 -2.03285e-19
0.000368959 -0.000424165 -4.86339e-20
2.82939e-05 -0.000105624 6.23447e-20
-4.18463e-05 0.000357371 3.45748e-20
-2.51011e-05 -0.000341936 -2.04178e-20
8.90485e-05 -0.000207071 7.86891e-20
7.03663e-05 0.000203309 -2.76312e-19
9.45141e-06 -0.000287348 -5.55616e-20
-1.73078e-05 0.000278715 -5.31255e-19
-0.000387509 -0.000231055 -8.8675e-20
8.22122e-05 -0.000328118 -5.53874e-20
3.15684e-05 0.000285073 -3.34108e-19
-0.000445113 0.000301731 -3.05637e-19
3.96e-05 7.93148e-05 -1.64382e-19
0.000109475 -0.000178457 -7.4535e-20
-2.51011e-05 -0.000341936 -5.58927e-20
-0.000200345 9.37842e-05 -1.35707e-19
0.000507481 0.000193783 -3.05781e-19
0.000385226 -0.000247169 9.66645e-20
0.000343769 0.000167232 -1.92012e-19
0.000219609 0.000236196 -2.91021e-19
0.000192878 -0.000271837 4.18803e-20
0.000663578 0.000212803 -2.39932e-19
0.000512106 0.000192343 -4.94578e-20
0.000479975 -0.000189738 -3.82376e-19
0.000400256 -0.000242483 3.47343e-19
-3.49746e-05 -0.000169563 -4.46709e-20
-5.44375e-05 0.000163414 -2.14205e-19
0.000237407 0.000123494 -5.68271e-20
0.000236594 -0.000207919 -1.61974e-19
0.000325142 0.000608558 -5.77319e-20
0.000316453 -0.000525867 -1.55127e-19
0.00034698 -0.000218072 -2.00303e-19
0.000258481 2.99378e-05 -1.34391e-19
-0.000207438 5.81132e-05 -1.23946e-19
-0.000668713 -1.79742e-05 -9.3496e-20
-0.000689367 1.01368e-05 2.39236e-19
-5.21258e-05 0.000177959 -2.13126e-19
-3.04487e-05 -0.000192178 -1.04068e-19
-0.000257018 -0.000165883 4.50192e-20
0.000159501 0.000153604 -4.2768e-20
0.000184034 -0.000228237 5.87471e-20
5.84516e-06 -0.00070899 4.84426e-20
6.94656e-05 0.000682784 -4.47329e-19
-0.000678261 -0.000100595 3.24787e-19
0.000706318 -1.23701e-05 -2.16028e-19
-0.000243804 0.000144161 -4.00369e-19
4.69154e-05 0.000192407 3.08964e-20
4.04107e-05 -0.00021478 4.46539e-20
-0.000986258 0.000795793 4.50721e-19
-4.29383e-05 -0.000658229 3.57679e-19
0.000657859 3.26195e-05 5.42766e-20
-5.44375e-05 0.000163414 -1.93217e-20
-3.49746e-05 -0.000169563 -2.86918e-20
-1.73078e-05 0.000278715 -2.86918e-20
9.45141e-06 -0.000287348 -6.58319e-20
-0.000207438 5.81132e-05 3.65073e-20
8.22122e-05 -0.000328118 3.62057e-20
3.15684e-05 0.000285073 -2.56633e-20
-0.000387509 -0.000231055 1.85148e-20
0.000323096 0.000300832 -4.24286e-19
0.000262886 -0.000315405 1.44695e-19
0.00021069 -9.44623e-05 -5.29279e-20
0.000210018 -7.54892e-05 1.15545e-19
-0.000257018 -0.000165883 -8.49033e-20
-0.000192809 -6.17968e-05 4.95853e-20
-0.000194701 4.60069e-05 -2.64882e-19
-0.000200345 9.37842e-05 -2.91497e-19
0.000995641 -0.000788052 -3.89545e-19
5.84516e-06 -0.00070899 8.96264e-20
1.59752e-05 0.000618988 -5.83916e-19
0.000706318 -1.23701e-05 -1.93677e-19
0.000244947 -0.000385377 2.06564e-19
0.000230947 0.000340443 -3.33505e-19
0.000237407 0.000123494 -2.41058e-19
0.000236594 -0.000207919 1.82328e-19
-0.000445113 0.000301731 -5.41322e-19
0.000281951 8.94027e-05 -3.49611e-19
0.000252975 -0.000182553 -5.30554e-20
0.00034698 -0.000218072 8.29366e-20
0.000343769 0.000167232 -4.76679e-19
-0.000797364 0.000977203 -2.63916e-19
-0.000986258 0.000795793 9.75756e-20
-0.000192809 -6.17968e-05 -7.50108e-20
-0.000194701 4.60069e-05 -1.44568e-19
0.000123764 -0.000420779 -1.17843e-19
8.26033e-05 0.000480574 1.87654e-19
3.09178e-05 -4.06703e-06 2.67593e-20
3.44221e-05 -4.46928e-06 -5.78594e-20
1.59795e-05 -2.04694e-06 -1.26406e-19
3.43512e-05 4.43103e-06 -2.98488e-19
4.63263e-05 -5.98126e-06 -2.59353e-20
4.64058e-05 5.9435e-06 -6.79089e-20
4.00851e-05 -9.81002e-06 -1.92853e-19
2.77603e-05 -3.0898e-06 -9.94847e-20
2.7766e-05 -2.649e-06 2.86281e-20
4.96772e-05 3.98582e-06 -1.5449e-19
7.78982e-05 -2.42813e-05 3.49059e-20
7.7953e-05 2.42848e-05 6.63884e-20
-1.23395e-05 -2.73964e-05 3.78878e-20
-1.56789e-05 -1.03318e-05 6.15036e-21
5.09956e-05 2.87707e-05 -2.39932e-19
5.57853e-05 -2.5571e-05 -4.2356e-20
6.58575e-05 7.7097e-06 5.2533e-20
3.7629e-05 9.00901e-06 -3.6085e-19
2.78971e-05 -3.16422e-06 -2.91421e-19
1.99598e-05 1.38968e-05 -3.98007e-19
6.36177e-05 -4.98345e-05 -9.58405e-20
2.59165e-05 -1.14784e-05 -8.10337e-20
3.1299e-05 -4.08511e-06 -9.07349e-20
3.46156e-05 1.4874e-06 1.2745e-19
3.22442e-05 2.40062e-06 6.01106e-20
3.66331e-05 2.98095e-07 -7.59281e-20
7.78982e-05 -2.42813e-05 -1.7453e-19
7.7953e-05 2.42848e-05 -1.61498e-19
3.67182e-05 -1.94289e-06 -5.84626e-20
3.67178e-05 1.85298e-06 -2.29976e-19
2.59868e-05 3.15861e-05 -2.51664e-19
2.80066e-05 -2.67689e-05 -1.75354e-19
3.33424e-05 -6.15228e-06 -3.56025e-20
3.33044e-05 6.0578e-06 -3.44523e-19
0.000109795 0.000139371 -1.01515e-19
3.76999e-05 -0.000131546 9.66645e-20
-6.09212e-06 -7.34151e-05 -9.45408e-20
-6.60929e-06 7.18347e-05 -1.74878e-19
3.8655e-05 5.95992e-08 5.36053e-21
3.83045e-05 -6.34325e-07 -2.20054e-19
3.13025e-05 6.95232e-09 -1.5037e-19
3.02447e-05 -3.44892e-08 -1.94026e-20
4.85527e-05 -4.01456e-05 -3.4183e-19
4.85685e-05 4.02426e-05 -3.21449e-20
1.39891e-05 2.86448e-06 1.12295e-19
-0.000105165 -7.48863e-05 -1.85658e-19
-0.000104786 7.48391e-05 -1.81377e-19
1.81035e-05 -2.35048e-06 -1.54524e-19
3.69527e-05 -3.8425e-06 -2.15263e-20
3.7035e-05 3.81395e-06 -2.35303e-19
3.07879e-05 -4.08108e-06 1.43311e-20
3.09178e-05 -4.06703e-06 -2.69988e-19
4.40171e-05 9.7799e-06 1.49546e-19
3.08126e-05 4.19887e-06 -3.29843e-19
-2.34297e-05 2.64098e-05 -4.11735e-19
0.000208532 3.08201e-05 2.67957e-19
5.29056e-05 0.000197394 -1.54872e-19
0.000111826 -0.000207189 -6.88604e-20
6.64763e-05 -6.27528e-05 -3.96291e-20
6.65217e-05 6.27896e-05 -2.0303e-19
3.28663e-06 9.89261e-06 -3.4877e-19
0.000105461 0.000193216 -1.37118e-19
0.00011449 -0.000182616 -2.15458e-19
0.000121008 -3.14877e-05 3.00553e-20
1.51087e-05 -1.58349e-05 -6.85121e-20
6.78487e-05 -1.2781e-05 -6.09004e-20
3.94667e-05 -9.13803e-06 -1.4032e-19
3.22442e-05 2.40062e-06 -5.63047e-20
6.58575e-05 7.7097e-06 5.53874e-20
3.7629e-05 9.00901e-06 -1.43616e-19
1.37138e-05 6.46779e-05 1.60802e-19
3.1299e-05 -4.08511e-06 1.15846e-19
2.03746e-05 5.84124e-07 -1.85972e-19
0.00011449 -0.000182616 2.59353e-20
2.59868e-05 3.15861e-05 1.13943e-19
7.93983e-05 -2.38142e-05 -7.70503e-21
7.94575e-05 2.38163e-05 2.98345e-20
3.08126e-05 4.19887e-06 -2.13428e-19
3.08585e-05 -2.9099e-05 -1.02212e-19
3.07361e-05 2.91242e-05 -3.547e-19
0.000102587 -3.08554e-05 -1.34994e-19
7.78982e-05 -2.42813e-05 -2.04473e-20
0.000102667 3.08748e-05 1.30492e-19
7.7953e-05 2.42848e-05 5.57357e-20
6.36177e-05 -4.98345e-05 1.6115e-19
3.67182e-05 -1.94289e-06 -1.53572e-19
3.67178e-05 1.85298e-06 -4.68516e-19
0.000262302 0.000234657 4.36557e-20
-5.81196e-05 -0.000178529 -9.06416e-20
1.5866e-05 2.26735e-06 9.22554e-21
3.07879e-05 -4.08108e-06 -2.93069e-19
2.78971e-05 -3.16422e-06 -1.37338e-19
5.74807e-05 2.01098e-05 1.51551e-20
1.37138e-05 6.46779e-05 -1.28147e-19
-0.000382551 6.17714e-05 -7.16806e-20
-0.000382293 -6.2998e-05 -4.18803e-20
6.47643e-05 -4.26186e-05 -9.34619e-20
1.81035e-05 -2.35048e-06 -5.37053e-20
3.34451e-05 3.1178e-06 -2.35558e-19
3.8655e-05 5.95992e-08 -6.63543e-20
3.83045e-05 -6.34325e-07 -2.22909e-19
3.02447e-05 -3.44892e-08 -1.94026e-20
3.13025e-05 6.95232e-09 -1.79474e-19
3.34566e-05 -3.18807e-06 -1.39241e-19
-3.10805e-05 -2.347e-05 -2.01858e-19
6.58211e-06 -2.47241e-05 -1.97576e-19
6.58699e-06 2.43099e-05 -5.13947e-19
2.89365e-05 1.04009e-05 -9.74885e-20
6.58575e-05 7.7097e-06 6.03314e-20
3.8173e-05 5.64725e-07 -1.5782e-19
3.14378e-05 -1.20076e-07 2.78041e-20
6.36177e-05 -4.98345e-05 -8.02438e-20
6.78487e-05 -1.2781e-05 -1.33455e-20
5.74807e-05 2.01098e-05 1.51551e-20
3.7629e-05 9.00901e-06 -3.74357e-19
3.22442e-05 2.40062e-06 -1.52179e-19
4.85527e-05 -4.01456e-05 -3.07017e-19
4.85685e-05 4.02426e-05 -8.8263e-20
3.97467e-05 1.97306e-05 6.6261e-20
3.94871e-05 -1.97145e-05 -4.86619e-19
3.94667e-05 -9.13803e-06 2.15604e-20
1.81035e-05 -2.35048e-06 1.71327e-19
1.5866e-05 2.26735e-06 7.80859e-20
-6.09212e-06 -7.34151e-05 3.82361e-20
-6.60929e-06 7.18347e-05 5.45384e-21
2.59868e-05 3.15861e-05 3.44302e-20
2.93151e-05 1.00678e-05 -9.03867e-20
3.88469e-05 1.25989e-08 -1.32963e-19
3.8655e-05 5.95992e-08 -1.59375e-19
3.13025e-05 6.95232e-09 2.71076e-20
3.69527e-05 -3.8425e-06 -1.80553e-19
3.7035e-05 3.81395e-06 -2.06199e-19
3.67178e-05 1.85298e-06 -3.81204e-19
3.1299e-05 -4.08511e-06 -3.00171e-19
3.67182e-05 -1.94289e-06 -1.21614e-19
4.63263e-05 -5.98126e-06 -1.50149e-19
4.64058e-05 5.9435e-06 -4.20009e-19
3.07879e-05 -4.08108e-06 -1.04939e-19
3.08126e-05 4.19887e-06 -2.45386e-19
4.11809e-05 2.40897e-07 -1.76271e-20
2.89365e-05 1.04009e-05 -1.98307e-19
-6.60929e-06 7.18347e-05 -4.49555e-20
-6.09212e-06 -7.34151e-05 -1.05194e-19
0.000109795 0.000139371 -7.52657e-20
3.76999e-05 -0.000131546 -9.09807e-21
-0.000209332 0.000340914 -2.41772e-19
-0.00024519 -0.000160053 -2.95256e-19
0.000212229 -0.00022511 -1.07802e-20
0.000224234 0.00028546 3.01657e-20
0.000252332 0.0001827 2.66658e-19
0.000281663 -8.9834e-05 3.47614e-20
5.94262e-05 -0.000318979 -3.82852e-19
0.000309108 0.000104661 1.94438e-19
-0.000395294 -5.21261e-05 -1.41012e-21
-3.4253e-05 0.000334794 5.61943e-20
0.000399387 0.000242287 1.49639e-19
0.000512101 -0.00019264 9.51804e-19
-0.000256962 -0.000151895 -1.26941e-19
-0.000250785 0.000138119 1.34263e-20
4.57217e-05 0.000304976 1.37746e-20
-3.83964e-06 -0.000296232 -1.07648e-19
-3.20713e-05 -0.000293674 1.099e-19
8.33061e-05 0.000327769 6.93999e-20
0.00025335 7.19559e-05 2.41257e-20
0.000160311 -0.000135131 2.3597e-19
-3.83093e-05 0.000167297 -5.86197e-20
5.41429e-05 -0.000161755 -3.11804e-19
-0.000440794 0.00031936 -2.85644e-20
-0.000392575 -0.000214083 1.06527e-20
0.000728313 -0.00033655 4.90214e-20
0.000418169 0.00060713 -4.79563e-19
0.000399387 0.000242287 1.26831e-20
0.000512101 -0.00019264 4.91087e-19
0.000236127 0.000207742 1.09806e-19
0.000238139 -0.000124492 -3.33217e-20
-0.000195466 0.000100253 1.47295e-19
-0.000203514 -9.33556e-05 -1.93027e-19
0.000280892 0.000168064 2.45416e-19
0.000280657 -0.000117858 -1.39369e-19
0.000124009 0.000421177 -1.25768e-19
-8.15619e-05 -0.000479276 3.56025e-20
-0.000182916 5.3252e-05 -4.94578e-20
-0.000198286 -4.8163e-05 -1.06395e-19
-8.75114e-06 -0.000671994 -1.14164e-19
7.91682e-05 0.00071483 -1.62235e-19
0.000703257 2.77685e-05 2.64772e-19
-0.00067765 -8.29377e-05 9.96441e-20
0.000262515 0.000314434 -4.03769e-20
0.000322978 -0.000301838 5.26532e-19
-0.000247542 0.000157109 1.53759e-20
-0.000333846 -4.40091e-05 -2.62665e-20
-0.00032347 5.11694e-05 -1.0039e-19
-0.000263667 -0.000157411 -1.07886e-19
0.000228247 -0.000335777 -9.52715e-21
0.000247855 0.000383881 -2.39049e-20
0.000345358 -0.000166387 1.61999e-20
-0.000209332 0.000340914 -2.1514e-19
-6.37183e-05 -0.000302565 -2.06976e-19
0.000345153 0.000218276 7.54228e-20
-8.26969e-05 0.000232848 1.91818e-20
0.000231612 -0.000188742 -1.07364e-19
6.06246e-05 -0.00062433 -3.3647e-19
2.74333e-05 0.000519705 2.92313e-20
0.000368215 0.000423481 4.37985e-19
0.000446378 -0.000445566 1.23565e-18
2.8728e-05 -7.2566e-05 1.85543e-19
-3.91578e-05 0.000357851 9.93914e-20
-2.77769e-05 -0.000341064 -1.14733e-19
8.90632e-05 0.000207997 7.21222e-21
-6.52602e-05 -0.000209885 -3.6356e-19
1.05655e-05 0.000293433 -2.90572e-20
1.86219e-05 -0.00027464 1.47074e-19
-0.000392575 -0.000214083 -2.43483e-19
-3.20713e-05 -0.000293674 -2.48572e-19
8.33061e-05 0.000327769 -6.5849e-20
-0.000179912 -0.000122701 -2.18151e-19
-0.000440794 0.00031936 9.03229e-20
0.000111831 0.00017795 1.48025e-19
-2.77769e-05 -0.000341064 -1.56299e-19
-0.000195466 0.000100253 1.15336e-19
0.000384255 0.000247005 -8.58148e-22
0.00050739 -0.000194107 4.38652e-19
0.000345153 0.000218276 3.03398e-20
0.000193628 0.000271434 4.07059e-19
0.000218574 -0.000236826 -3.08497e-20
0.000478774 0.000189397 3.72675e-19
0.000399387 0.000242287 -8.62234e-21
0.000663485 -0.000212899 7.23476e-19
0.000512101 -0.00019264 3.05811e-19
-3.83093e-05 0.000167297 -9.30499e-20
0.000236127 0.000207742 2.461e-19
0.000238139 -0.000124492 -6.20431e-20
0.00031646 0.000526123 -2.81592e-19
-0.000324689 -0.00060752 -1.61812e-19
-2.31981e-05 -5.59799e-05 -1.17889e-19
0.000345358 -0.000166387 1.46122e-19
0.00025335 7.19559e-05 1.76398e-19
-0.000207212 6.44644e-05 -9.28291e-20
-0.000179912 -0.000122701 -2.19578e-19
-0.000689014 -1.21486e-05 -9.72677e-20
-0.000669595 1.5912e-05 -4.05806e-20
-3.50571e-05 0.000187736 1.03163e-19
-0.000263667 -0.000157411 -3.06669e-19
0.000184404 0.000227747 2.38e-19
-8.75114e-06 -0.000671994 3.22393e-19
7.91682e-05 0.00071483 -7.55487e-19
-0.00067765 -8.29377e-05 -1.0142e-19
0.000703257 2.77685e-05 5.18194e-20
0.000159143 -0.000154648 2.5485e-19
-0.000232965 0.000153317 1.03053e-19
4.07368e-05 0.000219226 1.55284e-19
4.66346e-05 -0.000187558 1.60895e-19
-0.000986343 0.000812462 -3.77984e-20
-3.20713e-05 -0.000293674 -2.27266e-19
-5.1319e-05 -0.000627389 -9.21069e-20
0.000661051 6.6968e-05 1.81217e-19
-3.83093e-05 0.000167297 6.98756e-20
1.05655e-05 0.000293433 -1.09615e-19
-0.000207212 6.44644e-05 -2.11143e-20
8.33061e-05 0.000327769 8.64238e-20
-0.000392575 -0.000214083 -3.66652e-19
0.000262515 0.000314434 3.95518e-19
0.000322978 -0.000301838 2.48619e-19
0.000209135 7.58098e-05 2.36509e-19
0.000213238 9.46228e-05 1.55441e-19
1.86219e-05 -0.00027464 -1.4292e-19
-0.000263667 -0.000157411 -7.09841e-20
-2.31981e-05 -5.59799e-05 -5.68271e-20
-0.000182916 5.3252e-05 3.00553e-20
-0.000198286 -4.8163e-05 -2.44499e-19
-0.000195466 0.000100253 5.3612e-20
0.000991981 -0.00076261 -1.20873e-20
-8.75114e-06 -0.000671994 2.97189e-19
3.07794e-05 0.000657139 -1.66587e-19
0.000703257 2.77685e-05 3.5741e-19
0.000228247 -0.000335777 4.62085e-20
0.000247855 0.000383881 -7.14598e-20
0.000236127 0.000207742 3.31602e-19
-0.000440794 0.00031936 2.82161e-20
0.000238139 -0.000124492 1.27132e-19
0.000252332 0.0001827 1.2361e-19
0.000281663 -8.9834e-05 1.11803e-19
0.000345358 -0.000166387 1.06366e-19
0.000345153 0.000218276 4.26096e-19
-0.000810919 0.00101366 1.21321e-19
-0.000986343 0.000812462 6.93913e-20
-0.000198286 -4.8163e-05 -2.17867e-19
-0.000182916 5.3252e-05 1.08141e-19
-8.15619e-05 -0.000479276 3.47946e-19
0.000124009 0.000421177 5.45634e-20
-0.000216719 0.00032642 2.36158e-21
-0.000242925 -0.000162841 -5.95245e-20
0.000232097 -0.000221247 1.08901e-19
0.000230422 0.000223373 1.43311e-20
0.000287476 5.73973e-05 -1.4032e-19
0.000287092 -5.77445e-05 1.49355e-19
7.20199e-05 -0.000317196 -9.04038e-20
0.000368778 -6.71473e-05 -7.86208e-21
-0.000393062 -5.7524e-05 -5.52599e-20
-4.9269e-05 0.000313974 9.82658e-20
0.000463896 -0.00013277 1.01294e-19
0.000463724 0.000132933 -1.64922e-19
-0.000256112 -0.000154227 6.23118e-21
-0.000258542 0.000131825 4.52742e-20
1.47229e-05 0.000291843 6.6261e-21
5.45703e-06 -0.000291748 -1.10741e-19
-2.56581e-05 -0.000292867 -7.15065e-20
4.34412e-05 0.000282636 4.7869e-21
0.000311851 -3.61809e-05 1.87356e-20
0.000243325 0.000105878 6.77519e-20
-5.06264e-05 0.000160567 1.03766e-19
6.7336e-05 -0.000156625 5.73837e-21
-0.000440964 0.000305528 -9.40013e-20
-0.000388405 -0.000218371 4.77461e-20
0.000744973 -0.000349079 4.75503e-21
0.000420876 0.000574945 2.05281e-20
0.000463896 -0.00013277 2.8866e-19
0.000463724 0.000132933 -1.80518e-19
0.000258387 -0.000113579 1.6245e-19
0.000257752 0.000112171 -6.19794e-20
-0.000200754 9.64922e-05 6.36444e-20
-0.000203777 -9.6407e-05 -7.47092e-20
0.000311677 0.000109842 -1.65682e-19
0.000310683 -0.00011278 -5.1297e-20
8.9651e-05 0.000474602 1.50149e-19
-7.36775e-05 -0.000471537 -8.50603e-20
-0.000193305 4.58412e-05 -1.63274e-20
-0.000197331 -4.88985e-05 -6.45322e-20
1.57103e-06 -0.00067985 5.82714e-20
7.99894e-05 0.000689574 1.92922e-20
0.000725885 6.01257e-06 -6.04589e-20
-0.000673964 -9.09346e-05 1.18278e-19
0.000337752 -0.000204082 1.01515e-19
0.000337009 0.000204419 -1.65482e-20
-0.000252729 0.000149644 -2.18916e-20
-0.000333675 -4.47231e-05 -2.25206e-19
-0.000335242 4.37302e-05 -1.88585e-21
-0.00026308 -0.00015996 -1.4151e-19
0.000244874 -0.000336286 7.17615e-20
0.000246371 0.000341678 5.42618e-20
0.000377163 -0.000166684 1.76271e-20
-0.000216719 0.00032642 -5.44189e-20
-5.51691e-05 -0.000302787 5.35949e-20
0.000384299 0.00016402 2.91676e-20
-0.000220396 0.000181066 -1.71514e-20
0.000240706 -0.00018077 8.77406e-20
6.94668e-05 -0.000617565 -7.35677e-21
-5.02633e-05 0.000617318 3.91984e-19
0.000372135 -0.00031394 -1.33797e-20
0.000372269 0.000314535 -7.21222e-20
0.000164695 5.63295e-05 -5.54807e-20
-4.28756e-05 0.000358893 1.02785e-19
-2.87045e-05 -0.000342607 -1.89778e-19
7.49334e-05 0.000200696 1.96816e-19
-5.27755e-05 -0.00020505 3.01828e-20
-1.04283e-05 0.000278136 1.22884e-19
3.04333e-05 -0.000272011 -1.79924e-20
-0.000388405 -0.000218371 -5.83989e-20
-2.56581e-05 -0.000292867 -3.85035e-20
4.34412e-05 0.000282636 -8.7851e-20
-0.000178 -0.000121362 -2.6693e-19
-0.000440964 0.000305528 -5.95711e-20
5.15924e-05 7.19943e-05 -1.94263e-19
-2.87045e-05 -0.000342607 -3.60782e-20
-0.000200754 9.64922e-05 8.92315e-20
0.000466788 -0.000131869 -2.33608e-19
0.000466812 0.000131971 -1.08252e-19
0.000384299 0.00016402 1.31885e-20
0.000272052 0.000163917 -8.32848e-20
0.000273531 -0.000163988 1.09917e-19
0.000589485 -0.000165823 6.96844e-20
0.000463896 -0.00013277 2.83716e-19
0.000589461 0.000165974 -1.20221e-19
0.000463724 0.000132933 -2.62886e-19
-5.06264e-05 0.000160567 -6.30583e-20
0.000258387 -0.000113579 5.09784e-20
0.000257752 0.000112171 -1.23041e-19
-0.000314975 -0.000598333 -3.43027e-20
0.00033418 0.000604762 2.89739e-19
-9.59286e-06 -5.14223e-05 -1.32157e-19
0.000377163 -0.000166684 -1.43311e-20
0.000311851 -3.61809e-05 -2.03442e-19
-0.000208614 6.08522e-05 -2.6551e-20
-0.000178 -0.000121362 2.20191e-20
-0.000689048 -1.29589e-05 -2.07057e-19
-0.000689741 1.10756e-05 1.01039e-19
-4.79503e-05 0.000177394 4.62552e-20
-0.00026308 -0.00015996 -2.36158e-21
0.000175606 0.000143925 -1.72737e-19
1.57103e-06 -0.00067985 5.39011e-21
7.99894e-05 0.000689574 5.76215e-20
0.000725885 6.01257e-06 -3.1355e-20
-0.000673964 -9.09346e-05 -9.31261e-21
0.000174965 -0.000145434 8.05329e-21
-0.000242965 0.000145113 1.35707e-19
0.000163311 -0.00013489 2.47289e-20
0.000161121 0.000132054 -1.59897e-19
-0.000979436 0.000797892 2.0972e-20
-2.56581e-05 -0.000292867 -3.21324e-20
-4.24624e-05 -0.000633722 7.68966e-20
0.000679733 4.93536e-05 -9.11407e-20
-5.06264e-05 0.000160567 1.74996e-20
-1.04283e-05 0.000278136 9.23533e-20
-0.000208614 6.08522e-05 6.71316e-20
4.34412e-05 0.000282636 -1.11922e-20
-0.000388405 -0.000218371 -8.46483e-20
0.000337752 -0.000204082 -2.32134e-19
0.000337009 0.000204419 -1.20221e-19
0.000220414 -9.2504e-05 -2.69164e-20
0.000222093 9.30609e-05 -5.85093e-20
3.04333e-05 -0.000272011 -6.84017e-20
-0.00026308 -0.00015996 -6.30412e-20
-9.59286e-06 -5.14223e-05 -2.10676e-20
-0.000197331 -4.88985e-05 -4.21819e-20
-0.000193305 4.58412e-05 -9.29861e-20
-0.000200754 9.64922e-05 -2.65215e-20
0.00100927 -0.000776958 5.57781e-20
1.57103e-06 -0.00067985 -1.62862e-19
2.65225e-05 0.000625822 6.98119e-20
0.000725885 6.01257e-06 3.89326e-20
0.000244874 -0.000336286 -3.15291e-20
0.000246371 0.000341678 4.36091e-20
0.000257752 0.000112171 -2.93588e-20
-0.000440964 0.000305528 1.07165e-20
0.000258387 -0.000113579 4.99336e-20
0.000287092 -5.77445e-05 -4.51467e-20
0.000287476 5.73973e-05 2.1178e-20
0.000377163 -0.000166684 1.08735e-20
0.000384299 0.00016402 -5.42448e-20
-0.000797963 0.00098764 3.26866e-20
-0.000979436 0.000797892 -1.08759e-19
-0.000197331 -4.88985e-05 4.26576e-20
-0.000193305 4.58412e-05 -2.06929e-19
-7.36775e-05 -0.000471537 1.79729e-19
8.9651e-05 0.000474602 7.84342e-20
-0.00021574 0.000348502 1.24864e-19
-0.00023573 -0.000223823 2.078e-19
0.000208595 -0.000232789 3.45474e-19
0.000210918 0.00023468 2.14443e-19
0.000286045 -9.50192e-05 2.95396e-19
0.000286717 0.000100291 2.55389e-19
-5.89015e-05 -0.000316628 2.18534e-19
0.000315687 -7.67674e-05 -6.08071e-20
-0.00044371 -0.000100237 -3.17653e-19
-5.35683e-05 0.000319595 -4.92837e-20
0.000524937 -0.000199352 8.42363e-20
0.00051905 0.000202758 2.09053e-19
-0.000261424 -0.000131375 3.0226e-19
-0.000258936 0.000151436 7.26321e-20
7.05962e-06 0.000298074 1.18017e-19
2.81154e-06 -0.000298702 7.08019e-19
2.89674e-05 -0.000287605 3.10203e-19
3.23522e-05 0.000290638 2.94054e-20
0.000258208 -4.55025e-05 -2.47927e-20
0.00016527 0.000150173 1.52557e-19
-5.57277e-05 -0.000164515 2.67783e-19
-5.2677e-05 0.000167412 1.32331e-19
-0.000354808 0.000580136 -3.48486e-19
-0.000398146 -0.000215293 2.14728e-19
0.000707228 -0.000336012 -2.05221e-19
0.000694647 0.000377232 -4.02323e-20
0.000524937 -0.000199352 4.36337e-19
0.00051905 0.000202758 2.04109e-19
0.000237723 -0.0001287 2.38459e-19
0.000239295 0.000131682 -1.69135e-20
-0.000204659 -9.58164e-05 1.5652e-19
-0.000208736 9.69851e-05 1.36833e-19
0.000279672 0.000130705 6.50716e-20
0.000276102 -0.000132555 1.23517e-19
8.60861e-05 0.000485453 -7.2293e-21
8.2647e-05 -0.000485418 3.76829e-19
-0.000197169 -4.59227e-05 1.35538e-20
-0.000210386 5.14034e-05 1.61974e-19
-8.98977e-06 -0.000666078 7.27944e-19
-6.66701e-05 0.000679569 -1.57971e-19
0.000671413 -4.89795e-05 -1.90918e-19
-0.00059208 5.41542e-06 -1.94144e-19
0.000332234 -0.000314017 8.57102e-20
0.000329068 0.00031492 1.30224e-19
-0.000310776 -0.000187063 8.36331e-20
-0.000337872 -4.38846e-05 -1.64463e-19
-0.000335998 5.59047e-05 5.72155e-19
-0.000260769 0.000152859 3.41622e-19
0.000223157 -0.000343508 5.83181e-20
-0.000210997 0.000344965 1.88635e-19
0.00033339 -0.000179094 1.53207e-19
-6.27886e-05 -0.000306408 9.79005e-20
0.000206897 0.000322396 -6.19327e-20
0.000341547 0.000179329 1.70422e-19
-0.000232356 0.000188769 6.21706e-20
-0.000234138 -0.00019041 3.27592e-19
-6.08057e-05 -0.000631732 -5.85279e-19
-5.80825e-05 0.000632523 -1.89557e-19
0.000457969 -0.00045806 1.72024e-19
0.000453933 0.000457317 1.67428e-19
3.08241e-05 -9.01006e-05 3.48718e-21
-4.82442e-05 -0.000357731 3.05242e-19
-3.68731e-05 0.000341042 -1.10915e-19
7.02635e-05 -0.000204783 7.29166e-20
7.12043e-05 0.000205062 1.20744e-19
-0.000398146 -0.000215293 -1.05414e-19
-1.61369e-05 0.000282042 1.87068e-19
-1.83696e-05 -0.000279231 5.65426e-20
2.89674e-05 -0.000287605 4.64948e-19
3.23522e-05 0.000290638 -1.62624e-19
4.65279e-05 8.02111e-05 5.82247e-20
3.8171e-05 -8.13569e-05 3.38355e-19
-3.68731e-05 0.000341042 2.45085e-19
-0.000204659 -9.58164e-05 3.4465e-19
0.00051871 -0.000201291 3.08126e-19
0.000512837 0.000204694 1.87132e-19
0.000341547 0.000179329 -9.54114e-20
0.000223319 0.000248988 2.85015e-19
0.000225309 -0.000247254 1.30492e-19
0.00067918 -0.000218536 2.76138e-19
0.000524937 -0.000199352 1.87144e-19
0.000669061 0.000217504 1.8943e-19
0.00051905 0.000202758 1.58644e-19
-0.000431134 0.000322658 -1.72788e-20
-5.57277e-05 -0.000164515 1.26163e-19
-5.2677e-05 0.000167412 -5.82714e-20
0.000237723 -0.0001287 1.1529e-19
0.000239295 0.000131682 1.27178e-19
0.000327862 -0.000614728 5.01646e-19
0.000334761 0.000617149 3.00553e-19
0.00033339 -0.000179094 8.57739e-20
0.000258208 -4.55025e-05 8.23971e-20
-0.000211532 -6.25797e-05 3.24772e-19
-0.000694087 -9.58224e-06 6.97099e-19
-0.000692316 1.29148e-05 4.65661e-19
-5.31666e-05 -0.000180623 1.65508e-19
-4.75239e-05 0.000193746 1.58945e-19
-0.000260769 0.000152859 1.17634e-19
0.000161126 0.000161751 3.44939e-20
0.000157931 -0.000159529 1.29256e-19
-8.98977e-06 -0.000666078 3.33998e-19
-6.66701e-05 0.000679569 -3.63647e-19
-0.00059208 5.41542e-06 2.14023e-19
0.000671413 -4.89795e-05 -5.33889e-20
-0.000246101 -0.000144663 -1.18904e-19
5.6693e-05 -0.000207927 6.0633e-20
5.50984e-05 0.000205035 1.66871e-19
0.000972152 0.00078748 -2.378e-19
3.23522e-05 0.000290638 9.29395e-20
-4.82135e-05 -0.000625197 -3.33847e-19
-0.00059208 5.41542e-06 -5.34687e-19
-5.2677e-05 0.000167412 6.87967e-20
-5.57277e-05 -0.000164515 2.07104e-19
-1.83696e-05 -0.000279231 1.53462e-19
-0.000211532 -6.25797e-05 -6.07138e-20
2.89674e-05 -0.000287605 1.11803e-19
0.000332234 -0.000314017 7.50574e-20
0.000329068 0.00031492 -2.52855e-20
0.000217391 -8.37467e-05 -1.01643e-19
0.00021299 9.49352e-05 3.83123e-20
-0.000398146 -0.000215293 7.59622e-20
-1.61369e-05 0.000282042 -5.28984e-20
-0.000260769 0.000152859 4.81115e-20
-0.000197169 -4.59227e-05 1.33868e-19
-0.000210386 5.14034e-05 2.43577e-19
-0.000204659 -9.58164e-05 1.73722e-20
0.000923101 -0.000755168 -3.04471e-20
-1.61025e-05 0.000614351 3.64099e-19
-8.98977e-06 -0.000666078 -2.37809e-19
0.000637509 -1.98454e-05 2.72009e-20
0.000223157 -0.000343508 4.66205e-20
-0.000210997 0.000344965 -1.2237e-20
0.000239295 0.000131682 2.7787e-20
0.000237723 -0.0001287 2.6551e-20
0.000295603 0.000224598 1.24515e-19
0.000286045 -9.50192e-05 2.73428e-19
0.000286717 0.000100291 8.4283e-20
0.00033339 -0.000179094 5.52429e-20
0.000341547 0.000179329 2.27203e-19
0.000786726 0.000967828 -2.25999e-19
0.000972152 0.00078748 1.00271e-19
-0.000197169 -4.59227e-05 2.41058e-19
-0.000210386 5.14034e-05 2.31879e-19
8.60861e-05 0.000485453 2.49761e-19
8.2647e-05 -0.000485418 -9.73952e-20
-0.000221139 0.000322686 2.40791e-20
-0.000247186 -0.000161885 -3.28845e-19
0.000210717 -0.000229807 3.3827e-20
0.000208776 0.000233358 3.06211e-19
0.000286899 -9.84596e-05 -2.69972e-20
0.000286477 9.8833e-05 8.93248e-20
5.66961e-05 -0.000321299 -1.42334e-19
0.000305463 -7.6082e-05 2.29535e-20
-0.000395965 -5.62089e-05 -7.48833e-20
-5.85518e-05 0.0003157 8.06854e-20
0.000522614 -0.000202166 -8.16369e-20
0.000522086 0.000202757 1.27765e-19
-0.000261357 0.000131581 -2.88804e-19
-0.000259867 -0.000153639 -4.06821e-19
2.69923e-06 0.00029763 7.99251e-20
-5.56143e-06 -0.000298861 3.34787e-20
-3.33245e-05 -0.000295214 -2.42816e-19
2.90476e-05 0.000286648 -4.33712e-20
0.000257695 -4.80542e-05 8.59276e-21
0.000162838 0.00015012 -6.29479e-20
-5.52121e-05 0.000163904 -2.35511e-19
5.27081e-05 -0.00016489 -1.39195e-19
-0.000440477 0.000302246 -1.81487e-19
-0.000394241 -0.00021597 -2.63536e-19
0.00040577 -0.000581727 1.83874e-20
0.000703122 0.000346165 -1.62215e-19
0.000522614 -0.000202166 -2.16503e-19
0.000522086 0.000202757 -1.41968e-19
0.000238277 -0.000129934 -5.84455e-20
0.000237837 0.00013018 -8.11145e-20
-0.000204043 9.68996e-05 -6.54836e-20
-0.000207593 -9.62529e-05 -8.49033e-20
0.000276538 0.00013218 1.18887e-20
0.000278256 -0.000131245 1.83874e-20
8.17289e-05 0.000484949 6.56577e-20
-8.35371e-05 -0.000484396 1.04208e-19
-0.000196081 4.60906e-05 -1.4918e-19
-0.000200352 -4.81856e-05 -1.82549e-19
-9.19528e-06 -0.000637394 -1.77588e-19
2.72003e-05 0.000667857 1.27361e-19
0.000679233 -4.11259e-06 -2.42213e-20
-0.000671768 -8.54375e-05 -9.24319e-20
0.000330913 -0.000315633 -1.68948e-19
0.000329607 0.000316808 1.65525e-19
-0.000255474 0.000149303 -2.7785e-19
-0.000337264 4.39978e-05 3.03182e-19
-0.000336949 -4.40087e-05 -3.31143e-19
-0.000266529 -0.00015912 -1.20094e-19
0.000222883 -0.000340823 5.72562e-20
0.000219939 0.000342667 2.24777e-20
0.000338421 0.000178677 2.46823e-20
-0.000221139 0.000322686 -4.2703e-19
-6.58702e-05 -0.000303878 -2.47145e-19
0.000338677 -0.00017841 6.21239e-20
-0.000236336 0.000187424 3.39545e-20
0.00023322 -0.000190206 -3.66032e-19
6.02061e-05 -0.000631034 -2.28235e-19
-6.21492e-05 0.000631699 8.32848e-20
0.000456749 -0.000459191 -1.50625e-19
0.000456907 0.000460442 1.55441e-19
3.22589e-05 9.05106e-05 -9.5968e-20
-4.8153e-05 0.00035731 9.6792e-20
-3.69239e-05 -0.000340722 3.24806e-20
6.99658e-05 0.000203911 -1.02386e-19
-6.66787e-05 -0.000213024 7.01135e-20
-1.86619e-05 0.000278894 -1.04764e-19
1.67331e-05 -0.000277877 -9.25104e-20
-0.000394241 -0.00021597 -2.96539e-19
-3.33245e-05 -0.000295214 -1.55887e-19
2.90476e-05 0.000286648 -6.08663e-21
-0.000181736 -0.000123278 -2.8002e-19
-0.000440477 0.000302246 -2.0422e-19
4.37432e-05 7.91012e-05 -4.12475e-20
-3.69239e-05 -0.000340722 -4.45261e-19
-0.000204043 9.68996e-05 -5.873e-20
0.000516491 -0.000204073 1.79792e-19
0.000515837 0.000204703 6.81468e-20
0.000338677 -0.00017841 -4.15617e-19
0.000222185 0.000249922 1.47057e-19
0.000224446 -0.000249142 -1.23105e-19
0.000674694 -0.000218639 1.77222e-19
0.000522614 -0.000202166 -1.87399e-19
0.000674235 0.000218932 -3.25723e-19
0.000522086 0.000202757 -8.37606e-20
-5.52121e-05 0.000163904 -1.57043e-19
0.000238277 -0.000129934 5.9397e-20
0.000237837 0.00013018 1.03116e-19
0.000327251 0.000614363 2.23384e-19
-0.000330024 -0.000614589 2.59945e-21
-2.40322e-05 -5.99497e-05 3.03398e-20
0.000338421 0.000178677 1.42142e-19
0.000257695 -4.80542e-05 -6.34157e-21
-0.000210962 6.14754e-05 -4.76187e-20
-0.000181736 -0.000123278 -3.8902e-19
-0.000692702 9.62574e-06 9.11174e-20
-0.000692958 -1.12826e-05 -5.28813e-20
-5.29263e-05 0.000178278 -3.57902e-19
-0.000266529 -0.00015912 -2.99278e-20
0.000158594 0.000160798 1.33996e-19
-9.19528e-06 -0.000637394 6.73228e-20
2.72003e-05 0.000667857 1.80956e-19
-0.000671768 -8.54375e-05 -2.31389e-19
0.000679233 -4.11259e-06 1.13308e-19
0.00015853 -0.000160399 -1.1413e-20
-0.000245572 0.000145045 -4.04459e-19
5.57768e-05 -0.000209586 -3.41753e-20
5.22058e-05 0.000203732 6.90345e-20
-0.00097259 0.000792904 -3.65217e-19
-3.33245e-05 -0.000295214 -2.93226e-19
-1.83547e-05 -0.000625857 -2.04971e-19
0.00063857 -4.1873e-05 -1.89619e-19
-5.52121e-05 0.000163904 2.6806e-20
-1.86619e-05 0.000278894 -1.28542e-19
-0.000210962 6.14754e-05 3.04673e-20
2.90476e-05 0.000286648 4.00411e-20
-0.000394241 -0.00021597 2.70986e-19
0.000330913 -0.000315633 -1.81028e-20
0.000329607 0.000316808 6.49862e-21
0.000220312 8.87193e-05 1.06319e-19
0.000216171 -8.7851e-05 1.66413e-19
1.67331e-05 -0.000277877 6.89879e-20
-0.000266529 -0.00015912 -1.64794e-19
-2.40322e-05 -5.99497e-05 1.85467e-19
-0.000196081 4.60906e-05 -4.49444e-19
-0.000200352 -4.81856e-05 -4.47338e-19
-0.000204043 9.68996e-05 -3.50151e-19
0.000956885 0.000758561 3.61107e-19
-9.19528e-06 -0.000637394 -8.74219e-20
6.08143e-06 0.000647177 -8.57568e-21
0.000679233 -4.11259e-06 2.97157e-19
0.000222883 -0.000340823 7.18081e-20
0.000219939 0.000342667 4.2356e-20
0.000237837 0.00013018 1.04786e-20
-0.000440477 0.000302246 -6.22172e-20
0.000238277 -0.000129934 -7.15702e-20
0.000286899 -9.84596e-05 -9.01488e-20
0.000286477 9.8833e-05 1.58185e-19
0.000338421 0.000178677 -7.36644e-20
0.000338677 -0.00017841 -5.8573e-20
-0.000792664 0.000984742 -4.26485e-19
-0.00097259 0.000792904 1.55989e-19
-0.000196081 4.60906e-05 -1.55934e-19
-0.000200352 -4.81856e-05 -2.79086e-19
-8.35371e-05 -0.000484396 -1.65525e-19
8.17289e-05 0.000484949 7.45009e-21
-0.000216085 0.000348503 -9.5713e-20
-0.000235678 -0.000224874 -6.03951e-20
0.000211403 -0.000230541 2.31943e-19
0.000209214 0.000233348 -1.46105e-19
0.000286804 -0.000100027 1.83674e-19
0.000285927 9.51059e-05 -2.9069e-19
5.86084e-05 -0.000320694 6.9574e-20
0.000315708 -7.84354e-05 3.37166e-20
-0.000443835 -0.000100478 -2.16376e-19
-5.43988e-05 0.000319956 2.25206e-19
0.000519424 -0.000202227 1.18667e-19
0.00052486 0.000199796 -1.77698e-19
-0.000261622 -0.000131292 -1.72499e-19
-0.000258843 0.000151434 -3.36423e-19
5.6026e-06 0.000298851 -2.42404e-19
-3.74846e-06 -0.000297863 9.08157e-20
-3.0827e-05 -0.000292729 -1.91316e-19
3.02766e-05 0.000290408 8.77872e-20
0.000258502 -4.7325e-05 1.44933e-19
0.000164993 0.000148217 2.26689e-20
-5.30591e-05 0.000168201 -4.77757e-20
5.4766e-05 -0.000164961 5.73199e-20
-0.000355153 0.000579885 -1.18951e-19
-0.000398584 -0.000215811 -1.11611e-19
0.000707309 -0.000336542 1.61046e-19
0.000694183 0.000376388 -1.08307e-19
0.000519424 -0.000202227 1.05159e-19
0.00052486 0.000199796 -2.75662e-19
0.000238957 -0.000131398 3.59678e-20
0.000238055 0.000128881 -2.03094e-19
-0.000204649 -9.58647e-05 2.01332e-21
-0.00020868 9.69264e-05 -1.02386e-19
0.000278958 0.000128784 -4.92666e-20
0.000277184 -0.000134113 1.94739e-19
8.30349e-05 0.000485679 -3.86496e-19
-8.08915e-05 -0.000484664 -7.85617e-20
-0.000197658 -4.67199e-05 2.65044e-20
-0.000210265 5.19203e-05 8.93419e-20
-8.08937e-06 -0.000667411 -7.2046e-20
-6.71628e-05 0.000679032 3.99171e-19
0.000671236 -4.97376e-05 1.1625e-19
-0.000592284 5.26435e-06 -3.56429e-20
0.000330206 -0.000314141 8.79443e-20
0.000331345 0.000314716 1.48246e-19
-0.000310717 -0.000187416 -1.28321e-19
-0.00034129 -3.65254e-05 1.3688e-19
-0.000335354 5.64027e-05 -2.20657e-19
-0.000260753 0.000152917 -9.63629e-20
0.000223692 -0.000338326 3.21221e-19
-0.000211486 0.000345074 1.71514e-20
0.000333475 -0.000179754 6.3122e-20
-6.43402e-05 -0.000306024 -2.74061e-19
0.000205571 0.000321298 1.90649e-19
0.000341167 0.000177678 -9.02763e-20
-0.000233735 0.000190086 2.58685e-19
0.00023915 -0.000185741 6.43114e-20
-6.03345e-05 0.000631908 -1.48374e-19
6.41801e-05 -0.000632648 -3.65539e-20
0.000453718 -0.000456152 -1.12899e-19
0.000458353 0.000459211 -1.50846e-19
3.16461e-05 -9.21666e-05 -8.39984e-20
-4.82272e-05 -0.000357711 -1.84974e-19
-3.68669e-05 0.000340877 8.08287e-21
7.09414e-05 0.000205891 -4.08469e-19
-6.42355e-05 -0.000212946 -1.15871e-20
-0.000398584 -0.000215811 -2.24127e-19
-1.7045e-05 0.000282486 -1.97101e-19
1.86901e-05 -0.000277324 -2.23036e-20
-3.0827e-05 -0.000292729 7.2046e-20
3.02766e-05 0.000290408 -4.38936e-19
-0.000184811 -0.000125756 1.42461e-19
3.79434e-05 8.13194e-05 8.21297e-20
-3.68669e-05 0.000340877 -9.72973e-20
-0.000204649 -9.58647e-05 -1.8469e-19
0.000513261 -0.000204147 -4.91096e-20
0.000518674 0.000201722 -3.62451e-19
0.000341167 0.000177678 -4.12942e-20
0.000223567 0.000247509 -3.73313e-20
0.00022528 -0.000248636 1.63257e-19
0.000669336 -0.000217212 1.27416e-19
0.000519424 -0.000202227 2.37936e-19
0.000679317 0.000218869 -3.36995e-20
0.00052486 0.000199796 5.79869e-20
-0.000431405 0.000322645 1.52082e-19
-5.30591e-05 0.000168201 -2.67864e-19
0.000238957 -0.000131398 3.7395e-20
0.000238055 0.000128881 -1.81406e-19
0.000328291 0.000615037 5.09096e-19
-0.000328208 -0.000615084 -2.01731e-19
-2.15558e-05 -6.05993e-05 -8.24779e-20
0.000333475 -0.000179754 5.49413e-20
0.000258502 -4.7325e-05 -2.33188e-20
-0.000211526 -6.26746e-05 1.01422e-19
-0.000184811 -0.000125756 -4.28147e-20
-0.0006921 -1.08446e-05 1.89651e-19
-0.000692627 1.22087e-05 3.54097e-19
-4.79461e-05 0.000194339 -1.21695e-19
-0.000260753 0.000152917 -1.00262e-19
0.000158726 0.00015939 1.4961e-19
-8.08937e-06 -0.000667411 3.44633e-19
-6.71628e-05 0.000679032 5.46831e-19
-0.000592284 5.26435e-06 1.56909e-19
0.000671236 -4.97376e-05 -1.62377e-19
0.000159541 -0.000161727 4.38936e-20
-0.000245852 -0.000144899 -4.89184e-20
5.85205e-05 -0.000209276 1.80204e-19
5.34686e-05 0.000203548 -9.03434e-21
0.000971891 0.000786981 -4.24605e-19
3.02766e-05 0.000290408 2.6241e-19
-3.0827e-05 -0.000292729 -2.55358e-20
-4.77739e-05 -0.000625777 8.533e-20
-0.000592284 5.26435e-06 -1.99091e-19
-5.30591e-05 0.000168201 -3.02294e-19
-0.000211526 -6.26746e-05 -2.70939e-19
0.000330206 -0.000314141 1.5576e-19
0.000331345 0.000314716 -3.62881e-19
0.000221121 8.46027e-05 9.63629e-20
0.000212841 -9.48452e-05 1.10868e-19
-0.000398584 -0.000215811 -1.50323e-19
-1.7045e-05 0.000282486 3.64053e-19
1.86901e-05 -0.000277324 4.65568e-20
-0.000260753 0.000152917 -8.1811e-20
-2.15558e-05 -6.05993e-05 -1.03401e-19
-0.000197658 -4.67199e-05 -3.80949e-19
-0.000210265 5.19203e-05 7.86891e-20
-0.000204649 -9.58647e-05 -8.52982e-20
0.000923159 -0.000755689 1.64391e-19
-1.67986e-05 0.000614083 3.07366e-19
-8.08937e-06 -0.000667411 3.96087e-19
0.00063774 -2.0958e-05 3.46385e-21
-0.000211486 0.000345074 5.83351e-20
0.000223692 -0.000338326 -8.12886e-20
0.000238055 0.000128881 -2.53121e-19
0.0002947 0.000223044 1.33282e-19
0.000238957 -0.000131398 5.72733e-20
0.000286804 -0.000100027 -5.9809e-20
0.000285927 9.51059e-05 -1.15685e-19
0.000333475 -0.000179754 1.01451e-19
0.000341167 0.000177678 -1.25751e-19
0.00078617 0.000967237 9.74471e-19
0.000971891 0.000786981 -1.3428e-19
-0.000197658 -4.67199e-05 -5.83351e-20
-0.000210265 5.19203e-05 -1.45298e-19
-8.08915e-05 -0.000484664 2.07533e-19
8.30349e-05 0.000485679 3.82945e-19
-0.000221148 0.000322621 -7.96235e-20
-0.000237617 -0.000172021 -8.48224e-20
0.000224329 -0.000286489 1.82613e-19
0.000210451 0.000227464 -2.77404e-20
0.000281951 8.94027e-05 1.0998e-19
0.000252975 -0.000182553 -9.73144e-20
-3.5763e-05 -0.000334357 7.13961e-20
0.00030925 5.97322e-05 -2.4624e-19
-0.000390115 -6.17252e-05 -1.43158e-19
-5.70243e-05 0.000315354 -1.00262e-19
0.000512106 0.000192343 -3.32698e-19
0.000400256 -0.000242483 -2.5033e-19
-0.000248934 -0.000159977 5.65426e-20
-0.000259292 0.000130948 -1.81644e-19
5.0236e-06 0.000296191 4.55758e-20
4.4363e-05 -0.000304497 1.46122e-19
8.22122e-05 -0.000328118 -1.48246e-19
3.15684e-05 0.000285073 -1.68409e-19
0.000258481 2.99378e-05 -2.13904e-19
0.000150418 -0.000177738 1.87527e-20
-3.49746e-05 -0.000169563 -1.95818e-19
-5.44375e-05 0.000163414 -2.68955e-19
-0.000445113 0.000301731 -1.23216e-19
-0.000387509 -0.000231055 -3.15929e-20
0.000739538 -0.000374479 7.96935e-21
0.000404362 0.000568915 -2.18745e-21
0.000512106 0.000192343 -3.696e-19
0.000400256 -0.000242483 -1.74996e-20
0.000237407 0.000123494 -2.01301e-19
0.000236594 -0.000207919 -1.64548e-20
-0.000200345 9.37842e-05 -1.57052e-22
-0.00019713 -0.000102792 -4.35454e-20
0.000280584 0.000117837 -2.75059e-19
0.000280409 -0.000168067 -1.51194e-19
0.000123764 -0.000420779 -1.2745e-19
8.26033e-05 0.000480574 -4.90754e-20
-0.000194701 4.60069e-05 -1.40669e-19
-0.000192809 -6.17968e-05 8.42363e-20
5.84516e-06 -0.00070899 3.26055e-19
6.94656e-05 0.000682784 -7.84661e-20
0.000706318 -1.23701e-05 -5.37053e-20
-0.000678261 -0.000100595 -1.26885e-19
0.000323096 0.000300832 -2.55358e-20
0.000262886 -0.000315405 -1.76271e-19
-0.00025291 0.000146979 -3.80189e-19
-0.000321525 -5.97507e-05 4.27214e-20
-0.000334945 4.39186e-05 -1.50561e-19
-0.000257018 -0.000165883 -6.24722e-20
0.000244947 -0.000385377 1.31885e-20
0.000230947 0.000340443 -2.80101e-19
0.00034698 -0.000218072 -1.06238e-19
-0.000221148 0.000322621 -2.2657e-19
-4.0209e-05 -0.000322829 1.57535e-19
0.000343769 0.000167232 -1.20378e-19
-0.000230375 0.000187805 1.05588e-19
-8.3195e-05 -0.000232815 9.09807e-21
-5.90444e-05 0.000625025 -7.49175e-20
2.70133e-05 -0.000519485 -9.37168e-20
0.000446286 0.000445251 1.15974e-19
0.000368959 -0.000424165 4.37832e-20
2.82939e-05 -0.000105624 1.00152e-19
-4.18463e-05 0.000357371 -2.55279e-19
-2.51011e-05 -0.000341936 7.62001e-20
8.90485e-05 -0.000207071 -6.41372e-20
7.03663e-05 0.000203309 -2.42706e-19
9.45141e-06 -0.000287348 1.04068e-19
-1.73078e-05 0.000278715 -6.1107e-19
-0.000387509 -0.000231055 -5.92695e-20
8.22122e-05 -0.000328118 1.37848e-19
3.15684e-05 0.000285073 -2.79498e-19
-0.000445113 0.000301731 -4.3166e-19
3.96e-05 7.93148e-05 -2.35795e-19
0.000109475 -0.000178457 -6.61335e-20
-2.51011e-05 -0.000341936 -1.35707e-19
-0.000200345 9.37842e-05 -5.58927e-20
0.000507481 0.000193783 -1.67156e-19
0.000385226 -0.000247169 2.94521e-20
0.000343769 0.000167232 -2.13016e-19
0.000219609 0.000236196 -4.63253e-19
0.000192878 -0.000271837 5.02818e-20
0.000663578 0.000212803 -2.06326e-19
0.000512106 0.000192343 9.51464e-22
0.000479975 -0.000189738 -3.40369e-19
0.000400256 -0.000242483 4.48162e-19
-3.49746e-05 -0.000169563 5.19469e-20
-5.44375e-05 0.000163414 -1.3019e-19
0.000237407 0.000123494 -2.58464e-19
0.000236594 -0.000207919 -6.11554e-20
0.000325142 0.000608558 -8.29366e-20
0.000316453 -0.000525867 9.69195e-20
0.00034698 -0.000218072 -1.24689e-19
0.000258481 2.99378e-05 -2.10005e-19
-0.000207438 5.81132e-05 6.08879e-20
-0.000668713 -1.79742e-05 2.34165e-19
-0.000689367 1.01368e-05 7.12049e-20
-5.21258e-05 0.000177959 -2.71937e-19
-3.04487e-05 -0.000192178 5.55616e-20
-0.000257018 -0.000165883 1.56138e-20
0.000159501 0.000153604 -4.69688e-20
0.000184034 -0.000228237 -1.26661e-20
5.84516e-06 -0.00070899 9.46512e-20
6.94656e-05 0.000682784 -3.90619e-19
-0.000678261 -0.000100595 3.14285e-19
0.000706318 -1.23701e-05 -2.49634e-19
-0.000243804 0.000144161 -2.61743e-19
4.69154e-05 0.000192407 -1.49737e-19
4.04107e-05 -0.00021478 1.20268e-19
-0.000986258 0.000795793 4.92728e-19
-4.29383e-05 -0.000658229 3.17772e-19
0.000657859 3.26195e-05 2.69716e-20
-5.44375e-05 0.000163414 -2.37762e-19
-3.49746e-05 -0.000169563 -7.68795e-21
-1.73078e-05 0.000278715 -7.68795e-21
9.45141e-06 -0.000287348 -1.33044e-19
-0.000207438 5.81132e-05 -5.59098e-20
8.22122e-05 -0.000328118 2.59945e-21
3.15684e-05 0.000285073 -1.22281e-19
-0.000387509 -0.000231055 2.27156e-20
0.000323096 0.000300832 -6.88935e-19
0.000262886 -0.000315405 1.02687e-19
0.00021069 -9.44623e-05 -2.04156e-19
0.000210018 -7.54892e-05 -5.24864e-20
-0.000257018 -0.000165883 8.73286e-20
-0.000192809 -6.17968e-05 -9.32411e-20
-0.000194701 4.60069e-05 -3.65701e-19
-0.000200345 9.37842e-05 -4.38524e-19
0.000995641 -0.000788052 -3.85344e-19
5.84516e-06 -0.00070899 9.81167e-21
1.59752e-05 0.000618988 -5.29306e-19
0.000706318 -1.23701e-05 -1.26465e-19
0.000244947 -0.000385377 2.27568e-19
0.000230947 0.000340443 -3.96516e-19
0.000237407 0.000123494 -1.90649e-19
0.000236594 -0.000207919 3.11001e-20
-0.000445113 0.000301731 -5.16117e-19
0.000281951 8.94027e-05 -2.44592e-19
0.000252975 -0.000182553 -1.11866e-19
0.00034698 -0.000218072 5.77319e-20
0.000343769 0.000167232 -3.21251e-19
-0.000797364 0.000977203 -2.66016e-19
-0.000986258 0.000795793 8.9174e-20
-0.000192809 -6.17968e-05 -4.14046e-20
-0.000194701 4.60069e-05 -1.94977e-19
0.000123764 -0.000420779 -4.22285e-20
8.26033e-05 0.000480574 1.12218e-20
3.09178e-05 -4.06703e-06 -1.91681e-19
3.44221e-05 -4.46928e-06 9.35302e-21
1.59795e-05 -2.04694e-06 4.02892e-19
3.43512e-05 4.43103e-06 -3.32095e-19
4.63263e-05 -5.98126e-06 2.34513e-19
4.64058e-05 5.9435e-06 -6.79089e-20
4.00851e-05 -9.81002e-06 -8.36331e-20
2.77603e-05 -3.0898e-06 -2.25508e-19
2.7766e-05 -2.649e-06 5.38328e-20
4.96772e-05 3.98582e-06 -3.64529e-19
7.78982e-05 -2.42813e-05 -1.55034e-20
7.7953e-05 2.42848e-05 -1.10044e-19
-1.23395e-05 -2.73964e-05 -2.56167e-19
-1.56789e-05 -1.03318e-05 2.29535e-20
5.09956e-05 2.87707e-05 -2.06326e-19
5.57853e-05 -2.5571e-05 -2.55529e-20
6.58575e-05 7.7097e-06 1.05253e-20
3.7629e-05 9.00901e-06 -2.60032e-19
2.78971e-05 -3.16422e-06 -1.41695e-20
1.99598e-05 1.38968e-05 -2.13173e-19
6.36177e-05 -4.98345e-05 1.33797e-20
2.59165e-05 -1.14784e-05 -1.56648e-19
3.1299e-05 -4.08511e-06 -1.66349e-19
3.46156e-05 1.4874e-06 -2.0021e-19
3.22442e-05 2.40062e-06 -4.0708e-20
3.66331e-05 2.98095e-07 -3.36376e-19
7.78982e-05 -2.42813e-05 7.75169e-20
7.7953e-05 2.42848e-05 -8.58843e-20
3.67182e-05 -1.94289e-06 1.26372e-19
3.67178e-05 1.85298e-06 -3.81204e-19
2.59868e-05 3.15861e-05 -2.48222e-20
2.80066e-05 -2.67689e-05 3.46851e-20
3.33424e-05 -6.15228e-06 -1.19618e-19
3.33044e-05 6.0578e-06 -2.52106e-19
0.000109795 0.000139371 -3.43027e-20
3.76999e-05 -0.000131546 2.94521e-20
-6.09212e-06 -7.34151e-05 3.14825e-20
-6.60929e-06 7.18347e-05 9.95622e-21
3.8655e-05 5.95992e-08 -3.64308e-19
3.83045e-05 -6.34325e-07 -2.11653e-19
3.13025e-05 6.95232e-09 -1.5037e-19
3.02447e-05 -3.44892e-08 -1.94026e-20
4.85527e-05 -4.01456e-05 3.62398e-20
4.85685e-05 4.02426e-05 -3.8501e-19
1.39891e-05 2.86448e-06 -9.77434e-20
-0.000105165 -7.48863e-05 1.42002e-19
-0.000104786 7.48391e-05 -8.05579e-20
1.81035e-05 -2.35048e-06 -2.00991e-20
3.69527e-05 -3.8425e-06 -8.03371e-20
3.7035e-05 3.81395e-06 -3.61326e-19
3.07879e-05 -4.08108e-06 -1.45298e-19
3.09178e-05 -4.06703e-06 -1.85972e-19
4.40171e-05 9.7799e-06 1.07538e-19
3.08126e-05 4.19887e-06 -3.29843e-19
-2.34297e-05 2.64098e-05 -1.84893e-19
0.000208532 3.08201e-05 3.77178e-19
5.29056e-05 0.000197394 -8.76598e-20
0.000111826 -0.000207189 -1.84511e-20
6.64763e-05 -6.27528e-05 -8.16369e-20
6.65217e-05 6.27896e-05 -6.86055e-20
3.28663e-06 9.89261e-06 -3.73975e-19
0.000105461 0.000193216 -1.53921e-19
0.00011449 -0.000182616 -2.22228e-20
0.000121008 -3.14877e-05 -2.0354e-20
1.51087e-05 -1.58349e-05 4.91096e-20
6.78487e-05 -1.2781e-05 -3.46553e-19
3.94667e-05 -9.13803e-06 -7.31078e-20
3.22442e-05 2.40062e-06 -1.57123e-19
6.58575e-05 7.7097e-06 -1.37848e-19
3.7629e-05 9.00901e-06 -2.44435e-19
1.37138e-05 6.46779e-05 -4.92371e-20
3.1299e-05 -4.08511e-06 -1.10996e-19
2.03746e-05 5.84124e-07 -2.69988e-19
0.00011449 -0.000182616 -2.34513e-19
2.59868e-05 3.15861e-05 -1.20799e-20
7.93983e-05 -2.38142e-05 1.43523e-19
7.94575e-05 2.38163e-05 -1.80204e-19
3.08126e-05 4.19887e-06 -2.13428e-19
3.08585e-05 -2.9099e-05 -1.69424e-19
3.07361e-05 2.91242e-05 -2.37078e-19
0.000102587 -3.08554e-05 -9.29861e-20
7.78982e-05 -2.42813e-05 -2.22085e-19
0.000102667 3.08748e-05 1.55696e-19
7.7953e-05 2.42848e-05 -7.02876e-20
6.36177e-05 -4.98345e-05 1.83236e-20
3.67182e-05 -1.94289e-06 -6.95569e-20
3.67178e-05 1.85298e-06 -3.17288e-19
0.000262302 0.000234657 4.36557e-20
-5.81196e-05 -0.000178529 8.5791e-20
1.5866e-05 2.26735e-06 3.44302e-20
3.07879e-05 -4.08108e-06 -9.9833e-20
2.78971e-05 -3.16422e-06 -3.13771e-19
5.74807e-05 2.01098e-05 -1.02467e-19
1.37138e-05 6.46779e-05 6.50887e-20
-0.000382551 6.17714e-05 -2.14507e-19
-0.000382293 -6.2998e-05 -5.02818e-20
6.47643e-05 -4.26186e-05 -1.10265e-19
1.81035e-05 -2.35048e-06 -1.20918e-19
3.34451e-05 3.1178e-06 -1.76747e-19
3.8655e-05 5.95992e-08 -2.34385e-19
3.83045e-05 -6.34325e-07 -6.32791e-20
3.02447e-05 -3.44892e-08 -1.94026e-20
3.13025e-05 6.95232e-09 -1.79474e-19
3.34566e-05 -3.18807e-06 -2.14855e-19
-3.10805e-05 -2.347e-05 4.1787e-20
6.58211e-06 -2.47241e-05 -1.80773e-19
6.58699e-06 2.43099e-05 -3.54317e-19
2.89365e-05 1.04009e-05 -7.22838e-20
6.58575e-05 7.7097e-06 1.19142e-19
3.8173e-05 5.64725e-07 -1.91426e-19
3.14378e-05 -1.20076e-07 1.1001e-20
6.36177e-05 -4.98345e-05 2.30614e-19
6.78487e-05 -1.2781e-05 -2.48589e-19
5.74807e-05 2.01098e-05 -1.02467e-19
3.7629e-05 9.00901e-06 -7.19014e-20
3.22442e-05 2.40062e-06 2.00686e-19
4.85527e-05 -4.01456e-05 -2.31403e-19
4.85685e-05 4.02426e-05 -3.78536e-20
3.97467e-05 1.97306e-05 -1.77546e-20
3.94871e-05 -1.97145e-05 -3.18587e-19
3.94667e-05 -9.13803e-06 -2.64092e-19
1.81035e-05 -2.35048e-06 3.29597e-21
1.5866e-05 2.26735e-06 5.28813e-20
-6.09212e-06 -7.34151e-05 -1.88606e-19
-6.60929e-06 7.18347e-05 -1.12168e-19
2.59868e-05 3.15861e-05 9.22554e-21
2.93151e-05 1.00678e-05 -9.87882e-20
3.88469e-05 1.25989e-08 -2.84191e-19
3.8655e-05 5.95992e-08 -2.49497e-20
3.13025e-05 6.95232e-09 -1.2412e-19
3.69527e-05 -3.8425e-06 -3.77262e-20
3.7035e-05 3.81395e-06 -3.32222e-19
3.67178e-05 1.85298e-06 -2.29976e-19
3.1299e-05 -4.08511e-06 -7.33286e-20
3.67182e-05 -1.94289e-06 -1.88827e-19
4.63263e-05 -5.98126e-06 9.48049e-21
4.64058e-05 5.9435e-06 -2.68781e-19
3.07879e-05 -4.08108e-06 -1.1334e-19
3.08126e-05 4.19887e-06 -9.41584e-20
4.11809e-05 2.40897e-07 -2.60286e-20
2.89365e-05 1.04009e-05 2.85348e-20
-6.60929e-06 7.18347e-05 -6.17586e-20
-6.09212e-06 -7.34151e-05 7.12391e-20
0.000109795 0.000139371 1.43175e-19
3.76999e-05 -0.000131546 -1.2672e-19
-0.000209332 0.000340914 -1.53555e-19
-0.00024519 -0.000160053 -1.14623e-19
0.000212229 -0.00022511 1.32046e-19
0.000224234 0.00028546 5.95711e-20
0.000252332 0.0001827 3.59075e-19
0.000281663 -8.9834e-05 2.49001e-19
5.94262e-05 -0.000318979 -3.1564e-19
0.000309108 0.000104661 2.15441e-19
-0.000395294 -5.21261e-05 -9.8028e-20
-3.4253e-05 0.000334794 7.71982e-20
0.000399387 0.000242287 3.59678e-19
0.000512101 -0.00019264 8.08978e-19
-0.000256962 -0.000151895 -1.68948e-19
-0.000250785 0.000138119 3.02294e-20
4.57217e-05 0.000304976 9.77901e-20
-3.83964e-06 -0.000296232 -2.29471e-19
-3.20713e-05 -0.000293674 1.98116e-19
8.33061e-05 0.000327769 -5.24226e-20
0.00025335 7.19559e-05 1.16543e-19
0.000160311 -0.000135131 1.98163e-19
-3.83093e-05 0.000167297 -7.96235e-20
5.41429e-05 -0.000161755 -2.82399e-19
-0.000440794 0.00031936 -9.99776e-20
-0.000392575 -0.000214083 -3.97566e-20
0.000728313 -0.00033655 7.52762e-20
0.000418169 0.00060713 -4.71162e-19
0.000399387 0.000242287 -2.30962e-19
0.000512101 -0.00019264 6.00307e-19
0.000236127 0.000207742 -5.4024e-20
0.000238139 -0.000124492 1.47312e-19
-0.000195466 0.000100253 1.38893e-19
-0.000203514 -9.33556e-05 -1.17413e-19
0.000280892 0.000168064 3.92443e-19
0.000280657 -0.000117858 -1.22566e-19
0.000124009 0.000421177 -5.85559e-20
-8.15619e-05 -0.000479276 1.19618e-19
-0.000182916 5.3252e-05 9.51464e-22
-0.000198286 -4.8163e-05 -3.37438e-19
-8.75114e-06 -0.000671994 -1.4777e-19
7.91682e-05 0.00071483 -1.11826e-19
0.000703257 2.77685e-05 2.85776e-19
-0.00067765 -8.29377e-05 1.10146e-19
0.000262515 0.000314434 2.99886e-19
0.000322978 -0.000301838 5.1393e-19
-0.000247542 0.000157109 5.73837e-20
-0.000333846 -4.40091e-05 -5.26263e-21
-0.00032347 5.11694e-05 -4.99802e-20
-0.000263667 -0.000157411 -2.17106e-19
0.000228247 -0.000335777 2.40791e-20
0.000247855 0.000383881 4.33075e-20
0.000345358 -0.000166387 1.00215e-19
-0.000209332 0.000340914 -2.52947e-19
-6.37183e-05 -0.000302565 -2.48984e-19
0.000345153 0.000218276 6.28204e-20
-8.26969e-05 0.000232848 -1.40448e-19
0.000231612 -0.000188742 -1.15765e-19
6.06246e-05 -0.00062433 -3.28068e-19
2.74333e-05 0.000519705 -6.31858e-20
0.000368215 0.000423481 3.62371e-19
0.000446378 -0.000445566 8.7438e-19
2.8728e-05 -7.2566e-05 4.20787e-19
-3.91578e-05 0.000357851 -2.66319e-20
-2.77769e-05 -0.000341064 -3.75181e-19
8.90632e-05 0.000207997 5.34208e-20
-6.52602e-05 -0.000209885 -3.76162e-19
1.05655e-05 0.000293433 9.69661e-20
1.86219e-05 -0.00027464 -2.09572e-20
-0.000392575 -0.000214083 -1.93074e-19
-3.20713e-05 -0.000293674 -1.8556e-19
8.33061e-05 0.000327769 3.91704e-20
-0.000179912 -0.000122701 -3.10568e-19
-0.000440794 0.00031936 1.44933e-19
0.000111831 0.00017795 -7.04151e-20
-2.77769e-05 -0.000341064 -1.3473e-20
-0.000195466 0.000100253 2.58163e-19
0.000384255 0.000247005 3.01598e-19
0.00050739 -0.000194107 1.99207e-19
0.000345153 0.000218276 9.33515e-20
0.000193628 0.000271434 2.13823e-19
0.000218574 -0.000236826 2.75807e-19
0.000478774 0.000189397 3.30667e-19
0.000399387 0.000242287 -1.51449e-19
0.000663485 -0.000212899 5.13437e-19
0.000512101 -0.00019264 4.65441e-19
-3.83093e-05 0.000167297 -8.88491e-20
0.000236127 0.000207742 5.7065e-20
0.000238139 -0.000124492 -1.58661e-19
0.00031646 0.000526123 -9.67578e-20
-0.000324689 -0.00060752 -4.97874e-19
-2.31981e-05 -5.59799e-05 -1.68298e-19
0.000345358 -0.000166387 2.85006e-20
0.00025335 7.19559e-05 1.67997e-19
-0.000207212 6.44644e-05 7.10012e-20
-0.000179912 -0.000122701 -2.36382e-19
-0.000689014 -1.21486e-05 8.75664e-20
-0.000669595 1.5912e-05 -3.2179e-20
-3.50571e-05 0.000187736 1.19966e-19
-0.000263667 -0.000157411 -1.63843e-19
0.000184404 0.000227747 6.95728e-21
-8.75114e-06 -0.000671994 2.88787e-19
7.91682e-05 0.00071483 -7.55487e-19
-0.00067765 -8.29377e-05 -1.0352e-19
0.000703257 2.77685e-05 4.76187e-20
0.000159143 -0.000154648 1.16224e-19
-0.000232965 0.000153317 4.00411e-20
4.07368e-05 0.000219226 1.09076e-19
4.66346e-05 -0.000187558 2.02903e-19
-0.000986343 0.000812462 -4.83004e-20
-3.20713e-05 -0.000293674 -2.65073e-19
-5.1319e-05 -0.000627389 -5.21996e-20
0.000661051 6.6968e-05 1.9592e-19
-3.83093e-05 0.000167297 -7.71516e-20
1.05655e-05 0.000293433 -8.44104e-20
-0.000207212 6.44644e-05 -5.89213e-20
8.33061e-05 0.000327769 9.06245e-20
-0.000392575 -0.000214083 -2.15424e-19
0.000262515 0.000314434 2.56893e-19
0.000322978 -0.000301838 3.1163e-19
0.000209135 7.58098e-05 1.27289e-19
0.000213238 9.46228e-05 3.15071e-19
1.86219e-05 -0.00027464 -1.09313e-19
-0.000263667 -0.000157411 -7.93857e-20
-2.31981e-05 -5.59799e-05 -2.58464e-19
-0.000182916 5.3252e-05 -2.0354e-20
-0.000198286 -4.8163e-05 -9.74714e-20
-0.000195466 0.000100253 -1.31222e-19
0.000991981 -0.00076261 3.93722e-20
-8.75114e-06 -0.000671994 3.13992e-19
3.07794e-05 0.000657139 -7.83705e-20
0.000703257 2.77685e-05 3.53209e-19
0.000228247 -0.000335777 -4.62085e-20
0.000247855 0.000383881 -5.46567e-20
0.000236127 0.000207742 4.95432e-19
-0.000440794 0.00031936 3.24169e-20
0.000238139 -0.000124492 3.05139e-20
0.000252332 0.0001827 3.42051e-19
0.000281663 -8.9834e-05 9.92002e-20
0.000345358 -0.000166387 3.91534e-20
0.000345153 0.000218276 3.3788e-19
-0.000810919 0.00101366 1.61229e-19
-0.000986343 0.000812462 3.36847e-20
-0.000198286 -4.8163e-05 -1.96863e-19
-0.000182916 5.3252e-05 3.25273e-20
-8.15619e-05 -0.000479276 3.31143e-19
0.000124009 0.000421177 -1.8068e-19

CELL_DATA 2380
TENSORS stress float
0.0347783 5.76973 1.59603e-11
5.76973 7.93752 -1.33866e-11
1.59603e-11 -1.33866e-11 0.208024

-2.58548 3.83776 -1.30559e-11
3.83776 3.91913 -1.15626e-12
-1.30559e-11 -1.15626e-12 -1.09078

-2.6863 3.0774 1.96503e-11
3.0774 3.5611 -4.35176e-11
1.96503e-11 -4.35176e-11 -1.11381

7.43747 1.68652 -6.54884e-12
1.68652 -6.42511 -1.5624e-11
-6.54884e-12 -1.5624e-11 -0.849079

9.96347 0.66875 4.5269e-12
0.66875 -3.14287 1.22092e-11
4.5269e-12 1.22092e-11 0.00766441

-8.54779 3.62835 1.78464e-11
3.62835 -1.95106 -9.60269e-13
1.78464e-11 -9.60269e-13 -4.42772

-8.70273 3.36404 2.33929e-11
3.36404 -2.02758 -3.27294e-12
2.33929e-11 -3.27294e-12 -4.40739

10.2522 -0.845065 3.75522e-12
-0.845065 -2.72588 -3.13605e-12
3.75522e-12 -3.13605e-12 0.172416

6.74681 0.138012 -8.95543e-12
0.138012 -9.9648 -1.05896e-11
-8.95543e-12 -1.05896e-11 -1.40324

2.78294 5.60678 1.69713e-11
5.60678 11.4372 -5.63357e-12
1.69713e-11 -5.63357e-12 0.713655

3.52554 -5.99567 -2.20287e-11
-5.99567 12.0305 -7.41629e-12
-2.20287e-11 -7.41629e-12 0.940148

10.6799 5.80172 2.41052e-12
5.80172 4.5128 2.86682e-12
2.41052e-12 2.86682e-12 0.814835

-4.85068 -4.74613 2.91457e-11
-4.74613 -0.736998 -4.81541e-12
2.91457e-11 -4.81541e-12 -3.46724

-4.94702 -5.37121 2.40649e-11
-5.37121 -0.280998 4.86161e-11
2.40649e-11 4.86161e-11 -3.51338

-4.17613 5.45662 -3.08116e-12
5.45662 5.14057 4.5266e-12
-3.08116e-12 4.5266e-12 -0.885957

-5.97532 6.53323 8.18614e-12
6.53323 3.23589 2.62863e-11
8.18614e-12 2.62863e-11 -1.33697

-8.82373 -2.48292 -1.29251e-11
-2.48292 -2.21446 1.14574e-11
-1.29251e-11 1.14574e-11 -4.52871

-8.79046 -2.68084 -7.65521e-12
-2.68084 -2.16373 4.67922e-11
-7.65521e-12 4.67922e-11 -4.56004

5.06652 2.48984 2.98413e-12
2.48984 -3.1375 5.86242e-12
2.98413e-12 5.86242e-12 -0.625217

2.41944 2.16931 1.53108e-11
2.16931 13.9592 7.41629e-12
1.53108e-11 7.41629e-12 1.31823

2.67302 -2.07467 1.11465e-11
-2.07467 14.3707 2.47038e-11
1.11465e-11 2.47038e-11 1.4351

13.0841 1.77953 2.01294e-11
1.77953 5.0649 4.09746e-13
2.01294e-11 4.09746e-13 1.5922

0.0803333 6.44509 4.76597e-12
6.44509 6.29421 -2.1571e-11
4.76597e-12 -2.1571e-11 -0.114843

8.87721 -3.29642 3.27445e-11
-3.29642 -1.71109 -8.65752e-13
3.27445e-11 -8.65752e-13 -0.206283

1.21751 5.91487 9.05128e-12
5.91487 3.21106 -1.86809e-11
9.05128e-12 -1.86809e-11 -0.264713

0.118522 6.44296 -2.7216e-12
6.44296 8.1745 -3.96754e-11
-2.7216e-12 -3.96754e-11 0.192908

7.81901 -1.3956 5.19999e-12
-1.3956 -6.89493 -1.37709e-11
5.19999e-12 -1.37709e-11 -0.817948

10.0472 4.9898 2.25735e-11
4.9898 19.5499 8.35509e-12
2.25735e-11 8.35509e-12 3.65505

6.08 0.62037 2.88947e-12
0.62037 -9.99214 -1.00897e-11
2.88947e-12 -1.00897e-11 -1.55428

17.9805 5.00138 2.72845e-11
5.00138 11.8103 3.78047e-11
2.72845e-11 3.78047e-11 3.66404

-4.39627 0.788532 -8.31555e-12
0.788532 -1.44664 5.96848e-12
-8.31555e-12 5.96848e-12 -4.40524

-4.3923 0.269038 -4.1322e-11
0.269038 -1.5642 3.90873e-11
-4.1322e-11 3.90873e-11 -4.42143

-8.43423 2.80924 2.40674e-11
2.80924 -13.626 8.379e-12
2.40674e-11 8.379e-12 -13.3432

-8.47456 -2.69481 -4.46666e-11
-2.69481 -13.6105 -3.36882e-11
-4.46666e-11 -3.36882e-11 -13.4705

14.642 -2.08863 -1.72395e-11
-2.08863 3.60369 2.56374e-11
-1.72395e-11 2.56374e-11 1.67739

-2.72522 6.35827 -1.42518e-11
6.35827 2.06921 -3.05223e-11
-1.42518e-11 -3.05223e-11 -1.11346

-2.67705 1.16853 7.50851e-12
1.16853 -5.39642 -5.4882e-12
7.50851e-12 -5.4882e-12 -4.73076

-3.17385 -1.06222 -1.80995e-11
-1.06222 -5.73345 -2.79262e-12
-1.80995e-11 -2.79262e-12 -5.06723

7.5024 0.0145469 9.05146e-12
0.0145469 -10.8571 2.97188e-12
9.05146e-12 2.97188e-12 -1.28256

-0.470794 6.97426 -2.20024e-11
6.97426 8.05677 -1.99359e-11
-2.20024e-11 -1.99359e-11 0.0163724

8.09575 -4.26812 7.31977e-12
-4.26812 2.0758 -5.72771e-12
7.31977e-12 -5.72771e-12 0.482374

7.91124 -0.411006 -2.79237e-11
-0.411006 -10.8603 -1.55117e-11
-2.79237e-11 -1.55117e-11 -1.09479

0.0748888 -6.45853 -1.14084e-11
-6.45853 6.63382 -1.13628e-11
-1.14084e-11 -1.13628e-11 -0.100488

0.0858124 -5.5338 5.43928e-12
-5.5338 8.09511 -2.21571e-12
5.43928e-12 -2.21571e-12 0.232006

-5.38755 7.34646 -5.43994e-12
7.34646 3.8728 -1.26144e-11
-5.43994e-12 -1.26144e-11 -1.23386

6.59703 -6.89355 1.92675e-12
-6.89355 4.02415 1.13641e-11
1.92675e-12 1.13641e-11 0.343362

9.07944 14.0816 -1.8417e-11
14.0816 18.7764 -1.34227e-11
-1.8417e-11 -1.34227e-11 4.48279

17.672 13.915 -1.86488e-11
13.915 10.1085 3.9071e-12
-1.86488e-11 3.9071e-12 4.47229

-7.71521 -6.56585 1.55982e-11
-6.56585 0.448727 -1.88714e-11
1.55982e-11 -1.88714e-11 -2.75673

13.0352 5.90749 -1.37751e-11
5.90749 24.9159 6.47624e-11
-1.37751e-11 6.47624e-11 5.92071

22.538 5.29418 -1.56091e-11
5.29418 13.9035 -1.85241e-11
-1.56091e-11 -1.85241e-11 5.62879

-5.55151 -4.61493 3.94396e-12
-4.61493 -1.56807 3.50395e-11
3.94396e-12 3.50395e-11 -3.99786

-5.57445 4.59766 2.96499e-11
4.59766 -1.62101 1.40583e-11
2.96499e-11 1.40583e-11 -3.99771

5.6077 0.133404 8.18397e-12
0.133404 -4.59274 2.30156e-11
8.18397e-12 2.30156e-11 -0.479014

-6.2185 -4.02271 5.87323e-12
-4.02271 -3.48151 2.94563e-11
5.87323e-12 2.94563e-11 -4.52054

-6.23613 4.01036 3.61003e-11
4.01036 -3.49874 -4.87565e-11
3.61003e-11 -4.87565e-11 -4.51194

-3.89802 6.4435 2.65047e-11
6.4435 5.87431 6.53836e-11
2.65047e-11 6.53836e-11 -0.784314

-5.07877 2.63303 8.08638e-12
2.63303 -13.1428 -2.37751e-11
8.08638e-12 -2.37751e-11 -10.5493

-5.05548 -2.61346 6.93066e-12
-2.61346 -13.2363 3.24386e-11
6.93066e-12 3.24386e-11 -10.6299

-3.32843 -5.3252 -1.63632e-12
-5.3252 -0.555185 -5.53724e-12
-1.63632e-12 -5.53724e-12 -2.13616

-3.38302 5.29279 1.39567e-11
5.29279 -0.585828 -4.56334e-11
1.39567e-11 -4.56334e-11 -2.13502

11.6443 -5.7248 -1.69068e-11
-5.7248 4.11801 3.15172e-11
-1.69068e-11 3.15172e-11 0.97285

-11.9285 2.57137 -7.73577e-12
2.57137 -5.23636 -2.25282e-11
-7.73577e-12 -2.25282e-11 -10.1662

-11.9543 2.0332 1.0565e-11
2.0332 -5.16147 -2.50215e-12
1.0565e-11 -2.50215e-12 -10.1106

-0.609972 -7.1064 -3.25479e-11
-7.1064 8.08396 3.67894e-11
-3.25479e-11 3.67894e-11 -0.00716931

9.79566 -4.70487 -1.2908e-11
-4.70487 21.182 2.2912e-12
-1.2908e-11 2.2912e-12 3.93339

20.2281 -4.66323 8.52959e-11
-4.66323 10.3827 -3.22986e-11
8.52959e-11 -3.22986e-11 3.89419

-5.64912 5.61126 4.58505e-12
5.61126 4.12237 -4.8143e-12
4.58505e-12 -4.8143e-12 -1.43413

-5.79189 5.21694 -2.85716e-11
5.21694 3.4043 -1.77175e-11
-2.85716e-11 -1.77175e-11 -1.49711

-12.8267 -7.78163 -4.56137e-11
-7.78163 -18.0213 -2.48427e-10
-4.56137e-11 -2.48427e-10 -16.4834

-12.8292 7.77942 4.73484e-11
7.77942 -18.0074 3.54195e-11
4.73484e-11 3.54195e-11 -16.4717

-5.85669 7.95105 -1.11652e-11
7.95105 2.75922 2.17599e-11
-1.11652e-11 2.17599e-11 -1.2447

0.506755 3.91524 1.62704e-11
3.91524 -2.6372 -1.4921e-11
1.62704e-11 -1.4921e-11 -1.45844

0.673691 -3.98378 -2.43577e-11
-3.98378 -2.65862 7.84746e-12
-2.43577e-11 7.84746e-12 -1.45945

-5.86236 7.60097 2.50666e-12
7.60097 1.16888 2.87902e-11
2.50666e-12 2.87902e-11 -1.75683

-7.4377 -6.94571 2.39743e-13
-6.94571 1.03793 2.79125e-12
2.39743e-13 2.79125e-12 -2.73164

13.8436 -0.0788525 -1.60364e-11
-0.0788525 0.983531 -3.07687e-11
-1.60364e-11 -3.07687e-11 0.973737

11.044 3.10604 5.01738e-11
3.10604 -0.579929 4.55262e-12
5.01738e-11 4.55262e-12 0.408189

-1.59694 1.26366 1.99292e-11
1.26366 -10.0303 -4.90719e-14
1.99292e-11 -4.90719e-14 -4.72783

-15.8467 -1.9474 -3.75429e-11
-1.9474 -16.8509 4.04095e-12
-3.75429e-11 4.04095e-12 -17.7301

-15.7376 1.67646 -6.25699e-11
1.67646 -16.6081 1.08757e-11
-6.25699e-11 1.08757e-11 -17.5617

7.2549 5.75241 2.63377e-11
5.75241 10.1666 2.23439e-11
2.63377e-11 2.23439e-11 1.50565

2.06311 -5.02112 1.47327e-11
-5.02112 -0.418988 -1.10743e-11
1.47327e-11 -1.10743e-11 -0.940924

5.29478 3.0135 1.47322e-11
3.0135 -1.10685 -5.99239e-12
1.47322e-11 -5.99239e-12 -0.231852

-14.2252 1.64338 -5.28294e-11
1.64338 -9.57579 -4.54397e-11
-5.28294e-11 -4.54397e-11 -13.3579

-14.1843 1.39972 -5.90417e-11
1.39972 -9.53189 2.31037e-12
-5.90417e-11 2.31037e-12 -13.3647

-2.12969 -0.926979 -2.30116e-11
-0.926979 -10.0978 7.50888e-12
-2.30116e-11 7.50888e-12 -5.05487

-2.95374 -1.96153 1.01211e-11
-1.96153 3.55761 1.19382e-11
1.01211e-11 1.19382e-11 -1.33173

-2.94727 -2.67 -2.85101e-12
-2.67 3.79261 -7.70288e-12
-2.85101e-12 -7.70288e-12 -1.32871

3.13553 -1.85045 1.11688e-11
-1.85045 -5.58402 -9.4358e-12
1.11688e-11 -9.4358e-12 -1.05673

3.09035 1.87126 -3.08085e-11
1.87126 -5.73351 1.16222e-11
-3.08085e-11 1.16222e-11 -1.06775

9.36554 -5.7091 -2.84513e-13
-5.7091 9.1921 -4.45395e-11
-2.84513e-13 -4.45395e-11 1.61186

8.38076 0.356094 -3.56234e-12
0.356094 -0.434183 3.12517e-12
-3.56234e-12 3.12517e-12 0.240258

-0.402425 -2.80585 4.18305e-11
-2.80585 -5.45237 -1.94737e-11
4.18305e-11 -1.94737e-11 -2.30807

-0.494747 2.77945 1.73076e-12
2.77945 -5.43604 1.18881e-11
1.73076e-12 1.18881e-11 -2.29903

5.37905 -3.12721 1.48275e-11
-3.12721 -0.846907 3.17642e-12
1.48275e-11 3.17642e-12 -0.193138

-0.0146287 -6.47138 -3.47587e-11
-6.47138 8.48304 2.34028e-11
-3.47587e-11 2.34028e-11 0.235772

3.36476 -2.08367 6.06581e-12
-2.08367 -4.31048 7.38709e-12
6.06581e-12 7.38709e-12 -1.05781

3.2908 2.10269 5.00592e-12
2.10269 -4.47747 1.68476e-12
5.00592e-12 1.68476e-12 -1.07162

5.98708 -1.36598 5.77612e-13
-1.36598 -4.6394 1.03978e-11
5.77612e-13 1.03978e-11 -0.753444

-5.13432 9.08007 1.30015e-11
9.08007 3.24502 7.29821e-11
1.30015e-11 7.29821e-11 -1.19139

6.51071 5.0057 4.33357e-12
5.0057 4.2703 4.82281e-13
4.33357e-12 4.82281e-13 0.626997

-6.31367 7.68258 7.03215e-12
7.68258 2.89997 4.88162e-11
7.03215e-12 4.88162e-11 -1.33526

-5.71689 8.57845 2.44037e-11
8.57845 3.77189 -9.62574e-12
2.44037e-11 -9.62574e-12 -1.17462

8.29105 3.71603 4.23424e-12
3.71603 0.170677 -1.46834e-12
4.23424e-12 -1.46834e-12 0.00816196

-0.605953 -3.07469 1.54058e-11
-3.07469 -5.13118 1.68493e-11
1.54058e-11 1.68493e-11 -2.39936

6.36187 1.68245 -3.4089e-11
1.68245 -3.48346 -6.65784e-11
-3.4089e-11 -6.65784e-11 -0.489185

2.92317 6.3326 1.64619e-11
6.3326 4.57411 -2.95185e-11
1.64619e-11 -2.95185e-11 -0.184449

1.66744 5.14122 2.35931e-11
5.14122 -0.375437 1.55502e-11
2.35931e-11 1.55502e-11 -1.01214

-7.1601 0.444588 1.88696e-11
0.444588 2.40341 -4.71814e-11
1.88696e-11 -4.71814e-11 -2.32698

-7.09309 0.70371 8.56968e-12
0.70371 2.42516 4.04388e-12
8.56968e-12 4.04388e-12 -2.32067

10.339 -6.45708 4.90719e-12
-6.45708 5.21811 1.90686e-11
4.90719e-12 1.90686e-11 0.91512

-5.93043 -7.66064 -1.10784e-11
-7.66064 1.16885 5.92143e-11
-1.10784e-11 5.92143e-11 -1.76897

3.09003 -7.56801 -1.24878e-12
-7.56801 8.24626 -1.74315e-11
-1.24878e-12 -1.74315e-11 0.472647

3.11717 7.75156 1.39133e-11
7.75156 8.14742 2.07153e-12
1.39133e-11 2.07153e-12 0.4689

4.80925 -2.81858 -4.71919e-12
-2.81858 -2.10163 -9.69595e-14
-4.71919e-12 -9.69595e-14 -0.599808

4.18027 -0.420903 1.15543e-11
-0.420903 -12.8179 -4.44261e-11
1.15543e-11 -4.44261e-11 -2.82066

4.53883 0.470887 2.52272e-11
0.470887 -12.3876 6.44958e-12
2.52272e-11 6.44958e-12 -2.60723

-1.49099 4.11134 -2.58529e-11
4.11134 8.662 -6.73239e-13
-2.58529e-11 -6.73239e-13 -0.211397

1.41732 -6.2215 2.27279e-11
-6.2215 3.26609 -4.76178e-11
2.27279e-11 -4.76178e-11 -0.253618

-1.04539 -0.13883 -2.63858e-11
-0.13883 13.7099 2.10445e-11
-2.63858e-11 2.10445e-11 0.423351

-0.886352 0.305576 2.03916e-11
0.305576 14.0659 4.10791e-11
2.03916e-11 4.10791e-11 0.531143

13.3269 -0.0501167 1.10771e-11
-0.0501167 1.0721 -1.85018e-11
1.10771e-11 -1.85018e-11 0.740392

9.4893 6.06215 1.01081e-11
6.06215 9.62545 -1.18929e-11
1.01081e-11 -1.18929e-11 1.71987

4.78349 -7.10865 1.73353e-11
-7.10865 3.95888 -3.15385e-11
1.73353e-11 -3.15385e-11 -0.0548552

-19.8373 -3.48589 2.4153e-11
-3.48589 -12.2795 -2.29146e-11
2.4153e-11 -2.29146e-11 -18.477

-19.7568 -3.21506 6.36952e-12
-3.21506 -12.2454 -1.71349e-11
6.36952e-12 -1.71349e-11 -18.41

8.34425 -3.64123 1.13639e-11
-3.64123 -0.176266 1.76692e-11
1.13639e-11 1.76692e-11 -0.0299139

-3.51513 8.43625 -1.11175e-11
8.43625 5.72886 2.32037e-11
-1.11175e-11 2.32037e-11 -0.485928

5.75346 -0.223359 -1.13614e-11
-0.223359 -4.53601 -1.51492e-12
-1.13614e-11 -1.51492e-12 -0.455163

-1.61754 -4.04583 5.61378e-11
-4.04583 8.96904 -1.87808e-11
5.61378e-11 -1.87808e-11 -0.177002

-7.35437 7.55155 6.13828e-12
7.55155 1.56056 1.65603e-11
6.13828e-12 1.65603e-11 -2.41071

-7.93902 7.10731 -4.38246e-12
7.10731 0.981376 -2.34925e-11
-4.38246e-12 -2.34925e-11 -2.46646

-5.12583 -9.06261 1.00178e-11
-9.06261 3.20397 -6.4702e-11
1.00178e-11 -6.4702e-11 -1.21602

-5.8743 8.73847 -1.06869e-11
8.73847 4.32434 -6.45351e-12
-1.06869e-11 -6.45351e-12 -0.987987

-3.85037 7.3748 -1.78232e-12
7.3748 4.75046 -9.14705e-12
-1.78232e-12 -9.14705e-12 -0.600987

3.32988 0.0163636 -9.24179e-12
0.0163636 -6.506 8.00931e-12
-9.24179e-12 8.00931e-12 -0.693674

5.26875 6.97612 -8.85943e-12
6.97612 3.71821 9.11641e-13
-8.85943e-12 9.11641e-13 -0.0125338

-6.32137 -7.74838 -3.8299e-13
-7.74838 2.84176 -2.01224e-11
-3.8299e-13 -2.01224e-11 -1.35373

3.82793 6.09662 -4.04032e-12
6.09662 6.60271 2.04126e-11
-4.04032e-12 2.04126e-11 0.436078

7.31075 -5.26393 -7.75069e-12
-5.26393 10.9577 -1.61355e-11
-7.75069e-12 -1.61355e-11 1.60382

-2.78478 -6.44223 6.54669e-12
-6.44223 2.33932 -1.73306e-12
6.54669e-12 -1.73306e-12 -1.08433

2.42806 -3.67283 3.3934e-11
-3.67283 14.2729 -1.99363e-11
3.3934e-11 -1.99363e-11 1.38109

2.35565 3.58035 1.14001e-11
3.58035 14.1404 2.95189e-11
1.14001e-11 2.95189e-11 1.34044

12.6656 -2.52249 9.67937e-12
-2.52249 5.2162 5.08189e-11
9.67937e-12 5.08189e-11 1.58162

3.96536 -6.26352 3.82294e-11
-6.26352 6.75867 -2.70243e-12
3.82294e-11 -2.70243e-12 0.465776

-0.778084 0.970963 -2.04605e-12
0.970963 8.90776 -1.56975e-11
-2.04605e-12 -1.56975e-11 0.217737

-0.795735 -0.0115495 2.37403e-14
-0.0115495 8.78868 1.82935e-12
2.37403e-14 1.82935e-12 0.198167

6.08785 -7.23035 1.19904e-11
-7.23035 10.6428 -1.44471e-11
1.19904e-11 -1.44471e-11 1.12554

5.317 7.31965 -2.60295e-12
7.31965 10.4771 2.16775e-12
-2.60295e-12 2.16775e-12 0.969689

3.43875 -0.646009 -2.61859e-11
-0.646009 -7.73678 -1.96611e-11
-2.61859e-11 -1.96611e-11 -1.13162

3.4311 0.677092 1.19376e-11
0.677092 -7.77092 -1.41261e-11
1.19376e-11 -1.41261e-11 -1.12725

-3.50436 7.95238 -2.87353e-11
7.95238 5.07275 5.61293e-11
-2.87353e-11 5.61293e-11 -0.577364

-7.54637 -7.23233 -5.01589e-11
-7.23233 1.58331 3.02351e-11
-5.01589e-11 3.02351e-11 -2.15647

-3.35718 5.26709 -2.78288e-11
5.26709 -0.580445 -3.02335e-11
-2.78288e-11 -3.02335e-11 -1.91517

14.8792 5.83326 -1.16035e-11
5.83326 7.27613 3.03356e-11
-1.16035e-11 3.03356e-11 2.25886

-1.58279 4.98997 -2.36405e-11
4.98997 10.0304 -3.73677e-11
-2.36405e-11 -3.73677e-11 0.0139717

-2.70364 3.48733 3.69672e-11
3.48733 -3.11174 -2.65195e-11
3.69672e-11 -2.65195e-11 -2.88037

-2.64834 -3.51255 -7.79895e-12
-3.51255 -3.06356 -2.26356e-12
-7.79895e-12 -2.26356e-12 -2.87704

1.16918 -4.75563 -7.79761e-12
-4.75563 0.235702 8.18249e-12
-7.79761e-12 8.18249e-12 -0.888322

1.08134 4.71829 1.19386e-11
4.71829 0.182027 1.13617e-11
1.19386e-11 1.13617e-11 -0.896926

16.4151 1.55849 -2.81029e-11
1.55849 35.1377 -6.91358e-12
-2.81029e-11 -6.91358e-12 8.63828

33.0326 1.61318 -5.7554e-13
1.61318 18.1646 -1.3857e-11
-5.7554e-13 -1.3857e-11 8.5713

-2.07518 -4.73456 1.57686e-11
-4.73456 9.95601 6.06537e-12
1.57686e-11 6.06537e-12 -0.0914265

-7.88919 -3.78081 -9.82007e-12
-3.78081 -6.88995 -4.6976e-11
-9.82007e-12 -4.6976e-11 -7.82059

-7.90732 3.7931 -8.4733e-12
3.7931 -6.88975 -3.64868e-11
-8.4733e-12 -3.64868e-11 -7.8112

2.47317 5.79979 -1.34722e-12
5.79979 2.7282 2.15682e-11
-1.34722e-12 2.15682e-11 -0.218825

17.1566 3.17809 1.73142e-11
3.17809 4.70033 -5.52219e-11
1.73142e-11 -5.52219e-11 2.20375

8.38464 -0.605271 4.14024e-12
-0.605271 -0.397773 -2.4144e-11
4.14024e-12 -2.4144e-11 0.241929

-6.07452 -4.16214 4.35685e-12
-4.16214 2.9818 -3.85321e-13
4.35685e-12 -3.85321e-13 -1.79788

-5.86788 -4.55361 1.08491e-12
-4.55361 3.2671 -2.60944e-11
1.08491e-12 -2.60944e-11 -1.79139

3.76601 -6.8891 -3.90443e-11
-6.8891 6.30341 -2.99953e-11
-3.90443e-11 -2.99953e-11 0.261657

-5.92657 -8.77542 -1.41536e-11
-8.77542 4.35316 5.00849e-12
-1.41536e-11 5.00849e-12 -1.01163

2.57851 -5.86234 4.52112e-12
-5.86234 2.92362 4.7419e-11
4.52112e-12 4.7419e-11 -0.184621

-6.77574 8.40428 9.53025e-12
8.40428 2.85131 -2.59825e-12
9.53025e-12 -2.59825e-12 -1.20585

-5.37604 6.07513 -6.34226e-12
6.07513 -0.485139 -6.06678e-12
-6.34226e-12 -6.06678e-12 -3.61599

-5.24669 5.51762 2.95543e-11
5.51762 -1.1372 9.63082e-13
2.95543e-11 9.63082e-13 -3.59027

-3.68262 -7.98731 -7.65099e-12
-7.98731 5.11307 -5.65182e-11
-7.65099e-12 -5.65182e-11 -0.613137

-3.53719 7.209 -7.21941e-12
7.209 4.1268 1.1845e-11
-7.21941e-12 1.1845e-11 -0.663983

8.78432 4.99194 5.81461e-13
4.99194 1.21858 5.08928e-11
5.81461e-13 5.08928e-11 0.271572

-5.88158 9.24948 -8.68268e-13
9.24948 3.83897 -2.30119e-11
-8.68268e-13 -2.30119e-11 -0.982622

-4.32378 -5.65354 -1.27818e-11
-5.65354 5.31023 1.68536e-11
-1.27818e-11 1.68536e-11 -0.886806

-3.78938 2.20204 -2.16875e-11
2.20204 7.80475 2.8986e-11
-2.16875e-11 2.8986e-11 -0.632005

-1.46856 6.71796 2.31089e-12
6.71796 1.48383 2.09885e-11
2.31089e-12 2.09885e-11 -1.13885

-3.30659 2.82947 -2.06768e-11
2.82947 7.86228 1.19401e-11
-2.06768e-11 1.19401e-11 -0.54883

-6.83298 -7.84936 -2.094e-11
-7.84936 2.25273 1.88728e-11
-2.094e-11 1.88728e-11 -2.05596

12.9537 -6.74632 -3.18257e-11
-6.74632 13.7002 -4.04328e-12
-3.18257e-11 -4.04328e-12 3.23032

13.3016 -6.82008 -1.09743e-10
-6.82008 13.3382 -3.19171e-11
-1.09743e-10 -3.19171e-11 3.2415

-1.44007 -6.75788 2.55123e-11
-6.75788 1.51704 2.5996e-11
2.55123e-11 2.5996e-11 -1.14633

5.07255 -2.55516 1.9161e-11
-2.55516 -3.05713 -6.33701e-12
1.9161e-11 -6.33701e-12 -0.630929

-10.0554 8.01 -3.98475e-11
8.01 -13.6635 7.1122e-11
-3.98475e-11 7.1122e-11 -13.6245

-10.0546 -8.01072 -1.85198e-10
-8.01072 -13.6628 1.8022e-11
-1.85198e-10 1.8022e-11 -13.6339

-3.78373 -8.38465 2.0557e-11
-8.38465 5.63829 -3.74594e-11
2.0557e-11 -3.74594e-11 -0.558716

-9.53906 1.76169 1.84835e-11
1.76169 -8.0339 1.02993e-11
1.84835e-11 1.02993e-11 -8.72232

-9.63302 -1.61957 -2.67604e-11
-1.61957 -8.12832 -2.27178e-11
-2.67604e-11 -2.27178e-11 -8.88839

9.07318 0.110842 6.73979e-13
0.110842 -7.65805 1.72262e-11
6.73979e-13 1.72262e-11 -0.482467

-6.75702 -8.44494 1.7812e-11
-8.44494 3.02289 -1.32883e-11
1.7812e-11 -1.32883e-11 -1.17716

10.7165 8.22086 -2.48241e-11
8.22086 11.4395 4.73506e-11
-2.48241e-11 4.73506e-11 2.15144

9.59622 7.78633 2.78284e-11
7.78633 11.1581 2.45383e-11
2.78284e-11 2.45383e-11 1.90735

7.57011 -5.85025 -2.16486e-11
-5.85025 18.3275 -6.44995e-12
-2.16486e-11 -6.44995e-12 2.86005

7.62329 6.13432 -8.46079e-12
6.13432 18.279 -3.16399e-11
-8.46079e-12 -3.16399e-11 2.88467

17.5113 -4.86682 1.95038e-11
-4.86682 9.49936 3.24079e-11
1.95038e-11 3.24079e-11 3.07285

-5.89109 -9.2893 2.11464e-12
-9.2893 4.07024 3.23486e-11
2.11464e-12 3.23486e-11 -0.952357

2.84448 2.15557 -2.88726e-11
2.15557 19.3287 -1.05986e-11
-2.88726e-11 -1.05986e-11 2.16259

18.1457 2.75264 -5.22663e-12
2.75264 5.06567 -4.36984e-12
-5.22663e-12 -4.36984e-12 2.36539

-8.47454 -2.86841 1.06025e-11
-2.86841 -3.75388 -1.50187e-11
1.06025e-11 -1.50187e-11 -6.85962

-8.37125 -3.47247 6.62892e-12
-3.47247 -3.78467 -2.56092e-11
6.62892e-12 -2.56092e-11 -6.93083

4.77684 1.09473 1.45369e-11
1.09473 -4.18422 -5.39043e-12
1.45369e-11 -5.39043e-12 -1.03601

7.60896 0.0677818 5.00711e-12
0.0677818 -12.0734 2.00713e-11
5.00711e-12 2.00713e-11 -1.2614

1.74611 -5.30807 -1.63899e-12
-5.30807 11.2047 -3.35595e-11
-1.63899e-12 -3.35595e-11 0.549618

1.609 5.19142 1.08349e-11
5.19142 11.147 2.01788e-11
1.08349e-11 2.01788e-11 0.520284

8.77181 -0.000378884 5.1994e-12
-0.000378884 -8.17202 -1.52128e-11
5.1994e-12 -1.52128e-11 -0.620022

-4.13946 -6.40756 -1.67049e-11
-6.40756 5.8848 -3.84951e-12
-1.67049e-11 -3.84951e-12 -0.826557

-4.65663 -2.74982 1.52067e-11
-2.74982 -5.27602 -1.15696e-12
1.52067e-11 -1.15696e-12 -5.29611

-4.71117 2.74433 3.48478e-11
2.74433 -5.29878 -3.29691e-11
3.48478e-11 -3.29691e-11 -5.29683

-0.683943 3.78051 -3.10017e-11
3.78051 -0.0185612 -1.20356e-11
-3.10017e-11 -1.20356e-11 -1.43445

-3.71589 -7.17714 -1.83453e-12
-7.17714 4.14846 4.05379e-11
-1.83453e-12 4.05379e-11 -0.712435

5.14714 1.09283 1.72359e-11
1.09283 -8.62547 -3.27323e-11
1.72359e-11 -3.27323e-11 -1.65752

7.69687 5.99163 4.3532e-11
5.99163 6.58243 3.32759e-11
4.3532e-11 3.32759e-11 0.815059

-3.91526 -7.37163 -1.11237e-11
-7.37163 4.65855 3.47601e-11
-1.11237e-11 3.47601e-11 -0.65531

14.7403 -12.9546 4.63875e-11
-12.9546 15.2014 -4.57113e-11
4.63875e-11 -4.57113e-11 5.02268

-3.48695 -1.76662 1.07127e-11
-1.76662 7.51295 -5.77893e-12
1.07127e-11 -5.77893e-12 -0.637616

-3.07009 -2.42011 1.49238e-11
-2.42011 7.58562 2.32065e-11
1.49238e-11 2.32065e-11 -0.567993

-9.76657 -0.571503 -2.986e-11
-0.571503 -6.36024 -1.52112e-11
-2.986e-11 -1.52112e-11 -8.43754

-9.68677 -0.328438 9.06365e-12
-0.328438 -6.43934 3.25395e-11
9.06365e-12 3.25395e-11 -8.43782

1.53638 -2.01118 -2.17553e-11
-2.01118 -6.85056 -4.78395e-11
-2.17553e-11 -4.78395e-11 -1.57064

1.48132 2.01455 4.81445e-12
2.01455 -6.86833 3.2415e-11
4.81445e-12 3.2415e-11 -1.56605

-5.48717 -3.95653 3.13827e-11
-3.95653 -4.59324 4.04402e-12
3.13827e-11 4.04402e-12 -4.11331

-4.94102 4.08244 1.43458e-11
4.08244 -4.70881 7.89613e-12
1.43458e-11 7.89613e-12 -3.91407

-7.9813 -3.50965 2.98403e-11
-3.50965 -4.1534 3.09994e-11
2.98403e-11 3.09994e-11 -6.70875

-7.97999 3.65317 5.58309e-12
3.65317 -4.1066 -2.9853e-12
5.58309e-12 -2.9853e-12 -6.65685

-10.034 5.46034 5.35211e-11
5.46034 -10.4627 2.05041e-11
5.35211e-11 2.05041e-11 -11.3901

-10.0313 -5.45223 -4.42844e-11
-5.45223 -10.4605 1.48618e-10
-4.42844e-11 1.48618e-10 -11.4002

-6.00068 -9.00356 -2.72438e-11
-9.00356 1.95676 4.14224e-12
-2.72438e-11 4.14224e-12 -1.77495

-5.98678 9.03459 -3.99523e-11
9.03459 1.85315 -1.27148e-11
-3.99523e-11 -1.27148e-11 -1.77394

2.94604 5.38463 -7.12319e-12
5.38463 0.431247 -1.39622e-11
-7.12319e-12 -1.39622e-11 -0.624653

-1.87281 -4.2422 -5.36919e-12
-4.2422 6.55334 4.2273e-11
-5.36919e-12 4.2273e-11 -0.219453

-1.99405 -5.29691 1.52097e-11
-5.29691 7.23591 3.95726e-11
1.52097e-11 3.95726e-11 -0.178546

10.3287 -5.35666 -1.81553e-11
-5.35666 8.80959 1.58923e-11
-1.81553e-11 1.58923e-11 1.74903

2.98446 -5.37614 -1.28041e-11
-5.37614 0.665407 -7.2183e-12
-1.28041e-11 -7.2183e-12 -0.595853

-1.81129 4.00327 -5.34127e-11
4.00327 6.46029 9.82044e-12
-5.34127e-11 9.82044e-12 -0.217892

1.19477 7.53776 4.23557e-12
7.53776 4.07393 -7.17596e-12
4.23557e-12 -7.17596e-12 -0.322789

-7.67712 -7.79831 1.87743e-11
-7.79831 0.0710604 -2.19521e-11
1.87743e-11 -2.19521e-11 -2.61928

-7.67656 7.65505 4.8157e-12
7.65505 -0.0290843 2.3589e-11
4.8157e-12 2.3589e-11 -2.66162

1.16841 -7.65062 -1.93571e-11
-7.65062 4.11226 4.2129e-11
-1.93571e-11 4.2129e-11 -0.347632

4.06443 -0.762845 -1.76203e-11
-0.762845 -4.72806 1.31886e-11
-1.76203e-11 1.31886e-11 -1.43794

-19.3329 2.16186 -4.82867e-11
2.16186 -15.6212 -2.15675e-11
-4.82867e-11 -2.15675e-11 -19.0813

-19.1782 1.89929 -1.91318e-11
1.89929 -15.7581 -6.54562e-12
-1.91318e-11 -6.54562e-12 -19.0534

-3.80981 -6.716 6.64269e-12
-6.716 4.09078 4.52312e-12
6.64269e-12 4.52312e-12 -1.0779

-0.387519 3.2915 -3.12948e-11
3.2915 -4.66191 2.50799e-11
-3.12948e-11 2.50799e-11 -2.17936

1.78595 -0.805963 4.04362e-11
-0.805963 -9.47332 -1.50647e-11
4.04362e-11 -1.50647e-11 -4.06768

13.0056 -7.23356 -2.17016e-11
-7.23356 14.1174 2.8202e-11
-2.17016e-11 2.8202e-11 3.21967

13.0647 -7.06498 -2.85635e-11
-7.06498 14.0336 4.44572e-11
-2.85635e-11 4.44572e-11 3.21327

0.912991 -2.27112 -5.0054e-12
-2.27112 -7.69365 -1.39099e-11
-5.0054e-12 -1.39099e-11 -2.42853

0.811315 2.30899 2.2912e-11
2.30899 -7.69184 -3.46515e-12
2.2912e-11 -3.46515e-12 -2.42429

1.57081 0.662971 3.30243e-11
0.662971 -9.49993 1.96868e-11
3.30243e-11 1.96868e-11 -4.24313

-1.85339 5.25861 1.31444e-11
5.25861 7.08566 3.75538e-11
1.31444e-11 3.75538e-11 -0.17036

7.85923 4.14772 -1.4443e-11
4.14772 3.40829 -3.11978e-11
-1.4443e-11 -3.11978e-11 0.673567

-2.95128 -5.99273 -2.69518e-12
-5.99273 1.21902 1.19368e-11
-2.69518e-12 1.19368e-11 -1.73189

-2.99594 5.94624 -2.87878e-11
5.94624 1.19259 1.02978e-11
-2.87878e-11 1.02978e-11 -1.7297

-15.7617 -1.08548 -2.98419e-11
-1.08548 -21.5714 -1.58241e-10
-2.98419e-11 -1.58241e-10 -19.6285

-15.5674 1.09744 -2.73383e-11
1.09744 -20.6788 -3.60568e-11
-2.73383e-11 -3.60568e-11 -19.296

-5.80849 -7.69659 2.78245e-11
-7.69659 3.7898 -2.75429e-11
2.78245e-11 -2.75429e-11 -1.24274

5.57883 3.30494 -5.72897e-11
3.30494 -1.02178 5.39183e-12
-5.72897e-11 5.39183e-12 -0.245936

-0.931316 2.29646 1.54029e-11
2.29646 -3.76361 5.34384e-12
1.54029e-11 5.34384e-12 -2.62171

-0.856404 -2.30824 3.52312e-11
-2.30824 -3.74721 5.58767e-11
3.52312e-11 5.58767e-11 -2.62173

-3.94363 -5.97289 1.43901e-11
-5.97289 3.3184 2.5898e-11
1.43901e-11 2.5898e-11 -1.13402

-6.06995 -8.2123 -3.78829e-11
-8.2123 3.09459 3.27742e-12
-3.78829e-11 3.27742e-12 -1.13332

14.8786 -13.4322 -1.66978e-13
-13.4322 15.5937 -4.43201e-12
-1.66978e-13 -4.43201e-12 5.09906

-7.86205 5.60055 1.02048e-11
5.60055 -0.0102578 1.35759e-11
1.02048e-11 1.35759e-11 -3.62117

-7.96025 -5.685 3.92757e-11
-5.685 0.0137355 2.19506e-11
3.92757e-11 2.19506e-11 -3.64382

-6.33514 -7.11578 -6.49477e-12
-7.11578 3.14171 -2.46497e-11
-6.49477e-12 -2.46497e-11 -1.33933

8.08889 -4.47514 2.85022e-11
-4.47514 3.19774 -1.27597e-11
2.85022e-11 -1.27597e-11 0.685696

-0.57606 -3.56697 1.09763e-11
-3.56697 -0.349838 3.46663e-12
1.09763e-11 3.46663e-12 -1.56117

-5.50396 4.8498 1.93502e-11
4.8498 -1.53512 4.71867e-12
1.93502e-11 4.71867e-12 -3.29438

-5.6971 -5.03329 5.28895e-12
-5.03329 -1.46735 5.52635e-11
5.28895e-12 5.52635e-11 -3.35671

4.46331 -0.728447 1.1555e-11
-0.728447 -9.49922 2.64269e-11
1.1555e-11 2.64269e-11 -2.02006

-1.99288 1.78598 3.50399e-11
1.78598 -6.78108 -9.9137e-12
3.50399e-11 -9.9137e-12 -3.92458

-1.914 -1.76857 -1.5209e-11
-1.76857 -6.80102 4.447e-11
-1.5209e-11 4.447e-11 -3.93041

-15.1913 0.78627 -2.45789e-11
0.78627 -6.53021 -1.17444e-11
-2.45789e-11 -1.17444e-11 -14.2266

-15.1276 0.523356 -1.36527e-11
0.523356 -6.56857 -4.35119e-11
-1.36527e-11 -4.35119e-11 -14.2317

15.3384 0.564422 7.44221e-11
0.564422 35.1448 5.0265e-12
7.44221e-11 5.0265e-12 8.45489

32.5785 0.50199 -3.58297e-11
0.50199 15.5252 -9.11589e-12
-3.58297e-11 -9.11589e-12 8.00723

-4.45804 -7.69154 2.38785e-11
-7.69154 3.75594 -3.89559e-13
2.38785e-11 -3.89559e-13 -1.17881

-4.45642 7.66967 2.78235e-11
7.66967 3.70855 6.08517e-11
2.78235e-11 6.08517e-11 -1.1695

-5.96786 -8.75164 7.65167e-12
-8.75164 4.16135 1.81001e-11
7.65167e-12 1.81001e-11 -1.06111

12.4907 -6.31273 2.73307e-11
-6.31273 27.0756 9.22048e-12
2.73307e-11 9.22048e-12 6.33304

25.6099 -6.03442 -4.13571e-11
-6.03442 13.7556 9.75575e-12
-4.13571e-11 9.75575e-12 6.2924

-16.8264 -8.03802 -4.37173e-11
-8.03802 -10.5886 1.6769e-10
-4.37173e-11 1.6769e-10 -14.4709

-16.8328 8.03667 6.58615e-11
8.03667 -10.5845 1.24565e-10
6.58615e-11 1.24565e-10 -14.463

-3.53885 -5.31357 1.44426e-11
-5.31357 -0.749124 -1.14615e-11
1.44426e-11 -1.14615e-11 -1.98786

0.00376129 -7.38547 -2.18597e-11
-7.38547 5.14016 3.15827e-11
-2.18597e-11 3.15827e-11 -0.245261

-4.14058 -7.77453 2.45447e-11
-7.77453 1.72267 4.62094e-11
2.45447e-11 4.62094e-11 -1.59548

-4.16257 7.74423 5.77599e-11
7.74423 1.68267 -4.42818e-11
5.77599e-11 -4.42818e-11 -1.59205

-2.76934 -8.34153 -1.59825e-11
-8.34153 4.48609 1.8488e-11
-1.59825e-11 1.8488e-11 -0.730224

0.0528744 7.38773 -1.71393e-11
7.38773 4.96604 -2.735e-11
-1.71393e-11 -2.735e-11 -0.256297

6.05143 -2.39538 -4.41453e-11
-2.39538 19.8601 -2.62945e-11
-4.41453e-11 -2.62945e-11 2.89081

5.16529 2.90063 2.00185e-11
2.90063 18.7239 -4.92217e-11
2.00185e-11 -4.92217e-11 2.49263

18.3048 -1.82507 -1.42526e-11
-1.82507 8.46699 -3.6597e-11
-1.42526e-11 -3.6597e-11 3.0451

-2.68432 8.29839 -1.54043e-11
8.29839 4.46335 -4.81696e-12
-1.54043e-11 -4.81696e-12 -0.707331

3.10041 -1.48988 4.24745e-11
-1.48988 20.4446 2.02303e-11
4.24745e-11 2.02303e-11 2.46556

19.3137 -1.44289 5.34405e-11
-1.44289 3.94685 1.44329e-14
5.34405e-11 1.44329e-14 2.4569

-5.37255 -7.59545 1.72337e-11
-7.59545 0.623825 -5.41108e-11
1.72337e-11 -5.41108e-11 -2.42779

-5.35643 7.55173 -2.05977e-11
7.55173 0.58762 7.96159e-11
-2.05977e-11 7.96159e-11 -2.41328

-5.89493 -6.61203 4.7858e-13
-6.61203 0.510774 -1.39617e-11
4.7858e-13 -1.39617e-11 -2.82888

-5.89752 6.58595 -3.22474e-11
6.58595 0.460812 5.08292e-11
-3.22474e-11 5.08292e-11 -2.8241

13.1049 -6.34759 5.32093e-11
-6.34759 27.3642 -2.71297e-11
5.32093e-11 -2.71297e-11 6.6021

26.2481 -5.87129 -1.00891e-10
-5.87129 13.6534 -4.84765e-11
-1.00891e-10 -4.84765e-11 6.50271

-1.65839 7.01066 1.63638e-11
7.01066 3.53739 -3.50466e-11
1.63638e-11 -3.50466e-11 -0.68802

-1.62265 -7.06722 3.28306e-11
-7.06722 3.63836 2.62822e-11
3.28306e-11 2.62822e-11 -0.678472

-10.5716 -1.13033 4.13961e-11
-1.13033 -7.85383 -5.38902e-12
4.13961e-11 -5.38902e-12 -10.0512

-10.5838 -1.50121 2.2359e-11
-1.50121 -7.73608 7.50733e-12
2.2359e-11 7.50733e-12 -10.0521

-7.18353 -7.62556 -3.96612e-11
-7.62556 2.19481 2.80181e-11
-3.96612e-11 2.80181e-11 -2.5402

-7.21263 7.66054 -5.5447e-11
7.66054 2.12598 1.59709e-11
-5.5447e-11 1.59709e-11 -2.54156

-4.12208 -3.0023 -7.12393e-12
-3.0023 -7.41176 9.24582e-11
-7.12393e-12 9.24582e-11 -4.9164

-4.16473 3.0031 1.67491e-11
3.0031 -7.38908 6.59206e-12
1.67491e-11 6.59206e-12 -4.90389

-4.79974 6.3121 7.316e-12
6.3121 1.41656 9.62793e-12
7.316e-12 9.62793e-12 -1.80527

-4.90399 -6.28595 -2.84067e-11
-6.28595 1.60674 5.22827e-11
-2.84067e-11 5.22827e-11 -1.78836

-14.5059 -2.35991 2.96691e-11
-2.35991 -5.2184 -4.67907e-11
2.96691e-11 -4.67907e-11 -11.8717

-6.42327 -4.30958 -1.03936e-11
-4.30958 -8.60616 2.01189e-11
-1.03936e-11 2.01189e-11 -7.80126

-10.1849 -4.43261 -1.1859e-10
-4.43261 -11.9104 -9.01778e-11
-1.1859e-10 -9.01778e-11 -11.192

-6.46702 4.33349 5.00511e-12
4.33349 -8.59124 -7.98998e-12
5.00511e-12 -7.98998e-12 -7.79375

-10.198 4.44324 7.97017e-11
4.44324 -11.9092 -7.68951e-11
7.97017e-11 -7.68951e-11 -11.184

-14.626 -1.83147 -3.78216e-14
-1.83147 -5.03135 2.75322e-11
-3.78216e-14 2.75322e-11 -11.821

-10.6591 -4.82907 -1.15568e-11
-4.82907 -10.8413 3.0514e-11
-1.15568e-11 3.0514e-11 -12.2712

-10.868 4.99459 -4.8521e-11
4.99459 -10.7626 -1.91573e-11
-4.8521e-11 -1.91573e-11 -12.23

-12.0995 -6.27158 -1.90015e-10
-6.27158 -8.61678 7.26796e-11
-1.90015e-10 7.26796e-11 -12.1126

0.27244 -4.67941 1.46894e-09
-4.67941 -16.2235 3.91076e-10
1.46894e-09 3.91076e-10 -13.7251

0.273561 4.67599 -2.8456e-10
4.67599 -16.208 4.51522e-10
-2.8456e-10 4.51522e-10 -13.7115

-12.1169 6.27468 -1.93486e-10
6.27468 -8.62747 -3.71585e-10
-1.93486e-10 -3.71585e-10 -12.1067

-7.06937 -6.65304 -4.62087e-11
-6.65304 -7.30249 2.08905e-11
-4.62087e-11 2.08905e-11 -9.03307

-6.35358 -5.36738 3.86946e-11
-5.36738 -1.03029 1.07777e-11
3.86946e-11 1.07777e-11 -4.64877

-12.5195 -5.12998 -2.67623e-11
-5.12998 -12.5343 3.56363e-12
-2.67623e-11 3.56363e-12 -13.7347

-7.08196 6.65631 4.9095e-11
6.65631 -7.33359 2.37768e-11
4.9095e-11 2.37768e-11 -9.02982

-12.524 5.13436 1.42528e-11
5.13436 -12.5295 1.31194e-10
1.42528e-11 1.31194e-10 -13.7236

-6.35829 5.36593 -5.87056e-12
5.36593 -1.07117 -1.68469e-11
-5.87056e-12 -1.68469e-11 -4.64439

-8.80355 -5.53653 1.25352e-12
-5.53653 -3.57075 -3.3306e-11
1.25352e-12 -3.3306e-11 -6.40287

-8.55545 -4.51076 2.00227e-11
-4.51076 -6.85369 1.36673e-11
2.00227e-11 1.36673e-11 -8.57392

-8.80396 5.53268 6.92831e-12
5.53268 -3.59918 -4.52384e-12
6.92831e-12 -4.52384e-12 -6.39482

-8.5783 4.50435 -2.69553e-11
4.50435 -6.88287 -3.22533e-11
-2.69553e-11 -3.22533e-11 -8.57196

-2.64819 3.62341 4.62341e-12
3.62341 1.89444 -3.004e-11
4.62341e-12 -3.004e-11 -0.862564

-7.21152 -1.04656 6.54832e-12
-1.04656 3.87503 -3.0425e-11
6.54832e-12 -3.0425e-11 -1.09555

4.19811 -1.16747 -2.00259e-11
-1.16747 -6.41613 -2.88795e-11
-2.00259e-11 -2.88795e-11 -0.0635253

6.6301 0.0370804 -3.0242e-11
0.0370804 -3.47344 -3.06187e-11
-3.0242e-11 -3.06187e-11 1.20175

-8.65395 3.63327 1.77145e-11
3.63327 -3.28859 3.08242e-12
1.77145e-11 3.08242e-12 -4.31396

-12.4622 -1.58153 1.21276e-11
-1.58153 2.49823 3.85129e-11
1.21276e-11 3.85129e-11 -3.81568

6.29396 2.04153 6.74142e-12
2.04153 -3.76389 2.2917e-11
6.74142e-12 2.2917e-11 1.06448

1.10081 2.59858 2.42646e-11
2.59858 -9.29843 -3.07906e-12
2.42646e-11 -3.07906e-12 -1.59447

2.54155 5.17863 1.93223e-12
5.17863 9.83793 5.00825e-11
1.93223e-12 5.00825e-11 4.99674

3.94163 5.01805 1.90699e-11
5.01805 10.9982 5.19954e-12
1.90699e-11 5.19954e-12 5.50716

10.7524 4.51547 1.83037e-11
4.51547 4.16072 2.50358e-11
1.83037e-11 2.50358e-11 5.68515

-5.55637 2.27837 3.46678e-12
2.27837 0.418799 1.73275e-11
3.46678e-12 1.73275e-11 -3.11607

-4.72245 -4.39362 4.92897e-11
-4.39362 -2.24078 5.77309e-12
4.92897e-11 5.77309e-12 -3.41462

0.0243449 -5.59611 8.28004e-12
-5.59611 1.58424 3.23586e-11
8.28004e-12 3.23586e-11 0.32089

-12.4441 1.89844 -1.5595e-11
1.89844 2.79873 2.00282e-11
-1.5595e-11 2.00282e-11 -3.8168

-8.73098 -2.10194 -4.15942e-11
-2.10194 -3.56368 5.79605e-11
-4.15942e-11 5.79605e-11 -4.34612

5.90281 1.44705 3.87123e-11
1.44705 -6.58853 5.00446e-12
3.87123e-11 5.00446e-12 -0.192616

1.15724 2.38749 -4.23443e-12
2.38749 11.2596 -1.00206e-11
-4.23443e-12 -1.00206e-11 4.10641

2.79249 1.81844 -8.64679e-13
1.81844 10.5991 2.11919e-12
-8.64679e-13 2.11919e-12 4.1003

11.7205 1.39579 2.00366e-11
1.39579 3.10586 4.80257e-12
2.00366e-11 4.80257e-12 4.64736

-0.106267 5.58115 2.30978e-12
5.58115 6.25608 -8.85899e-12
2.30978e-12 -8.85899e-12 1.42308

-2.2983 -3.34849 9.91629e-12
-3.34849 5.99396 -3.85469e-12
9.91629e-12 -3.85469e-12 1.3893

4.08861 3.21893 -2.15724e-11
3.21893 -7.21558 1.96453e-11
-2.15724e-11 1.96453e-11 -0.265479

9.52264 3.78561 -2.02274e-11
3.78561 15.0094 -1.54083e-11
-2.02274e-11 -1.54083e-11 9.73889

2.42791 -1.44208 2.15707e-11
-1.44208 -10.6521 1.36711e-11
2.15707e-11 1.36711e-11 -1.39404

-4.33724 0.973892 -5.14088e-11
0.973892 -3.15309 -4.23483e-12
-5.14088e-11 -4.23483e-12 -4.3906

-6.73386 -0.257866 -4.08186e-11
-0.257866 1.32645 3.15792e-11
-4.08186e-11 3.15792e-11 -4.08822

-0.5071 5.64022 2.31025e-11
5.64022 -10.3032 3.81222e-11
2.31025e-11 3.81222e-11 -11.6179

-1.64674 -2.52813 -3.87838e-13
-2.52813 -15.4163 5.4089e-11
-3.87838e-13 5.4089e-11 -12.2635

-1.26755 -6.39391 3.66181e-12
-6.39391 1.71708 -2.31089e-12
3.66181e-12 -2.31089e-12 0.13181

-0.823884 -5.3875 5.58139e-12
-5.3875 5.6881 -2.02299e-11
5.58139e-12 -2.02299e-11 1.34491

10.7712 -0.0630438 -3.6881e-11
-0.0630438 1.08182 5.97859e-12
-3.6881e-11 5.97859e-12 4.17909

-0.236662 3.49472 1.04043e-11
3.49472 -6.51259 2.27209e-11
1.04043e-11 2.27209e-11 -4.54291

-0.881862 -0.959965 4.35122e-11
-0.959965 -7.18214 -4.85198e-11
4.35122e-11 -4.85198e-11 -4.32961

0.801872 -0.566961 -1.77136e-11
-0.566961 -12.2731 4.8167e-12
-1.77136e-11 4.8167e-12 -1.93155

-2.32602 -4.09272 3.75581e-12
-4.09272 4.32602 -3.85107e-12
3.75581e-12 -3.85107e-12 1.08737

1.46494 0.796353 2.66677e-11
0.796353 -12.2928 -2.52241e-11
2.66677e-11 -2.52241e-11 -1.65632

6.2575 -4.02068 3.35095e-11
-4.02068 1.88896 -2.89258e-12
3.35095e-11 -2.89258e-12 2.2899

-0.72776 5.91511 2.2918e-11
5.91511 3.25322 -8.09005e-12
2.2918e-11 -8.09005e-12 1.11378

8.0618 4.39193 -7.50925e-12
4.39193 -1.26036 2.77213e-11
-7.50925e-12 2.77213e-11 2.2691

7.21441 -2.54016 3.37058e-11
-2.54016 -1.32101 -2.38833e-11
3.37058e-11 -2.38833e-11 2.04608

-1.21091 4.98754 2.65714e-11
4.98754 6.03446 -3.25665e-15
2.65714e-11 -3.25665e-15 1.5357

-9.20398 -3.70781 1.39638e-11
-3.70781 2.56241 -2.88883e-11
1.39638e-11 -2.88883e-11 -1.06346

-6.00281 6.62058 -2.61921e-11
6.62058 2.2087 -4.66025e-11
-2.61921e-11 -4.66025e-11 -1.11081

-0.0494051 -4.66611 6.16189e-12
-4.66611 5.83524 2.11535e-12
6.16189e-12 2.11535e-12 1.46918

-0.558623 6.12775 -7.99057e-12
6.12775 6.11524 1.81018e-11
-7.99057e-12 1.81018e-11 1.34806

28.5807 -5.1744 3.19818e-11
-5.1744 29.443 -1.8886e-11
3.19818e-11 -1.8886e-11 29.3213

28.5552 5.94598 -5.58805e-12
5.94598 30.7105 -2.50807e-12
-5.58805e-12 -2.50807e-12 29.4533

-11.0066 5.08196 1.57881e-11
5.08196 0.414106 -3.85321e-13
1.57881e-11 -3.85321e-13 -2.90095

-7.58313 -5.9348 -1.84833e-11
-5.9348 -0.792211 -1.07827e-11
-1.84833e-11 -1.07827e-11 -2.60672

-4.22694 5.59788 1.23257e-11
5.59788 4.27163 4.00577e-11
1.23257e-11 4.00577e-11 -0.0757766

17.7137 1.91394 1.25224e-11
1.91394 17.9356 1.84928e-11
1.25224e-11 1.84928e-11 19.4907

17.4714 -0.0316917 1.04026e-11
-0.0316917 19.4104 -1.92578e-11
1.04026e-11 -1.92578e-11 19.8736

-7.01972 -4.26821 -2.98924e-12
-4.26821 -5.20788 -3.54233e-11
-2.98924e-12 -3.54233e-11 -5.2357

-6.44289 2.08289 3.05117e-11
2.08289 -3.65355 -1.52115e-11
3.05117e-11 -1.52115e-11 -5.14601

6.95012 -0.121135 1.11246e-11
-0.121135 -7.69634 -1.92581e-12
1.11246e-11 -1.92581e-12 -0.221818

-7.02008 -3.97675 6.96413e-12
-3.97675 -5.15192 -1.42476e-11
6.96413e-12 -1.42476e-11 -5.36956

-6.91792 1.43066 1.62973e-11
1.43066 -6.47872 3.69672e-11
1.62973e-11 3.69672e-11 -5.85866

-6.28625 -3.52391 1.48259e-11
-3.52391 4.13341 3.46626e-12
1.48259e-11 3.46626e-12 -0.0129997

-2.66243 5.33262 -6.54756e-12
5.33262 -8.73176 -5.39087e-12
-6.54756e-12 -5.39087e-12 -9.53446

-2.31996 -4.39528 -3.31158e-11
-4.39528 -13.6746 -7.31274e-12
-3.31158e-11 -7.31274e-12 -9.91604

-3.78968 -4.2694 -7.36714e-12
-4.2694 -4.0275 2.71038e-11
-7.36714e-12 2.71038e-11 -2.41266

-3.61136 3.25196 3.75472e-11
3.25196 -3.30099 6.30755e-12
3.75472e-11 6.30755e-12 -2.58004

-11.4919 0.338542 2.1559e-11
0.338542 0.236009 -3.85307e-12
2.1559e-11 -3.85307e-12 -9.11511

-12.0861 2.57494 -2.88865e-12
2.57494 -6.55573 5.46794e-11
-2.88865e-12 5.46794e-11 -10.3906

8.84008 1.77111 1.05946e-11
1.77111 14.4929 2.83116e-11
1.05946e-11 2.83116e-11 9.9058

14.2077 1.81127 -2.7051e-12
1.81127 9.05443 1.7338e-12
-2.7051e-12 1.7338e-12 9.93877

-5.88677 5.31457 3.5041e-11
5.31457 2.63474 -4.75654e-11
3.5041e-11 -4.75654e-11 -1.03846

-9.25124 -3.242 -3.58116e-11
-3.242 3.31818 -2.77293e-11
-3.58116e-11 -2.77293e-11 -1.14338

-14.2544 -6.99707 3.11173e-11
-6.99707 -6.28718 -3.27358e-11
3.11173e-11 -3.27358e-11 -17.7057

-13.4145 4.16911 -1.12456e-10
4.16911 -20.4795 1.13001e-10
-1.12456e-10 1.13001e-10 -20.3083

4.73633 5.64124 4.08265e-11
5.64124 1.39282 3.77632e-11
4.08265e-11 3.77632e-11 1.90728

1.06651 2.16953 2.06872e-12
2.16953 -6.3386 -2.70258e-12
2.06872e-12 -2.70258e-12 -1.58332

0.855921 -2.83838 3.37507e-11
-2.83838 -6.36126 6.92513e-12
3.37507e-11 6.92513e-12 -1.41755

-0.936886 -3.0497 2.07968e-11
-3.0497 -11.8355 -2.09873e-11
2.07968e-11 -2.09873e-11 -4.38596

10.3921 1.28978 -3.51529e-11
1.28978 0.864383 1.81072e-11
-3.51529e-11 1.81072e-11 4.11381

-1.598 0.393275 -5.46873e-11
0.393275 -15.973 3.59985e-11
-5.46873e-11 3.59985e-11 -14.5752

-2.33769 -0.796208 -6.08361e-11
-0.796208 -6.02306 6.81518e-11
-6.08361e-11 6.81518e-11 -13.3696

1.23791 6.77012 7.70199e-12
6.77012 -2.22309 1.61777e-11
7.70199e-12 1.61777e-11 0.0479819

5.98747 1.79394 2.44622e-11
1.79394 -3.54243 4.4093e-11
2.44622e-11 4.4093e-11 0.308636

5.96795 5.51256 -1.34793e-11
5.51256 8.04749 1.17466e-11
-1.34793e-11 1.17466e-11 4.6926

-10.9181 -3.1318 2.00204e-11
-3.1318 -1.03163 -1.07834e-11
2.00204e-11 -1.07834e-11 -11.3269

-14.1494 1.95923 -4.17783e-11
1.95923 -10.7931 2.42601e-11
-4.17783e-11 2.42601e-11 -13.5307

-0.188814 5.68387 -1.30929e-11
5.68387 -9.37669 5.39139e-12
-1.30929e-11 5.39139e-12 -4.28435

-2.88469 -1.78171 -5.13177e-11
-1.78171 1.64137 -1.46342e-11
-5.13177e-11 -1.46342e-11 -1.02602

-7.50468 1.26131 5.87031e-12
1.26131 3.97177 -6.08541e-11
5.87031e-12 -6.08541e-11 -1.3212

4.29867 -0.870516 -1.50167e-11
-0.870516 -9.60165 2.77299e-11
-1.50167e-11 2.77299e-11 -1.27821

4.95095 0.642557 -2.59955e-11
0.642557 -9.98131 -1.46376e-11
-2.59955e-11 -1.46376e-11 -1.29034

8.8168 -3.63065 -2.0312e-11
-3.63065 6.54591 -1.65518e-11
-2.0312e-11 -1.65518e-11 5.11028

8.62552 0.188492 -1.95008e-11
0.188492 -3.24089 -2.50304e-11
-1.95008e-11 -2.50304e-11 1.32803

0.858738 0.729123 -1.4394e-11
0.729123 -9.37383 8.47389e-12
-1.4394e-11 8.47389e-12 -2.94441

-0.22218 -1.55768 -4.38131e-12
-1.55768 -8.33407 -6.92898e-12
-4.38131e-12 -6.92898e-12 -2.80433

5.51888 -2.12713 3.00431e-11
-2.12713 -4.24979 2.73393e-11
3.00431e-11 2.73393e-11 0.259709

3.98326 -1.00212 -7.41377e-12
-1.00212 -7.02699 -1.27074e-11
-7.41377e-12 -1.27074e-11 -1.08742

4.81122 0.432589 -3.3339e-11
0.432589 -7.02924 -1.02032e-11
-3.3339e-11 -1.02032e-11 -1.06411

3.74366 4.48353 1.06049e-11
4.48353 -5.18467 6.35446e-11
1.06049e-11 6.35446e-11 -0.148745

4.15252 -5.94878 -2.36896e-11
-5.94878 3.51514 -2.88929e-11
-2.36896e-11 -2.88929e-11 2.52882

-6.10093 7.7492 2.00252e-11
7.7492 1.46725 -5.19818e-12
2.00252e-11 -5.19818e-12 -1.37643

-7.77062 -6.59397 -1.39266e-12
-6.59397 -1.69349 -2.46477e-11
-1.39266e-12 -2.46477e-11 -1.5352

-9.41631 -4.92232 -3.66134e-12
-4.92232 -2.05784 2.46487e-11
-3.66134e-12 2.46487e-11 -1.95683

-5.94963 8.17968 -2.73408e-11
8.17968 2.55367 7.12227e-12
-2.73408e-11 7.12227e-12 -1.09563

8.41088 2.84458 -8.28463e-12
2.84458 -2.23527 -1.65602e-11
-8.28463e-12 -1.65602e-11 1.81647

12.841 -3.39582 -2.56251e-11
-3.39582 8.86603 2.5625e-11
-2.56251e-11 2.5625e-11 8.67592

0.668591 6.46599 -5.58198e-12
6.46599 -6.09133 -2.73479e-11
-5.58198e-12 -2.73479e-11 -1.55379

4.13662 -2.1655 -8.66966e-12
-2.1655 -4.25013 8.14632e-11
-8.66966e-12 8.14632e-11 0.212537

13.2233 -2.64107 -2.15734e-11
-2.64107 7.81881 6.16855e-12
-2.15734e-11 6.16855e-12 8.43129

1.39276 -5.25247 -4.43482e-12
-5.25247 -1.77732 5.77575e-12
-4.43482e-12 5.77575e-12 0.102876

-10.2847 0.0352676 2.00235e-11
0.0352676 5.08459 -3.46634e-11
2.00235e-11 -3.46634e-11 -1.37349

-6.98726 0.814787 -3.56219e-11
0.814787 0.809942 -2.85021e-11
-3.56219e-11 -2.85021e-11 -1.79459

2.66473 6.73386 1.88747e-11
6.73386 2.88503 3.15869e-11
1.88747e-11 3.15869e-11 2.02064

10.1392 -3.90378 -2.11863e-11
-3.90378 3.50309 6.00954e-11
-2.11863e-11 6.00954e-11 5.25465

-5.22145 7.17259 8.66921e-12
7.17259 -3.03332 4.35234e-11
8.66921e-12 4.35234e-11 -1.66103

-4.86217 -6.87204 -2.32977e-11
-6.87204 -0.139862 -3.0229e-11
-2.32977e-11 -3.0229e-11 -1.29554

1.82792 -5.07922 2.1471e-11
-5.07922 6.01949 -9.63437e-12
2.1471e-11 -9.63437e-12 2.53943

3.02818 -5.59945 1.926e-11
-5.59945 5.98977 3.11949e-11
1.926e-11 3.11949e-11 2.60872

3.68301 5.22644 1.61799e-11
5.22644 -3.96212 3.27375e-12
1.61799e-11 3.27375e-12 -0.0382415

1.35071 3.21426 1.50147e-11
3.21426 -14.9367 -3.31147e-11
1.50147e-11 -3.31147e-11 -3.34109

1.59404 -2.19137 -1.69451e-11
-2.19137 -16.2853 1.00144e-11
-1.69451e-11 1.00144e-11 -3.24503

-1.26934 4.15543 4.76933e-13
4.15543 7.6623 -2.60019e-11
4.76933e-13 -2.60019e-11 1.65772

1.29941 6.38853 -1.52153e-11
6.38853 0.0677284 -1.8105e-11
-1.52153e-11 -1.8105e-11 0.53143

-0.920651 0.601054 -7.70232e-12
0.601054 11.932 -3.46671e-12
-7.70232e-12 -3.46671e-12 4.33852

0.743709 0.334377 -9.05372e-12
0.334377 11.6508 2.44674e-11
-9.05372e-12 2.44674e-11 4.45228

12.7532 0.273334 1.30944e-11
0.273334 0.69212 -1.65715e-11
1.30944e-11 -1.65715e-11 4.95246

4.17168 -4.80145 6.9386e-12
-4.80145 0.815826 -2.85055e-11
6.9386e-12 -2.85055e-11 1.88464

-19.3648 -3.29331 3.7536e-11
-3.29331 -13.2653 -5.80498e-11
3.7536e-11 -5.80498e-11 -18.5833

-1.74591 1.69623 2.8849e-12
1.69623 -1.6906 -3.45879e-12
2.8849e-12 -3.45879e-12 -13.2734

6.98145 5.76235 2.90834e-11
5.76235 -0.411702 -4.62169e-11
2.90834e-11 -4.62169e-11 2.33971

8.17475 -2.39917 3.26471e-11
-2.39917 -2.69121 8.85225e-12
3.26471e-11 8.85225e-12 1.70142

12.214 4.04631 7.74936e-13
4.04631 6.22524 -1.30966e-11
7.74936e-13 -1.30966e-11 7.71194

-7.05089 -4.2 2.85945e-11
-4.2 1.51581 -4.6223e-12
2.85945e-11 -4.6223e-12 -0.602774

-3.79755 7.60547 -4.31311e-11
7.60547 3.92913 2.31082e-11
-4.31311e-11 2.31082e-11 -0.135219

7.05536 -0.11156 -1.32424e-11
-0.11156 -7.65323 2.31119e-12
-1.32424e-11 2.31119e-12 -0.153518

-3.78875 3.82821 9.58419e-13
3.82821 7.1871 -1.88742e-11
9.58419e-13 -1.88742e-11 1.38341

-12.7492 -5.08581 -7.99151e-12
-5.08581 0.432432 -1.73295e-11
-7.99151e-12 -1.73295e-11 -2.9469

-7.87255 7.13613 -1.24181e-11
7.13613 0.262399 7.69014e-13
-1.24181e-11 7.69014e-13 -2.50777

6.04528 4.48413 -1.92446e-12
4.48413 8.74061 7.89457e-12
-1.92446e-12 7.89457e-12 4.75375

8.71114 4.72829 1.71424e-11
4.72829 7.88722 1.94535e-11
1.71424e-11 1.94535e-11 5.24576

12.2729 3.6321 -4.03573e-12
3.6321 6.26579 5.01249e-12
-4.03573e-12 5.01249e-12 7.64249

-6.58971 7.85123 2.78688e-11
7.85123 3.24811 -2.50145e-12
2.78688e-11 -2.50145e-12 -1.11411

-9.57326 -5.67563 -2.59855e-12
-5.67563 -3.84437 -3.38907e-11
-2.59855e-12 -3.38907e-11 -2.16941

6.24686 0.228359 -5.137e-11
0.228359 -11.0296 -2.5801e-11
-5.137e-11 -2.5801e-11 -1.04768

-7.67001 5.36301 -4.79492e-11
5.36301 -4.00894 -3.04287e-11
-4.79492e-11 -3.04287e-11 -2.20498

-5.94797 -6.6864 -1.84839e-11
-6.6864 1.78373 -1.44401e-11
-1.84839e-11 -1.44401e-11 -1.10808

-2.70698 6.49237 -1.88776e-11
6.49237 -1.46605 -3.00393e-11
-1.88776e-11 -3.00393e-11 -0.74084

0.372381 -1.40647 -8.28141e-12
-1.40647 10.5412 -2.38859e-11
-8.28141e-12 -2.38859e-11 3.61665

2.21588 -1.86274 -1.1747e-11
-1.86274 10.329 1.34836e-11
-1.1747e-11 1.34836e-11 3.6862

10.4638 -1.14448 -5.87767e-12
-1.14448 2.04087 1.04197e-11
-5.87767e-12 1.04197e-11 3.96879

2.9526 -3.96659 1.87792e-11
-3.96659 2.88405 3.54331e-11
1.87792e-11 3.54331e-11 1.92491

-0.760465 0.691219 -9.24306e-12
0.691219 6.09356 -1.23285e-11
-9.24306e-12 -1.23285e-11 1.04294

-4.75433 0.228258 3.88999e-11
0.228258 7.40159 1.04013e-11
3.88999e-11 1.04013e-11 0.798835

5.53244 -4.43845 2.23464e-11
-4.43845 10.0042 -4.23778e-11
2.23464e-11 -4.23778e-11 5.48327

5.18238 -4.2245 -2.79206e-12
-4.2245 8.81847 5.77138e-12
-2.79206e-12 5.77138e-12 5.36284

6.5462 -0.250258 -3.08353e-11
-0.250258 -10.4627 -1.90623e-11
-3.08353e-11 -1.90623e-11 -1.03912

5.89347 0.278818 -1.11671e-11
0.278818 -10.0396 3.31155e-11
-1.11671e-11 3.31155e-11 -1.04188

-5.618 -5.24577 6.067e-12
-5.24577 -0.519173 -3.00422e-11
6.067e-12 -3.00422e-11 -0.743918

-4.13998 6.89121 8.37397e-12
6.89121 3.74541 -1.79077e-11
8.37397e-12 -1.79077e-11 -0.309689

-12.3357 4.44468 -1.25165e-11
4.44468 0.11807 -3.85381e-12
-1.25165e-11 -3.85381e-12 -2.81249

-7.39102 -6.52783 -3.84881e-12
-6.52783 0.180699 -2.96521e-11
-3.84881e-12 -2.96521e-11 -2.10296

-2.30177 -5.22919 3.75502e-11
-5.22919 -3.1383 3.77366e-11
3.75502e-11 3.77366e-11 -1.46589

-3.67012 -2.74691 -2.85008e-11
-2.74691 7.83536 5.00933e-12
-2.85008e-11 5.00933e-12 1.57804

-2.83187 0.828776 -1.63425e-12
0.828776 -5.59301 4.91081e-12
-1.63425e-12 4.91081e-12 -3.59696

-3.83624 -2.61744 -1.43973e-11
-2.61744 -6.58539 2.54149e-11
-1.43973e-11 2.54149e-11 -3.73474

2.02616 -4.03972 -4.08254e-11
-4.03972 -1.04936 4.9306e-11
-4.08254e-11 4.9306e-11 0.405751

0.725687 -3.43016 2.0893e-11
-3.43016 -3.82039 -1.69449e-11
2.0893e-11 -1.69449e-11 -0.967364

1.38962 2.89135 -2.4117e-12
2.89135 -1.90597 -3.11959e-11
-2.4117e-12 -3.11959e-11 -0.780504

15.8946 -1.58034 8.47337e-12
-1.58034 10.2238 3.69866e-11
8.47337e-12 3.69866e-11 18.0268

2.76471 6.81209 -2.21601e-12
6.81209 5.45577 -1.90647e-11
-2.21601e-12 -1.90647e-11 2.25362

12.3176 3.26262 -3.08239e-11
3.26262 16.6982 -2.69727e-11
-3.08239e-11 -2.69727e-11 18.3751

-1.42467 -3.66177 1.42494e-11
-3.66177 7.36018 1.92424e-12
1.42494e-11 1.92424e-12 1.63625

-10.557 -3.58418 4.14092e-11
-3.58418 -6.4684 8.04795e-11
4.14092e-11 8.04795e-11 -9.88979

-8.43182 1.43852 -1.26239e-11
1.43852 -9.9871 -6.33397e-11
-1.26239e-11 -6.33397e-11 -10.2791

2.55244 4.43276 -1.1946e-11
4.43276 0.726951 -1.3862e-11
-1.1946e-11 -1.3862e-11 0.514267

8.52315 -0.240707 -9.96077e-12
-0.240707 -3.66329 6.93638e-12
-9.96077e-12 6.93638e-12 1.27163

5.58329 5.52635 1.77212e-11
5.52635 1.34487 -5.39213e-12
1.77212e-11 -5.39213e-12 2.10559

-9.02494 2.67516 1.03936e-11
2.67516 4.40685 -5.73854e-11
1.03936e-11 -5.73854e-11 -1.10447

-5.96856 -3.69103 2.63796e-11
-3.69103 1.41436 2.00264e-11
2.63796e-11 2.00264e-11 -1.33984

-5.24323 6.1211 2.92644e-11
6.1211 -1.8938 -1.03939e-11
2.92644e-11 -1.03939e-11 -3.59779

-5.45284 -3.38951 2.32958e-11
-3.38951 -0.585581 -1.6754e-11
2.32958e-11 -1.6754e-11 -3.25824

-6.79756 8.33564 7.98891e-12
8.33564 2.47008 -8.6647e-12
7.98891e-12 -8.6647e-12 -1.18487

-13.0117 -7.90065 3.23491e-11
-7.90065 -2.02106 -1.7334e-11
3.23491e-11 -1.7334e-11 -2.33352

-5.77737 4.32305 1.00107e-11
4.32305 3.74012 2.96569e-11
1.00107e-11 2.96569e-11 -0.089426

-3.67096 2.19182 -1.19408e-11
2.19182 5.88875 6.54987e-12
-1.19408e-11 6.54987e-12 0.515226

-1.94335 -4.85124 -3.24505e-11
-4.85124 -2.72757 -9.23861e-12
-3.24505e-11 -9.23861e-12 -0.927759

-1.72375 5.13269 -2.30153e-11
5.13269 -1.23181 -2.59942e-11
-2.30153e-11 -2.59942e-11 -0.997177

4.18608 5.23282 1.36722e-11
5.23282 4.58778 -2.02215e-11
1.36722e-11 -2.02215e-11 2.19064

-4.27128 -5.12868 1.54079e-11
-5.12868 3.76375 -3.6019e-11
1.54079e-11 -3.6019e-11 -0.0945885

-5.8488 -0.910651 -4.04436e-12
-0.910651 7.55723 3.82953e-13
-4.04436e-12 3.82953e-13 0.757679

14.8229 3.69632 2.75568e-11
3.69632 17.3899 2.23448e-11
2.75568e-11 2.23448e-11 14.5015

16.9302 3.82528 4.03585e-11
3.82528 14.9513 1.05843e-11
4.03585e-11 1.05843e-11 14.4291

6.69274 -4.43543 1.96732e-13
-4.43543 8.16938 -3.02303e-11
1.96732e-13 -3.02303e-11 5.03872

5.54818 -1.66232 -5.34432e-12
-1.66232 -6.57267 5.39389e-12
-5.34432e-12 5.39389e-12 -0.173207

-13.3829 -5.56414 7.32414e-12
-5.56414 -10.2054 2.61767e-11
7.32414e-12 2.61767e-11 -16.6715

-8.69822 5.7758 -5.74149e-11
5.7758 -17.1458 5.58264e-11
-5.74149e-11 5.58264e-11 -17.1214

-4.93965 5.6532 -1.57889e-11
5.6532 -4.8438 1.92398e-12
-1.57889e-11 1.92398e-12 -7.4718

-7.63113 -1.48125 -2.58011e-11
-1.48125 -10.7416 3.33147e-11
-2.58011e-11 3.33147e-11 -8.68163

3.10556 -0.0629738 4.52589e-11
-0.0629738 -8.1017 -1.11673e-11
4.52589e-11 -1.11673e-11 -0.517231

-6.37607 -7.40716 -6.35362e-12
-7.40716 1.66328 -5.77612e-12
-6.35362e-12 -5.77612e-12 -1.03327

-11.6602 7.7383 -4.77559e-11
7.7383 -2.26711 -2.31127e-11
-4.77559e-11 -2.31127e-11 -2.32621

11.9046 -3.60321 2.19594e-11
-3.60321 13.6277 1.44465e-11
2.19594e-11 1.44465e-11 11.2268

11.8272 4.64854 -2.3304e-11
4.64854 11.9106 -1.24221e-11
-2.3304e-11 -1.24221e-11 10.9059

6.40647 -1.67869 -1.25176e-11
-1.67869 13.9346 3.8143e-11
-1.25176e-11 3.8143e-11 8.75888

7.47954 -2.06538 1.96498e-11
-2.06538 13.7279 -1.54157e-11
1.96498e-11 -1.54157e-11 8.4105

14.4669 -1.44453 5.23828e-11
-1.44453 6.92197 -8.87505e-12
5.23828e-11 -8.87505e-12 8.79684

6.51311 5.46935 2.85142e-11
5.46935 5.46233 -4.85401e-11
2.85142e-11 -4.85401e-11 4.46346

7.2695 1.62998 4.81359e-12
1.62998 16.5022 1.61773e-11
4.81359e-12 1.61773e-11 11.0076

15.8066 0.359156 -1.63764e-11
0.359156 7.42498 -3.46522e-12
-1.63764e-11 -3.46522e-12 10.7883

-7.96585 -0.646886 1.48227e-11
-0.646886 0.767317 3.8507e-12
1.48227e-11 3.8507e-12 -5.91667

-8.29297 -2.37741 5.38399e-12
-2.37741 -5.18865 -4.64997e-11
5.38399e-12 -4.64997e-11 -6.90549

2.03293 -1.85092 3.4081e-11
-1.85092 -5.83033 2.02229e-11
3.4081e-11 2.02229e-11 -1.05859

1.69172 0.818578 -3.62039e-11
0.818578 -16.9238 4.6597e-11
-3.62039e-11 4.6597e-11 -2.41638

1.56064 -3.60645 3.23649e-11
-3.60645 8.98551 3.98743e-11
3.23649e-11 3.98743e-11 3.58371

0.787 -2.59685 1.98325e-11
-2.59685 8.55963 -5.78027e-12
1.98325e-11 -5.78027e-12 3.49286

3.82304 1.72837 1.05894e-11
1.72837 -7.70967 -5.27631e-11
1.05894e-11 -5.27631e-11 -0.304039

-7.23643 -1.71803 -2.36825e-11
-1.71803 -6.1487 2.77215e-11
-2.36825e-11 2.77215e-11 -6.87749

-5.0947 -0.0211991 5.28295e-11
-0.0211991 -7.97757 1.25111e-11
5.28295e-11 1.25111e-11 -6.97665

-0.808214 -3.64911 -3.6205e-11
-3.64911 -2.21268 -2.34877e-11
-3.6205e-11 -2.34877e-11 -1.15445

-3.20939 6.04349 -2.02163e-11
6.04349 -0.837997 1.1166e-11
-2.02163e-11 1.1166e-11 -0.52756

-3.92338 -6.35534 -1.50171e-11
-6.35534 2.89006 -2.9074e-11
-1.50171e-11 -2.9074e-11 -0.265283

2.54385 -1.64603 9.6619e-13
-1.64603 -9.59408 2.88826e-11
9.6619e-13 2.88826e-11 -1.36091

-5.96683 5.07473 -7.68977e-13
5.07473 0.960929 2.04122e-11
-7.68977e-13 2.04122e-11 -0.641962

-3.61076 -6.73336 -3.17692e-11
-6.73336 2.74742 -3.73547e-11
-3.17692e-11 -3.73547e-11 -0.206702

29.944 -7.53643 -2.60095e-11
-7.53643 30.4959 -1.96479e-11
-2.60095e-11 -1.96479e-11 30.8778

-5.51445 1.61213 -8.27568e-12
1.61213 7.55491 -1.14901e-12
-8.27568e-12 -1.14901e-12 0.788301

-3.02334 -1.46278 -4.81813e-12
-1.46278 5.43204 1.40605e-11
-4.81813e-12 1.40605e-11 0.589751

-10.8139 0.792765 -3.58046e-11
0.792765 2.73925 -1.92468e-12
-3.58046e-11 -1.92468e-12 -6.91957

-9.63514 -0.0891637 -6.81625e-11
-0.0891637 -7.44898 3.28277e-11
-6.81625e-11 3.28277e-11 -8.42992

3.05516 -0.309707 3.08124e-12
-0.309707 -10.5415 -2.88823e-11
3.08124e-12 -2.88823e-11 -2.21498

4.18387 0.497868 8.28082e-12
0.497868 -11.3893 9.43197e-12
8.28082e-12 9.43197e-12 -2.24465

-2.19542 7.25606 2.19511e-11
7.25606 -5.84176 2.46427e-11
2.19511e-11 2.46427e-11 -3.35851

-3.78039 -4.13746 -3.07628e-12
-4.13746 -6.70013 -5.15965e-11
-3.07628e-12 -5.15965e-11 -3.57293

-1.09842 2.65596 -1.1943e-11
2.65596 -4.86603 -1.65584e-11
-1.1943e-11 -1.65584e-11 -5.55196

-4.53393 -1.45012 7.31385e-12
-1.45012 -4.92691 3.65886e-11
7.31385e-12 3.65886e-11 -5.93913

-11.0264 3.02344 1.17992e-11
3.02344 -13.9794 1.23155e-11
1.17992e-11 1.23155e-11 -14.6342

-10.2727 -8.56694 -1.76211e-10
-8.56694 -6.4907 5.42061e-12
-1.76211e-10 5.42061e-12 -12.939

-7.41061 7.5527 -2.65722e-11
7.5527 0.361899 -1.90653e-11
-2.65722e-11 -1.90653e-11 -2.40678

-10.788 -9.3386 -2.35996e-12
-9.3386 -4.5428 -5.19897e-11
-2.35996e-12 -5.19897e-11 -3.14103

3.14633 4.04478 -2.88856e-11
4.04478 -2.58433 3.90961e-11
-2.88856e-11 3.90961e-11 0.0535813

-5.59323 3.21407 -1.4631e-11
3.21407 4.82789 3.35147e-11
-1.4631e-11 3.35147e-11 0.0558427

0.190281 -5.23418 -1.29958e-11
-5.23418 0.0302966 2.42673e-11
-1.29958e-11 2.42673e-11 0.455562

-1.9586 -4.01874 1.0975e-11
-4.01874 4.45671 -1.44437e-11
1.0975e-11 -1.44437e-11 0.414249

2.70202 -3.7647 -3.89001e-11
-3.7647 -3.15659 1.73317e-11
-3.89001e-11 1.73317e-11 0.0910684

-2.0266 4.47431 2.76845e-11
4.47431 4.92102 6.74275e-12
2.76845e-11 6.74275e-12 0.43285

1.24576 6.35781 -4.84279e-13
6.35781 1.56309 -3.54345e-11
-4.84279e-13 -3.54345e-11 0.590928

-7.8585 8.39093 1.79045e-11
8.39093 -4.21295 -3.42725e-11
1.79045e-11 -3.42725e-11 -3.03129

-6.4804 -6.24561 8.66551e-12
-6.24561 -1.20735 -4.33273e-11
8.66551e-12 -4.33273e-11 -2.36414

2.27133 3.83189 -1.55431e-15
3.83189 -5.81903 -1.69433e-11
-1.55431e-15 -1.69433e-11 -1.40806

-2.02178 2.82804 -7.29644e-11
2.82804 -3.62481 -6.27513e-11
-7.29644e-11 -6.27513e-11 -13.7984

-19.1121 2.70329 3.82712e-13
2.70329 -17.1376 -8.4998e-11
3.82712e-13 -8.4998e-11 -19.3471

-0.112943 -3.87343 -2.56111e-11
-3.87343 -5.70779 -2.13682e-11
-2.56111e-11 -2.13682e-11 -1.41533

0.258727 0.250695 -2.65746e-11
0.250695 -10.3747 -1.38602e-11
-2.65746e-11 -1.38602e-11 -4.07509

13.9125 -3.28925 5.19725e-12
-3.28925 16.4594 4.69993e-11
5.19725e-12 4.69993e-11 13.6903

15.9424 -2.70713 -1.54232e-12
-2.70713 13.1914 2.33959e-11
-1.54232e-12 2.33959e-11 13.1902

0.911876 0.301886 1.43685e-11
0.301886 -9.69985 -3.38896e-11
1.43685e-11 -3.38896e-11 -3.09753

2.78276 -0.447727 2.57075e-11
-0.447727 -10.5744 3.36913e-11
2.57075e-11 3.36913e-11 -3.01482

0.599834 0.780569 2.30715e-12
0.780569 -6.12102 1.54121e-12
2.30715e-12 1.54121e-12 -3.66037

-5.61127 -2.35728 -1.35569e-11
-2.35728 5.18434 -4.15981e-11
-1.35569e-11 -4.15981e-11 0.196114

7.8744 3.1385 3.33333e-12
3.1385 1.0492 4.67932e-11
3.33333e-12 4.67932e-11 2.17717

-4.22248 -4.89021 -1.98799e-11
-4.89021 -4.04129 -5.54579e-11
-1.98799e-11 -5.54579e-11 -2.42001

-3.49326 4.04749 3.7495e-11
4.04749 -0.514306 2.59902e-11
3.7495e-11 2.59902e-11 -2.03627

-5.47338 0.487352 3.19685e-11
0.487352 -0.643551 6.53246e-13
3.19685e-11 6.53246e-13 -13.9203

-10.6362 4.60515 1.38517e-11
4.60515 -21.0045 -8.64153e-11
1.38517e-11 -8.64153e-11 -18.4145

3.38375 -3.06756 -8.20373e-11
-3.06756 -2.79629 -7.69695e-12
-8.20373e-11 -7.69695e-12 0.214894

-0.182505 -0.131009 4.06379e-12
-0.131009 -6.47437 -3.94729e-11
4.06379e-12 -3.94729e-11 -3.31513

-1.26304 -1.08601 -3.35028e-11
-1.08601 -5.39881 5.35332e-11
-3.35028e-11 5.35332e-11 -3.129

-3.85564 -5.5461 -1.52154e-11
-5.5461 1.58299 5.46883e-11
-1.52154e-11 5.46883e-11 -0.909958

-7.22365 2.87407 2.29105e-11
2.87407 1.42083 -2.31095e-11
2.29105e-11 -2.31095e-11 -1.31294

-8.72217 5.31122 1.84835e-11
5.31122 -2.56776 -2.07981e-11
1.84835e-11 -2.07981e-11 -1.90309

-5.89835 -7.51604 2.25284e-11
-7.51604 1.87144 1.00139e-11
2.25284e-11 1.00139e-11 -0.952957

31.8867 9.6204 -7.32199e-12
9.6204 30.9971 -1.38715e-11
-7.32199e-12 -1.38715e-11 31.4426

-7.17983 5.51148 5.0037e-12
5.51148 -2.21394 -1.94453e-11
5.0037e-12 -1.94453e-11 -3.70388

-6.83889 -4.22282 4.52474e-11
-4.22282 -1.44641 3.38847e-11
4.52474e-11 3.38847e-11 -3.39582

-8.34224 5.03422 7.89742e-12
5.03422 0.580177 -2.69829e-12
7.89742e-12 -2.69829e-12 -1.27276

-6.04508 -6.35035 -1.31004e-11
-6.35035 1.67475 5.1611e-11
-1.31004e-11 5.1611e-11 -1.02293

7.47103 -2.99256 2.35056e-11
-2.99256 -0.329588 -4.54433e-11
2.35056e-11 -4.54433e-11 1.93779

-0.113764 5.44377 -1.25161e-11
5.44377 -3.51436 1.11656e-11
-1.25161e-11 1.11656e-11 -1.42969

-1.2057 5.83222 -2.04075e-11
5.83222 -5.41067 1.84786e-11
-2.04075e-11 1.84786e-11 -2.86597

-3.53002 -3.85985 2.32982e-11
-3.85985 -3.622 4.25581e-11
2.32982e-11 4.25581e-11 -2.89534

2.78585 3.66473 -1.88673e-11
3.66473 -10.2284 3.69714e-11
-1.88673e-11 3.69714e-11 -1.6969

-2.45595 0.710872 -9.00354e-12
0.710872 -6.6472 -4.23584e-11
-9.00354e-12 -4.23584e-11 -4.76822

-0.99921 -1.03875 2.61262e-11
-1.03875 -9.06345 1.54001e-11
2.61262e-11 1.54001e-11 -5.08356

-15.1058 1.23567 -1.0013e-11
1.23567 -7.37253 -3.98551e-11
-1.0013e-11 -3.98551e-11 -14.3349

-12.7497 -1.95032 -2.96452e-11
-1.95032 0.35347 -1.27022e-11
-2.96452e-11 -1.27022e-11 -12.8095

18.5134 -0.903033 7.71326e-12
-0.903033 12.8289 -3.04355e-11
7.71326e-12 -3.04355e-11 18.8485

10.8084 -0.188838 -1.63734e-11
-0.188838 18.4198 -1.50257e-11
-1.63734e-11 -1.50257e-11 18.5922

-5.13748 6.29453 3.03676e-12
6.29453 2.32198 4.23846e-12
3.03676e-12 4.23846e-12 -1.33008

-6.27729 -5.41996 5.79082e-11
-5.41996 -2.79429 1.65554e-11
5.79082e-11 1.65554e-11 -1.87838

19.7618 3.3832 -1.42542e-11
3.3832 19.4296 1.54112e-11
-1.42542e-11 1.54112e-11 21.7645

19.8655 4.37352 -2.30749e-12
4.37352 18.1066 -1.07868e-11
-2.30749e-12 -1.07868e-11 21.1805

-27.9214 -6.928 5.849e-11
-6.928 -5.93955 3.50329e-11
5.849e-11 3.50329e-11 -19.3866

-20.1144 5.16899 2.50232e-11
5.16899 -9.50616 8.39308e-11
2.50232e-11 8.39308e-11 -18.5682

-0.744506 6.61674 -6.93134e-12
6.61674 -3.65429 -2.57978e-11
-6.93134e-12 -2.57978e-11 -1.19762

-4.93835 6.03034 -2.94113e-11
6.03034 -0.500723 2.88822e-11
-2.94113e-11 2.88822e-11 -1.82417

-5.17255 -6.03753 6.58612e-11
-6.03753 -2.83565 -2.81237e-11
6.58612e-11 -2.81237e-11 -1.76365

-0.299353 6.08903 -2.25338e-11
6.08903 2.87075 -1.73346e-11
-2.25338e-11 -1.73346e-11 0.468106

-1.11138 -4.85921 -1.61794e-11
-4.85921 1.73616 2.85076e-11
-1.61794e-11 2.85076e-11 0.554849

6.13594 -0.770564 -1.29087e-11
-0.770564 13.7037 2.6971e-11
-1.29087e-11 2.6971e-11 8.42081

7.01676 -1.56329 -1.32927e-11
-1.56329 13.5095 7.70436e-12
-1.32927e-11 7.70436e-12 8.16759

14.3402 -0.662096 2.25241e-11
-0.662096 7.19655 -4.89377e-11
2.25241e-11 -4.89377e-11 8.65384

-3.12686 7.01881 3.84818e-12
7.01881 2.34665 -3.00418e-11
3.84818e-12 -3.00418e-11 -0.397246

-4.2572 -5.44219 -2.68691e-11
-5.44219 0.100961 -7.70436e-12
-2.68691e-11 -7.70436e-12 -0.497841

9.0781 1.08894 1.53992e-12
1.08894 16.5675 -4.23232e-12
1.53992e-12 -4.23232e-12 11.3608

16.5096 1.6812 -4.82725e-13
1.6812 9.37751 -1.90664e-11
-4.82725e-13 -1.90664e-11 11.5274

-6.85803 -6.95504 -2.77695e-11
-6.95504 -5.08719 2.23355e-11
-2.77695e-11 2.23355e-11 -3.27286

-6.56017 5.72906 -3.62482e-11
5.72906 -1.17948 -1.92418e-12
-3.62482e-11 -1.92418e-12 -3.06414

-6.95851 -6.15265 -2.56108e-11
-6.15265 -2.88535 -6.27676e-11
-2.56108e-11 -6.27676e-11 -3.39297

-6.79737 4.57587 -6.88338e-15
4.57587 -1.78594 -4.96816e-11
-6.88338e-15 -4.96816e-11 -3.61013

19.5768 -2.85819 -1.79173e-11
-2.85819 20.1998 7.74936e-13
-1.79173e-11 7.74936e-13 22.1741

19.537 -2.87479 7.31593e-12
-2.87479 20.1599 -1.58039e-11
7.31593e-12 -1.58039e-11 22.2531

-2.04687 5.54925 -3.87959e-11
5.54925 1.84705 4.15958e-11
-3.87959e-11 4.15958e-11 -0.472636

-2.58285 -5.0831 -3.64953e-11
-5.0831 -1.42631 1.00161e-11
-3.64953e-11 1.00161e-11 -0.693042

-8.93465 1.452 -1.34564e-12
1.452 -2.45915 -7.31563e-12
-1.34564e-12 -7.31563e-12 -8.85377

-10.5557 -0.821058 1.27044e-11
-0.821058 -9.3059 -3.0034e-11
1.27044e-11 -3.0034e-11 -10.1716

-10.2831 -6.38154 1.97768e-13
-6.38154 -1.67814 -2.96524e-11
1.97768e-13 -2.96524e-11 -3.44441

-8.37208 5.99598 -1.17909e-11
5.99598 0.474404 3.65874e-12
-1.17909e-11 3.65874e-12 -3.33254

-6.19288 -1.33535 2.29585e-11
-1.33535 -9.98858 2.69222e-12
2.29585e-11 2.69222e-12 -6.54301

-4.0273 0.13028 6.95236e-12
0.13028 -11.1704 3.2736e-12
6.95236e-12 3.2736e-12 -6.49472

-4.35968 5.90859 3.06161e-11
5.90859 -3.18608 8.86602e-12
3.06161e-11 8.86602e-12 -1.98382

-3.81419 -5.80207 2.61876e-11
-5.80207 -0.326256 4.467e-11
2.61876e-11 4.467e-11 -1.40268

-6.49995 1.78769 -2.12268e-11
1.78769 -12.8729 -1.24515e-11
-2.12268e-11 -1.24515e-11 -10.9243

-11.9577 0.531851 1.07388e-10
0.531851 -15.1799 -8.25961e-11
1.07388e-10 -8.25961e-11 -15.096

-9.50713 -1.60666 3.87357e-12
-1.60666 -11.0567 -2.44475e-11
3.87357e-12 -2.44475e-11 -11.068

-17.8275 -0.210347 5.02228e-11
-0.210347 -10.7616 5.77346e-12
5.02228e-11 5.77346e-12 -15.3178

-13.3647 1.03595 1.98215e-11
1.03595 0.238049 -9.35733e-11
1.98215e-11 -9.35733e-11 -10.8219

-3.73354 5.85917 2.38703e-11
5.85917 -8.03237 -1.65552e-11
2.38703e-11 -1.65552e-11 -10.6165

-9.12236 -2.29188 2.54152e-11
-2.29188 -12.2384 -4.25496e-11
2.54152e-11 -4.25496e-11 -12.1214

-14.5422 -1.37943 1.73025e-12
-1.37943 -6.42109 -1.61738e-11
1.73025e-12 -1.61738e-11 -11.9853

-16.5931 3.42904 9.42043e-11
3.42904 -12.5754 1.40356e-10
9.42043e-11 1.40356e-10 -15.8556

3.09593 3.48408 7.36845e-10
3.48408 -25.2046 -7.7093e-10
7.36845e-10 -7.7093e-10 -17.8765

0.246969 -2.29197 7.35702e-10
-2.29197 -1.39158 7.05224e-10
7.35702e-10 7.05224e-10 -13.8082

-11.9561 -7.88524 2.5708e-10
-7.88524 -5.20036 -4.14029e-10
2.5708e-10 -4.14029e-10 -13.3181

-9.88571 4.44773 -5.68064e-11
4.44773 -10.1927 -7.39294e-11
-5.68064e-11 -7.39294e-11 -11.8023

-7.88407 3.23198 5.51576e-11
3.23198 -2.87016 -1.271e-11
5.51576e-11 -1.271e-11 -6.11932

-15.0483 0.949755 -2.01991e-11
0.949755 -16.488 -7.31591e-11
-2.01991e-11 -7.31591e-11 -17.4695

-6.6793 -7.35878 -9.55874e-11
-7.35878 -9.16758 9.39653e-11
-9.55874e-11 9.39653e-11 -10.7073

-12.4225 -8.45411 -9.18918e-11
-8.45411 -5.07987 1.81111e-11
-9.18918e-11 1.81111e-11 -14.6931

-7.31284 -4.1313 4.21208e-11
-4.1313 -4.83068 -1.00119e-11
4.21208e-11 -1.00119e-11 -5.93079

-8.59824 -6.89371 1.44445e-11
-6.89371 -4.52224 -3.9283e-11
1.44445e-11 -3.9283e-11 -7.32502

-12.1986 -4.58505 -2.32447e-11
-4.58505 -7.83739 -6.6997e-11
-2.32447e-11 -6.6997e-11 -11.1354

-10.5997 2.8904 3.61468e-11
2.8904 -6.45761 8.66412e-12
3.61468e-11 8.66412e-12 -8.3741

-9.53811 1.73007 -4.8711e-11
1.73007 -9.86061 -3.13802e-11
-4.8711e-11 -3.13802e-11 -11.1315

-0.0577542 4.91811 1.92587e-11
4.91811 4.57364 2.31103e-11
1.92587e-11 2.31103e-11 1.5007

-4.06592 2.46698 2.6961e-11
2.46698 2.39972 -9.5269e-12
2.6961e-11 -9.5269e-12 -0.867893

-5.83419 2.11249 -1.23243e-11
2.11249 1.48144 3.65189e-12
-1.23243e-11 3.65189e-12 -1.18242

5.19165 2.79237 -1.96433e-11
2.79237 -6.66768 -7.15594e-12
-1.96433e-11 -7.15594e-12 0.0164264

7.30486 0.946633 5.3908e-12
0.946633 -4.39434 -5.09048e-12
5.3908e-12 -5.09048e-12 1.15484

-9.64121 1.51237 2.90673e-11
1.51237 -1.83479 7.71753e-13
2.90673e-11 7.71753e-13 -4.0861

-11.4753 3.48423 4.80633e-12
3.48423 -0.905129 -3.31195e-11
4.80633e-12 -3.31195e-11 -4.0541

7.7966 -1.11169 -1.88785e-11
-1.11169 -3.80426 2.03666e-11
-1.88785e-11 2.03666e-11 1.34318

1.20022 -2.2326 -1.73308e-11
-2.2326 -9.1019 6.49621e-12
-1.73308e-11 6.49621e-12 -1.63708

3.9955 4.47842 4.24098e-12
4.47842 8.64098 -1.68902e-12
4.24098e-12 -1.68902e-12 5.00578

4.80807 -4.47454 -2.6197e-11
-4.47454 9.22724 6.45484e-12
-2.6197e-11 6.45484e-12 5.67316

10.935 -4.10259 -9.63156e-12
-4.10259 3.40077 1.75046e-11
-9.63156e-12 1.75046e-11 5.42429

-7.08163 -4.21524 8.47252e-12
-4.21524 -1.75693 1.3527e-12
8.47252e-12 1.3527e-12 -3.52652

-4.59857 -2.91539 1.38683e-11
-2.91539 -1.41461 -7.79954e-12
1.38683e-11 -7.79954e-12 -3.24338

-4.38753 4.18994 1.81051e-11
4.18994 1.84825 -4.0461e-12
1.81051e-11 -4.0461e-12 -0.11173

-7.79531 5.04261 -4.23269e-12
5.04261 0.283039 7.98813e-12
-4.23269e-12 7.98813e-12 -1.18741

-11.1861 -3.26725 -2.07928e-11
-3.26725 -0.726718 5.00792e-12
-2.07928e-11 5.00792e-12 -4.03865

-10.2371 -0.954966 1.88721e-11
-0.954966 -1.84786 -4.23809e-12
1.88721e-11 -4.23809e-12 -4.20704

6.4119 1.28579 5.97019e-12
1.28579 -7.13894 9.98886e-12
5.97019e-12 9.98886e-12 -0.24108

2.70773 1.61158 -3.45846e-12
1.61158 10.1166 -9.81467e-12
-3.45846e-12 -9.81467e-12 4.13077

2.73639 -1.31668 -3.07591e-12
-1.31668 9.95138 2.16295e-11
-3.07591e-12 2.16295e-11 4.18573

12.4319 -1.13723 2.08019e-11
-1.13723 2.48852 2.00529e-11
2.08019e-11 2.00529e-11 4.5577

0.28499 5.65197 1.28148e-11
5.65197 2.08781 1.05942e-11
1.28148e-11 1.05942e-11 1.09836

8.19856 -3.75775 -1.73374e-11
-3.75775 -2.7244 3.26889e-11
-1.73374e-11 3.26889e-11 1.93819

1.87216 5.9875 -3.46427e-12
5.9875 -0.962768 2.14201e-11
-3.46427e-12 2.14201e-11 0.480422

-0.687398 4.77208 1.54173e-12
4.77208 5.71117 -5.39332e-12
1.54173e-12 -5.39332e-12 1.35158

4.72139 -2.36965 1.54203e-12
-2.36965 -7.48312 -1.57612e-11
1.54203e-12 -1.57612e-11 -0.256772

11.1069 3.14921 -1.19446e-11
3.14921 14.2849 -1.06433e-11
-1.19446e-11 -1.06433e-11 9.88883

3.01477 2.93819 1.57904e-11
2.93819 -9.12481 -3.20536e-12
1.57904e-11 -3.20536e-12 -1.18461

15.7754 -2.72184 5.2011e-11
-2.72184 10.2536 -2.09819e-11
5.2011e-11 -2.09819e-11 10.2429

-6.04214 -1.03658 -1.30936e-11
-1.03658 -1.93712 2.67631e-11
-1.30936e-11 2.67631e-11 -4.35746

-6.16011 1.83934 -1.00142e-11
1.83934 -1.77639 -1.73298e-11
-1.00142e-11 -1.73298e-11 -4.32363

-0.492977 -5.60047 -8.48088e-12
-5.60047 -10.2553 5.25562e-11
-8.48088e-12 5.25562e-11 -11.6027

-0.538737 5.79477 1.5783e-11
5.79477 -10.2976 -3.03241e-11
1.5783e-11 -3.03241e-11 -11.5222

11.7988 -1.49566 1.79125e-11
-1.49566 1.59936 4.40403e-12
1.79125e-11 4.40403e-12 4.64402

-1.83 6.54343 -1.54225e-12
6.54343 -2.37 -8.1856e-12
-1.54225e-12 -8.1856e-12 -0.702052

-0.136029 -3.39496 1.84868e-11
-3.39496 -6.66092 -2.62813e-11
1.84868e-11 -2.62813e-11 -4.56001

0.0270342 3.38259 -9.24209e-12
3.38259 -6.41154 7.31589e-12
-9.24209e-12 7.31589e-12 -4.27018

0.92386 1.17783 3.85199e-12
1.17783 -10.7658 1.98931e-11
3.85199e-12 1.98931e-11 -1.85829

-1.06872 5.39219 4.23084e-12
5.39219 5.75957 2.50355e-11
4.23084e-12 2.50355e-11 1.30468

6.95637 -4.66562 2.50361e-11
-4.66562 -0.908466 -4.5773e-12
2.50361e-11 -4.5773e-12 1.91098

1.69457 -0.289982 -1.62736e-11
-0.289982 -11.4423 -5.94032e-12
-1.62736e-11 -5.94032e-12 -1.5838

0.134582 -5.67242 -1.63778e-11
-5.67242 2.28013 -2.69496e-12
-1.63778e-11 -2.69496e-12 1.11437

-0.100512 -4.65119 -4.04526e-11
-4.65119 4.56257 -2.88451e-12
-4.04526e-11 -2.88451e-12 1.47806

-6.18785 5.31081 5.85661e-13
5.31081 2.44505 1.41529e-11
5.85661e-13 1.41529e-11 -0.939333

6.32148 -6.48806 1.54075e-11
-6.48806 1.58738 3.12269e-12
1.54075e-11 3.12269e-12 2.70315

30.5891 -4.9476 -4.08438e-11
-4.9476 27.7776 -4.54777e-12
-4.08438e-11 -4.54777e-12 29.314

30.7037 6.87268 7.70598e-12
6.87268 29.7669 4.2505e-11
7.70598e-12 4.2505e-11 30.0194

-11.1141 -6.34037 4.4283e-11
-6.34037 -0.960811 6.54521e-12
4.4283e-11 6.54521e-12 -2.91581

20.8462 0.901913 -2.31533e-12
0.901913 17.8117 -1.64088e-11
-2.31533e-12 -1.64088e-11 20.5109

17.8812 -1.66121 -1.9656e-11
-1.66121 16.9832 -1.58806e-12
-1.9656e-11 -1.58806e-12 19.3648

-6.31792 -1.48754 -3.96626e-11
-1.48754 -4.50684 4.19744e-11
-3.96626e-11 4.19744e-11 -5.22086

-6.26115 1.54438 -3.27292e-11
1.54438 -4.61631 6.19008e-11
-3.27292e-11 6.19008e-11 -5.22417

7.90917 -0.105609 -6.35543e-12
-0.105609 -8.40711 3.2423e-11
-6.35543e-12 3.2423e-11 -0.251062

-6.82265 -0.808107 -2.46465e-11
-0.808107 -7.40913 1.41998e-11
-2.46465e-11 1.41998e-11 -5.99026

-6.74061 0.888118 -2.58011e-11
0.888118 -7.392 6.83216e-12
-2.58011e-11 6.83216e-12 -5.96055

-4.56508 4.94581 7.71013e-13
4.94581 4.3051 7.99101e-12
7.71013e-13 7.99101e-12 0.0125096

-2.6008 -5.2422 -2.31101e-11
-5.2422 -8.57288 2.11744e-11
-2.31101e-11 2.11744e-11 -9.51333

-2.72952 5.26683 1.15156e-12
5.26683 -8.65191 -2.911e-11
1.15156e-12 -2.911e-11 -9.48884

-3.45887 -2.63045 9.82125e-12
-2.63045 -4.05035 -4.71475e-12
9.82125e-12 -4.71475e-12 -2.63659

-3.45782 2.65309 1.42502e-11
2.65309 -4.09164 -3.11896e-11
1.42502e-11 -3.11896e-11 -2.6433

11.4481 -4.47158 -3.04348e-11
-4.47158 3.3712 1.53157e-11
-3.04348e-11 1.53157e-11 6.04253

-14.2746 2.59939 2.65752e-11
2.59939 -1.78109 6.277e-11
2.65752e-11 6.277e-11 -9.62144

-11.0432 -0.498406 -3.35027e-11
-0.498406 -6.45117 4.13939e-11
-3.35027e-11 4.13939e-11 -10.0928

-1.03842 -5.45029 3.29311e-11
-5.45029 5.75172 1.75235e-11
3.29311e-11 1.75235e-11 1.29353

9.38905 -1.37123 -1.00201e-11
-1.37123 13.7109 5.74873e-12
-1.00201e-11 5.74873e-12 10.1211

15.3345 -1.41593 -3.15907e-11
-1.41593 7.8217 3.45057e-13
-3.15907e-11 3.45057e-13 10.3998

-6.75595 4.24698 -3.11935e-11
4.24698 2.8221 1.11697e-11
-3.11935e-11 1.11697e-11 -1.00774

-7.4732 4.23639 -2.00253e-11
4.23639 0.894156 -2.50311e-12
-2.00253e-11 -2.50311e-12 -1.19436

-13.4379 -4.21991 -1.8329e-10
-4.21991 -23.6805 -1.91435e-10
-1.8329e-10 -1.91435e-10 -21.0683

-13.2506 3.90185 -3.09965e-11
3.90185 -22.4897 -2.21926e-12
-3.09965e-11 -2.21926e-12 -20.7342

-9.01631 5.5588 -8.47209e-12
5.5588 -3.01875 -1.11706e-11
-8.47209e-12 -1.11706e-11 -2.00189

1.27959 1.69607 3.23529e-11
1.69607 -7.09283 1.30177e-12
3.23529e-11 1.30177e-12 -1.681

1.40762 -1.76361 4.37136e-11
-1.76361 -7.10383 -4.23691e-12
4.37136e-11 -4.23691e-12 -1.6543

-5.10918 7.45938 2.15681e-11
7.45938 -3.62265 1.64672e-11
2.15681e-11 1.64672e-11 -1.67883

-8.06958 -5.02416 -1.73283e-11
-5.02416 -0.482461 1.24219e-11
-1.73283e-11 1.24219e-11 -2.65408

11.5639 -0.0863496 9.63259e-12
-0.0863496 0.268378 -5.63516e-12
9.63259e-12 -5.63516e-12 4.46669

9.35416 0.107722 -5.41191e-11
0.107722 -3.67363 -1.91587e-11
-5.41191e-11 -1.91587e-11 1.33465

9.41137 3.35341 1.15374e-12
3.35341 -1.40775 -2.14552e-12
1.15374e-12 -2.14552e-12 2.60656

0.201388 5.57766 -1.65621e-11
5.57766 -9.59099 -7.22096e-12
-1.65621e-11 -7.22096e-12 -4.01528

-2.12687 -0.82824 3.54182e-11
-0.82824 -6.39043 -8.90606e-12
3.54182e-11 -8.90606e-12 -13.3085

-2.33496 0.823604 -3.081e-11
0.823604 -5.98528 4.1009e-11
-3.081e-11 4.1009e-11 -13.3597

7.36528 4.87439 -1.73319e-11
4.87439 6.81251 -1.98432e-11
-1.73319e-11 -1.98432e-11 4.70112

2.54118 -6.20985 -3.04274e-11
-6.20985 -2.79699 6.73602e-12
-3.04274e-11 6.73602e-12 0.206398

6.42382 -1.54297 5.58161e-12
-1.54297 -3.9516 2.80152e-11
5.58161e-12 2.80152e-11 0.314639

-13.8102 5.99553 7.35442e-11
5.99553 -3.09537 4.60153e-11
7.35442e-11 4.60153e-11 -11.8187

-13.0733 -1.57601 4.89014e-11
-1.57601 -11.022 1.73742e-12
4.89014e-11 1.73742e-12 -13.346

0.0362663 -5.45509 3.15798e-11
-5.45509 -9.24105 -4.04365e-11
3.15798e-11 -4.04365e-11 -4.24579

-5.81458 -1.57944 -3.36947e-11
-1.57944 1.71678 3.38921e-11
-3.36947e-11 3.38921e-11 -1.31578

-4.81182 -1.65222 3.13818e-11
-1.65222 2.25765 2.58874e-12
3.13818e-11 2.58874e-12 -1.14235

5.61222 -0.436187 3.6587e-12
-0.436187 -10.7611 -2.25757e-11
3.6587e-12 -2.25757e-11 -1.38579

5.69994 0.410749 -1.54084e-12
0.410749 -11.0023 2.32016e-11
-1.54084e-12 2.32016e-11 -1.4121

9.47674 4.20004 -1.25174e-12
4.20004 6.82083 1.92623e-11
-1.25174e-12 1.92623e-11 5.1488

1.36458 -0.333191 2.71982e-11
-0.333191 -10.3158 -6.16203e-12
2.71982e-11 -6.16203e-12 -3.05945

1.36283 0.302213 2.45315e-12
0.302213 -10.2404 -3.44228e-12
2.45315e-12 -3.44228e-12 -3.03247

6.57123 1.53116 2.06072e-11
1.53116 -4.04744 2.84019e-11
2.06072e-11 2.84019e-11 0.329606

-0.803083 -4.84981 -2.69196e-12
-4.84981 5.747 -2.12784e-11
-2.69196e-12 -2.12784e-11 1.31436

5.57353 -0.162725 1.92559e-11
-0.162725 -7.57602 -1.49224e-11
1.92559e-11 -1.49224e-11 -1.04862

5.63271 0.20645 1.34914e-12
0.20645 -7.76426 -1.44886e-11
1.34914e-12 -1.44886e-11 -1.07077

4.48545 -3.71877 3.0765e-12
-3.71877 -5.23801 -2.93784e-12
3.0765e-12 -2.93784e-12 -0.0592844

-6.1065 6.84516 3.84796e-12
6.84516 0.929374 -2.59933e-12
3.84796e-12 -2.59933e-12 -1.31873

5.93354 5.21044 9.62252e-12
5.21044 0.770383 -3.18242e-11
9.62252e-12 -3.18242e-11 2.04319

-7.50661 5.55469 1.65618e-11
5.55469 -4.19446 8.85796e-12
1.65618e-11 8.85796e-12 -2.10873

-6.13666 6.81077 -2.98453e-11
6.81077 1.8176 -1.24226e-11
-2.98453e-11 -1.24226e-11 -1.08822

8.81307 -2.64846 -1.349e-12
-2.64846 -2.62462 3.18497e-11
-1.349e-12 3.18497e-11 1.7874

1.22562 -6.08319 -1.48298e-11
-6.08319 -6.259 7.68718e-13
-1.48298e-11 7.68718e-13 -1.48997

4.95685 3.71374 -1.34834e-11
3.71374 -4.31142 5.77619e-12
-1.34834e-11 5.77619e-12 0.280649

3.68247 6.07766 4.91103e-12
6.07766 1.85169 -7.46174e-12
4.91103e-12 -7.46174e-12 2.01097

2.55559 6.24239 2.54177e-11
6.24239 -2.7614 3.79918e-13
2.54177e-11 3.79918e-13 0.251741

-8.39712 0.572057 6.15662e-12
0.572057 2.05206 4.71978e-12
6.15662e-12 4.71978e-12 -1.57324

-8.22717 0.201963 2.61897e-11
0.201963 2.00816 -1.03986e-11
2.61897e-11 -1.03986e-11 -1.58191

10.7266 4.39219 -1.68504e-11
4.39219 3.23432 2.7094e-11
-1.68504e-11 2.7094e-11 5.23727

-5.18457 -7.45228 2.77309e-11
-7.45228 -3.717 -9.04765e-12
2.77309e-11 -9.04765e-12 -1.71469

2.72109 -5.94107 1.56049e-11
-5.94107 5.66546 1.71898e-11
1.56049e-11 1.71898e-11 2.38787

2.65131 6.01464 -2.00287e-11
6.01464 5.99252 -4.61289e-11
-2.00287e-11 -4.61289e-11 2.4528

4.07256 -4.48353 1.27078e-11
-4.48353 -4.96368 2.2336e-11
1.27078e-11 2.2336e-11 -0.17391

1.47374 -2.96912 1.50232e-11
-2.96912 -14.3734 -4.053e-11
1.50232e-11 -4.053e-11 -3.2943

1.55402 2.99279 -1.30921e-11
2.99279 -13.519 3.93762e-11
-1.30921e-11 3.93762e-11 -3.03486

-1.75232 3.2905 -3.85954e-12
3.2905 5.58892 9.34038e-12
-3.85954e-12 9.34038e-12 1.45674

2.18691 -6.25604 -2.00337e-11
-6.25604 -0.832029 5.26172e-13
-2.00337e-11 5.26172e-13 0.563157

0.526839 -0.254689 -3.73596e-11
-0.254689 10.7628 -7.89413e-12
-3.73596e-11 -7.89413e-12 4.31925

0.587571 0.10147 -3.73659e-11
0.10147 10.8774 5.10384e-11
-3.73659e-11 5.10384e-11 4.40079

13.3047 0.316375 2.27309e-11
0.316375 0.412559 -1.21575e-11
2.27309e-11 -1.21575e-11 4.89879

9.26727 -4.35726 7.12571e-12
-4.35726 7.27074 -2.12319e-11
7.12571e-12 -2.12319e-11 5.19958

4.71153 5.29719 -2.38859e-11
5.29719 0.981762 -1.54802e-12
-2.38859e-11 -1.54802e-12 1.83352

-14.5394 -10.7741 5.31322e-11
-10.7741 -9.73362 -1.05812e-11
5.31322e-11 -1.05812e-11 -16.9458

-10.5246 4.6569 2.1869e-10
4.6569 -7.46302 1.00163e-11
2.1869e-10 1.00163e-11 -15.609

8.67586 2.41315 -1.92606e-11
2.41315 -2.82509 -1.53831e-11
-1.92606e-11 -1.53831e-11 1.65852

-4.33284 6.59222 -5.39008e-12
6.59222 3.49631 6.93031e-12
-5.39008e-12 6.93031e-12 -0.171226

8.04459 0.0966598 -8.85869e-12
0.0966598 -8.29442 -1.3925e-11
-8.85869e-12 -1.3925e-11 -0.198445

-1.93635 -3.18239 3.11976e-11
-3.18239 5.6515 -3.84284e-11
3.11976e-11 -3.84284e-11 1.41534

-13.3621 6.56408 -3.85414e-13
6.56408 -1.00039 -1.19367e-11
-3.85414e-13 -1.19367e-11 -3.14989

-7.56316 5.37464 -2.88833e-11
5.37464 0.0184767 -1.78139e-11
-2.88833e-11 -1.78139e-11 -2.30707

-6.0944 -6.82872 8.6667e-12
-6.82872 0.864103 -1.78124e-11
8.6667e-12 -1.78124e-11 -1.33806

-6.66885 6.89985 -5.77242e-13
6.89985 2.22699 1.87762e-11
-5.77242e-13 1.87762e-11 -1.1224

-5.53712 5.23212 2.42635e-11
5.23212 -0.348325 -1.92593e-11
2.42635e-11 -1.92593e-11 -0.707849

7.51965 0.0591717 3.75534e-11
0.0591717 -12.1499 1.85972e-11
3.75534e-11 1.85972e-11 -1.17767

5.35751 -5.22846 1.42563e-11
-5.22846 1.1854 7.03215e-12
1.42563e-11 7.03215e-12 2.06452

-7.61389 -5.58083 1.00126e-11
-5.58083 -4.26561 -3.56533e-12
1.00126e-11 -3.56533e-12 -2.15091

3.82038 -4.47246 1.42542e-11
-4.47246 4.20954 -3.20632e-11
1.42542e-11 -3.20632e-11 2.10787

7.43384 -4.33601 -3.15879e-11
-4.33601 7.55128 -8.69823e-13
-3.15879e-11 -8.69823e-13 5.26724

-2.08733 -6.45781 -2.27239e-11
-6.45781 -2.25285 1.87953e-12
-2.27239e-11 1.87953e-12 -0.737704

1.9862 -2.64839 1.91761e-12
-2.64839 9.74216 -1.61367e-11
1.91761e-12 -1.61367e-11 3.64022

1.91625 2.5124 -1.42544e-11
2.5124 9.77833 4.53129e-11
-1.42544e-11 4.53129e-11 3.605

10.8945 1.51545 4.27599e-11
1.51545 2.18727 -2.80355e-11
4.27599e-11 -2.80355e-11 4.01286

3.75329 4.66381 -3.63959e-11
4.66381 4.1713 -3.43387e-11
-3.63959e-11 -3.43387e-11 2.09362

-2.41131 0.824349 3.89038e-11
0.824349 6.01068 -3.49532e-11
3.89038e-11 -3.49532e-11 0.921575

-2.40579 -0.176828 4.00604e-11
-0.176828 5.9848 3.46626e-11
4.00604e-11 3.46626e-11 0.940416

5.8747 -5.10662 1.42579e-11
-5.10662 8.47166 2.16257e-12
1.42579e-11 2.16257e-12 5.2396

6.20435 5.11579 2.75367e-11
5.11579 8.54519 -1.32396e-11
2.75367e-11 -1.32396e-11 5.34767

7.62933 0.409938 -1.36715e-11
0.409938 -11.208 -9.07359e-12
-1.36715e-11 -9.07359e-12 -1.09223

7.73749 -0.388897 2.34948e-11
-0.388897 -11.3322 3.69655e-11
2.34948e-11 3.69655e-11 -1.0804

-4.31691 6.01013 4.23306e-12
6.01013 3.21505 -1.23243e-11
4.23306e-12 -1.23243e-11 -0.300617

-13.8874 -5.86067 1.92244e-12
-5.86067 -1.29495 2.59039e-11
1.92244e-12 2.59039e-11 -3.12451

-0.270351 6.61008 -2.92722e-11
6.61008 -4.36715 -1.14572e-11
-2.92722e-11 -1.14572e-11 -1.19896

13.2797 3.0677 -2.31135e-11
3.0677 5.13566 -2.1949e-11
-2.31135e-11 -2.1949e-11 7.65147

-1.91651 3.98768 -3.15762e-11
3.98768 7.58482 -1.33875e-11
-3.15762e-11 -1.33875e-11 1.68787

-2.49561 0.39342 -3.96637e-11
0.39342 -6.36714 -3.40333e-11
-3.96637e-11 -3.40333e-11 -3.64342

-2.49343 -0.351954 -4.42705e-12
-0.351954 -6.28936 -4.0438e-12
-4.42705e-12 -4.0438e-12 -3.63114

2.73029 3.85058 1.25211e-11
3.85058 0.196379 2.72994e-11
1.25211e-11 2.72994e-11 0.50726

1.7364 -2.38078 1.38658e-11
-2.38078 -2.4737 -1.6078e-11
1.38658e-11 -1.6078e-11 -0.770761

1.71459 2.42652 1.69439e-11
2.42652 -2.46911 -1.46319e-11
1.69439e-11 -1.46319e-11 -0.774228

17.402 -2.41455 -8.09846e-12
-2.41455 11.94 -3.8889e-11
-8.09846e-12 -3.8889e-11 18.4852

10.4498 3.04359 -1.50265e-11
3.04359 16.0814 2.25888e-11
-1.50265e-11 2.25888e-11 18.2047

-2.25203 -3.91875 -1.16033e-12
-3.91875 7.48865 -1.81061e-11
-1.16033e-12 -1.81061e-11 1.5867

-8.21166 -0.883715 5.06334e-11
-0.883715 -11.0634 -9.25101e-11
5.06334e-11 -9.25101e-11 -10.4778

-8.14482 1.00709 1.84872e-11
1.00709 -10.9469 -5.40989e-11
1.84872e-11 -5.40989e-11 -10.4266

13.7977 2.63691 1.50255e-11
2.63691 4.96005 -1.2642e-11
1.50255e-11 -1.2642e-11 7.80473

-7.88647 -3.24828 -2.19469e-11
-3.24828 1.80122 2.97518e-11
-2.19469e-11 2.97518e-11 -1.26954

-6.88022 -3.17035 2.3875e-11
-3.17035 2.48459 2.69488e-12
2.3875e-11 2.69488e-12 -1.22756

4.32391 -6.38537 2.31134e-11
-6.38537 3.09626 7.80043e-12
2.31134e-11 7.80043e-12 2.4993

-6.61381 -6.94355 2.50411e-12
-6.94355 2.20373 -9.14693e-12
2.50411e-12 -9.14693e-12 -1.12498

-11.9444 8.28416 2.50355e-11
8.28416 -2.75774 7.70221e-12
2.50355e-11 7.70221e-12 -2.33804

-4.81945 3.75263 3.84433e-13
3.75263 -2.06032 -1.58851e-11
3.84433e-13 -1.58851e-11 -3.41874

-7.23267 5.17961 5.16002e-11
5.17961 -2.30873 4.71408e-12
5.16002e-11 4.71408e-12 -3.64346

-4.45723 -6.06979 4.62112e-12
-6.06979 3.19197 -2.16661e-11
4.62112e-12 -2.16661e-11 -0.344084

-2.60533 6.37221 -1.80985e-11
6.37221 -1.79397 2.11912e-12
-1.80985e-11 2.11912e-12 -0.524346

2.65557 -3.9093 -2.29191e-11
-3.9093 0.224037 2.11579e-12
-2.29191e-11 2.11579e-12 0.490036

8.2053 4.66567 2.04228e-11
4.66567 -1.10183 4.57197e-12
2.04228e-11 4.57197e-12 2.5167

9.17747 -0.143059 -2.02244e-11
-0.143059 -3.81817 -7.10543e-13
-2.02244e-11 -7.10543e-13 1.26316

-6.69079 7.23984 2.25266e-11
7.23984 1.9163 -1.68465e-11
2.25266e-11 -1.68465e-11 -1.04046

-4.70307 -4.36077 -3.35076e-11
-4.36077 1.77598 4.87302e-11
-3.35076e-11 4.87302e-11 -0.202651

-4.22848 1.59173 -2.81092e-11
1.59173 5.52869 2.84199e-11
-2.81092e-11 2.84199e-11 0.649121

-1.71375 4.46434 -1.44429e-11
4.46434 -1.78873 -3.32191e-11
-1.44429e-11 -3.32191e-11 -1.02682

-3.98972 1.97734 -4.6599e-11
1.97734 6.10431 2.88303e-12
-4.6599e-11 2.88303e-12 0.677587

-6.7938 -5.59108 -2.23324e-11
-5.59108 0.652888 -7.98828e-12
-2.23324e-11 -7.98828e-12 -1.9169

15.5698 -3.13684 -2.4643e-11
-3.13684 16.2451 -7.25754e-11
-2.4643e-11 -7.25754e-11 14.7333

18.4679 -3.15687 4.27702e-11
-3.15687 13.8239 -4.49722e-12
4.27702e-11 -4.49722e-12 14.9894

6.21684 -1.26148 7.22296e-12
-1.26148 -7.12057 -2.24972e-11
7.22296e-12 -2.24972e-11 -0.280601

-1.74003 -4.47548 -1.30942e-11
-4.47548 -1.83794 -1.73824e-12
-1.30942e-11 -1.73824e-12 -1.04303

-8.41907 -5.98847 -1.36504e-10
-5.98847 -19.0153 4.83344e-11
-1.36504e-10 4.83344e-11 -17.5254

-8.22178 5.73592 6.98898e-11
5.73592 -18.5233 6.47884e-11
6.98898e-11 6.47884e-11 -17.3576

-4.48272 -6.50206 7.69917e-12
-6.50206 3.37832 -1.83906e-11
7.69917e-12 -1.83906e-11 -0.251308

-4.8555 -5.5731 -2.88805e-11
-5.5731 -4.81376 1.9162e-11
-2.88805e-11 1.9162e-11 -7.4466

-4.93553 5.66422 -2.65719e-11
5.66422 -4.75866 -4.51497e-11
-2.65719e-11 -4.51497e-11 -7.33144

3.60883 1.22543 7.31711e-12
1.22543 -7.74022 -3.23827e-11
7.31711e-12 -3.23827e-11 -0.485427

-12.1193 -8.29469 9.24224e-12
-8.29469 -2.98673 4.71586e-12
9.24224e-12 4.71586e-12 -2.40937

12.9886 -3.73495 -9.43719e-12
-3.73495 12.6446 -2.83438e-11
-9.43719e-12 -2.83438e-11 11.5657

13.4212 3.74902 -8.08775e-12
3.74902 10.7664 4.64081e-12
-8.08775e-12 4.64081e-12 10.9

8.12266 -2.78412 -2.40754e-11
-2.78412 13.3615 9.34379e-12
-2.40754e-11 9.34379e-12 8.73251

7.44073 2.58929 2.38859e-11
2.58929 13.5587 -3.95328e-12
2.38859e-11 -3.95328e-12 8.69869

14.7402 1.59555 -5.20113e-11
1.59555 6.71216 -2.20564e-14
-5.20113e-11 -2.20564e-14 8.95547

-6.63942 -7.29584 -5.1991e-12
-7.29584 2.04401 9.53408e-12
-5.1991e-12 9.53408e-12 -1.01258

8.10491 0.829402 6.16749e-12
0.829402 15.2578 -7.77763e-12
6.16749e-12 -7.77763e-12 10.7841

17.2204 -0.902716 3.42909e-11
-0.902716 8.18436 7.4384e-12
3.42909e-11 7.4384e-12 11.4262

-10.7722 -2.3004 4.35077e-11
-2.3004 -1.55997 3.466e-11
4.35077e-11 3.466e-11 -6.53597

-7.13174 -0.141519 6.16359e-12
-0.141519 -4.49351 -5.02499e-11
6.16359e-12 -5.02499e-11 -6.56188

2.85706 3.62402 -3.08235e-12
3.62402 -5.76701 -2.72925e-11
-3.08235e-12 -2.72925e-11 -1.07097

1.82596 -0.256711 2.31093e-12
-0.256711 -15.685 1.75582e-12
2.31093e-12 1.75582e-12 -2.34422

1.92879 3.68042 3.23533e-11
3.68042 8.66695 -3.27827e-12
3.23533e-11 -3.27827e-12 3.5362

1.85007 -3.85144 2.09949e-11
-3.85144 8.65493 3.9776e-11
2.09949e-11 3.9776e-11 3.5423

4.28551 -0.690236 2.50355e-11
-0.690236 -7.53403 -3.0188e-11
2.50355e-11 -3.0188e-11 -0.298073

-4.74591 -4.9327 -1.88762e-11
-4.9327 4.40845 1.04004e-11
-1.88762e-11 1.04004e-11 -0.0262502

-4.68727 0.51587 6.93268e-12
0.51587 -9.02461 1.41006e-11
6.93268e-12 1.41006e-11 -7.10641

-4.71554 -0.445926 4.38996e-11
-0.445926 -8.99687 -3.10936e-11
4.38996e-11 -3.10936e-11 -7.09466

0.301539 5.50654 3.84418e-12
5.50654 -3.55428 -2.85001e-11
3.84418e-12 -2.85001e-11 -1.21542

-2.7686 -6.21475 -2.54191e-11
-6.21475 -1.8535 9.53245e-12
-2.54191e-11 9.53245e-12 -0.567808

3.3625 3.30461 8.47404e-12
3.30461 -9.42977 2.69077e-11
8.47404e-12 2.69077e-11 -1.35772

8.18526 4.86792 -1.27055e-11
4.86792 4.39397 -4.17007e-11
-1.27055e-11 -4.17007e-11 4.62074

-5.53274 -5.38724 5.77908e-13
-5.38724 -0.1809 2.41685e-11
5.77908e-13 2.41685e-11 -0.684175

31.1972 8.37735 -3.85314e-11
8.37735 29.3625 2.4188e-11
-3.85314e-11 2.4188e-11 31.087

-4.01091 -1.18976 3.04243e-11
-1.18976 5.40895 -1.35813e-11
3.04243e-11 -1.35813e-11 0.646467

-3.70207 -1.77128 -1.07836e-11
-1.77128 5.87461 3.9288e-11
-1.07836e-11 3.9288e-11 0.699357

-11.4719 2.45282 5.77862e-12
2.45282 -2.82292 -2.50585e-12
5.77862e-12 -2.50585e-12 -7.77534

-10.1773 -3.66796 2.31767e-12
-3.66796 -3.98067 -4.71674e-11
2.31767e-12 -4.71674e-11 -7.77608

4.97484 -0.194537 1.34744e-12
-0.194537 -12.2356 5.24551e-12
1.34744e-12 5.24551e-12 -2.37171

5.01006 0.181667 -3.46621e-11
0.181667 -12.3124 -4.63536e-11
-3.46621e-11 -4.63536e-11 -2.35932

-1.98508 -7.19383 2.69584e-12
-7.19383 -6.00039 -1.01096e-11
2.69584e-12 -1.01096e-11 -3.3417

-1.56961 7.25602 -3.85025e-13
7.25602 -6.55661 -2.02283e-12
-3.85025e-13 -2.02283e-12 -3.21675

-1.06158 -2.62107 -4.19724e-11
-2.62107 -4.93663 -2.0595e-11
-4.19724e-11 -2.0595e-11 -5.53825

-1.17492 2.61505 -3.1963e-11
2.61505 -4.84673 2.20425e-11
-3.1963e-11 2.20425e-11 -5.48981

-11.1016 -2.28814 1.52125e-11
-2.28814 -15.767 -9.72178e-12
1.52125e-11 -9.72178e-12 -15.0556

-10.9826 2.46271 7.12563e-12
2.46271 -15.3567 -2.7145e-11
7.12563e-12 -2.7145e-11 -14.9126

-7.38945 -6.88502 1.54136e-12
-6.88502 -0.409341 -4.81286e-13
1.54136e-12 -4.81286e-13 -2.3133

-7.36284 6.84959 -8.27834e-12
6.84959 -0.464705 1.18423e-11
-8.27834e-12 1.18423e-11 -2.33711

3.23824 -3.57073 -2.4077e-11
-3.57073 -3.12553 1.98813e-11
-2.4077e-11 1.98813e-11 -0.0181009

-3.95251 -3.01651 -3.73575e-11
-3.01651 3.2853 6.16303e-11
-3.73575e-11 6.16303e-11 0.133421

1.00795 5.80557 8.27679e-12
5.80557 0.942285 -4.90978e-12
8.27679e-12 -4.90978e-12 0.494938

-3.32348 -4.22966 -1.9263e-12
-4.22966 4.86404 1.91632e-11
-1.9263e-12 1.91632e-11 0.322576

9.57054 -4.49707 -1.91536e-12
-4.49707 6.12549 2.43172e-11
-1.91536e-12 2.43172e-11 5.51542

3.31975 3.52488 1.65639e-11
3.52488 -3.09488 -7.60666e-12
1.65639e-11 -7.60666e-12 0.0189556

-3.49122 2.99917 -2.76743e-11
2.99917 3.38992 1.19461e-11
-2.76743e-11 1.19461e-11 0.269091

-7.94887 -8.55993 -3.42733e-11
-8.55993 -4.53905 1.35799e-11
-3.42733e-11 1.35799e-11 -3.0501

-7.93012 8.5658 2.65737e-11
8.5658 -4.59777 8.66807e-12
2.65737e-11 8.66807e-12 -3.063

2.42158 -3.4429 -1.03969e-11
-3.4429 -6.10304 1.73756e-11
-1.03969e-11 1.73756e-11 -1.47319

-10.1796 -6.40777 3.77523e-11
-6.40777 -4.81707 -1.32249e-10
3.77523e-11 -1.32249e-10 -15.1703

-14.3113 6.55721 -8.20124e-11
6.55721 -18.3908 7.04425e-11
-8.20124e-11 7.04425e-11 -18.6133

-4.31115 -4.84979 -1.19372e-11
-4.84979 2.32552 8.85588e-12
-1.19372e-11 8.85588e-12 -0.813781

1.37744 6.05792 -1.29034e-11
6.05792 -5.87236 -2.07024e-11
-1.29034e-11 -2.07024e-11 -1.21307

0.479231 0.390607 2.11779e-11
0.390607 -6.34452 -1.88674e-11
2.11779e-11 -1.88674e-11 -3.62872

0.974023 -5.67725 -2.54199e-11
-5.67725 1.21512 8.18782e-12
-2.54199e-11 8.18782e-12 0.535821

14.9107 3.63482 2.35137e-11
3.63482 16.2249 2.09992e-11
2.35137e-11 2.09992e-11 13.7442

16.6 3.59474 -1.42517e-11
3.59474 13.0089 2.37874e-11
-1.42517e-11 2.37874e-11 13.4635

3.50489 0.71576 -1.44434e-11
0.71576 -11.3831 -2.91915e-13
-1.44434e-11 -2.91915e-13 -3.09992

3.38242 -0.722522 -6.12348e-11
-0.722522 -11.4271 -1.8267e-11
-6.12348e-11 -1.8267e-11 -3.11446

0.573023 -0.633961 1.54082e-11
-0.633961 -6.09059 -5.02069e-11
1.54082e-11 -5.02069e-11 -3.70687

-3.09179 4.0283 -1.24682e-11
4.0283 4.7837 3.41811e-11
-1.24682e-11 3.41811e-11 0.362192

8.20968 -2.83603 -4.57027e-12
-2.83603 0.674819 -2.46474e-11
-4.57027e-12 -2.46474e-11 2.17045

-3.33382 -3.44421 2.94584e-11
-3.44421 -1.30196 4.04388e-11
2.94584e-11 4.04388e-11 -2.0639

-3.31721 3.44915 4.81148e-12
3.44915 -1.29722 -3.13842e-11
4.81148e-12 -3.13842e-11 -2.05913

-5.44313 -0.473347 -3.388e-11
-0.473347 -0.621224 -5.37268e-11
-3.388e-11 -5.37268e-11 -13.8942

-5.40008 0.466735 -2.81071e-11
0.466735 -0.732755 4.36943e-11
-2.81071e-11 4.36943e-11 -13.8621

-6.57442 -5.87995 -1.75222e-11
-5.87995 2.22201 -2.98539e-12
-1.75222e-11 -2.98539e-12 -0.992509

4.52806 4.65902 2.85039e-11
4.65902 -4.06533 6.16233e-12
2.85039e-11 6.16233e-12 0.184888

0.302966 -0.569727 -2.40659e-11
-0.569727 -7.41916 -3.19147e-11
-2.40659e-11 -3.19147e-11 -3.39604

0.31528 0.621021 1.92439e-13
0.621021 -7.43344 -5.34062e-12
1.92439e-13 -5.34062e-12 -3.4039

-7.36195 -3.735 2.81105e-11
-3.735 -0.247757 -5.97063e-12
2.81105e-11 -5.97063e-12 -1.48053

-8.92896 -5.96663 -2.58028e-11
-5.96663 -3.18022 1.55982e-11
-2.58028e-11 1.55982e-11 -1.87543

31.1363 -8.68974 8.09012e-12
-8.68974 31.3985 -2.31274e-12
8.09012e-12 -2.31274e-12 31.4206

-7.13298 -5.57307 -3.15749e-11
-5.57307 -2.30379 -1.28936e-11
-3.15749e-11 -1.28936e-11 -3.67938

-7.04645 5.62214 1.50167e-11
5.62214 -2.33128 2.58986e-11
1.50167e-11 2.58986e-11 -3.63432

-8.05405 -5.73596 -3.31201e-11
-5.73596 -0.903383 -1.79078e-11
-3.31201e-11 -1.79078e-11 -1.35328

8.22063 3.00772 -2.29156e-11
3.00772 0.470557 -3.47121e-11
-2.29156e-11 -3.47121e-11 2.07731

0.463 -5.28661 -5.97041e-12
-5.28661 -3.91154 5.48983e-12
-5.97041e-12 5.48983e-12 -1.38862

-1.07578 -5.86934 -3.82435e-13
-5.86934 -5.75062 -3.16734e-11
-3.82435e-13 -3.16734e-11 -2.87873

-0.780435 5.72726 7.70066e-12
5.72726 -5.85811 1.40544e-11
7.70066e-12 1.40544e-11 -2.7954

3.06488 -3.28187 -1.34839e-11
-3.28187 -10.0272 1.70888e-11
-1.34839e-11 1.70888e-11 -1.66483

-0.418727 1.43619 -2.21437e-11
1.43619 -10.1381 2.78836e-12
-2.21437e-11 2.78836e-12 -5.23726

-0.472697 -1.40903 -6.6621e-11
-1.40903 -10.0204 2.185e-11
-6.6621e-11 2.185e-11 -5.20961

-15.9723 -2.27664 -1.15754e-12
-2.27664 -3.8385 2.94662e-11
-1.15754e-12 2.94662e-11 -13.82

-13.6346 4.96909 6.54493e-11
4.96909 -4.72358 -3.25378e-11
6.54493e-11 -3.25378e-11 -13.4797

18.9773 0.738381 -9.24253e-12
0.738381 10.4405 -5.6863e-11
-9.24253e-12 -5.6863e-11 18.8472

13.1518 1.3813 2.69672e-11
1.3813 17.3381 -3.11039e-11
2.69672e-11 -3.11039e-11 18.9514

-5.19616 5.48965 -2.23339e-11
5.48965 1.44419 2.38787e-11
-2.23339e-11 2.38787e-11 -1.3688

-5.17871 -5.49301 1.27062e-11
-5.49301 1.46861 1.68492e-11
1.27062e-11 1.68492e-11 -1.35926

-6.43065 -7.01352 -6.54776e-12
-7.01352 2.11038 1.02067e-11
-6.54776e-12 1.02067e-11 -1.0034

19.196 -3.66452 1.27199e-11
-3.66452 18.4595 -4.9011e-11
1.27199e-11 -4.9011e-11 21.3358

20.0383 -3.0253 -6.16528e-11
-3.0253 18.8571 -6.21603e-12
-6.16528e-11 -6.21603e-12 21.6522

-19.6999 4.83966 9.23873e-11
4.83966 -10.0454 -1.37079e-10
9.23873e-11 -1.37079e-10 -18.6826

-19.8314 -5.0871 -4.25996e-12
-5.0871 -10.5573 1.97441e-10
-4.25996e-12 1.97441e-10 -18.8135

-0.406844 -6.64759 -1.54049e-11
-6.64759 -4.40506 -1.62696e-11
-1.54049e-11 -1.62696e-11 -1.25193

-0.512564 -5.37109 1.54017e-11
-5.37109 2.80466 3.85119e-11
1.54017e-11 3.85119e-11 0.5154

-4.92868 5.29224 -6.12318e-11
5.29224 -1.08082 -2.61878e-11
-6.12318e-11 -2.61878e-11 -1.81969

-4.92758 -5.29003 -1.4821e-11
-5.29003 -1.09021 -2.78255e-11
-1.4821e-11 -2.78255e-11 -1.82003

-3.43002 -6.25013 1.94441e-11
-6.25013 1.85066 -1.30023e-11
1.94441e-11 -1.30023e-11 -0.436093

-0.379688 5.44596 8.08716e-12
5.44596 2.73595 -1.13542e-11
8.08716e-12 -1.13542e-11 0.530574

7.22345 -2.00274 -1.54352e-12
-2.00274 12.8879 4.79128e-11
-1.54352e-12 4.79128e-11 8.29481

7.61533 1.68441 -6.93833e-12
1.68441 13.5996 -2.21778e-12
-6.93833e-12 -2.21778e-12 8.60158

14.227 1.44102 4.23631e-12
1.44102 7.02469 -3.4781e-11
4.23631e-12 -3.4781e-11 8.69561

-3.36763 6.23466 4.04373e-12
6.23466 1.86959 1.63366e-12
4.04373e-12 1.63366e-12 -0.416942

9.76957 -0.946741 -5.7776e-12
-0.946741 15.9313 -2.13872e-11
-5.7776e-12 -2.13872e-11 11.6753

16.9201 -0.569074 -1.61826e-11
-0.569074 8.04109 -8.09595e-12
-1.61826e-11 -8.09595e-12 11.5999

-6.5788 -5.11485 -3.84937e-12
-5.11485 -1.96274 5.00785e-12
-3.84937e-12 5.00785e-12 -3.07988

-6.51976 5.08948 2.69532e-11
5.08948 -1.94826 -1.28039e-11
2.69532e-11 -1.28039e-11 -3.06647

-6.80079 -3.8861 1.29022e-11
-3.8861 -2.58541 8.27716e-12
1.29022e-11 8.27716e-12 -3.66247

-6.76612 3.88519 2.69555e-11
3.88519 -2.68672 -2.17563e-11
2.69555e-11 -2.17563e-11 -3.67562

20.8873 3.36635 2.87143e-11
3.36635 18.8495 -5.85175e-11
2.87143e-11 -5.85175e-11 22.4214

20.7844 3.21106 6.17092e-12
3.21106 19.2458 3.60256e-11
6.17092e-12 3.60256e-11 22.565

-2.00847 4.86022 -2.49941e-12
4.86022 1.33129 5.3928e-12
-2.49941e-12 5.3928e-12 -0.458271

-2.00011 -4.8925 -6.36062e-12
-4.8925 1.37708 6.06308e-12
-6.36062e-12 6.06308e-12 -0.448148

-11.3238 -4.7052 -6.16035e-11
-4.7052 -4.62789 6.93216e-12
-6.16035e-11 6.93216e-12 -9.34277

-9.90411 2.11983 -2.00248e-11
2.11983 -8.78235 -3.25386e-11
-2.00248e-11 -3.25386e-11 -9.906

-8.34113 -5.27302 -1.79077e-11
-5.27302 -0.363225 -2.88794e-12
-1.79077e-11 -2.88794e-12 -3.30033

-8.37823 5.27569 1.25135e-11
5.27569 -0.543833 -1.41503e-11
1.25135e-11 -1.41503e-11 -3.36208

-3.60559 0.338504 -1.02012e-11
0.338504 -12.1165 5.37131e-11
-1.02012e-11 5.37131e-11 -6.61718

-3.61536 -0.289276 3.77423e-11
-0.289276 -12.0692 -4.65901e-11
3.77423e-11 -4.65901e-11 -6.59782

-4.02137 -5.97416 6.16499e-12
-5.97416 -3.48145 -3.61039e-11
6.16499e-12 -3.61039e-11 -1.93358

-3.80233 6.05054 2.61884e-11
6.05054 -3.65413 2.31389e-12
2.61884e-11 2.31389e-12 -1.92126

-6.10805 1.45552 -6.62336e-11
1.45552 -13.7758 3.13737e-11
-6.62336e-11 3.13737e-11 -11.1072

-11.6309 0.253288 7.48939e-11
0.253288 -16.2736 -9.90482e-11
7.48939e-11 -9.90482e-11 -15.3187

-6.10809 -1.47592 1.15548e-12
-1.47592 -13.7523 -2.73398e-11
1.15548e-12 -2.73398e-11 -11.1032

-11.6499 -0.40008 -3.89614e-13
-0.40008 -16.5576 -6.29558e-11
-3.89614e-13 -6.29558e-11 -15.3795

-13.4988 0.245226 -2.69129e-12
0.245226 -6.96613 3.00344e-11
-2.69129e-12 3.00344e-11 -11.9104

-3.73516 5.87054 1.96364e-11
5.87054 -8.05887 6.38227e-11
1.96364e-11 6.38227e-11 -10.5713

-3.72054 -5.84772 -1.92239e-12
-5.84772 -8.03329 -3.20577e-11
-1.92239e-12 -3.20577e-11 -10.592

-16.0972 -3.14644 3.9669e-11
-3.14644 -0.937776 -5.69954e-11
3.9669e-11 -5.69954e-11 -11.1488

-16.3937 -2.77438 6.58555e-11
-2.77438 -14.7646 -8.08643e-11
6.58555e-11 -8.08643e-11 -16.2865

3.34139 -4.02078 1.54975e-09
-4.02078 -29.5868 8.05789e-10
1.54975e-09 8.05789e-10 -18.8432

-16.6798 2.92173 8.74042e-11
2.92173 -14.2423 2.16513e-10
8.74042e-11 2.16513e-10 -16.1618

3.3967 3.71778 -3.71242e-10
3.71778 -28.3648 6.29438e-11
-3.71242e-10 6.29438e-11 -18.4903

-9.81021 -3.80315 -6.83455e-11
-3.80315 -11.4115 -8.66142e-12
-6.83455e-11 -8.66142e-12 -11.9962

-7.87465 -2.65545 -5.17909e-11
-2.65545 -3.84597 -2.13728e-11
-5.17909e-11 -2.13728e-11 -6.17762

-15.2888 -0.222458 -8.85677e-12
-0.222458 -19.0208 6.57479e-11
-8.85677e-12 6.57479e-11 -18.1117

-9.94045 3.99214 2.4838e-11
3.99214 -11.3407 3.12853e-11
2.4838e-11 3.12853e-11 -11.9688

-7.82486 2.74601 -7.39334e-11
2.74601 -4.01977 -2.8979e-11
-7.39334e-11 -2.8979e-11 -6.20803

-15.1791 0.250675 4.23568e-11
0.250675 -18.2776 1.17444e-11
4.23568e-11 1.17444e-11 -17.8647

-10.6865 -2.19284 -1.40572e-11
-2.19284 -7.47539 1.40531e-11
-1.40572e-11 1.40531e-11 -8.54623

-9.35225 -1.2314 4.92874e-11
-1.2314 -11.0443 2.52167e-11
4.92874e-11 2.52167e-11 -11.3435

-10.5783 2.29607 -5.89158e-11
2.29607 -7.46329 -1.81979e-11
-5.89158e-11 -1.81979e-11 -8.50378

-9.28639 1.28684 5.19917e-12
1.28684 -10.9916 -1.25153e-11
5.19917e-12 -1.25153e-11 -11.296

0.216674 5.17536 2.00245e-11
5.17536 6.19637 -1.61788e-11
2.00245e-11 -1.61788e-11 1.60444

-7.2136 1.04572 7.70925e-13
1.04572 3.79482 2.65742e-11
7.70925e-13 2.65742e-11 -1.11746

-2.60551 2.78573 1.81012e-11
2.78573 1.7096 -3.46523e-12
1.81012e-11 -3.46523e-12 -0.828978

4.68603 -3.3885 -2.81143e-11
-3.3885 -6.5736 -1.9644e-11
-2.81143e-11 -1.9644e-11 -0.019522

6.51282 -2.0713 -2.17601e-11
-2.0713 -3.76094 -3.46375e-12
-2.17601e-11 -3.46375e-12 1.12345

-12.4411 1.58721 -1.28972e-11
1.58721 2.49052 8.85795e-12
-1.28972e-11 8.85795e-12 -3.81655

-8.59961 2.87675 1.65597e-11
2.87675 -3.39739 2.53218e-11
1.65597e-11 2.53218e-11 -4.25319

6.31722 -0.0193334 -3.48632e-11
-0.0193334 -3.4741 3.23507e-11
-3.48632e-11 3.23507e-11 1.12383

0.737772 1.31015 -8.47204e-12
1.31015 -11.253 2.38735e-11
-8.47204e-12 2.38735e-11 -1.89943

3.73813 4.47708 1.40642e-11
4.47708 10.3059 -2.96059e-15
1.40642e-11 -2.96059e-15 5.14734

2.6868 3.5437 -8.47137e-12
3.5437 10.8075 -1.57943e-11
-8.47137e-12 -1.57943e-11 5.45524

10.4018 3.55079 -3.46523e-12
3.55079 4.06529 8.08753e-12
-3.46523e-12 8.08753e-12 5.71526

-4.84051 -5.40673 3.33069e-11
-5.40673 -1.81593 2.63751e-11
3.33069e-11 2.63751e-11 -3.50194

-5.55508 -2.27255 1.61717e-11
-2.27255 0.442748 1.38663e-11
1.61717e-11 1.38663e-11 -3.11497

0.272779 -6.24955 1.19339e-11
-6.24955 -0.529175 4.35178e-11
1.19339e-11 4.35178e-11 0.100559

-4.08648 5.02285 -4.04132e-12
5.02285 3.79334 -7.73825e-13
-4.04132e-12 -7.73825e-13 -0.0234471

-5.70402 5.86544 1.00157e-11
5.86544 1.62475 3.87098e-11
1.00157e-11 3.87098e-11 -1.02149

-8.81647 -2.83468 3.08058e-11
-2.83468 -3.48358 2.88803e-11
3.08058e-11 2.88803e-11 -4.40459

-12.458 -1.87984 1.09709e-11
-1.87984 2.80439 2.42635e-11
1.09709e-11 2.42635e-11 -3.82194

5.67391 1.57849 -3.72638e-11
1.57849 -6.60558 -1.15546e-12
-3.72638e-11 -1.15546e-12 -0.157947

2.61037 1.47091 3.31259e-11
1.47091 11.0165 -8.09012e-12
3.31259e-11 -8.09012e-12 4.11676

0.886735 0.650711 3.17894e-12
0.650711 10.9196 -4.31421e-11
3.17894e-12 -4.31421e-11 4.0608

11.6533 0.611833 -8.18619e-12
0.611833 2.63207 -3.4693e-12
-8.18619e-12 -3.4693e-12 4.59938

-2.2172 3.53885 -1.34966e-12
3.53885 6.38708 -4.96928e-11
-1.34966e-12 -4.96928e-11 1.44742

0.036657 5.78237 -2.0028e-11
5.78237 4.96438 -1.02055e-11
-2.0028e-11 -1.02055e-11 1.38663

3.70767 0.984611 -3.27383e-12
0.984611 -7.13835 4.08225e-11
-3.27383e-12 4.08225e-11 -0.301327

10.114 2.67538 -1.67525e-11
2.67538 15.1628 -3.4484e-11
-1.67525e-11 -3.4484e-11 9.73102

2.72272 -3.61972 1.84894e-11
-3.61972 -9.56863 -3.58158e-11
1.84894e-11 -3.58158e-11 -1.23507

-6.72794 0.274604 1.84842e-11
0.274604 1.31557 2.19505e-11
1.84842e-11 2.19505e-11 -4.09273

-4.34574 0.0767538 2.38736e-11
0.0767538 -3.21702 3.35028e-11
2.38736e-11 3.35028e-11 -4.39911

-1.61835 2.42838 3.58103e-11
2.42838 -15.2985 -3.1963e-11
3.58103e-11 -3.1963e-11 -12.2946

-0.539125 -5.8453 -4.65978e-11
-5.8453 -10.3454 1.88675e-11
-4.65978e-11 1.88675e-11 -11.5154

-1.06597 -6.63157 1.21278e-11
-6.63157 0.696769 3.58205e-11
1.21278e-11 3.58205e-11 0.211289

-1.65152 -5.36459 1.55938e-11
-5.36459 4.30658 2.15697e-11
1.55938e-11 2.15697e-11 1.14965

10.7227 -1.84663 7.22474e-12
-1.84663 0.799409 -2.08061e-11
7.22474e-12 -2.08061e-11 4.14057

-0.989597 0.954183 2.1563e-11
0.954183 -7.57561 -5.5815e-12
2.1563e-11 -5.5815e-12 -4.6141

-0.0988098 -3.4639 -2.31147e-11
-3.4639 -6.24865 -1.42437e-11
-2.31147e-11 -1.42437e-11 -4.24819

0.94322 -1.53859 3.85381e-12
-1.53859 -11.0976 -1.84854e-11
3.85381e-12 -1.84854e-11 -1.80107

1.63366 -0.456934 -1.4441e-12
-0.456934 -12.0255 2.88813e-11
-1.4441e-12 2.88813e-11 -1.51331

6.45823 -5.46998 6.93608e-12
-5.46998 1.09699 1.2321e-11
6.93608e-12 1.2321e-11 2.25712

8.00071 2.52839 7.31578e-12
2.52839 -1.1421 5.39117e-12
7.31578e-12 5.39117e-12 2.26047

7.42676 -4.46357 -1.67547e-11
-4.46357 -1.39733 1.11748e-11
-1.67547e-11 1.11748e-11 2.09994

-9.23466 3.67624 2.86915e-11
3.67624 2.54904 2.31143e-11
2.86915e-11 2.31143e-11 -1.07968

-1.68102 -4.44409 -1.88731e-11
-4.44409 5.98698 -1.27104e-11
-1.88731e-11 -1.27104e-11 1.45818

-2.03998 4.27366 6.26351e-12
4.27366 4.33927 -1.96413e-11
6.26351e-12 -1.96413e-11 1.11862

29.6912 -6.78823 -4.85494e-11
-6.78823 29.9901 4.05076e-12
-4.85494e-11 4.05076e-12 29.5793

27.7782 4.17566 1.65672e-11
4.17566 29.9504 -1.3099e-11
1.65672e-11 -1.3099e-11 29.2005

-11.0649 -5.08405 4.23513e-12
-5.08405 0.408018 -1.03977e-11
4.23513e-12 -1.03977e-11 -2.92321

-6.37701 3.37551 1.6274e-11
3.37551 4.22123 -4.93023e-11
1.6274e-11 -4.93023e-11 -0.0296784

17.0196 0.706169 9.43889e-12
0.706169 17.6398 -1.53958e-12
9.43889e-12 -1.53958e-12 19.3964

17.6675 -1.37455 7.70739e-12
-1.37455 19.7658 -1.11774e-11
7.70739e-12 -1.11774e-11 19.9254

-6.54346 -2.02354 -1.11161e-11
-2.02354 -3.50687 5.12141e-11
-1.11161e-11 5.12141e-11 -5.1423

-6.97941 4.27434 4.56188e-11
4.27434 -5.23109 4.27531e-11
4.56188e-11 4.27531e-11 -5.23592

6.96455 0.0452794 3.37064e-12
0.0452794 -7.7472 -9.24449e-12
3.37064e-12 -9.24449e-12 -0.193706

-7.04726 -1.35745 -2.52965e-11
-1.35745 -6.4591 8.27549e-12
-2.52965e-11 8.27549e-12 -5.88962

-6.98083 3.9888 2.38716e-11
3.9888 -5.17878 5.50739e-11
2.38716e-11 5.50739e-11 -5.36931

-2.2151 4.3768 -3.07654e-12
4.3768 -13.581 3.11851e-11
-3.07654e-12 3.11851e-11 -9.92004

-2.82127 -5.35488 -3.46425e-12
-5.35488 -8.77195 8.4693e-12
-3.46425e-12 8.4693e-12 -9.49471

-3.68141 -3.2383 1.7476e-11
-3.2383 -3.21885 -5.43817e-12
1.7476e-11 -5.43817e-12 -2.57956

-3.76162 4.27537 -4.67892e-11
4.27537 -4.05958 -1.6281e-11
-4.67892e-11 -1.6281e-11 -2.41557

-11.471 -0.338507 -2.50389e-12
-0.338507 0.232933 -1.50202e-11
-2.50389e-12 -1.50202e-11 -9.11574

-11.9023 1.53452 -1.77095e-11
1.53452 -6.55638 -6.28647e-11
-1.77095e-11 -6.28647e-11 -10.2415

-0.926059 -6.10994 -2.33977e-11
-6.10994 6.04164 7.71087e-13
-2.33977e-11 7.71087e-13 1.25493

8.12667 0.643799 2.81202e-11
0.643799 14.5594 2.54348e-11
2.81202e-11 2.54348e-11 9.95135

14.1316 0.829482 3.47145e-12
0.829482 8.8581 -8.85862e-12
3.47145e-12 -8.85862e-12 9.96616

-9.2826 3.21062 1.25201e-11
3.21062 3.30258 -3.46597e-12
1.25201e-11 -3.46597e-12 -1.16118

-5.73988 4.71123 -4.23341e-12
4.71123 1.98441 2.69598e-11
-4.23341e-12 2.69598e-11 -1.04163

-13.6187 -4.46208 -3.41267e-11
-4.46208 -21.584 -7.25758e-11
-3.41267e-11 -7.25758e-11 -20.6265

-14.1766 6.9321 -2.03926e-10
6.9321 -6.2193 -7.77906e-11
-2.03926e-10 -7.77906e-11 -17.6934

4.70276 4.31962 1.77636e-15
4.31962 2.40277 -1.50238e-11
1.77636e-15 -1.50238e-11 2.00393

-5.76253 7.28723 -1.42474e-11
7.28723 1.54899 1.09748e-11
-1.42474e-11 1.09748e-11 -1.06143

0.841479 2.77164 2.38321e-11
2.77164 -6.36338 2.61941e-11
2.38321e-11 2.61941e-11 -1.42175

1.05751 -2.20874 -3.39869e-11
-2.20874 -6.29247 -1.63621e-11
-3.39869e-11 -1.63621e-11 -1.57902

-5.21427 6.92279 1.23208e-11
6.92279 -0.570902 -8.85469e-12
1.23208e-11 -8.85469e-12 -1.5052

-7.62219 -6.82903 -1.11698e-11
-6.82903 -0.156782 1.07821e-11
-1.11698e-11 1.07821e-11 -2.65633

-0.0914059 -5.8449 -9.24261e-12
-5.8449 -9.74523 1.4248e-11
-9.24261e-12 1.4248e-11 -4.06757

10.4544 -0.522413 -1.01984e-11
-0.522413 1.05864 1.55943e-11
-1.01984e-11 1.55943e-11 4.15138

-2.10636 0.813687 1.19737e-10
0.813687 -6.39193 2.7735e-11
1.19737e-10 2.7735e-11 -13.2842

-1.81502 -0.504225 1.3094e-11
-0.504225 -15.6623 -4.04143e-12
1.3094e-11 -4.04143e-12 -14.6063

0.970293 5.31668 -1.65625e-11
5.31668 -1.38409 -3.27378e-11
-1.65625e-11 -3.27378e-11 0.0832345

5.57024 2.02254 -4.25606e-11
2.02254 -4.47117 -3.85184e-11
-4.25606e-11 -3.85184e-11 0.224463

6.25618 4.53667 -3.23534e-11
4.53667 8.33656 2.52331e-11
-3.23534e-11 2.52331e-11 4.65367

-14.181 1.0769 7.00811e-11
1.0769 -10.8343 -1.54952e-11
7.00811e-11 -1.54952e-11 -13.5233

-10.913 3.13585 1.01257e-10
3.13585 -1.03218 -5.77146e-12
1.01257e-10 -5.77146e-12 -11.3306

-1.08623 2.90165 8.85462e-12
2.90165 -11.8673 -8.27701e-12
8.85462e-12 -8.27701e-12 -4.65791

-7.50188 -1.22846 -3.66078e-12
-1.22846 3.9871 8.85677e-12
-3.66078e-12 8.85677e-12 -1.31846

-2.94555 -2.62659 2.93656e-11
-2.62659 1.799 -3.85366e-12
2.93656e-11 -3.85366e-12 -1.0524

4.36132 0.843581 3.14627e-11
0.843581 -9.77745 -1.50189e-11
3.14627e-11 -1.50189e-11 -1.29436

4.86242 -0.661248 3.01136e-11
-0.661248 -9.83687 -5.58747e-12
3.01136e-11 -5.58747e-12 -1.28945

9.20404 -4.55218 -2.96693e-11
-4.55218 7.08719 -1.23288e-11
-2.96693e-11 -1.23288e-11 5.09752

8.53428 0.012465 -2.27745e-11
0.012465 -3.70363 8.86117e-12
-2.27745e-11 8.86117e-12 1.25869

0.835556 -0.742807 -1.17248e-11
-0.742807 -9.40709 6.35122e-12
-1.17248e-11 6.35122e-12 -2.96905

-0.222637 1.49939 2.06835e-12
1.49939 -8.28833 1.38627e-11
2.06835e-12 1.38627e-11 -2.78521

5.91258 -1.89725 -5.05522e-11
-1.89725 -3.25894 1.04002e-11
-5.05522e-11 1.04002e-11 0.346247

-0.358757 -5.39293 -1.41532e-11
-5.39293 5.86858 -1.67579e-11
-1.41532e-11 -1.67579e-11 1.28511

4.76549 -0.436927 2.32533e-11
-0.436927 -6.82733 -1.05932e-11
2.32533e-11 -1.05932e-11 -1.04358

4.02082 0.966681 1.88971e-11
0.966681 -7.1985 2.61837e-11
1.88971e-11 2.61837e-11 -1.10728

3.31251 2.19863 -2.05997e-11
2.19863 -5.42858 3.6004e-11
-2.05997e-11 3.6004e-11 -0.226026

3.70993 -6.86552 5.23817e-11
-6.86552 2.8007 7.32236e-12
5.23817e-11 7.32236e-12 2.4384

-7.76477 6.61713 1.14559e-11
6.61713 -1.68417 7.70391e-12
1.14559e-11 7.70391e-12 -1.5376

-5.94327 6.50008 1.92542e-11
6.50008 1.76812 5.77999e-12
1.92542e-11 5.77999e-12 -1.14431

-9.42398 4.90546 -1.54089e-12
4.90546 -2.03868 -2.31108e-12
-1.54089e-12 -2.31108e-12 -1.95933

8.27196 2.3949 1.0882e-11
2.3949 -2.27775 4.62652e-12
1.0882e-11 4.62652e-12 1.87535

12.7419 -4.7349 9.57456e-13
-4.7349 8.58683 -3.92893e-11
9.57456e-13 -3.92893e-11 8.69141

-0.612778 3.99876 2.69514e-11
3.99876 -6.16334 -3.83278e-11
2.69514e-11 -3.83278e-11 -1.754

4.55067 -4.25922 -3.13962e-11
-4.25922 -4.17895 3.73576e-11
-3.13962e-11 3.73576e-11 0.264273

12.9566 -4.10382 1.40643e-11
-4.10382 7.68324 -1.11685e-11
1.40643e-11 -1.11685e-11 8.40078

2.10422 -6.8395 1.63674e-11
-6.8395 -2.48089 -2.27284e-11
1.63674e-11 -2.27284e-11 0.179958

-7.04296 0.173677 8.27882e-12
0.173677 0.81037 6.54736e-12
8.27882e-12 6.54736e-12 -1.79766

-10.23 0.000538365 -5.74559e-13
0.000538365 5.07679 1.57951e-11
-5.74559e-13 1.57951e-11 -1.36698

2.87482 5.83029 3.28685e-12
5.83029 3.38749 2.67724e-11
3.28685e-12 2.67724e-11 1.99902

10.4438 -4.85813 -7.51828e-12
-4.85813 3.64236 2.96645e-11
-7.51828e-12 2.96645e-11 5.21204

-4.86537 -7.09363 -3.04269e-11
-7.09363 -2.42613 3.46915e-12
-3.04269e-11 3.46915e-12 -1.4246

2.79946 -6.3465 -1.72274e-11
-6.3465 6.07029 -1.90668e-11
-1.72274e-11 -1.90668e-11 2.38602

2.73516 -6.41585 2.4851e-11
-6.41585 5.61924 2.54243e-11
2.4851e-11 2.54243e-11 2.67348

3.10651 3.28293 2.98471e-11
3.28293 -3.07606 -4.19772e-11
2.98471e-11 -4.19772e-11 0.0327231

1.6064 2.07176 -2.11854e-11
2.07176 -16.9513 -1.46299e-11
-2.11854e-11 -1.46299e-11 -3.43575

1.41315 -3.26313 -4.62165e-11
-3.26313 -14.0221 -1.54302e-12
-4.62165e-11 -1.54302e-12 -3.07165

-1.28687 3.6435 2.56084e-11
3.6435 7.01942 -7.68422e-13
2.56084e-11 -7.68422e-13 1.60415

-3.67854 2.48952 2.13711e-11
2.48952 7.88114 1.4803e-16
2.13711e-11 1.4803e-16 1.55264

0.500927 -0.530097 -3.17756e-11
-0.530097 11.4871 5.97019e-12
-3.17756e-11 5.97019e-12 4.28698

-0.550165 -0.704751 -1.27115e-11
-0.704751 12.1475 -1.38702e-11
-1.27115e-11 -1.38702e-11 4.533

12.7664 -0.467223 -4.53075e-12
-0.467223 0.788993 -1.46424e-11
-4.53075e-12 -1.46424e-11 4.95982

4.72127 -5.78616 4.91163e-12
-5.78616 1.35791 6.93727e-12
4.91163e-12 6.93727e-12 1.8568

-19.7736 -4.25821 3.19587e-11
-4.25821 -13.3278 -1.55973e-11
3.19587e-11 -1.55973e-11 -18.6815

-1.7402 -1.69281 -1.96365e-11
-1.69281 -1.69011 3.00309e-11
-1.96365e-11 3.00309e-11 -13.2776

6.62767 4.07664 1.93919e-13
4.07664 -0.215301 -9.62682e-12
1.93919e-13 -9.62682e-12 2.24844

8.27977 -2.78221 2.63913e-11
-2.78221 -2.5218 -1.15452e-11
2.63913e-11 -1.15452e-11 1.6452

12.3503 2.54757 -9.59085e-13
2.54757 6.46685 2.11889e-11
-9.59085e-13 2.11889e-11 7.71074

-7.05003 4.18081 1.82916e-11
4.18081 1.61343 -1.92554e-11
1.82916e-11 -1.92554e-11 -0.593477

7.05405 0.0662656 1.2566e-11
0.0662656 -7.5714 2.69555e-11
1.2566e-11 2.69555e-11 -0.181389

-7.79025 6.36622 -2.42613e-11
6.36622 -0.316158 -6.54913e-12
-2.42613e-11 -6.54913e-12 -2.38057

-12.7455 5.06022 -1.99239e-11
5.06022 0.423337 3.35059e-11
-1.99239e-11 3.35059e-11 -2.95168

5.13394 3.28152 -2.2147e-11
3.28152 8.67109 -1.44532e-11
-2.2147e-11 -1.44532e-11 4.81412

8.21859 3.65235 1.04956e-11
3.65235 7.23292 5.77841e-12
1.04956e-11 5.77841e-12 5.21552

-6.13481 -7.69636 -1.82558e-12
-7.69636 1.39152 -3.87053e-11
-1.82558e-12 -3.87053e-11 -1.40455

12.4523 2.05866 -2.31356e-12
2.05866 6.21547 6.16472e-12
-2.31356e-12 6.16472e-12 7.63982

-9.58133 5.68558 1.69916e-11
5.68558 -3.85299 -1.15523e-11
1.69916e-11 -1.15523e-11 -2.1776

-3.46594 6.92822 2.31443e-12
6.92822 3.02287 1.48294e-11
2.31443e-12 1.48294e-11 -0.0959134

6.26662 -0.0994349 2.61912e-11
-0.0994349 -11.0666 -3.06134e-11
2.61912e-11 -3.06134e-11 -1.05221

-7.93454 -5.25222 -2.11809e-11
-5.25222 -3.77149 1.54396e-12
-2.11809e-11 1.54396e-12 -2.17959

0.751949 5.6703 -1.4831e-11
5.6703 1.12005 -2.34965e-11
-1.4831e-11 -2.34965e-11 0.458818

2.41819 -2.78089 -8.08975e-12
-2.78089 10.1592 -2.69991e-12
-8.08975e-12 -2.69991e-12 3.6337

0.48036 -2.64707 -1.86763e-11
-2.64707 10.4609 -4.23729e-11
-1.86763e-11 -4.23729e-11 3.61481

10.5631 -1.97416 -3.52482e-11
-1.97416 2.63255 -2.11949e-11
-3.52482e-11 -2.11949e-11 4.02258

3.84633 -5.19594 1.47378e-11
-5.19594 4.60841 4.42978e-11
1.47378e-11 4.42978e-11 2.12824

-4.74208 -0.341816 -1.44395e-11
-0.341816 7.18258 -7.69014e-13
-1.44395e-11 -7.69014e-13 0.755172

-0.744689 -0.0507957 1.71406e-11
-0.0507957 6.29834 1.61736e-11
1.71406e-11 1.61736e-11 1.09332

6.35808 -5.56434 -3.22688e-11
-5.56434 8.91381 1.00173e-11
-3.22688e-11 1.00173e-11 5.39124

4.75974 -5.40578 2.11335e-12
-5.40578 9.76227 4.35323e-11
2.11335e-12 4.35323e-11 5.45434

6.01171 -0.275201 1.05677e-11
-0.275201 -10.1545 -2.7341e-11
1.05677e-11 -2.7341e-11 -1.03093

6.43627 0.284759 2.69603e-11
0.284759 -10.3571 5.77671e-12
2.69603e-11 5.77671e-12 -1.05281

-5.57446 5.29931 1.58823e-11
5.29931 -0.445019 -1.03949e-11
1.58823e-11 -1.03949e-11 -0.728738

-12.3574 -4.46386 -1.03978e-11
-4.46386 0.145074 2.3489e-11
-1.03978e-11 2.3489e-11 -2.81932

-0.557904 -6.8642 -4.1791e-11
-6.8642 -4.37178 2.38783e-11
-4.1791e-11 2.38783e-11 -1.26519

-3.8302 2.61672 1.98822e-11
2.61672 -6.63829 -2.696e-11
1.98822e-11 -2.696e-11 -3.7451

-2.87765 -0.801664 9.53208e-12
-0.801664 -5.48196 -8.18412e-12
9.53208e-12 -8.18412e-12 -3.58909

1.32606 -2.86739 -2.54706e-11
-2.86739 -1.83474 3.92825e-11
-2.54706e-11 3.92825e-11 -0.779872

0.762638 3.44749 3.67282e-11
3.44749 -3.84994 3.46671e-11
3.67282e-11 3.46671e-11 -0.968134

16.4931 -2.88034 -4.8161e-12
-2.88034 10.1981 -8.26478e-11
-4.8161e-12 -8.26478e-11 18.017

1.69834 5.46317 -1.91943e-12
5.46317 5.13317 5.3985e-12
-1.91943e-12 5.3985e-12 2.30615

12.5035 1.98699 -3.40987e-11
1.98699 16.6365 3.85215e-12
-3.40987e-11 3.85215e-12 18.407

-2.70852 6.14234 8.0933e-12
6.14234 0.731015 3.90909e-11
8.0933e-12 3.90909e-11 -0.50616

-1.62164 -4.30547 -1.47319e-11
-4.30547 7.61278 8.86076e-12
-1.47319e-11 8.86076e-12 1.56903

-3.77019 -3.83827 -2.11838e-11
-3.83827 7.49098 -2.04157e-11
-2.11838e-11 -2.04157e-11 1.46806

-8.53249 -1.32076 9.93576e-12
-1.32076 -10.0736 3.7544e-11
9.93576e-12 3.7544e-11 -10.3292

-10.4958 3.61458 -1.73509e-11
3.61458 -6.48648 6.16016e-11
-1.73509e-11 6.16016e-11 -9.88736

2.13794 4.07795 -2.34892e-11
4.07795 -1.01502 -2.15713e-11
-2.34892e-11 -2.15713e-11 0.435695

8.63304 -0.417991 -1.19429e-11
-0.417991 -3.13236 -5.96371e-12
-1.19429e-11 -5.96371e-12 1.34278

5.14634 4.5691 1.99332e-11
4.5691 0.922173 1.00164e-11
1.99332e-11 1.00164e-11 2.17372

-8.99539 -2.63592 1.44381e-11
-2.63592 4.44067 -2.81156e-11
1.44381e-11 -2.81156e-11 -1.09382

-6.04519 -4.34476 -4.89051e-11
-4.34476 1.72241 -3.13878e-11
-4.89051e-11 -3.13878e-11 -1.38067

-6.55481 -7.89517 2.0746e-11
-7.89517 3.26915 1.15424e-12
2.0746e-11 1.15424e-12 -1.11281

2.41027 -4.39378 -8.08361e-12
-4.39378 0.711359 -2.31074e-11
-8.08361e-12 -2.31074e-11 0.478255

-6.44778 7.34897 1.67517e-11
7.34897 1.50312 9.63144e-12
1.67517e-11 9.63144e-12 -1.0711

-5.44326 3.39488 -2.31014e-11
3.39488 -0.594686 1.26085e-11
-2.31014e-11 1.26085e-11 -3.26183

-5.13131 5.13946 -3.44635e-11
5.13946 -2.48236 -3.56552e-12
-3.44635e-11 -3.56552e-12 -3.53288

-4.3622 -6.91422 -1.0395e-11
-6.91422 3.70507 -2.23387e-11
-1.0395e-11 -2.23387e-11 -0.369214

-3.3067 6.27762 -2.50377e-12
6.27762 2.70566 -2.56154e-11
-2.50377e-12 -2.56154e-11 -0.186574

-13.03 7.90671 2.11503e-12
7.90671 -1.99817 3.46564e-12
2.11503e-12 3.46564e-12 -2.33739

-6.11058 0.743332 -4.23635e-12
0.743332 7.54498 -7.70125e-12
-4.23635e-12 -7.70125e-12 0.691302

-3.73167 1.72076 2.71566e-11
1.72076 5.89349 1.15759e-12
2.71566e-11 1.15759e-12 0.548456

-1.92536 4.87907 3.7742e-11
4.87907 -2.75946 4.15925e-11
3.7742e-11 4.15925e-11 -0.934046

3.45335 4.10289 -5.11028e-12
4.10289 2.95157 6.51331e-15
-5.11028e-12 6.51331e-15 2.03537

-5.98173 -4.24913 -1.50164e-11
-4.24913 3.91017 1.77166e-11
-1.50164e-11 1.77166e-11 -0.0889454

-7.27263 -7.41947 1.47279e-11
-7.41947 0.833283 1.96411e-11
1.47279e-11 1.96411e-11 -2.1695

14.1778 2.46038 3.52525e-11
2.46038 17.6761 -3.23577e-11
3.52525e-11 -3.23577e-11 14.5587

16.8147 2.56508 -3.94381e-12
2.56508 14.814 7.31141e-12
-3.94381e-12 7.31141e-12 14.4747

6.34521 -5.49646 -5.79862e-12
-5.49646 7.7061 4.23859e-11
-5.79862e-12 4.23859e-11 5.00386

-1.80918 -5.10891 -5.6619e-11
-5.10891 -1.17466 3.85153e-11
-5.6619e-11 3.85153e-11 -1.00191

5.74125 -1.52857 -2.72968e-11
-1.52857 -6.53365 -1.15204e-12
-2.72968e-11 -1.15204e-12 -0.22046

-13.2758 5.52726 -2.10932e-11
5.52726 -10.1917 -3.85207e-12
-2.10932e-11 -3.85207e-12 -16.6631

-8.90597 -6.012 -4.83548e-11
-6.012 -17.5867 6.33378e-11
-4.83548e-11 6.33378e-11 -17.2792

-4.14129 -7.54925 2.18545e-11
-7.54925 3.64906 1.059e-11
2.18545e-11 1.059e-11 -0.281839

-7.45904 1.40114 2.30993e-12
1.40114 -10.7226 -3.79289e-11
2.30993e-12 -3.79289e-11 -8.74508

-4.99902 -5.73139 -5.00792e-12
-5.73139 -4.80672 -4.6971e-11
-5.00792e-12 -4.6971e-11 -7.34124

3.26082 -1.99348 -3.85262e-12
-1.99348 -7.8227 -2.4266e-11
-3.85262e-12 -2.4266e-11 -0.469356

-11.5339 -7.83485 -3.87634e-13
-7.83485 -2.39327 3.62049e-11
-3.87634e-13 3.62049e-11 -2.32269

11.236 -4.80097 2.56188e-11
-4.80097 13.2952 -4.3929e-11
2.56188e-11 -4.3929e-11 11.1429

12.507 3.49832 -2.21549e-11
3.49832 12.3191 -9.63296e-12
-2.21549e-11 -9.63296e-12 11.0192

7.05387 -2.86218 9.04839e-12
-2.86218 13.9585 8.47426e-12
9.04839e-12 8.47426e-12 8.70758

6.90979 -3.13913 3.2356e-11
-3.13913 13.6376 2.4656e-11
3.2356e-11 2.4656e-11 8.44454

14.6525 -2.38434 2.07005e-11
-2.38434 7.16467 1.95467e-11
2.07005e-11 1.95467e-11 8.79175

7.01582 4.2456 -4.04935e-12
4.2456 6.16238 5.84273e-13
-4.04935e-12 5.84273e-13 4.60195

-6.76396 -8.39165 2.43566e-11
-8.39165 2.69374 1.92435e-12
2.43566e-11 1.92435e-12 -1.14613

7.91414 0.425783 4.42997e-12
0.425783 16.6011 -1.1946e-11
4.42997e-12 -1.1946e-11 10.994

15.7706 -1.27285 1.15907e-12
-1.27285 7.48718 1.93633e-12
1.15907e-12 1.93633e-12 10.8032

-7.96903 0.653514 2.54187e-11
0.653514 0.770462 -7.70051e-13
2.54187e-11 -7.70051e-13 -5.92108

-8.36898 -3.41344 -5.20062e-12
-3.41344 -5.11968 -5.48931e-12
-5.20062e-12 -5.48931e-12 -7.0354

2.5335 -3.91986 2.33077e-11
-3.91986 -5.62041 -7.31711e-12
2.33077e-11 -7.31711e-12 -1.05915

1.59499 -0.244527 2.00285e-11
-0.244527 -17.1042 1.46321e-11
2.00285e-11 1.46321e-11 -2.48421

0.611301 -4.21387 2.21626e-11
-4.21387 8.4111 -3.77511e-11
2.21626e-11 -3.77511e-11 3.49028

1.84054 -4.20403 4.23972e-12
-4.20403 8.9491 -1.61804e-11
4.23972e-12 -1.61804e-11 3.46979

3.76338 -0.23304 2.099e-11
-0.23304 -8.4214 1.38612e-11
2.099e-11 1.38612e-11 -0.444491

-4.32471 -5.77187 1.5021e-11
-5.77187 4.2098 2.42666e-11
1.5021e-11 2.42666e-11 -0.128033

-5.10227 0.082603 1.06318e-11
0.082603 -7.96567 2.75343e-11
1.06318e-11 2.75343e-11 -6.98672

-7.2282 1.72597 -2.78473e-11
1.72597 -6.17393 1.03202e-10
-2.78473e-11 1.03202e-10 -6.88308

0.0833587 -5.43892 -2.46556e-11
-5.43892 -3.58041 5.73794e-11
-2.46556e-11 5.73794e-11 -1.27242

-4.41582 -5.55578 2.07977e-11
-5.55578 -0.669707 -2.65739e-11
2.07977e-11 -2.65739e-11 -0.713108

3.0876 -3.90578 6.55083e-12
-3.90578 -9.32136 -2.54209e-11
6.55083e-12 -2.54209e-11 -1.32217

-5.92241 -4.89297 3.90921e-11
-4.89297 1.4931 -2.58071e-11
3.90921e-11 -2.58071e-11 -0.521318

30.2563 -9.32314 1.30945e-11
-9.32314 31.1613 5.2402e-11
1.30945e-11 5.2402e-11 31.1311

-3.05837 -2.14608 -1.88718e-11
-2.14608 5.58524 9.63007e-12
-1.88718e-11 9.63007e-12 0.580735

-5.26437 -1.61673 2.11914e-12
-1.61673 7.52741 3.40468e-15
2.11914e-12 3.40468e-15 0.837944

-10.8015 -0.788004 2.25294e-11
-0.788004 2.73846 -1.25923e-10
2.25294e-11 -1.25923e-10 -6.92138

-9.64871 -0.932009 -1.17435e-11
-0.932009 -7.42317 -4.43801e-11
-1.17435e-11 -4.43801e-11 -8.42394

4.16552 -0.524582 6.30433e-12
-0.524582 -11.2693 4.23567e-11
6.30433e-12 4.23567e-11 -2.24182

3.06994 0.258328 1.49721e-11
0.258328 -10.6085 -1.65595e-11
1.49721e-11 -1.65595e-11 -2.20827

-4.28272 4.0769 -2.52236e-11
4.0769 -6.70456 1.38625e-11
-2.52236e-11 1.38625e-11 -3.81735

-1.86937 -7.31739 4.37064e-11
-7.31739 -6.35198 1.73279e-11
4.37064e-11 1.73279e-11 -3.23087

-4.39505 1.45811 -1.77084e-11
1.45811 -5.16729 4.48558e-11
-1.77084e-11 4.48558e-11 -6.02072

-1.21046 -2.61059 3.46589e-11
-2.61059 -4.89593 1.98341e-11
3.46589e-11 1.98341e-11 -5.51756

-11.1667 -2.8508 7.93633e-11
-2.8508 -14.3447 8.27209e-12
7.93633e-11 8.27209e-12 -14.7707

-10.2149 8.5579 1.77264e-10
8.5579 -6.49158 3.96826e-11
1.77264e-10 3.96826e-11 -12.9396

-7.48157 -7.55745 -3.60543e-11
-7.55745 0.453042 1.96445e-11
-3.60543e-11 1.96445e-11 -2.38477

-10.7891 9.35596 -3.56352e-12
9.35596 -4.54209 -2.77283e-11
-3.56352e-12 -2.77283e-11 -3.14517

2.84505 3.78357 -1.52146e-11
3.78357 -3.27937 -1.19489e-11
-1.52146e-11 -1.19489e-11 0.0967509

-5.66541 -3.22753 -1.02077e-11
-3.22753 4.84669 2.5036e-11
-1.02077e-11 2.5036e-11 0.0488136

-2.10234 -4.89496 -1.77187e-11
-4.89496 4.89436 2.23404e-11
-1.77187e-11 2.23404e-11 0.400531

3.0104 -3.98363 -1.23193e-11
-3.98363 -2.38021 -2.50284e-11
-1.23193e-11 -2.50284e-11 0.0599315

-1.76239 3.68249 -6.8329e-12
3.68249 4.5003 -3.44773e-11
-6.8329e-12 -3.44773e-11 0.483004

-5.49195 2.17493 7.07408e-12
2.17493 5.35601 4.23868e-12
7.07408e-12 4.23868e-12 0.239152

0.339384 5.22809 -1.60797e-11
5.22809 0.0875198 -1.58011e-11
-1.60797e-11 -1.58011e-11 0.49837

-6.72435 6.26896 -3.46591e-11
6.26896 -1.42983 1.52099e-11
-3.46591e-11 1.52099e-11 -2.51689

-7.68516 -8.37881 8.08894e-12
-8.37881 -4.29468 -2.54171e-11
8.08894e-12 -2.54171e-11 -2.98993

1.0061 -6.40316 5.74899e-11
-6.40316 1.5347 -2.2922e-11
5.74899e-11 -2.2922e-11 0.531528

1.73332 1.85616 2.27219e-11
1.85616 -6.24604 -2.73449e-11
2.27219e-11 -2.73449e-11 -1.42285

-2.018 -2.82609 -1.08386e-10
-2.82609 -3.62789 3.38733e-11
-1.08386e-10 3.38733e-11 -13.8045

-18.7444 1.71944 -1.42465e-10
1.71944 -17.1031 5.51515e-11
-1.42465e-10 5.51515e-11 -19.2917

-3.9867 -6.34034 2.65752e-11
-6.34034 2.26804 -5.85425e-11
2.65752e-11 -5.85425e-11 -0.918224

0.996958 -6.28339 -6.93475e-12
-6.28339 -5.70783 -2.54111e-11
-6.93475e-12 -2.54111e-11 -1.24446

0.48952 -0.543568 -2.69601e-11
-0.543568 -6.34227 1.84816e-11
-2.69601e-11 1.84816e-11 -3.57289

14.5007 -4.4143 1.92764e-12
-4.4143 16.2018 7.12423e-12
1.92764e-12 7.12423e-12 13.628

16.0954 -3.94034 -1.73393e-11
-3.94034 13.399 3.36075e-11
-1.73393e-11 3.36075e-11 13.1679

2.86 0.431717 -2.77529e-11
0.431717 -10.5274 -6.35477e-12
-2.77529e-11 -6.35477e-12 -3.00767

0.804094 -0.339057 -1.94252e-11
-0.339057 -9.78163 -1.77118e-11
-1.94252e-11 -1.77118e-11 -3.11886

0.305506 -0.0813868 -3.27371e-11
-0.0813868 -10.3257 7.31637e-12
-3.27371e-11 7.31637e-12 -4.18695

7.49662 2.67901 1.6612e-11
2.67901 -0.125712 -1.54154e-11
1.6612e-11 -1.54154e-11 2.06239

-3.56932 -4.04183 1.82399e-11
-4.04183 -0.47205 -1.71302e-11
1.82399e-11 -1.71302e-11 -2.04154

-4.18847 4.90716 -3.82683e-11
4.90716 -4.06032 -2.32155e-12
-3.82683e-11 -2.32155e-12 -2.42013

-10.6468 -4.48575 5.58526e-11
-4.48575 -20.6681 -1.37365e-10
5.58526e-11 -1.37365e-10 -18.3212

-5.39705 -0.478485 -5.27349e-11
-0.478485 -0.683882 -8.59621e-12
-5.27349e-11 -8.59621e-12 -13.8423

-6.34581 -7.1213 1.50259e-11
-7.1213 2.37956 -6.64384e-11
1.50259e-11 -6.64384e-11 -1.08376

3.99611 -5.00069 -5.10349e-11
-5.00069 -3.6604 -8.09027e-12
-5.10349e-11 -8.09027e-12 0.159675

-1.2782 1.09699 -6.3789e-12
1.09699 -5.41978 -3.50454e-11
-6.3789e-12 -3.50454e-11 -3.13325

-0.197651 0.167802 -1.58127e-11
0.167802 -6.45766 3.63855e-11
-1.58127e-11 3.63855e-11 -3.32328

-7.20731 -2.86505 7.71975e-13
-2.86505 1.45886 -3.7744e-11
7.71975e-13 -3.7744e-11 -1.31217

-8.79923 -5.25099 -9.82239e-12
-5.25099 -2.43931 1.65613e-11
-9.82239e-12 1.65613e-11 -1.89671

31.623 7.88269 4.06489e-11
7.88269 30.3693 -3.44785e-11
4.06489e-11 -3.44785e-11 31.2069

-6.93787 4.20291 -2.36796e-11
4.20291 -1.75488 1.46349e-11
-2.36796e-11 1.46349e-11 -3.57122

-6.90307 -5.47014 3.158e-11
-5.47014 -2.21325 3.11891e-11
3.158e-11 3.11891e-11 -3.58548

-8.52441 -4.96836 2.56123e-11
-4.96836 0.710631 -4.19813e-11
2.56123e-11 -4.19813e-11 -1.28931

7.77993 -3.35645 -7.51443e-12
-3.35645 0.845206 -1.983e-11
-7.51443e-12 -1.983e-11 2.0283

-0.909218 3.64549 3.31169e-11
3.64549 -2.10323 6.89328e-11
3.31169e-11 6.89328e-11 -1.274

-3.57565 3.82662 -5.79541e-11
3.82662 -2.94194 -1.53997e-11
-5.79541e-11 -1.53997e-11 -2.86198

-0.952007 -5.89259 3.81245e-11
-5.89259 -5.90195 1.54015e-11
3.81245e-11 1.54015e-11 -2.82814

2.30459 1.47314 4.62556e-12
1.47314 -10.365 2.21462e-11
4.62556e-12 2.21462e-11 -1.67249

-2.49724 -0.67763 -6.23231e-12
-0.67763 -6.62471 -1.19385e-11
-6.23231e-12 -1.19385e-11 -4.7631

-0.978662 1.06076 -1.15749e-11
1.06076 -9.15191 -2.88873e-12
-1.15749e-11 -2.88873e-12 -5.11009

-12.7483 1.95242 -1.02218e-10
1.95242 0.354267 1.84774e-11
-1.02218e-10 1.84774e-11 -12.8145

-15.1193 0.368995 -1.61709e-11
0.368995 -7.32904 3.08013e-12
-1.61709e-11 3.08013e-12 -14.35

17.872 -2.01675 -3.08279e-11
-2.01675 12.7138 -2.31162e-11
-3.08279e-11 -2.31162e-11 18.8257

10.8193 -1.34068 6.43499e-11
-1.34068 18.4708 -7.31671e-12
6.43499e-11 -7.31671e-12 18.6016

-5.1964 -6.27289 3.60529e-11
-6.27289 2.3801 3.15773e-11
3.60529e-11 3.15773e-11 -1.32573

-6.24109 5.44111 -2.35851e-11
5.44111 -2.8092 4.2368e-11
-2.35851e-11 4.2368e-11 -1.87865

-6.20074 -8.392 -9.91496e-12
-8.392 2.99102 -1.34775e-11
-9.91496e-12 -1.34775e-11 -0.984932

19.7883 2.14923 5.2597e-11
2.14923 19.4821 -2.04132e-11
5.2597e-11 -2.04132e-11 21.6726

19.9106 3.24055 3.91105e-11
3.24055 17.7861 -4.29613e-11
3.91105e-11 -4.29613e-11 21.0816

-27.7527 6.864 -9.46073e-11
6.864 -5.89626 1.79453e-10
-9.46073e-11 1.79453e-10 -19.3635

-20.2826 -5.41048 7.58419e-11
-5.41048 -9.97721 2.07934e-10
7.58419e-11 2.07934e-10 -18.696

-2.56892 5.07203 3.90927e-11
5.07203 -2.3523 3.08156e-11
3.90927e-11 3.08156e-11 -1.41112

-0.48288 -6.05383 8.16504e-11
-6.05383 3.08956 -6.74379e-12
8.16504e-11 -6.74379e-12 0.474401

-5.00513 -6.01367 4.91484e-11
-6.01367 -0.449819 -3.35076e-11
4.91484e-11 -3.35076e-11 -1.82338

-5.13887 6.05292 1.21726e-11
6.05292 -2.85387 -2.30741e-12
1.21726e-11 -2.30741e-12 -1.76492

-3.30121 -7.02217 -1.07869e-11
-7.02217 2.29634 4.56402e-11
-1.07869e-11 4.56402e-11 -0.440003

-1.05772 4.88159 1.86855e-11
4.88159 1.57175 -2.31026e-11
1.86855e-11 -2.31026e-11 0.52705

5.57419 -2.56088 -1.52219e-11
-2.56088 13.2418 3.31288e-11
-1.52219e-11 3.31288e-11 8.02013

7.5163 -2.20342 -3.40986e-11
-2.20342 13.6829 2.75455e-11
-3.40986e-11 2.75455e-11 8.48973

14.407 -1.79385 3.52614e-11
-1.79385 7.16645 -2.69624e-11
3.52614e-11 -2.69624e-11 8.6339

-4.21696 5.47737 6.93712e-12
5.47737 0.106029 3.00457e-11
6.93712e-12 3.00457e-11 -0.496461

8.36109 -0.282289 1.00169e-11
-0.282289 16.585 1.81092e-11
1.00169e-11 1.81092e-11 11.3904

16.4356 0.560586 -2.09068e-11
0.560586 9.43191 -1.04027e-11
-2.09068e-11 -1.04027e-11 11.5335

-6.67042 -5.73851 -2.8161e-11
-5.73851 -1.15314 1.79083e-11
-2.8161e-11 1.79083e-11 -3.07687

-6.82677 6.97101 -6.34781e-12
6.97101 -5.10498 3.73552e-11
-6.34781e-12 3.73552e-11 -3.27431

-6.89215 -4.5716 -2.42673e-11
-4.5716 -1.65233 6.70116e-11
-2.42673e-11 6.70116e-11 -3.60055

-6.92561 6.16591 -8.32993e-12
6.16591 -2.91609 3.00362e-11
-8.32993e-12 3.00362e-11 -3.39595

19.628 -4.11545 3.27416e-12
-4.11545 20.239 -4.20019e-11
3.27416e-12 -4.20019e-11 22.2974

19.4881 -4.01257 2.60994e-11
-4.01257 20.5976 4.70048e-11
2.60994e-11 4.70048e-11 22.3709

-2.55389 5.10897 5.86415e-11
5.10897 -1.42243 2.46574e-11
5.86415e-11 2.46574e-11 -0.691121

-2.1257 -5.5443 -5.97913e-11
-5.5443 1.9117 3.6585e-11
-5.97913e-11 3.6585e-11 -0.473092

-8.92782 -1.44429 -1.38808e-10
-1.44429 -2.45827 5.00244e-12
-1.38808e-10 5.00244e-12 -8.85678

-10.5875 -1.73003 -2.32997e-11
-1.73003 -9.15948 -4.12016e-11
-2.32997e-11 -4.12016e-11 -10.1885

-8.38684 -5.97089 -3.28788e-11
-5.97089 0.684976 3.29285e-11
-3.28788e-11 3.29285e-11 -3.27243

-10.2718 6.38529 -2.71944e-11
6.38529 -1.69456 -7.70422e-12
-2.71944e-11 -7.70422e-12 -3.44971

-4.05309 -0.0852233 2.01002e-11
-0.0852233 -11.1901 1.61742e-11
2.01002e-11 1.61742e-11 -6.51423

-6.17267 1.35548 -8.40883e-13
1.35548 -9.97985 -8.46974e-12
-8.40883e-13 -8.46974e-12 -6.5346

-4.55487 5.67842 2.81083e-11
5.67842 -0.507423 -4.29369e-11
2.81083e-11 -4.29369e-11 -1.66473

-3.51934 -6.01785 -4.00559e-11
-6.01785 -3.30893 2.54217e-11
-4.00559e-11 2.54217e-11 -1.78195

-14.6081 -2.47993 7.89598e-12
-2.47993 -6.47882 -5.97071e-12
7.89598e-12 -5.97071e-12 -12.1201

-8.93423 2.41237 -2.38702e-11
2.41237 -12.1493 -1.1168e-11
-2.38702e-11 -1.1168e-11 -12.0605

-3.74349 -5.87206 -9.23935e-12
-5.87206 -8.10816 2.61878e-11
-9.23935e-12 2.61878e-11 -10.5908

-13.3697 -1.03573 2.38704e-11
-1.03573 0.240123 -1.23251e-11
2.38704e-11 -1.23251e-11 -10.828

-9.4753 1.65009 3.61507e-11
1.65009 -11.0556 -2.26826e-11
3.61507e-11 -2.26826e-11 -11.0643

-17.7122 0.212789 -1.33477e-10
0.212789 -10.7552 1.25915e-10
-1.33477e-10 1.25915e-10 -15.3066

-6.53102 -1.80751 -4.53895e-11
-1.80751 -12.8359 -1.90948e-11
-4.53895e-11 -1.90948e-11 -10.922

-12.0104 -0.669154 5.728e-11
-0.669154 -15.423 -1.36699e-11
5.728e-11 -1.36699e-11 -15.1532

-16.3548 -3.26624 1.51393e-10
-3.26624 -13.0446 -2.16987e-10
1.51393e-10 -2.16987e-10 -15.9775

-11.9409 7.87521 2.6158e-10
7.87521 -5.19374 1.67947e-10
2.6158e-10 1.67947e-10 -13.3251

0.260764 2.26272 -5.71568e-10
2.26272 -1.37763 3.1332e-10
-5.71568e-10 3.1332e-10 -13.8177

3.05526 -3.76022 5.19571e-10
-3.76022 -26.3486 2.72335e-11
5.19571e-10 2.72335e-11 -18.2091

-9.79093 -4.24906 2.12198e-11
-4.24906 -10.2241 2.59917e-11
2.12198e-11 2.59917e-11 -11.8269

-7.97324 -3.12836 3.08014e-11
-3.12836 -2.66559 2.19502e-11
3.08014e-11 2.19502e-11 -6.08865

-6.65622 7.3503 3.96571e-11
7.3503 -9.1755 6.35376e-11
3.96571e-11 6.35376e-11 -10.7137

-7.27521 4.12516 -5.4873e-11
4.12516 -4.83545 1.42349e-11
-5.4873e-11 1.42349e-11 -5.93017

-12.3778 8.4178 1.05089e-10
8.4178 -5.05513 -2.35633e-10
1.05089e-10 -2.35633e-10 -14.6921

-15.1853 -0.907459 9.99586e-12
-0.907459 -17.1709 -3.02272e-11
9.99586e-12 -3.02272e-11 -17.7082

-10.7429 -2.7862 1.48918e-13
-2.7862 -6.43445 1.21322e-11
1.48918e-13 1.21322e-11 -8.41476

-9.63431 -1.67251 8.75189e-12
-1.67251 -9.87432 9.04769e-12
8.75189e-12 9.04769e-12 -11.1756

-8.56341 6.89593 -7.22869e-11
6.89593 -4.55443 -8.43426e-11
-7.22869e-11 -8.43426e-11 -7.33052

-12.1304 4.57334 3.29914e-12
4.57334 -7.85173 -1.421e-10
3.29914e-12 -1.421e-10 -11.1333

-7.48614 1.61201 1.07848e-11
1.61201 3.97212 -4.2378e-12
1.07848e-11 -4.2378e-12 -1.09052

-1.04668 -0.619947 8.8564e-12
-0.619947 2.21845 -9.62904e-12
8.8564e-12 -9.62904e-12 -0.380158

6.61908 1.54865 1.63733e-11
1.54865 -6.07892 -4.2352e-12
1.63733e-11 -4.2352e-12 0.0379715

8.91748 0.375843 -3.37004e-12
0.375843 -2.83796 -2.61918e-11
-3.37004e-12 -2.61918e-11 1.44461

-12.6228 1.82448 -2.54162e-11
1.82448 2.56552 1.34764e-11
-2.54162e-11 1.34764e-11 -3.76575

-6.44497 0.477451 2.59898e-11
0.477451 -1.75032 -8.75996e-12
2.59898e-11 -8.75996e-12 -3.0547

8.82533 -0.595693 -4.80653e-13
-0.595693 -3.1461 -7.69991e-12
-4.80653e-13 -7.69991e-12 1.41857

5.17089 -0.356871 -8.20751e-13
-0.356871 -8.808 -7.31778e-12
-8.20751e-13 -7.31778e-12 -1.06387

3.36555 -3.57867 2.99264e-12
-3.57867 11.2885 -3.93012e-11
2.99264e-12 -3.93012e-11 5.84048

4.97981 5.79775 -1.02121e-11
5.79775 11.1652 -2.36936e-11
-1.02121e-11 -2.36936e-11 5.34313

10.0804 5.48719 1.04034e-11
5.48719 4.14994 1.54061e-11
1.04034e-11 1.54061e-11 5.6094

-3.72887 6.62953 3.62891e-11
6.62953 0.262434 2.25327e-11
3.62891e-11 2.25327e-11 -2.43605

-6.09312 -2.24897 3.65715e-12
-2.24897 0.636773 1.46301e-11
3.65715e-12 1.46301e-11 -3.03171

0.480507 5.65146 -2.17593e-11
5.65146 3.46609 -2.12053e-12
-2.17593e-11 -2.12053e-12 0.405905

-7.34957 4.98857 -1.31914e-11
4.98857 -0.638525 4.04099e-12
-1.31914e-11 4.04099e-12 -3.18921

-13.176 -1.79422 -4.13519e-12
-1.79422 2.87437 3.85181e-12
-4.13519e-12 3.85181e-12 -3.82929

5.11047 -1.11248 -4.42917e-11
-1.11248 -7.04864 4.23617e-12
-4.42917e-11 4.23617e-12 0.0647636

3.52062 2.64555 -9.82362e-12
2.64555 11.6887 9.62845e-12
-9.82362e-12 9.62845e-12 4.21206

0.888056 -0.692018 1.31898e-11
-0.692018 11.6177 -1.84929e-11
1.31898e-11 -1.84929e-11 4.23305

11.5976 2.69629 6.62729e-11
2.69629 2.57675 -1.57837e-11
6.62729e-11 -1.57837e-11 4.66244

7.84775 -2.79509 -1.01094e-11
-2.79509 -1.58211 -4.62138e-12
-1.01094e-11 -4.62138e-12 1.91825

-1.59056 4.81293 -5.10373e-11
4.81293 6.05448 4.22506e-12
-5.10373e-11 4.22506e-12 1.52396

2.82281 -3.65292 1.31024e-11
-3.65292 5.56252 -4.62217e-11
1.31024e-11 -4.62217e-11 1.81941

6.59911 -1.80006 -8.22971e-13
-1.80006 -6.72714 1.19429e-11
-8.22971e-13 1.19429e-11 -0.0024171

11.2104 3.64305 8.86372e-12
3.64305 15.3869 -3.85795e-12
8.86372e-12 -3.85795e-12 9.88577

5.12234 0.383974 1.22261e-11
0.383974 -9.23831 -2.1236e-12
1.22261e-11 -2.1236e-12 -1.17607

14.763 3.93545 -1.6186e-11
3.93545 10.9016 1.80945e-11
-1.6186e-11 1.80945e-11 10.3792

-7.18835 0.433375 9.43309e-12
0.433375 1.49529 -2.31008e-12
9.43309e-12 -2.31008e-12 -4.03514

-3.43003 2.28644 2.11953e-12
2.28644 -1.30518 -9.43053e-12
2.11953e-12 -9.43053e-12 -3.15312

-10.7872 -5.86924 3.23444e-11
-5.86924 -10.177 -2.15699e-11
3.23444e-11 -2.15699e-11 -12.9578

-8.44274 2.55376 -1.87959e-11
2.55376 -12.5215 1.96352e-11
-1.87959e-11 1.96352e-11 -13.0003

12.3058 -0.835456 1.21383e-11
-0.835456 3.0967 -1.73251e-11
1.21383e-11 -1.73251e-11 4.85079

-1.31316 6.8777 -5.80129e-13
6.8777 2.52248 -2.50344e-11
-5.80129e-13 -2.50344e-11 -0.0755592

-3.05054 1.02665 -2.96993e-11
1.02665 -4.38138 1.82897e-11
-2.96993e-11 1.82897e-11 -4.43448

-5.41817 -3.13173 8.27264e-13
-3.13173 -6.0641 1.61781e-11
8.27264e-13 1.61781e-11 -5.05686

6.29901 -0.408206 -3.27871e-11
-0.408206 -10.1298 6.54443e-12
-3.27871e-11 6.54443e-12 -1.10108

-1.8394 5.68799 1.3096e-11
5.68799 3.87833 -1.88724e-11
1.3096e-11 -1.88724e-11 1.07565

0.884451 -5.18464 8.08916e-12
-5.18464 4.95515 -6.16055e-12
8.08916e-12 -6.16055e-12 1.4028

6.82688 -3.65978 7.6108e-12
-3.65978 0.745025 3.85188e-12
7.6108e-12 3.85188e-12 2.13698

6.20982 -0.867906 -7.7998e-12
-0.867906 -10.0375 -2.31309e-12
-7.7998e-12 -2.31309e-12 -0.855646

0.467369 6.70806 1.61728e-11
6.70806 7.25712 -2.44588e-11
1.61728e-11 -2.44588e-11 1.56499

-1.72357 -4.62783 -2.36813e-11
-4.62783 4.22159 -1.65656e-11
-2.36813e-11 -1.65656e-11 1.17162

0.528825 6.20354 -4.58315e-11
6.20354 7.08324 1.7131e-11
-4.58315e-11 1.7131e-11 1.5024

-2.43331 -3.71846 1.55037e-11
-3.71846 6.67679 -2.42615e-11
1.55037e-11 -2.42615e-11 1.48313

-1.61713 -3.0714 8.85458e-12
-3.0714 0.96453 -2.07933e-11
8.85458e-12 -2.07933e-11 -0.38346

-8.41351 4.32381 1.56014e-11
4.32381 2.41577 3.85218e-12
1.56014e-11 3.85218e-12 -0.966168

5.25321 -5.39525 6.35107e-12
-5.39525 3.05292 1.17391e-11
6.35107e-12 1.17391e-11 2.7377

30.3665 -4.77515 2.36962e-11
-4.77515 29.6822 -2.00359e-11
2.36962e-11 -2.00359e-11 29.9714

28.8275 -5.13169 -3.67964e-11
-5.13169 31.402 -4.24024e-12
-3.67964e-11 -4.24024e-12 30.3447

-6.70945 8.03781 2.16599e-11
8.03781 1.82006 1.27126e-11
2.16599e-11 1.27126e-11 -1.96382

-12.1193 -5.24082 -1.30922e-11
-5.24082 0.370255 2.11791e-11
-1.30922e-11 2.11791e-11 -2.96621

18.1947 -1.03174 -2.54255e-11
-1.03174 18.2441 -3.50621e-11
-2.54255e-11 -3.50621e-11 20.2

17.9941 -1.10672 9.82422e-12
-1.10672 18.7924 -1.98455e-11
9.82422e-12 -1.98455e-11 19.735

-1.158 4.6007 -3.61935e-11
4.6007 -6.04111 -1.81087e-11
-3.61935e-11 -1.81087e-11 -4.47009

0.254556 -3.50631 3.08114e-11
-3.50631 -6.63758 -2.55958e-11
3.08114e-11 -2.55958e-11 -3.20605

2.74148 -0.158709 5.9656e-12
-0.158709 -8.92076 3.38906e-11
5.9656e-12 3.38906e-11 -0.629645

-2.15178 6.46405 -4.19702e-11
6.46405 -6.89043 3.45168e-12
-4.19702e-11 3.45168e-12 -4.93294

-0.187324 -4.66834 4.93132e-11
-4.66834 -9.5964 -3.05977e-11
4.93132e-11 -3.05977e-11 -3.87103

-5.69637 4.56617 -2.19525e-11
4.56617 3.96935 -5.27742e-11
-2.19525e-11 -5.27742e-11 0.0455901

-1.85971 -3.60028 1.13534e-11
-3.60028 3.65846 3.35025e-11
1.13534e-11 3.35025e-11 0.229116

-5.43289 2.25498 9.19524e-12
2.25498 -12.2409 -3.28708e-11
9.19524e-12 -3.28708e-11 -10.3313

-8.53277 -2.96534 -8.60103e-12
-2.96534 -10.5417 -2.09003e-11
-8.60103e-12 -2.09003e-11 -10.558

-0.901634 6.97351 -1.67575e-11
6.97351 -5.60932 -6.93223e-12
-1.67575e-11 -6.93223e-12 -2.23163

1.10525 -5.51494 -1.19321e-11
-5.51494 -6.24924 -4.08569e-12
-1.19321e-11 -4.08569e-12 -1.59063

11.0633 -3.72849 1.85925e-11
-3.72849 5.08326 -3.46618e-11
1.85925e-11 -3.46618e-11 6.20851

-11.7072 -0.190287 -2.88665e-12
-0.190287 0.27555 9.62371e-12
-2.88665e-12 9.62371e-12 -9.01403

-8.90446 1.40152 5.76132e-13
1.40152 -5.01028 1.19357e-11
5.76132e-13 1.19357e-11 -7.20241

8.74876 -0.657498 -2.50118e-12
-0.657498 15.6634 -3.35225e-11
-2.50118e-12 -3.35225e-11 10.5779

15.6304 -0.81666 -1.5404e-12
-0.81666 9.69869 -1.19415e-11
-1.5404e-12 -1.19415e-11 10.7714

-9.14246 3.87298 2.81172e-11
3.87298 3.07821 1.04041e-11
2.81172e-11 1.04041e-11 -1.16215

-3.93315 -2.25873 -2.94579e-11
-2.25873 2.16337 -1.84891e-11
-2.94579e-11 -1.84891e-11 -0.704609

-3.50852 -1.33814 -7.69902e-11
-1.33814 1.06804 -3.81172e-11
-7.69902e-11 -3.81172e-11 -14.3292

-3.09239 -4.26707 -2.73017e-11
-4.26707 -15.9731 -1.24558e-10
-2.73017e-11 -1.24558e-10 -13.0185

2.00809 6.1954 -1.11669e-11
6.1954 -6.85073 -3.65798e-11
-1.11669e-11 -3.65798e-11 -1.13361

2.91524 -4.08588 -1.5404e-12
-4.08588 -7.38968 -8.28071e-12
-1.5404e-12 -8.28071e-12 -0.841032

12.2153 0.104762 3.63053e-11
0.104762 2.19128 -1.07818e-11
3.63053e-11 -1.07818e-11 4.72147

7.18419 0.20133 -4.25615e-11
0.20133 -3.50727 -1.03969e-11
-4.25615e-11 -1.03969e-11 1.34535

9.68401 3.01304 -1.06833e-11
3.01304 -0.352564 -2.38726e-11
-1.06833e-11 -2.38726e-11 2.54634

-1.94382 1.1048 -1.3646e-11
1.1048 -9.31156 -2.06023e-11
-1.3646e-11 -2.06023e-11 -4.42647

-22.5319 -2.1913 2.07604e-12
-2.1913 -9.52813 -6.92546e-12
2.07604e-12 -6.92546e-12 -17.3774

-16.0048 1.12514 5.40753e-11
1.12514 -15.0525 2.00214e-11
5.40753e-11 2.00214e-11 -17.1609

7.33224 5.22777 -3.04361e-11
5.22777 9.40937 -1.83068e-11
-3.04361e-11 -1.83068e-11 4.79288

0.798593 -4.53508 1.03083e-11
-4.53508 -1.67084 -1.0397e-11
1.03083e-11 -1.0397e-11 0.0879247

4.27554 4.971 2.38825e-11
4.971 -5.00422 1.69484e-11
2.38825e-11 1.69484e-11 0.0704849

-11.7596 2.13288 3.85014e-11
2.13288 -7.64218 3.28243e-11
3.85014e-11 3.28243e-11 -9.79839

-11.2613 3.1517 1.59769e-11
3.1517 -1.04314 -8.08272e-12
1.59769e-11 -8.08272e-12 -11.225

-3.81491 -2.62902 -8.90007e-12
-2.62902 -8.53733 -2.96511e-11
-8.90007e-12 -2.96511e-11 -4.6116

-2.02057 4.08147 -9.34008e-12
4.08147 3.07075 4.15884e-11
-9.34008e-12 4.15884e-11 -0.581529

-8.14522 -0.742058 5.49219e-12
-0.742058 4.33782 2.11832e-11
5.49219e-12 2.11832e-11 -1.28254

2.46676 3.07972 2.50366e-11
3.07972 -11.274 -6.54107e-12
2.50366e-11 -6.54107e-12 -1.40222

2.8871 -0.619001 5.16083e-11
-0.619001 -12.1339 1.21398e-11
5.16083e-11 1.21398e-11 -1.25766

9.95021 -4.0575 6.92394e-12
-4.0575 7.34458 3.69787e-11
6.92394e-12 3.69787e-11 5.40688

1.37333 5.55673 -8.85788e-12
5.55673 -9.79072 6.54743e-12
-8.85788e-12 6.54743e-12 -2.57362

1.94665 -3.50874 2.47889e-11
-3.50874 -11.9949 2.92702e-11
2.47889e-11 2.92702e-11 -2.24372

4.34045 -2.71391 -3.46634e-11
-2.71391 -4.66198 1.73299e-11
-3.46634e-11 1.73299e-11 0.219588

2.0181 4.03605 1.1567e-12
4.03605 -8.11898 -1.17452e-11
1.1567e-12 -1.17452e-11 -1.39684

1.6265 -2.05695 4.19767e-11
-2.05695 -8.97705 -3.82287e-13
4.19767e-11 -3.82287e-13 -1.26289

4.73656 -1.72789 3.47617e-11
-1.72789 -4.7695 2.31319e-12
3.47617e-11 2.31319e-12 -0.0698295

-6.02676 7.26531 -2.96498e-11
7.26531 -2.48427 -4.62586e-12
-2.96498e-11 -4.62586e-12 -1.48857

0.734989 -6.23228 -3.85714e-12
-6.23228 -2.30361 1.69465e-11
-3.85714e-12 1.69465e-11 -0.555294

6.07237 4.89878 -2.15696e-11
4.89878 4.33245 6.54151e-12
-2.15696e-11 6.54151e-12 2.32038

-3.60032 -4.55717 5.20154e-12
-4.55717 -0.21588 -3.52329e-11
5.20154e-12 -3.52329e-11 -0.937739

-9.28968 5.06397 2.31055e-11
5.06397 -2.26193 -2.07958e-11
2.31055e-11 -2.07958e-11 -2.00931

7.58406 4.47204 -3.71683e-11
4.47204 -2.23986 -2.96601e-11
-3.71683e-11 -2.96601e-11 1.92841

-1.49811 -3.99729 1.86768e-11
-3.99729 -5.49679 -1.81031e-11
1.86768e-11 -1.81031e-11 -1.7645

5.79145 1.67738 2.59962e-11
1.67738 -2.6332 -4.60181e-11
2.59962e-11 -4.60181e-11 0.406272

3.16631 6.37733 -4.04647e-12
6.37733 4.26767 3.07991e-12
-4.04647e-12 3.07991e-12 1.88079

1.98323 5.14955 -1.66558e-11
5.14955 -0.879339 1.21313e-11
-1.66558e-11 1.21313e-11 0.0249351

-5.57808 2.05079 -3.38929e-11
2.05079 2.48388 6.16055e-12
-3.38929e-11 6.16055e-12 -1.21558

-10.5856 0.574746 -1.69435e-11
0.574746 5.26077 1.61715e-11
-1.69435e-11 1.61715e-11 -1.34138

11.4376 -3.91907 1.51161e-11
-3.91907 3.47492 -1.82926e-11
1.51161e-11 -1.82926e-11 5.56479

-8.11173 -7.11542 1.83934e-11
-7.11542 -2.33543 2.61862e-11
1.83934e-11 2.61862e-11 -1.765

-5.40952 7.8055 -1.73335e-12
7.8055 2.0266 -1.27086e-11
-1.73335e-12 -1.27086e-11 -1.34404

5.37188 -5.76342 -2.12238e-12
-5.76342 5.92431 5.81625e-11
-2.12238e-12 5.81625e-11 2.8806

2.4706 6.94232 2.48416e-11
6.94232 5.98798 1.7339e-11
2.48416e-11 1.7339e-11 2.66703

3.53031 -3.22991 2.26286e-11
-3.22991 -3.59381 9.91577e-12
2.26286e-11 9.91577e-12 -0.017169

1.84316 -0.831207 -8.42533e-12
-0.831207 -11.2088 -1.19386e-11
-8.42533e-12 -1.19386e-11 -2.67834

3.67893 0.241187 -1.30496e-11
0.241187 -11.4618 4.33202e-11
-1.30496e-11 4.33202e-11 -2.42523

0.213464 -5.4081 -3.74841e-12
-5.4081 1.16412 -3.10054e-11
-3.74841e-12 -3.10054e-11 0.641957

1.48682 1.10858 3.38999e-11
1.10858 12.4506 -1.73319e-11
3.38999e-11 -1.73319e-11 4.53994

-0.544897 0.950615 4.256e-11
0.950615 12.4938 1.73399e-11
4.256e-11 1.73399e-11 4.64423

12.141 1.00727 3.89144e-11
1.00727 0.806438 7.51937e-12
3.89144e-11 7.51937e-12 4.97674

8.32303 5.74572 1.15138e-12
5.74572 6.98369 2.35034e-11
1.15138e-12 2.35034e-11 5.16545

6.46606 -5.63972 5.38636e-12
-5.63972 0.952745 1.59831e-11
5.38636e-12 1.59831e-11 2.24045

-17.5157 6.43393 -7.3921e-11
6.43393 -9.53257 -1.31916e-11
-7.3921e-11 -1.31916e-11 -13.9951

-1.94556 -1.69062 -2.31057e-11
-1.69062 -1.59895 5.5052e-11
-2.31057e-11 5.5052e-11 -13.0768

8.27361 -1.91436 4.62075e-12
-1.91436 -2.7876 1.48289e-11
4.62075e-12 1.48289e-11 1.8538

-6.59143 5.07706 6.16244e-12
5.07706 0.986937 3.07887e-12
6.16244e-12 3.07887e-12 -0.67076

-0.494267 -5.73582 4.43046e-12
-5.73582 1.47284 5.3911e-12
4.43046e-12 5.3911e-12 0.0581794

3.68573 2.62925 4.19792e-11
2.62925 -8.54699 -4.61316e-12
4.19792e-11 -4.61316e-12 -0.431786

-0.350498 5.36248 1.29062e-11
5.36248 8.52088 3.15869e-11
1.29062e-11 3.15869e-11 1.80209

-3.94717 -2.38563 5.39172e-12
-2.38563 7.90021 -2.42696e-11
5.39172e-12 -2.42696e-11 1.52408

-12.7368 5.39526 -1.67514e-11
5.39526 0.375493 -3.85173e-12
-1.67514e-11 -3.85173e-12 -2.94305

-3.96258 -2.221 -1.117e-11
-2.221 -0.760974 1.34737e-12
-1.117e-11 1.34737e-12 -1.4349

-8.31953 5.46061 -9.43664e-12
5.46061 -3.97636 3.65866e-11
-9.43664e-12 3.65866e-11 -2.10009

-1.95562 -5.52917 -3.85617e-12
-5.52917 -1.31357 2.02161e-11
-3.85617e-12 2.02161e-11 -0.837611

2.04297 0.443242 -2.58061e-11
0.443242 -18.6472 -1.54463e-12
-2.58061e-11 -1.54463e-12 -2.43186

5.1692 6.96449 -2.61996e-11
6.96449 1.3317 -2.5427e-11
-2.61996e-11 -2.5427e-11 2.31205

-5.85976 8.334 3.02772e-11
8.334 3.9872 2.67705e-11
3.02772e-11 2.67705e-11 -1.05068

-9.95327 -6.17842 1.16536e-11
-6.17842 -4.43311 1.3477e-11
1.16536e-11 1.3477e-11 -2.37658

3.27237 5.89867 -2.44672e-11
5.89867 2.50818 2.46535e-11
-2.44672e-11 2.46535e-11 1.93053

6.259 -3.58441 1.60895e-11
-3.58441 9.64149 -4.75668e-11
1.60895e-11 -4.75668e-11 5.44886

-4.35834 -5.3787 -1.37645e-11
-5.3787 -0.681188 -3.15786e-11
-1.37645e-11 -3.15786e-11 -0.732159

4.13508 -1.14469 -5.58503e-11
-1.14469 10.8062 1.55967e-11
-5.58503e-11 1.55967e-11 4.00527

0.580368 3.05207 -1.09766e-11
3.05207 10.8847 -1.81049e-11
-1.09766e-11 -1.81049e-11 3.74676

10.5889 -1.1748 4.0069e-11
-1.1748 2.62574 -1.53952e-11
4.0069e-11 -1.53952e-11 4.24747

5.03921 -5.05638 -1.90801e-11
-5.05638 3.78399 3.87053e-11
-1.90801e-11 3.87053e-11 2.27215

-5.1142 0.83261 -1.59803e-11
0.83261 7.68441 -3.23593e-11
-1.59803e-11 -3.23593e-11 0.824481

0.557151 1.16412 -3.85098e-12
1.16412 6.91153 -2.19536e-11
-3.85098e-12 -2.19536e-11 1.31073

7.92328 -4.78907 8.86372e-12
-4.78907 9.32949 4.04832e-12
8.86372e-12 4.04832e-12 5.81208

5.18537 5.95511 1.23279e-11
5.95511 9.19772 2.88907e-11
1.23279e-11 2.88907e-11 5.40958

-0.0829044 1.14658 2.54192e-11
1.14658 -12.287 1.69489e-11
2.54192e-11 1.69489e-11 -1.93704

-0.412908 0.0110661 -3.85111e-11
0.0110661 -13.4875 -1.88756e-11
-3.85111e-11 -1.88756e-11 -1.98946

-4.04101 6.07503 -3.65678e-12
6.07503 -0.97861 -1.65605e-11
-3.65678e-12 -1.65605e-11 -0.611443

-0.17699 -5.04168 -1.38634e-11
-5.04168 1.14691 4.61771e-12
-1.38634e-11 4.61771e-12 0.0514665

-6.68747 8.23212 -3.90862e-11
8.23212 2.58373 -1.34848e-11
-3.90862e-11 -1.34848e-11 -1.65694

-13.4995 -4.67739 6.52808e-11
-4.67739 0.148948 -3.27317e-11
6.52808e-11 -3.27317e-11 -2.83711

-3.3476 5.42555 3.50448e-11
5.42555 -1.25645 1.50261e-11
3.50448e-11 1.50261e-11 -1.65928

13.3489 3.38942 -4.48829e-11
3.38942 7.33449 -5.78619e-12
-4.48829e-11 -5.78619e-12 7.84117

0.0610732 -3.08207 -1.00046e-11
-3.08207 7.67437 -5.70101e-11
-1.00046e-11 -5.70101e-11 1.8119

-3.75431 4.15769 -2.6384e-11
4.15769 7.74856 1.19376e-11
-2.6384e-11 1.19376e-11 1.55218

0.507434 4.96334 -1.00172e-11
4.96334 -7.75001 1.2421e-11
-1.00172e-11 1.2421e-11 -3.18669

1.32032 -2.85192 3.65944e-11
-2.85192 -8.17365 -2.15634e-11
3.65944e-11 -2.15634e-11 -2.35819

3.79035 -4.72057 -1.55903e-11
-4.72057 -0.824977 1.90684e-11
-1.55903e-11 1.90684e-11 0.659811

2.06062 5.86351 -4.40991e-11
5.86351 -4.79735 -5.78367e-12
-4.40991e-11 -5.78367e-12 -0.900744

2.53914 -4.09669 -1.09724e-11
-4.09669 -4.0685 -2.79166e-11
-1.09724e-11 -2.79166e-11 -0.50487

17.8365 -1.55913 6.54882e-12
-1.55913 10.6388 -1.77187e-11
6.54882e-12 -1.77187e-11 18.6739

10.7334 -1.93507 -5.2589e-11
-1.93507 17.3863 -1.27148e-11
-5.2589e-11 -1.27148e-11 18.9233

-1.52705 6.60768 3.85425e-12
6.60768 -7.57218 -2.2989e-12
3.85425e-12 -2.2989e-12 -8.55016

-0.294276 -4.64696 -4.85021e-11
-4.64696 -12.7363 -5.66029e-11
-4.85021e-11 -5.66029e-11 -6.99796

2.85495 6.44467 1.57889e-11
6.44467 -1.65413 -1.69421e-11
1.57889e-11 -1.69421e-11 0.457329

13.927 3.06767 -4.74878e-11
3.06767 6.56214 1.09743e-11
-4.74878e-11 1.09743e-11 7.9354

-5.22961 5.74946 1.77161e-11
5.74946 3.65696 3.37036e-11
1.77161e-11 3.37036e-11 -0.908837

-10.0442 -2.22535 -4.44758e-11
-2.22535 4.6867 -2.70095e-12
-4.44758e-11 -2.70095e-12 -1.13813

2.4969 -5.47215 -3.38031e-11
-5.47215 5.04872 1.61733e-11
-3.38031e-11 1.61733e-11 2.52866

-5.80738 3.54039 1.61726e-11
3.54039 -0.641344 3.46182e-12
1.61726e-11 3.46182e-12 -3.2779

-4.46206 -2.00093 4.61856e-12
-2.00093 -1.93622 -5.7887e-13
4.61856e-12 -5.7887e-13 -2.70439

8.55565 4.31028 -2.00355e-11
4.31028 1.08897 -1.25185e-11
-2.00355e-11 -1.25185e-11 2.65082

6.77616 2.32664 -2.6763e-11
2.32664 -4.11352 -3.31269e-11
-2.6763e-11 -3.31269e-11 1.14314

-12.3092 8.05601 -7.51045e-12
8.05601 -2.13216 1.54095e-12
-7.51045e-12 1.54095e-12 -2.31304

-0.504363 -4.13555 -2.82963e-11
-4.13555 -0.750152 -1.79066e-11
-2.82963e-11 -1.79066e-11 -0.291535

-3.706 6.66447 -4.07264e-11
6.66447 5.7004 6.54365e-12
-4.07264e-11 6.54365e-12 0.0891789

-6.95115 -3.57018 -5.3932e-12
-3.57018 4.12709 5.62404e-11
-5.3932e-12 5.62404e-11 -0.136557

-0.268644 7.27865 2.44534e-11
7.27865 -3.60417 -8.08546e-12
2.44534e-11 -8.08546e-12 -0.808899

2.24419 -6.1969 1.2131e-11
-6.1969 -3.12148 -1.42468e-11
1.2131e-11 -1.42468e-11 -0.302979

-5.58761 2.06457 1.00183e-11
2.06457 7.68701 -3.08111e-11
1.00183e-11 -3.08111e-11 0.851828

-1.34113 -0.153335 1.21299e-11
-0.153335 6.4329 -6.92779e-12
1.21299e-11 -6.92779e-12 0.956656

15.0671 -2.36014 -2.83196e-11
-2.36014 18.8949 2.30334e-12
-2.83196e-11 2.30334e-12 15.3505

18.3156 -2.29004 -1.07834e-11
-2.29004 15.7625 -1.30999e-11
-1.07834e-11 -1.30999e-11 15.3712

4.3401 3.77973 2.86963e-11
3.77973 -6.74575 8.10185e-12
2.86963e-11 8.10185e-12 -0.0933283

1.16194 1.15015 -4.34985e-11
1.15015 -7.67393 -3.19526e-11
-4.34985e-11 -3.19526e-11 -13.5288

-1.08642 -4.12281 6.12336e-11
-4.12281 -16.0108 -6.30259e-12
6.12336e-11 -6.30259e-12 -11.7422

-9.81797 -5.46666 1.7211e-11
-5.46666 -3.87632 -3.23394e-11
1.7211e-11 -3.23394e-11 -7.66217

-9.60452 1.71408 -3.829e-11
1.71408 -6.97682 5.19647e-12
-3.829e-11 5.19647e-12 -8.43227

7.75479 -0.322889 5.96715e-12
-0.322889 -6.9306 2.32967e-11
5.96715e-12 2.32967e-11 0.0704214

-6.38615 8.95699 1.34832e-12
8.95699 3.78749 1.59818e-11
1.34832e-12 1.59818e-11 -1.01019

-13.7933 -8.40923 5.77925e-12
-8.40923 -2.31252 -5.39209e-12
5.77925e-12 -5.39209e-12 -2.45903

12.0605 4.47603 1.58005e-11
4.47603 13.9409 6.54602e-12
1.58005e-11 6.54602e-12 11.7667

13.6169 4.70126 9.63237e-12
4.70126 12.9551 -1.62787e-11
9.63237e-12 -1.62787e-11 11.1675

7.74432 -1.71644 -2.88849e-11
-1.71644 14.857 -3.12039e-11
-2.88849e-11 -3.12039e-11 9.09529

7.13123 3.54996 3.17781e-11
3.54996 14.0558 1.61752e-11
3.17781e-11 1.61752e-11 8.7486

14.9259 -0.857696 2.23476e-11
-0.857696 7.41467 -3.91915e-11
2.23476e-11 -3.91915e-11 9.3081

8.91636 2.09252 -1.09748e-11
2.09252 17.3326 -1.25229e-11
-1.09748e-11 -1.25229e-11 11.3521

16.462 2.4526 -1.88784e-11
2.4526 9.17335 -3.84554e-12
-1.88784e-11 -3.84554e-12 11.7139

-8.51664 0.626023 -1.32799e-11
0.626023 0.810155 -3.11981e-11
-1.32799e-11 -3.11981e-11 -5.85317

-6.85076 4.71208 9.23898e-12
4.71208 -1.73924 -8.95402e-12
9.23898e-12 -8.95402e-12 -5.08316

3.9373 0.76012 1.03513e-11
0.76012 -3.77756 9.64414e-13
1.03513e-11 9.64414e-13 -0.732556

6.31961 -0.144139 -2.34933e-11
-0.144139 -10.9989 -2.92678e-11
-2.34933e-11 -2.92678e-11 -1.04646

3.04889 -2.85123 -1.54079e-11
-2.85123 9.24671 5.16181e-11
-1.54079e-11 5.16181e-11 3.74283

0.967006 4.28146 -1.15605e-11
4.28146 8.48402 -9.63955e-12
-1.15605e-11 -9.63955e-12 3.5319

7.35174 -0.213188 3.27931e-11
-0.213188 -7.66067 1.11704e-11
3.27931e-11 1.11704e-11 -0.116374

-1.25295 3.65197 -1.00041e-11
3.65197 -7.16419 -2.00326e-11
-1.00041e-11 -2.00326e-11 -6.07395

-0.206921 -2.60002 -4.4643e-11
-2.60002 -9.87325 -5.21683e-11
-4.4643e-11 -5.21683e-11 -4.74086

-0.808289 3.54044 2.85432e-11
3.54044 0.209964 2.58077e-11
2.85432e-11 2.58077e-11 -1.03166

-5.48851 -5.86351 7.70902e-12
-5.86351 -0.57645 2.34888e-11
7.70902e-12 2.34888e-11 -0.70093

-3.56373 7.53043 1.242e-11
7.53043 5.09858 -7.12349e-12
1.242e-11 -7.12349e-12 -0.115142

4.4075 0.750926 2.05597e-11
0.750926 -8.14741 4.04358e-12
2.05597e-11 4.04358e-12 -1.22619

8.33483 5.38598 -2.72557e-11
5.38598 6.81506 5.00385e-12
-2.72557e-11 5.00385e-12 4.77861

-7.5077 -4.4631 4.99708e-11
-4.4631 1.77782 4.00603e-11
4.99708e-11 4.00603e-11 -0.604164

-3.28151 8.04861 8.85832e-12
8.04861 4.54462 6.74061e-12
8.85832e-12 6.74061e-12 -0.120753

31.3396 9.40766 1.67613e-11
9.40766 32.0453 5.39441e-11
1.67613e-11 5.39441e-11 31.816

-6.18187 -0.563494 1.56068e-11
-0.563494 7.82705 -1.88775e-11
1.56068e-11 -1.88775e-11 0.762103

-2.59377 3.06747 1.27096e-11
3.06747 6.81549 -3.08127e-11
1.27096e-11 -3.08127e-11 0.721504

-11.1978 -0.741005 -9.60851e-13
-0.741005 2.75576 -1.38621e-11
-9.60851e-13 -1.38621e-11 -6.85268

-7.77261 3.72535 -5.82904e-13
3.72535 -4.70687 3.2442e-11
-5.82904e-13 3.2442e-11 -6.20762

1.56929 3.04317 -5.43032e-11
3.04317 -15.7247 -2.19498e-11
-5.43032e-11 -2.19498e-11 -3.01568

1.93217 -2.07302 -4.04381e-11
-2.07302 -18.8504 3.07354e-12
-4.04381e-11 3.07354e-12 -2.98623

-4.88426 4.08037 -2.03168e-11
4.08037 -3.86552 1.77143e-11
-2.03168e-11 1.77143e-11 -3.51498

-5.88638 -6.14285 2.6903e-11
-6.14285 -4.64659 4.61894e-12
2.6903e-11 4.61894e-12 -3.48385

-8.09995 3.45262 -2.02658e-11
3.45262 -2.98318 1.48232e-11
-2.02658e-11 1.48232e-11 -6.45026

-7.80067 -4.82618 2.14685e-11
-4.82618 -5.90188 -3.82944e-13
2.14685e-11 -3.82944e-13 -6.48518

-2.5844 6.33209 -3.42683e-11
6.33209 -6.03241 1.96247e-11
-3.42683e-11 1.96247e-11 -11.592

-1.09073 -4.47458 -2.65784e-11
-4.47458 -13.598 6.79562e-11
-2.65784e-11 6.79562e-11 -9.39281

-8.61708 8.87625 -1.54003e-12
8.87625 -4.63364 1.96395e-11
-1.54003e-12 1.96395e-11 -2.95525

1.5141 -4.76397 1.35018e-12
-4.76397 -3.847 1.15515e-11
1.35018e-12 1.15515e-11 -0.977164

3.28913 6.57722 6.93105e-12
6.57722 -3.44387 3.85207e-11
6.93105e-12 3.85207e-11 0.251034

-1.19923 5.68263 3.5622e-12
5.68263 5.88418 -3.69732e-11
3.5622e-12 -3.69732e-11 0.591829

-6.35132 -2.27095 -3.60054e-11
-2.27095 5.55656 4.23673e-11
-3.60054e-11 4.23673e-11 0.139104

3.43168 -6.65978 -3.27027e-12
-6.65978 0.123814 1.34788e-11
-3.27027e-12 1.34788e-11 0.844116

9.19422 -3.59126 4.87545e-11
-3.59126 7.75747 -1.81011e-11
4.87545e-11 -1.81011e-11 5.71592

4.98636 -4.78663 -5.04587e-11
-4.78663 -3.13901 2.36882e-11
-5.04587e-11 2.36882e-11 0.596455

0.83479 7.24538 -6.7983e-11
7.24538 -0.369665 5.76213e-12
-6.7983e-11 5.76213e-12 0.493459

-11.6295 -9.7091 -4.71312e-12
-9.7091 -4.39314 9.24591e-12
-4.71312e-12 9.24591e-12 -3.34972

-7.52669 7.7358 3.12404e-11
7.7358 0.87744 1.82979e-11
3.12404e-11 1.82979e-11 -2.55534

2.29648 -1.71258 -2.09399e-11
-1.71258 -5.30657 -2.54221e-11
-2.09399e-11 -2.54221e-11 -1.26458

-2.21099 -2.86037 1.66916e-10
-2.86037 -3.59758 -3.5004e-11
1.66916e-10 -3.5004e-11 -13.6045

-14.3122 2.46785 5.08193e-11
2.46785 -10.06 3.55335e-11
5.08193e-11 3.55335e-11 -14.1546

-0.435212 2.97171 8.90236e-12
2.97171 -4.45923 -2.11823e-12
8.90236e-12 -2.11823e-12 -1.65486

1.06254 -1.18003 3.62013e-11
-1.18003 -8.47993 -2.71465e-11
3.62013e-11 -2.71465e-11 -3.86273

15.9572 -3.34983 2.0998e-12
-3.34983 18.0598 4.3732e-11
2.0998e-12 4.3732e-11 14.5634

18.209 -3.17642 -1.02089e-10
-3.17642 14.2688 -4.2954e-11
-1.02089e-10 -4.2954e-11 14.2727

1.48595 0.975887 -4.23639e-11
0.975887 -11.4059 -8.85932e-12
-4.23639e-11 -8.85932e-12 -3.06113

1.20858 0.248592 -2.15677e-11
0.248592 -13.9497 2.86802e-11
-2.15677e-11 2.86802e-11 -2.79192

-0.70087 0.0934492 1.41305e-11
0.0934492 -6.97946 -1.27078e-11
1.41305e-11 -1.27078e-11 -3.87507

0.436126 -2.63518 1.2865e-11
-2.63518 4.42517 3.08198e-12
1.2865e-11 3.08198e-12 0.75481

-5.47256 3.42943 6.05016e-12
3.42943 5.14276 -6.35471e-11
6.05016e-12 -6.35471e-11 0.214477

6.83598 5.28339 -4.61643e-11
5.28339 -0.432481 1.0007e-11
-4.61643e-11 1.0007e-11 1.98142

-0.646775 6.03284 -2.42458e-11
6.03284 -4.98176 -2.96538e-11
-2.42458e-11 -2.96538e-11 -2.05408

0.96428 -4.72241 -1.77002e-11
-4.72241 -3.64493 -3.69656e-11
-1.77002e-11 -3.69656e-11 -1.21519

-15.2732 0.786303 -2.67379e-13
0.786303 -18.4338 4.64135e-11
-2.67379e-13 4.64135e-11 -18.6498

-14.1474 -6.67906 -4.06823e-12
-6.67906 -5.143 -6.92364e-11
-4.06823e-12 -6.92364e-11 -15.763

4.84446 2.65258 -1.89725e-11
2.65258 -0.67919 -6.16536e-12
-1.89725e-11 -6.16536e-12 0.511373

0.554915 4.25256 -1.43439e-11
4.25256 -6.45919 -7.3159e-11
-1.43439e-11 -7.3159e-11 -2.98013

0.834557 -3.16962 8.47855e-12
-3.16962 -8.40345 -2.59925e-11
8.47855e-12 -2.59925e-11 -2.44062

-8.12416 -2.5761 -9.32756e-12
-2.5761 2.01779 -3.92858e-11
-9.32756e-12 -3.92858e-11 -1.21708

-3.1012 7.29425 1.35743e-11
7.29425 3.59243 2.19563e-11
1.35743e-11 2.19563e-11 -0.545116

-5.11393 9.28663 -5.89177e-11
9.28663 4.09746 -1.42594e-11
-5.89177e-11 -1.42594e-11 -0.687274

-9.94664 -5.58097 2.10912e-11
-5.58097 -2.60065 -8.85732e-12
2.10912e-11 -8.85732e-12 -1.91552

34.2914 10.74 5.58675e-11
10.74 34.5878 -1.98322e-11
5.58675e-11 -1.98322e-11 33.3128

-7.55014 5.7543 3.06607e-11
5.7543 1.00253 1.02109e-11
3.06607e-11 1.02109e-11 -3.36717

-10.5597 -6.56274 -5.86575e-12
-6.56274 -2.30618 3.46674e-12
-5.86575e-12 3.46674e-12 -3.87537

-10.2128 -5.09075 3.82266e-11
-5.09075 0.755919 -1.38658e-11
3.82266e-11 -1.38658e-11 -1.4069

-5.77609 7.97481 -1.41505e-11
7.97481 3.93913 3.31184e-11
-1.41505e-11 3.31184e-11 -0.821789

7.60946 -3.53429 -1.8879e-11
-3.53429 0.179911 -2.46495e-11
-1.8879e-11 -2.46495e-11 2.09824

-2.00458 -4.27976 1.49245e-11
-4.27976 -2.86697 -1.57864e-11
1.49245e-11 -1.57864e-11 -1.44027

-5.70117 4.68383 -1.06371e-11
4.68383 -1.15699 -1.17433e-11
-1.06371e-11 -1.17433e-11 -3.13152

-6.16925 -6.37735 2.22948e-11
-6.37735 -5.20751 -1.65703e-11
2.22948e-11 -1.65703e-11 -3.37269

2.89385 -1.67287 -1.44655e-12
-1.67287 -9.15582 -2.70217e-12
-1.44655e-12 -2.70217e-12 -1.63744

-0.489621 1.75793 -2.11815e-11
1.75793 -5.21166 6.00639e-11
-2.11815e-11 6.00639e-11 -4.05062

-0.612591 -1.80044 -2.96732e-11
-1.80044 -10.1774 6.29471e-11
-2.96732e-11 6.29471e-11 -3.72952

-13.1507 1.95735 5.64014e-11
1.95735 0.367587 1.11738e-11
5.64014e-11 1.11738e-11 -12.6868

-12.4595 2.60011 -3.00307e-11
2.60011 -4.30114 -7.84546e-11
-3.00307e-11 -7.84546e-11 -10.732

18.5345 2.03029 1.17601e-11
2.03029 13.1969 -2.27363e-11
1.17601e-11 -2.27363e-11 19.4686

13.4505 2.02262 -4.92226e-11
2.02262 19.4765 4.58575e-11
-4.92226e-11 4.58575e-11 19.4723

-3.87407 5.86151 -4.15936e-11
5.86151 -3.70016 4.99885e-12
-4.15936e-11 4.99885e-12 -1.75724

-0.242713 -6.01922 -1.30946e-11
-6.01922 -1.74267 1.63711e-11
-1.30946e-11 1.63711e-11 -0.826937

21.4412 4.00137 6.35701e-11
4.00137 20.8901 -1.09678e-11
6.35701e-11 -1.09678e-11 22.7571

20.641 4.37781 -6.6087e-11
4.37781 20.8899 -5.47186e-11
-6.6087e-11 -5.47186e-11 22.6159

-4.24151 -1.57172 6.00358e-11
-1.57172 -8.39572 1.22051e-10
6.00358e-11 1.22051e-10 -11.6442

-3.0113 -1.01154 2.54146e-11
-1.01154 -0.822376 -1.10509e-10
2.54146e-11 -1.10509e-10 -13.6816

-4.04657 -5.77087 7.03156e-12
-5.77087 -3.04051 -3.00366e-11
7.03156e-12 -3.00366e-11 -1.48013

-2.50953 7.43574 -3.42747e-11
7.43574 -4.10846 9.22018e-12
-3.42747e-11 9.22018e-12 -1.62944

1.20127 -6.25377 1.90676e-11
-6.25377 -3.77247 1.30974e-11
1.90676e-11 1.30974e-11 -0.912055

0.2075 6.54556 -1.63685e-11
6.54556 1.46233 -5.16057e-11
-1.63685e-11 -5.16057e-11 0.723751

3.07788 -5.19188 -3.1003e-11
-5.19188 1.86328 -1.73313e-11
-3.1003e-11 -1.73313e-11 0.993336

8.78351 -0.960929 2.32122e-12
-0.960929 14.731 -1.38754e-11
2.32122e-12 -1.38754e-11 8.93357

5.84682 2.7006 2.73476e-11
2.7006 13.8458 1.65675e-11
2.73476e-11 1.65675e-11 8.35814

14.7838 -0.399485 1.27174e-11
-0.399485 7.91408 1.07877e-11
1.27174e-11 1.07877e-11 9.20116

-3.12174 6.93966 -9.43112e-12
6.93966 -0.711817 3.85173e-12
-9.43112e-12 3.85173e-12 -0.513367

0.99548 -6.82801 -9.82274e-12
-6.82801 -0.157129 -1.73295e-11
-9.82274e-12 -1.73295e-11 0.0245387

8.89673 0.434509 -1.92426e-12
0.434509 17.3882 -1.34874e-11
-1.92426e-12 -1.34874e-11 11.9405

17.1533 -0.046895 -2.68806e-11
-0.046895 10.0898 3.77563e-11
-2.68806e-11 3.77563e-11 11.943

-2.83261 7.07789 -3.00463e-11
7.07789 -5.7796 -5.01029e-12
-3.00463e-11 -5.01029e-12 -2.83396

0.839848 -5.04542 3.84944e-12
-5.04542 -4.69213 4.42805e-11
3.84944e-12 4.42805e-11 -1.66941

-3.64447 6.99707 -1.67439e-11
6.99707 -4.55653 -4.62049e-11
-1.67439e-11 -4.62049e-11 -3.28147

-0.0151826 -6.13293 -4.23802e-12
-6.13293 -5.68405 -2.81035e-11
-4.23802e-12 -2.81035e-11 -2.25748

21.0645 4.10244 1.54695e-12
4.10244 21.2519 3.82509e-13
1.54695e-12 3.82509e-13 23.1714

21.1382 3.78752 -3.01508e-11
3.78752 21.8184 5.79936e-11
-3.01508e-11 5.79936e-11 23.2633

-0.574516 6.63058 -1.80959e-11
6.63058 -2.23667 1.92357e-12
-1.80959e-11 1.92357e-12 -0.552421

1.36527 -5.47958 2.59927e-11
-5.47958 -0.694598 -1.9259e-11
2.59927e-11 -1.9259e-11 -0.0770583

-8.44179 4.28822 -3.08014e-11
4.28822 -5.35905 -6.43037e-11
-3.08014e-11 -6.43037e-11 -7.48343

-9.35224 -1.38495 2.50378e-11
-1.38495 -2.37512 -7.21971e-11
2.50378e-11 -7.21971e-11 -8.75486

-7.88656 5.57897 2.84908e-11
5.57897 -2.12813 2.04164e-11
2.84908e-11 2.04164e-11 -3.32266

-0.303404 -6.34479 1.23066e-11
-6.34479 -4.047 5.10185e-11
1.23066e-11 5.10185e-11 -1.90673

-0.641532 5.00629 2.61868e-11
5.00629 -10.6151 -9.2429e-12
2.61868e-11 -9.2429e-12 -5.63897

0.765234 -3.2511 -3.35078e-11
-3.2511 -13.3388 2.23258e-11
-3.35078e-11 2.23258e-11 -4.50968

-4.05205 6.73701 -1.9739e-12
6.73701 2.16235 -4.96808e-11
-1.9739e-12 -4.96808e-11 -1.30063

-6.88285 -5.65048 8.85891e-12
-5.65048 -2.39204 -2.07911e-11
8.85891e-12 -2.07911e-11 -1.97228

-12.0179 4.09717 2.57928e-11
4.09717 -2.28876 4.79424e-11
2.57928e-11 4.79424e-11 -9.0285

-10.985 4.74065 8.92997e-12
4.74065 -9.50589 7.04679e-11
8.92997e-12 7.04679e-11 -11.9742

-8.43461 -8.44145 3.80547e-12
-8.44145 -8.67607 -1.11651e-11
3.80547e-12 -1.11651e-11 -10.9793

-13.854 -1.15084 -3.11809e-11
-1.15084 0.201653 -5.39876e-12
-3.11809e-11 -5.39876e-12 -10.7271

-2.24378 4.96583 1.57878e-11
4.96583 -9.31236 2.07971e-11
1.57878e-11 2.07971e-11 -9.36262

-1.01932 1.0537 7.12195e-11
1.0537 -8.87873 1.52337e-12
7.12195e-11 1.52337e-12 -11.8521

-0.855802 -4.58268 6.23859e-11
-4.58268 -14.5174 -3.64227e-12
6.23859e-11 -3.64227e-12 -7.81285

-0.838425 -1.50701 -1.19479e-11
-1.50701 -14.9225 1.8878e-11
-1.19479e-11 1.8878e-11 -9.98302

-8.8462 5.83302 1.45951e-10
5.83302 -3.84613 1.18599e-10
1.45951e-10 1.18599e-10 -12.664

1.88746 -1.16686 -1.60523e-10
-1.16686 -1.34233 4.60491e-12
-1.60523e-10 4.60491e-12 -13.6889

-0.5136 -4.08291 3.70982e-10
-4.08291 -16.3446 7.16648e-10
3.70982e-10 7.16648e-10 -12.0462

-0.334385 -5.02147 2.21528e-10
-5.02147 -12.6197 -5.13514e-10
2.21528e-10 -5.13514e-10 -8.67274

-3.02733 5.61108 -5.00505e-11
5.61108 -8.28546 -1.233e-11
-5.00505e-11 -1.233e-11 -10.0709

-2.18037 2.50841 3.61998e-11
2.50841 -4.23574 1.15579e-11
3.61998e-11 1.15579e-11 -5.08211

-6.12 2.80783 -3.69734e-11
2.80783 -2.18105 3.96465e-11
-3.69734e-11 3.96465e-11 -13.106

1.22965 -3.93786 -4.15894e-11
-3.93786 -11.7991 4.21475e-11
-4.15894e-11 4.21475e-11 -6.96656

-2.86457 -4.68872 -4.46712e-11
-4.68872 -13.8589 4.21444e-11
-4.46712e-11 4.21444e-11 -10.5172

0.0794533 -3.21285 -7.70473e-12
-3.21285 -5.7255 1.75176e-11
-7.70473e-12 1.75176e-11 -3.61041

-3.7871 6.53547 4.88922e-11
6.53547 -6.39528 3.54401e-11
4.88922e-11 3.54401e-11 -7.01331

-1.59602 3.16339 2.73238e-11
3.16339 -7.87998 8.70241e-11
2.73238e-11 8.70241e-11 -9.30749

-0.649144 -4.92871 -2.46484e-11
-4.92871 -9.76329 2.23264e-11
-2.46484e-11 2.23264e-11 -5.23551

-0.728738 -2.90152 -3.54254e-11
-2.90152 -11.2085 7.11749e-12
-3.54254e-11 7.11749e-12 -7.19479

-1.83155 0.530237 1.92435e-12
0.530237 -1.56629 -1.56894e-11
1.92435e-12 -1.56894e-11 -0.31584

1.17832 -0.281833 -3.946e-11
-0.281833 -0.861548 -9.24228e-12
-3.946e-11 -9.24228e-12 -0.570669

1.25566 1.00989 -2.50271e-11
1.00989 -1.9233 -2.97394e-11
-2.50271e-11 -2.97394e-11 -0.52151

-1.16476 -1.05019 -3.21498e-11
-1.05019 -5.3214 3.04507e-12
-3.21498e-11 3.04507e-12 -0.690277

-0.959006 0.17924 5.39037e-12
0.17924 -4.00476 6.79953e-12
5.39037e-12 6.79953e-12 -0.326234

0.545561 -1.50072 1.96898e-13
-1.50072 -1.13039 -3.04127e-11
1.96898e-13 -3.04127e-11 -1.46773

-0.166879 2.69278 -2.75265e-11
2.69278 -3.49039 1.73287e-12
-2.75265e-11 1.73287e-12 -1.87136

-0.887584 -0.253387 -1.09732e-11
-0.253387 -4.45913 3.05613e-11
-1.09732e-11 3.05613e-11 -0.406732

0.785418 1.21175 1.29958e-11
1.21175 -6.6763 4.42818e-12
1.29958e-11 4.42818e-12 -1.05167

-1.0355 0.253779 2.34833e-11
0.253779 -1.89839 -3.47946e-11
2.34833e-11 -3.47946e-11 -0.151049

-0.984614 -0.236403 4.61988e-12
-0.236403 -1.75541 3.85257e-13
4.61988e-12 3.85257e-13 -0.115309

-0.720032 0.141079 3.11832e-11
0.141079 0.186323 -2.43738e-11
3.11832e-11 -2.43738e-11 -0.0281889

3.23326 -1.5303 1.77129e-11
-1.5303 -3.85428 6.75719e-13
1.77129e-11 6.75719e-13 -1.3956

2.28848 0.107832 -3.11832e-11
0.107832 -0.227426 -1.08733e-11
-3.11832e-11 -1.08733e-11 -1.12925

-1.77086 1.98845 -3.83527e-13
1.98845 -2.45937 1.50149e-11
-3.83527e-13 1.50149e-11 -0.573988

-2.21807 2.81921 -4.40904e-11
2.81921 -2.04236 -5.58264e-11
-4.40904e-11 -5.58264e-11 -0.819065

-0.28671 -2.66705 -5.00503e-12
-2.66705 -3.57823 3.46539e-12
-5.00503e-12 3.46539e-12 -1.97465

0.408025 1.39476 -3.50327e-11
1.39476 -1.06062 -1.92367e-12
-3.50327e-11 -1.92367e-12 -1.43464

-0.417415 0.076273 2.79099e-11
0.076273 0.860329 -2.9182e-11
2.79099e-11 -2.9182e-11 -0.0948975

-1.57858 0.270745 1.69394e-11
0.270745 -0.819614 9.54537e-14
1.69394e-11 9.54537e-14 -0.162195

-1.60176 -0.304782 7.70014e-12
-0.304782 -0.785312 -3.51303e-12
7.70014e-12 -3.51303e-12 -0.168416

-1.01401 -0.322518 -2.31e-12
-0.322518 0.51425 1.68423e-12
-2.31e-12 1.68423e-12 -0.076492

-1.63546 0.887789 6.4474e-12
0.887789 -2.23769 -2.10792e-11
6.4474e-12 -2.10792e-11 -0.319596

-1.59701 0.72471 -2.61811e-11
0.72471 -3.87887 7.09808e-12
-2.61811e-11 7.09808e-12 -0.443797

-2.54853 0.696103 -2.52189e-11
0.696103 -2.13327 -2.02075e-12
-2.52189e-11 -2.02075e-12 -0.492603

-0.13051 -0.471271 1.07804e-11
-0.471271 -0.351426 -1.42435e-11
1.07804e-11 -1.42435e-11 -0.1783

-0.592034 0.881344 -2.90694e-11
0.881344 -5.10665 1.5311e-11
-2.90694e-11 1.5311e-11 -0.540659

-1.55498 0.155129 2.1173e-11
0.155129 -0.914553 -6.69418e-11
2.1173e-11 -6.69418e-11 -0.0625889

-0.171855 -1.19702 -1.03958e-11
-1.19702 -7.94132 -5.04282e-13
-1.03958e-11 -5.04282e-13 -1.2948

-1.085 -0.31961 3.11838e-11
-0.31961 -0.0496433 -3.98216e-11
3.11838e-11 -3.98216e-11 -0.0869878

2.26669 -0.267505 -2.46365e-11
-0.267505 -1.98236 -1.15515e-11
-2.46365e-11 -1.15515e-11 -1.75857

2.3209 0.399749 7.7004e-12
0.399749 -2.95531 -5.8036e-13
7.7004e-12 -5.8036e-13 -1.89971

-6.17353 -1.34912 1.55927e-11
-1.34912 -8.21737 -1.06847e-11
1.55927e-11 -1.06847e-11 -8.41771

-6.20716 1.35666 -4.67779e-11
1.35666 -8.15524 -2.51232e-11
-4.67779e-11 -2.51232e-11 -8.45115

-1.04115 -0.312179 -1.80957e-11
-0.312179 -2.83335 2.51453e-11
-1.80957e-11 2.51453e-11 -0.12328

-2.95338 0.251666 -2.30957e-12
0.251666 -2.40344 1.03463e-11
-2.30957e-12 1.03463e-11 -0.732384

-4.35358 -2.1613 -3.04163e-11
-2.1613 -4.33364 -6.25409e-12
-3.04163e-11 -6.25409e-12 -3.24815

-4.65942 2.29183 -8.85558e-12
2.29183 -4.45827 1.27052e-11
-8.85558e-12 1.27052e-11 -3.45674

1.63644 -1.05601 1.40545e-11
-1.05601 -6.29274 2.17769e-11
1.40545e-11 2.17769e-11 -0.759366

-0.723278 -0.602191 -1.15493e-11
-0.602191 0.662917 5.96723e-12
-1.15493e-11 5.96723e-12 -0.089335

-1.66011 0.0189773 3.08e-12
0.0189773 -2.60457 1.00343e-11
3.08e-12 1.00343e-11 -0.256845

1.34658 0.917275 8.08635e-12
0.917275 -6.63704 -9.61301e-12
8.08635e-12 -9.61301e-12 -0.709768

-1.60326 -0.825319 -9.24129e-12
-0.825319 -2.11618 2.25231e-11
-9.24129e-12 2.25231e-11 -0.285649

-1.91623 -0.542823 1.9634e-11
-0.542823 -1.51154 2.8395e-11
1.9634e-11 2.8395e-11 -0.326018

0.727762 -1.14655 1.73246e-11
-1.14655 0.0405349 1.44489e-12
1.73246e-11 1.44489e-12 -0.351071

-1.46205 0.0436697 -3.17624e-11
0.0436697 -2.85253 -2.67099e-11
-3.17624e-11 -2.67099e-11 -0.290906

-1.43148 0.444428 4.58146e-11
0.444428 -1.53232 3.16174e-11
4.58146e-11 3.16174e-11 -0.163088

-1.32859 0.574431 3.11829e-11
0.574431 -0.850562 -2.15466e-11
3.11829e-11 -2.15466e-11 -0.171174

0.297036 -4.21045 5.13972e-11
-4.21045 -4.84959 1.53099e-11
5.13972e-11 1.53099e-11 -1.49393

-1.25155 -0.235195 1.69389e-11
-0.235195 -0.514331 2.58067e-11
1.69389e-11 2.58067e-11 -0.080475

-1.48875 0.258363 3.46497e-12
0.258363 -1.20401 8.37342e-12
3.46497e-12 8.37342e-12 -0.0449001

0.062575 0.765114 3.34925e-11
0.765114 0.621159 2.90635e-11
3.34925e-11 2.90635e-11 -0.693023

0.0622204 -0.762108 -2.88716e-11
-0.762108 0.624759 1.15513e-12
-2.88716e-11 1.15513e-12 -0.691786

-0.218456 -0.308549 -1.42438e-11
-0.308549 0.935427 2.21552e-11
-1.42438e-11 2.21552e-11 -0.0898022

-0.111711 0.332792 1.00082e-11
0.332792 0.840138 -4.67253e-11
1.00082e-11 -4.67253e-11 -0.687383

-0.11254 -0.331317 -5.85139e-11
-0.331317 0.840917 3.05075e-11
-5.85139e-11 3.05075e-11 -0.687071

-0.278982 -0.946831 1.0009e-11
-0.946831 0.330737 1.03949e-11
1.0009e-11 1.03949e-11 -0.196262

-5.15521 -1.76124 -5.23621e-11
-1.76124 -8.92628 2.01164e-11
-5.23621e-11 2.01164e-11 -7.25296

-5.20946 1.81819 -1.65556e-11
1.81819 -8.97131 -6.25611e-12
-1.65556e-11 -6.25611e-12 -7.29656

-0.245843 0.442602 2.73321e-11
0.442602 0.969388 -4.81478e-13
2.73321e-11 -4.81478e-13 -0.322714

-0.245309 -0.443313 1.46288e-11
-0.443313 0.977462 -1.49128e-12
1.46288e-11 -1.49128e-12 -0.321018

-1.48492 0.290119 -2.88804e-12
0.290119 -2.58342 3.10407e-11
-2.88804e-12 3.10407e-11 -0.220579

-0.919237 2.51186 -2.30068e-12
2.51186 -5.21625 3.00264e-11
-2.30068e-12 3.00264e-11 -5.13807

1.76433 -2.03485 -8.46956e-12
-2.03485 -0.754903 1.55918e-11
-8.46956e-12 1.55918e-11 -3.26079

-0.748872 0.590917 -1.88644e-11
0.590917 0.673349 -1.57845e-11
-1.88644e-11 -1.57845e-11 -0.0963636

-1.66383 -0.279829 2.04047e-11
-0.279829 -0.846688 -6.80882e-12
2.04047e-11 -6.80882e-12 -0.0822545

-1.15796 -0.411172 1.84798e-11
-0.411172 -1.76874 1.56828e-11
1.84798e-11 1.56828e-11 -0.0244005

-0.0710149 -0.947141 -1.92492e-11
-0.947141 0.518239 6.25488e-12
-1.92492e-11 6.25488e-12 -0.36859

-0.410931 2.5699 -3.47037e-12
2.5699 -3.05093 -5.7462e-11
-3.47037e-12 -5.7462e-11 -0.758165

-0.179867 0.534733 1.074e-10
0.534733 0.574611 4.09943e-11
1.074e-10 4.09943e-11 -2.36499

-0.184102 -0.530851 1.13175e-10
-0.530851 0.565601 -1.72858e-12
1.13175e-10 -1.72858e-12 -2.36811

0.669135 3.44465 1.73278e-11
3.44465 -2.61112 1.20304e-11
1.73278e-11 1.20304e-11 -0.435966

-0.313583 0.208446 7.69857e-12
0.208446 0.96153 -1.75644e-11
7.69857e-12 -1.75644e-11 -0.177053

-0.320596 -0.205604 -5.00479e-12
-0.205604 0.985996 2.49751e-11
-5.00479e-12 2.49751e-11 -0.175289

-4.63311 1.65716 -1.86772e-11
1.65716 -1.88014 -1.87702e-11
-1.86772e-11 -1.87702e-11 -1.22757

0.946263 1.15716 2.11716e-11
1.15716 1.05553 -2.71426e-11
2.11716e-11 -2.71426e-11 -0.62122

-1.30053 0.307701 -7.31521e-12
0.307701 -2.96637 1.25607e-11
-7.31521e-12 1.25607e-11 -0.197129

-1.19036 -0.52183 -1.73252e-12
-0.52183 -4.03217 2.83459e-11
-1.73252e-12 2.83459e-11 -0.384756

-3.70597 -2.56934 -3.96578e-11
-2.56934 -7.13003 5.53626e-12
-3.96578e-11 5.53626e-12 -3.14623

-12.3158 2.81544 6.81439e-11
2.81544 -8.51857 3.02321e-11
6.81439e-11 3.02321e-11 -11.2928

-12.1877 -2.93807 -4.62009e-11
-2.93807 -8.72145 -1.56871e-11
-4.62009e-11 -1.56871e-11 -11.2792

-1.64658 0.477861 2.19438e-11
0.477861 -1.62448 -2.38707e-11
2.19438e-11 -2.38707e-11 -0.139474

-2.40078 0.703231 -2.17534e-11
0.703231 -3.69409 -4.47616e-12
-2.17534e-11 -4.47616e-12 -0.706977

-0.34615 -0.573248 1.1543e-12
-0.573248 0.753727 2.28579e-11
1.1543e-12 2.28579e-11 -0.125678

0.431209 -0.040844 -9.39333e-11
-0.040844 -0.408421 8.45891e-12
-9.39333e-11 8.45891e-12 -4.29942

2.08687 2.12185 5.73837e-11
2.12185 -7.57231 5.90816e-11
5.73837e-11 5.90816e-11 -6.01947

-4.04354 2.70985 -6.35264e-12
2.70985 -7.11597 -4.08115e-11
-6.35264e-12 -4.08115e-11 -3.37298

1.00008 -0.866634 5.29229e-12
-0.866634 -1.87207 2.56032e-11
5.29229e-12 2.56032e-11 -0.679495

0.983259 0.262862 -2.32916e-11
0.262862 -1.07809 -1.04906e-11
-2.32916e-11 -1.04906e-11 -0.658982

-0.252833 -0.00121749 -1.27037e-11
-0.00121749 1.09894 1.01776e-11
-1.27037e-11 1.01776e-11 -0.140849

-0.245979 0.0128588 -1.77084e-11
0.0128588 1.08585 2.58409e-11
-1.77084e-11 2.58409e-11 -0.142723

-0.897525 0.554419 6.35041e-12
0.554419 0.176113 -5.55336e-11
6.35041e-12 -5.55336e-11 -0.0869425

-0.603766 -0.352696 -1.53986e-11
-0.352696 0.755318 -2.75631e-11
-1.53986e-11 -2.75631e-11 -0.0772913

-0.0985679 0.219042 2.48295e-11
0.219042 0.97614 -5.83944e-11
2.48295e-11 -5.83944e-11 -0.321561

-0.0963527 -0.214864 -2.50211e-11
-0.214864 0.977852 -3.0292e-11
-2.50211e-11 -3.0292e-11 -0.320058

-0.381867 0.579145 -2.31005e-12
0.579145 0.755275 3.22397e-12
-2.31005e-12 3.22397e-12 -0.131897

-0.159943 0.427979 1.96346e-11
0.427979 -0.329482 9.91161e-12
1.96346e-11 9.91161e-12 -0.184409

-0.116905 0.545652 1.9244e-12
0.545652 0.828318 -1.52543e-11
1.9244e-12 -1.52543e-11 -0.218939

-0.0912817 -0.528965 -2.96418e-11
-0.528965 0.820746 1.68361e-13
-2.96418e-11 1.68361e-13 -0.216207

-1.1397 1.16519 -6.9301e-12
1.16519 -5.5101 -2.20892e-11
-6.9301e-12 -2.20892e-11 -0.845309

0.664634 -0.683559 -1.3472e-11
-0.683559 0.633419 -2.97393e-11
-1.3472e-11 -2.97393e-11 -0.142586

-1.52652 0.202868 -1.8674e-11
0.202868 -2.46854 -2.82012e-11
-1.8674e-11 -2.82012e-11 -0.218355

-2.34022 2.68053 1.54158e-12
2.68053 -1.13531 2.66622e-11
1.54158e-12 2.66622e-11 -0.686901

0.969178 -0.717975 6.16128e-12
-0.717975 0.929832 -1.12599e-11
6.16128e-12 -1.12599e-11 -0.236244

-0.633826 0.110827 -1.61687e-11
0.110827 0.571332 -3.4768e-11
-1.61687e-11 -3.4768e-11 -0.0621396

-3.65527 1.64295 3.08979e-11
1.64295 -5.06427 -1.32814e-11
3.08979e-11 -1.32814e-11 -1.60629

-1.17948 -0.925093 -2.1947e-11
-0.925093 -5.07074 -6.39992e-12
-2.1947e-11 -6.39992e-12 -0.730558

-2.07429 -0.194937 -8.08537e-12
-0.194937 -2.57184 -4.66822e-12
-8.08537e-12 -4.66822e-12 -0.410966

-2.66885 -0.671634 -8.08617e-12
-0.671634 -3.62368 -2.59396e-11
-8.08617e-12 -2.59396e-11 -0.7356

-0.619879 1.78645 7.31393e-12
1.78645 -2.05403 -1.87696e-11
7.31393e-12 -1.87696e-11 -0.888154

-0.326515 -1.6134 3.85858e-13
-1.6134 -1.60844 -4.71576e-12
3.85858e-13 -4.71576e-12 -0.785357

-0.850811 -0.127425 -1.31853e-11
-0.127425 0.248672 5.68447e-11
-1.31853e-11 5.68447e-11 -0.0498055

-4.7445 -1.76456 1.15481e-11
-1.76456 -1.81686 1.98294e-11
1.15481e-11 1.98294e-11 -1.2418

-0.558114 0.174515 -1.69374e-11
0.174515 0.0221914 4.2155e-11
-1.69374e-11 4.2155e-11 -0.110247

-0.581834 -0.170762 -1.57821e-11
-0.170762 -0.0224227 -4.83153e-11
-1.57821e-11 -4.83153e-11 -0.122169

-1.98422 0.793004 1.00107e-11
0.793004 -3.37102 -6.78532e-12
1.00107e-11 -6.78532e-12 -0.630929

0.259546 2.25388 1.32851e-11
2.25388 -9.12172 3.21008e-11
1.32851e-11 3.21008e-11 -2.14072

0.38149 -1.94864 -1.32833e-11
-1.94864 -9.04142 -4.75981e-11
-1.32833e-11 -4.75981e-11 -2.0494

-0.634332 0.96995 5.77512e-12
0.96995 -1.97539 -5.10152e-12
5.77512e-12 -5.10152e-12 -0.237222

-2.8133 -0.608634 -3.85064e-12
-0.608634 -2.09765 4.62005e-12
-3.85064e-12 4.62005e-12 -0.543115

-0.956819 0.771681 -1.42438e-11
0.771681 -0.947114 1.28487e-11
-1.42438e-11 1.28487e-11 -0.146033

-0.90137 -0.755901 3.27252e-11
-0.755901 -0.944779 -2.27127e-11
3.27252e-11 -2.27127e-11 -0.141542

-0.560238 0.0514854 4.23455e-12
0.0514854 0.1036 -6.24392e-12
4.23455e-12 -6.24392e-12 -0.045287

-0.985358 -0.552647 2.92563e-11
-0.552647 0.145535 6.47733e-11
2.92563e-11 6.47733e-11 -0.107635

-0.69374 0.0709514 1.5394e-12
0.0709514 0.526597 -9.48038e-12
1.5394e-12 -9.48038e-12 -0.0577453

4.61073 0.810344 -6.00614e-11
0.810344 -2.22114 4.09901e-11
-6.00614e-11 4.09901e-11 -5.38548

4.14005 -4.03677 -8.00618e-11
-4.03677 -4.70966 6.87345e-11
-8.00618e-11 6.87345e-11 -6.64853

-0.556282 -0.0483002 1.92488e-12
-0.0483002 0.557655 2.83919e-11
1.92488e-12 2.83919e-11 -0.056507

0.264658 -0.375001 -4.23435e-12
-0.375001 0.61462 3.27321e-12
-4.23435e-12 3.27321e-12 -0.13072

-0.266485 0.317692 -2.57926e-11
0.317692 0.929551 -7.17298e-12
-2.57926e-11 -7.17298e-12 -0.0992724

-0.646929 -0.932254 2.69414e-12
-0.932254 -1.87453 2.58905e-11
2.69414e-12 2.58905e-11 -0.228718

2.07465 -1.80015 7.69588e-13
-1.80015 0.787794 1.65544e-11
7.69588e-13 1.65544e-11 -0.421019

-1.35647 4.76813 4.73695e-15
4.76813 -3.76642 2.16552e-11
4.73695e-15 2.16552e-11 -1.51437

0.694395 0.747224 4.61796e-12
0.747224 0.610334 -2.78141e-11
4.61796e-12 -2.78141e-11 -0.1489

0.553264 -0.877224 -1.84803e-11
-0.877224 0.937176 4.05177e-11
-1.84803e-11 4.05177e-11 -0.14391

-1.19116 1.61451 -6.15563e-12
1.61451 -1.66216 3.56131e-11
-6.15563e-12 3.56131e-11 -0.301632

-0.196488 -0.00906152 3.04116e-11
-0.00906152 1.46118 1.81428e-11
3.04116e-11 1.81428e-11 -0.0672281

-0.623888 -0.0545116 -4.54266e-11
-0.0545116 0.392563 -1.4293e-11
-4.54266e-11 -1.4293e-11 -0.0656263

-2.48377 -2.68253 -2.88895e-12
-2.68253 -1.06074 -8.85484e-12
-2.88895e-12 -8.85484e-12 -0.70286

-0.696359 -0.605507 -5.27399e-11
-0.605507 0.7467 -4.38404e-11
-5.27399e-11 -4.38404e-11 -0.041559

-2.04876 -0.303959 1.15497e-11
-0.303959 -1.6129 9.96225e-12
1.15497e-11 9.96225e-12 -0.230143

-2.75687 -0.332195 -1.54206e-12
-0.332195 -2.40016 2.92601e-11
-1.54206e-12 2.92601e-11 -0.702255

-0.567926 0.226292 -5.00607e-12
0.226292 -0.787055 -2.13193e-11
-5.00607e-12 -2.13193e-11 -0.1393

-0.553186 -0.249782 2.31197e-12
-0.249782 -0.815836 -4.01345e-11
2.31197e-12 -4.01345e-11 -0.143555

-1.01498 0.28955 4.23483e-12
0.28955 0.601812 3.02928e-11
4.23483e-12 3.02928e-11 -0.0702991

-0.695368 0.621843 -3.84964e-11
0.621843 0.68986 3.02691e-11
-3.84964e-11 3.02691e-11 -0.0506839

0.00604361 -0.364491 1.07764e-11
-0.364491 -0.962699 4.65845e-11
1.07764e-11 4.65845e-11 -0.25529

0.0527418 0.431788 -1.6554e-11
0.431788 -0.938386 5.96699e-12
-1.6554e-11 5.96699e-12 -0.212803

-0.800664 -0.0619151 1.61684e-11
-0.0619151 -0.0849819 -2.36293e-11
1.61684e-11 -2.36293e-11 -0.0516629

-0.826544 0.0486072 2.77172e-11
0.0486072 0.00627251 5.31285e-11
2.77172e-11 5.31285e-11 -0.0429332

0.121078 0.179918 4.0036e-11
0.179918 1.10138 3.52001e-11
4.0036e-11 3.52001e-11 -0.0949148

0.129853 -0.171301 -1.15488e-11
-0.171301 1.10149 2.76932e-11
-1.15488e-11 2.76932e-11 -0.092631

0.102913 -1.00385 2.69481e-11
-1.00385 0.860193 7.60451e-12
2.69481e-11 7.60451e-12 -0.117501

-1.46477 -4.33325 1.02055e-11
-4.33325 -2.87229 -7.98635e-12
1.02055e-11 -7.98635e-12 -1.2781

-4.89606 0.0607987 -2.9645e-11
0.0607987 -2.99763 1.54982e-11
-2.9645e-11 1.54982e-11 -1.43679

-1.60795 0.160385 3.04152e-11
0.160385 -1.71203 2.08376e-11
3.04152e-11 2.08376e-11 -0.0916274

-0.934128 -0.444939 2.46395e-11
-0.444939 0.0855278 -1.09709e-11
2.46395e-11 -1.09709e-11 -0.137607

0.0878201 0.632494 1.46282e-11
0.632494 0.647249 -1.55915e-11
1.46282e-11 -1.55915e-11 -0.460009

0.0896606 -0.628117 -7.42967e-11
-0.628117 0.653323 1.58711e-12
-7.42967e-11 1.58711e-12 -0.458453

-0.217225 0.782682 3.11818e-11
0.782682 0.728165 -5.0054e-12
3.11818e-11 -5.0054e-12 -0.238354

-0.223225 -0.78606 8.4696e-12
-0.78606 0.730776 -1.00089e-11
8.4696e-12 -1.00089e-11 -0.23941

-1.439 -0.118631 2.50242e-11
-0.118631 -0.552339 5.0265e-11
2.50242e-11 5.0265e-11 -0.0383032

-0.900234 -0.0781841 1.61689e-11
-0.0781841 -0.138933 -4.8965e-11
1.61689e-11 -4.8965e-11 -0.00697258

-0.930463 0.514189 -1.73248e-11
0.514189 0.123346 -9.43155e-12
-1.73248e-11 -9.43155e-12 -0.128788

0.0389927 0.0392023 -5.31255e-11
0.0392023 0.603734 -9.95094e-11
-5.31255e-11 -9.95094e-11 -1.25211

0.0382152 -0.0377506 -2.34816e-11
-0.0377506 0.598816 5.00475e-12
-2.34816e-11 5.00475e-12 -1.25308

-0.294027 -0.68848 4.88894e-11
-0.68848 0.643246 3.77285e-11
4.88894e-11 3.77285e-11 -0.114055

-1.18074 -0.280092 6.5451e-11
-0.280092 -2.78703 1.25841e-11
6.5451e-11 1.25841e-11 -0.184987

-0.611114 0.362732 -7.69801e-13
0.362732 0.763312 4.92488e-12
-7.69801e-13 4.92488e-12 -0.0780511

-0.785769 -2.35316 4.23532e-12
-2.35316 -2.47729 8.56808e-12
4.23532e-12 8.56808e-12 -0.832693

0.11397 1.18583 2.50264e-11
1.18583 -0.3249 2.38664e-11
2.50264e-11 2.38664e-11 -0.540144

-2.15365 0.153401 -2.50225e-12
0.153401 -2.03796 1.29922e-12
-2.50225e-12 1.29922e-12 -0.331703

0.598761 0.87108 3.07955e-11
0.87108 0.903917 -2.50234e-11
3.07955e-11 -2.50234e-11 -0.149514

-0.329471 0.704397 -3.88836e-11
0.704397 0.657088 -4.66776e-11
-3.88836e-11 -4.66776e-11 -0.117078

-3.65686 4.29042 1.55941e-11
4.29042 -1.90182 1.99274e-11
1.55941e-11 1.99274e-11 -1.04874

2.39098 -0.0528069 -2.46377e-11
-0.0528069 0.26807 5.67645e-12
-2.46377e-11 5.67645e-12 -1.04653

3.43124 2.14159 3.4713e-12
2.14159 -4.73815 1.7704e-11
3.4713e-12 1.7704e-11 -1.50047

0.0575036 1.04308 9.23878e-12
1.04308 0.834621 -1.71315e-11
9.23878e-12 -1.71315e-11 -0.140819

-2.94391 2.07715 -2.88902e-12
2.07715 -2.00139 2.50148e-12
-2.88902e-12 2.50148e-12 -0.705068

-1.91636 -0.255631 -9.62545e-12
-0.255631 -2.64267 -4.57173e-12
-9.62545e-12 -4.57173e-12 -0.290261

1.72099 -1.31677 3.15707e-11
-1.31677 0.702961 -3.08924e-11
3.15707e-11 -3.08924e-11 -0.0216902

-1.56295 -2.04585 -4.62099e-12
-2.04585 -2.37153 1.51123e-11
-4.62099e-12 1.51123e-11 -0.533039

-1.22271 1.39303 -4.23311e-12
1.39303 -1.50564 1.74205e-11
-4.23311e-12 1.74205e-11 -0.425703

-0.371137 -0.365137 -4.1961e-11
-0.365137 0.934021 -4.62009e-12
-4.1961e-11 -4.62009e-12 -0.155569

-0.329578 -1.0203 2.00176e-11
-1.0203 -0.767621 2.80086e-11
2.00176e-11 2.80086e-11 -0.289792

2.50319 1.56579 -1.73218e-11
1.56579 0.71357 9.71981e-12
-1.73218e-11 9.71981e-12 -0.291864

-1.59314 0.173302 2.0403e-11
0.173302 -1.4846 1.03348e-10
2.0403e-11 1.03348e-10 -0.152472

-1.34025 -0.0938246 -4.00403e-11
-0.0938246 -2.03403 1.11767e-11
-4.00403e-11 1.11767e-11 -0.165017

-0.36689 0.369489 -5.65899e-11
0.369489 0.933454 5.78781e-13
-5.65899e-11 5.78781e-13 -0.154707

-0.413521 -0.0508487 1.56874e-11
-0.0508487 0.881494 1.77412e-12
1.56874e-11 1.77412e-12 -0.0895154

0.337401 0.378693 1.03167e-10
0.378693 -0.00742327 4.37862e-11
1.03167e-10 4.37862e-11 -2.13332

0.333846 -0.374628 3.19516e-11
-0.374628 -0.0136548 2.49265e-11
3.19516e-11 2.49265e-11 -2.1356

0.289067 0.449427 -2.31036e-12
0.449427 0.548826 -1.87678e-11
-2.31036e-12 -1.87678e-11 -0.162051

-7.68049 -2.47441 -1.73256e-11
-2.47441 -6.00758 -5.61147e-11
-1.73256e-11 -5.61147e-11 -5.81514

-7.80168 2.51808 2.05978e-11
2.51808 -5.99205 -3.77298e-11
2.05978e-11 -3.77298e-11 -5.89627

0.539968 -0.324838 -1.36681e-11
-0.324838 -5.55606 1.43296e-11
-1.36681e-11 1.43296e-11 -0.449748

-3.71894 -4.22539 -4.29283e-11
-4.22539 -1.73628 -3.05163e-11
-4.29283e-11 -3.05163e-11 -1.0267

-1.0139 0.251914 -2.71409e-11
0.251914 -0.175967 -2.12706e-11
-2.71409e-11 -2.12706e-11 -0.0395166

-1.28031 0.0194221 1.03949e-11
0.0194221 -2.07431 1.83108e-11
1.03949e-11 1.83108e-11 -0.169943

-1.0623 0.48155 -1.34713e-12
0.48155 -0.510862 2.27139e-11
-1.34713e-12 2.27139e-11 -0.105729

-1.07693 -0.490745 -1.73337e-12
-0.490745 -0.56453 3.25796e-11
-1.73337e-12 3.25796e-11 -0.129752

-0.777047 0.216515 1.69388e-11
0.216515 -0.121735 1.1116e-11
1.69388e-11 1.1116e-11 -0.0498366

1.74455 1.27068 2.96434e-11
1.27068 0.737018 -2.9849e-12
2.96434e-11 -2.9849e-12 -0.0138994

-1.30466 0.438084 4.73532e-11
0.438084 -1.15549 -3.36395e-11
4.73532e-11 -3.36395e-11 -0.136724

-0.767654 0.126017 5.00451e-12
0.126017 -0.281843 -8.10868e-12
5.00451e-12 -8.10868e-12 -0.0591982

1.2409 -1.48099 2.1565e-11
-1.48099 -3.88686 -2.55976e-11
2.1565e-11 -2.55976e-11 -3.05409

2.86105 1.60574 1.4627e-11
1.60574 -0.991144 -2.0213e-11
1.4627e-11 -2.0213e-11 -2.17783

-1.09469 -1.75948 -1.09727e-11
-1.75948 -4.04311 1.69404e-11
-1.09727e-11 1.69404e-11 -0.924244

1.96776 -0.293852 3.08057e-11
-0.293852 -9.11141 7.89841e-12
3.08057e-11 7.89841e-12 -1.23021

-0.952598 -0.649485 3.85227e-12
-0.649485 0.0525352 -5.03368e-11
3.85227e-12 -5.03368e-11 -0.088263

-0.982289 0.642292 3.07976e-12
0.642292 0.0949546 7.16984e-12
3.07976e-12 7.16984e-12 -0.0871305

0.28993 -0.223174 -7.89339e-12
-0.223174 -6.78687 2.05695e-11
-7.89339e-12 2.05695e-11 -0.74832

-0.28703 0.984362 1.50136e-11
0.984362 0.413358 -1.28022e-11
1.50136e-11 -1.28022e-11 -0.198211

-0.194828 0.592831 -9.9704e-11
0.592831 0.593248 -7.69796e-12
-9.9704e-11 -7.69796e-12 -0.948431

-0.19297 -0.589699 2.38681e-11
-0.589699 0.591923 -2.08831e-11
2.38681e-11 -2.08831e-11 -0.948072

-3.03413 -0.671503 2.17516e-11
-0.671503 -2.86369 -3.13797e-11
2.17516e-11 -3.13797e-11 -1.13515

-3.03807 -2.12043 2.50033e-12
-2.12043 -2.01163 1.79033e-11
2.50033e-12 1.79033e-11 -0.729145

-1.09399 -1.8504 -1.88663e-11
-1.8504 -5.7648 1.92032e-11
-1.88663e-11 1.92032e-11 -1.06794

-1.39148 0.050541 -6.16089e-12
0.050541 -2.80313 -2.55543e-11
-6.16089e-12 -2.55543e-11 -0.256321

-1.48527 -1.57827 4.04055e-12
-1.57827 -1.63734 2.63742e-11
4.04055e-12 2.63742e-11 -0.373822

-1.66536 -0.339425 -1.65546e-11
-0.339425 -1.65987 -2.54095e-11
-1.65546e-11 -2.54095e-11 -0.224289

-1.31073 -1.31047 -1.61726e-11
-1.31047 -1.30565 3.72488e-11
-1.61726e-11 3.72488e-11 -0.419947

-0.256122 0.997101 -3.46469e-12
0.997101 -1.09457 -2.89232e-13
-3.46469e-12 -2.89232e-13 -0.321797

1.59879 -1.54887 -4.81185e-11
-1.54887 -1.90151 -6.74095e-12
-4.81185e-11 -6.74095e-12 -2.94311

0.897096 1.12387 5.39054e-12
1.12387 -2.17068 -1.90573e-11
5.39054e-12 -1.90573e-11 -3.13579

-0.138541 0.0339925 9.23927e-12
0.0339925 1.25488 4.04209e-11
9.23927e-12 4.04209e-11 -0.223877

-0.152336 -0.0366708 -1.88627e-11
-0.0366708 1.24714 -4.18685e-12
-1.88627e-11 -4.18685e-12 -0.227511

-5.35504 -1.15072 6.69913e-11
-1.15072 -4.29924 -2.3104e-11
6.69913e-11 -2.3104e-11 -2.55603

-5.60104 1.21017 7.50664e-12
1.21017 -4.25879 3.69623e-11
7.50664e-12 3.69623e-11 -2.69331

-6.69365 -0.617103 -2.67568e-11
-0.617103 -3.53228 -3.75281e-12
-2.67568e-11 -3.75281e-12 -4.51929

-6.76966 0.688836 1.94423e-11
0.688836 -3.6306 1.47283e-11
1.94423e-11 1.47283e-11 -4.57819

0.0617721 0.0354018 1.38613e-11
0.0354018 0.382103 1.15005e-10
1.38613e-11 1.15005e-10 -1.76509

0.0580773 -0.0330025 -4.35004e-11
-0.0330025 0.376474 6.11109e-11
-4.35004e-11 6.11109e-11 -1.76699

1.1622 0.847137 -4.23421e-12
0.847137 0.501937 1.37624e-11
-4.23421e-12 1.37624e-11 -0.189571

1.15997 -0.856617 6.12052e-11
-0.856617 0.518281 7.56468e-11
6.12052e-11 7.56468e-11 -0.184368

-0.614492 -0.184446 3.61864e-11
-0.184446 0.873818 9.15771e-13
3.61864e-11 9.15771e-13 -0.103774

-0.0343184 -0.93799 1.15489e-12
-0.93799 -1.71689 9.14497e-12
1.15489e-12 9.14497e-12 -0.258879

0.0144235 0.216759 -7.31702e-12
0.216759 -0.1583 -2.99323e-11
-7.31702e-12 -2.99323e-11 -0.258004

-1.31635 -0.438639 1.54016e-11
-0.438639 -2.37067 -5.35145e-11
1.54016e-11 -5.35145e-11 -0.169881

-0.599485 0.196415 -1.73232e-11
0.196415 0.88461 2.73332e-11
-1.73232e-11 2.73332e-11 -0.0982185

-0.434443 0.778495 -4.33005e-12
0.778495 -1.38103 9.23833e-12
-4.33005e-12 9.23833e-12 -0.241959

-0.710946 -0.325812 3.8111e-11
-0.325812 0.743204 2.00197e-11
3.8111e-11 2.00197e-11 -0.127766

-6.22323 -2.68785 1.17416e-11
-2.68785 -1.73887 -5.77353e-12
1.17416e-11 -5.77353e-12 -2.00319

-6.21263 2.69681 9.24087e-12
2.69681 -1.82847 8.66544e-12
9.24087e-12 8.66544e-12 -2.0244

-0.72946 0.335714 -1.23198e-11
0.335714 0.734606 -2.14141e-11
-1.23198e-11 -2.14141e-11 -0.131382

-1.44784 1.98586 -1.53962e-12
1.98586 -4.18262 -6.27081e-11
-1.53962e-12 -6.27081e-11 -1.18005

5.02019 0.44982 4.58125e-11
0.44982 -11.4454 -5.62143e-13
4.58125e-11 -5.62143e-13 -7.90679

4.15025 -0.954502 1.35886e-10
-0.954502 0.416117 -4.35216e-11
1.35886e-10 -4.35216e-11 -4.95718

1.13139 0.428418 2.07903e-11
0.428418 0.0673974 7.88966e-12
2.07903e-11 7.88966e-12 -0.403709

-3.53699 -1.52679 1.48227e-11
-1.52679 -4.93982 -2.69037e-11
1.48227e-11 -2.69037e-11 -1.44859

-1.51084 -2.90174 -3.50379e-11
-2.90174 -5.80069 -1.05815e-12
-3.50379e-11 -1.05815e-12 -2.74996

-0.967629 -0.16162 -1.57847e-11
-0.16162 -0.601925 -7.60332e-12
-1.57847e-11 -7.60332e-12 -0.0877033

-1.31449 0.048147 -1.69392e-11
0.048147 0.0457017 2.80078e-11
-1.69392e-11 2.80078e-11 -0.0670968

0.330589 0.315018 -3.65714e-11
0.315018 0.861833 -3.95782e-11
-3.65714e-11 -3.95782e-11 -0.31537

0.339915 -0.300924 3.0802e-12
-0.300924 0.859457 -2.47579e-11
3.0802e-12 -2.47579e-11 -0.312883

-1.6031 2.89783 1.73295e-12
2.89783 -5.80061 -2.87317e-11
1.73295e-12 -2.87317e-11 -2.85309

0.0445369 -0.305786 -2.85139e-11
-0.305786 -0.325935 1.84779e-11
-2.85139e-11 1.84779e-11 -0.286079

-0.699874 -0.581062 -2.53107e-11
-0.581062 0.663982 -3.5129e-11
-2.53107e-11 -3.5129e-11 -0.0810713

-0.0958282 0.887568 1.77081e-11
0.887568 0.748692 -5.19725e-12
1.77081e-11 -5.19725e-12 -0.355287

-0.0946622 -0.885314 5.00453e-12
-0.885314 0.755621 2.5989e-12
5.00453e-12 2.5989e-12 -0.353377

-11.1125 -4.2561 7.39228e-11
-4.2561 -13.3017 -1.51094e-12
7.39228e-11 -1.51094e-12 -12.6216

-11.2276 4.33458 -5.00544e-11
4.33458 -13.289 -4.02553e-11
-5.00544e-11 -4.02553e-11 -12.6464

0.609171 1.26641 -5.77218e-12
1.26641 0.68593 2.41565e-11
-5.77218e-12 2.41565e-11 -0.221446

-1.65569 -0.537808 -3.98498e-11
-0.537808 -3.22372 -2.43024e-11
-3.98498e-11 -2.43024e-11 -0.493701

-0.293813 0.667425 4.13728e-12
0.667425 0.944047 -9.19085e-12
4.13728e-12 -9.19085e-12 -0.491972

-0.28944 -0.664989 -9.23815e-12
-0.664989 0.94343 -2.43007e-11
-9.23815e-12 -2.43007e-11 -0.49109

1.01165 -1.87538 1.9254e-11
-1.87538 -2.13314 -2.2425e-11
1.9254e-11 -2.2425e-11 -0.418284

0.349289 -3.63139 -1.48176e-11
-3.63139 -2.12344 -4.46648e-11
-1.48176e-11 -4.46648e-11 -0.337746

-1.55533 -0.52578 -4.23488e-11
-0.52578 -0.744564 -5.53436e-12
-4.23488e-11 -5.53436e-12 -0.175378

-5.61791 0.254734 3.23436e-11
0.254734 -1.21093 9.05028e-12
3.23436e-11 9.05028e-12 -2.32257

-5.68967 -0.255591 1.28963e-11
-0.255591 -1.26106 3.59041e-11
1.28963e-11 3.59041e-11 -2.36216

-2.16552 -3.58888 -3.40676e-11
-3.58888 -2.85408 -5.01484e-11
-3.40676e-11 -5.01484e-11 -0.925975

-0.671225 0.582301 -7.7003e-12
0.582301 0.596073 -2.99799e-11
-7.7003e-12 -2.99799e-11 -0.0949016

-3.13384 0.715441 3.97512e-11
0.715441 -2.87052 1.7905e-11
3.97512e-11 1.7905e-11 -1.24392

-5.62718 0.223708 3.3306e-11
0.223708 -2.95608 2.47379e-11
3.3306e-11 2.47379e-11 -2.39288

-5.74552 -0.265846 -1.48224e-11
-0.265846 -2.90588 2.02272e-12
-1.48224e-11 2.02272e-12 -2.43121

-1.44394 2.2716 -2.88788e-12
2.2716 -6.38998 -5.91942e-12
-2.88788e-12 -5.91942e-12 -1.35213

-0.190107 0.424773 -5.23526e-11
0.424773 1.0395 4.19614e-11
-5.23526e-11 4.19614e-11 -0.651222

-0.186738 -0.421344 3.65681e-11
-0.421344 1.03382 6.68876e-11
3.65681e-11 6.68876e-11 -0.651135

0.981613 -0.101706 1.19328e-11
-0.101706 -1.97404 1.0785e-11
1.19328e-11 1.0785e-11 -5.36039

0.144876 2.04834 -4.88802e-11
2.04834 -2.47429 6.52578e-11
-4.88802e-11 6.52578e-11 -5.5326

-1.38527 0.144777 -4.50441e-11
0.144777 -0.507331 5.91434e-11
-4.50441e-11 5.91434e-11 -0.0376828

-0.37539 -0.0916619 -3.85007e-13
-0.0916619 -1.89032 -2.57224e-11
-3.85007e-13 -2.57224e-11 0.0758191

-0.00746745 0.827379 -2.15587e-11
0.827379 0.986946 -2.79104e-12
-2.15587e-11 -2.79104e-12 -0.235755

0.00974274 -0.823994 -4.50378e-11
-0.823994 0.991893 -6.14034e-11
-4.50378e-11 -6.14034e-11 -0.229778

0.888764 0.911206 -9.23759e-12
0.911206 0.908141 9.04622e-12
-9.23759e-12 9.04622e-12 -0.213412

-1.20524 0.207096 -4.1964e-11
0.207096 -0.619098 -6.80915e-12
-4.1964e-11 -6.80915e-12 -0.0659564

-0.782106 -0.0763571 3.61881e-11
-0.0763571 -0.7831 -2.28344e-11
3.61881e-11 -2.28344e-11 -0.0937329

-0.402211 -0.464052 2.1559e-11
-0.464052 0.424045 -2.78118e-11
2.1559e-11 -2.78118e-11 -2.29211

-0.398332 0.467816 8.85553e-12
0.467816 0.42944 8.54588e-11
8.85553e-12 8.54588e-11 -2.28986

-5.00846 -0.0781863 4.13887e-11
-0.0781863 -3.06751 -1.72967e-12
4.13887e-11 -1.72967e-12 -1.49057

-0.0657727 0.633091 5.69762e-11
0.633091 0.318979 5.86923e-12
5.69762e-11 5.86923e-12 -0.114455

0.110222 0.558985 3.46527e-12
0.558985 0.815211 1.5014e-11
3.46527e-12 1.5014e-11 -0.208931

0.111935 -0.555253 -3.61874e-11
-0.555253 0.820432 2.22317e-11
-3.61874e-11 2.22317e-11 -0.206507

-0.228219 0.399386 -1.80921e-11
0.399386 0.773286 3.10867e-11
-1.80921e-11 3.10867e-11 -0.140977

-0.0647998 -0.602677 4.77355e-11
-0.602677 0.29393 3.03186e-11
4.77355e-11 3.03186e-11 -0.117847

-1.29908 -0.0327981 -4.92787e-11
-0.0327981 -0.397195 -5.19655e-12
-4.92787e-11 -5.19655e-12 -0.0626863

-1.30057 -0.0431851 2.04039e-11
-0.0431851 -0.288594 1.24649e-11
2.04039e-11 1.24649e-11 -0.0516045

-1.06234 -0.154987 -1.84791e-11
-0.154987 0.299258 -2.81519e-11
-1.84791e-11 -2.81519e-11 -0.0405001

-0.236089 -0.389675 1.34737e-11
-0.389675 0.785972 4.52498e-12
1.34737e-11 4.52498e-12 -0.136997

-1.16937 -0.39647 -6.15944e-12
-0.39647 -1.17379 -2.05008e-11
-6.15944e-12 -2.05008e-11 -0.133665

-1.3828 0.22977 2.96448e-11
0.22977 -2.00231 2.85168e-12
2.96448e-11 2.85168e-12 -0.104641

0.358138 0.76806 3.38774e-11
0.76806 0.598593 1.17401e-11
3.38774e-11 1.17401e-11 -0.381919

0.361078 -0.772057 6.93077e-12
-0.772057 0.601337 -2.73318e-11
6.93077e-12 -2.73318e-11 -0.379801

-0.0214702 0.517789 8.47021e-12
0.517789 1.00756 2.82942e-11
8.47021e-12 2.82942e-11 -0.425181

-0.0185104 -0.515383 -1.53849e-12
-0.515383 1.01172 -2.43488e-11
-1.53849e-12 -2.43488e-11 -0.423199

-1.64326 -0.402481 -1.71334e-11
-0.402481 -0.929889 8.71048e-11
-1.71334e-11 8.71048e-11 -0.106628

-1.20273 -0.362437 -3.81144e-11
-0.362437 -1.21401 -1.17187e-11
-3.81144e-11 -1.17187e-11 0.0165151

-0.215656 -0.880464 -1.30904e-11
-0.880464 0.804769 3.56095e-11
-1.30904e-11 3.56095e-11 -0.183961

-0.224535 0.88879 -3.50305e-11
0.88879 0.790778 3.33011e-11
-3.50305e-11 3.33011e-11 -0.189498

2.06094 -0.496489 -2.34802e-11
-0.496489 -6.41795 -3.79236e-11
-2.34802e-11 -3.79236e-11 -4.39502

1.18665 -0.0441451 -6.42883e-11
-0.0441451 -1.69626 1.63673e-11
-6.42883e-11 1.63673e-11 -3.52523

0.436423 0.537763 1.54121e-12
0.537763 1.02212 3.35873e-11
1.54121e-12 3.35873e-11 -0.332115

0.461937 -0.526414 4.11901e-11
-0.526414 1.02216 1.18393e-11
4.11901e-11 1.18393e-11 -0.325607

-0.00532656 0.282383 -2.73314e-11
0.282383 0.763463 3.64755e-11
-2.73314e-11 3.64755e-11 -0.727688

-0.00289119 -0.281547 2.04019e-11
-0.281547 0.761848 1.91045e-11
2.04019e-11 1.91045e-11 -0.727068

-3.74627 -0.641311 2.27143e-11
-0.641311 -1.60962 3.47501e-11
2.27143e-11 3.47501e-11 -1.15061

-3.63339 0.645204 -4.08111e-11
0.645204 -1.7228 5.10399e-12
-4.08111e-11 5.10399e-12 -1.14424

-0.971435 -3.60284 -1.00065e-11
-3.60284 -5.85695 -6.54584e-12
-1.00065e-11 -6.54584e-12 -5.97749

-9.97465 0.18013 -3.27706e-12
0.18013 -6.79946 6.40101e-11
-3.27706e-12 6.40101e-11 -8.44791

-0.216496 0.102498 1.65526e-11
0.102498 0.499052 3.3876e-11
1.65526e-11 3.3876e-11 -1.37812

0.135791 -0.322154 4.35004e-11
-0.322154 0.0471526 1.00101e-11
4.35004e-11 1.00101e-11 -1.80881

-0.218773 -0.100331 1.84777e-11
-0.100331 0.508624 -1.78051e-11
1.84777e-11 -1.78051e-11 -1.37672

0.137832 0.324192 -7.42979e-11
0.324192 0.0531964 -1.0076e-10
-7.42979e-11 -1.0076e-10 -1.80707

1.22786 2.19635 1.34682e-11
2.19635 -0.330505 -4.5811e-11
1.34682e-11 -4.5811e-11 -3.80918

-9.94917 -0.15827 3.02258e-11
-0.15827 -6.8202 5.18813e-11
3.02258e-11 5.18813e-11 -8.44456

0.00163875 -0.00108063 -9.31556e-11
-0.00108063 0.000713507 -1.93486e-11
-9.31556e-11 -1.93486e-11 -1.91362

0.363732 -0.341271 1.23954e-10
-0.341271 -0.0611904 7.37219e-11
1.23954e-10 7.37219e-11 -2.38273

0.364256 0.34388 2.35967e-10
0.34388 -0.0535823 -1.06258e-10
2.35967e-10 -1.06258e-10 -2.38064

0.00846095 0.00558103 -3.29137e-10
0.00558103 0.00368229 8.1426e-11
-3.29137e-10 8.1426e-11 -1.91181

0.4189 -0.226271 -2.96413e-11
-0.226271 -0.0917235 -1.94402e-11
-2.96413e-11 -1.94402e-11 -1.50241

0.34894 -0.834323 6.23636e-11
-0.834323 0.341283 -5.0982e-12
6.23636e-11 -5.0982e-12 -0.834094

-0.375683 -0.24851 -4.19595e-11
-0.24851 0.526694 2.48289e-11
-4.19595e-11 2.48289e-11 -2.06346

0.423046 0.231927 4.65779e-11
0.231927 -0.0891734 -5.63004e-11
4.65779e-11 -5.63004e-11 -1.50149

-0.371559 0.250916 7.9686e-11
0.250916 0.533363 4.24388e-11
7.9686e-11 4.24388e-11 -2.06111

0.349927 0.839344 -4.08061e-11
0.839344 0.344483 1.93165e-13
-4.08061e-11 1.93165e-13 -0.834185

0.195799 0.28829 -3.84933e-11
0.28829 0.642009 6.24598e-11
-3.84933e-11 6.24598e-11 -0.962944

-0.0376995 0.578591 -3.15633e-11
0.578591 0.121647 7.73763e-11
-3.15633e-11 7.73763e-11 -1.46886

0.194313 -0.286568 2.11715e-11
-0.286568 0.641624 6.10171e-11
2.11715e-11 6.10171e-11 -0.962792

-0.0386331 -0.574734 4.00339e-11
-0.574734 0.119047 6.7946e-11
4.00339e-11 6.7946e-11 -1.4694

-2.38367 3.99088 2.30682e-12
3.99088 6.62984 4.85333e-11
2.30682e-12 4.85333e-11 1.49373

-1.00762 0.645848 6.54506e-12
0.645848 2.17308 2.9265e-11
6.54506e-12 2.9265e-11 -0.386742

-7.72282 1.12541 5.96863e-12
1.12541 4.08885 2.11823e-11
5.96863e-12 2.11823e-11 -1.08191

6.23214 2.0473 -2.89388e-11
2.0473 -6.19716 -4.15886e-11
-2.89388e-11 -4.15886e-11 0.0735096

8.69653 0.588239 1.50229e-11
0.588239 -3.45739 -1.19441e-11
1.50229e-11 -1.19441e-11 1.35742

-6.39823 -0.444834 7.31859e-12
-0.444834 -1.74679 2.79125e-12
7.31859e-12 2.79125e-12 -3.05198

-12.961 1.70895 -1.11679e-11
1.70895 2.59054 2.96552e-11
-1.11679e-11 2.96552e-11 -3.7922

8.8913 -0.567018 4.8613e-12
-0.567018 -2.30926 3.62039e-11
4.8613e-12 3.62039e-11 1.50181

5.63228 0.461974 1.71168e-11
0.461974 -9.07869 -1.54247e-12
1.71168e-11 -1.54247e-12 -1.14768

2.63467 3.58303 -3.20736e-11
3.58303 10.448 -1.42553e-11
-3.20736e-11 -1.42553e-11 5.10876

5.71849 -5.79473 2.56184e-11
-5.79473 11.9283 1.52136e-11
2.56184e-11 1.52136e-11 6.08008

11.3392 3.60899 1.81088e-11
3.60899 3.88591 2.31093e-11
1.81088e-11 2.31093e-11 5.68263

-3.70488 -6.61383 2.05038e-11
-6.61383 0.324144 -1.02082e-11
2.05038e-11 -1.02082e-11 -2.43112

-6.03645 -2.3121 -2.56134e-11
-2.3121 0.520682 1.15538e-11
-2.56134e-11 1.15538e-11 -3.08363

-6.63256 3.43016 7.71087e-13
3.43016 4.14895 1.88719e-11
7.71087e-13 1.88719e-11 -0.0507185

-9.70219 3.97972 -1.16558e-11
3.97972 2.6251 -2.92707e-11
-1.16558e-11 -2.92707e-11 -1.07899

-13.0247 -1.89344 3.88894e-11
-1.89344 2.859 -3.46819e-12
3.88894e-11 -3.46819e-12 -3.83036

-7.32602 -4.95235 1.94416e-11
-4.95235 -0.607406 -2.38773e-11
1.94416e-11 -2.38773e-11 -3.18892

4.48629 -3.52746 -3.56287e-11
-3.52746 -6.80688 1.29068e-11
-3.56287e-11 1.29068e-11 -0.0631787

0.789681 1.13194 -3.6309e-11
1.13194 11.7725 -2.35024e-11
-3.6309e-11 -2.35024e-11 4.14213

3.49347 -2.26029 2.90818e-11
-2.26029 11.5494 -8.2867e-12
2.90818e-11 -8.2867e-12 4.28669

11.6935 0.848914 -1.02115e-11
0.848914 3.03311 -1.48304e-11
-1.02115e-11 -1.48304e-11 4.7131

-1.57859 4.6256 1.67502e-11
4.6256 3.91357 1.57943e-11
1.67502e-11 1.57943e-11 1.13471

8.44574 -3.17947 1.37739e-11
-3.17947 -1.36677 8.67021e-12
1.37739e-11 8.67021e-12 1.89673

-0.0599124 5.08021 2.91761e-11
5.08021 0.893928 2.86951e-11
2.91761e-11 2.86951e-11 0.540484

2.86172 3.59855 -3.21535e-11
3.59855 5.40383 2.65783e-11
-3.21535e-11 2.65783e-11 1.79328

6.92791 -1.08824 6.49858e-12
-1.08824 -6.62496 3.19608e-11
6.49858e-12 3.19608e-11 -0.0446367

9.9507 2.43058 -1.92446e-12
2.43058 15.5517 2.30719e-12
-1.92446e-12 2.30719e-12 9.90348

4.60374 1.21842 4.06368e-11
1.21842 -8.95241 2.04059e-11
4.06368e-11 2.04059e-11 -1.10486

15.3945 2.26674 -1.53991e-11
2.26674 11.3149 8.85181e-12
-1.53991e-11 8.85181e-12 10.4792

-3.39754 -2.2546 1.52117e-11
-2.2546 -1.2958 -1.51178e-11
1.52117e-11 -1.51178e-11 -3.15417

-7.24297 0.286817 2.69506e-11
0.286817 1.54173 1.07804e-11
2.69506e-11 1.07804e-11 -4.02938

-8.44219 -2.41656 -3.10942e-11
-2.41656 -12.5036 4.42994e-12
-3.10942e-11 4.42994e-12 -13.121

-10.8496 5.84687 6.23346e-12
5.84687 -10.2372 2.38772e-11
6.23346e-12 2.38772e-11 -12.8914

12.3992 -1.5422 1.76169e-11
-1.5422 3.8997 1.13718e-11
1.76169e-11 1.13718e-11 4.92227

-4.20267 5.38903 1.95464e-11
5.38903 -0.72999 2.157e-11
1.95464e-11 2.157e-11 -0.707654

-4.88507 3.08147 -1.23575e-11
3.08147 -5.81585 -1.42543e-11
-1.23575e-11 -1.42543e-11 -4.71263

-3.54233 -0.868508 1.77367e-11
-0.868508 -4.76372 3.11908e-11
1.77367e-11 3.11908e-11 -4.7993

5.80998 0.465858 -2.67153e-12
0.465858 -9.87804 -1.00134e-11
-2.67153e-12 -1.00134e-11 -1.05953

0.976502 5.07675 5.96123e-12
5.07675 4.88711 -3.31245e-11
5.96123e-12 -3.31245e-11 1.40305

7.44606 -4.02379 -5.2931e-12
-4.02379 2.23565 1.03968e-11
-5.2931e-12 1.03968e-11 2.20234

6.79045 -0.0477306 1.75227e-11
-0.0477306 -10.1654 -8.08759e-12
1.75227e-11 -8.08759e-12 -0.812384

0.408066 -6.92013 -9.15083e-12
-6.92013 6.94806 1.52152e-11
-9.15083e-12 1.52152e-11 1.51836

0.636141 -6.03324 -3.56074e-12
-6.03324 7.26469 -2.02249e-11
-3.56074e-12 -2.02249e-11 1.55745

-1.6073 3.05431 -2.8689e-11
3.05431 0.902182 7.506e-12
-2.8689e-11 7.506e-12 -0.396442

6.43013 -6.92825 -2.84025e-11
-6.92825 4.29851 -2.42665e-11
-2.84025e-11 -2.42665e-11 2.82922

30.508 -6.90547 1.83008e-11
-6.90547 29.9797 -8.47922e-12
1.83008e-11 -8.47922e-12 29.9896

30.3446 -7.31802 -3.15981e-11
-7.31802 32.2479 -4.43031e-11
-3.15981e-11 -4.43031e-11 30.8918

-6.69445 -8.03798 5.87252e-12
-8.03798 1.89469 -1.6174e-11
5.87252e-12 -1.6174e-11 -1.95675

19.4621 -2.73273 -1.15811e-12
-2.73273 18.8926 1.79174e-11
-1.15811e-12 1.79174e-11 20.6061

17.679 -2.23891 -6.35714e-12
-2.23891 19.1853 -3.85314e-12
-6.35714e-12 -3.85314e-12 19.8092

0.332167 3.4916 -4.58192e-11
3.4916 -6.65517 -1.57823e-11
-4.58192e-11 -1.57823e-11 -3.18863

-1.14601 -4.62023 -3.85093e-11
-4.62023 -6.04056 4.65957e-11
-3.85093e-11 4.65957e-11 -4.46255

3.083 -2.41283 -2.17559e-11
-2.41283 -8.80404 1.42494e-11
-2.17559e-11 1.42494e-11 -0.593983

-0.100348 4.69955 -8.24126e-11
4.69955 -9.52189 -1.7701e-11
-8.24126e-11 -1.7701e-11 -3.83021

-2.1518 -6.48028 -1.77111e-11
-6.48028 -6.94907 -3.35018e-11
-1.77111e-11 -3.35018e-11 -4.93955

-1.79282 3.55226 -4.40983e-11
3.55226 3.59027 2.12704e-12
-4.40983e-11 2.12704e-12 0.228168

-5.40247 -2.24306 -2.97483e-11
-2.24306 -12.3526 -2.59346e-11
-2.97483e-11 -2.59346e-11 -10.4148

-8.52699 3.01559 -6.12501e-11
3.01559 -10.4576 -2.86572e-11
-6.12501e-11 -2.86572e-11 -10.478

1.15217 5.50377 5.25768e-11
5.50377 -6.24671 3.57543e-11
5.25768e-11 3.57543e-11 -1.57867

-0.87038 -6.99909 5.58324e-12
-6.99909 -5.64791 -1.60821e-11
5.58324e-12 -1.60821e-11 -2.23111

11.8036 -4.78114 -1.50241e-11
-4.78114 5.23991 6.35632e-12
-1.50241e-11 6.35632e-12 6.21279

-8.87391 -1.36655 9.99201e-16
-1.36655 -5.00798 -8.85758e-12
9.99201e-16 -8.85758e-12 -7.20483

-11.8632 -0.224415 -2.8491e-11
-0.224415 0.264601 -1.65562e-11
-2.8491e-11 -1.65562e-11 -9.01468

-2.0528 -5.8454 1.11734e-11
-5.8454 3.7951 5.1996e-11
1.11734e-11 5.1996e-11 1.00228

9.86358 -2.01518 4.18032e-11
-2.01518 15.7789 2.09914e-11
4.18032e-11 2.09914e-11 10.6094

15.7285 -1.88563 -2.21603e-11
-1.88563 10.1757 6.35255e-12
-2.21603e-11 6.35255e-12 10.7818

-3.87511 2.26458 1.44423e-11
2.26458 2.13839 1.59829e-11
1.44423e-11 1.59829e-11 -0.700941

-9.71764 3.41139 3.85058e-11
3.41139 3.28146 -2.27274e-11
3.85058e-11 -2.27274e-11 -1.18238

-2.96141 4.45263 2.96016e-11
4.45263 -15.9334 -2.75648e-11
2.96016e-11 -2.75648e-11 -12.9195

-3.52159 1.32311 -4.12012e-11
1.32311 1.06076 -7.8533e-11
-4.12012e-11 -7.8533e-11 -14.3293

-9.90927 5.13249 3.13817e-11
5.13249 -2.20814 -2.31274e-12
3.13817e-11 -2.31274e-12 -2.00282

3.05542 4.06166 2.15761e-11
4.06166 -7.38063 2.3291e-11
2.15761e-11 2.3291e-11 -0.817032

1.92449 -6.18371 4.19845e-11
-6.18371 -6.8043 -7.78044e-13
4.19845e-11 -7.78044e-13 -1.13777

-8.01218 7.04402 -2.78243e-11
7.04402 -2.21996 6.16196e-12
-2.78243e-11 6.16196e-12 -1.72976

-11.2341 -5.35611 -5.52602e-11
-5.35611 0.341784 -1.27051e-11
-5.52602e-11 -1.27051e-11 -2.84681

12.2215 -0.507861 -7.0283e-12
-0.507861 1.72809 -1.07832e-11
-7.0283e-12 -1.07832e-11 4.66172

7.41957 -2.0495 2.96583e-11
-2.0495 -3.95285 -1.98347e-11
2.96583e-11 -1.98347e-11 1.3142

9.18738 2.51605 -1.80086e-11
2.51605 -0.446863 -1.15575e-11
-1.80086e-11 -1.15575e-11 2.56114

-3.26163 2.79291 -6.68917e-12
2.79291 -8.6668 1.42485e-11
-6.68917e-12 1.42485e-11 -4.29822

-22.4489 1.90176 -6.26863e-11
1.90176 -9.93913 4.04362e-11
-6.26863e-11 4.04362e-11 -17.3635

-16.0664 -1.40045 7.72029e-11
-1.40045 -15.2851 5.66806e-13
7.72029e-11 5.66806e-13 -17.3191

6.34627 4.04144 2.87622e-13
4.04144 8.68437 -2.94723e-11
2.87622e-13 -2.94723e-11 4.83788

2.039 -5.19534 1.29005e-11
-5.19534 -0.0268062 -1.96451e-11
1.29005e-11 -1.96451e-11 0.200633

4.3433 2.8119 -2.88948e-11
2.8119 -4.62053 -4.44734e-11
-2.88948e-11 -4.44734e-11 0.216059

-11.2803 3.13304 5.0633e-11
3.13304 -1.03329 8.07421e-12
5.0633e-11 8.07421e-12 -11.2084

-11.7225 -2.09849 -7.68084e-11
-2.09849 -7.63447 -7.8928e-12
-7.68084e-11 -7.8928e-12 -9.79808

-2.47899 -0.767145 3.01336e-11
-0.767145 -9.30519 -4.29362e-11
3.01336e-11 -4.29362e-11 -4.76436

-1.98247 -4.04129 2.24322e-11
-4.04129 3.12123 -1.34831e-11
2.24322e-11 -1.34831e-11 -0.573923

-8.01872 -1.30701 2.51304e-11
-1.30701 4.33184 -2.31104e-12
2.51304e-11 -2.31104e-12 -1.28511

2.86607 0.896129 -3.08183e-12
0.896129 -11.9438 4.23572e-12
-3.08183e-12 4.23572e-12 -1.23643

2.47708 -2.81707 -3.08119e-11
-2.81707 -11.5324 7.31793e-12
-3.08119e-11 7.31793e-12 -1.43501

8.93377 -5.74069 3.90354e-13
-5.74069 6.48172 1.23191e-11
3.90354e-13 1.23191e-11 5.24403

1.9745 3.54296 2.16102e-11
3.54296 -12.0175 6.53788e-12
2.16102e-11 6.53788e-12 -2.24846

1.37056 -5.51021 -1.90617e-11
-5.51021 -9.69124 -5.77297e-12
-1.90617e-11 -5.77297e-12 -2.53978

4.33123 -4.90765 -2.23349e-11
-4.90765 -5.10035 2.30976e-11
-2.23349e-11 2.30976e-11 0.0726916

-1.86678 -4.8888 3.2685e-12
-4.8888 6.0764 2.07971e-11
3.2685e-12 2.07971e-11 1.45022

1.69506 2.13115 2.30142e-12
2.13115 -8.6073 -2.88817e-11
2.30142e-12 -2.88817e-11 -1.18869

1.96382 -3.95257 -9.23965e-12
-3.95257 -8.47158 -2.74365e-11
-9.23965e-12 -2.74365e-11 -1.46455

5.28281 -1.29359 2.9465e-11
-1.29359 -3.97119 -3.19656e-11
2.9465e-11 -3.19656e-11 -0.0337438

0.701648 6.16133 4.5823e-11
6.16133 -2.34906 -3.27834e-12
4.5823e-11 -3.27834e-12 -0.574536

5.25957 4.08706 2.04111e-11
4.08706 2.48156 2.73499e-11
2.04111e-11 2.73499e-11 2.19876

-9.85743 6.12174 1.82441e-11
6.12174 -4.29732 9.24284e-12
1.82441e-11 9.24284e-12 -2.33436

-3.57627 4.55163 -4.31267e-11
4.55163 -0.22521 -9.04972e-12
-4.31267e-11 -9.04972e-12 -0.938331

8.37783 2.27414 5.12309e-11
2.27414 -2.50431 1.23173e-11
5.12309e-11 1.23173e-11 1.98556

-0.870641 -3.04722 -6.25944e-13
-3.04722 -4.57944 1.63638e-11
-6.25944e-13 1.63638e-11 -1.88637

4.99139 1.90367 1.84945e-11
1.90367 -3.8746 6.85554e-11
1.84945e-11 6.85554e-11 0.237523

1.72028 4.89282 1.51229e-11
4.89282 3.48387 1.04004e-11
1.51229e-11 1.04004e-11 1.93785

0.574273 4.62186 1.34808e-11
4.62186 -1.55613 2.73486e-11
1.34808e-11 2.73486e-11 0.103714

-10.7238 0.0546103 1.96404e-11
0.0546103 5.29183 3.65878e-11
1.96404e-11 3.65878e-11 -1.3573

-5.50728 -1.99287 -1.96391e-11
-1.99287 2.50187 1.44446e-11
-1.96391e-11 1.44446e-11 -1.20474

10.231 -5.7629 1.17574e-11
-5.7629 3.72061 -5.00887e-11
1.17574e-11 -5.00887e-11 5.49971

-5.7382 -7.86012 -3.41653e-12
-7.86012 1.75337 -3.42765e-11
-3.41653e-12 -3.42765e-11 -1.50105

2.45005 -6.93298 -1.5398e-11
-6.93298 6.00097 1.92612e-11
-1.5398e-11 1.92612e-11 2.66007

5.37634 5.62468 4.22847e-12
5.62468 5.55426 -7.37648e-11
4.22847e-12 -7.37648e-11 2.7948

4.16468 -2.5697 3.89981e-11
-2.5697 -1.75828 -3.41818e-11
3.89981e-11 -3.41818e-11 0.0911718

3.4033 -0.200453 -5.58165e-12
-0.200453 -11.9196 7.70114e-12
-5.58165e-12 7.70114e-12 -2.64084

2.33945 0.825625 -5.58598e-12
0.825625 -10.7512 -2.96504e-11
-5.58598e-12 -2.96504e-11 -2.42465

-3.8656 2.57855 1.20399e-11
2.57855 7.85854 3.50549e-11
1.20399e-11 3.50549e-11 1.5379

1.18144 -6.1931 4.13714e-12
-6.1931 3.27283 3.85277e-12
4.13714e-12 3.85277e-12 0.61554

-0.893901 -0.849724 1.42462e-11
-0.849724 12.3468 -2.58213e-11
1.42462e-11 -2.58213e-11 4.44149

1.87445 -1.07653 -7.89248e-12
-1.07653 12.5858 1.46437e-11
-7.89248e-12 1.46437e-11 4.74757

12.2165 -1.42415 -1.54083e-11
-1.42415 0.773866 2.30596e-12
-1.54083e-11 2.30596e-12 4.991

9.33477 4.09576 2.23503e-11
4.09576 7.58303 8.74395e-11
2.23503e-11 8.74395e-11 5.27411

4.72485 -7.11303 1.38747e-11
-7.11303 0.831358 -3.39012e-11
1.38747e-11 -3.39012e-11 2.08268

-1.94583 -1.68768 1.18386e-10
-1.68768 -1.60669 -1.85005e-11
1.18386e-10 -1.85005e-11 -13.0637

-17.4414 -6.40647 -4.63922e-11
-6.40647 -9.51322 -2.46336e-11
-4.63922e-11 -2.46336e-11 -13.9854

7.51226 -4.21237 1.21315e-11
-4.21237 -2.65363 -1.69455e-11
1.21315e-11 -1.69455e-11 1.77895

-0.471341 5.6905 -5.0054e-12
5.6905 1.41578 3.84803e-12
-5.0054e-12 3.84803e-12 0.0501077

3.3484 0.378876 -1.42482e-11
0.378876 -8.66812 1.54034e-11
-1.42482e-11 1.54034e-11 -0.45949

-0.171982 -5.16207 4.35214e-11
-5.16207 8.6516 -2.38867e-11
4.35214e-11 -2.38867e-11 1.87214

-13.3204 5.37237 -6.74646e-13
5.37237 0.36673 3.081e-11
-6.74646e-13 3.081e-11 -2.97743

-3.95234 2.23483 -2.3293e-11
2.23483 -0.787176 -2.79166e-11
-2.3293e-11 -2.79166e-11 -1.4446

-5.8966 -7.31923 -2.2149e-11
-7.31923 -2.5805 -1.92574e-11
-2.2149e-11 -1.92574e-11 -1.48146

-1.9785 5.47891 2.73367e-11
5.47891 -1.292 -6.93075e-12
2.73367e-11 -6.93075e-12 -0.844935

-7.65244 4.3409 -1.82824e-12
4.3409 1.47064 2.61934e-11
-1.82824e-12 2.61934e-11 -0.683934

2.06051 -0.517306 -7.32022e-12
-0.517306 -18.6752 -3.92791e-11
-7.32022e-12 -3.92791e-11 -2.42983

6.96105 5.3541 -2.11885e-11
5.3541 1.22208 1.67539e-11
-2.11885e-11 1.67539e-11 2.43908

-5.83189 -8.31707 -1.24205e-11
-8.31707 4.04107 2.73461e-11
-1.24205e-11 2.73461e-11 -1.05479

4.97689 4.8197 -2.73386e-11
4.8197 3.73869 4.42061e-12
-2.73386e-11 4.42061e-12 2.2359

7.45751 -4.73066 -6.06367e-12
-4.73066 10.3061 1.56043e-11
-6.06367e-12 1.56043e-11 5.44396

-2.56789 -6.80925 1.06086e-12
-6.80925 2.8083 2.2916e-11
1.06086e-12 2.2916e-11 -0.438251

0.512626 -3.07307 -3.85617e-13
-3.07307 11.0085 -2.4269e-11
-3.85617e-13 -2.4269e-11 3.73327

4.20145 1.17252 -5.43053e-11
1.17252 10.6197 2.54259e-11
-5.43053e-11 2.54259e-11 3.98238

10.3477 -2.89314 1.82877e-11
-2.89314 2.10952 -3.5444e-11
1.82877e-11 -3.5444e-11 4.16142

3.54142 -6.20381 2.46598e-11
-6.20381 2.62282 4.27497e-11
2.46598e-11 4.27497e-11 2.02893

-5.16267 -0.294029 1.81021e-11
-0.294029 7.78729 1.07823e-11
1.81021e-11 1.07823e-11 0.834265

0.612944 -1.11325 -2.25329e-11
-1.11325 6.83173 -3.58162e-11
-2.25329e-11 -3.58162e-11 1.306

5.62977 -6.20766 1.92483e-12
-6.20766 9.43276 -1.07871e-11
1.92483e-12 -1.07871e-11 5.66026

7.65067 4.60266 1.90724e-11
4.60266 9.16943 4.02503e-11
1.90724e-11 4.02503e-11 5.60868

-0.27688 0.0220083 3.8903e-11
0.0220083 -13.3531 1.84482e-13
3.8903e-11 1.84482e-13 -1.94017

-0.227294 -1.101 2.69644e-12
-1.101 -12.3988 -1.88725e-11
2.69644e-12 -1.88725e-11 -1.97378

-0.169306 4.9734 5.39391e-12
4.9734 1.105 -1.54299e-12
5.39391e-12 -1.54299e-12 0.0432731

-6.64152 -8.21627 -1.85805e-11
-8.21627 2.65255 -1.07829e-11
-1.85805e-11 -1.07829e-11 -1.64644

-3.89017 5.63768 -4.98218e-11
5.63768 -2.95744 1.55903e-11
-4.98218e-11 1.55903e-11 -1.42368

12.8973 2.59089 -9.56124e-13
2.59089 7.10727 1.11634e-11
-9.56124e-13 1.11634e-11 7.8758

0.116757 3.09487 -2.81033e-11
3.09487 7.55076 5.16184e-11
-2.81033e-11 5.16184e-11 1.80054

1.37385 2.85703 -4.85148e-11
2.85703 -8.11401 3.67692e-11
-4.85148e-11 3.67692e-11 -2.33067

0.495266 -4.98205 -4.35232e-11
-4.98205 -7.83889 -9.91651e-12
-4.35232e-11 -9.91651e-12 -3.20461

2.53963 4.07311 -2.38748e-11
4.07311 -4.08284 5.18104e-16
-2.38748e-11 5.18104e-16 -0.506222

2.08328 -5.88743 2.56106e-11
-5.88743 -4.83899 7.63759e-13
2.56106e-11 7.63759e-13 -0.903698

16.3161 -2.94468 -2.40836e-11
-2.94468 10.8054 2.73557e-11
-2.40836e-11 2.73557e-11 18.3855

10.6495 -3.4453 2.96586e-11
-3.4453 17.5944 -6.10729e-11
2.96586e-11 -6.10729e-11 18.9373

-4.22751 -3.91017 -5.77527e-12
-3.91017 7.60198 1.92599e-11
-5.77527e-12 1.92599e-11 1.39932

-0.240104 4.67146 2.31704e-12
4.67146 -12.7116 1.46237e-11
2.31704e-12 1.46237e-11 -6.95827

-1.51962 -6.60654 -8.86084e-12
-6.60654 -7.58136 4.65983e-11
-8.86084e-12 4.65983e-11 -8.54498

3.74181 4.73679 -3.00477e-11
4.73679 -0.884752 -2.86847e-11
-3.00477e-11 -2.86847e-11 0.633523

13.566 1.91353 -1.14622e-11
1.91353 6.68656 1.11645e-11
-1.14622e-11 1.11645e-11 7.95349

-5.21541 -5.70652 8.66647e-12
-5.70652 3.72454 -7.51221e-12
8.66647e-12 -7.51221e-12 -0.904156

-9.53673 -2.73977 1.34767e-11
-2.73977 4.66899 -2.1575e-11
1.34767e-11 -2.1575e-11 -1.09379

4.02913 -6.7971 -2.40089e-12
-6.7971 5.80815 5.29625e-11
-2.40089e-12 5.29625e-11 2.50452

-8.45028 -5.50398 -2.56134e-11
-5.50398 -3.97672 -1.88684e-11
-2.56134e-11 -1.88684e-11 -2.12326

2.92579 -6.39606 -7.2413e-11
-6.39606 -1.67408 2.35082e-11
-7.2413e-11 2.35082e-11 0.477432

-13.5839 8.32969 -3.87468e-13
8.32969 -1.9518 -5.77638e-12
-3.87468e-13 -5.77638e-12 -2.36694

-4.43068 2.02795 -1.73211e-12
2.02795 -1.95425 -1.17474e-11
-1.73211e-12 -1.17474e-11 -2.70981

-5.91508 3.49329 -2.11801e-11
3.49329 -0.550973 1.42486e-11
-2.11801e-11 1.42486e-11 -3.23002

-4.21111 -6.12704 -3.40862e-11
-6.12704 -1.004 4.23817e-12
-3.40862e-11 4.23817e-12 -0.6457

-5.31774 5.98017 2.21471e-11
5.98017 -0.454725 -9.62748e-12
2.21471e-11 -9.62748e-12 -0.649296

7.77619 3.9797 -1.40619e-11
3.9797 0.624879 -1.57933e-11
-1.40619e-11 -1.57933e-11 2.66333

6.56472 -0.0111406 4.06411e-11
-0.0111406 -3.66251 1.17395e-11
4.06411e-11 1.17395e-11 1.19013

-0.568823 4.12592 1.98249e-11
4.12592 -0.807158 -3.63867e-11
1.98249e-11 -3.63867e-11 -0.321815

-3.63642 -6.61762 8.9545e-12
-6.61762 5.87921 -2.34956e-11
8.9545e-12 -2.34956e-11 0.128266

-6.42069 1.00406 1.53994e-11
1.00406 7.99396 -1.88733e-11
1.53994e-11 -1.88733e-11 0.755125

2.23603 6.18368 -2.79184e-11
6.18368 -3.16211 -5.20776e-12
-2.79184e-11 -5.20776e-12 -0.313535

-1.27162 0.172234 4.99963e-12
0.172234 6.37372 -5.14227e-11
4.99963e-12 -5.14227e-11 0.96185

-12.9881 -4.61012 -1.25168e-11
-4.61012 -0.0574653 -4.54428e-11
-1.25168e-11 -4.54428e-11 -2.8426

16.3347 -3.89398 4.00732e-11
-3.89398 18.5764 2.83074e-11
4.00732e-11 2.83074e-11 15.4285

18.787 -3.98134 9.53104e-12
-3.98134 16.123 2.38852e-11
9.53104e-12 2.38852e-11 15.4419

4.9734 1.36569 -3.22579e-11
1.36569 -6.9769 1.25288e-11
-3.22579e-11 1.25288e-11 0.0430171

-0.210524 -7.28865 2.46447e-11
-7.28865 -3.61715 -1.0787e-11
2.46447e-11 -1.0787e-11 -0.796219

-1.15114 4.13458 -2.77313e-11
4.13458 -15.9648 2.09906e-11
-2.77313e-11 2.09906e-11 -11.6962

1.14669 -1.16299 8.50876e-11
-1.16299 -7.68845 -9.25164e-12
8.50876e-11 -9.25164e-12 -13.5306

-6.62927 -5.136 -3.35095e-11
-5.136 1.03426 -3.27354e-11
-3.35095e-11 -3.27354e-11 -0.674243

-9.63762 -1.55793 7.53508e-12
-1.55793 -7.06723 1.13597e-11
7.53508e-12 1.13597e-11 -8.59143

-9.8096 5.38438 8.25688e-12
5.38438 -3.85176 7.70654e-12
8.25688e-12 7.70654e-12 -7.54292

7.57082 0.48403 5.10325e-12
0.48403 -7.56893 -2.19508e-11
5.10325e-12 -2.19508e-11 -0.0315372

-6.36299 -8.91399 1.0106e-11
-8.91399 3.84286 2.21431e-11
1.0106e-11 2.21431e-11 -1.01137

13.8074 2.99637 -6.1593e-12
2.99637 14.0534 -1.19475e-11
-6.1593e-12 -1.19475e-11 11.9969

12.4463 2.88888 5.78323e-12
2.88888 12.5147 1.01241e-11
5.78323e-12 1.01241e-11 10.9975

6.39629 -3.46916 4.08284e-11
-3.46916 14.4795 7.69399e-12
4.08284e-11 7.69399e-12 8.97677

8.49151 1.72624 -8.47433e-12
1.72624 14.3882 4.8548e-11
-8.47433e-12 4.8548e-11 8.85423

14.4408 -2.94721 -8.997e-11
-2.94721 7.17415 1.53093e-11
-8.997e-11 1.53093e-11 9.26044

-12.5463 -8.18354 -6.16261e-12
-8.18354 -2.53464 2.65743e-11
-6.16261e-12 2.65743e-11 -2.41814

7.49635 0.164879 -2.29133e-11
0.164879 16.9715 3.12067e-11
-2.29133e-11 3.12067e-11 11.1912

17.0742 0.244023 -2.58214e-11
0.244023 9.01949 -6.1637e-11
-2.58214e-11 -6.1637e-11 11.7753

-8.39665 0.549507 -1.34757e-11
0.549507 0.82114 8.08642e-12
-1.34757e-11 8.08642e-12 -5.84058

-6.83439 -4.69527 -3.84714e-12
-4.69527 -1.71505 7.02912e-12
-3.84714e-12 7.02912e-12 -5.08664

2.99812 1.88425 -2.75401e-11
1.88425 -4.93073 -7.69533e-13
-2.75401e-11 -7.69533e-13 -0.84306

6.06269 0.313141 1.44908e-11
0.313141 -11.0071 1.15301e-12
1.44908e-11 1.15301e-12 -1.08812

0.749243 -4.42871 1.02075e-11
-4.42871 8.44105 2.31208e-12
1.02075e-11 2.31208e-12 3.47004

3.14937 2.83314 2.25321e-11
2.83314 9.10276 -6.08636e-11
2.25321e-11 -6.08636e-11 3.72255

7.35601 0.370835 -8.42719e-12
0.370835 -7.4278 1.42468e-11
-8.42719e-12 1.42468e-11 -0.0939472

-6.06621 -4.50597 -5.39531e-12
-4.50597 3.81255 -3.77481e-11
-5.39531e-12 -3.77481e-11 -0.0698894

-0.187111 2.6286 2.54001e-11
2.6286 -9.7894 -2.04097e-11
2.54001e-11 -2.04097e-11 -4.70575

-1.24431 -3.64466 3.00302e-11
-3.64466 -7.20741 -2.11757e-11
3.00302e-11 -2.11757e-11 -6.0755

-2.01274 4.29048 4.32691e-13
4.29048 -2.33423 -4.27483e-11
4.32691e-13 -4.27483e-11 -1.22229

-3.64188 -7.53005 -1.8965e-11
-7.53005 4.93624 -2.31037e-11
-1.8965e-11 -2.31037e-11 -0.197444

3.59255 1.9444 -9.4292e-12
1.9444 -8.38663 3.6197e-11
-9.4292e-12 3.6197e-11 -1.22451

7.12254 3.93633 -3.75255e-12
3.93633 5.83327 -1.88796e-11
-3.75255e-12 -1.88796e-11 4.60507

-3.27983 -8.12177 8.66511e-12
-8.12177 4.77497 9.60861e-13
8.66511e-12 9.60861e-13 -0.0929336

31.3361 7.20437 -7.07027e-11
7.20437 31.4605 1.92649e-11
-7.07027e-11 1.92649e-11 31.787

-2.65563 -2.97064 3.11944e-11
-2.97064 6.89534 -4.62252e-12
3.11944e-11 -4.62252e-12 0.726841

-5.51914 -1.75523 -1.86823e-11
-1.75523 7.89512 -3.88874e-13
-1.86823e-11 -3.88874e-13 0.898514

-11.303 -0.786154 3.67693e-11
-0.786154 2.76803 -5.39272e-12
3.67693e-11 -5.39272e-12 -6.8627

-7.74132 -3.69374 1.81013e-11
-3.69374 -4.68896 5.77533e-11
1.81013e-11 5.77533e-11 -6.20762

1.83444 2.056 3.96758e-11
2.056 -18.7578 2.30939e-11
3.96758e-11 2.30939e-11 -2.99185

1.63243 -3.03846 1.27114e-11
-3.03846 -15.8355 -5.77849e-12
1.27114e-11 -5.77849e-12 -3.01158

-5.4353 6.21067 6.40206e-11
6.21067 -5.15295 -2.65657e-11
6.40206e-11 -2.65657e-11 -3.36025

-5.50294 -3.97961 -5.65611e-11
-3.97961 -3.85536 -1.32787e-11
-5.65611e-11 -1.32787e-11 -3.78956

-7.89497 4.77724 2.85167e-11
4.77724 -5.8073 3.85364e-12
2.85167e-11 3.85364e-12 -6.43687

-8.04836 -3.32361 3.26577e-11
-3.32361 -2.99063 -3.58126e-11
3.26577e-11 -3.58126e-11 -6.49049

-0.882071 4.54434 6.31543e-11
4.54434 -13.4999 4.27334e-11
6.31543e-11 4.27334e-11 -9.2892

-2.59493 -6.3509 -8.8549e-11
-6.3509 -6.0468 2.5817e-11
-8.8549e-11 2.5817e-11 -11.5923

1.3841 4.68859 -1.98379e-11
4.68859 -3.86167 -1.80932e-11
-1.98379e-11 -1.80932e-11 -1.0232

-8.631 -8.85898 -3.06152e-11
-8.85898 -4.68956 -4.19709e-11
-3.06152e-11 -4.19709e-11 -2.96358

4.83036 4.90406 -2.38868e-11
4.90406 -3.24647 -3.81194e-11
-2.38868e-11 -3.81194e-11 0.534864

-1.03267 -5.54949 4.04532e-12
-5.54949 6.07473 -1.46353e-11
4.04532e-12 -1.46353e-11 0.656382

-6.25408 -3.35255 3.85105e-12
-3.35255 5.0997 -4.96911e-11
3.85105e-12 -4.96911e-11 0.0375613

10.0058 -4.92942 -1.90628e-11
-4.92942 8.88883 -3.90927e-11
-1.90628e-11 -3.90927e-11 5.81646

3.45254 -6.50917 -4.98777e-11
-6.50917 -3.36217 4.2378e-11
-4.98777e-11 4.2378e-11 0.31406

-5.77292 2.24116 2.59921e-11
2.24116 5.67478 -3.08746e-12
2.59921e-11 -3.08746e-12 0.297125

3.32019 6.51911 -1.27103e-11
6.51911 0.275719 -2.09877e-11
-1.27103e-11 -2.09877e-11 0.845328

-11.5932 9.67231 8.71192e-12
9.67231 -4.39764 6.93348e-12
8.71192e-12 6.93348e-12 -3.35377

-7.62658 -7.85639 3.2736e-12
-7.85639 0.956156 -1.29022e-11
3.2736e-12 -1.29022e-11 -2.55033

0.871291 -7.41468 -2.63913e-11
-7.41468 -0.50789 5.81567e-11
-2.63913e-11 5.81567e-11 0.48554

3.37695 -0.53192 -3.32186e-11
-0.53192 -3.94382 -7.70028e-12
-3.32186e-11 -7.70028e-12 -1.0801

-14.2596 -2.45126 4.50457e-11
-2.45126 -10.0484 -7.26753e-11
4.50457e-11 -7.26753e-11 -14.1523

-2.21504 -2.84894 -1.22047e-10
-2.84894 -3.6011 -3.46492e-11
-1.22047e-10 -3.46492e-11 -13.5964

-7.95544 -2.88502 -6.29635e-11
-2.88502 1.84219 2.23446e-11
-6.29635e-11 2.23446e-11 -1.28489

-1.24839 4.00403 -1.20845e-11
4.00403 -5.13762 6.16892e-12
-1.20845e-11 6.16892e-12 -1.49837

-0.508802 -0.294674 -6.04206e-12
-0.294674 -7.18594 -3.54261e-11
-6.04206e-12 -3.54261e-11 -3.75078

14.2328 -5.04298 3.52454e-11
-5.04298 17.7785 6.39466e-11
3.52454e-11 6.39466e-11 14.2865

16.9827 -4.53004 5.37437e-11
-4.53004 13.9174 3.27253e-11
5.37437e-11 3.27253e-11 14.0475

1.22468 -0.189375 3.58121e-11
-0.189375 -13.5503 -4.43601e-12
3.58121e-11 -4.43601e-12 -2.71401

1.4691 -0.938467 -1.38625e-11
-0.938467 -11.8281 -2.69588e-12
-1.38625e-11 -2.69588e-12 -3.13167

0.882717 1.00833 1.30188e-11
1.00833 -8.49479 -4.69772e-11
1.30188e-11 -4.69772e-11 -4.03832

0.469055 2.63275 9.42302e-12
2.63275 4.30235 -5.54548e-11
9.42302e-12 -5.54548e-11 0.735462

7.27401 3.40971 3.88056e-11
3.40971 0.452189 4.80468e-12
3.88056e-11 4.80468e-12 2.13528

1.00258 4.66399 3.13753e-11
4.66399 -3.67225 -6.93867e-12
3.13753e-11 -6.93867e-12 -1.21315

-0.622214 -6.10396 7.32029e-12
-6.10396 -5.05518 5.27499e-11
7.32029e-12 5.27499e-11 -2.05764

-15.4299 -0.774151 -6.0675e-11
-0.774151 -19.3483 8.09793e-11
-6.0675e-11 8.09793e-11 -18.982

-14.2457 6.68965 3.72935e-11
6.68965 -5.20332 9.90333e-11
3.72935e-11 9.90333e-11 -15.7535

-8.83557 -5.2218 -1.0009e-11
-5.2218 0.491268 3.42775e-11
-1.0009e-11 3.42775e-11 -1.27747

4.21348 3.42859 5.18995e-11
3.42859 -2.60145 2.85016e-11
5.18995e-11 2.85016e-11 0.397726

0.89227 3.16745 2.59792e-12
3.16745 -8.31803 -1.81011e-11
2.59792e-12 -1.81011e-11 -2.40739

0.515825 -4.27056 -1.64618e-11
-4.27056 -6.51879 -2.31036e-11
-1.64618e-11 -2.31036e-11 -2.99481

-3.07405 -7.27836 1.90628e-11
-7.27836 3.73642 1.7137e-11
1.90628e-11 1.7137e-11 -0.521809

-5.15731 -9.31335 -1.35005e-12
-9.31335 4.16182 2.13739e-11
-1.35005e-12 2.13739e-11 -0.698423

32.6507 8.61004 -1.25199e-11
8.61004 33.5767 6.93982e-12
-1.25199e-11 6.93982e-12 32.6984

-10.4539 6.57566 3.28722e-11
6.57566 -2.27281 -6.54181e-12
3.28722e-11 -6.54181e-12 -3.81957

-7.71651 -5.80546 1.107e-11
-5.80546 1.03469 -7.89568e-12
1.107e-11 -7.89568e-12 -3.41789

-5.77707 -8.01062 7.50831e-12
-8.01062 4.05646 2.58029e-11
7.50831e-12 2.58029e-11 -0.812508

7.16617 -5.44668 2.13814e-11
-5.44668 -0.633742 -8.85247e-12
2.13814e-11 -8.85247e-12 1.96108

-0.870416 -3.59849 3.37042e-12
-3.59849 0.433001 -6.39292e-11
3.37042e-12 -6.39292e-11 -1.11285

-5.93187 6.21709 4.21199e-11
6.21709 -5.27227 5.77867e-12
4.21199e-11 5.77867e-12 -3.29947

-5.77067 -4.98126 -2.54162e-11
-4.98126 -0.594034 4.37138e-11
-2.54162e-11 4.37138e-11 -3.10533

3.77408 -0.501265 -4.03448e-11
-0.501265 -8.99978 -5.39176e-12
-4.03448e-11 -5.39176e-12 -1.63436

-0.688224 1.82871 8.46404e-12
1.82871 -10.15 -1.13597e-11
8.46404e-12 -1.13597e-11 -3.73011

-0.39341 -1.7604 -1.57913e-11
-1.7604 -5.23518 -4.9674e-11
-1.57913e-11 -4.9674e-11 -4.02792

-12.4363 -2.57303 2.61841e-11
-2.57303 -4.29295 2.14659e-11
2.61841e-11 2.14659e-11 -10.7358

-13.1211 1.9615 2.75209e-11
1.9615 0.358868 -7.43166e-11
2.75209e-11 -7.43166e-11 -12.6736

19.9224 0.660045 -4.39258e-11
0.660045 13.1424 4.18069e-11
-4.39258e-11 4.18069e-11 19.756

13.4391 0.595958 3.65752e-12
0.595958 19.4454 -2.04183e-11
3.65752e-12 -2.04183e-11 19.4725

-0.221009 5.9284 6.22032e-11
5.9284 -1.78831 5.79536e-13
6.22032e-11 5.79536e-13 -0.835322

-3.92607 -5.92349 -3.08087e-12
-5.92349 -3.77119 3.69638e-11
-3.08087e-12 3.69638e-11 -1.77742

-9.09792 -5.67236 3.31202e-11
-5.67236 -2.48471 2.04061e-11
3.31202e-11 2.04061e-11 -1.83345

20.2191 2.11189 8.09097e-12
2.11189 20.3116 3.85332e-11
8.09097e-12 3.85332e-11 22.3569

20.1895 2.30173 8.24524e-11
2.30173 20.2787 -2.31295e-11
8.24524e-11 -2.31295e-11 22.4341

-3.03081 0.998572 -8.27825e-11
0.998572 -0.834595 -6.16007e-11
-8.27825e-11 -6.16007e-11 -13.6844

-4.28174 1.60925 -1.91871e-11
1.60925 -8.43942 1.43796e-10
-1.91871e-11 1.43796e-10 -11.6151

-3.56031 -5.32689 5.30951e-11
-5.32689 -0.360754 1.36637e-11
5.30951e-11 1.36637e-11 -1.56626

0.196733 -6.60317 -3.00464e-11
-6.60317 1.54301 9.63037e-12
-3.00464e-11 9.63037e-12 0.745398

1.24281 6.2011 5.78855e-12
6.2011 -3.81489 3.71661e-11
5.78855e-12 3.71661e-11 -0.913438

-2.47915 -7.46891 2.30616e-12
-7.46891 -4.13726 2.11775e-11
2.30616e-12 2.11775e-11 -1.62188

-3.17615 -7.0075 8.09404e-12
-7.0075 -0.784609 3.84285e-13
8.09404e-12 3.84285e-13 -0.53131

3.02336 5.08346 -6.94526e-12
5.08346 1.75394 -4.89043e-11
-6.94526e-12 -4.89043e-11 0.957372

6.2316 -2.2936 -5.39512e-12
-2.2936 14.4738 -1.81113e-11
-5.39512e-12 -1.81113e-11 8.64714

8.34925 1.36229 -2.73456e-11
1.36229 14.2627 4.02576e-11
-2.73456e-11 4.02576e-11 8.66397

14.1106 -2.12156 -3.54479e-11
-2.12156 7.991 -3.81506e-11
-3.54479e-11 -3.81506e-11 9.10044

1.0003 6.75482 -1.44403e-11
6.75482 -0.196079 -3.13892e-11
-1.44403e-11 -3.13892e-11 0.0162912

10.2923 -1.6486 -3.35168e-11
-1.6486 17.6511 2.75501e-11
-3.35168e-11 2.75501e-11 12.0835

17.3464 -1.12897 -1.19519e-11
-1.12897 9.87962 -2.11867e-11
-1.19519e-11 -2.11867e-11 11.9363

0.92879 4.95434 -2.7906e-11
4.95434 -4.71896 -3.08154e-12
-2.7906e-11 -3.08154e-12 -1.66048

-2.88367 -7.2078 -4.12048e-11
-7.2078 -5.7852 -3.06732e-12
-4.12048e-11 -3.06732e-12 -2.84243

0.0509996 6.08671 -1.84928e-11
6.08671 -5.69569 -5.98806e-11
-1.84928e-11 -5.98806e-11 -2.24707

-3.65315 -7.05122 7.51214e-12
-7.05122 -4.57264 4.54332e-11
7.51214e-12 4.54332e-11 -3.28002

21.2146 2.59235 1.88879e-11
2.59235 21.4943 7.39823e-11
1.88879e-11 7.39823e-11 23.3126

21.2578 2.53427 5.98018e-12
2.53427 21.3914 -1.13684e-11
5.98018e-12 -1.13684e-11 23.1772

1.3662 5.42051 -3.1963e-11
5.42051 -0.748686 -1.50213e-11
-3.1963e-11 -1.50213e-11 -0.088855

-0.540666 -6.69416 4.23724e-11
-6.69416 -2.20194 6.9252e-12
4.23724e-11 6.9252e-12 -0.532855

-8.41062 -4.25766 5.29446e-11
-4.25766 -5.33385 5.48065e-12
5.29446e-11 5.48065e-12 -7.48261

-9.36843 -1.45915 1.73409e-12
-1.45915 -2.38639 2.15614e-11
1.73409e-12 2.15614e-11 -8.76088

-0.343067 6.1781 -1.88625e-11
6.1781 -4.09848 1.2323e-11
-1.88625e-11 1.2323e-11 -1.93839

-7.69961 -5.51519 -1.63613e-11
-5.51519 -2.11148 1.69449e-11
-1.63613e-11 1.69449e-11 -3.28066

0.784792 3.24902 -8.47677e-12
3.24902 -13.2704 5.20524e-12
-8.47677e-12 5.20524e-12 -4.48268

-0.634488 -5.02342 3.81174e-11
-5.02342 -10.6576 -2.73407e-11
3.81174e-11 -2.73407e-11 -5.63808

-6.64999 5.66759 -2.95587e-11
5.66759 -2.47699 -1.11712e-11
-2.95587e-11 -1.11712e-11 -1.9461

-4.65466 -6.58571 1.29941e-11
-6.58571 2.43403 4.27452e-11
1.29941e-11 4.27452e-11 -1.42221

-10.7382 -4.5772 -1.56678e-11
-4.5772 -9.56555 2.77235e-11
-1.56678e-11 2.77235e-11 -12.0062

-12.0045 -4.09067 -2.48378e-11
-4.09067 -2.27654 -3.98489e-11
-2.48378e-11 -3.98489e-11 -9.03495

-0.841298 4.58995 5.002e-12
4.58995 -14.5422 -2.3112e-11
5.002e-12 -2.3112e-11 -7.79055

-0.834765 1.49744 1.04097e-11
1.49744 -14.8749 2.15505e-11
1.04097e-11 2.15505e-11 -9.93845

-2.22308 -4.96387 -7.27747e-11
-4.96387 -9.32999 8.47333e-12
-7.27747e-11 8.47333e-12 -9.35744

-1.03268 -1.06082 -5.00433e-11
-1.06082 -8.89824 -3.08242e-12
-5.00433e-11 -3.08242e-12 -11.8541

-13.745 -1.14299 -7.31285e-12
-1.14299 0.209224 2.31093e-12
-7.31285e-12 2.31093e-12 -10.7082

-8.46659 8.43176 4.84475e-11
8.43176 -8.64373 2.04057e-11
4.84475e-11 2.04057e-11 -10.9539

0.427146 5.04133 1.40914e-10
5.04133 -12.628 2.84661e-11
1.40914e-10 2.84661e-11 -8.46562

-0.680794 4.17319 3.62611e-10
4.17319 -15.9754 -3.42318e-10
3.62611e-10 -3.42318e-10 -11.9266

1.88207 1.16079 6.63133e-10
1.16079 -1.33259 9.169e-10
6.63133e-10 9.169e-10 -13.6836

-8.88433 -5.85816 1.08963e-10
-5.85816 -3.8627 -1.19777e-10
1.08963e-10 -1.19777e-10 -12.6701

1.71873 3.82129 -1.11614e-11
3.82129 -11.79 1.90578e-11
-1.11614e-11 1.90578e-11 -6.83527

0.259208 3.06998 1.3864e-11
3.06998 -5.72656 5.0003e-12
1.3864e-11 5.0003e-12 -3.57528

-2.54104 4.94354 4.0788e-11
4.94354 -13.7503 -1.20105e-10
4.0788e-11 -1.20105e-10 -10.3689

-3.05269 -5.64018 -8.08577e-11
-5.64018 -8.33017 4.5452e-11
-8.08577e-11 4.5452e-11 -10.0799

-6.12986 -2.82712 3.50497e-12
-2.82712 -2.19022 2.65666e-10
3.50497e-12 2.65666e-10 -13.1052

-2.18609 -2.52622 1.19401e-11
-2.52622 -4.3071 3.8348e-13
1.19401e-11 3.8348e-13 -5.09264

-0.40639 4.98396 -1.30856e-11
4.98396 -9.70326 2.79101e-11
-1.30856e-11 2.79101e-11 -5.15968

-0.662366 2.92539 3.7352e-11
2.92539 -11.1401 -1.88767e-11
3.7352e-11 -1.88767e-11 -7.13976

-3.78341 -6.54264 -1.15474e-11
-6.54264 -6.43336 1.73247e-11
-1.15474e-11 1.73247e-11 -7.01524

-1.60204 -3.17503 -2.6914e-12
-3.17503 -7.92138 4.00448e-11
-2.6914e-12 4.00448e-11 -9.31177

VECTORS fluid_flux_TPM float
-0.000108491 -0.000325454 -3.63798e-20
-3.34862e-05 0.000267031 1.69772e-20
5.31395e-05 -0.000267209 -6.0633e-20
-0.000242535 -4.61339e-05 -4.24431e-20
-0.000304626 -8.03114e-05 4.85064e-21
-4.01285e-05 0.000344213 7.51849e-20
5.97857e-05 -0.000344489 -3.63798e-20
-0.000327277 8.21971e-05 -1.21266e-20
-0.000102451 0.00016502 2.06152e-20
-0.000172016 -0.000399687 2.66785e-20
-0.00016489 0.000427591 -3.88051e-20
0.000447446 0.00018222 -2.42532e-21
0.000236623 0.000229188 7.51849e-20
-0.000218045 -0.000228413 -2.54659e-20
-0.000107871 -0.0002258 -1.00651e-19
-3.33252e-05 -0.000214021 -1.06714e-19
3.46844e-05 0.00035193 1.30967e-19
-1.56285e-05 -0.000352113 -4.00178e-20
0.000309895 3.11309e-05 -3.27418e-20
-0.000129461 -0.00048228 1.21266e-20
-0.000130701 0.000493221 -2.18279e-20
0.000537503 0.000124092 -2.18279e-20
-0.000207953 -0.000215528 -4.12304e-20
-0.000335505 7.8578e-05 -2.06152e-20
-0.000238853 -0.000217141 -4.60811e-20
0.000143755 0.000317742 -7.51849e-20
-0.000230122 4.34297e-05 2.78912e-20
-0.000348523 -0.000726703 2.54659e-20
-0.000199804 -0.000101094 -8.48862e-21
0.000774363 0.000366367 6.0633e-22
-1.08489e-06 0.000329038 1.43094e-19
2.02815e-05 -0.000329133 2.06152e-20
-0.000755157 -0.000383694 -1.28542e-19
-0.000757797 0.000369209 9.70128e-21
-0.000492736 0.000161151 3.63798e-21
-0.000175087 -0.000141706 -5.94203e-20
-0.000306568 -0.00015427 -9.45875e-20
-0.000321002 0.000157026 -4.36557e-20
-5.31068e-05 -0.000107574 -9.45875e-20
0.000216411 0.000220911 -8.24609e-20
-0.000315591 0.000210966 -4.85064e-21
-9.29282e-05 1.51497e-06 4.85064e-21
-0.00020412 0.000223036 -2.91038e-20
-0.000110206 0.00032387 -6.0633e-21
5.0128e-05 0.000213991 -9.70128e-20
-0.000319647 0.000210616 -5.57823e-20
-0.00079133 -0.00079133 2.18279e-20
0.000819735 0.000819735 -3.63798e-21
7.25825e-05 0.000167076 9.09495e-20
0.00082268 0.00086958 3.03165e-21
-0.000840272 -0.000793686 1.69772e-20
0.000379187 -3.91965e-05 1.46732e-19
0.000378911 3.89822e-05 -1.22479e-19
0.000266644 4.71479e-05 -4.36557e-20
0.000361304 -0.000164975 1.18841e-19
0.000360995 0.000164994 -1.30967e-19
0.000136143 0.000222189 -1.28542e-19
-0.000317785 -0.000595713 -8.24609e-20
-0.000318743 0.000598078 2.18279e-20
0.000289194 -0.00011041 4.72937e-20
0.000288739 0.000109765 -9.33748e-20
-0.000433102 0.000189512 3.03165e-20
-0.000344483 0.000543638 -2.91038e-20
0.000366396 -0.000548109 7.76102e-20
0.00021129 -0.000218161 -9.70128e-21
-0.000382962 0.000734099 1.21266e-21
-0.000734001 0.000388862 3.09228e-20
4.27638e-05 0.000212426 -4.85064e-20
-2.41287e-05 -0.000211869 -7.39722e-20
0.00064336 -0.000266488 1.28542e-19
0.000643546 0.000266565 -1.77048e-19
4.58071e-05 -6.75261e-05 -5.6995e-20
0.000294292 0.000101571 -5.82077e-20
0.000294925 -0.000101716 1.69772e-20
-0.000154905 -0.000106534 -4.00178e-20
-5.37785e-05 -0.000164276 1.94026e-20
-0.000455477 -9.71806e-05 1.33393e-20
-0.000393062 -5.7524e-05 -4.60811e-20
-0.000286643 -0.000242144 -9.21621e-20
-0.000335095 0.000580383 4.36557e-20
-0.000334285 -0.000578974 -6.54836e-20
-0.000345629 -0.000387651 -6.0633e-21
-0.00025324 0.000149616 6.0633e-21
0.000305199 0.000110828 -8.24609e-20
-5.22656e-05 0.000614722 -2.00618e-36
6.68498e-05 -0.000620958 -5.57823e-20
-0.000296571 0.00026661 -2.54659e-20
3.06844e-05 0.00028355 7.03343e-20
-1.04016e-05 -0.000283507 -1.57646e-20
0.000259463 -4.32434e-05 2.42532e-20
0.000256726 4.04474e-05 -7.51849e-20
0.000457157 -0.00031409 2.06152e-20
0.000368256 6.03686e-05 -4.48684e-20
0.000274146 -0.000136628 4.00178e-20
0.000272719 0.000136878 -1.40669e-19
0.000308872 -0.000113064 3.27418e-20
0.000135567 -0.000315645 1.45519e-20
0.000247072 -0.000108209 4.85064e-20
0.000243325 0.000105878 -5.94203e-20
-0.000265631 0.000121338 5.45697e-20
0.000150908 9.31134e-05 -9.94381e-20
-0.000318333 -0.000222256 -4.24431e-20
-0.000113485 2.69117e-05 -7.15469e-20
-2.91138e-05 6.4672e-05 -4.60811e-20
0.000380531 5.38833e-05 3.63798e-21
-0.000259913 0.000156315 8.48862e-21
-0.000274225 -0.000127788 -6.0633e-20
-0.00021027 -0.000263319 -1.09139e-20
-0.000242925 -0.000162841 -4.00178e-20
5.45703e-06 -0.000291748 -3.39545e-20
1.47229e-05 0.000291843 4.12304e-20
0.000451974 -0.000178248 -7.27596e-21
-0.000154577 0.000105665 -4.24431e-20
0.000227779 -0.000321868 6.4271e-20
0.000228875 0.000324853 -3.88051e-20
-0.000252729 0.000149644 4.24431e-20
-0.000100034 0.000162643 2.18279e-20
-0.000102352 -0.000168639 -1.33393e-19
-5.51691e-05 -0.000302787 1.09139e-20
-0.000236668 0.000227428 6.0633e-21
4.93772e-05 -0.000424289 -3.88051e-20
7.09331e-05 0.00043461 6.0633e-21
0.000480489 -2.29225e-05 -3.51671e-20
0.000468366 0.000312053 -2.42532e-21
0.000323885 -0.000188337 8.48862e-21
0.000423799 -0.000734159 9.70128e-20
-0.00042272 0.000732182 3.39545e-20
0.000370664 -6.60469e-05 3.27418e-20
6.51581e-05 0.000164138 -1.45519e-19
0.000270079 -5.11488e-05 -4.85064e-21
-5.19476e-05 0.000306932 -6.0633e-21
-7.85338e-05 0.000171783 1.21266e-20
9.3604e-05 -0.000171137 -4.48684e-20
0.000154049 -9.59069e-05 -6.0633e-21
0.000115367 -3.45463e-05 -8.60988e-20
-4.69543e-05 -0.000164951 -8.85242e-20
0.000200597 1.88184e-06 1.57646e-20
0.000317813 0.000203305 -2.18279e-20
-0.000107791 -3.45143e-05 -4.48684e-20
0.000318213 0.000207553 -6.79089e-20
-0.000334929 0.000416436 -5.57823e-20
-0.000174083 0.000135107 -5.94203e-20
0.000131913 -0.000471286 -4.48684e-20
0.000138931 0.000471129 -1.94026e-20
0.000524317 -0.000120253 -1.69772e-20
0.000324852 -0.000215367 1.69772e-20
1.23091e-05 0.000340281 -3.63798e-21
7.8492e-06 -0.000339797 1.57646e-20
0.000257709 -0.000431643 -6.0633e-21
0.000253667 0.000413627 -4.85064e-21
0.000164055 -5.84001e-05 5.45697e-20
0.000164695 5.63295e-05 -4.60811e-20
0.000181221 0.000113364 -1.44306e-19
0.000109334 0.000153952 3.15291e-20
-0.00024339 -0.000146835 -3.51671e-20
-0.000486495 -0.0003837 1.39456e-20
7.64878e-05 0.000314588 -4.85064e-21
0.000323679 0.000108897 -1.43094e-19
0.000324306 -0.000109374 6.54836e-20
0.000293751 -0.000115116 1.81899e-20
0.000293199 0.000114385 -1.33393e-19
-0.000148413 -0.0014341 3.57735e-20
0.00147269 0.000226634 1.87962e-20
7.65054e-05 -0.00030723 3.03165e-20
0.000445042 -0.000294895 9.70128e-20
0.000444809 0.000295587 -2.37681e-19
0.000300061 0.000156848 -5.21444e-20
-0.000607513 -3.8657e-05 2.66785e-20
0.000368778 -6.71473e-05 -8.48862e-21
-1.28172e-05 0.0002617 4.36557e-20
3.19951e-05 -0.000262895 1.21266e-20
-0.000216719 0.00032642 -4.00178e-20
0.000109272 3.55748e-05 -1.09139e-20
0.000301312 -0.000157644 7.27596e-21
-4.48742e-05 -7.80912e-05 -9.33748e-20
-0.000220396 0.000181066 9.21621e-20
0.000240706 -0.00018077 -4.12304e-20
0.000180234 -0.000111419 0
-0.000178 -0.000121362 -9.82254e-20
-0.000313163 -0.000201667 -6.18456e-20
5.15924e-05 7.19943e-05 -1.03076e-19
-0.000102736 0.000220706 4.00178e-20
-5.39296e-05 -0.00030629 -1.81899e-20
0.000256903 0.000119651 -6.0633e-20
7.87908e-05 0.00030898 -2.42532e-21
-9.60765e-05 -0.000149457 1.21266e-21
-0.000385529 0.000705203 -4.24431e-21
-0.000692073 0.000393 -6.66963e-21
0.000257673 -0.000120329 4.12304e-20
0.000311851 -3.61809e-05 1.21266e-21
0.000651606 0.000285971 -1.74623e-19
0.000651309 -0.000285628 1.26117e-19
6.54695e-05 -0.000167458 -3.51671e-20
-0.000428305 -0.000309882 -1.21266e-19
-0.000438127 0.000302244 -3.88051e-20
-0.000182627 -8.10107e-05 2.06152e-20
-3.83585e-05 6.74063e-05 -2.18279e-20
0.000416276 0.000509507 -4.24431e-21
-0.000465078 -0.000382702 4.24431e-20
0.00041418 -0.000568096 2.06152e-20
0.000420876 0.000574945 9.70128e-21
0.000641613 -0.000353551 -4.85064e-21
5.08023e-05 -5.98951e-05 -3.63798e-21
-4.24624e-05 -0.000633722 3.51671e-20
0.000679733 4.93536e-05 7.27596e-21
0.00034916 0.000459505 1.11565e-19
-0.000329578 -0.000456635 -2.42532e-20
-0.000210973 -0.000170071 -6.0633e-20
-9.11769e-05 3.63226e-06 -5.21444e-20
0.000244874 -0.000336286 -2.66785e-20
0.000246371 0.000341678 -3.88051e-20
-0.000208614 6.08522e-05 3.63798e-20
0.000128791 -0.000216873 4.85064e-21
0.000341214 -0.000172529 4.60811e-20
0.00034051 0.000172665 -1.5522e-19
-0.000254804 -0.000136623 -6.91216e-20
-0.000177438 0.000119377 -1.57646e-20
-0.000203777 -9.6407e-05 -7.27596e-20
-0.000388405 -0.000218371 -2.54659e-20
-4.79503e-05 0.000177394 -4.85064e-21
-0.000811321 0.000811321 1.21266e-21
-4.9269e-05 0.000313974 2.91038e-20
7.20199e-05 -0.000317196 4.48684e-20
6.94668e-05 -0.000617565 7.27596e-20
-5.02633e-05 0.000617318 1.916e-19
0.00019371 -9.71444e-05 6.4271e-20
0.000193533 9.39252e-05 -9.82254e-20
-0.000303886 0.000161909 -1.07927e-19
-0.000300493 -0.000156748 -1.06714e-19
-0.000532034 -9.7079e-05 -7.76102e-20
-0.000523601 9.91167e-05 -1.26117e-19
0.000616841 0.000288006 -2.30405e-19
0.000616819 -0.000287647 2.37681e-19
0.000195888 1.81165e-05 -8.48862e-21
0.000196196 -1.69301e-05 -4.12304e-20
0.000311677 0.000109842 -6.66963e-20
-1.04283e-05 0.000278136 3.51671e-20
3.04333e-05 -0.000272011 2.78912e-20
-0.000440964 0.000305528 -4.9719e-20
0.000310683 -0.00011278 2.06152e-20
-2.56581e-05 -0.000292867 -5.57823e-20
0.000266335 0.000161508 -4.85064e-20
-0.000195304 -6.08206e-06 -2.66785e-20
-0.000193054 1.53862e-06 -4.9719e-20
0.000265653 -0.000163874 2.54659e-20
-0.000200954 0.000177093 3.75924e-20
0.000347167 0.000601392 5.09317e-20
-0.000341478 -0.000591453 -7.03343e-20
-5.27755e-05 -0.00020505 1.21266e-20
-0.000256112 -0.000154227 -9.45875e-20
-2.87045e-05 -0.000342607 -1.38243e-19
0.000431979 -0.000737308 4.69906e-20
0.000744973 -0.000349079 5.6995e-20
0.000163311 -0.00013489 4.60811e-20
0.000161121 0.000132054 -1.18841e-19
-4.28756e-05 0.000358893 -1.57646e-20
4.34412e-05 0.000282636 8.48862e-21
0.000384299 0.00016402 -6.0633e-21
0.000294633 -6.67664e-05 1.00651e-19
0.000294307 6.54662e-05 -7.15469e-20
-0.000694064 -5.27885e-09 -4.85064e-21
-0.000694253 3.09552e-09 -1.98876e-19
6.7336e-05 -0.000156625 3.27418e-20
-0.00026308 -0.00015996 -8.36735e-20
0.000272052 0.000163917 -1.28542e-19
0.000273531 -0.000163988 4.85064e-21
7.49334e-05 0.000200696 5.21444e-20
3.3829e-05 5.52783e-05 1.81899e-20
0.000808233 -0.000808233 2.84975e-20
-0.000228155 7.2234e-05 -3.63798e-21
-0.000230412 -7.73428e-05 -6.0633e-20
-5.06264e-05 0.000160567 1.94026e-20
0.000377163 -0.000166684 5.09317e-20
-0.000258542 0.000131825 -8.36735e-20
-0.000333675 -4.47231e-05 -6.30583e-20
-0.000335242 4.37302e-05 -7.15469e-20
-0.000200754 9.64922e-05 4.00178e-20
0.000191796 0.000284566 -1.81899e-19
0.000193266 -0.000283827 2.42532e-20
0.00014334 0.000808388 1.09139e-19
-0.000127883 -0.000808396 9.70128e-21
-7.28782e-05 0.0014626 -6.0633e-21
-0.00142882 7.48238e-05 -1.21266e-21
0.000221199 -1.57573e-05 1.21266e-21
0.000222388 1.32693e-05 -4.00178e-20
-9.59286e-06 -5.14223e-05 6.0633e-21
0.000793517 -0.000965073 4.42621e-20
0.00100927 -0.000776958 5.36602e-20
0.000264022 -0.000637462 5.82077e-20
0.000264207 0.000637907 1.21266e-20
-0.000242965 0.000145113 -7.39722e-20
0.000232097 -0.000221247 3.03165e-20
0.000235649 -9.74624e-05 6.30583e-20
0.000235371 9.61111e-05 -6.0633e-20
0.000174965 -0.000145434 2.66785e-20
0.000230422 0.000223373 -8.73115e-20
1.57103e-06 -0.00067985 -3.51671e-20
2.65225e-05 0.000625822 9.70128e-21
0.000725885 6.01257e-06 -2.18279e-20
0.000175606 0.000143925 -5.94203e-20
7.99894e-05 0.000689574 -8.48862e-21
-0.000673964 -9.09346e-05 2.30405e-20
0.000294823 -3.13646e-05 4.24431e-20
0.000296101 2.751e-05 -6.66963e-20
0.000287092 -5.77445e-05 1.00651e-19
0.000287476 5.73973e-05 -7.51849e-20
-0.000797963 0.00098764 1.81899e-21
-0.000979436 0.000797892 -1.51582e-20
0.000257752 0.000112171 -6.30583e-20
0.000258387 -0.000113579 7.51849e-20
8.9651e-05 0.000474602 1.33393e-19
-7.36775e-05 -0.000471537 -2.91038e-20
0.000222093 9.30609e-05 0
0.000220414 -9.2504e-05 -3.75924e-20
0.000337752 -0.000204082 -9.70128e-21
0.000337009 0.000204419 -1.5522e-19
-0.000197331 -4.88985e-05 -3.39545e-20
-0.000193305 4.58412e-05 -9.70128e-20
-0.000314975 -0.000598333 -4.85064e-20
0.000310391 -0.000371073 2.18279e-20
0.000372135 -0.00031394 4.60811e-20
0.000309724 0.00037241 -1.23691e-19
0.000372269 0.000314535 -1.77048e-19
0.00033418 0.000604762 6.79089e-20
-0.000689741 1.10756e-05 -8.00355e-20
-0.000689048 -1.29589e-05 -1.72198e-19
0.000500502 0.000207327 1.35818e-19
0.00120386 0.000158472 1.74623e-19
0.00120421 -0.000158518 -3.46821e-19
0.000500378 -0.000207276 1.23691e-19
0.000628258 1.36604e-05 1.81899e-19
0.000445033 0.000134984 1.38243e-19
0.000589485 -0.000165823 1.67347e-19
0.000628226 -1.347e-05 -9.70128e-20
0.000589461 0.000165974 -1.5522e-19
0.000445068 -0.000134749 -6.18456e-20
0.000466788 -0.000131869 1.33393e-19
0.000463896 -0.00013277 1.8675e-19
0.000466812 0.000131971 -1.80686e-19
0.000463724 0.000132933 -2.2798e-19
-4.30266e-05 0.000272329 -9.70128e-21
-4.57865e-05 -0.00027369 4.28069e-19
-0.000245467 4.48359e-05 8.97368e-20
-0.000313673 8.15989e-05 1.81899e-20
-5.00311e-05 0.000353765 1.33393e-20
-5.2741e-05 -0.00035455 1.74623e-19
-0.000313898 -8.06465e-05 4.24431e-20
-0.000105297 -0.000165088 2.74061e-19
-0.000176207 -0.000397012 2.34043e-19
0.000180833 0.000409049 -7.51849e-20
0.000415177 0.000188833 2.30405e-20
0.00022951 -0.000238446 4.25644e-19
0.000235077 0.000235071 8.97368e-20
-0.000252162 0.000150746 1.7341e-19
2.63132e-05 -0.000361936 3.34694e-19
2.87048e-05 0.000360646 5.94203e-20
0.000256208 4.00732e-05 -3.15291e-20
-0.000132324 -0.00048152 1.75836e-19
0.000130371 0.000486289 -1.3218e-19
0.00050353 0.000134548 2.91038e-20
0.000120904 0.000326027 -2.54659e-20
0.000124956 -0.000321194 1.28542e-19
-0.000230876 -4.72124e-05 1.52795e-19
-0.000344695 -0.000716379 2.18279e-19
-0.000203962 0.000102618 1.97664e-19
-7.73711e-06 0.000337324 4.36557e-20
-1.07378e-05 -0.000338226 8.85242e-20
-0.00076136 -0.000368197 3.17717e-19
-0.000758062 0.000381807 9.70128e-20
-0.000164813 0.000222813 2.17066e-19
-0.000199211 0.000235894 1.79474e-19
-0.000460041 0.000148518 -1.16415e-19
-0.000324802 -0.000156505 1.33393e-19
-0.000310809 0.000152372 1.916e-19
-5.32847e-05 0.000109276 2.14641e-19
0.000193298 -0.000230104 1.11565e-19
-9.5866e-05 -3.26267e-06 2.43745e-19
-0.00033095 0.000216174 9.21621e-20
-0.000217573 -0.000220177 1.34605e-19
-0.000382206 -5.98731e-05 -2.06152e-20
-0.000348645 7.01387e-05 2.42532e-21
-0.000119883 -0.000325807 7.03343e-20
3.51022e-05 -0.000222065 2.89826e-19
3.79293e-05 0.000220575 -1.21266e-20
-0.000108248 0.000327767 1.27329e-19
0.000200113 0.000232793 5.09317e-20
-0.000774491 -0.000774391 4.12304e-20
-0.000762603 0.000762636 -1.89781e-19
6.83521e-05 -0.000177419 3.37119e-19
6.85705e-05 0.000171981 2.06152e-20
0.000116956 0.000230288 -2.42532e-21
-0.000764838 0.000832289 -4.14123e-19
-0.000806763 -0.000775948 -9.03431e-20
0.000397126 -7.26529e-05 2.40107e-19
0.000393752 7.87297e-05 1.3218e-19
0.0001869 6.57505e-05 2.06152e-20
0.000372039 -0.000249052 1.916e-19
0.000369268 0.000251059 1.6856e-19
0.000117664 -0.000229772 1.44306e-19
-0.000322295 -0.000595279 3.15291e-19
-0.000322065 0.000590716 -4.85064e-21
0.000273156 -0.000157106 1.6856e-19
0.000273278 0.00015969 1.72198e-19
-0.00036012 -0.000558657 1.33393e-20
-0.000358957 0.000558749 -1.22479e-19
0.00037535 0.00070847 -1.37637e-19
0.000711373 0.000375662 -4.48684e-20
3.11704e-05 0.000219156 -2.54659e-20
2.83184e-05 -0.000220623 3.50459e-19
0.000778381 -0.000322353 3.95327e-19
0.000769706 0.000318825 -2.66785e-20
-0.000316336 -0.000220379 1.62496e-19
0.000258943 0.000142255 1.05501e-19
0.000259025 -0.000139436 8.24609e-20
-0.000290425 0.000242272 5.45697e-20
-0.00044371 -0.000100237 -1.10352e-19
-0.000334022 0.000578584 1.8675e-19
-0.000335502 -0.000580984 1.45519e-19
-0.000249581 -0.00015414 1.3218e-19
0.000250587 0.000135163 4.9719e-20
-0.000354648 -0.000385732 1.22479e-19
-6.10828e-05 -0.000631373 -1.45519e-20
-5.86509e-05 0.000631786 -8.00355e-20
-0.000300394 -0.000265983 2.99527e-19
2.44526e-05 0.000289036 2.66785e-20
2.20311e-05 -0.000288716 3.11654e-19
0.0001863 -6.54071e-05 2.91038e-20
0.000183082 6.31712e-05 5.09317e-20
0.000418693 -0.000319482 2.06152e-20
0.000315097 6.96328e-05 -1.81899e-20
0.000224221 0.000212341 1.05501e-19
0.000226133 -0.000210592 8.60988e-20
0.000254703 -0.000135918 6.4271e-20
0.000169873 -0.000151529 6.30583e-20
0.00016527 0.000150173 1.03076e-19
-0.00027036 -0.000120671 2.15853e-19
-0.000283833 0.000223542 4.48684e-20
0.00014307 0.0001099 -7.15469e-20
0.000138697 -0.000106575 2.25555e-19
-4.35149e-05 -7.39461e-05 2.54659e-19
-4.0883e-05 7.23018e-05 -7.39722e-20
0.000337962 5.75705e-05 1.69772e-20
-0.000476699 0.000464628 -2.5769e-19
-0.000263257 -0.00015718 1.52795e-19
-0.000272235 0.000129046 1.61284e-19
-0.000648225 0.000106087 -2.05546e-19
-0.000252343 0.000154027 1.90388e-19
2.81154e-06 -0.000298702 3.63798e-19
7.05962e-06 0.000298074 -3.15291e-20
-0.000222359 -0.00026648 1.12777e-19
0.000413273 -0.000177399 -7.76102e-20
-0.000157074 -0.000107844 1.26117e-19
-0.000157447 0.00011666 2.13428e-19
0.00020484 -0.000325887 9.58001e-20
-0.00021574 0.000348502 1.18841e-19
-0.000259168 -0.000153396 9.09495e-20
-0.000104551 -0.000164355 3.01952e-19
-0.000106859 0.000175704 1.30967e-19
6.10806e-05 0.000313658 -3.88051e-20
-0.00023573 -0.000223823 9.94381e-20
3.64831e-05 -0.000422615 1.8675e-19
-5.51109e-05 0.000435361 -1.15203e-19
0.000441115 -4.68707e-05 -7.76102e-20
0.000289114 -0.000196897 4.36557e-20
-0.000433295 0.000750597 -1.47944e-19
-0.000432475 -0.000749152 1.72198e-19
-0.000310776 -0.000187063 7.27596e-20
0.000326381 -7.05278e-05 5.09317e-20
-0.000493226 -0.000391118 1.62496e-19
4.95643e-05 -0.000174086 1.85537e-19
5.14669e-05 0.000176377 -5.21444e-20
0.00019162 -6.93694e-05 1.81899e-20
-6.27886e-05 -0.000306408 1.00651e-19
-9.2973e-05 -0.000181165 2.58297e-19
-9.03205e-05 0.000179468 -4.36557e-20
0.000293246 0.000412634 6.91216e-20
0.000435207 0.000293631 7.39722e-20
-0.000621839 -2.78425e-05 -3.09228e-20
0.000106862 -2.04556e-05 -5.6995e-20
0.000101992 2.5266e-05 2.32831e-19
8.87521e-05 5.46025e-06 1.09139e-20
-0.000110927 3.04816e-05 1.85537e-19
-0.00010225 -2.95219e-05 1.46732e-19
-0.000179883 -0.000134776 4.48684e-20
0.000120189 -0.000467574 8.73115e-20
-0.000110023 0.000466631 6.18456e-20
0.000477607 -0.000123886 1.57646e-20
0.000290508 -0.000221549 7.63976e-20
4.96488e-06 0.00034021 -4.48684e-20
6.50756e-07 -0.000342069 2.4617e-19
-0.000222896 0.000446182 -4.00178e-20
0.000232069 -0.000419764 -5.82077e-20
3.37045e-05 8.89573e-05 6.66963e-20
3.08241e-05 -9.01006e-05 -2.54659e-20
0.000164495 -0.000123811 2.44957e-19
0.000167985 0.000126565 -2.30405e-20
0.000112012 -0.000161831 3.38332e-19
0.00010707 0.000158583 -3.63798e-21
-0.000242493 0.000148402 2.06152e-19
6.05927e-05 -0.000318173 1.46732e-19
0.000307907 0.000158828 1.8675e-19
0.000310137 -0.000156017 1.56433e-19
0.00026773 -0.000173172 7.76102e-20
0.000258779 -0.000142247 1.06714e-19
0.000258741 0.000144631 1.70985e-19
-0.000150619 -0.00139833 1.9827e-19
0.000206897 0.000322396 1.57646e-19
-0.00144074 0.000169004 -6.91216e-20
-5.32413e-05 0.000320302 2.42532e-20
0.000495999 -0.000448128 1.8675e-19
0.000490584 0.000447741 1.43094e-19
0.000269854 0.000175658 1.41881e-19
0.000315687 -7.67674e-05 1.21266e-20
0.00029428 0.000205107 1.49157e-19
-2.00637e-05 -0.000267573 2.60722e-19
-1.83067e-05 0.00026758 6.79089e-20
-0.000232356 0.000188769 -6.0633e-21
-0.000234138 -0.00019041 9.94381e-20
4.65279e-05 8.02111e-05 -5.94203e-20
3.8171e-05 -8.13569e-05 2.99527e-19
-0.000109284 -0.000222668 2.25555e-19
6.28156e-05 0.000308858 -6.30583e-20
0.000235782 -0.000145577 1.04289e-19
0.000237448 0.000147721 1.44306e-19
0.000295603 0.000224598 1.81899e-19
-0.000103387 0.00022485 8.48862e-20
6.27939e-05 -0.000312813 1.46732e-19
0.000377927 0.000684764 -1.86143e-19
0.000694647 0.000377232 6.0633e-21
-0.000431134 0.000322658 -9.94381e-20
0.000258208 -4.55025e-05 4.00178e-20
0.000806779 -0.000390711 4.24431e-19
0.000799162 0.000389735 -4.85064e-21
-0.000441509 -0.000301211 4.12304e-20
-0.000432834 0.00030836 1.01863e-19
-0.000183386 7.85616e-05 1.63709e-19
-4.29097e-05 6.99328e-05 2.06152e-20
-4.33602e-05 -6.87016e-05 2.40107e-19
-0.000362908 0.00048474 -2.29799e-19
-0.000455782 -0.000389629 5.8814e-20
0.000390611 -0.000558031 -6.0633e-21
-0.000354808 0.000580136 -1.6856e-19
0.000584761 -0.000340671 -1.54008e-19
-0.000398146 -0.000215293 5.3357e-20
-4.82135e-05 -0.000625197 1.21266e-19
-0.00059208 5.41542e-06 -1.87356e-19
0.000342774 -0.000470292 3.27418e-19
0.000349921 0.000470092 1.23691e-19
-0.000212308 0.00016787 1.72198e-19
-9.29991e-05 -6.72872e-06 3.21355e-19
-0.000210997 0.000344965 8.12482e-20
0.000223157 -0.000343508 1.81899e-20
-0.000211532 -6.25797e-05 1.84324e-19
0.000337957 -0.000261864 1.61284e-19
0.000334676 0.000264015 1.30967e-19
-0.000260002 0.000136607 2.57084e-19
-0.000182725 -0.000123231 5.09317e-20
-0.000161634 0.000118631 1.43094e-19
-0.000208736 9.69851e-05 1.22479e-19
-5.31666e-05 -0.000180623 1.85537e-19
-4.75239e-05 0.000193746 6.54836e-20
0.000802066 0.000802027 -1.54008e-19
-5.89015e-05 -0.000316628 9.21621e-20
-5.35683e-05 0.000319595 0
-6.08057e-05 -0.000631732 -9.70128e-20
-5.80825e-05 0.000632523 3.63798e-20
8.96646e-05 -0.000166987 -1.07927e-19
9.06552e-05 0.000163199 1.33393e-19
-0.000307132 -0.000161547 2.02514e-19
-0.000301907 0.000156002 3.03165e-19
-0.000535661 9.90911e-05 5.57823e-20
-0.000527655 -9.86395e-05 3.58947e-19
0.000708907 0.000395022 1.94026e-19
0.000718954 -0.000395853 3.61373e-19
0.000191218 -2.07892e-06 -3.27418e-20
0.000184868 7.19801e-06 1.916e-19
0.000279672 0.000130705 6.18456e-20
-1.83696e-05 -0.000279231 2.19491e-19
0.00024031 -0.000178095 7.88229e-20
-1.61369e-05 0.000282042 6.66963e-20
0.000276102 -0.000132555 1.11565e-19
3.23522e-05 0.000290638 -2.18279e-20
0.000242633 0.000180805 1.37031e-19
-0.000194 3.47992e-06 1.44306e-19
-0.000199846 -4.23864e-06 1.81899e-19
-0.000206304 -0.000177903 2.15853e-19
0.000351306 -0.000608645 3.66223e-19
0.000353478 0.00061229 7.51849e-20
-0.000258936 0.000151436 1.64922e-19
-3.68731e-05 0.000341042 -5.3357e-20
0.00040745 -0.000717838 -1.00954e-19
0.000707228 -0.000336012 -2.42532e-19
5.6693e-05 -0.000207927 -2.42532e-21
5.50984e-05 0.000205035 5.3357e-20
-4.82442e-05 -0.000357731 2.52233e-19
2.89674e-05 -0.000287605 3.01952e-19
0.000341547 0.000179329 1.09139e-19
0.000281611 -8.97806e-05 2.38894e-19
0.000281511 9.41413e-05 1.49157e-19
-0.000697814 -3.15097e-08 2.95889e-19
-0.000697469 8.07667e-08 2.54659e-19
-0.000260769 0.000152859 1.64922e-19
0.000223319 0.000248988 8.24609e-20
0.000225309 -0.000247254 1.40669e-19
7.12043e-05 0.000205062 8.97368e-20
7.02635e-05 -0.000204783 3.11654e-19
3.11768e-05 -5.61784e-05 2.53446e-19
3.4849e-05 6.08111e-05 -2.91038e-20
0.000777557 -0.000777616 -2.25252e-19
-0.000231297 7.91962e-05 1.1399e-19
-0.000232308 -7.17761e-05 3.14079e-19
-5.57277e-05 -0.000164515 2.25555e-19
-5.2677e-05 0.000167412 4.9719e-20
0.00033339 -0.000179094 1.12777e-19
-0.000261424 -0.000131375 1.26117e-19
-0.000337872 -4.38846e-05 1.05501e-19
-0.000335998 5.59047e-05 4.31707e-19
-0.000204659 -9.58164e-05 1.77048e-19
0.000103429 -0.000440288 6.54836e-20
0.000102387 0.000440049 6.0633e-20
0.000141182 0.000827909 5.57823e-20
0.000137404 -0.000825862 3.54097e-19
6.47719e-05 0.00138888 -4.94765e-19
0.0014 9.71316e-05 -5.8814e-20
0.000212531 3.22872e-05 1.21266e-21
0.000210205 -2.67001e-05 2.00089e-19
0.000758596 -0.000945037 2.36469e-20
0.000923101 -0.000755168 -2.55265e-19
0.000338259 -0.000816332 5.45697e-19
0.000335906 0.000810657 1.16415e-19
-0.000246101 -0.000144663 2.30405e-20
0.000226701 0.000122645 6.30583e-20
0.000224726 -0.000119375 2.20704e-19
0.000210918 0.00023468 1.10352e-19
0.000208595 -0.000232789 1.33393e-19
-8.98977e-06 -0.000666078 2.78912e-19
-1.61025e-05 0.000614351 -1.30967e-19
0.000637509 -1.98454e-05 -6.30583e-20
0.000161126 0.000161751 3.03165e-20
0.000157931 -0.000159529 1.15203e-19
-6.66701e-05 0.000679569 -3.20142e-19
0.000671413 -4.89795e-05 -1.63709e-20
0.000300714 -4.41881e-05 2.19491e-19
0.000301385 4.94536e-05 5.6995e-20
0.000286045 -9.50192e-05 2.8255e-19
0.000286717 0.000100291 1.18841e-19
0.000786726 0.000967828 -4.4444e-19
0.000972152 0.00078748 -6.36646e-20
0.000239295 0.000131682 6.91216e-20
0.000237723 -0.0001287 1.30967e-19
8.2647e-05 -0.000485418 2.49808e-19
8.60861e-05 0.000485453 1.04289e-19
0.00021299 9.49352e-05 1.54008e-19
0.000217391 -8.37467e-05 2.18279e-20
0.000332234 -0.000314017 1.40669e-19
0.000329068 0.00031492 3.63798e-20
-0.000197169 -4.59227e-05 1.04289e-19
-0.000210386 5.14034e-05 2.37681e-19
0.000307508 0.000592832 1.57646e-19
0.000453933 0.000457317 1.89175e-19
0.00031048 -0.000594528 3.88051e-20
0.000457969 -0.00045806 1.5037e-19
0.000327862 -0.000614728 3.51671e-19
-0.000694087 -9.58224e-06 4.26856e-19
-0.000692316 1.29148e-05 2.32831e-19
0.000334761 0.000617149 1.26117e-19
0.000551062 -0.000228293 -1.21266e-21
0.00144017 -0.000189541 1.1399e-19
0.00145648 0.000191701 -2.42532e-20
0.000564993 0.000233963 -8.97368e-20
0.00071249 1.63773e-05 7.76102e-20
0.000485185 -0.000134117 5.94203e-20
0.000669061 0.000217504 7.76102e-20
0.000724655 -8.12776e-06 1.21266e-19
0.00067918 -0.000218536 2.23129e-19
0.000490336 0.000147063 1.75836e-19
0.00051871 -0.000201291 2.04939e-19
0.000524937 -0.000199352 2.40107e-19
0.000512837 0.000204694 1.5522e-19
0.00051905 0.000202758 1.52795e-19
-0.000115049 -0.000324785 -2.8255e-19
-4.6277e-05 0.000272423 3.15291e-20
4.47993e-05 -0.000272944 -1.95238e-19
-0.000245692 -4.53904e-05 -8.73115e-20
-0.000306996 -7.9134e-05 -8.48862e-20
-5.32218e-05 0.000353144 7.03343e-20
5.17994e-05 -0.000354361 -1.30967e-19
-0.000329512 8.24034e-05 -9.94381e-20
-0.000105631 0.000165505 1.69772e-20
-0.000178877 -0.000397996 -1.70985e-19
-0.000173059 0.000421471 -2.06152e-19
0.000414192 -0.0001794 6.18456e-20
0.000228844 0.000237862 -1.17628e-19
-0.000231883 -0.000237636 8.36735e-20
-0.000114453 -0.000229031 -2.66785e-19
-3.71767e-05 -0.000219279 -3.29843e-19
2.58445e-05 0.000361237 2.42532e-20
-2.76242e-05 -0.000362462 2.30405e-20
0.000257421 3.77374e-05 4.85064e-21
-0.000137814 -0.0004777 -1.33393e-19
-0.000138758 0.000487321 -1.22479e-19
0.000490471 -0.000130254 4.85064e-20
-0.000213754 -0.000215693 -2.54659e-19
-0.000337388 7.89392e-05 -2.12215e-19
-0.000243036 -0.000217222 -2.78912e-19
0.000124808 0.000320246 4.48684e-20
-0.000232777 4.38047e-05 -8.12482e-20
-0.000357472 -0.000728893 -2.44957e-19
-0.000202886 -0.000101807 -2.31618e-19
0.000730406 -0.000359108 4.91127e-20
-1.18953e-05 0.000337083 9.45875e-20
1.02678e-05 -0.000338215 4.00178e-20
-0.000759875 0.000367644 1.45519e-20
-0.00075799 -0.000381434 1.69772e-20
-0.000493265 0.000160802 -7.27596e-21
-0.000179113 -0.000141594 -2.4617e-19
-0.000323974 0.000156204 -1.45519e-20
-0.000310866 -0.000153058 -3.12866e-19
-5.31502e-05 -0.000108429 -2.6436e-19
0.00019218 0.000230446 9.94381e-20
-0.000317707 0.000209765 -2.14641e-19
-9.61396e-05 2.5871e-06 -1.22479e-19
-0.000208916 0.000222379 -2.12215e-19
-0.00011624 0.000321887 -2.18279e-19
3.63965e-05 0.00022065 1.09139e-20
-0.000321817 0.00020941 -1.21266e-19
-0.000769862 -0.000769865 -1.37637e-19
0.000779452 -0.000779527 -4.06241e-20
6.80842e-05 0.000176986 -7.03343e-20
0.000782278 -0.000827938 1.437e-19
-0.000839838 -0.000773245 -2.75274e-19
0.000395903 -7.6507e-05 -2.42532e-21
0.000395082 7.69605e-05 7.15469e-20
0.000183491 6.43798e-05 1.94026e-20
0.000371087 -0.000251128 -6.30583e-20
0.000370238 0.000251781 1.29755e-19
0.000117527 0.000228953 5.94203e-20
-0.00032161 0.000594357 4.05028e-19
-0.000322014 -0.000590284 -1.5037e-19
0.000273501 -0.00015911 2.66785e-20
0.000272788 0.000159168 1.01863e-19
-0.000432837 0.000189539 -1.15203e-19
0.000359097 -0.000558147 -3.39545e-20
-0.00036334 0.000558583 2.03727e-19
0.00019094 -0.000226868 2.54659e-20
-0.000375948 0.000706651 -1.59465e-19
-0.0007309 0.000387016 2.06152e-20
2.83927e-05 0.000218949 1.57646e-20
-3.18662e-05 -0.000218036 -2.61934e-19
0.000775179 -0.00032115 5.82077e-20
0.00077525 0.000321178 -2.42532e-21
4.14755e-05 -7.36765e-05 -3.81988e-19
0.000258306 0.000144599 4.72937e-20
0.000259015 -0.000139912 3.63798e-21
-0.000156842 -0.000107293 -2.49808e-19
-6.76522e-05 -0.000173512 4.9719e-20
-0.000456424 -9.46217e-05 -8.00355e-20
0.000319448 7.10099e-05 5.82077e-20
-0.000395965 -5.62089e-05 -9.21621e-20
-0.000290731 -0.00024185 -2.24342e-19
-0.000333891 -0.000578233 8.24609e-20
-0.000334898 0.000579976 2.83762e-19
-0.000351266 -0.000386048 -1.17628e-19
-0.000256221 0.000149262 -2.11003e-19
0.000252874 -0.000134966 -1.1399e-19
6.04231e-05 -0.000630753 1.21266e-19
-6.19985e-05 0.000631895 1.81899e-19
-0.000299525 0.000265854 1.09139e-20
2.15513e-05 0.000287835 4.72937e-20
-2.2124e-05 -0.000290254 2.54659e-20
0.000185353 -6.55149e-05 -5.57823e-20
0.000178983 6.15429e-05 2.78912e-20
0.000418085 0.000320882 -2.06152e-20
0.000225293 -0.000211907 -6.79089e-20
0.000223016 0.00021391 1.26117e-19
0.000249479 0.000136665 5.6995e-20
0.000118402 -0.000320255 6.0633e-21
0.000168554 -0.000152506 -6.91216e-20
0.000162838 0.00015012 4.48684e-20
-0.000268167 0.000121455 -1.87962e-19
0.000141456 0.000107806 4.36557e-20
-0.000322568 -0.000221283 -4.00178e-20
-0.000115033 2.74343e-05 -2.63147e-19
-4.28986e-05 7.12404e-05 1.94026e-20
0.000336645 -5.90139e-05 -6.66963e-20
-0.000262725 0.000156036 -2.15853e-19
-0.000277519 -0.000127399 -8.85242e-20
-0.000215988 -0.000261783 -1.34605e-19
-0.000247186 -0.000161885 -1.52795e-19
-5.56143e-06 -0.000298861 -6.79089e-20
2.69923e-06 0.00029763 3.63798e-21
0.000412285 0.00017825 9.09495e-20
-0.000156928 0.00010657 -1.30967e-19
0.000206861 -0.000327356 9.45875e-20
0.000203838 0.000327184 2.42532e-20
-0.000255474 0.000149303 -2.38894e-19
-0.000104369 0.000164265 3.39545e-20
-0.000106994 -0.000175186 -3.58947e-19
-6.58702e-05 -0.000303878 -1.83112e-19
-0.000239761 0.000226542 -2.02514e-19
3.09103e-05 -0.000422986 -1.07927e-19
5.63791e-05 0.000430594 6.66963e-20
0.000436668 2.4637e-05 5.6995e-20
0.000434751 -0.000314868 1.10352e-19
0.000288508 0.00019871 7.03343e-20
-0.000432527 0.000749376 3.20142e-19
0.000432259 -0.000748697 1.69772e-20
0.000325299 6.76819e-05 -9.70128e-21
5.0432e-05 0.000174089 4.85064e-20
0.00019151 -7.00159e-05 -2.30405e-20
-6.21776e-05 0.000306167 -1.5522e-19
9.09252e-05 -0.000180881 -3.10441e-19
-9.21457e-05 0.00017799 -2.00618e-36
0.000144122 -0.000109034 -3.88051e-20
0.000104976 -2.32033e-05 1.09139e-19
-5.18393e-05 -0.000166483 -3.26205e-19
8.78818e-05 3.632e-06 -3.03165e-20
0.000288064 -0.000208587 -2.06152e-20
-0.000111157 -3.0598e-05 -1.61284e-19
0.000289164 -0.000220231 3.39545e-20
-0.000336757 0.000410734 -2.01301e-19
-0.00017785 0.000135206 -2.41319e-19
0.000114369 -0.000470511 -3.03165e-20
0.000119038 0.000464248 6.18456e-20
0.000484146 0.000121429 1.05501e-19
0.000289987 0.000222309 6.79089e-20
5.40877e-07 0.000340946 3.63798e-20
-3.39083e-06 -0.000342462 -1.05501e-19
0.000229897 -0.000412047 -1.57646e-20
0.000229273 0.000422382 3.39545e-20
3.00338e-05 -9.16224e-05 -4.72937e-20
3.22589e-05 9.05106e-05 -1.94026e-20
0.000165393 0.000123797 -1.33393e-20
0.000111745 0.000161397 -1.5522e-19
-0.000246659 -0.000146667 -3.2378e-19
-0.000489438 -0.000376429 -2.10396e-19
6.03912e-05 0.000317225 5.57823e-20
0.00030818 0.000158381 1.45519e-19
0.000309132 -0.000158046 9.70128e-21
0.000267453 0.000174691 7.15469e-20
0.000258675 -0.000143813 5.3357e-20
0.000258346 0.000144139 8.00355e-20
-0.000125312 -0.00141446 -1.87962e-20
0.00140437 -0.000213184 1.05501e-19
6.08569e-05 -0.000312054 1.94026e-20
0.000493867 -0.000449495 -9.70128e-20
0.000493238 0.000450951 1.1399e-19
-0.000608856 -3.59472e-05 -7.76102e-20
-2.04267e-05 0.00026675 -5.3357e-20
1.79502e-05 -0.000270772 -5.09317e-20
-0.000221139 0.000322686 -1.52795e-19
9.6976e-05 2.93852e-05 -1.21266e-20
-4.25636e-05 -8.34697e-05 -3.86838e-19
-0.000236336 0.000187424 2.42532e-20
0.00023322 -0.000190206 -2.77699e-19
0.000164603 -0.000121168 -4.72937e-20
-0.000181736 -0.000123278 -3.04378e-19
0.000267901 -0.000173817 -5.94203e-20
-0.000316924 -0.000198804 3.75924e-20
0.000305463 -7.6082e-05 -5.82077e-20
4.37432e-05 7.91012e-05 7.15469e-20
-0.000109054 0.000222655 -1.84324e-19
-6.38136e-05 -0.000309691 -1.34605e-19
0.000235858 0.000147404 4.00178e-20
6.26609e-05 0.000311698 4.24431e-20
-0.000110855 -0.000158376 9.94381e-20
-0.000375803 0.000708821 -2.01908e-19
-0.00068757 0.000391289 -3.37726e-19
0.000257695 -4.80542e-05 -8.36735e-20
0.000236496 -0.000147017 1.57646e-20
0.000804356 -0.000391399 9.70128e-21
0.000804717 0.000392125 -2.42532e-20
5.06547e-05 -0.000176811 8.48862e-21
-0.000440553 0.000300759 2.74061e-19
-0.000431917 -0.000307805 -1.79474e-19
-0.000184901 -8.07808e-05 -1.21266e-19
-4.3502e-05 6.8708e-05 -1.38243e-19
0.000398192 -0.000492135 -8.48862e-21
-0.000477072 -0.000375852 -2.49808e-19
0.00040577 -0.000581727 -1.21266e-21
0.000374401 0.000548947 7.76102e-20
0.000601853 0.000350537 1.5037e-19
3.70234e-05 -6.85151e-05 5.57823e-20
-1.83547e-05 -0.000625857 -1.12171e-19
0.00063857 -4.1873e-05 -1.51582e-20
0.000342168 0.000469812 -4.85064e-20
-0.000345018 -0.000469162 1.09139e-19
-0.000214745 -0.000169478 -2.36469e-19
-9.26139e-05 6.84952e-06 -1.98876e-19
0.000219939 0.000342667 2.42532e-20
0.000222883 -0.000340823 -9.70128e-21
-0.000210962 6.14754e-05 -7.39722e-20
0.000111838 -0.000224561 -2.06152e-20
0.000336566 -0.000264109 -7.51849e-20
0.00033532 0.000264838 5.57823e-20
-0.000258559 -0.000136021 -3.31056e-19
-0.000180892 0.000120946 -1.94026e-19
-0.000207593 -9.62529e-05 -1.54008e-19
-0.000394241 -0.00021597 -9.21621e-20
-5.29263e-05 0.000178278 -2.08577e-19
-0.000806147 0.000806159 -1.33999e-19
-5.85518e-05 0.0003157 -1.21266e-20
5.66961e-05 -0.000321299 -5.45697e-20
6.02061e-05 -0.000631034 4.85064e-20
-6.21492e-05 0.000631699 1.1399e-19
8.87443e-05 -0.00016864 -1.27329e-19
8.80601e-05 0.000162644 1.69772e-20
-0.000306137 0.000161293 -1.04289e-19
-0.000303789 -0.000155945 -4.1958e-19
-0.000534556 -9.88621e-05 -2.88613e-19
-0.0005272 0.000101036 -2.2798e-19
0.000714643 -0.00039665 -5.57823e-20
0.00071429 0.000397418 -1.5522e-19
0.000192815 1.0068e-05 -1.57646e-20
0.000189553 -4.77062e-06 1.49157e-19
0.000278256 -0.000131245 -7.39722e-20
-1.86619e-05 0.000278894 -1.04289e-19
0.00023991 0.000179663 7.39722e-20
1.67331e-05 -0.000277877 -5.57823e-20
-0.000440477 0.000302246 -1.34605e-19
0.000276538 0.00013218 6.18456e-20
-3.33245e-05 -0.000295214 -2.24342e-19
-0.000193702 -3.77011e-06 -2.32831e-19
-0.000194676 2.02885e-06 -2.34043e-19
-0.000204239 0.00017665 -1.44306e-19
0.000351118 0.000608171 -3.39545e-20
-0.000351515 -0.000609009 1.57646e-19
-6.66787e-05 -0.000213024 2.42532e-20
-0.000259867 -0.000153639 -2.58297e-19
-3.69239e-05 -0.000340722 -2.61934e-19
0.000241377 -0.000177441 -3.03165e-20
0.000391569 0.000730753 8.79178e-20
0.000703122 0.000346165 5.3357e-20
5.57768e-05 -0.000209586 -1.18841e-19
5.22058e-05 0.000203732 5.57823e-20
-4.8153e-05 0.00035731 9.21621e-20
2.90476e-05 0.000286648 1.57646e-20
0.000338677 -0.00017841 -1.39456e-19
0.000281814 -9.23762e-05 3.75924e-20
0.000281154 9.25457e-05 6.91216e-20
-0.000696439 5.0762e-08 -4.89914e-19
-0.00069747 -5.00965e-08 -5.23869e-19
5.27081e-05 -0.00016489 1.94026e-20
-0.000266529 -0.00015912 -1.09139e-19
0.000222185 0.000249922 1.05501e-19
0.000224446 -0.000249142 -5.6995e-20
6.99658e-05 0.000203911 -1.09139e-19
3.12173e-05 5.61526e-05 -1.01863e-19
0.000785318 0.000785321 1.10958e-19
-0.00023078 -7.90141e-05 -1.83112e-19
-0.000230449 7.40627e-05 -2.74061e-19
-5.52121e-05 0.000163904 -1.26117e-19
0.000338421 0.000178677 4.36557e-20
-0.000261357 0.000131581 -2.97102e-19
-0.000337264 4.39978e-05 -4.9719e-20
-0.000336949 -4.40087e-05 -3.37119e-19
-0.000204043 9.68996e-05 -1.45519e-19
0.000102475 -0.000441719 -1.16415e-19
0.000100403 0.000443317 1.09139e-19
0.000136602 0.000826014 1.74623e-19
-0.000138399 -0.000825462 1.06714e-19
-0.000107588 0.00141551 6.91216e-20
-0.00141692 7.81785e-05 -1.49763e-19
0.000211268 2.98199e-05 1.04289e-19
0.000210055 -3.03307e-05 -4.12304e-20
-2.40322e-05 -5.99497e-05 8.36735e-20
0.000768522 0.000971409 1.00044e-19
0.000956885 0.000758561 6.36646e-21
0.000338102 0.000816064 7.76102e-20
0.000337779 -0.000815302 -1.06714e-19
-0.000245572 0.000145045 -3.49246e-19
0.000210717 -0.000229807 1.45519e-20
0.000225625 0.000121415 -9.70128e-21
0.000226156 -0.000121343 -7.39722e-20
0.00015853 -0.000160399 -1.00651e-19
0.000208776 0.000233358 4.9719e-20
-9.19528e-06 -0.000637394 -7.63976e-20
6.08143e-06 0.000647177 7.51849e-20
0.000679233 -4.11259e-06 1.33999e-19
0.000158594 0.000160798 1.21266e-20
2.72003e-05 0.000667857 9.15558e-20
-0.000671768 -8.54375e-05 -9.27685e-20
0.000301199 -4.96522e-05 2.42532e-20
0.000301366 4.72295e-05 1.67347e-19
0.000286899 -9.84596e-05 4.24431e-20
0.000286477 9.8833e-05 8.12482e-20
-0.000792664 0.000984742 -2.93464e-19
-0.00097259 0.000792904 -1.27936e-19
0.000237837 0.00013018 2.42532e-21
0.000238277 -0.000129934 -4.24431e-20
8.17289e-05 0.000484949 9.21621e-20
-8.35371e-05 -0.000484396 4.85064e-20
0.000220312 8.87193e-05 4.85064e-20
0.000216171 -8.7851e-05 9.82254e-20
0.000330913 -0.000315633 -4.85064e-20
0.000329607 0.000316808 9.70128e-20
-0.000196081 4.60906e-05 -2.70423e-19
-0.000200352 -4.81856e-05 -2.86188e-19
0.000308169 0.000598088 1.26117e-19
0.000456907 0.000460442 7.03343e-20
0.000309212 -0.000595724 -8.24609e-20
0.000456749 -0.000459191 -1.45519e-20
-0.000330024 -0.000614589 9.70128e-20
-0.000692958 -1.12826e-05 -2.83762e-19
-0.000692702 9.62574e-06 -5.14168e-19
0.000327251 0.000614363 -7.27596e-20
0.000557695 0.000231023 5.57823e-20
0.00145045 0.000190824 1.18841e-19
0.000557141 -0.000230788 -2.30405e-20
0.00145058 -0.000190834 -2.30405e-19
0.000719 -1.34819e-05 -2.42532e-21
0.00048849 0.000139149 5.94203e-20
0.000674694 -0.000218639 3.88051e-20
0.000718528 1.38427e-05 -4.60811e-20
0.000487803 -0.000138931 -1.81899e-20
0.000674235 0.000218932 -7.03343e-20
0.000516491 -0.000204073 -3.51671e-20
0.000522614 -0.000202166 -1.57646e-19
0.000515837 0.000204703 -3.63798e-21
0.000522086 0.000202757 -2.42532e-20
-0.000119623 -0.000329964 -1.30967e-19
-4.49876e-05 0.000272847 -1.45519e-19
4.73758e-05 -0.00027155 3.03165e-20
-0.00024547 4.47564e-05 -1.38243e-19
-0.000313707 8.15321e-05 -9.58001e-20
-5.20122e-05 0.000354522 -2.54659e-20
5.43796e-05 -0.00035296 3.39545e-20
-0.000313931 -8.08263e-05 -1.38243e-19
-0.000105272 -0.000165141 -1.56433e-19
-0.00017724 -0.000398356 -1.22479e-19
0.000180011 0.000408278 1.15203e-19
0.000414642 0.000187734 -5.3357e-20
-0.000229744 -0.000237153 -6.4271e-20
0.00023003 0.000238881 -3.72286e-19
-0.000252261 0.000151058 -4.00178e-20
-0.000111759 -0.00022671 -5.09317e-20
-3.81027e-05 -0.000218611 5.45697e-20
-2.52088e-05 -0.000362137 -4.00178e-20
2.72125e-05 0.000362263 -3.2378e-19
0.00025598 3.82078e-05 -4.24431e-20
-0.000136476 -0.000479397 -1.05501e-19
0.000129242 0.000485979 1.90388e-19
0.000503466 0.000133167 -3.75924e-20
0.000119014 0.0003254 1.72198e-19
-0.000219854 -0.000221279 -1.57646e-19
-0.000230817 -4.73504e-05 -9.70128e-20
-0.000345315 -0.000715345 -1.57646e-19
-0.000203935 0.000102525 -7.15469e-20
-1.02474e-05 0.00033829 -2.34043e-19
1.37843e-05 -0.000337181 3.15291e-20
-0.000759863 -0.000368307 2.42532e-21
-0.000758067 0.000381534 3.97752e-19
-0.000164976 0.000223076 -7.15469e-20
-0.000199604 0.000236243 4.85064e-21
-0.000460179 0.000148417 2.06152e-20
-0.000324524 -0.000157256 -2.91038e-20
-0.000310658 0.000152228 -7.76102e-20
-5.32772e-05 0.000109192 -6.54836e-20
-9.58481e-05 -3.34318e-06 -1.54008e-19
-0.000331061 0.000216235 3.63798e-20
-0.000382247 -6.00545e-05 -1.17628e-19
-0.000348773 7.00388e-05 -4.12304e-20
3.44929e-05 0.000220884 5.3357e-20
-0.000108793 0.000327968 6.30583e-20
0.000198777 0.000231524 -2.30405e-20
-0.000774607 -0.000774575 -8.42798e-20
-0.000762692 0.000762653 -2.91038e-20
6.8703e-05 0.000177741 -3.92902e-19
0.000115079 0.000229925 8.60988e-20
-0.000764916 0.00083189 1.31574e-19
-0.000806972 -0.000776139 -1.35818e-19
0.000394346 -7.83634e-05 8.12482e-20
0.000396803 7.27807e-05 -1.61284e-19
0.000186973 6.37676e-05 -4.24431e-20
0.000369878 -0.00025058 1.45519e-19
0.00037168 0.000249434 -1.57646e-19
-0.00032184 -0.000594914 -2.86188e-19
-0.000322018 0.000590479 -2.03727e-19
0.000273661 -0.000159832 7.03343e-20
0.000273039 0.000156844 -1.62496e-19
-0.000359826 0.000558649 -4.12304e-20
0.000367164 -0.000559835 -2.42532e-20
0.000190507 -0.000227443 1.22479e-19
0.000374674 0.000707948 2.97708e-19
0.000711165 0.000374796 -6.30583e-20
2.9109e-05 0.000219753 -5.45697e-20
-2.93909e-05 -0.000216573 6.30583e-20
0.000769508 -0.000318744 -7.27596e-20
0.000778928 0.00032258 -2.95889e-19
-0.000316098 -0.000219669 -1.39456e-19
4.15503e-05 -6.95301e-05 1.07927e-19
0.000258761 0.000140297 -2.18279e-20
0.000259482 -0.000141239 1.60071e-19
-0.000159101 -0.000108362 -2.78912e-20
-6.52225e-05 -0.000172907 -5.6995e-20
-0.000290268 0.000242155 -8.60988e-20
-0.000443835 -0.000100478 -1.33393e-19
-0.000333977 0.000578344 2.18279e-20
-0.00033514 -0.000580519 -2.06152e-19
-0.000249861 -0.000154051 -3.27418e-20
0.000250359 0.000133166 -3.27418e-20
-0.000355133 -0.000386048 -1.92813e-19
6.3338e-05 -0.00063374 -7.27596e-21
-6.07449e-05 0.000631376 9.94381e-20
-0.000300279 -0.000266011 -1.81899e-19
2.29166e-05 0.000289856 -3.11654e-19
-1.96842e-05 -0.000289583 3.63798e-21
0.00018286 6.09886e-05 -6.18456e-20
0.000186674 -6.75308e-05 7.03343e-20
0.000419404 -0.000315178 3.75924e-20
0.000315107 6.7893e-05 -3.39545e-20
0.000226102 -0.000211898 1.1399e-19
0.00022447 0.000210949 -4.00178e-20
0.00025501 -0.0001376 1.12777e-19
0.000119371 -0.000319033 1.20053e-19
0.000170314 -0.000153341 1.01863e-19
0.000164993 0.000148217 -4.48684e-20
-0.000270245 -0.000120707 -8.73115e-20
-0.000284156 0.000223573 1.94026e-20
0.000138428 0.000107115 -7.27596e-21
-0.00011832 2.87034e-05 6.18456e-20
-4.36174e-05 7.39359e-05 -1.21266e-20
0.000337592 5.60332e-05 4.85064e-21
-0.000476935 0.000464493 -4.06241e-20
-0.000263294 -0.000157211 -1.23691e-19
-0.000272257 0.000129023 -9.45875e-20
-0.000648445 0.000105957 5.45697e-20
-0.000252427 0.000154071 -5.94203e-20
-3.74846e-06 -0.000297863 -4.85064e-21
5.6026e-06 0.000298851 -2.2798e-19
-0.000224088 -0.000266303 -1.10352e-19
0.000414183 -0.000178487 5.63887e-20
-0.000157272 0.000117245 -7.39722e-20
0.000205734 -0.000323182 7.76102e-20
-0.000216085 0.000348503 -1.45519e-20
-0.000259127 -0.000153327 -3.88051e-20
-0.00010452 -0.000164401 -2.59509e-19
-0.000106829 0.000175584 -7.51849e-20
-6.43402e-05 -0.000306024 -1.33393e-19
5.98857e-05 0.000313171 1.37031e-19
3.73675e-05 -0.000422675 6.4271e-20
-5.5786e-05 0.000435166 2.02514e-19
0.00044114 -4.80266e-05 4.9719e-20
0.000293218 -0.000196117 4.85064e-20
0.000433638 -0.000751159 -8.97368e-20
-0.000432553 0.000749287 -4.36557e-20
-0.000310717 -0.000187416 -9.70128e-20
0.000326519 -7.21265e-05 4.12304e-20
-0.000493472 -0.000391293 -1.58858e-19
4.85098e-05 0.000175122 5.45697e-20
0.000191701 -7.12743e-05 5.6995e-20
9.06798e-05 -0.000176024 1.29755e-19
-9.2942e-05 0.000180866 -1.17628e-19
0.000292224 0.000411864 4.24431e-20
0.000434657 0.00029248 -6.54836e-20
0.000145759 -0.000110496 3.51671e-20
-0.000622086 -2.80442e-05 -3.45608e-20
0.000101719 -2.50793e-05 3.03165e-20
-4.96186e-05 -0.000178188 -3.88051e-20
8.88788e-05 2.26603e-06 -3.15291e-20
-0.00010298 -2.65448e-05 -1.95238e-19
-0.000235678 -0.000224874 -9.33748e-20
0.000115772 -0.000467318 1.33393e-19
-0.000110751 0.000466462 8.73115e-20
0.000477861 -0.000125512 2.18279e-20
0.000294289 -0.000226016 6.0633e-20
3.53765e-06 0.000340363 -9.45875e-20
-1.5553e-06 -0.000341886 -1.69772e-20
0.000235195 -0.000423759 6.91216e-20
-0.000223361 0.000446066 -2.66785e-20
3.31213e-05 8.6824e-05 -3.27418e-20
3.16461e-05 -9.21666e-05 1.33393e-20
0.0001654 0.00012516 1.45519e-20
0.000112603 0.00016247 -4.32919e-19
-0.000242277 0.000148637 -7.63976e-20
0.000309494 0.00015594 -1.07927e-19
0.000308794 -0.000158795 1.43094e-19
0.000259164 -0.000144865 9.82254e-20
0.000258623 0.000141909 -1.12777e-19
-0.000150229 -0.00139897 1.15203e-20
0.000205571 0.000321298 2.42532e-21
-0.00144101 0.000168811 -8.12482e-20
-0.000182178 -0.000135608 -5.09317e-20
6.29716e-05 -0.000310998 1.29755e-19
-5.41236e-05 0.000320551 1.39456e-19
0.000491053 -0.000446398 2.40107e-19
0.000495823 0.000449425 -2.35256e-19
0.000269165 0.000173607 -1.11565e-19
0.000315708 -7.84354e-05 2.54659e-20
0.00029339 0.00020373 -5.6995e-20
-1.9102e-05 0.000268771 -1.96451e-19
1.98857e-05 -0.000270343 -2.42532e-21
9.91509e-05 2.63313e-05 3.15291e-20
0.00026866 -0.00017494 9.21621e-20
-4.81414e-05 -8.00474e-05 7.63976e-20
-0.000233735 0.000190086 -7.03343e-20
0.00023915 -0.000185741 8.48862e-20
0.000165649 -0.000122279 6.0633e-21
-0.000184811 -0.000125756 -6.66963e-20
3.79434e-05 8.13194e-05 8.48862e-21
6.13877e-05 0.000309016 4.48684e-20
-6.35468e-05 -0.000308266 -1.45519e-20
0.000236178 0.000145165 -1.74623e-19
0.0002947 0.000223044 -1.15203e-19
-0.000103949 0.000225519 4.12304e-20
-0.000107542 -0.000158082 -6.66963e-20
0.00037727 0.000684073 2.15853e-19
0.000694183 0.000376388 -1.71591e-19
-0.000431405 0.000322645 -2.54659e-20
0.000237198 -0.00014804 8.48862e-21
0.000258502 -4.7325e-05 4.9719e-20
0.000807534 0.000391437 -2.47383e-19
0.000798709 -0.00038904 1.04289e-19
5.26093e-05 -0.000177483 2.30405e-20
-0.000440836 -0.000301474 -2.42532e-21
-0.000432549 0.00030804 2.44957e-19
-0.000183377 7.84927e-05 -1.23691e-19
-4.60128e-05 6.89368e-05 -2.74061e-19
-0.000363242 0.000484593 3.75924e-20
-0.000456003 -0.000389801 -1.46125e-19
0.000390611 -0.000559285 1.95238e-19
-0.000355153 0.000579885 2.38894e-19
0.000585104 -0.000341199 3.15291e-20
-0.000398584 -0.000215811 -1.74623e-19
4.05824e-05 -6.93136e-05 -2.06152e-20
-4.77739e-05 -0.000625777 1.19447e-19
-0.000592284 5.26435e-06 -1.33393e-20
0.000343208 0.00047055 -2.37681e-19
-0.000343228 -0.0004694 -8.73115e-20
-0.000212255 0.000167856 -1.05501e-19
-9.2984e-05 -6.8056e-06 -1.26117e-19
-0.000211486 0.000345074 1.69772e-20
0.000223692 -0.000338326 1.1399e-19
-0.000211526 -6.26746e-05 -1.16415e-19
0.000112882 -0.000224515 1.05501e-19
0.000335767 -0.000263406 1.05501e-19
0.000337116 0.000262376 -1.45519e-19
-0.000259896 0.000136767 -1.17628e-19
-0.00016181 0.000119381 -1.10352e-19
-0.00020868 9.69264e-05 -1.23691e-19
-4.79461e-05 0.000194339 -1.28542e-19
0.000801505 0.000801542 -1.02773e-19
5.86084e-05 -0.000320694 5.45697e-20
-5.43988e-05 0.000319956 1.21266e-19
-6.03345e-05 0.000631908 2.91038e-20
6.41801e-05 -0.000632648 -4.85064e-21
9.06969e-05 -0.000169315 8.48862e-21
8.98347e-05 0.000160768 -4.85064e-21
-0.00030799 -0.000161973 -1.7341e-19
-0.000301434 0.000155991 -9.09495e-20
-0.00053458 9.71932e-05 6.54836e-20
-0.000527551 -9.9642e-05 -5.57823e-20
0.000709083 -0.000394291 1.64922e-19
0.000719186 0.00039661 -2.6436e-19
0.000194065 7.20509e-06 3.15291e-20
0.000184674 -6.99795e-06 6.66963e-20
0.000278958 0.000128784 -8.85242e-20
-1.7045e-05 0.000282486 -9.70128e-21
1.86901e-05 -0.000277324 8.24609e-20
0.000277184 -0.000134113 1.37031e-19
-3.0827e-05 -0.000292729 -5.45697e-20
3.02766e-05 0.000290408 -1.69772e-20
0.000241284 0.000178876 -1.41881e-19
-0.000194753 2.68411e-07 -1.94026e-20
-0.000196734 -2.25375e-06 -2.38894e-19
0.000241103 -0.000179756 1.07927e-19
-0.000206214 -0.000177948 -1.34605e-19
0.000351517 0.000609011 -8.24609e-20
-0.000351573 -0.000609019 -1.79474e-19
-6.42355e-05 -0.000212946 -3.63798e-21
-0.000258843 0.000151434 -1.45519e-19
-3.68669e-05 0.000340877 -4.9719e-20
0.000407398 -0.000718649 1.7341e-19
0.000707309 -0.000336542 -7.27596e-21
5.85205e-05 -0.000209276 7.03343e-20
5.34686e-05 0.000203548 3.27418e-20
-4.82272e-05 -0.000357711 -2.83762e-19
0.000341167 0.000177678 -8.36735e-20
0.000281847 -9.40968e-05 3.03165e-20
0.000281463 8.98315e-05 -2.37681e-19
-0.0006963 -7.91523e-08 1.26117e-19
-0.000697518 3.18404e-08 3.54097e-19
5.4766e-05 -0.000164961 2.06152e-20
-0.000260753 0.000152917 -9.70128e-20
0.000223567 0.000247509 4.85064e-21
0.00022528 -0.000248636 1.34605e-19
7.09414e-05 0.000205891 -2.874e-19
3.63886e-05 5.92737e-05 -3.57735e-19
0.000778069 -0.000778053 -1.69772e-19
-0.000234875 7.75931e-05 2.54659e-20
-0.00023057 -7.26396e-05 -2.20704e-19
-5.30591e-05 0.000168201 -1.89175e-19
0.000333475 -0.000179754 8.36735e-20
-0.000261622 -0.000131292 -1.33393e-19
-0.00034129 -3.65254e-05 -7.88229e-20
-0.000335354 5.64027e-05 -7.51849e-20
-0.000204649 -9.58647e-05 -7.88229e-20
0.000101357 0.000441639 -5.82077e-20
0.000104671 -0.000438636 1.52795e-19
0.000137781 0.000826058 1.98876e-19
-0.0001361 -0.000827853 -1.18841e-19
6.4237e-05 0.00138822 5.66918e-19
0.0013999 9.6445e-05 -2.57084e-19
0.000210852 -3.27901e-05 4.85064e-20
0.00021025 2.68762e-05 -1.34605e-19
-2.15558e-05 -6.05993e-05 -4.00178e-20
0.000759005 -0.000946403 1.82808e-19
0.000923159 -0.000755689 -1.78867e-19
0.000338685 0.000817358 9.21621e-20
0.000335568 -0.000809856 9.94381e-20
-0.000245852 -0.000144899 -1.87962e-19
0.000211403 -0.000230541 7.15469e-20
0.000226772 -0.000122762 6.0633e-21
0.000224739 0.000119325 -2.13428e-19
0.000159541 -0.000161727 -1.21266e-21
0.000209214 0.000233348 -8.12482e-20
-1.67986e-05 0.000614083 3.95327e-19
-8.08937e-06 -0.000667411 2.29193e-19
0.00063774 -2.0958e-05 -1.21266e-21
0.000158726 0.00015939 -3.27418e-20
-6.71628e-05 0.000679032 5.30539e-19
0.000671236 -4.97376e-05 -8.91305e-20
0.000300909 -5.18772e-05 3.75924e-20
0.000300581 4.43385e-05 -1.54008e-19
0.000286804 -0.000100027 9.70128e-20
0.000285927 9.51059e-05 -2.44957e-19
0.00078617 0.000967237 1.21872e-19
0.000971891 0.000786981 -1.29755e-19
0.000238055 0.000128881 -2.14641e-19
0.000238957 -0.000131398 3.63798e-21
8.30349e-05 0.000485679 4.85064e-20
-8.08915e-05 -0.000484664 -4.85064e-20
0.000221121 8.46027e-05 8.24609e-20
0.000212841 -9.48452e-05 -1.45519e-20
0.000330206 -0.000314141 1.12777e-19
0.000331345 0.000314716 -4.60811e-20
-0.000197658 -4.67199e-05 -1.33393e-19
-0.000210265 5.19203e-05 -2.18279e-20
-0.000328208 -0.000615084 -1.64922e-19
-0.0006921 -1.08446e-05 5.57823e-20
-0.000692627 1.22087e-05 2.2798e-19
0.000328291 0.000615037 -2.54659e-19
0.000309648 0.000596803 9.70128e-21
0.000458353 0.000459211 -9.45875e-20
0.000308555 -0.000590499 1.01863e-19
0.000453718 -0.000456152 1.67347e-19
0.000551462 0.000228464 -2.18279e-20
0.000565004 -0.000233967 -1.06714e-19
0.0014575 -0.000191834 -6.20882e-19
0.0014398 0.000189499 -8.00355e-20
0.000712776 -1.60302e-05 -7.27596e-21
0.000485633 0.000134355 4.85064e-20
0.000724816 8.3517e-06 -1.60071e-19
0.000490271 -0.000146989 -1.03076e-19
0.000679317 0.000218869 -2.81337e-19
0.000669336 -0.000217212 9.70128e-20
0.000513261 -0.000204147 7.76102e-20
0.000519424 -0.000202227 1.45519e-19
0.000518674 0.000201722 -2.32831e-19
0.00052486 0.000199796 -1.52795e-19
-4.34827e-05 0.000271223 -1.35818e-19
3.36344e-05 -0.000298976 5.94203e-20
-0.000243402 -4.75709e-05 -8.48862e-21
-0.000304995 -8.39009e-05 -2.18279e-20
-5.03283e-05 0.000350747 1.57646e-20
3.04813e-05 -0.000335679 9.70128e-20
-0.00032574 7.82261e-05 -1.40669e-19
-0.000101251 0.000162868 -9.58001e-20
-0.000172501 0.000423458 -5.57823e-20
-0.000164934 -0.000413656 1.51582e-19
0.000422905 0.000169987 -2.26767e-19
0.00023805 -0.00022377 4.36557e-20
0.000227976 0.000236472 -2.47383e-19
-0.00023718 -0.000160486 -6.0633e-21
6.65218e-05 -0.000328045 7.03343e-20
2.72544e-05 0.000358438 -2.25555e-19
0.000254159 -5.97783e-05 -1.1399e-19
-0.00011362 -0.000510642 1.97664e-19
-0.000138014 0.000489676 -2.18279e-20
0.000504493 0.000117431 -1.74623e-19
-0.000337669 7.2978e-05 -2.72848e-19
0.000128226 0.000318407 -1.6856e-19
0.000159909 -0.000362924 5.45697e-20
-0.000229687 3.97299e-05 -1.63709e-19
-0.0003469 -0.000752611 1.27936e-19
-0.000196484 -0.000103553 -1.69772e-20
0.000751418 0.000356719 -1.17628e-19
-9.53045e-06 0.000334894 -4.9719e-20
6.03226e-05 -0.000324078 2.18279e-20
-0.000756877 0.000367942 2.88613e-19
-0.000736397 -0.00038115 -1.69772e-20
-0.000495306 0.000155752 -1.1399e-19
-0.000152985 -0.000227186 -4.85064e-21
-0.000296945 -0.000157313 -2.91038e-20
-0.000320514 0.000155883 -9.70128e-20
-5.03486e-05 -0.000110001 -2.42532e-20
0.000198102 0.000225293 -1.98876e-19
0.000218062 -0.00028539 7.76102e-20
-0.000317441 0.00020751 -3.17717e-19
-9.16857e-05 -1.24878e-06 -7.15469e-20
-0.000204022 -0.000243562 -1.33393e-20
-0.00020886 0.000221853 -2.81337e-19
-8.99209e-05 -0.000336754 6.0633e-21
-0.000115365 0.00032225 -2.0979e-19
0.000100733 -0.000268692 1.69772e-20
3.72466e-05 0.000219292 -1.24904e-19
-0.000323946 0.000206949 -3.38332e-19
-0.00080836 -0.000808454 -3.75924e-20
0.000803086 0.000803243 -2.24342e-19
8.58043e-05 -0.000166134 -7.27596e-21
6.84645e-05 0.000176057 -1.79474e-19
0.000806325 0.000858322 -4.89914e-19
-0.000845213 -0.000810237 -3.57735e-20
0.000388563 6.79405e-05 -1.90388e-19
0.000312733 -0.000170503 -4.12304e-20
0.000181456 -8.59886e-05 -1.45519e-20
0.000364253 0.000238809 -2.41319e-19
0.000297804 -0.000275691 -2.42532e-21
0.000120933 0.000226811 -9.09495e-20
0.00015342 -0.000281674 -3.15291e-20
-0.000308994 -0.000590518 1.60071e-19
-0.000318 0.000596769 2.20704e-19
0.000269985 0.000147591 -2.53446e-19
0.000247419 -0.000208126 -9.21621e-20
-0.000437086 0.000183443 -1.79474e-19
-0.000355132 0.000552382 1.06714e-19
-0.000157982 -0.000451439 -4.85064e-21
-0.000388356 0.000726799 -4.91127e-20
-0.000738871 0.000383353 4.00178e-20
3.09234e-05 0.000217948 -1.37031e-19
8.15905e-05 -0.000264626 5.3357e-20
0.000759326 0.000314654 -8.24609e-20
0.000597827 -0.000247479 -1.64922e-19
0.000257404 0.000125073 -3.0074e-19
0.000243241 -0.000172351 -1.28542e-19
-0.000457723 -0.000104686 -3.75924e-20
0.000324205 -9.73401e-05 -1.52795e-19
-0.000390115 -6.17252e-05 -3.63798e-21
-0.000277351 -0.000243706 7.27596e-21
-0.000334416 0.000579003 3.34694e-19
-0.000329133 -0.000570089 -1.94026e-20
-0.000344599 -0.000400818 -3.51671e-20
-0.000255757 0.000146823 -2.43745e-19
0.000253371 0.000121825 -2.94676e-19
5.12313e-06 -0.000491108 -4.36557e-20
-5.96349e-05 0.000624259 2.23129e-19
-0.000296224 0.000264832 -1.22479e-19
6.45274e-05 -0.000294018 -3.15291e-20
2.30709e-05 0.000286816 -2.42532e-19
0.000183432 4.81544e-05 -7.15469e-20
0.000168599 -7.79015e-05 7.39722e-20
0.000439658 -0.000361627 4.36557e-20
0.000220557 0.000194785 -2.6436e-19
0.000193976 -0.000223893 -4.24431e-20
0.000245009 -0.000173939 -8.97368e-20
0.000166112 0.000137779 -2.15853e-19
0.000150418 -0.000177738 -2.91038e-20
-0.000265741 0.000118825 -2.49808e-19
0.000138578 0.000102732 -1.74623e-19
0.000167585 -0.000196544 -4.85064e-21
-0.000319804 -0.000226517 -4.72937e-20
4.99691e-05 -0.000173062 4.12304e-20
-4.09143e-05 7.20041e-05 4.24431e-20
0.000341652 4.20002e-05 -2.30405e-19
-0.000260589 0.000154107 -2.4617e-19
-0.000270757 -0.000133162 -4.85064e-20
-0.000205507 -0.000276448 -4.36557e-20
-0.000237617 -0.000172021 -4.48684e-20
4.4363e-05 -0.000304497 2.91038e-20
5.0236e-06 0.000296191 -3.89264e-19
0.000433229 -0.00020396 -1.62496e-19
-0.0001557 0.000106258 -1.45519e-19
-0.000143529 -0.000124144 3.39545e-20
0.000228179 -0.000369256 1.62496e-19
0.000209456 0.000320035 -2.92251e-19
-0.00025291 0.000146979 -2.874e-19
-9.91055e-05 0.000160759 -1.33393e-20
-9.81853e-05 -0.000169324 1.69772e-20
-0.000238918 0.000225908 -2.83762e-19
5.40661e-05 -0.000452441 1.29755e-19
5.9345e-05 0.000432321 -2.07365e-19
0.000448816 -4.29127e-05 -2.18279e-19
0.000443587 0.000306372 -2.24342e-19
0.000305175 -0.000234858 8.48862e-21
-0.000348132 -0.000603136 -6.79089e-20
-0.00042784 0.000740999 -1.16415e-19
0.000332156 -9.28164e-05 -2.07365e-19
5.19833e-05 0.000170415 -1.24904e-19
0.000108008 -0.000244546 -4.48684e-20
0.000189716 5.27487e-05 -1.37031e-19
-4.0209e-05 -0.000322829 7.15469e-20
-6.04702e-05 0.000306293 -1.56433e-19
-9.01085e-05 0.000178629 1.98876e-19
2.57014e-05 -0.000225684 4.48684e-20
0.000102718 -2.61158e-05 -1.18841e-19
0.000145686 -0.000117934 9.70128e-21
8.54915e-05 -1.6261e-05 1.01863e-19
0.000294279 0.000196865 -2.44957e-19
-9.11044e-05 2.01058e-05 2.78912e-20
-0.000110156 -3.01881e-05 -1.03076e-19
0.000295569 0.000214001 -2.59509e-19
-0.000339212 0.000412514 -2.83762e-19
-0.000176909 0.000134446 -2.49808e-19
0.000147619 -0.000502678 6.54836e-20
0.000125282 0.00046774 -3.06803e-19
0.000501387 -0.000150055 -1.92813e-19
0.000307546 -0.000272611 1.81899e-19
2.79191e-06 0.000340913 -3.94114e-19
4.12438e-05 -0.000367249 7.76102e-20
0.000253872 -0.000461527 7.63976e-20
0.000239074 0.000409424 -2.54659e-19
3.07814e-05 7.38025e-05 2.18279e-20
2.82939e-05 -0.000105624 1.07927e-19
0.000165539 0.000120748 -1.07927e-19
0.000187421 -0.000209793 -3.75924e-20
0.000116153 -0.00015558 -4.9719e-20
0.000111558 0.000160674 -1.37031e-19
-0.000227223 -0.000157173 1.81899e-20
-0.000486167 -0.000397369 -3.69861e-20
9.05596e-05 -0.000359678 1.00651e-19
6.45326e-05 0.000315415 -1.96451e-19
0.000302905 0.000146609 -3.26205e-19
0.000252817 -0.000208004 3.63798e-21
0.000267637 -0.000227874 1.45519e-20
0.00025664 0.000133808 -3.71074e-19
0.00024075 -0.000201188 -9.45875e-20
-0.000149844 -0.00146691 -3.63798e-20
0.00145568 0.00021118 -2.84975e-20
0.000483819 0.000435446 -1.69772e-19
0.000379501 -0.000421408 4.36557e-20
0.0002689 0.000165266 -2.98314e-19
-0.000609311 -4.63486e-05 7.33659e-20
6.15824e-06 -0.000264705 -1.21266e-20
-1.92166e-05 0.000265573 -3.57735e-19
-0.000221148 0.000322621 -2.58297e-19
-0.000230375 0.000187805 1.04289e-19
-8.3195e-05 -0.000232815 3.39545e-20
-0.000316149 -0.000215208 -2.54659e-20
0.00030925 5.97322e-05 -2.04939e-19
3.96e-05 7.93148e-05 -3.63798e-21
0.000109475 -0.000178457 1.21266e-20
-8.68487e-05 -0.000231697 -2.78912e-20
-0.000108112 0.000222214 -2.83762e-19
0.000235894 0.000136811 -2.59509e-19
0.000237309 -0.000201688 -4.48684e-20
6.63478e-05 0.000310996 -2.31618e-19
9.85253e-05 -0.000340273 1.26117e-19
-0.000390834 0.000698863 -1.33393e-19
-0.00069647 0.000387538 9.33748e-20
0.000258481 2.99378e-05 -2.06152e-19
0.000786449 0.000379955 -2.40107e-19
0.000642599 -0.000355191 -7.51849e-20
-0.000437638 0.000301091 5.82077e-20
-0.000415307 -0.000308624 3.88051e-20
-0.000179906 -8.41683e-05 -5.45697e-20
-3.37844e-05 -7.58934e-05 9.70128e-21
-4.28212e-05 6.8664e-05 -1.10352e-19
0.000399343 0.00049749 -3.29843e-19
-0.000467576 -0.0003965 7.88229e-21
0.000411865 -0.000599282 8.12482e-20
0.000404362 0.000568915 -3.55309e-19
0.000626283 -0.000379378 -8.00355e-20
-4.29383e-05 -0.000658229 2.29799e-19
0.000657859 3.26195e-05 -8.42798e-20
0.000339908 0.00046563 -3.27418e-19
0.000328508 -0.000408857 2.18279e-20
-0.000204444 -0.000174258 -1.81899e-20
-8.87852e-05 2.25802e-06 -7.27596e-21
0.000244947 -0.000385377 7.39722e-20
0.000230947 0.000340443 -3.04378e-19
-0.000207438 5.81132e-05 -4.85064e-20
0.000328429 0.000252279 -3.09228e-19
0.000265935 -0.000287618 8.48862e-21
-0.000249454 -0.000144296 9.70128e-21
-0.000179834 0.000120733 -1.95238e-19
-0.000150798 -0.000127613 2.18279e-20
-0.00019713 -0.000102792 -5.45697e-20
-0.000387509 -0.000231055 -2.06152e-20
-5.21258e-05 0.000177959 -2.52233e-19
-3.04487e-05 -0.000192178 2.42532e-20
-0.000809985 0.000809842 1.4946e-19
-5.70243e-05 0.000315354 -3.44395e-19
-3.5763e-05 -0.000334357 3.75924e-20
-5.90444e-05 0.000625025 4.85064e-20
2.70133e-05 -0.000519485 -4.85064e-21
8.50689e-05 0.000145024 -2.66785e-20
7.87505e-05 -0.000170823 1.5037e-19
-0.000285461 -0.000161995 4.85064e-21
-0.000303986 0.000160599 -1.72198e-19
-0.000508361 9.06609e-05 1.45519e-20
-0.000531532 -9.81134e-05 -1.21266e-20
0.000702163 0.000384881 -3.39545e-19
0.000518774 -0.000362472 -9.70128e-20
0.000183154 -8.57234e-06 -2.11003e-19
0.00019312 -0.000128267 9.09495e-20
0.000280584 0.000117837 -2.47383e-19
9.45141e-06 -0.000287348 -1.69772e-20
-1.73078e-05 0.000278715 -3.31056e-19
0.000257212 -0.000229757 9.45875e-20
-0.000445113 0.000301731 -3.44395e-19
0.000280409 -0.000168067 -1.40669e-19
0.000244637 0.000168585 -2.41319e-19
-0.000192244 -3.51817e-06 -1.44306e-19
-0.000181191 -6.03613e-06 3.75924e-20
-0.000200549 0.000175269 -2.21917e-19
0.000347805 0.00060268 -7.03343e-20
0.000305326 -0.000528756 3.39545e-20
-0.000248934 -0.000159977 -2.78912e-20
-2.51011e-05 -0.000341936 8.48862e-21
0.000428787 -0.000759801 -5.97235e-20
0.000739538 -0.000374479 -1.38243e-19
4.69154e-05 0.000192407 -1.15203e-19
4.04107e-05 -0.00021478 6.30583e-20
-4.18463e-05 0.000357371 -7.15469e-20
8.22122e-05 -0.000328118 -1.94026e-20
3.15684e-05 0.000285073 -1.87962e-19
0.000343769 0.000167232 -2.41319e-19
0.000277899 8.46145e-05 -2.19491e-19
0.000250929 -0.000180137 -5.09317e-20
-0.000675919 -3.28509e-08 1.21266e-20
-0.000693352 -7.27393e-08 2.35256e-19
-0.000257018 -0.000165883 -1.21266e-21
0.000219609 0.000236196 -4.0139e-19
0.000192878 -0.000271837 -6.79089e-20
7.03663e-05 0.000203309 -2.57084e-19
8.90485e-05 -0.000207071 -2.18279e-20
4.98527e-05 -6.60594e-05 -1.57646e-20
3.16076e-05 5.61646e-05 -8.97368e-20
0.000816127 -0.000815983 -2.7588e-19
-0.000215611 6.40395e-05 3.75924e-20
-0.000229103 -7.83276e-05 -1.54008e-19
-5.44375e-05 0.000163414 -2.20704e-19
-3.49746e-05 -0.000169563 -4.00178e-20
0.00034698 -0.000218072 -7.03343e-20
-0.000259292 0.000130948 -2.20704e-19
-0.000321525 -5.97507e-05 -3.63798e-21
-0.000334945 4.39186e-05 -1.37031e-19
-0.000200345 9.37842e-05 -1.87962e-19
9.41398e-05 0.000427199 -1.28542e-19
8.0921e-05 -0.00041591 2.66785e-20
0.000136694 0.000817029 -1.74623e-19
0.000164219 -0.000672084 -5.09317e-20
-8.15807e-05 0.00144632 -4.69906e-19
-0.00143957 6.65128e-05 3.55309e-19
0.000209053 2.40185e-05 -1.63709e-19
0.000212383 -0.00014648 -4.85064e-20
0.000799633 -0.000993013 -1.28542e-19
0.000995641 -0.000788052 -1.8008e-19
0.000282822 -0.000682263 1.96451e-19
0.000329382 0.000795177 -4.60811e-19
-0.000243804 0.000144161 -2.43745e-19
0.000223014 0.000113166 -2.24342e-19
0.000220172 -0.000196134 -8.48862e-21
0.000210451 0.000227464 -1.46732e-19
0.000224329 -0.000286489 7.63976e-20
5.84516e-06 -0.00070899 1.54008e-19
1.59752e-05 0.000618988 -2.874e-19
0.000706318 -1.23701e-05 -1.60071e-19
0.000159501 0.000153604 -1.22479e-19
0.000184034 -0.000228237 2.06152e-20
6.94656e-05 0.000682784 -3.26812e-19
-0.000678261 -0.000100595 1.2066e-19
0.000295974 4.08196e-05 -1.89175e-19
0.000260686 -0.000155807 -4.85064e-21
0.000281951 8.94027e-05 -1.39456e-19
0.000252975 -0.000182553 -4.85064e-21
-0.000797364 0.000977203 3.03165e-21
-0.000986258 0.000795793 3.14079e-19
0.000237407 0.000123494 -1.916e-19
0.000236594 -0.000207919 9.70128e-21
0.000123764 -0.000420779 -3.63798e-20
8.26033e-05 0.000480574 -1.57646e-19
0.00021069 -9.44623e-05 -2.78912e-19
0.000210018 -7.54892e-05 8.48862e-20
0.000323096 0.000300832 -3.45608e-19
0.000262886 -0.000315405 2.18279e-20
-0.000192809 -6.17968e-05 0
-0.000194701 4.60069e-05 -2.08577e-19
0.000316453 -0.000525867 8.73115e-20
-0.000668713 -1.79742e-05 4.60811e-20
-0.000689367 1.01368e-05 1.35818e-19
0.000325142 0.000608558 -2.78912e-19
0.000300053 0.000580581 -1.52795e-19
0.000446286 0.000445251 -2.18279e-19
0.000245534 -0.000538464 1.06714e-19
0.000368959 -0.000424165 1.18841e-19
0.000553143 -0.000228989 6.18456e-20
0.00142096 -0.000186774 2.95889e-19
0.00111857 0.000147593 -7.03343e-20
0.000320971 0.000133073 0
0.000708238 6.22481e-06 -1.89175e-19
0.000479904 -0.000145038 -3.11654e-19
0.000663578 0.000212803 -3.58947e-19
0.000493284 -0.000128043 4.60811e-20
0.000479975 -0.000189738 -1.04289e-19
0.000368747 -4.56057e-05 1.11565e-19
0.000507481 0.000193783 -2.00089e-19
0.000512106 0.000192343 -2.08577e-19
0.000385226 -0.000247169 -6.30583e-20
0.000400256 -0.000242483 9.70128e-21
4.40605e-05 9.79835e-06 4.60811e-20
3.67512e-05 2.1437e-05 -1.98876e-19
0.000100933 -2.33779e-06 1.26117e-19
3.54288e-05 -4.9827e-06 -4.85064e-21
3.58737e-05 -4.73779e-06 -1.45519e-20
3.20048e-05 7.65918e-05 -1.96451e-19
0.000106049 -6.19124e-05 1.01863e-19
3.42561e-05 6.86622e-06 4.12304e-20
9.26738e-05 7.80689e-05 -4.85064e-20
3.82566e-05 4.16291e-06 -4.60811e-20
3.85595e-05 -3.7568e-06 -2.01301e-19
3.30021e-05 3.56917e-08 -1.8675e-19
0.000207023 -5.45386e-06 3.15291e-20
-2.08365e-05 -3.81932e-05 -1.94026e-20
4.41592e-05 2.54145e-05 2.18279e-20
7.24808e-05 2.40705e-05 1.01863e-19
8.81529e-05 6.67915e-05 -9.21621e-20
4.62978e-05 -7.9233e-05 2.42532e-21
2.76102e-05 2.5874e-06 -2.66785e-19
4.01615e-05 4.64804e-07 -2.66785e-20
4.03019e-05 -4.11232e-07 -2.44957e-19
3.1104e-05 1.26059e-06 -1.96451e-19
3.29128e-05 2.21209e-05 8.24609e-20
2.60295e-05 3.24806e-06 -1.94026e-20
1.42424e-05 2.11459e-05 2.66785e-20
3.49822e-05 5.68166e-06 -2.47383e-19
3.88612e-05 5.02884e-06 -7.27596e-21
3.59498e-05 -1.10805e-07 -1.33393e-19
4.46644e-05 -4.64223e-05 -7.27596e-21
3.11774e-05 -9.92144e-07 -1.23691e-19
7.64713e-05 5.93129e-05 -9.70128e-20
8.57217e-05 -5.40074e-05 1.45519e-20
-0.000389165 -0.000197862 -1.8675e-19
-0.000390056 0.000187314 -5.82077e-20
3.08481e-05 7.17696e-07 -5.57823e-20
1.91174e-05 2.69126e-05 -4.12304e-20
-7.45707e-05 -2.37413e-05 -1.21266e-19
-8.6574e-05 2.78231e-05 -4.85064e-20
0.000116654 -4.96012e-05 -2.66785e-20
3.57376e-05 4.67483e-06 -2.81337e-19
2.48741e-05 -4.4358e-06 -5.09317e-20
9.7239e-05 -2.80394e-07 -7.27596e-21
3.30265e-05 -2.13573e-05 -1.01863e-19
4.37601e-05 -9.83077e-06 -1.40669e-19
2.36371e-05 1.77279e-05 -2.49808e-19
3.10647e-05 -3.90174e-06 -9.21621e-20
4.39819e-05 -7.04311e-06 -8.00355e-20
3.75268e-05 -1.42664e-05 -9.94381e-20
0.000120538 -3.82131e-05 3.39545e-20
3.82884e-05 -1.40038e-06 -1.21266e-19
2.96259e-05 -7.7357e-06 -5.09317e-20
5.99494e-05 -3.23842e-06 6.30583e-20
5.99803e-05 3.21046e-06 -1.04289e-19
1.96186e-05 5.54637e-06 -3.0074e-19
5.61778e-05 -2.97774e-05 -7.76102e-20
5.62015e-05 2.97996e-05 -1.01863e-19
3.53651e-05 1.04852e-05 -2.47383e-19
-0.000100777 -0.000371072 -6.0633e-20
-0.00010124 0.000372409 -7.51849e-20
4.11897e-05 -1.36321e-05 -9.21621e-20
4.11611e-05 1.36287e-05 -2.18279e-19
3.09692e-05 7.75271e-07 -9.45875e-20
0.000285059 -0.000192975 1.21266e-19
-6.87934e-05 0.000158963 -1.69772e-19
3.57325e-05 -4.66377e-06 -9.21621e-20
3.61935e-05 -4.31228e-07 -1.64922e-19
3.00687e-05 1.37186e-06 -1.26117e-19
3.77424e-05 2.07272e-05 -2.37681e-19
6.61399e-05 2.25871e-05 8.48862e-20
0.000114655 -4.74958e-05 1.21266e-20
0.000114738 4.75302e-05 6.79089e-20
0.000110396 9.42536e-05 9.70128e-20
3.42118e-05 -1.22913e-05 -1.33393e-19
3.41136e-05 1.27015e-05 -2.52233e-19
3.48918e-06 5.81132e-05 -6.79089e-20
1.5312e-05 -2.40831e-05 -1.69772e-20
3.10343e-05 -5.7266e-07 -2.91038e-20
2.7766e-05 -2.649e-06 2.42532e-21
-5.33759e-05 -0.00011724 -1.26117e-19
-0.000171287 0.000296603 -9.70128e-21
-0.000172356 -0.000298455 -8.24609e-20
3.1684e-05 4.61832e-06 2.91038e-20
1.72714e-05 3.04431e-06 -5.3357e-20
2.73524e-05 6.96352e-06 -3.0559e-19
4.45457e-05 0.000186551 -5.09317e-20
8.53426e-05 -0.000241519 -1.21266e-20
-6.33998e-05 0.000131797 -1.09139e-19
8.49033e-05 1.11537e-05 -1.57646e-19
5.05929e-05 -2.28721e-05 -7.27596e-21
2.18119e-05 -7.31868e-06 -2.35256e-19
2.14208e-05 6.7638e-06 -3.58947e-19
3.32986e-05 -2.12186e-06 -6.30583e-20
2.77368e-05 2.65081e-06 -2.35256e-19
3.0948e-05 -2.51067e-05 -1.5037e-19
3.08289e-05 2.53585e-05 -2.6436e-19
2.77474e-05 -7.03136e-06 -1.52795e-19
3.50993e-05 -5.47902e-06 -1.28542e-19
2.0509e-05 -1.41499e-05 -1.64922e-19
1.99598e-05 1.38968e-05 -3.0559e-19
2.69173e-05 3.12297e-05 -1.21266e-20
3.1542e-05 1.30174e-07 -3.0074e-19
2.72367e-05 6.82253e-06 4.36557e-20
2.81064e-05 0.0001374 -2.42532e-21
1.42438e-05 2.6944e-08 -2.66785e-19
3.07058e-05 1.08247e-06 -2.44957e-19
-1.80886e-05 3.26447e-05 -2.18279e-20
2.67553e-05 -2.73262e-05 4.85064e-21
3.20801e-05 4.9822e-06 4.60811e-20
1.59795e-05 -2.04694e-06 -7.27596e-21
5.57853e-05 -2.5571e-05 -2.42532e-20
5.09956e-05 2.87707e-05 -2.13428e-19
3.32223e-05 -1.23907e-07 -9.94381e-20
3.16145e-06 -5.91178e-05 -2.91038e-20
3.53926e-05 -2.52652e-06 -6.54836e-20
3.54516e-05 2.29097e-06 -2.52233e-19
1.39891e-05 2.86448e-06 -3.63798e-20
7.65446e-05 9.39261e-05 -3.15291e-20
7.83073e-05 -9.71453e-05 1.69772e-20
4.40171e-05 9.7799e-06 -4.12304e-20
1.26619e-05 -1.86087e-05 -7.27596e-20
3.86384e-05 -2.90822e-08 -1.30967e-19
3.88471e-05 1.16523e-08 -2.81337e-19
3.0585e-05 -7.76386e-08 -1.21266e-19
3.33094e-05 1.94233e-06 -2.47383e-19
3.39943e-05 -2.77823e-06 -3.88051e-20
-0.000141862 0.000245634 -8.97368e-20
0.000151439 -0.000262496 9.70128e-21
3.06161e-05 -1.42369e-06 -1.43094e-19
2.77077e-05 4.22166e-06 -2.76486e-19
2.00217e-05 -5.98567e-06 -3.68649e-19
4.43575e-05 -1.00045e-05 -1.79474e-19
2.86568e-06 2.46929e-05 -2.18279e-19
0.000137498 3.54777e-05 2.23129e-19
3.17743e-05 -3.86199e-07 -2.42532e-21
2.8082e-05 -1.22947e-05 -3.44395e-19
6.60401e-05 4.72715e-05 4.60811e-20
9.75949e-06 7.76379e-08 -3.56522e-19
3.39045e-05 2.37221e-06 -2.44957e-19
2.99444e-05 -0.000139342 -3.63798e-20
3.40681e-05 4.10756e-06 -2.78912e-19
3.11484e-05 -4.24268e-06 -1.5522e-19
2.10975e-05 -3.10509e-05 -3.63798e-20
3.96576e-05 -6.09522e-07 -1.06714e-19
3.97762e-05 5.10761e-07 -2.30405e-19
3.12998e-05 -1.66489e-06 -1.38243e-19
3.40385e-05 -4.01216e-06 -5.3357e-20
5.2178e-05 5.05449e-06 -2.54659e-19
5.47447e-05 -4.64727e-06 -1.45519e-20
3.64694e-05 -2.53247e-07 -7.76102e-20
3.66832e-05 3.46438e-07 -2.13428e-19
3.51333e-06 -1.0225e-05 -3.12866e-19
3.28663e-06 9.89261e-06 -3.95327e-19
3.37258e-05 1.58934e-06 -3.08016e-19
0.000146462 -4.74698e-05 1.28542e-19
-2.9456e-05 2.32639e-05 -7.03343e-20
3.02903e-05 -8.92112e-07 -3.15291e-20
4.19696e-05 6.01007e-06 -2.40107e-19
4.53524e-05 -1.35096e-05 -6.30583e-20
4.53746e-05 1.35242e-05 -1.40669e-19
3.46829e-05 -6.91346e-06 -3.88051e-20
3.46127e-05 6.84499e-06 -2.54659e-19
3.79627e-05 -1.0238e-06 -1.18841e-19
2.38237e-05 -1.82229e-06 -1.5037e-19
4.16159e-05 -6.40837e-06 -1.62496e-19
7.36444e-05 -6.08805e-05 -9.45875e-20
7.36955e-05 6.09159e-05 -5.57823e-20
3.36948e-05 4.47784e-06 -3.0559e-19
3.00447e-05 -1.91808e-07 -4.12304e-20
2.77603e-05 -3.0898e-06 -2.15853e-19
7.02559e-05 3.79439e-06 -7.51849e-20
3.58902e-05 -3.00193e-05 -5.09317e-20
3.09178e-05 -4.06703e-06 -1.21266e-19
2.73833e-05 1.25052e-05 3.15291e-20
3.36821e-05 -4.52501e-06 -1.01863e-19
6.0117e-05 8.83963e-05 2.91038e-20
-2.34297e-05 2.64098e-05 -2.25555e-19
0.000208532 3.08201e-05 2.59509e-19
3.37125e-05 -1.53478e-06 -5.57823e-20
1.37138e-05 6.46779e-05 -2.66785e-20
2.57644e-05 9.61905e-07 -1.94026e-20
2.03746e-05 5.84124e-07 -2.95889e-19
4.50047e-05 -2.69966e-05 -7.03343e-20
4.77844e-05 -8.71332e-07 -5.09317e-20
3.61778e-05 6.61804e-06 -3.27418e-19
4.00096e-05 1.07835e-05 -2.66785e-19
-2.01873e-06 -1.80081e-05 -1.45519e-20
3.65356e-05 3.42223e-06 -1.40669e-19
3.49999e-05 1.85817e-06 -8.48862e-20
3.62163e-05 -6.692e-06 -6.54836e-20
2.78971e-05 -3.16422e-06 -1.81899e-19
0.000117421 -5.41535e-05 -5.09317e-20
0.000117503 5.41852e-05 9.94381e-20
2.70703e-05 -4.77773e-06 -3.15291e-20
-0.000172523 -0.000148937 -8.24609e-20
-0.000179673 0.000143242 -5.82077e-20
6.52589e-05 -2.23469e-05 1.45519e-20
6.07596e-05 -9.40956e-05 6.54836e-20
3.63955e-05 -3.07753e-06 -1.47944e-19
3.61222e-05 -6.19828e-07 -4.85064e-20
3.67136e-05 -4.66192e-07 -1.1399e-19
3.66331e-05 2.98095e-07 -2.15853e-19
3.16191e-05 1.35801e-06 -1.28542e-19
2.0699e-05 1.58857e-06 5.57823e-20
3.8173e-05 5.64725e-07 -1.74623e-19
3.14378e-05 -1.20076e-07 -1.35818e-19
0.000273121 0.000129888 1.33393e-19
-6.35693e-05 -0.000125635 -2.91038e-20
2.66091e-05 -4.10658e-05 -6.0633e-20
9.90278e-05 1.88195e-06 3.39545e-20
3.7035e-05 3.81395e-06 -2.54659e-19
3.69527e-05 -3.8425e-06 -6.54836e-20
5.74807e-05 2.01098e-05 -1.45519e-20
3.5503e-05 -1.13599e-05 -1.01863e-19
4.94108e-05 -3.23213e-05 -1.01863e-19
4.94403e-05 3.23313e-05 -1.11565e-19
-9.87401e-06 5.74474e-06 -3.88051e-20
1.37586e-05 -6.54741e-05 -7.03343e-20
2.80066e-05 -2.67689e-05 -3.15291e-20
3.22442e-05 2.40062e-06 -2.42532e-20
6.47643e-05 -4.26186e-05 -1.45519e-20
4.2028e-05 1.14449e-05 -8.24609e-20
4.96772e-05 3.98582e-06 -2.06152e-19
4.00851e-05 -9.81002e-06 -9.45875e-20
5.29056e-05 0.000197394 -6.79089e-20
0.000111826 -0.000207189 2.91038e-20
1.06993e-05 -1.96123e-05 -2.18279e-19
1.06663e-05 1.95117e-05 -3.34694e-19
-7.5736e-05 -2.32661e-05 -9.21621e-20
-7.72151e-05 3.04929e-05 -1.69772e-20
-0.000243532 0.000155941 1.69772e-20
-0.000249555 -0.000154027 -5.3357e-20
0.00010794 -5.47078e-05 7.27596e-21
0.000108023 5.47395e-05 1.69772e-20
3.65733e-05 1.06515e-05 7.27596e-21
3.65209e-05 -1.04543e-05 -3.24993e-19
3.33044e-05 6.0578e-06 -2.6921e-19
6.78487e-05 -1.2781e-05 -1.01863e-19
3.94667e-05 -9.13803e-06 -1.11565e-19
3.1299e-05 -4.08511e-06 -1.04289e-19
3.33424e-05 -6.15228e-06 -9.70128e-20
6.58575e-05 7.7097e-06 2.66785e-20
3.43788e-05 4.38338e-06 -3.34694e-19
-3.66533e-05 -0.000117704 2.18279e-20
-3.70178e-05 0.000116632 -2.42532e-21
3.44699e-05 -4.38744e-06 -1.11565e-19
2.59449e-05 4.81614e-05 -6.79089e-20
0.000151892 0.000263295 3.39545e-20
-9.72379e-05 -0.000168367 -6.79089e-20
1.51087e-05 -1.58349e-05 -4.85064e-21
-1.23395e-05 -2.73964e-05 -7.27596e-21
0.00011449 -0.000182616 -7.03343e-20
3.62894e-05 3.56356e-06 -1.28542e-19
3.46156e-05 1.4874e-06 -1.23691e-19
6.58211e-06 -2.47241e-05 -1.60071e-19
6.58699e-06 2.43099e-05 -3.22567e-19
0.000105461 0.000193216 -8.73115e-20
3.7629e-05 9.00901e-06 -2.42532e-19
3.08126e-05 4.19887e-06 -2.37681e-19
4.2685e-05 -1.62456e-06 1.94026e-20
4.26793e-05 1.54139e-06 -2.76486e-19
-0.000357744 -1.57881e-08 -8.00355e-20
-0.000357709 1.619e-08 2.42532e-21
2.59165e-05 -1.14784e-05 -4.12304e-20
1.81035e-05 -2.35048e-06 -2.91038e-20
3.08585e-05 -2.9099e-05 -1.40669e-19
3.07361e-05 2.91242e-05 -2.2798e-19
0.000121008 -3.14877e-05 2.42532e-20
0.000105098 -0.000101545 4.36557e-20
4.21747e-05 1.20664e-05 -7.27596e-20
-4.76862e-05 0.000138124 -2.91038e-20
-4.80514e-05 -0.000140845 2.42532e-21
6.36177e-05 -4.98345e-05 4.12304e-20
3.07879e-05 -4.08108e-06 -1.23691e-19
-1.56789e-05 -1.03318e-05 -2.91038e-20
-0.000104786 7.48391e-05 -5.82077e-20
-0.000105165 -7.48863e-05 -5.09317e-20
2.59868e-05 3.15861e-05 -2.18279e-20
1.35689e-05 -5.94526e-05 -1.33393e-19
1.36675e-05 5.95039e-05 -2.47383e-19
0.00013282 0.000282661 5.82077e-20
1.3633e-05 -0.000281021 -5.57823e-20
3.84812e-05 -1.52805e-06 -1.62496e-19
2.33856e-05 1.47145e-06 -5.3357e-20
3.72654e-05 6.16875e-06 -7.27596e-21
3.74176e-05 -6.43361e-06 -3.44395e-19
1.5866e-05 2.26735e-06 5.09317e-20
4.10946e-05 5.36008e-07 -1.1399e-19
2.93151e-05 1.00678e-05 -1.38243e-19
4.84334e-05 0.000116932 -4.85064e-21
4.84014e-05 -0.000116854 4.12304e-20
-3.10805e-05 -2.347e-05 -8.00355e-20
3.44221e-05 -4.46928e-06 -1.06714e-19
3.89851e-05 -3.54992e-06 2.42532e-21
3.89704e-05 3.46968e-06 -3.03165e-19
3.34566e-05 -3.18807e-06 -8.48862e-20
3.43512e-05 4.43103e-06 -3.39545e-19
3.8655e-05 5.95992e-08 -1.40669e-19
3.88469e-05 1.25989e-08 -1.98876e-19
3.13025e-05 6.95232e-09 -1.26117e-19
3.34451e-05 3.1178e-06 -2.88613e-19
3.83045e-05 -6.34325e-07 -1.62496e-19
3.02447e-05 -3.44892e-08 -3.88051e-20
4.91473e-05 3.64853e-06 2.66785e-20
4.9313e-05 -4.13412e-06 -2.86188e-19
4.63263e-05 -5.98126e-06 1.21266e-20
4.64058e-05 5.9435e-06 -1.79474e-19
4.11809e-05 2.40897e-07 -9.45875e-20
2.89365e-05 1.04009e-05 -8.97368e-20
3.67178e-05 1.85298e-06 -3.34694e-19
3.67182e-05 -1.94289e-06 -7.76102e-20
0.000109795 0.000139371 2.42532e-20
3.76999e-05 -0.000131546 9.70128e-21
3.97467e-05 1.97306e-05 -2.42532e-20
3.94871e-05 -1.97145e-05 -2.37681e-19
4.85527e-05 -4.01456e-05 -1.38243e-19
4.85685e-05 4.02426e-05 -1.69772e-19
-6.09212e-06 -7.34151e-05 -4.12304e-20
-6.60929e-06 7.18347e-05 -6.30583e-20
0.000262302 0.000234657 7.27596e-20
-0.000382293 -6.2998e-05 -7.03343e-20
4.49184e-05 8.27806e-05 -2.18279e-19
6.65217e-05 6.27896e-05 -9.70128e-21
4.48579e-05 -8.27576e-05 -5.82077e-20
6.64763e-05 -6.27528e-05 -4.12304e-20
-5.81196e-05 -0.000178529 -5.57823e-20
-0.000382551 6.17714e-05 -3.15291e-20
8.82521e-05 -3.65525e-05 -1.21266e-20
0.00021471 -2.82589e-05 1.52795e-19
0.000214555 2.82384e-05 -1.94026e-20
8.81715e-05 3.65191e-05 -5.82077e-20
0.000110083 -3.45937e-06 -3.39545e-20
7.53559e-05 -2.64571e-05 -1.77048e-19
0.000102667 3.08748e-05 -2.66785e-20
0.000109994 3.43814e-06 7.27596e-21
0.000102587 -3.08554e-05 -2.42532e-21
7.53003e-05 2.6414e-05 -3.39545e-20
7.93983e-05 -2.38142e-05 -9.70128e-21
7.78982e-05 -2.42813e-05 -5.3357e-20
7.94575e-05 2.38163e-05 -9.94381e-20
7.7953e-05 2.42848e-05 -5.09317e-20
-0.000113521 -0.000323732 -8.00355e-20
3.43594e-05 0.000299129 0
4.53876e-05 -0.000270904 -9.45875e-20
-0.000242556 -4.19308e-05 -9.33748e-20
-0.000303885 -7.56844e-05 -6.54836e-20
3.11994e-05 0.000335911 4.12304e-20
5.22667e-05 -0.000350989 1.57646e-20
-0.000326768 8.85514e-05 -1.21266e-20
-9.9711e-05 0.000166995 1.64922e-19
-0.000179344 -0.000395857 -1.78261e-19
-0.000160417 0.000445032 -1.54008e-19
0.000429899 0.000210527 6.4271e-20
0.000238213 0.000224536 1.21266e-20
-0.000227765 -0.000235675 -2.74061e-19
-0.000112915 -0.000227716 -1.24904e-19
-3.63018e-05 -0.000217805 -8.12482e-20
-2.60285e-05 -0.000358959 -1.69772e-19
6.71321e-05 0.000328539 -3.63798e-21
0.000259078 -1.78284e-05 1.58858e-19
-0.000136652 -0.000478734 -2.02514e-19
-0.00012151 0.000519706 -1.33393e-19
0.00050582 0.0001616 1.96451e-19
-0.000212343 -0.000214501 -1.64922e-19
-0.000332583 8.59942e-05 8.48862e-21
-0.000240998 -0.000215995 -1.43094e-19
0.000160828 0.000361989 1.04289e-19
-0.000226754 4.86367e-05 6.0633e-20
-0.000353965 -0.000719319 -2.84975e-20
-0.00019908 -9.85879e-05 -7.88229e-20
0.000756065 0.000395845 1.78867e-19
6.07193e-05 0.000324435 -3.39545e-20
1.13136e-05 -0.000335068 9.70128e-21
-0.000739136 0.000367077 -1.35818e-19
-0.000754646 -0.000382488 8.97368e-20
-0.000494258 0.000170913 -8.48862e-21
-0.000177337 -0.000140691 -1.58858e-19
-0.000306366 -0.000153017 -1.45519e-19
-0.000311539 0.000160811 9.70128e-21
-5.15728e-05 -0.000105111 -8.12482e-20
0.000218929 0.000284529 1.61284e-19
-0.000312164 0.000221683 -1.21266e-20
-9.02525e-05 4.46777e-06 8.00355e-20
-0.000196398 0.000234715 -1.12777e-19
-9.77148e-05 0.000340655 -6.79089e-20
0.000101612 0.000268533 1.44306e-19
-0.000315583 0.000221388 4.12304e-20
-0.00078746 -0.000787292 -1.66741e-19
0.000821093 0.000820969 2.07971e-19
8.61917e-05 0.000166985 1.21266e-20
0.000825693 0.000898912 -4.00178e-20
-0.000846509 -0.00079014 -6.97279e-20
0.000312063 0.000170656 1.5522e-19
0.000388526 -6.83215e-05 3.49246e-19
0.000181189 -4.58892e-05 2.29193e-19
0.000297191 0.000275439 2.76486e-19
0.000364214 -0.000239201 3.4197e-19
0.000154396 0.000281402 1.07927e-19
-0.00031018 0.000592852 2.18279e-19
-0.000317268 -0.000594492 -2.42532e-19
0.000246822 0.000208345 1.64922e-19
0.000270505 -0.000147719 8.73115e-20
-0.000432724 0.000200171 -1.21266e-20
-0.000157494 0.000451504 9.70128e-21
0.000356025 -0.00055253 1.51582e-19
0.000193467 -0.000222326 1.47944e-19
-0.000384061 0.000759434 -5.27507e-20
-0.000738397 0.000402716 -7.88229e-21
8.26867e-05 0.000264513 1.81899e-20
-3.0606e-05 -0.000216472 -9.70128e-20
0.000596516 0.000246932 1.28542e-19
0.000759389 -0.00031468 3.27418e-19
4.17304e-05 -7.33868e-05 -2.02514e-19
0.000242636 0.000168799 1.79474e-19
0.000258031 -0.000129483 7.88229e-20
-0.000155133 -0.000106792 -1.75836e-19
-6.61784e-05 -0.00017259 -3.03165e-19
-0.000456497 -9.10065e-05 -6.4271e-20
0.000324048 -5.26865e-05 1.54008e-19
-0.000395294 -5.21261e-05 -1.3218e-19
-0.000286586 -0.000240253 -1.89175e-19
-0.000333721 -0.000577802 -4.12304e-20
-0.000329932 0.000571479 7.27596e-20
-0.000349643 -0.000384043 -9.45875e-20
-0.000246598 0.000157161 -3.15291e-20
0.000247762 0.000172927 1.00651e-19
6.06284e-05 -0.000624325 -1.09139e-19
5.37994e-06 0.000491116 -2.66785e-20
-0.000287762 0.000267437 8.97368e-20
6.5159e-05 0.000294875 2.06152e-20
-2.05835e-05 -0.00028753 -2.04939e-19
0.00017508 8.26104e-05 1.33393e-19
0.000177062 -4.32919e-05 2.874e-19
0.000432584 -0.00031052 5.3357e-20
0.000194761 0.000221297 6.0633e-20
0.000219478 -0.000197857 2.63147e-19
0.000250633 -0.000122832 6.30583e-20
0.000120347 -0.000316447 4.72937e-20
0.000156122 0.000180861 1.11565e-19
0.000160311 -0.000135131 1.6856e-19
-0.000261866 0.000125686 1.03076e-19
0.000168011 0.000196601 1.44306e-19
-0.000320774 -0.000219602 -1.70985e-19
-0.000113623 2.69299e-05 -3.35907e-19
5.05793e-05 0.000172397 7.15469e-20
0.000342887 8.6166e-05 1.64922e-19
-0.000252083 0.000161326 3.75924e-20
-0.00027485 -0.000125127 -8.48862e-20
-0.000214551 -0.000259971 -1.94026e-19
-0.00024519 -0.000160053 -1.95238e-19
-3.83964e-06 -0.000296232 -9.33748e-20
4.57217e-05 0.000304976 2.42532e-21
0.000426594 -0.000162809 1.29755e-19
-0.000143488 0.000114147 8.48862e-21
0.000208906 -0.00031947 6.0633e-20
0.000228671 0.000365671 7.39722e-20
-0.000247542 0.000157109 2.18279e-20
-9.58587e-05 0.000163207 1.27329e-19
-0.00010147 -0.000166978 -2.02514e-19
-6.37183e-05 -0.000302565 -1.5037e-19
-0.000229133 0.000239134 -4.24431e-20
3.80147e-05 -0.000422109 -1.1399e-19
7.60146e-05 0.000462269 -1.37031e-19
0.000448845 -2.36068e-06 1.63709e-19
0.000451354 0.000351791 2.18279e-20
0.000299245 -0.000185091 4.00178e-20
0.000427494 -0.000740714 1.74623e-19
-0.000348196 0.000603246 -2.18279e-20
0.000331435 -4.84854e-05 1.84324e-19
0.000108934 0.000244229 1.37031e-19
0.000189504 9.31506e-05 2.00089e-19
-3.8568e-05 0.000323453 -6.66963e-20
9.06629e-05 -0.000179496 -6.0633e-21
2.5983e-05 0.000225731 5.82077e-20
0.000142439 -0.000104939 6.0633e-21
0.000146618 0.000119807 4.9719e-20
-5.07796e-05 -0.000165659 -1.3218e-19
8.54379e-05 1.59871e-05 2.89826e-19
0.000303375 0.000243304 1.23691e-19
-9.66849e-05 -2.6114e-05 2.66785e-20
0.000305471 0.00027106 1.6856e-19
-0.000331334 0.000433833 -2.66785e-20
-0.000164191 0.000143323 2.06152e-20
0.000117919 -0.000467615 -2.42532e-21
0.000149897 0.000501943 -9.09495e-20
0.000499329 -0.000105309 2.17066e-19
0.000300657 -0.000218889 -3.63798e-21
-1.63983e-06 -0.000340481 -1.30967e-19
4.26075e-05 0.000367624 7.27596e-21
0.000240138 -0.000423978 5.82077e-20
0.000255709 0.000450422 -6.4271e-20
3.01891e-05 0.000106989 1.84324e-19
2.8728e-05 -7.2566e-05 3.08016e-19
0.000187706 0.000209755 1.39456e-19
0.000116116 0.000156297 2.78912e-20
-0.000244163 -0.000145706 -1.66134e-19
-0.0004901 -0.000378433 1.03076e-20
9.27821e-05 0.000358803 2.06152e-20
0.000252408 0.000208177 2.80124e-19
0.000302971 -0.000146999 2.07365e-19
0.000239819 0.000201116 1.89175e-19
0.000257613 -0.00013431 1.21266e-20
-0.000156154 -0.00141874 2.12822e-19
0.001456 0.000244747 3.31056e-19
6.41712e-05 -0.000308438 -1.89175e-19
0.000378687 0.000420742 1.52795e-19
0.00048381 -0.000435788 5.43271e-19
0.000266386 0.000227019 3.09228e-19
-0.000611862 -3.11933e-05 -1.01257e-19
6.48994e-06 0.000265411 3.27418e-20
1.97745e-05 -0.000267914 -2.97102e-19
-0.000209332 0.000340914 -1.58858e-19
9.74527e-05 2.71959e-05 -2.42532e-20
0.000270242 -0.000165943 -2.54659e-20
-4.17326e-05 -8.3105e-05 -3.15291e-19
-8.26969e-05 0.000232848 1.69772e-20
0.000231612 -0.000188742 3.88051e-20
0.000164793 -0.000118186 6.18456e-20
-0.000179912 -0.000122701 -1.79474e-19
-0.000315067 -0.00019688 -2.00089e-19
0.000309108 0.000104661 1.37031e-19
0.000111831 0.00017795 1.94026e-20
-8.97842e-05 0.000231009 -2.91038e-20
-6.18613e-05 -0.000307815 -2.07365e-19
0.000236829 0.00020155 2.63147e-19
0.000100318 0.000340446 9.70128e-21
-0.000111929 -0.000156561 -1.8675e-19
-0.000387256 0.000723492 -3.33481e-20
-0.000698393 0.000406659 -6.0633e-20
0.00025335 7.19559e-05 1.18841e-19
0.000236782 -0.000137326 -1.21266e-20
0.000641273 0.000354607 -9.70128e-21
0.000786596 -0.000380184 4.77788e-19
5.21766e-05 -0.000173166 -5.6995e-20
-0.000424764 0.000301207 -7.76102e-20
-0.000428248 -0.000308803 -6.79089e-20
-0.000181182 -7.76648e-05 -4.12304e-20
-2.74033e-05 7.55704e-05 -4.12304e-20
0.000412953 0.000533105 -2.09184e-19
-0.00046974 -0.000377485 2.30405e-20
0.000398169 -0.000561815 2.66785e-19
0.000418169 0.00060713 -3.03165e-19
0.000622731 -0.000341099 1.94026e-19
4.09876e-05 -6.49892e-05 -6.4271e-20
-5.1319e-05 -0.000627389 1.15809e-19
0.000661051 6.6968e-05 2.18885e-19
-0.000339464 -0.00046425 -5.3357e-20
0.000328499 0.00040927 -1.45519e-20
-0.000210818 -0.000168094 -1.03076e-19
-8.94244e-05 5.46876e-06 3.75924e-20
0.000228247 -0.000335777 2.91038e-20
0.000247855 0.000383881 -5.3357e-20
-0.000207212 6.44644e-05 4.00178e-20
0.000113823 -0.000221281 -8.00355e-20
0.000265478 0.000287374 2.24342e-19
0.000328397 -0.000252593 5.22656e-19
-0.000255732 -0.000135355 -1.41881e-19
-0.000167361 0.000128468 -2.30405e-20
-0.000203514 -9.33556e-05 -6.30583e-20
-0.000392575 -0.000214083 -1.74623e-19
-3.50571e-05 0.000187736 4.85064e-21
-0.00082516 0.000825287 -4.24431e-20
-3.4253e-05 0.000334794 6.0633e-21
5.94262e-05 -0.000318979 -1.60071e-19
6.06246e-05 -0.00062433 9.94381e-20
2.74333e-05 0.000519705 -5.57823e-20
7.92685e-05 0.000171346 7.88229e-20
8.42953e-05 -0.000144403 3.46821e-19
-0.000300897 -0.000155247 -1.1399e-19
-0.000292967 0.000166108 -1.94026e-20
-0.000523506 9.99754e-05 -8.24609e-20
-0.00051656 -8.90485e-05 -5.57823e-20
0.000517518 0.000361884 7.03343e-20
0.000702102 -0.000385122 5.16593e-19
0.000191891 0.000129669 1.60071e-19
0.000183575 9.8235e-06 1.46732e-19
0.000280892 0.000168064 2.26767e-19
1.05655e-05 0.000293433 -1.94026e-20
1.86219e-05 -0.00027464 -1.64922e-19
-0.000440794 0.00031936 2.78912e-20
0.000280657 -0.000117858 -1.45519e-20
-3.20713e-05 -0.000293674 -1.03076e-19
0.000257435 0.000228245 3.0074e-19
-0.000192732 1.70354e-06 -1.75836e-19
-0.000183586 2.12466e-06 1.21266e-20
0.000244159 -0.000170523 7.39722e-20
-0.000195663 0.000181206 1.01863e-19
0.000305455 0.000528979 -2.91038e-20
-0.000347351 -0.000601638 -1.916e-19
-6.52602e-05 -0.000209885 -3.35907e-19
-0.000256962 -0.000151895 -1.21266e-19
-2.77769e-05 -0.000341064 -1.77048e-19
0.000415287 -0.000724609 2.55568e-19
0.000728313 -0.00033655 9.79223e-20
4.07368e-05 0.000219226 7.15469e-20
4.66346e-05 -0.000187558 3.4197e-19
-3.91578e-05 0.000357851 8.00355e-20
8.33061e-05 0.000327769 2.78912e-20
0.000345153 0.000218276 1.70985e-19
0.000250333 0.000180339 2.25555e-19
0.000278238 -8.57353e-05 1.01863e-19
-0.000675792 3.0276e-08 -8.97368e-20
-0.000693923 7.3659e-08 -2.18279e-20
5.41429e-05 -0.000161755 -1.61284e-19
-0.000263667 -0.000157411 -1.57646e-19
0.000193628 0.000271434 2.42532e-19
0.000218574 -0.000236826 2.48595e-19
8.90632e-05 0.000207997 -1.57646e-20
4.50192e-05 6.33989e-05 -4.12304e-20
0.000793317 -0.000793455 -5.94203e-20
-0.000228187 7.31072e-05 -5.21444e-20
-0.000218923 -6.95889e-05 -4.24431e-20
-3.83093e-05 0.000167297 -5.45697e-20
0.000345358 -0.000166387 7.27596e-20
-0.000250785 0.000138119 5.09317e-20
-0.000333846 -4.40091e-05 -1.66134e-19
-0.00032347 5.11694e-05 -1.21266e-20
-0.000195466 0.000100253 9.70128e-20
8.01953e-05 0.000415134 8.97368e-20
9.49352e-05 -0.000427701 5.04466e-19
0.000164424 0.000672231 -8.00355e-20
-0.000135836 -0.000816477 -1.40669e-19
-7.51501e-05 0.00149571 -1.17628e-19
-0.00143911 8.43079e-05 -1.15203e-19
0.000212274 0.000147135 1.75836e-19
0.000208093 -2.6583e-05 7.27596e-20
-2.31981e-05 -5.59799e-05 -1.62496e-19
0.000778386 -0.00095332 3.11654e-19
0.000991981 -0.00076261 1.75532e-19
0.000329491 -0.00079544 4.1473e-19
0.000282285 0.000680963 6.54836e-20
-0.000232965 0.000153317 5.21444e-20
0.000212229 -0.00022511 1.28542e-19
0.000219964 0.000196149 1.56433e-19
0.000223572 -0.000114158 4.36557e-20
0.000159143 -0.000154648 3.27418e-20
0.000224234 0.00028546 2.38894e-19
-8.75114e-06 -0.000671994 1.60071e-19
3.07794e-05 0.000657139 -3.72286e-19
0.000703257 2.77685e-05 2.26767e-19
0.000184404 0.000227747 2.77699e-19
7.91682e-05 0.00071483 -2.74061e-19
-0.00067765 -8.29377e-05 2.97102e-20
0.000259932 0.000156333 1.61284e-19
0.000294811 -4.49865e-05 2.49808e-19
0.000252332 0.0001827 2.32831e-19
0.000281663 -8.9834e-05 1.85537e-19
-0.000810919 0.00101366 -3.94114e-20
-0.000986343 0.000812462 -1.24298e-19
0.000236127 0.000207742 1.97664e-19
0.000238139 -0.000124492 8.48862e-21
0.000124009 0.000421177 -1.11565e-19
-8.15619e-05 -0.000479276 1.26117e-19
0.000209135 7.58098e-05 1.96451e-19
0.000213238 9.46228e-05 2.30405e-19
0.000262515 0.000314434 2.84975e-19
0.000322978 -0.000301838 5.05679e-19
-0.000198286 -4.8163e-05 -2.00089e-19
-0.000182916 5.3252e-05 1.69772e-20
-0.000669595 1.5912e-05 -8.00355e-20
0.00031646 0.000526123 1.45519e-20
0.000244854 0.000537721 1.77048e-19
0.000368215 0.000423481 1.38243e-19
0.000300346 -0.00058071 5.72375e-19
0.000446378 -0.000445566 4.43833e-19
-0.000324689 -0.00060752 -2.52233e-19
-0.000689014 -1.21486e-05 6.30583e-20
0.000319908 -0.000132635 9.94381e-20
0.00111612 -0.00014728 2.61934e-19
0.00142108 0.00018679 2.42532e-20
0.000552878 0.000228879 1.45519e-20
0.00049199 0.000128133 1.98876e-19
0.000367817 4.59357e-05 2.11003e-19
0.000478774 0.000189397 1.1399e-19
0.0007081 -6.52807e-06 2.52233e-19
0.000663485 -0.000212899 3.71074e-19
0.000479814 0.000144703 4.28069e-19
0.000384255 0.000247005 8.24609e-20
0.000399387 0.000242287 2.18279e-20
0.00050739 -0.000194107 4.95978e-19
0.000512101 -0.00019264 6.03905e-19
VECTORS seepage_velocity_TPM float
-3.26447e-05 -9.79285e-05 -1.09471e-20
-1.00812e-05 8.03915e-05 5.11136e-21
1.59976e-05 -8.04429e-05 -1.82537e-20
-7.29854e-05 -1.3883e-05 -1.27722e-20
-9.16571e-05 -2.41644e-05 1.45943e-21
-1.20819e-05 0.000103636 2.26369e-20
1.79999e-05 -0.000103717 -1.0953e-20
-9.84758e-05 2.47326e-05 -3.64884e-21
-3.08415e-05 4.96772e-05 6.20586e-21
-5.17275e-05 -0.000120191 8.0223e-21
-4.95817e-05 0.000128575 -1.16691e-20
0.000134558 5.47978e-05 -7.2935e-22
7.12522e-05 6.90134e-05 2.26397e-20
-6.56601e-05 -6.87823e-05 -7.66867e-21
-3.24623e-05 -6.79516e-05 -3.02894e-20
-1.00314e-05 -6.44233e-05 -3.21225e-20
1.04424e-05 0.000105956 3.94304e-20
-4.70534e-06 -0.000106012 -1.20481e-20
9.32845e-05 9.371e-06 -9.85602e-21
-3.89421e-05 -0.00014507 3.64793e-21
-3.93147e-05 0.00014836 -6.56592e-21
0.000161692 3.73295e-05 -6.56579e-21
-6.25696e-05 -6.48489e-05 -1.24059e-20
-0.000100929 2.36384e-05 -6.20152e-21
-7.18808e-05 -6.53468e-05 -1.38678e-20
4.32587e-05 9.56149e-05 -2.26251e-20
-6.92528e-05 1.30697e-05 8.39363e-21
-0.000104789 -0.000218495 7.65666e-21
-6.01429e-05 -3.04302e-05 -2.55545e-21
0.000232827 0.000110155 1.82228e-22
-3.26708e-07 9.90875e-05 4.30917e-20
6.10762e-06 -9.91159e-05 6.20825e-21
-0.000227471 -0.000115577 -3.87199e-20
-0.000228267 0.000111214 2.92239e-21
-0.000148202 4.84701e-05 1.09366e-21
-5.26964e-05 -4.26497e-05 -1.7884e-20
-9.23144e-05 -4.64541e-05 -2.84819e-20
-9.66625e-05 4.72847e-05 -1.31461e-20
-1.59872e-05 -3.2384e-05 -2.84746e-20
6.51203e-05 6.64742e-05 -2.48136e-20
-9.4951e-05 6.34729e-05 -1.45954e-21
-2.79728e-05 4.56029e-07 1.46001e-21
-6.14152e-05 6.71066e-05 -8.75677e-21
-3.3161e-05 9.74522e-05 -1.82426e-21
1.50903e-05 6.4419e-05 -2.92042e-20
-9.61533e-05 6.33555e-05 -1.67799e-20
-0.000237617 -0.000237617 6.5548e-21
0.000246143 0.000246143 -1.09231e-21
2.18521e-05 5.03007e-05 2.73818e-20
0.000247183 0.000261274 9.10867e-22
-0.000252466 -0.000238469 5.10107e-21
0.000114206 -1.18055e-05 4.41937e-20
0.000114123 1.17409e-05 -3.68891e-20
8.02817e-05 1.41954e-05 -1.31438e-20
0.000108819 -4.96878e-05 3.57927e-20
0.000108726 4.96933e-05 -3.94453e-20
4.09733e-05 6.68698e-05 -3.8686e-20
-9.57142e-05 -0.000179424 -2.48362e-20
-9.60029e-05 0.000180136 6.57443e-21
8.70789e-05 -3.32455e-05 1.42404e-20
8.6942e-05 3.30513e-05 -2.8116e-20
-0.000130225 5.69824e-05 9.11536e-21
-0.000103757 0.000163741 -8.76611e-21
0.000110355 -0.000165085 2.33757e-20
6.35799e-05 -6.56476e-05 -2.91945e-21
-0.000115133 0.000220698 3.64603e-22
-0.000220662 0.000116903 9.29664e-21
1.28724e-05 6.39426e-05 -1.4601e-20
-7.26264e-06 -6.3772e-05 -2.22655e-20
0.000193841 -8.02915e-05 3.87291e-20
0.000193898 8.03148e-05 -5.33437e-20
1.37899e-05 -2.03282e-05 -1.71579e-20
8.86014e-05 3.05796e-05 -1.75246e-20
8.87916e-05 -3.06229e-05 5.11112e-21
-4.66303e-05 -3.20695e-05 -1.20464e-20
-1.61917e-05 -4.94603e-05 5.84178e-21
-0.000136983 -2.92267e-05 4.01133e-21
-0.000118243 -1.73047e-05 -1.38627e-20
-8.63e-05 -7.29026e-05 -2.77473e-20
-0.000100936 0.000174821 1.31499e-20
-0.000100693 -0.000174397 -1.97247e-20
-0.000103957 -0.000116597 -1.82415e-21
-7.62024e-05 4.5021e-05 1.82432e-21
9.18755e-05 3.33632e-05 -2.48237e-20
-1.57429e-05 0.00018516 -2.95295e-25
2.01357e-05 -0.000187037 -1.68021e-20
-8.9292e-05 8.02712e-05 -7.66757e-21
9.23748e-06 8.53623e-05 2.11743e-20
-3.13144e-06 -8.53509e-05 -4.74619e-21
7.81309e-05 -1.30217e-05 7.3032e-21
7.73071e-05 1.21798e-05 -2.26402e-20
0.000137509 -9.44757e-05 6.2011e-21
0.000110831 1.81687e-05 -1.35041e-20
8.25614e-05 -4.11467e-05 1.20518e-20
8.2132e-05 4.12221e-05 -4.23634e-20
9.2981e-05 -3.40362e-05 9.85613e-21
4.07955e-05 -9.49859e-05 4.37901e-21
7.44005e-05 -3.25848e-05 1.46069e-20
7.32725e-05 3.1883e-05 -1.78934e-20
-7.99472e-05 3.65192e-05 1.64239e-20
4.5433e-05 2.80331e-05 -2.99372e-20
-9.57776e-05 -6.68708e-05 -1.27699e-20
-3.41643e-05 8.10168e-06 -2.15391e-20
-8.76515e-06 1.94705e-05 -1.38734e-20
0.000114496 1.62126e-05 1.09465e-21
-7.82324e-05 4.70498e-05 2.55515e-21
-8.25309e-05 -3.84591e-05 -1.8248e-20
-6.32536e-05 -7.92118e-05 -3.28301e-21
-7.30965e-05 -4.8999e-05 -1.20416e-20
1.64248e-06 -8.78115e-05 -1.02199e-20
4.43138e-06 8.78407e-05 1.24096e-20
0.000135926 -5.36059e-05 -2.1875e-21
-4.65319e-05 3.18082e-05 -1.27764e-20
6.85301e-05 -9.6838e-05 1.9337e-20
6.88594e-05 9.77352e-05 -1.16749e-20
-7.60638e-05 4.50384e-05 1.27742e-20
-3.01164e-05 4.89659e-05 6.57161e-21
-3.08143e-05 -5.07709e-05 -4.01595e-20
-1.65975e-05 -9.10931e-05 3.28342e-21
-7.12229e-05 6.84423e-05 1.8246e-21
1.48498e-05 -0.000127601 -1.16703e-20
2.13324e-05 0.000130705 1.82324e-21
0.000144511 -6.89411e-06 -1.05766e-20
0.000140881 9.38632e-05 -7.29613e-22
9.74423e-05 -5.66622e-05 2.55357e-21
0.000127666 -0.000221159 2.92243e-20
-0.000127341 0.000220564 1.02284e-20
0.00011153 -1.9873e-05 9.85211e-21
1.96133e-05 4.94073e-05 -4.38029e-20
8.13156e-05 -1.54e-05 -1.46024e-21
-1.56285e-05 9.23408e-05 -1.82405e-21
-2.36454e-05 5.17216e-05 3.65118e-21
2.8181e-05 -5.15236e-05 -1.35082e-20
4.6379e-05 -2.88743e-05 -1.82543e-21
3.47347e-05 -1.04012e-05 -2.59224e-20
-1.41327e-05 -4.96482e-05 -2.66446e-20
6.04184e-05 5.66797e-07 4.74818e-21
9.56135e-05 6.11639e-05 -6.56694e-21
-3.24503e-05 -1.03904e-05 -1.35076e-20
9.57489e-05 6.24519e-05 -2.04336e-20
-0.000100731 0.000125245 -1.67772e-20
-5.23946e-05 4.06639e-05 -1.78839e-20
3.96832e-05 -0.000141776 -1.34974e-20
4.17938e-05 0.000141727 -5.83679e-21
0.000157734 -3.61764e-05 -5.10726e-21
9.77462e-05 -6.48027e-05 5.10864e-21
3.70447e-06 0.000102409 -1.09483e-21
2.36224e-06 -0.000102263 4.7444e-21
7.75016e-05 -0.000129809 -1.82367e-21
7.62866e-05 0.000124392 -1.45888e-21
4.94087e-05 -1.75884e-05 1.6435e-20
4.96014e-05 1.69648e-05 -1.38781e-20
5.45526e-05 3.41256e-05 -4.34403e-20
3.29167e-05 4.63497e-05 9.49247e-21
-7.32606e-05 -4.41974e-05 -1.05853e-20
-0.000146276 -0.000115369 4.19319e-21
2.30128e-05 9.46499e-05 -1.45914e-21
9.7477e-05 3.27947e-05 -4.30929e-20
9.76657e-05 -3.29384e-05 1.97204e-20
8.84429e-05 -3.46592e-05 5.47652e-21
8.82768e-05 3.44393e-05 -4.0162e-20
-4.46018e-05 -0.000430984 1.07512e-20
0.00044258 6.8109e-05 5.64886e-21
2.30183e-05 -9.24364e-05 9.12151e-21
0.000134073 -8.88398e-05 2.92259e-20
0.000134003 8.9048e-05 -7.16035e-20
9.03159e-05 4.72099e-05 -1.56951e-20
-0.00018266 -1.16229e-05 8.02145e-21
0.000110989 -2.02089e-05 -2.55485e-21
-3.85793e-06 7.87707e-05 1.31404e-20
9.63079e-06 -7.91336e-05 3.6499e-21
-6.51935e-05 9.81938e-05 -1.20379e-20
3.28998e-05 1.07109e-05 -3.28604e-21
9.06925e-05 -4.74495e-05 2.1899e-21
-1.35088e-05 -2.35083e-05 -2.81092e-20
-6.63682e-05 5.45246e-05 2.77532e-20
7.24814e-05 -5.44336e-05 -1.24154e-20
5.42559e-05 -3.35406e-05 -1.61292e-25
-5.35781e-05 -3.65301e-05 -2.9566e-20
-9.42036e-05 -6.06643e-05 -1.86039e-20
1.55328e-05 2.16752e-05 -3.10328e-20
-3.09173e-05 6.64192e-05 1.20429e-20
-1.62276e-05 -9.21636e-05 -5.47304e-21
7.7334e-05 3.60179e-05 -1.8252e-20
2.37093e-05 9.29769e-05 -7.29951e-22
-2.89273e-05 -4.49995e-05 3.65112e-22
-0.000115855 0.00021192 -1.27529e-21
-0.000207973 0.000118099 -2.00412e-21
7.75656e-05 -3.62219e-05 1.24114e-20
9.38729e-05 -1.08911e-05 3.65139e-22
0.000196334 8.61651e-05 -5.26152e-20
0.000196244 -8.60619e-05 3.79999e-20
1.97074e-05 -5.04076e-05 -1.05858e-20
-0.000128987 -9.33228e-05 -3.65201e-20
-0.000131945 9.1023e-05 -1.16864e-20
-5.49674e-05 -2.43827e-05 6.20455e-21
-1.15473e-05 2.02917e-05 -6.57102e-21
0.00012512 0.000153142 -1.27568e-21
-0.000139787 -0.000115027 1.2757e-20
0.000124529 -0.000170806 6.1978e-21
0.000126548 0.000172873 2.91684e-21
0.000192914 -0.000106303 -1.45896e-21
1.5295e-05 -1.80326e-05 -1.09529e-21
-1.2763e-05 -0.000190479 1.05699e-20
0.000204316 1.48348e-05 2.18698e-21
0.000105154 0.000138386 3.35993e-20
-9.92584e-05 -0.000137524 -7.30424e-21
-6.35127e-05 -5.11993e-05 -1.82534e-20
-2.74469e-05 1.09342e-06 -1.5697e-20
7.36558e-05 -0.000101152 -8.02441e-21
7.41053e-05 0.000102773 -1.1672e-20
-6.27893e-05 1.83154e-05 1.09494e-20
3.87614e-05 -6.5271e-05 1.45989e-21
0.000102784 -5.19709e-05 1.3881e-20
0.000102572 5.2012e-05 -4.67572e-20
-7.67041e-05 -4.11279e-05 -2.08078e-20
-5.34087e-05 3.59324e-05 -4.74501e-21
-6.13367e-05 -2.90184e-05 -2.19005e-20
-0.000116808 -6.56722e-05 -7.65872e-21
-1.44325e-05 5.33934e-05 -1.46016e-21
-0.000243593 0.000243593 3.64077e-22
-1.48252e-05 9.44759e-05 8.75737e-21
2.16717e-05 -9.54485e-05 1.35015e-20
2.0921e-05 -0.000185989 2.19127e-20
-1.51376e-05 0.000185915 5.77035e-20
5.83481e-05 -2.92613e-05 1.93592e-20
5.8295e-05 2.82916e-05 -2.95869e-20
-9.14895e-05 4.8745e-05 -3.24929e-20
-9.04656e-05 -4.71901e-05 -3.2127e-20
-0.000160225 -2.9236e-05 -2.33729e-20
-0.000157685 2.98496e-05 -3.7981e-20
0.000185842 8.67706e-05 -6.94165e-20
0.000185836 -8.66625e-05 7.16087e-20
5.89846e-05 5.45513e-06 -2.5559e-21
5.90774e-05 -5.09789e-06 -1.24151e-20
9.38053e-05 3.30593e-05 -2.0074e-20
-3.13859e-06 8.37104e-05 1.05843e-20
9.15994e-06 -8.1871e-05 8.39479e-21
-0.000132618 9.18862e-05 -1.49527e-20
9.35062e-05 -3.39433e-05 6.2045e-21
-7.72219e-06 -8.81429e-05 -1.67888e-20
8.01528e-05 4.86052e-05 -1.45979e-20
-5.87999e-05 -1.83112e-06 -8.03234e-21
-5.81227e-05 4.63231e-07 -1.49689e-20
7.99471e-05 -4.93171e-05 7.66377e-21
-6.04991e-05 5.33155e-05 1.13175e-20
0.000104576 0.000181155 1.53418e-20
-0.000102862 -0.000178161 -2.11865e-20
-1.58885e-05 -6.17322e-05 3.65082e-21
-7.70848e-05 -4.64193e-05 -2.8469e-20
-8.64353e-06 -0.000103166 -4.16281e-20
0.000129831 -0.000221598 1.41227e-20
0.000223905 -0.000104917 1.71299e-20
4.91902e-05 -4.06298e-05 1.38799e-20
4.85306e-05 3.97753e-05 -3.57955e-20
-1.29109e-05 0.000108072 -4.7473e-21
1.3075e-05 8.50683e-05 2.55484e-21
0.000115645 4.93577e-05 -1.8246e-21
8.87187e-05 -2.01044e-05 3.03076e-20
8.86206e-05 1.97129e-05 -2.1544e-20
-0.000209062 -1.59007e-09 -1.46113e-21
-0.000209123 9.32435e-10 -5.99055e-20
2.02705e-05 -4.71495e-05 9.85648e-21
-7.9177e-05 -4.81418e-05 -2.51826e-20
8.19361e-05 4.93683e-05 -3.87141e-20
8.23818e-05 -4.93896e-05 1.46072e-21
2.25581e-05 6.0418e-05 1.56978e-20
1.01838e-05 1.66409e-05 5.47586e-21
0.000242675 -0.000242675 8.55673e-21
-6.86988e-05 2.175e-05 -1.09542e-21
-6.93785e-05 -2.32884e-05 -1.82569e-20
-1.52391e-05 4.83325e-05 5.84039e-21
0.000113501 -5.01607e-05 1.53272e-20
-7.78321e-05 3.96849e-05 -2.51894e-20
-0.000100463 -1.34653e-05 -1.89858e-20
-0.000100935 1.31664e-05 -2.15414e-20
-6.04286e-05 2.90449e-05 1.20455e-20
5.77764e-05 8.57223e-05 -5.47951e-20
5.82194e-05 -8.55001e-05 7.306e-21
4.31806e-05 0.000243524 3.28779e-20
-3.85244e-05 -0.000243527 2.92255e-21
-2.19009e-05 0.000439532 -1.82215e-21
-0.000429362 2.24846e-05 -3.64202e-22
6.66017e-05 -4.74445e-06 3.65065e-22
6.69597e-05 3.99531e-06 -1.2049e-20
-2.88805e-06 -1.54813e-05 1.82551e-21
0.000238396 -0.000289937 1.3298e-20
0.000303219 -0.000233424 1.61217e-20
7.95508e-05 -0.00019207 1.75381e-20
7.96064e-05 0.000192204 3.654e-21
-7.31334e-05 4.36795e-05 -2.22663e-20
6.98532e-05 -6.65878e-05 9.12401e-21
7.09473e-05 -2.93431e-05 1.8985e-20
7.08633e-05 2.89363e-05 -1.82547e-20
5.26657e-05 -4.37765e-05 8.03057e-21
6.93489e-05 6.72273e-05 -2.62777e-20
4.7237e-07 -0.000204414 -1.0574e-20
7.97443e-06 0.000188164 2.9168e-21
0.000218263 1.80789e-06 -6.56335e-21
5.28585e-05 4.33222e-05 -1.78859e-20
2.40422e-05 0.000207264 -2.5514e-21
-0.000202567 -2.73313e-05 6.92555e-21
8.87786e-05 -9.44468e-06 1.27808e-20
8.91637e-05 8.28398e-06 -2.00839e-20
8.64557e-05 -1.73893e-05 3.03103e-20
8.65714e-05 1.72848e-05 -2.26415e-20
-0.000239715 0.000296696 5.46489e-22
-0.000294227 0.00023969 -4.55404e-21
7.7595e-05 3.37687e-05 -1.89837e-20
7.77864e-05 -3.41925e-05 2.26343e-20
2.70013e-05 0.000142942 4.01755e-20
-2.21905e-05 -0.000142019 -8.76553e-21
6.68828e-05 2.8025e-05 5.32587e-26
6.6377e-05 -2.78573e-05 -1.13209e-20
0.000101733 -6.14709e-05 -2.92192e-21
0.000101509 6.15722e-05 -4.67537e-20
-5.94058e-05 -1.47208e-05 -1.02218e-20
-5.81944e-05 1.38004e-05 -2.92058e-20
-9.48739e-05 -0.000180225 -1.46107e-20
9.35162e-05 -0.000111799 6.57633e-21
0.000112118 -9.45846e-05 1.38834e-20
9.33151e-05 0.000112202 -3.72659e-20
0.000112158 9.47641e-05 -5.33414e-20
0.000100657 0.000182159 2.04548e-20
-0.000207749 3.33596e-06 -2.41061e-20
-0.00020754 -3.90319e-06 -5.18658e-20
0.000150785 6.24611e-05 4.09179e-20
0.000362807 4.77587e-05 5.2626e-20
0.000362912 -4.77726e-05 -1.04521e-19
0.000150748 -6.24455e-05 3.72643e-20
0.000189268 4.1153e-06 5.47985e-20
0.000134048 4.06582e-05 4.16402e-20
0.000177601 -4.99593e-05 5.04183e-20
0.000189258 -4.05794e-06 -2.92259e-20
0.000177593 5.00049e-05 -4.67648e-20
0.000134058 -4.05875e-05 -1.86285e-20
0.000140603 -3.97207e-05 4.01802e-20
0.000139753 -3.99981e-05 5.62602e-20
0.00014061 3.97515e-05 -5.44253e-20
0.000139701 4.00472e-05 -6.86811e-20
-1.29525e-05 8.19807e-05 -2.92024e-21
-1.37828e-05 -8.23871e-05 1.28858e-19
-7.38655e-05 1.34919e-05 2.70035e-20
-9.4377e-05 2.45512e-05 5.47312e-21
-1.50626e-05 0.000106506 4.01597e-21
-1.58789e-05 -0.000106746 5.25734e-20
-9.44455e-05 -2.42649e-05 1.27715e-20
-3.1696e-05 -4.96941e-05 8.24967e-20
-5.2988e-05 -0.000119387 7.03796e-20
5.43789e-05 0.000123007 -2.26091e-20
0.000124844 5.67825e-05 6.92855e-21
6.91101e-05 -7.1801e-05 1.2817e-19
7.07841e-05 7.07821e-05 2.70207e-20
-7.58884e-05 4.53673e-05 5.21885e-20
7.92217e-06 -0.000108969 1.00767e-19
8.6418e-06 0.000108575 1.78891e-20
7.71027e-05 1.20595e-05 -9.48821e-21
-3.98009e-05 -0.000144834 5.28879e-20
3.92138e-05 0.000146269 -3.97577e-20
0.000151449 4.04687e-05 8.75448e-21
3.63787e-05 9.80979e-05 -7.66235e-21
3.75968e-05 -9.66412e-05 3.86758e-20
-6.9476e-05 -1.42073e-05 4.59799e-20
-0.000103636 -0.000215387 6.56293e-20
-6.13905e-05 3.08869e-05 5.9495e-20
-2.32986e-06 0.000101578 1.31462e-20
-3.23356e-06 -0.000101853 2.66569e-20
-0.000229381 -0.00011093 9.57217e-20
-0.000228365 0.000115019 2.92252e-20
-4.95972e-05 6.70513e-05 6.53223e-20
-5.99372e-05 7.0974e-05 5.3999e-20
-0.000138361 4.46678e-05 -3.5013e-20
-9.78098e-05 -4.71295e-05 4.01694e-20
-9.35914e-05 4.58825e-05 5.76951e-20
-1.60388e-05 3.28921e-05 6.4607e-20
5.8156e-05 -6.92296e-05 3.35653e-20
-2.88536e-05 -9.81995e-07 7.3362e-20
-9.95672e-05 6.50365e-05 2.77275e-20
-6.54594e-05 -6.6243e-05 4.04978e-20
-0.000114979 -1.80117e-05 -6.20153e-21
-0.000104879 2.1099e-05 7.29854e-22
-3.60708e-05 -9.80296e-05 2.11623e-20
1.05655e-05 -6.684e-05 8.72355e-20
1.1417e-05 6.63947e-05 -3.64997e-21
-3.25705e-05 9.8621e-05 3.83119e-20
6.02097e-05 7.00423e-05 1.53242e-20
-0.000232737 -0.000232707 1.23898e-20
-0.000229165 0.000229175 -5.70307e-20
2.05772e-05 -5.34116e-05 1.01489e-19
2.06436e-05 5.17759e-05 6.20616e-21
3.51955e-05 6.93003e-05 -7.29773e-22
-0.000229835 0.000250105 -1.24445e-19
-0.000242442 -0.000233182 -2.71491e-20
0.000119582 -2.18771e-05 7.23003e-20
0.000118571 2.37079e-05 3.98033e-20
5.6254e-05 1.97899e-05 6.20482e-21
0.000112028 -7.49944e-05 5.76945e-20
0.000111192 7.55975e-05 5.07557e-20
3.54077e-05 -6.91431e-05 4.34249e-20
-9.70836e-05 -0.000179313 9.49731e-20
-9.70076e-05 0.000177926 -1.46024e-21
8.22304e-05 -4.72948e-05 5.07429e-20
8.22685e-05 4.80735e-05 5.18391e-20
-0.000108475 -0.000168278 4.01836e-21
-0.000108111 0.000168285 -3.68884e-20
0.000112843 0.00021299 -4.1378e-20
0.000213862 0.000112937 -1.34894e-20
9.38192e-06 6.59634e-05 -7.6649e-21
8.52313e-06 -6.64022e-05 1.0548e-19
0.00023455 -9.71348e-05 1.19124e-19
0.000231884 9.60504e-05 -8.03727e-21
-9.5173e-05 -6.63035e-05 4.88889e-20
7.79384e-05 4.28168e-05 3.17548e-20
7.79621e-05 -4.19678e-05 2.48191e-20
-8.74375e-05 7.29401e-05 1.64283e-20
-0.000133449 -3.01471e-05 -3.31898e-20
-0.000100638 0.000174323 5.62664e-20
-0.000101099 -0.000175072 4.38504e-20
-7.51e-05 -4.63811e-05 3.9773e-20
7.5418e-05 4.06794e-05 1.49641e-20
-0.000106667 -0.000116016 3.68375e-20
-1.8402e-05 -0.000190209 -4.38315e-21
-1.76656e-05 0.000190294 -2.41066e-20
-9.04471e-05 -8.0086e-05 9.01858e-20
7.36102e-06 8.70091e-05 8.03099e-21
6.63185e-06 -8.69099e-05 9.38152e-20
5.6078e-05 -1.96881e-05 8.76059e-21
5.51101e-05 1.90153e-05 1.53311e-20
0.000125928 -9.60885e-05 6.20142e-21
9.4811e-05 2.09522e-05 -5.47346e-21
6.75038e-05 6.39273e-05 3.17621e-20
6.80792e-05 -6.34005e-05 2.59208e-20
7.66547e-05 -4.09056e-05 1.93428e-20
5.11374e-05 -4.56154e-05 1.89826e-20
4.97529e-05 4.52083e-05 3.10299e-20
-8.13678e-05 -3.63172e-05 6.49637e-20
-8.53762e-05 6.7241e-05 1.3497e-20
4.30671e-05 3.30823e-05 -2.15371e-20
4.17473e-05 -3.20788e-05 6.78914e-20
-1.3098e-05 -2.22578e-05 7.66521e-20
-1.23074e-05 2.17657e-05 -2.22686e-20
0.00010167 1.7319e-05 5.10684e-21
-0.000143331 0.000139702 -7.74803e-20
-7.92395e-05 -4.73108e-05 4.59913e-20
-8.19287e-05 3.88362e-05 4.85379e-20
-0.000194907 3.1898e-05 -6.18016e-20
-7.59291e-05 4.63463e-05 5.72873e-20
8.46205e-07 -8.99017e-05 1.09495e-19
2.12473e-06 8.97111e-05 -9.48895e-21
-6.6889e-05 -8.01613e-05 3.39252e-20
0.000124278 -5.3347e-05 -2.33382e-20
-4.72807e-05 -3.2462e-05 3.79624e-20
-4.7394e-05 3.51166e-05 6.42456e-20
6.16212e-05 -9.80349e-05 2.88194e-20
-6.48999e-05 0.000104838 3.57505e-20
-7.79988e-05 -4.61658e-05 2.73719e-20
-3.1474e-05 -4.94774e-05 9.08999e-20
-3.21678e-05 5.28923e-05 3.94247e-20
1.83759e-05 9.43628e-05 -1.16741e-20
-7.09377e-05 -6.73544e-05 2.99232e-20
1.09718e-05 -0.000127096 5.61618e-20
-1.65741e-05 0.000130931 -3.4646e-20
0.000132657 -1.40955e-05 -2.33396e-20
8.69684e-05 -5.92285e-05 1.31319e-20
-0.000130525 0.000226108 -4.45664e-20
-0.00013034 -0.000225781 5.18975e-20
-9.34863e-05 -5.62715e-05 2.18876e-20
9.81878e-05 -2.12175e-05 1.53221e-20
-0.000148302 -0.0001176 4.88577e-20
1.49165e-05 -5.23914e-05 5.58378e-20
1.54905e-05 5.30859e-05 -1.56947e-20
5.76744e-05 -2.0879e-05 5.47463e-21
-1.88888e-05 -9.21774e-05 3.02789e-20
-2.79885e-05 -5.45378e-05 7.77577e-20
-2.71921e-05 5.40311e-05 -1.31433e-20
8.81972e-05 0.000124105 2.07898e-20
0.000130893 8.83125e-05 2.22482e-20
-0.000186976 -8.37178e-06 -9.29815e-21
3.21702e-05 -6.15805e-06 -1.7158e-20
3.06989e-05 7.6049e-06 7.00803e-20
2.67173e-05 1.64372e-06 3.28549e-21
-3.33898e-05 9.17517e-06 5.58478e-20
-3.07814e-05 -8.88729e-06 4.41722e-20
-5.41369e-05 -4.05617e-05 1.35033e-20
3.61519e-05 -0.000140643 2.6263e-20
-3.30949e-05 0.000140362 1.86024e-20
0.000143657 -3.72628e-05 4.74185e-21
8.73982e-05 -6.6652e-05 2.29842e-20
1.4941e-06 0.000102381 -1.35021e-20
1.95826e-07 -0.000102936 7.40778e-20
-6.70304e-05 0.000134178 -1.2034e-20
6.97874e-05 -0.000126231 -1.75033e-20
1.01465e-05 2.67799e-05 2.00785e-20
9.27928e-06 -2.71238e-05 -7.66627e-21
4.95069e-05 -3.72626e-05 7.37234e-20
5.0562e-05 3.80949e-05 -6.93514e-21
3.37196e-05 -4.87167e-05 1.0185e-19
3.22343e-05 4.77427e-05 -1.09533e-21
-7.29874e-05 4.46672e-05 6.20495e-20
1.82287e-05 -9.57189e-05 4.41428e-20
9.27055e-05 4.78204e-05 5.62271e-20
9.33734e-05 -4.69722e-05 4.70977e-20
8.05678e-05 -5.21126e-05 2.33554e-20
7.78942e-05 -4.28174e-05 3.21217e-20
7.78865e-05 4.35371e-05 5.14702e-20
-4.52538e-05 -0.000420132 5.95699e-20
6.22404e-05 9.69855e-05 4.74245e-20
-0.000432897 5.07803e-05 -2.07696e-20
-1.60175e-05 9.63619e-05 7.29639e-21
0.000149394 -0.000134976 5.62488e-20
0.000147761 0.000134856 4.30988e-20
8.12103e-05 5.28628e-05 4.26975e-20
9.49879e-05 -2.30987e-05 3.64907e-21
8.85227e-05 6.16986e-05 4.48682e-20
-6.03888e-06 -8.05355e-05 7.84734e-20
-5.51001e-06 8.05371e-05 2.04394e-20
-6.99659e-05 5.68411e-05 -1.82593e-21
-7.05035e-05 -5.73361e-05 2.99421e-20
1.40065e-05 2.41463e-05 -1.78876e-20
1.14887e-05 -2.44868e-05 9.01516e-20
-3.28859e-05 -6.70058e-05 6.78747e-20
1.89007e-05 9.29327e-05 -1.89737e-20
7.09606e-05 -4.38128e-05 3.13864e-20
7.14641e-05 4.44594e-05 4.34316e-20
8.89354e-05 6.75729e-05 5.47265e-20
-3.11122e-05 6.7664e-05 2.55449e-20
1.88942e-05 -9.4123e-05 4.41507e-20
0.0001136 0.000205831 -5.5952e-20
0.000208801 0.000113391 1.82253e-21
-0.00012966 9.7037e-05 -2.99046e-20
7.77038e-05 -1.36933e-05 1.20427e-20
0.000243069 -0.000117715 1.27874e-19
0.000240766 0.000117416 -1.46139e-21
-0.000132981 -9.07233e-05 1.24186e-20
-0.000130349 9.2863e-05 3.0676e-20
-5.51905e-05 2.36434e-05 4.92692e-20
-1.2917e-05 2.10518e-05 6.20579e-21
-1.30508e-05 -2.06782e-05 7.22687e-20
-0.000109094 0.000145717 -6.90797e-20
-0.000137011 -0.000117125 1.76801e-20
0.000117437 -0.000167772 -1.82356e-21
-0.000106679 0.000174428 -5.06795e-20
0.00017581 -0.000102424 -4.63027e-20
-0.000119739 -6.47475e-05 1.60462e-20
-1.44932e-05 -0.000187938 3.64542e-20
-0.000177982 1.6279e-06 -5.63197e-20
0.000103238 -0.000141645 9.86139e-20
0.00010538 0.00014157 3.725e-20
-6.39101e-05 5.05331e-05 5.18361e-20
-2.79908e-05 -2.0252e-06 9.6721e-20
-6.34599e-05 0.000103752 2.44365e-20
6.71173e-05 -0.000103315 5.47105e-21
-6.36635e-05 -1.88342e-05 5.54752e-20
0.000101778 -7.8862e-05 4.85717e-20
0.000100791 7.95106e-05 3.9442e-20
-7.82657e-05 4.11215e-05 7.73872e-20
-5.49957e-05 -3.70894e-05 1.53289e-20
-4.86488e-05 3.57058e-05 4.30682e-20
-6.28258e-05 2.91908e-05 3.6864e-20
-1.60009e-05 -5.43599e-05 5.58385e-20
-1.43035e-05 5.83127e-05 1.97087e-20
0.000241005 0.000240994 -4.62766e-20
-1.77229e-05 -9.527e-05 2.77304e-20
-1.61183e-05 9.61635e-05 -2.2866e-26
-1.83147e-05 -0.000190278 -2.92199e-20
-1.74919e-05 0.000190488 1.09559e-20
2.69949e-05 -5.0274e-05 -3.24931e-20
2.72934e-05 4.9134e-05 4.01603e-20
-9.24696e-05 -4.86377e-05 6.09714e-20
-9.08899e-05 4.69648e-05 9.12687e-20
-0.000161333 2.98448e-05 1.68008e-20
-0.000158913 -2.97071e-05 1.08103e-19
0.000213544 0.000118992 5.84462e-20
0.000216599 -0.000119259 1.08871e-19
5.75699e-05 -6.259e-07 -9.85759e-21
5.565e-05 2.16678e-06 5.76764e-20
8.41555e-05 3.93302e-05 1.86097e-20
-5.52811e-06 -8.40314e-05 6.60539e-20
7.23066e-05 -5.35867e-05 2.37168e-20
-4.85649e-06 8.48817e-05 2.00727e-20
8.30801e-05 -3.98864e-05 3.35702e-20
9.73654e-06 8.74687e-05 -6.56935e-21
7.30086e-05 5.44045e-05 4.12326e-20
-5.8403e-05 1.04762e-06 4.34428e-20
-6.01667e-05 -1.27611e-06 5.47638e-20
-6.21071e-05 -5.35571e-05 6.49819e-20
0.000105873 -0.000183428 1.10369e-19
0.000106474 0.000184433 2.26471e-20
-7.79338e-05 4.55786e-05 4.96374e-20
-1.11029e-05 0.000102692 -1.60669e-20
0.000122478 -0.000215779 -3.03476e-20
0.000212589 -0.000101004 -7.29037e-20
1.70695e-05 -6.26041e-05 -7.30394e-22
1.65897e-05 6.17345e-05 1.60652e-20
-1.45282e-05 -0.000107726 7.59572e-20
8.71746e-06 -8.65519e-05 9.08701e-20
0.000102762 5.39551e-05 3.28366e-20
8.47764e-05 -2.70276e-05 7.1917e-20
8.47527e-05 2.83425e-05 4.49058e-20
-0.0002103 -9.49608e-09 8.91721e-20
-0.000210108 2.43304e-08 7.6714e-20
-7.84773e-05 4.60022e-05 4.9632e-20
6.72411e-05 7.49699e-05 2.48286e-20
6.78402e-05 -7.44476e-05 4.2355e-20
2.14346e-05 6.17297e-05 2.70133e-20
2.11503e-05 -6.16424e-05 9.3812e-20
9.38412e-06 -1.69095e-05 7.62864e-20
1.04906e-05 1.8306e-05 -8.76111e-21
0.000233655 -0.000233672 -6.76877e-20
-6.96427e-05 2.38458e-05 3.4322e-20
-6.9948e-05 -2.16118e-05 9.45692e-20
-1.67734e-05 -4.95171e-05 6.78891e-20
-1.58559e-05 5.03914e-05 1.49655e-20
0.000100308 -5.38847e-05 3.39316e-20
-7.8696e-05 -3.95477e-05 3.79653e-20
-0.000101728 -1.3213e-05 3.17644e-20
-0.000101161 1.68316e-05 1.29977e-19
-6.16019e-05 -2.88405e-05 5.32913e-20
3.1147e-05 -0.00013259 1.97201e-20
3.08329e-05 0.000132516 1.82591e-20
4.25296e-05 0.0002494 1.68039e-20
4.13984e-05 -0.000248824 1.06685e-19
1.94625e-05 0.000417325 -1.48667e-19
0.000420652 2.91847e-05 -1.76713e-20
6.39827e-05 9.7201e-06 3.65188e-22
6.32755e-05 -8.03721e-06 6.02303e-20
0.000227949 -0.000283973 7.1059e-21
0.00027738 -0.000226918 -7.67033e-20
0.0001019 -0.000245918 1.6439e-19
0.000101198 0.000244226 3.50725e-20
-7.40773e-05 -4.35441e-05 6.93567e-21
6.82415e-05 3.69185e-05 1.89818e-20
6.76438e-05 -3.59326e-05 6.64333e-20
6.34703e-05 7.06209e-05 3.32075e-20
6.27692e-05 -7.00496e-05 4.01395e-20
-2.70286e-06 -0.000200263 8.38572e-20
-4.84149e-06 0.000184715 -3.93767e-20
0.000191675 -5.96678e-06 -1.89589e-20
4.84929e-05 4.86812e-05 9.12401e-21
4.75289e-05 -4.80098e-05 3.46697e-20
-2.00418e-05 0.000204286 -9.62379e-20
0.000201834 -1.47237e-05 -4.92177e-21
9.05309e-05 -1.3303e-05 6.60787e-20
9.07399e-05 1.48893e-05 1.71598e-20
8.61221e-05 -2.86083e-05 8.50698e-20
8.63267e-05 3.01962e-05 3.57813e-20
0.00023639 0.000290807 -1.33542e-19
0.000292107 0.000236617 -1.91295e-20
7.20279e-05 3.96362e-05 2.08055e-20
7.15498e-05 -3.87363e-05 3.94187e-20
2.48943e-05 -0.000146214 7.52453e-20
2.59266e-05 0.000146204 3.14088e-20
6.41261e-05 2.85827e-05 4.6368e-20
6.54562e-05 -2.52161e-05 6.57242e-21
0.00010004 -9.45546e-05 4.23572e-20
9.90887e-05 9.48285e-05 1.09546e-20
-5.93534e-05 -1.3824e-05 3.1394e-20
-6.33337e-05 1.54742e-05 7.15506e-20
9.2619e-05 0.000178557 4.74822e-20
0.000136733 0.000137752 5.69832e-20
9.35122e-05 -0.000179064 1.16877e-20
0.000137945 -0.000137973 4.52929e-20
9.87646e-05 -0.000185179 1.05936e-19
-0.00020909 -2.8866e-06 1.28588e-19
-0.000208525 3.88991e-06 7.01282e-20
0.000100829 0.000185884 3.79862e-20
0.000165983 -6.87632e-05 -3.65334e-22
0.000433956 -5.71131e-05 3.43478e-20
0.000439023 5.7784e-05 -7.31059e-21
0.000170212 7.04847e-05 -2.70345e-20
0.000214605 4.93291e-06 2.33767e-20
0.000146117 -4.03903e-05 1.78951e-20
0.00020154 6.55183e-05 2.33784e-20
0.000218283 -2.44827e-06 3.65279e-20
0.000204635 -6.58442e-05 6.72283e-20
0.000147664 4.42878e-05 5.29524e-20
0.000156221 -6.06232e-05 6.17219e-20
0.00015811 -6.00446e-05 7.23199e-20
0.000154443 6.16442e-05 4.67453e-20
0.000156339 6.10715e-05 4.60224e-20
-3.46162e-05 -9.77218e-05 -8.50144e-20
-1.39308e-05 8.20078e-05 9.49144e-21
1.34854e-05 -8.21613e-05 -5.87705e-20
-7.39332e-05 -1.36588e-05 -2.6274e-20
-9.23658e-05 -2.3809e-05 -2.55394e-20
-1.60233e-05 0.00010632 2.11754e-20
1.55949e-05 -0.000106685 -3.94292e-20
-9.91443e-05 2.47937e-05 -2.99188e-20
-3.17967e-05 4.98198e-05 5.11072e-21
-5.37912e-05 -0.000119684 -5.14178e-20
-5.20395e-05 0.000126738 -6.19912e-20
0.000124551 -5.39471e-05 1.85973e-20
6.8906e-05 7.16213e-05 -3.54182e-20
-6.98241e-05 -7.15562e-05 2.51958e-20
-3.4441e-05 -6.89194e-05 -8.02804e-20
-1.11898e-05 -6.60006e-05 -9.92796e-20
7.78079e-06 0.000108755 7.30204e-21
-8.31657e-06 -0.000109123 6.93704e-21
7.74676e-05 1.13566e-05 1.4595e-21
-4.14525e-05 -0.000143686 -4.01229e-20
-4.17359e-05 0.000146578 -3.68391e-20
0.000147523 -3.91776e-05 1.45899e-20
-6.43112e-05 -6.48946e-05 -7.66184e-20
-0.000101495 2.37469e-05 -6.38402e-20
-7.31356e-05 -6.53676e-05 -8.39315e-20
3.75532e-05 9.63583e-05 1.35005e-20
-7.00482e-05 1.31819e-05 -2.44494e-20
-0.000107479 -0.000219153 -7.36497e-20
-6.10687e-05 -3.06439e-05 -6.97173e-20
0.000219601 -0.000107968 1.47667e-20
-3.58199e-06 0.000101505 2.84827e-20
3.0919e-06 -0.000101846 1.20506e-20
-0.000228935 0.000110764 4.38414e-21
-0.000228366 -0.000114918 5.11487e-21
-0.000148356 4.83632e-05 -2.18893e-21
-5.39051e-05 -4.26135e-05 -7.40862e-20
-9.75606e-05 4.70388e-05 -4.38189e-21
-9.36111e-05 -4.60904e-05 -9.42126e-20
-1.59987e-05 -3.26379e-05 -7.95746e-20
5.78222e-05 6.93356e-05 2.99187e-20
-9.55833e-05 6.31084e-05 -6.45757e-20
-2.89365e-05 7.78676e-07 -3.68642e-20
-6.28544e-05 6.6905e-05 -6.38469e-20
-3.49746e-05 9.685e-05 -6.56758e-20
1.09556e-05 6.64171e-05 3.28501e-21
-9.68042e-05 6.29917e-05 -3.64779e-20
-0.000231347 -0.000231348 -4.13613e-20
0.000234233 -0.000234256 -1.22081e-20
2.04962e-05 5.32801e-05 -2.11736e-20
0.000235085 -0.000248806 4.31841e-20
-0.000252374 -0.000232363 -8.27205e-20
0.000119216 -2.30382e-05 -7.30609e-22
0.000118969 2.31747e-05 2.15445e-20
5.52283e-05 1.93774e-05 5.83981e-21
0.000111737 -7.56169e-05 -1.89875e-20
0.000111482 7.58136e-05 3.90704e-20
3.53676e-05 6.88988e-05 1.78811e-20
-9.68777e-05 0.000179037 1.22006e-19
-9.6999e-05 -0.000177809 -4.52951e-20
8.23343e-05 -4.78982e-05 8.03125e-21
8.21199e-05 4.79158e-05 3.06649e-20
-0.000130152 5.69931e-05 -3.46409e-20
0.000108159 -0.000168112 -1.02264e-20
-0.000109433 0.000168238 6.13598e-20
5.74498e-05 -6.82598e-05 7.66156e-21
-0.000113021 0.00021244 -4.79399e-20
-0.000219724 0.000116345 6.19791e-21
8.54577e-06 6.59004e-05 4.74509e-21
-9.59088e-06 -6.56231e-05 -7.88358e-20
0.00023352 -9.67455e-05 1.75348e-20
0.000233547 9.67561e-05 -7.30604e-22
1.24841e-05 -2.21765e-05 -1.14978e-19
7.77459e-05 4.3522e-05 1.42346e-20
7.79587e-05 -4.21109e-05 1.0948e-21
-4.72102e-05 -3.22957e-05 -7.51934e-20
-2.03671e-05 -5.22369e-05 1.49682e-20
-0.000137267 -2.8457e-05 -2.40708e-20
9.61205e-05 2.13666e-05 1.7515e-20
-0.000119115 -1.69088e-05 -2.77233e-20
-8.75341e-05 -7.28169e-05 -6.75448e-20
-0.000100613 -0.000174242 2.48482e-20
-0.000100917 0.000174768 8.55082e-20
-0.00010565 -0.000116112 -3.53785e-20
-7.70977e-05 4.49136e-05 -6.34915e-20
7.61057e-05 -4.06198e-05 -3.43062e-20
1.82019e-05 -0.000190008 3.65305e-20
-1.86742e-05 0.000190329 5.47887e-20
-9.01861e-05 8.00478e-05 3.28654e-21
6.48738e-06 8.66442e-05 1.42365e-20
-6.65994e-06 -8.73745e-05 7.66635e-21
5.57927e-05 -1.97205e-05 -1.67909e-20
5.38755e-05 1.8525e-05 8.39556e-21
0.000125747 9.6511e-05 -6.20088e-21
6.78257e-05 -6.37957e-05 -2.04443e-20
6.71402e-05 6.43988e-05 3.79682e-20
7.50841e-05 4.11312e-05 1.71531e-20
3.56263e-05 -9.6362e-05 1.824e-21
5.0741e-05 -4.591e-05 -2.08081e-20
4.9021e-05 4.51923e-05 1.35073e-20
-8.07086e-05 3.65534e-05 -5.65695e-20
4.25807e-05 3.24517e-05 1.31416e-20
-9.70468e-05 -6.65745e-05 -1.20402e-20
-3.46257e-05 8.25789e-06 -7.92087e-20
-1.29139e-05 2.14458e-05 5.84087e-21
0.000101274 -1.77533e-05 -2.00654e-20
-7.908e-05 4.69667e-05 -6.49717e-20
-8.35198e-05 -3.83409e-05 -2.66422e-20
-6.49726e-05 -7.87484e-05 -4.04921e-20
-7.43775e-05 -4.87107e-05 -4.59751e-20
-1.67382e-06 -8.9948e-05 -2.04382e-20
8.12387e-07 8.95779e-05 1.09502e-21
0.000123982 5.3603e-05 2.735e-20
-4.72364e-05 3.20783e-05 -3.94219e-20
6.22301e-05 -9.84787e-05 2.84547e-20
6.13206e-05 9.84266e-05 7.2962e-21
-7.68859e-05 4.49335e-05 -7.1896e-20
-3.14196e-05 4.94508e-05 1.02219e-20
-3.22098e-05 -5.27386e-05 -1.08059e-19
-1.98158e-05 -9.14159e-05 -5.50857e-20
-7.21504e-05 6.81725e-05 -6.09418e-20
9.29592e-06 -0.000127208 -3.24574e-20
1.69553e-05 0.000129496 2.00584e-20
0.000131321 7.4092e-06 1.71406e-20
0.000130758 -9.47012e-05 3.31901e-20
8.67871e-05 5.97747e-05 2.11574e-20
-0.000130312 0.000225772 9.64522e-20
0.000130245 -0.000225591 5.11572e-21
9.78622e-05 2.03613e-05 -2.91828e-21
1.51787e-05 5.23963e-05 1.45989e-20
5.76416e-05 -2.10737e-05 -6.93468e-21
-1.87051e-05 9.21054e-05 -4.66955e-20
2.73713e-05 -5.44509e-05 -9.3452e-20
-2.77416e-05 5.35858e-05 -1.01342e-25
4.33832e-05 -3.28213e-05 -1.1681e-20
3.16018e-05 -6.98506e-06 3.28552e-20
-1.56012e-05 -5.01035e-05 -9.81725e-20
2.64551e-05 1.09334e-06 -9.12627e-21
8.66525e-05 -6.27451e-05 -6.20167e-21
-3.34589e-05 -9.2102e-06 -4.85475e-20
8.6997e-05 -6.6258e-05 1.02154e-20
-0.00010128 0.000123529 -6.05415e-20
-5.35251e-05 4.06912e-05 -7.26269e-20
3.44022e-05 -0.000141529 -9.11875e-21
3.58064e-05 0.000139645 1.86033e-20
0.000145624 3.6524e-05 3.17331e-20
8.72444e-05 6.68829e-05 2.04308e-20
1.62764e-07 0.000102599 1.09476e-20
-1.02038e-06 -0.000103055 -3.17481e-20
6.91353e-05 -0.000123912 -4.74064e-21
6.89474e-05 0.00012702 1.02108e-20
9.04138e-06 -2.7582e-05 -1.42373e-20
9.71125e-06 2.72474e-05 -5.84099e-21
4.97812e-05 3.72615e-05 -4.01488e-21
3.36376e-05 4.85839e-05 -4.67248e-20
-7.42437e-05 -4.41465e-05 -9.74572e-20
-0.000147162 -0.000113183 -6.32612e-20
1.81685e-05 9.54362e-05 1.6782e-20
9.27865e-05 4.76853e-05 4.38126e-20
9.30732e-05 -4.75844e-05 2.92087e-21
8.04872e-05 5.25713e-05 2.15315e-20
7.78658e-05 -4.32903e-05 1.60612e-20
7.7767e-05 4.33886e-05 2.40921e-20
-3.76527e-05 -0.000425004 -5.64788e-21
0.000421943 -6.40509e-05 3.16969e-20
1.83087e-05 -9.38807e-05 5.83715e-21
0.000148746 -0.000135382 -2.9219e-20
0.000148558 0.000135821 3.43323e-20
-0.000183068 -1.08084e-05 -2.33362e-20
-6.14799e-06 8.02861e-05 -1.60594e-20
5.40277e-06 -8.14986e-05 -1.53298e-20
-6.65215e-05 9.70683e-05 -4.59626e-20
2.91934e-05 8.84604e-06 -3.65051e-21
-1.28109e-05 -2.5123e-05 -1.16432e-19
-7.11642e-05 5.64361e-05 7.30295e-21
7.02234e-05 -5.72718e-05 -8.3616e-20
4.95438e-05 -3.64703e-05 -1.42347e-20
-5.46981e-05 -3.71038e-05 -9.16102e-20
8.06219e-05 -5.23083e-05 -1.78817e-20
-9.53327e-05 -5.98016e-05 1.13079e-20
9.19124e-05 -2.28928e-05 -1.75145e-20
1.3168e-05 2.38118e-05 2.15378e-20
-3.28166e-05 6.70014e-05 -5.54668e-20
-1.92006e-05 -9.31814e-05 -4.0501e-20
7.09847e-05 4.43633e-05 1.20439e-20
1.88543e-05 9.37881e-05 1.27706e-20
-3.33742e-05 -4.7681e-05 2.99369e-20
-0.000112959 0.000213057 -6.06896e-20
-0.000206668 0.000117613 -1.01513e-19
7.75496e-05 -1.44612e-05 -2.51801e-20
7.11767e-05 -4.42468e-05 4.74477e-21
0.000242323 -0.000117914 2.92262e-21
0.000242435 0.000118135 -7.30674e-21
1.5246e-05 -5.32164e-05 2.55515e-21
-0.000132693 9.05874e-05 8.25458e-20
-0.000130091 -9.2709e-05 -5.40564e-20
-5.56471e-05 -2.43115e-05 -3.64963e-20
-1.30933e-05 2.06798e-05 -4.16086e-20
0.000119698 -0.000147938 -2.55115e-21
-0.000143413 -0.000112985 -7.50948e-20
0.000122 -0.000174904 -3.654e-22
0.000112566 0.000165043 2.33335e-20
0.000180946 0.000105388 4.52085e-20
1.11451e-05 -2.06251e-05 1.67922e-20
-5.51754e-06 -0.000188137 -3.37195e-20
0.000191958 -1.25873e-05 -4.55673e-21
0.000103048 0.000141489 -1.46083e-20
-0.000103907 -0.000141295 3.28687e-20
-6.46447e-05 -5.10181e-05 -7.11845e-20
-2.78754e-05 2.06161e-06 -5.98587e-20
6.61509e-05 0.000103064 7.29466e-21
6.70366e-05 -0.00010251 -2.91738e-21
-6.34923e-05 1.8502e-05 -2.22633e-20
3.3656e-05 -6.75783e-05 -6.204e-21
0.000101358 -7.95377e-05 -2.26422e-20
0.000100983 7.97572e-05 1.67991e-20
-7.7831e-05 -4.0945e-05 -9.96545e-20
-5.44439e-05 3.64016e-05 -5.83964e-20
-6.24831e-05 -2.8971e-05 -4.63548e-20
-0.000118564 -6.4951e-05 -2.77162e-20
-1.59285e-05 5.36541e-05 -6.27727e-20
-0.000242232 0.000242235 -4.02643e-20
-1.76175e-05 9.49902e-05 -3.64885e-21
1.70594e-05 -9.66764e-05 -1.64195e-20
1.81323e-05 -0.000190049 1.46086e-20
-1.87175e-05 0.00019025 3.43305e-20
2.67178e-05 -5.07716e-05 -3.83344e-20
2.65118e-05 4.89665e-05 5.11127e-21
-9.21704e-05 4.85613e-05 -3.13983e-20
-9.146e-05 -4.69496e-05 -1.26321e-19
-0.000161001 -2.97759e-05 -8.69262e-20
-0.000158784 3.04306e-05 -6.86638e-20
0.000215264 -0.000119478 -1.68025e-20
0.00021516 0.000119711 -4.67557e-20
5.80494e-05 3.03109e-06 -4.74617e-21
5.70674e-05 -1.43626e-06 4.49057e-20
8.3729e-05 -3.94924e-05 -2.22585e-20
-5.61611e-06 8.39303e-05 -3.13846e-20
7.2188e-05 5.406e-05 2.22582e-20
5.03585e-06 -8.36276e-05 -1.67879e-20
-0.000132471 9.08985e-05 -4.04815e-20
8.32116e-05 3.97736e-05 1.86096e-20
-1.00286e-05 -8.88413e-05 -6.7513e-20
-5.83129e-05 -1.13497e-06 -7.00929e-20
-5.86061e-05 6.10776e-07 -7.04576e-20
-6.14852e-05 5.31796e-05 -4.34425e-20
0.000105801 0.000183258 -1.02314e-20
-0.000105889 -0.000183456 4.74889e-20
-2.00724e-05 -6.4127e-05 7.30114e-21
-7.82158e-05 -4.62429e-05 -7.77433e-20
-1.1119e-05 -0.000102602 -7.88764e-20
7.26298e-05 -5.33916e-05 -9.12248e-21
0.000117706 0.000219664 2.64284e-20
0.000211353 0.000104055 1.6038e-20
1.67938e-05 -6.31043e-05 -3.57817e-20
1.57186e-05 6.13415e-05 1.67955e-20
-1.45007e-05 0.0001076 2.77535e-20
8.74189e-06 8.62669e-05 4.74425e-21
0.000101899 -5.36789e-05 -4.19593e-20
8.48426e-05 -2.78106e-05 1.13175e-20
8.4644e-05 2.78617e-05 2.08098e-20
-0.000209886 1.52981e-08 -1.47646e-19
-0.000210196 -1.50976e-08 -1.57878e-19
1.58653e-05 -4.96323e-05 5.84045e-21
-8.02101e-05 -4.78862e-05 -3.2845e-20
6.68988e-05 7.52504e-05 3.17658e-20
6.75796e-05 -7.50154e-05 -1.71608e-20
2.10602e-05 6.13784e-05 -3.28516e-20
9.39623e-06 1.69016e-05 -3.06603e-20
0.000235985 0.000235985 3.33426e-20
-6.94873e-05 -2.3791e-05 -5.51346e-20
-6.93874e-05 2.23e-05 -8.25191e-20
-1.66179e-05 4.93324e-05 -3.79589e-20
0.000101824 5.37601e-05 1.31354e-20
-7.86763e-05 3.96098e-05 -8.94366e-20
-0.000101545 1.3247e-05 -1.49691e-20
-0.000101449 -1.32502e-05 -1.01501e-19
-6.1417e-05 2.91668e-05 -4.38012e-20
3.08589e-05 -0.000133018 -3.50569e-20
3.02351e-05 0.000133499 3.28659e-20
4.1152e-05 0.00024884 5.26059e-20
-4.16944e-05 -0.00024868 3.21491e-20
-3.23262e-05 0.000425308 2.07685e-20
-0.000425745 2.34904e-05 -4.50001e-20
6.36011e-05 8.97713e-06 3.13959e-20
6.32358e-05 -9.13087e-06 -1.24119e-20
-7.23438e-06 -1.80466e-05 2.51882e-20
0.000230926 0.000291889 3.00613e-20
0.000287531 0.000227938 1.91288e-21
0.000101859 0.000245854 2.33815e-20
0.000101761 -0.000245621 -3.21491e-20
-7.39179e-05 4.3659e-05 -1.05124e-19
6.34098e-05 -6.91543e-05 4.37887e-21
6.79165e-05 3.65477e-05 -2.92001e-21
6.80764e-05 -3.65261e-05 -2.22667e-20
4.77111e-05 -4.82737e-05 -3.0292e-20
6.28256e-05 7.02229e-05 1.49613e-20
-2.7647e-06 -0.000191642 -2.29704e-20
1.82848e-06 0.000194584 2.26052e-20
0.000204217 -1.23648e-06 4.0288e-20
4.77304e-05 4.83936e-05 3.64951e-21
8.17658e-06 0.000200762 2.75224e-20
-0.000201935 -2.56827e-05 -2.78865e-20
9.06819e-05 -1.49488e-05 7.30194e-21
9.07324e-05 1.42194e-05 5.03833e-20
8.63798e-05 -2.96443e-05 1.2779e-20
8.62528e-05 2.97567e-05 2.44622e-20
-0.000238175 0.000295889 -8.81783e-20
-0.000292235 0.000238245 -3.84406e-20
7.1588e-05 3.91839e-05 7.30085e-22
7.17205e-05 -3.91097e-05 -1.27751e-20
2.46161e-05 0.000146063 2.77585e-20
-2.51595e-05 -0.000145889 1.46089e-20
6.63344e-05 2.67127e-05 1.4605e-20
6.50874e-05 -2.64512e-05 2.95749e-20
9.96427e-05 -9.50417e-05 -1.46059e-20
9.92496e-05 9.53955e-05 2.9212e-20
-5.90259e-05 1.38746e-05 -8.14051e-20
-6.03112e-05 -1.45051e-05 -8.61502e-20
9.28167e-05 0.000180137 3.79846e-20
0.000137627 0.000138691 2.11855e-20
9.31312e-05 -0.000179425 -2.48361e-20
0.000137578 -0.000138314 -4.38314e-21
-9.94039e-05 -0.000185115 2.92205e-20
-0.00020875 -3.39884e-06 -8.54823e-20
-0.000208673 2.89971e-06 -1.54891e-19
9.85746e-05 0.000185059 -2.19166e-20
0.000167975 6.9583e-05 1.68014e-20
0.000437022 5.74955e-05 3.58068e-20
0.000167809 -6.95125e-05 -6.93983e-21
0.000437071 -5.75e-05 -6.94231e-20
0.00021656 -4.06071e-06 -7.30446e-22
0.000147109 4.1905e-05 1.78944e-20
0.000203227 -6.58568e-05 1.16888e-20
0.000216418 4.16937e-06 -1.388e-20
0.000146902 -4.18391e-05 -5.47825e-21
0.000203092 6.59462e-05 -2.11858e-20
0.000155539 -6.14558e-05 -1.05905e-20
0.00015741 -6.08916e-05 -4.74825e-20
0.000155343 6.16457e-05 -1.09572e-21
0.000157251 6.10698e-05 -7.30515e-21
-3.59927e-05 -9.92811e-05 -3.94055e-20
-1.35423e-05 8.21331e-05 -4.3804e-20
1.42617e-05 -8.17457e-05 9.12647e-21
-7.38668e-05 1.34681e-05 -4.16002e-20
-9.43866e-05 2.4531e-05 -2.88234e-20
-1.56595e-05 0.000106737 -7.66686e-21
1.63717e-05 -0.000106263 1.02224e-20
-9.44558e-05 -2.43191e-05 -4.15944e-20
-3.16873e-05 -4.97081e-05 -4.70873e-20
-5.32998e-05 -0.000119794 -3.68322e-20
5.41305e-05 0.000122772 3.46425e-20
0.000124683 5.64515e-05 -1.60446e-20
-6.9179e-05 -7.14101e-05 -1.93529e-20
6.92667e-05 7.19319e-05 -1.12103e-19
-7.5916e-05 4.54596e-05 -1.20432e-20
-3.36308e-05 -6.82219e-05 -1.53263e-20
-1.1469e-05 -6.58027e-05 1.64257e-20
-7.58934e-06 -0.000109025 -1.20479e-20
8.1929e-06 0.000109067 -9.74808e-20
7.70336e-05 1.14981e-05 -1.27728e-20
-4.10505e-05 -0.000144198 -3.1734e-20
3.88733e-05 0.000146172 5.72644e-20
0.000151429 4.00531e-05 -1.13073e-20
3.58088e-05 9.79062e-05 5.1811e-20
-6.61479e-05 -6.65767e-05 -4.74309e-20
-6.9458e-05 -1.42488e-05 -2.91936e-20
-0.000103824 -0.000215079 -4.73987e-20
-6.13838e-05 3.08597e-05 -2.15352e-20
-3.0859e-06 0.000101872 -7.04794e-20
4.15085e-06 -0.000101535 9.49457e-21
-0.000228909 -0.000110953 7.30544e-22
-0.000228389 0.000114948 1.19834e-19
-4.9646e-05 6.71298e-05 -2.15303e-20
-6.00533e-05 7.10766e-05 1.4592e-21
-0.000138402 4.46374e-05 6.19976e-21
-9.77236e-05 -4.73545e-05 -8.76401e-21
-9.35485e-05 4.58405e-05 -2.33702e-20
-1.60368e-05 3.28676e-05 -1.9711e-20
-2.88485e-05 -1.00623e-06 -4.63538e-20
-9.95998e-05 6.50545e-05 1.09447e-20
-0.000114992 -1.80663e-05 -3.53861e-20
-0.000104918 2.1069e-05 -1.24029e-20
1.03821e-05 6.64845e-05 1.60603e-20
-3.27338e-05 9.86794e-05 1.89732e-20
5.98044e-05 6.96568e-05 -6.93196e-21
-0.000232779 -0.000232769 -2.53274e-20
-0.000229187 0.000229175 -8.74592e-21
2.06828e-05 5.35084e-05 -1.18282e-19
3.46292e-05 6.91888e-05 2.59087e-20
-0.000229855 0.000249981 3.9538e-20
-0.000242507 -0.000233241 -4.08157e-20
0.00011875 -2.35976e-05 2.44661e-20
0.000119485 2.19156e-05 -4.85652e-20
5.62758e-05 1.9193e-05 -1.27745e-20
0.000111375 -7.54531e-05 4.38178e-20
0.00011192 7.51093e-05 -4.74701e-20
-9.69401e-05 -0.000179192 -8.62012e-20
-9.69998e-05 0.000177867 -6.13675e-20
8.23837e-05 -4.81165e-05 2.1174e-20
8.2195e-05 4.7216e-05 -4.89175e-20
-0.000108386 0.000168275 -1.24194e-20
0.000110583 -0.000168612 -7.30476e-21
5.732e-05 -6.84334e-05 3.68513e-20
0.000112639 0.000212831 8.95e-20
0.000213799 0.000112676 -1.89567e-20
8.76109e-06 6.61402e-05 -1.64236e-20
-8.84622e-06 -6.5185e-05 1.89795e-20
0.000231819 -9.60237e-05 -2.19193e-20
0.000234715 9.72035e-05 -8.91605e-20
-9.51031e-05 -6.6091e-05 -4.19574e-20
1.2508e-05 -2.09309e-05 3.24896e-20
7.7883e-05 4.22273e-05 -6.56998e-21
7.81001e-05 -4.25107e-05 4.81791e-20
-4.78926e-05 -3.26192e-05 -8.39559e-21
-1.96359e-05 -5.20553e-05 -1.71591e-20
-8.7394e-05 7.29081e-05 -2.59224e-20
-0.000133487 -3.02195e-05 -4.01198e-20
-0.000100639 0.000174276 6.57753e-21
-0.000100976 -0.000174907 -6.21123e-20
-7.51849e-05 -4.63549e-05 -9.85223e-21
7.53475e-05 4.00773e-05 -9.85371e-21
-0.000106814 -0.000116112 -5.79926e-20
1.90773e-05 -0.000190882 -2.1915e-21
-1.83002e-05 0.00019021 2.99567e-20
-9.04078e-05 -8.00902e-05 -5.47662e-20
6.89838e-06 8.72529e-05 -9.3815e-20
-5.92562e-06 -8.71743e-05 1.09536e-21
5.50427e-05 1.83582e-05 -1.86161e-20
5.6191e-05 -2.03275e-05 2.11712e-20
0.000126143 -9.47954e-05 1.13065e-20
9.48133e-05 2.04285e-05 -1.02166e-20
6.807e-05 -6.3794e-05 3.43176e-20
6.75787e-05 6.35079e-05 -1.20477e-20
7.67489e-05 -4.14127e-05 3.39422e-20
3.59181e-05 -9.59955e-05 3.61235e-20
5.12712e-05 -4.61617e-05 3.06648e-20
4.96687e-05 4.46184e-05 -1.3507e-20
-8.13324e-05 -3.63278e-05 -2.62771e-20
-8.5472e-05 6.72491e-05 5.83591e-21
4.16665e-05 3.22415e-05 -2.18987e-21
-3.56196e-05 8.64098e-06 1.86181e-20
-1.31288e-05 2.22547e-05 -3.65007e-21
0.000101558 1.68565e-05 1.45913e-21
-0.000143401 0.00013966 -1.22134e-20
-7.9249e-05 -4.7319e-05 -3.723e-20
-8.1936e-05 3.88295e-05 -2.84662e-20
-0.000194972 3.18587e-05 1.64081e-20
-7.59546e-05 4.63596e-05 -1.78798e-20
-1.12817e-06 -8.96475e-05 -1.4598e-21
1.68624e-06 8.99468e-05 -6.86165e-20
-6.74097e-05 -8.01086e-05 -3.31959e-20
0.000124553 -5.36746e-05 1.69569e-20
-4.734e-05 3.52916e-05 -2.22664e-20
6.18916e-05 -9.72238e-05 2.33482e-20
-6.50031e-05 0.000104837 -4.37772e-21
-7.79867e-05 -4.61453e-05 -1.16788e-20
-3.14639e-05 -4.94902e-05 -7.81207e-20
-3.21598e-05 5.2858e-05 -2.26338e-20
-1.93561e-05 -9.2064e-05 -4.01294e-20
1.80158e-05 9.42131e-05 4.12238e-20
1.1238e-05 -0.000127116 1.93285e-20
-1.67769e-05 0.000130871 6.09034e-20
0.000132665 -1.44431e-05 1.49522e-20
8.82044e-05 -5.89949e-05 1.45917e-20
0.000130627 -0.000226275 -2.7032e-20
-0.000130364 0.000225822 -1.3157e-20
-9.34681e-05 -5.63775e-05 -2.91826e-20
9.82298e-05 -2.16985e-05 1.24037e-20
-0.000148377 -0.000117654 -4.77664e-20
1.45991e-05 5.27032e-05 1.64228e-20
5.76989e-05 -2.14524e-05 1.71545e-20
2.72998e-05 -5.29933e-05 3.90636e-20
-2.79792e-05 5.44477e-05 -3.54111e-20
8.78886e-05 0.000123871 1.27653e-20
0.000130725 8.79649e-05 -1.96945e-20
4.38766e-05 -3.32619e-05 1.0586e-20
-0.000187051 -8.43243e-06 -1.03927e-20
3.06167e-05 -7.5487e-06 9.12512e-21
-1.49339e-05 -5.36299e-05 -1.16791e-20
2.67555e-05 6.82149e-07 -9.49129e-21
-3.09974e-05 -7.99011e-06 -5.87676e-20
-7.0922e-05 -6.76709e-05 -2.80993e-20
3.48245e-05 -0.000140571 4.01247e-20
-3.33129e-05 0.000140308 2.62623e-20
0.000143735 -3.77526e-05 6.56582e-21
8.85393e-05 -6.79987e-05 1.82422e-20
1.06455e-06 0.000102422 -2.84635e-20
-4.68042e-07 -0.000102885 -5.1091e-21
7.07288e-05 -0.000127434 2.07863e-20
-6.71695e-05 0.000134141 -8.0227e-21
9.97084e-06 2.61375e-05 -9.85672e-21
9.52677e-06 -2.77459e-05 4.01578e-21
4.97794e-05 3.76685e-05 4.37949e-21
3.38975e-05 4.8909e-05 -1.30324e-19
-7.29233e-05 4.47385e-05 -2.29946e-20
9.31797e-05 4.69491e-05 -3.24937e-20
9.29725e-05 -4.78105e-05 4.3083e-20
7.80138e-05 -4.36073e-05 2.95682e-20
7.78476e-05 4.27157e-05 -3.39467e-20
-4.51372e-05 -0.000420328 3.46182e-21
6.18399e-05 9.66531e-05 7.29197e-22
-0.000432977 5.07224e-05 -2.44121e-20
-5.48293e-05 -4.08133e-05 -1.53284e-20
1.89451e-05 -9.35642e-05 3.9037e-20
-1.62823e-05 9.64335e-05 4.19537e-20
0.000147901 -0.000134452 7.23183e-20
0.000149341 0.000135366 -7.08587e-20
8.09999e-05 5.22435e-05 -3.35731e-20
9.49952e-05 -2.36009e-05 7.66248e-21
8.82537e-05 6.12835e-05 -1.71449e-20
-5.7494e-06 8.0896e-05 -5.91289e-20
5.98534e-06 -8.13697e-05 -7.30169e-22
2.98489e-05 7.9269e-06 9.49164e-21
8.08507e-05 -5.26466e-05 2.77352e-20
-1.44919e-05 -2.40966e-05 2.2998e-20
-7.03824e-05 5.72387e-05 -2.11796e-20
7.20106e-05 -5.59285e-05 2.55602e-20
4.98594e-05 -3.68052e-05 1.8251e-21
-5.5626e-05 -3.78511e-05 -2.00747e-20
1.14202e-05 2.44755e-05 2.55496e-21
1.84708e-05 9.29794e-05 1.34995e-20
-1.91205e-05 -9.27538e-05 -4.37846e-21
7.10798e-05 4.36885e-05 -5.25546e-20
8.86603e-05 6.71028e-05 -3.46592e-20
-3.12807e-05 6.78637e-05 1.24069e-20
-3.23768e-05 -4.75924e-05 -2.00796e-20
0.000113402 0.000205622 6.48819e-20
0.000208661 0.000113137 -5.15777e-20
-0.000129741 9.7032e-05 -7.65789e-21
7.13889e-05 -4.45552e-05 2.55463e-21
7.77927e-05 -1.42418e-05 1.49624e-20
0.000243297 0.000117934 -7.45325e-20
0.000240627 -0.000117206 3.14189e-20
1.58345e-05 -5.34193e-05 6.93479e-21
-0.00013276 -9.07905e-05 -7.30559e-22
-0.000130281 9.27797e-05 7.37796e-20
-5.51884e-05 2.36228e-05 -3.72255e-20
-1.38492e-05 2.0749e-05 -8.24885e-20
-0.000109192 0.000145671 1.13001e-20
-0.00013708 -0.000117179 -4.39273e-20
0.000117438 -0.000168151 5.86987e-20
-0.000106782 0.000174351 7.18264e-20
0.000175915 -0.000102584 9.47965e-21
-0.000119873 -6.49047e-05 -5.25174e-20
1.22167e-05 -2.08658e-05 -6.20591e-21
-1.43613e-05 -0.000188114 3.59065e-20
-0.000178043 1.58249e-06 -4.00976e-21
0.000103369 0.000141723 -7.15857e-20
-0.000103365 -0.000141362 -2.62943e-20
-6.38947e-05 5.05295e-05 -3.1759e-20
-2.79861e-05 -2.04833e-06 -3.79584e-20
-6.36056e-05 0.000103783 5.10603e-21
6.72803e-05 -0.000101759 3.42852e-20
-6.36608e-05 -1.88626e-05 -3.50361e-20
3.39703e-05 -6.75648e-05 3.17492e-20
0.000101119 -7.93272e-05 3.17728e-20
0.000101524 7.90162e-05 -4.3824e-20
-7.82333e-05 4.11693e-05 -3.5408e-20
-4.86988e-05 3.59294e-05 -3.32121e-20
-6.28097e-05 2.91735e-05 -3.72293e-20
-1.44298e-05 5.84881e-05 -3.86862e-20
0.000240841 0.000240852 -3.0882e-20
1.76349e-05 -9.64947e-05 1.64196e-20
-1.63682e-05 9.62722e-05 3.64873e-20
-1.81728e-05 0.000190331 8.76629e-21
1.93282e-05 -0.000190526 -1.46074e-21
2.7306e-05 -5.09755e-05 2.55573e-21
2.70462e-05 4.84018e-05 -1.46022e-21
-9.27237e-05 -4.87638e-05 -5.22064e-20
-9.07507e-05 4.69631e-05 -2.7381e-20
-0.000160999 2.92716e-05 1.97214e-20
-0.00015889 -3.00106e-05 -1.68003e-20
0.000213595 -0.000118771 4.96788e-20
0.000216669 0.000119487 -7.96436e-20
5.84268e-05 2.16923e-06 9.49239e-21
5.55916e-05 -2.10656e-06 2.00773e-20
8.39391e-05 3.87516e-05 -2.66371e-20
-5.1295e-06 8.5011e-05 -2.92007e-21
5.62495e-06 -8.34629e-05 2.48175e-20
8.34072e-05 -4.0356e-05 4.12339e-20
-9.2774e-06 -8.80971e-05 -1.64227e-20
9.11145e-06 8.73952e-05 -5.10968e-21
7.25998e-05 5.38219e-05 -4.26907e-20
-5.86338e-05 8.08099e-08 -5.84157e-21
-5.92258e-05 -6.78482e-07 -7.19182e-20
7.2548e-05 -5.40885e-05 3.24751e-20
-6.2079e-05 -5.35699e-05 -4.05219e-20
0.000105937 0.000183538 -2.48516e-20
-0.000105901 -0.000183449 -5.40611e-20
-1.93371e-05 -6.41038e-05 -1.09561e-21
-7.7907e-05 4.55788e-05 -4.37989e-20
-1.11018e-05 0.000102649 -1.49717e-20
0.000122463 -0.000216024 5.21266e-20
0.000212615 -0.000101164 -2.18683e-21
1.76202e-05 -6.30118e-05 2.11772e-20
1.60986e-05 6.12853e-05 9.85826e-21
-1.45221e-05 -0.000107713 -8.54458e-20
0.000102645 5.3457e-05 -2.51744e-20
8.48537e-05 -2.83291e-05 9.12727e-21
8.47318e-05 2.70429e-05 -7.15518e-20
-0.000209757 -2.38442e-08 3.7992e-20
-0.000210211 9.59574e-09 1.06714e-19
1.64849e-05 -4.96542e-05 6.20521e-21
-7.8472e-05 4.60194e-05 -2.91954e-20
6.73154e-05 7.45243e-05 1.46054e-21
6.78316e-05 -7.48642e-05 4.05294e-20
2.13544e-05 6.19762e-05 -8.65119e-20
1.09529e-05 1.78412e-05 -1.07677e-19
0.000233805 -0.0002338 -5.10154e-20
-7.07214e-05 2.33635e-05 7.66787e-21
-6.94236e-05 -2.18715e-05 -6.64533e-20
-1.59701e-05 5.06264e-05 -5.69393e-20
0.000100336 -5.40844e-05 2.51759e-20
-7.87567e-05 -3.95231e-05 -4.01555e-20
-0.000102758 -1.09973e-05 -2.3732e-20
-0.000100968 1.69817e-05 -2.26367e-20
-6.15985e-05 -2.88548e-05 -2.37254e-20
3.05231e-05 0.000132997 -1.75288e-20
3.15208e-05 -0.000132091 4.60128e-20
4.15121e-05 0.000248883 5.99193e-20
-4.09989e-05 -0.000249383 -3.57997e-20
1.93015e-05 0.000417124 1.70346e-19
0.000420624 2.89785e-05 -7.72453e-20
6.34773e-05 -9.87148e-06 1.46029e-20
6.3289e-05 8.09025e-06 -4.05186e-20
-6.48906e-06 -1.82425e-05 -1.20468e-20
0.000228072 -0.000284383 5.49327e-20
0.000277396 -0.000227074 -5.37467e-20
0.000102028 0.000246228 2.77637e-20
0.000101095 -0.000243982 2.99572e-20
-7.40017e-05 -4.36148e-05 -5.65771e-20
6.36168e-05 -6.93759e-05 2.153e-20
6.82628e-05 -3.69538e-05 1.82523e-21
6.76479e-05 3.59175e-05 -6.42431e-20
4.80162e-05 -4.8674e-05 -3.64946e-22
6.29553e-05 7.02176e-05 -2.44486e-20
-5.05064e-06 0.00018463 1.18859e-19
-2.4322e-06 -0.000200668 6.89104e-20
0.000191745 -6.30129e-06 -3.6447e-22
4.77679e-05 4.7968e-05 -9.85353e-21
-2.01897e-05 0.000204123 1.59484e-19
0.000201781 -1.49516e-05 -2.67932e-20
9.05964e-05 -1.56189e-05 1.13181e-20
9.04909e-05 1.33482e-05 -4.63646e-20
8.63528e-05 -3.01167e-05 2.92094e-20
8.60865e-05 2.86344e-05 -7.37514e-20
0.000236224 0.00029063 3.66205e-20
0.00029203 0.000236469 -3.89885e-20
7.16499e-05 3.87907e-05 -6.46026e-20
7.1926e-05 -3.95508e-05 1.09504e-21
2.50112e-05 0.000146293 1.46113e-20
-2.43622e-05 -0.000145967 -1.46088e-20
6.65796e-05 2.54739e-05 2.48289e-20
6.40814e-05 -2.85556e-05 -4.38129e-21
9.94312e-05 -9.45939e-05 3.39593e-20
9.97722e-05 9.47651e-05 -1.38756e-20
-5.9503e-05 -1.40646e-05 -4.01567e-20
-6.32946e-05 1.56292e-05 -6.57073e-21
-9.88557e-05 -0.000185262 -4.9674e-20
-0.000208461 -3.26641e-06 1.68016e-20
-0.00020865 3.67781e-06 6.86788e-20
9.88937e-05 0.000185272 -7.67124e-20
9.32617e-05 0.000179749 2.92207e-21
0.000138061 0.000138319 -2.84907e-20
9.29346e-05 -0.000177854 3.06807e-20
0.000136668 -0.000137401 5.04078e-20
0.000166103 6.88145e-05 -6.57475e-21
0.000170216 -7.04859e-05 -3.21496e-20
0.000439332 -5.78243e-05 -1.87151e-19
0.000433835 5.70992e-05 -2.41161e-20
0.000214691 -4.82838e-06 -2.19143e-21
0.000146253 4.04622e-05 1.46081e-20
0.000218331 2.51572e-06 -4.82175e-20
0.000147644 -4.42655e-05 -3.10413e-20
0.000204677 6.59448e-05 -8.47662e-20
0.00020162 -6.54295e-05 2.92225e-20
0.00015457 -6.14795e-05 2.33727e-20
0.000156452 -6.09114e-05 4.38308e-20
0.00015621 6.0753e-05 -7.0122e-20
0.000158087 6.01783e-05 -4.60216e-20
-1.30895e-05 8.16456e-05 -4.08842e-20
1.01281e-05 -9.00284e-05 1.78931e-20
-7.32476e-05 -1.43157e-05 -2.55452e-21
-9.177e-05 -2.5245e-05 -6.56742e-21
-1.51527e-05 0.000105602 4.74689e-21
9.17978e-06 -0.000101093 2.92165e-20
-9.80136e-05 2.35379e-05 -4.23264e-20
-3.04804e-05 4.90297e-05 -2.88394e-20
-5.18728e-05 0.000127338 -1.67738e-20
-4.96049e-05 -0.00012441 4.55896e-20
0.000127177 5.11192e-05 -6.81943e-20
7.16931e-05 -6.73924e-05 1.31478e-20
6.86488e-05 7.12073e-05 -7.44926e-20
-7.1388e-05 -4.83041e-05 -1.82453e-21
2.00316e-05 -9.87835e-05 2.11796e-20
8.20556e-06 0.000107916 -6.79084e-20
7.64938e-05 -1.79914e-05 -3.4307e-20
-3.41805e-05 -0.000153617 5.94634e-20
-4.15126e-05 0.000147288 -6.56603e-21
0.000151749 3.53229e-05 -5.25261e-20
-0.000101583 2.19543e-05 -8.20823e-20
3.85824e-05 9.58065e-05 -5.07174e-20
4.81277e-05 -0.000109229 1.64236e-20
-6.91223e-05 1.19564e-05 -4.92664e-20
-0.00010431 -0.000226303 3.84686e-20
-5.91446e-05 -3.1171e-05 -5.1103e-21
0.000225928 0.000107254 -3.53664e-20
-2.87001e-06 0.000100851 -1.49722e-20
1.81692e-05 -9.76125e-05 6.57446e-21
-0.000227995 0.000110835 8.69395e-20
-0.000221826 -0.000114814 -5.11414e-21
-0.000148978 4.68469e-05 -3.42856e-20
-4.60427e-05 -6.83743e-05 -1.45979e-21
-8.94199e-05 -4.73721e-05 -8.76407e-21
-9.65121e-05 4.69389e-05 -2.92121e-20
-1.5157e-05 -3.31147e-05 -7.30113e-21
5.96033e-05 6.77842e-05 -5.98353e-20
6.56246e-05 -8.58864e-05 2.33564e-20
-9.55069e-05 6.24326e-05 -9.55898e-20
-2.75988e-05 -3.759e-07 -2.15365e-20
-6.13933e-05 -7.32916e-05 -4.01431e-21
-6.28385e-05 6.67476e-05 -8.46447e-20
-2.70597e-05 -0.000101339 1.82417e-21
-3.47117e-05 9.69602e-05 -6.31232e-20
3.03335e-05 -8.09107e-05 5.11262e-21
1.12113e-05 6.60075e-05 -3.75965e-20
-9.74464e-05 6.22524e-05 -1.01773e-19
-0.000242929 -0.000242957 -1.1297e-20
0.000241339 0.000241386 -6.74175e-20
2.58366e-05 -5.00249e-05 -2.19081e-21
2.0611e-05 5.30011e-05 -5.40298e-20
0.000242308 0.000257934 -1.47225e-19
-0.000254006 -0.000243494 -1.07501e-20
0.000117016 2.04603e-05 -5.73354e-20
9.42018e-05 -5.13592e-05 -1.24195e-20
5.46168e-05 -2.58818e-05 -4.37957e-21
0.000109692 7.19155e-05 -7.26715e-20
8.9696e-05 -8.30355e-05 -7.30645e-22
3.63926e-05 6.82545e-05 -2.73695e-20
4.61821e-05 -8.47888e-05 -9.49116e-21
-9.3068e-05 -0.000177862 4.82128e-20
-9.57781e-05 0.00017974 6.64743e-20
8.12803e-05 4.44329e-05 -7.63009e-20
7.45023e-05 -6.26704e-05 -2.77517e-20
-0.000131434 5.51622e-05 -5.3969e-20
-0.000106973 0.000166389 3.21442e-20
-4.75969e-05 -0.00013601 -1.46142e-21
-0.000116754 0.000218502 -1.47649e-20
-0.000222132 0.00011525 1.20299e-20
9.30734e-06 6.55981e-05 -4.12431e-20
2.45654e-05 -7.96738e-05 1.60652e-20
0.000228877 9.48433e-05 -2.48554e-20
0.000180161 -7.45803e-05 -4.97009e-20
7.7479e-05 3.76473e-05 -9.05234e-20
7.32255e-05 -5.18848e-05 -3.86962e-20
-0.000137667 -3.14859e-05 -1.13067e-20
9.75592e-05 -2.92914e-05 -4.59785e-20
-0.00011736 -1.85691e-05 -1.09408e-21
-8.35048e-05 -7.33748e-05 2.19035e-21
-0.000100733 0.000174408 1.00817e-19
-9.91435e-05 -0.000171726 -5.84446e-21
-0.000103656 -0.000120567 -1.05782e-20
-7.69584e-05 4.41796e-05 -7.33439e-20
7.62561e-05 3.66653e-05 -8.86873e-20
1.54345e-06 -0.000147957 -1.31519e-20
-1.79659e-05 0.000188067 6.72204e-20
-8.91882e-05 7.97364e-05 -3.6876e-20
1.94288e-05 -8.85272e-05 -9.49291e-21
6.94492e-06 8.63388e-05 -7.30075e-20
5.52155e-05 1.44951e-05 -2.15362e-20
5.0753e-05 -2.34505e-05 2.22679e-20
0.000132254 -0.000108781 1.31326e-20
6.64036e-05 5.86445e-05 -7.95916e-20
5.84054e-05 -6.74132e-05 -1.27793e-20
7.37466e-05 -5.23551e-05 -2.70101e-20
5.00056e-05 4.14764e-05 -6.49791e-20
4.52848e-05 -5.35096e-05 -8.762e-21
-7.99802e-05 3.57627e-05 -7.51845e-20
4.17132e-05 3.09233e-05 -5.25632e-20
5.04688e-05 -5.919e-05 -1.4606e-21
-9.62257e-05 -6.81567e-05 -1.42303e-20
1.50493e-05 -5.21217e-05 1.24176e-20
-1.23155e-05 2.16737e-05 1.27759e-20
0.000102786 1.26358e-05 -6.93173e-20
-7.84353e-05 4.63852e-05 -7.40952e-20
-8.14901e-05 -4.00779e-05 -1.45993e-20
-6.18261e-05 -8.31686e-05 -1.3134e-20
-7.15038e-05 -5.17647e-05 -1.35018e-20
1.33552e-05 -9.16668e-05 8.76174e-21
1.512e-06 8.91474e-05 -1.1716e-19
0.000130295 -6.13417e-05 -4.8871e-20
-4.68662e-05 3.19841e-05 -4.38016e-20
-4.32091e-05 -3.73731e-05 1.02218e-20
6.86578e-05 -0.000111107 4.88943e-20
6.30125e-05 9.62789e-05 -8.79202e-20
-7.61164e-05 4.4235e-05 -8.64965e-20
-2.98369e-05 4.83984e-05 -4.01602e-21
-2.95603e-05 -5.09777e-05 5.11132e-21
-7.18977e-05 6.79824e-05 -8.53928e-20
1.62624e-05 -0.000136088 3.90285e-20
1.78477e-05 0.000130018 -6.2364e-20
0.000134983 -1.29062e-05 -6.56486e-20
0.000133419 9.21483e-05 -6.74762e-20
9.18169e-05 -7.06608e-05 2.55337e-21
-0.000104889 -0.000181719 -2.04604e-20
-0.000128944 0.000223325 -3.50853e-20
9.99363e-05 -2.79258e-05 -6.239e-20
1.56448e-05 5.1288e-05 -3.75915e-20
3.25191e-05 -7.36283e-05 -1.35089e-20
5.71024e-05 1.58768e-05 -4.12442e-20
-1.20986e-05 -9.7137e-05 2.15275e-20
-1.81918e-05 9.21449e-05 -4.7061e-20
-2.71267e-05 5.37755e-05 5.98709e-20
7.74167e-06 -6.79797e-05 1.35148e-20
3.09187e-05 -7.861e-06 -3.57717e-20
4.38791e-05 -3.55204e-05 2.92216e-21
2.57331e-05 -4.8946e-06 3.0661e-20
8.85262e-05 5.92217e-05 -7.36893e-20
-2.74292e-05 6.05336e-06 8.39731e-21
-3.31566e-05 -9.08655e-06 -3.10257e-20
8.89244e-05 6.4384e-05 -7.80755e-20
-0.000102021 0.000124067 -8.53439e-20
-5.32422e-05 4.04625e-05 -7.51814e-20
4.44121e-05 -0.000151233 1.97019e-20
3.76851e-05 0.000140697 -9.22868e-20
0.000150826 -4.51389e-05 -5.80008e-20
9.25443e-05 -8.20321e-05 5.47353e-20
8.40159e-07 0.000102589 -1.186e-19
1.24142e-05 -0.000110541 2.33598e-20
7.6357e-05 -0.000138813 2.29782e-20
7.18977e-05 0.000123128 -7.6585e-20
9.26587e-06 2.22161e-05 6.57068e-21
8.51717e-06 -3.17955e-05 3.24886e-20
4.98235e-05 3.63425e-05 -3.24839e-20
5.64322e-05 -6.31685e-05 -1.13191e-20
3.49745e-05 -4.68462e-05 -1.49705e-20
3.35828e-05 4.83683e-05 -4.12509e-20
-6.83967e-05 -4.73106e-05 5.47551e-21
-0.00014619 -0.000119488 -1.11221e-20
2.72502e-05 -0.00010823 3.02869e-20
1.94143e-05 9.48912e-05 -5.91009e-20
9.1204e-05 4.41437e-05 -9.82197e-20
7.61355e-05 -6.26403e-05 1.09578e-21
8.05586e-05 -6.85898e-05 4.38018e-21
7.7254e-05 4.0279e-05 -1.11701e-19
7.24842e-05 -6.0573e-05 -2.84778e-20
-4.50247e-05 -0.000440772 -1.09314e-20
0.000437385 6.34529e-05 -8.5629e-21
0.000145747 0.000131175 -5.11428e-20
0.000114329 -0.000126953 1.3152e-20
8.09241e-05 4.9736e-05 -8.9776e-20
-0.000183215 -1.39366e-05 2.20602e-20
1.85388e-06 -7.96868e-05 -3.65037e-21
-5.78394e-06 7.99338e-05 -1.07673e-19
-6.65254e-05 9.705e-05 -7.76995e-20
-6.9371e-05 5.65524e-05 3.14036e-20
-2.50601e-05 -7.01289e-05 1.02278e-20
-9.51067e-05 -6.47408e-05 -7.66064e-21
9.30559e-05 1.79739e-05 -6.16675e-20
1.19192e-05 2.3873e-05 -1.09477e-21
3.29751e-05 -5.37533e-05 3.65288e-21
-2.61394e-05 -6.97353e-05 -8.39474e-21
-3.25336e-05 6.68697e-05 -8.53919e-20
7.0998e-05 4.11767e-05 -7.81055e-20
7.1441e-05 -6.07173e-05 -1.35076e-20
1.99641e-05 9.35787e-05 -6.96941e-20
2.96528e-05 -0.000102411 3.79566e-20
-0.000117481 0.000210071 -4.00967e-20
-0.000209352 0.00011649 2.80671e-20
7.77905e-05 9.00985e-06 -6.20419e-20
0.000237012 0.000114507 -7.2361e-20
0.000193642 -0.000107034 -2.26566e-20
-0.000131807 9.06824e-05 1.7531e-20
-0.000125076 -9.29471e-05 1.16869e-20
-5.41491e-05 -2.53334e-05 -1.64247e-20
-1.01713e-05 -2.28489e-05 2.92063e-21
-1.28883e-05 2.06665e-05 -3.32137e-20
0.00012005 0.000149554 -9.91566e-20
-0.000140571 -0.000119203 2.36902e-21
0.000123843 -0.000180197 2.44299e-20
0.00012158 0.000171057 -1.06831e-19
0.000188308 -0.00011407 -2.4065e-20
-1.29089e-05 -0.000197889 6.90866e-20
0.000197768 9.8062e-06 -2.5337e-20
0.000102375 0.000140241 -9.86134e-20
9.89512e-05 -0.000123153 6.57456e-21
-6.15488e-05 -5.2461e-05 -5.47586e-21
-2.67272e-05 6.79736e-07 -2.19025e-21
7.36851e-05 -0.000115929 2.22526e-20
6.94624e-05 0.000102396 -9.15483e-20
-6.24354e-05 1.74911e-05 -1.45997e-20
9.89189e-05 7.59833e-05 -9.31355e-20
8.01054e-05 -8.66367e-05 2.55684e-21
-7.50975e-05 -4.34399e-05 2.92052e-21
-5.41248e-05 3.63371e-05 -5.87608e-20
-4.53935e-05 -3.84142e-05 6.57097e-21
-5.93373e-05 -3.09411e-05 -1.64258e-20
-0.00011655 -6.94939e-05 -6.20036e-21
-1.56878e-05 5.35585e-05 -7.59122e-20
-9.16557e-06 -5.78491e-05 7.30087e-21
-0.000243397 0.000243354 4.49122e-20
-1.71582e-05 9.4888e-05 -1.03627e-19
-1.07627e-05 -0.000100623 1.1313e-20
-1.77843e-05 0.000188259 1.46103e-20
8.13725e-06 -0.000156485 -1.46125e-21
2.56099e-05 4.36593e-05 -8.03164e-21
2.37082e-05 -5.1427e-05 4.52695e-20
-8.59442e-05 -4.87722e-05 1.46049e-21
-9.15198e-05 4.83508e-05 -5.18426e-20
-0.000153102 2.73043e-05 4.38263e-21
-0.000160071 -2.9547e-05 -3.65168e-21
0.000211571 0.00011597 -1.02309e-19
0.000156317 -0.00010922 -2.92322e-20
5.51372e-05 -2.58064e-06 -6.35211e-20
5.81764e-05 -3.86398e-05 2.73983e-20
8.4434e-05 3.54598e-05 -7.44431e-20
2.84493e-06 -8.64932e-05 -5.11004e-21
-5.20865e-06 8.38776e-05 -9.96298e-20
7.7412e-05 -6.91491e-05 2.84676e-20
-0.000133869 9.07467e-05 -1.03579e-19
8.43928e-05 -5.05818e-05 -4.23362e-20
7.36119e-05 5.07277e-05 -7.26137e-20
-5.78714e-05 -1.05908e-06 -4.34409e-20
-5.45548e-05 -1.81741e-06 1.13188e-20
-6.03757e-05 5.27651e-05 -6.68081e-20
0.000104819 0.00018163 -2.11967e-20
9.19941e-05 -0.000159313 1.02307e-20
-7.49284e-05 -4.81527e-05 -8.39495e-21
-7.55864e-06 -0.000102966 2.55635e-21
0.000128908 -0.000228422 -1.79541e-20
0.000222324 -0.000112578 -4.15586e-20
1.41259e-05 5.79326e-05 -3.46868e-20
1.21679e-05 -6.46718e-05 1.89873e-20
-1.26011e-05 0.000107615 -2.15448e-20
2.47491e-05 -9.87764e-05 -5.84111e-21
9.50044e-06 8.5792e-05 -5.6567e-20
0.000103433 5.03166e-05 -7.26084e-20
8.36651e-05 2.54743e-05 -6.60806e-20
7.55671e-05 -5.42481e-05 -1.5338e-20
-0.000203611 -9.89585e-09 3.65297e-21
-0.000208912 -2.19168e-08 7.08843e-20
-7.73563e-05 -4.99267e-05 -3.64878e-22
6.61271e-05 7.11216e-05 -1.20864e-19
5.80839e-05 -8.1862e-05 -2.04506e-20
2.11815e-05 6.11996e-05 -7.73864e-20
2.68108e-05 -6.23451e-05 -6.57191e-21
1.50095e-05 -1.98889e-05 -4.74649e-21
9.51375e-06 1.69053e-05 -2.70103e-20
0.000245274 -0.000245231 -8.29117e-20
-6.49254e-05 1.92838e-05 1.132e-20
-6.89794e-05 -2.35832e-05 -4.63694e-20
-1.63848e-05 4.9185e-05 -6.64282e-20
-1.0529e-05 -5.10465e-05 -1.20471e-20
0.000104412 -6.56216e-05 -2.11647e-20
-7.80537e-05 3.9419e-05 -6.64378e-20
-9.68085e-05 -1.79904e-05 -1.09537e-21
-0.00010084 1.32223e-05 -4.12549e-20
-6.03052e-05 2.82296e-05 -5.65776e-20
2.83521e-05 0.00012866 -3.8713e-20
2.43714e-05 -0.000125262 8.03488e-21
4.11846e-05 0.000246163 -5.26121e-20
4.9479e-05 -0.000202498 -1.53455e-20
-2.45132e-05 0.000434587 -1.41197e-19
-0.000432574 1.99863e-05 1.06766e-19
6.29322e-05 7.23038e-06 -4.9282e-20
6.39614e-05 -4.41141e-05 -1.46083e-20
0.000240302 -0.000298415 -3.86285e-20
0.000299201 -0.000236818 -5.41157e-20
8.52357e-05 -0.000205617 5.92055e-20
9.92752e-05 0.000239665 -1.38888e-19
-7.33837e-05 4.33916e-05 -7.33659e-20
6.71322e-05 3.40655e-05 -6.75319e-20
6.62989e-05 -5.90605e-05 -2.55619e-21
6.33311e-05 6.84509e-05 -4.41563e-20
6.75245e-05 -8.62351e-05 2.29959e-20
1.75767e-06 -0.000213197 4.63111e-20
4.8032e-06 0.000186109 -8.64121e-20
0.00021238 -3.7195e-06 -4.8131e-20
4.80031e-05 4.62283e-05 -3.68609e-20
5.54044e-05 -6.87119e-05 6.20641e-21
2.08824e-05 0.000205255 -9.82437e-20
-0.000203899 -3.02409e-05 3.62722e-20
8.9111e-05 1.22899e-05 -5.69564e-20
7.85184e-05 -4.69289e-05 -1.46108e-21
8.48939e-05 2.69187e-05 -4.19893e-20
7.61926e-05 -5.49824e-05 -1.46071e-21
-0.000239596 0.000293635 9.10764e-22
-0.000296358 0.000239126 9.43765e-20
7.14585e-05 3.71713e-05 -5.76709e-20
7.12352e-05 -6.26016e-05 2.9207e-21
3.72827e-05 -0.000126755 -1.09591e-20
2.48813e-05 0.000144756 -4.74851e-20
6.3437e-05 -2.84419e-05 -8.39783e-20
6.32656e-05 -2.27403e-05 2.55712e-20
9.72991e-05 9.05943e-05 -1.04079e-19
7.91751e-05 -9.49925e-05 6.5743e-21
-5.80477e-05 -1.86048e-05 -1.4432e-25
-5.86097e-05 1.38492e-05 -6.27868e-20
9.53341e-05 -0.000158422 2.63036e-20
-0.000201423 -5.41398e-06 1.388e-20
-0.000207653 3.05344e-06 4.09116e-20
9.7945e-05 0.000183321 -8.40187e-20
9.03866e-05 0.000174892 -4.60274e-20
0.000134469 0.000134157 -6.5769e-20
7.39653e-05 -0.000162208 3.21461e-20
0.000111169 -0.000127802 3.58071e-20
0.000166656 -6.89917e-05 1.8634e-20
0.000428328 -5.63006e-05 8.91918e-20
0.000337109 4.44807e-05 -2.11969e-20
9.67251e-05 4.01019e-05 4.63223e-26
0.000213356 1.87521e-06 -5.69881e-20
0.000144538 -4.36829e-05 -9.38643e-20
0.000199966 6.41272e-05 -1.08167e-19
0.00014864 -3.8583e-05 1.38853e-20
0.000144635 -5.71755e-05 -3.14263e-20
0.000111097 -1.37402e-05 3.36124e-20
0.000152849 5.83656e-05 -6.0265e-20
0.000154274 5.79442e-05 -6.2835e-20
0.000116051 -7.4461e-05 -1.89966e-20
0.000120592 -7.30574e-05 2.92313e-21
1.32769e-05 2.95257e-06 1.38858e-20
1.10768e-05 6.46112e-06 -5.99414e-20
3.04169e-05 -7.04513e-07 3.80062e-20
1.06744e-05 -1.50125e-06 -1.46145e-21
1.0809e-05 -1.42753e-06 -4.38457e-21
9.64645e-06 2.30853e-05 -5.92116e-20
3.1958e-05 -1.86573e-05 3.06965e-20
1.03216e-05 2.06883e-06 1.24229e-20
2.79189e-05 2.3519e-05 -1.4613e-20
1.15286e-05 1.25449e-06 -1.38865e-20
1.16199e-05 -1.13211e-06 -6.06624e-20
9.94702e-06 1.07577e-08 -5.62874e-20
6.23856e-05 -1.6435e-06 9.50079e-21
-6.2807e-06 -1.15125e-05 -5.84848e-21
1.33062e-05 7.65796e-06 6.57724e-21
2.18386e-05 7.25251e-06 3.06916e-20
2.65657e-05 2.01282e-05 -2.7774e-20
1.39542e-05 -2.38809e-05 7.30965e-22
8.32274e-06 7.79938e-07 -8.0419e-20
1.2103e-05 1.40072e-07 -8.03987e-21
1.21453e-05 -1.23928e-07 -7.382e-20
9.37515e-06 3.79958e-07 -5.92128e-20
9.91746e-06 6.66556e-06 2.48475e-20
7.84303e-06 9.78682e-07 -5.84622e-21
4.29143e-06 6.37154e-06 8.03859e-21
1.05437e-05 1.71246e-06 -7.45616e-20
1.17087e-05 1.51516e-06 -2.19217e-21
1.08337e-05 -3.33917e-08 -4.01987e-20
1.34558e-05 -1.39854e-05 -2.19193e-21
9.39678e-06 -2.99029e-07 -3.72802e-20
2.30487e-05 1.78771e-05 -2.924e-20
2.58361e-05 -1.62775e-05 4.38597e-21
-0.000117272 -5.96244e-05 -5.62756e-20
-0.000117541 5.6446e-05 -1.75405e-20
9.29536e-06 2.16261e-07 -1.68087e-20
5.76014e-06 8.10886e-06 -1.24229e-20
-2.24689e-05 -7.1535e-06 -3.65387e-20
-2.60856e-05 8.38338e-06 -1.46155e-20
3.51428e-05 -1.49427e-05 -8.03716e-21
1.07717e-05 1.40904e-06 -8.47978e-20
7.49507e-06 -1.3366e-06 -1.53467e-20
2.92937e-05 -8.44699e-08 -2.19212e-21
9.95175e-06 -6.43552e-06 -3.06941e-20
1.31864e-05 -2.96233e-06 -4.23881e-20
7.12465e-06 5.34353e-06 -7.52967e-20
9.36057e-06 -1.17569e-06 -2.77708e-20
1.32543e-05 -2.12249e-06 -2.41193e-20
1.13098e-05 -4.2996e-06 -2.99686e-20
3.63182e-05 -1.15136e-05 1.02302e-20
1.15394e-05 -4.22046e-07 -3.65471e-20
8.92781e-06 -2.33117e-06 -1.53484e-20
1.80725e-05 -9.7626e-07 1.90097e-20
1.80818e-05 9.67831e-07 -3.14391e-20
5.91391e-06 1.67192e-06 -9.06561e-20
1.69356e-05 -8.97679e-06 -2.33967e-20
1.69427e-05 8.98349e-06 -3.07081e-20
1.06593e-05 3.16032e-06 -7.45631e-20
-3.03647e-05 -0.000111806 -1.82692e-20
-3.05041e-05 0.000112209 -2.26536e-20
1.24166e-05 -4.1094e-06 -2.77822e-20
1.2408e-05 4.10836e-06 -6.58e-20
9.33204e-06 2.33615e-07 -2.85023e-20
8.5905e-05 -5.81548e-05 3.65442e-20
-2.07377e-05 4.79192e-05 -5.11776e-20
1.07701e-05 -1.40571e-06 -2.77786e-20
1.09072e-05 -1.29954e-07 -4.97004e-20
9.061e-06 4.13402e-07 -3.80044e-20
1.13758e-05 6.24732e-06 -7.16387e-20
1.99298e-05 6.80616e-06 2.55787e-20
3.45683e-05 -1.43199e-05 3.65615e-21
3.45933e-05 1.43303e-05 2.04744e-20
3.32608e-05 2.83972e-05 2.92288e-20
1.03129e-05 -3.70514e-06 -4.02104e-20
1.02834e-05 3.82879e-06 -7.60342e-20
1.05121e-06 1.75082e-05 -2.04594e-20
4.61542e-06 -7.25925e-06 -5.11736e-21
9.35139e-06 -1.72557e-07 -8.7697e-21
8.36629e-06 -7.98182e-07 7.30769e-22
-1.60814e-05 -3.53228e-05 -3.79971e-20
-5.16143e-05 8.93762e-05 -2.92336e-21
-5.19362e-05 -8.9934e-05 -2.48481e-20
9.54761e-06 1.39168e-06 8.77011e-21
5.20398e-06 9.1727e-07 -1.60768e-20
8.24504e-06 2.09906e-06 -9.21162e-20
1.34282e-05 5.62354e-05 -1.53533e-20
2.57226e-05 -7.27947e-05 -3.655e-21
-1.91015e-05 3.97086e-05 -3.28822e-20
2.55871e-05 3.36138e-06 -4.75093e-20
1.52484e-05 -6.8935e-06 -2.19297e-21
6.57517e-06 -2.20621e-06 -7.09177e-20
6.45728e-06 2.03894e-06 -1.08204e-19
1.00364e-05 -6.39538e-07 -1.90061e-20
8.36068e-06 7.99033e-07 -7.09131e-20
9.32946e-06 -7.56858e-06 -4.53299e-20
9.29357e-06 7.64447e-06 -7.96929e-20
8.36408e-06 -2.11951e-06 -4.6058e-20
1.0579e-05 -1.65139e-06 -3.87428e-20
6.18241e-06 -4.26549e-06 -4.97156e-20
6.01688e-06 4.1892e-06 -9.21201e-20
8.10996e-06 9.40926e-06 -3.65363e-21
9.50794e-06 3.92393e-08 -9.06542e-20
8.20701e-06 2.05578e-06 1.31545e-20
8.46755e-06 4.13941e-05 -7.30788e-22
4.29348e-06 8.12167e-09 -8.04165e-20
9.25539e-06 3.2628e-07 -7.38355e-20
-5.44991e-06 9.83552e-06 -6.57656e-21
8.06124e-06 -8.23327e-06 1.46144e-21
9.66657e-06 1.50127e-06 1.38854e-20
4.81472e-06 -6.16757e-07 -2.19226e-21
1.68118e-05 -7.70626e-06 -7.3091e-21
1.53688e-05 8.67077e-06 -6.4322e-20
1.00134e-05 -3.73463e-08 -2.99713e-20
9.52468e-07 -1.78108e-05 -8.76826e-21
1.06675e-05 -7.61506e-07 -1.97371e-20
1.06853e-05 6.90507e-07 -7.60241e-20
4.215e-06 8.63083e-07 -1.09614e-20
2.30581e-05 2.8294e-05 -9.4978e-21
2.35891e-05 -2.92638e-05 5.11398e-21
1.32647e-05 2.9472e-06 -1.24249e-20
3.81519e-06 -5.60703e-06 -2.19234e-20
1.16445e-05 -8.76453e-09 -3.94697e-20
1.17074e-05 3.51167e-09 -8.47871e-20
9.21865e-06 -2.34011e-08 -3.65509e-20
1.00396e-05 5.85424e-07 -7.45621e-20
1.02464e-05 -8.37399e-07 -1.16964e-20
-4.27683e-05 7.40533e-05 -2.70537e-20
4.56528e-05 -7.91318e-05 2.92446e-21
9.22839e-06 -4.29132e-07 -4.31318e-20
8.35164e-06 1.27249e-06 -8.33385e-20
6.0354e-06 -1.80434e-06 -1.11127e-19
1.33672e-05 -3.01487e-06 -5.40848e-20
8.6381e-07 7.44325e-06 -6.57964e-20
4.14243e-05 1.06884e-05 6.72228e-20
9.57796e-06 -1.16415e-07 -7.31115e-22
8.46501e-06 -3.70611e-06 -1.03814e-19
1.98985e-05 1.42434e-05 1.38846e-20
2.94203e-06 2.34042e-08 -1.07475e-19
1.02193e-05 7.15017e-07 -7.38336e-20
9.02124e-06 -4.19791e-05 -1.096e-20
1.02687e-05 1.23808e-06 -8.40684e-20
9.38621e-06 -1.27848e-06 -4.67739e-20
6.35676e-06 -9.35577e-06 -1.09613e-20
1.19521e-05 -1.83699e-07 -3.21617e-20
1.19878e-05 1.53934e-07 -6.944e-20
9.43422e-06 -5.01822e-07 -4.16685e-20
1.02597e-05 -1.20933e-06 -1.60827e-20
1.57252e-05 1.52331e-06 -7.67481e-20
1.64986e-05 -1.40057e-06 -4.38563e-21
1.09917e-05 -7.63274e-08 -2.33912e-20
1.10561e-05 1.04415e-07 -6.43262e-20
1.05911e-06 -3.08237e-06 -9.43147e-20
9.90767e-07 2.98217e-06 -1.19173e-19
1.01659e-05 4.79072e-07 -9.28444e-20
4.41241e-05 -1.4301e-05 3.87253e-20
-8.87483e-06 7.00921e-06 -2.1191e-20
9.12765e-06 -2.68828e-07 -9.50097e-21
1.26492e-05 1.81137e-06 -7.23653e-20
1.36718e-05 -4.07256e-06 -1.90093e-20
1.36785e-05 4.07697e-06 -4.24055e-20
1.04549e-05 -2.08401e-06 -1.16975e-20
1.04337e-05 2.06337e-06 -7.67649e-20
1.14408e-05 -3.08541e-07 -3.58149e-20
7.1803e-06 -5.49225e-07 -4.53203e-20
1.25425e-05 -1.93141e-06 -4.89745e-20
2.22022e-05 -1.83542e-05 -2.85161e-20
2.22176e-05 1.83648e-05 -1.68172e-20
1.01566e-05 1.34975e-06 -9.21139e-20
9.05346e-06 -5.7798e-08 -1.24241e-20
8.36777e-06 -9.31357e-07 -6.50646e-20
2.11707e-05 1.14339e-06 -2.26561e-20
1.08173e-05 -9.04784e-06 -1.53509e-20
9.31644e-06 -1.22552e-06 -3.65411e-20
8.25439e-06 3.76955e-06 9.5041e-21
1.01528e-05 -1.36397e-06 -3.07046e-20
1.81096e-05 2.66284e-05 8.76729e-21
-7.0625e-06 7.96078e-06 -6.79897e-20
6.28381e-05 9.28721e-06 7.81993e-20
1.01619e-05 -4.62625e-07 -1.68143e-20
4.13187e-06 1.94871e-05 -8.03813e-21
7.76337e-06 2.89842e-07 -5.84638e-21
6.14165e-06 1.76077e-07 -8.91919e-20
1.3561e-05 -8.13471e-06 -2.11933e-20
1.44001e-05 -2.6258e-07 -1.53485e-20
1.09053e-05 1.99491e-06 -9.86955e-20
1.20583e-05 3.24999e-06 -8.04051e-20
-6.08517e-07 -5.42826e-06 -4.38645e-21
1.10101e-05 1.0313e-06 -4.23908e-20
1.05471e-05 5.59953e-07 -2.55802e-20
1.09169e-05 -2.01721e-06 -1.97391e-20
8.40923e-06 -9.53813e-07 -5.48311e-20
3.54017e-05 -1.63269e-05 -1.53556e-20
3.54264e-05 1.63365e-05 2.99799e-20
8.15954e-06 -1.4401e-06 -9.50352e-21
-5.19824e-05 -4.48759e-05 -2.4846e-20
-5.41368e-05 4.31598e-05 -1.75384e-20
1.96615e-05 -6.73276e-06 4.38428e-21
1.83031e-05 -2.83452e-05 1.97262e-20
1.09692e-05 -9.27536e-07 -4.45889e-20
1.08853e-05 -1.86783e-07 -1.46173e-20
1.10649e-05 -1.40503e-07 -3.43547e-20
1.10406e-05 8.98412e-08 -6.50548e-20
9.52998e-06 4.09304e-07 -3.87425e-20
6.23945e-06 4.78854e-07 1.68149e-20
1.1504e-05 1.70188e-07 -5.26252e-20
9.47526e-06 -3.61905e-08 -4.09352e-20
8.23072e-05 3.91428e-05 4.01987e-20
-1.91623e-05 -3.78713e-05 -8.77302e-21
8.01733e-06 -1.23731e-05 -1.82687e-20
2.98292e-05 5.66882e-07 1.02278e-20
1.11621e-05 1.1495e-06 -7.67524e-20
1.11373e-05 -1.1581e-06 -1.97364e-20
1.73175e-05 6.05859e-06 -4.38413e-21
1.07009e-05 -3.42396e-06 -3.07025e-20
1.48958e-05 -9.74387e-06 -3.07086e-20
1.49047e-05 9.74689e-06 -3.36333e-20
-2.9751e-06 1.73092e-06 -1.16922e-20
4.14536e-06 -1.97269e-05 -2.11913e-20
8.43796e-06 -8.06505e-06 -9.49918e-21
9.71616e-06 7.23382e-07 -7.30822e-21
1.9514e-05 -1.28413e-05 -4.38456e-21
1.26654e-05 3.44897e-06 -2.485e-20
1.49705e-05 1.20115e-06 -6.21253e-20
1.20809e-05 -2.95657e-06 -2.8507e-20
1.59466e-05 5.94975e-05 -2.04688e-20
3.37052e-05 -6.24484e-05 8.77214e-21
3.22539e-06 -5.91229e-06 -6.58019e-20
3.21543e-06 5.88195e-06 -1.00896e-19
-2.28187e-05 -7.00991e-06 -2.77678e-20
-2.32644e-05 9.18729e-06 -5.11514e-21
-7.33762e-05 4.69851e-05 5.11511e-21
-7.51906e-05 -4.64081e-05 -1.60764e-20
3.25426e-05 -1.64937e-05 2.1936e-21
3.25675e-05 1.65032e-05 5.11842e-21
1.1025e-05 3.2109e-06 2.19335e-21
1.10092e-05 -3.15145e-06 -9.79689e-20
1.0039e-05 1.826e-06 -8.11482e-20
2.0446e-05 -3.85149e-06 -3.06963e-20
1.18952e-05 -2.75418e-06 -3.36254e-20
9.43149e-06 -1.23098e-06 -3.14258e-20
1.00504e-05 -1.85448e-06 -2.92426e-20
1.98459e-05 2.32329e-06 8.03945e-21
1.03625e-05 1.32125e-06 -1.00884e-19
-1.10416e-05 -3.54575e-05 6.57548e-21
-1.11513e-05 3.51347e-05 -7.30687e-22
1.039e-05 -1.32247e-06 -3.3628e-20
7.81717e-06 1.4511e-05 -2.04609e-20
4.5784e-05 7.93637e-05 1.02347e-20
-2.93165e-05 -5.07614e-05 -2.0474e-20
4.55403e-06 -4.77292e-06 -1.46206e-21
-3.7178e-06 -8.2543e-06 -2.19219e-21
3.44944e-05 -5.50199e-05 -2.1191e-20
1.09371e-05 1.074e-06 -3.87406e-20
1.04329e-05 4.4829e-07 -3.72795e-20
1.98425e-06 -7.45337e-06 -4.82553e-20
1.98573e-06 7.32852e-06 -9.72417e-20
3.17741e-05 5.82137e-05 -2.6306e-20
1.13413e-05 2.7153e-06 -7.30989e-20
9.2876e-06 1.26564e-06 -7.16425e-20
1.28673e-05 -4.89718e-07 5.84889e-21
1.28656e-05 4.64648e-07 -8.33462e-20
-0.000107797 -4.75734e-09 -2.41167e-20
-0.000107787 4.87845e-09 7.30837e-22
7.81181e-06 -3.45985e-06 -1.24277e-20
5.45475e-06 -7.08221e-07 -8.76927e-21
9.30256e-06 -8.77214e-06 -4.24057e-20
9.26565e-06 8.77975e-06 -6.87265e-20
3.64629e-05 -9.4881e-06 7.30814e-21
3.16636e-05 -3.0593e-05 1.31525e-20
1.27105e-05 3.63652e-06 -2.19281e-20
-1.43671e-05 4.16147e-05 -8.76863e-21
-1.44771e-05 -4.24343e-05 7.30719e-22
1.91673e-05 -1.50146e-05 1.24222e-20
9.28016e-06 -1.23013e-06 -3.72834e-20
-4.72414e-06 -3.11304e-06 -8.76915e-21
-3.15707e-05 2.25481e-05 -1.75373e-20
-3.1685e-05 -2.25623e-05 -1.53451e-20
7.82928e-06 9.51623e-06 -6.57629e-21
4.09059e-06 -1.7923e-05 -4.02135e-20
4.1203e-06 1.79385e-05 -7.45778e-20
4.00373e-05 8.52051e-05 1.75462e-20
4.10953e-06 -8.47113e-05 -1.68151e-20
1.15971e-05 -4.6051e-07 -4.89717e-20
7.04729e-06 4.43422e-07 -1.60792e-20
1.12334e-05 1.85952e-06 -2.19328e-21
1.12793e-05 -1.93937e-06 -1.03815e-19
4.78248e-06 6.83444e-07 1.53523e-20
1.23849e-05 1.6154e-07 -3.43539e-20
8.83521e-06 3.03432e-06 -4.16648e-20
1.46024e-05 3.52542e-05 -1.46244e-21
1.45927e-05 -3.52309e-05 1.24307e-20
-9.36421e-06 -7.07125e-06 -2.41138e-20
1.03755e-05 -1.34713e-06 -3.21658e-20
1.17517e-05 -1.0701e-06 7.31105e-22
1.17473e-05 1.04591e-06 -9.13867e-20
1.00847e-05 -9.6097e-07 -2.55869e-20
1.03541e-05 1.3356e-06 -1.02346e-19
1.16496e-05 1.79617e-08 -4.23939e-20
1.17075e-05 3.797e-09 -5.99365e-20
9.43465e-06 2.09545e-09 -3.80119e-20
1.00813e-05 9.39788e-07 -8.69957e-20
1.15437e-05 -1.91165e-07 -4.89711e-20
9.11396e-06 -1.0393e-08 -1.16936e-20
1.48155e-05 1.09985e-06 8.04226e-21
1.48654e-05 -1.24623e-06 -8.62714e-20
1.39653e-05 -1.80308e-06 3.65564e-21
1.39893e-05 1.7917e-06 -5.41032e-20
1.24104e-05 7.25971e-08 -2.8505e-20
8.72011e-06 3.13435e-06 -2.70425e-20
1.1068e-05 5.58552e-07 -1.00888e-19
1.10681e-05 -5.85655e-07 -2.33944e-20
3.30915e-05 4.20055e-05 7.30972e-21
1.13639e-05 -3.96521e-05 2.9243e-21
1.19819e-05 5.94792e-06 -7.31129e-21
1.19036e-05 -5.94306e-06 -7.16505e-20
1.4637e-05 -1.21026e-05 -4.16758e-20
1.46418e-05 1.21318e-05 -5.11808e-20
-1.83551e-06 -2.21195e-05 -1.24225e-20
-1.99134e-06 2.16434e-05 -1.89991e-20
7.90486e-05 7.07172e-05 2.19269e-20
-0.000115187 -1.89816e-05 -2.11921e-20
1.35419e-05 2.49565e-05 -6.58062e-20
2.00554e-05 1.89302e-05 -2.92479e-21
1.35237e-05 -2.49496e-05 -1.75483e-20
2.00417e-05 -1.89191e-05 -1.24304e-20
-1.75204e-05 -5.38184e-05 -1.68159e-20
-0.000115264 1.8612e-05 -9.50001e-21
2.66065e-05 -1.102e-05 -3.65586e-21
6.47346e-05 -8.52001e-06 4.60674e-20
6.46878e-05 8.51383e-06 -5.84983e-21
2.65822e-05 1.10099e-05 -1.75486e-20
3.31874e-05 -1.04292e-06 -1.02365e-20
2.27172e-05 -7.9759e-06 -5.33738e-20
3.09531e-05 9.30843e-06 -8.0433e-21
3.31607e-05 1.03652e-06 2.19352e-21
3.09291e-05 -9.3026e-06 -7.31213e-22
2.27004e-05 7.9629e-06 -1.02361e-20
2.39363e-05 -7.1793e-06 -2.92467e-21
2.34845e-05 -7.32027e-06 -1.60859e-20
2.39541e-05 7.17993e-06 -2.99777e-20
2.3501e-05 7.32132e-06 -1.53547e-20
-3.41569e-05 -9.74064e-05 -2.40807e-20
1.03464e-05 9.00743e-05 1.99199e-25
1.36629e-05 -8.15494e-05 -2.84731e-20
-7.29924e-05 -1.26183e-05 -2.80993e-20
-9.1435e-05 -2.27724e-05 -1.97032e-20
9.39605e-06 0.000101163 1.24171e-20
1.57362e-05 -0.000105675 4.74588e-21
-9.83251e-05 2.66453e-05 -3.64875e-21
-3.00172e-05 5.02725e-05 4.96483e-20
-5.3933e-05 -0.000119044 -5.36081e-20
-4.82439e-05 0.00013384 -4.63175e-20
0.000129289 6.33148e-05 1.9329e-20
7.17422e-05 6.76231e-05 3.65205e-21
-6.85855e-05 -7.09676e-05 -8.25258e-20
-3.39788e-05 -6.85251e-05 -3.75866e-20
-1.09267e-05 -6.55583e-05 -2.44553e-20
-7.83653e-06 -0.000108073 -5.11138e-20
2.02153e-05 9.89322e-05 -1.09562e-21
7.79706e-05 -5.36554e-06 4.78095e-20
-4.11038e-05 -0.000143999 -6.09144e-20
-3.65532e-05 0.00015634 -4.01273e-20
0.000152154 4.86105e-05 5.9094e-20
-6.38877e-05 -6.45369e-05 -4.96202e-20
-0.000100055 2.58707e-05 2.5541e-21
-7.25234e-05 -6.49993e-05 -4.30611e-20
4.84042e-05 0.000108947 3.13887e-20
-6.82405e-05 1.4637e-05 1.82474e-20
-0.000106428 -0.000216279 -8.56909e-21
-5.99253e-05 -2.96761e-05 -2.37265e-20
0.000227338 0.000119025 5.3782e-20
1.82887e-05 9.77201e-05 -1.02271e-20
3.407e-06 -0.000100903 2.92159e-21
-0.000222652 0.000110576 -4.09128e-20
-0.000227321 -0.000115217 2.70318e-20
-0.000148666 5.14083e-05 -2.55345e-21
-5.33707e-05 -4.23418e-05 -4.78095e-20
-9.22502e-05 -4.6075e-05 -4.38176e-20
-9.3816e-05 4.84261e-05 2.92123e-21
-1.55254e-05 -3.16425e-05 -2.44588e-20
6.58857e-05 8.56274e-05 4.8538e-20
-9.39247e-05 6.67006e-05 -3.64879e-21
-2.71676e-05 1.34488e-06 2.40922e-20
-5.90971e-05 7.06267e-05 -3.39349e-20
-2.94048e-05 0.000102511 -2.04345e-20
3.05981e-05 8.08627e-05 4.34547e-20
-9.49378e-05 6.66008e-05 1.2403e-20
-0.000236647 -0.000236596 -5.01092e-20
0.000246762 0.000246725 6.25014e-20
2.59533e-05 5.02812e-05 3.65149e-21
0.000248143 0.000270147 -1.20273e-20
-0.000254392 -0.000237452 -2.09531e-20
9.40001e-05 5.14052e-05 4.6756e-20
0.000117004 -2.0575e-05 1.05176e-19
5.45356e-05 -1.38121e-05 6.89842e-20
8.95117e-05 8.29601e-05 8.32756e-20
0.00010968 -7.20336e-05 1.02982e-19
4.64759e-05 8.4707e-05 3.24879e-20
-9.34254e-05 0.000178566 6.57454e-20
-9.55578e-05 -0.000179055 -7.30478e-20
7.43229e-05 6.27367e-05 4.96612e-20
8.14367e-05 -4.44717e-05 2.62858e-20
-0.000130127 6.01943e-05 -3.64633e-21
-4.74501e-05 0.00013603 2.92273e-21
0.000107242 -0.000166433 4.56595e-20
5.82093e-05 -6.6892e-05 4.45136e-20
-0.00011547 0.000228327 -1.58601e-20
-0.000221994 0.000121074 -2.36972e-21
2.48954e-05 7.96398e-05 5.47683e-21
-9.21175e-06 -6.51535e-05 -2.91985e-20
0.000179767 7.44159e-05 3.87377e-20
0.000228896 -9.48512e-05 9.86906e-20
1.25609e-05 -2.20895e-05 -6.09571e-20
7.30429e-05 5.08152e-05 5.40287e-20
7.76686e-05 -3.8975e-05 2.37262e-20
-4.66953e-05 -3.21446e-05 -5.29267e-20
-1.9923e-05 -5.19582e-05 -9.12678e-20
-0.000137297 -2.73713e-05 -1.93303e-20
9.75095e-05 -1.58539e-05 4.63424e-20
-0.000118916 -1.56811e-05 -3.97643e-20
-8.62831e-05 -7.23336e-05 -5.69557e-20
-0.000100523 -0.000174045 -1.24191e-20
-9.93838e-05 0.000172144 2.19174e-20
-0.000105166 -0.000115513 -2.84508e-20
-7.42079e-05 4.72941e-05 -9.48778e-21
7.45756e-05 5.20503e-05 3.02954e-20
1.82652e-05 -0.000188087 -3.288e-20
1.62083e-06 0.00014796 -8.03756e-21
-8.6642e-05 8.05223e-05 2.70185e-20
1.9619e-05 8.87851e-05 6.20694e-21
-6.1962e-06 -8.65545e-05 -6.16929e-20
5.27037e-05 2.48679e-05 4.01546e-20
5.32983e-05 -1.30315e-05 8.65119e-20
0.000130111 -9.33967e-05 1.60486e-20
5.86417e-05 6.66317e-05 1.82565e-20
6.60789e-05 -5.95696e-05 7.92268e-20
7.54322e-05 -3.69684e-05 1.89786e-20
3.62121e-05 -9.52181e-05 1.42315e-20
4.70018e-05 5.44497e-05 3.35874e-20
4.82594e-05 -4.06793e-05 5.07426e-20
-7.88167e-05 3.78291e-05 3.10239e-20
5.05972e-05 5.92071e-05 4.34584e-20
-9.65102e-05 -6.60709e-05 -5.14438e-20
-3.42001e-05 8.10584e-06 -1.01107e-19
1.52332e-05 5.19214e-05 2.15478e-20
0.000103164 2.59245e-05 4.96198e-20
-7.58785e-05 4.85602e-05 1.13156e-20
-8.27182e-05 -3.76579e-05 -2.55468e-20
-6.4541e-05 -7.82043e-05 -5.83663e-20
-7.37769e-05 -4.81596e-05 -5.87466e-20
-1.15565e-06 -8.91597e-05 -2.81041e-20
1.37642e-05 9.1811e-05 7.30247e-22
0.000128291 -4.89621e-05 3.90216e-20
-4.3197e-05 3.43639e-05 2.55553e-21
6.28474e-05 -9.61097e-05 1.82411e-20
6.88055e-05 0.000110028 2.22584e-20
-7.45051e-05 4.72868e-05 6.56971e-21
-2.886e-05 4.91363e-05 3.83346e-20
-3.05488e-05 -5.02706e-05 -6.09693e-20
-1.91689e-05 -9.10231e-05 -4.52364e-20
-6.89596e-05 7.19694e-05 -1.27731e-20
1.14328e-05 -0.000126948 -3.42823e-20
2.28641e-05 0.000139044 -4.12165e-20
0.000134992 -7.09985e-07 4.92361e-20
0.00013577 0.000105821 6.56637e-21
9.00207e-05 -5.56802e-05 1.20385e-20
0.00012884 -0.000223239 5.26285e-20
-0.000104908 0.000181753 -6.57655e-21
9.97137e-05 -1.45871e-05 5.54544e-20
3.27979e-05 7.3533e-05 4.12575e-20
5.70396e-05 2.80378e-05 6.02257e-20
-1.16047e-05 9.73237e-05 -2.00677e-20
2.72933e-05 -5.40356e-05 -1.82524e-21
7.82649e-06 6.79939e-05 1.75329e-20
4.28756e-05 -3.15879e-05 1.82525e-21
4.416e-05 3.60846e-05 1.49748e-20
-1.52824e-05 -4.9856e-05 -3.97805e-20
2.5717e-05 4.81213e-06 8.7238e-20
9.12745e-05 7.32012e-05 3.72145e-20
-2.91093e-05 -7.86225e-06 8.03228e-21
9.19205e-05 8.15658e-05 5.07225e-20
-9.96591e-05 0.000130489 -8.02483e-21
-4.9421e-05 4.31398e-05 6.2051e-21
3.54707e-05 -0.000140661 -7.29597e-22
4.50972e-05 0.000151012 -2.73621e-20
0.0001502 -3.16772e-05 6.52938e-20
9.04552e-05 -6.58545e-05 -1.09438e-21
-4.93468e-07 -0.00010246 -3.94115e-20
1.28247e-05 0.000110653 2.19031e-21
7.22172e-05 -0.000127504 1.75041e-20
7.69104e-05 0.000135475 -1.9331e-20
9.08771e-06 3.22064e-05 5.54861e-20
8.64771e-06 -2.18439e-05 9.27191e-20
5.65183e-05 6.31574e-05 4.19899e-20
3.49632e-05 4.70622e-05 8.39847e-21
-7.34908e-05 -4.38562e-05 -5.0005e-20
-0.000147368 -0.000113791 3.09935e-21
2.7919e-05 0.000107967 6.20338e-21
7.60127e-05 6.26926e-05 8.43594e-20
9.12237e-05 -4.4261e-05 6.24373e-20
7.22041e-05 6.05516e-05 5.69563e-20
7.75469e-05 -4.04303e-05 3.65053e-21
-4.69183e-05 -0.000426278 6.39452e-20
0.000437483 7.3539e-05 9.94723e-20
1.93057e-05 -9.27924e-05 -5.69127e-20
0.000114084 0.000126753 4.6031e-20
0.000145744 -0.000131278 1.63656e-19
8.01824e-05 6.83329e-05 9.30781e-20
-0.00018398 -9.37947e-06 -3.04467e-20
1.95373e-06 7.98993e-05 9.85669e-21
5.95194e-06 -8.06397e-05 -8.94259e-20
-6.2976e-05 0.000102562 -4.77917e-20
2.93339e-05 8.18615e-06 -7.3002e-21
8.13276e-05 -4.99395e-05 -7.66376e-21
-1.25608e-05 -2.50132e-05 -9.48975e-20
-2.49101e-05 7.0139e-05 5.11418e-21
6.97435e-05 -5.68344e-05 1.16853e-20
4.95992e-05 -3.55716e-05 1.86138e-20
-5.41487e-05 -3.69296e-05 -5.40166e-20
-9.47777e-05 -5.92252e-05 -6.01906e-20
9.30157e-05 3.14943e-05 4.12346e-20
3.36848e-05 5.36006e-05 5.84421e-21
-2.70228e-05 6.95277e-05 -8.75961e-21
-1.86136e-05 -9.26193e-05 -6.23947e-20
7.12965e-05 6.06759e-05 7.92191e-20
3.01924e-05 0.000102463 2.91973e-21
-3.36945e-05 -4.71302e-05 -5.62182e-20
-0.00011641 0.000217484 -1.00243e-20
-0.000209936 0.000122241 -1.82265e-20
7.62504e-05 2.16565e-05 3.57672e-20
7.12652e-05 -4.13316e-05 -3.64995e-21
0.000193243 0.000106858 -2.92336e-21
0.000237056 -0.000114576 1.43991e-19
1.57034e-05 -5.21169e-05 -1.71542e-20
-0.000127925 9.07139e-05 -2.33737e-20
-0.000128978 -9.30045e-05 -2.04523e-20
-5.45324e-05 -2.33756e-05 -1.24096e-20
-8.25016e-06 2.27516e-05 -1.24131e-20
0.000124151 0.000160273 -6.2889e-20
-0.000141214 -0.00011348 6.92667e-21
0.000119713 -0.000168915 8.02118e-20
0.000125744 0.000182565 -9.11614e-20
0.000187232 -0.000102556 5.83361e-20
1.23367e-05 -1.95609e-05 -1.93446e-20
-1.54273e-05 -0.000188603 3.48139e-20
0.000198731 2.01325e-05 6.58033e-20
-0.000102242 -0.000139826 -1.60706e-20
9.89483e-05 0.000123278 -4.38349e-21
-6.34642e-05 -5.06026e-05 -3.10297e-20
-2.69195e-05 1.64627e-06 1.13165e-20
6.86507e-05 -0.000100993 8.75354e-21
7.45601e-05 0.00011548 -1.60507e-20
-6.23679e-05 1.94029e-05 1.20449e-20
3.42534e-05 -6.65912e-05 -2.40855e-20
7.9968e-05 8.65637e-05 6.75768e-20
9.89091e-05 -7.6078e-05 1.57418e-19
-7.69799e-05 -4.07443e-05 -4.27088e-20
-5.03797e-05 3.86719e-05 -6.93585e-21
-6.12572e-05 -2.80998e-05 -1.89803e-20
-0.000118066 -6.43852e-05 -5.2518e-20
-1.05528e-05 5.65117e-05 1.45988e-21
-0.000247956 0.000247994 -1.27538e-20
-1.03081e-05 0.000100753 1.82481e-21
1.78814e-05 -9.59809e-05 -4.81648e-20
1.82602e-05 -0.000188049 2.99509e-20
8.26374e-06 0.000156551 -1.68033e-20
2.38642e-05 5.15846e-05 2.37299e-20
2.5377e-05 -4.34725e-05 1.0441e-19
-9.05869e-05 -4.67381e-05 -3.43175e-20
-8.82061e-05 5.00114e-05 -5.84189e-21
-0.000157654 3.01076e-05 -2.48332e-20
-0.000155572 -2.68187e-05 -1.67999e-20
0.00015594 0.000109044 2.11934e-20
0.000211552 -0.000116042 1.55656e-19
5.78062e-05 3.90622e-05 4.82207e-20
5.52637e-05 2.95728e-06 4.41725e-20
8.45389e-05 5.05813e-05 6.82493e-20
3.18027e-06 8.83248e-05 -5.84007e-21
5.6042e-06 -8.26517e-05 -4.96328e-20
-0.000132578 9.60545e-05 8.38922e-21
8.44554e-05 -3.5466e-05 -4.37921e-21
-9.65164e-06 -8.83793e-05 -3.10196e-20
7.74798e-05 6.86946e-05 9.05135e-20
-5.80184e-05 5.12822e-07 -5.29316e-20
-5.52757e-05 6.39709e-07 3.6513e-21
7.34676e-05 -5.13104e-05 2.22582e-20
-5.89077e-05 5.45552e-05 3.06679e-20
9.2033e-05 0.000159381 -8.76883e-21
-0.000104682 -0.000181316 -5.77431e-20
-1.96445e-05 -6.31793e-05 -1.01114e-19
-7.734e-05 -4.57171e-05 -3.64985e-20
-8.36428e-06 -0.000102702 -5.33137e-20
0.000124839 -0.000217825 7.68266e-20
0.000218936 -0.000101169 2.94361e-20
1.22662e-05 6.6011e-05 2.15433e-20
1.40413e-05 -5.64722e-05 1.02964e-19
-1.17916e-05 0.00010776 2.41011e-20
2.50784e-05 9.86713e-05 8.39618e-21
0.000103861 6.5682e-05 5.14518e-20
7.53879e-05 5.43093e-05 6.7926e-20
8.37672e-05 -2.58117e-05 3.06674e-20
-0.000203569 9.12002e-09 -2.70314e-20
-0.000209083 2.21939e-08 -6.57689e-21
1.62965e-05 -4.86868e-05 -4.85447e-20
-7.93515e-05 -4.73735e-05 -4.7444e-20
5.83101e-05 8.1741e-05 7.30371e-20
6.58152e-05 -7.13111e-05 7.48553e-20
2.68152e-05 6.2624e-05 -4.74634e-21
1.35542e-05 1.90878e-05 -1.24134e-20
0.000238406 -0.000238447 -1.78568e-20
-6.87036e-05 2.20114e-05 -1.56997e-20
-6.59229e-05 -2.09548e-05 -1.27806e-20
-1.15329e-05 5.03643e-05 -1.6428e-20
0.000103913 -5.00633e-05 2.18923e-20
-7.55003e-05 4.15815e-05 1.53332e-20
-0.000100509 -1.32495e-05 -5.00166e-20
-9.73962e-05 1.5407e-05 -3.65137e-21
-5.88381e-05 3.01775e-05 2.92024e-20
2.41529e-05 0.000125028 2.70268e-20
2.85917e-05 -0.000128811 1.51931e-19
4.95407e-05 0.000202542 -2.41145e-20
-4.09261e-05 -0.000245996 -4.23821e-20
-2.25821e-05 0.000449451 -3.53472e-20
-0.000432435 2.53334e-05 -3.46171e-20
6.39287e-05 4.43113e-05 5.29549e-20
6.26429e-05 -8.00238e-06 2.19033e-20
-6.98265e-06 -1.685e-05 -4.89115e-20
0.000233904 -0.000286471 9.36517e-20
0.000298092 -0.000229166 5.2748e-20
9.9308e-05 -0.000239744 1.24999e-19
8.50737e-05 0.000205225 1.97352e-20
-7.01271e-05 4.61516e-05 1.56965e-20
6.38663e-05 -6.77427e-05 3.86825e-20
6.62362e-05 5.9065e-05 4.71059e-20
6.73001e-05 -3.43641e-05 1.31414e-20
4.78953e-05 -4.65426e-05 9.85376e-21
6.74959e-05 8.59256e-05 7.19093e-20
-2.63121e-06 -0.000202049 4.81285e-20
9.25546e-06 0.000197604 -1.11947e-19
0.000211456 8.34947e-06 6.81851e-20
5.55158e-05 6.85644e-05 8.36027e-20
2.3801e-05 0.000214905 -8.23931e-20
-0.000203715 -2.49327e-05 8.93157e-21
7.82918e-05 4.70876e-05 4.85786e-20
8.87608e-05 -1.35444e-05 7.52113e-20
7.59991e-05 5.50268e-05 7.01255e-20
8.48073e-05 -2.70485e-05 5.58643e-20
-0.000243675 0.000304598 -1.18427e-20
-0.000296385 0.000244135 -3.73496e-20
7.10947e-05 6.25482e-05 5.95133e-20
7.16791e-05 -3.74717e-05 2.5549e-21
3.73566e-05 0.000126875 -3.36077e-20
-2.45676e-05 -0.000144365 3.79882e-20
6.29996e-05 2.28369e-05 5.91789e-20
6.42045e-05 2.84903e-05 6.93735e-20
7.90634e-05 9.47002e-05 8.58281e-20
9.72635e-05 -9.08971e-05 1.52283e-19
-5.96886e-05 -1.44982e-05 -6.02313e-20
-5.50702e-05 1.60325e-05 5.1114e-21
-0.000201688 4.79286e-06 -2.41074e-20
9.53361e-05 0.000158499 4.38379e-21
7.37605e-05 0.000161985 5.33349e-20
0.000110945 0.000127597 4.16529e-20
9.0475e-05 -0.000174931 1.7242e-19
0.000134497 -0.000134252 1.3373e-19
-9.78089e-05 -0.000183008 -7.59823e-20
-0.000207546 -3.65944e-06 1.89944e-20
9.64063e-05 -3.99703e-05 2.99661e-20
0.000336372 -4.43866e-05 7.89405e-20
0.000428364 5.63053e-05 7.31072e-21
0.000166576 6.89585e-05 4.38397e-21
0.000148252 3.86104e-05 5.99272e-20
0.000110818 1.38397e-05 6.3572e-20
0.000144275 5.70732e-05 3.43499e-20
0.000213314 -1.96657e-06 7.59846e-20
0.000199938 -6.4156e-05 1.11821e-19
0.000144511 4.3582e-05 1.28927e-19
0.00011576 7.44119e-05 2.48417e-20
0.000120331 7.29985e-05 6.57626e-21
0.000152821 -5.84633e-05 1.49384e-19
0.000154273 -5.80338e-05 1.81929e-19
TENSORS solid_stress_TPM float
68.5902 5.76973 1.59603e-11
5.76973 76.4929 -1.33866e-11
1.59603e-11 -1.33866e-11 68.7634

81.176 3.83776 -1.30559e-11
3.83776 87.6806 -1.15626e-12
-1.30559e-11 -1.15626e-12 82.6707

80.6175 3.0774 1.96503e-11
3.0774 86.8649 -4.35176e-11
1.96503e-11 -4.35176e-11 82.19

80.9925 1.68652 -6.54884e-12
1.68652 67.1299 -1.5624e-11
-6.54884e-12 -1.5624e-11 72.7059

77.8131 0.66875 4.5269e-12
0.66875 64.7068 1.22092e-11
4.5269e-12 1.22092e-11 67.8573

82.1483 3.62835 1.78464e-11
3.62835 88.745 -9.60269e-13
1.78464e-11 -9.60269e-13 86.2684

81.5599 3.36404 2.33929e-11
3.36404 88.235 -3.27294e-12
2.33929e-11 -3.27294e-12 85.8552

78.6362 -0.845065 3.75522e-12
-0.845065 65.6581 -3.13605e-12
3.75522e-12 -3.13605e-12 68.5564

90.6106 0.138012 -8.95543e-12
0.138012 73.899 -1.05896e-11
-8.95543e-12 -1.05896e-11 82.4606

54.3779 5.60678 1.69713e-11
5.60678 63.0322 -5.63357e-12
1.69713e-11 -5.63357e-12 52.3087

53.2797 -5.99567 -2.20287e-11
-5.99567 61.7846 -7.41629e-12
-2.20287e-11 -7.41629e-12 50.6943

62.765 5.80172 2.41052e-12
5.80172 56.5979 2.86682e-12
2.41052e-12 2.86682e-12 52.9

87.1032 -4.74613 2.91457e-11
-4.74613 91.2169 -4.81541e-12
2.91457e-11 -4.81541e-12 88.4866

87.6883 -5.37121 2.40649e-11
-5.37121 92.3543 4.86161e-11
2.40649e-11 4.86161e-11 89.1219

70.0877 5.45662 -3.08116e-12
5.45662 79.4044 4.5266e-12
-3.08116e-12 4.5266e-12 73.3779

75.8243 6.53323 8.18614e-12
6.53323 85.0355 2.62863e-11
8.18614e-12 2.62863e-11 80.4627

81.2511 -2.48292 -1.29251e-11
-2.48292 87.8604 1.14574e-11
-1.29251e-11 1.14574e-11 85.5462

81.6397 -2.68084 -7.65521e-12
-2.68084 88.2664 4.67922e-11
-7.65521e-12 4.67922e-11 85.8701

85.5162 2.48984 2.98413e-12
2.48984 77.3122 5.86242e-12
2.98413e-12 5.86242e-12 79.8245

60.0389 2.16931 1.53108e-11
2.16931 71.5786 7.41629e-12
1.53108e-11 7.41629e-12 58.9376

59.8436 -2.07467 1.11465e-11
-2.07467 71.5413 2.47038e-11
1.11465e-11 2.47038e-11 58.6056

71.5379 1.77953 2.01294e-11
1.77953 63.5187 4.09746e-13
2.01294e-11 4.09746e-13 60.046

68.083 6.44509 4.76597e-12
6.44509 74.2969 -2.1571e-11
4.76597e-12 -2.1571e-11 67.8878

72.1553 -3.29642 3.27445e-11
-3.29642 61.567 -8.65752e-13
3.27445e-11 -8.65752e-13 63.0718

74.5457 5.91487 9.05128e-12
5.91487 76.5393 -1.86809e-11
9.05128e-12 -1.86809e-11 73.0635

70.2335 6.44296 -2.7216e-12
6.44296 78.2895 -3.96754e-11
-2.7216e-12 -3.96754e-11 70.3079

82.286 -1.3956 5.19999e-12
-1.3956 67.5721 -1.37709e-11
5.19999e-12 -1.37709e-11 73.649

51.8085 4.9898 2.25735e-11
4.9898 61.3113 8.35509e-12
2.25735e-11 8.35509e-12 45.4164

87.9372 0.62037 2.88947e-12
0.62037 71.8651 -1.00897e-11
2.88947e-12 -1.00897e-11 80.3029

59.9199 5.00138 2.72845e-11
5.00138 53.7497 3.78047e-11
2.72845e-11 3.78047e-11 45.6035

89.7178 0.788532 -8.31555e-12
0.788532 92.6674 5.96848e-12
-8.31555e-12 5.96848e-12 89.7088

89.689 0.269038 -4.1322e-11
0.269038 92.5171 3.90873e-11
-4.1322e-11 3.90873e-11 89.6599

100.385 2.80924 2.40674e-11
2.80924 95.1934 8.379e-12
2.40674e-11 8.379e-12 95.4762

100.455 -2.69481 -4.46666e-11
-2.69481 95.319 -3.36882e-11
-4.46666e-11 -3.36882e-11 95.4591

69.4339 -2.08863 -1.72395e-11
-2.08863 58.3956 2.56374e-11
-1.72395e-11 2.56374e-11 56.4693

75.0467 6.35827 -1.42518e-11
6.35827 79.8412 -3.05223e-11
-1.42518e-11 -3.05223e-11 76.6585

90.5909 1.16853 7.50851e-12
1.16853 87.8715 -5.4882e-12
7.50851e-12 -5.4882e-12 88.5371

90.8932 -1.06222 -1.80995e-11
-1.06222 88.3336 -2.79262e-12
-1.80995e-11 -2.79262e-12 88.9998

91.4598 0.0145469 9.05146e-12
0.0145469 73.1003 2.97188e-12
9.05146e-12 2.97188e-12 82.6749

69.1701 6.97426 -2.20024e-11
6.97426 77.6977 -1.99359e-11
-2.20024e-11 -1.99359e-11 69.6573

73.3886 -4.26812 7.31977e-12
-4.26812 67.3686 -5.72771e-12
7.31977e-12 -5.72771e-12 65.7752

89.7841 -0.411006 -2.79237e-11
-0.411006 71.0126 -1.55117e-11
-2.79237e-11 -1.55117e-11 80.7781

67.4915 -6.45853 -1.14084e-11
-6.45853 74.0504 -1.13628e-11
-1.14084e-11 -1.13628e-11 67.3161

68.5765 -5.5338 5.43928e-12
-5.5338 76.5858 -2.21571e-12
5.43928e-12 -2.21571e-12 68.7227

77.6982 7.34646 -5.43994e-12
7.34646 86.9585 -1.26144e-11
-5.43994e-12 -1.26144e-11 81.8519

67.2563 -6.89355 1.92675e-12
-6.89355 64.6835 1.13641e-11
1.92675e-12 1.13641e-11 61.0027

20.1612 14.0816 -1.8417e-11
14.0816 29.8582 -1.34227e-11
-1.8417e-11 -1.34227e-11 15.5645

28.4669 13.915 -1.86488e-11
13.915 20.9035 3.9071e-12
-1.86488e-11 3.9071e-12 15.2673

80.1596 -6.56585 1.55982e-11
-6.56585 88.3236 -1.88714e-11
1.55982e-11 -1.88714e-11 85.1181

34.9365 5.90749 -1.37751e-11
5.90749 46.8172 6.47624e-11
-1.37751e-11 6.47624e-11 27.822

44.8169 5.29418 -1.56091e-11
5.29418 36.1824 -1.85241e-11
-1.56091e-11 -1.85241e-11 27.9077

92.3661 -4.61493 3.94396e-12
-4.61493 96.3495 3.50395e-11
3.94396e-12 3.50395e-11 93.9197

92.3441 4.59766 2.96499e-11
4.59766 96.2975 1.40583e-11
2.96499e-11 1.40583e-11 93.9208

91.29 0.133404 8.18397e-12
0.133404 81.0896 2.30156e-11
8.18397e-12 2.30156e-11 85.2033

92.3787 -4.02271 5.87323e-12
-4.02271 95.1157 2.94563e-11
5.87323e-12 2.94563e-11 94.0767

92.3639 4.01036 3.61003e-11
4.01036 95.1013 -4.87565e-11
3.61003e-11 -4.87565e-11 94.0881

71.7922 6.4435 2.65047e-11
6.4435 81.5646 6.53836e-11
2.65047e-11 6.53836e-11 74.9059

99.0423 2.63303 8.08638e-12
2.63303 90.9783 -2.37751e-11
8.08638e-12 -2.37751e-11 93.5717

99.1187 -2.61346 6.93066e-12
-2.61346 90.9379 3.24386e-11
6.93066e-12 3.24386e-11 93.5442

86.6442 -5.3252 -1.63632e-12
-5.3252 89.4174 -5.53724e-12
-1.63632e-12 -5.53724e-12 87.8364

86.6176 5.29279 1.39567e-11
5.29279 89.4147 -4.56334e-11
1.39567e-11 -4.56334e-11 87.8656

60.011 -5.7248 -1.69068e-11
-5.7248 52.4847 3.15172e-11
-1.69068e-11 3.15172e-11 49.3396

92.0344 2.57137 -7.73577e-12
2.57137 98.7266 -2.25282e-11
-7.73577e-12 -2.25282e-11 93.7968

91.5749 2.0332 1.0565e-11
2.0332 98.3677 -2.50215e-12
1.0565e-11 -2.50215e-12 93.4186

69.3587 -7.1064 -3.25479e-11
-7.1064 78.0527 3.67894e-11
-3.25479e-11 3.67894e-11 69.9615

48.7766 -4.70487 -1.2908e-11
-4.70487 60.163 2.2912e-12
-1.2908e-11 2.2912e-12 42.9144

58.6224 -4.66323 8.52959e-11
-4.66323 48.7769 -3.22986e-11
8.52959e-11 -3.22986e-11 42.2885

75.5029 5.61126 4.58505e-12
5.61126 85.2744 -4.8143e-12
4.58505e-12 -4.8143e-12 79.7178

74.5675 5.21694 -2.85716e-11
5.21694 83.7636 -1.77175e-11
-2.85716e-11 -1.77175e-11 78.8622

105.683 -7.78163 -4.56137e-11
-7.78163 100.489 -2.48427e-10
-4.56137e-11 -2.48427e-10 102.027

105.68 7.77942 4.73484e-11
7.77942 100.502 3.54195e-11
4.73484e-11 3.54195e-11 102.038

78.2539 7.95105 -1.11652e-11
7.95105 86.8698 2.17599e-11
-1.11652e-11 2.17599e-11 82.8659

86.2945 3.91524 1.62704e-11
3.91524 83.1505 -1.4921e-11
1.62704e-11 -1.4921e-11 84.3293

86.2617 -3.98378 -2.43577e-11
-3.98378 82.9294 7.84746e-12
-2.43577e-11 7.84746e-12 84.1285

77.6328 7.60097 2.50666e-12
7.60097 84.664 2.87902e-11
2.50666e-12 2.87902e-11 81.7383

81.3131 -6.94571 2.39743e-13
-6.94571 89.7887 2.79125e-12
2.39743e-13 2.79125e-12 86.0192

67.8001 -0.0788525 -1.60364e-11
-0.0788525 54.94 -3.07687e-11
-1.60364e-11 -3.07687e-11 54.9302

72.9523 3.10604 5.01738e-11
3.10604 61.3283 4.55262e-12
5.01738e-11 4.55262e-12 62.3164

88.8127 1.26366 1.99292e-11
1.26366 80.3793 -4.90719e-14
1.99292e-11 -4.90719e-14 85.6818

97.453 -1.9474 -3.75429e-11
-1.9474 96.4488 4.04095e-12
-3.75429e-11 4.04095e-12 95.5696

97.4729 1.67646 -6.25699e-11
1.67646 96.6024 1.08757e-11
-6.25699e-11 1.08757e-11 95.6488

62.6189 5.75241 2.63377e-11
5.75241 65.5307 2.23439e-11
2.63377e-11 2.23439e-11 56.8697

74.0097 -5.02112 1.47327e-11
-5.02112 71.5276 -1.10743e-11
1.47327e-11 -1.10743e-11 71.0057

86.0342 3.0135 1.47322e-11
3.0135 79.6326 -5.99239e-12
1.47322e-11 -5.99239e-12 80.5076

94.0572 1.64338 -5.28294e-11
1.64338 98.7066 -4.54397e-11
-5.28294e-11 -4.54397e-11 94.9245

93.9766 1.39972 -5.90417e-11
1.39972 98.629 2.31037e-12
-5.90417e-11 2.31037e-12 94.7962

89.3815 -0.926979 -2.30116e-11
-0.926979 81.4134 7.50888e-12
-2.30116e-11 7.50888e-12 86.4563

80.4529 -1.96153 1.01211e-11
-1.96153 86.9642 1.19382e-11
1.01211e-11 1.19382e-11 82.0749

80.8119 -2.67 -2.85101e-12
-2.67 87.5518 -7.70288e-12
-2.85101e-12 -7.70288e-12 82.4305

93.5559 -1.85045 1.11688e-11
-1.85045 84.8363 -9.4358e-12
1.11688e-11 -9.4358e-12 89.3636

93.7185 1.87126 -3.08085e-11
1.87126 84.8946 1.16222e-11
-3.08085e-11 1.16222e-11 89.5604

65.4813 -5.7091 -2.84513e-13
-5.7091 65.3078 -4.45395e-11
-2.84513e-13 -4.45395e-11 57.7276

82.0632 0.356094 -3.56234e-12
0.356094 73.2483 3.12517e-12
-3.56234e-12 3.12517e-12 73.9227

94.2349 -2.80585 4.18305e-11
-2.80585 89.185 -1.94737e-11
4.18305e-11 -1.94737e-11 92.3293

94.1993 2.77945 1.73076e-12
2.77945 89.258 1.18881e-11
1.73076e-12 1.18881e-11 92.395

85.9599 -3.12721 1.48275e-11
-3.12721 79.734 3.17642e-12
1.48275e-11 3.17642e-12 80.3877

70.552 -6.47138 -3.47587e-11
-6.47138 79.0497 2.34028e-11
-3.47587e-11 2.34028e-11 70.8024

93.5816 -2.08367 6.06581e-12
-2.08367 85.9063 7.38709e-12
6.06581e-12 7.38709e-12 89.159

93.7346 2.10269 5.00592e-12
2.10269 85.9663 1.68476e-12
5.00592e-12 1.68476e-12 89.3722

82.8242 -1.36598 5.77612e-13
-1.36598 72.1977 1.03978e-11
5.77612e-13 1.03978e-11 76.0836

80.316 9.08007 1.30015e-11
9.08007 88.6954 7.29821e-11
1.30015e-11 7.29821e-11 84.259

71.9321 5.0057 4.33357e-12
5.0057 69.6917 4.82281e-13
4.33357e-12 4.82281e-13 66.0484

78.3569 7.68258 7.03215e-12
7.68258 87.5705 4.88162e-11
7.03215e-12 4.88162e-11 83.3353

79.84 8.57845 2.44037e-11
8.57845 89.3288 -9.62574e-12
2.44037e-11 -9.62574e-12 84.3823

75.622 3.71603 4.23424e-12
3.71603 67.5016 -1.46834e-12
4.23424e-12 -1.46834e-12 67.3391

80.9805 -3.07469 1.54058e-11
-3.07469 76.4553 1.68493e-11
1.54058e-11 1.68493e-11 79.1871

81.7472 1.68245 -3.4089e-11
1.68245 71.9019 -6.65784e-11
-3.4089e-11 -6.65784e-11 74.8962

65.5988 6.3326 1.64619e-11
6.3326 67.2497 -2.95185e-11
1.64619e-11 -2.95185e-11 62.4911

73.0825 5.14122 2.35931e-11
5.14122 71.0396 1.55502e-11
2.35931e-11 1.55502e-11 70.4029

73.2914 0.444588 1.88696e-11
0.444588 82.8549 -4.71814e-11
1.88696e-11 -4.71814e-11 78.1246

73.4181 0.70371 8.56968e-12
0.70371 82.9363 4.04388e-12
8.56968e-12 4.04388e-12 78.1905

63.4112 -6.45708 4.90719e-12
-6.45708 58.2903 1.90686e-11
4.90719e-12 1.90686e-11 53.9873

77.7105 -7.66064 -1.10784e-11
-7.66064 84.8098 5.92143e-11
-1.10784e-11 5.92143e-11 81.872

67.5735 -7.56801 -1.24878e-12
-7.56801 72.7298 -1.74315e-11
-1.24878e-12 -1.74315e-11 64.9562

67.4326 7.75156 1.39133e-11
7.75156 72.4628 2.07153e-12
1.39133e-11 2.07153e-12 64.7843

81.0353 -2.81858 -4.71919e-12
-2.81858 74.1245 -9.69595e-14
-4.71919e-12 -9.69595e-14 75.6263

92.3034 -0.420903 1.15543e-11
-0.420903 75.3052 -4.44261e-11
1.15543e-11 -4.44261e-11 85.3025

92.2422 0.470887 2.52272e-11
0.470887 75.3157 6.44958e-12
2.52272e-11 6.44958e-12 85.0961

63.5156 4.11134 -2.58529e-11
4.11134 73.6686 -6.73239e-13
-2.58529e-11 -6.73239e-13 64.7952

74.5398 -6.2215 2.27279e-11
-6.2215 76.3886 -4.76178e-11
2.27279e-11 -4.76178e-11 72.8689

53.447 -0.13883 -2.63858e-11
-0.13883 68.2022 2.10445e-11
-2.63858e-11 2.10445e-11 54.9157

53.2672 0.305576 2.03916e-11
0.305576 68.2195 4.10791e-11
2.03916e-11 4.10791e-11 54.6847

68.4099 -0.0501167 1.10771e-11
-0.0501167 56.1552 -1.85018e-11
1.10771e-11 -1.85018e-11 55.8235

65.4004 6.06215 1.01081e-11
6.06215 65.5365 -1.18929e-11
1.01081e-11 -1.18929e-11 57.6309

69.7127 -7.10865 1.73353e-11
-7.10865 68.8881 -3.15385e-11
1.73353e-11 -3.15385e-11 64.8743

95.4713 -3.48589 2.4153e-11
-3.48589 103.029 -2.29146e-11
2.4153e-11 -2.29146e-11 96.8316

95.5635 -3.21506 6.36952e-12
-3.21506 103.075 -1.71349e-11
6.36952e-12 -1.71349e-11 96.9103

76.433 -3.64123 1.13639e-11
-3.64123 67.9125 1.76692e-11
1.13639e-11 1.76692e-11 68.0589

76.1204 8.43625 -1.11175e-11
8.43625 85.3644 2.32037e-11
-1.11175e-11 2.32037e-11 79.1496

91.2699 -0.223359 -1.13614e-11
-0.223359 80.9805 -1.51492e-12
-1.13614e-11 -1.51492e-12 85.0613

63.525 -4.04583 5.61378e-11
-4.04583 74.1116 -1.87808e-11
5.61378e-11 -1.87808e-11 64.9655

81.5423 7.55155 6.13828e-12
7.55155 90.4573 1.65603e-11
6.13828e-12 1.65603e-11 86.486

79.8147 7.10731 -4.38246e-12
7.10731 88.7351 -2.34925e-11
-4.38246e-12 -2.34925e-11 85.2872

80.463 -9.06261 1.00178e-11
-9.06261 88.7928 -6.4702e-11
1.00178e-11 -6.4702e-11 84.3728

80.6197 8.73847 -1.06869e-11
8.73847 90.8183 -6.45351e-12
-1.06869e-11 -6.45351e-12 85.506

74.3817 7.3748 -1.78232e-12
7.3748 82.9826 -9.14705e-12
-1.78232e-12 -9.14705e-12 77.6311

99.2205 0.0163636 -9.24179e-12
0.0163636 89.3846 8.00931e-12
-9.24179e-12 8.00931e-12 95.1969

69.6137 6.97612 -8.85943e-12
6.97612 68.0631 9.11641e-13
-8.85943e-12 9.11641e-13 64.3324

78.3559 -7.74838 -3.8299e-13
-7.74838 87.5191 -2.01224e-11
-3.8299e-13 -2.01224e-11 83.3236

71.2739 6.09662 -4.04032e-12
6.09662 74.0487 2.04126e-11
-4.04032e-12 2.04126e-11 67.8821

60.478 -5.26393 -7.75069e-12
-5.26393 64.1248 -1.61355e-11
-7.75069e-12 -1.61355e-11 54.771

75.0985 -6.44223 6.54669e-12
-6.44223 80.2226 -1.73306e-12
6.54669e-12 -1.73306e-12 76.7989

62.1013 -3.67283 3.3934e-11
-3.67283 73.9461 -1.99363e-11
3.3934e-11 -1.99363e-11 61.0543

61.7668 3.58035 1.14001e-11
3.58035 73.5515 2.95189e-11
1.14001e-11 2.95189e-11 60.7516

72.5841 -2.52249 9.67937e-12
-2.52249 65.1347 5.08189e-11
9.67937e-12 5.08189e-11 61.5001

71.229 -6.26352 3.82294e-11
-6.26352 74.0223 -2.70243e-12
3.82294e-11 -2.70243e-12 67.7294

72.1651 0.970963 -2.04605e-12
0.970963 81.8509 -1.56975e-11
-2.04605e-12 -1.56975e-11 73.1609

72.1131 -0.0115495 2.37403e-14
-0.0115495 81.6975 1.82935e-12
2.37403e-14 1.82935e-12 73.107

58.3154 -7.23035 1.19904e-11
-7.23035 62.8703 -1.44471e-11
1.19904e-11 -1.44471e-11 53.3531

58.0686 7.31965 -2.60295e-12
7.31965 63.2288 2.16775e-12
-2.60295e-12 2.16775e-12 53.7213

98.1412 -0.646009 -2.61859e-11
-0.646009 86.9657 -1.96611e-11
-2.61859e-11 -1.96611e-11 93.5708

98.2042 0.677092 1.19376e-11
0.677092 87.0022 -1.41261e-11
1.19376e-11 -1.41261e-11 93.6458

77.6913 7.95238 -2.87353e-11
7.95238 86.2684 5.61293e-11
-2.87353e-11 5.61293e-11 80.6183

79.7571 -7.23233 -5.01589e-11
-7.23233 88.8867 3.02351e-11
-5.01589e-11 3.02351e-11 85.147

77.9996 5.26709 -2.78288e-11
5.26709 80.7763 -3.02335e-11
-2.78288e-11 -3.02335e-11 79.4416

60.1925 5.83326 -1.16035e-11
5.83326 52.5894 3.03356e-11
-1.16035e-11 3.03356e-11 47.5722

64.5629 4.98997 -2.36405e-11
4.98997 76.1761 -3.73677e-11
-2.36405e-11 -3.73677e-11 66.1597

91.652 3.48733 3.69672e-11
3.48733 91.2439 -2.65195e-11
3.69672e-11 -2.65195e-11 91.4753

91.6845 -3.51255 -7.79895e-12
-3.51255 91.2693 -2.26356e-12
-7.79895e-12 -2.26356e-12 91.4558

86.7788 -4.75563 -7.79761e-12
-4.75563 85.8453 8.18249e-12
-7.79761e-12 8.18249e-12 84.7213

86.7319 4.71829 1.19386e-11
4.71829 85.8326 1.13617e-11
1.19386e-11 1.13617e-11 84.7536

38.106 1.55849 -2.81029e-11
1.55849 56.8285 -6.91358e-12
-2.81029e-11 -6.91358e-12 30.3292

54.7499 1.61318 -5.7554e-13
1.61318 39.8819 -1.3857e-11
-5.7554e-13 -1.3857e-11 30.2886

64.4185 -4.73456 1.57686e-11
-4.73456 76.4497 6.06537e-12
1.57686e-11 6.06537e-12 66.4023

99.4804 -3.78081 -9.82007e-12
-3.78081 100.48 -4.6976e-11
-9.82007e-12 -4.6976e-11 99.549

99.455 3.7931 -8.4733e-12
3.7931 100.473 -3.64868e-11
-8.4733e-12 -3.64868e-11 99.5512

79.491 5.79979 -1.34722e-12
5.79979 79.746 2.15682e-11
-1.34722e-12 2.15682e-11 76.799

62.178 3.17809 1.73142e-11
3.17809 49.7218 -5.52219e-11
1.73142e-11 -5.52219e-11 47.2252

82.0891 -0.605271 4.14024e-12
-0.605271 73.3066 -2.4144e-11
4.14024e-12 -2.4144e-11 73.9463

74.5996 -4.16214 4.35685e-12
-4.16214 83.6559 -3.85321e-13
4.35685e-12 -3.85321e-13 78.8762

75.6 -4.55361 1.08491e-12
-4.55361 84.735 -2.60944e-11
1.08491e-12 -2.60944e-11 79.6765

65.3732 -6.8891 -3.90443e-11
-6.8891 67.9106 -2.99953e-11
-3.90443e-11 -2.99953e-11 61.8688

80.6898 -8.77542 -1.41536e-11
-8.77542 90.9695 5.00849e-12
-1.41536e-11 5.00849e-12 85.6047

79.4767 -5.86234 4.52112e-12
-5.86234 79.8218 4.7419e-11
4.52112e-12 4.7419e-11 76.7135

77.1247 8.40428 9.53025e-12
8.40428 86.7518 -2.59825e-12
9.53025e-12 -2.59825e-12 82.6946

87.5297 6.07513 -6.34226e-12
6.07513 92.4206 -6.06678e-12
-6.34226e-12 -6.06678e-12 89.2897

86.9245 5.51762 2.95543e-11
5.51762 91.034 9.63082e-13
2.95543e-11 9.63082e-13 88.5809

77.7673 -7.98731 -7.65099e-12
-7.98731 86.563 -5.65182e-11
-7.65099e-12 -5.65182e-11 80.8368

75.8276 7.209 -7.21941e-12
7.209 83.4916 1.1845e-11
-7.21941e-12 1.1845e-11 78.7008

69.9078 4.99194 5.81461e-13
4.99194 62.342 5.08928e-11
5.81461e-13 5.08928e-11 61.395

79.8181 9.24948 -8.68268e-13
9.24948 89.5386 -2.30119e-11
-8.68268e-13 -2.30119e-11 84.717

70.2274 -5.65354 -1.27818e-11
-5.65354 79.8614 1.68536e-11
-1.27818e-11 1.68536e-11 73.6644

66.6953 2.20204 -2.16875e-11
2.20204 78.2894 2.8986e-11
-2.16875e-11 2.8986e-11 69.8527

80.1141 6.71796 2.31089e-12
6.71796 83.0665 2.09885e-11
2.31089e-12 2.09885e-11 80.4438

67.9599 2.82947 -2.06768e-11
2.82947 79.1288 1.19401e-11
-2.06768e-11 1.19401e-11 70.7177

81.5809 -7.84936 -2.094e-11
-7.84936 90.6666 1.88728e-11
-2.094e-11 1.88728e-11 86.3579

43.4025 -6.74632 -3.18257e-11
-6.74632 44.1491 -4.04328e-12
-3.18257e-11 -4.04328e-12 33.6791

43.6033 -6.82008 -1.09743e-10
-6.82008 43.6398 -3.19171e-11
-1.09743e-10 -3.19171e-11 33.5432

80.1139 -6.75788 2.55123e-11
-6.75788 83.071 2.5996e-11
2.55123e-11 2.5996e-11 80.4076

85.3783 -2.55516 1.9161e-11
-2.55516 77.2486 -6.33701e-12
1.9161e-11 -6.33701e-12 79.6749

106.09 8.01 -3.98475e-11
8.01 102.482 7.1122e-11
-3.98475e-11 7.1122e-11 102.521

106.093 -8.01072 -1.85198e-10
-8.01072 102.485 1.8022e-11
-1.85198e-10 1.8022e-11 102.514

76.3923 -8.38465 2.0557e-11
-8.38465 85.8143 -3.74594e-11
2.0557e-11 -3.74594e-11 79.6173

90.8938 1.76169 1.84835e-11
1.76169 92.3989 1.02993e-11
1.84835e-11 1.02993e-11 91.7105

91.0079 -1.61957 -2.67604e-11
-1.61957 92.5126 -2.27178e-11
-2.67604e-11 -2.27178e-11 91.7526

86.6316 0.110842 6.73979e-13
0.110842 69.9003 1.72262e-11
6.73979e-13 1.72262e-11 77.0759

77.0803 -8.44494 1.7812e-11
-8.44494 86.8602 -1.32883e-11
1.7812e-11 -1.32883e-11 82.6602

47.8212 8.22086 -2.48241e-11
8.22086 48.5441 4.73506e-11
-2.48241e-11 4.73506e-11 39.2561

46.9764 7.78633 2.78284e-11
7.78633 48.5382 2.45383e-11
2.78284e-11 2.45383e-11 39.2875

50.6934 -5.85025 -2.16486e-11
-5.85025 61.4508 -6.44995e-12
-2.16486e-11 -6.44995e-12 45.9833

51.7142 6.13432 -8.46079e-12
6.13432 62.3699 -3.16399e-11
-8.46079e-12 -3.16399e-11 46.9756

60.7293 -4.86682 1.95038e-11
-4.86682 52.7173 3.24079e-11
1.95038e-11 3.24079e-11 46.2908

79.8519 -9.2893 2.11464e-12
-9.2893 89.8133 3.23486e-11
2.11464e-12 3.23486e-11 84.7907

40.1137 2.15557 -2.88726e-11
2.15557 56.5979 -1.05986e-11
-2.88726e-11 -1.05986e-11 39.4318

55.8041 2.75264 -5.22663e-12
2.75264 42.7241 -4.36984e-12
-5.22663e-12 -4.36984e-12 40.0238

90.1037 -2.86841 1.06025e-11
-2.86841 94.8244 -1.50187e-11
1.06025e-11 -1.50187e-11 91.7187

90.6837 -3.47247 6.62892e-12
-3.47247 95.2702 -2.56092e-11
6.62892e-12 -2.56092e-11 92.1241

87.9626 1.09473 1.45369e-11
1.09473 79.0015 -5.39043e-12
1.45369e-11 -5.39043e-12 82.1497

91.2044 0.0677818 5.00711e-12
0.0677818 71.5221 2.00713e-11
5.00711e-12 2.00713e-11 82.334

60.0071 -5.30807 -1.63899e-12
-5.30807 69.4656 -3.35595e-11
-1.63899e-12 -3.35595e-11 58.8106

59.6639 5.19142 1.08349e-11
5.19142 69.2019 2.01788e-11
1.08349e-11 2.01788e-11 58.5752

86.7078 -0.000378884 5.1994e-12
-0.000378884 69.764 -1.52128e-11
5.1994e-12 -1.52128e-11 77.316

72.0451 -6.40756 -1.67049e-11
-6.40756 82.0693 -3.84951e-12
-1.67049e-11 -3.84951e-12 75.358

98.0305 -2.74982 1.52067e-11
-2.74982 97.4111 -1.15696e-12
1.52067e-11 -1.15696e-12 97.391

97.9721 2.74433 3.48478e-11
2.74433 97.3845 -3.29691e-11
3.48478e-11 -3.29691e-11 97.3865

81.8603 3.78051 -3.10017e-11
3.78051 82.5256 -1.20356e-11
-3.10017e-11 -1.20356e-11 81.1098

75.6051 -7.17714 -1.83453e-12
-7.17714 83.4694 4.05379e-11
-1.83453e-12 4.05379e-11 78.6085

86.1264 1.09283 1.72359e-11
1.09283 72.3538 -3.27323e-11
1.72359e-11 -3.27323e-11 79.3217

61.1604 5.99163 4.3532e-11
5.99163 60.0459 3.32759e-11
4.3532e-11 3.32759e-11 54.2786

74.4568 -7.37163 -1.11237e-11
-7.37163 83.0307 3.47601e-11
-1.11237e-11 3.47601e-11 77.7168

22.357 -12.9546 4.63875e-11
-12.9546 22.8182 -4.57113e-11
4.63875e-11 -4.57113e-11 12.6395

67.0498 -1.76662 1.07127e-11
-1.76662 78.0497 -5.77893e-12
1.07127e-11 -5.77893e-12 69.8991

68.0541 -2.42011 1.49238e-11
-2.42011 78.7098 2.32065e-11
1.49238e-11 2.32065e-11 70.5562

90.855 -0.571503 -2.986e-11
-0.571503 94.2613 -1.52112e-11
-2.986e-11 -1.52112e-11 92.184

90.9563 -0.328438 9.06365e-12
-0.328438 94.2037 3.25395e-11
9.06365e-12 3.25395e-11 92.2052

100.126 -2.01118 -2.17553e-11
-2.01118 91.7388 -4.78395e-11
-2.17553e-11 -4.78395e-11 97.0187

100.121 2.01455 4.81445e-12
2.01455 91.7712 3.2415e-11
4.81445e-12 3.2415e-11 97.0735

83.7028 -3.95653 3.13827e-11
-3.95653 84.5967 4.04402e-12
3.13827e-11 4.04402e-12 85.0766

83.4756 4.08244 1.43458e-11
4.08244 83.7078 7.89613e-12
1.43458e-11 7.89613e-12 84.5025

90.0306 -3.50965 2.98403e-11
-3.50965 93.8585 3.09994e-11
2.98403e-11 3.09994e-11 91.3032

89.9366 3.65317 5.58309e-12
3.65317 93.81 -2.9853e-12
5.58309e-12 -2.9853e-12 91.2597

102.15 5.46034 5.35211e-11
5.46034 101.721 2.05041e-11
5.35211e-11 2.05041e-11 100.794

102.154 -5.45223 -4.42844e-11
-5.45223 101.725 1.48618e-10
-4.42844e-11 1.48618e-10 100.785

84.3202 -9.00356 -2.72438e-11
-9.00356 92.2776 4.14224e-12
-2.72438e-11 4.14224e-12 88.5459

84.3529 9.03459 -3.99523e-11
9.03459 92.1929 -1.27148e-11
-3.99523e-11 -1.27148e-11 88.5658

78.9834 5.38463 -7.12319e-12
5.38463 76.4686 -1.39622e-11
-7.12319e-12 -1.39622e-11 75.4127

73.4994 -4.2422 -5.36919e-12
-4.2422 81.9256 4.2273e-11
-5.36919e-12 4.2273e-11 75.1528

74.3816 -5.29691 1.52097e-11
-5.29691 83.6116 3.95726e-11
1.52097e-11 3.95726e-11 76.1971

62.548 -5.35666 -1.81553e-11
-5.35666 61.0289 1.58923e-11
-1.81553e-11 1.58923e-11 53.9684

78.9312 -5.37614 -1.28041e-11
-5.37614 76.6121 -7.2183e-12
-1.28041e-11 -7.2183e-12 75.3509

73.2716 4.00327 -5.34127e-11
4.00327 81.5432 9.82044e-12
-5.34127e-11 9.82044e-12 74.865

74.6723 7.53776 4.23557e-12
7.53776 77.5515 -7.17596e-12
4.23557e-12 -7.17596e-12 73.1548

80.529 -7.79831 1.87743e-11
-7.79831 88.2772 -2.19521e-11
1.87743e-11 -2.19521e-11 85.5869

80.6544 7.65505 4.8157e-12
7.65505 88.3019 2.3589e-11
4.8157e-12 2.3589e-11 85.6694

74.5103 -7.65062 -1.93571e-11
-7.65062 77.4541 4.2129e-11
-1.93571e-11 4.2129e-11 72.9942

88.8023 -0.762845 -1.76203e-11
-0.762845 80.0098 1.31886e-11
-1.76203e-11 1.31886e-11 83.2999

95.9144 2.16186 -4.82867e-11
2.16186 99.6261 -2.15675e-11
-4.82867e-11 -2.15675e-11 96.166

96.1425 1.89929 -1.91318e-11
1.89929 99.5626 -6.54562e-12
-1.91318e-11 -6.54562e-12 96.2673

80.4446 -6.716 6.64269e-12
-6.716 88.3451 4.52312e-12
6.64269e-12 4.52312e-12 83.1765

79.7841 3.2915 -3.12948e-11
3.2915 75.5097 2.50799e-11
-3.12948e-11 2.50799e-11 77.9923

94.6621 -0.805963 4.04362e-11
-0.805963 83.4028 -1.50647e-11
4.04362e-11 -1.50647e-11 88.8085

46.584 -7.23356 -2.17016e-11
-7.23356 47.6958 2.8202e-11
-2.17016e-11 2.8202e-11 36.7981

46.9563 -7.06498 -2.85635e-11
-7.06498 47.9252 4.44572e-11
-2.85635e-11 4.44572e-11 37.1049

99.6408 -2.27112 -5.0054e-12
-2.27112 91.0341 -1.39099e-11
-5.0054e-12 -1.39099e-11 96.2993

99.5562 2.30899 2.2912e-11
2.30899 91.053 -3.46515e-12
2.2912e-11 -3.46515e-12 96.3206

94.9005 0.662971 3.30243e-11
0.662971 83.8298 1.96868e-11
3.30243e-11 1.96868e-11 89.0866

74.3716 5.25861 1.31444e-11
5.25861 83.3107 3.75538e-11
1.31444e-11 3.75538e-11 76.0546

77.2553 4.14772 -1.4443e-11
4.14772 72.8044 -3.11978e-11
-1.4443e-11 -3.11978e-11 70.0697

86.7477 -5.99273 -2.69518e-12
-5.99273 90.918 1.19368e-11
-2.69518e-12 1.19368e-11 87.967

86.7199 5.94624 -2.87878e-11
5.94624 90.9084 1.02978e-11
-2.87878e-11 1.02978e-11 87.9861

99.5682 -1.08548 -2.98419e-11
-1.08548 93.7584 -1.58241e-10
-2.98419e-11 -1.58241e-10 95.7013

99.7416 1.09744 -2.73383e-11
1.09744 94.6301 -3.60568e-11
-2.73383e-11 -3.60568e-11 96.0129

77.3451 -7.69659 2.78245e-11
-7.69659 86.9434 -2.75429e-11
2.78245e-11 -2.75429e-11 81.9109

80.4677 3.30494 -5.72897e-11
3.30494 73.8671 5.39183e-12
-5.72897e-11 5.39183e-12 74.6429

94.9818 2.29646 1.54029e-11
2.29646 92.1495 5.34384e-12
1.54029e-11 5.34384e-12 93.2914

95.0402 -2.30824 3.52312e-11
-2.30824 92.1494 5.58767e-11
3.52312e-11 5.58767e-11 93.2749

79.3197 -5.97289 1.43901e-11
-5.97289 86.5817 2.5898e-11
1.43901e-11 2.5898e-11 82.1293

77.705 -8.2123 -3.78829e-11
-8.2123 86.8696 3.27742e-12
-3.78829e-11 3.27742e-12 82.6416

23.1222 -13.4322 -1.66978e-13
-13.4322 23.8372 -4.43201e-12
-1.66978e-13 -4.43201e-12 13.3426

83.6504 5.60055 1.02048e-11
5.60055 91.5022 1.35759e-11
1.02048e-11 1.35759e-11 87.8913

83.6133 -5.685 3.92757e-11
-5.685 91.5873 2.19506e-11
3.92757e-11 2.19506e-11 87.9297

75.4472 -7.11578 -6.49477e-12
-7.11578 84.924 -2.46497e-11
-6.49477e-12 -2.46497e-11 80.443

78.1449 -4.47514 2.85022e-11
-4.47514 73.2537 -1.27597e-11
2.85022e-11 -1.27597e-11 70.7417

82.9066 -3.56697 1.09763e-11
-3.56697 83.1328 3.46663e-12
1.09763e-11 3.46663e-12 81.9215

83.6735 4.8498 1.93502e-11
4.8498 87.6423 4.71867e-12
1.93502e-11 4.71867e-12 85.8831

83.6283 -5.03329 5.28895e-12
-5.03329 87.8581 5.52635e-11
5.28895e-12 5.52635e-11 85.9687

86.7604 -0.728447 1.1555e-11
-0.728447 72.7979 2.64269e-11
1.1555e-11 2.64269e-11 80.277

100.529 1.78598 3.50399e-11
1.78598 95.741 -9.9137e-12
3.50399e-11 -9.9137e-12 98.5975

100.638 -1.76857 -1.5209e-11
-1.76857 95.7508 4.447e-11
-1.5209e-11 4.447e-11 98.6214

95.6763 0.78627 -2.45789e-11
0.78627 104.337 -1.17444e-11
-2.45789e-11 -1.17444e-11 96.6409

95.8017 0.523356 -1.36527e-11
0.523356 104.361 -4.35119e-11
-1.36527e-11 -4.35119e-11 96.6977

36.4699 0.564422 7.44221e-11
0.564422 56.2762 5.0265e-12
7.44221e-11 5.0265e-12 29.5863

53.6536 0.50199 -3.58297e-11
0.50199 36.6002 -9.11589e-12
-3.58297e-11 -9.11589e-12 29.0823

83.0041 -7.69154 2.38785e-11
-7.69154 91.2181 -3.89559e-13
2.38785e-11 -3.89559e-13 86.2834

83.0146 7.66967 2.78235e-11
7.66967 91.1796 6.08517e-11
2.78235e-11 6.08517e-11 86.3016

79.2728 -8.75164 7.65167e-12
-8.75164 89.402 1.81001e-11
7.65167e-12 1.81001e-11 84.1796

31.3434 -6.31273 2.73307e-11
-6.31273 45.9282 9.22048e-12
2.73307e-11 9.22048e-12 25.1857

44.7757 -6.03442 -4.13571e-11
-6.03442 32.9214 9.75575e-12
-4.13571e-11 9.75575e-12 25.4583

100.511 -8.03802 -4.37173e-11
-8.03802 106.749 1.6769e-10
-4.37173e-11 1.6769e-10 102.867

100.503 8.03667 6.58615e-11
8.03667 106.752 1.24565e-10
6.58615e-11 1.24565e-10 102.873

78.1955 -5.31357 1.44426e-11
-5.31357 80.9853 -1.14615e-11
1.44426e-11 -1.14615e-11 79.7465

75.0049 -7.38547 -2.18597e-11
-7.38547 80.1413 3.15827e-11
-2.18597e-11 3.15827e-11 74.7559

82.1792 -7.77453 2.45447e-11
-7.77453 88.0424 4.62094e-11
2.45447e-11 4.62094e-11 84.7243

82.1632 7.74423 5.77599e-11
7.74423 88.0084 -4.42818e-11
5.77599e-11 -4.42818e-11 84.7337

76.7719 -8.34153 -1.59825e-11
-8.34153 84.0273 1.8488e-11
-1.59825e-11 1.8488e-11 78.811

74.9859 7.38773 -1.71393e-11
7.38773 79.899 -2.735e-11
-1.71393e-11 -2.735e-11 74.6767

50.0272 -2.39538 -4.41453e-11
-2.39538 63.8359 -2.62945e-11
-4.41453e-11 -2.62945e-11 46.8666

49.3018 2.90063 2.00185e-11
2.90063 62.8605 -4.92217e-11
2.00185e-11 -4.92217e-11 46.6292

62.7381 -1.82507 -1.42526e-11
-1.82507 52.9003 -3.6597e-11
-1.42526e-11 -3.6597e-11 47.4785

76.7489 8.29839 -1.54043e-11
8.29839 83.8966 -4.81696e-12
-1.54043e-11 -4.81696e-12 78.7259

39.4808 -1.48988 4.24745e-11
-1.48988 56.8251 2.02303e-11
4.24745e-11 2.02303e-11 38.846

55.1982 -1.44289 5.34405e-11
-1.44289 39.8313 1.44329e-14
5.34405e-11 1.44329e-14 38.3414

86.3143 -7.59545 1.72337e-11
-7.59545 92.3107 -5.41108e-11
1.72337e-11 -5.41108e-11 89.2591

86.3482 7.55173 -2.05977e-11
7.55173 92.2923 7.96159e-11
-2.05977e-11 7.96159e-11 89.2914

87.4846 -6.61203 4.7858e-13
-6.61203 93.8903 -1.39617e-11
4.7858e-13 -1.39617e-11 90.5507

87.4918 6.58595 -3.22474e-11
6.58595 93.8502 5.08292e-11
-3.22474e-11 5.08292e-11 90.5652

29.8468 -6.34759 5.32093e-11
-6.34759 44.1061 -2.71297e-11
5.32093e-11 -2.71297e-11 23.344

42.8429 -5.87129 -1.00891e-10
-5.87129 30.2481 -4.84765e-11
-1.00891e-10 -4.84765e-11 23.0974

80.8843 7.01066 1.63638e-11
7.01066 86.08 -3.50466e-11
1.63638e-11 -3.50466e-11 81.8546

80.9151 -7.06722 3.28306e-11
-7.06722 86.1761 2.62822e-11
3.28306e-11 2.62822e-11 81.8592

92.6567 -1.13033 4.13961e-11
-1.13033 95.3744 -5.38902e-12
4.13961e-11 -5.38902e-12 93.1771

92.8062 -1.50121 2.2359e-11
-1.50121 95.6539 7.50733e-12
2.2359e-11 7.50733e-12 93.3379

86.3345 -7.62556 -3.96612e-11
-7.62556 95.7129 2.80181e-11
-3.96612e-11 2.80181e-11 90.9778

86.3171 7.66054 -5.5447e-11
7.66054 95.6557 1.59709e-11
-5.5447e-11 1.59709e-11 90.9882

97.0474 -3.0023 -7.12393e-12
-3.0023 93.7577 9.24582e-11
-7.12393e-12 9.24582e-11 96.2531

96.9971 3.0031 1.67491e-11
3.0031 93.7728 6.59206e-12
1.67491e-11 6.59206e-12 96.2579

80.0208 6.3121 7.316e-12
6.3121 86.2371 9.62793e-12
7.316e-12 9.62793e-12 83.0153

80.0177 -6.28595 -2.84067e-11
-6.28595 86.5284 5.22827e-11
-2.84067e-11 5.22827e-11 83.1333

92.0883 -2.35991 2.96691e-11
-2.35991 101.376 -4.67907e-11
2.96691e-11 -4.67907e-11 94.7225

103.135 -4.30958 -1.03936e-11
-4.30958 100.952 2.01189e-11
-1.03936e-11 2.01189e-11 101.757

102.673 -4.43261 -1.1859e-10
-4.43261 100.948 -9.01778e-11
-1.1859e-10 -9.01778e-11 101.666

103.066 4.33349 5.00511e-12
4.33349 100.941 -7.98998e-12
5.00511e-12 -7.98998e-12 101.739

102.653 4.44324 7.97017e-11
4.44324 100.942 -7.68951e-11
7.97017e-11 -7.68951e-11 101.667

91.5915 -1.83147 -3.78216e-14
-1.83147 101.186 2.75322e-11
-3.78216e-14 2.75322e-11 94.3966

95.6414 -4.82907 -1.15568e-11
-4.82907 95.4592 3.0514e-11
-1.15568e-11 3.0514e-11 94.0294

95.4351 4.99459 -4.8521e-11
4.99459 95.5406 -1.91573e-11
-4.8521e-11 -1.91573e-11 94.0732

99.4053 -6.27158 -1.90015e-10
-6.27158 102.888 7.26796e-11
-1.90015e-10 7.26796e-11 99.3923

118.782 -4.67941 1.46894e-09
-4.67941 102.286 3.91076e-10
1.46894e-09 3.91076e-10 104.785

118.783 4.67599 -2.8456e-10
4.67599 102.302 4.51522e-10
-2.8456e-10 4.51522e-10 104.798

99.39 6.27468 -1.93486e-10
6.27468 102.879 -3.71585e-10
-1.93486e-10 -3.71585e-10 99.4002

100.473 -6.65304 -4.62087e-11
-6.65304 100.24 2.08905e-11
-4.62087e-11 2.08905e-11 98.5097

93.4649 -5.36738 3.86946e-11
-5.36738 98.7882 1.07777e-11
3.86946e-11 1.07777e-11 95.1697

102.028 -5.12998 -2.67623e-11
-5.12998 102.014 3.56363e-12
-2.67623e-11 3.56363e-12 100.813

100.463 6.65631 4.9095e-11
6.65631 100.211 2.37768e-11
4.9095e-11 2.37768e-11 98.5149

102.023 5.13436 1.42528e-11
5.13436 102.018 1.31194e-10
1.42528e-11 1.31194e-10 100.824

93.462 5.36593 -5.87056e-12
5.36593 98.7491 -1.68469e-11
-5.87056e-12 -1.68469e-11 95.1759

93.7217 -5.53653 1.25352e-12
-5.53653 98.9545 -3.3306e-11
1.25352e-12 -3.3306e-11 96.1224

99.3319 -4.51076 2.00227e-11
-4.51076 101.034 1.36673e-11
2.00227e-11 1.36673e-11 99.3134

93.7204 5.53268 6.92831e-12
5.53268 98.9252 -4.52384e-12
6.92831e-12 -4.52384e-12 96.1296

99.3067 4.50435 -2.69553e-11
4.50435 101.002 -3.22533e-11
-2.69553e-11 -3.22533e-11 99.313

80.0472 3.62341 4.62341e-12
3.62341 84.5899 -3.004e-11
4.62341e-12 -3.004e-11 81.8329

75.4174 -1.04656 6.54832e-12
-1.04656 86.504 -3.0425e-11
6.54832e-12 -3.0425e-11 81.5334

77.7699 -1.16747 -2.00259e-11
-1.16747 67.1557 -2.88795e-11
-2.00259e-11 -2.88795e-11 73.5083

74.7527 0.0370804 -3.0242e-11
0.0370804 64.6491 -3.06187e-11
-3.0242e-11 -3.06187e-11 69.3243

81.1532 3.63327 1.77145e-11
3.63327 86.5186 3.08242e-12
1.77145e-11 3.08242e-12 85.4932

77.3056 -1.58153 1.21276e-11
-1.58153 92.266 3.85129e-11
1.21276e-11 3.85129e-11 85.9521

74.8452 2.04153 6.74142e-12
2.04153 64.7873 2.2917e-11
6.74142e-12 2.2917e-11 69.6157

84.9244 2.59858 2.42646e-11
2.59858 74.5252 -3.07906e-12
2.42646e-11 -3.07906e-12 82.2292

53.4218 5.17863 1.93223e-12
5.17863 60.7181 5.00825e-11
1.93223e-12 5.00825e-11 55.8769

53.7739 5.01805 1.90699e-11
5.01805 60.8304 5.19954e-12
1.90699e-11 5.19954e-12 55.3394

59.5629 4.51547 1.83037e-11
4.51547 52.9712 2.50358e-11
1.83037e-11 2.50358e-11 54.4957

86.1126 2.27837 3.46678e-12
2.27837 92.0877 1.73275e-11
3.46678e-12 1.73275e-11 88.5529

86.7837 -4.39362 4.92897e-11
-4.39362 89.2653 5.77309e-12
4.92897e-11 5.77309e-12 88.0915

74.7978 -5.59611 8.28004e-12
-5.59611 76.3577 3.23586e-11
8.28004e-12 3.23586e-11 75.0943

77.0637 1.89844 -1.5595e-11
1.89844 92.3066 2.00282e-11
-1.5595e-11 2.00282e-11 85.6911

80.7223 -2.10194 -4.15942e-11
-2.10194 85.8896 5.79605e-11
-4.15942e-11 5.79605e-11 85.1071

80.5943 1.44705 3.87123e-11
1.44705 68.103 5.00446e-12
3.87123e-11 5.00446e-12 74.4989

57.8876 2.38749 -4.23443e-12
2.38749 67.99 -1.00206e-11
-4.23443e-12 -1.00206e-11 60.8368

59.3403 1.81844 -8.64679e-13
1.81844 67.1469 2.11919e-12
-8.64679e-13 2.11919e-12 60.6481

66.7142 1.39579 2.00366e-11
1.39579 58.0996 4.80257e-12
2.00366e-11 4.80257e-12 59.6411

67.8985 5.58115 2.30978e-12
5.58115 74.2608 -8.85899e-12
2.30978e-12 -8.85899e-12 69.4278

65.9085 -3.34849 9.91629e-12
-3.34849 74.2007 -3.85469e-12
9.91629e-12 -3.85469e-12 69.5961

78.4929 3.21893 -2.15724e-11
3.21893 67.1887 1.96453e-11
-2.15724e-11 1.96453e-11 74.1388

50.5654 3.78561 -2.02274e-11
3.78561 56.0522 -1.54083e-11
-2.02274e-11 -1.54083e-11 50.7817

84.1612 -1.44208 2.15707e-11
-1.44208 71.0812 1.36711e-11
2.15707e-11 1.36711e-11 80.3393

89.1409 0.973892 -5.14088e-11
0.973892 90.325 -4.23483e-12
-5.14088e-11 -4.23483e-12 89.0875

86.7704 -0.257866 -4.08186e-11
-0.257866 94.8307 3.15792e-11
-4.08186e-11 3.15792e-11 89.416

108.391 5.64022 2.31025e-11
5.64022 98.5953 3.81222e-11
2.31025e-11 3.81222e-11 97.2806

107.157 -2.52813 -3.87838e-13
-2.52813 93.3872 5.4089e-11
-3.87838e-13 5.4089e-11 96.54

72.3814 -6.39391 3.66181e-12
-6.39391 75.3661 -2.31089e-12
3.66181e-12 -2.31089e-12 73.7808

66.3207 -5.3875 5.58139e-12
-5.3875 72.8327 -2.02299e-11
5.58139e-12 -2.02299e-11 68.4895

65.5156 -0.0630438 -3.6881e-11
-0.0630438 55.8262 5.97859e-12
-3.6881e-11 5.97859e-12 58.9235

93.7204 3.49472 1.04043e-11
3.49472 87.4445 2.27209e-11
1.04043e-11 2.27209e-11 89.4142

92.2847 -0.959965 4.35122e-11
-0.959965 85.9845 -4.85198e-11
4.35122e-11 -4.85198e-11 88.837

84.6686 -0.566961 -1.77136e-11
-0.566961 71.5936 4.8167e-12
-1.77136e-11 4.8167e-12 81.9351

65.0252 -4.09272 3.75581e-12
-4.09272 71.6773 -3.85107e-12
3.75581e-12 -3.85107e-12 68.4386

83.2726 0.796353 2.66677e-11
0.796353 69.5148 -2.52241e-11
2.66677e-11 -2.52241e-11 80.1513

70.444 -4.02068 3.35095e-11
-4.02068 66.0755 -2.89258e-12
3.35095e-11 -2.89258e-12 66.4764

66.469 5.91511 2.2918e-11
5.91511 70.45 -8.09005e-12
2.2918e-11 -8.09005e-12 68.3105

70.9455 4.39193 -7.50925e-12
4.39193 61.6233 2.77213e-11
-7.50925e-12 2.77213e-11 65.1528

69.487 -2.54016 3.37058e-11
-2.54016 60.9516 -2.38833e-11
3.37058e-11 -2.38833e-11 64.3186

66.6959 4.98754 2.65714e-11
4.98754 73.9413 -3.25665e-15
2.65714e-11 -3.25665e-15 69.4425

72.1219 -3.70781 1.39638e-11
-3.70781 83.8883 -2.88883e-11
1.39638e-11 -2.88883e-11 80.2624

75.4956 6.62058 -2.61921e-11
6.62058 83.7071 -4.66025e-11
-2.61921e-11 -4.66025e-11 80.3876

67.9563 -4.66611 6.16189e-12
-4.66611 73.841 2.11535e-12
6.16189e-12 2.11535e-12 69.4749

66.7898 6.12775 -7.99057e-12
6.12775 73.4637 1.81018e-11
-7.99057e-12 1.81018e-11 68.6965

39.4435 -5.1744 3.19818e-11
-5.1744 40.3058 -1.8886e-11
3.19818e-11 -1.8886e-11 40.1842

38.9954 5.94598 -5.58805e-12
5.94598 41.1507 -2.50807e-12
-5.58805e-12 -2.50807e-12 39.8935

76.5898 5.08196 1.57881e-11
5.08196 88.0105 -3.85321e-13
1.57881e-11 -3.85321e-13 84.6955

79.8731 -5.9348 -1.84833e-11
-5.9348 86.6641 -1.07827e-11
-1.84833e-11 -1.07827e-11 84.8496

69.475 5.59788 1.23257e-11
5.59788 77.9735 4.00577e-11
1.23257e-11 4.00577e-11 73.6261

39.1639 1.91394 1.25224e-11
1.91394 39.3857 1.84928e-11
1.25224e-11 1.84928e-11 40.9409

39.1965 -0.0316917 1.04026e-11
-0.0316917 41.1355 -1.92578e-11
1.04026e-11 -1.92578e-11 41.5987

87.4707 -4.26821 -2.98924e-12
-4.26821 89.2825 -3.54233e-11
-2.98924e-12 -3.54233e-11 89.2547

88.2985 2.08289 3.05117e-11
2.08289 91.0879 -1.52115e-11
3.05117e-11 -1.52115e-11 89.5954

85.3442 -0.121135 1.11246e-11
-0.121135 70.6978 -1.92581e-12
1.11246e-11 -1.92581e-12 78.1723

87.6049 -3.97675 6.96413e-12
-3.97675 89.473 -1.42476e-11
6.96413e-12 -1.42476e-11 89.2554

87.8948 1.43066 1.62973e-11
1.43066 88.334 3.69672e-11
1.62973e-11 3.69672e-11 88.9541

67.5034 -3.52391 1.48259e-11
-3.52391 77.923 3.46626e-12
1.48259e-11 3.46626e-12 73.7766

101.546 5.33262 -6.54756e-12
5.33262 95.4768 -5.39087e-12
-6.54756e-12 -5.39087e-12 94.6741

101.882 -4.39528 -3.31158e-11
-4.39528 90.527 -7.31274e-12
-3.31158e-11 -7.31274e-12 94.2855

81.9385 -4.2694 -7.36714e-12
-4.2694 81.7007 2.71038e-11
-7.36714e-12 2.71038e-11 83.3155

82.3278 3.25196 3.75472e-11
3.25196 82.6382 6.30755e-12
3.75472e-11 6.30755e-12 83.3591

91.9375 0.338542 2.1559e-11
0.338542 103.665 -3.85307e-12
2.1559e-11 -3.85307e-12 94.3143

91.3614 2.57494 -2.88865e-12
2.57494 96.8918 5.46794e-11
-2.88865e-12 5.46794e-11 93.0569

48.0468 1.77111 1.05946e-11
1.77111 53.6996 2.83116e-11
1.05946e-11 2.83116e-11 49.1125

53.3759 1.81127 -2.7051e-12
1.81127 48.2227 1.7338e-12
-2.7051e-12 1.7338e-12 49.107

73.942 5.31457 3.5041e-11
5.31457 82.4635 -4.75654e-11
3.5041e-11 -4.75654e-11 78.7903

70.4659 -3.242 -3.58116e-11
-3.242 83.0353 -2.77293e-11
-3.58116e-11 -2.77293e-11 78.5737

104.006 -6.99707 3.11173e-11
-6.99707 111.973 -3.27358e-11
3.11173e-11 -3.27358e-11 100.555

104.862 4.16911 -1.12456e-10
4.16911 97.7968 1.13001e-10
-1.12456e-10 1.13001e-10 97.968

70.3585 5.64124 4.08265e-11
5.64124 67.015 3.77632e-11
4.08265e-11 3.77632e-11 67.5295

81.5992 2.16953 2.06872e-12
2.16953 74.1941 -2.70258e-12
2.06872e-12 -2.70258e-12 78.9494

81.1391 -2.83838 3.37507e-11
-2.83838 73.9219 6.92513e-12
3.37507e-11 6.92513e-12 78.8657

89.4083 -3.0497 2.07968e-11
-3.0497 78.5097 -2.09873e-11
2.07968e-11 -2.09873e-11 85.9592

65.319 1.28978 -3.51529e-11
1.28978 55.7913 1.81072e-11
-3.51529e-11 1.81072e-11 59.0407

111.617 0.393275 -5.46873e-11
0.393275 97.2422 3.59985e-11
-5.46873e-11 3.59985e-11 98.6399

110.955 -0.796208 -6.08361e-11
-0.796208 107.269 6.81518e-11
-6.08361e-11 6.81518e-11 99.9229

73.2369 6.77012 7.70199e-12
6.77012 69.7759 1.61777e-11
7.70199e-12 1.61777e-11 72.047

81.6138 1.79394 2.44622e-11
1.79394 72.0839 4.4093e-11
2.44622e-11 4.4093e-11 75.9349

60.7409 5.51256 -1.34793e-11
5.51256 62.8205 1.17466e-11
-1.34793e-11 1.17466e-11 59.4656

97.0512 -3.1318 2.00204e-11
-3.1318 106.938 -1.07834e-11
2.00204e-11 -1.07834e-11 96.6424

93.8142 1.95923 -4.17783e-11
1.95923 97.1705 2.42601e-11
-4.17783e-11 2.42601e-11 94.433

91.2439 5.68387 -1.30929e-11
5.68387 82.056 5.39139e-12
-1.30929e-11 5.39139e-12 87.1484

79.7505 -1.78171 -5.13177e-11
-1.78171 84.2766 -1.46342e-11
-5.13177e-11 -1.46342e-11 81.6092

75.1748 1.26131 5.87031e-12
1.26131 86.6512 -6.08541e-11
5.87031e-12 -6.08541e-11 81.3583

86.5342 -0.870516 -1.50167e-11
-0.870516 72.6338 2.77299e-11
-1.50167e-11 2.77299e-11 80.9573

87.3646 0.642557 -2.59955e-11
0.642557 72.4323 -1.46376e-11
-2.59955e-11 -1.46376e-11 81.1233

62.5679 -3.63065 -2.0312e-11
-3.63065 60.2971 -1.65518e-11
-2.0312e-11 -1.65518e-11 58.8614

77.3908 0.188492 -1.95008e-11
0.188492 65.5244 -2.50304e-11
-1.95008e-11 -2.50304e-11 70.0934

88.7216 0.729123 -1.4394e-11
0.729123 78.4891 8.47389e-12
-1.4394e-11 8.47389e-12 84.9185

87.5057 -1.55768 -4.38131e-12
-1.55768 79.3939 -6.92898e-12
-4.38131e-12 -6.92898e-12 84.9236

80.9743 -2.12713 3.00431e-11
-2.12713 71.2056 2.73393e-11
3.00431e-11 2.73393e-11 75.7151

87.3622 -1.00212 -7.41377e-12
-1.00212 76.352 -1.27074e-11
-7.41377e-12 -1.27074e-11 82.2916

88.4286 0.432589 -3.3339e-11
0.432589 76.5882 -1.02032e-11
-3.3339e-11 -1.02032e-11 82.5533

80.4777 4.48353 1.06049e-11
4.48353 71.5494 6.35446e-11
1.06049e-11 6.35446e-11 76.5853

64.0152 -5.94878 -2.36896e-11
-5.94878 63.3778 -2.88929e-11
-2.36896e-11 -2.88929e-11 62.3915

76.9922 7.7492 2.00252e-11
7.7492 84.5604 -5.19818e-12
2.00252e-11 -5.19818e-12 81.7167

75.0033 -6.59397 -1.39266e-12
-6.59397 81.0804 -2.46477e-11
-1.39266e-12 -2.46477e-11 81.2387

74.3739 -4.92232 -3.66134e-12
-4.92232 81.7324 2.46487e-11
-3.66134e-12 2.46487e-11 81.8334

78.0319 8.17968 -2.73408e-11
8.17968 86.5352 7.12227e-12
-2.73408e-11 7.12227e-12 82.8859

71.7467 2.84458 -8.28463e-12
2.84458 61.1005 -1.65602e-11
-8.28463e-12 -1.65602e-11 65.1522

56.1629 -3.39582 -2.56251e-11
-3.39582 52.188 2.5625e-11
-2.56251e-11 2.5625e-11 51.9978

82.092 6.46599 -5.58198e-12
6.46599 75.3321 -2.73479e-11
-5.58198e-12 -2.73479e-11 79.8696

79.3641 -2.1655 -8.66966e-12
-2.1655 70.9774 8.14632e-11
-8.66966e-12 8.14632e-11 75.44

57.1847 -2.64107 -2.15734e-11
-2.64107 51.7802 6.16855e-12
-2.15734e-11 6.16855e-12 52.3927

72.6529 -5.25247 -4.43482e-12
-5.25247 69.4828 5.77575e-12
-4.43482e-12 5.77575e-12 71.363

69.2522 0.0352676 2.00235e-11
0.0352676 84.6215 -3.46634e-11
2.00235e-11 -3.46634e-11 78.1635

72.5611 0.814787 -3.56219e-11
0.814787 80.3583 -2.85021e-11
-3.56219e-11 -2.85021e-11 77.7538

64.8077 6.73386 1.88747e-11
6.73386 65.028 3.15869e-11
1.88747e-11 3.15869e-11 64.1636

60.7801 -3.90378 -2.11863e-11
-3.90378 54.144 6.00954e-11
-2.11863e-11 6.00954e-11 55.8956

78.1515 7.17259 8.66921e-12
7.17259 80.3396 4.35234e-11
8.66921e-12 4.35234e-11 81.7119

77.8791 -6.87204 -2.32977e-11
-6.87204 82.6014 -3.0229e-11
-2.32977e-11 -3.0229e-11 81.4457

63.8482 -5.07922 2.1471e-11
-5.07922 68.0398 -9.63437e-12
2.1471e-11 -9.63437e-12 64.5597

64.552 -5.59945 1.926e-11
-5.59945 67.5136 3.11949e-11
1.926e-11 3.11949e-11 64.1326

79.7844 5.22644 1.61799e-11
5.22644 72.1393 3.27375e-12
1.61799e-11 3.27375e-12 76.0632

89.5141 3.21426 1.50147e-11
3.21426 73.2267 -3.31147e-11
1.50147e-11 -3.31147e-11 84.8223

89.3244 -2.19137 -1.69451e-11
-2.19137 71.445 1.00144e-11
-1.69451e-11 1.00144e-11 84.4853

63.1676 4.15543 4.76933e-13
4.15543 72.0993 -2.60019e-11
4.76933e-13 -2.60019e-11 66.0947

74.2396 6.38853 -1.52153e-11
6.38853 73.0079 -1.8105e-11
-1.52153e-11 -1.8105e-11 73.4716

52.4539 0.601054 -7.70232e-12
0.601054 65.3065 -3.46671e-12
-7.70232e-12 -3.46671e-12 57.7131

53.8978 0.334377 -9.05372e-12
0.334377 64.8049 2.44674e-11
-9.05372e-12 2.44674e-11 57.6063

64.6767 0.273334 1.30944e-11
0.273334 52.6156 -1.65715e-11
1.30944e-11 -1.65715e-11 56.8759

66.1576 -4.80145 6.9386e-12
-4.80145 62.8017 -2.85055e-11
6.9386e-12 -2.85055e-11 63.8706

95.8456 -3.29331 3.7536e-11
-3.29331 101.945 -5.80498e-11
3.7536e-11 -5.80498e-11 96.6271

113.473 1.69623 2.8849e-12
1.69623 113.528 -3.45879e-12
2.8849e-12 -3.45879e-12 101.945

68.7088 5.76235 2.90834e-11
5.76235 61.3156 -4.62169e-11
2.90834e-11 -4.62169e-11 64.067

72.2851 -2.39917 3.26471e-11
-2.39917 61.4192 8.85225e-12
3.26471e-11 8.85225e-12 65.8118

57.263 4.04631 7.74936e-13
4.04631 51.2743 -1.30966e-11
7.74936e-13 -1.30966e-11 52.761

70.4858 -4.2 2.85945e-11
-4.2 79.0525 -4.6223e-12
2.85945e-11 -4.6223e-12 76.9339

73.9087 7.60547 -4.31311e-11
7.60547 81.6354 2.31082e-11
-4.31311e-11 2.31082e-11 77.571

85.3102 -0.11156 -1.32424e-11
-0.11156 70.6016 2.31119e-12
-1.32424e-11 2.31119e-12 78.1013

60.6534 3.82821 9.58419e-13
3.82821 71.6293 -1.88742e-11
9.58419e-13 -1.88742e-11 65.8256

74.7991 -5.08581 -7.99151e-12
-5.08581 87.9808 -1.73295e-11
-7.99151e-12 -1.73295e-11 84.6015

79.792 7.13613 -1.24181e-11
7.13613 87.9269 7.69014e-13
-1.24181e-11 7.69014e-13 85.1568

60.0073 4.48413 -1.92446e-12
4.48413 62.7026 7.89457e-12
-1.92446e-12 7.89457e-12 58.7157

61.7627 4.72829 1.71424e-11
4.72829 60.9388 1.94535e-11
1.71424e-11 1.94535e-11 58.2973

57.7388 3.6321 -4.03573e-12
3.6321 51.7317 5.01249e-12
-4.03573e-12 5.01249e-12 53.1084

77.776 7.85123 2.78688e-11
7.85123 87.6138 -2.50145e-12
2.78688e-11 -2.50145e-12 83.2516

74.3781 -5.67563 -2.59855e-12
-5.67563 80.107 -3.38907e-11
-2.59855e-12 -3.38907e-11 81.7819

90.1435 0.228359 -5.137e-11
0.228359 72.867 -2.5801e-11
-5.137e-11 -2.5801e-11 82.8489

76.8092 5.36301 -4.79492e-11
5.36301 80.4702 -3.04287e-11
-4.79492e-11 -3.04287e-11 82.2742

78.3067 -6.6864 -1.84839e-11
-6.6864 86.0384 -1.44401e-11
-1.84839e-11 -1.44401e-11 83.1466

74.7623 6.49237 -1.88776e-11
6.49237 76.0032 -3.00393e-11
-1.88776e-11 -3.00393e-11 76.7284

58.394 -1.40647 -8.28141e-12
-1.40647 68.5628 -2.38859e-11
-8.28141e-12 -2.38859e-11 61.6383

60.2119 -1.86274 -1.1747e-11
-1.86274 68.325 1.34836e-11
-1.1747e-11 1.34836e-11 61.6823

67.1784 -1.14448 -5.87767e-12
-1.14448 58.7555 1.04197e-11
-5.87767e-12 1.04197e-11 60.6834

67.459 -3.96659 1.87792e-11
-3.96659 67.3904 3.54331e-11
1.87792e-11 3.54331e-11 66.4313

71.1509 0.691219 -9.24306e-12
0.691219 78.0049 -1.23285e-11
-9.24306e-12 -1.23285e-11 72.9543

67.1228 0.228258 3.88999e-11
0.228258 79.2787 1.04013e-11
3.88999e-11 1.04013e-11 72.676

56.1005 -4.43845 2.23464e-11
-4.43845 60.5722 -4.23778e-11
2.23464e-11 -4.23778e-11 56.0513

55.6804 -4.2245 -2.79206e-12
-4.2245 59.3165 5.77138e-12
-2.79206e-12 5.77138e-12 55.8609

90.852 -0.250258 -3.08353e-11
-0.250258 73.8431 -1.90623e-11
-3.08353e-11 -1.90623e-11 83.2667

90.0771 0.278818 -1.11671e-11
0.278818 74.144 3.31155e-11
-1.11671e-11 3.31155e-11 83.1417

73.0893 -5.24577 6.067e-12
-5.24577 78.1881 -3.00422e-11
6.067e-12 -3.00422e-11 77.9634

74.7797 6.89121 8.37397e-12
6.89121 82.6651 -1.79077e-11
8.37397e-12 -1.79077e-11 78.61

74.7688 4.44468 -1.25165e-11
4.44468 87.2226 -3.85381e-12
-1.25165e-11 -3.85381e-12 84.292

79.5809 -6.52783 -3.84881e-12
-6.52783 87.1526 -2.96521e-11
-3.84881e-12 -2.96521e-11 84.869

78.3638 -5.22919 3.75502e-11
-5.22919 77.5273 3.77366e-11
3.75502e-11 3.77366e-11 79.1997

60.9806 -2.74691 -2.85008e-11
-2.74691 72.486 5.00933e-12
-2.85008e-11 5.00933e-12 66.2287

87.0787 0.828776 -1.63425e-12
0.828776 84.3176 4.91081e-12
-1.63425e-12 4.91081e-12 86.3136

85.8832 -2.61744 -1.43973e-11
-2.61744 83.1341 2.54149e-11
-1.43973e-11 2.54149e-11 85.9847

75.3415 -4.03972 -4.08254e-11
-4.03972 72.266 4.9306e-11
-4.08254e-11 4.9306e-11 73.7211

81.9726 -3.43016 2.0893e-11
-3.43016 77.4266 -1.69449e-11
2.0893e-11 -1.69449e-11 80.2796

82.8203 2.89135 -2.4117e-12
2.89135 79.5247 -3.11959e-11
-2.4117e-12 -3.11959e-11 80.6501

37.0773 -1.58034 8.47337e-12
-1.58034 31.4066 3.69866e-11
8.47337e-12 3.69866e-11 39.2096

64.9144 6.81209 -2.21601e-12
6.81209 67.6055 -1.90647e-11
-2.21601e-12 -1.90647e-11 64.4033

33.62 3.26262 -3.08239e-11
3.26262 38.0007 -2.69727e-11
-3.08239e-11 -2.69727e-11 39.6776

63.2118 -3.66177 1.42494e-11
-3.66177 71.9967 1.92424e-12
1.42494e-11 1.92424e-12 66.2728

93.517 -3.58418 4.14092e-11
-3.58418 97.6056 8.04795e-11
4.14092e-11 8.04795e-11 94.1842

95.7508 1.43852 -1.26239e-11
1.43852 94.1955 -6.33397e-11
-1.26239e-11 -6.33397e-11 93.9035

75.9476 4.43276 -1.1946e-11
4.43276 74.1221 -1.3862e-11
-1.1946e-11 -1.3862e-11 73.9094

77.3068 -0.240707 -9.96077e-12
-0.240707 65.1203 6.93638e-12
-9.96077e-12 6.93638e-12 70.0552

66.9496 5.52635 1.77212e-11
5.52635 62.7112 -5.39213e-12
1.77212e-11 -5.39213e-12 63.4719

71.0204 2.67516 1.03936e-11
2.67516 84.4522 -5.73854e-11
1.03936e-11 -5.73854e-11 78.9408

74.0081 -3.69103 2.63796e-11
-3.69103 81.3911 2.00264e-11
2.63796e-11 2.00264e-11 78.6369

86.7427 6.1211 2.92644e-11
6.1211 90.0921 -1.03939e-11
2.92644e-11 -1.03939e-11 88.3881

86.4779 -3.38951 2.32958e-11
-3.38951 91.3451 -1.6754e-11
2.32958e-11 -1.6754e-11 88.6725

77.0803 8.33564 7.98891e-12
8.33564 86.348 -8.6647e-12
7.98891e-12 -8.6647e-12 82.693

70.5293 -7.90065 3.23491e-11
-7.90065 81.52 -1.7334e-11
3.23491e-11 -1.7334e-11 81.2075

68.1109 4.32305 1.00107e-11
4.32305 77.6283 2.96569e-11
1.00107e-11 2.96569e-11 73.7988

66.1559 2.19182 -1.19408e-11
2.19182 75.7156 6.54987e-12
-1.19408e-11 6.54987e-12 70.3421

75.9615 -4.85124 -3.24505e-11
-4.85124 75.1773 -9.23861e-12
-3.24505e-11 -9.23861e-12 76.9771

76.3639 5.13269 -2.30153e-11
5.13269 76.8559 -2.59942e-11
-2.30153e-11 -2.59942e-11 77.0905

68.8618 5.23282 1.36722e-11
5.23282 69.2635 -2.02215e-11
1.36722e-11 -2.02215e-11 66.8663

69.6317 -5.12868 1.54079e-11
-5.12868 77.6668 -3.6019e-11
1.54079e-11 -3.6019e-11 73.8084

64.0925 -0.910651 -4.04436e-12
-0.910651 77.4986 3.82953e-13
-4.04436e-12 3.82953e-13 70.699

45.8054 3.69632 2.75568e-11
3.69632 48.3724 2.23448e-11
2.75568e-11 2.23448e-11 45.4839

47.9855 3.82528 4.03585e-11
3.82528 46.0066 1.05843e-11
4.03585e-11 1.05843e-11 45.4844

59.0014 -4.43543 1.96732e-13
-4.43543 60.4781 -3.02303e-11
1.96732e-13 -3.02303e-11 57.3474

80.1187 -1.66232 -5.34432e-12
-1.66232 67.9978 5.39389e-12
-5.34432e-12 5.39389e-12 74.3973

101.852 -5.56414 7.32414e-12
-5.56414 105.029 2.61767e-11
7.32414e-12 2.61767e-11 98.5634

106.574 5.7758 -5.74149e-11
5.7758 98.1263 5.58264e-11
-5.74149e-11 5.58264e-11 98.1507

95.622 5.6532 -1.57889e-11
5.6532 95.7178 1.92398e-12
-1.57889e-11 1.92398e-12 93.0898

92.7318 -1.48125 -2.58011e-11
-1.48125 89.6214 3.33147e-11
-2.58011e-11 3.33147e-11 91.6814

80.5493 -0.0629738 4.52589e-11
-0.0629738 69.342 -1.11673e-11
4.52589e-11 -1.11673e-11 76.9265

77.1489 -7.40716 -6.35362e-12
-7.40716 85.1882 -5.77612e-12
-6.35362e-12 -5.77612e-12 82.4917

71.9596 7.7383 -4.77559e-11
7.7383 81.3526 -2.31127e-11
-4.77559e-11 -2.31127e-11 81.2935

48.0379 -3.60321 2.19594e-11
-3.60321 49.761 1.44465e-11
2.19594e-11 1.44465e-11 47.3601

48.4581 4.64854 -2.3304e-11
4.64854 48.5416 -1.24221e-11
-2.3304e-11 -1.24221e-11 47.5368

48.2432 -1.67869 -1.25176e-11
-1.67869 55.7714 3.8143e-11
-1.25176e-11 3.8143e-11 50.5957

50.5305 -2.06538 1.96498e-11
-2.06538 56.7789 -1.54157e-11
1.96498e-11 -1.54157e-11 51.4615

56.2626 -1.44453 5.23828e-11
-1.44453 48.7177 -8.87505e-12
5.23828e-11 -8.87505e-12 50.5925

59.8667 5.46935 2.85142e-11
5.46935 58.816 -4.85401e-11
2.85142e-11 -4.85401e-11 57.8171

43.7263 1.62998 4.81359e-12
1.62998 52.9591 1.61773e-11
4.81359e-12 1.61773e-11 47.4644

52.4318 0.359156 -1.63764e-11
0.359156 44.0502 -3.46522e-12
-1.63764e-11 -3.46522e-12 47.4135

90.4423 -0.646886 1.48227e-11
-0.646886 99.1755 3.8507e-12
1.48227e-11 3.8507e-12 92.4915

89.9512 -2.37741 5.38399e-12
-2.37741 93.0555 -4.64997e-11
5.38399e-12 -4.64997e-11 91.3387

84.9672 -1.85092 3.4081e-11
-1.85092 77.1039 2.02229e-11
3.4081e-11 2.02229e-11 81.8757

85.2288 0.818578 -3.62039e-11
0.818578 66.6133 4.6597e-11
-3.62039e-11 4.6597e-11 81.1207

57.3052 -3.60645 3.23649e-11
-3.60645 64.7301 3.98743e-11
3.23649e-11 3.98743e-11 59.3283

57.0338 -2.59685 1.98325e-11
-2.59685 64.8064 -5.78027e-12
1.98325e-11 -5.78027e-12 59.7396

81.6706 1.72837 1.05894e-11
1.72837 70.1379 -5.27631e-11
1.05894e-11 -5.27631e-11 77.5436

91.2509 -1.71803 -2.36825e-11
-1.71803 92.3386 2.77215e-11
-2.36825e-11 2.77215e-11 91.6099

93.5337 -0.0211991 5.28295e-11
-0.0211991 90.6508 1.25111e-11
5.28295e-11 1.25111e-11 91.6518

81.4853 -3.64911 -3.6205e-11
-3.64911 80.0808 -2.34877e-11
-3.6205e-11 -2.34877e-11 81.139

75.6623 6.04349 -2.02163e-11
6.04349 78.0337 1.1166e-11
-2.02163e-11 1.1166e-11 78.3441

74.3918 -6.35534 -1.50171e-11
-6.35534 81.2052 -2.9074e-11
-1.50171e-11 -2.9074e-11 78.0499

83.2586 -1.64603 9.6619e-13
-1.64603 71.1206 2.88826e-11
9.6619e-13 2.88826e-11 79.3538

71.8816 5.07473 -7.68977e-13
5.07473 78.8094 2.04122e-11
-7.68977e-13 2.04122e-11 77.2065

74.0972 -6.73336 -3.17692e-11
-6.73336 80.4554 -3.73547e-11
-3.17692e-11 -3.73547e-11 77.5013

37.6375 -7.53643 -2.60095e-11
-7.53643 38.1894 -1.96479e-11
-2.60095e-11 -1.96479e-11 38.5713

64.1368 1.61213 -8.27568e-12
1.61213 77.2061 -1.14901e-12
-8.27568e-12 -1.14901e-12 70.4395

66.7448 -1.46278 -4.81813e-12
-1.46278 75.2001 1.40605e-11
-4.81813e-12 1.40605e-11 70.3579

89.3932 0.792765 -3.58046e-11
0.792765 102.946 -1.92468e-12
-3.58046e-11 -1.92468e-12 93.2875

90.5378 -0.0891637 -6.81625e-11
-0.0891637 92.724 3.28277e-11
-6.81625e-11 3.28277e-11 91.743

90.8164 -0.309707 3.08124e-12
-0.309707 77.2197 -2.88823e-11
3.08124e-12 -2.88823e-11 85.5462

92.0929 0.497868 8.28082e-12
0.497868 76.5197 9.43197e-12
8.28082e-12 9.43197e-12 85.6644

86.8234 7.25606 2.19511e-11
7.25606 83.177 2.46427e-11
2.19511e-11 2.46427e-11 85.6603

84.4005 -4.13746 -3.07628e-12
-4.13746 81.4807 -5.15965e-11
-3.07628e-12 -5.15965e-11 84.6079

96.7716 2.65596 -1.1943e-11
2.65596 93.004 -1.65584e-11
-1.1943e-11 -1.65584e-11 92.3181

93.2642 -1.45012 7.31385e-12
-1.45012 92.8712 3.65886e-11
7.31385e-12 3.65886e-11 91.859

99.7089 3.02344 1.17992e-11
3.02344 96.7558 1.23155e-11
1.17992e-11 1.23155e-11 96.1011

100.36 -8.56694 -1.76211e-10
-8.56694 104.142 5.42061e-12
-1.76211e-10 5.42061e-12 97.6933

80.6208 7.5527 -2.65722e-11
7.5527 88.3933 -1.90653e-11
-2.65722e-11 -1.90653e-11 85.6246

76.6922 -9.3386 -2.35996e-12
-9.3386 82.9374 -5.19897e-11
-2.35996e-12 -5.19897e-11 84.3392

74.978 4.04478 -2.88856e-11
4.04478 69.2474 3.90961e-11
-2.88856e-11 3.90961e-11 71.8853

69.0836 3.21407 -1.4631e-11
3.21407 79.5048 3.35147e-11
-1.4631e-11 3.35147e-11 74.7327

70.4679 -5.23418 -1.29958e-11
-5.23418 70.3079 2.42673e-11
-1.29958e-11 2.42673e-11 70.7332

72.788 -4.01874 1.0975e-11
-4.01874 79.2033 -1.44437e-11
1.0975e-11 -1.44437e-11 75.1609

74.5317 -3.7647 -3.89001e-11
-3.7647 68.6731 1.73317e-11
-3.89001e-11 1.73317e-11 71.9207

72.5706 4.47431 2.76845e-11
4.47431 79.5182 6.74275e-12
2.76845e-11 6.74275e-12 75.0301

71.5859 6.35781 -4.84279e-13
6.35781 71.9032 -3.54345e-11
-4.84279e-13 -3.54345e-11 70.9311

80.1755 8.39093 1.79045e-11
8.39093 83.821 -3.42725e-11
1.79045e-11 -3.42725e-11 85.0027

81.4213 -6.24561 8.66551e-12
-6.24561 86.6943 -4.33273e-11
8.66551e-12 -4.33273e-11 85.5375

86.8898 3.83189 -1.55431e-15
3.83189 78.7995 -1.69433e-11
-1.55431e-15 -1.69433e-11 83.2105

113.172 2.82804 -7.29644e-11
2.82804 111.569 -6.27513e-11
-7.29644e-11 -6.27513e-11 101.395

96.0544 2.70329 3.82712e-13
2.70329 98.0289 -8.4998e-11
3.82712e-13 -8.4998e-11 95.8194

79.7554 -3.87343 -2.56111e-11
-3.87343 74.1605 -2.13682e-11
-2.56111e-11 -2.13682e-11 78.453

93.1983 0.250695 -2.65746e-11
0.250695 82.565 -1.38602e-11
-2.65746e-11 -1.38602e-11 88.8645

46.5106 -3.28925 5.19725e-12
-3.28925 49.0575 4.69993e-11
5.19725e-12 4.69993e-11 46.2884

49.0728 -2.70713 -1.54232e-12
-2.70713 46.3219 2.33959e-11
-1.54232e-12 2.33959e-11 46.3207

91.0739 0.301886 1.43685e-11
0.301886 80.4622 -3.38896e-11
1.43685e-11 -3.38896e-11 87.0645

93.0451 -0.447727 2.57075e-11
-0.447727 79.6879 3.36913e-11
2.57075e-11 3.36913e-11 87.2475

93.9472 0.780569 2.30715e-12
0.780569 87.2263 1.54121e-12
2.30715e-12 1.54121e-12 89.687

69.078 -2.35728 -1.35569e-11
-2.35728 79.8737 -4.15981e-11
-1.35569e-11 -4.15981e-11 74.8854

73.3417 3.1385 3.33333e-12
3.1385 66.5165 4.67932e-11
3.33333e-12 4.67932e-11 67.6445

81.8997 -4.89021 -1.98799e-11
-4.89021 82.0809 -5.54579e-11
-1.98799e-11 -5.54579e-11 83.7022

82.88 4.04749 3.7495e-11
4.04749 85.8589 2.59902e-11
3.7495e-11 2.59902e-11 84.337

109.833 0.487352 3.19685e-11
0.487352 114.662 6.53246e-13
3.19685e-11 6.53246e-13 101.386

104.652 4.60515 1.38517e-11
4.60515 94.2839 -8.64153e-11
1.38517e-11 -8.64153e-11 96.8739

78.1109 -3.06756 -8.20373e-11
-3.06756 71.9309 -7.69695e-12
-8.20373e-11 -7.69695e-12 74.9421

90.3317 -0.131009 4.06379e-12
-0.131009 84.0399 -3.94729e-11
4.06379e-12 -3.94729e-11 87.1991

89.1014 -1.08601 -3.35028e-11
-1.08601 84.9657 5.35332e-11
-3.35028e-11 5.35332e-11 87.2355

78.8893 -5.5461 -1.52154e-11
-5.5461 84.3279 5.46883e-11
-1.52154e-11 5.46883e-11 81.835

75.5775 2.87407 2.29105e-11
2.87407 84.222 -2.31095e-11
2.29105e-11 -2.31095e-11 81.4882

74.7515 5.31122 1.84835e-11
5.31122 80.9059 -2.07981e-11
1.84835e-11 -2.07981e-11 81.5706

77.5085 -7.51604 2.25284e-11
-7.51604 85.2783 1.00139e-11
2.25284e-11 1.00139e-11 82.4539

39.9924 9.6204 -7.32199e-12
9.6204 39.1028 -1.38715e-11
-7.32199e-12 -1.38715e-11 39.5484

84.2061 5.51148 5.0037e-12
5.51148 89.172 -1.94453e-11
5.0037e-12 -1.94453e-11 87.6821

84.3447 -4.22282 4.52474e-11
-4.22282 89.7372 3.38847e-11
4.52474e-11 3.38847e-11 87.7878

73.0507 5.03422 7.89742e-12
5.03422 81.9731 -2.69829e-12
7.89742e-12 -2.69829e-12 80.1202

75.2747 -6.35035 -1.31004e-11
-6.35035 82.9945 5.1611e-11
-1.31004e-11 5.1611e-11 80.2969

73.7425 -2.99256 2.35056e-11
-2.99256 65.9419 -4.54433e-11
2.35056e-11 -4.54433e-11 68.2093

83.1856 5.44377 -1.25161e-11
5.44377 79.785 1.11656e-11
-1.25161e-11 1.11656e-11 81.8696

87.9335 5.83222 -2.04075e-11
5.83222 83.7285 1.84786e-11
-2.04075e-11 1.84786e-11 86.2732

85.2326 -3.85985 2.32982e-11
-3.85985 85.1406 4.25581e-11
2.32982e-11 4.25581e-11 85.8673

84.9792 3.66473 -1.88673e-11
3.66473 71.965 3.69714e-11
-1.88673e-11 3.69714e-11 80.4965

92.9539 0.710872 -9.00354e-12
0.710872 88.7626 -4.23584e-11
-9.00354e-12 -4.23584e-11 90.6416

94.5026 -1.03875 2.61262e-11
-1.03875 86.4383 1.54001e-11
2.61262e-11 1.54001e-11 90.4182

95.5711 1.23567 -1.0013e-11
1.23567 103.304 -3.98551e-11
-1.0013e-11 -3.98551e-11 96.3419

97.9625 -1.95032 -2.96452e-11
-1.95032 111.066 -1.27022e-11
-2.96452e-11 -1.27022e-11 97.9026

39.6494 -0.903033 7.71326e-12
-0.903033 33.9649 -3.04355e-11
7.71326e-12 -3.04355e-11 39.9845

31.8597 -0.188838 -1.63734e-11
-0.188838 39.4711 -1.50257e-11
-1.63734e-11 -1.50257e-11 39.6435

79.6335 6.29453 3.03676e-12
6.29453 87.0929 4.23846e-12
3.03676e-12 4.23846e-12 83.4409

78.1646 -5.41996 5.79082e-11
-5.41996 81.6476 1.65554e-11
5.79082e-11 1.65554e-11 82.5635

38.1875 3.3832 -1.42542e-11
3.3832 37.8553 1.54112e-11
-1.42542e-11 1.54112e-11 40.1902

38.8236 4.37352 -2.30749e-12
4.37352 37.0646 -1.07868e-11
-2.30749e-12 -1.07868e-11 40.1386

88.7532 -6.928 5.849e-11
-6.928 110.735 3.50329e-11
5.849e-11 3.50329e-11 97.288

96.5814 5.16899 2.50232e-11
5.16899 107.19 8.39308e-11
2.50232e-11 8.39308e-11 98.1276

80.7583 6.61674 -6.93134e-12
6.61674 77.8485 -2.57978e-11
-6.93134e-12 -2.57978e-11 80.3052

78.3831 6.03034 -2.94113e-11
6.03034 82.8207 2.88822e-11
-2.94113e-11 2.88822e-11 81.4973

77.8873 -6.03753 6.58612e-11
-6.03753 80.2242 -2.81237e-11
6.58612e-11 -2.81237e-11 81.2962

72.0094 6.08903 -2.25338e-11
6.08903 75.1795 -1.73346e-11
-2.25338e-11 -1.73346e-11 72.7768

71.0711 -4.85921 -1.61794e-11
-4.85921 73.9187 2.85076e-11
-1.61794e-11 2.85076e-11 72.7374

49.0744 -0.770564 -1.29087e-11
-0.770564 56.6421 2.6971e-11
-1.29087e-11 2.6971e-11 51.3593

50.4023 -1.56329 -1.32927e-11
-1.56329 56.895 7.70436e-12
-1.32927e-11 7.70436e-12 51.5531

56.8699 -0.662096 2.25241e-11
-0.662096 49.7262 -4.89377e-11
2.25241e-11 -4.89377e-11 51.1835

73.6935 7.01881 3.84818e-12
7.01881 79.167 -3.00418e-11
3.84818e-12 -3.00418e-11 76.4231

72.3819 -5.44219 -2.68691e-11
-5.44219 76.7401 -7.70436e-12
-2.68691e-11 -7.70436e-12 76.1413

45.2318 1.08894 1.53992e-12
1.08894 52.7212 -4.23232e-12
1.53992e-12 -4.23232e-12 47.5145

52.4672 1.6812 -4.82725e-13
1.6812 45.3352 -1.90664e-11
-4.82725e-13 -1.90664e-11 47.485

81.7627 -6.95504 -2.77695e-11
-6.95504 83.5335 2.23355e-11
-2.77695e-11 2.23355e-11 85.3478

82.4188 5.72906 -3.62482e-11
5.72906 87.7995 -1.92418e-12
-3.62482e-11 -1.92418e-12 85.9149

83.0204 -6.15265 -2.56108e-11
-6.15265 87.0936 -6.27676e-11
-2.56108e-11 -6.27676e-11 86.5859

83.476 4.57587 -6.88338e-15
4.57587 88.4874 -4.96816e-11
-6.88338e-15 -4.96816e-11 86.6632

36.4964 -2.85819 -1.79173e-11
-2.85819 37.1194 7.74936e-13
-1.79173e-11 7.74936e-13 39.0937

36.5295 -2.87479 7.31593e-12
-2.87479 37.1524 -1.58039e-11
7.31593e-12 -1.58039e-11 39.2456

77.4975 5.54925 -3.87959e-11
5.54925 81.3914 4.15958e-11
-3.87959e-11 4.15958e-11 79.0717

76.7409 -5.0831 -3.64953e-11
-5.0831 77.8974 1.00161e-11
-3.64953e-11 1.00161e-11 78.6307

94.0152 1.452 -1.34564e-12
1.452 100.491 -7.31563e-12
-1.34564e-12 -7.31563e-12 94.0961

92.3305 -0.821058 1.27044e-11
-0.821058 93.5803 -3.0034e-11
1.27044e-11 -3.0034e-11 92.7146

80.1985 -6.38154 1.97768e-13
-6.38154 88.8035 -2.96524e-11
1.97768e-13 -2.96524e-11 87.0372

82.5949 5.99598 -1.17909e-11
5.99598 91.4414 3.65874e-12
-1.17909e-11 3.65874e-12 87.6344

89.6763 -1.33535 2.29585e-11
-1.33535 85.8806 2.69222e-12
2.29585e-11 2.69222e-12 89.3262

91.9618 0.13028 6.95236e-12
0.13028 84.8186 3.2736e-12
6.95236e-12 3.2736e-12 89.4944

80.3213 5.90859 3.06161e-11
5.90859 81.4949 8.86602e-12
3.06161e-11 8.86602e-12 82.6972

80.1531 -5.80207 2.61876e-11
-5.80207 83.641 4.467e-11
2.61876e-11 4.467e-11 82.5646

98.1841 1.78769 -2.12268e-11
1.78769 91.8111 -1.24515e-11
-2.12268e-11 -1.24515e-11 93.7597

98.7678 0.531851 1.07388e-10
0.531851 95.5457 -8.25961e-11
1.07388e-10 -8.25961e-11 95.6296

95.1208 -1.60666 3.87357e-12
-1.60666 93.5712 -2.44475e-11
3.87357e-12 -2.44475e-11 93.5599

92.8464 -0.210347 5.02228e-11
-0.210347 99.9123 5.77346e-12
5.02228e-11 5.77346e-12 95.3561

92.8057 1.03595 1.98215e-11
1.03595 106.408 -9.35733e-11
1.98215e-11 -9.35733e-11 95.3485

102.473 5.85917 2.38703e-11
5.85917 98.1746 -1.65552e-11
2.38703e-11 -1.65552e-11 95.5904

97.1163 -2.29188 2.54152e-11
-2.29188 94.0002 -4.25496e-11
2.54152e-11 -4.25496e-11 94.1172

91.4927 -1.37943 1.73025e-12
-1.37943 99.6138 -1.61738e-11
1.73025e-12 -1.61738e-11 94.0496

94.0839 3.42904 9.42043e-11
3.42904 98.1015 1.40356e-10
9.42043e-11 1.40356e-10 94.8213

121.372 3.48408 7.36845e-10
3.48408 93.0717 -7.7093e-10
7.36845e-10 -7.7093e-10 100.4

118.507 -2.29197 7.35702e-10
-2.29197 116.869 7.05224e-10
7.35702e-10 7.05224e-10 104.452

98.4934 -7.88524 2.5708e-10
-7.88524 105.249 -4.14029e-10
2.5708e-10 -4.14029e-10 97.1314

96.2544 4.44773 -5.68064e-11
4.44773 95.9474 -7.39294e-11
-5.68064e-11 -7.39294e-11 94.3378

89.6263 3.23198 5.51576e-11
3.23198 94.6402 -1.271e-11
5.51576e-11 -1.271e-11 91.3911

98.6911 0.949755 -2.01991e-11
0.949755 97.2515 -7.31591e-11
-2.01991e-11 -7.31591e-11 96.27

99.1675 -7.35878 -9.55874e-11
-7.35878 96.6793 9.39653e-11
-9.55874e-11 9.39653e-11 95.1395

101.235 -8.45411 -9.18918e-11
-8.45411 108.578 1.81111e-11
-9.18918e-11 1.81111e-11 98.9645

89.7874 -4.1313 4.21208e-11
-4.1313 92.2696 -1.00119e-11
4.21208e-11 -1.00119e-11 91.1695

91.1526 -6.89371 1.44445e-11
-6.89371 95.2286 -3.9283e-11
1.44445e-11 -3.9283e-11 92.4258

93.2735 -4.58505 -2.32447e-11
-4.58505 97.6347 -6.6997e-11
-2.32447e-11 -6.6997e-11 94.3366

89.3908 2.8904 3.61468e-11
2.8904 93.5329 8.66412e-12
3.61468e-11 8.66412e-12 91.6164

96.0779 1.73007 -4.8711e-11
1.73007 95.7554 -3.13802e-11
-4.8711e-11 -3.13802e-11 94.4845

67.8916 4.91811 1.92587e-11
4.91811 72.523 2.31103e-11
1.92587e-11 2.31103e-11 69.4501

78.599 2.46698 2.6961e-11
2.46698 85.0646 -9.5269e-12
2.6961e-11 -9.5269e-12 81.797

76.8424 2.11249 -1.23243e-11
2.11249 84.158 3.65189e-12
-1.23243e-11 3.65189e-12 81.4942

78.5616 2.79237 -1.96433e-11
2.79237 66.7023 -7.15594e-12
-1.96433e-11 -7.15594e-12 73.3864

74.9318 0.946633 5.3908e-12
0.946633 63.2326 -5.09048e-12
5.3908e-12 -5.09048e-12 68.7817

80.1326 1.51237 2.90673e-11
1.51237 87.939 7.71753e-13
2.90673e-11 7.71753e-13 85.6877

78.3284 3.48423 4.80633e-12
3.48423 88.8986 -3.31195e-11
4.80633e-12 -3.31195e-11 85.7497

75.9838 -1.11169 -1.88785e-11
-1.11169 64.383 2.03666e-11
-1.88785e-11 2.03666e-11 69.5304

85.0656 -2.2326 -1.73308e-11
-2.2326 74.7635 6.49621e-12
-1.73308e-11 6.49621e-12 82.2283

54.8971 4.47842 4.24098e-12
4.47842 59.5426 -1.68902e-12
4.24098e-12 -1.68902e-12 55.9074

54.0911 -4.47454 -2.6197e-11
-4.47454 58.5103 6.45484e-12
-2.6197e-11 6.45484e-12 54.9562

60.4741 -4.10259 -9.63156e-12
-4.10259 52.9399 1.75046e-11
-9.63156e-12 1.75046e-11 54.9634

84.6219 -4.21524 8.47252e-12
-4.21524 89.9466 1.3527e-12
8.47252e-12 1.3527e-12 88.177

87.1161 -2.91539 1.38683e-11
-2.91539 90.3 -7.79954e-12
1.38683e-11 -7.79954e-12 88.4712

69.3092 4.18994 1.81051e-11
4.18994 75.5449 -4.0461e-12
1.81051e-11 -4.0461e-12 73.585

73.6052 5.04261 -4.23269e-12
5.04261 81.6835 7.98813e-12
-4.23269e-12 7.98813e-12 80.2131

78.3561 -3.26725 -2.07928e-11
-3.26725 88.8155 5.00792e-12
-2.07928e-11 5.00792e-12 85.5036

79.3501 -0.954966 1.88721e-11
-0.954966 87.7393 -4.23809e-12
1.88721e-11 -4.23809e-12 85.3802

81.1197 1.28579 5.97019e-12
1.28579 67.5688 9.98886e-12
5.97019e-12 9.98886e-12 74.4667

59.4567 1.61158 -3.45846e-12
1.61158 66.8656 -9.81467e-12
-3.45846e-12 -9.81467e-12 60.8798

59.1904 -1.31668 -3.07591e-12
-1.31668 66.4054 2.16295e-11
-3.07591e-12 2.16295e-11 60.6397

67.6802 -1.13723 2.08019e-11
-1.13723 57.7368 2.00529e-11
2.08019e-11 2.00529e-11 59.806

67.7887 5.65197 1.28148e-11
5.65197 69.5915 1.05942e-11
1.28148e-11 1.05942e-11 68.602

71.245 -3.75775 -1.73374e-11
-3.75775 60.322 3.26889e-11
-1.73374e-11 3.26889e-11 64.9846

74.8199 5.9875 -3.46427e-12
5.9875 71.985 2.14201e-11
-3.46427e-12 2.14201e-11 73.4282

67.619 4.77208 1.54173e-12
4.77208 74.0176 -5.39332e-12
1.54173e-12 -5.39332e-12 69.658

79.0426 -2.36965 1.54203e-12
-2.36965 66.8381 -1.57612e-11
1.54203e-12 -1.57612e-11 74.0645

52.1097 3.14921 -1.19446e-11
3.14921 55.2877 -1.06433e-11
-1.19446e-11 -1.06433e-11 50.8917

84.797 2.93819 1.57904e-11
2.93819 72.6575 -3.20536e-12
1.57904e-11 -3.20536e-12 80.5977

55.7276 -2.72184 5.2011e-11
-2.72184 50.2058 -2.09819e-11
5.2011e-11 -2.09819e-11 50.1951

87.4724 -1.03658 -1.30936e-11
-1.03658 91.5774 2.67631e-11
-1.30936e-11 2.67631e-11 89.1571

87.364 1.83934 -1.00142e-11
1.83934 91.7477 -1.73298e-11
-1.00142e-11 -1.73298e-11 89.2005

108.425 -5.60047 -8.48088e-12
-5.60047 98.663 5.25562e-11
-8.48088e-12 5.25562e-11 97.3157

108.268 5.79477 1.5783e-11
5.79477 98.509 -3.03241e-11
1.5783e-11 -3.03241e-11 97.2845

66.3361 -1.49566 1.79125e-11
-1.49566 56.1367 4.40403e-12
1.79125e-11 4.40403e-12 59.1813

75.6046 6.54343 -1.54225e-12
6.54343 75.0646 -8.1856e-12
-1.54225e-12 -8.1856e-12 76.7326

93.8717 -3.39496 1.84868e-11
-3.39496 87.3468 -2.62813e-11
1.84868e-11 -2.62813e-11 89.4477

93.2048 3.38259 -9.24209e-12
3.38259 86.7662 7.31589e-12
-9.24209e-12 7.31589e-12 88.9076

84.8308 1.17783 3.85199e-12
1.17783 73.1411 1.98931e-11
3.85199e-12 1.98931e-11 82.0486

66.3754 5.39219 4.23084e-12
5.39219 73.2037 2.50355e-11
4.23084e-12 2.50355e-11 68.7488

71.9962 -4.66562 2.50361e-11
-4.66562 64.1314 -4.5773e-12
2.50361e-11 -4.5773e-12 66.9508

83.5467 -0.289982 -1.62736e-11
-0.289982 70.4099 -5.94032e-12
-1.62736e-11 -5.94032e-12 80.2684

67.1688 -5.67242 -1.63778e-11
-5.67242 69.3143 -2.69496e-12
-1.63778e-11 -2.69496e-12 68.1485

67.903 -4.65119 -4.04526e-11
-4.65119 72.5661 -2.88451e-12
-4.04526e-11 -2.88451e-12 69.4816

75.1985 5.31081 5.85661e-13
5.31081 83.8314 1.41529e-11
5.85661e-13 1.41529e-11 80.447

66.6823 -6.48806 1.54075e-11
-6.48806 61.9482 3.12269e-12
1.54075e-11 3.12269e-12 63.064

41.3931 -4.9476 -4.08438e-11
-4.9476 38.5815 -4.54777e-12
-4.08438e-11 -4.54777e-12 40.118

41.0191 6.87268 7.70598e-12
6.87268 40.0824 4.2505e-11
7.70598e-12 4.2505e-11 40.3348

76.5287 -6.34037 4.4283e-11
-6.34037 86.682 6.54521e-12
4.4283e-11 6.54521e-12 84.727

41.8378 0.901913 -2.31533e-12
0.901913 38.8033 -1.64088e-11
-2.31533e-12 -1.64088e-11 41.5025

39.7649 -1.66121 -1.9656e-11
-1.66121 38.8669 -1.58806e-12
-1.9656e-11 -1.58806e-12 41.2485

88.261 -1.48754 -3.96626e-11
-1.48754 90.0721 4.19744e-11
-3.96626e-11 4.19744e-11 89.3581

88.3324 1.54438 -3.27292e-11
1.54438 89.9773 6.19008e-11
-3.27292e-11 6.19008e-11 89.3694

86.3593 -0.105609 -6.35543e-12
-0.105609 70.043 3.2423e-11
-6.35543e-12 3.2423e-11 78.1991

87.8497 -0.808107 -2.46465e-11
-0.808107 87.2633 1.41998e-11
-2.46465e-11 1.41998e-11 88.6821

87.9405 0.888118 -2.58011e-11
0.888118 87.2891 6.83216e-12
-2.58011e-11 6.83216e-12 88.7206

69.3076 4.94581 7.71013e-13
4.94581 78.1778 7.99101e-12
7.71013e-13 7.99101e-12 73.8852

101.633 -5.2422 -2.31101e-11
-5.2422 95.6611 2.11744e-11
-2.31101e-11 2.11744e-11 94.7206

101.481 5.26683 1.15156e-12
5.26683 95.5589 -2.911e-11
1.15156e-12 -2.911e-11 94.7219

82.3103 -2.63045 9.82125e-12
-2.63045 81.7188 -4.71475e-12
9.82125e-12 -4.71475e-12 83.1326

82.3567 2.65309 1.42502e-11
2.65309 81.7229 -3.11896e-11
1.42502e-11 -3.11896e-11 83.1713

59.5559 -4.47158 -3.04348e-11
-4.47158 51.4791 1.53157e-11
-3.04348e-11 1.53157e-11 54.1504

89.1815 2.59939 2.65752e-11
2.59939 101.675 6.277e-11
2.65752e-11 6.277e-11 93.8347

92.337 -0.498406 -3.35027e-11
-0.498406 96.929 4.13939e-11
-3.35027e-11 4.13939e-11 93.2874

66.6629 -5.45029 3.29311e-11
-5.45029 73.4531 1.75235e-11
3.29311e-11 1.75235e-11 68.9949

48.2233 -1.37123 -1.00201e-11
-1.37123 52.5451 5.74873e-12
-1.00201e-11 5.74873e-12 48.9553

53.496 -1.41593 -3.15907e-11
-1.41593 45.9832 3.45057e-13
-3.15907e-11 3.45057e-13 48.5613

73.0092 4.24698 -3.11935e-11
4.24698 82.5873 1.11697e-11
-3.11935e-11 1.11697e-11 78.7574

72.3306 4.23639 -2.00253e-11
4.23639 80.698 -2.50311e-12
-2.00253e-11 -2.50311e-12 78.6094

104.828 -4.21991 -1.8329e-10
-4.21991 94.5856 -1.91435e-10
-1.8329e-10 -1.91435e-10 97.1978

105.015 3.90185 -3.09965e-11
3.90185 95.7763 -2.21926e-12
-3.09965e-11 -2.21926e-12 97.5318

74.8495 5.5588 -8.47209e-12
5.5588 80.8471 -1.11706e-11
-8.47209e-12 -1.11706e-11 81.8639

81.7965 1.69607 3.23529e-11
1.69607 73.424 1.30177e-12
3.23529e-11 1.30177e-12 78.8359

81.6699 -1.76361 4.37136e-11
-1.76361 73.1584 -4.23691e-12
4.37136e-11 -4.23691e-12 78.6079

78.1038 7.45938 2.15681e-11
7.45938 79.5903 1.64672e-11
2.15681e-11 1.64672e-11 81.5341

79.4487 -5.02416 -1.73283e-11
-5.02416 87.0358 1.24219e-11
-1.73283e-11 1.24219e-11 84.8642

65.2402 -0.0863496 9.63259e-12
-0.0863496 53.9447 -5.63516e-12
9.63259e-12 -5.63516e-12 58.143

78.0688 0.107722 -5.41191e-11
0.107722 65.041 -1.91587e-11
-5.41191e-11 -1.91587e-11 70.0493

71.0365 3.35341 1.15374e-12
3.35341 60.2174 -2.14552e-12
1.15374e-12 -2.14552e-12 64.2317

90.5567 5.57766 -1.65621e-11
5.57766 80.7644 -7.22096e-12
-1.65621e-11 -7.22096e-12 86.3401

111.091 -0.82824 3.54182e-11
-0.82824 106.828 -8.90606e-12
3.54182e-11 -8.90606e-12 99.9098

110.969 0.823604 -3.081e-11
0.823604 107.318 4.1009e-11
-3.081e-11 4.1009e-11 99.9439

62.1708 4.87439 -1.73319e-11
4.87439 61.6181 -1.98432e-11
-1.73319e-11 -1.98432e-11 59.5067

74.2563 -6.20985 -3.04274e-11
-6.20985 68.9181 6.73602e-12
-3.04274e-11 6.73602e-12 71.9215

81.8658 -1.54297 5.58161e-12
-1.54297 71.4903 2.80152e-11
5.58161e-12 2.80152e-11 75.7566

94.1711 5.99553 7.35442e-11
5.99553 104.886 4.60153e-11
7.35442e-11 4.60153e-11 96.1626

94.8869 -1.57601 4.89014e-11
-1.57601 96.9382 1.73742e-12
4.89014e-11 1.73742e-12 94.6142

91.5194 -5.45509 3.15798e-11
-5.45509 82.2421 -4.04365e-11
3.15798e-11 -4.04365e-11 87.2374

76.9162 -1.57944 -3.36947e-11
-1.57944 84.4476 3.38921e-11
-3.36947e-11 3.38921e-11 81.415

77.9323 -1.65222 3.13818e-11
-1.65222 85.0017 2.58874e-12
3.13818e-11 2.58874e-12 81.6017

87.7367 -0.436187 3.6587e-12
-0.436187 71.3634 -2.25757e-11
3.6587e-12 -2.25757e-11 80.7387

88.0606 0.410749 -1.54084e-12
0.410749 71.3584 2.32016e-11
-1.54084e-12 2.32016e-11 80.9485

63.2573 4.20004 -1.25174e-12
4.20004 60.6014 1.92623e-11
-1.25174e-12 1.92623e-11 58.9294

89.0613 -0.333191 2.71982e-11
-0.333191 77.3809 -6.16203e-12
2.71982e-11 -6.16203e-12 84.6373

89.0912 0.302213 2.45315e-12
0.302213 77.488 -3.44228e-12
2.45315e-12 -3.44228e-12 84.696

82.1142 1.53116 2.06072e-11
1.53116 71.4955 2.84019e-11
2.06072e-11 2.84019e-11 75.8725

67.8537 -4.84981 -2.69196e-12
-4.84981 74.4037 -2.12784e-11
-2.69196e-12 -2.12784e-11 69.9711

88.9033 -0.162725 1.92559e-11
-0.162725 75.7537 -1.49224e-11
1.92559e-11 -1.49224e-11 82.2811

89.2249 0.20645 1.34914e-12
0.20645 75.828 -1.44886e-11
1.34914e-12 -1.44886e-11 82.5215

81.1914 -3.71877 3.0765e-12
-3.71877 71.4679 -2.93784e-12
3.0765e-12 -2.93784e-12 76.6467

76.8116 6.84516 3.84796e-12
6.84516 83.8475 -2.59933e-12
3.84796e-12 -2.59933e-12 81.5994

70.975 5.21044 9.62252e-12
5.21044 65.8119 -3.18242e-11
9.62252e-12 -3.18242e-11 67.0847

76.89 5.55469 1.65618e-11
5.55469 80.2022 8.85796e-12
1.65618e-11 8.85796e-12 82.2879

77.6846 6.81077 -2.98453e-11
6.81077 85.6389 -1.24226e-11
-2.98453e-11 -1.24226e-11 82.7331

72.2248 -2.64846 -1.349e-12
-2.64846 60.7871 3.18497e-11
-1.349e-12 3.18497e-11 65.1992

82.6756 -6.08319 -1.48298e-11
-6.08319 75.191 7.68718e-13
-1.48298e-11 7.68718e-13 79.96

80.1515 3.71374 -1.34834e-11
3.71374 70.8832 5.77619e-12
-1.34834e-11 5.77619e-12 75.4753

65.8552 6.07766 4.91103e-12
6.07766 64.0244 -7.46174e-12
4.91103e-12 -7.46174e-12 64.1837

73.6445 6.24239 2.54177e-11
6.24239 68.3275 3.79918e-13
2.54177e-11 3.79918e-13 71.3407

71.1567 0.572057 6.15662e-12
0.572057 81.6059 4.71978e-12
6.15662e-12 4.71978e-12 77.9806

71.367 0.201963 2.61897e-11
0.201963 81.6024 -1.03986e-11
2.61897e-11 -1.03986e-11 78.0123

61.3114 4.39219 -1.68504e-11
4.39219 53.8191 2.7094e-11
-1.68504e-11 2.7094e-11 55.8221

78.2605 -7.45228 2.77309e-11
-7.45228 79.728 -9.04765e-12
2.77309e-11 -9.04765e-12 81.7303

64.9906 -5.94107 1.56049e-11
-5.94107 67.9349 1.71898e-11
1.56049e-11 1.71898e-11 64.6573

64.7573 6.01464 -2.00287e-11
6.01464 68.0985 -4.61289e-11
-2.00287e-11 -4.61289e-11 64.5588

80.1304 -4.48353 1.27078e-11
-4.48353 71.0942 2.2336e-11
1.27078e-11 2.2336e-11 75.8839

89.6835 -2.96912 1.50232e-11
-2.96912 73.8364 -4.053e-11
1.50232e-11 -4.053e-11 84.9155

89.3112 2.99279 -1.30921e-11
2.99279 74.2382 3.93762e-11
-1.30921e-11 3.93762e-11 84.7223

62.4174 3.2905 -3.85954e-12
3.2905 69.7587 9.34038e-12
-3.85954e-12 9.34038e-12 65.6265

75.0242 -6.25604 -2.00337e-11
-6.25604 72.0053 5.26172e-13
-2.00337e-11 5.26172e-13 73.4005

53.8882 -0.254689 -3.73596e-11
-0.254689 64.1241 -7.89413e-12
-3.73596e-11 -7.89413e-12 57.6806

53.8179 0.10147 -3.73659e-11
0.10147 64.1077 5.10384e-11
-3.73659e-11 5.10384e-11 57.6311

65.3583 0.316375 2.27309e-11
0.316375 52.4661 -1.21575e-11
2.27309e-11 -1.21575e-11 56.9524

62.6958 -4.35726 7.12571e-12
-4.35726 60.6993 -2.12319e-11
7.12571e-12 -2.12319e-11 58.6281

66.7054 5.29719 -2.38859e-11
5.29719 62.9757 -1.54802e-12
-2.38859e-11 -1.54802e-12 63.8274

100.678 -10.7741 5.31322e-11
-10.7741 105.484 -1.05812e-11
5.31322e-11 -1.05812e-11 98.2715

104.697 4.6569 2.1869e-10
4.6569 107.759 1.00163e-11
2.1869e-10 1.00163e-11 99.6127

72.6491 2.41315 -1.92606e-11
2.41315 61.1481 -1.53831e-11
-1.92606e-11 -1.53831e-11 65.6317

73.2911 6.59222 -5.39008e-12
6.59222 81.1202 6.93031e-12
-5.39008e-12 6.93031e-12 77.4527

86.2764 0.0966598 -8.85869e-12
0.0966598 69.9374 -1.3925e-11
-8.85869e-12 -1.3925e-11 78.0334

62.5065 -3.18239 3.11976e-11
-3.18239 70.0943 -3.84284e-11
3.11976e-11 -3.84284e-11 65.8582

74.2711 6.56408 -3.85414e-13
6.56408 86.6328 -1.19367e-11
-3.85414e-13 -1.19367e-11 84.4833

79.9404 5.37464 -2.88833e-11
5.37464 87.522 -1.78139e-11
-2.88833e-11 -1.78139e-11 85.1965

76.8803 -6.82872 8.6667e-12
-6.82872 83.8388 -1.78124e-11
8.6667e-12 -1.78124e-11 81.6366

77.4706 6.89985 -5.77242e-13
6.89985 86.3664 1.87762e-11
-5.77242e-13 1.87762e-11 83.0171

72.2725 5.23212 2.42635e-11
5.23212 77.4613 -1.92593e-11
2.42635e-11 -1.92593e-11 77.1018

91.2406 0.0591717 3.75534e-11
0.0591717 71.571 1.85972e-11
3.75534e-11 1.85972e-11 82.5432

66.7331 -5.22846 1.42563e-11
-5.22846 62.561 7.03215e-12
1.42563e-11 7.03215e-12 63.4401

76.9266 -5.58083 1.00126e-11
-5.58083 80.2749 -3.56533e-12
1.00126e-11 -3.56533e-12 82.3896

68.41 -4.47246 1.42542e-11
-4.47246 68.7991 -3.20632e-11
1.42542e-11 -3.20632e-11 66.6975

60.244 -4.33601 -3.15879e-11
-4.33601 60.3614 -8.69823e-13
-3.15879e-11 -8.69823e-13 58.0774

75.5406 -6.45781 -2.27239e-11
-6.45781 75.3751 1.87953e-12
-2.27239e-11 1.87953e-12 76.8902

60.2041 -2.64839 1.91761e-12
-2.64839 67.9601 -1.61367e-11
1.91761e-12 -1.61367e-11 61.8582

60.0816 2.5124 -1.42544e-11
2.5124 67.9437 4.53129e-11
-1.42544e-11 4.53129e-11 61.7704

67.5277 1.51545 4.27599e-11
1.51545 58.8204 -2.80355e-11
4.27599e-11 -2.80355e-11 60.646

68.2977 4.66381 -3.63959e-11
4.66381 68.7157 -3.43387e-11
-3.63959e-11 -3.43387e-11 66.638

69.5495 0.824349 3.89038e-11
0.824349 77.9715 -3.49532e-11
3.89038e-11 -3.49532e-11 72.8824

69.476 -0.176828 4.00604e-11
-0.176828 77.8665 3.46626e-11
4.00604e-11 3.46626e-11 72.8222

56.716 -5.10662 1.42579e-11
-5.10662 59.313 2.16257e-12
1.42579e-11 2.16257e-12 56.0809

56.8047 5.11579 2.75367e-11
5.11579 59.1456 -1.32396e-11
2.75367e-11 -1.32396e-11 55.948

91.6823 0.409938 -1.36715e-11
0.409938 72.845 -9.07359e-12
-1.36715e-11 -9.07359e-12 82.9607

91.8637 -0.388897 2.34948e-11
-0.388897 72.794 3.69655e-11
2.34948e-11 3.69655e-11 83.0458

74.4952 6.01013 4.23306e-12
6.01013 82.0271 -1.23243e-11
4.23306e-12 -1.23243e-11 78.5115

73.2655 -5.86067 1.92244e-12
-5.86067 85.858 2.59039e-11
1.92244e-12 2.59039e-11 84.0285

80.821 6.61008 -2.92722e-11
6.61008 76.7242 -1.14572e-11
-2.92722e-11 -1.14572e-11 79.8924

58.1644 3.0677 -2.31135e-11
3.0677 50.0204 -2.1949e-11
-2.31135e-11 -2.1949e-11 52.5362

62.8418 3.98768 -3.15762e-11
3.98768 72.3431 -1.33875e-11
-3.15762e-11 -1.33875e-11 66.4462

87.2899 0.39342 -3.96637e-11
0.39342 83.4184 -3.40333e-11
-3.96637e-11 -3.40333e-11 86.1421

87.2572 -0.351954 -4.42705e-12
-0.351954 83.4613 -4.0438e-12
-4.42705e-12 -4.0438e-12 86.1195

76.0773 3.85058 1.25211e-11
3.85058 73.5434 2.72994e-11
1.25211e-11 2.72994e-11 73.8542

83.0038 -2.38078 1.38658e-11
-2.38078 78.7937 -1.6078e-11
1.38658e-11 -1.6078e-11 80.4967

83.0313 2.42652 1.69439e-11
2.42652 78.8476 -1.46319e-11
1.69439e-11 -1.46319e-11 80.5424

38.8821 -2.41455 -8.09846e-12
-2.41455 33.4202 -3.8889e-11
-8.09846e-12 -3.8889e-11 39.9654

31.1917 3.04359 -1.50265e-11
3.04359 36.8232 2.25888e-11
-1.50265e-11 2.25888e-11 38.9465

62.7225 -3.91875 -1.16033e-12
-3.91875 72.4632 -1.81061e-11
-1.16033e-12 -1.81061e-11 66.5613

95.8834 -0.883715 5.06334e-11
-0.883715 93.0317 -9.25101e-11
5.06334e-11 -9.25101e-11 93.6173

95.9381 1.00709 1.84872e-11
1.00709 93.136 -5.40989e-11
1.84872e-11 -5.40989e-11 93.6563

58.5018 2.63691 1.50255e-11
2.63691 49.6642 -1.2642e-11
1.50255e-11 -1.2642e-11 52.5089

72.2263 -3.24828 -2.19469e-11
-3.24828 81.914 2.97518e-11
-2.19469e-11 2.97518e-11 78.8433

73.2641 -3.17035 2.3875e-11
-3.17035 82.6289 2.69488e-12
2.3875e-11 2.69488e-12 78.9168

65.5568 -6.38537 2.31134e-11
-6.38537 64.3292 7.80043e-12
2.31134e-11 7.80043e-12 63.7322

77.4952 -6.94355 2.50411e-12
-6.94355 86.3127 -9.14693e-12
2.50411e-12 -9.14693e-12 82.984

71.7411 8.28416 2.50355e-11
8.28416 80.9278 7.70221e-12
2.50355e-11 7.70221e-12 81.3475

87.0648 3.75263 3.84433e-13
3.75263 89.8239 -1.58851e-11
3.84433e-13 -1.58851e-11 88.4655

84.7447 5.17961 5.16002e-11
5.17961 89.6687 4.71408e-12
5.16002e-11 4.71408e-12 88.3339

74.5464 -6.06979 4.62112e-12
-6.06979 82.1956 -2.16661e-11
4.62112e-12 -2.16661e-11 78.6596

76.4116 6.37221 -1.80985e-11
6.37221 77.2229 2.11912e-12
-1.80985e-11 2.11912e-12 78.4926

76.0626 -3.9093 -2.29191e-11
-3.9093 73.631 2.11579e-12
-2.29191e-11 2.11579e-12 73.897

68.9779 4.66567 2.04228e-11
4.66567 59.6708 4.57197e-12
2.04228e-11 4.57197e-12 63.2893

78.0195 -0.143059 -2.02244e-11
-0.143059 65.0238 -7.10543e-13
-2.02244e-11 -7.10543e-13 70.1051

76.9632 7.23984 2.25266e-11
7.23984 85.5703 -1.68465e-11
2.25266e-11 -1.68465e-11 82.6135

69.3747 -4.36077 -3.35076e-11
-4.36077 75.8537 4.87302e-11
-3.35076e-11 4.87302e-11 73.8751

65.3709 1.59173 -2.81092e-11
1.59173 75.1281 2.84199e-11
-2.81092e-11 2.84199e-11 70.2485

76.2612 4.46434 -1.44429e-11
4.46434 76.1862 -3.32191e-11
-1.44429e-11 -3.32191e-11 76.9482

66.0416 1.97734 -4.6599e-11
1.97734 76.1357 2.88303e-12
-4.6599e-11 2.88303e-12 70.7089

80.1793 -5.59108 -2.23324e-11
-5.59108 87.626 -7.98828e-12
-2.23324e-11 -7.98828e-12 85.0562

46.051 -3.13684 -2.4643e-11
-3.13684 46.7262 -7.25754e-11
-2.4643e-11 -7.25754e-11 45.2145

48.5793 -3.15687 4.27702e-11
-3.15687 43.9353 -4.49722e-12
4.27702e-11 -4.49722e-12 45.1009

80.8337 -1.26148 7.22296e-12
-1.26148 67.4963 -2.24972e-11
7.22296e-12 -2.24972e-11 74.3362

76.2092 -4.47548 -1.30942e-11
-4.47548 76.1113 -1.73824e-12
-1.30942e-11 -1.73824e-12 76.9062

106.826 -5.98847 -1.36504e-10
-5.98847 96.2295 4.83344e-11
-1.36504e-10 4.83344e-11 97.7194

107.02 5.73592 6.98898e-11
5.73592 96.7185 6.47884e-11
6.98898e-11 6.47884e-11 97.8843

73.6343 -6.50206 7.69917e-12
-6.50206 81.4954 -1.83906e-11
7.69917e-12 -1.83906e-11 77.8657

95.7428 -5.5731 -2.88805e-11
-5.5731 95.7845 1.9162e-11
-2.88805e-11 1.9162e-11 93.1517

95.4387 5.66422 -2.65719e-11
5.66422 95.6156 -4.51497e-11
-2.65719e-11 -4.51497e-11 93.0428

81.0494 1.22543 7.31711e-12
1.22543 69.7003 -3.23827e-11
7.31711e-12 -3.23827e-11 76.9551

71.5575 -8.29469 9.24224e-12
-8.29469 80.69 4.71586e-12
9.24224e-12 4.71586e-12 81.2674

48.5053 -3.73495 -9.43719e-12
-3.73495 48.1614 -2.83438e-11
-9.43719e-12 -2.83438e-11 47.0825

50.2083 3.74902 -8.08775e-12
3.74902 47.5535 4.64081e-12
-8.08775e-12 4.64081e-12 47.6871

50.6391 -2.78412 -2.40754e-11
-2.78412 55.878 9.34379e-12
-2.40754e-11 9.34379e-12 51.2489

49.4787 2.58929 2.38859e-11
2.58929 55.5966 -3.95328e-12
2.38859e-11 -3.95328e-12 50.7366

56.0602 1.59555 -5.20113e-11
1.59555 48.0322 -2.20564e-14
-5.20113e-11 -2.20564e-14 50.2755

76.9432 -7.29584 -5.1991e-12
-7.29584 85.6267 9.53408e-12
-5.1991e-12 9.53408e-12 82.5701

44.8805 0.829402 6.16749e-12
0.829402 52.0335 -7.77763e-12
6.16749e-12 -7.77763e-12 47.5597

53.0738 -0.902716 3.42909e-11
-0.902716 44.0378 7.4384e-12
3.42909e-11 7.4384e-12 47.2797

87.6578 -2.3004 4.35077e-11
-2.3004 96.87 3.466e-11
4.35077e-11 3.466e-11 91.894

91.2511 -0.141519 6.16359e-12
-0.141519 93.8893 -5.02499e-11
6.16359e-12 -5.02499e-11 91.8209

85.9221 3.62402 -3.08235e-12
3.62402 77.298 -2.72925e-11
-3.08235e-12 -2.72925e-11 81.9941

85.4118 -0.256711 2.31093e-12
-0.256711 67.9009 1.75582e-12
2.31093e-12 1.75582e-12 81.2417

58.3041 3.68042 3.23533e-11
3.68042 65.0422 -3.27827e-12
3.23533e-11 -3.27827e-12 59.9115

58.3183 -3.85144 2.09949e-11
-3.85144 65.1232 3.9776e-11
2.09949e-11 3.9776e-11 60.0105

82.117 -0.690236 2.50355e-11
-0.690236 70.2974 -3.0188e-11
2.50355e-11 -3.0188e-11 77.5334

69.5819 -4.9327 -1.88762e-11
-4.9327 78.7362 1.04004e-11
-1.88762e-11 1.04004e-11 74.3015

93.825 0.51587 6.93268e-12
0.51587 89.4877 1.41006e-11
6.93268e-12 1.41006e-11 91.4059

93.7898 -0.445926 4.38996e-11
-0.445926 89.5084 -3.10936e-11
4.38996e-11 -3.10936e-11 91.4106

82.6274 5.50654 3.84418e-12
5.50654 78.7716 -2.85001e-11
3.84418e-12 -2.85001e-11 81.1104

76.2862 -6.21475 -2.54191e-11
-6.21475 77.2013 9.53245e-12
-2.54191e-11 9.53245e-12 78.487

84.2307 3.30461 8.47404e-12
3.30461 71.4384 2.69077e-11
8.47404e-12 2.69077e-11 79.5104

61.1896 4.86792 -1.27055e-11
4.86792 57.3983 -4.17007e-11
-1.27055e-11 -4.17007e-11 57.6251

72.495 -5.38724 5.77908e-13
-5.38724 77.8469 2.41685e-11
5.77908e-13 2.41685e-11 77.3436

38.77 8.37735 -3.85314e-11
8.37735 36.9352 2.4188e-11
-3.85314e-11 2.4188e-11 38.6598

65.7306 -1.18976 3.04243e-11
-1.18976 75.1505 -1.35813e-11
3.04243e-11 -1.35813e-11 70.388

66.119 -1.77128 -1.07836e-11
-1.77128 75.6957 3.9288e-11
-1.07836e-11 3.9288e-11 70.5204

88.751 2.45282 5.77862e-12
2.45282 97.4 -2.50585e-12
5.77862e-12 -2.50585e-12 92.4476

90.0277 -3.66796 2.31767e-12
-3.66796 96.2243 -4.71674e-11
2.31767e-12 -4.71674e-11 92.4289

92.6483 -0.194537 1.34744e-12
-0.194537 75.4378 5.24551e-12
1.34744e-12 5.24551e-12 85.3017

92.7207 0.181667 -3.46621e-11
0.181667 75.3983 -4.63536e-11
-3.46621e-11 -4.63536e-11 85.3513

87.0919 -7.19383 2.69584e-12
-7.19383 83.0766 -1.01096e-11
2.69584e-12 -1.01096e-11 85.7353

86.677 7.25602 -3.85025e-13
7.25602 81.69 -2.02283e-12
-3.85025e-13 -2.02283e-12 85.0298

96.8524 -2.62107 -4.19724e-11
-2.62107 92.9773 -2.0595e-11
-4.19724e-11 -2.0595e-11 92.3757

96.6096 2.61505 -3.1963e-11
2.61505 92.9378 2.20425e-11
-3.1963e-11 2.20425e-11 92.2947

99.5692 -2.28814 1.52125e-11
-2.28814 94.9038 -9.72178e-12
1.52125e-11 -9.72178e-12 95.6151

99.6877 2.46271 7.12563e-12
2.46271 95.3136 -2.7145e-11
7.12563e-12 -2.7145e-11 95.7577

80.2269 -6.88502 1.54136e-12
-6.88502 87.207 -4.81286e-13
1.54136e-12 -4.81286e-13 85.303

80.399 6.84959 -8.27834e-12
6.84959 87.2971 1.18423e-11
-8.27834e-12 1.18423e-11 85.4247

75.1432 -3.57073 -2.4077e-11
-3.57073 68.7794 1.98813e-11
-2.4077e-11 1.98813e-11 71.8868

70.8044 -3.01651 -3.73575e-11
-3.01651 78.0422 6.16303e-11
-3.73575e-11 6.16303e-11 74.8903

71.3288 5.80557 8.27679e-12
5.80557 71.2632 -4.90978e-12
8.27679e-12 -4.90978e-12 70.8158

71.5699 -4.22966 -1.9263e-12
-4.22966 79.7575 1.91632e-11
-1.9263e-12 1.91632e-11 75.216

61.5086 -4.49707 -1.91536e-12
-4.49707 58.0635 2.43172e-11
-1.91536e-12 2.43172e-11 57.4535

75.0345 3.52488 1.65639e-11
3.52488 68.6198 -7.60666e-12
1.65639e-11 -7.60666e-12 71.7337

70.9075 2.99917 -2.76743e-11
2.99917 77.7886 1.19461e-11
-2.76743e-11 1.19461e-11 74.6678

80.1463 -8.55993 -3.42733e-11
-8.55993 83.5562 1.35799e-11
-3.42733e-11 1.35799e-11 85.0451

80.166 8.5658 2.65737e-11
8.5658 83.4984 8.66807e-12
2.65737e-11 8.66807e-12 85.0331

87.0891 -3.4429 -1.03969e-11
-3.4429 78.5645 1.73756e-11
-1.03969e-11 1.73756e-11 83.1944

105.017 -6.40777 3.77523e-11
-6.40777 110.38 -1.32249e-10
3.77523e-11 -1.32249e-10 100.027

100.88 6.55721 -8.20124e-11
6.55721 96.8001 7.04425e-11
-8.20124e-11 7.04425e-11 96.5776

78.4799 -4.84979 -1.19372e-11
-4.84979 85.1166 8.85588e-12
-1.19372e-11 8.85588e-12 81.9773

81.3442 6.05792 -1.29034e-11
6.05792 74.0944 -2.07024e-11
-1.29034e-11 -2.07024e-11 78.7537

93.4351 0.390607 2.11779e-11
0.390607 86.6114 -1.88674e-11
2.11779e-11 -1.88674e-11 89.3272

71.3397 -5.67725 -2.54199e-11
-5.67725 71.5808 8.18782e-12
-2.54199e-11 8.18782e-12 70.9015

47.5509 3.63482 2.35137e-11
3.63482 48.865 2.09992e-11
2.35137e-11 2.09992e-11 46.3843

49.2256 3.59474 -1.42517e-11
3.59474 45.6345 2.37874e-11
-1.42517e-11 2.37874e-11 46.0891

93.6168 0.71576 -1.44434e-11
0.71576 78.7288 -2.91915e-13
-1.44434e-11 -2.91915e-13 87.012

93.4637 -0.722522 -6.12348e-11
-0.722522 78.6542 -1.8267e-11
-6.12348e-11 -1.8267e-11 86.9668

93.9624 -0.633961 1.54082e-11
-0.633961 87.2988 -5.02069e-11
1.54082e-11 -5.02069e-11 89.6825

71.6732 4.0283 -1.24682e-11
4.0283 79.5487 3.41811e-11
-1.24682e-11 3.41811e-11 75.1272

73.8593 -2.83603 -4.57027e-12
-2.83603 66.3244 -2.46474e-11
-4.57027e-12 -2.46474e-11 67.82

82.8516 -3.44421 2.94584e-11
-3.44421 84.8834 4.04388e-11
2.94584e-11 4.04388e-11 84.1215

82.9102 3.44915 4.81148e-12
3.44915 84.9302 -3.13842e-11
4.81148e-12 -3.13842e-11 84.1683

109.872 -0.473347 -3.388e-11
-0.473347 114.693 -5.37268e-11
-3.388e-11 -5.37268e-11 101.421

109.888 0.466735 -2.81071e-11
0.466735 114.556 4.36943e-11
-2.81071e-11 4.36943e-11 101.426

74.755 -5.87995 -1.75222e-11
-5.87995 83.5514 -2.98539e-12
-1.75222e-11 -2.98539e-12 80.3369

79.1745 4.65902 2.85039e-11
4.65902 70.5811 6.16233e-12
2.85039e-11 6.16233e-12 74.8313

90.6866 -0.569727 -2.40659e-11
-0.569727 82.9645 -3.19147e-11
-2.40659e-11 -3.19147e-11 86.9876

90.6827 0.621021 1.92439e-13
0.621021 82.934 -5.34062e-12
1.92439e-13 -5.34062e-12 86.9635

75.5015 -3.735 2.81105e-11
-3.735 82.6157 -5.97063e-12
2.81105e-11 -5.97063e-12 81.3829

74.6004 -5.96663 -2.58028e-11
-5.96663 80.3492 1.55982e-11
-2.58028e-11 1.55982e-11 81.654

39.1495 -8.68974 8.09012e-12
-8.68974 39.4117 -2.31274e-12
8.09012e-12 -2.31274e-12 39.4338

84.3108 -5.57307 -3.15749e-11
-5.57307 89.14 -1.28936e-11
-3.15749e-11 -1.28936e-11 87.7644

84.2762 5.62214 1.50167e-11
5.62214 88.9914 2.58986e-11
1.50167e-11 2.58986e-11 87.6883

73.4035 -5.73596 -3.31201e-11
-5.73596 80.5542 -1.79078e-11
-3.31201e-11 -1.79078e-11 80.1043

74.3588 3.00772 -2.29156e-11
3.00772 66.6087 -3.47121e-11
-2.29156e-11 -3.47121e-11 68.2155

83.7979 -5.28661 -5.97041e-12
-5.28661 79.4233 5.48983e-12
-5.97041e-12 5.48983e-12 81.9463

88.1215 -5.86934 -3.82435e-13
-5.86934 83.4467 -3.16734e-11
-3.82435e-13 -3.16734e-11 86.3186

88.2007 5.72726 7.70066e-12
5.72726 83.123 1.40544e-11
7.70066e-12 1.40544e-11 86.1858

85.2943 -3.28187 -1.34839e-11
-3.28187 72.2022 1.70888e-11
-1.34839e-11 1.70888e-11 80.5646

94.9672 1.43619 -2.21437e-11
1.43619 85.2478 2.78836e-12
-2.21437e-11 2.78836e-12 90.1487

94.8553 -1.40903 -6.6621e-11
-1.40903 85.3075 2.185e-11
-6.6621e-11 2.185e-11 90.1183

94.7421 -2.27664 -1.15754e-12
-2.27664 106.876 2.94662e-11
-1.15754e-12 2.94662e-11 96.8943

97.078 4.96909 6.54493e-11
4.96909 105.989 -3.25378e-11
6.54493e-11 -3.25378e-11 97.2328

39.6042 0.738381 -9.24253e-12
0.738381 31.0673 -5.6863e-11
-9.24253e-12 -5.6863e-11 39.4741

34.0477 1.3813 2.69672e-11
1.3813 38.2341 -3.11039e-11
2.69672e-11 -3.11039e-11 39.8473

79.4014 5.48965 -2.23339e-11
5.48965 86.0417 2.38787e-11
-2.23339e-11 2.38787e-11 83.2288

79.3465 -5.49301 1.27062e-11
-5.49301 85.9939 1.68492e-11
1.27062e-11 1.68492e-11 83.166

76.9532 -7.01352 -6.54776e-12
-7.01352 85.4942 1.02067e-11
-6.54776e-12 1.02067e-11 82.3804

37.6502 -3.66452 1.27199e-11
-3.66452 36.9137 -4.9011e-11
1.27199e-11 -4.9011e-11 39.7899

38.4779 -3.0253 -6.16528e-11
-3.0253 37.2967 -6.21603e-12
-6.16528e-11 -6.21603e-12 40.0918

96.976 4.83966 9.23873e-11
4.83966 106.631 -1.37079e-10
9.23873e-11 -1.37079e-10 97.9933

96.8473 -5.0871 -4.25996e-12
-5.0871 106.121 1.97441e-10
-4.25996e-12 1.97441e-10 97.8652

81.1398 -6.64759 -1.54049e-11
-6.64759 77.1416 -1.62696e-11
-1.54049e-11 -1.62696e-11 80.2947

71.8138 -5.37109 1.54017e-11
-5.37109 75.1311 3.85119e-11
1.54017e-11 3.85119e-11 72.8418

78.2486 5.29224 -6.12318e-11
5.29224 82.0964 -2.61878e-11
-6.12318e-11 -2.61878e-11 81.3576

78.2082 -5.29003 -1.4821e-11
-5.29003 82.0456 -2.78255e-11
-1.4821e-11 -2.78255e-11 81.3157

73.3898 -6.25013 1.94441e-11
-6.25013 78.6705 -1.30023e-11
1.94441e-11 -1.30023e-11 76.3837

71.8835 5.44596 8.08716e-12
5.44596 74.9991 -1.13542e-11
8.08716e-12 -1.13542e-11 72.7937

50.5102 -2.00274 -1.54352e-12
-2.00274 56.1747 4.79128e-11
-1.54352e-12 4.79128e-11 51.5816

50.4931 1.68441 -6.93833e-12
1.68441 56.4774 -2.21778e-12
-6.93833e-12 -2.21778e-12 51.4793

56.4726 1.44102 4.23631e-12
1.44102 49.2703 -3.4781e-11
4.23631e-12 -3.4781e-11 50.9412

73.3693 6.23466 4.04373e-12
6.23466 78.6065 1.63366e-12
4.04373e-12 1.63366e-12 76.32

45.4223 -0.946741 -5.7776e-12
-0.946741 51.584 -2.13872e-11
-5.7776e-12 -2.13872e-11 47.3281

52.5388 -0.569074 -1.61826e-11
-0.569074 43.6598 -8.09595e-12
-1.61826e-11 -8.09595e-12 47.2186

82.1391 -5.11485 -3.84937e-12
-5.11485 86.7552 5.00785e-12
-3.84937e-12 5.00785e-12 85.638

82.2731 5.08948 2.69532e-11
5.08948 86.8446 -1.28039e-11
2.69532e-11 -1.28039e-11 85.7264

83.2726 -3.8861 1.29022e-11
-3.8861 87.488 8.27716e-12
1.29022e-11 8.27716e-12 86.4109

83.3448 3.88519 2.69555e-11
3.88519 87.4242 -2.17563e-11
2.69555e-11 -2.17563e-11 86.4353

37.7459 3.36635 2.87143e-11
3.36635 35.7081 -5.85175e-11
2.87143e-11 -5.85175e-11 39.28

37.2734 3.21106 6.17092e-12
3.21106 35.7348 3.60256e-11
6.17092e-12 3.60256e-11 39.0539

77.4142 4.86022 -2.49941e-12
4.86022 80.7539 5.3928e-12
-2.49941e-12 5.3928e-12 78.9644

77.4012 -4.8925 -6.36062e-12
-4.8925 80.7784 6.06308e-12
-6.36062e-12 6.06308e-12 78.9532

91.6352 -4.7052 -6.16035e-11
-4.7052 98.3312 6.93216e-12
-6.16035e-11 6.93216e-12 93.6163

93.0501 2.11983 -2.00248e-11
2.11983 94.1719 -3.25386e-11
-2.00248e-11 -3.25386e-11 93.0482

82.3335 -5.27302 -1.79077e-11
-5.27302 90.3115 -2.88794e-12
-1.79077e-11 -2.88794e-12 87.3743

82.3576 5.27569 1.25135e-11
5.27569 90.192 -1.41503e-11
1.25135e-11 -1.41503e-11 87.3738

92.2658 0.338504 -1.02012e-11
0.338504 83.7548 5.37131e-11
-1.02012e-11 5.37131e-11 89.2542

92.2364 -0.289276 3.77423e-11
-0.289276 83.7825 -4.65901e-11
3.77423e-11 -4.65901e-11 89.254

80.7319 -5.97416 6.16499e-12
-5.97416 81.2718 -3.61039e-11
6.16499e-12 -3.61039e-11 82.8197

80.7686 6.05054 2.61884e-11
6.05054 80.9168 2.31389e-12
2.61884e-11 2.31389e-12 82.6497

98.4562 1.45552 -6.62336e-11
1.45552 90.7884 3.13737e-11
-6.62336e-11 3.13737e-11 93.457

99.0348 0.253288 7.48939e-11
0.253288 94.392 -9.90482e-11
7.48939e-11 -9.90482e-11 95.3469

98.5017 -1.47592 1.15548e-12
-1.47592 90.8575 -2.73398e-11
1.15548e-12 -2.73398e-11 93.5066

99.028 -0.40008 -3.89614e-13
-0.40008 94.1204 -6.29558e-11
-3.89614e-13 -6.29558e-11 95.2984

92.6423 0.245226 -2.69129e-12
0.245226 99.175 3.00344e-11
-2.69129e-12 3.00344e-11 94.2307

102.482 5.87054 1.96364e-11
5.87054 98.1581 6.38227e-11
1.96364e-11 6.38227e-11 95.6457

102.514 -5.84772 -1.92239e-12
-5.84772 98.2008 -3.20577e-11
-1.92239e-12 -3.20577e-11 95.6421

90.088 -3.14644 3.9669e-11
-3.14644 105.247 -5.69954e-11
3.9669e-11 -5.69954e-11 95.0364

94.1747 -2.77438 6.58555e-11
-2.77438 95.8038 -8.08643e-11
6.58555e-11 -8.08643e-11 94.2818

121.607 -4.02078 1.54975e-09
-4.02078 88.6793 8.05789e-10
1.54975e-09 8.05789e-10 99.4229

93.8977 2.92173 8.74042e-11
2.92173 96.3352 2.16513e-10
8.74042e-11 2.16513e-10 94.4157

121.663 3.71778 -3.71242e-10
3.71778 89.9012 6.29438e-11
-3.71242e-10 6.29438e-11 99.7757

96.1841 -3.80315 -6.83455e-11
-3.80315 94.5828 -8.66142e-12
-6.83455e-11 -8.66142e-12 93.9981

89.422 -2.65545 -5.17909e-11
-2.65545 93.4507 -2.13728e-11
-5.17909e-11 -2.13728e-11 91.1191

98.4032 -0.222458 -8.85677e-12
-0.222458 94.6712 6.57479e-11
-8.85677e-12 6.57479e-11 95.5803

96.0655 3.99214 2.4838e-11
3.99214 94.6652 3.12853e-11
2.4838e-11 3.12853e-11 94.0371

89.4918 2.74601 -7.39334e-11
2.74601 93.2969 -2.8979e-11
-7.39334e-11 -2.8979e-11 91.1086

98.5153 0.250675 4.23568e-11
0.250675 95.4168 1.17444e-11
4.23568e-11 1.17444e-11 95.8297

89.1589 -2.19284 -1.40572e-11
-2.19284 92.37 1.40531e-11
-1.40572e-11 1.40531e-11 91.2992

96.1694 -1.2314 4.92874e-11
-1.2314 94.4774 2.52167e-11
4.92874e-11 2.52167e-11 94.1782

89.2781 2.29607 -5.89158e-11
2.29607 92.3931 -1.81979e-11
-5.89158e-11 -1.81979e-11 91.3526

96.2351 1.28684 5.19917e-12
1.28684 94.5299 -1.25153e-11
5.19917e-12 -1.25153e-11 94.2256

67.7136 5.17536 2.00245e-11
5.17536 73.6933 -1.61788e-11
2.00245e-11 -1.61788e-11 69.1013

75.4327 1.04572 7.70925e-13
1.04572 86.4411 2.65742e-11
7.70925e-13 2.65742e-11 81.5289

79.9959 2.78573 1.81012e-11
2.78573 84.311 -3.46523e-12
1.81012e-11 -3.46523e-12 81.7724

78.2725 -3.3885 -2.81143e-11
-3.3885 67.0129 -1.9644e-11
-2.81143e-11 -1.9644e-11 73.567

74.6503 -2.0713 -2.17601e-11
-2.0713 64.3765 -3.46375e-12
-2.17601e-11 -3.46375e-12 69.2609

77.3336 1.58721 -1.28972e-11
1.58721 92.2652 8.85795e-12
-1.28972e-11 8.85795e-12 85.9582

81.0998 2.87675 1.65597e-11
2.87675 86.302 2.53218e-11
1.65597e-11 2.53218e-11 85.4462

74.8867 -0.0193334 -3.48632e-11
-0.0193334 65.0954 3.23507e-11
-3.48632e-11 3.23507e-11 69.6933

84.5796 1.31015 -8.47204e-12
1.31015 72.5888 2.38735e-11
-8.47204e-12 2.38735e-11 81.9424

54.5875 4.47708 1.40642e-11
4.47708 61.1553 -2.96059e-15
1.40642e-11 -2.96059e-15 55.9967

52.4703 3.5437 -8.47137e-12
3.5437 60.591 -1.57943e-11
-8.47137e-12 -1.57943e-11 55.2388

59.1762 3.55079 -3.46523e-12
3.55079 52.8398 8.08753e-12
-3.46523e-12 8.08753e-12 54.4897

86.9093 -5.40673 3.33069e-11
-5.40673 89.9339 2.63751e-11
3.33069e-11 2.63751e-11 88.2479

86.0923 -2.27255 1.61717e-11
-2.27255 92.0901 1.38663e-11
1.61717e-11 1.38663e-11 88.5324

75.0648 -6.24955 1.19339e-11
-6.24955 74.2629 4.35178e-11
1.19339e-11 4.35178e-11 74.8926

69.1659 5.02285 -4.04132e-12
5.02285 77.0457 -7.73825e-13
-4.04132e-12 -7.73825e-13 73.2289

75.5963 5.86544 1.00157e-11
5.86544 82.9251 3.87098e-11
1.00157e-11 3.87098e-11 80.2788

80.7728 -2.83468 3.08058e-11
-2.83468 86.1057 2.88803e-11
3.08058e-11 2.88803e-11 85.1847

77.0342 -1.87984 1.09709e-11
-1.87984 92.2966 2.42635e-11
1.09709e-11 2.42635e-11 85.6703

80.3185 1.57849 -3.72638e-11
1.57849 68.039 -1.15546e-12
-3.72638e-11 -1.15546e-12 74.4867

59.3089 1.47091 3.31259e-11
1.47091 67.7151 -8.09012e-12
3.31259e-11 -8.09012e-12 60.8153

57.3892 0.650711 3.17894e-12
0.650711 67.422 -4.31421e-11
3.17894e-12 -4.31421e-11 60.5632

66.6252 0.611833 -8.18619e-12
0.611833 57.604 -3.4693e-12
-8.18619e-12 -3.4693e-12 59.5713

65.6838 3.53885 -1.34966e-12
3.53885 74.2881 -4.96928e-11
-1.34966e-12 -4.96928e-11 69.3484

67.109 5.78237 -2.0028e-11
5.78237 72.0367 -1.02055e-11
-2.0028e-11 -1.02055e-11 68.4589

78.1314 0.984611 -3.27383e-12
0.984611 67.2854 4.08225e-11
-3.27383e-12 4.08225e-11 74.1224

51.1731 2.67538 -1.67525e-11
2.67538 56.2219 -3.4484e-11
-1.67525e-11 -3.4484e-11 50.7902

84.4699 -3.61972 1.84894e-11
-3.61972 72.1786 -3.58158e-11
1.84894e-11 -3.58158e-11 80.5121

86.7705 0.274604 1.84842e-11
0.274604 94.814 2.19505e-11
1.84842e-11 2.19505e-11 89.4057

89.1239 0.0767538 2.38736e-11
0.0767538 90.2526 3.35028e-11
2.38736e-11 3.35028e-11 89.0705

107.296 2.42838 3.58103e-11
2.42838 93.6154 -3.1963e-11
3.58103e-11 -3.1963e-11 96.6194

108.266 -5.8453 -4.65978e-11
-5.8453 98.4597 1.88675e-11
-4.65978e-11 1.88675e-11 97.2896

72.6031 -6.63157 1.21278e-11
-6.63157 74.3658 3.58205e-11
1.21278e-11 3.58205e-11 73.8803

65.5037 -5.36459 1.55938e-11
-5.36459 71.4618 2.15697e-11
1.55938e-11 2.15697e-11 68.3049

65.4786 -1.84663 7.22474e-12
-1.84663 55.5552 -2.08061e-11
7.22474e-12 -2.08061e-11 58.8964

92.9954 0.954183 2.1563e-11
0.954183 86.4094 -5.5815e-12
2.1563e-11 -5.5815e-12 89.3709

93.0764 -3.4639 -2.31147e-11
-3.4639 86.9266 -1.42437e-11
-2.31147e-11 -1.42437e-11 88.927

84.8236 -1.53859 3.85381e-12
-1.53859 72.7828 -1.84854e-11
3.85381e-12 -1.84854e-11 82.0793

83.4582 -0.456934 -1.4441e-12
-0.456934 69.799 2.88813e-11
-1.4441e-12 2.88813e-11 80.3112

70.6565 -5.46998 6.93608e-12
-5.46998 65.2953 1.2321e-11
6.93608e-12 1.2321e-11 66.4554

70.9036 2.52839 7.31578e-12
2.52839 61.7608 5.39117e-12
7.31578e-12 5.39117e-12 65.1634

69.7118 -4.46357 -1.67547e-11
-4.46357 60.8877 1.11748e-11
-1.67547e-11 1.11748e-11 64.3849

72.1086 3.67624 2.86915e-11
3.67624 83.8923 2.31143e-11
2.86915e-11 2.31143e-11 80.2636

66.332 -4.44409 -1.88731e-11
-4.44409 74 -1.27104e-11
-1.88731e-11 -1.27104e-11 69.4712

65.191 4.27366 6.26351e-12
4.27366 71.5703 -1.96413e-11
6.26351e-12 -1.96413e-11 68.3496

40.5558 -6.78823 -4.85494e-11
-6.78823 40.8548 4.05076e-12
-4.85494e-11 4.05076e-12 40.4439

38.2193 4.17566 1.65672e-11
4.17566 40.3914 -1.3099e-11
1.65672e-11 -1.3099e-11 39.6415

76.529 -5.08405 4.23513e-12
-5.08405 88.0019 -1.03977e-11
4.23513e-12 -1.03977e-11 84.6707

67.2043 3.37551 1.6274e-11
3.37551 77.8026 -4.93023e-11
1.6274e-11 -4.93023e-11 73.5516

38.4679 0.706169 9.43889e-12
0.706169 39.088 -1.53958e-12
9.43889e-12 -1.53958e-12 40.8447

39.397 -1.37455 7.70739e-12
-1.37455 41.4954 -1.11774e-11
7.70739e-12 -1.11774e-11 41.655

88.1903 -2.02354 -1.11161e-11
-2.02354 91.2269 5.12141e-11
-1.11161e-11 5.12141e-11 89.5915

87.5054 4.27434 4.56188e-11
4.27434 89.2537 4.27531e-11
4.56188e-11 4.27531e-11 89.2489

85.3343 0.0452794 3.37064e-12
0.0452794 70.6226 -9.24449e-12
3.37064e-12 -9.24449e-12 78.1761

87.7636 -1.35745 -2.52965e-11
-1.35745 88.3518 8.27549e-12
-2.52965e-11 8.27549e-12 88.9213

87.636 3.9888 2.38716e-11
3.9888 89.4381 5.50739e-11
2.38716e-11 5.50739e-11 89.2476

102.006 4.3768 -3.07654e-12
4.3768 90.6398 3.11851e-11
-3.07654e-12 3.11851e-11 94.3007

101.385 -5.35488 -3.46425e-12
-5.35488 95.4344 8.4693e-12
-3.46425e-12 8.4693e-12 94.7116

82.2335 -3.2383 1.7476e-11
-3.2383 82.6961 -5.43817e-12
1.7476e-11 -5.43817e-12 83.3354

81.9765 4.27537 -4.67892e-11
4.27537 81.6786 -1.6281e-11
-4.67892e-11 -1.6281e-11 83.3226

91.9632 -0.338507 -2.50389e-12
-0.338507 103.667 -1.50202e-11
-2.50389e-12 -1.50202e-11 94.3185

91.3938 1.53452 -1.77095e-11
1.53452 96.7397 -6.28647e-11
-1.77095e-11 -6.28647e-11 93.0546

66.8906 -6.10994 -2.33977e-11
-6.10994 73.8583 7.71087e-13
-2.33977e-11 7.71087e-13 69.0716

47.3031 0.643799 2.81202e-11
0.643799 53.7359 2.54348e-11
2.81202e-11 2.54348e-11 49.1278

53.2779 0.829482 3.47145e-12
0.829482 48.0044 -8.85862e-12
3.47145e-12 -8.85862e-12 49.1124

70.4574 3.21062 1.25201e-11
3.21062 83.0425 -3.46597e-12
1.25201e-11 -3.46597e-12 78.5788

73.9616 4.71123 -4.23341e-12
4.71123 81.6859 2.69598e-11
-4.23341e-12 2.69598e-11 78.6598

104.658 -4.46208 -3.41267e-11
-4.46208 96.6927 -7.25758e-11
-3.41267e-11 -7.25758e-11 97.6501

104.083 6.9321 -2.03926e-10
6.9321 112.04 -7.77906e-11
-2.03926e-10 -7.77906e-11 100.566

70.3581 4.31962 1.77636e-15
4.31962 68.0581 -1.50238e-11
1.77636e-15 -1.50238e-11 67.6592

77.9643 7.28723 -1.42474e-11
7.28723 85.2758 1.09748e-11
-1.42474e-11 1.09748e-11 82.6654

81.2526 2.77164 2.38321e-11
2.77164 74.0478 2.61941e-11
2.38321e-11 2.61941e-11 78.9894

81.451 -2.20874 -3.39869e-11
-2.20874 74.101 -1.63621e-11
-3.39869e-11 -1.63621e-11 78.8145

78.1621 6.92279 1.23208e-11
6.92279 82.8055 -8.85469e-12
1.23208e-11 -8.85469e-12 81.8712

79.9739 -6.82903 -1.11698e-11
-6.82903 87.4393 1.07821e-11
-1.11698e-11 1.07821e-11 84.9398

90.2641 -5.8449 -9.24261e-12
-5.8449 80.6102 1.4248e-11
-9.24261e-12 1.4248e-11 86.2879

65.3961 -0.522413 -1.01984e-11
-0.522413 56.0003 1.55943e-11
-1.01984e-11 1.55943e-11 59.0931

111.111 0.813687 1.19737e-10
0.813687 106.825 2.7735e-11
1.19737e-10 2.7735e-11 99.9328

111.483 -0.504225 1.3094e-11
-0.504225 97.6361 -4.04143e-12
1.3094e-11 -4.04143e-12 98.6921

72.9879 5.31668 -1.65625e-11
5.31668 70.6335 -3.27378e-11
-1.65625e-11 -3.27378e-11 72.1009

81.1029 2.02254 -4.25606e-11
2.02254 71.0615 -3.85184e-11
-4.25606e-11 -3.85184e-11 75.7571

60.9975 4.53667 -3.23534e-11
4.53667 63.0779 2.52331e-11
-3.23534e-11 2.52331e-11 59.395

93.7444 1.0769 7.00811e-11
1.0769 97.0911 -1.54952e-11
7.00811e-11 -1.54952e-11 94.4021

97.0563 3.13585 1.01257e-10
3.13585 106.937 -5.77146e-12
1.01257e-10 -5.77146e-12 96.6388

90.3664 2.90165 8.85462e-12
2.90165 79.5853 -8.27701e-12
8.85462e-12 -8.27701e-12 86.7947

75.1462 -1.22846 -3.66078e-12
-1.22846 86.6352 8.85677e-12
-3.66078e-12 8.85677e-12 81.3297

79.8107 -2.62659 2.93656e-11
-2.62659 84.5552 -3.85366e-12
2.93656e-11 -3.85366e-12 81.7038

86.7168 0.843581 3.14627e-11
0.843581 72.578 -1.50189e-11
3.14627e-11 -1.50189e-11 81.0611

87.1558 -0.661248 3.01136e-11
-0.661248 72.4565 -5.58747e-12
3.01136e-11 -5.58747e-12 81.0039

62.9893 -4.55218 -2.96693e-11
-4.55218 60.8724 -1.23288e-11
-2.96693e-11 -1.23288e-11 58.8827

77.2789 0.012465 -2.27745e-11
0.012465 65.0409 8.86117e-12
-2.27745e-11 8.86117e-12 70.0033

88.689 -0.742807 -1.17248e-11
-0.742807 78.4463 6.35122e-12
-1.17248e-11 6.35122e-12 84.8843

87.5099 1.49939 2.06835e-12
1.49939 79.4442 1.38627e-11
2.06835e-12 1.38627e-11 84.9473

81.4522 -1.89725 -5.05522e-11
-1.89725 72.2807 1.04002e-11
-5.05522e-11 1.04002e-11 75.8858

68.4091 -5.39293 -1.41532e-11
-5.39293 74.6364 -1.67579e-11
-1.41532e-11 -1.67579e-11 70.0529

88.2479 -0.436927 2.32533e-11
-0.436927 76.6551 -1.05932e-11
2.32533e-11 -1.05932e-11 82.4388

87.5296 0.966681 1.88971e-11
0.966681 76.3103 2.61837e-11
1.88971e-11 2.61837e-11 82.4015

80.0661 2.19863 -2.05997e-11
2.19863 71.325 3.6004e-11
-2.05997e-11 3.6004e-11 76.5275

63.5811 -6.86552 5.23817e-11
-6.86552 62.6718 7.32236e-12
5.23817e-11 7.32236e-12 62.3095

75.016 6.61713 1.14559e-11
6.61713 81.0966 7.70391e-12
1.14559e-11 7.70391e-12 81.2432

78.5834 6.50008 1.92542e-11
6.50008 86.2947 5.77999e-12
1.92542e-11 5.77999e-12 83.3823

74.387 4.90546 -1.54089e-12
4.90546 81.7723 -2.31108e-12
-1.54089e-12 -2.31108e-12 81.8516

71.5686 2.3949 1.0882e-11
2.3949 61.0189 4.62652e-12
1.0882e-11 4.62652e-12 65.172

56.0678 -4.7349 9.57456e-13
-4.7349 51.9127 -3.92893e-11
9.57456e-13 -3.92893e-11 52.0173

80.8187 3.99876 2.69514e-11
3.99876 75.2682 -3.83278e-11
2.69514e-11 -3.83278e-11 79.6775

79.7921 -4.25922 -3.13962e-11
-4.25922 71.0625 3.73576e-11
-3.13962e-11 3.73576e-11 75.5057

56.9252 -4.10382 1.40643e-11
-4.10382 51.6519 -1.11685e-11
1.40643e-11 -1.11685e-11 52.3694

73.3786 -6.8395 1.63674e-11
-6.8395 68.7935 -2.27284e-11
1.63674e-11 -2.27284e-11 71.4543

72.4956 0.173677 8.27882e-12
0.173677 80.3489 6.54736e-12
8.27882e-12 6.54736e-12 77.7409

69.2959 0.000538365 -5.74559e-13
0.000538365 84.6027 1.57951e-11
-5.74559e-13 1.57951e-11 78.1589

64.9975 5.83029 3.28685e-12
5.83029 65.5102 2.67724e-11
3.28685e-12 2.67724e-11 64.1217

61.1189 -4.85813 -7.51828e-12
-4.85813 54.3175 2.96645e-11
-7.51828e-12 2.96645e-11 55.8872

77.9137 -7.09363 -3.04269e-11
-7.09363 80.3529 3.46915e-12
-3.04269e-11 3.46915e-12 81.3544

65.1289 -6.3465 -1.72274e-11
-6.3465 68.3997 -1.90668e-11
-1.72274e-11 -1.90668e-11 64.7154

64.2641 -6.41585 2.4851e-11
-6.41585 67.1482 2.54243e-11
2.4851e-11 2.54243e-11 64.2025

79.2164 3.28293 2.98471e-11
3.28293 73.0339 -4.19772e-11
2.98471e-11 -4.19772e-11 76.1427

89.7882 2.07176 -2.11854e-11
2.07176 71.2305 -1.46299e-11
-2.11854e-11 -1.46299e-11 84.746

89.155 -3.26313 -4.62165e-11
-3.26313 73.7197 -1.54302e-12
-4.62165e-11 -1.54302e-12 84.6702

62.8432 3.6435 2.56084e-11
3.6435 71.1495 -7.68422e-13
2.56084e-11 -7.68422e-13 65.7343

60.6963 2.48952 2.13711e-11
2.48952 72.256 1.4803e-16
2.13711e-11 1.4803e-16 65.9275

53.9108 -0.530097 -3.17756e-11
-0.530097 64.897 5.97019e-12
-3.17756e-11 5.97019e-12 57.6969

52.5787 -0.704751 -1.27115e-11
-0.704751 65.2763 -1.38702e-11
-1.27115e-11 -1.38702e-11 57.6619

64.692 -0.467223 -4.53075e-12
-0.467223 52.7146 -1.46424e-11
-4.53075e-12 -1.46424e-11 56.8854

66.7654 -5.78616 4.91163e-12
-5.78616 63.4021 6.93727e-12
4.91163e-12 6.93727e-12 63.901

95.4333 -4.25821 3.19587e-11
-4.25821 101.879 -1.55973e-11
3.19587e-11 -1.55973e-11 96.5254

113.478 -1.69281 -1.96365e-11
-1.69281 113.528 3.00309e-11
-1.96365e-11 3.00309e-11 101.94

68.3788 4.07664 1.93919e-13
4.07664 61.5358 -9.62682e-12
1.93919e-13 -9.62682e-12 63.9996

72.4307 -2.78221 2.63913e-11
-2.78221 61.6291 -1.15452e-11
2.63913e-11 -1.15452e-11 65.7961

57.4126 2.54757 -9.59085e-13
2.54757 51.5291 2.11889e-11
-9.59085e-13 2.11889e-11 52.773

70.478 4.18081 1.82916e-11
4.18081 79.1415 -1.92554e-11
1.82916e-11 -1.92554e-11 76.9346

85.3342 0.0662656 1.2566e-11
0.0662656 70.7088 2.69555e-11
1.2566e-11 2.69555e-11 78.0988

79.5946 6.36622 -2.42613e-11
6.36622 87.0687 -6.54913e-12
-2.42613e-11 -6.54913e-12 85.0043

74.8216 5.06022 -1.99239e-11
5.06022 87.9904 3.35059e-11
-1.99239e-11 3.35059e-11 84.6154

59.0312 3.28152 -2.2147e-11
3.28152 62.5683 -1.44532e-11
-2.2147e-11 -1.44532e-11 58.7114

61.2123 3.65235 1.04956e-11
3.65235 60.2266 5.77841e-12
1.04956e-11 5.77841e-12 58.2092

77.0361 -7.69636 -1.82558e-12
-7.69636 84.5624 -3.87053e-11
-1.82558e-12 -3.87053e-11 81.7664

57.9307 2.05866 -2.31356e-12
2.05866 51.6939 6.16472e-12
-2.31356e-12 6.16472e-12 53.1182

74.381 5.68558 1.69916e-11
5.68558 80.1094 -1.15523e-11
1.69916e-11 -1.15523e-11 81.7848

73.8898 6.92822 2.31443e-12
6.92822 80.3786 1.48294e-11
2.31443e-12 1.48294e-11 77.2598

90.1664 -0.0994349 2.61912e-11
-0.0994349 72.8332 -3.06134e-11
2.61912e-11 -3.06134e-11 82.8476

76.3952 -5.25222 -2.11809e-11
-5.25222 80.5583 1.54396e-12
-2.11809e-11 1.54396e-12 82.1501

73.6082 5.6703 -1.4831e-11
5.6703 73.9763 -2.34965e-11
-1.4831e-11 -2.34965e-11 73.3151

60.7371 -2.78089 -8.08975e-12
-2.78089 68.4781 -2.69991e-12
-8.08975e-12 -2.69991e-12 61.9526

58.4611 -2.64707 -1.86763e-11
-2.64707 68.4417 -4.23729e-11
-1.86763e-11 -4.23729e-11 61.5955

67.3042 -1.97416 -3.52482e-11
-1.97416 59.3736 -2.11949e-11
-3.52482e-11 -2.11949e-11 60.7637

68.4218 -5.19594 1.47378e-11
-5.19594 69.1839 4.42978e-11
1.47378e-11 4.42978e-11 66.7037

67.1382 -0.341816 -1.44395e-11
-0.341816 79.0628 -7.69014e-13
-1.44395e-11 -7.69014e-13 72.6354

71.1429 -0.0507957 1.71406e-11
-0.0507957 78.186 1.61736e-11
1.71406e-11 1.61736e-11 72.9809

56.892 -5.56434 -3.22688e-11
-5.56434 59.4478 1.00173e-11
-3.22688e-11 1.00173e-11 55.9252

55.3248 -5.40578 2.11335e-12
-5.40578 60.3273 4.35323e-11
2.11335e-12 4.35323e-11 56.0194

90.2618 -0.275201 1.05677e-11
-0.275201 74.0956 -2.7341e-11
1.05677e-11 -2.7341e-11 83.2191

90.6794 0.284759 2.69603e-11
0.284759 73.886 5.77671e-12
2.69603e-11 5.77671e-12 83.1903

73.1207 5.29931 1.58823e-11
5.29931 78.2501 -1.03949e-11
1.58823e-11 -1.03949e-11 77.9664

74.7329 -4.46386 -1.03978e-11
-4.46386 87.2353 2.3489e-11
-1.03978e-11 2.3489e-11 84.2709

80.1282 -6.8642 -4.1791e-11
-6.8642 76.3144 2.38783e-11
-4.1791e-11 2.38783e-11 79.4209

85.8954 2.61672 1.98822e-11
2.61672 83.0874 -2.696e-11
1.98822e-11 -2.696e-11 85.9805

87.0161 -0.801664 9.53208e-12
-0.801664 84.4118 -8.18412e-12
9.53208e-12 -8.18412e-12 86.3046

82.726 -2.86739 -2.54706e-11
-2.86739 79.5652 3.92825e-11
-2.54706e-11 3.92825e-11 80.6201

82.0245 3.44749 3.67282e-11
3.44749 77.4119 3.46671e-11
3.67282e-11 3.46671e-11 80.2937

37.6849 -2.88034 -4.8161e-12
-2.88034 31.3899 -8.26478e-11
-4.8161e-12 -8.26478e-11 39.2088

63.7562 5.46317 -1.91943e-12
5.46317 67.1911 5.3985e-12
-1.91943e-12 5.3985e-12 64.364

33.8095 1.98699 -3.40987e-11
1.98699 37.9425 3.85215e-12
-3.40987e-11 3.85215e-12 39.713

74.6682 6.14234 8.0933e-12
6.14234 78.1077 3.90909e-11
8.0933e-12 3.90909e-11 76.8706

63.4309 -4.30547 -1.47319e-11
-4.30547 72.6654 8.86076e-12
-1.47319e-11 8.86076e-12 66.6216

60.8563 -3.83827 -2.11838e-11
-3.83827 72.1175 -2.04157e-11
-2.11838e-11 -2.04157e-11 66.0946

95.6633 -1.32076 9.93576e-12
-1.32076 94.1222 3.7544e-11
9.93576e-12 3.7544e-11 93.8666

93.5605 3.61458 -1.73509e-11
3.61458 97.5698 6.16016e-11
-1.73509e-11 6.16016e-11 94.1689

75.3924 4.07795 -2.34892e-11
4.07795 72.2394 -2.15713e-11
-2.34892e-11 -2.15713e-11 73.6901

77.4379 -0.417991 -1.19429e-11
-0.417991 65.6725 -5.96371e-12
-1.19429e-11 -5.96371e-12 70.1477

66.4331 4.5691 1.99332e-11
4.5691 62.209 1.00164e-11
1.99332e-11 1.00164e-11 63.4605

71.0063 -2.63592 1.44381e-11
-2.63592 84.4424 -2.81156e-11
1.44381e-11 -2.81156e-11 78.9079

74.1571 -4.34476 -4.89051e-11
-4.34476 81.9247 -3.13878e-11
-4.89051e-11 -3.13878e-11 78.8216

77.801 -7.89517 2.0746e-11
-7.89517 87.625 1.15424e-12
2.0746e-11 1.15424e-12 83.243

75.8616 -4.39378 -8.08361e-12
-4.39378 74.1627 -2.31074e-11
-8.08361e-12 -2.31074e-11 73.9296

77.1706 7.34897 1.67517e-11
7.34897 85.1215 9.63144e-12
1.67517e-11 9.63144e-12 82.5472

86.5005 3.39488 -2.31014e-11
3.39488 91.349 1.26085e-11
-2.31014e-11 1.26085e-11 88.6819

86.6354 5.13946 -3.44635e-11
5.13946 89.2844 -3.56552e-12
-3.44635e-11 -3.56552e-12 88.2339

74.8019 -6.91422 -1.0395e-11
-6.91422 82.8692 -2.23387e-11
-1.0395e-11 -2.23387e-11 78.7949

75.3507 6.27762 -2.50377e-12
6.27762 81.363 -2.56154e-11
-2.50377e-12 -2.56154e-11 78.4708

70.5275 7.90671 2.11503e-12
7.90671 81.5593 3.46564e-12
2.11503e-12 3.46564e-12 81.2201

63.6604 0.743332 -4.23635e-12
0.743332 77.3159 -7.70125e-12
-4.23635e-12 -7.70125e-12 70.4622

65.8642 1.72076 2.71566e-11
1.72076 75.4893 1.15759e-12
2.71566e-11 1.15759e-12 70.1443

75.9842 4.87907 3.7742e-11
4.87907 75.1501 4.15925e-11
3.7742e-11 4.15925e-11 76.9755

68.0264 4.10289 -5.11028e-12
4.10289 67.5247 6.51331e-15
-5.11028e-12 6.51331e-15 66.6084

67.9393 -4.24913 -1.50164e-11
-4.24913 77.8312 1.77166e-11
-1.50164e-11 1.77166e-11 73.8321

79.8293 -7.41947 1.47279e-11
-7.41947 87.9352 1.96411e-11
1.47279e-11 1.96411e-11 84.9324

45.1359 2.46038 3.52525e-11
2.46038 48.6342 -3.23577e-11
3.52525e-11 -3.23577e-11 45.5168

47.848 2.56508 -3.94381e-12
2.56508 45.8473 7.31141e-12
-3.94381e-12 7.31141e-12 45.508

58.6582 -5.49646 -5.79862e-12
-5.49646 60.0191 4.23859e-11
-5.79862e-12 4.23859e-11 57.3169

76.266 -5.10891 -5.6619e-11
-5.10891 76.9005 3.85153e-11
-5.6619e-11 3.85153e-11 77.0733

80.3566 -1.52857 -2.72968e-11
-1.52857 68.0817 -1.15204e-12
-2.72968e-11 -1.15204e-12 74.3949

101.954 5.52726 -2.10932e-11
5.52726 105.038 -3.85207e-12
-2.10932e-11 -3.85207e-12 98.567

106.369 -6.012 -4.83548e-11
-6.012 97.6887 6.33378e-11
-4.83548e-11 6.33378e-11 97.9963

74.1125 -7.54925 2.18545e-11
-7.54925 81.9028 1.059e-11
2.18545e-11 1.059e-11 77.9719

93.1325 1.40114 2.30993e-12
1.40114 89.869 -3.79289e-11
2.30993e-12 -3.79289e-11 91.8465

95.3678 -5.73139 -5.00792e-12
-5.73139 95.5601 -4.6971e-11
-5.00792e-12 -4.6971e-11 93.0256

80.7199 -1.99348 -3.85262e-12
-1.99348 69.6364 -2.4266e-11
-3.85262e-12 -2.4266e-11 76.9897

72.0522 -7.83485 -3.87634e-13
-7.83485 81.1928 3.62049e-11
-3.87634e-13 3.62049e-11 81.2634

47.3677 -4.80097 2.56188e-11
-4.80097 49.4268 -4.3929e-11
2.56188e-11 -4.3929e-11 47.2746

49.1466 3.49832 -2.21549e-11
3.49832 48.9587 -9.63296e-12
-2.21549e-11 -9.63296e-12 47.6588

48.9278 -2.86218 9.04839e-12
-2.86218 55.8324 8.47426e-12
9.04839e-12 8.47426e-12 50.5815

49.9539 -3.13913 3.2356e-11
-3.13913 56.6817 2.4656e-11
3.2356e-11 2.4656e-11 51.4886

56.4654 -2.38434 2.07005e-11
-2.38434 48.9775 1.95467e-11
2.07005e-11 1.95467e-11 50.6046

60.3896 4.2456 -4.04935e-12
4.2456 59.5361 5.84273e-13
-4.04935e-12 5.84273e-13 57.9757

77.0546 -8.39165 2.43566e-11
-8.39165 86.5123 1.92435e-12
2.43566e-11 1.92435e-12 82.6724

44.3904 0.425783 4.42997e-12
0.425783 53.0773 -1.1946e-11
4.42997e-12 -1.1946e-11 47.4703

52.4028 -1.27285 1.15907e-12
-1.27285 44.1193 1.93633e-12
1.15907e-12 1.93633e-12 47.4353

90.4238 0.653514 2.54187e-11
0.653514 99.1633 -7.70051e-13
2.54187e-11 -7.70051e-13 92.4717

90.0335 -3.41344 -5.20062e-12
-3.41344 93.2828 -5.48931e-12
-5.20062e-12 -5.48931e-12 91.3671

85.4808 -3.91986 2.33077e-11
-3.91986 77.3269 -7.31711e-12
2.33077e-11 -7.31711e-12 81.8882

85.1475 -0.244527 2.00285e-11
-0.244527 66.4483 1.46321e-11
2.00285e-11 1.46321e-11 81.0683

56.3522 -4.21387 2.21626e-11
-4.21387 64.152 -3.77511e-11
2.21626e-11 -3.77511e-11 59.2312

58.3874 -4.20403 4.23972e-12
-4.20403 65.496 -1.61804e-11
4.23972e-12 -1.61804e-11 60.0167

81.6276 -0.23304 2.099e-11
-0.23304 69.4428 1.38612e-11
2.099e-11 1.38612e-11 77.4197

70.1058 -5.77187 1.5021e-11
-5.77187 78.6403 2.42666e-11
1.5021e-11 2.42666e-11 74.3025

93.5369 0.082603 1.06318e-11
0.082603 90.6735 2.75343e-11
1.06318e-11 2.75343e-11 91.6525

91.242 1.72597 -2.78473e-11
1.72597 92.2963 1.03202e-10
-2.78473e-11 1.03202e-10 91.5871

82.3929 -5.43892 -2.46556e-11
-5.43892 78.7291 5.73794e-11
-2.46556e-11 5.73794e-11 81.0371

73.9324 -5.55578 2.07977e-11
-5.55578 77.6785 -2.65739e-11
2.07977e-11 -2.65739e-11 77.6351

83.8157 -3.90578 6.55083e-12
-3.90578 71.4068 -2.54209e-11
6.55083e-12 -2.54209e-11 79.4059

71.82 -4.89297 3.90921e-11
-4.89297 79.2355 -2.58071e-11
3.90921e-11 -2.58071e-11 77.2211

37.9453 -9.32314 1.30945e-11
-9.32314 38.8502 5.2402e-11
1.30945e-11 5.2402e-11 38.8201

66.8085 -2.14608 -1.88718e-11
-2.14608 75.4521 9.63007e-12
-1.88718e-11 9.63007e-12 70.4476

64.492 -1.61673 2.11914e-12
-1.61673 77.2837 3.40468e-15
2.11914e-12 3.40468e-15 70.5943

89.401 -0.788004 2.25294e-11
-0.788004 102.941 -1.25923e-10
2.25294e-11 -1.25923e-10 93.2811

90.5177 -0.932009 -1.17435e-11
-0.932009 92.7432 -4.43801e-11
-1.17435e-11 -4.43801e-11 91.7424

92.0468 -0.524582 6.30433e-12
-0.524582 76.6119 4.23567e-11
6.30433e-12 4.23567e-11 85.6394

90.8622 0.258328 1.49721e-11
0.258328 77.1837 -1.65595e-11
1.49721e-11 -1.65595e-11 85.5839

84.7616 4.0769 -2.52236e-11
4.0769 82.3398 1.38625e-11
-2.52236e-11 1.38625e-11 85.227

86.3245 -7.31739 4.37064e-11
-7.31739 81.8419 1.73279e-11
4.37064e-11 1.73279e-11 84.963

93.5354 1.45811 -1.77084e-11
1.45811 92.7632 4.48558e-11
-1.77084e-11 4.48558e-11 91.9098

96.5796 -2.61059 3.46589e-11
-2.61059 92.8941 1.98341e-11
3.46589e-11 1.98341e-11 92.2725

99.5706 -2.8508 7.93633e-11
-2.8508 96.3925 8.27209e-12
7.93633e-11 8.27209e-12 95.9666

100.411 8.5579 1.77264e-10
8.5579 104.135 3.96826e-11
1.77264e-10 3.96826e-11 97.6865

80.4215 -7.55745 -3.60543e-11
-7.55745 88.3561 1.96445e-11
-3.60543e-11 1.96445e-11 85.5183

76.6961 9.35596 -3.56352e-12
9.35596 82.9431 -2.77283e-11
-3.56352e-12 -2.77283e-11 84.34

74.5733 3.78357 -1.52146e-11
3.78357 68.4489 -1.19489e-11
-1.52146e-11 -1.19489e-11 71.825

69.0902 -3.22753 -1.02077e-11
-3.22753 79.6023 2.5036e-11
-1.02077e-11 2.5036e-11 74.8044

72.8615 -4.89496 -1.77187e-11
-4.89496 79.8582 2.23404e-11
-1.77187e-11 2.23404e-11 75.3644

74.9326 -3.98363 -1.23193e-11
-3.98363 69.542 -2.50284e-11
-1.23193e-11 -2.50284e-11 71.9821

72.5845 3.68249 -6.8329e-12
3.68249 78.8472 -3.44773e-11
-6.8329e-12 -3.44773e-11 74.8299

69.0183 2.17493 7.07408e-12
2.17493 79.8663 4.23868e-12
7.07408e-12 4.23868e-12 74.7494

70.5442 5.22809 -1.60797e-11
5.22809 70.2923 -1.58011e-11
-1.60797e-11 -1.58011e-11 70.7032

81.5202 6.26896 -3.46591e-11
6.26896 86.8147 1.52099e-11
-3.46591e-11 1.52099e-11 85.7276

80.2642 -8.37881 8.08894e-12
-8.37881 83.6546 -2.54171e-11
8.08894e-12 -2.54171e-11 84.9594

71.4104 -6.40316 5.74899e-11
-6.40316 71.939 -2.2922e-11
5.74899e-11 -2.2922e-11 70.9359

86.3712 1.85616 2.27219e-11
1.85616 78.3919 -2.73449e-11
2.27219e-11 -2.73449e-11 83.2151

113.173 -2.82609 -1.08386e-10
-2.82609 111.563 3.38733e-11
-1.08386e-10 3.38733e-11 101.386

96.4464 1.71944 -1.42465e-10
1.71944 98.0877 5.51515e-11
-1.42465e-10 5.51515e-11 95.8991

78.8949 -6.34034 2.65752e-11
-6.34034 85.1497 -5.85425e-11
2.65752e-11 -5.85425e-11 81.9634

80.8797 -6.28339 -6.93475e-12
-6.28339 74.1749 -2.54111e-11
-6.93475e-12 -2.54111e-11 78.6383

93.4379 -0.543568 -2.69601e-11
-0.543568 86.6061 1.84816e-11
-2.69601e-11 1.84816e-11 89.3755

47.1177 -4.4143 1.92764e-12
-4.4143 48.8188 7.12423e-12
1.92764e-12 7.12423e-12 46.2449

49.2404 -3.94034 -1.73393e-11
-3.94034 46.5439 3.36075e-11
-1.73393e-11 3.36075e-11 46.3129

93.1625 0.431717 -2.77529e-11
0.431717 79.775 -6.35477e-12
-2.77529e-11 -6.35477e-12 87.2948

90.9254 -0.339057 -1.94252e-11
-0.339057 80.3396 -1.77118e-11
-1.94252e-11 -1.77118e-11 87.0024

93.6715 -0.0813868 -3.27371e-11
-0.0813868 83.0403 7.31637e-12
-3.27371e-11 7.31637e-12 89.1791

72.8889 2.67901 1.6612e-11
2.67901 65.2666 -1.54154e-11
1.6612e-11 -1.54154e-11 67.4547

82.7763 -4.04183 1.82399e-11
-4.04183 85.8736 -1.71302e-11
1.82399e-11 -1.71302e-11 84.3041

81.9331 4.90716 -3.82683e-11
4.90716 82.0613 -2.32155e-12
-3.82683e-11 -2.32155e-12 83.7015

104.669 -4.48575 5.58526e-11
-4.48575 94.6475 -1.37365e-10
5.58526e-11 -1.37365e-10 96.9943

109.891 -0.478485 -5.27349e-11
-0.478485 114.604 -8.59621e-12
-5.27349e-11 -8.59621e-12 101.446

75.1207 -7.1213 1.50259e-11
-7.1213 83.8461 -6.64384e-11
1.50259e-11 -6.64384e-11 80.3827

78.7378 -5.00069 -5.10349e-11
-5.00069 71.0813 -8.09027e-12
-5.10349e-11 -8.09027e-12 74.9013

89.082 1.09699 -6.3789e-12
1.09699 84.9405 -3.50454e-11
-6.3789e-12 -3.50454e-11 87.227

90.3134 0.167802 -1.58127e-11
0.167802 84.0534 3.63855e-11
-1.58127e-11 3.63855e-11 87.1878

75.585 -2.86505 7.71975e-13
-2.86505 84.2512 -3.7744e-11
7.71975e-13 -3.7744e-11 81.4802

74.6428 -5.25099 -9.82239e-12
-5.25099 81.0027 1.65613e-11
-9.82239e-12 1.65613e-11 81.5453

39.7322 7.88269 4.06489e-11
7.88269 38.4785 -3.44785e-11
4.06489e-11 -3.44785e-11 39.3161

84.6221 4.20291 -2.36796e-11
4.20291 89.8051 1.46349e-11
-2.36796e-11 1.46349e-11 87.9887

84.2843 -5.47014 3.158e-11
-5.47014 88.9741 3.11891e-11
3.158e-11 3.11891e-11 87.6019

72.8432 -4.96836 2.56123e-11
-4.96836 82.0782 -4.19813e-11
2.56123e-11 -4.19813e-11 80.0783

74.1238 -3.35645 -7.51443e-12
-3.35645 67.1891 -1.983e-11
-7.51443e-12 -1.983e-11 68.3722

82.3963 3.64549 3.31169e-11
3.64549 81.2023 6.89328e-11
3.31169e-11 6.89328e-11 82.0315

85.7047 3.82662 -5.79541e-11
3.82662 86.3384 -1.53997e-11
-5.79541e-11 -1.53997e-11 86.4184

87.8308 -5.89259 3.81245e-11
-5.89259 82.8808 1.54015e-11
3.81245e-11 1.54015e-11 85.9546

84.516 1.47314 4.62556e-12
1.47314 71.8464 2.21462e-11
4.62556e-12 2.21462e-11 80.5389

92.856 -0.67763 -6.23231e-12
-0.67763 88.7286 -1.19385e-11
-6.23231e-12 -1.19385e-11 90.5902

94.5782 1.06076 -1.15749e-11
1.06076 86.405 -2.88873e-12
-1.15749e-11 -2.88873e-12 90.4468

97.9603 1.95242 -1.02218e-10
1.95242 111.063 1.84774e-11
-1.02218e-10 1.84774e-11 97.8941

95.5784 0.368995 -1.61709e-11
0.368995 103.369 3.08013e-12
-1.61709e-11 3.08013e-12 96.3477

38.9993 -2.01675 -3.08279e-11
-2.01675 33.841 -2.31162e-11
-3.08279e-11 -2.31162e-11 39.9529

31.8697 -1.34068 6.43499e-11
-1.34068 39.5212 -7.31671e-12
6.43499e-11 -7.31671e-12 39.652

79.523 -6.27289 3.60529e-11
-6.27289 87.0995 3.15773e-11
3.60529e-11 3.15773e-11 83.3936

78.2018 5.44111 -2.35851e-11
5.44111 81.6337 4.2368e-11
-2.35851e-11 4.2368e-11 82.5642

77.3536 -8.392 -9.91496e-12
-8.392 86.5453 -1.34775e-11
-9.91496e-12 -1.34775e-11 82.5694

38.2247 2.14923 5.2597e-11
2.14923 37.9184 -2.04132e-11
5.2597e-11 -2.04132e-11 40.1089

38.8749 3.24055 3.91105e-11
3.24055 36.7505 -4.29613e-11
3.91105e-11 -4.29613e-11 40.0459

88.9182 6.864 -9.46073e-11
6.864 110.775 1.79453e-10
-9.46073e-11 1.79453e-10 97.3073

96.4161 -5.41048 7.58419e-11
-5.41048 106.722 2.07934e-10
7.58419e-11 2.07934e-10 98.0028

78.9395 5.07203 3.90927e-11
5.07203 79.1562 3.08156e-11
3.90927e-11 3.08156e-11 80.0973

71.9564 -6.05383 8.16504e-11
-6.05383 75.5288 -6.74379e-12
8.16504e-11 -6.74379e-12 72.9136

78.2964 -6.01367 4.91484e-11
-6.01367 82.8517 -3.35076e-11
4.91484e-11 -3.35076e-11 81.4781

77.9214 6.05292 1.21726e-11
6.05292 80.2064 -2.30741e-12
1.21726e-11 -2.30741e-12 81.2954

73.6559 -7.02217 -1.07869e-11
-7.02217 79.2534 4.56402e-11
-1.07869e-11 4.56402e-11 76.5171

71.0991 4.88159 1.86855e-11
4.88159 73.7286 -2.31026e-11
1.86855e-11 -2.31026e-11 72.6839

48.9423 -2.56088 -1.52219e-11
-2.56088 56.6099 3.31288e-11
-1.52219e-11 3.31288e-11 51.3882

50.4941 -2.20342 -3.40986e-11
-2.20342 56.6607 2.75455e-11
-3.40986e-11 2.75455e-11 51.4675

56.9412 -1.79385 3.52614e-11
-1.79385 49.7006 -2.69624e-11
3.52614e-11 -2.69624e-11 51.168

72.4045 5.47737 6.93712e-12
5.47737 76.7275 3.00457e-11
6.93712e-12 3.00457e-11 76.125

44.4957 -0.282289 1.00169e-11
-0.282289 52.7196 1.81092e-11
1.00169e-11 1.81092e-11 47.525

52.3879 0.560586 -2.09068e-11
0.560586 45.3842 -1.04027e-11
-2.09068e-11 -1.04027e-11 47.4858

82.2475 -5.73851 -2.8161e-11
-5.73851 87.7648 1.79083e-11
-2.8161e-11 1.79083e-11 85.8411

81.7944 6.97101 -6.34781e-12
6.97101 83.5162 3.73552e-11
-6.34781e-12 3.73552e-11 85.3468

83.3552 -4.5716 -2.42673e-11
-4.5716 88.595 6.70116e-11
-2.42673e-11 6.70116e-11 86.6468

83.0514 6.16591 -8.32993e-12
6.16591 87.0609 3.00362e-11
-8.32993e-12 3.00362e-11 86.581

36.537 -4.11545 3.27416e-12
-4.11545 37.148 -4.20019e-11
3.27416e-12 -4.20019e-11 39.2063

36.4724 -4.01257 2.60994e-11
-4.01257 37.5818 4.70048e-11
2.60994e-11 4.70048e-11 39.3552

76.7706 5.10897 5.86415e-11
5.10897 77.9021 2.46574e-11
5.86415e-11 2.46574e-11 78.6334

77.4204 -5.5443 -5.97913e-11
-5.5443 81.4578 3.6585e-11
-5.97913e-11 3.6585e-11 79.073

94.0139 -1.44429 -1.38808e-10
-1.44429 100.483 5.00244e-12
-1.38808e-10 5.00244e-12 94.085

92.3511 -1.73003 -2.32997e-11
-1.73003 93.7791 -4.12016e-11
-2.32997e-11 -4.12016e-11 92.7501

82.5299 -5.97089 -3.28788e-11
-5.97089 91.6017 3.29285e-11
-3.28788e-11 3.29285e-11 87.6443

80.2101 6.38529 -2.71944e-11
6.38529 88.7873 -7.70422e-12
-2.71944e-11 -7.70422e-12 87.0322

91.9561 -0.0852233 2.01002e-11
-0.0852233 84.8191 1.61742e-11
2.01002e-11 1.61742e-11 89.495

89.6715 1.35548 -8.40883e-13
1.35548 85.8643 -8.46974e-12
-8.40883e-13 -8.46974e-12 89.3095

80.2598 5.67842 2.81083e-11
5.67842 84.3073 -4.29369e-11
2.81083e-11 -4.29369e-11 83.15

80.4746 -6.01785 -4.00559e-11
-6.01785 80.6851 2.54217e-11
-4.00559e-11 2.54217e-11 82.212

91.5535 -2.47993 7.89598e-12
-2.47993 99.6827 -5.97071e-12
7.89598e-12 -5.97071e-12 94.0415

97.3187 2.41237 -2.38702e-11
2.41237 94.1035 -1.1168e-11
-2.38702e-11 -1.1168e-11 94.1924

102.485 -5.87206 -9.23935e-12
-5.87206 98.1201 2.61878e-11
-9.23935e-12 2.61878e-11 95.6375

92.79 -1.03573 2.38704e-11
-1.03573 106.4 -1.23251e-11
2.38704e-11 -1.23251e-11 95.3316

95.1077 1.65009 3.61507e-11
1.65009 93.5273 -2.26826e-11
3.61507e-11 -2.26826e-11 93.5186

92.9477 0.212789 -1.33477e-10
0.212789 99.9047 1.25915e-10
-1.33477e-10 1.25915e-10 95.3533

98.1979 -1.80751 -4.53895e-11
-1.80751 91.893 -1.90948e-11
-4.53895e-11 -1.90948e-11 93.8069

98.7273 -0.669154 5.728e-11
-0.669154 95.3148 -1.36699e-11
5.728e-11 -1.36699e-11 95.5846

94.3155 -3.26624 1.51393e-10
-3.26624 97.6257 -2.16987e-10
1.51393e-10 -2.16987e-10 94.6928

98.5084 7.87521 2.6158e-10
7.87521 105.256 1.67947e-10
2.6158e-10 1.67947e-10 97.1242

118.52 2.26272 -5.71568e-10
2.26272 116.882 3.1332e-10
-5.71568e-10 3.1332e-10 104.442

121.332 -3.76022 5.19571e-10
-3.76022 91.928 2.72335e-11
5.19571e-10 2.72335e-11 100.067

96.3412 -4.24906 2.12198e-11
-4.24906 95.908 2.59917e-11
2.12198e-11 2.59917e-11 94.3052

89.524 -3.12836 3.08014e-11
-3.12836 94.8317 2.19502e-11
3.08014e-11 2.19502e-11 91.4086

99.1891 7.3503 3.96571e-11
7.3503 96.6698 6.35376e-11
3.96571e-11 6.35376e-11 95.1316

89.8228 4.12516 -5.4873e-11
4.12516 92.2626 1.42349e-11
-5.4873e-11 1.42349e-11 91.1679

101.278 8.4178 1.05089e-10
8.4178 108.6 -2.35633e-10
1.05089e-10 -2.35633e-10 98.9632

98.5531 -0.907459 9.99586e-12
-0.907459 96.5676 -3.02272e-11
9.99586e-12 -3.02272e-11 96.0303

89.242 -2.7862 1.48918e-13
-2.7862 93.5505 1.21322e-11
1.48918e-13 1.21322e-11 91.5702

95.9843 -1.67251 8.75189e-12
-1.67251 95.7443 9.04769e-12
8.75189e-12 9.04769e-12 94.4431

91.1817 6.89593 -7.22869e-11
6.89593 95.1907 -8.43426e-11
-7.22869e-11 -8.43426e-11 92.4146

93.3328 4.57334 3.29914e-12
4.57334 97.6115 -1.421e-10
3.29914e-12 -1.421e-10 94.33

75.5643 1.61201 1.07848e-11
1.61201 87.0225 -4.2378e-12
1.07848e-11 -4.2378e-12 81.9599

87.6904 -0.619947 8.8564e-12
-0.619947 90.9555 -9.62904e-12
8.8564e-12 -9.62904e-12 88.3569

80.4664 1.54865 1.63733e-11
1.54865 67.7684 -4.2352e-12
1.63733e-11 -4.2352e-12 73.8853

77.0375 0.375843 -3.37004e-12
0.375843 65.2821 -2.61918e-11
-3.37004e-12 -2.61918e-11 69.5647

77.4935 1.82448 -2.54162e-11
1.82448 92.6818 1.34764e-11
-2.54162e-11 1.34764e-11 86.3505

89.4217 0.477451 2.59898e-11
0.477451 94.1163 -8.75996e-12
2.59898e-11 -8.75996e-12 92.8119

77.4831 -0.595693 -4.80653e-13
-0.595693 65.5117 -7.69991e-12
-4.80653e-13 -7.69991e-12 70.0763

89.1884 -0.356871 -8.20751e-13
-0.356871 75.2095 -7.31778e-12
-8.20751e-13 -7.31778e-12 82.9537

52.8939 -3.57867 2.99264e-12
-3.57867 60.8169 -3.93012e-11
2.99264e-12 -3.93012e-11 55.3689

57.8138 5.79775 -1.02121e-11
5.79775 63.9992 -2.36936e-11
-1.02121e-11 -2.36936e-11 58.1771

60.8785 5.48719 1.04034e-11
5.48719 54.948 1.54061e-11
1.04034e-11 1.54061e-11 56.4075

90.8669 6.62953 3.62891e-11
6.62953 94.8582 2.25327e-11
3.62891e-11 2.25327e-11 92.1597

85.8385 -2.24897 3.65715e-12
-2.24897 92.5684 1.46301e-11
3.65715e-12 1.46301e-11 88.8999

77.2993 5.65146 -2.17593e-11
5.65146 80.2849 -2.12053e-12
-2.17593e-11 -2.12053e-12 77.2247

85.8508 4.98857 -1.31914e-11
4.98857 92.5619 4.04099e-12
-1.31914e-11 4.04099e-12 90.0112

76.6292 -1.79422 -4.13519e-12
-1.79422 92.6796 3.85181e-12
-4.13519e-12 3.85181e-12 85.9759

82.5826 -1.11248 -4.42917e-11
-1.11248 70.4235 4.23617e-12
-4.42917e-11 4.23617e-12 77.5369

62.919 2.64555 -9.82362e-12
2.64555 71.0871 9.62845e-12
-9.82362e-12 9.62845e-12 63.6104

57.6435 -0.692018 1.31898e-11
-0.692018 68.3731 -1.84929e-11
1.31898e-11 -1.84929e-11 60.9885

68.4687 2.69629 6.62729e-11
2.69629 59.4478 -1.57837e-11
6.62729e-11 -1.57837e-11 61.5335

71.329 -2.79509 -1.01094e-11
-2.79509 61.8992 -4.62138e-12
-1.01094e-11 -4.62138e-12 65.3995

67.2686 4.81293 -5.10373e-11
4.81293 74.9137 4.22506e-12
-5.10373e-11 4.22506e-12 70.3832

76.2923 -3.65292 1.31024e-11
-3.65292 79.032 -4.62217e-11
1.31024e-11 -4.62217e-11 75.2888

81.2923 -1.80006 -8.22971e-13
-1.80006 67.9661 1.19429e-11
-8.22971e-13 1.19429e-11 74.6908

53.8949 3.64305 8.86372e-12
3.64305 58.0714 -3.85795e-12
8.86372e-12 -3.85795e-12 52.5703

87.3394 0.383974 1.22261e-11
0.383974 72.9788 -2.1236e-12
1.22261e-11 -2.1236e-12 81.041

55.8081 3.93545 -1.6186e-11
3.93545 51.9467 1.80945e-11
-1.6186e-11 1.80945e-11 51.4242

86.5937 0.433375 9.43309e-12
0.433375 95.2773 -2.31008e-12
9.43309e-12 -2.31008e-12 89.7469

94.4289 2.28644 2.11953e-12
2.28644 96.5537 -9.43053e-12
2.11953e-12 -9.43053e-12 94.7058

98.1613 -5.86924 3.23444e-11
-5.86924 98.7715 -2.15699e-11
3.23444e-11 -2.15699e-11 95.9907

100.592 2.55376 -1.87959e-11
2.55376 96.5136 1.96352e-11
-1.87959e-11 1.96352e-11 96.0348

67.3282 -0.835456 1.21383e-11
-0.835456 58.119 -1.73251e-11
1.21383e-11 -1.73251e-11 59.8731

74.5921 6.8777 -5.80129e-13
6.8777 78.4278 -2.50344e-11
-5.80129e-13 -2.50344e-11 75.8297

90.7711 1.02665 -2.96993e-11
1.02665 89.4403 1.82897e-11
-2.96993e-11 1.82897e-11 89.3872

88.6974 -3.13173 8.27264e-13
-3.13173 88.0515 1.61781e-11
8.27264e-13 1.61781e-11 89.0588

90.547 -0.408206 -3.27871e-11
-0.408206 74.1181 6.54443e-12
-3.27871e-11 6.54443e-12 83.1469

66.2709 5.68799 1.3096e-11
5.68799 71.9886 -1.88724e-11
1.3096e-11 -1.88724e-11 69.1859

73.348 -5.18464 8.08916e-12
-5.18464 77.4187 -6.16055e-12
8.08916e-12 -6.16055e-12 73.8664

72.1976 -3.65978 7.6108e-12
-3.65978 66.1157 3.85188e-12
7.6108e-12 3.85188e-12 67.5077

88.2937 -0.867906 -7.7998e-12
-0.867906 72.0464 -2.31309e-12
-7.7998e-12 -2.31309e-12 81.2283

69.9828 6.70806 1.61728e-11
6.70806 76.7726 -2.44588e-11
1.61728e-11 -2.44588e-11 71.0805

65.5828 -4.62783 -2.36813e-11
-4.62783 71.528 -1.65656e-11
-2.36813e-11 -1.65656e-11 68.478

71.132 6.20354 -4.58315e-11
6.20354 77.6864 1.7131e-11
-4.58315e-11 1.7131e-11 72.1056

65.85 -3.71846 1.55037e-11
-3.71846 74.9601 -2.42615e-11
1.55037e-11 -2.42615e-11 69.7664

88.192 -3.0714 8.85458e-12
-3.0714 90.7737 -2.07933e-11
8.85458e-12 -2.07933e-11 89.4257

73.4496 4.32381 1.56014e-11
4.32381 84.2788 3.85218e-12
1.56014e-11 3.85218e-12 80.8969

65.9227 -5.39525 6.35107e-12
-5.39525 63.7225 1.17391e-11
6.35107e-12 1.17391e-11 63.4072

41.6664 -4.77515 2.36962e-11
-4.77515 40.9822 -2.00359e-11
2.36962e-11 -2.00359e-11 41.2714

39.4246 -5.13169 -3.67964e-11
-5.13169 41.9991 -4.24024e-12
-3.67964e-11 -4.24024e-12 40.9418

83.7372 8.03781 2.16599e-11
8.03781 92.2667 1.27126e-11
2.16599e-11 1.27126e-11 88.4828

75.7643 -5.24082 -1.30922e-11
-5.24082 88.2538 2.11791e-11
-1.30922e-11 2.11791e-11 84.9173

39.7232 -1.03174 -2.54255e-11
-1.03174 39.7726 -3.50621e-11
-2.54255e-11 -3.50621e-11 41.7285

40.6215 -1.10672 9.82422e-12
-1.10672 41.4197 -1.98455e-11
9.82422e-12 -1.98455e-11 42.3624

93.9345 4.6007 -3.61935e-11
4.6007 89.0514 -1.81087e-11
-3.61935e-11 -1.81087e-11 90.6224

100.298 -3.50631 3.08114e-11
-3.50631 93.4059 -2.55958e-11
3.08114e-11 -2.55958e-11 96.8374

83.6409 -0.158709 5.9656e-12
-0.158709 71.9786 3.38906e-11
5.9656e-12 3.38906e-11 80.2698

93.1166 6.46405 -4.19702e-11
6.46405 88.3779 3.45168e-12
-4.19702e-11 3.45168e-12 90.3354

98.8433 -4.66834 4.93132e-11
-4.66834 89.4342 -3.05977e-11
4.93132e-11 -3.05977e-11 95.1596

68.7097 4.56617 -2.19525e-11
4.56617 78.3754 -5.27742e-11
-2.19525e-11 -5.27742e-11 74.4517

78.1902 -3.60028 1.13534e-11
-3.60028 83.7083 3.35025e-11
1.13534e-11 3.35025e-11 80.279

98.8672 2.25498 9.19524e-12
2.25498 92.0592 -3.28708e-11
9.19524e-12 -3.28708e-11 93.9688

95.6752 -2.96534 -8.60103e-12
-2.96534 93.6663 -2.09003e-11
-8.60103e-12 -2.09003e-11 93.65

85.6843 6.97351 -1.67575e-11
6.97351 80.9766 -6.93223e-12
-1.67575e-11 -6.93223e-12 84.3543

92.0569 -5.51494 -1.19321e-11
-5.51494 84.7024 -4.08569e-12
-1.19321e-11 -4.08569e-12 89.361

59.5246 -3.72849 1.85925e-11
-3.72849 53.5446 -3.46618e-11
1.85925e-11 -3.46618e-11 54.6698

91.9201 -0.190287 -2.88665e-12
-0.190287 103.903 9.62371e-12
-2.88665e-12 9.62371e-12 94.6133

99.7681 1.40152 5.76132e-13
1.40152 103.662 1.19357e-11
5.76132e-13 1.19357e-11 101.47

47.5079 -0.657498 -2.50118e-12
-0.657498 54.4226 -3.35225e-11
-2.50118e-12 -3.35225e-11 49.3371

54.1164 -0.81666 -1.5404e-12
-0.81666 48.1846 -1.19415e-11
-1.5404e-12 -1.19415e-11 49.2573

71.0652 3.87298 2.81172e-11
3.87298 83.2858 1.04041e-11
2.81172e-11 1.04041e-11 79.0455

82.6496 -2.25873 -2.94579e-11
-2.25873 88.7461 -1.84891e-11
-2.94579e-11 -1.84891e-11 85.8781

114.787 -1.33814 -7.69902e-11
-1.33814 119.363 -3.81172e-11
-7.69902e-11 -3.81172e-11 103.966

115.502 -4.26707 -2.73017e-11
-4.26707 102.621 -1.24558e-10
-2.73017e-11 -1.24558e-10 105.576

83.4821 6.1954 -1.11669e-11
6.1954 74.6233 -3.65798e-11
-1.11669e-11 -3.65798e-11 80.3404

87.2392 -4.08588 -1.5404e-12
-4.08588 76.9343 -8.28071e-12
-1.5404e-12 -8.28071e-12 83.4829

66.5469 0.104762 3.63053e-11
0.104762 56.5229 -1.07818e-11
3.63053e-11 -1.07818e-11 59.0531

78.3457 0.20133 -4.25615e-11
0.20133 67.6543 -1.03969e-11
-4.25615e-11 -1.03969e-11 72.5069

71.9369 3.01304 -1.06833e-11
3.01304 61.9003 -2.38726e-11
-1.06833e-11 -2.38726e-11 64.7992

88.925 1.1048 -1.3646e-11
1.1048 81.5573 -2.06023e-11
-1.3646e-11 -2.06023e-11 86.4424

90.7821 -2.1913 2.07604e-12
-2.1913 103.786 -6.92546e-12
2.07604e-12 -6.92546e-12 95.9366

97.3054 1.12514 5.40753e-11
1.12514 98.2577 2.00214e-11
5.40753e-11 2.00214e-11 96.1493

63.8076 5.22777 -3.04361e-11
5.22777 65.8848 -1.83068e-11
-3.04361e-11 -1.83068e-11 61.2683

72.8021 -4.53508 1.03083e-11
-4.53508 70.3327 -1.0397e-11
1.03083e-11 -1.0397e-11 72.0915

81.1102 4.971 2.38825e-11
4.971 71.8304 1.69484e-11
2.38825e-11 1.69484e-11 76.9051

98.8376 2.13288 3.85014e-11
2.13288 102.955 3.28243e-11
3.85014e-11 3.28243e-11 100.799

96.8404 3.1517 1.59769e-11
3.1517 107.059 -8.08272e-12
1.59769e-11 -8.08272e-12 96.8766

87.7712 -2.62902 -8.90007e-12
-2.62902 83.0488 -2.96511e-11
-8.90007e-12 -2.96511e-11 86.9746

84.6319 4.08147 -9.34008e-12
4.08147 89.7232 4.15884e-11
-9.34008e-12 4.15884e-11 86.0709

74.8877 -0.742058 5.49219e-12
-0.742058 87.3708 2.11832e-11
5.49219e-12 2.11832e-11 81.7504

86.2694 3.07972 2.50366e-11
3.07972 72.5286 -6.54107e-12
2.50366e-11 -6.54107e-12 82.4004

87.902 -0.619001 5.16083e-11
-0.619001 72.881 1.21398e-11
5.16083e-11 1.21398e-11 83.7572

66.6134 -4.0575 6.92394e-12
-4.0575 64.0078 3.69787e-11
6.92394e-12 3.69787e-11 62.0701

90.1394 5.55673 -8.85788e-12
5.55673 78.9753 6.54743e-12
-8.85788e-12 6.54743e-12 86.1924

92.9825 -3.50874 2.47889e-11
-3.50874 79.0409 2.92702e-11
2.47889e-11 2.92702e-11 88.7921

83.3884 -2.71391 -3.46634e-11
-2.71391 74.386 1.73299e-11
-3.46634e-11 1.73299e-11 79.2676

86.6464 4.03605 1.1567e-12
4.03605 76.5093 -1.17452e-11
1.1567e-12 -1.17452e-11 83.2315

88.4901 -2.05695 4.19767e-11
-2.05695 77.8865 -3.82287e-13
4.19767e-11 -3.82287e-13 85.6007

81.7356 -1.72789 3.47617e-11
-1.72789 72.2296 2.31319e-12
3.47617e-11 2.31319e-12 76.9292

77.4111 7.26531 -2.96498e-11
7.26531 80.9536 -4.62586e-12
-2.96498e-11 -4.62586e-12 81.9493

92.9648 -6.23228 -3.85714e-12
-6.23228 89.9262 1.69465e-11
-3.85714e-12 1.69465e-11 91.6746

72.4308 4.89878 -2.15696e-11
4.89878 70.6908 6.54151e-12
-2.15696e-11 6.54151e-12 68.6788

91.0369 -4.55717 5.20154e-12
-4.55717 94.4214 -3.52329e-11
5.20154e-12 -3.52329e-11 93.6995

75.0228 5.06397 2.31055e-11
5.06397 82.0505 -2.07958e-11
2.31055e-11 -2.07958e-11 82.3031

72.6527 4.47204 -3.71683e-11
4.47204 62.8288 -2.96601e-11
-3.71683e-11 -2.96601e-11 66.9971

80.168 -3.99729 1.86768e-11
-3.99729 76.1693 -1.81031e-11
1.86768e-11 -1.81031e-11 79.9016

81.6405 1.67738 2.59962e-11
1.67738 73.2159 -4.60181e-11
2.59962e-11 -4.60181e-11 76.2553

67.2647 6.37733 -4.04647e-12
6.37733 68.366 3.07991e-12
-4.04647e-12 3.07991e-12 65.9792

74.6722 5.14955 -1.66558e-11
5.14955 71.8097 1.21313e-11
-1.66558e-11 1.21313e-11 72.7139

78.6033 2.05079 -3.38929e-11
2.05079 86.6652 6.16055e-12
-3.38929e-11 6.16055e-12 82.9658

69.3583 0.574746 -1.69435e-11
0.574746 85.2047 1.61715e-11
-1.69435e-11 1.61715e-11 78.6025

64.387 -3.91907 1.51161e-11
-3.91907 56.4242 -1.82926e-11
1.51161e-11 -1.82926e-11 58.5141

75.5458 -7.11542 1.83934e-11
-7.11542 81.3221 2.61862e-11
1.83934e-11 2.61862e-11 81.8926

79.2006 7.8055 -1.73335e-12
7.8055 86.6367 -1.27086e-11
-1.73335e-12 -1.27086e-11 83.2661

71.5554 -5.76342 -2.12238e-12
-5.76342 72.1078 5.81625e-11
-2.12238e-12 5.81625e-11 69.0641

65.2908 6.94232 2.48416e-11
6.94232 68.8082 1.7339e-11
2.48416e-11 1.7339e-11 65.4873

79.8638 -3.22991 2.26286e-11
-3.22991 72.7397 9.91577e-12
2.26286e-11 9.91577e-12 76.3163

90.0706 -0.831207 -8.42533e-12
-0.831207 77.0187 -1.19386e-11
-8.42533e-12 -1.19386e-11 85.5491

91.6581 0.241187 -1.30496e-11
0.241187 76.5174 4.33202e-11
-1.30496e-11 4.33202e-11 85.554

73.3108 -5.4081 -3.74841e-12
-5.4081 74.2614 -3.10054e-11
-3.74841e-12 -3.10054e-11 73.7393

57.7491 1.10858 3.38999e-11
1.10858 68.7129 -1.73319e-11
3.38999e-11 -1.73319e-11 60.8022

53.0138 0.950615 4.256e-11
0.950615 66.0525 1.73399e-11
4.256e-11 1.73399e-11 58.2029

66.0305 1.00727 3.89144e-11
1.00727 54.696 7.51937e-12
3.89144e-11 7.51937e-12 58.8663

62.7876 5.74572 1.15138e-12
5.74572 61.4483 2.35034e-11
1.15138e-12 2.35034e-11 59.63

71.9819 -5.63972 5.38636e-12
-5.63972 66.4686 1.59831e-11
5.38636e-12 1.59831e-11 67.7563

98.5766 6.43393 -7.3921e-11
6.43393 106.56 -1.31916e-11
-7.3921e-11 -1.31916e-11 102.097

113.322 -1.69062 -2.31057e-11
-1.69062 113.668 5.5052e-11
-2.31057e-11 5.5052e-11 102.19

74.9567 -1.91436 4.62075e-12
-1.91436 63.8955 1.48289e-11
4.62075e-12 1.48289e-11 68.5369

71.5723 5.07706 6.16244e-12
5.07706 79.1506 3.07887e-12
6.16244e-12 3.07887e-12 77.4929

84.9273 -5.73582 4.43046e-12
-5.73582 86.8944 5.3911e-12
4.43046e-12 5.3911e-12 85.4797

83.8684 2.62925 4.19792e-11
2.62925 71.6357 -4.61316e-12
4.19792e-11 -4.61316e-12 79.7509

67.1318 5.36248 1.29062e-11
5.36248 76.0031 3.15869e-11
1.29062e-11 3.15869e-11 69.2843

60.8098 -2.38563 5.39172e-12
-2.38563 72.6572 -2.42696e-11
5.39172e-12 -2.42696e-11 66.281

75.2444 5.39526 -1.67514e-11
5.39526 88.3567 -3.85173e-12
-1.67514e-11 -3.85173e-12 85.0382

94.5405 -2.221 -1.117e-11
-2.221 97.7421 1.34737e-12
-1.117e-11 1.34737e-12 97.0682

76.2586 5.46061 -9.43664e-12
5.46061 80.6018 3.65866e-11
-9.43664e-12 3.65866e-11 82.4781

93.7307 -5.52917 -3.85617e-12
-5.52917 94.3728 2.02161e-11
-3.85617e-12 2.02161e-11 94.8487

87.8523 0.443242 -2.58061e-11
0.443242 67.1621 -1.54463e-12
-2.58061e-11 -1.54463e-12 83.3774

67.6233 6.96449 -2.61996e-11
6.96449 63.7858 -2.5427e-11
-2.61996e-11 -2.5427e-11 64.7661

80.3642 8.334 3.02772e-11
8.334 90.2111 2.67705e-11
3.02772e-11 2.67705e-11 85.1733

74.7968 -6.17842 1.16536e-11
-6.17842 80.3169 1.3477e-11
1.16536e-11 1.3477e-11 82.3734

68.7939 5.89867 -2.44672e-11
5.89867 68.0297 2.46535e-11
-2.44672e-11 2.46535e-11 67.452

59.3201 -3.58441 1.60895e-11
-3.58441 62.7026 -4.75668e-11
1.60895e-11 -4.75668e-11 58.51

73.5102 -5.3787 -1.37645e-11
-5.3787 77.1874 -3.15786e-11
-1.37645e-11 -3.15786e-11 77.1364

65.6684 -1.14469 -5.58503e-11
-1.14469 72.3395 1.55967e-11
-5.58503e-11 1.55967e-11 65.5385

59.1693 3.05207 -1.09766e-11
3.05207 69.4736 -1.81049e-11
-1.09766e-11 -1.81049e-11 62.3357

69.5639 -1.1748 4.0069e-11
-1.1748 61.6007 -1.53952e-11
4.0069e-11 -1.53952e-11 63.2224

73.7013 -5.05638 -1.90801e-11
-5.05638 72.4461 3.87053e-11
-1.90801e-11 3.87053e-11 70.9343

67.2111 0.83261 -1.59803e-11
0.83261 80.0097 -3.23593e-11
-1.59803e-11 -3.23593e-11 73.1498

76.6703 1.16412 -3.85098e-12
1.16412 83.0247 -2.19536e-11
-3.85098e-12 -2.19536e-11 77.4239

61.3217 -4.78907 8.86372e-12
-4.78907 62.7279 4.04832e-12
8.86372e-12 4.04832e-12 59.2105

56.8306 5.95511 1.23279e-11
5.95511 60.843 2.88907e-11
1.23279e-11 2.88907e-11 57.0548

85.7261 1.14658 2.54192e-11
1.14658 73.522 1.69489e-11
2.54192e-11 1.69489e-11 83.872

86.1398 0.0110661 -3.85111e-11
0.0110661 73.0652 -1.88756e-11
-3.85111e-11 -1.88756e-11 84.5633

75.35 6.07503 -3.65678e-12
6.07503 78.4124 -1.65605e-11
-3.65678e-12 -1.65605e-11 78.7796

86.701 -5.04168 -1.38634e-11
-5.04168 88.0249 4.61771e-12
-1.38634e-11 4.61771e-12 86.9295

82.9983 8.23212 -3.90862e-11
8.23212 92.2694 -1.34848e-11
-3.90862e-11 -1.34848e-11 88.0288

73.8861 -4.67739 6.52808e-11
-4.67739 87.5346 -3.27317e-11
6.52808e-11 -3.27317e-11 84.5486

78.9249 5.42555 3.50448e-11
5.42555 81.0161 1.50261e-11
3.50448e-11 1.50261e-11 80.6133

59.2501 3.38942 -4.48829e-11
3.38942 53.2356 -5.78619e-12
-4.48829e-11 -5.78619e-12 53.7423

69.0112 -3.08207 -1.00046e-11
-3.08207 76.6245 -5.70101e-11
-1.00046e-11 -5.70101e-11 70.762

61.4703 4.15769 -2.6384e-11
4.15769 72.9732 1.19376e-11
-2.6384e-11 1.19376e-11 66.7768

91.0381 4.96334 -1.00172e-11
4.96334 82.7807 1.2421e-11
-1.00172e-11 1.2421e-11 87.344

95.5262 -2.85192 3.65944e-11
-2.85192 86.0323 -2.15634e-11
3.65944e-11 -2.15634e-11 91.8477

81.8826 -4.72057 -1.55903e-11
-4.72057 77.2673 1.90684e-11
-1.55903e-11 1.90684e-11 78.752

84.2908 5.86351 -4.40991e-11
5.86351 77.4328 -5.78367e-12
-4.40991e-11 -5.78367e-12 81.3294

88.6444 -4.09669 -1.09724e-11
-4.09669 82.0368 -2.79166e-11
-1.09724e-11 -2.79166e-11 85.6004

39.9915 -1.55913 6.54882e-12
-1.55913 32.7937 -1.77187e-11
6.54882e-12 -1.77187e-11 40.8289

32.1744 -1.93507 -5.2589e-11
-1.93507 38.8272 -1.27148e-11
-5.2589e-11 -1.27148e-11 40.3643

102.953 6.60768 3.85425e-12
6.60768 96.908 -2.2989e-12
3.85425e-12 -2.2989e-12 95.93

106.345 -4.64696 -4.85021e-11
-4.64696 93.9028 -5.66029e-11
-4.85021e-11 -5.66029e-11 99.6412

77.2666 6.44467 1.57889e-11
6.44467 72.7575 -1.69421e-11
1.57889e-11 -1.69421e-11 74.8689

59.3375 3.06767 -4.74878e-11
3.06767 51.9726 1.09743e-11
-4.74878e-11 1.09743e-11 53.3459

78.1295 5.74946 1.77161e-11
5.74946 87.0161 3.37036e-11
1.77161e-11 3.37036e-11 82.4503

70.3548 -2.22535 -4.44758e-11
-2.22535 85.0857 -2.70095e-12
-4.44758e-11 -2.70095e-12 79.2608

64.0084 -5.47215 -3.38031e-11
-5.47215 66.5602 1.61733e-11
-3.38031e-11 1.61733e-11 64.0402

86.4686 3.54039 1.61726e-11
3.54039 91.6346 3.46182e-12
1.61726e-11 3.46182e-12 88.998

95.4607 -2.00093 4.61856e-12
-2.00093 97.9866 -5.7887e-13
4.61856e-12 -5.7887e-13 97.2184

70.2071 4.31028 -2.00355e-11
4.31028 62.7404 -1.25185e-11
-2.00355e-11 -1.25185e-11 64.3022

77.5513 2.32664 -2.6763e-11
2.32664 66.6616 -3.31269e-11
-2.6763e-11 -3.31269e-11 71.9183

71.8128 8.05601 -7.51045e-12
8.05601 81.9898 1.54095e-12
-7.51045e-12 1.54095e-12 81.8089

96.0528 -4.13555 -2.82963e-11
-4.13555 95.807 -1.79066e-11
-2.82963e-11 -1.79066e-11 96.2656

73.066 6.66447 -4.07264e-11
6.66447 82.4724 6.54365e-12
-4.07264e-11 6.54365e-12 76.8612

67.4038 -3.57018 -5.3932e-12
-3.57018 78.4821 5.62404e-11
-5.3932e-12 5.62404e-11 74.2184

78.5765 7.27865 2.44534e-11
7.27865 75.241 -8.08546e-12
2.44534e-11 -8.08546e-12 78.0363

85.6013 -6.1969 1.2131e-11
-6.1969 80.2357 -1.42468e-11
1.2131e-11 -1.42468e-11 83.0542

64.8621 2.06457 1.00183e-11
2.06457 78.1367 -3.08111e-11
1.00183e-11 -3.08111e-11 71.3016

73.3076 -0.153335 1.21299e-11
-0.153335 81.0817 -6.92779e-12
1.21299e-11 -6.92779e-12 75.6054

45.4168 -2.36014 -2.83196e-11
-2.36014 49.2446 2.30334e-12
-2.83196e-11 2.30334e-12 45.7002

48.6172 -2.29004 -1.07834e-11
-2.29004 46.0641 -1.30999e-11
-1.07834e-11 -1.30999e-11 45.6727

80.7091 3.77973 2.86963e-11
3.77973 69.6232 8.10185e-12
2.86963e-11 8.10185e-12 76.2757

116.511 1.15015 -4.34985e-11
1.15015 107.675 -3.19526e-11
-4.34985e-11 -3.19526e-11 101.82

114.979 -4.12281 6.12336e-11
-4.12281 100.055 -6.30259e-12
6.12336e-11 -6.30259e-12 104.324

90.8523 -5.46666 1.7211e-11
-5.46666 96.7939 -3.23394e-11
1.7211e-11 -3.23394e-11 93.0081

91.2659 1.71408 -3.829e-11
1.71408 93.8936 5.19647e-12
-3.829e-11 5.19647e-12 92.4382

85.6514 -0.322889 5.96715e-12
-0.322889 70.966 2.32967e-11
5.96715e-12 2.32967e-11 77.967

79.3952 8.95699 1.34832e-12
8.95699 89.5688 1.59818e-11
1.34832e-12 1.59818e-11 84.7712

70.1108 -8.40923 5.77925e-12
-8.40923 81.5917 -5.39209e-12
5.77925e-12 -5.39209e-12 81.4451

48.4444 4.47603 1.58005e-11
4.47603 50.3247 6.54602e-12
1.58005e-11 6.54602e-12 48.1505

51.6231 4.70126 9.63237e-12
4.70126 50.9613 -1.62787e-11
9.63237e-12 -1.62787e-11 49.1738

51.8152 -1.71644 -2.88849e-11
-1.71644 58.9279 -3.12039e-11
-2.88849e-11 -3.12039e-11 53.1662

50.4487 3.54996 3.17781e-11
3.54996 57.3733 1.61752e-11
3.17781e-11 1.61752e-11 52.0661

58.0411 -0.857696 2.23476e-11
-0.857696 50.5298 -3.91915e-11
2.23476e-11 -3.91915e-11 52.4233

47.077 2.09252 -1.09748e-11
2.09252 55.4932 -1.25229e-11
-1.09748e-11 -1.25229e-11 49.5127

53.4956 2.4526 -1.88784e-11
2.4526 46.207 -3.84554e-12
-1.88784e-11 -3.84554e-12 48.7475

90.0951 0.626023 -1.32799e-11
0.626023 99.4219 -3.11981e-11
-1.32799e-11 -3.11981e-11 92.7586

93.9834 4.71208 9.23898e-12
4.71208 99.0949 -8.95402e-12
9.23898e-12 -8.95402e-12 95.751

87.7597 0.76012 1.03513e-11
0.76012 80.0448 9.64414e-13
1.03513e-11 9.64414e-13 83.0899

90.1263 -0.144139 -2.34933e-11
-0.144139 72.8077 -2.92678e-11
-2.34933e-11 -2.92678e-11 82.7602

62.8214 -2.85123 -1.54079e-11
-2.85123 69.0192 5.16181e-11
-1.54079e-11 5.16181e-11 63.5153

57.9005 4.28146 -1.15605e-11
4.28146 65.4175 -9.63955e-12
-1.15605e-11 -9.63955e-12 60.4654

85.5564 -0.213188 3.27931e-11
-0.213188 70.544 1.11704e-11
3.27931e-11 1.11704e-11 78.0883

97.7971 3.65197 -1.00041e-11
3.65197 91.8858 -2.00326e-11
-1.00041e-11 -2.00326e-11 92.9761

101.635 -2.60002 -4.4643e-11
-2.60002 91.9689 -5.21683e-11
-4.4643e-11 -5.21683e-11 97.1012

82.8011 3.54044 2.85432e-11
3.54044 83.8194 2.58077e-11
2.85432e-11 2.58077e-11 82.5778

73.8043 -5.86351 7.70902e-12
-5.86351 78.7164 2.34888e-11
7.70902e-12 2.34888e-11 78.5919

76.9825 7.53043 1.242e-11
7.53043 85.6449 -7.12349e-12
1.242e-11 -7.12349e-12 80.4311

85.9297 0.750926 2.05597e-11
0.750926 73.3748 4.04358e-12
2.05597e-11 4.04358e-12 80.296

62.5557 5.38598 -2.72557e-11
5.38598 61.0359 5.00385e-12
-2.72557e-11 5.00385e-12 58.9995

70.7751 -4.4631 4.99708e-11
-4.4631 80.0606 4.00603e-11
4.99708e-11 4.00603e-11 77.6786

77.0437 8.04861 8.85832e-12
8.04861 84.8699 6.74061e-12
8.85832e-12 6.74061e-12 80.2045

38.9434 9.40766 1.67613e-11
9.40766 39.6491 5.39441e-11
1.67613e-11 5.39441e-11 39.4199

63.8896 -0.563494 1.56068e-11
-0.563494 77.8985 -1.88775e-11
1.56068e-11 -1.88775e-11 70.8336

70.6335 3.06747 1.27096e-11
3.06747 80.0428 -3.08127e-11
1.27096e-11 -3.08127e-11 73.9488

89.2182 -0.741005 -9.60851e-13
-0.741005 103.172 -1.38621e-11
-9.60851e-13 -1.38621e-11 93.5633

96.067 3.72535 -5.82904e-13
3.72535 99.1328 3.2442e-11
-5.82904e-13 3.2442e-11 97.632

90.5153 3.04317 -5.43032e-11
3.04317 73.2213 -2.19498e-11
-5.43032e-11 -2.19498e-11 85.9303

92.2639 -2.07302 -4.04381e-11
-2.07302 71.4814 3.07354e-12
-4.04381e-11 3.07354e-12 87.3456

84.1828 4.08037 -2.03168e-11
4.08037 85.2016 1.77143e-11
-2.03168e-11 1.77143e-11 85.5521

83.3502 -6.14285 2.6903e-11
-6.14285 84.59 4.61894e-12
2.6903e-11 4.61894e-12 85.7527

90.4613 3.45262 -2.02658e-11
3.45262 95.578 1.48232e-11
-2.02658e-11 1.48232e-11 92.1109

90.2238 -4.82618 2.14685e-11
-4.82618 92.1226 -3.82944e-13
2.14685e-11 -3.82944e-13 91.5393

108.268 6.33209 -3.42683e-11
6.33209 104.82 1.96247e-11
-3.42683e-11 1.96247e-11 99.2606

111.674 -4.47458 -2.65784e-11
-4.47458 99.1667 6.79562e-11
-2.65784e-11 6.79562e-11 103.372

79.4805 8.87625 -1.54003e-12
8.87625 83.4639 1.96395e-11
-1.54003e-12 1.96395e-11 85.1423

101.342 -4.76397 1.35018e-12
-4.76397 95.9807 1.15515e-11
1.35018e-12 1.15515e-11 98.8506

76.4464 6.57722 6.93105e-12
6.57722 69.7134 3.85207e-11
6.93105e-12 3.85207e-11 73.4083

76.803 5.68263 3.5622e-12
5.68263 83.8864 -3.69732e-11
3.5622e-12 -3.69732e-11 78.5941

68.7048 -2.27095 -3.60054e-11
-2.27095 80.6126 4.23673e-11
-3.60054e-11 4.23673e-11 75.1952

78.6158 -6.65978 -3.27027e-12
-6.65978 75.308 1.34788e-11
-3.27027e-12 1.34788e-11 76.0283

61.4133 -3.59126 4.87545e-11
-3.59126 59.9766 -1.81011e-11
4.87545e-11 -1.81011e-11 57.935

80.5508 -4.78663 -5.04587e-11
-4.78663 72.4254 2.36882e-11
-5.04587e-11 2.36882e-11 76.1609

72.1418 7.24538 -6.7983e-11
7.24538 70.9373 5.76213e-12
-6.7983e-11 5.76213e-12 71.8004

76.6461 -9.7091 -4.71312e-12
-9.7091 83.8825 9.24591e-12
-4.71312e-12 9.24591e-12 84.926

81.9554 7.7358 3.12404e-11
7.7358 90.3595 1.82979e-11
3.12404e-11 1.82979e-11 86.9267

87.1365 -1.71258 -2.09399e-11
-1.71258 79.5334 -2.54221e-11
-2.09399e-11 -2.54221e-11 83.5754

113.027 -2.86037 1.66916e-10
-2.86037 111.64 -3.5004e-11
1.66916e-10 -3.5004e-11 101.633

101.473 2.46785 5.08193e-11
2.46785 105.725 3.55335e-11
5.08193e-11 3.55335e-11 101.63

80.8824 2.97171 8.90236e-12
2.97171 76.8584 -2.11823e-12
8.90236e-12 -2.11823e-12 79.6627

94.2452 -1.18003 3.62013e-11
-1.18003 84.7027 -2.71465e-11
3.62013e-11 -2.71465e-11 89.3199

50.0273 -3.34983 2.0998e-12
-3.34983 52.13 4.3732e-11
2.0998e-12 4.3732e-11 48.6336

52.268 -3.17642 -1.02089e-10
-3.17642 48.3278 -4.2954e-11
-1.02089e-10 -4.2954e-11 48.3317

92.5634 0.975887 -4.23639e-11
0.975887 79.6715 -8.85932e-12
-4.23639e-11 -8.85932e-12 88.0163

94.1747 0.248592 -2.15677e-11
0.248592 79.0164 2.86802e-11
-2.15677e-11 2.86802e-11 90.1742

92.6994 0.0934492 1.41305e-11
0.0934492 86.4208 -1.27078e-11
1.41305e-11 -1.27078e-11 89.5252

80.9988 -2.63518 1.2865e-11
-2.63518 84.9878 3.08198e-12
1.2865e-11 3.08198e-12 81.3175

69.753 3.42943 6.05016e-12
3.42943 80.3683 -6.35471e-11
6.05016e-12 -6.35471e-11 75.44

73.8212 5.28339 -4.61643e-11
5.28339 66.5527 1.0007e-11
-4.61643e-11 1.0007e-11 68.9666

86.2349 6.03284 -2.42458e-11
6.03284 81.8999 -2.96538e-11
-2.42458e-11 -2.96538e-11 84.8276

93.4448 -4.72241 -1.77002e-11
-4.72241 88.8356 -3.69656e-11
-1.77002e-11 -3.69656e-11 91.2653

100.152 0.786303 -2.67379e-13
0.786303 96.991 4.64135e-11
-2.67379e-13 4.64135e-11 96.7751

101.187 -6.67906 -4.06823e-12
-6.67906 110.191 -6.92364e-11
-4.06823e-12 -6.92364e-11 99.5714

80.6954 2.65258 -1.89725e-11
2.65258 75.1717 -6.16536e-12
-1.89725e-11 -6.16536e-12 76.3623

91.7676 4.25256 -1.43439e-11
4.25256 84.7535 -7.3159e-11
-1.43439e-11 -7.3159e-11 88.2325

94.8729 -3.16962 8.47855e-12
-3.16962 85.6349 -2.59925e-11
8.47855e-12 -2.59925e-11 91.5977

74.999 -2.5761 -9.32756e-12
-2.5761 85.141 -3.92858e-11
-9.32756e-12 -3.92858e-11 81.9061

82.6568 7.29425 1.35743e-11
7.29425 89.3504 2.19563e-11
1.35743e-11 2.19563e-11 85.2129

80.8077 9.28663 -5.89177e-11
9.28663 90.0191 -1.42594e-11
-5.89177e-11 -1.42594e-11 85.2344

73.8221 -5.58097 2.10912e-11
-5.58097 81.1681 -8.85732e-12
2.10912e-11 -8.85732e-12 81.8532

42.6039 10.74 5.58675e-11
10.74 42.9003 -1.98322e-11
5.58675e-11 -1.98322e-11 41.6253

84.8143 5.7543 3.06607e-11
5.7543 93.367 1.02109e-11
3.06607e-11 1.02109e-11 88.9972

81.036 -6.56274 -5.86575e-12
-6.56274 89.2896 3.46674e-12
-5.86575e-12 3.46674e-12 87.7204

71.4953 -5.09075 3.82266e-11
-5.09075 82.4641 -1.38658e-11
3.82266e-11 -1.38658e-11 80.3012

78.1782 7.97481 -1.41505e-11
7.97481 87.8935 3.31184e-11
-1.41505e-11 3.31184e-11 83.1326

77.1196 -3.53429 -1.8879e-11
-3.53429 69.69 -2.46495e-11
-1.8879e-11 -2.46495e-11 71.6083

81.5287 -4.27976 1.49245e-11
-4.27976 80.6663 -1.57864e-11
1.49245e-11 -1.57864e-11 82.093

84.2179 4.68383 -1.06371e-11
4.68383 88.7621 -1.17433e-11
-1.06371e-11 -1.17433e-11 86.7876

83.1932 -6.37735 2.22948e-11
-6.37735 84.155 -1.65703e-11
2.22948e-11 -1.65703e-11 85.9898

85.338 -1.67287 -1.44655e-12
-1.67287 73.2884 -2.70217e-12
-1.44655e-12 -2.70217e-12 80.8068

95.5709 1.75793 -2.11815e-11
1.75793 90.8488 6.00639e-11
-2.11815e-11 6.00639e-11 92.0099

97.4718 -1.80044 -2.96732e-11
-1.80044 87.9069 6.29471e-11
-2.96732e-11 6.29471e-11 94.3548

97.6544 1.95735 5.64014e-11
1.95735 111.173 1.11738e-11
5.64014e-11 1.11738e-11 98.1183

99.7176 2.60011 -3.00307e-11
2.60011 107.876 -7.84546e-11
-3.00307e-11 -7.84546e-11 101.445

39.4242 2.03029 1.17601e-11
2.03029 34.0866 -2.27363e-11
1.17601e-11 -2.27363e-11 40.3583

34.6881 2.02262 -4.92226e-11
2.02262 40.714 4.58575e-11
-4.92226e-11 4.58575e-11 40.7099

81.2651 5.86151 -4.15936e-11
5.86151 81.439 4.99885e-12
-4.15936e-11 4.99885e-12 83.3819

92.7669 -6.01922 -1.30946e-11
-6.01922 91.2669 1.63711e-11
-1.30946e-11 1.63711e-11 92.1827

40.6087 4.00137 6.35701e-11
4.00137 40.0576 -1.09678e-11
6.35701e-11 -1.09678e-11 41.9246

39.7973 4.37781 -6.6087e-11
4.37781 40.0463 -5.47186e-11
-6.6087e-11 -5.47186e-11 41.7722

112.93 -1.57172 6.00358e-11
-1.57172 108.776 1.22051e-10
6.00358e-11 1.22051e-10 105.527

113.742 -1.01154 2.54146e-11
-1.01154 115.931 -1.10509e-10
2.54146e-11 -1.10509e-10 103.072

77.7161 -5.77087 7.03156e-12
-5.77087 78.7222 -3.00366e-11
7.03156e-12 -3.00366e-11 80.2826

81.312 7.43574 -3.42747e-11
7.43574 79.713 9.22018e-12
-3.42747e-11 9.22018e-12 82.1921

91.4167 -6.25377 1.90676e-11
-6.25377 86.4429 1.30974e-11
1.90676e-11 1.30974e-11 89.3034

73.2188 6.54556 -1.63685e-11
6.54556 74.4737 -5.16057e-11
-1.63685e-11 -5.16057e-11 73.7351

80.9693 -5.19188 -3.1003e-11
-5.19188 79.7547 -1.73313e-11
-3.1003e-11 -1.73313e-11 78.8848

53.9575 -0.960929 2.32122e-12
-0.960929 59.9049 -1.38754e-11
2.32122e-12 -1.38754e-11 54.1075

49.4223 2.7006 2.73476e-11
2.7006 57.4214 1.65675e-11
2.73476e-11 1.65675e-11 51.9336

58.5889 -0.399485 1.27174e-11
-0.399485 51.7192 1.07877e-11
1.27174e-11 1.07877e-11 53.0063

74.2899 6.93966 -9.43112e-12
6.93966 76.6998 3.85173e-12
-9.43112e-12 3.85173e-12 76.8982

84.3763 -6.82801 -9.82274e-12
-6.82801 83.2237 -1.73295e-11
-9.82274e-12 -1.73295e-11 83.4053

44.8998 0.434509 -1.92426e-12
0.434509 53.3913 -1.34874e-11
-1.92426e-12 -1.34874e-11 47.9436

53.2791 -0.046895 -2.68806e-11
-0.046895 46.2156 3.77563e-11
-2.68806e-11 3.77563e-11 48.0688

86.436 7.07789 -3.00463e-11
7.07789 83.489 -5.01029e-12
-3.00463e-11 -5.01029e-12 86.4347

97.8232 -5.04542 3.84944e-12
-5.04542 92.2912 4.42805e-11
3.84944e-12 4.42805e-11 95.3139

87.0061 6.99707 -1.67439e-11
6.99707 86.0941 -4.62049e-11
-1.67439e-11 -4.62049e-11 87.3691

96.7324 -6.13293 -4.23802e-12
-6.13293 91.0635 -2.81035e-11
-4.23802e-12 -2.81035e-11 94.4901

37.7267 4.10244 1.54695e-12
4.10244 37.9141 3.82509e-13
1.54695e-12 3.82509e-13 39.8336

37.7522 3.78752 -3.01508e-11
3.78752 38.4324 5.79936e-11
-3.01508e-11 5.79936e-11 39.8773

79.5662 6.63058 -1.80959e-11
6.63058 77.9041 1.92357e-12
-1.80959e-11 1.92357e-12 79.5883

87.3037 -5.47958 2.59927e-11
-5.47958 85.2438 -1.9259e-11
2.59927e-11 -1.9259e-11 85.8614

96.9777 4.28822 -3.08014e-11
4.28822 100.06 -6.43037e-11
-3.08014e-11 -6.43037e-11 97.9361

93.7671 -1.38495 2.50378e-11
-1.38495 100.744 -7.21971e-11
2.50378e-11 -7.21971e-11 94.3645

83.2002 5.57897 2.84908e-11
5.57897 88.9586 2.04164e-11
2.84908e-11 2.04164e-11 87.7641

100.042 -6.34479 1.23066e-11
-6.34479 96.2979 5.10185e-11
1.23066e-11 5.10185e-11 98.4382

95.9011 5.00629 2.61868e-11
5.00629 85.9275 -9.2429e-12
2.61868e-11 -9.2429e-12 90.9036

99.7411 -3.2511 -3.35078e-11
-3.2511 85.6371 2.23258e-11
-3.35078e-11 2.23258e-11 94.4662

81.3709 6.73701 -1.9739e-12
6.73701 87.5853 -4.96808e-11
-1.9739e-12 -4.96808e-11 84.1223

78.0671 -5.65048 8.85891e-12
-5.65048 82.5579 -2.07911e-11
8.85891e-12 -2.07911e-11 82.9777

95.5738 4.09717 2.57928e-11
4.09717 105.303 4.79424e-11
2.57928e-11 4.79424e-11 98.5632

95.7408 4.74065 8.92997e-12
4.74065 97.2199 7.04679e-11
8.92997e-12 7.04679e-11 94.7516

97.8681 -8.44145 3.80547e-12
-8.44145 97.6267 -1.11651e-11
3.80547e-12 -1.11651e-11 95.3235

92.4434 -1.15084 -3.11809e-11
-1.15084 106.499 -5.39876e-12
-3.11809e-11 -5.39876e-12 95.5703

102.757 4.96583 1.57878e-11
4.96583 95.6882 2.07971e-11
1.57878e-11 2.07971e-11 95.638

109.894 1.0537 7.12195e-11
1.0537 102.034 1.52337e-12
7.12195e-11 1.52337e-12 99.0608

105.417 -4.58268 6.23859e-11
-4.58268 91.7558 -3.64227e-12
6.23859e-11 -3.64227e-12 98.4604

111.123 -1.50701 -1.19479e-11
-1.50701 97.0393 1.8878e-11
-1.19479e-11 1.8878e-11 101.979

101.797 5.83302 1.45951e-10
5.83302 106.797 1.18599e-10
1.45951e-10 1.18599e-10 97.9795

120.183 -1.16686 -1.60523e-10
-1.16686 116.953 4.60491e-12
-1.60523e-10 4.60491e-12 104.607

118.081 -4.08291 3.70982e-10
-4.08291 102.25 7.16648e-10
3.70982e-10 7.16648e-10 106.548

114.109 -5.02147 2.21528e-10
-5.02147 101.823 -5.13514e-10
2.21528e-10 -5.13514e-10 105.77

103.12 5.61108 -5.00505e-11
5.61108 97.862 -1.233e-11
-5.00505e-11 -1.233e-11 96.0765

95.4143 2.50841 3.61998e-11
2.50841 93.3589 1.15579e-11
3.61998e-11 1.15579e-11 92.5126

107.679 2.80783 -3.69734e-11
2.80783 111.618 3.96465e-11
-3.69734e-11 3.96465e-11 100.693

112.372 -3.93786 -4.15894e-11
-3.93786 99.3429 4.21475e-11
-4.15894e-11 4.21475e-11 104.176

112.429 -4.68872 -4.46712e-11
-4.68872 101.434 4.21444e-11
-4.46712e-11 4.21444e-11 104.776

104.909 -3.21285 -7.70473e-12
-3.21285 99.1039 1.75176e-11
-7.70473e-12 1.75176e-11 101.219

96.4314 6.53547 4.88922e-11
6.53547 93.8232 3.54401e-11
4.88922e-11 3.54401e-11 93.2052

104.229 3.16339 2.73238e-11
3.16339 97.9446 8.70241e-11
2.73238e-11 8.70241e-11 96.5171

104.115 -4.92871 -2.46484e-11
-4.92871 95.0004 2.23264e-11
-2.46484e-11 2.23264e-11 99.5282

107.819 -2.90152 -3.54254e-11
-2.90152 97.3394 7.11749e-12
-3.54254e-11 7.11749e-12 101.353

105.119 0.530237 1.92435e-12
0.530237 105.384 -1.56894e-11
1.92435e-12 -1.56894e-11 106.635

112.337 -0.281833 -3.946e-11
-0.281833 110.298 -9.24228e-12
-3.946e-11 -9.24228e-12 110.588

109.39 1.00989 -2.50271e-11
1.00989 106.211 -2.97394e-11
-2.50271e-11 -2.97394e-11 107.613

103.734 -1.05019 -3.21498e-11
-1.05019 99.5769 3.04507e-12
-3.21498e-11 3.04507e-12 104.208

104.526 0.17924 5.39037e-12
0.17924 101.48 6.79953e-12
5.39037e-12 6.79953e-12 105.158

112.781 -1.50072 1.96898e-13
-1.50072 111.105 -3.04127e-11
1.96898e-13 -3.04127e-11 110.767

108.796 2.69278 -2.75265e-11
2.69278 105.472 1.73287e-12
-2.75265e-11 1.73287e-12 107.091

104.557 -0.253387 -1.09732e-11
-0.253387 100.985 3.05613e-11
-1.09732e-11 3.05613e-11 105.038

103.007 1.21175 1.29958e-11
1.21175 95.5451 4.42818e-12
1.29958e-11 4.42818e-12 101.17

106.989 0.253779 2.34833e-11
0.253779 106.126 -3.47946e-11
2.34833e-11 -3.47946e-11 107.873

107.097 -0.236403 4.61988e-12
-0.236403 106.326 3.85257e-13
4.61988e-12 3.85257e-13 107.966

110.975 0.141079 3.11832e-11
0.141079 111.881 -2.43738e-11
3.11832e-11 -2.43738e-11 111.667

110.733 -1.5303 1.77129e-11
-1.5303 103.645 6.75719e-13
1.77129e-11 6.75719e-13 106.104

115.187 0.107832 -3.11832e-11
0.107832 112.671 -1.08733e-11
-3.11832e-11 -1.08733e-11 111.77

104.734 1.98845 -3.83527e-13
1.98845 104.046 1.50149e-11
-3.83527e-13 1.50149e-11 105.931

102.793 2.81921 -4.40904e-11
2.81921 102.969 -5.58264e-11
-4.40904e-11 -5.58264e-11 104.192

109.45 -2.66705 -5.00503e-12
-2.66705 106.158 3.46539e-12
-5.00503e-12 3.46539e-12 107.762

112.252 1.39476 -3.50327e-11
1.39476 110.783 -1.92367e-12
-3.50327e-11 -1.92367e-12 110.409

113.462 0.076273 2.79099e-11
0.076273 114.74 -2.9182e-11
2.79099e-11 -2.9182e-11 113.785

106.997 0.270745 1.69394e-11
0.270745 107.756 9.54537e-14
1.69394e-11 9.54537e-14 108.413

107.023 -0.304782 7.70014e-12
-0.304782 107.839 -3.51303e-12
7.70014e-12 -3.51303e-12 108.456

111.229 -0.322518 -2.31e-12
-0.322518 112.758 1.68423e-12
-2.31e-12 1.68423e-12 112.167

104.834 0.887789 6.4474e-12
0.887789 104.232 -2.10792e-11
6.4474e-12 -2.10792e-11 106.15

104.49 0.72471 -2.61811e-11
0.72471 102.208 7.09808e-12
-2.61811e-11 7.09808e-12 105.643

103.353 0.696103 -2.52189e-11
0.696103 103.768 -2.02075e-12
-2.52189e-11 -2.02075e-12 105.409

111.278 -0.471271 1.07804e-11
-0.471271 111.057 -1.42435e-11
1.07804e-11 -1.42435e-11 111.23

104.166 0.881344 -2.90694e-11
0.881344 99.6518 1.5311e-11
-2.90694e-11 1.5311e-11 104.218

106.848 0.155129 2.1173e-11
0.155129 107.488 -6.69418e-11
2.1173e-11 -6.69418e-11 108.34

103.329 -1.19702 -1.03958e-11
-1.19702 95.5594 -5.04282e-13
-1.03958e-11 -5.04282e-13 102.206

110.138 -0.31961 3.11838e-11
-0.31961 111.173 -3.98216e-11
3.11838e-11 -3.98216e-11 111.136

114.059 -0.267505 -2.46365e-11
-0.267505 109.81 -1.15515e-11
-2.46365e-11 -1.15515e-11 110.033

113.787 0.399749 7.7004e-12
0.399749 108.511 -5.8036e-13
7.7004e-12 -5.8036e-13 109.567

107.918 -1.34912 1.55927e-11
-1.34912 105.874 -1.06847e-11
1.55927e-11 -1.06847e-11 105.674

107.969 1.35666 -4.67779e-11
1.35666 106.021 -2.51232e-11
-4.67779e-11 -2.51232e-11 105.725

105.511 -0.312179 -1.80957e-11
-0.312179 103.719 2.51453e-11
-1.80957e-11 2.51453e-11 106.429

102.466 0.251666 -2.30957e-12
0.251666 103.016 1.03463e-11
-2.30957e-12 1.03463e-11 104.687

103.552 -2.1613 -3.04163e-11
-2.1613 103.572 -6.25409e-12
-3.04163e-11 -6.25409e-12 104.658

103.42 2.29183 -8.85558e-12
2.29183 103.621 1.27052e-11
-8.85558e-12 1.27052e-11 104.623

103.147 -1.05601 1.40545e-11
-1.05601 95.2175 2.17769e-11
1.40545e-11 2.17769e-11 100.751

111.133 -0.602191 -1.15493e-11
-0.602191 112.519 5.96723e-12
-1.15493e-11 5.96723e-12 111.767

104.543 0.0189773 3.08e-12
0.0189773 103.599 1.00343e-11
3.08e-12 1.00343e-11 105.947

102.833 0.917275 8.08635e-12
0.917275 94.8491 -9.61301e-12
8.08635e-12 -9.61301e-12 100.776

104.929 -0.825319 -9.24129e-12
-0.825319 104.416 2.25231e-11
-9.24129e-12 2.25231e-11 106.246

105.035 -0.542823 1.9634e-11
-0.542823 105.44 2.8395e-11
1.9634e-11 2.8395e-11 106.626

113.072 -1.14655 1.73246e-11
-1.14655 112.385 1.44489e-12
1.73246e-11 1.44489e-12 111.993

105.21 0.0436697 -3.17624e-11
0.0436697 103.82 -2.67099e-11
-3.17624e-11 -2.67099e-11 106.381

107.286 0.444428 4.58146e-11
0.444428 107.185 3.16174e-11
4.58146e-11 3.16174e-11 108.555

108.9 0.574431 3.11829e-11
0.574431 109.378 -2.15466e-11
3.11829e-11 -2.15466e-11 110.058

105.389 -4.21045 5.13972e-11
-4.21045 100.243 1.53099e-11
5.13972e-11 1.53099e-11 103.598

108.798 -0.235195 1.69389e-11
-0.235195 109.535 2.58067e-11
1.69389e-11 2.58067e-11 109.969

106.669 0.258363 3.46497e-12
0.258363 106.954 8.37342e-12
3.46497e-12 8.37342e-12 108.113

116.028 0.765114 3.34925e-11
0.765114 116.587 2.90635e-11
3.34925e-11 2.90635e-11 115.273

116.025 -0.762108 -2.88716e-11
-0.762108 116.588 1.15513e-12
-2.88716e-11 1.15513e-12 115.271

114.074 -0.308549 -1.42438e-11
-0.308549 115.228 2.21552e-11
-1.42438e-11 2.21552e-11 114.203

115.962 0.332792 1.00082e-11
0.332792 116.914 -4.67253e-11
1.00082e-11 -4.67253e-11 115.387

115.96 -0.331317 -5.85139e-11
-0.331317 116.913 3.05075e-11
-5.85139e-11 3.05075e-11 115.385

111.436 -0.946831 1.0009e-11
-0.946831 112.046 1.03949e-11
1.0009e-11 1.03949e-11 111.519

105.537 -1.76124 -5.23621e-11
-1.76124 101.766 2.01164e-11
-5.23621e-11 2.01164e-11 103.439

105.537 1.81819 -1.65556e-11
1.81819 101.775 -6.25611e-12
-1.65556e-11 -6.25611e-12 103.45

114.575 0.442602 2.73321e-11
0.442602 115.79 -4.81478e-13
2.73321e-11 -4.81478e-13 114.498

114.575 -0.443313 1.46288e-11
-0.443313 115.798 -1.49128e-12
1.46288e-11 -1.49128e-12 114.499

105.66 0.290119 -2.88804e-12
0.290119 104.561 3.10407e-11
-2.88804e-12 3.10407e-11 106.924

110.599 2.51186 -2.30068e-12
2.51186 106.302 3.00264e-11
-2.30068e-12 3.00264e-11 106.38

117.371 -2.03485 -8.46956e-12
-2.03485 114.852 1.55918e-11
-8.46956e-12 1.55918e-11 112.346

111.135 0.590917 -1.88644e-11
0.590917 112.557 -1.57845e-11
-1.88644e-11 -1.57845e-11 111.787

106.877 -0.279829 2.04047e-11
-0.279829 107.694 -6.80882e-12
2.04047e-11 -6.80882e-12 108.458

106.39 -0.411172 1.84798e-11
-0.411172 105.779 1.56828e-11
1.84798e-11 1.56828e-11 107.524

111.48 -0.947141 -1.92492e-11
-0.947141 112.069 6.25488e-12
-1.92492e-11 6.25488e-12 111.183

106.386 2.5699 -3.47037e-12
2.5699 103.746 -5.7462e-11
-3.47037e-12 -5.7462e-11 106.038

119.308 0.534733 1.074e-10
0.534733 120.063 4.09943e-11
1.074e-10 4.09943e-11 117.123

119.304 -0.530851 1.13175e-10
-0.530851 120.053 -1.72858e-12
1.13175e-10 -1.72858e-12 117.12

103.418 3.44465 1.73278e-11
3.44465 100.138 1.20304e-11
1.73278e-11 1.20304e-11 102.313

114.044 0.208446 7.69857e-12
0.208446 115.319 -1.75644e-11
7.69857e-12 -1.75644e-11 114.18

114.05 -0.205604 -5.00479e-12
-0.205604 115.357 2.49751e-11
-5.00479e-12 2.49751e-11 114.196

99.2334 1.65716 -1.86772e-11
1.65716 101.986 -1.87702e-11
-1.86772e-11 -1.87702e-11 102.639

113.545 1.15716 2.11716e-11
1.15716 113.654 -2.71426e-11
2.11716e-11 -2.71426e-11 111.978

105.26 0.307701 -7.31521e-12
0.307701 103.594 1.25607e-11
-7.31521e-12 1.25607e-11 106.364

104.945 -0.52183 -1.73252e-12
-0.52183 102.103 2.83459e-11
-1.73252e-12 2.83459e-11 105.75

102.916 -2.56934 -3.96578e-11
-2.56934 99.4919 5.53626e-12
-3.96578e-11 5.53626e-12 103.476

104.113 2.81544 6.81439e-11
2.81544 107.91 3.02321e-11
6.81439e-11 3.02321e-11 105.136

104.167 -2.93807 -4.62009e-11
-2.93807 107.633 -1.56871e-11
-4.62009e-11 -1.56871e-11 105.075

105.67 0.477861 2.19438e-11
0.477861 105.692 -2.38707e-11
2.19438e-11 -2.38707e-11 107.177

103.513 0.703231 -2.17534e-11
0.703231 102.219 -4.47616e-12
-2.17534e-11 -4.47616e-12 105.207

113.523 -0.573248 1.1543e-12
-0.573248 114.623 2.28579e-11
1.1543e-12 2.28579e-11 113.743

116.691 -0.040844 -9.39333e-11
-0.040844 115.851 8.45891e-12
-9.39333e-11 8.45891e-12 111.96

117.275 2.12185 5.73837e-11
2.12185 107.616 5.90816e-11
5.73837e-11 5.90816e-11 109.169

102.821 2.70985 -6.35264e-12
2.70985 99.7487 -4.08115e-11
-6.35264e-12 -4.08115e-11 103.492

110.006 -0.866634 5.29229e-12
-0.866634 107.134 2.56032e-11
5.29229e-12 2.56032e-11 108.327

111.786 0.262862 -2.32916e-11
0.262862 109.725 -1.04906e-11
-2.32916e-11 -1.04906e-11 110.144

114.456 -0.00121749 -1.27037e-11
-0.00121749 115.808 1.01776e-11
-1.27037e-11 1.01776e-11 114.568

114.476 0.0128588 -1.77084e-11
0.0128588 115.808 2.58409e-11
-1.77084e-11 2.58409e-11 114.579

110.802 0.554419 6.35041e-12
0.554419 111.875 -5.55336e-11
6.35041e-12 -5.55336e-11 111.612

112.742 -0.352696 -1.53986e-11
-0.352696 114.101 -2.75631e-11
-1.53986e-11 -2.75631e-11 113.268

115.211 0.219042 2.48295e-11
0.219042 116.286 -5.83944e-11
2.48295e-11 -5.83944e-11 114.988

115.213 -0.214864 -2.50211e-11
-0.214864 116.287 -3.0292e-11
-2.50211e-11 -3.0292e-11 114.989

113.477 0.579145 -2.31005e-12
0.579145 114.615 3.22397e-12
-2.31005e-12 3.22397e-12 113.727

111.262 0.427979 1.96346e-11
0.427979 111.093 9.91161e-12
1.96346e-11 9.91161e-12 111.238

114.681 0.545652 1.9244e-12
0.545652 115.626 -1.52543e-11
1.9244e-12 -1.52543e-11 114.579

114.719 -0.528965 -2.96418e-11
-0.528965 115.631 1.68361e-13
-2.96418e-11 1.68361e-13 114.595

103.818 1.16519 -6.9301e-12
1.16519 99.4475 -2.20892e-11
-6.9301e-12 -2.20892e-11 104.112

114.273 -0.683559 -1.3472e-11
-0.683559 114.242 -2.97393e-11
-1.3472e-11 -2.97393e-11 113.466

104.757 0.202868 -1.8674e-11
0.202868 103.815 -2.82012e-11
-1.8674e-11 -2.82012e-11 106.065

99.5666 2.68053 1.54158e-12
2.68053 100.772 2.66622e-11
1.54158e-12 2.66622e-11 101.22

113.669 -0.717975 6.16128e-12
-0.717975 113.629 -1.12599e-11
6.16128e-12 -1.12599e-11 112.463

112.182 0.110827 -1.61687e-11
0.110827 113.387 -3.4768e-11
-1.61687e-11 -3.4768e-11 112.754

102.13 1.64295 3.08979e-11
1.64295 100.721 -1.32814e-11
3.08979e-11 -1.32814e-11 104.179

103.912 -0.925093 -2.1947e-11
-0.925093 100.021 -6.39992e-12
-2.1947e-11 -6.39992e-12 104.361

104.774 -0.194937 -8.08537e-12
-0.194937 104.277 -4.66822e-12
-8.08537e-12 -4.66822e-12 106.438

103.28 -0.671634 -8.08617e-12
-0.671634 102.325 -2.59396e-11
-8.08617e-12 -2.59396e-11 105.213

108.977 1.78645 7.31393e-12
1.78645 107.543 -1.87696e-11
7.31393e-12 -1.87696e-11 108.709

109.66 -1.6134 3.85858e-13
-1.6134 108.378 -4.71576e-12
3.85858e-13 -4.71576e-12 109.201

110.911 -0.127425 -1.31853e-11
-0.127425 112.01 5.68447e-11
-1.31853e-11 5.68447e-11 111.712

99.0573 -1.76456 1.15481e-11
-1.76456 101.985 1.98294e-11
1.15481e-11 1.98294e-11 102.56

111.087 0.174515 -1.69374e-11
0.174515 111.667 4.2155e-11
-1.69374e-11 4.2155e-11 111.535

111.028 -0.170762 -1.57821e-11
-0.170762 111.588 -4.83153e-11
-1.57821e-11 -4.83153e-11 111.488

103.574 0.793004 1.00107e-11
0.793004 102.187 -6.78532e-12
1.00107e-11 -6.78532e-12 104.928

102.052 2.25388 1.32851e-11
2.25388 92.6708 3.21008e-11
1.32851e-11 3.21008e-11 99.6518

102.074 -1.94864 -1.32833e-11
-1.94864 92.6509 -4.75981e-11
-1.32833e-11 -4.75981e-11 99.6429

107.561 0.96995 5.77512e-12
0.96995 106.22 -5.10152e-12
5.77512e-12 -5.10152e-12 107.958

103.13 -0.608634 -3.85064e-12
-0.608634 103.846 4.62005e-12
-3.85064e-12 4.62005e-12 105.401

108.487 0.771681 -1.42438e-11
0.771681 108.496 1.28487e-11
-1.42438e-11 1.28487e-11 109.297

108.578 -0.755901 3.27252e-11
-0.755901 108.535 -2.27127e-11
3.27252e-11 -2.27127e-11 109.338

111.531 0.0514854 4.23455e-12
0.0514854 112.195 -6.24392e-12
4.23455e-12 -6.24392e-12 112.046

110.665 -0.552647 2.92563e-11
-0.552647 111.796 6.47733e-11
2.92563e-11 6.47733e-11 111.543

111.6 0.0709514 1.5394e-12
0.0709514 112.821 -9.48038e-12
1.5394e-12 -9.48038e-12 112.236

122.841 0.810344 -6.00614e-11
0.810344 116.009 4.09901e-11
-6.00614e-11 4.09901e-11 112.845

122.27 -4.03677 -8.00618e-11
-4.03677 113.42 6.87345e-11
-8.00618e-11 6.87345e-11 111.481

112.314 -0.0483002 1.92488e-12
-0.0483002 113.428 2.83919e-11
1.92488e-12 2.83919e-11 112.814

112.62 -0.375001 -4.23435e-12
-0.375001 112.97 3.27321e-12
-4.23435e-12 3.27321e-12 112.224

114.014 0.317692 -2.57926e-11
0.317692 115.21 -7.17298e-12
-2.57926e-11 -7.17298e-12 114.181

107.524 -0.932254 2.69414e-12
-0.932254 106.297 2.58905e-11
2.69414e-12 2.58905e-11 107.943

114.906 -1.80015 7.69588e-13
-1.80015 113.619 1.65544e-11
7.69588e-13 1.65544e-11 112.41

101.709 4.76813 4.73695e-15
4.76813 99.2987 2.16552e-11
4.73695e-15 2.16552e-11 101.551

114.33 0.747224 4.61796e-12
0.747224 114.246 -2.78141e-11
4.61796e-12 -2.78141e-11 113.486

114.188 -0.877224 -1.84803e-11
-0.877224 114.572 4.05177e-11
-1.84803e-11 4.05177e-11 113.491

103.741 1.61451 -6.15563e-12
1.61451 103.27 3.56131e-11
-6.15563e-12 3.56131e-11 104.631

114.701 -0.00906152 3.04116e-11
-0.00906152 116.359 1.81428e-11
3.04116e-11 1.81428e-11 114.83

111.614 -0.0545116 -4.54266e-11
-0.0545116 112.631 -1.4293e-11
-4.54266e-11 -1.4293e-11 112.172

99.3883 -2.68253 -2.88895e-12
-2.68253 100.811 -8.85484e-12
-2.88895e-12 -8.85484e-12 101.169

111.575 -0.605507 -5.27399e-11
-0.605507 113.018 -4.38404e-11
-5.27399e-11 -4.38404e-11 112.23

105.397 -0.303959 1.15497e-11
-0.303959 105.833 9.96225e-12
1.15497e-11 9.96225e-12 107.216

102.653 -0.332195 -1.54206e-12
-0.332195 103.01 2.92601e-11
-1.54206e-12 2.92601e-11 104.708

109.564 0.226292 -5.00607e-12
0.226292 109.345 -2.13193e-11
-5.00607e-12 -2.13193e-11 109.993

109.571 -0.249782 2.31197e-12
-0.249782 109.308 -4.01345e-11
2.31197e-12 -4.01345e-11 109.98

111.313 0.28955 4.23483e-12
0.28955 112.93 3.02928e-11
4.23483e-12 3.02928e-11 112.258

111.579 0.621843 -3.84964e-11
0.621843 112.964 3.02691e-11
-3.84964e-11 3.02691e-11 112.223

109.579 -0.364491 1.07764e-11
-0.364491 108.611 4.65845e-11
1.07764e-11 4.65845e-11 109.318

109.391 0.431788 -1.6554e-11
0.431788 108.4 5.96699e-12
-1.6554e-11 5.96699e-12 109.126

110.117 -0.0619151 1.61684e-11
-0.0619151 110.833 -2.36293e-11
1.61684e-11 -2.36293e-11 110.866

110.093 0.0486072 2.77172e-11
0.0486072 110.926 5.31285e-11
2.77172e-11 5.31285e-11 110.877

115.059 0.179918 4.0036e-11
0.179918 116.039 3.52001e-11
4.0036e-11 3.52001e-11 114.843

115.069 -0.171301 -1.15488e-11
-0.171301 116.041 2.76932e-11
-1.15488e-11 2.76932e-11 114.847

113.052 -1.00385 2.69481e-11
-1.00385 113.809 7.60451e-12
2.69481e-11 7.60451e-12 112.832

100.824 -4.33325 1.02055e-11
-4.33325 99.4169 -7.98635e-12
1.02055e-11 -7.98635e-12 101.011

100.592 0.0607987 -2.9645e-11
0.0607987 102.49 1.54982e-11
-2.9645e-11 1.54982e-11 104.051

105.721 0.160385 3.04152e-11
0.160385 105.617 2.08376e-11
3.04152e-11 2.08376e-11 107.237

109.505 -0.444939 2.46395e-11
-0.444939 110.525 -1.09709e-11
2.46395e-11 -1.09709e-11 110.302

115.53 0.632494 1.46282e-11
0.632494 116.09 -1.55915e-11
1.46282e-11 -1.55915e-11 114.983

115.532 -0.628117 -7.42967e-11
-0.628117 116.095 1.58711e-12
-7.42967e-11 1.58711e-12 114.984

114.086 0.782682 3.11818e-11
0.782682 115.032 -5.0054e-12
3.11818e-11 -5.0054e-12 114.065

114.081 -0.78606 8.4696e-12
-0.78606 115.035 -1.00089e-11
8.4696e-12 -1.00089e-11 114.065

107.796 -0.118631 2.50242e-11
-0.118631 108.683 5.0265e-11
2.50242e-11 5.0265e-11 109.197

109.893 -0.0781841 1.61689e-11
-0.0781841 110.654 -4.8965e-11
1.61689e-11 -4.8965e-11 110.786

109.502 0.514189 -1.73248e-11
0.514189 110.556 -9.43155e-12
-1.73248e-11 -9.43155e-12 110.304

117.501 0.0392023 -5.31255e-11
0.0392023 118.065 -9.95094e-11
-5.31255e-11 -9.95094e-11 116.21

117.498 -0.0377506 -2.34816e-11
-0.0377506 118.059 5.00475e-12
-2.34816e-11 5.00475e-12 116.207

112.999 -0.68848 4.88894e-11
-0.68848 113.936 3.77285e-11
4.88894e-11 3.77285e-11 113.179

105.927 -0.280092 6.5451e-11
-0.280092 104.321 1.25841e-11
6.5451e-11 1.25841e-11 106.923

112.738 0.362732 -7.69801e-13
0.362732 114.112 4.92488e-12
-7.69801e-13 4.92488e-12 113.271

106.68 -2.35316 4.23532e-12
-2.35316 104.988 8.56808e-12
4.23532e-12 8.56808e-12 106.633

111.482 1.18583 2.50264e-11
1.18583 111.043 2.38664e-11
2.50264e-11 2.38664e-11 110.828

104.817 0.153401 -2.50225e-12
0.153401 104.933 1.29922e-12
-2.50225e-12 1.29922e-12 106.639

114.259 0.87108 3.07955e-11
0.87108 114.564 -2.50234e-11
3.07955e-11 -2.50234e-11 113.511

112.952 0.704397 -3.88836e-11
0.704397 113.939 -4.66776e-11
-3.88836e-11 -4.66776e-11 113.165

96.7965 4.29042 1.55941e-11
4.29042 98.5516 1.99274e-11
1.55941e-11 1.99274e-11 99.4046

115.524 -0.0528069 -2.46377e-11
-0.0528069 113.401 5.67645e-12
-2.46377e-11 5.67645e-12 112.086

110.34 2.14159 3.4713e-12
2.14159 102.171 1.7704e-11
3.4713e-12 1.7704e-11 105.408

113.04 1.04308 9.23878e-12
1.04308 113.817 -1.71315e-11
9.23878e-12 -1.71315e-11 112.842

101.565 2.07715 -2.88902e-12
2.07715 102.508 2.50148e-12
-2.88902e-12 2.50148e-12 103.804

104.476 -0.255631 -9.62545e-12
-0.255631 103.75 -4.57173e-12
-9.62545e-12 -4.57173e-12 106.102

114.887 -1.31677 3.15707e-11
-1.31677 113.869 -3.08924e-11
3.15707e-11 -3.08924e-11 113.144

104.893 -2.04585 -4.62099e-12
-2.04585 104.084 1.51123e-11
-4.62099e-12 1.51123e-11 105.923

107.279 1.39303 -4.23311e-12
1.39303 106.996 1.74205e-11
-4.23311e-12 1.74205e-11 108.076

113.35 -0.365137 -4.1961e-11
-0.365137 114.655 -4.62009e-12
-4.1961e-11 -4.62009e-12 113.565

109.997 -1.0203 2.00176e-11
-1.0203 109.559 2.80086e-11
2.00176e-11 2.80086e-11 110.037

115.373 1.56579 -1.73218e-11
1.56579 113.583 9.71981e-12
-1.73218e-11 9.71981e-12 112.578

106.765 0.173302 2.0403e-11
0.173302 106.874 1.03348e-10
2.0403e-11 1.03348e-10 108.206

106.664 -0.0938246 -4.00403e-11
-0.0938246 105.97 1.11767e-11
-4.00403e-11 1.11767e-11 107.839

113.355 0.369489 -5.65899e-11
0.369489 114.655 5.78781e-13
-5.65899e-11 5.78781e-13 113.567

113.457 -0.0508487 1.56874e-11
-0.0508487 114.752 1.77412e-12
1.56874e-11 1.77412e-12 113.781

119.392 0.378693 1.03167e-10
0.378693 119.047 4.37862e-11
1.03167e-10 4.37862e-11 116.922

119.388 -0.374628 3.19516e-11
-0.374628 119.041 2.49265e-11
3.19516e-11 2.49265e-11 116.919

112.684 0.449427 -2.31036e-12
0.449427 112.944 -1.87678e-11
-2.31036e-12 -1.87678e-11 112.233

102.494 -2.47441 -1.73256e-11
-2.47441 104.167 -5.61147e-11
-1.73256e-11 -5.61147e-11 104.36

102.481 2.51808 2.05978e-11
2.51808 104.29 -3.77298e-11
2.05978e-11 -3.77298e-11 104.386

104.236 -0.324838 -1.36681e-11
-0.324838 98.1403 1.43296e-11
-1.36681e-11 1.43296e-11 103.247

96.6583 -4.22539 -4.29283e-11
-4.22539 98.641 -3.05163e-11
-4.29283e-11 -3.05163e-11 99.3505

109.618 0.251914 -2.71409e-11
0.251914 110.456 -2.12706e-11
-2.71409e-11 -2.12706e-11 110.593

106.704 0.0194221 1.03949e-11
0.0194221 105.91 1.83108e-11
1.03949e-11 1.83108e-11 107.815

109.243 0.48155 -1.34713e-12
0.48155 109.795 2.27139e-11
-1.34713e-12 2.27139e-11 110.2

109.297 -0.490745 -1.73337e-12
-0.490745 109.81 3.25796e-11
-1.73337e-12 3.25796e-11 110.244

110.533 0.216515 1.69388e-11
0.216515 111.188 1.1116e-11
1.69388e-11 1.1116e-11 111.26

114.913 1.27068 2.96434e-11
1.27068 113.905 -2.9849e-12
2.96434e-11 -2.9849e-12 113.154

107.788 0.438084 4.73532e-11
0.438084 107.938 -3.36395e-11
4.73532e-11 -3.36395e-11 108.956

110.437 0.126017 5.00451e-12
0.126017 110.923 -8.10868e-12
5.00451e-12 -8.10868e-12 111.145

110.818 -1.48099 2.1565e-11
-1.48099 105.69 -2.55976e-11
2.1565e-11 -2.55976e-11 106.523

117.078 1.60574 1.4627e-11
1.60574 113.226 -2.0213e-11
1.4627e-11 -2.0213e-11 112.039

104.061 -1.75948 -1.09727e-11
-1.75948 101.112 1.69404e-11
-1.09727e-11 1.69404e-11 104.231

101.563 -0.293852 3.08057e-11
-0.293852 90.484 7.89841e-12
3.08057e-11 7.89841e-12 98.3652

109.894 -0.649485 3.85227e-12
-0.649485 110.899 -5.03368e-11
3.85227e-12 -5.03368e-11 110.759

109.901 0.642292 3.07976e-12
0.642292 110.978 7.16984e-12
3.07976e-12 7.16984e-12 110.796

103.887 -0.223174 -7.89339e-12
-0.223174 96.8098 2.05695e-11
-7.89339e-12 2.05695e-11 102.848

111.428 0.984362 1.50136e-11
0.984362 112.129 -1.28022e-11
1.50136e-11 -1.28022e-11 111.517

116.477 0.592831 -9.9704e-11
0.592831 117.265 -7.69796e-12
-9.9704e-11 -7.69796e-12 115.723

116.477 -0.589699 2.38681e-11
-0.589699 117.262 -2.08831e-11
2.38681e-11 -2.08831e-11 115.722

102.868 -0.671503 2.17516e-11
-0.671503 103.039 -3.13797e-11
2.17516e-11 -3.13797e-11 104.767

101.447 -2.12043 2.50033e-12
-2.12043 102.473 1.79033e-11
2.50033e-12 1.79033e-11 103.755

103.439 -1.8504 -1.88663e-11
-1.8504 98.7682 1.92032e-11
-1.88663e-11 1.92032e-11 103.465

105.648 0.050541 -6.16089e-12
0.050541 104.236 -2.55543e-11
-6.16089e-12 -2.55543e-11 106.783

103.424 -1.57827 4.04055e-12
-1.57827 103.272 2.63742e-11
4.04055e-12 2.63742e-11 104.535

107.008 -0.339425 -1.65546e-11
-0.339425 107.013 -2.54095e-11
-1.65546e-11 -2.54095e-11 108.449

107.278 -1.31047 -1.61726e-11
-1.31047 107.283 3.72488e-11
-1.61726e-11 3.72488e-11 108.169

109.944 0.997101 -3.46469e-12
0.997101 109.105 -2.89232e-13
-3.46469e-12 -2.89232e-13 109.878

114.941 -1.54887 -4.81185e-11
-1.54887 111.441 -6.74095e-12
-4.81185e-11 -6.74095e-12 110.399

113.979 1.12387 5.39054e-12
1.12387 110.911 -1.90573e-11
5.39054e-12 -1.90573e-11 109.946

115.216 0.0339925 9.23927e-12
0.0339925 116.609 4.04209e-11
9.23927e-12 4.04209e-11 115.131

115.203 -0.0366708 -1.88627e-11
-0.0366708 116.602 -4.18685e-12
-1.88627e-11 -4.18685e-12 115.128

101.276 -1.15072 6.69913e-11
-1.15072 102.331 -2.3104e-11
6.69913e-11 -2.3104e-11 104.075

101.12 1.21017 7.50664e-12
1.21017 102.462 3.69623e-11
7.50664e-12 3.69623e-11 104.028

101.3 -0.617103 -2.67568e-11
-0.617103 104.462 -3.75281e-12
-2.67568e-11 -3.75281e-12 103.475

101.251 0.688836 1.94423e-11
0.688836 104.39 1.47283e-11
1.94423e-11 1.47283e-11 103.443

118.424 0.0354018 1.38613e-11
0.0354018 118.745 1.15005e-10
1.38613e-11 1.15005e-10 116.597

118.42 -0.0330025 -4.35004e-11
-0.0330025 118.738 6.11109e-11
-4.35004e-11 6.11109e-11 116.595

115.607 0.847137 -4.23421e-12
0.847137 114.947 1.37624e-11
-4.23421e-12 1.37624e-11 114.256

115.604 -0.856617 6.12052e-11
-0.856617 114.962 7.56468e-11
6.12052e-11 7.56468e-11 114.259

112.76 -0.184446 3.61864e-11
-0.184446 114.248 9.15771e-13
3.61864e-11 9.15771e-13 113.271

107.426 -0.93799 1.15489e-12
-0.93799 105.744 9.14497e-12
1.15489e-12 9.14497e-12 107.202

111.038 0.216759 -7.31702e-12
0.216759 110.865 -2.99323e-11
-7.31702e-12 -2.99323e-11 110.766

105.831 -0.438639 1.54016e-11
-0.438639 104.777 -5.35145e-11
1.54016e-11 -5.35145e-11 106.978

112.766 0.196415 -1.73232e-11
0.196415 114.25 2.73332e-11
-1.73232e-11 2.73332e-11 113.268

106.989 0.778495 -4.33005e-12
0.778495 106.043 9.23833e-12
-4.33005e-12 9.23833e-12 107.182

112.096 -0.325812 3.8111e-11
-0.325812 113.55 2.00197e-11
3.8111e-11 2.00197e-11 112.68

95.6946 -2.68785 1.17416e-11
-2.68785 100.179 -5.77353e-12
1.17416e-11 -5.77353e-12 99.9147

95.7235 2.69681 9.24087e-12
2.69681 100.108 8.66544e-12
9.24087e-12 8.66544e-12 99.9117

112.065 0.335714 -1.23198e-11
0.335714 113.529 -2.14141e-11
-1.23198e-11 -2.14141e-11 112.663

103.882 1.98586 -1.53962e-12
1.98586 101.147 -6.27081e-11
-1.53962e-12 -6.27081e-11 104.149

122.771 0.44982 4.58125e-11
0.44982 106.305 -5.62143e-13
4.58125e-11 -5.62143e-13 109.844

122.603 -0.954502 1.35886e-10
-0.954502 118.869 -4.35216e-11
1.35886e-10 -4.35216e-11 113.496

113.24 0.428418 2.07903e-11
0.428418 112.176 7.88966e-12
2.07903e-11 7.88966e-12 111.705

102.174 -1.52679 1.48227e-11
-1.52679 100.771 -2.69037e-11
1.48227e-11 -2.69037e-11 104.262

103.98 -2.90174 -3.50379e-11
-2.90174 99.6906 -1.05815e-12
-3.50379e-11 -1.05815e-12 102.741

109.428 -0.16162 -1.57847e-11
-0.16162 109.793 -7.60332e-12
-1.57847e-11 -7.60332e-12 110.307

109.507 0.048147 -1.69392e-11
0.048147 110.867 2.80078e-11
-1.69392e-11 2.80078e-11 110.754

115.968 0.315018 -3.65714e-11
0.315018 116.5 -3.95782e-11
-3.65714e-11 -3.95782e-11 115.323

115.976 -0.300924 3.0802e-12
-0.300924 116.496 -2.47579e-11
3.0802e-12 -2.47579e-11 115.323

104.034 2.89783 1.73295e-12
2.89783 99.8366 -2.87317e-11
1.73295e-12 -2.87317e-11 102.784

111.176 -0.305786 -2.85139e-11
-0.305786 110.805 1.84779e-11
-2.85139e-11 1.84779e-11 110.845

112.156 -0.581062 -2.53107e-11
-0.581062 113.52 -3.5129e-11
-2.53107e-11 -3.5129e-11 112.774

114.62 0.887568 1.77081e-11
0.887568 115.465 -5.19725e-12
1.77081e-11 -5.19725e-12 114.361

114.62 -0.885314 5.00453e-12
-0.885314 115.47 2.5989e-12
5.00453e-12 2.5989e-12 114.361

106.325 -4.2561 7.39228e-11
-4.2561 104.136 -1.51094e-12
7.39228e-11 -1.51094e-12 104.816

106.22 4.33458 -5.00544e-11
4.33458 104.159 -4.02553e-11
-5.00544e-11 -4.02553e-11 104.801

113.054 1.26641 -5.77218e-12
1.26641 113.13 2.41565e-11
-5.77218e-12 2.41565e-11 112.223

103.945 -0.537808 -3.98498e-11
-0.537808 102.377 -2.43024e-11
-3.98498e-11 -2.43024e-11 105.107

115.313 0.667425 4.13728e-12
0.667425 116.551 -9.19085e-12
4.13728e-12 -9.19085e-12 115.115

115.317 -0.664989 -9.23815e-12
-0.664989 116.55 -2.43007e-11
-9.23815e-12 -2.43007e-11 115.115

106.8 -1.87538 1.9254e-11
-1.87538 103.655 -2.2425e-11
1.9254e-11 -2.2425e-11 105.37

102.317 -3.63139 -1.48176e-11
-3.63139 99.8445 -4.46648e-11
-1.48176e-11 -4.46648e-11 101.63

108.487 -0.52578 -4.23488e-11
-0.52578 109.298 -5.53436e-12
-4.23488e-11 -5.53436e-12 109.867

99.3066 0.254734 3.23436e-11
0.254734 103.714 9.05028e-12
3.23436e-11 9.05028e-12 102.602

99.2487 -0.255591 1.28963e-11
-0.255591 103.677 3.59041e-11
1.28963e-11 3.59041e-11 102.576

102.072 -3.58888 -3.40676e-11
-3.58888 101.383 -5.01484e-11
-3.40676e-11 -5.01484e-11 103.311

112.227 0.582301 -7.7003e-12
0.582301 113.494 -2.99799e-11
-7.7003e-12 -2.99799e-11 112.803

102.829 0.715441 3.97512e-11
0.715441 103.092 1.7905e-11
3.97512e-11 1.7905e-11 104.719

100.203 0.223708 3.3306e-11
0.223708 102.874 2.47379e-11
3.3306e-11 2.47379e-11 103.437

100.096 -0.265846 -1.48224e-11
-0.265846 102.935 2.02272e-12
-1.48224e-11 2.02272e-12 103.41

103.087 2.2716 -2.88788e-12
2.2716 98.141 -5.91942e-12
-2.88788e-12 -5.91942e-12 103.179

116.122 0.424773 -5.23526e-11
0.424773 117.352 4.19614e-11
-5.23526e-11 4.19614e-11 115.661

116.124 -0.421344 3.65681e-11
-0.421344 117.344 6.68876e-11
3.65681e-11 6.68876e-11 115.659

117.263 -0.101706 1.19328e-11
-0.101706 114.307 1.0785e-11
1.19328e-11 1.0785e-11 110.921

117.028 2.04834 -4.88802e-11
2.04834 114.409 6.52578e-11
-4.88802e-11 6.52578e-11 111.351

108.01 0.144777 -4.50441e-11
0.144777 108.888 5.91434e-11
-4.50441e-11 5.91434e-11 109.358

107.522 -0.0916619 -3.85007e-13
-0.0916619 106.007 -2.57224e-11
-3.85007e-13 -2.57224e-11 107.973

114.162 0.827379 -2.15587e-11
0.827379 115.156 -2.79104e-12
-2.15587e-11 -2.79104e-12 113.933

114.177 -0.823994 -4.50378e-11
-0.823994 115.159 -6.14034e-11
-4.50378e-11 -6.14034e-11 113.937

113.659 0.911206 -9.23759e-12
0.911206 113.679 9.04622e-12
-9.23759e-12 9.04622e-12 112.557

108.608 0.207096 -4.1964e-11
0.207096 109.195 -6.80915e-12
-4.1964e-11 -6.80915e-12 109.748

109.842 -0.0763571 3.61881e-11
-0.0763571 109.841 -2.28344e-11
3.61881e-11 -2.28344e-11 110.53

118.864 -0.464052 2.1559e-11
-0.464052 119.691 -2.78118e-11
2.1559e-11 -2.78118e-11 116.975

118.869 0.467816 8.85553e-12
0.467816 119.696 8.54588e-11
8.85553e-12 8.54588e-11 116.977

100.424 -0.0781863 4.13887e-11
-0.0781863 102.365 -1.72967e-12
4.13887e-11 -1.72967e-12 103.942

112.558 0.633091 5.69762e-11
0.633091 112.943 5.86923e-12
5.69762e-11 5.86923e-12 112.51

114.237 0.558985 3.46527e-12
0.558985 114.942 1.5014e-11
3.46527e-12 1.5014e-11 113.918

114.237 -0.555253 -3.61874e-11
-0.555253 114.946 2.22317e-11
-3.61874e-11 2.22317e-11 113.919

112.811 0.399386 -1.80921e-11
0.399386 113.812 3.10867e-11
-1.80921e-11 3.10867e-11 112.898

112.552 -0.602677 4.77355e-11
-0.602677 112.911 3.03186e-11
4.77355e-11 3.03186e-11 112.499

108.283 -0.0327981 -4.92787e-11
-0.0327981 109.185 -5.19655e-12
-4.92787e-11 -5.19655e-12 109.52

108.356 -0.0431851 2.04039e-11
-0.0431851 109.368 1.24649e-11
2.04039e-11 1.24649e-11 109.605

110.462 -0.154987 -1.84791e-11
-0.154987 111.824 -2.81519e-11
-1.84791e-11 -2.81519e-11 111.484

112.793 -0.389675 1.34737e-11
-0.389675 113.815 4.52498e-12
1.34737e-11 4.52498e-12 112.892

108.092 -0.39647 -6.15944e-12
-0.39647 108.087 -2.05008e-11
-6.15944e-12 -2.05008e-11 109.127

106.12 0.22977 2.96448e-11
0.22977 105.501 2.85168e-12
2.96448e-11 2.85168e-12 107.398

115.229 0.76806 3.38774e-11
0.76806 115.469 1.17401e-11
3.38774e-11 1.17401e-11 114.489

115.23 -0.772057 6.93077e-12
-0.772057 115.47 -2.73318e-11
6.93077e-12 -2.73318e-11 114.489

115.208 0.517789 8.47021e-12
0.517789 116.237 2.82942e-11
8.47021e-12 2.82942e-11 114.805

115.209 -0.515383 -1.53849e-12
-0.515383 116.24 -2.43488e-11
-1.53849e-12 -2.43488e-11 114.805

107.247 -0.402481 -1.71334e-11
-0.402481 107.961 8.71048e-11
-1.71334e-11 8.71048e-11 108.784

106.955 -0.362437 -3.81144e-11
-0.362437 106.943 -1.17187e-11
-3.81144e-11 -1.17187e-11 108.174

113.431 -0.880464 -1.30904e-11
-0.880464 114.452 3.56095e-11
-1.30904e-11 3.56095e-11 113.463

113.424 0.88879 -3.50305e-11
0.88879 114.44 3.33011e-11
-3.50305e-11 3.33011e-11 113.459

115.425 -0.496489 -2.34802e-11
-0.496489 106.946 -3.79236e-11
-2.34802e-11 -3.79236e-11 108.969

115.964 -0.0441451 -6.42883e-11
-0.0441451 113.081 1.63673e-11
-6.42883e-11 1.63673e-11 111.252

115.559 0.537763 1.54121e-12
0.537763 116.145 3.35873e-11
1.54121e-12 3.35873e-11 114.79

115.581 -0.526414 4.11901e-11
-0.526414 116.141 1.18393e-11
4.11901e-11 1.18393e-11 114.793

116.347 0.282383 -2.73314e-11
0.282383 117.116 3.64755e-11
-2.73314e-11 3.64755e-11 115.625

116.347 -0.281547 2.04019e-11
-0.281547 117.112 1.91045e-11
2.04019e-11 1.91045e-11 115.623

101.004 -0.641311 2.27143e-11
-0.641311 103.141 3.47501e-11
2.27143e-11 3.47501e-11 103.6

101.168 0.645204 -4.08111e-11
0.645204 103.079 5.10399e-12
-4.08111e-11 5.10399e-12 103.657

111.523 -3.60284 -1.00065e-11
-3.60284 106.637 -6.54584e-12
-1.00065e-11 -6.54584e-12 106.516

101.941 0.18013 -3.27706e-12
0.18013 105.116 6.40101e-11
-3.27706e-12 6.40101e-11 103.467

117.374 0.102498 1.65526e-11
0.102498 118.09 3.3876e-11
1.65526e-11 3.3876e-11 116.212

118.556 -0.322154 4.35004e-11
-0.322154 118.468 1.00101e-11
4.35004e-11 1.00101e-11 116.612

117.373 -0.100331 1.84777e-11
-0.100331 118.1 -1.78051e-11
1.84777e-11 -1.78051e-11 116.215

118.559 0.324192 -7.42979e-11
0.324192 118.474 -1.0076e-10
-7.42979e-11 -1.0076e-10 116.614

117.551 2.19635 1.34682e-11
2.19635 115.992 -4.5811e-11
1.34682e-11 -4.5811e-11 112.514

101.962 -0.15827 3.02258e-11
-0.15827 105.091 5.18813e-11
3.02258e-11 5.18813e-11 103.466

118.256 -0.00108063 -9.31556e-11
-0.00108063 118.255 -1.93486e-11
-9.31556e-11 -1.93486e-11 116.341

119.851 -0.341271 1.23954e-10
-0.341271 119.427 7.37219e-11
1.23954e-10 7.37219e-11 117.105

119.852 0.34388 2.35967e-10
0.34388 119.434 -1.06258e-10
2.35967e-10 -1.06258e-10 117.107

118.265 0.00558103 -3.29137e-10
0.00558103 118.26 8.1426e-11
-3.29137e-10 8.1426e-11 116.344

117.981 -0.226271 -2.96413e-11
-0.226271 117.47 -1.94402e-11
-2.96413e-11 -1.94402e-11 116.06

116.578 -0.834323 6.23636e-11
-0.834323 116.571 -5.0982e-12
6.23636e-11 -5.0982e-12 115.395

118.419 -0.24851 -4.19595e-11
-0.24851 119.322 2.48289e-11
-4.19595e-11 2.48289e-11 116.731

117.987 0.231927 4.65779e-11
0.231927 117.475 -5.63004e-11
4.65779e-11 -5.63004e-11 116.062

118.424 0.250916 7.9686e-11
0.250916 119.329 4.24388e-11
7.9686e-11 4.24388e-11 116.734

116.582 0.839344 -4.08061e-11
0.839344 116.577 1.93165e-13
-4.08061e-11 1.93165e-13 115.398

116.913 0.28829 -3.84933e-11
0.28829 117.359 6.24598e-11
-3.84933e-11 6.24598e-11 115.754

117.577 0.578591 -3.15633e-11
0.578591 117.737 7.73763e-11
-3.15633e-11 7.73763e-11 116.146

116.909 -0.286568 2.11715e-11
-0.286568 117.356 6.10171e-11
2.11715e-11 6.10171e-11 115.752

117.575 -0.574734 4.00339e-11
-0.574734 117.733 6.7946e-11
4.00339e-11 6.7946e-11 116.144

65.9647 3.99088 2.30682e-12
3.99088 74.9782 4.85333e-11
2.30682e-12 4.85333e-11 69.8421

87.726 0.645848 6.54506e-12
0.645848 90.9067 2.9265e-11
6.54506e-12 2.9265e-11 88.3469

75.3006 1.12541 5.96863e-12
1.12541 87.1123 2.11823e-11
5.96863e-12 2.11823e-11 81.9415

79.9933 2.0473 -2.89388e-11
2.0473 67.564 -4.15886e-11
-2.89388e-11 -4.15886e-11 73.8346

76.8093 0.588239 1.50229e-11
0.588239 64.6554 -1.19441e-11
1.50229e-11 -1.19441e-11 69.4702

89.4686 -0.444834 7.31859e-12
-0.444834 94.12 2.79125e-12
7.31859e-12 2.79125e-12 92.8149

77.1292 1.70895 -1.11679e-11
1.70895 92.6807 2.96552e-11
-1.11679e-11 2.96552e-11 86.298

77.7034 -0.567018 4.8613e-12
-0.567018 66.5029 3.62039e-11
4.8613e-12 3.62039e-11 70.3139

89.8198 0.461974 1.71168e-11
0.461974 75.1089 -1.54247e-12
1.71168e-11 -1.54247e-12 83.0399

54.0008 3.58303 -3.20736e-11
3.58303 61.8141 -1.42553e-11
-3.20736e-11 -1.42553e-11 56.4748

56.6258 -5.79473 2.56184e-11
-5.79473 62.8356 1.52136e-11
2.56184e-11 1.52136e-11 56.9874

63.3766 3.60899 1.81088e-11
3.60899 55.9234 2.31093e-11
1.81088e-11 2.31093e-11 57.7201

90.8721 -6.61383 2.05038e-11
-6.61383 94.9011 -1.02082e-11
2.05038e-11 -1.02082e-11 92.1458

86.0203 -2.3121 -2.56134e-11
-2.3121 92.5775 1.15538e-11
-2.56134e-11 1.15538e-11 88.9731

67.4365 3.43016 7.71087e-13
3.43016 78.218 1.88719e-11
7.71087e-13 1.88719e-11 74.0184

72.0181 3.97972 -1.16558e-11
3.97972 84.3454 -2.92707e-11
-1.16558e-11 -2.92707e-11 80.6413

76.8936 -1.89344 3.88894e-11
-1.89344 92.7773 -3.46819e-12
3.88894e-11 -3.46819e-12 86.0879

85.8522 -4.95235 1.94416e-11
-4.95235 92.5708 -2.38773e-11
1.94416e-11 -2.38773e-11 89.9893

80.9753 -3.52746 -3.56287e-11
-3.52746 69.6821 1.29068e-11
-3.56287e-11 1.29068e-11 76.4258

58.0042 1.13194 -3.6309e-11
1.13194 68.987 -2.35024e-11
-3.6309e-11 -2.35024e-11 61.3566

62.3792 -2.26029 2.90818e-11
-2.26029 70.4352 -8.2867e-12
2.90818e-11 -8.2867e-12 63.1724

69.2579 0.848914 -1.02115e-11
0.848914 60.5975 -1.48304e-11
-1.02115e-11 -1.48304e-11 62.2775

66.3113 4.6256 1.67502e-11
4.6256 71.8035 1.57943e-11
1.67502e-11 1.57943e-11 69.0246

72.2773 -3.17947 1.37739e-11
-3.17947 62.4648 8.67021e-12
1.37739e-11 8.67021e-12 65.7283

73.2327 5.08021 2.91761e-11
5.08021 74.1865 2.86951e-11
2.91761e-11 2.86951e-11 73.8331

76.3726 3.59855 -3.21535e-11
3.59855 78.9147 2.65783e-11
-3.21535e-11 2.65783e-11 75.3042

81.8289 -1.08824 6.49858e-12
-1.08824 68.276 3.19608e-11
6.49858e-12 3.19608e-11 74.8564

51.4992 2.43058 -1.92446e-12
2.43058 57.1002 2.30719e-12
-1.92446e-12 2.30719e-12 51.452

86.6362 1.21842 4.06368e-11
1.21842 73.08 2.04059e-11
4.06368e-11 2.04059e-11 80.9276

57.3472 2.26674 -1.53991e-11
2.26674 53.2676 8.85181e-12
-1.53991e-11 8.85181e-12 52.4319

94.4521 -2.2546 1.52117e-11
-2.2546 96.5539 -1.51178e-11
1.52117e-11 -1.51178e-11 94.6955

86.5544 0.286817 2.69506e-11
0.286817 95.3391 1.07804e-11
2.69506e-11 1.07804e-11 89.768

100.701 -2.41656 -3.10942e-11
-2.41656 96.6393 4.42994e-12
-3.10942e-11 4.42994e-12 96.0218

97.9844 5.84687 6.23346e-12
5.84687 98.5968 2.38772e-11
6.23346e-12 2.38772e-11 95.9425

67.6578 -1.5422 1.76169e-11
-1.5422 59.1583 1.13718e-11
1.76169e-11 1.13718e-11 60.1809

73.5432 5.38903 1.95464e-11
5.38903 77.0159 2.157e-11
1.95464e-11 2.157e-11 77.0382

88.4193 3.08147 -1.23575e-11
3.08147 87.4885 -1.42543e-11
-1.23575e-11 -1.42543e-11 88.5918

91.0509 -0.868508 1.77367e-11
-0.868508 89.8295 3.11908e-11
1.77367e-11 3.11908e-11 89.7939

89.923 0.465858 -2.67153e-12
0.465858 74.235 -1.00134e-11
-2.67153e-12 -1.00134e-11 83.0535

73.5075 5.07675 5.96123e-12
5.07675 77.4181 -3.31245e-11
5.96123e-12 -3.31245e-11 73.934

73.54 -4.02379 -5.2931e-12
-4.02379 68.3296 1.03968e-11
-5.2931e-12 1.03968e-11 68.2963

88.9349 -0.0477306 1.75227e-11
-0.0477306 71.9791 -8.08759e-12
1.75227e-11 -8.08759e-12 81.3321

69.1946 -6.92013 -9.15083e-12
-6.92013 75.7346 1.52152e-11
-9.15083e-12 1.52152e-11 70.3049

70.845 -6.03324 -3.56074e-12
-6.03324 77.4735 -2.02249e-11
-3.56074e-12 -2.02249e-11 71.7663

88.236 3.05431 -2.8689e-11
3.05431 90.7455 7.506e-12
-2.8689e-11 7.506e-12 89.4469

68.0149 -6.92825 -2.84025e-11
-6.92825 65.8833 -2.42665e-11
-2.84025e-11 -2.42665e-11 64.414

41.5371 -6.90547 1.83008e-11
-6.90547 41.0088 -8.47922e-12
1.83008e-11 -8.47922e-12 41.0188

41.1572 -7.31802 -3.15981e-11
-7.31802 43.0606 -4.43031e-11
-3.15981e-11 -4.43031e-11 41.7045

83.6941 -8.03798 5.87252e-12
-8.03798 92.2833 -1.6174e-11
5.87252e-12 -1.6174e-11 88.4318

41.6258 -2.73273 -1.15811e-12
-2.73273 41.0563 1.79174e-11
-1.15811e-12 1.79174e-11 42.7697

39.935 -2.23891 -6.35714e-12
-2.23891 41.4412 -3.85314e-12
-6.35714e-12 -3.85314e-12 42.0652

100.418 3.4916 -4.58192e-11
3.4916 93.4307 -1.57823e-11
-4.58192e-11 -1.57823e-11 96.8972

93.9455 -4.62023 -3.85093e-11
-4.62023 89.0509 4.65957e-11
-3.85093e-11 4.65957e-11 90.6289

83.5362 -2.41283 -2.17559e-11
-2.41283 71.6492 1.42494e-11
-2.17559e-11 1.42494e-11 79.8592

98.9667 4.69955 -8.24126e-11
4.69955 89.5451 -1.7701e-11
-8.24126e-11 -1.7701e-11 95.2368

93.1149 -6.48028 -1.77111e-11
-6.48028 88.3176 -3.35018e-11
-1.77111e-11 -3.35018e-11 90.3271

78.2917 3.55226 -4.40983e-11
3.55226 83.6748 2.12704e-12
-4.40983e-11 2.12704e-12 80.3126

98.9498 -2.24306 -2.97483e-11
-2.24306 91.9997 -2.59346e-11
-2.97483e-11 -2.59346e-11 93.9375

95.6245 3.01559 -6.12501e-11
3.01559 93.6939 -2.86572e-11
-6.12501e-11 -2.86572e-11 93.6735

92.1354 5.50377 5.25768e-11
5.50377 84.7365 3.57543e-11
5.25768e-11 3.57543e-11 89.4045

85.727 -6.99909 5.58324e-12
-6.99909 80.9495 -1.60821e-11
5.58324e-12 -1.60821e-11 84.3663

60.7586 -4.78114 -1.50241e-11
-4.78114 54.195 6.35632e-12
-1.50241e-11 6.35632e-12 55.1679

99.8052 -1.36655 9.99201e-16
-1.36655 103.671 -8.85758e-12
9.99201e-16 -8.85758e-12 101.474

91.7467 -0.224415 -2.8491e-11
-0.224415 103.875 -1.65562e-11
-2.8491e-11 -1.65562e-11 94.5953

66.3716 -5.8454 1.11734e-11
-5.8454 72.2195 5.1996e-11
1.11734e-11 5.1996e-11 69.4267

49.7213 -2.01518 4.18032e-11
-2.01518 55.6366 2.09914e-11
4.18032e-11 2.09914e-11 50.4671

54.5792 -1.88563 -2.21603e-11
-1.88563 49.0264 6.35255e-12
-2.21603e-11 6.35255e-12 49.6325

82.7188 2.26458 1.44423e-11
2.26458 88.7323 1.59829e-11
1.44423e-11 1.59829e-11 85.893

70.4372 3.41139 3.85058e-11
3.41139 83.4363 -2.27274e-11
3.85058e-11 -2.27274e-11 78.9725

115.635 4.45263 2.96016e-11
4.45263 102.663 -2.75648e-11
2.96016e-11 -2.75648e-11 105.677

114.774 1.32311 -4.12012e-11
1.32311 119.356 -7.8533e-11
-4.12012e-11 -7.8533e-11 103.966

74.2554 5.13249 3.13817e-11
5.13249 81.9565 -2.31274e-12
3.13817e-11 -2.31274e-12 82.1618

87.2049 4.06166 2.15761e-11
4.06166 76.7689 2.3291e-11
2.15761e-11 2.3291e-11 83.3325

83.6143 -6.18371 4.19845e-11
-6.18371 74.8855 -7.78044e-13
4.19845e-11 -7.78044e-13 80.552

75.471 7.04402 -2.78243e-11
7.04402 81.2633 6.16196e-12
-2.78243e-11 6.16196e-12 81.7535

76.6828 -5.35611 -5.52602e-11
-5.35611 88.2587 -1.27051e-11
-5.52602e-11 -1.27051e-11 85.0701

66.4654 -0.507861 -7.0283e-12
-0.507861 55.9719 -1.07832e-11
-7.0283e-12 -1.07832e-11 58.9056

78.096 -2.0495 2.96583e-11
-2.0495 66.7236 -1.98347e-11
2.96583e-11 -1.98347e-11 71.9906

71.3048 2.51605 -1.80086e-11
2.51605 61.6706 -1.15575e-11
-1.80086e-11 -1.15575e-11 64.6786

87.2177 2.79291 -6.68917e-12
2.79291 81.8126 1.42485e-11
-6.68917e-12 1.42485e-11 86.1811

90.774 1.90176 -6.26863e-11
1.90176 103.284 4.04362e-11
-6.26863e-11 4.04362e-11 95.8593

97.3316 -1.40045 7.72029e-11
-1.40045 98.1129 5.66806e-13
7.72029e-11 5.66806e-13 96.0789

61.6128 4.04144 2.87622e-13
4.04144 63.9509 -2.94723e-11
2.87622e-13 -2.94723e-11 60.1045

74.8653 -5.19534 1.29005e-11
-5.19534 72.7995 -1.96451e-11
1.29005e-11 -1.96451e-11 73.027

83.3883 2.8119 -2.88948e-11
2.8119 74.4245 -4.44734e-11
-2.88948e-11 -4.44734e-11 79.2611

96.8199 3.13304 5.0633e-11
3.13304 107.067 8.07421e-12
5.0633e-11 8.07421e-12 96.8918

98.8746 -2.09849 -7.68084e-11
-2.09849 102.963 -7.8928e-12
-7.68084e-11 -7.8928e-12 100.799

89.4652 -0.767145 3.01336e-11
-0.767145 82.639 -4.29362e-11
3.01336e-11 -4.29362e-11 87.1799

84.6333 -4.04129 2.24322e-11
-4.04129 89.737 -1.34831e-11
2.24322e-11 -1.34831e-11 86.0418

75.1207 -1.30701 2.51304e-11
-1.30701 87.4713 -2.31104e-12
2.51304e-11 -2.31104e-12 81.8543

87.7089 0.896129 -3.08183e-12
0.896129 72.8991 4.23572e-12
-3.08183e-12 4.23572e-12 83.6064

86.5165 -2.81707 -3.08119e-11
-2.81707 72.507 7.31793e-12
-3.08119e-11 7.31793e-12 82.6044

63.5611 -5.74069 3.90354e-13
-5.74069 61.109 1.23191e-11
3.90354e-13 1.23191e-11 59.8713

93.0309 3.54296 2.16102e-11
3.54296 79.0389 6.53788e-12
2.16102e-11 6.53788e-12 88.808

90.1589 -5.51021 -1.90617e-11
-5.51021 79.0971 -5.77297e-12
-1.90617e-11 -5.77297e-12 86.2486

81.2262 -4.90765 -2.23349e-11
-4.90765 71.7946 2.30976e-11
-2.23349e-11 2.30976e-11 76.9676

67.4308 -4.8888 3.2685e-12
-4.8888 75.374 2.07971e-11
3.2685e-12 2.07971e-11 70.7478

88.3694 2.13115 2.30142e-12
2.13115 78.067 -2.88817e-11
2.30142e-12 -2.88817e-11 85.4856

86.8339 -3.95257 -9.23965e-12
-3.95257 76.3985 -2.74365e-11
-9.23965e-12 -2.74365e-11 83.4055

82.6393 -1.29359 2.9465e-11
-1.29359 73.3853 -3.19656e-11
2.9465e-11 -3.19656e-11 77.3227

92.9995 6.16133 4.5823e-11
6.16133 89.9488 -3.27834e-12
4.5823e-11 -3.27834e-12 91.7234

70.7066 4.08706 2.04111e-11
4.08706 67.9286 2.73499e-11
2.04111e-11 2.73499e-11 67.6458

74.8039 6.12174 1.82441e-11
6.12174 80.364 9.24284e-12
1.82441e-11 9.24284e-12 82.327

91.0952 4.55163 -4.31267e-11
4.55163 94.4463 -9.04972e-12
-4.31267e-11 -9.04972e-12 93.7332

74.5391 2.27414 5.12309e-11
2.27414 63.657 1.23173e-11
5.12309e-11 1.23173e-11 68.1468

81.4188 -3.04722 -6.25944e-13
-3.04722 77.71 1.63638e-11
-6.25944e-13 1.63638e-11 80.403

80.5176 1.90367 1.84945e-11
1.90367 71.6516 6.85554e-11
1.84945e-11 6.85554e-11 75.7638

64.3123 4.89282 1.51229e-11
4.89282 66.0759 1.04004e-11
1.51229e-11 1.04004e-11 64.5299

72.023 4.62186 1.34808e-11
4.62186 69.8926 2.73486e-11
1.34808e-11 2.73486e-11 71.5525

69.2279 0.0546103 1.96404e-11
0.0546103 85.2436 3.65878e-11
1.96404e-11 3.65878e-11 78.5944

78.6467 -1.99287 -1.96391e-11
-1.99287 86.6559 1.44446e-11
-1.96391e-11 1.44446e-11 82.9493

61.8833 -5.7629 1.17574e-11
-5.7629 55.373 -5.00887e-11
1.17574e-11 -5.00887e-11 57.1521

79.2755 -7.86012 -3.41653e-12
-7.86012 86.7671 -3.42765e-11
-3.41653e-12 -3.42765e-11 83.5127

65.4496 -6.93298 -1.5398e-11
-6.93298 69.0005 1.92612e-11
-1.5398e-11 1.92612e-11 65.6596

71.6334 5.62468 4.22847e-12
5.62468 71.8113 -7.37648e-11
4.22847e-12 -7.37648e-11 69.0518

81.0909 -2.5697 3.89981e-11
-2.5697 75.168 -3.41818e-11
3.89981e-11 -3.41818e-11 77.0174

91.8042 -0.200453 -5.58165e-12
-0.200453 76.4812 7.70114e-12
-5.58165e-12 7.70114e-12 85.76

90.1421 0.825625 -5.58598e-12
0.825625 77.0515 -2.96504e-11
-5.58598e-12 -2.96504e-11 85.378

60.7579 2.57855 1.20399e-11
2.57855 72.482 3.50549e-11
1.20399e-11 3.50549e-11 66.1614

75.497 -6.1931 4.13714e-12
-6.1931 77.5884 3.85277e-12
4.13714e-12 3.85277e-12 74.9311

53.0117 -0.849724 1.42462e-11
-0.849724 66.2524 -2.58213e-11
1.42462e-11 -2.58213e-11 58.3471

57.7963 -1.07653 -7.89248e-12
-1.07653 68.5077 1.46437e-11
-7.89248e-12 1.46437e-11 60.6694

66.036 -1.42415 -1.54083e-11
-1.42415 54.5934 2.30596e-12
-1.54083e-11 2.30596e-12 58.8105

65.8332 4.09576 2.23503e-11
4.09576 64.0815 8.74395e-11
2.23503e-11 8.74395e-11 61.7726

67.6936 -7.11303 1.38747e-11
-7.11303 63.8001 -3.39012e-11
1.38747e-11 -3.39012e-11 65.0515

113.324 -1.68768 1.18386e-10
-1.68768 113.663 -1.85005e-11
1.18386e-10 -1.85005e-11 102.206

98.6502 -6.40647 -4.63922e-11
-6.40647 106.578 -2.46336e-11
-4.63922e-11 -2.46336e-11 102.106

73.0891 -4.21237 1.21315e-11
-4.21237 62.9232 -1.69455e-11
1.21315e-11 -1.69455e-11 67.3558

84.9984 5.6905 -5.0054e-12
5.6905 86.8855 3.84803e-12
-5.0054e-12 3.84803e-12 85.5198

84.1147 0.378876 -1.42482e-11
0.378876 72.0982 1.54034e-11
-1.42482e-11 1.54034e-11 80.3068

66.9737 -5.16207 4.35214e-11
-5.16207 75.7973 -2.38867e-11
4.35214e-11 -2.38867e-11 69.0178

74.5939 5.37237 -6.74646e-13
5.37237 88.281 3.081e-11
-6.74646e-13 3.081e-11 84.9368

94.571 2.23483 -2.3293e-11
2.23483 97.7362 -2.79166e-11
-2.3293e-11 -2.79166e-11 97.0788

77.6568 -7.31923 -2.2149e-11
-7.31923 80.9729 -1.92574e-11
-2.2149e-11 -1.92574e-11 82.072

93.7979 5.47891 2.73367e-11
5.47891 94.4844 -6.93075e-12
2.73367e-11 -6.93075e-12 94.9314

70.49 4.3409 -1.82824e-12
4.3409 79.6131 2.61934e-11
-1.82824e-12 2.61934e-11 77.4585

87.8932 -0.517306 -7.32022e-12
-0.517306 67.1575 -3.92791e-11
-7.32022e-12 -3.92791e-11 83.4029

71.9306 5.3541 -2.11885e-11
5.3541 66.1916 1.67539e-11
-2.11885e-11 1.67539e-11 67.4086

80.3172 -8.31707 -1.24205e-11
-8.31707 90.1902 2.73461e-11
-1.24205e-11 2.73461e-11 85.0943

73.8056 4.8197 -2.73386e-11
4.8197 72.5674 4.42061e-12
-2.73386e-11 4.42061e-12 71.0646

61.6797 -4.73066 -6.06367e-12
-4.73066 64.5283 1.56043e-11
-6.06367e-12 1.56043e-11 59.6661

76.5619 -6.80925 1.06086e-12
-6.80925 81.938 2.2916e-11
1.06086e-12 2.2916e-11 78.6915

59.3542 -3.07307 -3.85617e-13
-3.07307 69.85 -2.4269e-11
-3.85617e-13 -2.4269e-11 62.5748

65.7392 1.17252 -5.43053e-11
1.17252 72.1575 2.54259e-11
-5.43053e-11 2.54259e-11 65.5202

68.5247 -2.89314 1.82877e-11
-2.89314 60.2865 -3.5444e-11
1.82877e-11 -3.5444e-11 62.3384

68.895 -6.20381 2.46598e-11
-6.20381 67.9764 4.27497e-11
2.46598e-11 4.27497e-11 67.3825

67.1737 -0.294029 1.81021e-11
-0.294029 80.1237 1.07823e-11
1.81021e-11 1.07823e-11 73.1706

76.6879 -1.11325 -2.25329e-11
-1.11325 82.9067 -3.58162e-11
-2.25329e-11 -3.58162e-11 77.3809

56.7907 -6.20766 1.92483e-12
-6.20766 60.5937 -1.07871e-11
1.92483e-12 -1.07871e-11 56.8212

61.5697 4.60266 1.90724e-11
4.60266 63.0884 4.02503e-11
1.90724e-11 4.02503e-11 59.5277

86.3001 0.0220083 3.8903e-11
0.0220083 73.2238 1.84482e-13
3.8903e-11 1.84482e-13 84.6368

85.6153 -1.101 2.69644e-12
-1.101 73.4439 -1.88725e-11
2.69644e-12 -1.88725e-11 83.8689

86.77 4.9734 5.39391e-12
4.9734 88.0443 -1.54299e-12
5.39391e-12 -1.54299e-12 86.9826

82.9915 -8.21627 -1.85805e-11
-8.21627 92.2856 -1.07829e-11
-1.85805e-11 -1.07829e-11 87.9866

77.4743 5.63768 -4.98218e-11
5.63768 78.407 1.55903e-11
-4.98218e-11 1.55903e-11 79.9408

58.26 2.59089 -9.56124e-13
2.59089 52.47 1.11634e-11
-9.56124e-13 1.11634e-11 53.2385

69.0731 3.09487 -2.81033e-11
3.09487 76.5071 5.16184e-11
-2.81033e-11 5.16184e-11 70.7569

95.6009 2.85703 -4.85148e-11
2.85703 86.1131 3.67692e-11
-4.85148e-11 3.67692e-11 91.8964

91.043 -4.98205 -4.35232e-11
-4.98205 82.7088 -9.91651e-12
-4.35232e-11 -9.91651e-12 87.3431

88.6838 4.07311 -2.38748e-11
4.07311 82.0613 5.18104e-16
-2.38748e-11 5.18104e-16 85.6379

84.3138 -5.88743 2.56106e-11
-5.88743 77.3915 7.63759e-13
2.56106e-11 7.63759e-13 81.3268

37.8024 -2.94468 -2.40836e-11
-2.94468 32.2916 2.73557e-11
-2.40836e-11 2.73557e-11 39.8717

32.184 -3.4453 2.96586e-11
-3.4453 39.1288 -6.10729e-11
2.96586e-11 -6.10729e-11 40.4717

61.3384 -3.91017 -5.77527e-12
-3.91017 73.1679 1.92599e-11
-5.77527e-12 1.92599e-11 66.9652

106.424 4.67146 2.31704e-12
4.67146 93.9523 1.46237e-11
2.31704e-12 1.46237e-11 99.7057

102.956 -6.60654 -8.86084e-12
-6.60654 96.894 4.65983e-11
-8.86084e-12 4.65983e-11 95.9304

81.9954 4.73679 -3.00477e-11
4.73679 77.3688 -2.86847e-11
-3.00477e-11 -2.86847e-11 78.8871

58.7846 1.91353 -1.14622e-11
1.91353 51.9051 1.11645e-11
-1.14622e-11 1.11645e-11 53.172

78.0906 -5.70652 8.66647e-12
-5.70652 87.0305 -7.51221e-12
8.66647e-12 -7.51221e-12 82.4018

71.0603 -2.73977 1.34767e-11
-2.73977 85.266 -2.1575e-11
1.34767e-11 -2.1575e-11 79.5032

66.8173 -6.7971 -2.40089e-12
-6.7971 68.5963 5.29625e-11
-2.40089e-12 5.29625e-11 65.2927

76.2245 -5.50398 -2.56134e-11
-5.50398 80.698 -1.88684e-11
-2.56134e-11 -1.88684e-11 82.5515

77.2119 -6.39606 -7.2413e-11
-6.39606 72.612 2.35082e-11
-7.2413e-11 2.35082e-11 74.7635

70.3865 8.32969 -3.87468e-13
8.32969 82.0186 -5.77638e-12
-3.87468e-13 -5.77638e-12 81.6035

95.5037 2.02795 -1.73211e-12
2.02795 97.9801 -1.17474e-11
-1.73211e-12 -1.17474e-11 97.2245

86.3182 3.49329 -2.11801e-11
3.49329 91.6823 1.42486e-11
-2.11801e-11 1.42486e-11 89.0033

75.4113 -6.12704 -3.40862e-11
-6.12704 78.6184 4.23817e-12
-3.40862e-11 4.23817e-12 78.9767

74.0082 5.98017 2.21471e-11
5.98017 78.8713 -9.62748e-12
2.21471e-11 -9.62748e-12 78.6767

68.9892 3.9797 -1.40619e-11
3.9797 61.8378 -1.57933e-11
-1.40619e-11 -1.57933e-11 63.8763

77.9324 -0.0111406 4.06411e-11
-0.0111406 67.7052 1.17395e-11
4.06411e-11 1.17395e-11 72.5578

96.0619 4.12592 1.98249e-11
4.12592 95.8236 -3.63867e-11
1.98249e-11 -3.63867e-11 96.3089

72.8869 -6.61762 8.9545e-12
-6.61762 82.4025 -2.34956e-11
8.9545e-12 -2.34956e-11 76.6516

63.6202 1.00406 1.53994e-11
1.00406 78.0349 -1.88733e-11
1.53994e-11 -1.88733e-11 70.796

85.6657 6.18368 -2.79184e-11
6.18368 80.2675 -5.20776e-12
-2.79184e-11 -5.20776e-12 83.1161

73.3642 0.172234 4.99963e-12
0.172234 81.0095 -5.14227e-11
4.99963e-12 -5.14227e-11 75.5977

74.3785 -4.61012 -1.25168e-11
-4.61012 87.3091 -4.54428e-11
-1.25168e-11 -4.54428e-11 84.524

47.3462 -3.89398 4.00732e-11
-3.89398 49.5879 2.83074e-11
4.00732e-11 2.83074e-11 46.44

49.5403 -3.98134 9.53104e-12
-3.98134 46.8764 2.38852e-11
9.53104e-12 2.38852e-11 46.1952

82.4667 1.36569 -3.22579e-11
1.36569 70.5164 1.25288e-11
-3.22579e-11 1.25288e-11 77.5363

78.6119 -7.28865 2.46447e-11
-7.28865 75.2053 -1.0787e-11
2.46447e-11 -1.0787e-11 78.0262

114.922 4.13458 -2.77313e-11
4.13458 100.108 2.09906e-11
-2.77313e-11 2.09906e-11 104.377

116.494 -1.16299 8.50876e-11
-1.16299 107.659 -9.25164e-12
8.50876e-11 -9.25164e-12 101.817

72.0606 -5.136 -3.35095e-11
-5.136 79.7242 -3.27354e-11
-3.35095e-11 -3.27354e-11 78.0156

91.4363 -1.55793 7.53508e-12
-1.55793 94.0067 1.13597e-11
7.53508e-12 1.13597e-11 92.4825

90.6423 5.38438 8.25688e-12
5.38438 96.6002 7.70654e-12
8.25688e-12 7.70654e-12 92.909

85.3693 0.48403 5.10325e-12
0.48403 70.2295 -2.19508e-11
5.10325e-12 -2.19508e-11 77.7669

79.2994 -8.91399 1.0106e-11
-8.91399 89.5052 2.21431e-11
1.0106e-11 2.21431e-11 84.651

51.3644 2.99637 -6.1593e-12
2.99637 51.6104 -1.19475e-11
-6.1593e-12 -1.19475e-11 49.554

49.7745 2.88888 5.78323e-12
2.88888 49.8429 1.01241e-11
5.78323e-12 1.01241e-11 48.3257

48.7869 -3.46916 4.08284e-11
-3.46916 56.8702 7.69399e-12
4.08284e-11 7.69399e-12 51.3674

53.5539 1.72624 -8.47433e-12
1.72624 59.4505 4.8548e-11
-8.47433e-12 4.8548e-11 53.9166

56.7108 -2.94721 -8.997e-11
-2.94721 49.4442 1.53093e-11
-8.997e-11 1.53093e-11 51.5304

71.5466 -8.18354 -6.16261e-12
-8.18354 81.5582 2.65743e-11
-6.16261e-12 2.65743e-11 81.6747

44.4298 0.164879 -2.29133e-11
0.164879 53.905 3.12067e-11
-2.29133e-11 3.12067e-11 48.1247

54.3553 0.244023 -2.58214e-11
0.244023 46.3006 -6.1637e-11
-2.58214e-11 -6.1637e-11 49.0564

90.2534 0.549507 -1.34757e-11
0.549507 99.4712 8.08642e-12
-1.34757e-11 8.08642e-12 92.8095

93.9916 -4.69527 -3.84714e-12
-4.69527 99.111 7.02912e-12
-3.84714e-12 7.02912e-12 95.7394

86.2788 1.88425 -2.75401e-11
1.88425 78.3499 -7.69533e-13
-2.75401e-11 -7.69533e-13 82.4376

89.8472 0.313141 1.44908e-11
0.313141 72.7774 1.15301e-12
1.44908e-11 1.15301e-12 82.6964

57.8976 -4.42871 1.02075e-11
-4.42871 65.5894 2.31208e-12
1.02075e-11 2.31208e-12 60.6184

62.9678 2.83314 2.25321e-11
2.83314 68.9212 -6.08636e-11
2.25321e-11 -6.08636e-11 63.541

85.595 0.370835 -8.42719e-12
0.370835 70.8112 1.42468e-11
-8.42719e-12 1.42468e-11 78.145

68.8417 -4.50597 -5.39531e-12
-4.50597 78.7205 -3.77481e-11
-5.39531e-12 -3.77481e-11 74.8381

101.685 2.6286 2.54001e-11
2.6286 92.0826 -2.04097e-11
2.54001e-11 -2.04097e-11 97.1663

97.8026 -3.64466 3.00302e-11
-3.64466 91.8395 -2.11757e-11
3.00302e-11 -2.11757e-11 92.9714

80.5643 4.29048 4.32691e-13
4.29048 80.2428 -4.27483e-11
4.32691e-13 -4.27483e-11 81.3548

77.1968 -7.53005 -1.8965e-11
-7.53005 85.7749 -2.31037e-11
-1.8965e-11 -2.31037e-11 80.6412

84.7101 1.9444 -9.4292e-12
1.9444 72.7309 3.6197e-11
-9.4292e-12 3.6197e-11 79.893

60.6061 3.93633 -3.75255e-12
3.93633 59.3168 -1.88796e-11
-3.75255e-12 -1.88796e-11 58.0886

76.9264 -8.12177 8.66511e-12
-8.12177 84.9812 9.60861e-13
8.66511e-12 9.60861e-13 80.1133

39.0669 7.20437 -7.07027e-11
7.20437 39.1912 1.92649e-11
-7.07027e-11 1.92649e-11 39.5178

70.3838 -2.97064 3.11944e-11
-2.97064 79.9348 -4.62252e-12
3.11944e-11 -4.62252e-12 73.7663

64.8153 -1.75523 -1.86823e-11
-1.75523 78.2295 -3.88874e-13
-1.86823e-11 -3.88874e-13 71.2329

89.1277 -0.786154 3.67693e-11
-0.786154 103.199 -5.39272e-12
3.67693e-11 -5.39272e-12 93.568

96.0938 -3.69374 1.81013e-11
-3.69374 99.1462 5.77533e-11
1.81013e-11 5.77533e-11 97.6275

92.1892 2.056 3.96758e-11
2.056 71.597 2.30939e-11
3.96758e-11 2.30939e-11 87.3629

90.5975 -3.03846 1.27114e-11
-3.03846 73.1296 -5.77849e-12
1.27114e-11 -5.77849e-12 85.9535

83.0104 6.21067 6.40206e-11
6.21067 83.2927 -2.65657e-11
6.40206e-11 -2.65657e-11 85.0854

84.419 -3.97961 -5.65611e-11
-3.97961 86.0666 -1.32787e-11
-5.65611e-11 -1.32787e-11 86.1324

90.0225 4.77724 2.85167e-11
4.77724 92.1101 3.85364e-12
2.85167e-11 3.85364e-12 91.4806

90.6012 -3.32361 3.26577e-11
-3.32361 95.6589 -3.58126e-11
3.26577e-11 -3.58126e-11 92.159

111.898 4.54434 6.31543e-11
4.54434 99.2801 4.27334e-11
6.31543e-11 4.27334e-11 103.491

108.257 -6.3509 -8.8549e-11
-6.3509 104.805 2.5817e-11
-8.8549e-11 2.5817e-11 99.2597

101.299 4.68859 -1.98379e-11
4.68859 96.0535 -1.80932e-11
-1.98379e-11 -1.80932e-11 98.892

79.4475 -8.85898 -3.06152e-11
-8.85898 83.389 -4.19709e-11
-3.06152e-11 -4.19709e-11 85.115

80.6939 4.90406 -2.38868e-11
4.90406 72.6171 -3.81194e-11
-2.38868e-11 -3.81194e-11 76.3984

76.7761 -5.54949 4.04532e-12
-5.54949 83.8835 -1.46353e-11
4.04532e-12 -1.46353e-11 78.4651

69.1532 -3.35255 3.85105e-12
-3.35255 80.507 -4.96911e-11
3.85105e-12 -4.96911e-11 75.4449

63.0246 -4.92942 -1.90628e-11
-4.92942 61.9076 -3.90927e-11
-1.90628e-11 -3.90927e-11 58.8353

76.3518 -6.50917 -4.98777e-11
-6.50917 69.5371 4.2378e-11
-4.98777e-11 4.2378e-11 73.2133

69.0148 2.24116 2.59921e-11
2.24116 80.4625 -3.08746e-12
2.59921e-11 -3.08746e-12 75.0848

78.6748 6.51911 -1.27103e-11
6.51911 75.6303 -2.09877e-11
-1.27103e-11 -2.09877e-11 76.1999

76.7269 9.67231 8.71192e-12
9.67231 83.9225 6.93348e-12
8.71192e-12 6.93348e-12 84.9664

81.7764 -7.85639 3.2736e-12
-7.85639 90.3591 -1.29022e-11
3.2736e-12 -1.29022e-11 86.8526

72.0365 -7.41468 -2.63913e-11
-7.41468 70.6574 5.81567e-11
-2.63913e-11 5.81567e-11 71.6508

88.6377 -0.53192 -3.32186e-11
-0.53192 81.3169 -7.70028e-12
-3.32186e-11 -7.70028e-12 84.1806

101.523 -2.45126 4.50457e-11
-2.45126 105.735 -7.26753e-11
4.50457e-11 -7.26753e-11 101.631

113.03 -2.84894 -1.22047e-10
-2.84894 111.644 -3.46492e-11
-1.22047e-10 -3.46492e-11 101.649

75.2805 -2.88502 -6.29635e-11
-2.88502 85.0782 2.23446e-11
-6.29635e-11 2.23446e-11 81.9511

78.9887 4.00403 -1.20845e-11
4.00403 75.0994 6.16892e-12
-1.20845e-11 6.16892e-12 78.7387

92.4356 -0.294674 -6.04206e-12
-0.294674 85.7585 -3.54261e-11
-6.04206e-12 -3.54261e-11 89.1937

47.1912 -5.04298 3.52454e-11
-5.04298 50.7369 6.39466e-11
3.52454e-11 6.39466e-11 47.245

50.2058 -4.53004 5.37437e-11
-4.53004 47.1405 3.27253e-11
5.37437e-11 3.27253e-11 47.2706

94.2274 -0.189375 3.58121e-11
-0.189375 79.4524 -4.43601e-12
3.58121e-11 -4.43601e-12 90.2887

92.5493 -0.938467 -1.38625e-11
-0.938467 79.2521 -2.69588e-12
-1.38625e-11 -2.69588e-12 87.9485

94.5171 1.00833 1.30188e-11
1.00833 85.1396 -4.69772e-11
1.30188e-11 -4.69772e-11 89.5961

81.0442 2.63275 9.42302e-12
2.63275 84.8775 -5.54548e-11
9.42302e-12 -5.54548e-11 81.3106

76.3794 3.40971 3.88056e-11
3.40971 69.5576 4.80468e-12
3.88056e-11 4.80468e-12 71.2407

93.5396 4.66399 3.13753e-11
4.66399 88.8647 -6.93867e-12
3.13753e-11 -6.93867e-12 91.3238

86.2447 -6.10396 7.32029e-12
-6.10396 81.8117 5.27499e-11
7.32029e-12 5.27499e-11 84.8092

100.015 -0.774151 -6.0675e-11
-0.774151 96.0966 8.09793e-11
-6.0675e-11 8.09793e-11 96.4629

101.065 6.68965 3.72935e-11
6.68965 110.108 9.90333e-11
3.72935e-11 9.90333e-11 99.5576

72.9927 -5.2218 -1.0009e-11
-5.2218 82.3195 3.42775e-11
-1.0009e-11 3.42775e-11 80.5508

79.1886 3.42859 5.18995e-11
3.42859 72.3737 2.85016e-11
5.18995e-11 2.85016e-11 75.3729

94.9529 3.16745 2.59792e-12
3.16745 85.7426 -1.81011e-11
2.59792e-12 -1.81011e-11 91.6532

91.738 -4.27056 -1.64618e-11
-4.27056 84.7034 -2.31036e-11
-1.64618e-11 -2.31036e-11 88.2274

82.606 -7.27836 1.90628e-11
-7.27836 89.4165 1.7137e-11
1.90628e-11 1.7137e-11 85.1583

80.6906 -9.31335 -1.35005e-12
-9.31335 90.0097 2.13739e-11
-1.35005e-12 2.13739e-11 85.1495

40.7563 8.61004 -1.25199e-11
8.61004 41.6823 6.93982e-12
-1.25199e-11 6.93982e-12 40.804

81.0551 6.57566 3.28722e-11
6.57566 89.2362 -6.54181e-12
3.28722e-11 -6.54181e-12 87.6895

84.7534 -5.80546 1.107e-11
-5.80546 93.5046 -7.89568e-12
1.107e-11 -7.89568e-12 89.052

78.0886 -8.01062 7.50831e-12
-8.01062 87.9222 2.58029e-11
7.50831e-12 2.58029e-11 83.0532

74.5598 -5.44668 2.13814e-11
-5.44668 66.7599 -8.85247e-12
2.13814e-11 -8.85247e-12 69.3548

83.4312 -3.59849 3.37042e-12
-3.59849 84.7347 -6.39292e-11
3.37042e-12 -6.39292e-11 83.1888

83.2529 6.21709 4.21199e-11
6.21709 83.9125 5.77867e-12
4.21199e-11 5.77867e-12 85.8853

84.4524 -4.98126 -2.54162e-11
-4.98126 89.629 4.37138e-11
-2.54162e-11 4.37138e-11 87.1177

86.5117 -0.501265 -4.03448e-11
-0.501265 73.7378 -5.39176e-12
-4.03448e-11 -5.39176e-12 81.1032

97.4337 1.82871 8.46404e-12
1.82871 87.972 -1.13597e-11
8.46404e-12 -1.13597e-11 94.3918

95.6536 -1.7604 -1.57913e-11
-1.7604 90.8118 -4.9674e-11
-1.57913e-11 -4.9674e-11 92.0191

99.7384 -2.57303 2.61841e-11
-2.57303 107.882 2.14659e-11
2.61841e-11 2.14659e-11 101.439

97.6934 1.9615 2.75209e-11
1.9615 111.173 -7.43166e-11
2.75209e-11 -7.43166e-11 98.1409

41.5057 0.660045 -4.39258e-11
0.660045 34.7256 4.18069e-11
-4.39258e-11 4.18069e-11 41.3393

34.6399 0.595958 3.65752e-12
0.595958 40.6463 -2.04183e-11
3.65752e-12 -2.04183e-11 40.6734

92.857 5.9284 6.22032e-11
5.9284 91.2897 5.79536e-13
6.22032e-11 5.79536e-13 92.2427

81.2 -5.92349 -3.08087e-12
-5.92349 81.3549 3.69638e-11
-3.08087e-12 3.69638e-11 83.3486

74.7382 -5.67236 3.31202e-11
-5.67236 81.3514 2.04061e-11
3.31202e-11 2.04061e-11 82.0027

38.7818 2.11189 8.09097e-12
2.11189 38.8744 3.85332e-11
8.09097e-12 3.85332e-11 40.9197

39.0169 2.30173 8.24524e-11
2.30173 39.106 -2.31295e-11
8.24524e-11 -2.31295e-11 41.2615

113.722 0.998572 -8.27825e-11
0.998572 115.918 -6.16007e-11
-8.27825e-11 -6.16007e-11 103.068

112.895 1.60925 -1.91871e-11
1.60925 108.737 1.43796e-10
-1.91871e-11 1.43796e-10 105.561

79.206 -5.32689 5.30951e-11
-5.32689 82.4055 1.36637e-11
5.30951e-11 1.36637e-11 81.2

73.2771 -6.60317 -3.00464e-11
-6.60317 74.6234 9.63037e-12
-3.00464e-11 9.63037e-12 73.8257

91.5212 6.2011 5.78855e-12
6.2011 86.4635 3.71661e-11
5.78855e-12 3.71661e-11 89.365

81.3371 -7.46891 2.30616e-12
-7.46891 79.679 2.11775e-11
2.30616e-12 2.11775e-11 82.1944

74.3413 -7.0075 8.09404e-12
-7.0075 76.7328 3.84285e-13
8.09404e-12 3.84285e-13 76.9861

80.9951 5.08346 -6.94526e-12
5.08346 79.7257 -4.89043e-11
-6.94526e-12 -4.89043e-11 78.9291

49.6737 -2.2936 -5.39512e-12
-2.2936 57.9159 -1.81113e-11
-5.39512e-12 -1.81113e-11 52.0892

53.6951 1.36229 -2.73456e-11
1.36229 59.6086 4.02576e-11
-2.73456e-11 4.02576e-11 54.0098

57.7316 -2.12156 -3.54479e-11
-2.12156 51.612 -3.81506e-11
-3.54479e-11 -3.81506e-11 52.7214

84.4515 6.75482 -1.44403e-11
6.75482 83.2551 -3.13892e-11
-1.44403e-11 -3.13892e-11 83.4675

47.5525 -1.6486 -3.35168e-11
-1.6486 54.9112 2.75501e-11
-3.35168e-11 2.75501e-11 49.3436

53.4754 -1.12897 -1.19519e-11
-1.12897 46.0086 -2.11867e-11
-1.19519e-11 -2.11867e-11 48.0652

97.9742 4.95434 -2.7906e-11
4.95434 92.3264 -3.08154e-12
-2.7906e-11 -3.08154e-12 95.3849

86.365 -7.2078 -4.12048e-11
-7.2078 83.4635 -3.06732e-12
-4.12048e-11 -3.06732e-12 86.4063

96.8507 6.08671 -1.84928e-11
6.08671 91.104 -5.98806e-11
-1.84928e-11 -5.98806e-11 94.5526

86.9888 -7.05122 7.51214e-12
-7.05122 86.0693 4.54332e-11
7.51214e-12 4.54332e-11 87.362

38.2775 2.59235 1.88879e-11
2.59235 38.5573 7.39823e-11
1.88879e-11 7.39823e-11 40.3756

38.0626 2.53427 5.98018e-12
2.53427 38.1962 -1.13684e-11
5.98018e-12 -1.13684e-11 39.982

87.3763 5.42051 -3.1963e-11
5.42051 85.2614 -1.50213e-11
-3.1963e-11 -1.50213e-11 85.9213

79.598 -6.69416 4.23724e-11
-6.69416 77.9368 6.9252e-12
4.23724e-11 6.9252e-12 79.6058

97.0022 -4.25766 5.29446e-11
-4.25766 100.079 5.48065e-12
5.29446e-11 5.48065e-12 97.9302

93.7766 -1.45915 1.73409e-12
-1.45915 100.759 2.15614e-11
1.73409e-12 2.15614e-11 94.3841

100.061 6.1781 -1.88625e-11
6.1781 96.3056 1.2323e-11
-1.88625e-11 1.2323e-11 98.4657

83.3803 -5.51519 -1.63613e-11
-5.51519 88.9684 1.69449e-11
-1.63613e-11 1.69449e-11 87.7992

99.7969 3.24902 -8.47677e-12
3.24902 85.7417 5.20524e-12
-8.47677e-12 5.20524e-12 94.5294

95.8974 -5.02342 3.81174e-11
-5.02342 85.8742 -2.73407e-11
3.81174e-11 -2.73407e-11 90.8938

78.1678 5.66759 -2.95587e-11
5.66759 82.3408 -1.11712e-11
-2.95587e-11 -1.11712e-11 82.8717

81.3661 -6.58571 1.29941e-11
-6.58571 88.4548 4.27452e-11
1.29941e-11 4.27452e-11 84.5986

95.9803 -4.5772 -1.56678e-11
-4.5772 97.1529 2.77235e-11
-1.56678e-11 2.77235e-11 94.7122

95.5835 -4.09067 -2.48378e-11
-4.09067 105.311 -3.98489e-11
-2.48378e-11 -3.98489e-11 98.553

105.453 4.58995 5.002e-12
4.58995 91.7517 -2.3112e-11
5.002e-12 -2.3112e-11 98.5033

111.141 1.49744 1.04097e-11
1.49744 97.101 2.15505e-11
1.04097e-11 2.15505e-11 102.037

102.773 -4.96387 -7.27747e-11
-4.96387 95.6659 8.47333e-12
-7.27747e-11 8.47333e-12 95.6385

109.877 -1.06082 -5.00433e-11
-1.06082 102.011 -3.08242e-12
-5.00433e-11 -3.08242e-12 99.0551

92.5746 -1.14299 -7.31285e-12
-1.14299 106.529 2.31093e-12
-7.31285e-12 2.31093e-12 95.6114

97.8329 8.43176 4.84475e-11
8.43176 97.6557 2.04057e-11
4.84475e-11 2.04057e-11 95.3456

114.888 5.04133 1.40914e-10
5.04133 101.833 2.84661e-11
1.40914e-10 2.84661e-11 105.995

117.916 4.17319 3.62611e-10
4.17319 102.621 -3.42318e-10
3.62611e-10 -3.42318e-10 106.67

120.177 1.16079 6.63133e-10
1.16079 116.963 9.169e-10
6.63133e-10 9.169e-10 104.612

101.764 -5.85816 1.08963e-10
-5.85816 106.785 -1.19777e-10
1.08963e-10 -1.19777e-10 97.9778

112.886 3.82129 -1.11614e-11
3.82129 99.3775 1.90578e-11
-1.11614e-11 1.90578e-11 104.332

105.13 3.06998 1.3864e-11
3.06998 99.1442 5.0003e-12
1.3864e-11 5.0003e-12 101.296

112.763 4.94354 4.0788e-11
4.94354 101.553 -1.20105e-10
4.0788e-11 -1.20105e-10 104.935

103.1 -5.64018 -8.08577e-11
-5.64018 97.8221 4.5452e-11
-8.08577e-11 4.5452e-11 96.0723

107.67 -2.82712 3.50497e-12
-2.82712 111.609 2.65666e-10
3.50497e-12 2.65666e-10 100.694

95.4148 -2.52622 1.19401e-11
-2.52622 93.2938 3.8348e-13
1.19401e-11 3.8348e-13 92.5083

104.392 4.98396 -1.30856e-11
4.98396 95.095 2.79101e-11
-1.30856e-11 2.79101e-11 99.6386

107.909 2.92539 3.7352e-11
2.92539 97.4313 -1.88767e-11
3.7352e-11 -1.88767e-11 101.432

96.4358 -6.54264 -1.15474e-11
-6.54264 93.7859 1.73247e-11
-1.15474e-11 1.73247e-11 93.204

104.221 -3.17503 -2.6914e-12
-3.17503 97.9015 4.00448e-11
-2.6914e-12 4.00448e-11 96.5111

TENSORS Lagrange_strain float
0.000395911 6.93789e-05 -1.1589e-08
6.93789e-05 0.000491031 -4.06447e-08
-1.1589e-08 -4.06447e-08 0.000398102

0.000471884 4.62286e-05 -1.61648e-07
4.62286e-05 0.000549919 8.22923e-08
-1.61648e-07 8.22923e-08 0.000489848

0.000468849 3.70353e-05 -7.77113e-08
3.70353e-05 0.000544192 -3.62603e-08
-7.77113e-08 -3.62603e-08 0.000487765

0.000531135 2.02483e-05 -3.56662e-08
2.02483e-05 0.000364469 -1.0342e-07
-3.56662e-08 -1.0342e-07 0.000431505

0.000513937 8.03838e-06 -2.9353e-08
8.03838e-06 0.000356239 -9.9942e-08
-2.9353e-08 -9.9942e-08 0.000394109

0.000472306 4.36909e-05 -1.50007e-07
4.36909e-05 0.000551839 -5.31605e-08
-1.50007e-07 -5.31605e-08 0.000521832

0.000468223 4.04887e-05 -7.261e-08
4.04887e-05 0.000548576 -9.56248e-08
-7.261e-08 -9.56248e-08 0.00051989

0.000518877 -1.01342e-05 -4.66588e-08
-1.01342e-05 0.000362767 2.41951e-08
-4.66588e-08 2.41951e-08 0.000397543

0.000594245 1.71689e-06 -7.45815e-08
1.71689e-06 0.000393596 -1.0383e-07
-7.45815e-08 -1.0383e-07 0.000496443

0.000313477 6.72534e-05 -6.74058e-08
6.72534e-05 0.000417412 -5.3872e-08
-6.74058e-08 -5.3872e-08 0.000288601

0.000308231 -7.19858e-05 7.73237e-08
-7.19858e-05 0.000410333 -2.37788e-08
7.73237e-08 -2.37788e-08 0.000277158

0.000409183 6.97532e-05 -9.84527e-08
6.97532e-05 0.000335035 1.05475e-07
-9.84527e-08 1.05475e-07 0.000290616

0.000512581 -5.70495e-05 7.25225e-08
-5.70495e-05 0.000561886 -2.20926e-08
7.25225e-08 -2.20926e-08 0.000529251

0.000514887 -6.45443e-05 4.28614e-08
-6.45443e-05 0.000570994 -3.5928e-08
4.28614e-08 -3.5928e-08 0.00053211

0.000395863 6.55989e-05 -1.1292e-08
6.55989e-05 0.00050796 6.78484e-09
-1.1292e-08 6.78484e-09 0.000435519

0.000428031 7.85117e-05 5.2811e-09
7.85117e-05 0.000538799 5.20104e-08
5.2811e-09 5.20104e-08 0.000483754

0.000466568 -2.99765e-05 2.04519e-08
-2.99765e-05 0.000545974 9.56213e-09
2.04519e-08 9.56213e-09 0.000518209

0.000468967 -3.21337e-05 -2.57144e-09
-3.21337e-05 0.00054853 -8.16182e-09
-2.57144e-09 -8.16182e-09 0.000519775

0.00054191 2.99109e-05 1.17831e-07
2.99109e-05 0.000443177 -1.02404e-07
1.17831e-07 -1.02404e-07 0.000473383

0.000339805 2.60195e-05 -6.78982e-08
2.60195e-05 0.00047829 -5.29231e-08
-6.78982e-08 -5.29231e-08 0.000326564

0.000338624 -2.48864e-05 5.68196e-08
-2.48864e-05 0.000479154 -6.31541e-08
5.68196e-08 -6.31541e-08 0.000323737

0.000468899 2.14168e-05 5.97821e-08
2.14168e-05 0.000372553 3.35698e-09
5.97821e-08 3.35698e-09 0.000330769

0.000397139 7.73699e-05 9.86352e-08
7.73699e-05 0.000471867 -1.62473e-07
9.86352e-08 -1.62473e-07 0.000394713

0.000472789 -3.96534e-05 5.46801e-08
-3.96534e-05 0.000345717 6.87611e-08
5.46801e-08 6.87611e-08 0.00036376

0.000446934 7.09715e-05 1.03528e-08
7.09715e-05 0.000471062 -1.67094e-07
1.03528e-08 -1.67094e-07 0.000429128

0.000405744 7.73642e-05 -1.75638e-08
7.73642e-05 0.000502472 -1.59727e-07
-1.75638e-08 -1.59727e-07 0.00040663

0.000541374 -1.67221e-05 1.04344e-08
-1.67221e-05 0.000364443 1.41614e-09
1.04344e-08 1.41614e-09 0.000437444

0.000305031 5.99118e-05 1.44829e-09
5.99118e-05 0.000419202 7.36957e-08
1.44829e-09 7.36957e-08 0.000228134

0.000575891 7.46658e-06 1.28457e-07
7.46658e-06 0.000382856 5.48605e-08
1.28457e-07 5.48605e-08 0.000484244

0.000400858 6.0058e-05 6.30705e-08
6.0058e-05 0.000326754 1.96448e-07
6.30705e-08 1.96448e-07 0.000228906

0.000533429 9.53206e-06 -1.04931e-07
9.53206e-06 0.000569159 -7.0683e-08
-1.04931e-07 -7.0683e-08 0.000533368

0.000533544 3.38873e-06 -1.1406e-07
3.38873e-06 0.000567548 -7.95145e-08
-1.1406e-07 -7.95145e-08 0.000533185

0.000624256 3.36292e-05 -1.48677e-07
3.36292e-05 0.000561097 8.72152e-08
-1.48677e-07 8.72152e-08 0.000564767

0.000624402 -3.25623e-05 3.00878e-07
-3.25623e-05 0.000562516 1.47941e-07
3.00878e-07 1.47941e-07 0.000564175

0.00046507 -2.51496e-05 5.19703e-08
-2.51496e-05 0.000332612 7.01788e-08
5.19703e-08 7.01788e-08 0.000309413

0.000438343 7.63375e-05 1.56688e-07
7.63375e-05 0.000495782 6.02134e-09
1.56688e-07 6.02134e-09 0.000457545

0.000554251 1.40274e-05 -5.65966e-08
1.40274e-05 0.00052131 2.49077e-08
-5.65966e-08 2.49077e-08 0.000529438

0.000555219 -1.27842e-05 1.3266e-07
-1.27842e-05 0.000524522 1.25684e-07
1.3266e-07 1.25684e-07 0.000532545

0.000604136 1.75589e-07 4.02265e-08
1.75589e-07 0.000383444 5.87575e-08
4.02265e-08 5.87575e-08 0.000498476

0.000397606 8.36816e-05 -7.56494e-08
8.36816e-05 0.000500089 -8.22987e-08
-7.56494e-08 -8.22987e-08 0.000403436

0.000468164 -5.12548e-05 4.4491e-08
-5.12548e-05 0.000395892 1.01086e-09
4.4491e-08 1.01086e-09 0.000376785

0.000595105 -4.97218e-06 -8.01855e-08
-4.97218e-06 0.000369635 -7.61321e-09
-8.01855e-08 -7.61321e-09 0.000487029

0.000392765 -7.76572e-05 -2.391e-08
-7.76572e-05 0.00047157 5.38401e-08
-2.391e-08 5.38401e-08 0.000390669

0.00039579 -6.64764e-05 -7.39835e-08
-6.64764e-05 0.000492093 7.36028e-11
-7.39835e-08 7.36028e-11 0.000397508

0.000440099 8.83021e-05 2.01267e-08
8.83021e-05 0.000551616 -1.66863e-07
2.01267e-08 -1.66863e-07 0.000490063

0.00042197 -8.28471e-05 1.25023e-07
-8.28471e-05 0.000390787 7.95626e-09
1.25023e-07 7.95626e-09 0.00034664

0.000110858 0.000169053 -2.98095e-09
0.000169053 0.000227247 -2.98095e-09
-2.98095e-09 -2.98095e-09 5.55698e-05

0.000212476 0.000167077 -6.18189e-08
0.000167077 0.000121679 -6.18189e-08
-6.18189e-08 -6.18189e-08 5.38749e-05

0.000455614 -7.88082e-05 1.18858e-07
-7.88082e-05 0.000553576 -4.5504e-09
1.18858e-07 -4.5504e-09 0.000515142

0.000200316 7.09394e-05 -5.32477e-08
7.09394e-05 0.00034293 8.30049e-08
-5.32477e-08 8.30049e-08 0.00011472

0.000320185 6.35829e-05 -8.18754e-08
6.35829e-05 0.00021658 -6.78849e-09
-8.18754e-08 -6.78849e-09 0.000117109

0.000544108 -5.54112e-05 -8.01672e-08
-5.54112e-05 0.000591744 -6.15188e-08
-8.01672e-08 -6.15188e-08 0.000562855

0.000543581 5.49763e-05 3.39188e-09
5.49763e-05 0.000591807 1.17291e-07
3.39188e-09 1.17291e-07 0.000563051

0.00058119 1.63163e-06 1.04635e-09
1.63163e-06 0.000458734 -5.91641e-08
1.04635e-09 -5.91641e-08 0.000508215

0.000546376 -4.8321e-05 -2.7071e-08
-4.8321e-05 0.000579217 3.1215e-07
-2.7071e-08 3.1215e-07 0.000566881

0.000545775 4.81616e-05 5.09023e-08
4.81616e-05 0.000579081 -2.17065e-07
5.09023e-08 -2.17065e-07 0.000567084

0.000405631 7.7476e-05 1.52622e-08
7.7476e-05 0.000523008 2.51833e-07
1.52622e-08 2.51833e-07 0.000443037

0.000622027 3.1647e-05 1.43144e-07
3.1647e-05 0.000525598 1.10331e-08
1.43144e-07 1.10331e-08 0.00055678

0.000623576 -3.13777e-05 -1.28175e-07
-3.13777e-05 0.00052512 -2.44749e-09
-1.28175e-07 -2.44749e-09 0.000556412

0.000512945 -6.40303e-05 -1.75794e-08
-6.40303e-05 0.000546265 2.92237e-08
-1.75794e-08 2.92237e-08 0.000527201

0.000512641 6.37044e-05 9.25477e-08
6.37044e-05 0.000546299 8.19807e-08
9.25477e-08 8.19807e-08 0.000527531

0.000396967 -6.87954e-05 8.582e-09
-6.87954e-05 0.000306504 4.95465e-08
8.582e-09 4.95465e-08 0.000268712

0.00053635 3.0892e-05 -6.73266e-08
3.0892e-05 0.000616254 5.00534e-08
-6.73266e-08 5.00534e-08 0.000557556

0.000533283 2.43623e-05 4.57973e-08
2.43623e-05 0.000614818 -5.13712e-09
4.57973e-08 -5.13712e-09 0.00055543

0.00039812 -8.53182e-05 8.22304e-08
-8.53182e-05 0.000502716 1.66779e-08
8.22304e-08 1.66779e-08 0.000405426

0.000281967 -5.65112e-05 -3.03538e-08
-5.65112e-05 0.000418723 1.27572e-07
-3.03538e-08 1.27572e-07 0.000211484

0.000404584 -5.60168e-05 -1.14464e-07
-5.60168e-05 0.000286229 1.3106e-07
-1.14464e-07 1.3106e-07 0.00020826

0.000425811 6.73196e-05 1.48218e-07
6.73196e-05 0.000543342 -1.39635e-07
1.48218e-07 -1.39635e-07 0.000476417

0.000421137 6.27676e-05 -1.50158e-07
6.27676e-05 0.000531806 1.56277e-08
-1.50158e-07 1.56277e-08 0.000472751

0.000653045 -9.31562e-05 2.38619e-07
-9.31562e-05 0.00059037 1.83165e-07
2.38619e-07 1.83165e-07 0.000609255

0.000654018 9.43268e-05 2.81884e-07
9.43268e-05 0.00059037 -2.54672e-07
2.81884e-07 -2.54672e-07 0.000609301

0.000443903 9.55337e-05 -1.21315e-09
9.55337e-05 0.000547427 3.9988e-08
-1.21315e-09 3.9988e-08 0.000499297

0.000529141 4.69553e-05 -1.47114e-07
4.69553e-05 0.000491101 -6.61802e-08
-1.47114e-07 -6.61802e-08 0.000505294

0.000529417 -4.79255e-05 -8.8939e-08
-4.79255e-05 0.000489387 1.33439e-09
-8.8939e-08 1.33439e-09 0.000503804

0.000444081 9.11904e-05 -2.69464e-08
9.11904e-05 0.000528968 -1.40264e-07
-2.69464e-08 -1.40264e-07 0.000493639

0.000462325 -8.35569e-05 5.02793e-08
-8.35569e-05 0.000564161 -3.3031e-08
5.02793e-08 -3.3031e-08 0.000518902

0.000458683 -9.71243e-07 5.26845e-08
-9.71243e-07 0.000304305 6.5226e-08
5.26845e-08 6.5226e-08 0.000304158

0.000482887 3.73336e-05 -1.55961e-07
3.73336e-05 0.000343205 -6.73219e-08
-1.55961e-07 -6.73219e-08 0.00035507

0.000557063 1.5267e-05 -3.24788e-08
1.5267e-05 0.000455687 -8.14505e-08
-3.24788e-08 -8.14505e-08 0.000519351

0.000591184 -2.37067e-05 -2.3792e-07
-2.37067e-05 0.000579652 -1.21201e-07
-2.3792e-07 -1.21201e-07 0.000569008

0.00059074 2.04216e-05 2.50697e-07
2.04216e-05 0.000580566 -9.80672e-08
2.50697e-07 -9.80672e-08 0.000569503

0.000381912 6.90989e-05 -5.12918e-08
6.90989e-05 0.000416829 -5.49893e-08
-5.12918e-08 -5.49893e-08 0.000312806

0.000455656 -6.03431e-05 -4.03422e-08
-6.03431e-05 0.000425886 8.44813e-08
-4.03422e-08 8.44813e-08 0.000419632

0.00054111 3.60875e-05 1.0319e-07
3.60875e-05 0.000464035 1.46238e-07
1.0319e-07 1.46238e-07 0.00047455

0.00055441 1.94589e-05 1.78512e-07
1.94589e-05 0.000609623 1.09854e-07
1.78512e-07 1.09854e-07 0.000564854

0.000554033 1.70879e-05 -2.69747e-07
1.70879e-05 0.000610051 -8.18936e-08
-2.69747e-07 -8.18936e-08 0.000563904

0.000559017 -1.10911e-05 1.09593e-07
-1.10911e-05 0.000463299 2.22291e-08
1.09593e-07 2.22291e-08 0.000523881

0.000467301 -2.37218e-05 2.78899e-08
-2.37218e-05 0.000545702 1.36737e-07
2.78899e-08 1.36737e-07 0.000486788

0.000468981 -3.19826e-05 7.32439e-10
-3.19826e-05 0.00055012 3.52399e-08
7.32439e-10 3.52399e-08 0.000488399

0.000588131 -2.22199e-05 5.65423e-08
-2.22199e-05 0.000483479 1.98764e-08
5.65423e-08 1.98764e-08 0.00053788

0.000589138 2.24999e-05 -7.49172e-08
2.24999e-05 0.000483302 -1.10482e-07
-7.49172e-08 -1.10482e-07 0.000539383

0.000409347 -6.85753e-05 -1.69739e-08
-6.85753e-05 0.000407217 1.26402e-07
-1.69739e-08 1.26402e-07 0.00031613

0.000527322 4.27809e-06 6.82619e-08
4.27809e-06 0.000421157 -1.27229e-07
6.82619e-08 -1.27229e-07 0.000429283

0.000580414 -3.3903e-05 4.09891e-08
-3.3903e-05 0.000519738 3.76739e-08
4.09891e-08 3.76739e-08 0.000557538

0.000579652 3.34356e-05 -1.66805e-09
3.34356e-05 0.000520534 1.4028e-08
-1.66805e-09 1.4028e-08 0.000558063

0.00054026 -3.76446e-05 8.46294e-08
-3.76446e-05 0.000465478 -1.39889e-07
8.46294e-08 -1.39889e-07 0.000473301

0.00040639 -7.77395e-05 -1.0065e-08
-7.77395e-05 0.000508521 -1.02164e-07
-1.0065e-08 -1.02164e-07 0.000409465

0.000586615 -2.5142e-05 5.67759e-08
-2.5142e-05 0.000494516 2.11023e-08
5.67759e-08 2.11023e-08 0.000533625

0.000587568 2.51988e-05 -8.28784e-08
2.51988e-05 0.00049436 -7.16087e-08
-8.28784e-08 -7.16087e-08 0.000535295

0.000532707 -1.64112e-05 2.26585e-08
-1.64112e-05 0.000404789 -2.53993e-08
2.26585e-08 -2.53993e-08 0.000451502

0.000458076 0.000108965 -4.66605e-08
0.000108965 0.00055854 1.06893e-07
-4.66605e-08 1.06893e-07 0.000505457

0.000448453 6.01529e-05 -2.4861e-09
6.01529e-05 0.000421525 1.37327e-07
-2.4861e-09 1.37327e-07 0.000377791

0.000442472 9.23531e-05 2.27205e-08
9.23531e-05 0.000553159 1.97331e-08
2.27205e-08 1.97331e-08 0.000502398

0.000451837 0.000103092 9.23686e-08
0.000103092 0.00056568 -3.07515e-08
9.23686e-08 -3.07515e-08 0.000506384

0.000487279 4.46597e-05 -6.94857e-08
4.46597e-05 0.000389667 -5.44591e-08
-6.94857e-08 -5.44591e-08 0.000387686

0.000499286 -3.67944e-05 6.07182e-08
-3.67944e-05 0.000445024 1.04696e-07
6.07182e-08 1.04696e-07 0.000477795

0.000524835 2.02697e-05 9.7952e-08
2.02697e-05 0.000406391 2.40798e-07
9.7952e-08 2.40798e-07 0.000442383

0.000397144 7.60905e-05 1.11092e-07
7.60905e-05 0.000416821 9.41741e-08
1.11092e-07 9.41741e-08 0.000359707

0.000448574 6.17902e-05 -1.1904e-08
6.17902e-05 0.00042403 1.29912e-07
-1.1904e-08 1.29912e-07 0.000416397

0.000411632 5.38587e-06 3.08207e-08
5.38587e-06 0.000526769 1.96034e-08
3.08207e-08 1.96034e-08 0.000469685

0.000412608 8.59611e-06 -1.37908e-08
8.59611e-06 0.000526883 1.58394e-07
-1.37908e-08 1.58394e-07 0.000469963

0.000410126 -7.76461e-05 -1.01916e-08
-7.76461e-05 0.000348558 -5.09911e-08
-1.01916e-08 -5.09911e-08 0.000296866

0.000444297 -9.18647e-05 -3.66926e-08
-9.18647e-05 0.000529571 -1.07414e-07
-3.66926e-08 -1.07414e-07 0.000494512

0.000400883 -9.08332e-05 9.39821e-08
-9.08332e-05 0.000462864 -5.72128e-08
9.39821e-08 -5.72128e-08 0.000369488

0.00040045 9.31758e-05 -4.95933e-08
9.31758e-05 0.00046081 1.34813e-07
-4.95933e-08 1.34813e-07 0.00036857

0.00051189 -3.3813e-05 7.56413e-08
-3.3813e-05 0.000428623 9.08357e-08
7.56413e-08 9.08357e-08 0.000446666

0.000602805 -5.00953e-06 -9.03034e-08
-5.00953e-06 0.000398547 -8.83783e-08
-9.03034e-08 -8.83783e-08 0.000518725

0.000602515 5.55084e-06 -1.9858e-08
5.55084e-06 0.000399263 -1.57332e-08
-1.9858e-08 -1.57332e-08 0.000516733

0.000358763 4.94405e-05 -7.3759e-08
4.94405e-05 0.000480792 -6.70789e-08
-7.3759e-08 -6.70789e-08 0.000374132

0.000447504 -7.48109e-05 -4.62249e-08
-7.48109e-05 0.000469803 5.68552e-08
-4.62249e-08 5.68552e-08 0.000427534

0.000288608 -1.60223e-06 9.55331e-08
-1.60223e-06 0.000465758 8.33271e-11
9.55331e-08 8.33271e-11 0.000306226

0.000287256 3.70306e-06 -1.86085e-07
3.70306e-06 0.000466872 7.47037e-09
-1.86085e-07 7.47037e-09 0.000304261

0.000460733 -5.64543e-07 7.34434e-09
-5.64543e-07 0.000313491 -1.31835e-07
7.34434e-09 -1.31835e-07 0.000309483

0.000408224 7.28123e-05 -1.37516e-07
7.28123e-05 0.000409863 -1.36819e-07
-1.37516e-07 -1.36819e-07 0.000314838

0.000430159 -8.53782e-05 -8.59826e-08
-8.53782e-05 0.000420397 1.91522e-07
-8.59826e-08 1.91522e-07 0.000372062

0.000556177 -4.2e-05 7.76618e-08
-4.2e-05 0.00064731 -1.92063e-07
7.76618e-08 -1.92063e-07 0.000572522

0.000556849 -3.90457e-05 2.6328e-07
-3.90457e-05 0.000646483 8.29744e-08
2.6328e-07 8.29744e-08 0.000573011

0.000493085 -4.38406e-05 -1.54921e-07
-4.38406e-05 0.000390736 -1.59501e-08
-1.54921e-07 -1.59501e-08 0.000392476

0.000432855 0.000101464 -8.2056e-08
0.000101464 0.000544036 1.72244e-07
-8.2056e-08 1.72244e-07 0.000469332

0.000581489 -2.6415e-06 -3.27279e-09
-2.6415e-06 0.000458005 6.44138e-08
-3.27279e-09 6.44138e-08 0.00050705

0.000357638 -4.85957e-05 4.46837e-08
-4.85957e-05 0.000484919 -3.44406e-08
4.46837e-08 -3.44406e-08 0.000374921

0.000462486 9.06851e-05 6.89842e-08
9.06851e-05 0.00056942 1.99526e-08
6.89842e-08 1.99526e-08 0.00052178

0.000450936 8.54796e-05 1.28656e-08
8.54796e-05 0.000557964 9.4635e-09
1.28656e-08 9.4635e-09 0.000516699

0.000459153 -0.000108764 -3.1567e-08
-0.000108764 0.000559039 -7.92878e-08
-3.1567e-08 -7.92878e-08 0.000506094

0.000454482 0.000105105 -5.5692e-08
0.000105105 0.000577154 7.44675e-08
-5.5692e-08 7.44675e-08 0.000513123

0.000423316 8.86843e-05 1.15121e-08
8.86843e-05 0.000526686 2.95675e-08
1.15121e-08 2.95675e-08 0.000462388

0.000624186 2.90299e-07 -3.31244e-08
2.90299e-07 0.000506026 9.35504e-08
-3.31244e-08 9.35504e-08 0.000575927

0.000431914 8.37274e-05 1.32191e-07
8.37274e-05 0.00041327 5.79997e-08
1.32191e-07 5.79997e-08 0.000368486

0.000442614 -9.32838e-05 -9.26659e-08
-9.32838e-05 0.00055318 6.02743e-08
-9.26659e-08 6.02743e-08 0.000502353

0.000429519 7.33527e-05 1.18613e-07
7.33527e-05 0.000462746 -8.60664e-08
1.18613e-07 -8.60664e-08 0.00038875

0.000367287 -6.32071e-05 -1.27902e-07
-6.32071e-05 0.00041123 -3.72269e-08
-1.27902e-07 -3.72269e-08 0.000298895

0.000437642 -7.75276e-05 3.73637e-08
-7.75276e-05 0.000499277 -6.64488e-08
3.73637e-08 -6.64488e-08 0.000458126

0.000351566 -4.42188e-05 -3.52276e-08
-4.42188e-05 0.000493879 7.4553e-08
-3.52276e-08 7.4553e-08 0.000338906

0.000349605 4.30195e-05 5.61268e-08
4.30195e-05 0.00049112 1.37577e-07
5.61268e-08 1.37577e-07 0.000337343

0.000473354 -3.03858e-05 -2.406e-08
-3.03858e-05 0.000383698 -6.21099e-08
-2.406e-08 -6.21099e-08 0.000340047

0.000429376 -7.52248e-05 -7.0585e-08
-7.52248e-05 0.000462813 -2.37784e-07
-7.0585e-08 -2.37784e-07 0.000387358

0.000412285 1.17954e-05 -1.47405e-09
1.17954e-05 0.000528625 -8.89523e-08
-1.47405e-09 -8.89523e-08 0.00042424

0.000412178 -1.06561e-07 3.03363e-08
-1.06561e-07 0.000527282 2.93034e-08
3.03363e-08 2.93034e-08 0.000424098

0.000351204 -8.68977e-05 -5.23724e-08
-8.68977e-05 0.000405816 1.05536e-07
-5.23724e-08 1.05536e-07 0.000291527

0.000347162 8.78807e-05 -2.81966e-08
8.78807e-05 0.000409271 -1.8853e-07
-2.81966e-08 -1.8853e-07 0.000294968

0.000621364 -7.73033e-06 -9.21026e-08
-7.73033e-06 0.000487244 -3.73367e-09
-9.21026e-08 -3.73367e-09 0.000566617

0.000622024 8.10758e-06 1.24075e-07
8.10758e-06 0.000487289 -1.44821e-07
1.24075e-07 -1.44821e-07 0.000567165

0.000444005 9.5632e-05 -1.55214e-09
9.5632e-05 0.000547004 1.37028e-07
-1.55214e-09 1.37028e-07 0.000479067

0.000450364 -8.69029e-05 4.10338e-08
-8.69029e-05 0.000560029 2.32514e-08
4.10338e-08 2.32514e-08 0.000515087

0.000460353 6.33641e-05 -2.46005e-07
6.33641e-05 0.000493707 -2.42484e-08
-2.46005e-07 -2.42484e-08 0.000477653

0.000402021 7.0096e-05 1.38871e-07
7.0096e-05 0.000310673 8.81157e-08
1.38871e-07 8.81157e-08 0.000250413

0.0003615 5.98847e-05 -6.33226e-08
5.98847e-05 0.000500928 -1.61871e-07
-6.33226e-08 -1.61871e-07 0.000380672

0.00055171 4.20677e-05 2.47287e-07
4.20677e-05 0.000547349 7.81417e-08
2.47287e-07 7.81417e-08 0.000550016

0.000552256 -4.21916e-05 1.57767e-07
-4.21916e-05 0.000547518 3.43924e-08
1.57767e-07 3.43924e-08 0.000549705

0.000527614 -5.70426e-05 -8.07802e-08
-5.70426e-05 0.000516195 9.44807e-08
-8.07802e-08 9.44807e-08 0.000502877

0.000527267 5.6873e-05 -1.39277e-07
5.6873e-05 0.00051645 -1.58166e-07
-1.39277e-07 -1.58166e-07 0.000503292

0.000206956 1.87155e-05 -6.09574e-08
1.87155e-05 0.000431825 5.49952e-08
-6.09574e-08 5.49952e-08 0.000113405

0.000407527 1.94293e-05 -1.19607e-07
1.94293e-05 0.000228988 -9.34637e-09
-1.19607e-07 -9.34637e-09 0.000113577

0.000359049 -5.69295e-05 2.62027e-08
-5.69295e-05 0.00050355 -1.07331e-07
2.62027e-08 -1.07331e-07 0.000382845

0.000596176 -4.54156e-05 1.53642e-07
-4.54156e-05 0.000607883 -1.49209e-07
1.53642e-07 -1.49209e-07 0.000596794

0.000596063 4.59018e-05 -8.33398e-08
4.59018e-05 0.000607883 -3.11451e-07
-8.33398e-08 -3.11451e-07 0.000596915

0.000482455 6.97359e-05 -6.53242e-09
6.97359e-05 0.000485643 -5.7388e-08
-6.53242e-09 -5.7388e-08 0.000450288

0.000428398 3.80963e-05 1.61603e-07
3.80963e-05 0.000278719 2.33029e-08
1.61603e-07 2.33029e-08 0.000248704

0.000527417 -7.25941e-06 6.72738e-08
-7.25941e-06 0.000421735 1.13689e-07
6.72738e-08 1.13689e-07 0.000429355

0.000421658 -4.99759e-05 -8.47404e-08
-4.99759e-05 0.000530843 8.01623e-08
-8.47404e-08 8.01623e-08 0.000473051

0.000427953 -5.47143e-05 9.79554e-08
-5.47143e-05 0.000537715 8.25112e-08
9.79554e-08 8.25112e-08 0.000476884

0.000394722 -8.28596e-05 -1.02434e-09
-8.28596e-05 0.000425251 -1.33862e-07
-1.02434e-09 -1.33862e-07 0.000352622

0.000454682 -0.000105428 -7.9252e-08
-0.000105428 0.000577978 6.0692e-08
-7.9252e-08 6.0692e-08 0.00051363

0.000482748 -7.04704e-05 2.18371e-07
-7.04704e-05 0.000486509 4.40341e-08
2.18371e-07 4.40341e-08 0.000449255

0.000433207 0.000100863 8.72999e-09
0.000100863 0.000548816 4.11478e-08
8.72999e-09 4.11478e-08 0.000500075

0.000512835 7.29093e-05 -5.99109e-08
7.29093e-05 0.000571529 2.83815e-08
-5.99109e-08 2.83815e-08 0.000533975

0.000510995 6.62758e-05 4.14401e-08
6.62758e-05 0.000560218 7.59511e-09
4.14401e-08 7.59511e-09 0.0005309

0.000443682 -9.606e-05 -1.17768e-07
-9.606e-05 0.000549416 -2.82104e-08
-1.17768e-07 -2.82104e-08 0.000480529

0.000434784 8.65473e-05 1.60407e-07
8.65473e-05 0.000526839 -1.9948e-08
1.60407e-07 -1.9948e-08 0.000469169

0.000452178 6.00084e-05 -8.57166e-08
6.00084e-05 0.000361329 -1.94037e-07
-8.57166e-08 -1.94037e-07 0.000349925

0.00045068 0.000111267 1.16571e-08
0.000111267 0.000567174 -3.80809e-08
1.16571e-08 -3.80809e-08 0.000509388

0.000395891 -6.78768e-05 -7.71509e-08
-6.78768e-05 0.000511394 4.37471e-08
-7.71509e-08 4.37471e-08 0.000437174

0.000371302 2.64655e-05 -1.4067e-07
2.64655e-05 0.000510483 1.22057e-07
-1.4067e-07 1.22057e-07 0.000409169

0.000475074 8.10041e-05 -1.25733e-07
8.10041e-05 0.000510549 -1.60126e-07
-1.25733e-07 -1.60126e-07 0.000478892

0.000380461 3.39394e-05 -1.15264e-07
3.39394e-05 0.000514827 -3.53686e-08
-1.15264e-07 -3.53686e-08 0.000413611

0.000462573 -9.44864e-05 1.166e-07
-9.44864e-05 0.00057179 -5.62716e-08
1.166e-07 -5.62716e-08 0.000520037

0.000278652 -8.10037e-05 -4.83539e-08
-8.10037e-05 0.000287502 -7.51831e-08
-4.83539e-08 -7.51831e-08 0.000161812

0.000281902 -8.18926e-05 1.82937e-07
-8.18926e-05 0.000282319 1.60378e-07
1.82937e-07 1.60378e-07 0.000161052

0.000475038 -8.11087e-05 1.24674e-07
-8.11087e-05 0.000510339 1.24159e-07
1.24674e-07 1.24159e-07 0.000478512

0.000540838 -3.06192e-05 9.38852e-08
-3.06192e-05 0.000443176 9.92205e-08
9.38852e-08 9.92205e-08 0.000472292

0.000652237 9.59371e-05 3.50204e-07
9.59371e-05 0.000608436 -9.02431e-08
3.50204e-07 -9.02431e-08 0.000609374

0.000652237 -9.60732e-05 2.99949e-07
-9.60732e-05 0.000609091 3.55589e-08
2.99949e-07 3.55589e-08 0.000609332

0.000433735 -0.000100932 -3.63274e-08
-0.000100932 0.00054703 1.15572e-08
-3.63274e-08 1.15572e-08 0.000472584

0.000541686 2.097e-05 2.23638e-08
2.097e-05 0.000559591 1.25842e-07
2.23638e-08 1.25842e-07 0.000551576

0.000542819 -1.96874e-05 7.68647e-08
-1.96874e-05 0.000560702 1.94868e-07
7.68647e-08 1.94868e-07 0.000551559

0.000573193 1.34372e-06 -1.64973e-08
1.34372e-06 0.000372227 -1.1458e-07
-1.64973e-08 -1.1458e-07 0.000458459

0.00043256 -0.000101653 -9.76434e-08
-0.000101653 0.000550275 5.29661e-08
-9.76434e-08 5.29661e-08 0.000499566

0.000302925 9.86764e-05 7.11319e-08
9.86764e-05 0.000311529 1.9322e-07
7.11319e-08 1.9322e-07 0.000200012

0.000294429 9.35322e-05 -1.21921e-09
9.35322e-05 0.000313097 8.15686e-08
-1.21921e-09 8.15686e-08 0.000202031

0.000292425 -7.02718e-05 1.5089e-07
-7.02718e-05 0.000421525 -7.17406e-08
1.5089e-07 -7.17406e-08 0.000235796

0.000298833 7.36671e-05 4.95426e-08
7.36671e-05 0.000426833 -1.13516e-07
4.95426e-08 -1.13516e-07 0.00024185

0.000409637 -5.84834e-05 1.36476e-07
-5.84834e-05 0.00031355 -1.86561e-07
1.36476e-07 -1.86561e-07 0.000236264

0.000450357 -0.000111463 -1.42589e-07
-0.000111463 0.0005698 -4.2759e-08
-1.42589e-07 -4.2759e-08 0.000509487

0.000209288 2.59055e-05 -6.10003e-08
2.59055e-05 0.000407376 5.47161e-08
-6.10003e-08 5.47161e-08 0.00020105

0.000392861 3.30923e-05 1.02959e-08
3.30923e-05 0.00023583 1.96967e-08
1.02959e-08 1.96967e-08 0.00020332

0.000528946 -3.44609e-05 7.2278e-08
-3.44609e-05 0.0005858 -2.25963e-08
7.2278e-08 -2.25963e-08 0.000548429

0.000533059 -4.16795e-05 -6.68162e-08
-4.16795e-05 0.000588468 -2.6041e-07
-6.68162e-08 -2.6041e-07 0.000550406

0.000558218 1.31548e-05 -2.06994e-08
1.31548e-05 0.000450617 -7.02305e-08
-2.06994e-08 -7.02305e-08 0.000488392

0.000605369 8.83262e-07 2.10525e-08
8.83262e-07 0.000368796 1.14754e-07
2.10525e-08 1.14754e-07 0.000498758

0.000344049 -6.38279e-05 -4.64022e-08
-6.38279e-05 0.000457741 6.11945e-08
-4.64022e-08 6.11945e-08 0.000329589

0.000341509 6.24083e-05 1.04813e-08
6.24083e-05 0.000456147 1.92583e-07
1.04813e-08 1.92583e-07 0.000328435

0.000573772 -5.00774e-08 -3.15244e-08
-5.00774e-08 0.000370197 -3.25659e-08
-3.15244e-08 -3.25659e-08 0.000460964

0.000406207 -7.70267e-05 -1.68324e-08
-7.70267e-05 0.000526483 -3.65755e-09
-1.68324e-08 -3.65755e-09 0.000446097

0.000592141 -3.30141e-05 -1.86875e-07
-3.30141e-05 0.000584257 2.52074e-07
-1.86875e-07 2.52074e-07 0.000584205

0.000591306 3.29904e-05 9.80741e-09
3.29904e-05 0.000584059 -2.01678e-07
9.80741e-09 -2.01678e-07 0.000584383

0.000492206 4.55038e-05 -6.62006e-08
4.55038e-05 0.00050017 -1.851e-07
-6.62006e-08 -1.851e-07 0.000483158

0.000432665 -8.62404e-05 2.12204e-08
-8.62404e-05 0.000527009 -1.42155e-07
2.12204e-08 -1.42155e-07 0.000468719

0.000558762 1.31396e-05 5.67436e-09
1.31396e-05 0.000393309 1.99704e-07
5.67436e-09 1.99704e-07 0.000477039

0.000383413 7.20356e-05 -1.98604e-08
7.20356e-05 0.000370061 -1.79405e-07
-1.98604e-08 -1.79405e-07 0.000300722

0.000423745 -8.85736e-05 1.08501e-07
-8.85736e-05 0.000526709 -1.03053e-07
1.08501e-07 -1.03053e-07 0.000462966

0.000152774 -0.000155522 -7.71814e-08
-0.000155522 0.000158269 7.71814e-08
-7.71814e-08 7.71814e-08 3.60016e-05

0.000375215 -2.126e-05 2.88887e-08
-2.126e-05 0.000507146 -7.59785e-08
2.88887e-08 -7.59785e-08 0.000409403

0.000382622 -2.91766e-05 9.84827e-08
-2.91766e-05 0.00051047 5.33078e-08
9.84827e-08 5.33078e-08 0.00041266

0.000536696 -6.70007e-06 -1.41923e-07
-6.70007e-06 0.000577511 8.38375e-08
-1.41923e-07 8.38375e-08 0.000552669

0.000537774 -3.87905e-06 -7.88202e-08
-3.87905e-06 0.000577072 -2.23795e-07
-7.88202e-08 -2.23795e-07 0.00055281

0.000624867 -2.4135e-05 -4.18176e-08
-2.4135e-05 0.000524126 -6.94255e-08
-4.18176e-08 -6.94255e-08 0.000587662

0.000624882 2.41916e-05 1.8684e-07
2.41916e-05 0.000524364 -6.30152e-08
1.8684e-07 -6.30152e-08 0.000588142

0.000498474 -4.75884e-05 2.56571e-08
-4.75884e-05 0.000509284 9.51608e-08
2.56571e-08 9.51608e-08 0.000515115

0.000499094 4.90267e-05 1.85982e-07
4.90267e-05 0.000501938 -7.40133e-08
1.85982e-07 -7.40133e-08 0.000511569

0.000531321 -4.22299e-05 8.79786e-09
-4.22299e-05 0.000576935 -9.4605e-08
8.79786e-09 -9.4605e-08 0.000546338

0.000530103 4.38002e-05 6.09159e-08
4.38002e-05 0.000577009 -3.96412e-08
6.09159e-08 -3.96412e-08 0.000546146

0.000617646 6.5272e-05 -1.83564e-07
6.5272e-05 0.000612142 -5.90179e-08
-1.83564e-07 -5.90179e-08 0.000601453

0.000617646 -6.53463e-05 -2.24678e-07
-6.53463e-05 0.000612804 4.86876e-09
-2.24678e-07 4.86876e-09 0.000601404

0.000482598 -0.000108341 4.59616e-09
-0.000108341 0.000578018 4.37853e-08
4.59616e-09 4.37853e-08 0.000533212

0.000482928 0.000108823 7.05281e-10
0.000108823 0.000577423 8.67655e-08
7.05281e-10 8.67655e-08 0.000533558

0.000486778 6.457e-05 -6.30854e-08
6.457e-05 0.000456623 1.7154e-07
-6.30854e-08 1.7154e-07 0.000443944

0.000421547 -5.09623e-05 -9.1308e-08
-5.09623e-05 0.00052251 3.49393e-08
-9.1308e-08 3.49393e-08 0.00044139

0.000424939 -6.37018e-05 9.3821e-08
-6.37018e-05 0.000535536 5.83787e-08
9.3821e-08 5.83787e-08 0.000446732

0.000396024 -6.42608e-05 5.03567e-09
-6.42608e-05 0.000377585 1.01821e-07
5.03567e-09 1.01821e-07 0.000292913

0.000486399 -6.46713e-05 1.83206e-07
-6.46713e-05 0.000458313 -1.24394e-07
1.83206e-07 -1.24394e-07 0.000443116

0.000420589 4.81541e-05 -1.48207e-07
4.81541e-05 0.000519967 1.18483e-07
-1.48207e-07 1.18483e-07 0.000439742

0.000445848 9.06385e-05 1.2973e-07
9.06385e-05 0.000480567 -7.62063e-08
1.2973e-07 -7.62063e-08 0.000427788

0.000458421 -9.38068e-05 1.29147e-08
-9.38068e-05 0.00055185 2.59583e-08
1.29147e-08 2.59583e-08 0.000519186

0.000459363 9.2244e-05 1.19152e-08
9.2244e-05 0.00055137 1.62862e-08
1.19152e-08 1.62862e-08 0.000519721

0.000444992 -9.19802e-05 -2.92088e-07
-9.19802e-05 0.000480147 -4.51234e-08
-2.92088e-07 -4.51234e-08 0.000426661

0.000562185 -9.07493e-06 3.22205e-08
-9.07493e-06 0.000456749 9.46557e-08
3.22205e-08 9.46557e-08 0.000496229

0.000568764 2.55924e-05 -1.32802e-07
2.55924e-05 0.000613846 -1.57757e-07
-1.32802e-07 -1.57757e-07 0.000571756

0.000570921 2.33211e-05 -3.0007e-07
2.33211e-05 0.000611381 3.64865e-07
-3.0007e-07 3.64865e-07 0.000572449

0.00046219 -8.07451e-05 4.65563e-08
-8.07451e-05 0.000557299 1.1759e-07
4.65563e-08 1.1759e-07 0.000495052

0.000491656 3.95757e-05 -5.67198e-08
3.95757e-05 0.00044027 -5.75883e-08
-5.67198e-08 -5.75883e-08 0.000470069

0.000602974 -9.55556e-06 1.59542e-08
-9.55556e-06 0.000468058 -1.00313e-07
1.59542e-08 -1.00313e-07 0.000532943

0.000297152 -8.68812e-05 1.58377e-07
-8.68812e-05 0.000310555 -1.42935e-07
1.58377e-07 -1.42935e-07 0.000179539

0.000299757 -8.48955e-05 1.22738e-07
-8.48955e-05 0.000311474 -1.87144e-07
1.22738e-07 -1.87144e-07 0.000181406

0.000622609 -2.73903e-05 4.43983e-08
-2.73903e-05 0.000519524 3.76214e-08
4.43983e-08 3.76214e-08 0.000582838

0.000622242 2.76201e-05 1.16981e-07
2.76201e-05 0.000519951 1.91584e-08
1.16981e-07 1.91584e-08 0.000583127

0.000604254 8.06692e-06 -7.79543e-08
8.06692e-06 0.000471251 -4.59828e-08
-7.79543e-08 -4.59828e-08 0.00053437

0.00042573 6.31221e-05 1.51162e-07
6.31221e-05 0.000533181 1.63209e-07
1.51162e-07 1.63209e-07 0.000445902

0.000487574 4.97204e-05 -6.17051e-08
4.97204e-05 0.000434025 1.7256e-07
-6.17051e-08 1.7256e-07 0.00040118

0.00051076 -7.18858e-05 -4.69829e-08
-7.18858e-05 0.000561013 -2.06921e-07
-4.69829e-08 -2.06921e-07 0.00052532

0.0005105 7.13296e-05 8.05903e-08
7.13296e-05 0.000560559 1.77194e-07
8.05903e-08 1.77194e-07 0.00052557

0.000617939 -1.26484e-05 2.38505e-07
-1.26484e-05 0.000548669 5.09206e-07
2.38505e-07 5.09206e-07 0.000571524

0.000617834 1.30143e-05 -1.33416e-07
1.30143e-05 0.000556206 1.83342e-07
-1.33416e-07 1.83342e-07 0.000572546

0.000436464 -9.25837e-05 -2.28952e-08
-9.25837e-05 0.000551934 8.95883e-08
-2.28952e-08 8.95883e-08 0.000491387

0.000508605 3.97594e-05 1.44089e-07
3.97594e-05 0.0004291 1.07626e-07
1.44089e-07 1.07626e-07 0.000438449

0.000579921 2.76669e-05 -1.00055e-08
2.76669e-05 0.000546003 3.5235e-07
-1.00055e-08 3.5235e-07 0.000559736

0.000580684 -2.75916e-05 3.80315e-08
-2.75916e-05 0.000546036 -9.44006e-08
3.80315e-08 -9.44006e-08 0.000559479

0.000456648 -7.17326e-05 1.15067e-07
-7.17326e-05 0.000544182 -5.87672e-08
1.15067e-07 -5.87672e-08 0.000490363

0.000438716 -9.86935e-05 4.53699e-08
-9.86935e-05 0.000549106 2.89193e-08
4.53699e-08 2.89193e-08 0.000498102

0.000156966 -0.000161238 -1.06598e-07
-0.000161238 0.00016551 1.06598e-07
-1.06598e-07 1.06598e-07 3.94423e-05

0.000478729 6.73321e-05 3.8675e-08
6.73321e-05 0.000573154 -3.76182e-08
3.8675e-08 -3.76182e-08 0.00052959

0.000478132 -6.84077e-05 -4.83105e-08
-6.84077e-05 0.000573739 -9.83367e-08
-4.83105e-08 -9.83367e-08 0.00052989

0.000424399 -8.55684e-05 1.15568e-07
-8.55684e-05 0.000538633 -5.86063e-08
1.15568e-07 -5.86063e-08 0.000484494

0.000494181 -5.37675e-05 -1.66227e-07
-5.37675e-05 0.000435516 1.58921e-07
-1.66227e-07 1.58921e-07 0.000405226

0.000499788 -4.28873e-05 6.26273e-08
-4.28873e-05 0.000502467 7.06287e-08
6.26273e-08 7.06287e-08 0.000488018

0.00049053 5.81133e-05 1.4146e-07
5.81133e-05 0.000538216 7.63193e-08
1.4146e-07 7.63193e-08 0.00051715

0.000489475 -6.04468e-05 -3.0983e-08
-6.04468e-05 0.000540216 -1.18349e-07
-3.0983e-08 -1.18349e-07 0.000517681

0.000562183 -8.74099e-06 3.25268e-08
-8.74099e-06 0.000394592 -2.91787e-08
3.25268e-08 -2.91787e-08 0.000484435

0.00061806 2.1299e-05 1.56417e-07
2.1299e-05 0.000560421 2.1516e-07
1.56417e-07 2.1516e-07 0.000594665

0.000618503 -2.12875e-05 1.52617e-08
-2.12875e-05 0.000560298 1.82444e-07
1.52617e-08 1.82444e-07 0.000594666

0.000556002 9.55845e-06 -2.9572e-07
9.55845e-06 0.000659584 7.72211e-09
-2.9572e-07 7.72211e-09 0.000567569

0.000557086 6.2711e-06 2.28278e-07
6.2711e-06 0.00066029 -1.71786e-07
2.28278e-07 -1.71786e-07 0.00056786

0.00019318 6.81683e-06 3.02227e-08
6.81683e-06 0.000431 2.77202e-08
3.02227e-08 2.77202e-08 0.000110361

0.000405506 6.008e-06 4.30872e-08
6.008e-06 0.000200742 -1.9116e-07
4.30872e-08 -1.9116e-07 0.000110295

0.000475782 -9.24395e-05 1.83787e-07
-9.24395e-05 0.000574317 1.7781e-07
1.83787e-07 1.7781e-07 0.00051532

0.000476058 9.20414e-05 1.20773e-07
9.20414e-05 0.000573911 -8.01672e-08
1.20773e-07 -8.01672e-08 0.000515556

0.000446367 -0.000105282 9.86481e-08
-0.000105282 0.000568143 -7.66225e-08
9.86481e-08 -7.66225e-08 0.000505358

0.000171385 -7.57928e-05 -1.13909e-07
-7.57928e-05 0.000346507 2.86208e-08
-1.13909e-07 2.86208e-08 9.72765e-05

0.00033119 -7.24743e-05 -6.29196e-08
-7.24743e-05 0.000188892 1.13393e-07
-6.29196e-08 1.13393e-07 9.91434e-05

0.000586839 -9.63318e-05 -4.52458e-07
-9.63318e-05 0.000662598 -6.47998e-07
-4.52458e-07 -6.47998e-07 0.000615484

0.000586839 9.65481e-05 2.96356e-07
9.65481e-05 0.000661303 -4.1322e-08
2.96356e-07 -4.1322e-08 0.00061556

0.000461138 -6.38606e-05 -7.83606e-08
-6.38606e-05 0.000494808 -4.96303e-08
-7.83606e-08 -4.96303e-08 0.000479941

0.000441082 -8.87063e-05 -2.2895e-07
-8.87063e-05 0.000502776 6.28505e-08
-2.2895e-07 6.28505e-08 0.000437972

0.000476896 -9.32548e-05 2.26668e-07
-9.32548e-05 0.000547943 -6.45038e-08
2.26668e-07 -6.45038e-08 0.000507703

0.000476986 9.2904e-05 1.5506e-07
9.2904e-05 0.000547184 1.38468e-07
1.5506e-07 1.38468e-07 0.000507878

0.000442847 -0.000100239 -1.25019e-07
-0.000100239 0.000530276 -7.50702e-08
-1.25019e-07 -7.50702e-08 0.000467272

0.000441393 8.86924e-05 1.13925e-07
8.86924e-05 0.000500498 -4.89717e-08
1.13925e-07 -4.89717e-08 0.000437681

0.000279203 -2.86866e-05 7.84238e-08
-2.86866e-05 0.000445022 -9.1369e-08
7.84238e-08 -9.1369e-08 0.000241178

0.000274375 3.48804e-05 -1.64389e-07
3.48804e-05 0.000437246 -8.5921e-08
-1.64389e-07 -8.5921e-08 0.000242236

0.000427045 -2.18837e-05 1.53339e-07
-2.18837e-05 0.000308932 -1.14614e-07
1.53339e-07 -1.14614e-07 0.000243744

0.000443083 9.9786e-05 4.96868e-08
9.9786e-05 0.000529104 -1.42078e-07
4.96868e-08 -1.42078e-07 0.000466727

0.000203678 -1.7856e-05 1.1277e-08
-1.7856e-05 0.000412008 1.23564e-07
1.1277e-08 1.23564e-07 0.000196038

0.000396079 -1.73684e-05 -7.74367e-08
-1.73684e-05 0.000211461 -1.64715e-07
-7.74367e-08 -1.64715e-07 0.000193508

0.000501166 -9.12957e-05 -6.5728e-08
-9.12957e-05 0.00057269 2.30726e-07
-6.5728e-08 2.30726e-07 0.00053635

0.000501098 9.08589e-05 8.37244e-08
9.08589e-05 0.000572519 -8.73294e-08
8.37244e-08 -8.73294e-08 0.000536651

0.00050728 -7.92574e-05 -1.5579e-07
-7.92574e-05 0.000583633 -7.67467e-08
-1.5579e-07 -7.67467e-08 0.000543799

0.000507005 7.9021e-05 2.60176e-08
7.9021e-05 0.000583606 1.12733e-07
2.60176e-08 1.12733e-07 0.000544022

0.000163758 -7.62124e-05 -8.67182e-08
-7.62124e-05 0.000334828 -4.89005e-08
-8.67182e-08 -4.89005e-08 8.55191e-05

0.000321957 -7.0515e-05 2.24868e-07
-7.0515e-05 0.000170749 1.01268e-07
2.24868e-07 1.01268e-07 8.47595e-05

0.000473987 8.43357e-05 -1.35905e-07
8.43357e-05 0.00053643 -7.0343e-08
-1.35905e-07 -7.0343e-08 0.000485439

0.000473946 -8.4843e-05 1.13237e-07
-8.4843e-05 0.0005375 1.59017e-08
1.13237e-07 1.59017e-08 0.000485219

0.000550574 -1.34504e-05 -2.97134e-07
-1.34504e-05 0.000583279 -1.0858e-09
-2.97134e-07 -1.0858e-09 0.000556829

0.000551182 -1.80821e-05 2.11412e-07
-1.80821e-05 0.000585658 -2.76613e-07
2.11412e-07 -2.76613e-07 0.000557556

0.000491071 -9.17293e-05 1.91726e-08
-9.17293e-05 0.000603716 8.54929e-08
1.91726e-08 8.54929e-08 0.000546705

0.000490863 9.23452e-05 6.56465e-08
9.23452e-05 0.000602963 -1.15995e-07
6.56465e-08 -1.15995e-07 0.000546987

0.000591873 -3.59983e-05 -2.08024e-07
-3.59983e-05 0.000552172 5.92064e-08
-2.08024e-07 5.92064e-08 0.000582088

0.000590996 3.61481e-05 -4.85887e-08
3.61481e-05 0.000552274 3.28303e-07
-4.85887e-08 3.28303e-07 0.000582225

0.000462382 7.57412e-05 -1.93895e-07
7.57412e-05 0.000537165 8.65603e-08
-1.93895e-07 8.65603e-08 0.000498522

0.000461388 -7.53588e-05 -4.38922e-08
-7.53588e-05 0.000539781 -1.18537e-07
-4.38922e-08 -1.18537e-07 0.000499136

0.000529729 -2.82431e-05 -1.26664e-07
-2.82431e-05 0.000640929 3.19846e-07
-1.26664e-07 3.19846e-07 0.000561435

0.000626763 -5.17028e-05 9.90368e-08
-5.17028e-05 0.000601024 1.2005e-07
9.90368e-08 1.2005e-07 0.000610685

0.000622456 -5.31379e-05 -3.27842e-07
-5.31379e-05 0.000602056 -2.74983e-07
-3.27842e-07 -2.74983e-07 0.000610695

0.000626846 5.19351e-05 -8.69771e-08
5.19351e-05 0.000601183 3.38782e-08
-8.69771e-08 3.38782e-08 0.000610714

0.000622111 5.36545e-05 4.3153e-07
5.36545e-05 0.000602056 -4.45947e-07
4.3153e-07 -4.45947e-07 0.000610805

0.000525782 -2.19924e-05 9.22442e-08
-2.19924e-05 0.000641448 -2.16176e-07
9.22442e-08 -2.16176e-07 0.000559556

0.000578337 -5.79825e-05 4.15508e-09
-5.79825e-05 0.000576425 -9.14218e-08
4.15508e-09 -9.14218e-08 0.000559236

0.000576494 6.01444e-05 -2.14686e-08
6.01444e-05 0.000577862 -9.54575e-08
-2.14686e-08 -9.54575e-08 0.000559891

0.000588615 -7.41436e-05 8.48197e-07
-7.41436e-05 0.000633562 -1.28415e-06
8.48197e-07 -1.28415e-06 0.000590571

0.00076814 -5.76947e-05 1.52946e-06
-5.76947e-05 0.000577984 1.16183e-06
1.52946e-06 1.16183e-06 0.000607106

0.000781508 5.41666e-05 -2.67241e-06
5.41666e-05 0.000577984 1.98515e-06
-2.67241e-06 1.98515e-06 0.000607196

0.000591559 7.63749e-05 -5.99609e-07
7.63749e-05 0.000633562 -9.8553e-07
-5.99609e-07 -9.8553e-07 0.000590713

0.000608764 -8.01349e-05 -2.38357e-07
-8.01349e-05 0.000605432 3.62836e-07
-2.38357e-07 3.62836e-07 0.000584893

0.000547859 -6.48036e-05 1.44791e-07
-6.48036e-05 0.000611834 1.09114e-07
1.44791e-07 1.09114e-07 0.00056834

0.000616061 -6.2135e-05 -2.7105e-07
-6.2135e-05 0.000615666 2.11468e-07
-2.7105e-07 2.11468e-07 0.000601341

0.000608764 8.01349e-05 8.12683e-08
8.01349e-05 0.000605432 4.65348e-08
8.12683e-08 4.65348e-08 0.000585036

0.000616061 6.2135e-05 -3.69725e-08
6.2135e-05 0.000615666 5.9409e-07
-3.69725e-08 5.9409e-07 0.000601434

0.000547859 6.44925e-05 -1.13351e-07
6.44925e-05 0.000611422 -8.23409e-08
-1.13351e-07 -8.23409e-08 0.000568491

0.000548183 -6.67637e-05 1.81291e-07
-6.67637e-05 0.000611203 -3.38115e-07
1.81291e-07 -3.38115e-07 0.00057704

0.000594032 -5.42509e-05 1.29826e-07
-5.42509e-05 0.00061455 -3.54149e-07
1.29826e-07 -3.54149e-07 0.000593655

0.000548183 6.64591e-05 -1.06552e-07
6.64591e-05 0.000610952 9.84433e-10
-1.06552e-07 9.84433e-10 0.000577184

0.000594032 5.42775e-05 -1.20138e-07
5.42775e-05 0.000614092 5.21491e-09
-1.20138e-07 5.21491e-09 0.000593749

0.000468536 4.34264e-05 1.14269e-07
4.34264e-05 0.000523293 7.00353e-09
1.14269e-07 7.00353e-09 0.000489908

0.000418809 -1.23043e-05 7.99482e-08
-1.23043e-05 0.000552463 -3.41397e-08
7.99482e-08 -3.41397e-08 0.000492326

0.000496963 -1.3954e-05 -5.41341e-08
-1.3954e-05 0.000369158 1.14871e-07
-5.41341e-08 1.14871e-07 0.000445939

0.000480028 5.59799e-07 2.66063e-08
5.59799e-07 0.000358433 7.13554e-08
2.66063e-08 7.13554e-08 0.000415054

0.000468418 4.37092e-05 1.17973e-07
4.37092e-05 0.000532652 -3.60436e-08
1.17973e-07 -3.60436e-08 0.000520509

0.000417366 -1.87714e-05 8.95698e-08
-1.87714e-05 0.000597211 7.77431e-08
8.95698e-08 7.77431e-08 0.000521298

0.000480094 2.46213e-05 2.6556e-08
2.46213e-05 0.00035976 3.49575e-08
2.6556e-08 3.49575e-08 0.000417487

0.00053642 3.13386e-05 8.24602e-08
3.13386e-05 0.000411706 6.96704e-08
8.24602e-08 6.96704e-08 0.000504223

0.000301235 6.2318e-05 -1.80976e-08
6.2318e-05 0.000388705 9.78972e-09
-1.80976e-08 9.78972e-09 0.000330854

0.000305614 6.02151e-05 -4.61652e-08
6.02151e-05 0.000389906 1.40446e-08
-4.61652e-08 1.40446e-08 0.000324555

0.000381249 5.42773e-05 -3.1478e-08
5.42773e-05 0.000302038 -1.99069e-08
-3.1478e-08 -1.99069e-08 0.000320226

0.000501297 2.75547e-05 -1.15061e-08
2.75547e-05 0.000571458 9.24999e-08
-1.15061e-08 9.24999e-08 0.000530129

0.000514267 -5.29023e-05 1.80819e-07
-5.29023e-05 0.000543911 7.93879e-08
1.80819e-07 7.93879e-08 0.000529774

0.000446144 -6.75255e-05 5.56831e-08
-6.75255e-05 0.000464561 3.48112e-08
5.56831e-08 3.48112e-08 0.000449364

0.000415484 2.29303e-05 -1.18913e-07
2.29303e-05 0.00059755 2.72035e-08
-1.18913e-07 2.72035e-08 0.000519105

0.00046602 -2.50765e-05 5.65748e-08
-2.50765e-05 0.000527911 1.54992e-07
5.65748e-08 1.54992e-07 0.000518741

0.000521568 1.74912e-05 5.0887e-08
1.74912e-05 0.00037136 -1.20381e-07
5.0887e-08 -1.20381e-07 0.000448296

0.000321769 2.84648e-05 4.94891e-08
2.84648e-05 0.000442938 -1.20379e-07
4.94891e-08 -1.20379e-07 0.000357072

0.000338123 2.15834e-05 -4.16187e-08
2.15834e-05 0.000431999 7.08318e-09
-4.16187e-08 7.08318e-09 0.000353965

0.000432499 1.69629e-05 9.98594e-08
1.69629e-05 0.000328543 -1.00588e-07
9.98594e-08 -1.00588e-07 0.000347219

0.000392103 6.67643e-05 -1.49586e-07
6.67643e-05 0.000469349 1.21519e-07
-1.49586e-07 1.21519e-07 0.000410565

0.000372086 -3.98609e-05 6.58216e-09
-3.98609e-05 0.000471155 6.22339e-08
6.58216e-09 6.22339e-08 0.000416368

0.000502985 3.87301e-05 -9.30072e-08
3.87301e-05 0.000367411 -1.31921e-08
-9.30072e-08 -1.31921e-08 0.00045071

0.000291832 4.54874e-05 6.51282e-08
4.54874e-05 0.000358684 1.67553e-07
6.51282e-08 1.67553e-07 0.000294892

0.000540264 -1.76511e-05 5.40508e-08
-1.76511e-05 0.000382533 2.35612e-08
5.40508e-08 2.35612e-08 0.000493758

0.00053355 1.188e-05 -1.05932e-07
1.188e-05 0.000547555 5.09897e-08
-1.05932e-07 5.09897e-08 0.00053294

0.000499943 -3.4125e-06 -8.92664e-08
-3.4125e-06 0.000596675 8.22904e-09
-8.92664e-08 8.22904e-09 0.000531948

0.000693434 6.78523e-05 8.12101e-08
6.78523e-05 0.000575249 1.81343e-07
8.12101e-08 1.81343e-07 0.00056004

0.000693938 -3.07019e-05 2.03262e-07
-3.07019e-05 0.000527675 7.22382e-08
2.03262e-07 7.22382e-08 0.000565486

0.000426441 -7.69404e-05 -9.13397e-08
-7.69404e-05 0.000462437 -8.64897e-08
-9.13397e-08 -8.64897e-08 0.000443008

0.000380965 -6.47559e-05 -1.09214e-07
-6.47559e-05 0.000459747 -7.9687e-08
-1.09214e-07 -7.9687e-08 0.000407163

0.000426035 -7.33584e-07 7.48446e-09
-7.33584e-07 0.000309374 -4.81532e-08
7.48446e-09 -4.81532e-08 0.000346981

0.000584406 4.26913e-05 -6.89495e-08
4.26913e-05 0.000508669 1.21773e-07
-6.89495e-08 1.21773e-07 0.00053284

0.000573676 -1.16476e-05 3.79273e-08
-1.16476e-05 0.000499144 -1.25096e-07
3.79273e-08 -1.25096e-07 0.000532803

0.000540441 -6.88939e-06 8.82443e-08
-6.88939e-06 0.000383484 2.50714e-08
8.82443e-08 2.50714e-08 0.000507684

0.000370376 -4.89588e-05 -1.08689e-07
-4.89588e-05 0.000449938 -9.14331e-08
-1.08689e-07 -9.14331e-08 0.000411571

0.000534053 9.77735e-06 8.07436e-08
9.77735e-06 0.000368924 4.02114e-08
8.07436e-08 4.02114e-08 0.000496747

0.000439413 -4.79982e-05 -9.8253e-08
-4.79982e-05 0.000387476 6.28127e-08
-9.8253e-08 6.28127e-08 0.000392298

0.000387576 7.1078e-05 -1.04514e-07
7.1078e-05 0.000436287 5.80878e-08
-1.04514e-07 5.80878e-08 0.000409859

0.000457014 5.25528e-05 -2.99018e-08
5.25528e-05 0.00034491 5.21207e-08
-2.99018e-08 5.21207e-08 0.000386903

0.000444352 -3.03638e-05 -1.02335e-07
-3.03638e-05 0.000341998 2.91041e-08
-1.02335e-07 2.91041e-08 0.000382837

0.000380284 6.04898e-05 8.72599e-09
6.04898e-05 0.000467711 -6.43605e-08
8.72599e-09 -6.43605e-08 0.000413752

0.000393527 -4.45247e-05 -7.715e-08
-4.45247e-05 0.000534847 -6.93804e-08
-7.715e-08 -6.93804e-08 0.000491403

0.00042765 7.96487e-05 -8.40291e-08
7.96487e-05 0.000526232 -5.53881e-09
-8.40291e-08 -5.53881e-09 0.000486315

0.000393296 -5.65034e-05 1.16687e-07
-5.65034e-05 0.000463838 1.48496e-07
1.16687e-07 1.48496e-07 0.000411745

0.000384028 7.37416e-05 -2.44265e-08
7.37416e-05 0.000464111 -2.58089e-08
-2.44265e-08 -2.58089e-08 0.000407023

0.000233938 -6.20642e-05 -1.7815e-07
-6.20642e-05 0.000243964 -1.68802e-08
-1.7815e-07 -1.68802e-08 0.000242553

0.000228238 7.10733e-05 9.46785e-08
7.10733e-05 0.000254247 -1.38596e-07
9.46785e-08 -1.38596e-07 0.000238839

0.000421249 6.04743e-05 1.76341e-07
6.04743e-05 0.000558006 2.13839e-08
1.76341e-07 2.13839e-08 0.000518652

0.000456512 -7.14414e-05 -3.58918e-08
-7.14414e-05 0.000538153 -2.71989e-09
-3.58918e-08 -2.71989e-09 0.000516284

0.000392074 6.69304e-05 -1.51318e-07
6.69304e-05 0.000494213 7.9682e-08
-1.51318e-07 7.9682e-08 0.000442067

0.000231356 2.27896e-05 8.82117e-08
2.27896e-05 0.000233417 6.31442e-08
8.82117e-08 6.31442e-08 0.000252506

0.000226542 -4.0139e-07 -4.81195e-08
-4.0139e-07 0.000249933 -1.06051e-08
-4.81195e-08 -1.06051e-08 0.000255569

0.000518649 -5.08699e-05 2.01412e-07
-5.08699e-05 0.000541556 -3.63324e-08
2.01412e-07 -3.63324e-08 0.000540022

0.000522658 2.49627e-05 1.58412e-07
2.49627e-05 0.000555797 -4.83858e-09
1.58412e-07 -4.83858e-09 0.000538204

0.000556617 -1.49043e-06 -1.07669e-07
-1.49043e-06 0.000380612 -6.16586e-08
-1.07669e-07 -6.16586e-08 0.000470419

0.000519592 -4.75856e-05 2.05763e-07
-4.75856e-05 0.000541088 -5.71097e-09
2.05763e-07 -5.71097e-09 0.000539391

0.000525403 1.70841e-05 1.69855e-07
1.70841e-05 0.00053074 -8.53668e-08
1.69855e-07 -8.53668e-08 0.000538108

0.000372253 -4.19442e-05 6.64049e-09
-4.19442e-05 0.000497003 6.15075e-08
6.64049e-09 6.15075e-08 0.000447598

0.000636991 6.43025e-05 8.88588e-08
6.43025e-05 0.0005638 4.63857e-08
8.88588e-08 4.63857e-08 0.000553869

0.000650458 -5.2826e-05 -1.61342e-07
-5.2826e-05 0.00051351 4.8173e-09
-1.61342e-07 4.8173e-09 0.000559174

0.000490271 -5.16042e-05 -1.14466e-07
-5.16042e-05 0.000487446 5.36054e-08
-1.14466e-07 5.36054e-08 0.000506718

0.000492 3.9204e-05 -7.20035e-08
3.9204e-05 0.000495346 4.00296e-08
-7.20035e-08 4.00296e-08 0.000504523

0.000524497 3.71369e-06 1.08781e-07
3.71369e-06 0.000665644 -8.90336e-08
1.08781e-07 -8.90336e-08 0.000553058

0.000534872 3.08929e-05 4.94372e-08
3.08929e-05 0.000601391 2.73517e-08
4.94372e-08 2.73517e-08 0.000555151

0.000275178 2.15175e-05 -1.68714e-08
2.15175e-05 0.00034289 5.91375e-08
-1.68714e-08 5.91375e-08 0.000287913

0.000338974 2.21508e-05 -6.30698e-08
2.21508e-05 0.000278329 -3.98344e-08
-6.30698e-08 -3.98344e-08 0.00028815

0.000417484 6.39566e-05 8.28429e-08
6.39566e-05 0.000520086 2.95236e-08
8.28429e-08 2.95236e-08 0.000475907

0.000382107 -3.90195e-05 6.05123e-09
-3.90195e-05 0.000533023 -8.70639e-08
6.05123e-09 -8.70639e-08 0.000479512

0.000616287 -8.15697e-05 2.0864e-07
-8.15697e-05 0.000709398 1.56302e-07
2.0864e-07 1.56302e-07 0.000574877

0.000658434 5.03344e-05 -2.51381e-07
5.03344e-05 0.000570782 5.25397e-07
-2.51381e-07 5.25397e-07 0.000575576

0.000435464 6.80889e-05 -6.56191e-08
6.80889e-05 0.000395523 -2.07169e-07
-6.56191e-08 -2.07169e-07 0.000401105

0.000510495 2.61898e-05 -4.84671e-08
2.61898e-05 0.000422015 -2.97375e-08
-4.84671e-08 -2.97375e-08 0.000478674

0.000506811 -3.42961e-05 -7.97099e-08
-3.42961e-05 0.000420258 -1.74629e-08
-7.97099e-08 -1.74629e-08 0.000479297

0.00056567 -3.65985e-05 4.53834e-08
-3.65985e-05 0.000434778 -9.22117e-08
4.53834e-08 -9.22117e-08 0.000524694

0.000423919 1.53458e-05 -3.72968e-10
1.53458e-05 0.000310328 7.14966e-08
-3.72968e-10 7.14966e-08 0.000348614

0.00072509 5.05984e-06 -3.46152e-07
5.05984e-06 0.000554152 -1.82653e-07
-3.46152e-07 -1.82653e-07 0.000569912

0.000698752 -9.49614e-06 -1.36233e-07
-9.49614e-06 0.000651197 2.89961e-07
-1.36233e-07 2.89961e-07 0.000564068

0.000449524 8.13548e-05 9.7443e-08
8.13548e-05 0.000408006 -4.53689e-08
9.7443e-08 -4.53689e-08 0.000435097

0.000520957 2.16073e-05 4.10353e-08
2.16073e-05 0.000406702 4.62185e-08
4.10353e-08 4.62185e-08 0.000452663

0.000363375 6.61568e-05 7.13065e-08
6.61568e-05 0.000387972 4.14577e-09
7.13065e-08 4.14577e-09 0.000347941

0.000564093 -3.76958e-05 5.95495e-08
-3.76958e-05 0.000683447 -7.70583e-08
5.95495e-08 -7.70583e-08 0.000559605

0.000556101 2.31966e-05 2.63981e-08
2.31966e-05 0.000596391 2.17475e-08
2.63981e-08 2.17475e-08 0.000563471

0.000575059 6.85294e-05 -7.17037e-09
6.85294e-05 0.00046491 -1.55316e-07
-7.17037e-09 -1.55316e-07 0.000525856

0.00046648 -2.14066e-05 4.2294e-08
-2.14066e-05 0.000520965 -8.56463e-08
4.2294e-08 -8.56463e-08 0.000488853

0.000416507 1.54391e-05 -1.14799e-07
1.54391e-05 0.000554541 -4.30741e-08
-1.14799e-07 -4.30741e-08 0.000490767

0.000559065 -1.07223e-05 2.10245e-08
-1.07223e-05 0.000391729 9.65125e-09
2.10245e-08 9.65125e-09 0.000492038

0.000567458 7.7696e-06 8.86394e-08
7.7696e-06 0.000388176 7.0955e-08
8.86394e-08 7.0955e-08 0.000492474

0.000387615 -4.37381e-05 -2.78948e-08
-4.37381e-05 0.000360917 2.1477e-07
-2.78948e-08 2.1477e-07 0.000343322

0.000503312 2.0212e-06 1.14689e-08
2.0212e-06 0.000360429 -1.40162e-07
1.14689e-08 -1.40162e-07 0.000415744

0.000561417 8.5123e-06 1.19401e-07
8.5123e-06 0.000438454 -3.55365e-08
1.19401e-07 -3.55365e-08 0.000515683

0.000547308 -1.85635e-05 8.94135e-08
-1.85635e-05 0.000449591 -7.86983e-08
8.94135e-08 -7.86983e-08 0.00051633

0.000516711 -2.51626e-05 -7.67201e-08
-2.51626e-05 0.000398841 -1.98935e-08
-7.67201e-08 -1.98935e-08 0.000453506

0.000557269 -1.22278e-05 1.83915e-08
-1.22278e-05 0.000425317 -4.15468e-09
1.83915e-08 -4.15468e-09 0.000496312

0.000566981 5.14606e-06 1.12039e-07
5.14606e-06 0.000425167 -4.32965e-08
1.12039e-07 -4.32965e-08 0.000496361

0.000509111 5.36885e-05 -2.36984e-08
5.36885e-05 0.000401864 1.15739e-07
-2.36984e-08 1.15739e-07 0.000462522

0.000389212 -7.12537e-05 3.46596e-08
-7.12537e-05 0.000381432 8.35905e-08
3.46596e-08 8.35905e-08 0.000369632

0.000437989 9.30924e-05 -1.12926e-07
9.30924e-05 0.000529235 -1.58872e-07
-1.12926e-07 -1.58872e-07 0.000494896

0.000426292 -7.96048e-05 1.19845e-07
-7.96048e-05 0.000498999 -1.82943e-08
1.19845e-07 -1.82943e-08 0.000501034

0.000417367 -5.92526e-05 -1.14744e-07
-5.92526e-05 0.000505713 1.44951e-09
-1.14744e-07 1.44951e-09 0.000506942

0.000442265 9.82654e-05 -7.01956e-08
9.82654e-05 0.000544549 2.04897e-08
-7.01956e-08 2.04897e-08 0.000500614

0.00046549 3.39819e-05 1.3012e-08
3.39819e-05 0.000337237 -1.40972e-07
1.3012e-08 -1.40972e-07 0.000386351

0.00035404 -4.05557e-05 2.85099e-08
-4.05557e-05 0.00030525 1.5104e-07
2.85099e-08 1.5104e-07 0.000303595

0.000510894 7.72661e-05 -6.62055e-08
7.72661e-05 0.000430354 -1.28799e-07
-6.62055e-08 -1.28799e-07 0.000484644

0.000501653 -2.62968e-05 1.57023e-08
-2.62968e-05 0.000400407 -1.04786e-07
1.57023e-08 -1.04786e-07 0.000454471

0.000364045 -3.1698e-05 -7.57558e-08
-3.1698e-05 0.000298562 -6.69183e-08
-7.57558e-08 -6.69183e-08 0.000306317

0.000445855 -6.33359e-05 6.10742e-08
-6.33359e-05 0.000407701 -6.31471e-08
6.10742e-08 -6.31471e-08 0.000430025

0.00036751 8.03039e-07 -9.2532e-09
8.03039e-07 0.000552561 1.17741e-08
-9.2532e-09 1.17741e-08 0.000474638

0.000410031 9.6037e-06 -1.15374e-08
9.6037e-06 0.00050398 -5.76711e-08
-1.15374e-08 -5.76711e-08 0.000472451

0.000390144 8.12805e-05 -1.28743e-07
8.12805e-05 0.000393485 -1.76204e-07
-1.28743e-07 -1.76204e-07 0.00038247

0.000387948 -4.70864e-05 -9.98226e-09
-4.70864e-05 0.000308025 -2.53755e-07
-9.98226e-09 -2.53755e-07 0.000329503

0.000457782 8.62933e-05 -1.62826e-08
8.62933e-05 0.000484529 -5.9698e-08
-1.62826e-08 -5.9698e-08 0.00050096

0.000450826 -8.2325e-05 -8.08147e-08
-8.2325e-05 0.000508029 -8.6956e-08
-8.08147e-08 -8.6956e-08 0.000494338

0.000373569 -6.06334e-05 -9.99052e-08
-6.06334e-05 0.000423941 -1.64252e-07
-9.99052e-08 -1.64252e-07 0.000382323

0.000382548 -6.71494e-05 -9.75535e-08
-6.71494e-05 0.000418946 -1.5907e-07
-9.75535e-08 -1.5907e-07 0.000377716

0.000502055 6.25091e-05 2.96058e-08
6.25091e-05 0.000410609 -4.0118e-08
2.96058e-08 -4.0118e-08 0.000457486

0.000579925 3.87926e-05 -1.05064e-07
3.87926e-05 0.000384318 -1.14679e-07
-1.05064e-07 -1.14679e-07 0.000523632

0.000581847 -2.62167e-05 5.63591e-08
-2.62167e-05 0.000367765 6.46039e-08
5.63591e-08 6.46039e-08 0.000524224

0.0003557 4.98868e-05 1.82393e-08
4.98868e-05 0.000463925 1.56232e-07
1.82393e-08 1.56232e-07 0.000390981

0.00045031 7.65987e-05 6.99207e-08
7.65987e-05 0.000435974 9.31283e-08
6.99207e-08 9.31283e-08 0.00044091

0.000279175 7.32237e-06 -5.74968e-08
7.32237e-06 0.000433369 -1.57719e-07
-5.74968e-08 -1.57719e-07 0.000342017

0.000294657 4.03127e-06 9.5262e-08
4.03127e-06 0.000425637 4.46745e-08
9.5262e-08 4.46745e-08 0.000339066

0.000428534 3.53503e-06 1.64942e-07
3.53503e-06 0.000283981 8.85795e-08
1.64942e-07 8.85795e-08 0.000334568

0.000408773 -5.7694e-05 1.18065e-07
-5.7694e-05 0.000368387 7.67093e-08
1.18065e-07 7.67093e-08 0.000381295

0.000562541 -3.94964e-05 4.42113e-08
-3.94964e-05 0.000635504 1.60989e-08
4.42113e-08 1.60989e-08 0.000571857

0.000705568 2.13057e-05 2.92309e-07
2.13057e-05 0.000706641 -3.24777e-09
2.92309e-07 -3.24777e-09 0.000566752

0.000437269 6.94675e-05 -2.40706e-08
6.94675e-05 0.000347271 4.17382e-08
-2.40706e-08 4.17382e-08 0.000381098

0.000469269 -2.88608e-05 -4.85206e-08
-2.88608e-05 0.000339002 4.63066e-08
-4.85206e-08 4.63066e-08 0.000391281

0.000364975 4.87335e-05 8.85341e-08
4.87335e-05 0.000293474 1.29025e-07
8.85341e-08 1.29025e-07 0.000310878

0.000393513 -5.03258e-05 -2.89399e-08
-5.03258e-05 0.000496494 9.06061e-08
-2.89399e-08 9.06061e-08 0.000470988

0.000421509 9.14506e-05 -1.18418e-07
9.14506e-05 0.000514637 1.06774e-07
-1.18418e-07 1.06774e-07 0.000465382

0.000556615 -1.44628e-06 -1.13672e-07
-1.44628e-06 0.000379273 1.09948e-07
-1.13672e-07 1.09948e-07 0.000469961

0.000332289 4.57402e-05 8.15645e-08
4.57402e-05 0.000463229 -3.96024e-08
8.15645e-08 -3.96024e-08 0.000394247

0.000403684 -6.0843e-05 -1.11692e-07
-6.0843e-05 0.000563138 8.06978e-09
-1.11692e-07 8.06978e-09 0.00052136

0.000452436 8.59231e-05 -3.26544e-08
8.59231e-05 0.000550255 -6.09083e-08
-3.26544e-08 -6.09083e-08 0.00051707

0.000357382 5.35969e-05 1.87979e-07
5.35969e-05 0.00038943 2.15342e-08
1.87979e-07 2.15342e-08 0.000342166

0.000379628 5.64405e-05 5.66079e-09
5.64405e-05 0.000369032 1.74358e-07
5.66079e-09 1.74358e-07 0.000337983

0.000368277 4.35127e-05 1.27265e-07
4.35127e-05 0.000296625 1.96311e-08
1.27265e-07 1.96311e-08 0.0003125

0.000436691 9.43154e-05 -4.1739e-08
9.43154e-05 0.000554867 9.7386e-08
-4.1739e-08 9.7386e-08 0.000502594

0.00042092 -6.85444e-05 7.90507e-08
-6.85444e-05 0.00048882 1.28183e-07
7.90507e-08 1.28183e-07 0.000509663

0.000591041 2.89758e-06 6.22802e-08
2.89758e-06 0.000383673 7.92091e-08
6.22802e-08 7.92091e-08 0.000503343

0.000442992 6.45877e-05 -2.89559e-10
6.45877e-05 0.000487267 -1.17688e-08
-2.89559e-10 -1.17688e-08 0.000509025

0.000445108 -8.04682e-05 -1.23248e-07
-8.04682e-05 0.000538296 2.54067e-08
-1.23248e-07 2.54067e-08 0.000503655

0.000443223 7.76469e-05 4.35309e-08
7.76469e-05 0.000457333 5.10519e-08
4.35309e-08 5.10519e-08 0.000466481

0.000324089 -1.68955e-05 6.60344e-08
-1.68955e-05 0.000446427 -2.24077e-07
6.60344e-08 -2.24077e-07 0.000362957

0.000342598 -2.25308e-05 7.77749e-08
-2.25308e-05 0.000440343 5.46354e-08
7.77749e-08 5.46354e-08 0.0003602

0.000433655 -1.33646e-05 2.31858e-07
-1.33646e-05 0.000332501 -5.26027e-08
2.31858e-07 -5.26027e-08 0.000355433

0.000407478 -4.73318e-05 1.16765e-07
-4.73318e-05 0.000406036 9.9667e-08
1.16765e-07 9.9667e-08 0.00039514

0.000410198 8.20371e-06 -1.38408e-08
8.20371e-06 0.000492431 -1.13273e-08
-1.38408e-08 -1.13273e-08 0.000431908

0.000367835 3.08941e-06 -4.46978e-09
3.08941e-06 0.000513367 1.07831e-07
-4.46978e-09 1.07831e-07 0.000434626

0.000328075 -5.32746e-05 -1.13905e-07
-5.32746e-05 0.0003821 -2.95825e-08
-1.13905e-07 -2.95825e-08 0.000327564

0.000326791 -5.07335e-05 -3.72427e-08
-5.07335e-05 0.000370962 2.09743e-07
-3.72427e-08 2.09743e-07 0.000328985

0.000595322 -2.75754e-06 6.50373e-08
-2.75754e-06 0.000390979 7.50285e-08
6.50373e-08 7.50285e-08 0.000504179

0.00058721 3.31648e-06 2.0013e-08
3.31648e-06 0.000395479 9.49066e-09
2.0013e-08 9.49066e-09 0.000503833

0.000419265 -6.32397e-05 -3.75284e-08
-6.32397e-05 0.000480267 8.68497e-08
-3.75284e-08 8.68497e-08 0.000477822

0.000426131 8.299e-05 1.27208e-07
8.299e-05 0.000521025 1.78196e-09
1.27208e-07 1.78196e-09 0.000471986

0.000404755 5.37942e-05 -1.29171e-07
5.37942e-05 0.000555338 -8.7757e-08
-1.29171e-07 -8.7757e-08 0.000519821

0.000452506 -7.84246e-05 -9.84262e-08
-7.84246e-05 0.0005435 1.90463e-08
-9.84262e-08 1.90463e-08 0.000516108

0.000470187 -6.29016e-05 1.84853e-07
-6.29016e-05 0.000460904 3.48634e-09
1.84853e-07 3.48634e-09 0.000480995

0.000333005 -3.28899e-05 -4.92203e-08
-3.28899e-05 0.000470587 6.48527e-08
-4.92203e-08 6.48527e-08 0.000395936

0.000530495 9.6187e-06 2.47988e-07
9.6187e-06 0.000496791 3.20876e-08
2.47988e-07 3.20876e-08 0.000521284

0.00052152 -3.15692e-05 1.60885e-07
-3.15692e-05 0.000488599 6.17218e-08
1.60885e-07 6.17218e-08 0.000522713

0.000462028 -4.83795e-05 -1.83299e-08
-4.83795e-05 0.000425591 -4.54863e-09
-1.83299e-08 -4.54863e-09 0.000442693

0.000505323 -4.14718e-05 -7.68866e-08
-4.14718e-05 0.000450435 1.47761e-08
-7.68866e-08 1.47761e-08 0.000484799

0.000508656 3.49959e-05 -5.58377e-08
3.49959e-05 0.000468755 5.67732e-08
-5.58377e-08 5.67732e-08 0.000482624

0.000230099 -1.91012e-05 -1.27729e-07
-1.91012e-05 0.000161878 -6.73037e-08
-1.27729e-07 -6.73037e-08 0.000255302

0.000385546 8.20112e-05 -3.87952e-08
8.20112e-05 0.00041806 -2.15486e-07
-3.87952e-08 -2.15486e-07 0.000379511

0.000181228 3.87949e-05 5.88157e-08
3.87949e-05 0.00023376 -1.69997e-07
5.88157e-08 -1.69997e-07 0.000253732

0.000356306 -4.42389e-05 3.71682e-08
-4.42389e-05 0.00046119 1.59287e-07
3.71682e-08 1.59287e-07 0.000392862

0.000552613 -4.3513e-05 -1.59314e-07
-4.3513e-05 0.000602407 2.47396e-07
-1.59314e-07 2.47396e-07 0.000560727

0.000582412 1.75389e-05 -1.25901e-07
1.75389e-05 0.000564149 3.26272e-07
-1.25901e-07 3.26272e-07 0.000560263

0.00046421 5.34473e-05 -1.1767e-07
5.34473e-05 0.000442299 -7.34021e-08
-1.1767e-07 -7.34021e-08 0.000439661

0.000503355 -3.17045e-06 1.05696e-08
-3.17045e-06 0.000357377 8.07837e-08
1.05696e-08 8.07837e-08 0.000416351

0.000417757 6.62798e-05 4.5913e-08
6.62798e-05 0.000366347 1.99651e-07
4.5913e-08 1.99651e-07 0.00037592

0.000384201 3.19852e-05 -3.12228e-08
3.19852e-05 0.00054607 -8.50524e-08
-3.12228e-08 -8.50524e-08 0.000479263

0.000421085 -4.43169e-05 -2.88033e-08
-4.43169e-05 0.000509403 -1.21323e-07
-2.88033e-08 -1.21323e-07 0.000476338

0.000511442 7.36507e-05 8.22018e-08
7.36507e-05 0.000551607 -6.84198e-08
8.22018e-08 -6.84198e-08 0.000531213

0.000505603 -4.1065e-05 1.47806e-07
-4.1065e-05 0.000565289 2.50389e-08
1.47806e-07 2.50389e-08 0.000532077

0.000433476 9.99743e-05 5.01299e-10
9.99743e-05 0.000544931 2.68957e-08
5.01299e-10 2.68957e-08 0.000500941

0.000380594 -9.51443e-05 -2.86618e-09
-9.51443e-05 0.000512535 -8.71003e-09
-2.86618e-09 -8.71003e-09 0.000508756

0.000378385 5.25527e-05 1.36162e-08
5.25527e-05 0.000493052 -1.67901e-08
1.36162e-08 -1.67901e-08 0.000447203

0.000369908 2.65287e-05 1.01355e-07
2.65287e-05 0.000484402 -7.37606e-08
1.01355e-07 -7.37606e-08 0.000420323

0.000455937 -5.79662e-05 -4.59012e-08
-5.79662e-05 0.000446693 1.92629e-08
-4.59012e-08 1.92629e-08 0.000468245

0.000456518 6.16304e-05 2.04817e-08
6.16304e-05 0.000462126 4.57034e-08
2.04817e-08 4.57034e-08 0.000465219

0.000417038 6.28755e-05 1.37757e-08
6.28755e-05 0.000421976 -2.73448e-07
1.37757e-08 -2.73448e-07 0.000392996

0.000393751 -6.19463e-05 1.21818e-07
-6.19463e-05 0.000490234 4.00949e-08
1.21818e-07 4.00949e-08 0.000444178

0.000345201 -1.0937e-05 -3.80746e-08
-1.0937e-05 0.000505176 9.20058e-08
-3.80746e-08 9.20058e-08 0.000424449

0.000270658 4.45328e-05 -3.3187e-09
4.45328e-05 0.000302025 -6.55656e-08
-3.3187e-09 -6.55656e-08 0.000266722

0.000297451 4.58263e-05 -2.62665e-08
4.58263e-05 0.000274254 -4.32846e-08
-2.62665e-08 -4.32846e-08 0.000267104

0.000355249 -5.32447e-05 5.44381e-08
-5.32447e-05 0.000372573 7.02782e-08
5.44381e-08 7.02782e-08 0.000334934

0.000517176 -1.96932e-05 -7.11031e-08
-1.96932e-05 0.00037126 1.25201e-07
-7.11031e-08 1.25201e-07 0.000448445

0.00061261 -6.53126e-05 3.0754e-07
-6.53126e-05 0.000652443 -8.17286e-08
3.0754e-07 -8.17286e-08 0.000573096

0.000674595 7.02682e-05 -5.08815e-07
7.02682e-05 0.000573124 -9.41884e-08
-5.08815e-07 -9.41884e-08 0.000573325

0.000578863 6.81899e-05 -4.16714e-08
6.81899e-05 0.000580419 1.55598e-07
-4.16714e-08 1.55598e-07 0.000549319

0.000564769 -1.73291e-05 -1.85058e-07
-1.73291e-05 0.000528223 1.59936e-07
-1.85058e-07 1.59936e-07 0.000553145

0.000513781 -5.5506e-07 -3.36062e-08
-5.5506e-07 0.000378752 1.26025e-07
-3.36062e-08 1.26025e-07 0.000470249

0.000436732 -8.88804e-05 -8.35272e-08
-8.88804e-05 0.000533629 9.19925e-08
-8.35272e-08 9.19925e-08 0.000501101

0.000394907 9.27858e-05 2.73389e-08
9.27858e-05 0.000508112 -5.2331e-08
2.73389e-08 -5.2331e-08 0.000507147

0.000286053 -4.31022e-05 -6.31066e-09
-4.31022e-05 0.000306473 1.44883e-07
-6.31066e-09 1.44883e-07 0.000278276

0.000292246 5.58475e-05 7.83629e-08
5.58475e-05 0.000294157 1.28616e-07
7.83629e-08 1.28616e-07 0.000281668

0.000269928 -1.98405e-05 1.22744e-07
-1.98405e-05 0.000360327 7.02074e-08
1.22744e-07 7.02074e-08 0.000298233

0.000288773 -2.46222e-05 -2.84789e-08
-2.46222e-05 0.000364437 -1.1633e-07
-2.84789e-08 -1.1633e-07 0.000300321

0.000364078 -1.7367e-05 -1.97519e-07
-1.7367e-05 0.000273073 -7.52205e-08
-1.97519e-07 -7.52205e-08 0.000296281

0.000366007 6.55651e-05 5.51793e-08
6.55651e-05 0.000352192 6.73475e-08
5.51793e-08 6.73475e-08 0.000341189

0.000237049 1.9454e-05 -1.03501e-07
1.9454e-05 0.000347851 1.15674e-07
-1.03501e-07 1.15674e-07 0.000281542

0.000342028 4.04063e-06 -2.75356e-08
4.04063e-06 0.000241183 -1.53361e-07
-2.75356e-08 -1.53361e-07 0.000281452

0.000522393 -8.16986e-06 3.5513e-08
-8.16986e-06 0.000629319 -3.734e-09
3.5513e-08 -3.734e-09 0.000546761

0.000531917 -2.85942e-05 2.72585e-08
-2.85942e-05 0.000569477 -2.34914e-07
2.72585e-08 -2.34914e-07 0.000548407

0.000532998 -2.27239e-05 -3.69674e-08
-2.27239e-05 0.000437984 -1.37814e-08
-3.69674e-08 -1.37814e-08 0.000495482

0.000557736 9.89804e-06 8.97157e-08
9.89804e-06 0.000334035 2.93685e-08
8.97157e-08 2.93685e-08 0.000508334

0.000325282 -4.33522e-05 -9.8788e-08
-4.33522e-05 0.000415306 -1.58142e-07
-9.8788e-08 -1.58142e-07 0.000349635

0.000321622 -3.12331e-05 1.99751e-08
-3.12331e-05 0.000415453 -2.79581e-07
1.99751e-08 -2.79581e-07 0.000354141

0.000522176 2.09661e-05 -6.56976e-08
2.09661e-05 0.000383523 -3.48851e-08
-6.56976e-08 -3.48851e-08 0.000472587

0.000545577 -2.04496e-05 9.18171e-08
-2.04496e-05 0.00055782 -4.85523e-08
9.18171e-08 -4.85523e-08 0.000549998

0.000571827 -1.56298e-07 -3.19647e-07
-1.56298e-07 0.000537142 9.79464e-08
-3.19647e-07 9.79464e-08 0.000549225

0.000493685 -4.32733e-05 -4.51831e-08
-4.32733e-05 0.000476685 -1.51468e-07
-4.51831e-08 -1.51468e-07 0.000489074

0.000444877 7.24167e-05 5.95853e-08
7.24167e-05 0.000472524 -1.41815e-08
5.95853e-08 -1.41815e-08 0.000476808

0.000426352 -7.61882e-05 -9.14817e-08
-7.61882e-05 0.000507676 -8.19306e-08
-9.14817e-08 -8.19306e-08 0.000470056

0.00053289 -2.03462e-05 -3.3635e-08
-2.03462e-05 0.000386437 -7.98805e-08
-3.3635e-08 -7.98805e-08 0.000485608

0.000407425 6.12435e-05 3.28815e-08
6.12435e-05 0.000489769 -2.35368e-09
3.28815e-08 -2.35368e-09 0.000471434

0.000425588 -8.10367e-05 1.06688e-07
-8.10367e-05 0.000501624 4.85228e-08
1.06688e-07 4.85228e-08 0.000466645

0.00022299 -9.04381e-05 -3.59797e-08
-9.04381e-05 0.00022967 -2.3814e-08
-3.59797e-08 -2.3814e-08 0.000234251

0.00034695 1.87506e-05 3.13115e-08
1.87506e-05 0.000503797 9.25423e-08
3.13115e-08 9.25423e-08 0.000422349

0.000377397 -1.74269e-05 -4.7061e-08
-1.74269e-05 0.000478444 -2.3029e-08
-4.7061e-08 -2.3029e-08 0.000420328

0.000502289 9.32716e-06 -7.42305e-08
9.32716e-06 0.000665409 9.63977e-08
-7.42305e-08 9.63977e-08 0.000549272

0.000537503 -1.15508e-06 -7.78859e-08
-1.15508e-06 0.000564509 -1.13464e-07
-7.78859e-08 -1.13464e-07 0.000551964

0.000583629 -3.71008e-06 1.64243e-08
-3.71008e-06 0.000419948 1.41794e-08
1.64243e-08 1.41794e-08 0.000520295

0.000597576 6.16159e-06 -2.26906e-09
6.16159e-06 0.000410401 -1.27032e-08
-2.26906e-09 -1.27032e-08 0.000520389

0.000531466 8.70579e-05 1.6816e-07
8.70579e-05 0.000487666 5.41373e-08
1.6816e-07 5.41373e-08 0.000517544

0.000513699 -4.95483e-05 -3.65547e-08
-4.95483e-05 0.000478206 -1.55466e-07
-3.65547e-08 -1.55466e-07 0.000515184

0.00059744 3.18392e-05 -4.60404e-09
3.18392e-05 0.000553619 -2.04116e-09
-4.60404e-09 -2.04116e-09 0.000544686

0.000563275 -1.68987e-05 -1.94087e-07
-1.68987e-05 0.000559439 1.21175e-07
-1.94087e-07 1.21175e-07 0.000547382

0.000612687 3.62798e-05 -9.68242e-08
3.62798e-05 0.000577313 -1.18288e-07
-9.68242e-08 -1.18288e-07 0.000569265

0.000601289 -0.000104254 -1.03928e-07
-0.000104254 0.000647926 -1.05798e-07
-1.03928e-07 -1.05798e-07 0.000569136

0.000458999 9.08228e-05 7.88008e-08
9.08228e-05 0.000552284 1.23663e-07
7.88008e-08 1.23663e-07 0.000519129

0.000433069 -0.000111936 -1.77913e-09
-0.000111936 0.000507164 1.45809e-07
-1.77913e-09 1.45809e-07 0.00052502

0.000468327 4.86812e-05 -1.5019e-07
4.86812e-05 0.000399642 7.55137e-08
-1.5019e-07 7.55137e-08 0.000431056

0.000383159 3.82663e-05 -4.65814e-08
3.82663e-05 0.000508981 2.06633e-08
-4.65814e-08 2.06633e-08 0.000450856

0.000423639 -6.3252e-05 1.93282e-07
-6.3252e-05 0.000421488 3.34415e-08
1.93282e-07 3.34415e-08 0.000426405

0.000420218 -4.81381e-05 -1.83785e-08
-4.81381e-05 0.000496965 -5.18081e-08
-1.83785e-08 -5.18081e-08 0.000448357

0.000464745 -4.50541e-05 -1.96434e-08
-4.50541e-05 0.000393873 -1.09241e-08
-1.96434e-08 -1.09241e-08 0.000433457

0.000417154 5.38236e-05 8.09266e-08
5.38236e-05 0.000500151 -8.59843e-08
8.09266e-08 -8.59843e-08 0.000446866

0.000431153 7.64553e-05 1.86263e-07
7.64553e-05 0.000434783 -1.30841e-07
1.86263e-07 -1.30841e-07 0.000422976

0.000464812 0.000100849 3.42244e-08
0.000100849 0.000508537 -5.49056e-10
3.42244e-08 -5.49056e-10 0.000522931

0.000470663 -7.53345e-05 2.02081e-08
-7.53345e-05 0.000533919 -1.17694e-08
2.02081e-08 -1.17694e-08 0.000520095

0.000545538 4.59677e-05 -3.29484e-09
4.59677e-05 0.00044854 -1.51684e-07
-3.29484e-09 -1.51684e-07 0.000501581

0.000706813 3.3945e-05 -4.79215e-07
3.3945e-05 0.000686416 -2.23188e-07
-4.79215e-07 -2.23188e-07 0.000565788

0.00057415 3.23495e-05 7.30552e-09
3.23495e-05 0.0005975 9.86386e-08
7.30552e-09 9.86386e-08 0.000571165

0.000493475 -4.655e-05 -3.52539e-08
-4.655e-05 0.0004261 -1.31776e-08
-3.52539e-08 -1.31776e-08 0.000477481

0.000589785 3.11943e-06 -2.09829e-08
3.11943e-06 0.000462056 -1.18058e-07
-2.09829e-08 -1.18058e-07 0.000538126

0.00027469 -3.95675e-05 1.09892e-07
-3.95675e-05 0.00030611 1.92098e-07
1.09892e-07 1.92098e-07 0.000272037

0.000306137 -3.29393e-05 -9.69662e-08
-3.29393e-05 0.000271972 -7.13934e-08
-9.69662e-08 -7.13934e-08 0.000272721

0.000576726 3.65817e-06 -5.65364e-08
3.65817e-06 0.000448886 -7.64096e-08
-5.65364e-08 -7.64096e-08 0.000528518

0.000597663 -5.27776e-06 2.0768e-08
-5.27776e-06 0.000437194 -3.98016e-08
2.0768e-08 -3.98016e-08 0.000528007

0.000586696 9.39003e-06 -1.03425e-07
9.39003e-06 0.00050639 -1.20309e-07
-1.03425e-07 -1.20309e-07 0.000535558

0.000381901 -2.83087e-05 4.61752e-09
-2.83087e-05 0.000510685 6.01885e-08
4.61752e-09 6.01885e-08 0.000451646

0.000465652 3.74142e-05 2.34076e-08
3.74142e-05 0.000383586 2.11927e-07
2.34076e-08 2.11927e-07 0.000397295

0.000488321 -5.91118e-05 -1.12114e-07
-5.91118e-05 0.000491663 7.23527e-08
-1.12114e-07 7.23527e-08 0.000509906

0.000489173 4.85185e-05 -4.74267e-08
4.85185e-05 0.000526304 -1.55672e-07
-4.74267e-08 -1.55672e-07 0.000506777

0.000667571 5.74693e-06 -2.60603e-08
5.74693e-06 0.000723403 -4.39947e-07
-2.60603e-08 -4.39947e-07 0.00056618

0.000666259 5.55032e-05 1.49555e-07
5.55032e-05 0.000539769 4.10508e-07
1.49555e-07 4.10508e-07 0.000572066

0.000488264 -3.68759e-05 3.39399e-08
-3.68759e-05 0.000414218 -6.69076e-08
3.39399e-08 -6.69076e-08 0.000450063

0.000561896 -1.78828e-06 1.14223e-07
-1.78828e-06 0.000485439 1.74647e-07
1.14223e-07 1.74647e-07 0.000524222

0.000547535 -1.29324e-05 9.08725e-08
-1.29324e-05 0.000498593 -1.35865e-08
9.08725e-08 -1.35865e-08 0.000525174

0.000457376 -6.66183e-05 -4.44546e-08
-6.66183e-05 0.000522852 -1.10393e-07
-4.44546e-08 -1.10393e-07 0.000492736

0.000425112 3.38458e-05 1.73813e-07
3.38458e-05 0.000528878 5.75123e-08
1.73813e-07 5.75123e-08 0.000496123

0.000422964 6.39718e-05 -1.35344e-07
6.39718e-05 0.000497629 -7.96849e-08
-1.35344e-07 -7.96849e-08 0.00050522

0.000440404 -9.01698e-05 -4.76602e-08
-9.01698e-05 0.000533881 8.77817e-08
-4.76602e-08 8.77817e-08 0.000499802

0.000242365 0.000115714 2.08459e-07
0.000115714 0.000231674 -1.03274e-07
2.08459e-07 -1.03274e-07 0.000237504

0.000489482 6.56756e-05 3.62753e-08
6.56756e-05 0.000549657 -4.7134e-09
3.62753e-08 -4.7134e-09 0.000531014

0.000489813 -5.06046e-05 9.68065e-08
-5.06046e-05 0.000553916 1.47624e-07
9.68065e-08 1.47624e-07 0.000530685

0.000407058 6.04965e-05 1.53156e-08
6.04965e-05 0.00051369 1.08159e-07
1.53156e-08 1.08159e-07 0.000491948

0.000426804 -7.61425e-05 8.31972e-08
-7.61425e-05 0.000519886 -7.16e-08
8.31972e-08 -7.16e-08 0.000487221

0.000470052 -3.61082e-05 -4.62169e-08
-3.61082e-05 0.000375839 1.06606e-08
-4.62169e-08 1.06606e-08 0.000403325

0.000509002 6.53264e-05 -6.41003e-08
6.53264e-05 0.000468764 -9.91824e-08
-6.41003e-08 -9.91824e-08 0.000493622

0.000540581 6.93138e-05 1.49409e-07
6.93138e-05 0.000489919 1.2593e-07
1.49409e-07 1.2593e-07 0.000520351

0.0005121 -4.64854e-05 7.55693e-08
-4.64854e-05 0.000509979 1.73771e-07
7.55693e-08 1.73771e-07 0.000518829

0.000545489 4.41513e-05 2.26222e-09
4.41513e-05 0.00038944 1.25564e-07
2.26222e-09 1.25564e-07 0.000491875

0.000571828 8.52119e-06 -5.22287e-08
8.52119e-06 0.000521545 -9.7826e-08
-5.22287e-08 -9.7826e-08 0.000544029

0.000592446 -1.24222e-05 -1.91509e-08
-1.24222e-05 0.000495052 -2.38215e-07
-1.91509e-08 -2.38215e-07 0.000543336

0.000557404 1.48916e-05 8.33769e-08
1.48916e-05 0.000650241 2.13713e-08
8.33769e-08 2.13713e-08 0.00056682

0.000563121 -2.20569e-05 -1.97729e-07
-2.20569e-05 0.000720897 6.27207e-08
-1.97729e-07 6.27207e-08 0.000562165

0.000249015 -1.0695e-05 -8.45126e-08
-1.0695e-05 0.000180539 -5.27356e-08
-8.45126e-08 -5.27356e-08 0.000252809

0.000160962 -2.37203e-06 -2.9762e-09
-2.37203e-06 0.000251747 -4.40166e-08
-2.9762e-09 -4.40166e-08 0.000253968

0.000455876 7.59301e-05 -1.81056e-07
7.59301e-05 0.000545256 -8.27443e-08
-1.81056e-07 -8.27443e-08 0.000501817

0.000454169 -6.54798e-05 -2.5573e-08
-6.54798e-05 0.000495764 -1.80761e-07
-2.5573e-08 -1.80761e-07 0.000506855

0.000225494 4.07805e-05 2.32915e-07
4.07805e-05 0.000222728 1.12489e-07
2.32915e-07 1.12489e-07 0.000250014

0.00023433 5.21461e-05 -5.92516e-08
5.21461e-05 0.000212238 -1.44604e-07
-5.92516e-08 -1.44604e-07 0.000249833

0.000472512 -8.2664e-05 8.65114e-08
-8.2664e-05 0.000736546 -2.82532e-07
8.65114e-08 -2.82532e-07 0.000575107

0.000556348 6.17288e-05 1.80954e-07
6.17288e-05 0.000686236 -7.20838e-07
1.80954e-07 -7.20838e-07 0.000574953

0.000492212 7.95073e-05 -1.96072e-07
7.95073e-05 0.000456795 1.52571e-08
-1.96072e-07 1.52571e-08 0.000486653

0.000455747 7.27639e-05 -1.81554e-07
7.27639e-05 0.000510127 -8.59257e-08
-1.81554e-07 -8.59257e-08 0.000493406

0.000456797 -7.30685e-05 -6.87981e-08
-7.30685e-05 0.000485673 9.48877e-08
-6.87981e-08 9.48877e-08 0.000497548

0.000425145 7.3337e-05 1.10552e-07
7.3337e-05 0.000462714 -2.2238e-09
1.10552e-07 -2.2238e-09 0.000434034

0.000418281 -5.90281e-05 9.96809e-08
-5.90281e-05 0.000451997 -1.28008e-07
9.96809e-08 -1.28008e-07 0.000438053

0.000275397 -9.10849e-06 -2.22581e-08
-9.10849e-06 0.000365731 3.09948e-08
-2.22581e-08 3.09948e-08 0.00030245

0.000287659 -1.85615e-05 6.21728e-08
-1.85615e-05 0.000365673 -1.07172e-07
6.21728e-08 -1.07172e-07 0.000301258

0.000366976 -7.81813e-06 -1.7836e-07
-7.81813e-06 0.000282022 4.13309e-08
-1.7836e-07 4.13309e-08 0.000298945

0.000426652 8.4473e-05 1.24116e-07
8.4473e-05 0.000492105 1.76391e-08
1.24116e-07 1.76391e-08 0.000459247

0.000418701 -6.56835e-05 -3.99177e-08
-6.56835e-05 0.000470365 7.38352e-08
-3.99177e-08 7.38352e-08 0.000463901

0.000252398 1.33848e-05 -6.43625e-08
1.33848e-05 0.000341923 5.60297e-08
-6.43625e-08 5.60297e-08 0.000279516

0.000338908 2.06497e-05 -6.46265e-08
2.06497e-05 0.000253823 -5.63833e-08
-6.46265e-08 -5.63833e-08 0.000279519

0.000480538 -8.383e-05 -1.88808e-08
-8.383e-05 0.000501871 -1.82057e-07
-1.88808e-08 -1.82057e-07 0.000523786

0.000477789 6.83951e-05 1.02199e-07
6.83951e-05 0.000541524 -2.79887e-08
1.02199e-07 -2.79887e-08 0.000519611

0.000483534 -7.40538e-05 1.21558e-08
-7.40538e-05 0.000533643 -7.44433e-08
1.21558e-08 -7.44433e-08 0.000526533

0.00048551 5.445e-05 9.1642e-08
5.445e-05 0.000545427 8.60708e-09
9.1642e-08 8.60708e-09 0.000523634

0.000212684 -3.43853e-05 -3.0377e-08
-3.43853e-05 0.000220522 -8.43029e-08
-3.0377e-08 -8.43029e-08 0.000243887

0.000213189 -3.47362e-05 -1.43483e-08
-3.47362e-05 0.000220206 -2.56659e-08
-1.43483e-08 -2.56659e-08 0.000245279

0.000454855 6.65735e-05 1.90609e-08
6.65735e-05 0.000501701 5.80437e-08
1.90609e-08 5.80437e-08 0.000473747

0.000455021 -6.06793e-05 -3.96193e-08
-6.06793e-05 0.00046881 7.39517e-08
-3.96193e-08 7.39517e-08 0.000477805

0.00055232 1.86382e-05 -1.84972e-07
1.86382e-05 0.00063234 -1.65727e-08
-1.84972e-07 -1.65727e-08 0.000553061

0.000551643 -9.69099e-06 4.20092e-08
-9.69099e-06 0.000567209 -2.35775e-07
4.20092e-08 -2.35775e-07 0.000556398

0.000451055 -7.65391e-05 -7.7183e-08
-7.65391e-05 0.000552868 -8.96186e-08
-7.7183e-08 -8.96186e-08 0.000533322

0.000468716 7.19301e-05 1.18903e-07
7.19301e-05 0.000575558 -1.49779e-09
1.18903e-07 -1.49779e-09 0.000529225

0.000547274 -1.57587e-05 9.53447e-08
-1.57587e-05 0.000502223 -1.63776e-08
9.53447e-08 -1.63776e-08 0.000543168

0.000572058 1.62967e-06 -2.99664e-07
1.62967e-06 0.000485751 -8.33952e-08
-2.99664e-07 -8.33952e-08 0.0005424

0.000475515 7.08636e-05 -1.39162e-07
7.08636e-05 0.000489888 1.30091e-07
-1.39162e-07 1.30091e-07 0.000504202

0.000469057 -6.96018e-05 1.29119e-07
-6.96018e-05 0.000511694 1.71846e-07
1.29119e-07 1.71846e-07 0.000498921

0.000611939 2.17524e-05 2.40962e-07
2.17524e-05 0.000535145 -4.44823e-08
2.40962e-07 -4.44823e-08 0.000558718

0.000606539 6.29588e-06 -1.72967e-07
6.29588e-06 0.000568376 3.38569e-07
-1.72967e-07 3.38569e-07 0.000568819

0.000578126 -1.91923e-05 -1.34022e-07
-1.91923e-05 0.000559334 -3.69067e-08
-1.34022e-07 -3.69067e-08 0.000559329

0.000539033 -1.70639e-06 3.03975e-07
-1.70639e-06 0.000625174 3.68416e-07
3.03975e-07 3.68416e-07 0.000569197

0.000525855 1.15849e-05 2.64172e-08
1.15849e-05 0.000687002 -9.19267e-08
2.64172e-08 -9.19267e-08 0.000556224

0.000638369 6.98699e-05 -1.56317e-07
6.98699e-05 0.000586534 -1.06099e-07
-1.56317e-07 -1.06099e-07 0.00055577

0.000596392 -2.76694e-05 -1.52673e-08
-2.76694e-05 0.000558832 2.54553e-11
-1.52673e-08 2.54553e-11 0.000560087

0.000528885 -1.68134e-05 -7.54068e-09
-1.68134e-05 0.000626075 1.02491e-07
-7.54068e-09 1.02491e-07 0.000559371

0.000556112 3.98884e-05 5.36048e-07
3.98884e-05 0.000600118 8.43976e-07
5.36048e-07 8.43976e-07 0.000564993

0.000828557 3.35972e-05 1.65888e-06
3.35972e-05 0.000498374 -9.22884e-07
1.65888e-06 -9.22884e-07 0.000576415

0.000743786 -1.88203e-05 -2.08811e-06
-1.88203e-05 0.000731259 -1.58499e-06
-2.08811e-06 -1.58499e-06 0.000575178

0.000581536 -9.17815e-05 -6.00043e-08
-9.17815e-05 0.000652266 1.78363e-07
-6.00043e-08 1.78363e-07 0.000565059

0.000583166 5.36391e-05 -6.10827e-08
5.36391e-05 0.000579646 -6.11463e-08
-6.10827e-08 -6.11463e-08 0.000560108

0.000525117 3.91385e-05 4.88779e-08
3.91385e-05 0.000585895 1.16692e-08
4.88779e-08 1.16692e-08 0.00054644

0.000601139 1.1432e-05 -7.23199e-08
1.1432e-05 0.000585131 -9.11341e-09
-7.23199e-08 -9.11341e-09 0.000571992

0.000609314 -8.88215e-05 8.12547e-08
-8.88215e-05 0.000579469 -3.5756e-08
8.12547e-08 -3.5756e-08 0.000560872

0.000598628 -0.000102325 -1.72565e-08
-0.000102325 0.000683548 -4.91943e-07
-1.72565e-08 -4.91943e-07 0.000571285

0.000532066 -4.8857e-05 1.09569e-07
-4.8857e-05 0.000560414 -5.45056e-08
1.09569e-07 -5.45056e-08 0.000548625

0.000537311 -8.2061e-05 9.9267e-08
-8.2061e-05 0.000586664 7.17281e-08
9.9267e-08 7.17281e-08 0.000552579

0.000549829 -5.55149e-05 -1.90204e-07
-5.55149e-05 0.000601985 -1.84216e-08
-1.90204e-07 -1.84216e-08 0.000562676

0.000524523 3.50592e-05 3.70531e-08
3.50592e-05 0.000575071 -1.33226e-07
3.70531e-08 -1.33226e-07 0.000551396

0.000581426 2.09561e-05 -7.66192e-08
2.09561e-05 0.000578337 -9.78259e-08
-7.66192e-08 -9.78259e-08 0.000562337

0.000395975 5.92137e-05 -5.47081e-08
5.92137e-05 0.00045128 9.82002e-08
-5.47081e-08 9.82002e-08 0.000414283

0.000452629 2.97456e-05 7.95034e-09
2.97456e-05 0.000530598 -8.51586e-08
7.95034e-09 -8.51586e-08 0.000491477

0.000437505 2.58296e-05 7.6681e-08
2.58296e-05 0.000525701 7.45813e-08
7.6681e-08 7.45813e-08 0.000493787

0.000505412 3.32023e-05 -5.90559e-08
3.32023e-05 0.000363687 -3.07237e-08
-5.90559e-08 -3.07237e-08 0.000444021

0.000487269 1.16079e-05 9.13149e-08
1.16079e-05 0.000345412 5.20361e-08
9.13149e-08 5.20361e-08 0.0004121

0.000454448 1.83769e-05 3.54227e-09
1.83769e-05 0.000548951 -3.38866e-08
3.54227e-09 -3.38866e-08 0.000521627

0.000434498 4.17688e-05 7.39186e-08
4.17688e-05 0.000561797 1.06742e-07
7.39186e-08 1.06742e-07 0.000523947

0.000494073 -1.33468e-05 1.01353e-07
-1.33468e-05 0.000353315 -1.99686e-08
1.01353e-07 -1.99686e-08 0.0004152

0.000537238 -2.70158e-05 -4.29735e-08
-2.70158e-05 0.000413724 1.11257e-07
-4.29735e-08 1.11257e-07 0.000503451

0.00031878 5.3617e-05 -7.52885e-09
5.3617e-05 0.000374216 4.0774e-08
-7.52885e-09 4.0774e-08 0.000330629

0.000314317 -5.35771e-05 -7.3166e-09
-5.35771e-05 0.000367446 2.75912e-08
-7.3166e-09 2.75912e-08 0.000324716

0.000389443 -4.91552e-05 1.20404e-08
-4.91552e-05 0.000298908 1.04702e-07
1.20404e-08 1.04702e-07 0.000323202

0.000490751 -5.06422e-05 -1.39812e-07
-5.06422e-05 0.000555078 -6.15785e-08
-1.39812e-07 -6.15785e-08 0.000533623

0.000515051 -3.48868e-05 -7.42619e-08
-3.48868e-05 0.00055287 -5.34623e-08
-7.42619e-08 -5.34623e-08 0.000530892

0.000395863 5.03655e-05 -5.57106e-08
5.03655e-05 0.000470123 -6.13902e-08
-5.57106e-08 -6.13902e-08 0.000446822

0.000413423 6.05477e-05 6.45575e-08
6.05477e-05 0.000510314 9.82625e-08
6.45575e-08 9.82625e-08 0.000492342

0.000436048 -3.94213e-05 -1.04471e-07
-3.94213e-05 0.000561651 -8.30616e-08
-1.04471e-07 -8.30616e-08 0.000521605

0.000448618 -1.14657e-05 -4.22611e-08
-1.14657e-05 0.000549055 -7.30184e-08
-4.22611e-08 -7.30184e-08 0.000520563

0.000527815 1.52535e-05 -8.97249e-09
1.52535e-05 0.000365128 1.32061e-07
-8.97249e-09 1.32061e-07 0.000447988

0.000339477 1.95821e-05 -8.68614e-10
1.95821e-05 0.000428361 2.78457e-08
-8.68614e-10 2.78457e-08 0.000356648

0.000337949 -1.59597e-05 3.04178e-08
-1.59597e-05 0.00042478 1.00041e-07
3.04178e-08 1.00041e-07 0.000355668

0.000441875 -1.37046e-05 -1.85419e-07
-1.37046e-05 0.000322824 -2.25029e-08
-1.85419e-07 -2.25029e-08 0.000347674

0.000402291 6.81506e-05 5.57405e-08
6.81506e-05 0.000423809 -2.3876e-08
5.57405e-08 -2.3876e-08 0.000411867

0.000463015 -4.53008e-05 -8.13101e-08
-4.53008e-05 0.000331217 -1.003e-07
-8.13101e-08 -1.003e-07 0.000387257

0.000458313 7.22367e-05 -7.70066e-08
7.22367e-05 0.000424083 -3.08165e-08
-7.70066e-08 -3.08165e-08 0.000441368

0.000388919 5.7404e-05 1.14936e-07
5.7404e-05 0.000466276 -1.07299e-07
1.14936e-07 -1.07299e-07 0.000413909

0.000508937 -2.81012e-05 1.20896e-07
-2.81012e-05 0.000362723 -2.7765e-08
1.20896e-07 -2.7765e-08 0.000449557

0.000309065 3.73743e-05 -1.24491e-07
3.73743e-05 0.000347377 -1.75934e-07
-1.24491e-07 -1.75934e-07 0.000294468

0.000542198 3.51752e-05 1.48213e-07
3.51752e-05 0.000396442 2.07322e-08
1.48213e-07 2.07322e-08 0.000491871

0.000356799 -3.25424e-05 -3.88127e-08
-3.25424e-05 0.000290569 1.33597e-07
-3.88127e-08 1.33597e-07 0.000290427

0.000514808 -1.25075e-05 -1.58543e-08
-1.25075e-05 0.000563841 -2.63475e-08
-1.58543e-08 -2.63475e-08 0.000534442

0.00051242 2.18221e-05 1.76385e-07
2.18221e-05 0.00056553 6.6914e-08
1.76385e-07 6.6914e-08 0.000534792

0.000693185 -6.77042e-05 -1.38933e-07
-6.77042e-05 0.00057632 -1.83956e-07
-1.38933e-07 -1.83956e-07 0.000560192

0.000692736 6.95685e-05 -1.66671e-07
6.95685e-05 0.000575166 -4.02912e-08
-1.66671e-07 -4.02912e-08 0.000560502

0.000433049 -1.79336e-05 -2.00506e-07
-1.79336e-05 0.000310737 -3.77011e-08
-2.00506e-07 -3.77011e-08 0.000347296

0.000453306 7.87977e-05 -1.06467e-08
7.87977e-05 0.000446614 4.76913e-08
-1.06467e-08 4.76913e-08 0.000466753

0.000586621 -4.15374e-05 -5.92809e-08
-4.15374e-05 0.000507988 -9.2989e-08
-5.92809e-08 -9.2989e-08 0.000533071

0.000582037 4.05116e-05 5.53318e-08
4.05116e-05 0.000504333 2.03204e-08
5.53318e-08 2.03204e-08 0.000530136

0.000538837 1.40338e-05 -1.09329e-07
1.40338e-05 0.000398315 3.21049e-08
-1.09329e-07 3.21049e-08 0.000505379

0.000380387 6.45613e-05 -2.3217e-08
6.45613e-05 0.000462354 7.68709e-08
-2.3217e-08 7.68709e-08 0.000408929

0.000458997 -5.61953e-05 -5.21105e-08
-5.61953e-05 0.000363984 9.38509e-08
-5.21105e-08 9.38509e-08 0.000397823

0.00053461 -3.39322e-06 -3.39216e-08
-3.39322e-06 0.000377094 -4.41315e-08
-3.39216e-08 -4.41315e-08 0.000495544

0.000397483 -6.79024e-05 -5.98328e-08
-6.79024e-05 0.000423061 -1.39148e-07
-5.98328e-08 -1.39148e-07 0.000409095

0.000394833 -5.60664e-05 7.03562e-08
-5.60664e-05 0.000451534 6.43466e-10
7.03562e-08 6.43466e-10 0.000414464

0.000424431 6.35949e-05 -9.00254e-08
6.35949e-05 0.000527892 -1.0937e-07
-9.00254e-08 -1.0937e-07 0.000487212

0.000416588 -7.81181e-05 1.33822e-07
-7.81181e-05 0.000360519 1.09884e-07
1.33822e-07 1.09884e-07 0.000373898

0.000256354 -5.91003e-05 -8.7447e-08
-5.91003e-05 0.000222974 1.75716e-08
-8.7447e-08 1.75716e-08 0.000241415

0.000249901 8.28352e-05 1.3497e-07
8.28352e-05 0.000238332 1.35791e-07
1.3497e-07 1.35791e-07 0.000241374

0.000423095 -7.63492e-05 1.87945e-07
-7.63492e-05 0.00054531 6.25032e-08
1.87945e-07 6.25032e-08 0.000521752

0.000258368 1.07537e-05 1.44895e-07
1.07537e-05 0.000221476 -3.43193e-08
1.44895e-07 -3.43193e-08 0.000253964

0.000238034 -1.96284e-05 -1.25573e-07
-1.96284e-05 0.000226826 1.57319e-08
-1.25573e-07 1.57319e-08 0.000255439

0.000524451 -1.77885e-05 -7.76205e-08
-1.77885e-05 0.0005464 5.35419e-09
-7.76205e-08 5.35419e-09 0.000537913

0.000525699 1.82038e-05 -8.72989e-08
1.82038e-05 0.000545187 2.31708e-08
-8.72989e-08 2.31708e-08 0.000538109

0.000567867 -1.44461e-06 1.35038e-07
-1.44461e-06 0.000371962 8.0176e-08
1.35038e-07 8.0176e-08 0.000469961

0.000527267 -9.73546e-06 -4.51747e-08
-9.73546e-06 0.00052025 2.33693e-07
-4.51747e-08 2.33693e-07 0.000537589

0.000528382 1.04869e-05 -1.06928e-07
1.04869e-05 0.000520902 1.61309e-07
-1.06928e-07 1.61309e-07 0.000537743

0.000389058 5.9474e-05 1.33222e-07
5.9474e-05 0.000496195 1.21763e-07
1.33222e-07 1.21763e-07 0.00044457

0.000636277 -6.32892e-05 2.38862e-07
-6.32892e-05 0.000565069 -1.96187e-08
2.38862e-07 -1.96187e-08 0.000553754

0.000634541 6.3177e-05 -8.56056e-08
6.3177e-05 0.000564273 8.45742e-08
-8.56056e-08 8.45742e-08 0.000554286

0.000494323 -3.18527e-05 1.44086e-07
-3.18527e-05 0.000487158 7.62725e-08
1.44086e-07 7.62725e-08 0.000504131

0.000494618 3.18395e-05 -3.91863e-08
3.18395e-05 0.00048699 -1.29498e-08
-3.91863e-08 -1.29498e-08 0.000504468

0.000384299 -5.37254e-05 -7.88276e-09
-5.37254e-05 0.000287722 5.38865e-08
-7.88276e-09 5.38865e-08 0.000319764

0.000502261 3.15033e-05 3.00319e-09
3.15033e-05 0.00065213 -1.24943e-07
3.00319e-09 -1.24943e-07 0.000557729

0.000544163 -6.27587e-06 1.10034e-07
-6.27587e-06 0.000599153 1.3891e-07
1.10034e-07 1.3891e-07 0.000555449

0.000382162 -6.56287e-05 -2.36424e-08
-6.56287e-05 0.00046379 -1.52464e-07
-2.36424e-08 -1.52464e-07 0.000410324

0.000279394 -1.62662e-05 7.64303e-08
-1.62662e-05 0.000331556 -9.01282e-08
7.64303e-08 -9.01282e-08 0.000288298

0.000345866 -1.70446e-05 1.36834e-07
-1.70446e-05 0.000255989 -4.19887e-08
1.36834e-07 -4.19887e-08 0.000286916

0.000408278 5.08035e-05 1.15971e-08
5.08035e-05 0.000523184 -8.77693e-08
1.15971e-08 -8.77693e-08 0.000477173

0.000405976 5.07723e-05 4.87736e-08
5.07723e-05 0.000506146 9.45671e-08
4.87736e-08 9.45671e-08 0.000480822

0.000668208 -5.07223e-05 1.80841e-07
-5.07223e-05 0.000543256 2.72383e-07
1.80841e-07 2.72383e-07 0.000574338

0.000666262 4.69479e-05 -4.59535e-08
4.69479e-05 0.000554665 -2.56586e-08
-4.59535e-08 -2.56586e-08 0.000574984

0.000423673 6.61244e-05 1.5645e-08
6.61244e-05 0.000495831 7.70895e-09
1.5645e-08 7.70895e-09 0.000508048

0.000514192 2.06113e-05 1.17882e-07
2.06113e-05 0.000413632 2.25113e-08
1.17882e-07 2.25113e-08 0.000478716

0.000514059 -2.10224e-05 1.39023e-07
-2.10224e-05 0.000411676 -9.60806e-08
1.39023e-07 -9.60806e-08 0.00047719

0.000458947 8.94891e-05 -6.30105e-08
8.94891e-05 0.000477361 6.85388e-08
-6.30105e-08 6.85388e-08 0.000500788

0.000451149 -6.06126e-05 8.23399e-08
-6.06126e-05 0.000542523 7.68299e-09
8.23399e-08 7.68299e-09 0.000516604

0.000428477 -8.12927e-07 -2.0352e-07
-8.12927e-07 0.000293048 -1.68016e-08
-2.0352e-07 -1.68016e-08 0.000343483

0.000511538 1.2232e-06 1.34819e-08
1.2232e-06 0.000354761 1.441e-07
1.34819e-08 1.441e-07 0.000414863

0.000462285 4.06624e-05 -4.13693e-08
4.06624e-05 0.000332101 8.62148e-08
-4.13693e-08 8.62148e-08 0.000380344

0.000572487 6.71933e-05 7.54178e-08
6.71933e-05 0.000454743 -6.82616e-08
7.54178e-08 -6.82616e-08 0.000521687

0.000697154 -9.76276e-06 2.09551e-07
-9.76276e-06 0.000647824 -2.14833e-07
2.09551e-07 -2.14833e-07 0.00056454

0.000695862 9.46118e-06 2.80714e-07
9.46118e-06 0.000652744 2.5667e-08
2.80714e-07 2.5667e-08 0.000564149

0.000378941 5.84974e-05 1.31164e-07
5.84974e-05 0.000373251 3.11699e-08
1.31164e-07 3.11699e-08 0.000347958

0.000461315 -7.43844e-05 6.70579e-08
-7.43844e-05 0.000397533 -2.33991e-08
6.70579e-08 -2.33991e-08 0.000433531

0.000524952 -1.83379e-05 -1.18097e-07
-1.83379e-05 0.00040029 1.10969e-07
-1.18097e-07 1.10969e-07 0.000451568

0.0005401 7.19425e-05 3.62402e-07
7.19425e-05 0.000669565 -3.75203e-08
3.62402e-07 -3.75203e-08 0.000564692

0.000567536 -1.8906e-05 -8.35299e-08
-1.8906e-05 0.000591625 9.18266e-08
-8.35299e-08 9.18266e-08 0.000563617

0.000578068 -6.5426e-05 -2.75172e-08
-6.5426e-05 0.000465769 4.94755e-08
-2.75172e-08 4.94755e-08 0.00052584

0.000438531 -1.91687e-05 -9.65643e-08
-1.91687e-05 0.000528331 5.20612e-08
-9.65643e-08 5.20612e-08 0.000492251

0.000447459 -1.97391e-05 -3.90837e-08
-1.97391e-05 0.000531848 -3.12924e-08
-3.90837e-08 -3.12924e-08 0.000490995

0.000574007 -5.26857e-06 1.6648e-08
-5.26857e-06 0.000377311 8.38329e-08
1.6648e-08 8.38329e-08 0.000490002

0.000577316 4.89912e-06 3.72355e-08
4.89912e-06 0.000376203 1.86499e-08
3.72355e-08 1.86499e-08 0.000491511

0.000393679 5.05738e-05 -3.75646e-08
5.05738e-05 0.000362294 -2.37008e-08
-3.75646e-08 -2.37008e-08 0.00034197

0.000568239 -4.2471e-06 -1.47904e-07
-4.2471e-06 0.00042714 1.27655e-08
-1.47904e-07 1.27655e-08 0.000514383

0.000567696 3.78881e-06 -9.87093e-08
3.78881e-06 0.000428126 -1.15153e-07
-9.87093e-08 -1.15153e-07 0.000514734

0.00052706 1.85722e-05 7.76607e-09
1.85722e-05 0.000399573 -7.64493e-08
7.76607e-09 -7.64493e-08 0.000452245

0.000390608 -5.81924e-05 9.09208e-08
-5.81924e-05 0.000468937 -4.95397e-09
9.09208e-08 -4.95397e-09 0.000415827

0.0005739 -1.82255e-06 -2.24427e-08
-1.82255e-06 0.000415862 -1.18558e-07
-2.24427e-08 -1.18558e-07 0.000494348

0.000576824 2.66853e-06 3.56651e-08
2.66853e-06 0.000415498 2.72655e-08
3.56651e-08 2.72655e-08 0.00049601

0.000516314 -4.46075e-05 1.9243e-08
-4.46075e-05 0.000399642 1.95232e-07
1.9243e-08 1.95232e-07 0.000461886

0.000437417 8.19157e-05 1.09073e-07
8.19157e-05 0.000522199 -2.26145e-08
1.09073e-07 -2.26145e-08 0.000495512

0.00044586 6.28571e-05 -9.2379e-09
6.28571e-05 0.000382485 -1.4372e-08
-9.2379e-09 -1.4372e-08 0.000397834

0.00044432 6.70252e-05 -1.07374e-07
6.70252e-05 0.000484424 -7.43702e-08
-1.07374e-07 -7.43702e-08 0.000509553

0.000441198 8.16968e-05 -1.66855e-08
8.16968e-05 0.000536583 2.88147e-08
-1.66855e-08 2.88147e-08 0.000501518

0.000470962 -3.19614e-05 4.53397e-08
-3.19614e-05 0.000333495 -1.29366e-07
4.53397e-08 -1.29366e-07 0.000386499

0.000517038 -7.26467e-05 -4.65591e-08
-7.26467e-05 0.000427363 -6.66238e-08
-4.65591e-08 -6.66238e-08 0.000484693

0.000509106 4.46826e-05 -3.92052e-08
4.46826e-05 0.000398323 2.04152e-08
-3.92052e-08 2.04152e-08 0.000453411

0.000402912 7.35038e-05 5.50151e-08
7.35038e-05 0.000380594 -3.87828e-08
5.50151e-08 -3.87828e-08 0.000382604

0.000458075 7.49566e-05 -7.4391e-08
7.49566e-05 0.000393969 -6.57086e-08
-7.4391e-08 -6.57086e-08 0.000430116

0.000392839 7.31762e-06 -8.38308e-08
7.31762e-06 0.000518478 -8.03815e-09
-8.38308e-08 -8.03815e-09 0.000475065

0.000394723 2.37847e-06 8.81002e-08
2.37847e-06 0.000517767 -4.39022e-08
8.81002e-08 -4.39022e-08 0.000474939

0.00039398 5.30809e-05 -3.54404e-08
5.30809e-05 0.000304254 2.84435e-08
-3.54404e-08 2.84435e-08 0.000328308

0.000460491 -8.9166e-05 3.22517e-08
-8.9166e-05 0.000478284 -6.53747e-09
3.22517e-08 -6.53747e-09 0.000502176

0.000385075 -7.14179e-05 -4.72447e-08
-7.14179e-05 0.000420873 -3.54549e-09
-4.72447e-08 -3.54549e-09 0.000381231

0.000382768 7.2054e-05 -1.77539e-08
7.2054e-05 0.000422873 1.22171e-07
-1.77539e-08 1.22171e-07 0.00038038

0.000508118 -5.35918e-05 -8.41907e-08
-5.35918e-05 0.00039967 -3.1683e-08
-8.41907e-08 -3.1683e-08 0.000457132

0.000579662 -3.57628e-05 7.44293e-08
-3.57628e-05 0.000389922 -4.15671e-09
7.44293e-08 -4.15671e-09 0.000523009

0.000576252 3.59107e-05 -1.43249e-07
3.59107e-05 0.000395053 -9.94501e-09
-1.43249e-07 -9.94501e-09 0.000521041

0.000353631 3.95479e-05 4.59632e-08
3.95479e-05 0.000442211 1.41004e-07
4.59632e-08 1.41004e-07 0.000392463

0.000459895 -7.49208e-05 3.95544e-08
-7.49208e-05 0.000423818 -1.52573e-07
3.95544e-08 -1.52573e-07 0.000440617

0.0002951 -2.86446e-06 -1.15677e-07
-2.86446e-06 0.000418469 -9.39055e-09
-1.15677e-07 -9.39055e-09 0.000341214

0.000294873 1.0555e-06 1.37039e-07
1.0555e-06 0.000418528 6.90401e-08
1.37039e-07 6.90401e-08 0.000340898

0.000435068 3.4682e-06 -1.18733e-07
3.4682e-06 0.000280366 -2.14448e-07
-1.18733e-07 -2.14448e-07 0.000334263

0.000388883 -5.23023e-05 2.25773e-08
-5.23023e-05 0.000364663 3.53038e-08
2.25773e-08 3.53038e-08 0.000339916

0.000413988 6.38808e-05 5.72298e-08
6.38808e-05 0.000369334 6.5672e-08
5.72298e-08 6.5672e-08 0.000379388

0.000601684 -0.000129824 5.15633e-07
-0.000129824 0.000658539 -9.81757e-08
5.15633e-07 -9.81757e-08 0.000571618

0.000635317 5.5295e-05 -1.97077e-08
5.5295e-05 0.000670548 8.36521e-08
-1.97077e-08 8.36521e-08 0.000572512

0.000473454 2.90801e-05 1.54904e-07
2.90801e-05 0.000335393 6.36665e-08
1.54904e-07 6.36665e-08 0.000389239

0.000416435 7.94694e-05 -1.01764e-07
7.94694e-05 0.00051059 -7.04044e-08
-1.01764e-07 -7.04044e-08 0.000466465

0.000567557 1.16579e-06 1.40209e-07
1.16579e-06 0.000371351 -6.47326e-09
1.40209e-07 -6.47326e-09 0.000468659

0.000353438 -3.85184e-05 7.27287e-08
-3.85184e-05 0.000444828 -4.70275e-11
7.27287e-08 -4.70275e-11 0.000393936

0.000400363 7.89703e-05 1.96585e-08
7.89703e-05 0.000549707 -9.92269e-10
1.96585e-08 -9.92269e-10 0.000523886

0.000454714 6.49336e-05 -4.58534e-08
6.49336e-05 0.000545733 9.20555e-08
-4.58534e-08 9.20555e-08 0.000517952

0.000438945 -8.23646e-05 -1.67168e-07
-8.23646e-05 0.000521967 9.21293e-08
-1.67168e-07 9.21293e-08 0.000495793

0.000436249 8.28431e-05 9.72613e-08
8.28431e-05 0.000543916 -6.50291e-08
9.72613e-08 -6.50291e-08 0.000503359

0.000414696 6.29528e-05 7.3142e-08
6.29528e-05 0.000476477 6.73383e-08
7.3142e-08 6.73383e-08 0.000472294

0.000605236 7.80351e-07 -3.36895e-08
7.80351e-07 0.000368796 1.14754e-07
-3.36895e-08 1.14754e-07 0.000500691

0.000415515 -6.26426e-05 4.95941e-08
-6.26426e-05 0.000365666 1.57311e-08
4.95941e-08 1.57311e-08 0.000376321

0.000445338 -6.75589e-05 4.84069e-08
-6.75589e-05 0.000484827 -5.49359e-08
4.84069e-08 -5.49359e-08 0.000510341

0.000413386 -5.38857e-05 4.06053e-08
-5.38857e-05 0.000418546 1.10808e-07
4.06053e-08 1.10808e-07 0.000393105

0.000366574 -5.19956e-05 -2.27214e-07
-5.19956e-05 0.000367429 1.31829e-08
-2.27214e-07 1.31829e-08 0.000339986

0.000452406 -7.8127e-05 -9.42533e-08
-7.8127e-05 0.000449573 4.48077e-08
-9.42533e-08 4.48077e-08 0.000467801

0.000343264 -3.19957e-05 -1.62968e-08
-3.19957e-05 0.000436029 -6.59887e-08
-1.62968e-08 -6.59887e-08 0.000362734

0.000342108 3.01867e-05 -8.75771e-08
3.01867e-05 0.000436194 -5.16114e-08
-8.75771e-08 -5.16114e-08 0.000362162

0.000437138 1.83079e-05 -9.59704e-09
1.83079e-05 0.000332261 8.01087e-09
-9.59704e-09 8.01087e-09 0.000354171

0.000412786 5.58323e-05 5.52024e-08
5.58323e-05 0.000417879 3.33516e-08
5.52024e-08 3.33516e-08 0.000392886

0.000394018 1.0007e-05 8.97545e-08
1.0007e-05 0.000495794 -7.71944e-08
8.97545e-08 -7.71944e-08 0.000434463

0.000393853 -2.27813e-06 -8.50313e-08
-2.27813e-06 0.000494863 1.61393e-08
-8.50313e-08 1.61393e-08 0.000434223

0.000336952 -6.12659e-05 -4.98807e-09
-6.12659e-05 0.000367844 2.2228e-08
-4.98807e-09 2.2228e-08 0.000329132

0.000338557 6.14234e-05 -1.34364e-07
6.14234e-05 0.000366557 2.83329e-08
-1.34364e-07 2.83329e-08 0.000327963

0.000606171 4.89814e-06 -6.03298e-08
4.89814e-06 0.00037982 7.08974e-08
-6.03298e-08 7.08974e-08 0.000501417

0.000608098 -4.64861e-06 2.64967e-08
-4.64861e-06 0.000378773 2.07699e-08
2.64967e-08 2.07699e-08 0.000502062

0.000425111 7.24621e-05 -1.75796e-08
7.24621e-05 0.00051506 -1.07233e-07
-1.75796e-08 -1.07233e-07 0.000472841

0.000393138 -7.04025e-05 -8.59392e-08
-7.04025e-05 0.000544884 1.60346e-07
-8.59392e-08 1.60346e-07 0.00052292

0.000494748 7.94607e-05 -8.21898e-08
7.94607e-05 0.00044648 4.23144e-08
-8.21898e-08 4.23144e-08 0.000484675

0.000376714 3.6796e-05 8.82761e-08
3.6796e-05 0.00027916 -2.31066e-08
8.82761e-08 -2.31066e-08 0.000309368

0.000351728 4.80867e-05 -1.14081e-07
4.80867e-05 0.000465483 -1.1805e-07
-1.14081e-07 -1.1805e-07 0.000394647

0.000535156 4.71096e-06 -2.20042e-07
4.71096e-06 0.000488175 -8.93075e-09
-2.20042e-07 -8.93075e-09 0.000520957

0.000534411 -4.61741e-06 6.12499e-08
-4.61741e-06 0.000488748 7.38016e-08
6.12499e-08 7.38016e-08 0.000520717

0.000466593 4.60159e-05 -2.64562e-08
4.60159e-05 0.000436217 9.7444e-08
-2.64562e-08 9.7444e-08 0.000439988

0.000512315 -2.88289e-05 1.53242e-07
-2.88289e-05 0.000461767 6.6821e-08
1.53242e-07 6.6821e-08 0.000482169

0.000512344 2.91853e-05 1.07724e-07
2.91853e-05 0.000462272 1.39923e-07
1.07724e-07 1.39923e-07 0.000482512

0.000242614 -2.90501e-05 3.52763e-08
-2.90501e-05 0.000176614 -1.05153e-07
3.52763e-08 -1.05153e-07 0.000255228

0.000159781 3.63726e-05 -1.79205e-07
3.63726e-05 0.00022814 -1.48959e-07
-1.79205e-07 -1.48959e-07 0.00025364

0.000349959 -4.7069e-05 -4.33767e-08
-4.7069e-05 0.000466592 1.41921e-08
-4.33767e-08 1.41921e-08 0.000395805

0.000586687 -1.08618e-05 1.07139e-07
-1.08618e-05 0.000552374 -2.1533e-07
1.07139e-07 -2.1533e-07 0.000559432

0.000586461 1.17777e-05 -1.35964e-07
1.17777e-05 0.000553346 -6.42738e-08
-1.35964e-07 -6.42738e-08 0.000559508

0.000380639 3.19435e-05 1.31252e-07
3.19435e-05 0.00027492 -1.45639e-07
1.31252e-07 -1.45639e-07 0.000309095

0.00040187 -3.90868e-05 4.82084e-08
-3.90868e-05 0.000517571 1.24778e-07
4.82084e-08 1.24778e-07 0.000480921

0.000410275 -3.80422e-05 7.47459e-08
-3.80422e-05 0.00052284 2.40539e-08
7.47459e-08 2.40539e-08 0.000478178

0.000400123 -7.64225e-05 -6.31702e-08
-7.64225e-05 0.000385177 -1.11755e-07
-6.31702e-08 -1.11755e-07 0.000378085

0.000437255 -8.34647e-05 -1.17204e-07
-8.34647e-05 0.000542995 -5.45455e-08
-1.17204e-07 -5.45455e-08 0.000503106

0.000394189 9.90276e-05 -1.48489e-07
9.90276e-05 0.000503907 -1.14354e-08
-1.48489e-07 -1.14354e-08 0.000508954

0.000514898 4.52349e-05 1.29995e-07
4.52349e-05 0.000548052 8.05577e-08
1.29995e-07 8.05577e-08 0.000531857

0.000492854 6.24707e-05 -4.07544e-08
6.24707e-05 0.000551469 2.95822e-09
-4.07544e-08 2.95822e-09 0.000535458

0.000423879 -7.30517e-05 -2.20486e-09
-7.30517e-05 0.00051622 -5.61305e-09
-2.20486e-09 -5.61305e-09 0.000473946

0.000453586 7.66418e-05 -1.77869e-08
7.66418e-05 0.000463071 9.75777e-08
-1.77869e-08 9.75777e-08 0.000478428

0.000466379 -4.71514e-05 -9.04312e-08
-4.71514e-05 0.000437116 1.11464e-07
-9.04312e-08 1.11464e-07 0.000440246

0.000445415 5.5716e-05 -1.87014e-09
5.5716e-05 0.000332688 1.49603e-08
-1.87014e-09 1.49603e-08 0.000376095

0.000510966 -1.79723e-06 -1.56993e-08
-1.79723e-06 0.00035453 -1.62776e-07
-1.56993e-08 -1.62776e-07 0.000415558

0.000433767 8.68149e-05 3.81265e-08
8.68149e-05 0.000537574 3.37921e-08
3.81265e-08 3.37921e-08 0.000501903

0.000394224 -5.26275e-05 7.40519e-08
-5.26275e-05 0.000472705 -5.03284e-08
7.40519e-08 -5.03284e-08 0.000448949

0.000363383 1.89367e-05 1.31728e-07
1.89367e-05 0.000480813 -1.01431e-07
1.31728e-07 -1.01431e-07 0.000422119

0.000457448 5.37012e-05 3.4954e-08
5.37012e-05 0.000456312 1.50482e-07
3.4954e-08 1.50482e-07 0.000465355

0.000367797 2.376e-05 -1.83732e-07
2.376e-05 0.000488656 5.1588e-08
-1.83732e-07 5.1588e-08 0.000423369

0.000457314 -6.74165e-05 -9.63135e-09
-6.74165e-05 0.000546534 3.99124e-08
-9.63135e-09 3.99124e-08 0.000515897

0.000276747 -3.75721e-05 7.2338e-08
-3.75721e-05 0.000284992 -1.51147e-07
7.2338e-08 -1.51147e-07 0.000266851

0.000307587 -3.7947e-05 1.84094e-07
-3.7947e-05 0.000252239 -3.73277e-08
1.84094e-07 -3.73277e-08 0.000266235

0.000525417 -1.51173e-05 -1.29574e-07
-1.51173e-05 0.000365185 -9.59755e-08
-1.29574e-07 -9.59755e-08 0.000447382

0.000457044 -5.40234e-05 -1.04113e-08
-5.40234e-05 0.000455642 4.31804e-08
-1.04113e-08 4.31804e-08 0.000465117

0.000683363 -7.13001e-05 2.00957e-07
-7.13001e-05 0.000554523 2.23965e-07
2.00957e-07 2.23965e-07 0.000572303

0.000683906 6.90575e-05 1.53846e-07
6.90575e-05 0.000558886 4.55209e-07
1.53846e-07 4.55209e-07 0.000572602

0.000418097 -7.80473e-05 2.3385e-08
-7.80473e-05 0.00051272 6.88291e-09
2.3385e-08 6.88291e-09 0.000469213

0.000580372 -6.71168e-05 4.51954e-08
-6.71168e-05 0.000581025 -2.22529e-07
4.51954e-08 -2.22529e-07 0.000549558

0.000578461 6.79216e-05 4.53809e-08
6.79216e-05 0.000580251 7.59955e-09
4.53809e-08 7.59955e-09 0.000549408

0.0005174 1.43305e-05 4.99247e-08
1.43305e-05 0.000381594 -9.41583e-08
4.99247e-08 -9.41583e-08 0.000468796

0.000393422 -9.98272e-05 8.1085e-08
-9.98272e-05 0.000501978 -6.95984e-09
8.1085e-08 -6.95984e-09 0.000509013

0.000294772 -4.47632e-05 -4.45358e-08
-4.47632e-05 0.000290726 1.31304e-07
-4.45358e-08 1.31304e-07 0.000277786

0.000311633 4.49838e-05 -1.72136e-07
4.49838e-05 0.000280067 -3.52688e-08
-1.72136e-07 -3.52688e-08 0.000281658

0.000292373 -3.3325e-05 -3.80016e-08
-3.3325e-05 0.000355425 5.40799e-08
-3.80016e-08 5.40799e-08 0.000299777

0.000282767 3.10709e-05 4.11449e-08
3.10709e-05 0.000356049 1.81397e-07
4.11449e-08 1.81397e-07 0.000297529

0.000364091 1.94955e-05 -3.10514e-08
1.94955e-05 0.000267895 3.243e-08
-3.10514e-08 3.243e-08 0.000294845

0.000433792 -8.77056e-05 -5.63282e-08
-8.77056e-05 0.00053838 4.48838e-08
-5.63282e-08 4.48838e-08 0.000501455

0.000250163 9.58681e-06 3.21338e-08
9.58681e-06 0.000335928 -1.28336e-07
3.21338e-08 -1.28336e-07 0.000282062

0.000348627 -1.11002e-05 5.83888e-08
-1.11002e-05 0.000239929 -2.02107e-07
5.83888e-08 -2.02107e-07 0.000278871

0.000500107 -2.75038e-05 -6.00465e-08
-2.75038e-05 0.000610601 1.01683e-07
-6.00465e-08 1.01683e-07 0.000550951

0.000542405 -1.76523e-06 8.96492e-08
-1.76523e-06 0.000573863 2.8202e-07
8.96492e-08 2.8202e-07 0.000549001

0.000541052 4.33905e-05 8.31689e-08
4.33905e-05 0.000437916 -6.08758e-08
8.31689e-08 -6.08758e-08 0.000494345

0.000556518 -2.88216e-06 -6.87923e-08
-2.88216e-06 0.000346324 -8.62795e-08
-6.87923e-08 -8.62795e-08 0.000506615

0.000333857 4.41692e-05 -1.36786e-07
4.41692e-05 0.000414476 7.69212e-09
-1.36786e-07 7.69212e-09 0.000352875

0.000333573 -4.64575e-05 1.59658e-09
-4.64575e-05 0.000415302 -4.46005e-08
1.59658e-09 -4.46005e-08 0.000353664

0.00052552 -8.07397e-06 4.85029e-08
-8.07397e-06 0.000384285 -8.6398e-08
4.85029e-08 -8.6398e-08 0.000471232

0.000390617 -5.93367e-05 9.38894e-08
-5.93367e-05 0.000500253 -4.81482e-08
9.38894e-08 -4.81482e-08 0.000447104

0.000577327 6.20124e-06 -2.18562e-07
6.20124e-06 0.000525156 1.68496e-07
-2.18562e-07 1.68496e-07 0.000548476

0.000576681 -5.53249e-06 1.63453e-08
-5.53249e-06 0.000526129 1.15215e-07
1.63453e-08 1.15215e-07 0.000548554

0.000506806 6.6042e-05 3.1903e-08
6.6042e-05 0.000460838 -5.97516e-08
3.1903e-08 -5.97516e-08 0.000489176

0.000453287 -7.45877e-05 -8.96132e-08
-7.45877e-05 0.000463385 6.65725e-08
-8.96132e-08 6.65725e-08 0.000478663

0.000540817 3.9729e-05 9.70396e-08
3.9729e-05 0.00038762 8.10998e-08
9.70396e-08 8.10998e-08 0.00048456

0.000381532 5.79686e-05 1.27974e-07
5.79686e-05 0.000336839 4.37921e-08
1.27974e-07 4.37921e-08 0.000339507

0.000414626 -6.50887e-05 -7.95111e-08
-6.50887e-05 0.000479655 7.10977e-08
-7.95111e-08 7.10977e-08 0.000473479

0.000236765 0.000100227 -3.65455e-08
0.000100227 0.000214688 1.10417e-07
-3.65455e-08 1.10417e-07 0.000235398

0.000366984 -1.39765e-05 3.43973e-08
-1.39765e-05 0.000480235 -1.00844e-07
3.43973e-08 -1.00844e-07 0.000422746

0.000369363 -2.1511e-05 -3.44918e-08
-2.1511e-05 0.000484352 3.39413e-08
-3.44918e-08 3.39413e-08 0.000422204

0.00050838 2.96099e-05 2.24659e-07
2.96099e-05 0.000613115 -2.16109e-07
2.24659e-07 -2.16109e-07 0.000553267

0.00052459 -4.41343e-05 -4.46146e-08
-4.41343e-05 0.0005984 1.42281e-07
-4.46146e-08 1.42281e-07 0.000552839

0.000606131 -2.48835e-06 5.72298e-09
-2.48835e-06 0.000399263 -1.57333e-08
5.72298e-09 -1.57333e-08 0.00051774

0.000606876 2.21223e-06 -5.79567e-08
2.21223e-06 0.000398547 -8.83783e-08
-5.79567e-08 -8.83783e-08 0.000518227

0.000534674 -8.72197e-05 1.25459e-08
-8.72197e-05 0.000486154 -7.24998e-08
1.25459e-08 -7.24998e-08 0.000517946

0.000533975 8.72238e-05 1.37557e-07
8.72238e-05 0.000474228 -1.32108e-08
1.37557e-07 -1.32108e-08 0.000514504

0.000598945 -3.09992e-05 9.86263e-08
-3.09992e-05 0.000552316 4.70313e-09
9.86263e-08 4.70313e-09 0.000545154

0.000596811 3.17525e-05 2.8877e-08
3.17525e-05 0.00055266 7.84406e-08
2.8877e-08 7.84406e-08 0.000544913

0.000614736 -2.70724e-05 -3.87364e-08
-2.70724e-05 0.000559933 2.09943e-07
-3.87364e-08 2.09943e-07 0.000568354

0.000615988 2.95848e-05 3.07901e-07
2.95848e-05 0.000563737 4.46196e-07
3.07901e-07 4.46196e-07 0.000568735

0.000457917 -8.26249e-05 -4.78634e-08
-8.26249e-05 0.000541816 -6.85289e-08
-4.78634e-08 -6.85289e-08 0.000519058

0.000459253 8.24702e-05 2.95635e-08
8.24702e-05 0.00054266 -7.97906e-08
2.95635e-08 -7.97906e-08 0.000519794

0.000471064 -4.27255e-05 -8.9533e-08
-4.27255e-05 0.000394298 1.15153e-07
-8.9533e-08 1.15153e-07 0.000431677

0.000403356 -3.59844e-05 1.76686e-08
-3.59844e-05 0.000489879 -8.5409e-08
1.76686e-08 -8.5409e-08 0.000451892

0.000429629 6.95008e-05 1.03025e-07
6.95008e-05 0.000428945 7.40762e-08
1.03025e-07 7.40762e-08 0.000423606

0.000406379 -5.09739e-05 5.90361e-08
-5.09739e-05 0.000504675 -6.76887e-08
5.90361e-08 -6.76887e-08 0.000450229

0.000384132 -5.43776e-05 -1.98376e-08
-5.43776e-05 0.000343238 2.3009e-07
-1.98376e-08 2.3009e-07 0.000335799

0.000470057 4.25044e-05 1.08054e-08
4.25044e-05 0.000393208 -7.69512e-08
1.08054e-08 -7.69512e-08 0.000430674

0.000405418 3.58697e-05 4.42788e-08
3.58697e-05 0.000487416 -1.42964e-07
4.42788e-08 -1.42964e-07 0.000449996

0.000464778 -0.000103125 9.75048e-09
-0.000103125 0.000505893 -4.23721e-08
9.75048e-09 -4.23721e-08 0.000523942

0.000465502 0.000103233 1.46741e-07
0.000103233 0.00050537 6.6954e-09
1.46741e-07 6.6954e-09 0.00052392

0.000548494 -4.09247e-05 5.73811e-08
-4.09247e-05 0.000445813 -3e-08
5.73811e-08 -3e-08 0.000501536

0.000629426 -7.61371e-05 -4.66755e-07
-7.61371e-05 0.000694733 2.54479e-07
-4.66755e-07 2.54479e-07 0.000570754

0.00062295 7.88086e-05 -6.06019e-08
7.88086e-05 0.000574514 -2.28425e-07
-6.06019e-08 -2.28425e-07 0.000571604

0.00045104 -5.827e-05 8.20567e-08
-5.827e-05 0.000531463 1.90659e-08
8.20567e-08 1.90659e-08 0.000493458

0.000508007 7.26492e-05 3.31248e-08
7.26492e-05 0.00042145 -4.3313e-08
3.31248e-08 -4.3313e-08 0.000477466

0.000583366 4.96052e-06 -1.56858e-07
4.96052e-06 0.000501563 2.21927e-08
-1.56858e-07 2.21927e-08 0.000534182

0.000428866 -6.83435e-05 2.2633e-08
-6.83435e-05 0.000432027 1.26906e-07
2.2633e-08 1.26906e-07 0.000423784

0.000285653 4.37459e-05 2.7064e-08
4.37459e-05 0.000301009 3.23435e-08
2.7064e-08 3.23435e-08 0.000271242

0.000309089 4.34902e-05 2.90966e-08
4.34902e-05 0.000265927 2.98343e-08
2.90966e-08 2.98343e-08 0.000271398

0.00060565 8.29626e-06 2.67484e-08
8.29626e-06 0.00042679 1.03753e-08
2.67484e-08 1.03753e-08 0.00052636

0.000604374 -8.563e-06 -3.77567e-08
-8.563e-06 0.000426524 -1.11524e-07
-3.77567e-08 -1.11524e-07 0.0005264

0.000586045 -7.80836e-06 1.03987e-07
-7.80836e-06 0.000506625 9.73045e-08
1.03987e-07 9.73045e-08 0.000535331

0.00040823 4.82426e-05 1.43909e-08
4.82426e-05 0.00050269 1.99256e-07
1.43909e-08 1.99256e-07 0.00044954

0.00047101 -3.37764e-05 4.29316e-08
-3.37764e-05 0.000380361 1.17589e-08
4.29316e-08 1.17589e-08 0.000398431

0.000491653 -4.07841e-05 1.12511e-07
-4.07841e-05 0.000515881 -1.77285e-07
1.12511e-07 -1.77285e-07 0.000506624

0.000491788 4.12796e-05 4.98838e-09
4.12796e-05 0.000516165 -3.64873e-07
4.98838e-09 -3.64873e-07 0.000506908

0.000667468 -6.16529e-06 -2.27247e-07
-6.16529e-06 0.000726146 3.27534e-07
-2.27247e-07 3.27534e-07 0.000566401

0.000668619 5.44312e-06 -1.36212e-07
5.44312e-06 0.00072409 1.51557e-07
-1.36212e-07 1.51557e-07 0.000566707

0.000420305 -7.04343e-05 2.12632e-08
-7.04343e-05 0.000526651 -5.44462e-09
2.12632e-08 -5.44462e-09 0.000487618

0.000501278 5.59458e-05 -5.98049e-09
5.59458e-05 0.00039852 -7.54846e-08
-5.98049e-09 -7.54846e-08 0.000449523

0.000568154 -6.66221e-06 -9.81681e-08
-6.66221e-06 0.000475 -1.38658e-07
-9.81681e-08 -1.38658e-07 0.000523533

0.00056875 7.52809e-06 -1.51728e-07
7.52809e-06 0.000475147 -1.55283e-07
-1.51728e-07 -1.55283e-07 0.000523369

0.000427636 -4.49729e-05 1.85616e-07
-4.49729e-05 0.000513299 2.92378e-08
1.85616e-07 2.92378e-08 0.000498403

0.000422181 -7.17591e-05 -1.80315e-07
-7.17591e-05 0.000491726 3.69926e-08
-1.80315e-07 3.69926e-08 0.000507471

0.000234075 -0.000104626 -1.46901e-07
-0.000104626 0.000237147 -2.38771e-07
-1.46901e-07 -2.38771e-07 0.000237426

0.000490591 -6.65192e-05 3.07535e-08
-6.65192e-05 0.000548135 2.66261e-10
3.07535e-08 2.66261e-10 0.000531704

0.000490355 6.78739e-05 1.15015e-07
6.78739e-05 0.000546971 7.0607e-08
1.15015e-07 7.0607e-08 0.000531311

0.00041287 -6.90419e-05 -1.0071e-07
-6.90419e-05 0.000499425 -6.22563e-08
-1.0071e-07 -6.22563e-08 0.000493905

0.000474554 3.64607e-05 1.50706e-07
3.64607e-05 0.000381588 2.81604e-08
1.50706e-07 2.81604e-08 0.000400793

0.000515953 -6.3979e-05 -4.84994e-08
-6.3979e-05 0.000463555 -3.19957e-08
-4.84994e-08 -3.19957e-08 0.000493871

0.000543515 -7.04847e-05 3.15923e-08
-7.04847e-05 0.00048669 -7.03017e-10
3.15923e-08 -7.03017e-10 0.000520983

0.000543984 6.89556e-05 1.13298e-07
6.89556e-05 0.000483473 6.87037e-08
1.13298e-07 6.87037e-08 0.000520174

0.000548487 -3.94279e-05 5.68584e-08
-3.94279e-05 0.000390958 1.80834e-07
5.68584e-08 1.80834e-07 0.00049147

0.000599674 1.74699e-05 1.85038e-08
1.74699e-05 0.000483242 5.1356e-08
1.85038e-08 5.1356e-08 0.000542051

0.000598617 -1.70919e-05 -2.03592e-08
-1.70919e-05 0.000483975 -2.50502e-08
-2.03592e-08 -2.50502e-08 0.000541874

0.000540878 -2.746e-05 -4.52233e-08
-2.746e-05 0.000687201 -1.73677e-07
-4.52233e-08 -1.73677e-07 0.000566887

0.000565708 5.94359e-05 -3.27107e-07
5.94359e-05 0.000672925 4.22698e-08
-3.27107e-07 4.22698e-08 0.000567407

0.000255206 8.81649e-06 -1.14802e-07
8.81649e-06 0.000152604 -1.1066e-07
-1.14802e-07 -1.1066e-07 0.000253585

0.00018513 1.67254e-05 -5.55193e-08
1.67254e-05 0.000234717 -8.76273e-08
-5.55193e-08 -8.76273e-08 0.000254114

0.000455842 6.56209e-05 -9.68977e-08
6.56209e-05 0.000535611 2.07503e-07
-9.68977e-08 2.07503e-07 0.000502269

0.000456059 -6.63121e-05 -1.14269e-07
-6.63121e-05 0.000535903 1.55284e-07
-1.14269e-07 1.55284e-07 0.000501863

0.000434754 -8.42396e-05 -1.08736e-08
-8.42396e-05 0.000537388 3.85031e-08
-1.08736e-08 3.85031e-08 0.000499812

0.000223309 -4.40161e-05 -1.60575e-07
-4.40161e-05 0.000214356 -8.7459e-08
-1.60575e-07 -8.7459e-08 0.000248946

0.000229496 -3.65369e-05 -1.37148e-07
-3.65369e-05 0.000216005 -2.40296e-07
-1.37148e-07 -2.40296e-07 0.000249557

0.000561931 5.86722e-05 -1.22946e-07
5.86722e-05 0.000678429 7.06672e-07
-1.22946e-07 7.06672e-07 0.00057394

0.000561388 -6.16733e-05 -2.32649e-07
-6.16733e-05 0.000672688 -1.69962e-07
-2.32649e-07 -1.69962e-07 0.000573936

0.000497421 -8.02707e-05 2.17729e-08
-8.02707e-05 0.000449246 2.79447e-08
2.17729e-08 2.79447e-08 0.000487197

0.000422644 -6.47027e-05 -1.31527e-07
-6.47027e-05 0.00046262 -1.36431e-07
-1.31527e-07 -1.36431e-07 0.000435186

0.000456014 6.3584e-05 -1.72205e-07
6.3584e-05 0.000502642 -2.7275e-07
-1.72205e-07 -2.7275e-07 0.00049372

0.000455952 -6.30416e-05 -4.12498e-08
-6.30416e-05 0.000502384 -2.57304e-07
-4.12498e-08 -2.57304e-07 0.000493485

0.000423908 -7.51308e-05 -4.1062e-08
-7.51308e-05 0.000488122 -2.56754e-07
-4.1062e-08 -2.56754e-07 0.00046047

0.000423788 6.51783e-05 8.98956e-08
6.51783e-05 0.000461234 9.67262e-08
8.98956e-08 9.67262e-08 0.000434852

0.000289358 -2.38674e-05 -1.05495e-07
-2.38674e-05 0.000358017 4.5027e-08
-1.05495e-07 4.5027e-08 0.000302789

0.000289042 2.02448e-05 1.15552e-07
2.02448e-05 0.000361377 1.61553e-07
1.15552e-07 1.61553e-07 0.000301177

0.000364712 1.69534e-05 2.65698e-08
1.69534e-05 0.000278158 -2.31657e-07
2.65698e-08 -2.31657e-07 0.000298235

0.00042503 7.5202e-05 -2.46254e-08
7.5202e-05 0.000487624 -6.8863e-08
-2.46254e-08 -6.8863e-08 0.000460003

0.000256644 -1.1232e-05 -1.2195e-07
-1.1232e-05 0.000330798 -7.1034e-08
-1.2195e-07 -7.1034e-08 0.000279529

0.000343533 -6.55991e-06 1.48145e-07
-6.55991e-06 0.000237306 -1.32344e-07
1.48145e-07 -1.32344e-07 0.000280061

0.000477968 -6.17808e-05 -9.99372e-09
-6.17808e-05 0.000532996 1.33174e-07
-9.99372e-09 1.33174e-07 0.000519508

0.000477832 6.07473e-05 1.82592e-07
6.07473e-05 0.000532906 2.61531e-07
1.82592e-07 2.61531e-07 0.000519961

0.000486689 -4.6394e-05 -4.55415e-08
-4.6394e-05 0.000536411 1.18139e-08
-4.55415e-08 1.18139e-08 0.000523534

0.000486058 4.61047e-05 2.72228e-07
4.61047e-05 0.000535557 -4.92303e-08
2.72228e-07 -4.92303e-08 0.000523764

0.000227788 4.04242e-05 -5.01897e-08
4.04242e-05 0.000203186 -7.00375e-08
-5.01897e-08 -7.00375e-08 0.000246107

0.000223355 3.81972e-05 7.30246e-08
3.81972e-05 0.000204882 1.19155e-07
7.30246e-08 1.19155e-07 0.000244722

0.000455777 5.8715e-05 6.40733e-08
5.8715e-05 0.000495774 -1.03133e-07
6.40733e-08 -1.03133e-07 0.000474124

0.000455662 -5.85476e-05 -4.16803e-08
-5.85476e-05 0.000496158 -2.56993e-07
-4.16803e-08 -2.56993e-07 0.000473939

0.000533514 -5.62511e-05 -1.47484e-09
-5.62511e-05 0.000613835 9.82731e-08
-1.47484e-09 9.82731e-08 0.000557329

0.000557409 2.54165e-05 -2.85025e-07
2.54165e-05 0.000570647 3.03839e-07
-2.85025e-07 3.03839e-07 0.000557147

0.000468698 -6.31715e-05 1.0424e-08
-6.31715e-05 0.00056488 9.82477e-08
1.0424e-08 9.82477e-08 0.00052939

0.000469155 6.36217e-05 8.60056e-09
6.36217e-05 0.000563836 -1.43392e-08
8.60056e-09 -1.43392e-08 0.000529638

0.000577535 4.42923e-06 -2.47524e-07
4.42923e-06 0.000475591 -9.54692e-08
-2.47524e-07 -9.54692e-08 0.00054149

0.000576842 -3.48519e-06 3.51289e-08
-3.48519e-06 0.000475589 -5.56751e-08
3.51289e-08 -5.56751e-08 0.00054149

0.000479529 -7.17472e-05 3.60713e-08
-7.17472e-05 0.000486666 -6.36752e-10
3.60713e-08 -6.36752e-10 0.000505056

0.000480323 7.27831e-05 -6.71885e-08
7.27831e-05 0.000483298 7.42152e-08
-6.71885e-08 7.42152e-08 0.000504017

0.000617379 1.75159e-05 9.98774e-09
1.75159e-05 0.00052512 -2.44749e-09
9.98774e-09 -2.44749e-09 0.000557175

0.000612929 2.75193e-06 1.60477e-07
2.75193e-06 0.000556255 -1.4171e-07
1.60477e-07 -1.4171e-07 0.000567745

0.000617816 -1.772e-05 7.26431e-08
-1.772e-05 0.000525598 1.10331e-08
7.26431e-08 1.10331e-08 0.000557425

0.000612545 -4.98659e-06 -2.81741e-07
-4.98659e-06 0.000553679 -3.16914e-07
-2.81741e-07 -3.16914e-07 0.000567819

0.000540976 2.80765e-06 1.47878e-07
2.80765e-06 0.000619498 -2.82543e-07
1.47878e-07 -2.82543e-07 0.0005598

0.00063833 7.07856e-05 -7.7826e-08
7.07856e-05 0.000586493 6.1502e-09
-7.7826e-08 6.1502e-09 0.000556327

0.000638747 -7.00776e-05 -2.57815e-07
-7.00776e-05 0.000587199 2.49181e-07
-2.57815e-07 2.49181e-07 0.000556156

0.000501434 -3.76934e-05 -6.50505e-08
-3.76934e-05 0.000683398 1.50196e-07
-6.50505e-08 1.50196e-07 0.000560867

0.00056171 -3.29117e-05 3.95207e-07
-3.29117e-05 0.000583371 -5.95067e-07
3.95207e-07 -5.95067e-07 0.000563952

0.000846583 -4.79905e-05 2.29739e-07
-4.79905e-05 0.000444867 3.09455e-07
2.29739e-07 3.09455e-07 0.0005749

0.000558469 3.41417e-05 5.32376e-07
3.41417e-05 0.000586236 9.34974e-07
5.32376e-07 9.34974e-07 0.000564834

0.000836753 4.75588e-05 1.88518e-06
4.75588e-05 0.00045574 -1.48977e-06
1.88518e-06 -1.48977e-06 0.000575934

0.000585533 -4.53288e-05 -5.01738e-08
-4.53288e-05 0.000566278 8.00354e-08
-5.01738e-08 8.00354e-08 0.000559529

0.000526263 -3.19717e-05 -5.8196e-08
-3.19717e-05 0.000574578 8.53471e-08
-5.8196e-08 8.53471e-08 0.00054647

0.000604032 -3.20423e-06 -3.02685e-08
-3.20423e-06 0.000559721 1.72216e-07
-3.02685e-08 1.72216e-07 0.000570781

0.000584862 4.80218e-05 -4.35928e-08
4.80218e-05 0.000567674 6.19265e-08
-4.35928e-08 6.19265e-08 0.000560033

0.000527507 3.32108e-05 -1.2175e-07
3.32108e-05 0.000573209 1.01698e-08
-1.2175e-07 1.01698e-08 0.000546579

0.000604116 3.50972e-06 8.64679e-08
3.50972e-06 0.000567053 -5.40358e-07
8.64679e-08 -5.40358e-07 0.000571601

0.000525479 -2.67438e-05 -4.92156e-08
-2.67438e-05 0.000564197 -2.46961e-08
-4.92156e-08 -2.46961e-08 0.000550967

0.000585525 -1.50937e-05 1.35995e-07
-1.50937e-05 0.00056563 3.29844e-08
1.35995e-07 3.29844e-08 0.0005616

0.000526627 2.74261e-05 -1.23845e-07
2.74261e-05 0.000563661 -1.54895e-08
-1.23845e-07 -1.54895e-08 0.000551248

0.000585525 1.50937e-05 -1.42301e-07
1.50937e-05 0.00056563 -9.74216e-09
-1.42301e-07 -9.74216e-09 0.000561835

0.000391827 6.22019e-05 -5.18814e-08
6.22019e-05 0.000463672 1.15722e-07
-5.18814e-08 1.15722e-07 0.000408789

0.000419158 1.23506e-05 -3.94324e-08
1.23506e-05 0.000550666 -8.21298e-08
-3.94324e-08 -8.21298e-08 0.000492389

0.000468744 3.32953e-05 -3.3082e-08
3.32953e-05 0.000520522 1.99896e-09
-3.3082e-08 1.99896e-09 0.000489935

0.000502469 -4.10208e-05 -9.36871e-08
-4.10208e-05 0.000367085 -7.08267e-08
-9.36871e-08 -7.08267e-08 0.000445796

0.000479944 -2.50595e-05 -1.40663e-07
-2.50595e-05 0.000356424 -4.55064e-08
-1.40663e-07 -4.55064e-08 0.000415151

0.000417685 1.89156e-05 -4.06852e-08
1.89156e-05 0.000597211 -6.75733e-08
-4.06852e-08 -6.75733e-08 0.000521301

0.000468448 3.45836e-05 -2.09247e-08
3.45836e-05 0.000530587 -1.39418e-07
-2.09247e-08 -1.39418e-07 0.000520582

0.000480013 -3.64535e-07 -1.40506e-07
-3.64535e-07 0.000362227 6.82392e-08
-1.40506e-07 6.82392e-08 0.000417565

0.000537752 1.54498e-05 8.04568e-08
1.54498e-05 0.000393628 1.08329e-08
8.04568e-08 1.08329e-08 0.000505921

0.00031186 5.37222e-05 -1.19951e-07
5.37222e-05 0.000391185 3.31539e-08
-1.19951e-07 3.31539e-08 0.000328881

0.000293131 4.24404e-05 -1.59729e-07
4.24404e-05 0.000390974 7.46067e-09
-1.59729e-07 7.46067e-09 0.000326641

0.000377666 4.27599e-05 1.165e-07
4.27599e-05 0.000301841 -9.56853e-08
1.165e-07 -9.56853e-08 0.000321258

0.000513941 -6.4954e-05 1.37718e-07
-6.4954e-05 0.000550168 8.17631e-08
1.37718e-07 8.17631e-08 0.000529764

0.000500726 -2.75736e-05 -9.20747e-08
-2.75736e-05 0.000571946 -1.31138e-07
-9.20747e-08 -1.31138e-07 0.000529928

0.00045319 -7.51096e-05 1.60931e-07
-7.51096e-05 0.000443728 1.14355e-07
1.60931e-07 1.14355e-07 0.000450996

0.000391413 6.03617e-05 -7.30579e-08
6.03617e-05 0.000486708 -1.62067e-07
-7.30579e-08 -1.62067e-07 0.000440537

0.000430043 7.04833e-05 5.37851e-08
7.04833e-05 0.000518342 9.88472e-08
5.37851e-08 9.88472e-08 0.000486568

0.000465913 -3.38639e-05 9.02864e-08
-3.38639e-05 0.000530106 1.10749e-07
9.02864e-08 1.10749e-07 0.000518979

0.000415026 -2.28132e-05 -3.84904e-08
-2.28132e-05 0.000597887 -1.63743e-07
-3.84904e-08 -1.63743e-07 0.000518962

0.000518846 1.91587e-05 -8.0705e-08
1.91587e-05 0.000371287 5.15612e-08
-8.0705e-08 5.15612e-08 0.000448846

0.000336415 1.77386e-05 -3.13272e-08
1.77386e-05 0.000437198 -1.43077e-07
-3.13272e-08 -1.43077e-07 0.000354576

0.0003181 7.74904e-06 -3.96702e-08
7.74904e-06 0.000438674 -1.7633e-07
-3.96702e-08 -1.7633e-07 0.000356458

0.00043252 7.41848e-06 -1.16852e-07
7.41848e-06 0.000324562 4.76609e-08
-1.16852e-07 4.76609e-08 0.000347725

0.000370062 4.23058e-05 -5.61435e-09
4.23058e-05 0.00047343 8.1026e-08
-5.61435e-09 8.1026e-08 0.000414139

0.000390612 6.93508e-05 1.44968e-09
6.93508e-05 0.000449596 5.78871e-08
1.44968e-09 5.78871e-08 0.000406901

0.000499473 1.21123e-05 -6.79032e-08
1.21123e-05 0.00036912 9.74819e-08
-6.79032e-08 9.74819e-08 0.000451087

0.000297929 3.18021e-05 -1.53359e-07
3.18021e-05 0.000358054 -2.98614e-08
-1.53359e-07 -2.98614e-08 0.000293419

0.000540738 -4.34275e-05 1.47629e-07
-4.34275e-05 0.000392498 4.65333e-08
1.47629e-07 4.65333e-08 0.000492637

0.000500344 3.54074e-06 5.4168e-08
3.54074e-06 0.000596675 -1.04444e-07
5.4168e-08 -1.04444e-07 0.000531874

0.000533512 9.13135e-07 -1.94925e-07
9.13135e-07 0.000546932 -7.17852e-08
-1.94925e-07 -7.17852e-08 0.000532944

0.000694198 2.92504e-05 1.59405e-07
2.92504e-05 0.000529101 -1.53735e-07
1.59405e-07 -1.53735e-07 0.000565555

0.000692668 -7.01987e-05 -1.99679e-08
-7.01987e-05 0.000574668 1.36022e-08
-1.99679e-08 1.36022e-08 0.000560618

0.000430173 -8.00745e-05 1.43345e-08
-8.00745e-05 0.000451203 -6.59457e-09
1.43345e-08 -6.59457e-09 0.000445605

0.000375681 -6.47973e-05 -6.86036e-08
-6.47973e-05 0.000447465 2.49506e-08
-6.86036e-08 2.49506e-08 0.000409745

0.000426336 -2.21377e-05 1.40378e-07
-2.21377e-05 0.000306803 3.39361e-08
1.40378e-07 3.39361e-08 0.000347347

0.00057941 1.12299e-05 1.07553e-07
1.12299e-05 0.000499897 5.40024e-08
1.07553e-07 5.40024e-08 0.000535897

0.000579951 -4.16784e-05 1.34554e-07
-4.16784e-05 0.000505642 6.11899e-08
1.34554e-07 6.11899e-08 0.00053028

0.000539212 -1.85978e-05 8.54717e-10
-1.85978e-05 0.000394694 4.00526e-08
8.54717e-10 4.00526e-08 0.000506402

0.000535362 -5.70401e-06 7.56056e-08
-5.70401e-06 0.000371482 -7.24351e-08
7.56056e-08 -7.24351e-08 0.000497389

0.000443405 -6.56579e-05 1.27522e-07
-6.56579e-05 0.000379651 3.76079e-08
1.27522e-07 3.76079e-08 0.000393227

0.000455222 3.05104e-05 1.82885e-07
3.05104e-05 0.000345745 -3.008e-08
1.82885e-07 -3.008e-08 0.000386821

0.000446849 -5.3772e-05 1.28121e-07
-5.3772e-05 0.000341161 4.2564e-08
1.28121e-07 4.2564e-08 0.000383164

0.000393349 4.40167e-05 6.52474e-08
4.40167e-05 0.000534338 -4.31291e-08
6.52474e-08 -4.31291e-08 0.000491456

0.000377119 -5.34297e-05 -1.56523e-07
-5.34297e-05 0.000468962 -6.38564e-08
-1.56523e-07 -6.38564e-08 0.000414666

0.000372704 5.13481e-05 9.03926e-08
5.13481e-05 0.00044848 -3.19865e-08
9.03926e-08 -3.19865e-08 0.000410562

0.000243218 -8.11486e-05 -1.10163e-07
-8.11486e-05 0.000247202 6.28961e-08
-1.10163e-07 6.28961e-08 0.000241805

0.000222156 5.03641e-05 5.19905e-08
5.03641e-05 0.000248318 -9.76852e-08
5.19905e-08 -9.76852e-08 0.000239384

0.000420921 -6.07835e-05 -3.76621e-08
-6.07835e-05 0.000558237 -1.10521e-07
-3.76621e-08 -1.10521e-07 0.000518559

0.000369857 4.03166e-05 -8.44758e-09
4.03166e-05 0.000497449 1.23951e-08
-8.44758e-09 1.23951e-08 0.000446192

0.000224871 8.27706e-06 4.90393e-08
8.27706e-06 0.000232102 -5.61178e-09
4.90393e-08 -5.61178e-09 0.000253523

0.000228293 -1.66393e-05 -5.76868e-08
-1.66393e-05 0.000253463 6.54295e-08
-5.76868e-08 6.54295e-08 0.00025498

0.000521326 -2.41265e-05 -1.00184e-07
-2.41265e-05 0.000557415 -9.15557e-09
-1.00184e-07 -9.15557e-09 0.000538115

0.000519069 5.10906e-05 -2.03268e-08
5.10906e-05 0.00054019 1.06589e-07
-2.03268e-08 1.06589e-07 0.000539949

0.000556599 2.60789e-07 2.03451e-08
2.60789e-07 0.000380107 1.41353e-08
2.03451e-08 1.41353e-08 0.000470601

0.000524127 -1.62473e-05 -1.19084e-07
-1.62473e-05 0.000529587 -1.42167e-07
-1.19084e-07 -1.42167e-07 0.000537979

0.000520007 4.7738e-05 3.75458e-08
4.7738e-05 0.000540911 -3.00692e-07
3.75458e-08 -3.00692e-07 0.000539316

0.000651722 5.25483e-05 -8.92148e-08
5.25483e-05 0.000514783 -8.74883e-08
-8.92148e-08 -8.74883e-08 0.00055882

0.00063475 -6.43341e-05 -1.45962e-07
-6.43341e-05 0.000563164 1.42964e-08
-1.45962e-07 1.42964e-08 0.00055461

0.000491036 -3.8974e-05 1.68824e-07
-3.8974e-05 0.000496324 -7.95986e-08
1.68824e-07 -7.95986e-08 0.000504363

0.000490656 5.14846e-05 -9.60499e-08
5.14846e-05 0.000487949 -6.41684e-08
-9.60499e-08 -6.41684e-08 0.000506777

0.000524497 -4.56886e-06 4.46742e-08
-4.56886e-06 0.000665228 1.03404e-07
4.46742e-08 1.03404e-07 0.000553052

0.000535687 1.83494e-05 2.22201e-08
1.83494e-05 0.000599873 5.13832e-08
2.22201e-08 5.13832e-08 0.000555414

0.000383804 -7.30395e-05 3.44171e-08
-7.30395e-05 0.000467511 8.14243e-08
3.44171e-08 8.14243e-08 0.000409804

0.000267763 8.0251e-06 -1.37223e-07
8.0251e-06 0.000345131 4.20976e-08
-1.37223e-07 4.20976e-08 0.000289512

0.000338838 9.92939e-06 -1.25183e-08
9.92939e-06 0.000275873 -1.77062e-07
-1.25183e-08 -1.77062e-07 0.000288881

0.000382127 3.83326e-05 -5.77812e-08
3.83326e-05 0.000532445 -6.89787e-08
-5.77812e-08 -6.89787e-08 0.000479577

0.000419461 5.65989e-05 -1.13602e-07
5.65989e-05 0.000512422 5.96678e-08
-1.13602e-07 5.96678e-08 0.000476089

0.000659334 -5.30786e-05 -5.0208e-07
-5.30786e-05 0.000563594 8.69901e-07
-5.0208e-07 8.69901e-07 0.000575018

0.000616931 8.10369e-05 3.23668e-07
8.10369e-05 0.000709398 -2.96495e-07
3.23668e-07 -2.96495e-07 0.000574673

0.000432328 5.15792e-05 6.37386e-08
5.15792e-05 0.000404927 -8.83844e-08
6.37386e-08 -8.83844e-08 0.000400324

0.000444478 8.77198e-05 5.91658e-09
8.77198e-05 0.0005323 9.25926e-09
5.91658e-09 9.25926e-09 0.000501029

0.000507265 3.3126e-05 1.4108e-08
3.3126e-05 0.000420058 1.40926e-08
1.4108e-08 1.40926e-08 0.000480066

0.000509564 -2.66909e-05 5.28161e-08
-2.66909e-05 0.000421094 2.94973e-08
5.28161e-08 2.94973e-08 0.000477812

0.000453206 8.33383e-05 5.65684e-08
8.33383e-05 0.000509191 7.90816e-08
5.65684e-08 7.90816e-08 0.000497613

0.00045566 -8.224e-05 -1.20391e-07
-8.224e-05 0.000545555 -1.90154e-08
-1.20391e-07 -1.90154e-08 0.000515473

0.000569787 -6.9983e-05 1.18778e-07
-6.9983e-05 0.000453661 -8.37861e-09
1.18778e-07 -8.37861e-09 0.000522067

0.000424172 -5.81279e-06 1.46165e-07
-5.81279e-06 0.000311443 -5.41726e-08
1.46165e-07 -5.41726e-08 0.00034859

0.000697683 8.89847e-06 -2.53412e-07
8.89847e-06 0.00064698 -9.46999e-08
-2.53412e-07 -9.46999e-08 0.000564717

0.000723554 -5.66606e-06 -1.88678e-07
-5.66606e-06 0.000556659 2.01402e-08
-1.88678e-07 2.01402e-08 0.000569913

0.000445105 6.3986e-05 5.73158e-08
6.3986e-05 0.000416969 -9.47521e-08
5.73158e-08 -9.47521e-08 0.000434409

0.000518127 2.44602e-05 -7.40648e-08
2.44602e-05 0.000397527 -6.07352e-08
-7.40648e-08 -6.07352e-08 0.000453965

0.000365998 5.48444e-05 6.95479e-08
5.48444e-05 0.000390771 2.00505e-08
6.95479e-08 2.00505e-08 0.000346258

0.000555951 1.26722e-05 -2.68293e-07
1.26722e-05 0.000595913 -1.92837e-08
-2.68293e-07 -1.92837e-08 0.000563504

0.000565277 3.78398e-05 -1.31415e-08
3.78398e-05 0.000683447 8.93414e-08
-1.31415e-08 8.93414e-08 0.000559582

0.0005718 3.47327e-05 1.13811e-07
3.47327e-05 0.00044216 2.59317e-08
1.13811e-07 2.59317e-08 0.000528983

0.000416119 -1.48962e-05 -3.02334e-08
-1.48962e-05 0.000554304 -2.46101e-08
-3.02334e-08 -2.46101e-08 0.000490591

0.000466309 -3.15029e-05 8.26839e-08
-3.15029e-05 0.000523681 1.09069e-08
8.26839e-08 1.09069e-08 0.000489144

0.000560827 9.80739e-06 1.09705e-07
9.80739e-06 0.000391076 7.45012e-08
1.09705e-07 7.45012e-08 0.000492858

0.000565609 -7.84594e-06 -5.15223e-08
-7.84594e-06 0.000388662 1.10309e-09
-5.15223e-08 1.10309e-09 0.000491633

0.00039105 -5.48158e-05 -4.28682e-08
-5.48158e-05 0.00036612 1.2976e-07
-4.28682e-08 1.2976e-07 0.00034154

0.000503436 4.27747e-07 -1.43253e-08
4.27747e-07 0.000356366 8.48766e-08
-1.43253e-08 8.48766e-08 0.000416004

0.00056117 -8.82931e-06 8.86951e-09
-8.82931e-06 0.00043811 -4.47397e-08
8.86951e-09 -4.47397e-08 0.000515471

0.000547309 1.81831e-05 -8.67226e-08
1.81831e-05 0.00045059 -2.17375e-07
-8.67226e-08 -2.17375e-07 0.000516472

0.000519037 -2.29924e-05 2.39961e-08
-2.29924e-05 0.000408803 5.29451e-08
2.39961e-08 5.29451e-08 0.000452111

0.000395091 -6.48895e-05 3.40311e-09
-6.48895e-05 0.000469787 4.14903e-08
3.40311e-09 4.14903e-08 0.000415023

0.000565275 -5.17015e-06 -4.87345e-08
-5.17015e-06 0.000425907 1.57215e-08
-4.87345e-08 1.57215e-08 0.000495435

0.000558838 1.13543e-05 1.23979e-07
1.13543e-05 0.000423368 4.81179e-09
1.23979e-07 4.81179e-09 0.000497204

0.000506038 2.67565e-05 -1.07982e-07
2.67565e-05 0.000400885 2.29299e-08
-1.07982e-07 2.29299e-08 0.000463217

0.000386351 -8.25209e-05 -2.13733e-07
-8.25209e-05 0.000375772 -1.57442e-08
-2.13733e-07 -1.57442e-08 0.0003711

0.000426194 7.97312e-05 9.73059e-09
7.97312e-05 0.000499382 7.59274e-08
9.73059e-09 7.59274e-08 0.000501067

0.000447477 7.82508e-05 3.29336e-08
7.82508e-05 0.000539684 -3.4143e-10
3.29336e-08 -3.4143e-10 0.000504925

0.000417271 5.91504e-05 8.17706e-08
5.91504e-05 0.000506608 -1.20451e-08
8.17706e-08 -1.20451e-08 0.000507058

0.000463851 2.86883e-05 -2.48642e-08
2.86883e-05 0.000337567 9.04328e-08
-2.48642e-08 9.04328e-08 0.000387097

0.000353597 -5.68328e-05 -4.64763e-08
-5.68328e-05 0.000303002 1.70923e-07
-4.64763e-08 1.70923e-07 0.000304568

0.000498927 4.78896e-05 -4.80285e-08
4.78896e-05 0.00043223 -6.30377e-08
-4.80285e-08 -6.30377e-08 0.000485405

0.000505983 -5.19411e-05 -6.7629e-08
-5.19411e-05 0.00040102 -1.52791e-07
-6.7629e-08 -1.52791e-07 0.000454054

0.000361986 -4.93027e-05 -1.42519e-07
-4.93027e-05 0.000297825 -2.98454e-08
-1.42519e-07 -2.98454e-08 0.000306898

0.00045409 -8.20504e-05 1.66865e-07
-8.20504e-05 0.000398891 6.50992e-09
1.66865e-07 6.50992e-09 0.000430835

0.000409613 2.09642e-06 3.36888e-08
2.09642e-06 0.000504071 3.63669e-08
3.36888e-08 3.63669e-08 0.000472462

0.000368125 1.58788e-07 2.08332e-08
1.58788e-07 0.000551618 -5.11469e-08
2.08332e-08 -5.11469e-08 0.00047459

0.000391158 6.97782e-05 -8.85503e-09
6.97782e-05 0.000397055 -5.15932e-08
-8.85503e-09 -5.15932e-08 0.000380734

0.000391406 -5.83845e-05 -3.6882e-08
-5.83845e-05 0.000309316 -2.68041e-08
-3.6882e-08 -2.68041e-08 0.000328406

0.000456046 -8.47852e-05 -1.32616e-09
-8.47852e-05 0.000485233 -1.581e-07
-1.32616e-09 -1.581e-07 0.00049784

0.000385879 -7.61353e-05 5.96813e-08
-7.61353e-05 0.000424441 -7.73957e-08
5.96813e-08 -7.73957e-08 0.000380609

0.000380092 -7.74658e-05 -9.47058e-08
-7.74658e-05 0.00041541 2.02717e-07
-9.47058e-08 2.02717e-07 0.000379728

0.000494933 3.97114e-05 -7.12898e-08
3.97114e-05 0.000420455 -8.47161e-08
-7.12898e-08 -8.47161e-08 0.000457635

0.000586987 2.45543e-05 7.44574e-08
2.45543e-05 0.000363947 4.93368e-09
7.44574e-08 4.93368e-09 0.000526291

0.00057533 -3.91117e-05 1.1064e-09
-3.91117e-05 0.000390044 3.97412e-08
1.1064e-09 3.97412e-08 0.000521842

0.000355171 4.39216e-05 1.04541e-07
4.39216e-05 0.000454713 1.8347e-07
1.04541e-07 1.8347e-07 0.000389906

0.00033098 3.00912e-05 6.98859e-08
3.00912e-05 0.000470049 9.66422e-08
6.98859e-08 9.66422e-08 0.000393893

0.000294529 -6.50258e-06 -1.83478e-09
-6.50258e-06 0.000425838 -1.33451e-07
-1.83478e-09 -1.33451e-07 0.000339763

0.000280454 -8.50283e-06 1.35464e-07
-8.50283e-06 0.000432587 -1.2823e-07
1.35464e-07 -1.2823e-07 0.000341317

0.000428195 -5.81197e-06 -9.97546e-08
-5.81197e-06 0.000284193 9.73485e-08
-9.97546e-08 9.73485e-08 0.000334462

0.000413675 -6.92705e-05 1.22397e-07
-6.92705e-05 0.000373255 -2.61739e-08
1.22397e-07 -2.61739e-08 0.000379192

0.000558329 -5.10313e-05 -3.57204e-08
-5.10313e-05 0.000636076 -9.30363e-08
-3.57204e-08 -9.30363e-08 0.000571826

0.000705099 -2.08997e-05 2.54757e-07
-2.08997e-05 0.000706641 4.38769e-09
2.54757e-07 4.38769e-09 0.000566722

0.000432899 4.88159e-05 9.85375e-08
4.88159e-05 0.000351326 1.201e-07
9.85375e-08 1.201e-07 0.000380676

0.000469988 -3.33739e-05 -1.53487e-08
-3.33739e-05 0.00034004 -3.78283e-08
-1.53487e-08 -3.78283e-08 0.000390381

0.000366093 3.0559e-05 -2.53584e-08
3.0559e-05 0.000295152 -3.21465e-08
-2.53584e-08 -3.21465e-08 0.000310223

0.00039314 4.99846e-05 3.68296e-08
4.99846e-05 0.000497586 4.96741e-08
3.68296e-08 4.96741e-08 0.000470872

0.000556579 5.40313e-07 2.27349e-08
5.40313e-07 0.00038118 -5.41893e-08
2.27349e-08 -5.41893e-08 0.000469662

0.000452603 7.66062e-05 3.92501e-08
7.66062e-05 0.000542295 -6.30132e-08
3.92501e-08 -6.30132e-08 0.000517633

0.000403684 6.11693e-05 6.12949e-08
6.11693e-05 0.000561723 3.23521e-08
6.12949e-08 3.23521e-08 0.000521437

0.00034814 3.93516e-05 2.75099e-07
3.93516e-05 0.00039072 2.13694e-08
2.75099e-07 2.13694e-08 0.000344341

0.000375772 4.37424e-05 1.57695e-07
4.37424e-05 0.000363944 1.1978e-07
1.57695e-07 1.1978e-07 0.000339658

0.000438475 -9.25188e-05 6.22196e-08
-9.25188e-05 0.000529382 -1.63428e-07
6.22196e-08 -1.63428e-07 0.000495332

0.000369936 2.51114e-05 -4.50714e-08
2.51114e-05 0.000295267 2.3532e-08
-4.50714e-08 2.3532e-08 0.000312317

0.000420809 6.85518e-05 -4.50675e-09
6.85518e-05 0.000488675 2.46767e-08
-4.50675e-09 2.46767e-08 0.00050975

0.00042406 8.32396e-05 9.14929e-08
8.32396e-05 0.00050253 -3.35697e-08
9.14929e-08 -3.35697e-08 0.000464826

0.000591337 -1.07673e-06 4.55864e-08
-1.07673e-06 0.000383036 -1.13861e-07
4.55864e-08 -1.13861e-07 0.000503347

0.000438796 -6.28308e-05 -6.57756e-08
-6.28308e-05 0.000489921 1.25633e-08
-6.57756e-08 1.25633e-08 0.000508419

0.000442273 6.81168e-05 2.56555e-08
6.81168e-05 0.000446367 6.33897e-08
2.56555e-08 6.33897e-08 0.000438664

0.000346989 -3.3463e-05 -6.70981e-08
-3.3463e-05 0.000439531 -9.62869e-08
-6.70981e-08 -9.62869e-08 0.000361574

0.000325326 -3.16211e-05 -1.03078e-07
-3.16211e-05 0.000444365 7.61785e-09
-1.03078e-07 7.61785e-09 0.000362603

0.000433211 -2.38267e-05 -3.97746e-08
-2.38267e-05 0.000337881 -2.92101e-08
-3.97746e-08 -2.92101e-08 0.000354741

0.000413131 -6.25522e-05 1.21791e-07
-6.25522e-05 0.00042144 -9.24843e-09
1.21791e-07 -9.24843e-09 0.00039239

0.000368647 -4.10877e-06 1.10857e-08
-4.10877e-06 0.000512244 1.44918e-07
1.10857e-08 1.44918e-07 0.000434624

0.000409898 -5.25391e-07 3.14273e-08
-5.25391e-07 0.000494504 8.17551e-08
3.14273e-08 8.17551e-08 0.000431829

0.000338412 -6.69334e-05 -2.71386e-08
-6.69334e-05 0.000370121 1.39028e-07
-2.71386e-08 1.39028e-07 0.000326955

0.000320879 -6.47367e-05 4.27471e-08
-6.47367e-05 0.000381236 -2.30465e-07
4.27471e-08 -2.30465e-07 0.000329279

0.000589007 -3.16016e-06 -1.02817e-07
-3.16016e-06 0.000394712 1.11172e-07
-1.02817e-07 1.11172e-07 0.000504356

0.000593684 3.43617e-06 1.33058e-07
3.43617e-06 0.000391537 3.04214e-08
1.33058e-07 3.04214e-08 0.000503654

0.000419533 6.37569e-05 -3.64673e-09
6.37569e-05 0.000480989 6.69762e-08
-3.64673e-09 6.69762e-08 0.000477705

0.000405098 -5.32277e-05 4.53739e-08
-5.32277e-05 0.000554894 -1.39423e-07
4.53739e-08 -1.39423e-07 0.000519661

0.000490349 -8.26766e-05 -5.83203e-08
-8.26766e-05 0.000445212 1.67533e-07
-5.83203e-08 1.67533e-07 0.000482135

0.000521745 3.17473e-05 1.90164e-07
3.17473e-05 0.00048891 -7.12737e-08
1.90164e-07 -7.12737e-08 0.000522765

0.000529653 -9.89037e-06 -1.54378e-07
-9.89037e-06 0.000498005 -8.9126e-08
-1.54378e-07 -8.9126e-08 0.00052113

0.000507805 -3.4615e-05 5.36746e-08
-3.4615e-05 0.000469445 3.92961e-08
5.36746e-08 3.92961e-08 0.000482411

0.000505669 4.1194e-05 1.13015e-08
4.1194e-05 0.000450518 4.70358e-08
1.13015e-08 4.70358e-08 0.000484872

0.000235863 -3.4098e-05 -1.65106e-08
-3.4098e-05 0.000160456 -3.07567e-08
-1.65106e-08 -3.07567e-08 0.000254087

0.000375056 6.56518e-05 7.88965e-08
6.56518e-05 0.000416293 -1.83703e-07
7.88965e-08 -1.83703e-07 0.000382283

0.000183016 2.41586e-05 5.18374e-08
2.41586e-05 0.000232433 -9.78213e-08
5.18374e-08 -9.78213e-08 0.000253816

0.000437422 7.36934e-05 -2.61065e-08
7.36934e-05 0.000478479 -2.29704e-08
-2.61065e-08 -2.29704e-08 0.000463902

0.000356459 -5.21097e-05 -1.19555e-07
-5.21097e-05 0.000466928 5.90183e-08
-1.19555e-07 5.90183e-08 0.000394576

0.000332804 -4.57845e-05 -7.08325e-08
-4.57845e-05 0.000467703 -7.54872e-08
-7.08325e-08 -7.54872e-08 0.000395524

0.000581761 -1.58787e-05 -1.29042e-07
-1.58787e-05 0.000562605 2.88106e-07
-1.29042e-07 2.88106e-07 0.0005602

0.000553198 4.33413e-05 -2.45074e-08
4.33413e-05 0.000600863 -3.07701e-07
-2.45074e-08 -3.07701e-07 0.000560527

0.000462821 4.89366e-05 9.55099e-11
4.89366e-05 0.000425224 1.2112e-07
9.55099e-11 1.2112e-07 0.000442319

0.000503478 -4.72423e-06 -1.38295e-08
-4.72423e-06 0.000362071 -3.69427e-08
-1.38295e-08 -3.69427e-08 0.000415859

0.0004136 5.4608e-05 -1.49926e-07
5.4608e-05 0.000362667 -7.34641e-08
-1.49926e-07 -7.34641e-08 0.000377851

0.000384135 -3.10547e-05 1.55276e-07
-3.10547e-05 0.000546141 6.84819e-08
1.55276e-07 6.84819e-08 0.000478967

0.000421025 -5.22075e-05 6.19111e-08
-5.22075e-05 0.000514253 8.0717e-10
6.19111e-08 8.0717e-10 0.000476853

0.00043701 -9.47452e-05 -4.03646e-08
-9.47452e-05 0.000555082 1.37712e-07
-4.03646e-08 1.37712e-07 0.000502476

0.00046322 -5.28559e-05 -1.22347e-07
-5.28559e-05 0.00044308 1.35004e-07
-1.22347e-07 1.35004e-07 0.000439924

0.000437303 8.84316e-05 2.52736e-08
8.84316e-05 0.000532566 1.15308e-08
2.52736e-08 1.15308e-08 0.000501735

0.000505603 4.03578e-05 6.91571e-08
4.03578e-05 0.000564009 3.18384e-08
6.91571e-08 3.18384e-08 0.000532097

0.000512443 6.18834e-05 6.18634e-08
6.18834e-05 0.000543965 -6.44927e-08
6.18634e-08 -6.44927e-08 0.000531509

0.000425462 -8.2964e-05 2.88987e-09
-8.2964e-05 0.000522628 -1.28271e-07
2.88987e-09 -1.28271e-07 0.000473385

0.000434467 7.54083e-05 -3.65397e-08
7.54083e-05 0.000507039 1.6082e-08
-3.65397e-08 1.6082e-08 0.000472058

0.000380537 9.47579e-05 2.08084e-08
9.47579e-05 0.000513363 -1.75691e-08
2.08084e-08 -1.75691e-08 0.000508898

0.000341587 8.90178e-06 6.25174e-08
8.90178e-06 0.00050609 1.17041e-07
6.25174e-08 1.17041e-07 0.000423295

0.000368004 2.06225e-05 1.66433e-07
2.06225e-05 0.000483887 8.52643e-09
1.66433e-07 8.52643e-09 0.000419346

0.00045634 5.85026e-05 -7.18512e-08
5.85026e-05 0.000446535 5.90951e-08
-7.18512e-08 5.90951e-08 0.000468241

0.000412654 4.91539e-05 -1.40952e-07
4.91539e-05 0.000406972 5.86726e-08
-1.40952e-07 5.86726e-08 0.000395558

0.000376856 -5.12687e-05 -1.51928e-07
-5.12687e-05 0.000495317 -1.61109e-07
-1.51928e-07 -1.61109e-07 0.000447455

0.000453361 -8.90716e-05 7.92794e-08
-8.90716e-05 0.000550625 -8.89857e-08
7.92794e-08 -8.89857e-08 0.000514697

0.000263545 2.95906e-05 -1.41174e-07
2.95906e-05 0.000305398 7.84846e-08
-1.41174e-07 7.84846e-08 0.000267876

0.000296243 3.07379e-05 1.36398e-07
3.07379e-05 0.000272344 -1.91022e-07
1.36398e-07 -1.91022e-07 0.000267946

0.000352655 -6.59052e-05 7.60368e-08
-6.59052e-05 0.000368668 -2.1072e-07
7.60368e-08 -2.1072e-07 0.000336243

0.000455464 -6.11176e-05 -1.15287e-09
-6.11176e-05 0.00046288 3.13748e-08
-1.15287e-09 3.13748e-08 0.000465108

0.000519441 -1.84826e-05 1.98084e-08
-1.84826e-05 0.000372314 -5.52368e-08
1.98084e-08 -5.52368e-08 0.000447762

0.000613603 6.51998e-05 4.45887e-07
6.51998e-05 0.000652443 -2.34075e-09
4.45887e-07 -2.34075e-09 0.000572887

0.000673799 -7.18695e-05 8.11536e-08
-7.18695e-05 0.000570257 -5.33801e-07
8.11536e-08 -5.33801e-07 0.000573077

0.000421908 -9.08848e-05 -2.13524e-08
-9.08848e-05 0.00051574 -1.40108e-07
-2.13524e-08 -1.40108e-07 0.000468472

0.00056947 1.69787e-05 -1.046e-07
1.69787e-05 0.000529434 -2.09041e-07
-1.046e-07 -2.09041e-07 0.000553519

0.000577906 -6.95459e-05 2.12935e-07
-6.95459e-05 0.000580227 -3.89977e-08
2.12935e-07 -3.89977e-08 0.000549487

0.000515179 -2.39482e-05 1.39613e-07
-2.39482e-05 0.000381882 5.58985e-08
1.39613e-07 5.58985e-08 0.000469945

0.000395818 -9.41993e-05 -4.21232e-08
-9.41993e-05 0.000505526 5.2213e-08
-4.21232e-08 5.2213e-08 0.000506947

0.000280238 -5.77862e-05 -1.36675e-07
-5.77862e-05 0.000304955 1.54981e-07
-1.36675e-07 1.54981e-07 0.000279435

0.000298554 4.14084e-05 -1.50881e-07
4.14084e-05 0.000296124 -3.71461e-08
-1.50881e-07 -3.71461e-08 0.000280669

0.000276647 -3.45211e-05 1.21787e-07
-3.45211e-05 0.000360565 9.14079e-09
1.21787e-07 9.14079e-09 0.000296602

0.000283232 -3.76003e-05 -1.52557e-07
-3.76003e-05 0.000364945 -3.21259e-08
-1.52557e-07 -3.21259e-08 0.000301946

0.000366126 -2.88243e-05 1.15434e-08
-2.88243e-05 0.000275945 -7.29007e-08
1.15434e-08 -7.29007e-08 0.000295491

0.000369787 5.13983e-05 4.81726e-08
5.13983e-05 0.000359586 1.0382e-07
4.81726e-08 1.0382e-07 0.000340352

0.000432873 -0.000100794 -9.50259e-08
-0.000100794 0.000546361 4.84323e-08
-9.50259e-08 4.84323e-08 0.000500467

0.000243097 5.57301e-06 -1.07014e-08
5.57301e-06 0.000347231 1.30865e-08
-1.07014e-08 1.30865e-08 0.000280013

0.000341159 -1.49625e-05 -1.23437e-07
-1.49625e-05 0.000241638 -6.40474e-08
-1.23437e-07 -6.40474e-08 0.000281598

0.00052197 7.48726e-06 1.32977e-07
7.48726e-06 0.000626475 3.29481e-07
1.32977e-07 3.29481e-07 0.000546615

0.000532172 -4.11854e-05 -3.40988e-08
-4.11854e-05 0.000571094 -2.69902e-07
-3.40988e-08 -2.69902e-07 0.000548085

0.000537231 -4.6813e-05 -5.14922e-08
-4.6813e-05 0.000439057 1.53779e-07
-5.14922e-08 1.53779e-07 0.00049411

0.000557224 -2.89885e-06 -4.50639e-09
-2.89885e-06 0.000332762 2.4396e-08
-4.50639e-09 2.4396e-08 0.000508278

0.000317159 -5.06354e-05 1.21464e-10
-5.06354e-05 0.000410398 1.31983e-07
1.21464e-10 1.31983e-07 0.000351728

0.000333098 -5.04762e-05 -5.38292e-09
-5.04762e-05 0.000418706 -2.2516e-08
-5.38292e-09 -2.2516e-08 0.000352826

0.000523784 -2.81279e-06 1.18396e-07
-2.81279e-06 0.000377492 -5.04889e-08
1.18396e-07 -5.04889e-08 0.000472821

0.000395573 -6.93806e-05 1.79868e-08
-6.93806e-05 0.000498214 -1.70808e-07
1.79868e-08 -1.70808e-07 0.000446215

0.000571873 1.24117e-06 1.50171e-07
1.24117e-06 0.000535988 -4.09356e-08
1.50171e-07 -4.09356e-08 0.000549164

0.000545704 2.05875e-05 -5.03406e-09
2.05875e-05 0.000557643 -2.84749e-07
-5.03406e-09 -2.84749e-07 0.000549858

0.000505432 -6.55344e-05 -1.70247e-07
-6.55344e-05 0.000461463 9.21401e-08
-1.70247e-07 9.21401e-08 0.000488969

0.00042935 -6.69883e-05 1.92666e-08
-6.69883e-05 0.000474393 -1.67792e-07
1.92666e-08 -1.67792e-07 0.000473904

0.000537399 -4.72054e-05 -3.52124e-08
-4.72054e-05 0.000388231 -1.69162e-07
-3.52124e-08 -1.69162e-07 0.000484406

0.000406005 -5.90569e-05 -5.36936e-08
-5.90569e-05 0.000494951 -2.1582e-07
-5.36936e-08 -2.1582e-07 0.000470833

0.000223929 -0.000111822 -3.70183e-08
-0.000111822 0.00023597 -7.38498e-08
-3.70183e-08 -7.38498e-08 0.0002348

0.000377224 -2.59475e-05 -1.3584e-07
-2.59475e-05 0.000480648 2.28343e-08
-1.3584e-07 2.28343e-08 0.000420579

0.000349694 -1.91151e-05 3.48592e-08
-1.91151e-05 0.000504024 1.5329e-07
3.48592e-08 1.5329e-07 0.000423002

0.000502827 -9.60165e-06 1.49141e-08
-9.60165e-06 0.000665409 1.25716e-07
1.49141e-08 1.25716e-07 0.000549199

0.000537282 -1.16217e-05 -2.15546e-07
-1.16217e-05 0.000564298 4.91018e-08
-2.15546e-07 4.91018e-08 0.000551962

0.000597037 -6.46121e-06 1.3345e-07
-6.46121e-06 0.000411674 2.99127e-08
1.3345e-07 2.99127e-08 0.000520024

0.000584101 3.32305e-06 -1.89153e-07
3.32305e-06 0.000419948 -1.35967e-09
-1.89153e-07 -1.35967e-09 0.000520669

0.00051228 4.8802e-05 -1.01235e-07
4.8802e-05 0.000483925 1.13556e-07
-1.01235e-07 1.13556e-07 0.000518968

0.000530764 -8.75464e-05 8.06446e-09
-8.75464e-05 0.000476412 9.60883e-09
8.06446e-09 9.60883e-09 0.000514253

0.000567653 1.74578e-05 -1.33947e-07
1.74578e-05 0.000558223 -8.42316e-08
-1.33947e-07 -8.42316e-08 0.00054759

0.000597067 -3.1722e-05 2.26883e-07
-3.1722e-05 0.000551912 2.08766e-08
2.26883e-07 2.08766e-08 0.000544876

0.00061215 -3.40884e-05 3.61792e-07
-3.40884e-05 0.000574888 -5.17382e-07
3.61792e-07 -5.17382e-07 0.000568898

0.000601789 0.000104156 -1.92212e-08
0.000104156 0.000647926 2.48669e-08
-1.92212e-08 2.48669e-08 0.000568941

0.000457333 -9.08136e-05 -2.30358e-08
-9.08136e-05 0.00055267 1.3422e-07
-2.30358e-08 1.3422e-07 0.000518561

0.000433247 0.000112149 -2.92893e-08
0.000112149 0.000507091 1.92749e-08
-2.92893e-08 1.92749e-08 0.000525053

0.000465935 4.53977e-05 4.37518e-08
4.53977e-05 0.000392337 -7.87836e-08
4.37518e-08 -7.87836e-08 0.00043285

0.000382736 -3.84606e-05 1.5058e-07
-3.84606e-05 0.000509582 3.7193e-08
1.5058e-07 3.7193e-08 0.000451344

0.000419099 -5.88248e-05 3.40698e-08
-5.88248e-05 0.000502656 -1.61791e-07
3.40698e-08 -1.61791e-07 0.00044892

0.000467062 -4.79166e-05 -1.45024e-07
-4.79166e-05 0.000402253 2.6384e-08
-1.45024e-07 2.6384e-08 0.000431525

0.000418997 4.4176e-05 -1.17113e-07
4.4176e-05 0.000494758 -1.26127e-07
-1.17113e-07 -1.26127e-07 0.000446132

0.00038172 2.58674e-05 -5.58708e-08
2.58674e-05 0.000512027 4.62234e-08
-5.58708e-08 4.62234e-08 0.000450449

0.000424154 6.26466e-05 -5.32422e-08
6.26466e-05 0.000421423 1.31198e-07
-5.32422e-08 1.31198e-07 0.000426

0.000470657 7.54696e-05 -1.35357e-07
7.54696e-05 0.000534404 -6.2965e-08
-1.35357e-07 -6.2965e-08 0.000521527

0.000466387 -0.000100581 -9.98755e-08
-0.000100581 0.000507634 2.14001e-08
-9.98755e-08 2.14001e-08 0.000522675

0.000428662 -7.74199e-05 -5.71345e-08
-7.74199e-05 0.000435554 1.46391e-07
-5.71345e-08 1.46391e-07 0.000423295

0.000541081 2.20908e-05 9.39077e-11
2.20908e-05 0.00044541 -8.05188e-08
9.39077e-11 -8.05188e-08 0.0005035

0.00070819 -3.33662e-05 -2.70128e-08
-3.33662e-05 0.00068904 -3.14109e-07
-2.70128e-08 -3.14109e-07 0.00056571

0.000577992 2.07001e-05 7.93849e-08
2.07001e-05 0.000596909 -9.37611e-09
7.93849e-08 -9.37611e-09 0.000571114

0.000455367 -7.61269e-05 -1.24013e-07
-7.61269e-05 0.000530906 1.27687e-07
-1.24013e-07 1.27687e-07 0.000492398

0.000504203 -7.54756e-05 -1.68787e-07
-7.54756e-05 0.000422958 1.12443e-07
-1.68787e-07 1.12443e-07 0.000477039

0.000583144 -6.35221e-06 -4.65259e-08
-6.35221e-06 0.000501195 -7.27529e-08
-4.65259e-08 -7.27529e-08 0.00053466

0.000281183 -5.29049e-05 1.30008e-07
-5.29049e-05 0.000300908 -6.89321e-08
1.30008e-07 -6.89321e-08 0.00027083

0.000306855 -4.6853e-05 1.30445e-07
-4.6853e-05 0.000274659 -6.83754e-08
1.30445e-07 -6.83754e-08 0.000271827

0.00059856 4.95227e-06 7.2521e-08
4.95227e-06 0.000437669 -4.57388e-08
7.2521e-08 -4.57388e-08 0.000528039

0.000575577 -3.85584e-06 -8.39027e-09
-3.85584e-06 0.000448632 -2.13991e-07
-8.39027e-09 -2.13991e-07 0.00052844

0.000593378 -1.19879e-06 6.2953e-08
-1.19879e-06 0.000465442 4.44295e-08
6.2953e-08 4.44295e-08 0.000539336

0.000464013 3.195e-05 -3.15934e-08
3.195e-05 0.000372388 -1.37989e-07
-3.15934e-08 -1.37989e-07 0.000398823

0.00048817 -4.86196e-05 1.85236e-07
-4.86196e-05 0.000526275 5.2204e-08
1.85236e-07 5.2204e-08 0.000506624

0.000488693 5.91699e-05 -9.6663e-08
5.91699e-05 0.000490024 -5.92888e-08
-9.6663e-08 -5.92888e-08 0.000509889

0.000664994 -5.39262e-05 1.51868e-07
-5.39262e-05 0.000545249 -1.97393e-07
1.51868e-07 -1.97393e-07 0.000572523

0.000668362 -5.46086e-06 -8.30023e-09
-5.46086e-06 0.000723403 -5.98865e-08
-8.30023e-09 -5.98865e-08 0.000566753

0.0004234 -8.54452e-05 3.58433e-08
-8.54452e-05 0.000528588 1.92137e-07
3.58433e-08 1.92137e-07 0.000486722

0.000497034 -6.05082e-05 -2.20491e-09
-6.05082e-05 0.000404035 -1.69126e-08
-2.20491e-09 -1.69126e-08 0.000450043

0.00054752 1.33123e-05 -9.78895e-08
1.33123e-05 0.000498929 2.35715e-07
-9.78895e-08 2.35715e-07 0.000525176

0.000561638 2.17261e-06 1.18804e-08
2.17261e-06 0.000486949 8.97087e-08
1.18804e-08 8.97087e-08 0.000524092

0.00042537 -3.39298e-05 -1.40197e-08
-3.39298e-05 0.000530039 1.86738e-07
-1.40197e-08 1.86738e-07 0.000495969

0.000422203 -6.27395e-05 1.6863e-07
-6.27395e-05 0.000497775 2.7471e-08
1.6863e-07 2.7471e-08 0.000504989

0.000241889 9.42763e-05 4.70033e-08
9.42763e-05 0.000226386 1.17192e-07
4.70033e-08 1.17192e-07 0.000236915

0.000491207 5.05214e-05 -1.2399e-07
5.05214e-05 0.000554227 -8.4881e-08
-1.2399e-07 -8.4881e-08 0.000532006

0.000490804 -6.58169e-05 -1.1507e-07
-6.58169e-05 0.00054659 -1.02168e-08
-1.1507e-07 -1.02168e-08 0.000530499

0.00040491 -5.97788e-05 2.75044e-08
-5.97788e-05 0.000516218 1.99356e-07
2.75044e-08 1.99356e-07 0.000491724

0.000470678 -4.02432e-05 -1.25571e-08
-4.02432e-05 0.000387433 -8.10154e-08
-1.25571e-08 -8.10154e-08 0.000401698

0.000498227 4.41389e-05 -3.37507e-08
4.41389e-05 0.000483907 1.58206e-07
-3.37507e-08 1.58206e-07 0.000493959

0.000511484 4.54975e-05 -6.52787e-08
4.54975e-05 0.000520132 -2.19194e-08
-6.52787e-08 -2.19194e-08 0.000521007

0.00054181 -7.05597e-05 -3.30726e-08
-7.05597e-05 0.000480932 -1.11185e-07
-3.30726e-08 -1.11185e-07 0.000519084

0.000540933 1.76653e-05 2.86666e-09
1.76653e-05 0.000388995 6.49096e-08
2.86666e-09 6.49096e-08 0.000493484

0.000570975 -7.95729e-06 7.11728e-08
-7.95729e-06 0.000521545 1.81464e-07
7.11728e-08 1.81464e-07 0.000543748

0.000593195 1.25613e-05 7.23568e-08
1.25613e-05 0.000494563 -4.49177e-08
7.23568e-08 -4.49177e-08 0.000543554

0.000563265 2.43135e-05 -2.7091e-07
2.43135e-05 0.000721384 -6.63772e-08
-2.7091e-07 -6.63772e-08 0.000562127

0.000557364 4.52425e-06 1.38641e-07
4.52425e-06 0.000651051 -6.95635e-08
1.38641e-07 -6.95635e-08 0.000566777

0.000242412 -2.42621e-05 1.13725e-07
-2.42621e-05 0.000180547 3.77852e-08
1.13725e-07 3.77852e-08 0.000254045

0.000160773 -1.55639e-05 5.28793e-08
-1.55639e-05 0.000252013 1.46048e-07
5.28793e-08 1.46048e-07 0.00025395

0.000455127 -7.57045e-05 2.18902e-08
-7.57045e-05 0.000545796 -2.11576e-07
2.18902e-08 -2.11576e-07 0.000501567

0.00045444 6.55376e-05 -5.65128e-08
6.55376e-05 0.000495833 1.49949e-07
-5.65128e-08 1.49949e-07 0.000506836

0.000436249 -0.000100695 1.67922e-07
-0.000100695 0.000546266 1.15209e-08
1.67922e-07 1.15209e-08 0.000498765

0.00022637 2.55862e-05 3.30281e-08
2.55862e-05 0.000222212 -6.10319e-09
3.30281e-08 -6.10319e-09 0.000248964

0.000235411 3.9269e-05 3.57668e-08
3.9269e-05 0.000209575 1.1546e-07
3.57668e-08 1.1546e-07 0.000249399

0.000474023 8.23162e-05 2.53909e-07
8.23162e-05 0.000736546 1.7207e-07
2.53909e-07 1.7207e-07 0.000574883

0.000555889 -6.58238e-05 -9.97452e-08
-6.58238e-05 0.000678559 -6.98147e-07
-9.97452e-08 -6.98147e-07 0.000574961

0.000472523 6.0961e-05 1.46946e-07
6.0961e-05 0.000474014 2.29137e-09
1.46946e-07 2.29137e-09 0.000485578

0.000423278 -7.29421e-05 -8.47833e-08
-7.29421e-05 0.000466613 9.91129e-08
-8.47833e-08 9.91129e-08 0.000434812

0.000455156 -7.26387e-05 -7.07931e-09
-7.26387e-05 0.000510216 -4.78806e-08
-7.07931e-09 -4.78806e-08 0.000493289

0.000457053 7.29578e-05 -8.98855e-08
7.29578e-05 0.00048424 -6.28116e-08
-8.98855e-08 -6.28116e-08 0.000497527

0.000425791 -8.42561e-05 1.71476e-08
-8.42561e-05 0.000492214 -3.61459e-08
1.71476e-08 -3.61459e-08 0.000460057

0.000418876 5.88126e-05 4.72562e-08
5.88126e-05 0.000449679 -3.95253e-08
4.72562e-08 -3.95253e-08 0.00043787

0.000273975 -3.05745e-05 1.63351e-07
-3.05745e-05 0.000366459 -2.1325e-10
1.63351e-07 -2.1325e-10 0.000303109

0.000289206 -2.65821e-05 1.94953e-08
-2.65821e-05 0.000363947 -1.85975e-08
1.94953e-08 -1.85975e-08 0.000300662

0.00036827 -2.18943e-05 4.27531e-08
-2.18943e-05 0.000280902 1.16957e-07
4.27531e-08 1.16957e-07 0.000298744

0.000419078 6.59725e-05 2.38019e-08
6.59725e-05 0.00047022 -7.3882e-08
2.38019e-08 -7.3882e-08 0.000463732

0.000244716 -2.92047e-06 1.17616e-07
-2.92047e-06 0.000343797 5.87708e-08
1.17616e-07 5.87708e-08 0.000281121

0.000338426 6.7e-06 1.72128e-08
6.7e-06 0.000253797 1.38897e-07
1.72128e-08 1.38897e-07 0.000279631

0.000476024 -6.85813e-05 1.06472e-07
-6.85813e-05 0.000541836 -2.29516e-07
1.06472e-07 -2.29516e-07 0.00051933

0.000481159 8.38882e-05 1.47578e-08
8.38882e-05 0.00050193 1.6373e-07
1.47578e-08 1.6373e-07 0.000523767

0.000483827 -5.45506e-05 1.88017e-07
-5.45506e-05 0.000546682 4.88816e-08
1.88017e-07 4.88816e-08 0.000523526

0.000484141 7.4349e-05 3.44228e-08
7.4349e-05 0.000532238 9.55627e-08
3.44228e-08 9.55627e-08 0.00052651

0.000212531 -4.95695e-05 -5.65571e-08
-4.95695e-05 0.000220223 1.37081e-07
-5.65571e-08 1.37081e-07 0.000244886

0.000211308 -4.80082e-05 2.01824e-07
-4.80082e-05 0.000225138 -9.42954e-08
2.01824e-07 -9.42954e-08 0.00024565

0.000455397 6.13371e-05 -6.02619e-08
6.13371e-05 0.000468414 -4.15523e-08
-6.02619e-08 -4.15523e-08 0.000477784

0.000453936 -6.62912e-05 -9.35546e-09
-6.62912e-05 0.00050183 -4.62661e-08
-9.35546e-09 -4.62661e-08 0.000473725

0.00055232 -1.71178e-05 -2.04069e-07
-1.71178e-05 0.000629238 3.49109e-07
-2.04069e-07 3.49109e-07 0.000552975

0.00055131 -2.09187e-05 1.05107e-07
-2.09187e-05 0.000568669 -2.7801e-07
1.05107e-07 -2.7801e-07 0.000556318

0.000467661 -7.17567e-05 -5.41383e-08
-7.17567e-05 0.000577173 4.52297e-08
-5.41383e-08 4.52297e-08 0.000529179

0.000451455 7.63977e-05 -4.51379e-08
7.63977e-05 0.000552882 6.87399e-08
-4.51379e-08 6.87399e-08 0.000533302

0.000572054 -6.52471e-07 1.54718e-07
-6.52471e-07 0.000486417 5.39141e-10
1.54718e-07 5.39141e-10 0.000542408

0.000547391 1.59801e-05 -6.46646e-08
1.59801e-05 0.000502306 2.56434e-07
-6.46646e-08 2.56434e-07 0.000543028

0.000469147 6.81084e-05 1.28323e-07
6.81084e-05 0.000517138 -3.56496e-08
1.28323e-07 -3.56496e-08 0.000503216

0.000479388 -7.20661e-05 3.47575e-08
-7.20661e-05 0.00048112 -1.13617e-07
3.47575e-08 -1.13617e-07 0.000500681

0.000529262 -2.99345e-05 -6.48307e-08
-2.99345e-05 0.000626482 2.80616e-08
-6.48307e-08 2.80616e-08 0.000559084

0.000598048 2.90263e-05 5.66956e-08
2.90263e-05 0.000559794 4.65272e-08
5.66956e-08 4.65272e-08 0.000560236

0.000638937 -6.99811e-05 6.74905e-08
-6.99811e-05 0.000584534 1.28866e-07
6.74905e-08 1.28866e-07 0.000556321

0.000525422 -1.25532e-05 2.05585e-07
-1.25532e-05 0.000690551 -3.74488e-07
2.05585e-07 -3.74488e-07 0.000556086

0.000578135 1.96498e-05 -8.35856e-08
1.96498e-05 0.000558697 6.6199e-08
-8.35856e-08 6.6199e-08 0.000559024

0.000540024 2.48193e-06 4.5613e-07
2.48193e-06 0.000623108 -4.33253e-07
4.5613e-07 -4.33253e-07 0.000568973

0.000611744 -2.20173e-05 -8.23063e-08
-2.20173e-05 0.000535782 7.02782e-08
-8.23063e-08 7.02782e-08 0.000559014

0.00060674 -8.74809e-06 2.6404e-07
-8.74809e-06 0.000564626 3.90788e-07
2.6404e-07 3.90788e-07 0.000568904

0.000559498 -3.72149e-05 2.96553e-07
-3.72149e-05 0.000593036 -5.70039e-07
2.96553e-07 -5.70039e-07 0.000564166

0.000581468 9.73317e-05 -1.50054e-07
9.73317e-05 0.000670117 -1.56321e-07
-1.50054e-07 -1.56321e-07 0.000564924

0.000743921 1.84805e-05 -2.04579e-06
1.84805e-05 0.000731259 1.49992e-06
-2.04579e-06 1.49992e-06 0.000574983

0.000830954 -3.86307e-05 -2.45413e-06
-3.86307e-05 0.000486854 -6.10063e-07
-2.45413e-06 -6.10063e-07 0.000575429

0.000584127 -5.12882e-05 -7.62811e-08
-5.12882e-05 0.000579112 -4.90176e-09
-7.62811e-08 -4.90176e-09 0.000559664

0.000523853 -3.79631e-05 -1.30347e-07
-3.79631e-05 0.000587895 3.09013e-08
-1.30347e-07 3.09013e-08 0.000546439

0.000609552 8.87153e-05 9.82478e-08
8.87153e-05 0.000579469 2.20052e-07
9.82478e-08 2.20052e-07 0.000560742

0.000532345 4.87646e-05 -1.11427e-07
4.87646e-05 0.000560414 8.12049e-08
-1.11427e-07 8.12049e-08 0.00054855

0.000598993 0.000101925 6.21305e-08
0.000101925 0.000683548 3.8731e-07
6.21305e-08 3.8731e-07 0.000571097

0.000601507 -1.09527e-05 8.21222e-08
-1.09527e-05 0.000579996 7.28632e-07
8.21222e-08 7.28632e-07 0.000571224

0.00052326 -3.38321e-05 -1.2962e-07
-3.38321e-05 0.000575786 2.1983e-08
-1.2962e-07 2.1983e-08 0.000551179

0.000580575 -2.00403e-05 -1.61106e-07
-2.00403e-05 0.000578818 1.21778e-08
-1.61106e-07 1.21778e-08 0.000562079

0.000537615 8.20535e-05 -1.17768e-07
8.20535e-05 0.000584944 3.50898e-09
-1.17768e-07 3.50898e-09 0.000552454

0.000550527 5.48502e-05 -5.85277e-08
5.48502e-05 0.000600635 -1.49406e-08
-5.85277e-08 -1.49406e-08 0.00056249

0.000418595 1.92064e-05 -5.62139e-08
1.92064e-05 0.000556922 1.42804e-07
-5.62139e-08 1.42804e-07 0.000495273

0.000519089 -7.59856e-06 -2.42811e-08
-7.59856e-06 0.000558539 8.96534e-08
-2.42811e-08 8.96534e-08 0.000527263

0.000522027 1.86584e-05 -4.05089e-08
1.86584e-05 0.000369855 -1.1414e-07
-4.05089e-08 -1.1414e-07 0.000443084

0.000501351 4.63979e-06 1.31668e-07
4.63979e-06 0.000360512 -1.26059e-08
1.31668e-07 -1.26059e-08 0.000411634

0.000417845 2.1748e-05 -4.60655e-08
2.1748e-05 0.000599241 2.475e-08
-4.60655e-08 2.475e-08 0.000524128

0.000521232 5.67977e-06 -3.95422e-08
5.67977e-06 0.000577586 -8.78407e-08
-3.95422e-08 -8.78407e-08 0.000562129

0.000504349 -7.06826e-06 1.38995e-07
-7.06826e-06 0.000360378 -6.98839e-08
1.38995e-07 -6.98839e-08 0.000415385

0.000576538 -4.17929e-06 7.34893e-08
-4.17929e-06 0.000408831 5.1385e-08
7.34893e-08 5.1385e-08 0.000501626

0.000296835 -4.26627e-05 1.43795e-07
-4.26627e-05 0.00039199 8.03756e-09
1.43795e-07 8.03756e-09 0.000326643

0.000334089 6.95824e-05 7.9642e-08
6.95824e-05 0.000408431 1.41484e-07
7.9642e-08 1.41484e-07 0.000338581

0.000386775 6.56325e-05 5.60485e-08
6.56325e-05 0.000314894 -6.63159e-08
5.60485e-08 -6.63159e-08 0.000332795

0.000535811 7.9614e-05 5.61519e-08
7.9614e-05 0.000583649 -8.20829e-08
5.61519e-08 -8.20829e-08 0.000551202

0.000496202 -2.62428e-05 -2.29919e-08
-2.62428e-05 0.000577822 1.08134e-07
-2.29919e-08 1.08134e-07 0.000533176

0.000458639 6.79999e-05 -4.99617e-09
6.79999e-05 0.000495113 -1.33976e-07
-4.99617e-09 -1.33976e-07 0.000457801

0.000494608 5.98299e-05 8.58478e-08
5.98299e-05 0.000574822 -6.40293e-08
8.58478e-08 -6.40293e-08 0.000544289

0.000409782 -2.10583e-05 1.57846e-07
-2.10583e-05 0.000603457 -1.80229e-09
1.57846e-07 -1.80229e-09 0.000522069

0.000530615 -1.33778e-05 2.71681e-08
-1.33778e-05 0.000384713 -5.3054e-08
2.71681e-08 -5.3054e-08 0.000470114

0.000360079 3.18331e-05 6.3397e-08
3.18331e-05 0.000458266 1.72207e-07
6.3397e-08 1.72207e-07 0.000368579

0.000317988 -8.11927e-06 7.46779e-08
-8.11927e-06 0.00044666 -1.24674e-07
7.46779e-08 -1.24674e-07 0.000358314

0.000443258 3.21928e-05 -4.02652e-08
3.21928e-05 0.000334538 -4.26981e-09
-4.02652e-08 -4.26981e-09 0.000359958

0.000459344 -3.35584e-05 -4.0071e-08
-3.35584e-05 0.000345782 -1.48632e-07
-4.0071e-08 -1.48632e-07 0.000388062

0.000382698 5.74861e-05 -8.72278e-08
5.74861e-05 0.000475036 9.54385e-08
-8.72278e-08 9.54385e-08 0.000420101

0.000454853 -4.41486e-05 5.14858e-09
-4.41486e-05 0.000488047 -6.39127e-08
5.14858e-09 -6.39127e-08 0.000442946

0.000528456 -2.18813e-05 -1.38401e-07
-2.18813e-05 0.000368379 4.12965e-08
-1.38401e-07 4.12965e-08 0.000449085

0.000318225 4.42187e-05 -1.97056e-08
4.42187e-05 0.000368979 -4.3539e-08
-1.97056e-08 -4.3539e-08 0.000302147

0.000566451 4.39675e-06 -4.27345e-08
4.39675e-06 0.000393353 1.05288e-08
-4.27345e-08 1.05288e-08 0.000490648

0.000351975 4.69201e-05 4.33051e-08
4.69201e-05 0.000304865 -7.35545e-08
4.33051e-08 -7.35545e-08 0.000299029

0.000496888 4.60421e-06 1.06609e-07
4.60421e-06 0.000600627 -3.45951e-08
1.06609e-07 -3.45951e-08 0.000534772

0.000562963 2.74816e-05 6.16151e-08
2.74816e-05 0.000588229 -4.85206e-08
6.16151e-08 -4.85206e-08 0.000566236

0.000593291 -7.07877e-05 -1.68976e-08
-7.07877e-05 0.000599947 -8.75362e-08
-1.68976e-08 -8.75362e-08 0.000567235

0.000622128 3.10509e-05 2.20984e-08
3.10509e-05 0.000572704 -1.11708e-07
2.20984e-08 -1.11708e-07 0.000567321

0.000437944 -1.02159e-05 -2.85159e-08
-1.02159e-05 0.000327168 -1.54693e-07
-2.85159e-08 -1.54693e-07 0.000348291

0.00043815 8.28939e-05 -4.07402e-08
8.28939e-05 0.000484375 -1.05655e-07
-4.07402e-08 -1.05655e-07 0.00045297

0.000551031 1.25326e-05 -1.93748e-08
1.25326e-05 0.000534965 -3.45657e-08
-1.93748e-08 -3.45657e-08 0.000534434

0.00053375 -3.77978e-05 -5.06558e-08
-3.77978e-05 0.000526203 -5.78442e-08
-5.06558e-08 -5.78442e-08 0.000538113

0.000591934 -4.90529e-06 4.06275e-11
-4.90529e-06 0.000394125 8.64008e-09
4.06275e-11 8.64008e-09 0.000503065

0.000381045 6.8334e-05 -2.8022e-08
6.8334e-05 0.000449053 1.65177e-08
-2.8022e-08 1.65177e-08 0.000415931

0.000431279 -6.26891e-05 6.84994e-08
-6.26891e-05 0.00048051 2.05397e-08
6.84994e-08 2.05397e-08 0.000437816

0.000455375 -4.40246e-05 6.08613e-09
-4.40246e-05 0.000382056 1.58266e-07
6.08613e-09 1.58266e-07 0.000399008

0.000577344 -1.03305e-05 8.04091e-08
-1.03305e-05 0.00038252 -6.74183e-08
8.04091e-08 -6.74183e-08 0.000492458

0.00040496 8.03675e-05 8.8328e-09
8.03675e-05 0.000486171 -8.97437e-08
8.8328e-09 -8.97437e-08 0.000417897

0.00037667 -5.56665e-05 -1.3959e-07
-5.56665e-05 0.000448265 -1.40214e-10
-1.3959e-07 -1.40214e-10 0.000411166

0.000412243 7.46568e-05 8.50188e-08
7.46568e-05 0.000490641 -1.5198e-07
8.50188e-08 -1.5198e-07 0.000424074

0.000369735 -4.49377e-05 -1.41624e-07
-4.49377e-05 0.000479302 -2.32309e-09
-1.41624e-07 -2.32309e-09 0.000416637

0.000522388 -3.68368e-05 6.5404e-08
-3.68368e-05 0.000553921 6.44612e-08
6.5404e-08 6.44612e-08 0.000537346

0.000405334 5.28423e-05 -1.02465e-07
5.28423e-05 0.000535699 -6.79375e-08
-1.02465e-07 -6.79375e-08 0.000494339

0.000405585 -6.46851e-05 1.25558e-07
-6.46851e-05 0.000378863 1.68566e-07
1.25558e-07 1.68566e-07 0.0003753

0.000252367 -5.7672e-05 1.63e-08
-5.7672e-05 0.000243909 -1.21287e-07
1.63e-08 -1.21287e-07 0.000247619

0.0002284 -6.13597e-05 -8.9165e-08
-6.13597e-05 0.000259821 9.12111e-08
-8.9165e-08 9.12111e-08 0.000246767

0.000476753 9.65205e-05 -1.48795e-07
9.65205e-05 0.000579312 -4.49344e-09
-1.48795e-07 -4.49344e-09 0.0005338

0.000412096 -6.29563e-05 -1.81915e-07
-6.29563e-05 0.000562078 4.7968e-08
-1.81915e-07 4.7968e-08 0.000522054

0.000234257 -1.23343e-05 -1.01027e-07
-1.23343e-05 0.000235024 -1.10314e-07
-1.01027e-07 -1.10314e-07 0.000258491

0.000238949 -1.34579e-05 4.44929e-08
-1.34579e-05 0.000248207 -1.19928e-07
4.44929e-08 -1.19928e-07 0.00025974

0.000581254 5.53796e-05 2.07619e-07
5.53796e-05 0.000523271 -4.53752e-08
2.07619e-07 -4.53752e-08 0.000541268

0.000623476 -4.23429e-05 2.41999e-07
-4.23429e-05 0.000541614 -2.14364e-07
2.41999e-07 -2.14364e-07 0.000582158

0.000532714 -2.31269e-06 -2.72683e-08
-2.31269e-06 0.000392414 -7.26693e-08
-2.72683e-08 -7.26693e-08 0.000492256

0.000574813 7.839e-05 2.0981e-07
7.839e-05 0.000518432 -6.07947e-08
2.0981e-07 -6.07947e-08 0.000541398

0.000620207 -5.62797e-05 2.6971e-07
-5.62797e-05 0.000507336 -1.93309e-08
2.6971e-07 -1.93309e-08 0.000576184

0.000382004 5.40119e-05 -9.18906e-08
5.40119e-05 0.000497082 3.70159e-08
-9.18906e-08 3.70159e-08 0.000451068

0.00045451 -4.32872e-05 3.22626e-09
-4.32872e-05 0.000520431 -3.98273e-08
3.22626e-09 -3.98273e-08 0.000479813

0.000617844 2.71869e-05 -6.29144e-08
2.71869e-05 0.000535782 7.02781e-08
-6.29144e-08 7.02781e-08 0.000558951

0.00058326 -3.53351e-05 1.48347e-07
-3.53351e-05 0.000558697 6.6199e-08
1.48347e-07 6.6199e-08 0.000558938

0.000526942 8.40327e-05 -3.17025e-08
8.40327e-05 0.000470288 -2.40181e-08
-3.17025e-08 -2.40181e-08 0.000511077

0.000573183 -6.60048e-05 9.92398e-09
-6.60048e-05 0.000485216 8.71389e-08
9.92398e-09 8.71389e-08 0.000541053

0.000379376 -4.48795e-05 3.73865e-08
-4.48795e-05 0.000307445 -1.23353e-07
3.73865e-08 -1.23353e-07 0.000320912

0.000523697 -2.42519e-06 -6.61769e-08
-2.42519e-06 0.000667895 -1.93404e-07
-6.61769e-08 -1.93404e-07 0.000555618

0.000588452 1.69306e-05 2.90688e-08
1.69306e-05 0.000635709 6.87706e-08
2.90688e-08 6.87706e-08 0.000609166

0.000267867 -7.71983e-06 1.27546e-07
-7.71983e-06 0.000350992 3.087e-08
1.27546e-07 3.087e-08 0.000289824

0.000346328 -9.56133e-06 5.13861e-08
-9.56133e-06 0.000275154 -1.32625e-07
5.13861e-08 -1.32625e-07 0.000288278

0.00038627 4.67921e-05 1.60106e-07
4.67921e-05 0.000533989 -1.21274e-08
1.60106e-07 -1.21274e-08 0.000482539

0.000478564 -2.6901e-05 -3.08815e-08
-2.6901e-05 0.000551677 8.49251e-08
-3.08815e-08 8.49251e-08 0.000516928

0.000703116 -1.49244e-05 -1.98786e-07
-1.49244e-05 0.000755573 6.39204e-07
-1.98786e-07 6.39204e-07 0.000572764

0.000742449 -5.09065e-05 -3.38353e-07
-5.09065e-05 0.00058478 -4.91765e-07
-3.38353e-07 -4.91765e-07 0.000620922

0.000525715 7.47166e-05 -1.59899e-08
7.47166e-05 0.000419334 -9.52599e-08
-1.59899e-08 -9.52599e-08 0.00048799

0.000552628 -4.90976e-05 -1.0148e-07
-4.90976e-05 0.000428886 5.96774e-08
-1.0148e-07 5.96774e-08 0.000507372

0.000434963 1.03241e-06 -5.65816e-08
1.03241e-06 0.00031445 3.98492e-08
-5.65816e-08 3.98492e-08 0.000344855

0.000503733 2.60683e-06 1.55084e-08
2.60683e-06 0.000375299 -4.67991e-08
1.55084e-08 -4.67991e-08 0.000433715

0.000466914 3.62926e-05 -6.03916e-08
3.62926e-05 0.000346356 3.74315e-08
-6.03916e-08 3.74315e-08 0.000380875

0.00055416 1.34723e-05 -5.5698e-08
1.34723e-05 0.000465822 1.25623e-07
-5.5698e-08 1.25623e-07 0.000524396

0.000509457 -2.57509e-05 2.61493e-08
-2.57509e-05 0.00066586 -6.60337e-08
2.61493e-08 -6.60337e-08 0.000571424

0.000585411 1.35295e-05 1.96039e-07
1.35295e-05 0.000596864 -1.92405e-07
1.96039e-07 -1.92405e-07 0.000571533

0.000384318 6.25073e-05 1.50698e-07
6.25073e-05 0.000409186 1.36408e-07
1.50698e-07 1.36408e-07 0.00035375

0.000443629 -5.45941e-05 4.12816e-08
-5.45941e-05 0.000414227 1.23642e-07
4.12816e-08 1.23642e-07 0.000435314

0.000514182 5.97059e-05 5.03778e-08
5.97059e-05 0.000402637 -4.18143e-08
5.03778e-08 -4.18143e-08 0.000463909

0.00058211 2.57092e-05 2.08167e-07
2.57092e-05 0.000631814 2.52047e-08
2.08167e-07 2.52047e-08 0.000605691

0.000561016 3.7253e-05 3.02545e-07
3.7253e-05 0.000684991 -1.03714e-07
3.02545e-07 -1.03714e-07 0.00056215

0.000538622 -3.18424e-05 -3.77582e-08
-3.18424e-05 0.000481601 1.89943e-12
-3.77582e-08 1.89943e-12 0.000529093

0.000495939 4.89766e-05 7.88125e-08
4.89766e-05 0.00055678 5.62073e-08
7.88125e-08 5.62073e-08 0.000512917

0.000411412 -8.37159e-06 1.61319e-07
-8.37159e-06 0.000560841 5.76587e-08
1.61319e-07 5.76587e-08 0.000493814

0.000554461 3.71354e-05 -8.44603e-08
3.71354e-05 0.00038873 2.37746e-08
-8.44603e-08 2.37746e-08 0.000507247

0.000566844 -7.92443e-06 -9.67328e-08
-7.92443e-06 0.000385968 -2.89724e-08
-9.67328e-08 -2.89724e-08 0.000516874

0.000414622 -4.91625e-05 -9.26234e-08
-4.91625e-05 0.000382836 1.48808e-07
-9.26234e-08 1.48808e-07 0.00035994

0.000572211 6.64806e-05 1.93687e-07
6.64806e-05 0.000437767 1.79642e-07
1.93687e-07 1.79642e-07 0.000524629

0.000594631 -4.19094e-05 -3.43137e-08
-4.19094e-05 0.000427227 1.21067e-08
-3.43137e-08 1.21067e-08 0.00054484

0.000527317 -3.25213e-05 2.69523e-08
-3.25213e-05 0.000419535 -5.57455e-08
2.69523e-08 -5.57455e-08 0.000477937

0.000548636 4.85982e-05 -6.27254e-08
4.85982e-05 0.000426161 -8.87565e-08
-6.27254e-08 -8.87565e-08 0.00050686

0.000559052 -2.51346e-05 -8.03507e-08
-2.51346e-05 0.000431636 6.09002e-08
-8.03507e-08 6.09002e-08 0.000524167

0.000519905 -2.08705e-05 -1.24358e-07
-2.08705e-05 0.000405094 1.04884e-08
-1.24358e-07 1.04884e-08 0.000462113

0.0004491 8.69423e-05 1.61558e-07
8.69423e-05 0.000492106 1.28157e-07
1.61558e-07 1.28157e-07 0.000503595

0.000567497 -7.47991e-05 -6.93121e-08
-7.47991e-05 0.00053105 -7.84381e-08
-6.93121e-08 -7.84381e-08 0.00055203

0.000446291 5.89981e-05 -1.05705e-07
5.89981e-05 0.000424955 6.58471e-08
-1.05705e-07 6.58471e-08 0.000401115

0.000535362 -5.48639e-05 4.10695e-08
-5.48639e-05 0.000575794 1.10317e-07
4.10695e-08 1.10317e-07 0.000567182

0.000422025 6.07724e-05 -4.0141e-08
6.07724e-05 0.000506329 4.94929e-08
-4.0141e-08 4.94929e-08 0.000509726

0.000467263 5.38348e-05 1.89704e-08
5.38348e-05 0.000349434 2.31612e-08
1.89704e-08 2.31612e-08 0.000399555

0.000490412 -4.79748e-05 2.94619e-08
-4.79748e-05 0.000442487 1.96077e-08
2.94619e-08 1.96077e-08 0.00048717

0.000518201 2.0185e-05 7.6337e-08
2.0185e-05 0.000416837 2.51313e-07
7.6337e-08 2.51313e-07 0.000453576

0.00040474 7.63914e-05 1.35195e-08
7.63914e-05 0.000417688 1.37613e-08
1.35195e-08 1.37613e-08 0.000389029

0.00045828 6.19053e-05 5.39039e-09
6.19053e-05 0.00042354 1.39508e-07
5.39039e-09 1.39508e-07 0.000434814

0.0004474 2.45194e-05 5.98445e-08
2.45194e-05 0.000544469 4.63502e-08
5.98445e-08 4.63502e-08 0.000499998

0.000366766 6.43639e-06 -2.92416e-08
6.43639e-06 0.000557507 1.56684e-07
-2.92416e-08 1.56684e-07 0.000477662

0.000414573 -4.72547e-05 -8.06977e-08
-4.72547e-05 0.000318821 -1.43969e-07
-8.06977e-08 -1.43969e-07 0.000343948

0.000429747 -8.5214e-05 -1.72564e-07
-8.5214e-05 0.000500083 8.66539e-08
-1.72564e-07 8.66539e-08 0.000506011

0.000453041 9.37371e-05 6.94188e-08
9.37371e-05 0.000541987 3.34629e-08
6.94188e-08 3.34629e-08 0.000501869

0.000433433 -6.92769e-05 8.40313e-08
-6.92769e-05 0.000441616 -1.0829e-07
8.40313e-08 -1.0829e-07 0.0004039

0.000384947 8.32554e-05 -3.07508e-08
8.32554e-05 0.000426792 -6.22954e-09
-3.07508e-08 -6.22954e-09 0.000387203

0.00050142 -3.87089e-05 -7.56982e-08
-3.87089e-05 0.000415793 1.17239e-07
-7.56982e-08 1.17239e-07 0.000458695

0.000576599 -9.86401e-06 1.27145e-07
-9.86401e-06 0.000419948 -1.35967e-09
1.27145e-07 -1.35967e-09 0.000522227

0.000593472 3.12568e-06 1.7199e-08
3.12568e-06 0.000411674 2.99127e-08
1.7199e-08 2.99127e-08 0.000520156

0.000437571 -6.50444e-05 1.06072e-08
-6.50444e-05 0.000449688 -2.0422e-08
1.06072e-08 -2.0422e-08 0.000442974

0.000319067 1.33456e-05 -1.83376e-07
1.33456e-05 0.000450374 8.65631e-08
-1.83376e-07 8.65631e-08 0.000355539

0.000282012 1.13102e-05 -9.25506e-08
1.13102e-05 0.000438403 -7.60511e-08
-9.25506e-08 -7.60511e-08 0.000344329

0.000433834 1.22344e-05 -1.34436e-08
1.22344e-05 0.000297719 7.29328e-08
-1.34436e-08 7.29328e-08 0.000347621

0.000386535 6.90811e-05 7.75036e-08
6.90811e-05 0.000370738 7.49913e-08
7.75036e-08 7.49913e-08 0.000348246

0.000451938 -6.79147e-05 1.59897e-07
-6.79147e-05 0.000385025 -8.92664e-08
1.59897e-07 -8.92664e-08 0.000401242

0.000569894 7.69515e-05 1.52526e-07
7.69515e-05 0.000665541 7.56007e-09
1.52526e-07 7.56007e-09 0.000612002

0.000702424 -1.89039e-05 -3.44456e-07
-1.89039e-05 0.000706387 1.01459e-07
-3.44456e-07 1.01459e-07 0.000569234

0.000485782 -2.26229e-05 2.82351e-08
-2.26229e-05 0.000352408 -3.95598e-08
2.82351e-08 -3.95598e-08 0.000408244

0.000403829 6.15099e-05 -1.25746e-07
6.15099e-05 0.000494747 9.32911e-09
-1.25746e-07 9.32911e-09 0.000474235

0.000505218 -6.91167e-05 2.78976e-08
-6.91167e-05 0.000528765 -6.00043e-08
2.78976e-08 -6.00043e-08 0.0005121

0.000536714 3.11017e-05 -1.86419e-08
3.11017e-05 0.00038939 7.18762e-08
-1.86419e-08 7.18762e-08 0.000487288

0.000381197 6.45369e-05 -8.15938e-08
6.45369e-05 0.000487408 -1.98651e-07
-8.15938e-08 -1.98651e-07 0.000407164

0.00033055 -2.85657e-05 4.60313e-08
-2.85657e-05 0.000473093 -5.69023e-08
4.60313e-08 -5.69023e-08 0.000396392

0.00040579 6.52063e-05 5.196e-09
6.52063e-05 0.000563422 -4.88063e-08
5.196e-09 -4.88063e-08 0.000524086

0.000557281 -2.66011e-05 -5.59571e-08
-2.66011e-05 0.000595308 -1.00054e-07
-5.59571e-08 -1.00054e-07 0.000587298

0.000437018 6.49617e-05 8.31953e-08
6.49617e-05 0.000490017 -1.53209e-07
8.31953e-08 -1.53209e-07 0.000511902

0.000559967 -6.63719e-05 -6.33486e-08
-6.63719e-05 0.000567602 -9.98572e-08
-6.33486e-08 -9.98572e-08 0.000573442

0.000578541 5.53817e-06 -1.7726e-10
5.53817e-06 0.000329586 4.80936e-08
-1.7726e-10 4.80936e-08 0.000524582

0.000419891 8.34926e-05 -4.23804e-08
8.34926e-05 0.000373938 -1.29177e-08
-4.23804e-08 -1.29177e-08 0.00038535

0.000453736 0.000100171 4.70467e-08
0.000100171 0.000572121 -2.80794e-08
4.70467e-08 -2.80794e-08 0.000511503

0.000423363 -7.4079e-05 -1.6021e-07
-7.4079e-05 0.000490664 4.96406e-08
-1.6021e-07 4.96406e-08 0.000514366

0.000417716 7.03991e-05 -4.09299e-08
7.03991e-05 0.000408753 6.30679e-09
-4.09299e-08 6.30679e-09 0.000401423

0.00035158 -4.3326e-05 -2.52019e-07
-4.3326e-05 0.000391668 -1.78983e-08
-2.52019e-07 -1.78983e-08 0.000341473

0.000426915 -6.42546e-05 1.16176e-07
-6.42546e-05 0.000470545 -1.76149e-07
1.16176e-07 -1.76149e-07 0.000470727

0.000381613 -1.36233e-05 5.80062e-08
-1.36233e-05 0.0004613 -4.30948e-08
5.80062e-08 -4.30948e-08 0.000379862

0.000328575 3.65905e-05 2.26068e-08
3.65905e-05 0.000452127 -1.41955e-08
2.26068e-08 -1.41955e-08 0.000366549

0.000446821 -1.40948e-05 4.44327e-08
-1.40948e-05 0.000351097 -4.50387e-08
4.44327e-08 -4.50387e-08 0.000370369

0.000450807 -6.05322e-05 1.55624e-07
-6.05322e-05 0.000437158 -2.11325e-08
1.55624e-07 -2.11325e-08 0.000417693

0.000366555 9.48836e-06 -1.95282e-08
9.48836e-06 0.000520102 -3.8372e-08
-1.95282e-08 -3.8372e-08 0.000437695

0.000446398 1.39215e-05 5.17909e-08
1.39215e-05 0.000522907 -1.15335e-07
5.17909e-08 -1.15335e-07 0.0004556

0.000369798 -5.74653e-05 8.03387e-09
-5.74653e-05 0.000386861 2.02911e-07
8.03387e-09 2.02911e-07 0.000344429

0.000333124 7.17985e-05 6.28237e-09
7.17985e-05 0.000381564 1.10882e-07
6.28237e-09 1.10882e-07 0.000335586

0.000543391 1.4056e-05 2.58565e-08
1.4056e-05 0.0003968 5.23552e-09
2.58565e-08 5.23552e-09 0.00052108

0.000546919 1.73751e-07 -4.26996e-08
1.73751e-07 0.000389941 -1.83071e-08
-4.26996e-08 -1.83071e-08 0.00052808

0.000439782 7.30805e-05 -5.96028e-08
7.30805e-05 0.000477743 -1.96066e-08
-5.96028e-08 -1.96066e-08 0.000481019

0.000518077 -6.04274e-05 -4.75173e-08
-6.04274e-05 0.000533906 -9.29958e-08
-4.75173e-08 -9.29958e-08 0.000520808

0.000469996 9.88779e-05 -2.76577e-08
9.88779e-05 0.00058177 3.76405e-08
-2.76577e-08 3.76405e-08 0.000530747

0.000395381 -5.62038e-05 8.81934e-09
-5.62038e-05 0.000559387 -2.017e-08
8.81934e-09 -2.017e-08 0.000523579

0.000466646 6.48569e-05 -4.24414e-10
6.48569e-05 0.000492134 -1.32458e-07
-4.24414e-10 -1.32458e-07 0.000487056

0.000378833 4.08344e-05 -3.94055e-08
4.08344e-05 0.000307398 -1.53166e-07
-3.94055e-08 -1.53166e-07 0.000312814

0.000396309 -3.72758e-05 6.74787e-08
-3.72758e-05 0.000487531 -6.68377e-08
6.74787e-08 -6.68377e-08 0.000416954

0.000335871 5.01882e-05 6.92707e-08
5.01882e-05 0.000474454 1.02784e-07
6.92707e-08 1.02784e-07 0.000399451

0.000570783 5.98081e-05 2.29105e-07
5.98081e-05 0.000471695 -3.18017e-08
2.29105e-07 -3.18017e-08 0.000526744

0.00060019 -3.4331e-05 1.96208e-07
-3.4331e-05 0.00048661 9.12802e-08
1.96208e-07 9.12802e-08 0.000556404

0.000507764 -5.70053e-05 7.92865e-10
-5.70053e-05 0.000452363 1.76579e-07
7.92865e-10 1.76579e-07 0.000470019

0.000526204 7.08481e-05 -2.29927e-08
7.08481e-05 0.000443849 -1.50256e-08
-2.29927e-08 -1.50256e-08 0.000490648

0.000552272 -4.92474e-05 -9.00998e-08
-4.92474e-05 0.000472984 1.9122e-07
-9.00998e-08 1.9122e-07 0.000515552

0.000252686 -1.89724e-05 -1.42921e-07
-1.89724e-05 0.00016619 3.79325e-08
-1.42921e-07 3.79325e-08 0.00026291

0.000163754 -2.30371e-05 1.30742e-07
-2.30371e-05 0.000243505 -1.08353e-07
1.30742e-07 -1.08353e-07 0.000261824

0.000644544 7.91244e-05 -1.33502e-07
7.91244e-05 0.000571724 2.00038e-07
-1.33502e-07 2.00038e-07 0.000560743

0.000678591 -5.57732e-05 -5.28567e-08
-5.57732e-05 0.000527566 -1.47441e-07
-5.28567e-08 -1.47441e-07 0.000597203

0.000477651 7.72168e-05 4.25626e-09
7.72168e-05 0.000424434 6.79214e-08
4.25626e-09 6.79214e-08 0.000449327

0.000383103 3.70204e-05 -1.14986e-07
3.70204e-05 0.000294431 6.23261e-08
-1.14986e-07 6.23261e-08 0.00031119

0.000443009 6.92749e-05 -1.18422e-08
6.92749e-05 0.000549743 1.0174e-07
-1.18422e-08 1.0174e-07 0.000495056

0.000375298 -2.6659e-05 -6.85323e-08
-2.6659e-05 0.000551581 -5.77926e-08
-6.85323e-08 -5.77926e-08 0.00048249

0.000379689 -6.56777e-05 -1.2569e-07
-6.56777e-05 0.00040941 -1.14116e-07
-1.2569e-07 -1.14116e-07 0.000379798

0.000504763 4.26849e-05 -1.1841e-07
4.26849e-05 0.000565944 -4.0724e-08
-1.1841e-07 -4.0724e-08 0.000534787

0.000565065 -2.41085e-05 -2.80665e-08
-2.41085e-05 0.000595601 -9.82297e-08
-2.80665e-08 -9.82297e-08 0.000586498

0.000448747 5.21197e-05 -9.30059e-08
5.21197e-05 0.000358905 1.05116e-07
-9.30059e-08 1.05116e-07 0.000377646

0.000498945 2.8124e-05 8.30039e-09
2.8124e-05 0.000368087 2.90018e-08
8.30039e-09 2.90018e-08 0.000431389

0.000391218 9.63415e-05 -3.82069e-08
9.63415e-05 0.000513042 4.96686e-08
-3.82069e-08 4.96686e-08 0.000511297

0.000577369 -4.97614e-05 6.13201e-08
-4.97614e-05 0.000574521 1.08479e-07
6.13201e-08 1.08479e-07 0.000580127

0.000412524 7.99714e-05 9.0905e-08
7.99714e-05 0.000526136 4.82715e-08
9.0905e-08 4.82715e-08 0.000458299

0.00036933 -4.29935e-05 -1.44733e-07
-4.29935e-05 0.000502707 4.05198e-08
-1.44733e-07 4.05198e-08 0.000451099

0.000480466 8.74586e-05 -8.20598e-08
8.74586e-05 0.000439998 -6.4722e-09
-8.20598e-08 -6.4722e-09 0.000473475

0.000530444 -7.47225e-05 -2.67904e-08
-7.47225e-05 0.000466048 2.00406e-07
-2.67904e-08 2.00406e-07 0.000499718

0.000350551 2.52602e-05 1.624e-07
2.52602e-05 0.000508797 -1.2404e-07
1.624e-07 -1.2404e-07 0.000427651

0.000421041 -1.77422e-06 4.65602e-08
-1.77422e-06 0.000513748 -1.17797e-07
4.65602e-08 -1.17797e-07 0.000447991

0.000264601 -2.78863e-05 1.21814e-07
-2.78863e-05 0.000310978 -3.36657e-08
1.21814e-07 -3.36657e-08 0.000267942

0.000302946 -2.74741e-05 2.17858e-08
-2.74741e-05 0.000272043 -1.35541e-07
2.17858e-08 -1.35541e-07 0.000267629

0.000515852 4.52155e-05 4.5248e-08
4.52155e-05 0.000382322 5.06784e-08
4.5248e-08 5.06784e-08 0.00046282

0.000747746 1.55193e-05 -4.11642e-07
1.55193e-05 0.000643593 1.2691e-07
-4.11642e-07 1.2691e-07 0.000571151

0.000744918 -4.94547e-05 -5.95225e-07
-4.94547e-05 0.000563495 1.26473e-07
-5.95225e-07 1.26473e-07 0.000614551

0.000529986 -6.54164e-05 -2.87059e-08
-6.54164e-05 0.000600475 -8.50614e-08
-2.87059e-08 -8.50614e-08 0.000555902

0.000541016 2.06794e-05 -1.01573e-07
2.06794e-05 0.000572156 -1.39637e-07
-1.01573e-07 -1.39637e-07 0.000555142

0.00055965 -3.86817e-06 -1.13432e-07
-3.86817e-06 0.000383324 -7.21142e-08
-1.13432e-07 -7.21142e-08 0.000467224

0.000446146 0.000107667 3.1993e-08
0.000107667 0.000568307 -2.85911e-09
3.1993e-08 -2.85911e-09 0.000510712

0.000375816 -0.000101271 -9.56886e-08
-0.000101271 0.000513306 1.44366e-07
-9.56886e-08 1.44366e-07 0.000511885

0.000287854 5.35889e-05 -2.75829e-08
5.35889e-05 0.000309785 -4.52064e-08
-2.75829e-08 -4.52064e-08 0.000284213

0.00031657 5.6816e-05 1.65425e-08
5.6816e-05 0.000309026 -1.50549e-07
1.65425e-08 -1.50549e-07 0.00028688

0.000293955 -2.03939e-05 1.67892e-07
-2.03939e-05 0.000379886 6.34859e-08
1.67892e-07 6.34859e-08 0.000310507

0.000286025 4.26944e-05 -1.82633e-08
4.26944e-05 0.000369247 8.71968e-08
-1.82633e-08 8.71968e-08 0.00030532

0.000374424 -1.03216e-05 -1.94118e-07
-1.03216e-05 0.000284851 -4.08895e-08
-1.94118e-07 -4.08895e-08 0.000307445

0.000260888 2.50214e-05 -1.59441e-07
2.50214e-05 0.000362585 -8.69234e-08
-1.59441e-07 -8.69234e-08 0.000290298

0.000345609 2.90936e-05 2.65177e-08
2.90936e-05 0.000257728 -1.31672e-07
2.65177e-08 -1.31672e-07 0.000288364

0.000517411 7.77566e-06 -1.29661e-07
7.77566e-06 0.000628228 -1.10184e-07
-1.29661e-07 -1.10184e-07 0.000549637

0.000551176 5.6774e-05 8.20115e-08
5.6774e-05 0.000612777 -1.3501e-07
8.20115e-08 -1.3501e-07 0.000572525

0.000552251 8.94311e-06 -1.77809e-07
8.94311e-06 0.000458927 9.32209e-09
-1.77809e-07 9.32209e-09 0.000496145

0.000591107 -1.79927e-06 4.1987e-08
-1.79927e-06 0.000383036 -1.13861e-07
4.1987e-08 -1.13861e-07 0.000502626

0.000363593 -3.39998e-05 3.94691e-08
-3.39998e-05 0.000438357 -6.54333e-08
3.94691e-08 -6.54333e-08 0.000371938

0.000327795 5.13403e-05 -4.60377e-09
5.13403e-05 0.00041771 1.85961e-08
-4.60377e-09 1.85961e-08 0.000358472

0.00055929 -2.54615e-06 -1.35793e-07
-2.54615e-06 0.000379284 4.34532e-08
-1.35793e-07 4.34532e-08 0.000469474

0.000609703 4.46554e-05 -2.18244e-07
4.46554e-05 0.00053887 1.00171e-07
-2.18244e-07 1.00171e-07 0.000551492

0.000639991 -3.12226e-05 -5.76798e-08
-3.12226e-05 0.00052331 -1.41754e-07
-5.76798e-08 -1.41754e-07 0.000585017

0.000496259 4.2246e-05 -3.64979e-08
4.2246e-05 0.000508393 -1.11563e-07
-3.64979e-08 -1.11563e-07 0.000493365

0.000423907 -6.98928e-05 1.33113e-07
-6.98928e-05 0.000483801 -9.673e-08
1.33113e-07 -9.673e-08 0.00048163

0.000438469 9.07678e-05 -3.88084e-08
9.07678e-05 0.000542473 -1.81959e-08
-3.88084e-08 -1.81959e-08 0.000479889

0.000552845 8.90832e-06 -1.63137e-07
8.90832e-06 0.000401645 1.52566e-07
-1.63137e-07 1.52566e-07 0.000485172

0.000385898 6.46381e-05 1.45238e-07
6.46381e-05 0.000367564 1.58015e-07
1.45238e-07 1.58015e-07 0.00034325

0.000392898 -5.35508e-05 6.65503e-08
-5.35508e-05 0.000504667 -1.26549e-07
6.65503e-08 -1.26549e-07 0.000475868

0.000441134 9.66221e-05 -1.90675e-08
9.66221e-05 0.000535423 -2.87876e-08
-1.90675e-08 -2.87876e-08 0.00047904

0.000231676 0.000112904 4.26853e-08
0.000112904 0.000239768 1.91703e-07
4.26853e-08 1.91703e-07 0.000237209

0.000341813 -6.56999e-06 6.71671e-08
-6.56999e-06 0.000510896 -1.33116e-09
6.71671e-08 -1.33116e-09 0.000425353

0.000399036 3.66322e-05 -1.46357e-07
3.66322e-05 0.000512147 -3.06745e-08
-1.46357e-07 -3.06745e-08 0.000438825

0.000499682 -9.28468e-06 1.51745e-07
-9.28468e-06 0.000667421 -2.99232e-07
1.51745e-07 -2.99232e-07 0.000551963

0.000568387 4.48357e-05 9.84513e-08
4.48357e-05 0.000605286 1.67453e-07
9.84513e-08 1.67453e-07 0.00058713

0.000587604 3.65883e-05 -3.81606e-09
3.65883e-05 0.000379853 -3.36813e-08
-3.81606e-09 -3.36813e-08 0.00053273

0.000605732 -2.48307e-05 -5.63848e-08
-2.48307e-05 0.000356336 -6.21579e-10
-5.63848e-08 -6.21579e-10 0.000546878

0.000501448 4.88272e-05 5.68872e-08
4.88272e-05 0.000513609 -6.56638e-08
5.68872e-08 -6.56638e-08 0.000517655

0.000493712 -7.35945e-05 5.40743e-08
-7.35945e-05 0.000509039 -2.797e-08
5.40743e-08 -2.797e-08 0.000522589

0.000530234 4.14895e-05 -1.44864e-07
4.14895e-05 0.000592179 4.61904e-08
-1.44864e-07 4.61904e-08 0.0005501

0.00053595 -5.75804e-05 -3.22609e-08
-5.75804e-05 0.000559266 -1.0018e-07
-3.22609e-08 -1.0018e-07 0.000551742

0.000675666 7.71437e-05 -1.02539e-07
7.71437e-05 0.000636629 1.08828e-07
-1.02539e-07 1.08828e-07 0.000567708

0.000712819 -5.25737e-05 2.4115e-07
-5.25737e-05 0.00056324 1.754e-07
2.4115e-07 1.754e-07 0.000613389

0.00045852 0.000106469 -1.38737e-07
0.000106469 0.000507095 -2.01599e-07
-1.38737e-07 -2.01599e-07 0.000526429

0.000625153 -5.72663e-05 4.32615e-08
-5.72663e-05 0.000560533 -1.23104e-07
4.32615e-08 -1.23104e-07 0.000595115

0.000478297 7.91948e-05 3.05542e-08
7.91948e-05 0.000397695 -3.89077e-08
3.05542e-08 -3.89077e-08 0.000442419

0.000443764 6.81588e-05 -1.27809e-08
6.81588e-05 0.000529355 1.08201e-07
-1.27809e-08 1.08201e-07 0.000465361

0.000375825 -2.71475e-05 -4.52534e-08
-2.71475e-05 0.000519911 1.02414e-07
-4.52534e-08 1.02414e-07 0.000453997

0.000485055 -7.96729e-05 -6.30151e-08
-7.96729e-05 0.000444921 1.65061e-07
-6.30151e-08 1.65061e-07 0.000453176

0.000378915 -4.3325e-05 1.15296e-08
-4.3325e-05 0.000361765 2.57764e-07
1.15296e-08 2.57764e-07 0.000336975

0.000509359 -5.76133e-05 -5.1627e-08
-5.76133e-05 0.000411713 -6.87639e-08
-5.1627e-08 -6.87639e-08 0.000456418

0.000436617 8.66089e-05 2.49976e-08
8.66089e-05 0.000422632 6.50826e-08
2.49976e-08 6.50826e-08 0.000432477

0.000429663 -0.000117285 1.89263e-07
-0.000117285 0.000518085 -6.39473e-08
1.89263e-07 -6.39473e-08 0.000529119

0.000465921 9.29301e-05 4.00854e-08
9.29301e-05 0.000566891 -3.01005e-08
4.00854e-08 -3.01005e-08 0.000525576

0.000546007 -2.09084e-05 -3.45911e-08
-2.09084e-05 0.000454659 -2.96199e-09
-3.45911e-08 -2.96199e-09 0.000503322

0.000705491 -3.51521e-05 1.98168e-07
-3.51521e-05 0.000689077 -3.6161e-08
1.98168e-07 -3.6161e-08 0.000568298

0.000600575 2.9628e-05 -1.06118e-07
2.9628e-05 0.000652845 2.07226e-07
-1.06118e-07 2.07226e-07 0.000603214

0.000496771 3.5513e-05 -3.90243e-08
3.5513e-05 0.000447586 -3.52274e-08
-3.90243e-08 -3.52274e-08 0.000481892

0.000595509 -1.39356e-05 -1.69346e-08
-1.39356e-05 0.000480898 1.10528e-07
-1.69346e-08 1.10528e-07 0.000536331

0.000298682 -3.99136e-05 1.74477e-07
-3.99136e-05 0.000324578 9.25883e-10
1.74477e-07 9.25883e-10 0.000282311

0.000329801 -3.75608e-05 1.52822e-07
-3.75608e-05 0.000282583 -2.59207e-08
1.52822e-07 -2.59207e-08 0.000282439

0.000591433 1.14995e-05 -1.71581e-07
1.14995e-05 0.000436258 1.74645e-07
-1.71581e-07 1.74645e-07 0.000536666

0.000604763 3.19021e-06 -4.47343e-08
3.19021e-06 0.000421818 1.27276e-08
-4.47343e-08 1.27276e-08 0.000556345

0.000576194 1.19778e-06 1.47133e-07
1.19778e-06 0.000500664 6.72476e-08
1.47133e-07 6.72476e-08 0.000538041

0.000478653 -3.13147e-05 -2.94585e-08
-3.13147e-05 0.000525779 -6.11419e-08
-2.94585e-08 -6.11419e-08 0.000482054

0.000386158 4.09309e-05 1.58988e-07
4.09309e-05 0.000512376 -1.2659e-07
1.58988e-07 -1.2659e-07 0.000454885

0.000467597 6.38901e-05 1.77403e-08
6.38901e-05 0.000380308 -4.89202e-08
1.77403e-08 -4.89202e-08 0.000409496

0.000529813 7.20059e-05 -2.93401e-08
7.20059e-05 0.00047968 -4.28466e-08
-2.93401e-08 -4.28466e-08 0.000512868

0.000574938 -5.68765e-05 -3.97134e-08
-5.68765e-05 0.000519269 -3.08304e-07
-3.97134e-08 -3.08304e-07 0.000549114

0.000615266 9.87384e-06 3.73381e-08
9.87384e-06 0.000578131 -1.57248e-08
3.73381e-08 -1.57248e-08 0.000574683

0.000593652 -8.05984e-05 -2.54553e-08
-8.05984e-05 0.000701478 -3.79732e-08
-2.54553e-08 -3.79732e-08 0.000574237

0.000504721 3.18097e-05 1.4133e-07
3.18097e-05 0.000437934 9.65057e-08
1.4133e-07 9.65057e-08 0.000452596

0.000572891 5.09556e-05 1.9773e-07
5.09556e-05 0.000488299 1.94684e-09
1.9773e-07 1.94684e-09 0.00053028

0.000594777 -3.80943e-05 -3.82435e-08
-3.80943e-05 0.000484732 -1.58278e-07
-3.82435e-08 -1.58278e-07 0.000556007

0.000416661 -3.11352e-05 -1.83705e-07
-3.11352e-05 0.000537808 2.22879e-08
-1.83705e-07 2.22879e-08 0.000499624

0.000478262 8.78107e-05 -1.49617e-07
8.78107e-05 0.000558475 5.94431e-09
-1.49617e-07 5.94431e-09 0.000509026

0.000458075 0.000111628 4.70578e-09
0.000111628 0.000569074 -6.06962e-09
4.70578e-09 -6.06962e-09 0.000511636

0.000412664 -6.73059e-05 1.08446e-07
-6.73059e-05 0.000500842 1.10042e-07
1.08446e-07 1.10042e-07 0.000509399

0.000256875 0.000129196 -1.53546e-08
0.000129196 0.000260765 -6.82173e-08
-1.53546e-08 -6.82173e-08 0.000245451

0.000484386 6.90572e-05 9.51875e-09
6.90572e-05 0.000587545 3.2152e-08
9.51875e-09 3.2152e-08 0.000534589

0.00045733 -7.96873e-05 1.78195e-07
-7.96873e-05 0.000556712 -8.6421e-08
1.78195e-07 -8.6421e-08 0.000537519

0.00039 -6.13493e-05 1.04868e-07
-6.13493e-05 0.000521221 1.145e-07
1.04868e-07 1.145e-07 0.000495899

0.000440532 9.59726e-05 -1.80571e-08
9.59726e-05 0.00055699 -3.38432e-08
-1.80571e-08 -3.38432e-08 0.000500073

0.000489748 -4.21793e-05 3.98142e-08
-4.21793e-05 0.000399592 -1.37461e-07
3.98142e-08 -1.37461e-07 0.000423124

0.000490679 -5.14338e-05 3.12803e-08
-5.14338e-05 0.000480968 -1.28468e-08
3.12803e-08 -1.28468e-08 0.000497417

0.000492115 5.619e-05 1.86379e-08
5.619e-05 0.00054691 4.28098e-08
1.86379e-08 4.28098e-08 0.000522853

0.000492551 -7.66298e-05 7.13167e-08
-7.66298e-05 0.000502661 3.70258e-08
7.13167e-08 3.70258e-08 0.000526155

0.000546005 -2.04671e-05 -3.45389e-08
-2.04671e-05 0.000400958 -2.39069e-08
-3.45389e-08 -2.39069e-08 0.00049167

0.00059135 2.1232e-05 -2.46727e-07
2.1232e-05 0.000535055 -1.98841e-07
-2.46727e-07 -1.98841e-07 0.000548321

0.000611885 -2.20414e-05 -1.73497e-08
-2.20414e-05 0.000496708 -1.23388e-07
-1.73497e-08 -1.23388e-07 0.000573884

0.000559614 2.35156e-05 1.50326e-08
2.35156e-05 0.000720396 1.49852e-07
1.50326e-08 1.49852e-07 0.000564728

0.000580021 3.13882e-05 -2.49421e-07
3.13882e-05 0.000677625 6.16695e-08
-2.49421e-07 6.16695e-08 0.00060057

0.000245119 2.42124e-05 -1.4138e-07
2.42124e-05 0.000181848 -8.35863e-08
-1.4138e-07 -8.35863e-08 0.000256763

0.000184501 2.39726e-05 -1.76281e-07
2.39726e-05 0.000256283 2.05808e-07
-1.76281e-07 2.05808e-07 0.000256476

0.000483714 7.11785e-05 3.43708e-08
7.11785e-05 0.000484125 2.70256e-07
3.43708e-08 2.70256e-07 0.000509268

0.000562074 -7.19027e-05 9.04041e-08
-7.19027e-05 0.00054429 1.00001e-07
9.04041e-08 1.00001e-07 0.000554831

0.000241985 4.83211e-05 1.27683e-09
4.83211e-05 0.000236004 1.09877e-07
1.27683e-09 1.09877e-07 0.000258109

0.000234984 5.29429e-05 1.61925e-07
5.29429e-05 0.00023756 -4.06281e-08
1.61925e-07 -4.06281e-08 0.000258246

0.000700959 -1.9588e-05 3.98594e-07
-1.9588e-05 0.000654043 1.02935e-06
3.98594e-07 1.02935e-06 0.000613295

0.000700884 -1.29693e-05 6.08766e-09
-1.29693e-05 0.000734034 -2.52593e-07
6.08766e-09 -2.52593e-07 0.000572717

0.000460005 -7.00482e-05 -1.19941e-07
-7.00482e-05 0.00047153 -1.41834e-07
-1.19941e-07 -1.41834e-07 0.000490764

0.000489847 8.97833e-05 -1.58316e-08
8.97833e-05 0.000472 -4.98742e-08
-1.58316e-08 -4.98742e-08 0.000500677

0.00056403 -7.49353e-05 1.39794e-07
-7.49353e-05 0.000503441 -2.1498e-07
1.39794e-07 -2.1498e-07 0.000538306

0.000436215 7.87232e-05 4.56662e-08
7.87232e-05 0.000451001 2.94735e-08
4.56662e-08 2.94735e-08 0.00044264

0.000493706 -6.24746e-05 -1.26918e-07
-6.24746e-05 0.000478512 5.48397e-08
-1.26918e-07 5.48397e-08 0.000468178

0.000312065 -1.15759e-05 -2.06735e-07
-1.15759e-05 0.000383328 -3.77061e-08
-2.06735e-07 -3.77061e-08 0.000313692

0.000275738 3.25236e-05 -1.33916e-07
3.25236e-05 0.000372042 1.02115e-07
-1.33916e-07 1.02115e-07 0.000305985

0.000376315 -4.93984e-06 -1.7342e-07
-4.93984e-06 0.000294457 5.39735e-08
-1.7342e-07 5.39735e-08 0.000309792

0.000436352 8.36054e-05 -4.45965e-08
8.36054e-05 0.000464864 -1.01343e-07
-4.45965e-08 -1.01343e-07 0.000467728

0.000511389 -8.19466e-05 -4.27245e-08
-8.19466e-05 0.000497853 -6.69012e-08
-4.27245e-08 -6.69012e-08 0.000499715

0.000246152 5.10536e-06 -1.69668e-07
5.10536e-06 0.000348725 5.9473e-08
-1.69668e-07 5.9473e-08 0.00028315

0.000344317 -5.3866e-07 1.42554e-08
-5.3866e-07 0.000259342 1.6398e-07
1.42554e-08 1.6398e-07 0.000281992

0.000525634 8.53097e-05 -7.00082e-08
8.53097e-05 0.000488021 2.50093e-07
-7.00082e-08 2.50093e-07 0.00052542

0.000603932 -6.07539e-05 4.45247e-08
-6.07539e-05 0.000538416 1.08872e-07
4.45247e-08 1.08872e-07 0.000574073

0.000524497 8.3498e-05 3.34364e-09
8.3498e-05 0.000514248 -4.23838e-09
3.34364e-09 -4.23838e-09 0.000528404

0.000596842 -7.42827e-05 -6.66347e-08
-7.42827e-05 0.00052983 -2.76513e-07
-6.66347e-08 -2.76513e-07 0.000570438

0.000222176 4.95166e-05 3.03803e-08
4.95166e-05 0.000224856 2.89524e-08
3.03803e-08 2.89524e-08 0.000247273

0.000221433 4.521e-05 -1.96921e-07
4.521e-05 0.000229038 1.72601e-07
-1.96921e-07 1.72601e-07 0.000246599

0.000482005 7.94706e-05 -7.25264e-08
7.94706e-05 0.000461239 -9.05486e-08
-7.25264e-08 -9.05486e-08 0.000481713

0.000531911 -6.59766e-05 -5.81672e-08
-6.59766e-05 0.00050713 -7.28682e-08
-5.81672e-08 -7.28682e-08 0.000514411

0.000575198 5.16492e-05 -2.14996e-07
5.16492e-05 0.000612099 -1.52306e-07
-2.14996e-07 -1.52306e-07 0.000586506

0.000549028 -1.65824e-05 -2.77541e-08
-1.65824e-05 0.000630957 -1.16119e-07
-2.77541e-08 -1.16119e-07 0.00055572

0.000479398 6.74078e-05 -2.11537e-07
6.74078e-05 0.000547486 2.5696e-08
-2.11537e-07 2.5696e-08 0.000534274

0.000612276 -7.63497e-05 9.29625e-08
-7.63497e-05 0.000566894 3.20751e-08
9.29625e-08 3.20751e-08 0.000592944

0.00060685 6.05046e-05 -1.81483e-07
6.05046e-05 0.000486983 -2.34849e-07
-1.81483e-07 -2.34849e-07 0.000546435

0.00063884 -3.94239e-05 -5.81349e-08
-3.94239e-05 0.000469309 -1.45898e-07
-5.81349e-08 -1.45898e-07 0.000575026

0.000471049 8.07029e-05 6.25846e-08
8.07029e-05 0.000546137 4.21115e-08
6.25846e-08 4.21115e-08 0.000504205

0.000450425 -6.83238e-05 -2.07356e-07
-6.83238e-05 0.000502915 3.29036e-08
-2.07356e-07 3.29036e-08 0.000509399

0.000549001 4.89912e-05 1.23456e-07
4.89912e-05 0.000666374 2.66818e-07
1.23456e-07 2.66818e-07 0.000585114

0.000574611 5.74315e-05 -2.11727e-08
5.74315e-05 0.000593411 1.29993e-07
-2.11727e-08 1.29993e-07 0.000562744

0.000594004 -0.000101473 -4.60397e-08
-0.000101473 0.000592165 -9.07306e-08
-4.60397e-08 -9.07306e-08 0.000563388

0.000521159 -1.35945e-05 -1.46526e-07
-1.35945e-05 0.000690307 5.33203e-08
-1.46526e-07 5.33203e-08 0.000558966

0.000646157 5.92222e-05 4.97625e-08
5.92222e-05 0.000561242 2.19887e-08
4.97625e-08 2.19887e-08 0.000560617

0.000698481 1.25426e-05 -1.46236e-07
1.25426e-05 0.000602828 2.03366e-07
-1.46236e-07 2.03366e-07 0.000567983

0.00067478 -5.50664e-05 2.78282e-09
-5.50664e-05 0.000511011 -1.38385e-07
2.78282e-09 -1.38385e-07 0.000591485

0.00071349 -1.9163e-05 1.10327e-08
-1.9163e-05 0.000544311 -1.30753e-07
1.10327e-08 -1.30753e-07 0.000604812

0.000608151 6.82786e-05 -1.72474e-07
6.82786e-05 0.000667343 -3.61351e-07
-1.72474e-07 -3.61351e-07 0.000563799

0.000765601 -1.23488e-05 3.11643e-06
-1.23488e-05 0.000715752 -1.87422e-06
3.11643e-06 -1.87422e-06 0.000573222

0.000754593 -5.48762e-05 1.76519e-06
-5.48762e-05 0.000571781 1.10304e-06
1.76519e-06 1.10304e-06 0.000626268

0.000724837 -5.79925e-05 3.71257e-07
-5.79925e-05 0.000578877 -6.63298e-07
3.71257e-07 -6.63298e-07 0.000627273

0.000644497 6.71962e-05 -1.27539e-07
6.71962e-05 0.000580552 -2.93239e-07
-1.27539e-07 -2.93239e-07 0.000559968

0.000583884 2.99943e-05 2.29002e-07
2.99943e-05 0.000557861 -5.71367e-08
2.29002e-07 -5.71367e-08 0.000548642

0.000653286 3.4171e-05 -1.59533e-07
3.4171e-05 0.000697934 -1.45093e-07
-1.59533e-07 -1.45093e-07 0.000569652

0.000718742 -4.75775e-05 1.00235e-07
-4.75775e-05 0.000561307 -2.52485e-07
1.00235e-07 -2.52485e-07 0.000619689

0.000713827 -5.68223e-05 2.16425e-07
-5.68223e-05 0.000581084 2.85565e-07
2.16425e-07 2.85565e-07 0.000621404

0.000649137 -3.85102e-05 -2.36061e-07
-3.85102e-05 0.000579821 -2.97894e-08
-2.36061e-07 -2.97894e-08 0.000605462

0.000591767 7.83876e-05 2.32074e-07
7.83876e-05 0.000560186 -1.95081e-08
2.32074e-07 -1.95081e-08 0.000552652

0.00065402 3.79088e-05 -1.20759e-07
3.79088e-05 0.00057936 9.03749e-08
-1.20759e-07 9.03749e-08 0.000562033

0.000652716 -5.89796e-05 -2.64747e-07
-5.89796e-05 0.00054409 3.21718e-07
-2.64747e-07 3.21718e-07 0.000598311

0.000683199 -3.42621e-05 1.16654e-08
-3.42621e-05 0.000556529 4.07803e-07
1.16654e-08 4.07803e-07 0.000604523

0.000628786 6.29787e-06 7.46488e-08
6.29787e-06 0.000631735 3.80837e-08
7.46488e-08 3.80837e-08 0.000646777

0.00068357 -3.50009e-06 -4.36836e-08
-3.50009e-06 0.000658686 -1.50801e-07
-4.36836e-08 -1.50801e-07 0.000662159

0.000667821 1.21469e-05 3.942e-08
1.21469e-05 0.000629506 -1.10774e-07
3.942e-08 -1.10774e-07 0.00064639

0.000631213 -1.26558e-05 5.96078e-08
-1.26558e-05 0.000581158 -1.7054e-08
5.96078e-08 -1.7054e-08 0.000636793

0.000633002 2.02276e-06 1.19933e-07
2.02276e-06 0.000596773 1.6147e-08
1.19933e-07 1.6147e-08 0.00064096

0.000686032 -1.81188e-05 -5.23128e-08
-1.81188e-05 0.000665616 -5.04321e-08
-5.23128e-08 -5.04321e-08 0.000661418

0.000664422 3.21497e-05 2.00065e-08
3.21497e-05 0.000624081 1.1503e-07
2.00065e-08 1.1503e-07 0.000643827

0.000634499 -3.00945e-06 1.30443e-07
-3.00945e-06 0.000591969 -5.92462e-08
1.30443e-07 -5.92462e-08 0.000640663

0.000638166 1.45374e-05 -8.9745e-08
1.45374e-05 0.000548311 -8.49463e-08
-8.9745e-08 -8.49463e-08 0.000615876

0.000642983 3.17302e-06 9.57253e-08
3.17302e-06 0.000632979 -9.25225e-08
9.57253e-08 -9.25225e-08 0.000653986

0.000643957 -2.90497e-06 4.90342e-08
-2.90497e-06 0.000634528 -6.07956e-08
4.90342e-08 -6.07956e-08 0.00065426

0.000664694 1.70708e-06 -3.44804e-08
1.70708e-06 0.000675125 5.81437e-08
-3.44804e-08 5.81437e-08 0.000672508

0.000689534 -1.81292e-05 -9.71154e-08
-1.81292e-05 0.000604272 -2.67015e-08
-9.71154e-08 -2.67015e-08 0.00063372

0.000704164 1.16313e-06 -1.06843e-07
1.16313e-06 0.000674182 -1.84352e-08
-1.06843e-07 -1.84352e-08 0.000663559

0.00062901 2.41133e-05 7.48582e-08
2.41133e-05 0.000620335 7.1519e-08
7.48582e-08 7.1519e-08 0.000643147

0.000614462 3.37799e-05 5.19304e-08
3.37799e-05 0.000617056 -6.68822e-08
5.19304e-08 -6.68822e-08 0.000631741

0.000668311 -3.18177e-05 -6.43955e-08
-3.18177e-05 0.000628759 -4.65939e-08
-6.43955e-08 -4.65939e-08 0.000647868

0.000681548 1.65326e-05 -7.68161e-08
1.65326e-05 0.000663844 -3.67857e-08
-7.68161e-08 -3.67857e-08 0.000659579

0.000679464 8.26869e-07 5.73917e-08
8.26869e-07 0.000694556 -7.43744e-08
5.73917e-08 -7.43744e-08 0.000683064

0.000638924 3.17857e-06 2.24294e-08
3.17857e-06 0.000648252 4.97606e-08
2.24294e-08 4.97606e-08 0.000656143

0.00063933 -3.56932e-06 4.89948e-08
-3.56932e-06 0.000649034 -6.08716e-08
4.89948e-08 -6.08716e-08 0.000656288

0.000663256 -3.46876e-06 -1.04574e-08
-3.46876e-06 0.000682404 4.26402e-08
-1.04574e-08 4.26402e-08 0.000675244

0.000629069 1.06873e-05 9.16645e-08
1.06873e-05 0.000621686 1.92764e-08
9.16645e-08 1.92764e-08 0.000644775

0.000630641 8.87254e-06 1.16744e-07
8.87254e-06 0.000603166 -6.52713e-08
1.16744e-07 -6.52713e-08 0.000644445

0.000616584 8.42836e-06 -1.55377e-08
8.42836e-06 0.000621484 1.36721e-08
-1.55377e-08 1.36721e-08 0.000641217

0.00067013 -5.56579e-06 6.13607e-08
-5.56579e-06 0.000666942 -1.72399e-07
6.13607e-08 -1.72399e-07 0.00066921

0.000634907 1.064e-05 -2.51669e-08
1.064e-05 0.000581013 2.83942e-09
-2.51669e-08 2.83942e-09 0.000635869

0.000637747 1.81333e-06 1.6033e-07
1.81333e-06 0.000645914 2.71748e-08
1.6033e-07 2.71748e-08 0.000656232

0.000639308 -1.42538e-05 -1.47413e-07
-1.42538e-05 0.000545738 -2.26143e-08
-1.47413e-07 -2.26143e-08 0.000625587

0.00065933 -3.65013e-06 6.37381e-08
-3.65013e-06 0.000670791 1.13468e-07
6.37381e-08 1.13468e-07 0.000670265

0.000702253 -3.16072e-06 -6.35604e-08
-3.16072e-06 0.000651537 -4.60596e-08
-6.35604e-08 -4.60596e-08 0.000654106

0.000703522 4.61002e-06 1.07351e-07
4.61002e-06 0.000639583 8.10804e-08
1.07351e-07 8.10804e-08 0.000652598

0.000657775 -1.64878e-05 -9.16669e-08
-1.64878e-05 0.000632994 1.45263e-07
-9.16669e-08 1.45263e-07 0.000630559

0.000657237 1.60865e-05 6.64637e-08
1.60865e-05 0.000634134 3.71482e-08
6.64637e-08 3.71482e-08 0.000630657

0.000636945 -3.78483e-06 7.80363e-09
-3.78483e-06 0.000614722 -8.06361e-09
7.80363e-09 -8.06361e-09 0.000647291

0.000610783 3.20436e-06 -1.33644e-08
3.20436e-06 0.000617242 1.62432e-08
-1.33644e-08 1.62432e-08 0.000637257

0.000620159 -2.60454e-05 -4.3033e-08
-2.60454e-05 0.000620664 2.00559e-08
-4.3033e-08 2.00559e-08 0.000633721

0.000619287 2.75106e-05 9.57376e-08
2.75106e-05 0.000621364 -9.60072e-08
9.57376e-08 -9.60072e-08 0.000633512

0.000640986 -1.25776e-05 3.15825e-08
-1.25776e-05 0.000545586 -3.0518e-08
3.15825e-08 -3.0518e-08 0.000612062

0.000664911 -7.32723e-06 -2.72729e-08
-7.32723e-06 0.000680912 -5.42516e-08
-2.72729e-08 -5.42516e-08 0.000671982

0.000627789 3.83358e-07 1.28763e-07
3.83358e-07 0.000616358 1.46387e-08
1.28763e-07 1.46387e-08 0.0006446

0.000638581 1.11486e-05 -9.42727e-08
1.11486e-05 0.000542394 -7.21588e-09
-9.42727e-08 -7.21588e-09 0.000613688

0.000628882 -1.01667e-05 -1.26786e-07
-1.01667e-05 0.000623214 -1.25705e-07
-1.26786e-07 -1.25705e-07 0.000645173

0.000627934 -6.2831e-06 1.31878e-07
-6.2831e-06 0.000632648 1.52038e-07
1.31878e-07 1.52038e-07 0.00064672

0.000684035 -1.36125e-05 3.84754e-08
-1.36125e-05 0.000675406 -2.64532e-08
3.84754e-08 -2.64532e-08 0.000670575

0.000632306 6.78025e-07 2.87056e-08
6.78025e-07 0.000616375 6.00939e-09
2.87056e-08 6.00939e-09 0.000647212

0.000642692 5.41173e-06 -1.819e-07
5.41173e-06 0.000641655 -3.17518e-08
-1.819e-07 -3.17518e-08 0.000658103

0.000651564 6.3828e-06 -3.60616e-08
6.3828e-06 0.000657358 -1.91648e-07
-3.60616e-08 -1.91648e-07 0.000665521

0.00064704 -5.05363e-05 1.19414e-08
-5.05363e-05 0.000585825 1.45849e-08
1.19414e-08 1.45849e-08 0.000626098

0.000650521 -2.36498e-06 -1.90337e-08
-2.36498e-06 0.000659375 9.59433e-08
-1.90337e-08 9.59433e-08 0.000664519

0.000637476 3.12953e-06 9.36325e-08
3.12953e-06 0.000641447 -1.84548e-08
9.36325e-08 -1.84548e-08 0.000655379

0.00069918 9.75945e-06 -1.04623e-07
9.75945e-06 0.000705309 7.53649e-08
-1.04623e-07 7.53649e-08 0.000689181

0.000698792 -8.52441e-06 -1.07502e-07
-8.52441e-06 0.00070503 -7.80266e-08
-1.07502e-07 -7.80266e-08 0.000689176

0.00068238 -3.56065e-06 -3.25181e-08
-3.56065e-06 0.000697405 -4.10831e-08
-3.25181e-08 -4.10831e-08 0.00068507

0.000697145 2.79317e-06 -1.15665e-07
2.79317e-06 0.000708065 -2.34546e-09
-1.15665e-07 -2.34546e-09 0.000689802

0.000697574 -4.46933e-06 -1.19255e-07
-4.46933e-06 0.00070827 4.68808e-09
-1.19255e-07 4.68808e-09 0.000689798

0.000669166 -1.12521e-05 7.11653e-08
-1.12521e-05 0.00067598 -4.94742e-08
7.11653e-08 -4.94742e-08 0.000669782

0.000646569 -2.12962e-05 1.11914e-07
-2.12962e-05 0.000601024 1.20051e-07
1.11914e-07 1.20051e-07 0.000621145

0.00064651 2.18575e-05 -1.8058e-07
2.18575e-05 0.000601183 3.38786e-08
-1.8058e-07 3.38786e-08 0.000621227

0.000686435 5.10391e-06 -8.10941e-09
5.10391e-06 0.00070142 -1.31267e-07
-8.10941e-09 -1.31267e-07 0.000685915

0.000686858 -5.56217e-06 -7.45212e-09
-5.56217e-06 0.000701732 1.49672e-07
-7.45212e-09 1.49672e-07 0.000685913

0.000634931 3.22446e-06 -6.55908e-08
3.22446e-06 0.000621842 -4.29615e-08
-6.55908e-08 -4.29615e-08 0.000650256

0.00068202 3.03519e-05 -1.37196e-07
3.03519e-05 0.000630782 -2.12168e-08
-1.37196e-07 -2.12168e-08 0.000631419

0.000720987 -2.46361e-05 1.37965e-07
-2.46361e-05 0.000690729 1.11361e-07
1.37965e-07 1.11361e-07 0.000660612

0.000664171 7.27892e-06 9.05128e-09
7.27892e-06 0.000681501 1.36167e-07
9.05128e-09 1.36167e-07 0.000672082

0.000637693 -3.17879e-06 -7.94048e-08
-3.17879e-06 0.000647674 1.19744e-07
-7.94048e-08 1.19744e-07 0.0006569

0.000638377 -5.08941e-06 -8.35357e-08
-5.08941e-06 0.000631346 -3.10734e-08
-8.35357e-08 -3.10734e-08 0.000652363

0.000669861 -1.13747e-05 -1.58769e-07
-1.13747e-05 0.000676998 -6.83774e-08
-1.58769e-07 -6.83774e-08 0.000666281

0.000646081 3.08049e-05 -3.68632e-09
3.08049e-05 0.000613932 -7.99007e-08
-3.68632e-09 -7.99007e-08 0.000641519

0.000725291 4.45825e-06 -7.33354e-07
4.45825e-06 0.00072973 -1.55003e-07
-7.33354e-07 -1.55003e-07 0.00069423

0.000714787 -6.87681e-06 -7.34434e-07
-6.87681e-06 0.000728559 1.54319e-07
-7.34434e-07 1.54319e-07 0.000694227

0.000630318 4.14716e-05 9.55369e-08
4.14716e-05 0.000591191 1.38502e-08
9.55369e-08 1.38502e-08 0.000617304

0.000682582 2.32015e-06 -7.43371e-08
2.32015e-06 0.000698454 -2.15793e-08
-7.43371e-08 -2.15793e-08 0.000684703

0.000683315 -2.73046e-06 -8.04535e-08
-2.73046e-06 0.000698661 -2.67725e-08
-8.04535e-08 -2.67725e-08 0.000684774

0.000584599 1.98169e-05 -8.38271e-09
1.98169e-05 0.000617365 4.31227e-08
-8.38271e-09 4.31227e-08 0.000625233

0.000686568 1.41269e-05 1.07203e-07
1.41269e-05 0.000686988 6.51389e-08
1.07203e-07 6.51389e-08 0.000666969

0.000634765 3.81763e-06 -5.74544e-10
3.81763e-06 0.000614061 5.00106e-08
-5.74544e-10 5.00106e-08 0.000647376

0.000634964 -6.40869e-06 -3.73163e-09
-6.40869e-06 0.000600987 4.80048e-08
-3.73163e-09 4.80048e-08 0.000644827

0.000624302 -3.09546e-05 -3.88564e-08
-3.09546e-05 0.000583388 1.63714e-09
-3.88564e-08 1.63714e-09 0.000631307

0.000616684 3.37962e-05 -3.86791e-07
3.37962e-05 0.000661945 -1.89263e-07
-3.86791e-07 -1.89263e-07 0.000628699

0.000618199 -3.56074e-05 2.37692e-07
-3.56074e-05 0.000659252 -7.5368e-09
2.37692e-07 -7.5368e-09 0.00062854

0.000632732 5.81372e-06 -8.13409e-08
5.81372e-06 0.000632662 -8.02599e-08
-8.13409e-08 -8.02599e-08 0.000650501

0.000621795 8.55659e-06 1.11049e-07
8.55659e-06 0.000606077 3.20674e-08
1.11049e-07 3.20674e-08 0.000641979

0.000680402 -7.09741e-06 4.81614e-08
-7.09741e-06 0.000693347 8.23765e-08
4.81614e-08 8.23765e-08 0.000682757

0.000713624 -3.05749e-07 -4.06596e-07
-3.05749e-07 0.000703001 -2.11039e-08
-4.06596e-07 -2.11039e-08 0.000656105

0.000741082 2.53052e-05 2.03866e-07
2.53052e-05 0.000624832 6.17466e-08
2.03866e-07 6.17466e-08 0.00064339

0.000623268 3.25148e-05 1.28571e-07
3.25148e-05 0.000586173 5.12572e-08
1.28571e-07 5.12572e-08 0.000631109

0.000670791 -1.04069e-05 -6.5675e-08
-1.04069e-05 0.000636148 -6.84663e-08
-6.5675e-08 -6.84663e-08 0.000650489

0.000679548 3.05786e-06 -7.19798e-08
3.05786e-06 0.000655002 2.67486e-08
-7.19798e-08 2.67486e-08 0.000659967

0.000685468 -4.45201e-08 5.38145e-08
-4.45201e-08 0.000701745 1.69919e-08
5.38145e-08 1.69919e-08 0.000686795

0.000685723 7.09408e-07 -1.02533e-09
7.09408e-07 0.000701649 -1.98087e-08
-1.02533e-09 -1.98087e-08 0.000686868

0.000662577 6.40749e-06 -7.12767e-08
6.40749e-06 0.000675558 -1.01098e-07
-7.12767e-08 -1.01098e-07 0.000672336

0.000675533 -4.10788e-06 1.1336e-07
-4.10788e-06 0.000690598 -4.63369e-08
1.1336e-07 -4.63369e-08 0.000680591

0.000692239 1.84983e-06 1.69293e-07
1.84983e-06 0.000704185 -1.30315e-07
1.69293e-07 -1.30315e-07 0.000688561

0.000691587 -2.74284e-06 1.89757e-07
-2.74284e-06 0.000704309 1.64452e-07
1.89757e-07 1.64452e-07 0.000688563

0.000679727 6.55116e-06 -1.87807e-07
6.55116e-06 0.000693459 7.07468e-08
-1.87807e-07 7.07468e-08 0.000682731

0.000669007 4.97929e-06 -3.51334e-08
4.97929e-06 0.000667561 7.92734e-08
-3.51334e-08 7.92734e-08 0.000669227

0.000687987 6.33923e-06 4.96665e-08
6.33923e-06 0.000699445 -4.75705e-09
4.96665e-08 -4.75705e-09 0.000686805

0.000688813 -6.59246e-06 1.82439e-09
-6.59246e-06 0.000699274 -3.37229e-08
1.82439e-09 -3.37229e-08 0.000686879

0.000632168 1.38998e-05 -6.64765e-08
1.38998e-05 0.000579893 9.34595e-08
-6.64765e-08 9.34595e-08 0.000635931

0.00068832 -7.98298e-06 -4.08065e-08
-7.98298e-06 0.000688351 -7.04143e-08
-4.08065e-08 -7.04143e-08 0.000679251

0.000629094 2.43473e-06 6.56187e-08
2.43473e-06 0.000617815 9.24748e-08
6.56187e-08 9.24748e-08 0.00064492

0.000593386 3.24068e-05 -6.15128e-08
3.24068e-05 0.000607292 -1.28031e-07
-6.15128e-08 -1.28031e-07 0.000612789

0.000686275 -8.75122e-06 1.04013e-07
-8.75122e-06 0.000685773 9.70306e-08
1.04013e-07 9.70306e-08 0.000671635

0.000670896 1.83171e-06 -3.46194e-08
1.83171e-06 0.000685617 3.18339e-08
-3.46194e-08 3.18339e-08 0.000677964

0.000612685 1.98539e-05 -1.06182e-07
1.98539e-05 0.000595902 2.65212e-08
-1.06182e-07 2.65212e-08 0.000637458

0.000632034 -1.08834e-05 3.57019e-08
-1.08834e-05 0.000584845 -7.86388e-08
3.57019e-08 -7.86388e-08 0.000637093

0.000627796 -2.42324e-06 9.46825e-08
-2.42324e-06 0.000621694 8.14332e-08
9.46825e-08 8.14332e-08 0.000647706

0.000619126 -8.00777e-06 -1.6589e-08
-8.00777e-06 0.000607549 2.77005e-08
-1.6589e-08 2.77005e-08 0.000642294

0.000658248 2.14593e-05 1.16406e-07
2.14593e-05 0.000641629 -7.11487e-08
1.16406e-07 -7.11487e-08 0.000655549

0.000663346 -1.94826e-05 2.48649e-08
-1.94826e-05 0.000647591 -1.15517e-07
2.48649e-08 -1.15517e-07 0.000657468

0.000663176 -1.45293e-06 -7.36253e-08
-1.45293e-06 0.000676423 -3.96672e-08
-7.36253e-08 -3.96672e-08 0.000672824

0.000582656 -2.12722e-05 4.59825e-09
-2.12722e-05 0.000618131 -3.07296e-08
4.59825e-09 -3.07296e-08 0.00062482

0.000665941 2.40384e-06 3.52701e-08
2.40384e-06 0.000672863 -2.86456e-08
3.52701e-08 -2.86456e-08 0.000671443

0.000666375 -1.72739e-06 2.16536e-08
-1.72739e-06 0.00067256 3.53464e-07
2.16536e-08 3.53464e-07 0.00067123

0.0006228 9.61756e-06 -9.97227e-08
9.61756e-06 0.00060619 2.05242e-08
-9.97227e-08 2.05242e-08 0.000639115

0.000637334 2.7126e-05 -1.12051e-07
2.7126e-05 0.000524364 -6.30165e-08
-1.12051e-07 -6.30165e-08 0.00060833

0.000637377 -2.34698e-05 1.98372e-10
-2.34698e-05 0.000524126 -6.94269e-08
1.98372e-10 -6.94269e-08 0.000608245

0.000648539 1.15641e-05 5.41266e-09
1.15641e-05 0.000632642 8.64408e-09
5.41266e-09 8.64408e-09 0.000653513

0.000614186 -7.53334e-06 7.17474e-08
-7.53334e-06 0.000622771 -1.52513e-07
7.17474e-08 -1.52513e-07 0.000641436

0.000650954 9.26509e-06 2.04259e-08
9.26509e-06 0.000650935 4.9111e-08
2.04259e-08 4.9111e-08 0.000660559

0.000651881 -8.92456e-06 -7.61301e-08
-8.92456e-06 0.000651087 -2.44922e-08
-7.61301e-08 -2.44922e-08 0.000660633

0.000667526 8.69678e-07 -2.91316e-08
8.69678e-07 0.000676391 -5.50568e-09
-2.91316e-08 -5.50568e-09 0.00067455

0.000661877 -7.03741e-06 -6.14386e-08
-7.03741e-06 0.000675023 -1.09078e-07
-6.14386e-08 -1.09078e-07 0.000672048

0.000667215 7.27287e-07 2.92386e-08
7.27287e-07 0.000682148 -1.9594e-07
2.92386e-08 -1.9594e-07 0.000675119

0.000772669 9.79574e-06 3.36361e-07
9.79574e-06 0.000690657 -2.56704e-07
3.36361e-07 -2.56704e-07 0.000652373

0.000775379 -4.845e-05 3.37263e-07
-4.845e-05 0.000668161 1.94446e-08
3.37263e-07 1.94446e-08 0.000645006

0.000671833 -7.33252e-07 1.99155e-07
-7.33252e-07 0.000685644 -8.51074e-08
1.99155e-07 -8.51074e-08 0.000678248

0.000677832 -4.2573e-06 5.05043e-08
-4.2573e-06 0.000681625 -6.63726e-08
5.05043e-08 -6.63726e-08 0.000672649

0.000681834 4.25297e-06 -3.69089e-08
4.25297e-06 0.00069736 8.45459e-08
-3.69089e-08 8.45459e-08 0.000685

0.000648309 -1.09346e-05 -6.5239e-08
-1.09346e-05 0.00063363 2.09371e-07
-6.5239e-08 2.09371e-07 0.00065324

0.00069881 -2.17355e-05 9.2444e-08
-2.17355e-05 0.000683152 1.22114e-07
9.2444e-08 1.22114e-07 0.000668668

0.000616619 5.70639e-05 1.2159e-07
5.70639e-05 0.000587978 -4.26389e-08
1.2159e-07 -4.26389e-08 0.000614788

0.000690825 8.33992e-06 -4.10508e-08
8.33992e-06 0.000688362 1.08378e-07
-4.10508e-08 1.08378e-07 0.000679332

0.000686579 -1.06304e-05 3.11976e-09
-1.06304e-05 0.000691786 8.73045e-08
3.11976e-09 8.73045e-08 0.000679015

0.000622495 1.92937e-05 2.68259e-08
1.92937e-05 0.000617207 2.3533e-08
2.68259e-08 2.3533e-08 0.00063362

0.000686261 -1.11802e-07 -6.82135e-08
-1.11802e-07 0.000706256 -1.19282e-08
-6.82135e-08 -1.19282e-08 0.000687818

0.000667675 -1.27006e-06 1.0882e-08
-1.27006e-06 0.00068033 -5.68376e-08
1.0882e-08 -5.68376e-08 0.000674781

0.000590985 -3.21021e-05 6.32504e-11
-3.21021e-05 0.000608265 -1.7143e-08
6.32504e-11 -1.7143e-08 0.000612557

0.000666687 -6.33242e-06 4.64856e-08
-6.33242e-06 0.000684116 3.20857e-07
4.64856e-08 3.20857e-07 0.000674681

0.0006294 -3.82455e-06 -2.33032e-07
-3.82455e-06 0.00063447 -7.9278e-08
-2.33032e-07 -7.9278e-08 0.000651137

0.000612146 -3.91523e-06 -5.90616e-08
-3.91523e-06 0.000616536 4.04472e-08
-5.90616e-08 4.04472e-08 0.000637102

0.000658171 2.84383e-06 -2.28912e-08
2.84383e-06 0.000655908 7.37802e-08
-2.28912e-08 7.37802e-08 0.000663674

0.000658082 -3.20364e-06 2.02385e-07
-3.20364e-06 0.000655444 1.25111e-07
2.02385e-07 1.25111e-07 0.000663564

0.000663785 3.36417e-06 -2.96296e-08
3.36417e-06 0.000683755 -4.40007e-09
-2.96296e-08 -4.40007e-09 0.000675639

0.000666715 7.66745e-06 2.36935e-08
7.66745e-06 0.000683482 -4.13481e-08
2.36935e-08 -4.13481e-08 0.000674778

0.000661842 -4.42938e-06 1.20974e-08
-4.42938e-06 0.000649621 1.40887e-07
1.20974e-08 1.40887e-07 0.000658331

0.00065984 5.30296e-06 1.10939e-07
5.30296e-06 0.000648525 3.86498e-08
1.10939e-07 3.86498e-08 0.000657182

0.000659381 -1.00181e-06 -3.27858e-08
-1.00181e-06 0.000667935 -7.84122e-08
-3.27858e-08 -7.84122e-08 0.000668341

0.000658358 3.36808e-07 -3.11362e-08
3.36808e-07 0.000668834 -1.23412e-07
-3.11362e-08 -1.23412e-07 0.000668249

0.000690466 2.16276e-06 -6.18151e-08
2.16276e-06 0.00070232 -1.37436e-09
-6.18151e-08 -1.37436e-09 0.000687883

0.000689694 -1.39617e-06 -7.09761e-08
-1.39617e-06 0.000702257 -7.73911e-09
-7.09761e-08 -7.73911e-09 0.000687889

0.000678449 -1.15968e-05 -1.0207e-09
-1.15968e-05 0.000687928 -4.38321e-08
-1.0207e-09 -4.38321e-08 0.000676208

0.000608904 -5.22559e-05 -4.87547e-08
-5.22559e-05 0.000591921 3.62677e-08
-4.87547e-08 3.62677e-08 0.000610947

0.000594045 8.06543e-07 -7.28479e-08
8.06543e-07 0.000616976 1.17719e-08
-7.28479e-08 1.17719e-08 0.000635692

0.00063349 1.96072e-06 -3.49075e-08
1.96072e-06 0.000631688 3.83786e-08
-3.49075e-08 3.83786e-08 0.000651137

0.000654575 -5.29472e-06 8.41357e-08
-5.29472e-06 0.000667002 -1.71329e-07
8.41357e-08 -1.71329e-07 0.00066449

0.000694076 7.26996e-06 -2.94527e-08
7.26996e-06 0.000701541 -1.31896e-07
-2.94527e-08 -1.31896e-07 0.000688255

0.000696051 -7.75426e-06 -2.25538e-08
-7.75426e-06 0.000701835 1.50048e-07
-2.25538e-08 1.50048e-07 0.000688253

0.000683817 9.24473e-06 -7.76548e-08
9.24473e-06 0.000695661 -5.9458e-08
-7.76548e-08 -5.9458e-08 0.00068406

0.000684507 -9.60576e-06 -8.83465e-08
-9.60576e-06 0.000695878 6.58737e-08
-8.83465e-08 6.58737e-08 0.000684059

0.000643574 -1.38868e-06 -9.69617e-08
-1.38868e-06 0.000654374 -1.16691e-07
-9.69617e-08 -1.16691e-07 0.000660519

0.000656693 -1.08834e-06 -9.36211e-08
-1.08834e-06 0.000666697 -1.39377e-07
-9.36211e-08 -1.39377e-07 0.000668303

0.000654688 6.03382e-06 -2.4221e-08
6.03382e-06 0.000667551 7.77174e-08
-2.4221e-08 7.77174e-08 0.000664472

0.00070796 -1.18936e-07 9.61388e-08
-1.18936e-07 0.000715186 -8.96042e-09
9.61388e-08 -8.96042e-09 0.000692676

0.00070796 -4.48252e-08 9.26094e-08
-4.48252e-08 0.0007148 8.04055e-09
9.26094e-08 8.04055e-09 0.000692673

0.000678053 -8.25972e-06 1.25979e-07
-8.25972e-06 0.00068852 -2.52856e-08
1.25979e-07 -2.52856e-08 0.000679507

0.000638697 -3.21868e-06 -4.49815e-08
-3.21868e-06 0.000618894 6.71012e-08
-4.49815e-08 6.71012e-08 0.000650184

0.000675461 4.70469e-06 1.13724e-07
4.70469e-06 0.000690755 -1.34951e-07
1.13724e-07 -1.34951e-07 0.000680634

0.000644542 -2.86054e-05 1.27078e-07
-2.86054e-05 0.000624489 2.83516e-08
1.27078e-07 2.83516e-08 0.000644438

0.000672759 1.43373e-05 -1.52544e-08
1.43373e-05 0.000667575 5.43299e-08
-1.52544e-08 5.43299e-08 0.000664789

0.000625841 2.03416e-06 -1.22151e-07
2.03416e-06 0.00062761 -1.63722e-07
-1.22151e-07 -1.63722e-07 0.000648327

0.00068856 1.10936e-05 4.58862e-08
1.10936e-05 0.00069171 -1.46829e-07
4.58862e-08 -1.46829e-07 0.000679089

0.000677113 8.01652e-06 -4.62688e-08
8.01652e-06 0.000688687 1.77663e-07
-4.62688e-08 1.77663e-07 0.00067948

0.000573599 5.17727e-05 -1.36521e-07
5.17727e-05 0.000594365 -1.32166e-08
-1.36521e-07 -1.32166e-08 0.000604564

0.000705974 -9.27666e-07 1.35244e-07
-9.27666e-07 0.0006804 1.19315e-07
1.35244e-07 1.19315e-07 0.000664586

0.000689737 2.57495e-05 -1.35621e-07
2.57495e-05 0.00059176 -2.58199e-08
-1.35621e-07 -2.58199e-08 0.000630469

0.000678373 1.23624e-05 8.17925e-08
1.23624e-05 0.000687967 3.55919e-08
8.17925e-08 3.55919e-08 0.000676303

0.000604634 2.48089e-05 -1.64684e-08
2.48089e-05 0.000615514 3.79306e-08
-1.64684e-08 3.79306e-08 0.000631211

0.000626266 -3.20559e-06 3.63069e-08
-3.20559e-06 0.000617736 -2.42225e-08
3.63069e-08 -2.42225e-08 0.000645995

0.000695893 -1.6186e-05 2.7992e-09
-1.6186e-05 0.000684344 8.78399e-08
2.7992e-09 8.78399e-08 0.000675572

0.00063063 -2.44588e-05 1.49155e-07
-2.44588e-05 0.000620693 -8.64196e-08
1.49155e-07 -8.64196e-08 0.000642675

0.000643816 1.68043e-05 -3.27777e-08
1.68043e-05 0.000640762 1.16602e-07
-3.27777e-08 1.16602e-07 0.000653688

0.000678936 -4.41619e-06 1.85641e-07
-4.41619e-06 0.000694489 2.61357e-08
1.85641e-07 2.61357e-08 0.000681268

0.000661939 -1.21915e-05 -5.75065e-08
-1.21915e-05 0.00065691 1.73663e-07
-5.75065e-08 1.73663e-07 0.000662782

0.000703633 1.89509e-05 -1.04713e-07
1.89509e-05 0.000681512 1.39401e-07
-1.04713e-07 1.39401e-07 0.000669465

0.000638589 1.5322e-06 -8.51299e-08
1.5322e-06 0.000640162 5.52624e-08
-8.51299e-08 5.52624e-08 0.000656217

0.000640958 -1.22809e-06 -1.79158e-07
-1.22809e-06 0.000632082 -4.0502e-08
-1.79158e-07 -4.0502e-08 0.000654568

0.00067844 4.16438e-06 1.86427e-07
4.16438e-06 0.000694305 -2.13072e-08
1.86427e-07 -2.13072e-08 0.000681271

0.000679223 6.21749e-08 -1.89387e-07
6.21749e-08 0.000694692 2.99168e-08
-1.89387e-07 2.99168e-08 0.000683037

0.000725754 5.98973e-06 -7.19639e-07
5.98973e-06 0.000719681 -1.8801e-07
-7.19639e-07 -1.8801e-07 0.000694073

0.00071944 -3.12182e-06 -7.20815e-07
-3.12182e-06 0.000719681 1.87096e-07
-7.20815e-07 1.87096e-07 0.00069407

0.000677923 5.2048e-06 -5.81133e-08
5.2048e-06 0.000681084 -3.27252e-08
-5.81133e-08 -3.27252e-08 0.000672655

0.000608699 -2.99456e-05 8.63749e-08
-2.99456e-05 0.000629418 1.85473e-07
8.63749e-08 1.85473e-07 0.000631641

0.000609545 2.98886e-05 -2.75408e-08
2.98886e-05 0.000630444 5.68421e-08
-2.75408e-08 5.68421e-08 0.000631665

0.000640984 -3.89959e-06 -7.54212e-08
-3.89959e-06 0.000567654 6.15405e-08
-7.54212e-08 6.15405e-08 0.000629025

0.000571461 -5.07379e-05 7.2474e-08
-5.07379e-05 0.000595627 8.91658e-08
7.2474e-08 8.91658e-08 0.000604147

0.000655487 3.4303e-06 2.03265e-08
3.4303e-06 0.000665746 1.30818e-07
2.03265e-08 1.30818e-07 0.000667303

0.00064047 2.34384e-07 1.53552e-07
2.34384e-07 0.000631511 4.71811e-08
1.53552e-07 4.71811e-08 0.000654387

0.000653867 5.64264e-06 1.47075e-08
5.64264e-06 0.000660539 -1.19833e-07
1.47075e-08 -1.19833e-07 0.000665476

0.000654197 -5.91817e-06 4.87667e-09
-5.91817e-06 0.000660638 -8.86654e-08
4.87667e-09 -8.86654e-08 0.000665747

0.000662208 2.55626e-06 -1.13547e-07
2.55626e-06 0.000669839 -2.76495e-09
-1.13547e-07 -2.76495e-09 0.00067071

0.000695887 1.48711e-05 1.39144e-07
1.48711e-05 0.000684505 5.4917e-09
1.39144e-07 5.4917e-09 0.000675521

0.000645465 5.2898e-06 -8.79038e-08
5.2898e-06 0.000647314 -4.82612e-08
-8.79038e-08 -4.82612e-08 0.00065964

0.000662747 1.59588e-06 -5.90115e-09
1.59588e-06 0.000667595 -1.19766e-07
-5.90115e-09 -1.19766e-07 0.000670263

0.000685348 -1.76239e-05 -7.04206e-08
-1.76239e-05 0.000623875 2.79351e-08
-7.04206e-08 2.79351e-08 0.000633652

0.000721596 1.93509e-05 -6.29826e-08
1.93509e-05 0.00067561 7.13344e-08
-6.29826e-08 7.13344e-08 0.000661379

0.000631294 -2.10432e-05 -5.18316e-08
-2.10432e-05 0.000595925 -1.07201e-08
-5.18316e-08 -1.07201e-08 0.000633339

0.000639357 -3.42657e-06 -1.09017e-08
-3.42657e-06 0.000506026 9.35527e-08
-1.09017e-08 9.35527e-08 0.00060079

0.000656642 -8.09269e-06 1.67856e-08
-8.09269e-06 0.000669319 3.48781e-07
1.67856e-08 3.48781e-07 0.000667531

0.000656932 7.95757e-06 -4.90683e-08
7.95757e-06 0.000669904 4.24902e-08
-4.90683e-08 4.24902e-08 0.000667789

0.000640873 -2.50986e-06 -5.95619e-08
-2.50986e-06 0.0005558 -2.50168e-08
-5.95619e-08 -2.50168e-08 0.000628398

0.00066802 1.18527e-05 -2.57021e-08
1.18527e-05 0.000676739 -5.80208e-08
-2.57021e-08 -5.80208e-08 0.000669621

0.000701102 6.11932e-06 4.0654e-08
6.11932e-06 0.000710006 5.64259e-08
4.0654e-08 5.64259e-08 0.000691441

0.000699265 -7.17845e-06 3.93598e-08
-7.17845e-06 0.000710062 -5.47117e-08
3.93598e-08 -5.47117e-08 0.000691437

0.000614818 -8.1561e-06 -4.6434e-08
-8.1561e-06 0.000616387 -1.18578e-08
-4.6434e-08 -1.18578e-08 0.000637234

0.000603032 -2.53722e-05 -6.52974e-08
-2.53722e-05 0.000615717 1.12027e-08
-6.52974e-08 1.12027e-08 0.000631043

0.000631309 -2.19818e-05 -6.27518e-08
-2.19818e-05 0.000575102 -1.22489e-07
-6.27518e-08 -1.22489e-07 0.00063157

0.000636285 5.20768e-07 -8.84962e-08
5.20768e-07 0.000618897 -5.19357e-08
-8.84962e-08 -5.19357e-08 0.000649497

0.000620254 -1.87663e-05 -7.21307e-09
-1.87663e-05 0.000618179 3.72244e-08
-7.21307e-09 3.72244e-08 0.000633302

0.00063967 -4.00573e-06 2.8165e-08
-4.00573e-06 0.000640671 -2.19218e-07
2.8165e-08 -2.19218e-07 0.000657907

0.000643069 -1.60142e-05 -1.11341e-07
-1.60142e-05 0.000643149 8.81474e-08
-1.11341e-07 8.81474e-08 0.000654061

0.000663229 1.22521e-05 -7.05659e-08
1.22521e-05 0.000653 -2.52855e-08
-7.05659e-08 -2.52855e-08 0.00066222

0.00070729 -1.90731e-05 -1.29165e-07
-1.90731e-05 0.000664983 3.38603e-07
-1.29165e-07 3.38603e-07 0.000652767

0.000699843 1.33767e-05 1.27529e-07
1.33767e-05 0.000663226 -3.72315e-08
1.27529e-07 -3.72315e-08 0.000651211

0.000690901 6.70492e-08 -7.55972e-08
6.70492e-08 0.000707051 1.66296e-08
-7.55972e-08 1.66296e-08 0.000689297

0.000688804 -1.22151e-07 -6.76322e-08
-1.22151e-07 0.000707091 -3.38032e-09
-6.76322e-08 -3.38032e-09 0.000689302

0.000601423 -1.39306e-05 -7.17881e-09
-1.39306e-05 0.000613899 5.43494e-09
-7.17881e-09 5.43494e-09 0.000634896

0.000599022 1.45123e-05 1.75305e-07
1.45123e-05 0.000615598 -7.33112e-08
1.75305e-07 -7.33112e-08 0.000634492

0.00059776 -7.26989e-06 1.48904e-07
-7.26989e-06 0.000636294 -8.2932e-08
1.48904e-07 -8.2932e-08 0.000624571

0.000598978 8.06072e-06 -1.122e-08
8.06072e-06 0.0006359 1.2625e-07
-1.122e-08 1.2625e-07 0.000624493

0.000712745 1.99431e-06 3.16925e-07
1.99431e-06 0.000719258 -1.27372e-07
3.16925e-07 -1.27372e-07 0.000693369

0.000717754 3.03441e-07 3.14376e-07
3.03441e-07 0.000719286 1.26539e-07
3.14376e-07 1.26539e-07 0.000693366

0.000699679 1.09457e-05 3.69878e-08
1.09457e-05 0.000691318 -1.45035e-07
3.69878e-08 -1.45035e-07 0.000683113

0.000699103 -1.03567e-05 6.10663e-08
-1.03567e-05 0.00069131 9.99389e-08
6.10663e-08 9.99389e-08 0.00068312

0.000675017 -2.55678e-06 1.01384e-07
-2.55678e-06 0.000692089 7.42761e-08
1.01384e-07 7.42761e-08 0.000680282

0.000649395 -1.15404e-05 1.06552e-07
-1.15404e-05 0.000629505 -1.12927e-07
1.06552e-07 -1.12927e-07 0.000647148

0.000668896 2.96315e-06 -3.54239e-08
2.96315e-06 0.000666496 -6.34709e-08
-3.54239e-08 -6.34709e-08 0.000665409

0.000636103 -5.47625e-06 -7.43852e-08
-5.47625e-06 0.00062368 8.66613e-08
-7.43852e-08 8.66613e-08 0.000650022

0.000674407 1.89343e-06 -6.45469e-08
1.89343e-06 0.000692127 9.01158e-08
-6.45469e-08 9.01158e-08 0.000680297

0.000645266 9.44637e-06 3.28273e-10
9.44637e-06 0.000633447 1.32323e-07
3.28273e-10 1.32323e-07 0.000647185

0.000668455 -3.67729e-06 -2.80282e-07
-3.67729e-06 0.000687437 3.08246e-08
-2.80282e-07 3.08246e-08 0.000677087

0.000558341 -3.22896e-05 -1.2783e-07
-3.22896e-05 0.000611836 2.44256e-08
-1.2783e-07 2.44256e-08 0.000608652

0.000558509 3.2315e-05 -1.11972e-07
3.2315e-05 0.000610783 -1.44128e-07
-1.11972e-07 -1.44128e-07 0.000608718

0.000670719 3.69022e-06 -1.97685e-07
3.69022e-06 0.000687371 1.51216e-07
-1.97685e-07 1.51216e-07 0.000677058

0.000629462 2.39791e-05 8.35711e-08
2.39791e-05 0.000596726 9.33826e-08
8.35711e-08 9.33826e-08 0.000632802

0.00079687 4.3209e-06 -3.10621e-07
4.3209e-06 0.000600042 1.77679e-07
-3.10621e-07 1.77679e-07 0.000641817

0.000762289 -1.13763e-05 1.25718e-07
-1.13763e-05 0.000719064 -1.40269e-07
1.25718e-07 -1.40269e-07 0.000653676

0.000687028 4.97955e-06 1.09576e-07
4.97955e-06 0.000673702 -3.08573e-08
1.09576e-07 -3.08573e-08 0.000667811

0.000613414 -1.83444e-05 -4.64889e-08
-1.83444e-05 0.000596233 -1.25951e-08
-4.64889e-08 -1.25951e-08 0.000638091

0.000636325 -3.50656e-05 -2.81219e-08
-3.50656e-05 0.000584767 -2.54304e-09
-2.81219e-08 -2.54304e-09 0.000621432

0.00065539 -1.56466e-06 -9.04864e-09
-1.56466e-06 0.000660003 1.05825e-07
-9.04864e-09 1.05825e-07 0.000666182

0.000652432 5.01366e-07 -9.59782e-08
5.01366e-07 0.00066968 -2.00615e-09
-9.59782e-08 -2.00615e-09 0.000668356

0.000697694 3.11324e-06 -1.89415e-07
3.11324e-06 0.000704144 -1.24688e-07
-1.89415e-07 -1.24688e-07 0.000689966

0.000697365 -3.9264e-06 -1.96128e-07
-3.9264e-06 0.000704196 1.47768e-07
-1.96128e-07 1.47768e-07 0.000689966

0.000636594 3.48496e-05 -1.03334e-07
3.48496e-05 0.000586109 -3.30875e-08
-1.03334e-07 -3.30875e-08 0.000621409

0.000670016 -3.454e-06 -1.57135e-07
-3.454e-06 0.000665448 9.94075e-08
-1.57135e-07 9.94075e-08 0.000666041

0.00067024 -7.7158e-06 -3.66953e-08
-7.7158e-06 0.000687051 -2.87286e-08
-3.66953e-08 -2.87286e-08 0.000677962

0.000687897 1.07857e-05 9.36039e-09
1.07857e-05 0.000698401 9.03629e-09
9.36039e-09 9.03629e-09 0.000685119

0.00068816 -1.05173e-05 1.5076e-08
-1.05173e-05 0.000698102 -2.97149e-08
1.5076e-08 -2.97149e-08 0.000685116

0.000647078 -5.11587e-05 -1.59353e-07
-5.11587e-05 0.000620616 -2.81047e-07
-1.59353e-07 -2.81047e-07 0.000628616

0.000645201 5.21082e-05 3.65411e-08
5.21082e-05 0.000620616 2.10452e-07
3.65411e-08 2.10452e-07 0.000628626

0.000681137 1.46596e-05 -7.02746e-08
1.46596e-05 0.000682465 -1.03369e-07
-7.02746e-08 -1.03369e-07 0.000671466

0.000626341 -6.5008e-06 -3.34778e-10
-6.5008e-06 0.000606971 2.5378e-08
-3.34778e-10 2.5378e-08 0.000639802

0.000692545 8.72422e-06 1.74162e-07
8.72422e-06 0.00070644 8.71198e-08
1.74162e-07 8.71198e-08 0.000689103

0.000691827 -7.63761e-06 1.95848e-07
-7.63761e-06 0.000706385 -8.27098e-08
1.95848e-07 -8.27098e-08 0.000689101

0.000650802 -2.26611e-05 1.81931e-08
-2.26611e-05 0.000613196 1.04061e-07
1.81931e-08 1.04061e-07 0.000634196

0.000621845 -4.38164e-05 9.23423e-10
-4.38164e-05 0.000591875 1.01197e-07
9.23423e-10 1.01197e-07 0.000613295

0.000648472 -6.33676e-06 1.45899e-07
-6.33676e-06 0.000657755 -3.12159e-08
1.45899e-07 -3.12159e-08 0.000664633

0.000581791 2.96217e-06 -1.56122e-07
2.96217e-06 0.000634565 -5.51962e-08
-1.56122e-07 -5.51962e-08 0.000621306

0.000581429 -3.2727e-06 -7.98862e-08
-3.2727e-06 0.000634494 1.21761e-07
-7.98862e-08 1.21761e-07 0.000621233

0.000612878 -4.30928e-05 2.61992e-09
-4.30928e-05 0.00060401 9.90837e-08
2.61992e-09 9.90837e-08 0.000627533

0.000670854 6.8098e-06 2.01787e-07
6.8098e-06 0.00068649 -1.25824e-07
2.01787e-07 -1.25824e-07 0.000678216

0.000613906 8.35651e-06 -1.1124e-07
8.35651e-06 0.000617214 1.16806e-07
-1.1124e-07 1.16806e-07 0.000636744

0.000590748 2.73629e-06 -3.04723e-08
2.73629e-06 0.000623058 8.40868e-08
-3.04723e-08 8.40868e-08 0.000629552

0.000589164 -3.01047e-06 1.55063e-07
-3.01047e-06 0.000623569 -1.49614e-07
1.55063e-07 -1.49614e-07 0.000629384

0.000629446 2.71574e-05 8.37132e-08
2.71574e-05 0.000570138 3.59476e-08
8.37132e-08 3.59476e-08 0.000630649

0.000696421 5.52892e-06 -2.17377e-07
5.52892e-06 0.000711569 1.42891e-08
-2.17377e-07 1.42891e-08 0.000691358

0.000696421 -5.52892e-06 -2.29241e-07
-5.52892e-06 0.000711569 -1.68142e-08
-2.29241e-07 -1.68142e-08 0.000691354

0.000722596 -1.51285e-06 1.42706e-07
-1.51285e-06 0.00068852 -2.82773e-07
1.42706e-07 -2.82773e-07 0.000647635

0.000720648 2.4652e-05 1.16331e-08
2.4652e-05 0.000688834 -2.43916e-08
1.16331e-08 -2.43916e-08 0.000652213

0.000645817 2.03067e-06 1.08602e-07
2.03067e-06 0.000655615 1.14069e-08
1.08602e-07 1.14069e-08 0.000661258

0.000648502 -1.29961e-06 8.68218e-08
-1.29961e-06 0.000630513 -8.40621e-09
8.68218e-08 -8.40621e-09 0.00065415

0.000686642 9.5046e-06 -1.18759e-08
9.5046e-06 0.000697105 1.43209e-07
-1.18759e-08 1.43209e-07 0.000682344

0.000685075 -1.01079e-05 8.06397e-09
-1.01079e-05 0.000697149 -1.25014e-07
8.06397e-09 -1.25014e-07 0.000682346

0.00068533 1.05247e-05 -1.82942e-07
1.05247e-05 0.000685933 5.07046e-08
-1.82942e-07 5.07046e-08 0.000672493

0.000650165 2.65184e-06 1.49385e-07
2.65184e-06 0.000656764 6.00475e-09
1.49385e-07 6.00475e-09 0.000663395

0.000658347 -1.03762e-06 -5.83267e-08
-1.03762e-06 0.000659163 -6.29554e-08
-5.83267e-08 -6.29554e-08 0.000667497

0.000718227 -7.03674e-06 4.1226e-07
-7.03674e-06 0.000727795 -8.42293e-07
4.1226e-07 -8.42293e-07 0.000694379

0.000718227 7.03674e-06 4.132e-07
7.03674e-06 0.000727795 8.41165e-07
4.132e-07 8.41165e-07 0.000694382

0.000593247 -1.09801e-06 -1.80131e-07
-1.09801e-06 0.000616116 5.80437e-08
-1.80131e-07 5.80437e-08 0.000635205

0.000677599 7.73073e-06 -1.89277e-07
7.73073e-06 0.000681071 1.65594e-07
-1.89277e-07 1.65594e-07 0.000675682

0.000687507 7.26033e-06 1.16575e-08
7.26033e-06 0.000694837 1.02318e-08
1.16575e-08 1.02318e-08 0.000682482

0.000686188 -6.75071e-06 2.24115e-08
-6.75071e-06 0.000694718 -3.35291e-08
2.24115e-08 -3.35291e-08 0.000682484

0.000676304 5.73125e-06 5.22999e-08
5.73125e-06 0.000688659 -1.54969e-07
5.22999e-08 -1.54969e-07 0.000677323

0.000675163 -7.45767e-06 -2.1205e-07
-7.45767e-06 0.000680549 -8.67377e-08
-2.1205e-07 -8.67377e-08 0.000675668

0.000647062 -5.06257e-07 -1.255e-08
-5.06257e-07 0.000657707 -1.27215e-07
-1.255e-08 -1.27215e-07 0.00066181

0.00064751 -4.72223e-07 -6.32707e-08
-4.72223e-07 0.000659344 -7.98746e-08
-6.32707e-08 -7.98746e-08 0.000662099

0.000659957 -1.53238e-06 -1.16607e-07
-1.53238e-06 0.000675929 -1.58187e-08
-1.16607e-07 -1.58187e-08 0.000671812

0.000675723 -4.24323e-06 -3.91476e-08
-4.24323e-06 0.00068869 1.63849e-07
-3.91476e-08 1.63849e-07 0.000677309

0.00064873 -4.56828e-06 9.04139e-08
-4.56828e-06 0.00064784 1.03402e-07
9.04139e-08 1.03402e-07 0.000660394

0.000636487 2.58232e-06 -9.12679e-08
2.58232e-06 0.000629388 3.06936e-08
-9.12679e-08 3.06936e-08 0.000652206

0.000692823 8.91831e-06 -3.60923e-08
8.91831e-06 0.000697075 1.48344e-07
-3.60923e-08 1.48344e-07 0.000685148

0.000695165 -9.07162e-06 -2.63039e-08
-9.07162e-06 0.000697172 -1.31657e-07
-2.63039e-08 -1.31657e-07 0.000685146

0.000690812 6.55271e-06 -5.45131e-08
6.55271e-06 0.000704357 8.54557e-08
-5.45131e-08 8.54557e-08 0.000686838

0.000692498 -5.44006e-06 -3.77201e-08
-5.44006e-06 0.000704043 -9.20789e-08
-3.77201e-08 -9.20789e-08 0.000686835

0.000639449 -5.16054e-06 4.23184e-08
-5.16054e-06 0.000648926 -3.20223e-08
4.23184e-08 -3.20223e-08 0.000658866

0.000640935 -4.24333e-06 -4.80018e-08
-4.24333e-06 0.000640625 -2.2529e-07
-4.80018e-08 -2.2529e-07 0.000655409

0.000680289 -1.02871e-05 1.79619e-07
-1.02871e-05 0.00069268 7.92901e-08
1.79619e-07 7.92901e-08 0.000680489

0.000680017 1.15311e-05 1.7735e-07
1.15311e-05 0.000692546 -1.07222e-07
1.7735e-07 -1.07222e-07 0.000680489

0.000722822 -6.1286e-06 1.90248e-07
-6.1286e-06 0.000622409 1.27567e-08
1.90248e-07 1.27567e-08 0.000646462

0.000712847 -4.71692e-07 2.61971e-08
-4.71692e-07 0.000677949 6.61412e-08
2.61971e-08 6.61412e-08 0.000656012

0.000694771 5.7991e-06 7.38141e-08
5.7991e-06 0.000702047 -3.96656e-08
7.38141e-08 -3.96656e-08 0.000686159

0.000695845 -6.99116e-06 8.08354e-08
-6.99116e-06 0.00070206 3.82162e-08
8.08354e-08 3.82162e-08 0.000686156

0.000700706 4.24768e-06 5.23584e-08
4.24768e-06 0.000708849 1.6316e-07
5.23584e-08 1.6316e-07 0.000691031

0.000698493 -3.60851e-06 5.23057e-08
-3.60851e-06 0.000708818 -1.72204e-07
5.23057e-08 -1.72204e-07 0.000691026

0.000598015 -7.69303e-06 -7.45514e-08
-7.69303e-06 0.000623429 -1.5301e-07
-7.45514e-08 -1.5301e-07 0.000629067

0.000599359 7.8118e-06 -3.87185e-08
7.8118e-06 0.00062274 8.43386e-08
-3.87185e-08 8.43386e-08 0.000629408

0.000690654 -4.3775e-05 -7.96813e-08
-4.3775e-05 0.000632171 1.17727e-07
-7.96813e-08 1.17727e-07 0.0006303

0.000603229 2.42257e-06 5.40493e-10
2.42257e-06 0.000641634 1.18183e-07
5.40493e-10 1.18183e-07 0.000621921

0.00070769 1.27099e-06 -2.05363e-08
1.27099e-06 0.000715447 1.38632e-07
-2.05363e-08 1.38632e-07 0.000692909

0.000717058 -3.29678e-06 1.31585e-07
-3.29678e-06 0.000715878 -2.1406e-09
1.31585e-07 -2.1406e-09 0.000693818

0.00070769 -1.37783e-06 -1.5349e-08
-1.37783e-06 0.000715606 -1.36185e-07
-1.5349e-08 -1.36185e-07 0.000692912

0.000717058 3.38307e-06 1.32354e-07
3.38307e-06 0.000716395 4.9963e-10
1.32354e-07 4.9963e-10 0.000693821

0.000719765 2.68622e-05 -4.5749e-08
2.68622e-05 0.000702076 -9.57574e-08
-4.5749e-08 -9.57574e-08 0.000659667

0.00060394 -1.57091e-06 -1.55965e-07
-1.57091e-06 0.00064118 -2.8948e-07
-1.55965e-07 -2.8948e-07 0.000621919

0.000710667 -4.78151e-06 -1.0907e-06
-4.78151e-06 0.000712674 -1.73811e-06
-1.0907e-06 -1.73811e-06 0.000692119

0.000704241 -1.9698e-06 -2.26231e-06
-1.9698e-06 0.000727181 1.31268e-06
-2.26231e-06 1.31268e-06 0.000694272

0.000757708 1.06268e-05 -2.26094e-06
1.06268e-05 0.00072045 -1.31315e-06
-2.26094e-06 -1.31315e-06 0.000694274

0.000721258 -5.86233e-06 -1.08878e-06
-5.86233e-06 0.000717136 1.7389e-06
-1.08878e-06 1.7389e-06 0.000692122

0.000715927 -2.33574e-06 2.19653e-07
-2.33574e-06 0.000708004 2.48113e-07
2.19653e-07 2.48113e-07 0.000691418

0.0007025 -1.04618e-05 -5.79192e-08
-1.04618e-05 0.00070313 6.4306e-08
-5.79192e-08 6.4306e-08 0.00068934

0.00071566 -3.63489e-06 2.7948e-07
-3.63489e-06 0.000725757 -2.89309e-08
2.7948e-07 -2.89309e-08 0.000693585

0.000713244 3.22391e-06 2.22018e-07
3.22391e-06 0.000708004 -2.47994e-07
2.22018e-07 -2.47994e-07 0.000691421

0.000712199 2.6029e-06 2.81831e-07
2.6029e-06 0.000724658 2.89834e-08
2.81831e-07 2.89834e-08 0.000693589

0.000704989 9.6376e-06 -5.57855e-08
9.6376e-06 0.000703129 -6.4034e-08
-5.57855e-08 -6.4034e-08 0.000689344

0.000705875 3.92564e-06 -6.36222e-08
3.92564e-06 0.000710161 3.19906e-08
-6.36222e-08 3.19906e-08 0.000690676

0.000709706 7.20066e-06 1.07075e-07
7.20066e-06 0.000711829 8.51513e-08
1.07075e-07 8.51513e-08 0.000692533

0.000703578 -3.56801e-06 -6.59475e-08
-3.56801e-06 0.000710161 -3.40666e-08
-6.59475e-08 -3.40666e-08 0.000690672

0.000709706 -7.39383e-06 1.0364e-07
-7.39383e-06 0.000711949 -8.68817e-08
1.0364e-07 -8.68817e-08 0.000692529

0.000370653 4.78832e-05 -5.57381e-09
4.78832e-05 0.000478754 1.48856e-08
-5.57381e-09 1.48856e-08 0.000417194

0.000519455 7.83353e-06 -2.78434e-08
7.83353e-06 0.000558015 2.49635e-09
-2.78434e-08 2.49635e-09 0.000527149

0.000415386 1.36901e-05 -4.02793e-08
1.36901e-05 0.000557647 9.35122e-08
-4.02793e-08 9.35122e-08 0.000495432

0.000517951 2.48193e-05 -2.58223e-08
2.48193e-05 0.000368914 -6.25636e-08
-2.58223e-08 -6.25636e-08 0.000443896

0.000500595 7.04288e-06 9.68307e-08
7.04288e-06 0.000354604 4.94263e-09
9.68307e-08 4.94263e-09 0.000412365

0.000521587 -5.41182e-06 -2.68884e-08
-5.41182e-06 0.000577736 -8.62214e-09
-2.68884e-08 -8.62214e-09 0.000562015

0.000413902 2.04294e-05 -3.73749e-08
2.04294e-05 0.000601626 5.97194e-08
-3.73749e-08 5.97194e-08 0.000524268

0.000504144 -6.69757e-06 1.01917e-07
-6.69757e-06 0.00036913 -3.15403e-08
1.01917e-07 -3.15403e-08 0.000415324

0.000582876 5.42535e-06 -5.71171e-08
5.42535e-06 0.000405954 -1.05558e-07
-5.71171e-08 -1.05558e-07 0.000501411

0.000304001 4.27079e-05 5.51691e-08
4.27079e-05 0.000397732 -1.68182e-07
5.51691e-08 -1.68182e-07 0.000333532

0.000327021 -6.97472e-05 -4.91911e-08
-6.97472e-05 0.000401417 -4.85967e-09
-4.91911e-08 -4.85967e-09 0.000331366

0.000406834 4.35649e-05 -1.86504e-08
4.35649e-05 0.000318025 1.27625e-08
-1.86504e-08 1.27625e-08 0.000339037

0.000535811 -7.95148e-05 2.61534e-09
-7.95148e-05 0.000584055 -6.75138e-08
2.61534e-09 -6.75138e-08 0.000550968

0.00049791 -2.76243e-05 -5.10475e-08
-2.76243e-05 0.000576226 -1.10135e-07
-5.10475e-08 -1.10135e-07 0.000533546

0.000370569 4.13043e-05 -4.93191e-09
4.13043e-05 0.000500306 1.1727e-07
-4.93191e-09 1.1727e-07 0.00044959

0.000390634 4.77629e-05 -1.82653e-08
4.77629e-05 0.000538913 -8.28709e-10
-1.82653e-08 -8.28709e-10 0.0004945

0.000412341 -2.34973e-05 -1.36727e-08
-2.34973e-05 0.000603141 -1.32975e-07
-1.36727e-08 -1.32975e-07 0.000522462

0.000494608 -5.94225e-05 -6.54257e-08
-5.94225e-05 0.000574854 -2.61496e-08
-6.54257e-08 -2.61496e-08 0.000544053

0.00051815 -4.20659e-05 9.88006e-08
-4.20659e-05 0.000382599 -7.91853e-08
9.88006e-08 -7.91853e-08 0.000463674

0.000319805 1.35538e-05 -6.54661e-08
1.35538e-05 0.000451367 6.59956e-08
-6.54661e-08 6.59956e-08 0.000360076

0.000357161 -2.71708e-05 -6.58099e-09
-2.71708e-05 0.000453806 7.69536e-08
-6.58099e-09 7.69536e-08 0.000366607

0.000447548 1.04563e-05 2.38215e-08
1.04563e-05 0.000343787 -1.45987e-08
2.38215e-08 -1.45987e-08 0.000363569

0.000382194 5.56442e-05 8.63975e-08
5.56442e-05 0.000447499 -8.67682e-08
8.63975e-08 -8.67682e-08 0.000414646

0.000467238 -3.8116e-05 1.49925e-07
-3.8116e-05 0.000348633 -1.04247e-08
1.49925e-07 -1.04247e-08 0.00038835

0.000436804 6.10499e-05 6.46289e-08
6.10499e-05 0.000447915 -8.79089e-08
6.46289e-08 -8.79089e-08 0.000444179

0.000456247 4.27658e-05 6.3731e-09
4.27658e-05 0.000487027 -5.62568e-08
6.3731e-09 -5.62568e-08 0.000443138

0.000532845 -1.28352e-05 -5.93871e-08
-1.28352e-05 0.000369458 3.28173e-08
-5.93871e-08 3.28173e-08 0.000449029

0.000298287 2.86749e-05 2.07993e-07
2.86749e-05 0.000365347 1.14979e-07
2.07993e-07 1.14979e-07 0.000297663

0.000559245 1.42809e-05 5.74014e-08
1.42809e-05 0.000396395 -4.10336e-08
5.74014e-08 -4.10336e-08 0.000490642

0.000362349 2.69339e-05 1.93753e-07
2.69339e-05 0.00031349 1.33468e-07
1.93753e-07 1.33468e-07 0.000303426

0.000562963 -2.70432e-05 -3.38261e-08
-2.70432e-05 0.000588301 -5.92553e-09
-3.38261e-08 -5.92553e-09 0.000566045

0.000496353 3.03442e-06 1.64691e-07
3.03442e-06 0.000602691 -1.88242e-08
1.64691e-07 -1.88242e-08 0.000534894

0.000623022 -2.93708e-05 2.08843e-07
-2.93708e-05 0.000574264 -3.66235e-08
2.08843e-07 -3.66235e-08 0.000566712

0.000592004 7.086e-05 2.138e-07
7.086e-05 0.000598923 -7.90716e-08
2.138e-07 -7.90716e-08 0.000567422

0.000438504 -1.85315e-05 3.64686e-09
-1.85315e-05 0.000335988 6.63875e-08
3.64686e-09 6.63875e-08 0.000348657

0.00042796 6.54202e-05 4.32187e-08
6.54202e-05 0.000470633 -1.13242e-07
4.32187e-08 -1.13242e-07 0.000470024

0.000533019 3.71598e-05 -1.06153e-08
3.71598e-05 0.000522488 -2.59671e-08
-1.06153e-08 -2.59671e-08 0.000535061

0.000552332 -1.01471e-05 -6.478e-08
-1.01471e-05 0.000537391 9.54475e-08
-6.478e-08 9.54475e-08 0.000537201

0.000585661 5.91329e-06 -4.74724e-08
5.91329e-06 0.000397083 -3.64031e-08
-4.74724e-08 -3.64031e-08 0.000503065

0.000432946 6.10367e-05 2.61178e-08
6.10367e-05 0.000479719 -8.25761e-08
2.61178e-08 -8.25761e-08 0.000438151

0.00046297 -4.84172e-05 1.52147e-07
-4.84172e-05 0.000400317 4.33378e-09
1.52147e-07 4.33378e-09 0.00039983

0.000583683 -7.27659e-07 -6.9141e-08
-7.27659e-07 0.000379366 1.00866e-07
-6.9141e-08 1.00866e-07 0.000492327

0.000400468 -8.30778e-05 -3.12406e-08
-8.30778e-05 0.000479305 -1.60254e-07
-3.12406e-08 -1.60254e-07 0.00041382

0.000410812 -7.23659e-05 9.90716e-08
-7.23659e-05 0.000490382 -2.03308e-08
9.90716e-08 -2.03308e-08 0.000421671

0.000523095 3.68488e-05 7.2418e-08
3.68488e-05 0.000553092 3.1163e-08
7.2418e-08 3.1163e-08 0.000537475

0.000420047 -8.32114e-05 -9.13053e-08
-8.32114e-05 0.000394634 -1.66622e-08
-9.13053e-08 -1.66622e-08 0.000376906

0.000251892 -8.27742e-05 -7.93131e-08
-8.27742e-05 0.000245564 -7.76827e-08
-7.93131e-08 -7.76827e-08 0.000245332

0.000242203 -8.7937e-05 -1.63096e-07
-8.7937e-05 0.000265472 -1.36173e-07
-1.63096e-07 -1.36173e-07 0.000248839

0.000476339 -9.64463e-05 3.91465e-08
-9.64463e-05 0.000579759 -5.36827e-08
3.91465e-08 -5.36827e-08 0.000533338

0.00024877 -3.28512e-05 -1.47968e-07
-3.28512e-05 0.000241494 1.20904e-07
-1.47968e-07 1.20904e-07 0.000262574

0.000232456 -2.65328e-05 5.04316e-08
-2.65328e-05 0.000251037 -7.14223e-08
5.04316e-08 -7.14223e-08 0.000258141

0.000624918 4.1534e-05 -9.09382e-08
4.1534e-05 0.000541614 -1.53136e-08
-9.09382e-08 -1.53136e-08 0.000582468

0.000581254 -5.54766e-05 -1.06289e-07
-5.54766e-05 0.000521904 3.17479e-08
-1.06289e-07 3.17479e-08 0.000541367

0.000533114 -2.86749e-05 1.29132e-07
-2.86749e-05 0.000390306 -6.82596e-08
1.29132e-07 -6.82596e-08 0.000489042

0.000621118 5.73172e-05 -9.04925e-08
5.73172e-05 0.000507683 -1.84466e-08
-9.04925e-08 -1.84466e-08 0.000576493

0.000574914 -7.81478e-05 -1.25115e-07
-7.81478e-05 0.000516835 -1.00746e-07
-1.25115e-07 -1.00746e-07 0.000541457

0.000455978 4.24059e-05 9.59539e-09
4.24059e-05 0.000520357 -1.58622e-08
9.59539e-09 -1.58622e-08 0.000479952

0.000618868 -2.72081e-05 -7.4997e-10
-2.72081e-05 0.000535145 -4.44823e-08
-7.4997e-10 -4.44823e-08 0.000558616

0.000582658 3.59606e-05 -6.16683e-08
3.59606e-05 0.000559334 -3.69067e-08
-6.16683e-08 -3.69067e-08 0.000559195

0.000574998 6.628e-05 6.49157e-08
6.628e-05 0.000485053 4.45964e-08
6.49157e-08 4.45964e-08 0.000541314

0.000528126 -8.38457e-05 1.32063e-07
-8.38457e-05 0.000469778 1.94585e-10
1.32063e-07 1.94585e-10 0.000511238

0.000389177 -5.70843e-05 -6.17128e-08
-5.70843e-05 0.000310477 3.53083e-08
-6.17128e-08 3.53083e-08 0.000322182

0.000588742 -1.63966e-05 1.03806e-07
-1.63966e-05 0.000635414 1.60444e-07
1.03806e-07 1.60444e-07 0.000609102

0.000521895 -3.0632e-06 2.45838e-08
-3.0632e-06 0.000667874 -6.55768e-08
2.45838e-08 -6.55768e-08 0.000555807

0.000380927 -7.04165e-05 -6.83233e-08
-7.04165e-05 0.000451853 2.28932e-08
-6.83233e-08 2.28932e-08 0.000417659

0.00028547 -2.47996e-05 -6.26214e-08
-2.47996e-05 0.000357154 1.40214e-08
-6.26214e-08 1.40214e-08 0.000294266

0.000348885 -2.26115e-05 -2.00828e-08
-2.26115e-05 0.000282486 7.72898e-09
-2.00828e-08 7.72898e-09 0.000289434

0.000478564 2.7333e-05 -3.57632e-08
2.7333e-05 0.000551059 8.16872e-09
-3.57632e-08 8.16872e-09 0.000516908

0.00038047 4.10704e-05 6.44207e-08
4.10704e-05 0.000536337 1.85247e-08
6.44207e-08 1.85247e-08 0.000482767

0.000743034 5.51893e-05 -4.15874e-07
5.51893e-05 0.00058729 -7.6396e-07
-4.15874e-07 -7.6396e-07 0.000621605

0.000703116 1.49244e-05 -1.74821e-07
1.49244e-05 0.000755573 -6.09387e-07
-1.74821e-07 -6.09387e-07 0.000572784

0.000415063 6.19526e-05 7.70905e-10
6.19526e-05 0.000507727 3.44141e-08
7.70905e-10 3.44141e-08 0.000510035

0.000552858 4.94044e-05 1.10953e-07
4.94044e-05 0.000427475 -2.68923e-08
1.10953e-07 -2.68923e-08 0.000506236

0.000526598 -7.45987e-05 1.77208e-07
-7.45987e-05 0.000421521 -3.83118e-09
1.77208e-07 -3.83118e-09 0.000489355

0.000429488 8.45187e-05 9.91314e-08
8.45187e-05 0.000498019 1.13463e-07
9.91314e-08 1.13463e-07 0.000504904

0.000420307 -6.3748e-05 1.29518e-07
-6.3748e-05 0.000559848 -3.96326e-08
1.29518e-07 -3.96326e-08 0.000521741

0.000435547 -6.3956e-06 1.33937e-08
-6.3956e-06 0.000309775 -1.17371e-09
1.33937e-08 -1.17371e-09 0.000344632

0.000504406 -2.46332e-05 -1.04155e-07
-2.46332e-05 0.000367853 2.96679e-08
-1.04155e-07 2.96679e-08 0.000430912

0.000461154 2.98376e-05 4.43157e-08
2.98376e-05 0.000345477 1.84703e-08
4.43157e-08 1.84703e-08 0.000381365

0.000537149 3.37215e-05 -2.05365e-08
3.37215e-05 0.000472486 1.77866e-08
-2.05365e-08 1.77866e-08 0.000524655

0.000510483 2.21116e-05 -2.17234e-07
2.21116e-05 0.0006617 1.20898e-07
-2.17234e-07 1.20898e-07 0.000571625

0.000586111 -1.67955e-05 -1.6697e-07
-1.67955e-05 0.000596038 -2.24351e-07
-1.6697e-07 -2.24351e-07 0.000571066

0.000368216 4.84641e-05 -1.18249e-07
4.84641e-05 0.000396627 -1.56175e-07
-1.18249e-07 -1.56175e-07 0.00035038

0.000457579 -6.23055e-05 3.54414e-08
-6.23055e-05 0.000432866 1.19167e-07
3.54414e-08 1.19167e-07 0.000435627

0.000526959 3.41011e-05 7.94869e-08
3.41011e-05 0.000419622 -5.22273e-08
7.94869e-08 -5.22273e-08 0.00047775

0.000560935 3.71928e-05 1.44603e-07
3.71928e-05 0.000685148 -3.63826e-08
1.44603e-07 -3.63826e-08 0.000562316

0.000582521 -2.50564e-05 -2.58599e-07
-2.50564e-05 0.000631569 7.22889e-08
-2.58599e-07 7.22889e-08 0.000605609

0.000556039 -8.88032e-06 -6.6219e-08
-8.88032e-06 0.000474176 8.899e-08
-6.6219e-08 8.899e-08 0.000528527

0.000495939 -4.8558e-05 -6.38209e-08
-4.8558e-05 0.0005572 1.25244e-09
-6.38209e-08 1.25244e-09 0.000512601

0.000413684 -1.62842e-05 5.56116e-09
-1.62842e-05 0.000560931 1.19693e-07
5.56116e-09 1.19693e-07 0.000494195

0.000565068 1.09338e-05 1.76232e-08
1.09338e-05 0.000386888 -5.52965e-08
1.76232e-08 -5.52965e-08 0.000515749

0.000556249 -3.38871e-05 -8.06159e-09
-3.38871e-05 0.000387708 1.80472e-08
-8.06159e-09 1.80472e-08 0.000508897

0.000394168 -6.89507e-05 4.38186e-08
-6.89507e-05 0.000365053 -6.37817e-08
4.38186e-08 -6.37817e-08 0.000349796

0.000594979 4.24192e-05 8.52036e-08
4.24192e-05 0.000426817 6.65812e-08
8.52036e-08 6.65812e-08 0.000544951

0.000571694 -6.62513e-05 -2.06507e-07
-6.62513e-05 0.000439042 1.89071e-07
-2.06507e-07 1.89071e-07 0.000524924

0.000515335 -5.88127e-05 1.09719e-07
-5.88127e-05 0.000402244 5.68183e-08
1.09719e-07 5.68183e-08 0.000464375

0.000383026 -5.89691e-05 -3.24338e-08
-5.89691e-05 0.000477853 6.91057e-08
-3.24338e-08 6.91057e-08 0.00042247

0.000557442 2.6139e-05 9.40715e-09
2.6139e-05 0.000433863 -1.27581e-08
9.40715e-09 -1.27581e-08 0.000522909

0.000549927 -4.78719e-05 -1.40658e-08
-4.78719e-05 0.000424534 -1.48907e-08
-1.40658e-08 -1.48907e-08 0.000508509

0.000525889 -1.56999e-05 -4.57421e-08
-1.56999e-05 0.000415499 2.88321e-09
-4.57421e-08 2.88321e-09 0.000461909

0.000568015 7.42505e-05 3.08915e-08
7.42505e-05 0.000531628 -4.09719e-08
3.08915e-08 -4.09719e-08 0.000552411

0.000436699 4.9306e-05 7.73509e-08
4.9306e-05 0.000403498 4.30687e-08
7.73509e-08 4.30687e-08 0.000399766

0.000423478 7.34851e-05 5.07441e-08
7.34851e-05 0.0004893 -4.24143e-08
5.07441e-08 -4.24143e-08 0.000513769

0.000535654 5.47125e-05 8.08499e-08
5.47125e-05 0.000575824 4.70468e-08
8.08499e-08 4.70468e-08 0.000567345

0.000482825 2.70591e-05 -7.56387e-08
2.70591e-05 0.000351599 -6.06571e-08
-7.56387e-08 -6.06571e-08 0.000405665

0.000498859 -3.68085e-05 1.23055e-07
-3.68085e-05 0.000453999 9.41971e-09
1.23055e-07 9.41971e-09 0.000486581

0.000511256 2.31514e-05 5.09937e-08
2.31514e-05 0.000404757 1.35324e-07
5.09937e-08 1.35324e-07 0.000453993

0.000382626 5.90434e-05 9.24205e-08
5.90434e-05 0.000403904 3.73424e-08
9.24205e-08 3.73424e-08 0.000385071

0.000437823 5.55714e-05 5.60697e-08
5.55714e-05 0.000412673 2.62999e-08
5.60697e-08 2.62999e-08 0.000432319

0.000365312 1.2035e-07 8.06139e-09
1.2035e-07 0.000556944 1.18392e-07
8.06139e-09 1.18392e-07 0.000477791

0.000447835 -2.37833e-05 -4.71198e-08
-2.37833e-05 0.000544442 -7.4261e-09
-4.71198e-08 -7.4261e-09 0.000499726

0.00039427 -6.92064e-05 4.18197e-08
-6.92064e-05 0.000315791 -1.47125e-08
4.18197e-08 -1.47125e-08 0.000337383

0.000453105 -9.4312e-05 -7.9628e-08
-9.4312e-05 0.000542726 1.22923e-07
-7.9628e-08 1.22923e-07 0.000503909

0.000385628 -8.33033e-05 -7.07279e-08
-8.33033e-05 0.000428087 3.80206e-08
-7.07279e-08 3.80206e-08 0.00038822

0.000435254 6.81623e-05 3.75644e-08
6.81623e-05 0.000438224 1.28202e-08
3.75644e-08 1.28202e-08 0.000404212

0.000507486 -3.11866e-05 6.54336e-09
-3.11866e-05 0.000436124 1.17587e-07
6.54336e-09 1.17587e-07 0.000458398

0.000594604 -2.60135e-06 -1.51575e-07
-2.60135e-06 0.000410401 -1.27032e-08
-1.51575e-07 -1.27032e-08 0.000521972

0.000577536 1.00984e-05 -6.67279e-09
1.00984e-05 0.000419948 1.41794e-08
-6.67279e-09 1.41794e-08 0.000520295

0.000330696 3.08826e-05 -1.03931e-07
3.08826e-05 0.000471521 -2.69368e-08
-1.03931e-07 -2.69368e-08 0.000395709

0.000450514 -7.43012e-05 -2.42554e-08
-7.43012e-05 0.000476022 -1.61202e-07
-2.42554e-08 -1.61202e-07 0.00044386

0.000280919 -1.03795e-05 -1.61094e-07
-1.03795e-05 0.000439933 3.49794e-08
-1.61094e-07 3.49794e-08 0.000345358

0.000319959 -1.31238e-05 9.08064e-08
-1.31238e-05 0.000448783 4.86377e-08
9.08064e-08 4.86377e-08 0.000354566

0.000433953 -1.74128e-05 7.39718e-08
-1.74128e-05 0.000295987 1.29756e-07
7.39718e-08 1.29756e-07 0.000347283

0.000407023 4.93183e-05 -3.52706e-08
4.93183e-05 0.000385652 -9.67039e-08
-3.52706e-08 -9.67039e-08 0.00035838

0.000419532 -8.51343e-05 3.73935e-08
-8.51343e-05 0.000373059 -5.774e-08
3.73935e-08 -5.774e-08 0.000388053

0.000703841 -1.86552e-05 3.96456e-07
-1.86552e-05 0.000706198 -1.16248e-07
3.96456e-07 -1.16248e-07 0.000569431

0.000571362 -7.68527e-05 7.82782e-08
-7.68527e-05 0.000665541 -3.45392e-08
7.82782e-08 -3.45392e-08 0.000611956

0.000470535 -5.10031e-05 -6.23245e-09
-5.10031e-05 0.000348814 8.53557e-08
-6.23245e-09 8.53557e-08 0.000402102

0.000506341 6.82797e-05 7.13635e-08
6.82797e-05 0.000528991 3.46559e-08
7.13635e-08 3.46559e-08 0.000512316

0.00053708 4.62368e-06 1.35027e-07
4.62368e-06 0.000392614 3.05093e-08
1.35027e-07 3.05093e-08 0.000491461

0.000380678 -6.19815e-05 2.54973e-08
-6.19815e-05 0.00048689 1.06829e-09
2.54973e-08 1.06829e-09 0.000405261

0.000400283 6.48751e-05 -1.68044e-08
6.48751e-05 0.000564535 7.2521e-08
-1.68044e-08 7.2521e-08 0.000524498

0.000557281 2.67782e-05 4.42395e-08
2.67782e-05 0.000595285 1.26429e-07
4.42395e-08 1.26429e-07 0.000587365

0.000451524 -8.79887e-05 -1.04051e-07
-8.79887e-05 0.000491362 -1.4153e-07
-1.04051e-07 -1.4153e-07 0.000504294

0.000560431 6.58176e-05 -1.03206e-09
6.58176e-05 0.000568843 -1.55598e-07
-1.03206e-09 -1.55598e-07 0.000573872

0.000391084 5.21478e-05 -4.10406e-08
5.21478e-05 0.000501497 8.11989e-08
-4.10406e-08 8.11989e-08 0.000475148

0.000578815 -6.29991e-06 -5.26756e-08
-6.29991e-06 0.000329587 1.28198e-08
-5.26756e-08 1.28198e-08 0.000524829

0.000452666 6.45974e-05 -7.213e-08
6.45974e-05 0.000383517 -1.23735e-07
-7.213e-08 -1.23735e-07 0.000398393

0.000453564 -9.98811e-05 -6.35632e-08
-9.98811e-05 0.000571981 7.4794e-08
-6.35632e-08 7.4794e-08 0.000510865

0.000451449 5.8563e-05 -5.33696e-08
5.8563e-05 0.000437303 1.24819e-07
-5.33696e-08 1.24819e-07 0.000418508

0.000368872 -5.668e-05 -1.68674e-08
-5.668e-05 0.00040295 -2.74167e-09
-1.68674e-08 -2.74167e-09 0.000344708

0.000445046 -8.18193e-05 -3.06215e-08
-8.18193e-05 0.000510101 -1.51817e-07
-3.06215e-08 -1.51817e-07 0.000470679

0.000329474 -3.69069e-05 5.93414e-08
-3.69069e-05 0.000454399 -9.0559e-08
5.93414e-08 -9.0559e-08 0.000367806

0.000382855 1.42511e-05 -1.26401e-07
1.42511e-05 0.000460044 -6.80339e-08
-1.26401e-07 -6.80339e-08 0.000379959

0.000440166 -3.48801e-05 1.16056e-07
-3.48801e-05 0.000341381 4.39793e-08
1.16056e-07 4.39793e-08 0.000366239

0.00041857 -7.44034e-05 2.87957e-08
-7.44034e-05 0.000407999 1.47148e-07
2.87957e-08 1.47148e-07 0.000400639

0.000365841 -4.3208e-06 1.83709e-08
-4.3208e-06 0.000521755 -8.86645e-08
1.83709e-08 -8.86645e-08 0.0004378

0.000446851 -1.33363e-05 -4.27851e-08
-1.33363e-05 0.000521707 -9.44363e-08
-4.27851e-08 -9.44363e-08 0.000455369

0.000333818 -7.43216e-05 6.48361e-08
-7.43216e-05 0.000379701 -5.13875e-08
6.48361e-08 -5.13875e-08 0.000333813

0.000370804 5.52544e-05 -8.7036e-08
5.52544e-05 0.000388868 -7.0615e-08
-8.7036e-08 -7.0615e-08 0.000346418

0.000548637 -1.34106e-07 -1.45867e-08
-1.34106e-07 0.000391072 -4.98842e-08
-1.45867e-08 -4.98842e-08 0.000528246

0.000542093 -1.36231e-05 -5.52987e-08
-1.36231e-05 0.00039626 8.72339e-09
-5.52987e-08 8.72339e-09 0.000521486

0.000518246 5.96175e-05 1.15309e-07
5.96175e-05 0.000534292 1.54317e-08
1.15309e-07 1.54317e-08 0.000521141

0.000470171 -9.87934e-05 6.6516e-08
-9.87934e-05 0.000582223 -6.346e-08
6.6516e-08 -6.346e-08 0.000530255

0.000458933 6.72878e-05 4.6135e-08
6.72878e-05 0.000470739 -1.13025e-07
4.6135e-08 -1.13025e-07 0.000488444

0.000371371 3.11849e-05 -5.16102e-08
3.11849e-05 0.000301357 9.26197e-08
-5.16102e-08 9.26197e-08 0.000311271

0.000396697 3.68989e-05 -1.2415e-07
3.68989e-05 0.000486607 -6.23832e-08
-1.2415e-07 -6.23832e-08 0.000417022

0.000599885 3.44607e-05 -4.63184e-08
3.44607e-05 0.00048693 4.79166e-08
-4.63184e-08 4.79166e-08 0.000556609

0.000571009 -5.99222e-05 -1.87465e-07
-5.99222e-05 0.00047082 -6.90651e-09
-1.87465e-07 -6.90651e-09 0.000526923

0.000552608 4.88517e-05 1.01424e-07
4.88517e-05 0.000472933 8.22915e-08
1.01424e-07 8.22915e-08 0.000515792

0.000527124 -7.06119e-05 1.73801e-07
-7.06119e-05 0.000443339 -4.32087e-08
1.73801e-07 -4.32087e-08 0.000490692

0.000234082 -3.50431e-05 -5.69936e-08
-3.50431e-05 0.000167911 -1.00004e-07
-5.69936e-08 -1.00004e-07 0.000258753

0.000163196 -4.14439e-05 -1.58344e-07
-4.14439e-05 0.000246153 -1.40489e-07
-1.58344e-07 -1.40489e-07 0.000262284

0.000333625 -4.65856e-05 7.33123e-09
-4.65856e-05 0.000475326 6.34355e-08
7.33123e-09 6.34355e-08 0.000401186

0.000677055 5.59736e-05 1.77017e-07
5.59736e-05 0.000527567 -1.11387e-07
1.77017e-07 -1.11387e-07 0.000597592

0.000644545 -7.97794e-05 -1.16295e-07
-7.97794e-05 0.000573268 -1.61475e-07
-1.16295e-07 -1.61475e-07 0.000560756

0.00050888 5.68598e-05 1.07897e-08
5.68598e-05 0.00045216 2.19814e-09
1.07897e-08 2.19814e-09 0.00047087

0.000377933 2.27987e-05 -2.37238e-08
2.27987e-05 0.000295837 1.31112e-08
-2.37238e-08 1.31112e-08 0.000310707

0.000443009 -6.86753e-05 -7.1482e-08
-6.86753e-05 0.000550345 -2.59625e-09
-7.1482e-08 -2.59625e-09 0.000494643

0.000381142 -3.22831e-05 -9.18342e-08
-3.22831e-05 0.000553066 7.23366e-08
-9.18342e-08 7.23366e-08 0.000483168

0.000400962 -8.16332e-05 -5.38801e-08
-8.16332e-05 0.000422345 2.54459e-08
-5.38801e-08 2.54459e-08 0.000382663

0.000436748 -6.60958e-05 -1.53395e-07
-6.60958e-05 0.000490158 3.31718e-09
-1.53395e-07 3.31718e-09 0.000512519

0.000477969 -7.7246e-05 -1.20751e-07
-7.7246e-05 0.000423306 -4.34846e-08
-1.20751e-07 -4.34846e-08 0.000448688

0.000377204 9.98266e-05 5.66763e-10
9.98266e-05 0.000517077 3.43904e-08
5.66763e-10 3.43904e-08 0.000512053

0.000565539 2.43299e-05 1.1707e-07
2.43299e-05 0.00059557 1.21666e-07
1.1707e-07 1.21666e-07 0.000586454

0.000503051 4.17109e-05 -2.27974e-08
4.17109e-05 0.000567125 7.29137e-08
-2.27974e-08 7.29137e-08 0.000534993

0.00043937 -7.33661e-05 -2.84762e-08
-7.33661e-05 0.000478301 -1.86305e-07
-2.84762e-08 -1.86305e-07 0.000482477

0.00042566 7.24875e-05 1.82089e-08
7.24875e-05 0.000484145 6.14956e-08
1.82089e-08 6.14956e-08 0.000481813

0.000439137 4.7753e-05 6.27968e-08
4.7753e-05 0.000352492 -1.4869e-08
6.27968e-08 -1.4869e-08 0.000377632

0.000499658 -6.59634e-08 -9.66598e-08
-6.59634e-08 0.000376247 -4.91555e-08
-9.66598e-08 -4.91555e-08 0.000434953

0.000577743 4.96428e-05 -1.11826e-07
4.96428e-05 0.000574556 2.95507e-08
-1.11826e-07 2.95507e-08 0.000580473

0.000411677 -7.96087e-05 9.12577e-08
-7.96087e-05 0.000525468 8.75567e-08
9.12577e-08 8.75567e-08 0.000456682

0.00033898 1.20292e-05 -1.05953e-07
1.20292e-05 0.000511921 -2.12297e-08
-1.05953e-07 -2.12297e-08 0.000425298

0.000530158 7.41095e-05 1.03386e-07
7.41095e-05 0.000466088 8.20059e-08
1.03386e-07 8.20059e-08 0.000500126

0.00042073 2.24842e-06 -1.27343e-07
2.24842e-06 0.000512821 -5.46181e-08
-1.27343e-07 -5.46181e-08 0.000447929

0.000401082 -5.55424e-05 3.41888e-08
-5.55424e-05 0.000556458 -6.22648e-09
3.41888e-08 -6.22648e-09 0.000522801

0.000281879 -4.72147e-05 -7.33161e-08
-4.72147e-05 0.000307819 -1.06448e-07
-7.33161e-08 -1.06448e-07 0.000270809

0.000309724 -4.77156e-05 4.51018e-08
-4.77156e-05 0.000277916 1.41562e-08
4.51018e-08 1.41562e-08 0.000269403

0.000529014 1.6522e-05 7.37706e-08
1.6522e-05 0.000385607 5.08301e-08
7.37706e-08 5.08301e-08 0.000470134

0.000479964 -8.75272e-05 -7.83761e-08
-8.75272e-05 0.00043943 -7.97205e-08
-7.83761e-08 -7.97205e-08 0.000473386

0.00074285 5.00759e-05 -9.16648e-08
5.00759e-05 0.000563744 1.63335e-08
-9.16648e-08 1.63335e-08 0.000615133

0.000747746 -1.44308e-05 -3.90564e-07
-1.44308e-05 0.000638354 -9.01454e-08
-3.90564e-07 -9.01454e-08 0.000571169

0.000406213 -6.2059e-05 9.96487e-08
-6.2059e-05 0.000497249 -1.23739e-07
9.96487e-08 -1.23739e-07 0.000477345

0.000542484 -1.85005e-05 7.76437e-09
-1.85005e-05 0.000573244 5.50206e-09
7.76437e-09 5.50206e-09 0.000555042

0.000528459 6.42416e-05 -1.09231e-07
6.42416e-05 0.000599174 -1.52025e-07
-1.09231e-07 -1.52025e-07 0.000555692

0.000558482 5.71812e-06 1.74384e-08
5.71812e-06 0.000377419 -8.77456e-08
1.74384e-08 -8.77456e-08 0.000467201

0.000445694 -0.000106955 -1.43068e-07
-0.000106955 0.000568173 -4.19298e-08
-1.43068e-07 -4.19298e-08 0.000509803

0.000311608 3.60657e-05 -3.19799e-08
3.60657e-05 0.0003143 2.23733e-07
-3.19799e-08 2.23733e-07 0.000289905

0.000301613 3.45246e-05 2.11404e-07
3.45246e-05 0.000301821 1.04902e-07
2.11404e-07 1.04902e-07 0.000284319

0.000272024 -4.15438e-05 -1.57047e-07
-4.15438e-05 0.00036953 1.42125e-07
-1.57047e-07 1.42125e-07 0.000302667

0.000309143 2.08691e-05 -5.01989e-08
2.08691e-05 0.000379915 -3.50739e-08
-5.01989e-08 -3.50739e-08 0.000313555

0.000365598 -3.54646e-05 -7.38917e-08
-3.54646e-05 0.000278144 9.04399e-08
-7.38917e-08 9.04399e-08 0.000303296

0.000390015 -9.84163e-05 -1.398e-07
-9.84163e-05 0.000509249 2.55211e-08
-1.398e-07 2.55211e-08 0.0005114

0.000240607 1.94754e-06 -3.84512e-08
1.94754e-06 0.000354429 4.00859e-08
-3.84512e-08 4.00859e-08 0.000284906

0.000352854 2.22309e-06 1.33477e-07
2.22309e-06 0.000256199 -7.52086e-08
1.33477e-07 -7.52086e-08 0.000289539

0.000518823 6.94682e-06 3.33879e-08
6.94682e-06 0.000630136 6.26803e-08
3.33879e-08 6.26803e-08 0.000549762

0.000551176 -5.6774e-05 6.3284e-08
-5.6774e-05 0.000612777 5.66565e-08
6.3284e-08 5.66565e-08 0.000572326

0.000542131 2.23572e-05 -6.38765e-08
2.23572e-05 0.000446322 -2.34905e-08
-6.38765e-08 -2.34905e-08 0.000495935

0.000588548 3.99356e-06 -8.706e-08
3.99356e-06 0.000383673 7.9209e-08
-8.706e-08 7.9209e-08 0.000502577

0.000327389 -5.31278e-05 6.86262e-08
-5.31278e-05 0.0004186 -7.94592e-08
6.86262e-08 -7.94592e-08 0.000359651

0.000365203 3.4366e-05 -9.16704e-08
3.4366e-05 0.000437198 -1.09886e-07
-9.16704e-08 -1.09886e-07 0.000372134

0.000558818 4.51607e-06 -1.17245e-08
4.51607e-06 0.000380527 7.14203e-08
-1.17245e-08 7.14203e-08 0.000469375

0.000382292 -5.43867e-05 -2.59195e-08
-5.43867e-05 0.000499844 -2.57369e-08
-2.59195e-08 -2.57369e-08 0.000453924

0.000640128 3.25434e-05 1.7209e-07
3.25434e-05 0.000523626 -1.17189e-07
1.7209e-07 -1.17189e-07 0.000585335

0.000609317 -4.39034e-05 -1.57537e-07
-4.39034e-05 0.000537634 -1.1287e-07
-1.57537e-07 -1.1287e-07 0.00055151

0.000483348 5.13933e-05 4.05215e-09
5.13933e-05 0.000479638 -7.53786e-08
4.05215e-09 -7.53786e-08 0.000492738

0.000439879 -9.04438e-05 1.57613e-08
-9.04438e-05 0.000542845 6.56947e-08
1.57613e-08 6.56947e-08 0.000481257

0.000542738 2.31288e-05 -5.28789e-08
2.31288e-05 0.000398491 8.90629e-08
-5.28789e-08 8.90629e-08 0.000484822

0.000371409 4.73216e-05 -1.42433e-07
4.73216e-05 0.00035564 -6.04401e-08
-1.42433e-07 -6.04401e-08 0.000341463

0.000439707 -9.76294e-05 8.16054e-08
-9.76294e-05 0.000536441 9.51925e-08
8.16054e-08 9.51925e-08 0.000478123

0.000233078 8.65509e-05 5.42615e-08
8.65509e-05 0.000234897 5.44148e-08
5.42615e-08 5.44148e-08 0.000238886

0.000396947 -3.5907e-05 -4.6209e-09
-3.5907e-05 0.00051153 -7.81293e-08
-4.6209e-09 -7.81293e-08 0.000437724

0.000349417 -2.07344e-05 -7.6073e-08
-2.07344e-05 0.00051223 -1.21931e-07
-7.6073e-08 -1.21931e-07 0.000426873

0.000498668 -9.40595e-06 1.63508e-07
-9.40595e-06 0.00066899 -1.18686e-08
1.63508e-07 -1.18686e-08 0.000552128

0.000568387 -4.43846e-05 -8.54532e-08
-4.43846e-05 0.000605209 2.96777e-07
-8.54532e-08 2.96777e-07 0.00058699

0.000605392 2.43267e-05 4.34723e-08
2.43267e-05 0.000357609 2.62617e-08
4.34723e-08 2.62617e-08 0.00054704

0.000588348 -3.66735e-05 -1.14709e-07
-3.66735e-05 0.00037858 8.55048e-08
-1.14709e-07 8.55048e-08 0.000533011

0.000494139 7.48523e-05 5.52514e-08
7.48523e-05 0.000498212 -5.28264e-08
5.52514e-08 -5.28264e-08 0.000519135

0.000500777 -4.75838e-05 -1.5898e-08
-4.75838e-05 0.000520229 1.09389e-07
-1.5898e-08 1.09389e-07 0.000521287

0.000534086 5.67699e-05 -1.5871e-07
5.67699e-05 0.000559643 6.03611e-08
-1.5871e-07 6.03611e-08 0.000551584

0.00053144 -3.97298e-05 -7.01887e-09
-3.97298e-05 0.000592425 -5.73678e-08
-7.01887e-09 -5.73678e-08 0.000550159

0.000714008 5.52222e-05 4.11401e-07
5.52222e-05 0.000563241 -1.30953e-08
4.11401e-07 -1.30953e-08 0.00061392

0.000675666 -7.65488e-05 -7.43885e-08
-7.65488e-05 0.000631333 -7.16493e-08
-7.43885e-08 -7.16493e-08 0.000567729

0.000624574 5.63582e-05 6.46331e-08
5.63582e-05 0.000561669 -1.41284e-07
6.46331e-08 -1.41284e-07 0.000595447

0.000457931 -0.000106116 5.6122e-08
-0.000106116 0.000505437 -3.89314e-08
5.6122e-08 -3.89314e-08 0.000526361

0.000510407 5.86034e-05 2.21171e-08
5.86034e-05 0.000412794 -4.38169e-08
2.21171e-08 -4.38169e-08 0.000458049

0.000443972 -6.69307e-05 -7.32526e-08
-6.69307e-05 0.000528743 -1.47971e-08
-7.32526e-08 -1.47971e-08 0.000464124

0.000379708 -3.95308e-05 -1.17405e-07
-3.95308e-05 0.000517314 -7.70268e-08
-1.17405e-07 -7.70268e-08 0.000455837

0.000389146 -5.90687e-05 -5.63316e-08
-5.90687e-05 0.000375772 -4.40201e-08
-5.63316e-08 -4.40201e-08 0.000338951

0.000478635 -7.85856e-05 -1.06807e-07
-7.85856e-05 0.0003967 2.09414e-08
-1.06807e-07 2.09414e-08 0.000441015

0.000379952 2.71939e-05 6.52043e-08
2.71939e-05 0.000517084 6.00514e-08
6.52043e-08 6.00514e-08 0.000452624

0.000483606 7.82176e-05 -1.64084e-07
7.82176e-05 0.000446789 2.61228e-08
-1.64084e-07 2.61228e-08 0.000454081

0.000430249 0.000116685 4.02912e-08
0.000116685 0.000516174 -4.57498e-08
4.02912e-08 -4.57498e-08 0.00052924

0.000464158 -9.46004e-05 6.50649e-08
-9.46004e-05 0.000567429 3.29873e-08
6.50649e-08 3.29873e-08 0.000525229

0.000436356 -8.92452e-05 1.88151e-07
-8.92452e-05 0.000420375 1.07641e-08
1.88151e-07 1.07641e-08 0.000431763

0.000556299 -6.00907e-06 4.72967e-08
-6.00907e-06 0.000468572 -1.72751e-08
4.72967e-08 -1.72751e-08 0.00050276

0.000601572 -2.94464e-05 3.16711e-08
-2.94464e-05 0.000652488 8.69767e-08
3.16711e-08 8.69767e-08 0.000603117

0.000704678 -3.45905e-05 -1.50784e-07
-3.45905e-05 0.000688515 5.06511e-08
-1.50784e-07 5.06511e-08 0.000568484

0.000418857 -3.4144e-05 1.30498e-07
-3.4144e-05 0.000538042 -7.93884e-08
1.30498e-07 -7.93884e-08 0.00049963

0.000483062 4.78388e-05 6.08448e-09
4.78388e-05 0.000435711 -4.80415e-08
6.08448e-09 -4.80415e-08 0.000479944

0.000575497 -3.52751e-06 -5.76443e-09
-3.52751e-06 0.000495682 1.20341e-08
-5.76443e-09 1.20341e-08 0.000536529

0.000276615 -6.06748e-05 -1.45817e-07
-6.06748e-05 0.000318708 3.54885e-08
-1.45817e-07 3.54885e-08 0.000276872

0.000314212 -5.434e-05 -1.02498e-07
-5.434e-05 0.000276611 8.92034e-08
-1.02498e-07 8.92034e-08 0.000278281

0.000604025 -2.19879e-06 1.1812e-08
-2.19879e-06 0.000425594 6.55775e-08
1.1812e-08 6.55775e-08 0.000556585

0.000591528 -1.13517e-05 -3.33211e-08
-1.13517e-05 0.000432431 1.78756e-07
-3.33211e-08 1.78756e-07 0.000536837

0.000596818 1.19047e-05 -1.28558e-07
1.19047e-05 0.000483901 6.63181e-08
-1.28558e-07 6.63181e-08 0.000537666

0.000478653 3.17467e-05 -3.57082e-08
3.17467e-05 0.000524616 1.36816e-08
-3.57082e-08 1.36816e-08 0.000482046

0.000483274 4.062e-05 -7.66701e-08
4.062e-05 0.000401258 -1.2102e-07
-7.66701e-08 -1.2102e-07 0.000421146

0.000576977 5.61418e-05 8.41576e-08
5.61418e-05 0.000520942 -1.08754e-07
8.41576e-08 -1.08754e-07 0.000549477

0.000530679 -7.31947e-05 1.47791e-07
-7.31947e-05 0.000476227 1.26443e-07
1.47791e-07 1.26443e-07 0.000512893

0.000616351 -9.67607e-06 2.08297e-07
-9.67607e-06 0.000569909 -3.34542e-08
2.08297e-07 -3.34542e-08 0.000573566

0.000592643 8.10144e-05 2.18122e-07
8.10144e-05 0.000701478 -5.18594e-08
2.18122e-07 -5.18594e-08 0.000574489

0.000405243 -6.31893e-05 1.05555e-07
-6.31893e-05 0.000516834 -8.94442e-08
1.05555e-07 -8.94442e-08 0.000495719

0.000497309 4.14186e-05 9.04675e-08
4.14186e-05 0.000415503 2.13858e-08
9.04675e-08 2.13858e-08 0.000451283

0.000595168 3.75764e-05 8.89386e-08
3.75764e-05 0.000485684 -9.75696e-08
8.89386e-08 -9.75696e-08 0.000556214

0.000572367 -5.11025e-05 -2.11621e-07
-5.11025e-05 0.000488058 -3.26181e-08
-2.11621e-07 -3.26181e-08 0.000530373

0.000477709 -8.73482e-05 3.7424e-08
-8.73482e-05 0.000559536 -7.83215e-08
3.7424e-08 -7.83215e-08 0.000508466

0.000457293 -0.000112054 5.722e-08
-0.000112054 0.00056956 -7.56069e-08
5.722e-08 -7.56069e-08 0.000510988

0.000242587 0.000103295 2.50425e-08
0.000103295 0.000253554 5.83412e-08
2.50425e-08 5.83412e-08 0.000243395

0.000457528 7.92785e-05 -5.46707e-09
7.92785e-05 0.000556182 4.64262e-08
-5.46707e-09 4.64262e-08 0.000537243

0.00048326 -6.99779e-05 2.14763e-08
-6.99779e-05 0.000588676 -5.55042e-08
2.14763e-08 -5.55042e-08 0.00053502

0.0004396 -9.62762e-05 5.49141e-08
-9.62762e-05 0.000557721 -7.27318e-08
5.49141e-08 -7.27318e-08 0.000499387

0.000473544 -6.55702e-05 1.19141e-08
-6.55702e-05 0.000380044 -6.80775e-08
1.19141e-08 -6.80775e-08 0.000411503

0.000499416 -4.35033e-05 1.22604e-07
-4.35033e-05 0.000515413 1.74932e-08
1.22604e-07 1.74932e-08 0.000496434

0.000493757 7.4932e-05 1.81152e-08
7.4932e-05 0.00050203 7.25664e-08
1.81152e-08 7.25664e-08 0.000525426

0.000491956 -5.97901e-05 -4.06156e-08
-5.97901e-05 0.00055354 1.62145e-08
-4.06156e-08 1.62145e-08 0.000523989

0.000556298 -5.68828e-06 4.73345e-08
-5.68828e-06 0.000403373 -3.27586e-08
4.73345e-08 -3.27586e-08 0.000491338

0.000610999 2.24216e-05 6.12402e-09
2.24216e-05 0.000498059 3.73066e-08
6.12402e-09 3.73066e-08 0.000574276

0.00059135 -2.10961e-05 -3.42178e-10
-2.10961e-05 0.000533704 1.48391e-08
-3.42178e-10 1.48391e-08 0.000548282

0.000580021 -3.09359e-05 1.4276e-07
-3.09359e-05 0.000677747 -2.58582e-08
1.4276e-07 -2.58582e-08 0.000600474

0.000559973 2.33443e-05 5.83448e-08
2.33443e-05 0.000720113 -1.61764e-07
5.83448e-08 -1.61764e-07 0.000564918

0.000262589 8.306e-06 1.73325e-07
8.306e-06 0.000180913 -9.1897e-08
1.73325e-07 -9.1897e-08 0.000261164

0.000183792 7.53055e-06 -6.07842e-09
7.53055e-06 0.000256458 1.1954e-08
-6.07842e-09 1.1954e-08 0.00025637

0.000563048 7.18257e-05 -1.04141e-07
7.18257e-05 0.000543247 1.09891e-07
-1.04141e-07 1.09891e-07 0.000555214

0.000483611 -7.12056e-05 5.44982e-08
-7.12056e-05 0.000485702 4.77526e-08
5.44982e-08 4.77526e-08 0.000509212

0.000421924 -6.85236e-05 3.99362e-08
-6.85236e-05 0.000500228 2.90631e-10
3.99362e-08 2.90631e-10 0.000508739

0.000228238 2.53564e-05 1.3534e-08
2.53564e-05 0.000229526 -6.4877e-08
1.3534e-08 -6.4877e-08 0.000254109

0.000230277 2.77653e-05 -7.38725e-08
2.77653e-05 0.000230369 4.2965e-08
-7.38725e-08 4.2965e-08 0.000256595

0.000700884 1.12386e-05 1.83186e-08
1.12386e-05 0.000723673 2.81321e-07
1.83186e-08 2.81321e-07 0.000572732

0.000702046 2.03564e-05 7.47397e-08
2.03564e-05 0.000651423 -1.34843e-07
7.47397e-08 -1.34843e-07 0.000613811

0.000465552 -6.42991e-05 -6.93033e-08
-6.42991e-05 0.000504575 -1.46198e-07
-6.93033e-08 -1.46198e-07 0.000489607

0.000436589 -7.942e-05 1.74204e-07
-7.942e-05 0.000453299 -1.30916e-08
1.74204e-07 -1.30916e-08 0.000443119

0.000565054 7.5173e-05 -1.21636e-07
7.5173e-05 0.000504366 -1.6807e-09
-1.21636e-07 -1.6807e-09 0.000538683

0.00049062 -8.96179e-05 4.96075e-08
-8.96179e-05 0.000469979 7.53861e-08
4.96075e-08 7.53861e-08 0.000500736

0.000436436 -8.38485e-05 2.82984e-08
-8.38485e-05 0.000465322 1.8053e-07
2.82984e-08 1.8053e-07 0.000468433

0.000493638 6.06076e-05 -8.92244e-08
6.06076e-05 0.000477693 -1.02857e-07
-8.92244e-08 -1.02857e-07 0.000468598

0.000276688 -2.76018e-05 -1.40195e-07
-2.76018e-05 0.00037674 1.4669e-07
-1.40195e-07 1.4669e-07 0.000306057

0.000309991 1.61991e-05 1.15193e-07
1.61991e-05 0.000381106 -5.64082e-08
1.15193e-07 -5.64082e-08 0.000313879

0.000368912 -2.60474e-05 -6.90116e-08
-2.60474e-05 0.000294854 1.12808e-07
-6.90116e-08 1.12808e-07 0.000308865

0.000511751 8.06589e-05 8.94764e-08
8.06589e-05 0.000497768 1.56131e-07
8.94764e-08 1.56131e-07 0.000500114

0.000266874 -1.98773e-05 1.56559e-07
-1.98773e-05 0.000356379 -7.07223e-09
1.56559e-07 -7.07223e-09 0.00028882

0.000346996 -1.35241e-05 -2.10223e-08
-1.35241e-05 0.000257837 1.52352e-08
-2.10223e-08 1.52352e-08 0.000281984

0.000605452 5.9823e-05 6.79274e-08
5.9823e-05 0.000537026 1.43139e-07
6.79274e-08 1.43139e-07 0.000574398

0.000524907 -8.66009e-05 1.6023e-07
-8.66009e-05 0.000490376 2.53237e-08
1.6023e-07 2.53237e-08 0.000525336

0.000598561 7.27677e-05 1.2624e-07
7.27677e-05 0.000530103 -5.90482e-08
1.2624e-07 -5.90482e-08 0.000570748

0.000524232 -8.45087e-05 1.78938e-07
-8.45087e-05 0.000512524 8.91858e-08
1.78938e-07 8.91858e-08 0.000528488

0.000224755 3.12184e-05 3.64178e-08
3.12184e-05 0.00022718 -1.81598e-07
3.64178e-08 -1.81598e-07 0.000250305

0.000224434 3.0771e-05 1.85472e-08
3.0771e-05 0.000226057 5.15677e-08
1.85472e-08 5.15677e-08 0.000247514

0.000531704 6.49809e-05 9.5234e-08
6.49809e-05 0.000506907 1.53908e-07
9.5234e-08 1.53908e-07 0.000514854

0.000481242 -8.03098e-05 -5.42231e-08
-8.03098e-05 0.000461493 1.49026e-07
-5.42231e-08 1.49026e-07 0.000481775

0.000575198 -5.12108e-05 1.55171e-07
-5.12108e-05 0.000612048 5.13068e-08
1.55171e-07 5.13068e-08 0.000586356

0.000549111 -1.74334e-05 9.38838e-08
-1.74334e-05 0.000632873 5.91581e-08
9.38838e-08 5.91581e-08 0.000555911

0.000612401 7.46016e-05 5.32673e-09
7.46016e-05 0.000566421 4.38839e-08
5.32673e-09 4.38839e-08 0.000593171

0.000480899 -6.58128e-05 1.0913e-07
-6.58128e-05 0.000548033 1.12739e-07
1.0913e-07 1.12739e-07 0.000534261

0.000639266 3.93744e-05 1.64743e-07
3.93744e-05 0.000470735 -5.02377e-08
1.64743e-07 -5.02377e-08 0.000575376

0.00060638 -6.00972e-05 -1.52745e-07
-6.00972e-05 0.000486075 -6.92745e-08
-1.52745e-07 -6.92745e-08 0.000546404

0.000452101 6.74994e-05 1.31789e-07
6.74994e-05 0.000502523 6.90934e-08
1.31789e-07 6.90934e-08 0.000508557

0.000468361 -7.9212e-05 -1.49744e-07
-7.9212e-05 0.00055297 1.46002e-08
-1.49744e-07 1.46002e-08 0.000507241

0.000577268 -5.53846e-05 1.55477e-07
-5.53846e-05 0.000592341 -1.68822e-07
1.55477e-07 -1.68822e-07 0.000561985

0.00054908 -4.93787e-05 6.09416e-08
-4.93787e-05 0.000666374 7.93764e-08
6.09416e-08 7.93764e-08 0.000584967

0.000674948 5.49318e-05 -3.6193e-08
5.49318e-05 0.000511011 5.78872e-09
-3.6193e-08 5.78872e-09 0.000591902

0.00071564 1.7808e-05 5.63756e-08
1.7808e-05 0.000544873 -7.98745e-08
5.63756e-08 -7.98745e-08 0.00060526

0.000646158 -5.99934e-05 3.51769e-08
-5.99934e-05 0.000561242 -1.16159e-08
3.51769e-08 -1.16159e-08 0.000560626

0.000698481 -1.21976e-05 -1.3088e-07
-1.21976e-05 0.000604894 -1.65285e-07
-1.3088e-07 -1.65285e-07 0.000567994

0.000522316 -1.30552e-05 3.97298e-08
-1.30552e-05 0.000689623 1.19427e-09
3.97298e-08 1.19427e-09 0.000559088

0.000593547 0.000101638 1.02106e-07
0.000101638 0.000593146 2.37065e-07
1.02106e-07 2.37065e-07 0.000563622

0.000735472 6.16224e-05 -3.01526e-07
6.16224e-05 0.000578756 -3.05838e-07
-3.01526e-07 -3.05838e-07 0.000627921

0.000774251 5.35847e-05 -2.10857e-06
5.35847e-05 0.00057178 5.19358e-07
-2.10857e-06 5.19358e-07 0.000627061

0.000765595 2.92517e-05 3.12569e-06
2.92517e-05 0.000741386 1.89289e-06
3.12569e-06 1.89289e-06 0.000573244

0.000608151 -6.88718e-05 -2.70822e-07
-6.88718e-05 0.000666851 3.33791e-07
-2.70822e-07 3.33791e-07 0.000563875

0.000722543 4.5925e-05 4.65961e-08
4.5925e-05 0.000560875 2.2184e-07
4.65961e-08 2.2184e-07 0.000620159

0.00065236 3.6599e-05 -1.71833e-07
3.6599e-05 0.000579299 7.71949e-08
-1.71833e-07 7.71949e-08 0.0006057

0.00071539 6.03037e-05 2.51335e-07
6.03037e-05 0.000581086 -7.26257e-07
2.51335e-07 -7.26257e-07 0.000622097

0.000644498 -6.85376e-05 -1.38584e-07
-6.85376e-05 0.000582328 1.33346e-07
-1.38584e-07 1.33346e-07 0.000560047

0.000653287 -3.49532e-05 -1.29669e-07
-3.49532e-05 0.000704897 1.74638e-07
-1.29669e-07 1.74638e-07 0.000569677

0.000583884 -2.99943e-05 -5.95676e-08
-2.99943e-05 0.000557861 8.1021e-08
-5.95676e-08 8.1021e-08 0.000548763

0.000656301 5.93041e-05 -1.87739e-07
5.93041e-05 0.00054409 -1.17717e-07
-1.87739e-07 -1.17717e-07 0.000598648

0.000681441 3.54179e-05 1.91477e-07
3.54179e-05 0.00055653 -2.35817e-07
1.91477e-07 -2.35817e-07 0.000604929

0.000591767 -7.83172e-05 -5.07517e-08
-7.83172e-05 0.000558465 -2.7005e-08
-5.07517e-08 -2.7005e-08 0.000552718

0.000654021 -3.87876e-05 -1.02544e-07
-3.87876e-05 0.000577049 -4.31347e-08
-1.02544e-07 -4.31347e-08 0.000562054

SCALARS pressure float
LOOKUP_TABLE default
-2.72677
-0.0809574
0.0796694
-0.0544261
-2.27609
4.97552
5.0459
-2.56624
1.54041
-4.97794
-5.49873
-5.33585
3.0183
2.9138
-0.0261605
1.3588
5.18896
5.17141
-0.434601
-5.89896
-6.15961
-6.58039
-2.08657
-2.31995
-1.38795
-2.82864
-0.0353784
-11.0841
1.82214
-11.1516
3.41605
3.45931
11.8011
11.8518
-6.64101
0.589822
4.26808
4.65818
1.54575
-2.53412
-3.55131
1.34795
-2.20274
-2.80431
0.916202
-3.65485
-10.7796
-10.7509
3.34107
-14.6239
-14.0234
3.70581
3.73105
-0.178649
4.74018
4.74894
-0.397324
9.59029
9.64055
2.00659
2.03462
-5.57837
9.11036
9.07546
-2.48894
-11.637
-11.5016
0.986962
1.2949
15.7771
15.7695
1.44739
1.1963
1.14813
2.1501
3.0438
-5.26697
-3.62409
5.45168
16.8092
16.6358
-6.30905
-0.234401
-1.31869
12.3863
12.3603
5.76078
0.242623
0.161123
1.16841
1.23697
-6.72317
-2.72895
2.72095
2.74327
-1.44634
-2.90139
0.667845
0.752764
-0.198079
1.0269
-3.80267
1.58299
1.03988
-2.82329
2.71217
-0.79641
-2.43761
-0.0932865
2.36122
2.32953
-5.49073
2.17685
-3.93631
-3.91116
-0.702604
3.81943
3.48534
-2.31987
-1.4766
-4.36261
-4.57024
-5.04646
-6.94487
-2.89584
16.8646
16.8041
-2.71269
-0.575936
-0.254097
-2.3915
2.73484
3.14137
1.04596
0.845983
-0.0997033
1.28993
-2.99148
1.61111
-3.62224
-6.62408
0.509929
-6.02735
-5.94548
-6.48781
-3.72994
-2.78247
-2.73037
-5.95205
-5.58794
1.80988
1.82236
-0.33034
2.70651
1.95093
-8.13805
-2.82052
2.89858
2.86298
-0.172186
-0.122147
-20.0637
-19.9228
-2.59647
7.53324
7.53609
-1.66085
-8.02022
-2.74293
1.6302
1.46406
-3.44369
0.861682
-1.7725
1.71009
3.15906
3.32472
-0.272436
0.0247896
-3.42482
1.00841
-0.0332154
-1.12779
0.374531
-1.33562
2.21207
-9.96142
-9.96044
0.356452
-0.461496
12.4478
12.4504
-0.431948
8.76509
8.88324
-0.310888
1.63709
-8.10249
-7.55389
-9.58589
-9.59566
-10.0278
0.924399
-8.11194
-8.52559
6.36268
6.36225
0.147794
1.90861
-4.50013
-4.42542
0.00674248
-0.30626
5.07625
5.10226
0.712317
0.0932881
1.71195
-5.03145
-0.0293253
-11.6548
-1.12946
-1.31584
8.18812
8.18798
2.29494
2.31769
4.73124
4.5213
6.28115
6.24781
10.6289
10.6307
1.93962
1.96919
-0.917544
-1.48703
-1.68777
-6.96243
-1.018
-1.47704
-1.64864
3.40845
3.45576
-1.64434
0.700523
18.0118
17.9966
0.265646
2.4096
3.91835
-10.1142
-10.1039
3.06973
3.1016
4.05742
-1.6873
-3.98036
1.15472
1.17769
18.9872
18.5141
1.08714
-1.43704
2.43888
2.40845
0.586419
1.36956
-11.8571
3.83116
3.86345
1.51092
-3.99077
0.829022
3.44449
3.50705
2.35199
4.23285
4.21514
11.9827
11.976
-19.646
-18.7036
0.626967
0.639122
0.955874
-15.2998
-15.2193
13.962
13.9601
2.09195
-1.63289
1.3378
1.35732
-0.328843
-1.58754
-9.60078
-8.79395
-9.93897
-0.357231
-8.6702
-8.57249
2.39217
2.39403
2.73768
2.7536
-15.6904
-15.4681
-0.396994
-0.445748
9.4922
9.45734
2.50964
2.54274
5.48342
5.4859
1.72948
1.6952
10.532
7.61023
11.0958
7.61734
11.0971
10.4928
11.2572
11.2869
10.9429
9.89205
9.88198
10.9503
7.80164
4.01088
12.9295
7.81513
12.9257
4.02462
6.25905
7.99436
6.26598
8.01104
0.538774
1.47735
0.760514
-1.4528
5.41883
4.59322
-1.19818
3.26403
-5.79207
-6.81566
-6.86608
2.75121
3.45928
-0.643158
4.4874
5.54692
0.29278
-5.50775
-5.83062
-6.49124
-2.5243
-1.69499
1.13082
-11.4237
3.20609
3.96031
3.16521
7.47607
9.77553
-0.193777
-2.06971
-5.34403
3.76405
4.1312
4.46759
-1.02912
4.16141
-3.47879
-1.21308
-3.02351
-2.64649
-2.11975
2.56835
1.63497
-2.41834
-2.30156
-29.115
-29.573
4.49782
3.66069
0.0103611
-18.38
-18.9185
5.8211
5.08082
0.32268
5.84719
6.41843
0.721945
6.97622
8.63685
3.40995
3.16413
6.79033
9.67749
-11.0796
-11.067
1.43016
2.35882
12.7491
18.0674
-2.67881
2.28513
2.30763
5.71944
-5.12344
10.7154
7.24344
0.3124
-0.917891
-6.23601
7.75887
12.8244
4.61662
0.756447
1.61804
2.19373
2.1069
-6.82433
-2.23755
3.81983
3.78686
-0.5096
1.37705
1.09404
0.529917
-3.39883
2.00337
3.66643
4.47699
1.4972
-2.66403
-10.1277
2.32551
-0.0330109
-9.82448
0.093895
2.1912
2.6573
-2.52347
-6.29898
3.30527
2.09919
-3.46228
-3.87556
0.105784
5.64237
5.97876
-2.68356
-0.632857
-5.11661
-5.6156
-6.13259
-2.29072
17.0711
5.56995
-2.96982
-2.39499
-8.71707
2.04595
0.00121472
0.250462
-1.59392
5.0879
3.37264
-6.51322
-7.28137
-8.72707
1.48524
5.19568
1.94348
4.62798
1.75744
1.63796
-4.8434
-5.41035
-5.49115
-2.58719
-2.12535
-1.1487
-7.00663
-6.45456
1.65189
1.72933
2.2937
0.234752
5.01006
3.10443
2.30199
-1.91443
4.00728
4.71879
-0.460851
1.35402
0.432284
-14.7151
-3.49137
-15.797
-2.52392
8.97172
9.56601
-1.26455
-2.04383
-3.01125
1.90752
1.96468
3.57828
3.09889
1.83745
5.78876
0.708894
-0.911003
1.86623
1.31758
-3.65483
0.200707
-0.822038
-15.5714
-15.4368
-6.63361
0.399232
13.42
14.3218
5.75175
9.01812
1.83779
1.91535
5.41782
-12.253
-11.5479
-9.69999
-9.87265
-10.0619
-5.47964
-11.5931
-11.34
4.37173
6.7957
1.61866
5.88284
-4.70995
-4.27983
1.39689
6.75421
6.68297
1.39178
1.52498
0.432865
2.80371
1.88262
0.356683
-30.4392
-0.942923
-0.999483
4.99806
8.50468
3.23376
3.15004
3.79857
4.68448
3.8388
5.13332
13.2133
9.90081
3.15183
6.15728
-0.205194
0.236498
-0.22538
-0.970787
0.121166
-1.10909
-1.13326
5.03425
3.35063
1.65192
6.48165
18.5323
2.41202
4.73034
-14.6874
-14.108
3.96184
3.60216
3.06052
0.0769407
-3.70026
3.56126
2.01461
6.67908
16.6851
-0.267451
3.324
3.26362
1.06087
2.37192
4.39768
1.65996
-31.4421
4.36588
3.89371
3.01161
1.79775
-3.02641
1.68594
3.16078
3.34912
3.04648
4.62379
5.04874
12.2711
8.40191
-16.7303
-15.9402
1.38186
3.64999
-20.3187
-19.7176
17.7492
16.0629
1.86547
2.42108
3.25728
-1.01317
-0.39321
-9.42013
-9.56462
-10.0635
0.392483
1.55136
-12.3355
-12.4715
5.07269
3.60127
4.41228
4.06448
-20.6502
-20.65
0.224151
1.5674
6.74919
10.0111
5.13522
3.74341
7.57482
7.23082
3.17653
1.84771
10.099
14.0779
10.5439
14.6357
7.98287
7.46081
11.1607
10.9829
15.008
13.3284
4.98428
10.1582
10.6269
5.62452
16.3353
8.8514
10.7318
6.02477
6.81517
10.3905
8.47713
10.1767
-2.00553
0.844696
1.84506
0.486534
-1.35512
5.18737
5.47819
-1.77851
3.17959
-5.88075
-6.56949
-6.58669
4.12169
3.08552
0.883669
2.89989
5.31717
5.43067
0.322706
-5.65169
-5.6245
-6.49269
-1.15705
-2.47078
-0.463272
-2.12512
1.00617
-11.7602
2.43155
-12.0906
4.11224
4.08671
7.45032
7.45284
-6.01407
1.63402
3.78566
3.55156
3.90008
-1.99851
-2.65296
3.77718
-1.17636
-1.98004
1.56071
-3.53734
-29.2269
-30.1633
4.9969
-19.7229
-18.0764
5.34854
5.36721
0.249668
6.74068
6.69772
0.082491
6.89567
6.95675
3.38194
3.39759
-6.95393
8.55904
9.19572
-2.00228
-11.0737
-11.1853
1.6472
2.59114
19.3956
18.8249
4.67898
2.49808
2.45017
3.47022
3.73537
-5.433
-2.33839
-3.53673
4.46829
7.27526
7.22666
-6.29297
0.0164697
-0.928951
9.57478
12.4804
4.48352
1.80453
1.23217
2.17821
2.23814
-7.14879
4.00356
3.97003
-0.951134
-2.08609
1.01704
1.06744
0.270613
2.16528
-2.9157
4.60327
1.80243
-2.65862
2.17445
-0.308694
-2.51504
-0.0153104
2.63943
2.60031
-6.3994
3.53875
-3.59147
-3.69888
0.355012
5.39799
4.99995
-1.76445
-0.639347
-5.20296
-5.28859
-6.20535
-7.24586
-2.50894
13.7396
11.1989
-2.5031
0.33592
0.149424
-1.71017
5.83744
3.28392
2.18945
1.85475
2.19776
1.93597
-2.86915
4.6768
-3.37926
-6.75079
1.69263
-5.12286
-5.09986
-5.69823
-3.33941
-1.50698
-1.50647
-6.52865
-6.69907
1.55696
1.55838
0.46749
6.1023
1.94549
-8.68896
-2.45206
4.16872
4.13798
-1.14464
0.502685
0.509582
-15.9424
-14.912
-2.27444
9.91762
9.83944
-8.85416
2.4516
1.87439
-3.30649
1.84502
5.68006
3.43284
4.39496
0.536449
1.64122
-1.12321
-3.20672
-2.20749
1.93832
1.04325
-0.649776
1.50977
-0.930727
2.68594
-15.5161
-15.7604
0.394775
1.54033
14.9866
14.7009
0.451902
5.70529
5.67521
1.53894
5.83845
-12.3997
-11.6959
-10.0722
-9.89936
-10.1359
1.86933
-11.3823
-12.277
6.28937
6.06238
1.32697
5.40107
-4.71065
-4.68244
1.1822
0.121238
6.93943
6.93569
1.48939
1.72997
2.47499
-5.73332
2.13261
-30.5489
-0.681503
-0.957301
7.35673
7.31135
3.21083
3.22055
3.77572
3.78099
3.84548
3.83715
13.9747
13.7506
3.3707
3.38822
-0.0315366
0.17793
-0.815059
-0.621044
-7.07048
-0.0812749
-0.0559314
5.17934
5.19696
1.71822
10.0557
17.1051
0.933137
1.90266
3.16467
-0.908321
-14.9599
-14.3574
3.65939
3.7197
3.07481
-0.684699
-3.68498
2.23323
2.22452
6.65283
6.66497
1.78164
-0.215873
3.50408
3.50736
3.03008
4.66154
-31.3185
4.37205
4.33735
3.43691
-3.5895
1.61239
3.23505
3.14465
2.87571
5.26471
5.23424
11.2103
10.6126
-16.0883
-16.4804
1.70692
1.68978
1.77456
-19.6638
-20.1825
16.1426
16.4007
2.02128
-0.935832
2.60973
2.61261
0.671818
-0.962277
-9.46873
-9.93884
-9.98242
0.638327
-12.4587
-12.187
3.87381
3.84483
4.34955
4.37615
-20.7194
-20.8651
0.378483
0.357062
8.43149
9.53082
4.00156
4.09471
7.44643
7.42747
3.14547
3.12591
10.3304
14.4077
10.3212
14.529
10.7918
7.4551
7.4486
9.39461
15.8149
15.0295
15.6946
14.4861
11.0726
5.96608
17.4738
11.0833
6.01756
17.1071
8.90272
10.58
8.84845
10.5246
-2.67249
1.51208
0.574963
0.635696
-1.29178
4.58905
5.41673
-1.32232
4.13823
-6.39713
-6.31652
-6.72744
3.38613
2.74244
0.0519457
0.105529
1.70026
5.56821
4.49186
0.363207
-5.91455
-5.28905
-6.29492
-1.87244
-2.12922
1.244
-11.6693
2.69366
3.16837
3.98729
9.73717
7.46664
0.0526385
-1.26824
-5.22091
4.3931
3.53188
3.98514
3.96838
-3.27078
-3.03969
-2.70979
2.58843
-1.92138
-1.1393
-29.7535
-28.9764
4.5267
0.728485
-18.0186
-19.1196
5.06421
5.81548
0.325452
6.46533
5.84297
8.57204
7.02931
3.15994
3.41226
6.78462
9.56671
-2.12351
-10.8792
-10.9853
2.3804
1.59903
18.6097
12.6964
-3.03649
1.75832
2.31455
2.27133
2.43012
3.47843
4.63474
-5.22148
7.26083
10.6945
0.110188
-0.441179
-6.41547
12.8462
7.75861
5.87049
1.61108
0.732983
2.23683
2.08797
-7.12958
-2.02978
3.84686
3.76539
-0.999962
-2.26498
1.03514
1.42832
0.780701
-2.98301
3.66218
1.77315
4.47399
-2.62319
-10.0067
2.84337
-0.212
-9.68022
0.0655709
2.67675
2.1734
-2.75378
-6.43274
2.90537
-3.75192
-3.67596
-0.0210601
6.2602
5.22687
-2.44557
-1.91841
-5.425
-5.37677
-6.17173
-2.64532
17.2609
5.56931
-2.88694
-2.46772
-8.84264
2.01003
0.232912
3.49566
5.09128
-6.20639
-6.88901
2.04928
-8.7692
5.20397
0.179662
1.95073
4.62854
-0.776938
-5.40371
-4.85204
-5.73942
-3.52766
-1.06523
-2.21566
-6.88771
-6.65878
1.72457
1.65788
2.24941
5.01055
2.06496
4.73786
3.9829
0.429515
1.35181
-14.9027
-3.04589
-15.849
0.827887
-2.52006
-1.72962
9.64511
8.95655
-0.519538
-2.28115
-2.74741
1.88285
1.90115
1.46616
-1.19996
2.00526
3.09992
3.71552
0.342115
0.262539
5.78851
-0.708567
-0.903426
1.87295
-2.81343
0.720171
2.86962
-15.4709
-15.3678
-6.35173
1.32858
0.337621
13.3769
14.5906
0.258024
8.97557
5.71566
1.67708
5.41661
-11.8914
-11.9484
-9.90664
-9.66399
-10.203
-5.92672
1.73878
-11.8364
-11.3537
4.37321
6.84135
1.38202
5.99782
-4.17089
-4.75314
1.70084
0.0809811
6.68489
6.76173
1.58982
1.93288
2.51864
1.65021
-30.8496
-1.03587
-1.03366
4.99482
8.4986
3.11521
3.24895
4.93488
3.81741
5.19435
3.87465
13.4274
9.88203
3.13777
6.15878
0.112523
0.256634
-1.06418
-0.23004
-1.07364
-0.0344068
-0.308425
3.55703
4.98992
-1.02411
1.97853
6.48347
18.3798
0.878959
1.98511
3.14188
-14.7768
-14.2208
3.55837
4.03213
4.73573
-3.14443
2.02764
3.55631
16.5454
6.64108
1.68334
-0.165127
3.27708
3.3262
2.35354
4.37842
-31.0664
4.08799
4.23393
3.03436
-3.55115
1.42882
3.12652
3.22737
3.24429
4.62835
5.08022
8.40284
12.2661
-16.4705
-15.9639
1.38068
3.64298
1.39822
-20.3143
-19.5928
17.6708
16.3186
2.11078
-1.02703
2.42611
3.25256
0.481624
-0.347029
-8.94538
-9.89629
-10.0691
1.5358
-12.1122
-12.467
3.63348
5.06869
4.04835
4.41255
-20.7215
-20.8189
1.55581
0.229031
6.74762
9.97851
3.6581
5.13869
7.25246
7.56237
2.24234
2.87008
11.069
11.048
7.4808
7.98586
10.5318
14.5913
10.0963
14.1955
15.1256
10.1532
4.9782
13.8342
10.614
5.57583
8.84847
6.01361
10.7083
16.6881
8.53071
10.2281
6.81612
10.3718
1.53484
-0.263872
-0.19271
-2.50805
4.60766
3.75
-2.36594
1.56699
-6.83151
-7.16273
-6.61326
1.9675
2.82935
-1.45083
3.72577
4.71032
0.624467
-6.47379
-5.57959
-6.27894
-2.72797
-1.99596
-3.40158
0.0434801
-12.161
1.76401
-12.0146
3.24273
2.62944
11.3074
11.3215
-6.75111
-0.37792
3.95547
5.51304
1.64396
-1.03819
-2.41413
-3.2363
1.5611
-3.09649
-1.22321
-3.03815
-1.90887
0.345353
2.3213
-3.68128
-30.0067
-30.1914
2.2844
4.90509
-18.8796
-18.8405
3.88973
3.19636
2.26964
4.65839
4.55159
0.560478
-0.675955
9.33504
9.8775
2.9142
2.24487
-7.4517
6.81524
7.03905
-11.6634
-12.0335
2.4088
0.824796
5.5899
10.6947
1.99209
1.77182
-6.37601
-1.67409
-3.95926
5.22728
16.4792
16.0727
-7.17817
0.261441
0.219399
9.73338
7.84316
5.65462
-0.156218
1.69665
3.40316
3.50149
-7.56722
3.66367
4.09733
0.0339807
2.49924
2.87115
0.0342582
3.3332
0.707971
-4.24173
1.58465
4.52031
-2.4242
2.9198
-1.18817
-3.10493
-0.376274
1.4366
2.22206
-6.82579
4.07072
1.57565
-4.7256
-3.70854
0.0268887
4.01465
3.40271
-0.673179
-6.15913
-5.53103
-5.97471
-6.82406
-3.21975
13.6811
5.54043
-2.44661
2.09175
-0.345584
1.76435
-3.32416
-1.82571
5.10146
2.05282
4.79866
1.36893
6.34537
-2.93765
0.974416
5.58765
-2.57036
-7.11645
1.9239
-6.31552
-5.0706
-5.82072
-3.69845
-1.13156
-2.92647
-7.68828
-6.59755
4.76898
5.29662
1.87702
-0.340461
1.92023
5.3959
2.08777
-9.5082
-3.18245
-1.84881
3.47642
3.07051
-1.2084
1.21249
0.678078
-15.7164
-15.681
5.88313
6.67618
-0.552715
-9.47484
0.827161
2.1652
-3.35809
3.24221
3.03423
-4.09848
-1.26859
5.58481
0.51535
-0.694527
0.986873
1.56057
0.393424
-0.983744
-2.01614
-16.4375
-16.4831
0.832992
6.68026
9.61313
7.11882
8.33787
-0.298205
1.20295
6.1883
-12.5894
-12.5798
-10.5655
-9.97853
-10.5496
-12.5337
-12.4497
4.51989
4.55772
0.190937
1.90859
-5.34614
-4.32764
0.141768
4.83036
4.94034
0.543328
2.2553
-0.473235
1.65536
-6.64283
2.11135
-0.380786
-31.7336
-0.802426
-1.64774
5.09825
6.22903
5.72371
6.63481
4.08825
4.67228
5.84446
6.72924
6.73628
8.02719
5.40199
1.10335
-0.0320976
-1.75893
0.218549
-1.46654
-7.55587
-0.814599
-0.319528
6.45747
3.0682
1.42489
6.47101
12.8423
2.1831
3.76004
-16.1935
-15.5835
4.32703
5.17769
3.8518
-1.87204
0.0384396
-2.79497
2.56087
1.29861
17.4523
11.6845
-1.55888
2.96147
3.3365
2.44115
0.0179606
0.567913
4.82093
-34.064
3.30493
5.58043
3.62127
0.886251
-3.29587
2.10394
3.32989
4.91649
2.63313
3.25063
4.83985
8.48997
9.1642
-17.0666
-17.4664
3.11049
0.93744
-21.6961
-21.3822
8.0938
5.83844
2.85573
2.74914
1.16109
-0.797861
-1.97817
-10.816
-9.35027
-10.633
1.44898
-0.28763
-12.7418
-13.062
3.81539
1.84056
3.82749
2.65224
-21.8293
-22.0733
1.1212
-0.19787
7.09475
6.82741
4.44578
2.08571
5.63187
5.6944
1.06344
3.74905
7.77838
10.8217
9.36332
8.12649
6.97292
7.25004
7.72868
8.58131
8.45212
4.38124
9.63481
7.20896
7.12791
3.83274
7.13568
5.84535
9.08022
3.08548
5.7319
6.26116
5.21598
6.37734
1.23789
0.084633
0.396382
2.39214
1.76333
0.684187
1.84288
1.91781
2.31418
1.02831
0.951778
0.1873
0.672208
-0.310602
1.60141
1.69316
1.94653
0.695742
-0.116006
0.853463
0.851829
0.192084
1.39758
1.97322
1.7248
0.220079
2.07978
0.844041
3.13599
0.40721
0.491414
0.844706
7.60287
7.60452
1.33259
2.02974
3.97846
4.19148
1.80522
0.0498985
1.50718
2.00007
1.33503
1.25126
-0.139075
1.53516
1.0423
0.783443
2.0155
0.615453
0.912552
0.0030961
0.00160197
-0.209056
-0.0136814
-0.0137687
0.0481689
7.11148
7.15911
-0.13361
-0.137045
1.42964
3.75785
0.750455
0.0572957
0.864257
0.983701
-0.0262112
1.40667
0.656749
0.662203
0.792652
-0.156965
-0.16337
2.58027
-0.460191
1.48801
1.86909
4.66074
10.7091
10.7294
1.13684
2.26728
-0.0939664
1.42554
3.83497
4.84416
0.51716
0.251269
-0.235086
-0.232383
0.269451
-0.0247535
-0.185337
-0.187147
-0.0805035
0.224611
-0.164158
-0.171086
2.49837
-0.385156
1.40447
1.38748
-0.554255
0.0415446
3.44194
2.32692
1.6857
2.34271
1.18735
0.90677
0.217315
2.60105
0.21539
0.242142
1.99539
3.66763
3.56978
0.948981
1.81802
0.683322
0.662564
0.167308
0.315819
0.0749629
0.99863
2.40605
0.018378
-0.249519
-0.187931
0.916724
-0.813807
2.21242
-0.385277
-0.448843
1.05165
-0.399155
0.0989837
1.41579
-0.00292739
1.29727
1.95309
0.498094
0.504192
0.161156
0.0187305
0.403982
0.366149
0.312436
0.287735
-0.375847
-0.379572
-0.281868
1.87172
3.11016
1.1372
0.328735
-0.0916866
-0.0948436
-0.090862
-0.0893802
0.676548
0.348713
0.311968
0.203127
0.205349
-0.0783881
1.38425
-0.0247156
1.36525
0.250358
1.50777
-0.451055
-0.0701794
2.20247
-0.537504
0.935792
-0.250435
1.88346
1.61643
-0.800754
1.48917
1.05135
-0.135772
0.46233
-0.974965
1.07674
1.17977
-0.137285
-0.126153
0.601116
0.605136
-0.225281
6.50107
6.56333
1.82195
2.16064
0.409796
1.17486
0.55963
0.590405
0.316206
-0.822555
0.865622
0.369565
1.90002
0.102642
2.02068
2.79129
0.329442
0.324822
2.41509
0.0239609
0.183337
0.183039
2.34432
1.92628
2.64224
1.48364
1.16548
1.18317
1.01211
0.557498
1.08195
1.46979
-0.297486
-0.289097
4.0701
4.18438
4.91507
4.99282
0.440404
0.444147
-0.491522
-0.497961
-0.0518508
0.67003
0.13396
1.28563
-0.0623022
0.685809
0.0318358
3.32176
3.35516
0.0420787
2.27017
4.77734
0.130271
-0.265027
3.30847
3.35383
0.552419
0.445296
-0.292351
-0.295497
3.41893
0.189159
0.0389877
-0.0991923
-0.102527
12.3453
12.3877
-0.357885
1.79104
-0.0527538
-0.0543004
0.513259
0.703964
0.825092
3.05047
3.1043
1.98186
0.0566844
2.41609
3.65871
3.6942
3.06202
-0.0660559
-0.0653171
2.1176
2.62067
0.643427
0.729963
-0.247908
-0.257286
-0.527831
0.6301
0.55298
0.756758
0.752916
3.18884
-0.0462504
-0.238834
-0.241953
-0.134697
-0.0370946
0.586319
0.546921
0.267862
-0.137629
0.825608
1.16325
-0.191604
-0.194204
-0.186969
-0.190005
0.893258
0.800072
-0.135051
-0.125582
2.91735
1.34494
-0.375477
-0.386164
-0.0101496
-0.0106296
2.16883
2.16681
4.26863
8.40734
0.365188
0.541956
0.362289
0.538682
0.97061
8.40464
0.63709
0.693397
0.689989
0.633223
0.391744
0.0479568
0.637483
0.389205
0.633104
0.0465917
0.0417121
0.461638
0.042285
0.462996
-1.9133
-0.259574
1.57196
-0.0361652
-2.19885
3.73234
4.72088
-2.69462
1.53136
-6.06381
-7.90896
-6.96923
1.93729
2.86647
0.844776
2.71869
4.66537
3.70745
0.794591
-5.56811
-6.4432
-6.4799
-1.15656
-2.9919
-0.458167
-3.35294
-0.0861041
-11.802
1.81784
-12.3962
2.61584
3.24354
11.3556
11.326
-7.07372
1.8801
5.13785
4.36845
1.7092
-2.42222
-3.96135
1.39576
-2.95816
-3.15276
0.367187
-4.51928
-30.1591
-31.1614
2.25217
-19.6536
-18.8912
3.17054
3.88304
2.10501
4.48415
4.68014
-0.675208
9.38996
9.82087
2.2244
2.91647
-7.75209
7.02891
6.87111
-0.914861
-12.084
-12.2287
0.812553
2.53952
10.6048
5.5967
4.70674
1.71408
2.00586
3.9873
4.57971
-6.20378
-1.59364
-3.76722
5.40888
16.5838
16.2235
-6.62284
-0.737608
0.0203874
7.84066
9.71836
5.51618
-0.18828
1.65733
3.43804
3.49679
-6.88651
4.09715
3.62015
0.232143
-1.88661
2.70031
2.65744
-0.425962
0.740649
-3.31329
5.49637
1.57994
-2.61969
2.44548
-0.451437
-2.38066
0.292714
2.26309
1.40338
-6.48376
1.82863
-3.7037
-4.57513
-0.832522
3.71905
3.61212
-1.84361
-1.68994
-5.29814
-6.40262
-5.99378
-7.3973
-2.5463
5.53873
13.6467
-2.21253
-0.331517
1.9264
-3.45059
5.31035
2.06137
3.31952
1.37181
2.28858
6.34819
-3.54074
0.948538
-3.65049
-7.73586
0.0659465
-5.08479
-6.26785
-5.53956
-2.73105
-1.15296
-2.91689
-6.9076
-7.47626
5.19006
4.86662
-0.326322
1.87847
2.7571
-9.29346
-3.15602
3.02361
3.51608
0.683141
1.2198
-15.169
-15.7271
-1.59126
6.63667
5.88199
-1.16353
-9.40202
0.798341
1.98717
-4.11393
4.85009
-0.57638
5.96754
3.03158
3.23202
1.95361
2.14059
-3.68813
-1.36412
0.565932
-0.790351
-0.776133
0.413205
-2.02132
5.29605
-16.7798
-16.784
0.653494
1.5413
9.60404
6.69078
2.08975
8.4321
7.0681
0.00988154
1.17716
-13.2859
-11.9862
-9.95085
-10.578
-10.2918
5.83301
-11.8864
-12.623
4.47203
4.54536
0.925221
2.01085
-4.22011
-5.32489
0.0552456
0.774517
4.89409
4.84241
1.85642
-0.365637
2.0062
-5.85363
-0.467404
-31.5279
-1.65552
-1.0915
5.13255
6.21263
6.6384
5.73822
4.6495
4.38262
6.71304
5.84316
7.8904
6.74468
1.16692
5.42804
-0.706252
-1.89948
0.372272
-8.23704
-0.134808
-0.066329
-1.48041
6.44821
3.07359
-0.28298
0.548989
12.8201
6.47086
2.46605
2.62813
3.81517
-15.4326
-14.9825
5.01321
4.49688
3.88346
-1.83562
-3.28716
1.29427
2.57834
17.9201
11.7342
3.20726
-0.669919
3.27772
2.99926
-0.0468518
0.564638
-32.9753
5.51543
3.36657
0.844371
-2.83117
0.516756
4.83454
3.15668
2.28669
4.8561
3.21884
9.15504
8.47862
-17.6069
-17.4523
0.948213
3.15823
4.47203
-20.9625
-20.9674
5.84992
8.11208
1.82911
-0.828381
1.16184
2.7461
1.49735
-1.91156
-9.78417
-10.4253
-10.4007
-0.273503
-13.3423
-13.0541
1.81689
3.8371
2.63059
3.83527
-22.0072
-21.9421
-0.176221
1.09182
7.07569
6.83856
2.12665
4.36392
5.65609
5.6434
3.69102
1.21428
10.77
7.772
7.72468
8.54936
6.97017
7.26167
8.08135
9.35473
6.88882
9.52761
4.37805
8.47237
5.63552
3.01421
8.88675
7.15425
7.14174
3.86194
5.08977
6.31407
5.744
6.2784
