# vtk DataFile Version 3.0
vtk output at time 0.5
ASCII
DATASET UNSTRUCTURED_GRID
POINTS 2586 float
-1.84029e-05 0.000489375 0 1.84029e-05 0.000489375 0 -0.000414597 0.000260625 0 
-0.00041175 0.00025 0 -0.000433 0.00022875 0 -0.000433 -0.00022875 0 
-0.00041175 -0.00025 0 -0.000414597 -0.000260625 0 -1.84029e-05 -0.000489375 0 
1.84029e-05 -0.000489375 0 0.000414597 -0.000260625 0 0.000433 -0.00022875 0 
0.000433 0.00022875 0 0.000414597 0.000260625 0 4.25e-05 0 0 
2.125e-05 0.0005 0 5.90898e-17 0.00052125 0 5.90919e-17 0.00097875 0 
2.125e-05 0.001 0 1.84029e-05 0.00101063 0 0.000414597 0.00123937 0 
0.000451403 0.00123937 0 0.000847597 0.00101063 0 0.000866 0.00097875 0 
0.000866 0.00052125 0 0.000847597 0.000489375 0 0.000451403 0.000260625 0 
0.0004755 0.00075 0 0.00045425 0.00025 0 0.000884403 0.000489375 0 
0.0012806 0.000260625 0 0.001299 0.00022875 0 0.001299 -0.00022875 0 
0.0012806 -0.000260625 0 0.000884403 -0.000489375 0 0.000847597 -0.000489375 0 
0.000451403 -0.000260625 0 0.00045425 -0.00025 0 0.0009085 0 0 
0.000866 -0.00052125 0 0.000866 -0.00097875 0 0.000847597 -0.00101063 0 
0.000451403 -0.00123937 0 0.000414597 -0.00123937 0 1.84029e-05 -0.00101063 0 
2.125e-05 -0.001 0 5.90898e-17 -0.00097875 0 5.90919e-17 -0.00052125 0 
2.125e-05 -0.0005 0 0.0004755 -0.00075 0 -1.84029e-05 -0.00101063 0 
-0.000414597 -0.00123937 0 -0.000451403 -0.00123937 0 -0.000847597 -0.00101063 0 
-0.00084475 -0.001 0 -0.000866 -0.00097875 0 -0.000866 -0.00052125 0 
-0.00084475 -0.0005 0 -0.000847597 -0.000489375 0 -0.000451403 -0.000260625 0 
-0.0003905 -0.00075 0 -0.000884403 -0.000489375 0 -0.0012806 -0.000260625 0 
-0.00127775 -0.00025 0 -0.001299 -0.00022875 0 -0.001299 0.00022875 0 
-0.00127775 0.00025 0 -0.0012806 0.000260625 0 -0.000884403 0.000489375 0 
-0.000847597 0.000489375 0 -0.000451403 0.000260625 0 -0.0008235 0 0 
-0.00084475 0.0005 0 -0.000866 0.00052125 0 -0.000866 0.00097875 0 
-0.00084475 0.001 0 -0.000847597 0.00101063 0 -0.000451403 0.00123937 0 
-0.000414597 0.00123937 0 -1.84029e-05 0.00101063 0 -0.0003905 0.00075 0 
-1.84029e-05 0.000489375 -0.0005 1.84029e-05 0.000489375 -0.0005 -0.000414597 0.000260625 -0.0005 
-0.00041175 0.00025 -0.0005 -0.000433 0.00022875 -0.0005 -0.000433 -0.00022875 -0.0005 
-0.00041175 -0.00025 -0.0005 -0.000414597 -0.000260625 -0.0005 -1.84029e-05 -0.000489375 -0.0005 
1.84029e-05 -0.000489375 -0.0005 0.000414597 -0.000260625 -0.0005 0.000433 -0.00022875 -0.0005 
0.000433 0.00022875 -0.0005 0.000414597 0.000260625 -0.0005 4.25e-05 0 -0.0005 
2.125e-05 0.0005 -0.0005 5.90898e-17 0.00052125 -0.0005 5.90919e-17 0.00097875 -0.0005 
2.125e-05 0.001 -0.0005 1.84029e-05 0.00101063 -0.0005 0.000414597 0.00123937 -0.0005 
0.000451403 0.00123937 -0.0005 0.000847597 0.00101063 -0.0005 0.000866 0.00097875 -0.0005 
0.000866 0.00052125 -0.0005 0.000847597 0.000489375 -0.0005 0.000451403 0.000260625 -0.0005 
0.0004755 0.00075 -0.0005 0.00045425 0.00025 -0.0005 0.000884403 0.000489375 -0.0005 
0.0012806 0.000260625 -0.0005 0.001299 0.00022875 -0.0005 0.001299 -0.00022875 -0.0005 
0.0012806 -0.000260625 -0.0005 0.000884403 -0.000489375 -0.0005 0.000847597 -0.000489375 -0.0005 
0.000451403 -0.000260625 -0.0005 0.00045425 -0.00025 -0.0005 0.0009085 0 -0.0005 
0.000866 -0.00052125 -0.0005 0.000866 -0.00097875 -0.0005 0.000847597 -0.00101063 -0.0005 
0.000451403 -0.00123937 -0.0005 0.000414597 -0.00123937 -0.0005 1.84029e-05 -0.00101063 -0.0005 
2.125e-05 -0.001 -0.0005 5.90898e-17 -0.00097875 -0.0005 5.90919e-17 -0.00052125 -0.0005 
2.125e-05 -0.0005 -0.0005 0.0004755 -0.00075 -0.0005 -1.84029e-05 -0.00101063 -0.0005 
-0.000414597 -0.00123937 -0.0005 -0.000451403 -0.00123937 -0.0005 -0.000847597 -0.00101063 -0.0005 
-0.00084475 -0.001 -0.0005 -0.000866 -0.00097875 -0.0005 -0.000866 -0.00052125 -0.0005 
-0.00084475 -0.0005 -0.0005 -0.000847597 -0.000489375 -0.0005 -0.000451403 -0.000260625 -0.0005 
-0.0003905 -0.00075 -0.0005 -0.000884403 -0.000489375 -0.0005 -0.0012806 -0.000260625 -0.0005 
-0.00127775 -0.00025 -0.0005 -0.001299 -0.00022875 -0.0005 -0.001299 0.00022875 -0.0005 
-0.00127775 0.00025 -0.0005 -0.0012806 0.000260625 -0.0005 -0.000884403 0.000489375 -0.0005 
-0.000847597 0.000489375 -0.0005 -0.000451403 0.000260625 -0.0005 -0.0008235 0 -0.0005 
-0.00084475 0.0005 -0.0005 -0.000866 0.00052125 -0.0005 -0.000866 0.00097875 -0.0005 
-0.00084475 0.001 -0.0005 -0.000847597 0.00101063 -0.0005 -0.000451403 0.00123937 -0.0005 
-0.000414597 0.00123937 -0.0005 -1.84029e-05 0.00101063 -0.0005 -0.0003905 0.00075 -0.0005 
-9.82724e-20 0.00047875 0 -0.000335358 0.000306375 0 -0.000256119 0.000352125 0 
-0.000176881 0.000397875 0 -9.76417e-05 0.000443625 0 -0.000412474 0.0002555 0 
-0.000417974 0.000234974 0 -0.000433 -0.00013725 0 -0.000433 -4.575e-05 0 
-0.000433 4.575e-05 0 -0.000433 0.00013725 0 -0.000417974 -0.000234974 0 
-0.000412474 -0.0002555 0 -9.76417e-05 -0.000443625 0 -0.000176881 -0.000397875 0 
-0.000256119 -0.000352125 0 -0.000335358 -0.000306375 0 -1.07223e-19 -0.00047875 0 
0.000335358 -0.000306375 0 0.000256119 -0.000352125 0 0.000176881 -0.000397875 0 
9.76417e-05 -0.000443625 0 0.000414597 -0.000239375 0 0.000433 0.00013725 0 
0.000433 4.575e-05 0 0.000433 -4.575e-05 0 0.000433 -0.00013725 0 
0.000414597 0.000239375 0 9.76417e-05 0.000443625 0 0.000176881 0.000397875 0 
0.000256119 0.000352125 0 0.000335358 0.000306375 0 -1.29514e-19 4.25e-05 0 
-4.25e-05 -3.53397e-19 0 4.07417e-19 -4.25e-05 0 2.05259e-05 0.0004945 0 
1.5026e-05 0.000515026 0 0 0.00061275 0 0 0.00070425 0 
0 0.00079575 0 0 0.00088725 0 1.5026e-05 0.000984974 0 
2.05259e-05 0.0010055 0 9.76417e-05 0.00105638 0 0.000176881 0.00110213 0 
0.000256119 0.00114787 0 0.000335358 0.00119362 0 0.000433 0.00122875 0 
0.000530642 0.00119362 0 0.000609881 0.00114787 0 0.000689119 0.00110213 0 
0.000768358 0.00105638 0 0.000847597 0.000989375 0 0.000866 0.00088725 0 
0.000866 0.00079575 0 0.000866 0.00070425 0 0.000866 0.00061275 0 
0.000847597 0.000510625 0 0.000530642 0.000306375 0 0.000609881 0.000352125 0 
0.000689119 0.000397875 0 0.000768358 0.000443625 0 0.000433 0.00027125 0 
0.000433 0.0007925 0 0.0003905 0.00075 0 0.000433 0.0007075 0 
0.000448026 0.000234974 0 0.000453526 0.0002555 0 0.000866 0.00047875 0 
0.000963642 0.000443625 0 0.00104288 0.000397875 0 0.00112212 0.000352125 0 
0.00120136 0.000306375 0 0.0012806 0.000239375 0 0.001299 0.00013725 0 
0.001299 4.575e-05 0 0.001299 -4.575e-05 0 0.001299 -0.00013725 0 
0.0012806 -0.000239375 0 0.00120136 -0.000306375 0 0.00112212 -0.000352125 0 
0.00104288 -0.000397875 0 0.000963642 -0.000443625 0 0.000866 -0.00047875 0 
0.000530642 -0.000306375 0 0.000609881 -0.000352125 0 0.000689119 -0.000397875 0 
0.000768358 -0.000443625 0 0.000453526 -0.0002555 0 0.000448026 -0.000234974 0 
0.000866 4.25e-05 0 0.0008235 -3.53397e-19 0 0.000866 -4.25e-05 0 
0.000433 -0.00027125 0 0.000847597 -0.000510625 0 0.000866 -0.00061275 0 
0.000866 -0.00070425 0 0.000866 -0.00079575 0 0.000866 -0.00088725 0 
0.000847597 -0.000989375 0 0.000768358 -0.00105638 0 0.000689119 -0.00110213 0 
0.000609881 -0.00114787 0 0.000530642 -0.00119362 0 0.000433 -0.00122875 0 
0.000335358 -0.00119362 0 0.000256119 -0.00114787 0 0.000176881 -0.00110213 0 
9.76417e-05 -0.00105638 0 2.05259e-05 -0.0010055 0 1.5026e-05 -0.000984974 0 
0 -0.00061275 0 0 -0.00070425 0 0 -0.00079575 0 
0 -0.00088725 0 1.5026e-05 -0.000515026 0 2.05259e-05 -0.0004945 0 
0.000433 -0.0007075 0 0.0003905 -0.00075 0 0.000433 -0.0007925 0 
-1.84031e-05 -0.000510625 0 -1.84031e-05 -0.000989375 0 -9.76417e-05 -0.00105638 0 
-0.000176881 -0.00110213 0 -0.000256119 -0.00114787 0 -0.000335358 -0.00119362 0 
-0.000433 -0.00122875 0 -0.000530642 -0.00119362 0 -0.000609881 -0.00114787 0 
-0.000689119 -0.00110213 0 -0.000768358 -0.00105638 0 -0.000845474 -0.0010055 0 
-0.000850974 -0.000984974 0 -0.000866 -0.00088725 0 -0.000866 -0.00079575 0 
-0.000866 -0.00070425 0 -0.000866 -0.00061275 0 -0.000850974 -0.000515026 0 
-0.000845474 -0.0004945 0 -0.000530642 -0.000306375 0 -0.000609881 -0.000352125 0 
-0.000689119 -0.000397875 0 -0.000768358 -0.000443625 0 -0.000433 -0.00027125 0 
-0.000433 -0.0007075 0 -0.0004755 -0.00075 0 -0.000433 -0.0007925 0 
-0.000451403 -0.000239375 0 -0.000866 -0.00047875 0 -0.000963642 -0.000443625 0 
-0.00104288 -0.000397875 0 -0.00112212 -0.000352125 0 -0.00120136 -0.000306375 0 
-0.00127847 -0.0002555 0 -0.00128397 -0.000234974 0 -0.001299 -0.00013725 0 
-0.001299 -4.575e-05 0 -0.001299 4.575e-05 0 -0.001299 0.00013725 0 
-0.00128397 0.000234974 0 -0.00127847 0.0002555 0 -0.00120136 0.000306375 0 
-0.00112212 0.000352125 0 -0.00104288 0.000397875 0 -0.000963642 0.000443625 0 
-0.000866 0.00047875 0 -0.000530642 0.000306375 0 -0.000609881 0.000352125 0 
-0.000689119 0.000397875 0 -0.000768358 0.000443625 0 -0.000451403 0.000239375 0 
-0.000866 4.25e-05 0 -0.0009085 -3.53397e-19 0 -0.000866 -4.25e-05 0 
-0.000433 0.00027125 0 -0.000845474 0.0004945 0 -0.000850974 0.000515026 0 
-0.000866 0.00061275 0 -0.000866 0.00070425 0 -0.000866 0.00079575 0 
-0.000866 0.00088725 0 -0.000850974 0.000984974 0 -0.000845474 0.0010055 0 
-0.000768358 0.00105638 0 -0.000689119 0.00110213 0 -0.000609881 0.00114787 0 
-0.000530642 0.00119362 0 -0.000433 0.00122875 0 -0.000335358 0.00119362 0 
-0.000256119 0.00114787 0 -0.000176881 0.00110213 0 -9.76417e-05 0.00105638 0 
-1.84031e-05 0.000989375 0 -1.84031e-05 0.000510625 0 -0.000433 0.0007925 0 
-0.0004755 0.00075 0 -0.000433 0.0007075 0 -9.82724e-20 0.00047875 -0.0005 
-0.000335358 0.000306375 -0.0005 -0.000256119 0.000352125 -0.0005 -0.000176881 0.000397875 -0.0005 
-9.76417e-05 0.000443625 -0.0005 -0.000412474 0.0002555 -0.0005 -0.000417974 0.000234974 -0.0005 
-0.000433 -0.00013725 -0.0005 -0.000433 -4.575e-05 -0.0005 -0.000433 4.575e-05 -0.0005 
-0.000433 0.00013725 -0.0005 -0.000417974 -0.000234974 -0.0005 -0.000412474 -0.0002555 -0.0005 
-9.76417e-05 -0.000443625 -0.0005 -0.000176881 -0.000397875 -0.0005 -0.000256119 -0.000352125 -0.0005 
-0.000335358 -0.000306375 -0.0005 -1.07223e-19 -0.00047875 -0.0005 0.000335358 -0.000306375 -0.0005 
0.000256119 -0.000352125 -0.0005 0.000176881 -0.000397875 -0.0005 9.76417e-05 -0.000443625 -0.0005 
0.000414597 -0.000239375 -0.0005 0.000433 0.00013725 -0.0005 0.000433 4.575e-05 -0.0005 
0.000433 -4.575e-05 -0.0005 0.000433 -0.00013725 -0.0005 0.000414597 0.000239375 -0.0005 
9.76417e-05 0.000443625 -0.0005 0.000176881 0.000397875 -0.0005 0.000256119 0.000352125 -0.0005 
0.000335358 0.000306375 -0.0005 -1.29514e-19 4.25e-05 -0.0005 -4.25e-05 -3.53397e-19 -0.0005 
4.07417e-19 -4.25e-05 -0.0005 2.05259e-05 0.0004945 -0.0005 1.5026e-05 0.000515026 -0.0005 
0 0.00061275 -0.0005 0 0.00070425 -0.0005 0 0.00079575 -0.0005 
0 0.00088725 -0.0005 1.5026e-05 0.000984974 -0.0005 2.05259e-05 0.0010055 -0.0005 
9.76417e-05 0.00105638 -0.0005 0.000176881 0.00110213 -0.0005 0.000256119 0.00114787 -0.0005 
0.000335358 0.00119362 -0.0005 0.000433 0.00122875 -0.0005 0.000530642 0.00119362 -0.0005 
0.000609881 0.00114787 -0.0005 0.000689119 0.00110213 -0.0005 0.000768358 0.00105638 -0.0005 
0.000847597 0.000989375 -0.0005 0.000866 0.00088725 -0.0005 0.000866 0.00079575 -0.0005 
0.000866 0.00070425 -0.0005 0.000866 0.00061275 -0.0005 0.000847597 0.000510625 -0.0005 
0.000530642 0.000306375 -0.0005 0.000609881 0.000352125 -0.0005 0.000689119 0.000397875 -0.0005 
0.000768358 0.000443625 -0.0005 0.000433 0.00027125 -0.0005 0.000433 0.0007925 -0.0005 
0.0003905 0.00075 -0.0005 0.000433 0.0007075 -0.0005 0.000448026 0.000234974 -0.0005 
0.000453526 0.0002555 -0.0005 0.000866 0.00047875 -0.0005 0.000963642 0.000443625 -0.0005 
0.00104288 0.000397875 -0.0005 0.00112212 0.000352125 -0.0005 0.00120136 0.000306375 -0.0005 
0.0012806 0.000239375 -0.0005 0.001299 0.00013725 -0.0005 0.001299 4.575e-05 -0.0005 
0.001299 -4.575e-05 -0.0005 0.001299 -0.00013725 -0.0005 0.0012806 -0.000239375 -0.0005 
0.00120136 -0.000306375 -0.0005 0.00112212 -0.000352125 -0.0005 0.00104288 -0.000397875 -0.0005 
0.000963642 -0.000443625 -0.0005 0.000866 -0.00047875 -0.0005 0.000530642 -0.000306375 -0.0005 
0.000609881 -0.000352125 -0.0005 0.000689119 -0.000397875 -0.0005 0.000768358 -0.000443625 -0.0005 
0.000453526 -0.0002555 -0.0005 0.000448026 -0.000234974 -0.0005 0.000866 4.25e-05 -0.0005 
0.0008235 -3.53397e-19 -0.0005 0.000866 -4.25e-05 -0.0005 0.000433 -0.00027125 -0.0005 
0.000847597 -0.000510625 -0.0005 0.000866 -0.00061275 -0.0005 0.000866 -0.00070425 -0.0005 
0.000866 -0.00079575 -0.0005 0.000866 -0.00088725 -0.0005 0.000847597 -0.000989375 -0.0005 
0.000768358 -0.00105638 -0.0005 0.000689119 -0.00110213 -0.0005 0.000609881 -0.00114787 -0.0005 
0.000530642 -0.00119362 -0.0005 0.000433 -0.00122875 -0.0005 0.000335358 -0.00119362 -0.0005 
0.000256119 -0.00114787 -0.0005 0.000176881 -0.00110213 -0.0005 9.76417e-05 -0.00105638 -0.0005 
2.05259e-05 -0.0010055 -0.0005 1.5026e-05 -0.000984974 -0.0005 0 -0.00061275 -0.0005 
0 -0.00070425 -0.0005 0 -0.00079575 -0.0005 0 -0.00088725 -0.0005 
1.5026e-05 -0.000515026 -0.0005 2.05259e-05 -0.0004945 -0.0005 0.000433 -0.0007075 -0.0005 
0.0003905 -0.00075 -0.0005 0.000433 -0.0007925 -0.0005 -1.84031e-05 -0.000510625 -0.0005 
-1.84031e-05 -0.000989375 -0.0005 -9.76417e-05 -0.00105638 -0.0005 -0.000176881 -0.00110213 -0.0005 
-0.000256119 -0.00114787 -0.0005 -0.000335358 -0.00119362 -0.0005 -0.000433 -0.00122875 -0.0005 
-0.000530642 -0.00119362 -0.0005 -0.000609881 -0.00114787 -0.0005 -0.000689119 -0.00110213 -0.0005 
-0.000768358 -0.00105638 -0.0005 -0.000845474 -0.0010055 -0.0005 -0.000850974 -0.000984974 -0.0005 
-0.000866 -0.00088725 -0.0005 -0.000866 -0.00079575 -0.0005 -0.000866 -0.00070425 -0.0005 
-0.000866 -0.00061275 -0.0005 -0.000850974 -0.000515026 -0.0005 -0.000845474 -0.0004945 -0.0005 
-0.000530642 -0.000306375 -0.0005 -0.000609881 -0.000352125 -0.0005 -0.000689119 -0.000397875 -0.0005 
-0.000768358 -0.000443625 -0.0005 -0.000433 -0.00027125 -0.0005 -0.000433 -0.0007075 -0.0005 
-0.0004755 -0.00075 -0.0005 -0.000433 -0.0007925 -0.0005 -0.000451403 -0.000239375 -0.0005 
-0.000866 -0.00047875 -0.0005 -0.000963642 -0.000443625 -0.0005 -0.00104288 -0.000397875 -0.0005 
-0.00112212 -0.000352125 -0.0005 -0.00120136 -0.000306375 -0.0005 -0.00127847 -0.0002555 -0.0005 
-0.00128397 -0.000234974 -0.0005 -0.001299 -0.00013725 -0.0005 -0.001299 -4.575e-05 -0.0005 
-0.001299 4.575e-05 -0.0005 -0.001299 0.00013725 -0.0005 -0.00128397 0.000234974 -0.0005 
-0.00127847 0.0002555 -0.0005 -0.00120136 0.000306375 -0.0005 -0.00112212 0.000352125 -0.0005 
-0.00104288 0.000397875 -0.0005 -0.000963642 0.000443625 -0.0005 -0.000866 0.00047875 -0.0005 
-0.000530642 0.000306375 -0.0005 -0.000609881 0.000352125 -0.0005 -0.000689119 0.000397875 -0.0005 
-0.000768358 0.000443625 -0.0005 -0.000451403 0.000239375 -0.0005 -0.000866 4.25e-05 -0.0005 
-0.0009085 -3.53397e-19 -0.0005 -0.000866 -4.25e-05 -0.0005 -0.000433 0.00027125 -0.0005 
-0.000845474 0.0004945 -0.0005 -0.000850974 0.000515026 -0.0005 -0.000866 0.00061275 -0.0005 
-0.000866 0.00070425 -0.0005 -0.000866 0.00079575 -0.0005 -0.000866 0.00088725 -0.0005 
-0.000850974 0.000984974 -0.0005 -0.000845474 0.0010055 -0.0005 -0.000768358 0.00105638 -0.0005 
-0.000689119 0.00110213 -0.0005 -0.000609881 0.00114787 -0.0005 -0.000530642 0.00119362 -0.0005 
-0.000433 0.00122875 -0.0005 -0.000335358 0.00119362 -0.0005 -0.000256119 0.00114787 -0.0005 
-0.000176881 0.00110213 -0.0005 -9.76417e-05 0.00105638 -0.0005 -1.84031e-05 0.000989375 -0.0005 
-1.84031e-05 0.000510625 -0.0005 -0.000433 0.0007925 -0.0005 -0.0004755 0.00075 -0.0005 
-0.000433 0.0007075 -0.0005 0.000166833 -0.000159585 0 0.000165961 0.000165961 0 
-0.000162277 0.000168837 0 -0.000162539 -0.000168697 0 -0.000316174 -0.000207462 0 
-0.000316174 0.000207462 0 -1.7625e-06 0.00020878 0 -0.000200494 5.10348e-06 0 
0.000198022 -6.49099e-06 0 -3.82827e-06 -0.000208798 0 -0.0003642 0.000214286 0 
-0.0003642 -0.000214286 0 0.000301049 0.000166193 0 0.000312424 -0.000170987 0 
-7.30908e-06 -0.00035148 0 7.30908e-06 0.00035148 0 0.000109232 0.000285545 0 
-0.000107519 -0.000286192 0 -0.000304808 7.69979e-05 0 -0.000308572 -7.52569e-05 0 
0.000106639 -0.000294843 0 -0.00010493 0.000296588 0 8.50608e-05 -8.41794e-05 0 
8.82006e-05 9.78925e-05 0 -9.29688e-05 8.1944e-05 0 -9.5784e-05 -8.5049e-05 0 
-0.00037448 0.000247295 0 -0.00037448 -0.000247295 0 -0.000226807 0.000247375 0 
-0.00022696 -0.000246565 0 0.000318161 -5.24395e-05 0 0.00030573 6.09258e-05 0 
-0.000251653 -0.000142326 0 -0.000251653 0.000142326 0 3.07451e-05 -0.00041094 0 
-3.07451e-05 0.00041094 0 0.00022921 -0.000246251 0 0.000229478 0.000241816 0 
2.27436e-05 0.000133221 0 1.86722e-05 -0.000131409 0 -0.000131489 -2.16615e-05 0 
0.00013003 -1.62999e-05 0 -0.00037383 0.000149154 0 -0.00037383 -0.000149154 0 
0.000234918 -9.03863e-05 0 0.000328799 0.000234244 0 0.000330695 -0.000235043 0 
0.000223602 9.28059e-05 0 -8.24081e-05 0.000181543 0 -7.93229e-05 -0.000178683 0 
-0.000174487 7.88274e-05 0 9.06107e-05 -0.000168878 0 9.31592e-05 0.000169495 0 
-0.000165177 -7.38619e-05 0 -9.20929e-05 -0.000358769 0 9.20929e-05 0.000358769 0 
3.47644e-05 0.000422113 0 -3.47644e-05 -0.000422113 0 -0.00039524 0.000187946 0 
-0.00039524 -0.000187946 0 -0.00036071 1.92365e-06 0 0.000388959 -0.000188051 0 
0.000390003 0.000186364 0 6.43444e-05 -0.000355671 0 -6.37768e-05 0.000356891 0 
2.80563e-05 -0.000283426 0 -2.80563e-05 0.000283426 0 0.000158032 5.64575e-05 0 
4.0579e-05 0.000286843 0 -4.0579e-05 -0.000286843 0 0.000187449 0.000307262 0 
0.000159892 -7.91024e-05 0 -0.000184905 -0.00030951 0 0.000358611 0.000105752 0 
0.000363074 -0.00011688 0 -0.000325009 0.000251333 0 -0.000325009 -0.000251333 0 
-0.000240838 -7.12684e-05 0 -0.000314691 -0.000147697 0 -0.000314417 0.000147824 0 
-0.000404578 0.00024054 0 -0.000403308 0.000218831 0 -0.000404578 -0.00024054 0 
-0.000403308 -0.000218831 0 0.000191925 -0.0003084 0 -0.000260053 0.000200474 0 
-0.000260078 -0.000200417 0 -2.84262e-05 0.000450764 0 2.84262e-05 -0.000450764 0 
-0.000189066 0.000311072 0 -0.000240999 7.45278e-05 0 -0.000278935 4.78174e-06 0 
0.000354779 1.89656e-05 0 0.000162497 0.000232229 0 0.000376671 0.000245397 0 
0.000376841 -0.000245894 0 0.000157204 -0.000230896 0 0.000234792 0.000171119 0 
-0.000151291 -0.000232673 0 -2.32986e-05 8.92785e-05 0 -3.11926e-05 -8.95957e-05 0 
-9.03847e-05 2.2115e-05 0 9.12302e-05 3.30279e-05 0 -0.000152334 0.000235849 0 
0.000239556 -0.000175069 0 -0.000374753 9.03378e-05 0 -0.000376425 -8.91537e-05 0 
4.61669e-05 -4.59906e-05 0 6.62281e-05 0.000232832 0 3.85868e-05 8.10868e-05 0 
-7.69579e-05 -3.79434e-05 0 0.000127486 -0.000360083 0 7.07506e-05 -0.00023716 0 
0.000272535 3.89675e-06 0 -7.65081e-05 -0.000238638 0 0.00014561 0.000112396 0 
-0.000352537 0.000183264 0 -0.000352576 -0.000183245 0 -0.000270615 -0.000285639 0 
-0.000269954 0.000283517 0 -7.38981e-05 0.000241237 0 0.00028245 0.000113194 0 
-0.000128597 0.00035529 0 0.000277733 0.00021912 0 0.000279019 -0.000221334 0 
0.000293419 -0.000117053 0 -4.98304e-05 4.71675e-05 0 -3.82924e-05 0.000144636 0 
-3.82924e-05 -0.000144636 0 -0.000137965 3.32657e-05 0 -0.00012318 0.000133204 0 
-0.000120047 -0.000136339 0 -0.000206789 -0.00019438 0 0.000125599 -0.000122936 0 
-0.000206748 0.000194842 0 -0.000279599 0.000238032 0 -0.000279767 -0.000238283 0 
-0.000195529 0.000130609 0 -0.000197761 -0.000129013 0 2.37414e-05 -7.8735e-05 0 
7.89976e-05 -2.26884e-05 0 0.000279552 0.000278672 0 0.000279873 -0.000279044 0 
4.48012e-06 0.00044547 0 -4.48012e-06 -0.00044547 0 0.000598961 0.000584039 0 
0.000602744 0.00091226 0 0.000270474 0.000918651 0 0.000270149 0.000581615 0 
0.000116826 0.000957462 0 0.000116826 0.000542538 0 0.000429172 0.000958798 0 
0.000232505 0.000755103 0 0.000636012 0.000747201 0 0.000434763 0.00054122 0 
6.87997e-05 0.000964286 0 6.87997e-05 0.000535714 0 0.000745424 0.000920987 0 
0.000734049 0.000583807 0 0.000425691 0.00039852 0 0.000425691 0.00110148 0 
0.000325481 0.00103619 0 0.00032556 0.000464273 0 0.000128192 0.000826998 0 
0.000124428 0.000674743 0 0.000539639 0.00104484 0 0.000539618 0.000454793 0 
0.000520463 0.000653783 0 0.000521988 0.00084822 0 0.000340031 0.000831944 0 
0.00034624 0.000661734 0 5.85195e-05 0.000997295 0 5.85195e-05 0.000502705 0 
0.00020604 0.000996565 0 0.00020604 0.000503435 0 0.000751161 0.00080244 0 
0.00073873 0.000689074 0 0.000181347 0.000607674 0 0.000181347 0.000892326 0 
0.000463745 0.00033906 0 0.000463745 0.00116094 0 0.00066221 0.000996251 0 
0.000655871 0.000515061 0 0.000455531 0.000883279 0 0.0004137 0.000617913 0 
0.000302544 0.000731006 0 0.000569409 0.000742828 0 5.91695e-05 0.000899154 0 
5.91695e-05 0.000600846 0 0.000666622 0.000847886 0 0.000763695 0.000985043 0 
0.000761799 0.000515756 0 0.000662952 0.000664982 0 0.000353677 0.000928683 0 
0.000512323 0.000571317 0 0.000258513 0.000828827 0 0.000526529 0.000920143 0 
0.000348994 0.000575642 0 0.000269055 0.00067649 0 0.000340907 0.000391231 0 
0.000340907 0.00110877 0 0.000398236 0.00117211 0 0.000398236 0.000327887 0 
3.77595e-05 0.000937946 0 3.77595e-05 0.000562054 0 7.22902e-05 0.000751924 0 
0.000821959 0.000938051 0 0.000823003 0.000563636 0 0.000497344 0.00110567 0 
0.000497341 0.000394268 0 0.000595975 0.000808208 0 0.000461056 0.000466574 0 
0.000461056 0.00103343 0 0.000392421 0.00103684 0 0.000392458 0.000463164 0 
0.000248106 0.000440556 0 0.000248095 0.00105951 0 0.000791611 0.000644248 0 
0.000796074 0.00086688 0 0.000107991 0.00100133 0 0.000107991 0.000498667 0 
0.000192237 0.000678753 0 0.000118309 0.000602303 0 0.000118584 0.000897824 0 
2.84222e-05 0.00099054 0 2.96921e-05 0.000968831 0 2.84222e-05 0.00050946 0 
2.96921e-05 0.000531169 0 0.000584827 0.000674445 0 0.000624925 0.0010584 0 
0.000620086 0.000439056 0 0.000172934 0.000950423 0 0.000172922 0.000549583 0 
0.000461426 0.00120076 0 0.000461426 0.000299236 0 0.000192001 0.000824528 0 
0.000154074 0.000754784 0 0.000787779 0.000731034 0 0.000809841 0.000995894 0 
0.000809671 0.000504603 0 0.000589469 0.00097835 0 0.000571747 0.000512487 0 
0.000673596 0.000588147 0 0.000281249 0.000518091 0 0.00028171 0.000982668 0 
0.000409676 0.000839285 0 0.000465934 0.000658411 0 0.000524589 0.000782934 0 
0.000342119 0.000777068 0 0.000672682 0.000926159 0 5.82468e-05 0.000840338 0 
5.65752e-05 0.000660846 0 0.000386493 0.000703192 0 0.000361584 0.000514775 0 
0.000471587 0.000831087 0 0.000510532 0.000709986 0 0.000559513 0.000389323 0 
0.000560486 0.00111008 0 0.000503751 0.00098716 0 0.000707209 0.000747103 0 
0.000356492 0.000988637 0 8.04633e-05 0.000933264 0 8.04241e-05 0.000566755 0 
0.000162386 0.000464369 0 0.000162385 0.00103564 0 0.000578393 0.000862613 0 
0.000503901 0.000509278 0 0.000714127 0.000640342 0 0.000712044 0.000971552 0 
0.000710619 0.000533186 0 0.000726252 0.00086828 0 0.000383065 0.000798159 0 
0.000471292 0.000605364 0 0.000394708 0.000894636 0 0.000295143 0.00078479 0 
0.000311567 0.000884914 0 0.000544105 0.000613927 0 0.000226145 0.000555712 0 
0.000226234 0.0009443 0 0.000307419 0.000615421 0 0.000153235 0.000988284 0 
0.000153233 0.000511718 0 0.000237647 0.000880726 0 0.000238317 0.000620115 0 
0.000410377 0.000668704 0 0.000352297 0.000726325 0 0.000712874 0.00102905 0 
0.000708438 0.00047242 0 0.00042852 0.00030453 0 0.00042852 0.00119547 0 
0.00103283 -0.000159585 0 0.00103196 0.000165961 0 0.00070371 0.000168883 0 
0.000703474 -0.000168651 0 0.000549826 0.000207462 0 0.000549826 -0.000207462 0 
0.000864237 0.00020878 0 0.000665505 -1.75358e-06 0 0.00106402 -6.49099e-06 0 
0.000862172 -0.000208798 0 0.0005018 0.000214286 0 0.0005018 -0.000214286 0 
0.00117842 -0.000170987 0 0.00116705 0.000166193 0 0.000858691 -0.00035148 0 
0.000873309 0.00035148 0 0.000975232 0.000285545 0 0.000758481 -0.000286192 0 
0.000561503 7.6703e-05 0 0.000555269 -7.65899e-05 0 0.000972639 -0.000294843 0 
0.00076107 0.000296588 0 0.000951061 -8.41794e-05 0 0.000954201 9.78925e-05 0 
0.000770216 8.5049e-05 0 0.000773031 -8.1944e-05 0 0.00049152 0.000247295 0 
0.00049152 -0.000247295 0 0.000639193 0.000247375 0 0.00063904 -0.000246565 0 
0.00118416 -5.24395e-05 0 0.00117173 6.09258e-05 0 0.000614347 -0.000142326 0 
0.000614347 0.000142326 0 0.000896745 -0.00041094 0 0.000835255 0.00041094 0 
0.00109521 -0.000246251 0 0.00109548 0.000241816 0 0.000888744 0.000133221 0 
0.000884672 -0.000131409 0 0.000734511 2.22198e-05 0 0.00099603 -1.62999e-05 0 
0.00049217 0.000149154 0 0.00049217 -0.000149154 0 0.00110092 -9.03863e-05 0 
0.0011967 -0.000235043 0 0.0011948 0.000234244 0 0.0010896 9.28059e-05 0 
0.000783591 0.000181545 0 0.000786677 -0.000178683 0 0.000691513 -7.86239e-05 0 
0.000956611 -0.000168878 0 0.000959159 0.000169495 0 0.000700823 7.45132e-05 0 
0.000773907 -0.000358769 0 0.000958093 0.000358769 0 0.000900764 0.000422113 0 
0.000831236 -0.000422113 0 0.00047076 0.000187946 0 0.00047076 -0.000187946 0 
0.000506327 1.20793e-06 0 0.00125496 -0.000188051 0 0.001256 0.000186364 0 
0.000930344 -0.000355671 0 0.000802223 0.000356891 0 0.000894056 -0.000283426 0 
0.000837944 0.000283426 0 0.00102403 5.64575e-05 0 0.000906579 0.000286843 0 
0.000825421 -0.000286843 0 0.00105345 0.000307262 0 0.00102589 -7.91024e-05 0 
0.000681095 -0.00030951 0 0.00122461 0.000105752 0 0.00122907 -0.00011688 0 
0.000540991 0.000251333 0 0.000540991 -0.000251333 0 0.000624479 7.32103e-05 0 
0.000551152 -0.000147794 0 0.000551606 0.000147802 0 0.000461422 0.00024054 0 
0.000462692 0.000218831 0 0.000461422 -0.00024054 0 0.000462692 -0.000218831 0 
0.00105793 -0.0003084 0 0.000605948 0.000200473 0 0.000605915 -0.000200421 0 
0.000894426 -0.000450764 0 0.000837574 0.000450764 0 0.000676934 0.000311072 0 
0.000626182 -7.08972e-05 0 0.000584992 5.90258e-06 0 0.00122078 1.89656e-05 0 
0.0010285 0.000232229 0 0.00124284 -0.000245894 0 0.00124267 0.000245397 0 
0.0010232 -0.000230896 0 0.00110079 0.000171119 0 0.00071471 -0.000232668 0 
0.000834965 9.05283e-05 0 0.000842673 -8.85226e-05 0 0.00095723 3.30279e-05 0 
0.000775615 -2.20485e-05 0 0.000713665 0.000235853 0 0.00110556 -0.000175069 0 
0.000491363 9.025e-05 0 0.000488571 -8.87482e-05 0 0.000912167 -4.59906e-05 0 
0.000932228 0.000232832 0 0.000904587 8.10868e-05 0 0.000789049 3.8011e-05 0 
0.000993486 -0.000360083 0 0.000936751 -0.00023716 0 0.00113854 3.89675e-06 0 
0.000789492 -0.000238637 0 0.00101161 0.000112396 0 0.000513466 0.00018326 0 
0.000513402 -0.000183259 0 0.000596046 0.000283517 0 0.000595385 -0.000285639 0 
0.000792102 0.000241238 0 0.00114845 0.000113194 0 0.000737403 0.00035529 0 
0.00114502 -0.000221334 0 0.00114373 0.00021912 0 0.00115942 -0.000117053 0 
0.000816164 -4.7003e-05 0 0.000827708 0.000144636 0 0.000827708 -0.000144636 0 
0.000728035 -3.243e-05 0 0.00074578 0.000136564 0 0.000744567 -0.000134897 0 
0.000659232 -0.0001943 0 0.000991599 -0.000122936 0 0.00065923 0.000194923 0 
0.000586401 0.000238032 0 0.000586231 -0.000238284 0 0.000670788 -0.000130267 0 
0.000668203 0.000129229 0 0.000889614 -8.00602e-05 0 0.000944998 -2.26884e-05 0 
0.00114587 -0.000279044 0 0.00114555 0.000278672 0 0.00087048 0.00044547 0 
0.00086152 -0.00044547 0 0.000598961 -0.000915961 0 0.000603317 -0.000588209 0 
0.000270723 -0.000581163 0 0.000270149 -0.000918385 0 0.000116826 -0.000542538 0 
0.000116826 -0.000957462 0 0.000431238 -0.00054122 0 0.000232505 -0.000744897 0 
0.000636012 -0.000752799 0 0.000434763 -0.00095878 0 6.87997e-05 -0.000535714 0 
6.87997e-05 -0.000964286 0 0.000745424 -0.000579013 0 0.000734049 -0.000916193 0 
0.000425691 -0.00110148 0 0.000440309 -0.00039852 0 0.000542232 -0.000464455 0 
0.00032556 -0.00103573 0 0.000128192 -0.000673002 0 0.000124428 -0.000825257 0 
0.000539618 -0.00104521 0 0.00032807 -0.000453412 0 0.000520463 -0.000846217 0 
0.000521988 -0.00065178 0 0.000340031 -0.000668056 0 0.00034624 -0.000838266 0 
5.85195e-05 -0.000502705 0 5.85195e-05 -0.000997295 0 0.000206193 -0.000502625 0 
0.00020604 -0.000996565 0 0.000751161 -0.00069756 0 0.00073873 -0.000810926 0 
0.000181347 -0.000892326 0 0.000181347 -0.000607674 0 0.000463745 -0.00116094 0 
0.000402255 -0.00033906 0 0.000662471 -0.000504287 0 0.000655871 -0.000984939 0 
0.000455875 -0.000616724 0 0.0004137 -0.000882087 0 0.000302544 -0.000768994 0 
0.000569409 -0.000757172 0 5.91695e-05 -0.000600846 0 5.91695e-05 -0.000899154 0 
0.000666622 -0.000652114 0 0.000763695 -0.000514957 0 0.000761799 -0.000984244 0 
0.000662952 -0.000835018 0 0.000350592 -0.000568457 0 0.000512323 -0.000928683 0 
0.000258513 -0.000671173 0 0.000526882 -0.000581015 0 0.000348994 -0.000924358 0 
0.000269055 -0.00082351 0 0.000340907 -0.00110877 0 0.000525093 -0.000391231 0 
0.000398236 -0.00117211 0 0.000467764 -0.000327887 0 3.77595e-05 -0.000562054 0 
3.77595e-05 -0.000937946 0 7.22902e-05 -0.000748076 0 0.000821959 -0.000561949 0 
0.000823003 -0.000936364 0 0.000497341 -0.00110573 0 0.000369223 -0.000393109 0 
0.000595975 -0.000691792 0 0.000461056 -0.00103343 0 0.000404944 -0.000466574 0 
0.000473579 -0.000463157 0 0.000392458 -0.00103684 0 0.000620449 -0.000442181 0 
0.000248106 -0.00105944 0 0.000791611 -0.000855752 0 0.000796074 -0.00063312 0 
0.000107991 -0.000498667 0 0.000107991 -0.00100133 0 0.000192237 -0.000821247 0 
0.000118309 -0.000897697 0 0.000118584 -0.000602176 0 2.84222e-05 -0.00050946 0 
2.96921e-05 -0.000531169 0 2.84222e-05 -0.00099054 0 2.96921e-05 -0.000968831 0 
0.000584827 -0.000825555 0 0.000620086 -0.00106094 0 0.000172947 -0.000549526 0 
0.000172922 -0.000950417 0 0.000461426 -0.00120076 0 0.000404574 -0.000299236 0 
0.000243934 -0.000438928 0 0.000192001 -0.000675472 0 0.000154074 -0.000745216 0 
0.000787779 -0.000768966 0 0.000588723 -0.000523989 0 0.000809841 -0.000504106 0 
0.000809671 -0.000995397 0 0.000571747 -0.000987513 0 0.000673596 -0.000911853 0 
0.000281249 -0.000981909 0 0.000409717 -0.000660715 0 0.000465934 -0.000841589 0 
0.000524589 -0.000717066 0 0.000342119 -0.000722933 0 0.000280666 -0.000514151 0 
0.000672694 -0.000574319 0 5.82468e-05 -0.000659662 0 5.65752e-05 -0.000839154 0 
0.000386493 -0.000796808 0 0.000361584 -0.000985225 0 0.000499228 -0.000517168 0 
0.000471587 -0.000668913 0 0.000510532 -0.000790014 0 0.000559513 -0.00111068 0 
0.000707209 -0.000752897 0 8.04633e-05 -0.000566736 0 8.04241e-05 -0.000933245 0 
0.000163046 -0.000466483 0 0.000162386 -0.00103563 0 0.000578393 -0.000637387 0 
0.000503901 -0.000990722 0 0.000359102 -0.000508763 0 0.000714127 -0.000859658 0 
0.000304403 -0.00039471 0 0.000712099 -0.000528651 0 0.000710619 -0.000966814 0 
0.000726254 -0.000631789 0 0.000383073 -0.000701841 0 0.000471292 -0.000894636 0 
0.000394708 -0.000605364 0 0.000295143 -0.00071521 0 0.000544105 -0.000886073 0 
0.00030982 -0.000616796 0 0.000226145 -0.000944288 0 0.000307419 -0.000884579 0 
0.000226252 -0.000555158 0 0.000153401 -0.000511968 0 0.000153233 -0.000988282 0 
0.000237471 -0.000619391 0 0.000238317 -0.000879885 0 0.000410377 -0.000831296 0 
0.000352297 -0.000773675 0 0.00071621 -0.000470678 0 0.000708438 -0.00102758 0 
0.00043748 -0.00030453 0 0.00042852 -0.00119547 0 -0.000266167 -0.000909585 0 
-0.00026339 -0.000582669 0 -0.000595526 -0.000581349 0 -0.000595539 -0.000918697 0 
-0.000749174 -0.000957462 0 -0.000749174 -0.000542538 0 -0.000436828 -0.000541202 0 
-0.000633495 -0.000748246 0 -0.000234978 -0.000756491 0 -0.000436828 -0.000958798 0 
-0.0007972 -0.000964286 0 -0.0007972 -0.000535714 0 -0.000131951 -0.000583807 0 
-0.000120576 -0.000920987 0 -0.000440309 -0.00110148 0 -0.000440309 -0.00039852 0 
-0.000540519 -0.000463808 0 -0.000540519 -0.00103619 0 -0.000737497 -0.000826703 0 
-0.000743731 -0.00067341 0 -0.000326361 -0.000455157 0 -0.000326361 -0.00104484 0 
-0.000347939 -0.000834179 0 -0.000344799 -0.000652107 0 -0.000525969 -0.000668056 0 
-0.000528784 -0.000835049 0 -0.00080748 -0.000997295 0 -0.00080748 -0.000502705 0 
-0.00065996 -0.000996565 0 -0.00065996 -0.000503435 0 -0.000114839 -0.00080244 0 
-0.00012727 -0.000689074 0 -0.000684653 -0.000892326 0 -0.000684653 -0.000607674 0 
-0.000402255 -0.00033906 0 -0.000402255 -0.00116094 0 -0.00020379 -0.000996251 0 
-0.000209694 -0.000514898 0 -0.000410601 -0.000616776 0 -0.000414328 -0.000881409 0 
-0.000564489 -0.00077222 0 -0.00030297 -0.0007663 0 -0.000806831 -0.000899154 0 
-0.000806831 -0.000600846 0 -0.000198082 -0.000840386 0 -0.000104201 -0.000515756 0 
-0.000102305 -0.000985043 0 -0.000210482 -0.000662469 0 -0.000512323 -0.000571317 0 
-0.000512323 -0.000928683 0 -0.000607487 -0.000671376 0 -0.000342389 -0.000918878 0 
-0.000339591 -0.000579218 0 -0.000598177 -0.000824513 0 -0.000525093 -0.00110877 0 
-0.000525093 -0.000391231 0 -0.000467764 -0.00117211 0 -0.000467764 -0.000327887 0 
-0.00082824 -0.000937946 0 -0.00082824 -0.000562054 0 -0.000792673 -0.000751208 0 
-4.40406e-05 -0.000938051 0 -4.29968e-05 -0.000563636 0 -0.000368656 -0.000394329 0 
-0.000368656 -0.00110567 0 -0.000404944 -0.000466574 0 -0.000404944 -0.00103343 0 
-0.000274968 -0.000693542 0 -0.000473579 -0.000463157 0 -0.000473579 -0.00103684 0 
-0.000273108 -0.000829102 0 -0.000617905 -0.00105951 0 -0.000617905 -0.00044049 0 
-7.4389e-05 -0.000644248 0 -6.99258e-05 -0.00086688 0 -0.000758009 -0.00100133 0 
-0.000758009 -0.000498667 0 -0.000674521 -0.00082321 0 -0.000747394 -0.000897802 0 
-0.000747848 -0.000602206 0 -0.000837578 -0.00099054 0 -0.000836308 -0.000968831 0 
-0.000837578 -0.00050946 0 -0.000836308 -0.000531169 0 -0.00024589 -0.000439066 0 
-0.000241075 -0.0010584 0 -0.000693065 -0.000950422 0 -0.000693085 -0.000549579 0 
-0.000404574 -0.00120076 0 -0.000404574 -0.000299236 0 -0.000672818 -0.000679103 0 
-0.000714008 -0.000755903 0 -7.82213e-05 -0.000731034 0 -5.6329e-05 -0.000504603 0 
-5.61586e-05 -0.000995894 0 -0.000275796 -0.000980896 0 -0.000285676 -0.000513219 0 
-0.000186165 -0.000585602 0 -0.000584291 -0.000982673 0 -0.00058429 -0.000517332 0 
-0.00045634 -0.000660721 0 -0.000464193 -0.000839596 0 -0.00034177 -0.000716972 0 
-0.000523385 -0.000727952 0 -0.000193444 -0.000925069 0 -0.000807637 -0.00084025 0 
-0.000810429 -0.000661252 0 -0.000386833 -0.000795991 0 -0.000394413 -0.000668913 0 
-0.000509958 -0.000787971 0 -0.000305514 -0.00111008 0 -0.000306477 -0.00038941 0 
-0.000362249 -0.00098716 0 -0.00035868 -0.000511074 0 -0.000160645 -0.000746982 0 
-0.000509508 -0.000511363 0 -0.000509508 -0.000988638 0 -0.00028739 -0.000637604 0 
-0.000785534 -0.00093326 0 -0.000785598 -0.000566741 0 -0.000703615 -0.00103564 0 
-0.000703615 -0.000464361 0 -0.000148903 -0.000636616 0 -0.00015636 -0.000534148 0 
-0.000153981 -0.000971334 0 -0.000139581 -0.000867053 0 -0.000482839 -0.000702846 0 
-0.000471292 -0.000605364 0 -0.000471292 -0.000894636 0 -0.000570965 -0.00071757 0 
-0.000554433 -0.000615103 0 -0.000553903 -0.000884892 0 -0.000639788 -0.00094438 0 
-0.000639768 -0.0005557 0 -0.000307401 -0.000872936 0 -0.000712765 -0.000988284 0 
-0.000712769 -0.000511716 0 -0.000628213 -0.000619733 0 -0.000630855 -0.000879083 0 
-0.000409259 -0.000828735 0 -0.000354002 -0.000772688 0 -0.000155373 -0.000471972 0 
-0.000153127 -0.00102904 0 -0.00043748 -0.00030453 0 -0.00043748 -0.00119547 0 
-0.000699167 -0.000159585 0 -0.00102828 0.000168837 0 -0.000700039 0.000165961 0 
-0.00102854 -0.000168697 0 -0.00118217 0.000207462 0 -0.00118217 -0.000207462 0 
-0.000867762 0.00020878 0 -0.00106649 5.10348e-06 0 -0.000667978 -6.49099e-06 0 
-0.000869828 -0.000208798 0 -0.0012302 0.000214286 0 -0.0012302 -0.000214286 0 
-0.000564951 0.000166193 0 -0.000553576 -0.000170987 0 -0.000873309 -0.00035148 0 
-0.000858691 0.00035148 0 -0.000756768 0.000285545 0 -0.000973519 -0.000286192 0 
-0.00117081 7.69979e-05 0 -0.00117457 -7.52569e-05 0 -0.000759361 -0.000294843 0 
-0.00097093 0.000296588 0 -0.000780939 -8.41794e-05 0 -0.000958969 8.1944e-05 0 
-0.000777799 9.78925e-05 0 -0.000961784 -8.5049e-05 0 -0.00124048 0.000247295 0 
-0.00124048 -0.000247295 0 -0.00109281 0.000247375 0 -0.00109296 -0.000246565 0 
-0.000547839 -5.24395e-05 0 -0.00056027 6.09258e-05 0 -0.00111765 0.000142326 0 
-0.00111765 -0.000142326 0 -0.000835255 -0.00041094 0 -0.000896745 0.00041094 0 
-0.00063679 -0.000246251 0 -0.000636522 0.000241816 0 -0.000843256 0.000133221 0 
-0.000847328 -0.000131409 0 -0.000997489 -2.16615e-05 0 -0.00073597 -1.62999e-05 0 
-0.00123983 0.000149154 0 -0.00123983 -0.000149154 0 -0.000631082 -9.03863e-05 0 
-0.000535305 -0.000235043 0 -0.000537201 0.000234244 0 -0.000642398 9.28059e-05 0 
-0.000948408 0.000181543 0 -0.000945323 -0.000178683 0 -0.00104049 7.88274e-05 0 
-0.000775389 -0.000168878 0 -0.000772841 0.000169495 0 -0.00103118 -7.38619e-05 0 
-0.000958093 -0.000358769 0 -0.000773907 0.000358769 0 -0.000900764 -0.000422113 0 
-0.000831236 0.000422113 0 -0.00126124 0.000187946 0 -0.00126124 -0.000187946 0 
-0.00122671 1.92365e-06 0 -0.000477041 -0.000188051 0 -0.000475997 0.000186364 0 
-0.000801656 -0.000355671 0 -0.000929777 0.000356891 0 -0.000837944 -0.000283426 0 
-0.000894056 0.000283426 0 -0.000707968 5.64575e-05 0 -0.000825421 0.000286843 0 
-0.000906579 -0.000286843 0 -0.000678551 0.000307262 0 -0.000706108 -7.91024e-05 0 
-0.0010509 -0.00030951 0 -0.000507389 0.000105752 0 -0.000502926 -0.00011688 0 
-0.00119101 0.000251333 0 -0.00119101 -0.000251333 0 -0.00110684 -7.12684e-05 0 
-0.00118042 0.000147824 0 -0.00118069 -0.000147697 0 -0.00127058 0.00024054 0 
-0.00126931 0.000218831 0 -0.00127058 -0.00024054 0 -0.00126931 -0.000218831 0 
-0.000674075 -0.0003084 0 -0.00112605 0.000200474 0 -0.00112608 -0.000200417 0 
-0.000837574 -0.000450764 0 -0.000894426 0.000450764 0 -0.00105507 0.000311072 0 
-0.001107 7.45278e-05 0 -0.00114494 4.78174e-06 0 -0.000511221 1.89656e-05 0 
-0.000703503 0.000232229 0 -0.000489329 0.000245397 0 -0.000489159 -0.000245894 0 
-0.000708796 -0.000230896 0 -0.000631208 0.000171119 0 -0.00101729 -0.000232673 0 
-0.000889299 8.92785e-05 0 -0.000897193 -8.95957e-05 0 -0.00077477 3.30279e-05 0 
-0.000956385 2.2115e-05 0 -0.00101833 0.000235849 0 -0.000626444 -0.000175069 0 
-0.00124075 9.03378e-05 0 -0.00124242 -8.91537e-05 0 -0.000819833 -4.59906e-05 0 
-0.000799772 0.000232832 0 -0.000827413 8.10868e-05 0 -0.000942958 -3.79434e-05 0 
-0.000738514 -0.000360083 0 -0.000795249 -0.00023716 0 -0.000593465 3.89675e-06 0 
-0.000942508 -0.000238638 0 -0.00072039 0.000112396 0 -0.00121854 0.000183264 0 
-0.00121858 -0.000183245 0 -0.00113595 0.000283517 0 -0.00113662 -0.000285639 0 
-0.000939898 0.000241237 0 -0.00058355 0.000113194 0 -0.000994597 0.00035529 0 
-0.000586981 -0.000221334 0 -0.000588267 0.00021912 0 -0.000572581 -0.000117053 0 
-0.00091583 4.71675e-05 0 -0.000904292 -0.000144636 0 -0.000904292 0.000144636 0 
-0.00100396 3.32657e-05 0 -0.00098918 0.000133204 0 -0.000986047 -0.000136339 0 
-0.00107279 -0.00019438 0 -0.000740401 -0.000122936 0 -0.00107275 0.000194842 0 
-0.0011456 0.000238032 0 -0.00114577 -0.000238283 0 -0.00106153 0.000130609 0 
-0.00106376 -0.000129013 0 -0.000842259 -7.8735e-05 0 -0.000787002 -2.26884e-05 0 
-0.000586448 0.000278672 0 -0.000586127 -0.000279044 0 -0.00087048 -0.00044547 0 
-0.00086152 0.00044547 0 -0.000266167 0.000590415 0 -0.000267039 0.000915961 0 
-0.000595277 0.000918837 0 -0.000595539 0.000581303 0 -0.000749174 0.000542538 0 
-0.000749174 0.000957462 0 -0.000434763 0.00095878 0 -0.000633495 0.000751754 0 
-0.000234978 0.000743509 0 -0.000436828 0.000541202 0 -0.0007972 0.000535714 0 
-0.0007972 0.000964286 0 -0.000131951 0.000916193 0 -0.000120576 0.000579013 0 
-0.000440309 0.00039852 0 -0.000425691 0.00110148 0 -0.000323768 0.00103554 0 
-0.000540519 0.000463808 0 -0.000737497 0.000673297 0 -0.000743731 0.00082659 0 
-0.000326361 0.000455157 0 -0.00053793 0.00104659 0 -0.000347939 0.000665821 0 
-0.000344799 0.000847893 0 -0.000525969 0.000831944 0 -0.000528784 0.000664951 0 
-0.00080748 0.000502705 0 -0.00080748 0.000997295 0 -0.00065996 0.000503435 0 
-0.000659807 0.000997375 0 -0.000114839 0.00069756 0 -0.00012727 0.000810926 0 
-0.000684653 0.000607674 0 -0.000684653 0.000892326 0 -0.000402255 0.00033906 0 
-0.000463745 0.00116094 0 -0.00020379 0.000503749 0 -0.000203522 0.000991815 0 
-0.000410256 0.000883221 0 -0.000414328 0.000618591 0 -0.000564489 0.00072778 0 
-0.00030297 0.0007337 0 -0.000806831 0.000600846 0 -0.000806831 0.000899154 0 
-0.000198082 0.000659614 0 -0.000104201 0.000984244 0 -0.000102305 0.000514957 0 
-0.000209398 0.000842806 0 -0.000515408 0.000931543 0 -0.000512323 0.000571317 0 
-0.000607487 0.000828624 0 -0.000342389 0.000581122 0 -0.000339841 0.000919495 0 
-0.000598177 0.000675487 0 -0.000525093 0.000391231 0 -0.000340907 0.00110877 0 
-0.000398236 0.00117211 0 -0.000467764 0.000327887 0 -0.00082824 0.000562054 0 
-0.00082824 0.000937946 0 -0.000792673 0.000748792 0 -4.40406e-05 0.000561949 0 
-4.29968e-05 0.000936364 0 -0.000368656 0.000394329 0 -0.000496777 0.00110689 0 
-0.000404944 0.000466574 0 -0.000461056 0.00103343 0 -0.000274968 0.000806458 0 
-0.000392421 0.00103684 0 -0.000473579 0.000463157 0 -0.000245551 0.00105726 0 
-0.000273108 0.000670898 0 -0.000617905 0.00044049 0 -7.4389e-05 0.000855752 0 
-6.99258e-05 0.00063312 0 -0.000758009 0.000498667 0 -0.000758009 0.00100133 0 
-0.000674521 0.00067679 0 -0.000747394 0.000602198 0 -0.000747848 0.000897794 0 
-0.000837578 0.00050946 0 -0.000836308 0.000531169 0 -0.000837578 0.00099054 0 
-0.000836308 0.000968831 0 -0.000241075 0.0004416 0 -0.000693065 0.000549578 0 
-0.000693072 0.000950473 0 -0.000404574 0.000299236 0 -0.000461426 0.00120076 0 
-0.000622066 0.00106107 0 -0.000672818 0.000820897 0 -0.000714008 0.000744097 0 
-7.82213e-05 0.000768966 0 -0.000270503 0.000982229 0 -5.6329e-05 0.000995397 0 
-5.61586e-05 0.000504106 0 -0.000275796 0.000519104 0 -0.000198208 0.000921119 0 
-0.000584291 0.000517327 0 -0.000456299 0.000839279 0 -0.000464193 0.000660404 0 
-0.00034177 0.000783028 0 -0.000523385 0.000772048 0 -0.000585334 0.000985849 0 
-0.000193444 0.000574931 0 -0.000807637 0.00065975 0 -0.000810429 0.000838748 0 
-0.000386833 0.000704009 0 -0.000366772 0.000982832 0 -0.000394413 0.000831087 0 
-0.000509958 0.000712029 0 -0.000305514 0.000389917 0 -0.000362249 0.00051284 0 
-0.000160465 0.000753897 0 -0.000509508 0.000511362 0 -0.00028739 0.000862396 0 
-0.000785534 0.00056674 0 -0.000785598 0.000933259 0 -0.000703615 0.000464361 0 
-0.000702954 0.00103352 0 -0.000506898 0.000991237 0 -0.00015055 0.000863194 0 
-0.000561597 0.00110529 0 -0.000153981 0.000528666 0 -0.000155267 0.00096912 0 
-0.000139581 0.000632947 0 -0.00048283 0.000797154 0 -0.000471292 0.000894636 0 
-0.000471292 0.000605364 0 -0.000570965 0.00078243 0 -0.00055618 0.00088318 0 
-0.000553903 0.000615108 0 -0.000639788 0.00055562 0 -0.000307401 0.000627064 0 
-0.00063975 0.000944842 0 -0.000712765 0.000511716 0 -0.000712603 0.000988032 0 
-0.000628389 0.00088015 0 -0.000630855 0.000620917 0 -0.000409259 0.000671265 0 
-0.000354002 0.000727312 0 -0.000153448 0.00102867 0 -0.000153127 0.000470956 0 
-0.00042852 0.00119547 0 -0.00043748 0.00030453 0 0.000166833 -0.000159585 -0.0005 
0.000165961 0.000165961 -0.0005 -0.000162277 0.000168837 -0.0005 -0.000162539 -0.000168697 -0.0005 
-0.000316174 -0.000207462 -0.0005 -0.000316174 0.000207462 -0.0005 -1.7625e-06 0.00020878 -0.0005 
-0.000200494 5.10348e-06 -0.0005 0.000198022 -6.49099e-06 -0.0005 -3.82827e-06 -0.000208798 -0.0005 
-0.0003642 0.000214286 -0.0005 -0.0003642 -0.000214286 -0.0005 0.000301049 0.000166193 -0.0005 
0.000312424 -0.000170987 -0.0005 -7.30908e-06 -0.00035148 -0.0005 7.30908e-06 0.00035148 -0.0005 
0.000109232 0.000285545 -0.0005 -0.000107519 -0.000286192 -0.0005 -0.000304808 7.69979e-05 -0.0005 
-0.000308572 -7.52569e-05 -0.0005 0.000106639 -0.000294843 -0.0005 -0.00010493 0.000296588 -0.0005 
8.50608e-05 -8.41794e-05 -0.0005 8.82006e-05 9.78925e-05 -0.0005 -9.29688e-05 8.1944e-05 -0.0005 
-9.5784e-05 -8.5049e-05 -0.0005 -0.00037448 0.000247295 -0.0005 -0.00037448 -0.000247295 -0.0005 
-0.000226807 0.000247375 -0.0005 -0.00022696 -0.000246565 -0.0005 0.000318161 -5.24395e-05 -0.0005 
0.00030573 6.09258e-05 -0.0005 -0.000251653 -0.000142326 -0.0005 -0.000251653 0.000142326 -0.0005 
3.07451e-05 -0.00041094 -0.0005 -3.07451e-05 0.00041094 -0.0005 0.00022921 -0.000246251 -0.0005 
0.000229478 0.000241816 -0.0005 2.27436e-05 0.000133221 -0.0005 1.86722e-05 -0.000131409 -0.0005 
-0.000131489 -2.16615e-05 -0.0005 0.00013003 -1.62999e-05 -0.0005 -0.00037383 0.000149154 -0.0005 
-0.00037383 -0.000149154 -0.0005 0.000234918 -9.03863e-05 -0.0005 0.000328799 0.000234244 -0.0005 
0.000330695 -0.000235043 -0.0005 0.000223602 9.28059e-05 -0.0005 -8.24081e-05 0.000181543 -0.0005 
-7.93229e-05 -0.000178683 -0.0005 -0.000174487 7.88274e-05 -0.0005 9.06107e-05 -0.000168878 -0.0005 
9.31592e-05 0.000169495 -0.0005 -0.000165177 -7.38619e-05 -0.0005 -9.20929e-05 -0.000358769 -0.0005 
9.20929e-05 0.000358769 -0.0005 3.47644e-05 0.000422113 -0.0005 -3.47644e-05 -0.000422113 -0.0005 
-0.00039524 0.000187946 -0.0005 -0.00039524 -0.000187946 -0.0005 -0.00036071 1.92365e-06 -0.0005 
0.000388959 -0.000188051 -0.0005 0.000390003 0.000186364 -0.0005 6.43444e-05 -0.000355671 -0.0005 
-6.37768e-05 0.000356891 -0.0005 2.80563e-05 -0.000283426 -0.0005 -2.80563e-05 0.000283426 -0.0005 
0.000158032 5.64575e-05 -0.0005 4.0579e-05 0.000286843 -0.0005 -4.0579e-05 -0.000286843 -0.0005 
0.000187449 0.000307262 -0.0005 0.000159892 -7.91024e-05 -0.0005 -0.000184905 -0.00030951 -0.0005 
0.000358611 0.000105752 -0.0005 0.000363074 -0.00011688 -0.0005 -0.000325009 0.000251333 -0.0005 
-0.000325009 -0.000251333 -0.0005 -0.000240838 -7.12684e-05 -0.0005 -0.000314691 -0.000147697 -0.0005 
-0.000314417 0.000147824 -0.0005 -0.000404578 0.00024054 -0.0005 -0.000403308 0.000218831 -0.0005 
-0.000404578 -0.00024054 -0.0005 -0.000403308 -0.000218831 -0.0005 0.000191925 -0.0003084 -0.0005 
-0.000260053 0.000200474 -0.0005 -0.000260078 -0.000200417 -0.0005 -2.84262e-05 0.000450764 -0.0005 
2.84262e-05 -0.000450764 -0.0005 -0.000189066 0.000311072 -0.0005 -0.000240999 7.45278e-05 -0.0005 
-0.000278935 4.78174e-06 -0.0005 0.000354779 1.89656e-05 -0.0005 0.000162497 0.000232229 -0.0005 
0.000376671 0.000245397 -0.0005 0.000376841 -0.000245894 -0.0005 0.000157204 -0.000230896 -0.0005 
0.000234792 0.000171119 -0.0005 -0.000151291 -0.000232673 -0.0005 -2.32986e-05 8.92785e-05 -0.0005 
-3.11926e-05 -8.95957e-05 -0.0005 -9.03847e-05 2.2115e-05 -0.0005 9.12302e-05 3.30279e-05 -0.0005 
-0.000152334 0.000235849 -0.0005 0.000239556 -0.000175069 -0.0005 -0.000374753 9.03378e-05 -0.0005 
-0.000376425 -8.91537e-05 -0.0005 4.61669e-05 -4.59906e-05 -0.0005 6.62281e-05 0.000232832 -0.0005 
3.85868e-05 8.10868e-05 -0.0005 -7.69579e-05 -3.79434e-05 -0.0005 0.000127486 -0.000360083 -0.0005 
7.07506e-05 -0.00023716 -0.0005 0.000272535 3.89675e-06 -0.0005 -7.65081e-05 -0.000238638 -0.0005 
0.00014561 0.000112396 -0.0005 -0.000352537 0.000183264 -0.0005 -0.000352576 -0.000183245 -0.0005 
-0.000270615 -0.000285639 -0.0005 -0.000269954 0.000283517 -0.0005 -7.38981e-05 0.000241237 -0.0005 
0.00028245 0.000113194 -0.0005 -0.000128597 0.00035529 -0.0005 0.000277733 0.00021912 -0.0005 
0.000279019 -0.000221334 -0.0005 0.000293419 -0.000117053 -0.0005 -4.98304e-05 4.71675e-05 -0.0005 
-3.82924e-05 0.000144636 -0.0005 -3.82924e-05 -0.000144636 -0.0005 -0.000137965 3.32657e-05 -0.0005 
-0.00012318 0.000133204 -0.0005 -0.000120047 -0.000136339 -0.0005 -0.000206789 -0.00019438 -0.0005 
0.000125599 -0.000122936 -0.0005 -0.000206748 0.000194842 -0.0005 -0.000279599 0.000238032 -0.0005 
-0.000279767 -0.000238283 -0.0005 -0.000195529 0.000130609 -0.0005 -0.000197761 -0.000129013 -0.0005 
2.37414e-05 -7.8735e-05 -0.0005 7.89976e-05 -2.26884e-05 -0.0005 0.000279552 0.000278672 -0.0005 
0.000279873 -0.000279044 -0.0005 4.48012e-06 0.00044547 -0.0005 -4.48012e-06 -0.00044547 -0.0005 
0.000598961 0.000584039 -0.0005 0.000602744 0.00091226 -0.0005 0.000270474 0.000918651 -0.0005 
0.000270149 0.000581615 -0.0005 0.000116826 0.000957462 -0.0005 0.000116826 0.000542538 -0.0005 
0.000429172 0.000958798 -0.0005 0.000232505 0.000755103 -0.0005 0.000636012 0.000747201 -0.0005 
0.000434763 0.00054122 -0.0005 6.87997e-05 0.000964286 -0.0005 6.87997e-05 0.000535714 -0.0005 
0.000745424 0.000920987 -0.0005 0.000734049 0.000583807 -0.0005 0.000425691 0.00039852 -0.0005 
0.000425691 0.00110148 -0.0005 0.000325481 0.00103619 -0.0005 0.00032556 0.000464273 -0.0005 
0.000128192 0.000826998 -0.0005 0.000124428 0.000674743 -0.0005 0.000539639 0.00104484 -0.0005 
0.000539618 0.000454793 -0.0005 0.000520463 0.000653783 -0.0005 0.000521988 0.00084822 -0.0005 
0.000340031 0.000831944 -0.0005 0.00034624 0.000661734 -0.0005 5.85195e-05 0.000997295 -0.0005 
5.85195e-05 0.000502705 -0.0005 0.00020604 0.000996565 -0.0005 0.00020604 0.000503435 -0.0005 
0.000751161 0.00080244 -0.0005 0.00073873 0.000689074 -0.0005 0.000181347 0.000607674 -0.0005 
0.000181347 0.000892326 -0.0005 0.000463745 0.00033906 -0.0005 0.000463745 0.00116094 -0.0005 
0.00066221 0.000996251 -0.0005 0.000655871 0.000515061 -0.0005 0.000455531 0.000883279 -0.0005 
0.0004137 0.000617913 -0.0005 0.000302544 0.000731006 -0.0005 0.000569409 0.000742828 -0.0005 
5.91695e-05 0.000899154 -0.0005 5.91695e-05 0.000600846 -0.0005 0.000666622 0.000847886 -0.0005 
0.000763695 0.000985043 -0.0005 0.000761799 0.000515756 -0.0005 0.000662952 0.000664982 -0.0005 
0.000353677 0.000928683 -0.0005 0.000512323 0.000571317 -0.0005 0.000258513 0.000828827 -0.0005 
0.000526529 0.000920143 -0.0005 0.000348994 0.000575642 -0.0005 0.000269055 0.00067649 -0.0005 
0.000340907 0.000391231 -0.0005 0.000340907 0.00110877 -0.0005 0.000398236 0.00117211 -0.0005 
0.000398236 0.000327887 -0.0005 3.77595e-05 0.000937946 -0.0005 3.77595e-05 0.000562054 -0.0005 
7.22902e-05 0.000751924 -0.0005 0.000821959 0.000938051 -0.0005 0.000823003 0.000563636 -0.0005 
0.000497344 0.00110567 -0.0005 0.000497341 0.000394268 -0.0005 0.000595975 0.000808208 -0.0005 
0.000461056 0.000466574 -0.0005 0.000461056 0.00103343 -0.0005 0.000392421 0.00103684 -0.0005 
0.000392458 0.000463164 -0.0005 0.000248106 0.000440556 -0.0005 0.000248095 0.00105951 -0.0005 
0.000791611 0.000644248 -0.0005 0.000796074 0.00086688 -0.0005 0.000107991 0.00100133 -0.0005 
0.000107991 0.000498667 -0.0005 0.000192237 0.000678753 -0.0005 0.000118309 0.000602303 -0.0005 
0.000118584 0.000897824 -0.0005 2.84222e-05 0.00099054 -0.0005 2.96921e-05 0.000968831 -0.0005 
2.84222e-05 0.00050946 -0.0005 2.96921e-05 0.000531169 -0.0005 0.000584827 0.000674445 -0.0005 
0.000624925 0.0010584 -0.0005 0.000620086 0.000439056 -0.0005 0.000172934 0.000950423 -0.0005 
0.000172922 0.000549583 -0.0005 0.000461426 0.00120076 -0.0005 0.000461426 0.000299236 -0.0005 
0.000192001 0.000824528 -0.0005 0.000154074 0.000754784 -0.0005 0.000787779 0.000731034 -0.0005 
0.000809841 0.000995894 -0.0005 0.000809671 0.000504603 -0.0005 0.000589469 0.00097835 -0.0005 
0.000571747 0.000512487 -0.0005 0.000673596 0.000588147 -0.0005 0.000281249 0.000518091 -0.0005 
0.00028171 0.000982668 -0.0005 0.000409676 0.000839285 -0.0005 0.000465934 0.000658411 -0.0005 
0.000524589 0.000782934 -0.0005 0.000342119 0.000777068 -0.0005 0.000672682 0.000926159 -0.0005 
5.82468e-05 0.000840338 -0.0005 5.65752e-05 0.000660846 -0.0005 0.000386493 0.000703192 -0.0005 
0.000361584 0.000514775 -0.0005 0.000471587 0.000831087 -0.0005 0.000510532 0.000709986 -0.0005 
0.000559513 0.000389323 -0.0005 0.000560486 0.00111008 -0.0005 0.000503751 0.00098716 -0.0005 
0.000707209 0.000747103 -0.0005 0.000356492 0.000988637 -0.0005 8.04633e-05 0.000933264 -0.0005 
8.04241e-05 0.000566755 -0.0005 0.000162386 0.000464369 -0.0005 0.000162385 0.00103564 -0.0005 
0.000578393 0.000862613 -0.0005 0.000503901 0.000509278 -0.0005 0.000714127 0.000640342 -0.0005 
0.000712044 0.000971552 -0.0005 0.000710619 0.000533186 -0.0005 0.000726252 0.00086828 -0.0005 
0.000383065 0.000798159 -0.0005 0.000471292 0.000605364 -0.0005 0.000394708 0.000894636 -0.0005 
0.000295143 0.00078479 -0.0005 0.000311567 0.000884914 -0.0005 0.000544105 0.000613927 -0.0005 
0.000226145 0.000555712 -0.0005 0.000226234 0.0009443 -0.0005 0.000307419 0.000615421 -0.0005 
0.000153235 0.000988284 -0.0005 0.000153233 0.000511718 -0.0005 0.000237647 0.000880726 -0.0005 
0.000238317 0.000620115 -0.0005 0.000410377 0.000668704 -0.0005 0.000352297 0.000726325 -0.0005 
0.000712874 0.00102905 -0.0005 0.000708438 0.00047242 -0.0005 0.00042852 0.00030453 -0.0005 
0.00042852 0.00119547 -0.0005 0.00103283 -0.000159585 -0.0005 0.00103196 0.000165961 -0.0005 
0.00070371 0.000168883 -0.0005 0.000703474 -0.000168651 -0.0005 0.000549826 0.000207462 -0.0005 
0.000549826 -0.000207462 -0.0005 0.000864237 0.00020878 -0.0005 0.000665505 -1.75358e-06 -0.0005 
0.00106402 -6.49099e-06 -0.0005 0.000862172 -0.000208798 -0.0005 0.0005018 0.000214286 -0.0005 
0.0005018 -0.000214286 -0.0005 0.00117842 -0.000170987 -0.0005 0.00116705 0.000166193 -0.0005 
0.000858691 -0.00035148 -0.0005 0.000873309 0.00035148 -0.0005 0.000975232 0.000285545 -0.0005 
0.000758481 -0.000286192 -0.0005 0.000561503 7.6703e-05 -0.0005 0.000555269 -7.65899e-05 -0.0005 
0.000972639 -0.000294843 -0.0005 0.00076107 0.000296588 -0.0005 0.000951061 -8.41794e-05 -0.0005 
0.000954201 9.78925e-05 -0.0005 0.000770216 8.5049e-05 -0.0005 0.000773031 -8.1944e-05 -0.0005 
0.00049152 0.000247295 -0.0005 0.00049152 -0.000247295 -0.0005 0.000639193 0.000247375 -0.0005 
0.00063904 -0.000246565 -0.0005 0.00118416 -5.24395e-05 -0.0005 0.00117173 6.09258e-05 -0.0005 
0.000614347 -0.000142326 -0.0005 0.000614347 0.000142326 -0.0005 0.000896745 -0.00041094 -0.0005 
0.000835255 0.00041094 -0.0005 0.00109521 -0.000246251 -0.0005 0.00109548 0.000241816 -0.0005 
0.000888744 0.000133221 -0.0005 0.000884672 -0.000131409 -0.0005 0.000734511 2.22198e-05 -0.0005 
0.00099603 -1.62999e-05 -0.0005 0.00049217 0.000149154 -0.0005 0.00049217 -0.000149154 -0.0005 
0.00110092 -9.03863e-05 -0.0005 0.0011967 -0.000235043 -0.0005 0.0011948 0.000234244 -0.0005 
0.0010896 9.28059e-05 -0.0005 0.000783591 0.000181545 -0.0005 0.000786677 -0.000178683 -0.0005 
0.000691513 -7.86239e-05 -0.0005 0.000956611 -0.000168878 -0.0005 0.000959159 0.000169495 -0.0005 
0.000700823 7.45132e-05 -0.0005 0.000773907 -0.000358769 -0.0005 0.000958093 0.000358769 -0.0005 
0.000900764 0.000422113 -0.0005 0.000831236 -0.000422113 -0.0005 0.00047076 0.000187946 -0.0005 
0.00047076 -0.000187946 -0.0005 0.000506327 1.20793e-06 -0.0005 0.00125496 -0.000188051 -0.0005 
0.001256 0.000186364 -0.0005 0.000930344 -0.000355671 -0.0005 0.000802223 0.000356891 -0.0005 
0.000894056 -0.000283426 -0.0005 0.000837944 0.000283426 -0.0005 0.00102403 5.64575e-05 -0.0005 
0.000906579 0.000286843 -0.0005 0.000825421 -0.000286843 -0.0005 0.00105345 0.000307262 -0.0005 
0.00102589 -7.91024e-05 -0.0005 0.000681095 -0.00030951 -0.0005 0.00122461 0.000105752 -0.0005 
0.00122907 -0.00011688 -0.0005 0.000540991 0.000251333 -0.0005 0.000540991 -0.000251333 -0.0005 
0.000624479 7.32103e-05 -0.0005 0.000551152 -0.000147794 -0.0005 0.000551606 0.000147802 -0.0005 
0.000461422 0.00024054 -0.0005 0.000462692 0.000218831 -0.0005 0.000461422 -0.00024054 -0.0005 
0.000462692 -0.000218831 -0.0005 0.00105793 -0.0003084 -0.0005 0.000605948 0.000200473 -0.0005 
0.000605915 -0.000200421 -0.0005 0.000894426 -0.000450764 -0.0005 0.000837574 0.000450764 -0.0005 
0.000676934 0.000311072 -0.0005 0.000626182 -7.08972e-05 -0.0005 0.000584992 5.90258e-06 -0.0005 
0.00122078 1.89656e-05 -0.0005 0.0010285 0.000232229 -0.0005 0.00124284 -0.000245894 -0.0005 
0.00124267 0.000245397 -0.0005 0.0010232 -0.000230896 -0.0005 0.00110079 0.000171119 -0.0005 
0.00071471 -0.000232668 -0.0005 0.000834965 9.05283e-05 -0.0005 0.000842673 -8.85226e-05 -0.0005 
0.00095723 3.30279e-05 -0.0005 0.000775615 -2.20485e-05 -0.0005 0.000713665 0.000235853 -0.0005 
0.00110556 -0.000175069 -0.0005 0.000491363 9.025e-05 -0.0005 0.000488571 -8.87482e-05 -0.0005 
0.000912167 -4.59906e-05 -0.0005 0.000932228 0.000232832 -0.0005 0.000904587 8.10868e-05 -0.0005 
0.000789049 3.8011e-05 -0.0005 0.000993486 -0.000360083 -0.0005 0.000936751 -0.00023716 -0.0005 
0.00113854 3.89675e-06 -0.0005 0.000789492 -0.000238637 -0.0005 0.00101161 0.000112396 -0.0005 
0.000513466 0.00018326 -0.0005 0.000513402 -0.000183259 -0.0005 0.000596046 0.000283517 -0.0005 
0.000595385 -0.000285639 -0.0005 0.000792102 0.000241238 -0.0005 0.00114845 0.000113194 -0.0005 
0.000737403 0.00035529 -0.0005 0.00114502 -0.000221334 -0.0005 0.00114373 0.00021912 -0.0005 
0.00115942 -0.000117053 -0.0005 0.000816164 -4.7003e-05 -0.0005 0.000827708 0.000144636 -0.0005 
0.000827708 -0.000144636 -0.0005 0.000728035 -3.243e-05 -0.0005 0.00074578 0.000136564 -0.0005 
0.000744567 -0.000134897 -0.0005 0.000659232 -0.0001943 -0.0005 0.000991599 -0.000122936 -0.0005 
0.00065923 0.000194923 -0.0005 0.000586401 0.000238032 -0.0005 0.000586231 -0.000238284 -0.0005 
0.000670788 -0.000130267 -0.0005 0.000668203 0.000129229 -0.0005 0.000889614 -8.00602e-05 -0.0005 
0.000944998 -2.26884e-05 -0.0005 0.00114587 -0.000279044 -0.0005 0.00114555 0.000278672 -0.0005 
0.00087048 0.00044547 -0.0005 0.00086152 -0.00044547 -0.0005 0.000598961 -0.000915961 -0.0005 
0.000603317 -0.000588209 -0.0005 0.000270723 -0.000581163 -0.0005 0.000270149 -0.000918385 -0.0005 
0.000116826 -0.000542538 -0.0005 0.000116826 -0.000957462 -0.0005 0.000431238 -0.00054122 -0.0005 
0.000232505 -0.000744897 -0.0005 0.000636012 -0.000752799 -0.0005 0.000434763 -0.00095878 -0.0005 
6.87997e-05 -0.000535714 -0.0005 6.87997e-05 -0.000964286 -0.0005 0.000745424 -0.000579013 -0.0005 
0.000734049 -0.000916193 -0.0005 0.000425691 -0.00110148 -0.0005 0.000440309 -0.00039852 -0.0005 
0.000542232 -0.000464455 -0.0005 0.00032556 -0.00103573 -0.0005 0.000128192 -0.000673002 -0.0005 
0.000124428 -0.000825257 -0.0005 0.000539618 -0.00104521 -0.0005 0.00032807 -0.000453412 -0.0005 
0.000520463 -0.000846217 -0.0005 0.000521988 -0.00065178 -0.0005 0.000340031 -0.000668056 -0.0005 
0.00034624 -0.000838266 -0.0005 5.85195e-05 -0.000502705 -0.0005 5.85195e-05 -0.000997295 -0.0005 
0.000206193 -0.000502625 -0.0005 0.00020604 -0.000996565 -0.0005 0.000751161 -0.00069756 -0.0005 
0.00073873 -0.000810926 -0.0005 0.000181347 -0.000892326 -0.0005 0.000181347 -0.000607674 -0.0005 
0.000463745 -0.00116094 -0.0005 0.000402255 -0.00033906 -0.0005 0.000662471 -0.000504287 -0.0005 
0.000655871 -0.000984939 -0.0005 0.000455875 -0.000616724 -0.0005 0.0004137 -0.000882087 -0.0005 
0.000302544 -0.000768994 -0.0005 0.000569409 -0.000757172 -0.0005 5.91695e-05 -0.000600846 -0.0005 
5.91695e-05 -0.000899154 -0.0005 0.000666622 -0.000652114 -0.0005 0.000763695 -0.000514957 -0.0005 
0.000761799 -0.000984244 -0.0005 0.000662952 -0.000835018 -0.0005 0.000350592 -0.000568457 -0.0005 
0.000512323 -0.000928683 -0.0005 0.000258513 -0.000671173 -0.0005 0.000526882 -0.000581015 -0.0005 
0.000348994 -0.000924358 -0.0005 0.000269055 -0.00082351 -0.0005 0.000340907 -0.00110877 -0.0005 
0.000525093 -0.000391231 -0.0005 0.000398236 -0.00117211 -0.0005 0.000467764 -0.000327887 -0.0005 
3.77595e-05 -0.000562054 -0.0005 3.77595e-05 -0.000937946 -0.0005 7.22902e-05 -0.000748076 -0.0005 
0.000821959 -0.000561949 -0.0005 0.000823003 -0.000936364 -0.0005 0.000497341 -0.00110573 -0.0005 
0.000369223 -0.000393109 -0.0005 0.000595975 -0.000691792 -0.0005 0.000461056 -0.00103343 -0.0005 
0.000404944 -0.000466574 -0.0005 0.000473579 -0.000463157 -0.0005 0.000392458 -0.00103684 -0.0005 
0.000620449 -0.000442181 -0.0005 0.000248106 -0.00105944 -0.0005 0.000791611 -0.000855752 -0.0005 
0.000796074 -0.00063312 -0.0005 0.000107991 -0.000498667 -0.0005 0.000107991 -0.00100133 -0.0005 
0.000192237 -0.000821247 -0.0005 0.000118309 -0.000897697 -0.0005 0.000118584 -0.000602176 -0.0005 
2.84222e-05 -0.00050946 -0.0005 2.96921e-05 -0.000531169 -0.0005 2.84222e-05 -0.00099054 -0.0005 
2.96921e-05 -0.000968831 -0.0005 0.000584827 -0.000825555 -0.0005 0.000620086 -0.00106094 -0.0005 
0.000172947 -0.000549526 -0.0005 0.000172922 -0.000950417 -0.0005 0.000461426 -0.00120076 -0.0005 
0.000404574 -0.000299236 -0.0005 0.000243934 -0.000438928 -0.0005 0.000192001 -0.000675472 -0.0005 
0.000154074 -0.000745216 -0.0005 0.000787779 -0.000768966 -0.0005 0.000588723 -0.000523989 -0.0005 
0.000809841 -0.000504106 -0.0005 0.000809671 -0.000995397 -0.0005 0.000571747 -0.000987513 -0.0005 
0.000673596 -0.000911853 -0.0005 0.000281249 -0.000981909 -0.0005 0.000409717 -0.000660715 -0.0005 
0.000465934 -0.000841589 -0.0005 0.000524589 -0.000717066 -0.0005 0.000342119 -0.000722933 -0.0005 
0.000280666 -0.000514151 -0.0005 0.000672694 -0.000574319 -0.0005 5.82468e-05 -0.000659662 -0.0005 
5.65752e-05 -0.000839154 -0.0005 0.000386493 -0.000796808 -0.0005 0.000361584 -0.000985225 -0.0005 
0.000499228 -0.000517168 -0.0005 0.000471587 -0.000668913 -0.0005 0.000510532 -0.000790014 -0.0005 
0.000559513 -0.00111068 -0.0005 0.000707209 -0.000752897 -0.0005 8.04633e-05 -0.000566736 -0.0005 
8.04241e-05 -0.000933245 -0.0005 0.000163046 -0.000466483 -0.0005 0.000162386 -0.00103563 -0.0005 
0.000578393 -0.000637387 -0.0005 0.000503901 -0.000990722 -0.0005 0.000359102 -0.000508763 -0.0005 
0.000714127 -0.000859658 -0.0005 0.000304403 -0.00039471 -0.0005 0.000712099 -0.000528651 -0.0005 
0.000710619 -0.000966814 -0.0005 0.000726254 -0.000631789 -0.0005 0.000383073 -0.000701841 -0.0005 
0.000471292 -0.000894636 -0.0005 0.000394708 -0.000605364 -0.0005 0.000295143 -0.00071521 -0.0005 
0.000544105 -0.000886073 -0.0005 0.00030982 -0.000616796 -0.0005 0.000226145 -0.000944288 -0.0005 
0.000307419 -0.000884579 -0.0005 0.000226252 -0.000555158 -0.0005 0.000153401 -0.000511968 -0.0005 
0.000153233 -0.000988282 -0.0005 0.000237471 -0.000619391 -0.0005 0.000238317 -0.000879885 -0.0005 
0.000410377 -0.000831296 -0.0005 0.000352297 -0.000773675 -0.0005 0.00071621 -0.000470678 -0.0005 
0.000708438 -0.00102758 -0.0005 0.00043748 -0.00030453 -0.0005 0.00042852 -0.00119547 -0.0005 
-0.000266167 -0.000909585 -0.0005 -0.00026339 -0.000582669 -0.0005 -0.000595526 -0.000581349 -0.0005 
-0.000595539 -0.000918697 -0.0005 -0.000749174 -0.000957462 -0.0005 -0.000749174 -0.000542538 -0.0005 
-0.000436828 -0.000541202 -0.0005 -0.000633495 -0.000748246 -0.0005 -0.000234978 -0.000756491 -0.0005 
-0.000436828 -0.000958798 -0.0005 -0.0007972 -0.000964286 -0.0005 -0.0007972 -0.000535714 -0.0005 
-0.000131951 -0.000583807 -0.0005 -0.000120576 -0.000920987 -0.0005 -0.000440309 -0.00110148 -0.0005 
-0.000440309 -0.00039852 -0.0005 -0.000540519 -0.000463808 -0.0005 -0.000540519 -0.00103619 -0.0005 
-0.000737497 -0.000826703 -0.0005 -0.000743731 -0.00067341 -0.0005 -0.000326361 -0.000455157 -0.0005 
-0.000326361 -0.00104484 -0.0005 -0.000347939 -0.000834179 -0.0005 -0.000344799 -0.000652107 -0.0005 
-0.000525969 -0.000668056 -0.0005 -0.000528784 -0.000835049 -0.0005 -0.00080748 -0.000997295 -0.0005 
-0.00080748 -0.000502705 -0.0005 -0.00065996 -0.000996565 -0.0005 -0.00065996 -0.000503435 -0.0005 
-0.000114839 -0.00080244 -0.0005 -0.00012727 -0.000689074 -0.0005 -0.000684653 -0.000892326 -0.0005 
-0.000684653 -0.000607674 -0.0005 -0.000402255 -0.00033906 -0.0005 -0.000402255 -0.00116094 -0.0005 
-0.00020379 -0.000996251 -0.0005 -0.000209694 -0.000514898 -0.0005 -0.000410601 -0.000616776 -0.0005 
-0.000414328 -0.000881409 -0.0005 -0.000564489 -0.00077222 -0.0005 -0.00030297 -0.0007663 -0.0005 
-0.000806831 -0.000899154 -0.0005 -0.000806831 -0.000600846 -0.0005 -0.000198082 -0.000840386 -0.0005 
-0.000104201 -0.000515756 -0.0005 -0.000102305 -0.000985043 -0.0005 -0.000210482 -0.000662469 -0.0005 
-0.000512323 -0.000571317 -0.0005 -0.000512323 -0.000928683 -0.0005 -0.000607487 -0.000671376 -0.0005 
-0.000342389 -0.000918878 -0.0005 -0.000339591 -0.000579218 -0.0005 -0.000598177 -0.000824513 -0.0005 
-0.000525093 -0.00110877 -0.0005 -0.000525093 -0.000391231 -0.0005 -0.000467764 -0.00117211 -0.0005 
-0.000467764 -0.000327887 -0.0005 -0.00082824 -0.000937946 -0.0005 -0.00082824 -0.000562054 -0.0005 
-0.000792673 -0.000751208 -0.0005 -4.40406e-05 -0.000938051 -0.0005 -4.29968e-05 -0.000563636 -0.0005 
-0.000368656 -0.000394329 -0.0005 -0.000368656 -0.00110567 -0.0005 -0.000404944 -0.000466574 -0.0005 
-0.000404944 -0.00103343 -0.0005 -0.000274968 -0.000693542 -0.0005 -0.000473579 -0.000463157 -0.0005 
-0.000473579 -0.00103684 -0.0005 -0.000273108 -0.000829102 -0.0005 -0.000617905 -0.00105951 -0.0005 
-0.000617905 -0.00044049 -0.0005 -7.4389e-05 -0.000644248 -0.0005 -6.99258e-05 -0.00086688 -0.0005 
-0.000758009 -0.00100133 -0.0005 -0.000758009 -0.000498667 -0.0005 -0.000674521 -0.00082321 -0.0005 
-0.000747394 -0.000897802 -0.0005 -0.000747848 -0.000602206 -0.0005 -0.000837578 -0.00099054 -0.0005 
-0.000836308 -0.000968831 -0.0005 -0.000837578 -0.00050946 -0.0005 -0.000836308 -0.000531169 -0.0005 
-0.00024589 -0.000439066 -0.0005 -0.000241075 -0.0010584 -0.0005 -0.000693065 -0.000950422 -0.0005 
-0.000693085 -0.000549579 -0.0005 -0.000404574 -0.00120076 -0.0005 -0.000404574 -0.000299236 -0.0005 
-0.000672818 -0.000679103 -0.0005 -0.000714008 -0.000755903 -0.0005 -7.82213e-05 -0.000731034 -0.0005 
-5.6329e-05 -0.000504603 -0.0005 -5.61586e-05 -0.000995894 -0.0005 -0.000275796 -0.000980896 -0.0005 
-0.000285676 -0.000513219 -0.0005 -0.000186165 -0.000585602 -0.0005 -0.000584291 -0.000982673 -0.0005 
-0.00058429 -0.000517332 -0.0005 -0.00045634 -0.000660721 -0.0005 -0.000464193 -0.000839596 -0.0005 
-0.00034177 -0.000716972 -0.0005 -0.000523385 -0.000727952 -0.0005 -0.000193444 -0.000925069 -0.0005 
-0.000807637 -0.00084025 -0.0005 -0.000810429 -0.000661252 -0.0005 -0.000386833 -0.000795991 -0.0005 
-0.000394413 -0.000668913 -0.0005 -0.000509958 -0.000787971 -0.0005 -0.000305514 -0.00111008 -0.0005 
-0.000306477 -0.00038941 -0.0005 -0.000362249 -0.00098716 -0.0005 -0.00035868 -0.000511074 -0.0005 
-0.000160645 -0.000746982 -0.0005 -0.000509508 -0.000511363 -0.0005 -0.000509508 -0.000988638 -0.0005 
-0.00028739 -0.000637604 -0.0005 -0.000785534 -0.00093326 -0.0005 -0.000785598 -0.000566741 -0.0005 
-0.000703615 -0.00103564 -0.0005 -0.000703615 -0.000464361 -0.0005 -0.000148903 -0.000636616 -0.0005 
-0.00015636 -0.000534148 -0.0005 -0.000153981 -0.000971334 -0.0005 -0.000139581 -0.000867053 -0.0005 
-0.000482839 -0.000702846 -0.0005 -0.000471292 -0.000605364 -0.0005 -0.000471292 -0.000894636 -0.0005 
-0.000570965 -0.00071757 -0.0005 -0.000554433 -0.000615103 -0.0005 -0.000553903 -0.000884892 -0.0005 
-0.000639788 -0.00094438 -0.0005 -0.000639768 -0.0005557 -0.0005 -0.000307401 -0.000872936 -0.0005 
-0.000712765 -0.000988284 -0.0005 -0.000712769 -0.000511716 -0.0005 -0.000628213 -0.000619733 -0.0005 
-0.000630855 -0.000879083 -0.0005 -0.000409259 -0.000828735 -0.0005 -0.000354002 -0.000772688 -0.0005 
-0.000155373 -0.000471972 -0.0005 -0.000153127 -0.00102904 -0.0005 -0.00043748 -0.00030453 -0.0005 
-0.00043748 -0.00119547 -0.0005 -0.000699167 -0.000159585 -0.0005 -0.00102828 0.000168837 -0.0005 
-0.000700039 0.000165961 -0.0005 -0.00102854 -0.000168697 -0.0005 -0.00118217 0.000207462 -0.0005 
-0.00118217 -0.000207462 -0.0005 -0.000867762 0.00020878 -0.0005 -0.00106649 5.10348e-06 -0.0005 
-0.000667978 -6.49099e-06 -0.0005 -0.000869828 -0.000208798 -0.0005 -0.0012302 0.000214286 -0.0005 
-0.0012302 -0.000214286 -0.0005 -0.000564951 0.000166193 -0.0005 -0.000553576 -0.000170987 -0.0005 
-0.000873309 -0.00035148 -0.0005 -0.000858691 0.00035148 -0.0005 -0.000756768 0.000285545 -0.0005 
-0.000973519 -0.000286192 -0.0005 -0.00117081 7.69979e-05 -0.0005 -0.00117457 -7.52569e-05 -0.0005 
-0.000759361 -0.000294843 -0.0005 -0.00097093 0.000296588 -0.0005 -0.000780939 -8.41794e-05 -0.0005 
-0.000958969 8.1944e-05 -0.0005 -0.000777799 9.78925e-05 -0.0005 -0.000961784 -8.5049e-05 -0.0005 
-0.00124048 0.000247295 -0.0005 -0.00124048 -0.000247295 -0.0005 -0.00109281 0.000247375 -0.0005 
-0.00109296 -0.000246565 -0.0005 -0.000547839 -5.24395e-05 -0.0005 -0.00056027 6.09258e-05 -0.0005 
-0.00111765 0.000142326 -0.0005 -0.00111765 -0.000142326 -0.0005 -0.000835255 -0.00041094 -0.0005 
-0.000896745 0.00041094 -0.0005 -0.00063679 -0.000246251 -0.0005 -0.000636522 0.000241816 -0.0005 
-0.000843256 0.000133221 -0.0005 -0.000847328 -0.000131409 -0.0005 -0.000997489 -2.16615e-05 -0.0005 
-0.00073597 -1.62999e-05 -0.0005 -0.00123983 0.000149154 -0.0005 -0.00123983 -0.000149154 -0.0005 
-0.000631082 -9.03863e-05 -0.0005 -0.000535305 -0.000235043 -0.0005 -0.000537201 0.000234244 -0.0005 
-0.000642398 9.28059e-05 -0.0005 -0.000948408 0.000181543 -0.0005 -0.000945323 -0.000178683 -0.0005 
-0.00104049 7.88274e-05 -0.0005 -0.000775389 -0.000168878 -0.0005 -0.000772841 0.000169495 -0.0005 
-0.00103118 -7.38619e-05 -0.0005 -0.000958093 -0.000358769 -0.0005 -0.000773907 0.000358769 -0.0005 
-0.000900764 -0.000422113 -0.0005 -0.000831236 0.000422113 -0.0005 -0.00126124 0.000187946 -0.0005 
-0.00126124 -0.000187946 -0.0005 -0.00122671 1.92365e-06 -0.0005 -0.000477041 -0.000188051 -0.0005 
-0.000475997 0.000186364 -0.0005 -0.000801656 -0.000355671 -0.0005 -0.000929777 0.000356891 -0.0005 
-0.000837944 -0.000283426 -0.0005 -0.000894056 0.000283426 -0.0005 -0.000707968 5.64575e-05 -0.0005 
-0.000825421 0.000286843 -0.0005 -0.000906579 -0.000286843 -0.0005 -0.000678551 0.000307262 -0.0005 
-0.000706108 -7.91024e-05 -0.0005 -0.0010509 -0.00030951 -0.0005 -0.000507389 0.000105752 -0.0005 
-0.000502926 -0.00011688 -0.0005 -0.00119101 0.000251333 -0.0005 -0.00119101 -0.000251333 -0.0005 
-0.00110684 -7.12684e-05 -0.0005 -0.00118042 0.000147824 -0.0005 -0.00118069 -0.000147697 -0.0005 
-0.00127058 0.00024054 -0.0005 -0.00126931 0.000218831 -0.0005 -0.00127058 -0.00024054 -0.0005 
-0.00126931 -0.000218831 -0.0005 -0.000674075 -0.0003084 -0.0005 -0.00112605 0.000200474 -0.0005 
-0.00112608 -0.000200417 -0.0005 -0.000837574 -0.000450764 -0.0005 -0.000894426 0.000450764 -0.0005 
-0.00105507 0.000311072 -0.0005 -0.001107 7.45278e-05 -0.0005 -0.00114494 4.78174e-06 -0.0005 
-0.000511221 1.89656e-05 -0.0005 -0.000703503 0.000232229 -0.0005 -0.000489329 0.000245397 -0.0005 
-0.000489159 -0.000245894 -0.0005 -0.000708796 -0.000230896 -0.0005 -0.000631208 0.000171119 -0.0005 
-0.00101729 -0.000232673 -0.0005 -0.000889299 8.92785e-05 -0.0005 -0.000897193 -8.95957e-05 -0.0005 
-0.00077477 3.30279e-05 -0.0005 -0.000956385 2.2115e-05 -0.0005 -0.00101833 0.000235849 -0.0005 
-0.000626444 -0.000175069 -0.0005 -0.00124075 9.03378e-05 -0.0005 -0.00124242 -8.91537e-05 -0.0005 
-0.000819833 -4.59906e-05 -0.0005 -0.000799772 0.000232832 -0.0005 -0.000827413 8.10868e-05 -0.0005 
-0.000942958 -3.79434e-05 -0.0005 -0.000738514 -0.000360083 -0.0005 -0.000795249 -0.00023716 -0.0005 
-0.000593465 3.89675e-06 -0.0005 -0.000942508 -0.000238638 -0.0005 -0.00072039 0.000112396 -0.0005 
-0.00121854 0.000183264 -0.0005 -0.00121858 -0.000183245 -0.0005 -0.00113595 0.000283517 -0.0005 
-0.00113662 -0.000285639 -0.0005 -0.000939898 0.000241237 -0.0005 -0.00058355 0.000113194 -0.0005 
-0.000994597 0.00035529 -0.0005 -0.000586981 -0.000221334 -0.0005 -0.000588267 0.00021912 -0.0005 
-0.000572581 -0.000117053 -0.0005 -0.00091583 4.71675e-05 -0.0005 -0.000904292 -0.000144636 -0.0005 
-0.000904292 0.000144636 -0.0005 -0.00100396 3.32657e-05 -0.0005 -0.00098918 0.000133204 -0.0005 
-0.000986047 -0.000136339 -0.0005 -0.00107279 -0.00019438 -0.0005 -0.000740401 -0.000122936 -0.0005 
-0.00107275 0.000194842 -0.0005 -0.0011456 0.000238032 -0.0005 -0.00114577 -0.000238283 -0.0005 
-0.00106153 0.000130609 -0.0005 -0.00106376 -0.000129013 -0.0005 -0.000842259 -7.8735e-05 -0.0005 
-0.000787002 -2.26884e-05 -0.0005 -0.000586448 0.000278672 -0.0005 -0.000586127 -0.000279044 -0.0005 
-0.00087048 -0.00044547 -0.0005 -0.00086152 0.00044547 -0.0005 -0.000266167 0.000590415 -0.0005 
-0.000267039 0.000915961 -0.0005 -0.000595277 0.000918837 -0.0005 -0.000595539 0.000581303 -0.0005 
-0.000749174 0.000542538 -0.0005 -0.000749174 0.000957462 -0.0005 -0.000434763 0.00095878 -0.0005 
-0.000633495 0.000751754 -0.0005 -0.000234978 0.000743509 -0.0005 -0.000436828 0.000541202 -0.0005 
-0.0007972 0.000535714 -0.0005 -0.0007972 0.000964286 -0.0005 -0.000131951 0.000916193 -0.0005 
-0.000120576 0.000579013 -0.0005 -0.000440309 0.00039852 -0.0005 -0.000425691 0.00110148 -0.0005 
-0.000323768 0.00103554 -0.0005 -0.000540519 0.000463808 -0.0005 -0.000737497 0.000673297 -0.0005 
-0.000743731 0.00082659 -0.0005 -0.000326361 0.000455157 -0.0005 -0.00053793 0.00104659 -0.0005 
-0.000347939 0.000665821 -0.0005 -0.000344799 0.000847893 -0.0005 -0.000525969 0.000831944 -0.0005 
-0.000528784 0.000664951 -0.0005 -0.00080748 0.000502705 -0.0005 -0.00080748 0.000997295 -0.0005 
-0.00065996 0.000503435 -0.0005 -0.000659807 0.000997375 -0.0005 -0.000114839 0.00069756 -0.0005 
-0.00012727 0.000810926 -0.0005 -0.000684653 0.000607674 -0.0005 -0.000684653 0.000892326 -0.0005 
-0.000402255 0.00033906 -0.0005 -0.000463745 0.00116094 -0.0005 -0.00020379 0.000503749 -0.0005 
-0.000203522 0.000991815 -0.0005 -0.000410256 0.000883221 -0.0005 -0.000414328 0.000618591 -0.0005 
-0.000564489 0.00072778 -0.0005 -0.00030297 0.0007337 -0.0005 -0.000806831 0.000600846 -0.0005 
-0.000806831 0.000899154 -0.0005 -0.000198082 0.000659614 -0.0005 -0.000104201 0.000984244 -0.0005 
-0.000102305 0.000514957 -0.0005 -0.000209398 0.000842806 -0.0005 -0.000515408 0.000931543 -0.0005 
-0.000512323 0.000571317 -0.0005 -0.000607487 0.000828624 -0.0005 -0.000342389 0.000581122 -0.0005 
-0.000339841 0.000919495 -0.0005 -0.000598177 0.000675487 -0.0005 -0.000525093 0.000391231 -0.0005 
-0.000340907 0.00110877 -0.0005 -0.000398236 0.00117211 -0.0005 -0.000467764 0.000327887 -0.0005 
-0.00082824 0.000562054 -0.0005 -0.00082824 0.000937946 -0.0005 -0.000792673 0.000748792 -0.0005 
-4.40406e-05 0.000561949 -0.0005 -4.29968e-05 0.000936364 -0.0005 -0.000368656 0.000394329 -0.0005 
-0.000496777 0.00110689 -0.0005 -0.000404944 0.000466574 -0.0005 -0.000461056 0.00103343 -0.0005 
-0.000274968 0.000806458 -0.0005 -0.000392421 0.00103684 -0.0005 -0.000473579 0.000463157 -0.0005 
-0.000245551 0.00105726 -0.0005 -0.000273108 0.000670898 -0.0005 -0.000617905 0.00044049 -0.0005 
-7.4389e-05 0.000855752 -0.0005 -6.99258e-05 0.00063312 -0.0005 -0.000758009 0.000498667 -0.0005 
-0.000758009 0.00100133 -0.0005 -0.000674521 0.00067679 -0.0005 -0.000747394 0.000602198 -0.0005 
-0.000747848 0.000897794 -0.0005 -0.000837578 0.00050946 -0.0005 -0.000836308 0.000531169 -0.0005 
-0.000837578 0.00099054 -0.0005 -0.000836308 0.000968831 -0.0005 -0.000241075 0.0004416 -0.0005 
-0.000693065 0.000549578 -0.0005 -0.000693072 0.000950473 -0.0005 -0.000404574 0.000299236 -0.0005 
-0.000461426 0.00120076 -0.0005 -0.000622066 0.00106107 -0.0005 -0.000672818 0.000820897 -0.0005 
-0.000714008 0.000744097 -0.0005 -7.82213e-05 0.000768966 -0.0005 -0.000270503 0.000982229 -0.0005 
-5.6329e-05 0.000995397 -0.0005 -5.61586e-05 0.000504106 -0.0005 -0.000275796 0.000519104 -0.0005 
-0.000198208 0.000921119 -0.0005 -0.000584291 0.000517327 -0.0005 -0.000456299 0.000839279 -0.0005 
-0.000464193 0.000660404 -0.0005 -0.00034177 0.000783028 -0.0005 -0.000523385 0.000772048 -0.0005 
-0.000585334 0.000985849 -0.0005 -0.000193444 0.000574931 -0.0005 -0.000807637 0.00065975 -0.0005 
-0.000810429 0.000838748 -0.0005 -0.000386833 0.000704009 -0.0005 -0.000366772 0.000982832 -0.0005 
-0.000394413 0.000831087 -0.0005 -0.000509958 0.000712029 -0.0005 -0.000305514 0.000389917 -0.0005 
-0.000362249 0.00051284 -0.0005 -0.000160465 0.000753897 -0.0005 -0.000509508 0.000511362 -0.0005 
-0.00028739 0.000862396 -0.0005 -0.000785534 0.00056674 -0.0005 -0.000785598 0.000933259 -0.0005 
-0.000703615 0.000464361 -0.0005 -0.000702954 0.00103352 -0.0005 -0.000506898 0.000991237 -0.0005 
-0.00015055 0.000863194 -0.0005 -0.000561597 0.00110529 -0.0005 -0.000153981 0.000528666 -0.0005 
-0.000155267 0.00096912 -0.0005 -0.000139581 0.000632947 -0.0005 -0.00048283 0.000797154 -0.0005 
-0.000471292 0.000894636 -0.0005 -0.000471292 0.000605364 -0.0005 -0.000570965 0.00078243 -0.0005 
-0.00055618 0.00088318 -0.0005 -0.000553903 0.000615108 -0.0005 -0.000639788 0.00055562 -0.0005 
-0.000307401 0.000627064 -0.0005 -0.00063975 0.000944842 -0.0005 -0.000712765 0.000511716 -0.0005 
-0.000712603 0.000988032 -0.0005 -0.000628389 0.00088015 -0.0005 -0.000630855 0.000620917 -0.0005 
-0.000409259 0.000671265 -0.0005 -0.000354002 0.000727312 -0.0005 -0.000153448 0.00102867 -0.0005 
-0.000153127 0.000470956 -0.0005 -0.00042852 0.00119547 -0.0005 -0.00043748 0.00030453 -0.0005 

CELLS 2380 16660
6 649 608 664 1664 1623 1679 
6 570 610 625 1585 1625 1640 
6 571 611 624 1586 1626 1639 
6 603 587 669 1618 1602 1684 
6 564 603 669 1579 1618 1684 
6 610 570 613 1625 1585 1628 
6 611 571 612 1626 1586 1627 
6 600 564 669 1615 1579 1684 
6 586 187 630 1601 384 1645 
6 579 594 608 1594 1609 1623 
6 595 578 607 1610 1593 1622 
6 596 581 609 1611 1596 1624 
6 183 590 619 380 1605 1634 
6 166 591 620 363 1606 1635 
6 572 649 664 1587 1664 1679 
6 572 611 626 1587 1626 1641 
6 590 570 619 1605 1585 1634 
6 591 571 620 1606 1586 1635 
6 633 575 647 1648 1590 1662 
6 594 562 608 1609 1577 1623 
6 565 595 607 1580 1610 1622 
6 563 596 609 1578 1611 1624 
6 557 608 649 1572 1623 1664 
6 564 600 627 1579 1615 1642 
6 557 649 653 1572 1664 1668 
6 654 605 670 1669 1620 1685 
6 586 600 669 1601 1615 1684 
6 594 579 665 1609 1594 1680 
6 587 629 648 1602 1644 1663 
6 581 596 666 1596 1611 1681 
6 570 590 613 1585 1605 1628 
6 571 591 612 1586 1606 1627 
6 189 618 650 386 1633 1665 
6 617 184 651 1632 381 1666 
6 597 564 627 1612 1579 1642 
6 649 593 653 1664 1608 1668 
6 568 601 618 1583 1616 1633 
6 602 569 617 1617 1584 1632 
6 629 186 648 1644 383 1663 
6 559 605 654 1574 1620 1669 
6 600 556 627 1615 1571 1642 
6 187 586 648 384 1601 1663 
6 607 556 652 1622 1571 1667 
6 607 652 668 1622 1667 1683 
6 573 610 628 1588 1625 1643 
6 627 556 689 1642 1571 1704 
6 14 194 665 95 391 1680 
6 195 196 666 392 393 1681 
6 183 619 667 380 1634 1682 
6 196 656 666 393 1671 1681 
6 658 14 665 1673 95 1680 
6 561 566 631 1576 1581 1646 
6 567 560 632 1582 1575 1647 
6 575 616 647 1590 1631 1662 
6 566 561 672 1581 1576 1687 
6 560 567 673 1575 1582 1688 
6 573 654 670 1588 1669 1685 
6 12 185 618 93 382 1633 
6 188 11 617 385 92 1632 
6 635 561 641 1650 1576 1656 
6 560 634 642 1575 1649 1657 
6 578 597 627 1593 1612 1642 
6 8 175 613 89 372 1628 
6 1 190 612 82 387 1627 
6 604 558 659 1619 1573 1674 
6 578 595 695 1593 1610 1710 
6 597 578 696 1612 1593 1711 
6 610 573 625 1625 1588 1640 
6 611 572 624 1626 1587 1639 
6 168 3 636 365 84 1651 
6 6 173 638 87 370 1653 
6 611 191 626 1626 388 1641 
6 575 588 634 1590 1603 1649 
6 589 574 635 1604 1589 1650 
6 593 626 697 1608 1641 1712 
6 166 620 678 363 1635 1693 
6 564 597 623 1579 1612 1638 
6 603 564 623 1618 1579 1638 
6 568 618 629 1583 1633 1644 
6 11 184 617 92 381 1632 
6 189 12 618 386 93 1633 
6 579 608 671 1594 1623 1686 
6 556 600 660 1571 1615 1675 
6 588 575 633 1603 1590 1648 
6 8 613 700 89 1628 1715 
6 1 612 699 82 1627 1714 
6 617 569 630 1632 1584 1645 
6 619 570 621 1634 1585 1636 
6 620 571 622 1635 1586 1637 
6 574 616 661 1589 1631 1676 
6 616 575 662 1631 1590 1677 
6 580 606 686 1595 1621 1701 
6 563 633 647 1578 1648 1662 
6 598 635 661 1613 1650 1676 
6 634 599 662 1649 1614 1677 
6 574 589 646 1589 1604 1661 
6 604 659 676 1619 1674 1691 
6 635 574 661 1650 1589 1676 
6 575 634 662 1590 1649 1677 
6 600 586 681 1615 1601 1696 
6 585 628 674 1600 1643 1689 
6 557 603 671 1572 1618 1686 
6 626 192 697 1641 389 1712 
6 610 176 628 1625 373 1643 
6 563 609 633 1578 1624 1648 
6 569 660 681 1584 1675 1696 
6 587 603 677 1602 1618 1692 
6 608 557 671 1623 1572 1686 
6 603 557 653 1618 1572 1668 
6 622 571 624 1637 1586 1639 
6 621 570 625 1636 1585 1640 
6 606 580 685 1621 1595 1700 
6 640 592 698 1655 1607 1713 
6 558 604 686 1573 1619 1701 
6 605 559 687 1620 1574 1702 
6 660 600 681 1675 1615 1696 
6 187 188 630 384 385 1645 
6 185 186 629 382 383 1644 
6 608 562 664 1623 1577 1679 
6 652 556 660 1667 1571 1675 
6 562 594 683 1577 1609 1698 
6 595 565 684 1610 1580 1699 
6 596 563 685 1611 1578 1700 
6 609 581 687 1624 1596 1702 
6 686 606 693 1701 1621 1708 
6 162 1 699 359 82 1714 
6 179 8 700 376 89 1715 
6 606 563 646 1621 1578 1661 
6 573 628 654 1588 1643 1669 
6 616 574 647 1631 1589 1662 
6 565 607 668 1580 1622 1683 
6 175 176 610 372 373 1625 
6 190 191 611 387 388 1626 
6 645 584 675 1660 1599 1690 
6 628 177 674 1643 374 1689 
6 572 626 649 1587 1641 1664 
6 170 171 616 367 368 1631 
6 609 687 694 1624 1702 1709 
6 181 640 698 378 1655 1713 
6 687 559 694 1702 1574 1709 
6 607 578 689 1622 1593 1704 
6 592 652 660 1607 1667 1675 
6 604 562 683 1619 1577 1698 
6 565 605 684 1580 1620 1699 
6 563 606 685 1578 1621 1700 
6 558 686 693 1573 1701 1708 
6 565 621 625 1580 1636 1640 
6 562 622 624 1577 1637 1639 
6 683 580 686 1698 1595 1701 
6 581 684 687 1596 1699 1702 
6 616 171 661 1631 368 1676 
6 170 616 662 367 1631 1677 
6 628 585 654 1643 1600 1669 
6 182 183 667 379 380 1682 
6 653 593 679 1668 1608 1694 
6 579 623 658 1594 1638 1673 
6 605 565 670 1620 1580 1685 
6 634 560 673 1649 1575 1688 
6 561 635 672 1576 1650 1687 
6 589 635 641 1604 1650 1656 
6 634 588 642 1649 1603 1657 
6 194 655 665 391 1670 1680 
6 657 195 666 1672 392 1681 
6 562 604 676 1577 1619 1691 
6 566 614 637 1581 1629 1652 
6 615 567 639 1630 1582 1654 
6 688 588 694 1703 1603 1709 
6 623 597 658 1638 1612 1673 
6 646 563 647 1661 1578 1662 
6 576 619 621 1591 1634 1636 
6 577 620 622 1592 1635 1637 
6 556 607 689 1571 1622 1704 
6 164 645 675 361 1660 1690 
6 589 690 693 1604 1705 1708 
6 191 192 626 388 389 1641 
6 175 610 613 372 1625 1628 
6 190 611 612 387 1626 1627 
6 584 645 659 1599 1660 1674 
6 626 593 649 1641 1608 1664 
6 603 623 671 1618 1638 1686 
6 176 177 628 373 374 1643 
6 652 576 668 1667 1591 1683 
6 562 624 664 1577 1639 1679 
6 642 588 688 1657 1603 1703 
6 565 625 670 1580 1640 1685 
6 165 166 678 362 363 1693 
6 663 578 695 1678 1593 1710 
6 578 663 696 1593 1678 1711 
6 589 641 690 1604 1656 1705 
6 574 646 647 1589 1661 1662 
6 638 173 639 1653 370 1654 
6 168 636 637 365 1651 1652 
6 645 577 659 1660 1592 1674 
6 618 601 650 1633 1616 1665 
6 602 617 651 1617 1632 1666 
6 587 648 669 1602 1663 1684 
6 181 182 640 378 379 1655 
6 656 581 666 1671 1596 1681 
6 579 658 665 1594 1673 1680 
6 655 580 683 1670 1595 1698 
6 581 656 684 1596 1671 1699 
6 580 657 685 1595 1672 1700 
6 164 165 645 361 362 1660 
6 655 594 665 1670 1609 1680 
6 596 657 666 1611 1672 1681 
6 590 183 644 1605 380 1659 
6 591 166 643 1606 363 1658 
6 568 629 677 1583 1644 1692 
6 186 187 648 383 384 1663 
6 604 683 686 1619 1698 1701 
6 684 605 687 1699 1620 1702 
6 648 586 669 1663 1601 1684 
6 659 577 676 1674 1592 1691 
6 614 566 672 1629 1581 1687 
6 567 615 673 1582 1630 1688 
6 568 653 679 1583 1668 1694 
6 592 640 652 1607 1655 1667 
6 629 587 677 1644 1602 1692 
6 623 579 671 1638 1594 1686 
6 640 576 652 1655 1591 1667 
6 196 14 663 393 95 1678 
6 621 565 668 1636 1580 1683 
6 622 562 676 1637 1577 1691 
6 612 591 699 1627 1606 1714 
6 613 590 700 1628 1605 1715 
6 171 172 661 368 369 1676 
6 169 170 662 366 367 1677 
6 569 602 680 1584 1617 1695 
6 601 568 679 1616 1583 1694 
6 180 602 651 377 1617 1666 
6 601 193 650 1616 390 1665 
6 583 638 639 1598 1653 1654 
6 636 582 637 1651 1597 1652 
6 163 164 675 360 361 1690 
6 177 178 674 374 375 1689 
6 588 633 694 1603 1648 1709 
6 576 621 668 1591 1636 1683 
6 577 622 676 1592 1637 1691 
6 578 627 689 1593 1642 1704 
6 646 589 693 1661 1604 1708 
6 624 572 664 1639 1587 1679 
6 559 688 694 1574 1703 1709 
6 180 181 698 377 378 1713 
6 192 193 697 389 390 1712 
6 690 558 693 1705 1573 1708 
6 630 569 681 1645 1584 1696 
6 9 179 644 90 376 1659 
6 0 162 643 81 359 1658 
6 620 577 678 1635 1592 1693 
6 653 568 677 1668 1583 1692 
6 618 185 629 1633 382 1644 
6 580 655 682 1595 1670 1697 
6 657 580 682 1672 1595 1697 
6 172 598 661 369 1613 1676 
6 599 169 662 1614 366 1677 
6 188 617 630 385 1632 1645 
6 625 573 670 1640 1588 1685 
6 633 609 694 1648 1624 1709 
6 641 561 691 1656 1576 1706 
6 560 642 692 1575 1657 1707 
6 184 10 651 381 91 1666 
6 13 189 650 94 386 1665 
6 577 645 678 1592 1660 1693 
6 603 653 677 1618 1668 1692 
6 599 634 673 1614 1649 1688 
6 635 598 672 1650 1613 1687 
6 619 576 667 1634 1591 1682 
6 640 182 667 1655 379 1682 
6 194 195 682 391 392 1697 
6 193 601 697 390 1616 1712 
6 602 180 698 1617 377 1713 
6 576 640 667 1591 1655 1682 
6 606 646 693 1621 1661 1708 
6 660 569 680 1675 1584 1695 
6 601 679 697 1616 1694 1712 
6 680 602 698 1695 1617 1713 
6 586 630 681 1601 1645 1696 
6 169 599 615 366 1614 1630 
6 598 172 614 1613 369 1629 
6 644 179 700 1659 376 1715 
6 643 162 699 1658 359 1714 
6 656 196 695 1671 393 1710 
6 14 658 696 95 1673 1711 
6 675 584 691 1690 1599 1706 
6 585 674 692 1600 1689 1707 
6 645 165 678 1660 362 1693 
6 655 194 682 1670 391 1697 
6 195 657 682 392 1672 1697 
6 4 168 637 85 365 1652 
6 173 5 639 370 86 1654 
6 592 660 680 1607 1675 1695 
6 659 558 690 1674 1573 1705 
6 584 641 691 1599 1656 1706 
6 642 585 692 1657 1600 1707 
6 584 659 690 1599 1674 1705 
6 559 654 688 1574 1669 1703 
6 594 655 683 1609 1670 1698 
6 656 595 684 1671 1610 1699 
6 657 596 685 1672 1611 1700 
6 654 585 688 1669 1600 1703 
6 595 656 695 1610 1671 1710 
6 658 597 696 1673 1612 1711 
6 631 675 691 1646 1690 1706 
6 674 632 692 1689 1647 1707 
6 561 631 691 1576 1646 1706 
6 632 560 692 1647 1575 1707 
6 196 663 695 393 1678 1710 
6 663 14 696 1678 95 1711 
6 585 642 688 1600 1657 1703 
6 641 584 690 1656 1599 1705 
6 590 644 700 1605 1659 1715 
6 591 643 699 1606 1658 1714 
6 631 163 675 1646 360 1690 
6 178 632 674 375 1647 1689 
6 598 614 672 1613 1629 1687 
6 615 599 673 1630 1614 1688 
6 679 593 697 1694 1608 1712 
6 592 680 698 1607 1695 1713 
6 166 0 643 363 81 1658 
6 172 4 614 369 85 1629 
6 614 4 637 1629 85 1652 
6 5 169 615 86 366 1630 
6 5 615 639 86 1630 1654 
6 183 9 644 380 90 1659 
6 10 180 651 91 377 1666 
6 193 13 650 390 94 1665 
6 2 163 167 83 360 364 
6 3 167 636 84 364 1651 
6 174 6 638 371 87 1653 
6 174 178 7 371 375 88 
6 167 163 582 364 360 1597 
6 582 163 631 1597 360 1646 
6 167 582 636 364 1597 1651 
6 178 174 583 375 371 1598 
6 583 174 638 1598 371 1653 
6 178 583 632 375 1598 1647 
6 566 582 631 1581 1597 1646 
6 582 566 637 1597 1581 1652 
6 583 567 632 1598 1582 1647 
6 567 583 639 1582 1598 1654 
6 715 755 770 1730 1770 1785 
6 756 716 769 1771 1731 1784 
6 732 748 815 1747 1763 1830 
6 748 709 815 1763 1724 1830 
6 755 715 758 1770 1730 1773 
6 716 756 757 1731 1771 1772 
6 709 745 815 1724 1760 1830 
6 216 731 774 413 1746 1789 
6 724 739 752 1739 1754 1767 
6 726 740 753 1741 1755 1768 
6 741 726 754 1756 1741 1769 
6 736 210 764 1751 407 1779 
6 220 735 765 417 1750 1780 
6 738 701 798 1753 1716 1813 
6 716 736 764 1731 1751 1779 
6 735 715 765 1750 1730 1780 
6 777 720 792 1792 1735 1807 
6 739 707 752 1754 1722 1767 
6 740 710 753 1755 1725 1768 
6 708 741 754 1723 1756 1769 
6 799 753 809 1814 1768 1824 
6 749 800 816 1764 1815 1831 
6 745 731 815 1760 1746 1830 
6 739 724 810 1754 1739 1825 
6 773 732 793 1788 1747 1808 
6 715 735 758 1730 1750 1773 
6 736 716 757 1751 1731 1772 
6 214 762 794 411 1777 1809 
6 763 219 795 1778 416 1810 
6 701 738 797 1716 1753 1812 
6 750 701 797 1765 1716 1812 
6 742 709 784 1757 1724 1799 
6 713 746 762 1728 1761 1777 
6 747 714 763 1762 1729 1778 
6 217 773 793 414 1788 1808 
6 749 703 800 1764 1718 1815 
6 731 216 793 1746 413 1808 
6 748 701 784 1763 1716 1799 
6 702 752 796 1717 1767 1811 
6 745 709 766 1760 1724 1781 
6 709 748 784 1724 1763 1799 
6 796 752 814 1811 1767 1829 
6 756 717 772 1771 1732 1787 
6 718 755 771 1733 1770 1786 
6 750 797 822 1765 1812 1837 
6 704 753 799 1719 1768 1814 
6 27 225 810 108 422 1825 
6 227 27 811 424 108 1826 
6 764 210 813 1779 407 1828 
6 220 765 812 417 1780 1827 
6 718 799 809 1733 1814 1824 
6 802 227 811 1817 424 1826 
6 803 27 810 1818 108 1825 
6 705 711 775 1720 1726 1790 
6 712 706 776 1727 1721 1791 
6 720 761 792 1735 1776 1807 
6 711 705 817 1726 1720 1832 
6 706 712 818 1721 1727 1833 
6 800 717 816 1815 1732 1831 
6 23 215 762 104 412 1777 
6 218 24 763 415 105 1778 
6 779 705 787 1794 1720 1802 
6 706 778 788 1721 1793 1803 
6 208 20 757 405 101 1772 
6 13 193 758 94 390 1773 
6 740 726 840 1755 1741 1855 
6 726 741 841 1741 1756 1856 
6 755 718 770 1770 1733 1785 
6 717 756 769 1732 1771 1784 
6 203 18 780 400 99 1795 
6 15 198 782 96 395 1797 
6 702 745 821 1717 1760 1836 
6 720 733 778 1735 1748 1793 
6 734 719 779 1749 1734 1794 
6 763 714 773 1778 1729 1788 
6 709 742 766 1724 1757 1781 
6 24 219 763 105 416 1778 
6 214 23 762 411 104 1777 
6 745 702 805 1760 1717 1820 
6 733 720 777 1748 1735 1792 
6 724 752 821 1739 1767 1836 
6 757 20 845 1772 101 1860 
6 13 758 844 94 1773 1859 
6 713 762 774 1728 1777 1789 
6 765 715 767 1780 1730 1782 
6 716 764 768 1731 1779 1783 
6 719 761 806 1734 1776 1821 
6 761 720 807 1776 1735 1822 
6 725 751 831 1740 1766 1846 
6 708 777 792 1723 1792 1807 
6 778 744 807 1793 1759 1822 
6 743 779 806 1758 1794 1821 
6 719 734 791 1734 1749 1806 
6 779 719 806 1794 1734 1821 
6 720 778 807 1735 1793 1822 
6 731 745 826 1746 1760 1841 
6 784 701 832 1799 1716 1847 
6 730 771 819 1745 1786 1834 
6 772 729 820 1787 1744 1835 
6 207 756 772 404 1771 1787 
6 755 192 771 1770 389 1786 
6 708 754 777 1723 1769 1792 
6 784 723 811 1799 1738 1826 
6 805 713 826 1820 1728 1841 
6 748 732 823 1763 1747 1838 
6 742 784 811 1757 1799 1826 
6 701 748 798 1716 1763 1813 
6 716 768 769 1731 1783 1784 
6 767 715 770 1782 1730 1785 
6 752 702 821 1767 1717 1836 
6 751 725 830 1766 1740 1845 
6 737 785 842 1752 1800 1857 
6 786 738 843 1801 1753 1858 
6 703 749 831 1718 1764 1846 
6 701 750 832 1716 1765 1847 
6 745 805 826 1760 1820 1841 
6 215 216 774 412 413 1789 
6 217 218 773 414 415 1788 
6 753 710 809 1768 1725 1824 
6 702 796 805 1717 1811 1820 
6 707 739 829 1722 1754 1844 
6 710 740 828 1725 1755 1843 
6 741 708 830 1756 1723 1845 
6 831 751 838 1846 1766 1853 
6 224 13 844 421 94 1859 
6 20 209 845 101 406 1860 
6 745 766 821 1760 1781 1836 
6 751 708 791 1766 1723 1806 
6 724 766 803 1739 1781 1818 
6 772 717 800 1787 1732 1815 
6 718 771 799 1733 1786 1814 
6 761 719 792 1776 1734 1807 
6 752 707 814 1767 1722 1829 
6 207 208 756 404 405 1771 
6 193 192 755 390 389 1770 
6 726 753 835 1741 1768 1850 
6 754 726 835 1769 1741 1850 
6 766 742 803 1781 1757 1818 
6 771 191 819 1786 388 1834 
6 206 772 820 403 1787 1835 
6 200 201 761 397 398 1776 
6 785 212 842 1800 409 1857 
6 222 786 843 419 1801 1858 
6 796 737 805 1811 1752 1820 
6 749 707 829 1764 1722 1844 
6 750 710 828 1765 1725 1843 
6 708 751 830 1723 1766 1845 
6 703 831 838 1718 1846 1853 
6 710 767 770 1725 1782 1785 
6 768 707 769 1783 1722 1784 
6 828 723 832 1843 1738 1847 
6 829 725 831 1844 1740 1846 
6 200 761 807 397 1776 1822 
6 761 201 806 1776 398 1821 
6 729 772 800 1744 1787 1815 
6 771 730 799 1786 1745 1814 
6 210 211 813 407 408 1828 
6 221 220 812 418 417 1827 
6 738 798 825 1753 1813 1840 
6 707 749 816 1722 1764 1831 
6 778 706 818 1793 1721 1833 
6 705 779 817 1720 1794 1832 
6 734 834 838 1749 1849 1853 
6 734 779 787 1749 1794 1802 
6 778 733 788 1793 1748 1803 
6 225 801 810 422 1816 1825 
6 753 704 835 1768 1719 1850 
6 27 803 811 108 1818 1826 
6 710 750 822 1725 1765 1837 
6 711 759 781 1726 1774 1796 
6 760 712 783 1775 1727 1798 
6 833 733 839 1848 1748 1854 
6 791 708 792 1806 1723 1807 
6 754 835 839 1769 1850 1854 
6 764 721 768 1779 1736 1783 
6 722 765 767 1737 1780 1782 
6 193 755 758 390 1770 1773 
6 756 208 757 1771 405 1772 
6 192 191 771 389 388 1786 
6 206 207 772 403 404 1787 
6 721 796 814 1736 1811 1829 
6 710 770 809 1725 1785 1824 
6 734 787 834 1749 1802 1849 
6 788 733 833 1803 1748 1848 
6 835 704 839 1850 1719 1854 
6 797 722 822 1812 1737 1837 
6 769 707 816 1784 1722 1831 
6 726 808 840 1741 1823 1855 
6 808 726 841 1823 1741 1856 
6 723 784 832 1738 1799 1847 
6 719 791 792 1734 1806 1807 
6 203 780 781 400 1795 1796 
6 782 198 783 1797 395 1798 
6 762 746 794 1777 1761 1809 
6 747 763 795 1762 1778 1810 
6 793 732 815 1808 1747 1830 
6 222 221 786 419 418 1801 
6 211 212 785 408 409 1800 
6 723 802 811 1738 1817 1826 
6 724 803 810 1739 1818 1825 
6 801 725 829 1816 1740 1844 
6 802 723 828 1817 1738 1843 
6 725 804 830 1740 1819 1845 
6 766 724 821 1781 1739 1836 
6 801 739 810 1816 1754 1825 
6 803 742 811 1818 1757 1826 
6 210 736 789 407 1751 1804 
6 735 220 790 1750 417 1805 
6 773 714 823 1788 1729 1838 
6 216 217 793 413 414 1808 
6 750 828 832 1765 1843 1847 
6 749 829 831 1764 1844 1846 
6 731 793 815 1746 1808 1830 
6 759 711 817 1774 1726 1832 
6 712 760 818 1727 1775 1833 
6 798 714 825 1813 1729 1840 
6 785 737 796 1800 1752 1811 
6 738 786 797 1753 1801 1812 
6 732 773 823 1747 1788 1838 
6 721 785 796 1736 1800 1811 
6 786 722 797 1801 1737 1812 
6 226 227 808 423 424 1823 
6 707 768 814 1722 1783 1829 
6 767 710 822 1782 1725 1837 
6 736 757 845 1751 1772 1860 
6 758 735 844 1773 1750 1859 
6 201 202 806 398 399 1821 
6 199 200 807 396 397 1822 
6 746 713 824 1761 1728 1839 
6 714 747 825 1729 1762 1840 
6 746 213 794 1761 410 1809 
6 223 747 795 420 1762 1810 
6 728 782 783 1743 1797 1798 
6 780 727 781 1795 1742 1796 
6 191 190 819 388 387 1834 
6 205 206 820 402 403 1835 
6 733 777 839 1748 1792 1854 
6 768 721 814 1783 1736 1829 
6 834 703 838 1849 1718 1853 
6 722 767 822 1737 1782 1837 
6 791 734 838 1806 1749 1853 
6 770 718 809 1785 1733 1824 
6 704 833 839 1719 1848 1854 
6 212 213 842 409 410 1857 
6 223 222 843 420 419 1858 
6 713 774 826 1728 1789 1841 
6 209 21 789 406 102 1804 
6 26 224 790 107 421 1805 
6 714 798 823 1729 1813 1838 
6 218 763 773 415 1778 1788 
6 725 801 827 1740 1816 1842 
6 804 725 827 1819 1740 1842 
6 202 743 806 399 1758 1821 
6 744 199 807 1759 396 1822 
6 762 215 774 1777 412 1789 
6 717 769 816 1732 1784 1831 
6 777 754 839 1792 1769 1854 
6 787 705 836 1802 1720 1851 
6 706 788 837 1721 1803 1852 
6 22 214 794 103 411 1809 
6 219 25 795 416 106 1810 
6 798 748 823 1813 1763 1838 
6 744 778 818 1759 1793 1833 
6 779 743 817 1794 1758 1832 
6 765 722 812 1780 1737 1827 
6 721 764 813 1736 1779 1828 
6 211 785 813 408 1800 1828 
6 786 221 812 1801 418 1827 
6 225 226 827 422 423 1842 
6 213 746 842 410 1761 1857 
6 747 223 843 1762 420 1858 
6 785 721 813 1800 1736 1828 
6 722 786 812 1737 1801 1827 
6 751 791 838 1766 1806 1853 
6 713 805 824 1728 1820 1839 
6 746 824 842 1761 1839 1857 
6 825 747 843 1840 1762 1858 
6 774 731 826 1789 1746 1841 
6 743 202 759 1758 399 1774 
6 199 744 760 396 1759 1775 
6 790 224 844 1805 421 1859 
6 209 789 845 406 1804 1860 
6 227 802 840 424 1817 1855 
6 804 226 841 1819 423 1856 
6 730 819 837 1745 1834 1852 
6 820 729 836 1835 1744 1851 
6 801 225 827 1816 422 1842 
6 226 804 827 423 1819 1842 
6 17 203 781 98 400 1796 
6 198 16 783 395 97 1798 
6 805 737 824 1820 1752 1839 
6 788 730 837 1803 1745 1852 
6 729 787 836 1744 1802 1851 
6 704 799 833 1719 1814 1848 
6 800 703 834 1815 1718 1849 
6 739 801 829 1754 1816 1844 
6 740 802 828 1755 1817 1843 
6 804 741 830 1819 1756 1845 
6 799 730 833 1814 1745 1848 
6 729 800 834 1744 1815 1849 
6 802 740 840 1817 1755 1855 
6 741 804 841 1756 1819 1856 
6 775 820 836 1790 1835 1851 
6 819 776 837 1834 1791 1852 
6 705 775 836 1720 1790 1851 
6 776 706 837 1791 1721 1852 
6 808 227 840 1823 424 1855 
6 226 808 841 423 1823 1856 
6 730 788 833 1745 1803 1848 
6 787 729 834 1802 1744 1849 
6 789 736 845 1804 1751 1860 
6 735 790 844 1750 1805 1859 
6 775 205 820 1790 402 1835 
6 190 776 819 387 1791 1834 
6 743 759 817 1758 1774 1832 
6 760 744 818 1775 1759 1833 
6 824 737 842 1839 1752 1857 
6 738 825 843 1753 1840 1858 
6 16 199 760 97 396 1775 
6 16 760 783 97 1775 1798 
6 202 17 759 399 98 1774 
6 759 17 781 1774 98 1796 
6 21 210 789 102 407 1804 
6 213 22 794 410 103 1809 
6 25 223 795 106 420 1810 
6 220 26 790 417 107 1805 
6 1 197 190 82 394 387 
6 197 15 782 394 96 1797 
6 18 204 780 99 401 1795 
6 19 205 204 100 402 401 
6 190 197 728 387 394 1743 
6 190 728 776 387 1743 1791 
6 728 197 782 1743 394 1797 
6 204 205 727 401 402 1742 
6 204 727 780 401 1742 1795 
6 727 205 775 1742 402 1790 
6 711 727 775 1726 1742 1790 
6 727 711 781 1742 1726 1796 
6 728 712 776 1743 1727 1791 
6 712 728 783 1727 1743 1798 
6 939 898 954 1954 1913 1969 
6 860 900 915 1875 1915 1930 
6 861 901 914 1876 1916 1929 
6 893 877 959 1908 1892 1974 
6 854 893 959 1869 1908 1974 
6 900 860 903 1915 1875 1918 
6 901 861 902 1916 1876 1917 
6 890 854 959 1905 1869 1974 
6 876 238 920 1891 435 1935 
6 869 884 898 1884 1899 1913 
6 885 868 897 1900 1883 1912 
6 870 886 899 1885 1901 1914 
6 244 880 909 441 1895 1924 
6 223 881 910 420 1896 1925 
6 862 939 954 1877 1954 1969 
6 862 901 916 1877 1916 1931 
6 880 860 909 1895 1875 1924 
6 881 861 910 1896 1876 1925 
6 936 865 937 1951 1880 1952 
6 884 852 898 1899 1867 1913 
6 855 885 897 1870 1900 1912 
6 886 853 899 1901 1868 1914 
6 847 898 939 1862 1913 1954 
6 854 890 917 1869 1905 1932 
6 847 939 943 1862 1954 1958 
6 944 895 960 1959 1910 1975 
6 876 890 959 1891 1905 1974 
6 884 869 955 1899 1884 1970 
6 877 919 938 1892 1934 1953 
6 886 870 956 1901 1885 1971 
6 860 880 903 1875 1895 1918 
6 861 881 902 1876 1896 1917 
6 907 240 940 1922 437 1955 
6 235 908 941 432 1923 1956 
6 887 854 917 1902 1869 1932 
6 939 883 943 1954 1898 1958 
6 891 858 907 1906 1873 1922 
6 859 892 908 1874 1907 1923 
6 919 237 938 1934 434 1953 
6 849 895 944 1864 1910 1959 
6 890 846 917 1905 1861 1932 
6 238 876 938 435 1891 1953 
6 897 846 942 1912 1861 1957 
6 897 942 958 1912 1957 1973 
6 863 900 918 1878 1915 1933 
6 917 846 979 1932 1861 1994 
6 38 252 955 119 449 1970 
6 252 253 956 449 450 1971 
6 244 909 957 441 1924 1972 
6 945 252 956 1960 449 1971 
6 947 38 955 1962 119 1970 
6 850 856 921 1865 1871 1936 
6 857 851 922 1872 1866 1937 
6 865 906 937 1880 1921 1952 
6 856 850 962 1871 1865 1977 
6 851 857 963 1866 1872 1978 
6 863 944 960 1878 1959 1975 
6 239 32 907 436 113 1922 
6 31 236 908 112 433 1923 
6 925 850 931 1940 1865 1946 
6 851 924 932 1866 1939 1947 
6 868 887 917 1883 1902 1932 
6 29 231 902 110 428 1917 
6 35 249 903 116 446 1918 
6 894 848 949 1909 1863 1964 
6 868 885 985 1883 1900 2000 
6 887 868 986 1902 1883 2001 
6 900 863 915 1915 1878 1930 
6 901 862 914 1916 1877 1929 
6 228 28 926 425 109 1941 
6 37 251 928 118 448 1943 
6 901 232 916 1916 429 1931 
6 865 878 924 1880 1893 1939 
6 879 864 925 1894 1879 1940 
6 883 916 988 1898 1931 2003 
6 223 910 968 420 1925 1983 
6 854 887 913 1869 1902 1928 
6 853 936 937 1868 1951 1952 
6 893 854 913 1908 1869 1928 
6 859 908 919 1874 1923 1934 
6 235 31 908 432 112 1923 
6 32 240 907 113 437 1922 
6 869 898 961 1884 1913 1976 
6 846 890 950 1861 1905 1965 
6 864 879 923 1879 1894 1938 
6 29 902 989 110 1917 2004 
6 35 903 990 116 1918 2005 
6 907 858 920 1922 1873 1935 
6 909 860 911 1924 1875 1926 
6 910 861 912 1925 1876 1927 
6 864 906 951 1879 1921 1966 
6 906 865 952 1921 1880 1967 
6 896 871 977 1911 1886 1992 
6 888 925 951 1903 1940 1966 
6 924 889 952 1939 1904 1967 
6 878 865 936 1893 1880 1951 
6 894 949 966 1909 1964 1981 
6 925 864 951 1940 1879 1966 
6 865 924 952 1880 1939 1967 
6 890 876 971 1905 1891 1986 
6 875 918 965 1890 1933 1980 
6 847 893 961 1862 1908 1976 
6 916 233 988 1931 430 2003 
6 900 248 918 1915 445 1933 
6 899 853 923 1914 1868 1938 
6 858 950 971 1873 1965 1986 
6 877 893 967 1892 1908 1982 
6 898 847 961 1913 1862 1976 
6 893 847 943 1908 1862 1958 
6 912 861 914 1927 1876 1929 
6 911 860 915 1926 1875 1930 
6 871 896 975 1886 1911 1990 
6 930 882 987 1945 1897 2002 
6 848 894 976 1863 1909 1991 
6 895 849 977 1910 1864 1992 
6 950 890 971 1965 1905 1986 
6 238 239 920 435 436 1935 
6 236 237 919 433 434 1934 
6 898 852 954 1913 1867 1969 
6 942 846 950 1957 1861 1965 
6 852 884 973 1867 1899 1988 
6 885 855 974 1900 1870 1989 
6 853 886 975 1868 1901 1990 
6 870 899 976 1885 1914 1991 
6 896 977 983 1911 1992 1998 
6 245 35 990 442 116 2005 
6 230 29 989 427 110 2004 
6 853 896 936 1868 1911 1951 
6 863 918 944 1878 1933 1959 
6 906 864 937 1921 1879 1952 
6 855 897 958 1870 1912 1973 
6 231 232 901 428 429 1916 
6 249 248 900 446 445 1915 
6 935 874 964 1950 1889 1979 
6 918 247 965 1933 444 1980 
6 862 916 939 1877 1931 1954 
6 187 186 906 384 383 1921 
6 976 899 984 1991 1914 1999 
6 242 930 987 439 1945 2002 
6 848 976 984 1863 1991 1999 
6 897 868 979 1912 1883 1994 
6 882 942 950 1897 1957 1965 
6 894 852 973 1909 1867 1988 
6 855 895 974 1870 1910 1989 
6 896 853 975 1911 1868 1990 
6 977 849 983 1992 1864 1998 
6 855 911 915 1870 1926 1930 
6 852 912 914 1867 1927 1929 
6 973 870 976 1988 1885 1991 
6 871 974 977 1886 1989 1992 
6 906 186 951 1921 383 1966 
6 187 906 952 384 1921 1967 
6 918 875 944 1933 1890 1959 
6 243 244 957 440 441 1972 
6 943 883 970 1958 1898 1985 
6 869 913 947 1884 1928 1962 
6 895 855 960 1910 1870 1975 
6 924 851 963 1939 1866 1978 
6 850 925 962 1865 1940 1977 
6 978 878 983 1993 1893 1998 
6 879 925 931 1894 1940 1946 
6 924 878 932 1939 1893 1947 
6 252 945 955 449 1960 1970 
6 253 948 956 450 1963 1971 
6 852 894 966 1867 1909 1981 
6 856 904 927 1871 1919 1942 
6 905 857 929 1920 1872 1944 
6 913 887 947 1928 1902 1962 
6 866 909 911 1881 1924 1926 
6 867 910 912 1882 1925 1927 
6 846 897 979 1861 1912 1994 
6 221 935 964 418 1950 1979 
6 232 233 916 429 430 1931 
6 249 900 903 446 1915 1918 
6 231 901 902 428 1916 1917 
6 874 935 949 1889 1950 1964 
6 916 883 939 1931 1898 1954 
6 879 980 984 1894 1995 1999 
6 893 913 961 1908 1928 1976 
6 923 853 937 1938 1868 1952 
6 248 247 918 445 444 1933 
6 942 866 958 1957 1881 1973 
6 852 914 954 1867 1929 1969 
6 932 878 978 1947 1893 1993 
6 855 915 960 1870 1930 1975 
6 222 223 968 419 420 1983 
6 953 868 985 1968 1883 2000 
6 868 953 986 1883 1968 2001 
6 864 923 937 1879 1938 1952 
6 879 931 980 1894 1946 1995 
6 228 926 927 425 1941 1942 
6 928 251 929 1943 448 1944 
6 935 867 949 1950 1882 1964 
6 891 907 940 1906 1922 1955 
6 908 892 941 1923 1907 1956 
6 877 938 959 1892 1953 1974 
6 242 243 930 439 440 1945 
6 870 945 956 1885 1960 1971 
6 869 947 955 1884 1962 1970 
6 945 870 973 1960 1885 1988 
6 871 946 974 1886 1961 1989 
6 948 871 975 1963 1886 1990 
6 221 222 935 418 419 1950 
6 945 884 955 1960 1899 1970 
6 948 886 956 1963 1901 1971 
6 880 244 933 1895 441 1948 
6 881 223 934 1896 420 1949 
6 859 919 967 1874 1934 1982 
6 237 238 938 434 435 1953 
6 974 895 977 1989 1910 1992 
6 894 973 976 1909 1988 1991 
6 938 876 959 1953 1891 1974 
6 949 867 966 1964 1882 1981 
6 904 856 962 1919 1871 1977 
6 857 905 963 1872 1920 1978 
6 859 943 970 1874 1958 1985 
6 882 930 942 1897 1945 1957 
6 919 877 967 1934 1892 1982 
6 913 869 961 1928 1884 1976 
6 930 866 942 1945 1881 1957 
6 254 38 953 451 119 1968 
6 911 855 958 1926 1870 1973 
6 912 852 966 1927 1867 1981 
6 902 881 989 1917 1896 2004 
6 903 880 990 1918 1895 2005 
6 186 185 951 383 382 1966 
6 188 187 952 385 384 1967 
6 858 891 969 1873 1906 1984 
6 892 859 970 1907 1874 1985 
6 241 891 940 438 1906 1955 
6 892 234 941 1907 431 1956 
6 926 872 927 1941 1887 1942 
6 873 928 929 1888 1943 1944 
6 220 221 964 417 418 1979 
6 247 246 965 444 443 1980 
6 923 879 984 1938 1894 1999 
6 866 911 958 1881 1926 1973 
6 849 978 983 1864 1993 1998 
6 867 912 966 1882 1927 1981 
6 868 917 979 1883 1932 1994 
6 878 936 983 1893 1951 1998 
6 914 862 954 1929 1877 1969 
6 241 242 987 438 439 2002 
6 233 234 988 430 431 2003 
6 920 858 971 1935 1873 1986 
6 34 245 933 115 442 1948 
6 25 230 934 106 427 1949 
6 910 867 968 1925 1882 1983 
6 943 859 967 1958 1874 1982 
6 908 236 919 1923 433 1934 
6 980 848 984 1995 1863 1999 
6 946 871 972 1961 1886 1987 
6 871 948 972 1886 1963 1987 
6 185 888 951 382 1903 1966 
6 889 188 952 1904 385 1967 
6 239 907 920 436 1922 1935 
6 915 863 960 1930 1878 1975 
6 899 923 984 1914 1938 1999 
6 931 850 981 1946 1865 1996 
6 851 932 982 1866 1947 1997 
6 240 33 940 437 114 1955 
6 30 235 941 111 432 1956 
6 867 935 968 1882 1950 1983 
6 893 943 967 1908 1958 1982 
6 889 924 963 1904 1939 1978 
6 925 888 962 1940 1903 1977 
6 909 866 957 1924 1881 1972 
6 930 243 957 1945 440 1972 
6 253 254 972 450 451 1987 
6 891 241 987 1906 438 2002 
6 234 892 988 431 1907 2003 
6 866 930 957 1881 1945 1972 
6 936 896 983 1951 1911 1998 
6 950 858 969 1965 1873 1984 
6 969 891 987 1984 1906 2002 
6 892 970 988 1907 1985 2003 
6 876 920 971 1891 1935 1986 
6 888 185 904 1903 382 1919 
6 188 889 905 385 1904 1920 
6 933 245 990 1948 442 2005 
6 934 230 989 1949 427 2004 
6 946 254 985 1961 451 2000 
6 38 947 986 119 1962 2001 
6 875 965 982 1890 1980 1997 
6 964 874 981 1979 1889 1996 
6 935 222 968 1950 419 1983 
6 254 946 972 451 1961 1987 
6 948 253 972 1963 450 1987 
6 251 11 929 448 92 1944 
6 12 228 927 93 425 1942 
6 882 950 969 1897 1965 1984 
6 949 848 980 1964 1863 1995 
6 932 875 982 1947 1890 1997 
6 874 931 981 1889 1946 1996 
6 874 949 980 1889 1964 1995 
6 849 944 978 1864 1959 1993 
6 884 945 973 1899 1960 1988 
6 946 885 974 1961 1900 1989 
6 886 948 975 1901 1963 1990 
6 944 875 978 1959 1890 1993 
6 885 946 985 1900 1961 2000 
6 947 887 986 1962 1902 2001 
6 921 964 981 1936 1979 1996 
6 965 922 982 1980 1937 1997 
6 850 921 981 1865 1936 1996 
6 922 851 982 1937 1866 1997 
6 254 953 985 451 1968 2000 
6 953 38 986 1968 119 2001 
6 875 932 978 1890 1947 1993 
6 931 874 980 1946 1889 1995 
6 880 933 990 1895 1948 2005 
6 881 934 989 1896 1949 2004 
6 921 220 964 1936 417 1979 
6 246 922 965 443 1937 1980 
6 888 904 962 1903 1919 1977 
6 905 889 963 1920 1904 1978 
6 882 969 987 1897 1984 2002 
6 970 883 988 1985 1898 2003 
6 11 188 905 92 385 1920 
6 11 905 929 92 1920 1944 
6 185 12 904 382 93 1919 
6 904 12 927 1919 93 1942 
6 223 25 934 420 106 1949 
6 234 30 941 431 111 1956 
6 33 241 940 114 438 1955 
6 244 34 933 441 115 1948 
6 26 220 229 107 417 426 
6 28 229 926 109 426 1941 
6 36 250 246 117 447 443 
6 250 37 928 447 118 1943 
6 229 220 872 426 417 1887 
6 872 220 921 1887 417 1936 
6 229 872 926 426 1887 1941 
6 246 250 873 443 447 1888 
6 246 873 922 443 1888 1937 
6 873 250 928 1888 447 1943 
6 856 872 921 1871 1887 1936 
6 872 856 927 1887 1871 1942 
6 873 857 922 1888 1872 1937 
6 857 873 929 1872 1888 1944 
6 1084 1042 1100 2099 2057 2115 
6 1005 1045 1060 2020 2060 2075 
6 1006 1046 1059 2021 2061 2074 
6 1022 1038 1104 2037 2053 2119 
6 1038 999 1104 2053 2014 2119 
6 1045 1005 1047 2060 2020 2062 
6 1046 1006 1048 2061 2021 2063 
6 999 1035 1104 2014 2050 2119 
6 258 1021 1064 455 2036 2079 
6 1014 1029 1042 2029 2044 2057 
6 1016 1030 1043 2031 2045 2058 
6 1031 1016 1044 2046 2031 2059 
6 180 1026 1055 377 2041 2070 
6 265 1025 1054 462 2040 2069 
6 1028 991 1088 2043 2006 2103 
6 1007 1084 1100 2022 2099 2115 
6 1007 1046 1061 2022 2061 2076 
6 1026 1006 1055 2041 2021 2070 
6 1025 1005 1054 2040 2020 2069 
6 1067 1010 1082 2082 2025 2097 
6 1029 997 1042 2044 2012 2057 
6 1030 1000 1043 2045 2015 2058 
6 998 1031 1044 2013 2046 2059 
6 1089 1043 1099 2104 2058 2114 
6 992 1042 1084 2007 2057 2099 
6 1035 1021 1104 2050 2036 2119 
6 1029 1014 1101 2044 2029 2116 
6 1063 1022 1083 2078 2037 2098 
6 1005 1025 1047 2020 2040 2062 
6 1006 1026 1048 2021 2041 2063 
6 256 1052 1085 453 2067 2100 
6 1053 261 1086 2068 458 2101 
6 991 1028 1087 2006 2043 2102 
6 1040 991 1087 2055 2006 2102 
6 1032 999 1074 2047 2014 2089 
6 1003 1036 1052 2018 2051 2067 
6 1037 1004 1053 2052 2019 2068 
6 259 1063 1083 456 2078 2098 
6 1021 258 1083 2036 455 2098 
6 1038 991 1074 2053 2006 2089 
6 1035 999 1056 2050 2014 2071 
6 999 1038 1074 2014 2053 2089 
6 1008 1045 1062 2023 2060 2077 
6 1040 1087 1110 2055 2102 2125 
6 994 1043 1089 2009 2058 2104 
6 49 279 1101 130 476 2116 
6 281 49 1102 478 130 2117 
6 265 1054 1103 462 2069 2118 
6 1008 1089 1099 2023 2104 2114 
6 1091 281 1102 2106 478 2117 
6 1092 49 1101 2107 130 2116 
6 995 1001 1065 2010 2016 2080 
6 1002 996 1066 2017 2011 2081 
6 1010 1051 1082 2025 2066 2097 
6 1001 995 1105 2016 2010 2120 
6 996 1002 1106 2011 2017 2121 
6 39 257 1052 120 454 2067 
6 260 40 1053 457 121 2068 
6 1069 995 1076 2084 2010 2091 
6 996 1068 1077 2011 2083 2092 
6 43 267 1047 124 464 2062 
6 36 246 1048 117 443 2063 
6 1039 993 1094 2054 2008 2109 
6 1030 1016 1130 2045 2031 2145 
6 1016 1031 1131 2031 2046 2146 
6 1045 1008 1060 2060 2023 2075 
6 1046 1007 1059 2061 2022 2074 
6 277 48 1070 474 129 2085 
6 45 272 1072 126 469 2087 
6 992 1035 1109 2007 2050 2124 
6 1046 247 1061 2061 444 2076 
6 1010 1023 1068 2025 2038 2083 
6 1024 1009 1069 2039 2024 2084 
6 1027 1061 1132 2042 2076 2147 
6 180 1055 1113 377 2070 2128 
6 1053 1004 1063 2068 2019 2078 
6 999 1032 1056 2014 2047 2071 
6 40 261 1053 121 458 2068 
6 256 39 1052 453 120 2067 
6 1035 992 1095 2050 2007 2110 
6 1023 1010 1067 2038 2025 2082 
6 1014 1042 1109 2029 2057 2124 
6 36 1048 1134 117 2063 2149 
6 43 1047 1135 124 2062 2150 
6 1003 1052 1064 2018 2067 2079 
6 1054 1005 1057 2069 2020 2072 
6 1055 1006 1058 2070 2021 2073 
6 1051 1010 1097 2066 2025 2112 
6 1009 1051 1096 2024 2066 2111 
6 1015 1041 1122 2030 2056 2137 
6 998 1067 1082 2013 2082 2097 
6 1033 1069 1096 2048 2084 2111 
6 1068 1034 1097 2083 2049 2112 
6 1009 1024 1081 2024 2039 2096 
6 1039 1094 1111 2054 2109 2126 
6 1069 1009 1096 2084 2024 2111 
6 1010 1068 1097 2025 2083 2112 
6 1021 1035 1116 2036 2050 2131 
6 1074 991 1121 2089 2006 2136 
6 1020 1062 1108 2035 2077 2123 
6 1061 248 1132 2076 445 2147 
6 1045 268 1062 2060 465 2077 
6 998 1044 1067 2013 2059 2082 
6 1074 1013 1102 2089 2028 2117 
6 1095 1003 1116 2110 2018 2131 
6 1038 1022 1112 2053 2037 2127 
6 1032 1074 1102 2047 2089 2117 
6 991 1038 1088 2006 2053 2103 
6 1058 1006 1059 2073 2021 2074 
6 1057 1005 1060 2072 2020 2075 
6 1042 992 1109 2057 2007 2124 
6 1041 1015 1120 2056 2030 2135 
6 1075 1028 1133 2090 2043 2148 
6 993 1039 1122 2008 2054 2137 
6 991 1040 1121 2006 2055 2136 
6 1035 1095 1116 2050 2110 2131 
6 257 258 1064 454 455 2079 
6 259 260 1063 456 457 2078 
6 1042 997 1100 2057 2012 2115 
6 1043 1000 1099 2058 2015 2114 
6 997 1029 1119 2012 2044 2134 
6 1000 1030 1118 2015 2045 2133 
6 1031 998 1120 2046 2013 2135 
6 1122 1041 1128 2137 2056 2143 
6 255 36 1134 452 117 2149 
6 266 43 1135 463 124 2150 
6 1035 1056 1109 2050 2071 2124 
6 1041 998 1081 2056 2013 2096 
6 1014 1056 1092 2029 2071 2107 
6 1008 1062 1089 2023 2077 2104 
6 1051 1009 1082 2066 2024 2097 
6 246 247 1046 443 444 2061 
6 267 268 1045 464 465 2060 
6 1016 1043 1124 2031 2058 2139 
6 1044 1016 1124 2059 2031 2139 
6 1080 1019 1107 2095 2034 2122 
6 1056 1032 1092 2071 2047 2107 
6 1062 269 1108 2077 466 2123 
6 1007 1061 1084 2022 2076 2099 
6 275 274 1051 472 471 2066 
6 263 1075 1133 460 2090 2148 
6 992 1084 1095 2007 2099 2110 
6 1039 997 1119 2054 2012 2134 
6 1040 1000 1118 2055 2015 2133 
6 998 1041 1120 2013 2056 2135 
6 993 1122 1128 2008 2137 2143 
6 1000 1057 1060 2015 2072 2075 
6 997 1058 1059 2012 2073 2074 
6 1119 1015 1122 2134 2030 2137 
6 1118 1013 1121 2133 2028 2136 
6 275 1051 1097 472 2066 2112 
6 1051 274 1096 2066 471 2111 
6 1062 1020 1089 2077 2035 2104 
6 264 265 1103 461 462 2118 
6 1028 1088 1115 2043 2103 2130 
6 1068 996 1106 2083 2011 2121 
6 995 1069 1105 2010 2084 2120 
6 1024 1069 1076 2039 2084 2091 
6 1068 1023 1077 2083 2038 2092 
6 279 1090 1101 476 2105 2116 
6 1043 994 1124 2058 2009 2139 
6 49 1092 1102 130 2107 2117 
6 1084 1027 1095 2099 2042 2110 
6 997 1039 1111 2012 2054 2126 
6 1000 1040 1110 2015 2055 2125 
6 1001 1049 1071 2016 2064 2086 
6 1050 1002 1073 2065 2017 2088 
6 1123 1023 1129 2138 2038 2144 
6 1081 998 1082 2096 2013 2097 
6 1044 1124 1129 2059 2139 2144 
6 1011 1054 1057 2026 2069 2072 
6 1012 1055 1058 2027 2070 2073 
6 182 1080 1107 379 2095 2122 
6 1024 1125 1128 2039 2140 2143 
6 247 248 1061 444 445 2076 
6 267 1045 1047 464 2060 2062 
6 246 1046 1048 443 2061 2063 
6 1019 1080 1094 2034 2095 2109 
6 1061 1027 1084 2076 2042 2099 
6 268 269 1062 465 466 2077 
6 1000 1060 1099 2015 2075 2114 
6 997 1059 1100 2012 2074 2115 
6 1077 1023 1123 2092 2038 2138 
6 1124 994 1129 2139 2009 2144 
6 1087 1011 1110 2102 2026 2125 
6 181 180 1113 378 377 2128 
6 1016 1098 1130 2031 2113 2145 
6 1098 1016 1131 2113 2031 2146 
6 1013 1074 1121 2028 2089 2136 
6 1024 1076 1125 2039 2091 2140 
6 1009 1081 1082 2024 2096 2097 
6 1072 272 1073 2087 469 2088 
6 277 1070 1071 474 2085 2086 
6 1080 1012 1094 2095 2027 2109 
6 1052 1036 1085 2067 2051 2100 
6 1037 1053 1086 2052 2068 2101 
6 1083 1022 1104 2098 2037 2119 
6 263 264 1075 460 461 2090 
6 1013 1091 1102 2028 2106 2117 
6 1014 1092 1101 2029 2107 2116 
6 1090 1015 1119 2105 2030 2134 
6 1091 1013 1118 2106 2028 2133 
6 1015 1093 1120 2030 2108 2135 
6 1056 1014 1109 2071 2029 2124 
6 182 181 1080 379 378 2095 
6 1090 1029 1101 2105 2044 2116 
6 1092 1032 1102 2107 2047 2117 
6 1025 265 1078 2040 462 2093 
6 1026 180 1079 2041 377 2094 
6 1063 1004 1112 2078 2019 2127 
6 258 259 1083 455 456 2098 
6 1040 1118 1121 2055 2133 2136 
6 1039 1119 1122 2054 2134 2137 
6 1021 1083 1104 2036 2098 2119 
6 1094 1012 1111 2109 2027 2126 
6 1049 1001 1105 2064 2016 2120 
6 1002 1050 1106 2017 2065 2121 
6 1088 1004 1115 2103 2019 2130 
6 1028 1075 1087 2043 2090 2102 
6 1022 1063 1112 2037 2078 2127 
6 1075 1011 1087 2090 2026 2102 
6 280 281 1098 477 478 2113 
6 1058 997 1111 2073 2012 2126 
6 1057 1000 1110 2072 2015 2125 
6 1047 1025 1135 2062 2040 2150 
6 1048 1026 1134 2063 2041 2149 
6 274 273 1096 471 470 2111 
6 276 275 1097 473 472 2112 
6 1036 1003 1114 2051 2018 2129 
6 1004 1037 1115 2019 2052 2130 
6 1036 249 1085 2051 446 2100 
6 262 1037 1086 459 2052 2101 
6 1070 1017 1071 2085 2032 2086 
6 1018 1072 1073 2033 2087 2088 
6 183 182 1107 380 379 2122 
6 269 270 1108 466 467 2123 
6 1023 1067 1129 2038 2082 2144 
6 1011 1057 1110 2026 2072 2125 
6 1012 1058 1111 2027 2073 2126 
6 1081 1024 1128 2096 2039 2143 
6 1059 1007 1100 2074 2022 2115 
6 1060 1008 1099 2075 2023 2114 
6 994 1123 1129 2009 2138 2144 
6 248 249 1132 445 446 2147 
6 262 263 1133 459 460 2148 
6 1125 993 1128 2140 2008 2143 
6 1003 1064 1116 2018 2079 2131 
6 42 266 1078 123 463 2093 
6 10 255 1079 91 452 2094 
6 1055 1012 1113 2070 2027 2128 
6 1004 1088 1112 2019 2103 2127 
6 260 1053 1063 457 2068 2078 
6 1015 1090 1117 2030 2105 2132 
6 1093 1015 1117 2108 2030 2132 
6 273 1033 1096 470 2048 2111 
6 1034 276 1097 2049 473 2112 
6 1052 257 1064 2067 454 2079 
6 1067 1044 1129 2082 2059 2144 
6 1076 995 1126 2091 2010 2141 
6 996 1077 1127 2011 2092 2142 
6 35 256 1085 116 453 2100 
6 261 41 1086 458 122 2101 
6 1012 1080 1113 2027 2095 2128 
6 1088 1038 1112 2103 2053 2127 
6 1034 1068 1106 2049 2083 2121 
6 1069 1033 1105 2084 2048 2120 
6 1054 1011 1103 2069 2026 2118 
6 1075 264 1103 2090 461 2118 
6 279 280 1117 476 477 2132 
6 249 1036 1132 446 2051 2147 
6 1037 262 1133 2052 459 2148 
6 1011 1075 1103 2026 2090 2118 
6 1041 1081 1128 2056 2096 2143 
6 1003 1095 1114 2018 2110 2129 
6 1036 1114 1132 2051 2129 2147 
6 1115 1037 1133 2130 2052 2148 
6 1064 1021 1116 2079 2036 2131 
6 276 1034 1050 473 2049 2065 
6 1033 273 1049 2048 470 2064 
6 1078 266 1135 2093 463 2150 
6 1079 255 1134 2094 452 2149 
6 281 1091 1130 478 2106 2145 
6 1093 280 1131 2108 477 2146 
6 1107 1019 1126 2122 2034 2141 
6 1020 1108 1127 2035 2123 2142 
6 1080 181 1113 2095 378 2128 
6 1090 279 1117 2105 476 2132 
6 280 1093 1117 477 2108 2132 
6 272 46 1073 469 127 2088 
6 47 277 1071 128 474 2086 
6 1095 1027 1114 2110 2042 2129 
6 1094 993 1125 2109 2008 2140 
6 1019 1076 1126 2034 2091 2141 
6 1077 1020 1127 2092 2035 2142 
6 1019 1094 1125 2034 2109 2140 
6 994 1089 1123 2009 2104 2138 
6 1030 1091 1118 2045 2106 2133 
6 1029 1090 1119 2044 2105 2134 
6 1093 1031 1120 2108 2046 2135 
6 1089 1020 1123 2104 2035 2138 
6 1091 1030 1130 2106 2045 2145 
6 1031 1093 1131 2046 2108 2146 
6 1065 1107 1126 2080 2122 2141 
6 1108 1066 1127 2123 2081 2142 
6 995 1065 1126 2010 2080 2141 
6 1066 996 1127 2081 2011 2142 
6 1098 281 1130 2113 478 2145 
6 280 1098 1131 477 2113 2146 
6 1020 1077 1123 2035 2092 2138 
6 1076 1019 1125 2091 2034 2140 
6 1025 1078 1135 2040 2093 2150 
6 1026 1079 1134 2041 2094 2149 
6 1065 183 1107 2080 380 2122 
6 270 1066 1108 467 2081 2123 
6 1033 1049 1105 2048 2064 2120 
6 1050 1034 1106 2065 2049 2121 
6 1114 1027 1132 2129 2042 2147 
6 1028 1115 1133 2043 2130 2148 
6 180 10 1079 377 91 2094 
6 249 35 1085 446 116 2100 
6 41 262 1086 122 459 2101 
6 265 42 1078 462 123 2093 
6 46 276 1050 127 473 2065 
6 46 1050 1073 127 2065 2088 
6 273 47 1049 470 128 2064 
6 1049 47 1071 2064 128 2086 
6 9 183 278 90 380 475 
6 44 271 270 125 468 467 
6 271 45 1072 468 126 2087 
6 48 278 1070 129 475 2085 
6 278 183 1017 475 380 2032 
6 1017 183 1065 2032 380 2080 
6 270 271 1018 467 468 2033 
6 270 1018 1066 467 2033 2081 
6 1018 271 1072 2033 468 2087 
6 278 1017 1070 475 2032 2085 
6 1001 1017 1065 2016 2032 2080 
6 1017 1001 1071 2032 2016 2086 
6 1018 1002 1066 2033 2017 2081 
6 1002 1018 1073 2017 2033 2088 
6 1150 1190 1205 2165 2205 2220 
6 1191 1151 1204 2206 2166 2219 
6 1183 1167 1250 2198 2182 2265 
6 1144 1183 1250 2159 2198 2265 
6 1190 1150 1192 2205 2165 2207 
6 1151 1191 1193 2166 2206 2208 
6 1180 1144 1250 2195 2159 2265 
6 1166 275 1210 2181 472 2225 
6 1175 1158 1187 2190 2173 2202 
6 1159 1174 1188 2174 2189 2203 
6 1176 1161 1189 2191 2176 2204 
6 1170 178 1199 2185 375 2214 
6 287 1171 1200 484 2186 2215 
6 1137 1173 1233 2152 2188 2248 
6 1151 1170 1199 2166 2185 2214 
6 1171 1150 1200 2186 2165 2215 
6 1155 1226 1227 2170 2241 2242 
6 1174 1142 1188 2189 2157 2203 
6 1145 1175 1187 2160 2190 2202 
6 1143 1176 1189 2158 2191 2204 
6 1144 1180 1206 2159 2195 2221 
6 1234 1185 1252 2249 2200 2267 
6 1184 1235 1251 2199 2250 2266 
6 1166 1180 1250 2181 2195 2265 
6 1174 1159 1244 2189 2174 2259 
6 1167 1209 1228 2182 2224 2243 
6 1161 1176 1245 2176 2191 2260 
6 1150 1171 1192 2165 2186 2207 
6 1170 1151 1193 2185 2166 2208 
6 1197 283 1230 2212 480 2245 
6 282 1198 1229 479 2213 2244 
6 1177 1144 1206 2192 2159 2221 
6 1173 1137 1232 2188 2152 2247 
6 1148 1181 1198 2163 2196 2213 
6 1182 1149 1197 2197 2164 2212 
6 1209 274 1228 2224 471 2243 
6 1139 1185 1234 2154 2200 2249 
6 1184 1138 1235 2199 2153 2250 
6 1180 1136 1206 2195 2151 2221 
6 275 1166 1228 472 2181 2243 
6 1137 1188 1232 2152 2203 2247 
6 1187 1136 1231 2202 2151 2246 
6 1232 1188 1249 2247 2203 2264 
6 1187 1231 1248 2202 2246 2263 
6 1191 1152 1208 2206 2167 2223 
6 1153 1190 1207 2168 2205 2222 
6 1206 1136 1270 2221 2151 2285 
6 60 306 1244 141 503 2259 
6 307 308 1245 504 505 2260 
6 1199 178 1247 2214 375 2262 
6 287 1200 1246 484 2215 2261 
6 308 1237 1245 505 2252 2260 
6 1238 60 1244 2253 141 2259 
6 1146 1140 1211 2161 2155 2226 
6 1141 1147 1212 2156 2162 2227 
6 1196 1155 1227 2211 2170 2242 
6 1140 1146 1254 2155 2161 2269 
6 1147 1141 1255 2162 2156 2270 
6 1153 1234 1252 2168 2249 2267 
6 1235 1152 1251 2250 2167 2266 
6 47 273 1198 128 470 2213 
6 276 46 1197 473 127 2212 
6 1140 1214 1222 2155 2229 2237 
6 1215 1141 1223 2230 2156 2238 
6 1158 1177 1206 2173 2192 2221 
6 52 289 1192 133 486 2207 
6 301 59 1193 498 140 2208 
6 1158 1175 1275 2173 2190 2290 
6 1177 1158 1276 2192 2173 2291 
6 1190 1153 1205 2205 2168 2220 
6 1152 1191 1204 2167 2206 2219 
6 54 294 1216 135 491 2231 
6 299 57 1218 496 138 2233 
6 1154 1168 1214 2169 2183 2229 
6 1169 1155 1215 2184 2170 2230 
6 1144 1177 1203 2159 2192 2218 
6 1226 1143 1227 2241 2158 2242 
6 1183 1144 1203 2198 2159 2218 
6 1148 1198 1209 2163 2213 2224 
6 46 283 1197 127 480 2212 
6 282 47 1198 479 128 2213 
6 1159 1188 1253 2174 2203 2268 
6 1136 1180 1240 2151 2195 2255 
6 1168 1154 1213 2183 2169 2228 
6 1193 59 1279 2208 140 2294 
6 52 1192 1280 133 2207 2295 
6 1197 1149 1210 2212 2164 2225 
6 1151 1199 1201 2166 2214 2216 
6 1200 1150 1202 2215 2165 2217 
6 1196 1154 1241 2211 2169 2256 
6 1155 1196 1242 2170 2211 2257 
6 1160 1186 1266 2175 2201 2281 
6 1214 1178 1241 2229 2193 2256 
6 1179 1215 1242 2194 2230 2257 
6 1155 1169 1226 2170 2184 2241 
6 1154 1214 1241 2169 2229 2256 
6 1215 1155 1242 2230 2170 2257 
6 1180 1166 1261 2195 2181 2276 
6 1164 1207 1256 2179 2222 2271 
6 1208 1165 1257 2223 2180 2272 
6 1137 1183 1253 2152 2198 2268 
6 302 1191 1208 499 2206 2223 
6 1190 290 1207 2205 487 2222 
6 1143 1189 1213 2158 2204 2228 
6 1149 1240 1261 2164 2255 2276 
6 1167 1183 1258 2182 2198 2273 
6 1188 1137 1253 2203 2152 2268 
6 1183 1137 1233 2198 2152 2248 
6 1151 1201 1204 2166 2216 2219 
6 1202 1150 1205 2217 2165 2220 
6 1186 1160 1265 2201 2175 2280 
6 1221 1172 1278 2236 2187 2293 
6 1173 1220 1277 2188 2235 2292 
6 1138 1184 1266 2153 2199 2281 
6 1185 1139 1267 2200 2154 2282 
6 1240 1180 1261 2255 2195 2276 
6 275 276 1210 472 473 2225 
6 273 274 1209 470 471 2224 
6 1231 1136 1240 2246 2151 2255 
6 1142 1174 1263 2157 2189 2278 
6 1175 1145 1264 2190 2160 2279 
6 1176 1143 1265 2191 2158 2280 
6 1189 1161 1267 2204 2176 2282 
6 1266 1186 1273 2281 2201 2288 
6 59 305 1279 140 502 2294 
6 288 52 1280 485 133 2295 
6 1186 1143 1226 2201 2158 2241 
6 1153 1207 1234 2168 2222 2249 
6 1208 1152 1235 2223 2167 2250 
6 1154 1196 1227 2169 2211 2242 
6 1188 1142 1249 2203 2157 2264 
6 1145 1187 1248 2160 2202 2263 
6 289 290 1190 486 487 2205 
6 302 301 1191 499 498 2206 
6 1207 291 1256 2222 488 2271 
6 303 1208 1257 500 2223 2272 
6 296 297 1196 493 494 2211 
6 1189 1267 1274 2204 2282 2289 
6 1220 176 1277 2235 373 2292 
6 285 1221 1278 482 2236 2293 
6 1267 1139 1274 2282 2154 2289 
6 1187 1158 1270 2202 2173 2285 
6 1172 1231 1240 2187 2246 2255 
6 1184 1142 1263 2199 2157 2278 
6 1145 1185 1264 2160 2200 2279 
6 1143 1186 1265 2158 2201 2280 
6 1138 1266 1273 2153 2281 2288 
6 1145 1202 1205 2160 2217 2220 
6 1201 1142 1204 2216 2157 2219 
6 1263 1160 1266 2278 2175 2281 
6 1161 1264 1267 2176 2279 2282 
6 296 1196 1241 493 2211 2256 
6 1196 297 1242 2211 494 2257 
6 1207 1164 1234 2222 2179 2249 
6 1165 1208 1235 2180 2223 2250 
6 178 177 1247 375 374 2262 
6 286 287 1246 483 484 2261 
6 1233 1173 1259 2248 2188 2274 
6 1159 1203 1238 2174 2218 2253 
6 1142 1184 1251 2157 2199 2266 
6 1185 1145 1252 2200 2160 2267 
6 1214 1140 1254 2229 2155 2269 
6 1141 1215 1255 2156 2230 2270 
6 1169 1269 1273 2184 2284 2288 
6 1214 1168 1222 2229 2183 2237 
6 1169 1215 1223 2184 2230 2238 
6 306 1236 1244 503 2251 2259 
6 1239 307 1245 2254 504 2260 
6 1194 1146 1217 2209 2161 2232 
6 1147 1195 1219 2162 2210 2234 
6 1268 1168 1274 2283 2183 2289 
6 1203 1177 1238 2218 2192 2253 
6 1199 1156 1201 2214 2171 2216 
6 1157 1200 1202 2172 2215 2217 
6 1136 1187 1270 2151 2202 2285 
6 289 1190 1192 486 2205 2207 
6 1191 301 1193 2206 498 2208 
6 1183 1203 1253 2198 2218 2268 
6 1143 1213 1227 2158 2228 2242 
6 290 291 1207 487 488 2222 
6 303 302 1208 500 499 2223 
6 1156 1232 1249 2171 2247 2264 
6 1231 1157 1248 2246 2172 2263 
6 1222 1168 1268 2237 2183 2283 
6 1169 1223 1269 2184 2238 2284 
6 1145 1205 1252 2160 2220 2267 
6 1204 1142 1251 2219 2157 2266 
6 1243 1158 1275 2258 2173 2290 
6 1158 1243 1276 2173 2258 2291 
6 1213 1154 1227 2228 2169 2242 
6 1216 294 1217 2231 491 2232 
6 299 1218 1219 496 2233 2234 
6 1182 1197 1230 2197 2212 2245 
6 1198 1181 1229 2213 2196 2244 
6 1167 1228 1250 2182 2243 2265 
6 177 176 1220 374 373 2235 
6 285 286 1221 482 483 2236 
6 1237 1161 1245 2252 2176 2260 
6 1159 1238 1244 2174 2253 2259 
6 1236 1160 1263 2251 2175 2278 
6 1161 1237 1264 2176 2252 2279 
6 1160 1239 1265 2175 2254 2280 
6 1236 1174 1244 2251 2189 2259 
6 1176 1239 1245 2191 2254 2260 
6 1171 287 1224 2186 484 2239 
6 178 1170 1225 375 2185 2240 
6 1148 1209 1258 2163 2224 2273 
6 274 275 1228 471 472 2243 
6 1184 1263 1266 2199 2278 2281 
6 1264 1185 1267 2279 2200 2282 
6 1228 1166 1250 2243 2181 2265 
6 1146 1194 1254 2161 2209 2269 
6 1195 1147 1255 2210 2162 2270 
6 1148 1233 1259 2163 2248 2274 
6 1172 1221 1231 2187 2236 2246 
6 1220 1173 1232 2235 2188 2247 
6 1209 1167 1258 2224 2182 2273 
6 1203 1159 1253 2218 2174 2268 
6 1221 1157 1231 2236 2172 2246 
6 1156 1220 1232 2171 2235 2247 
6 308 60 1243 505 141 2258 
6 1202 1145 1248 2217 2160 2263 
6 1142 1201 1249 2157 2216 2264 
6 1192 1171 1280 2207 2186 2295 
6 1170 1193 1279 2185 2208 2294 
6 295 296 1241 492 493 2256 
6 297 298 1242 494 495 2257 
6 1181 1148 1259 2196 2163 2274 
6 1149 1182 1260 2164 2197 2275 
6 1181 175 1229 2196 372 2244 
6 284 1182 1230 481 2197 2245 
6 1162 1216 1217 2177 2231 2232 
6 1218 1163 1219 2233 2178 2234 
6 291 292 1256 488 489 2271 
6 304 303 1257 501 500 2272 
6 1168 1213 1274 2183 2228 2289 
6 1201 1156 1249 2216 2171 2264 
6 1157 1202 1248 2172 2217 2263 
6 1269 1138 1273 2284 2153 2288 
6 1158 1206 1270 2173 2221 2285 
6 1226 1169 1273 2241 2184 2288 
6 1139 1268 1274 2154 2283 2289 
6 284 285 1278 481 482 2293 
6 176 175 1277 373 372 2292 
6 1210 1149 1261 2225 2164 2276 
6 51 288 1224 132 485 2239 
6 305 7 1225 502 88 2240 
6 1233 1148 1258 2248 2163 2273 
6 1198 273 1209 2213 470 2224 
6 1160 1236 1262 2175 2251 2277 
6 1239 1160 1262 2254 2175 2277 
6 1178 295 1241 2193 492 2256 
6 298 1179 1242 495 2194 2257 
6 276 1197 1210 473 2212 2225 
6 1152 1204 1251 2167 2219 2266 
6 1205 1153 1252 2220 2168 2267 
6 1213 1189 1274 2228 2204 2289 
6 1140 1222 1271 2155 2237 2286 
6 1223 1141 1272 2238 2156 2287 
6 8 282 1229 89 479 2244 
6 283 50 1230 480 131 2245 
6 1183 1233 1258 2198 2248 2273 
6 1178 1214 1254 2193 2229 2269 
6 1215 1179 1255 2230 2194 2270 
6 1200 1157 1246 2215 2172 2261 
6 1156 1199 1247 2171 2214 2262 
6 177 1220 1247 374 2235 2262 
6 1221 286 1246 2236 483 2261 
6 306 307 1262 503 504 2277 
6 175 1181 1277 372 2196 2292 
6 1182 284 1278 2197 481 2293 
6 1157 1221 1246 2172 2236 2261 
6 1220 1156 1247 2235 2171 2262 
6 1186 1226 1273 2201 2241 2288 
6 1240 1149 1260 2255 2164 2275 
6 1181 1259 1277 2196 2274 2292 
6 1260 1182 1278 2275 2197 2293 
6 1166 1210 1261 2181 2225 2276 
6 295 1178 1194 492 2193 2209 
6 1179 298 1195 2194 495 2210 
6 1224 288 1280 2239 485 2295 
6 305 1225 1279 502 2240 2294 
6 1237 308 1275 2252 505 2290 
6 60 1238 1276 141 2253 2291 
6 1164 1256 1271 2179 2271 2286 
6 1257 1165 1272 2272 2180 2287 
6 1236 306 1262 2251 503 2277 
6 307 1239 1262 504 2254 2277 
6 56 299 1219 137 496 2234 
6 294 55 1217 491 136 2232 
6 1172 1240 1260 2187 2255 2275 
6 1222 1164 1271 2237 2179 2286 
6 1165 1223 1272 2180 2238 2287 
6 1139 1234 1268 2154 2249 2283 
6 1235 1138 1269 2250 2153 2284 
6 1174 1236 1263 2189 2251 2278 
6 1237 1175 1264 2252 2190 2279 
6 1239 1176 1265 2254 2191 2280 
6 1234 1164 1268 2249 2179 2283 
6 1165 1235 1269 2180 2250 2284 
6 1175 1237 1275 2190 2252 2290 
6 1238 1177 1276 2253 2192 2291 
6 1256 1211 1271 2271 2226 2286 
6 1212 1257 1272 2227 2272 2287 
6 1211 1140 1271 2226 2155 2286 
6 1141 1212 1272 2156 2227 2287 
6 308 1243 1275 505 2258 2290 
6 1243 60 1276 2258 141 2291 
6 1164 1222 1268 2179 2237 2283 
6 1223 1165 1269 2238 2180 2284 
6 1225 1170 1279 2240 2185 2294 
6 1171 1224 1280 2186 2239 2295 
6 292 1211 1256 489 2226 2271 
6 1212 304 1257 2227 501 2272 
6 1194 1178 1254 2209 2193 2269 
6 1179 1195 1255 2194 2210 2270 
6 1259 1173 1277 2274 2188 2292 
6 1172 1260 1278 2187 2275 2293 
6 7 178 1225 88 375 2240 
6 175 8 1229 372 89 2244 
6 50 284 1230 131 481 2245 
6 287 51 1224 484 132 2239 
6 55 295 1194 136 492 2209 
6 55 1194 1217 136 2209 2232 
6 298 56 1195 495 137 2210 
6 1195 56 1219 2210 137 2234 
6 53 293 292 134 490 489 
6 293 54 1216 490 135 2231 
6 57 300 1218 138 497 2233 
6 58 304 300 139 501 497 
6 292 293 1162 489 490 2177 
6 292 1162 1211 489 2177 2226 
6 1162 293 1216 2177 490 2231 
6 300 304 1163 497 501 2178 
6 300 1163 1218 497 2178 2233 
6 1163 304 1212 2178 501 2227 
6 1162 1146 1211 2177 2161 2226 
6 1146 1162 1217 2161 2177 2232 
6 1147 1163 1212 2162 2178 2227 
6 1163 1147 1219 2178 2162 2234 
6 1374 1333 1389 2389 2348 2404 
6 1295 1335 1350 2310 2350 2365 
6 1296 1336 1349 2311 2351 2364 
6 1328 1312 1394 2343 2327 2409 
6 1289 1328 1394 2304 2343 2409 
6 1335 1295 1337 2350 2310 2352 
6 1336 1296 1338 2351 2311 2353 
6 1325 1289 1394 2340 2304 2409 
6 1311 170 1355 2326 367 2370 
6 1305 1319 1333 2320 2334 2348 
6 1320 1303 1332 2335 2318 2347 
6 1321 1306 1334 2336 2321 2349 
6 304 1315 1344 501 2330 2359 
6 326 1316 1345 523 2331 2360 
6 1297 1374 1389 2312 2389 2404 
6 1297 1336 1351 2312 2351 2366 
6 1315 1295 1344 2330 2310 2359 
6 1316 1296 1345 2331 2311 2360 
6 1358 1300 1372 2373 2315 2387 
6 1319 1287 1333 2334 2302 2348 
6 1290 1320 1332 2305 2335 2347 
6 1288 1321 1334 2303 2336 2349 
6 1283 1333 1374 2298 2348 2389 
6 1289 1325 1352 2304 2340 2367 
6 1283 1374 1378 2298 2389 2393 
6 1379 1330 1395 2394 2345 2410 
6 1311 1325 1394 2326 2340 2409 
6 1319 1305 1390 2334 2320 2405 
6 1312 1354 1373 2327 2369 2388 
6 1306 1321 1391 2321 2336 2406 
6 1295 1315 1337 2310 2330 2352 
6 1296 1316 1338 2311 2331 2353 
6 332 1343 1375 529 2358 2390 
6 1342 309 1376 2357 506 2391 
6 1322 1289 1352 2337 2304 2367 
6 1374 1318 1378 2389 2333 2393 
6 1293 1327 1343 2308 2342 2358 
6 1326 1294 1342 2341 2309 2357 
6 1354 171 1373 2369 368 2388 
6 1284 1330 1379 2299 2345 2394 
6 1325 1281 1352 2340 2296 2367 
6 170 1311 1373 367 2326 2388 
6 1332 1281 1377 2347 2296 2392 
6 1332 1377 1393 2347 2392 2408 
6 1298 1335 1353 2313 2350 2368 
6 1352 1281 1414 2367 2296 2429 
6 71 333 1390 152 530 2405 
6 334 335 1391 531 532 2406 
6 304 1344 1392 501 2359 2407 
6 335 1381 1391 532 2396 2406 
6 1382 71 1390 2397 152 2405 
6 1285 1291 1356 2300 2306 2371 
6 1292 1286 1357 2307 2301 2372 
6 1300 1341 1372 2315 2356 2387 
6 1291 1285 1397 2306 2300 2412 
6 1286 1292 1398 2301 2307 2413 
6 1298 1379 1395 2313 2394 2410 
6 4 172 1343 85 369 2358 
6 169 5 1342 366 86 2357 
6 1359 1285 1366 2374 2300 2381 
6 1286 1360 1367 2301 2375 2382 
6 1303 1322 1352 2318 2337 2367 
6 69 331 1338 150 528 2353 
6 61 311 1337 142 508 2352 
6 1329 1282 1384 2344 2297 2399 
6 1303 1320 1420 2318 2335 2435 
6 1322 1303 1421 2337 2318 2436 
6 1335 1298 1350 2350 2313 2365 
6 1336 1297 1349 2351 2312 2364 
6 321 66 1361 518 147 2376 
6 63 316 1363 144 513 2378 
6 1336 330 1351 2351 527 2366 
6 1313 1299 1359 2328 2314 2374 
6 1300 1314 1360 2315 2329 2375 
6 1318 1351 1422 2333 2366 2437 
6 326 1345 1403 523 2360 2418 
6 1289 1322 1348 2304 2337 2363 
6 1328 1289 1348 2343 2304 2363 
6 1293 1343 1354 2308 2358 2369 
6 5 309 1342 86 506 2357 
6 332 4 1343 529 85 2358 
6 1305 1333 1396 2320 2348 2411 
6 1281 1325 1385 2296 2340 2400 
6 1314 1300 1358 2329 2315 2373 
6 61 1337 1424 142 2352 2439 
6 69 1338 1425 150 2353 2440 
6 1342 1294 1355 2357 2309 2370 
6 1344 1295 1346 2359 2310 2361 
6 1345 1296 1347 2360 2311 2362 
6 1299 1341 1386 2314 2356 2401 
6 1341 1300 1387 2356 2315 2402 
6 1304 1331 1411 2319 2346 2426 
6 1288 1358 1372 2303 2373 2387 
6 1323 1359 1386 2338 2374 2401 
6 1360 1324 1387 2375 2339 2402 
6 1299 1313 1371 2314 2328 2386 
6 1329 1384 1401 2344 2399 2416 
6 1359 1299 1386 2374 2314 2401 
6 1300 1360 1387 2315 2375 2402 
6 1325 1311 1406 2340 2326 2421 
6 1310 1353 1400 2325 2368 2415 
6 1283 1328 1396 2298 2343 2411 
6 1351 329 1422 2366 526 2437 
6 1335 312 1353 2350 509 2368 
6 1288 1334 1358 2303 2349 2373 
6 1294 1385 1406 2309 2400 2421 
6 1312 1328 1402 2327 2343 2417 
6 1333 1283 1396 2348 2298 2411 
6 1328 1283 1378 2343 2298 2393 
6 1347 1296 1349 2362 2311 2364 
6 1346 1295 1350 2361 2310 2365 
6 1331 1304 1410 2346 2319 2425 
6 1365 1317 1423 2380 2332 2438 
6 1282 1329 1411 2297 2344 2426 
6 1330 1284 1412 2345 2299 2427 
6 1385 1325 1406 2400 2340 2421 
6 170 169 1355 367 366 2370 
6 172 171 1354 369 368 2369 
6 1333 1287 1389 2348 2302 2404 
6 1377 1281 1385 2392 2296 2400 
6 1287 1319 1409 2302 2334 2424 
6 1320 1290 1408 2335 2305 2423 
6 1321 1288 1410 2336 2303 2425 
6 1334 1306 1412 2349 2321 2427 
6 1411 1331 1418 2426 2346 2433 
6 310 61 1424 507 142 2439 
6 327 69 1425 524 150 2440 
6 1331 1288 1371 2346 2303 2386 
6 1298 1353 1379 2313 2368 2394 
6 1341 1299 1372 2356 2314 2387 
6 1290 1332 1393 2305 2347 2408 
6 311 312 1335 508 509 2350 
6 331 330 1336 528 527 2351 
6 1370 1309 1399 2385 2324 2414 
6 1353 313 1400 2368 510 2415 
6 1297 1351 1374 2312 2366 2389 
6 318 319 1341 515 516 2356 
6 1334 1412 1419 2349 2427 2434 
6 302 1365 1423 499 2380 2438 
6 1412 1284 1419 2427 2299 2434 
6 1332 1303 1414 2347 2318 2429 
6 1317 1377 1385 2332 2392 2400 
6 1329 1287 1409 2344 2302 2424 
6 1290 1330 1408 2305 2345 2423 
6 1288 1331 1410 2303 2346 2425 
6 1282 1411 1418 2297 2426 2433 
6 1290 1346 1350 2305 2361 2365 
6 1287 1347 1349 2302 2362 2364 
6 1409 1304 1411 2424 2319 2426 
6 1306 1408 1412 2321 2423 2427 
6 1341 319 1386 2356 516 2401 
6 318 1341 1387 515 2356 2402 
6 1353 1310 1379 2368 2325 2394 
6 303 304 1392 500 501 2407 
6 1378 1318 1405 2393 2333 2420 
6 1305 1348 1382 2320 2363 2397 
6 1330 1290 1395 2345 2305 2410 
6 1285 1359 1397 2300 2374 2412 
6 1360 1286 1398 2375 2301 2413 
6 1313 1359 1366 2328 2374 2381 
6 1360 1314 1367 2375 2329 2382 
6 333 1380 1390 530 2395 2405 
6 1383 334 1391 2398 531 2406 
6 1287 1329 1401 2302 2344 2416 
6 1291 1339 1362 2306 2354 2377 
6 1340 1292 1364 2355 2307 2379 
6 1413 1314 1419 2428 2329 2434 
6 1348 1322 1382 2363 2337 2397 
6 1371 1288 1372 2386 2303 2387 
6 1301 1344 1346 2316 2359 2361 
6 1302 1345 1347 2317 2360 2362 
6 1281 1332 1414 2296 2347 2429 
6 324 1370 1399 521 2385 2414 
6 1313 1415 1418 2328 2430 2433 
6 330 329 1351 527 526 2366 
6 311 1335 1337 508 2350 2352 
6 331 1336 1338 528 2351 2353 
6 1309 1370 1384 2324 2385 2399 
6 1351 1318 1374 2366 2333 2389 
6 1328 1348 1396 2343 2363 2411 
6 312 313 1353 509 510 2368 
6 1377 1301 1393 2392 2316 2408 
6 1287 1349 1389 2302 2364 2404 
6 1367 1314 1413 2382 2329 2428 
6 1290 1350 1395 2305 2365 2410 
6 325 326 1403 522 523 2418 
6 1388 1303 1420 2403 2318 2435 
6 1303 1388 1421 2318 2403 2436 
6 1313 1366 1415 2328 2381 2430 
6 1299 1371 1372 2314 2386 2387 
6 321 1361 1362 518 2376 2377 
6 1363 316 1364 2378 513 2379 
6 1370 1302 1384 2385 2317 2399 
6 1343 1327 1375 2358 2342 2390 
6 1326 1342 1376 2341 2357 2391 
6 1312 1373 1394 2327 2388 2409 
6 302 303 1365 499 500 2380 
6 1381 1306 1391 2396 2321 2406 
6 1305 1382 1390 2320 2397 2405 
6 1380 1304 1409 2395 2319 2424 
6 1306 1381 1408 2321 2396 2423 
6 1304 1383 1410 2319 2398 2425 
6 324 325 1370 521 522 2385 
6 1380 1319 1390 2395 2334 2405 
6 1321 1383 1391 2336 2398 2406 
6 1315 304 1368 2330 501 2383 
6 1316 326 1369 2331 523 2384 
6 1293 1354 1402 2308 2369 2417 
6 171 170 1373 368 367 2388 
6 1408 1330 1412 2423 2345 2427 
6 1329 1409 1411 2344 2424 2426 
6 1373 1311 1394 2388 2326 2409 
6 1384 1302 1401 2399 2317 2416 
6 1339 1291 1397 2354 2306 2412 
6 1292 1340 1398 2307 2355 2413 
6 1293 1378 1405 2308 2393 2420 
6 1317 1365 1377 2332 2380 2392 
6 1354 1312 1402 2369 2327 2417 
6 1348 1305 1396 2363 2320 2411 
6 1365 1301 1377 2380 2316 2392 
6 335 71 1388 532 152 2403 
6 1346 1290 1393 2361 2305 2408 
6 1347 1287 1401 2362 2302 2416 
6 1337 1315 1424 2352 2330 2439 
6 1338 1316 1425 2353 2331 2440 
6 319 320 1386 516 517 2401 
6 317 318 1387 514 515 2402 
6 1327 1293 1405 2342 2308 2420 
6 1294 1326 1404 2309 2341 2419 
6 1327 328 1375 2342 525 2390 
6 301 1326 1376 498 2341 2391 
6 1361 1307 1362 2376 2322 2377 
6 1308 1363 1364 2323 2378 2379 
6 323 324 1399 520 521 2414 
6 313 314 1400 510 511 2415 
6 1314 1358 1419 2329 2373 2434 
6 1301 1346 1393 2316 2361 2408 
6 1302 1347 1401 2317 2362 2416 
6 1303 1352 1414 2318 2367 2429 
6 1371 1313 1418 2386 2328 2433 
6 1349 1297 1389 2364 2312 2404 
6 1284 1413 1419 2299 2428 2434 
6 301 302 1423 498 499 2438 
6 329 328 1422 526 525 2437 
6 1415 1282 1418 2430 2297 2433 
6 1355 1294 1406 2370 2309 2421 
6 58 310 1368 139 507 2383 
6 68 327 1369 149 524 2384 
6 1345 1302 1403 2360 2317 2418 
6 1378 1293 1402 2393 2308 2417 
6 1343 172 1354 2358 369 2369 
6 1304 1380 1407 2319 2395 2422 
6 1383 1304 1407 2398 2319 2422 
6 320 1323 1386 517 2338 2401 
6 1324 317 1387 2339 514 2402 
6 169 1342 1355 366 2357 2370 
6 1350 1298 1395 2365 2313 2410 
6 1358 1334 1419 2373 2349 2434 
6 1366 1285 1416 2381 2300 2431 
6 1286 1367 1417 2301 2382 2432 
6 70 332 1375 151 529 2390 
6 309 59 1376 506 140 2391 
6 1302 1370 1403 2317 2385 2418 
6 1328 1378 1402 2343 2393 2417 
6 1359 1323 1397 2374 2338 2412 
6 1324 1360 1398 2339 2375 2413 
6 1344 1301 1392 2359 2316 2407 
6 1365 303 1392 2380 500 2407 
6 333 334 1407 530 531 2422 
6 328 1327 1422 525 2342 2437 
6 1326 301 1423 2341 498 2438 
6 1301 1365 1392 2316 2380 2407 
6 1331 1371 1418 2346 2386 2433 
6 1385 1294 1404 2400 2309 2419 
6 1327 1405 1422 2342 2420 2437 
6 1404 1326 1423 2419 2341 2438 
6 1311 1355 1406 2326 2370 2421 
6 1323 320 1339 2338 517 2354 
6 317 1324 1340 514 2339 2355 
6 1368 310 1424 2383 507 2439 
6 1369 327 1425 2384 524 2440 
6 1381 335 1420 2396 532 2435 
6 71 1382 1421 152 2397 2436 
6 1399 1309 1416 2414 2324 2431 
6 1310 1400 1417 2325 2415 2432 
6 1370 325 1403 2385 522 2418 
6 1380 333 1407 2395 530 2422 
6 334 1383 1407 531 2398 2422 
6 316 64 1364 513 145 2379 
6 65 321 1362 146 518 2377 
6 1317 1385 1404 2332 2400 2419 
6 1384 1282 1415 2399 2297 2430 
6 1309 1366 1416 2324 2381 2431 
6 1367 1310 1417 2382 2325 2432 
6 1309 1384 1415 2324 2399 2430 
6 1284 1379 1413 2299 2394 2428 
6 1319 1380 1409 2334 2395 2424 
6 1381 1320 1408 2396 2335 2423 
6 1383 1321 1410 2398 2336 2425 
6 1379 1310 1413 2394 2325 2428 
6 1320 1381 1420 2335 2396 2435 
6 1382 1322 1421 2397 2337 2436 
6 1356 1399 1416 2371 2414 2431 
6 1400 1357 1417 2415 2372 2432 
6 1285 1356 1416 2300 2371 2431 
6 1357 1286 1417 2372 2301 2432 
6 335 1388 1420 532 2403 2435 
6 1388 71 1421 2403 152 2436 
6 1310 1367 1413 2325 2382 2428 
6 1366 1309 1415 2381 2324 2430 
6 1315 1368 1424 2330 2383 2439 
6 1316 1369 1425 2331 2384 2440 
6 1356 323 1399 2371 520 2414 
6 314 1357 1400 511 2372 2415 
6 1323 1339 1397 2338 2354 2412 
6 1340 1324 1398 2355 2339 2413 
6 1317 1404 1423 2332 2419 2438 
6 1405 1318 1422 2420 2333 2437 
6 304 58 1368 501 139 2383 
6 59 301 1376 140 498 2391 
6 64 317 1340 145 514 2355 
6 64 1340 1364 145 2355 2379 
6 320 65 1339 517 146 2354 
6 1339 65 1362 2354 146 2377 
6 326 68 1369 523 149 2384 
6 328 70 1375 525 151 2390 
6 62 315 314 143 512 511 
6 315 63 1363 512 144 2378 
6 66 322 1361 147 519 2376 
6 67 323 322 148 520 519 
6 314 315 1308 511 512 2323 
6 314 1308 1357 511 2323 2372 
6 1308 315 1363 2323 512 2378 
6 322 323 1307 519 520 2322 
6 322 1307 1361 519 2322 2376 
6 1307 323 1356 2322 520 2371 
6 1291 1307 1356 2306 2322 2371 
6 1307 1291 1362 2322 2306 2377 
6 1308 1292 1357 2323 2307 2372 
6 1292 1308 1364 2307 2323 2379 
6 1519 1478 1534 2534 2493 2549 
6 1440 1480 1495 2455 2495 2510 
6 1441 1481 1494 2456 2496 2509 
6 1473 1457 1539 2488 2472 2554 
6 1434 1473 1539 2449 2488 2554 
6 1480 1440 1483 2495 2455 2498 
6 1481 1441 1482 2496 2456 2497 
6 1470 1434 1539 2485 2449 2554 
6 1456 200 1500 2471 397 2515 
6 1449 1464 1478 2464 2479 2493 
6 1465 1448 1477 2480 2463 2492 
6 1466 1451 1479 2481 2466 2494 
6 163 1460 1489 360 2475 2504 
6 348 1461 1490 545 2476 2505 
6 1442 1519 1534 2457 2534 2549 
6 1442 1481 1496 2457 2496 2511 
6 1461 1441 1490 2476 2456 2505 
6 1460 1440 1489 2475 2455 2504 
6 1445 1516 1517 2460 2531 2532 
6 1464 1432 1478 2479 2447 2493 
6 1435 1465 1477 2450 2480 2492 
6 1433 1466 1479 2448 2481 2494 
6 1427 1478 1519 2442 2493 2534 
6 1434 1470 1497 2449 2485 2512 
6 1427 1519 1523 2442 2534 2538 
6 1524 1475 1540 2539 2490 2555 
6 1456 1470 1539 2471 2485 2554 
6 1464 1449 1535 2479 2464 2550 
6 1457 1499 1518 2472 2514 2533 
6 1451 1466 1536 2466 2481 2551 
6 1440 1460 1483 2455 2475 2498 
6 1441 1461 1482 2456 2476 2497 
6 1487 355 1521 2502 552 2536 
6 354 1488 1520 551 2503 2535 
6 1467 1434 1497 2482 2449 2512 
6 1519 1463 1523 2534 2478 2538 
6 1438 1471 1488 2453 2486 2503 
6 1472 1439 1487 2487 2454 2502 
6 1499 201 1518 2514 398 2533 
6 1429 1475 1524 2444 2490 2539 
6 1470 1426 1497 2485 2441 2512 
6 200 1456 1518 397 2471 2533 
6 1477 1426 1522 2492 2441 2537 
6 1477 1522 1538 2492 2537 2553 
6 1443 1480 1498 2458 2495 2513 
6 1497 1426 1559 2512 2441 2574 
6 80 356 1535 161 553 2550 
6 357 358 1536 554 555 2551 
6 163 1489 1537 360 2504 2552 
6 358 1526 1536 555 2541 2551 
6 1527 80 1535 2542 161 2550 
6 1436 1430 1501 2451 2445 2516 
6 1431 1437 1502 2446 2452 2517 
6 1486 1445 1517 2501 2460 2532 
6 1430 1436 1542 2445 2451 2557 
6 1437 1431 1543 2452 2446 2558 
6 1443 1524 1540 2458 2539 2555 
6 199 16 1487 396 97 2502 
6 17 202 1488 98 399 2503 
6 1430 1504 1511 2445 2519 2526 
6 1505 1431 1512 2520 2446 2527 
6 1448 1467 1497 2463 2482 2512 
6 70 328 1483 151 525 2498 
6 78 350 1482 159 547 2497 
6 1474 1428 1529 2489 2443 2544 
6 1448 1465 1565 2463 2480 2580 
6 1467 1448 1566 2482 2463 2581 
6 1480 1443 1495 2495 2458 2510 
6 1481 1442 1494 2496 2457 2509 
6 72 338 1506 153 535 2521 
6 343 75 1508 540 156 2523 
6 1481 351 1496 2496 548 2511 
6 1444 1458 1504 2459 2473 2519 
6 1459 1445 1505 2474 2460 2520 
6 1463 1496 1567 2478 2511 2582 
6 348 1490 1548 545 2505 2563 
6 1434 1467 1493 2449 2482 2508 
6 1516 1433 1517 2531 2448 2532 
6 1473 1434 1493 2488 2449 2508 
6 1438 1488 1499 2453 2503 2514 
6 354 17 1488 551 98 2503 
6 16 355 1487 97 552 2502 
6 1449 1478 1541 2464 2493 2556 
6 1426 1470 1530 2441 2485 2545 
6 1458 1444 1503 2473 2459 2518 
6 78 1482 1569 159 2497 2584 
6 70 1483 1570 151 2498 2585 
6 1487 1439 1500 2502 2454 2515 
6 1489 1440 1491 2504 2455 2506 
6 1490 1441 1492 2505 2456 2507 
6 1486 1444 1531 2501 2459 2546 
6 1445 1486 1532 2460 2501 2547 
6 1450 1476 1556 2465 2491 2571 
6 1504 1468 1531 2519 2483 2546 
6 1469 1505 1532 2484 2520 2547 
6 1445 1459 1516 2460 2474 2531 
6 1474 1529 1546 2489 2544 2561 
6 1444 1504 1531 2459 2519 2546 
6 1505 1445 1532 2520 2460 2547 
6 1470 1456 1551 2485 2471 2566 
6 1454 1498 1544 2469 2513 2559 
6 1427 1473 1541 2442 2488 2556 
6 1496 352 1567 2511 549 2582 
6 1480 329 1498 2495 526 2513 
6 1433 1479 1503 2448 2494 2518 
6 1439 1530 1551 2454 2545 2566 
6 1457 1473 1547 2472 2488 2562 
6 1478 1427 1541 2493 2442 2556 
6 1473 1427 1523 2488 2442 2538 
6 1492 1441 1494 2507 2456 2509 
6 1491 1440 1495 2506 2455 2510 
6 1476 1450 1555 2491 2465 2570 
6 1510 1462 1568 2525 2477 2583 
6 1428 1474 1556 2443 2489 2571 
6 1475 1429 1557 2490 2444 2572 
6 1530 1470 1551 2545 2485 2566 
6 200 199 1500 397 396 2515 
6 202 201 1499 399 398 2514 
6 1478 1432 1534 2493 2447 2549 
6 1522 1426 1530 2537 2441 2545 
6 1432 1464 1553 2447 2479 2568 
6 1465 1435 1554 2480 2450 2569 
6 1466 1433 1555 2481 2448 2570 
6 1479 1451 1557 2494 2466 2572 
6 1556 1476 1563 2571 2491 2578 
6 349 78 1569 546 159 2584 
6 336 70 1570 533 151 2585 
6 1476 1433 1516 2491 2448 2531 
6 1443 1498 1524 2458 2513 2539 
6 1444 1486 1517 2459 2501 2532 
6 1435 1477 1538 2450 2492 2553 
6 350 351 1481 547 548 2496 
6 328 329 1480 525 526 2495 
6 1515 1455 1545 2530 2470 2560 
6 1498 330 1544 2513 527 2559 
6 1442 1496 1519 2457 2511 2534 
6 340 341 1486 537 538 2501 
6 1479 1557 1564 2494 2572 2579 
6 165 1510 1568 362 2525 2583 
6 1557 1429 1564 2572 2444 2579 
6 1477 1448 1559 2492 2463 2574 
6 1462 1522 1530 2477 2537 2545 
6 1474 1432 1553 2489 2447 2568 
6 1435 1475 1554 2450 2490 2569 
6 1433 1476 1555 2448 2491 2570 
6 1428 1556 1563 2443 2571 2578 
6 1432 1492 1494 2447 2507 2509 
6 1435 1491 1495 2450 2506 2510 
6 1553 1450 1556 2568 2465 2571 
6 1451 1554 1557 2466 2569 2572 
6 340 1486 1531 537 2501 2546 
6 1486 341 1532 2501 538 2547 
6 1498 1454 1524 2513 2469 2539 
6 164 163 1537 361 360 2552 
6 1523 1463 1550 2538 2478 2565 
6 1449 1493 1527 2464 2508 2542 
6 1475 1435 1540 2490 2450 2555 
6 1504 1430 1542 2519 2445 2557 
6 1431 1505 1543 2446 2520 2558 
6 1504 1458 1511 2519 2473 2526 
6 1459 1505 1512 2474 2520 2527 
6 356 1525 1535 553 2540 2550 
6 1528 357 1536 2543 554 2551 
6 1432 1474 1546 2447 2489 2561 
6 1484 1436 1507 2499 2451 2522 
6 1437 1485 1509 2452 2500 2524 
6 1558 1458 1564 2573 2473 2579 
6 1493 1467 1527 2508 2482 2542 
6 1446 1489 1491 2461 2504 2506 
6 1447 1490 1492 2462 2505 2507 
6 1426 1477 1559 2441 2492 2574 
6 346 1515 1545 543 2530 2560 
6 1459 1560 1563 2474 2575 2578 
6 351 352 1496 548 549 2511 
6 328 1480 1483 525 2495 2498 
6 350 1481 1482 547 2496 2497 
6 1455 1515 1529 2470 2530 2544 
6 1496 1463 1519 2511 2478 2534 
6 1473 1493 1541 2488 2508 2556 
6 1433 1503 1517 2448 2518 2532 
6 329 330 1498 526 527 2513 
6 1522 1446 1538 2537 2461 2553 
6 1432 1494 1534 2447 2509 2549 
6 1511 1458 1558 2526 2473 2573 
6 1435 1495 1540 2450 2510 2555 
6 347 348 1548 544 545 2563 
6 1533 1448 1565 2548 2463 2580 
6 1448 1533 1566 2463 2548 2581 
6 1503 1444 1517 2518 2459 2532 
6 1459 1512 1560 2474 2527 2575 
6 1506 338 1507 2521 535 2522 
6 343 1508 1509 540 2523 2524 
6 1515 1447 1529 2530 2462 2544 
6 1472 1487 1521 2487 2502 2536 
6 1488 1471 1520 2503 2486 2535 
6 1457 1518 1539 2472 2533 2554 
6 165 164 1510 362 361 2525 
6 1526 1451 1536 2541 2466 2551 
6 1449 1527 1535 2464 2542 2550 
6 1525 1450 1553 2540 2465 2568 
6 1451 1526 1554 2466 2541 2569 
6 1450 1528 1555 2465 2543 2570 
6 346 347 1515 543 544 2530 
6 1525 1464 1535 2540 2479 2550 
6 1466 1528 1536 2481 2543 2551 
6 1461 348 1514 2476 545 2529 
6 1460 163 1513 2475 360 2528 
6 1438 1499 1547 2453 2514 2562 
6 201 200 1518 398 397 2533 
6 1474 1553 1556 2489 2568 2571 
6 1554 1475 1557 2569 2490 2572 
6 1518 1456 1539 2533 2471 2554 
6 1529 1447 1546 2544 2462 2561 
6 1436 1484 1542 2451 2499 2557 
6 1485 1437 1543 2500 2452 2558 
6 1438 1523 1550 2453 2538 2565 
6 1462 1510 1522 2477 2525 2537 
6 1499 1457 1547 2514 2472 2562 
6 1493 1449 1541 2508 2464 2556 
6 1510 1446 1522 2525 2461 2537 
6 358 80 1533 555 161 2548 
6 1491 1435 1538 2506 2450 2553 
6 1492 1432 1546 2507 2447 2561 
6 1482 1461 1569 2497 2476 2584 
6 1483 1460 1570 2498 2475 2585 
6 339 340 1531 536 537 2546 
6 341 342 1532 538 539 2547 
6 1471 1438 1550 2486 2453 2565 
6 1439 1472 1549 2454 2487 2564 
6 1471 353 1520 2486 550 2535 
6 166 1472 1521 363 2487 2536 
6 1452 1506 1507 2467 2521 2522 
6 1508 1453 1509 2523 2468 2524 
6 330 331 1544 527 528 2559 
6 345 346 1545 542 543 2560 
6 1458 1503 1564 2473 2518 2579 
6 1446 1491 1538 2461 2506 2553 
6 1447 1492 1546 2462 2507 2561 
6 1448 1497 1559 2463 2512 2574 
6 1516 1459 1563 2531 2474 2578 
6 1494 1442 1534 2509 2457 2549 
6 1429 1558 1564 2444 2573 2579 
6 352 353 1567 549 550 2582 
6 166 165 1568 363 362 2583 
6 1560 1428 1563 2575 2443 2578 
6 1500 1439 1551 2515 2454 2566 
6 2 336 1513 83 533 2528 
6 77 349 1514 158 546 2529 
6 1490 1447 1548 2505 2462 2563 
6 1523 1438 1547 2538 2453 2562 
6 1488 202 1499 2503 399 2514 
6 1450 1525 1552 2465 2540 2567 
6 1528 1450 1552 2543 2465 2567 
6 1468 339 1531 2483 536 2546 
6 342 1469 1532 539 2484 2547 
6 199 1487 1500 396 2502 2515 
6 1495 1443 1540 2510 2458 2555 
6 1503 1479 1564 2518 2494 2579 
6 1430 1511 1561 2445 2526 2576 
6 1512 1431 1562 2527 2446 2577 
6 355 0 1521 552 81 2536 
6 79 354 1520 160 551 2535 
6 1447 1515 1548 2462 2530 2563 
6 1473 1523 1547 2488 2538 2562 
6 1468 1504 1542 2483 2519 2557 
6 1505 1469 1543 2520 2484 2558 
6 1489 1446 1537 2504 2461 2552 
6 1510 164 1537 2525 361 2552 
6 356 357 1552 553 554 2567 
6 353 1471 1567 550 2486 2582 
6 1472 166 1568 2487 363 2583 
6 1446 1510 1537 2461 2525 2552 
6 1476 1516 1563 2491 2531 2578 
6 1530 1439 1549 2545 2454 2564 
6 1471 1550 1567 2486 2565 2582 
6 1549 1472 1568 2564 2487 2583 
6 1456 1500 1551 2471 2515 2566 
6 339 1468 1484 536 2483 2499 
6 1469 342 1485 2484 539 2500 
6 1513 336 1570 2528 533 2585 
6 1514 349 1569 2529 546 2584 
6 1526 358 1565 2541 555 2580 
6 80 1527 1566 161 2542 2581 
6 1454 1544 1561 2469 2559 2576 
6 1545 1455 1562 2560 2470 2577 
6 1515 347 1548 2530 544 2563 
6 1525 356 1552 2540 553 2567 
6 357 1528 1552 554 2543 2567 
6 74 343 1509 155 540 2524 
6 338 73 1507 535 154 2522 
6 1462 1530 1549 2477 2545 2564 
6 1529 1428 1560 2544 2443 2575 
6 1511 1454 1561 2526 2469 2576 
6 1455 1512 1562 2470 2527 2577 
6 1455 1529 1560 2470 2544 2575 
6 1429 1524 1558 2444 2539 2573 
6 1464 1525 1553 2479 2540 2568 
6 1526 1465 1554 2541 2480 2569 
6 1528 1466 1555 2543 2481 2570 
6 1524 1454 1558 2539 2469 2573 
6 1465 1526 1565 2480 2541 2580 
6 1527 1467 1566 2542 2482 2581 
6 1544 1501 1561 2559 2516 2576 
6 1502 1545 1562 2517 2560 2577 
6 1501 1430 1561 2516 2445 2576 
6 1431 1502 1562 2446 2517 2577 
6 358 1533 1565 555 2548 2580 
6 1533 80 1566 2548 161 2581 
6 1454 1511 1558 2469 2526 2573 
6 1512 1455 1560 2527 2470 2575 
6 1460 1513 1570 2475 2528 2585 
6 1461 1514 1569 2476 2529 2584 
6 331 1501 1544 528 2516 2559 
6 1502 345 1545 2517 542 2560 
6 1484 1468 1542 2499 2483 2557 
6 1469 1485 1543 2484 2500 2558 
6 1550 1463 1567 2565 2478 2582 
6 1462 1549 1568 2477 2564 2583 
6 0 166 1521 81 363 2536 
6 163 2 1513 360 83 2528 
6 73 339 1484 154 536 2499 
6 73 1484 1507 154 2499 2522 
6 342 74 1485 539 155 2500 
6 1485 74 1509 2500 155 2524 
6 348 77 1514 545 158 2529 
6 353 79 1520 550 160 2535 
6 69 337 331 150 534 528 
6 337 72 1506 534 153 2521 
6 75 344 1508 156 541 2523 
6 76 345 344 157 542 541 
6 331 337 1452 528 534 2467 
6 331 1452 1501 528 2467 2516 
6 1452 337 1506 2467 534 2521 
6 344 345 1453 541 542 2468 
6 344 1453 1508 541 2468 2523 
6 1453 345 1502 2468 542 2517 
6 1452 1436 1501 2467 2451 2516 
6 1436 1452 1507 2451 2467 2522 
6 1437 1453 1502 2452 2468 2517 
6 1453 1437 1509 2468 2452 2524 

CELL_TYPES 2380
13
13
13
13
13
13
13
13
13
13
13
13
13
13
13
13
13
13
13
13
13
13
13
13
13
13
13
13
13
13
13
13
13
13
13
13
13
13
13
13
13
13
13
13
13
13
13
13
13
13
13
13
13
13
13
13
13
13
13
13
13
13
13
13
13
13
13
13
13
13
13
13
13
13
13
13
13
13
13
13
13
13
13
13
13
13
13
13
13
13
13
13
13
13
13
13
13
13
13
13
13
13
13
13
13
13
13
13
13
13
13
13
13
13
13
13
13
13
13
13
13
13
13
13
13
13
13
13
13
13
13
13
13
13
13
13
13
13
13
13
13
13
13
13
13
13
13
13
13
13
13
13
13
13
13
13
13
13
13
13
13
13
13
13
13
13
13
13
13
13
13
13
13
13
13
13
13
13
13
13
13
13
13
13
13
13
13
13
13
13
13
13
13
13
13
13
13
13
13
13
13
13
13
13
13
13
13
13
13
13
13
13
13
13
13
13
13
13
13
13
13
13
13
13
13
13
13
13
13
13
13
13
13
13
13
13
13
13
13
13
13
13
13
13
13
13
13
13
13
13
13
13
13
13
13
13
13
13
13
13
13
13
13
13
13
13
13
13
13
13
13
13
13
13
13
13
13
13
13
13
13
13
13
13
13
13
13
13
13
13
13
13
13
13
13
13
13
13
13
13
13
13
13
13
13
13
13
13
13
13
13
13
13
13
13
13
13
13
13
13
13
13
13
13
13
13
13
13
13
13
13
13
13
13
13
13
13
13
13
13
13
13
13
13
13
13
13
13
13
13
13
13
13
13
13
13
13
13
13
13
13
13
13
13
13
13
13
13
13
13
13
13
13
13
13
13
13
13
13
13
13
13
13
13
13
13
13
13
13
13
13
13
13
13
13
13
13
13
13
13
13
13
13
13
13
13
13
13
13
13
13
13
13
13
13
13
13
13
13
13
13
13
13
13
13
13
13
13
13
13
13
13
13
13
13
13
13
13
13
13
13
13
13
13
13
13
13
13
13
13
13
13
13
13
13
13
13
13
13
13
13
13
13
13
13
13
13
13
13
13
13
13
13
13
13
13
13
13
13
13
13
13
13
13
13
13
13
13
13
13
13
13
13
13
13
13
13
13
13
13
13
13
13
13
13
13
13
13
13
13
13
13
13
13
13
13
13
13
13
13
13
13
13
13
13
13
13
13
13
13
13
13
13
13
13
13
13
13
13
13
13
13
13
13
13
13
13
13
13
13
13
13
13
13
13
13
13
13
13
13
13
13
13
13
13
13
13
13
13
13
13
13
13
13
13
13
13
13
13
13
13
13
13
13
13
13
13
13
13
13
13
13
13
13
13
13
13
13
13
13
13
13
13
13
13
13
13
13
13
13
13
13
13
13
13
13
13
13
13
13
13
13
13
13
13
13
13
13
13
13
13
13
13
13
13
13
13
13
13
13
13
13
13
13
13
13
13
13
13
13
13
13
13
13
13
13
13
13
13
13
13
13
13
13
13
13
13
13
13
13
13
13
13
13
13
13
13
13
13
13
13
13
13
13
13
13
13
13
13
13
13
13
13
13
13
13
13
13
13
13
13
13
13
13
13
13
13
13
13
13
13
13
13
13
13
13
13
13
13
13
13
13
13
13
13
13
13
13
13
13
13
13
13
13
13
13
13
13
13
13
13
13
13
13
13
13
13
13
13
13
13
13
13
13
13
13
13
13
13
13
13
13
13
13
13
13
13
13
13
13
13
13
13
13
13
13
13
13
13
13
13
13
13
13
13
13
13
13
13
13
13
13
13
13
13
13
13
13
13
13
13
13
13
13
13
13
13
13
13
13
13
13
13
13
13
13
13
13
13
13
13
13
13
13
13
13
13
13
13
13
13
13
13
13
13
13
13
13
13
13
13
13
13
13
13
13
13
13
13
13
13
13
13
13
13
13
13
13
13
13
13
13
13
13
13
13
13
13
13
13
13
13
13
13
13
13
13
13
13
13
13
13
13
13
13
13
13
13
13
13
13
13
13
13
13
13
13
13
13
13
13
13
13
13
13
13
13
13
13
13
13
13
13
13
13
13
13
13
13
13
13
13
13
13
13
13
13
13
13
13
13
13
13
13
13
13
13
13
13
13
13
13
13
13
13
13
13
13
13
13
13
13
13
13
13
13
13
13
13
13
13
13
13
13
13
13
13
13
13
13
13
13
13
13
13
13
13
13
13
13
13
13
13
13
13
13
13
13
13
13
13
13
13
13
13
13
13
13
13
13
13
13
13
13
13
13
13
13
13
13
13
13
13
13
13
13
13
13
13
13
13
13
13
13
13
13
13
13
13
13
13
13
13
13
13
13
13
13
13
13
13
13
13
13
13
13
13
13
13
13
13
13
13
13
13
13
13
13
13
13
13
13
13
13
13
13
13
13
13
13
13
13
13
13
13
13
13
13
13
13
13
13
13
13
13
13
13
13
13
13
13
13
13
13
13
13
13
13
13
13
13
13
13
13
13
13
13
13
13
13
13
13
13
13
13
13
13
13
13
13
13
13
13
13
13
13
13
13
13
13
13
13
13
13
13
13
13
13
13
13
13
13
13
13
13
13
13
13
13
13
13
13
13
13
13
13
13
13
13
13
13
13
13
13
13
13
13
13
13
13
13
13
13
13
13
13
13
13
13
13
13
13
13
13
13
13
13
13
13
13
13
13
13
13
13
13
13
13
13
13
13
13
13
13
13
13
13
13
13
13
13
13
13
13
13
13
13
13
13
13
13
13
13
13
13
13
13
13
13
13
13
13
13
13
13
13
13
13
13
13
13
13
13
13
13
13
13
13
13
13
13
13
13
13
13
13
13
13
13
13
13
13
13
13
13
13
13
13
13
13
13
13
13
13
13
13
13
13
13
13
13
13
13
13
13
13
13
13
13
13
13
13
13
13
13
13
13
13
13
13
13
13
13
13
13
13
13
13
13
13
13
13
13
13
13
13
13
13
13
13
13
13
13
13
13
13
13
13
13
13
13
13
13
13
13
13
13
13
13
13
13
13
13
13
13
13
13
13
13
13
13
13
13
13
13
13
13
13
13
13
13
13
13
13
13
13
13
13
13
13
13
13
13
13
13
13
13
13
13
13
13
13
13
13
13
13
13
13
13
13
13
13
13
13
13
13
13
13
13
13
13
13
13
13
13
13
13
13
13
13
13
13
13
13
13
13
13
13
13
13
13
13
13
13
13
13
13
13
13
13
13
13
13
13
13
13
13
13
13
13
13
13
13
13
13
13
13
13
13
13
13
13
13
13
13
13
13
13
13
13
13
13
13
13
13
13
13
13
13
13
13
13
13
13
13
13
13
13
13
13
13
13
13
13
13
13
13
13
13
13
13
13
13
13
13
13
13
13
13
13
13
13
13
13
13
13
13
13
13
13
13
13
13
13
13
13
13
13
13
13
13
13
13
13
13
13
13
13
13
13
13
13
13
13
13
13
13
13
13
13
13
13
13
13
13
13
13
13
13
13
13
13
13
13
13
13
13
13
13
13
13
13
13
13
13
13
13
13
13
13
13
13
13
13
13
13
13
13
13
13
13
13
13
13
13
13
13
13
13
13
13
13
13
13
13
13
13
13
13
13
13
13
13
13
13
13
13
13
13
13
13
13
13
13
13
13
13
13
13
13
13
13
13
13
13
13
13
13
13
13
13
13
13
13
13
13
13
13
13
13
13
13
13
13
13
13
13
13
13
13
13
13
13
13
13
13
13
13
13
13
13
13
13
13
13
13
13
13
13
13
13
13
13
13
13
13
13
13
13
13
13
13
13
13
13
13
13
13
13
13
13
13
13
13
13
13
13
13
13
13
13
13
13
13
13
13
13
13
13
13
13
13
13
13
13
13
13
13
13
13
13
13
13
13
13
13
13
13
13
13
13
13
13
13
13
13
13
13
13
13
13
13
13
13
13
13
13
13
13
13
13
13
13
13
13
13
13
13
13
13
13
13
13
13
13
13
13
13
13
13
13
13
13
13
13
13
13
13
13
13
13
13
13
13
13
13
13
13
13
13
13
13
13
13
13
13
13
13
13
13
13
13
13
13
13
13
13
13
13
13
13
13
13
13
13
13
13
13
13
13
13
13
13
13
13
13
13
13
13
13
13
13
13
13
13
13
13
13
13
13
13
13
13
13
13
13
13
13
13
13
13
13
13
13
13
13
13
13
13
13
13
13
13
13
13
13
13
13
13
13
13
13
13
13
13
13
13
13
13
13
13
13
13
13
13
13
13
13
13
13
13
13
13
13
13
13
13
13
13
13
13
13
13
13
13
13
13
13
13
13
13
13
13
13
13
13
13
13
13
13
13
13
13
13
13
13
13
13
13
13
13
13
13
13
13
13
13
13
13
13
13
13
13
13
13
13
13
13
13
13
13
13
13
13
13
13
13
13
13
13
13
13
13
13
13
13
13
13
13
13
13
13
13
13
13
13
13
13
13
13
13
13
13
13
13
13
13
13
13
13
13
13
13
13
13
13
13
13
13
13
13
13
13
13
13
13
13
13
13
13
13
13
13
13
13
13
13
13
13
13
13
13
13
13
13
13
13
13
13
13
13
13
13
13
13
13
13
13
13
13
13
13
13
13
13
13
13
13
13
13
13
13
13
13
13
13
13
13
13
13
13
13
13
13
13
13
13
13
13
13
13
13
13
13
13
13
13
13
13
13
13
13
13
13
13
13
13
13
13
13
13
13
13
13
13
13
13
13
13
13
13
13
13
13
13
13
13
13
13
13
13
13
13
13
13
13
13
13
13
13
13
13
13
13
13
13
13
13
13
13
13
13
13
13
13
13
13
13
13
13
13
13
13
13
13
13
13
13
13
13
13
13
13
13
13
13
13
13
13
13
13
13
13
13
13
13
13
13
13
13
13
13
13
13
13
13
13
13
13
13
13
13
13
13
13
13
13
13
13
13
13
13
13
13
13
13
13
13
13
13
13
13
13
13
13
13
13
13
13
13
13
13
13
13
13
13
13
13
13
13
13
13
13
13
13
13
13
13
13
13
13
13
13
13
13
13
13
13
13
13
13
13
13
13
13
13
13
13
13
13
13
13
13
13
13
13
13
13
13
13
13
13
13
13
13
13
13
13
13
13
13
13
13
13
13
13
13
13
13
13
13
13
13
13
13
13
13
13
13
13
13
13
13
13
13
13
13
13
13
13
13
13
13
13
13
13
13
13
13
13
13
13
13
13
13
13
13
13
13
13
13
13
13
13
13
13
13
13
13
13
13
13
13
13
13
13
13
13
13
13
13
13
13
13
13
13
13
13
13
13
13
13
13
13
13
13
13
13
13
13
13
13
13
13
13
13
13
13
13
13
13
13
13
13
13
13
13
13
13
13

POINT_DATA 2586
VECTORS displacement float
-1.65057e-09 1.28147e-07 8.01315e-08
9.94131e-09 1.27295e-07 8.02066e-08
-1.06921e-07 7.96845e-08 8.42061e-08
-1.05904e-07 7.59434e-08 8.42449e-08
-1.12266e-07 6.99199e-08 8.66797e-08
-1.12382e-07 -6.9988e-08 8.66886e-08
-1.06022e-07 -7.60147e-08 8.4259e-08
-1.07038e-07 -7.97562e-08 8.42211e-08
-1.66006e-09 -1.27894e-07 8.03707e-08
9.91081e-09 -1.27421e-07 7.9994e-08
1.05874e-07 -6.61683e-08 7.99188e-08
1.11641e-07 -5.62486e-08 8.01242e-08
1.11785e-07 5.63187e-08 8.01604e-08
1.05981e-07 6.64012e-08 8.01566e-08
0 0 0
1.0876e-08 1.30582e-07 8.00162e-08
4.95964e-09 1.38054e-07 8.03122e-08
1.65294e-08 2.55269e-07 8.03767e-08
2.14864e-08 2.63474e-07 7.98342e-08
2.07642e-08 2.67891e-07 7.99498e-08
1.18134e-07 3.18466e-07 7.94122e-08
1.33538e-07 3.18014e-07 7.90437e-08
2.29418e-07 2.55821e-07 7.91081e-08
2.36627e-07 2.42267e-07 7.92135e-08
2.29559e-07 1.32438e-07 8.00807e-08
2.20862e-07 1.22364e-07 7.99829e-08
1.17689e-07 6.60739e-08 7.99305e-08
1.2486e-07 1.87458e-07 3.19097e-08
1.1836e-07 6.29257e-08 7.98064e-08
2.34098e-07 1.24439e-07 8.02456e-08
3.30088e-07 7.05762e-08 7.91807e-08
3.37795e-07 5.73267e-08 7.92843e-08
3.37709e-07 -5.74428e-08 7.92267e-08
3.3e-07 -7.07149e-08 7.91345e-08
2.34011e-07 -1.24706e-07 7.97533e-08
2.20852e-07 -1.22302e-07 8.01154e-08
1.176e-07 -6.62412e-08 8.0145e-08
1.18242e-07 -6.30336e-08 7.9949e-08
2.28268e-07 4.94694e-11 3.182e-08
2.29515e-07 -1.32444e-07 8.00842e-08
2.36589e-07 -2.42356e-07 7.93086e-08
2.29356e-07 -2.55888e-07 7.91947e-08
1.33455e-07 -3.17996e-07 7.90336e-08
1.18049e-07 -3.18453e-07 7.94048e-08
2.06645e-08 -2.67842e-07 7.99292e-08
2.13836e-08 -2.63424e-07 7.98125e-08
1.64003e-08 -2.55207e-07 8.03416e-08
4.99186e-09 -1.37965e-07 8.03521e-08
1.08738e-08 -1.30651e-07 7.98762e-08
1.24727e-07 -1.88392e-07 3.19125e-08
1.31185e-08 -2.68253e-07 8.02467e-08
-6.87423e-08 -3.41496e-07 7.93866e-08
-8.41129e-08 -3.43422e-07 7.9745e-08
-1.94956e-07 -3.08901e-07 7.96741e-08
-1.95071e-07 -3.04353e-07 7.95542e-08
-2.04841e-07 -2.95971e-07 7.99302e-08
-2.37582e-07 -1.87419e-07 8.53921e-08
-2.32645e-07 -1.77271e-07 8.6977e-08
-2.35416e-07 -1.74126e-07 8.8107e-08
-1.19116e-07 -8.2259e-08 8.66991e-08
-9.14115e-08 -2.08265e-07 3.21885e-08
-2.51918e-07 -1.79175e-07 9.08889e-08
-4.17359e-07 -1.02824e-07 9.62755e-08
-4.16454e-07 -9.85304e-08 9.62628e-08
-4.25297e-07 -9.01075e-08 9.63502e-08
-4.25278e-07 9.00689e-08 9.63509e-08
-4.16431e-07 9.84903e-08 9.62636e-08
-4.17334e-07 1.02784e-07 9.62763e-08
-2.51622e-07 1.79067e-07 9.07782e-08
-2.35624e-07 1.74044e-07 8.82552e-08
-1.19013e-07 8.21751e-08 8.6689e-08
-2.5032e-07 -2.81429e-11 9.09037e-08
-2.3281e-07 1.7719e-07 8.70922e-08
-2.3768e-07 1.87358e-07 8.54573e-08
-2.04713e-07 2.95885e-07 7.99341e-08
-1.94946e-07 3.04264e-07 7.95603e-08
-1.94831e-07 3.08813e-07 7.96805e-08
-8.46105e-08 3.43346e-07 7.94061e-08
-6.92419e-08 3.41521e-07 7.97679e-08
1.32221e-08 2.68301e-07 8.02888e-08
-9.13407e-08 2.08501e-07 3.21715e-08
-1.65057e-09 1.28147e-07 -8.01315e-08
9.94131e-09 1.27295e-07 -8.02066e-08
-1.06921e-07 7.96845e-08 -8.42061e-08
-1.05904e-07 7.59434e-08 -8.42449e-08
-1.12266e-07 6.99199e-08 -8.66797e-08
-1.12382e-07 -6.9988e-08 -8.66886e-08
-1.06022e-07 -7.60147e-08 -8.4259e-08
-1.07038e-07 -7.97562e-08 -8.42211e-08
-1.66006e-09 -1.27894e-07 -8.03707e-08
9.91081e-09 -1.27421e-07 -7.9994e-08
1.05874e-07 -6.61683e-08 -7.99188e-08
1.11641e-07 -5.62486e-08 -8.01242e-08
1.11785e-07 5.63187e-08 -8.01604e-08
1.05981e-07 6.64012e-08 -8.01566e-08
0 0 0
1.0876e-08 1.30582e-07 -8.00162e-08
4.95964e-09 1.38054e-07 -8.03122e-08
1.65294e-08 2.55269e-07 -8.03767e-08
2.14864e-08 2.63474e-07 -7.98342e-08
2.07642e-08 2.67891e-07 -7.99498e-08
1.18134e-07 3.18466e-07 -7.94122e-08
1.33538e-07 3.18014e-07 -7.90437e-08
2.29418e-07 2.55821e-07 -7.91081e-08
2.36627e-07 2.42267e-07 -7.92135e-08
2.29559e-07 1.32438e-07 -8.00807e-08
2.20862e-07 1.22364e-07 -7.99829e-08
1.17689e-07 6.60739e-08 -7.99305e-08
1.2486e-07 1.87458e-07 -3.19097e-08
1.1836e-07 6.29257e-08 -7.98064e-08
2.34098e-07 1.24439e-07 -8.02456e-08
3.30088e-07 7.05762e-08 -7.91807e-08
3.37795e-07 5.73267e-08 -7.92843e-08
3.37709e-07 -5.74428e-08 -7.92267e-08
3.3e-07 -7.07149e-08 -7.91345e-08
2.34011e-07 -1.24706e-07 -7.97533e-08
2.20852e-07 -1.22302e-07 -8.01154e-08
1.176e-07 -6.62412e-08 -8.0145e-08
1.18242e-07 -6.30336e-08 -7.9949e-08
2.28268e-07 4.94694e-11 -3.182e-08
2.29515e-07 -1.32444e-07 -8.00842e-08
2.36589e-07 -2.42356e-07 -7.93086e-08
2.29356e-07 -2.55888e-07 -7.91947e-08
1.33455e-07 -3.17996e-07 -7.90336e-08
1.18049e-07 -3.18453e-07 -7.94048e-08
2.06645e-08 -2.67842e-07 -7.99292e-08
2.13836e-08 -2.63424e-07 -7.98125e-08
1.64003e-08 -2.55207e-07 -8.03416e-08
4.99186e-09 -1.37965e-07 -8.03521e-08
1.08738e-08 -1.30651e-07 -7.98762e-08
1.24727e-07 -1.88392e-07 -3.19125e-08
1.31185e-08 -2.68253e-07 -8.02467e-08
-6.87423e-08 -3.41496e-07 -7.93866e-08
-8.41129e-08 -3.43422e-07 -7.9745e-08
-1.94956e-07 -3.08901e-07 -7.96741e-08
-1.95071e-07 -3.04353e-07 -7.95542e-08
-2.04841e-07 -2.95971e-07 -7.99302e-08
-2.37582e-07 -1.87419e-07 -8.53921e-08
-2.32645e-07 -1.77271e-07 -8.6977e-08
-2.35416e-07 -1.74126e-07 -8.8107e-08
-1.19116e-07 -8.2259e-08 -8.66991e-08
-9.14115e-08 -2.08265e-07 -3.21885e-08
-2.51918e-07 -1.79175e-07 -9.08889e-08
-4.17359e-07 -1.02824e-07 -9.62755e-08
-4.16454e-07 -9.85304e-08 -9.62628e-08
-4.25297e-07 -9.01075e-08 -9.63502e-08
-4.25278e-07 9.00689e-08 -9.63509e-08
-4.16431e-07 9.84903e-08 -9.62636e-08
-4.17334e-07 1.02784e-07 -9.62763e-08
-2.51622e-07 1.79067e-07 -9.07782e-08
-2.35624e-07 1.74044e-07 -8.82552e-08
-1.19013e-07 8.21751e-08 -8.6689e-08
-2.5032e-07 -2.81429e-11 -9.09037e-08
-2.3281e-07 1.7719e-07 -8.70922e-08
-2.3768e-07 1.87358e-07 -8.54573e-08
-2.04713e-07 2.95885e-07 -7.99341e-08
-1.94946e-07 3.04264e-07 -7.95603e-08
-1.94831e-07 3.08813e-07 -7.96805e-08
-8.46105e-08 3.43346e-07 -7.94061e-08
-6.92419e-08 3.41521e-07 -7.97679e-08
1.32221e-08 2.68301e-07 -8.02888e-08
-9.13407e-08 2.08501e-07 -3.21715e-08
4.02779e-09 1.24743e-07 7.98197e-08
-8.2199e-08 9.12789e-08 7.72769e-08
-6.27898e-08 9.95528e-08 7.1756e-08
-4.48441e-08 1.07388e-07 7.11143e-08
-2.58679e-08 1.15963e-07 7.52368e-08
-1.06085e-07 7.77661e-08 8.4257e-08
-1.07742e-07 7.14917e-08 8.51385e-08
-1.12519e-07 -3.94773e-08 8.42311e-08
-1.12098e-07 -1.28658e-08 8.20801e-08
-1.12043e-07 1.28126e-08 8.20022e-08
-1.12447e-07 3.94128e-08 8.42556e-08
-1.0786e-07 -7.15616e-08 8.51496e-08
-1.06203e-07 -7.78377e-08 8.42717e-08
-2.58318e-08 -1.15975e-07 7.52122e-08
-4.49186e-08 -1.07353e-07 7.13528e-08
-6.29014e-08 -9.95761e-08 7.17977e-08
-8.23172e-08 -9.13358e-08 7.73001e-08
3.91058e-09 -1.24669e-07 7.98338e-08
8.29502e-08 -8.00531e-08 7.46883e-08
6.55835e-08 -9.06345e-08 7.0092e-08
4.96024e-08 -1.00925e-07 7.01036e-08
3.24832e-08 -1.12134e-07 7.47497e-08
1.05897e-07 -5.97045e-08 7.98134e-08
1.10837e-07 2.96328e-08 7.46284e-08
1.10664e-07 9.36688e-09 7.01696e-08
1.1059e-07 -9.35483e-09 7.03402e-08
1.10818e-07 -2.95882e-08 7.45616e-08
1.06041e-07 5.98456e-08 7.99215e-08
3.24889e-08 1.12281e-07 7.46856e-08
4.96618e-08 1.01035e-07 7.03221e-08
6.56945e-08 9.07772e-08 7.03197e-08
8.31139e-08 8.00606e-08 7.4653e-08
0 0 0
0 0 0
0 0 0
1.08096e-08 1.29023e-07 8.02188e-08
8.94902e-09 1.35161e-07 7.98756e-08
6.61912e-09 1.65231e-07 7.48708e-08
8.86283e-09 1.86067e-07 7.07298e-08
1.12865e-08 2.05529e-07 7.05844e-08
1.36265e-08 2.26863e-07 7.49843e-08
1.98549e-08 2.5791e-07 7.98584e-08
2.13009e-08 2.65722e-07 7.99798e-08
4.76517e-08 2.74083e-07 7.5205e-08
6.64309e-08 2.77569e-07 7.14377e-08
8.12567e-08 2.85525e-07 7.14685e-08
9.62535e-08 2.9917e-07 7.48114e-08
1.25405e-07 3.14838e-07 7.89069e-08
1.53929e-07 2.96901e-07 7.49195e-08
1.68166e-07 2.81298e-07 7.10594e-08
1.82659e-07 2.71612e-07 7.11342e-08
2.01855e-07 2.65409e-07 7.46311e-08
2.30064e-07 2.47263e-07 7.89672e-08
2.28572e-07 2.13658e-07 7.47104e-08
2.21533e-07 1.94148e-07 7.15982e-08
2.20172e-07 1.77192e-07 7.14632e-08
2.23996e-07 1.58535e-07 7.53614e-08
2.22341e-07 1.28743e-07 7.98405e-08
1.41517e-07 7.95038e-08 7.47981e-08
1.59802e-07 8.91948e-08 7.02242e-08
1.76988e-07 9.84089e-08 7.02834e-08
1.95858e-07 1.08515e-07 7.48443e-08
1.11894e-07 6.90489e-08 7.97061e-08
1.19287e-07 1.96081e-07 3.23772e-08
1.10069e-07 1.8865e-07 3.20117e-08
1.16974e-07 1.8061e-07 3.15906e-08
1.1599e-07 5.87783e-08 7.973e-08
1.18454e-07 6.43817e-08 7.99715e-08
2.27069e-07 1.20312e-07 7.97594e-08
2.53246e-07 1.05584e-07 7.53444e-08
2.67115e-07 9.20364e-08 7.16952e-08
2.81981e-07 8.37815e-08 7.1347e-08
3.01828e-07 7.89381e-08 7.47337e-08
3.31053e-07 6.2033e-08 7.90443e-08
3.31126e-07 2.86743e-08 7.47734e-08
3.2588e-07 8.61964e-09 7.11228e-08
3.25641e-07 -8.96078e-09 7.1431e-08
3.31134e-07 -2.87537e-08 7.46644e-08
3.30977e-07 -6.21548e-08 7.89883e-08
3.01713e-07 -7.90832e-08 7.47255e-08
2.81847e-07 -8.38893e-08 7.13342e-08
2.66964e-07 -9.19652e-08 7.14177e-08
2.53123e-07 -1.05601e-07 7.54894e-08
2.26691e-07 -1.20557e-07 7.96168e-08
1.41378e-07 -7.94304e-08 7.47436e-08
1.59698e-07 -8.9205e-08 7.04568e-08
1.76915e-07 -9.84252e-08 7.04924e-08
1.95795e-07 -1.08532e-07 7.47427e-08
1.18345e-07 -6.45227e-08 8.01582e-08
1.15842e-07 -5.87824e-08 7.97547e-08
2.2117e-07 7.06676e-09 3.20882e-08
2.12342e-07 4.97025e-10 3.2321e-08
2.20403e-07 -7.47409e-09 3.2136e-08
1.11927e-07 -6.90017e-08 7.9696e-08
2.22306e-07 -1.28721e-07 7.9866e-08
2.23989e-07 -1.58583e-07 7.52524e-08
2.19897e-07 -1.77057e-07 7.17924e-08
2.21713e-07 -1.93944e-07 7.13027e-08
2.28475e-07 -2.13756e-07 7.48502e-08
2.30008e-07 -2.47339e-07 7.90625e-08
2.0175e-07 -2.65381e-07 7.47083e-08
1.82534e-07 -2.71616e-07 7.11682e-08
1.68047e-07 -2.81269e-07 7.10087e-08
1.53837e-07 -2.96878e-07 7.48935e-08
1.2532e-07 -3.14823e-07 7.88979e-08
9.61557e-08 -2.99162e-07 7.48166e-08
8.11525e-08 -2.85486e-07 7.14797e-08
6.63424e-08 -2.7751e-07 7.1442e-08
4.75688e-08 -2.74029e-07 7.51986e-08
2.12003e-08 -2.65673e-07 7.99591e-08
1.97409e-08 -2.57855e-07 7.98304e-08
6.55653e-09 -1.65178e-07 7.49378e-08
8.8693e-09 -1.86068e-07 7.0567e-08
1.11558e-08 -2.0551e-07 7.07517e-08
1.35873e-08 -2.26818e-07 7.49229e-08
8.97823e-09 -1.35137e-07 7.98542e-08
1.07979e-08 -1.29124e-07 8.00343e-08
1.17508e-07 -1.80214e-07 3.22516e-08
1.09989e-07 -1.88216e-07 3.201e-08
1.18595e-07 -1.95725e-07 3.1723e-08
-9.74416e-10 -1.34701e-07 8.01775e-08
1.19947e-08 -2.59976e-07 8.01157e-08
-1.0601e-08 -2.78489e-07 7.56082e-08
-2.6549e-08 -2.86434e-07 7.18963e-08
-3.84016e-08 -2.98664e-07 7.16397e-08
-5.03824e-08 -3.17281e-07 7.53573e-08
-7.72857e-08 -3.39057e-07 7.92483e-08
-1.07736e-07 -3.27349e-07 7.51782e-08
-1.24656e-07 -3.17095e-07 7.18426e-08
-1.41853e-07 -3.12571e-07 7.17248e-08
-1.63837e-07 -3.12271e-07 7.52516e-08
-1.94721e-07 -3.06631e-07 7.97015e-08
-1.98925e-07 -2.98514e-07 7.95136e-08
-2.03013e-07 -2.67475e-07 7.58279e-08
-2.03005e-07 -2.48183e-07 7.31692e-08
-2.08884e-07 -2.31444e-07 7.41467e-08
-2.21113e-07 -2.13358e-07 7.87983e-08
-2.32849e-07 -1.82772e-07 8.54505e-08
-2.33756e-07 -1.75584e-07 8.7665e-08
-1.44299e-07 -1.01069e-07 8.45454e-08
-1.66337e-07 -1.18051e-07 8.25234e-08
-1.87985e-07 -1.34722e-07 8.26296e-08
-2.10617e-07 -1.52287e-07 8.5191e-08
-1.13124e-07 -8.43002e-08 8.48331e-08
-9.99848e-08 -2.02425e-07 3.3273e-08
-1.07054e-07 -2.13652e-07 3.32813e-08
-9.7554e-08 -2.18567e-07 3.23283e-08
-1.18469e-07 -7.49388e-08 8.73535e-08
-2.45006e-07 -1.7322e-07 8.99929e-08
-2.87265e-07 -1.65844e-07 9.23796e-08
-3.2049e-07 -1.51005e-07 9.32058e-08
-3.5291e-07 -1.35425e-07 9.41484e-08
-3.85007e-07 -1.19371e-07 9.53155e-08
-4.1662e-07 -1.00747e-07 9.6283e-08
-4.19243e-07 -9.25287e-08 9.62779e-08
-4.25935e-07 -5.37994e-08 9.58198e-08
-4.26278e-07 -1.79331e-08 9.54249e-08
-4.26277e-07 1.78873e-08 9.54225e-08
-4.25925e-07 5.37555e-08 9.582e-08
-4.19223e-07 9.24886e-08 9.62787e-08
-4.16596e-07 1.00708e-07 9.62838e-08
-3.84972e-07 1.19322e-07 9.53168e-08
-3.52865e-07 1.35352e-07 9.41407e-08
-3.2047e-07 1.50947e-07 9.31666e-08
-2.87259e-07 1.65858e-07 9.23973e-08
-2.44693e-07 1.73107e-07 8.9916e-08
-1.44206e-07 1.00957e-07 8.45454e-08
-1.66257e-07 1.1792e-07 8.25408e-08
-1.87915e-07 1.34584e-07 8.27238e-08
-2.10548e-07 1.52196e-07 8.519e-08
-1.1838e-07 7.48604e-08 8.73468e-08
-2.65114e-07 1.51976e-08 9.16267e-08
-2.80376e-07 -1.58506e-11 9.24214e-08
-2.65095e-07 -1.52575e-08 9.16627e-08
-1.13013e-07 8.42221e-08 8.48193e-08
-2.3395e-07 1.75495e-07 8.7799e-08
-2.32958e-07 1.82701e-07 8.55249e-08
-2.21152e-07 2.13287e-07 7.88366e-08
-2.08872e-07 2.31437e-07 7.41579e-08
-2.02927e-07 2.48168e-07 7.31927e-08
-2.02905e-07 2.67402e-07 7.58297e-08
-1.98799e-07 2.98426e-07 7.95183e-08
-1.94596e-07 3.06542e-07 7.97077e-08
-1.63724e-07 3.12152e-07 7.52702e-08
-1.41742e-07 3.12449e-07 7.17209e-08
-1.24607e-07 3.16739e-07 7.157e-08
-1.07685e-07 3.27201e-07 7.53575e-08
-7.71516e-08 3.39031e-07 7.92694e-08
-5.03464e-08 3.17346e-07 7.52204e-08
-3.83588e-08 2.98974e-07 7.19454e-08
-2.64534e-08 2.86543e-07 7.19422e-08
-1.04812e-08 2.78548e-07 7.56391e-08
1.20836e-08 2.60031e-07 8.0162e-08
-1.0098e-09 1.34859e-07 8.00654e-08
-9.66345e-08 2.18831e-07 3.28503e-08
-1.06976e-07 2.12583e-07 3.32939e-08
-1.00708e-07 2.02743e-07 3.27418e-08
4.02779e-09 1.24743e-07 -7.98197e-08
-8.2199e-08 9.12789e-08 -7.72769e-08
-6.27898e-08 9.95528e-08 -7.1756e-08
-4.48441e-08 1.07388e-07 -7.11143e-08
-2.58679e-08 1.15963e-07 -7.52368e-08
-1.06085e-07 7.77661e-08 -8.4257e-08
-1.07742e-07 7.14917e-08 -8.51385e-08
-1.12519e-07 -3.94773e-08 -8.42311e-08
-1.12098e-07 -1.28658e-08 -8.20801e-08
-1.12043e-07 1.28126e-08 -8.20022e-08
-1.12447e-07 3.94128e-08 -8.42556e-08
-1.0786e-07 -7.15616e-08 -8.51496e-08
-1.06203e-07 -7.78377e-08 -8.42717e-08
-2.58318e-08 -1.15975e-07 -7.52122e-08
-4.49186e-08 -1.07353e-07 -7.13528e-08
-6.29014e-08 -9.95761e-08 -7.17977e-08
-8.23172e-08 -9.13358e-08 -7.73001e-08
3.91058e-09 -1.24669e-07 -7.98338e-08
8.29502e-08 -8.00531e-08 -7.46883e-08
6.55835e-08 -9.06345e-08 -7.0092e-08
4.96024e-08 -1.00925e-07 -7.01036e-08
3.24832e-08 -1.12134e-07 -7.47497e-08
1.05897e-07 -5.97045e-08 -7.98134e-08
1.10837e-07 2.96328e-08 -7.46284e-08
1.10664e-07 9.36688e-09 -7.01696e-08
1.1059e-07 -9.35483e-09 -7.03402e-08
1.10818e-07 -2.95882e-08 -7.45616e-08
1.06041e-07 5.98456e-08 -7.99215e-08
3.24889e-08 1.12281e-07 -7.46856e-08
4.96618e-08 1.01035e-07 -7.03221e-08
6.56945e-08 9.07772e-08 -7.03197e-08
8.31139e-08 8.00606e-08 -7.4653e-08
0 0 0
0 0 0
0 0 0
1.08096e-08 1.29023e-07 -8.02188e-08
8.94902e-09 1.35161e-07 -7.98756e-08
6.61912e-09 1.65231e-07 -7.48708e-08
8.86283e-09 1.86067e-07 -7.07298e-08
1.12865e-08 2.05529e-07 -7.05844e-08
1.36265e-08 2.26863e-07 -7.49843e-08
1.98549e-08 2.5791e-07 -7.98584e-08
2.13009e-08 2.65722e-07 -7.99798e-08
4.76517e-08 2.74083e-07 -7.5205e-08
6.64309e-08 2.77569e-07 -7.14377e-08
8.12567e-08 2.85525e-07 -7.14685e-08
9.62535e-08 2.9917e-07 -7.48114e-08
1.25405e-07 3.14838e-07 -7.89069e-08
1.53929e-07 2.96901e-07 -7.49195e-08
1.68166e-07 2.81298e-07 -7.10594e-08
1.82659e-07 2.71612e-07 -7.11342e-08
2.01855e-07 2.65409e-07 -7.46311e-08
2.30064e-07 2.47263e-07 -7.89672e-08
2.28572e-07 2.13658e-07 -7.47104e-08
2.21533e-07 1.94148e-07 -7.15982e-08
2.20172e-07 1.77192e-07 -7.14632e-08
2.23996e-07 1.58535e-07 -7.53614e-08
2.22341e-07 1.28743e-07 -7.98405e-08
1.41517e-07 7.95038e-08 -7.47981e-08
1.59802e-07 8.91948e-08 -7.02242e-08
1.76988e-07 9.84089e-08 -7.02834e-08
1.95858e-07 1.08515e-07 -7.48443e-08
1.11894e-07 6.90489e-08 -7.97061e-08
1.19287e-07 1.96081e-07 -3.23772e-08
1.10069e-07 1.8865e-07 -3.20117e-08
1.16974e-07 1.8061e-07 -3.15906e-08
1.1599e-07 5.87783e-08 -7.973e-08
1.18454e-07 6.43817e-08 -7.99715e-08
2.27069e-07 1.20312e-07 -7.97594e-08
2.53246e-07 1.05584e-07 -7.53444e-08
2.67115e-07 9.20364e-08 -7.16952e-08
2.81981e-07 8.37815e-08 -7.1347e-08
3.01828e-07 7.89381e-08 -7.47337e-08
3.31053e-07 6.2033e-08 -7.90443e-08
3.31126e-07 2.86743e-08 -7.47734e-08
3.2588e-07 8.61964e-09 -7.11228e-08
3.25641e-07 -8.96078e-09 -7.1431e-08
3.31134e-07 -2.87537e-08 -7.46644e-08
3.30977e-07 -6.21548e-08 -7.89883e-08
3.01713e-07 -7.90832e-08 -7.47255e-08
2.81847e-07 -8.38893e-08 -7.13342e-08
2.66964e-07 -9.19652e-08 -7.14177e-08
2.53123e-07 -1.05601e-07 -7.54894e-08
2.26691e-07 -1.20557e-07 -7.96168e-08
1.41378e-07 -7.94304e-08 -7.47436e-08
1.59698e-07 -8.9205e-08 -7.04568e-08
1.76915e-07 -9.84252e-08 -7.04924e-08
1.95795e-07 -1.08532e-07 -7.47427e-08
1.18345e-07 -6.45227e-08 -8.01582e-08
1.15842e-07 -5.87824e-08 -7.97547e-08
2.2117e-07 7.06676e-09 -3.20882e-08
2.12342e-07 4.97025e-10 -3.2321e-08
2.20403e-07 -7.47409e-09 -3.2136e-08
1.11927e-07 -6.90017e-08 -7.9696e-08
2.22306e-07 -1.28721e-07 -7.9866e-08
2.23989e-07 -1.58583e-07 -7.52524e-08
2.19897e-07 -1.77057e-07 -7.17924e-08
2.21713e-07 -1.93944e-07 -7.13027e-08
2.28475e-07 -2.13756e-07 -7.48502e-08
2.30008e-07 -2.47339e-07 -7.90625e-08
2.0175e-07 -2.65381e-07 -7.47083e-08
1.82534e-07 -2.71616e-07 -7.11682e-08
1.68047e-07 -2.81269e-07 -7.10087e-08
1.53837e-07 -2.96878e-07 -7.48935e-08
1.2532e-07 -3.14823e-07 -7.88979e-08
9.61557e-08 -2.99162e-07 -7.48166e-08
8.11525e-08 -2.85486e-07 -7.14797e-08
6.63424e-08 -2.7751e-07 -7.1442e-08
4.75688e-08 -2.74029e-07 -7.51986e-08
2.12003e-08 -2.65673e-07 -7.99591e-08
1.97409e-08 -2.57855e-07 -7.98304e-08
6.55653e-09 -1.65178e-07 -7.49378e-08
8.8693e-09 -1.86068e-07 -7.0567e-08
1.11558e-08 -2.0551e-07 -7.07517e-08
1.35873e-08 -2.26818e-07 -7.49229e-08
8.97823e-09 -1.35137e-07 -7.98542e-08
1.07979e-08 -1.29124e-07 -8.00343e-08
1.17508e-07 -1.80214e-07 -3.22516e-08
1.09989e-07 -1.88216e-07 -3.201e-08
1.18595e-07 -1.95725e-07 -3.1723e-08
-9.74416e-10 -1.34701e-07 -8.01775e-08
1.19947e-08 -2.59976e-07 -8.01157e-08
-1.0601e-08 -2.78489e-07 -7.56082e-08
-2.6549e-08 -2.86434e-07 -7.18963e-08
-3.84016e-08 -2.98664e-07 -7.16397e-08
-5.03824e-08 -3.17281e-07 -7.53573e-08
-7.72857e-08 -3.39057e-07 -7.92483e-08
-1.07736e-07 -3.27349e-07 -7.51782e-08
-1.24656e-07 -3.17095e-07 -7.18426e-08
-1.41853e-07 -3.12571e-07 -7.17248e-08
-1.63837e-07 -3.12271e-07 -7.52516e-08
-1.94721e-07 -3.06631e-07 -7.97015e-08
-1.98925e-07 -2.98514e-07 -7.95136e-08
-2.03013e-07 -2.67475e-07 -7.58279e-08
-2.03005e-07 -2.48183e-07 -7.31692e-08
-2.08884e-07 -2.31444e-07 -7.41467e-08
-2.21113e-07 -2.13358e-07 -7.87983e-08
-2.32849e-07 -1.82772e-07 -8.54505e-08
-2.33756e-07 -1.75584e-07 -8.7665e-08
-1.44299e-07 -1.01069e-07 -8.45454e-08
-1.66337e-07 -1.18051e-07 -8.25234e-08
-1.87985e-07 -1.34722e-07 -8.26296e-08
-2.10617e-07 -1.52287e-07 -8.5191e-08
-1.13124e-07 -8.43002e-08 -8.48331e-08
-9.99848e-08 -2.02425e-07 -3.3273e-08
-1.07054e-07 -2.13652e-07 -3.32813e-08
-9.7554e-08 -2.18567e-07 -3.23283e-08
-1.18469e-07 -7.49388e-08 -8.73535e-08
-2.45006e-07 -1.7322e-07 -8.99929e-08
-2.87265e-07 -1.65844e-07 -9.23796e-08
-3.2049e-07 -1.51005e-07 -9.32058e-08
-3.5291e-07 -1.35425e-07 -9.41484e-08
-3.85007e-07 -1.19371e-07 -9.53155e-08
-4.1662e-07 -1.00747e-07 -9.6283e-08
-4.19243e-07 -9.25287e-08 -9.62779e-08
-4.25935e-07 -5.37994e-08 -9.58198e-08
-4.26278e-07 -1.79331e-08 -9.54249e-08
-4.26277e-07 1.78873e-08 -9.54225e-08
-4.25925e-07 5.37555e-08 -9.582e-08
-4.19223e-07 9.24886e-08 -9.62787e-08
-4.16596e-07 1.00708e-07 -9.62838e-08
-3.84972e-07 1.19322e-07 -9.53168e-08
-3.52865e-07 1.35352e-07 -9.41407e-08
-3.2047e-07 1.50947e-07 -9.31666e-08
-2.87259e-07 1.65858e-07 -9.23973e-08
-2.44693e-07 1.73107e-07 -8.9916e-08
-1.44206e-07 1.00957e-07 -8.45454e-08
-1.66257e-07 1.1792e-07 -8.25408e-08
-1.87915e-07 1.34584e-07 -8.27238e-08
-2.10548e-07 1.52196e-07 -8.519e-08
-1.1838e-07 7.48604e-08 -8.73468e-08
-2.65114e-07 1.51976e-08 -9.16267e-08
-2.80376e-07 -1.58506e-11 -9.24214e-08
-2.65095e-07 -1.52575e-08 -9.16627e-08
-1.13013e-07 8.42221e-08 -8.48193e-08
-2.3395e-07 1.75495e-07 -8.7799e-08
-2.32958e-07 1.82701e-07 -8.55249e-08
-2.21152e-07 2.13287e-07 -7.88366e-08
-2.08872e-07 2.31437e-07 -7.41579e-08
-2.02927e-07 2.48168e-07 -7.31927e-08
-2.02905e-07 2.67402e-07 -7.58297e-08
-1.98799e-07 2.98426e-07 -7.95183e-08
-1.94596e-07 3.06542e-07 -7.97077e-08
-1.63724e-07 3.12152e-07 -7.52702e-08
-1.41742e-07 3.12449e-07 -7.17209e-08
-1.24607e-07 3.16739e-07 -7.157e-08
-1.07685e-07 3.27201e-07 -7.53575e-08
-7.71516e-08 3.39031e-07 -7.92694e-08
-5.03464e-08 3.17346e-07 -7.52204e-08
-3.83588e-08 2.98974e-07 -7.19454e-08
-2.64534e-08 2.86543e-07 -7.19422e-08
-1.04812e-08 2.78548e-07 -7.56391e-08
1.20836e-08 2.60031e-07 -8.0162e-08
-1.0098e-09 1.34859e-07 -8.00654e-08
-9.66345e-08 2.18831e-07 -3.28503e-08
-1.06976e-07 2.12583e-07 -3.32939e-08
-1.00708e-07 2.02743e-07 -3.27418e-08
3.31887e-08 -3.20208e-08 5.41019e-08
3.35089e-08 3.38304e-08 5.4859e-08
-3.21971e-08 3.74359e-08 5.64176e-08
-3.24039e-08 -3.75179e-08 5.65297e-08
-7.45409e-08 -5.73646e-08 7.59727e-08
-7.44161e-08 5.72829e-08 7.59451e-08
3.09381e-10 4.10402e-08 5.11355e-08
-3.77132e-08 1.06217e-09 5.21956e-08
3.68436e-08 -1.16675e-09 4.86903e-08
-1.10838e-10 -4.0988e-08 5.11255e-08
-8.90513e-08 6.15222e-08 8.08967e-08
-8.9172e-08 -6.15974e-08 8.09146e-08
6.87817e-08 3.72755e-08 6.89704e-08
7.21479e-08 -3.86005e-08 7.01938e-08
1.46087e-10 -8.28378e-08 7.0147e-08
3.90654e-09 8.26858e-08 7.01092e-08
2.65837e-08 6.45511e-08 6.38488e-08
-2.3869e-08 -6.76382e-08 6.45558e-08
-6.91542e-08 1.95084e-08 7.00546e-08
-7.04247e-08 -1.91994e-08 7.05389e-08
2.64246e-08 -6.70328e-08 6.44331e-08
-2.35491e-08 7.06283e-08 6.53044e-08
1.20475e-08 -1.20906e-08 3.17466e-08
1.37149e-08 1.52477e-08 3.53407e-08
-1.34453e-08 1.3185e-08 3.42251e-08
-1.42607e-08 -1.4068e-08 3.54849e-08
-9.29111e-08 7.32435e-08 8.18387e-08
-9.30306e-08 -7.33131e-08 8.18555e-08
-5.12306e-08 6.41208e-08 6.86188e-08
-5.1358e-08 -6.39625e-08 6.86168e-08
7.27054e-08 -1.07829e-08 6.52883e-08
6.88471e-08 1.25605e-08 6.4238e-08
-5.45791e-08 -3.52296e-08 6.58817e-08
-5.44184e-08 3.51356e-08 6.58156e-08
1.19021e-08 -1.00889e-07 7.53519e-08
-6.15763e-09 1.0204e-07 7.55383e-08
5.2678e-08 -5.75777e-08 6.68306e-08
5.26217e-08 5.64361e-08 6.66818e-08
3.84116e-09 2.13394e-08 3.64763e-08
2.94123e-09 -2.06975e-08 3.56456e-08
-2.0133e-08 -3.78771e-09 3.7348e-08
1.94761e-08 -2.33825e-09 3.46298e-08
-9.20658e-08 4.13972e-08 8.00026e-08
-9.21753e-08 -4.14681e-08 8.00185e-08
4.82596e-08 -1.81164e-08 5.72425e-08
7.85389e-08 5.68961e-08 7.44329e-08
7.89466e-08 -5.71685e-08 7.45447e-08
4.5142e-08 1.84297e-08 5.58057e-08
-1.50194e-08 3.63423e-08 5.00703e-08
-1.44014e-08 -3.55041e-08 4.94124e-08
-3.18621e-08 1.62265e-08 5.00531e-08
1.70258e-08 -3.15541e-08 4.79346e-08
1.76408e-08 3.19892e-08 4.8284e-08
-2.96187e-08 -1.49089e-08 4.80986e-08
-2.21086e-08 -8.87552e-08 7.05618e-08
2.61852e-08 8.58003e-08 6.99965e-08
1.3463e-08 1.04469e-07 7.62315e-08
-7.39615e-09 -1.05646e-07 7.64351e-08
-9.92053e-08 5.40713e-08 8.31541e-08
-9.93151e-08 -5.41439e-08 8.31613e-08
-8.70346e-08 4.85835e-10 7.54993e-08
9.60399e-08 -4.32506e-08 7.68705e-08
9.64932e-08 4.28918e-08 7.6912e-08
1.88289e-08 -8.41848e-08 7.01178e-08
-1.46057e-08 8.66812e-08 7.06575e-08
7.6091e-09 -6.22808e-08 6.22856e-08
-5.11771e-09 6.30883e-08 6.24773e-08
2.70463e-08 9.74799e-09 4.32682e-08
1.06064e-08 6.35389e-08 6.28704e-08
-8.07264e-09 -6.45631e-08 6.31257e-08
4.6245e-08 7.39349e-08 6.7438e-08
2.83413e-08 -1.42083e-08 4.54445e-08
-4.34094e-08 -8.02131e-08 6.87915e-08
8.59049e-08 2.23303e-08 7.02367e-08
8.73784e-08 -2.48659e-08 7.09514e-08
-7.79556e-08 7.20613e-08 7.73635e-08
-7.8074e-08 -7.21305e-08 7.73841e-08
-5.00232e-08 -1.6703e-08 6.10285e-08
-7.31445e-08 -3.91754e-08 7.3817e-08
-7.29265e-08 3.91159e-08 7.3742e-08
-1.03041e-07 7.22979e-08 8.4115e-08
-1.02002e-07 6.48617e-08 8.42742e-08
-1.03159e-07 -7.23688e-08 8.41283e-08
-1.02119e-07 -6.49331e-08 8.4285e-08
4.72811e-08 -7.43167e-08 6.76873e-08
-5.83323e-08 5.21149e-08 6.96746e-08
-5.84752e-08 -5.21892e-08 6.97177e-08
-5.3781e-09 1.14924e-07 7.82633e-08
1.23743e-08 -1.13809e-07 7.81018e-08
-4.4394e-08 8.09667e-08 6.9122e-08
-4.99837e-08 1.73812e-08 6.10568e-08
-6.0654e-08 1.14077e-09 6.53924e-08
8.43721e-08 3.87892e-09 6.70247e-08
3.59208e-08 5.10419e-08 6.11008e-08
9.30318e-08 6.10414e-08 7.81889e-08
9.29424e-08 -6.11005e-08 7.81044e-08
3.4518e-08 -5.03121e-08 6.05218e-08
5.08313e-08 3.72073e-08 6.26124e-08
-3.21921e-08 -5.46193e-08 6.19342e-08
-2.29367e-09 1.0913e-08 2.40733e-08
-3.65234e-09 -1.12925e-08 2.53191e-08
-1.03944e-08 2.71759e-09 2.48512e-08
1.08754e-08 4.13584e-09 2.56064e-08
-3.24581e-08 5.55445e-08 6.22042e-08
5.20548e-08 -3.82937e-08 6.32677e-08
-9.20444e-08 2.4471e-08 7.82168e-08
-9.26888e-08 -2.42308e-08 7.83686e-08
4.20851e-09 -4.36082e-09 1.49798e-08
1.47997e-08 4.84765e-08 5.62574e-08
4.74671e-09 9.73041e-09 2.31277e-08
-8.53426e-09 -4.88671e-09 2.24266e-08
3.50502e-08 -8.73088e-08 6.94874e-08
1.58255e-08 -4.96455e-08 5.69501e-08
5.8187e-08 7.94322e-10 5.95045e-08
-1.55323e-08 -5.20607e-08 5.78646e-08
2.64614e-08 2.06978e-08 4.65411e-08
-8.51748e-08 5.10539e-08 7.9031e-08
-8.53094e-08 -5.11288e-08 7.90574e-08
-6.41512e-08 -7.94609e-08 7.29091e-08
-6.37951e-08 7.86666e-08 7.28479e-08
-1.49366e-08 5.27113e-08 5.81001e-08
6.24017e-08 2.39719e-08 6.40353e-08
-3.11861e-08 9.02606e-08 7.00343e-08
6.39349e-08 5.14589e-08 6.94689e-08
6.42793e-08 -5.19767e-08 6.95991e-08
6.56469e-08 -2.49421e-08 6.53563e-08
-4.74614e-09 5.00517e-09 1.64218e-08
-5.87381e-09 2.47197e-08 3.9822e-08
-6.04644e-09 -2.47484e-08 3.98351e-08
-2.16698e-08 5.78373e-09 3.92374e-08
-2.18499e-08 2.6153e-08 4.72573e-08
-2.13978e-08 -2.69133e-08 4.74264e-08
-4.42609e-08 -4.7247e-08 6.36598e-08
2.20724e-08 -2.19366e-08 4.46911e-08
-4.41215e-08 4.72784e-08 6.36146e-08
-6.48654e-08 6.48423e-08 7.29552e-08
-6.50361e-08 -6.50154e-08 7.29951e-08
-3.90114e-08 2.94291e-08 5.75083e-08
-3.97171e-08 -2.9231e-08 5.78042e-08
2.30756e-09 -8.6422e-09 2.06079e-08
8.27314e-09 -2.1848e-09 2.0299e-08
6.72072e-08 6.92772e-08 7.12884e-08
6.71757e-08 -6.92967e-08 7.12615e-08
4.67653e-09 1.12488e-07 7.82177e-08
2.16474e-09 -1.12575e-07 7.82526e-08
1.47791e-07 1.5441e-07 5.6747e-08
1.53386e-07 2.18821e-07 5.71333e-08
9.02786e-08 2.23001e-07 5.70922e-08
8.32778e-08 1.56632e-07 5.66356e-08
5.09854e-08 2.42266e-07 7.2992e-08
4.20929e-08 1.43611e-07 7.26883e-08
1.21034e-07 2.2734e-07 5.36746e-08
8.10601e-08 1.91638e-07 5.23178e-08
1.5449e-07 1.8647e-07 5.28153e-08
1.1514e-07 1.49278e-07 5.33287e-08
3.72276e-08 2.47482e-07 7.68486e-08
2.79098e-08 1.41988e-07 7.67444e-08
1.91937e-07 2.25173e-07 7.0675e-08
1.8278e-07 1.49657e-07 6.97725e-08
1.11355e-07 1.09887e-07 7.02041e-08
1.2231e-07 2.69479e-07 7.03327e-08
1.0057e-07 2.51602e-07 6.49991e-08
8.91942e-08 1.2695e-07 6.43668e-08
5.27115e-08 2.09045e-07 6.56814e-08
4.82747e-08 1.77012e-07 6.58689e-08
1.45855e-07 2.51719e-07 6.554e-08
1.38822e-07 1.22883e-07 6.49894e-08
1.29725e-07 1.72687e-07 4.23128e-08
1.33083e-07 2.02667e-07 4.27761e-08
1.05862e-07 2.01355e-07 4.1531e-08
1.03458e-07 1.75842e-07 4.10979e-08
3.4101e-08 2.59146e-07 7.82092e-08
2.3631e-08 1.31471e-07 7.81756e-08
7.4238e-08 2.46542e-07 6.78433e-08
6.35134e-08 1.3402e-07 6.7116e-08
1.87697e-07 1.97812e-07 6.66351e-08
1.82227e-07 1.73864e-07 6.56581e-08
6.24168e-08 1.61288e-07 6.3574e-08
6.84051e-08 2.21643e-07 6.38614e-08
1.21654e-07 9.16893e-08 7.53598e-08
1.33223e-07 2.8882e-07 7.51091e-08
1.72346e-07 2.41766e-07 6.77824e-08
1.63982e-07 1.34131e-07 6.64077e-08
1.23682e-07 2.08897e-07 4.32963e-08
1.12783e-07 1.67591e-07 4.27047e-08
9.72284e-08 1.86719e-07 4.26485e-08
1.3872e-07 1.86086e-07 4.34471e-08
3.28083e-08 2.28838e-07 7.40059e-08
2.59482e-08 1.60541e-07 7.39056e-08
1.6572e-07 2.06453e-07 5.93827e-08
2.00604e-07 2.43339e-07 7.45028e-08
1.92766e-07 1.30943e-07 7.47058e-08
1.61356e-07 1.70008e-07 5.836e-08
1.07297e-07 2.21716e-07 5.19986e-08
1.29853e-07 1.5478e-07 5.15047e-08
8.83259e-08 2.04477e-07 5.13218e-08
1.37358e-07 2.18285e-07 5.16282e-08
9.97576e-08 1.57237e-07 5.12696e-08
8.77763e-08 1.77025e-07 4.95332e-08
8.91004e-08 1.06198e-07 7.01809e-08
1.02587e-07 2.72669e-07 7.06719e-08
1.15107e-07 2.93134e-07 7.59302e-08
1.02075e-07 8.85099e-08 7.62141e-08
2.73475e-08 2.40594e-07 7.73943e-08
1.852e-08 1.50389e-07 7.73216e-08
3.38292e-08 1.94512e-07 6.81312e-08
2.17492e-07 2.30286e-07 7.65498e-08
2.11463e-07 1.44435e-07 7.72516e-08
1.38977e-07 2.70105e-07 7.05722e-08
1.29917e-07 1.07183e-07 7.03081e-08
1.46456e-07 1.97172e-07 4.88197e-08
1.20294e-07 1.28828e-07 6.29242e-08
1.28708e-07 2.48219e-07 6.33188e-08
1.1475e-07 2.50057e-07 6.38695e-08
1.0464e-07 1.28028e-07 6.34753e-08
6.96114e-08 1.17148e-07 6.78049e-08
8.32358e-08 2.60908e-07 6.88207e-08
1.98643e-07 1.64023e-07 7.13168e-08
2.04501e-07 2.11696e-07 7.15972e-08
4.88421e-08 2.56003e-07 7.48913e-08
3.78736e-08 1.30162e-07 7.45275e-08
6.80104e-08 1.77202e-07 5.89301e-08
4.44027e-08 1.60072e-07 6.97525e-08
5.08252e-08 2.2602e-07 6.99141e-08
2.42528e-08 2.59303e-07 7.95432e-08
2.52956e-08 2.51404e-07 7.90954e-08
1.37151e-08 1.33825e-07 7.96353e-08
1.51601e-08 1.4077e-07 7.90797e-08
1.42045e-07 1.74246e-07 4.81383e-08
1.65849e-07 2.56695e-07 6.88412e-08
1.58436e-07 1.14369e-07 6.80106e-08
6.61708e-08 2.36568e-07 6.79682e-08
5.76339e-08 1.46192e-07 6.75092e-08
1.34166e-07 3.02791e-07 7.75004e-08
1.21122e-07 7.91799e-08 7.80637e-08
7.09878e-08 2.06245e-07 5.91777e-08
5.91461e-08 1.93229e-07 6.17478e-08
1.96366e-07 1.82464e-07 6.84767e-08
2.15877e-07 2.48495e-07 7.75406e-08
2.07915e-07 1.27245e-07 7.82382e-08
1.53624e-07 2.34367e-07 6.17964e-08
1.44192e-07 1.37308e-07 6.11912e-08
1.66125e-07 1.5219e-07 6.38318e-08
8.21828e-08 1.40568e-07 6.14836e-08
9.2015e-08 2.3849e-07 6.21804e-08
1.16348e-07 2.00785e-07 3.72226e-08
1.20958e-07 1.74917e-07 3.75988e-08
1.30981e-07 1.92087e-07 3.77833e-08
1.05989e-07 1.92966e-07 3.75012e-08
1.716e-07 2.24373e-07 6.45451e-08
3.12888e-08 2.14195e-07 7.09447e-08
2.65569e-08 1.75172e-07 7.09258e-08
1.11385e-07 1.82932e-07 3.38881e-08
9.95012e-08 1.41728e-07 5.80971e-08
1.24234e-07 1.98701e-07 3.66572e-08
1.26933e-07 1.82528e-07 3.59029e-08
1.45844e-07 1.03024e-07 6.97527e-08
1.54094e-07 2.70603e-07 7.0338e-08
1.35964e-07 2.35327e-07 5.87571e-08
1.73461e-07 1.86215e-07 6.15414e-08
1.07406e-07 2.37302e-07 5.90814e-08
4.01917e-08 2.37383e-07 7.46239e-08
3.21383e-08 1.51034e-07 7.44801e-08
5.03387e-08 1.20907e-07 7.10178e-08
6.33301e-08 2.60546e-07 7.18367e-08
1.45126e-07 2.07278e-07 5.04085e-08
1.29452e-07 1.3913e-07 5.86531e-08
1.7582e-07 1.63514e-07 6.50872e-08
1.84682e-07 2.37335e-07 7.01837e-08
1.7767e-07 1.36813e-07 6.99207e-08
1.83428e-07 2.12058e-07 6.64599e-08
1.13024e-07 1.94511e-07 3.44526e-08
1.22018e-07 1.64069e-07 4.50738e-08
1.14486e-07 2.12293e-07 4.53675e-08
9.6532e-08 1.95297e-07 4.42716e-08
9.96072e-08 2.1326e-07 5.00211e-08
1.35056e-07 1.63452e-07 4.89312e-08
7.13925e-08 1.48978e-07 6.25042e-08
7.96684e-08 2.31701e-07 6.30192e-08
9.34684e-08 1.65413e-07 5.00268e-08
6.09176e-08 2.48199e-07 7.12427e-08
5.06034e-08 1.34975e-07 7.06907e-08
8.28969e-08 2.16143e-07 5.73336e-08
7.76999e-08 1.64899e-07 5.68699e-08
1.13405e-07 1.77255e-07 3.6025e-08
1.06465e-07 1.85761e-07 3.61815e-08
1.86799e-07 2.52998e-07 7.18476e-08
1.79067e-07 1.19654e-07 7.12853e-08
1.11023e-07 8.1058e-08 7.81225e-08
1.23865e-07 3.0167e-07 7.75465e-08
2.53909e-07 -2.98964e-08 5.6618e-08
2.54094e-07 3.13118e-08 5.71449e-08
1.8897e-07 3.31446e-08 5.66682e-08
1.88881e-07 -3.31017e-08 5.6729e-08
1.48573e-07 4.83937e-08 7.26519e-08
1.48473e-07 -4.83845e-08 7.26748e-08
2.20557e-07 3.77439e-08 5.35524e-08
1.82858e-07 -3.15155e-10 5.21849e-08
2.57545e-07 -1.22897e-09 5.22192e-08
2.20137e-07 -3.78401e-08 5.36436e-08
1.34513e-07 5.08645e-08 7.66685e-08
1.34387e-07 -5.08735e-08 7.66921e-08
2.93861e-07 -3.85901e-08 7.07077e-08
2.90284e-07 3.6914e-08 6.95765e-08
2.20604e-07 -7.79566e-08 7.04947e-08
2.24201e-07 7.77132e-08 7.05461e-08
2.45722e-07 5.93482e-08 6.51518e-08
1.97345e-07 -6.20389e-08 6.45334e-08
1.52731e-07 1.58051e-08 6.5421e-08
1.50776e-07 -1.58071e-08 6.5955e-08
2.45399e-07 -6.1751e-08 6.57823e-08
1.97703e-07 6.49218e-08 6.52089e-08
2.33426e-07 -1.16906e-08 4.07758e-08
2.34645e-07 1.43389e-08 4.27224e-08
2.05769e-07 1.27395e-08 4.19964e-08
2.06396e-07 -1.19995e-08 4.14205e-08
1.31129e-07 6.13722e-08 7.80904e-08
1.30984e-07 -6.13894e-08 7.81509e-08
1.71031e-07 5.66234e-08 6.71765e-08
1.7093e-07 -5.63976e-08 6.71904e-08
2.91636e-07 -1.12928e-08 6.65296e-08
2.88213e-07 1.28009e-08 6.55042e-08
1.67303e-07 -2.98577e-08 6.3545e-08
1.67385e-07 2.98903e-08 6.35181e-08
2.32701e-07 -9.62821e-08 7.56356e-08
2.15357e-07 9.67018e-08 7.54846e-08
2.72949e-07 -5.38324e-08 6.79316e-08
2.72935e-07 5.26221e-08 6.77043e-08
2.24292e-07 2.00182e-08 4.32434e-08
2.23546e-07 -1.97512e-08 4.29381e-08
1.9964e-07 3.37021e-09 4.28205e-08
2.41321e-07 -2.40303e-09 4.26244e-08
1.30744e-07 3.29176e-08 7.37602e-08
1.30675e-07 -3.29149e-08 7.37522e-08
2.6876e-07 -1.77279e-08 5.92412e-08
3.01558e-07 -5.69654e-08 7.45642e-08
3.01081e-07 5.64612e-08 7.44304e-08
2.65771e-07 1.77834e-08 5.79536e-08
2.05517e-07 3.31025e-08 5.22021e-08
2.06129e-07 -3.22949e-08 5.17809e-08
1.88646e-07 -1.41391e-08 5.11174e-08
2.37443e-07 -2.90904e-08 5.14302e-08
2.37982e-07 2.93341e-08 5.16119e-08
1.91042e-07 1.30353e-08 4.96797e-08
1.99262e-07 -8.25679e-08 7.02993e-08
2.4502e-07 7.96718e-08 7.09813e-08
2.34367e-07 9.96291e-08 7.65141e-08
2.14241e-07 -1.00235e-07 7.62848e-08
1.243e-07 4.32838e-08 7.71907e-08
1.24207e-07 -4.3287e-08 7.71823e-08
1.35249e-07 2.51931e-10 6.78267e-08
3.19222e-07 -4.47665e-08 7.65508e-08
3.19544e-07 4.41667e-08 7.66013e-08
2.38132e-07 -7.88929e-08 7.09311e-08
2.06583e-07 8.10054e-08 7.05833e-08
2.27492e-07 -5.78492e-08 6.34189e-08
2.15308e-07 5.84751e-08 6.31866e-08
2.48349e-07 9.25543e-09 4.81004e-08
2.30336e-07 5.87916e-08 6.39495e-08
2.12488e-07 -5.989e-08 6.37284e-08
2.646e-07 6.73073e-08 6.87535e-08
2.49274e-07 -1.34593e-08 4.96905e-08
1.78583e-07 -7.2523e-08 6.79135e-08
3.05539e-07 2.30656e-08 7.09197e-08
3.07396e-07 -2.57755e-08 7.15503e-08
1.45499e-07 6.17713e-08 7.45283e-08
1.45382e-07 -6.17391e-08 7.45487e-08
1.71113e-07 1.44439e-08 5.89752e-08
1.49244e-07 -3.22224e-08 6.96995e-08
1.49458e-07 3.22167e-08 6.96366e-08
1.20967e-07 5.96381e-08 7.94801e-08
1.21801e-07 5.28789e-08 7.89525e-08
1.20823e-07 -5.97037e-08 7.95597e-08
1.21663e-07 -5.28987e-08 7.89676e-08
2.65613e-07 -6.79275e-08 6.90602e-08
1.64009e-07 4.4911e-08 6.74979e-08
1.63913e-07 -4.48826e-08 6.75313e-08
2.34326e-07 -1.09839e-07 7.81482e-08
2.16817e-07 1.09333e-07 7.81285e-08
1.77631e-07 7.31747e-08 6.81438e-08
1.71585e-07 -1.39131e-08 5.86868e-08
1.60033e-07 1.21461e-09 6.17784e-08
3.01649e-07 3.94512e-09 6.82642e-08
2.55757e-07 4.67584e-08 6.26325e-08
3.16683e-07 -6.28059e-08 7.75802e-08
3.16713e-07 6.24958e-08 7.7603e-08
2.54383e-07 -4.62601e-08 6.21974e-08
2.71786e-07 3.53773e-08 6.38846e-08
1.89253e-07 -4.90718e-08 6.16596e-08
2.16206e-07 1.2262e-08 3.75663e-08
2.17237e-07 -1.16722e-08 3.71281e-08
2.33867e-07 4.34975e-09 3.79133e-08
2.07537e-07 -3.0651e-09 3.71929e-08
1.88983e-07 4.99704e-08 6.18778e-08
2.73112e-07 -3.66128e-08 6.45445e-08
1.30373e-07 1.89616e-08 7.06549e-08
1.29405e-07 -1.85903e-08 7.07306e-08
2.26279e-07 -5.21679e-09 3.40053e-08
2.34652e-07 4.45224e-08 5.81541e-08
2.2572e-07 1.02453e-08 3.65728e-08
2.10203e-07 4.75463e-09 3.60371e-08
2.53318e-07 -8.0417e-08 7.06977e-08
2.35645e-07 -4.5711e-08 5.88566e-08
2.77775e-07 7.05513e-10 6.13126e-08
2.05264e-07 -4.76964e-08 5.88055e-08
2.47213e-07 1.92357e-08 5.04604e-08
1.37938e-07 4.17817e-08 7.43883e-08
1.3782e-07 -4.17867e-08 7.44052e-08
1.59066e-07 6.92741e-08 7.09803e-08
1.58729e-07 -6.99309e-08 7.10914e-08
2.05835e-07 4.83058e-08 5.89545e-08
2.82906e-07 2.37655e-08 6.52182e-08
1.90386e-07 8.31919e-08 6.95361e-08
2.85752e-07 -5.01518e-08 7.02624e-08
2.85372e-07 4.94689e-08 7.00848e-08
2.86212e-07 -2.50326e-08 6.64365e-08
2.14202e-07 -5.27807e-09 3.43513e-08
2.14322e-07 2.31071e-08 4.51967e-08
2.14266e-07 -2.31042e-08 4.52766e-08
1.9781e-07 -5.12909e-09 4.4108e-08
1.99309e-07 2.40229e-08 4.97838e-08
1.99032e-07 -2.36194e-08 4.97917e-08
1.77566e-07 -4.13096e-08 6.25617e-08
2.42982e-07 -2.05518e-08 4.9282e-08
1.77632e-07 4.14723e-08 6.25527e-08
1.57949e-07 5.61767e-08 7.06771e-08
1.57806e-07 -5.62458e-08 7.07283e-08
1.82233e-07 -2.55188e-08 5.69863e-08
1.81657e-07 2.53054e-08 5.71399e-08
2.23858e-07 -1.03537e-08 3.62743e-08
2.31586e-07 -2.90753e-09 3.60196e-08
2.87048e-07 -6.578e-08 7.19747e-08
2.87044e-07 6.55438e-08 7.19357e-08
2.26892e-07 1.07974e-07 7.82335e-08
2.24277e-07 -1.0788e-07 7.81495e-08
1.52498e-07 -2.1934e-07 5.7e-08
1.48682e-07 -1.55029e-07 5.69441e-08
8.32593e-08 -1.56466e-07 5.66243e-08
9.01709e-08 -2.22911e-07 5.7072e-08
4.20604e-08 -1.43549e-07 7.26747e-08
5.09036e-08 -2.42224e-07 7.29864e-08
1.14322e-07 -1.49362e-07 5.32881e-08
8.07765e-08 -1.89697e-07 5.23036e-08
1.54503e-07 -1.87471e-07 5.28256e-08
1.21945e-07 -2.27351e-07 5.37025e-08
2.79138e-08 -1.41955e-07 7.67258e-08
3.71344e-08 -2.4744e-07 7.68332e-08
1.86223e-07 -1.48319e-07 7.09329e-08
1.88215e-07 -2.23767e-07 6.9604e-08
1.22229e-07 -2.69471e-07 7.03234e-08
1.14948e-07 -1.09777e-07 7.02049e-08
1.38994e-07 -1.2547e-07 6.44323e-08
1.00509e-07 -2.51443e-07 6.49911e-08
4.93212e-08 -1.76546e-07 6.55726e-08
5.14744e-08 -2.08761e-07 6.59666e-08
1.45788e-07 -2.51795e-07 6.54953e-08
8.9044e-08 -1.23816e-07 6.50793e-08
1.32694e-07 -2.02329e-07 4.24986e-08
1.29849e-07 -1.72297e-07 4.25988e-08
1.02528e-07 -1.76719e-07 4.13396e-08
1.06846e-07 -2.02081e-07 4.12948e-08
2.36467e-08 -1.31441e-07 7.81204e-08
3.40045e-08 -2.59097e-07 7.81933e-08
6.34209e-08 -1.33689e-07 6.7132e-08
7.41732e-08 -2.46479e-07 6.78349e-08
1.85762e-07 -1.75556e-07 6.67642e-08
1.84344e-07 -1.99465e-07 6.55661e-08
6.83365e-08 -2.21599e-07 6.38675e-08
6.23596e-08 -1.61226e-07 6.35484e-08
1.33136e-07 -2.88803e-07 7.50922e-08
1.03455e-07 -9.19098e-08 7.53507e-08
1.66042e-07 -1.30826e-07 6.74459e-08
1.7002e-07 -2.38398e-07 6.6759e-08
1.19217e-07 -1.6711e-07 4.30386e-08
1.17382e-07 -2.0909e-07 4.29823e-08
9.79452e-08 -1.92404e-07 4.26898e-08
1.38865e-07 -1.88393e-07 4.34692e-08
2.59188e-08 -1.60513e-07 7.39125e-08
3.2735e-08 -2.28803e-07 7.39907e-08
1.62447e-07 -1.67172e-07 5.93888e-08
1.93247e-07 -1.30631e-07 7.48553e-08
1.99972e-07 -2.43011e-07 7.44181e-08
1.64095e-07 -2.03686e-07 5.83817e-08
9.95624e-08 -1.55296e-07 5.21104e-08
1.35001e-07 -2.20261e-07 5.1844e-08
8.49786e-08 -1.75828e-07 5.11337e-08
1.32335e-07 -1.56772e-07 5.1227e-08
1.06416e-07 -2.20655e-07 5.16615e-08
9.07306e-08 -2.02984e-07 4.97023e-08
1.02493e-07 -2.72661e-07 7.06869e-08
1.37057e-07 -1.05248e-07 7.01977e-08
1.15017e-07 -2.93123e-07 7.59272e-08
1.2281e-07 -8.82022e-08 7.62258e-08
1.85075e-08 -1.50365e-07 7.7332e-08
2.72593e-08 -2.40554e-07 7.73661e-08
3.36801e-08 -1.93669e-07 6.813e-08
2.11138e-07 -1.43983e-07 7.72235e-08
2.17685e-07 -2.29848e-07 7.66407e-08
1.38888e-07 -2.70099e-07 7.05446e-08
9.64176e-08 -1.07474e-07 7.04173e-08
1.445e-07 -1.77028e-07 4.87675e-08
1.28638e-07 -2.48205e-07 6.32736e-08
1.0748e-07 -1.29175e-07 6.29263e-08
1.23045e-07 -1.27489e-07 6.34811e-08
1.14669e-07 -2.5007e-07 6.38846e-08
1.58323e-07 -1.15247e-07 6.78379e-08
8.31572e-08 -2.6083e-07 6.88263e-08
2.02384e-07 -2.09195e-07 7.1007e-08
2.00307e-07 -1.61501e-07 7.19765e-08
3.78504e-08 -1.30067e-07 7.45176e-08
4.87562e-08 -2.55953e-07 7.48831e-08
7.09407e-08 -2.05546e-07 5.90743e-08
5.06614e-08 -2.25973e-07 6.99395e-08
4.44504e-08 -1.60005e-07 6.97128e-08
1.37376e-08 -1.33854e-07 7.9559e-08
1.51831e-08 -1.40758e-07 7.90677e-08
2.41467e-08 -2.59253e-07 7.95204e-08
2.51882e-08 -2.51356e-07 7.90689e-08
1.44377e-07 -2.0001e-07 4.82496e-08
1.64714e-07 -2.57269e-07 6.87884e-08
5.7576e-08 -1.46098e-07 6.74939e-08
6.60977e-08 -2.36517e-07 6.79647e-08
1.34079e-07 -3.02773e-07 7.74866e-08
1.03219e-07 -7.93425e-08 7.80423e-08
6.84455e-08 -1.16407e-07 6.80499e-08
6.77812e-08 -1.76503e-07 5.9018e-08
5.88749e-08 -1.91224e-07 6.1738e-08
1.96994e-07 -1.90297e-07 6.84293e-08
1.47496e-07 -1.39674e-07 6.11511e-08
2.07933e-07 -1.27075e-07 7.82662e-08
2.15759e-07 -2.48356e-07 7.76093e-08
1.50087e-07 -2.36408e-07 6.16518e-08
1.71067e-07 -2.21067e-07 6.39089e-08
9.1865e-08 -2.38218e-07 6.2118e-08
1.13016e-07 -1.75879e-07 3.70302e-08
1.23963e-07 -2.00905e-07 3.78006e-08
1.29771e-07 -1.8293e-07 3.77258e-08
1.0481e-07 -1.85117e-07 3.74401e-08
8.17001e-08 -1.39355e-07 6.18051e-08
1.66221e-07 -1.48928e-07 6.4445e-08
2.70357e-08 -1.74823e-07 7.08793e-08
3.06442e-08 -2.13919e-07 7.09879e-08
1.13143e-07 -1.94139e-07 3.39888e-08
1.08327e-07 -2.36191e-07 5.85632e-08
1.28227e-07 -1.41417e-07 5.77392e-08
1.21366e-07 -1.77072e-07 3.64795e-08
1.28212e-07 -1.92691e-07 3.59957e-08
1.53804e-07 -2.7077e-07 7.03462e-08
1.73464e-07 -1.87362e-07 6.15575e-08
3.21346e-08 -1.50996e-07 7.44698e-08
4.00933e-08 -2.37345e-07 7.46153e-08
5.05672e-08 -1.2147e-07 7.09254e-08
6.32515e-08 -2.60483e-07 7.18341e-08
1.41592e-07 -1.66958e-07 5.02637e-08
1.36042e-07 -2.36288e-07 5.90593e-08
9.86533e-08 -1.39941e-07 5.88025e-08
1.79479e-07 -2.09931e-07 6.5005e-08
8.01155e-08 -1.05719e-07 6.93991e-08
1.78161e-07 -1.3565e-07 7.0177e-08
1.83986e-07 -2.36105e-07 6.99578e-08
1.79361e-07 -1.61439e-07 6.66124e-08
1.11046e-07 -1.82617e-07 3.43476e-08
1.2655e-07 -2.11677e-07 4.53613e-08
1.09096e-07 -1.64697e-07 4.50703e-08
9.50107e-08 -1.84033e-07 4.41887e-08
1.39055e-07 -2.11184e-07 4.91755e-08
9.38237e-08 -1.6576e-07 4.96586e-08
7.95843e-08 -2.31634e-07 6.30137e-08
9.88279e-08 -2.13385e-07 5.03458e-08
7.1303e-08 -1.48735e-07 6.25177e-08
5.05999e-08 -1.34969e-07 7.06566e-08
6.08415e-08 -2.48146e-07 7.12374e-08
7.73605e-08 -1.64616e-07 5.70039e-08
8.30258e-08 -2.15849e-07 5.71837e-08
1.16288e-07 -1.99438e-07 3.62044e-08
1.07348e-07 -1.92078e-07 3.62298e-08
1.81089e-07 -1.18836e-07 7.17884e-08
1.85442e-07 -2.52264e-07 7.16204e-08
1.13416e-07 -8.09908e-08 7.81181e-08
1.23778e-07 -3.01655e-07 7.7538e-08
-6.09878e-08 -2.34547e-07 5.68716e-08
-7.05457e-08 -1.68466e-07 5.8158e-08
-1.41441e-07 -1.85619e-07 6.062e-08
-1.23388e-07 -2.54081e-07 5.78272e-08
-1.64186e-07 -2.80346e-07 7.3343e-08
-1.91257e-07 -1.8158e-07 7.82461e-08
-1.08146e-07 -1.70147e-07 5.59578e-08
-1.3675e-07 -2.22562e-07 5.43383e-08
-6.16653e-08 -2.03195e-07 5.23167e-08
-9.09675e-08 -2.5106e-07 5.41124e-08
-1.794e-07 -2.87177e-07 7.69091e-08
-2.08769e-07 -1.83583e-07 8.22244e-08
-3.59928e-08 -1.60812e-07 6.99793e-08
-2.25741e-08 -2.37616e-07 7.11915e-08
-8.52733e-08 -2.93783e-07 7.07342e-08
-1.13312e-07 -1.28144e-07 7.44211e-08
-1.37727e-07 -1.51639e-07 7.01139e-08
-1.09398e-07 -2.80117e-07 6.54351e-08
-1.62876e-07 -2.47071e-07 6.74096e-08
-1.73893e-07 -2.14261e-07 6.94733e-08
-8.35165e-08 -1.3771e-07 6.69904e-08
-6.40595e-08 -2.7125e-07 6.60272e-08
-8.3292e-08 -2.19064e-07 4.09375e-08
-8.85068e-08 -1.90544e-07 4.34677e-08
-1.17091e-07 -2.03173e-07 4.33347e-08
-1.10051e-07 -2.29609e-07 4.30423e-08
-1.81663e-07 -2.98677e-07 7.8069e-08
-2.17396e-07 -1.74473e-07 8.49653e-08
-1.38061e-07 -2.80482e-07 6.82693e-08
-1.67832e-07 -1.66222e-07 7.37401e-08
-2.54007e-08 -2.09529e-07 6.63387e-08
-3.26039e-08 -1.85907e-07 6.54031e-08
-1.46491e-07 -2.57192e-07 6.48382e-08
-1.63226e-07 -1.95158e-07 6.76255e-08
-1.02734e-07 -1.06739e-07 7.89777e-08
-7.21954e-08 -3.11741e-07 7.54984e-08
-4.00847e-08 -2.5689e-07 6.84324e-08
-5.64415e-08 -1.46172e-07 6.73438e-08
-1.00749e-07 -1.87695e-07 4.46613e-08
-9.08254e-08 -2.30959e-07 4.33059e-08
-1.18855e-07 -2.2188e-07 4.43199e-08
-7.77658e-08 -2.07111e-07 4.27957e-08
-1.83574e-07 -2.69452e-07 7.47994e-08
-2.02873e-07 -2.02408e-07 7.80812e-08
-4.81684e-08 -2.18877e-07 5.93514e-08
-2.82805e-08 -1.39914e-07 7.51115e-08
-1.41504e-08 -2.56214e-07 7.53993e-08
-5.71915e-08 -1.83674e-07 5.77798e-08
-1.22464e-07 -1.80867e-07 5.47876e-08
-1.05627e-07 -2.48823e-07 5.25568e-08
-1.35564e-07 -2.06223e-07 5.37829e-08
-7.62714e-08 -2.37355e-07 5.16945e-08
-8.7624e-08 -1.73616e-07 5.27608e-08
-1.25126e-07 -2.34106e-07 5.11393e-08
-1.04729e-07 -3.00513e-07 7.10647e-08
-1.38061e-07 -1.28964e-07 7.72646e-08
-8.977e-08 -3.18697e-07 7.62917e-08
-1.23438e-07 -1.06527e-07 8.21952e-08
-1.90486e-07 -2.81516e-07 7.75437e-08
-2.16095e-07 -1.945e-07 8.19158e-08
-1.82337e-07 -2.34892e-07 7.0976e-08
8.95039e-10 -2.42191e-07 7.73261e-08
-9.02333e-09 -1.52599e-07 7.73117e-08
-9.36512e-08 -1.22213e-07 7.30787e-08
-6.86706e-08 -2.91564e-07 7.10176e-08
-1.02887e-07 -1.46876e-07 6.59232e-08
-8.12208e-08 -2.70847e-07 6.37442e-08
-7.32685e-08 -1.93509e-07 4.83862e-08
-1.20012e-07 -1.49377e-07 6.76894e-08
-9.50246e-08 -2.75599e-07 6.42964e-08
-6.78393e-08 -2.17576e-07 4.98252e-08
-1.26394e-07 -2.92783e-07 6.92032e-08
-1.61699e-07 -1.46428e-07 7.61742e-08
-1.71416e-08 -1.74487e-07 7.09247e-08
-9.32391e-09 -2.23157e-07 7.16387e-08
-1.65292e-07 -2.93955e-07 7.49916e-08
-2.00064e-07 -1.6916e-07 8.17388e-08
-1.44971e-07 -2.40868e-07 6.0794e-08
-1.64712e-07 -2.64575e-07 7.08187e-08
-1.83214e-07 -1.97568e-07 7.40051e-08
-1.93172e-07 -2.99822e-07 7.92735e-08
-1.93404e-07 -2.9203e-07 7.88904e-08
-2.28218e-07 -1.79628e-07 8.59173e-08
-2.24224e-07 -1.86279e-07 8.43287e-08
-6.34605e-08 -1.2613e-07 6.93445e-08
-4.43858e-08 -2.73319e-07 6.94681e-08
-1.479e-07 -2.72308e-07 6.8524e-08
-1.72515e-07 -1.80434e-07 7.28826e-08
-6.96943e-08 -3.25859e-07 7.78684e-08
-1.03497e-07 -9.3352e-08 8.19387e-08
-1.52571e-07 -2.1101e-07 6.17577e-08
-1.58723e-07 -2.29994e-07 6.4382e-08
-1.6115e-08 -1.93562e-07 6.782e-08
-1.41161e-08 -1.34393e-07 7.85893e-08
-9.8139e-11 -2.61149e-07 7.85987e-08
-5.81342e-08 -2.52328e-07 6.25277e-08
-7.48832e-08 -1.51506e-07 6.29878e-08
-5.09109e-08 -1.63954e-07 6.50077e-08
-1.19904e-07 -2.68993e-07 6.27021e-08
-1.44774e-07 -1.68272e-07 6.67595e-08
-1.06159e-07 -1.99066e-07 3.85492e-08
-9.96677e-08 -2.25568e-07 3.81616e-08
-8.70021e-08 -2.01407e-07 3.8322e-08
-1.12809e-07 -2.12502e-07 3.85917e-08
-4.21959e-08 -2.38353e-07 6.49181e-08
-1.83974e-07 -2.55203e-07 7.26884e-08
-1.95947e-07 -2.17056e-07 7.46238e-08
-9.16797e-08 -2.13988e-07 3.42049e-08
-9.6962e-08 -1.97272e-07 3.75926e-08
-1.07752e-07 -2.20096e-07 3.70926e-08
-5.36999e-08 -2.89687e-07 7.08618e-08
-7.70631e-08 -1.15753e-07 7.17333e-08
-7.54113e-08 -2.55955e-07 5.9163e-08
-9.15725e-08 -1.5651e-07 6.07115e-08
-4.12234e-08 -1.99074e-07 6.11888e-08
-1.26356e-07 -1.64559e-07 6.27559e-08
-1.03914e-07 -2.64375e-07 5.95533e-08
-7.63114e-08 -1.83073e-07 5.09852e-08
-1.7615e-07 -2.77079e-07 7.50355e-08
-2.0031e-07 -1.91369e-07 7.92615e-08
-1.482e-07 -2.96193e-07 7.20875e-08
-1.85983e-07 -1.56009e-07 7.97452e-08
-4.01267e-08 -1.74788e-07 6.55581e-08
-4.27834e-08 -1.47993e-07 7.03236e-08
-2.90376e-08 -2.50871e-07 7.08675e-08
-3.04221e-08 -2.24311e-07 6.66037e-08
-1.06988e-07 -2.07707e-07 3.55997e-08
-1.11904e-07 -1.87952e-07 4.73361e-08
-9.91618e-08 -2.37387e-07 4.58715e-08
-1.23355e-07 -2.13292e-07 4.60078e-08
-1.28025e-07 -1.92732e-07 5.26591e-08
-1.14467e-07 -2.42256e-07 5.07498e-08
-1.33799e-07 -2.64902e-07 6.3668e-08
-1.56113e-07 -1.80173e-07 6.74176e-08
-7.26742e-08 -2.26584e-07 4.94765e-08
-1.52571e-07 -2.8451e-07 7.15662e-08
-1.83325e-07 -1.70627e-07 7.73466e-08
-1.46051e-07 -1.95735e-07 6.05147e-08
-1.3242e-07 -2.48639e-07 5.84768e-08
-9.26752e-08 -2.20497e-07 3.63658e-08
-8.72878e-08 -2.0988e-07 3.62345e-08
-4.16141e-08 -1.2909e-07 7.21376e-08
-2.55828e-08 -2.67037e-07 7.26721e-08
-1.13991e-07 -9.70496e-08 8.31178e-08
-8.0137e-08 -3.26044e-07 7.79014e-08
-2.04662e-07 -5.44129e-08 8.93968e-08
-3.22556e-07 6.37386e-08 9.35496e-08
-2.04767e-07 5.65702e-08 8.93495e-08
-3.22663e-07 -6.3752e-08 9.3551e-08
-3.79823e-07 8.04538e-08 9.53436e-08
-3.7984e-07 -8.05061e-08 9.53421e-08
-2.62722e-07 7.53688e-08 9.13943e-08
-3.38458e-07 1.91016e-09 9.39615e-08
-1.95224e-07 -2.19461e-09 8.93297e-08
-2.63463e-07 -7.54883e-08 9.14115e-08
-3.98275e-07 8.36654e-08 9.58781e-08
-3.98292e-07 -8.37118e-08 9.58769e-08
-1.58578e-07 5.33666e-08 8.83551e-08
-1.54677e-07 -5.47238e-08 8.82519e-08
-2.58058e-07 -1.26938e-07 9.10655e-08
-2.52565e-07 1.26121e-07 9.07312e-08
-2.19633e-07 9.91945e-08 8.87109e-08
-2.98785e-07 -1.06771e-07 9.2771e-08
-3.77264e-07 2.97373e-08 9.49663e-08
-3.78704e-07 -2.91307e-08 9.49925e-08
-2.20002e-07 -1.0259e-07 8.85495e-08
-2.97413e-07 1.10564e-07 9.27282e-08
-2.34576e-07 -2.95027e-08 9.05616e-08
-2.98439e-07 3.03795e-08 9.27812e-08
-2.33232e-07 3.42268e-08 9.05018e-08
-2.99427e-07 -3.16207e-08 9.28146e-08
-4.01707e-07 9.68071e-08 9.5981e-08
-4.0173e-07 -9.68518e-08 9.598e-08
-3.4486e-07 9.46829e-08 9.42429e-08
-3.44962e-07 -9.44383e-08 9.42448e-08
-1.52765e-07 -1.62762e-08 8.73582e-08
-1.57267e-07 1.90305e-08 8.76207e-08
-3.56443e-07 5.46206e-08 9.45664e-08
-3.56454e-07 -5.46809e-08 9.45659e-08
-2.39099e-07 -1.45911e-07 8.94943e-08
-2.63023e-07 1.49828e-07 9.14821e-08
-1.80842e-07 -8.27196e-08 8.76123e-08
-1.80886e-07 8.11211e-08 8.77146e-08
-2.55881e-07 4.77019e-08 9.1254e-08
-2.57368e-07 -4.71884e-08 9.13024e-08
-3.12912e-07 -8.15103e-09 9.32446e-08
-2.19155e-07 -5.649e-09 9.00983e-08
-4.02923e-07 5.81231e-08 9.56942e-08
-4.02933e-07 -5.81698e-08 9.56924e-08
-1.81974e-07 -2.97457e-08 8.89372e-08
-1.47802e-07 -7.60763e-08 8.77602e-08
-1.48366e-07 7.57248e-08 8.77831e-08
-1.85938e-07 3.06481e-08 8.90538e-08
-2.92822e-07 6.71598e-08 9.25533e-08
-2.91761e-07 -6.61148e-08 9.25129e-08
-3.28433e-07 2.98018e-08 9.37009e-08
-2.30966e-07 -5.92167e-08 9.02228e-08
-2.30044e-07 5.9277e-08 9.02014e-08
-3.25042e-07 -2.79319e-08 9.35977e-08
-2.89813e-07 -1.3352e-07 9.25255e-08
-2.20731e-07 1.24721e-07 8.78337e-08
-2.63847e-07 -1.54268e-07 9.15371e-08
-2.36645e-07 1.4931e-07 8.92444e-08
-4.10762e-07 7.35534e-08 9.6034e-08
-4.10776e-07 -7.35972e-08 9.6033e-08
-3.98766e-07 7.21132e-10 9.52163e-08
-1.28235e-07 -5.75481e-08 8.7541e-08
-1.27768e-07 5.68801e-08 8.74894e-08
-2.31166e-07 -1.25091e-07 8.89273e-08
-2.7908e-07 1.31492e-07 9.21286e-08
-2.48852e-07 -1.01288e-07 9.05581e-08
-2.69394e-07 1.03099e-07 9.16269e-08
-2.09134e-07 1.91728e-08 8.97861e-08
-2.44125e-07 1.02006e-07 9.02906e-08
-2.73893e-07 -1.04867e-07 9.18127e-08
-1.91552e-07 1.04501e-07 8.62363e-08
-2.08256e-07 -2.70068e-08 8.97482e-08
-3.2711e-07 -1.17658e-07 9.36063e-08
-1.38613e-07 3.18594e-08 8.67698e-08
-1.37141e-07 -3.53316e-08 8.67564e-08
-3.82302e-07 9.77051e-08 9.542e-08
-3.82326e-07 -9.77567e-08 9.54188e-08
-3.53207e-07 -2.73206e-08 9.43823e-08
-3.80159e-07 5.72384e-08 9.52278e-08
-3.80274e-07 -5.72422e-08 9.52288e-08
-4.13755e-07 9.45671e-08 9.62223e-08
-4.13587e-07 8.58872e-08 9.61961e-08
-4.13777e-07 -9.46084e-08 9.62215e-08
-4.13605e-07 -8.59292e-08 9.61952e-08
-1.90017e-07 -1.04865e-07 8.61635e-08
-3.58566e-07 7.71164e-08 9.46932e-08
-3.58593e-07 -7.7155e-08 9.46921e-08
-2.36259e-07 -1.59859e-07 8.8917e-08
-2.58993e-07 1.64622e-07 9.1235e-08
-3.28575e-07 1.18271e-07 9.36426e-08
-3.53245e-07 2.85095e-08 9.4386e-08
-3.67784e-07 1.81067e-09 9.46889e-08
-1.39795e-07 5.64884e-09 8.58342e-08
-2.03835e-07 7.94902e-08 8.8613e-08
-1.32168e-07 7.79537e-08 8.7514e-08
-1.32193e-07 -7.82162e-08 8.7505e-08
-2.05747e-07 -7.92599e-08 8.87128e-08
-1.81069e-07 5.67894e-08 8.87411e-08
-3.16925e-07 -8.77174e-08 9.33677e-08
-2.73059e-07 3.23896e-08 9.19105e-08
-2.75917e-07 -3.26591e-08 9.20094e-08
-2.32809e-07 1.1484e-08 9.04948e-08
-2.97861e-07 8.15082e-09 9.28121e-08
-3.17212e-07 8.88814e-08 9.338e-08
-1.79418e-07 -5.81138e-08 8.86793e-08
-4.03806e-07 3.51653e-08 9.54478e-08
-4.04459e-07 -3.47595e-08 9.54502e-08
-2.48669e-07 -1.63547e-08 9.10232e-08
-2.37369e-07 8.21509e-08 9.01736e-08
-2.51036e-07 2.88299e-08 9.1126e-08
-2.92892e-07 -1.40483e-08 9.26665e-08
-2.08059e-07 -1.23905e-07 8.63148e-08
-2.35629e-07 -8.3676e-08 9.0037e-08
-1.6902e-07 1.19433e-09 8.81949e-08
-2.88981e-07 -8.8228e-08 9.24117e-08
-2.12807e-07 3.85184e-08 8.98154e-08
-3.94246e-07 7.13531e-08 9.56781e-08
-3.94275e-07 -7.13944e-08 9.5677e-08
-3.60301e-07 1.09312e-07 9.46467e-08
-3.60529e-07 -1.10202e-07 9.46462e-08
-2.87938e-07 8.90554e-08 9.2374e-08
-1.65257e-07 3.63477e-08 8.832e-08
-3.03815e-07 1.33401e-07 9.28841e-08
-1.65156e-07 -7.28723e-08 8.79231e-08
-1.65608e-07 7.20755e-08 8.79691e-08
-1.61465e-07 -3.74316e-08 8.82209e-08
-2.8302e-07 1.72364e-08 9.23194e-08
-2.77599e-07 -5.28859e-08 9.20224e-08
-2.77603e-07 5.28107e-08 9.20265e-08
-3.15256e-07 1.24494e-08 9.33093e-08
-3.08789e-07 4.97962e-08 9.30999e-08
-3.07581e-07 -5.09936e-08 9.30588e-08
-3.38646e-07 -7.41411e-08 9.40645e-08
-2.19665e-07 -4.25025e-08 9.0003e-08
-3.38605e-07 7.42557e-08 9.40657e-08
-3.6516e-07 9.18802e-08 9.48906e-08
-3.65242e-07 -9.20379e-08 9.4891e-08
-3.35596e-07 4.96199e-08 9.39384e-08
-3.36457e-07 -4.90997e-08 9.39626e-08
-2.56345e-07 -2.82151e-08 9.13138e-08
-2.37181e-07 -7.9866e-09 9.06219e-08
-1.62996e-07 9.2592e-08 8.61426e-08
-1.62953e-07 -9.28116e-08 8.61372e-08
-2.49976e-07 -1.60931e-07 9.05154e-08
-2.464e-07 1.60036e-07 9.01726e-08
-7.13041e-08 1.7067e-07 5.70641e-08
-6.05174e-08 2.36246e-07 5.74999e-08
-1.23161e-07 2.53895e-07 5.77686e-08
-1.41485e-07 1.85455e-07 6.0691e-08
-1.91308e-07 1.81485e-07 7.82881e-08
-1.64057e-07 2.80246e-07 7.33472e-08
-9.05585e-08 2.5081e-07 5.41129e-08
-1.36502e-07 2.23204e-07 5.43222e-08
-6.20247e-08 2.00762e-07 5.22943e-08
-1.08056e-07 1.70017e-07 5.59343e-08
-2.08845e-07 1.83481e-07 8.2273e-08
-1.79273e-07 2.87086e-07 7.69142e-08
-2.59655e-08 2.36397e-07 7.00456e-08
-3.26849e-08 1.59096e-07 7.10766e-08
-1.13197e-07 1.28064e-07 7.43958e-08
-8.2002e-08 2.92982e-07 7.07538e-08
-6.41162e-08 2.68682e-07 6.54801e-08
-1.37654e-07 1.51506e-07 7.01353e-08
-1.72032e-07 2.13724e-07 6.89599e-08
-1.64619e-07 2.4749e-07 6.7952e-08
-8.34129e-08 1.37706e-07 6.69174e-08
-1.08495e-07 2.82645e-07 6.61639e-08
-8.92789e-08 1.93648e-07 4.12776e-08
-8.14128e-08 2.21878e-07 4.30722e-08
-1.09226e-07 2.2852e-07 4.23294e-08
-1.18119e-07 2.02437e-07 4.41156e-08
-2.17499e-07 1.74365e-07 8.50296e-08
-1.81539e-07 2.98579e-07 7.80772e-08
-1.67822e-07 1.66106e-07 7.37939e-08
-1.37875e-07 2.80536e-07 6.83019e-08
-2.84823e-08 1.87399e-07 6.63198e-08
-2.88503e-08 2.11565e-07 6.54161e-08
-1.63252e-07 1.95046e-07 6.76828e-08
-1.46362e-07 2.57075e-07 6.48098e-08
-1.02616e-07 1.06675e-07 7.89515e-08
-8.91158e-08 3.14847e-07 7.55203e-08
-5.46809e-08 1.42386e-07 6.8235e-08
-4.02403e-08 2.55793e-07 6.82485e-08
-9.00457e-08 2.30998e-07 4.37294e-08
-1.01248e-07 1.88142e-07 4.4256e-08
-1.21002e-07 2.14728e-07 4.46365e-08
-7.88027e-08 2.01972e-07 4.28281e-08
-2.02934e-07 2.02338e-07 7.81249e-08
-1.83437e-07 2.69378e-07 7.47963e-08
-5.37963e-08 1.82361e-07 5.93501e-08
-1.45867e-08 2.55948e-07 7.52768e-08
-2.78095e-08 1.39571e-07 7.5197e-08
-5.10328e-08 2.19494e-07 5.81162e-08
-1.0607e-07 2.4955e-07 5.30736e-08
-1.22425e-07 1.80666e-07 5.48198e-08
-1.27122e-07 2.35748e-07 5.25287e-08
-8.81332e-08 1.74356e-07 5.23559e-08
-7.57091e-08 2.37576e-07 5.19938e-08
-1.32919e-07 2.06673e-07 5.23227e-08
-1.37968e-07 1.28848e-07 7.72708e-08
-6.1979e-08 2.91041e-07 7.11026e-08
-7.04431e-08 3.1512e-07 7.63195e-08
-1.2333e-07 1.06437e-07 8.21842e-08
-2.16161e-07 1.94413e-07 8.19657e-08
-1.90363e-07 2.81429e-07 7.75455e-08
-1.82434e-07 2.34314e-07 7.10172e-08
-9.42478e-09 1.52259e-07 7.72686e-08
1.28309e-09 2.41745e-07 7.73467e-08
-9.35347e-08 1.2217e-07 7.30302e-08
-9.81076e-08 2.98483e-07 7.11416e-08
-1.0277e-07 1.46822e-07 6.58631e-08
-9.25776e-08 2.73672e-07 6.3756e-08
-6.9432e-08 2.1327e-07 4.82883e-08
-7.84969e-08 2.71341e-07 6.43075e-08
-1.19913e-07 1.49262e-07 6.76776e-08
-4.54165e-08 2.73072e-07 6.9192e-08
-7.30575e-08 1.88916e-07 4.99571e-08
-1.6164e-07 1.463e-07 7.62218e-08
-1.10174e-08 2.20602e-07 7.09443e-08
-1.59498e-08 1.7177e-07 7.15968e-08
-2.00104e-07 1.69066e-07 8.17773e-08
-1.65166e-07 2.93856e-07 7.50006e-08
-1.53252e-07 2.10488e-07 6.21546e-08
-1.8311e-07 1.97449e-07 7.4e-08
-1.64725e-07 2.64534e-07 7.08589e-08
-2.28341e-07 1.79537e-07 8.60049e-08
-2.24315e-07 1.86193e-07 8.43923e-08
-1.93047e-07 2.99732e-07 7.92793e-08
-1.93279e-07 2.91941e-07 7.88945e-08
-6.22736e-08 1.26504e-07 6.92562e-08
-1.72538e-07 1.80321e-07 7.29334e-08
-1.47759e-07 2.72194e-07 6.85167e-08
-1.03382e-07 9.32837e-08 8.19196e-08
-8.76004e-08 3.28731e-07 7.78856e-08
-1.27248e-07 2.9351e-07 6.95007e-08
-1.44453e-07 2.40116e-07 6.0474e-08
-1.59365e-07 2.27393e-07 6.45149e-08
-1.49635e-08 2.01576e-07 6.7816e-08
-5.6756e-08 2.5274e-07 6.30427e-08
-6.59255e-11 2.61022e-07 7.86233e-08
-1.41174e-08 1.34327e-07 7.84958e-08
-7.26257e-08 1.52494e-07 6.2774e-08
-4.34716e-08 2.37411e-07 6.4293e-08
-1.4475e-07 1.68129e-07 6.68059e-08
-9.84982e-08 2.24676e-07 3.77532e-08
-1.07312e-07 1.99077e-07 3.90055e-08
-8.45731e-08 2.10934e-07 3.81806e-08
-1.10708e-07 2.19083e-07 3.83433e-08
-1.19965e-07 2.69735e-07 6.29714e-08
-5.28863e-08 1.61687e-07 6.48518e-08
-1.95255e-07 2.1638e-07 7.46126e-08
-1.84762e-07 2.54942e-07 7.27678e-08
-9.50453e-08 2.02524e-07 3.44917e-08
-7.65048e-08 2.54988e-07 5.85537e-08
-9.06695e-08 2.19951e-07 3.7069e-08
-1.11112e-07 2.09907e-07 3.75167e-08
-7.67187e-08 1.15803e-07 7.16145e-08
-9.22863e-08 1.57273e-07 6.03318e-08
-4.0924e-08 2.00472e-07 6.11935e-08
-1.26287e-07 1.64403e-07 6.27718e-08
-6.87245e-08 2.24401e-07 5.07399e-08
-2.00348e-07 1.91275e-07 7.92982e-08
-1.76045e-07 2.77002e-07 7.50431e-08
-1.85951e-07 1.55903e-07 7.97998e-08
-1.4801e-07 2.95391e-07 7.20486e-08
-1.03218e-07 2.64679e-07 5.9769e-08
-3.36351e-08 2.23518e-07 6.53977e-08
-1.13216e-07 3.01369e-07 7.06053e-08
-4.21213e-08 1.46432e-07 7.06443e-08
-2.94277e-08 2.50372e-07 7.07153e-08
-3.74538e-08 1.73633e-07 6.65485e-08
-1.02842e-07 2.19182e-07 3.51415e-08
-9.90722e-08 2.37154e-07 4.58838e-08
-1.11844e-07 1.87736e-07 4.73431e-08
-1.20011e-07 2.24148e-07 4.55562e-08
-1.14787e-07 2.41815e-07 5.07176e-08
-1.27936e-07 1.92475e-07 5.26864e-08
-1.56144e-07 1.80029e-07 6.74876e-08
-8.09773e-08 1.82429e-07 4.98035e-08
-1.33628e-07 2.64864e-07 6.36622e-08
-1.83344e-07 1.70521e-07 7.73948e-08
-1.52408e-07 2.84291e-07 7.15581e-08
-1.31628e-07 2.48541e-07 5.82381e-08
-1.46673e-07 1.96042e-07 6.07719e-08
-9.88187e-08 1.98265e-07 3.69253e-08
-8.88477e-08 2.03585e-07 3.63374e-08
-2.55861e-08 2.66999e-07 7.26634e-08
-4.10112e-08 1.28645e-07 7.21918e-08
-7.76909e-08 3.25563e-07 7.79242e-08
-1.1388e-07 9.69705e-08 8.31028e-08
3.31887e-08 -3.20208e-08 -5.41019e-08
3.35089e-08 3.38304e-08 -5.4859e-08
-3.21971e-08 3.74359e-08 -5.64176e-08
-3.24039e-08 -3.75179e-08 -5.65297e-08
-7.45409e-08 -5.73646e-08 -7.59727e-08
-7.44161e-08 5.72829e-08 -7.59451e-08
3.09381e-10 4.10402e-08 -5.11355e-08
-3.77132e-08 1.06217e-09 -5.21956e-08
3.68436e-08 -1.16675e-09 -4.86903e-08
-1.10838e-10 -4.0988e-08 -5.11255e-08
-8.90513e-08 6.15222e-08 -8.08967e-08
-8.9172e-08 -6.15974e-08 -8.09146e-08
6.87817e-08 3.72755e-08 -6.89704e-08
7.21479e-08 -3.86005e-08 -7.01938e-08
1.46087e-10 -8.28378e-08 -7.0147e-08
3.90654e-09 8.26858e-08 -7.01092e-08
2.65837e-08 6.45511e-08 -6.38488e-08
-2.3869e-08 -6.76382e-08 -6.45558e-08
-6.91542e-08 1.95084e-08 -7.00546e-08
-7.04247e-08 -1.91994e-08 -7.05389e-08
2.64246e-08 -6.70328e-08 -6.44331e-08
-2.35491e-08 7.06283e-08 -6.53044e-08
1.20475e-08 -1.20906e-08 -3.17466e-08
1.37149e-08 1.52477e-08 -3.53407e-08
-1.34453e-08 1.3185e-08 -3.42251e-08
-1.42607e-08 -1.4068e-08 -3.54849e-08
-9.29111e-08 7.32435e-08 -8.18387e-08
-9.30306e-08 -7.33131e-08 -8.18555e-08
-5.12306e-08 6.41208e-08 -6.86188e-08
-5.1358e-08 -6.39625e-08 -6.86168e-08
7.27054e-08 -1.07829e-08 -6.52883e-08
6.88471e-08 1.25605e-08 -6.4238e-08
-5.45791e-08 -3.52296e-08 -6.58817e-08
-5.44184e-08 3.51356e-08 -6.58156e-08
1.19021e-08 -1.00889e-07 -7.53519e-08
-6.15763e-09 1.0204e-07 -7.55383e-08
5.2678e-08 -5.75777e-08 -6.68306e-08
5.26217e-08 5.64361e-08 -6.66818e-08
3.84116e-09 2.13394e-08 -3.64763e-08
2.94123e-09 -2.06975e-08 -3.56456e-08
-2.0133e-08 -3.78771e-09 -3.7348e-08
1.94761e-08 -2.33825e-09 -3.46298e-08
-9.20658e-08 4.13972e-08 -8.00026e-08
-9.21753e-08 -4.14681e-08 -8.00185e-08
4.82596e-08 -1.81164e-08 -5.72425e-08
7.85389e-08 5.68961e-08 -7.44329e-08
7.89466e-08 -5.71685e-08 -7.45447e-08
4.5142e-08 1.84297e-08 -5.58057e-08
-1.50194e-08 3.63423e-08 -5.00703e-08
-1.44014e-08 -3.55041e-08 -4.94124e-08
-3.18621e-08 1.62265e-08 -5.00531e-08
1.70258e-08 -3.15541e-08 -4.79346e-08
1.76408e-08 3.19892e-08 -4.8284e-08
-2.96187e-08 -1.49089e-08 -4.80986e-08
-2.21086e-08 -8.87552e-08 -7.05618e-08
2.61852e-08 8.58003e-08 -6.99965e-08
1.3463e-08 1.04469e-07 -7.62315e-08
-7.39615e-09 -1.05646e-07 -7.64351e-08
-9.92053e-08 5.40713e-08 -8.31541e-08
-9.93151e-08 -5.41439e-08 -8.31613e-08
-8.70346e-08 4.85835e-10 -7.54993e-08
9.60399e-08 -4.32506e-08 -7.68705e-08
9.64932e-08 4.28918e-08 -7.6912e-08
1.88289e-08 -8.41848e-08 -7.01178e-08
-1.46057e-08 8.66812e-08 -7.06575e-08
7.6091e-09 -6.22808e-08 -6.22856e-08
-5.11771e-09 6.30883e-08 -6.24773e-08
2.70463e-08 9.74799e-09 -4.32682e-08
1.06064e-08 6.35389e-08 -6.28704e-08
-8.07264e-09 -6.45631e-08 -6.31257e-08
4.6245e-08 7.39349e-08 -6.7438e-08
2.83413e-08 -1.42083e-08 -4.54445e-08
-4.34094e-08 -8.02131e-08 -6.87915e-08
8.59049e-08 2.23303e-08 -7.02367e-08
8.73784e-08 -2.48659e-08 -7.09514e-08
-7.79556e-08 7.20613e-08 -7.73635e-08
-7.8074e-08 -7.21305e-08 -7.73841e-08
-5.00232e-08 -1.6703e-08 -6.10285e-08
-7.31445e-08 -3.91754e-08 -7.3817e-08
-7.29265e-08 3.91159e-08 -7.3742e-08
-1.03041e-07 7.22979e-08 -8.4115e-08
-1.02002e-07 6.48617e-08 -8.42742e-08
-1.03159e-07 -7.23688e-08 -8.41283e-08
-1.02119e-07 -6.49331e-08 -8.4285e-08
4.72811e-08 -7.43167e-08 -6.76873e-08
-5.83323e-08 5.21149e-08 -6.96746e-08
-5.84752e-08 -5.21892e-08 -6.97177e-08
-5.3781e-09 1.14924e-07 -7.82633e-08
1.23743e-08 -1.13809e-07 -7.81018e-08
-4.4394e-08 8.09667e-08 -6.9122e-08
-4.99837e-08 1.73812e-08 -6.10568e-08
-6.0654e-08 1.14077e-09 -6.53924e-08
8.43721e-08 3.87892e-09 -6.70247e-08
3.59208e-08 5.10419e-08 -6.11008e-08
9.30318e-08 6.10414e-08 -7.81889e-08
9.29424e-08 -6.11005e-08 -7.81044e-08
3.4518e-08 -5.03121e-08 -6.05218e-08
5.08313e-08 3.72073e-08 -6.26124e-08
-3.21921e-08 -5.46193e-08 -6.19342e-08
-2.29367e-09 1.0913e-08 -2.40733e-08
-3.65234e-09 -1.12925e-08 -2.53191e-08
-1.03944e-08 2.71759e-09 -2.48512e-08
1.08754e-08 4.13584e-09 -2.56064e-08
-3.24581e-08 5.55445e-08 -6.22042e-08
5.20548e-08 -3.82937e-08 -6.32677e-08
-9.20444e-08 2.4471e-08 -7.82168e-08
-9.26888e-08 -2.42308e-08 -7.83686e-08
4.20851e-09 -4.36082e-09 -1.49798e-08
1.47997e-08 4.84765e-08 -5.62574e-08
4.74671e-09 9.73041e-09 -2.31277e-08
-8.53426e-09 -4.88671e-09 -2.24266e-08
3.50502e-08 -8.73088e-08 -6.94874e-08
1.58255e-08 -4.96455e-08 -5.69501e-08
5.8187e-08 7.94322e-10 -5.95045e-08
-1.55323e-08 -5.20607e-08 -5.78646e-08
2.64614e-08 2.06978e-08 -4.65411e-08
-8.51748e-08 5.10539e-08 -7.9031e-08
-8.53094e-08 -5.11288e-08 -7.90574e-08
-6.41512e-08 -7.94609e-08 -7.29091e-08
-6.37951e-08 7.86666e-08 -7.28479e-08
-1.49366e-08 5.27113e-08 -5.81001e-08
6.24017e-08 2.39719e-08 -6.40353e-08
-3.11861e-08 9.02606e-08 -7.00343e-08
6.39349e-08 5.14589e-08 -6.94689e-08
6.42793e-08 -5.19767e-08 -6.95991e-08
6.56469e-08 -2.49421e-08 -6.53563e-08
-4.74614e-09 5.00517e-09 -1.64218e-08
-5.87381e-09 2.47197e-08 -3.9822e-08
-6.04644e-09 -2.47484e-08 -3.98351e-08
-2.16698e-08 5.78373e-09 -3.92374e-08
-2.18499e-08 2.6153e-08 -4.72573e-08
-2.13978e-08 -2.69133e-08 -4.74264e-08
-4.42609e-08 -4.7247e-08 -6.36598e-08
2.20724e-08 -2.19366e-08 -4.46911e-08
-4.41215e-08 4.72784e-08 -6.36146e-08
-6.48654e-08 6.48423e-08 -7.29552e-08
-6.50361e-08 -6.50154e-08 -7.29951e-08
-3.90114e-08 2.94291e-08 -5.75083e-08
-3.97171e-08 -2.9231e-08 -5.78042e-08
2.30756e-09 -8.6422e-09 -2.06079e-08
8.27314e-09 -2.1848e-09 -2.0299e-08
6.72072e-08 6.92772e-08 -7.12884e-08
6.71757e-08 -6.92967e-08 -7.12615e-08
4.67653e-09 1.12488e-07 -7.82177e-08
2.16474e-09 -1.12575e-07 -7.82526e-08
1.47791e-07 1.5441e-07 -5.6747e-08
1.53386e-07 2.18821e-07 -5.71333e-08
9.02786e-08 2.23001e-07 -5.70922e-08
8.32778e-08 1.56632e-07 -5.66356e-08
5.09854e-08 2.42266e-07 -7.2992e-08
4.20929e-08 1.43611e-07 -7.26883e-08
1.21034e-07 2.2734e-07 -5.36746e-08
8.10601e-08 1.91638e-07 -5.23178e-08
1.5449e-07 1.8647e-07 -5.28153e-08
1.1514e-07 1.49278e-07 -5.33287e-08
3.72276e-08 2.47482e-07 -7.68486e-08
2.79098e-08 1.41988e-07 -7.67444e-08
1.91937e-07 2.25173e-07 -7.0675e-08
1.8278e-07 1.49657e-07 -6.97725e-08
1.11355e-07 1.09887e-07 -7.02041e-08
1.2231e-07 2.69479e-07 -7.03327e-08
1.0057e-07 2.51602e-07 -6.49991e-08
8.91942e-08 1.2695e-07 -6.43668e-08
5.27115e-08 2.09045e-07 -6.56814e-08
4.82747e-08 1.77012e-07 -6.58689e-08
1.45855e-07 2.51719e-07 -6.554e-08
1.38822e-07 1.22883e-07 -6.49894e-08
1.29725e-07 1.72687e-07 -4.23128e-08
1.33083e-07 2.02667e-07 -4.27761e-08
1.05862e-07 2.01355e-07 -4.1531e-08
1.03458e-07 1.75842e-07 -4.10979e-08
3.4101e-08 2.59146e-07 -7.82092e-08
2.3631e-08 1.31471e-07 -7.81756e-08
7.4238e-08 2.46542e-07 -6.78433e-08
6.35134e-08 1.3402e-07 -6.7116e-08
1.87697e-07 1.97812e-07 -6.66351e-08
1.82227e-07 1.73864e-07 -6.56581e-08
6.24168e-08 1.61288e-07 -6.3574e-08
6.84051e-08 2.21643e-07 -6.38614e-08
1.21654e-07 9.16893e-08 -7.53598e-08
1.33223e-07 2.8882e-07 -7.51091e-08
1.72346e-07 2.41766e-07 -6.77824e-08
1.63982e-07 1.34131e-07 -6.64077e-08
1.23682e-07 2.08897e-07 -4.32963e-08
1.12783e-07 1.67591e-07 -4.27047e-08
9.72284e-08 1.86719e-07 -4.26485e-08
1.3872e-07 1.86086e-07 -4.34471e-08
3.28083e-08 2.28838e-07 -7.40059e-08
2.59482e-08 1.60541e-07 -7.39056e-08
1.6572e-07 2.06453e-07 -5.93827e-08
2.00604e-07 2.43339e-07 -7.45028e-08
1.92766e-07 1.30943e-07 -7.47058e-08
1.61356e-07 1.70008e-07 -5.836e-08
1.07297e-07 2.21716e-07 -5.19986e-08
1.29853e-07 1.5478e-07 -5.15047e-08
8.83259e-08 2.04477e-07 -5.13218e-08
1.37358e-07 2.18285e-07 -5.16282e-08
9.97576e-08 1.57237e-07 -5.12696e-08
8.77763e-08 1.77025e-07 -4.95332e-08
8.91004e-08 1.06198e-07 -7.01809e-08
1.02587e-07 2.72669e-07 -7.06719e-08
1.15107e-07 2.93134e-07 -7.59302e-08
1.02075e-07 8.85099e-08 -7.62141e-08
2.73475e-08 2.40594e-07 -7.73943e-08
1.852e-08 1.50389e-07 -7.73216e-08
3.38292e-08 1.94512e-07 -6.81312e-08
2.17492e-07 2.30286e-07 -7.65498e-08
2.11463e-07 1.44435e-07 -7.72516e-08
1.38977e-07 2.70105e-07 -7.05722e-08
1.29917e-07 1.07183e-07 -7.03081e-08
1.46456e-07 1.97172e-07 -4.88197e-08
1.20294e-07 1.28828e-07 -6.29242e-08
1.28708e-07 2.48219e-07 -6.33188e-08
1.1475e-07 2.50057e-07 -6.38695e-08
1.0464e-07 1.28028e-07 -6.34753e-08
6.96114e-08 1.17148e-07 -6.78049e-08
8.32358e-08 2.60908e-07 -6.88207e-08
1.98643e-07 1.64023e-07 -7.13168e-08
2.04501e-07 2.11696e-07 -7.15972e-08
4.88421e-08 2.56003e-07 -7.48913e-08
3.78736e-08 1.30162e-07 -7.45275e-08
6.80104e-08 1.77202e-07 -5.89301e-08
4.44027e-08 1.60072e-07 -6.97525e-08
5.08252e-08 2.2602e-07 -6.99141e-08
2.42528e-08 2.59303e-07 -7.95432e-08
2.52956e-08 2.51404e-07 -7.90954e-08
1.37151e-08 1.33825e-07 -7.96353e-08
1.51601e-08 1.4077e-07 -7.90797e-08
1.42045e-07 1.74246e-07 -4.81383e-08
1.65849e-07 2.56695e-07 -6.88412e-08
1.58436e-07 1.14369e-07 -6.80106e-08
6.61708e-08 2.36568e-07 -6.79682e-08
5.76339e-08 1.46192e-07 -6.75092e-08
1.34166e-07 3.02791e-07 -7.75004e-08
1.21122e-07 7.91799e-08 -7.80637e-08
7.09878e-08 2.06245e-07 -5.91777e-08
5.91461e-08 1.93229e-07 -6.17478e-08
1.96366e-07 1.82464e-07 -6.84767e-08
2.15877e-07 2.48495e-07 -7.75406e-08
2.07915e-07 1.27245e-07 -7.82382e-08
1.53624e-07 2.34367e-07 -6.17964e-08
1.44192e-07 1.37308e-07 -6.11912e-08
1.66125e-07 1.5219e-07 -6.38318e-08
8.21828e-08 1.40568e-07 -6.14836e-08
9.2015e-08 2.3849e-07 -6.21804e-08
1.16348e-07 2.00785e-07 -3.72226e-08
1.20958e-07 1.74917e-07 -3.75988e-08
1.30981e-07 1.92087e-07 -3.77833e-08
1.05989e-07 1.92966e-07 -3.75012e-08
1.716e-07 2.24373e-07 -6.45451e-08
3.12888e-08 2.14195e-07 -7.09447e-08
2.65569e-08 1.75172e-07 -7.09258e-08
1.11385e-07 1.82932e-07 -3.38881e-08
9.95012e-08 1.41728e-07 -5.80971e-08
1.24234e-07 1.98701e-07 -3.66572e-08
1.26933e-07 1.82528e-07 -3.59029e-08
1.45844e-07 1.03024e-07 -6.97527e-08
1.54094e-07 2.70603e-07 -7.0338e-08
1.35964e-07 2.35327e-07 -5.87571e-08
1.73461e-07 1.86215e-07 -6.15414e-08
1.07406e-07 2.37302e-07 -5.90814e-08
4.01917e-08 2.37383e-07 -7.46239e-08
3.21383e-08 1.51034e-07 -7.44801e-08
5.03387e-08 1.20907e-07 -7.10178e-08
6.33301e-08 2.60546e-07 -7.18367e-08
1.45126e-07 2.07278e-07 -5.04085e-08
1.29452e-07 1.3913e-07 -5.86531e-08
1.7582e-07 1.63514e-07 -6.50872e-08
1.84682e-07 2.37335e-07 -7.01837e-08
1.7767e-07 1.36813e-07 -6.99207e-08
1.83428e-07 2.12058e-07 -6.64599e-08
1.13024e-07 1.94511e-07 -3.44526e-08
1.22018e-07 1.64069e-07 -4.50738e-08
1.14486e-07 2.12293e-07 -4.53675e-08
9.6532e-08 1.95297e-07 -4.42716e-08
9.96072e-08 2.1326e-07 -5.00211e-08
1.35056e-07 1.63452e-07 -4.89312e-08
7.13925e-08 1.48978e-07 -6.25042e-08
7.96684e-08 2.31701e-07 -6.30192e-08
9.34684e-08 1.65413e-07 -5.00268e-08
6.09176e-08 2.48199e-07 -7.12427e-08
5.06034e-08 1.34975e-07 -7.06907e-08
8.28969e-08 2.16143e-07 -5.73336e-08
7.76999e-08 1.64899e-07 -5.68699e-08
1.13405e-07 1.77255e-07 -3.6025e-08
1.06465e-07 1.85761e-07 -3.61815e-08
1.86799e-07 2.52998e-07 -7.18476e-08
1.79067e-07 1.19654e-07 -7.12853e-08
1.11023e-07 8.1058e-08 -7.81225e-08
1.23865e-07 3.0167e-07 -7.75465e-08
2.53909e-07 -2.98964e-08 -5.6618e-08
2.54094e-07 3.13118e-08 -5.71449e-08
1.8897e-07 3.31446e-08 -5.66682e-08
1.88881e-07 -3.31017e-08 -5.6729e-08
1.48573e-07 4.83937e-08 -7.26519e-08
1.48473e-07 -4.83845e-08 -7.26748e-08
2.20557e-07 3.77439e-08 -5.35524e-08
1.82858e-07 -3.15155e-10 -5.21849e-08
2.57545e-07 -1.22897e-09 -5.22192e-08
2.20137e-07 -3.78401e-08 -5.36436e-08
1.34513e-07 5.08645e-08 -7.66685e-08
1.34387e-07 -5.08735e-08 -7.66921e-08
2.93861e-07 -3.85901e-08 -7.07077e-08
2.90284e-07 3.6914e-08 -6.95765e-08
2.20604e-07 -7.79566e-08 -7.04947e-08
2.24201e-07 7.77132e-08 -7.05461e-08
2.45722e-07 5.93482e-08 -6.51518e-08
1.97345e-07 -6.20389e-08 -6.45334e-08
1.52731e-07 1.58051e-08 -6.5421e-08
1.50776e-07 -1.58071e-08 -6.5955e-08
2.45399e-07 -6.1751e-08 -6.57823e-08
1.97703e-07 6.49218e-08 -6.52089e-08
2.33426e-07 -1.16906e-08 -4.07758e-08
2.34645e-07 1.43389e-08 -4.27224e-08
2.05769e-07 1.27395e-08 -4.19964e-08
2.06396e-07 -1.19995e-08 -4.14205e-08
1.31129e-07 6.13722e-08 -7.80904e-08
1.30984e-07 -6.13894e-08 -7.81509e-08
1.71031e-07 5.66234e-08 -6.71765e-08
1.7093e-07 -5.63976e-08 -6.71904e-08
2.91636e-07 -1.12928e-08 -6.65296e-08
2.88213e-07 1.28009e-08 -6.55042e-08
1.67303e-07 -2.98577e-08 -6.3545e-08
1.67385e-07 2.98903e-08 -6.35181e-08
2.32701e-07 -9.62821e-08 -7.56356e-08
2.15357e-07 9.67018e-08 -7.54846e-08
2.72949e-07 -5.38324e-08 -6.79316e-08
2.72935e-07 5.26221e-08 -6.77043e-08
2.24292e-07 2.00182e-08 -4.32434e-08
2.23546e-07 -1.97512e-08 -4.29381e-08
1.9964e-07 3.37021e-09 -4.28205e-08
2.41321e-07 -2.40303e-09 -4.26244e-08
1.30744e-07 3.29176e-08 -7.37602e-08
1.30675e-07 -3.29149e-08 -7.37522e-08
2.6876e-07 -1.77279e-08 -5.92412e-08
3.01558e-07 -5.69654e-08 -7.45642e-08
3.01081e-07 5.64612e-08 -7.44304e-08
2.65771e-07 1.77834e-08 -5.79536e-08
2.05517e-07 3.31025e-08 -5.22021e-08
2.06129e-07 -3.22949e-08 -5.17809e-08
1.88646e-07 -1.41391e-08 -5.11174e-08
2.37443e-07 -2.90904e-08 -5.14302e-08
2.37982e-07 2.93341e-08 -5.16119e-08
1.91042e-07 1.30353e-08 -4.96797e-08
1.99262e-07 -8.25679e-08 -7.02993e-08
2.4502e-07 7.96718e-08 -7.09813e-08
2.34367e-07 9.96291e-08 -7.65141e-08
2.14241e-07 -1.00235e-07 -7.62848e-08
1.243e-07 4.32838e-08 -7.71907e-08
1.24207e-07 -4.3287e-08 -7.71823e-08
1.35249e-07 2.51931e-10 -6.78267e-08
3.19222e-07 -4.47665e-08 -7.65508e-08
3.19544e-07 4.41667e-08 -7.66013e-08
2.38132e-07 -7.88929e-08 -7.09311e-08
2.06583e-07 8.10054e-08 -7.05833e-08
2.27492e-07 -5.78492e-08 -6.34189e-08
2.15308e-07 5.84751e-08 -6.31866e-08
2.48349e-07 9.25543e-09 -4.81004e-08
2.30336e-07 5.87916e-08 -6.39495e-08
2.12488e-07 -5.989e-08 -6.37284e-08
2.646e-07 6.73073e-08 -6.87535e-08
2.49274e-07 -1.34593e-08 -4.96905e-08
1.78583e-07 -7.2523e-08 -6.79135e-08
3.05539e-07 2.30656e-08 -7.09197e-08
3.07396e-07 -2.57755e-08 -7.15503e-08
1.45499e-07 6.17713e-08 -7.45283e-08
1.45382e-07 -6.17391e-08 -7.45487e-08
1.71113e-07 1.44439e-08 -5.89752e-08
1.49244e-07 -3.22224e-08 -6.96995e-08
1.49458e-07 3.22167e-08 -6.96366e-08
1.20967e-07 5.96381e-08 -7.94801e-08
1.21801e-07 5.28789e-08 -7.89525e-08
1.20823e-07 -5.97037e-08 -7.95597e-08
1.21663e-07 -5.28987e-08 -7.89676e-08
2.65613e-07 -6.79275e-08 -6.90602e-08
1.64009e-07 4.4911e-08 -6.74979e-08
1.63913e-07 -4.48826e-08 -6.75313e-08
2.34326e-07 -1.09839e-07 -7.81482e-08
2.16817e-07 1.09333e-07 -7.81285e-08
1.77631e-07 7.31747e-08 -6.81438e-08
1.71585e-07 -1.39131e-08 -5.86868e-08
1.60033e-07 1.21461e-09 -6.17784e-08
3.01649e-07 3.94512e-09 -6.82642e-08
2.55757e-07 4.67584e-08 -6.26325e-08
3.16683e-07 -6.28059e-08 -7.75802e-08
3.16713e-07 6.24958e-08 -7.7603e-08
2.54383e-07 -4.62601e-08 -6.21974e-08
2.71786e-07 3.53773e-08 -6.38846e-08
1.89253e-07 -4.90718e-08 -6.16596e-08
2.16206e-07 1.2262e-08 -3.75663e-08
2.17237e-07 -1.16722e-08 -3.71281e-08
2.33867e-07 4.34975e-09 -3.79133e-08
2.07537e-07 -3.0651e-09 -3.71929e-08
1.88983e-07 4.99704e-08 -6.18778e-08
2.73112e-07 -3.66128e-08 -6.45445e-08
1.30373e-07 1.89616e-08 -7.06549e-08
1.29405e-07 -1.85903e-08 -7.07306e-08
2.26279e-07 -5.21679e-09 -3.40053e-08
2.34652e-07 4.45224e-08 -5.81541e-08
2.2572e-07 1.02453e-08 -3.65728e-08
2.10203e-07 4.75463e-09 -3.60371e-08
2.53318e-07 -8.0417e-08 -7.06977e-08
2.35645e-07 -4.5711e-08 -5.88566e-08
2.77775e-07 7.05513e-10 -6.13126e-08
2.05264e-07 -4.76964e-08 -5.88055e-08
2.47213e-07 1.92357e-08 -5.04604e-08
1.37938e-07 4.17817e-08 -7.43883e-08
1.3782e-07 -4.17867e-08 -7.44052e-08
1.59066e-07 6.92741e-08 -7.09803e-08
1.58729e-07 -6.99309e-08 -7.10914e-08
2.05835e-07 4.83058e-08 -5.89545e-08
2.82906e-07 2.37655e-08 -6.52182e-08
1.90386e-07 8.31919e-08 -6.95361e-08
2.85752e-07 -5.01518e-08 -7.02624e-08
2.85372e-07 4.94689e-08 -7.00848e-08
2.86212e-07 -2.50326e-08 -6.64365e-08
2.14202e-07 -5.27807e-09 -3.43513e-08
2.14322e-07 2.31071e-08 -4.51967e-08
2.14266e-07 -2.31042e-08 -4.52766e-08
1.9781e-07 -5.12909e-09 -4.4108e-08
1.99309e-07 2.40229e-08 -4.97838e-08
1.99032e-07 -2.36194e-08 -4.97917e-08
1.77566e-07 -4.13096e-08 -6.25617e-08
2.42982e-07 -2.05518e-08 -4.9282e-08
1.77632e-07 4.14723e-08 -6.25527e-08
1.57949e-07 5.61767e-08 -7.06771e-08
1.57806e-07 -5.62458e-08 -7.07283e-08
1.82233e-07 -2.55188e-08 -5.69863e-08
1.81657e-07 2.53054e-08 -5.71399e-08
2.23858e-07 -1.03537e-08 -3.62743e-08
2.31586e-07 -2.90753e-09 -3.60196e-08
2.87048e-07 -6.578e-08 -7.19747e-08
2.87044e-07 6.55438e-08 -7.19357e-08
2.26892e-07 1.07974e-07 -7.82335e-08
2.24277e-07 -1.0788e-07 -7.81495e-08
1.52498e-07 -2.1934e-07 -5.7e-08
1.48682e-07 -1.55029e-07 -5.69441e-08
8.32593e-08 -1.56466e-07 -5.66243e-08
9.01709e-08 -2.22911e-07 -5.7072e-08
4.20604e-08 -1.43549e-07 -7.26747e-08
5.09036e-08 -2.42224e-07 -7.29864e-08
1.14322e-07 -1.49362e-07 -5.32881e-08
8.07765e-08 -1.89697e-07 -5.23036e-08
1.54503e-07 -1.87471e-07 -5.28256e-08
1.21945e-07 -2.27351e-07 -5.37025e-08
2.79138e-08 -1.41955e-07 -7.67258e-08
3.71344e-08 -2.4744e-07 -7.68332e-08
1.86223e-07 -1.48319e-07 -7.09329e-08
1.88215e-07 -2.23767e-07 -6.9604e-08
1.22229e-07 -2.69471e-07 -7.03234e-08
1.14948e-07 -1.09777e-07 -7.02049e-08
1.38994e-07 -1.2547e-07 -6.44323e-08
1.00509e-07 -2.51443e-07 -6.49911e-08
4.93212e-08 -1.76546e-07 -6.55726e-08
5.14744e-08 -2.08761e-07 -6.59666e-08
1.45788e-07 -2.51795e-07 -6.54953e-08
8.9044e-08 -1.23816e-07 -6.50793e-08
1.32694e-07 -2.02329e-07 -4.24986e-08
1.29849e-07 -1.72297e-07 -4.25988e-08
1.02528e-07 -1.76719e-07 -4.13396e-08
1.06846e-07 -2.02081e-07 -4.12948e-08
2.36467e-08 -1.31441e-07 -7.81204e-08
3.40045e-08 -2.59097e-07 -7.81933e-08
6.34209e-08 -1.33689e-07 -6.7132e-08
7.41732e-08 -2.46479e-07 -6.78349e-08
1.85762e-07 -1.75556e-07 -6.67642e-08
1.84344e-07 -1.99465e-07 -6.55661e-08
6.83365e-08 -2.21599e-07 -6.38675e-08
6.23596e-08 -1.61226e-07 -6.35484e-08
1.33136e-07 -2.88803e-07 -7.50922e-08
1.03455e-07 -9.19098e-08 -7.53507e-08
1.66042e-07 -1.30826e-07 -6.74459e-08
1.7002e-07 -2.38398e-07 -6.6759e-08
1.19217e-07 -1.6711e-07 -4.30386e-08
1.17382e-07 -2.0909e-07 -4.29823e-08
9.79452e-08 -1.92404e-07 -4.26898e-08
1.38865e-07 -1.88393e-07 -4.34692e-08
2.59188e-08 -1.60513e-07 -7.39125e-08
3.2735e-08 -2.28803e-07 -7.39907e-08
1.62447e-07 -1.67172e-07 -5.93888e-08
1.93247e-07 -1.30631e-07 -7.48553e-08
1.99972e-07 -2.43011e-07 -7.44181e-08
1.64095e-07 -2.03686e-07 -5.83817e-08
9.95624e-08 -1.55296e-07 -5.21104e-08
1.35001e-07 -2.20261e-07 -5.1844e-08
8.49786e-08 -1.75828e-07 -5.11337e-08
1.32335e-07 -1.56772e-07 -5.1227e-08
1.06416e-07 -2.20655e-07 -5.16615e-08
9.07306e-08 -2.02984e-07 -4.97023e-08
1.02493e-07 -2.72661e-07 -7.06869e-08
1.37057e-07 -1.05248e-07 -7.01977e-08
1.15017e-07 -2.93123e-07 -7.59272e-08
1.2281e-07 -8.82022e-08 -7.62258e-08
1.85075e-08 -1.50365e-07 -7.7332e-08
2.72593e-08 -2.40554e-07 -7.73661e-08
3.36801e-08 -1.93669e-07 -6.813e-08
2.11138e-07 -1.43983e-07 -7.72235e-08
2.17685e-07 -2.29848e-07 -7.66407e-08
1.38888e-07 -2.70099e-07 -7.05446e-08
9.64176e-08 -1.07474e-07 -7.04173e-08
1.445e-07 -1.77028e-07 -4.87675e-08
1.28638e-07 -2.48205e-07 -6.32736e-08
1.0748e-07 -1.29175e-07 -6.29263e-08
1.23045e-07 -1.27489e-07 -6.34811e-08
1.14669e-07 -2.5007e-07 -6.38846e-08
1.58323e-07 -1.15247e-07 -6.78379e-08
8.31572e-08 -2.6083e-07 -6.88263e-08
2.02384e-07 -2.09195e-07 -7.1007e-08
2.00307e-07 -1.61501e-07 -7.19765e-08
3.78504e-08 -1.30067e-07 -7.45176e-08
4.87562e-08 -2.55953e-07 -7.48831e-08
7.09407e-08 -2.05546e-07 -5.90743e-08
5.06614e-08 -2.25973e-07 -6.99395e-08
4.44504e-08 -1.60005e-07 -6.97128e-08
1.37376e-08 -1.33854e-07 -7.9559e-08
1.51831e-08 -1.40758e-07 -7.90677e-08
2.41467e-08 -2.59253e-07 -7.95204e-08
2.51882e-08 -2.51356e-07 -7.90689e-08
1.44377e-07 -2.0001e-07 -4.82496e-08
1.64714e-07 -2.57269e-07 -6.87884e-08
5.7576e-08 -1.46098e-07 -6.74939e-08
6.60977e-08 -2.36517e-07 -6.79647e-08
1.34079e-07 -3.02773e-07 -7.74866e-08
1.03219e-07 -7.93425e-08 -7.80423e-08
6.84455e-08 -1.16407e-07 -6.80499e-08
6.77812e-08 -1.76503e-07 -5.9018e-08
5.88749e-08 -1.91224e-07 -6.1738e-08
1.96994e-07 -1.90297e-07 -6.84293e-08
1.47496e-07 -1.39674e-07 -6.11511e-08
2.07933e-07 -1.27075e-07 -7.82662e-08
2.15759e-07 -2.48356e-07 -7.76093e-08
1.50087e-07 -2.36408e-07 -6.16518e-08
1.71067e-07 -2.21067e-07 -6.39089e-08
9.1865e-08 -2.38218e-07 -6.2118e-08
1.13016e-07 -1.75879e-07 -3.70302e-08
1.23963e-07 -2.00905e-07 -3.78006e-08
1.29771e-07 -1.8293e-07 -3.77258e-08
1.0481e-07 -1.85117e-07 -3.74401e-08
8.17001e-08 -1.39355e-07 -6.18051e-08
1.66221e-07 -1.48928e-07 -6.4445e-08
2.70357e-08 -1.74823e-07 -7.08793e-08
3.06442e-08 -2.13919e-07 -7.09879e-08
1.13143e-07 -1.94139e-07 -3.39888e-08
1.08327e-07 -2.36191e-07 -5.85632e-08
1.28227e-07 -1.41417e-07 -5.77392e-08
1.21366e-07 -1.77072e-07 -3.64795e-08
1.28212e-07 -1.92691e-07 -3.59957e-08
1.53804e-07 -2.7077e-07 -7.03462e-08
1.73464e-07 -1.87362e-07 -6.15575e-08
3.21346e-08 -1.50996e-07 -7.44698e-08
4.00933e-08 -2.37345e-07 -7.46153e-08
5.05672e-08 -1.2147e-07 -7.09254e-08
6.32515e-08 -2.60483e-07 -7.18341e-08
1.41592e-07 -1.66958e-07 -5.02637e-08
1.36042e-07 -2.36288e-07 -5.90593e-08
9.86533e-08 -1.39941e-07 -5.88025e-08
1.79479e-07 -2.09931e-07 -6.5005e-08
8.01155e-08 -1.05719e-07 -6.93991e-08
1.78161e-07 -1.3565e-07 -7.0177e-08
1.83986e-07 -2.36105e-07 -6.99578e-08
1.79361e-07 -1.61439e-07 -6.66124e-08
1.11046e-07 -1.82617e-07 -3.43476e-08
1.2655e-07 -2.11677e-07 -4.53613e-08
1.09096e-07 -1.64697e-07 -4.50703e-08
9.50107e-08 -1.84033e-07 -4.41887e-08
1.39055e-07 -2.11184e-07 -4.91755e-08
9.38237e-08 -1.6576e-07 -4.96586e-08
7.95843e-08 -2.31634e-07 -6.30137e-08
9.88279e-08 -2.13385e-07 -5.03458e-08
7.1303e-08 -1.48735e-07 -6.25177e-08
5.05999e-08 -1.34969e-07 -7.06566e-08
6.08415e-08 -2.48146e-07 -7.12374e-08
7.73605e-08 -1.64616e-07 -5.70039e-08
8.30258e-08 -2.15849e-07 -5.71837e-08
1.16288e-07 -1.99438e-07 -3.62044e-08
1.07348e-07 -1.92078e-07 -3.62298e-08
1.81089e-07 -1.18836e-07 -7.17884e-08
1.85442e-07 -2.52264e-07 -7.16204e-08
1.13416e-07 -8.09908e-08 -7.81181e-08
1.23778e-07 -3.01655e-07 -7.7538e-08
-6.09878e-08 -2.34547e-07 -5.68716e-08
-7.05457e-08 -1.68466e-07 -5.8158e-08
-1.41441e-07 -1.85619e-07 -6.062e-08
-1.23388e-07 -2.54081e-07 -5.78272e-08
-1.64186e-07 -2.80346e-07 -7.3343e-08
-1.91257e-07 -1.8158e-07 -7.82461e-08
-1.08146e-07 -1.70147e-07 -5.59578e-08
-1.3675e-07 -2.22562e-07 -5.43383e-08
-6.16653e-08 -2.03195e-07 -5.23167e-08
-9.09675e-08 -2.5106e-07 -5.41124e-08
-1.794e-07 -2.87177e-07 -7.69091e-08
-2.08769e-07 -1.83583e-07 -8.22244e-08
-3.59928e-08 -1.60812e-07 -6.99793e-08
-2.25741e-08 -2.37616e-07 -7.11915e-08
-8.52733e-08 -2.93783e-07 -7.07342e-08
-1.13312e-07 -1.28144e-07 -7.44211e-08
-1.37727e-07 -1.51639e-07 -7.01139e-08
-1.09398e-07 -2.80117e-07 -6.54351e-08
-1.62876e-07 -2.47071e-07 -6.74096e-08
-1.73893e-07 -2.14261e-07 -6.94733e-08
-8.35165e-08 -1.3771e-07 -6.69904e-08
-6.40595e-08 -2.7125e-07 -6.60272e-08
-8.3292e-08 -2.19064e-07 -4.09375e-08
-8.85068e-08 -1.90544e-07 -4.34677e-08
-1.17091e-07 -2.03173e-07 -4.33347e-08
-1.10051e-07 -2.29609e-07 -4.30423e-08
-1.81663e-07 -2.98677e-07 -7.8069e-08
-2.17396e-07 -1.74473e-07 -8.49653e-08
-1.38061e-07 -2.80482e-07 -6.82693e-08
-1.67832e-07 -1.66222e-07 -7.37401e-08
-2.54007e-08 -2.09529e-07 -6.63387e-08
-3.26039e-08 -1.85907e-07 -6.54031e-08
-1.46491e-07 -2.57192e-07 -6.48382e-08
-1.63226e-07 -1.95158e-07 -6.76255e-08
-1.02734e-07 -1.06739e-07 -7.89777e-08
-7.21954e-08 -3.11741e-07 -7.54984e-08
-4.00847e-08 -2.5689e-07 -6.84324e-08
-5.64415e-08 -1.46172e-07 -6.73438e-08
-1.00749e-07 -1.87695e-07 -4.46613e-08
-9.08254e-08 -2.30959e-07 -4.33059e-08
-1.18855e-07 -2.2188e-07 -4.43199e-08
-7.77658e-08 -2.07111e-07 -4.27957e-08
-1.83574e-07 -2.69452e-07 -7.47994e-08
-2.02873e-07 -2.02408e-07 -7.80812e-08
-4.81684e-08 -2.18877e-07 -5.93514e-08
-2.82805e-08 -1.39914e-07 -7.51115e-08
-1.41504e-08 -2.56214e-07 -7.53993e-08
-5.71915e-08 -1.83674e-07 -5.77798e-08
-1.22464e-07 -1.80867e-07 -5.47876e-08
-1.05627e-07 -2.48823e-07 -5.25568e-08
-1.35564e-07 -2.06223e-07 -5.37829e-08
-7.62714e-08 -2.37355e-07 -5.16945e-08
-8.7624e-08 -1.73616e-07 -5.27608e-08
-1.25126e-07 -2.34106e-07 -5.11393e-08
-1.04729e-07 -3.00513e-07 -7.10647e-08
-1.38061e-07 -1.28964e-07 -7.72646e-08
-8.977e-08 -3.18697e-07 -7.62917e-08
-1.23438e-07 -1.06527e-07 -8.21952e-08
-1.90486e-07 -2.81516e-07 -7.75437e-08
-2.16095e-07 -1.945e-07 -8.19158e-08
-1.82337e-07 -2.34892e-07 -7.0976e-08
8.95039e-10 -2.42191e-07 -7.73261e-08
-9.02333e-09 -1.52599e-07 -7.73117e-08
-9.36512e-08 -1.22213e-07 -7.30787e-08
-6.86706e-08 -2.91564e-07 -7.10176e-08
-1.02887e-07 -1.46876e-07 -6.59232e-08
-8.12208e-08 -2.70847e-07 -6.37442e-08
-7.32685e-08 -1.93509e-07 -4.83862e-08
-1.20012e-07 -1.49377e-07 -6.76894e-08
-9.50246e-08 -2.75599e-07 -6.42964e-08
-6.78393e-08 -2.17576e-07 -4.98252e-08
-1.26394e-07 -2.92783e-07 -6.92032e-08
-1.61699e-07 -1.46428e-07 -7.61742e-08
-1.71416e-08 -1.74487e-07 -7.09247e-08
-9.32391e-09 -2.23157e-07 -7.16387e-08
-1.65292e-07 -2.93955e-07 -7.49916e-08
-2.00064e-07 -1.6916e-07 -8.17388e-08
-1.44971e-07 -2.40868e-07 -6.0794e-08
-1.64712e-07 -2.64575e-07 -7.08187e-08
-1.83214e-07 -1.97568e-07 -7.40051e-08
-1.93172e-07 -2.99822e-07 -7.92735e-08
-1.93404e-07 -2.9203e-07 -7.88904e-08
-2.28218e-07 -1.79628e-07 -8.59173e-08
-2.24224e-07 -1.86279e-07 -8.43287e-08
-6.34605e-08 -1.2613e-07 -6.93445e-08
-4.43858e-08 -2.73319e-07 -6.94681e-08
-1.479e-07 -2.72308e-07 -6.8524e-08
-1.72515e-07 -1.80434e-07 -7.28826e-08
-6.96943e-08 -3.25859e-07 -7.78684e-08
-1.03497e-07 -9.3352e-08 -8.19387e-08
-1.52571e-07 -2.1101e-07 -6.17577e-08
-1.58723e-07 -2.29994e-07 -6.4382e-08
-1.6115e-08 -1.93562e-07 -6.782e-08
-1.41161e-08 -1.34393e-07 -7.85893e-08
-9.8139e-11 -2.61149e-07 -7.85987e-08
-5.81342e-08 -2.52328e-07 -6.25277e-08
-7.48832e-08 -1.51506e-07 -6.29878e-08
-5.09109e-08 -1.63954e-07 -6.50077e-08
-1.19904e-07 -2.68993e-07 -6.27021e-08
-1.44774e-07 -1.68272e-07 -6.67595e-08
-1.06159e-07 -1.99066e-07 -3.85492e-08
-9.96677e-08 -2.25568e-07 -3.81616e-08
-8.70021e-08 -2.01407e-07 -3.8322e-08
-1.12809e-07 -2.12502e-07 -3.85917e-08
-4.21959e-08 -2.38353e-07 -6.49181e-08
-1.83974e-07 -2.55203e-07 -7.26884e-08
-1.95947e-07 -2.17056e-07 -7.46238e-08
-9.16797e-08 -2.13988e-07 -3.42049e-08
-9.6962e-08 -1.97272e-07 -3.75926e-08
-1.07752e-07 -2.20096e-07 -3.70926e-08
-5.36999e-08 -2.89687e-07 -7.08618e-08
-7.70631e-08 -1.15753e-07 -7.17333e-08
-7.54113e-08 -2.55955e-07 -5.9163e-08
-9.15725e-08 -1.5651e-07 -6.07115e-08
-4.12234e-08 -1.99074e-07 -6.11888e-08
-1.26356e-07 -1.64559e-07 -6.27559e-08
-1.03914e-07 -2.64375e-07 -5.95533e-08
-7.63114e-08 -1.83073e-07 -5.09852e-08
-1.7615e-07 -2.77079e-07 -7.50355e-08
-2.0031e-07 -1.91369e-07 -7.92615e-08
-1.482e-07 -2.96193e-07 -7.20875e-08
-1.85983e-07 -1.56009e-07 -7.97452e-08
-4.01267e-08 -1.74788e-07 -6.55581e-08
-4.27834e-08 -1.47993e-07 -7.03236e-08
-2.90376e-08 -2.50871e-07 -7.08675e-08
-3.04221e-08 -2.24311e-07 -6.66037e-08
-1.06988e-07 -2.07707e-07 -3.55997e-08
-1.11904e-07 -1.87952e-07 -4.73361e-08
-9.91618e-08 -2.37387e-07 -4.58715e-08
-1.23355e-07 -2.13292e-07 -4.60078e-08
-1.28025e-07 -1.92732e-07 -5.26591e-08
-1.14467e-07 -2.42256e-07 -5.07498e-08
-1.33799e-07 -2.64902e-07 -6.3668e-08
-1.56113e-07 -1.80173e-07 -6.74176e-08
-7.26742e-08 -2.26584e-07 -4.94765e-08
-1.52571e-07 -2.8451e-07 -7.15662e-08
-1.83325e-07 -1.70627e-07 -7.73466e-08
-1.46051e-07 -1.95735e-07 -6.05147e-08
-1.3242e-07 -2.48639e-07 -5.84768e-08
-9.26752e-08 -2.20497e-07 -3.63658e-08
-8.72878e-08 -2.0988e-07 -3.62345e-08
-4.16141e-08 -1.2909e-07 -7.21376e-08
-2.55828e-08 -2.67037e-07 -7.26721e-08
-1.13991e-07 -9.70496e-08 -8.31178e-08
-8.0137e-08 -3.26044e-07 -7.79014e-08
-2.04662e-07 -5.44129e-08 -8.93968e-08
-3.22556e-07 6.37386e-08 -9.35496e-08
-2.04767e-07 5.65702e-08 -8.93495e-08
-3.22663e-07 -6.3752e-08 -9.3551e-08
-3.79823e-07 8.04538e-08 -9.53436e-08
-3.7984e-07 -8.05061e-08 -9.53421e-08
-2.62722e-07 7.53688e-08 -9.13943e-08
-3.38458e-07 1.91016e-09 -9.39615e-08
-1.95224e-07 -2.19461e-09 -8.93297e-08
-2.63463e-07 -7.54883e-08 -9.14115e-08
-3.98275e-07 8.36654e-08 -9.58781e-08
-3.98292e-07 -8.37118e-08 -9.58769e-08
-1.58578e-07 5.33666e-08 -8.83551e-08
-1.54677e-07 -5.47238e-08 -8.82519e-08
-2.58058e-07 -1.26938e-07 -9.10655e-08
-2.52565e-07 1.26121e-07 -9.07312e-08
-2.19633e-07 9.91945e-08 -8.87109e-08
-2.98785e-07 -1.06771e-07 -9.2771e-08
-3.77264e-07 2.97373e-08 -9.49663e-08
-3.78704e-07 -2.91307e-08 -9.49925e-08
-2.20002e-07 -1.0259e-07 -8.85495e-08
-2.97413e-07 1.10564e-07 -9.27282e-08
-2.34576e-07 -2.95027e-08 -9.05616e-08
-2.98439e-07 3.03795e-08 -9.27812e-08
-2.33232e-07 3.42268e-08 -9.05018e-08
-2.99427e-07 -3.16207e-08 -9.28146e-08
-4.01707e-07 9.68071e-08 -9.5981e-08
-4.0173e-07 -9.68518e-08 -9.598e-08
-3.4486e-07 9.46829e-08 -9.42429e-08
-3.44962e-07 -9.44383e-08 -9.42448e-08
-1.52765e-07 -1.62762e-08 -8.73582e-08
-1.57267e-07 1.90305e-08 -8.76207e-08
-3.56443e-07 5.46206e-08 -9.45664e-08
-3.56454e-07 -5.46809e-08 -9.45659e-08
-2.39099e-07 -1.45911e-07 -8.94943e-08
-2.63023e-07 1.49828e-07 -9.14821e-08
-1.80842e-07 -8.27196e-08 -8.76123e-08
-1.80886e-07 8.11211e-08 -8.77146e-08
-2.55881e-07 4.77019e-08 -9.1254e-08
-2.57368e-07 -4.71884e-08 -9.13024e-08
-3.12912e-07 -8.15103e-09 -9.32446e-08
-2.19155e-07 -5.649e-09 -9.00983e-08
-4.02923e-07 5.81231e-08 -9.56942e-08
-4.02933e-07 -5.81698e-08 -9.56924e-08
-1.81974e-07 -2.97457e-08 -8.89372e-08
-1.47802e-07 -7.60763e-08 -8.77602e-08
-1.48366e-07 7.57248e-08 -8.77831e-08
-1.85938e-07 3.06481e-08 -8.90538e-08
-2.92822e-07 6.71598e-08 -9.25533e-08
-2.91761e-07 -6.61148e-08 -9.25129e-08
-3.28433e-07 2.98018e-08 -9.37009e-08
-2.30966e-07 -5.92167e-08 -9.02228e-08
-2.30044e-07 5.9277e-08 -9.02014e-08
-3.25042e-07 -2.79319e-08 -9.35977e-08
-2.89813e-07 -1.3352e-07 -9.25255e-08
-2.20731e-07 1.24721e-07 -8.78337e-08
-2.63847e-07 -1.54268e-07 -9.15371e-08
-2.36645e-07 1.4931e-07 -8.92444e-08
-4.10762e-07 7.35534e-08 -9.6034e-08
-4.10776e-07 -7.35972e-08 -9.6033e-08
-3.98766e-07 7.21132e-10 -9.52163e-08
-1.28235e-07 -5.75481e-08 -8.7541e-08
-1.27768e-07 5.68801e-08 -8.74894e-08
-2.31166e-07 -1.25091e-07 -8.89273e-08
-2.7908e-07 1.31492e-07 -9.21286e-08
-2.48852e-07 -1.01288e-07 -9.05581e-08
-2.69394e-07 1.03099e-07 -9.16269e-08
-2.09134e-07 1.91728e-08 -8.97861e-08
-2.44125e-07 1.02006e-07 -9.02906e-08
-2.73893e-07 -1.04867e-07 -9.18127e-08
-1.91552e-07 1.04501e-07 -8.62363e-08
-2.08256e-07 -2.70068e-08 -8.97482e-08
-3.2711e-07 -1.17658e-07 -9.36063e-08
-1.38613e-07 3.18594e-08 -8.67698e-08
-1.37141e-07 -3.53316e-08 -8.67564e-08
-3.82302e-07 9.77051e-08 -9.542e-08
-3.82326e-07 -9.77567e-08 -9.54188e-08
-3.53207e-07 -2.73206e-08 -9.43823e-08
-3.80159e-07 5.72384e-08 -9.52278e-08
-3.80274e-07 -5.72422e-08 -9.52288e-08
-4.13755e-07 9.45671e-08 -9.62223e-08
-4.13587e-07 8.58872e-08 -9.61961e-08
-4.13777e-07 -9.46084e-08 -9.62215e-08
-4.13605e-07 -8.59292e-08 -9.61952e-08
-1.90017e-07 -1.04865e-07 -8.61635e-08
-3.58566e-07 7.71164e-08 -9.46932e-08
-3.58593e-07 -7.7155e-08 -9.46921e-08
-2.36259e-07 -1.59859e-07 -8.8917e-08
-2.58993e-07 1.64622e-07 -9.1235e-08
-3.28575e-07 1.18271e-07 -9.36426e-08
-3.53245e-07 2.85095e-08 -9.4386e-08
-3.67784e-07 1.81067e-09 -9.46889e-08
-1.39795e-07 5.64884e-09 -8.58342e-08
-2.03835e-07 7.94902e-08 -8.8613e-08
-1.32168e-07 7.79537e-08 -8.7514e-08
-1.32193e-07 -7.82162e-08 -8.7505e-08
-2.05747e-07 -7.92599e-08 -8.87128e-08
-1.81069e-07 5.67894e-08 -8.87411e-08
-3.16925e-07 -8.77174e-08 -9.33677e-08
-2.73059e-07 3.23896e-08 -9.19105e-08
-2.75917e-07 -3.26591e-08 -9.20094e-08
-2.32809e-07 1.1484e-08 -9.04948e-08
-2.97861e-07 8.15082e-09 -9.28121e-08
-3.17212e-07 8.88814e-08 -9.338e-08
-1.79418e-07 -5.81138e-08 -8.86793e-08
-4.03806e-07 3.51653e-08 -9.54478e-08
-4.04459e-07 -3.47595e-08 -9.54502e-08
-2.48669e-07 -1.63547e-08 -9.10232e-08
-2.37369e-07 8.21509e-08 -9.01736e-08
-2.51036e-07 2.88299e-08 -9.1126e-08
-2.92892e-07 -1.40483e-08 -9.26665e-08
-2.08059e-07 -1.23905e-07 -8.63148e-08
-2.35629e-07 -8.3676e-08 -9.0037e-08
-1.6902e-07 1.19433e-09 -8.81949e-08
-2.88981e-07 -8.8228e-08 -9.24117e-08
-2.12807e-07 3.85184e-08 -8.98154e-08
-3.94246e-07 7.13531e-08 -9.56781e-08
-3.94275e-07 -7.13944e-08 -9.5677e-08
-3.60301e-07 1.09312e-07 -9.46467e-08
-3.60529e-07 -1.10202e-07 -9.46462e-08
-2.87938e-07 8.90554e-08 -9.2374e-08
-1.65257e-07 3.63477e-08 -8.832e-08
-3.03815e-07 1.33401e-07 -9.28841e-08
-1.65156e-07 -7.28723e-08 -8.79231e-08
-1.65608e-07 7.20755e-08 -8.79691e-08
-1.61465e-07 -3.74316e-08 -8.82209e-08
-2.8302e-07 1.72364e-08 -9.23194e-08
-2.77599e-07 -5.28859e-08 -9.20224e-08
-2.77603e-07 5.28107e-08 -9.20265e-08
-3.15256e-07 1.24494e-08 -9.33093e-08
-3.08789e-07 4.97962e-08 -9.30999e-08
-3.07581e-07 -5.09936e-08 -9.30588e-08
-3.38646e-07 -7.41411e-08 -9.40645e-08
-2.19665e-07 -4.25025e-08 -9.0003e-08
-3.38605e-07 7.42557e-08 -9.40657e-08
-3.6516e-07 9.18802e-08 -9.48906e-08
-3.65242e-07 -9.20379e-08 -9.4891e-08
-3.35596e-07 4.96199e-08 -9.39384e-08
-3.36457e-07 -4.90997e-08 -9.39626e-08
-2.56345e-07 -2.82151e-08 -9.13138e-08
-2.37181e-07 -7.9866e-09 -9.06219e-08
-1.62996e-07 9.2592e-08 -8.61426e-08
-1.62953e-07 -9.28116e-08 -8.61372e-08
-2.49976e-07 -1.60931e-07 -9.05154e-08
-2.464e-07 1.60036e-07 -9.01726e-08
-7.13041e-08 1.7067e-07 -5.70641e-08
-6.05174e-08 2.36246e-07 -5.74999e-08
-1.23161e-07 2.53895e-07 -5.77686e-08
-1.41485e-07 1.85455e-07 -6.0691e-08
-1.91308e-07 1.81485e-07 -7.82881e-08
-1.64057e-07 2.80246e-07 -7.33472e-08
-9.05585e-08 2.5081e-07 -5.41129e-08
-1.36502e-07 2.23204e-07 -5.43222e-08
-6.20247e-08 2.00762e-07 -5.22943e-08
-1.08056e-07 1.70017e-07 -5.59343e-08
-2.08845e-07 1.83481e-07 -8.2273e-08
-1.79273e-07 2.87086e-07 -7.69142e-08
-2.59655e-08 2.36397e-07 -7.00456e-08
-3.26849e-08 1.59096e-07 -7.10766e-08
-1.13197e-07 1.28064e-07 -7.43958e-08
-8.2002e-08 2.92982e-07 -7.07538e-08
-6.41162e-08 2.68682e-07 -6.54801e-08
-1.37654e-07 1.51506e-07 -7.01353e-08
-1.72032e-07 2.13724e-07 -6.89599e-08
-1.64619e-07 2.4749e-07 -6.7952e-08
-8.34129e-08 1.37706e-07 -6.69174e-08
-1.08495e-07 2.82645e-07 -6.61639e-08
-8.92789e-08 1.93648e-07 -4.12776e-08
-8.14128e-08 2.21878e-07 -4.30722e-08
-1.09226e-07 2.2852e-07 -4.23294e-08
-1.18119e-07 2.02437e-07 -4.41156e-08
-2.17499e-07 1.74365e-07 -8.50296e-08
-1.81539e-07 2.98579e-07 -7.80772e-08
-1.67822e-07 1.66106e-07 -7.37939e-08
-1.37875e-07 2.80536e-07 -6.83019e-08
-2.84823e-08 1.87399e-07 -6.63198e-08
-2.88503e-08 2.11565e-07 -6.54161e-08
-1.63252e-07 1.95046e-07 -6.76828e-08
-1.46362e-07 2.57075e-07 -6.48098e-08
-1.02616e-07 1.06675e-07 -7.89515e-08
-8.91158e-08 3.14847e-07 -7.55203e-08
-5.46809e-08 1.42386e-07 -6.8235e-08
-4.02403e-08 2.55793e-07 -6.82485e-08
-9.00457e-08 2.30998e-07 -4.37294e-08
-1.01248e-07 1.88142e-07 -4.4256e-08
-1.21002e-07 2.14728e-07 -4.46365e-08
-7.88027e-08 2.01972e-07 -4.28281e-08
-2.02934e-07 2.02338e-07 -7.81249e-08
-1.83437e-07 2.69378e-07 -7.47963e-08
-5.37963e-08 1.82361e-07 -5.93501e-08
-1.45867e-08 2.55948e-07 -7.52768e-08
-2.78095e-08 1.39571e-07 -7.5197e-08
-5.10328e-08 2.19494e-07 -5.81162e-08
-1.0607e-07 2.4955e-07 -5.30736e-08
-1.22425e-07 1.80666e-07 -5.48198e-08
-1.27122e-07 2.35748e-07 -5.25287e-08
-8.81332e-08 1.74356e-07 -5.23559e-08
-7.57091e-08 2.37576e-07 -5.19938e-08
-1.32919e-07 2.06673e-07 -5.23227e-08
-1.37968e-07 1.28848e-07 -7.72708e-08
-6.1979e-08 2.91041e-07 -7.11026e-08
-7.04431e-08 3.1512e-07 -7.63195e-08
-1.2333e-07 1.06437e-07 -8.21842e-08
-2.16161e-07 1.94413e-07 -8.19657e-08
-1.90363e-07 2.81429e-07 -7.75455e-08
-1.82434e-07 2.34314e-07 -7.10172e-08
-9.42478e-09 1.52259e-07 -7.72686e-08
1.28309e-09 2.41745e-07 -7.73467e-08
-9.35347e-08 1.2217e-07 -7.30302e-08
-9.81076e-08 2.98483e-07 -7.11416e-08
-1.0277e-07 1.46822e-07 -6.58631e-08
-9.25776e-08 2.73672e-07 -6.3756e-08
-6.9432e-08 2.1327e-07 -4.82883e-08
-7.84969e-08 2.71341e-07 -6.43075e-08
-1.19913e-07 1.49262e-07 -6.76776e-08
-4.54165e-08 2.73072e-07 -6.9192e-08
-7.30575e-08 1.88916e-07 -4.99571e-08
-1.6164e-07 1.463e-07 -7.62218e-08
-1.10174e-08 2.20602e-07 -7.09443e-08
-1.59498e-08 1.7177e-07 -7.15968e-08
-2.00104e-07 1.69066e-07 -8.17773e-08
-1.65166e-07 2.93856e-07 -7.50006e-08
-1.53252e-07 2.10488e-07 -6.21546e-08
-1.8311e-07 1.97449e-07 -7.4e-08
-1.64725e-07 2.64534e-07 -7.08589e-08
-2.28341e-07 1.79537e-07 -8.60049e-08
-2.24315e-07 1.86193e-07 -8.43923e-08
-1.93047e-07 2.99732e-07 -7.92793e-08
-1.93279e-07 2.91941e-07 -7.88945e-08
-6.22736e-08 1.26504e-07 -6.92562e-08
-1.72538e-07 1.80321e-07 -7.29334e-08
-1.47759e-07 2.72194e-07 -6.85167e-08
-1.03382e-07 9.32837e-08 -8.19196e-08
-8.76004e-08 3.28731e-07 -7.78856e-08
-1.27248e-07 2.9351e-07 -6.95007e-08
-1.44453e-07 2.40116e-07 -6.0474e-08
-1.59365e-07 2.27393e-07 -6.45149e-08
-1.49635e-08 2.01576e-07 -6.7816e-08
-5.6756e-08 2.5274e-07 -6.30427e-08
-6.59255e-11 2.61022e-07 -7.86233e-08
-1.41174e-08 1.34327e-07 -7.84958e-08
-7.26257e-08 1.52494e-07 -6.2774e-08
-4.34716e-08 2.37411e-07 -6.4293e-08
-1.4475e-07 1.68129e-07 -6.68059e-08
-9.84982e-08 2.24676e-07 -3.77532e-08
-1.07312e-07 1.99077e-07 -3.90055e-08
-8.45731e-08 2.10934e-07 -3.81806e-08
-1.10708e-07 2.19083e-07 -3.83433e-08
-1.19965e-07 2.69735e-07 -6.29714e-08
-5.28863e-08 1.61687e-07 -6.48518e-08
-1.95255e-07 2.1638e-07 -7.46126e-08
-1.84762e-07 2.54942e-07 -7.27678e-08
-9.50453e-08 2.02524e-07 -3.44917e-08
-7.65048e-08 2.54988e-07 -5.85537e-08
-9.06695e-08 2.19951e-07 -3.7069e-08
-1.11112e-07 2.09907e-07 -3.75167e-08
-7.67187e-08 1.15803e-07 -7.16145e-08
-9.22863e-08 1.57273e-07 -6.03318e-08
-4.0924e-08 2.00472e-07 -6.11935e-08
-1.26287e-07 1.64403e-07 -6.27718e-08
-6.87245e-08 2.24401e-07 -5.07399e-08
-2.00348e-07 1.91275e-07 -7.92982e-08
-1.76045e-07 2.77002e-07 -7.50431e-08
-1.85951e-07 1.55903e-07 -7.97998e-08
-1.4801e-07 2.95391e-07 -7.20486e-08
-1.03218e-07 2.64679e-07 -5.9769e-08
-3.36351e-08 2.23518e-07 -6.53977e-08
-1.13216e-07 3.01369e-07 -7.06053e-08
-4.21213e-08 1.46432e-07 -7.06443e-08
-2.94277e-08 2.50372e-07 -7.07153e-08
-3.74538e-08 1.73633e-07 -6.65485e-08
-1.02842e-07 2.19182e-07 -3.51415e-08
-9.90722e-08 2.37154e-07 -4.58838e-08
-1.11844e-07 1.87736e-07 -4.73431e-08
-1.20011e-07 2.24148e-07 -4.55562e-08
-1.14787e-07 2.41815e-07 -5.07176e-08
-1.27936e-07 1.92475e-07 -5.26864e-08
-1.56144e-07 1.80029e-07 -6.74876e-08
-8.09773e-08 1.82429e-07 -4.98035e-08
-1.33628e-07 2.64864e-07 -6.36622e-08
-1.83344e-07 1.70521e-07 -7.73948e-08
-1.52408e-07 2.84291e-07 -7.15581e-08
-1.31628e-07 2.48541e-07 -5.82381e-08
-1.46673e-07 1.96042e-07 -6.07719e-08
-9.88187e-08 1.98265e-07 -3.69253e-08
-8.88477e-08 2.03585e-07 -3.63374e-08
-2.55861e-08 2.66999e-07 -7.26634e-08
-4.10112e-08 1.28645e-07 -7.21918e-08
-7.76909e-08 3.25563e-07 -7.79242e-08
-1.1388e-07 9.69705e-08 -8.31028e-08
SCALARS effective_fluid_pressure_TPM float
LOOKUP_TABLE default
66.5
66.5
66.5
66.5
66.5
66.5
66.5
66.5
66.5
66.5
66.5
66.5
66.5
66.5
0.5
66.5
66.5
66.5
66.5
66.5
66.5
66.5
66.5
66.5
66.5
66.5
66.5
0.5
66.5
66.5
66.5
66.5
66.5
66.5
66.5
66.5
66.5
66.5
0.5
66.5
66.5
66.5
66.5
66.5
66.5
66.5
66.5
66.5
66.5
0.5
66.5
66.5
66.5
66.5
66.5
66.5
66.5
66.5
66.5
66.5
0.5
66.5
66.5
66.5
66.5
66.5
66.5
66.5
66.5
66.5
66.5
60.0788
66.5
66.5
66.5
66.5
66.5
66.5
66.5
66.5
0.5
66.5
66.5
66.5
66.5
66.5
66.5
66.5
66.5
66.5
66.5
66.5
66.5
66.5
66.5
0.5
66.5
66.5
66.5
66.5
66.5
66.5
66.5
66.5
66.5
66.5
66.5
66.5
0.5
66.5
66.5
66.5
66.5
66.5
66.5
66.5
66.5
66.5
66.5
0.5
66.5
66.5
66.5
66.5
66.5
66.5
66.5
66.5
66.5
66.5
0.5
66.5
66.5
66.5
66.5
66.5
66.5
66.5
66.5
66.5
66.5
0.5
66.5
66.5
66.5
66.5
66.5
66.5
66.5
66.5
66.5
66.5
60.0788
66.5
66.5
66.5
66.5
66.5
66.5
66.5
66.5
0.5
66.5
52.8216
48.2736
47.917
51.9377
66.5
66.5
57.0048
54.61
54.5621
57.0389
66.5
66.5
51.9835
48.0651
48.2853
52.825
66.5
51.434
47.0517
47.0639
51.433
66.5
51.3337
47.0414
47.1337
51.2736
66.5
51.4441
47.2029
47.1983
51.4733
0.5
0.5
0.5
66.5
66.5
51.4068
47.2529
47.1142
51.3646
66.5
66.5
51.0656
46.8996
47.0935
51.4483
66.5
51.4451
46.917
46.9983
51.3185
66.5
51.3439
47.1604
46.9893
51.4611
66.5
51.2639
46.8861
46.942
51.4009
66.5
0.5
0.5
0.5
66.5
66.5
66.5
51.4779
47.172
47.0481
51.3648
66.5
51.4713
47.0124
47.1865
51.3676
66.5
51.3493
47.0319
46.9474
51.4639
66.5
51.2792
47.0405
47.0831
51.3794
66.5
66.5
0.5
0.5
0.5
66.5
66.5
51.3542
47.1699
46.997
51.4661
66.5
51.3841
47.0193
46.8825
51.4318
66.5
51.4549
47.1046
46.9061
51.0653
66.5
66.5
51.4662
47.1568
47.2144
51.3066
66.5
66.5
0.5
0.5
0.5
66.5
66.5
51.4304
47.1487
47.0788
51.5825
66.5
51.6381
47.3786
47.2421
51.3883
66.5
66.5
51.717
48.0251
48.4382
52.7854
66.5
66.5
57.2557
54.945
55.086
57.7137
66.5
0.5
0.5
0.5
66.5
66.5
62.9327
62.6725
63.1129
64.058
66.5
66.5
64.3608
63.8562
63.8542
64.3614
66.5
66.5
64.0602
63.1114
62.636
62.9188
66.5
57.2656
54.9605
55.1599
57.7427
66.5
60.6807
61.3205
60.7095
66.5
66.5
66.5
52.8043
48.4437
48.0376
51.7137
66.5
66.5
51.3956
47.2243
47.1479
51.6072
66.5
51.6153
47.3323
47.1944
51.4638
66.5
66.5
0.5
0.5
0.5
66.5
52.8216
48.2736
47.917
51.9377
66.5
66.5
57.0048
54.61
54.5621
57.0389
66.5
66.5
51.9835
48.0651
48.2853
52.825
66.5
51.434
47.0517
47.0639
51.433
66.5
51.3337
47.0414
47.1337
51.2736
66.5
51.4441
47.2029
47.1983
51.4733
0.5
0.5
0.5
66.5
66.5
51.4068
47.2529
47.1142
51.3646
66.5
66.5
51.0656
46.8996
47.0935
51.4483
66.5
51.4451
46.917
46.9983
51.3185
66.5
51.3439
47.1604
46.9893
51.4611
66.5
51.2639
46.8861
46.942
51.4009
66.5
0.5
0.5
0.5
66.5
66.5
66.5
51.4779
47.172
47.0481
51.3648
66.5
51.4713
47.0124
47.1865
51.3676
66.5
51.3493
47.0319
46.9474
51.4639
66.5
51.2792
47.0405
47.0831
51.3794
66.5
66.5
0.5
0.5
0.5
66.5
66.5
51.3542
47.1699
46.997
51.4661
66.5
51.3841
47.0193
46.8825
51.4318
66.5
51.4549
47.1046
46.9061
51.0653
66.5
66.5
51.4662
47.1568
47.2144
51.3066
66.5
66.5
0.5
0.5
0.5
66.5
66.5
51.4304
47.1487
47.0788
51.5825
66.5
51.6381
47.3786
47.2421
51.3883
66.5
66.5
51.717
48.0251
48.4382
52.7854
66.5
66.5
57.2557
54.945
55.086
57.7137
66.5
0.5
0.5
0.5
66.5
66.5
62.9327
62.6725
63.1129
64.058
66.5
66.5
64.3608
63.8562
63.8542
64.3614
66.5
66.5
64.0602
63.1114
62.636
62.9188
66.5
57.2656
54.9605
55.1599
57.7427
66.5
60.6807
61.3205
60.7095
66.5
66.5
66.5
52.8043
48.4437
48.0376
51.7137
66.5
66.5
51.3956
47.2243
47.1479
51.6072
66.5
51.6153
47.3323
47.1944
51.4638
66.5
66.5
0.5
0.5
0.5
37.3904
37.8335
38.995
39.0462
52.1997
52.1967
35.6881
36.4302
34.0333
35.6842
57.3382
57.3371
47.2207
48.2412
48.2993
48.2611
43.3509
43.9464
47.4297
47.706
43.7424
44.4386
23.3296
25.6522
25.026
25.8214
59.8865
59.8864
46.5612
46.5461
44.1701
43.5409
44.9458
44.9213
53.7533
53.9196
45.3248
45.2396
26.4465
25.898
27.0503
25.1662
54.8019
54.7944
39.3047
52.507
52.6705
38.4142
35.0769
34.6561
35.1053
33.6434
33.8386
33.8793
48.0497
47.5492
54.5732
54.756
59.0192
59.011
50.5563
55.821
55.6721
48.0181
48.4813
42.6323
42.794
30.6727
42.9673
43.19
45.3671
32.0646
46.4108
47.7386
48.4066
53.6077
53.6074
41.8389
50.2545
50.2225
64.5134
62.5559
64.5128
62.5532
45.5473
47.4687
47.4803
59.1924
59.0701
46.643
41.8755
44.4607
45.0854
41.6018
59.1734
59.2082
41.2635
42.7139
42.297
18.1693
18.9974
18.6908
19.1491
42.4736
43.1525
52.6339
52.7036
11.6866
38.7541
17.4577
16.9796
46.948
39.1797
40.5719
39.8369
32.7259
54.7401
54.7429
49.3894
49.3731
39.992
43.6234
47.4375
47.5793
47.685
44.5233
12.7302
28.6286
28.6167
28.2642
33.3344
33.4239
43.4739
31.5842
43.4622
49.7675
49.7811
39.7085
39.8716
15.6977
15.4529
48.4882
48.4659
59.1724
59.1919
37.5428
37.6074
37.5109
37.5647
50.0451
50.1732
35.0751
34.225
34.3539
35.1121
55.4885
55.5832
48.1518
47.1354
47.8412
47.8422
42.9866
43.0605
43.8681
44.1
43.4493
43.4079
24.9584
25.3292
24.1076
23.9247
58.8207
58.9302
44.9377
45.083
44.1071
43.4341
42.6561
42.5734
53.5019
53.5496
45.1552
44.4203
25.9427
25.5153
25.33
26.0237
51.1204
51.1797
39.2799
52.591
52.4181
38.5656
33.6841
33.5815
33.3115
33.4826
33.5678
32.0512
47.3775
47.3165
54.4051
54.409
56.4882
56.5385
45.3971
55.8096
55.6804
47.739
47.6955
31.1182
42.1324
42.1628
42.5002
42.5492
45.3301
45.1801
47.7115
48.3799
51.9071
52.1014
39.2275
47.4062
47.3061
64.0978
61.4524
64.1245
61.4875
30.8142
45.3895
45.3178
45.4756
45.5975
58.9812
58.9361
39.2582
41.0973
45.0173
59.1689
59.1396
40.8477
40.7258
42.6009
41.0561
41
17.6904
18.8396
18.5937
18.5772
43.0535
47.733
47.7973
11.8164
38.6582
17.0956
16.3917
46.7457
46.7555
38.7904
40.5608
38.9365
52.132
52.221
48.0128
47.7785
32.4276
38.9775
43.3209
47.5724
47.3641
44.4447
12.5032
27.9144
27.8922
26.9369
32.1181
31.3614
41.8329
41.7344
32.3948
47.9627
48.1295
37.8263
37.7766
15.8682
15.9896
48.3513
48.1042
59.0091
59.0231
37.2234
37.5985
37.508
37.5501
50.0824
50.0928
35.0663
34.2054
33.9019
35.1375
55.5168
55.5171
48.1895
47.1353
47.8606
47.854
43.0634
43.0251
43.8282
44.1921
43.4948
43.5183
23.1916
25.3252
24.695
24.1301
58.8683
58.8725
44.9962
45.0056
44.1231
43.4717
42.5932
42.5765
53.5612
53.5561
45.2068
45.076
25.9783
25.5292
25.6718
25.0243
51.1105
51.0897
39.2006
52.619
52.4316
38.2669
34.0686
33.7502
33.3007
33.3734
33.4869
32.1532
47.321
47.3498
54.4199
54.3922
56.4879
56.472
45.295
55.8283
55.6858
47.766
47.853
42.2029
42.1448
30.4862
42.5346
42.537
45.1945
31.9206
45.2374
47.7233
48.4076
51.9887
52.0026
39.2718
47.3509
47.3071
64.1076
61.4591
64.1074
61.4543
45.4204
45.5049
45.5264
58.987
58.9769
45.414
39.0596
41.2001
45.0496
41.364
59.1834
59.1395
41.0702
42.5588
41.0489
18.2837
17.892
18.956
17.8676
41.2011
43.0438
47.6888
47.7185
11.6154
38.3412
16.9977
16.1837
46.7868
38.8384
40.4857
38.9869
32.4819
52.1449
52.1489
47.8205
47.8934
39.1001
43.5274
46.5554
47.6036
47.4606
44.461
12.349
27.8433
28.003
26.8312
32.1511
32.155
41.78
31.4049
41.7753
48.001
48.0392
37.8129
37.9344
15.9681
15.3521
48.3889
48.3589
59.0283
59.021
37.5502
37.6333
37.5615
37.4972
50.1676
50.0431
35.0801
34.2258
34.3623
35.0951
55.5848
55.4824
48.1642
47.1429
47.8387
47.8323
42.9966
42.9921
43.9079
44.0575
43.4255
43.5728
24.9587
25.3362
24.1209
23.9022
58.9279
58.8185
45.0902
44.9374
44.1172
43.4422
42.5796
42.6396
53.5419
53.5544
45.1667
44.4353
25.9598
25.4983
25.3225
26.0295
51.1969
51.1011
39.293
52.6152
52.422
38.5731
34.1373
33.5809
33.3443
33.4068
33.5272
32.0219
47.3301
47.2651
54.4066
54.3513
56.554
56.4711
45.3983
55.8194
55.6836
47.7241
47.8782
31.1288
42.1291
42.1598
42.5144
42.5191
45.1779
45.19
47.7182
48.3906
52.0927
51.9058
39.1913
47.3238
47.3829
64.1251
61.4925
64.0961
61.446
30.8191
45.3471
45.5862
45.4766
58.9767
58.9765
45.5166
39.2916
41.0983
45.0259
40.6898
59.1849
59.139
40.7375
42.6099
40.9702
17.7022
18.8352
18.5982
18.5818
41.2698
43.0453
47.7879
47.7422
11.809
38.6136
38.3405
17.0986
16.393
46.7797
40.5698
52.222
52.1266
47.9487
47.7805
32.4435
38.9794
39.1463
43.3287
46.6244
47.5782
47.3747
44.4538
12.5088
27.9072
27.928
26.947
31.3636
32.1277
41.735
32.3513
41.8398
48.1004
47.9628
37.8798
37.718
15.8582
15.9836
48.5566
48.1236
59.0034
59.0218
37.3773
38.8152
40.1839
38.0091
50.4459
53.1104
37.0504
35.3603
34.2287
35.3387
55.7667
57.6144
47.6075
48.2819
48.0374
50.4974
46.9028
43.2965
44.6819
45.8753
45.0069
43.6448
23.2996
26.116
25.3225
25.2444
58.9979
60.9871
45.3421
49.33
44.2857
43.772
43.183
45.0307
55.2209
53.6768
45.3286
45.3766
27.1598
25.6744
26.4723
25.2993
51.5826
52.8328
39.392
52.8766
52.6883
38.4952
35.9397
34.0539
34.943
33.5276
34.7287
32.8983
47.5614
51.8916
54.5445
57.3246
56.7545
57.804
46.4835
55.8454
55.8381
49.5556
47.9109
44.3008
42.3835
30.9737
45.4348
42.761
32.125
45.5185
50.8078
47.9513
48.4686
52.2294
55.9583
40.1293
47.8634
49.5662
64.1562
61.583
64.6537
62.2792
46.5475
45.5499
45.9439
48.8433
59.055
59.9648
40.7721
42.405
45.2429
59.3664
59.2161
41.2143
42.2508
43.7753
41.3942
44.5789
18.5807
18.7085
19.3679
18.5624
43.1776
48.4399
49.2645
11.6671
17.8229
16.6525
46.9235
48.2989
39.0048
40.6266
40.7491
41.8596
39.2573
33.2262
52.5229
54.2729
48.1399
53.4973
44.0856
47.9061
47.7067
44.5935
12.847
29.5042
28.2021
27.9312
34.1171
32.5804
42.2203
44.983
31.5595
48.3566
52.112
40.0696
38.5543
15.5887
15.5084
49.026
48.4905
60.4769
59.1039
59.0383
62.3728
59.0177
62.3756
64.0601
64.0587
60.7126
62.5958
58.8425
60.7326
64.877
64.8759
58.9151
59.0439
61.4325
61.1568
58.9227
62.0771
63.4707
63.4917
58.8604
62.0897
59.8251
61.6496
59.792
61.6805
65.3295
65.3286
63.069
63.0678
57.7073
57.8728
63.1883
63.1885
61.6142
62.9647
58.1564
58.2217
60.4463
60.4867
62.007
59.4243
64.3355
64.3335
58.6548
59.9862
59.9478
58.7209
61.5952
61.5611
62.4038
59.6798
59.6588
62.3179
62.3388
58.7836
63.1909
61.5745
65.0685
65.0676
63.6571
61.0301
60.9058
59.7557
62.189
60.3806
61.2136
59.1959
60.1753
61.3798
57.2051
59.1829
62.701
57.8005
57.9549
64.25
64.2483
62.9655
63.8094
63.8107
66.1412
65.7672
66.141
65.7667
57.168
63.3842
63.3833
63.2376
64.4068
62.7423
62.9704
63.2038
56.7246
58.6445
62.7163
62.7337
58.7058
58.7196
62.349
60.94
61.0233
59.7497
61.6488
62.363
58.7077
63.9262
63.9259
60.1823
59.8184
60.2856
61.5295
57.5931
59.7376
58.1177
61.6312
59.2705
64.4313
64.4304
63.4573
63.4553
61.6059
58.4432
62.4504
58.7529
58.7671
58.454
61.2485
61.1015
61.1014
62.0635
61.9611
61.9343
62.8324
59.431
62.8332
63.6363
63.6363
62.6447
62.6638
60.441
59.8516
57.5832
57.5784
64.0363
63.869
38.0033
37.8101
37.9615
40.2377
53.1368
50.4438
35.3488
35.347
34.2346
37.0233
57.6321
55.7647
47.2543
48.5882
50.4883
48.042
43.2585
46.9181
45.5537
45.0331
44.9704
43.8017
23.7335
25.6061
24.4788
26.1399
61.0006
58.9987
49.3673
45.3559
44.3804
43.6467
45.0693
43.1623
55.2136
53.7038
46.0259
45.2316
26.2306
26.612
26.7287
25.3655
52.8611
51.5679
39.6476
52.5152
53.0362
38.483
34.453
35.9665
33.9879
34.4495
33.7263
33.8091
51.9
47.5195
54.5385
57.3257
57.8196
56.7499
46.5044
55.9847
55.6931
49.5349
48.0677
44.2694
42.3994
30.7557
42.7536
45.4298
45.3613
32.4456
50.8411
47.8025
48.6177
55.9849
52.2318
41.0501
49.5585
47.8927
64.6577
62.2873
64.156
61.5814
46.509
48.8772
45.936
59.962
59.067
45.7185
39.8994
42.4837
45.2101
41.5552
59.1772
59.3997
42.1274
42.7292
44.6106
17.9186
19.4068
19.2007
18.3591
41.5661
43.6635
49.2784
48.4624
11.878
38.5739
17.3725
17.0113
48.2261
40.3721
40.744
41.8702
32.7283
54.2895
52.5242
53.5404
48.1189
39.4167
43.687
46.7971
48.1914
47.5884
44.837
12.5026
28.2138
29.512
27.5715
32.5276
34.1591
45.0314
32.1344
42.2111
52.1459
48.3421
38.3751
40.2515
16.0444
15.6146
48.4855
49.088
59.1075
60.4758
37.3904
37.8335
38.995
39.0462
52.1997
52.1967
35.6881
36.4302
34.0333
35.6842
57.3382
57.3371
47.2207
48.2412
48.2993
48.2611
43.3509
43.9464
47.4297
47.706
43.7424
44.4386
23.3296
25.6522
25.026
25.8214
59.8865
59.8864
46.5612
46.5461
44.1701
43.5409
44.9458
44.9213
53.7533
53.9196
45.3248
45.2396
26.4465
25.898
27.0503
25.1662
54.8019
54.7944
39.3047
52.507
52.6705
38.4142
35.0769
34.6561
35.1053
33.6434
33.8386
33.8793
48.0497
47.5492
54.5732
54.756
59.0192
59.011
50.5563
55.821
55.6721
48.0181
48.4813
42.6323
42.794
30.6727
42.9673
43.19
45.3671
32.0646
46.4108
47.7386
48.4066
53.6077
53.6074
41.8389
50.2545
50.2225
64.5134
62.5559
64.5128
62.5532
45.5473
47.4687
47.4803
59.1924
59.0701
46.643
41.8755
44.4607
45.0854
41.6018
59.1734
59.2082
41.2635
42.7139
42.297
18.1693
18.9974
18.6908
19.1491
42.4736
43.1525
52.6339
52.7036
11.6866
38.7541
17.4577
16.9796
46.948
39.1797
40.5719
39.8369
32.7259
54.7401
54.7429
49.3894
49.3731
39.992
43.6234
47.4375
47.5793
47.685
44.5233
12.7302
28.6286
28.6167
28.2642
33.3344
33.4239
43.4739
31.5842
43.4622
49.7675
49.7811
39.7085
39.8716
15.6977
15.4529
48.4882
48.4659
59.1724
59.1919
37.5428
37.6074
37.5109
37.5647
50.0451
50.1732
35.0751
34.225
34.3539
35.1121
55.4885
55.5832
48.1518
47.1354
47.8412
47.8422
42.9866
43.0605
43.8681
44.1
43.4493
43.4079
24.9584
25.3292
24.1076
23.9247
58.8207
58.9302
44.9377
45.083
44.1071
43.4341
42.6561
42.5734
53.5019
53.5496
45.1552
44.4203
25.9427
25.5153
25.33
26.0237
51.1204
51.1797
39.2799
52.591
52.4181
38.5656
33.6841
33.5815
33.3115
33.4826
33.5678
32.0512
47.3775
47.3165
54.4051
54.409
56.4882
56.5385
45.3971
55.8096
55.6804
47.739
47.6955
31.1182
42.1324
42.1628
42.5002
42.5492
45.3301
45.1801
47.7115
48.3799
51.9071
52.1014
39.2275
47.4062
47.3061
64.0978
61.4524
64.1245
61.4875
30.8142
45.3895
45.3178
45.4756
45.5975
58.9812
58.9361
39.2582
41.0973
45.0173
59.1689
59.1396
40.8477
40.7258
42.6009
41.0561
41
17.6904
18.8396
18.5937
18.5772
43.0535
47.733
47.7973
11.8164
38.6582
17.0956
16.3917
46.7457
46.7555
38.7904
40.5608
38.9365
52.132
52.221
48.0128
47.7785
32.4276
38.9775
43.3209
47.5724
47.3641
44.4447
12.5032
27.9144
27.8922
26.9369
32.1181
31.3614
41.8329
41.7344
32.3948
47.9627
48.1295
37.8263
37.7766
15.8682
15.9896
48.3513
48.1042
59.0091
59.0231
37.2234
37.5985
37.508
37.5501
50.0824
50.0928
35.0663
34.2054
33.9019
35.1375
55.5168
55.5171
48.1895
47.1353
47.8606
47.854
43.0634
43.0251
43.8282
44.1921
43.4948
43.5183
23.1916
25.3252
24.695
24.1301
58.8683
58.8725
44.9962
45.0056
44.1231
43.4717
42.5932
42.5765
53.5612
53.5561
45.2068
45.076
25.9783
25.5292
25.6718
25.0243
51.1105
51.0897
39.2006
52.619
52.4316
38.2669
34.0686
33.7502
33.3007
33.3734
33.4869
32.1532
47.321
47.3498
54.4199
54.3922
56.4879
56.472
45.295
55.8283
55.6858
47.766
47.853
42.2029
42.1448
30.4862
42.5346
42.537
45.1945
31.9206
45.2374
47.7233
48.4076
51.9887
52.0026
39.2718
47.3509
47.3071
64.1076
61.4591
64.1074
61.4543
45.4204
45.5049
45.5264
58.987
58.9769
45.414
39.0596
41.2001
45.0496
41.364
59.1834
59.1395
41.0702
42.5588
41.0489
18.2837
17.892
18.956
17.8676
41.2011
43.0438
47.6888
47.7185
11.6154
38.3412
16.9977
16.1837
46.7868
38.8384
40.4857
38.9869
32.4819
52.1449
52.1489
47.8205
47.8934
39.1001
43.5274
46.5554
47.6036
47.4606
44.461
12.349
27.8433
28.003
26.8312
32.1511
32.155
41.78
31.4049
41.7753
48.001
48.0392
37.8129
37.9344
15.9681
15.3521
48.3889
48.3589
59.0283
59.021
37.5502
37.6333
37.5615
37.4972
50.1676
50.0431
35.0801
34.2258
34.3623
35.0951
55.5848
55.4824
48.1642
47.1429
47.8387
47.8323
42.9966
42.9921
43.9079
44.0575
43.4255
43.5728
24.9587
25.3362
24.1209
23.9022
58.9279
58.8185
45.0902
44.9374
44.1172
43.4422
42.5796
42.6396
53.5419
53.5544
45.1667
44.4353
25.9598
25.4983
25.3225
26.0295
51.1969
51.1011
39.293
52.6152
52.422
38.5731
34.1373
33.5809
33.3443
33.4068
33.5272
32.0219
47.3301
47.2651
54.4066
54.3513
56.554
56.4711
45.3983
55.8194
55.6836
47.7241
47.8782
31.1288
42.1291
42.1598
42.5144
42.5191
45.1779
45.19
47.7182
48.3906
52.0927
51.9058
39.1913
47.3238
47.3829
64.1251
61.4925
64.0961
61.446
30.8191
45.3471
45.5862
45.4766
58.9767
58.9765
45.5166
39.2916
41.0983
45.0259
40.6898
59.1849
59.139
40.7375
42.6099
40.9702
17.7022
18.8352
18.5982
18.5818
41.2698
43.0453
47.7879
47.7422
11.809
38.6136
38.3405
17.0986
16.393
46.7797
40.5698
52.222
52.1266
47.9487
47.7805
32.4435
38.9794
39.1463
43.3287
46.6244
47.5782
47.3747
44.4538
12.5088
27.9072
27.928
26.947
31.3636
32.1277
41.735
32.3513
41.8398
48.1004
47.9628
37.8798
37.718
15.8582
15.9836
48.5566
48.1236
59.0034
59.0218
37.3773
38.8152
40.1839
38.0091
50.4459
53.1104
37.0504
35.3603
34.2287
35.3387
55.7667
57.6144
47.6075
48.2819
48.0374
50.4974
46.9028
43.2965
44.6819
45.8753
45.0069
43.6448
23.2996
26.116
25.3225
25.2444
58.9979
60.9871
45.3421
49.33
44.2857
43.772
43.183
45.0307
55.2209
53.6768
45.3286
45.3766
27.1598
25.6744
26.4723
25.2993
51.5826
52.8328
39.392
52.8766
52.6883
38.4952
35.9397
34.0539
34.943
33.5276
34.7287
32.8983
47.5614
51.8916
54.5445
57.3246
56.7545
57.804
46.4835
55.8454
55.8381
49.5556
47.9109
44.3008
42.3835
30.9737
45.4348
42.761
32.125
45.5185
50.8078
47.9513
48.4686
52.2294
55.9583
40.1293
47.8634
49.5662
64.1562
61.583
64.6537
62.2792
46.5475
45.5499
45.9439
48.8433
59.055
59.9648
40.7721
42.405
45.2429
59.3664
59.2161
41.2143
42.2508
43.7753
41.3942
44.5789
18.5807
18.7085
19.3679
18.5624
43.1776
48.4399
49.2645
11.6671
17.8229
16.6525
46.9235
48.2989
39.0048
40.6266
40.7491
41.8596
39.2573
33.2262
52.5229
54.2729
48.1399
53.4973
44.0856
47.9061
47.7067
44.5935
12.847
29.5042
28.2021
27.9312
34.1171
32.5804
42.2203
44.983
31.5595
48.3566
52.112
40.0696
38.5543
15.5887
15.5084
49.026
48.4905
60.4769
59.1039
59.0383
62.3728
59.0177
62.3756
64.0601
64.0587
60.7126
62.5958
58.8425
60.7326
64.877
64.8759
58.9151
59.0439
61.4325
61.1568
58.9227
62.0771
63.4707
63.4917
58.8604
62.0897
59.8251
61.6496
59.792
61.6805
65.3295
65.3286
63.069
63.0678
57.7073
57.8728
63.1883
63.1885
61.6142
62.9647
58.1564
58.2217
60.4463
60.4867
62.007
59.4243
64.3355
64.3335
58.6548
59.9862
59.9478
58.7209
61.5952
61.5611
62.4038
59.6798
59.6588
62.3179
62.3388
58.7836
63.1909
61.5745
65.0685
65.0676
63.6571
61.0301
60.9058
59.7557
62.189
60.3806
61.2136
59.1959
60.1753
61.3798
57.2051
59.1829
62.701
57.8005
57.9549
64.25
64.2483
62.9655
63.8094
63.8107
66.1412
65.7672
66.141
65.7667
57.168
63.3842
63.3833
63.2376
64.4068
62.7423
62.9704
63.2038
56.7246
58.6445
62.7163
62.7337
58.7058
58.7196
62.349
60.94
61.0233
59.7497
61.6488
62.363
58.7077
63.9262
63.9259
60.1823
59.8184
60.2856
61.5295
57.5931
59.7376
58.1177
61.6312
59.2705
64.4313
64.4304
63.4573
63.4553
61.6059
58.4432
62.4504
58.7529
58.7671
58.454
61.2485
61.1015
61.1014
62.0635
61.9611
61.9343
62.8324
59.431
62.8332
63.6363
63.6363
62.6447
62.6638
60.441
59.8516
57.5832
57.5784
64.0363
63.869
38.0033
37.8101
37.9615
40.2377
53.1368
50.4438
35.3488
35.347
34.2346
37.0233
57.6321
55.7647
47.2543
48.5882
50.4883
48.042
43.2585
46.9181
45.5537
45.0331
44.9704
43.8017
23.7335
25.6061
24.4788
26.1399
61.0006
58.9987
49.3673
45.3559
44.3804
43.6467
45.0693
43.1623
55.2136
53.7038
46.0259
45.2316
26.2306
26.612
26.7287
25.3655
52.8611
51.5679
39.6476
52.5152
53.0362
38.483
34.453
35.9665
33.9879
34.4495
33.7263
33.8091
51.9
47.5195
54.5385
57.3257
57.8196
56.7499
46.5044
55.9847
55.6931
49.5349
48.0677
44.2694
42.3994
30.7557
42.7536
45.4298
45.3613
32.4456
50.8411
47.8025
48.6177
55.9849
52.2318
41.0501
49.5585
47.8927
64.6577
62.2873
64.156
61.5814
46.509
48.8772
45.936
59.962
59.067
45.7185
39.8994
42.4837
45.2101
41.5552
59.1772
59.3997
42.1274
42.7292
44.6106
17.9186
19.4068
19.2007
18.3591
41.5661
43.6635
49.2784
48.4624
11.878
38.5739
17.3725
17.0113
48.2261
40.3721
40.744
41.8702
32.7283
54.2895
52.5242
53.5404
48.1189
39.4167
43.687
46.7971
48.1914
47.5884
44.837
12.5026
28.2138
29.512
27.5715
32.5276
34.1591
45.0314
32.1344
42.2111
52.1459
48.3421
38.3751
40.2515
16.0444
15.6146
48.4855
49.088
59.1075
60.4758
VECTORS nodal_fluid_flux_TPM float
-0.000372544 8.8372e-06 -5.41344e-20
0.000306576 -0.000127 8.98005e-20
0.000176078 0.000292828 3.01145e-21
0.000670124 8.82185e-05 1.52731e-19
-9.60875e-05 -0.000166405 1.12559e-20
-9.54941e-05 0.000165377 -1.31418e-20
0.00067032 -8.82443e-05 -1.15099e-19
0.000176074 -0.000292686 4.62552e-20
-0.000372053 -9.9852e-06 -8.54894e-20
0.0003068 0.000127095 -2.40153e-20
-0.000182593 -0.000342177 5.47205e-20
0.00025418 0.000256148 7.87358e-20
0.000254093 -0.000255452 4.31334e-20
-0.00024106 0.000417565 -8.19851e-20
-0.000543838 0.000443023 9.37635e-21
0.000801264 -0.000105471 1.06731e-19
-0.000183556 0.000317934 5.38328e-20
-0.00018563 -0.000321452 1.20442e-19
0.000810294 0.000106663 -8.4712e-20
0.000314295 0.000130167 -9.52715e-21
-0.000240604 -0.000416766 -3.10505e-19
0.000182406 -0.000341972 -1.18841e-19
-0.000386124 -5.32621e-06 2.28282e-19
-0.000186628 -0.000323209 4.13731e-19
-0.000185818 0.000321859 1.86401e-19
-0.000183588 -0.000341892 -2.38412e-20
0.000310245 0.000128515 4.95682e-20
-0.000800034 9.38311e-05 5.60043e-20
0.000806954 0.000106198 -1.88589e-19
0.000240463 -0.000416497 6.47063e-20
-0.000385496 -6.26714e-06 1.35185e-19
-0.000185736 -0.000321678 9.33515e-20
-0.000186296 0.000322647 5.19469e-20
-0.000385354 5.34551e-06 -5.84676e-19
0.00018206 0.000341769 -1.31885e-20
-0.000385008 -6.03082e-06 -1.23279e-19
0.000241248 -0.00041788 2.38583e-20
0.000807027 -0.000106206 1.95279e-19
-0.000540082 0.000440288 9.59944e-20
-0.00018644 -0.000322934 -5.67338e-20
-0.00018578 0.000321742 9.13552e-20
-0.000385312 6.7868e-06 2.97664e-19
0.000182644 0.000342143 -9.91365e-20
-0.000240647 0.000416841 -8.94523e-20
0.000314301 -0.000130169 -5.94436e-20
0.000810864 -0.000106738 -7.00327e-20
-0.000186016 0.00032212 8.10974e-20
-0.000183112 -0.000317162 2.42532e-21
0.000801058 0.000105446 -2.53248e-19
-0.000800179 9.3743e-05 9.37433e-20
-0.000383505 5.64602e-06 1.45821e-19
0.000180909 0.000338546 -5.873e-20
-0.000238021 0.000412254 3.99685e-19
0.000307724 -0.000127425 4.13408e-20
0.000790618 -0.000103996 -2.96127e-19
0.000248312 0.000247718 -7.54694e-20
0.000205363 -0.000236045 9.4872e-20
0.000622777 8.20928e-05 3.64163e-19
0.000146032 0.000131031 -3.01145e-21
-0.000213074 -3.49481e-05 -1.2237e-20
-0.000547644 0.000441908 -4.18649e-19
-7.92946e-05 0.000137319 -9.48424e-20
4.97207e-05 -2.05944e-05 -6.03951e-20
0.000121105 -1.59414e-05 -9.50632e-20
3.75322e-05 3.54516e-05 -2.89297e-20
3.75067e-05 -3.54309e-05 2.77404e-20
0.000121018 1.59299e-05 1.13705e-19
4.96755e-05 2.05757e-05 7.66121e-20
-3.26831e-05 -9.98956e-05 -1.34263e-20
0.000178295 -7.38916e-05 8.62496e-20
-0.000193846 0.0003358 -1.04149e-20
1.60365e-05 5.77837e-06 2.19468e-19
0.000621413 -8.19162e-05 -2.38241e-20
0.000204949 0.000235665 -1.5652e-19
0.000248363 -0.000247893 7.09204e-20
0.000790683 0.000104004 -2.43118e-19
0.000307576 0.000127364 -4.05339e-20
-0.000180633 -0.000337985 2.82051e-19
0.000237862 -0.000412075 4.67135e-19
-0.000383309 -6.76497e-06 -6.61972e-20
-0.000547723 0.000451113 4.29384e-19
-0.000372544 8.8372e-06 2.98812e-20
0.000306576 -0.000127 4.3592e-20
0.000176078 0.000292828 5.76215e-20
0.000670124 8.82185e-05 1.9894e-19
-9.60875e-05 -0.000166405 -1.56775e-19
-9.54941e-05 0.000165377 8.34761e-20
0.00067032 -8.82443e-05 -2.70527e-19
0.000176074 -0.000292686 7.98614e-20
-0.000372053 -9.9852e-06 3.21324e-20
0.0003068 0.000127095 -3.66177e-20
-0.000182593 -0.000342177 2.53151e-20
0.00025418 0.000256148 6.19327e-20
0.000254093 -0.000255452 -5.76853e-20
-0.00024106 0.000417565 -1.0719e-19
-0.000543838 0.000443023 5.17557e-21
0.000801264 -0.000105471 -6.55007e-20
-0.000183556 0.000317934 2.86281e-20
-0.00018563 -0.000321452 7.84342e-20
0.000810294 0.000106663 -5.11058e-20
0.000314295 0.000130167 2.40791e-20
-0.000240604 -0.000416766 -2.64296e-19
0.000182406 -0.000341972 -1.18841e-19
-0.000386124 -5.32621e-06 1.69471e-19
-0.000186628 -0.000323209 3.38117e-19
-0.000185818 0.000321859 1.19189e-19
-0.000183588 -0.000341892 -2.83732e-21
0.000310245 0.000128515 7.89737e-20
-0.000800034 9.38311e-05 5.49541e-20
0.000806954 0.000106198 -1.33979e-19
0.000240463 -0.000416497 1.48722e-19
-0.000385496 -6.26714e-06 -4.54483e-20
-0.000185736 -0.000321678 3.03398e-20
-0.000186296 0.000322647 -4.46709e-20
-0.000385354 5.34551e-06 -6.18282e-19
0.00018206 0.000341769 -4.25939e-20
-0.000385008 -6.03082e-06 -1.02275e-19
0.000241248 -0.00041788 -1.69377e-19
0.000807027 -0.000106206 8.60584e-20
-0.000540082 0.000440288 7.49906e-20
-0.00018644 -0.000322934 -6.32449e-21
-0.00018578 0.000321742 -1.22884e-19
-0.000385312 6.7868e-06 2.89263e-19
0.000182644 0.000342143 -1.57947e-19
-0.000240647 0.000416841 2.39687e-20
0.000314301 -0.000130169 -1.22455e-19
0.000810864 -0.000106738 -1.28844e-19
-0.000186016 0.00032212 1.10503e-19
-0.000183112 -0.000317162 2.42532e-21
0.000801058 0.000105446 -1.56631e-19
-0.000800179 9.3743e-05 1.06346e-19
-0.000383505 5.64602e-06 8.70099e-20
0.000180909 0.000338546 -1.59549e-19
-0.000238021 0.000412254 5.97121e-19
0.000307724 -0.000127425 1.21156e-19
0.000790618 -0.000103996 -2.83524e-19
0.000248312 0.000247718 -1.8889e-19
0.000205363 -0.000236045 2.08293e-19
0.000622777 8.20928e-05 2.59144e-19
0.000146032 0.000131031 -5.76215e-20
-0.000213074 -3.49481e-05 -9.20517e-20
-0.000547644 0.000441908 -4.14448e-19
-7.92946e-05 0.000137319 8.99918e-20
4.97207e-05 -2.05944e-05 -7.29974e-20
0.000121105 -1.59414e-05 -6.98585e-20
3.75322e-05 3.54516e-05 4.67651e-21
3.75067e-05 -3.54309e-05 5.71458e-20
0.000121018 1.59299e-05 2.84524e-22
4.96755e-05 2.05757e-05 9.98122e-22
-3.26831e-05 -9.98956e-05 -3.02294e-20
0.000178295 -7.38916e-05 5.68442e-20
-0.000193846 0.0003358 2.73921e-20
1.60365e-05 5.77837e-06 1.56456e-19
0.000621413 -8.19162e-05 -1.75052e-19
0.000204949 0.000235665 -1.73323e-19
0.000248363 -0.000247893 1.2553e-19
0.000790683 0.000104004 -2.97728e-19
0.000307576 0.000127364 9.38909e-20
-0.000180633 -0.000337985 2.44244e-19
0.000237862 -0.000412075 5.17544e-19
-0.000383309 -6.76497e-06 -2.83902e-20
-0.000547723 0.000451113 4.34635e-19
-7.11538e-05 -0.000449773 -1.15871e-20
0.000176078 0.000292828 1.61362e-20
2.50327e-05 3.52237e-05 -5.52366e-20
-0.000102123 1.1497e-06 -7.90141e-20
-0.000372544 8.8372e-06 1.08269e-20
0.000328075 -9.23276e-05 1.96404e-20
0.000146993 -0.000354889 3.64264e-20
5.85259e-05 0.000107676 1.16067e-19
5.49122e-05 1.04598e-06 4.44968e-20
5.49122e-05 1.04598e-06 2.17641e-20
6.3555e-05 -0.00010177 -1.71047e-20
0.000147096 0.000355137 -1.63146e-19
0.000328062 9.24122e-05 -1.15179e-19
-0.000372053 -9.9852e-06 2.98812e-20
-0.000100794 -3.32402e-06 2.68293e-20
2.7721e-05 -3.67029e-05 2.23036e-20
0.000176074 -0.000292686 -9.9264e-20
7.9744e-05 0.000449767 -1.50743e-20
-0.000182593 -0.000342177 -1.14576e-19
-1.2008e-05 -3.36733e-05 -1.06723e-19
0.000107926 4.02992e-06 -9.19647e-20
0.000270149 7.47659e-05 8.92144e-20
-0.000386128 -3.25293e-09 -5.39011e-21
0.000172014 -0.000331408 -2.87385e-20
4.93338e-05 -9.38013e-05 -1.48745e-19
4.89529e-05 9.0469e-05 -4.52485e-20
0.000171433 0.000332723 7.02239e-20
-0.000386233 2.57876e-09 1.59791e-20
0.000269899 -7.46318e-05 -1.97042e-20
0.000106345 -1.1797e-06 -2.02988e-20
2.58558e-05 4.45802e-05 -2.9159e-20
-0.000129264 0.000104967 4.2356e-20
0.000440586 -0.000535858 4.35325e-23
0.000560394 -0.000431393 8.38562e-21
-0.000443063 0.000548386 -3.15058e-21
0.000372216 0.000121003 -6.14741e-20
0.000186853 0.000451012 5.23589e-20
-2.17621e-05 0.00019905 9.19368e-21
-4.97057e-05 3.03282e-06 1.19525e-20
-4.97057e-05 3.03282e-06 -3.84568e-20
-1.54205e-05 -0.000189712 -3.41457e-20
0.000188158 -0.000454162 -4.66247e-19
0.000377836 -0.000121586 1.09441e-19
0.000272746 8.18365e-05 -3.65289e-19
0.000102806 4.02111e-06 -4.40077e-19
2.12134e-05 -4.52203e-05 -3.97903e-19
-0.000130245 -0.000105877 -2.67889e-20
7.64491e-05 -0.000459445 3.39371e-19
0.000182406 -0.000341972 -4.60811e-20
1.73496e-05 -3.12181e-05 1.33662e-19
-0.00010789 1.95116e-06 1.20474e-19
-0.000386124 -5.32621e-06 -5.10592e-20
-0.000388199 -8.10581e-09 3.34456e-19
-2.67955e-05 -0.000198979 -1.48499e-19
-5.16858e-05 -3.73865e-06 2.69801e-20
-5.16858e-05 -3.73865e-06 1.14292e-19
-2.04718e-05 0.00018969 -9.48674e-21
-0.000388003 2.33023e-08 -2.14333e-19
0.000271726 7.74216e-05 6.477e-20
0.000107231 5.61353e-06 -3.94316e-20
-1.33796e-05 -3.33194e-05 -4.8347e-20
-0.000183588 -0.000341892 1.83874e-20
7.85349e-05 0.000460581 6.59593e-20
0.000421245 -0.000524777 1.40165e-19
0.00053983 0.000437278 -1.24741e-19
0.000436849 0.000537437 -1.23929e-19
0.000187902 -0.000453582 1.34582e-19
0.000375336 -0.000121621 -1.19525e-20
-7.69923e-05 -0.000459215 -1.44415e-20
0.000129735 -0.00010576 1.23152e-19
-2.36585e-05 -4.63938e-05 4.33514e-19
-0.000108266 1.14622e-06 4.22006e-19
-0.000385496 -6.26714e-06 4.04535e-19
-0.000388008 -1.37721e-08 5.16453e-20
-2.05006e-05 -0.000189516 1.58652e-19
-5.14725e-05 3.80422e-06 -2.06271e-19
-5.14725e-05 3.80422e-06 -1.72554e-19
-2.67475e-05 0.000198745 7.74913e-20
-0.000387435 1.39807e-08 -2.66437e-19
-0.000385354 5.34551e-06 -1.61626e-19
-0.000107724 -2.11405e-06 2.7717e-20
1.73713e-05 3.12032e-05 9.04823e-20
0.00018206 0.000341769 -7.86208e-21
7.59971e-05 0.000459518 1.52162e-19
0.000133029 -0.000103286 2.57908e-20
-2.67627e-05 -4.4493e-05 4.78565e-20
-0.000108317 1.65285e-07 7.79118e-20
-0.000385008 -6.03082e-06 1.50735e-19
0.00037508 0.000121785 -8.7851e-20
0.00018808 0.000454008 1.04115e-19
-6.95836e-05 -0.000785437 -2.25967e-20
0.00053136 0.000421216 9.67908e-20
-0.000440157 0.000546829 -1.27329e-20
-7.57226e-05 -0.000460549 -6.51991e-20
-0.000387353 -2.28059e-08 7.05721e-20
-2.6788e-05 -0.000198965 8.08277e-20
-5.16775e-05 -3.77825e-06 2.61697e-19
-5.16775e-05 -3.77825e-06 1.1475e-19
-2.04664e-05 0.000189602 9.9557e-20
-0.000388034 8.20834e-09 1.23865e-19
-0.000385312 6.7868e-06 -3.02863e-19
-0.00010941 -1.26984e-06 -2.33829e-19
2.02481e-05 3.29392e-05 -3.75013e-19
0.000182644 0.000342143 -1.97101e-19
7.66586e-05 0.000459554 2.12477e-19
-0.000130022 0.000105698 -4.26618e-19
2.10869e-05 4.51995e-05 -1.89294e-19
0.000102698 -3.90995e-06 6.22889e-21
0.00027271 -8.17952e-05 -1.51844e-19
0.000377913 0.000121772 -1.15829e-19
0.000188395 0.000454733 -2.78801e-19
-1.39418e-05 -0.000190194 1.66523e-19
-4.9351e-05 1.25889e-06 2.46828e-19
-4.9351e-05 1.25889e-06 1.71406e-19
-2.32467e-05 0.000198786 1.00065e-19
0.000186666 -0.000450566 2.8183e-19
0.000372369 -0.00012084 3.43198e-20
0.000421459 -0.000525541 -1.22731e-20
0.000539695 0.000436993 -7.61916e-20
0.000436554 0.000537103 -2.48211e-19
-0.000376059 -8.54922e-09 -4.09038e-21
-0.000385718 -2.40635e-08 1.60245e-19
-0.000383505 5.64602e-06 2.29233e-19
-0.000106912 -1.96988e-06 2.31206e-19
1.75905e-05 3.121e-05 8.19851e-20
0.000180909 0.000338546 -2.03204e-19
7.60703e-05 0.000454547 2.03141e-19
-0.000128156 0.000104438 -1.64748e-19
2.2008e-05 4.40872e-05 -1.963e-19
0.000101858 -4.78717e-06 -2.6052e-20
0.000266964 -8.07237e-05 -3.2179e-20
0.000369197 0.000118383 -1.22629e-19
0.000183263 0.00044243 -3.11851e-19
0.000166939 0.000323022 -2.97537e-20
4.72948e-05 8.06806e-05 1.00207e-19
4.37778e-05 -9.49978e-05 1.06824e-19
0.000136644 -0.000299662 1.70184e-19
0.000157374 -0.000379772 3.77432e-20
0.000267278 -0.00010563 -5.1692e-20
-0.000213074 -3.49481e-05 5.1297e-20
-2.0566e-05 -6.53581e-05 -1.42571e-19
5.83783e-05 -5.63345e-05 -1.33979e-19
0.000146032 0.000131031 -1.53857e-19
9.13232e-05 -0.000374116 9.81384e-20
0.000443982 -0.000551412 2.78321e-19
0.000552845 -0.000437593 2.72107e-19
-0.000442738 0.000542652 -2.6044e-19
-0.000199437 4.17092e-09 1.29506e-20
7.39197e-05 0.00015796 -5.8985e-20
-1.32959e-05 1.48602e-05 2.79316e-20
1.13335e-05 3.85841e-07 2.43169e-20
2.04789e-05 -5.82995e-06 2.99852e-19
4.24407e-05 -1.48901e-05 3.2447e-19
5.78752e-05 1.74313e-05 -7.25217e-20
2.73315e-05 6.59849e-05 4.74024e-21
2.53337e-05 4.67398e-05 4.54422e-19
5.99644e-06 1.10246e-05 3.26768e-19
6.01441e-06 -1.10812e-05 3.45695e-19
2.52998e-05 -4.67269e-05 7.16977e-20
2.73135e-05 -6.59416e-05 -1.42525e-19
5.78303e-05 -1.74204e-05 6.5594e-20
4.24096e-05 1.48659e-05 -2.76359e-19
2.0508e-05 5.94138e-06 -4.01257e-19
8.7615e-06 1.21823e-06 -1.64968e-19
-3.26831e-05 -9.98956e-05 -1.44394e-19
7.39712e-06 -0.000157055 2.43807e-20
-4.6193e-05 0.000129447 -6.45322e-20
6.21042e-05 9.88429e-05 -1.31982e-19
0.000106724 7.19598e-05 -4.25939e-20
0.000204766 2.5323e-05 3.1355e-20
-0.000199459 -4.04627e-09 -1.25055e-19
2.28089e-05 2.77934e-07 1.7402e-19
1.62875e-05 5.58143e-06 2.07388e-19
2.28437e-05 1.53593e-07 2.36382e-19
9.14369e-05 0.000374197 -9.05608e-20
0.00026661 0.000105441 -2.59649e-20
0.000157075 0.000379049 -2.58256e-19
0.000136266 0.00029925 4.40677e-20
4.40654e-05 9.52889e-05 -1.30254e-19
4.68652e-05 -8.03356e-05 -1.107e-19
0.000167103 -0.000323093 -1.17413e-19
0.000183324 -0.000442576 -1.13102e-19
0.000369145 -0.000118436 1.17001e-19
0.000266913 8.05373e-05 -3.82656e-20
0.000102091 5.4832e-06 -1.3191e-19
-1.29167e-05 -3.11124e-05 -1.37387e-19
-0.000180633 -0.000337985 -1.87892e-19
-7.55587e-05 -0.000454246 3.73023e-19
0.000128849 -0.000104946 -3.02689e-19
-2.31938e-05 -4.61935e-05 -3.80357e-21
-0.000107184 9.61244e-07 2.14073e-20
-0.000383309 -6.76497e-06 7.685e-20
-0.000386035 2.4349e-08 6.07605e-20
-0.00037599 7.75383e-09 -9.19413e-20
0.000432239 -0.00052936 -2.4055e-19
0.000550851 -0.000423436 2.07936e-20
-0.000450295 0.000562845 1.80702e-19
-7.11538e-05 -0.000449773 -8.30003e-20
0.000176078 0.000292828 1.4636e-19
2.50327e-05 3.52237e-05 1.08594e-19
-0.000102123 1.1497e-06 5.96115e-20
-0.000372544 8.8372e-06 -5.97623e-21
0.000328075 -9.23276e-05 7.03809e-21
0.000146993 -0.000354889 1.6245e-19
5.85259e-05 0.000107676 4.88546e-20
5.49122e-05 1.04598e-06 -8.57272e-20
5.49122e-05 1.04598e-06 6.79727e-20
6.3555e-05 -0.00010177 7.53124e-20
0.000147096 0.000355137 -1.71548e-19
0.000328062 9.24122e-05 -5.21677e-20
-0.000372053 -9.9852e-06 -5.41344e-20
-0.000100794 -3.32402e-06 -2.57612e-21
2.7721e-05 -3.67029e-05 -2.90105e-21
0.000176074 -0.000292686 -6.56577e-20
7.9744e-05 0.000449767 -1.15893e-19
-0.000182593 -0.000342177 -1.69186e-19
-1.2008e-05 -3.36733e-05 -2.06067e-20
0.000107926 4.02992e-06 4.65318e-21
0.000270149 7.47659e-05 -1.16042e-20
-0.000386128 -3.25293e-09 6.60231e-20
0.000172014 -0.000331408 -1.33758e-19
4.93338e-05 -9.38013e-05 -1.27741e-19
4.89529e-05 9.0469e-05 -8.93567e-20
0.000171433 0.000332723 -9.59088e-21
-0.000386233 2.57876e-09 -5.96349e-20
0.000269899 -7.46318e-05 3.91067e-20
0.000106345 -1.1797e-06 7.00179e-20
2.58558e-05 4.45802e-05 -6.90664e-20
-0.000129264 0.000104967 2.55529e-20
0.000440586 -0.000535858 8.44508e-21
0.000560394 -0.000431393 3.13465e-21
-0.000443063 0.000548386 3.15058e-21
0.000372216 0.000121003 6.875e-20
0.000186853 0.000451012 -2.32551e-20
-2.17621e-05 0.00019905 5.75026e-20
-4.97057e-05 3.03282e-06 -2.16537e-20
-4.97057e-05 3.03282e-06 2.87556e-20
-1.54205e-05 -0.000189712 1.0448e-19
0.000188158 -0.000454162 -5.20857e-19
0.000377836 -0.000121586 5.06301e-20
0.000272746 8.18365e-05 -2.43466e-19
0.000102806 4.02111e-06 -4.46378e-19
2.12134e-05 -4.52203e-05 -3.68498e-19
-0.000130245 -0.000105877 -1.06604e-19
7.64491e-05 -0.000459445 3.05764e-19
0.000182406 -0.000341972 -4.60811e-20
1.73496e-05 -3.12181e-05 9.79557e-20
-0.00010789 1.95116e-06 5.53618e-20
-0.000386124 -5.32621e-06 4.13579e-20
-0.000388199 -8.10581e-09 3.47059e-19
-2.67955e-05 -0.000198979 -2.26213e-19
-5.16858e-05 -3.73865e-06 -3.18308e-20
-5.16858e-05 -3.73865e-06 5.54807e-20
-2.04718e-05 0.00018969 -8.51007e-20
-0.000388003 2.33023e-08 -3.79003e-20
0.000271726 7.74216e-05 1.02577e-19
0.000107231 5.61353e-06 1.51784e-20
-1.33796e-05 -3.33194e-05 -1.63868e-19
-0.000183588 -0.000341892 1.15005e-19
7.85349e-05 0.000460581 4.07547e-20
0.000421245 -0.000524777 1.45416e-19
0.00053983 0.000437278 -1.22641e-19
0.000436849 0.000537437 -1.11327e-19
0.000187902 -0.000453582 7.15702e-20
0.000375336 -0.000121621 2.16537e-20
-7.69923e-05 -0.000459215 6.53732e-20
0.000129735 -0.00010576 1.94565e-19
-2.36585e-05 -4.63938e-05 4.02008e-19
-0.000108266 1.14622e-06 4.22006e-19
-0.000385496 -6.26714e-06 6.01972e-19
-0.000388008 -1.37721e-08 1.38383e-20
-2.05006e-05 -0.000189516 1.4815e-19
-5.14725e-05 3.80422e-06 -1.9997e-19
-5.14725e-05 3.80422e-06 -1.53651e-19
-2.67475e-05 0.000198745 8.37924e-20
-0.000387435 1.39807e-08 -1.99224e-19
-0.000385354 5.34551e-06 6.40531e-21
-0.000107724 -2.11405e-06 -5.88917e-21
1.73713e-05 3.12032e-05 2.9571e-20
0.00018206 0.000341769 -6.24722e-20
7.59971e-05 0.000459518 -2.8471e-20
0.000133029 -0.000103286 2.99916e-20
-2.67627e-05 -4.4493e-05 3.9455e-20
-0.000108317 1.65285e-07 1.9101e-20
-0.000385008 -6.03082e-06 4.57157e-20
0.00037508 0.000121785 -1.64378e-20
0.00018808 0.000454008 7.05084e-20
-6.95836e-05 -0.000785437 -2.46971e-20
0.00053136 0.000421216 9.7841e-20
-0.000440157 0.000546829 -1.27329e-20
-7.57226e-05 -0.000460549 4.82219e-20
-0.000387353 -2.28059e-08 5.79698e-20
-2.6788e-05 -0.000198965 1.4594e-19
-5.16775e-05 -3.77825e-06 2.74299e-19
-5.16775e-05 -3.77825e-06 2.02967e-19
-2.04664e-05 0.000189602 9.32559e-20
-0.000388034 8.20834e-09 1.57472e-19
-0.000385312 6.7868e-06 -3.61674e-19
-0.00010941 -1.26984e-06 -3.09443e-19
2.02481e-05 3.29392e-05 -3.16203e-19
0.000182644 0.000342143 -2.05502e-19
7.66586e-05 0.000459554 2.62886e-19
-0.000130022 0.000105698 -4.39221e-19
2.10869e-05 4.51995e-05 -1.82993e-19
0.000102698 -3.90995e-06 1.25951e-19
0.00027271 -8.17952e-05 -2.02253e-19
0.000377913 0.000121772 -6.12191e-20
0.000188395 0.000454733 -1.98987e-19
-1.39418e-05 -0.000190194 1.24515e-19
-4.9351e-05 1.25889e-06 1.69114e-19
-4.9351e-05 1.25889e-06 1.06294e-19
-2.32467e-05 0.000198786 4.54545e-20
0.000186666 -0.000450566 8.43934e-20
0.000372369 -0.00012084 -7.06996e-20
0.000421459 -0.000525541 -2.59256e-20
0.000539695 0.000436993 -6.56896e-20
0.000436554 0.000537103 -2.47161e-19
-0.000376059 -8.54922e-09 8.41259e-20
-0.000385718 -2.40635e-08 1.93851e-19
-0.000383505 5.64602e-06 1.20013e-19
-0.000106912 -1.96988e-06 2.10202e-19
1.75905e-05 3.121e-05 1.0719e-19
0.000180909 0.000338546 -1.02386e-19
7.60703e-05 0.000454547 1.48531e-19
-0.000128156 0.000104438 -1.31141e-19
2.2008e-05 4.40872e-05 -2.25705e-19
0.000101858 -4.78717e-06 -8.06621e-20
0.000266964 -8.07237e-05 -4.05806e-20
0.000369197 0.000118383 -9.3224e-20
0.000183263 0.00044243 -4.08469e-19
0.000166939 0.000323022 -3.81552e-20
4.72948e-05 8.06806e-05 1.02307e-19
4.37778e-05 -9.49978e-05 1.86639e-19
0.000136644 -0.000299662 1.91188e-19
0.000157374 -0.000379772 8.33782e-21
0.000267278 -0.00010563 -1.39908e-19
-0.000213074 -3.49481e-05 -5.37224e-20
-2.0566e-05 -6.53581e-05 -4.17528e-20
5.83783e-05 -5.63345e-05 -1.88589e-19
0.000146032 0.000131031 -1.83262e-19
9.13232e-05 -0.000374116 8.13353e-20
0.000443982 -0.000551412 2.66769e-19
0.000552845 -0.000437593 2.89961e-19
-0.000442738 0.000542652 -2.64641e-19
-0.000199437 4.17092e-09 5.49584e-20
7.39197e-05 0.00015796 2.50305e-20
-1.32959e-05 1.48602e-05 -8.12886e-20
1.13335e-05 3.85841e-07 -2.18916e-20
2.04789e-05 -5.82995e-06 3.04053e-19
4.24407e-05 -1.48901e-05 2.23652e-19
5.78752e-05 1.74313e-05 -8.5124e-20
2.73315e-05 6.59849e-05 -7.50745e-20
2.53337e-05 4.67398e-05 4.50222e-19
5.99644e-06 1.10246e-05 3.18367e-19
6.01441e-06 -1.10812e-05 3.62498e-19
2.52998e-05 -4.67269e-05 4.22923e-20
2.73135e-05 -6.59416e-05 8.43171e-20
5.78303e-05 -1.74204e-05 1.45409e-19
4.24096e-05 1.48659e-05 -3.68776e-19
2.0508e-05 5.94138e-06 -2.5843e-19
8.7615e-06 1.21823e-06 -2.90992e-19
-3.26831e-05 -9.98956e-05 -1.61197e-19
7.39712e-06 -0.000157055 -6.80364e-20
-4.6193e-05 0.000129447 -1.14941e-19
6.21042e-05 9.88429e-05 -3.53646e-20
0.000106724 7.19598e-05 -1.31885e-20
0.000204766 2.5323e-05 -2.25119e-21
-0.000199459 -4.04627e-09 -9.56493e-20
2.28089e-05 2.77934e-07 2.91641e-19
1.62875e-05 5.58143e-06 2.704e-19
2.28437e-05 1.53593e-07 2.19578e-19
9.14369e-05 0.000374197 -1.32569e-19
0.00026661 0.000105441 -6.37719e-20
0.000157075 0.000379049 -3.67476e-19
0.000136266 0.00029925 6.50716e-20
4.40654e-05 9.52889e-05 -1.68061e-19
4.68652e-05 -8.03356e-05 -1.77913e-19
0.000167103 -0.000323093 -1.93027e-19
0.000183324 -0.000442576 -1.17303e-19
0.000369145 -0.000118436 1.71612e-19
0.000266913 8.05373e-05 -1.09679e-19
0.000102091 5.4832e-06 -1.67617e-19
-1.29167e-05 -3.11124e-05 -1.18484e-19
-0.000180633 -0.000337985 1.14267e-21
-7.55587e-05 -0.000454246 3.98228e-19
0.000128849 -0.000104946 -3.27894e-19
-2.31938e-05 -4.61935e-05 -1.23526e-19
-0.000107184 9.61244e-07 8.65194e-20
-0.000383309 -6.76497e-06 -1.13663e-20
-0.000386035 2.4349e-08 -3.16566e-20
-0.00037599 7.75383e-09 6.76882e-20
0.000432239 -0.00052936 -2.3845e-19
0.000550851 -0.000423436 1.13419e-20
-0.000450295 0.000562845 1.6915e-19
-0.000120399 0.000181312 1.16594e-20
-0.00013499 -9.04886e-05 2.07108e-20
0.000128959 -0.000122921 1.60576e-20
0.000128029 0.000124102 -9.37316e-20
0.000159885 3.19548e-05 -3.24931e-21
0.000159671 -3.21475e-05 -7.71982e-20
3.99866e-05 -0.000176252 -1.62955e-20
0.000204846 -3.7312e-05 4.37428e-20
-0.000218344 -3.19648e-05 5.80887e-20
-2.73658e-05 0.000174462 -4.54164e-20
0.000258156 -7.39441e-05 1.8339e-19
0.000258061 7.40352e-05 -2.07194e-20
-0.000142376 -8.5744e-05 -1.27695e-19
-0.000143734 7.32719e-05 1.27814e-19
8.1662e-06 0.000162249 -8.01545e-20
3.02909e-06 -0.000162195 -4.67309e-20
-1.4249e-05 -0.000162735 -2.30724e-20
2.41136e-05 0.000157053 -8.47672e-20
0.000173256 -2.01285e-05 6.40012e-20
0.000135189 5.89192e-05 -1.15005e-19
-2.81239e-05 8.92512e-05 -6.58723e-20
3.73922e-05 -8.70635e-05 -1.81984e-20
-0.000244914 0.00016969 3.15291e-20
-0.000215726 -0.000121291 -3.48422e-20
0.000413661 -0.000193855 -2.54425e-20
0.000233721 0.000319298 -3.65858e-20
0.000258156 -7.39441e-05 2.57908e-20
0.000258061 7.40352e-05 9.21792e-20
0.000143612 -6.31126e-05 1.04234e-19
0.000143259 6.233e-05 -7.82134e-20
-0.000111598 5.36666e-05 -3.37251e-20
-0.000113268 -5.36104e-05 -1.35414e-19
0.00017317 6.10622e-05 -6.04589e-20
0.000172618 -6.26944e-05 -1.5393e-20
4.98672e-05 0.000264032 -1.555e-20
-4.09956e-05 -0.000262332 4.31334e-20
-0.000107485 2.54595e-05 -1.12017e-19
-0.000109722 -2.71603e-05 -3.46914e-20
8.70857e-07 -0.000377551 -4.73489e-20
4.44021e-05 0.000382933 -4.15118e-20
0.000403099 3.33445e-06 -5.3497e-21
-0.000374269 -5.04869e-05 2.15943e-20
0.000187874 -0.000113671 7.95131e-20
0.000187462 0.000113859 4.32825e-21
-0.000140454 8.31591e-05 2.27156e-20
-0.000185581 -2.484e-05 -1.46708e-20
-0.000186454 2.42879e-05 -7.89418e-20
-0.000146196 -8.8887e-05 -1.14767e-20
0.000135998 -0.000186785 -2.10357e-20
0.000136829 0.000189779 -4.09607e-20
0.000209506 -9.2604e-05 1.14498e-19
-0.000120399 0.000181312 -2.34844e-20
-3.06583e-05 -0.00016821 -8.07662e-21
0.000213466 9.11229e-05 -1.21266e-21
-0.000122624 0.000100708 -8.72011e-20
0.000133899 -0.000100535 8.08595e-20
3.86444e-05 -0.000343576 2.2002e-20
-2.79783e-05 0.00034344 -8.46016e-20
0.000207152 -0.000174842 1.75226e-19
0.000207227 0.000175174 1.21933e-19
9.14313e-05 3.13632e-05 -5.15816e-20
-2.38251e-05 0.000199635 1.19943e-19
-1.59417e-05 -0.000190574 -1.46764e-19
4.16862e-05 0.000111561 5.01162e-20
-2.93903e-05 -0.000113988 8.16369e-21
-5.78816e-06 0.000154551 1.3197e-20
1.6887e-05 -0.000151153 -7.84513e-20
-0.000215726 -0.000121291 2.86918e-20
-1.4249e-05 -0.000162735 -6.21154e-20
2.41136e-05 0.000157053 -1.00033e-19
-9.89415e-05 -6.74252e-05 -3.32727e-20
-0.000244914 0.00016969 -4.12304e-20
2.86675e-05 4.00331e-05 -1.17042e-19
-1.59417e-05 -0.000190574 2.61009e-20
-0.000111598 5.36666e-05 -1.17061e-20
0.000259747 -7.34486e-05 -2.36033e-20
0.000259761 7.3506e-05 -1.94692e-19
0.000213466 9.11229e-05 -9.19009e-20
0.000151232 9.12703e-05 1.7865e-20
0.000152055 -9.1309e-05 -3.2179e-20
0.000328075 -9.23276e-05 2.35396e-20
0.000258156 -7.39441e-05 -8.63942e-21
0.000328062 9.24122e-05 -6.08708e-20
0.000258061 7.40352e-05 -4.55416e-20
-2.81239e-05 8.92512e-05 -4.40444e-20
0.000143612 -6.31126e-05 9.28672e-20
0.000143259 6.233e-05 -1.71514e-20
-0.000175244 -0.0003329 -6.2141e-21
0.000185912 0.000336463 -1.1001e-20
-5.36485e-06 -2.85922e-05 3.24931e-21
0.000209506 -9.2604e-05 2.30957e-20
0.000173256 -2.01285e-05 -1.07079e-20
-0.000115921 3.382e-05 -3.30451e-21
-9.89415e-05 -6.74252e-05 2.68845e-20
-0.000383334 -7.21801e-06 -9.26379e-20
-0.00038372 6.16948e-06 1.21266e-20
-2.66416e-05 9.85735e-05 -3.0395e-20
-0.000146196 -8.8887e-05 -1.14767e-20
9.7588e-05 7.99836e-05 -6.45088e-20
8.70857e-07 -0.000377551 -1.16827e-20
4.44021e-05 0.000382933 6.204e-20
0.000403099 3.33445e-06 6.93595e-20
-0.000374269 -5.04869e-05 3.11766e-20
9.72332e-05 -8.08217e-05 1.52905e-21
-0.000135091 8.06446e-05 -2.32147e-20
9.07011e-05 -7.51216e-05 -5.59565e-20
8.94829e-05 7.35433e-05 -1.0784e-19
-0.000543838 0.000443023 5.10825e-20
-1.4249e-05 -0.000162735 1.33074e-20
-2.359e-05 -0.000351924 -3.64964e-21
0.00037746 2.74111e-05 2.51728e-20
-2.81239e-05 8.92512e-05 7.32757e-20
-5.78816e-06 0.000154551 9.10661e-21
-0.000115921 3.382e-05 1.3197e-20
2.41136e-05 0.000157053 -6.29394e-20
-0.000215726 -0.000121291 -6.3946e-20
0.000187874 -0.000113671 2.47198e-21
0.000187462 0.000113859 4.32825e-21
0.00012259 -5.14716e-05 -1.03163e-19
0.000123524 5.17815e-05 1.06604e-19
1.6887e-05 -0.000151153 6.28375e-20
-0.000146196 -8.8887e-05 -3.79174e-20
-5.36485e-06 -2.85922e-05 -7.21222e-21
-0.000109722 -2.71603e-05 -7.78248e-20
-0.000107485 2.54595e-05 1.9855e-20
-0.000111598 5.36666e-05 -5.41258e-20
0.000560394 -0.000431393 -7.85469e-21
8.70857e-07 -0.000377551 1.47579e-20
1.47279e-05 0.000347548 -4.33308e-20
0.000403099 3.33445e-06 1.96637e-20
0.000135998 -0.000186785 1.67712e-20
0.000136829 0.000189779 -8.07173e-20
0.000143259 6.233e-05 -4.74912e-20
-0.000244914 0.00016969 1.62636e-20
0.000143612 -6.31126e-05 3.80363e-20
0.000159671 -3.21475e-05 5.76682e-20
0.000159885 3.19548e-05 -4.44331e-20
0.000209506 -9.2604e-05 4.49236e-20
0.000213466 9.11229e-05 -1.45496e-19
-0.000443063 0.000548386 -2.40037e-20
-0.000543838 0.000443023 6.71316e-21
-0.000109722 -2.71603e-05 -2.9365e-20
-0.000107485 2.54595e-05 -8.60988e-20
-4.09956e-05 -0.000262332 5.62581e-20
4.98672e-05 0.000264032 -2.07579e-19
-0.000119844 0.00019357 -1.02407e-20
-0.000130989 -0.000124342 8.51474e-20
0.000115904 -0.000129318 -1.39392e-19
0.000117193 0.000130367 2.81694e-20
0.000159071 -5.2825e-05 -2.69266e-19
0.000159449 5.5759e-05 8.54723e-20
-3.27062e-05 -0.000175924 -1.02711e-19
0.000175365 -4.26495e-05 -3.05185e-21
-0.000246434 -5.56694e-05 -5.80017e-20
-2.97488e-05 0.000177568 -1.84681e-19
0.000292012 -0.000110885 -2.34432e-19
0.000288747 0.000112788 2.66319e-21
-0.000145324 -7.30181e-05 -1.44457e-19
-0.000143931 8.41859e-05 4.22052e-20
3.91097e-06 0.000165692 1.15092e-19
1.55831e-06 -0.000166044 -1.00999e-19
1.60803e-05 -0.000159799 -4.70956e-19
1.79546e-05 0.000161481 7.72215e-20
0.000143467 -2.53008e-05 -1.14141e-19
9.18471e-05 8.34991e-05 6.50398e-20
-3.09503e-05 -9.14339e-05 -1.84388e-19
-2.92561e-05 9.30437e-05 7.39085e-20
-0.000197041 0.000322169 1.41025e-19
-0.000221125 -0.000119579 -1.43778e-20
0.00039273 -0.000186589 8.09233e-20
0.000385739 0.000209483 3.10651e-20
0.000292012 -0.000110885 -2.67435e-19
0.000288747 0.000112788 1.24405e-19
0.000132129 -7.14958e-05 -4.38159e-19
0.000133003 7.3152e-05 1.10155e-19
-0.000113757 -5.32885e-05 -1.35026e-19
-0.000116013 5.39266e-05 1.7413e-22
0.000155392 7.26373e-05 -5.54091e-21
0.000153411 -7.36651e-05 -1.35191e-19
4.78809e-05 0.000270038 1.24753e-19
4.59788e-05 -0.000270015 8.63134e-20
-0.00010962 -2.54996e-05 4.41719e-20
-0.000116965 2.85457e-05 1.58198e-20
-4.98373e-06 -0.000369897 -3.11891e-19
-3.70257e-05 0.000377375 -6.77667e-20
0.000372848 -2.71954e-05 5.47364e-20
-0.000328801 3.00754e-06 -1.83409e-19
0.000184794 -0.000174675 -1.40906e-19
0.000183032 0.000175185 1.6374e-20
-0.000172636 -0.000103911 -7.71345e-20
-0.000187903 -2.43677e-05 -1.32522e-20
-0.000186861 3.10522e-05 -1.01063e-19
-0.000144899 8.49374e-05 1.53759e-21
0.000123942 -0.000190785 -2.81694e-19
-0.000117191 0.000191591 -8.5861e-20
0.000185197 -9.94857e-05 -8.1605e-20
-3.48787e-05 -0.000170212 -5.11058e-20
0.000114929 0.000179075 -4.58199e-20
0.000189722 9.96153e-05 9.03315e-20
-0.000129264 0.000104967 4.2356e-20
-0.000130245 -0.000105877 -3.26008e-19
-3.38288e-05 -0.000351421 -3.92171e-20
-3.23259e-05 0.00035186 -1.9084e-19
0.00025476 -0.000254819 -1.78998e-19
0.000252526 0.000254416 7.11753e-20
1.71133e-05 -5.01105e-05 -1.01556e-19
-2.67955e-05 -0.000198979 -2.30675e-19
-2.04718e-05 0.00018969 4.53441e-20
3.9097e-05 -0.000113819 2.38327e-20
3.96143e-05 0.000113974 1.54896e-19
-0.000221125 -0.000119579 -7.64846e-20
-8.95695e-06 0.000156708 1.36323e-20
-1.01913e-05 -0.000155149 -1.89152e-19
1.60803e-05 -0.000159799 -6.0839e-20
1.79546e-05 0.000161481 6.60464e-20
2.58558e-05 4.45802e-05 2.61942e-20
2.12134e-05 -4.52203e-05 -4.50071e-19
-2.04718e-05 0.00018969 1.28635e-20
-0.000113757 -5.32885e-05 -1.16383e-19
0.000288545 -0.000111965 -4.96018e-19
0.000285283 0.000113867 -2.31276e-20
0.000189722 9.96153e-05 -3.3551e-20
0.000124162 0.000138482 1.13026e-20
0.000125274 -0.000137514 -2.45671e-19
0.000377836 -0.000121586 -1.53921e-19
0.000292012 -0.000110885 -1.08791e-19
0.000372216 0.000121003 5.92229e-20
0.000288747 0.000112788 3.95654e-20
-0.00023944 0.000179195 -1.73022e-20
-3.09503e-05 -9.14339e-05 -1.20854e-19
-2.92561e-05 9.30437e-05 3.50567e-20
0.000132129 -7.14958e-05 -4.23607e-19
0.000133003 7.3152e-05 1.07631e-20
0.000182406 -0.000341972 1.35538e-20
0.000186223 0.000343324 5.57823e-20
0.000185197 -9.94857e-05 -1.08046e-19
0.000143467 -2.53008e-05 -5.78827e-20
-0.00011753 -3.47815e-05 4.8808e-20
-0.000386124 -5.32621e-06 -1.0394e-19
-0.000385129 7.18134e-06 -2.00826e-19
-2.95314e-05 -0.000100359 8.55764e-20
-2.63984e-05 0.000107651 -3.26229e-20
-0.000144899 8.49374e-05 1.08727e-19
8.95432e-05 8.98682e-05 -4.09459e-20
8.77689e-05 -8.86354e-05 -2.73823e-19
-4.98373e-06 -0.000369897 1.22716e-19
-3.70257e-05 0.000377375 -1.70866e-19
-0.000328801 3.00754e-06 2.13226e-19
0.000372848 -2.71954e-05 -8.16528e-20
-0.000136823 -8.03899e-05 -6.11087e-20
3.15135e-05 -0.000115652 -1.79879e-21
3.0618e-05 0.000114041 1.02902e-19
0.00053983 0.000437278 1.96375e-19
1.79546e-05 0.000161481 2.16771e-20
-2.67719e-05 -0.000347188 1.06785e-19
-0.000328801 3.00754e-06 -1.82077e-19
-2.92561e-05 9.30437e-05 8.18981e-20
-3.09503e-05 -9.14339e-05 -2.48393e-20
-1.01913e-05 -0.000155149 3.59132e-21
-0.00011753 -3.47815e-05 -3.40819e-20
1.60803e-05 -0.000159799 -2.08308e-19
0.000184794 -0.000174675 -1.64684e-19
0.000183032 0.000175185 -9.87541e-21
0.000120903 -4.66113e-05 3.92575e-20
0.000118445 5.28302e-05 -4.77463e-19
-0.000221125 -0.000119579 -1.2209e-19
-8.95695e-06 0.000156708 -9.95974e-20
-0.000144899 8.49374e-05 -2.75662e-20
-0.00010962 -2.54996e-05 -3.07406e-19
-0.000116965 2.85457e-05 -1.2171e-19
-0.000113757 -5.32885e-05 -8.19533e-20
0.000512604 -0.000419326 -6.76594e-20
-8.9532e-06 0.000341169 -1.93376e-19
-4.98373e-06 -0.000369897 -1.81899e-20
0.000354027 -1.10239e-05 -5.36586e-20
0.000123942 -0.000190785 -2.35375e-19
-0.000117191 0.000191591 -7.46858e-20
0.000133003 7.3152e-05 -4.62085e-20
0.000132129 -7.14958e-05 -1.91299e-19
0.000164201 0.000124753 -1.28869e-20
0.000159071 -5.2825e-05 -3.96334e-19
0.000159449 5.5759e-05 7.42972e-20
0.000185197 -9.94857e-05 -1.92694e-19
0.000189722 9.96153e-05 3.16014e-20
0.000436849 0.000537437 3.32175e-20
0.00053983 0.000437278 1.93451e-19
-0.00010962 -2.54996e-05 -4.33308e-20
-0.000116965 2.85457e-05 -6.88285e-20
4.78809e-05 0.000270038 4.80944e-20
4.59788e-05 -0.000270015 -3.2114e-19
-0.000122844 0.000179232 8.5655e-20
-0.000137347 -8.99532e-05 9.94614e-20
0.000117083 -0.000127664 -5.20744e-21
0.000116005 0.000129637 -8.19937e-20
0.000159547 -5.47459e-05 -4.57561e-20
0.000159313 5.49541e-05 1.75719e-20
3.14804e-05 -0.000178517 1.09972e-19
0.000169683 -4.22687e-05 -7.97106e-20
-0.000219945 -3.12332e-05 1.74623e-19
-3.2514e-05 0.000175407 -7.26725e-20
0.000290722 -0.000112457 -1.63622e-19
0.000290428 0.000112786 1.64591e-19
-0.000145288 7.31305e-05 -7.43524e-20
-0.000144452 -8.54128e-05 2.47058e-19
1.49432e-06 0.000165447 6.4201e-21
-3.08482e-06 -0.00016613 -1.29383e-19
-1.85005e-05 -0.000164025 1.96808e-19
1.61239e-05 0.000159268 -1.51147e-20
0.00014318 -2.67192e-05 -1.57591e-19
9.04946e-05 8.34738e-05 -1.17201e-19
-3.0665e-05 9.10924e-05 -5.0662e-20
2.92703e-05 -9.16426e-05 3.70382e-20
-0.000244633 0.000167863 2.57612e-21
-0.000218957 -0.000119954 -1.11509e-19
0.000225335 -0.000323057 -5.17876e-20
0.000390448 0.000192232 -1.51809e-19
0.000290722 -0.000112457 6.14103e-20
0.000290428 0.000112786 -6.5157e-21
0.000132436 -7.21858e-05 -1.17843e-19
0.000132192 7.23225e-05 6.22024e-20
-0.000113416 5.38891e-05 6.03951e-20
-0.00011538 -5.3522e-05 -1.4131e-19
0.000153651 7.3458e-05 -5.80335e-20
0.000154605 -7.29396e-05 -3.4993e-20
4.54677e-05 0.000269753 -8.96264e-20
-4.64657e-05 -0.000269446 -6.90983e-20
-0.000109016 2.55915e-05 4.27362e-20
-0.000111389 -2.67567e-05 4.62293e-19
-5.10363e-06 -0.000353968 1.10471e-19
1.51011e-05 0.000370874 5.31234e-20
0.000377198 -2.27906e-06 8.43234e-20
-0.000373048 -4.74406e-05 2.79232e-19
0.000184054 -0.00017558 6.66263e-20
0.000183329 0.000176234 5.48946e-20
-0.00014197 8.29652e-05 2.95477e-19
-0.000187566 2.44283e-05 -7.8379e-20
-0.000187389 -2.4434e-05 3.70218e-19
-0.000148102 -8.8416e-05 1.71214e-19
0.000123787 -0.000189296 3.46385e-21
0.000122151 0.000190319 -4.90692e-20
0.000187988 9.9257e-05 -2.8125e-19
-0.000122844 0.000179232 1.06247e-19
-3.65931e-05 -0.000168805 -1.96404e-20
0.000188128 -9.91066e-05 -1.01443e-19
-0.000131464 0.000104225 1.40605e-19
0.000129735 -0.00010576 2.51647e-19
3.35028e-05 -0.000351025 2.9868e-19
-3.45736e-05 0.000351399 1.29493e-19
0.000254093 -0.000255452 -1.67347e-19
0.00025418 0.000256148 -4.44331e-20
1.79029e-05 5.0335e-05 -4.46943e-20
-2.67475e-05 0.000198745 3.84483e-20
-2.05006e-05 -0.000189516 4.00963e-20
3.89298e-05 0.000113333 2.54425e-21
-3.71052e-05 -0.000118404 7.23794e-20
-1.0355e-05 0.000154959 -1.10677e-19
9.28293e-06 -0.000154397 7.50341e-20
-0.000218957 -0.000119954 3.1121e-19
-1.85005e-05 -0.000164025 8.50051e-20
1.61239e-05 0.000159268 -4.08418e-20
-0.000101006 -6.84811e-05 3.87337e-19
-0.000244633 0.000167863 4.81815e-20
2.43118e-05 4.39694e-05 -5.44826e-20
-2.05006e-05 -0.000189516 3.17756e-20
-0.000113416 5.38891e-05 -4.28955e-20
0.000287306 -0.000113521 -8.28262e-20
0.000286943 0.000113872 -9.17501e-20
0.000188128 -9.91066e-05 -2.25325e-19
0.00012353 0.000139004 4.72067e-20
0.000124788 -0.000138569 -1.0589e-19
0.000375336 -0.000121621 -1.29972e-21
0.000290722 -0.000112457 -1.81028e-20
0.00037508 0.000121785 -7.18718e-20
0.000290428 0.000112786 -3.05735e-19
-3.0665e-05 9.10924e-05 -3.48741e-20
0.000132436 -7.21858e-05 -9.6537e-20
0.000132192 7.23225e-05 -2.77722e-20
0.00018206 0.000341769 -9.8028e-20
-0.000183588 -0.000341892 1.91966e-19
-1.33796e-05 -3.33194e-05 -7.76421e-20
0.000187988 9.9257e-05 -1.39108e-19
0.00014318 -2.67192e-05 -4.18888e-20
-0.000117214 3.41657e-05 -1.77428e-19
-0.000101006 -6.84811e-05 2.13428e-19
-0.000385354 5.34551e-06 -2.49982e-19
-0.000385496 -6.26714e-06 -2.65897e-19
-2.93989e-05 9.90554e-05 -1.5051e-20
-0.000148102 -8.8416e-05 2.33512e-19
8.81379e-05 8.93434e-05 -2.09953e-20
-5.10363e-06 -0.000353968 8.01311e-20
1.51011e-05 0.000370874 7.72577e-20
-0.000373048 -4.74406e-05 4.01962e-20
0.000377198 -2.27906e-06 -1.70335e-19
8.81027e-05 -8.91214e-05 1.37598e-20
-0.00013653 8.06004e-05 1.74377e-19
3.09958e-05 -0.000116575 -6.46278e-20
2.90102e-05 0.000113321 6.07519e-20
-0.000540082 0.000440288 -2.40388e-19
-1.85005e-05 -0.000164025 4.45349e-20
-1.01973e-05 -0.000347552 -1.21099e-19
0.000354608 -2.32553e-05 -7.15276e-21
-3.0665e-05 9.10924e-05 7.54569e-21
-1.0355e-05 0.000154959 -1.34263e-20
-0.000117214 3.41657e-05 -6.89583e-21
1.61239e-05 0.000159268 -1.38806e-19
-0.000218957 -0.000119954 -2.46376e-19
0.000184054 -0.00017558 -1.21504e-19
0.000183329 0.000176234 5.34674e-20
0.000122525 4.93662e-05 -2.0972e-20
0.000120224 -4.88822e-05 2.72094e-20
9.28293e-06 -0.000154397 2.4816e-20
-0.000148102 -8.8416e-05 2.1796e-20
-1.33796e-05 -3.33194e-05 1.67985e-21
-0.000109016 2.55915e-05 4.53993e-20
-0.000111389 -2.67567e-05 3.00081e-19
-0.000113416 5.38891e-05 1.12754e-19
0.00053136 0.000421216 9.47934e-21
-5.10363e-06 -0.000353968 7.53272e-20
3.38189e-06 0.000359398 -9.50399e-20
0.000377198 -2.27906e-06 -1.25443e-19
0.000123787 -0.000189296 -6.00702e-20
0.000122151 0.000190319 -2.65277e-20
0.000132192 7.23225e-05 -1.11898e-19
-0.000244633 0.000167863 6.66325e-20
0.000132436 -7.21858e-05 -8.53619e-20
0.000159547 -5.47459e-05 1.24515e-20
0.000159313 5.49541e-05 -9.88434e-20
0.000187988 9.9257e-05 6.94232e-20
0.000188128 -9.91066e-05 -3.54369e-20
-0.000440157 0.000546829 -4.31683e-20
-0.000540082 0.000440288 5.39315e-20
-0.000109016 2.55915e-05 4.34497e-20
-0.000111389 -2.67567e-05 3.47114e-19
-4.64657e-05 -0.000269446 2.6394e-20
4.54677e-05 0.000269753 8.64238e-20
-0.000120031 0.000193577 -1.0245e-19
-0.000130961 -0.000124921 1.80489e-19
0.000117463 -0.000128069 4.81877e-21
0.000116248 0.000129628 -3.07937e-19
0.000159497 -5.56113e-05 8.58695e-20
0.000159006 5.28733e-05 3.74502e-20
3.25389e-05 -0.000178178 -8.36968e-21
0.000175375 -4.35758e-05 1.23878e-20
-0.000246504 -5.57971e-05 4.79669e-20
-3.02045e-05 0.000177773 -4.10053e-19
0.000288955 -0.000112492 1.25768e-19
0.00029197 0.000111132 -2.80101e-19
-0.000145434 -7.29694e-05 1.87898e-19
-0.000143879 8.41892e-05 2.65604e-19
3.10802e-06 0.000166127 -3.36002e-19
-2.08208e-06 -0.000165575 -6.57533e-20
-1.71171e-05 -0.000162643 2.54021e-20
1.68072e-05 0.000161357 -1.38957e-19
0.000143631 -2.63121e-05 1.21092e-19
9.16971e-05 8.24131e-05 9.13063e-20
-2.94648e-05 9.34828e-05 -2.24905e-19
3.041e-05 -9.16775e-05 4.73893e-20
-0.000197227 0.00032204 -1.70225e-19
-0.00022137 -0.00011986 -4.40677e-20
0.000392771 -0.000186889 -4.4381e-20
0.000385486 0.000209009 -3.93742e-19
0.000288955 -0.000112492 9.66645e-20
0.00029197 0.000111132 -1.77841e-20
0.000132815 -7.29948e-05 -3.50482e-20
0.000132313 7.15961e-05 2.63303e-20
-0.000113751 -5.33115e-05 2.78357e-19
-0.000115983 5.38979e-05 1.58629e-19
0.000154996 7.15704e-05 -8.11845e-20
0.000154011 -7.45305e-05 8.37924e-20
4.61941e-05 0.00027016 -6.47688e-19
-4.50048e-05 -0.000269601 -2.19833e-19
-0.000109895 -2.59442e-05 1.28574e-19
-0.000116896 2.88336e-05 -2.0574e-19
-4.4937e-06 -0.000370633 -1.33535e-19
-3.72886e-05 0.000377082 -3.53657e-19
0.000372748 -2.76188e-05 -1.59378e-19
-0.000328915 2.92991e-06 -9.63015e-21
0.000183664 -0.000174751 1.36769e-19
0.0001843 0.000175064 -6.92724e-20
-0.000172604 -0.000104101 -7.14917e-20
-0.000189804 -2.02744e-05 3.32626e-19
-0.000186502 3.13297e-05 2.60968e-19
-0.00014489 8.49742e-05 -8.78191e-20
0.000124234 -0.000187907 -5.25012e-20
-0.000117458 0.000191658 -1.87162e-19
0.000185243 -9.98527e-05 4.07632e-20
-3.57468e-05 -0.000169994 2.96666e-20
0.000114195 0.000178465 -4.72589e-19
0.000189513 9.86976e-05 -2.0299e-19
-0.000130022 0.000105698 -2.90325e-19
0.000133029 -0.000103286 8.76689e-21
-3.35671e-05 0.000351519 -3.18175e-19
3.57018e-05 -0.00035193 -9.38272e-20
0.000252407 -0.000253767 1.997e-19
0.000254973 0.00025546 -3.66814e-20
1.75671e-05 -5.1253e-05 1.46993e-19
-2.6788e-05 -0.000198965 2.43944e-19
-2.04664e-05 0.000189602 2.60838e-20
3.94734e-05 0.000114435 -1.85569e-19
-3.57543e-05 -0.000118355 -6.30264e-20
-0.00022137 -0.00011986 -8.91507e-20
-9.4559e-06 0.000156958 -1.71571e-19
1.03652e-05 -0.000154086 8.39751e-20
-1.71171e-05 -0.000162643 1.56542e-20
1.68072e-05 0.000161357 -4.14016e-19
-0.000102716 -6.9855e-05 7.79118e-20
2.10869e-05 4.51995e-05 6.41287e-20
-2.04664e-05 0.000189602 2.30524e-19
-0.000113751 -5.33115e-05 2.35938e-19
0.000285519 -0.000113562 -1.05954e-19
0.000288525 0.000112205 -2.28995e-19
0.000189513 9.86976e-05 -6.53903e-21
0.000124305 0.000137656 -5.21677e-20
0.000125253 -0.000138286 3.4826e-22
0.000372369 -0.00012084 -1.5381e-19
0.000288955 -0.000112492 -1.58899e-19
0.000377913 0.000121772 -1.43506e-19
0.00029197 0.000111132 -2.31119e-19
-0.000239589 0.000179196 -1.23128e-19
-2.94648e-05 9.34828e-05 -3.33522e-19
0.000132815 -7.29948e-05 4.03746e-20
0.000132313 7.15961e-05 -2.79782e-20
0.000182644 0.000342143 -5.37121e-19
-0.000182593 -0.000342177 -1.27127e-20
-1.2008e-05 -3.36733e-05 6.22428e-20
0.000185243 -9.98527e-05 5.31744e-20
0.000143631 -2.63121e-05 -1.36346e-21
-0.000117527 -3.48297e-05 2.13016e-19
-0.000102716 -6.9855e-05 4.24743e-21
-0.000385008 -6.03082e-06 1.5178e-19
-0.000385312 6.7868e-06 2.03599e-19
-2.66286e-05 0.000107983 -2.43927e-19
-0.00014489 8.49742e-05 -1.09691e-20
8.82105e-05 8.85577e-05 -1.02275e-19
-4.4937e-06 -0.000370633 -1.23073e-19
-3.72886e-05 0.000377082 -1.84526e-19
-0.000328915 2.92991e-06 -2.60294e-19
0.000372748 -2.76188e-05 -1.64965e-19
8.86637e-05 -8.98547e-05 -1.05121e-19
-0.000136686 -8.05181e-05 1.75456e-19
3.25211e-05 -0.000116399 2.98735e-19
2.97207e-05 0.000113218 1.48405e-19
0.000539695 0.000436993 -1.77341e-19
1.68072e-05 0.000161357 -2.84476e-19
-1.71171e-05 -0.000162643 2.54021e-20
-2.65381e-05 -0.000347504 -1.04158e-19
-0.000328915 2.92991e-06 -2.59937e-19
-2.94648e-05 9.34828e-05 -2.53295e-19
-0.000117527 -3.48297e-05 9.66008e-20
0.000183664 -0.000174751 1.11565e-19
0.0001843 0.000175064 1.0152e-21
0.000122977 4.70885e-05 -2.23673e-20
0.000118362 -5.27802e-05 -5.82629e-20
-0.00022137 -0.00011986 -1.13642e-19
-9.4559e-06 0.000156958 -6.7114e-19
1.03652e-05 -0.000154086 -4.71833e-20
-0.00014489 8.49742e-05 1.33836e-19
-1.2008e-05 -3.36733e-05 -2.45463e-20
-0.000109895 -2.59442e-05 1.6424e-19
-0.000116896 2.88336e-05 3.63161e-20
-0.000113751 -5.33115e-05 4.60492e-20
0.000512627 -0.000419623 -1.73351e-19
-9.33081e-06 0.000341026 -4.93708e-20
-4.4937e-06 -0.000370633 -1.32299e-19
0.000354156 -1.16451e-05 -5.2739e-20
-0.000117458 0.000191658 -4.10053e-19
0.000124234 -0.000187907 -1.0795e-20
0.000132313 7.15961e-05 -1.68362e-19
0.000163701 0.00012389 -4.39902e-19
0.000132815 -7.29948e-05 -8.06535e-20
0.000159497 -5.56113e-05 -9.69342e-20
0.000159006 5.28733e-05 -7.04532e-20
0.000185243 -9.98527e-05 3.40097e-20
0.000189513 9.86976e-05 -1.36079e-19
0.000436554 0.000537103 -2.66758e-19
0.000539695 0.000436993 -1.22154e-19
-0.000109895 -2.59442e-05 2.18548e-19
-0.000116896 2.88336e-05 -6.67833e-20
-4.50048e-05 -0.000269601 5.70354e-20
4.61941e-05 0.00027016 -4.80863e-19
-0.000122841 0.0001792 2.667e-20
-0.000132049 -9.5571e-05 1.89778e-19
0.000124633 -0.00015913 -2.22484e-20
0.00011694 0.000126362 -1.20268e-19
0.000156806 4.97081e-05 8.12249e-20
0.000140726 -0.000101435 -1.73735e-19
-1.98711e-05 -0.000185759 -3.54921e-20
0.000171788 3.31894e-05 -5.78509e-20
-0.000216696 -3.42816e-05 2.11011e-19
-3.16598e-05 0.000175219 -2.42509e-19
0.000284907 0.000106993 -1.60258e-20
0.000222814 -0.000134864 3.36699e-20
-0.000138389 -8.89246e-05 2.21766e-19
-0.000144138 7.27829e-05 2.10655e-19
2.78992e-06 0.000164653 5.92229e-20
2.46155e-05 -0.000169262 4.74024e-21
4.56275e-05 -0.000182287 -4.17614e-20
1.7528e-05 0.000158395 -4.15406e-20
0.000143619 1.66605e-05 -1.82343e-19
8.35967e-05 -9.88042e-05 1.61672e-19
-1.94301e-05 -9.42344e-05 -3.63479e-20
-3.02303e-05 9.08236e-05 -8.27306e-20
-0.000247197 0.000167585 -4.32756e-20
-0.000215222 -0.000128313 1.62195e-19
0.000410647 -0.000207953 2.12799e-21
0.000224559 0.000315933 -6.04531e-19
0.000284907 0.000106993 4.32267e-20
0.000222814 -0.000134864 1.76908e-20
0.000131958 6.86049e-05 -3.40415e-20
0.000131504 -0.000115477 -4.14831e-20
-0.000111362 5.21665e-05 2.02276e-19
-0.000109574 -5.71455e-05 2.30461e-19
0.000155902 6.54937e-05 -2.29137e-19
0.0001558 -9.33806e-05 -1.62885e-19
6.87997e-05 -0.000234158 4.47176e-20
4.59633e-05 0.000267329 -6.27567e-20
-0.000108247 2.5548e-05 1.51986e-19
-0.000107211 -3.43105e-05 6.882e-20
3.23038e-06 -0.000393703 1.59952e-19
3.85818e-05 0.000379159 -3.16683e-20
0.000392225 -6.88076e-06 -8.98557e-20
-0.000376647 -5.5835e-05 5.03094e-20
0.000179727 0.000167366 -1.39021e-19
0.000146289 -0.000175474 3.34787e-20
-0.000140543 8.16801e-05 1.92821e-19
-0.000178836 -3.31728e-05 8.15731e-20
-0.000186275 2.43897e-05 2.11232e-19
-0.000142822 -9.21629e-05 2.50307e-19
0.000136025 -0.000214025 6.39694e-20
0.00012827 0.000189081 -1.06778e-19
0.000192734 -0.000121127 -1.94699e-19
-0.000122841 0.0001792 -1.89468e-19
-2.23541e-05 -0.00017932 1.36714e-19
0.000190959 9.28962e-05 -2.83849e-19
-0.000128156 0.000104438 -1.2889e-19
-4.64701e-05 -0.000129428 -4.98698e-20
-3.28411e-05 0.000347705 -3.79063e-19
1.49074e-05 -0.000289138 -1.33159e-20
0.000248312 0.000247718 -1.19508e-19
0.000205363 -0.000236045 1.75812e-19
1.57032e-05 -5.87179e-05 1.30666e-19
-2.32467e-05 0.000198786 1.13712e-19
-1.39418e-05 -0.000190194 2.2863e-19
4.95227e-05 -0.000115088 -1.48841e-19
3.91582e-05 0.000113001 7.4329e-20
5.24424e-06 -0.000159648 -9.86374e-20
-9.59768e-06 0.000154864 -3.65073e-20
-0.000215222 -0.000128313 1.43744e-19
4.56275e-05 -0.000182287 3.41838e-20
1.7528e-05 0.000158395 3.56799e-22
-0.000247197 0.000167585 -1.15086e-20
2.2008e-05 4.40872e-05 -3.42794e-20
6.07927e-05 -9.91249e-05 -1.86338e-19
-1.39418e-05 -0.000190194 2.00953e-19
-0.000111362 5.21665e-05 1.42119e-19
0.000282326 0.000107796 -2.56804e-20
0.000214459 -0.000137467 1.94026e-20
0.000190959 9.28962e-05 -2.29019e-19
0.000122111 0.000131383 -1.06064e-19
0.000107257 -0.000151179 -5.2516e-20
0.000369197 0.000118383 4.66672e-20
0.000284907 0.000106993 -1.97402e-19
0.000267278 -0.00010563 2.20895e-19
0.000222814 -0.000134864 -1.28402e-20
-1.94301e-05 -9.42344e-05 4.97276e-20
-3.02303e-05 9.08236e-05 2.17724e-19
0.000131958 6.86049e-05 -7.04213e-20
0.000131504 -0.000115477 -2.07072e-19
0.000180909 0.000338546 -1.09139e-19
0.000176074 -0.000292686 8.88662e-20
0.000192734 -0.000121127 1.8776e-20
0.000143619 1.66605e-05 1.33945e-20
-0.000115259 3.23052e-05 2.53541e-19
-0.000372053 -9.9852e-06 1.01214e-19
-0.000383505 5.64602e-06 3.58773e-19
-2.89498e-05 9.88802e-05 4.82685e-20
-1.69224e-05 -0.00010677 3.58722e-20
-0.000142822 -9.21629e-05 2.29906e-19
8.86439e-05 8.53468e-05 -1.58676e-19
0.000102258 -0.00012678 -6.4065e-20
3.23038e-06 -0.000393703 1.51466e-20
3.85818e-05 0.000379159 -1.87388e-19
-0.000376647 -5.5835e-05 1.10823e-19
0.000392225 -6.88076e-06 -8.5243e-20
-0.000135544 8.01136e-05 2.00889e-19
2.60713e-05 0.000107037 1.27828e-19
2.24454e-05 -0.000119449 6.41202e-20
-0.000547644 0.000441908 -2.21093e-20
-2.38632e-05 -0.000365507 1.95318e-19
0.00036531 1.81091e-05 -1.41767e-19
-3.02303e-05 9.08236e-05 -1.99102e-20
-1.94301e-05 -9.42344e-05 -1.14625e-19
-9.59768e-06 0.000154864 -7.46454e-20
5.24424e-06 -0.000159648 5.88917e-21
-0.000115259 3.23052e-05 1.87867e-19
4.56275e-05 -0.000182287 -1.99335e-20
1.7528e-05 0.000158395 -2.35659e-19
-0.000215222 -0.000128313 2.07278e-19
0.000179727 0.000167366 1.32522e-20
0.000146289 -0.000175474 -1.71675e-19
0.00011717 -5.2572e-05 -5.03331e-21
0.00011682 -4.17835e-05 -2.93574e-19
-0.000142822 -9.21629e-05 2.94676e-19
-0.000107211 -3.43105e-05 2.13817e-19
-0.000108247 2.5548e-05 1.73483e-19
-0.000111362 5.21665e-05 1.2419e-19
0.000552845 -0.000437593 1.31296e-19
3.23038e-06 -0.000393703 3.55473e-20
8.88744e-06 0.000343745 -2.92013e-19
0.000392225 -6.88076e-06 -1.74504e-19
0.000136025 -0.000214025 -2.19149e-20
0.00012827 0.000189081 -9.02763e-20
0.000131958 6.86049e-05 -6.91853e-20
0.000131504 -0.000115477 -2.51441e-19
-0.000247197 0.000167585 -9.54433e-20
0.000156806 4.97081e-05 -6.64351e-20
0.000140726 -0.000101435 -1.20854e-19
0.000192734 -0.000121127 -3.35083e-19
0.000190959 9.28962e-05 -1.25728e-19
-0.000442738 0.000542652 5.07374e-20
-0.000547644 0.000441908 -8.22665e-20
-0.000107211 -3.43105e-05 6.73191e-22
-0.000108247 2.5548e-05 2.67879e-19
6.87997e-05 -0.000234158 6.38823e-21
4.59633e-05 0.000267329 -2.16457e-19
1.70919e-05 -2.1902e-06 1.2198e-19
1.92049e-05 -2.55804e-06 -2.39457e-19
8.7509e-06 -1.21555e-06 3.9455e-20
1.91647e-05 2.53782e-06 5.7065e-20
2.60216e-05 -3.41464e-06 -1.40669e-19
2.60662e-05 3.39331e-06 2.07214e-19
2.22459e-05 -5.5842e-06 4.87613e-20
1.55034e-05 -1.74427e-06 2.90754e-19
1.53134e-05 -1.49659e-06 1.00976e-19
2.75667e-05 2.35017e-06 6.67833e-20
4.39091e-05 -1.37295e-05 -2.22004e-19
4.39398e-05 1.37315e-05 2.31815e-19
-7.04231e-06 -1.53329e-05 -6.00469e-20
-8.90726e-06 -5.64628e-06 8.54256e-20
2.82972e-05 1.61989e-05 -1.01167e-19
3.09648e-05 -1.44222e-05 -1.17001e-19
3.6554e-05 4.14832e-06 5.95711e-20
2.08775e-05 5.13163e-06 7.88633e-20
1.56045e-05 -1.79926e-06 1.39369e-19
1.1184e-05 7.85876e-06 2.90975e-19
3.52952e-05 -2.75568e-05 -5.39468e-22
1.43905e-05 -6.47995e-06 -1.0321e-19
1.73093e-05 -2.22351e-06 1.09963e-19
1.92387e-05 8.04161e-07 2.09401e-20
1.78339e-05 1.294e-06 7.85446e-20
2.03555e-05 2.14067e-07 5.24056e-20
4.39091e-05 -1.37295e-05 -3.28289e-20
4.39398e-05 1.37315e-05 1.10074e-19
2.05456e-05 -1.1281e-06 -1.90364e-19
2.0545e-05 1.07743e-06 3.16353e-19
1.428e-05 1.76362e-05 4.32437e-20
1.54094e-05 -1.4953e-05 -4.85064e-21
1.86348e-05 -3.49505e-06 -5.13437e-20
1.86144e-05 3.44144e-06 3.14119e-19
6.10566e-05 7.79507e-05 -3.27014e-20
2.08268e-05 -7.36136e-05 -6.29946e-20
-3.56091e-06 -4.07438e-05 4.1532e-20
-3.84979e-06 3.98646e-05 -6.81468e-20
2.14545e-05 -1.8915e-08 2.63132e-20
2.12539e-05 -3.10197e-07 1.50544e-19
1.74221e-05 -1.21312e-09 1.5587e-19
1.67417e-05 -1.9289e-08 4.65568e-20
2.73411e-05 -2.2683e-05 -3.0102e-20
2.73499e-05 2.27376e-05 4.6341e-19
7.62283e-06 1.66834e-06 -1.97679e-20
-5.87389e-05 -4.15617e-05 5.67463e-21
-5.85267e-05 4.15363e-05 -6.95103e-20
9.91471e-06 -1.38186e-06 -8.81355e-21
2.05432e-05 -2.19367e-06 -1.03448e-19
2.05882e-05 2.17772e-06 5.50687e-20
1.7184e-05 -2.31875e-06 -4.91437e-21
1.70919e-05 -2.1902e-06 1.31205e-19
2.4406e-05 5.33748e-06 6.24084e-20
1.71942e-05 2.38201e-06 1.07602e-19
-1.32959e-05 1.48602e-05 -1.1825e-20
0.000116042 1.69241e-05 1.38133e-19
2.92886e-05 0.000110354 -6.13466e-20
6.21643e-05 -0.000115791 -1.41399e-20
3.75067e-05 -3.54309e-05 -6.48975e-20
3.75322e-05 3.54516e-05 1.97147e-19
1.82449e-06 5.58661e-06 2.71508e-19
5.85259e-05 0.000107676 -5.07576e-20
6.3555e-05 -0.00010177 9.54114e-20
6.72635e-05 -1.7339e-05 1.98145e-20
8.28269e-06 -8.94218e-06 -9.11469e-20
3.76636e-05 -6.96674e-06 3.83544e-21
2.18942e-05 -5.20203e-06 -9.64904e-20
1.78339e-05 1.294e-06 1.19728e-19
3.6554e-05 4.14832e-06 1.44882e-20
2.08775e-05 5.13163e-06 -1.34471e-19
7.48839e-06 3.58619e-05 -3.02294e-20
1.73093e-05 -2.22351e-06 8.47587e-20
1.13335e-05 3.85841e-07 2.91578e-19
6.3555e-05 -0.00010177 -3.55558e-20
1.428e-05 1.76362e-05 -2.02903e-20
4.47222e-05 -1.34763e-05 -1.53793e-19
4.47555e-05 1.34775e-05 1.33741e-19
1.71942e-05 2.38201e-06 2.18691e-19
1.7337e-05 -1.64375e-05 2.79316e-20
1.7268e-05 1.64518e-05 2.99075e-19
5.78303e-05 -1.74204e-05 -5.73837e-21
4.39091e-05 -1.37295e-05 -1.26894e-19
5.78752e-05 1.74313e-05 8.07958e-20
4.39398e-05 1.37315e-05 2.52076e-19
3.52952e-05 -2.75568e-05 -1.40732e-19
2.05456e-05 -1.1281e-06 -1.59833e-19
2.0545e-05 1.07743e-06 3.17781e-19
0.000146032 0.000131031 -1.61362e-20
-3.26831e-05 -9.98956e-05 5.54341e-20
8.7615e-06 1.21823e-06 -2.11479e-19
1.7184e-05 -2.31875e-06 1.19682e-19
1.56045e-05 -1.79926e-06 1.18063e-19
3.18133e-05 1.12018e-05 1.8022e-20
7.48839e-06 3.58619e-05 -6.46596e-20
-0.000213218 3.42653e-05 2.27156e-20
-0.000213074 -3.49481e-05 -2.57441e-20
3.59282e-05 -2.35736e-05 1.22345e-19
9.91471e-06 -1.38186e-06 -1.30555e-19
1.86598e-05 1.80606e-06 1.65334e-19
2.14545e-05 -1.8915e-08 1.90666e-19
2.12539e-05 -3.10197e-07 7.77843e-20
1.67417e-05 -1.9289e-08 7.95598e-20
1.74221e-05 -1.21312e-09 -4.39573e-20
1.86677e-05 -1.84508e-06 -1.80884e-19
-1.74669e-05 -1.29477e-05 1.30143e-20
3.68522e-06 -1.39731e-05 2.00303e-19
3.68794e-06 1.374e-05 5.34046e-19
1.60365e-05 5.77837e-06 5.12162e-20
3.6554e-05 4.14832e-06 2.51409e-20
2.11779e-05 2.70855e-07 2.35383e-19
1.74869e-05 -6.20787e-08 -1.05423e-20
3.52952e-05 -2.75568e-05 -9.56493e-20
3.76636e-05 -6.96674e-06 7.26958e-20
3.18133e-05 1.12018e-05 -1.60258e-20
2.08775e-05 5.13163e-06 -2.97537e-20
1.78339e-05 1.294e-06 1.41034e-19
2.73411e-05 -2.2683e-05 -5.92058e-20
2.73499e-05 2.27376e-05 3.73627e-19
2.23062e-05 1.10864e-05 -2.47383e-19
2.21596e-05 -1.10772e-05 2.96887e-19
2.18942e-05 -5.20203e-06 -1.12087e-19
9.91471e-06 -1.38186e-06 -3.64902e-20
8.7615e-06 1.21823e-06 -2.11479e-19
-3.56091e-06 -4.07438e-05 3.08793e-20
-3.84979e-06 3.98646e-05 -6.67196e-20
1.428e-05 1.76362e-05 -5.73837e-21
1.62875e-05 5.58143e-06 1.50608e-19
2.15629e-05 5.83362e-08 1.26546e-19
2.14545e-05 -1.8915e-08 -1.0589e-20
1.74221e-05 -1.21312e-09 1.02989e-19
2.05432e-05 -2.19367e-06 -8.39518e-20
2.05882e-05 2.17772e-06 1.09377e-19
2.0545e-05 1.07743e-06 3.05701e-19
1.73093e-05 -2.22351e-06 1.53619e-19
2.05456e-05 -1.1281e-06 -1.58406e-19
2.60216e-05 -3.41464e-06 -1.78998e-19
2.60662e-05 3.39331e-06 1.67457e-19
1.7184e-05 -2.31875e-06 -2.03315e-19
1.71942e-05 2.38201e-06 1.80361e-19
2.28437e-05 1.53593e-07 1.63622e-19
1.60365e-05 5.77837e-06 1.50608e-19
-3.84979e-06 3.98646e-05 -1.56885e-19
-3.56091e-06 -4.07438e-05 6.92087e-20
6.10566e-05 7.79507e-05 -3.6983e-20
2.08268e-05 -7.36136e-05 4.80944e-20
-0.000116298 0.000189338 -4.08503e-20
-0.000136233 -8.89415e-05 -1.38925e-19
0.000117928 -0.000125054 -6.17267e-20
0.000124581 0.000158559 -1.77546e-21
0.000140368 0.000101517 -1.33626e-20
0.000156646 -4.99481e-05 6.69808e-20
3.30017e-05 -0.00017723 -2.16274e-19
0.000171704 5.8135e-05 1.96404e-20
-0.000219566 -2.89779e-05 -2.36033e-20
-1.90317e-05 0.000186002 2.68612e-20
0.00022233 0.000134755 1.84927e-19
0.000284904 -0.000107158 -8.44742e-20
-0.000142834 -8.44496e-05 -1.12841e-19
-0.000139425 7.67508e-05 8.57739e-20
2.53706e-05 0.000169528 -1.53759e-20
-2.12388e-06 -0.000164675 -1.10416e-19
-1.77989e-05 -0.000163173 -2.84508e-19
4.62357e-05 0.000182094 -5.94607e-20
0.000140769 3.99883e-05 2.98089e-20
8.90977e-05 -7.51517e-05 7.01835e-20
-2.12853e-05 9.29746e-05 -1.70399e-19
3.00695e-05 -8.98997e-05 -1.41231e-19
-0.000244814 0.000177346 -2.97133e-19
-0.000218023 -0.000118915 -1.8086e-19
0.000404434 -0.000186877 -2.75166e-19
0.000232195 0.00033715 1.10503e-19
0.00022233 0.000134755 -3.15546e-19
0.000284904 -0.000107158 -8.59014e-20
0.000131244 0.000115379 -6.09898e-20
0.000132365 -6.91598e-05 -1.25998e-19
-0.000108659 5.57443e-05 -4.5994e-20
-0.000113114 -5.192e-05 -1.41817e-19
0.000156068 9.33805e-05 -8.38881e-20
0.000155943 -6.55045e-05 5.90402e-20
6.89361e-05 0.000234379 -1.15876e-19
-4.53651e-05 -0.000266611 -2.8939e-19
-0.000101715 2.95589e-05 1.15536e-19
-0.000110239 -2.67474e-05 -1.4578e-19
-4.84404e-06 -0.00037318 -2.65921e-19
4.39408e-05 0.000396939 -7.78438e-20
0.000390526 1.54231e-05 2.41946e-19
-0.000376305 -4.6073e-05 -4.05948e-19
0.000146083 0.000174934 2.3131e-19
0.000179662 -0.000167925 3.41923e-20
-0.000137571 8.7288e-05 -4.31886e-20
-0.000185663 -2.44396e-05 -1.2942e-20
-0.000179918 2.84011e-05 1.72151e-20
-0.000146509 -8.74726e-05 -2.40852e-19
0.00012677 -0.000186491 -1.39963e-19
0.00013764 0.000213195 -4.03108e-20
0.000191845 -9.2429e-05 -2.3807e-19
-0.000116298 0.000189338 -2.8557e-19
-3.53931e-05 -0.000168079 -2.92425e-19
0.000191717 0.000121239 1.24309e-19
-4.6193e-05 0.000129447 -4.21819e-20
0.000128849 -0.000104946 -1.53271e-19
3.37447e-05 -0.000347315 -2.28218e-19
1.51409e-05 0.00028926 -6.06796e-20
0.000204949 0.000235665 -6.92087e-20
0.000248363 -0.000247893 -6.92724e-20
1.59501e-05 -4.0374e-05 -1.89268e-20
-2.17621e-05 0.00019905 2.7836e-20
-1.54205e-05 -0.000189712 -3.37633e-20
4.95313e-05 0.000115603 -4.61129e-20
-3.63167e-05 -0.000116662 -2.92988e-19
5.8638e-06 0.000163028 -1.12941e-20
1.03357e-05 -0.000152601 -3.82472e-19
-0.000218023 -0.000118915 -3.15204e-19
-1.77989e-05 -0.000163173 -3.21601e-19
4.62357e-05 0.000182094 1.61532e-20
-9.99894e-05 -6.81642e-05 -1.14196e-19
-0.000244814 0.000177346 -1.548e-19
6.21042e-05 9.88429e-05 -7.38635e-21
-1.54205e-05 -0.000189712 -2.52947e-19
-0.000108659 5.57443e-05 1.21353e-19
0.000213919 0.000137376 -1.68426e-19
0.000282275 -0.000107977 -2.37031e-19
0.000191717 0.000121239 1.40097e-19
0.000107674 0.000150955 -5.07109e-20
0.000121535 -0.000131734 1.63036e-19
0.00026661 0.000105441 2.29216e-19
0.00022233 0.000134755 -5.46567e-20
0.000369145 -0.000118436 -6.15207e-20
0.000284904 -0.000107158 -1.06186e-21
-2.12853e-05 9.29746e-05 9.24404e-20
0.000131244 0.000115379 3.23617e-20
0.000132365 -6.91598e-05 5.85645e-20
0.000176078 0.000292828 -1.64844e-20
-0.000180633 -0.000337985 5.16308e-19
-1.29167e-05 -3.11124e-05 -2.65691e-19
0.000191845 -9.2429e-05 1.00001e-19
0.000140769 3.99883e-05 6.15759e-20
-0.000115134 3.58168e-05 1.79879e-21
-9.99894e-05 -6.81642e-05 -2.78357e-19
-0.000383309 -6.76497e-06 -8.99747e-20
-0.000372544 8.8372e-06 7.04617e-20
-1.94839e-05 0.000104301 -1.69337e-19
-0.000146509 -8.74726e-05 -1.31566e-20
0.000102463 0.000126508 8.57568e-21
-4.84404e-06 -0.00037318 -3.23606e-19
4.39408e-05 0.000396939 1.93673e-19
-0.000376305 -4.6073e-05 -3.45077e-19
0.000390526 1.54231e-05 -9.80746e-20
8.84462e-05 -8.59265e-05 -2.93162e-19
-0.000129539 8.51833e-05 1.43871e-19
2.26262e-05 0.000121922 -5.02352e-20
2.59153e-05 -0.000104341 -6.91301e-20
-0.000547723 0.000451113 -1.00429e-19
-1.77989e-05 -0.000163173 -3.72342e-19
-2.84917e-05 -0.000348402 -1.18223e-19
0.000367079 3.71976e-05 -3.39152e-20
-2.12853e-05 9.29746e-05 -8.3801e-20
5.8638e-06 0.000163028 1.12474e-20
-0.000115134 3.58168e-05 4.65318e-21
4.62357e-05 0.000182094 2.09572e-20
-0.000218023 -0.000118915 -2.76875e-19
0.000146083 0.000174934 -6.15378e-20
0.000179662 -0.000167925 1.96404e-20
0.000116329 4.1963e-05 -2.41428e-20
0.000118587 5.26614e-05 -1.7104e-19
1.03357e-05 -0.000152601 -1.79076e-19
-0.000146509 -8.74726e-05 -1.54777e-19
-1.29167e-05 -3.11124e-05 -1.82993e-19
-0.000101715 2.95589e-05 1.18722e-19
-0.000110239 -2.67474e-05 -2.39323e-19
-0.000108659 5.57443e-05 1.20117e-19
0.000550851 -0.000423436 -5.99555e-20
-4.84404e-06 -0.00037318 -1.58209e-19
1.70797e-05 0.00036491 -1.76038e-20
0.000390526 1.54231e-05 5.13437e-20
0.00012677 -0.000186491 -2.23185e-19
0.00013764 0.000213195 2.63132e-21
0.000131244 0.000115379 7.15702e-21
-0.000244814 0.000177346 -3.09736e-19
0.000132365 -6.91598e-05 -5.66149e-20
0.000140368 0.000101517 -4.77928e-20
0.000156646 -4.99481e-05 2.28027e-20
0.000191845 -9.2429e-05 -8.04709e-20
0.000191717 0.000121239 1.245e-19
-0.000450295 0.000562845 4.83629e-19
-0.000547723 0.000451113 -2.74695e-19
-0.000110239 -2.67474e-05 -1.28635e-20
-0.000101715 2.95589e-05 6.91916e-21
-4.53651e-05 -0.000266611 -1.25215e-20
6.89361e-05 0.000234379 -6.2141e-21
-0.000120399 0.000181312 -4.92518e-20
-0.00013499 -9.04886e-05 -4.8602e-20
0.000128959 -0.000122921 4.33627e-20
0.000128029 0.000124102 -7.48281e-20
0.000159885 3.19548e-05 -4.52571e-20
0.000159671 -3.21475e-05 -5.61943e-20
3.99866e-05 -0.000176252 -3.09982e-20
0.000204846 -3.7312e-05 6.05459e-20
-0.000218344 -3.19648e-05 6.43899e-20
-2.73658e-05 0.000174462 1.12113e-19
0.000258156 -7.39441e-05 6.15674e-20
0.000258061 7.40352e-05 1.34709e-19
-0.000142376 -8.5744e-05 -2.26752e-20
-0.000143734 7.32719e-05 1.6493e-20
8.1662e-06 0.000162249 -7.38533e-20
3.02909e-06 -0.000162195 -5.51325e-20
-1.4249e-05 -0.000162735 3.1868e-23
2.41136e-05 0.000157053 -9.10684e-20
0.000173256 -2.01285e-05 9.97078e-20
0.000135189 5.89192e-05 -1.83874e-20
-2.81239e-05 8.92512e-05 -2.38645e-20
3.73922e-05 -8.70635e-05 6.79175e-20
-0.000244914 0.00016969 3.15291e-20
-0.000215726 -0.000121291 -3.06414e-20
0.000413661 -0.000193855 3.75691e-20
0.000233721 0.000319298 -4.70877e-20
0.000258156 -7.39441e-05 2.99916e-20
0.000258061 7.40352e-05 -8.00526e-20
0.000143612 -6.31126e-05 6.43262e-20
0.000143259 6.233e-05 3.94083e-20
-0.000111598 5.36666e-05 3.97884e-20
-0.000113268 -5.36104e-05 -2.82946e-20
0.00017317 6.10622e-05 -2.68526e-20
0.000172618 -6.26944e-05 1.14831e-19
4.98672e-05 0.000264032 -9.1164e-20
-4.09956e-05 -0.000262332 -5.76853e-20
-0.000107485 2.54595e-05 -2.38008e-20
-0.000109722 -2.71603e-05 -5.98961e-20
8.70857e-07 -0.000377551 -8.72563e-20
4.44021e-05 0.000382933 -3.7311e-20
0.000403099 3.33445e-06 -4.31567e-20
-0.000374269 -5.04869e-05 -8.86135e-21
0.000187874 -0.000113671 -2.13055e-20
0.000187462 0.000113859 -9.64904e-20
-0.000140454 8.31591e-05 1.85148e-20
-0.000185581 -2.484e-05 -8.36968e-21
-0.000186454 2.42879e-05 -7.26406e-20
-0.000146196 -8.8887e-05 -3.07518e-21
0.000135998 -0.000186785 4.40763e-20
0.000136829 0.000189779 -7.66673e-20
0.000209506 -9.2604e-05 6.61887e-20
-0.000120399 0.000181312 -2.1384e-20
-3.06583e-05 -0.00016821 1.29273e-20
0.000213466 9.11229e-05 -1.21266e-21
-0.000122624 0.000100708 -7.38635e-21
0.000133899 -0.000100535 1.22867e-19
3.86444e-05 -0.000343576 5.56082e-20
-2.79783e-05 0.00034344 2.88193e-20
0.000207152 -0.000174842 5.76045e-20
0.000207227 0.000175174 -4.18974e-20
9.14313e-05 3.13632e-05 -5.99831e-20
-2.38251e-05 0.000199635 4.01282e-20
-1.59417e-05 -0.000190574 -1.23659e-19
4.16862e-05 0.000111561 -7.80074e-20
-2.93903e-05 -0.000113988 3.96291e-21
-5.78816e-06 0.000154551 -4.35135e-20
1.6887e-05 -0.000151153 5.17728e-20
-0.000215726 -0.000121291 7.68795e-21
-1.4249e-05 -0.000162735 -2.64088e-20
2.41136e-05 0.000157053 -6.85269e-20
-9.89415e-05 -6.74252e-05 -4.79755e-20
-0.000244914 0.00016969 -4.12304e-20
2.86675e-05 4.00331e-05 -6.24318e-20
-1.59417e-05 -0.000190574 -1.14625e-19
-0.000111598 5.36666e-05 -7.68181e-20
0.000259747 -7.34486e-05 -1.52018e-20
0.000259761 7.3506e-05 -3.08622e-20
0.000213466 9.11229e-05 -4.14916e-20
0.000151232 9.12703e-05 1.36642e-20
0.000152055 -9.1309e-05 -4.05806e-20
0.000328075 -9.23276e-05 6.13466e-20
0.000258156 -7.39441e-05 2.0766e-20
0.000328062 9.24122e-05 -4.82685e-20
0.000258061 7.40352e-05 -1.16955e-19
-2.81239e-05 8.92512e-05 -2.03665e-21
0.000143612 -6.31126e-05 1.41176e-19
0.000143259 6.233e-05 -5.07576e-20
-0.000175244 -0.0003329 2.31913e-20
0.000185912 0.000336463 -2.78041e-20
-5.36485e-06 -2.85922e-05 4.52571e-20
0.000209506 -9.2604e-05 6.30031e-20
0.000173256 -2.01285e-05 -2.05998e-22
-0.000115921 3.382e-05 -8.52196e-20
-9.89415e-05 -6.74252e-05 3.73865e-20
-0.000383334 -7.21801e-06 -6.74332e-20
-0.00038372 6.16948e-06 1.21266e-20
-2.66416e-05 9.85735e-05 -1.33314e-19
-0.000146196 -8.8887e-05 -3.07518e-21
9.7588e-05 7.99836e-05 -5.19065e-20
8.70857e-07 -0.000377551 -1.37831e-20
4.44021e-05 0.000382933 4.10361e-20
0.000403099 3.33445e-06 5.67571e-20
-0.000374269 -5.04869e-05 7.02216e-21
9.72332e-05 -8.08217e-05 9.18457e-20
-0.000135091 8.06446e-05 -5.68209e-20
9.07011e-05 -7.51216e-05 -8.95627e-20
8.94829e-05 7.35433e-05 -9.10365e-20
-0.000543838 0.000443023 2.16771e-20
-1.4249e-05 -0.000162735 3.64117e-20
-2.359e-05 -0.000351924 -3.51555e-20
0.00037746 2.74111e-05 -2.13226e-21
-2.81239e-05 8.92512e-05 -6.11491e-20
-5.78816e-06 0.000154551 4.06124e-20
-0.000115921 3.382e-05 -4.35135e-20
2.41136e-05 0.000157053 -6.92405e-20
-0.000215726 -0.000121291 -5.97453e-20
0.000187874 -0.000113671 1.28495e-19
0.000187462 0.000113859 -9.64904e-20
0.00012259 -5.14716e-05 -1.19966e-19
0.000123524 5.17815e-05 2.67889e-20
1.6887e-05 -0.000151153 -9.6792e-20
-0.000146196 -8.8887e-05 -4.21182e-20
-5.36485e-06 -2.85922e-05 -5.34208e-20
-0.000109722 -2.71603e-05 -2.21078e-21
-0.000107485 2.54595e-05 -6.83613e-20
-0.000111598 5.36666e-05 -5.62262e-20
0.000560394 -0.000431393 1.2099e-20
8.70857e-07 -0.000377551 2.52599e-20
1.47279e-05 0.000347548 -3.913e-20
0.000403099 3.33445e-06 7.00731e-20
0.000135998 -0.000186785 6.2693e-21
0.000136829 0.000189779 -6.60145e-20
0.000143259 6.233e-05 -1.44109e-19
-0.000244914 0.00016969 5.40706e-20
0.000143612 -6.31126e-05 3.59359e-20
0.000159671 -3.21475e-05 1.29081e-19
0.000159885 3.19548e-05 3.95824e-20
0.000209506 -9.2604e-05 8.4831e-20
0.000213466 9.11229e-05 -8.24842e-20
-0.000443063 0.000548386 -5.10017e-21
-0.000543838 0.000443023 1.51147e-20
-0.000109722 -2.71603e-05 -7.97743e-20
-0.000107485 2.54595e-05 -8.60988e-20
-4.09956e-05 -0.000262332 3.10534e-20
4.98672e-05 0.000264032 -1.31965e-19
-0.000119844 0.00019357 6.11724e-20
-0.000130989 -0.000124342 1.35557e-19
0.000115904 -0.000129318 -1.85601e-19
0.000117193 0.000130367 -9.36531e-20
0.000159071 -5.2825e-05 -3.09173e-19
0.000159449 5.5759e-05 1.40082e-19
-3.27062e-05 -0.000175924 -2.0773e-19
0.000175365 -4.26495e-05 5.15582e-20
-0.000246434 -5.56694e-05 -4.74997e-20
-2.97488e-05 0.000177568 -1.65778e-19
0.000292012 -0.000110885 -1.92424e-19
0.000288747 0.000112788 -9.93914e-21
-0.000145324 -7.30181e-05 -1.15052e-19
-0.000143931 8.41859e-05 5.48075e-20
3.91097e-06 0.000165692 3.52775e-20
1.55831e-06 -0.000166044 -1.68211e-19
1.60803e-05 -0.000159799 -4.68855e-19
1.79546e-05 0.000161481 1.19229e-19
0.000143467 -2.53008e-05 -8.47354e-20
9.18471e-05 8.34991e-05 6.71401e-20
-3.09503e-05 -9.14339e-05 -1.38179e-19
-2.92561e-05 9.30437e-05 1.20117e-19
-0.000197041 0.000322169 1.22122e-19
-0.000221125 -0.000119579 1.92284e-20
0.00039273 -0.000186589 7.67225e-20
0.000385739 0.000209483 8.77756e-20
0.000292012 -0.000110885 -2.75837e-19
0.000288747 0.000112788 8.65979e-20
0.000132129 -7.14958e-05 -3.96151e-19
0.000133003 7.3152e-05 1.35367e-20
-0.000113757 -5.32885e-05 -6.99137e-20
-0.000116013 5.39266e-05 3.37803e-20
0.000155392 7.26373e-05 9.52777e-20
0.000153411 -7.36651e-05 -1.89801e-19
4.78809e-05 0.000270038 1.54159e-19
4.59788e-05 -0.000270015 1.06994e-20
-0.00010962 -2.54996e-05 -9.0253e-20
-0.000116965 2.85457e-05 5.57271e-20
-4.98373e-06 -0.000369897 -2.99289e-19
-3.70257e-05 0.000377375 -1.10562e-20
0.000372848 -2.71954e-05 1.37788e-20
-0.000328801 3.00754e-06 -1.67656e-19
0.000184794 -0.000174675 -1.28304e-19
0.000183032 0.000175185 1.33996e-19
-0.000172636 -0.000103911 -1.02339e-19
-0.000187903 -2.43677e-05 3.55091e-21
-0.000186861 3.10522e-05 -1.22067e-19
-0.000144899 8.49374e-05 5.73837e-21
0.000123942 -0.000190785 -2.6279e-19
-0.000117191 0.000191591 -9.84633e-20
0.000185197 -9.94857e-05 -6.27015e-20
-3.48787e-05 -0.000170212 -8.4712e-20
0.000114929 0.000179075 4.58944e-21
0.000189722 9.96153e-05 5.88257e-20
-0.000129264 0.000104967 2.55529e-20
-0.000130245 -0.000105877 -2.2939e-19
-3.38288e-05 -0.000351421 -6.0221e-20
-3.23259e-05 0.00035186 -1.02624e-19
0.00025476 -0.000254819 -2.04203e-19
0.000252526 0.000254416 -5.90487e-20
1.71133e-05 -5.01105e-05 7.4877e-20
-2.67955e-05 -0.000198979 -1.94968e-19
-2.04718e-05 0.00018969 2.01395e-20
3.9097e-05 -0.000113819 8.89447e-20
3.96143e-05 0.000113974 1.50695e-19
-0.000221125 -0.000119579 -9.32877e-20
-8.95695e-06 0.000156708 4.09374e-20
-1.01913e-05 -0.000155149 -1.2614e-19
1.60803e-05 -0.000159799 -7.13409e-20
1.79546e-05 0.000161481 5.76449e-20
2.58558e-05 4.45802e-05 1.37515e-19
2.12134e-05 -4.52203e-05 -4.83677e-19
-2.04718e-05 0.00018969 3.80682e-20
-0.000113757 -5.32885e-05 -1.39488e-19
0.000288545 -0.000111965 -3.86798e-19
0.000285283 0.000113867 -3.99307e-20
0.000189722 9.96153e-05 7.35688e-20
0.000124162 0.000138482 -3.07052e-20
0.000125274 -0.000137514 -2.07864e-19
0.000377836 -0.000121586 -1.37118e-19
0.000292012 -0.000110885 -4.15787e-20
0.000372216 0.000121003 -3.7395e-20
0.000288747 0.000112788 1.27782e-19
-0.00023944 0.000179195 -2.15029e-20
-3.09503e-05 -9.14339e-05 -9.98501e-20
-2.92561e-05 9.30437e-05 -4.4758e-20
0.000132129 -7.14958e-05 -3.81599e-19
0.000133003 7.3152e-05 4.01686e-20
0.000182406 -0.000341972 -6.20602e-20
0.000186223 0.000343324 5.57823e-20
0.000185197 -9.94857e-05 -1.01744e-19
0.000143467 -2.53008e-05 -5.3682e-20
-0.00011753 -3.47815e-05 -1.00029e-20
-0.000386124 -5.32621e-06 -3.6728e-20
-0.000385129 7.18134e-06 -2.2603e-19
-2.95314e-05 -0.000100359 -1.52422e-20
-2.63984e-05 0.000107651 -3.8924e-20
-0.000144899 8.49374e-05 8.77235e-20
8.95432e-05 8.98682e-05 7.24751e-20
8.77689e-05 -8.86354e-05 -2.86426e-19
-4.98373e-06 -0.000369897 1.10114e-19
-3.70257e-05 0.000377375 -1.77167e-19
-0.000328801 3.00754e-06 1.59666e-19
0.000372848 -2.71954e-05 -2.80929e-20
-0.000136823 -8.03899e-05 -3.59041e-20
3.15135e-05 -0.000115652 -5.64089e-20
3.0618e-05 0.000114041 6.92957e-20
0.00053983 0.000437278 2.11078e-19
1.79546e-05 0.000161481 5.10825e-20
-2.67719e-05 -0.000347188 1.3514e-19
-0.000328801 3.00754e-06 -1.72626e-19
-2.92561e-05 9.30437e-05 9.02996e-20
-3.09503e-05 -9.14339e-05 -7.94494e-20
-1.01913e-05 -0.000155149 -1.22432e-19
-0.00011753 -3.47815e-05 5.83351e-20
1.60803e-05 -0.000159799 -2.44014e-19
0.000184794 -0.000174675 -1.77286e-19
0.000183032 0.000175185 -4.34816e-20
0.000120903 -4.66113e-05 -4.89588e-20
0.000118445 5.28302e-05 -4.73262e-19
-0.000221125 -0.000119579 -1.64098e-19
-8.95695e-06 0.000156708 1.59239e-20
-0.000144899 8.49374e-05 -2.33655e-20
-0.00010962 -2.54996e-05 -1.89784e-19
-0.000116965 2.85457e-05 -1.19609e-19
-0.000113757 -5.32885e-05 -1.30262e-19
0.000512604 -0.000419326 -4.87559e-20
-8.9532e-06 0.000341169 -1.84974e-19
-4.98373e-06 -0.000369897 -1.81899e-20
0.000354027 -1.10239e-05 5.15224e-21
0.000123942 -0.000190785 -2.29074e-19
-0.000117191 0.000191591 -3.68788e-20
0.000133003 7.3152e-05 4.62085e-20
0.000132129 -7.14958e-05 -2.50109e-19
0.000164201 0.000124753 -1.01103e-19
0.000159071 -5.2825e-05 -3.85832e-19
0.000159449 5.5759e-05 7.84979e-20
0.000185197 -9.94857e-05 -1.98995e-19
0.000189722 9.96153e-05 -1.00723e-19
0.000436849 0.000537437 8.01288e-21
0.00053983 0.000437278 1.70347e-19
-0.00010962 -2.54996e-05 -3.913e-20
-0.000116965 2.85457e-05 -4.15235e-20
4.78809e-05 0.000270038 2.70905e-20
4.59788e-05 -0.000270015 -3.96754e-19
-0.000122844 0.000179232 8.77554e-20
-0.000137347 -8.99532e-05 1.62473e-19
0.000117083 -0.000127664 1.36961e-20
0.000116005 0.000129637 -2.10824e-20
0.000159547 -5.47459e-05 -4.15554e-20
0.000159313 5.49541e-05 -1.39339e-20
3.14804e-05 -0.000178517 6.58637e-20
0.000169683 -4.22687e-05 -7.55098e-20
-0.000219945 -3.12332e-05 1.74623e-19
-3.2514e-05 0.000175407 -5.58694e-20
0.000290722 -0.000112457 -1.46819e-19
0.000290428 0.000112786 -7.48537e-20
-0.000145288 7.31305e-05 -1.18461e-19
-0.000144452 -8.54128e-05 2.42857e-19
1.49432e-06 0.000165447 -1.24834e-20
-3.08482e-06 -0.00016613 8.4107e-22
-1.85005e-05 -0.000164025 1.77904e-19
1.61239e-05 0.000159268 -6.71316e-21
0.00014318 -2.67192e-05 -1.17683e-19
9.04946e-05 8.34738e-05 5.29302e-20
-3.0665e-05 9.10924e-05 -8.63686e-20
2.92703e-05 -9.16426e-05 -4.06762e-20
-0.000244633 0.000167863 -2.68293e-20
-0.000218957 -0.000119954 -7.16021e-20
0.000225335 -0.000323057 -7.06911e-20
0.000390448 0.000192232 -1.07701e-19
0.000290722 -0.000112457 -2.26052e-20
0.000290428 0.000112786 8.17006e-20
0.000132436 -7.21858e-05 -4.22285e-20
0.000132192 7.23225e-05 4.32989e-20
-0.000113416 5.38891e-05 7.29974e-20
-0.00011538 -5.3522e-05 -2.35827e-19
0.000153651 7.3458e-05 -2.44273e-20
0.000154605 -7.29396e-05 -1.38679e-21
4.54677e-05 0.000269753 -9.81167e-21
-4.64657e-05 -0.000269446 -6.08663e-21
-0.000109016 2.55915e-05 7.00412e-20
-0.000111389 -2.67567e-05 4.26586e-19
-5.10363e-06 -0.000353968 1.0417e-19
1.51011e-05 0.000370874 2.26678e-20
0.000377198 -2.27906e-06 9.27249e-20
-0.000373048 -4.74406e-05 3.26491e-19
0.000184054 -0.00017558 -1.22409e-19
0.000183329 0.000176234 5.90954e-20
-0.00014197 8.29652e-05 2.74473e-19
-0.000187566 2.44283e-05 -8.04794e-20
-0.000187389 -2.4434e-05 3.51314e-19
-0.000148102 -8.8416e-05 2.44728e-19
0.000123787 -0.000189296 -3.01424e-20
0.000122151 0.000190319 -4.06676e-20
0.000187988 9.9257e-05 -2.64447e-19
-0.000122844 0.000179232 4.53356e-20
-3.65931e-05 -0.000168805 -7.03809e-21
0.000188128 -9.91066e-05 -1.66555e-19
-0.000131464 0.000104225 1.86813e-19
0.000129735 -0.00010576 1.97037e-19
3.35028e-05 -0.000351025 1.9366e-19
-3.45736e-05 0.000351399 7.90841e-20
0.000254093 -0.000255452 -1.67347e-19
0.00025418 0.000256148 3.95824e-20
1.79029e-05 5.0335e-05 -1.10881e-20
-2.67475e-05 0.000198745 5.73518e-20
-2.05006e-05 -0.000189516 1.43015e-19
3.89298e-05 0.000113333 -3.75691e-21
-3.71052e-05 -0.000118404 2.82713e-20
-1.0355e-05 0.000154959 -1.14878e-19
9.28293e-06 -0.000154397 1.0444e-19
-0.000218957 -0.000119954 3.1331e-19
-1.85005e-05 -0.000164025 7.87039e-20
1.61239e-05 0.000159268 -8.28495e-20
-0.000101006 -6.84811e-05 4.25144e-19
-0.000244633 0.000167863 4.39807e-20
2.43118e-05 4.39694e-05 -3.76795e-20
-2.05006e-05 -0.000189516 -6.69427e-20
-0.000113416 5.38891e-05 4.53208e-20
0.000287306 -0.000113521 2.21932e-20
0.000286943 0.000113872 -7.07463e-20
0.000188128 -9.91066e-05 -1.51812e-19
0.00012353 0.000139004 3.04036e-20
0.000124788 -0.000138569 -6.38823e-20
0.000375336 -0.000121621 -1.81028e-20
0.000290722 -0.000112457 -1.29972e-21
0.00037508 0.000121785 -7.60726e-20
0.000290428 0.000112786 -4.10859e-20
-3.0665e-05 9.10924e-05 -7.56902e-21
0.000132436 -7.21858e-05 -1.21742e-19
0.000132192 7.23225e-05 -3.40734e-20
0.00018206 0.000341769 -1.41012e-21
-0.000183588 -0.000341892 8.69462e-20
-1.33796e-05 -3.33194e-05 -5.45378e-20
0.000187988 9.9257e-05 -7.18952e-20
0.00014318 -2.67192e-05 3.58255e-20
-0.000117214 3.41657e-05 -2.21537e-19
-0.000101006 -6.84811e-05 2.13428e-19
-0.000385354 5.34551e-06 -2.83588e-19
-0.000385496 -6.26714e-06 -2.70098e-19
-2.93989e-05 9.90554e-05 -5.2858e-20
-0.000148102 -8.8416e-05 2.1881e-19
8.81379e-05 8.93434e-05 -6.51035e-20
-5.10363e-06 -0.000353968 1.08183e-20
1.51011e-05 0.000370874 5.31032e-20
-0.000373048 -4.74406e-05 3.07444e-20
0.000377198 -2.27906e-06 -1.61934e-19
8.81027e-05 -8.91214e-05 -5.13522e-20
-0.00013653 8.06004e-05 2.73095e-19
3.09958e-05 -0.000116575 -4.57243e-20
2.90102e-05 0.000113321 5.44507e-20
-0.000540082 0.000440288 -2.36187e-19
-1.85005e-05 -0.000164025 1.2645e-19
-1.01973e-05 -0.000347552 -1.62057e-19
0.000354608 -2.32553e-05 -5.65119e-20
-3.0665e-05 9.10924e-05 -2.81609e-20
-1.0355e-05 0.000154959 -3.02294e-20
-0.000117214 3.41657e-05 3.72123e-20
1.61239e-05 0.000159268 -1.30404e-19
-0.000218957 -0.000119954 -2.56878e-19
0.000184054 -0.00017558 -1.08901e-19
0.000183329 0.000176234 1.33282e-19
0.000122525 4.93662e-05 -2.06852e-21
0.000120224 -4.88822e-05 4.19122e-20
9.28293e-06 -0.000154397 1.64144e-20
-0.000148102 -8.8416e-05 4.49003e-20
-1.33796e-05 -3.33194e-05 6.25911e-20
-0.000109016 2.55915e-05 6.01021e-20
-0.000111389 -2.67567e-05 3.77796e-19
-0.000113416 5.38891e-05 4.97424e-20
0.00053136 0.000421216 1.05295e-20
-5.10363e-06 -0.000353968 1.32038e-19
3.38189e-06 0.000359398 -6.82355e-21
0.000377198 -2.27906e-06 -5.40302e-20
0.000123787 -0.000189296 -6.84717e-20
0.000122151 0.000190319 -5.59331e-20
0.000132192 7.23225e-05 -2.9983e-20
-0.000244633 0.000167863 1.12841e-19
0.000132436 -7.21858e-05 -6.01572e-20
0.000159547 -5.47459e-05 1.66523e-20
0.000159313 5.49541e-05 -1.30349e-19
0.000187988 9.9257e-05 1.06123e-20
0.000188128 -9.91066e-05 2.69734e-22
-0.000440157 0.000546829 -3.68672e-20
-0.000540082 0.000440288 7.70358e-20
-0.000109016 2.55915e-05 3.29478e-20
-0.000111389 -2.67567e-05 3.74419e-19
-4.64657e-05 -0.000269446 -8.7027e-20
4.54677e-05 0.000269753 9.06245e-20
-0.000120031 0.000193577 -1.5706e-19
-0.000130961 -0.000124921 8.3871e-20
0.000117463 -0.000128069 2.7923e-20
0.000116248 0.000129628 -2.05018e-19
0.000159497 -5.56113e-05 1.23559e-20
0.000159006 5.28733e-05 -1.92603e-20
3.25389e-05 -0.000178178 -1.46708e-20
0.000175375 -4.35758e-05 6.27971e-20
-0.000246504 -5.57971e-05 1.1938e-19
-3.02045e-05 0.000177773 -4.43659e-19
0.000288955 -0.000112492 5.85559e-20
0.00029197 0.000111132 -2.17089e-19
-0.000145434 -7.29694e-05 2.34107e-19
-0.000143879 8.41892e-05 2.425e-19
3.10802e-06 0.000166127 -2.6669e-19
-2.08208e-06 -0.000165575 -3.00468e-20
-1.71171e-05 -0.000162643 7.16107e-20
1.68072e-05 0.000161357 -1.0115e-19
0.000143631 -2.63121e-05 8.74856e-20
9.16971e-05 8.24131e-05 7.24028e-20
-2.94648e-05 9.34828e-05 -2.16503e-19
3.041e-05 -9.16775e-05 -2.19235e-20
-0.000197227 0.00032204 -8.20085e-20
-0.00022137 -0.00011986 -6.50716e-20
0.000392771 -0.000186889 -3.80798e-20
0.000385486 0.000209009 -4.24197e-19
0.000288955 -0.000112492 2.94521e-20
0.00029197 0.000111132 -2.32024e-19
0.000132815 -7.29948e-05 -4.13494e-20
0.000132313 7.15961e-05 -4.08822e-20
-0.000113751 -5.33115e-05 2.00643e-19
-0.000115983 5.38979e-05 8.51155e-20
0.000154996 7.15704e-05 -1.27393e-19
0.000154011 -7.45305e-05 7.74913e-20
4.61941e-05 0.00027016 -5.55271e-19
-4.50048e-05 -0.000269601 -5.18024e-20
-0.000109895 -2.59442e-05 1.0547e-19
-0.000116896 2.88336e-05 -1.84736e-19
-4.4937e-06 -0.000370633 -1.90245e-19
-3.72886e-05 0.000377082 -3.12699e-19
0.000372748 -2.76188e-05 -1.42575e-19
-0.000328915 2.92991e-06 1.87251e-20
0.000183664 -0.000174751 8.636e-20
0.0001843 0.000175064 -3.9867e-20
-0.000172604 -0.000104101 -3.15843e-20
-0.000189804 -2.02744e-05 3.13722e-19
-0.000186502 3.13297e-05 1.6225e-19
-0.00014489 8.49742e-05 -3.95102e-20
0.000124234 -0.000187907 -3.35977e-20
-0.000117458 0.000191658 -2.08165e-19
0.000185243 -9.98527e-05 -2.0148e-20
-3.57468e-05 -0.000169994 2.12651e-20
0.000114195 0.000178465 -4.05377e-19
0.000189513 9.86976e-05 -1.77785e-19
-0.000130022 0.000105698 -3.28132e-19
0.000133029 -0.000103286 -1.13056e-19
-3.35671e-05 0.000351519 -4.65203e-19
3.57018e-05 -0.00035193 -5.61089e-21
0.000252407 -0.000253767 2.41708e-19
0.000254973 0.00025546 2.21295e-20
1.75671e-05 -5.1253e-05 1.97402e-19
-2.6788e-05 -0.000198965 1.92028e-20
-2.04664e-05 0.000189602 5.75897e-20
3.94734e-05 0.000114435 -1.62465e-19
-3.57543e-05 -0.000118355 -8.61307e-20
-0.00022137 -0.00011986 -3.45406e-20
-9.4559e-06 0.000156958 -2.26181e-19
1.03652e-05 -0.000154086 2.51642e-20
-1.71171e-05 -0.000162643 -6.41606e-20
1.68072e-05 0.000161357 -4.51823e-19
-0.000102716 -6.9855e-05 1.9101e-20
2.10869e-05 4.51995e-05 7.41822e-21
-2.04664e-05 0.000189602 2.24223e-19
-0.000113751 -5.33115e-05 2.21235e-19
0.000285519 -0.000113562 -1.77375e-20
0.000288525 0.000112205 -1.32377e-19
0.000189513 9.86976e-05 1.86656e-20
0.000124305 0.000137656 -1.15179e-19
0.000125253 -0.000138286 6.75607e-20
0.000372369 -0.00012084 -5.71925e-20
0.000288955 -0.000112492 -4.96786e-20
0.000377913 0.000121772 -1.6451e-19
0.00029197 0.000111132 -1.93312e-19
-0.000239589 0.000179196 -1.3153e-19
-2.94648e-05 9.34828e-05 -2.24302e-19
0.000132815 -7.29948e-05 2.14711e-20
0.000132313 7.15961e-05 -4.47813e-20
0.000182644 0.000342143 -5.20318e-19
-0.000182593 -0.000342177 -6.73228e-20
-1.2008e-05 -3.36733e-05 -6.58808e-20
0.000185243 -9.98527e-05 1.05684e-19
0.000143631 -2.63121e-05 2.8042e-20
-0.000117527 -3.48297e-05 1.92012e-19
-0.000102716 -6.9855e-05 1.21869e-19
-0.000385008 -6.03082e-06 2.48398e-19
-0.000385312 6.7868e-06 2.96016e-19
-2.66286e-05 0.000107983 -1.91418e-19
-0.00014489 8.49742e-05 -5.08765e-20
8.82105e-05 8.85577e-05 -1.23279e-19
-4.4937e-06 -0.000370633 -9.15675e-20
-3.72886e-05 0.000377082 -2.38086e-19
-0.000328915 2.92991e-06 -2.50842e-19
0.000372748 -2.76188e-05 -1.73367e-19
8.86637e-05 -8.98547e-05 -6.10131e-20
-0.000136686 -8.05181e-05 1.31347e-19
3.25211e-05 -0.000116399 2.33623e-19
2.97207e-05 0.000113218 -2.59268e-20
0.000539695 0.000436993 -2.04646e-19
1.68072e-05 0.000161357 -2.46669e-19
-1.71171e-05 -0.000162643 7.16107e-20
-2.65381e-05 -0.000347504 -7.89535e-20
-0.000328915 2.92991e-06 -2.69389e-19
-2.94648e-05 9.34828e-05 -2.827e-19
-0.000117527 -3.48297e-05 7.55969e-20
0.000183664 -0.000174751 1.11565e-19
0.0001843 0.000175064 -9.56026e-20
0.000122977 4.70885e-05 4.90459e-20
0.000118362 -5.27802e-05 -9.81702e-20
-0.00022137 -0.00011986 -4.64293e-20
-9.4559e-06 0.000156958 -5.99727e-19
1.03652e-05 -0.000154086 3.26314e-20
-0.00014489 8.49742e-05 1.31736e-19
-1.2008e-05 -3.36733e-05 -5.18513e-20
-0.000109895 -2.59442e-05 1.78943e-19
-0.000116896 2.88336e-05 8.25246e-20
-0.000113751 -5.33115e-05 6.91535e-20
0.000512627 -0.000419623 -1.76501e-19
-9.33081e-06 0.000341026 1.78416e-20
-4.4937e-06 -0.000370633 -1.25998e-19
0.000354156 -1.16451e-05 -2.12332e-20
-0.000117458 0.000191658 -4.43659e-19
0.000124234 -0.000187907 -1.70962e-20
0.000132313 7.15961e-05 -7.17444e-20
0.000163701 0.00012389 -4.12597e-19
0.000132815 -7.29948e-05 -1.12159e-19
0.000159497 -5.56113e-05 5.98477e-21
0.000159006 5.28733e-05 -6.4152e-20
0.000185243 -9.98527e-05 7.3917e-20
0.000189513 9.86976e-05 -1.86488e-19
0.000436554 0.000537103 -2.46804e-19
0.000539695 0.000436993 -1.17953e-19
-0.000109895 -2.59442e-05 1.82842e-19
-0.000116896 2.88336e-05 -8.35864e-20
-4.50048e-05 -0.000269601 -5.21848e-20
4.61941e-05 0.00027016 -4.89265e-19
-0.000122841 0.0001792 1.12786e-19
-0.000132049 -9.5571e-05 7.21564e-20
0.000124633 -0.00015913 4.28636e-20
0.00011694 0.000126362 -4.46539e-20
0.000156806 4.97081e-05 1.82132e-20
0.000140726 -0.000101435 -1.77936e-19
-1.98711e-05 -0.000185759 -3.96928e-20
0.000171788 3.31894e-05 -7.67544e-20
-0.000216696 -3.42816e-05 1.24895e-19
-3.16598e-05 0.000175219 -1.79497e-19
0.000284907 0.000106993 -6.64351e-20
0.000222814 -0.000134864 -7.9751e-20
-0.000138389 -8.89246e-05 2.51171e-19
-0.000144138 7.27829e-05 1.43442e-19
2.78992e-06 0.000164653 -3.7395e-20
2.46155e-05 -0.000169262 -7.50745e-20
4.56275e-05 -0.000182287 -5.64641e-20
1.7528e-05 0.000158395 1.03386e-19
0.000143619 1.66605e-05 -1.80242e-19
8.35967e-05 -9.88042e-05 1.19665e-19
-1.94301e-05 -9.42344e-05 -5.94522e-20
-3.02303e-05 9.08236e-05 -4.7024e-20
-0.000247197 0.000167585 8.32531e-22
-0.000215222 -0.000128313 2.21006e-19
0.000410647 -0.000207953 1.78809e-20
0.000224559 0.000315933 -5.49921e-19
0.000284907 0.000106993 1.94455e-19
0.000222814 -0.000134864 -2.01162e-20
0.000131958 6.86049e-05 -5.08446e-20
0.000131504 -0.000115477 -1.78008e-19
-0.000111362 5.21665e-05 2.14879e-19
-0.000109574 -5.71455e-05 2.70368e-19
0.000155902 6.54937e-05 -1.8923e-19
0.0001558 -9.33806e-05 -1.20877e-19
6.87997e-05 -0.000234158 7.4123e-20
4.59633e-05 0.000267329 -1.21568e-19
-0.000108247 2.5548e-05 2.59106e-19
-0.000107211 -3.43105e-05 1.27631e-19
3.23038e-06 -0.000393703 1.66253e-19
3.85818e-05 0.000379159 2.9243e-20
0.000392225 -6.88076e-06 -8.35546e-20
-0.000376647 -5.5835e-05 6.18616e-20
0.000179727 0.000167366 -5.5005e-20
0.000146289 -0.000175474 5.86834e-20
-0.000140543 8.16801e-05 1.06706e-19
-0.000178836 -3.31728e-05 8.57739e-20
-0.000186275 2.43897e-05 2.84746e-19
-0.000142822 -9.21629e-05 2.88114e-19
0.000136025 -0.000214025 1.2278e-19
0.00012827 0.000189081 -6.05692e-20
0.000192734 -0.000121127 -2.66112e-19
-0.000122841 0.0001792 -2.16773e-19
-2.23541e-05 -0.00017932 4.63975e-20
0.000190959 9.28962e-05 -3.00653e-19
-0.000128156 0.000104438 -1.96103e-19
-4.64701e-05 -0.000129428 -2.04644e-20
-3.28411e-05 0.000347705 -3.41256e-19
1.49074e-05 -0.000289138 4.96957e-20
0.000248312 0.000247718 4.43227e-20
0.000205363 -0.000236045 1.12801e-19
1.57032e-05 -5.87179e-05 1.89476e-19
-2.32467e-05 0.000198786 2.35534e-19
-1.39418e-05 -0.000190194 2.37031e-19
4.95227e-05 -0.000115088 -5.85241e-20
3.91582e-05 0.000113001 5.54255e-20
5.24424e-06 -0.000159648 -1.19641e-19
-9.59768e-06 0.000154864 5.59098e-20
-0.000215222 -0.000128313 1.52145e-19
4.56275e-05 -0.000182287 1.07697e-19
1.7528e-05 0.000158395 -1.85467e-20
-0.000247197 0.000167585 1.99972e-20
2.2008e-05 4.40872e-05 -3.84802e-20
6.07927e-05 -9.91249e-05 -1.65334e-19
-1.39418e-05 -0.000190194 1.33741e-19
-0.000111362 5.21665e-05 1.29517e-19
0.000282326 0.000107796 4.99336e-20
0.000214459 -0.000137467 1.94026e-20
0.000190959 9.28962e-05 -1.95412e-19
0.000122111 0.000131383 -9.76626e-20
0.000107257 -0.000151179 -1.8274e-19
0.000369197 0.000118383 1.01277e-19
0.000284907 0.000106993 -1.46993e-19
0.000267278 -0.00010563 8.22696e-20
0.000222814 -0.000134864 2.49668e-20
-1.94301e-05 -9.42344e-05 -3.63883e-20
-3.02303e-05 9.08236e-05 1.4001e-19
0.000131958 6.86049e-05 -8.72244e-20
0.000131504 -0.000115477 -1.79767e-19
0.000180909 0.000338546 -1.09139e-19
0.000176074 -0.000292686 -7.91649e-20
0.000192734 -0.000121127 7.33861e-20
0.000143619 1.66605e-05 5.33018e-20
-0.000115259 3.23052e-05 1.84229e-19
-0.000372053 -9.9852e-06 9.2812e-20
-0.000383505 5.64602e-06 3.25167e-19
-2.89498e-05 9.88802e-05 6.08708e-20
-1.69224e-05 -0.00010677 8.41811e-20
-0.000142822 -9.21629e-05 1.92099e-19
8.86439e-05 8.53468e-05 -2.11185e-19
0.000102258 -0.00012678 -5.3563e-20
3.23038e-06 -0.000393703 -1.63592e-20
3.85818e-05 0.000379159 -1.64284e-19
-0.000376647 -5.5835e-05 1.28677e-19
0.000392225 -6.88076e-06 -6.63395e-20
-0.000135544 8.01136e-05 1.79886e-19
2.60713e-05 0.000107037 1.65635e-19
2.24454e-05 -0.000119449 9.35256e-20
-0.000547644 0.000441908 -1.79085e-20
-2.38632e-05 -0.000365507 1.37557e-19
0.00036531 1.81091e-05 -1.0501e-19
-3.02303e-05 9.08236e-05 2.83988e-20
-1.94301e-05 -9.42344e-05 2.61009e-20
-9.59768e-06 0.000154864 -1.46059e-19
5.24424e-06 -0.000159648 -2.7717e-20
-0.000115259 3.23052e-05 2.57179e-19
4.56275e-05 -0.000182287 -3.46362e-20
1.7528e-05 0.000158395 -3.42779e-19
-0.000215222 -0.000128313 1.90475e-19
0.000179727 0.000167366 -3.55091e-21
0.000146289 -0.000175474 -7.08566e-20
0.00011717 -5.2572e-05 4.74764e-20
0.00011682 -4.17835e-05 -3.73389e-19
-0.000142822 -9.21629e-05 2.94676e-19
-0.000107211 -3.43105e-05 1.71809e-19
-0.000108247 2.5548e-05 4.11582e-20
-0.000111362 5.21665e-05 1.61997e-19
0.000552845 -0.000437593 9.24393e-20
3.23038e-06 -0.000393703 7.96554e-20
8.88744e-06 0.000343745 -3.04615e-19
0.000392225 -6.88076e-06 -1.80805e-19
0.000136025 -0.000214025 -3.8718e-20
0.00012827 0.000189081 -1.88631e-20
0.000131958 6.86049e-05 -2.29768e-20
0.000131504 -0.000115477 -1.86329e-19
-0.000247197 0.000167585 -1.14347e-19
0.000156806 4.97081e-05 -1.60258e-20
0.000140726 -0.000101435 -9.98501e-20
0.000192734 -0.000121127 -2.93075e-19
0.000190959 9.28962e-05 -1.67736e-19
-0.000442738 0.000542652 7.17413e-20
-0.000547644 0.000441908 -1.0327e-19
-0.000107211 -3.43105e-05 7.20864e-20
-0.000108247 2.5548e-05 2.7418e-19
6.87997e-05 -0.000234158 1.0589e-20
4.59633e-05 0.000267329 -9.88349e-20
1.70919e-05 -2.1902e-06 8.41726e-20
1.92049e-05 -2.55804e-06 -2.31055e-19
8.7509e-06 -1.21555e-06 4.78565e-20
1.91647e-05 2.53782e-06 2.461e-19
2.60216e-05 -3.41464e-06 -1.40669e-19
2.60662e-05 3.39331e-06 2.36619e-19
2.22459e-05 -5.5842e-06 -1.36073e-19
1.55034e-05 -1.74427e-06 1.77333e-19
1.53134e-05 -1.49659e-06 1.05176e-19
2.75667e-05 2.35017e-06 8.35864e-20
4.39091e-05 -1.37295e-05 -2.38807e-19
4.39398e-05 1.37315e-05 3.28433e-19
-7.04231e-06 -1.53329e-05 -5.43676e-21
-8.90726e-06 -5.64628e-06 1.40124e-20
2.82972e-05 1.61989e-05 3.3258e-20
3.09648e-05 -1.44222e-05 -1.71612e-19
3.6554e-05 4.14832e-06 3.01657e-20
2.08775e-05 5.13163e-06 -3.03569e-20
1.56045e-05 -1.79926e-06 1.22566e-19
1.1184e-05 7.85876e-06 3.37183e-19
3.52952e-05 -2.75568e-05 7.08737e-20
1.43905e-05 -6.47995e-06 -2.46036e-19
1.73093e-05 -2.22351e-06 1.51971e-19
1.92387e-05 8.04161e-07 2.51409e-20
1.78339e-05 1.294e-06 2.00367e-19
2.03555e-05 2.14067e-07 1.02815e-19
4.39091e-05 -1.37295e-05 -4.9632e-20
4.39398e-05 1.37315e-05 2.31896e-19
2.05456e-05 -1.1281e-06 -1.27353e-19
2.0545e-05 1.07743e-06 3.45759e-19
1.428e-05 1.76362e-05 2.22399e-20
1.54094e-05 -1.4953e-05 -4.85064e-21
1.86348e-05 -3.49505e-06 -7.23476e-20
1.86144e-05 3.44144e-06 2.04899e-19
6.10566e-05 7.79507e-05 -1.41922e-19
2.08268e-05 -7.36136e-05 -1.09203e-19
-3.56091e-06 -4.07438e-05 -1.72788e-20
-3.84979e-06 3.98646e-05 -5.55445e-20
2.14545e-05 -1.8915e-08 1.31333e-19
2.12539e-05 -3.10197e-07 1.8415e-19
1.74221e-05 -1.21312e-09 1.64272e-19
1.67417e-05 -1.9289e-08 2.13521e-20
2.73411e-05 -2.2683e-05 -1.05716e-19
2.73499e-05 2.27376e-05 4.97016e-19
7.62283e-06 1.66834e-06 8.52515e-20
-5.87389e-05 -4.15617e-05 4.76824e-20
-5.85267e-05 4.15363e-05 -2.75025e-20
9.91471e-06 -1.38186e-06 -1.30143e-20
2.05432e-05 -2.19367e-06 -2.33672e-19
2.05882e-05 2.17772e-06 9.28757e-20
1.7184e-05 -2.31875e-06 4.12942e-20
1.70919e-05 -2.1902e-06 1.18603e-19
2.4406e-05 5.33748e-06 5.40069e-20
1.71942e-05 2.38201e-06 1.03401e-19
-1.32959e-05 1.48602e-05 -7.06359e-20
0.000116042 1.69241e-05 5.83181e-20
2.92886e-05 0.000110354 -2.35396e-20
6.21643e-05 -0.000115791 6.86396e-21
3.75067e-05 -3.54309e-05 -1.02874e-20
3.75322e-05 3.54516e-05 3.31572e-19
1.82449e-06 5.58661e-06 3.63925e-19
5.85259e-05 0.000107676 -1.71514e-20
6.3555e-05 -0.00010177 1.37419e-19
6.72635e-05 -1.7339e-05 4.08184e-20
8.28269e-06 -8.94218e-06 -1.87765e-19
3.76636e-05 -6.96674e-06 1.00453e-19
2.18942e-05 -5.20203e-06 4.32825e-21
1.78339e-05 1.294e-06 1.15528e-19
3.6554e-05 4.14832e-06 6.06967e-20
2.08775e-05 5.13163e-06 8.35489e-21
7.48839e-06 3.58619e-05 -1.34263e-20
1.73093e-05 -2.22351e-06 1.77176e-19
1.13335e-05 3.85841e-07 2.20165e-19
6.3555e-05 -0.00010177 6.45197e-21
1.428e-05 1.76362e-05 -1.60895e-20
4.47222e-05 -1.34763e-05 -2.29407e-19
4.47555e-05 1.34775e-05 2.00953e-19
1.71942e-05 2.38201e-06 2.39695e-19
1.7337e-05 -1.64375e-05 -8.12886e-20
1.7268e-05 1.64518e-05 3.87291e-19
5.78303e-05 -1.74204e-05 -1.53759e-21
4.39091e-05 -1.37295e-05 -4.28784e-20
5.78752e-05 1.74313e-05 1.69012e-19
4.39398e-05 1.37315e-05 4.62381e-20
3.52952e-05 -2.75568e-05 -9.45237e-20
2.05456e-05 -1.1281e-06 -1.72436e-19
2.0545e-05 1.07743e-06 2.71572e-19
0.000146032 0.000131031 -1.4636e-19
-3.26831e-05 -9.98956e-05 -1.17783e-20
8.7615e-06 1.21823e-06 -1.86274e-19
1.7184e-05 -2.31875e-06 -1.05423e-20
1.56045e-05 -1.79926e-06 2.02079e-19
3.18133e-05 1.12018e-05 2.19659e-19
7.48839e-06 3.58619e-05 -2.26519e-20
-0.000213218 3.42653e-05 1.85148e-20
-0.000213074 -3.49481e-05 9.60784e-20
3.59282e-05 -2.35736e-05 -2.04815e-20
9.91471e-06 -1.38186e-06 -1.09551e-19
1.86598e-05 1.80606e-06 1.86338e-19
2.14545e-05 -1.8915e-08 6.88433e-20
2.12539e-05 -3.10197e-07 1.11391e-19
1.67417e-05 -1.9289e-08 1.04764e-19
1.74221e-05 -1.21312e-09 1.48535e-20
1.86677e-05 -1.84508e-06 -2.77502e-19
-1.74669e-05 -1.29477e-05 8.81355e-21
3.68522e-06 -1.39731e-05 1.24689e-19
3.68794e-06 1.374e-05 5.08841e-19
1.60365e-05 5.77837e-06 1.64637e-19
3.6554e-05 4.14832e-06 2.09401e-20
2.11779e-05 2.70855e-07 1.42966e-19
1.74869e-05 -6.20787e-08 1.19682e-19
3.52952e-05 -2.75568e-05 -1.25055e-19
3.76636e-05 -6.96674e-06 1.18904e-19
3.18133e-05 1.12018e-05 -6.64351e-20
2.08775e-05 5.13163e-06 -3.81552e-20
1.78339e-05 1.294e-06 3.60144e-20
2.73411e-05 -2.2683e-05 -1.3482e-19
2.73499e-05 2.27376e-05 2.8121e-19
2.23062e-05 1.10864e-05 -2.47383e-19
2.21596e-05 -1.10772e-05 3.72501e-19
2.18942e-05 -5.20203e-06 -2.12906e-19
9.91471e-06 -1.38186e-06 -1.16305e-19
8.7615e-06 1.21823e-06 -1.86274e-19
-3.56091e-06 -4.07438e-05 2.24777e-20
-3.84979e-06 3.98646e-05 -1.29731e-19
1.428e-05 1.76362e-05 -1.53759e-21
1.62875e-05 5.58143e-06 1.38005e-19
2.15629e-05 5.83362e-08 -2.46823e-20
2.14545e-05 -1.8915e-08 -6.38823e-21
1.74221e-05 -1.21312e-09 8.61859e-20
2.05432e-05 -2.19367e-06 3.78707e-20
2.05882e-05 2.17772e-06 9.67749e-20
2.0545e-05 1.07743e-06 3.85515e-19
1.73093e-05 -2.22351e-06 1.95627e-19
2.05456e-05 -1.1281e-06 -2.46622e-19
2.60216e-05 -3.41464e-06 -2.04203e-19
2.60662e-05 3.39331e-06 2.47272e-19
1.7184e-05 -2.31875e-06 -1.82311e-19
1.71942e-05 2.38201e-06 1.76161e-19
2.28437e-05 1.53593e-07 1.46819e-19
1.60365e-05 5.77837e-06 1.38005e-19
-3.84979e-06 3.98646e-05 -6.86692e-20
-3.56091e-06 -4.07438e-05 8.60118e-20
6.10566e-05 7.79507e-05 8.06387e-20
2.08268e-05 -7.36136e-05 2.70905e-20
-0.000116298 0.000189338 3.25785e-21
-0.000136233 -8.89415e-05 -1.24222e-19
0.000117928 -0.000125054 -6.80279e-20
0.000124581 0.000158559 6.6261e-21
0.000140368 0.000101517 -7.63742e-20
0.000156646 -4.99481e-05 1.80402e-19
3.30017e-05 -0.00017723 -1.51162e-19
0.000171704 5.8135e-05 7.03809e-21
-0.000219566 -2.89779e-05 -1.52018e-20
-1.90317e-05 0.000186002 -2.56485e-20
0.00022233 0.000134755 6.73057e-20
0.000284904 -0.000107158 -6.34703e-20
-0.000142834 -8.44496e-05 -6.66325e-20
-0.000139425 7.67508e-05 8.15731e-20
2.53706e-05 0.000169528 -5.73837e-20
-2.12388e-06 -0.000164675 -6.42072e-20
-1.77989e-05 -0.000163173 -2.23597e-19
4.62357e-05 0.000182094 4.97595e-20
0.000140769 3.99883e-05 7.81178e-20
8.90977e-05 -7.51517e-05 9.95889e-20
-2.12853e-05 9.29746e-05 -1.15789e-19
3.00695e-05 -8.98997e-05 -1.3283e-19
-0.000244814 0.000177346 -2.74029e-19
-0.000218023 -0.000118915 -2.14467e-19
0.000404434 -0.000186877 -3.12973e-19
0.000232195 0.00033715 8.10974e-20
0.00022233 0.000134755 -1.30712e-19
0.000284904 -0.000107158 1.07165e-20
0.000131244 0.000115379 -4.20863e-20
0.000132365 -6.91598e-05 -1.32299e-19
-0.000108659 5.57443e-05 -2.91909e-20
-0.000113114 -5.192e-05 -1.88026e-19
0.000156068 9.33805e-05 -8.27408e-21
0.000155943 -6.55045e-05 1.4932e-20
6.89361e-05 0.000234379 -1.87289e-19
-4.53651e-05 -0.000266611 -2.05375e-19
-0.000101715 2.95589e-05 3.3621e-20
-0.000110239 -2.67474e-05 -1.9619e-19
-4.84404e-06 -0.00037318 -3.33133e-19
4.39408e-05 0.000396939 -1.08299e-19
0.000390526 1.54231e-05 1.87336e-19
-0.000376305 -4.6073e-05 -3.78643e-19
0.000146083 0.000174934 5.48775e-20
0.000179662 -0.000167925 2.159e-20
-0.000137571 8.7288e-05 1.77227e-20
-0.000185663 -2.44396e-05 -1.41066e-19
-0.000179918 2.84011e-05 4.61277e-21
-0.000146509 -8.74726e-05 -1.79941e-19
0.00012677 -0.000186491 -9.16545e-20
0.00013764 0.000213195 -6.76159e-20
0.000191845 -9.2429e-05 -1.96062e-19
-0.000116298 0.000189338 -2.54064e-19
-3.53931e-05 -0.000168079 -3.26031e-19
0.000191717 0.000121239 1.55815e-19
-4.6193e-05 0.000129447 8.22742e-21
0.000128849 -0.000104946 -1.28066e-19
3.37447e-05 -0.000347315 -2.15616e-19
1.51409e-05 0.00028926 -1.86703e-19
0.000204949 0.000235665 -8.60118e-20
0.000248363 -0.000247893 -3.9867e-20
1.59501e-05 -4.0374e-05 -4.41315e-20
-2.17621e-05 0.00019905 -1.20714e-20
-1.54205e-05 -0.000189712 -1.72389e-19
4.95313e-05 0.000115603 -2.30087e-20
-3.63167e-05 -0.000116662 -3.18193e-19
5.8638e-06 0.000163028 -5.54022e-20
1.03357e-05 -0.000152601 -2.71151e-19
-0.000218023 -0.000118915 -2.98401e-19
-1.77989e-05 -0.000163173 -2.22883e-19
4.62357e-05 0.000182094 -2.58545e-20
-9.99894e-05 -6.81642e-05 -1.24698e-19
-0.000244814 0.000177346 -2.19912e-19
6.21042e-05 9.88429e-05 -8.72011e-20
-1.54205e-05 -0.000189712 -2.1514e-19
-0.000108659 5.57443e-05 1.38156e-19
0.000213919 0.000137376 -2.55996e-20
0.000282275 -0.000107977 -2.2863e-19
0.000191717 0.000121239 2.34615e-19
0.000107674 0.000150955 1.08919e-19
0.000121535 -0.000131734 9.16227e-20
0.00026661 0.000105441 2.92228e-19
0.00022233 0.000134755 -7.14598e-20
0.000369145 -0.000118436 -5.73199e-20
0.000284904 -0.000107158 -3.04673e-20
-2.12853e-05 9.29746e-05 -2.93821e-20
0.000131244 0.000115379 -1.17465e-20
0.000132365 -6.91598e-05 3.9661e-20
0.000176078 0.000292828 -2.13921e-19
-0.000180633 -0.000337985 4.02888e-19
-1.29167e-05 -3.11124e-05 -2.5939e-19
0.000191845 -9.2429e-05 9.15993e-20
0.000140769 3.99883e-05 9.72825e-20
-0.000115134 3.58168e-05 5.64089e-20
-9.99894e-05 -6.81642e-05 -2.00643e-19
-0.000383309 -6.76497e-06 -7.73723e-20
-0.000372544 8.8372e-06 -2.19553e-20
-1.94839e-05 0.000104301 -8.53215e-20
-0.000146509 -8.74726e-05 -6.56663e-20
0.000102463 0.000126508 2.53788e-20
-4.84404e-06 -0.00037318 -2.9e-19
4.39408e-05 0.000396939 1.69519e-19
-0.000376305 -4.6073e-05 -3.30374e-19
0.000390526 1.54231e-05 -1.2748e-19
8.84462e-05 -8.59265e-05 -3.51973e-19
-0.000129539 8.51833e-05 5.98556e-20
2.26262e-05 0.000121922 8.41897e-20
2.59153e-05 -0.000104341 1.69858e-20
-0.000547723 0.000451113 -1.01479e-19
-1.77989e-05 -0.000163173 -4.12249e-19
-2.84917e-05 -0.000348402 -8.67168e-20
0.000367079 3.71976e-05 1.75443e-20
-2.12853e-05 9.29746e-05 8.61609e-21
5.8638e-06 0.000163028 -7.06677e-20
-0.000115134 3.58168e-05 -9.19647e-20
4.62357e-05 0.000182094 -1.47074e-19
-0.000218023 -0.000118915 -2.34867e-19
0.000146083 0.000174934 1.14895e-19
0.000179662 -0.000167925 7.03809e-21
0.000116329 4.1963e-05 5.5672e-20
0.000118587 5.26614e-05 -2.10948e-19
1.03357e-05 -0.000152601 -3.072e-19
-0.000146509 -8.74726e-05 -1.56877e-19
-1.29167e-05 -3.11124e-05 -1.89294e-19
-0.000101715 2.95589e-05 1.25023e-19
-0.000110239 -2.67474e-05 -8.80951e-20
-0.000108659 5.57443e-05 7.39085e-20
0.000550851 -0.000423436 -3.16003e-20
-4.84404e-06 -0.00037318 -1.49807e-19
1.70797e-05 0.00036491 3.70063e-20
0.000390526 1.54231e-05 7.23476e-20
0.00012677 -0.000186491 -2.63092e-19
0.00013764 0.000213195 1.31333e-20
0.000131244 0.000115379 1.34582e-20
-0.000244814 0.000177346 -2.61427e-19
0.000132365 -6.91598e-05 -1.25067e-20
0.000140368 0.000101517 -8.55998e-20
0.000156646 -4.99481e-05 3.5405e-20
0.000191845 -9.2429e-05 -1.64486e-19
0.000191717 0.000121239 1.73807e-20
-0.000450295 0.000562845 4.84679e-19
-0.000547723 0.000451113 -2.94649e-19
-0.000110239 -2.67474e-05 -3.80682e-20
-0.000101715 2.95589e-05 2.58227e-20
-4.53651e-05 -0.000266611 -2.05757e-19
6.89361e-05 0.000234379 2.31913e-20

CELL_DATA 2380
TENSORS stress float
0.0197812 3.20338 -2.04851e-12
3.20338 4.40649 -2.30231e-11
-2.04851e-12 -2.30231e-11 0.116107

-1.43293 2.13115 1.52671e-11
2.13115 2.17496 2.02282e-11
1.52671e-11 2.02282e-11 -0.604346

-1.489 1.70948 6.40439e-12
1.70948 1.97642 -2.87998e-11
6.40439e-12 -2.87998e-11 -0.617152

4.12943 0.935642 1.91706e-11
0.935642 -3.56722 2.54988e-11
1.91706e-11 2.54988e-11 -0.470867

5.53174 0.370938 -1.45466e-11
0.370938 -1.74421 -6.61809e-12
-1.45466e-11 -6.61809e-12 0.00488431

-4.74694 2.01545 1.15699e-11
2.01545 -1.08651 -2.56206e-11
1.15699e-11 -2.56206e-11 -2.4598

-4.83293 1.86881 2.00337e-11
1.86881 -1.12878 7.8982e-12
2.00337e-11 7.8982e-12 -2.44848

5.69197 -0.468886 -1.16564e-11
-0.468886 -1.51271 -1.24699e-11
-1.16564e-11 -1.24699e-11 0.0964122

3.74745 0.0774476 3.04387e-11
0.0774476 -5.53319 -2.86533e-11
3.04387e-11 -2.86533e-11 -0.777921

1.54449 3.11217 2.6988e-12
3.11217 6.34805 2.7891e-11
2.6988e-12 2.7891e-11 0.395345

1.95657 -3.3281 -1.26674e-11
-3.3281 6.67734 -1.41619e-11
-1.26674e-11 -1.41619e-11 0.520936

5.92783 3.21989 2.17253e-11
3.21989 2.50338 2.54341e-11
2.17253e-11 2.54341e-11 0.450971

-2.69232 -2.6368 3.37212e-12
-2.6368 -0.410324 -6.93571e-12
3.37212e-12 -6.93571e-12 -1.92498

-2.74563 -2.98352 -3.31328e-11
-2.98352 -0.157533 1.59908e-11
-3.31328e-11 1.59908e-11 -1.95059

-2.31831 3.0299 6.11548e-12
3.0299 2.85348 -1.40632e-11
6.11548e-12 -1.40632e-11 -0.491378

-3.31772 3.62834 1.75308e-11
3.62834 1.79637 2.16733e-11
1.75308e-11 2.16733e-11 -0.741512

-4.90003 -1.37936 -2.6483e-12
-1.37936 -1.23279 -1.2329e-11
-2.6483e-12 -1.2329e-11 -2.51598

-4.88162 -1.48916 -1.6759e-11
-1.48916 -1.20488 -2.01303e-11
-1.6759e-11 -2.01303e-11 -2.53344

2.81412 1.38103 -5.49064e-12
1.38103 -1.74405 1.5772e-11
-5.49064e-12 1.5772e-11 -0.347001

1.34383 1.20427 1.34865e-11
1.20427 7.74842 1.44566e-12
1.34865e-11 1.44566e-12 0.731713

1.48466 -1.15179 -7.85061e-12
-1.15179 7.97687 -5.78056e-13
-7.85061e-12 -5.78056e-13 0.796586

7.26394 0.987708 4.11844e-11
0.987708 2.81085 1.43786e-11
4.11844e-11 1.43786e-11 0.883438

0.0447159 3.57794 -8.86224e-12
3.57794 3.49505 -6.16588e-12
-8.86224e-12 -6.16588e-12 -0.0631677

4.9276 -1.8295 1.36306e-11
-1.8295 -0.949986 9.39164e-12
1.36306e-11 9.39164e-12 -0.114689

0.675818 3.28342 1.05967e-11
3.28342 1.78353 1.9169e-11
1.05967e-11 1.9169e-11 -0.146169

0.0662532 3.57674 1.85914e-11
3.57674 4.53755 9.24853e-12
1.85914e-11 9.24853e-12 0.107616

4.34176 -0.774243 -9.92177e-12
-0.774243 -3.82782 -1.00204e-11
-9.92177e-12 -1.00204e-11 -0.453331

5.57757 2.76972 -4.54044e-12
2.76972 10.8515 -1.05729e-11
-4.54044e-12 -1.05729e-11 2.02778

3.37635 0.343731 -1.83017e-11
0.343731 -5.5488 2.82206e-11
-1.83017e-11 2.82206e-11 -0.862306

9.98112 2.77608 -1.97259e-11
2.77608 6.55504 9.06793e-12
-1.97259e-11 9.06793e-12 2.03233

-2.4393 0.437751 -7.71733e-12
0.437751 -0.805705 -1.40631e-11
-7.71733e-12 -1.40631e-11 -2.44644

-2.43715 0.149818 1.954e-11
0.149818 -0.870872 1.05946e-11
1.954e-11 1.05946e-11 -2.45544

-4.6864 1.56001 6.62633e-11
1.56001 -7.57023 -1.86817e-11
6.62633e-11 -1.86817e-11 -7.4148

-4.70879 -1.49636 9.05335e-12
-1.49636 -7.56168 -1.39642e-11
9.05335e-12 -1.39642e-11 -7.48555

8.12832 -1.1592 -1.2513e-12
-1.1592 2.00109 9.56113e-12
-1.2513e-12 9.56113e-12 0.931131

-1.51374 3.52987 -1.48334e-11
3.52987 1.15041 9.0542e-12
-1.48334e-11 9.0542e-12 -0.617353

-1.48756 0.647074 -5.00929e-12
0.647074 -2.99618 -1.84928e-11
-5.00929e-12 -1.84928e-11 -2.62745

-1.76361 -0.588016 1.63738e-11
-0.588016 -3.18343 -3.18802e-11
1.63738e-11 -3.18802e-11 -2.81447

4.16771 0.00753086 9.24782e-12
0.00753086 -6.02843 3.28795e-11
9.24782e-12 3.28795e-11 -0.710586

-0.260749 3.87152 -2.74033e-11
3.87152 4.47258 6.05903e-11
-2.74033e-11 6.05903e-11 0.00961885

4.49471 -2.36866 3.61215e-12
-2.36866 1.15313 1.87842e-11
3.61215e-12 1.87842e-11 0.268323

4.39456 -0.228075 2.01326e-11
-0.228075 -6.03013 -1.89862e-11
2.01326e-11 -1.89862e-11 -0.606358

0.041687 -3.58533 6.40621e-12
-3.58533 3.68354 -2.75509e-11
6.40621e-12 -2.75509e-11 -0.055239

0.0481384 -3.07238 2.95238e-11
-3.07238 4.49396 8.38033e-12
2.95238e-11 8.38033e-12 0.129435

-2.99148 4.07955 2.84208e-12
4.07955 2.14973 9.82466e-12
2.84208e-12 9.82466e-12 -0.684238

3.66199 -3.8264 2.50614e-12
-3.8264 2.23401 1.58468e-11
2.50614e-12 1.58468e-11 0.190527

5.03783 7.81525 9.38316e-12
7.81525 10.4191 9.30026e-12
9.38316e-12 9.30026e-12 2.48476

9.80666 7.72271 -4.98742e-12
7.72271 5.60849 1.76441e-11
-4.98742e-12 1.76441e-11 2.47874

-4.2841 -3.64702 4.37275e-11
-3.64702 0.248966 4.91174e-12
4.37275e-11 4.91174e-12 -1.53028

7.23467 3.27882 8.62362e-12
3.27882 13.8277 -1.94869e-11
8.62362e-12 -1.94869e-11 3.28295

12.5089 2.93852 -2.51011e-11
2.93852 7.71611 -8.91139e-12
-2.51011e-11 -8.91139e-12 3.12115

-3.08533 -2.55996 1.81053e-11
-2.55996 -0.871922 3.32284e-11
1.81053e-11 3.32284e-11 -2.22198

-3.09805 2.55038 -2.10927e-11
2.55038 -0.901326 -1.2328e-11
-2.10927e-11 -1.2328e-11 -2.2219

3.11631 0.0738831 8.4764e-12
0.0738831 -2.55149 3.95535e-12
8.4764e-12 3.95535e-12 -0.265041

-3.45622 -2.23074 4.45936e-11
-2.23074 -1.93616 3.59238e-11
4.45936e-11 3.59238e-11 -2.51312

-3.46597 2.22387 4.45917e-11
2.22387 -1.94572 1.68589e-11
4.45917e-11 1.68589e-11 -2.50834

-2.16375 3.57759 -3.58776e-12
3.57759 3.26034 -8.57366e-12
-3.58776e-12 -8.57366e-12 -0.43494

-2.82241 1.46273 -5.39366e-11
1.46273 -7.30145 -1.24258e-11
-5.39366e-11 -1.24258e-11 -5.86188

-2.80944 -1.45185 1.73369e-11
-1.45185 -7.35341 -2.61005e-11
1.73369e-11 -2.61005e-11 -5.90669

-1.84961 -2.9544 5.3948e-12
-2.9544 -0.309325 1.44422e-13
5.3948e-12 1.44422e-13 -1.18675

-1.8799 2.93641 -2.20558e-11
2.93641 -0.32635 -2.55737e-11
-2.20558e-11 -2.55737e-11 -1.18611

6.46296 -3.1776 9.53756e-12
-3.1776 2.28521 1.89541e-11
9.53756e-12 1.89541e-11 0.538945

-6.62787 1.42795 1.44948e-11
1.42795 -2.91077 4.00673e-11
1.44948e-11 4.00673e-11 -5.64943

-6.6418 1.12916 1.56744e-11
1.12916 -2.86883 7.12785e-12
1.56744e-11 7.12785e-12 -5.61839

-0.338011 -3.94488 -1.45948e-11
-3.94488 4.48768 3.50651e-11
-1.45948e-11 3.50651e-11 -0.00342209

5.43767 -2.61156 -2.28589e-11
-2.61156 11.7572 2.88087e-11
-2.28589e-11 2.88087e-11 2.18201

11.2284 -2.58838 5.54248e-11
-2.58838 5.76322 -8.82324e-12
5.54248e-11 -8.82324e-12 2.16029

-3.13559 3.1161 2.17972e-12
3.1161 2.28786 9.34282e-12
2.17972e-12 9.34282e-12 -0.795568

-3.21502 2.89731 -2.31889e-11
2.89731 1.88962 1.07885e-11
-2.31889e-11 1.07885e-11 -0.830542

-7.13041 -4.32105 -1.13641e-10
-4.32105 -10.0217 1.13706e-11
-1.13641e-10 1.13706e-11 -9.16822

-7.13179 4.31981 1.95505e-10
4.31981 -10.0139 -5.64151e-11
1.95505e-10 -5.64151e-11 -9.16171

-3.25124 4.41597 4.83965e-14
4.41597 1.5333 8.66955e-12
4.83965e-14 8.66955e-12 -0.689516

0.281299 2.17142 1.06919e-11
2.17142 -1.4671 2.7499e-11
1.06919e-11 2.7499e-11 -0.810289

0.373934 -2.20945 -1.41585e-11
-2.20945 -1.47891 -3.92979e-11
-1.41585e-11 -3.92979e-11 -0.810857

-3.25589 4.22085 -1.99372e-11
4.22085 0.650086 7.51218e-12
-1.99372e-11 7.51218e-12 -0.97463

-4.12988 -3.85792 1.31467e-11
-3.85792 0.575757 1.1847e-11
1.31467e-11 1.1847e-11 -1.51631

7.6846 -0.0438927 -2.31225e-11
-0.0438927 0.545896 -5.17843e-12
-2.31225e-11 -5.17843e-12 0.54007

6.13076 1.72389 1.70992e-11
1.72389 -0.321823 -1.8736e-11
1.70992e-11 -1.8736e-11 0.226638

-0.888355 0.70038 9.82462e-12
0.70038 -5.57095 -3.85299e-12
9.82462e-12 -3.85299e-12 -2.6265

-8.80715 -1.08076 1.05946e-11
-1.08076 -9.36443 -2.8508e-11
1.05946e-11 -2.8508e-11 -9.85474

-8.74641 0.930185 -1.10756e-10
0.930185 -9.22926 8.94745e-11
-1.10756e-10 8.94745e-11 -9.76105

4.02757 3.19298 3.66565e-11
3.19298 5.6437 3.59351e-11
3.66565e-11 3.59351e-11 0.835665

1.14464 -2.78677 4.44079e-11
-2.78677 -0.232085 -9.586e-12
4.44079e-11 -9.586e-12 -0.522206

2.94125 1.67145 7.41696e-12
1.67145 -0.614832 3.70826e-12
7.41696e-12 3.70826e-12 -0.12793

-7.90388 0.913392 -3.73337e-11
0.913392 -5.32287 1.05937e-11
-3.73337e-11 1.05937e-11 -7.42404

-7.88138 0.778298 5.31865e-11
0.778298 -5.298 7.3194e-12
5.31865e-11 7.3194e-12 -7.42772

-1.18437 -0.513339 3.45786e-11
-0.513339 -5.60865 2.49455e-11
3.45786e-11 2.49455e-11 -2.80829

-1.63761 -1.0898 1.26292e-11
-1.0898 1.97415 2.7259e-11
1.26292e-11 2.7259e-11 -0.738411

-1.63396 -1.48268 1.51726e-12
-1.48268 2.10447 1.38702e-11
1.51726e-12 1.38702e-11 -0.736724

1.74364 -1.02607 3.46752e-11
-1.02607 -3.10385 -2.05881e-11
3.46752e-11 -2.05881e-11 -0.586385

1.71862 1.03765 1.3484e-12
1.03765 -3.18687 1.02815e-11
1.3484e-12 1.02815e-11 -0.592485

5.19941 -3.1687 -3.07803e-11
-3.1687 5.10212 3.80063e-11
-3.07803e-11 3.80063e-11 0.89429

4.65419 0.197613 -3.9398e-11
0.197613 -0.24195 -5.91878e-12
-3.9398e-11 -5.91878e-12 0.133772

-0.222236 -1.55553 8.76492e-12
-1.55553 -3.03158 8.66474e-13
8.76492e-12 8.66474e-13 -1.28242

-0.273472 1.54086 -4.52808e-12
1.54086 -3.02248 4.86313e-12
-4.52808e-12 4.86313e-12 -1.27737

2.98802 -1.73456 -1.51223e-11
-1.73456 -0.470447 -9.46321e-12
-1.51223e-11 -9.46321e-12 -0.10642

-0.0075808 -3.5925 5.72953e-12
-3.5925 4.70902 2.95734e-11
5.72953e-12 2.95734e-11 0.131538

1.87071 -1.15489 5.00859e-11
-1.15489 -2.39435 -4.04771e-11
5.00859e-11 -4.04771e-11 -0.58659

1.82974 1.16543 1.79151e-11
1.16543 -2.48705 1.67347e-11
1.79151e-11 1.67347e-11 -0.594223

3.32409 -0.757251 -1.53171e-11
-0.757251 -2.5753 8.86187e-12
-1.53171e-11 8.86187e-12 -0.417533

-2.85178 5.04139 2.35986e-11
5.04139 1.80205 2.83201e-11
2.35986e-11 2.83201e-11 -0.660675

3.61479 2.77814 4.62378e-12
2.77814 2.37172 -3.96393e-11
4.62378e-12 -3.96393e-11 0.348758

-3.50575 4.26631 -1.59892e-11
4.26631 1.61224 4.14181e-12
-1.59892e-11 4.14181e-12 -0.739824

-3.17338 4.76411 -4.33068e-13
4.76411 2.0947 4.62304e-12
-4.33068e-13 4.62304e-12 -0.650624

4.60298 2.06208 -1.2235e-11
2.06208 0.0933871 -7.73119e-12
-1.2235e-11 -7.73119e-12 0.00412144

-0.338104 -1.70579 -4.26719e-11
-1.70579 -2.84914 3.03435e-12
-4.26719e-11 3.03435e-12 -1.33252

3.53222 0.932986 1.00182e-11
0.932986 -1.93331 -1.94081e-11
1.00182e-11 -1.94081e-11 -0.270752

1.62214 3.5151 -3.21283e-11
3.5151 2.53914 -2.3555e-11
-3.21283e-11 -2.3555e-11 -0.102579

0.924824 2.85346 1.66647e-11
2.85346 -0.2081 -9.58474e-12
1.66647e-11 -9.58474e-12 -0.561866

-3.97506 0.246969 4.19353e-11
0.246969 1.33151 -1.76275e-11
4.19353e-11 -1.76275e-11 -1.29248

-3.93788 0.390773 1.14743e-11
0.390773 1.34354 1.12698e-11
1.14743e-11 1.12698e-11 -1.28899

5.73866 -3.58367 -3.01568e-11
-3.58367 2.89504 1.87034e-11
-3.01568e-11 1.87034e-11 0.506727

-3.2937 -4.25401 2.02256e-11
-4.25401 0.650066 1.99381e-11
2.02256e-11 1.99381e-11 -0.981365

1.71539 -4.20048 1.69093e-11
-4.20048 4.57705 -4.40736e-11
1.69093e-11 -4.40736e-11 0.262389

1.73048 4.30237 -2.75019e-11
4.30237 4.52213 2.71159e-11
-2.75019e-11 2.71159e-11 0.260295

2.67035 -1.56356 -8.95735e-12
-1.56356 -1.1656 -2.03247e-11
-8.95735e-12 -2.03247e-11 -0.332047

2.32216 -0.233437 -5.78051e-12
-0.233437 -7.11874 2.98557e-12
-5.78051e-12 2.98557e-12 -1.56579

2.52116 0.261263 -2.85121e-11
0.261263 -6.87964 -9.05309e-12
-2.85121e-11 -9.05309e-12 -1.44717

-0.826981 2.28256 -2.89111e-12
2.28256 4.80803 -3.89186e-11
-2.89111e-12 -3.89186e-11 -0.117166

0.786575 -3.45372 3.33286e-11
-3.45372 1.81398 -3.60753e-11
3.33286e-11 -3.60753e-11 -0.140083

-0.580345 -0.0770864 -5.47872e-12
-0.0770864 7.6089 -8.47855e-12
-5.47872e-12 -8.47855e-12 0.234152

-0.492021 0.169628 -1.75559e-11
0.169628 7.80655 -7.8999e-12
-1.75559e-11 -7.8999e-12 0.293971

7.39764 -0.0277301 2.11472e-11
-0.0277301 0.593814 -3.70879e-11
2.11472e-11 -3.70879e-11 0.409834

5.26833 3.3647 1.22339e-11
3.3647 5.34278 -3.27537e-11
1.22339e-11 -3.27537e-11 0.954372

2.65506 -3.94513 1.66676e-11
-3.94513 2.19633 -1.6377e-11
1.66676e-11 -1.6377e-11 -0.0309967

-11.0244 -1.93712 7.24001e-11
-1.93712 -6.82661 -4.27696e-11
7.24001e-11 -4.27696e-11 -10.2705

-10.98 -1.78734 7.83495e-11
-1.78734 -6.80778 6.2216e-11
7.83495e-11 6.2216e-11 -10.2333

4.63253 -2.02044 1.93618e-11
-2.02044 -0.0991701 3.49664e-11
1.93618e-11 3.49664e-11 -0.0169552

-1.95063 4.68409 3.13038e-12
4.68409 3.18091 -1.34858e-11
3.13038e-12 -1.34858e-11 -0.268372

3.19719 -0.123661 1.68557e-11
-0.123661 -2.51993 8.99546e-12
1.68557e-11 8.99546e-12 -0.251795

-0.897174 -2.24621 -3.37251e-12
-2.24621 4.97861 2.00378e-11
-3.37251e-12 2.00378e-11 -0.0980163

-4.08451 4.19392 8.18854e-13
4.19392 0.8663 -3.66048e-12
8.18854e-13 -3.66048e-12 -1.33801

-4.40906 3.94749 -1.81078e-11
3.94749 0.544941 -6.74868e-13
-1.81078e-11 -6.74868e-13 -1.36902

-2.84715 -5.03172 3.65996e-12
-5.03172 1.77921 -3.75733e-12
3.65996e-12 -3.75733e-12 -0.674387

-3.26181 4.85242 8.66122e-13
4.85242 2.40188 -2.08053e-11
8.66122e-13 -2.08053e-11 -0.547184

-2.13692 4.09527 6.83921e-12
4.09527 2.63878 1.12705e-11
6.83921e-12 1.12705e-11 -0.332145

1.85371 0.00916851 1.04025e-11
0.00916851 -3.61556 -6.38769e-12
1.04025e-11 -6.38769e-12 -0.383852

2.9244 3.87158 1.23296e-11
3.87158 2.06275 -3.71817e-11
1.23296e-11 -3.71817e-11 -0.00752789

-3.51007 -4.30286 2.10943e-11
-4.30286 1.57986 -3.08311e-12
2.10943e-11 -3.08311e-12 -0.750104

2.12553 3.38372 -5.87545e-12
3.38372 3.66526 -9.39056e-12
-5.87545e-12 -9.39056e-12 0.242378

4.05816 -2.92182 1.73439e-12
-2.92182 6.08261 -1.13204e-11
1.73439e-12 -1.13204e-11 0.889841

-1.54673 -3.57649 -8.28648e-12
-3.57649 1.30041 4.55633e-11
-8.28648e-12 4.55633e-11 -0.601131

1.34887 -2.03861 1.58109e-11
-2.03861 7.92291 -1.81601e-11
1.58109e-11 -1.81601e-11 0.766918

1.30865 1.98726 3.80993e-11
1.98726 7.84926 3.78139e-11
3.80993e-11 3.78139e-11 0.744286

7.03204 -1.40005 -1.75821e-11
-1.40005 2.89496 2.36619e-11
-1.75821e-11 2.36619e-11 0.877783

2.20177 -3.47635 2.12909e-11
-3.47635 3.75183 -3.91118e-11
2.12909e-11 -3.91118e-11 0.258835

-0.429638 0.538924 2.02875e-11
0.538924 4.94475 -2.98606e-12
2.02875e-11 -2.98606e-12 0.121984

-0.43947 -0.00607809 3.34956e-11
-0.00607809 4.87859 -6.83979e-12
3.34956e-11 -6.83979e-12 0.111096

3.37903 -4.01299 4.78876e-14
-4.01299 5.9064 2.80818e-11
4.78876e-14 2.80818e-11 0.623794

2.95113 4.06258 -2.2785e-11
4.06258 5.81444 -1.63306e-11
-2.2785e-11 -1.63306e-11 0.537302

1.9133 -0.357854 -1.0787e-11
-0.357854 -4.29776 -4.37248e-11
-1.0787e-11 -4.37248e-11 -0.627255

1.90925 0.375158 -1.34818e-12
0.375158 -4.31676 1.78419e-11
-1.34818e-12 1.78419e-11 -0.624785

-1.94585 4.41519 -4.96034e-11
4.41519 2.8171 2.79032e-12
-4.96034e-11 2.79032e-12 -0.319378

-4.19084 -4.01687 -2.32138e-11
-4.01687 0.879343 3.10164e-11
-2.32138e-11 3.10164e-11 -1.19665

-1.86577 2.92384 -1.83003e-11
2.92384 -0.321775 -2.89002e-12
-1.83003e-11 -2.89002e-12 -1.06325

8.25893 3.23793 1.2237e-11
3.23793 4.03874 4.68351e-12
1.2237e-11 4.68351e-12 1.25288

-0.877609 2.77008 1.71457e-11
2.77008 5.56727 -2.47572e-11
1.71457e-11 -2.47572e-11 0.00804461

-1.50248 1.93296 3.30359e-11
1.93296 -1.72935 -4.31957e-11
3.30359e-11 -4.31957e-11 -1.60057

-1.47179 -1.94698 1.87809e-11
-1.94698 -1.70257 1.93589e-11
1.87809e-11 1.93589e-11 -1.59872

0.64962 -2.63817 -7.51281e-12
-2.63817 0.130966 1.53139e-11
-7.51281e-12 1.53139e-11 -0.492666

0.600884 2.61745 3.46686e-12
2.61745 0.101172 -1.50249e-11
3.46686e-12 -1.50249e-11 -0.497437

9.11185 0.865175 9.71923e-12
0.865175 19.5028 -2.80383e-11
9.71923e-12 -2.80383e-11 4.79145

18.3355 0.895552 2.94843e-11
0.895552 10.0817 -9.59803e-12
2.94843e-11 -9.59803e-12 4.75383

-1.15103 -2.62838 -1.86153e-11
-2.62838 5.52604 5.97374e-12
-1.86153e-11 5.97374e-12 -0.0504792

-4.38431 -2.09751 -2.33077e-11
-2.09751 -3.83123 6.29856e-11
-2.33077e-11 6.29856e-11 -4.34882

-4.39436 2.10434 -5.4897e-11
2.10434 -3.8311 -3.20752e-11
-5.4897e-11 -3.20752e-11 -4.3436

1.37326 3.21843 3.80485e-11
3.21843 1.51468 -1.20385e-11
3.80485e-11 -1.20385e-11 -0.120944

9.52308 1.76394 1.4235e-11
1.76394 2.60869 -2.54212e-11
1.4235e-11 -2.54212e-11 1.22221

4.65633 -0.335738 -2.20589e-11
-0.335738 -0.221779 -1.21853e-11
-2.20589e-11 -1.21853e-11 0.134682

-3.37218 -2.31161 -2.05764e-11
-2.31161 1.65409 2.40889e-12
-2.05764e-11 2.40889e-12 -0.997996

-3.25745 -2.52883 -1.71688e-11
-2.52883 1.81226 1.68578e-11
-1.71688e-11 1.68578e-11 -0.994406

2.09022 -3.8241 -1.63306e-11
-3.8241 3.49937 -1.39459e-12
-1.63306e-11 -1.39459e-12 0.145186

-3.29083 -4.87292 -5.10603e-12
-4.87292 2.4179 3.48692e-11
-5.10603e-12 3.48692e-11 -0.560313

1.43175 -3.2532 -1.92594e-12
-3.2532 1.62321 1.24747e-11
-1.92594e-12 1.24747e-11 -0.10194

-3.76233 4.66735 -1.63697e-12
4.66735 1.58423 8.57373e-12
-1.63697e-12 8.57373e-12 -0.668122

-2.984 3.37461 1.49165e-11
3.37461 -0.270637 -8.7644e-12
1.49165e-11 -8.7644e-12 -2.00756

-2.91244 3.06536 1.92727e-12
3.06536 -0.632215 2.17683e-11
1.92727e-12 2.17683e-11 -1.9933

-2.04485 -4.4346 5.12895e-11
-4.4346 2.8395 -1.37786e-11
5.12895e-11 -1.37786e-11 -0.339242

-1.96413 4.00269 -8.95628e-12
4.00269 2.2927 1.73389e-11
-8.95628e-12 1.73389e-11 -0.367316

4.87618 2.77074 -8.66862e-12
2.77074 0.676683 3.47273e-11
-8.66862e-12 3.47273e-11 0.150698

-3.26606 5.13626 -2.93711e-12
5.13626 2.13204 1.0692e-11
-2.93711e-12 1.0692e-11 -0.544191

-2.40018 -3.13923 2.02042e-11
-3.13923 2.9478 2.9862e-12
2.02042e-11 2.9862e-12 -0.491768

-2.10302 1.22269 -1.14624e-11
1.22269 4.33156 2.64922e-11
-1.14624e-11 2.64922e-11 -0.350732

-0.816302 3.72806 1.82987e-12
3.72806 0.822965 -9.65154e-14
1.82987e-12 -9.65154e-14 -0.632336

-1.83508 1.57094 2.42008e-11
1.57094 4.36341 7.99694e-12
2.42008e-11 7.99694e-12 -0.304539

-3.79483 -4.35911 1.07378e-11
-4.35911 1.25065 2.25378e-11
1.07378e-11 2.25378e-11 -1.14079

7.18905 -3.74452 -2.77095e-11
-3.74452 7.60308 -1.33438e-11
-2.77095e-11 -1.33438e-11 1.7907

7.38211 -3.7854 -6.3998e-11
-3.7854 7.40221 -3.21491e-11
-6.3998e-11 -3.21491e-11 1.79693

-0.800535 -3.75024 -3.89153e-11
-3.75024 0.841378 3.19805e-11
-3.89153e-11 3.19805e-11 -0.63651

2.8174 -1.41719 -2.82705e-11
-1.41719 -1.69949 -6.26781e-12
-2.82705e-11 -6.26781e-12 -0.350212

-5.58638 4.44937 2.36919e-10
4.44937 -7.59843 -2.81011e-11
2.36919e-10 -2.81011e-11 -7.57713

-5.58598 -4.44978 -3.48632e-11
-4.44978 -7.59805 -3.67878e-11
-3.48632e-11 -3.67878e-11 -7.58233

-2.10015 -4.65543 2.1094e-11
-4.65543 3.13057 -1.94593e-11
2.1094e-11 -1.94593e-11 -0.308876

-5.30093 0.977315 6.93375e-12
0.977315 -4.46242 -7.60939e-12
6.93375e-12 -7.60939e-12 -4.84662

-5.35322 -0.898302 -2.13814e-11
-0.898302 -4.51496 1.47369e-11
-2.13814e-11 1.47369e-11 -4.93897

5.03925 0.0609816 -3.1796e-12
0.0609816 -4.25133 2.67869e-11
-3.1796e-12 2.67869e-11 -0.266361

-3.7519 -4.68992 1.80139e-11
-4.68992 1.67968 -3.48702e-11
1.80139e-11 -3.48702e-11 -0.652128

5.94748 4.5627 1.89293e-11
4.5627 6.34777 -2.80231e-11
1.89293e-11 -2.80231e-11 1.1921

5.32558 4.32187 9.53963e-12
4.32187 6.19245 7.58778e-12
9.53963e-12 7.58778e-12 1.05698

4.20235 -3.24733 -1.36578e-11
-3.24733 10.1723 6.8261e-11
-1.36578e-11 6.8261e-11 1.58635

4.23197 3.40498 -2.04465e-11
3.40498 10.1455 -1.56077e-11
-2.04465e-11 -1.56077e-11 1.60011

9.72038 -2.70135 -1.77273e-11
-2.70135 5.27229 -8.79156e-12
-1.77273e-11 -8.79156e-12 1.70433

-3.27133 -5.15838 -2.06116e-11
-5.15838 2.26059 -2.69494e-12
-2.06116e-11 -2.69494e-12 -0.527332

1.5781 1.19649 3.26833e-11
1.19649 10.7271 3.61281e-12
3.26833e-11 3.61281e-12 1.19854

10.0712 1.52785 -5.51132e-11
1.52785 2.80992 -2.83853e-11
-5.51132e-11 -2.83853e-11 1.31075

-4.70719 -1.59342 -9.79988e-12
-1.59342 -2.08676 -5.97178e-12
-9.79988e-12 -5.97178e-12 -3.81105

-4.65007 -1.92862 -3.41659e-11
-1.92862 -2.10415 2.56216e-11
-3.41659e-11 2.56216e-11 -3.8507

2.6534 0.606028 2.08051e-11
0.606028 -2.32156 -3.93936e-11
2.08051e-11 -3.93936e-11 -0.573709

4.22652 0.0376372 3.15953e-11
0.0376372 -6.70419 8.46354e-12
3.15953e-11 8.46354e-12 -0.698972

0.969577 -2.9464 1.39691e-11
-2.9464 6.21897 -4.94206e-11
1.39691e-11 -4.94206e-11 0.304727

0.893385 2.88165 4.52845e-12
2.88165 6.18688 5.30832e-11
4.52845e-12 5.30832e-11 0.288389

4.87141 -3.08045e-05 -3.70074e-16
-3.08045e-05 -4.53732 -3.43274e-12
-3.70074e-16 -3.43274e-12 -0.343016

-2.2978 -3.55774 5.54112e-13
-3.55774 3.26631 -1.30033e-11
5.54112e-13 -1.30033e-11 -0.458334

-2.58773 -1.5237 2.96646e-11
-1.5237 -2.93311 9.72589e-12
2.96646e-11 9.72589e-12 -2.94433

-2.61803 1.52065 3.0335e-11
1.52065 -2.94575 3.49132e-11
3.0335e-11 3.49132e-11 -2.94474

-0.380356 2.0978 3.12071e-11
2.0978 -0.00837181 -7.60836e-12
3.12071e-11 -7.60836e-12 -0.795546

-2.06341 -3.985 -1.10781e-11
-3.985 2.30468 1.82067e-11
-1.10781e-11 1.82067e-11 -0.394268

2.85838 0.605617 -1.92646e-12
0.605617 -4.7891 5.9715e-12
-1.92646e-12 5.9715e-12 -0.919635

4.27219 3.32575 1.99423e-11
3.32575 3.65394 4.5326e-11
1.99423e-11 4.5326e-11 0.451914

-2.17326 -4.09349 9.53465e-12
-4.09349 2.58748 1.98428e-11
9.53465e-12 1.98428e-11 -0.362452

8.17988 -7.18962 9.13995e-12
-7.18962 8.43547 -1.84405e-11
9.13995e-12 -1.84405e-11 2.7847

-1.93513 -0.981002 -2.59595e-11
-0.981002 4.1692 5.5879e-12
-2.59595e-11 5.5879e-12 -0.353934

-1.70377 -1.34366 -6.04489e-12
-1.34366 4.20957 -1.98438e-11
-6.04489e-12 -1.98438e-11 -0.315249

-5.42473 -0.31753 2.29004e-11
-0.31753 -3.53546 1.71435e-11
2.29004e-11 1.71435e-11 -4.68841

-5.38053 -0.182767 -2.55039e-11
-0.182767 -3.57935 1.69511e-11
-2.55039e-11 1.69511e-11 -4.68858

0.85687 -1.1159 -3.75621e-11
-1.1159 -3.80766 1.0354e-11
-3.75621e-11 1.0354e-11 -0.871691

0.826335 1.11774 -9.82392e-12
1.11774 -3.81751 -1.9141e-11
-9.82392e-12 -1.9141e-11 -0.869126

-3.04926 -2.1961 -3.75551e-12
-2.1961 -2.55028 -5.70208e-11
-3.75551e-12 -5.70208e-11 -2.28481

-2.74578 2.266 -1.05982e-12
2.266 -2.61454 -1.13644e-11
-1.05982e-12 -1.13644e-11 -2.1741

-4.43435 -1.94843 1.15572e-11
-1.94843 -2.30677 7.6096e-12
1.15572e-11 7.6096e-12 -3.72695

-4.43361 2.02819 1.42539e-11
2.02819 -2.28083 -5.97268e-12
1.42539e-11 -5.97268e-12 -3.69812

-5.57732 3.03086 6.22138e-11
3.03086 -5.81885 -1.29989e-11
6.22138e-11 -1.29989e-11 -6.33457

-5.57587 -3.02635 8.14806e-11
-3.02635 -5.81768 -9.01479e-11
8.14806e-11 -9.01479e-11 -6.34018

-3.33344 -4.99973 1.55064e-11
-4.99973 1.08614 3.5156e-11
1.55064e-11 3.5156e-11 -0.985203

-3.32571 5.01699 4.52471e-12
5.01699 1.0286 -2.8895e-11
4.52471e-12 -2.8895e-11 -0.984639

1.63543 2.98769 7.89931e-12
2.98769 0.237672 2.79488e-12
7.89931e-12 2.79488e-12 -0.347013

-1.03789 -2.35583 -2.81643e-12
-2.35583 3.63823 -2.35993e-11
-2.81643e-12 -2.35993e-11 -0.120597

-1.10501 -2.94095 -1.17034e-11
-2.94095 4.01675 -2.87046e-11
-1.17034e-11 -2.87046e-11 -0.0978529

5.73369 -2.97314 4.86515e-12
-2.97314 4.8902 -2.79372e-11
4.86515e-12 -2.79372e-11 0.970491

1.65674 -2.98296 -1.49309e-11
-2.98296 0.367745 -2.86553e-11
-1.49309e-11 -2.86553e-11 -0.331011

-1.00415 2.22308 -2.95721e-11
2.22308 3.58644 -1.14633e-11
-2.95721e-11 -1.14633e-11 -0.119884

0.663421 4.1836 4.48895e-11
4.1836 2.26117 2.03275e-11
4.48895e-11 2.03275e-11 -0.1789

-4.26386 -4.33109 -2.03238e-11
-4.33109 0.0401714 1.11735e-11
-2.03238e-11 1.11735e-11 -1.4538

-4.26355 4.25147 -3.75666e-12
4.25147 -0.0154817 1.34852e-12
-3.75666e-12 1.34852e-12 -1.47734

0.648733 -4.24624 -2.4756e-11
-4.24624 2.28241 2.46627e-11
-2.4756e-11 2.46627e-11 -0.192728

2.2577 -0.421716 3.16891e-11
-0.421716 -2.62373 3.12547e-11
3.16891e-11 3.12547e-11 -0.797052

-10.7445 1.20108 2.79801e-11
1.20108 -8.68361 -4.44943e-11
2.79801e-11 -4.44943e-11 -10.6068

-10.6588 1.05572 1.77331e-11
1.05572 -8.76042 5.23941e-11
1.77331e-11 5.23941e-11 -10.5915

-2.11397 -3.72953 1.7338e-11
-3.72953 2.27096 -2.0517e-11
1.7338e-11 -2.0517e-11 -0.597129

-0.216825 1.82615 2.09017e-11
1.82615 -2.58855 -1.3437e-11
2.09017e-11 -1.3437e-11 -1.21033

0.992262 -0.448927 -3.15932e-11
-0.448927 -5.26078 3.56448e-12
-3.15932e-11 3.56448e-12 -2.2586

7.21821 -4.01479 -7.63241e-13
-4.01479 7.83441 -9.37233e-11
-7.63241e-13 -9.37233e-11 1.78469

7.25104 -3.9213 3.67546e-11
-3.9213 7.78767 5.97359e-12
3.67546e-11 5.97359e-12 1.78114

0.509858 -1.25858 -1.04019e-11
-1.25858 -4.27496 2.14532e-11
-1.04019e-11 2.14532e-11 -1.34868

0.453367 1.27958 -1.17506e-11
1.27958 -4.27394 8.42733e-13
-1.17506e-11 8.42733e-13 -1.34632

0.872697 0.36953 -1.1174e-11
0.36953 -5.27568 -7.27326e-12
-1.1174e-11 -7.27326e-12 -2.35615

-1.02735 2.91951 -2.74519e-11
2.91951 3.93333 -6.93697e-12
-2.74519e-11 -6.93697e-12 -0.0934245

4.36415 2.30168 -5.87545e-12
2.30168 1.89198 -4.42618e-11
-5.87545e-12 -4.42618e-11 0.374354

-1.64002 -3.32567 -1.64681e-11
-3.32567 0.677083 -3.93925e-11
-1.64681e-11 -3.93925e-11 -0.961641

-1.66479 3.29986 -1.96483e-11
3.29986 0.662415 1.90696e-11
-1.96483e-11 1.90696e-11 -0.960417

-8.76135 -0.602177 -2.29196e-11
-0.602177 -11.9878 8.26063e-11
-2.29196e-11 8.26063e-11 -10.9106

-8.65311 0.608886 3.15923e-11
0.608886 -11.4912 -1.93438e-10
3.15923e-11 -1.93438e-10 -10.7255

-3.2252 -4.2741 -1.26157e-11
-4.2741 2.10397 -3.33275e-11
-1.26157e-11 -3.33275e-11 -0.689056

3.09777 1.83364 2.23485e-11
1.83364 -0.565876 -1.59882e-11
2.23485e-11 -1.59882e-11 -0.135431

-0.516684 1.27187 -4.80356e-13
1.27187 -2.09196 -2.36e-12
-4.80356e-13 -2.36e-12 -1.45661

-0.475077 -1.27841 -2.23435e-11
-1.27841 -2.08285 1.88299e-11
-2.23435e-11 1.88299e-11 -1.45662

-2.18831 -3.31747 7.31064e-11
-3.31747 1.84268 -2.2445e-11
7.31064e-11 -2.2445e-11 -0.62828

-3.3697 -4.56102 -2.56663e-11
-4.56102 1.71982 -2.90888e-11
-2.56663e-11 -2.90888e-11 -0.627562

8.25672 -7.45459 -2.32991e-11
-7.45459 8.6528 2.22859e-11
-2.32991e-11 2.22859e-11 2.82698

-4.36702 3.11004 8.28308e-12
3.11004 -0.0036415 -1.14614e-11
8.28308e-12 -1.14614e-11 -2.01035

-4.4216 -3.157 -7.70828e-13
-3.157 0.00973191 3.1786e-12
-7.70828e-13 3.1786e-12 -2.02293

-3.51751 -3.95179 -6.49851e-12
-3.95179 1.74456 -4.06494e-11
-6.49851e-12 -4.06494e-11 -0.74267

4.49173 -2.48339 5.973e-12
-2.48339 1.77529 -1.08361e-11
5.973e-12 -1.08361e-11 0.381222

-0.320399 -1.9792 -2.87993e-11
-1.9792 -0.192398 -1.24258e-11
-2.87993e-11 -1.24258e-11 -0.865914

-3.05789 2.69249 2.61979e-11
2.69249 -0.851702 -1.86848e-11
2.61979e-11 -1.86848e-11 -1.8293

-3.16527 -2.79444 -8.38041e-12
-2.79444 -0.81409 8.28361e-12
-8.38041e-12 8.28361e-12 -1.86396

2.47844 -0.403225 3.20769e-11
-0.403225 -5.27462 -1.5073e-11
3.20769e-11 -1.5073e-11 -1.12116

-1.10644 0.989104 -6.16422e-12
0.989104 -3.76874 2.13806e-11
-6.16422e-12 2.13806e-11 -2.18123

-1.0626 -0.979446 1.93475e-13
-0.979446 -3.77985 -2.7159e-11
1.93475e-13 -2.7159e-11 -2.18446

-8.44023 0.436974 3.57598e-11
0.436974 -3.62907 -3.06267e-11
3.57598e-11 -3.06267e-11 -7.90613

-8.40499 0.291082 2.70137e-11
0.291082 -3.65033 -1.34842e-11
2.70137e-11 -1.34842e-11 -7.90894

8.51387 0.313238 2.8938e-13
0.313238 19.5064 -1.40451e-11
2.8938e-13 -1.40451e-11 4.68934

18.083 0.278546 -5.07289e-11
0.278546 8.61707 5.9062e-13
-5.07289e-11 5.9062e-13 4.44102

-2.47609 -4.27008 9.636e-13
-4.27008 2.08659 1.79143e-11
9.636e-13 1.79143e-11 -0.653616

-2.47519 4.25796 2.46565e-11
4.25796 2.06026 2.06146e-11
2.46565e-11 2.06146e-11 -0.648448

-3.31277 -4.86029 -1.44515e-12
-4.86029 2.31132 8.47689e-12
-1.44515e-12 8.47689e-12 -0.58748

6.93229 -3.50375 9.41958e-12
-3.50375 15.0262 -2.36557e-11
9.41958e-12 -2.36557e-11 3.51162

14.2136 -3.34936 3.75241e-11
-3.34936 7.63358 7.34424e-11
3.75241e-11 7.34424e-11 3.48891

-9.35585 -4.46416 -3.87063e-11
-4.46416 -5.88456 -1.29146e-10
-3.87063e-11 -1.29146e-10 -8.04902

-9.35937 4.4634 -4.42357e-12
4.4634 -5.88228 2.09373e-10
-4.42357e-12 2.09373e-10 -8.04461

-1.96669 -2.94969 1.64684e-11
-2.94969 -0.415509 4.29601e-11
1.64684e-11 4.29601e-11 -1.10364

0.00169183 -4.09952 -1.03082e-11
-4.09952 2.85353 2.23483e-11
-1.03082e-11 2.23483e-11 -0.135656

-2.30078 -4.31545 -2.00326e-11
-4.31545 0.956328 -3.58307e-11
-2.00326e-11 -3.58307e-11 -0.88584

-2.31297 4.29862 3.01479e-11
4.29862 0.93414 3.56681e-12
3.01479e-11 3.56681e-12 -0.883928

-1.53791 -4.63047 2.11919e-11
-4.63047 2.49075 -2.45644e-11
2.11919e-11 -2.45644e-11 -0.404692

0.0289821 4.10077 -2.77392e-11
4.10077 2.75687 5.38433e-11
-2.77392e-11 5.38433e-11 -0.141789

3.3595 -1.32942 -4.11229e-13
-1.32942 11.0232 4.91368e-11
-4.11229e-13 4.91368e-11 1.60366

2.86741 1.60989 -4.45593e-12
1.60989 10.3923 -1.54146e-11
-4.45593e-12 -1.54146e-11 1.38255

10.161 -1.01276 -2.36032e-11
-1.01276 4.69861 -2.32649e-11
-2.36032e-11 -2.32649e-11 1.68885

-1.49062 4.60651 -5.9527e-11
4.60651 2.47813 -1.96551e-11
-5.9527e-11 -1.96551e-11 -0.391964

1.72011 -0.826967 2.3338e-11
-0.826967 11.3466 2.34612e-11
2.3338e-11 2.34612e-11 1.36658

10.7196 -0.800978 2.83025e-11
-0.800978 2.18951 -1.30615e-11
2.83025e-11 -1.30615e-11 1.36185

-2.98566 -4.21669 -2.71609e-11
-4.21669 0.345779 -1.55065e-11
-2.71609e-11 -1.55065e-11 -1.34864

-2.97667 4.19244 -2.47531e-11
4.19244 0.325688 -1.54121e-11
-2.47531e-11 -1.54121e-11 -1.34057

-3.27563 -3.66992 2.02157e-12
-3.66992 0.28322 4.71947e-12
2.02157e-12 4.71947e-12 -1.57168

-3.27704 3.65545 -1.82031e-11
3.65545 0.255471 2.5427e-11
-1.82031e-11 2.5427e-11 -1.56901

7.27306 -3.52294 3.92057e-11
-3.52294 15.1865 -2.67442e-11
3.92057e-11 -2.67442e-11 3.66098

14.568 -3.25885 -6.42002e-11
-3.25885 7.5772 -5.44172e-12
-6.42002e-11 -5.44172e-12 3.60593

-0.921211 3.89124 -1.67604e-11
3.89124 1.96458 -3.40038e-11
-1.67604e-11 -3.40038e-11 -0.381224

-0.901382 -3.92265 -2.7931e-12
-3.92265 2.02065 -7.22467e-12
-2.7931e-12 -7.22467e-12 -0.375918

-5.87293 -0.628363 1.74453e-11
-0.628363 -4.36616 -1.82993e-11
1.74453e-11 -1.82993e-11 -5.58571

-5.87966 -0.833875 5.43357e-11
-0.833875 -4.30113 -1.34851e-11
5.43357e-11 -1.34851e-11 -5.58627

-3.99075 -4.23404 -2.61964e-11
-4.23404 1.21902 -1.91653e-11
-2.61964e-11 -1.91653e-11 -1.41071

-4.0069 4.25348 -1.146e-11
4.25348 1.1808 4.2369e-12
-1.146e-11 4.2369e-12 -1.41146

-2.29027 -1.66394 -3.85062e-12
-1.66394 -4.12079 1.10756e-11
-3.85062e-12 1.10756e-11 -2.73341

-2.31394 1.66439 7.51281e-12
1.66439 -4.10818 -7.23199e-13
7.51281e-12 -7.23199e-13 -2.72645

-2.66572 3.50469 -5.59595e-11
3.50469 0.788811 1.69507e-11
-5.59595e-11 1.69507e-11 -1.00126

-2.72357 -3.49021 3.04353e-11
-3.49021 0.894515 2.3791e-11
3.04353e-11 2.3791e-11 -0.991819

-8.06038 -1.31077 -3.38171e-11
-1.31077 -2.9003 5.39373e-11
-3.38171e-11 5.39373e-11 -6.59748

-3.56901 -2.3925 -5.20064e-11
-2.3925 -4.78611 1.25638e-12
-5.20064e-11 1.25638e-12 -4.33861

-5.66154 -2.45884 1.65643e-11
-2.45884 -6.62333 4.8192e-13
1.65643e-11 4.8192e-13 -6.22539

-3.59331 2.40579 -9.24609e-12
2.40579 -4.77777 1.49277e-11
-9.24609e-12 1.49277e-11 -4.33444

-5.66879 2.46475 1.15764e-10
2.46475 -6.62264 -1.43202e-10
1.15764e-10 -1.43202e-10 -6.22092

-8.1268 -1.01719 -1.82984e-11
-1.01719 -2.79601 1.50248e-11
-1.82984e-11 1.50248e-11 -6.56912

-5.92276 -2.68269 2.8893e-11
-2.68269 -6.02371 8.28349e-12
2.8893e-11 8.28349e-12 -6.81924

-6.03888 2.77472 -4.31468e-11
2.77472 -5.97994 6.16283e-12
-4.31468e-11 6.16283e-12 -6.79634

-6.72797 -3.48213 -1.81639e-10
-3.48213 -4.79455 2.98668e-10
-1.81639e-10 2.98668e-10 -6.7367

0.155917 -2.60087 2.14386e-10
-2.60087 -9.02875 7.8751e-11
2.14386e-10 7.8751e-11 -7.63262

0.156535 2.59896 -1.0211e-09
2.59896 -9.02013 7.17921e-10
-1.0211e-09 7.17921e-10 -7.62505

-6.73761 3.48385 1.15955e-10
3.48385 -4.80047 7.64755e-11
1.15955e-10 7.64755e-11 -6.73342

-3.93034 -3.6942 2.88929e-11
-3.6942 -4.06132 -2.53306e-11
2.88929e-11 -2.53306e-11 -5.02291

-3.53102 -2.97912 -2.59071e-11
-2.97912 -0.573916 -2.19572e-11
-2.59071e-11 -2.19572e-11 -2.58389

-6.96127 -2.84578 7.69274e-13
-2.84578 -6.9718 2.33066e-11
7.69274e-13 2.33066e-11 -7.63921

-3.93732 3.69602 7.41601e-11
3.69602 -4.07859 5.03737e-11
7.41601e-11 5.03737e-11 -5.0211

-6.96373 2.84821 1.8885e-11
2.84821 -6.96909 1.92135e-10
1.8885e-11 1.92135e-10 -7.63305

-3.53363 2.97831 -2.28238e-11
2.97831 -0.596606 4.14052e-12
-2.28238e-11 4.14052e-12 -2.58146

-4.89366 -3.07238 -8.95639e-12
-3.07238 -1.98613 1.17522e-11
-8.95639e-12 1.17522e-11 -3.56005

-4.75534 -2.50256 3.71747e-11
-2.50256 -3.8114 2.14752e-11
3.71747e-11 2.14752e-11 -4.76783

-4.89387 3.07025 -3.30351e-11
3.07025 -2.00191 -2.24433e-11
-3.30351e-11 -2.24433e-11 -3.55558

-4.76801 2.49899 -2.63883e-11
2.49899 -3.82761 1.80079e-11
-2.63883e-11 1.80079e-11 -4.76674

-1.46777 2.01222 -1.27122e-11
2.01222 1.05145 -1.02104e-11
-1.27122e-11 -1.02104e-11 -0.477743

-4.00307 -0.581058 -1.91187e-13
-0.581058 2.15161 -7.70709e-12
-1.91187e-13 -7.70709e-12 -0.607547

2.33048 -0.647816 -1.65665e-11
-0.647816 -3.56161 8.8638e-12
-1.65665e-11 8.8638e-12 -0.0348585

3.68074 0.0206589 1.02097e-11
0.0206589 -1.9274 1.8687e-11
1.02097e-11 1.8687e-11 0.667624

-4.80558 2.01823 5.00782e-12
2.01823 -1.82872 -4.81644e-12
5.00782e-12 -4.81644e-12 -2.39661

-6.92055 -0.87834 4.04485e-12
-0.87834 1.38679 -7.32125e-12
4.04485e-12 -7.32125e-12 -2.11936

3.49397 1.13345 1.05966e-11
1.13345 -2.08898 1.03993e-11
1.05966e-11 1.03993e-11 0.591318

0.611336 1.44299 -8.3797e-12
1.44299 -5.16261 -7.31977e-12
-8.3797e-12 -7.31977e-12 -0.884581

1.41043 2.87454 -1.9074e-11
2.87454 5.46081 1.73391e-11
-1.9074e-11 1.73391e-11 2.7731

2.18796 2.78517 -7.51425e-12
2.78517 6.10506 -1.44501e-11
-7.51425e-12 -1.44501e-11 3.0565

5.96842 2.50604 1.63843e-11
2.50604 2.30926 3.67982e-11
1.63843e-11 3.67982e-11 3.15511

-3.08436 1.26517 -7.72678e-13
1.26517 0.23294 -1.57966e-11
-7.72678e-13 -1.57966e-11 -1.72976

-2.6208 -2.44096 -8.6681e-12
-2.44096 -1.24502 1.11728e-11
-8.6681e-12 1.11728e-11 -1.89578

0.0138745 -3.10693 -4.23868e-12
-3.10693 0.881147 -4.46927e-11
-4.23868e-12 -4.46927e-11 0.179008

-6.91047 1.05428 -1.77232e-11
1.05428 1.55366 6.16392e-12
-1.77232e-11 6.16392e-12 -2.12001

-4.84806 -1.16785 -1.73517e-12
-1.16785 -1.98163 2.6391e-11
-1.73517e-12 2.6391e-11 -2.41456

3.2775 0.802304 -1.44455e-12
0.802304 -3.65779 9.63179e-12
-1.44455e-12 9.63179e-12 -0.106517

0.642748 1.32526 -1.40635e-11
1.32526 6.25077 -5.31803e-11
-1.40635e-11 -5.31803e-11 2.27961

1.55082 1.00917 3.75526e-12
1.00917 5.88398 2.58179e-11
3.75526e-12 2.58179e-11 2.27615

6.50707 0.774342 2.62091e-11
0.774342 1.72456 4.81619e-11
2.62091e-11 4.81619e-11 2.57988

-0.0586142 3.0984 1.90724e-11
3.0984 3.47341 -1.77237e-11
1.90724e-11 -1.77237e-11 0.790528

-1.2754 -1.85883 -1.76256e-11
-1.85883 3.32777 -3.27534e-11
-1.76256e-11 -3.27534e-11 0.771754

2.26985 1.78702 -1.17577e-11
1.78702 -4.00548 4.04722e-12
-1.17577e-11 4.04722e-12 -0.146916

5.28621 2.10146 -9.05146e-12
2.10146 8.33233 1.5798e-11
-9.05146e-12 1.5798e-11 5.40572

1.34801 -0.800528 -4.24135e-12
-0.800528 -5.91451 -1.13669e-11
-4.24135e-12 -1.13669e-11 -0.773497

-2.40636 0.540757 1.1751e-11
0.540757 -1.75266 -1.9456e-11
1.1751e-11 -1.9456e-11 -2.43829

-3.73828 -0.143248 -8.86069e-12
-0.143248 0.736349 -4.62101e-12
-8.86069e-12 -4.62101e-12 -2.27028

-0.281853 3.13312 6.93271e-12
3.13312 -5.72338 -3.62114e-11
6.93271e-12 -3.62114e-11 -6.45489

-0.914056 -1.40399 -1.23287e-11
-1.40399 -8.56328 1.90692e-11
-1.23287e-11 1.90692e-11 -6.81376

-0.703705 -3.55025 -4.43109e-12
-3.55025 0.954028 -3.37147e-11
-4.43109e-12 -3.37147e-11 0.0736678

-0.456693 -2.99133 -3.27819e-12
-2.99133 3.15845 -1.05991e-11
-3.27819e-12 -1.05991e-11 0.747092

5.97919 -0.0350457 2.02223e-12
-0.0350457 0.600852 -2.8896e-11
2.02223e-12 -2.8896e-11 2.31962

-0.131455 1.94017 3.54479e-11
1.94017 -3.6163 1.07872e-11
3.54479e-11 1.07872e-11 -2.52312

-0.489388 -0.532017 5.77642e-12
-0.532017 -3.98726 3.17837e-11
5.77642e-12 3.17837e-11 -2.40441

0.445566 -0.314669 -2.81262e-11
-0.314669 -6.81456 3.46778e-12
-2.81262e-11 3.46778e-12 -1.07182

-1.29089 -2.27183 8.95761e-12
-2.27183 2.40149 -2.23477e-11
8.95761e-12 -2.23477e-11 0.603832

0.813541 0.442254 3.56285e-12
0.442254 -6.82542 2.94739e-11
3.56285e-12 2.94739e-11 -0.919029

3.4741 -2.23203 -6.55009e-12
-2.23203 1.04958 9.25008e-12
-6.55009e-12 9.25008e-12 1.27162

-0.403875 3.28352 1.4063e-11
3.28352 1.80606 1.19428e-11
1.4063e-11 1.19428e-11 0.618519

4.4754 2.43804 5.39635e-12
2.43804 -0.699234 2.9283e-11
5.39635e-12 2.9283e-11 1.25981

4.00469 -1.41003 4.23868e-12
-1.41003 -0.733008 3.87986e-13
4.23868e-12 3.87986e-13 1.13575

-0.67184 2.76868 3.94934e-11
2.76868 3.35053 2.08077e-11
3.94934e-11 2.08077e-11 0.853159

-5.11016 -2.05869 -8.37869e-12
-2.05869 1.42297 -6.9349e-12
-8.37869e-12 -6.9349e-12 -0.589698

-3.33305 3.67676 2.1287e-11
3.67676 1.22647 2.23485e-11
2.1287e-11 2.23485e-11 -0.616016

-0.0264431 -2.5911 -6.54869e-12
-2.5911 3.23969 -2.293e-11
-6.54869e-12 -2.293e-11 0.816163

-0.309775 3.40156 -8.66903e-12
3.40156 3.39587 1.63751e-11
-8.66903e-12 1.63751e-11 0.748922

15.8658 -2.872 -6.93715e-12
-2.872 16.3445 4.54768e-11
-6.93715e-12 4.54768e-11 16.2768

15.8516 3.29963 -1.96546e-11
3.29963 17.0475 -3.66307e-12
-1.96546e-11 -3.66307e-12 16.35

-6.1121 2.82208 1.94537e-11
2.82208 0.230144 -1.65697e-11
1.94537e-11 -1.65697e-11 -1.61069

-4.21013 -3.29665 -4.75806e-11
-3.29665 -0.439899 6.35925e-12
-4.75806e-11 6.35925e-12 -1.44701

-2.3464 3.10815 2.59111e-11
3.10815 2.3713 -4.6223e-12
2.59111e-11 -4.6223e-12 -0.041648

9.83223 1.06182 1.3296e-11
1.06182 9.95594 -1.38734e-11
1.3296e-11 -1.38734e-11 10.8184

9.69838 -0.017486 2.44684e-11
-0.017486 10.7743 1.27199e-11
2.44684e-11 1.27199e-11 11.0312

-3.89821 -2.36969 4.83977e-11
-2.36969 -2.89202 -1.69524e-11
4.83977e-11 -1.69524e-11 -2.90833

-3.58004 1.15526 4.82527e-11
1.15526 -2.02834 -2.94747e-11
4.82527e-11 -2.94747e-11 -2.85859

3.86042 -0.0678807 4.4306e-12
-0.0678807 -4.27252 -1.27154e-11
4.4306e-12 -1.27154e-11 -0.121922

-3.89854 -2.20813 5.50953e-11
-2.20813 -2.86033 2.69622e-11
5.50953e-11 2.69622e-11 -2.98271

-3.84459 0.792756 -1.48556e-11
0.792756 -3.59804 6.33766e-11
-1.48556e-11 6.33766e-11 -3.25516

-3.4895 -1.95632 -3.17903e-11
-1.95632 2.29477 5.24016e-11
-3.17903e-11 5.24016e-11 -0.0067007

-1.47958 2.9626 -7.20439e-11
2.9626 -4.8502 -6.93223e-12
-7.20439e-11 -6.93223e-12 -5.29727

-1.28896 -2.44198 -3.62168e-11
-2.44198 -7.59578 2.23434e-11
-3.62168e-11 2.23434e-11 -5.50938

-2.1041 -2.37013 -4.60409e-11
-2.37013 -2.23559 2.9814e-11
-4.60409e-11 2.9814e-11 -1.33957

-2.00703 1.80413 -2.22986e-11
1.80413 -1.83191 2.34054e-11
-2.22986e-11 2.34054e-11 -1.43279

-6.3838 0.188574 7.1297e-12
0.188574 0.130927 -1.15608e-12
7.1297e-12 -1.15608e-12 -5.06424

-6.715 1.43013 5.97035e-12
1.43013 -3.64294 1.52176e-11
5.97035e-12 1.52176e-11 -5.77389

4.90695 0.982891 1.44551e-11
0.982891 8.04507 3.27331e-12
1.44551e-11 3.27331e-12 5.49791

7.88702 1.00511 -3.46865e-11
1.00511 5.02579 -1.54108e-11
-3.46865e-11 -1.54108e-11 5.51622

-3.26745 2.9513 -2.92802e-11
2.9513 1.46257 3.85258e-12
-2.92802e-11 3.85258e-12 -0.575929

-5.13605 -1.80014 -6.7411e-12
-1.80014 1.84223 -3.08256e-11
-6.7411e-12 -3.08256e-11 -0.634381

-7.91728 -3.88586 2.2659e-10
-3.88586 -3.49297 2.5887e-10
2.2659e-10 2.5887e-10 -9.8384

-7.4563 2.3167 -1.46685e-10
2.3167 -11.3818 -4.16093e-11
-1.46685e-10 -4.16093e-11 -11.2881

2.62965 3.13154 4.85521e-11
3.13154 0.77373 -3.54481e-11
4.85521e-11 -3.54481e-11 1.0592

0.591241 1.20287 1.92676e-11
1.20287 -3.5197 1.57947e-11
1.92676e-11 1.57947e-11 -0.879306

0.475783 -1.57551 -1.83466e-11
-1.57551 -3.53205 2.58168e-11
-1.83466e-11 2.58168e-11 -0.786977

-0.520913 -1.69323 -9.24786e-12
-1.69323 -6.57272 -1.57988e-11
-9.24786e-12 -1.57988e-11 -2.43641

5.76866 0.716028 1.15315e-12
0.716028 0.479967 9.6357e-12
1.15315e-12 9.6357e-12 2.28334

-0.887978 0.218818 -4.93135e-11
0.218818 -8.87324 -5.78311e-12
-4.93135e-11 -5.78311e-12 -8.09861

-1.29846 -0.442366 -1.18268e-10
-0.442366 -3.34574 7.33278e-12
-1.18268e-10 7.33278e-12 -7.42794

0.687015 3.75836 3.73746e-11
3.75836 -1.23394 -2.08057e-11
3.73746e-11 -2.08057e-11 0.0267926

3.32515 0.994612 -1.68564e-11
0.994612 -1.96548 -2.85122e-11
-1.68564e-11 -2.85122e-11 0.172419

3.31319 3.06007 -3.12125e-11
3.06007 4.46774 2.59659e-12
-3.12125e-11 2.59659e-12 2.60497

-6.06532 -1.73994 -7.18436e-11
-1.73994 -0.573472 1.54236e-12
-7.18436e-11 1.54236e-12 -6.29346

-7.86132 1.08877 5.20083e-11
1.08877 -5.99832 3.13007e-11
5.20083e-11 3.13007e-11 -7.51966

-0.105336 3.15635 4.24072e-12
3.15635 -5.20722 3.35177e-11
4.24072e-12 3.35177e-11 -2.37977

-1.59908 -0.989964 1.15571e-11
-0.989964 0.910655 1.69518e-11
1.15571e-11 1.69518e-11 -0.568772

-4.16607 0.700237 -7.99332e-12
0.700237 2.20515 1.11729e-11
-7.99332e-12 1.11729e-11 -0.733095

2.38824 -0.483379 -1.31232e-11
-0.483379 -5.33132 1.07882e-11
-1.31232e-11 1.07882e-11 -0.70896

2.74985 0.355844 2.45626e-11
0.355844 -5.54232 -1.1754e-11
2.45626e-11 -1.1754e-11 -0.715726

4.89516 -2.01544 2.48599e-11
-2.01544 3.63392 -6.54773e-12
2.48599e-11 -6.54773e-12 2.83677

4.78968 0.10401 4.96598e-11
0.10401 -1.79853 7.7028e-12
4.96598e-11 7.7028e-12 0.737994

0.476621 0.403396 4.1515e-11
0.403396 -5.20607 1.81077e-11
4.1515e-11 1.81077e-11 -1.63517

-0.122235 -0.864728 -3.54054e-12
-0.864728 -4.62757 1.34845e-11
-3.54054e-12 1.34845e-11 -1.55704

3.06541 -1.18045 5.62577e-11
-1.18045 -2.35859 -4.6253e-12
5.62577e-11 -4.6253e-12 0.145135

2.21345 -0.555775 -3.89133e-11
-0.555775 -3.90064 2.65864e-11
-3.89133e-11 2.65864e-11 -0.602664

2.67268 0.238797 -3.00963e-12
0.238797 -3.90201 -2.50355e-12
-3.00963e-12 -2.50355e-12 -0.589637

2.07857 2.48915 -2.13852e-11
2.48915 -2.87788 1.77231e-11
-2.13852e-11 1.77231e-11 -0.0818704

2.30513 -3.30253 3.14047e-11
-3.30253 1.95159 4.04328e-12
3.14047e-11 4.04328e-12 1.40362

-3.38847 4.30298 -3.1883e-11
4.30298 0.816245 -5.20273e-12
-3.1883e-11 -5.20273e-12 -0.76334

-4.31441 -3.66133 -3.94743e-12
-3.66133 -0.939974 2.54304e-11
-3.94743e-12 2.54304e-11 -0.851687

-5.22822 -2.73322 -1.82926e-12
-2.73322 -1.14256 -1.31002e-11
-1.82926e-12 -1.31002e-11 -1.08594

-3.30259 4.54271 -1.00174e-11
4.54271 1.41919 6.3568e-12
-1.00174e-11 6.3568e-12 -0.606733

4.66924 1.57834 1.44906e-12
1.57834 -1.2408 5.25933e-11
1.44906e-12 5.25933e-11 1.00831

7.12799 -1.88548 3.95019e-11
-1.88548 4.92158 -2.35115e-11
3.95019e-11 -2.35115e-11 4.81538

0.370892 3.58987 -3.46219e-12
3.58987 -3.38186 -3.08635e-12
-3.46219e-12 -3.08635e-12 -0.862597

2.29674 -1.20196 -2.73594e-11
-1.20196 -2.3585 1.01719e-10
-2.73594e-11 1.01719e-10 0.118796

7.34053 -1.46627 2.11952e-11
-1.46627 4.34022 3.27468e-12
2.11952e-11 3.27468e-12 4.67967

0.772761 -2.91597 3.81547e-13
-2.91597 -0.986073 2.25403e-11
3.81547e-13 2.25403e-11 0.0571808

-5.71007 0.0194756 -2.40789e-11
0.0194756 2.82258 -1.07877e-11
-2.40789e-11 -1.07877e-11 -0.762585

-3.87882 0.452333 2.94737e-11
0.452333 0.447222 1.15595e-11
2.94737e-11 1.15595e-11 -0.996936

1.47915 3.73799 3.46778e-12
3.73799 1.60167 -1.19461e-11
3.46778e-12 -1.19461e-11 1.12167

5.62849 -2.16708 3.12119e-11
-2.16708 1.94404 7.70424e-12
3.12119e-11 7.70424e-12 2.91624

-2.89914 3.98268 2.40847e-11
3.98268 -1.68401 6.35749e-11
2.40847e-11 6.35749e-11 -0.921639

-2.69942 -3.81631 6.93582e-12
-3.81631 -0.0764755 1.04019e-11
6.93582e-12 1.04019e-11 -0.718475

1.01523 -2.81943 1.67582e-11
-2.81943 3.34175 3.27489e-11
1.67582e-11 3.27489e-11 1.4099

1.68137 -3.10876 1.98411e-11
-3.10876 3.32555 -3.1406e-11
1.98411e-11 -3.1406e-11 1.44831

2.04497 2.90137 -1.27135e-11
2.90137 -2.199 -3.47022e-12
-1.27135e-11 -3.47022e-12 -0.0205531

0.74996 1.78539 -2.69723e-11
1.78539 -8.29519 -2.77384e-11
-2.69723e-11 -2.77384e-11 -1.85543

0.885222 -1.21718 -1.11724e-11
-1.21718 -9.0441 -2.23456e-11
-1.11724e-11 -2.23456e-11 -1.80199

-0.703671 2.30666 -1.92674e-11
2.30666 4.25352 -1.63782e-11
-1.92674e-11 -1.63782e-11 0.920518

0.721751 3.54658 2.65865e-11
3.54658 0.038078 1.96515e-11
2.65865e-11 1.96515e-11 0.295702

-0.511136 0.333475 -3.0818e-12
0.333475 6.62314 -3.85368e-11
-3.0818e-12 -3.85368e-11 2.40784

0.413095 0.185156 -5.97347e-12
0.185156 6.46691 8.67032e-12
-5.97347e-12 8.67032e-12 2.47094

7.0797 0.15145 1.05804e-12
0.15145 0.383918 -2.31223e-11
1.05804e-12 -2.31223e-11 2.74867

2.31602 -2.66522 1.14646e-11
-2.66522 0.452452 1.84921e-11
1.14646e-11 1.84921e-11 1.04591

-10.7615 -1.83049 -2.46535e-11
-1.83049 -7.3736 4.74838e-11
-2.46535e-11 4.74838e-11 -10.329

-0.969291 0.942257 2.27276e-11
0.942257 -0.937886 3.23593e-11
2.27276e-11 3.23593e-11 -7.37359

3.87544 3.19872 3.21727e-11
3.19872 -0.228241 -3.73767e-11
3.21727e-11 -3.73767e-11 1.29881

4.53878 -1.33184 -1.12731e-11
-1.33184 -1.49399 -3.73775e-11
-1.12731e-11 -3.73775e-11 0.944596

6.77983 2.24615 1.98466e-11
2.24615 3.45552 -1.31011e-11
1.98466e-11 -1.31011e-11 4.28028

-3.9143 -2.3316 -5.10593e-12
-2.3316 0.841762 3.54485e-11
-5.10593e-12 3.54485e-11 -0.333931

-2.10757 4.22301 2.13845e-11
4.22301 2.18286 1.61842e-11
2.13845e-11 1.61842e-11 -0.0736785

3.91882 -0.0620491 1.50261e-11
-0.0620491 -4.24835 -1.38711e-11
1.50261e-11 -1.38711e-11 -0.0839758

-2.10313 2.12507 1.15411e-12
2.12507 3.98967 2.69814e-12
1.15411e-12 2.69814e-12 0.767982

-7.08035 -2.82426 4.23811e-12
-2.82426 0.240243 1.1944e-11
4.23811e-12 1.1944e-11 -1.6363

-4.37214 3.9635 -6.93449e-12
3.9635 0.146 1.79159e-11
-6.93449e-12 1.79159e-11 -1.39197

3.35567 2.48887 -8.98806e-11
2.48887 4.85236 -1.32976e-11
-8.98806e-11 -1.32976e-11 2.63862

4.83631 2.62423 7.12637e-12
2.62423 4.37881 -4.45054e-11
7.12637e-12 -4.45054e-11 2.91198

6.81277 2.01604 -1.61855e-11
2.01604 3.4782 5.77873e-12
-1.61855e-11 5.77873e-12 4.24184

-3.65893 4.35999 -1.83478e-11
4.35999 1.80545 2.31168e-11
-1.83478e-11 2.31168e-11 -0.617021

-5.3156 -3.15149 -5.3927e-12
-3.15149 -2.13467 3.85331e-12
-5.3927e-12 3.85331e-12 -1.20412

3.47049 0.126619 -4.39734e-11
0.126619 -6.12417 -5.77924e-12
-4.39734e-11 -5.77924e-12 -0.580335

-4.25891 2.97791 -1.15613e-12
2.97791 -2.22608 1.04043e-11
-1.15613e-12 1.04043e-11 -1.2239

-3.30177 -3.71316 -2.88995e-12
-3.71316 0.992557 7.51366e-12
-2.88995e-12 7.51366e-12 -0.613743

-1.50289 3.60433 2.69096e-12
3.60433 -0.813553 -3.96863e-11
2.69096e-12 -3.96863e-11 -0.41082

0.207169 -0.78081 -4.81656e-11
-0.78081 5.85176 -4.31567e-11
-4.81656e-11 -4.31567e-11 2.00772

1.23106 -1.03453 -4.16159e-11
-1.03453 5.73407 -1.56077e-11
-4.16159e-11 -1.56077e-11 2.04643

5.80937 -0.635514 -2.22579e-11
-0.635514 1.13306 -4.35399e-11
-2.22579e-11 -4.35399e-11 2.20312

1.63977 -2.20171 3.31382e-11
-2.20171 1.60112 3.044e-11
3.31382e-11 3.044e-11 1.06878

-0.419879 0.383562 1.52194e-11
0.383562 3.38292 -2.19616e-11
1.52194e-11 -2.19616e-11 0.579934

-2.63864 0.126638 -7.32053e-12
0.126638 4.10924 2.89009e-11
-7.32053e-12 2.89009e-11 0.444054

3.07113 -2.4642 -1.63774e-11
-2.4642 5.55342 -1.90958e-13
-1.63774e-11 -1.90958e-13 3.04336

2.87674 -2.34508 2.29279e-11
-2.34508 4.89482 -8.48159e-12
2.29279e-11 -8.48159e-12 2.97637

3.63684 -0.139325 -3.35212e-11
-0.139325 -5.80908 -2.42709e-11
-3.35212e-11 -2.42709e-11 -0.57544

3.27457 0.155096 1.01204e-12
0.155096 -5.5736 2.31148e-11
1.01204e-12 2.31148e-11 -0.576958

-3.11871 -2.91235 -2.51383e-11
-2.91235 -0.288276 1.54336e-12
-2.51383e-11 1.54336e-12 -0.412318

-2.29873 3.82628 2.80296e-11
3.82628 2.08099 1.13658e-11
2.80296e-11 1.13658e-11 -0.170746

-6.85089 2.46797 9.82222e-12
2.46797 0.0657536 1.92524e-12
9.82222e-12 1.92524e-12 -1.5616

-4.10408 -3.62579 9.82547e-12
-3.62579 0.100802 -2.81265e-11
9.82547e-12 -2.81265e-11 -1.167

-1.27858 -2.90341 -2.13833e-11
-2.90341 -1.74172 3.66029e-12
-2.13833e-11 3.66029e-12 -0.813787

-2.03704 -1.52491 -3.34224e-11
-1.52491 4.34955 -5.70278e-11
-3.34224e-11 -5.70278e-11 0.876129

-1.57405 0.458129 9.02955e-12
0.458129 -3.10528 1.73377e-11
9.02955e-12 1.73377e-11 -1.99783

-2.13005 -1.45252 5.94772e-11
-1.45252 -3.65671 1.89733e-11
5.94772e-11 1.89733e-11 -2.07436

1.12575 -2.2422 -4.95108e-11
-2.2422 -0.582097 -5.77653e-12
-4.95108e-11 -5.77653e-12 0.225866

0.403967 -1.90369 -1.49281e-12
-1.90369 -2.12051 -5.12427e-11
-1.49281e-12 -5.12427e-11 -0.536449

0.771607 1.60382 1.28081e-11
1.60382 -1.05669 3.44836e-11
1.28081e-11 3.44836e-11 -0.432486

8.8221 -0.87743 3.58415e-11
-0.87743 5.67476 -4.23935e-11
3.58415e-11 -4.23935e-11 10.0051

1.53455 3.78109 2.02564e-12
3.78109 3.02924 3.39109e-11
2.02564e-12 3.39109e-11 1.2511

6.83724 1.81085 1.23351e-11
1.81085 9.26827 1.69625e-11
1.23351e-11 1.69625e-11 10.1987

-0.789832 -2.03334 -6.93654e-12
-2.03334 4.08579 -2.77457e-11
-6.93654e-12 -2.77457e-11 0.908556

-5.86295 -1.99118 3.50664e-11
-1.99118 -3.59182 -5.04717e-11
3.50664e-11 -5.04717e-11 -5.49475

-4.68574 0.798151 -5.54873e-11
0.798151 -5.54812 1.5796e-11
-5.54873e-11 1.5796e-11 -5.71205

1.41703 2.45992 -1.50287e-11
2.45992 0.404934 -2.50699e-12
-1.50287e-11 -2.50699e-12 0.286212

4.73269 -0.133836 8.18938e-12
-0.133836 -2.03322 -1.15626e-11
8.18938e-12 -1.15626e-11 0.706565

3.09892 3.06704 2.29243e-11
3.06704 0.746587 -4.33492e-11
2.29243e-11 -4.33492e-11 1.16853

-5.01056 1.48526 7.8951e-12
1.48526 2.44692 -2.31183e-11
7.8951e-12 -2.31183e-11 -0.612764

-3.31288 -2.05023 -1.56053e-11
-2.05023 0.784092 9.24882e-12
-1.56053e-11 9.24882e-12 -0.743766

-2.9102 3.40016 7.51258e-12
3.40016 -1.05206 7.60836e-12
7.51258e-12 7.60836e-12 -1.99739

-3.02681 -1.88241 6.16287e-12
-1.88241 -0.324807 1.34996e-12
6.16287e-12 1.34996e-12 -1.80874

-3.77463 4.62931 2.88965e-12
4.62931 1.37276 9.05483e-12
2.88965e-12 9.05483e-12 -0.656523

-7.22559 -4.38741 -1.89734e-11
-4.38741 -1.12249 -9.63141e-12
-1.89734e-11 -9.63141e-12 -1.29546

-3.20722 2.39993 1.58001e-11
2.39993 2.0765 2.58154e-11
1.58001e-11 2.58154e-11 -0.0491479

-2.0373 1.21682 -3.49654e-11
1.21682 3.26833 6.93356e-12
-3.49654e-11 6.93356e-12 0.286066

-1.07876 -2.69293 2.42713e-11
-2.69293 -1.51419 -4.31543e-11
2.42713e-11 -4.31543e-11 -0.514899

-0.958319 2.8485 1.62786e-11
2.8485 -0.683037 3.37138e-11
1.62786e-11 3.37138e-11 -0.553545

2.32428 2.90434 4.5371e-11
2.90434 2.54791 4.04795e-12
4.5371e-11 4.04795e-12 1.21661

-2.37047 -2.84815 -2.56229e-11
-2.84815 2.08934 9.43845e-12
-2.56229e-11 9.43845e-12 -0.0520442

-3.24657 -0.505625 -5.77742e-13
-0.505625 4.19539 5.70304e-11
-5.77742e-13 5.70304e-11 0.420933

8.22791 2.05172 1.63764e-11
2.05172 9.65321 -2.31254e-11
1.63764e-11 -2.31254e-11 8.04903

9.39813 2.12332 1.57991e-11
2.12332 8.29904 -3.68083e-11
1.57991e-11 -3.68083e-11 8.00884

3.71541 -2.46245 1.27189e-11
-2.46245 4.53518 3.10208e-11
1.27189e-11 3.10208e-11 2.79676

3.08127 -0.922835 2.8952e-11
-0.922835 -3.64908 1.54035e-12
2.8952e-11 1.54035e-12 -0.0956861

-7.43239 -3.09088 3.10692e-11
-3.09088 -5.67001 9.82362e-11
3.10692e-11 9.82362e-11 -9.26406

-4.83367 3.20957 -7.16865e-11
3.20957 -9.52787 1.66224e-10
-7.16865e-11 1.66224e-10 -9.51543

-2.74422 3.13958 -2.81235e-11
3.13958 -2.69002 -4.23802e-11
-2.81235e-11 -4.23802e-11 -4.15091

-4.23997 -0.822277 1.69527e-11
-0.822277 -5.96608 1.92589e-12
1.69527e-11 1.92589e-12 -4.82399

1.72424 -0.0347425 -2.48501e-11
-0.0347425 -4.49733 8.28574e-12
-2.48501e-11 8.28574e-12 -0.286369

-3.53965 -4.11375 1.38697e-11
-4.11375 0.924976 2.11838e-12
1.38697e-11 2.11838e-12 -0.572315

-6.47522 4.29716 1.67568e-11
4.29716 -1.25892 -2.08061e-11
1.67568e-11 -2.08061e-11 -1.29137

6.60785 -2.00069 3.08612e-12
-2.00069 7.56434 -1.73433e-11
3.08612e-12 -1.73433e-11 6.23107

6.56479 2.58049 7.51525e-12
2.58049 6.61114 1.21403e-11
7.51525e-12 1.21403e-11 6.05295

3.55603 -0.932072 -5.85763e-11
-0.932072 7.73481 4.31657e-11
-5.85763e-11 4.31657e-11 4.86125

4.15192 -1.14702 -2.85178e-11
-1.14702 7.6203 7.32377e-12
-2.85178e-11 7.32377e-12 4.668

8.03087 -0.802054 -2.6208e-11
-0.802054 3.8419 5.03847e-11
-2.6208e-11 5.03847e-11 4.88236

3.61538 3.03599 -2.50518e-12
3.03599 3.0323 -5.35622e-11
-2.50518e-12 -5.35622e-11 2.47738

4.03485 0.904618 2.33137e-11
0.904618 9.16006 4.54717e-11
2.33137e-11 4.54717e-11 6.10937

8.77385 0.199199 1.57989e-11
0.199199 4.12094 1.27172e-11
1.57989e-11 1.27172e-11 5.98758

-4.42377 -0.359794 -3.06264e-11
-0.359794 0.42643 -1.15571e-11
-3.06264e-11 -1.15571e-11 -3.28626

-4.60599 -1.32084 -1.29082e-11
-1.32084 -2.88307 2.88769e-13
-1.29082e-11 2.88769e-13 -3.83643

1.1293 -1.02689 4.56613e-11
-1.02689 -3.23564 -3.8527e-11
4.56613e-11 -3.8527e-11 -0.586768

0.939265 0.454686 -1.92701e-12
0.454686 -9.39822 2.54275e-11
-1.92701e-12 2.54275e-11 -1.34154

0.866471 -2.00247 -1.50279e-11
-2.00247 4.98797 -2.33102e-11
-1.50279e-11 -2.33102e-11 1.98903

0.43701 -1.44153 2.13817e-11
-1.44153 4.75134 2.1965e-11
2.13817e-11 2.1965e-11 1.93861

2.12276 0.959836 2.50126e-12
0.959836 -4.27986 1.32932e-11
2.50126e-12 1.32932e-11 -0.167844

-4.01872 -0.953383 -5.91852e-11
-0.953383 -3.41439 -1.23266e-11
-5.91852e-11 -1.23266e-11 -3.82074

-2.83128 -0.0134857 2.73545e-11
-0.0134857 -4.43108 4.02587e-11
2.73545e-11 4.02587e-11 -3.87622

-0.44874 -2.02557 1.59898e-11
-2.02557 -1.22676 -1.05928e-11
1.59898e-11 -1.05928e-11 -0.640308

-1.78145 3.35532 -2.87004e-11
3.35532 -0.465051 1.77233e-11
-2.87004e-11 1.77233e-11 -0.292013

-2.17748 -3.52911 1.00182e-11
-3.52911 1.60607 1.52191e-11
1.00182e-11 1.52191e-11 -0.146078

1.41248 -0.913419 3.71799e-11
-0.913419 -5.32662 1.11718e-11
3.71799e-11 1.11718e-11 -0.755206

-3.31262 2.81723 1.1176e-11
2.81723 0.533805 1.88808e-11
1.1176e-11 1.88808e-11 -0.355679

-2.00366 -3.73937 -4.81574e-12
-3.73937 1.52621 -1.25211e-11
-4.81574e-12 -1.25211e-11 -0.113627

16.6226 -4.18334 1.44506e-11
-4.18334 16.9285 6.74377e-12
1.44506e-11 6.74377e-12 17.1407

-3.06098 0.894917 -5.97222e-12
0.894917 4.1941 8.47811e-12
-5.97222e-12 8.47811e-12 0.437929

-1.67745 -0.81265 1.15615e-12
-0.81265 3.01448 -1.233e-11
1.15615e-12 -1.233e-11 0.327426

-6.0054 0.440348 4.23863e-12
0.440348 1.5216 -2.61988e-11
4.23863e-12 -2.61988e-11 -3.84363

-5.35138 -0.0497964 1.53887e-12
-0.0497964 -4.13964 2.35963e-11
1.53887e-12 2.35963e-11 -4.684

1.69808 -0.17224 -6.3568e-12
-0.17224 -5.85313 2.04174e-11
-6.3568e-12 2.04174e-11 -1.22914

2.32435 0.276272 -5.78038e-13
0.276272 -6.32496 -2.02252e-11
-5.78038e-13 -2.02252e-11 -1.24569

-1.21943 4.02922 1.04046e-11
4.02922 -3.24348 1.04029e-11
1.04046e-11 1.04029e-11 -1.86514

-2.10001 -2.29718 8.08916e-12
-2.29718 -3.71997 2.81235e-11
8.08916e-12 2.81235e-11 -1.98457

-0.609314 1.47467 -3.62147e-11
1.47467 -2.70224 -3.66439e-12
-3.62147e-11 -3.66439e-12 -3.08347

-2.51718 -0.804636 2.15736e-11
-0.804636 -2.73514 -2.04187e-11
2.15736e-11 -2.04187e-11 -3.29865

-6.12782 1.67926 1.15998e-10
1.67926 -7.76821 3.31319e-11
1.15998e-10 3.31319e-11 -8.13331

-5.70558 -4.75864 -7.06656e-11
-4.75864 -3.60506 4.77777e-11
-7.06656e-11 4.77777e-11 -7.18917

-4.11597 4.19475 -8.3296e-12
4.19475 0.201768 5.3932e-12
-8.3296e-12 5.3932e-12 -1.33576

-5.99087 -5.18647 -1.05893e-12
-5.18647 -2.52323 -3.04396e-11
-1.05893e-12 -3.04396e-11 -1.74422

1.74615 2.2442 8.28404e-12
2.2442 -1.43457 -2.92846e-11
8.28404e-12 -2.92846e-11 0.0297144

-3.1047 1.7842 -9.82457e-12
1.7842 2.68049 4.16123e-11
-9.82457e-12 4.16123e-11 0.0316336

0.105982 -2.90543 -2.40835e-11
-2.90543 0.016807 1.42564e-11
-2.40835e-11 1.42564e-11 0.253086

-1.08528 -2.2319 -1.92453e-12
-2.2319 2.47442 -1.57992e-11
-1.92453e-12 -1.57992e-11 0.231042

1.50042 -2.08968 -5.77972e-11
-2.08968 -1.7526 1.69534e-11
-5.77972e-11 1.69534e-11 0.050617

-1.12365 2.48415 -3.45789e-11
2.48415 2.7324 5.77242e-13
-3.45789e-11 5.77242e-13 0.241338

0.691399 3.52886 2.06154e-11
3.52886 0.868708 -5.39295e-12
2.06154e-11 -5.39295e-12 0.328419

-4.36412 4.66008 -3.46641e-12
4.66008 -2.33967 4.62116e-12
-3.46641e-12 4.62116e-12 -1.68313

-3.59801 -3.46876 5.77797e-13
-3.46876 -0.669354 2.06123e-11
5.77797e-13 2.06123e-11 -1.31207

1.26159 2.12721 4.62663e-12
2.12721 -3.23004 1.69522e-11
4.62663e-12 1.69522e-11 -0.780997

-1.12257 1.57097 2.75378e-11
1.57097 -2.01268 -9.05271e-11
2.75378e-11 -9.05271e-11 -7.66566

-10.6214 1.50173 4.52684e-11
1.50173 -9.52512 -2.52329e-11
4.52684e-11 -2.52329e-11 -10.7539

-0.0633612 -2.15015 1.46448e-11
-2.15015 -3.1686 -4.16099e-11
1.46448e-11 -4.16099e-11 -0.785855

0.143987 0.139709 5.7793e-12
0.139709 -5.76068 -1.09766e-11
5.7793e-12 -1.09766e-11 -2.26282

7.72277 -1.82641 -3.96935e-11
-1.82641 9.13641 -4.2409e-12
-3.96935e-11 -4.2409e-12 7.59876

8.84987 -1.50314 -1.65718e-11
-1.50314 7.32189 5.56866e-11
-1.65718e-11 5.56866e-11 7.32104

0.50835 0.168275 9.29582e-12
0.168275 -5.38579 -3.8541e-12
9.29582e-12 -3.8541e-12 -1.71954

1.54644 -0.249548 -2.66083e-11
-0.249548 -5.87227 3.27471e-11
-2.66083e-11 3.27471e-11 -1.67359

0.333715 0.433219 -6.16261e-12
0.433219 -3.39818 1.38698e-11
-6.16261e-12 1.38698e-11 -2.03216

-3.11457 -1.30862 -8.72208e-12
-1.30862 2.87838 1.00189e-11
-8.72208e-12 1.00189e-11 0.109579

4.37227 1.74138 1.74847e-11
1.74138 0.583573 -6.36047e-12
1.74847e-11 -6.36047e-12 1.20929

-2.3445 -2.71483 -6.51642e-11
-2.71483 -2.24383 3.12107e-11
-6.51642e-11 3.12107e-11 -1.34369

-1.94096 2.24639 5.7517e-13
2.24639 -0.283986 2.5235e-11
5.7517e-13 2.5235e-11 -1.13022

-3.04002 0.270828 1.50305e-11
0.270828 -0.357212 -7.69828e-11
1.50305e-11 -7.69828e-11 -7.7336

-5.91123 2.55841 3.23654e-11
2.55841 -11.6679 7.86439e-11
3.23654e-11 7.86439e-11 -10.2339

1.87881 -1.70261 -6.3769e-11
-1.70261 -1.55113 -7.70469e-12
-6.3769e-11 -7.70469e-12 0.120033

-0.10164 -0.0749185 4.2983e-11
-0.0749185 -3.59501 -1.7146e-11
4.2983e-11 -1.7146e-11 -1.84088

-0.700333 -0.601999 -1.56774e-11
-0.601999 -2.99667 -4.6616e-11
-1.56774e-11 -4.6616e-11 -1.73718

-2.1391 -3.08052 -5.66368e-11
-3.08052 0.879278 1.21392e-11
-5.66368e-11 1.21392e-11 -0.504027

-4.01031 1.59555 5.20159e-12
1.59555 0.789066 -1.15711e-12
5.20159e-12 -1.15711e-12 -0.728239

-4.84289 2.94917 2.42706e-11
2.94917 -1.42553 -2.92816e-11
2.42706e-11 -2.92816e-11 -1.05602

-3.27376 -4.17441 4.60412e-11
-4.17441 1.04074 -9.63492e-12
4.60412e-11 -9.63492e-12 -0.527504

17.7008 5.33944 1.96531e-11
5.33944 17.2069 -3.50704e-11
1.96531e-11 -3.50704e-11 17.4545

-3.9873 3.06061 1.48325e-11
3.06061 -1.22893 -1.82989e-11
1.48325e-11 -1.82989e-11 -2.05675

-3.79767 -2.34499 -1.84917e-11
-2.34499 -0.800992 -2.75478e-11
-1.84917e-11 -2.75478e-11 -1.88525

-4.63188 2.79521 2.08062e-11
2.79521 0.322253 -8.47574e-12
2.08062e-11 -8.47574e-12 -0.70598

-3.35566 -3.52698 1.11722e-11
-3.52698 0.93023 3.60249e-11
1.11722e-11 3.60249e-11 -0.567048

4.14864 -1.66106 -3.55967e-12
-1.66106 -0.18238 -3.89169e-11
-3.55967e-12 -3.89169e-11 1.07635

-0.0631827 3.02218 -9.6471e-13
3.02218 -1.95066 -1.38712e-11
-9.6471e-13 -1.38712e-11 -0.793355

-0.66918 3.23845 -4.42964e-12
3.23845 -3.00442 2.88932e-11
-4.42964e-12 2.88932e-11 -1.59118

-1.96006 -2.14309 1.21332e-11
-2.14309 -2.01026 1.52179e-11
1.21332e-11 1.52179e-11 -1.60753

1.54689 2.03464 -3.50603e-11
2.03464 -5.67905 2.00328e-11
-3.50603e-11 2.00328e-11 -0.941831

-1.36295 0.395458 -1.3025e-11
0.395458 -3.68965 4.08365e-11
-1.3025e-11 4.08365e-11 -2.6479

-0.555592 -0.578104 -3.92141e-11
-0.578104 -5.03408 -1.90695e-11
-3.92141e-11 -1.90695e-11 -2.82376

-8.39212 0.686457 -3.62091e-11
0.686457 -4.09646 3.91043e-11
-3.62091e-11 3.91043e-11 -7.96584

-7.08287 -1.08355 3.8909e-11
-1.08355 0.195851 5.04679e-11
3.8909e-11 5.04679e-11 -7.11737

10.2762 -0.501584 1.73439e-12
-0.501584 7.12128 -4.23916e-11
1.73439e-12 -4.23916e-11 10.4616

5.99975 -0.105107 4.56706e-11
-0.105107 10.2238 -5.39558e-12
4.56706e-11 -5.39558e-12 10.3191

-2.85329 3.49487 -1.79622e-11
3.49487 1.29161 -1.2519e-11
-1.79622e-11 -1.2519e-11 -0.737344

-3.48524 -3.00911 -1.1462e-11
-3.00911 -1.55115 7.70759e-12
-1.1462e-11 7.70759e-12 -1.04243

10.9691 1.87741 5.9351e-11
1.87741 10.7852 1.77328e-11
5.9351e-11 1.77328e-11 12.0807

11.0273 2.42726 -7.51458e-12
2.42726 10.0499 -1.92684e-11
-7.51458e-12 -1.92684e-11 11.7563

-15.5097 -3.84651 -8.18105e-11
-3.84651 -3.29958 -4.04513e-11
-8.18105e-11 -4.04513e-11 -10.7738

-11.1797 2.87206 4.42566e-11
2.87206 -5.28258 1.77182e-11
4.42566e-11 1.77182e-11 -10.3203

-0.413233 3.67369 2.56178e-11
3.67369 -2.0286 -3.85255e-11
2.56178e-11 -3.85255e-11 -0.664423

-2.74379 3.34773 -3.08705e-11
3.34773 -0.276621 -3.42872e-11
-3.08705e-11 -3.42872e-11 -1.01262

-2.87188 -3.35211 -2.97136e-11
-3.35211 -1.57403 5.20184e-11
-2.97136e-11 5.20184e-11 -0.978883

-0.166723 3.38018 3.26531e-11
3.38018 1.59473 2.31348e-12
3.26531e-11 2.31348e-12 0.260386

-0.616388 -2.69747 2.7938e-12
-2.69747 0.964178 1.0016e-11
2.7938e-12 1.0016e-11 0.308643

3.40599 -0.427861 1.79171e-11
-0.427861 7.60681 5.85741e-11
1.79171e-11 5.85741e-11 4.67373

3.89521 -0.868269 -1.42606e-11
-0.868269 7.49917 1.83031e-11
-1.42606e-11 1.83031e-11 4.53324

7.96066 -0.367759 -6.74557e-12
-0.367759 3.99439 -3.08271e-11
-6.74557e-12 -3.08271e-11 4.80309

-1.73653 3.89646 2.49494e-11
3.89646 1.30435 -1.92439e-13
2.49494e-11 -1.92439e-13 -0.219781

-2.36321 -3.02119 -2.21686e-12
-3.02119 0.0564115 -4.62385e-11
-2.21686e-12 -4.62385e-11 -0.275805

5.039 0.604013 2.62052e-11
0.604013 9.19646 5.59012e-12
2.62052e-11 5.59012e-12 6.30555

9.16457 0.932906 -4.01768e-11
0.932906 5.20497 -4.42377e-12
-4.01768e-11 -4.42377e-12 6.39799

-3.80815 -3.86213 3.61703e-11
-3.86213 -2.82524 3.85321e-12
3.61703e-11 3.85321e-12 -1.81752

-3.64476 3.18119 -2.59103e-11
3.18119 -0.654146 -1.30991e-11
-2.59103e-11 -1.30991e-11 -1.70152

-3.86388 -3.4165 -2.00842e-11
-3.4165 -1.60123 -2.81217e-11
-2.00842e-11 -2.81217e-11 -1.88398

-3.7766 2.54019 -8.60108e-11
2.54019 -0.9903 -2.81255e-11
-8.60108e-11 -2.81255e-11 -2.0049

10.8665 -1.58659 1.02098e-11
-1.58659 11.2127 -1.54099e-12
1.02098e-11 -1.54099e-12 12.3079

10.8452 -1.59576 2.99606e-11
-1.59576 11.1899 6.45499e-11
2.99606e-11 6.45499e-11 12.3518

-1.13699 3.08034 1.93658e-11
3.08034 1.02723 2.23504e-11
1.93658e-11 2.23504e-11 -0.261501

-1.43342 -2.82174 3.89121e-11
-2.82174 -0.791509 2.77393e-11
3.89121e-11 2.77393e-11 -0.384112

-4.96286 0.806462 8.10956e-11
0.806462 -1.36731 1.79133e-11
8.10956e-11 1.79133e-11 -4.91928

-5.86367 -0.456505 -2.31363e-12
-0.456505 -5.17202 6.79022e-11
-2.31363e-12 6.79022e-11 -5.65241

-5.71029 -3.54388 2.8398e-12
-3.54388 -0.931138 -2.50433e-11
2.8398e-12 -2.50433e-11 -1.91244

-4.65043 3.3298 1.56533e-11
3.3298 0.265135 4.0462e-12
1.56533e-11 4.0462e-12 -1.85016

-3.43937 -0.741127 -7.0047e-11
-0.741127 -5.54769 -3.81386e-11
-7.0047e-11 -3.81386e-11 -3.63532

-2.2385 0.0706443 3.68394e-11
0.0706443 -6.20512 -3.02407e-11
3.68394e-11 -3.02407e-11 -3.60877

-2.42078 3.28055 3.44828e-11
3.28055 -1.76863 1.19469e-11
3.44828e-11 1.19469e-11 -1.10107

-2.11752 -3.22172 -5.45184e-11
-3.22172 -0.17909 -1.05926e-11
-5.45184e-11 -1.05926e-11 -0.777851

-3.61239 0.993071 -8.45141e-12
0.993071 -7.15235 8.65467e-12
-8.45141e-12 8.65467e-12 -6.07086

-6.64571 0.294682 -1.72995e-11
0.294682 -8.43561 -1.48307e-11
-1.72995e-11 -1.48307e-11 -8.39036

-5.28038 -0.893412 3.13029e-11
-0.893412 -6.14126 3.525e-12
3.13029e-11 3.525e-12 -6.15009

-9.90161 -0.116567 -9.50843e-11
-0.116567 -5.97922 -1.32137e-10
-9.50843e-11 -1.32137e-10 -8.51254

-7.42496 0.574971 -3.64043e-11
0.574971 0.131994 -3.92959e-11
-3.64043e-11 -3.92959e-11 -6.01299

-2.07401 3.25484 7.32236e-12
3.25484 -4.46259 2.50395e-11
7.32236e-12 2.50395e-11 -5.89867

-5.0673 -1.27349 -3.08199e-11
-1.27349 -6.79878 5.39324e-12
-3.08199e-11 5.39324e-12 -6.73566

-8.07969 -0.766299 -9.82362e-12
-0.766299 -3.56741 1.25292e-12
-9.82362e-12 1.25292e-12 -6.66014

-9.22175 1.90544 5.34955e-11
1.90544 -6.98877 1.43714e-10
5.34955e-11 1.43714e-10 -8.81293

1.72163 1.93661 -2.96351e-10
1.93661 -14.0074 -2.87767e-10
-2.96351e-10 -2.87767e-10 -9.93426

0.138655 -1.27465 -8.09362e-10
-1.27465 -0.771775 -3.81314e-10
-8.09362e-10 -3.81314e-10 -7.6702

-6.6415 -4.38078 -1.86437e-10
-4.38078 -2.88958 6.04852e-10
-1.86437e-10 6.04852e-10 -7.40027

-5.49321 2.47102 -3.85788e-11
2.47102 -5.66384 -4.10269e-11
-3.85788e-11 -4.10269e-11 -6.55884

-4.38021 1.79441 3.56372e-11
1.79441 -1.59418 -1.13684e-11
3.56372e-11 -1.13684e-11 -3.39942

-8.36407 0.526892 3.18981e-11
0.526892 -9.16287 -2.75834e-10
3.18981e-11 -2.75834e-10 -9.71015

-3.70952 -4.08778 7.44497e-11
-4.08778 -5.09309 -4.58479e-11
7.44497e-11 -4.58479e-11 -5.94921

-6.9006 -4.69565 9.12196e-12
-4.69565 -2.82193 -1.49089e-10
9.12196e-12 -1.49089e-10 -8.1642

-4.06073 -2.29396 2.76891e-11
-2.29396 -2.68311 -2.19611e-11
2.76891e-11 -2.19611e-11 -3.29438

-4.77507 -3.82879 -6.07144e-12
-3.82879 -2.51081 4.19936e-11
-6.07144e-12 4.19936e-11 -4.06916

-6.77569 -2.54624 -1.66156e-11
-2.54624 -4.35427 4.54561e-11
-1.66156e-11 4.54561e-11 -6.18773

-5.89034 1.60446 7.94627e-12
1.60446 -3.58686 -1.7916e-11
7.94627e-12 -1.7916e-11 -4.65331

-5.30079 0.960044 -9.60791e-12
0.960044 -5.47859 -7.31984e-11
-9.60791e-12 -7.31984e-11 -6.18603

-0.0314874 2.7301 -9.62826e-12
2.7301 2.53938 -1.01129e-11
-9.62826e-12 -1.01129e-11 0.833673

-2.25537 1.37025 7.7414e-13
1.37025 1.33288 5.39332e-12
7.7414e-13 5.39332e-12 -0.480789

-3.23788 1.17275 -1.54116e-11
1.17275 0.822474 1.15826e-12
-1.54116e-11 1.15826e-12 -0.655757

2.88235 1.55009 3.42932e-11
1.55009 -3.70141 -5.88798e-13
3.42932e-11 -5.88798e-13 0.00960338

4.05531 0.525538 3.9304e-11
0.525538 -2.43911 1.58726e-11
3.9304e-11 1.58726e-11 0.641436

-5.35367 0.84025 -1.1561e-11
0.84025 -1.01969 -2.36962e-11
-1.1561e-11 -2.36962e-11 -2.2698

-6.37249 1.93495 -2.06124e-11
1.93495 -0.503385 1.13688e-11
-2.06124e-11 1.13688e-11 -2.25192

4.32854 -0.617202 2.23469e-11
-0.617202 -2.11143 1.16062e-11
2.23469e-11 1.16062e-11 0.746189

0.666514 -1.23972 -6.45535e-12
-1.23972 -5.05359 2.45641e-12
-6.45535e-12 2.45641e-12 -0.908293

2.21752 2.4858 3.84877e-13
2.4858 4.79634 -1.32949e-11
3.84877e-13 -1.32949e-11 2.77806

2.66858 -2.48367 -1.46445e-11
-2.48367 5.12183 -3.13127e-12
-1.46445e-11 -3.13127e-12 3.14851

6.06941 -2.27721 -1.05971e-11
-2.27721 1.8878 7.8982e-12
-1.05971e-11 7.8982e-12 3.01031

-3.93143 -2.34092 -5.2398e-11
-2.34092 -0.975645 3.66063e-12
-5.2398e-11 3.66063e-12 -1.95795

-2.5514 -1.61948 -1.92635e-12
-1.61948 -0.785035 2.33096e-11
-1.92635e-12 2.33096e-11 -1.80041

-2.43554 2.32604 3.8151e-13
2.32604 1.02584 1.30057e-11
3.8151e-13 1.30057e-11 -0.0616624

-4.32811 2.79985 3.87912e-13
2.79985 0.157159 9.72859e-12
3.87912e-13 9.72859e-12 -0.658609

-6.21172 -1.81452 -2.69469e-12
-1.81452 -0.404278 -4.19981e-11
-2.69469e-12 -4.19981e-11 -2.24336

-5.68465 -0.530724 3.00497e-11
-0.530724 -1.02711 -2.59124e-11
3.00497e-11 -2.59124e-11 -2.3371

3.55998 0.713123 -7.03245e-12
0.713123 -3.96335 9.29483e-12
-7.03245e-12 9.29483e-12 -0.1334

1.50362 0.894385 -1.9652e-11
0.894385 5.61639 1.31045e-11
-1.9652e-11 1.31045e-11 2.29313

1.51951 -0.730707 -3.08122e-12
-0.730707 5.52464 -5.81368e-11
-3.08122e-12 -5.81368e-11 2.32359

6.90157 -0.631198 -3.85025e-13
-0.631198 1.38232 7.6096e-12
-3.85025e-13 7.6096e-12 2.53017

0.158497 3.13744 -2.10955e-11
3.13744 1.15895 3.27434e-12
-2.10955e-11 3.27434e-12 0.609958

4.55129 -2.08591 2.31194e-11
-2.08591 -1.51233 -1.22974e-12
2.31194e-11 -1.22974e-12 1.07596

1.03979 3.32392 -7.32207e-12
3.32392 -0.534253 -1.681e-11
-7.32207e-12 -1.681e-11 0.267324

-0.381493 2.64949 1.46435e-11
2.64949 3.17142 4.72052e-12
1.46435e-11 4.72052e-12 0.750791

2.62122 -1.31544 1.5413e-11
-1.31544 -4.15424 6.3759e-12
1.5413e-11 6.3759e-12 -0.14212

6.16568 1.74816 8.47929e-12
1.74816 7.93029 -2.06881e-11
8.47929e-12 -2.06881e-11 5.48897

1.67409 1.63148 -4.04542e-11
1.63148 -5.06629 4.875e-11
-4.04542e-11 4.875e-11 -0.657024

8.75732 -1.51106 -1.811e-11
-1.51106 5.69243 1.25839e-11
-1.811e-11 1.25839e-11 5.68546

-3.3535 -0.57554 -5.0092e-12
-0.57554 -1.07616 1.92653e-12
-5.0092e-12 1.92653e-12 -2.41987

-3.41902 1.02141 2.69669e-11
1.02141 -0.986876 -4.43245e-12
2.69669e-11 -4.43245e-12 -2.40104

-0.273935 -3.11099 6.54872e-12
-3.11099 -5.6969 2.40747e-11
6.54872e-12 2.40747e-11 -6.44644

-0.299344 3.21893 5.50919e-11
3.21893 -5.72037 7.12832e-12
5.50919e-11 7.12832e-12 -6.40167

6.54999 -0.830307 3.4676e-12
-0.830307 0.888145 8.42878e-12
3.4676e-12 8.42878e-12 2.57792

-1.0159 3.63273 -5.58694e-12
3.63273 -1.31553 -6.74298e-12
-5.58694e-12 -6.74298e-12 -0.38926

-0.0755432 -1.88475 -3.46723e-11
-1.88475 -3.69876 -7.992e-12
-3.46723e-11 -7.992e-12 -2.53264

0.0150342 1.87785 -2.31145e-11
1.87785 -3.56019 3.55399e-11
-2.31145e-11 3.55399e-11 -2.37158

0.513265 0.654046 -1.15563e-11
0.654046 -5.97763 4.15487e-11
-1.15563e-11 4.15487e-11 -1.03114

-0.593248 2.99357 -1.92661e-11
2.99357 3.19884 2.79369e-12
-1.92661e-11 2.79369e-12 0.724783

3.86203 -2.58991 4.62385e-11
-2.58991 -0.50405 7.22459e-12
4.62385e-11 7.22459e-12 1.06113

0.941106 -0.160971 -5.20147e-12
-0.160971 -6.35321 -3.80157e-11
-5.20147e-12 -3.80157e-11 -0.878724

0.0749246 -3.14878 -2.11882e-12
-3.14878 1.26567 -6.06833e-12
-2.11882e-12 -6.06833e-12 0.618788

-0.0552095 -2.58192 -2.08062e-11
-2.58192 2.53326 1.73261e-12
-2.08062e-11 1.73261e-12 0.821127

-3.43543 2.94933 3.46769e-11
2.94933 1.35859 -1.30037e-11
3.46769e-11 -1.30037e-11 -0.520676

3.50947 -3.60152 -4.46973e-11
-3.60152 0.881162 -1.96026e-11
-4.46973e-11 -1.96026e-11 1.50057

16.98 -2.74588 -2.92902e-11
-2.74588 15.4202 -7.60995e-12
-2.92902e-11 -7.60995e-12 16.2727

17.0442 3.81444 1.27182e-11
3.81444 16.5245 7.93958e-13
1.27182e-11 7.93958e-13 16.6644

-6.17164 -3.5211 3.08207e-11
-3.5211 -0.533338 9.34186e-12
3.08207e-11 9.34186e-12 -1.61885

11.5711 0.500313 5.3965e-12
0.500313 9.88764 -4.41871e-11
5.3965e-12 -4.41871e-11 11.385

9.92566 -0.921888 -7.32236e-12
-0.921888 9.42699 -3.47182e-12
-7.32236e-12 -3.47182e-12 10.7485

-3.51043 -0.824694 -3.62138e-11
-0.824694 -2.50176 5.2013e-12
-3.62138e-11 5.2013e-12 -2.90005

-3.47888 0.856297 -1.71451e-11
0.856297 -2.56264 -3.7178e-11
-1.71451e-11 -3.7178e-11 -2.90191

4.3926 -0.0588466 3.98792e-11
-0.0588466 -4.66702 -1.39422e-11
3.98792e-11 -1.39422e-11 -0.138057

-3.79154 -0.447181 -2.17678e-11
-0.447181 -4.11457 -5.80301e-11
-2.17678e-11 -5.80301e-11 -3.32819

-3.74591 0.491662 -3.62159e-11
0.491662 -4.10502 -4.67613e-11
-3.62159e-11 -4.67613e-11 -3.31166

-2.53424 2.74629 1.92677e-11
2.74629 2.3908 3.96851e-11
1.92677e-11 3.96851e-11 0.00748221

-1.44526 -2.91235 -5.04672e-11
-2.91235 -4.76205 -1.90727e-11
-5.04672e-11 -1.90727e-11 -5.28553

-1.5168 2.92603 2.65842e-11
2.92603 -4.80593 8.52104e-12
2.65842e-11 8.52104e-12 -5.27191

-1.92224 -1.45925 4.54633e-11
-1.45925 -2.24785 -3.72776e-11
4.54633e-11 -3.72776e-11 -1.46417

-1.92164 1.47183 -3.46641e-12
1.47183 -2.2708 1.74836e-11
-3.46641e-12 1.74836e-11 -1.4679

6.35457 -2.48218 -1.3487e-11
-2.48218 1.87098 -5.78722e-13
-1.3487e-11 -5.78722e-13 3.35356

-7.9298 1.44341 -3.54437e-11
1.44341 -0.989323 -9.0512e-12
-3.54437e-11 -9.0512e-12 -5.34579

-6.13435 -0.277355 -1.31002e-11
-0.277355 -3.58325 4.95048e-11
-1.31002e-11 4.95048e-11 -5.60795

-0.576379 -3.02581 3.6411e-11
-3.02581 3.19455 3.39056e-11
3.6411e-11 3.39056e-11 0.71865

5.21142 -0.761119 -3.85469e-13
-0.761119 7.61108 1.6352e-11
-3.85469e-13 1.6352e-11 5.61739

8.5122 -0.7861 -3.35252e-11
-0.7861 4.3415 4.3445e-11
-3.35252e-11 4.3445e-11 5.77214

-3.75028 2.35866 -4.62332e-12
2.35866 1.5675 -1.13687e-11
-4.62332e-12 -1.13687e-11 -0.558905

-4.14876 2.35222 -6.54985e-12
2.35222 0.49618 -7.31874e-12
-6.54985e-12 -7.31874e-12 -0.662711

-7.46916 -2.34485 -7.12715e-11
-2.34485 -13.1597 1.43118e-10
-7.12715e-11 1.43118e-10 -11.7104

-7.36492 2.16802 -7.41635e-11
2.16802 -12.4973 2.0831e-10
-7.41635e-11 2.0831e-10 -11.5243

-5.0061 3.08672 -8.86287e-12
3.08672 -1.67619 -1.27148e-11
-8.86287e-12 -1.27148e-11 -1.11094

0.709489 0.94029 -2.42718e-11
0.94029 -3.93849 3.22723e-12
-2.42718e-11 3.22723e-12 -0.93357

0.78056 -0.977763 -1.4803e-16
-0.977763 -3.94454 8.23556e-12
-1.4803e-16 8.23556e-12 -0.918739

-2.83675 4.14196 1.00169e-11
4.14196 -2.01139 1.61815e-11
1.00169e-11 1.61815e-11 -0.931564

-4.48032 -2.79067 -3.12061e-11
-2.79067 -0.26721 7.41907e-12
-3.12061e-11 7.41907e-12 -1.47338

6.4192 -0.04788 3.46823e-11
-0.04788 0.148936 7.51451e-12
3.46823e-11 7.51451e-12 2.47918

5.19365 0.059627 -1.92665e-11
0.059627 -2.03847 -1.64409e-11
-1.92665e-11 -1.64409e-11 0.741674

5.22472 1.86148 3.96894e-11
1.86148 -0.781194 8.67861e-13
3.96894e-11 8.67861e-13 1.44714

0.11143 3.09731 -1.04057e-11
3.09731 -5.32627 -1.62287e-11
-1.04057e-11 -1.62287e-11 -2.23028

-1.18135 -0.460177 -4.16063e-11
-0.460177 -3.54983 7.17424e-12
-4.16063e-11 7.17424e-12 -7.39398

-1.29698 0.457614 2.00289e-11
0.457614 -3.32477 3.85253e-11
2.00289e-11 3.85253e-11 -7.42249

4.08897 2.70578 8.86254e-12
2.70578 3.78215 -2.24411e-11
8.86254e-12 -2.24411e-11 2.60969

1.41076 -3.4473 -1.61844e-11
-3.4473 -1.55264 3.1885e-11
-1.61844e-11 3.1885e-11 0.114797

3.56718 -0.855547 -6.20364e-11
-0.855547 -2.19232 3.02685e-11
-6.20364e-11 3.02685e-11 0.175803

-7.67142 3.33085 8.86244e-12
3.33085 -1.71948 1.71395e-11
8.86244e-12 1.71395e-11 -6.56678

-7.26258 -0.874728 -8.12871e-11
-0.874728 -6.12347 2.8945e-12
-8.12871e-11 2.8945e-12 -7.41656

0.0197816 -3.02927 3.08327e-12
-3.02927 -5.132 -1.22777e-11
3.08327e-12 -1.22777e-11 -2.35832

-3.22704 -0.876838 2.12874e-11
-0.876838 0.95304 1.94573e-11
2.12874e-11 1.94573e-11 -0.729987

-2.66986 -0.91786 3.53469e-11
-0.91786 1.25368 1.02033e-11
3.53469e-11 1.02033e-11 -0.633514

3.11685 -0.241499 2.25405e-11
-0.241499 -5.97559 2.49219e-11
2.25405e-11 2.49219e-11 -0.768756

3.16562 0.227367 2.31181e-11
0.227367 -6.10951 -4.98423e-12
2.31181e-11 -4.98423e-12 -0.783331

5.26095 2.33141 1.98432e-11
2.33141 3.78746 -3.56382e-12
1.98432e-11 -3.56382e-12 2.85826

0.757545 -0.18372 2.21546e-11
-0.18372 -5.72916 -4.35777e-12
2.21546e-11 -4.35777e-12 -1.69903

0.756611 0.166535 2.50444e-11
0.166535 -5.68726 -2.77868e-11
2.50444e-11 -2.77868e-11 -1.68401

3.64911 0.849032 7.32185e-12
0.849032 -2.24553 4.15146e-11
7.32185e-12 4.15146e-11 0.18414

-0.445676 -2.69264 -1.34854e-11
-2.69264 3.19139 -1.79174e-11
-1.34854e-11 -1.79174e-11 0.730187

3.09591 -0.0890871 1.07884e-11
-0.0890871 -4.20538 -4.55114e-12
1.07884e-11 -4.55114e-12 -0.580933

3.12884 0.113379 7.70739e-12
0.113379 -4.30988 -1.43994e-11
7.70739e-12 -1.43994e-11 -0.593182

2.49058 -2.06453 -7.40149e-16
-2.06453 -2.90755 3.19801e-11
-7.40149e-16 3.19801e-11 -0.032141

-3.39114 3.80103 3.67941e-11
3.80103 0.517862 -1.05935e-11
3.67941e-11 -1.05935e-11 -0.731292

3.29439 2.89234 -1.34834e-11
2.89234 0.428051 -1.88371e-11
-1.34834e-11 -1.88371e-11 1.13465

-4.16804 3.08439 -5.00949e-12
3.08439 -2.32916 -1.21363e-11
-5.00949e-12 -1.21363e-11 -1.17038

-3.40616 3.78258 1.38698e-11
3.78258 1.01089 6.45441e-12
1.38698e-11 6.45441e-12 -0.60276

4.89224 -1.4698 1.86888e-11
-1.4698 -1.45659 -8.83784e-12
1.86888e-11 -8.83784e-12 0.992218

0.68033 -3.3773 5.47116e-11
-3.3773 -3.47503 -5.47637e-11
5.47116e-11 -5.47637e-11 -0.827108

2.75233 2.06167 -2.61999e-11
2.06167 -2.393 -4.57513e-11
-2.61999e-11 -4.57513e-11 0.156611

2.0443 3.37365 -1.39685e-11
3.37365 1.02785 -2.74067e-11
-1.39685e-11 -2.74067e-11 1.11628

1.41871 3.46535 2.69333e-12
3.46535 -1.53292 -1.31484e-11
2.69333e-12 -1.31484e-11 0.139922

-4.66197 0.317378 2.54285e-11
0.317378 1.13844 2.20612e-11
2.54285e-11 2.20612e-11 -0.873742

-4.56757 0.11248 1.8881e-11
0.11248 1.11404 4.43134e-12
1.8881e-11 4.43134e-12 -0.878562

5.95386 2.43792 1.78251e-11
2.43792 1.79553 4.87332e-11
1.78251e-11 4.87332e-11 2.9066

-2.87863 -4.13802 -2.27307e-11
-4.13802 -2.0638 1.88796e-11
-2.27307e-11 1.88796e-11 -0.951471

1.51016 -3.29791 1.65678e-11
-3.29791 3.14594 -1.15567e-12
1.65678e-11 -1.15567e-12 1.32567

1.47147 3.33876 -7.12597e-12
3.33876 3.32756 -7.31785e-12
-7.12597e-12 -7.31785e-12 1.36175

2.26125 -2.48887 2.08059e-11
-2.48887 -2.7553 3.12076e-11
2.08059e-11 3.12076e-11 -0.0959989

0.818365 -1.64916 -1.42578e-11
-1.64916 -7.98246 1.1316e-11
-1.42578e-11 1.1316e-11 -1.82942

0.862966 1.66231 -2.73562e-11
1.66231 -7.50783 2.20571e-11
-2.73562e-11 2.20571e-11 -1.6852

-0.972425 1.82651 -3.39076e-11
1.82651 3.10233 -1.68615e-11
-3.39076e-11 -1.68615e-11 0.808639

1.21456 -3.47304 6.93275e-12
-3.47304 -0.4616 1.10578e-12
6.93275e-12 1.10578e-12 0.313293

0.292211 -0.141637 1.92809e-12
-0.141637 5.97428 2.38964e-11
1.92809e-12 2.38964e-11 2.39705

0.325864 0.0565519 -5.04788e-11
0.0565519 6.0379 -4.20087e-11
-5.04788e-11 -4.20087e-11 2.44229

7.38538 0.175685 2.62049e-11
0.175685 0.229344 -1.83996e-11
2.62049e-11 -1.83996e-11 2.71895

5.14466 -2.41866 5.97093e-12
-2.41866 4.03725 -2.42768e-11
5.97093e-12 -2.42768e-11 2.88644

2.6147 2.94016 8.47441e-12
2.94016 0.545349 3.66366e-12
8.47441e-12 3.66366e-12 1.01748

-8.0761 -5.98507 4.58425e-11
-5.98507 -5.40831 -9.25134e-12
4.58425e-11 -9.25134e-12 -9.41658

-5.84686 2.58673 2.64265e-10
2.58673 -4.14621 -1.67548e-11
2.64265e-10 -1.67548e-11 -8.6732

4.81611 1.33914 -2.6203e-11
1.33914 -1.56776 -1.92902e-11
-2.6203e-11 -1.92902e-11 0.920745

-2.40482 3.66055 7.51393e-12
3.66055 1.94289 1.2041e-11
7.51393e-12 1.2041e-11 -0.0937961

4.46772 0.0539813 4.79711e-11
0.0539813 -4.60441 -9.51239e-13
4.79711e-11 -9.51239e-13 -0.108848

-1.07458 -1.76645 -5.04751e-11
-1.76645 3.1371 2.84735e-13
-5.04751e-11 2.84735e-13 0.785687

-7.42095 3.64523 -1.92851e-12
3.64523 -0.555485 -3.1786e-11
-1.92851e-12 -3.1786e-11 -1.74913

-4.19947 2.98501 2.69784e-12
2.98501 0.0113485 4.5368e-11
2.69784e-12 4.5368e-11 -1.28043

-3.38446 -3.79192 4.81807e-12
-3.79192 0.481562 -3.01499e-11
4.81807e-12 -3.01499e-11 -0.74205

-3.70263 3.83181 -2.5055e-12
3.83181 1.23872 -3.05349e-11
-2.5055e-12 -3.05349e-11 -0.621739

-3.0738 2.90464 9.25186e-17
2.90464 -0.193295 1.92787e-12
9.25186e-17 1.92787e-12 -0.392271

4.177 0.0328563 -2.46597e-11
0.0328563 -6.74674 7.8248e-12
-2.46597e-11 7.8248e-12 -0.652482

2.97332 -2.902 -3.85284e-12
-2.902 0.658458 -1.05483e-11
-3.85284e-12 -1.05483e-11 1.14574

-4.22763 -3.09893 -1.54128e-11
-3.09893 -2.36867 3.56384e-11
-1.54128e-11 3.56384e-11 -1.19382

2.1209 -2.4825 5.9713e-12
-2.4825 2.33839 -1.32465e-11
5.9713e-12 -1.32465e-11 1.17062

4.12678 -2.40694 4.93203e-11
-2.40694 4.19212 1.86865e-11
4.93203e-11 1.86865e-11 2.92374

-1.15875 -3.58518 1.61796e-11
-3.58518 -1.25052 -4.39256e-11
1.61796e-11 -4.39256e-11 -0.40906

1.10288 -1.47041 2.00382e-11
-1.47041 5.40869 9.00902e-12
2.00382e-11 9.00902e-12 2.02083

1.06401 1.39488 -1.77206e-11
1.39488 5.42873 -5.52494e-11
-1.77206e-11 -5.52494e-11 2.00126

6.04801 0.841138 3.00559e-11
0.841138 1.21505 1.14344e-12
3.00559e-11 1.14344e-12 2.22766

2.08363 2.58876 -6.74409e-12
2.58876 2.31711 -2.71166e-11
-6.74409e-12 -2.71166e-11 1.16268

-1.33725 0.45809 2.19592e-11
0.45809 3.33734 2.25437e-11
2.19592e-11 2.25437e-11 0.512376

-1.33421 -0.0985146 1.92704e-11
-0.0985146 3.32294 -9.62956e-12
1.92704e-11 -9.62956e-12 0.522824

3.26049 -2.83472 9.44204e-12
-2.83472 4.70301 2.88658e-13
9.44204e-12 2.88658e-13 2.908

3.44347 2.8398 -1.29123e-11
2.8398 4.74382 1.34396e-11
-1.29123e-11 1.34396e-11 2.96798

4.23819 0.228012 -6.74225e-12
0.228012 -6.22291 2.76904e-11
-6.74225e-12 2.76904e-11 -0.6048

4.29828 -0.216318 -1.07888e-11
-0.216318 -6.29193 -1.47839e-11
-1.07888e-11 -1.47839e-11 -0.598215

-2.39688 3.33713 2.00364e-11
3.33713 1.78702 6.55135e-12
2.00364e-11 6.55135e-12 -0.165728

-7.71283 -3.25447 1.5022e-11
-3.25447 -0.719197 3.80473e-11
1.5022e-11 3.80473e-11 -1.73509

-0.149953 3.66997 1.96501e-11
3.66997 -2.42463 2.41377e-12
1.96501e-11 2.41377e-12 -0.665253

7.37149 1.70297 -1.58019e-11
1.70297 2.85069 -4.02342e-11
-1.58019e-11 -4.02342e-11 4.24672

-1.06344 2.21403 1.46419e-11
2.21403 4.21122 -1.59887e-11
1.46419e-11 -1.59887e-11 0.937275

-1.38717 0.216465 -1.92479e-12
0.216465 -3.53486 3.17345e-11
-1.92479e-12 3.17345e-11 -2.02352

-1.38596 -0.193419 -3.92989e-11
-0.193419 -3.49163 -1.33895e-11
-3.92989e-11 -1.33895e-11 -2.01669

1.51567 2.13689 2.33148e-11
2.13689 0.110744 3.04365e-11
2.33148e-11 3.04365e-11 0.282355

0.964166 -1.32048 -7.32081e-12
-1.32048 -1.37157 3.91054e-11
-7.32081e-12 3.91054e-11 -0.427004

0.952076 1.3459 -2.54302e-11
1.3459 -1.369 -1.35814e-11
-2.54302e-11 -1.35814e-11 -0.428921

9.65877 -1.34042 5.39591e-12
-1.34042 6.62779 -7.63795e-11
5.39591e-12 -7.63795e-11 10.2598

5.80014 1.68951 1.6187e-11
1.68951 8.92597 1.00333e-11
1.6187e-11 1.00333e-11 10.1038

-1.2497 -2.17584 4.23946e-12
-2.17584 4.15786 -9.15098e-12
4.23946e-12 -9.15098e-12 0.881105

-4.56318 -0.490044 2.58095e-11
-0.490044 -6.14576 -1.60842e-10
2.58095e-11 -1.60842e-10 -5.82226

-4.52602 0.558638 7.71235e-13
0.558638 -6.0809 3.32269e-11
7.71235e-13 3.32269e-11 -5.79378

7.65914 1.46372 -3.81511e-11
1.46372 2.75309 -1.30544e-14
-3.81511e-11 -1.30544e-14 4.33183

-4.37836 -1.80353 3.46722e-11
-1.80353 0.99985 3.54499e-11
3.46722e-11 3.54499e-11 -0.704567

-3.81947 -1.76083 -1.54048e-12
-1.76083 1.37964 -1.82081e-11
-1.54048e-12 -1.82081e-11 -0.681253

2.40052 -3.54455 -3.85495e-12
-3.54455 1.71907 2.57218e-11
-3.85495e-12 2.57218e-11 1.3875

-3.67205 -3.85607 8.47603e-12
-3.85607 1.22577 -4.76471e-16
8.47603e-12 -4.76471e-16 -0.623175

-6.63306 4.60038 -2.11924e-11
4.60038 -1.53155 -1.60866e-11
-2.11924e-11 -1.60866e-11 -1.29796

-2.67415 2.08461 1.84923e-11
2.08461 -1.14361 3.22642e-11
1.84923e-11 3.22642e-11 -1.89788

-4.0153 2.87664 -3.35184e-11
2.87664 -1.28195 -8.08986e-12
-3.35184e-11 -8.08986e-12 -2.02286

-2.4748 -3.37027 -4.54615e-11
-3.37027 1.77419 -2.11887e-11
-4.54615e-11 -2.11887e-11 -0.189866

-1.446 3.53788 -3.84137e-13
3.53788 -0.99595 2.20568e-11
-3.84137e-13 2.20568e-11 -0.290201

1.47415 -2.16951 2.50133e-12
-2.16951 0.126095 6.26112e-11
2.50133e-12 6.26112e-11 0.272785

4.55492 2.58988 1.50274e-11
2.58988 -0.611517 4.56585e-11
1.50274e-11 4.56585e-11 1.397

5.09564 -0.0791999 -1.58004e-11
-0.0791999 -2.11866 -4.01518e-11
-1.58004e-11 -4.01518e-11 0.702005

-3.71472 4.02071 1.05944e-11
4.02071 1.06572 -7.22335e-12
1.05944e-11 -7.22335e-12 -0.576318

-2.61072 -2.4209 1.31007e-11
-2.4209 0.985695 -3.04405e-11
1.31007e-11 -3.04405e-11 -0.11212

-2.34696 0.883453 -4.16132e-11
0.883453 3.06899 -9.44245e-12
-4.16132e-11 -9.44245e-12 0.360492

-0.95274 2.47766 5.00851e-12
2.47766 -0.992044 -9.53815e-12
5.00851e-12 -9.53815e-12 -0.570014

-2.21461 1.09814 1.19434e-11
1.09814 3.38899 1.0789e-11
1.19434e-11 1.0789e-11 0.376363

-3.77192 -3.10507 6.16427e-12
-3.10507 0.363831 -7.71087e-13
6.16427e-12 -7.71087e-13 -1.06346

8.6423 -1.7415 -5.00977e-12
-1.7415 9.01777 1.53451e-11
-5.00977e-12 1.53451e-11 8.17772

10.2514 -1.75266 3.73844e-11
-1.75266 7.67329 3.75923e-11
3.73844e-11 3.75923e-11 8.3199

3.45158 -0.699548 -4.1518e-11
-0.699548 -3.95322 -5.93552e-12
-4.1518e-11 -5.93552e-12 -0.155398

-0.967352 -2.48386 3.12084e-11
-2.48386 -1.01942 2.95708e-11
3.12084e-11 2.95708e-11 -0.579039

-4.67829 -3.32747 -1.12881e-10
-3.32747 -10.5661 9.54469e-11
-1.12881e-10 9.54469e-11 -9.73968

-4.56863 3.18704 -1.92632e-11
3.18704 -10.2924 -2.10896e-11
-1.92632e-11 -2.10896e-11 -9.64624

-2.48821 -3.61046 -1.2717e-11
-3.61046 1.87735 1.00194e-11
-1.2717e-11 1.00194e-11 -0.138296

-2.69741 -3.09512 -4.00669e-11
-3.09512 -2.67343 4.34391e-11
-4.00669e-11 4.34391e-11 -4.1369

-2.74184 3.14573 -3.92959e-11
3.14573 -2.6428 -4.14164e-11
-3.92959e-11 -4.14164e-11 -4.07288

2.00368 0.680365 -4.73944e-11
0.680365 -4.29684 1.42679e-11
-4.73944e-11 1.42679e-11 -0.268734

-6.73017 -4.60623 -1.73392e-11
-4.60623 -1.65871 1.44491e-11
-1.73392e-11 1.44491e-11 -1.3376

7.20917 -2.07351 -3.00556e-11
-2.07351 7.01891 -4.79527e-11
-3.00556e-11 -4.79527e-11 6.41916

7.44956 2.08118 -1.84999e-11
2.08118 5.97601 -2.95537e-11
-1.84999e-11 -2.95537e-11 6.04967

4.5085 -1.54564 2.31348e-12
-1.54564 7.41735 4.28746e-12
2.31348e-12 4.28746e-12 4.84676

4.12979 1.43751 -2.33154e-11
1.43751 7.52666 1.07408e-11
-2.33154e-11 1.07408e-11 4.82786

8.18206 0.885672 -5.43367e-11
0.885672 3.72603 5.53964e-12
-5.43367e-11 5.53964e-12 4.97042

-3.68613 -4.05179 -5.39349e-12
-4.05179 1.13676 -3.17855e-12
-5.39349e-12 -3.17855e-12 -0.560777

4.49828 0.460299 6.93613e-12
0.460299 8.46945 1.76783e-11
6.93613e-12 1.76783e-11 5.98522

9.55863 -0.50105 -1.27166e-11
-0.50105 4.54306 2.62596e-12
-1.27166e-11 2.62596e-12 6.34178

-5.98288 -1.27725 -3.47143e-12
-1.27725 -0.866143 1.07681e-10
-3.47143e-12 1.07681e-10 -3.63065

-3.95989 -0.0782685 -1.30976e-11
-0.0782685 -2.49554 -3.17846e-11
-1.30976e-11 -3.17846e-11 -3.64505

1.58685 2.01172 4.27672e-11
2.01172 -3.20115 4.72111e-12
4.27672e-11 4.72111e-12 -0.593762

1.01385 -0.14257 2.69717e-11
-0.14257 -8.71034 -1.46158e-11
2.69717e-11 -1.46158e-11 -1.30145

1.07046 2.04322 6.93556e-12
2.04322 4.81185 -5.3002e-13
6.93556e-12 -5.3002e-13 1.96279

1.0268 -2.13818 3.06364e-11
-2.13818 4.80522 4.98065e-11
3.06364e-11 4.98065e-11 1.9662

2.37963 -0.383351 -2.46582e-11
-0.383351 -4.18243 -3.74974e-11
-2.46582e-11 -3.74974e-11 -0.164531

-2.63459 -2.73907 -5.39687e-12
-2.73907 2.44835 1.17497e-11
-5.39687e-12 1.17497e-11 -0.0139608

-2.6048 0.288169 -1.92631e-11
0.288169 -5.01215 -6.52994e-11
-1.92631e-11 -6.52994e-11 -3.94812

-2.62054 -0.249282 -5.95261e-11
-0.249282 -4.99673 -2.87002e-11
-5.95261e-11 -2.87002e-11 -3.9416

0.167443 3.05706 -8.67476e-12
3.05706 -1.9728 9.43849e-12
-8.67476e-12 9.43849e-12 -0.674337

-1.53667 -3.45045 1.92638e-11
-3.45045 -1.02903 2.88662e-12
1.92638e-11 2.88662e-12 -0.314366

1.86713 1.83456 1.30998e-11
1.83456 -5.23557 -2.71134e-11
1.30998e-11 -2.71134e-11 -0.753424

4.54367 2.70213 2.30949e-12
2.70213 2.43911 1.5414e-11
2.30949e-12 1.5414e-11 2.56467

-3.07149 -2.99082 -3.5833e-11
-2.99082 -0.10031 6.83768e-12
-3.5833e-11 6.83768e-12 -0.379112

17.3178 4.64973 -2.69754e-11
4.64973 16.2997 3.34804e-11
-2.69754e-11 3.34804e-11 17.2569

-2.22617 -0.660288 -4.43096e-11
-0.660288 3.0025 -1.32031e-11
-4.43096e-11 -1.32031e-11 0.359037

-2.05488 -0.983773 2.35061e-11
-0.983773 3.26124 -1.77281e-11
2.35061e-11 -1.77281e-11 0.388386

-6.37114 1.36244 2.65823e-11
1.36244 -1.56781 2.60035e-11
2.65823e-11 2.60035e-11 -4.31959

-5.65172 -2.03769 -3.85722e-13
-2.03769 -2.21096 6.54964e-11
-3.85722e-13 6.54964e-11 -4.31998

2.76353 -0.107908 2.31185e-12
-0.107908 -6.79509 -8.57111e-12
2.31185e-12 -8.57111e-12 -1.3162

2.78311 0.100764 -9.82527e-12
0.100764 -6.8377 2.91326e-12
-9.82527e-12 2.91326e-12 -1.30929

-1.10254 -3.99468 1.11729e-11
-3.99468 -3.33169 2.49459e-11
1.11729e-11 2.49459e-11 -1.85579

-0.871816 4.02917 2.69906e-12
4.02917 -3.64068 1.57958e-11
2.69906e-12 1.57958e-11 -1.78643

-0.58883 -1.45529 -5.3165e-11
-1.45529 -2.7415 1.62788e-11
-5.3165e-11 1.62788e-11 -3.07585

-0.651802 1.45192 -9.28471e-11
1.45192 -2.69157 -1.91711e-11
-9.28471e-11 -1.91711e-11 -3.04894

-6.16924 -1.27078 1.83005e-11
-1.27078 -8.76092 1.72402e-11
1.83005e-11 1.72402e-11 -8.36734

-6.10303 1.36786 -9.43841e-12
1.36786 -8.53269 1.75265e-11
-9.43841e-12 1.75265e-11 -8.28771

-4.10377 -3.82398 2.38864e-11
-3.82398 -0.226228 -1.83985e-11
2.38864e-11 -1.83985e-11 -1.28386

-4.08894 3.80427 7.12837e-12
3.80427 -0.25695 7.60906e-12
7.12837e-12 7.60906e-12 -1.29706

1.79699 -1.98136 3.85218e-12
-1.98136 -1.73484 2.673e-11
3.85218e-12 2.673e-11 -0.0100897

-2.19333 -1.67446 7.70718e-12
-1.67446 1.82403 -2.65881e-11
7.70718e-12 -2.65881e-11 0.0748107

0.559142 3.22255 3.98811e-11
3.22255 0.524242 2.34058e-11
3.98811e-11 2.34058e-11 0.275042

-1.84375 -2.34878 -8.09281e-12
-2.34878 2.70129 1.97479e-11
-8.09281e-12 1.97479e-11 0.180075

5.31301 -2.49633 -5.20028e-12
-2.49633 3.40044 -2.92371e-11
-5.20028e-12 -2.92371e-11 3.06148

1.84225 1.9559 2.65874e-11
1.9559 -1.71784 3.44839e-11
2.65874e-11 3.44839e-11 0.0104727

-1.9373 1.66481 -2.16856e-12
1.66481 1.88219 -9.92006e-12
-2.16856e-12 -9.92006e-12 0.150135

-4.41425 -4.75399 -2.23471e-11
-4.75399 -2.52092 3.91082e-11
-2.23471e-11 3.91082e-11 -1.69359

-4.40384 4.75725 -6.55039e-12
4.75725 -2.55355 -5.00919e-12
-6.55039e-12 -5.00919e-12 -1.70076

1.34503 -1.9112 7.70669e-12
-1.9112 -3.38788 -2.59091e-11
7.70669e-12 -2.59091e-11 -0.817222

-5.6545 -3.55936 -3.62041e-11
-3.55936 -2.67584 -1.00161e-10
-3.62041e-11 -1.00161e-10 -8.42887

-7.95073 3.64156 -7.35851e-11
3.64156 -10.2182 3.25508e-11
-7.35851e-11 3.25508e-11 -10.3446

-2.39202 -2.69337 -3.91059e-11
-2.69337 1.29245 6.6502e-12
-3.91059e-11 6.6502e-12 -0.4505

0.764561 3.36319 1.27187e-11
3.36319 -3.26031 2.79811e-11
1.27187e-11 2.79811e-11 -0.673341

0.266611 0.216591 1.96476e-11
0.216591 -3.52238 5.87667e-12
1.96476e-11 5.87667e-12 -2.01465

0.54035 -3.15129 -5.02842e-11
-3.15129 0.675816 3.57394e-11
-5.02842e-11 3.57394e-11 0.297791

8.27652 2.01803 -2.58195e-11
2.01803 9.00696 5.34824e-12
-2.58195e-11 5.34824e-12 7.62873

9.21442 1.99572 2.31482e-12
1.99572 7.22117 -1.97298e-12
2.31482e-12 -1.97298e-12 7.47278

1.94758 0.398474 1.52204e-11
0.398474 -6.32127 1.92631e-12
1.52204e-11 1.92631e-12 -1.72071

1.87955 -0.402229 -8.86169e-12
-0.402229 -6.34562 -2.8605e-11
-8.86169e-12 -2.8605e-11 -1.7288

0.318786 -0.351748 -3.12045e-11
-0.351748 -3.38137 -5.54023e-12
-3.12045e-11 -5.54023e-12 -2.05804

-1.71535 2.23683 1.71729e-11
2.23683 2.65671 7.414e-12
1.71729e-11 7.414e-12 0.202026

4.55812 -1.57383 2.04226e-11
-1.57383 0.376216 -6.54958e-12
2.04226e-11 -6.54958e-12 1.20564

-1.85229 -1.91153 5.2781e-11
-1.91153 -0.721031 -1.26191e-11
5.2781e-11 -1.26191e-11 -1.14553

-1.84304 1.91427 1.23277e-11
1.91427 -0.718382 -4.61378e-11
1.23277e-11 -4.61378e-11 -1.14287

-3.02322 -0.263089 -1.38672e-11
-0.263089 -0.344829 -3.03041e-11
-1.38672e-11 -3.03041e-11 -7.71906

-2.99931 0.25942 6.0865e-11
0.25942 -0.406768 -1.05838e-11
6.0865e-11 -1.05838e-11 -7.70121

-3.65009 -3.26547 6.16579e-12
-3.26547 1.23487 1.91697e-11
6.16579e-12 1.91697e-11 -0.55014

2.51414 2.58629 2.31015e-12
2.58629 -2.25643 3.3995e-13
2.31015e-12 3.3995e-13 0.103256

0.167981 -0.318402 1.40638e-11
-0.318402 -4.11935 -1.01171e-12
1.40638e-11 -1.01171e-12 -1.88572

0.174817 0.346907 2.8999e-13
0.346907 -4.12731 3.71784e-11
2.8999e-13 3.71784e-11 -1.89009

-4.08706 -2.07368 3.46744e-11
-2.07368 -0.137658 2.34035e-11
3.46744e-11 2.34035e-11 -0.821394

-4.95752 -3.31327 -3.66019e-11
-3.31327 -1.76563 5.58709e-12
-3.66019e-11 5.58709e-12 -1.04057

17.2841 -4.82311 -6.78286e-11
-4.82311 17.4303 -3.94694e-12
-6.78286e-11 -3.94694e-12 17.4423

-3.9612 -3.09487 -2.85089e-11
-3.09487 -1.27892 2.90915e-11
-2.85089e-11 2.90915e-11 -2.04312

-3.91312 3.12212 1.04023e-11
3.12212 -1.29416 -2.40798e-11
1.04023e-11 -2.40798e-11 -2.01807

-4.47186 -3.18498 -2.27304e-11
-3.18498 -0.5017 -2.50633e-12
-2.27304e-11 -2.50633e-12 -0.75075

4.56421 1.66912 -2.06165e-11
1.66912 0.2629 3.37238e-12
-2.06165e-11 3.37238e-12 1.154

0.257175 -2.93494 6.37654e-11
-2.93494 -2.17127 -2.16784e-11
6.37654e-11 -2.16784e-11 -0.770517

-0.596991 -3.25907 1.84933e-11
-3.25907 -3.19331 -2.65861e-11
1.84933e-11 -2.65861e-11 -1.59828

-0.432913 3.18016 2.23478e-11
3.18016 -3.25298 1.14607e-11
2.23478e-11 1.14607e-11 -1.55195

1.70191 -1.822 3.35203e-11
-1.822 -5.56745 1.65666e-11
3.35203e-11 1.65666e-11 -0.924012

-0.233167 0.798824 -6.93532e-12
0.798824 -5.63063 4.42063e-11
-6.93532e-12 4.42063e-11 -2.90899

-0.263136 -0.783756 -8.47642e-12
-0.783756 -5.56515 -3.92966e-11
-8.47642e-12 -3.92966e-11 -2.8936

-8.87317 -1.26457 -6.16353e-11
-1.26457 -2.13217 -4.1027e-11
-6.16353e-11 -4.1027e-11 -7.6793

-7.57332 2.76068 3.19713e-11
2.76068 -2.62371 -8.43694e-11
3.19713e-11 -8.43694e-11 -7.48978

10.5333 0.409904 1.65755e-11
0.409904 5.79551 -3.52907e-11
1.65755e-11 -3.52907e-11 10.4607

7.30052 0.76671 1.92616e-12
0.76671 9.62371 -3.89073e-12
1.92616e-12 -3.89073e-12 10.5187

-2.88573 3.04807 -4.23839e-12
3.04807 0.804449 2.10928e-11
-4.23839e-12 2.10928e-11 -0.758902

-2.87601 -3.04995 5.12424e-11
-3.04995 0.818019 -1.52208e-11
5.12424e-11 -1.52208e-11 -0.753595

-3.56948 -3.89514 2.851e-11
-3.89514 1.17368 1.84929e-11
2.851e-11 1.84929e-11 -0.555584

10.6545 -2.03384 -2.23498e-11
-2.03384 10.247 1.91281e-11
-2.23498e-11 1.91281e-11 11.8425

11.123 -1.67896 -2.69764e-11
-1.67896 10.4672 -2.21359e-11
-2.69764e-11 -2.21359e-11 12.0183

-10.9488 2.68913 1.55981e-11
2.68913 -5.58169 -3.97759e-11
1.55981e-11 -3.97759e-11 -10.3834

-11.022 -2.82674 -5.3743e-11
-2.82674 -5.86642 9.4964e-11
-5.3743e-11 9.4964e-11 -10.4563

-0.225715 -3.69083 -1.34858e-11
-3.69083 -2.44565 -4.71997e-11
-1.34858e-11 -4.71997e-11 -0.694632

-0.285066 -2.98171 -3.3138e-11
-2.98171 1.55852 2.51413e-11
-3.3138e-11 2.51413e-11 0.286707

-2.73814 2.93802 1.42557e-11
2.93802 -0.598483 -2.50466e-12
1.42557e-11 -2.50466e-12 -1.0101

-2.73753 -2.9368 4.87377e-11
-2.9368 -0.603728 -2.76469e-11
4.87377e-11 -2.76469e-11 -1.0103

-1.90483 -3.46991 -2.90897e-11
-3.46991 1.02921 -2.15753e-11
-2.90897e-11 -2.15753e-11 -0.241402

-0.211263 3.02328 2.09998e-11
3.02328 1.52036 1.47398e-11
2.09998e-11 1.47398e-11 0.29514

4.00961 -1.11189 -2.31218e-12
-1.11189 7.15446 9.58722e-12
-2.31218e-12 9.58722e-12 4.60387

4.22713 0.935157 -6.94154e-12
0.935157 7.54961 1.44043e-11
-6.94154e-12 1.44043e-11 4.77418

7.89729 0.799859 -6.84031e-11
0.799859 3.89953 4.51603e-12
-6.84031e-11 4.51603e-12 4.82625

-1.87017 3.4613 3.06295e-11
3.4613 1.03973 -3.36135e-11
3.06295e-11 -3.36135e-11 -0.230765

5.42251 -0.525419 -3.4678e-12
-0.525419 8.84348 2.31923e-11
-3.4678e-12 2.31923e-11 6.4801

9.3922 -0.315849 -3.77665e-11
-0.315849 4.46318 1.50121e-11
-3.77665e-11 1.50121e-11 6.43827

-3.65481 -2.84016 -1.19424e-11
-2.84016 -1.08878 -4.43105e-12
-1.19424e-11 -4.43105e-12 -1.71025

-3.62197 2.82606 -1.48325e-11
2.82606 -1.08072 2.98585e-11
-1.48325e-11 2.98585e-11 -1.70277

-3.77825 -2.15737 1.19431e-11
-2.15737 -1.43402 5.74065e-11
1.19431e-11 5.74065e-11 -2.03395

-3.75899 2.15685 1.61817e-11
2.15685 -1.49035 -3.6214e-11
1.61817e-11 -3.6214e-11 -2.04127

11.5935 1.86836 5.51102e-11
1.86836 10.4634 -1.27593e-11
5.51102e-11 -1.27593e-11 12.4452

11.5373 1.78208 4.5477e-11
1.78208 10.6828 2.06303e-11
4.5477e-11 2.06303e-11 12.525

-1.11562 2.6979 -6.35877e-12
2.6979 0.741288 -1.23308e-11
-6.35877e-12 -1.23308e-11 -0.253497

-1.11096 -2.71584 3.73721e-11
-2.71584 0.766699 -2.50403e-12
3.73721e-11 -2.50403e-12 -0.247869

-6.28969 -2.61369 -2.92823e-11
-2.61369 -2.57163 1.27908e-10
-2.92823e-11 1.27908e-10 -5.19107

-5.50079 1.17733 4.73886e-11
1.17733 -4.87985 2.29261e-11
4.73886e-11 2.29261e-11 -5.50443

-4.63285 -2.92852 5.58564e-12
-2.92852 -0.199672 -1.83046e-12
5.58564e-12 -1.83046e-12 -1.83223

-4.65346 2.92999 -5.58598e-12
2.92999 -0.300089 2.12862e-11
-5.58598e-12 2.12862e-11 -1.86658

-2.0041 0.189655 2.65839e-11
0.189655 -6.73037 7.02122e-11
2.65839e-11 7.02122e-11 -3.67665

-2.00955 -0.162297 -2.15741e-11
-0.162297 -6.70408 1.1125e-11
-2.15741e-11 1.1125e-11 -3.66589

-2.23281 -3.317 -1.27141e-11
-3.317 -1.93271 -3.88163e-11
-1.27141e-11 -3.88163e-11 -1.07312

-2.11117 3.3594 3.54465e-11
3.3594 -2.02865 2.92081e-13
3.54465e-11 2.92081e-13 -1.06631

-3.39446 0.80857 5.43222e-11
0.80857 -7.65359 -2.63861e-11
5.43222e-11 -2.63861e-11 -6.17225

-6.4638 0.139843 2.17673e-11
0.139843 -9.04259 8.87995e-11
2.17673e-11 8.87995e-11 -8.51381

-3.39445 -0.81995 9.40043e-11
-0.81995 -7.64052 -1.48359e-11
9.40043e-11 -1.48359e-11 -6.17001

-6.47436 -0.221464 -1.29829e-10
-0.221464 -9.20056 -1.48029e-10
-1.29829e-10 -1.48029e-10 -8.54766

-7.49912 0.136363 -3.08142e-12
0.136363 -3.86897 8.47613e-12
-3.08142e-12 8.47613e-12 -6.61827

-2.07483 3.26112 5.93269e-11
3.26112 -4.47741 3.92022e-11
5.93269e-11 3.92022e-11 -5.8735

-2.06672 -3.24847 -8.86021e-12
-3.24847 -4.46321 -3.61189e-11
-8.86021e-12 -3.61189e-11 -5.88503

-8.94275 -1.74742 3.42873e-11
-1.74742 -0.520678 -7.41636e-11
3.42873e-11 -7.41636e-11 -6.19464

-9.1103 -1.54181 -2.31511e-12
-1.54181 -8.20442 2.89036e-10
-2.31511e-12 2.89036e-10 -9.0521

1.85792 -2.23409 -1.49511e-10
-2.23409 -16.4415 -3.33272e-10
-1.49511e-10 -3.33272e-10 -10.4714

-9.26934 1.62375 -2.12848e-10
1.62375 -7.91393 -4.90294e-11
-2.12848e-10 -4.90294e-11 -8.98272

1.88859 2.06563 6.6811e-10
2.06563 -15.7616 -5.84338e-10
6.6811e-10 -5.84338e-10 -10.275

-5.45067 -2.11284 3.67939e-11
-2.11284 -6.34033 -5.13344e-11
3.67939e-11 -5.13344e-11 -6.6663

-4.3747 -1.47423 2.85086e-11
-1.47423 -2.13553 -1.31956e-11
2.85086e-11 -1.31956e-11 -3.43168

-8.4974 -0.122979 5.66306e-11
-0.122979 -10.5695 -2.08998e-11
5.66306e-11 -2.08998e-11 -10.0669

-5.52314 2.21793 -3.2168e-11
2.21793 -6.301 -9.66727e-14
-3.2168e-11 -9.66727e-14 -6.65114

-4.34706 1.52458 -4.23905e-12
1.52458 -2.23219 9.34317e-12
-4.23905e-12 9.34317e-12 -3.44862

-8.43627 0.138718 3.46697e-12
0.138718 -10.1561 -5.4416e-11
3.46697e-12 -5.4416e-11 -9.92939

-5.93826 -1.21713 1.3677e-11
-1.21713 -4.15187 -4.37273e-11
1.3677e-11 -4.37273e-11 -4.74884

-5.19723 -0.683038 7.45469e-11
-0.683038 -6.13553 8.18555e-12
7.45469e-11 8.18555e-12 -6.30358

-5.87805 1.27453 1.98392e-11
1.27453 -4.14513 -1.78179e-11
1.98392e-11 -1.78179e-11 -4.72522

-5.16064 0.713884 3.21686e-11
0.713884 -6.10623 6.78031e-11
3.21686e-11 6.78031e-11 -6.27715

0.121196 2.87377 2.21542e-11
2.87377 3.44028 -8.47544e-12
2.21542e-11 -8.47544e-12 0.891272

-4.00423 0.580586 6.74141e-12
0.580586 2.10706 -2.31326e-12
6.74141e-12 -2.31326e-12 -0.619716

-1.44392 1.54753 1.34861e-11
1.54753 0.948807 2.3695e-11
1.34861e-11 2.3695e-11 -0.459115

2.60154 -1.88114 -5.39376e-12
-1.88114 -3.64906 2.46556e-11
-5.39376e-12 2.46556e-11 -0.0103447

3.61544 -1.14997 1.34714e-12
-1.14997 -2.08731 4.58543e-11
1.34714e-12 4.58543e-11 0.624043

-6.90883 0.881494 1.00149e-11
0.881494 1.38251 2.1575e-11
1.00149e-11 2.1575e-11 -2.11983

-4.77517 1.59829 1.5218e-11
1.59829 -1.88905 -2.38875e-11
1.5218e-11 -2.38875e-11 -2.36283

3.50701 -0.0107822 1.4451e-11
-0.0107822 -1.9278 7.70667e-12
1.4451e-11 7.70667e-12 0.624359

0.409558 0.727315 7.89705e-12
0.727315 -6.2482 -7.32063e-12
7.89705e-12 -7.32063e-12 -1.05415

2.07506 2.4857 -5.77845e-12
2.4857 5.72074 -1.21376e-11
-5.77845e-12 -1.21376e-11 2.85677

1.49127 1.96719 1.69573e-11
1.96719 5.99884 1.61851e-11
1.69573e-11 1.61851e-11 3.02755

5.77419 1.97119 -3.10227e-11
1.97119 2.25605 -1.77301e-11
-3.10227e-11 -1.77301e-11 3.17183

-2.68644 -3.0033 -8.66792e-12
-3.0033 -1.00913 -2.02257e-11
-8.66792e-12 -2.02257e-11 -1.94422

-3.08364 -1.26194 1.15598e-12
-1.26194 0.246248 -7.70473e-12
1.15598e-12 -7.70473e-12 -1.72915

0.151606 -3.46938 -8.66374e-12
-3.46938 -0.293287 -1.50279e-11
-8.66374e-12 -1.50279e-11 0.0564138

-2.268 2.78934 2.3698e-11
2.78934 2.10573 3.69892e-11
2.3698e-11 3.69892e-11 -0.0126273

-3.16644 3.25776 -3.12093e-11
3.25776 0.902132 -1.77235e-11
-3.12093e-11 -1.77235e-11 -0.566404

-4.89571 -1.57459 5.58581e-12
-1.57459 -1.93728 -2.31159e-11
5.58581e-12 -2.31159e-11 -2.44708

-6.91818 -1.04395 5.19982e-12
-1.04395 1.5568 2.31164e-11
5.19982e-12 2.31164e-11 -2.12287

3.1511 0.876338 -2.93898e-12
0.876338 -3.66732 2.54308e-11
-2.93898e-12 2.54308e-11 -0.0871761

1.44989 0.817 -1.56062e-11
0.817 6.1157 9.43823e-12
-1.56062e-11 9.43823e-12 2.28534

0.492649 0.361353 1.91727e-11
0.361353 6.06186 -3.85418e-12
1.91727e-11 -3.85418e-12 2.25418

6.46967 0.339899 -3.92059e-11
0.339899 1.46129 -1.15289e-12
-3.92059e-11 -1.15289e-12 2.55315

-1.23036 1.96448 -9.84028e-14
1.96448 3.546 -2.42735e-11
-9.84028e-14 -2.42735e-11 0.804042

0.0209257 3.21049 -8.66714e-12
3.21049 2.75685 1.23315e-11
-8.66714e-12 1.23315e-11 0.770254

2.05828 0.546305 -2.67804e-11
0.546305 -3.96257 1.15813e-12
-2.67804e-11 1.15813e-12 -0.166874

5.61454 1.48567 -1.97398e-13
1.48567 8.4173 2.37032e-11
-1.97398e-13 2.37032e-11 5.40124

1.51183 -2.00996 -2.27333e-11
-2.00996 -5.31267 1.42562e-11
-2.27333e-11 1.42562e-11 -0.685079

-3.73498 0.152539 3.48648e-11
0.152539 0.730304 8.47674e-12
3.48648e-11 8.47674e-12 -2.27278

-2.41109 0.0429241 -8.66999e-12
0.0429241 -1.78814 -5.29687e-12
-8.66999e-12 -5.29687e-12 -2.44303

-0.898279 1.34858 -7.70515e-11
1.34858 -8.49783 2.23379e-11
-7.70515e-11 2.23379e-11 -6.83106

-0.299635 -3.24704 -3.81374e-11
-3.24704 -5.74676 -2.96059e-15
-3.81374e-11 -2.96059e-15 -6.39792

-0.591618 -3.68155 1.36799e-11
-3.68155 0.387294 -1.65696e-11
1.36799e-11 -1.65696e-11 0.117925

-0.916638 -2.97792 -2.50448e-11
-2.97792 2.39088 -1.53995e-12
-2.50448e-11 -1.53995e-12 0.638471

5.95224 -1.02506 1.40666e-11
-1.02506 0.443901 1.50298e-11
1.40666e-11 1.50298e-11 2.2982

-0.549231 0.528814 -1.03996e-11
0.528814 -4.20592 1.77219e-11
-1.03996e-11 1.77219e-11 -2.56251

-0.0548625 -1.92302 -1.73382e-11
-1.92302 -3.46963 3.50591e-11
-1.73382e-11 3.50591e-11 -2.35934

0.524077 -0.854474 2.23481e-11
-0.854474 -6.1617 4.62456e-12
2.23481e-11 4.62456e-12 -0.999296

0.907422 -0.253891 1.02109e-11
-0.253891 -6.67689 -3.86233e-13
1.02109e-11 -3.86233e-13 -0.839472

3.58547 -3.03648 6.16766e-12
-3.03648 0.60958 1.04045e-11
6.16766e-12 1.04045e-11 1.25341

4.44145 1.40357 8.66914e-12
1.40357 -0.633541 -7.3187e-12
8.66914e-12 -7.3187e-12 1.25497

4.12271 -2.47775 3.85077e-12
-2.47775 -0.775362 3.04392e-11
3.85077e-12 3.04392e-11 1.16576

-5.1272 2.04115 3.37135e-11
2.04115 1.41554 1.61844e-11
3.37135e-11 1.61844e-11 -0.598704

-0.932836 -2.46699 -2.42751e-11
-2.46699 3.32408 1.92809e-12
-2.42751e-11 1.92809e-12 0.810054

-1.1321 2.37225 -1.31007e-11
2.37225 2.40887 -5.9341e-11
-1.31007e-11 -5.9341e-11 0.621194

16.4818 -3.76719 -8.67099e-12
-3.76719 16.6483 -1.96548e-11
-8.67099e-12 -1.96548e-11 16.42

15.4206 2.31761 1.52219e-11
2.31761 16.6257 -4.66343e-11
1.52219e-11 -4.66343e-11 16.2097

-6.14449 -2.82323 -2.1767e-11
-2.82323 0.22675 -3.50609e-11
-2.1767e-11 -3.50609e-11 -1.62307

-3.53993 1.87392 -2.20554e-11
1.87392 2.3435 1.9267e-11
-2.20554e-11 1.9267e-11 -0.0159926

9.4471 0.391857 3.1795e-11
0.391857 9.79164 1.54132e-11
3.1795e-11 1.54132e-11 10.7661

9.80713 -0.762406 1.61857e-11
-0.762406 10.9715 -5.77316e-13
1.61857e-11 -5.77316e-13 11.0598

-3.63592 -1.12227 2.0323e-11
-1.12227 -1.9468 -4.46891e-11
2.0323e-11 -4.46891e-11 -2.85651

-3.87583 2.3731 1.02566e-11
2.3731 -2.90491 5.74091e-11
1.02566e-11 5.74091e-11 -2.90845

3.86842 0.0253138 1.81087e-11
0.0253138 -4.30055 7.51499e-12
1.81087e-11 7.51499e-12 -0.106292

-3.9165 -0.752053 3.64823e-11
-0.752053 -3.58719 -1.13637e-11
3.64823e-11 -1.13637e-11 -3.27239

-3.87673 2.21482 7.28306e-14
2.21482 -2.87526 -1.03251e-10
7.28306e-14 -1.03251e-10 -2.98257

-1.2307 2.43171 3.46745e-11
2.43171 -7.54378 -7.51569e-12
3.46745e-11 -7.51569e-12 -5.5116

-1.56785 -2.97497 -2.34956e-11
-2.97497 -4.87251 -3.54422e-11
-2.34956e-11 -3.54422e-11 -5.27518

-2.04596 -1.79655 -3.82389e-11
-1.79655 -1.78627 2.66812e-11
-3.82389e-11 2.66812e-11 -1.43252

-2.08851 2.37345 1.54112e-11
2.37345 -2.25341 7.41655e-12
1.54112e-11 7.41655e-12 -1.34119

-6.37222 -0.188554 -1.75308e-11
-0.188554 0.129221 -1.57967e-11
-1.75308e-11 -1.57967e-11 -5.06458

-6.61245 0.852361 -3.89105e-11
0.852361 -3.64303 2.0803e-11
-3.89105e-11 2.0803e-11 -5.69092

-0.513721 -3.39171 -2.88939e-12
-3.39171 3.355 1.25226e-11
-2.88939e-12 1.25226e-11 0.697244

4.51099 0.35761 9.63559e-12
0.35761 8.08185 -3.93076e-11
9.63559e-12 -3.93076e-11 5.5232

7.84468 0.460699 3.94992e-11
0.460699 4.9166 1.81167e-11
3.94992e-11 1.81167e-11 5.53135

-5.15346 1.78271 -3.44795e-11
1.78271 1.83357 2.35029e-11
-3.44795e-11 2.35029e-11 -0.644262

-3.18564 2.61666 3.9297e-11
2.61666 1.10141 -1.71461e-11
3.9297e-11 -1.71461e-11 -0.57775

-7.56999 -2.47963 7.45977e-12
-2.47963 -11.9962 1.58914e-10
7.45977e-12 1.58914e-10 -11.4653

-7.87406 3.84978 -6.26123e-11
3.84978 -3.45525 -7.31955e-11
-6.26123e-11 -7.31955e-11 -9.83156

2.61116 2.398 -1.04034e-11
2.398 1.33492 -2.10013e-11
-1.04034e-11 -2.10013e-11 1.11295

-3.19837 4.04736 -1.04003e-11
4.04736 0.861424 3.77585e-11
-1.04003e-11 3.77585e-11 -0.587847

0.467796 1.53847 1.17037e-11
1.53847 -3.53322 -3.07865e-12
1.17037e-11 -3.07865e-12 -0.789292

0.586188 -1.22463 -4.76782e-12
-1.22463 -3.49406 -5.76058e-13
-4.76782e-12 -5.76058e-13 -0.876936

-2.89503 3.84451 1.53766e-12
3.84451 -0.315766 -4.56571e-11
1.53766e-12 -4.56571e-11 -0.834979

-4.2321 -3.79315 3.9509e-12
-3.79315 -0.0870871 -2.71633e-11
3.9509e-12 -2.71633e-11 -1.47449

-0.0512941 -3.24575 -1.30957e-11
-3.24575 -5.41181 -2.34982e-11
-1.30957e-11 -2.34982e-11 -2.25936

5.80335 -0.289872 1.85917e-11
-0.289872 0.587939 -2.54299e-11
1.85917e-11 -2.54299e-11 2.30424

-1.16993 0.452054 8.28237e-11
0.452054 -3.55065 3.85244e-11
8.28237e-11 3.85244e-11 -7.38048

-1.00857 -0.280477 1.26364e-10
-0.280477 -8.7006 -5.29683e-11
1.26364e-10 -5.29683e-11 -8.11593

0.538472 2.95162 3.88208e-13
2.95162 -0.767642 -8.86413e-12
3.88208e-13 -8.86413e-12 0.0463937

3.09392 1.12239 -5.39183e-12
1.12239 -2.48153 -4.73906e-11
-5.39183e-12 -4.73906e-11 0.125558

3.47323 2.51873 2.13898e-11
2.51873 4.62814 -1.34974e-12
2.13898e-11 -1.34974e-12 2.58324

-7.87898 0.598936 5.586e-11
0.598936 -6.02089 1.13666e-11
5.586e-11 1.13666e-11 -7.51555

-6.06251 1.74219 9.39951e-11
1.74219 -0.573777 6.93345e-12
9.39951e-11 6.93345e-12 -6.29552

-0.60384 1.61103 -9.24738e-12
1.61103 -6.59054 -3.7948e-11
-9.24738e-12 -3.7948e-11 -2.58751

-4.16451 -0.681999 2.09981e-11
-0.681999 2.21365 -1.92659e-11
2.09981e-11 -1.92659e-11 -0.731582

-1.63294 -1.45864 8.95818e-12
-1.45864 0.9982 1.77232e-11
8.95818e-12 1.77232e-11 -0.583402

2.42305 0.468416 1.82872e-12
0.468416 -5.42896 -2.69821e-12
1.82872e-12 -2.69821e-12 -0.717915

2.70066 -0.366194 -1.7916e-11
-0.366194 -5.46212 1.676e-11
-1.7916e-11 1.676e-11 -0.715263

5.1099 -2.52653 -2.0901e-11
-2.52653 3.93482 -4.31595e-11
-2.0901e-11 -4.31595e-11 2.82975

4.73884 0.00721459 2.28783e-11
0.00721459 -2.05561 3.21742e-11
2.28783e-11 3.21742e-11 0.699378

0.463712 -0.410985 -1.75785e-11
-0.410985 -5.22459 -1.6758e-11
-1.75785e-11 -1.6758e-11 -1.6489

-0.122471 0.832356 1.91411e-11
0.832356 -4.60214 -1.54109e-11
1.91411e-11 -1.54109e-11 -1.5464

3.28355 -1.05195 3.83545e-13
-1.05195 -1.80803 -9.63233e-12
3.83545e-13 -9.63233e-12 0.193311

-0.198774 -2.99394 -2.39844e-11
-2.99394 3.25835 -4.10371e-11
-2.39844e-11 -4.10371e-11 0.713968

2.64724 -0.24119 -1.26177e-11
-0.24119 -3.78992 1.35007e-12
-1.26177e-11 1.35007e-12 -0.578268

2.23435 0.536086 -2.35971e-12
0.536086 -3.99588 -1.57975e-11
-2.35971e-12 -1.57975e-11 -0.613673

1.83907 1.22034 -3.67957e-11
1.22034 -3.01309 -7.12859e-12
-3.67957e-11 -7.12859e-12 -0.124838

2.05925 -3.81101 -2.35051e-11
-3.81101 1.55469 2.65876e-11
-2.35051e-11 2.65876e-11 1.35338

-4.31116 3.67419 -1.08863e-11
3.67419 -0.934794 3.08168e-12
-1.08863e-11 3.08168e-12 -0.853022

-3.29917 3.60967 2.46584e-11
3.60967 0.983869 3.75676e-11
2.46584e-11 3.75676e-11 -0.63388

-5.23247 2.72385 -4.62337e-12
2.72385 -1.13191 2.69668e-12
-4.62337e-12 2.69668e-12 -1.08732

4.59269 1.32953 5.84763e-11
1.32953 -1.26451 7.70863e-12
5.84763e-11 7.70863e-12 1.04109

7.07302 -2.6285 -1.92587e-13
-2.6285 4.76664 -1.0019e-11
-1.92587e-13 -1.0019e-11 4.82408

-0.340896 2.21981 -3.91064e-11
2.21981 -3.42162 -1.42571e-11
-3.91064e-11 -1.42571e-11 -0.973973

2.52672 -2.36456 -1.95103e-13
-2.36456 -2.31931 -6.54958e-12
-1.95103e-13 -6.54958e-12 0.147537

7.19247 -2.27798 1.54175e-11
-2.27798 4.26493 -2.62017e-11
1.54175e-11 -2.62017e-11 4.66278

1.16799 -3.79689 -9.6545e-13
-3.79689 -1.37704 3.4653e-12
-9.6545e-13 3.4653e-12 0.100085

-3.9097 0.096688 -5.77866e-12
0.096688 0.447471 3.85321e-11
-5.77866e-12 3.85321e-11 -0.998646

-5.67968 0.000409288 1.79162e-11
0.000409288 2.81825 -8.09219e-12
1.79162e-11 -8.09219e-12 -0.758963

1.5958 3.23682 2.33136e-11
3.23682 1.88072 9.8257e-12
2.33136e-11 9.8257e-12 1.10957

5.79718 -2.69619 -2.07164e-11
-2.69619 2.02163 4.23901e-11
-2.07164e-11 4.23901e-11 2.89258

-2.70132 -3.93876 1.94569e-11
-3.93876 -1.34674 3.08194e-12
1.94569e-11 3.08194e-12 -0.790233

1.55393 -3.52264 -1.66701e-11
-3.52264 3.37043 4.12298e-11
-1.66701e-11 4.12298e-11 1.32471

1.5186 -3.56147 -3.27556e-11
-3.56147 3.11986 6.35804e-11
-3.27556e-11 6.35804e-11 1.48437

1.72496 1.82215 -4.37305e-11
1.82215 -1.70648 7.51125e-12
-4.37305e-11 7.51125e-12 0.0189382

0.892168 1.15071 2.54294e-11
1.15071 -9.41406 1.32907e-11
2.54294e-11 1.32907e-11 -1.90798

0.78465 -1.81254 7.70336e-12
-1.81254 -7.78711 2.54273e-11
7.70336e-12 2.54273e-11 -1.70565

-0.713439 2.02321 -3.41021e-11
2.02321 3.89645 -3.87257e-11
-3.41021e-11 -3.87257e-11 0.890639

-2.04172 1.38204 3.03409e-11
1.38204 4.37494 -2.96712e-11
3.03409e-11 -2.96712e-11 0.862017

0.278249 -0.294 -2.15769e-11
-0.294 6.37599 8.67047e-12
-2.15769e-11 8.67047e-12 2.37916

-0.305483 -0.391108 -7.71661e-13
-0.391108 6.74283 4.62452e-12
-7.71661e-13 4.62452e-12 2.51583

7.08701 -0.259029 -3.0645e-11
-0.259029 0.437723 -1.50274e-11
-3.0645e-11 -1.50274e-11 2.75276

2.62034 -3.21125 -4.0749e-11
-3.21125 0.753848 -1.77242e-11
-4.0749e-11 -1.77242e-11 1.03042

-10.9885 -2.36585 9.38051e-11
-2.36585 -7.40817 -6.04886e-11
9.38051e-11 -6.04886e-11 -10.3835

-0.966122 -0.94036 -7.74295e-11
-0.94036 -0.937616 4.81521e-11
-7.74295e-11 4.81521e-11 -7.37597

3.67893 2.26305 -9.05402e-12
2.26305 -0.119207 3.73765e-11
-9.05402e-12 3.73765e-11 1.248

4.59647 -1.54364 2.6683e-11
-1.54364 -1.39979 -1.94678e-13
2.6683e-11 -1.94678e-13 0.913302

6.85549 1.41445 -3.64153e-11
1.41445 3.58964 9.8244e-12
-3.64153e-11 9.8244e-12 4.27954

-3.91381 2.32094 1.93614e-11
2.32094 0.895983 2.35041e-11
1.93614e-11 2.35041e-11 -0.328749

3.91808 0.0374972 1.6375e-12
0.0374972 -4.20313 2.31304e-12
1.6375e-12 2.31304e-12 -0.0994728

-4.32591 3.53611 -5.79832e-13
3.53611 -0.175284 -3.98764e-11
-5.79832e-13 -3.98764e-11 -1.32136

-7.07828 2.81004 4.23759e-12
2.81004 0.235192 -1.54214e-12
4.23759e-12 -1.54214e-12 -1.63896

2.85022 1.82161 -8.57477e-12
1.82161 4.81355 1.39643e-11
-8.57477e-12 1.39643e-11 2.67218

4.56294 2.02743 7.03141e-12
2.02743 4.01513 1.657e-11
7.03141e-12 1.657e-11 2.89506

-3.40734 -4.27367 -4.3355e-12
-4.27367 0.774108 2.87053e-11
-4.3355e-12 2.87053e-11 -0.778992

6.91231 1.14286 -8.67558e-12
1.14286 3.45018 -2.35069e-11
-8.67558e-12 -2.35069e-11 4.24029

-5.32009 3.15702 -4.33268e-12
3.15702 -2.13946 1.69506e-11
-4.33268e-12 1.69506e-11 -1.20867

-1.92303 3.8475 -4.87405e-11
3.8475 1.67951 -1.1367e-11
-4.87405e-11 -1.1367e-11 -0.0519649

3.48145 -0.055022 9.68114e-12
-0.055022 -6.14462 -5.58636e-12
9.68114e-12 -5.58636e-12 -0.582839

-4.40579 -2.91635 1.44483e-11
-2.91635 -2.09416 1.65684e-11
1.44483e-11 1.65684e-11 -1.20978

0.417675 3.14823 2.29303e-11
3.14823 0.62263 8.66551e-12
2.29303e-11 8.66551e-12 0.255269

1.34319 -1.54343 2.88973e-11
-1.54343 5.63992 -8.477e-12
2.88973e-11 -8.477e-12 2.0173

0.267013 -1.46931 -1.0401e-11
-1.46931 5.80739 -3.42949e-11
-1.0401e-11 -3.42949e-11 2.00674

5.86453 -1.09531 -5.28875e-11
-1.09531 1.46184 2.42774e-11
-5.28875e-11 2.42774e-11 2.23309

2.13555 -2.88384 -3.32376e-11
-2.88384 2.5593 2.17678e-11
-3.32376e-11 2.17678e-11 1.18191

-2.63186 -0.189676 -6.3539e-12
-0.189676 3.98763 2.38876e-11
-6.3539e-12 2.38876e-11 0.419788

-0.411081 -0.02779 5.97224e-12
-0.02779 3.49664 -2.67781e-11
5.97224e-12 -2.67781e-11 0.607929

3.52915 -3.08835 3.81486e-11
-3.08835 4.94816 -6.35795e-12
3.81486e-11 -6.35795e-12 2.99221

2.64196 -3.00066 1.02156e-11
-3.00066 5.41917 -3.81545e-11
1.02156e-11 -3.81545e-11 3.02734

3.34027 -0.153069 -6.04485e-12
-0.153069 -5.63743 2.58129e-11
-6.04485e-12 2.58129e-11 -0.570851

3.57575 0.158487 -7.70809e-13
0.158487 -5.75044 2.36942e-11
-7.70809e-13 2.36942e-11 -0.583073

-3.09453 2.94207 2.77387e-11
2.94207 -0.247092 5.12458e-11
2.77387e-11 5.12458e-11 -0.403876

-6.86289 -2.47862 -3.08186e-11
-2.47862 0.0807615 -2.62e-11
-3.08186e-11 -2.62e-11 -1.5654

-0.309786 -3.81107 2.83225e-11
-3.81107 -2.42704 -2.54289e-11
2.83225e-11 -2.54289e-11 -0.702097

-2.1267 1.45212 6.13579e-11
1.45212 -3.68609 1.28137e-11
6.13579e-11 1.28137e-11 -2.08012

-1.59948 -0.443059 -2.49234e-11
-0.443059 -3.04358 3.61192e-11
-2.49234e-11 3.61192e-11 -1.99344

0.736278 -1.59051 -3.61709e-11
-1.59051 -1.01714 1.17505e-11
-3.61709e-11 1.17505e-11 -0.432142

0.424495 1.91332 -3.99999e-12
1.91332 -2.13691 5.16281e-11
-3.99999e-12 5.16281e-11 -0.536873

9.15431 -1.59864 -1.36791e-11
-1.59864 5.66049 -1.75355e-11
-1.36791e-11 -1.75355e-11 9.9996

0.943128 3.03261 1.13691e-11
3.03261 2.84963 2.27354e-11
1.13691e-11 2.27354e-11 1.28026

6.94052 1.10325 -1.94215e-13
1.10325 9.23392 -1.3877e-11
-1.94215e-13 -1.3877e-11 10.2164

-1.50365 3.41042 2.42714e-11
3.41042 0.407336 -8.09127e-12
2.42714e-11 -8.09127e-12 -0.280293

-0.899243 -2.39001 2.09055e-11
-2.39001 4.22615 -2.9093e-11
2.09055e-11 -2.9093e-11 0.871321

-2.09276 -2.13063 -1.25221e-11
-2.13063 4.15842 1.88813e-11
-1.25221e-11 1.88813e-11 0.815032

-4.74169 -0.732675 -1.67678e-11
-0.732675 -5.59631 1.56012e-11
-1.67678e-11 1.56012e-11 -5.73995

-5.82898 2.00806 6.32444e-11
2.00806 -3.60185 1.65681e-11
6.32444e-11 1.65681e-11 -5.4934

1.18785 2.26345 7.75528e-13
2.26345 -0.563025 -2.65851e-11
7.75528e-13 -2.65851e-11 0.2425

4.79383 -0.231323 8.08975e-12
-0.231323 -1.73827 -2.11956e-12
8.08975e-12 -2.11956e-12 0.746183

2.85718 2.5362 -1.40663e-11
2.5362 0.51156 3.1206e-11
-1.40663e-11 3.1206e-11 1.20643

-4.99414 -1.46347 3.46755e-12
-1.46347 2.4657 -2.35038e-11
3.46755e-12 -2.35038e-11 -0.606855

-3.35572 -2.41288 -9.24728e-12
-2.41288 0.955169 1.42558e-11
-9.24728e-12 1.42558e-11 -0.766423

-3.63954 -4.38438 1.65662e-11
-4.38438 1.81712 6.93446e-12
1.65662e-11 6.93446e-12 -0.616295

1.33804 -2.43827 3.38135e-11
-2.43827 0.396243 -2.50814e-12
3.38135e-11 -2.50814e-12 0.2662

-3.57952 4.08146 1.67613e-11
4.08146 0.835884 4.97048e-11
1.67613e-11 4.97048e-11 -0.593385

-3.02149 1.88539 -3.39038e-11
1.88539 -0.329864 -1.10778e-11
-3.39038e-11 -1.10778e-11 -1.81072

-2.848 2.85526 -1.32933e-11
2.85526 -1.37886 -4.00682e-11
-1.32933e-11 -4.00682e-11 -1.96144

-2.42213 -3.83906 4.96041e-11
-3.83906 2.0586 2.48498e-11
4.96041e-11 2.48498e-11 -0.203796

-1.83525 3.48588 -4.62497e-12
3.48588 1.50371 -4.02658e-11
-4.62497e-12 -4.02658e-11 -0.102367

-7.23574 4.39078 3.85234e-12
4.39078 -1.10978 -8.09247e-12
3.85234e-12 -8.09247e-12 -1.2976

-3.39192 0.412741 1.24275e-11
0.412741 4.18854 4.54697e-11
1.24275e-11 4.54697e-11 0.384038

-2.07072 0.955823 -1.63747e-11
0.955823 3.2709 -5.20214e-12
-1.63747e-11 -5.20214e-12 0.304515

-1.06878 2.70839 8.66344e-13
2.70839 -1.53191 2.35032e-11
8.66344e-13 2.35032e-11 -0.518398

1.91791 2.27742 -1.75349e-11
2.27742 1.6387 4.85486e-11
-1.75349e-11 4.85486e-11 1.1302

-3.32066 -2.3589 -1.61809e-11
-2.3589 2.1709 -7.70635e-12
-1.61809e-11 -7.70635e-12 -0.0488845

-4.03886 -4.1207 7.80341e-12
-4.1207 0.463168 -1.15599e-11
7.80341e-12 -1.15599e-11 -1.20389

7.86993 1.36626 5.97692e-12
1.36626 9.81176 5.01081e-12
5.97692e-12 5.01081e-12 8.08076

9.33397 1.42437 -2.12956e-11
1.42437 8.22257 2.34922e-11
-2.12956e-11 2.34922e-11 8.03405

3.52238 -3.05107 4.62457e-11
-3.05107 4.27791 -5.85768e-11
4.62457e-11 -5.85768e-11 2.77744

-1.00579 -2.8353 2.08066e-11
-2.8353 -0.651308 2.3502e-11
2.08066e-11 2.3502e-11 -0.556175

3.18774 -0.84749 -1.55538e-11
-0.84749 -3.62739 -2.69633e-12
-1.55538e-11 -2.69633e-12 -0.122029

-7.37289 3.07039 2.07573e-11
3.07039 -5.66238 3.12034e-11
2.07573e-11 3.12034e-11 -9.25935

-4.94915 -3.34094 -6.35314e-11
-3.34094 -9.77323 2.04249e-11
-6.35314e-11 2.04249e-11 -9.60324

-2.29878 -4.19182 -2.77413e-11
-4.19182 2.02724 1.09826e-11
-2.77413e-11 1.09826e-11 -0.155206

-4.14428 0.777799 -2.92806e-11
0.777799 -5.95551 1.73371e-11
-2.92806e-11 1.73371e-11 -4.85923

-2.77716 -3.183 4.00676e-11
-3.183 -2.6694 -1.42526e-11
4.00676e-11 -1.42526e-11 -4.07833

1.81044 -1.10686 -2.73587e-11
-1.10686 -4.34254 -3.85573e-12
-2.73587e-11 -3.85573e-12 -0.259788

-6.40508 -4.35076 4.02614e-11
-4.35076 -1.329 1.07877e-11
4.02614e-11 1.07877e-11 -1.28942

6.23661 -2.66508 -1.92579e-12
-2.66508 7.3798 7.70724e-12
-1.92579e-12 7.70724e-12 6.18456

6.94218 1.9425 -2.31652e-12
1.9425 6.83793 -8.18686e-12
-2.31652e-12 -8.18686e-12 6.11584

3.91539 -1.58853 -1.48385e-11
-1.58853 7.74819 1.04038e-11
-1.48385e-11 1.04038e-11 4.83278

3.83555 -1.74254 7.71194e-12
-1.74254 7.5703 -7.70872e-12
7.71194e-12 -7.70872e-12 4.687

8.13387 -1.32321 1.45404e-11
-1.32321 3.97683 -2.0454e-13
1.45404e-11 -2.0454e-13 4.8796

3.89464 2.357 3.81473e-13
2.357 3.42125 4.75885e-11
3.81473e-13 4.75885e-11 2.55434

-3.75593 -4.66039 1.71454e-11
-4.66039 1.49712 -1.21375e-11
1.71454e-11 -1.21375e-11 -0.634941

4.39282 0.236738 2.69756e-12
0.236738 9.21489 2.428e-11
2.69756e-12 2.428e-11 6.10179

8.75389 -0.706445 1.00196e-11
-0.706445 4.1555 -1.54104e-11
1.00196e-11 -1.54104e-11 5.99583

-4.42553 0.363472 -1.71419e-11
0.363472 0.428173 -1.15763e-12
-1.71419e-11 -1.15763e-12 -3.2887

-4.64855 -1.89604 -4.43079e-12
-1.89604 -2.84491 -4.55569e-11
-4.43079e-12 -4.55569e-11 -3.90865

1.40714 -2.17601 -2.67773e-11
-2.17601 -3.11966 -9.24387e-12
-2.67773e-11 -9.24387e-12 -0.5872

0.885485 -0.135893 8.09177e-12
-0.135893 -9.49845 -1.38695e-11
8.09177e-12 -1.38695e-11 -1.37927

0.339115 -2.33906 4.82455e-12
-2.33906 4.6689 -6.39677e-11
4.82455e-12 -6.39677e-11 1.9371

1.02183 -2.33345 2.55289e-11
-2.33345 4.9679 -1.7726e-11
2.55289e-11 -1.7726e-11 1.92591

2.08956 -0.129395 -1.52212e-11
-0.129395 -4.67514 -2.92788e-11
-1.52212e-11 -2.92788e-11 -0.245939

-2.4006 -3.20483 -3.662e-12
-3.20483 2.33708 2.63948e-11
-3.662e-12 2.63948e-11 -0.0705625

-2.83545 0.0476272 1.95155e-12
0.0476272 -4.42449 -2.71602e-11
1.95155e-12 -2.71602e-11 -3.88181

-4.01415 0.95779 -5.77905e-11
0.95779 -3.42841 -6.62686e-11
-5.77905e-11 -6.62686e-11 -3.82385

0.0461865 -3.01947 1.079e-11
-3.01947 -1.98725 -2.11888e-11
1.079e-11 -2.11888e-11 -0.706035

-2.45142 -3.08444 5.39402e-12
-3.08444 -0.371758 -3.85273e-12
5.39402e-12 -3.85273e-12 -0.395229

1.71443 -2.16845 -2.9671e-11
-2.16845 -5.17525 8.47494e-12
-2.9671e-11 8.47494e-12 -0.733673

-3.28789 -2.71637 -1.77235e-11
-2.71637 0.82932 -3.96844e-11
-1.77235e-11 -3.96844e-11 -0.288626

16.7955 -5.17436 -1.2338e-11
-5.17436 17.2978 5.62694e-11
-1.2338e-11 5.62694e-11 17.2814

-1.69719 -1.19146 3.42922e-11
-1.19146 3.0996 9.24668e-12
3.42922e-11 9.24668e-12 0.322402

-2.92214 -0.897465 2.02265e-11
-0.897465 4.17886 3.89165e-11
2.02265e-11 3.89165e-11 0.46552

-5.99855 -0.437702 3.4864e-11
-0.437702 1.52117 -2.0036e-11
3.4864e-11 -2.0036e-11 -3.84463

-5.35883 -0.517715 -4.43031e-12
-0.517715 -4.12531 -1.02093e-11
-4.43031e-12 -1.02093e-11 -4.68066

2.31416 -0.291118 2.85115e-11
-0.291118 -6.25836 -1.11718e-11
2.85115e-11 -1.11718e-11 -1.24414

1.70628 0.143706 -8.38115e-12
0.143706 -5.89039 2.96657e-11
-8.38115e-12 2.96657e-11 -1.2254

-2.37908 2.26358 -3.94873e-11
2.26358 -3.72248 5.95211e-11
-3.94873e-11 5.95211e-11 -2.1204

-1.03839 -4.06323 -6.47257e-11
-4.06323 -3.52689 1.92583e-12
-6.47257e-11 1.92583e-12 -1.79428

-2.43999 0.809085 7.16576e-11
0.809085 -2.86876 -6.74046e-12
7.16576e-11 -6.74046e-12 -3.34403

-0.671567 -1.44943 5.20104e-11
-1.44943 -2.71888 1.94567e-11
5.20104e-11 1.94567e-11 -3.06437

-6.20588 -1.58325 1.47433e-10
-1.58325 -7.97147 -5.48969e-11
1.47433e-10 -5.48969e-11 -8.2093

-5.67346 4.75361 1.37525e-11
4.75361 -3.60555 -7.89753e-11
1.37525e-11 -7.89753e-11 -7.18949

-4.15543 -4.19743 1.25144e-12
-4.19743 0.252355 3.73718e-11
1.25144e-12 3.73718e-11 -1.32355

-5.99146 5.19611 7.08241e-12
5.19611 -2.52283 2.23478e-11
7.08241e-12 2.23478e-11 -1.74652

1.57986 2.10015 -9.05609e-12
2.10015 -1.82081 -4.89339e-11
-9.05609e-12 -4.89339e-11 0.0537613

-3.14478 -1.79169 9.82627e-12
-1.79169 2.69092 -3.84285e-13
9.82627e-12 -3.84285e-13 0.0277203

-1.16521 -2.71782 -8.76912e-12
-2.71782 2.71759 4.1612e-11
-8.76912e-12 4.1612e-11 0.223521

1.67066 -2.21024 4.22894e-11
-2.21024 -1.32118 -1.86865e-11
4.22894e-11 -1.86865e-11 0.0332674

-0.976674 2.04514 4.60436e-11
2.04514 2.49865 7.31792e-12
4.60436e-11 7.31792e-12 0.269132

-3.04831 1.20738 -5.03776e-11
1.20738 2.97372 3.39069e-11
-5.03776e-11 3.39069e-11 0.133492

0.188764 2.90207 -3.27482e-11
2.90207 0.0485726 7.70132e-12
-3.27482e-11 7.70132e-12 0.276852

-3.73358 3.4818 6.55006e-12
3.4818 -0.792899 2.61997e-11
6.55006e-12 2.61997e-11 -1.39697

-4.26783 -4.65332 -3.85336e-12
-4.65332 -2.38506 3.39057e-11
-3.85336e-12 3.39057e-11 -1.66013

0.558321 -3.55402 2.60108e-11
-3.55402 0.852922 -2.3119e-11
2.60108e-11 -2.3119e-11 0.295427

0.962928 1.02983 -1.04011e-11
1.02983 -3.46659 -3.17849e-11
-1.04011e-11 -3.17849e-11 -0.789104

-1.12047 -1.56989 6.62565e-11
-1.56989 -2.01438 3.89078e-11
6.62565e-11 3.89078e-11 -7.66907

-10.4172 0.955667 2.88886e-12
0.955667 -9.50658 5.46069e-11
2.88886e-12 5.46069e-11 -10.7233

-2.21222 -3.52109 8.28214e-12
-3.52109 1.25978 2.38889e-11
8.28214e-12 2.38889e-11 -0.508541

0.553185 -3.48839 2.83164e-11
-3.48839 -3.16886 1.57973e-11
2.83164e-11 1.57973e-11 -0.690801

0.272363 -0.301593 -5.39189e-12
-0.301593 -3.52104 -1.23291e-11
-5.39189e-12 -1.23291e-11 -1.98359

8.04918 -2.45035 -1.52204e-11
-2.45035 8.99377 3.6593e-12
-1.52204e-11 3.6593e-12 7.56418

8.93486 -2.18713 -5.97315e-12
-2.18713 7.43734 -4.80505e-13
-5.97315e-12 -4.80505e-13 7.30875

1.58936 0.240646 -1.10773e-11
0.240646 -5.84623 -1.07872e-11
-1.10773e-11 -1.07872e-11 -1.66962

0.448479 -0.188918 3.84316e-11
-0.188918 -5.43124 -1.34818e-11
3.84316e-11 -1.34818e-11 -1.73141

0.16999 -0.0456655 1.00173e-11
-0.0456655 -5.73355 -2.1768e-11
1.00173e-11 -2.1768e-11 -2.32497

4.16272 1.487 5.34176e-11
1.487 -0.0693267 -3.47133e-12
5.34176e-11 -3.47133e-12 1.14539

-1.98323 -2.24326 -4.37285e-11
-2.24326 -0.260531 4.62356e-11
-4.37285e-11 4.62356e-11 -1.13316

-2.32561 2.72424 -1.92157e-11
2.72424 -2.2544 -2.11931e-11
-1.92157e-11 -2.11931e-11 -1.34375

-5.91702 -2.492 -4.23826e-11
-2.492 -11.4809 2.99597e-11
-4.23826e-11 2.99597e-11 -10.182

-2.99761 -0.265917 -2.42704e-11
-0.265917 -0.379592 -7.36237e-11
-2.42704e-11 -7.36237e-11 -7.69022

-3.52343 -3.95486 -1.25207e-11
-3.95486 1.32161 6.16577e-12
-1.25207e-11 6.16577e-12 -0.600836

2.21876 -2.77602 6.04955e-11
-2.77602 -2.03145 1.30948e-11
6.04955e-11 1.30948e-11 0.0892932

-0.708759 0.608099 -1.82512e-11
0.608099 -3.00832 1.15575e-10
-1.82512e-11 1.15575e-10 -1.73954

-0.11006 0.0953653 1.47056e-12
0.0953653 -3.58576 3.10131e-11
1.47056e-12 3.10131e-11 -1.84542

-4.00123 -1.59055 -2.46589e-11
-1.59055 0.810193 1.04044e-11
-2.46589e-11 1.04044e-11 -0.727813

-4.88568 -2.91573 1.84942e-11
-2.91573 -1.35419 -3.66024e-12
1.84942e-11 -3.66024e-12 -1.05248

17.5548 4.37558 -1.15785e-12
4.37558 16.8585 -2.67825e-11
-1.15785e-12 -2.67825e-11 17.3236

-3.8527 2.33393 1.56018e-11
2.33393 -0.972493 3.66139e-12
1.56018e-11 3.66139e-12 -1.98278

-3.83352 -3.03761 -3.40943e-11
-3.03761 -1.22847 3.52535e-11
-3.40943e-11 3.52535e-11 -1.99091

-4.73307 -2.75864 -8.66712e-12
-2.75864 0.394685 -3.85988e-13
-8.66712e-12 -3.85988e-13 -0.715199

4.31988 -1.86235 3.15013e-11
-1.86235 0.470473 -1.31013e-11
3.15013e-11 -1.31013e-11 1.12677

-0.504703 2.02353 -5.08594e-11
2.02353 -1.16598 1.36784e-11
-5.08594e-11 1.36784e-11 -0.706643

-1.98525 2.12459 -3.85122e-12
2.12459 -1.63239 -2.21565e-11
-3.85122e-12 -2.21565e-11 -1.58887

-0.528295 -3.27198 -2.60046e-11
-3.27198 -3.27727 6.55213e-12
-2.60046e-11 6.55213e-12 -1.57019

1.27969 0.81743 -3.6602e-11
0.81743 -5.75475 9.24827e-12
-3.6602e-11 9.24827e-12 -0.928232

-1.38587 -0.376995 3.03187e-11
-0.376995 -3.67715 -1.19413e-11
3.03187e-11 -1.19413e-11 -2.64506

-0.544185 0.59031 1.62888e-11
0.59031 -5.08331 1.52176e-11
1.62888e-11 1.52176e-11 -2.83852

-7.08209 1.08471 8.66884e-12
1.08471 0.196292 2.65784e-11
8.66884e-12 2.65784e-11 -7.12013

-8.39973 0.205269 8.39823e-11
0.205269 -4.0723 -9.34119e-12
8.39823e-11 -9.34119e-12 -7.97426

9.92011 -1.11936 2.02312e-11
-1.11936 7.05739 1.19472e-11
2.02312e-11 1.19472e-11 10.449

6.00573 -0.743796 1.36892e-11
-0.743796 10.252 -5.08752e-11
1.36892e-11 -5.08752e-11 10.3243

-2.88599 -3.48286 -5.22028e-11
-3.48286 1.32389 -1.1363e-11
-5.22028e-11 -1.1363e-11 -0.734918

-3.46513 3.02086 -1.50741e-11
3.02086 -1.55943 2.61975e-11
-1.50741e-11 2.61975e-11 -1.04258

-3.44203 -4.66063 8.09146e-12
-4.66063 1.66236 -6.16499e-12
8.09146e-12 -6.16499e-12 -0.545136

10.9841 1.19298 -2.06179e-11
1.19298 10.8144 1.17538e-11
-2.06179e-11 1.17538e-11 12.0296

11.0525 1.7989 2.312e-11
1.7989 9.87221 -1.58011e-11
2.312e-11 -1.58011e-11 11.7014

-15.4159 3.81097 -4.69642e-11
3.81097 -3.27554 1.24825e-10
-4.69642e-11 1.24825e-10 -10.7609

-11.2733 -3.00639 2.74691e-11
-3.00639 -5.54459 3.79452e-11
2.74691e-11 3.79452e-11 -10.3915

-1.42674 2.81613 -9.63322e-12
2.81613 -1.30527 -5.00518e-12
-9.63322e-12 -5.00518e-12 -0.78324

-0.268607 -3.36065 -6.64609e-12
-3.36065 1.71618 9.82436e-12
-6.64609e-12 9.82436e-12 0.263906

-2.78088 -3.33849 -3.33762e-11
-3.33849 -0.248362 1.31031e-11
-3.33762e-11 1.31031e-11 -1.01217

-2.85318 3.36065 -2.67314e-11
3.36065 -1.58415 -5.70277e-11
-2.67314e-11 -5.70277e-11 -0.979591

-1.8334 -3.89836 2.36957e-11
-3.89836 1.27637 -9.63378e-12
2.36957e-11 -9.63378e-12 -0.243542

-0.586613 2.7099 1.03034e-11
2.7099 0.872896 -3.54536e-11
1.03034e-11 -3.54536e-11 0.293184

3.09403 -1.42143 -2.94797e-11
-1.42143 7.35044 2.31141e-12
-2.94797e-11 2.31141e-12 4.45131

4.17257 -1.22274 -1.29126e-11
-1.22274 7.5955 5.12527e-11
-1.29126e-11 5.12527e-11 4.7121

7.99767 -0.995338 6.34931e-11
-0.995338 3.97773 -2.67854e-11
6.34931e-11 -2.67854e-11 4.79203

-2.34087 3.04072 7.89587e-12
3.04072 0.0592381 -3.85333e-12
7.89587e-12 -3.85333e-12 -0.275037

4.64089 -0.156578 2.31191e-12
-0.156578 9.2061 -1.65724e-11
2.31191e-12 -1.65724e-11 6.32198

9.12362 0.311466 6.50329e-11
0.311466 5.23516 -4.61961e-12
6.50329e-11 -4.61961e-12 6.40142

-3.70605 -3.18645 2.06603e-11
-3.18645 -0.63952 -4.43129e-12
2.06603e-11 -4.43129e-12 -1.70862

-3.79079 3.871 4.37756e-11
3.871 -2.83512 2.15766e-11
4.37756e-11 2.15766e-11 -1.81832

-3.82926 -2.53784 1.14152e-11
-2.53784 -0.916042 -4.21912e-11
1.14152e-11 -4.21912e-11 -1.99957

-3.84561 3.42386 5.32184e-11
3.42386 -1.61831 1.77295e-11
5.32184e-11 1.77295e-11 -1.88564

10.8947 -2.28392 2.63974e-11
-2.28392 11.2345 5.00903e-12
2.63974e-11 5.00903e-12 12.3764

10.8179 -2.22675 -5.17413e-11
-2.22675 11.4327 2.4661e-11
-5.17413e-11 2.4661e-11 12.4172

-1.41733 2.83611 2.88968e-11
2.83611 -0.789348 2.04239e-11
2.88968e-11 2.04239e-11 -0.383044

-1.18079 -3.0776 2.20599e-11
-3.0776 1.06311 -3.39051e-11
2.20599e-11 -3.39051e-11 -0.261752

-4.95906 -0.802182 -7.31924e-12
-0.802182 -1.36681 3.77545e-11
-7.31924e-12 3.77545e-11 -4.92094

-5.88137 -0.96099 2.44659e-11
-0.96099 -5.09093 -9.00544e-11
2.44659e-11 -9.00544e-11 -5.66184

-4.65861 -3.31589 2.33559e-11
-3.31589 0.382195 2.79315e-11
2.33559e-11 2.79315e-11 -1.81671

-5.70402 3.54596 1.9504e-11
3.54596 -0.940259 6.93515e-12
1.9504e-11 6.93515e-12 -1.91538

-2.25281 -0.0456082 -5.32348e-12
-0.0456082 -6.21605 4.0262e-11
-5.32348e-12 4.0262e-11 -3.61961

-3.42814 0.752311 -6.99737e-11
0.752311 -5.54283 6.24077e-11
-6.99737e-11 6.24077e-11 -3.63064

-2.52888 3.15313 -9.8251e-12
3.15313 -0.279738 -1.75293e-11
-9.8251e-12 -1.75293e-11 -0.923468

-1.95409 -3.34114 1.96502e-11
-3.34114 -1.83685 5.77825e-12
1.96502e-11 5.77825e-12 -0.988919

-8.11664 -1.37755 -7.70517e-12
-1.37755 -3.59979 4.78686e-11
-7.70517e-12 4.78686e-11 -6.73518

-4.96268 1.34044 -2.81231e-11
1.34044 -6.74926 -1.59906e-11
-2.81231e-11 -1.59906e-11 -6.70178

-2.07952 -3.26197 3.31298e-11
-3.26197 -4.5047 6.202e-11
3.31298e-11 6.202e-11 -5.88434

-7.42769 -0.574848 -3.08158e-11
-0.574848 0.133144 -3.85164e-12
-3.08158e-11 -3.85164e-12 -6.01639

-5.2627 0.917535 2.45144e-11
0.917535 -6.14066 -2.83439e-11
2.45144e-11 -2.83439e-11 -6.14804

-9.83755 0.11793 -6.39143e-11
0.11793 -5.97564 1.96462e-11
-6.39143e-11 1.96462e-11 -8.50631

-3.62962 -1.00413 2.11854e-12
-1.00413 -7.1318 1.54473e-11
2.11854e-12 1.54473e-11 -6.06958

-6.67495 -0.371047 5.76085e-11
-0.371047 -8.57088 2.86995e-11
5.76085e-11 2.86995e-11 -8.42222

-9.08926 -1.81494 -7.05339e-11
-1.81494 -7.24977 -1.41775e-10
-7.05339e-11 -1.41775e-10 -8.88074

-6.63306 4.37521 -6.17777e-11
4.37521 -2.8859 -2.69295e-10
-6.17777e-11 -2.69295e-10 -7.40414

0.146304 1.25839 -6.54721e-10
1.25839 -0.764019 3.72466e-10
-6.54721e-10 3.72466e-10 -7.67548

1.69908 -2.09019 1.55196e-10
-2.09019 -14.644 -3.31476e-10
1.55196e-10 -3.31476e-10 -10.1194

-5.44043 -2.36057 3.4633e-12
-2.36057 -5.68131 1.50229e-11
3.4633e-12 1.50229e-11 -6.57253

-4.42973 -1.73681 -3.578e-11
-1.73681 -1.48043 2.27334e-11
-3.578e-11 2.27334e-11 -3.38234

-3.69671 4.08307 -5.05929e-13
4.08307 -5.09749 3.04334e-11
-5.05929e-13 3.04334e-11 -5.95276

-4.03983 2.29054 -1.12696e-11
2.29054 -2.68576 -3.85504e-12
-1.12696e-11 -3.85504e-12 -3.29404

-6.87573 4.67548 4.25642e-11
4.67548 -2.80818 1.0789e-11
4.25642e-11 1.0789e-11 -8.16363

-8.44035 -0.50335 4.26748e-11
-0.50335 -9.54278 1.43888e-10
4.26748e-11 1.43888e-10 -9.84303

-5.96998 -1.54652 -6.28449e-11
-1.54652 -3.57402 2.04218e-11
-6.28449e-11 2.04218e-11 -4.67593

-5.35422 -0.92802 2.99661e-11
-0.92802 -5.48623 8.5332e-11
2.99661e-11 8.5332e-11 -6.21053

-4.75572 3.83002 2.79336e-11
3.83002 -2.5287 6.08721e-11
2.79336e-11 6.08721e-11 -4.07223

-6.73785 2.53973 5.51116e-11
2.53973 -4.36223 6.27984e-11
5.51116e-11 6.27984e-11 -6.18653

-4.15503 0.895124 7.12583e-12
0.895124 2.20523 -7.70643e-12
7.12583e-12 -7.70643e-12 -0.604773

-0.579458 -0.346005 -4.54635e-11
-0.346005 1.23103 1.19413e-11
-4.54635e-11 1.19413e-11 -0.210406

3.67491 0.858588 2.51412e-11
0.858588 -3.37488 6.55052e-12
2.51412e-11 6.55052e-12 0.0214707

4.95136 0.207752 -1.11278e-11
0.207752 -1.57512 -5.39383e-12
-1.11278e-11 -5.39383e-12 0.802534

-7.00918 1.01344 3.08261e-12
1.01344 1.42404 -2.4272e-11
3.08261e-12 -2.4272e-11 -2.09164

-3.57994 0.262296 -7.51231e-12
0.262296 -0.975522 2.08067e-11
-7.51231e-12 2.08067e-11 -1.69814

4.89985 -0.33103 -1.84976e-11
-0.33103 -1.74618 -1.15806e-12
-1.84976e-11 -1.15806e-12 0.788018

2.87284 -0.197768 -5.04763e-13
-0.197768 -4.88963 7.71346e-13
-5.04763e-13 7.71346e-13 -0.589414

1.86775 -1.98635 9.7304e-12
-1.98635 6.26565 3.84507e-13
9.7304e-12 3.84507e-13 3.24126

2.76381 3.21775 -3.17846e-12
3.21775 6.19707 -2.96716e-11
-3.17846e-12 -2.96716e-11 2.96527

5.59535 3.04552 -1.2908e-11
3.04552 2.30264 -4.62149e-12
-1.2908e-11 -4.62149e-12 3.11293

-2.06972 3.68164 -3.06277e-11
3.68164 0.143333 5.77897e-12
-3.06277e-11 5.77897e-12 -1.35309

-3.38204 -1.24867 1.85876e-11
-1.24867 0.354023 -8.47448e-12
1.85876e-11 -8.47448e-12 -1.68291

0.266781 3.13656 -4.01175e-11
3.13656 1.9256 3.26909e-12
-4.01175e-11 3.26909e-12 0.226383

-4.08163 2.76943 1.12698e-11
2.76943 -0.359264 1.73383e-11
1.12698e-11 1.73383e-11 -1.7728

-7.31648 -0.99607 -6.16353e-12
-0.99607 1.59562 -8.86191e-12
-6.16353e-12 -8.86191e-12 -2.127

2.83637 -0.617703 3.08442e-12
-0.617703 -3.91248 2.35049e-11
3.08442e-12 2.35049e-11 0.0362269

1.95455 1.46833 -2.00383e-11
1.46833 6.48823 -1.5029e-11
-2.00383e-11 -1.5029e-11 2.33797

0.493473 -0.38388 -2.02331e-12
-0.38388 6.44892 -6.93549e-12
-2.02331e-12 -6.93549e-12 2.34973

6.43792 1.49639 -3.27257e-12
1.49639 1.43056 -2.7361e-11
-3.27257e-12 -2.7361e-11 2.588

4.35672 -1.55173 -1.93632e-11
-1.55173 -0.878457 1.54399e-12
-1.93632e-11 1.54399e-12 1.06476

-0.882097 2.67175 -2.46623e-11
2.67175 3.36106 -1.93216e-12
-2.46623e-11 -1.93216e-12 0.84659

1.56621 -2.02914 -3.87174e-11
-2.02914 3.08846 -3.52563e-11
-3.87174e-11 -3.52563e-11 1.01016

3.66496 -0.999414 -1.21849e-11
-0.999414 -3.73456 -1.30992e-11
-1.21849e-11 -1.30992e-11 -0.000632768

6.2227 2.02212 1.30975e-11
2.02212 8.54105 1.65739e-11
1.30975e-11 1.65739e-11 5.48681

2.84458 0.211884 -1.22765e-12
0.211884 -5.13004 -9.05392e-12
-1.22765e-12 -9.05392e-12 -0.652398

8.19505 2.18445 -1.05977e-11
2.18445 6.05099 -2.27414e-11
-1.05977e-11 -2.27414e-11 5.7607

-3.99018 0.240833 3.85269e-12
0.240833 0.829884 6.93453e-12
3.85269e-12 6.93453e-12 -2.24086

-1.90324 1.26818 1.77205e-11
1.26818 -0.728046 2.60048e-11
1.77205e-11 2.60048e-11 -1.75222

-5.99115 -3.26013 2.3718e-11
-3.26013 -5.65301 -1.42559e-11
2.3718e-11 -1.42559e-11 -7.20017

-4.69145 1.41804 -2.66298e-11
1.41804 -6.95713 -3.87192e-11
-2.66298e-11 -3.87192e-11 -7.22457

6.8314 -0.464041 -4.81407e-12
-0.464041 1.71919 -6.54784e-12
-4.81407e-12 -6.54784e-12 2.69263

-0.730125 3.81803 -1.67601e-11
3.81803 1.40052 -2.23476e-11
-1.67601e-11 -2.23476e-11 -0.041666

-1.69513 0.568093 1.3231e-11
0.568093 -2.43283 -2.50315e-12
1.3231e-11 -2.50315e-12 -2.46302

-3.00861 -1.73781 2.3754e-11
-1.73781 -3.36691 1.57974e-11
2.3754e-11 1.57974e-11 -2.80891

3.49947 -0.227438 1.04025e-11
-0.227438 -5.62444 1.38699e-11
1.04025e-11 1.38699e-11 -0.609973

-1.02058 3.15744 2.60065e-11
3.15744 2.1526 2.312e-12
2.60065e-11 2.312e-12 0.59728

0.490288 -2.87878 -8.47789e-12
-2.87878 2.75172 2.27329e-11
-8.47789e-12 2.27329e-11 0.778702

3.79059 -2.03123 -8.66344e-13
-2.03123 0.414007 -2.77475e-11
-8.66344e-13 -2.77475e-11 1.18671

3.44998 -0.482058 -3.13133e-12
-0.482058 -5.57297 -3.46694e-12
-3.13133e-12 -3.46694e-12 -0.473759

0.259752 3.7234 3.83388e-11
3.7234 4.02905 1.50301e-11
3.83388e-11 1.50301e-11 0.869407

-0.956616 -2.56855 -2.76487e-11
-2.56855 2.34369 2.8897e-11
-2.76487e-11 2.8897e-11 0.650575

0.293752 3.44382 1.34887e-12
3.44382 3.93202 1.00153e-11
1.34887e-12 1.00153e-11 0.834527

-1.35029 -2.06382 6.71019e-13
-2.06382 3.70672 4.00734e-11
6.71019e-13 4.00734e-11 0.823844

-0.899482 -1.70792 -6.16392e-12
-1.70792 0.536421 1.50263e-11
-6.16392e-12 1.50263e-11 -0.212521

-4.67066 2.40067 -1.09798e-11
2.40067 1.34137 -1.34865e-11
-1.09798e-11 -1.34865e-11 -0.535608

2.91633 -2.9948 1.54138e-11
-2.9948 1.69457 6.74064e-12
1.54138e-11 6.74064e-12 1.5196

16.8556 -2.65035 -6.93608e-12
-2.65035 16.4765 9.24712e-12
-6.93608e-12 9.24712e-12 16.6368

16.002 -2.84803 1.79161e-11
-2.84803 17.4308 7.43794e-11
1.79161e-11 7.43794e-11 16.8441

-3.72566 4.46361 6.2604e-12
4.46361 1.00891 -1.92143e-13
6.2604e-12 -1.92143e-13 -1.0904

-6.72968 -2.90986 2.01311e-11
-2.90986 0.205983 4.2378e-12
2.01311e-11 4.2378e-12 -1.64697

10.0988 -0.572495 2.89078e-11
-0.572495 10.1267 2.85173e-11
2.89078e-11 2.85173e-11 11.2117

9.98786 -0.614279 -1.36798e-11
-0.614279 10.4304 1.07886e-11
-1.36798e-11 1.07886e-11 10.9535

-0.642663 2.55397 8.85821e-12
2.55397 -3.3545 -5.00557e-12
8.85821e-12 -5.00557e-12 -2.48282

0.138831 -1.94524 1.19313e-11
-1.94524 -3.68445 6.81934e-11
1.19313e-11 6.81934e-11 -1.78235

1.52202 -0.0884132 1.00167e-11
-0.0884132 -4.95219 2.08069e-11
1.00167e-11 2.08069e-11 -0.349057

-1.19503 3.5892 -1.04062e-11
3.5892 -3.8263 -8.8615e-12
-1.04062e-11 -8.8615e-12 -2.74028

-0.108315 -2.59072 1.9266e-11
-2.59072 -5.32834 -4.02546e-11
1.9266e-11 -4.02546e-11 -2.15258

-3.16166 2.535 -2.11899e-11
2.535 2.20348 1.03973e-11
-2.11899e-11 1.03973e-11 0.025859

-1.03304 -2.00028 -2.92811e-11
-2.00028 2.03084 -2.81254e-11
-2.92811e-11 -2.81254e-11 0.127186

-3.0193 1.25256 -2.57641e-11
1.25256 -6.80087 -4.07711e-13
-2.57641e-11 -4.07711e-13 -5.741

-4.73918 -1.64758 -1.16043e-11
-1.64758 -5.85476 -1.51821e-11
-1.16043e-11 -1.51821e-11 -5.86647

-0.500328 3.87151 3.08255e-11
3.87151 -3.11424 -9.68126e-12
3.08255e-11 -9.68126e-12 -1.23904

0.61051 -3.06108 -1.52175e-11
-3.06108 -3.46806 1.88664e-13
-1.52175e-11 1.88664e-13 -0.884038

6.14099 -2.06992 -9.63637e-12
-2.06992 2.82098 2.30756e-12
-9.63637e-12 2.30756e-12 3.44552

-6.50309 -0.106131 -2.73523e-11
-0.106131 0.152896 2.35004e-11
-2.73523e-11 2.35004e-11 -5.00823

-4.94996 0.776167 -3.1782e-11
0.776167 -2.78558 7.22119e-12
-3.1782e-11 7.22119e-12 -4.00554

4.85604 -0.364928 6.41643e-11
-0.364928 8.69421 -7.89963e-11
6.41643e-11 -7.89963e-11 5.8708

8.67624 -0.453624 -1.55983e-11
-0.453624 5.38286 1.15582e-11
-1.55983e-11 1.15582e-11 5.97813

-5.07518 2.15061 7.51331e-12
2.15061 1.70874 5.78311e-12
7.51331e-12 5.78311e-12 -0.644829

-2.18357 -1.25616 -5.20358e-12
-1.25616 1.2005 3.2554e-11
-5.20358e-12 3.2554e-11 -0.39116

-1.94835 -0.743396 1.25566e-10
-0.743396 0.594556 1.30985e-10
1.25566e-10 1.30985e-10 -7.96109

-1.72234 -2.36545 -5.31539e-11
-2.36545 -8.87735 4.37099e-11
-5.31539e-11 4.37099e-11 -7.24235

1.11531 3.43924 -3.46783e-11
3.43924 -3.80352 2.81242e-11
-3.46783e-11 2.81242e-11 -0.629103

1.61665 -2.26797 -1.34832e-11
-2.26797 -4.10208 -1.44491e-11
-1.34832e-11 -1.44491e-11 -0.467291

6.7811 0.0575064 1.71467e-11
0.0575064 1.21614 -3.25586e-11
1.71467e-11 -3.25586e-11 2.62063

3.98818 0.111501 -1.34892e-12
0.111501 -1.94629 -1.15595e-12
-1.34892e-12 -1.15595e-12 0.747261

5.37568 1.67162 2.09072e-11
1.67162 -0.195935 -1.54124e-11
2.09072e-11 -1.54124e-11 1.41345

-1.08121 0.61176 2.0899e-11
0.61176 -5.17183 2.06111e-11
2.0899e-11 2.06111e-11 -2.45924

-12.5154 -1.21498 2.47783e-11
-1.21498 -5.29356 -3.08078e-12
2.47783e-11 -3.08078e-12 -9.65736

-8.89515 0.624045 9.88277e-11
0.624045 -8.36576 -7.10762e-11
9.88277e-11 -7.10762e-11 -9.53867

4.07053 2.90147 -1.4449e-11
2.90147 5.22312 -3.02495e-11
-1.4449e-11 -3.02495e-11 2.66051

0.44333 -2.51723 -3.69906e-11
-2.51723 -0.927409 2.19597e-11
-3.69906e-11 2.19597e-11 0.0488519

2.37391 2.75902 -1.3098e-11
2.75902 -2.7777 2.00312e-11
-1.3098e-11 2.00312e-11 0.0397396

-6.53574 1.18158 -1.84916e-11
1.18158 -4.25085 4.56481e-11
-1.84916e-11 4.56481e-11 -5.44986

-6.25553 1.75119 -7.24242e-11
1.75119 -0.580016 1.92217e-12
-7.24242e-11 1.92217e-12 -6.23708

-2.11842 -1.45936 9.84809e-12
-1.45936 -4.74081 -7.69977e-13
9.84809e-12 -7.69977e-13 -2.56177

-1.11987 2.26581 9.48686e-14
2.26581 1.70327 1.86862e-11
9.48686e-14 1.86862e-11 -0.322369

-4.52124 -0.411735 6.45337e-12
-0.411735 2.40815 1.27141e-11
6.45337e-12 1.27141e-11 -0.71164

1.36994 1.70952 2.00379e-11
1.70952 -6.25946 -2.42697e-11
2.00379e-11 -2.42697e-11 -0.778032

1.60275 -0.34404 -5.00999e-12
-0.34404 -6.73659 7.89426e-12
-5.00999e-12 7.89426e-12 -0.697971

5.52292 -2.25286 -7.71242e-12
-2.25286 4.07745 6.1844e-11
-7.71242e-12 6.1844e-11 3.001

0.763213 3.08514 1.10663e-12
3.08514 -5.43639 2.46546e-11
1.10663e-12 2.46546e-11 -1.42887

1.08003 -1.94819 3.37412e-12
-1.94819 -6.66017 1.32933e-11
3.37412e-12 1.32933e-11 -1.24663

2.40933 -1.50647 3.8561e-12
-1.50647 -2.58696 -1.5794e-11
3.8561e-12 -1.5794e-11 0.122315

1.12074 2.24013 1.00174e-11
2.24013 -4.50729 3.48659e-11
1.00174e-11 3.48659e-11 -0.775006

0.903052 -1.14175 -7.32155e-12
-1.14175 -4.9835 -4.43212e-12
-7.32155e-12 -4.43212e-12 -0.701063

2.6304 -0.958955 -1.46854e-11
-0.958955 -2.64729 -1.92631e-11
-1.46854e-11 -1.92631e-11 -0.0380368

-3.34549 4.03387 4.04295e-12
4.03387 -1.3794 2.0036e-11
4.04295e-12 2.0036e-11 -0.825815

0.404656 -3.46155 2.19632e-11
-3.46155 -1.27566 -1.73347e-11
2.19632e-11 -1.73347e-11 -0.307869

3.37154 2.71832 9.63141e-12
2.71832 2.40577 2.52395e-11
9.63141e-12 2.52395e-11 1.28877

-1.99938 -2.53272 3.94902e-11
-2.53272 -0.117721 -3.69844e-11
3.94902e-11 -3.69844e-11 -0.519758

-5.15729 2.81187 -7.70561e-12
2.81187 -1.25604 -1.61837e-11
-7.70561e-12 -1.61837e-11 -1.11511

4.21011 2.48201 -7.89931e-12
2.48201 -1.24353 -1.54111e-11
-7.89931e-12 -1.54111e-11 1.07043

-0.831924 -2.21866 8.18553e-12
-2.21866 -3.05186 -6.5478e-12
8.18553e-12 -6.5478e-12 -0.979849

3.2156 0.929604 5.77649e-12
0.929604 -1.46129 -7.89853e-12
5.77649e-12 -7.89853e-12 0.226383

1.75693 3.53941 4.66237e-11
3.53941 2.36879 1.77292e-11
4.66237e-11 1.77292e-11 1.04379

1.09975 2.85758 -3.03912e-11
2.85758 -0.488169 2.19585e-11
-3.03912e-11 2.19585e-11 0.0136981

-3.09706 1.13733 -3.27637e-12
1.13733 1.37549 -1.75317e-11
-3.27637e-12 -1.75317e-11 -0.675847

-5.8767 0.319463 -1.00172e-11
0.319463 2.92021 -5.78167e-12
-1.00172e-11 -5.78167e-12 -0.744757

6.34748 -2.17578 8.00656e-12
-2.17578 1.92878 -5.60647e-11
8.00656e-12 -5.60647e-11 3.08796

-4.50374 -3.95053 -2.11734e-12
-3.95053 -1.29624 -3.00537e-11
-2.11734e-12 -3.00537e-11 -0.97939

-3.00459 4.33421 -2.44164e-11
4.33421 1.1258 -1.92861e-12
-2.44164e-11 -1.92861e-12 -0.745469

2.98077 -3.19981 -2.11899e-11
-3.19981 3.28968 -1.05981e-11
-2.11899e-11 -1.05981e-11 1.59894

1.37222 3.85352 -9.63111e-12
3.85352 3.32377 -1.27173e-11
-9.63111e-12 -1.27173e-11 1.48077

1.96085 -1.79237 -1.03101e-11
-1.79237 -1.9944 1.82943e-12
-1.03101e-11 1.82943e-12 -0.00881566

1.02495 -0.461666 -4.1901e-11
-0.461666 -6.22414 4.04523e-11
-4.1901e-11 4.04523e-11 -1.48683

2.04358 0.133336 -8.76525e-12
0.133336 -6.36548 -1.30984e-11
-8.76525e-12 -1.30984e-11 -1.34622

0.119059 -3.00183 -2.76477e-11
-3.00183 0.646781 -1.35299e-12
-2.76477e-11 -1.35299e-12 0.357048

0.824899 0.614742 9.24943e-12
0.614742 6.91007 -2.08101e-11
9.24943e-12 -2.08101e-11 2.51919

-0.302512 0.527932 2.09998e-11
0.527932 6.93463 2.31245e-12
2.09998e-11 2.31245e-12 2.57747

6.73856 0.558484 1.792e-11
0.558484 0.447272 1.92694e-11
1.792e-11 1.92694e-11 2.76175

4.6206 3.18926 -5.81461e-13
3.18926 3.87656 5.78145e-12
-5.81461e-13 5.78145e-12 2.86723

3.58764 -3.13088 1.67555e-11
-3.13088 0.529392 2.90917e-11
1.67555e-11 2.90917e-11 1.24312

-9.73598 3.57345 2.7349e-11
3.57345 -5.30375 2.34061e-11
2.7349e-11 2.34061e-11 -7.78482

-1.08005 -0.939167 6.68344e-11
-0.939167 -0.887002 1.84917e-11
6.68344e-11 1.84917e-11 -7.26466

4.5917 -1.06294 -4.62215e-12
-1.06294 -1.54696 -7.32146e-12
-4.62215e-12 -7.32146e-12 1.02883

-3.65871 2.81856 9.44019e-12
2.81856 0.547763 -1.00183e-11
9.44019e-12 -1.00183e-11 -0.371736

-0.275282 -3.18585 -1.67545e-11
-3.18585 0.819827 -3.04364e-11
-1.67545e-11 -3.04364e-11 0.0330661

2.04634 1.45926 2.69755e-12
1.45926 -4.7445 -6.43385e-11
2.69755e-12 -6.43385e-11 -0.238959

-0.194113 2.97639 -8.66039e-13
2.97639 4.72947 1.98434e-11
-8.66039e-13 1.98434e-11 1.0005

-2.19083 -1.32401 -2.4124e-12
-1.32401 4.3854 5.54861e-11
-2.4124e-12 5.54861e-11 0.846098

-7.07277 2.99607 -1.96499e-11
2.99607 0.208512 -3.62177e-11
-1.96499e-11 -3.62177e-11 -1.63415

-2.20253 -1.23671 1.6758e-11
-1.23671 -0.421175 -1.54097e-11
1.6758e-11 -1.54097e-11 -0.796602

-4.61883 3.03197 1.96505e-11
3.03197 -2.20799 -2.30999e-12
1.96505e-11 -2.30999e-12 -1.16561

-1.08769 -3.07114 3.56363e-11
-3.07114 -0.725781 2.02265e-11
3.56363e-11 2.02265e-11 -0.464219

1.13421 0.245467 -5.20152e-11
0.245467 -10.3541 -1.84963e-11
-5.20152e-11 -1.84963e-11 -1.35027

2.86976 3.86569 -4.81652e-12
3.86569 0.738691 1.88813e-11
-4.81652e-12 1.88813e-11 1.28328

-3.25375 4.62765 5.34546e-12
4.62765 2.21526 -3.27479e-12
5.34546e-12 -3.27479e-12 -0.581784

-5.52649 -3.43026 -9.53772e-12
-3.43026 -2.4611 2.46581e-11
-9.53772e-12 2.46581e-11 -1.3192

1.81709 3.27416 2.04233e-11
3.27416 1.39222 -1.81098e-11
2.04233e-11 -1.81098e-11 1.07186

3.47455 -1.98949 -3.40055e-11
-1.98949 5.35211 -9.82436e-12
-3.40055e-11 -9.82436e-12 3.02445

-2.41953 -2.98568 -1.66602e-11
-2.98568 -0.377452 -4.46952e-11
-1.66602e-11 -4.46952e-11 -0.405951

2.29533 -0.636106 -1.61785e-11
-0.636106 5.99877 -5.08679e-11
-1.61785e-11 -5.08679e-11 2.22321

0.322819 1.69428 7.89896e-12
1.69428 6.04203 -2.31008e-12
7.89896e-12 -2.31008e-12 2.07993

5.87773 -0.652406 1.52255e-11
-0.652406 1.45807 -7.70247e-12
1.52255e-11 -7.70247e-12 2.35759

2.79656 -2.80718 2.19574e-11
-2.80718 2.10156 -7.32007e-12
2.19574e-11 -7.32007e-12 1.26128

-2.83804 0.462467 -9.43921e-12
0.462467 4.26583 -2.11955e-11
-9.43921e-12 -2.11955e-11 0.458263

0.310829 0.645468 1.3292e-11
0.645468 3.83664 1.5217e-11
1.3292e-11 1.5217e-11 0.728331

4.39679 -2.6588 -1.88832e-11
-2.6588 5.17881 3.64138e-11
-1.88832e-11 3.64138e-11 3.22537

2.8785 3.30559 -1.09862e-11
3.30559 5.10488 1.84953e-11
-1.09862e-11 1.84953e-11 3.00233

-0.045709 0.636062 3.08438e-12
0.636062 -6.82179 -3.62138e-11
3.08438e-12 -3.62138e-11 -1.07499

-0.228897 0.00573898 -3.62171e-11
0.00573898 -7.48852 -1.88811e-11
-3.62171e-11 -1.88811e-11 -1.10442

-2.24268 3.37262 1.17527e-11
3.37262 -0.543461 3.85766e-13
1.17527e-11 3.85766e-13 -0.33868

-0.0996772 -2.80048 3.27619e-12
-2.80048 0.639084 -1.25238e-11
3.27619e-12 -1.25238e-11 0.0292739

-3.71417 4.57173 1.11717e-11
4.57173 1.43363 4.62523e-12
1.11717e-11 4.62523e-12 -0.919659

-7.49671 -2.5967 -2.29252e-11
-2.5967 0.0830703 2.92813e-11
-2.29252e-11 2.92813e-11 -1.57526

-1.86085 3.01158 2.87993e-11
3.01158 -0.697494 6.93553e-12
2.87993e-11 6.93553e-12 -0.921437

7.40968 1.88105 -4.20092e-11
1.88105 4.07077 2.31196e-11
-4.20092e-11 2.31196e-11 4.3518

0.0340234 -1.71158 -7.32492e-12
-1.71158 4.25992 -2.12134e-12
-7.32492e-12 -2.12134e-12 1.00568

-2.08346 2.30823 1.56029e-11
2.30823 4.3009 9.24964e-12
1.56029e-11 9.24964e-12 0.861725

0.28199 2.75494 3.31353e-11
2.75494 -4.30336 1.39631e-11
3.31353e-11 1.39631e-11 -1.76978

0.73156 -1.58232 -5.38884e-12
-1.58232 -4.53759 -3.24563e-11
-5.38884e-12 -3.24563e-11 -1.31063

2.10313 -2.62062 5.31738e-11
-2.62062 -0.456419 -2.119e-11
5.31738e-11 -2.119e-11 0.366495

1.14463 3.25454 -3.00489e-11
3.25454 -2.66319 -1.079e-11
-3.00489e-11 -1.079e-11 -0.499582

1.40886 -2.27384 -3.44786e-11
-2.27384 -2.2571 1.50228e-11
-3.44786e-11 1.50228e-11 -0.280168

9.89898 -0.865952 2.91007e-11
-0.865952 5.90487 -1.15591e-11
2.91007e-11 -1.15591e-11 10.3636

5.95717 -1.07418 -1.58011e-11
-1.07418 9.64936 1.5413e-11
-1.58011e-11 1.5413e-11 10.5021

-0.847812 3.67004 -2.19585e-11
3.67004 -4.20541 7.93538e-11
-2.19585e-11 7.93538e-11 -4.75033

-0.166037 -2.58063 -7.24152e-11
-2.58063 -7.07369 -3.15887e-11
-7.24152e-11 -3.15887e-11 -3.89148

1.58559 3.57716 3.94951e-11
3.57716 -0.918122 -1.926e-11
3.94951e-11 -1.926e-11 0.254463

7.7305 1.70217 -4.18138e-11
1.70217 3.64184 -6.742e-12
-4.18138e-11 -6.742e-12 4.40407

-2.90317 3.19215 7.32001e-12
3.19215 2.02786 2.29269e-11
7.32001e-12 2.29269e-11 -0.504695

-5.57613 -1.23516 -2.00337e-11
-1.23516 2.60219 1.92636e-11
-2.00337e-11 1.92636e-11 -0.631491

1.38617 -3.03742 -7.31959e-12
-3.03742 2.80271 -8.09293e-12
-7.31959e-12 -8.09293e-12 1.40365

-3.22315 1.96621 -1.09814e-11
1.96621 -0.356 -4.16115e-11
-1.09814e-11 -4.16115e-11 -1.81973

-2.47709 -1.11414 -4.18e-11
-1.11414 -1.07614 1.63514e-12
-4.18e-11 1.63514e-12 -1.50236

4.74926 2.3919 -2.27357e-11
2.3919 0.604433 2.94782e-11
-2.27357e-11 2.94782e-11 1.4714

3.76141 1.29123 2.08095e-11
1.29123 -2.28305 -2.273e-11
2.08095e-11 -2.273e-11 0.634913

-6.83464 4.47349 1.926e-12
4.47349 -1.18435 -3.35214e-11
1.926e-12 -3.35214e-11 -1.28405

-0.282468 -2.29898 3.08424e-12
-2.29898 -0.412879 -1.9071e-11
3.08424e-12 -1.9071e-11 -0.160634

-2.05729 3.69998 1.76262e-11
3.69998 3.16349 -1.15315e-12
1.76262e-11 -1.15315e-12 0.0499083

-3.85862 -1.98158 -2.37887e-11
-1.98158 2.29131 -2.08086e-11
-2.37887e-11 -2.08086e-11 -0.075336

-0.148702 4.04055 4.63007e-12
4.04055 -2.00104 -3.66033e-11
4.63007e-12 -3.66033e-11 -0.448816

1.2432 -3.44 3.12095e-11
-3.44 -1.73121 1.00188e-11
3.12095e-11 1.00188e-11 -0.168433

-3.10122 1.14635 1.44521e-11
1.14635 4.26717 -7.67238e-13
1.44521e-11 -7.67238e-13 0.47323

-0.744618 -0.0864159 1.05953e-11
-0.0864159 3.56991 -1.92476e-12
1.05953e-11 -1.92476e-12 0.530841

8.3631 -1.31051 2.23508e-11
-1.31051 10.4877 -6.93875e-12
2.23508e-11 -6.93875e-12 8.52

10.1665 -1.27177 -2.11897e-12
-1.27177 8.7487 1.18424e-15
-2.11897e-12 1.18424e-15 8.53143

2.40975 2.09789 -1.25255e-12
2.09789 -3.74484 -3.31364e-11
-1.25255e-12 -3.31364e-11 -0.0513594

0.645543 0.638526 4.89285e-11
0.638526 -4.26288 -7.12572e-11
4.89285e-11 -7.12572e-11 -7.51704

-0.601384 -2.29011 4.62227e-11
-2.29011 -8.89706 2.62e-11
4.62227e-11 2.62e-11 -6.53023

-5.45276 -3.03552 2.31164e-11
-3.03552 -2.15118 -2.3115e-11
2.31164e-11 -2.3115e-11 -4.25649

-5.33765 0.950581 9.21992e-12
0.950581 -3.87569 -1.34832e-11
9.21992e-12 -1.34832e-11 -4.68567

4.30727 -0.180305 -5.77908e-13
-0.180305 -3.84736 3.08238e-11
-5.77908e-13 3.08238e-11 0.0404672

-3.54606 4.97411 -1.70477e-11
4.97411 2.10327 1.67583e-11
-1.70477e-11 1.67583e-11 -0.559561

-7.65932 -4.66915 -3.36157e-11
-4.66915 -1.2838 3.46756e-12
-3.36157e-11 3.46756e-12 -1.36511

6.69426 2.48467 -2.35058e-11
2.48467 7.73729 3.46515e-12
-2.35058e-11 3.46515e-12 6.53047

7.55779 2.6093 1.4451e-11
2.6093 7.19025 1.60924e-11
1.4451e-11 1.60924e-11 6.19787

4.29766 -0.953369 1.65697e-11
-0.953369 8.24623 3.52588e-11
1.65697e-11 3.52588e-11 5.04737

3.95838 1.9707 -5.0074e-12
1.9707 7.80174 -1.07946e-11
-5.0074e-12 -1.07946e-11 4.85554

8.28436 -0.476716 1.96593e-11
-0.476716 4.11507 -6.97498e-11
1.96593e-11 -6.97498e-11 5.16558

4.94845 1.16112 1.15608e-11
1.16112 9.62008 3.65974e-12
1.15608e-11 3.65974e-12 6.30005

9.13723 1.36091 -7.32925e-12
1.36091 5.09096 1.92685e-11
-7.32925e-12 1.92685e-11 6.50098

-4.72924 0.348462 1.88772e-11
0.348462 0.450141 -1.30992e-11
1.88772e-11 -1.30992e-11 -3.25108

-3.806 2.61637 -2.19591e-11
2.61637 -0.969898 -4.01652e-11
-2.19591e-11 -4.01652e-11 -2.82574

2.18709 0.419837 1.72422e-11
0.419837 -2.09611 -2.75457e-11
1.72422e-11 -2.75457e-11 -0.405416

3.51073 -0.0804437 9.96971e-12
-0.0804437 -6.10703 -1.00168e-11
9.96971e-12 -1.00168e-11 -0.579677

1.69164 -1.58337 5.01451e-12
-1.58337 5.13247 -2.96722e-11
5.01451e-12 -2.96722e-11 2.07692

0.536952 2.37668 9.63126e-12
2.37668 4.70904 1.27191e-11
9.63126e-12 1.27191e-11 1.96023

4.08302 -0.11879 -1.28129e-11
-0.11879 -4.25276 2.15775e-11
-1.28129e-11 2.15775e-11 -0.0634522

-0.696114 2.02732 -5.00866e-11
2.02732 -3.97858 3.12006e-11
-5.00866e-11 3.12006e-11 -3.37436

-0.116469 -1.44222 2.92849e-11
-1.44222 -5.4836 -3.89023e-11
2.92849e-11 -3.89023e-11 -2.63604

-0.449468 1.96408 -5.72808e-12
1.96408 0.118135 8.86284e-12
-5.72808e-12 8.86284e-12 -0.571997

-3.04679 -3.25491 3.26551e-11
-3.25491 -0.319661 -3.04384e-11
3.26551e-11 -3.04384e-11 -0.388362

-1.9785 4.18076 -2.08059e-11
4.18076 2.83152 -2.54316e-11
-2.08059e-11 -2.54316e-11 -0.0626217

2.44757 0.415314 2.31188e-11
0.415314 -4.52352 -1.63741e-11
2.31188e-11 -1.63741e-11 -0.680245

4.62646 2.98904 -3.30401e-11
2.98904 3.78275 1.30982e-11
-3.30401e-11 1.30982e-11 2.65222

-4.16778 -2.47735 2.2638e-11
-2.47735 0.987423 -2.31176e-11
2.2638e-11 -2.31176e-11 -0.334632

-1.82157 4.46895 2.00337e-11
4.46895 2.5235 -3.46623e-12
2.00337e-11 -3.46623e-12 -0.0658717

17.3965 5.22092 -7.51528e-12
5.22092 17.787 6.89833e-11
-7.51528e-12 6.89833e-11 17.6609

-3.43126 -0.312446 -3.63109e-11
-0.312446 4.34487 -1.2335e-11
-3.63109e-11 -1.2335e-11 0.423322

-1.43961 1.7026 3.46984e-12
1.7026 3.78152 -5.20132e-12
3.46984e-12 -5.20132e-12 0.400278

-6.21824 -0.411358 -2.83167e-11
-0.411358 1.53077 2.88936e-11
-2.83167e-11 2.88936e-11 -3.80658

-4.31818 2.06721 1.7527e-11
2.06721 -2.61891 -7.59894e-11
1.7527e-11 -7.59894e-11 -3.45154

0.871467 1.68971 -8.09121e-12
1.68971 -8.73211 -3.84996e-12
-8.09121e-12 -3.84996e-12 -1.67463

1.07257 -1.15229 -3.12063e-11
-1.15229 -10.4671 -7.70769e-12
-3.12063e-11 -7.70769e-12 -1.65885

-2.7145 2.26451 4.80394e-13
2.26451 -2.14631 6.16466e-12
4.80394e-13 6.16466e-12 -1.9525

-3.26867 -3.41069 -5.46621e-11
-3.41069 -2.57923 -1.88726e-11
-5.46621e-11 -1.88726e-11 -1.93475

-4.5004 1.91666 -6.50554e-13
1.91666 -1.65754 -2.33089e-11
-6.50554e-13 -2.33089e-11 -3.58351

-4.33165 -2.67941 2.99057e-11
-2.67941 -3.27777 5.77903e-12
2.99057e-11 5.77903e-12 -3.60255

-1.43488 3.5172 -1.00118e-11
3.5172 -3.35112 -7.66645e-11
-1.00118e-11 -7.66645e-11 -6.44083

-0.611416 -2.48292 6.47153e-11
-2.48292 -7.55621 2.58157e-11
6.47153e-11 2.58157e-11 -5.2253

-4.78441 4.92932 -1.17476e-11
4.92932 -2.5738 -3.86219e-13
-1.17476e-11 -3.86219e-13 -1.64098

0.83667 -2.6473 -2.94718e-11
-2.6473 -2.13251 9.05276e-12
-2.94718e-11 9.05276e-12 -0.542287

1.82626 3.65093 4.68163e-11
3.65093 -1.91201 4.31549e-11
4.68163e-11 4.31549e-11 0.139573

-0.664275 3.15475 8.38081e-12
3.15475 3.26639 -1.7529e-11
8.38081e-12 -1.7529e-11 0.329563

-3.52521 -1.26037 -2.19578e-11
-1.26037 3.08484 -4.5854e-11
-2.19578e-11 -4.5854e-11 0.0778834

1.90344 -3.69718 2.89028e-12
-3.69718 0.0701785 -1.34825e-11
2.89028e-12 -1.34825e-11 0.468529

5.10405 -1.99338 8.19248e-12
-1.99338 4.30613 3.84848e-12
8.19248e-12 3.84848e-12 3.17267

2.7664 -2.65706 3.29451e-11
-2.65706 -1.74161 -6.16196e-12
3.29451e-11 -6.16196e-12 0.33099

0.463882 4.02185 -3.04343e-11
4.02185 -0.205488 -1.54173e-11
-3.04343e-11 -1.54173e-11 0.274151

-6.45791 -5.39158 1.11717e-11
-5.39158 -2.43937 2.35012e-11
1.11717e-11 2.35012e-11 -1.86005

-4.18049 4.29624 -5.68186e-12
4.29624 0.487241 1.02091e-11
-5.68186e-12 1.02091e-11 -1.41839

1.27663 -0.94963 -1.26669e-11
-0.94963 -2.94488 2.50441e-11
-1.26669e-11 2.50441e-11 -0.70108

-1.22757 -1.58893 -4.44965e-11
-1.58893 -1.99745 2.58044e-11
-4.44965e-11 2.58044e-11 -7.5582

-7.95849 1.36706 -8.43637e-11
1.36706 -5.59887 -2.27304e-11
-8.43637e-11 -2.27304e-11 -7.8734

-0.243459 1.64808 1.53628e-11
1.64808 -2.47613 -9.626e-13
1.53628e-11 -9.626e-13 -0.919184

0.59043 -0.656841 -1.56765e-11
-0.656841 -4.70936 1.29062e-11
-1.56765e-11 1.29062e-11 -2.14494

8.85643 -1.86022 2.90968e-11
-1.86022 10.0247 5.5862e-12
2.90968e-11 5.5862e-12 8.08288

10.1069 -1.76387 7.52132e-12
-1.76387 7.91976 -6.69546e-11
7.52132e-12 -6.69546e-11 7.92142

0.825881 0.541174 -1.9265e-11
0.541174 -6.33327 1.15746e-12
-1.9265e-11 1.15746e-12 -1.69957

0.672417 0.137635 -6.16196e-12
0.137635 -7.7461 1.54188e-12
-6.16196e-12 1.54188e-12 -1.55085

-0.387753 0.0531085 -3.0941e-11
0.0531085 -3.87404 -8.09027e-12
-3.0941e-11 -8.09027e-12 -2.15146

0.242556 -1.46421 1.58447e-11
-1.46421 2.45716 1.52209e-11
1.58447e-11 1.52209e-11 0.41972

-3.03708 1.90392 2.36542e-11
1.90392 2.85494 -2.04159e-11
2.36542e-11 -2.04159e-11 0.119777

3.79517 2.93251 5.05633e-12
2.93251 -0.239811 1.30963e-11
5.05633e-12 1.30963e-11 1.10027

-0.358713 3.34897 -1.71427e-11
3.34897 -2.76605 2.04125e-11
-1.71427e-11 2.04125e-11 -1.14033

0.533431 -2.62133 -1.0203e-11
-2.62133 -2.02147 -3.37118e-11
-1.0203e-11 -3.37118e-11 -0.674997

-8.4901 0.435797 -5.485e-11
0.435797 -10.2453 -3.03459e-11
-5.485e-11 -3.03459e-11 -10.3668

-7.8586 -3.70892 3.50251e-11
-3.70892 -2.85649 3.45721e-11
3.50251e-11 3.45721e-11 -8.75879

2.69007 1.47102 -2.04207e-11
1.47102 -0.375905 -2.03541e-15
-2.04207e-11 -2.03541e-15 0.284903

0.308401 2.36038 1.21413e-11
2.36038 -3.58597 -3.1592e-11
1.21413e-11 -3.1592e-11 -1.65475

0.462475 -1.75832 -1.12776e-11
-1.75832 -4.66592 4.31464e-11
-1.12776e-11 4.31464e-11 -1.3564

-4.50985 -1.42987 8.28472e-12
-1.42987 1.12056 -3.85455e-12
8.28472e-12 -3.85455e-12 -0.674931

-1.7208 4.05045 -2.15749e-11
4.05045 1.99407 4.21868e-11
-2.15749e-11 4.21868e-11 -0.301603

-2.83889 5.15695 1.29071e-11
5.15695 2.27574 2.96683e-11
1.29071e-11 2.96683e-11 -0.379979

-5.52248 -3.09861 -1.13673e-11
-3.09861 -1.44341 2.11911e-11
-1.13673e-11 2.11911e-11 -1.06287

19.0351 5.96043 1.98465e-11
5.96043 19.1988 -2.06174e-11
1.98465e-11 -2.06174e-11 18.4919

-4.19405 3.19514 3.85292e-12
3.19514 0.558393 -1.34851e-11
3.85292e-12 -1.34851e-11 -1.8693

-5.86385 -3.64394 -1.51221e-11
-3.64394 -1.2794 6.93578e-12
-1.51221e-11 6.93578e-12 -2.15191

-5.67027 -2.82615 -4.8304e-13
-2.82615 0.419892 3.46663e-12
-4.8304e-13 3.46663e-12 -0.780544

-3.20706 4.42838 2.69731e-12
4.42838 2.18619 1.50257e-11
2.69731e-12 1.50257e-11 -0.455508

4.22391 -1.9621 -9.24512e-12
-1.9621 0.10114 -2.25417e-11
-9.24512e-12 -2.25417e-11 1.16511

-1.1127 -2.37527 -6.93238e-12
-2.37527 -1.5907 -4.73858e-11
-6.93238e-12 -4.73858e-11 -0.799179

-3.16772 2.60014 -1.05002e-11
2.60014 -0.642444 -2.40793e-11
-1.05002e-11 -2.40793e-11 -1.7391

-3.42547 -3.54068 2.74765e-12
-3.54068 -2.89148 -1.42554e-11
2.74765e-12 -1.42554e-11 -1.87294

1.60785 -0.928285 9.64895e-13
-0.928285 -5.08367 -2.00298e-11
9.64895e-13 -2.00298e-11 -0.908798

-0.271543 0.975743 -2.73548e-11
0.975743 -2.89265 -1.27124e-11
-2.73548e-11 -1.27124e-11 -2.24921

-0.340647 -0.998951 -3.19805e-11
-0.998951 -5.65104 1.11726e-11
-3.19805e-11 1.11726e-11 -2.07281

-7.30525 1.0877 5.39555e-12
1.0877 0.203587 -5.43218e-11
5.39555e-12 -5.43218e-11 -7.04941

-6.92457 1.44188 -1.15633e-12
1.44188 -2.3931 2.34038e-11
-1.15633e-12 2.34038e-11 -5.96791

10.2875 1.12669 7.51535e-12
1.12669 7.32499 4.43189e-11
7.51535e-12 4.43189e-11 10.8054

7.46609 1.12244 -4.23454e-12
1.12244 10.8097 2.77485e-11
-4.23454e-12 2.77485e-11 10.8074

-2.15043 3.25411 -7.70639e-12
3.25411 -2.05431 1.23331e-11
-7.70639e-12 1.23331e-11 -0.975182

-0.137074 -3.34198 4.08426e-11
-3.34198 -0.964116 -9.24534e-12
4.08426e-11 -9.24534e-12 -0.458756

11.9004 2.22008 5.8968e-11
2.22008 11.5949 -4.61831e-12
5.8968e-11 -4.61831e-12 12.6308

11.457 2.42918 -5.40412e-12
2.42918 11.594 -5.1453e-11
-5.40412e-12 -5.1453e-11 12.5524

-2.35514 -0.871613 -4.93069e-11
-0.871613 -4.66291 -4.60337e-11
-4.93069e-11 -4.60337e-11 -6.47455

-1.67225 -0.562089 -2.15737e-11
-0.562089 -0.456383 -6.55499e-12
-2.15737e-11 -6.55499e-12 -7.60155

-2.24665 -3.20355 -1.10729e-11
-3.20355 -1.68788 -3.81403e-11
-1.10729e-11 -3.81403e-11 -0.821547

-1.39276 4.12822 2.23479e-11
4.12822 -2.28111 3.0051e-11
2.23479e-11 3.0051e-11 -0.904343

0.6633 -3.47228 3.04408e-11
-3.47228 -2.09193 -3.52453e-11
3.04408e-11 -3.52453e-11 -0.506667

0.116109 3.63347 -6.93401e-12
3.63347 0.811924 -1.57997e-11
-6.93401e-12 -1.57997e-11 0.402524

1.707 -2.88319 3.46878e-12
-2.88319 1.03597 7.74566e-13
3.46878e-12 7.74566e-13 0.551694

4.87513 -0.533709 1.44507e-11
-0.533709 8.17684 1.34889e-11
1.44507e-11 1.34889e-11 4.95803

3.24546 1.49921 2.0232e-11
1.49921 7.68512 -3.35274e-11
2.0232e-11 -3.35274e-11 4.63878

8.20578 -0.222059 1.69553e-11
-0.222059 4.39272 7.67617e-13
1.69553e-11 7.67617e-13 5.10655

-1.73244 3.8525 -2.25396e-11
3.8525 -0.39524 -3.85327e-11
-2.25396e-11 -3.85327e-11 -0.284465

0.550359 -3.79111 1.27121e-11
-3.79111 -0.0848951 2.13809e-11
1.27121e-11 2.13809e-11 0.0138689

4.93792 0.241264 2.58252e-11
0.241264 9.65146 -4.12372e-11
2.58252e-11 -4.12372e-11 6.62711

9.52164 -0.0264955 -5.0074e-12
-0.0264955 5.59977 1.27119e-11
-5.0074e-12 1.27119e-11 6.62852

-1.57217 3.92989 -3.19776e-11
3.92989 -3.20971 -2.23515e-11
-3.19776e-11 -2.23515e-11 -1.57358

0.462705 -2.80195 -6.89606e-11
-2.80195 -2.60294 3.7746e-11
-6.89606e-11 3.7746e-11 -0.927667

-2.02336 3.88517 -3.19799e-11
3.88517 -2.52972 5.00509e-12
-3.19799e-11 5.00509e-12 -1.82225

-0.0128671 -3.40422 -9.26616e-11
-3.40422 -3.15363 3.6786e-11
-9.26616e-11 3.6786e-11 -1.25487

11.6917 2.2766 -1.96555e-11
2.2766 11.796 6.01145e-11
-1.96555e-11 6.01145e-11 12.8612

11.7336 2.10182 4.04565e-12
2.10182 12.1094 3.00539e-11
4.04565e-12 3.00539e-11 12.9122

-0.318163 3.68074 -8.8564e-12
3.68074 -1.24166 -4.77755e-11
-8.8564e-12 -4.77755e-11 -0.306002

0.75634 -3.04235 3.08185e-11
-3.04235 -0.383267 -6.15959e-12
3.08185e-11 -6.15959e-12 -0.042417

-4.691 2.38018 3.77522e-11
2.38018 -2.98283 -1.06615e-10
3.77522e-11 -1.06615e-10 -4.16142

-5.19445 -0.769104 1.753e-11
-0.769104 -1.32067 -9.2462e-12
1.753e-11 -9.2462e-12 -4.86447

-4.37896 3.09809 -1.56025e-11
3.09809 -1.18124 1.73348e-11
-1.56025e-11 1.73348e-11 -1.84496

-0.173346 -3.52227 -7.45414e-11
-3.52227 -2.24327 -1.46425e-11
-7.45414e-11 -1.46425e-11 -1.05943

-0.356488 2.77954 -4.23839e-11
2.77954 -5.89548 -3.38979e-11
-4.23839e-11 -3.38979e-11 -3.13282

0.423209 -1.805 -6.93823e-12
-1.805 -7.40761 2.36881e-11
-6.93823e-12 2.36881e-11 -2.50718

-2.25064 3.74016 -2.02397e-12
3.74016 1.20246 -1.29076e-11
-2.02397e-12 -1.29076e-11 -0.721042

-3.82145 -3.13682 2.17221e-11
-3.13682 -1.327 -5.01014e-12
2.17221e-11 -5.01014e-12 -1.09451

-6.67947 2.27444 1.71438e-11
2.27444 -1.27552 -1.30987e-11
1.71438e-11 -1.30987e-11 -5.02029

-6.10419 2.63359 -4.53645e-11
2.63359 -5.2826 -4.62318e-11
-4.53645e-11 -4.62318e-11 -6.65454

-4.68436 -4.68886 1.46107e-11
-4.68886 -4.81924 3.46499e-12
1.46107e-11 3.46499e-12 -6.10026

-7.69642 -0.63842 1.13639e-11
-0.63842 0.111844 -1.54105e-11
1.13639e-11 -1.54105e-11 -5.9605

-1.24675 2.75864 3.81419e-11
2.75864 -5.17281 2.85063e-11
3.81419e-11 2.85063e-11 -5.20232

-0.566271 0.584986 -2.27294e-11
0.584986 -4.93221 1.03237e-10
-2.27294e-11 1.03237e-10 -6.58566

-0.477401 -2.54657 -1.00126e-11
-2.54657 -8.06262 -1.57928e-11
-1.00126e-11 -1.57928e-11 -4.34412

-0.465309 -0.837533 4.00582e-11
-0.837533 -8.2912 6.06819e-11
4.00582e-11 6.06819e-11 -5.55142

-4.91389 3.24088 -4.12003e-11
3.24088 -2.13745 -4.77986e-11
-4.12003e-11 -4.77986e-11 -7.03725

1.04833 -0.648266 1.49045e-09
-0.648266 -0.743629 -3.82358e-10
1.49045e-09 -3.82358e-10 -7.6049

-0.280235 -2.26698 1.39781e-10
-2.26698 -9.0949 3.29736e-10
1.39781e-10 3.29736e-10 -6.70284

-0.1998 -2.78743 7.77537e-11
-2.78743 -7.01266 8.1106e-11
7.77537e-11 8.1106e-11 -4.8278

-1.681 3.11656 -1.69554e-11
3.11656 -4.60347 1.38659e-11
-1.69554e-11 1.38659e-11 -5.59596

-1.20992 1.39222 4.23528e-12
1.39222 -2.35208 1.38661e-11
4.23528e-12 1.38661e-11 -2.82267

-3.39946 1.55983 -1.61706e-11
1.55983 -1.21158 -5.54778e-11
-1.61706e-11 -5.54778e-11 -7.28225

0.67538 -2.18737 2.69758e-11
-2.18737 -6.55444 -2.88839e-11
2.69758e-11 -2.88839e-11 -3.87626

-1.60107 -2.59713 1.11926e-11
-2.59713 -7.70259 2.12008e-12
1.11926e-11 2.12008e-12 -5.85275

0.0410231 -1.7827 3.04377e-11
-1.7827 -3.17816 -1.90668e-11
3.04377e-11 -1.90668e-11 -2.00746

-2.1033 3.62939 -3.46934e-12
3.62939 -3.55197 -3.35171e-11
-3.46934e-12 -3.35171e-11 -3.89648

-0.886663 1.7563 2.70058e-12
1.7563 -4.37727 -3.35139e-11
2.70058e-12 -3.35139e-11 -5.17155

-0.367563 -2.73509 -4.12307e-11
-2.73509 -5.42168 6.87602e-11
-4.12307e-11 6.87602e-11 -2.91234

-0.406654 -1.60921 -7.20545e-11
-1.60921 -6.22663 8.70528e-11
-7.20545e-11 8.70528e-11 -4.00142

-1.01474 0.295802 3.65962e-11
0.295802 -0.865976 7.41482e-12
3.65962e-11 7.41482e-12 -0.173089

0.653139 -0.156026 1.34816e-11
-0.156026 -0.477792 1.68536e-11
1.34816e-11 1.68536e-11 -0.315557

0.697723 0.562241 1.19408e-11
0.562241 -1.0657 -1.55048e-11
1.19408e-11 -1.55048e-11 -0.287941

-0.642542 -0.582992 -2.98556e-11
-0.582992 -2.95307 3.8425e-11
-2.98556e-11 3.8425e-11 -0.381301

-0.527836 0.0989441 -5.00781e-12
0.0989441 -2.22031 2.06772e-11
-5.00781e-12 2.06772e-11 -0.17859

0.296893 -0.830099 6.16374e-12
-0.830099 -0.627929 9.63273e-13
6.16374e-12 9.63273e-13 -0.816013

-0.0968981 1.49484 7.50872e-12
1.49484 -1.93776 -3.46696e-11
7.50872e-12 -3.46696e-11 -1.04025

-0.488815 -0.140129 -1.02086e-11
-0.140129 -2.4726 8.09117e-12
-1.02086e-11 8.09117e-12 -0.223464

0.440572 0.673656 -2.38851e-11
0.673656 -3.70825 1.42051e-11
-2.38851e-11 1.42051e-11 -0.582501

-0.571455 0.141382 -6.93424e-12
0.141382 -1.04908 -1.23267e-11
-6.93424e-12 -1.23267e-11 -0.0811448

-0.543118 -0.131759 -6.5477e-12
-0.131759 -0.969624 -5.31116e-11
-6.5477e-12 -5.31116e-11 -0.0612574

-0.395679 0.0783783 2.27274e-11
0.0783783 0.106007 -3.83041e-11
2.27274e-11 -3.83041e-11 -0.0129383

1.79368 -0.851848 2.31156e-12
-0.851848 -2.1386 -9.70705e-14
2.31156e-12 -9.70705e-14 -0.77506

1.26727 0.0576227 -2.65791e-11
0.0576227 -0.128033 1.21353e-11
-2.65791e-11 1.21353e-11 -0.627579

-0.982703 1.10496 3.85294e-13
1.10496 -1.36143 2.77556e-17
3.85294e-13 2.77556e-17 -0.316773

-1.23264 1.5668 -1.04001e-11
1.5668 -1.13101 1.48311e-11
-1.04001e-11 1.48311e-11 -0.453535

-0.163654 -1.48027 -6.93453e-12
-1.48027 -1.98646 -1.66533e-16
-6.93453e-12 -1.66533e-16 -1.09764

0.221262 0.77132 -8.47446e-12
0.77132 -0.589055 1.05939e-11
-8.47446e-12 1.05939e-11 -0.797547

-0.22894 0.0428991 1.46376e-11
0.0428991 0.476332 -1.30217e-11
1.46376e-11 -1.30217e-11 -0.0507589

-0.873067 0.15072 -8.47527e-12
0.15072 -0.451771 -1.4012e-11
-8.47527e-12 -1.4012e-11 -0.0875529

-0.885919 -0.169578 1.46383e-11
-0.169578 -0.432771 -6.59653e-12
1.46383e-11 -6.59653e-12 -0.0910181

-0.559021 -0.178674 -2.15712e-11
-0.178674 0.287278 -1.72622e-11
-2.15712e-11 -1.72622e-11 -0.0398933

-0.906274 0.493694 2.27284e-11
0.493694 -1.23669 2.40751e-12
2.27284e-11 2.40751e-12 -0.174892

-0.882988 0.401963 1.71425e-11
0.401963 -2.15003 2.81697e-11
1.71425e-11 2.81697e-11 -0.244127

-1.41316 0.386883 1.17508e-11
0.386883 -1.18062 3.40923e-11
1.17508e-11 3.40923e-11 -0.271366

-0.070957 -0.260734 -2.31118e-11
-0.260734 -0.19333 -2.35944e-11
-2.31118e-11 -2.35944e-11 -0.0967098

-0.323834 0.489282 2.2151e-11
0.489282 -2.83367 -3.03194e-11
2.2151e-11 -3.03194e-11 -0.297924

-0.858961 0.0862346 1.50232e-11
0.0862346 -0.504174 -7.07849e-12
1.50232e-11 -7.07849e-12 -0.0321022

-0.0920724 -0.664824 3.85284e-12
-0.664824 -4.41038 -8.15604e-12
3.85284e-12 -8.15604e-12 -0.717866

-0.598288 -0.17726 -2.58082e-11
-0.17726 -0.0245772 -8.69853e-11
-2.58082e-11 -8.69853e-11 -0.0456301

1.25638 -0.147784 -2.00318e-11
-0.147784 -1.10198 1.34691e-12
-2.00318e-11 1.34691e-12 -0.977742

1.28625 0.221782 -8.8606e-12
0.221782 -1.64166 1.93637e-13
-8.8606e-12 1.93637e-13 -1.05621

-3.43189 -0.747217 -8.68681e-11
-0.747217 -4.56954 8.66975e-12
-8.68681e-11 8.66975e-12 -4.68214

-3.45055 0.751433 2.23432e-11
0.751433 -4.53502 -1.74304e-11
2.23432e-11 -1.74304e-11 -4.70075

-0.573917 -0.172757 -8.86044e-12
-0.172757 -1.56854 3.03842e-11
-8.86044e-12 3.03842e-11 -0.0657388

-1.63948 0.141188 -1.36752e-11
0.141188 -1.32952 1.34815e-12
-1.36752e-11 1.34815e-12 -0.404675

-2.41754 -1.20112 -1.56013e-11
-1.20112 -2.40624 3.38525e-11
-1.56013e-11 3.38525e-11 -1.80453

-2.58766 1.27352 8.66783e-12
1.27352 -2.47574 -2.24389e-11
8.66783e-12 -2.24389e-11 -1.92063

0.91439 -0.586687 4.81633e-12
-0.586687 -3.49554 1.0792e-11
4.81633e-12 1.0792e-11 -0.419774

-0.399296 -0.333134 -1.50226e-11
-0.333134 0.368968 -1.88753e-11
-1.50226e-11 -1.88753e-11 -0.0473111

-0.917696 0.0109577 2.25357e-11
0.0109577 -1.44197 7.46404e-12
2.25357e-11 7.46404e-12 -0.139961

0.753439 0.508824 -3.09157e-11
0.508824 -3.68631 -2.85069e-11
-3.09157e-11 -2.85069e-11 -0.392164

-0.888253 -0.45893 -2.40754e-11
-0.45893 -1.1692 -2.66769e-11
-2.40754e-11 -2.66769e-11 -0.155994

-1.06177 -0.302694 2.31111e-12
-0.302694 -0.835661 7.70488e-12
2.31111e-12 7.70488e-12 -0.178771

0.400264 -0.633693 4.31422e-11
-0.633693 0.0228741 2.15727e-11
4.31422e-11 2.15727e-11 -0.193668

-0.808935 0.0236886 -1.6757e-11
0.0236886 -1.57906 -8.81193e-12
-1.6757e-11 -8.81193e-12 -0.15907

-0.788945 0.245312 1.54087e-11
0.245312 -0.845581 7.19858e-12
1.54087e-11 7.19858e-12 -0.0874502

-0.732357 0.31715 7.319e-12
0.31715 -0.467146 2.68566e-11
7.319e-12 2.68566e-11 -0.0919472

0.161016 -2.3391 -2.31145e-11
-2.3391 -2.68928 -3.66057e-12
-2.31145e-11 -3.66057e-12 -0.829412

-0.689956 -0.130865 -1.54062e-12
-0.130865 -0.282206 -4.14706e-11
-1.54062e-12 -4.14706e-11 -0.0419288

-0.822352 0.142789 -5.89381e-11
0.142789 -0.66406 2.7471e-11
-5.89381e-11 2.7471e-11 -0.0222388

0.0343231 0.422818 6.93331e-12
0.422818 0.341532 -2.63862e-11
6.93331e-12 -2.63862e-11 -0.387852

0.0341265 -0.421136 3.73634e-11
-0.421136 0.343481 2.20531e-11
3.73634e-11 2.20531e-11 -0.387171

-0.119782 -0.170484 -1.15562e-12
-0.170484 0.516938 5.13554e-12
-1.15562e-12 5.13554e-12 -0.0482604

-0.063136 0.181009 -2.27261e-11
0.181009 0.463199 -8.52239e-12
-2.27261e-11 -8.52239e-12 -0.384958

-0.0635908 -0.180182 2.812e-11
-0.180182 0.463609 -5.99942e-11
2.812e-11 -5.99942e-11 -0.384786

-0.154473 -0.523876 -9.24491e-12
-0.523876 0.184236 1.25178e-12
-9.24491e-12 1.25178e-12 -0.10697

-2.8649 -0.975406 1.05935e-11
-0.975406 -4.96243 2.69642e-12
1.05935e-11 2.69642e-12 -4.03348

-2.89505 1.00711 -1.73387e-12
1.00711 -4.98746 1.90685e-11
-1.73387e-12 1.90685e-11 -4.05775

-0.136174 0.24264 -3.31267e-11
0.24264 0.536411 1.73343e-11
-3.31267e-11 1.73343e-11 -0.179235

-0.135888 -0.243045 -2.8119e-11
-0.243045 0.540877 -2.63867e-11
-2.8119e-11 -2.63867e-11 -0.178296

-0.820248 0.160776 1.54063e-12
0.160776 -1.4297 1.64923e-11
1.54063e-12 1.64923e-11 -0.119837

-0.518016 1.3923 3.6212e-11
1.3923 -2.89861 9.82048e-12
3.6212e-11 9.82048e-12 -2.85954

0.966928 -1.12738 1.57938e-11
-1.12738 -0.41975 6.16517e-12
1.57938e-11 6.16517e-12 -1.81726

-0.413556 0.326848 7.31909e-12
0.326848 0.374716 1.34792e-12
7.31909e-12 1.34792e-12 -0.0512251

-0.91935 -0.155233 -1.23269e-11
-0.155233 -0.466517 -7.8729e-12
-1.23269e-11 -7.8729e-12 -0.0430389

-0.638745 -0.227648 -1.15566e-11
-0.227648 -0.977419 6.54281e-12
-1.15566e-11 6.54281e-12 -0.0108184

-0.0407222 -0.523447 1.0015e-11
-0.523447 0.287936 1.05936e-11
1.0015e-11 1.05936e-11 -0.203125

-0.229365 1.42794 -3.85025e-12
1.42794 -1.68975 2.30172e-11
-3.85025e-12 2.30172e-11 -0.419433

-0.103702 0.298627 4.89154e-11
0.298627 0.319957 -2.18693e-10
4.89154e-11 -2.18693e-10 -1.32928

-0.106055 -0.296477 1.22872e-10
-0.296477 0.314969 1.75168e-10
1.22872e-10 1.75168e-10 -1.33101

0.369767 1.91541 -2.2152e-11
1.91541 -1.44486 -1.0785e-11
-2.2152e-11 -1.0785e-11 -0.240347

-0.171932 0.113513 1.11708e-11
0.113513 0.531766 1.74301e-11
1.11708e-11 1.74301e-11 -0.0971888

-0.175849 -0.111931 -2.77345e-11
-0.111931 0.545334 1.12189e-11
-2.77345e-11 1.12189e-11 -0.0962123

-2.57335 0.922532 -3.15908e-11
0.922532 -1.04066 -2.34989e-11
-3.15908e-11 -2.34989e-11 -0.680474

0.51989 0.637445 1.07847e-11
0.637445 0.585232 -1.57934e-11
1.07847e-11 -1.57934e-11 -0.34467

-0.717543 0.170352 -9.63071e-12
0.170352 -1.6425 -2.39319e-11
-9.63071e-12 -2.39319e-11 -0.106747

-0.65741 -0.289404 6.74141e-12
-0.289404 -2.23492 3.80392e-12
6.74141e-12 3.80392e-12 -0.211312

-2.05788 -1.42655 -2.61961e-11
-1.42655 -3.96112 6.40526e-12
-2.61961e-11 6.40526e-12 -1.74822

-6.84792 1.56209 -1.34857e-12
1.56209 -4.74116 4.62306e-12
-1.34857e-12 4.62306e-12 -6.28309

-6.77664 -1.63016 -3.66105e-12
-1.63016 -4.85394 -7.02072e-11
-3.66105e-12 -7.02072e-11 -6.27546

-0.910425 0.26525 1.50232e-11
0.26525 -0.897753 -2.2102e-11
1.50232e-11 -2.2102e-11 -0.0748156

-1.33114 0.389925 1.15568e-11
0.389925 -2.04716 -4.28534e-12
1.15568e-11 -4.28534e-12 -0.390584

-0.18997 -0.316973 -1.19416e-11
-0.316973 0.417635 3.03106e-11
-1.19416e-11 3.03106e-11 -0.0680295

0.229067 -0.0172145 2.00306e-11
-0.0172145 -0.229453 9.82488e-12
2.00306e-11 9.82488e-12 -2.39585

1.14688 1.17684 -8.89829e-11
1.17684 -4.20906 2.15783e-11
-8.89829e-11 2.15783e-11 -3.35179

-2.24565 1.50472 1.52166e-11
1.50472 -3.95364 9.29406e-12
1.52166e-11 9.29406e-12 -1.87443

0.555332 -0.48238 3.56319e-12
-0.48238 -1.03772 7.99339e-12
3.56319e-12 7.99339e-12 -0.375951

0.545108 0.145545 5.77122e-13
0.145545 -0.597923 -3.27406e-12
5.77122e-13 -3.27406e-12 -0.36475

-0.138309 -0.00160729 -5.73943e-11
-0.00160729 0.60531 2.03678e-11
-5.73943e-11 2.03678e-11 -0.0771912

-0.134472 0.00793964 2.69643e-12
0.00793964 0.597978 -3.65935e-12
2.69643e-12 -3.65935e-12 -0.078228

-0.494513 0.307101 3.48612e-11
0.307101 0.0999039 -3.3707e-12
3.48612e-11 -3.3707e-12 -0.0457

-0.332204 -0.195328 2.15713e-11
-0.195328 0.41939 -9.11552e-12
2.15713e-11 -9.11552e-12 -0.0406722

-0.0529257 0.118813 2.72521e-11
0.118813 0.537001 -7.03471e-11
2.72521e-11 -7.03471e-11 -0.178973

-0.0517074 -0.116492 2.9034e-11
-0.116492 0.537989 2.4725e-11
2.9034e-11 2.4725e-11 -0.178122

-0.209766 0.32021 5.08466e-11
0.32021 0.418514 1.64912e-11
5.08466e-11 1.64912e-11 -0.0714831

-0.0873396 0.236733 -1.19425e-11
0.236733 -0.181142 -3.76539e-11
-1.19425e-11 -3.76539e-11 -0.1001

-0.0638325 0.301697 -4.5068e-11
0.301697 0.457034 1.02082e-11
-4.5068e-11 1.02082e-11 -0.12089

-0.0496586 -0.292477 -6.5484e-12
-0.292477 0.452708 -9.5578e-12
-6.5484e-12 -9.5578e-12 -0.119394

-0.630066 0.64755 -1.67577e-11
0.64755 -3.05714 3.00954e-11
-1.67577e-11 3.00954e-11 -0.467559

0.36629 -0.375767 -1.50241e-11
-0.375767 0.350641 3.71716e-11
-1.50241e-11 3.71716e-11 -0.0781858

-0.844183 0.112248 3.15884e-11
0.112248 -1.3658 -2.0711e-12
3.15884e-11 -2.0711e-12 -0.118551

-1.30102 1.49074 9.0533e-12
1.49074 -0.625444 1.53136e-11
9.0533e-12 1.53136e-11 -0.379739

0.534091 -0.395609 2.88898e-11
-0.395609 0.51395 1.26164e-11
2.88898e-11 1.26164e-11 -0.130224

-0.348298 0.0618852 4.39131e-11
0.0618852 0.318122 8.69133e-12
4.39131e-11 8.69133e-12 -0.0320614

-2.02915 0.91213 -4.40127e-11
0.91213 -2.81071 1.69007e-11
-4.40127e-11 1.69007e-11 -0.891233

-0.65206 -0.514246 -3.92937e-11
-0.514246 -2.8127 -3.51989e-11
-3.92937e-11 -3.51989e-11 -0.403677

-1.14917 -0.107366 1.52164e-11
-0.107366 -1.42354 -1.68519e-12
1.52164e-11 -1.68519e-12 -0.225899

-1.47991 -0.372379 2.04168e-11
-0.372379 -2.00828 -1.80577e-11
2.04168e-11 -1.80577e-11 -0.406538

-0.345532 0.991137 1.38671e-11
0.991137 -1.13895 -1.22307e-11
1.38671e-11 -1.22307e-11 -0.492191

-0.182878 -0.894819 2.1187e-11
-0.894819 -0.891712 -2.02106e-12
2.1187e-11 -2.02106e-12 -0.435055

-0.468201 -0.0708891 1.12671e-11
-0.0708891 0.140407 -2.09217e-11
1.12671e-11 -2.09217e-11 -0.0249693

-2.63529 -0.98214 -5.20098e-12
-0.98214 -1.00557 -5.39361e-12
-5.20098e-12 -5.39361e-12 -0.688407

-0.306799 0.0961447 2.31162e-12
0.0961447 0.0144458 1.51675e-11
2.31162e-12 1.51675e-11 -0.0586716

-0.319909 -0.0940754 8.85951e-12
-0.0940754 -0.0102513 1.74789e-11
8.85951e-12 1.74789e-11 -0.0652799

-1.09813 0.440983 -1.0786e-11
0.440983 -1.86864 -3.05774e-11
-1.0786e-11 -3.05774e-11 -0.348044

0.147192 1.2507 4.43071e-12
1.2507 -5.06821 -1.44454e-11
4.43071e-12 -1.44454e-11 -1.18858

0.214802 -1.08124 -2.5234e-11
-1.08124 -5.02334 1.01607e-11
-2.5234e-11 1.01607e-11 -1.13778

-0.35009 0.539112 -3.08335e-12
0.539112 -1.09196 -3.361e-11
-3.08335e-12 -3.361e-11 -0.129144

-1.5602 -0.338439 1.34835e-11
-0.338439 -1.16112 -2.14758e-11
1.34835e-11 -2.14758e-11 -0.299515

-0.528036 0.428188 -8.47411e-12
0.428188 -0.52197 2.01754e-11
-8.47411e-12 2.01754e-11 -0.078444

-0.497232 -0.419445 3.46692e-11
-0.419445 -0.520673 -9.56596e-14
3.46692e-11 -9.56596e-14 -0.075943

-0.307236 0.0285147 -1.73343e-11
0.0285147 0.0598709 9.52183e-12
-1.73343e-11 9.52183e-12 -0.0224895

-0.54329 -0.306141 -8.47441e-12
-0.306141 0.0830284 -9.05251e-12
-8.47441e-12 -9.05251e-12 -0.0571914

-0.381673 0.0385815 -1.92579e-12
0.0385815 0.293781 1.59382e-11
-1.92579e-12 1.59382e-11 -0.0295786

2.54916 0.452031 1.772e-10
0.452031 -1.23916 -4.77498e-11
1.772e-10 -4.77498e-11 -3.00251

2.28596 -2.24705 -1.97994e-10
-2.24705 -2.62132 5.41441e-11
-1.97994e-10 5.41441e-11 -3.70415

-0.30532 -0.027281 -1.73342e-11
-0.027281 0.310455 -6.83726e-12
-1.73342e-11 -6.83726e-12 -0.0289513

0.14606 -0.206651 3.08156e-11
-0.206651 0.341243 2.50391e-11
3.08156e-11 2.50391e-11 -0.0707177

-0.146269 0.175522 7.70231e-13
0.175522 0.513768 -3.03136e-11
7.70231e-13 -3.03136e-11 -0.0534763

-0.357045 -0.518278 2.38829e-11
-0.518278 -1.03585 2.40766e-11
2.38829e-11 2.40766e-11 -0.124385

1.14211 -0.994277 2.00301e-11
-0.994277 0.437087 1.64684e-11
2.00301e-11 1.64684e-11 -0.233961

-0.756605 2.6484 -2.23452e-11
2.6484 -2.0885 -6.64481e-12
-2.23452e-11 -6.64481e-12 -0.840816

0.382869 0.411047 1.92605e-11
0.411047 0.337729 1.79121e-11
1.92605e-11 1.79121e-11 -0.081709

0.303284 -0.484202 -4.46824e-11
-0.484202 0.517664 -2.92761e-11
-4.46824e-11 -2.92761e-11 -0.0792996

-0.660874 0.898969 1.34835e-11
0.898969 -0.91781 -1.27129e-11
1.34835e-11 -1.27129e-11 -0.165135

-0.107535 -0.0049624 5.77795e-12
-0.0049624 0.800712 1.77569e-11
5.77795e-12 1.77569e-11 -0.0371238

-0.342872 -0.0295177 2.54235e-11
-0.0295177 0.219513 3.27434e-12
2.54235e-11 3.27434e-12 -0.033938

-1.38074 -1.49189 -1.94556e-11
-1.49189 -0.584066 1.79126e-11
-1.94556e-11 1.79126e-11 -0.388622

-0.383681 -0.335065 2.69674e-12
-0.335065 0.415424 -2.03197e-11
2.69674e-12 -2.03197e-11 -0.0207566

-1.13374 -0.168701 -2.23425e-11
-0.168701 -0.891294 -1.08828e-11
-2.23425e-11 -1.08828e-11 -0.125237

-1.53046 -0.185833 -1.27132e-11
-0.185833 -1.32754 1.53122e-11
-1.27132e-11 1.53122e-11 -0.387908

-0.312361 0.125816 -6.93318e-12
0.125816 -0.433645 1.99832e-11
-6.93318e-12 1.99832e-11 -0.0747271

-0.304156 -0.138857 -2.11862e-11
-0.138857 -0.449607 -1.69015e-11
-2.11862e-11 -1.69015e-11 -0.0770906

-0.559688 0.160321 -9.63013e-12
0.160321 0.33569 -1.25553e-11
-9.63013e-12 -1.25553e-11 -0.0364971

-0.383109 0.344091 -1.19409e-11
0.344091 0.383925 1.96458e-11
-1.19409e-11 1.96458e-11 -0.0258133

0.0050489 -0.202927 -7.6957e-13
-0.202927 -0.532065 -2.64831e-11
-7.6957e-13 -2.64831e-11 -0.139483

0.03105 0.240533 -2.23413e-11
0.240533 -0.518532 3.20698e-11
-2.23413e-11 3.20698e-11 -0.115872

-0.440584 -0.0344003 3.00461e-11
-0.0344003 -0.0442817 -1.67089e-11
3.00461e-11 -1.67089e-11 -0.0259622

-0.454927 0.0269957 -2.46537e-11
0.0269957 0.00624851 2.27753e-11
-2.46537e-11 2.27753e-11 -0.021125

0.0669882 0.0997246 3.2742e-11
0.0997246 0.606135 2.71325e-11
3.2742e-11 2.71325e-11 -0.05208

0.0717508 -0.0949967 2.81194e-11
-0.0949967 0.606124 1.11709e-11
2.81194e-11 1.11709e-11 -0.05084

0.0567411 -0.554592 1.81035e-11
-0.554592 0.476171 3.50539e-11
1.81035e-11 3.50539e-11 -0.0636804

-0.816108 -2.40733 -6.35543e-12
-2.40733 -1.59211 -1.31936e-11
-6.35543e-12 -1.31936e-11 -0.709345

-2.71892 0.0346408 -2.38835e-11
0.0346408 -1.662 1.73356e-11
-2.38835e-11 1.73356e-11 -0.796923

-0.888409 0.0888063 2.2343e-11
0.0888063 -0.946341 2.87229e-11
2.2343e-11 2.87229e-11 -0.0481995

-0.515908 -0.246523 -1.19415e-11
-0.246523 0.0494717 -5.29674e-12
-1.19415e-11 -5.29674e-12 -0.073953

0.0496843 0.349331 -1.11706e-11
0.349331 0.355512 4.23719e-12
-1.11706e-11 4.23719e-12 -0.256747

0.0507017 -0.346895 6.24024e-11
-0.346895 0.358857 -2.21004e-11
6.24024e-11 -2.21004e-11 -0.255887

-0.118995 0.432707 4.21793e-11
0.432707 0.4026 -1.17492e-11
4.21793e-11 -1.17492e-11 -0.131458

-0.122335 -0.434584 -7.12556e-12
-0.434584 0.404034 -3.77499e-11
-7.12556e-12 -3.77499e-11 -0.132051

-0.794222 -0.0658107 -1.61789e-11
-0.0658107 -0.304252 2.33778e-11
-1.61789e-11 2.33778e-11 -0.0187715

-0.496897 -0.0436085 -1.2712e-11
-0.0436085 -0.0737167 4.01702e-11
-1.2712e-11 4.01702e-11 -0.00138964

-0.514022 0.284921 -3.31288e-11
0.284921 0.070383 -2.39785e-11
-3.31288e-11 -2.39785e-11 -0.0690907

0.0207969 0.0166296 -2.54231e-11
0.0166296 0.330159 -5.21936e-11
-2.54231e-11 -5.21936e-11 -0.703238

0.0203587 -0.0158203 2.23421e-11
-0.0158203 0.327437 -6.20159e-11
2.23421e-11 -6.20159e-11 -0.703778

-0.161024 -0.380583 1.92604e-11
-0.380583 0.357046 -1.94525e-11
1.92604e-11 -1.94525e-11 -0.0614328

-0.651838 -0.155285 5.7013e-11
-0.155285 -1.54247 -3.14918e-11
5.7013e-11 -3.14918e-11 -0.100107

-0.336292 0.20081 7.31878e-12
0.20081 0.423822 -1.75148e-11
7.31878e-12 -1.75148e-11 -0.0410999

-0.437456 -1.30709 -2.58093e-11
-1.30709 -1.37261 -6.06777e-12
-2.58093e-11 -6.06777e-12 -0.461153

0.0611034 0.656327 4.16019e-11
0.656327 -0.179247 -7.898e-12
4.16019e-11 -7.898e-12 -0.29862

-1.19299 0.0843315 -1.56006e-11
0.0843315 -1.12743 -2.19099e-11
-1.56006e-11 -2.19099e-11 -0.18185

0.328456 0.480814 2.77341e-11
0.480814 0.499298 -7.51154e-12
2.77341e-11 -7.51154e-12 -0.0824183

-0.1807 0.389401 -1.15564e-11
0.389401 0.36472 -1.19413e-11
-1.15564e-11 -1.19413e-11 -0.0631129

-2.03189 2.38425 -9.24708e-12
2.38425 -1.05273 2.31211e-12
-9.24708e-12 2.31211e-12 -0.581255

1.32429 -0.0261435 -1.15467e-12
-0.0261435 0.146708 -8.66709e-12
-1.15467e-12 -8.66709e-12 -0.5816

1.90315 1.19171 1.1556e-11
1.19171 -2.62884 -8.86217e-12
1.1556e-11 -8.86217e-12 -0.833393

0.0314475 0.576368 8.08923e-12
0.576368 0.462075 -6.74099e-12
8.08923e-12 -6.74099e-12 -0.0766358

-1.63486 1.15442 -1.3484e-11
1.15442 -1.10644 -1.30975e-11
-1.3484e-11 -1.30975e-11 -0.389625

-1.05979 -0.141733 4.04486e-11
-0.141733 -1.46364 2.93669e-12
4.04486e-11 2.93669e-12 -0.158666

0.947174 -0.725294 -3.50529e-11
-0.725294 0.388521 -1.51198e-11
-3.50529e-11 -1.51198e-11 -0.0116518

-0.867346 -1.13684 2.54241e-11
-1.13684 -1.31233 2.28251e-11
2.54241e-11 2.28251e-11 -0.293959

-0.677752 0.773416 -2.61943e-11
0.773416 -0.832494 1.26167e-11
-2.61943e-11 1.26167e-11 -0.234288

-0.204647 -0.200401 7.71189e-13
-0.200401 0.51794 -4.49724e-11
7.71189e-13 -4.49724e-11 -0.0849296

-0.182227 -0.56578 -4.23616e-12
-0.56578 -0.423877 -3.13947e-11
-4.23616e-12 -3.13947e-11 -0.158806

1.37925 0.865289 2.15707e-11
0.865289 0.39536 -1.18459e-11
2.15707e-11 -1.18459e-11 -0.162278

-0.879826 0.0961116 -3.85534e-13
0.0961116 -0.819545 4.69002e-11
-3.85534e-13 4.69002e-11 -0.0818588

-0.739427 -0.0518518 -2.96621e-11
-0.0518518 -1.12419 1.70217e-11
-2.96621e-11 1.70217e-11 -0.0887889

-0.202304 0.202792 1.92546e-12
0.202792 0.517626 -2.89864e-11
1.92546e-12 -2.89864e-11 -0.0844514

-0.226786 -0.028889 4.02534e-11
-0.028889 0.488083 -1.24532e-11
4.02534e-11 -1.24532e-11 -0.0477747

0.188531 0.209763 4.66091e-11
0.209763 -0.01118 4.52593e-11
4.66091e-11 4.52593e-11 -1.19928

0.186559 -0.20751 -2.54223e-11
-0.20751 -0.0146321 -2.25341e-11
-2.54223e-11 -2.25341e-11 -1.20055

0.159074 0.247816 -1.849e-11
0.247816 0.304701 2.89413e-13
-1.849e-11 2.89413e-13 -0.0882304

-4.26961 -1.37326 1.00159e-11
-1.37326 -3.33793 2.1669e-11
1.00159e-11 2.1669e-11 -3.23347

-4.3369 1.39752 2.54246e-11
1.39752 -3.32938 1.51216e-11
2.54246e-11 1.51216e-11 -3.27861

0.305539 -0.18122 -1.13644e-11
-0.18122 -3.08398 1.56212e-12
-1.13644e-11 1.56212e-12 -0.247291

-2.06633 -2.34823 -1.90703e-11
-2.34823 -0.960571 1.43499e-11
-1.90703e-11 1.43499e-11 -0.568957

-0.558345 0.139366 -1.32895e-11
0.139366 -0.0942351 -5.47002e-11
-1.32895e-11 -5.47002e-11 -0.0191094

-0.706475 0.010812 -1.34823e-11
0.010812 -1.14655 5.29677e-11
-1.34823e-11 5.29677e-11 -0.0915563

-0.585757 0.267141 9.62962e-12
0.267141 -0.28024 -3.33211e-11
9.62962e-12 -3.33211e-11 -0.0560183

-0.593853 -0.272258 1.17483e-11
-0.272258 -0.310058 4.64181e-11
1.17483e-11 4.64181e-11 -0.0693633

-0.427438 0.12014 -3.08182e-12
0.12014 -0.0646186 -1.80086e-11
-3.08182e-12 -1.80086e-11 -0.0249884

0.96008 0.699677 2.77342e-11
0.699677 0.407292 -7.99315e-12
2.77342e-11 -7.99315e-12 -0.00737325

-0.719831 0.24305 -1.57942e-11
0.24305 -0.637395 -1.84421e-11
-1.57942e-11 -1.84421e-11 -0.0731446

-0.422069 0.069789 -2.08013e-11
0.069789 -0.152831 4.58881e-11
-2.08013e-11 4.58881e-11 -0.0300657

0.685357 -0.821354 2.77326e-11
-0.821354 -2.15952 4.06414e-11
2.77326e-11 4.06414e-11 -1.69905

1.57971 0.889949 -3.23624e-11
0.889949 -0.550415 -5.41186e-11
-3.23624e-11 -5.41186e-11 -1.21266

-0.604192 -0.978373 1.27126e-11
-0.978373 -2.24277 5.71093e-11
1.27126e-11 5.71093e-11 -0.51115

1.09666 -0.162918 8.2833e-12
-0.162918 -5.06109 -6.55484e-12
8.2833e-12 -6.55484e-12 -0.681952

-0.525505 -0.359986 -3.23576e-11
-0.359986 0.0313172 -9.15367e-13
-3.23576e-11 -9.15367e-13 -0.046493

-0.542021 0.355964 2.38839e-11
0.355964 0.0548405 2.61462e-11
2.38839e-11 2.61462e-11 -0.045869

0.165461 -0.123309 2.02252e-11
-0.123309 -3.76798 -3.46988e-11
2.02252e-11 -3.46988e-11 -0.413648

-0.159102 0.544608 -4.27584e-11
0.544608 0.22992 -1.76225e-11
-4.27584e-11 -1.76225e-11 -0.108103

-0.109523 0.327684 -8.32025e-11
0.327684 0.324984 -4.54527e-11
-8.32025e-11 -4.54527e-11 -0.531782

-0.108491 -0.325947 1.38676e-11
-0.325947 0.324229 -4.98826e-11
1.38676e-11 -4.98826e-11 -0.531585

-1.6841 -0.372997 3.35141e-11
-0.372997 -1.58593 -2.61964e-11
3.35141e-11 -2.61964e-11 -0.628657

-1.68725 -1.17837 -3.92927e-11
-1.17837 -1.11212 -1.61805e-11
-3.92927e-11 -1.61805e-11 -0.403032

-0.603313 -1.02756 -3.85136e-13
-1.02756 -3.20061 2.90365e-11
-3.85136e-13 2.90365e-11 -0.591361

-0.76897 0.0282745 -1.9454e-11
0.0282745 -1.55125 -2.08015e-11
-1.9454e-11 -2.08015e-11 -0.139688

-0.824297 -0.878755 2.5039e-11
-0.878755 -0.904508 1.30028e-11
2.5039e-11 1.30028e-11 -0.205393

-0.918745 -0.186864 3.08186e-12
-0.186864 -0.916006 -7.18663e-12
3.08186e-12 -7.18663e-12 -0.12141

-0.726437 -0.727596 2.69743e-12
-0.727596 -0.72217 -2.32092e-11
2.69743e-12 -2.32092e-11 -0.231181

-0.141485 0.553078 7.32003e-12
0.553078 -0.605228 2.84092e-11
7.32003e-12 2.84092e-11 -0.176596

0.880104 -0.857243 -2.8884e-11
-0.857243 -1.05634 -6.77966e-11
-2.8884e-11 -6.77966e-11 -1.63841

0.492374 0.620214 -1.1167e-11
0.620214 -1.20684 4.44935e-11
-1.1167e-11 4.44935e-11 -1.74537

-0.0753893 0.0168466 6.43276e-11
0.0168466 0.686745 -4.33349e-11
6.43276e-11 -4.33349e-11 -0.125042

-0.0830231 -0.0183272 8.85952e-12
-0.0183272 0.682409 6.78953e-12
8.85952e-12 6.78953e-12 -0.127059

-2.97482 -0.637815 6.37548e-11
-0.637815 -2.38634 -1.80115e-11
6.37548e-11 -1.80115e-11 -1.41971

-3.11187 0.670843 -2.69648e-12
0.670843 -2.36374 4.23735e-12
-2.69648e-12 4.23735e-12 -1.49609

-3.72001 -0.34161 2.13811e-11
-0.34161 -1.96209 2.08987e-11
2.13811e-11 2.08987e-11 -2.51229

-3.76221 0.381443 1.81059e-11
0.381443 -2.01685 -7.02875e-12
1.81059e-11 -7.02875e-12 -2.54508

0.0320468 0.0144379 -4.7761e-11
0.0144379 0.207563 1.57544e-10
-4.7761e-11 1.57544e-10 -0.992103

0.0299953 -0.0131049 -6.08599e-11
-0.0131049 0.204446 -6.01874e-11
-6.08599e-11 -6.01874e-11 -0.993161

0.639611 0.463972 4.81496e-11
0.463972 0.275569 -1.44482e-12
4.81496e-11 -1.44482e-12 -0.105894

0.63833 -0.469152 5.81659e-11
-0.469152 0.284665 -2.51333e-11
5.81659e-11 -2.51333e-11 -0.103002

-0.338264 -0.100887 2.31132e-12
-0.100887 0.485031 -1.7286e-11
2.31132e-12 -1.7286e-11 -0.0555832

-0.0178383 -0.522557 -6.93308e-12
-0.522557 -0.949421 -5.48948e-12
-6.93308e-12 -5.48948e-12 -0.14143

0.00864032 0.119845 -3.467e-12
0.119845 -0.0867088 3.17816e-12
-3.467e-12 3.17816e-12 -0.141185

-0.727011 -0.243191 -5.39305e-12
-0.243191 -1.31141 -3.03372e-12
-5.39305e-12 -3.03372e-12 -0.0916376

-0.32997 0.1075 3.8522e-12
0.1075 0.491028 1.80084e-11
3.8522e-12 1.80084e-11 -0.0525018

-0.239887 0.433813 -9.14814e-12
0.433813 -0.763412 1.94534e-11
-9.14814e-12 1.94534e-11 -0.132106

-0.392247 -0.17929 1.00155e-11
-0.17929 0.413188 -1.93564e-11
1.00155e-11 -1.93564e-11 -0.0687957

-3.45732 -1.49531 2.69668e-11
-1.49531 -0.963909 -1.22299e-11
2.69668e-11 -1.22299e-11 -1.11223

-3.45147 1.50028 8.28451e-12
1.50028 -1.01372 9.34119e-12
8.28451e-12 9.34119e-12 -1.12404

-0.402503 0.184754 6.16311e-12
0.184754 0.408415 -1.3819e-11
6.16311e-12 -1.3819e-11 -0.0707988

-0.800508 1.10407 -1.73352e-12
1.10407 -2.3207 2.3547e-11
-1.73352e-12 2.3547e-11 -0.653486

2.77275 0.252951 -2.77294e-11
0.252951 -6.36441 -4.52535e-11
-2.77294e-11 -4.52535e-11 -4.40459

2.29498 -0.534255 -6.15807e-12
-0.534255 0.225695 7.0492e-11
-6.15807e-12 7.0492e-11 -2.76413

0.624964 0.2366 -2.31122e-11
0.2366 0.0372428 9.24585e-12
-2.31122e-11 9.24585e-12 -0.223018

-1.9633 -0.84769 2.04174e-11
-0.84769 -2.74129 3.45256e-11
2.04174e-11 3.45256e-11 -0.803483

-0.83611 -1.6123 -8.47478e-12
-1.6123 -3.22313 -8.18789e-13
-8.47478e-12 -8.18789e-13 -1.5273

-0.53277 -0.0893554 2.96613e-11
-0.0893554 -0.330246 -5.06064e-13
2.96613e-11 -5.06064e-13 -0.0458598

-0.724844 0.0268741 -4.54547e-11
0.0268741 0.0285316 -1.59861e-11
-4.54547e-11 -1.59861e-11 -0.0344282

0.185502 0.175467 5.77791e-11
0.175467 0.472438 -5.79485e-11
5.77791e-11 -5.79485e-11 -0.17593

0.19069 -0.16765 1.11703e-11
-0.16765 0.470931 1.1869e-11
1.11703e-11 1.1869e-11 -0.174572

-0.887598 1.61009 1.07863e-11
1.61009 -3.22313 2.55314e-12
1.07863e-11 2.55314e-12 -1.58472

0.025166 -0.169227 -1.5022e-11
-0.169227 -0.179605 -3.67875e-11
-1.5022e-11 -3.67875e-11 -0.15679

-0.385432 -0.321568 4.51648e-11
-0.321568 0.369381 2.62904e-11
4.51648e-11 2.62904e-11 -0.0427158

-0.0531135 0.490328 -4.23711e-11
0.490328 0.41313 3.28387e-11
-4.23711e-11 3.28387e-11 -0.197511

-0.0524685 -0.489089 -1.54081e-11
-0.489089 0.416987 1.70448e-11
-1.54081e-11 1.70448e-11 -0.196449

-6.18159 -2.36133 -9.51493e-11
-2.36133 -7.39865 -2.12895e-11
-9.51493e-11 -2.12895e-11 -7.02274

-6.24551 2.40495 -9.24653e-12
2.40495 -7.3917 -4.12074e-11
-9.24653e-12 -4.12074e-11 -7.03654

0.334629 0.699506 -9.24367e-12
0.699506 0.380036 2.40756e-11
-9.24367e-12 2.40756e-11 -0.121694

-0.915648 -0.299317 -5.29691e-11
-0.299317 -1.78642 -1.96452e-11
-5.29691e-11 -1.96452e-11 -0.271681

-0.162846 0.369031 2.98531e-11
0.369031 0.521561 3.51014e-11
2.98531e-11 3.51014e-11 -0.274487

-0.160449 -0.367673 4.15054e-11
-0.367673 0.521197 -4.01568e-11
4.15054e-11 -4.01568e-11 -0.274003

0.561647 -1.0437 -3.73659e-11
-1.0437 -1.18067 -4.33479e-12
-3.73659e-11 -4.33479e-12 -0.230413

0.192062 -2.01906 2.40764e-11
-2.01906 -1.17386 1.27135e-11
2.40764e-11 1.27135e-11 -0.185713

-0.857457 -0.289941 9.2451e-12
-0.289941 -0.408424 4.28539e-12
9.2451e-12 4.28539e-12 -0.094174

-3.12167 0.143917 3.1203e-11
0.143917 -0.668981 -1.18472e-11
3.1203e-11 -1.18472e-11 -1.28956

-3.16162 -0.144411 6.16373e-12
-0.144411 -0.696927 -2.10912e-11
6.16373e-12 -2.10912e-11 -1.31162

-1.20397 -1.99411 3.23578e-11
-1.99411 -1.58093 1.96476e-11
3.23578e-11 1.96476e-11 -0.512911

-0.369563 0.3222 -2.0801e-11
0.3222 0.331627 -9.87077e-12
-2.0801e-11 -9.87077e-12 -0.0504146

-1.73946 0.39753 -4.46868e-11
0.39753 -1.59007 4.42882e-12
-4.46868e-11 4.42882e-12 -0.689178

-3.12622 0.125204 3.56332e-11
0.125204 -1.6397 -1.33881e-11
3.56332e-11 -1.33881e-11 -1.32888

-3.1921 -0.148683 1.73358e-11
-0.148683 -1.61187 -8.76268e-12
1.73358e-11 -8.76268e-12 -1.35024

-0.798132 1.26147 -7.31953e-12
1.26147 -3.54837 3.80417e-12
-7.31953e-12 3.80417e-12 -0.749567

-0.106439 0.235153 1.73346e-11
0.235153 0.575285 8.27211e-11
1.73346e-11 8.27211e-11 -0.36435

-0.104529 -0.233254 -1.96446e-11
-0.233254 0.572138 -3.73642e-11
-1.96446e-11 -3.73642e-11 -0.364291

0.534499 -0.0522277 -7.31887e-11
-0.0522277 -1.09876 -6.1703e-12
-7.31887e-11 -6.1703e-12 -2.98607

0.0670158 1.1345 1.77239e-11
1.1345 -1.37533 7.22255e-11
1.77239e-11 7.22255e-11 -3.0824

-0.764223 0.0801431 -1.69493e-11
0.0801431 -0.279157 -2.79522e-11
-1.69493e-11 -2.79522e-11 -0.0183618

-0.205963 -0.0507911 -3.23584e-11
-0.0507911 -1.04431 -4.50815e-12
-3.23584e-11 -4.50815e-12 0.0446598

-0.00537749 0.456809 -1.15534e-12
0.456809 0.54624 1.98382e-11
-1.15534e-12 1.98382e-11 -0.130375

0.00418452 -0.454947 -3.46643e-12
-0.454947 0.548983 -1.94525e-11
-3.46643e-12 -1.94525e-11 -0.12705

0.489808 0.502249 1.30953e-11
0.502249 0.502168 -3.10093e-11
1.30953e-11 -3.10093e-11 -0.117316

-0.66399 0.115369 1.92649e-12
0.115369 -0.340224 3.38506e-11
1.92649e-12 3.38506e-11 -0.033802

-0.430362 -0.0416593 -2.19569e-11
-0.0416593 -0.430356 6.34395e-11
-2.19569e-11 6.34395e-11 -0.0492598

-0.227624 -0.259146 -2.34974e-11
-0.259146 0.235059 1.43483e-11
-2.34974e-11 1.43483e-11 -1.28814

-0.225467 0.261232 -2.38811e-11
0.261232 0.238046 2.44597e-11
-2.38811e-11 2.44597e-11 -1.28688

-2.78144 -0.044351 -1.05937e-11
-0.044351 -1.70094 -7.31978e-12
-1.05937e-11 -7.31978e-12 -0.826858

-0.0350413 0.34962 7.70498e-12
0.34962 0.177507 3.06237e-11
7.70498e-12 3.06237e-11 -0.0615028

0.0608398 0.307008 -1.81036e-11
0.307008 0.45126 3.82318e-11
-1.81036e-11 3.82318e-11 -0.115296

0.0617569 -0.304934 -7.70319e-13
-0.304934 0.45415 -2.50371e-12
-7.70319e-13 -2.50371e-12 -0.11396

-0.126205 0.21955 7.31834e-12
0.21955 0.429298 -2.34978e-11
7.31834e-12 -2.34978e-11 -0.0765143

-0.0344617 -0.332791 2.5038e-11
-0.332791 0.163647 6.4527e-12
2.5038e-11 6.4527e-12 -0.0633788

-0.716938 -0.0179164 -1.92605e-11
-0.0179164 -0.21738 1.11231e-11
-1.92605e-11 1.11231e-11 -0.0321241

-0.717691 -0.0241882 3.50538e-11
-0.0241882 -0.157169 3.73665e-11
3.50538e-11 3.73665e-11 -0.02596

-0.585652 -0.0859401 2.31113e-12
-0.0859401 0.168879 2.28237e-11
2.31113e-12 2.28237e-11 -0.0197896

-0.130465 -0.21421 -5.77802e-12
-0.21421 0.436369 -4.81064e-13
-5.77802e-12 -4.81064e-13 -0.074283

-0.644716 -0.219974 -5.39274e-12
-0.219974 -0.647476 -2.67241e-11
-5.39274e-12 -2.67241e-11 -0.0714171

-0.763213 0.12729 2.15722e-11
0.12729 -1.10668 -3.80401e-11
2.15722e-11 -3.80401e-11 -0.0552894

0.197538 0.422272 1.5408e-11
0.422272 0.328882 5.00749e-12
1.5408e-11 5.00749e-12 -0.212959

0.199205 -0.424538 1.88752e-11
-0.424538 0.330335 -1.39633e-11
1.88752e-11 -1.39633e-11 -0.211784

-0.0136796 0.283722 1.73337e-11
0.283722 0.558271 -1.93568e-11
1.73337e-11 -1.93568e-11 -0.237225

-0.0120235 -0.282389 1.61781e-11
-0.282389 0.56054 1.3771e-11
1.61781e-11 1.3771e-11 -0.236129

-0.906842 -0.222599 3.69804e-11
-0.222599 -0.512483 2.78319e-11
3.69804e-11 2.78319e-11 -0.0563807

-0.663453 -0.200308 -4.96931e-11
-0.200308 -0.669244 2.30044e-11
-4.96931e-11 2.30044e-11 0.0119748

-0.118928 -0.486454 -1.46378e-11
-0.486454 0.445541 1.49265e-11
-1.46378e-11 1.49265e-11 -0.100865

-0.123866 0.491069 3.35126e-11
0.491069 0.437825 2.79274e-12
3.35126e-11 2.79274e-12 -0.103932

1.13679 -0.274534 -1.19422e-11
-0.274534 -3.56822 -2.15722e-11
-1.19422e-11 -2.15722e-11 -2.447

0.65113 -0.0279954 1.92579e-12
-0.0279954 -0.945854 -6.35567e-12
1.92579e-12 -6.35567e-12 -1.96355

0.23753 0.295535 4.00604e-11
0.295535 0.567819 -5.00807e-12
4.00604e-11 -5.00807e-12 -0.18542

0.251503 -0.289139 4.23711e-11
-0.289139 0.567799 2.9757e-11
4.23711e-11 2.9757e-11 -0.181842

-0.00284229 0.153987 -6.66383e-11
0.153987 0.417708 4.65131e-11
-6.66383e-11 4.65131e-11 -0.408035

-0.00148838 -0.153515 6.9336e-12
-0.153515 0.4168 -2.20041e-11
6.9336e-12 -2.20041e-11 -0.407689

-2.08104 -0.357983 -6.73999e-12
-0.357983 -0.888866 -1.19418e-11
-6.73999e-12 -1.19418e-11 -0.637368

-2.01836 0.360114 -4.64206e-11
0.360114 -0.951788 -1.84889e-11
-4.64206e-11 -1.84889e-11 -0.633844

-0.549895 -1.99787 1.92713e-11
-1.99787 -3.25378 -4.21806e-11
1.92713e-11 -4.21806e-11 -3.32721

-5.54334 0.0965542 7.89674e-12
0.0965542 -3.78155 6.3564e-12
7.89674e-12 6.3564e-12 -4.69861

-0.122176 0.06144 -1.15553e-12
0.06144 0.26971 -2.87933e-11
-1.15553e-12 -2.87933e-11 -0.774422

0.0746622 -0.178747 -6.85638e-11
-0.178747 0.0182953 1.40588e-11
-6.85638e-11 1.40588e-11 -1.01683

-0.123443 -0.0602385 -1.00145e-11
-0.0602385 0.275016 4.65123e-11
-1.00145e-11 4.65123e-11 -0.773644

0.0757976 0.179878 -1.01305e-10
0.179878 0.0216433 1.07861e-11
-1.01305e-10 1.07861e-11 -1.01587

0.66734 1.21607 -2.88857e-11
1.21607 -0.183348 7.31898e-11
-2.88857e-11 7.31898e-11 -2.12318

-5.52921 -0.0844185 -1.02664e-10
-0.0844185 -3.79305 -6.19228e-11
-1.02664e-10 -6.19228e-11 -4.69674

-0.00725976 0.00478891 -2.53841e-10
0.00478891 -0.00315966 -1.28179e-10
-2.53841e-10 -1.28179e-10 -1.07596

0.204211 -0.190847 9.02124e-10
-0.190847 -0.0362022 -2.59793e-10
9.02124e-10 -2.59793e-10 -1.3385

0.204499 0.192291 2.72335e-10
0.192291 -0.0319923 1.32115e-10
2.72335e-10 1.32115e-10 -1.33733

-0.00348583 -0.00229927 -5.54601e-11
-0.00229927 -0.00151726 2.13881e-10
-5.54601e-11 2.13881e-10 -1.07495

0.230534 -0.120868 -2.04162e-11
-0.120868 -0.0582374 1.74296e-11
-2.04162e-11 1.74296e-11 -0.844268

0.192871 -0.462494 2.61922e-11
-0.462494 0.186321 3.87124e-11
2.61922e-11 3.87124e-11 -0.467167

-0.214892 -0.135936 -5.39379e-12
-0.135936 0.291065 3.51487e-11
-5.39379e-12 3.51487e-11 -1.15991

0.232827 0.123995 -1.42533e-11
0.123995 -0.0568305 -6.33644e-11
-1.42533e-11 -6.33644e-11 -0.84376

-0.2126 0.13727 -4.46834e-11
0.13727 0.294756 -8.42608e-11
-4.46834e-11 -8.42608e-11 -1.15861

0.193428 0.465278 -1.38778e-16
0.465278 0.188059 -7.22229e-12
-1.38778e-16 -7.22229e-12 -0.467225

0.106359 0.155587 -1.50228e-11
0.155587 0.352838 -3.0623e-11
-1.50228e-11 -3.0623e-11 -0.540507

-0.0224566 0.319782 1.04001e-11
0.319782 0.0610977 -2.53268e-11
1.04001e-11 -2.53268e-11 -0.824908

0.105515 -0.154613 -2.42675e-11
-0.154613 0.352614 2.31091e-12
-2.42675e-11 2.31091e-12 -0.540427

-0.0229793 -0.317644 8.47374e-12
-0.317644 0.0596592 1.82006e-11
8.47374e-12 1.82006e-11 -0.825208

-1.32275 2.21506 -2.60458e-12
2.21506 3.68065 -3.69915e-11
-2.60458e-12 -3.69915e-11 0.829718

-0.557785 0.360388 1.82993e-11
0.360388 1.20583 7.31926e-12
1.82993e-11 7.31926e-12 -0.214071

-4.28654 0.6245 -8.66949e-12
0.6245 2.27015 -1.81079e-11
-8.66949e-12 -1.81079e-11 -0.599981

3.46085 1.13658 -3.87394e-13
1.13658 -3.44057 4.58502e-11
-3.87394e-13 4.58502e-11 0.041309

4.82841 0.326817 -4.37328e-11
0.326817 -1.91898 1.61876e-11
-4.37328e-11 1.61876e-11 0.754023

-3.55399 -0.244173 2.25379e-11
-0.244173 -0.97355 -6.55032e-12
2.25379e-11 -6.55032e-12 -1.69663

-7.19711 0.948596 1.11705e-11
0.948596 1.43805 -2.77408e-11
1.11705e-11 -2.77408e-11 -2.10634

4.93674 -0.313846 -1.79196e-11
-0.313846 -1.28158 3.0852e-12
-1.79196e-11 3.0852e-12 0.834356

3.12856 0.25766 3.39543e-11
0.25766 -5.04123 -1.05963e-11
3.39543e-11 -1.05963e-11 -0.636175

1.4621 1.98873 -9.15094e-12
1.98873 5.79906 1.73392e-11
-9.15094e-12 1.73392e-11 2.83513

3.17373 -3.21611 2.80354e-11
-3.21611 6.62069 1.02094e-11
2.80354e-11 1.02094e-11 3.37427

6.29273 2.00373 2.92892e-11
2.00373 2.15679 1.54051e-12
2.92892e-11 1.54051e-12 3.15329

-2.0564 -3.67292 1.10763e-11
-3.67292 0.17761 -3.17833e-11
1.10763e-11 -3.17833e-11 -1.35035

-3.35038 -1.28398 -1.23275e-11
-1.28398 0.289289 1.11724e-11
-1.23275e-11 1.11724e-11 -1.71179

-3.68173 1.90384 2.82216e-11
1.90384 2.30344 -5.78012e-12
2.82216e-11 -5.78012e-12 -0.0276929

-5.38651 2.20914 -3.12115e-11
2.20914 1.45784 -3.89159e-11
-3.12115e-11 -3.89159e-11 -0.598309

-7.23232 -1.05188 9.82448e-12
-1.05188 1.58692 -1.07873e-11
9.82448e-12 -1.07873e-11 -2.12759

-4.06856 -2.74932 -2.40803e-11
-2.74932 -0.341978 -5.19969e-12
-2.40803e-11 -5.19969e-12 -1.77265

2.49092 -1.95787 -9.0572e-12
-1.95787 -3.77875 -8.28276e-12
-9.0572e-12 -8.28276e-12 -0.0346093

0.438848 0.628076 8.76384e-12
0.628076 6.53497 -8.47981e-12
8.76384e-12 -8.47981e-12 2.29931

1.93945 -1.25448 3.08258e-11
-1.25448 6.41082 -2.13869e-11
3.08258e-11 -2.13869e-11 2.37931

6.49102 0.471592 1.73402e-12
0.471592 1.68414 5.04735e-11
1.73402e-12 5.04735e-11 2.61608

-0.876052 2.56734 -3.29397e-11
2.56734 2.17272 3.96893e-11
-3.29397e-11 3.96893e-11 0.630144

4.68804 -1.76396 -1.6569e-11
-1.76396 -0.758989 9.82623e-12
-1.6569e-11 9.82623e-12 1.05272

-0.032702 2.81975 -1.84001e-13
2.81975 0.496737 6.11664e-11
-1.84001e-13 6.11664e-11 0.300691

1.5878 1.99895 1.15578e-12
1.99895 3.00035 -1.1573e-12
1.15578e-12 -1.1573e-12 0.995646

3.84696 -0.603046 -1.78682e-11
-0.603046 -3.67783 3.8522e-13
-1.78682e-11 3.8522e-13 -0.0241286

5.52375 1.34921 -2.73589e-11
1.34921 8.6327 -2.65909e-11
-2.73589e-11 -2.65909e-11 5.49685

2.55726 0.676552 -5.50992e-11
0.676552 -4.9706 2.04186e-11
-5.50992e-11 2.04186e-11 -0.612695

8.54508 1.25883 -3.17886e-11
1.25883 6.28065 -1.40628e-15
-3.17886e-11 -1.40628e-15 5.816

-1.88521 -1.25049 1.19428e-11
-1.25049 -0.722826 -3.65944e-12
1.19428e-11 -3.65944e-12 -1.75281

-4.02056 0.159114 -4.04626e-12
0.159114 0.855714 -5.3932e-12
-4.04626e-12 -5.3932e-12 -2.23766

-4.69112 -1.34174 9.5585e-12
-1.34174 -6.94726 1.34903e-12
9.5585e-12 1.34903e-12 -7.29169

-6.02578 3.24774 6.79005e-12
3.24774 -5.6864 1.2711e-11
6.79005e-12 1.2711e-11 -7.16328

6.88346 -0.855325 6.02113e-11
-0.855325 2.16495 -8.47733e-12
6.02113e-11 -8.47733e-12 2.73241

-2.3331 2.99141 -1.04032e-11
2.99141 -0.404518 -6.16548e-12
-1.04032e-11 -6.16548e-12 -0.392342

-2.71245 1.70986 4.50225e-12
1.70986 -3.22893 8.47618e-12
4.50225e-12 8.47618e-12 -2.61758

-1.9684 -0.480245 -1.48566e-11
-0.480245 -2.64526 2.33092e-11
-1.48566e-11 2.33092e-11 -2.6658

3.22819 0.258357 8.50137e-12
0.258357 -5.48395 2.58114e-11
8.50137e-12 2.58114e-11 -0.586832

0.541426 2.81887 -1.69538e-11
2.81887 2.71396 -2.1576e-11
-1.69538e-11 -2.1576e-11 0.778858

4.13411 -2.23261 -2.05186e-11
-2.23261 1.2415 -1.09801e-11
-2.05186e-11 -1.09801e-11 1.22307

3.77224 -0.0260359 2.81763e-11
-0.0260359 -5.64369 -1.42554e-11
2.81763e-11 -1.42554e-11 -0.449619

0.226637 -3.84109 4.52571e-12
-3.84109 3.8575 1.44497e-11
4.52571e-12 1.44497e-11 0.843387

0.353308 -3.34926 -2.88639e-13
-3.34926 4.03272 2.60073e-11
-2.88639e-13 2.60073e-11 0.86506

-0.894025 1.69843 4.62467e-12
1.69843 0.501785 1.67582e-11
4.62467e-12 1.67582e-11 -0.219738

3.56933 -3.84513 3.41998e-11
-3.84513 2.38592 -1.42643e-11
3.41998e-11 -1.42643e-11 1.57045

16.9347 -3.83199 2.06167e-11
-3.83199 16.6411 -1.04069e-11
2.06167e-11 -1.04069e-11 16.6472

16.8441 -4.06092 5.77945e-12
-4.06092 17.8996 -1.58013e-11
5.77945e-12 -1.58013e-11 17.1476

-3.71734 -4.46371 -2.53294e-11
-4.46371 1.05035 -1.57941e-11
-2.53294e-11 -1.57941e-11 -1.08648

10.8019 -1.51602 1.54225e-12
-1.51602 10.4862 2.83245e-11
1.54225e-12 2.83245e-11 11.4367

9.81334 -1.2424 3.02514e-11
-1.2424 10.6482 5.7799e-12
3.02514e-11 5.7799e-12 10.9948

0.181909 1.93711 2.15675e-11
1.93711 -3.69432 -4.25719e-11
2.15675e-11 -4.25719e-11 -1.7727

-0.635998 -2.56481 -3.044e-11
-2.56481 -3.35417 -3.04347e-11
-3.044e-11 -3.04347e-11 -2.47862

1.7116 -1.33914 1.54154e-12
-1.33914 -4.8873 3.08153e-12
1.54154e-12 3.08153e-12 -0.329124

-0.0599897 2.60809 -3.12112e-11
2.60809 -5.28695 -1.3674e-11
-3.12112e-11 -1.3674e-11 -2.12987

-1.19506 -3.5982 -2.15769e-11
-3.5982 -3.85887 1.07875e-10
-2.15769e-11 1.07875e-10 -2.74396

-0.995896 1.97361 -1.65737e-11
1.97361 1.99298 -8.38024e-11
-1.65737e-11 -8.38024e-11 0.126664

-3.00238 -1.24593 3.79244e-11
-1.24593 -6.86293 1.11879e-11
3.79244e-11 1.11879e-11 -5.78743

-4.73599 1.67551 -6.33238e-12
1.67551 -5.808 -4.65539e-12
-6.33238e-12 -4.65539e-12 -5.822

0.636564 3.05487 2.27334e-11
3.05487 -3.46668 3.42394e-11
2.27334e-11 3.42394e-11 -0.877393

-0.482974 -3.88571 2.52361e-11
-3.88571 -3.13567 -2.00417e-11
2.52361e-11 -2.00417e-11 -1.23875

6.55163 -2.65336 -4.31584e-11
-2.65336 2.90784 -3.58342e-11
-4.31584e-11 -3.58342e-11 3.44786

-4.93301 -0.75673 -5.5857e-11
-0.75673 -2.78429 1.06923e-11
-5.5857e-11 1.06923e-11 -4.00688

-6.58967 -0.125627 2.504e-11
-0.125627 0.146779 1.1553e-12
2.504e-11 1.1553e-12 -5.00859

-1.13905 -3.24483 3.17895e-11
-3.24483 2.1064 1.46364e-11
3.17895e-11 1.46364e-11 0.556572

5.47449 -1.11847 3.27566e-11
-1.11847 8.7582 -9.44378e-12
3.27566e-11 -9.44378e-12 5.88807

8.73085 -1.04623 -5.60693e-11
-1.04623 5.64762 3.08361e-12
-5.60693e-11 3.08361e-12 5.98397

-2.15133 1.2594 -4.16087e-11
1.2594 1.18663 5.78145e-12
-4.16087e-11 5.78145e-12 -0.389117

-5.39482 1.89374 3.54435e-11
1.89374 1.82195 -2.50465e-11
3.54435e-11 -2.50465e-11 -0.656041

-1.64962 2.46841 -8.12902e-11
2.46841 -8.85504 -6.32287e-12
-8.12902e-11 -6.32287e-12 -7.18726

-1.9556 0.735046 -1.61539e-11
0.735046 0.590518 2.608e-10
-1.61539e-11 2.608e-10 -7.9611

-5.50174 2.84955 1.14636e-11
2.84955 -1.22566 1.92639e-11
1.14636e-11 1.92639e-11 -1.11147

1.69449 2.25455 3.83101e-13
2.25455 -4.09701 -5.77871e-13
3.83101e-13 -5.77871e-13 -0.453955

1.0689 -3.43279 2.50474e-11
-3.43279 -3.77772 2.92802e-11
2.50474e-11 2.92802e-11 -0.631396

-4.44844 3.91088 7.51314e-12
3.91088 -1.23211 -9.63285e-12
7.51314e-12 -9.63285e-12 -0.959824

-6.23757 -2.97447 1.63747e-11
-2.97447 0.189783 -3.86284e-13
1.63747e-11 -3.86284e-13 -1.58058

6.78431 -0.281518 4.4414e-11
-0.281518 0.959054 -1.5415e-11
4.4414e-11 -1.5415e-11 2.58739

4.11864 -1.1374 -6.74142e-12
-1.1374 -2.19378 -7.51184e-12
-6.74142e-12 -7.51184e-12 0.729948

5.10036 1.39696 1.04022e-11
1.39696 -0.248153 -1.84938e-11
1.04022e-11 -1.84938e-11 1.42173

-1.81112 1.55041 -7.19713e-12
1.55041 -4.81271 1.42571e-11
-7.19713e-12 1.42571e-11 -2.38765

-12.4692 1.05419 6.66798e-11
1.05419 -5.52198 -2.73564e-11
6.66798e-11 -2.73564e-11 -9.64965

-8.92943 -0.777044 2.16222e-11
-0.777044 -8.49533 -2.06128e-11
2.16222e-11 -2.06128e-11 -9.62673

3.52334 2.24317 3.65092e-11
2.24317 4.82103 1.27124e-11
3.65092e-11 1.27124e-11 2.68555

1.13114 -2.88291 -1.83037e-11
-2.88291 -0.0145517 -9.24664e-12
-1.83037e-11 -9.24664e-12 0.111497

2.41084 1.56082 -3.67977e-11
1.56082 -2.56394 -2.34986e-11
-3.67977e-11 -2.34986e-11 0.120353

-6.26637 1.74035 -7.16531e-11
1.74035 -0.574239 -1.53707e-12
-7.16531e-11 -1.53707e-12 -6.22782

-6.51519 -1.16246 3.67914e-11
-1.16246 -4.24655 2.43653e-11
3.67914e-11 2.43653e-11 -5.44968

-1.37859 -0.424215 -2.27783e-11
-0.424215 -5.16857 2.21541e-11
-2.27783e-11 2.21541e-11 -2.64707

-1.09871 -2.2435 -2.1476e-11
-2.2435 1.73133 5.78041e-12
-2.1476e-11 5.78041e-12 -0.318141

-4.45091 -0.725916 6.74065e-13
-0.725916 2.40476 -1.07892e-11
6.74065e-13 -1.07892e-11 -0.71306

1.59098 0.497902 -7.32255e-12
0.497902 -6.63102 -7.7051e-12
-7.32255e-12 -7.7051e-12 -0.686222

1.37572 -1.56365 -8.09208e-12
-1.56365 -6.40292 -1.15512e-12
-8.09208e-12 -1.15512e-12 -0.796209

4.95966 -3.18646 1.20491e-11
-3.18646 3.59791 -7.70524e-12
1.20491e-11 -7.70524e-12 2.91088

1.09548 1.96721 1.90275e-11
1.96721 -6.67271 3.33205e-11
1.90275e-11 3.33205e-11 -1.24927

0.761694 -3.05932 1.65686e-11
-3.05932 -5.3811 -2.15781e-11
1.65686e-11 -2.15781e-11 -1.41004

2.40482 -2.72386 6.3578e-12
-2.72386 -2.83107 3.08237e-11
6.3578e-12 3.08237e-11 0.0409569

-1.03541 -2.71389 -1.5222e-11
-2.71389 3.37323 -3.00523e-11
-1.5222e-11 -3.00523e-11 0.805696

0.941114 1.18291 -2.23483e-11
1.18291 -4.7782 5.39594e-12
-2.23483e-11 5.39594e-12 -0.659853

1.09059 -2.19377 3.85277e-12
-2.19377 -4.70312 1.45434e-11
3.85277e-12 1.45434e-11 -0.81262

2.93309 -0.71642 -9.24808e-12
-0.71642 -2.20434 -3.0628e-11
-9.24808e-12 -3.0628e-11 -0.0180127

0.386112 3.42216 -3.47011e-12
3.42216 -1.30092 1.35151e-12
-3.47011e-12 1.35151e-12 -0.318572

2.92045 2.26837 3.05299e-11
2.26837 1.37822 -2.81254e-11
3.05299e-11 -2.81254e-11 1.22108

-5.47325 3.39875 1.66607e-11
3.39875 -2.3857 -1.88793e-11
1.66607e-11 -1.88793e-11 -1.29574

-1.98603 2.52962 -9.63248e-13
2.52962 -0.122932 2.31259e-12
-9.63248e-13 2.31259e-12 -0.520089

4.64953 1.26268 -1.79181e-11
1.26268 -1.38972 2.65887e-11
-1.79181e-11 2.65887e-11 1.10193

-0.48527 -1.69008 2.65366e-11
-1.69008 -2.54281 -7.70783e-12
2.65366e-11 -7.70783e-12 -1.04776

2.77188 1.05651 -4.61949e-12
1.05651 -2.15032 -6.81963e-11
-4.61949e-12 -6.81963e-11 0.132615

0.954882 2.71573 -2.37952e-11
2.71573 1.9337 1.15855e-12
-2.37952e-11 1.15855e-12 1.0755

0.318766 2.56538 1.39654e-11
2.56538 -0.863847 -4.66243e-11
1.39654e-11 -4.66243e-11 0.0575535

-5.95348 0.0299754 5.2007e-12
0.0299754 2.93747 -8.86535e-12
5.2007e-12 -8.86535e-12 -0.753612

-3.05772 -1.10515 3.39039e-11
-1.10515 1.3855 -1.657e-11
3.39039e-11 -1.657e-11 -0.669815

5.67902 -3.19853 -1.11705e-11
-3.19853 2.06436 1.888e-11
-1.11705e-11 1.888e-11 3.05212

-3.18715 -4.36457 2.48993e-11
-4.36457 0.974126 -2.96693e-11
2.48993e-11 -2.96693e-11 -0.832694

1.36083 -3.84836 1.50244e-11
-3.84836 3.33105 2.35011e-11
1.50244e-11 2.35011e-11 1.47695

2.98323 3.12279 -1.77311e-11
3.12279 3.08419 -5.93403e-11
-1.77311e-11 -5.93403e-11 1.55126

2.31241 -1.425 1.15118e-11
-1.425 -0.975224 2.60281e-12
1.15118e-11 2.60281e-12 0.0514478

1.89063 -0.110642 3.75664e-12
-0.110642 -6.6198 -1.56022e-11
3.75664e-12 -1.56022e-11 -1.46603

1.30043 0.458616 2.02279e-12
0.458616 -5.9698 1.5409e-11
2.02279e-12 1.5409e-11 -1.34581

-2.14559 1.43114 5.77742e-13
1.43114 4.36231 -1.84948e-11
5.77742e-13 -1.84948e-11 0.853754

0.65555 -3.43768 -1.44506e-11
-3.43768 1.81727 2.94769e-11
-1.44506e-11 2.94769e-11 0.342311

-0.496282 -0.471963 5.2405e-11
-0.471963 6.85305 1.42536e-11
5.2405e-11 1.42536e-11 2.46491

1.04009 -0.596952 1.25242e-11
-0.596952 6.98517 -1.32951e-11
1.25242e-11 -1.32951e-11 2.63447

6.78046 -0.789989 -2.31182e-11
-0.789989 0.429176 -3.85789e-12
-2.31182e-11 -3.85789e-12 2.76969

5.1813 2.27399 6.18517e-11
2.27399 4.20979 2.65873e-11
6.18517e-11 2.65873e-11 2.92726

2.62307 -3.94819 -1.84946e-11
-3.94819 0.460838 -1.53914e-12
-1.84946e-11 -1.53914e-12 1.15591

-1.08003 -0.937529 -5.40192e-12
-0.937529 -0.891442 -6.31755e-11
-5.40192e-12 -6.31755e-11 -7.25737

-9.69473 -3.55816 2.75424e-11
-3.55816 -5.29298 1.38627e-11
2.75424e-11 1.38627e-11 -7.77939

4.17025 -2.33783 2.50607e-12
-2.33783 -1.47317 -1.03995e-11
2.50607e-12 -1.03995e-11 0.9875

-0.262544 3.16069 1.90702e-11
3.16069 0.788143 -8.67025e-12
1.90702e-11 -8.67025e-12 0.028585

1.85906 0.210626 3.93028e-11
0.210626 -4.8118 8.47119e-12
3.93028e-11 8.47119e-12 -0.254478

-0.0949711 -2.86512 6.45349e-12
-2.86512 4.80203 1.4449e-11
6.45349e-12 1.4449e-11 1.03939

-7.39721 2.98275 2.43663e-11
2.98275 0.204079 -1.19454e-11
2.43663e-11 -1.19454e-11 -1.65325

-2.19689 1.24439 -1.2714e-11
1.24439 -0.43572 -2.44638e-11
-1.2714e-11 -2.44638e-11 -0.802

-3.2732 -4.06381 9.6075e-13
-4.06381 -1.43285 -1.4643e-11
9.6075e-13 -1.4643e-11 -0.821862

-1.10039 3.04326 -1.52169e-11
3.04326 -0.713734 3.66263e-12
-1.52169e-11 3.66263e-12 -0.46827

-4.24813 2.40948 -1.5126e-11
2.40948 0.81683 -4.46955e-11
-1.5126e-11 -4.46955e-11 -0.378984

1.14395 -0.286591 1.15539e-12
-0.286591 -10.3696 3.46803e-12
1.15539e-12 3.46803e-12 -1.34914

3.86245 2.97239 -4.25854e-11
2.97239 0.678945 -5.60614e-11
-4.25854e-11 -5.60614e-11 1.3534

-3.23832 -4.61824 1.45921e-11
-4.61824 2.24509 -9.63278e-12
1.45921e-11 -9.63278e-12 -0.58409

2.76199 2.67578 -1.52181e-11
2.67578 2.07642 -3.62201e-11
-1.52181e-11 -3.62201e-11 1.24117

4.13955 -2.62563 -2.84188e-11
-2.62563 5.72076 3.5649e-11
-2.84188e-11 3.5649e-11 3.02164

-1.42645 -3.77977 -8.68083e-13
-3.77977 1.5604 1.73379e-11
-8.68083e-13 1.73379e-11 -0.242495

0.285251 -1.70593 -3.9113e-11
-1.70593 6.11074 4.08481e-11
-3.9113e-11 4.08481e-11 2.07249

2.33218 0.651542 -1.15511e-12
0.651542 5.89526 -9.63296e-12
-1.15511e-12 -9.63296e-12 2.21049

5.74409 -1.6057 -1.02126e-11
-1.6057 1.17117 -7.71477e-12
-1.02126e-11 -7.71477e-12 2.30988

1.96651 -3.44354 4.81963e-12
-3.44354 1.45585 -8.08846e-12
4.81963e-12 -8.08846e-12 1.12652

-2.86496 -0.163471 -2.67806e-11
-0.163471 4.32298 1.7724e-11
-2.67806e-11 1.7724e-11 0.463703

0.341814 -0.617229 7.12673e-12
-0.617229 3.79231 -1.19474e-11
7.12673e-12 -1.19474e-11 0.725694

3.12519 -3.44576 3.46945e-12
-3.44576 5.23533 -5.39369e-12
3.46945e-12 -5.39369e-12 3.14148

4.24554 2.5553 -1.33993e-12
2.5553 5.08997 6.16307e-12
-1.33993e-12 6.16307e-12 3.1125

-0.153332 0.012624 4.7388e-11
0.012624 -7.41386 -2.60111e-11
4.7388e-11 -2.60111e-11 -1.07701

-0.125912 -0.610758 3.08246e-12
-0.610758 -6.88388 2.50427e-11
3.08246e-12 2.50427e-11 -1.09543

-0.0954158 2.76256 1.31005e-11
2.76256 0.615808 -1.73483e-12
1.31005e-11 -1.73483e-12 0.0247227

-3.68862 -4.56291 3.88159e-11
-4.56291 1.47183 -5.56752e-11
3.88159e-11 -5.56752e-11 -0.913815

-2.15985 3.12956 6.45169e-12
3.12956 -1.64175 1.15352e-12
6.45169e-12 1.15352e-12 -0.790231

7.15908 1.4384 -1.85947e-11
1.4384 3.94471 -2.46661e-11
-1.85947e-11 -2.46661e-11 4.37106

0.0649384 1.71867 -8.66622e-12
1.71867 4.1913 9.63289e-12
-8.66622e-12 9.63289e-12 0.99937

0.76131 1.58518 1.92653e-11
1.58518 -4.50449 4.29509e-11
1.92653e-11 4.29509e-11 -1.29533

0.275216 -2.76533 -4.24094e-12
-2.76533 -4.35273 -6.06446e-12
-4.24094e-12 -6.06446e-12 -1.77975

1.40914 2.26072 -9.05424e-12
2.26072 -2.26509 -2.69507e-12
-9.05424e-12 -2.69507e-12 -0.280917

1.15719 -3.26781 2.60087e-11
-3.26781 -2.68631 -9.63537e-12
2.60087e-11 -9.63537e-12 -0.501234

9.05586 -1.63427 1.50309e-11
-1.63427 5.99705 3.2371e-11
1.50309e-11 3.2371e-11 10.2039

5.91088 -1.91228 5.97137e-12
-1.91228 9.76454 1.36848e-11
5.97137e-12 1.36848e-11 10.5098

-2.34622 -2.17084 5.39211e-12
-2.17084 4.21949 3.85003e-12
5.39211e-12 3.85003e-12 0.776828

-0.135973 2.59428 -2.92745e-11
2.59428 -7.05993 1.97398e-13
-2.92745e-11 1.97398e-13 -3.86941

-0.843678 -3.6694 6.27958e-11
-3.6694 -4.21049 4.12162e-11
6.27958e-11 4.12162e-11 -4.74744

2.07617 2.62963 1.53825e-12
2.62963 -0.489603 -3.27479e-12
1.53825e-12 -3.27479e-12 0.35191

7.5303 1.06254 -3.1215e-11
1.06254 3.71105 2.46555e-11
-3.1215e-11 2.46555e-11 4.41415

-2.89528 -3.16831 1.05945e-11
-3.16831 2.0654 1.36783e-11
1.05945e-11 1.36783e-11 -0.502091

-5.29421 -1.52142 1.34899e-12
-1.52142 2.59222 -2.11942e-11
1.34899e-12 -2.11942e-11 -0.606844

2.23608 -3.77268 9.34408e-12
-3.77268 3.22423 -1.1947e-11
9.34408e-12 -1.1947e-11 1.39017

-4.69142 -3.05608 1.09811e-11
-3.05608 -2.20816 -2.26671e-15
1.09811e-11 -2.26671e-15 -1.17847

1.62489 -3.55016 -2.04202e-11
-3.55016 -0.929211 -3.85654e-13
-2.04202e-11 -3.85654e-13 0.265604

-7.54299 4.62498 -1.34744e-12
4.62498 -1.0835 3.46815e-12
-1.34744e-12 3.46815e-12 -1.31393

-2.45967 1.12916 -1.13671e-11
1.12916 -1.08613 -3.37083e-11
-1.13671e-11 -3.37083e-11 -1.50537

-3.28327 1.93983 2.71609e-11
1.93983 -0.305436 -1.01133e-11
2.71609e-11 -1.01133e-11 -1.7931

-2.33713 -3.4015 -2.27345e-11
-3.4015 -0.557536 -3.46641e-12
-2.27345e-11 -3.46641e-12 -0.357688

-2.95196 3.31969 -2.24445e-11
3.31969 -0.252032 -4.16121e-11
-2.24445e-11 -4.16121e-11 -0.359649

4.31706 2.20908 2.73573e-11
2.20908 0.346893 -8.09279e-12
2.73573e-11 -8.09279e-12 1.4784

3.6442 -0.0058992 -1.98415e-11
-0.0058992 -2.03252 4.50782e-11
-1.98415e-11 4.50782e-11 0.661006

-0.318248 2.29365 -4.04735e-12
2.29365 -0.444585 -6.74157e-12
-4.04735e-12 -6.74157e-12 -0.177467

-2.01862 -3.67394 -1.01116e-11
-3.67394 3.26283 -2.46585e-11
-1.01116e-11 -2.46585e-11 0.071633

-3.56388 0.557019 -1.80136e-11
0.557019 4.43757 -2.11933e-11
-1.80136e-11 -2.11933e-11 0.419435

1.23867 3.43266 -1.75281e-11
3.43266 -1.75381 5.39424e-12
-1.75281e-11 5.39424e-12 -0.174297

-0.706026 0.096895 -2.08052e-11
0.096895 3.53705 -1.38728e-11
-2.08052e-11 -1.38728e-11 0.533725

-7.21234 -2.55991 -7.51382e-12
-2.55991 -0.0320323 -2.00341e-11
-7.51382e-12 -2.00341e-11 -1.57837

9.06637 -2.16145 3.08283e-11
-2.16145 10.311 -7.14876e-11
3.08283e-11 -7.14876e-11 8.56313

10.4282 -2.20976 5.83837e-11
-2.20976 8.94869 -2.12597e-12
5.83837e-11 -2.12597e-12 8.57066

2.7602 0.758227 -6.51144e-11
0.758227 -3.87268 1.50302e-11
-6.51144e-11 1.50302e-11 0.0241231

-0.116433 -4.0461 -7.51332e-12
-4.0461 -2.00823 1.4258e-11
-7.51332e-12 1.4258e-11 -0.441774

-0.637311 2.29662 4.25218e-12
2.29662 -8.8714 1.08633e-10
4.25218e-12 1.08633e-10 -6.50465

0.637072 -0.645653 6.20197e-11
-0.645653 -4.27093 -7.47327e-11
6.20197e-11 -7.47327e-11 -7.51805

-3.67974 -2.85131 -1.27153e-11
-2.85131 0.574096 -2.31159e-11
-1.27153e-11 -2.31159e-11 -0.373607

-5.35612 -0.863788 4.28539e-12
-0.863788 -3.92602 -1.11732e-11
4.28539e-12 -1.11732e-11 -4.77419

-5.44811 2.98981 -1.13172e-11
2.98981 -2.13752 -1.92609e-12
-1.13172e-11 -1.92609e-12 -4.19021

4.20513 0.268748 -3.77601e-11
0.268748 -4.2015 6.78086e-11
-3.77601e-11 6.78086e-11 -0.0161949

-3.53324 -4.95024 -4.91043e-12
-4.95024 2.13408 -4.19954e-11
-4.91043e-12 -4.19954e-11 -0.560214

7.66282 1.66379 -5.45311e-11
1.66379 7.80018 -3.77643e-11
-5.45311e-11 -3.77643e-11 6.65795

6.90813 1.60399 2.31304e-12
1.60399 6.94588 -4.31638e-11
2.31304e-12 -4.31638e-11 6.1035

3.5501 -1.92587 -2.60106e-11
-1.92587 8.03677 -1.84948e-11
-2.60106e-11 -1.84948e-11 4.98202

4.71271 0.958876 -5.24086e-11
0.958876 7.98619 -1.9846e-11
-5.24086e-11 -1.9846e-11 4.91374

8.01548 -1.63556 1.04066e-11
-1.63556 3.98137 -6.55132e-12
1.04066e-11 -6.55132e-12 5.13932

-6.96629 -4.54431 1.59886e-11
-4.54431 -1.40789 -1.50302e-11
1.59886e-11 -1.50302e-11 -1.34247

4.1605 0.0914419 -1.19422e-11
0.0914419 9.41996 2.46643e-11
-1.19422e-11 2.46643e-11 6.21105

9.4766 0.136029 -2.38925e-11
0.136029 5.00575 6.17031e-12
-2.38925e-11 6.17031e-12 6.53496

-4.66268 0.305578 -1.65669e-11
0.305578 0.456314 -4.43056e-11
-1.65669e-11 -4.43056e-11 -3.24408

-3.79693 -2.60702 -2.89128e-12
-2.60702 -0.956469 1.05005e-11
-2.89128e-12 1.05005e-11 -2.82768

1.66624 1.045 -2.93334e-11
1.045 -2.73607 -1.65635e-11
-2.93334e-11 -1.65635e-11 -0.466896

3.36812 0.174261 1.75799e-11
0.174261 -6.1117 -4.23839e-12
1.75799e-11 -4.23839e-12 -0.602864

0.416046 -2.45842 -2.61978e-11
-2.45842 4.68512 4.39349e-11
-2.61978e-11 4.39349e-11 1.92587

1.74744 1.57332 -1.92635e-12
1.57332 5.05257 -2.23523e-11
-1.92635e-12 -2.23523e-11 2.06567

4.08547 0.206682 -2.32148e-11
0.206682 -4.12409 6.93432e-12
-2.32148e-11 6.93432e-12 -0.051079

-3.36702 -2.50162 -1.5026e-11
-2.50162 2.11643 -2.46594e-11
-1.5026e-11 -2.46594e-11 -0.0382539

-0.105474 1.45813 -4.62392e-11
1.45813 -5.43705 -2.54159e-11
-4.62392e-11 -2.54159e-11 -2.61653

-0.691319 -2.02324 4.16079e-11
-2.02324 -4.00258 7.74269e-11
4.16079e-11 7.74269e-11 -3.37522

-1.11727 2.38123 1.251e-12
2.38123 -1.29476 -2.70006e-12
1.251e-12 -2.70006e-12 -0.678088

-2.02227 -4.18062 4.81689e-12
-4.18062 2.74127 1.32915e-11
4.81689e-12 1.32915e-11 -0.108432

1.99595 1.07909 -1.55051e-11
1.07909 -4.65621 -5.39369e-11
-1.55051e-11 -5.39369e-11 -0.679306

3.95357 2.18509 -9.62859e-13
2.18509 3.23778 1.1176e-11
-9.62859e-13 1.1176e-11 2.55577

-1.82065 -4.50949 -1.11716e-11
-4.50949 2.65165 -2.2539e-11
-1.11716e-11 -2.2539e-11 -0.0503539

17.3939 3.99874 -7.76562e-11
3.99874 17.4633 2.31243e-11
-7.76562e-11 2.31243e-11 17.6446

-1.47394 -1.64883 -1.8301e-11
-1.64883 3.82583 -1.40619e-11
-1.8301e-11 -1.40619e-11 0.40322

-3.06321 -0.974618 -2.12256e-12
-0.974618 4.38269 1.46406e-11
-2.12256e-12 1.46406e-11 0.499155

-6.27657 -0.437077 -1.09731e-11
-0.437077 1.5375 9.94009e-11
-1.09731e-11 9.94009e-11 -3.81215

-4.30081 -2.04964 1.34784e-11
-2.04964 -2.60895 -1.27135e-11
1.34784e-11 -1.27135e-11 -3.45153

1.01829 1.14285 4.73922e-11
1.14285 -10.4157 -4.24509e-12
4.73922e-11 -4.24509e-12 -1.66198

0.906537 -1.68709 5.7786e-12
-1.68709 -8.79363 9.2449e-12
5.7786e-12 9.2449e-12 -1.67234

-3.01814 3.44833 8.57081e-12
3.44833 -2.86065 -1.88782e-11
8.57081e-12 -1.88782e-11 -1.86617

-3.0583 -2.20859 4.48364e-11
-2.20859 -2.1407 -4.10318e-11
4.48364e-11 -4.10318e-11 -2.1051

-4.38406 2.6522 2.96897e-11
2.6522 -3.22523 1.84942e-11
2.96897e-11 1.84942e-11 -3.57571

-4.47174 -1.84499 -2.85344e-11
-1.84499 -1.66159 -1.8298e-11
-2.85344e-11 -1.8298e-11 -3.60584

-0.495604 2.52175 1.02876e-10
2.52175 -7.50159 1.05149e-10
1.02876e-10 1.05149e-10 -5.16769

-1.44072 -3.52764 4.54622e-11
-3.52764 -3.3591 1.11651e-11
4.54622e-11 1.11651e-11 -6.44098

0.764487 2.60537 -8.66677e-12
2.60537 -2.14068 1.19416e-11
-8.66677e-12 1.19416e-11 -0.567887

-4.79214 -4.91971 -8.28386e-12
-4.91971 -2.60486 -3.0436e-11
-8.28386e-12 -3.0436e-11 -1.64562

2.67981 2.72224 -9.05683e-12
2.72224 -1.80128 -3.73732e-11
-9.05683e-12 -3.73732e-11 0.296806

-0.57178 -3.08085 -1.94565e-11
-3.08085 3.37221 -2.92816e-11
-1.94565e-11 -2.92816e-11 0.365416

-3.47104 -1.86131 4.43174e-12
-1.86131 2.8309 1.92636e-11
4.43174e-12 1.92636e-11 0.0214527

5.55464 -2.73563 -3.23624e-11
-2.73563 4.93383 2.3894e-11
-3.23624e-11 2.3894e-11 3.22852

1.91698 -3.61314 -1.07858e-11
-3.61314 -1.86664 3.42899e-11
-1.07858e-11 3.42899e-11 0.174562

-3.20406 1.24379 7.85072e-12
1.24379 3.15053 -1.84951e-11
7.85072e-12 -1.84951e-11 0.165657

1.8416 3.61905 6.16988e-12
3.61905 0.154554 1.54134e-11
6.16988e-12 1.54134e-11 0.469244

-6.43775 5.37116 1.33866e-11
5.37116 -2.44189 -1.15572e-11
1.33866e-11 -1.15572e-11 -1.8623

-4.23596 -4.3633 2.28738e-11
-4.3633 0.531015 1.79149e-11
2.28738e-11 1.79149e-11 -1.4156

0.484136 -4.11583 -3.8919e-11
-4.11583 -0.282294 2.70269e-12
-3.8919e-11 2.70269e-12 0.269718

1.87586 -0.293158 -3.50615e-11
-0.293158 -2.18848 2.69695e-11
-3.50615e-11 2.69695e-11 -0.59848

-7.9293 -1.35783 8.72533e-11
-1.35783 -5.5924 -5.6153e-11
8.72533e-11 -5.6153e-11 -7.87211

-1.22955 -1.58252 -2.44632e-11
-1.58252 -1.9997 2.73515e-11
-2.44632e-11 2.73515e-11 -7.55375

-4.41607 -1.60174 -1.15562e-11
-1.60174 1.02274 -1.92625e-11
-1.15562e-11 -1.92625e-11 -0.712685

-0.693339 2.22234 -6.11718e-12
2.22234 -2.85241 -4.23846e-12
-6.11718e-12 -4.23846e-12 -0.832061

-0.281073 -0.164881 -4.52666e-12
-0.164881 -3.98875 5.3932e-12
-4.52666e-12 5.3932e-12 -2.0824

7.9003 -2.79956 1.17561e-11
-2.79956 9.86807 3.58406e-11
1.17561e-11 3.58406e-11 7.92953

9.427 -2.51465 -1.83043e-11
-2.51465 7.72437 -4.23891e-12
-1.83043e-11 -4.23891e-12 7.79671

0.6814 -0.104798 1.65709e-11
-0.104798 -7.52426 2.6386e-11
1.65709e-11 2.6386e-11 -1.50753

0.816481 -0.520397 -2.11903e-11
-0.520397 -6.56778 -1.34842e-11
-2.11903e-11 -1.34842e-11 -1.73881

0.490471 0.561524 9.584e-12
0.561524 -4.71776 2.11888e-11
9.584e-12 2.11888e-11 -2.24256

0.260833 1.46286 -3.23862e-11
1.46286 2.38895 -3.04345e-11
-3.23862e-11 -3.04345e-11 0.408964

4.03764 1.89295 -1.63862e-12
1.89295 0.252156 -4.08422e-11
-1.63862e-12 -4.08422e-11 1.18557

0.5547 2.58887 2.96567e-11
2.58887 -2.03666 -5.74055e-11
2.96567e-11 -5.74055e-11 -0.673865

-0.345086 -3.38846 -1.59831e-11
-3.38846 -2.80684 -4.43092e-11
-1.59831e-11 -4.43092e-11 -1.14232

-8.57744 -0.428981 9.15286e-12
-0.428981 -10.754 1.09859e-10
9.15286e-12 1.09859e-10 -10.5518

-7.91324 3.71481 1.02155e-11
3.71481 -2.89002 2.94438e-11
1.02155e-11 2.94438e-11 -8.75355

-4.90514 -2.89941 -1.56022e-11
-2.89941 0.272587 -2.88958e-11
-1.56022e-11 -2.88958e-11 -0.708622

2.34017 1.90267 5.58464e-12
1.90267 -1.44331 -2.2352e-11
5.58464e-12 -2.2352e-11 0.221633

0.494553 1.75712 2.60139e-11
1.75712 -4.61848 2.21475e-11
2.60139e-11 2.21475e-11 -1.33792

0.286655 -2.37037 2.81294e-11
-2.37037 -3.61907 8.08683e-12
2.81294e-11 8.08683e-12 -1.66292

-1.70571 -4.04163 -1.26174e-11
-4.04163 2.07405 2.90913e-11
-1.26174e-11 2.90913e-11 -0.288637

-2.86302 -5.17178 3.81422e-11
-5.17178 2.31149 -2.92847e-11
3.81422e-11 -2.92847e-11 -0.386175

18.1242 4.7789 2.1186e-12
4.7789 18.6386 -2.31223e-11
2.1186e-12 -2.31223e-11 18.1511

-5.80504 3.65111 2.08031e-11
3.65111 -1.26084 -8.08933e-12
2.08031e-11 -8.08933e-12 -2.12088

-4.28647 -3.22364 -1.15667e-12
-3.22364 0.576283 -4.81554e-12
-1.15667e-12 -4.81554e-12 -1.89748

-3.20766 -4.44825 -1.4737e-11
-4.44825 2.25137 4.39249e-11
-1.4737e-11 4.39249e-11 -0.450347

3.97855 -3.0231 1.81063e-11
-3.0231 -0.351469 -8.86021e-12
1.81063e-11 -8.86021e-12 1.0891

-0.483913 -1.99633 1.81514e-11
-1.99633 0.241886 1.17502e-11
1.81514e-11 1.17502e-11 -0.617058

-3.29354 3.45168 -1.63745e-11
3.45168 -2.92742 -1.34831e-11
-1.63745e-11 -1.34831e-11 -1.83223

-3.20628 -2.76538 2.57658e-11
-2.76538 -0.329668 -2.17654e-11
2.57658e-11 -2.17654e-11 -1.72446

2.09557 -0.276667 6.26129e-13
-0.276667 -4.99706 -4.08381e-11
6.26129e-13 -4.08381e-11 -0.907101

-0.382649 1.01466 1.7337e-11
1.01466 -5.63576 1.00126e-11
1.7337e-11 1.00126e-11 -2.07314

-0.218068 -0.977112 -1.04055e-11
-0.977112 -2.90569 -4.73848e-11
-1.04055e-11 -4.73848e-11 -2.23658

-6.91172 -1.42683 -3.71746e-11
-1.42683 -2.38855 3.27504e-11
-3.71746e-11 3.27504e-11 -5.97005

-7.28898 1.08939 1.13825e-10
1.08939 0.198936 -7.16619e-11
1.13825e-10 -7.16619e-11 -7.04209

11.0571 0.366868 -1.02124e-11
0.366868 7.29494 3.41062e-11
-1.02124e-11 3.41062e-11 10.9646

7.45966 0.330926 2.60407e-12
0.330926 10.7926 2.46662e-11
2.60407e-12 2.46662e-11 10.8075

-0.125027 3.29155 -2.48414e-11
3.29155 -0.989462 5.41303e-11
-2.48414e-11 5.41303e-11 -0.463416

-2.17932 -3.28852 2.09939e-11
-3.28852 -2.09377 2.88937e-11
2.09939e-11 2.88937e-11 -0.986406

-5.05065 -3.14975 -1.29065e-11
-3.14975 -1.37949 -1.46408e-11
-1.29065e-11 -1.46408e-11 -1.01726

11.2223 1.17199 1.8305e-11
1.17199 11.2744 1.04068e-11
1.8305e-11 1.04068e-11 12.4091

11.2064 1.27759 -2.89127e-11
1.27759 11.2552 -6.85979e-11
-2.89127e-11 -6.85979e-11 12.4517

-1.6831 0.554886 1.61693e-11
0.554886 -0.463167 -1.75276e-10
1.61693e-11 -1.75276e-10 -7.60306

-2.37747 0.892417 6.43743e-11
0.892417 -4.68705 2.83123e-10
6.43743e-11 2.83123e-10 -6.45837

-1.97884 -2.95686 2.70165e-11
-2.95686 -0.200217 -1.59924e-11
2.70165e-11 -1.59924e-11 -0.86967

0.110155 -3.66547 2.85111e-11
-3.66547 0.856742 1.11705e-11
2.85111e-11 1.11705e-11 0.414571

0.686363 3.44303 -6.47235e-11
3.44303 -2.11552 4.62412e-12
-6.47235e-11 4.62412e-12 -0.507438

-1.37587 -4.14663 5.45165e-11
-4.14663 -2.29711 -4.66217e-11
5.45165e-11 -4.66217e-11 -0.900141

-1.76265 -3.89017 1.98433e-11
-3.89017 -0.435667 -1.65712e-11
1.98433e-11 -1.65712e-11 -0.29443

1.67671 2.82298 2.56226e-11
2.82298 0.975234 -4.04521e-12
2.56226e-11 -4.04521e-12 0.531708

3.45916 -1.27325 4.18149e-11
-1.27325 8.03383 -7.76046e-13
4.18149e-11 -7.76046e-13 4.79927

4.63393 0.756554 -1.50248e-11
0.756554 7.91672 1.92764e-12
-1.50248e-11 1.92764e-12 4.80829

7.83255 -1.17726 2.67859e-11
-1.17726 4.43521 1.92639e-11
2.67859e-11 1.92639e-11 5.0507

0.553039 3.75047 1.57956e-11
3.75047 -0.106534 -2.44646e-11
1.57956e-11 -2.44646e-11 0.0092905

5.71221 -0.914591 -6.93697e-12
-0.914591 9.7972 -1.3487e-11
-6.93697e-12 -1.3487e-11 6.70614

9.62863 -0.626318 -4.4894e-11
-0.626318 5.48315 3.83478e-11
-4.4894e-11 3.83478e-11 6.62472

0.512098 2.75134 2.69723e-11
2.75134 -2.61784 4.73807e-11
2.69723e-11 4.73807e-11 -0.922703

-1.60052 -4.00203 -2.73613e-11
-4.00203 -3.21281 5.66328e-11
-2.73613e-11 5.66328e-11 -1.57829

0.0238754 3.37852 5.14268e-11
3.37852 -3.16016 -4.54599e-11
5.14268e-11 -4.54599e-11 -1.2491

-2.02819 -3.91524 1.36764e-11
-3.91524 -2.53866 -3.08838e-12
1.36764e-11 -3.08838e-12 -1.82144

11.7747 1.43892 -3.06376e-11
1.43892 11.9307 3.33364e-11
-3.06376e-11 3.33364e-11 12.9393

11.7997 1.4066 6.14695e-11
1.4066 11.8729 -1.59956e-11
6.14695e-11 -1.59956e-11 12.8643

0.756867 3.00954 -2.4272e-11
3.00954 -0.413319 6.93186e-12
-2.4272e-11 6.93186e-12 -0.0489684

-0.299362 -3.71604 -1.15818e-12
-3.71604 -1.22237 2.23498e-11
-1.15818e-12 2.23498e-11 -0.295127

-4.6737 -2.36319 -4.58425e-11
-2.36319 -2.96884 4.0261e-11
-4.58425e-11 4.0261e-11 -4.16096

-5.20331 -0.810608 8.72548e-11
-0.810608 -1.32708 -3.85286e-11
8.72548e-11 -3.85286e-11 -4.86783

-0.195383 3.42967 -2.71615e-11
3.42967 -2.27204 -1.6951e-11
-2.71615e-11 -1.6951e-11 -1.07708

-4.2751 -3.06264 -5.75799e-13
-3.06264 -1.17195 1.07857e-11
-5.75799e-13 1.07857e-11 -1.82159

0.434077 1.80388 -4.62715e-12
1.80388 -7.36961 2.50914e-12
-4.62715e-12 2.50914e-12 -2.49217

-0.352581 -2.78906 -2.70321e-12
-2.78906 -5.9191 -6.78048e-11
-2.70321e-12 -6.78048e-11 -3.13232

-3.69215 3.1463 5.4919e-12
3.1463 -1.37422 -1.04039e-11
5.4919e-12 -1.04039e-11 -1.07999

-2.58526 -3.65625 9.53759e-12
-3.65625 1.35346 -3.19805e-11
9.53759e-12 -3.19805e-11 -0.788524

-5.96698 -2.54273 -3.45743e-11
-2.54273 -5.31578 -2.02233e-11
-3.45743e-11 -2.02233e-11 -6.67233

-6.67206 -2.27082 5.00707e-12
-2.27082 -1.26875 -7.60821e-12
5.00707e-12 -7.60821e-12 -5.02387

-0.469364 2.55063 3.89091e-11
2.55063 -8.07636 3.07643e-12
3.89091e-11 3.07643e-12 -4.33172

-0.46329 0.832234 7.85905e-11
0.832234 -8.26469 -1.09909e-11
7.85905e-11 -1.09909e-11 -5.52663

-1.23525 -2.75755 -4.19932e-11
-2.75755 -5.1826 -2.69626e-11
-4.19932e-11 -2.69626e-11 -5.19943

-0.573691 -0.588935 -1.23231e-11
-0.588935 -4.94304 3.89062e-11
-1.23231e-11 3.89062e-11 -6.58678

-7.63582 -0.634694 -2.38839e-11
-0.634694 0.115957 5.47081e-11
-2.38839e-11 5.47081e-11 -5.95002

-4.70212 4.68348 4.83737e-11
4.68348 -4.80126 3.27452e-11
4.83737e-11 3.27452e-11 -6.08612

0.222855 2.79856 8.03317e-12
2.79856 -7.01708 -2.13802e-10
8.03317e-12 -2.13802e-10 -4.71266

-0.373061 2.31704 -2.97413e-10
2.31704 -8.88959 1.0578e-10
-2.97413e-10 1.0578e-10 -6.63631

1.04533 0.644892 -2.43626e-09
0.644892 -0.738201 -1.08602e-09
-2.43626e-09 -1.08602e-09 -7.60197

-4.93506 -3.25484 -2.19941e-10
-3.25484 -2.14665 4.41138e-10
-2.19941e-10 4.41138e-10 -7.04061

0.946821 2.1228 3.85234e-11
2.1228 -6.54937 1.80999e-11
3.85234e-11 1.80999e-11 -3.8033

0.140801 1.70348 -4.96945e-11
1.70348 -3.17895 1.57991e-11
-4.96945e-11 1.57991e-11 -1.98798

-1.42148 2.73865 6.91206e-12
2.73865 -7.6421 -9.26418e-11
6.91206e-12 -9.26418e-11 -5.77025

-1.69509 -3.13271 -2.46557e-11
-3.13271 -4.6283 1.16143e-12
-2.46557e-11 1.16143e-12 -5.60094

-3.40493 -1.57055 4.19998e-11
-1.57055 -1.21666 5.62373e-11
4.19998e-11 5.62373e-11 -7.28178

-1.2131 -1.4021 2.92828e-11
-1.4021 -2.39172 3.85318e-12
2.92828e-11 3.85318e-12 -2.82853

-0.232749 2.76583 -3.39068e-11
2.76583 -5.38832 -1.05911e-11
-3.39068e-11 -1.05911e-11 -2.87017

-0.369825 1.62252 6.54713e-12
1.62252 -6.18867 1.17479e-11
6.54713e-12 1.17479e-11 -3.97085

-2.10123 -3.63336 -7.69792e-13
-3.63336 -3.57312 -4.54576e-11
-7.69792e-13 -4.54576e-11 -3.89754

-0.890008 -1.76276 4.7768e-11
-1.76276 -4.40027 -8.16746e-11
4.7768e-11 -8.16746e-11 -5.17393

VECTORS fluid_flux_TPM float
-6.02777e-05 -0.000180802 -7.27596e-21
-1.86548e-05 0.000148444 -6.18456e-20
2.95613e-05 -0.00014854 1.27329e-20
-0.000134766 -2.56484e-05 -2.60722e-20
-0.000169232 -4.46185e-05 1.21266e-21
-2.23547e-05 0.000191456 -6.18456e-20
3.32645e-05 -0.000191607 1.81899e-20
-0.000181817 4.56691e-05 3.63798e-21
-5.69409e-05 9.17648e-05 -3.69861e-20
-9.55485e-05 -0.000221987 -1.75836e-20
-9.15915e-05 0.000237479 -4.24431e-21
0.000248499 0.000101208 -1.33393e-20
0.000131626 0.000127463 -2.36469e-20
-0.000121315 -0.000127041 3.09228e-20
-5.99323e-05 -0.000125466 -6.66963e-21
-1.85027e-05 -0.000118965 2.18279e-20
1.92952e-05 0.000195745 -5.57823e-20
-8.72097e-06 -0.00019585 -1.21266e-21
0.000172169 1.73189e-05 -3.88051e-20
-7.19079e-05 -0.000267874 -4.24431e-21
-7.25944e-05 0.000273949 -1.21266e-21
0.000298521 6.89227e-05 -3.63798e-21
-0.000115531 -0.000119735 -2.42532e-21
-0.000186382 4.36614e-05 2.06152e-20
-0.00013273 -0.000120633 -1.51582e-20
7.98493e-05 0.000176523 -8.06419e-20
-0.000127868 2.4143e-05 -1.45519e-20
-0.000193554 -0.000403566 -2.7588e-20
-0.000111053 -5.62242e-05 -4.60811e-20
0.000430015 0.000203452 -2.06152e-20
-6.12227e-07 0.000183005 -8.73115e-20
1.12697e-05 -0.000183057 -1.21266e-21
-0.00042012 -0.000213462 -5.6995e-20
-0.000421589 0.000205402 1.69772e-20
-0.000273674 8.95026e-05 2.54659e-20
-9.7321e-05 -7.87439e-05 -1.39456e-20
-0.000170506 -8.57844e-05 -6.30583e-20
-0.000178541 8.73217e-05 -9.70128e-21
-2.95113e-05 -5.98256e-05 -6.36646e-20
0.000120211 0.000122728 -8.36735e-20
-0.000175322 0.000117191 7.27596e-21
-5.16459e-05 8.55512e-07 -5.39634e-20
-0.000113402 0.000123903 -1.39456e-20
-6.12291e-05 0.000179922 -5.45697e-21
2.78225e-05 0.000118954 -6.97279e-20
-0.000177562 0.000116998 1.39456e-20
-0.000439385 -0.000439385 1.81899e-21
0.000455145 0.000455145 -3.03165e-21
4.0383e-05 9.29173e-05 7.88229e-21
0.000456783 0.000482836 6.36646e-21
-0.000466571 -0.000440696 1.03076e-20
0.000210945 -2.18213e-05 -1.57646e-20
0.000210792 2.17026e-05 7.27596e-21
0.000148118 2.62251e-05 -2.54659e-20
0.000200988 -9.18762e-05 9.70128e-21
0.000200816 9.18872e-05 -2.18279e-20
7.56202e-05 0.000123466 -8.79178e-20
-0.000176797 -0.000331404 -5.57823e-20
-0.000177329 0.00033272 4.24431e-20
0.000160792 -6.14465e-05 3.57735e-20
0.000160539 6.10884e-05 -3.94114e-20
-0.000240545 0.000105257 1.03076e-20
-0.000191663 0.000302464 -6.30583e-20
0.000203835 -0.000304939 6.66963e-20
0.000117367 -0.000121202 2.78912e-20
-0.00021267 0.000407664 -4.24431e-21
-0.000407613 0.00021594 1.87962e-20
2.37361e-05 0.000118085 -7.09406e-20
-1.33993e-05 -0.000117771 3.69861e-20
0.000358116 -0.000148337 7.27596e-20
0.000358221 0.00014838 -1.30967e-19
2.54821e-05 -3.75367e-05 3.27418e-20
0.000163562 5.6522e-05 -2.54659e-20
0.000163915 -5.66001e-05 4.36557e-20
-8.61365e-05 -5.92032e-05 -3.69861e-20
-2.99479e-05 -9.13667e-05 4.06241e-20
-0.000252978 -5.39689e-05 3.27418e-20
-0.000218344 -3.19648e-05 2.97102e-20
-0.000159415 -0.000134697 -5.09317e-20
-0.00018642 0.000322882 5.09317e-20
-0.000185969 -0.0003221 -2.42532e-21
-0.000191972 -0.000215306 -1.09139e-20
-0.00014072 8.31445e-05 -2.30405e-20
0.00016956 6.16118e-05 -4.54747e-20
-2.90787e-05 0.000342013 -1.20053e-19
3.71816e-05 -0.000345473 1.00651e-19
-0.000164945 0.000148305 2.97102e-20
1.70653e-05 0.000157625 -2.06152e-20
-5.80814e-06 -0.000157603 -5.45697e-21
0.000144164 -2.40839e-05 -1.21266e-20
0.000142643 2.25262e-05 -2.18279e-20
0.000253896 -0.000174445 3.45608e-20
0.000204556 3.35439e-05 -1.63709e-20
0.000152396 -7.60892e-05 6.0633e-21
0.000151603 7.62289e-05 -6.0633e-21
0.000171601 -6.28541e-05 5.1538e-20
7.53017e-05 -0.00017536 1.15203e-20
0.000137273 -6.02148e-05 -1.21266e-20
0.000135189 5.89192e-05 -2.78912e-20
-0.000147611 6.74579e-05 -3.21355e-20
8.38971e-05 5.17534e-05 -5.57823e-20
-0.000176842 -0.000123465 -1.21266e-20
-6.31082e-05 1.4985e-05 -3.57735e-20
-1.62239e-05 3.59586e-05 -3.21355e-20
0.000211371 2.99438e-05 -1.51582e-20
-0.000144498 8.69132e-05 -1.33393e-20
-0.000152381 -7.10323e-05 -4.12304e-20
-0.000116818 -0.000146272 -6.0633e-21
-0.00013499 -9.04886e-05 -7.88229e-21
3.02909e-06 -0.000162195 -3.27418e-20
8.1662e-06 0.000162249 -3.94114e-20
0.000251016 -9.90079e-05 4.91127e-20
-8.59542e-05 5.87202e-05 -5.3357e-20
0.000126527 -0.000178797 2.06152e-20
0.000127135 0.000180456 -7.09406e-20
-0.000140454 8.31591e-05 -9.70128e-21
-5.56227e-05 9.04688e-05 1.39456e-20
-5.69128e-05 -9.38011e-05 -7.15469e-20
-3.06583e-05 -0.00016821 -2.42532e-21
-0.000131519 0.000126349 -2.12215e-20
2.74094e-05 -0.000235666 -2.54659e-20
3.93794e-05 0.000241397 -1.03076e-20
0.000266853 -1.27298e-05 6.0633e-21
0.00026012 0.000173317 -3.33481e-20
0.000179909 -0.000104632 5.21444e-20
0.000235802 -0.00040846 1.10352e-19
-0.000235192 0.000407369 -1.00651e-19
0.000205894 -3.67006e-05 4.54747e-20
3.61837e-05 9.12139e-05 -6.79089e-20
0.000150028 -2.84509e-05 2.48595e-20
-2.88682e-05 0.000170512 -8.48862e-21
-4.37125e-05 9.55463e-05 -1.27329e-20
5.20711e-05 -9.51797e-05 3.75924e-20
8.56439e-05 -5.33056e-05 4.72937e-20
6.41333e-05 -1.92238e-05 -5.82077e-20
-2.60867e-05 -9.16561e-05 2.42532e-21
0.000111424 1.04595e-06 1.09139e-20
0.000176537 0.000112942 -4.79001e-20
-5.9943e-05 -1.92112e-05 -5.94203e-20
0.000176759 0.000115297 -8.00355e-20
-0.000186023 0.000231287 1.33393e-20
-9.67604e-05 7.50754e-05 -3.27418e-20
7.32573e-05 -0.000261774 1.33393e-20
7.71542e-05 0.000261686 -2.24342e-20
0.0002912 -6.67943e-05 5.03254e-20
0.000180446 -0.000119637 4.18368e-20
6.82999e-06 0.000189071 1.81899e-21
4.35387e-06 -0.000188802 -4.30494e-20
0.000143126 -0.00023973 1.03076e-20
0.000140882 0.000229727 -3.39545e-20
9.10772e-05 -3.25168e-05 -7.27596e-21
9.14313e-05 3.13632e-05 -3.88051e-20
0.00010071 6.29857e-05 -5.5176e-20
6.0818e-05 8.56186e-05 -5.45697e-21
-0.000135325 -8.15988e-05 -3.75924e-20
-0.000270189 -0.000213084 6.36646e-21
4.24837e-05 0.00017477 -5.8814e-20
0.000180006 6.06049e-05 -1.09139e-20
0.000180354 -6.08696e-05 2.54659e-20
0.000163267 -6.40013e-05 6.12393e-20
0.00016296 6.35955e-05 -2.42532e-20
-8.24143e-05 -0.00079631 -1.51582e-21
0.00081772 0.000125838 6.36646e-21
4.24923e-05 -0.000170684 2.60722e-20
0.000247657 -0.000164261 7.27596e-20
0.000247528 0.000164647 3.15291e-20
0.000166723 8.71552e-05 -7.45786e-20
-0.000337392 -2.1478e-05 1.81899e-20
0.000204846 -3.7312e-05 2.06152e-20
-7.10589e-06 0.000145484 7.88229e-21
1.77435e-05 -0.000146152 1.87962e-20
-0.000120399 0.000181312 -1.03076e-20
6.07456e-05 1.97955e-05 1.69772e-20
0.000167417 -8.75969e-05 9.21621e-20
-2.49511e-05 -4.34155e-05 6.0633e-22
-0.000122624 0.000100708 -4.00178e-20
0.000133899 -0.000100535 5.09317e-20
0.000100162 -6.1907e-05 3.75924e-20
-9.89415e-05 -6.74252e-05 -3.03165e-21
-0.000173968 -0.00011202 6.66963e-21
2.86675e-05 4.00331e-05 -5.57823e-20
-5.70798e-05 0.000122639 -1.15203e-20
-2.99567e-05 -0.000170193 -3.51671e-20
0.000142783 6.65223e-05 -6.4271e-20
4.37494e-05 0.000171688 -5.1538e-20
-5.34682e-05 -8.31256e-05 2.91038e-20
-0.000214098 0.000391584 1.90994e-20
-0.0003843 0.00021824 2.81943e-20
0.000143211 -6.68991e-05 8.67052e-20
0.000173256 -2.01285e-05 3.45608e-20
0.000362732 0.000159238 -7.27596e-20
0.000362565 -0.000159047 4.85064e-20
3.63591e-05 -9.3062e-05 3.45608e-20
-0.00023826 -0.000172392 -5.3357e-20
-0.000243725 0.000168141 -1.69772e-20
-0.000101476 -4.50276e-05 -4.79001e-20
-2.13286e-05 3.74748e-05 -5.39634e-20
0.000231163 0.000282934 -8.79178e-21
-0.000258274 -0.000212528 9.09495e-21
0.000229999 -0.000315492 6.0633e-22
0.000233721 0.000319298 -5.45697e-21
0.000356304 -0.000196335 2.42532e-20
2.82284e-05 -3.33063e-05 1.75836e-20
-2.359e-05 -0.000351924 -3.15291e-20
0.00037746 2.74111e-05 1.03076e-20
0.000194249 0.000255629 -3.27418e-20
-0.000183374 -0.000254041 3.63798e-21
-0.000117269 -9.45557e-05 -6.00266e-20
-5.06847e-05 2.01741e-06 -5.57823e-20
0.000135998 -0.000186785 1.75836e-20
0.000136829 0.000189779 -4.30494e-20
-0.000115921 3.382e-05 -4.30494e-20
7.15371e-05 -0.000120516 2.60722e-20
0.000189804 -9.6081e-05 4.60811e-20
0.000189413 9.61576e-05 5.57823e-20
-0.000141647 -7.59429e-05 -4.85064e-20
-9.86273e-05 6.63222e-05 -3.21355e-20
-0.000113268 -5.36104e-05 -5.63887e-20
-0.000215726 -0.000121291 -2.54659e-20
-2.66416e-05 9.85735e-05 -3.45608e-20
-0.000450474 0.000450474 1.39456e-20
-2.73658e-05 0.000174462 2.84975e-20
3.99866e-05 -0.000176252 -1.63709e-20
3.86444e-05 -0.000343576 1.21266e-20
-2.79783e-05 0.00034344 -9.58001e-20
0.000107614 -5.41214e-05 2.66785e-20
0.000107516 5.23306e-05 9.70128e-21
-0.000169009 9.00409e-05 -4.24431e-21
-0.000167122 -8.71644e-05 -3.94114e-20
-0.000295966 -5.40153e-05 -4.12304e-20
-0.000291273 5.51484e-05 -4.12304e-20
0.000343313 0.000160374 -4.9719e-20
0.0003433 -0.000160174 6.79089e-20
0.000108945 1.00785e-05 -8.48862e-21
0.000109117 -9.41815e-06 -6.4271e-20
0.00017317 6.10622e-05 -6.54836e-20
-5.78816e-06 0.000154551 4.24431e-21
1.6887e-05 -0.000151153 2.42532e-21
-0.000244914 0.00016969 8.48862e-21
0.000172618 -6.26944e-05 5.57823e-20
-1.4249e-05 -0.000162735 -1.03076e-20
0.000147971 8.97456e-05 -8.12482e-20
-0.000108628 -3.39087e-06 -6.54836e-20
-0.00010738 8.65152e-07 0
0.000147592 -9.10601e-05 7.21532e-20
-0.000111709 9.84677e-05 1.81899e-21
0.000193156 0.000334583 -3.75924e-20
-0.000189989 -0.000329072 3.27418e-20
-2.93903e-05 -0.000113988 1.94026e-20
-0.000142376 -8.5744e-05 -5.21444e-20
-1.59417e-05 -0.000190574 -8.67052e-20
0.000239882 -0.000409411 -3.94114e-21
0.000413661 -0.000193855 1.21266e-20
9.07011e-05 -7.51216e-05 1.45519e-20
8.94829e-05 7.35433e-05 -1.69772e-20
-2.38251e-05 0.000199635 2.18279e-20
2.41136e-05 0.000157053 -7.94292e-20
0.000213466 9.11229e-05 -6.0633e-20
0.000163823 -3.71157e-05 6.91216e-20
0.000163642 3.63934e-05 -4.00178e-20
-0.000386128 -3.25293e-09 -1.21266e-21
-0.000386233 2.57876e-09 -1.01863e-19
3.73922e-05 -8.70635e-05 2.97102e-20
-0.000146196 -8.8887e-05 -1.81899e-20
0.000151232 9.12703e-05 -2.30405e-20
0.000152055 -9.1309e-05 2.18279e-20
4.16862e-05 0.000111561 -1.51582e-20
1.88176e-05 3.07276e-05 -1.57646e-20
0.000448753 -0.000448753 2.42532e-21
-0.000126907 4.01971e-05 4.24431e-21
-0.00012816 -4.30399e-05 -7.94292e-20
-2.81239e-05 8.92512e-05 -2.06152e-20
0.000209506 -9.2604e-05 6.60899e-20
-0.000143734 7.32719e-05 4.24431e-21
-0.000185581 -2.484e-05 -5.39634e-20
-0.000186454 2.42879e-05 -4.79001e-20
-0.000111598 5.36666e-05 -3.21355e-20
0.000106573 0.000158503 2.66785e-20
0.000107391 -0.000158092 5.3357e-20
7.9744e-05 0.000449767 -1.45519e-19
-7.11538e-05 -0.000449773 3.63798e-21
-4.04642e-05 0.000812135 -8.18545e-21
-0.000793384 4.15392e-05 1.87962e-20
0.000122979 -8.73786e-06 5.09317e-20
0.000123641 7.35496e-06 -6.4271e-20
-5.36485e-06 -2.85922e-05 1.57646e-20
0.000440586 -0.000535858 -1.15203e-20
0.000560394 -0.000431393 5.1538e-21
0.000146993 -0.000354889 9.70128e-21
0.000147096 0.000355137 -5.82077e-20
-0.000135091 8.06446e-05 -3.63798e-20
0.000128959 -0.000122921 5.39634e-20
0.00013102 -5.41871e-05 5.94203e-20
0.000130865 5.34363e-05 -3.27418e-20
9.72332e-05 -8.08217e-05 7.70039e-20
0.000128029 0.000124102 -9.03431e-20
8.70857e-07 -0.000377551 -2.00089e-20
1.47279e-05 0.000347548 -1.69772e-20
0.000403099 3.33445e-06 2.78912e-20
9.7588e-05 7.99836e-05 -5.45697e-20
4.44021e-05 0.000382933 -4.24431e-21
-0.000374269 -5.04869e-05 2.81943e-20
0.000163982 -1.74313e-05 1.21266e-20
0.000164694 1.52872e-05 -3.27418e-20
0.000159671 -3.21475e-05 -6.0633e-21
0.000159885 3.19548e-05 -2.66785e-20
-0.000443063 0.000548386 7.27596e-21
-0.000543838 0.000443023 1.81899e-20
0.000143259 6.233e-05 -4.9719e-20
0.000143612 -6.31126e-05 7.94292e-20
4.98672e-05 0.000264032 -9.21621e-20
-4.09956e-05 -0.000262332 1.45519e-20
0.000123524 5.17815e-05 2.06152e-20
0.00012259 -5.14716e-05 -6.30583e-20
0.000187874 -0.000113671 5.09317e-20
0.000187462 0.000113859 1.69772e-20
-0.000109722 -2.71603e-05 -4.72937e-20
-0.000107485 2.54595e-05 -5.94203e-20
-0.000175244 -0.0003329 4.9719e-20
0.00017269 -0.000206731 2.54659e-20
0.000207152 -0.000174842 2.18279e-20
0.00017232 0.000207475 3.39545e-20
0.000207227 0.000175174 3.63798e-21
0.000185912 0.000336463 -3.88051e-20
-0.00038372 6.16948e-06 -1.21266e-20
-0.000383334 -7.21801e-06 -9.45875e-20
0.000278527 0.000115375 -1.81899e-20
0.000670124 8.82185e-05 7.88229e-20
0.00067032 -8.82443e-05 -1.27329e-19
0.000278458 -0.000115346 -2.18279e-20
0.00034965 7.56288e-06 2.30405e-20
0.00024763 7.5118e-05 2.54659e-20
0.000328075 -9.23276e-05 4.48684e-20
0.000349632 -7.4567e-06 -2.54659e-20
0.000328062 9.24122e-05 -6.18456e-20
0.000247649 -7.49872e-05 -3.15291e-20
0.000259747 -7.34486e-05 1.94026e-20
0.000258156 -7.39441e-05 5.21444e-20
0.000259761 7.3506e-05 -3.63798e-21
0.000258061 7.40352e-05 -6.0633e-21
-2.39532e-05 0.000151368 6.0633e-20
-2.54792e-05 -0.000152129 -1.87356e-19
-0.000136384 2.49229e-05 2.78912e-20
-0.000174248 4.53305e-05 -6.0633e-21
-2.7855e-05 0.000196741 1.57646e-20
-2.93533e-05 -0.000197179 -1.83112e-19
-0.000174373 -4.48079e-05 -5.03254e-20
-5.851e-05 -9.18001e-05 -5.82077e-20
-9.78631e-05 -0.000220496 -3.57735e-20
0.000100429 0.000227176 -1.33393e-20
0.000230578 0.000104875 -3.03165e-21
0.000127674 -0.00013259 -6.79089e-20
0.000130761 0.000130719 1.12777e-19
-0.000140116 8.37518e-05 1.63709e-20
1.46514e-05 -0.000201287 -7.45786e-20
1.59723e-05 0.000200568 1.15809e-19
0.000142356 2.22806e-05 2.42532e-21
-7.34858e-05 -0.000267443 -9.82254e-20
7.23967e-05 0.000270086 -5.1538e-20
0.000279653 7.47257e-05 3.57735e-20
6.71568e-05 0.000181109 3.57735e-20
6.94115e-05 -0.000178426 -2.37681e-19
-0.000128277 -2.62445e-05 -6.0633e-20
-0.000191416 -0.00039783 1.01863e-19
-0.000113351 5.70663e-05 3.09228e-20
-4.30944e-06 0.000187588 6.54836e-20
-5.96933e-06 -0.000188091 -1.33393e-19
-0.000423558 -0.000204838 -1.33393e-19
-0.000421718 0.000212401 -1.41881e-19
-9.15934e-05 0.000123785 6.0633e-21
-0.000110663 0.000131037 -1.09139e-20
-0.000255505 8.24756e-05 -7.63976e-20
-0.00018064 -8.70285e-05 -1.20053e-19
-0.000172849 8.47219e-05 2.42532e-21
-2.96007e-05 6.0766e-05 3.09228e-20
0.000107376 -0.000127821 -2.36469e-19
-5.32676e-05 -1.82645e-06 -6.66963e-21
-0.000183839 0.000120074 -4.24431e-21
-0.000120863 -0.000122309 2.54659e-20
-0.000212308 -3.32729e-05 -7.94292e-20
-0.000193665 3.89677e-05 -1.87962e-20
-6.65939e-05 -0.00018099 -5.8814e-20
1.94803e-05 -0.000123424 -3.353e-19
2.10467e-05 0.000122593 2.54659e-20
-6.01334e-05 0.000182074 -2.00089e-20
0.00011116 0.000129313 -3.03165e-21
-0.000430058 -0.000430027 1.28845e-19
-0.000423472 0.000423483 7.15469e-20
3.80372e-05 -9.865e-05 -6.48773e-20
3.81545e-05 9.56305e-05 8.24609e-20
6.49637e-05 0.000127949 5.8814e-20
-0.000424713 0.000462167 8.18545e-21
-0.000447994 -0.000430893 1.77655e-19
0.000220881 -4.03788e-05 -2.92251e-19
0.000219011 4.37625e-05 5.3357e-20
0.000103841 3.65478e-05 -1.51582e-20
0.000206928 -0.000138528 -1.80686e-19
0.000205386 0.000139651 3.88051e-20
6.53617e-05 -0.000127665 -2.79518e-19
-0.00017928 -0.000331161 -9.21621e-20
-0.00017916 0.000328615 5.82077e-20
0.000151875 -8.73546e-05 -2.84975e-19
0.000151942 8.87933e-05 5.6995e-20
-0.000200345 -0.000310775 -1.28542e-19
-0.000199701 0.00031083 -3.03165e-20
0.00020843 0.000393429 -7.39722e-20
0.000395037 0.000208611 2.45564e-20
1.7298e-05 0.000121806 5.27507e-20
1.57193e-05 -0.000122624 -2.52233e-19
0.00043303 -0.000179347 -5.21444e-20
0.000428217 0.000177374 -2.42532e-20
-0.000175725 -0.000122417 -2.42532e-20
0.000143927 7.9098e-05 5.21444e-20
0.000143974 -7.75297e-05 -1.52189e-19
-0.000161503 0.00013476 -2.42532e-21
-0.000246434 -5.56694e-05 -1.18234e-19
-0.000185818 0.000321859 5.09317e-20
-0.000186628 -0.000323209 -4.85064e-20
-0.000138678 -8.56557e-05 -2.78912e-20
0.000139232 7.51138e-05 3.75924e-20
-0.000196969 -0.000214235 -5.09317e-20
-3.39703e-05 -0.000351238 -2.23129e-19
-3.26292e-05 0.000351467 8.48862e-21
-0.000167057 -0.000147954 -2.08577e-19
1.3603e-05 0.000160655 6.85153e-20
1.22648e-05 -0.000160481 -6.30583e-20
0.00010354 -3.63833e-05 -4.30494e-20
0.00010175 3.51355e-05 4.9719e-20
0.000232538 -0.00017743 -9.45875e-20
0.000175036 3.86844e-05 -2.84975e-20
0.000124664 0.000118106 9.09495e-20
0.000125732 -0.000117133 -9.76191e-20
0.000141521 -7.55335e-05 -1.28542e-19
9.44093e-05 -8.42533e-05 -1.01863e-19
9.18471e-05 8.34991e-05 8.30672e-20
-0.000150231 -6.7087e-05 -9.88318e-20
-0.00015766 0.000124167 -1.15203e-20
7.95392e-05 6.10616e-05 4.42621e-20
7.71074e-05 -5.92161e-05 -4.18368e-19
-2.42151e-05 -4.10971e-05 -3.68042e-19
-2.2759e-05 4.01786e-05 1.21266e-21
0.00018773 3.19881e-05 2.60722e-20
-0.00026474 0.000258016 -4.69906e-20
-0.000146345 -8.7392e-05 -1.18234e-19
-0.000151261 7.17229e-05 1.03076e-20
-0.000359985 5.89187e-05 -1.10958e-19
-0.000140216 8.55862e-05 1.94026e-20
1.55831e-06 -0.000166044 -8.00355e-20
3.91097e-06 0.000165692 7.39722e-20
-0.000123522 -0.000148024 -3.88051e-20
0.000229525 -9.85299e-05 -4.24431e-21
-8.73306e-05 -5.99242e-05 -5.5176e-20
-8.75375e-05 6.48218e-05 -9.70128e-21
0.000113788 -0.000181016 -2.0979e-19
-0.000119844 0.00019357 -1.45519e-20
-0.000144022 -8.52417e-05 -9.82254e-20
-5.81212e-05 -9.14178e-05 -1.01257e-19
-5.94067e-05 9.77211e-05 -4.85064e-20
3.39265e-05 0.000174237 -1.87962e-20
-0.000130989 -0.000124342 6.0633e-21
2.02597e-05 -0.000234727 -9.39811e-20
-3.0607e-05 0.000241801 -9.51938e-20
0.000244989 -2.60292e-05 1.57646e-20
0.000160598 -0.000109376 -1.67953e-19
-0.00024106 0.000417565 0
-0.000240604 -0.000416766 -1.27329e-19
-0.000172636 -0.000103911 -7.39722e-20
0.000181302 -3.91856e-05 -4.42621e-20
-0.000273919 -0.000217206 3.36513e-20
2.75266e-05 -9.67253e-05 -3.62585e-19
2.85799e-05 9.79952e-05 4.18368e-20
0.000106466 -3.85626e-05 -7.70039e-20
-3.48787e-05 -0.000170212 -1.35818e-19
-5.1725e-05 -0.000100739 -2.12215e-19
-5.02591e-05 9.97964e-05 3.21355e-20
0.000162862 0.00022917 -3.39545e-20
0.000241704 0.00016308 1.27329e-20
-0.00034534 -1.54761e-05 -5.06285e-20
5.94089e-05 -1.14074e-05 4.72937e-20
5.67e-05 1.40731e-05 -4.59598e-19
4.93282e-05 3.0302e-06 -4.85064e-21
-6.16743e-05 1.69738e-05 1.81899e-21
-5.6852e-05 -1.64408e-05 -3.39545e-20
-9.99709e-05 -7.48861e-05 -2.36469e-20
6.67519e-05 -0.000259699 -1.49157e-19
-6.11085e-05 0.000259171 -4.30494e-20
0.00026526 -6.88062e-05 -1.45519e-20
0.000161373 -0.000123059 -2.0312e-19
2.75148e-06 0.000189015 -1.15203e-20
3.62449e-07 -0.000190052 -1.18841e-19
-0.000123799 0.000247792 -1.75836e-20
0.000128892 -0.000233125 -6.91216e-20
1.87091e-05 4.94675e-05 3.51671e-20
1.71133e-05 -5.01105e-05 -3.03165e-20
9.14171e-05 -6.87767e-05 -3.6683e-19
9.33564e-05 7.03043e-05 2.36469e-20
6.23099e-05 -8.99815e-05 -3.75924e-20
5.956e-05 8.81809e-05 4.06241e-20
-0.000134815 8.24664e-05 -3.51671e-20
3.36629e-05 -0.000176748 -1.89781e-19
0.000171233 8.83139e-05 4.12304e-20
0.000172473 -8.67477e-05 -2.03727e-19
0.000148765 -9.62072e-05 -2.3465e-19
0.000143841 -7.9052e-05 -2.60722e-19
0.000143818 8.03774e-05 2.97102e-20
-8.36278e-05 -0.000776479 2.34953e-19
0.000114929 0.000179075 -2.66785e-20
-0.000800034 9.38311e-05 6.45741e-20
-2.95824e-05 0.000177928 -8.18545e-20
0.00027592 -0.000249293 -1.8675e-19
0.000272909 0.000249091 3.75924e-20
0.000149943 9.75879e-05 1.57646e-20
0.000175365 -4.26495e-05 -3.88051e-20
0.000163466 0.000113933 -1.21266e-21
-1.11235e-05 -0.000148734 -1.00651e-19
-1.0153e-05 0.000148735 5.94203e-20
-0.000129264 0.000104967 9.70128e-21
-0.000130245 -0.000105877 -1.7341e-19
2.58558e-05 4.45802e-05 2.00089e-20
2.12134e-05 -4.52203e-05 -4.49897e-19
-6.07077e-05 -0.00012372 -1.22479e-19
3.48781e-05 0.000171604 7.27596e-21
0.000131047 -8.09047e-05 -2.58297e-19
0.000131973 8.20959e-05 6.0633e-21
0.000164201 0.000124753 -2.66785e-20
-5.74326e-05 0.000124932 1.94026e-20
3.48717e-05 -0.000173804 -1.88569e-19
0.000209862 0.000380254 -5.94203e-20
0.000385739 0.000209483 3.69861e-20
-0.00023944 0.000179195 1.21266e-20
0.000143467 -2.53008e-05 -6.0633e-20
0.000448822 -0.000217359 -1.81899e-19
0.000444607 0.000216827 7.27596e-21
-0.000245592 -0.000167561 -1.51582e-19
-0.000240762 0.000171534 -8.12482e-20
-0.000101886 4.36628e-05 2.36469e-20
-2.38537e-05 3.88696e-05 2.42532e-21
-2.41008e-05 -3.81847e-05 4.30494e-20
-0.000201538 0.000269185 -7.94292e-20
-0.000253103 -0.000216377 1.63103e-19
0.000216916 -0.000309894 9.09495e-21
-0.000197041 0.000322169 -4.42621e-20
0.000324739 -0.000189176 -3.33481e-20
-0.000221125 -0.000119579 -7.51849e-20
-2.67719e-05 -0.000347188 2.72848e-21
-0.000328801 3.00754e-06 -5.54792e-20
0.000190701 -0.000261595 -1.29755e-19
0.00019466 0.000261492 1.46732e-19
-0.000117998 9.33251e-05 1.39456e-20
-5.16858e-05 -3.73865e-06 5.3357e-20
-0.000117191 0.000191591 -7.51849e-20
0.000123942 -0.000190785 -1.75229e-19
-0.00011753 -3.47815e-05 -1.21266e-20
0.000187978 -0.000145652 -1.46732e-19
0.000186153 0.000146855 1.33393e-20
-0.000144524 7.59259e-05 -1.45519e-20
-0.000101554 -6.84564e-05 -3.21355e-20
-8.98251e-05 6.58987e-05 1.51582e-20
-0.000116013 5.39266e-05 1.21266e-21
-2.95314e-05 -0.000100359 -9.33748e-20
-2.63984e-05 0.000107651 3.57735e-20
0.000445372 0.00044536 4.54747e-22
-3.27062e-05 -0.000175924 -1.28542e-19
-2.97488e-05 0.000177568 -3.21355e-20
-3.38288e-05 -0.000351421 -2.04939e-19
-3.23259e-05 0.00035186 5.94203e-20
4.98511e-05 -9.28835e-05 -2.48595e-20
5.03962e-05 9.07732e-05 6.36646e-20
-0.000170801 -8.98356e-05 -1.40669e-19
-0.000167894 8.67425e-05 -4.85064e-20
-0.000297966 5.51435e-05 3.39545e-20
-0.000293512 -5.48883e-05 -8.24609e-20
0.000394384 0.000219767 3.51671e-20
0.000399966 -0.000220218 -2.30405e-19
0.000106345 -1.1797e-06 4.06241e-20
0.000102806 4.02111e-06 -4.6263e-19
0.000155392 7.26373e-05 1.33393e-20
-1.01913e-05 -0.000155149 -1.29755e-19
0.000133516 -9.89449e-05 -2.17672e-19
-8.95695e-06 0.000156708 2.72848e-20
0.000153411 -7.36651e-05 -1.57646e-19
1.79546e-05 0.000161481 6.54836e-20
0.000134805 0.00010045 -1.39456e-20
-0.00010789 1.95116e-06 6.85153e-20
-0.000111146 -2.37345e-06 -2.24342e-20
-0.000114672 -9.89151e-05 -1.41275e-19
0.000195452 -0.000338586 -4.85064e-20
0.000196646 0.000340618 1.09139e-19
-0.000143931 8.41859e-05 4.9719e-20
-2.04718e-05 0.00018969 3.63798e-21
0.000226267 -0.000398619 -2.78912e-20
0.00039273 -0.000186589 -1.51582e-20
3.15135e-05 -0.000115652 -4.36557e-20
3.0618e-05 0.000114041 1.03076e-19
-2.67955e-05 -0.000198979 -2.12822e-19
1.60803e-05 -0.000159799 -2.54052e-19
0.000189722 9.96153e-05 2.00089e-20
0.000156579 -4.98804e-05 -3.1226e-19
0.000156525 5.2305e-05 4.79001e-20
-0.000388199 -8.10581e-09 7.39722e-20
-0.000388003 2.33023e-08 -8.48862e-20
-0.000144899 8.49374e-05 2.54659e-20
0.000124162 0.000138482 6.79089e-20
0.000125274 -0.000137514 -1.51582e-19
3.96143e-05 0.000113974 9.82254e-20
3.9097e-05 -0.000113819 -5.27507e-20
1.73496e-05 -3.12181e-05 7.88229e-21
1.939e-05 3.37951e-05 2.60722e-20
0.000431779 -0.000431797 -5.21444e-20
-0.000128636 4.40748e-05 3.03165e-20
-0.000129203 -3.99455e-05 -3.21355e-20
-3.09503e-05 -9.14339e-05 -1.07927e-19
-2.92561e-05 9.30437e-05 5.94203e-20
0.000185197 -9.94857e-05 -1.24298e-19
-0.000145324 -7.30181e-05 -1.10352e-19
-0.000187903 -2.43677e-05 -1.15203e-19
-0.000186861 3.10522e-05 -1.06714e-19
-0.000113757 -5.32885e-05 -1.12171e-19
5.75166e-05 -0.000244918 -8.85242e-20
5.69255e-05 0.000244791 3.39545e-20
7.85349e-05 0.000460581 9.94381e-20
7.64491e-05 -0.000459445 -8.97368e-20
3.59539e-05 0.000771227 -2.35559e-19
0.0007774 5.39402e-05 -5.06285e-20
0.000118161 1.79068e-05 4.79001e-20
0.000116864 -1.48033e-05 -3.74105e-19
0.000421245 -0.000524777 1.18234e-20
0.000512604 -0.000419326 -5.09317e-20
0.000188158 -0.000454162 -2.04939e-19
0.000186853 0.000451012 -1.45519e-20
-0.000136823 -8.03899e-05 -1.00651e-19
0.000126042 6.81567e-05 4.00178e-20
0.000124942 -6.63396e-05 -3.86232e-19
0.000117193 0.000130367 -1.45519e-20
0.000115904 -0.000129318 -2.26767e-19
-4.98373e-06 -0.000369897 -6.91216e-20
-8.9532e-06 0.000341169 -1.01863e-19
0.000354027 -1.10239e-05 -1.94026e-20
8.95432e-05 8.98682e-05 2.42532e-20
8.77689e-05 -8.86354e-05 -3.16504e-19
-3.70257e-05 0.000377375 -1.04289e-19
0.000372848 -2.71954e-05 2.395e-20
0.000167233 -2.45354e-05 -3.76531e-19
0.000167612 2.74632e-05 3.94114e-20
0.000159071 -5.2825e-05 -3.65617e-19
0.000159449 5.5759e-05 6.91216e-20
0.000436849 0.000537437 -5.6995e-20
0.00053983 0.000437278 8.73115e-20
0.000133003 7.3152e-05 2.91038e-20
0.000132129 -7.14958e-05 -3.46821e-19
4.59788e-05 -0.000270015 -1.35818e-19
4.78809e-05 0.000270038 7.88229e-20
0.000118445 5.28302e-05 -3.97752e-19
0.000120903 -4.66113e-05 4.85064e-20
0.000184794 -0.000174675 -1.20053e-19
0.000183032 0.000175185 2.66785e-20
-0.00010962 -2.54996e-05 -1.04289e-19
-0.000116965 2.85457e-05 -4.66874e-20
0.000171064 0.000329805 2.30405e-20
0.000252526 0.000254416 2.30405e-20
0.000172721 -0.000330732 -6.66963e-20
0.00025476 -0.000254819 -1.21266e-19
0.000182406 -0.000341972 -6.30583e-20
-0.000386124 -5.32621e-06 4.12304e-20
-0.000385129 7.18134e-06 -7.76102e-20
0.000186223 0.000343324 1.18841e-19
0.000306576 -0.000127 3.51671e-20
0.000801264 -0.000105471 2.30405e-20
0.000810294 0.000106663 -1.5037e-19
0.000314295 0.000130167 -1.45519e-19
0.000396377 9.11296e-06 3.88051e-20
0.000269899 -7.46318e-05 7.03343e-20
0.000372216 0.000121003 1.81899e-20
0.00040313 -4.511e-06 -2.34043e-19
0.000377836 -0.000121586 -1.45519e-19
0.000272746 8.18365e-05 -3.21355e-19
0.000288545 -0.000111965 -2.86188e-19
0.000292012 -0.000110885 -1.8675e-19
0.000285283 0.000113867 3.15291e-20
0.000288747 0.000112788 6.18456e-20
-6.3912e-05 -0.00018042 8.36735e-20
-2.57512e-05 0.000151423 1.21266e-20
2.49324e-05 -0.000151711 1.03682e-19
-0.00013651 -2.52338e-05 4.36557e-20
-0.000170538 -4.39629e-05 1.58858e-19
-2.96193e-05 0.000196397 2.54659e-20
2.88321e-05 -0.000197069 9.45875e-20
-0.000183048 4.57817e-05 1.62496e-19
-5.86971e-05 9.20308e-05 -2.84975e-20
-9.93489e-05 -0.000221041 -9.70128e-21
-9.61169e-05 0.000234074 7.88229e-21
0.000230032 -9.96385e-05 -8.12482e-20
0.000127303 0.000132263 1.21266e-21
-0.000128986 -0.000132148 -1.75836e-20
-6.358e-05 -0.00012725 1.49763e-19
-2.06358e-05 -0.000121873 2.54052e-19
1.43903e-05 0.000200895 -1.81899e-20
-1.53765e-05 -0.000201579 -2.78912e-20
0.000143027 2.09851e-05 -5.27507e-20
-7.65381e-05 -0.000265319 5.27507e-20
-7.70604e-05 0.00027066 4.85064e-21
0.000272401 -7.23415e-05 -9.45875e-20
-0.000118742 -0.000119819 8.85242e-20
-0.000187418 4.38597e-05 1.99483e-19
-0.000135044 -0.000120671 2.00089e-19
6.9328e-05 0.000177901 -9.39811e-20
-0.000129333 2.43496e-05 1.34605e-19
-0.000198515 -0.000404775 -4.18368e-20
-0.000112755 -5.66189e-05 -5.82077e-20
0.00040561 -0.000199419 -3.81988e-20
-6.61052e-06 0.000187454 -9.70128e-21
5.71343e-06 -0.000188082 4.48684e-20
-0.000422736 0.000204525 -2.8255e-19
-0.000421687 -0.000212199 4.00178e-20
-0.000273957 8.93061e-05 1.93419e-19
-9.95467e-05 -7.8675e-05 3.21961e-19
-0.000180181 8.68587e-05 -1.33393e-20
-0.000172883 -8.51043e-05 1.87962e-19
-2.95261e-05 -6.0297e-05 -1.21266e-19
0.000106753 0.000128013 -5.94203e-20
-0.000176488 0.000116519 2.00089e-19
-5.34203e-05 1.44967e-06 -9.76191e-20
-0.000116054 0.000123531 7.03343e-20
-6.45722e-05 0.000178809 2.18279e-20
2.01996e-05 0.000122639 -2.60722e-20
-0.000178756 0.000116324 9.88318e-20
-0.000427503 -0.000427504 -6.30583e-20
0.000432831 -0.000432854 1.21266e-21
3.78869e-05 9.8407e-05 2.78912e-20
0.000434401 -0.000459756 7.21532e-20
-0.000466364 -0.00042938 -7.03343e-20
0.0002202 -4.25312e-05 -3.03165e-20
0.000219744 4.2784e-05 2.42532e-20
0.000101944 3.57893e-05 -4.60811e-20
0.000206394 -0.00013969 -5.94203e-20
0.000205922 0.000140054 9.70128e-20
6.52841e-05 0.000127211 -7.33659e-20
-0.000178903 0.000330647 2.42532e-20
-0.000179129 -0.000328381 1.30967e-19
0.000152064 -8.84742e-05 -5.94203e-20
0.000151668 8.85071e-05 3.94114e-20
-0.000240389 0.000105269 1.12171e-19
0.000199775 -0.000310484 7.51849e-20
-0.000202122 0.000310732 6.4271e-20
0.000106066 -0.000126026 -2.78912e-20
-0.000208768 0.000392418 -6.66963e-21
-0.000405887 0.000214914 7.30627e-20
1.57595e-05 0.000121695 -3.39545e-20
-1.76906e-05 -0.000121184 1.46125e-19
0.000431251 -0.000178649 -1.33393e-20
0.000431291 0.000178665 5.21444e-20
2.30793e-05 -4.09451e-05 3.40757e-19
0.000143571 8.04045e-05 -1.94026e-20
0.000143965 -7.77966e-05 -8.73115e-20
-8.72016e-05 -5.96164e-05 4.35345e-19
-3.7646e-05 -9.64845e-05 1.03076e-20
-0.000253494 -5.25479e-05 2.03727e-19
0.000177453 3.94505e-05 -7.39722e-20
-0.000219945 -3.12332e-05 2.25555e-19
-0.000161676 -0.000134528 1.24904e-19
-0.000185736 -0.000321678 4.72937e-20
-0.000186296 0.000322647 3.63798e-21
-0.000195093 -0.000214407 -1.10352e-19
-0.000142365 8.29435e-05 2.11003e-19
0.000140502 -7.50073e-05 -8.36735e-20
3.36059e-05 -0.000350891 7.63976e-20
-3.44851e-05 0.000351513 1.16415e-19
-0.000166576 0.00014788 -1.87962e-20
1.19977e-05 0.000159989 -2.42532e-21
-1.2312e-05 -0.000161335 4.48684e-20
0.00010301 -3.64423e-05 -7.15469e-20
9.94699e-05 3.42327e-05 -4.24431e-20
0.000232199 0.000178211 -1.74623e-19
0.000125259 -0.000117866 -6.36646e-20
0.000123992 0.00011898 4.9719e-20
0.000138614 7.59498e-05 -7.39722e-20
6.57703e-05 -0.000177907 -1.81899e-21
9.36707e-05 -8.4798e-05 -7.51849e-20
9.04946e-05 8.34738e-05 3.21355e-20
-0.00014901 6.75193e-05 1.40669e-19
7.86436e-05 5.99041e-05 -4.24431e-20
-0.000179184 -0.000122919 4.60811e-20
-6.39559e-05 1.52812e-05 4.0139e-19
-2.38737e-05 3.9596e-05 3.15291e-20
0.000186998 -3.27913e-05 -1.10958e-19
-0.00014605 8.67538e-05 4.60811e-20
-0.0001542 -7.0813e-05 6.2452e-20
-0.000119984 -0.000145413 -7.88229e-21
-0.000137347 -8.99532e-05 2.03727e-19
-3.08482e-06 -0.00016613 5.3357e-20
1.49432e-06 0.000165447 -4.06241e-20
0.000228976 9.90041e-05 -1.54614e-19
-8.72502e-05 5.92146e-05 1.94026e-20
0.00011491 -0.000181834 -4.9719e-20
0.00011323 0.000181739 -6.85153e-20
-0.00014197 8.29652e-05 1.95238e-19
-5.80216e-05 9.13668e-05 -3.63798e-21
-5.94821e-05 -9.74367e-05 -1.57646e-20
-3.65931e-05 -0.000168805 3.15291e-20
-0.000133228 0.000125849 1.00044e-19
1.71606e-05 -0.000234932 9.51938e-20
3.13041e-05 0.000239156 -2.60722e-20
0.000242518 1.3682e-05 -8.36735e-20
0.000241452 -0.000174873 -1.07927e-19
0.00016026 0.000110386 -1.29755e-19
-0.000240648 0.000416885 6.54836e-20
0.000240463 -0.000416497 1.69772e-20
0.000180698 3.76045e-05 -1.2551e-19
2.80085e-05 9.67293e-05 -6.54836e-20
0.000106402 -3.8922e-05 -4.9719e-20
-3.45412e-05 0.000170076 -1.69772e-20
5.05845e-05 -0.000100578 2.60722e-19
-5.1266e-05 9.89788e-05 8.24609e-20
8.01252e-05 -6.05861e-05 -6.0633e-20
5.83622e-05 -1.29257e-05 -1.03076e-20
-2.87931e-05 -9.24979e-05 2.54052e-19
4.88409e-05 2.01733e-06 -5.1538e-20
0.000160015 -0.000115868 -9.58001e-20
-6.18017e-05 -1.70396e-05 1.81899e-21
0.000160625 -0.000122329 -5.1538e-20
-0.00018703 0.000228114 3.21355e-20
-9.88426e-05 7.51239e-05 7.21532e-20
6.35173e-05 -0.00026133 5.39634e-20
6.61096e-05 0.000257851 -8.06419e-20
0.000268891 6.74438e-05 -1.35212e-19
0.000161082 0.000123484 -3.39545e-20
2.99847e-07 0.000189426 -6.18456e-20
-1.88302e-06 -0.000190268 8.79178e-20
0.000127682 -0.000228841 -3.69861e-20
0.000127335 0.000234581 -8.42798e-20
1.66681e-05 -5.0954e-05 -7.03343e-20
1.79029e-05 5.0335e-05 -1.57646e-20
9.19169e-05 6.87717e-05 -4.9719e-20
6.21587e-05 8.97387e-05 2.60722e-20
-0.000137132 -8.14988e-05 3.37726e-19
-0.000271816 -0.000209044 4.9719e-20
3.35479e-05 0.000176222 -8.24609e-20
0.000171381 8.80689e-05 8.24609e-20
0.00017191 -8.78818e-05 -6.54836e-20
0.000148609 9.70542e-05 -2.66785e-20
0.000143779 -7.99263e-05 -5.63887e-20
0.000143597 8.01077e-05 -1.39456e-20
-6.95836e-05 -0.000785437 -7.27596e-20
0.000779828 -0.000118372 7.48817e-20
3.38053e-05 -0.000173351 5.82077e-20
0.00027473 -0.000250061 -4.48684e-20
0.00027438 0.000250871 -2.66785e-20
-0.000338129 -1.99725e-05 1.4461e-19
-1.13266e-05 0.000148274 -1.75836e-20
9.94823e-06 -0.000150513 3.81988e-20
-0.000122844 0.000179232 4.42621e-20
5.3915e-05 1.63618e-05 -4.54747e-20
-2.36585e-05 -4.63938e-05 4.18974e-19
-0.000131464 0.000104225 7.63976e-20
0.000129735 -0.00010576 1.75836e-19
9.14782e-05 -6.73123e-05 -6.85153e-20
-0.000101006 -6.84811e-05 3.68649e-19
0.000148858 -9.65689e-05 -4.54747e-20
-0.000176047 -0.000110426 1.19447e-19
0.000169683 -4.22687e-05 -5.6995e-20
2.43118e-05 4.39694e-05 1.69772e-20
-6.05811e-05 0.00012371 -1.81899e-20
-3.54387e-05 -0.000172068 6.0633e-20
0.000131089 8.19233e-05 -2.84975e-20
3.47955e-05 0.000173183 -7.15469e-20
-6.16699e-05 -8.80668e-05 -2.72848e-20
-0.000208688 0.000393614 -3.24386e-20
-0.000381814 0.000217288 -6.91216e-20
0.00014318 -2.67192e-05 -8.42798e-20
0.000131444 -8.17084e-05 -4.18368e-20
0.00044749 -0.000217741 7.27596e-21
0.000447692 0.000218146 -5.6995e-20
2.81334e-05 -9.82447e-05 -2.36469e-20
-0.000245062 0.000167307 -1.17628e-19
-0.000240256 -0.000171227 2.02514e-19
-0.000102729 -4.48983e-05 -9.82254e-20
-2.41804e-05 3.81873e-05 2.36469e-20
0.000221124 -0.000273288 -9.39811e-21
-0.000264929 -0.000208723 -6.66963e-20
0.000225335 -0.000323057 1.75836e-20
0.00020791 0.000304851 -6.85153e-20
0.000334228 0.000194658 -1.2551e-19
2.05763e-05 -3.80843e-05 -5.5176e-20
-1.01973e-05 -0.000347552 1.06108e-20
0.000354608 -2.32553e-05 -4.09273e-20
0.00019036 0.000261325 -6.79089e-20
-0.000191933 -0.000260972 6.4271e-20
-0.000119355 -9.42213e-05 1.24904e-19
-5.14725e-05 3.80422e-06 -1.78867e-19
0.000122151 0.000190319 -6.0633e-20
0.000123787 -0.000189296 -2.30405e-20
-0.000117214 3.41657e-05 -2.97102e-20
6.2124e-05 -0.000124774 1.27329e-20
0.000187201 -0.000146907 -6.91216e-20
0.000186508 0.000147313 9.45875e-20
-0.000143723 -7.56023e-05 2.4617e-19
-0.000100536 6.71848e-05 -4.00178e-20
-0.00011538 -5.3522e-05 -2.97102e-20
-0.000218957 -0.000119954 -1.03076e-20
-2.93989e-05 9.90554e-05 -3.88051e-20
-0.00044765 0.000447653 -7.56396e-20
-3.2514e-05 0.000175407 -5.57823e-20
3.14804e-05 -0.000178517 7.21532e-20
3.35028e-05 -0.000351025 6.66963e-20
-3.45736e-05 0.000351399 1.21266e-20
4.93338e-05 -9.38013e-05 -8.73115e-20
4.89529e-05 9.0469e-05 -1.27329e-20
-0.000170249 8.96921e-05 -1.75836e-20
-0.000168942 -8.67117e-05 3.01952e-19
-0.000297351 -5.502e-05 -1.98876e-19
-0.000293257 5.62302e-05 1.89175e-19
0.000397564 -0.000220662 -2.18279e-20
0.000397368 0.00022109 -8.12482e-20
0.000107231 5.61353e-06 1.21266e-20
0.000105419 -2.66826e-06 -1.27329e-20
0.000154605 -7.29396e-05 -4.72937e-20
-1.0355e-05 0.000154959 -6.54836e-20
0.000133293 9.98187e-05 -2.12215e-20
9.28293e-06 -0.000154397 3.75924e-20
-0.000244633 0.000167863 4.12304e-20
0.000153651 7.3458e-05 -6.4271e-20
-1.85005e-05 -0.000164025 1.18234e-19
-0.000107724 -2.11405e-06 2.18279e-20
-0.000108266 1.14622e-06 3.34694e-19
-0.000113525 9.82163e-05 -2.06152e-20
0.000195328 0.000338326 -3.15291e-20
-0.000195565 -0.000338783 5.57823e-20
-3.71052e-05 -0.000118404 7.88229e-21
-0.000144452 -8.54128e-05 1.98876e-19
-2.05006e-05 -0.000189516 7.57912e-20
0.000134107 -9.85842e-05 -4.06241e-20
0.000217443 0.000405794 -5.36602e-20
0.000390448 0.000192232 -1.30361e-19
3.09958e-05 -0.000116575 -9.03431e-20
2.90102e-05 0.000113321 2.97102e-20
-2.67475e-05 0.000198745 5.39634e-20
1.61239e-05 0.000159268 -6.91216e-20
0.000188128 -9.91066e-05 -1.13384e-19
0.000156691 -5.13287e-05 -4.85064e-20
0.000156324 5.14235e-05 -2.30405e-20
-0.000387435 1.39807e-08 -4.51109e-19
-0.000388008 -1.37721e-08 7.63976e-20
2.92703e-05 -9.16426e-05 -4.18368e-20
-0.000148102 -8.8416e-05 1.55827e-19
0.00012353 0.000139004 5.57823e-20
0.000124788 -0.000138569 -7.51849e-20
3.89298e-05 0.000113333 -4.30494e-20
1.73713e-05 3.12032e-05 9.09495e-21
0.00043608 0.000436081 7.33659e-20
-0.000128349 -4.39753e-05 6.00266e-20
-0.000128164 4.12215e-05 2.91645e-19
-3.0665e-05 9.10924e-05 -3.33481e-20
0.000187988 9.9257e-05 -1.12777e-19
-0.000145288 7.31305e-05 4.91127e-20
-0.000187566 2.44283e-05 3.03165e-21
-0.000187389 -2.4434e-05 3.63192e-19
-0.000113416 5.38891e-05 4.9719e-20
5.69769e-05 -0.000245719 -6.91216e-20
5.5825e-05 0.000246608 1.94026e-20
7.59971e-05 0.000459518 1.09139e-20
-7.69923e-05 -0.000459215 1.81899e-20
-5.97409e-05 0.000786017 8.94336e-20
-0.00078681 4.34061e-05 -3.09228e-20
0.000117458 1.65428e-05 -3.15291e-20
0.000116783 -1.68262e-05 -4.18368e-20
-1.33796e-05 -3.33194e-05 -4.66874e-20
0.000426749 0.000539424 4.36557e-20
0.00053136 0.000421216 4.54747e-21
0.00018808 0.000454008 -1.45519e-20
0.000187902 -0.000453582 6.0633e-21
-0.00013653 8.06004e-05 9.27685e-20
0.000117083 -0.000127664 -2.24342e-20
0.000125443 6.74779e-05 -5.3357e-20
0.000125738 -6.74379e-05 -6.73026e-20
8.81027e-05 -8.91214e-05 -6.48773e-20
0.000116005 0.000129637 -3.21355e-20
-5.10363e-06 -0.000353968 8.54925e-20
3.38189e-06 0.000359398 2.18279e-20
0.000377198 -2.27906e-06 -5.57823e-20
8.81379e-05 8.93434e-05 -4.06241e-20
1.51011e-05 0.000370874 4.57779e-20
-0.000373048 -4.74406e-05 -4.54747e-21
0.000167505 -2.75804e-05 -4.48684e-20
0.000167599 2.6233e-05 -3.45608e-20
0.000159547 -5.47459e-05 -1.45519e-20
0.000159313 5.49541e-05 -4.54747e-20
-0.000440157 0.000546829 -4.72937e-20
-0.000540082 0.000440288 -2.91038e-20
0.000132192 7.23225e-05 -1.63709e-20
0.000132436 -7.21858e-05 -8.73115e-20
4.54677e-05 0.000269753 -3.03165e-20
-4.64657e-05 -0.000269446 1.21266e-21
0.000122525 4.93662e-05 1.15203e-20
0.000120224 -4.88822e-05 2.36469e-20
0.000184054 -0.00017558 -5.94203e-20
0.000183329 0.000176234 5.21444e-20
-0.000109016 2.55915e-05 4.91127e-20
-0.000111389 -2.67567e-05 3.81381e-19
0.000171433 0.000332723 4.24431e-20
0.00025418 0.000256148 -4.12304e-20
0.000172014 -0.000331408 -4.24431e-20
0.000254093 -0.000255452 -4.36557e-20
-0.000183588 -0.000341892 6.4271e-20
-0.000385496 -6.26714e-06 9.33748e-20
-0.000385354 5.34551e-06 -3.15291e-19
0.00018206 0.000341769 -3.75924e-20
0.000310245 0.000128515 6.66963e-20
0.000806954 0.000106198 -6.4271e-20
0.000309935 -0.000128385 -2.18279e-20
0.000807027 -0.000106206 -3.15291e-20
0.00039998 -7.50373e-06 4.85064e-21
0.000271726 7.74216e-05 2.54659e-20
0.000375336 -0.000121621 9.70128e-21
0.000399717 7.70534e-06 9.70128e-21
0.000271344 -7.72987e-05 -3.03165e-20
0.00037508 0.000121785 -4.24431e-20
0.000287306 -0.000113521 1.21266e-21
0.000290722 -0.000112457 -4.85064e-20
0.000286943 0.000113872 2.30405e-20
0.000290428 0.000112786 -3.03165e-20
-6.64541e-05 -0.000183293 2.60722e-20
-2.50357e-05 0.00015166 -3.21355e-19
2.63589e-05 -0.000150936 -4.00178e-20
-0.000136386 2.48832e-05 6.91216e-20
-0.000174266 4.52983e-05 2.84975e-20
-2.89487e-05 0.000197164 -3.2378e-19
3.02599e-05 -0.000196294 -2.30405e-20
-0.000174391 -4.49029e-05 5.39634e-20
-5.84972e-05 -9.18254e-05 2.53446e-19
-9.84424e-05 -0.000221236 -4.85064e-20
9.99792e-05 0.000226749 -3.33481e-19
0.000230282 0.000104264 -2.34043e-19
-0.000127809 -0.000131875 -9.51938e-20
0.000127963 0.000132831 -3.09228e-19
-0.000140169 8.39283e-05 -1.46732e-19
-6.20858e-05 -0.000125959 2.84975e-20
-2.11534e-05 -0.000121503 1.81899e-20
-1.40423e-05 -0.000201397 -8.24609e-20
1.51507e-05 0.000201468 -3.36513e-19
0.000142229 2.12454e-05 2.60722e-20
-7.57991e-05 -0.000266257 -7.09406e-20
7.1777e-05 0.000269916 -3.03165e-19
0.000279619 7.39563e-05 -1.17022e-19
6.61115e-05 0.000180762 -2.81337e-19
-0.000122133 -0.000122915 5.39634e-20
-0.000128244 -2.63172e-05 1.21266e-19
-0.000191767 -0.000397245 9.09495e-22
-0.000113337 5.70197e-05 1.96451e-19
-5.69716e-06 0.000188126 -3.92902e-19
7.65849e-06 -0.000187509 -5.6995e-20
-0.00042272 -0.00020489 4.24431e-20
-0.000421727 0.00021226 1.04289e-19
-9.16809e-05 0.000123935 -2.0312e-19
-0.000110878 0.000131236 -1.75836e-19
-0.000255581 8.24262e-05 -6.79089e-20
-0.000180484 -8.74444e-05 2.03727e-19
-0.000172767 8.46444e-05 1.64922e-19
-2.95955e-05 6.07219e-05 1.83112e-19
-5.32575e-05 -1.86843e-06 2.31012e-19
-0.000183901 0.000120114 -1.45519e-19
-0.000212329 -3.33681e-05 -8.00355e-20
-0.000193737 3.89175e-05 -8.36735e-20
1.91417e-05 0.000122768 -1.63709e-19
-6.0431e-05 0.000182191 -3.20142e-19
0.000110421 0.000128609 -2.67391e-19
-0.000430129 -0.000430119 5.1538e-21
-0.000423515 0.000423503 -9.51938e-20
3.82324e-05 9.88287e-05 -2.36469e-19
6.3925e-05 0.000127749 -1.81899e-19
-0.000424749 0.000461958 -1.41275e-19
-0.000448118 -0.000430988 -1.46732e-19
0.000219341 -4.3558e-05 4.00178e-20
0.000220702 4.045e-05 -1.12777e-19
0.000103883 3.54483e-05 6.48773e-20
0.000205726 -0.000139384 7.27596e-20
0.000206728 0.000138741 -1.11565e-19
-0.000179033 -0.00033095 6.66963e-20
-0.000179127 0.000328491 4.24431e-20
0.000152155 -8.8872e-05 2.84975e-20
0.000151809 8.72095e-05 -4.79001e-20
-0.000200181 0.000310771 -3.11654e-19
0.00020425 -0.000311434 -3.27418e-20
0.000105824 -0.000126342 -3.09228e-20
0.000208064 0.000393138 -2.84369e-19
0.000394925 0.000208124 -2.88916e-19
1.61584e-05 0.000122141 -2.84369e-19
-1.63189e-05 -0.000120371 -1.81899e-20
0.000428106 -0.000177328 -1.69772e-20
0.000433334 0.000179474 -1.3218e-19
-0.000175593 -0.000122017 -4.36557e-20
2.31194e-05 -3.86418e-05 2.18279e-20
0.000143827 7.801e-05 -4.24431e-20
0.000144227 -7.85316e-05 6.2452e-20
-8.84624e-05 -6.02116e-05 1.17022e-19
-3.63025e-05 -9.61431e-05 -7.33659e-20
-0.000161417 0.000134699 1.63103e-19
-0.000246504 -5.57971e-05 -3.27418e-20
-0.00018578 0.000321742 1.21266e-21
-0.00018644 -0.000322934 -1.21266e-20
-0.000138834 -8.56021e-05 6.30583e-20
0.000139107 7.40046e-05 -1.15203e-20
-0.000197242 -0.000214402 -4.91127e-20
3.52238e-05 -0.000352549 -9.70128e-21
-3.37827e-05 0.000351239 -3.45608e-19
-0.000166991 -0.000147964 1.3218e-19
1.27563e-05 0.000161114 -2.43745e-19
-1.09636e-05 -0.00016096 0
0.000101628 3.39253e-05 8.60988e-20
0.000103746 -3.7561e-05 1.37637e-19
0.00023293 -0.000175042 -1.45519e-20
0.000175043 3.77182e-05 -1.81899e-20
0.00012571 -0.000117859 1.30361e-19
0.000124807 0.000117331 -1.09139e-20
0.00014169 -7.64673e-05 1.03682e-19
6.6305e-05 -0.000177225 -2.18279e-20
9.4651e-05 -8.52588e-05 1.42488e-19
9.16971e-05 8.24131e-05 3.09228e-20
-0.000150167 -6.71025e-05 8.30672e-20
-0.000157838 0.00012419 -1.90994e-19
7.69581e-05 5.95163e-05 -3.63798e-21
-6.5789e-05 1.59883e-05 1.0732e-19
-2.42721e-05 4.10915e-05 -1.3218e-19
0.000187525 3.11347e-05 -4.12304e-20
-0.000264868 0.00025795 -1.48551e-19
-0.000146365 -8.74049e-05 1.37637e-19
-0.000151274 7.17147e-05 6.30583e-20
-0.000360108 5.88552e-05 -1.3127e-19
-0.000140262 8.56156e-05 -6.91216e-20
-2.08208e-06 -0.000165575 -6.66963e-21
3.10802e-06 0.000166127 -2.98921e-19
-0.000124485 -0.00014792 1.75836e-20
0.00023003 -9.91349e-05 -2.54659e-20
-8.74368e-05 6.51489e-05 -1.77655e-19
0.000114281 -0.000179513 -3.63798e-21
-0.000120031 0.000193577 -2.66785e-19
-0.000143998 -8.51989e-05 5.94203e-20
-5.81048e-05 -9.14396e-05 2.05546e-19
-5.93888e-05 9.76589e-05 1.95238e-19
-3.57468e-05 -0.000169994 -3.63798e-20
3.32691e-05 0.000173969 -3.41364e-19
2.07428e-05 -0.000234756 -1.00651e-19
-3.09745e-05 0.000241698 -1.92813e-19
0.000245002 -2.66709e-05 -7.88229e-20
0.000162876 -0.000108943 2.30405e-20
0.000241248 -0.00041788 0
-0.000240647 0.000416841 -1.85537e-19
-0.000172604 -0.000104101 -6.12393e-20
0.000181379 -4.00728e-05 2.18279e-20
-0.000274058 -0.000217294 -1.09139e-19
2.69412e-05 9.73006e-05 -8.73115e-20
0.00010651 -3.96187e-05 9.03431e-20
5.04464e-05 -9.78829e-05 -1.27329e-20
-5.17078e-05 0.000100572 -3.0559e-19
0.000162299 0.000228741 -4.01997e-19
0.000241401 0.000162439 -3.37119e-19
8.10337e-05 -6.1393e-05 -2.06152e-20
-0.000345477 -1.55799e-05 -1.12474e-19
5.65485e-05 -1.39693e-05 3.75924e-20
-2.75627e-05 -9.9001e-05 6.66963e-20
4.93987e-05 1.26136e-06 1.56433e-19
-5.72536e-05 -1.47843e-05 -2.38288e-19
-0.000130961 -0.000124921 1.04289e-19
6.42922e-05 -0.000259555 -1.01863e-19
-6.15058e-05 0.000259083 -2.33437e-19
0.0002654 -6.97119e-05 -2.78912e-20
0.000163471 -0.00012554 5.82077e-20
1.96536e-06 0.000189105 -3.01952e-19
-8.68204e-07 -0.000189946 -3.39545e-20
0.000130622 -0.000235343 -2.91038e-20
-0.000124052 0.000247735 -1.90994e-19
1.8388e-05 4.82876e-05 1.06714e-19
1.75671e-05 -5.1253e-05 1.98876e-19
9.19204e-05 6.95261e-05 -1.51582e-20
6.26384e-05 9.03365e-05 -3.07409e-19
-0.000134694 8.26006e-05 -7.21532e-20
0.000172115 8.67057e-05 -1.94026e-20
0.000171726 -8.82945e-05 3.27418e-20
0.000144054 -8.05069e-05 3.09228e-20
0.000143754 7.88642e-05 -7.94292e-20
-8.34268e-05 -0.000776827 -6.66963e-20
0.000114195 0.000178465 -3.61373e-19
-0.000800179 9.3743e-05 -1.9827e-19
-0.000101249 -7.53463e-05 1.06714e-19
3.49766e-05 -0.000172761 -4.79001e-20
-3.0067e-05 0.000178071 -4.00784e-19
0.000273169 -0.000248343 1.29755e-19
0.000275822 0.000250014 -2.01301e-19
0.000149562 9.64481e-05 -1.27936e-19
0.000175375 -4.35758e-05 2.42532e-20
0.000162973 0.000113169 -2.40107e-19
-1.05896e-05 0.000149399 -1.81899e-19
1.10185e-05 -0.000150271 8.48862e-21
5.51223e-05 1.46736e-05 -1.57646e-20
0.00014928 -9.71894e-05 2.42532e-20
-2.67627e-05 -4.4493e-05 6.54836e-20
-0.000130022 0.000105698 -3.89264e-19
0.000133029 -0.000103286 -2.78912e-20
9.20586e-05 -6.79245e-05 -5.76013e-20
-0.000102716 -6.9855e-05 8.24609e-20
2.10869e-05 4.51995e-05 -2.12215e-20
3.4091e-05 0.000171695 -3.51065e-19
-3.52937e-05 -0.000171275 -2.54659e-20
0.000131267 8.06752e-05 -8.24609e-20
0.000163701 0.00012389 -2.7588e-19
-5.7741e-05 0.000125306 -3.10441e-19
-5.98358e-05 -8.78979e-05 -5.21444e-20
0.000209506 0.000379869 -2.27677e-19
0.000385486 0.000209009 -2.45867e-19
-0.000239589 0.000179196 -2.00089e-19
0.000131835 -8.22726e-05 1.81899e-20
0.000143631 -2.63121e-05 7.39722e-20
0.000449242 0.000217763 -2.01301e-19
0.000444355 -0.00021644 -1.45519e-20
2.92158e-05 -9.86128e-05 -2.91038e-20
-0.000245214 -0.000167704 2.20704e-19
-0.000240605 0.000171361 1.63709e-19
-0.000101881 4.36283e-05 1.5522e-19
-2.5575e-05 3.83155e-05 -3.11047e-19
-0.000201719 0.000269111 -1.61284e-19
-0.000253229 -0.000216465 -1.07624e-19
0.000216909 -0.000310592 -1.23085e-19
-0.000197227 0.00032204 -8.85242e-20
0.000324926 -0.000189473 -7.09406e-20
-0.00022137 -0.00011986 -6.54836e-20
2.25504e-05 -3.85219e-05 -2.30405e-20
-2.65381e-05 -0.000347504 -9.03431e-20
-0.000328915 2.92991e-06 -1.71895e-19
0.000190941 0.000261738 -4.17155e-19
-0.000190953 -0.000261106 -1.26117e-19
-0.00011797 9.33211e-05 2.18279e-19
-5.16775e-05 -3.77825e-06 2.01301e-19
-0.000117458 0.000191658 -1.98876e-19
0.000124234 -0.000187907 -7.33659e-20
-0.000117527 -3.48297e-05 1.90388e-19
6.27011e-05 -0.000124744 -2.60722e-20
0.00018676 -0.000146515 1.29755e-19
0.00018751 0.000145937 -6.54836e-20
-0.000144466 7.60177e-05 6.73026e-20
-8.992e-05 6.63179e-05 -2.22523e-19
-0.000115983 5.38979e-05 1.83718e-19
-2.66286e-05 0.000107983 -2.33437e-19
0.000445073 0.000445085 -1.48096e-19
3.25389e-05 -0.000178178 -1.03076e-20
-3.02045e-05 0.000177773 -3.77137e-19
-3.35671e-05 0.000351519 -4.81426e-19
3.57018e-05 -0.00035193 -2.30405e-20
5.042e-05 -9.41726e-05 1.76442e-19
4.99451e-05 8.94274e-05 1.46732e-19
-0.000171278 -9.00704e-05 2.2131e-19
-0.000167631 8.6739e-05 1.67347e-19
-0.000297365 5.40815e-05 2.17066e-19
-0.000293453 -5.54511e-05 8.48862e-20
0.000394482 -0.00021936 1.94026e-20
0.000400096 0.00022064 -1.8675e-19
0.000107926 4.02992e-06 7.27596e-21
0.000102698 -3.90995e-06 -5.8814e-20
0.000154996 7.15704e-05 -9.94381e-20
-9.4559e-06 0.000156958 -3.24993e-19
1.03652e-05 -0.000154086 7.27596e-21
0.000154011 -7.45305e-05 6.85153e-20
-1.71171e-05 -0.000162643 2.42532e-20
1.68072e-05 0.000161357 -2.72848e-19
0.000134057 9.93785e-05 -1.78261e-19
-0.000108317 1.65285e-07 1.15203e-19
-0.00010941 -1.26984e-06 -1.57646e-19
0.000133955 -9.98668e-05 9.70128e-21
-0.000114621 -9.89369e-05 1.81899e-19
0.000195569 0.000338789 -1.1399e-19
-0.000195593 -0.000338803 -4.60811e-20
-3.57543e-05 -0.000118355 -4.91127e-20
-0.000143879 8.41892e-05 1.2066e-19
-2.04664e-05 0.000189602 1.21872e-19
0.000226229 -0.000399072 -5.48728e-20
0.000392771 -0.000186889 -4.79001e-20
3.25211e-05 -0.000116399 1.70379e-19
2.97207e-05 0.000113218 5.5176e-20
-2.6788e-05 -0.000198965 1.70379e-19
0.000189513 9.86976e-05 -1.15203e-19
0.000156712 -5.22797e-05 1.75836e-20
0.000156496 4.99086e-05 -3.81988e-20
-0.000387353 -2.28059e-08 4.48684e-20
-0.000388034 8.20834e-09 2.37681e-19
3.041e-05 -9.16775e-05 -3.09228e-20
-0.00014489 8.49742e-05 1.27329e-20
0.000124305 0.000137656 -6.91216e-20
0.000125253 -0.000138286 9.70128e-20
3.94734e-05 0.000114435 -2.11609e-19
2.02481e-05 3.29392e-05 -3.20142e-19
0.000432051 -0.000432046 -3.09228e-20
-0.000130634 4.31797e-05 2.14034e-19
-0.000128231 -4.04282e-05 3.63798e-21
-2.94648e-05 9.34828e-05 -2.55871e-19
0.000185243 -9.98527e-05 4.79001e-20
-0.000145434 -7.29694e-05 1.92813e-19
-0.000189804 -2.02744e-05 2.33437e-19
-0.000186502 3.13297e-05 8.67052e-20
-0.000113751 -5.33115e-05 1.75229e-19
5.63649e-05 0.00024567 -5.21444e-20
5.81959e-05 -0.000244005 2.01301e-19
7.66586e-05 0.000459554 -3.61373e-19
-7.57226e-05 -0.000460549 -1.33393e-20
3.56729e-05 0.00077087 -3.13473e-19
0.000777349 5.35435e-05 -1.79474e-19
0.000117227 -1.81858e-05 -1.75836e-20
0.000116889 1.49012e-05 -2.97102e-20
-1.2008e-05 -3.36733e-05 -3.45608e-20
0.000421459 -0.000525541 -4.82032e-20
0.000512627 -0.000419623 -1.42487e-20
0.000188395 0.000454733 -2.04939e-19
0.000186666 -0.000450566 1.51582e-19
-0.000136686 -8.05181e-05 1.52189e-19
0.000117463 -0.000128069 -3.09228e-20
0.000126081 -6.82217e-05 4.85064e-21
0.00012495 6.63115e-05 -4.18368e-20
8.86637e-05 -8.98547e-05 -5.5176e-20
0.000116248 0.000129628 -1.47338e-19
-9.33081e-06 0.000341026 -1.29755e-19
-4.4937e-06 -0.000370633 -1.32786e-19
0.000354156 -1.16451e-05 -1.23085e-19
8.82105e-05 8.85577e-05 -5.82077e-20
-3.72886e-05 0.000377082 -2.07062e-19
0.000372748 -2.76188e-05 -1.52795e-19
0.000167348 -2.88111e-05 -1.94026e-20
0.000167159 2.46189e-05 -8.24609e-20
0.000159497 -5.56113e-05 1.63709e-20
0.000159006 5.28733e-05 -7.82165e-20
0.000436554 0.000537103 -2.30708e-19
0.000539695 0.000436993 -1.27329e-19
0.000132313 7.15961e-05 -5.45697e-20
0.000132815 -7.29948e-05 -3.45608e-20
4.61941e-05 0.00027016 -5.04466e-19
-4.50048e-05 -0.000269601 -3.15291e-20
0.000122977 4.70885e-05 1.57646e-20
0.000118362 -5.27802e-05 -1.2551e-19
0.000183664 -0.000174751 1.21266e-19
0.0001843 0.000175064 -4.00178e-20
-0.000109895 -2.59442e-05 1.63103e-19
-0.000116896 2.88336e-05 -7.03343e-20
-0.000182593 -0.000342177 -4.72937e-20
-0.000385008 -6.03082e-06 6.18456e-20
-0.000385312 6.7868e-06 7.03343e-20
0.000182644 0.000342143 -2.86188e-19
0.000172259 0.000331998 -8.36735e-20
0.000254973 0.00025546 -1.52795e-19
0.000171647 -0.000328507 1.70985e-19
0.000252407 -0.000253767 9.21621e-20
0.0003068 0.000127095 -2.78912e-20
0.000314301 -0.000130169 -1.20053e-19
0.000810864 -0.000106738 -2.13428e-19
0.000801058 0.000105446 -1.87962e-19
0.000396537 -8.91897e-06 -3.15291e-20
0.000270149 7.47659e-05 -9.70128e-21
0.000403219 4.63556e-06 -1.74623e-19
0.00027271 -8.17952e-05 -1.72198e-19
0.000377913 0.000121772 -1.37031e-19
0.000372369 -0.00012084 -4.00178e-20
0.000285519 -0.000113562 3.27418e-20
0.000288955 -0.000112492 1.69772e-20
0.000288525 0.000112205 -1.97664e-19
0.00029197 0.000111132 -1.95238e-19
-2.41971e-05 0.000150762 -4.24431e-20
1.85999e-05 -0.000166166 -2.12215e-20
-0.000135241 -2.64344e-05 2.395e-19
-0.000169427 -4.65964e-05 2.02514e-19
-2.80093e-05 0.000195072 -9.58001e-20
1.6834e-05 -0.000186715 -1.94026e-20
-0.00018095 4.34714e-05 1.74017e-19
-5.62666e-05 9.05719e-05 1.5522e-19
-9.5799e-05 0.000235181 -9.45875e-20
-9.16162e-05 -0.00022972 1.18234e-19
0.00023487 9.44072e-05 -2.5284e-19
0.000132425 -0.000124451 -3.88051e-20
0.000126829 0.000131492 -9.09495e-20
-0.000131806 -8.91494e-05 1.39456e-19
3.69657e-05 -0.000182482 4.85064e-21
1.51797e-05 0.000199348 1.94026e-20
0.000141218 -3.32209e-05 1.63709e-20
-6.31164e-05 -0.000283594 9.09495e-20
-7.66372e-05 0.000271972 -1.15809e-19
0.000280185 6.52157e-05 -1.2551e-19
-0.000187569 4.05599e-05 8.06419e-20
7.12319e-05 0.000176879 -1.72198e-19
8.88044e-05 -0.00020159 -1.33393e-20
-0.000127617 2.20958e-05 1.80686e-19
-0.000192657 -0.000417917 2.37984e-19
-0.000109205 -5.75812e-05 2.4617e-19
0.000417276 0.000198079 -2.94676e-19
-5.29396e-06 0.000186244 -3.75924e-20
3.34734e-05 -0.000180247 1.21266e-20
-0.00042106 0.000204699 2.30405e-19
-0.000409713 -0.000212035 1.29755e-19
-0.000275083 8.65137e-05 5.82077e-20
-8.50381e-05 -0.000126201 9.64064e-20
-0.000165163 -8.74583e-05 1.60071e-19
-0.000178259 8.6684e-05 1.83112e-19
-2.79764e-05 -6.11664e-05 2.26161e-19
0.000110046 0.00012515 -1.09746e-19
0.000121115 -0.000158513 3.63798e-21
-0.000176334 0.000115274 3.57735e-20
-5.09499e-05 -6.73985e-07 1.78867e-19
-0.000113348 -0.000135285 7.63976e-20
-0.000116018 0.000123243 -3.75924e-20
-4.99675e-05 -0.000187055 4.24431e-20
-6.40795e-05 0.000179015 -5.8814e-20
5.59047e-05 -0.000149311 -5.82077e-20
2.0674e-05 0.000121886 -6.48773e-20
-0.00017993 0.000114964 -4.85064e-20
-0.00044887 -0.000448899 2.19491e-19
0.000445957 0.000446005 -2.88007e-19
4.77251e-05 -9.23857e-05 -7.27596e-20
3.81033e-05 9.78933e-05 -6.48773e-20
0.000447757 0.000476605 -4.14426e-19
-0.000469354 -0.000449889 1.92207e-19
0.000216136 3.77624e-05 2.30405e-20
0.000174045 -9.47204e-05 -8.12482e-20
0.000100814 -4.77832e-05 8.79178e-20
0.000202616 0.000132848 -1.21266e-21
0.00016572 -0.000153344 -1.40669e-19
6.71794e-05 0.000126021 -1.28542e-19
8.52025e-05 -0.000156477 -1.87962e-20
-0.000171921 -0.000328513 1.85537e-19
-0.000176898 0.000331987 8.12482e-20
0.000150121 8.20753e-05 -5.45697e-21
0.00013759 -0.000115691 -1.37031e-19
-0.000242739 0.000101895 9.70128e-21
-0.000197569 0.000307303 -1.15203e-19
-8.8157e-05 -0.000251284 1.09139e-20
-0.00021564 0.000403611 -1.00044e-19
-0.000410296 0.000212894 3.03165e-22
1.71679e-05 0.00012114 -5.8814e-20
4.52834e-05 -0.000147054 -1.33393e-20
0.000422492 0.000175042 -1.49157e-19
0.000332828 -0.000137816 1.58858e-19
0.000143077 6.95573e-05 -1.43094e-19
0.00013521 -9.58139e-05 -4.00178e-20
-0.000254214 -5.81192e-05 1.20053e-19
0.000180091 -5.40682e-05 -2.30405e-20
-0.000216696 -3.42816e-05 1.52189e-19
-0.000154256 -0.000135553 2.17672e-19
-0.000186016 0.00032212 1.15203e-19
-0.000183112 -0.000317162 9.94381e-20
-0.000191398 -0.00022259 1.52795e-19
-0.000142103 8.15946e-05 8.85242e-20
0.000140783 6.77097e-05 -1.83718e-19
2.76783e-06 -0.000273399 7.27596e-21
-3.31565e-05 0.000347296 -5.6995e-20
-0.000164741 0.000147317 1.61284e-19
3.58498e-05 -0.000163424 -6.18456e-20
1.28465e-05 0.000159428 3.57735e-20
0.000101946 2.68033e-05 1.51582e-20
9.37066e-05 -4.33122e-05 1.22479e-19
0.000244163 -0.00020083 -5.82077e-20
0.000122636 0.000108359 -1.57646e-20
0.000107869 -0.000124526 2.42532e-20
0.000136131 -9.66418e-05 -5.5176e-20
9.23211e-05 7.66218e-05 -5.39634e-20
8.35967e-05 -9.88042e-05 4.85064e-20
-0.00014766 6.60656e-05 1.74623e-19
7.70449e-05 5.70827e-05 -3.57735e-20
9.31476e-05 -0.000109164 -2.19491e-19
-0.000177654 -0.000125809 2.11003e-19
2.76711e-05 -9.61198e-05 -7.88229e-20
-2.27716e-05 4.0021e-05 -1.58252e-19
0.000189779 2.33436e-05 -1.40669e-19
-0.000144861 8.56881e-05 1.63709e-19
-0.000150447 -7.40029e-05 2.76486e-19
-0.000114173 -0.000153542 1.1399e-19
-0.000132049 -9.5571e-05 1.89175e-19
2.46155e-05 -0.000169262 -4.48684e-20
2.78992e-06 0.000164653 -1.81899e-20
0.000240595 -0.000113277 -1.2551e-19
-8.65648e-05 5.90449e-05 1.66134e-19
-7.98187e-05 -6.89694e-05 6.36646e-20
0.000126733 -0.000205091 1.03076e-20
0.000116356 0.000177768 -9.09495e-20
-0.000140543 8.16801e-05 1.48551e-19
-5.50997e-05 8.94246e-05 1.3218e-19
-5.45972e-05 -9.41752e-05 1.94026e-19
-0.000132754 0.000125502 5.8814e-20
3.00055e-05 -0.000251275 2.78912e-20
3.29581e-05 0.000240115 -1.04895e-19
0.000249258 -2.3831e-05 -9.64064e-20
0.000246362 0.000170148 -2.25555e-19
0.000169507 -0.000130451 -1.3218e-19
-0.00019381 -0.000335739 1.94026e-20
-0.000238021 0.000412254 1.56433e-19
0.000184504 -5.15582e-05 -1.12171e-19
2.88718e-05 9.46891e-05 -4.24431e-20
5.99635e-05 -0.00013584 -4.72937e-20
0.000105411 2.93357e-05 -3.27418e-20
-2.23541e-05 -0.00017932 1.39456e-20
-3.35879e-05 0.000170149 -1.49157e-19
-5.01333e-05 9.93347e-05 -1.86143e-19
1.4139e-05 -0.000125462 -2.54659e-20
5.71033e-05 -1.45467e-05 -4.24431e-20
8.09621e-05 -6.54163e-05 -2.20704e-19
4.7517e-05 -9.02472e-06 1.31574e-19
0.000163469 0.000109357 -1.41881e-19
-5.06707e-05 1.12227e-05 6.0633e-21
-6.12455e-05 -1.68093e-05 1.98876e-19
0.000164186 0.000118866 -6.12393e-20
-0.000188382 0.000229108 -1.41881e-19
-9.83166e-05 7.47054e-05 1.12777e-19
8.19629e-05 -0.000279179 3.21355e-20
6.95851e-05 0.00025979 -1.57646e-19
0.000278455 -8.3339e-05 -1.56433e-19
0.000170823 -0.000151408 -9.94381e-20
1.55561e-06 0.000189411 -8.48862e-20
2.28862e-05 -0.000204025 -2.48595e-20
0.000140979 -0.000256305 3.03165e-20
0.000132785 0.000227381 -1.84931e-19
1.70918e-05 4.10617e-05 1.11565e-19
1.57032e-05 -5.87179e-05 1.52795e-19
9.20002e-05 6.70756e-05 -7.21532e-20
0.000104143 -0.000116509 -1.31574e-19
6.46076e-05 -8.65143e-05 -2.48595e-20
6.20618e-05 8.93382e-05 -4.18368e-20
-0.000126345 -8.73321e-05 1.63709e-19
-0.000270003 -0.000220649 1.52492e-19
5.0287e-05 -0.000199784 7.27596e-21
3.58535e-05 0.000175218 -2.10396e-19
0.000168463 8.15282e-05 1.21266e-20
0.000140652 -0.000115623 -1.07927e-19
0.000148709 -0.000126578 -2.15853e-19
0.000142657 7.43681e-05 -7.21532e-20
0.000133829 -0.000111778 -1.32786e-19
-8.32384e-05 -0.000814511 3.14079e-19
0.000808297 0.000117234 -9.15558e-20
0.000269176 0.000242268 -1.1399e-19
0.000211247 -0.000234507 6.79089e-20
0.00014942 9.18184e-05 -1.64315e-19
-0.000338377 -2.5729e-05 1.14899e-19
3.42588e-06 -0.000147139 -6.48773e-20
-1.06492e-05 0.000147625 2.36469e-20
-0.000122841 0.0001792 -1.0247e-19
-0.000128156 0.000104438 -1.72198e-19
-4.64701e-05 -0.000129428 -1.21266e-21
-0.000175621 -0.000119518 1.97664e-19
0.000171788 3.31894e-05 -6.73026e-20
2.2008e-05 4.40872e-05 -1.09139e-19
6.07927e-05 -9.91249e-05 -1.15203e-19
-4.82583e-05 -0.000128727 -2.06152e-20
-6.00533e-05 0.00012347 -2.91038e-20
0.000131114 7.60393e-05 -1.00044e-19
0.000131896 -0.000112059 -1.66134e-19
3.68483e-05 0.000172796 -2.14641e-19
5.46957e-05 -0.000189045 -2.42532e-21
-0.000217018 0.000388088 -1.6765e-19
-0.00038674 0.000215217 -3.09228e-20
0.000143619 1.66605e-05 -1.06108e-19
0.000437589 0.000211383 -1.89175e-19
0.000357714 -0.000197698 1.61284e-19
-0.000243441 0.000167498 2.43745e-19
-0.000231048 -0.000171682 1.39456e-19
-9.99579e-05 -4.67703e-05 2.15853e-19
-1.87932e-05 -4.21736e-05 -2.30405e-20
-2.37997e-05 3.81648e-05 1.53401e-19
0.000221769 0.000276254 -2.76183e-19
-0.000259657 -0.000220166 1.88569e-19
0.000228691 -0.000332791 6.0633e-21
0.000224559 0.000315933 -3.21355e-19
0.000347773 -0.00021067 -1.00044e-19
-2.38632e-05 -0.000365507 5.91172e-20
0.00036531 1.81091e-05 -1.38546e-19
0.00018912 0.000259005 -9.58001e-20
0.000182791 -0.00022752 -2.18279e-20
-0.000113641 -9.68686e-05 2.61328e-19
-4.9351e-05 1.25889e-06 1.92207e-19
0.000136025 -0.000214025 3.03165e-20
0.00012827 0.000189081 -9.09495e-20
-0.000115259 3.23052e-05 2.28586e-19
0.000182695 0.000140339 2.42532e-20
0.000147991 -0.000159977 -3.75924e-20
-0.000138679 -8.01879e-05 2.09184e-19
-9.99447e-05 6.70707e-05 1.10352e-19
-8.38198e-05 -7.0879e-05 6.00266e-20
-0.000109574 -5.71455e-05 2.55265e-19
-0.000215222 -0.000128313 1.79474e-19
-2.89498e-05 9.88802e-05 6.18456e-20
-1.69224e-05 -0.00010677 1.27329e-20
-0.000449755 0.000449711 -1.41881e-19
-3.16598e-05 0.000175219 -8.00355e-20
-1.98711e-05 -0.000185759 -4.9719e-20
-3.28411e-05 0.000347705 -9.09495e-20
1.49074e-05 -0.000289138 1.09139e-20
4.72948e-05 8.06806e-05 1.0247e-19
4.37778e-05 -9.49978e-05 1.15203e-19
-0.000158772 -9.00644e-05 1.57039e-19
-0.000169051 8.93111e-05 1.70985e-19
-0.000282814 5.0473e-05 1.69772e-20
-0.000295672 -5.45957e-05 2.42532e-19
0.000390675 0.000214126 -9.70128e-21
0.000288858 -0.000201737 1.12777e-19
0.000101858 -4.78717e-06 -3.03165e-20
0.000107407 -7.11793e-05 -1.96451e-19
0.000155902 6.54937e-05 -1.76442e-19
5.24424e-06 -0.000159648 -6.18456e-20
-9.59768e-06 0.000154864 -2.06152e-20
0.000142895 -0.000127627 -1.23085e-19
-0.000247197 0.000167585 -4.06241e-20
0.0001558 -9.33806e-05 -1.34605e-19
0.000135921 9.3665e-05 -6.60899e-20
-0.000106912 -1.96988e-06 1.97664e-19
-0.000100794 -3.32402e-06 9.70128e-21
-0.000111475 9.74539e-05 1.39456e-19
0.000193522 0.000335273 -2.91038e-20
0.000169919 -0.000294284 3.63798e-20
-0.000138389 -8.89246e-05 2.36469e-19
-1.39418e-05 -0.000190194 1.81899e-19
0.000238083 -0.00042191 5.12349e-20
0.000410647 -0.000207953 -4.45652e-20
2.60713e-05 0.000107037 1.00651e-19
2.24454e-05 -0.000119449 9.58001e-20
-2.32467e-05 0.000198786 1.05501e-19
4.56275e-05 -0.000182287 -1.81899e-21
1.7528e-05 0.000158395 -8.91305e-20
0.000190959 9.28962e-05 -2.17066e-19
0.000154524 4.70122e-05 8.48862e-21
0.000139552 -0.000100049 -1.79474e-19
-0.000376059 -8.54922e-09 3.63798e-21
-0.000385718 -2.40635e-08 1.94026e-19
-0.000142822 -9.21629e-05 2.58297e-19
0.000122111 0.000131383 1.45519e-20
0.000107257 -0.000151179 -6.4271e-20
3.91582e-05 0.000113001 7.88229e-21
4.95227e-05 -0.000115088 -6.73026e-20
2.7721e-05 -3.67029e-05 -3.88051e-20
1.75905e-05 3.121e-05 7.27596e-20
0.000453151 -0.000453107 2.586e-19
-0.000119941 3.56625e-05 3.75924e-20
-0.000127417 -4.35919e-05 1.916e-19
-3.02303e-05 9.08236e-05 3.94114e-20
-1.94301e-05 -9.42344e-05 -2.84975e-20
0.000192734 -0.000121127 -1.66134e-19
-0.000144138 7.27829e-05 1.54008e-19
-0.000178836 -3.31728e-05 1.27329e-19
-0.000186275 2.43897e-05 2.14034e-19
-0.000111362 5.21665e-05 1.62496e-19
5.23491e-05 0.000237669 3.88051e-20
4.49848e-05 -0.000231409 1.11565e-19
7.60703e-05 0.000454547 -3.03165e-20
9.13232e-05 -0.000374116 1.21266e-20
-4.52652e-05 0.00080312 -3.80775e-19
-0.000799365 3.69611e-05 2.7588e-20
0.000116229 1.33128e-05 -5.45697e-21
0.000118083 -8.1301e-05 -2.26767e-19
0.000443982 -0.000551412 1.84021e-19
0.000552845 -0.000437593 9.1859e-20
0.000157374 -0.000379772 7.88229e-20
0.000183263 0.00044243 -2.29193e-19
-0.000135544 8.01136e-05 1.62496e-19
0.000123998 6.28932e-05 1.15203e-20
0.000122421 -0.000108958 -1.8675e-19
0.00011694 0.000126362 -1.10352e-19
0.000124633 -0.00015913 -7.21532e-20
3.23038e-06 -0.000393703 7.33659e-20
8.88744e-06 0.000343745 -1.38243e-19
0.000392225 -6.88076e-06 -1.13384e-19
8.86439e-05 8.53468e-05 -6.60899e-20
0.000102258 -0.00012678 -1.26723e-19
3.85818e-05 0.000379159 -1.27936e-19
-0.000376647 -5.5835e-05 1.02167e-19
0.000164609 2.26626e-05 2.36469e-20
0.00014503 -8.65067e-05 -1.95238e-19
0.000156806 4.97081e-05 2.66785e-20
0.000140726 -0.000101435 -1.22479e-19
-0.000442738 0.000542652 -1.84931e-19
-0.000547644 0.000441908 -1.76442e-19
0.000131958 6.86049e-05 -5.57823e-20
0.000131504 -0.000115477 -1.74017e-19
6.87997e-05 -0.000234158 -8.48862e-21
4.59633e-05 0.000267329 -4.60811e-20
0.00011717 -5.2572e-05 5.1538e-20
0.00011682 -4.17835e-05 -1.61284e-19
0.000179727 0.000167366 -4.85064e-21
0.000146289 -0.000175474 3.39545e-20
-0.000107211 -3.43105e-05 1.09139e-19
-0.000108247 2.5548e-05 1.94632e-19
0.000176074 -0.000292686 -4.85064e-21
-0.000372053 -9.9852e-06 1.94026e-20
-0.000383505 5.64602e-06 2.11003e-19
0.000180909 0.000338546 -1.23691e-19
0.000166939 0.000323022 -4.60811e-20
0.000248312 0.000247718 -1.37031e-19
0.000136644 -0.000299662 6.66963e-20
0.000205363 -0.000236045 1.03076e-19
0.000307724 -0.000127425 -1.57646e-20
0.000790618 -0.000103996 -1.17628e-19
0.000622777 8.20928e-05 9.58001e-20
0.000178887 7.41362e-05 -5.94203e-20
0.000394034 3.44044e-06 -1.94026e-20
0.000266964 -8.07237e-05 7.27596e-20
0.000369197 0.000118383 1.33393e-20
0.000274727 -7.11144e-05 -3.27418e-20
0.000267278 -0.00010563 8.12482e-20
0.000205283 -2.51383e-05 -3.03165e-20
0.000282326 0.000107796 7.51849e-20
0.000284907 0.000106993 -3.15291e-20
0.000214459 -0.000137467 -1.94026e-20
0.000222814 -0.000134864 -6.0633e-21
2.44141e-05 5.34091e-06 5.3357e-20
2.03301e-05 1.20975e-05 -4.24431e-20
5.60895e-05 -1.49154e-06 1.21266e-21
1.95581e-05 -2.80126e-06 -2.30405e-20
1.98194e-05 -2.65744e-06 1.09139e-20
1.76805e-05 4.28987e-05 -1.33393e-20
5.89468e-05 -3.47436e-05 1.81899e-20
1.89132e-05 3.84315e-06 1.09139e-20
5.1388e-05 4.35005e-05 1.33393e-20
2.11997e-05 2.2522e-06 1.43094e-19
2.13689e-05 -2.02914e-06 1.44306e-19
1.83728e-05 4.92109e-08 1.3218e-19
0.000115199 -2.79356e-06 -1.09139e-19
-1.18537e-05 -2.14495e-05 -1.35818e-19
2.44686e-05 1.40087e-05 6.0633e-21
4.02345e-05 1.32146e-05 6.0633e-21
4.8975e-05 3.74602e-05 -4.36557e-20
2.56503e-05 -4.43732e-05 -1.30967e-19
1.54444e-05 1.47294e-06 2.35256e-19
2.22695e-05 1.75477e-07 6.66963e-20
2.23496e-05 -1.46193e-07 1.15203e-19
1.73365e-05 7.18e-07 1.67347e-19
1.81986e-05 1.2211e-05 4.24431e-20
1.43489e-05 1.83575e-06 7.76102e-20
7.78581e-06 1.1667e-05 -5.09317e-20
1.94486e-05 3.25339e-06 7.76102e-20
2.14688e-05 2.8235e-06 7.27596e-21
1.99247e-05 -1.09957e-07 1.46732e-19
2.46689e-05 -2.58771e-05 3.75924e-20
1.73477e-05 -5.28217e-07 1.09139e-19
4.24392e-05 3.32766e-05 -7.88229e-20
4.75953e-05 -3.03302e-05 -5.45697e-20
-0.000216976 -0.000110319 1.94026e-20
-0.000217472 0.000104444 -2.30405e-20
1.70463e-05 4.19271e-07 9.70128e-20
1.04926e-05 1.4869e-05 -6.18456e-20
-4.17199e-05 -1.33265e-05 -2.78912e-20
-4.8406e-05 1.56019e-05 3.51671e-20
6.47361e-05 -2.76464e-05 5.21444e-20
1.98898e-05 2.66532e-06 9.82254e-20
1.37108e-05 -2.40738e-06 7.03343e-20
5.39305e-05 -1.40662e-07 2.06152e-20
1.82623e-05 -1.17878e-05 1.15203e-19
2.42483e-05 -5.35984e-06 1.09139e-19
1.31058e-05 9.99439e-06 5.21444e-20
1.71636e-05 -2.10954e-06 1.1399e-19
2.43945e-05 -3.92191e-06 1.85537e-19
2.08361e-05 -7.9065e-06 1.92813e-19
6.70048e-05 -2.10447e-05 -9.94381e-20
2.12593e-05 -7.58345e-07 1.64922e-19
1.642e-05 -4.30668e-06 1.3218e-19
3.3742e-05 -1.86011e-06 -1.61284e-19
3.37592e-05 1.84428e-06 2.19491e-19
1.09723e-05 3.1288e-06 2.58297e-19
3.16136e-05 -1.68371e-05 -1.30967e-19
3.16268e-05 1.68497e-05 2.55871e-19
1.96616e-05 5.92451e-06 4.9719e-20
-5.6337e-05 -0.00020673 3.39545e-20
-5.65926e-05 0.000207475 -2.42532e-21
2.31161e-05 -7.72459e-06 -1.33393e-19
2.30998e-05 7.72261e-06 2.91038e-19
1.71274e-05 4.5781e-07 1.37031e-19
0.000158706 -0.000107814 -1.21266e-21
-3.86494e-05 8.89534e-05 -5.94203e-20
1.98874e-05 -2.65932e-06 -1.80686e-19
2.00646e-05 -1.95753e-07 1.75836e-19
1.66417e-05 7.79562e-07 1.1399e-19
2.09409e-05 1.16601e-05 -3.51671e-20
3.67102e-05 1.239e-05 5.6995e-20
6.46704e-05 -2.67887e-05 1.57646e-20
6.4717e-05 2.6808e-05 2.91038e-20
6.13355e-05 5.22762e-05 0
1.91746e-05 -6.9582e-06 -4.00178e-20
1.91195e-05 7.18852e-06 3.16504e-19
1.78937e-06 3.22026e-05 -6.66963e-20
8.39623e-06 -1.35442e-05 -1.96451e-19
1.7154e-05 -3.2728e-07 8.60988e-20
1.53134e-05 -1.49659e-06 3.51671e-20
-2.99215e-05 -6.53669e-05 2.42532e-20
-9.54941e-05 0.000165377 1.21266e-21
-9.60875e-05 -0.000166405 1.45519e-20
1.75276e-05 2.50658e-06 1.1399e-19
9.46575e-06 1.76929e-06 5.45697e-20
1.52987e-05 3.94602e-06 2.49808e-19
2.46666e-05 0.000104361 -3.63798e-20
4.74507e-05 -0.000134866 4.60811e-20
-3.5505e-05 7.34756e-05 2.06152e-20
4.71596e-05 6.39798e-06 -6.0633e-21
2.80471e-05 -1.29058e-05 -1.22479e-19
1.22277e-05 -4.14277e-06 1.74623e-19
1.20093e-05 3.82931e-06 3.75924e-19
1.85413e-05 -1.21991e-06 -2.91038e-20
1.54901e-05 1.49586e-06 1.72198e-19
1.73874e-05 -1.41882e-05 -8.48862e-21
1.73203e-05 1.43296e-05 4.31707e-19
1.55199e-05 -3.98448e-06 2.78912e-20
1.95127e-05 -3.14181e-06 -1.47944e-19
1.14919e-05 -8.00034e-06 4.36557e-20
1.1184e-05 7.85876e-06 3.91689e-19
1.48087e-05 1.74337e-05 2.42532e-21
1.76305e-05 1.28919e-07 3.03165e-19
1.50258e-05 3.72854e-06 3.15291e-20
1.54877e-05 7.63258e-05 -8.73115e-20
7.83807e-06 6.82776e-08 8.12482e-20
1.71341e-05 6.27456e-07 1.84324e-19
-1.02471e-05 1.82587e-05 1.81899e-20
1.47222e-05 -1.52591e-05 -2.66785e-20
1.77366e-05 2.6986e-06 5.57823e-20
8.7509e-06 -1.21555e-06 -3.63798e-20
3.09648e-05 -1.44222e-05 -4.48684e-20
2.82972e-05 1.61989e-05 -2.42532e-20
1.84986e-05 -1.02839e-07 4.36557e-20
1.60664e-06 -3.276e-05 2.42532e-21
1.97002e-05 -1.48267e-06 -1.27329e-19
1.97326e-05 1.35478e-06 8.60988e-20
7.62283e-06 1.66834e-06 2.54659e-20
4.24059e-05 5.23309e-05 1.94026e-20
4.33819e-05 -5.41217e-05 3.27418e-20
2.4406e-05 5.33748e-06 5.82077e-20
6.90586e-06 -1.02547e-05 6.54836e-20
2.14406e-05 -9.33376e-08 4.60811e-20
2.15569e-05 8.42426e-08 6.54836e-20
1.70401e-05 -4.62488e-08 1.40669e-19
1.8546e-05 1.12335e-06 1.10352e-19
1.89467e-05 -1.60247e-06 -5.57823e-20
-7.92946e-05 0.000137319 -7.03343e-20
8.46414e-05 -0.000146665 2.42532e-21
1.70871e-05 -8.20319e-07 8.48862e-20
1.53862e-05 2.42754e-06 1.15203e-19
1.11997e-05 -3.37734e-06 1.916e-19
2.45963e-05 -5.46105e-06 1.11565e-19
1.45991e-06 1.38961e-05 -3.15291e-20
7.64423e-05 1.95175e-05 3.51671e-20
1.77635e-05 -2.71752e-07 -2.15853e-19
1.56796e-05 -6.87649e-06 2.65572e-19
3.66388e-05 2.61663e-05 -8.48862e-21
5.47995e-06 4.37042e-08 3.14079e-19
1.88963e-05 1.37642e-06 1.37031e-19
1.65107e-05 -7.74065e-05 -3.51671e-20
1.89866e-05 2.3343e-06 1.28542e-19
1.72362e-05 -2.30002e-06 1.46732e-19
1.15946e-05 -1.71707e-05 4.24431e-20
2.20229e-05 -4.24979e-07 -3.39545e-20
2.20885e-05 3.69784e-07 4.24431e-20
1.74457e-05 -9.4682e-07 1.22479e-19
1.89711e-05 -2.28267e-06 -1.28542e-19
2.89577e-05 2.94452e-06 3.63798e-21
3.03824e-05 -2.71843e-06 -4.85064e-21
2.02745e-05 -1.98464e-07 -1.09139e-20
2.03926e-05 2.49839e-07 1.05501e-19
1.95239e-06 -5.77482e-06 2.48595e-19
1.82449e-06 5.58661e-06 3.58947e-19
1.88216e-05 9.24781e-07 2.61934e-19
8.14334e-05 -2.61978e-05 -1.5037e-19
-1.65626e-05 1.28361e-05 -8.60988e-20
1.67557e-05 -5.22982e-07 1.01863e-19
2.33111e-05 3.43484e-06 2.54659e-20
2.55028e-05 -7.65428e-06 -1.20053e-19
2.55152e-05 7.66269e-06 3.0074e-19
1.944e-05 -3.92875e-06 -1.06714e-19
1.94005e-05 3.89042e-06 3.08016e-19
2.10638e-05 -5.91189e-07 1.80686e-19
1.32429e-05 -1.01088e-06 1.24904e-19
2.31138e-05 -3.65529e-06 -9.33748e-20
4.15085e-05 -3.43856e-05 -1.11565e-19
4.15372e-05 3.44055e-05 2.20704e-19
1.88331e-05 2.55602e-06 2.48595e-19
1.66142e-05 -1.1954e-07 1.10352e-19
1.55034e-05 -1.74427e-06 1.29755e-19
3.90103e-05 2.30402e-06 -1.33393e-20
1.98963e-05 -1.68684e-05 -1.56433e-19
1.70919e-05 -2.1902e-06 1.15203e-19
1.52886e-05 6.994e-06 -2.63147e-19
1.88255e-05 -2.58148e-06 -1.21266e-19
3.33309e-05 4.9012e-05 -6.91216e-20
-1.32959e-05 1.48602e-05 -3.88051e-20
0.000116042 1.69241e-05 4.00178e-20
1.88148e-05 -8.94678e-07 -2.08577e-19
7.48839e-06 3.58619e-05 -4.36557e-20
1.42123e-05 4.89852e-07 3.63798e-20
1.13335e-05 3.85841e-07 1.80686e-19
2.49387e-05 -1.48847e-05 5.21444e-20
2.65131e-05 -6.1947e-07 4.60811e-20
2.02401e-05 3.76866e-06 2.93464e-19
2.22074e-05 6.12288e-06 -1.21266e-20
-1.271e-06 -1.01559e-05 -2.18279e-19
2.02531e-05 1.92778e-06 1.66134e-19
1.9392e-05 1.05077e-06 1.54008e-19
2.02622e-05 -3.80999e-06 -1.29755e-19
1.56045e-05 -1.79926e-06 1.01863e-19
6.62435e-05 -3.0575e-05 2.54659e-20
6.62895e-05 3.05928e-05 8.60988e-20
1.50343e-05 -2.74057e-06 -2.19491e-19
-9.62763e-05 -8.306e-05 1.33393e-20
-0.000100258 7.98881e-05 -1.33393e-20
3.61481e-05 -1.2458e-05 3.88051e-20
3.36888e-05 -5.21851e-05 -9.58001e-20
2.02224e-05 -1.67707e-06 1.06714e-19
2.00131e-05 -3.70872e-07 1.27329e-19
2.0397e-05 -3.05319e-07 5.57823e-20
2.03555e-05 2.14067e-07 1.11565e-19
1.75942e-05 7.33146e-07 3.51671e-20
1.15154e-05 8.31533e-07 -2.54659e-19
2.11779e-05 2.70855e-07 1.30967e-19
1.74869e-05 -6.20787e-08 6.18456e-20
0.000152057 7.26601e-05 -1.28542e-19
-3.57321e-05 -7.03157e-05 -1.1399e-19
1.4629e-05 -2.29384e-05 -1.69772e-20
5.49122e-05 1.04598e-06 3.51671e-20
2.05882e-05 2.17772e-06 7.15469e-20
2.05432e-05 -2.19367e-06 -6.4271e-20
3.18133e-05 1.12018e-05 4.12304e-20
1.97372e-05 -6.41123e-06 -2.00089e-19
2.7826e-05 -1.82611e-05 -1.12777e-19
2.78426e-05 1.82667e-05 2.49808e-19
-5.67191e-06 3.093e-06 -9.33748e-20
7.515e-06 -3.63042e-05 4.36557e-20
1.54094e-05 -1.4953e-05 -9.70128e-21
1.78339e-05 1.294e-06 1.15203e-19
3.59282e-05 -2.35736e-05 7.27596e-21
2.33128e-05 6.35858e-06 1.63709e-19
2.75667e-05 2.35017e-06 8.48862e-20
2.22459e-05 -5.5842e-06 -9.45875e-20
2.92886e-05 0.000110354 -5.94203e-20
6.21643e-05 -0.000115791 -5.45697e-20
6.01441e-06 -1.10812e-05 1.77048e-19
5.99644e-06 1.10246e-05 4.1958e-19
-4.2357e-05 -1.30667e-05 -5.94203e-20
-4.31806e-05 1.70924e-05 3.51671e-20
-0.000135819 8.66982e-05 -6.66963e-20
-0.000139173 -8.56314e-05 9.70128e-21
6.08534e-05 -3.08902e-05 -2.54659e-20
6.08998e-05 3.0908e-05 1.72198e-19
2.0508e-05 5.94138e-06 -2.95889e-19
2.04789e-05 -5.82995e-06 2.94676e-19
1.86144e-05 3.44144e-06 2.06152e-19
3.76636e-05 -6.96674e-06 4.9719e-20
2.18942e-05 -5.20203e-06 -1.57646e-19
1.73093e-05 -2.22351e-06 1.45519e-19
1.86348e-05 -3.49505e-06 -4.72937e-20
3.6554e-05 4.14832e-06 3.51671e-20
1.91821e-05 2.50782e-06 2.19491e-19
-2.0566e-05 -6.53581e-05 -2.42532e-21
-2.07691e-05 6.47618e-05 -1.10352e-19
1.92328e-05 -2.51034e-06 -1.80686e-19
1.42568e-05 2.68932e-05 1.57646e-20
8.47877e-05 0.000146923 -4.48684e-20
-5.44243e-05 -9.42496e-05 -6.0633e-21
8.28269e-06 -8.94218e-06 -2.24342e-19
-7.04231e-06 -1.53329e-05 -6.18456e-20
6.3555e-05 -0.00010177 4.36557e-20
2.01599e-05 1.94692e-06 9.21621e-20
1.92387e-05 8.04161e-07 5.6995e-20
3.68522e-06 -1.39731e-05 4.12304e-20
3.68794e-06 1.374e-05 4.68087e-19
5.85259e-05 0.000107676 1.94026e-20
2.08775e-05 5.13163e-06 -2.42532e-20
1.71942e-05 2.38201e-06 1.70985e-19
2.396e-05 -9.48002e-07 -1.70985e-19
2.39565e-05 9.01272e-07 2.81337e-19
-0.000199459 -4.04627e-09 -2.78912e-20
-0.000199437 4.17092e-09 -5.57823e-20
1.43905e-05 -6.47995e-06 -2.32831e-19
9.91471e-06 -1.38186e-06 -6.91216e-20
1.7337e-05 -1.64375e-05 -7.51849e-20
1.7268e-05 1.64518e-05 3.84413e-19
6.72635e-05 -1.7339e-05 -3.75924e-20
5.83783e-05 -5.63345e-05 -1.37031e-19
2.34094e-05 6.68825e-06 2.08577e-19
-2.67332e-05 7.67763e-05 -9.70128e-20
-2.69366e-05 -7.82916e-05 6.0633e-20
3.52952e-05 -2.75568e-05 -6.4271e-20
1.7184e-05 -2.31875e-06 -4.00178e-20
-8.90726e-06 -5.64628e-06 2.30405e-20
-5.85267e-05 4.15363e-05 -8.24609e-20
-5.87389e-05 -4.15617e-05 3.15291e-20
1.428e-05 1.76362e-05 3.63798e-21
7.62656e-06 -3.35634e-05 -5.3357e-20
7.68198e-06 3.35923e-05 3.67436e-19
7.39197e-05 0.00015796 -4.12304e-20
7.39712e-06 -0.000157055 1.45519e-20
2.13551e-05 -8.2178e-07 1.94026e-19
1.29499e-05 8.13197e-07 1.12777e-19
2.08731e-05 3.44043e-06 -2.14641e-19
2.09588e-05 -3.58939e-06 3.0074e-19
8.7615e-06 1.21823e-06 -2.08577e-19
2.28089e-05 2.77934e-07 1.67347e-19
1.62875e-05 5.58143e-06 1.46732e-19
2.73315e-05 6.59849e-05 5.6995e-20
2.73135e-05 -6.59416e-05 -2.91038e-20
-1.74669e-05 -1.29477e-05 3.27418e-20
1.92049e-05 -2.55804e-06 -2.15853e-19
2.18445e-05 -2.0489e-06 -1.97664e-19
2.18359e-05 2.00388e-06 3.18929e-19
1.86677e-05 -1.84508e-06 -2.00089e-19
1.91647e-05 2.53782e-06 1.97664e-19
2.14545e-05 -1.8915e-08 6.66963e-20
2.15629e-05 5.83362e-08 1.23691e-19
1.74221e-05 -1.21312e-09 8.00355e-20
1.86598e-05 1.80606e-06 2.67998e-19
2.12539e-05 -3.10197e-07 1.60071e-19
1.67417e-05 -1.9289e-08 7.51849e-20
2.76111e-05 2.01141e-06 -1.61284e-19
2.77043e-05 -2.28556e-06 2.58297e-19
2.60216e-05 -3.41464e-06 -1.57646e-19
2.60662e-05 3.39331e-06 2.29193e-19
2.28437e-05 1.53593e-07 1.94026e-19
1.60365e-05 5.77837e-06 1.46732e-19
2.0545e-05 1.07743e-06 3.2378e-19
2.05456e-05 -1.1281e-06 -1.75836e-19
6.10566e-05 7.79507e-05 -5.09317e-20
2.08268e-05 -7.36136e-05 -3.75924e-20
2.23062e-05 1.10864e-05 -2.18279e-19
2.21596e-05 -1.10772e-05 2.76486e-19
2.73411e-05 -2.2683e-05 -1.06714e-19
2.73499e-05 2.27376e-05 3.4197e-19
-3.56091e-06 -4.07438e-05 3.88051e-20
-3.84979e-06 3.98646e-05 -9.09495e-20
0.000146032 0.000131031 -9.33748e-20
-0.000213074 -3.49481e-05 -6.0633e-21
2.53337e-05 4.67398e-05 2.31618e-19
3.75322e-05 3.54516e-05 1.35818e-19
2.52998e-05 -4.67269e-05 -2.06152e-20
3.75067e-05 -3.54309e-05 -3.51671e-20
-3.26831e-05 -9.98956e-05 -5.09317e-20
-0.000213218 3.42653e-05 -2.06152e-20
4.97207e-05 -2.05944e-05 6.66963e-20
0.000121105 -1.59414e-05 -1.21266e-20
0.000121018 1.59299e-05 8.85242e-20
4.96755e-05 2.05757e-05 -6.79089e-20
6.20508e-05 -1.90382e-06 1.45519e-19
4.24407e-05 -1.48901e-05 2.13428e-19
5.78752e-05 1.74313e-05 7.88229e-20
6.20011e-05 1.89187e-06 -1.06714e-19
5.78303e-05 -1.74204e-05 3.63798e-21
4.24096e-05 1.48659e-05 -2.15853e-19
4.47222e-05 -1.34763e-05 -1.28542e-19
4.39091e-05 -1.37295e-05 -1.18841e-19
4.47555e-05 1.34775e-05 2.11003e-19
4.39398e-05 1.37315e-05 2.00089e-19
-6.30563e-05 -0.000179839 -3.27418e-19
1.9003e-05 0.000166251 -4.24431e-20
2.52641e-05 -0.000150582 -2.2131e-19
-0.000134767 -2.33217e-05 -1.01257e-19
-0.000168809 -4.20569e-05 -1.06108e-19
1.72333e-05 0.000186844 -8.24609e-20
2.90985e-05 -0.000195204 -2.12215e-19
-0.000181524 4.91832e-05 -3.75924e-20
-5.54166e-05 9.28538e-05 5.5176e-20
-9.95998e-05 -0.000219856 -2.41926e-19
-8.91082e-05 0.000247141 -1.95845e-19
0.000238743 0.000116921 1.69166e-19
0.000132515 0.000124877 -4.60811e-20
-0.000126705 -0.000131061 -1.92813e-19
-6.27208e-05 -0.000126524 -3.03165e-19
-2.0144e-05 -0.000121059 -1.99483e-19
-1.44873e-05 -0.00019964 -1.55827e-19
3.73052e-05 0.000182757 -7.03343e-20
0.00014395 -9.93097e-06 5.03254e-20
-7.58834e-05 -0.000265895 -1.89175e-19
-6.74965e-05 0.000288627 -1.08533e-19
0.000280914 8.97477e-05 1.53401e-19
-0.000117953 -0.000119161 -2.31012e-19
-0.000184752 4.77637e-05 -6.66963e-20
-0.000133906 -0.000119994 -1.49157e-19
8.93152e-05 0.00020107 -1.75836e-20
-0.000125992 2.70233e-05 -1.09139e-20
-0.000196549 -0.00039946 -1.75532e-19
-0.000110641 -5.48371e-05 -9.76191e-20
0.000419834 0.000219821 2.17369e-19
3.3694e-05 0.000180446 -1.16415e-19
6.29714e-06 -0.00018634 -2.25555e-19
-0.000411237 0.000204204 -5.21444e-20
-0.000419819 -0.000212794 -5.6995e-20
-0.000274506 9.49022e-05 -1.7341e-19
-9.85562e-05 -7.81769e-05 -1.56433e-19
-0.000170383 -8.50847e-05 -9.21621e-20
-0.000173288 8.9409e-05 4.72937e-20
-2.86532e-05 -5.84605e-05 -8.12482e-20
0.000121598 0.000158035 1.69772e-20
-0.000173414 0.000123122 -8.60988e-20
-5.01554e-05 2.48916e-06 3.75924e-20
-0.000109112 0.000130369 -1.10958e-19
-5.42964e-05 0.000189221 -1.10352e-19
5.63936e-05 0.000149222 -8.48862e-21
-0.000175301 0.000122959 -1.57646e-19
-0.000437246 -0.000437194 -1.14596e-19
0.000455912 0.000455874 1.13687e-19
4.79403e-05 9.28591e-05 -3.63798e-20
0.000458463 0.000499156 1.98573e-19
-0.000470042 -0.000438776 -1.60981e-19
0.000173672 9.48058e-05 0
0.000216115 -3.79744e-05 2.30405e-20
0.00010067 -2.55238e-05 2.18279e-20
0.00016538 0.000153204 4.85064e-21
0.000202594 -0.000133066 1.21266e-21
8.5745e-05 0.000156326 -1.39456e-20
-0.00017258 0.000329811 -2.06152e-20
-0.000176493 -0.000330721 -1.57646e-20
0.000137259 0.000115813 2.97102e-20
0.000150409 -8.2147e-05 1.32786e-19
-0.000240328 0.000111153 -2.24948e-19
-8.78859e-05 0.00025132 -9.94381e-20
0.000198088 -0.000307368 -2.03727e-19
0.000107473 -0.000123502 -1.95238e-19
-0.000213285 0.000421701 -2.54659e-20
-0.000410049 0.000223604 -2.4041e-19
4.58929e-05 0.000146991 -4.36557e-20
-1.69867e-05 -0.00012032 -2.51021e-19
0.000332099 0.000137513 7.03343e-20
0.000422527 -0.000175057 -5.57823e-20
2.32237e-05 -4.07846e-05 -1.47944e-19
0.000134874 9.38361e-05 3.27418e-20
0.000143426 -7.20112e-05 5.09317e-20
-8.62488e-05 -5.93416e-05 -9.94381e-20
-3.6827e-05 -9.59698e-05 -1.75229e-19
-0.00025353 -5.05541e-05 -2.3465e-19
0.000180009 -2.92746e-05 1.75836e-20
-0.000219566 -2.89779e-05 -1.95238e-19
-0.000159372 -0.000133647 -1.67347e-19
-0.00018563 -0.000321452 -2.66785e-20
-0.000183556 0.000317934 -4.85064e-20
-0.00019418 -0.0002133 -2.31012e-19
-0.000137028 8.73177e-05 2.91038e-20
0.000137662 9.60807e-05 6.18456e-20
3.37348e-05 -0.000347328 2.91038e-20
2.91067e-06 0.000273404 -7.88229e-20
-0.000160055 0.000148753 4.72937e-20
3.6201e-05 0.0001639 -5.8814e-20
-1.14543e-05 -0.000159827 -2.47989e-19
9.73072e-05 4.59311e-05 2.06152e-20
9.84068e-05 -2.40996e-05 5.27507e-20
0.000240254 -0.000172449 -2.12215e-19
0.000108306 0.000123083 8.12482e-20
0.000122036 -0.000110067 5.6995e-20
0.000139262 -6.82682e-05 2.00089e-20
6.68558e-05 -0.000175792 -2.59509e-19
8.67656e-05 0.000100538 5.21444e-20
8.90977e-05 -7.51517e-05 6.79089e-20
-0.000145515 6.98597e-05 1.51582e-20
9.33853e-05 0.000109196 -1.09139e-20
-0.00017818 -0.000121991 -2.00089e-19
-6.3172e-05 1.49983e-05 -3.88051e-20
2.80105e-05 9.57496e-05 -4.85064e-20
0.000190462 4.78666e-05 9.94381e-20
-0.000140149 8.96818e-05 9.64064e-20
-0.000152715 -6.95578e-05 -1.40669e-19
-0.000119179 -0.000144411 -2.12215e-19
-0.000136233 -8.89415e-05 -1.48551e-19
-2.12388e-06 -0.000164675 -2.18279e-19
2.53706e-05 0.000169528 -3.63798e-20
0.000236921 -9.04251e-05 -1.38243e-19
-7.97983e-05 6.34139e-05 4.54747e-20
0.000116051 -0.000177453 -1.86143e-19
0.000127007 0.0002031 3.88051e-20
-0.000137571 8.7288e-05 6.00266e-20
-5.3303e-05 9.07757e-05 5.5176e-20
-5.64153e-05 -9.28807e-05 -1.03076e-19
-3.53931e-05 -0.000168079 -2.80124e-19
-0.000127335 0.000132829 -1.94026e-20
2.11121e-05 -0.000234444 -1.8675e-19
4.21941e-05 0.000256733 -3.75924e-20
0.000249275 -1.30919e-06 5.6995e-20
0.000250656 0.00019537 1.04895e-19
0.000166227 -0.000102821 -1.57039e-19
0.000237862 -0.000412075 2.49808e-19
-0.000193846 0.0003358 -4.48684e-20
0.000184107 -2.69441e-05 -1.45519e-20
6.04787e-05 0.000135664 1.39456e-20
0.000105288 5.17635e-05 5.09317e-20
-2.14423e-05 0.000179665 -8.54925e-20
5.04454e-05 -9.98104e-05 -1.61284e-19
1.42954e-05 0.000125488 -6.66963e-20
7.91919e-05 -5.8309e-05 -1.71591e-19
8.14811e-05 6.64587e-05 -2.06152e-20
-2.82003e-05 -9.20424e-05 -1.95238e-19
4.74873e-05 8.87224e-06 -1.05501e-19
0.000168508 0.00013514 9.51938e-20
-5.37748e-05 -1.45628e-05 1.33393e-20
0.000169672 0.000150546 6.36646e-20
-0.000184027 0.000240922 -2.66179e-19
-9.12678e-05 7.96214e-05 4.91127e-20
6.54963e-05 -0.000259722 -2.01908e-19
8.32285e-05 0.000278771 -4.18368e-20
0.00027732 -5.84868e-05 -6.66963e-20
0.000167012 -0.000121581 -1.27936e-19
-9.05199e-07 -0.000189171 -2.23129e-19
2.36442e-05 0.000204233 -3.51671e-20
0.000133376 -0.000235464 -2.30405e-19
0.000141999 0.000250138 4.85064e-20
1.6757e-05 5.94768e-05 -1.57646e-20
1.59501e-05 -4.0374e-05 -7.76102e-20
0.000104302 0.000116489 -1.21266e-21
6.45866e-05 8.6913e-05 -2.30405e-20
-0.000135741 -8.09696e-05 -1.29148e-19
-0.00027217 -0.000210167 -2.8255e-19
5.1522e-05 0.000199299 -2.48595e-20
0.000140425 0.000115718 4.12304e-20
0.0001685 -8.17453e-05 1.03076e-19
0.000133313 0.000111739 1.15203e-20
0.000143198 -7.46471e-05 9.03431e-20
-8.66807e-05 -0.000787803 -3.2469e-19
0.000808463 0.000135921 5.21444e-20
3.56512e-05 -0.000171343 -2.42532e-19
0.000210793 0.000234137 -4.00178e-20
0.000269171 -0.000242458 -9.45875e-20
0.000148015 0.000126104 5.03254e-20
-0.000339788 -1.73506e-05 -3.05893e-19
3.61109e-06 0.000147532 -7.76102e-20
1.0965e-05 -0.000148928 -2.56478e-19
-0.000116298 0.000189338 -1.92207e-19
5.41771e-05 1.51467e-05 -1.84324e-19
0.000150164 -9.21936e-05 -4.00178e-20
-2.31938e-05 -4.61935e-05 -3.45608e-20
-4.6193e-05 0.000129447 -9.21621e-20
0.000128849 -0.000104946 -2.59509e-19
9.1586e-05 -6.56533e-05 -2.25555e-19
-9.99894e-05 -6.81642e-05 -1.67953e-19
-0.000175009 -0.000109366 -2.44351e-19
0.000171704 5.8135e-05 6.30583e-20
6.21042e-05 9.88429e-05 -4.00178e-20
-4.98897e-05 0.000128343 -6.85153e-20
-3.43488e-05 -0.000171031 -2.90432e-19
0.000131629 0.000111983 -1.00309e-36
5.56921e-05 0.000189141 -1.87962e-20
-6.22649e-05 -8.70567e-05 -1.47944e-19
-0.000215059 0.000401734 4.24431e-21
-0.000387823 0.000225795 -1.61284e-19
0.000140769 3.99883e-05 8.06419e-20
0.000131608 -7.6325e-05 9.70128e-21
0.000356976 0.000197373 4.00178e-20
0.00043767 -0.00021151 -1.77048e-19
2.89809e-05 -9.62202e-05 -2.51021e-19
-0.000236312 0.000167554 1.33393e-20
-0.000238215 -0.000171789 -1.06714e-19
-0.000100665 -4.31746e-05 -3.69861e-20
-1.52453e-05 4.19943e-05 7.27596e-21
0.000229299 0.00029603 1.25207e-19
-0.000260843 -0.000209638 -2.5193e-19
0.000221116 -0.000311989 -2.56478e-19
0.000232195 0.00033715 8.24609e-20
0.000345822 -0.000189404 -1.53401e-19
2.27796e-05 -3.6123e-05 -2.02514e-19
-2.84917e-05 -0.000348402 -2.54052e-19
0.000367079 3.71976e-05 6.63931e-20
-0.000188855 -0.000258253 -9.70128e-21
0.000182786 0.00022775 -8.12482e-20
-0.000117173 -9.34568e-05 -1.47338e-19
-4.97057e-05 3.03282e-06 1.57646e-20
0.00012677 -0.000186491 -1.78867e-19
0.00013764 0.000213195 -7.88229e-21
-0.000115134 3.58168e-05 1.45519e-20
6.32302e-05 -0.000122951 -2.5284e-19
0.000147737 0.000159842 0
0.000182676 -0.000140514 -4.85064e-20
-0.000142149 -7.52362e-05 -1.0732e-19
-9.30317e-05 7.13526e-05 -3.63798e-21
-0.000113114 -5.192e-05 -1.47944e-19
-0.000218023 -0.000118915 -2.53446e-19
-1.94839e-05 0.000104301 -7.63976e-20
-0.000458204 0.000458242 1.15203e-19
-1.90317e-05 0.000186002 -4.42621e-20
3.30017e-05 -0.00017723 -2.49202e-19
3.37447e-05 -0.000347315 -1.49157e-19
1.51409e-05 0.00028926 -1.09139e-19
4.40654e-05 9.52889e-05 -2.54659e-20
4.68652e-05 -8.03356e-05 -7.39722e-20
-0.000167333 -8.63288e-05 -1.20053e-19
-0.000162948 9.23582e-05 8.60988e-20
-0.000291205 5.56326e-05 -7.15469e-20
-0.000287377 -4.95764e-05 2.66785e-20
0.000288159 0.00020141 -3.39545e-20
0.000390641 -0.00021426 -7.15469e-20
0.000106724 7.19598e-05 -8.48862e-21
0.000102091 5.4832e-06 -1.70379e-19
0.000156068 9.33805e-05 6.0633e-20
5.8638e-06 0.000163028 -5.76013e-20
1.03357e-05 -0.000152601 -2.51627e-19
-0.000244814 0.000177346 -2.5284e-19
0.000155943 -6.55045e-05 -4.06241e-20
-1.77989e-05 -0.000163173 -3.06197e-19
0.000143019 0.000126788 3.57735e-20
-0.000107184 9.61244e-07 -2.12215e-20
-0.000102123 1.1497e-06 1.33393e-20
0.000135656 -9.47412e-05 -6.54836e-20
-0.000108769 0.000100739 6.85153e-20
0.00016999 0.000294408 -4.48684e-20
-0.000193243 -0.000334712 3.79562e-19
-3.63167e-05 -0.000116662 -2.32831e-19
-0.000142834 -8.44496e-05 -1.06714e-19
-1.54205e-05 -0.000189712 -1.00651e-19
0.000230625 -0.00040237 -2.70423e-19
0.000404434 -0.000186877 -1.51582e-19
2.26262e-05 0.000121922 4.12304e-20
2.59153e-05 -0.000104341 -3.03165e-21
-2.17621e-05 0.00019905 3.94114e-20
4.62357e-05 0.000182094 -2.42532e-20
0.000191717 0.000121239 1.32786e-19
0.000139222 0.000100163 1.21266e-21
0.000154712 -4.7635e-05 1.07927e-19
-0.00037599 7.75383e-09 -9.70128e-21
-0.000386035 2.4349e-08 -1.45519e-20
3.00695e-05 -8.98997e-05 -2.08577e-19
-0.000146509 -8.74726e-05 -1.35212e-19
0.000107674 0.000150955 4.36557e-20
0.000121535 -0.000131734 6.18456e-20
4.95313e-05 0.000115603 -7.45786e-20
2.50327e-05 3.52237e-05 -1.57646e-20
0.000440531 -0.000440574 -1.36727e-19
-0.000126908 4.06886e-05 -5.8814e-20
-0.000121781 -3.87504e-05 1.33393e-20
-2.12853e-05 9.29746e-05 -4.9719e-20
0.000191845 -9.2429e-05 -8.12482e-20
-0.000139425 7.67508e-05 1.09139e-19
-0.000185663 -2.44396e-05 -8.30672e-20
-0.000179918 2.84011e-05 6.18456e-20
-0.000108659 5.57443e-05 6.30583e-20
4.45809e-05 0.000230978 -2.42532e-20
5.27916e-05 -0.000237948 -6.79089e-20
9.14369e-05 0.000374197 -6.30583e-20
-7.55587e-05 -0.000454246 2.32831e-19
-4.17581e-05 0.00083051 2.71333e-19
-0.000799113 4.67748e-05 -1.83112e-19
0.000118023 8.16659e-05 -2.06152e-20
0.000115694 -1.47384e-05 -6.85153e-20
-1.29167e-05 -3.11124e-05 -1.92207e-19
0.000432239 -0.00052936 -2.35256e-19
0.000550851 -0.000423436 -4.88095e-20
0.000183324 -0.000442576 -8.48862e-21
0.000157075 0.000379049 -2.11003e-19
-0.000129539 8.51833e-05 1.09139e-19
0.000117928 -0.000125054 -1.42488e-19
0.000122305 0.000108967 -3.27418e-20
0.000124308 -6.34442e-05 6.66963e-21
8.84462e-05 -8.59265e-05 -1.57646e-19
0.000124581 0.000158559 3.03165e-20
-4.84404e-06 -0.00037318 -2.53446e-19
1.70797e-05 0.00036491 -2.42532e-20
0.000390526 1.54231e-05 5.45697e-20
0.000102463 0.000126508 -2.06152e-20
4.39408e-05 0.000396939 9.85286e-20
-0.000376305 -4.6073e-05 -3.22567e-19
0.000144612 8.68002e-05 -2.78912e-20
0.000163963 -2.49802e-05 -8.60988e-20
0.000140368 0.000101517 -2.06152e-20
0.000156646 -4.99481e-05 1.45519e-20
-0.000450295 0.000562845 1.41578e-19
-0.000547723 0.000451113 1.54614e-20
0.000131244 0.000115379 -1.03076e-20
0.000132365 -6.91598e-05 -3.81988e-20
6.89361e-05 0.000234379 -6.66963e-20
-4.53651e-05 -0.000266611 -7.27596e-21
0.000116329 4.1963e-05 1.33393e-20
0.000118587 5.26614e-05 -1.437e-19
0.000146083 0.000174934 3.15291e-20
0.000179662 -0.000167925 -1.33393e-20
-0.000110239 -2.67474e-05 -1.20053e-19
-0.000101715 2.95589e-05 7.09406e-20
-0.000372544 8.8372e-06 4.85064e-21
0.000176078 0.000292828 -1.21266e-21
0.000136266 0.00029925 -1.12777e-19
0.000204949 0.000235665 -1.04289e-19
0.000167103 -0.000323093 -3.39545e-20
0.000248363 -0.000247893 1.09139e-20
-0.000180633 -0.000337985 2.0979e-19
-0.000383309 -6.76497e-06 -3.27418e-20
0.000178295 -7.38916e-05 5.21444e-20
0.000621413 -8.19162e-05 1.5037e-19
0.000790683 0.000104004 -7.15469e-20
0.000307576 0.000127364 -3.39545e-20
0.000274007 7.11651e-05 -4.48684e-20
0.000204766 2.5323e-05 -5.82077e-20
0.00026661 0.000105441 5.94203e-20
0.000393957 -3.60912e-06 -7.39722e-20
0.000369145 -0.000118436 1.21266e-21
0.000266913 8.05373e-05 -9.33748e-20
0.000213919 0.000137376 -4.85064e-20
0.00022233 0.000134755 -5.3357e-20
0.000282275 -0.000107977 -1.74623e-19
0.000284904 -0.000107158 -4.24431e-20
VECTORS seepage_velocity_TPM float
-1.81134e-05 -5.43309e-05 -2.18643e-21
-5.60738e-06 4.46203e-05 -1.859e-20
8.8856e-06 -4.46484e-05 3.82733e-21
-4.04993e-05 -7.70772e-06 -7.83514e-21
-5.08525e-05 -1.34074e-05 3.64322e-22
-6.71983e-06 5.75516e-05 -1.85908e-20
9.9992e-06 -5.75963e-05 5.46785e-21
-5.46354e-05 1.37234e-05 1.09312e-21
-1.71151e-05 2.75823e-05 -1.11171e-20
-2.87024e-05 -6.6684e-05 -5.28193e-21
-2.75128e-05 7.13354e-05 -1.27496e-21
7.46494e-05 3.04029e-05 -4.00705e-21
3.95698e-05 3.83183e-05 -7.10874e-21
-3.64707e-05 -3.8192e-05 9.29625e-21
-1.80108e-05 -3.77052e-05 -2.00429e-21
-5.56122e-06 -3.57566e-05 6.56063e-21
5.80001e-06 5.88399e-05 -1.67678e-20
-2.62149e-06 -5.88719e-05 -3.64524e-22
5.17481e-05 5.20548e-06 -1.16635e-20
-2.16043e-05 -8.04813e-05 -1.27506e-21
-2.18105e-05 8.23061e-05 -3.64225e-22
8.96921e-05 2.07082e-05 -1.09305e-21
-3.47159e-05 -3.59793e-05 -7.28971e-22
-5.60002e-05 1.31184e-05 6.19408e-21
-3.98885e-05 -3.62531e-05 -4.55539e-21
2.39955e-05 5.30471e-05 -2.42337e-20
-3.8427e-05 7.25549e-06 -4.3732e-21
-5.81377e-05 -0.000121219 -8.28669e-21
-3.33781e-05 -1.68988e-05 -1.38501e-20
0.000129164 6.11113e-05 -6.19214e-21
-1.84057e-07 5.50176e-05 -2.62488e-20
3.38807e-06 -5.50331e-05 -3.64519e-22
-0.000126321 -6.41836e-05 -1.71372e-20
-0.000126763 6.17601e-05 5.10474e-21
-8.22198e-05 2.68892e-05 7.65073e-21
-2.92489e-05 -2.36657e-05 -4.19124e-21
-5.1258e-05 -2.57888e-05 -1.89568e-20
-5.36741e-05 2.62512e-05 -2.91652e-21
-8.87043e-06 -1.79822e-05 -1.91361e-20
3.61239e-05 3.68803e-05 -2.51444e-20
-5.26811e-05 3.52138e-05 2.18629e-21
-1.55229e-05 2.57136e-07 -1.62194e-20
-3.40757e-05 3.72314e-05 -4.19049e-21
-1.83993e-05 5.40664e-05 -1.6399e-21
8.36276e-06 3.57545e-05 -2.09584e-20
-5.33485e-05 3.51521e-05 4.18997e-21
-0.000131883 -0.000131883 5.45955e-22
0.000136612 0.000136612 -9.09996e-22
1.21388e-05 2.79302e-05 2.36933e-21
0.000137152 0.000144974 1.91169e-21
-0.00014009 -0.000132321 3.09499e-21
6.34227e-05 -6.56079e-06 -4.73976e-21
6.33766e-05 6.52507e-06 2.18759e-21
4.45243e-05 7.88329e-06 -7.65516e-21
6.04283e-05 -2.76232e-05 2.91678e-21
6.03767e-05 2.76265e-05 -6.56266e-21
2.27263e-05 3.71057e-05 -2.64221e-20
-5.31561e-05 -9.96406e-05 -1.67715e-20
-5.33159e-05 0.000100036 1.2761e-20
4.83367e-05 -1.84718e-05 1.0754e-20
4.82607e-05 1.83641e-05 -1.18477e-20
-7.22542e-05 3.16167e-05 3.09608e-21
-5.76262e-05 9.09399e-05 -1.89594e-20
6.12853e-05 -9.16834e-05 2.0053e-20
3.52696e-05 -3.64219e-05 8.38147e-21
-6.38762e-05 0.000122444 -1.2748e-21
-0.000122426 6.48574e-05 5.64539e-21
7.13415e-06 3.54918e-05 -2.13219e-20
-4.02721e-06 -3.53966e-05 1.11163e-20
0.000107692 -4.46077e-05 2.18802e-20
0.000107724 4.46207e-05 -3.93844e-20
7.65938e-06 -1.12827e-05 9.84151e-21
4.91656e-05 1.69901e-05 -7.6548e-21
4.92714e-05 -1.70135e-05 1.31225e-20
-2.589e-05 -1.77947e-05 -1.11169e-20
-9.00234e-06 -2.74648e-05 1.22117e-20
-7.59984e-05 -1.6213e-05 9.83623e-21
-6.56034e-05 -9.60409e-06 8.92667e-21
-4.79193e-05 -4.04892e-05 -1.53098e-20
-5.60518e-05 9.70826e-05 1.53139e-20
-5.59165e-05 -9.68477e-05 -7.29198e-22
-5.76745e-05 -6.46846e-05 -3.27878e-21
-4.2287e-05 2.49854e-05 -6.92381e-21
5.09653e-05 1.85189e-05 -1.36685e-20
-8.74313e-06 0.000102834 -3.60966e-20
1.11794e-05 -0.000103873 3.02628e-20
-4.95825e-05 4.45806e-05 8.93084e-21
5.12952e-06 4.73791e-05 -6.19661e-21
-1.74584e-06 -4.73731e-05 -1.64027e-21
4.33393e-05 -7.24022e-06 -3.64572e-21
4.2882e-05 6.77195e-06 -6.56199e-21
7.62806e-05 -5.24101e-05 1.03835e-20
6.14762e-05 1.00811e-05 -4.9201e-21
4.58169e-05 -2.28757e-05 1.82293e-21
4.55784e-05 2.29177e-05 -1.823e-21
5.15789e-05 -1.88923e-05 1.5491e-20
2.26292e-05 -5.26981e-05 3.46196e-21
4.12679e-05 -1.81022e-05 -3.64565e-21
4.06415e-05 1.77128e-05 -8.3848e-21
-4.43629e-05 2.02737e-05 -9.65806e-21
2.52187e-05 1.55566e-05 -1.67677e-20
-5.31384e-05 -3.70994e-05 -3.64381e-21
-1.89692e-05 4.50423e-06 -1.07528e-20
-4.87677e-06 1.08088e-05 -9.65962e-21
6.35149e-05 8.99785e-06 -4.55492e-21
-4.34291e-05 2.61219e-05 -4.0091e-21
-4.57957e-05 -2.13476e-05 -1.23912e-20
-3.50987e-05 -4.39483e-05 -1.82172e-21
-4.05646e-05 -2.71918e-05 -2.36863e-21
9.10383e-07 -4.87472e-05 -9.84047e-21
2.45433e-06 4.87634e-05 -1.18451e-20
7.54076e-05 -2.97429e-05 1.4754e-20
-2.58353e-05 1.76495e-05 -1.60376e-20
3.80185e-05 -5.37246e-05 6.19447e-21
3.82012e-05 5.4223e-05 -2.13161e-20
-4.2212e-05 2.49925e-05 -2.91566e-21
-1.67196e-05 2.7194e-05 4.19192e-21
-1.71074e-05 -2.81956e-05 -2.15062e-20
-9.21193e-06 -5.05423e-05 -7.28753e-22
-3.95244e-05 3.79706e-05 -6.37749e-21
8.2341e-06 -7.07969e-05 -7.65019e-21
1.183e-05 7.25184e-05 -3.09649e-21
8.01681e-05 -3.82429e-06 1.82152e-21
7.81505e-05 5.20713e-05 -1.00191e-20
5.4058e-05 -3.14393e-05 1.56682e-20
7.09032e-05 -0.00012282 3.31817e-20
-7.07197e-05 0.000122492 -3.02646e-20
6.18703e-05 -1.10284e-05 1.36649e-20
1.08754e-05 2.74154e-05 -2.04108e-20
4.50986e-05 -8.55236e-06 7.47273e-21
-8.67409e-06 5.12341e-05 -2.55057e-21
-1.31401e-05 2.87215e-05 -3.82754e-21
1.56522e-05 -2.86103e-05 1.13e-20
2.57438e-05 -1.60232e-05 1.42161e-20
1.92784e-05 -5.77868e-06 -1.74972e-20
-7.84031e-06 -2.75471e-05 7.289e-22
3.35008e-05 3.14477e-07 3.28144e-21
5.30442e-05 3.39358e-05 -1.43928e-20
-1.80177e-05 -5.77454e-06 -1.78607e-20
5.31155e-05 3.46465e-05 -2.40505e-20
-5.58848e-05 6.94829e-05 4.00746e-21
-2.90805e-05 2.25633e-05 -9.84032e-21
2.20109e-05 -7.86526e-05 4.00797e-21
2.31815e-05 7.86256e-05 -6.74044e-21
8.74954e-05 -2.00693e-05 1.5121e-20
5.42235e-05 -3.59507e-05 1.25718e-20
2.05262e-06 5.68216e-05 5.46535e-22
1.30846e-06 -5.67407e-05 -1.29376e-20
4.29962e-05 -7.20166e-05 3.09647e-21
4.2322e-05 6.90118e-05 -1.02002e-20
2.73824e-05 -9.77617e-06 -2.18741e-21
2.74889e-05 9.42937e-06 -1.16667e-20
3.02704e-05 1.89317e-05 -1.65842e-20
1.82814e-05 2.57363e-05 -1.64029e-21
-4.06727e-05 -2.4525e-05 -1.12987e-20
-8.11579e-05 -6.4005e-05 1.91223e-21
1.27656e-05 5.25154e-05 -1.76727e-20
5.4117e-05 1.82203e-05 -3.2812e-21
5.42218e-05 -1.82998e-05 7.65604e-21
4.9078e-05 -1.92388e-05 1.84084e-20
4.89857e-05 1.91168e-05 -7.29049e-21
-2.47484e-05 -0.000239126 -4.55155e-22
0.000245554 3.77881e-05 1.91184e-21
1.27682e-05 -5.12877e-05 7.83419e-21
7.44701e-05 -4.93931e-05 2.18788e-20
7.44313e-05 4.9509e-05 9.48075e-21
5.01086e-05 2.61945e-05 -2.24146e-20
-0.000101343 -6.45137e-06 5.46377e-21
6.15635e-05 -1.12136e-05 6.19553e-21
-2.1357e-06 4.37256e-05 2.36902e-21
5.33299e-06 -4.39275e-05 5.64947e-21
-3.61746e-05 5.44762e-05 -3.097e-21
1.82602e-05 5.95053e-06 5.10338e-21
5.03174e-05 -2.63273e-05 2.76994e-20
-7.49969e-06 -1.30496e-05 1.82278e-22
-3.68644e-05 3.02757e-05 -1.20305e-20
4.02529e-05 -3.0223e-05 1.53111e-20
3.01059e-05 -1.86075e-05 1.12992e-20
-2.97374e-05 -2.0265e-05 -9.1123e-22
-5.2269e-05 -3.36566e-05 2.00388e-21
8.61725e-06 1.20337e-05 -1.67677e-20
-1.71537e-05 3.68558e-05 -3.46218e-21
-9.00203e-06 -5.11432e-05 -1.05678e-20
4.29161e-05 1.99945e-05 -1.93178e-20
1.31471e-05 5.15936e-05 -1.54878e-20
-1.60727e-05 -2.49878e-05 8.74867e-21
-6.42899e-05 0.000117586 5.73519e-21
-0.000115398 6.55334e-05 8.46621e-21
4.30448e-05 -2.01077e-05 2.60609e-20
5.20747e-05 -6.04994e-06 1.03878e-20
0.000109083 4.7887e-05 -2.18807e-20
0.000109033 -4.78295e-05 1.45871e-20
1.09282e-05 -2.79711e-05 1.03876e-20
-7.16308e-05 -5.18282e-05 -1.60414e-20
-7.32741e-05 5.05504e-05 -5.10406e-21
-3.0498e-05 -1.35328e-05 -1.43961e-20
-6.41085e-06 1.1264e-05 -1.62201e-20
6.9422e-05 8.49697e-05 -2.64034e-21
-7.75633e-05 -6.38253e-05 2.73137e-21
6.90845e-05 -9.47638e-05 1.82158e-22
7.0204e-05 9.59092e-05 -1.63924e-21
0.000107024 -5.89735e-05 7.28505e-21
8.48528e-06 -1.00117e-05 5.28552e-21
-7.0845e-06 -0.000105689 -9.46887e-21
0.00011336 8.23217e-06 3.09556e-21
5.84e-05 7.68536e-05 -9.84367e-21
-5.51311e-05 -7.63772e-05 1.09371e-21
-3.52487e-05 -2.84217e-05 -1.80428e-20
-1.52344e-05 6.06378e-07 -1.67666e-20
4.08592e-05 -5.61176e-05 5.28277e-21
4.11086e-05 5.70168e-05 -1.29337e-20
-3.48394e-05 1.01645e-05 -1.29383e-20
2.14994e-05 -3.62192e-05 7.83559e-21
5.70709e-05 -2.88899e-05 1.38559e-20
5.69532e-05 2.8913e-05 1.67728e-20
-4.25753e-05 -2.28264e-05 -1.45797e-20
-2.96429e-05 1.99334e-05 -9.65847e-21
-3.40434e-05 -1.61129e-05 -1.69479e-20
-6.48062e-05 -3.64371e-05 -7.65019e-21
-8.0071e-06 2.96261e-05 -1.03871e-20
-0.000135203 0.000135203 4.18564e-21
-8.22345e-06 5.24261e-05 8.56355e-21
1.20163e-05 -5.29649e-05 -4.9196e-21
1.16183e-05 -0.000103295 3.64585e-21
-8.41161e-06 0.000103254 -2.8802e-20
3.23568e-05 -1.62729e-05 8.02149e-21
3.23272e-05 1.57344e-05 2.91694e-21
-5.08026e-05 2.70655e-05 -1.27582e-21
-5.02347e-05 -2.62005e-05 -1.18465e-20
-8.89799e-05 -1.62393e-05 -1.23956e-20
-8.75688e-05 1.65799e-05 -1.23957e-20
0.000103238 4.82263e-05 -1.49511e-20
0.000103234 -4.81661e-05 2.0421e-20
3.2751e-05 3.02979e-06 -2.55179e-21
3.28027e-05 -2.83127e-06 -1.9321e-20
5.20442e-05 1.83516e-05 -1.96803e-20
-1.73956e-06 4.64486e-05 1.27555e-21
5.07534e-06 -4.54284e-05 7.28964e-22
-7.35755e-05 5.09773e-05 2.55002e-21
5.18782e-05 -1.88421e-05 1.67648e-20
-4.28235e-06 -4.89076e-05 -3.09786e-21
4.4469e-05 2.69709e-05 -2.44171e-20
-3.26529e-05 -1.01927e-06 -1.9684e-20
-3.22777e-05 2.6006e-07 7.91024e-26
4.43552e-05 -2.73658e-05 2.16839e-20
-3.35784e-05 2.95982e-05 5.46786e-22
5.80782e-05 0.000100603 -1.13033e-20
-5.71263e-05 -9.89459e-05 9.84488e-21
-8.83437e-06 -3.42635e-05 5.83214e-21
-4.27902e-05 -2.57699e-05 -1.56717e-20
-4.79242e-06 -5.72909e-05 -2.60656e-20
7.20379e-05 -0.000122949 -1.18352e-21
0.000124226 -5.82161e-05 3.64169e-21
2.72711e-05 -2.25868e-05 4.37538e-21
2.69048e-05 2.21122e-05 -5.10443e-21
-7.16242e-06 6.00153e-05 6.56207e-21
7.24722e-06 4.72017e-05 -2.38721e-20
6.41493e-05 2.73837e-05 -1.82212e-20
4.92485e-05 -1.11577e-05 2.07792e-20
4.9194e-05 1.09406e-05 -1.20301e-20
-0.000116099 -9.78074e-10 -3.64618e-22
-0.000116132 7.75376e-10 -3.06281e-20
1.12391e-05 -2.6169e-05 8.93012e-21
-4.39368e-05 -2.67136e-05 -5.46671e-21
4.54684e-05 2.74408e-05 -6.92728e-21
4.5716e-05 -2.74524e-05 6.56272e-21
1.253e-05 3.35328e-05 -4.55622e-21
5.65613e-06 9.23599e-06 -4.73846e-21
0.000134689 -0.000134689 7.27974e-22
-3.815e-05 1.20838e-05 1.27594e-21
-3.85268e-05 -1.29384e-05 -2.38776e-20
-8.45296e-06 2.68255e-05 -6.19612e-21
6.29604e-05 -2.78292e-05 1.98612e-20
-4.32034e-05 2.2024e-05 1.27582e-21
-5.57858e-05 -7.46689e-06 -1.62214e-20
-5.60481e-05 7.30097e-06 -1.43988e-20
-3.35419e-05 1.613e-05 -9.65864e-21
3.20453e-05 4.766e-05 8.02192e-21
3.22912e-05 -4.75363e-05 1.60438e-20
2.39784e-05 0.000135241 -4.37565e-20
-2.13954e-05 -0.000135244 1.0939e-21
-1.21508e-05 0.000243872 -2.45793e-21
-0.000238236 1.24733e-05 5.64413e-21
3.69686e-05 -2.62667e-06 1.53105e-20
3.71675e-05 2.21096e-06 -1.93204e-20
-1.61262e-06 -8.59454e-06 4.73868e-21
0.000132281 -0.000160885 -3.45896e-21
0.000168253 -0.000129522 1.54738e-21
4.42042e-05 -0.000106723 2.91742e-21
4.42351e-05 0.000106798 -1.75044e-20
-4.06025e-05 2.42383e-05 -1.09342e-20
3.87569e-05 -3.69422e-05 1.6218e-20
3.93839e-05 -1.62884e-05 1.78614e-20
3.93374e-05 1.60627e-05 -9.84201e-21
2.92243e-05 -2.42917e-05 2.31442e-20
3.84771e-05 3.72971e-05 -2.71513e-20
2.61584e-07 -0.000113407 -6.01015e-21
4.42384e-06 0.000104393 -5.09953e-21
0.000121083 1.0016e-06 8.37787e-21
2.93309e-05 2.40397e-05 -1.64014e-20
1.33346e-05 0.000115001 -1.27469e-21
-0.000112397 -1.51618e-05 8.46699e-21
4.92972e-05 -5.24027e-06 3.64547e-21
4.9511e-05 4.59572e-06 -9.84299e-21
4.80025e-05 -9.66466e-06 -1.82292e-21
4.80668e-05 9.60672e-06 -8.0205e-21
-0.000133019 0.00016464 2.18443e-21
-0.000163273 0.000133006 5.46108e-21
4.30607e-05 1.87352e-05 -1.49445e-20
4.31669e-05 -1.89704e-05 2.38749e-20
1.49929e-05 7.93827e-05 -2.77091e-20
-1.23256e-05 -7.88721e-05 4.37516e-21
3.7136e-05 1.55674e-05 6.19765e-21
3.68552e-05 -1.54742e-05 -1.89576e-20
5.64881e-05 -3.41775e-05 1.53136e-20
5.6364e-05 3.42341e-05 5.10465e-21
-3.29805e-05 -8.16389e-06 -1.42156e-20
-3.23081e-05 7.65268e-06 -1.78607e-20
-5.26911e-05 -0.000100094 1.49492e-20
5.19304e-05 -6.21667e-05 7.6579e-21
6.22931e-05 -5.2577e-05 6.56386e-21
5.18188e-05 6.23906e-05 1.02105e-20
6.23157e-05 5.26769e-05 1.09399e-21
5.58982e-05 0.000101164 -1.16675e-20
-0.000115371 1.85495e-06 -3.64604e-21
-0.000115255 -2.1702e-06 -2.84393e-20
8.37542e-05 3.46937e-05 -5.46976e-21
0.000201547 2.65327e-05 2.37068e-20
0.000201606 -2.65404e-05 -3.82956e-20
8.37335e-05 -3.46851e-05 -6.56369e-21
0.000105139 2.27415e-06 6.9283e-21
7.4455e-05 2.25858e-05 7.65693e-21
9.86558e-05 -2.7764e-05 1.34924e-20
0.000105134 -2.24222e-06 -7.65743e-21
9.86519e-05 2.77894e-05 -1.85977e-20
7.44608e-05 -2.25465e-05 -9.47981e-21
7.80992e-05 -2.20841e-05 5.83387e-21
7.76274e-05 -2.22349e-05 1.56797e-20
7.81032e-05 2.21013e-05 -1.09374e-21
7.75989e-05 2.22623e-05 -1.82328e-21
-7.19973e-06 4.54976e-05 1.82247e-20
-7.65824e-06 -4.5725e-05 -5.63132e-20
-4.09846e-05 7.48957e-06 8.38162e-21
-5.23591e-05 1.36212e-05 -1.82177e-21
-8.37296e-06 5.91385e-05 4.73872e-21
-8.82348e-06 -5.92714e-05 -5.50426e-20
-5.23969e-05 -1.34643e-05 -1.51222e-20
-1.7586e-05 -2.75918e-05 -1.74952e-20
-2.93977e-05 -6.62363e-05 -1.07462e-20
3.01685e-05 6.8243e-05 -4.00708e-21
6.92632e-05 3.15035e-05 -9.10607e-22
3.83818e-05 -3.98594e-05 -2.04151e-20
3.9309e-05 3.92961e-05 3.39027e-20
-4.21086e-05 2.51697e-05 4.91994e-21
4.40413e-06 -6.0506e-05 -2.2418e-20
4.80107e-06 6.02882e-05 3.48107e-20
4.27808e-05 6.69577e-06 7.28923e-22
-2.20777e-05 -8.03493e-05 -2.95103e-20
2.17506e-05 8.11436e-05 -1.54839e-20
8.40162e-05 2.24498e-05 1.07474e-20
2.01802e-05 5.4422e-05 1.07497e-20
2.08574e-05 -5.36152e-05 -7.14207e-20
-3.85488e-05 -7.8868e-06 -1.8221e-20
-5.7495e-05 -0.000119495 3.05959e-20
-3.40677e-05 1.71513e-05 9.29373e-21
-1.29553e-06 5.6394e-05 1.96861e-20
-1.79457e-06 -5.65461e-05 -4.01021e-20
-0.000127368 -6.15969e-05 -4.01123e-20
-0.000126808 6.38677e-05 -4.26628e-20
-2.75253e-05 3.71993e-05 1.82222e-21
-3.32526e-05 3.93746e-05 -3.2794e-21
-7.67589e-05 2.47773e-05 -2.29513e-20
-5.43061e-05 -2.61635e-05 -3.60918e-20
-5.19624e-05 2.54694e-05 7.28841e-22
-8.89665e-06 1.82636e-05 9.29401e-21
3.22642e-05 -3.84075e-05 -7.10539e-20
-1.60092e-05 -5.48929e-07 -2.00448e-21
-5.52388e-05 3.6079e-05 -1.27515e-21
-3.63168e-05 -3.67511e-05 7.65213e-21
-6.37902e-05 -9.99721e-06 -2.38655e-20
-5.81875e-05 1.1708e-05 -5.64726e-21
-2.00108e-05 -5.43856e-05 -1.76729e-20
5.85481e-06 -3.70951e-05 -1.00775e-19
6.32576e-06 3.68465e-05 7.65399e-21
-1.80696e-05 5.47121e-05 -6.01245e-21
3.34022e-05 3.8857e-05 -9.10858e-22
-0.000129138 -0.000129129 3.86895e-20
-0.00012716 0.000127163 2.14839e-20
1.14333e-05 -2.96524e-05 -1.95009e-20
1.14687e-05 2.87452e-05 2.47866e-20
1.95226e-05 3.84505e-05 1.76745e-20
-0.000127532 0.000138779 2.45775e-21
-0.000134526 -0.00012939 5.33473e-20
6.64013e-05 -1.21387e-05 -8.78567e-20
6.58407e-05 1.31562e-05 1.60406e-20
3.1209e-05 1.09843e-05 -4.55566e-21
6.22069e-05 -4.16445e-05 -5.43182e-20
6.17429e-05 4.19818e-05 1.16655e-20
1.96419e-05 -3.83647e-05 -8.39984e-20
-5.3906e-05 -9.95739e-05 -2.77111e-20
-5.38678e-05 9.88042e-05 1.75013e-20
4.565e-05 -2.62567e-05 -8.56566e-20
4.56707e-05 2.66894e-05 1.71316e-20
-6.0239e-05 -9.34428e-05 -3.86496e-20
-6.00415e-05 9.3453e-05 -9.11483e-21
6.26024e-05 0.000118167 -2.22178e-20
0.00011865 6.26566e-05 7.37541e-21
5.19888e-06 3.66086e-05 1.58541e-20
4.72431e-06 -3.68537e-05 -7.58065e-20
0.000130229 -5.39367e-05 -1.56818e-20
0.000128765 5.33366e-05 -7.29298e-21
-5.28014e-05 -3.67837e-05 -7.28746e-21
4.32568e-05 2.37727e-05 1.56719e-20
4.32708e-05 -2.33012e-05 -4.57397e-20
-4.85466e-05 4.05077e-05 -7.28946e-22
-7.40338e-05 -1.67242e-05 -3.55198e-20
-5.58789e-05 9.67887e-05 1.53161e-20
-5.61268e-05 -9.72028e-05 -1.45877e-20
-4.16728e-05 -2.57397e-05 -8.38153e-21
4.18442e-05 2.25744e-05 1.12979e-20
-5.91749e-05 -6.43619e-05 -1.53015e-20
-1.02149e-05 -0.000105618 -6.70955e-20
-9.81048e-06 0.000105674 2.55226e-21
-5.02186e-05 -4.4476e-05 -6.27e-20
4.0887e-06 4.82887e-05 2.05938e-20
3.68639e-06 -4.82355e-05 -1.89533e-20
3.11199e-05 -1.09354e-05 -1.29389e-20
3.05823e-05 1.05604e-05 1.49437e-20
6.986e-05 -5.33043e-05 -2.84166e-20
5.25977e-05 1.16245e-05 -8.56344e-21
3.74726e-05 3.55012e-05 2.73384e-20
3.77933e-05 -3.52086e-05 -2.93431e-20
4.25315e-05 -2.27002e-05 -3.8631e-20
2.8377e-05 -2.53243e-05 -3.06175e-20
2.76072e-05 2.5098e-05 2.49682e-20
-4.51495e-05 -2.01619e-05 -2.97022e-20
-4.73679e-05 3.73051e-05 -3.46113e-21
2.39069e-05 1.83531e-05 1.33038e-20
2.31749e-05 -1.77976e-05 -1.25742e-19
-7.27797e-06 -1.23519e-05 -1.10617e-19
-6.84084e-06 1.20768e-05 3.64507e-22
5.64058e-05 9.61119e-06 7.8336e-21
-7.95209e-05 7.75012e-05 -1.41149e-20
-4.39847e-05 -2.6266e-05 -3.55358e-20
-4.5458e-05 2.15546e-05 3.09762e-21
-0.000108131 1.76978e-05 -3.33291e-20
-4.21348e-05 2.57185e-05 5.83061e-21
4.68337e-07 -4.99032e-05 -2.40541e-20
1.1754e-06 4.97967e-05 2.22315e-20
-3.71125e-05 -4.44741e-05 -1.16589e-20
6.89491e-05 -2.95982e-05 -1.27503e-21
-2.62481e-05 -1.80108e-05 -1.65837e-20
-2.63107e-05 1.94831e-05 -2.91592e-21
3.41886e-05 -5.43878e-05 -6.30331e-20
-3.6008e-05 5.81595e-05 -4.37219e-21
-4.32833e-05 -2.56178e-05 -2.95199e-20
-1.74699e-05 -2.74781e-05 -3.04357e-20
-1.7856e-05 2.93722e-05 -1.45797e-20
1.01939e-05 5.23529e-05 -5.64757e-21
-3.9364e-05 -3.73666e-05 1.82192e-21
6.0862e-06 -7.05141e-05 -2.8233e-20
-9.19469e-06 7.26399e-05 -2.85974e-20
7.35961e-05 -7.81933e-06 4.73583e-21
4.82517e-05 -3.28621e-05 -5.04615e-20
-7.24837e-05 0.000125556 -9.9281e-27
-7.23658e-05 -0.00012535 -3.82965e-20
-5.1869e-05 -3.12203e-05 -2.22252e-20
5.4475e-05 -1.17739e-05 -1.32992e-20
-8.22788e-05 -6.52434e-05 1.01077e-20
8.27253e-06 -2.90687e-05 -1.08967e-19
8.58952e-06 2.94518e-05 1.25738e-20
3.19979e-05 -1.15898e-05 -2.31431e-20
-1.04797e-05 -5.11423e-05 -4.08082e-20
-1.55473e-05 -3.02797e-05 -6.3787e-20
-1.51074e-05 2.99978e-05 9.65965e-21
4.89275e-05 6.88481e-05 -1.02007e-20
7.26133e-05 4.89928e-05 3.82537e-21
-0.000103733 -4.6487e-06 -1.52082e-20
1.78571e-05 -3.42885e-06 1.42155e-20
1.70413e-05 4.22967e-06 -1.38133e-19
1.48268e-05 9.10799e-07 -1.45795e-21
-1.85368e-05 5.10163e-06 5.46731e-22
-1.70884e-05 -4.94175e-06 -1.0206e-20
-3.00443e-05 -2.25056e-05 -7.10664e-21
2.00549e-05 -7.80239e-05 -4.4813e-20
-1.83597e-05 7.78663e-05 -1.2934e-20
7.96934e-05 -2.06718e-05 -4.37184e-21
4.84876e-05 -3.69754e-05 -6.10314e-20
8.26869e-07 5.68025e-05 -3.46185e-21
1.0892e-07 -5.71128e-05 -3.57129e-20
-3.71895e-05 7.44376e-05 -5.28214e-21
3.87189e-05 -7.00305e-05 -2.07642e-20
5.62354e-06 1.48689e-05 1.05705e-20
5.14387e-06 -1.50621e-05 -9.11245e-21
2.7474e-05 -2.06698e-05 -1.10245e-19
2.80583e-05 2.113e-05 7.10706e-21
1.87288e-05 -2.70461e-05 -1.12994e-20
1.7903e-05 2.6506e-05 1.22111e-20
-4.05183e-05 2.47851e-05 -1.05695e-20
1.01145e-05 -5.31068e-05 -5.70227e-20
5.14727e-05 2.65473e-05 1.23939e-20
5.18444e-05 -2.60759e-05 -6.12392e-20
4.47062e-05 -2.89118e-05 -7.05161e-20
4.32326e-05 -2.37598e-05 -7.83624e-20
4.32269e-05 2.41588e-05 8.92994e-21
-2.51093e-05 -0.000233139 7.05449e-20
3.45314e-05 5.38048e-05 -8.01588e-21
-0.000240218 2.81737e-05 1.9389e-20
-8.88864e-06 5.3462e-05 -2.45947e-20
8.29596e-05 -7.49538e-05 -5.61492e-20
8.20533e-05 7.48923e-05 1.13027e-20
4.50612e-05 2.93274e-05 4.73773e-21
5.26965e-05 -1.2816e-05 -1.16609e-20
4.91134e-05 3.42313e-05 -3.64341e-22
-3.34313e-06 -4.47015e-05 -3.02501e-20
-3.05143e-06 4.47016e-05 1.78586e-20
-3.88591e-05 3.15549e-05 2.91634e-21
-3.91546e-05 -3.18291e-05 -5.21308e-20
7.77159e-06 1.33997e-05 6.01412e-21
6.37556e-06 -1.35907e-05 -1.35214e-19
-1.82434e-05 -3.71793e-05 -3.68064e-20
1.04807e-05 5.15661e-05 2.18664e-21
3.9384e-05 -2.43145e-05 -7.76264e-20
3.96628e-05 2.46729e-05 1.82226e-21
4.93387e-05 3.74857e-05 -8.01626e-21
-1.72594e-05 3.75441e-05 5.83086e-21
1.04788e-05 -5.22273e-05 -5.66641e-20
6.30269e-05 0.0001142 -1.78455e-20
0.000115847 6.29131e-05 1.11079e-20
-7.19308e-05 5.38324e-05 3.64299e-21
4.31146e-05 -7.60336e-06 -1.82214e-20
0.000134967 -6.53627e-05 -5.46994e-20
0.000133696 6.52014e-05 2.18792e-21
-7.38405e-05 -5.03795e-05 -4.55754e-20
-7.23824e-05 5.157e-05 -2.44264e-20
-3.06197e-05 1.31219e-05 7.10663e-21
-7.16973e-06 1.16831e-05 7.2896e-22
-7.24343e-06 -1.14763e-05 1.29385e-20
-6.05298e-05 8.08465e-05 -2.38554e-20
-7.60161e-05 -6.49861e-05 4.89858e-20
6.51531e-05 -9.30798e-05 2.73172e-21
-5.91851e-05 9.67699e-05 -1.32951e-20
9.75394e-05 -5.68213e-05 -1.00166e-20
-6.64284e-05 -3.5923e-05 -2.25866e-20
-8.04056e-06 -0.000104273 8.19272e-22
-9.87506e-05 9.03272e-07 -1.66625e-20
5.73357e-05 -7.86506e-05 -3.90118e-20
5.85227e-05 7.86151e-05 4.41134e-20
-3.54667e-05 2.80507e-05 4.19163e-21
-1.55338e-05 -1.12363e-06 1.60361e-20
-3.52068e-05 5.75584e-05 -2.25873e-20
3.72351e-05 -5.73163e-05 -5.26432e-20
-3.53218e-05 -1.04531e-05 -3.64448e-21
5.65142e-05 -4.37891e-05 -4.41138e-20
5.59656e-05 4.41509e-05 4.01038e-21
-4.34391e-05 2.28208e-05 -4.37398e-21
-3.0521e-05 -2.0574e-05 -9.658e-21
-2.69965e-05 1.98055e-05 4.55581e-21
-3.4867e-05 1.62074e-05 3.64357e-22
-8.87512e-06 -3.01611e-05 -2.80622e-20
-7.93381e-06 3.23536e-05 1.07515e-20
0.00013373 0.000133727 1.36633e-22
-9.82802e-06 -5.28642e-05 -3.8626e-20
-8.93937e-06 5.33583e-05 -9.65629e-21
-1.01712e-05 -0.000105661 -6.16186e-20
-9.71851e-06 0.000105784 1.78642e-20
1.49848e-05 -2.792e-05 -7.47249e-21
1.51488e-05 2.72858e-05 1.91372e-20
-5.13421e-05 -2.70043e-05 -4.22844e-20
-5.04664e-05 2.60734e-05 -1.45804e-20
-8.95859e-05 1.65794e-05 1.02086e-20
-8.82439e-05 -1.65021e-05 -2.47918e-20
0.000118584 6.60803e-05 1.05741e-20
0.000120272 -6.62208e-05 -6.92841e-20
3.19667e-05 -3.5461e-07 1.22114e-20
3.09003e-05 1.20862e-06 -1.39052e-19
4.6696e-05 2.18278e-05 4.00855e-21
-3.0627e-06 -4.66256e-05 -3.89941e-20
4.01205e-05 -2.97323e-05 -6.54092e-20
-2.69183e-06 4.70955e-05 8.20001e-21
4.61002e-05 -2.21365e-05 -4.73728e-20
5.39588e-06 4.85299e-05 1.96798e-20
4.0509e-05 3.01851e-05 -4.19063e-21
-3.24296e-05 5.86482e-07 2.05944e-20
-3.34094e-05 -7.13438e-07 -6.74344e-21
-3.44682e-05 -2.9732e-05 -4.24645e-20
5.87844e-05 -0.000101834 -1.45888e-20
5.91269e-05 0.000102416 3.28156e-20
-4.32573e-05 2.53014e-05 1.49427e-20
-6.15417e-06 5.70242e-05 1.09363e-21
6.79549e-05 -0.000119718 -8.37664e-21
0.000117949 -5.60384e-05 -4.55236e-21
9.47307e-06 -3.47655e-05 -1.31231e-20
9.20398e-06 3.42816e-05 3.09854e-20
-8.0556e-06 -5.98196e-05 -6.3981e-20
4.83249e-06 -4.80233e-05 -7.63484e-20
5.70085e-05 2.99328e-05 6.01226e-21
4.70641e-05 -1.49929e-05 -9.38583e-20
4.70499e-05 1.57224e-05 1.43984e-20
-0.000116755 -2.43791e-09 2.2248e-20
-0.000116669 7.00677e-09 -2.55244e-20
-4.35456e-05 2.55258e-05 7.65313e-21
3.73245e-05 4.1629e-05 2.04142e-20
3.76587e-05 -4.1338e-05 -4.55671e-20
1.19069e-05 3.42573e-05 2.95238e-20
1.17511e-05 -3.42099e-05 -1.58548e-20
5.21448e-06 -9.38271e-06 2.36908e-21
5.82808e-06 1.01579e-05 7.83656e-21
0.000129653 -0.000129659 -1.56578e-20
-3.86692e-05 1.32493e-05 9.11341e-21
-3.88399e-05 -1.2008e-05 -9.66028e-21
-9.30207e-06 -2.74803e-05 -3.24372e-20
-8.79311e-06 2.79649e-05 1.78592e-20
5.5649e-05 -2.9894e-05 -3.73496e-20
-4.36802e-05 -2.19472e-05 -3.31687e-20
-5.64839e-05 -7.32498e-06 -3.463e-20
-5.617e-05 9.33424e-06 -3.2078e-20
-3.41902e-05 -1.60161e-05 -3.37135e-20
1.72915e-05 -7.36311e-05 -2.66135e-20
1.71137e-05 7.35923e-05 1.02078e-20
2.36146e-05 0.000138492 2.98999e-20
2.29895e-05 -0.000138163 -2.69852e-20
1.07957e-05 0.000231573 -7.07302e-20
0.000233421 1.6196e-05 -1.52016e-20
3.55172e-05 5.38248e-06 1.4398e-20
3.51254e-05 -4.44936e-06 -1.12443e-19
0.000126488 -0.000157575 3.55016e-21
0.00015392 -0.000125911 -1.52933e-20
5.65778e-05 -0.000136563 -6.16237e-20
5.61875e-05 0.000135622 -4.37581e-21
-4.11232e-05 -2.41618e-05 -3.02514e-20
3.78839e-05 2.04856e-05 1.2028e-20
3.75525e-05 -1.99389e-05 -1.16085e-19
3.52182e-05 3.9177e-05 -4.37302e-21
3.48302e-05 -3.88611e-05 -6.81455e-20
-1.49695e-06 -0.000111105 -2.0762e-20
-2.68928e-06 0.000102477 -3.05968e-20
0.000106338 -3.31123e-06 -5.8278e-21
2.69109e-05 2.70085e-05 7.28895e-21
2.63768e-05 -2.66372e-05 -9.51177e-20
-1.11203e-05 0.000113341 -3.13219e-20
0.000111981 -8.16784e-06 7.19311e-21
5.02677e-05 -7.37497e-06 -1.13179e-19
5.03839e-05 8.25538e-06 1.1847e-20
4.78167e-05 -1.58791e-05 -1.09904e-19
4.79309e-05 1.67613e-05 2.07782e-20
0.000131169 0.000161372 -1.71134e-20
0.000162091 0.000131299 2.62166e-20
3.99748e-05 2.19862e-05 8.74734e-21
3.97106e-05 -2.14877e-05 -1.04235e-19
1.38246e-05 -8.11865e-05 -4.08369e-20
1.43954e-05 8.11871e-05 2.36981e-20
3.56042e-05 1.58806e-05 -1.19563e-19
3.63449e-05 -1.40118e-05 1.45816e-20
5.55525e-05 -5.25104e-05 -3.60901e-20
5.50232e-05 5.26644e-05 8.02013e-21
-3.29486e-05 -7.66442e-06 -3.13461e-20
-3.51569e-05 8.58011e-06 -1.40331e-20
5.14325e-05 9.91599e-05 6.92736e-21
7.59287e-05 7.64969e-05 6.92774e-21
5.19301e-05 -9.94375e-05 -2.00528e-20
7.65993e-05 -7.66171e-05 -3.64612e-20
5.48472e-05 -0.000102827 -1.89609e-20
-0.000116104 -1.60155e-06 1.23977e-20
-0.000115795 2.15918e-06 -2.33348e-20
5.59907e-05 0.000103226 3.57313e-20
9.2178e-05 -3.81852e-05 1.05737e-20
0.000240968 -3.17187e-05 6.92909e-21
0.000243731 3.20837e-05 -4.52302e-20
9.45093e-05 3.91415e-05 -4.37577e-20
0.000119178 2.73998e-06 1.16674e-20
8.11433e-05 -2.24375e-05 2.11455e-20
0.000111919 3.63833e-05 5.46936e-21
0.000121213 -1.35636e-06 -7.03717e-20
0.000113623 -3.65635e-05 -4.37605e-20
8.19976e-05 2.46031e-05 -9.66113e-20
8.67512e-05 -3.36624e-05 -8.60424e-20
8.7798e-05 -3.33394e-05 -5.61492e-20
8.57677e-05 3.4233e-05 9.47901e-21
8.6817e-05 3.39118e-05 1.8595e-20
-1.92049e-05 -5.42143e-05 2.51433e-20
-7.74012e-06 4.55137e-05 3.64507e-21
7.49382e-06 -4.55991e-05 3.11633e-20
-4.10225e-05 -7.58301e-06 1.31187e-20
-5.12437e-05 -1.32101e-05 4.77342e-20
-8.90333e-06 5.90354e-05 7.65484e-21
8.66665e-06 -5.9237e-05 2.84322e-20
-5.5004e-05 1.37569e-05 4.88287e-20
-1.76423e-05 2.76612e-05 -8.56531e-21
-2.98441e-05 -6.64001e-05 -2.9143e-21
-2.88726e-05 7.03137e-05 2.36795e-21
6.90999e-05 -2.99307e-05 -2.44063e-20
3.82689e-05 3.976e-05 3.64588e-22
-3.87759e-05 -3.97264e-05 -5.28599e-21
-1.91064e-05 -3.82397e-05 4.50054e-20
-6.20206e-06 -3.66289e-05 7.63553e-20
4.32557e-06 6.03869e-05 -5.46776e-21
-4.62201e-06 -6.05923e-05 -8.38381e-21
4.29826e-05 6.30646e-06 -1.58526e-20
-2.29949e-05 -7.97115e-05 1.58481e-20
-2.31516e-05 8.13156e-05 1.45715e-21
8.18381e-05 -2.17337e-05 -2.84171e-20
-3.56797e-05 -3.60033e-05 2.65999e-20
-5.63112e-05 1.3178e-05 5.99362e-20
-4.05824e-05 -3.62632e-05 6.01295e-20
2.08326e-05 5.34579e-05 -2.82406e-20
-3.88663e-05 7.31739e-06 4.04504e-20
-5.96279e-05 -0.000121582 -1.25663e-20
-3.3889e-05 -1.70171e-05 -1.74945e-20
0.000121831 -5.98984e-05 -1.14735e-20
-1.98729e-06 5.63536e-05 -2.91646e-21
1.71761e-06 -5.65424e-05 1.34886e-20
-0.000127121 6.15029e-05 -8.49657e-20
-0.000126805 -6.38101e-05 1.20336e-20
-8.23031e-05 2.68297e-05 5.81077e-20
-2.99168e-05 -2.36442e-05 9.67594e-20
-5.41681e-05 2.61125e-05 -4.00998e-21
-5.19735e-05 -2.55847e-05 5.65067e-20
-8.87435e-06 -1.81229e-05 -3.64477e-20
3.20779e-05 3.84662e-05 -1.7855e-20
-5.30301e-05 3.5011e-05 6.01215e-20
-1.60553e-05 4.35693e-07 -2.93391e-20
-3.48717e-05 3.71183e-05 2.11338e-20
-1.94033e-05 5.37304e-05 6.55904e-21
6.07117e-06 3.68601e-05 -7.83617e-21
-5.37068e-05 3.49491e-05 2.96937e-20
-0.000128371 -0.000128371 -1.89352e-20
0.000129972 -0.000129979 3.64098e-22
1.1388e-05 2.9579e-05 8.38356e-21
0.000130444 -0.000138058 2.16667e-20
-0.00014004 -0.000128934 -2.11199e-20
6.61976e-05 -1.27859e-05 -9.11393e-21
6.60605e-05 1.28619e-05 7.29115e-21
3.0639e-05 1.07564e-05 -1.38496e-20
6.20451e-05 -4.1993e-05 -1.78626e-20
6.19034e-05 4.21023e-05 2.91636e-20
1.96189e-05 3.82289e-05 -2.20476e-20
-5.3793e-05 9.94194e-05 7.2924e-21
-5.38607e-05 -9.87379e-05 3.93793e-20
4.5707e-05 -2.65933e-05 -1.78604e-20
4.55879e-05 2.66032e-05 1.18462e-20
-7.22092e-05 3.16212e-05 3.36946e-20
6.00651e-05 -9.33516e-05 2.26053e-20
-6.077e-05 9.34246e-05 1.93237e-20
3.18715e-05 -3.78694e-05 -8.381e-21
-6.27033e-05 0.000117863 -2.00318e-21
-0.000121906 6.45485e-05 2.19444e-20
4.73646e-06 3.6575e-05 -1.02048e-20
-5.31675e-06 -3.64207e-05 4.39167e-20
0.000129674 -5.37183e-05 -4.01101e-21
0.000129688 5.37238e-05 1.56796e-20
6.93657e-06 -1.23062e-05 1.02416e-19
4.31497e-05 2.41653e-05 -5.83124e-21
4.3268e-05 -2.33814e-05 -2.6241e-20
-2.62092e-05 -1.79182e-05 1.30846e-19
-1.13159e-05 -2.90019e-05 3.09836e-21
-7.61532e-05 -1.57861e-05 6.12021e-20
5.33241e-05 1.18548e-05 -2.22283e-20
-6.60839e-05 -9.38421e-06 6.77695e-20
-4.86e-05 -4.04393e-05 3.75462e-20
-5.58587e-05 -9.67419e-05 1.42231e-20
-5.60271e-05 9.70336e-05 1.09402e-21
-5.86112e-05 -6.44138e-05 -3.31527e-20
-4.27809e-05 2.49247e-05 6.34067e-20
4.22256e-05 -2.25423e-05 -2.51468e-20
1.01049e-05 -0.000105509 2.29719e-20
-1.03686e-05 0.000105689 3.50025e-20
-5.00741e-05 4.4454e-05 -5.65025e-21
3.60611e-06 4.80874e-05 -7.28851e-22
-3.70063e-06 -4.84927e-05 1.3486e-20
3.09605e-05 -1.09531e-05 -2.15041e-20
2.98967e-05 1.0289e-05 -1.27566e-20
6.97586e-05 5.35393e-05 -5.24614e-20
3.7651e-05 -3.54288e-05 -1.91366e-20
3.72703e-05 3.57637e-05 1.49448e-20
4.16585e-05 2.28256e-05 -2.22311e-20
1.97637e-05 -5.34601e-05 -5.46598e-22
2.81552e-05 -2.54883e-05 -2.25988e-20
2.72006e-05 2.50904e-05 9.65926e-21
-4.47828e-05 2.02919e-05 4.22756e-20
2.36375e-05 1.80051e-05 -1.27569e-20
-5.38404e-05 -3.69342e-05 1.38467e-20
-1.92225e-05 4.59289e-06 1.20641e-19
-7.17581e-06 1.19015e-05 9.4769e-21
5.61859e-05 -9.85256e-06 -3.33389e-20
-4.38961e-05 2.60743e-05 1.38496e-20
-4.63416e-05 -2.12813e-05 1.87682e-20
-3.60494e-05 -4.36897e-05 -2.36808e-21
-4.12723e-05 -2.70307e-05 6.12195e-20
-9.27105e-07 -4.99285e-05 1.60356e-20
4.49101e-07 4.97232e-05 -1.22091e-20
6.8784e-05 2.97407e-05 -4.6446e-20
-2.62238e-05 1.77975e-05 5.83166e-21
3.45259e-05 -5.46341e-05 -1.49386e-20
3.40211e-05 5.46054e-05 -2.05861e-20
-4.26661e-05 2.49335e-05 5.86747e-20
-1.74401e-05 2.7463e-05 -1.09345e-21
-1.78791e-05 -2.92874e-05 -4.73846e-21
-1.09948e-05 -5.07194e-05 9.47337e-21
-4.00369e-05 3.78195e-05 3.00649e-20
5.15522e-06 -7.05758e-05 2.85972e-20
9.40404e-06 7.18448e-05 -7.83236e-21
7.28544e-05 4.11017e-06 -2.51362e-20
7.2538e-05 -5.2536e-05 -3.24238e-20
4.81505e-05 3.31655e-05 -3.89848e-20
-7.23655e-05 0.000125362 1.96916e-20
7.2314e-05 -0.000125253 5.10556e-21
5.42936e-05 1.12989e-05 -3.77114e-20
8.41769e-06 2.90711e-05 -1.96805e-20
3.19788e-05 -1.16979e-05 -1.49429e-20
-1.03784e-05 5.11016e-05 -5.10108e-21
1.52043e-05 -3.0231e-05 7.83657e-20
-1.541e-05 2.9752e-05 2.47869e-20
2.40829e-05 -1.82101e-05 -1.82241e-20
1.75423e-05 -3.88517e-06 -3.09815e-21
-8.65316e-06 -2.77983e-05 7.63503e-20
1.46802e-05 6.06355e-07 -1.54909e-20
4.80763e-05 -3.48126e-05 -2.87829e-20
-1.8575e-05 -5.12139e-06 5.46744e-22
4.8264e-05 -3.6757e-05 -1.54858e-20
-5.61869e-05 6.85293e-05 9.65419e-21
-2.97053e-05 2.25771e-05 2.16843e-20
1.90833e-05 -7.85149e-05 1.62129e-20
1.98621e-05 7.74693e-05 -2.42283e-20
8.07846e-05 2.02626e-05 -4.06225e-20
4.84011e-05 3.71038e-05 -1.02024e-20
9.01083e-08 5.69251e-05 -1.85854e-20
-5.65873e-07 -5.71782e-05 2.64205e-20
3.83558e-05 -6.87442e-05 -1.11107e-20
3.82516e-05 7.04684e-05 -2.53177e-20
5.01006e-06 -1.53156e-05 -2.11409e-20
5.38123e-06 1.51296e-05 -4.73847e-21
2.76255e-05 2.06692e-05 -1.4943e-20
1.86829e-05 2.69725e-05 7.83646e-21
-4.12154e-05 -2.44948e-05 1.01505e-19
-8.16466e-05 -6.27916e-05 1.49345e-20
1.00802e-05 5.29494e-05 -2.4777e-20
5.15169e-05 2.64734e-05 2.47877e-20
5.1676e-05 -2.64172e-05 -1.96843e-20
4.46602e-05 2.91669e-05 -8.01746e-21
4.32151e-05 -2.40231e-05 -1.69486e-20
4.31602e-05 2.40776e-05 -4.19156e-21
-2.08933e-05 -0.000235837 -2.1847e-20
0.000234143 -3.55411e-05 2.24832e-20
1.01575e-05 -5.20868e-05 1.74897e-20
8.26001e-05 -7.51831e-05 -1.34901e-20
8.24951e-05 7.54269e-05 -8.02124e-21
-0.000101565 -5.99923e-06 4.34371e-20
-3.40412e-06 4.45627e-05 -5.28455e-21
2.98992e-06 -4.52363e-05 1.14805e-20
-3.69085e-05 5.38506e-05 1.32987e-20
1.62055e-05 4.91797e-06 -1.36686e-20
-7.11046e-06 -1.39435e-05 1.25921e-19
-3.95207e-05 3.1332e-05 2.29664e-20
3.89999e-05 -3.17928e-05 5.28584e-20
2.74937e-05 -2.02307e-05 -2.05922e-20
-3.03566e-05 -2.05814e-05 1.10794e-19
4.47351e-05 -2.90211e-05 -1.36661e-20
-5.28928e-05 -3.31773e-05 3.58879e-20
5.09892e-05 -1.27016e-05 -1.71268e-20
7.30745e-06 1.3216e-05 5.10292e-21
-1.82053e-05 3.71763e-05 -5.46628e-21
-1.0649e-05 -5.17051e-05 1.82197e-20
3.93969e-05 2.46208e-05 -8.56454e-21
1.04559e-05 5.2041e-05 -2.14996e-20
-1.85373e-05 -2.6472e-05 -8.20155e-21
-6.26735e-05 0.000118211 -9.74197e-21
-0.000114667 6.52562e-05 -2.07586e-20
4.30284e-05 -8.02964e-06 -2.53278e-20
3.95035e-05 -2.45562e-05 -1.25734e-20
0.000134561 -6.54751e-05 2.18792e-21
0.000134623 6.55972e-05 -1.71386e-20
8.45531e-06 -2.95268e-05 -7.107e-21
-7.36815e-05 5.03032e-05 -3.53667e-20
-7.2236e-05 -5.14818e-05 6.08883e-20
-3.08732e-05 -1.34933e-05 -2.952e-20
-7.26729e-06 1.1477e-05 7.10697e-21
6.64114e-05 -8.20781e-05 -2.8227e-21
-7.95684e-05 -6.26876e-05 -2.00316e-20
6.76833e-05 -9.7036e-05 5.2814e-21
6.24485e-05 9.15661e-05 -2.05795e-20
0.000100389 5.84674e-05 -3.76983e-20
6.18466e-06 -1.14471e-05 -1.65843e-20
-3.06263e-06 -0.000104383 3.18698e-21
0.000106502 -6.98441e-06 -1.22919e-20
5.72307e-05 7.85661e-05 -2.04166e-20
-5.77038e-05 -7.84604e-05 1.9323e-20
-3.58749e-05 -2.83203e-05 3.75427e-20
-1.54699e-05 1.14335e-06 -5.37581e-20
3.66976e-05 5.7177e-05 -1.82158e-20
3.7189e-05 -5.68698e-05 -6.92205e-21
-3.52271e-05 1.0268e-05 -8.92911e-21
1.86695e-05 -3.74969e-05 3.82645e-21
5.62802e-05 -4.41664e-05 -2.07808e-20
5.60718e-05 4.42884e-05 2.84369e-20
-4.31981e-05 -2.27235e-05 7.39903e-20
-3.02152e-05 2.01918e-05 -1.2027e-20
-3.46772e-05 -1.6086e-05 -8.92927e-21
-6.5777e-05 -3.60355e-05 -3.09655e-21
-8.8353e-06 2.97692e-05 -1.16621e-20
-0.000134414 0.000134415 -2.27121e-20
-9.77021e-06 5.27084e-05 -1.67622e-20
9.45972e-06 -5.36435e-05 2.16817e-20
1.00726e-05 -0.000105536 2.00522e-20
-1.03946e-05 0.000105648 3.64593e-21
1.48293e-05 -2.81958e-05 -2.6245e-20
1.47148e-05 2.71942e-05 -3.82736e-21
-5.11763e-05 2.69612e-05 -5.2856e-21
-5.07825e-05 -2.60648e-05 9.07643e-20
-8.94012e-05 -1.65422e-05 -5.97941e-20
-8.81701e-05 1.69061e-05 5.68767e-20
0.000119538 -6.63481e-05 -6.56315e-21
0.00011948 6.64772e-05 -2.44296e-20
3.22325e-05 1.68737e-06 3.64518e-21
3.1688e-05 -8.02054e-07 -3.82739e-21
4.64595e-05 -2.19186e-05 -1.42119e-20
-3.11192e-06 4.65687e-05 -1.96793e-20
4.00541e-05 2.99953e-05 -6.37699e-21
2.78979e-06 -4.64008e-05 1.12976e-20
-7.34909e-05 5.04281e-05 1.23863e-20
4.61726e-05 2.20743e-05 -1.93136e-20
-5.5598e-06 -4.92931e-05 3.5532e-20
-3.23797e-05 -6.35441e-07 6.56102e-21
-3.25426e-05 3.4453e-07 1.00602e-19
-3.41234e-05 2.95219e-05 -6.19655e-21
5.87422e-05 0.000101747 -9.48193e-21
-5.88039e-05 -0.000101867 1.6773e-20
-1.11528e-05 -3.5589e-05 2.36921e-21
-4.34144e-05 -2.56705e-05 5.97716e-20
-6.16307e-06 -5.69738e-05 2.27851e-20
4.0299e-05 -2.96244e-05 -1.22075e-20
6.53054e-05 0.000121873 -1.61159e-20
0.000117263 5.77327e-05 -3.91511e-20
9.3175e-06 -3.50431e-05 -2.71576e-20
8.72059e-06 3.40648e-05 8.93098e-21
-8.04116e-06 5.97493e-05 1.62231e-20
4.8457e-06 4.78644e-05 -2.07729e-20
5.65298e-05 -2.97801e-05 -3.40701e-20
4.70994e-05 -1.54288e-05 -1.45804e-20
4.69891e-05 1.54573e-05 -6.92568e-21
-0.000116525 4.20484e-09 -1.35676e-19
-0.000116697 -4.14212e-09 2.29774e-20
8.79739e-06 -2.75438e-05 -1.25743e-20
-4.45082e-05 -2.65711e-05 4.68296e-20
3.71342e-05 4.17857e-05 1.67686e-20
3.75122e-05 -4.1655e-05 -2.26012e-20
1.17007e-05 3.40633e-05 -1.29388e-20
5.22097e-06 9.37817e-06 2.73352e-21
0.000130944 0.000130944 2.20299e-20
-3.85828e-05 -1.32194e-05 1.80445e-20
-3.85274e-05 1.23915e-05 8.76709e-20
-9.21624e-06 2.73775e-05 -1.00226e-20
5.64882e-05 2.98255e-05 -3.3888e-20
-4.36694e-05 2.1981e-05 1.47617e-20
-5.63825e-05 7.3432e-06 9.11199e-22
-5.63294e-05 -7.34488e-06 1.09176e-19
-3.40877e-05 1.61967e-05 1.49433e-20
1.7129e-05 -7.38707e-05 -2.07801e-20
1.67827e-05 7.4138e-05 5.83297e-21
2.28521e-05 0.000138176 3.2818e-21
-2.31516e-05 -0.000138086 5.46972e-21
-1.79376e-05 0.000236007 2.68531e-20
-0.000236249 1.30332e-05 -9.28496e-21
3.53054e-05 4.97245e-06 -9.47702e-21
3.51025e-05 -5.05763e-06 -1.25752e-20
-4.02152e-06 -1.00148e-05 -1.40329e-20
0.000128138 0.000161971 1.31083e-20
0.000159551 0.000126479 1.36536e-21
5.65564e-05 0.000136522 -4.3758e-21
5.65024e-05 -0.000136393 1.82325e-21
-4.10351e-05 2.4225e-05 2.7882e-20
3.51848e-05 -3.83645e-05 -6.7418e-21
3.77036e-05 2.02814e-05 -1.60372e-20
3.77922e-05 -2.02694e-05 -2.02287e-20
2.64778e-05 -2.67839e-05 -1.94978e-20
3.48608e-05 3.89574e-05 -9.65708e-21
-1.53297e-06 -0.000106321 2.56794e-20
1.01582e-06 0.000107952 6.55632e-21
0.000113297 -6.8455e-07 -1.6755e-20
2.64883e-05 2.68506e-05 -1.22089e-20
4.53541e-06 0.000111387 1.37488e-20
-0.000112039 -1.4248e-05 -1.36527e-21
5.03511e-05 -8.29049e-06 -1.34871e-20
5.03792e-05 7.88551e-06 -1.03888e-20
4.79599e-05 -1.64566e-05 -4.37432e-21
4.78896e-05 1.65192e-05 -1.36697e-20
-0.000132163 0.000164193 -1.42006e-20
-0.000162166 0.000132202 -8.73877e-21
3.97307e-05 2.17367e-05 -4.92027e-21
3.98042e-05 -2.16957e-05 -2.62418e-20
1.36704e-05 8.11045e-05 -9.115e-21
-1.39701e-05 -8.10099e-05 3.64614e-22
3.68318e-05 1.48398e-05 3.46309e-21
3.614e-05 -1.46943e-05 7.10839e-21
5.53303e-05 -5.27828e-05 -1.78629e-20
5.51121e-05 5.29794e-05 1.56756e-20
-3.2767e-05 7.69208e-06 1.47619e-20
-3.34801e-05 -8.04227e-06 1.14632e-19
5.15431e-05 0.000100036 1.27609e-20
7.64253e-05 7.7017e-05 -1.23969e-20
5.17177e-05 -9.96411e-05 -1.27609e-20
7.63988e-05 -7.68074e-05 -1.31261e-20
-5.5199e-05 -0.000102796 1.93242e-20
-0.000115915 -1.88447e-06 2.80767e-20
-0.000115873 1.60735e-06 -9.48058e-20
5.47414e-05 0.000102762 -1.13032e-20
9.32794e-05 3.86398e-05 2.00531e-20
0.000242669 3.19362e-05 -1.93277e-20
9.31865e-05 -3.86008e-05 -6.56288e-21
0.000242695 -3.19389e-05 -9.48164e-21
0.00012026 -2.25611e-06 1.45839e-21
8.16915e-05 2.3276e-05 7.65601e-21
0.000112854 -3.65683e-05 2.91691e-21
0.000120181 2.31672e-06 2.91691e-21
8.15767e-05 -2.3239e-05 -9.11436e-21
0.000112778 3.66179e-05 -1.27616e-20
8.63747e-05 -3.41285e-05 3.64631e-22
8.74099e-05 -3.38118e-05 -1.45841e-20
8.62656e-05 3.42341e-05 6.92686e-21
8.73217e-05 3.39109e-05 -9.11516e-21
-1.99689e-05 -5.50779e-05 7.83451e-21
-7.52493e-06 4.55842e-05 -9.65889e-20
7.92279e-06 -4.53675e-05 -1.20283e-20
-4.09854e-05 7.47766e-06 2.0772e-20
-5.23646e-05 1.36115e-05 8.56328e-21
-8.70186e-06 5.92667e-05 -9.73271e-20
9.09583e-06 -5.9004e-05 -6.92565e-21
-5.24026e-05 -1.34928e-05 1.62155e-20
-1.75818e-05 -2.75988e-05 7.61752e-20
-2.95722e-05 -6.64595e-05 -1.45712e-20
3.0033e-05 6.81137e-05 -1.00175e-19
6.91741e-05 3.13197e-05 -7.03037e-20
-3.84218e-05 -3.9644e-05 -2.8617e-20
3.84685e-05 3.99319e-05 -9.29611e-20
-4.21242e-05 2.52224e-05 -4.40962e-20
-1.86575e-05 -3.78522e-05 8.56388e-21
-6.35781e-06 -3.65184e-05 5.46703e-21
-4.22096e-06 -6.05377e-05 -2.47868e-20
4.55422e-06 6.05604e-05 -1.01154e-19
4.27426e-05 6.38467e-06 7.83529e-21
-2.27729e-05 -7.99938e-05 -2.13131e-20
2.15641e-05 8.10914e-05 -9.10808e-20
8.40054e-05 2.22186e-05 -3.51565e-20
1.98657e-05 5.43169e-05 -8.4538e-20
-3.6699e-05 -3.69341e-05 1.62152e-20
-3.85387e-05 -7.90863e-06 3.64421e-20
-5.76009e-05 -0.00011932 2.73176e-22
-3.40637e-05 1.71375e-05 5.9044e-20
-1.71275e-06 5.65569e-05 -1.18119e-19
2.30234e-06 -5.63701e-05 -1.71342e-20
-0.00012711 -6.16092e-05 1.27624e-20
-0.000126817 6.38285e-05 3.13606e-20
-2.75515e-05 3.72444e-05 -6.10408e-20
-3.33165e-05 3.94335e-05 -5.28348e-20
-7.67815e-05 2.47624e-05 -2.04011e-20
-5.42583e-05 -2.62882e-05 6.12457e-20
-5.19384e-05 2.54464e-05 4.95799e-20
-8.89521e-06 1.82505e-05 5.50359e-20
-1.60063e-05 -5.61548e-07 6.94295e-20
-5.5257e-05 3.6091e-05 -4.37245e-20
-6.37968e-05 -1.00258e-05 -2.40476e-20
-5.82092e-05 1.16929e-05 -2.51401e-20
5.75307e-06 3.68979e-05 -4.92031e-20
-1.81589e-05 5.47465e-05 -9.61995e-20
3.31791e-05 3.86444e-05 -8.03449e-20
-0.000129161 -0.000129158 1.54772e-21
-0.000127171 0.000127168 -2.85844e-20
1.14919e-05 2.97061e-05 -7.1078e-20
1.92101e-05 3.839e-05 -5.46624e-20
-0.000127542 0.000138715 -4.24216e-20
-0.000134563 -0.000129419 -4.40617e-20
6.594e-05 -1.30947e-05 1.20305e-20
6.63474e-05 1.21601e-05 -3.39033e-20
3.12215e-05 1.06539e-05 1.94987e-20
6.18449e-05 -4.19014e-05 2.18729e-20
6.21469e-05 4.17084e-05 -3.35388e-20
-5.38297e-05 -9.95066e-05 2.00534e-20
-5.386e-05 9.87708e-05 1.27619e-20
4.57347e-05 -2.67131e-05 8.56577e-21
4.56302e-05 2.62131e-05 -1.43976e-20
-6.01899e-05 9.34415e-05 -9.37067e-20
6.1409e-05 -9.36346e-05 -9.84404e-21
3.17989e-05 -3.79646e-05 -9.29204e-21
6.2492e-05 0.000118079 -8.54104e-20
0.000118616 6.25102e-05 -8.67762e-20
4.85627e-06 3.67084e-05 -8.54646e-20
-4.90458e-06 -3.61771e-05 -5.46693e-21
0.000128731 -5.33223e-05 -5.10501e-21
0.000130321 5.39748e-05 -3.97517e-20
-5.27625e-05 -3.66638e-05 -1.31175e-20
6.9491e-06 -1.16147e-05 6.56086e-21
4.32266e-05 2.34456e-05 -1.27561e-20
4.33468e-05 -2.36024e-05 1.87697e-20
-2.65888e-05 -1.80976e-05 3.51728e-20
-1.09121e-05 -2.88995e-05 -2.2053e-20
-4.85219e-05 4.04906e-05 4.90285e-20
-7.40549e-05 -1.67626e-05 -9.83608e-21
-5.58717e-05 9.67612e-05 3.64698e-22
-5.60658e-05 -9.71121e-05 -3.64672e-21
-4.17202e-05 -2.57237e-05 1.89493e-20
4.18062e-05 2.22407e-05 -3.46218e-21
-5.9257e-05 -6.44125e-05 -1.47549e-20
1.05906e-05 -0.000106 -2.91685e-21
-1.01585e-05 0.000105618 -1.03925e-19
-5.01975e-05 -4.44778e-05 3.9733e-20
3.83412e-06 4.84257e-05 -7.32616e-20
-3.29538e-06 -4.83803e-05 -2.01459e-25
3.05455e-05 1.01966e-05 2.5878e-20
3.11821e-05 -1.12894e-05 4.13683e-20
6.99783e-05 -5.25872e-05 -4.37164e-21
5.25996e-05 1.13341e-05 -5.46597e-21
3.7787e-05 -3.54271e-05 3.91849e-20
3.75154e-05 3.52684e-05 -3.28059e-21
4.25828e-05 -2.29811e-05 3.11603e-20
1.99245e-05 -5.32557e-05 -6.55932e-21
2.84499e-05 -2.56268e-05 4.28285e-20
2.75618e-05 2.47713e-05 9.29458e-21
-4.51298e-05 -2.01664e-05 2.49647e-20
-4.74208e-05 3.73117e-05 -5.73821e-20
2.313e-05 1.78878e-05 -1.09347e-21
-1.97748e-05 4.80577e-06 3.22583e-20
-7.29511e-06 1.23503e-05 -3.97274e-20
5.63441e-05 9.35476e-06 -1.2388e-20
-7.95592e-05 7.74812e-05 -4.46206e-20
-4.39901e-05 -2.62695e-05 4.13668e-20
-4.5462e-05 2.15523e-05 1.8951e-20
-0.000108168 1.76787e-05 -3.94302e-20
-4.21486e-05 2.57273e-05 -2.07709e-20
-6.25744e-07 -4.97615e-05 -2.00455e-21
9.34089e-07 4.99282e-05 -8.9838e-20
-3.74021e-05 -4.44431e-05 5.28328e-21
6.91008e-05 -2.97801e-05 -7.64992e-21
-2.62799e-05 1.95811e-05 -5.33956e-20
3.43372e-05 -5.3937e-05 -1.0931e-21
-3.60642e-05 5.81615e-05 -8.0157e-20
-4.32763e-05 -2.56051e-05 1.78579e-20
-1.74648e-05 -2.74843e-05 6.17816e-20
-1.78509e-05 2.93541e-05 5.86842e-20
-1.07407e-05 -5.10775e-05 -1.0931e-20
9.99617e-06 5.22715e-05 -1.02567e-19
6.23139e-06 -7.05235e-05 -3.02366e-20
-9.30501e-06 7.26083e-05 -5.79232e-20
7.36001e-05 -8.01212e-06 -2.36787e-20
4.89366e-05 -3.27322e-05 6.92255e-21
7.25398e-05 -0.000125651 -3.97179e-26
-7.23788e-05 0.000125372 -5.58034e-20
-5.18591e-05 -3.12773e-05 -1.83995e-20
5.44982e-05 -1.20405e-05 6.5586e-21
-8.23208e-05 -6.52703e-05 -3.27827e-20
8.09658e-06 2.92416e-05 -2.62395e-20
3.20111e-05 -1.19073e-05 2.71525e-20
1.51635e-05 -2.94224e-05 -3.82736e-21
-1.55422e-05 3.02298e-05 -9.18536e-20
4.87581e-05 6.87186e-05 -1.20768e-19
7.25214e-05 4.87996e-05 -1.01277e-19
2.43561e-05 -1.84528e-05 -6.19625e-21
-0.000103774 -4.6799e-06 -3.37849e-20
1.69957e-05 -4.19849e-06 1.12984e-20
-8.28371e-06 -2.97538e-05 2.0045e-20
1.4848e-05 3.79131e-07 4.70197e-20
-1.7208e-05 -4.44354e-06 -7.16191e-20
-3.93558e-05 -3.75407e-05 3.13403e-20
1.93163e-05 -7.79823e-05 -3.06043e-20
-1.84788e-05 7.78389e-05 -7.0134e-20
7.9736e-05 -2.0944e-05 -8.37957e-21
4.91192e-05 -3.77219e-05 1.749e-20
5.90611e-07 5.6828e-05 -9.07396e-20
-2.60912e-07 -5.70823e-05 -1.02038e-20
3.9239e-05 -7.06976e-05 -8.74274e-21
-3.72653e-05 7.44197e-05 -5.73748e-20
5.52702e-06 1.45142e-05 3.20758e-20
5.28027e-06 -1.54055e-05 5.97778e-20
2.76253e-05 2.0895e-05 -4.55557e-21
1.88275e-05 2.71528e-05 -9.23993e-20
-4.04823e-05 2.48256e-05 -2.16856e-20
5.17369e-05 2.60633e-05 -5.8322e-21
5.1621e-05 -2.65415e-05 9.84229e-21
4.32977e-05 -2.41977e-05 9.29434e-21
4.32065e-05 2.37034e-05 -2.38731e-20
-2.50491e-05 -0.000233244 -2.00257e-20
3.43107e-05 5.36209e-05 -1.08576e-19
-0.000240262 2.81473e-05 -5.95328e-20
-3.04288e-05 -2.26442e-05 3.20715e-20
1.05095e-05 -5.19099e-05 -1.43926e-20
-9.03406e-06 5.35039e-05 -1.20422e-19
8.21316e-05 -7.46674e-05 3.90122e-20
8.29302e-05 7.51707e-05 -6.05245e-20
4.49457e-05 2.89842e-05 -3.84467e-20
5.26999e-05 -1.30944e-05 7.28797e-21
4.8965e-05 3.40013e-05 -7.21394e-20
-3.18266e-06 4.49014e-05 -5.46692e-20
3.31157e-06 -4.51638e-05 2.55116e-21
1.65687e-05 4.41059e-06 -4.73849e-21
4.48621e-05 -2.92076e-05 7.28857e-21
-8.04409e-06 -1.33733e-05 1.96825e-20
-3.90874e-05 3.17751e-05 -1.17021e-19
3.99907e-05 -3.10494e-05 -8.38453e-21
2.76684e-05 -2.04148e-05 -1.73121e-20
-3.08711e-05 -2.09948e-05 2.47835e-20
6.33755e-06 1.35844e-05 -6.37805e-21
1.02441e-05 5.15933e-05 -1.05493e-19
-1.06055e-05 -5.14669e-05 -7.65227e-21
3.94501e-05 2.42455e-05 -2.47821e-20
4.91874e-05 3.72253e-05 -8.28939e-20
-1.73519e-05 3.76561e-05 -9.32911e-20
-1.7986e-05 -2.64212e-05 -1.56741e-20
6.29199e-05 0.000114084 -6.83774e-20
0.000115771 6.27705e-05 -7.38401e-20
-7.19749e-05 5.38324e-05 -6.0109e-20
3.96212e-05 -2.4726e-05 5.46683e-21
4.31638e-05 -7.90732e-06 2.22301e-20
0.000135093 6.54843e-05 -6.0534e-20
0.00013362 -6.50846e-05 -4.37582e-21
8.78068e-06 -2.96377e-05 -8.74703e-21
-7.37215e-05 -5.04187e-05 6.63528e-20
-7.2341e-05 5.15219e-05 4.92211e-20
-3.06184e-05 1.31116e-05 4.66485e-20
-7.6865e-06 1.15156e-05 -9.34843e-20
-6.05835e-05 8.08238e-05 -4.84393e-20
-7.60548e-05 -6.5013e-05 -3.23237e-20
6.51512e-05 -9.32902e-05 -3.697e-20
-5.92408e-05 9.67306e-05 -2.65898e-20
9.7596e-05 -5.69108e-05 -2.13079e-20
-6.65027e-05 -3.60078e-05 -1.96723e-20
6.77808e-06 -1.15787e-05 -6.92538e-21
-7.9704e-06 -0.000104369 -2.71334e-20
-9.87849e-05 8.79956e-07 -5.16258e-20
5.74081e-05 7.86937e-05 -1.25421e-19
-5.74084e-05 -7.8499e-05 -3.79158e-20
-3.54582e-05 2.80496e-05 6.56081e-20
-1.55313e-05 -1.13553e-06 6.04997e-20
-3.52866e-05 5.75777e-05 -5.97464e-20
3.73234e-05 -5.64528e-05 -2.20411e-20
-3.53207e-05 -1.04675e-05 5.72179e-20
1.88429e-05 -3.74882e-05 -7.8352e-21
5.61482e-05 -4.40489e-05 3.90099e-20
5.63735e-05 4.38748e-05 -1.96872e-20
-4.34214e-05 2.28483e-05 2.02289e-20
-2.70241e-05 1.99308e-05 -6.6876e-20
-3.48583e-05 1.61989e-05 5.52161e-20
-8.00276e-06 3.24523e-05 -7.01554e-20
0.000133642 0.000133645 -4.44687e-20
9.7778e-06 -5.35419e-05 -3.0974e-21
-9.07632e-06 5.342e-05 -1.13328e-19
-1.00925e-05 0.00010569 -1.44749e-19
1.07334e-05 -0.000105805 -6.92686e-21
1.51559e-05 -2.83076e-05 5.30372e-20
1.50131e-05 2.68811e-05 4.41064e-20
-5.14843e-05 -2.70742e-05 6.65234e-20
-5.03882e-05 2.60729e-05 5.0303e-20
-8.94026e-05 1.62596e-05 6.52607e-20
-8.82289e-05 -1.66718e-05 2.55217e-20
0.000118613 -6.59575e-05 5.83396e-21
0.000120311 6.63475e-05 -5.61566e-20
3.24418e-05 1.21137e-06 2.18715e-21
3.08679e-05 -1.17521e-06 -1.76778e-20
4.65764e-05 2.1507e-05 -2.98812e-20
-2.8417e-06 4.71693e-05 -9.76669e-20
3.11507e-06 -4.63078e-05 2.18666e-21
4.62811e-05 -2.23968e-05 2.05892e-20
-5.14417e-06 -4.88789e-05 7.28873e-21
5.05094e-06 4.84913e-05 -8.19968e-20
4.02832e-05 2.98626e-05 -5.35662e-20
-3.25592e-05 4.96834e-08 3.46291e-20
-3.28864e-05 -3.81689e-07 -4.73852e-20
4.02535e-05 -3.001e-05 2.91522e-21
-3.44525e-05 -2.97383e-05 5.4675e-20
5.88196e-05 0.000101895 -3.42837e-20
-5.88104e-05 -0.00010187 -1.38555e-20
-1.07468e-05 -3.55745e-05 -1.4762e-20
-4.32421e-05 2.53027e-05 3.62639e-20
-6.1528e-06 5.69997e-05 3.66382e-20
6.79438e-05 -0.000119854 -1.64801e-20
0.000117962 -5.61287e-05 -1.43859e-20
9.77606e-06 -3.49905e-05 5.1217e-20
8.93413e-06 3.40336e-05 1.65861e-20
-8.05302e-06 -5.9813e-05 5.12192e-20
5.69447e-05 2.96566e-05 -3.46159e-20
4.71061e-05 -1.57148e-05 5.28543e-21
4.70393e-05 1.50014e-05 -1.14817e-20
-0.000116474 -6.85756e-09 1.34915e-20
-0.000116705 2.46875e-09 7.14852e-20
9.13998e-06 -2.75544e-05 -9.29415e-21
-4.35429e-05 2.55368e-05 3.82668e-21
3.73673e-05 4.13808e-05 -2.07786e-20
3.76524e-05 -4.15701e-05 2.91631e-20
1.18643e-05 3.43949e-05 -6.36019e-20
6.08562e-06 9.9e-06 -9.62198e-20
0.000129734 -0.000129732 -9.28542e-21
-3.92702e-05 1.29803e-05 6.43414e-20
-3.85473e-05 -1.21531e-05 1.09361e-21
-8.85558e-06 2.80961e-05 -7.69017e-20
5.56634e-05 -3.00047e-05 1.43935e-20
-4.37136e-05 -2.19326e-05 5.79544e-20
-5.70557e-05 -6.09456e-06 7.0172e-20
-5.60624e-05 9.41768e-06 2.60636e-20
-3.41881e-05 -1.60229e-05 5.26657e-20
1.69453e-05 7.38571e-05 -1.56764e-20
1.74956e-05 -7.3356e-05 6.0518e-20
2.30525e-05 0.000138195 -1.0867e-19
-2.2769e-05 -0.000138482 -4.01097e-21
1.07112e-05 0.000231464 -9.41244e-20
0.000233406 1.60769e-05 -5.38886e-20
3.52364e-05 -5.46634e-06 -5.28534e-21
3.51329e-05 4.47878e-06 -8.92992e-21
-3.6093e-06 -1.01214e-05 -1.03881e-20
0.000126552 -0.000157805 -1.44741e-20
0.000153926 -0.000126 -4.27836e-21
5.66491e-05 0.000136735 -6.16239e-20
5.61309e-05 -0.000135486 4.55813e-20
-4.10816e-05 -2.42002e-05 4.57413e-20
3.52993e-05 -3.84865e-05 -9.29281e-21
3.78957e-05 -2.05051e-05 1.45793e-21
3.75547e-05 1.99305e-05 -1.25744e-20
2.66466e-05 -2.70045e-05 -1.65823e-20
3.49335e-05 3.89541e-05 -4.42761e-20
-2.80266e-06 0.000102433 -3.89738e-20
-1.34977e-06 -0.000111327 -3.9885e-20
0.000106377 -3.49782e-06 -3.69708e-20
2.65095e-05 2.66138e-05 -1.74927e-20
-1.11992e-05 0.000113252 -6.21886e-20
0.000111951 -8.29499e-06 -4.58903e-20
5.03041e-05 -8.66054e-06 -5.83236e-21
5.02455e-05 7.40008e-06 -2.47865e-20
4.79453e-05 -1.6717e-05 4.92119e-21
4.77969e-05 1.58937e-05 -2.35119e-20
0.000131081 0.000161272 -6.92733e-20
0.000162051 0.000131213 -3.82325e-20
3.9766e-05 2.15178e-05 -1.64005e-20
3.99182e-05 -2.1939e-05 -1.03874e-20
1.38893e-05 8.123e-05 -1.5168e-19
-1.35307e-05 -8.10556e-05 -9.4792e-21
3.69681e-05 1.41553e-05 4.739e-21
3.55794e-05 -1.58656e-05 -3.77281e-20
5.52133e-05 -5.25339e-05 3.64551e-20
5.54038e-05 5.26275e-05 -1.203e-20
-3.30321e-05 -7.79824e-06 4.90251e-20
-3.51352e-05 8.66644e-06 -2.11401e-20
-5.48996e-05 -0.000102881 -1.42195e-20
-0.000115759 -1.81327e-06 1.85948e-20
-0.00011586 2.04073e-06 2.11493e-20
5.49188e-05 0.000102878 -8.6053e-20
5.17911e-05 9.9818e-05 -2.51572e-20
7.66635e-05 7.68098e-05 -4.59414e-20
5.16077e-05 -9.87697e-05 5.14088e-20
7.58928e-05 -7.63017e-05 2.77109e-20
9.22453e-05 3.82135e-05 -8.38598e-21
9.45111e-05 -3.91422e-05 -3.61002e-20
0.000243902 -3.21061e-05 -6.41977e-20
0.000240903 3.17108e-05 -5.65261e-20
0.000119226 -2.68165e-06 -9.47981e-21
8.12184e-05 2.24779e-05 -2.9167e-21
0.00012124 1.39381e-06 -5.25054e-20
8.19868e-05 -2.45907e-05 -5.1769e-20
0.000113646 3.66194e-05 -4.12079e-20
0.000111964 -3.63342e-05 -1.20325e-20
8.58385e-05 -3.41414e-05 9.84356e-21
8.68795e-05 -3.38227e-05 5.10446e-21
8.67453e-05 3.37345e-05 -5.94276e-20
8.77853e-05 3.34137e-05 -5.87014e-20
-7.27294e-06 4.53145e-05 -1.27571e-20
5.59157e-06 -4.99534e-05 -6.37976e-21
-4.06424e-05 -7.94403e-06 7.19741e-20
-5.09119e-05 -1.4002e-05 6.08545e-20
-8.41957e-06 5.86385e-05 -2.87976e-20
5.06105e-06 -5.61349e-05 -5.83329e-21
-5.43751e-05 1.3063e-05 5.22915e-20
-1.69125e-05 2.72238e-05 4.66556e-20
-2.87775e-05 7.06469e-05 -2.84135e-20
-2.75233e-05 -6.90124e-05 3.55198e-20
7.05553e-05 2.83601e-05 -7.59533e-20
3.98132e-05 -3.74159e-05 -1.16666e-20
3.81278e-05 3.95295e-05 -2.73417e-20
-3.96139e-05 -2.67937e-05 4.19132e-20
1.11129e-05 -5.48588e-05 1.45823e-21
4.56295e-06 5.99232e-05 5.83224e-21
4.24413e-05 -9.98414e-06 4.92025e-21
-1.8964e-05 -8.5209e-05 2.73266e-20
-2.30246e-05 8.17101e-05 -3.47934e-20
8.41793e-05 1.95935e-05 -3.77085e-20
-5.63577e-05 1.21867e-05 2.42301e-20
2.14049e-05 5.31515e-05 -5.17447e-20
2.66891e-05 -6.05853e-05 -4.00897e-21
-3.83518e-05 6.64028e-06 5.43004e-20
-5.78711e-05 -0.000125535 7.14863e-20
-3.2823e-05 -1.73068e-05 7.39895e-20
0.000125338 5.94972e-05 -8.85125e-20
-1.59154e-06 5.59914e-05 -1.13016e-20
1.00643e-05 -5.41942e-05 3.64608e-21
-0.000126606 6.15498e-05 6.9279e-20
-0.000123194 -6.37556e-05 3.90151e-20
-8.26437e-05 2.59915e-05 1.74875e-20
-2.55568e-05 -3.79278e-05 2.89734e-20
-4.96527e-05 -2.62925e-05 4.81219e-20
-5.35884e-05 2.6059e-05 5.50471e-20
-8.40909e-06 -1.83853e-05 6.79791e-20
3.30671e-05 3.76054e-05 -3.29768e-20
3.63981e-05 -4.76369e-05 1.09312e-21
-5.29849e-05 3.46376e-05 1.07494e-20
-1.53137e-05 -2.02575e-07 5.37609e-20
-3.40619e-05 -4.06543e-05 2.29581e-20
-3.48611e-05 3.70321e-05 -1.12955e-20
-1.5016e-05 -5.62129e-05 1.27548e-20
-1.92553e-05 5.37924e-05 -1.76729e-20
1.68064e-05 -4.48868e-05 -1.74988e-20
6.2137e-06 3.66335e-05 -1.94995e-20
-5.40601e-05 3.45409e-05 -1.45737e-20
-0.000134791 -0.0001348 6.59109e-20
0.000133914 0.000133929 -8.64839e-20
1.4347e-05 -2.77727e-05 -2.18728e-20
1.14531e-05 2.94249e-05 -1.9501e-20
0.000134454 0.000143116 -1.24445e-19
-0.000140942 -0.000135097 5.77178e-20
6.49789e-05 1.13528e-05 6.92686e-21
5.23315e-05 -2.84803e-05 -2.44295e-20
3.02998e-05 -1.43613e-05 2.64238e-20
6.09133e-05 3.99387e-05 -3.64656e-22
4.98257e-05 -4.61046e-05 -4.22935e-20
2.01885e-05 3.78715e-05 -3.86288e-20
2.56089e-05 -4.70315e-05 -5.64949e-21
-5.16907e-05 -9.87722e-05 5.57842e-20
-5.31861e-05 9.98154e-05 2.44282e-20
4.51241e-05 2.46706e-05 -1.64025e-21
4.13624e-05 -3.47791e-05 -4.11942e-20
-7.29168e-05 3.06084e-05 2.91417e-21
-5.94047e-05 9.23992e-05 -3.46388e-20
-2.65098e-05 -7.5564e-05 3.28195e-21
-6.4768e-05 0.000121226 -3.00485e-20
-0.000123234 6.39433e-05 9.10505e-23
5.15972e-06 3.64081e-05 -1.76764e-20
1.36122e-05 -4.42045e-05 -4.00985e-21
0.000127081 5.26508e-05 -4.48649e-20
0.0001001 -4.14489e-05 4.77775e-20
4.30028e-05 2.09059e-05 -4.30078e-20
4.0641e-05 -2.87995e-05 -1.20285e-20
-7.6372e-05 -1.74605e-05 3.60671e-20
5.41192e-05 -1.6248e-05 -6.92386e-21
-6.51092e-05 -1.03004e-05 4.57274e-20
-4.63692e-05 -4.07472e-05 6.54321e-20
-5.5931e-05 9.68543e-05 3.46388e-20
-5.50581e-05 -9.53644e-05 2.9899e-20
-5.75046e-05 -6.6876e-05 4.59064e-20
-4.27021e-05 2.45194e-05 2.66018e-20
4.23105e-05 2.03492e-05 -5.52139e-20
8.32302e-07 -8.22129e-05 2.18799e-21
-9.97024e-06 0.000104432 -1.71384e-20
-4.95215e-05 4.42837e-05 4.84822e-20
1.07767e-05 -4.91265e-05 -1.85913e-20
3.86126e-06 4.79191e-05 1.07525e-20
3.06412e-05 8.05606e-06 4.55613e-21
2.81654e-05 -1.30184e-05 3.68135e-20
7.33587e-05 -6.03392e-05 -1.74887e-20
3.68639e-05 3.25723e-05 -4.73876e-21
3.24264e-05 -3.74337e-05 7.29072e-21
4.09145e-05 -2.9046e-05 -1.65834e-20
2.77494e-05 2.30306e-05 -1.62199e-20
2.51281e-05 -2.96993e-05 1.45803e-20
-4.43776e-05 1.98553e-05 5.2481e-20
2.31567e-05 1.71568e-05 -1.07521e-20
2.80039e-05 -3.2819e-05 -6.5988e-20
-5.33841e-05 -3.78049e-05 6.34051e-20
8.31936e-06 -2.88985e-05 -2.36982e-20
-6.8442e-06 1.20287e-05 -4.75641e-20
5.70233e-05 7.01411e-06 -4.2267e-20
-4.3538e-05 2.57537e-05 4.92029e-20
-4.52152e-05 -2.22408e-05 8.3095e-20
-3.43056e-05 -4.61347e-05 3.42506e-20
-3.96823e-05 -2.87202e-05 5.68492e-20
7.3989e-06 -5.08767e-05 -1.34865e-20
8.38495e-07 4.94853e-05 -5.46682e-21
7.22792e-05 -3.40306e-05 -3.77058e-20
-2.60177e-05 1.77464e-05 4.99329e-20
-2.3992e-05 -2.07309e-05 1.91364e-20
3.80828e-05 -6.16291e-05 3.09751e-21
3.49609e-05 5.34131e-05 -2.7327e-20
-4.22381e-05 2.45477e-05 4.46446e-20
-1.65624e-05 2.68801e-05 3.97318e-20
-1.64115e-05 -2.83083e-05 5.83224e-20
-3.98947e-05 3.77154e-05 1.76747e-20
9.01475e-06 -7.54923e-05 8.37939e-21
9.90105e-06 7.21339e-05 -3.15122e-20
7.48818e-05 -7.15927e-06 -2.8962e-20
7.40142e-05 5.11173e-05 -6.7763e-20
5.09338e-05 -3.91981e-05 -3.97177e-20
-5.8282e-05 -0.000100962 5.83466e-21
-7.15891e-05 0.000123993 4.70503e-20
5.54403e-05 -1.54924e-05 -3.37055e-20
8.6769e-06 2.84571e-05 -1.27555e-20
1.8025e-05 -4.08336e-05 -1.42166e-20
3.1681e-05 8.81681e-06 -9.84044e-21
-6.71731e-06 -5.38849e-05 4.19046e-21
-1.0092e-05 5.1124e-05 -4.48166e-20
-1.50691e-05 2.9858e-05 -5.59509e-20
4.25123e-06 -3.77232e-05 -7.65698e-21
1.71629e-05 -4.37215e-06 -1.27566e-20
2.43421e-05 -1.96681e-05 -6.63569e-20
1.42815e-05 -2.71243e-06 3.95453e-20
4.91156e-05 3.28572e-05 -4.26292e-20
-1.52315e-05 3.3735e-06 1.8226e-21
-1.84076e-05 -5.05212e-06 5.9773e-20
4.93341e-05 3.57165e-05 -1.84011e-20
-5.65939e-05 6.88288e-05 -4.26241e-20
-2.95472e-05 2.24513e-05 3.38932e-20
2.46278e-05 -8.38863e-05 9.65592e-21
2.09065e-05 7.80527e-05 -4.7364e-20
8.36626e-05 -2.50395e-05 -4.70006e-20
5.13334e-05 -4.5499e-05 -2.9882e-20
4.67483e-07 5.69207e-05 -2.55091e-20
6.87852e-06 -6.13202e-05 -7.47171e-21
4.23539e-05 -7.70012e-05 9.10782e-21
3.98895e-05 6.83071e-05 -5.55543e-20
5.13725e-06 1.23418e-05 3.35327e-20
4.71989e-06 -1.76488e-05 4.59254e-20
2.765e-05 2.01591e-05 -2.16851e-20
3.13066e-05 -3.50238e-05 -3.95525e-20
1.9422e-05 -2.60074e-05 -7.47315e-21
1.86541e-05 2.68527e-05 -1.25751e-20
-3.79743e-05 -2.62486e-05 4.92046e-20
-8.11054e-05 -6.62803e-05 4.58066e-20
1.51115e-05 -6.0036e-05 2.1865e-21
1.07729e-05 5.26476e-05 -6.32178e-20
5.06416e-05 2.45081e-05 3.64545e-21
4.22853e-05 -3.47605e-05 -3.24469e-20
4.46952e-05 -3.80435e-05 -6.48756e-20
4.2878e-05 2.23526e-05 -2.16869e-20
4.02288e-05 -3.36004e-05 -3.99152e-20
-2.49936e-05 -0.000244569 9.43067e-20
0.000242699 3.52008e-05 -2.74906e-20
8.09387e-05 7.28476e-05 -3.42757e-20
6.35218e-05 -7.05162e-05 2.04202e-20
4.49042e-05 2.75937e-05 -4.93808e-20
-0.000101643 -7.72857e-06 3.4514e-20
1.02974e-06 -4.42268e-05 -1.95007e-20
-3.20059e-06 4.43684e-05 7.10706e-21
-3.69081e-05 5.38412e-05 -3.07872e-20
-3.85266e-05 3.13965e-05 -5.17666e-20
-1.39725e-05 -3.89162e-05 -3.64596e-22
-5.27671e-05 -3.59105e-05 5.93902e-20
5.1623e-05 9.97355e-06 -2.02246e-20
6.6145e-06 1.32504e-05 -3.28018e-20
1.82787e-05 -2.98041e-05 -3.46381e-20
-1.45036e-05 -3.86878e-05 -6.19575e-21
-1.80468e-05 3.71044e-05 -8.74609e-21
3.94053e-05 2.28529e-05 -3.00674e-20
3.96453e-05 -3.36829e-05 -4.99367e-20
1.10729e-05 5.19251e-05 -6.44993e-20
1.64381e-05 -5.68149e-05 -7.28975e-22
-6.51763e-05 0.000116554 -5.03501e-20
-0.000116149 6.46357e-05 -9.28701e-21
4.31616e-05 5.00696e-06 -3.18884e-20
0.00013161 6.35758e-05 -5.68964e-20
0.000107581 -5.94566e-05 4.85053e-20
-7.31917e-05 5.0359e-05 7.3283e-20
-6.94642e-05 -5.16157e-05 4.19271e-20
-3.00421e-05 -1.40567e-05 6.48741e-20
-5.64909e-06 -1.2677e-05 -6.92583e-21
-7.15286e-06 1.14702e-05 4.61039e-20
6.66067e-05 8.29708e-05 -8.29498e-20
-7.7989e-05 -6.61276e-05 5.66373e-20
6.86947e-05 -9.99646e-05 1.82135e-21
6.74515e-05 9.48979e-05 -9.65262e-20
0.000104463 -6.32801e-05 -3.00509e-20
-7.16744e-06 -0.000109782 1.77561e-20
0.000109719 5.43899e-06 -4.16119e-20
5.68607e-05 7.7872e-05 -2.88031e-20
5.49606e-05 -6.84094e-05 -6.56308e-21
-3.41588e-05 -2.91173e-05 7.85514e-20
-1.48336e-05 3.78389e-07 5.77721e-20
4.08694e-05 -6.43051e-05 9.10879e-21
3.85359e-05 5.68053e-05 -2.73238e-20
-3.46406e-05 9.7092e-06 6.87008e-20
5.49289e-05 4.21942e-05 7.29193e-21
4.44977e-05 -4.81015e-05 -1.13032e-20
-4.16843e-05 -2.4103e-05 6.28768e-20
-3.00373e-05 2.01574e-05 3.31652e-20
-2.51935e-05 -2.13039e-05 1.8042e-20
-3.29335e-05 -1.71756e-05 7.67221e-20
-6.46582e-05 -3.85484e-05 5.39185e-20
-8.70037e-06 2.97168e-05 1.85867e-20
-5.08627e-06 -3.20913e-05 3.82701e-21
-0.00013505 0.000135037 -4.26034e-20
-9.51363e-06 5.26527e-05 -2.40501e-20
-5.97173e-06 -5.58251e-05 -1.49417e-20
-9.87424e-06 0.000104543 -2.73455e-20
4.48239e-06 -8.69389e-05 3.28165e-21
1.4216e-05 2.42512e-05 3.08006e-20
1.3159e-05 -2.8555e-05 3.46282e-20
-4.7726e-05 -2.70729e-05 4.72052e-20
-5.08153e-05 2.68462e-05 5.13968e-20
-8.50276e-05 1.51747e-05 5.10416e-21
-8.88905e-05 -1.64136e-05 7.29146e-20
0.000117487 6.43939e-05 -2.91747e-21
8.68692e-05 -6.0669e-05 3.39159e-20
3.06162e-05 -1.43892e-06 -9.11247e-21
3.22963e-05 -2.1403e-05 -5.90709e-20
4.68506e-05 1.96817e-05 -5.3023e-20
1.5762e-06 -4.79834e-05 -1.85883e-20
-2.88433e-06 4.65403e-05 -6.19523e-21
4.2945e-05 -3.83567e-05 -3.69917e-20
-7.42623e-05 5.03457e-05 -1.22043e-20
4.68232e-05 -2.80641e-05 -4.04535e-20
4.08445e-05 2.81464e-05 -1.98601e-20
-3.21348e-05 -5.92093e-07 5.94122e-20
-3.02992e-05 -9.99217e-07 2.91622e-21
-3.35076e-05 2.92931e-05 4.19182e-20
5.8204e-05 0.000100837 -8.75328e-21
5.10981e-05 -8.84972e-05 1.09402e-20
-4.15934e-05 -2.67266e-05 7.10716e-20
-4.19128e-06 -5.71774e-05 5.46836e-20
7.15085e-05 -0.000126721 1.53886e-20
0.000123337 -6.24582e-05 -1.3385e-20
7.83723e-06 3.21761e-05 3.02563e-20
6.74741e-06 -3.5908e-05 2.87989e-20
-6.9886e-06 5.97603e-05 3.17166e-20
1.37146e-05 -5.47913e-05 -5.46744e-22
5.26762e-06 4.76019e-05 -2.67858e-20
5.73811e-05 2.79142e-05 -6.52257e-20
4.64484e-05 1.41314e-05 2.55161e-21
4.19548e-05 -3.00786e-05 -5.39566e-20
-0.000113076 -2.57063e-09 1.09388e-21
-0.000115995 -7.23652e-09 5.83484e-20
-4.29241e-05 -2.76988e-05 7.76289e-20
3.67087e-05 3.94962e-05 4.37468e-21
3.22451e-05 -4.54498e-05 -1.93221e-20
1.17696e-05 3.39641e-05 2.36909e-21
1.48865e-05 -3.45954e-05 -2.02312e-20
8.33285e-06 -1.10328e-05 -1.16647e-20
5.28688e-06 9.38026e-06 2.1868e-20
0.00013608 -0.000136066 7.76565e-20
-3.60569e-05 1.0721e-05 1.13012e-20
-3.83019e-05 -1.31038e-05 5.75954e-20
-9.08562e-06 2.72967e-05 1.1845e-20
-5.84033e-06 -2.83251e-05 -8.56581e-21
5.79185e-05 -3.63998e-05 -4.99248e-20
-4.33235e-05 2.18763e-05 4.62901e-20
-5.37592e-05 -9.97194e-06 3.82759e-20
-5.59926e-05 7.33132e-06 6.43369e-20
-3.34709e-05 1.56791e-05 4.88397e-20
1.57387e-05 7.1455e-05 1.16667e-20
1.35248e-05 -6.95738e-05 3.35422e-20
2.28756e-05 0.00013669 -9.1166e-21
2.74628e-05 -0.000112505 3.64675e-21
-1.35916e-05 0.000241149 -1.14334e-19
-0.000240026 1.10983e-05 8.28388e-21
3.49354e-05 4.00148e-06 -1.6402e-21
3.5501e-05 -2.44427e-05 -6.81764e-20
0.000133322 -0.000165581 5.52588e-20
0.00016601 -0.000131402 2.75835e-20
4.73325e-05 -0.000114222 2.37071e-20
5.51213e-05 0.000133073 -6.89358e-20
-4.0738e-05 2.40783e-05 4.88386e-20
3.72698e-05 1.89036e-05 3.46266e-21
3.68025e-05 -3.27553e-05 -5.61413e-20
3.51424e-05 3.79738e-05 -3.31626e-20
3.74596e-05 -4.78279e-05 -2.16864e-20
9.70379e-07 -0.000118265 2.20386e-20
2.66952e-06 0.000103251 -4.15242e-20
0.000117817 -2.06685e-06 -3.40584e-20
2.66403e-05 2.56494e-05 -1.9862e-20
3.07371e-05 -3.81082e-05 -3.80911e-20
1.15877e-05 0.000113877 -3.84241e-20
-0.000113124 -1.67697e-05 3.06851e-20
4.94812e-05 6.81235e-06 7.10823e-21
4.36057e-05 -2.60096e-05 -5.87014e-20
4.7137e-05 1.49426e-05 8.01981e-21
4.23104e-05 -3.04973e-05 -3.68242e-20
-0.000132941 0.000162942 -5.55288e-20
-0.000164442 0.000132692 -5.29802e-20
3.96605e-05 2.06194e-05 -1.67656e-20
3.95303e-05 -3.47127e-05 -5.23098e-20
2.06873e-05 -7.04086e-05 -2.55247e-21
1.382e-05 8.03788e-05 -1.38554e-20
3.52222e-05 -1.58035e-05 1.54927e-20
3.51263e-05 -1.25638e-05 -4.84959e-20
5.40326e-05 5.03162e-05 -1.45823e-21
4.39823e-05 -5.27569e-05 1.02086e-20
-3.22265e-05 -1.03134e-05 3.28062e-20
-3.25357e-05 7.67893e-06 5.85002e-20
5.29453e-05 -8.80103e-05 -1.45846e-21
-0.000111866 -3.00226e-06 5.8338e-21
-0.000115312 1.69764e-06 6.3444e-20
5.4397e-05 0.000101797 -3.71924e-20
5.01964e-05 9.71283e-05 -1.3856e-20
7.46739e-05 7.44952e-05 -4.12086e-20
4.10875e-05 -9.01054e-05 2.00548e-20
6.17574e-05 -7.09844e-05 3.09974e-20
9.25374e-05 -3.83186e-05 -4.74069e-21
0.000237816 -3.12817e-05 -3.53823e-20
0.000187308 2.46905e-05 2.88131e-20
5.38003e-05 2.22965e-05 -1.78706e-20
0.000118483 1.03452e-06 -5.83418e-21
8.02643e-05 -2.42701e-05 2.18757e-20
0.000111035 3.56034e-05 4.01171e-21
8.26207e-05 -2.13867e-05 -9.84665e-21
8.03821e-05 -3.17674e-05 2.44348e-20
6.17312e-05 -7.5594e-06 -9.11655e-21
8.48845e-05 3.24102e-05 2.26053e-20
8.56707e-05 3.21723e-05 -9.48075e-21
6.44872e-05 -4.13359e-05 -5.83421e-21
6.70036e-05 -4.05555e-05 -1.82332e-21
7.34228e-06 1.60622e-06 1.60466e-20
6.11482e-06 3.63866e-06 -1.27659e-20
1.68692e-05 -4.48587e-07 3.64684e-22
5.88147e-06 -8.42387e-07 -6.9287e-21
5.96022e-06 -7.9916e-07 3.28211e-21
5.31796e-06 1.29031e-05 -4.01218e-21
1.77282e-05 -1.04491e-05 5.47056e-21
5.68767e-06 1.15573e-06 3.28209e-21
1.54523e-05 1.30806e-05 4.01112e-21
6.37579e-06 6.77346e-07 4.30353e-20
6.42669e-06 -6.10262e-07 4.34001e-20
5.52618e-06 1.48017e-08 3.97571e-20
3.4646e-05 -8.40158e-07 -3.28234e-20
-3.5655e-06 -6.45184e-06 -4.0853e-20
7.35855e-06 4.21289e-06 1.82346e-21
1.20994e-05 3.97395e-06 1.8234e-21
1.47294e-05 1.12663e-05 -1.31297e-20
7.71503e-06 -1.33465e-05 -3.93921e-20
4.64563e-06 4.43057e-07 7.07645e-20
6.69763e-06 5.27753e-08 2.00592e-20
6.72173e-06 -4.39681e-08 3.46477e-20
5.21455e-06 2.15963e-07 5.03353e-20
5.47297e-06 3.67229e-06 1.27642e-20
4.31512e-06 5.52063e-07 2.33396e-20
2.34142e-06 3.50861e-06 -1.53166e-20
5.84972e-06 9.78548e-07 2.33435e-20
6.45607e-06 8.49078e-07 2.188e-21
5.99242e-06 -3.30698e-08 4.413e-20
7.41799e-06 -7.7813e-06 1.13041e-20
5.21777e-06 -1.58875e-07 3.28264e-20
1.27648e-05 1.00089e-05 -2.37083e-20
1.43154e-05 -9.12253e-06 -1.64132e-20
-6.52545e-05 -3.31778e-05 5.83523e-21
-6.5404e-05 3.1411e-05 -6.92935e-21
5.12644e-06 1.2609e-07 2.91753e-20
3.15536e-06 4.47147e-06 -1.85984e-20
-1.25463e-05 -4.00765e-06 -8.38765e-21
-1.4557e-05 4.6919e-06 1.05757e-20
1.9466e-05 -8.31321e-06 1.56797e-20
5.9825e-06 8.01681e-07 2.95445e-20
4.12329e-06 -7.23977e-07 2.11518e-20
1.62167e-05 -4.22964e-08 6.19895e-21
5.49213e-06 -3.54501e-06 3.46456e-20
7.29244e-06 -1.61192e-06 3.28225e-20
3.94207e-06 3.00618e-06 1.56844e-20
5.16172e-06 -6.34415e-07 3.42809e-20
7.33673e-06 -1.17953e-06 5.58009e-20
6.26679e-06 -2.378e-06 5.79915e-20
2.01498e-05 -6.32858e-06 -2.99031e-20
6.39407e-06 -2.28084e-07 4.96028e-20
4.93832e-06 -1.29524e-06 3.97532e-20
1.015e-05 -5.59542e-07 -4.8516e-20
1.01552e-05 5.54782e-07 6.60256e-20
3.30049e-06 9.41146e-07 7.76959e-20
9.50978e-06 -5.06482e-06 -3.93966e-20
9.51374e-06 5.06859e-06 7.69693e-20
5.91385e-06 1.78198e-06 1.49546e-20
-1.6942e-05 -6.2169e-05 1.0211e-20
-1.70188e-05 6.2393e-05 -7.29381e-22
6.95344e-06 -2.32359e-06 -4.01251e-20
6.94853e-06 2.323e-06 8.75456e-20
5.15088e-06 1.37682e-07 4.12105e-20
4.77316e-05 -3.24256e-05 -3.64786e-22
-1.16259e-05 2.67575e-05 -1.78739e-20
5.98178e-06 -7.99875e-07 -5.43473e-20
6.03449e-06 -5.88735e-08 5.28832e-20
5.00491e-06 2.3445e-07 3.4282e-20
6.29861e-06 3.50713e-06 -1.05776e-20
1.10401e-05 3.72613e-06 1.71405e-20
1.94549e-05 -8.05889e-06 4.74249e-21
1.94689e-05 8.06469e-06 8.75536e-21
1.84444e-05 1.57201e-05 -1.94824e-26
5.76775e-06 -2.09304e-06 -1.20374e-20
5.75117e-06 2.16232e-06 9.52049e-20
5.3808e-07 9.68359e-06 -2.00561e-20
2.52551e-06 -4.07397e-06 -5.90907e-20
5.15881e-06 -9.84245e-08 2.5893e-20
4.6052e-06 -4.50069e-07 1.05758e-20
-8.9978e-06 -1.96567e-05 7.29326e-21
-2.87189e-05 4.97355e-05 3.64689e-22
-2.88973e-05 -5.00446e-05 4.37635e-21
5.27129e-06 7.53837e-07 3.42817e-20
2.84659e-06 5.3207e-07 1.64105e-20
4.60182e-06 1.18695e-06 7.51416e-20
7.4198e-06 3.13921e-05 -1.09432e-20
1.42722e-05 -4.05648e-05 1.38602e-20
-1.06768e-05 2.20952e-05 6.19928e-21
1.41837e-05 1.92425e-06 -1.82359e-21
8.43583e-06 -3.88172e-06 -3.68384e-20
3.67814e-06 -1.24616e-06 5.25274e-20
3.61246e-06 1.15187e-06 1.1308e-19
5.57684e-06 -3.66926e-07 -8.75384e-21
4.65933e-06 4.49945e-07 5.17959e-20
5.23027e-06 -4.26792e-06 -2.55344e-21
5.2101e-06 4.31045e-06 1.29861e-19
4.66835e-06 -1.19852e-06 8.38959e-21
5.86898e-06 -9.44987e-07 -4.44985e-20
3.45683e-06 -2.40654e-06 1.31318e-20
3.36421e-06 2.36395e-06 1.17822e-19
4.45321e-06 5.24262e-06 7.29328e-22
5.30321e-06 3.87786e-08 9.11913e-20
4.51878e-06 1.1213e-06 9.48189e-21
4.65721e-06 2.29514e-05 -2.62549e-20
2.35763e-06 2.05374e-08 2.44389e-20
5.15374e-06 1.88732e-07 5.54427e-20
-3.08146e-06 5.49067e-06 5.47e-21
4.42724e-06 -4.58872e-06 -8.02274e-21
5.33404e-06 8.11567e-07 1.67758e-20
2.63162e-06 -3.65548e-07 -1.09403e-20
9.31294e-06 -4.33761e-06 -1.34946e-20
8.51077e-06 4.87204e-06 -7.29448e-21
5.56401e-06 -3.0932e-08 1.31308e-20
4.83129e-07 -9.8512e-06 7.29334e-22
5.92543e-06 -4.45958e-07 -3.82981e-20
5.93515e-06 4.0749e-07 2.58968e-20
2.29237e-06 5.0171e-07 7.65822e-21
1.27509e-05 1.57352e-05 5.83411e-21
1.30444e-05 -1.62737e-05 9.84504e-21
7.34011e-06 1.60525e-06 1.7506e-20
2.07679e-06 -3.08388e-06 1.96928e-20
6.44849e-06 -2.80723e-08 1.38594e-20
6.48349e-06 2.53369e-08 1.96949e-20
5.12537e-06 -1.39109e-08 4.23107e-20
5.57825e-06 3.37881e-07 3.31916e-20
5.69889e-06 -4.81998e-07 -1.67785e-20
-2.38535e-05 4.13084e-05 -2.1158e-20
2.5461e-05 -4.41182e-05 7.29557e-22
5.13962e-06 -2.46744e-07 2.55329e-20
4.62798e-06 7.30174e-07 3.46516e-20
3.36889e-06 -1.01591e-06 5.76335e-20
7.39736e-06 -1.64241e-06 3.35531e-20
4.39136e-07 4.17987e-06 -9.4838e-21
2.29867e-05 5.86902e-06 1.0575e-20
5.34323e-06 -8.17424e-08 -6.49282e-20
4.71639e-06 -2.06844e-06 7.98838e-20
1.10183e-05 7.8689e-06 -2.55272e-21
1.64841e-06 1.31465e-08 9.44771e-20
5.68372e-06 4.14005e-07 4.12167e-20
4.96482e-06 -2.32764e-05 -1.05748e-20
5.7109e-06 7.02122e-07 3.86636e-20
5.18365e-06 -6.91714e-07 4.41285e-20
3.48677e-06 -5.16366e-06 1.27637e-20
6.62376e-06 -1.2782e-07 -1.02124e-20
6.64349e-06 1.11219e-07 1.27655e-20
5.2474e-06 -2.84789e-07 3.68397e-20
5.70623e-06 -6.86595e-07 -3.86635e-20
8.70942e-06 8.85605e-07 1.09417e-21
9.1379e-06 -8.176e-07 -1.45891e-21
6.09804e-06 -5.96927e-08 -3.28263e-21
6.13356e-06 7.51451e-08 3.17321e-20
5.87294e-07 -1.73711e-06 7.47792e-20
5.4882e-07 1.68049e-06 1.07974e-19
5.6614e-06 2.78167e-07 7.87879e-20
2.44872e-05 -7.87776e-06 -4.52166e-20
-4.98065e-06 3.86003e-06 -2.58913e-20
5.03917e-06 -1.57283e-07 3.06347e-20
7.01128e-06 1.0331e-06 7.65936e-21
7.67146e-06 -2.30247e-06 -3.61131e-20
7.6752e-06 2.305e-06 9.04651e-20
5.84756e-06 -1.18177e-06 -3.20996e-20
5.83568e-06 1.17024e-06 9.26512e-20
6.33515e-06 -1.77806e-07 5.43431e-20
3.98311e-06 -3.04045e-07 3.75677e-20
6.95196e-06 -1.0994e-06 -2.80844e-20
1.24866e-05 -1.03439e-05 -3.3561e-20
1.24952e-05 1.03499e-05 6.63924e-20
5.66487e-06 7.68832e-07 7.47758e-20
4.99656e-06 -3.59503e-08 3.31872e-20
4.66333e-06 -5.24665e-07 3.90293e-20
1.1732e-05 6.92916e-07 -4.01167e-21
5.98436e-06 -5.07363e-06 -4.70516e-20
5.1402e-06 -6.58675e-07 3.46458e-20
4.59878e-06 2.10379e-06 -7.91543e-20
5.66258e-06 -7.76492e-07 -3.6476e-20
1.00222e-05 1.47373e-05 -2.0784e-20
-3.99936e-06 4.46987e-06 -1.16724e-20
3.48986e-05 5.08978e-06 1.2035e-20
5.65934e-06 -2.69112e-07 -6.27385e-20
2.25189e-06 1.07843e-05 -1.31281e-20
4.27411e-06 1.47315e-07 1.09406e-20
3.4091e-06 1.1606e-07 5.435e-20
7.49994e-06 -4.47634e-06 1.56816e-20
7.97386e-06 -1.86307e-07 1.3859e-20
6.08815e-06 1.1336e-06 8.82729e-20
6.67928e-06 1.84157e-06 -3.64731e-21
-3.82313e-07 -3.05487e-06 -6.56575e-20
6.09113e-06 5.7978e-07 4.9965e-20
5.83209e-06 3.16017e-07 4.63174e-20
6.0948e-06 -1.14603e-06 -3.90298e-20
4.6938e-06 -5.41213e-07 3.06403e-20
1.9928e-05 -9.19784e-06 7.66088e-21
1.99418e-05 9.20321e-06 2.59011e-20
4.52214e-06 -8.2433e-07 -6.60204e-20
-2.89528e-05 -2.49783e-05 4.01145e-21
-3.01502e-05 2.40244e-05 -4.01146e-21
1.08702e-05 -3.74628e-06 1.16692e-20
1.01298e-05 -1.56914e-05 -2.88058e-20
6.08231e-06 -5.04415e-07 3.20965e-20
6.01889e-06 -1.11539e-07 3.82939e-20
6.13476e-06 -9.18303e-08 1.67775e-20
6.12229e-06 6.43845e-08 3.35551e-20
5.29192e-06 2.20513e-07 1.05775e-20
3.46381e-06 2.50123e-07 -7.66007e-20
6.36942e-06 8.14616e-08 3.93893e-20
5.25963e-06 -1.86718e-08 1.86017e-20
4.57316e-05 2.18528e-05 -3.86593e-20
-1.07482e-05 -2.11509e-05 -3.42881e-20
4.39926e-06 -6.89808e-06 -5.10545e-21
1.65109e-05 3.14503e-07 1.0574e-20
6.19238e-06 6.55001e-07 2.15194e-20
6.17884e-06 -6.59797e-07 -1.9331e-20
9.56653e-06 3.36847e-06 1.23983e-20
5.93658e-06 -1.92838e-06 -6.0183e-20
8.3705e-06 -5.49322e-06 -3.39252e-20
8.37547e-06 5.49492e-06 7.5146e-20
-1.70568e-06 9.30141e-07 -2.80801e-20
2.25989e-06 -1.09173e-05 1.31281e-20
4.63381e-06 -4.49657e-06 -2.91731e-21
5.36333e-06 3.89155e-07 3.46459e-20
1.08046e-05 -7.08919e-06 2.18809e-21
7.01138e-06 1.91236e-06 4.92358e-20
8.29077e-06 7.06821e-07 2.55297e-20
6.69083e-06 -1.67954e-06 -2.84488e-20
8.80958e-06 3.3193e-05 -1.78728e-20
1.86979e-05 -3.48278e-05 -1.64136e-20
1.80919e-06 -3.33332e-06 5.32578e-20
1.80378e-06 3.3163e-06 1.26214e-19
-1.27375e-05 -3.92939e-06 -1.78688e-20
-1.29852e-05 5.13999e-06 1.05754e-20
-4.08437e-05 2.6072e-05 -2.00569e-20
-4.18522e-05 -2.57512e-05 2.91742e-21
1.83063e-05 -9.29255e-06 -7.66078e-21
1.83202e-05 9.29791e-06 5.18015e-20
6.16888e-06 1.78719e-06 -8.90047e-20
6.16014e-06 -1.75367e-06 8.86399e-20
5.59909e-06 1.03516e-06 6.20093e-20
1.13272e-05 -2.09523e-06 1.49529e-20
6.58525e-06 -1.56465e-06 -4.74161e-20
5.20561e-06 -6.68699e-07 4.37635e-20
5.60522e-06 -1.05129e-06 -1.42256e-20
1.09935e-05 1.2476e-06 1.05764e-20
5.76977e-06 7.54326e-07 6.60206e-20
-6.18401e-06 -1.96525e-05 -7.29204e-22
-6.24506e-06 1.94732e-05 -3.31817e-20
5.78502e-06 -7.55084e-07 -5.43484e-20
4.28732e-06 8.08736e-06 4.74074e-21
2.55034e-05 4.4193e-05 -1.3496e-20
-1.63724e-05 -2.8353e-05 -1.82403e-21
2.49132e-06 -2.68968e-06 -6.7479e-20
-2.11774e-06 -4.61085e-06 -1.8598e-20
1.91119e-05 -3.06039e-05 1.3128e-20
6.06347e-06 5.85572e-07 2.77195e-20
5.78645e-06 2.41869e-07 1.71425e-20
1.10856e-06 -4.20326e-06 1.24026e-20
1.10937e-06 4.13315e-06 1.40806e-19
1.75996e-05 3.23799e-05 5.8346e-21
6.27946e-06 1.54347e-06 -7.29478e-21
5.17184e-06 7.16483e-07 5.14305e-20
7.20725e-06 -2.85162e-07 -5.14329e-20
7.20621e-06 2.71106e-07 8.46272e-20
-5.99843e-05 -1.21686e-09 -8.38787e-21
-5.99779e-05 1.25434e-09 -1.67757e-20
4.3285e-06 -1.9491e-06 -7.0033e-20
2.98162e-06 -4.15561e-07 -2.07867e-20
5.21513e-06 -4.94455e-06 -2.26163e-20
5.19439e-06 4.94885e-06 1.15635e-19
2.02286e-05 -5.21447e-06 -1.13054e-20
1.75549e-05 -1.69403e-05 -4.12063e-20
7.0407e-06 2.01159e-06 6.27326e-20
-8.03902e-06 2.30876e-05 -2.9173e-20
-8.10018e-06 -2.35433e-05 1.82331e-20
1.06138e-05 -8.28675e-06 -1.93272e-20
5.16875e-06 -6.97455e-07 -1.20369e-20
-2.67863e-06 -1.69798e-06 6.92885e-21
-1.75999e-05 1.24906e-05 -2.47972e-20
-1.76637e-05 -1.24982e-05 9.48128e-21
4.29413e-06 5.30338e-06 1.09398e-21
2.29418e-06 -1.00964e-05 -1.60506e-20
2.31085e-06 1.01051e-05 1.1053e-19
2.2235e-05 4.75142e-05 -1.24021e-20
2.22505e-06 -4.72422e-05 4.3772e-21
6.42277e-06 -2.47159e-07 5.83553e-20
3.89469e-06 2.44569e-07 3.39178e-20
6.27865e-06 1.03488e-06 -6.45641e-20
6.30442e-06 -1.07969e-06 9.04627e-20
2.6354e-06 3.66434e-07 -6.27386e-20
6.86009e-06 8.35925e-08 5.03319e-20
4.89879e-06 1.67873e-06 4.41325e-20
8.22212e-06 1.98502e-05 1.71458e-20
8.21672e-06 -1.98372e-05 -8.7553e-21
-5.25256e-06 -3.89358e-06 9.84596e-21
5.77662e-06 -7.69428e-07 -6.49262e-20
6.57083e-06 -6.16311e-07 -5.94573e-20
6.56825e-06 6.02767e-07 9.59341e-20
5.61509e-06 -5.54985e-07 -6.01851e-20
5.76452e-06 7.63346e-07 5.94549e-20
6.45271e-06 -5.68891e-09 2.00597e-20
6.48535e-06 1.75454e-08 3.72018e-20
5.24019e-06 -3.6488e-10 2.4073e-20
5.61272e-06 5.43247e-07 8.06116e-20
6.3923e-06 -9.32944e-08 4.81428e-20
5.03496e-06 -5.80106e-09 2.26114e-20
8.30555e-06 6.05043e-07 -4.8515e-20
8.33361e-06 -6.87508e-07 7.76969e-20
7.82751e-06 -1.02715e-06 -4.74211e-20
7.84091e-06 1.02073e-06 6.89429e-20
6.87037e-06 4.61941e-08 5.83543e-20
4.82299e-06 1.73785e-06 4.41298e-20
6.17986e-06 3.24086e-07 9.73918e-20
6.18003e-06 -3.39329e-07 -5.28907e-20
1.83642e-05 2.34455e-05 -1.53189e-20
6.26458e-06 -2.21425e-05 -1.13076e-20
6.7099e-06 3.33489e-06 -6.56601e-20
6.6658e-06 -3.33213e-06 8.31694e-20
8.22459e-06 -6.82337e-06 -3.21011e-20
8.22725e-06 6.8398e-06 1.0287e-19
-1.07083e-06 -1.22524e-05 1.16694e-20
-1.1577e-06 1.1988e-05 -2.73502e-20
4.39203e-05 3.94086e-05 -2.80831e-20
-6.40766e-05 -1.05098e-05 -1.82338e-21
7.62091e-06 1.40603e-05 6.96754e-20
1.12906e-05 1.06647e-05 4.08574e-20
7.6107e-06 -1.40564e-05 -6.20149e-21
1.1283e-05 -1.06585e-05 -1.05792e-20
-9.83131e-06 -3.00494e-05 -1.53207e-20
-6.41198e-05 1.03044e-05 -6.19946e-21
1.49572e-05 -6.19529e-06 2.00638e-20
3.64322e-05 -4.79567e-06 -3.64807e-21
3.6406e-05 4.79221e-06 2.66309e-20
1.49436e-05 6.18965e-06 -2.04286e-20
1.86661e-05 -5.72707e-07 4.37751e-20
1.27667e-05 -4.47914e-06 6.4202e-20
1.74104e-05 5.2438e-06 2.37121e-20
1.86512e-05 5.69112e-07 -3.21017e-20
1.73969e-05 -5.24054e-06 1.09441e-21
1.27574e-05 4.47185e-06 -6.49316e-20
1.34532e-05 -4.05391e-06 -3.86675e-20
1.32087e-05 -4.13012e-06 -3.57497e-20
1.34632e-05 4.05425e-06 6.34732e-20
1.3218e-05 4.13071e-06 6.01907e-20
-1.89479e-05 -5.404e-05 -9.83863e-20
5.71275e-06 4.99789e-05 -1.27594e-20
7.59362e-06 -4.52603e-05 -6.65192e-20
-4.04998e-05 -7.00855e-06 -3.04293e-20
-5.07257e-05 -1.26378e-05 -3.18845e-20
5.18109e-06 5.61738e-05 -2.47915e-20
8.74695e-06 -5.86778e-05 -6.37916e-20
-5.45481e-05 1.47796e-05 -1.12965e-20
-1.6657e-05 2.79099e-05 1.65848e-20
-2.992e-05 -6.60451e-05 -7.2675e-20
-2.67691e-05 7.4244e-05 -5.88341e-20
7.17214e-05 3.51244e-05 5.08196e-20
3.98404e-05 3.7544e-05 -1.38543e-20
-3.80905e-05 -3.94e-05 -5.79642e-20
-1.88484e-05 -3.80221e-05 -9.11046e-20
-6.05435e-06 -3.63845e-05 -5.99551e-20
-4.35484e-06 -6.0011e-05 -4.6841e-20
1.12149e-05 5.49414e-05 -2.11445e-20
4.32611e-05 -2.98455e-06 1.51243e-20
-2.27983e-05 -7.98854e-05 -5.68356e-20
-2.02798e-05 8.67201e-05 -3.26095e-20
8.44e-05 2.69645e-05 4.60889e-20
-3.54428e-05 -3.58059e-05 -6.94151e-20
-5.5512e-05 1.43514e-05 -2.00399e-20
-4.02408e-05 -3.60602e-05 -4.48241e-20
2.68426e-05 6.04292e-05 -5.2843e-21
-3.78636e-05 8.12118e-06 -3.2799e-21
-5.90382e-05 -0.000119987 -5.27255e-20
-3.32546e-05 -1.64819e-05 -2.93406e-20
0.00012611 6.60298e-05 6.52935e-20
1.01306e-05 5.4254e-05 -3.50023e-20
1.89313e-06 -5.60201e-05 -6.78094e-20
-0.000123653 6.14009e-05 -1.5679e-20
-0.000126232 -6.39834e-05 -1.71373e-20
-8.24717e-05 2.8512e-05 -5.20984e-20
-2.96192e-05 -2.34946e-05 -4.70129e-20
-5.12201e-05 -2.55779e-05 -2.77055e-20
-5.20958e-05 2.68792e-05 1.42179e-20
-8.61249e-06 -1.75719e-05 -2.44214e-20
3.6543e-05 4.74933e-05 5.10224e-21
-5.21093e-05 3.69969e-05 -2.58715e-20
-1.5075e-05 7.48155e-07 1.1299e-20
-3.27885e-05 3.9176e-05 -3.3343e-20
-1.63168e-05 5.68634e-05 -3.31621e-20
1.69534e-05 4.48602e-05 -2.55179e-21
-5.26713e-05 3.69446e-05 -4.73665e-20
-0.0001313 -0.000131284 -3.4412e-20
0.000136907 0.000136896 3.41395e-20
1.44117e-05 2.7915e-05 -1.09363e-20
0.000137673 0.000149893 5.96299e-20
-0.000141148 -0.000131759 -4.83406e-20
5.22195e-05 2.85061e-05 7.77171e-26
6.49725e-05 -1.14166e-05 6.9268e-21
3.02563e-05 -7.67114e-06 6.56029e-21
4.97234e-05 4.60626e-05 1.45843e-21
6.09066e-05 -4.00043e-05 3.64479e-22
2.5772e-05 4.69862e-05 -4.19154e-21
-5.18887e-05 9.91626e-05 -6.19831e-21
-5.30643e-05 -9.94348e-05 -4.73976e-21
4.12629e-05 3.48159e-05 8.93151e-21
4.52108e-05 -2.46922e-05 3.99137e-20
-7.21938e-05 3.339e-05 -6.75737e-20
-2.64283e-05 7.55748e-05 -2.99021e-20
5.95605e-05 -9.24186e-05 -6.12557e-20
3.2294e-05 -3.71106e-05 -5.86664e-20
-6.4063e-05 0.000126664 -7.64936e-21
-0.000123161 6.71612e-05 -7.22089e-20
1.37954e-05 4.41856e-05 -1.3123e-20
-5.10524e-06 -3.61613e-05 -7.54426e-20
9.98807e-05 4.13578e-05 2.11534e-20
0.000127091 -5.26552e-05 -1.67787e-20
6.98003e-06 -1.22581e-05 -4.44656e-20
4.054e-05 2.8205e-05 9.8414e-21
4.31078e-05 -2.16435e-05 1.5308e-20
-2.59226e-05 -1.78355e-05 -2.98867e-20
-1.10696e-05 -2.88469e-05 -5.2671e-20
-7.61662e-05 -1.51876e-05 -7.04939e-20
5.40937e-05 -8.7972e-06 5.28392e-21
-6.59711e-05 -8.70674e-06 -5.86614e-20
-4.79065e-05 -4.01735e-05 -5.03037e-20
-5.58146e-05 -9.66531e-05 -8.0215e-21
-5.51918e-05 9.55965e-05 -1.45849e-20
-5.8338e-05 -6.40823e-05 -6.94035e-20
-4.1179e-05 2.62403e-05 8.74629e-21
4.13746e-05 2.88774e-05 1.85878e-20
1.01441e-05 -0.000104442 8.75166e-21
8.75256e-07 8.22143e-05 -2.37024e-20
-4.81134e-05 4.47159e-05 1.42167e-20
1.08823e-05 4.92696e-05 -1.768e-20
-3.44282e-06 -4.80392e-05 -7.4538e-20
2.92476e-05 1.38055e-05 6.19625e-21
2.95775e-05 -7.24347e-06 1.58549e-20
7.21796e-05 -5.1809e-05 -6.37556e-20
3.25577e-05 3.69997e-05 2.4424e-20
3.66835e-05 -3.30858e-05 1.71324e-20
4.18532e-05 -2.05171e-05 6.01338e-21
2.00901e-05 -5.28252e-05 -7.79823e-20
2.60807e-05 3.02206e-05 1.5674e-20
2.67806e-05 -2.25888e-05 2.04117e-20
-4.37338e-05 2.09959e-05 4.5558e-21
2.80754e-05 3.28287e-05 -3.28113e-21
-5.35398e-05 -3.66561e-05 -6.01229e-20
-1.89866e-05 4.50781e-06 -1.16629e-20
8.42141e-06 2.87873e-05 -1.45836e-20
5.72302e-05 1.4383e-05 2.98793e-20
-4.2123e-05 2.69546e-05 2.89759e-20
-4.58957e-05 -2.09043e-05 -4.22752e-20
-3.58078e-05 -4.3389e-05 -6.37609e-20
-4.09377e-05 -2.67268e-05 -4.46392e-20
-6.38319e-07 -4.94922e-05 -6.56021e-20
7.62589e-06 5.09567e-05 -1.0935e-20
7.11728e-05 -2.71643e-05 -4.1529e-20
-2.39859e-05 1.90611e-05 1.36689e-20
3.48694e-05 -5.33188e-05 -5.59298e-20
3.8165e-05 6.10307e-05 1.16609e-20
-4.13461e-05 2.62339e-05 1.80408e-20
-1.60225e-05 2.72865e-05 1.65855e-20
-1.69578e-05 -2.7919e-05 -3.09835e-20
-1.06344e-05 -5.05019e-05 -8.41677e-20
-3.82682e-05 3.99193e-05 -5.831e-21
6.34237e-06 -7.04304e-05 -5.61021e-20
1.26766e-05 7.71318e-05 -1.12941e-20
7.48869e-05 -3.93304e-07 1.71223e-20
7.53088e-05 5.86983e-05 3.15155e-20
4.99443e-05 -3.08934e-05 -4.71838e-20
7.15413e-05 -0.000123939 7.51345e-20
-5.82927e-05 0.000100981 -1.34927e-20
5.53194e-05 -8.09602e-06 -4.37243e-21
1.81799e-05 4.07808e-05 4.19202e-21
3.16446e-05 1.55576e-05 1.53076e-20
-6.44327e-06 5.39884e-05 -2.56898e-20
1.51628e-05 -3.00008e-05 -4.84785e-20
4.29828e-06 3.77311e-05 -2.00541e-20
2.3802e-05 -1.75255e-05 -5.15737e-20
2.44982e-05 1.99815e-05 -6.19819e-21
-8.47506e-06 -2.76616e-05 -5.8675e-20
1.42726e-05 2.66661e-06 -3.17092e-20
5.06333e-05 4.06067e-05 2.86038e-20
-1.61645e-05 -4.37752e-06 4.00971e-21
5.09876e-05 4.52403e-05 1.91318e-20
-5.5288e-05 7.23809e-05 -7.99691e-20
-2.74308e-05 2.39305e-05 1.47611e-20
1.96782e-05 -7.80326e-05 -6.06626e-20
2.5008e-05 8.37634e-05 -1.25709e-20
8.33195e-05 -1.75721e-05 -2.00384e-20
5.01833e-05 -3.65323e-05 -3.84415e-20
-2.72025e-07 -5.68487e-05 -6.70538e-20
7.10633e-06 6.13828e-05 -1.05695e-20
4.0067e-05 -7.07349e-05 -6.92153e-20
4.26608e-05 7.5149e-05 1.45726e-20
5.03665e-06 1.78769e-05 -4.73837e-21
4.79405e-06 -1.21351e-05 -2.33271e-20
3.13544e-05 3.50178e-05 -3.64598e-22
1.94156e-05 2.61273e-05 -6.92624e-21
-4.0797e-05 -2.43354e-05 -3.88156e-20
-8.1755e-05 -6.31303e-05 -8.4873e-20
1.54826e-05 5.98902e-05 -7.47037e-21
4.2217e-05 3.47894e-05 1.23954e-20
5.06525e-05 -2.45734e-05 3.09855e-20
4.00735e-05 3.35886e-05 3.46299e-21
4.30405e-05 -2.24365e-05 2.71542e-20
-2.60264e-05 -0.000236543 -9.74902e-20
0.00024275 4.08119e-05 1.56568e-20
1.07121e-05 -5.14835e-05 -7.28736e-20
6.33856e-05 7.04051e-05 -1.20334e-20
8.0937e-05 -7.29047e-05 -2.84415e-20
4.44866e-05 3.79013e-05 1.51256e-20
-0.000102066 -5.21182e-06 -9.1885e-20
1.08541e-06 4.43448e-05 -2.33278e-20
3.29552e-06 -4.47603e-05 -7.70843e-20
-3.49437e-05 5.68902e-05 -5.77517e-20
1.62834e-05 4.55247e-06 -5.54002e-20
4.5128e-05 -2.77064e-05 -1.20262e-20
-6.97082e-06 -1.38833e-05 -1.03871e-20
-1.38892e-05 3.89218e-05 -2.77112e-20
3.8735e-05 -3.15493e-05 -7.80146e-20
2.75256e-05 -1.97317e-05 -6.77889e-20
-3.00508e-05 -2.04861e-05 -5.04766e-20
-5.25822e-05 -3.28595e-05 -7.34161e-20
5.15985e-05 1.74701e-05 1.89496e-20
1.8673e-05 2.97193e-05 -1.20322e-20
-1.49939e-05 3.85723e-05 -2.05917e-20
-1.03217e-05 -5.13941e-05 -8.72737e-20
3.95652e-05 3.366e-05 -7.00918e-26
1.67375e-05 5.68438e-05 -5.64912e-21
-1.87152e-05 -2.6167e-05 -4.44683e-20
-6.45896e-05 0.000120655 1.27439e-21
-0.000116476 6.78137e-05 -4.8439e-20
4.23064e-05 1.2018e-05 2.42359e-20
3.95536e-05 -2.29388e-05 2.91569e-21
0.000107359 5.9359e-05 1.20352e-20
0.000131634 -6.36139e-05 -5.32492e-20
8.7098e-06 -2.89176e-05 -7.54408e-20
-7.10468e-05 5.03749e-05 4.01041e-21
-7.16203e-05 -5.16489e-05 -3.20839e-20
-3.02543e-05 -1.29759e-05 -1.11159e-20
-4.58261e-06 1.26231e-05 2.1871e-21
6.88713e-05 8.89143e-05 3.76066e-20
-7.8343e-05 -6.29638e-05 -7.5666e-20
6.64158e-05 -9.37111e-05 -7.70371e-20
6.97489e-05 0.000101276 2.47702e-20
0.000103874 -5.68908e-05 -4.60769e-20
6.84635e-06 -1.08567e-05 -6.08652e-20
-8.55725e-06 -0.000104639 -7.63024e-20
0.000110252 1.11723e-05 1.99415e-20
-5.67812e-05 -7.76463e-05 -2.91677e-21
5.49589e-05 6.84785e-05 -2.44292e-20
-3.52193e-05 -2.80909e-05 -4.42863e-20
-1.49401e-05 9.11583e-07 4.73837e-21
3.80856e-05 -5.60274e-05 -5.3737e-20
4.13548e-05 6.40557e-05 -2.36834e-21
-3.46033e-05 1.07646e-05 4.37361e-21
1.90019e-05 -3.69492e-05 -7.59829e-20
4.44214e-05 4.8061e-05 -1.44452e-26
5.49234e-05 -4.22468e-05 -1.45839e-20
-4.27252e-05 -2.26134e-05 -3.22568e-20
-2.79624e-05 2.14463e-05 -1.09333e-21
-3.39968e-05 -1.56048e-05 -4.44653e-20
-6.54973e-05 -3.57239e-05 -7.61391e-20
-5.85616e-06 3.13491e-05 -2.29623e-20
-0.000137587 0.000137599 3.45924e-20
-5.71946e-06 5.58979e-05 -1.33019e-20
9.917e-06 -5.32577e-05 -7.48851e-20
1.01459e-05 -0.000104426 -4.48465e-20
4.55261e-06 8.69757e-05 -3.28163e-20
1.32454e-05 2.86425e-05 -7.65456e-21
1.40869e-05 -2.41475e-05 -2.22347e-20
-5.0298e-05 -2.59493e-05 -3.60864e-20
-4.89819e-05 2.77628e-05 2.58812e-20
-8.75475e-05 1.67253e-05 -2.15098e-20
-8.63999e-05 -1.49051e-05 8.02089e-21
8.66593e-05 6.05709e-05 -1.02112e-20
0.000117477 -6.44341e-05 -2.15162e-20
3.20909e-05 2.16377e-05 -2.55246e-21
3.06863e-05 1.64813e-06 -5.12122e-20
4.69041e-05 2.80642e-05 1.82222e-20
1.76241e-06 4.89993e-05 -1.73126e-20
3.10615e-06 -4.58605e-05 -7.56202e-20
-7.35491e-05 5.32799e-05 -7.59602e-20
4.68626e-05 -1.96848e-05 -1.22079e-20
-5.34898e-06 -4.90375e-05 -9.20192e-20
4.29825e-05 3.81046e-05 1.07512e-20
-3.22165e-05 2.88924e-07 -6.37868e-21
-3.06987e-05 3.45604e-07 4.00987e-21
4.07647e-05 -2.84697e-05 -1.96779e-20
-3.26953e-05 3.02813e-05 2.05953e-20
5.11197e-05 8.85346e-05 -1.34929e-20
-5.81202e-05 -0.000100668 1.14158e-19
-1.09155e-05 -3.50646e-05 -6.99809e-20
-4.29279e-05 -2.53808e-05 -3.20722e-20
-4.63576e-06 -5.70321e-05 -3.02579e-20
6.92655e-05 -0.000120847 -8.12186e-20
0.000121467 -5.61261e-05 -4.55261e-20
6.8018e-06 3.66515e-05 1.23945e-20
7.79029e-06 -3.13654e-05 -9.1132e-22
-6.54231e-06 5.984e-05 1.18481e-20
1.38974e-05 5.47332e-05 -7.28989e-21
5.76123e-05 3.6433e-05 3.99031e-20
4.18554e-05 3.01128e-05 3.64497e-22
4.6505e-05 -1.43186e-05 3.24417e-20
-0.000113054 2.33144e-09 -2.91703e-21
-0.000116091 7.32235e-09 -4.3761e-21
9.0374e-06 -2.70194e-05 -6.26881e-20
-4.40302e-05 -2.62881e-05 -4.06349e-20
3.23707e-05 4.53825e-05 1.31245e-20
3.65355e-05 -3.96015e-05 1.85918e-20
1.48891e-05 3.47503e-05 -2.24182e-20
7.52476e-06 1.05881e-05 -4.73878e-21
0.000132286 -0.000132299 -4.10575e-20
-3.81489e-05 1.22311e-05 -1.76796e-20
-3.66103e-05 -1.16493e-05 4.01011e-21
-6.39795e-06 2.79464e-05 -1.49445e-20
5.76479e-05 -2.77741e-05 -2.44141e-20
-4.19093e-05 2.30702e-05 3.28058e-20
-5.58087e-05 -7.3463e-06 -2.49692e-20
-5.40852e-05 8.53763e-06 1.85913e-20
-3.26589e-05 1.67547e-05 1.89531e-20
1.34034e-05 6.94441e-05 -7.2919e-21
1.58718e-05 -7.1539e-05 -2.04169e-20
2.7497e-05 0.000112529 -1.8963e-20
-2.27217e-05 -0.000136599 7.00161e-20
-1.25389e-05 0.000249381 8.14741e-20
-0.00023995 1.40451e-05 -5.49837e-20
3.54829e-05 2.45524e-05 -6.1978e-21
3.47747e-05 -4.42997e-06 -2.05939e-20
-3.88219e-06 -9.35101e-06 -5.77687e-20
0.000129791 -0.000158954 -7.06419e-20
0.000165409 -0.000127149 -1.46565e-20
5.51394e-05 -0.000133116 -2.55316e-21
4.72425e-05 0.000114004 -6.3462e-20
-3.8935e-05 2.56032e-05 3.28036e-20
3.54393e-05 -3.75808e-05 -4.282e-20
3.67678e-05 3.2758e-05 -9.8429e-21
3.73629e-05 -1.90693e-05 2.00474e-21
2.65809e-05 -2.58237e-05 -4.73775e-20
3.74439e-05 4.76563e-05 9.11194e-21
-1.45502e-06 -0.000112093 -7.6128e-20
5.13057e-06 0.000109616 -7.28549e-21
0.000117305 4.63275e-06 1.63918e-20
3.07991e-05 3.80265e-05 -6.19672e-21
1.31978e-05 0.000119222 2.95932e-20
-0.000113021 -1.38378e-05 -9.68813e-20
4.34799e-05 2.60979e-05 -8.38594e-21
4.92868e-05 -7.50899e-06 -2.58812e-20
4.2203e-05 3.05221e-05 -6.19808e-21
4.70888e-05 -1.50148e-05 4.37436e-21
-0.000135212 0.000169007 4.25123e-20
-0.000164465 0.000135456 4.64226e-21
3.94524e-05 3.46833e-05 -3.09853e-21
3.97829e-05 -2.07862e-05 -1.14808e-20
2.07283e-05 7.04752e-05 -2.00547e-20
-1.36401e-05 -8.01632e-05 -2.18756e-21
3.49788e-05 1.26178e-05 4.01094e-21
3.56482e-05 1.58304e-05 -4.31972e-20
4.39202e-05 5.25945e-05 9.47925e-21
5.40128e-05 -5.04844e-05 -4.01031e-21
-3.31344e-05 -8.03941e-06 -3.60841e-20
-3.0575e-05 8.8852e-06 2.13243e-20
-0.000112014 2.65709e-06 1.45845e-21
5.29464e-05 8.8053e-05 -3.64718e-22
4.09737e-05 8.99814e-05 -3.39113e-20
6.16331e-05 7.08701e-05 -3.13622e-20
5.02454e-05 -9.71497e-05 -1.02095e-20
7.46891e-05 -7.45479e-05 3.28214e-21
-5.43141e-05 -0.000101628 6.30815e-20
-0.000115253 -2.03408e-06 -9.84482e-21
5.36228e-05 -2.22231e-05 1.56826e-20
0.000186898 -2.46374e-05 4.52258e-20
0.000237835 3.12843e-05 -2.15211e-20
9.24929e-05 3.83002e-05 -1.02106e-20
8.24046e-05 2.14021e-05 -1.34936e-20
6.15758e-05 7.61495e-06 -1.75038e-20
8.01816e-05 3.17107e-05 1.78703e-20
0.00011846 -1.08524e-06 -2.22428e-20
0.000111019 -3.56194e-05 3.64741e-22
8.02492e-05 2.4214e-05 -2.80737e-20
6.43251e-05 4.13087e-05 -1.45858e-20
6.68583e-05 4.0523e-05 -1.60454e-20
8.48692e-05 -3.24644e-05 -5.25023e-20
8.56699e-05 -3.22221e-05 -1.27625e-20
TENSORS solid_stress_TPM float
38.0846 3.20338 -2.04851e-12
3.20338 42.4713 -2.30231e-11
-2.04851e-12 -2.30231e-11 38.1809

45.0801 2.13115 1.52671e-11
2.13115 48.688 2.02282e-11
1.52671e-11 2.02282e-11 45.9087

44.7702 1.70948 6.40439e-12
1.70948 48.2356 -2.87998e-11
6.40439e-12 -2.87998e-11 45.6421

44.9718 0.935642 1.91706e-11
0.935642 37.2751 2.54988e-11
1.91706e-11 2.54988e-11 40.3715

43.2049 0.370938 -1.45466e-11
0.370938 35.929 -6.61809e-12
-1.45466e-11 -6.61809e-12 37.678

45.6214 2.01545 1.15699e-11
2.01545 49.2818 -2.56206e-11
1.15699e-11 -2.56206e-11 47.9085

45.2949 1.86881 2.00337e-11
1.86881 48.9991 7.8982e-12
2.00337e-11 7.8982e-12 47.6794

43.6619 -0.468886 -1.16564e-11
-0.468886 36.4573 -1.24699e-11
-1.16564e-11 -1.24699e-11 38.0664

50.3176 0.0774476 3.04387e-11
0.0774476 41.0369 -2.86533e-11
3.04387e-11 -2.86533e-11 45.7922

30.1903 3.11217 2.6988e-12
3.11217 34.9939 2.7891e-11
2.6988e-12 2.7891e-11 29.0411

29.5802 -3.3281 -1.26674e-11
-3.3281 34.301 -1.41619e-11
-1.26674e-11 -1.41619e-11 28.1446

34.8448 3.21989 2.17253e-11
3.21989 31.4204 2.54341e-11
2.17253e-11 2.54341e-11 29.368

48.3758 -2.6368 3.37212e-12
-2.6368 50.6578 -6.93571e-12
3.37212e-12 -6.93571e-12 49.1432

48.7006 -2.98352 -3.31328e-11
-2.98352 51.2887 1.59908e-11
-3.31328e-11 1.59908e-11 49.4956

38.9173 3.0299 6.11548e-12
3.0299 44.0891 -1.40632e-11
6.11548e-12 -1.40632e-11 40.7442

42.1047 3.62834 1.75308e-11
3.62834 47.2188 2.16733e-11
1.75308e-11 2.16733e-11 44.6809

45.1235 -1.37936 -2.6483e-12
-1.37936 48.7908 -1.2329e-11
-2.6483e-12 -1.2329e-11 47.5076

45.3391 -1.48916 -1.6759e-11
-1.48916 49.0158 -2.01303e-11
-1.6759e-11 -2.01303e-11 47.6873

47.4827 1.38103 -5.49064e-12
1.38103 42.9245 1.5772e-11
-5.49064e-12 1.5772e-11 44.3215

33.3349 1.20427 1.34865e-11
1.20427 39.7395 1.44566e-12
1.34865e-11 1.44566e-12 32.7228

33.2265 -1.15179 -7.85061e-12
-1.15179 39.7187 -5.78056e-13
-7.85061e-12 -5.78056e-13 32.5384

39.7172 0.987708 4.11844e-11
0.987708 35.2641 1.43786e-11
4.11844e-11 1.43786e-11 33.3367

37.8027 3.57794 -8.86224e-12
3.57794 41.253 -6.16588e-12
-8.86224e-12 -6.16588e-12 37.6948

40.0618 -1.8295 1.36306e-11
-1.8295 34.1842 9.39164e-12
1.36306e-11 9.39164e-12 35.0195

41.3922 3.28342 1.05967e-11
3.28342 42.4999 1.9169e-11
1.05967e-11 1.9169e-11 40.5702

38.9963 3.57674 1.85914e-11
3.57674 43.4676 9.24853e-12
1.85914e-11 9.24853e-12 39.0376

45.6907 -0.774243 -9.92177e-12
-0.774243 37.5211 -1.00204e-11
-9.92177e-12 -1.00204e-11 40.8956

28.763 2.76972 -4.54044e-12
2.76972 34.037 -1.05729e-11
-4.54044e-12 -1.05729e-11 25.2133

48.8313 0.343731 -1.83017e-11
0.343731 39.9062 2.82206e-11
-1.83017e-11 2.82206e-11 44.5927

33.2649 2.77608 -1.97259e-11
2.77608 29.8388 9.06793e-12
-1.97259e-11 9.06793e-12 25.3161

49.8302 0.437751 -7.71733e-12
0.437751 51.4638 -1.40631e-11
-7.71733e-12 -1.40631e-11 49.8231

49.8142 0.149818 1.954e-11
0.149818 51.3805 1.05946e-11
1.954e-11 1.05946e-11 49.7959

55.7621 1.56001 6.62633e-11
1.56001 52.8783 -1.86817e-11
6.62633e-11 -1.86817e-11 53.0337

55.8009 -1.49636 9.05335e-12
-1.49636 52.9481 -1.39642e-11
9.05335e-12 -1.39642e-11 53.0242

38.5497 -1.1592 -1.2513e-12
-1.1592 32.4225 9.56113e-12
-1.2513e-12 9.56113e-12 31.3525

41.6714 3.52987 -1.48334e-11
3.52987 44.3355 9.0542e-12
-1.48334e-11 9.0542e-12 42.5677

50.3124 0.647074 -5.00929e-12
0.647074 48.8038 -1.84928e-11
-5.00929e-12 -1.84928e-11 49.1725

50.4806 -0.588016 1.63738e-11
-0.588016 49.0608 -3.18802e-11
1.63738e-11 -3.18802e-11 49.4298

50.7895 0.00753086 9.24782e-12
0.00753086 40.5934 3.28795e-11
9.24782e-12 3.28795e-11 45.9112

38.4057 3.87152 -2.74033e-11
3.87152 43.139 6.05903e-11
-2.74033e-11 6.05903e-11 38.6761

40.7479 -2.36866 3.61215e-12
-2.36866 37.4064 1.87842e-11
3.61215e-12 1.87842e-11 36.5216

49.8576 -0.228075 2.01326e-11
-0.228075 39.433 -1.89862e-11
2.01326e-11 -1.89862e-11 44.8567

37.4741 -3.58533 6.40621e-12
-3.58533 41.116 -2.75509e-11
6.40621e-12 -2.75509e-11 37.3772

38.077 -3.07238 2.95238e-11
-3.07238 42.5228 8.38033e-12
2.95238e-11 8.38033e-12 38.1583

43.1442 4.07955 2.84208e-12
4.07955 48.2854 9.82466e-12
2.84208e-12 9.82466e-12 45.4514

37.3417 -3.8264 2.50614e-12
-3.8264 35.9137 1.58468e-11
2.50614e-12 1.58468e-11 33.8703

11.1904 7.81525 9.38316e-12
7.81525 16.5717 9.30026e-12
9.38316e-12 9.30026e-12 8.63731

15.7999 7.72271 -4.98742e-12
7.72271 11.6017 1.76441e-11
-4.98742e-12 1.76441e-11 8.47195

44.5156 -3.64702 4.37275e-11
-3.64702 49.0487 4.91174e-12
4.37275e-11 4.91174e-12 47.2694

19.3937 3.27882 8.62362e-12
3.27882 25.9867 -1.94869e-11
8.62362e-12 -1.94869e-11 15.442

24.8778 2.93852 -2.51011e-11
2.93852 20.085 -8.91139e-12
-2.51011e-11 -8.91139e-12 15.4901

51.2956 -2.55996 1.81053e-11
-2.55996 53.509 3.32284e-11
1.81053e-11 3.32284e-11 52.1589

51.2834 2.55038 -2.10927e-11
2.55038 53.4801 -1.2328e-11
-2.10927e-11 -1.2328e-11 52.1595

50.6906 0.0738831 8.4764e-12
0.0738831 45.0228 3.95535e-12
8.4764e-12 3.95535e-12 47.3093

51.3021 -2.23074 4.45936e-11
-2.23074 52.8222 3.59238e-11
4.45936e-11 3.59238e-11 52.2452

51.2939 2.22387 4.45917e-11
2.22387 52.8142 1.68589e-11
4.45917e-11 1.68589e-11 52.2516

39.863 3.57759 -3.58776e-12
3.57759 45.2871 -8.57366e-12
-3.58776e-12 -8.57366e-12 41.5918

55.0129 1.46273 -5.39366e-11
1.46273 50.5338 -1.24258e-11
-5.39366e-11 -1.24258e-11 51.9734

55.0554 -1.45185 1.73369e-11
-1.45185 50.5114 -2.61005e-11
1.73369e-11 -2.61005e-11 51.9582

48.113 -2.9544 5.3948e-12
-2.9544 49.6533 1.44422e-13
5.3948e-12 1.44422e-13 48.7759

48.0982 2.93641 -2.20558e-11
2.93641 49.6518 -2.55737e-11
-2.20558e-11 -2.55737e-11 48.792

33.3164 -3.1776 9.53756e-12
-3.1776 29.1387 1.89541e-11
9.53756e-12 1.89541e-11 27.3924

51.1186 1.42795 1.44948e-11
1.42795 54.8357 4.00673e-11
1.44948e-11 4.00673e-11 52.0971

50.864 1.12916 1.56744e-11
1.12916 54.637 7.12785e-12
1.56744e-11 7.12785e-12 51.8874

38.5105 -3.94488 -1.45948e-11
-3.94488 43.3362 3.50651e-11
-1.45948e-11 3.50651e-11 38.8451

27.0794 -2.61156 -2.28589e-11
-2.61156 33.3989 2.88087e-11
-2.28589e-11 2.88087e-11 23.8238

32.5447 -2.58838 5.54248e-11
-2.58838 27.0794 -8.82324e-12
5.54248e-11 -8.82324e-12 23.4765

41.9264 3.1161 2.17972e-12
3.1161 47.3499 9.34282e-12
2.17972e-12 9.34282e-12 44.2665

41.4075 2.89731 -2.31889e-11
2.89731 46.5121 1.07885e-11
-2.31889e-11 1.07885e-11 43.7919

58.7074 -4.32105 -1.13641e-10
-4.32105 55.8161 1.13706e-11
-1.13641e-10 1.13706e-11 56.6696

58.7058 4.31981 1.95505e-10
4.31981 55.8237 -5.64151e-11
1.95505e-10 -5.64151e-11 56.6759

43.4552 4.41597 4.83965e-14
4.41597 48.2397 8.66955e-12
4.83965e-14 8.66955e-12 46.0169

47.9167 2.17142 1.06919e-11
2.17142 46.1683 2.7499e-11
1.06919e-11 2.7499e-11 46.8251

47.8984 -2.20945 -1.41585e-11
-2.20945 46.0456 -3.92979e-11
-1.41585e-11 -3.92979e-11 46.7136

43.1091 4.22085 -1.99372e-11
4.22085 47.0151 7.51218e-12
-1.99372e-11 7.51218e-12 45.3904

45.1556 -3.85792 1.31467e-11
-3.85792 49.8613 1.1847e-11
1.31467e-11 1.1847e-11 47.7692

37.642 -0.0438927 -2.31225e-11
-0.0438927 30.5033 -5.17843e-12
-2.31225e-11 -5.17843e-12 30.4975

40.5042 1.72389 1.70992e-11
1.72389 34.0516 -1.8736e-11
1.70992e-11 -1.8736e-11 34.6

49.3221 0.70038 9.82462e-12
0.70038 44.6395 -3.85299e-12
9.82462e-12 -3.85299e-12 47.584

54.1332 -1.08076 1.05946e-11
-1.08076 53.5759 -2.8508e-11
1.05946e-11 -2.8508e-11 53.0856

54.1443 0.930185 -1.10756e-10
0.930185 53.6614 8.94745e-11
-1.10756e-10 8.94745e-11 53.1296

34.7665 3.19298 3.66565e-11
3.19298 36.3826 3.59351e-11
3.66565e-11 3.59351e-11 31.5746

41.0938 -2.78677 4.44079e-11
-2.78677 39.7171 -9.586e-12
4.44079e-11 -9.586e-12 39.427

47.7715 1.67145 7.41696e-12
1.67145 44.2154 3.70826e-12
7.41696e-12 3.70826e-12 44.7023

52.2454 0.913392 -3.73337e-11
0.913392 54.8264 1.05937e-11
-3.73337e-11 1.05937e-11 52.7252

52.2005 0.778298 5.31865e-11
0.778298 54.7839 7.3194e-12
5.31865e-11 7.3194e-12 52.6542

49.6385 -0.513339 3.45786e-11
-0.513339 45.2143 2.49455e-11
3.45786e-11 2.49455e-11 48.0146

44.6789 -1.0898 1.26292e-11
-1.0898 48.2907 2.7259e-11
1.26292e-11 2.7259e-11 45.5781

44.8782 -1.48268 1.51726e-12
-1.48268 48.6166 1.38702e-11
1.51726e-12 1.38702e-11 45.7754

51.9503 -1.02607 3.46752e-11
-1.02607 47.1028 -2.05881e-11
3.46752e-11 -2.05881e-11 49.6202

52.0406 1.03765 1.3484e-12
1.03765 47.1351 1.02815e-11
1.3484e-12 1.02815e-11 49.7295

36.3546 -3.1687 -3.07803e-11
-3.1687 36.2574 3.80063e-11
-3.07803e-11 3.80063e-11 32.0495

45.5641 0.197613 -3.9398e-11
0.197613 40.668 -5.91878e-12
-3.9398e-11 -5.91878e-12 41.0437

52.3305 -1.55553 8.76492e-12
-1.55553 49.5211 8.66474e-13
8.76492e-12 8.66474e-13 51.2703

52.3107 1.54086 -4.52808e-12
1.54086 49.5617 4.86313e-12
-4.52808e-12 4.86313e-12 51.3068

47.7302 -1.73456 -1.51223e-11
-1.73456 44.2717 -9.46321e-12
-1.51223e-11 -9.46321e-12 44.6358

39.1732 -3.5925 5.72953e-12
-3.5925 43.8898 2.95734e-11
5.72953e-12 2.95734e-11 39.3124

51.9661 -1.15489 5.00859e-11
-1.15489 47.701 -4.04771e-11
5.00859e-11 -4.04771e-11 49.5088

52.0511 1.16543 1.79151e-11
1.16543 47.7343 1.67347e-11
1.79151e-11 1.67347e-11 49.6271

45.9901 -0.757251 -1.53171e-11
-0.757251 40.0907 8.86187e-12
-1.53171e-11 8.86187e-12 42.2485

44.597 5.04139 2.35986e-11
5.04139 49.2508 2.83201e-11
2.35986e-11 2.83201e-11 46.7881

39.9393 2.77814 4.62378e-12
2.77814 38.6962 -3.96393e-11
4.62378e-12 -3.96393e-11 36.6733

43.5121 4.26631 -1.59892e-11
4.26631 48.6301 4.14181e-12
-1.59892e-11 4.14181e-12 46.278

44.3352 4.76411 -4.33068e-13
4.76411 49.6033 4.62304e-12
-4.33068e-13 4.62304e-12 46.8579

41.9858 2.06208 -1.2235e-11
2.06208 37.4762 -7.73119e-12
-1.2235e-11 -7.73119e-12 37.3869

44.9676 -1.70579 -4.26719e-11
-1.70579 42.4565 3.03435e-12
-4.26719e-11 3.03435e-12 43.9732

45.3917 0.932986 1.00182e-11
0.932986 39.9262 -1.94081e-11
1.00182e-11 -1.94081e-11 41.5888

36.4215 3.5151 -3.21283e-11
3.5151 37.3385 -2.3555e-11
-3.21283e-11 -2.3555e-11 34.6967

40.5787 2.85346 1.66647e-11
2.85346 39.4458 -9.58474e-12
1.66647e-11 -9.58474e-12 39.092

40.6991 0.246969 4.19353e-11
0.246969 46.0057 -1.76275e-11
4.19353e-11 -1.76275e-11 43.3817

40.7693 0.390773 1.14743e-11
0.390773 46.0507 1.12698e-11
1.14743e-11 1.12698e-11 43.4182

35.2038 -3.58367 -3.01568e-11
-3.58367 32.3602 1.87034e-11
-3.01568e-11 1.87034e-11 29.9719

43.1523 -4.25401 2.02256e-11
-4.25401 47.096 1.99381e-11
2.02256e-11 1.99381e-11 45.4646

37.5175 -4.20048 1.69093e-11
-4.20048 40.3792 -4.40736e-11
1.69093e-11 -4.40736e-11 36.0645

37.4392 4.30237 -2.75019e-11
4.30237 40.2309 2.71159e-11
-2.75019e-11 2.71159e-11 35.969

44.9972 -1.56356 -8.95735e-12
-1.56356 41.1612 -2.03247e-11
-8.95735e-12 -2.03247e-11 41.9948

51.2601 -0.233437 -5.78051e-12
-0.233437 41.8192 2.98557e-12
-5.78051e-12 2.98557e-12 47.3722

51.2257 0.261263 -2.85121e-11
0.261263 41.8249 -9.05309e-12
-2.85121e-11 -9.05309e-12 47.2574

35.2666 2.28256 -2.89111e-12
2.28256 40.9016 -3.89186e-11
-2.89111e-12 -3.89186e-11 35.9764

41.3887 -3.45372 3.33286e-11
-3.45372 42.4162 -3.60753e-11
3.33286e-11 -3.60753e-11 40.4621

29.6741 -0.0770864 -5.47872e-12
-0.0770864 37.8633 -8.47855e-12
-5.47872e-12 -8.47855e-12 30.4886

29.5743 0.169628 -1.75559e-11
0.169628 37.8728 -7.8999e-12
-1.75559e-11 -7.8999e-12 30.3603

37.9792 -0.0277301 2.11472e-11
-0.0277301 31.1754 -3.70879e-11
2.11472e-11 -3.70879e-11 30.9914

36.3099 3.3647 1.22339e-11
3.3647 36.3843 -3.27537e-11
1.22339e-11 -3.27537e-11 31.9959

38.7045 -3.94513 1.66676e-11
-3.94513 38.2457 -1.6377e-11
1.66676e-11 -1.6377e-11 36.0184

53.0331 -1.93712 7.24001e-11
-1.93712 57.2309 -4.27696e-11
7.24001e-11 -4.27696e-11 53.787

53.084 -1.78734 7.83495e-11
-1.78734 57.2562 6.2216e-11
7.83495e-11 6.2216e-11 53.8306

42.4362 -2.02044 1.93618e-11
-2.02044 37.7045 3.49664e-11
1.93618e-11 3.49664e-11 37.7867

42.2675 4.68409 3.13038e-12
4.68409 47.399 -1.34858e-11
3.13038e-12 -1.34858e-11 43.9497

50.6794 -0.123661 1.68557e-11
-0.123661 44.9623 8.99546e-12
1.68557e-11 8.99546e-12 47.2304

35.2719 -2.24621 -3.37251e-12
-2.24621 41.1477 2.00378e-11
-3.37251e-12 2.00378e-11 36.0711

45.2816 4.19392 8.18854e-13
4.19392 50.2324 -3.66048e-12
8.18854e-13 -3.66048e-12 48.0281

44.323 3.94749 -1.81078e-11
3.94749 49.277 -6.74868e-13
-1.81078e-11 -6.74868e-13 47.3631

44.6786 -5.03172 3.65996e-12
-5.03172 49.305 -3.75733e-12
3.65996e-12 -3.75733e-12 46.8514

44.7667 4.85242 8.66122e-13
4.85242 50.4304 -2.08053e-11
8.66122e-13 -2.08053e-11 47.4813

41.303 4.09527 6.83921e-12
4.09527 46.0787 1.12705e-11
6.83921e-12 1.12705e-11 43.1078

55.0965 0.00916851 1.04025e-11
0.00916851 49.6272 -6.38769e-12
1.04025e-11 -6.38769e-12 52.8589

38.6494 3.87158 1.23296e-11
3.87158 37.7877 -3.71817e-11
1.23296e-11 -3.71817e-11 35.7174

43.5116 -4.30286 2.10943e-11
-4.30286 48.6015 -3.08311e-12
2.10943e-11 -3.08311e-12 46.2715

39.5728 3.38372 -5.87545e-12
3.38372 41.1125 -9.39056e-12
-5.87545e-12 -9.39056e-12 37.6896

33.5772 -2.92182 1.73439e-12
-2.92182 35.6017 -1.13204e-11
1.73439e-12 -1.13204e-11 30.4089

41.7002 -3.57649 -8.28648e-12
-3.57649 44.5474 4.55633e-11
-8.28648e-12 4.55633e-11 42.6458

34.4801 -2.03861 1.58109e-11
-2.03861 41.0541 -1.81601e-11
1.58109e-11 -1.81601e-11 33.8981

34.2943 1.98726 3.80993e-11
1.98726 40.8349 3.78139e-11
3.80993e-11 3.78139e-11 33.73

40.2986 -1.40005 -1.75821e-11
-1.40005 36.1615 2.36619e-11
-1.75821e-11 2.36619e-11 34.1444

39.5477 -3.47635 2.12909e-11
-3.47635 41.0978 -3.91118e-11
2.12909e-11 -3.91118e-11 37.6048

40.0725 0.538924 2.02875e-11
0.538924 45.4469 -2.98606e-12
2.02875e-11 -2.98606e-12 40.6242

40.0437 -0.00607809 3.34956e-11
-0.00607809 45.3617 -6.83979e-12
3.34956e-11 -6.83979e-12 40.5942

32.3754 -4.01299 4.78876e-14
-4.01299 34.9027 2.80818e-11
4.78876e-14 2.80818e-11 29.6201

32.2385 4.06258 -2.2785e-11
4.06258 35.1018 -1.63306e-11
-2.2785e-11 -1.63306e-11 29.8246

54.4974 -0.357854 -1.0787e-11
-0.357854 48.2863 -4.37248e-11
-1.0787e-11 -4.37248e-11 51.9568

54.5325 0.375158 -1.34818e-12
0.375158 48.3065 1.78419e-11
-1.34818e-12 1.78419e-11 51.9985

43.1388 4.41519 -4.96034e-11
4.41519 47.9018 2.79032e-12
-4.96034e-11 2.79032e-12 44.7653

44.2908 -4.01687 -2.32138e-11
-4.01687 49.361 3.10164e-11
-2.32138e-11 3.10164e-11 47.285

43.3118 2.92384 -1.83003e-11
2.92384 44.8558 -2.89002e-12
-1.83003e-11 -2.89002e-12 44.1143

33.4169 3.23793 1.2237e-11
3.23793 29.1968 4.68351e-12
1.2237e-11 4.68351e-12 26.4109

35.8481 2.77008 1.71457e-11
2.77008 42.293 -2.47572e-11
1.71457e-11 -2.47572e-11 36.7338

50.8965 1.93296 3.30359e-11
1.93296 50.6697 -4.31957e-11
3.30359e-11 -4.31957e-11 50.7985

50.9146 -1.94698 1.87809e-11
-1.94698 50.6838 1.93589e-11
1.87809e-11 1.93589e-11 50.7877

48.1871 -2.63817 -7.51281e-12
-2.63817 47.6684 1.53139e-11
-7.51281e-12 1.53139e-11 47.0448

48.161 2.61745 3.46686e-12
2.61745 47.6613 -1.50249e-11
3.46686e-12 -1.50249e-11 47.0627

21.1542 0.865175 9.71923e-12
0.865175 31.5451 -2.80383e-11
9.71923e-12 -2.80383e-11 16.8338

30.3923 0.895552 2.94843e-11
0.895552 22.1385 -9.59803e-12
2.94843e-11 -9.59803e-12 16.8106

35.768 -2.62838 -1.86153e-11
-2.62838 42.445 5.97374e-12
-1.86153e-11 5.97374e-12 36.8685

55.2535 -2.09751 -2.33077e-11
-2.09751 55.8066 6.29856e-11
-2.33077e-11 6.29856e-11 55.289

55.2394 2.10434 -5.4897e-11
2.10434 55.8027 -3.20752e-11
-5.4897e-11 -3.20752e-11 55.2902

44.137 3.21843 3.80485e-11
3.21843 44.2784 -1.20385e-11
3.80485e-11 -1.20385e-11 42.6428

34.5191 1.76394 1.4235e-11
1.76394 27.6047 -2.54212e-11
1.4235e-11 -2.54212e-11 26.2182

45.5785 -0.335738 -2.20589e-11
-0.335738 40.7004 -1.21853e-11
-2.20589e-11 -1.21853e-11 41.0568

41.4254 -2.31161 -2.05764e-11
-2.31161 46.4517 2.40889e-12
-2.05764e-11 2.40889e-12 43.7996

41.9805 -2.52883 -1.71688e-11
-2.52883 47.0503 1.68578e-11
-1.71688e-11 1.68578e-11 44.2436

36.2962 -3.8241 -1.63306e-11
-3.8241 37.7054 -1.39459e-12
-1.63306e-11 -1.39459e-12 34.3512

44.8057 -4.87292 -5.10603e-12
-4.87292 50.5145 3.48692e-11
-5.10603e-12 3.48692e-11 47.5362

44.1291 -3.2532 -1.92594e-12
-3.2532 44.3205 1.24747e-11
-1.92594e-12 1.24747e-11 42.5954

42.8271 4.66735 -1.63697e-12
4.66735 48.1736 8.57373e-12
-1.63697e-12 8.57373e-12 45.9213

48.6124 3.37461 1.49165e-11
3.37461 51.3257 -8.7644e-12
1.49165e-11 -8.7644e-12 49.5888

48.2764 3.06536 1.92727e-12
3.06536 50.5566 2.17683e-11
1.92727e-12 2.17683e-11 49.1956

43.1811 -4.4346 5.12895e-11
-4.4346 48.0654 -1.37786e-11
5.12895e-11 -1.37786e-11 44.8867

42.1054 4.00269 -8.95628e-12
4.00269 46.3622 1.73389e-11
-8.95628e-12 1.73389e-11 43.7022

38.8138 2.77074 -8.66862e-12
2.77074 34.6143 3.47273e-11
-8.66862e-12 3.47273e-11 34.0883

44.321 5.13626 -2.93711e-12
5.13626 49.7191 1.0692e-11
-2.93711e-12 1.0692e-11 47.0429

38.995 -3.13923 2.02042e-11
-3.13923 44.343 2.9862e-12
2.02042e-11 2.9862e-12 40.9035

37.0335 1.22269 -1.14624e-11
1.22269 43.468 2.64922e-11
-1.14624e-11 2.64922e-11 38.7858

44.4837 3.72806 1.82987e-12
3.72806 46.1229 -9.65154e-14
1.82987e-12 -9.65154e-14 44.6676

37.7353 1.57094 2.42008e-11
1.57094 43.9338 7.99694e-12
2.42008e-11 7.99694e-12 39.2658

45.3025 -4.35911 1.07378e-11
-4.35911 50.348 2.25378e-11
1.07378e-11 2.25378e-11 47.9566

24.0937 -3.74452 -2.77095e-11
-3.74452 24.5077 -1.33438e-11
-2.77095e-11 -1.33438e-11 18.6954

24.2052 -3.7854 -6.3998e-11
-3.7854 24.2253 -3.21491e-11
-6.3998e-11 -3.21491e-11 18.62

44.4835 -3.75024 -3.89153e-11
-3.75024 46.1254 3.19805e-11
-3.89153e-11 3.19805e-11 44.6475

47.4061 -1.41719 -2.82705e-11
-1.41719 42.8892 -6.26781e-12
-2.82705e-11 -6.26781e-12 44.2384

58.9356 4.44937 2.36919e-10
4.44937 56.9236 -2.81011e-11
2.36919e-10 -2.81011e-11 56.9449

58.9371 -4.44978 -3.48632e-11
-4.44978 56.9251 -3.67878e-11
-3.48632e-11 -3.67878e-11 56.9408

42.4182 -4.65543 2.1094e-11
-4.65543 47.649 -1.94593e-11
2.1094e-11 -1.94593e-11 44.2095

50.4832 0.977315 6.93375e-12
0.977315 51.3217 -7.60939e-12
6.93375e-12 -7.60939e-12 50.9375

50.5467 -0.898302 -2.13814e-11
-0.898302 51.3849 1.47369e-11
-2.13814e-11 1.47369e-11 50.9609

48.1053 0.0609816 -3.1796e-12
0.0609816 38.8148 2.67869e-11
-3.1796e-12 2.67869e-11 42.7997

42.8024 -4.68992 1.80139e-11
-4.68992 48.234 -3.48702e-11
1.80139e-11 -3.48702e-11 45.9022

26.547 4.5627 1.89293e-11
4.5627 26.9473 -2.80231e-11
1.89293e-11 -2.80231e-11 21.7916

26.0786 4.32187 9.53963e-12
4.32187 26.9455 7.58778e-12
9.53963e-12 7.58778e-12 21.81

28.1436 -3.24733 -1.36578e-11
-3.24733 34.1136 6.8261e-11
-1.36578e-11 6.8261e-11 25.5276

28.7105 3.40498 -2.04465e-11
3.40498 34.624 -1.56077e-11
-2.04465e-11 -1.56077e-11 26.0786

33.714 -2.70135 -1.77273e-11
-2.70135 29.2659 -8.79156e-12
-1.77273e-11 -8.79156e-12 25.698

44.3398 -5.15838 -2.06116e-11
-5.15838 49.8718 -2.69494e-12
-2.06116e-11 -2.69494e-12 47.0838

22.2693 1.19649 3.26833e-11
1.19649 31.4183 3.61281e-12
3.26833e-11 3.61281e-12 21.8897

30.9781 1.52785 -5.51132e-11
1.52785 23.7168 -2.83853e-11
-5.51132e-11 -2.83853e-11 22.2177

50.045 -1.59342 -9.79988e-12
-1.59342 52.6654 -5.97178e-12
-9.79988e-12 -5.97178e-12 50.9411

50.3665 -1.92862 -3.41659e-11
-1.92862 52.9124 2.56216e-11
-3.41659e-11 2.56216e-11 51.1659

48.8476 0.606028 2.08051e-11
0.606028 43.8727 -3.93936e-11
2.08051e-11 -3.93936e-11 45.6205

50.6467 0.0376372 3.15953e-11
0.0376372 39.716 8.46354e-12
3.15953e-11 8.46354e-12 45.7212

33.3162 -2.9464 1.39691e-11
-2.9464 38.5656 -4.94206e-11
1.39691e-11 -4.94206e-11 32.6514

33.1256 2.88165 4.52845e-12
2.88165 38.4191 5.30832e-11
4.52845e-12 5.30832e-11 32.5206

48.1472 -3.08045e-05 -3.70074e-16
-3.08045e-05 38.7385 -3.43274e-12
-3.70074e-16 -3.43274e-12 42.9328

40.0036 -3.55774 5.54112e-13
-3.55774 45.5677 -1.30033e-11
5.54112e-13 -1.30033e-11 41.843

54.4448 -1.5237 2.96646e-11
-1.5237 54.0994 9.72589e-12
2.96646e-11 9.72589e-12 54.0882

54.4123 1.52065 3.0335e-11
1.52065 54.0846 3.49132e-11
3.0335e-11 3.49132e-11 54.0856

45.4576 2.0978 3.12071e-11
2.0978 45.8296 -7.60836e-12
3.12071e-11 -7.60836e-12 45.0424

41.9818 -3.985 -1.10781e-11
-3.985 46.3499 1.82067e-11
-1.10781e-11 1.82067e-11 43.6509

47.826 0.605617 -1.92646e-12
0.605617 40.1785 5.9715e-12
-1.92646e-12 5.9715e-12 44.048

33.9558 3.32575 1.99423e-11
3.32575 33.3375 4.5326e-11
1.99423e-11 4.5326e-11 30.1355

41.3445 -4.09349 9.53465e-12
-4.09349 46.1052 1.98428e-11
9.53465e-12 1.98428e-11 43.1553

12.4088 -7.18962 9.13995e-12
-7.18962 12.6644 -1.84405e-11
9.13995e-12 -1.84405e-11 7.01357

37.2303 -0.981002 -2.59595e-11
-0.981002 43.3346 5.5879e-12
-2.59595e-11 5.5879e-12 38.8115

37.7876 -1.34366 -6.04489e-12
-1.34366 43.7009 -1.98438e-11
-6.04489e-12 -1.98438e-11 39.1761

50.4637 -0.31753 2.29004e-11
-0.31753 52.353 1.71435e-11
2.29004e-11 1.71435e-11 51.2

50.5198 -0.182767 -2.55039e-11
-0.182767 52.321 1.69511e-11
-2.55039e-11 1.69511e-11 51.2118

55.6018 -1.1159 -3.75621e-11
-1.1159 50.9373 1.0354e-11
-3.75621e-11 1.0354e-11 53.8733

55.5991 1.11774 -9.82392e-12
1.11774 50.9553 -1.9141e-11
-9.82392e-12 -1.9141e-11 53.9037

46.483 -2.1961 -3.75551e-12
-2.1961 46.982 -5.70208e-11
-3.75551e-12 -5.70208e-11 47.2474

46.3566 2.266 -1.05982e-12
2.266 46.4878 -1.13644e-11
-1.05982e-12 -1.13644e-11 46.9282

50.0032 -1.94843 1.15572e-11
-1.94843 52.1308 7.6096e-12
1.15572e-11 7.6096e-12 50.7106

49.951 2.02819 1.42539e-11
2.02819 52.1037 -5.97268e-12
1.42539e-11 -5.97268e-12 50.6865

56.7401 3.03086 6.22138e-11
3.03086 56.4986 -1.29989e-11
6.22138e-11 -1.29989e-11 55.9829

56.7427 -3.02635 8.14806e-11
-3.02635 56.5009 -9.01479e-11
8.14806e-11 -9.01479e-11 55.9784

46.8227 -4.99973 1.55064e-11
-4.99973 51.2422 3.5156e-11
1.55064e-11 3.5156e-11 49.1709

46.8409 5.01699 4.52471e-12
5.01699 51.1952 -2.8895e-11
4.52471e-12 -2.8895e-11 49.1819

43.8542 2.98769 7.89931e-12
2.98769 42.4564 2.79488e-12
7.89931e-12 2.79488e-12 41.8718

40.8136 -2.35583 -2.81643e-12
-2.35583 45.4897 -2.35993e-11
-2.81643e-12 -2.35993e-11 41.7309

41.3032 -2.94095 -1.17034e-11
-2.94095 46.4249 -2.87046e-11
-1.17034e-11 -2.87046e-11 42.3103

34.7265 -2.97314 4.86515e-12
-2.97314 33.883 -2.79372e-11
4.86515e-12 -2.79372e-11 29.9633

43.8252 -2.98296 -1.49309e-11
-2.98296 42.5362 -2.86553e-11
-1.49309e-11 -2.86553e-11 41.8374

40.6866 2.22308 -2.95721e-11
2.22308 45.2772 -1.14633e-11
-2.95721e-11 -1.14633e-11 41.5709

41.4607 4.1836 4.48895e-11
4.1836 43.0584 2.03275e-11
4.48895e-11 2.03275e-11 40.6184

44.72 -4.33109 -2.03238e-11
-4.33109 49.024 1.11735e-11
-2.03238e-11 1.11735e-11 47.53

44.7897 4.25147 -3.75666e-12
4.25147 49.0378 1.34852e-12
-3.75666e-12 1.34852e-12 47.5759

41.3706 -4.24624 -2.4756e-11
-4.24624 43.0043 2.46627e-11
-2.4756e-11 2.46627e-11 40.5292

49.3147 -0.421716 3.16891e-11
-0.421716 44.4333 3.12547e-11
3.16891e-11 3.12547e-11 46.26

53.2789 1.20108 2.79801e-11
1.20108 55.3398 -4.44943e-11
2.79801e-11 -4.44943e-11 53.4166

53.4053 1.05572 1.77331e-11
1.05572 55.3037 5.23941e-11
1.77331e-11 5.23941e-11 53.4726

44.6718 -3.72953 1.7338e-11
-3.72953 49.0568 -2.0517e-11
1.7338e-11 -2.0517e-11 46.1887

44.3025 1.82615 2.09017e-11
1.82615 41.9308 -1.3437e-11
2.09017e-11 -1.3437e-11 43.309

52.5737 -0.448927 -3.15932e-11
-0.448927 46.3207 3.56448e-12
-3.15932e-11 3.56448e-12 49.3229

25.86 -4.01479 -7.63241e-13
-4.01479 26.4762 -9.37233e-11
-7.63241e-13 -9.37233e-11 20.4265

26.0667 -3.9213 3.67546e-11
-3.9213 26.6033 5.97359e-12
3.67546e-11 5.97359e-12 20.5968

55.3347 -1.25858 -1.04019e-11
-1.25858 50.5499 2.14532e-11
-1.04019e-11 2.14532e-11 53.4762

55.2876 1.27958 -1.17506e-11
1.27958 50.5603 8.42733e-13
-1.17506e-11 8.42733e-13 53.488

52.7064 0.36953 -1.1174e-11
0.36953 46.558 -7.27326e-12
-1.1174e-11 -7.27326e-12 49.4775

41.2971 2.91951 -2.74519e-11
2.91951 46.2578 -6.93697e-12
-2.74519e-11 -6.93697e-12 42.231

42.8941 2.30168 -5.87545e-12
2.30168 40.4219 -4.42618e-11
-5.87545e-12 -4.42618e-11 38.9043

48.1709 -3.32567 -1.64681e-11
-3.32567 50.488 -3.93925e-11
-1.64681e-11 -3.93925e-11 48.8493

48.1555 3.29986 -1.96483e-11
3.29986 50.4827 1.90696e-11
-1.96483e-11 1.90696e-11 48.8599

55.3081 -0.602177 -2.29196e-11
-0.602177 52.0816 8.26063e-11
-2.29196e-11 8.26063e-11 53.1588

55.4047 0.608886 3.15923e-11
0.608886 52.5666 -1.93438e-10
3.15923e-11 -1.93438e-10 53.3323

42.9478 -4.2741 -1.26157e-11
-4.2741 48.277 -3.33275e-11
-1.26157e-11 -3.33275e-11 45.4839

44.6816 1.83364 2.23485e-11
1.83364 41.018 -1.59882e-11
2.23485e-11 -1.59882e-11 41.4484

52.7473 1.27187 -4.80356e-13
1.27187 51.172 -2.36e-12
-4.80356e-13 -2.36e-12 51.8073

52.7797 -1.27841 -2.23435e-11
-1.27841 51.1719 1.88299e-11
-2.23435e-11 1.88299e-11 51.7982

44.0479 -3.31747 7.31064e-11
-3.31747 48.0789 -2.2445e-11
7.31064e-11 -2.2445e-11 45.6079

43.15 -4.56102 -2.56663e-11
-4.56102 48.2396 -2.90888e-11
-2.56663e-11 -2.90888e-11 45.8922

12.8335 -7.45459 -2.32991e-11
-7.45459 13.2295 2.22859e-11
-2.32991e-11 2.22859e-11 7.40372

46.4558 3.11004 8.28308e-12
3.11004 50.8192 -1.14614e-11
8.28308e-12 -1.14614e-11 48.8125

46.4352 -3.157 -7.70828e-13
-3.157 50.8665 3.1786e-12
-7.70828e-13 3.1786e-12 48.8339

41.8951 -3.95179 -6.49851e-12
-3.95179 47.1571 -4.06494e-11
-6.49851e-12 -4.06494e-11 44.6699

43.3882 -2.48339 5.973e-12
-2.48339 40.6717 -1.08361e-11
5.973e-12 -1.08361e-11 39.2777

46.0392 -1.9792 -2.87993e-11
-1.9792 46.1672 -1.24258e-11
-2.87993e-11 -1.24258e-11 45.4937

46.467 2.69249 2.61979e-11
2.69249 48.6732 -1.86848e-11
2.61979e-11 -1.86848e-11 47.6956

46.4418 -2.79444 -8.38041e-12
-2.79444 48.793 8.28361e-12
-8.38041e-12 8.28361e-12 47.7432

48.1784 -0.403225 3.20769e-11
-0.403225 40.4254 -1.5073e-11
3.20769e-11 -1.5073e-11 44.5788

55.8303 0.989104 -6.16422e-12
0.989104 53.168 2.13806e-11
-6.16422e-12 2.13806e-11 54.7555

55.8907 -0.979446 1.93475e-13
-0.979446 53.1735 -2.7159e-11
1.93475e-13 -2.7159e-11 54.7689

53.1471 0.436974 3.57598e-11
0.436974 57.9583 -3.06267e-11
3.57598e-11 -3.06267e-11 53.6812

53.2166 0.291082 2.70137e-11
0.291082 57.9713 -1.34842e-11
2.70137e-11 -1.34842e-11 53.7127

20.2456 0.313238 2.8938e-13
0.313238 31.2381 -1.40451e-11
2.8938e-13 -1.40451e-11 16.4211

29.7837 0.278546 -5.07289e-11
0.278546 20.3177 5.9062e-13
-5.07289e-11 5.9062e-13 16.1417

46.0912 -4.27008 9.636e-13
-4.27008 50.6539 1.79143e-11
9.636e-13 1.79143e-11 47.9137

46.097 4.25796 2.46565e-11
4.25796 50.6325 2.06146e-11
2.46565e-11 2.06146e-11 47.9237

44.0197 -4.86029 -1.44515e-12
-4.86029 49.6438 8.47689e-12
-1.44515e-12 8.47689e-12 46.745

17.3988 -3.50375 9.41958e-12
-3.50375 25.4927 -2.36557e-11
9.41958e-12 -2.36557e-11 13.9781

24.854 -3.34936 3.75241e-11
-3.34936 18.2739 7.34424e-11
3.75241e-11 7.34424e-11 14.1293

55.8295 -4.46416 -3.87063e-11
-4.46416 59.3008 -1.29146e-10
-3.87063e-11 -1.29146e-10 57.1363

55.825 4.4634 -4.42357e-12
4.4634 59.3021 2.09373e-10
-4.42357e-12 2.09373e-10 57.1398

43.4207 -2.94969 1.64684e-11
-2.94969 44.9719 4.29601e-11
1.64684e-11 4.29601e-11 44.2838

41.6453 -4.09952 -1.03082e-11
-4.09952 44.4971 2.23483e-11
-1.03082e-11 2.23483e-11 41.5079

45.6317 -4.31545 -2.00326e-11
-4.31545 48.8888 -3.58307e-11
-2.00326e-11 -3.58307e-11 47.0466

45.6228 4.29862 3.01479e-11
4.29862 48.8699 3.56681e-12
3.01479e-11 3.56681e-12 47.0519

42.6278 -4.63047 2.11919e-11
-4.63047 46.6564 -2.45644e-11
2.11919e-11 -2.45644e-11 43.761

41.6347 4.10077 -2.77392e-11
4.10077 44.3626 5.38433e-11
-2.77392e-11 5.38433e-11 41.4639

27.7743 -1.32942 -4.11229e-13
-1.32942 35.438 4.91368e-11
-4.11229e-13 4.91368e-11 26.0185

27.3714 1.60989 -4.45593e-12
1.60989 34.8963 -1.54146e-11
-4.45593e-12 -1.54146e-11 25.8866

34.8295 -1.01276 -2.36032e-11
-1.01276 29.367 -2.32649e-11
-2.36032e-11 -2.32649e-11 26.3573

42.6151 4.60651 -5.9527e-11
4.60651 46.5838 -1.96551e-11
-5.9527e-11 -1.96551e-11 43.7137

21.9178 -0.826967 2.3338e-11
-0.826967 31.5443 2.34612e-11
2.3338e-11 2.34612e-11 21.5643

30.6423 -0.800978 2.83025e-11
-0.800978 22.1122 -1.30615e-11
2.83025e-11 -1.30615e-11 21.2846

47.9305 -4.21669 -2.71609e-11
-4.21669 51.2619 -1.55065e-11
-2.71609e-11 -1.55065e-11 49.5675

47.9493 4.19244 -2.47531e-11
4.19244 51.2516 -1.54121e-11
-2.47531e-11 -1.54121e-11 49.5854

48.5817 -3.66992 2.02157e-12
-3.66992 52.1405 4.71947e-12
2.02157e-12 4.71947e-12 50.2856

48.5857 3.65545 -1.82031e-11
3.65545 52.1182 2.5427e-11
-1.82031e-11 2.5427e-11 50.2937

16.5678 -3.52294 3.92057e-11
-3.52294 24.4813 -2.67442e-11
3.92057e-11 -2.67442e-11 12.9558

23.7812 -3.25885 -6.42002e-11
-3.25885 16.7904 -5.44172e-12
-6.42002e-11 -5.44172e-12 12.8191

44.9122 3.89124 -1.67604e-11
3.89124 47.798 -3.40038e-11
-1.67604e-11 -3.40038e-11 45.4522

44.9293 -3.92265 -2.7931e-12
-3.92265 47.8513 -7.22467e-12
-2.7931e-12 -7.22467e-12 45.4548

51.4655 -0.628363 1.74453e-11
-0.628363 52.9723 -1.82993e-11
1.74453e-11 -1.82993e-11 51.7527

51.5485 -0.833875 5.43357e-11
-0.833875 53.127 -1.34851e-11
5.43357e-11 -1.34851e-11 51.8419

47.9434 -4.23404 -2.61964e-11
-4.23404 53.1532 -1.91653e-11
-2.61964e-11 -1.91653e-11 50.5234

47.9337 4.25348 -1.146e-11
4.25348 53.1214 4.2369e-12
-1.146e-11 4.2369e-12 50.5291

53.8968 -1.66394 -3.85062e-12
-1.66394 52.0663 1.10756e-11
-3.85062e-12 1.10756e-11 53.4536

53.8688 1.66439 7.51281e-12
1.66439 52.0746 -7.23199e-13
7.51281e-12 -7.23199e-13 53.4563

44.4367 3.50469 -5.59595e-11
3.50469 47.8912 1.69507e-11
-5.59595e-11 1.69507e-11 46.1011

44.435 -3.49021 3.04353e-11
-3.49021 48.053 2.3791e-11
3.04353e-11 2.3791e-11 46.1667

51.1496 -1.31077 -3.38171e-11
-1.31077 56.3097 5.39373e-11
-3.38171e-11 5.39373e-11 52.6125

57.2837 -2.3925 -5.20064e-11
-2.3925 56.0666 1.25638e-12
-5.20064e-11 1.25638e-12 56.5141

57.0302 -2.45884 1.65643e-11
-2.45884 56.0684 4.8192e-13
1.65643e-11 4.8192e-13 56.4663

57.2453 2.40579 -9.24609e-12
2.40579 56.0608 1.49277e-11
-9.24609e-12 1.49277e-11 56.5042

57.0193 2.46475 1.15764e-10
2.46475 56.0654 -1.43202e-10
1.15764e-10 -1.43202e-10 56.4671

50.8743 -1.01719 -1.82984e-11
-1.01719 56.205 1.50248e-11
-1.82984e-11 1.50248e-11 52.4319

53.1247 -2.68269 2.8893e-11
-2.68269 53.0237 8.28349e-12
2.8893e-11 8.28349e-12 52.2282

53.01 2.77472 -4.31468e-11
2.77472 53.069 6.16283e-12
-4.31468e-11 6.16283e-12 52.2526

55.2126 -3.48213 -1.81639e-10
-3.48213 57.146 2.98668e-10
-1.81639e-10 2.98668e-10 55.2038

65.9937 -2.60087 2.14386e-10
-2.60087 56.809 7.8751e-11
2.14386e-10 7.8751e-11 58.2052

65.9941 2.59896 -1.0211e-09
2.59896 56.8175 7.17921e-10
-1.0211e-09 7.17921e-10 58.2125

55.2041 3.48385 1.15955e-10
3.48385 57.1412 7.64755e-11
1.15955e-10 7.64755e-11 55.2082

55.8057 -3.6942 2.88929e-11
-3.6942 55.6747 -2.53306e-11
2.88929e-11 -2.53306e-11 54.7131

51.9076 -2.97912 -2.59071e-11
-2.97912 54.8647 -2.19572e-11
-2.59071e-11 -2.19572e-11 52.8547

56.672 -2.84578 7.69274e-13
-2.84578 56.6615 2.33066e-11
7.69274e-13 2.33066e-11 55.9941

55.7998 3.69602 7.41601e-11
3.69602 55.6585 5.03737e-11
7.41601e-11 5.03737e-11 54.716

56.6693 2.84821 1.8885e-11
2.84821 56.664 1.92135e-10
1.8885e-11 1.92135e-10 56

51.906 2.97831 -2.28238e-11
2.97831 54.843 4.14052e-12
-2.28238e-11 4.14052e-12 52.8581

52.0505 -3.07238 -8.95639e-12
-3.07238 54.958 1.17522e-11
-8.95639e-12 1.17522e-11 53.3841

55.1715 -2.50256 3.71747e-11
-2.50256 56.1155 2.14752e-11
3.71747e-11 2.14752e-11 55.1591

52.0498 3.07025 -3.30351e-11
3.07025 54.9417 -2.24433e-11
-3.30351e-11 -2.24433e-11 53.3881

55.1575 2.49899 -2.63883e-11
2.49899 56.0979 1.80079e-11
-2.63883e-11 1.80079e-11 55.1588

44.4549 2.01222 -1.27122e-11
2.01222 46.9741 -1.02104e-11
-1.27122e-11 -1.02104e-11 45.4449

41.8832 -0.581058 -1.91187e-13
-0.581058 48.0379 -7.70709e-12
-1.91187e-13 -7.70709e-12 45.2788

43.184 -0.647816 -1.65665e-11
-0.647816 37.2919 8.8638e-12
-1.65665e-11 8.8638e-12 40.8187

41.5075 0.0206589 1.02097e-11
0.0206589 35.8994 1.8687e-11
1.02097e-11 1.8687e-11 38.4944

45.0703 2.01823 5.00782e-12
2.01823 48.0472 -4.81644e-12
5.00782e-12 -4.81644e-12 47.4793

42.9341 -0.87834 4.04485e-12
-0.87834 51.2414 -7.32125e-12
4.04485e-12 -7.32125e-12 47.7353

41.5589 1.13345 1.05966e-11
1.13345 35.9759 1.03993e-11
1.05966e-11 1.03993e-11 38.6562

47.1605 1.44299 -8.3797e-12
1.44299 41.3865 -7.31977e-12
-8.3797e-12 -7.31977e-12 45.6646

29.6619 2.87454 -1.9074e-11
2.87454 33.7123 1.73391e-11
-1.9074e-11 1.73391e-11 31.0246

29.8572 2.78517 -7.51425e-12
2.78517 33.7743 -1.44501e-11
-7.51425e-12 -1.44501e-11 30.7258

33.0704 2.50604 1.63843e-11
2.50604 29.4112 3.67982e-11
1.63843e-11 3.67982e-11 30.2571

47.8269 1.26517 -7.72678e-13
1.26517 51.1442 -1.57966e-11
-7.72678e-13 -1.57966e-11 49.1815

48.1996 -2.44096 -8.6681e-12
-2.44096 49.5754 1.11728e-11
-8.6681e-12 1.11728e-11 48.9247

41.5352 -3.10693 -4.23868e-12
-3.10693 42.4025 -4.46927e-11
-4.23868e-12 -4.46927e-11 41.7003

42.7998 1.05428 -1.77232e-11
1.05428 51.2639 6.16392e-12
-1.77232e-11 6.16392e-12 47.5902

44.8315 -1.16785 -1.73517e-12
-1.16785 47.6979 2.6391e-11
-1.73517e-12 2.6391e-11 47.265

44.7524 0.802304 -1.44455e-12
0.802304 37.8171 9.63179e-12
-1.44455e-12 9.63179e-12 41.3684

32.1429 1.32526 -1.40635e-11
1.32526 37.7509 -5.31803e-11
-1.40635e-11 -5.31803e-11 33.7797

32.9492 1.00917 3.75526e-12
1.00917 37.2824 2.58179e-11
3.75526e-12 2.58179e-11 33.6745

37.0425 0.774342 2.62091e-11
0.774342 32.26 4.81619e-11
2.62091e-11 4.81619e-11 33.1153

37.7021 3.0984 1.90724e-11
3.0984 41.2341 -1.77237e-11
1.90724e-11 -1.77237e-11 38.5512

36.5981 -1.85883 -1.76256e-11
-1.85883 41.2013 -3.27534e-11
-1.76256e-11 -3.27534e-11 38.6453

43.5858 1.78702 -1.17577e-11
1.78702 37.3105 4.04722e-12
-1.17577e-11 4.04722e-12 41.169

28.0754 2.10146 -9.05146e-12
2.10146 31.1215 1.5798e-11
-9.05146e-12 1.5798e-11 28.1949

46.7357 -0.800528 -4.24135e-12
-0.800528 39.4731 -1.13669e-11
-4.24135e-12 -1.13669e-11 44.6142

49.511 0.540757 1.1751e-11
0.540757 50.1647 -1.9456e-11
1.1751e-11 -1.9456e-11 49.4791

48.194 -0.143248 -8.86069e-12
-0.143248 52.6686 -4.62101e-12
-8.86069e-12 -4.62101e-12 49.662

60.211 3.13312 6.93271e-12
3.13312 54.7695 -3.62114e-11
6.93271e-12 -3.62114e-11 54.0379

59.5259 -1.40399 -1.23287e-11
-1.40399 51.8767 1.90692e-11
-1.23287e-11 1.90692e-11 53.6262

40.1926 -3.55025 -4.43109e-12
-3.55025 41.8503 -3.37147e-11
-4.43109e-12 -3.37147e-11 40.97

36.8267 -2.99133 -3.27819e-12
-2.99133 40.4418 -1.05991e-11
-3.27819e-12 -1.05991e-11 38.0305

36.3765 -0.0350457 2.02223e-12
-0.0350457 30.9981 -2.8896e-11
2.02223e-12 -2.8896e-11 32.7169

52.0527 1.94017 3.54479e-11
1.94017 48.5678 1.07872e-11
3.54479e-11 1.07872e-11 49.661

51.2552 -0.532017 5.77642e-12
-0.532017 47.7574 3.17837e-11
5.77642e-12 3.17837e-11 49.3402

47.0183 -0.314669 -2.81262e-11
-0.314669 39.7582 3.46778e-12
-2.81262e-11 3.46778e-12 45.5009

36.1074 -2.27183 8.95761e-12
-2.27183 39.7998 -2.23477e-11
8.95761e-12 -2.23477e-11 38.0022

46.2418 0.442254 3.56285e-12
0.442254 38.6029 2.94739e-11
3.56285e-12 2.94739e-11 44.5092

39.1149 -2.23203 -6.55009e-12
-2.23203 36.6904 9.25008e-12
-6.55009e-12 9.25008e-12 36.9125

36.9087 3.28352 1.4063e-11
3.28352 39.1186 1.19428e-11
1.4063e-11 1.19428e-11 37.9311

39.3927 2.43804 5.39635e-12
2.43804 34.2181 2.9283e-11
5.39635e-12 2.9283e-11 36.1772

38.5826 -1.41003 4.23868e-12
-1.41003 33.8449 3.87986e-13
4.23868e-12 3.87986e-13 35.7136

37.0351 2.76868 3.94934e-11
2.76868 41.0575 2.08077e-11
3.94934e-11 2.08077e-11 38.5601

40.0509 -2.05869 -8.37869e-12
-2.05869 46.584 -6.9349e-12
-8.37869e-12 -6.9349e-12 44.5714

41.923 3.67676 2.1287e-11
3.67676 46.4825 2.23485e-11
2.1287e-11 2.23485e-11 44.64

37.7352 -2.5911 -6.54869e-12
-2.5911 41.0013 -2.293e-11
-6.54869e-12 -2.293e-11 38.5778

37.0864 3.40156 -8.66903e-12
3.40156 40.7921 1.63751e-11
-8.66903e-12 1.63751e-11 38.1451

21.8977 -2.872 -6.93715e-12
-2.872 22.3764 4.54768e-11
-6.93715e-12 4.54768e-11 22.3087

21.6488 3.29963 -1.96546e-11
3.29963 22.8447 -3.66307e-12
-1.96546e-11 -3.66307e-12 22.1472

42.5344 2.82208 1.94537e-11
2.82208 48.8767 -1.65697e-11
1.94537e-11 -1.65697e-11 47.0359

44.3583 -3.29665 -4.75806e-11
-3.29665 48.1285 6.35925e-12
-4.75806e-11 6.35925e-12 47.1214

38.5785 3.10815 2.59111e-11
3.10815 43.2962 -4.6223e-12
2.59111e-11 -4.6223e-12 40.8833

21.7426 1.06182 1.3296e-11
1.06182 21.8663 -1.38734e-11
1.3296e-11 -1.38734e-11 22.7288

21.7615 -0.017486 2.44684e-11
-0.017486 22.8374 1.27199e-11
2.44684e-11 1.27199e-11 23.0943

48.582 -2.36969 4.83977e-11
-2.36969 49.5882 -1.69524e-11
4.83977e-11 -1.69524e-11 49.5719

49.0392 1.15526 4.82527e-11
1.15526 50.5909 -2.94747e-11
4.82527e-11 -2.94747e-11 49.7607

47.3919 -0.0678807 4.4306e-12
-0.0678807 39.2589 -1.27154e-11
4.4306e-12 -1.27154e-11 43.4095

48.6567 -2.20813 5.50953e-11
-2.20813 49.6949 2.69622e-11
5.50953e-11 2.69622e-11 49.5725

48.8146 0.792756 -1.48556e-11
0.792756 49.0611 6.33766e-11
-1.48556e-11 6.33766e-11 49.404

37.4848 -1.95632 -3.17903e-11
-1.95632 43.2691 5.24016e-11
-3.17903e-11 5.24016e-11 40.9676

56.4049 2.9626 -7.20439e-11
2.9626 53.0343 -6.93223e-12
-7.20439e-11 -6.93223e-12 52.5872

56.5915 -2.44198 -3.62168e-11
-2.44198 50.2847 2.23434e-11
-3.62168e-11 2.23434e-11 52.3711

45.5048 -2.37013 -4.60409e-11
-2.37013 45.3733 2.9814e-11
-4.60409e-11 2.9814e-11 46.2693

45.7186 1.80413 -2.22986e-11
1.80413 45.8937 2.34054e-11
-2.22986e-11 2.34054e-11 46.2929

51.0673 0.188574 7.1297e-12
0.188574 57.5821 -1.15608e-12
7.1297e-12 -1.15608e-12 52.3869

50.7458 1.43013 5.97035e-12
1.43013 53.8178 1.52176e-11
5.97035e-12 1.52176e-11 51.6869

26.6764 0.982891 1.44551e-11
0.982891 29.8145 3.27331e-12
1.44551e-11 3.27331e-12 27.2673

29.6351 1.00511 -3.46865e-11
1.00511 26.7739 -1.54108e-11
-3.46865e-11 -1.54108e-11 27.2643

41.0616 2.9513 -2.92802e-11
2.9513 45.7916 3.85258e-12
-2.92802e-11 3.85258e-12 43.7531

39.1317 -1.80014 -6.7411e-12
-1.80014 46.11 -3.08256e-11
-6.7411e-12 -3.08256e-11 43.6334

57.782 -3.88586 2.2659e-10
-3.88586 62.2063 2.5887e-10
2.2659e-10 2.5887e-10 55.8609

58.2519 2.3167 -1.46685e-10
2.3167 54.3264 -4.16093e-11
-1.46685e-10 -4.16093e-11 54.4201

39.0679 3.13154 4.85521e-11
3.13154 37.212 -3.54481e-11
4.85521e-11 -3.54481e-11 37.4975

45.312 1.20287 1.92676e-11
1.20287 41.2011 1.57947e-11
1.92676e-11 1.57947e-11 43.8415

45.0583 -1.57551 -1.83466e-11
-1.57551 41.0505 2.58168e-11
-1.83466e-11 2.58168e-11 43.7956

49.6549 -1.69323 -9.24786e-12
-1.69323 43.603 -1.57988e-11
-9.24786e-12 -1.57988e-11 47.7393

36.2673 0.716028 1.15315e-12
0.716028 30.9786 9.6357e-12
1.15315e-12 9.6357e-12 32.782

62.0055 0.218818 -4.93135e-11
0.218818 54.0202 -5.78311e-12
-4.93135e-11 -5.78311e-12 54.7948

61.6381 -0.442366 -1.18268e-10
-0.442366 59.5908 7.33278e-12
-1.18268e-10 7.33278e-12 55.5086

40.6673 3.75836 3.73746e-11
3.75836 38.7463 -2.08057e-11
3.73746e-11 -2.08057e-11 40.007

45.3197 0.994612 -1.68564e-11
0.994612 40.0291 -2.85122e-11
-1.68564e-11 -2.85122e-11 42.167

33.7263 3.06007 -3.12125e-11
3.06007 34.8809 2.59659e-12
-3.12125e-11 2.59659e-12 33.0181

53.9108 -1.73994 -7.18436e-11
-1.73994 59.4026 1.54236e-12
-7.18436e-11 1.54236e-12 53.6826

52.1114 1.08877 5.20083e-11
1.08877 53.9744 3.13007e-11
5.20083e-11 3.13007e-11 52.453

50.6751 3.15635 4.24072e-12
3.15635 45.5732 3.35177e-11
4.24072e-12 3.35177e-11 48.4007

44.2906 -0.989964 1.15571e-11
-0.989964 46.8004 1.69518e-11
1.15571e-11 1.69518e-11 45.3209

41.7486 0.700237 -7.99332e-12
0.700237 48.1198 1.11729e-11
-7.99332e-12 1.11729e-11 45.1816

48.0543 -0.483379 -1.31232e-11
-0.483379 40.3347 1.07882e-11
-1.31232e-11 1.07882e-11 44.9571

48.5147 0.355844 2.45626e-11
0.355844 40.2225 -1.1754e-11
2.45626e-11 -1.1754e-11 45.0491

34.7409 -2.01544 2.48599e-11
-2.01544 33.4797 -6.54773e-12
2.48599e-11 -6.54773e-12 32.6825

42.973 0.10401 4.96598e-11
0.10401 36.3848 7.7028e-12
4.96598e-11 7.7028e-12 38.9213

49.2711 0.403396 4.1515e-11
0.403396 43.5884 1.81077e-11
4.1515e-11 1.81077e-11 47.1593

48.5976 -0.864728 -3.54054e-12
-0.864728 44.0923 1.34845e-11
-3.54054e-12 1.34845e-11 47.1628

44.9653 -1.18045 5.62577e-11
-1.18045 39.5413 -4.6253e-12
5.62577e-11 -4.6253e-12 42.045

48.5159 -0.555775 -3.89133e-11
-0.555775 42.4018 2.65864e-11
-3.89133e-11 2.65864e-11 45.6997

49.1072 0.238797 -3.00963e-12
0.238797 42.5325 -2.50355e-12
-3.00963e-12 -2.50355e-12 45.8449

44.6891 2.48915 -2.13852e-11
2.48915 39.7327 1.77231e-11
-2.13852e-11 1.77231e-11 42.5287

35.5446 -3.30253 3.14047e-11
-3.30253 35.1911 4.04328e-12
3.14047e-11 4.04328e-12 34.6431

42.7535 4.30298 -3.1883e-11
4.30298 46.9582 -5.20273e-12
-3.1883e-11 -5.20273e-12 45.3786

41.6511 -3.66133 -3.94743e-12
-3.66133 45.0255 2.54304e-11
-3.94743e-12 2.54304e-11 45.1138

41.3018 -2.73322 -1.82926e-12
-2.73322 45.3875 -1.31002e-11
-1.82926e-12 -1.31002e-11 45.4441

43.3327 4.54271 -1.00174e-11
4.54271 48.0545 6.3568e-12
-1.00174e-11 6.3568e-12 46.0285

39.8372 1.57834 1.44906e-12
1.57834 33.9271 5.25933e-11
1.44906e-12 5.25933e-11 36.1762

31.1828 -1.88548 3.95019e-11
-1.88548 28.9763 -2.35115e-11
3.95019e-11 -2.35115e-11 28.8701

45.5875 3.58987 -3.46219e-12
3.58987 41.8348 -3.08635e-12
-3.46219e-12 -3.08635e-12 44.3541

44.0703 -1.20196 -2.73594e-11
-1.20196 39.415 1.01719e-10
-2.73594e-11 1.01719e-10 41.8923

31.7504 -1.46627 2.11952e-11
-1.46627 28.7501 3.27468e-12
2.11952e-11 3.27468e-12 29.0895

40.3425 -2.91597 3.81547e-13
-2.91597 38.5837 2.25403e-11
3.81547e-13 2.25403e-11 39.6269

38.4583 0.0194756 -2.40789e-11
0.0194756 46.991 -1.07877e-11
-2.40789e-11 -1.07877e-11 43.4058

40.2954 0.452333 2.94737e-11
0.452333 44.6215 1.15595e-11
2.94737e-11 1.15595e-11 43.1773

35.985 3.73799 3.46778e-12
3.73799 36.1075 -1.19461e-11
3.46778e-12 -1.19461e-11 35.6275

33.7471 -2.16708 3.12119e-11
-2.16708 30.0627 7.70424e-12
3.12119e-11 7.70424e-12 31.0349

43.3995 3.98268 2.40847e-11
3.98268 44.6147 6.35749e-11
2.40847e-11 6.35749e-11 45.377

43.248 -3.81631 6.93582e-12
-3.81631 45.871 1.04019e-11
6.93582e-12 1.04019e-11 45.229

35.4529 -2.81943 1.67582e-11
-2.81943 37.7795 3.27489e-11
1.67582e-11 3.27489e-11 35.8476

35.8433 -3.10876 1.98411e-11
-3.10876 37.4874 -3.1406e-11
1.98411e-11 -3.1406e-11 35.6102

44.3043 2.90137 -1.27135e-11
2.90137 40.0604 -3.47022e-12
-1.27135e-11 -3.47022e-12 42.2388

49.7114 1.78539 -2.69723e-11
1.78539 40.6662 -2.77384e-11
-2.69723e-11 -2.77384e-11 47.106

49.6059 -1.21718 -1.11724e-11
-1.21718 39.6765 -2.23456e-11
-1.11724e-11 -2.23456e-11 46.9186

35.0757 2.30666 -1.92674e-11
2.30666 40.0329 -1.63782e-11
-1.92674e-11 -1.63782e-11 36.6999

41.2246 3.54658 2.65865e-11
3.54658 40.5409 1.96515e-11
2.65865e-11 1.96515e-11 40.7986

29.1255 0.333475 -3.0818e-12
0.333475 36.2598 -3.85368e-11
-3.0818e-12 -3.85368e-11 32.0445

29.927 0.185156 -5.97347e-12
0.185156 35.9809 8.67032e-12
-5.97347e-12 8.67032e-12 31.9849

35.9103 0.15145 1.05804e-12
0.15145 29.2146 -2.31223e-11
1.05804e-12 -2.31223e-11 31.5793

36.7347 -2.66522 1.14646e-11
-2.66522 34.8711 1.84921e-11
1.14646e-11 1.84921e-11 35.4646

53.2415 -1.83049 -2.46535e-11
-1.83049 56.6294 4.74838e-11
-2.46535e-11 4.74838e-11 53.6741

63.0384 0.942257 2.27276e-11
0.942257 63.0698 3.23593e-11
2.27276e-11 3.23593e-11 56.6341

38.1507 3.19872 3.21727e-11
3.19872 34.047 -3.73767e-11
3.21727e-11 -3.73767e-11 35.574

40.137 -1.33184 -1.12731e-11
-1.33184 34.1043 -3.73775e-11
-1.12731e-11 -3.73775e-11 36.5428

31.7935 2.24615 1.98466e-11
2.24615 28.4692 -1.31011e-11
1.98466e-11 -1.31011e-11 29.294

39.1413 -2.3316 -5.10593e-12
-2.3316 43.8973 3.54485e-11
-5.10593e-12 3.54485e-11 42.7216

41.0413 4.22301 2.13845e-11
4.22301 45.3318 1.61842e-11
2.13845e-11 1.61842e-11 43.0752

47.373 -0.0620491 1.50261e-11
-0.0620491 39.2058 -1.38711e-11
1.50261e-11 -1.38711e-11 43.3702

33.6796 2.12507 1.15411e-12
2.12507 39.7724 2.69814e-12
1.15411e-12 2.69814e-12 36.5507

41.5391 -2.82426 4.23811e-12
-2.82426 48.8597 1.1944e-11
4.23811e-12 1.1944e-11 46.9831

44.3109 3.9635 -6.93449e-12
3.9635 48.829 1.79159e-11
-6.93449e-12 1.79159e-11 47.2911

33.3181 2.48887 -8.98806e-11
2.48887 34.8148 -1.32976e-11
-8.98806e-11 -1.32976e-11 32.601

34.2932 2.62423 7.12637e-12
2.62423 33.8357 -4.45054e-11
7.12637e-12 -4.45054e-11 32.3689

32.058 2.01604 -1.61855e-11
2.01604 28.7234 5.77873e-12
-1.61855e-11 5.77873e-12 29.487

43.1897 4.35999 -1.83478e-11
4.35999 48.654 2.31168e-11
-1.83478e-11 2.31168e-11 46.2316

41.3038 -3.15149 -5.3927e-12
-3.15149 44.4847 3.85331e-12
-5.3927e-12 3.85331e-12 45.4153

50.0586 0.126619 -4.39734e-11
0.126619 40.4639 -5.77924e-12
-4.39734e-11 -5.77924e-12 46.0077

42.6541 2.97791 -1.15613e-12
2.97791 44.687 1.04043e-11
-1.15613e-12 1.04043e-11 45.6891

43.4863 -3.71316 -2.88995e-12
-3.71316 47.7806 7.51366e-12
-2.88995e-12 7.51366e-12 46.1743

41.5159 3.60433 2.69096e-12
3.60433 42.2053 -3.96863e-11
2.69096e-12 -3.96863e-11 42.608

32.4243 -0.78081 -4.81656e-11
-0.78081 38.0689 -4.31567e-11
-4.81656e-11 -4.31567e-11 34.2248

33.4337 -1.03453 -4.16159e-11
-1.03453 37.9367 -1.56077e-11
-4.16159e-11 -1.56077e-11 34.2491

37.3005 -0.635514 -2.22579e-11
-0.635514 32.6242 -4.35399e-11
-2.22579e-11 -4.35399e-11 33.6942

37.4582 -2.20171 3.31382e-11
-2.20171 37.4196 3.044e-11
3.31382e-11 3.044e-11 36.8872

39.5114 0.383562 1.52194e-11
0.383562 43.3142 -2.19616e-11
1.52194e-11 -2.19616e-11 40.5112

37.2741 0.126638 -7.32053e-12
0.126638 44.0219 2.89009e-11
-7.32053e-12 2.89009e-11 40.3568

31.1492 -2.4642 -1.63774e-11
-2.4642 33.6315 -1.90958e-13
-1.63774e-11 -1.90958e-13 31.1214

30.9161 -2.34508 2.29279e-11
-2.34508 32.9341 -8.48159e-12
2.29279e-11 -8.48159e-12 31.0157

50.4526 -0.139325 -3.35212e-11
-0.139325 41.0067 -2.42709e-11
-3.35212e-11 -2.42709e-11 46.2403

50.0227 0.155096 1.01204e-12
0.155096 41.1745 2.31148e-11
1.01204e-12 2.31148e-11 46.1711

40.5872 -2.91235 -2.51383e-11
-2.91235 43.4177 1.54336e-12
-2.51383e-11 1.54336e-12 43.2936

41.5244 3.82628 2.80296e-11
3.82628 45.9041 1.13658e-11
2.80296e-11 1.13658e-11 43.6523

41.5216 2.46797 9.82222e-12
2.46797 48.4383 1.92524e-12
9.82222e-12 1.92524e-12 46.8109

44.1945 -3.62579 9.82547e-12
-3.62579 48.3994 -2.81265e-11
9.82547e-12 -2.81265e-11 47.1316

43.5165 -2.90341 -2.13833e-11
-2.90341 43.0534 3.66029e-12
-2.13833e-11 3.66029e-12 43.9813

33.8615 -1.52491 -3.34224e-11
-1.52491 40.2481 -5.70278e-11
-3.34224e-11 -5.70278e-11 36.7747

48.3594 0.458129 9.02955e-12
0.458129 46.8282 1.73377e-11
9.02955e-12 1.73377e-11 47.9357

47.6977 -1.45252 5.94772e-11
-1.45252 46.171 1.89733e-11
5.94772e-11 1.89733e-11 47.7534

41.8371 -2.2422 -4.95108e-11
-2.2422 40.1293 -5.77653e-12
-4.95108e-11 -5.77653e-12 40.9372

45.5223 -1.90369 -1.49281e-12
-1.90369 42.9978 -5.12427e-11
-1.49281e-12 -5.12427e-11 44.5819

45.9916 1.60382 1.28081e-11
1.60382 44.1632 3.44836e-11
1.28081e-11 3.44836e-11 44.7875

20.5841 -0.87743 3.58415e-11
-0.87743 17.4367 -4.23935e-11
3.58415e-11 -4.23935e-11 21.7671

36.0436 3.78109 2.02564e-12
3.78109 37.5383 3.39109e-11
2.02564e-12 3.39109e-11 35.7602

18.6657 1.81085 1.23351e-11
1.81085 21.0967 1.69625e-11
1.23351e-11 1.69625e-11 22.0271

35.1005 -2.03334 -6.93654e-12
-2.03334 39.9762 -2.77457e-11
-6.93654e-12 -2.77457e-11 36.7989

51.9467 -1.99118 3.50664e-11
-1.99118 54.2179 -5.04717e-11
3.50664e-11 -5.04717e-11 52.3149

53.184 0.798151 -5.54873e-11
0.798151 52.3216 1.5796e-11
-5.54873e-11 1.5796e-11 52.1577

42.1722 2.45992 -1.50287e-11
2.45992 41.1601 -2.50699e-12
-1.50287e-11 -2.50699e-12 41.0414

42.9262 -0.133836 8.18938e-12
-0.133836 36.1603 -1.15626e-11
8.18938e-12 -1.15626e-11 38.9001

37.1731 3.06704 2.29243e-11
3.06704 34.8208 -4.33492e-11
2.29243e-11 -4.33492e-11 35.2427

39.4398 1.48526 7.8951e-12
1.48526 46.8973 -2.31183e-11
7.8951e-12 -2.31183e-11 43.8376

41.0991 -2.05023 -1.56053e-11
-2.05023 45.196 9.24882e-12
-1.56053e-11 9.24882e-12 43.6682

48.1764 3.40016 7.51258e-12
3.40016 50.0345 7.60836e-12
7.51258e-12 7.60836e-12 49.0892

48.0298 -1.88241 6.16287e-12
-1.88241 50.7318 1.34996e-12
6.16287e-12 1.34996e-12 49.2479

42.8025 4.62931 2.88965e-12
4.62931 47.9498 9.05483e-12
2.88965e-12 9.05483e-12 45.9206

39.1655 -4.38741 -1.89734e-11
-4.38741 45.2686 -9.63141e-12
-1.89734e-11 -9.63141e-12 45.0956

37.8219 2.39993 1.58001e-11
2.39993 43.1057 2.58154e-11
1.58001e-11 2.58154e-11 40.98

36.7359 1.21682 -3.49654e-11
1.21682 42.0415 6.93356e-12
-3.49654e-11 6.93356e-12 39.0592

42.1824 -2.69293 2.42713e-11
-2.69293 41.7469 -4.31543e-11
2.42713e-11 -4.31543e-11 42.7462

42.4038 2.8485 1.62786e-11
2.8485 42.6791 3.37138e-11
1.62786e-11 3.37138e-11 42.8086

38.2363 2.90434 4.5371e-11
2.90434 38.4599 4.04795e-12
4.5371e-11 4.04795e-12 37.1287

38.6666 -2.84815 -2.56229e-11
-2.84815 43.1264 9.43845e-12
-2.56229e-11 9.43845e-12 40.985

35.5907 -0.505625 -5.77742e-13
-0.505625 43.0326 5.70304e-11
-5.77742e-13 5.70304e-11 39.2582

25.431 2.05172 1.63764e-11
2.05172 26.8563 -2.31254e-11
1.63764e-11 -2.31254e-11 25.2521

26.6417 2.12332 1.57991e-11
2.12332 25.5426 -3.68083e-11
1.57991e-11 -3.68083e-11 25.2524

32.7601 -2.46245 1.27189e-11
-2.46245 33.5799 3.10208e-11
1.27189e-11 3.10208e-11 31.8414

44.4891 -0.922835 2.8952e-11
-0.922835 37.7588 1.54035e-12
2.8952e-11 1.54035e-12 41.3122

56.5843 -3.09088 3.10692e-11
-3.09088 58.3467 9.82362e-11
3.10692e-11 9.82362e-11 54.7527

59.2037 3.20957 -7.16865e-11
3.20957 54.5095 1.66224e-10
-7.16865e-11 1.66224e-10 54.5219

53.1123 3.13958 -2.81235e-11
3.13958 53.1665 -4.23802e-11
-2.81235e-11 -4.23802e-11 51.7056

51.5061 -0.822277 1.69527e-11
-0.822277 49.7799 1.92589e-12
1.69527e-11 1.92589e-12 50.922

44.7283 -0.0347425 -2.48501e-11
-0.0347425 38.5068 8.28574e-12
-2.48501e-11 8.28574e-12 42.7177

42.8423 -4.11375 1.38697e-11
-4.11375 47.307 2.11838e-12
1.38697e-11 2.11838e-12 45.8097

39.9597 4.29716 1.67568e-11
4.29716 45.176 -2.08061e-11
1.67568e-11 -2.08061e-11 45.1435

26.6711 -2.00069 3.08612e-12
-2.00069 27.6276 -1.73433e-11
3.08612e-12 -1.73433e-11 26.2943

26.9043 2.58049 7.51525e-12
2.58049 26.9506 1.21403e-11
7.51525e-12 1.21403e-11 26.3924

26.7861 -0.932072 -5.85763e-11
-0.932072 30.9649 4.31657e-11
-5.85763e-11 4.31657e-11 28.0913

28.056 -1.14702 -2.85178e-11
-1.14702 31.5244 7.32377e-12
-2.85178e-11 7.32377e-12 28.5721

31.2381 -0.802054 -2.6208e-11
-0.802054 27.0491 5.03847e-11
-2.6208e-11 5.03847e-11 28.0896

33.2404 3.03599 -2.50518e-12
3.03599 32.6573 -5.35622e-11
-2.50518e-12 -5.35622e-11 32.1024

24.2777 0.904618 2.33137e-11
0.904618 29.403 4.54717e-11
2.33137e-11 4.54717e-11 26.3523

29.1102 0.199199 1.57989e-11
0.199199 24.4573 1.27172e-11
1.57989e-11 1.27172e-11 26.3239

50.2349 -0.359794 -3.06264e-11
-0.359794 55.0851 -1.15571e-11
-3.06264e-11 -1.15571e-11 51.3724

49.9613 -1.32084 -1.29082e-11
-1.32084 51.6842 2.88769e-13
-1.29082e-11 2.88769e-13 50.7309

47.1852 -1.02689 4.56613e-11
-1.02689 42.8203 -3.8527e-11
4.56613e-11 -3.8527e-11 45.4692

47.3283 0.454686 -1.92701e-12
0.454686 36.9908 2.54275e-11
-1.92701e-12 2.54275e-11 45.0475

31.8189 -2.00247 -1.50279e-11
-2.00247 35.9404 -2.33102e-11
-1.50279e-11 -2.33102e-11 32.9415

31.6685 -1.44153 2.13817e-11
-1.44153 35.9828 2.1965e-11
2.13817e-11 2.1965e-11 33.1701

45.3512 0.959836 2.50126e-12
0.959836 38.9486 1.32932e-11
2.50126e-12 1.32932e-11 43.0606

50.6842 -0.953383 -5.91852e-11
-0.953383 51.2885 -1.23266e-11
-5.91852e-11 -1.23266e-11 50.8822

51.9496 -0.0134857 2.73545e-11
-0.0134857 50.3498 4.02587e-11
2.73545e-11 4.02587e-11 50.9047

45.2514 -2.02557 1.59898e-11
-2.02557 44.4734 -1.05928e-11
1.59898e-11 -1.05928e-11 45.0598

42.016 3.35532 -2.87004e-11
3.35532 43.3324 1.77233e-11
-2.87004e-11 1.77233e-11 43.5055

41.3105 -3.52911 1.00182e-11
-3.52911 45.0941 1.52191e-11
1.00182e-11 1.52191e-11 43.3419

46.2347 -0.913419 3.71799e-11
-0.913419 39.4956 1.11718e-11
3.71799e-11 1.11718e-11 44.067

39.9162 2.81723 1.1176e-11
2.81723 43.7626 1.88808e-11
1.1176e-11 1.88808e-11 42.8732

41.1469 -3.73937 -4.81574e-12
-3.73937 44.6767 -1.25211e-11
-4.81574e-12 -1.25211e-11 43.0369

20.8947 -4.18334 1.44506e-11
-4.18334 21.2007 6.74377e-12
1.44506e-11 6.74377e-12 21.4129

35.6151 0.894917 -5.97222e-12
0.894917 42.8702 8.47811e-12
-5.97222e-12 8.47811e-12 39.114

37.0632 -0.81265 1.15615e-12
-0.81265 41.7552 -1.233e-11
1.15615e-12 -1.233e-11 39.0681

49.6539 0.440348 4.23863e-12
0.440348 57.1809 -2.61988e-11
4.23863e-12 -2.61988e-11 51.8156

50.2886 -0.0497964 1.53887e-12
-0.0497964 51.5004 2.35963e-11
1.53887e-12 2.35963e-11 50.956

50.4353 -0.17224 -6.3568e-12
-0.17224 42.8841 2.04174e-11
-6.3568e-12 2.04174e-11 47.5081

51.1434 0.276272 -5.78038e-13
0.276272 42.4941 -2.02252e-11
-5.78038e-13 -2.02252e-11 47.5733

48.219 4.02922 1.04046e-11
4.02922 46.1949 1.04029e-11
1.04046e-11 1.04029e-11 47.5733

46.8725 -2.29718 8.08916e-12
-2.29718 45.2526 2.81235e-11
8.08916e-12 2.81235e-11 46.988

53.7502 1.47467 -3.62147e-11
1.47467 51.6573 -3.66439e-12
-3.62147e-11 -3.66439e-12 51.276

51.8024 -0.804636 2.15736e-11
-0.804636 51.5844 -2.04187e-11
2.15736e-11 -2.04187e-11 51.0209

55.3862 1.67926 1.15998e-10
1.67926 53.7458 3.31319e-11
1.15998e-10 3.31319e-11 53.3808

55.7514 -4.75864 -7.06656e-11
-4.75864 57.8519 4.77777e-11
-7.06656e-11 4.77777e-11 54.2678

44.7706 4.19475 -8.3296e-12
4.19475 49.0884 5.3932e-12
-8.3296e-12 5.3932e-12 47.5508

42.5904 -5.18647 -1.05893e-12
-5.18647 46.058 -3.04396e-11
-1.05893e-12 -3.04396e-11 46.837

41.6329 2.2442 8.28404e-12
2.2442 38.4522 -2.92846e-11
8.28404e-12 -2.92846e-11 39.9165

38.3628 1.7842 -9.82457e-12
1.7842 44.148 4.16123e-11
-9.82457e-12 4.16123e-11 41.4992

39.1298 -2.90543 -2.40835e-11
-2.90543 39.0407 1.42564e-11
-2.40835e-11 1.42564e-11 39.2769

40.4207 -2.2319 -1.92453e-12
-2.2319 43.9804 -1.57992e-11
-1.92453e-12 -1.57992e-11 41.737

41.3864 -2.08968 -5.77972e-11
-2.08968 38.1334 1.69534e-11
-5.77972e-11 1.69534e-11 39.9366

40.299 2.48415 -3.45789e-11
2.48415 44.155 5.77242e-13
-3.45789e-11 5.77242e-13 41.664

39.7495 3.52886 2.06154e-11
3.52886 39.9268 -5.39295e-12
2.06154e-11 -5.39295e-12 39.3865

44.5253 4.66008 -3.46641e-12
4.66008 46.5497 4.62116e-12
-3.46641e-12 4.62116e-12 47.2063

45.2177 -3.46876 5.77797e-13
-3.46876 48.1464 2.06123e-11
5.77797e-13 2.06123e-11 47.5037

48.2537 2.12721 4.62663e-12
2.12721 43.7621 1.69522e-11
4.62663e-12 1.69522e-11 46.2111

62.8712 1.57097 2.75378e-11
1.57097 61.9811 -9.05271e-11
2.75378e-11 -9.05271e-11 56.3281

53.3573 1.50173 4.52684e-11
1.50173 54.4536 -2.52329e-11
4.52684e-11 -2.52329e-11 53.2248

44.289 -2.15015 1.46448e-11
-2.15015 41.1838 -4.16099e-11
1.46448e-11 -4.16099e-11 43.5666

51.7616 0.139709 5.7793e-12
0.139709 45.857 -1.09766e-11
5.7793e-12 -1.09766e-11 49.3548

25.8232 -1.82641 -3.96935e-11
-1.82641 27.2368 -4.2409e-12
-3.96935e-11 -4.2409e-12 25.6992

27.2459 -1.50314 -1.65718e-11
-1.50314 25.7179 5.56866e-11
-1.65718e-11 5.56866e-11 25.717

50.581 0.168275 9.29582e-12
0.168275 44.6869 -3.8541e-12
9.29582e-12 -3.8541e-12 48.3531

51.6744 -0.249548 -2.66083e-11
-0.249548 44.2557 3.27471e-11
-2.66083e-11 3.27471e-11 48.4544

52.1782 0.433219 -6.16261e-12
0.433219 48.4463 1.38698e-11
-6.16261e-12 1.38698e-11 49.8123

38.3599 -1.30862 -8.72208e-12
-1.30862 44.3528 1.00189e-11
-8.72208e-12 1.00189e-11 41.584

40.724 1.74138 1.74847e-11
1.74138 36.9353 -6.36047e-12
1.74847e-11 -6.36047e-12 37.5611

45.4833 -2.71483 -6.51642e-11
-2.71483 45.584 3.12107e-11
-6.51642e-11 3.12107e-11 46.4841

46.0258 2.24639 5.7517e-13
2.24639 47.6827 2.5235e-11
5.7517e-13 2.5235e-11 46.8365

61.0163 0.270828 1.50305e-11
0.270828 63.6991 -7.69828e-11
1.50305e-11 -7.69828e-11 56.3227

58.1353 2.55841 3.23654e-11
2.55841 52.3786 7.86439e-11
3.23654e-11 7.86439e-11 53.8126

43.3746 -1.70261 -6.3769e-11
-1.70261 39.9447 -7.70469e-12
-6.3769e-11 -7.70469e-12 41.6158

50.1674 -0.0749185 4.2983e-11
-0.0749185 46.674 -1.7146e-11
4.2983e-11 -1.7146e-11 48.4281

49.4859 -0.601999 -1.56774e-11
-0.601999 47.1895 -4.6616e-11
-1.56774e-11 -4.6616e-11 48.449

43.8106 -3.08052 -5.66368e-11
-3.08052 46.829 1.21392e-11
-5.66368e-11 1.21392e-11 45.4457

41.971 1.59555 5.20159e-12
1.59555 46.7704 -1.15711e-12
5.20159e-12 -1.15711e-12 45.2531

41.5111 2.94917 2.42706e-11
2.94917 44.9284 -2.92816e-11
2.42706e-11 -2.92816e-11 45.298

43.0428 -4.17441 4.60412e-11
-4.17441 47.3573 -9.63492e-12
4.60412e-11 -9.63492e-12 45.789

22.2019 5.33944 1.96531e-11
5.33944 21.708 -3.50704e-11
1.96531e-11 -3.50704e-11 21.9556

46.7663 3.06061 1.48325e-11
3.06061 49.5247 -1.82989e-11
1.48325e-11 -1.82989e-11 48.6969

46.8434 -2.34499 -1.84917e-11
-2.34499 49.8401 -2.75478e-11
-1.84917e-11 -2.75478e-11 48.7558

40.5662 2.79521 2.08062e-11
2.79521 45.5204 -8.47574e-12
2.08062e-11 -8.47574e-12 44.4921

41.8015 -3.52698 1.11722e-11
-3.52698 46.0874 3.60249e-11
1.11722e-11 3.60249e-11 44.5901

40.9473 -1.66106 -3.55967e-12
-1.66106 36.6163 -3.89169e-11
-3.55967e-12 -3.89169e-11 37.875

46.196 3.02218 -9.6471e-13
3.02218 44.3086 -1.38712e-11
-9.6471e-13 -1.38712e-11 45.4659

48.8357 3.23845 -4.42964e-12
3.23845 46.5005 2.88932e-11
-4.42964e-12 2.88932e-11 47.9137

47.3354 -2.14309 1.21332e-11
-2.14309 47.2852 1.52179e-11
1.21332e-11 1.52179e-11 47.688

47.1908 2.03464 -3.50603e-11
2.03464 39.9648 2.00328e-11
-3.50603e-11 2.00328e-11 44.7021

51.6281 0.395458 -1.3025e-11
0.395458 49.3014 4.08365e-11
-1.3025e-11 4.08365e-11 50.3431

52.4861 -0.578104 -3.92141e-11
-0.578104 48.0076 -1.90695e-11
-3.92141e-11 -1.90695e-11 50.2179

53.0896 0.686457 -3.62091e-11
0.686457 57.3853 3.91043e-11
-3.62091e-11 3.91043e-11 53.5159

54.4186 -1.08355 3.8909e-11
-1.08355 61.6973 5.04679e-11
3.8909e-11 5.04679e-11 54.3841

22.0121 -0.501584 1.73439e-12
-0.501584 18.8572 -4.23916e-11
1.73439e-12 -4.23916e-11 22.1975

17.6887 -0.105107 4.56706e-11
-0.105107 21.9127 -5.39558e-12
4.56706e-11 -5.39558e-12 22.008

44.2218 3.49487 -1.79622e-11
3.49487 48.3667 -1.2519e-11
-1.79622e-11 -1.2519e-11 46.3378

43.4078 -3.00911 -1.1462e-11
-3.00911 45.3419 7.70759e-12
-1.1462e-11 7.70759e-12 45.8506

21.2003 1.87741 5.9351e-11
1.87741 21.0164 1.77328e-11
5.9351e-11 1.77328e-11 22.3119

21.5541 2.42726 -7.51458e-12
2.42726 20.5767 -1.92684e-11
-7.51458e-12 -1.92684e-11 22.2831

49.3078 -3.84651 -8.18105e-11
-3.84651 61.5179 -4.04513e-11
-8.18105e-11 -4.04513e-11 54.0437

53.6495 2.87206 4.42566e-11
2.87206 59.5466 1.77182e-11
4.42566e-11 1.77182e-11 54.5088

44.8471 3.67369 2.56178e-11
3.67369 43.2318 -3.85255e-11
2.56178e-11 -3.85255e-11 44.596

43.5262 3.34773 -3.08705e-11
3.34773 45.9934 -3.42872e-11
-3.08705e-11 -3.42872e-11 45.2574

43.2535 -3.35211 -2.97136e-11
-3.35211 44.5513 5.20184e-11
-2.97136e-11 5.20184e-11 45.1465

39.9845 3.38018 3.26531e-11
3.38018 41.746 2.31348e-12
3.26531e-11 2.31348e-12 40.4116

39.4654 -2.69747 2.7938e-12
-2.69747 41.0459 1.0016e-11
2.7938e-12 1.0016e-11 40.3904

27.2478 -0.427861 1.79171e-11
-0.427861 31.4486 5.85741e-11
1.79171e-11 5.85741e-11 28.5155

27.985 -0.868269 -1.42606e-11
-0.868269 31.5889 1.83031e-11
-1.42606e-11 1.83031e-11 28.623

31.5753 -0.367759 -6.74557e-12
-0.367759 27.6091 -3.08271e-11
-6.74557e-12 -3.08271e-11 28.4178

40.9208 3.89646 2.49494e-11
3.89646 43.9617 -1.92439e-13
2.49494e-11 -1.92439e-13 42.4376

40.1942 -3.02119 -2.21686e-12
-3.02119 42.6138 -4.62385e-11
-2.21686e-12 -4.62385e-11 42.2816

25.1134 0.604013 2.62052e-11
0.604013 29.2708 5.59012e-12
2.62052e-11 5.59012e-12 26.3799

29.1302 0.932906 -4.01768e-11
0.932906 25.1706 -4.42377e-12
-4.01768e-11 -4.42377e-12 26.3636

45.408 -3.86213 3.61703e-11
-3.86213 46.3909 3.85321e-12
3.61703e-11 3.85321e-12 47.3986

45.7698 3.18119 -2.59103e-11
3.18119 48.7604 -1.30991e-11
-2.59103e-11 -1.30991e-11 47.713

46.1077 -3.4165 -2.00842e-11
-3.4165 48.3704 -2.81217e-11
-2.00842e-11 -2.81217e-11 48.0876

46.3581 2.54019 -8.60108e-11
2.54019 49.1444 -2.81255e-11
-8.60108e-11 -2.81255e-11 48.1298

20.2614 -1.58659 1.02098e-11
-1.58659 20.6076 -1.54099e-12
1.02098e-11 -1.54099e-12 21.7028

20.2806 -1.59576 2.99606e-11
-1.59576 20.6253 6.45499e-11
2.99606e-11 6.45499e-11 21.7871

43.0341 3.08034 1.93658e-11
3.08034 45.1984 2.23504e-11
1.93658e-11 2.23504e-11 43.9096

42.6158 -2.82174 3.89121e-11
-2.82174 43.2577 2.77393e-11
3.89121e-11 2.77393e-11 43.6651

52.2218 0.806462 8.10956e-11
0.806462 55.8173 1.79133e-11
8.10956e-11 1.79133e-11 52.2653

51.2854 -0.456505 -2.31363e-12
-0.456505 51.977 6.79022e-11
-2.31363e-12 6.79022e-11 51.4966

44.5401 -3.54388 2.8398e-12
-3.54388 49.3193 -2.50433e-11
2.8398e-12 -2.50433e-11 48.338

45.869 3.3298 1.56533e-11
3.3298 50.7846 4.0462e-12
1.56533e-11 4.0462e-12 48.6693

49.8075 -0.741127 -7.0047e-11
-0.741127 47.6992 -3.81386e-11
-7.0047e-11 -3.81386e-11 49.6116

51.0746 0.0706443 3.68394e-11
0.0706443 47.108 -3.02407e-11
3.68394e-11 -3.02407e-11 49.7043

44.6055 3.28055 3.44828e-11
3.28055 45.2577 1.19469e-11
3.44828e-11 1.19469e-11 45.9252

44.512 -3.22172 -5.45184e-11
-3.22172 46.4505 -1.05926e-11
-5.45184e-11 -1.05926e-11 45.8517

54.5361 0.993071 -8.45141e-12
0.993071 50.9961 8.65467e-12
-8.45141e-12 8.65467e-12 52.0776

54.863 0.294682 -1.72995e-11
0.294682 53.0731 -1.48307e-11
-1.72995e-11 -1.48307e-11 53.1183

52.8372 -0.893412 3.13029e-11
-0.893412 51.9763 3.525e-12
3.13029e-11 3.525e-12 51.9675

51.5786 -0.116567 -9.50843e-11
-0.116567 55.501 -1.32137e-10
-9.50843e-11 -1.32137e-10 52.9676

51.5505 0.574971 -3.64043e-11
0.574971 59.1074 -3.92959e-11
-3.64043e-11 -3.92959e-11 52.9624

56.9218 3.25484 7.32236e-12
3.25484 54.5332 2.50395e-11
7.32236e-12 2.50395e-11 53.0972

53.9462 -1.27349 -3.08199e-11
-1.27349 52.2147 5.39324e-12
-3.08199e-11 5.39324e-12 52.2778

50.8203 -0.766299 -9.82362e-12
-0.766299 55.3326 1.25292e-12
-9.82362e-12 1.25292e-12 52.2399

52.2596 1.90544 5.34955e-11
1.90544 54.4926 1.43714e-10
5.34955e-11 1.43714e-10 52.6684

67.4298 1.93661 -2.96351e-10
1.93661 51.7007 -2.87767e-10
-2.96351e-10 -2.87767e-10 55.7739

65.8379 -1.27465 -8.09362e-10
-1.27465 64.9275 -3.81314e-10
-8.09362e-10 -3.81314e-10 58.0291

54.7137 -4.38078 -1.86437e-10
-4.38078 58.4656 6.04852e-10
-1.86437e-10 6.04852e-10 53.9549

53.4649 2.47102 -3.85788e-11
2.47102 53.2943 -4.10269e-11
-3.85788e-11 -4.10269e-11 52.3993

49.7783 1.79441 3.56372e-11
1.79441 52.5644 -1.13684e-11
3.56372e-11 -1.13684e-11 50.7591

54.8208 0.526892 3.18981e-11
0.526892 54.022 -2.75834e-10
3.18981e-11 -2.75834e-10 53.4747

55.0859 -4.08778 7.44497e-11
-4.08778 53.7024 -4.58479e-11
7.44497e-11 -4.58479e-11 52.8462

56.2389 -4.69565 9.12196e-12
-4.69565 60.3176 -1.49089e-10
9.12196e-12 -1.49089e-10 54.9753

49.8704 -2.29396 2.76891e-11
-2.29396 51.248 -2.19611e-11
2.76891e-11 -2.19611e-11 50.6367

50.6304 -3.82879 -6.07144e-12
-3.82879 52.8946 4.19936e-11
-6.07144e-12 4.19936e-11 51.3363

51.8115 -2.54624 -1.66156e-11
-2.54624 54.2329 4.54561e-11
-1.66156e-11 4.54561e-11 52.3995

49.6479 1.60446 7.94627e-12
1.60446 51.9514 -1.7916e-11
7.94627e-12 -1.7916e-11 50.8849

53.3662 0.960044 -9.60791e-12
0.960044 53.1884 -7.31984e-11
-9.60791e-12 -7.31984e-11 52.4809

37.6992 2.7301 -9.62826e-12
2.7301 40.2701 -1.01129e-11
-9.62826e-12 -1.01129e-11 38.5644

43.6508 1.37025 7.7414e-13
1.37025 47.2391 5.39332e-12
7.7414e-13 5.39332e-12 45.4254

42.6749 1.17275 -1.54116e-11
1.17275 46.7353 1.15826e-12
-1.54116e-11 1.15826e-12 45.257

43.6238 1.55009 3.42932e-11
1.55009 37.04 -5.88798e-13
3.42932e-11 -5.88798e-13 40.751

41.6068 0.525538 3.9304e-11
0.525538 35.1124 1.58726e-11
3.9304e-11 1.58726e-11 38.1929

44.5042 0.84025 -1.1561e-11
0.84025 48.8382 -2.36962e-11
-1.1561e-11 -2.36962e-11 47.5881

43.5021 1.93495 -2.06124e-11
1.93495 49.3712 1.13688e-11
-2.06124e-11 1.13688e-11 47.6227

42.1913 -0.617202 2.23469e-11
-0.617202 35.7513 1.16062e-11
2.23469e-11 1.16062e-11 38.6089

47.2389 -1.23972 -6.45535e-12
-1.23972 41.5188 2.45641e-12
-6.45535e-12 2.45641e-12 45.6641

30.481 2.4858 3.84877e-13
2.4858 33.0598 -1.32949e-11
3.84877e-13 -1.32949e-11 31.0415

30.0333 -2.48367 -1.46445e-11
-2.48367 32.4865 -3.13127e-12
-1.46445e-11 -3.13127e-12 30.5132

33.5761 -2.27721 -1.05971e-11
-2.27721 29.3944 7.8982e-12
-1.05971e-11 7.8982e-12 30.517

46.999 -2.34092 -5.2398e-11
-2.34092 49.9547 3.66063e-12
-5.2398e-11 3.66063e-12 48.9724

48.3853 -1.61948 -1.92635e-12
-1.61948 50.1517 2.33096e-11
-1.92635e-12 2.33096e-11 49.1363

38.4873 2.32604 3.8151e-13
2.32604 41.9487 1.30057e-11
3.8151e-13 1.30057e-11 40.8612

40.8745 2.79985 3.87912e-13
2.79985 45.3597 9.72859e-12
3.87912e-13 9.72859e-12 44.544

43.5176 -1.81452 -2.69469e-12
-1.81452 49.325 -4.19981e-11
-2.69469e-12 -4.19981e-11 47.4859

44.0697 -0.530724 3.00497e-11
-0.530724 48.7273 -2.59124e-11
3.00497e-11 -2.59124e-11 47.4173

45.0439 0.713123 -7.03245e-12
0.713123 37.5206 9.29483e-12
-7.03245e-12 9.29483e-12 41.3505

33.0141 0.894385 -1.9652e-11
0.894385 37.1269 1.31045e-11
-1.9652e-11 1.31045e-11 33.8037

32.8662 -0.730707 -3.08122e-12
-0.730707 36.8713 -5.81368e-11
-3.08122e-12 -5.81368e-11 33.6703

37.5784 -0.631198 -3.85025e-13
-0.631198 32.0591 7.6096e-12
-3.85025e-13 7.6096e-12 33.207

37.6416 3.13744 -2.10955e-11
3.13744 38.6421 3.27434e-12
-2.10955e-11 3.27434e-12 38.0931

39.559 -2.08591 2.31194e-11
-2.08591 33.4954 -1.22974e-12
2.31194e-11 -1.22974e-12 36.0837

41.5469 3.32392 -7.32207e-12
3.32392 39.9728 -1.681e-11
-7.32207e-12 -1.681e-11 40.7744

37.5472 2.64949 1.46435e-11
2.64949 41.1001 4.72052e-12
1.46435e-11 4.72052e-12 38.6795

43.891 -1.31544 1.5413e-11
-1.31544 37.1155 6.3759e-12
1.5413e-11 6.3759e-12 41.1277

28.9327 1.74816 8.47929e-12
1.74816 30.6974 -2.06881e-11
8.47929e-12 -2.06881e-11 28.256

47.089 1.63148 -4.04542e-11
1.63148 40.3486 4.875e-11
-4.04542e-11 4.875e-11 44.7579

30.9408 -1.51106 -1.811e-11
-1.51106 27.8759 1.25839e-11
-1.811e-11 1.25839e-11 27.869

48.5845 -0.57554 -5.0092e-12
-0.57554 50.8618 1.92653e-12
-5.0092e-12 1.92653e-12 49.5181

48.5243 1.02141 2.69669e-11
1.02141 50.9565 -4.43245e-12
2.69669e-11 -4.43245e-12 49.5423

60.2299 -3.11099 6.54872e-12
-3.11099 54.807 2.40747e-11
6.54872e-12 2.40747e-11 54.0574

60.1424 3.21893 5.50919e-11
3.21893 54.7214 7.12832e-12
5.50919e-11 7.12832e-12 54.0401

36.8323 -0.830307 3.4676e-12
-0.830307 31.1704 8.42878e-12
3.4676e-12 8.42878e-12 32.8602

41.9837 3.63273 -5.58694e-12
3.63273 41.6841 -6.74298e-12
-5.58694e-12 -6.74298e-12 42.6103

52.1367 -1.88475 -3.46723e-11
-1.88475 48.5135 -7.992e-12
-3.46723e-11 -7.992e-12 49.6796

51.7659 1.87785 -2.31145e-11
1.87785 48.1907 3.55399e-11
-2.31145e-11 3.55399e-11 49.3793

47.1084 0.654046 -1.15563e-11
0.654046 40.6175 4.15487e-11
-1.15563e-11 4.15487e-11 45.564

36.8565 2.99357 -1.92661e-11
2.99357 40.6486 2.79369e-12
-1.92661e-11 2.79369e-12 38.1745

39.9769 -2.58991 4.62385e-11
-2.58991 35.6108 7.22459e-12
4.62385e-11 7.22459e-12 37.176

46.3942 -0.160971 -5.20147e-12
-0.160971 39.0998 -3.80157e-11
-5.20147e-12 -3.80157e-11 44.5743

37.2973 -3.14878 -2.11882e-12
-3.14878 38.488 -6.06833e-12
-2.11882e-12 -6.06833e-12 37.8411

37.7055 -2.58192 -2.08062e-11
-2.58192 40.2939 1.73261e-12
-2.08062e-11 1.73261e-12 38.5818

41.7591 2.94933 3.46769e-11
2.94933 46.5531 -1.30037e-11
3.46769e-11 -1.30037e-11 44.6738

37.0258 -3.60152 -4.46973e-11
-3.60152 34.3974 -1.96026e-11
-4.46973e-11 -1.96026e-11 35.0169

22.9793 -2.74588 -2.92902e-11
-2.74588 21.4195 -7.60995e-12
-2.92902e-11 -7.60995e-12 22.2719

22.7721 3.81444 1.27182e-11
3.81444 22.2524 7.93958e-13
1.27182e-11 7.93958e-13 22.3923

42.5006 -3.5211 3.08207e-11
-3.5211 48.1389 9.34186e-12
3.08207e-11 9.34186e-12 47.0534

23.2269 0.500313 5.3965e-12
0.500313 21.5434 -4.41871e-11
5.3965e-12 -4.41871e-11 23.0408

22.0769 -0.921888 -7.32236e-12
-0.921888 21.5782 -3.47182e-12
-7.32236e-12 -3.47182e-12 22.8998

49.0189 -0.824694 -3.62138e-11
-0.824694 50.0276 5.2013e-12
-3.62138e-11 5.2013e-12 49.6293

49.0586 0.856297 -1.71451e-11
0.856297 49.9748 -3.7178e-11
-1.71451e-11 -3.7178e-11 49.6356

47.955 -0.0588466 3.98792e-11
-0.0588466 38.8954 -1.39422e-11
3.98792e-11 -1.39422e-11 43.4243

48.7899 -0.447181 -2.17678e-11
-0.447181 48.4668 -5.80301e-11
-2.17678e-11 -5.80301e-11 49.2532

48.8403 0.491662 -3.62159e-11
0.491662 48.4812 -4.67613e-11
-3.62159e-11 -4.67613e-11 49.2746

38.4861 2.74629 1.92677e-11
2.74629 43.4111 3.96851e-11
1.92677e-11 3.96851e-11 41.0278

56.4534 -2.91235 -5.04672e-11
-2.91235 53.1366 -1.90727e-11
-5.04672e-11 -1.90727e-11 52.6131

56.3689 2.92603 2.65842e-11
2.92603 53.0798 8.52104e-12
2.65842e-11 8.52104e-12 52.6138

45.7092 -1.45925 4.54633e-11
-1.45925 45.3836 -3.72776e-11
4.54633e-11 -3.72776e-11 46.1673

45.7351 1.47183 -3.46641e-12
1.47183 45.3859 1.74836e-11
-3.46641e-12 1.74836e-11 46.1888

33.0667 -2.48218 -1.3487e-11
-2.48218 28.5832 -5.78722e-13
-1.3487e-11 -5.78722e-13 30.0657

49.5361 1.44341 -3.54437e-11
1.44341 56.4766 -9.0512e-12
-3.54437e-11 -9.0512e-12 52.1202

51.2895 -0.277355 -1.31002e-11
-0.277355 53.8406 4.95048e-11
-1.31002e-11 4.95048e-11 51.8159

37.0162 -3.02581 3.6411e-11
-3.02581 40.7871 3.39056e-11
3.6411e-11 3.39056e-11 38.3112

26.7744 -0.761119 -3.85469e-13
-0.761119 29.174 1.6352e-11
-3.85469e-13 1.6352e-11 27.1803

29.7015 -0.7861 -3.35252e-11
-0.7861 25.5308 4.3445e-11
-3.35252e-11 4.3445e-11 26.9615

40.5441 2.35866 -4.62332e-12
2.35866 45.8619 -1.13687e-11
-4.62332e-12 -1.13687e-11 43.7355

40.1672 2.35222 -6.54985e-12
2.35222 44.8121 -7.31874e-12
-6.54985e-12 -7.31874e-12 43.6532

58.2334 -2.34485 -7.12715e-11
-2.34485 52.5429 1.43118e-10
-7.12715e-11 1.43118e-10 53.9922

58.3376 2.16802 -7.41635e-11
2.16802 53.2051 2.0831e-10
-7.41635e-11 2.0831e-10 54.1781

41.566 3.08672 -8.86287e-12
3.08672 44.8959 -1.27148e-11
-8.86287e-12 -1.27148e-11 45.4612

45.4216 0.94029 -2.42718e-11
0.94029 40.7736 3.22723e-12
-2.42718e-11 3.22723e-12 43.7785

45.3512 -0.977763 -1.4803e-16
-0.977763 40.6261 8.23556e-12
-1.4803e-16 8.23556e-12 43.6519

43.3731 4.14196 1.00169e-11
4.14196 44.1984 1.61815e-11
1.00169e-11 1.61815e-11 45.2783

44.1228 -2.79067 -3.12061e-11
-2.79067 48.3359 7.41907e-12
-3.12061e-11 7.41907e-12 47.1297

36.2233 -0.04788 3.46823e-11
-0.04788 29.9531 7.51451e-12
3.46823e-11 7.51451e-12 32.2833

43.3487 0.059627 -1.92665e-11
0.059627 36.1165 -1.64409e-11
-1.92665e-11 -1.64409e-11 38.8967

39.4431 1.86148 3.96894e-11
1.86148 33.4371 8.67861e-13
3.96894e-11 8.67861e-13 35.6655

50.2929 3.09731 -1.04057e-11
3.09731 44.8552 -1.62287e-11
-1.04057e-11 -1.62287e-11 47.9512

61.7139 -0.460177 -4.16063e-11
-0.460177 59.3454 7.17424e-12
-4.16063e-11 7.17424e-12 55.5013

61.6458 0.457614 2.00289e-11
0.457614 59.618 3.85253e-11
2.00289e-11 3.85253e-11 55.5203

34.5203 2.70578 8.86254e-12
2.70578 34.2135 -2.24411e-11
8.86254e-12 -2.24411e-11 33.041

41.2333 -3.4473 -1.61844e-11
-3.4473 38.2699 3.1885e-11
-1.61844e-11 3.1885e-11 39.9374

45.4594 -0.855547 -6.20364e-11
-0.855547 39.6999 3.02685e-11
-6.20364e-11 3.02685e-11 42.068

52.3113 3.33085 8.86244e-12
3.33085 58.2633 1.71395e-11
8.86244e-12 1.71395e-11 53.416

52.7085 -0.874728 -8.12871e-11
-0.874728 53.8476 2.8945e-12
-8.12871e-11 2.8945e-12 52.5545

50.8282 -3.02927 3.08327e-12
-3.02927 45.6764 -1.22777e-11
3.08327e-12 -1.22777e-11 48.4501

42.7161 -0.876838 2.12874e-11
-0.876838 46.8962 1.94573e-11
2.12874e-11 1.94573e-11 45.2132

43.2807 -0.91786 3.53469e-11
-0.91786 47.2043 1.02033e-11
3.53469e-11 1.02033e-11 45.3171

48.7209 -0.241499 2.25405e-11
-0.241499 39.6284 2.49219e-11
2.25405e-11 2.49219e-11 44.8353

48.9008 0.227367 2.31181e-11
0.227367 39.6257 -4.98423e-12
2.31181e-11 -4.98423e-12 44.9519

35.1229 2.33141 1.98432e-11
2.33141 33.6494 -3.56382e-12
1.98432e-11 -3.56382e-12 32.7202

49.4597 -0.18372 2.21546e-11
-0.18372 42.973 -4.35777e-12
2.21546e-11 -4.35777e-12 47.0031

49.4763 0.166535 2.50444e-11
0.166535 43.0325 -2.77868e-11
2.50444e-11 -2.77868e-11 47.0357

45.5974 0.849032 7.32185e-12
0.849032 39.7028 4.15146e-11
7.32185e-12 4.15146e-11 42.1324

37.6776 -2.69264 -1.34854e-11
-2.69264 41.3146 -1.79174e-11
-1.34854e-11 -1.79174e-11 38.8534

49.3706 -0.0890871 1.07884e-11
-0.0890871 42.0693 -4.55114e-12
1.07884e-11 -4.55114e-12 45.6938

49.5493 0.113379 7.70739e-12
0.113379 42.1106 -1.43994e-11
7.70739e-12 -1.43994e-11 45.8273

45.0855 -2.06453 -7.40149e-16
-2.06453 39.6874 3.19801e-11
-7.40149e-16 3.19801e-11 42.5628

42.6543 3.80103 3.67941e-11
3.80103 46.5633 -1.05935e-11
3.67941e-11 -1.05935e-11 45.3142

39.4102 2.89234 -1.34834e-11
2.89234 36.5438 -1.88371e-11
-1.34834e-11 -1.88371e-11 37.2504

42.6991 3.08439 -5.00949e-12
3.08439 44.538 -1.21363e-11
-5.00949e-12 -1.21363e-11 45.6968

43.141 3.78258 1.38698e-11
3.78258 47.558 6.45441e-12
1.38698e-11 6.45441e-12 45.9444

40.1024 -1.4698 1.86888e-11
-1.4698 33.7535 -8.83784e-12
1.86888e-11 -8.83784e-12 36.2023

45.9118 -3.3773 5.47116e-11
-3.3773 41.7564 -5.47637e-11
5.47116e-11 -5.47637e-11 44.4043

44.5077 2.06167 -2.61999e-11
2.06167 39.3623 -4.57513e-11
-2.61999e-11 -4.57513e-11 41.912

36.5667 3.37365 -1.39685e-11
3.37365 35.5503 -2.74067e-11
-1.39685e-11 -2.74067e-11 35.6387

40.8934 3.46535 2.69333e-12
3.46535 37.9418 -1.31484e-11
2.69333e-12 -1.31484e-11 39.6147

39.5158 0.317378 2.54285e-11
0.317378 45.3162 2.20612e-11
2.54285e-11 2.20612e-11 43.3041

39.6326 0.11248 1.8881e-11
0.11248 45.3142 4.43134e-12
1.8881e-11 4.43134e-12 43.3216

34.0412 2.43792 1.78251e-11
2.43792 29.8829 4.87332e-11
1.78251e-11 4.87332e-11 30.9939

43.4601 -4.13802 -2.27307e-11
-4.13802 44.2749 1.88796e-11
-2.27307e-11 1.88796e-11 45.3872

36.0861 -3.29791 1.65678e-11
-3.29791 37.7218 -1.15567e-12
1.65678e-11 -1.15567e-12 35.9016

35.9566 3.33876 -7.12597e-12
3.33876 37.8127 -7.31785e-12
-7.12597e-12 -7.31785e-12 35.8469

44.4964 -2.48887 2.08059e-11
-2.48887 39.4798 3.12076e-11
2.08059e-11 3.12076e-11 42.1391

49.8056 -1.64916 -1.42578e-11
-1.64916 41.0047 1.1316e-11
-1.42578e-11 1.1316e-11 47.1578

49.5986 1.66231 -2.73562e-11
1.66231 41.2278 2.20571e-11
-2.73562e-11 2.20571e-11 47.0505

34.659 1.82651 -3.39076e-11
1.82651 38.7338 -1.68615e-11
-3.39076e-11 -1.68615e-11 36.4401

41.6603 -3.47304 6.93275e-12
-3.47304 39.9842 1.10578e-12
6.93275e-12 1.10578e-12 40.7591

29.9215 -0.141637 1.92809e-12
-0.141637 35.6036 2.38964e-11
1.92809e-12 2.38964e-11 32.0264

29.8824 0.0565519 -5.04788e-11
0.0565519 35.5945 -4.20087e-11
-5.04788e-11 -4.20087e-11 31.9989

36.2882 0.175685 2.62049e-11
0.175685 29.1321 -1.83996e-11
2.62049e-11 -1.83996e-11 31.6217

34.8111 -2.41866 5.97093e-12
-2.41866 33.7037 -2.42768e-11
5.97093e-12 -2.42768e-11 32.5529

37.0376 2.94016 8.47441e-12
2.94016 34.9682 3.66366e-12
8.47441e-12 3.66366e-12 35.4404

55.9309 -5.98507 4.58425e-11
-5.98507 58.5987 -9.25134e-12
4.58425e-11 -9.25134e-12 54.5904

58.1626 2.58673 2.64265e-10
2.58673 59.8632 -1.67548e-11
2.64265e-10 -1.67548e-11 55.3362

40.338 1.33914 -2.6203e-11
1.33914 33.9541 -1.92902e-11
-2.6203e-11 -1.92902e-11 36.4426

40.699 3.66055 7.51393e-12
3.66055 45.0467 1.2041e-11
7.51393e-12 1.2041e-11 43.01

47.9088 0.0539813 4.79711e-11
0.0539813 38.8367 -9.51239e-13
4.79711e-11 -9.51239e-13 43.3323

34.7085 -1.76645 -5.04751e-11
-1.76645 38.9202 2.84735e-13
-5.04751e-11 2.84735e-13 36.5688

41.2456 3.64523 -1.92851e-12
3.64523 48.1111 -3.1786e-11
-1.92851e-12 -3.1786e-11 46.9174

44.395 2.98501 2.69784e-12
2.98501 48.6058 4.5368e-11
2.69784e-12 4.5368e-11 47.314

42.6924 -3.79192 4.81807e-12
-3.79192 46.5585 -3.01499e-11
4.81807e-12 -3.01499e-11 45.3348

43.0212 3.83181 -2.5055e-12
3.83181 47.9625 -3.05349e-11
-2.5055e-12 -3.05349e-11 46.102

40.1335 2.90464 9.25186e-17
2.90464 43.014 1.92787e-12
9.25186e-17 1.92787e-12 42.815

50.6671 0.0328563 -2.46597e-11
0.0328563 39.7433 7.8248e-12
-2.46597e-11 7.8248e-12 45.8376

37.0528 -2.902 -3.85284e-12
-2.902 34.738 -1.05483e-11
-3.85284e-12 -1.05483e-11 35.2253

42.7195 -3.09893 -1.54128e-11
-3.09893 44.5784 3.56384e-11
-1.54128e-11 3.56384e-11 45.7533

37.9854 -2.4825 5.9713e-12
-2.4825 38.2029 -1.32465e-11
5.9713e-12 -1.32465e-11 37.0351

33.4501 -2.40694 4.93203e-11
-2.40694 33.5154 1.86865e-11
4.93203e-11 1.86865e-11 32.247

41.9482 -3.58518 1.61796e-11
-3.58518 41.8564 -4.39256e-11
1.61796e-11 -4.39256e-11 42.6979

33.429 -1.47041 2.00382e-11
-1.47041 37.7348 9.00902e-12
2.00382e-11 9.00902e-12 34.3469

33.3609 1.39488 -1.77206e-11
1.39488 37.7256 -5.52494e-11
-1.77206e-11 -5.52494e-11 34.2982

37.4938 0.841138 3.00559e-11
0.841138 32.6608 1.14344e-12
3.00559e-11 1.14344e-12 33.6734

37.923 2.58876 -6.74409e-12
2.58876 38.1565 -2.71166e-11
-6.74409e-12 -2.71166e-11 37.002

38.6219 0.45809 2.19592e-11
0.45809 43.2965 2.25437e-11
2.19592e-11 2.25437e-11 40.4715

38.5811 -0.0985146 1.92704e-11
-0.0985146 43.2382 -9.62956e-12
1.92704e-11 -9.62956e-12 40.4381

31.4903 -2.83472 9.44204e-12
-2.83472 32.9328 2.88658e-13
9.44204e-12 2.88658e-13 31.1378

31.5395 2.8398 -1.29123e-11
2.8398 32.8398 1.34396e-11
-1.29123e-11 1.34396e-11 31.064

50.9133 0.228012 -6.74225e-12
0.228012 40.4522 2.76904e-11
-6.74225e-12 2.76904e-11 46.0703

51.014 -0.216318 -1.07888e-11
-0.216318 40.4238 -1.47839e-11
-1.07888e-11 -1.47839e-11 46.1175

41.3671 3.33713 2.00364e-11
3.33713 45.551 6.55135e-12
2.00364e-11 6.55135e-12 43.5982

40.6865 -3.25447 1.5022e-11
-3.25447 47.6802 3.80473e-11
1.5022e-11 3.80473e-11 46.6643

44.8819 3.66997 1.96501e-11
3.66997 42.6072 2.41377e-12
1.96501e-11 2.41377e-12 44.3666

32.294 1.70297 -1.58019e-11
1.70297 27.7732 -4.02342e-11
-1.58019e-11 -4.02342e-11 29.1692

34.8948 2.21403 1.46419e-11
2.21403 40.1694 -1.59887e-11
1.46419e-11 -1.59887e-11 36.8955

48.477 0.216465 -1.92479e-12
0.216465 46.3293 3.17345e-11
-1.92479e-12 3.17345e-11 47.8407

48.4589 -0.193419 -3.92989e-11
-0.193419 46.3532 -1.33895e-11
-3.92989e-11 -1.33895e-11 47.8281

42.2444 2.13689 2.33148e-11
2.13689 40.8395 3.04365e-11
2.33148e-11 3.04365e-11 41.0111

46.0937 -1.32048 -7.32081e-12
-1.32048 43.7579 3.91054e-11
-7.32081e-12 3.91054e-11 44.7025

46.1089 1.3459 -2.54302e-11
1.3459 43.7879 -1.35814e-11
-2.54302e-11 -1.35814e-11 44.7279

21.5859 -1.34042 5.39591e-12
-1.34042 18.5549 -7.63795e-11
5.39591e-12 -7.63795e-11 22.1869

17.3173 1.68951 1.6187e-11
1.68951 20.4431 1.00333e-11
1.6187e-11 1.00333e-11 21.6209

34.8286 -2.17584 4.23946e-12
-2.17584 40.2362 -9.15098e-12
4.23946e-12 -9.15098e-12 36.9594

53.2581 -0.490044 2.58095e-11
-0.490044 51.6755 -1.60842e-10
2.58095e-11 -1.60842e-10 51.999

53.2885 0.558638 7.71235e-13
0.558638 51.7336 3.32269e-11
7.71235e-13 3.32269e-11 52.0207

32.4813 1.46372 -3.81511e-11
1.46372 27.5753 -1.30544e-14
-3.81511e-11 -1.30544e-14 29.154

40.1095 -1.80353 3.46722e-11
-1.80353 45.4877 3.54499e-11
3.46722e-11 3.54499e-11 43.7833

40.6859 -1.76083 -1.54048e-12
-1.76083 45.885 -1.82081e-11
-1.54048e-12 -1.82081e-11 43.8241

36.4011 -3.54455 -3.85495e-12
-3.54455 35.7196 2.57218e-11
-3.85495e-12 2.57218e-11 35.388

43.0348 -3.85607 8.47603e-12
-3.85607 47.9326 -4.76471e-16
8.47603e-12 -4.76471e-16 46.0837

39.8385 4.60038 -2.11924e-11
4.60038 44.94 -1.60866e-11
-2.11924e-11 -1.60866e-11 45.1736

48.3567 2.08461 1.84923e-11
2.08461 49.8872 3.22642e-11
1.84923e-11 3.22642e-11 49.1329

47.0673 2.87664 -3.35184e-11
2.87664 49.8006 -8.08986e-12
-3.35184e-11 -8.08986e-12 49.0597

41.3956 -3.37027 -4.54615e-11
-3.37027 45.6446 -2.11887e-11
-4.54615e-11 -2.11887e-11 43.6806

42.4322 3.53788 -3.84137e-13
3.53788 42.8822 2.20568e-11
-3.84137e-13 2.20568e-11 43.588

42.2362 -2.16951 2.50133e-12
-2.16951 40.8881 6.26112e-11
2.50133e-12 6.26112e-11 41.0348

38.2999 2.58988 1.50274e-11
2.58988 33.1335 4.56585e-11
1.50274e-11 4.56585e-11 35.142

43.3214 -0.0791999 -1.58004e-11
-0.0791999 36.1071 -4.01518e-11
-1.58004e-11 -4.01518e-11 38.9278

42.739 4.02071 1.05944e-11
4.02071 47.5194 -7.22335e-12
1.05944e-11 -7.22335e-12 45.8774

38.5237 -2.4209 1.31007e-11
-2.4209 42.1202 -3.04405e-11
1.31007e-11 -3.04405e-11 41.0223

36.3004 0.883453 -4.16132e-11
0.883453 41.7164 -9.44245e-12
-4.16132e-11 -9.44245e-12 39.0079

42.3471 2.47766 5.00851e-12
2.47766 42.3078 -9.53815e-12
5.00851e-12 -9.53815e-12 42.7299

36.6726 1.09814 1.19434e-11
1.09814 42.2762 1.0789e-11
1.19434e-11 1.0789e-11 39.2635

44.5275 -3.10507 6.16427e-12
-3.10507 48.6633 -7.71087e-13
6.16427e-12 -7.71087e-13 47.236

25.5673 -1.7415 -5.00977e-12
-1.7415 25.9428 1.53451e-11
-5.00977e-12 1.53451e-11 25.1027

26.9711 -1.75266 3.73844e-11
-1.75266 24.393 3.75923e-11
3.73844e-11 3.75923e-11 25.0396

44.885 -0.699548 -4.1518e-11
-0.699548 37.4802 -5.93552e-12
-4.1518e-11 -5.93552e-12 41.278

42.3182 -2.48386 3.12084e-11
-2.48386 42.2661 2.95708e-11
3.12084e-11 2.95708e-11 42.7065

59.3439 -3.32747 -1.12881e-10
-3.32747 53.4561 9.54469e-11
-1.12881e-10 9.54469e-11 54.2826

59.4519 3.18704 -1.92632e-11
3.18704 53.7281 -2.10896e-11
-1.92632e-11 -2.10896e-11 54.3743

40.8896 -3.61046 -1.2717e-11
-3.61046 45.2551 1.00194e-11
-1.2717e-11 1.00194e-11 43.2395

53.1795 -3.09512 -4.00669e-11
-3.09512 53.2034 4.34391e-11
-4.00669e-11 4.34391e-11 51.74

53.0105 3.14573 -3.92959e-11
3.14573 53.1095 -4.14164e-11
-3.92959e-11 -4.14164e-11 51.6794

45.006 0.680365 -4.73944e-11
0.680365 38.7055 1.42679e-11
-4.73944e-11 1.42679e-11 42.7336

39.7364 -4.60623 -1.73392e-11
-4.60623 44.8079 1.44491e-11
-1.73392e-11 1.44491e-11 45.129

26.93 -2.07351 -3.00556e-11
-2.07351 26.7397 -4.79527e-11
-3.00556e-11 -4.79527e-11 26.14

27.8758 2.08118 -1.84999e-11
2.08118 26.4023 -2.95537e-11
-1.84999e-11 -2.95537e-11 26.476

28.1158 -1.54564 2.31348e-12
-1.54564 31.0247 4.28746e-12
2.31348e-12 4.28746e-12 28.4541

27.4715 1.43751 -2.33154e-11
1.43751 30.8684 1.07408e-11
-2.33154e-11 1.07408e-11 28.1696

31.125 0.885672 -5.43367e-11
0.885672 26.669 5.53964e-12
-5.43367e-11 5.53964e-12 27.9134

42.7279 -4.05179 -5.39349e-12
-4.05179 47.5508 -3.17855e-12
-5.39349e-12 -3.17855e-12 45.8533

24.9182 0.460299 6.93613e-12
0.460299 28.8893 1.76783e-11
6.93613e-12 1.76783e-11 26.4051

29.4663 -0.50105 -1.27166e-11
-0.50105 24.4508 2.62596e-12
-1.27166e-11 2.62596e-12 26.2495

48.6878 -1.27725 -3.47143e-12
-1.27725 53.8046 1.07681e-10
-3.47143e-12 1.07681e-10 51.04

50.6848 -0.0782685 -1.30976e-11
-0.0782685 52.1491 -3.17846e-11
-1.30976e-11 -3.17846e-11 50.9996

47.7155 2.01172 4.27672e-11
2.01172 42.9275 4.72111e-12
4.27672e-11 4.72111e-12 45.5349

47.43 -0.14257 2.69717e-11
-0.14257 37.7058 -1.46158e-11
2.69717e-11 -1.46158e-11 45.1147

32.3732 2.04322 6.93556e-12
2.04322 36.1146 -5.3002e-13
6.93556e-12 -5.3002e-13 33.2655

32.3811 -2.13818 3.06364e-11
-2.13818 36.1596 4.98065e-11
3.06364e-11 4.98065e-11 33.3205

45.5991 -0.383351 -2.46582e-11
-0.383351 39.037 -3.74974e-11
-2.46582e-11 -3.74974e-11 43.0549

38.6386 -2.73907 -5.39687e-12
-2.73907 43.7215 1.17497e-11
-5.39687e-12 1.17497e-11 41.2592

52.1117 0.288169 -1.92631e-11
0.288169 49.7044 -6.52994e-11
-1.92631e-11 -6.52994e-11 50.7684

52.0921 -0.249282 -5.95261e-11
-0.249282 49.7159 -2.87002e-11
-5.95261e-11 -2.87002e-11 50.7711

45.8857 3.05706 -8.67476e-12
3.05706 43.7454 9.43849e-12
-8.67476e-12 9.43849e-12 45.0439

42.3625 -3.45045 1.92638e-11
-3.45045 42.8701 2.88662e-12
1.92638e-11 2.88662e-12 43.5848

46.7746 1.83456 1.30998e-11
1.83456 39.6719 -2.71134e-11
1.30998e-11 -2.71134e-11 44.1541

33.9748 2.70213 2.30949e-12
2.70213 31.8702 1.5414e-11
2.30949e-12 1.5414e-11 31.9958

40.257 -2.99082 -3.5833e-11
-2.99082 43.2282 6.83768e-12
-3.5833e-11 6.83768e-12 42.9494

21.5229 4.64973 -2.69754e-11
4.64973 20.5048 3.34804e-11
-2.69754e-11 3.34804e-11 21.4621

36.5001 -0.660288 -4.43096e-11
-0.660288 41.7288 -1.32031e-11
-4.43096e-11 -1.32031e-11 39.0853

36.7155 -0.983773 2.35061e-11
-0.983773 42.0316 -1.77281e-11
2.35061e-11 -1.77281e-11 39.1588

49.297 1.36244 2.65823e-11
1.36244 54.1003 2.60035e-11
2.65823e-11 2.60035e-11 51.3485

50.0064 -2.03769 -3.85722e-13
-2.03769 53.4472 6.54964e-11
-3.85722e-13 6.54964e-11 51.3381

51.4515 -0.107908 2.31185e-12
-0.107908 41.8929 -8.57111e-12
2.31185e-12 -8.57111e-12 47.3718

51.4917 0.100764 -9.82527e-12
0.100764 41.8709 2.91326e-12
-9.82527e-12 2.91326e-12 47.3993

48.3682 -3.99468 1.11729e-11
-3.99468 46.139 2.49459e-11
1.11729e-11 2.49459e-11 47.6149

48.1373 4.02917 2.69906e-12
4.02917 45.3685 1.57958e-11
2.69906e-12 1.57958e-11 47.2227

53.7951 -1.45529 -5.3165e-11
-1.45529 51.6424 1.62788e-11
-5.3165e-11 1.62788e-11 51.308

53.6602 1.45192 -9.28471e-11
1.45192 51.6204 -1.91711e-11
-9.28471e-11 -1.91711e-11 51.263

55.3091 -1.27078 1.83005e-11
-1.27078 52.7174 1.72402e-11
1.83005e-11 1.72402e-11 53.111

55.375 1.36786 -9.43841e-12
1.36786 52.9454 1.75265e-11
-9.43841e-12 1.75265e-11 53.1904

44.5531 -3.82398 2.38864e-11
-3.82398 48.4306 -1.83985e-11
2.38864e-11 -1.83985e-11 47.373

44.6488 3.80427 7.12837e-12
3.80427 48.4808 7.60906e-12
7.12837e-12 7.60906e-12 47.4407

41.7245 -1.98136 3.85218e-12
-1.98136 38.1927 2.673e-11
3.85218e-12 2.673e-11 39.9175

39.3187 -1.67446 7.70718e-12
-1.67446 43.336 -2.65881e-11
7.70718e-12 -2.65881e-11 41.5868

39.6068 3.22255 3.98811e-11
3.22255 39.5719 2.34058e-11
3.98811e-11 2.34058e-11 39.3227

39.744 -2.34878 -8.09281e-12
-2.34878 44.289 1.97479e-11
-8.09281e-12 1.97479e-11 41.7678

34.152 -2.49633 -5.20028e-12
-2.49633 32.2395 -2.92371e-11
-5.20028e-12 -2.92371e-11 31.9005

41.6642 1.9559 2.65874e-11
1.9559 38.1041 3.44839e-11
2.65874e-11 3.44839e-11 39.8324

39.3758 1.66481 -2.16856e-12
1.66481 43.1952 -9.92006e-12
-2.16856e-12 -9.92006e-12 41.4632

44.5091 -4.75399 -2.23471e-11
-4.75399 46.4025 3.91082e-11
-2.23471e-11 3.91082e-11 47.2298

44.5201 4.75725 -6.55039e-12
4.75725 46.3704 -5.00919e-12
-6.55039e-12 -5.00919e-12 47.2232

48.3644 -1.9112 7.70669e-12
-1.9112 43.6315 -2.59091e-11
7.70669e-12 -2.59091e-11 46.2021

58.3412 -3.55936 -3.62041e-11
-3.55936 61.3198 -1.00161e-10
-3.62041e-11 -1.00161e-10 55.5668

56.0416 3.64156 -7.35851e-11
3.64156 53.7741 3.25508e-11
-7.35851e-11 3.25508e-11 53.6477

43.5836 -2.69337 -3.91059e-11
-2.69337 47.268 6.6502e-12
-3.91059e-11 6.6502e-12 45.5251

45.1717 3.36319 1.27187e-11
3.36319 41.1468 2.79811e-11
1.27187e-11 2.79811e-11 43.7338

51.8934 0.216591 1.96476e-11
0.216591 48.1044 5.87667e-12
1.96476e-11 5.87667e-12 49.6121

39.6129 -3.15129 -5.02842e-11
-3.15129 39.7484 3.57394e-11
-5.02842e-11 3.57394e-11 39.3703

26.4002 2.01803 -2.58195e-11
2.01803 27.1307 5.34824e-12
-2.58195e-11 5.34824e-12 25.7524

27.33 1.99572 2.31482e-12
1.99572 25.3367 -1.97298e-12
2.31482e-12 -1.97298e-12 25.5883

51.9919 0.398474 1.52204e-11
0.398474 43.7231 1.92631e-12
1.52204e-11 1.92631e-12 48.3236

51.9068 -0.402229 -8.86169e-12
-0.402229 43.6816 -2.8605e-11
-8.86169e-12 -2.8605e-11 48.2985

52.1866 -0.351748 -3.12045e-11
-0.351748 48.4864 -5.54023e-12
-3.12045e-11 -5.54023e-12 49.8098

39.801 2.23683 1.71729e-11
2.23683 44.1731 7.414e-12
1.71729e-11 7.414e-12 41.7184

41.0112 -1.57383 2.04226e-11
-1.57383 36.8293 -6.54958e-12
2.04226e-11 -6.54958e-12 37.6587

46.0105 -1.91153 5.2781e-11
-1.91153 47.1417 -1.26191e-11
5.2781e-11 -1.26191e-11 46.7172

46.0431 1.91427 1.23277e-11
1.91427 47.1678 -4.61378e-11
1.23277e-11 -4.61378e-11 46.7433

61.0379 -0.263089 -1.38672e-11
-0.263089 63.7163 -3.03041e-11
-1.38672e-11 -3.03041e-11 56.3421

61.0472 0.25942 6.0865e-11
0.25942 63.6397 -1.05838e-11
6.0865e-11 -1.05838e-11 56.3453

41.5125 -3.26547 6.16579e-12
-3.26547 46.3974 1.91697e-11
6.16579e-12 1.91697e-11 44.6124

43.9652 2.58629 2.31015e-12
2.58629 39.1946 3.3995e-13
2.31015e-12 3.3995e-13 41.5543

50.3645 -0.318402 1.40638e-11
-0.318402 46.0772 -1.01171e-12
1.40638e-11 -1.01171e-12 48.3108

50.3623 0.346907 2.8999e-13
0.346907 46.0602 3.71784e-11
2.8999e-13 3.71784e-11 48.2974

41.9288 -2.07368 3.46744e-11
-2.07368 45.8782 2.34035e-11
3.46744e-11 2.34035e-11 45.1945

41.4274 -3.31327 -3.66019e-11
-3.31327 44.6193 5.58709e-12
-3.66019e-11 5.58709e-12 45.3443

21.7337 -4.82311 -6.78286e-11
-4.82311 21.88 -3.94694e-12
-6.78286e-11 -3.94694e-12 21.8919

46.8245 -3.09487 -2.85089e-11
-3.09487 49.5068 2.90915e-11
-2.85089e-11 2.90915e-11 48.7426

46.8053 3.12212 1.04023e-11
3.12212 49.4243 -2.40798e-11
1.04023e-11 -2.40798e-11 48.7004

40.7621 -3.18498 -2.27304e-11
-3.18498 44.7323 -2.50633e-12
-2.27304e-11 -2.50633e-12 44.4832

41.2886 1.66912 -2.06165e-11
1.66912 36.9873 3.37238e-12
-2.06165e-11 3.37238e-12 37.8784

46.5361 -2.93494 6.37654e-11
-2.93494 44.1077 -2.16784e-11
6.37654e-11 -2.16784e-11 45.5084

48.9402 -3.25907 1.84933e-11
-3.25907 46.3439 -2.65861e-11
1.84933e-11 -2.65861e-11 47.9389

48.9841 3.18016 2.23478e-11
3.18016 46.1641 1.14607e-11
2.23478e-11 1.14607e-11 47.8651

47.3658 -1.822 3.35203e-11
-1.822 40.0964 1.65666e-11
3.35203e-11 1.65666e-11 44.7399

52.7442 0.798824 -6.93532e-12
0.798824 47.3467 4.42063e-11
-6.93532e-12 4.42063e-11 50.0684

52.682 -0.783756 -8.47642e-12
-0.783756 47.38 -3.92966e-11
-8.47642e-12 -3.92966e-11 50.0515

52.6295 -1.26457 -6.16353e-11
-1.26457 59.3705 -4.1027e-11
-6.16353e-11 -4.1027e-11 53.8234

53.9284 2.76068 3.19713e-11
2.76068 58.878 -8.43694e-11
3.19713e-11 -8.43694e-11 54.0119

21.9866 0.409904 1.65755e-11
0.409904 17.2489 -3.52907e-11
1.65755e-11 -3.52907e-11 21.9141

18.9032 0.76671 1.92616e-12
0.76671 21.2264 -3.89073e-12
1.92616e-12 -3.89073e-12 22.1215

44.0937 3.04807 -4.23839e-12
3.04807 47.7838 2.10928e-11
-4.23839e-12 2.10928e-11 46.2205

44.0632 -3.04995 5.12424e-11
-3.04995 47.7572 -1.52208e-11
5.12424e-11 -1.52208e-11 46.1856

42.7343 -3.89514 2.851e-11
-3.89514 47.4775 1.84929e-11
2.851e-11 1.84929e-11 45.7482

20.9016 -2.03384 -2.23498e-11
-2.03384 20.494 1.91281e-11
-2.23498e-11 1.91281e-11 22.0895

21.3619 -1.67896 -2.69764e-11
-1.67896 20.7061 -2.21359e-11
-2.69764e-11 -2.21359e-11 22.2572

53.8693 2.68913 1.55981e-11
2.68913 59.2364 -3.97759e-11
1.55981e-11 -3.97759e-11 54.4347

53.7977 -2.82674 -5.3743e-11
-2.82674 58.9533 9.4964e-11
-5.3743e-11 9.4964e-11 54.3634

45.059 -3.69083 -1.34858e-11
-3.69083 42.8391 -4.71997e-11
-1.34858e-11 -4.71997e-11 44.5901

39.8764 -2.98171 -3.3138e-11
-2.98171 41.72 2.51413e-11
-3.3138e-11 2.51413e-11 40.4482

43.4523 2.93802 1.42557e-11
2.93802 45.5919 -2.50466e-12
1.42557e-11 -2.50466e-12 45.1803

43.4298 -2.9368 4.87377e-11
-2.9368 45.5636 -2.76469e-11
4.87377e-11 -2.76469e-11 45.157

40.7527 -3.46991 -2.90897e-11
-3.46991 43.6867 -2.15753e-11
-2.90897e-11 -2.15753e-11 42.4161

39.9151 3.02328 2.09998e-11
3.02328 41.6467 1.47398e-11
2.09998e-11 1.47398e-11 40.4215

28.0447 -1.11189 -2.31218e-12
-1.11189 31.1896 9.58722e-12
-2.31218e-12 9.58722e-12 28.639

28.0352 0.935157 -6.94154e-12
0.935157 31.3577 1.44043e-11
-6.94154e-12 1.44043e-11 28.5822

31.3541 0.799859 -6.84031e-11
0.799859 27.3564 4.51603e-12
-6.84031e-11 4.51603e-12 28.2831

40.7413 3.4613 3.06295e-11
3.4613 43.6512 -3.36135e-11
3.06295e-11 -3.36135e-11 42.3807

25.2189 -0.525419 -3.4678e-12
-0.525419 28.6399 2.31923e-11
-3.4678e-12 2.31923e-11 26.2765

29.1697 -0.315849 -3.77665e-11
-0.315849 24.2407 1.50121e-11
-3.77665e-11 1.50121e-11 26.2158

45.6152 -2.84016 -1.19424e-11
-2.84016 48.1813 -4.43105e-12
-1.19424e-11 -4.43105e-12 47.5598

45.6898 2.82606 -1.48325e-11
2.82606 48.231 2.98585e-11
-1.48325e-11 2.98585e-11 47.609

46.2458 -2.15737 1.19431e-11
-2.15737 48.59 5.74065e-11
1.19431e-11 5.74065e-11 47.9901

46.2859 2.15685 1.61817e-11
2.15685 48.5545 -3.6214e-11
1.61817e-11 -3.6214e-11 48.0036

20.9547 1.86836 5.51102e-11
1.86836 19.8246 -1.27593e-11
5.51102e-11 -1.27593e-11 21.8064

20.6932 1.78208 4.5477e-11
1.78208 19.8386 2.06303e-11
4.5477e-11 2.06303e-11 21.6809

42.9884 2.6979 -6.35877e-12
2.6979 44.8453 -1.23308e-11
-6.35877e-12 -1.23308e-11 43.8505

42.9812 -2.71584 3.73721e-11
-2.71584 44.8588 -2.50403e-12
3.73721e-11 -2.50403e-12 43.8442

50.9 -2.61369 -2.92823e-11
-2.61369 54.6181 1.27908e-10
-2.92823e-11 1.27908e-10 51.9986

51.6863 1.17733 4.73886e-11
1.17733 52.3073 2.29261e-11
4.73886e-11 2.29261e-11 51.6827

45.7249 -2.92852 5.58564e-12
-2.92852 50.158 -1.83046e-12
5.58564e-12 -1.83046e-12 48.5255

45.7383 2.92999 -5.58598e-12
2.92999 50.0916 2.12862e-11
-5.58598e-12 2.12862e-11 48.5252

51.2437 0.189655 2.65839e-11
0.189655 46.5174 7.02122e-11
2.65839e-11 7.02122e-11 49.5711

51.2273 -0.162297 -2.15741e-11
-0.162297 46.5328 1.1125e-11
-2.15741e-11 1.1125e-11 49.571

44.8336 -3.317 -1.27141e-11
-3.317 45.1337 -3.88163e-11
-1.27141e-11 -3.88163e-11 45.9933

44.854 3.3594 3.54465e-11
3.3594 44.9365 2.92081e-13
3.54465e-11 2.92081e-13 45.8989

54.6874 0.80857 5.43222e-11
0.80857 50.4283 -2.63861e-11
5.43222e-11 -2.63861e-11 51.9096

55.0116 0.139843 2.17673e-11
0.139843 52.4328 8.87995e-11
2.17673e-11 8.87995e-11 52.9616

54.7128 -0.81995 9.40043e-11
-0.81995 50.4667 -1.48359e-11
9.40043e-11 -1.48359e-11 51.9372

55.0079 -0.221464 -1.29829e-10
-0.221464 52.2817 -1.48029e-10
-1.29829e-10 -1.48029e-10 52.9347

51.4601 0.136363 -3.08142e-12
0.136363 55.0903 8.47613e-12
-3.08142e-12 8.47613e-12 52.341

56.9266 3.26112 5.93269e-11
3.26112 54.524 3.92022e-11
5.93269e-11 3.92022e-11 53.1279

56.9442 -3.24847 -8.86021e-12
-3.24847 54.5477 -3.61189e-11
-8.86021e-12 -3.61189e-11 53.1259

50.0409 -1.74742 3.42873e-11
-1.74742 58.463 -7.41636e-11
3.42873e-11 -7.41636e-11 52.789

52.311 -1.54181 -2.31511e-12
-1.54181 53.2169 2.89036e-10
-2.31511e-12 2.89036e-10 52.3692

67.5605 -2.23409 -1.49511e-10
-2.23409 49.261 -3.33272e-10
-1.49511e-10 -3.33272e-10 55.2312

52.1571 1.62375 -2.12848e-10
1.62375 53.5125 -4.90294e-11
-2.12848e-10 -4.90294e-11 52.4437

67.5911 2.06563 6.6811e-10
2.06563 49.9409 -5.84338e-10
6.6811e-10 -5.84338e-10 55.4275

53.4267 -2.11284 3.67939e-11
-2.11284 52.5371 -5.13344e-11
3.67939e-11 -5.13344e-11 52.2111

49.6656 -1.47423 2.85086e-11
-1.47423 51.9048 -1.31956e-11
2.85086e-11 -1.31956e-11 50.6086

54.6613 -0.122979 5.66306e-11
-0.122979 52.5892 -2.08998e-11
5.66306e-11 -2.08998e-11 53.0918

53.3608 2.21793 -3.2168e-11
2.21793 52.5829 -9.66727e-14
-3.2168e-11 -9.66727e-14 52.2328

49.7044 1.52458 -4.23905e-12
1.52458 51.8192 9.34317e-12
-4.23905e-12 9.34317e-12 50.6028

54.7237 0.138718 3.46697e-12
0.138718 53.0039 -5.4416e-11
3.46697e-12 -5.4416e-11 53.2306

49.5197 -1.21713 1.3677e-11
-1.21713 51.3061 -4.37273e-11
1.3677e-11 -4.37273e-11 50.7091

53.4175 -0.683038 7.45469e-11
-0.683038 52.4792 8.18555e-12
7.45469e-11 8.18555e-12 52.3112

49.586 1.27453 1.98392e-11
1.27453 51.3189 -1.78179e-11
1.98392e-11 -1.78179e-11 50.7388

53.454 0.713884 3.21686e-11
0.713884 52.5084 6.78031e-11
3.21686e-11 6.78031e-11 52.3375

37.6002 2.87377 2.21542e-11
2.87377 40.9193 -8.47544e-12
2.21542e-11 -8.47544e-12 38.3703

41.8917 0.580586 6.74141e-12
0.580586 48.003 -2.31326e-12
6.74141e-12 -2.31326e-12 45.2763

44.4267 1.54753 1.34861e-11
1.54753 46.8194 2.3695e-11
1.34861e-11 2.3695e-11 45.4115

43.4632 -1.88114 -5.39376e-12
-1.88114 37.2126 2.46556e-11
-5.39376e-12 2.46556e-11 40.8513

41.4505 -1.14997 1.34714e-12
-1.14997 35.7477 4.58543e-11
1.34714e-12 4.58543e-11 38.4591

42.9496 0.881494 1.00149e-11
0.881494 51.241 2.1575e-11
1.00149e-11 2.1575e-11 47.7386

45.0411 1.59829 1.5218e-11
1.59829 47.9272 -2.38875e-11
1.5218e-11 -2.38875e-11 47.4534

41.5821 -0.0107822 1.4451e-11
-0.0107822 36.1473 7.70667e-12
1.4451e-11 7.70667e-12 38.6994

46.9688 0.727315 7.89705e-12
0.727315 40.311 -7.32063e-12
7.89705e-12 -7.32063e-12 45.5051

30.3093 2.4857 -5.77845e-12
2.4857 33.955 -1.21376e-11
-5.77845e-12 -1.21376e-11 31.091

29.1338 1.96719 1.69573e-11
1.96719 33.6414 1.61851e-11
1.69573e-11 1.61851e-11 30.6701

32.8564 1.97119 -3.10227e-11
1.97119 29.3382 -1.77301e-11
-3.10227e-11 -1.77301e-11 30.254

48.2691 -3.0033 -8.66792e-12
-3.0033 49.9464 -2.02257e-11
-8.66792e-12 -2.02257e-11 49.0113

47.8156 -1.26194 1.15598e-12
-1.26194 51.1455 -7.70473e-12
1.15598e-12 -7.70473e-12 49.1701

41.6834 -3.46938 -8.66374e-12
-3.46938 41.2385 -1.50279e-11
-8.66374e-12 -1.50279e-11 41.5882

38.4077 2.78934 2.3698e-11
2.78934 42.7814 3.69892e-11
2.3698e-11 3.69892e-11 40.663

41.9801 3.25776 -3.12093e-11
3.25776 46.0487 -1.77235e-11
-3.12093e-11 -1.77235e-11 44.5801

44.8593 -1.57459 5.58581e-12
-1.57459 47.8177 -2.31159e-11
5.58581e-12 -2.31159e-11 47.3079

42.7834 -1.04395 5.19982e-12
-1.04395 51.2584 2.31164e-11
5.19982e-12 2.31164e-11 47.5787

44.6001 0.876338 -2.93898e-12
0.876338 37.7817 2.54308e-11
-2.93898e-12 2.54308e-11 41.3618

32.9321 0.817 -1.56062e-11
0.817 37.5979 9.43823e-12
-1.56062e-11 9.43823e-12 33.7676

31.8662 0.361353 1.91727e-11
0.361353 37.4354 -3.85418e-12
1.91727e-11 -3.85418e-12 33.6277

36.9931 0.339899 -3.92059e-11
0.339899 31.9847 -1.15289e-12
-3.92059e-11 -1.15289e-12 33.0766

36.4733 1.96448 -9.84028e-14
1.96448 41.2497 -2.42735e-11
-9.84028e-14 -2.42735e-11 38.5077

37.2642 3.21049 -8.66714e-12
3.21049 40.0001 1.23315e-11
-8.66714e-12 1.23315e-11 38.0135

43.385 0.546305 -2.67804e-11
0.546305 37.3641 1.15813e-12
-2.67804e-11 1.15813e-12 41.1598

28.4127 1.48567 -1.97398e-13
1.48567 31.2155 2.37032e-11
-1.97398e-13 2.37032e-11 28.1995

46.9072 -2.00996 -2.27333e-11
-2.00996 40.0827 1.42562e-11
-2.27333e-11 1.42562e-11 44.7103

48.1941 0.152539 3.48648e-11
0.152539 52.6594 8.47674e-12
3.48648e-11 8.47674e-12 49.6563

49.5016 0.0429241 -8.66999e-12
0.0429241 50.1245 -5.29687e-12
-8.66999e-12 -5.29687e-12 49.4696

59.6032 1.34858 -7.70515e-11
1.34858 52.0036 2.23379e-11
-7.70515e-11 2.23379e-11 53.6704

60.1412 -3.24704 -3.81374e-11
-3.24704 54.6941 -2.96059e-15
-3.81374e-11 -2.96059e-15 54.0429

40.316 -3.68155 1.36799e-11
-3.68155 41.2949 -1.65696e-11
1.36799e-11 -1.65696e-11 41.0256

36.3729 -2.97792 -2.50448e-11
-2.97792 39.6804 -1.53995e-12
-2.50448e-11 -1.53995e-12 37.928

36.3559 -1.02506 1.40666e-11
-1.02506 30.8475 1.50298e-11
1.40666e-11 1.50298e-11 32.7018

51.6504 0.528814 -1.03996e-11
0.528814 47.9937 1.77219e-11
-1.03996e-11 1.77219e-11 49.6371

51.6946 -1.92302 -1.73382e-11
-1.92302 48.2799 3.50591e-11
-1.73382e-11 3.50591e-11 49.3901

47.1044 -0.854474 2.23481e-11
-0.854474 40.4187 4.62456e-12
2.23481e-11 4.62456e-12 45.5811

46.3451 -0.253891 1.02109e-11
-0.253891 38.7608 -3.86233e-13
1.02109e-11 -3.86233e-13 44.5982

39.2329 -3.03648 6.16766e-12
-3.03648 36.257 1.04045e-11
6.16766e-12 1.04045e-11 36.9009

39.3695 1.40357 8.66914e-12
1.40357 34.2945 -7.3187e-12
8.66914e-12 -7.3187e-12 36.183

38.7075 -2.47775 3.85077e-12
-2.47775 33.8095 3.04392e-11
3.85077e-12 3.04392e-11 35.7506

40.0435 2.04115 3.37135e-11
2.04115 46.5863 1.61844e-11
3.37135e-11 1.61844e-11 44.572

36.8331 -2.46699 -2.42751e-11
-2.46699 41.09 1.92809e-12
-2.42751e-11 1.92809e-12 38.576

36.1995 2.37225 -1.31007e-11
2.37225 39.7404 -5.9341e-11
-1.31007e-11 -5.9341e-11 37.9528

22.5147 -3.76719 -8.67099e-12
-3.76719 22.6811 -1.96548e-11
-8.67099e-12 -1.96548e-11 22.4529

21.2182 2.31761 1.52219e-11
2.31761 22.4233 -4.66343e-11
1.52219e-11 -4.66343e-11 22.0073

42.5007 -2.82323 -2.1767e-11
-2.82323 48.872 -3.50609e-11
-2.1767e-11 -3.50609e-11 47.0221

37.3187 1.87392 -2.20554e-11
1.87392 43.2021 1.9267e-11
-2.20554e-11 1.9267e-11 40.8427

21.3565 0.391857 3.1795e-11
0.391857 21.701 1.54132e-11
3.1795e-11 1.54132e-11 22.6755

21.8727 -0.762406 1.61857e-11
-0.762406 23.0371 -5.77316e-13
1.61857e-11 -5.77316e-13 23.1254

48.9791 -1.12227 2.0323e-11
-1.12227 50.6682 -4.46891e-11
2.0323e-11 -4.46891e-11 49.7585

48.6013 2.3731 1.02566e-11
2.3731 49.5722 5.74091e-11
1.02566e-11 5.74091e-11 49.5687

47.3864 0.0253138 1.81087e-11
0.0253138 39.2175 7.51499e-12
1.81087e-11 7.51499e-12 43.4117

48.7416 -0.752053 3.64823e-11
-0.752053 49.0709 -1.13637e-11
3.64823e-11 -1.13637e-11 49.3857

48.674 2.21482 7.28306e-14
2.21482 49.6755 -1.03251e-10
7.28306e-14 -1.03251e-10 49.5681

56.6605 2.43171 3.46745e-11
2.43171 50.3474 -7.51569e-12
3.46745e-11 -7.51569e-12 52.3796

56.3154 -2.97497 -2.34956e-11
-2.97497 53.0107 -3.54422e-11
-2.34956e-11 -3.54422e-11 52.608

45.6662 -1.79655 -3.82389e-11
-1.79655 45.9259 2.66812e-11
-3.82389e-11 2.66812e-11 46.2797

45.526 2.37345 1.54112e-11
2.37345 45.3611 7.41655e-12
1.54112e-11 7.41655e-12 46.2733

51.0816 -0.188554 -1.75308e-11
-0.188554 57.583 -1.57967e-11
-1.75308e-11 -1.57967e-11 52.3892

50.7644 0.852361 -3.89105e-11
0.852361 53.7338 2.0803e-11
-3.89105e-11 2.0803e-11 51.6859

37.1425 -3.39171 -2.88939e-12
-3.39171 41.0112 1.25226e-11
-2.88939e-12 1.25226e-11 38.3535

26.2639 0.35761 9.63559e-12
0.35761 29.8348 -3.93076e-11
9.63559e-12 -3.93076e-11 27.2761

29.5808 0.460699 3.94992e-11
0.460699 26.6527 1.81167e-11
3.94992e-11 1.81167e-11 27.2674

39.127 1.78271 -3.44795e-11
1.78271 46.114 2.35029e-11
-3.44795e-11 2.35029e-11 43.6362

41.073 2.61666 3.9297e-11
2.61666 45.3601 -1.71461e-11
3.9297e-11 -1.71461e-11 43.6809

58.1384 -2.47963 7.45977e-12
-2.47963 53.7121 1.58914e-10
7.45977e-12 1.58914e-10 54.2431

57.8246 3.84978 -6.26123e-11
3.84978 62.2435 -7.31955e-11
-6.26123e-11 -7.31955e-11 55.8672

39.0678 2.398 -1.04034e-11
2.398 37.7915 -2.10013e-11
-1.04034e-11 -2.10013e-11 37.5696

43.2961 4.04736 -1.04003e-11
4.04736 47.3559 3.77585e-11
-1.04003e-11 3.77585e-11 45.9067

45.1214 1.53847 1.17037e-11
1.53847 41.1204 -3.07865e-12
1.17037e-11 -3.07865e-12 43.8643

45.2296 -1.22463 -4.76782e-12
-1.22463 41.1494 -5.76058e-13
-4.76782e-12 -5.76058e-13 43.7665

43.4054 3.84451 1.53766e-12
3.84451 45.9846 -4.56571e-11
1.53766e-12 -4.56571e-11 45.4654

44.4134 -3.79315 3.9509e-12
-3.79315 48.5585 -2.71633e-11
3.9509e-12 -2.71633e-11 47.1711

50.1302 -3.24575 -1.30957e-11
-3.24575 44.7697 -2.34982e-11
-1.30957e-11 -2.34982e-11 47.9222

36.3102 -0.289872 1.85917e-11
-0.289872 31.0948 -2.54299e-11
1.85917e-11 -2.54299e-11 32.8111

61.7246 0.452054 8.28237e-11
0.452054 59.3439 3.85244e-11
8.28237e-11 3.85244e-11 55.514

61.9312 -0.280477 1.26364e-10
-0.280477 54.2392 -5.29683e-11
1.26364e-10 -5.29683e-11 54.8239

40.529 2.95162 3.88208e-13
2.95162 39.2229 -8.86413e-12
3.88208e-13 -8.86413e-12 40.0369

45.0367 1.12239 -5.39183e-12
1.12239 39.4613 -4.73906e-11
-5.39183e-12 -4.73906e-11 42.0683

33.8687 2.51873 2.13898e-11
2.51873 35.0236 -1.34974e-12
2.13898e-11 -1.34974e-12 32.9787

52.0726 0.598936 5.586e-11
0.598936 53.9307 1.13666e-11
5.586e-11 1.13666e-11 52.436

53.9136 1.74219 9.39951e-11
1.74219 59.4024 6.93345e-12
9.39951e-11 6.93345e-12 53.6806

50.1876 1.61103 -9.24738e-12
1.61103 44.2009 -3.7948e-11
-9.24738e-12 -3.7948e-11 48.2039

41.7328 -0.681999 2.09981e-11
-0.681999 48.111 -1.92659e-11
2.09981e-11 -1.92659e-11 45.1657

44.3238 -1.45864 8.95818e-12
-1.45864 46.955 1.77232e-11
8.95818e-12 1.77232e-11 45.3734

48.1557 0.468416 1.82872e-12
0.468416 40.3037 -2.69821e-12
1.82872e-12 -2.69821e-12 45.0147

48.3987 -0.366194 -1.7916e-11
-0.366194 40.2359 1.676e-11
-1.7916e-11 1.676e-11 44.9828

34.9742 -2.52653 -2.0901e-11
-2.52653 33.7991 -4.31595e-11
-2.0901e-11 -4.31595e-11 32.6941

42.9106 0.00721459 2.28783e-11
0.00721459 36.1162 3.21742e-11
2.28783e-11 3.21742e-11 38.8712

49.2529 -0.410985 -1.75785e-11
-0.410985 43.5646 -1.6758e-11
-1.75785e-11 -1.6758e-11 47.1403

48.5999 0.832356 1.91411e-11
0.832356 44.1202 -1.54109e-11
1.91411e-11 -1.54109e-11 47.176

45.2299 -1.05195 3.83545e-13
-1.05195 40.1383 -9.63233e-12
3.83545e-13 -9.63233e-12 42.1397

37.9857 -2.99394 -2.39844e-11
-2.99394 41.4428 -4.10371e-11
-2.39844e-11 -4.10371e-11 38.8984

49.0068 -0.24119 -1.26177e-11
-0.24119 42.5696 1.35007e-12
-1.26177e-11 1.35007e-12 45.7813

48.6088 0.536086 -2.35971e-12
0.536086 42.3786 -1.57975e-11
-2.35971e-12 -1.57975e-11 45.7608

44.4604 1.22034 -3.67957e-11
1.22034 39.6083 -7.12859e-12
-3.67957e-11 -7.12859e-12 42.4965

35.3035 -3.81101 -2.35051e-11
-3.81101 34.799 2.65876e-11
-2.35051e-11 2.65876e-11 34.5977

41.6581 3.67419 -1.08863e-11
3.67419 45.0345 3.08168e-12
-1.08863e-11 3.08168e-12 45.1163

43.64 3.60967 2.46584e-11
3.60967 47.9231 3.75676e-11
2.46584e-11 3.75676e-11 46.3053

41.3091 2.72385 -4.62337e-12
2.72385 45.4096 2.69668e-12
-4.62337e-12 2.69668e-12 45.4542

39.739 1.32953 5.84763e-11
1.32953 33.8818 7.70863e-12
5.84763e-11 7.70863e-12 36.1874

31.13 -2.6285 -1.92587e-13
-2.6285 28.8236 -1.0019e-11
-1.92587e-13 -1.0019e-11 28.881

44.8802 2.21981 -3.91064e-11
2.21981 41.7995 -1.42571e-11
-3.91064e-11 -1.42571e-11 44.2471

44.308 -2.36456 -1.95103e-13
-2.36456 39.462 -6.54958e-12
-1.95103e-13 -6.54958e-12 41.9288

31.6063 -2.27798 1.54175e-11
-2.27798 28.6788 -2.62017e-11
1.54175e-11 -2.62017e-11 29.0766

40.7457 -3.79689 -9.6545e-13
-3.79689 38.2007 3.4653e-12
-9.6545e-13 3.4653e-12 39.6778

40.2591 0.096688 -5.77866e-12
0.096688 44.6163 3.85321e-11
-5.77866e-12 3.85321e-11 43.1702

38.4826 0.000409288 1.79162e-11
0.000409288 46.9805 -8.09219e-12
1.79162e-11 -8.09219e-12 43.4033

36.0903 3.23682 2.33136e-11
3.23682 36.3753 9.8257e-12
2.33136e-11 9.8257e-12 35.6041

33.9346 -2.69619 -2.07164e-11
-2.69619 30.159 4.23901e-11
-2.07164e-11 4.23901e-11 31.03

43.2673 -3.93876 1.94569e-11
-3.93876 44.6219 3.08194e-12
1.94569e-11 3.08194e-12 45.1784

36.1628 -3.52264 -1.66701e-11
-3.52264 37.9793 4.12298e-11
-1.66701e-11 4.12298e-11 35.9336

35.6835 -3.56147 -3.27556e-11
-3.56147 37.2847 6.35804e-11
-3.27556e-11 6.35804e-11 35.6493

43.989 1.82215 -4.37305e-11
1.82215 40.5576 7.51125e-12
-4.37305e-11 7.51125e-12 42.283

49.8637 1.15071 2.54294e-11
1.15071 39.5575 1.32907e-11
2.54294e-11 1.32907e-11 47.0636

49.5118 -1.81254 7.70336e-12
-1.81254 40.94 2.54273e-11
7.70336e-12 2.54273e-11 47.0215

34.8957 2.02321 -3.41021e-11
2.02321 39.5056 -3.87257e-11
-3.41021e-11 -3.87257e-11 36.4998

33.7036 1.38204 3.03409e-11
1.38204 40.1203 -2.96712e-11
3.03409e-11 -2.96712e-11 36.6073

29.9342 -0.294 -2.15769e-11
-0.294 36.032 8.67047e-12
-2.15769e-11 8.67047e-12 32.0351

29.1947 -0.391108 -7.71661e-13
-0.391108 36.2431 4.62452e-12
-7.71661e-13 4.62452e-12 32.0161

35.9188 -0.259029 -3.0645e-11
-0.259029 29.2695 -1.50274e-11
-3.0645e-11 -1.50274e-11 31.5845

37.071 -3.21125 -4.0749e-11
-3.21125 35.2045 -1.77242e-11
-4.0749e-11 -1.77242e-11 35.481

53.0126 -2.36585 9.38051e-11
-2.36585 56.593 -6.04886e-11
9.38051e-11 -6.04886e-11 53.6176

63.0411 -0.94036 -7.74295e-11
-0.94036 63.0696 4.81521e-11
-7.74295e-11 4.81521e-11 56.6313

37.9674 2.26305 -9.05402e-12
2.26305 34.1692 3.73765e-11
-9.05402e-12 3.73765e-11 35.5364

40.2171 -1.54364 2.6683e-11
-1.54364 34.2208 -1.94678e-13
2.6683e-11 -1.94678e-13 36.5339

31.8765 1.41445 -3.64153e-11
1.41445 28.6107 9.8244e-12
-3.64153e-11 9.8244e-12 29.3006

39.137 2.32094 1.93614e-11
2.32094 43.9467 2.35041e-11
1.93614e-11 2.35041e-11 42.722

47.3862 0.0374972 1.6375e-12
0.0374972 39.265 2.31304e-12
1.6375e-12 2.31304e-12 43.3687

44.2024 3.53611 -5.79832e-13
3.53611 48.353 -3.98764e-11
-5.79832e-13 -3.98764e-11 47.2069

41.5516 2.81004 4.23759e-12
2.81004 48.865 -1.54214e-12
4.23759e-12 -1.54214e-12 46.9909

32.7771 1.82161 -8.57477e-12
1.82161 34.7404 1.39643e-11
-8.57477e-12 1.39643e-11 32.5991

33.9881 2.02743 7.03141e-12
2.02743 33.4403 1.657e-11
7.03141e-12 1.657e-11 32.3202

42.7778 -4.27367 -4.3355e-12
-4.27367 46.9593 2.87053e-11
-4.3355e-12 2.87053e-11 45.4062

32.1645 1.14286 -8.67558e-12
1.14286 28.7023 -2.35069e-11
-8.67558e-12 -2.35069e-11 29.4924

41.3054 3.15702 -4.33268e-12
3.15702 44.4861 1.69506e-11
-4.33268e-12 1.69506e-11 45.4169

41.0318 3.8475 -4.87405e-11
3.8475 44.6343 -1.1367e-11
-4.87405e-11 -1.1367e-11 42.9028

50.0713 -0.055022 9.68114e-12
-0.055022 40.4452 -5.58636e-12
9.68114e-12 -5.58636e-12 46.007

42.4242 -2.91635 1.44483e-11
-2.91635 44.7358 1.65684e-11
1.44483e-11 1.65684e-11 45.6202

40.8738 3.14823 2.29303e-11
3.14823 41.0788 8.66551e-12
2.29303e-11 8.66551e-12 40.7114

33.725 -1.54343 2.88973e-11
-1.54343 38.0217 -8.477e-12
2.88973e-11 -8.477e-12 34.3991

32.4614 -1.46931 -1.0401e-11
-1.46931 38.0018 -3.42949e-11
-1.0401e-11 -3.42949e-11 34.2012

37.3702 -1.09531 -5.28875e-11
-1.09531 32.9675 2.42774e-11
-5.28875e-11 2.42774e-11 33.7388

37.9919 -2.88384 -3.32376e-11
-2.88384 38.4156 2.17678e-11
-3.32376e-11 2.17678e-11 37.0382

37.2826 -0.189676 -6.3539e-12
-0.189676 43.9021 2.38876e-11
-6.3539e-12 2.38876e-11 40.3342

39.507 -0.02779 5.97224e-12
-0.02779 43.4147 -2.67781e-11
5.97224e-12 -2.67781e-11 40.526

31.588 -3.08835 3.81486e-11
-3.08835 33.0071 -6.35795e-12
3.81486e-11 -6.35795e-12 31.0511

30.7185 -3.00066 1.02156e-11
-3.00066 33.4957 -3.81545e-11
1.02156e-11 -3.81545e-11 31.1039

50.1253 -0.153069 -6.04485e-12
-0.153069 41.1476 2.58129e-11
-6.04485e-12 2.58129e-11 46.2141

50.3567 0.158487 -7.70809e-13
0.158487 41.0305 2.36942e-11
-7.70809e-13 2.36942e-11 46.1979

40.6047 2.94207 2.77387e-11
2.94207 43.4521 5.12458e-11
2.77387e-11 5.12458e-11 43.2953

41.5018 -2.47862 -3.08186e-11
-2.47862 48.4454 -2.62e-11
-3.08186e-11 -2.62e-11 46.7993

44.4969 -3.81107 2.83225e-11
-3.81107 42.3796 -2.54289e-11
2.83225e-11 -2.54289e-11 44.1046

47.7044 1.45212 6.13579e-11
1.45212 46.1451 1.28137e-11
6.13579e-11 1.28137e-11 47.751

48.3246 -0.443059 -2.49234e-11
-0.443059 46.8806 3.61192e-11
-2.49234e-11 3.61192e-11 47.9307

45.9392 -1.59051 -3.61709e-11
-1.59051 44.1857 1.17505e-11
-3.61709e-11 1.17505e-11 44.7707

45.5511 1.91332 -3.99999e-12
1.91332 42.9897 5.16281e-11
-3.99999e-12 5.16281e-11 44.5898

20.9212 -1.59864 -1.36791e-11
-1.59864 17.4274 -1.75355e-11
-1.36791e-11 -1.75355e-11 21.7665

35.4017 3.03261 1.13691e-11
3.03261 37.3082 2.27354e-11
1.13691e-11 2.27354e-11 35.7389

18.7709 1.10325 -1.94215e-13
1.10325 21.0643 -1.3877e-11
-1.94215e-13 -1.3877e-11 22.0467

41.4636 3.41042 2.42714e-11
3.41042 43.3746 -8.09127e-12
2.42714e-11 -8.09127e-12 42.687

35.222 -2.39001 2.09055e-11
-2.39001 40.3474 -2.9093e-11
2.09055e-11 -2.9093e-11 36.9925

33.7924 -2.13063 -1.25221e-11
-2.13063 40.0436 1.88813e-11
-1.25221e-11 1.88813e-11 36.7002

53.1354 -0.732675 -1.67678e-11
-0.732675 52.2808 1.56012e-11
-1.67678e-11 1.56012e-11 52.1372

51.9709 2.00806 6.32444e-11
2.00806 54.198 1.65681e-11
6.32444e-11 1.65681e-11 52.3065

41.8654 2.26345 7.75528e-13
2.26345 40.1145 -2.65851e-11
7.75528e-13 -2.65851e-11 40.92

42.9991 -0.231323 8.08975e-12
-0.231323 36.467 -2.11956e-12
8.08975e-12 -2.11956e-12 38.9514

36.8876 2.5362 -1.40663e-11
2.5362 34.542 3.1206e-11
-1.40663e-11 3.1206e-11 35.2368

39.4321 -1.46347 3.46755e-12
-1.46347 46.8919 -2.35038e-11
3.46755e-12 -2.35038e-11 43.8194

41.1812 -2.41288 -9.24728e-12
-2.41288 45.4921 1.42558e-11
-9.24728e-12 1.42558e-11 43.7705

43.2036 -4.38438 1.65662e-11
-4.38438 48.6602 6.93446e-12
1.65662e-11 6.93446e-12 46.2268

42.1244 -2.43827 3.38135e-11
-2.43827 41.1826 -2.50814e-12
3.38135e-11 -2.50814e-12 41.0526

42.8543 4.08146 1.67613e-11
4.08146 47.2698 4.97048e-11
1.67613e-11 4.97048e-11 45.8405

48.0424 1.88539 -3.39038e-11
1.88539 50.734 -1.10778e-11
-3.39038e-11 -1.10778e-11 49.2531

48.1172 2.85526 -1.32933e-11
2.85526 49.5863 -4.00682e-11
-1.32933e-11 -4.00682e-11 49.0038

41.5368 -3.83906 4.96041e-11
-3.83906 46.0175 2.48498e-11
4.96041e-11 2.48498e-11 43.7551

41.8429 3.48588 -4.62497e-12
3.48588 45.1819 -4.02658e-11
-4.62497e-12 -4.02658e-11 43.5758

39.1645 4.39078 3.85234e-12
4.39078 45.2904 -8.09247e-12
3.85234e-12 -8.09247e-12 45.1026

35.3507 0.412741 1.24275e-11
0.412741 42.9312 4.54697e-11
1.24275e-11 4.54697e-11 39.1266

36.5743 0.955823 -1.63747e-11
0.955823 41.9159 -5.20214e-12
-1.63747e-11 -5.20214e-12 38.9495

42.1949 2.70839 8.66344e-13
2.70839 41.7318 2.35032e-11
8.66344e-13 2.35032e-11 42.7453

37.7734 2.27742 -1.75349e-11
2.27742 37.4942 4.85486e-11
-1.75349e-11 4.85486e-11 36.9857

37.7268 -2.3589 -1.61809e-11
-2.3589 43.2183 -7.70635e-12
-1.61809e-11 -7.70635e-12 40.9986

44.3312 -4.1207 7.80341e-12
-4.1207 48.8332 -1.15599e-11
7.80341e-12 -1.15599e-11 47.1661

25.0597 1.36626 5.97692e-12
1.36626 27.0016 5.01081e-12
5.97692e-12 5.01081e-12 25.2706

26.5656 1.42437 -2.12956e-11
1.42437 25.4542 2.34922e-11
-2.12956e-11 2.34922e-11 25.2656

32.5695 -3.05107 4.62457e-11
-3.05107 33.325 -5.85768e-11
4.62457e-11 -5.85768e-11 31.8246

42.3494 -2.8353 2.08066e-11
-2.8353 42.7039 2.3502e-11
2.08066e-11 2.3502e-11 42.799

44.6204 -0.84749 -1.55538e-11
-0.84749 37.8052 -2.69633e-12
-1.55538e-11 -2.69633e-12 41.3106

56.6412 3.07039 2.07573e-11
3.07039 58.3517 3.12034e-11
2.07573e-11 3.12034e-11 54.7547

59.0901 -3.34094 -6.35314e-11
-3.34094 54.266 2.04249e-11
-6.35314e-11 2.04249e-11 54.436

41.1543 -4.19182 -2.77413e-11
-4.19182 45.4803 1.09826e-11
-2.77413e-11 1.09826e-11 43.2979

51.7289 0.777799 -2.92806e-11
0.777799 49.9177 1.73371e-11
-2.92806e-11 1.73371e-11 51.0139

52.971 -3.183 4.00676e-11
-3.183 53.0788 -1.42526e-11
4.00676e-11 -1.42526e-11 51.6699

44.8231 -1.10686 -2.73587e-11
-1.10686 38.6701 -3.85573e-12
-2.73587e-11 -3.85573e-12 42.7528

40.0112 -4.35076 4.02614e-11
-4.35076 45.0873 1.07877e-11
4.02614e-11 1.07877e-11 45.1269

26.2989 -2.66508 -1.92579e-12
-2.66508 27.4421 7.70724e-12
-1.92579e-12 7.70724e-12 26.2469

27.2865 1.9425 -2.31652e-12
1.9425 27.1823 -8.18686e-12
-2.31652e-12 -8.18686e-12 26.4602

27.1658 -1.58853 -1.48385e-11
-1.58853 30.9986 1.04038e-11
-1.48385e-11 1.04038e-11 28.0832

27.7359 -1.74254 7.71194e-12
-1.74254 31.4707 -7.70872e-12
7.71194e-12 -7.70872e-12 28.5874

31.3504 -1.32321 1.45404e-11
-1.32321 27.1934 -2.0454e-13
1.45404e-11 -2.0454e-13 28.0961

33.5308 2.357 3.81473e-13
2.357 33.0574 4.75885e-11
3.81473e-13 4.75885e-11 32.1905

42.7882 -4.66039 1.71454e-11
-4.66039 48.0412 -1.21375e-11
1.71454e-11 -1.21375e-11 45.9091

24.6464 0.236738 2.69756e-12
0.236738 29.4684 2.428e-11
2.69756e-12 2.428e-11 26.3553

29.0941 -0.706445 1.00196e-11
-0.706445 24.4957 -1.54104e-11
1.00196e-11 -1.54104e-11 26.336

50.2246 0.363472 -1.71419e-11
0.363472 55.0783 -1.15763e-12
-1.71419e-11 -1.15763e-12 51.3614

50.0064 -1.89604 -4.43079e-12
-1.89604 51.81 -4.55569e-11
-4.43079e-12 -4.55569e-11 50.7463

47.4704 -2.17601 -2.67773e-11
-2.17601 42.9436 -9.24387e-12
-2.67773e-11 -9.24387e-12 45.4761

47.2831 -0.135893 8.09177e-12
-0.135893 36.8992 -1.38695e-11
8.09177e-12 -1.38695e-11 45.0183

31.2897 -2.33906 4.82455e-12
-2.33906 35.6195 -6.39677e-11
4.82455e-12 -6.39677e-11 32.8877

32.4195 -2.33345 2.55289e-11
-2.33345 36.3656 -1.7726e-11
2.55289e-11 -1.7726e-11 33.3236

45.3272 -0.129395 -1.52212e-11
-0.129395 38.5625 -2.92788e-11
-1.52212e-11 -2.92788e-11 42.9917

38.929 -3.20483 -3.662e-12
-3.20483 43.6667 2.63948e-11
-3.662e-12 2.63948e-11 41.2591

51.9515 0.0476272 1.95155e-12
0.0476272 50.3625 -2.71602e-11
1.95155e-12 -2.71602e-11 50.9051

50.6792 0.95779 -5.77905e-11
0.95779 51.265 -6.62686e-11
-5.77905e-11 -6.62686e-11 50.8695

45.7554 -3.01947 1.079e-11
-3.01947 43.7219 -2.11888e-11
1.079e-11 -2.11888e-11 45.0031

41.0552 -3.08444 5.39402e-12
-3.08444 43.1349 -3.85273e-12
5.39402e-12 -3.85273e-12 43.1114

46.5441 -2.16845 -2.9671e-11
-2.16845 39.6544 8.47494e-12
-2.9671e-11 8.47494e-12 44.096

39.8821 -2.71637 -1.77235e-11
-2.71637 43.9993 -3.96844e-11
-1.77235e-11 -3.96844e-11 42.8814

21.0652 -5.17436 -1.2338e-11
-5.17436 21.5675 5.62694e-11
-1.2338e-11 5.62694e-11 21.551

37.0982 -1.19146 3.42922e-11
-1.19146 41.895 9.24668e-12
3.42922e-11 9.24668e-12 39.1178

35.8124 -0.897465 2.02265e-11
-0.897465 42.9134 3.89165e-11
2.02265e-11 3.89165e-11 39.2

49.6582 -0.437702 3.4864e-11
-0.437702 57.1779 -2.0036e-11
3.4864e-11 -2.0036e-11 51.8121

50.2775 -0.517715 -4.43031e-12
-0.517715 51.511 -1.02093e-11
-4.43031e-12 -1.02093e-11 50.9557

51.1178 -0.291118 2.85115e-11
-0.291118 42.5453 -1.11718e-11
2.85115e-11 -1.11718e-11 47.5595

50.4607 0.143706 -8.38115e-12
0.143706 42.864 2.96657e-11
-8.38115e-12 2.96657e-11 47.529

47.0735 2.26358 -3.94873e-11
2.26358 45.7301 5.95211e-11
-3.94873e-11 5.95211e-11 47.3321

47.9415 -4.06323 -6.47257e-11
-4.06323 45.453 1.92583e-12
-6.47257e-11 1.92583e-12 47.1856

51.9532 0.809085 7.16576e-11
0.809085 51.5244 -6.74046e-12
7.16576e-11 -6.74046e-12 51.0491

53.6435 -1.44943 5.20104e-11
-1.44943 51.5962 1.94567e-11
5.20104e-11 1.94567e-11 51.2507

55.3093 -1.58325 1.47433e-10
-1.58325 53.5437 -5.48969e-11
1.47433e-10 -5.48969e-11 53.3059

55.7801 4.75361 1.37525e-11
4.75361 57.848 -7.89753e-11
1.37525e-11 -7.89753e-11 54.2641

44.6598 -4.19743 1.25144e-12
-4.19743 49.0676 3.73718e-11
1.25144e-12 3.73718e-11 47.4917

42.5925 5.19611 7.08241e-12
5.19611 46.0611 2.23478e-11
7.08241e-12 2.23478e-11 46.8375

41.4095 2.10015 -9.05609e-12
2.10015 38.0088 -4.89339e-11
-9.05609e-12 -4.89339e-11 39.8834

38.3665 -1.79169 9.82627e-12
-1.79169 44.2022 -3.84285e-13
9.82627e-12 -3.84285e-13 41.539

40.4611 -2.71782 -8.76912e-12
-2.71782 44.3439 4.1612e-11
-8.76912e-12 4.1612e-11 41.8498

41.6077 -2.21024 4.22894e-11
-2.21024 38.6158 -1.86865e-11
4.22894e-11 -1.86865e-11 39.9703

40.3072 2.04514 4.60436e-11
2.04514 43.7825 7.31792e-12
4.60436e-11 7.31792e-12 41.553

38.3266 1.20738 -5.03776e-11
1.20738 44.3487 3.39069e-11
-5.03776e-11 3.39069e-11 41.5084

39.1722 2.90207 -3.27482e-11
2.90207 39.032 7.70132e-12
-3.27482e-11 7.70132e-12 39.2603

45.2728 3.4818 6.55006e-12
3.4818 48.2135 2.61997e-11
6.55006e-12 2.61997e-11 47.6094

44.5745 -4.65332 -3.85336e-12
-4.65332 46.4573 3.39057e-11
-3.85336e-12 3.39057e-11 47.1822

39.652 -3.55402 2.60108e-11
-3.55402 39.9466 -2.3119e-11
2.60108e-11 -2.3119e-11 39.3891

47.9658 1.02983 -1.04011e-11
1.02983 43.5363 -3.17849e-11
-1.04011e-11 -3.17849e-11 46.2138

62.8718 -1.56989 6.62565e-11
-1.56989 61.9779 3.89078e-11
6.62565e-11 3.89078e-11 56.3232

53.5749 0.955667 2.88886e-12
0.955667 54.4856 5.46069e-11
2.88886e-12 5.46069e-11 53.2688

43.8129 -3.52109 8.28214e-12
-3.52109 47.2849 2.38889e-11
8.28214e-12 2.38889e-11 45.5166

44.9137 -3.48839 2.83164e-11
-3.48839 41.1917 1.57973e-11
2.83164e-11 1.57973e-11 43.6697

51.895 -0.301593 -5.39189e-12
-0.301593 48.1016 -1.23291e-11
-5.39189e-12 -1.23291e-11 49.639

26.1598 -2.45035 -1.52204e-11
-2.45035 27.1044 3.6593e-12
-1.52204e-11 3.6593e-12 25.6748

27.3387 -2.18713 -5.97315e-12
-2.18713 25.8412 -4.80505e-13
-5.97315e-12 -4.80505e-13 25.7126

51.7397 0.240646 -1.10773e-11
0.240646 44.3041 -1.07872e-11
-1.10773e-11 -1.07872e-11 48.4807

50.4985 -0.188918 3.84316e-11
-0.188918 44.6187 -1.34818e-11
3.84316e-11 -1.34818e-11 48.3186

52.0247 -0.0456655 1.00173e-11
-0.0456655 46.1212 -2.1768e-11
1.00173e-11 -2.1768e-11 49.5298

40.4731 1.487 5.34176e-11
1.487 36.2411 -3.47133e-12
5.34176e-11 -3.47133e-12 37.4558

45.9681 -2.24326 -4.37285e-11
-2.24326 47.6908 4.62356e-11
-4.37285e-11 4.62356e-11 46.8182

45.5019 2.72424 -1.92157e-11
2.72424 45.5731 -2.11931e-11
-1.92157e-11 -2.11931e-11 46.4837

58.1446 -2.492 -4.23826e-11
-2.492 52.5807 2.99597e-11
-4.23826e-11 2.99597e-11 53.8796

61.0487 -0.265917 -2.42704e-11
-0.265917 63.6667 -7.36237e-11
-2.42704e-11 -7.36237e-11 56.3561

41.7145 -3.95486 -1.25207e-11
-3.95486 46.5596 6.16577e-12
-1.25207e-11 6.16577e-12 44.6371

43.7227 -2.77602 6.04955e-11
-2.77602 39.4724 1.30948e-11
6.04955e-11 1.30948e-11 41.5932

49.475 0.608099 -1.82512e-11
0.608099 47.1755 1.15575e-10
-1.82512e-11 1.15575e-10 48.4443

50.1572 0.0953653 1.47056e-12
0.0953653 46.6815 3.10131e-11
1.47056e-12 3.10131e-11 48.4218

41.9752 -1.59055 -2.46589e-11
-1.59055 46.7866 1.04044e-11
-2.46589e-11 1.04044e-11 45.2486

41.4507 -2.91573 1.84942e-11
-2.91573 44.9822 -3.66024e-12
1.84942e-11 -3.66024e-12 45.2839

22.0578 4.37558 -1.15785e-12
4.37558 21.3614 -2.67825e-11
-1.15785e-12 -2.67825e-11 21.8265

46.9977 2.33393 1.56018e-11
2.33393 49.8779 3.66139e-12
1.56018e-11 3.66139e-12 48.8676

46.8097 -3.03761 -3.40943e-11
-3.03761 49.4148 3.52535e-11
-3.40943e-11 3.52535e-11 48.6523

40.451 -2.75864 -8.66712e-12
-2.75864 45.5788 -3.85988e-13
-8.66712e-12 -3.85988e-13 44.4689

41.1585 -1.86235 3.15013e-11
-1.86235 37.309 -1.31013e-11
3.15013e-11 -1.31013e-11 37.9653

45.7579 2.02353 -5.08594e-11
2.02353 45.0966 1.36784e-11
-5.08594e-11 1.36784e-11 45.5559

47.5981 2.12459 -3.85122e-12
2.12459 47.9509 -2.21565e-11
-3.85122e-12 -2.21565e-11 47.9944

48.7785 -3.27198 -2.60046e-11
-3.27198 46.0295 6.55213e-12
-2.60046e-11 6.55213e-12 47.7366

46.9336 0.81743 -3.6602e-11
0.81743 39.8991 9.24827e-12
-3.6602e-11 9.24827e-12 44.7256

51.5737 -0.376995 3.03187e-11
-0.376995 49.2824 -1.19413e-11
3.03187e-11 -1.19413e-11 50.3145

52.5282 0.59031 1.62888e-11
0.59031 47.9891 1.52176e-11
1.62888e-11 1.52176e-11 50.2338

54.4174 1.08471 8.66884e-12
1.08471 61.6958 2.65784e-11
8.66884e-12 2.65784e-11 54.3794

53.0936 0.205269 8.39823e-11
0.205269 57.421 -9.34119e-12
8.39823e-11 -9.34119e-12 53.519

21.6512 -1.11936 2.02312e-11
-1.11936 18.7885 1.19472e-11
2.02312e-11 1.19472e-11 22.1801

17.6942 -0.743796 1.36892e-11
-0.743796 21.9405 -5.08752e-11
1.36892e-11 -5.08752e-11 22.0128

44.1604 -3.48286 -5.22028e-11
-3.48286 48.3703 -1.1363e-11
-5.22028e-11 -1.1363e-11 46.3115

43.4284 3.02086 -1.50741e-11
3.02086 45.3341 2.61975e-11
-1.50741e-11 2.61975e-11 45.851

42.9556 -4.66063 8.09146e-12
-4.66063 48.06 -6.16499e-12
8.09146e-12 -6.16499e-12 45.8525

21.2211 1.19298 -2.06179e-11
1.19298 21.0514 1.17538e-11
-2.06179e-11 1.17538e-11 22.2666

21.5827 1.7989 2.312e-11
1.7989 20.4024 -1.58011e-11
2.312e-11 -1.58011e-11 22.2316

49.3994 3.81097 -4.69642e-11
3.81097 61.5398 1.24825e-10
-4.69642e-11 1.24825e-10 54.0545

53.5575 -3.00639 2.74691e-11
-3.00639 59.2862 3.79452e-11
2.74691e-11 3.79452e-11 54.4393

43.8367 2.81613 -9.63322e-12
2.81613 43.9582 -5.00518e-12
-9.63322e-12 -5.00518e-12 44.4802

39.9551 -3.36065 -6.64609e-12
-3.36065 41.9399 9.82436e-12
-6.64609e-12 9.82436e-12 40.4876

43.478 -3.33849 -3.33762e-11
-3.33849 46.0106 1.31031e-11
-3.33762e-11 1.31031e-11 45.2467

43.2724 3.36065 -2.67314e-11
3.36065 44.5414 -5.70277e-11
-2.67314e-11 -5.70277e-11 45.146

40.8999 -3.89836 2.36957e-11
-3.89836 44.0096 -9.63378e-12
2.36957e-11 -9.63378e-12 42.4897

39.4809 2.7099 1.03034e-11
2.7099 40.9404 -3.54536e-11
1.03034e-11 -3.54536e-11 40.3607

27.1743 -1.42143 -2.94797e-11
-1.42143 31.4307 2.31141e-12
-2.94797e-11 2.31141e-12 28.5316

28.0359 -1.22274 -1.29126e-11
-1.22274 31.4589 5.12527e-11
-1.29126e-11 5.12527e-11 28.5755

31.6147 -0.995338 6.34931e-11
-0.995338 27.5948 -2.67854e-11
6.34931e-11 -2.67854e-11 28.4091

40.2067 3.04072 7.89587e-12
3.04072 42.6068 -3.85333e-12
7.89587e-12 -3.85333e-12 42.2725

24.7048 -0.156578 2.31191e-12
-0.156578 29.27 -1.65724e-11
2.31191e-12 -1.65724e-11 26.3859

29.0862 0.311466 6.50329e-11
0.311466 25.1978 -4.61961e-12
6.50329e-11 -4.61961e-12 26.364

45.6745 -3.18645 2.06603e-11
-3.18645 48.7411 -4.43129e-12
2.06603e-11 -4.43129e-12 47.672

45.4256 3.871 4.37756e-11
3.871 46.3812 2.15766e-11
4.37756e-11 2.15766e-11 47.398

46.2909 -2.53784 1.14152e-11
-2.53784 49.2042 -4.21912e-11
1.14152e-11 -4.21912e-11 48.1206

46.1249 3.42386 5.32184e-11
3.42386 48.3522 1.77295e-11
5.32184e-11 1.77295e-11 48.0849

20.2838 -2.28392 2.63974e-11
-2.28392 20.6236 5.00903e-12
2.63974e-11 5.00903e-12 21.7654

20.2488 -2.22675 -5.17413e-11
-2.22675 20.8636 2.4661e-11
-5.17413e-11 2.4661e-11 21.848

42.6323 2.83611 2.88968e-11
2.83611 43.2603 2.04239e-11
2.88968e-11 2.04239e-11 43.6666

42.9913 -3.0776 2.20599e-11
-3.0776 45.2352 -3.39051e-11
2.20599e-11 -3.39051e-11 43.9103

52.2211 -0.802182 -7.31924e-12
-0.802182 55.8133 3.77545e-11
-7.31924e-12 3.77545e-11 52.2592

51.2967 -0.96099 2.44659e-11
-0.96099 52.0872 -9.00544e-11
2.44659e-11 -9.00544e-11 51.5162

45.8329 -3.31589 2.33559e-11
-3.31589 50.8737 2.79315e-11
2.33559e-11 2.79315e-11 48.6748

44.5465 3.54596 1.9504e-11
3.54596 49.3103 6.93515e-12
1.9504e-11 6.93515e-12 48.3352

51.0715 -0.0456082 -5.32348e-12
-0.0456082 47.1082 4.0262e-11
-5.32348e-12 4.0262e-11 49.7047

49.8048 0.752311 -6.99737e-11
0.752311 47.6901 6.24077e-11
-6.99737e-11 6.24077e-11 49.6023

44.5716 3.15313 -9.8251e-12
3.15313 46.8208 -1.75293e-11
-9.8251e-12 -1.75293e-11 46.177

44.6904 -3.34114 1.96502e-11
-3.34114 44.8077 5.77825e-12
1.96502e-11 5.77825e-12 45.6556

50.8535 -1.37755 -7.70517e-12
-1.37755 55.3704 4.78686e-11
-7.70517e-12 4.78686e-11 52.235

54.0588 1.34044 -2.81231e-11
1.34044 52.2722 -1.59906e-11
-2.81231e-11 -1.59906e-11 52.3197

56.9282 -3.26197 3.31298e-11
-3.26197 54.503 6.202e-11
3.31298e-11 6.202e-11 53.1234

51.5418 -0.574848 -3.08158e-11
-0.574848 59.1026 -3.85164e-12
-3.08158e-11 -3.85164e-12 52.9531

52.8299 0.917535 2.45144e-11
0.917535 51.9519 -2.83439e-11
2.45144e-11 -2.83439e-11 51.9445

51.6348 0.11793 -6.39143e-11
0.11793 55.4967 1.96462e-11
-6.39143e-11 1.96462e-11 52.9661

54.5438 -1.00413 2.11854e-12
-1.00413 51.0416 1.54473e-11
2.11854e-12 1.54473e-11 52.1038

54.8406 -0.371047 5.76085e-11
-0.371047 52.9446 2.86995e-11
5.76085e-11 2.86995e-11 53.0933

52.3884 -1.81494 -7.05339e-11
-1.81494 54.2279 -1.41775e-10
-7.05339e-11 -1.41775e-10 52.5969

54.722 4.37521 -6.17777e-11
4.37521 58.4692 -2.69295e-10
-6.17777e-11 -2.69295e-10 53.951

65.845 1.25839 -6.54721e-10
1.25839 64.9347 3.72466e-10
-6.54721e-10 3.72466e-10 58.0232

67.4075 -2.09019 1.55196e-10
-2.09019 51.0644 -3.31476e-10
1.55196e-10 -3.31476e-10 55.5889

53.5132 -2.36057 3.4633e-12
-2.36057 53.2723 1.50229e-11
3.4633e-12 1.50229e-11 52.3811

49.7215 -1.73681 -3.578e-11
-1.73681 52.6708 2.27334e-11
-3.578e-11 2.27334e-11 50.7689

55.0979 4.08307 -5.05929e-13
4.08307 53.6971 3.04334e-11
-5.05929e-13 3.04334e-11 52.8418

49.89 2.29054 -1.12696e-11
2.29054 51.2441 -3.85504e-12
-1.12696e-11 -3.85504e-12 50.6358

56.2625 4.67548 4.25642e-11
4.67548 60.33 1.0789e-11
4.25642e-11 1.0789e-11 54.9746

54.744 -0.50335 4.26748e-11
-0.50335 53.6416 1.43888e-10
4.26748e-11 1.43888e-10 53.3413

49.5652 -1.54652 -6.28449e-11
-1.54652 51.9611 2.04218e-11
-6.28449e-11 2.04218e-11 50.8592

53.3142 -0.92802 2.99661e-11
-0.92802 53.1822 8.5332e-11
2.99661e-11 8.5332e-11 52.4579

50.6465 3.83002 2.79336e-11
3.83002 52.8736 6.08721e-11
2.79336e-11 6.08721e-11 51.33

51.8445 2.53973 5.51116e-11
2.53973 54.2201 6.27984e-11
5.51116e-11 6.27984e-11 52.3958

41.9649 0.895124 7.12583e-12
0.895124 48.3251 -7.70643e-12
7.12583e-12 -7.70643e-12 45.5151

48.6951 -0.346005 -4.54635e-11
-0.346005 50.5056 1.19413e-11
-4.54635e-11 1.19413e-11 49.0642

44.6804 0.858588 2.51412e-11
0.858588 37.6306 6.55052e-12
2.51412e-11 6.55052e-12 41.0269

42.7757 0.207752 -1.11278e-11
0.207752 36.2492 -5.39383e-12
-1.11278e-11 -5.39383e-12 38.6269

43.0386 1.01344 3.08261e-12
1.01344 51.4718 -2.4272e-11
3.08261e-12 -2.4272e-11 47.9561

49.6579 0.262296 -7.51231e-12
0.262296 52.2624 2.08067e-11
-7.51231e-12 2.08067e-11 51.5397

43.0231 -0.33103 -1.84976e-11
-0.33103 36.3771 -1.15806e-12
-1.84976e-11 -1.15806e-12 38.9113

49.5291 -0.197768 -5.04763e-13
-0.197768 41.7666 7.71346e-13
-5.04763e-13 7.71346e-13 46.0668

29.3683 -1.98635 9.7304e-12
-1.98635 33.7662 3.84507e-13
9.7304e-12 3.84507e-13 30.7418

32.0986 3.21775 -3.17846e-12
3.21775 35.5319 -2.96716e-11
-3.17846e-12 -2.96716e-11 32.3001

33.8003 3.04552 -1.2908e-11
3.04552 30.5076 -4.62149e-12
-1.2908e-11 -4.62149e-12 31.3179

50.4641 3.68164 -3.06277e-11
3.68164 52.6772 5.77897e-12
-3.06277e-11 5.77897e-12 51.1807

47.6747 -1.24867 1.85876e-11
-1.24867 51.4108 -8.47448e-12
1.85876e-11 -8.47448e-12 49.3738

42.9225 3.13656 -4.01175e-11
3.13656 44.5813 3.26909e-12
-4.01175e-11 3.26909e-12 42.8821

47.6763 2.76943 1.12698e-11
2.76943 51.3987 1.73383e-11
1.12698e-11 1.73383e-11 49.9851

42.5586 -0.99607 -6.16353e-12
-0.99607 51.4707 -8.86191e-12
-6.16353e-12 -8.86191e-12 47.748

45.8538 -0.617703 3.08442e-12
-0.617703 39.105 2.35049e-11
3.08442e-12 2.35049e-11 43.0537

34.9342 1.46833 -2.00383e-11
1.46833 39.4679 -1.5029e-11
-2.00383e-11 -1.5029e-11 35.3176

32.0071 -0.38388 -2.02331e-12
-0.38388 37.9625 -6.93549e-12
-2.02331e-12 -6.93549e-12 33.8633

38.0149 1.49639 -3.27257e-12
1.49639 33.0075 -2.7361e-11
-3.27257e-12 -2.7361e-11 34.1649

39.6053 -1.55173 -1.93632e-11
-1.55173 34.3701 1.54399e-12
-1.93632e-11 1.54399e-12 36.3133

37.353 2.67175 -2.46623e-11
2.67175 41.5962 -1.93216e-12
-2.46623e-11 -1.93216e-12 39.0817

42.3589 -2.02914 -3.87174e-11
-2.02914 43.8812 -3.52563e-11
-3.87174e-11 -3.52563e-11 41.8029

45.1406 -0.999414 -1.21849e-11
-0.999414 37.741 -1.30992e-11
-1.21849e-11 -1.30992e-11 41.475

29.9223 2.02212 1.30975e-11
2.02212 32.2406 1.65739e-11
1.30975e-11 1.65739e-11 29.1864

48.5 0.211884 -1.22765e-12
0.211884 40.5253 -9.05392e-12
-1.22765e-12 -9.05392e-12 45.003

30.9848 2.18445 -1.05977e-11
2.18445 28.8407 -2.27414e-11
-1.05977e-11 -2.27414e-11 28.5504

48.0961 0.240833 3.85269e-12
0.240833 52.9161 6.93453e-12
3.85269e-12 6.93453e-12 49.8454

52.4444 1.26818 1.77205e-11
1.26818 53.6196 2.60048e-11
1.77205e-11 2.60048e-11 52.5954

54.5293 -3.26013 2.3718e-11
-3.26013 54.8675 -1.42559e-11
2.3718e-11 -1.42559e-11 53.3203

55.8767 1.41804 -2.66298e-11
1.41804 53.611 -3.87192e-11
-2.66298e-11 -3.87192e-11 53.3436

37.3824 -0.464041 -4.81407e-12
-0.464041 32.2702 -6.54784e-12
-4.81407e-12 -6.54784e-12 33.2436

41.4174 3.81803 -1.67601e-11
3.81803 43.548 -2.23476e-11
-1.67601e-11 -2.23476e-11 42.1059

50.4123 0.568093 1.3231e-11
0.568093 49.6746 -2.50315e-12
1.3231e-11 -2.50315e-12 49.6444

49.2632 -1.73781 2.3754e-11
-1.73781 48.9049 1.57974e-11
2.3754e-11 1.57974e-11 49.4629

50.2831 -0.227438 1.04025e-11
-0.227438 41.1592 1.38699e-11
1.04025e-11 1.38699e-11 46.1737

36.7985 3.15744 2.60065e-11
3.15744 39.9717 2.312e-12
2.60065e-11 2.312e-12 38.4163

40.7245 -2.87878 -8.47789e-12
-2.87878 42.9859 2.27329e-11
-8.47789e-12 2.27329e-11 41.0129

40.0887 -2.03123 -8.66344e-13
-2.03123 36.7121 -2.77475e-11
-8.66344e-13 -2.77475e-11 37.4848

49.031 -0.482058 -3.13133e-12
-0.482058 40.008 -3.46694e-12
-3.13133e-12 -3.46694e-12 45.1073

38.858 3.7234 3.83388e-11
3.7234 42.6273 1.50301e-11
3.83388e-11 1.50301e-11 39.4676

36.4165 -2.56855 -2.76487e-11
-2.56855 39.7168 2.8897e-11
-2.76487e-11 2.8897e-11 38.0237

39.4958 3.44382 1.34887e-12
3.44382 43.134 1.00153e-11
1.34887e-12 1.00153e-11 40.0366

36.5653 -2.06382 6.71019e-13
-2.06382 41.6223 4.00734e-11
6.71019e-13 4.00734e-11 38.7394

48.9679 -1.70792 -6.16392e-12
-1.70792 50.4038 1.50263e-11
-6.16392e-12 1.50263e-11 49.6549

40.7881 2.40067 -1.09798e-11
2.40067 46.8002 -1.34865e-11
-1.09798e-11 -1.34865e-11 44.9232

36.6036 -2.9948 1.54138e-11
-2.9948 35.3818 6.74064e-12
1.54138e-11 6.74064e-12 35.2069

23.1299 -2.65035 -6.93608e-12
-2.65035 22.7508 9.24712e-12
-6.93608e-12 9.24712e-12 22.9111

21.8862 -2.84803 1.79161e-11
-2.84803 23.315 7.43794e-11
1.79161e-11 7.43794e-11 22.7283

46.5008 4.46361 6.2604e-12
4.46361 51.2354 -1.92143e-13
6.2604e-12 -1.92143e-13 49.1361

42.076 -2.90986 2.01311e-11
-2.90986 49.0116 4.2378e-12
2.01311e-11 4.2378e-12 47.1587

22.0525 -0.572495 2.89078e-11
-0.572495 22.0804 2.85173e-11
2.89078e-11 2.85173e-11 23.1654

22.5514 -0.614279 -1.36798e-11
-0.614279 22.994 1.07886e-11
-1.36798e-11 1.07886e-11 23.5171

52.1713 2.55397 8.85821e-12
2.55397 49.4595 -5.00557e-12
8.85821e-12 -5.00557e-12 50.3312

55.6999 -1.94524 1.19313e-11
-1.94524 51.8766 6.81934e-11
1.19313e-11 6.81934e-11 53.7787

46.4433 -0.0884132 1.00167e-11
-0.0884132 39.9691 2.08069e-11
1.00167e-11 2.08069e-11 44.5722

51.7168 3.5892 -1.04062e-11
3.5892 49.0855 -8.8615e-12
-1.04062e-11 -8.8615e-12 50.1715

54.8909 -2.59072 1.9266e-11
-2.59072 49.6709 -4.02546e-11
1.9266e-11 -4.02546e-11 52.8466

38.1544 2.535 -2.11899e-11
2.535 43.5195 1.03973e-11
-2.11899e-11 1.03973e-11 41.3419

43.414 -2.00028 -2.92811e-11
-2.00028 46.4779 -2.81254e-11
-2.92811e-11 -2.81254e-11 44.5743

54.9155 1.25256 -2.57641e-11
1.25256 51.1339 -4.07711e-13
-2.57641e-11 -4.07711e-13 52.1938

53.1448 -1.64758 -1.16043e-11
-1.64758 52.0292 -1.51821e-11
-1.16043e-11 -1.51821e-11 52.0175

47.5841 3.87151 3.08255e-11
3.87151 44.9702 -9.68126e-12
3.08255e-11 -9.68126e-12 46.8454

51.1171 -3.06108 -1.52175e-11
-3.06108 47.0386 1.88664e-13
-1.52175e-11 1.88664e-13 49.6226

33.049 -2.06992 -9.63637e-12
-2.06992 29.7289 2.30756e-12
-9.63637e-12 2.30756e-12 30.3535

51.0578 -0.106131 -2.73523e-11
-0.106131 57.7137 2.35004e-11
-2.73523e-11 2.35004e-11 52.5526

55.4101 0.776167 -3.1782e-11
0.776167 57.5745 7.22119e-12
-3.1782e-11 7.22119e-12 56.3546

26.377 -0.364928 6.41643e-11
-0.364928 30.2151 -7.89963e-11
6.41643e-11 -7.89963e-11 27.3917

30.0454 -0.453624 -1.55983e-11
-0.453624 26.752 1.15582e-11
-1.55983e-11 1.15582e-11 27.3472

39.4644 2.15061 7.51331e-12
2.15061 46.2484 5.78311e-12
7.51331e-12 5.78311e-12 43.8948

45.8928 -1.25616 -5.20358e-12
-1.25616 49.2769 3.2554e-11
-5.20358e-12 3.2554e-11 47.6853

63.7704 -0.743396 1.25566e-10
-0.743396 66.3133 1.30985e-10
1.25566e-10 1.30985e-10 57.7576

64.1622 -2.36545 -5.31539e-11
-2.36545 57.0072 4.37099e-11
-5.31539e-11 4.37099e-11 58.6422

46.3581 3.43924 -3.46783e-11
3.43924 41.4393 2.81242e-11
-3.46783e-11 2.81242e-11 44.6137

48.4407 -2.26797 -1.34832e-11
-2.26797 42.722 -1.44491e-11
-1.34832e-11 -1.44491e-11 46.3568

36.9484 0.0575064 1.71467e-11
0.0575064 31.3834 -3.25586e-11
1.71467e-11 -3.25586e-11 32.7879

43.5007 0.111501 -1.34892e-12
0.111501 37.5662 -1.15595e-12
-1.34892e-12 -1.15595e-12 40.2597

39.9416 1.67162 2.09072e-11
1.67162 34.37 -1.54124e-11
2.09072e-11 -1.54124e-11 35.9793

49.3844 0.61176 2.0899e-11
0.61176 45.2938 2.06111e-11
2.0899e-11 2.06111e-11 48.0064

50.433 -1.21498 2.47783e-11
-1.21498 57.6549 -3.08078e-12
2.47783e-11 -3.08078e-12 53.2911

54.0509 0.624045 9.88277e-11
0.624045 54.5803 -7.10762e-11
9.88277e-11 -7.10762e-11 53.4074

35.4275 2.90147 -1.4449e-11
2.90147 36.5801 -3.02495e-11
-1.4449e-11 -3.02495e-11 34.0175

40.4256 -2.51723 -3.69906e-11
-2.51723 39.0549 2.19597e-11
-3.69906e-11 2.19597e-11 40.0311

45.0386 2.75902 -1.3098e-11
2.75902 39.887 2.00312e-11
-1.3098e-11 2.00312e-11 42.7045

54.8981 1.18158 -1.84916e-11
1.18158 57.183 4.56481e-11
-1.84916e-11 4.56481e-11 55.984

53.7939 1.75119 -7.24242e-11
1.75119 59.4694 1.92217e-12
-7.24242e-11 1.92217e-12 53.8124

48.7469 -1.45936 9.84809e-12
-1.45936 46.1245 -7.69977e-13
9.84809e-12 -7.69977e-13 48.3035

46.9981 2.26581 9.48686e-14
2.26581 49.8212 1.86862e-11
9.48686e-14 1.86862e-11 47.7956

41.5893 -0.411735 6.45337e-12
-0.411735 48.5187 1.27141e-11
6.45337e-12 1.27141e-11 45.3989

47.905 1.70952 2.00379e-11
1.70952 40.2756 -2.42697e-11
2.00379e-11 -2.42697e-11 45.7571

48.8105 -0.34404 -5.00999e-12
-0.34404 40.4712 7.89426e-12
-5.00999e-12 7.89426e-12 46.5098

36.9838 -2.25286 -7.71242e-12
-2.25286 35.5383 6.1844e-11
-7.71242e-12 6.1844e-11 34.4619

50.0585 3.08514 1.10663e-12
3.08514 43.8589 2.46546e-11
1.10663e-12 2.46546e-11 47.8664

51.6345 -1.94819 3.37412e-12
-1.94819 43.8943 1.32933e-11
3.37412e-12 1.32933e-11 49.3079

46.302 -1.50647 3.8561e-12
-1.50647 41.3057 -1.5794e-11
3.8561e-12 -1.5794e-11 44.015

48.1158 2.24013 1.00174e-11
2.24013 42.4878 3.48659e-11
1.00174e-11 3.48659e-11 46.2201

49.1384 -1.14175 -7.32155e-12
-1.14175 43.2518 -4.43212e-12
-7.32155e-12 -4.43212e-12 47.5343

45.3875 -0.958955 -1.46854e-11
-0.958955 40.1098 -1.92631e-11
-1.46854e-11 -1.92631e-11 42.719

42.988 4.03387 4.04295e-12
4.03387 44.9541 2.0036e-11
4.04295e-12 2.0036e-11 45.5077

51.6164 -3.46155 2.19632e-11
-3.46155 49.9361 -1.73347e-11
2.19632e-11 -1.73347e-11 50.9039

40.2171 2.71832 9.63141e-12
2.71832 39.2513 2.52395e-11
9.63141e-12 2.52395e-11 38.1343

50.5488 -2.53272 3.94902e-11
-2.53272 52.4304 -3.69844e-11
3.94902e-11 -3.69844e-11 52.0284

41.6622 2.81187 -7.70561e-12
2.81187 45.5634 -1.61837e-11
-7.70561e-12 -1.61837e-11 45.7044

40.3394 2.48201 -7.89931e-12
2.48201 34.8857 -1.54111e-11
-7.89931e-12 -1.54111e-11 37.1997

44.5191 -2.21866 8.18553e-12
-2.21866 42.2991 -6.5478e-12
8.18553e-12 -6.5478e-12 44.3711

45.3332 0.929604 5.77649e-12
0.929604 40.6563 -7.89853e-12
5.77649e-12 -7.89853e-12 42.344

37.3469 3.53941 4.66237e-11
3.53941 37.9588 1.77292e-11
4.66237e-11 1.77292e-11 36.6338

41.4616 2.85758 -3.03912e-11
2.85758 39.8737 2.19585e-11
-3.03912e-11 2.19585e-11 40.3756

43.6473 1.13733 -3.27637e-12
1.13733 48.1198 -1.75317e-11
-3.27637e-12 -1.75317e-11 46.0685

38.5172 0.319463 -1.00172e-11
0.319463 47.3142 -5.78167e-12
-1.00172e-11 -5.78167e-12 43.6492

35.7464 -2.17578 8.00656e-12
-2.17578 31.3277 -5.60647e-11
8.00656e-12 -5.60647e-11 32.4869

41.9526 -3.95053 -2.11734e-12
-3.95053 45.1601 -3.00537e-11
-2.11734e-12 -3.00537e-11 45.4769

43.9788 4.33421 -2.44164e-11
4.33421 48.1092 -1.92861e-12
-2.44164e-11 -1.92861e-12 46.2379

39.7277 -3.19981 -2.11899e-11
-3.19981 40.0366 -1.05981e-11
-2.11899e-11 -1.05981e-11 38.3459

36.2534 3.85352 -9.63111e-12
3.85352 38.2049 -1.27173e-11
-9.63111e-12 -1.27173e-11 36.3619

44.3485 -1.79237 -1.03101e-11
-1.79237 40.3933 1.82943e-12
-1.03101e-11 1.82943e-12 42.3789

50.0215 -0.461666 -4.1901e-11
-0.461666 42.7724 4.04523e-11
-4.1901e-11 4.04523e-11 47.5097

50.9017 0.133336 -8.76525e-12
0.133336 42.4926 -1.30984e-11
-8.76525e-12 -1.30984e-11 47.5119

40.7088 -3.00183 -2.76477e-11
-3.00183 41.2365 -1.35299e-12
-2.76477e-11 -1.35299e-12 40.9468

32.063 0.614742 9.24943e-12
0.614742 38.1482 -2.08101e-11
9.24943e-12 -2.08101e-11 33.7573

29.4359 0.527932 2.09998e-11
0.527932 36.673 2.31245e-12
2.09998e-11 2.31245e-12 32.3159

36.6598 0.558484 1.792e-11
0.558484 30.3685 1.92694e-11
1.792e-11 1.92694e-11 32.683

34.8616 3.18926 -5.81461e-13
3.18926 34.1176 5.78145e-12
-5.81461e-13 5.78145e-12 33.1083

39.9642 -3.13088 1.67555e-11
-3.13088 36.906 2.90917e-11
1.67555e-11 2.90917e-11 37.6197

54.7563 3.57345 2.7349e-11
3.57345 59.1886 2.34061e-11
2.7349e-11 2.34061e-11 56.7075

62.9546 -0.939167 6.68344e-11
-0.939167 63.1476 1.84917e-11
6.68344e-11 1.84917e-11 56.77

41.6168 -1.06294 -4.62215e-12
-1.06294 35.4782 -7.32146e-12
-4.62215e-12 -7.32146e-12 38.054

39.7444 2.81856 9.44019e-12
2.81856 43.9509 -1.00183e-11
9.44019e-12 -1.00183e-11 43.0314

47.1545 -3.18585 -1.67545e-11
-3.18585 48.2497 -3.04364e-11
-1.67545e-11 -3.04364e-11 47.4629

46.5698 1.45926 2.69755e-12
1.45926 39.779 -6.43385e-11
2.69755e-12 -6.43385e-11 44.2845

37.2745 2.97639 -8.66039e-13
2.97639 42.198 1.98434e-11
-8.66039e-13 1.98434e-11 38.4691

33.7663 -1.32401 -2.4124e-12
-1.32401 40.3425 5.54861e-11
-2.4124e-12 5.54861e-11 36.8032

41.7866 2.99607 -1.96499e-11
2.99607 49.0679 -3.62177e-11
-1.96499e-11 -3.62177e-11 47.2252

52.4949 -1.23671 1.6758e-11
-1.23671 54.2763 -1.54097e-11
1.6758e-11 -1.54097e-11 53.9008

42.348 3.03197 1.96505e-11
3.03197 44.7589 -2.30999e-12
1.96505e-11 -2.30999e-12 45.8012

52.0427 -3.07114 3.56363e-11
-3.07114 52.4046 2.02265e-11
3.56363e-11 2.02265e-11 52.6662

48.7831 0.245467 -5.20152e-11
0.245467 37.2948 -1.84963e-11
-5.20152e-11 -1.84963e-11 46.2986

37.5474 3.86569 -4.81652e-12
3.86569 35.4164 1.88813e-11
-4.81652e-12 1.88813e-11 35.9609

44.6258 4.62765 5.34546e-12
4.62765 50.0948 -3.27479e-12
5.34546e-12 -3.27479e-12 47.2978

41.5365 -3.43026 -9.53772e-12
-3.43026 44.6019 2.46581e-11
-9.53772e-12 2.46581e-11 45.7438

38.1984 3.27416 2.04233e-11
3.27416 37.7735 -1.81098e-11
2.04233e-11 -1.81098e-11 37.4531

32.9368 -1.98949 -3.40055e-11
-1.98949 34.8144 -9.82436e-12
-3.40055e-11 -9.82436e-12 32.4867

40.8206 -2.98568 -1.66602e-11
-2.98568 42.8627 -4.46952e-11
-1.66602e-11 -4.46952e-11 42.8342

36.4601 -0.636106 -1.61785e-11
-0.636106 40.1636 -5.08679e-11
-1.61785e-11 -5.08679e-11 36.388

32.8544 1.69428 7.89896e-12
1.69428 38.5736 -2.31008e-12
7.89896e-12 -2.31008e-12 34.6115

38.6226 -0.652406 1.52255e-11
-0.652406 34.2029 -7.70247e-12
1.52255e-11 -7.70247e-12 35.1024

40.9201 -2.80718 2.19574e-11
-2.80718 40.2251 -7.32007e-12
2.19574e-11 -7.32007e-12 39.3848

37.323 0.462467 -9.43921e-12
0.462467 44.4269 -2.11955e-11
-9.43921e-12 -2.11955e-11 40.6193

42.5729 0.645468 1.3292e-11
0.645468 46.0987 1.5217e-11
1.3292e-11 1.5217e-11 42.9904

34.0448 -2.6588 -1.88832e-11
-2.6588 34.8268 3.64138e-11
-1.88832e-11 3.64138e-11 32.8733

31.5541 3.30559 -1.09862e-11
3.30559 33.7805 1.84953e-11
-1.09862e-11 1.84953e-11 31.678

47.6038 0.636062 3.08438e-12
0.636062 40.8277 -3.62138e-11
3.08438e-12 -3.62138e-11 46.5745

47.8332 0.00573898 -3.62171e-11
0.00573898 40.5735 -1.88811e-11
-3.62171e-11 -1.88811e-11 46.9576

41.8423 3.37262 1.17527e-11
3.37262 43.5415 3.85766e-13
1.17527e-11 3.85766e-13 43.7463

48.1392 -2.80048 3.27619e-12
-2.80048 48.878 -1.25238e-11
3.27619e-12 -1.25238e-11 48.2682

46.0889 4.57173 1.11717e-11
4.57173 51.2367 4.62523e-12
1.11717e-11 4.62523e-12 48.8834

41.0316 -2.5967 -2.29252e-11
-2.5967 48.6114 2.92813e-11
-2.29252e-11 2.92813e-11 46.953

43.8251 3.01158 2.87993e-11
3.01158 44.9885 6.93553e-12
2.87993e-11 6.93553e-12 44.7646

32.8956 1.88105 -4.20092e-11
1.88105 29.5566 2.31196e-11
-4.20092e-11 2.31196e-11 29.8377

38.3173 -1.71158 -7.32492e-12
-1.71158 42.5432 -2.12134e-12
-7.32492e-12 -2.12134e-12 39.2889

34.1332 2.30823 1.56029e-11
2.30823 40.5175 9.24964e-12
1.56029e-11 9.24964e-12 37.0784

50.5594 2.75494 3.31353e-11
2.75494 45.974 1.39631e-11
3.31353e-11 1.39631e-11 48.5076

53.048 -1.58232 -5.38884e-12
-1.58232 47.7789 -3.24563e-11
-5.38884e-12 -3.24563e-11 51.0059

45.4642 -2.62062 5.31738e-11
-2.62062 42.9047 -2.119e-11
5.31738e-11 -2.119e-11 43.7276

46.8081 3.25454 -3.00489e-11
3.25454 43.0003 -1.079e-11
-3.00489e-11 -1.079e-11 45.1639

49.2223 -2.27384 -3.44786e-11
-2.27384 45.5563 1.50228e-11
-3.44786e-11 1.50228e-11 47.5332

22.2002 -0.865952 2.91007e-11
-0.865952 18.2061 -1.15591e-11
2.91007e-11 -1.15591e-11 22.6648

17.8621 -1.07418 -1.58011e-11
-1.07418 21.5543 1.5413e-11
-1.58011e-11 1.5413e-11 22.4071

57.1869 3.67004 -2.19585e-11
3.67004 53.8293 7.93538e-11
-2.19585e-11 7.93538e-11 53.2844

59.0665 -2.58063 -7.24152e-11
-2.58063 52.1588 -3.15887e-11
-7.24152e-11 -3.15887e-11 55.3411

42.9048 3.57716 3.94951e-11
3.57716 40.4011 -1.926e-11
3.94951e-11 -1.926e-11 41.5737

32.9441 1.70217 -4.18138e-11
1.70217 28.8555 -6.742e-12
-4.18138e-11 -6.742e-12 29.6177

43.3846 3.19215 7.32001e-12
3.19215 48.3156 2.29269e-11
7.32001e-12 2.29269e-11 45.7831

39.0703 -1.23516 -2.00337e-11
-1.23516 47.2486 1.92636e-11
-2.00337e-11 1.92636e-11 44.0149

35.541 -3.03742 -7.31959e-12
-3.03742 36.9575 -8.09293e-12
-7.31959e-12 -8.09293e-12 35.5585

48.0248 1.96621 -1.09814e-11
1.96621 50.892 -4.16115e-11
-1.09814e-11 -4.16115e-11 49.4282

53.0136 -1.11414 -4.18e-11
-1.11414 54.4145 1.63514e-12
-4.18e-11 1.63514e-12 53.9883

38.981 2.3919 -2.27357e-11
2.3919 34.8362 2.94782e-11
-2.27357e-11 2.94782e-11 35.7031

43.0596 1.29123 2.08095e-11
1.29123 37.0151 -2.273e-11
2.08095e-11 -2.273e-11 39.9331

39.8784 4.47349 1.926e-12
4.47349 45.5287 -3.35214e-11
1.926e-12 -3.35214e-11 45.429

53.3305 -2.29898 3.08424e-12
-2.29898 53.2001 -1.9071e-11
3.08424e-12 -1.9071e-11 53.4523

40.5708 3.69998 1.76262e-11
3.69998 45.7916 -1.15315e-12
1.76262e-11 -1.15315e-12 42.678

37.4293 -1.98158 -2.37887e-11
-1.98158 43.5793 -2.08086e-11
-2.37887e-11 -2.08086e-11 41.2126

43.6337 4.04055 4.63007e-12
4.04055 41.7814 -3.66033e-11
4.63007e-12 -3.66033e-11 43.3336

47.5289 -3.44 3.12095e-11
-3.44 44.5545 1.00188e-11
3.12095e-11 1.00188e-11 46.1172

36.0178 1.14635 1.44521e-11
1.14635 43.3862 -7.67238e-13
1.44521e-11 -7.67238e-13 39.5922

40.7037 -0.0864159 1.05953e-11
-0.0864159 45.0182 -1.92476e-12
1.05953e-11 -1.92476e-12 41.9791

25.2149 -1.31051 2.23508e-11
-1.31051 27.3395 -6.93875e-12
2.23508e-11 -6.93875e-12 25.3718

26.9915 -1.27177 -2.11897e-12
-1.27177 25.5737 1.18424e-15
-2.11897e-12 1.18424e-15 25.3565

44.8151 2.09789 -1.25255e-12
2.09789 38.6606 -3.31364e-11
-1.25255e-12 -3.31364e-11 42.354

64.7253 0.638526 4.89285e-11
0.638526 59.8169 -7.12572e-11
4.89285e-11 -7.12572e-11 56.5627

63.8763 -2.29011 4.62227e-11
-2.29011 55.5806 2.62e-11
4.62227e-11 2.62e-11 57.9474

50.4638 -3.03552 2.31164e-11
-3.03552 53.7654 -2.3115e-11
2.31164e-11 -2.3115e-11 51.6601

50.6894 0.950581 9.21992e-12
0.950581 52.1513 -1.34832e-11
9.21992e-12 -1.34832e-11 51.3414

47.5619 -0.180305 -5.77908e-13
-0.180305 39.4073 3.08238e-11
-5.77908e-13 3.08238e-11 43.2951

44.0866 4.97411 -1.70477e-11
4.97411 49.7359 1.67583e-11
-1.70477e-11 1.67583e-11 47.0731

38.9332 -4.66915 -3.36157e-11
-4.66915 45.3087 3.46756e-12
-3.36157e-11 3.46756e-12 45.2274

26.8961 2.48467 -2.35058e-11
2.48467 27.9391 3.46515e-12
-2.35058e-11 3.46515e-12 26.7323

28.66 2.6093 1.4451e-11
2.6093 28.2925 1.60924e-11
1.4451e-11 1.60924e-11 27.3001

28.7668 -0.953369 1.65697e-11
-0.953369 32.7154 3.52588e-11
1.65697e-11 3.52588e-11 29.5165

28.01 1.9707 -5.0074e-12
1.9707 31.8534 -1.07946e-11
-5.0074e-12 -1.07946e-11 28.9072

32.2231 -0.476716 1.96593e-11
-0.476716 28.0538 -6.97498e-11
1.96593e-11 -6.97498e-11 29.1043

26.1362 1.16112 1.15608e-11
1.16112 30.8079 3.65974e-12
1.15608e-11 3.65974e-12 27.4878

29.6996 1.36091 -7.32925e-12
1.36091 25.6534 1.92685e-11
-7.32925e-12 1.92685e-11 27.0634

50.0422 0.348462 1.88772e-11
0.348462 55.2216 -1.30992e-11
1.88772e-11 -1.30992e-11 51.5204

52.1976 2.61637 -2.19591e-11
2.61637 55.0337 -4.01652e-11
-2.19591e-11 -4.01652e-11 53.1778

48.7352 0.419837 1.72422e-11
0.419837 44.452 -2.75457e-11
1.72422e-11 -2.75457e-11 46.1427

50.0487 -0.0804437 9.96971e-12
-0.0804437 40.431 -1.00168e-11
9.96971e-12 -1.00168e-11 45.9583

34.8787 -1.58337 5.01451e-12
-1.58337 38.3195 -2.96722e-11
5.01451e-12 -2.96722e-11 35.2639

32.1491 2.37668 9.63126e-12
2.37668 36.3212 1.27191e-11
9.63126e-12 1.27191e-11 33.5724

47.5089 -0.11879 -1.28129e-11
-0.11879 39.1731 2.15775e-11
-1.28129e-11 2.15775e-11 43.3624

54.3185 2.02732 -5.00866e-11
2.02732 51.0361 3.12006e-11
-5.00866e-11 3.12006e-11 51.6403

56.4473 -1.44222 2.92849e-11
-1.44222 51.0802 -3.89023e-11
2.92849e-11 -3.89023e-11 53.9277

45.9802 1.96408 -5.72808e-12
1.96408 46.5478 8.86284e-12
-5.72808e-12 8.86284e-12 45.8576

40.9841 -3.25491 3.26551e-11
-3.25491 43.7113 -3.04384e-11
3.26551e-11 -3.04384e-11 43.6426

42.7465 4.18076 -2.08059e-11
4.18076 47.5565 -2.54316e-11
-2.08059e-11 -2.54316e-11 44.6624

47.7172 0.415314 2.31188e-11
0.415314 40.7461 -1.63741e-11
2.31188e-11 -1.63741e-11 44.5894

34.7318 2.98904 -3.30401e-11
2.98904 33.8881 1.30982e-11
-3.30401e-11 1.30982e-11 32.7575

39.3019 -2.47735 2.2638e-11
-2.47735 44.4571 -2.31176e-11
2.2638e-11 -2.31176e-11 43.135

42.7802 4.46895 2.00337e-11
4.46895 47.1252 -3.46623e-12
2.00337e-11 -3.46623e-12 44.5359

21.6189 5.22092 -7.51528e-12
5.22092 22.0093 6.89833e-11
-7.51528e-12 6.89833e-11 21.8833

35.4778 -0.312446 -3.63109e-11
-0.312446 43.2539 -1.2335e-11
-3.63109e-11 -1.2335e-11 39.3323

39.2197 1.7026 3.46984e-12
1.7026 44.4408 -5.20132e-12
3.46984e-12 -5.20132e-12 41.0596

49.5568 -0.411358 -2.83167e-11
-0.411358 57.3058 2.88936e-11
-2.83167e-11 2.88936e-11 51.9685

53.356 2.06721 1.7527e-11
2.06721 55.0553 -7.59894e-11
1.7527e-11 -7.59894e-11 54.2226

50.2654 1.68971 -8.09121e-12
1.68971 40.6619 -3.84996e-12
-8.09121e-12 -3.84996e-12 47.7193

51.2353 -1.15229 -3.12063e-11
-1.15229 39.6956 -7.70769e-12
-3.12063e-11 -7.70769e-12 48.5039

46.7489 2.26451 4.80394e-13
2.26451 47.3171 6.16466e-12
4.80394e-13 6.16466e-12 47.5109

46.2903 -3.41069 -5.46621e-11
-3.41069 46.9797 -1.88726e-11
-5.46621e-11 -1.88726e-11 47.6242

50.2417 1.91666 -6.50554e-13
1.91666 53.0846 -2.33089e-11
-6.50554e-13 -2.33089e-11 51.1586

50.1133 -2.67941 2.99057e-11
-2.67941 51.1672 5.77903e-12
2.99057e-11 5.77903e-12 50.8424

60.1442 3.5172 -1.00118e-11
3.5172 58.2279 -7.66645e-11
-1.00118e-11 -7.66645e-11 55.1382

62.0286 -2.48292 6.47153e-11
-2.48292 55.0838 2.58157e-11
6.47153e-11 2.58157e-11 57.4147

44.139 4.92932 -1.17476e-11
4.92932 46.3497 -3.86219e-13
-1.17476e-11 -3.86219e-13 47.2825

56.269 -2.6473 -2.94718e-11
-2.6473 53.2998 9.05276e-12
-2.94718e-11 9.05276e-12 54.8901

42.4485 3.65093 4.68163e-11
3.65093 38.7102 4.31549e-11
4.68163e-11 4.31549e-11 40.7618

42.6472 3.15475 8.38081e-12
3.15475 46.5778 -1.7529e-11
8.38081e-12 -1.7529e-11 43.641

38.1525 -1.26037 -2.19578e-11
-1.26037 44.7625 -4.5854e-11
-2.19578e-11 -4.5854e-11 41.7556

43.649 -3.69718 2.89028e-12
-3.69718 41.8157 -1.34825e-11
2.89028e-12 -1.34825e-11 42.2141

34.0987 -1.99338 8.19248e-12
-1.99338 33.3008 3.84848e-12
8.19248e-12 3.84848e-12 32.1674

44.7239 -2.65706 3.29451e-11
-2.65706 40.2159 -6.16196e-12
3.29451e-11 -6.16196e-12 42.2885

40.0585 4.02185 -3.04343e-11
4.02185 39.3891 -1.54173e-11
-3.04343e-11 -1.54173e-11 39.8687

42.5653 -5.39158 1.11717e-11
-5.39158 46.5838 2.35012e-11
1.11717e-11 2.35012e-11 47.1631

45.5111 4.29624 -5.68186e-12
4.29624 50.1788 1.02091e-11
-5.68186e-12 1.02091e-11 48.2732

48.3913 -0.94963 -1.26669e-11
-0.94963 44.1698 2.50441e-11
-1.26669e-11 2.50441e-11 46.4136

62.7907 -1.58893 -4.44965e-11
-1.58893 62.0209 2.58044e-11
-4.44965e-11 2.58044e-11 56.4601

56.3631 1.36706 -8.43637e-11
1.36706 58.7227 -2.27304e-11
-8.43637e-11 -2.27304e-11 56.4482

44.9127 1.64808 1.53628e-11
1.64808 42.68 -9.626e-13
1.53628e-11 -9.626e-13 44.237

52.3423 -0.656841 -1.56765e-11
-0.656841 47.0425 1.29062e-11
-1.56765e-11 1.29062e-11 49.6069

27.7732 -1.86022 2.90968e-11
-1.86022 28.9414 5.5862e-12
2.90968e-11 5.5862e-12 26.9996

29.0175 -1.76387 7.52132e-12
-1.76387 26.8304 -6.69546e-11
7.52132e-12 -6.69546e-11 26.8321

51.4057 0.541174 -1.9265e-11
0.541174 44.2466 1.15746e-12
-1.9265e-11 1.15746e-12 48.8803

52.3 0.137635 -6.16196e-12
0.137635 43.8815 1.54188e-12
-6.16196e-12 1.54188e-12 50.0768

51.4858 0.0531085 -3.0941e-11
0.0531085 47.9995 -8.09027e-12
-3.0941e-11 -8.09027e-12 49.7221

44.9749 -1.46421 1.58447e-11
-1.46421 47.1896 1.52209e-11
1.58447e-11 1.52209e-11 45.1521

38.7345 1.90392 2.36542e-11
1.90392 44.6265 -2.04159e-11
2.36542e-11 -2.04159e-11 41.8914

40.9891 2.93251 5.05633e-12
2.93251 36.9541 1.30963e-11
5.05633e-12 1.30963e-11 38.2942

47.8901 3.34897 -1.71427e-11
3.34897 45.4828 2.04125e-11
-1.71427e-11 2.04125e-11 47.1085

51.8887 -2.62133 -1.0203e-11
-2.62133 49.3338 -3.37118e-11
-1.0203e-11 -3.37118e-11 50.6802

55.632 0.435797 -5.485e-11
0.435797 53.8768 -3.03459e-11
-5.485e-11 -3.03459e-11 53.7553

56.2134 -3.70892 3.50251e-11
-3.70892 61.2155 3.45721e-11
3.50251e-11 3.45721e-11 55.3132

44.8088 1.47102 -2.04207e-11
1.47102 41.7428 -2.03541e-15
-2.04207e-11 -2.03541e-15 42.4036

50.9647 2.36038 1.21413e-11
2.36038 47.0703 -3.1592e-11
1.21413e-11 -3.1592e-11 49.0016

52.6864 -1.75832 -1.12776e-11
-1.75832 47.558 4.31464e-11
-1.12776e-11 4.31464e-11 50.8676

41.6499 -1.42987 8.28472e-12
-1.42987 47.2803 -3.85455e-12
8.28472e-12 -3.85455e-12 45.4848

45.8997 4.05045 -2.15749e-11
4.05045 49.6145 4.21868e-11
-2.15749e-11 4.21868e-11 47.3189

44.8717 5.15695 1.29071e-11
5.15695 49.9863 2.96683e-11
1.29071e-11 2.96683e-11 47.3306

40.9949 -3.09861 -1.13673e-11
-3.09861 45.074 2.11911e-11
-1.13673e-11 2.11911e-11 45.4546

23.6508 5.96043 1.98465e-11
5.96043 23.8144 -2.06174e-11
1.98465e-11 -2.06174e-11 23.1076

47.1013 3.19514 3.85292e-12
3.19514 51.8538 -1.34851e-11
3.85292e-12 -1.34851e-11 49.4261

45.0059 -3.64394 -1.51221e-11
-3.64394 49.5903 6.93578e-12
-1.51221e-11 6.93578e-12 48.7178

39.7025 -2.82615 -4.8304e-13
-2.82615 45.7926 3.46663e-12
-4.8304e-13 3.46663e-12 44.5922

43.4107 4.42838 2.69731e-12
4.42838 48.804 1.50257e-11
2.69731e-12 1.50257e-11 46.1623

42.8188 -1.9621 -9.24512e-12
-1.9621 38.6961 -2.25417e-11
-9.24512e-12 -2.25417e-11 39.76

45.276 -2.37527 -6.93238e-12
-2.37527 44.798 -4.73858e-11
-6.93238e-12 -4.73858e-11 45.5895

46.7685 2.60014 -1.05002e-11
2.60014 49.2938 -2.40793e-11
-1.05002e-11 -2.40793e-11 48.1971

46.203 -3.54068 2.74765e-12
-3.54068 46.737 -1.42554e-11
2.74765e-12 -1.42554e-11 47.7555

47.3905 -0.928285 9.64895e-13
-0.928285 40.6989 -2.00298e-11
9.64895e-13 -2.00298e-11 44.8738

53.0798 0.975743 -2.73548e-11
0.975743 50.4587 -1.27124e-11
-2.73548e-11 -1.27124e-11 51.1021

54.1334 -0.998951 -3.19805e-11
-0.998951 48.8231 1.11726e-11
-3.19805e-11 1.11726e-11 52.4013

54.2477 1.0877 5.39555e-12
1.0877 61.7565 -5.43218e-11
5.39555e-12 -5.43218e-11 54.5035

55.3893 1.44188 -1.15633e-12
1.44188 59.9208 2.34038e-11
-1.15633e-12 2.34038e-11 56.346

21.8865 1.12669 7.51535e-12
1.12669 18.9241 4.43189e-11
7.51535e-12 4.43189e-11 22.4045

19.2582 1.12244 -4.23454e-12
1.12244 22.6018 2.77485e-11
-4.23454e-12 2.77485e-11 22.5995

45.1291 3.25411 -7.70639e-12
3.25411 45.2252 1.23331e-11
-7.70639e-12 1.23331e-11 46.3044

51.5094 -3.34198 4.08426e-11
-3.34198 50.6824 -9.24534e-12
4.08426e-11 -9.24534e-12 51.1877

22.5429 2.22008 5.8968e-11
2.22008 22.2375 -4.61831e-12
5.8968e-11 -4.61831e-12 23.2734

22.0935 2.42918 -5.40412e-12
2.42918 22.2305 -5.1453e-11
-5.40412e-12 -5.1453e-11 23.1889

62.7379 -0.871613 -4.93069e-11
-0.871613 60.4302 -4.60337e-11
-4.93069e-11 -4.60337e-11 58.6185

63.1888 -0.562089 -2.15737e-11
-0.562089 64.4046 -6.55499e-12
-2.15737e-11 -6.55499e-12 57.2595

43.1576 -3.20355 -1.10729e-11
-3.20355 43.7164 -3.81403e-11
-1.10729e-11 -3.81403e-11 44.5827

45.1548 4.12822 2.23479e-11
4.12822 44.2664 3.0051e-11
2.23479e-11 3.0051e-11 45.6432

50.7584 -3.47228 3.04408e-11
-3.47228 48.0032 -3.52453e-11
3.04408e-11 -3.52453e-11 49.5884

40.6573 3.63347 -6.93401e-12
3.63347 41.3531 -1.57997e-11
-6.93401e-12 -1.57997e-11 40.9437

44.9556 -2.88319 3.46878e-12
-2.88319 44.2846 7.74566e-13
3.46878e-12 7.74566e-13 43.8003

29.9567 -0.533709 1.44507e-11
-0.533709 33.2584 1.34889e-11
1.44507e-11 1.34889e-11 30.0396

27.4405 1.49921 2.0232e-11
1.49921 31.8801 -3.35274e-11
2.0232e-11 -3.35274e-11 28.8338

32.5278 -0.222059 1.69553e-11
-0.222059 28.7147 7.67617e-13
1.69553e-11 7.67617e-13 29.4285

41.2531 3.8525 -2.25396e-11
3.8525 42.5903 -3.85327e-11
-2.25396e-11 -3.85327e-11 42.7011

46.8477 -3.79111 1.27121e-11
-3.79111 46.2124 2.13809e-11
1.27121e-11 2.13809e-11 46.3112

24.9285 0.241264 2.58252e-11
0.241264 29.642 -4.12372e-11
2.58252e-11 -4.12372e-11 26.6177

29.5802 -0.0264955 -5.0074e-12
-0.0264955 25.6583 1.27119e-11
-5.0074e-12 1.27119e-11 26.6871

48.0031 3.92989 -3.19776e-11
3.92989 46.3656 -2.23515e-11
-3.19776e-11 -2.23515e-11 48.0017

54.3186 -2.80195 -6.89606e-11
-2.80195 51.253 3.7746e-11
-6.89606e-11 3.7746e-11 52.9282

48.3206 3.88517 -3.19799e-11
3.88517 47.8143 5.00509e-12
-3.19799e-11 5.00509e-12 48.5217

53.714 -3.40422 -9.26616e-11
-3.40422 50.5733 3.6786e-11
-9.26616e-11 3.6786e-11 52.472

20.9436 2.2766 -1.96555e-11
2.2766 21.0479 6.01145e-11
-1.96555e-11 6.01145e-11 22.1131

20.9588 2.10182 4.04565e-12
2.10182 21.3346 3.00539e-11
4.04565e-12 3.00539e-11 22.1373

44.184 3.68074 -8.8564e-12
3.68074 43.2605 -4.77755e-11
-8.8564e-12 -4.77755e-11 44.1961

48.4751 -3.04235 3.08185e-11
-3.04235 47.3355 -6.15959e-12
3.08185e-11 -6.15959e-12 47.6764

53.8632 2.38018 3.77522e-11
2.38018 55.5714 -1.06615e-10
3.77522e-11 -1.06615e-10 54.3928

52.0841 -0.769104 1.753e-11
-0.769104 55.9579 -9.2462e-12
1.753e-11 -9.2462e-12 52.4141

46.2069 3.09809 -1.56025e-11
3.09809 49.4046 1.73348e-11
-1.56025e-11 1.73348e-11 48.7409

55.5498 -3.52227 -7.45414e-11
-3.52227 53.4799 -1.46425e-11
-7.45414e-11 -1.46425e-11 54.6637

53.2635 2.77954 -4.23839e-11
2.77954 47.7245 -3.38979e-11
-4.23839e-11 -3.38979e-11 50.4872

55.3931 -1.805 -6.93823e-12
-1.805 47.5623 2.36881e-11
-6.93823e-12 2.36881e-11 52.4627

45.1856 3.74016 -2.02397e-12
3.74016 48.6387 -1.29076e-11
-2.02397e-12 -1.29076e-11 46.7152

43.3538 -3.13682 2.17221e-11
-3.13682 45.8483 -5.01014e-12
2.17221e-11 -5.01014e-12 46.0807

53.0838 2.27444 1.71438e-11
2.27444 58.4877 -1.30987e-11
1.71438e-11 -1.30987e-11 54.743

53.1791 2.63359 -4.53645e-11
2.63359 54.0007 -4.62318e-11
-4.53645e-11 -4.62318e-11 52.6287

54.3645 -4.68886 1.46107e-11
-4.68886 54.2296 3.46499e-12
1.46107e-11 3.46499e-12 52.9486

51.3494 -0.63842 1.13639e-11
-0.63842 59.1577 -1.54105e-11
1.13639e-11 -1.54105e-11 53.0853

57.0771 2.75864 3.81419e-11
2.75864 53.151 2.85063e-11
3.81419e-11 2.85063e-11 53.1215

61.0462 0.584986 -2.27294e-11
0.584986 56.6803 1.03237e-10
-2.27294e-11 1.03237e-10 55.0268

58.5524 -2.54657 -1.00126e-11
-2.54657 50.9672 -1.57928e-11
-1.00126e-11 -1.57928e-11 54.6857

61.7291 -0.837533 4.00582e-11
-0.837533 53.9032 6.06819e-11
4.00582e-11 6.06819e-11 56.643

56.5489 3.24088 -4.12003e-11
3.24088 59.3253 -4.77986e-11
-4.12003e-11 -4.77986e-11 54.4255

66.7671 -0.648266 1.49045e-09
-0.648266 64.9751 -3.82358e-10
1.49045e-09 -3.82358e-10 58.1138

65.6043 -2.26698 1.39781e-10
-2.26698 56.7897 3.29736e-10
1.39781e-10 3.29736e-10 59.1817

63.3714 -2.78743 7.77537e-11
-2.78743 56.5586 8.1106e-11
7.77537e-11 8.1106e-11 58.7434

57.2811 3.11656 -1.69554e-11
3.11656 54.3586 1.38659e-11
-1.69554e-11 1.38659e-11 53.3661

52.9953 1.39222 4.23528e-12
1.39222 51.8531 1.38661e-11
4.23528e-12 1.38661e-11 51.3825

59.8186 1.55983 -1.61706e-11
1.55983 62.0064 -5.54778e-11
-1.61706e-11 -5.54778e-11 55.9358

62.409 -2.18737 2.69758e-11
-2.18737 55.1792 -2.88839e-11
2.69758e-11 -2.88839e-11 57.8574

62.4459 -2.59713 1.11926e-11
-2.59713 56.3443 2.12008e-12
1.11926e-11 2.12008e-12 58.1942

58.2607 -1.7827 3.04377e-11
-1.7827 55.0416 -1.90668e-11
3.04377e-11 -1.90668e-11 56.2123

53.5614 3.62939 -3.46934e-12
3.62939 52.1127 -3.35171e-11
-3.46934e-12 -3.35171e-11 51.7682

57.8959 1.7563 2.70058e-12
1.7563 54.4053 -3.35139e-11
2.70058e-12 -3.35139e-11 53.611

57.819 -2.73509 -4.12307e-11
-2.73509 52.7649 6.87602e-11
-4.12307e-11 6.87602e-11 55.2743

59.8869 -1.60921 -7.20545e-11
-1.60921 54.0669 8.70528e-11
-7.20545e-11 8.70528e-11 56.2921

58.3591 0.295802 3.65962e-11
0.295802 58.5079 7.41482e-12
3.65962e-11 7.41482e-12 59.2008

62.3702 -0.156026 1.34816e-11
-0.156026 61.2392 1.68536e-11
1.34816e-11 1.68536e-11 61.4015

60.7362 0.562241 1.19408e-11
0.562241 58.9728 -1.55048e-11
1.19408e-11 -1.55048e-11 59.7506

57.5946 -0.582992 -2.98556e-11
-0.582992 55.2841 3.8425e-11
-2.98556e-11 3.8425e-11 57.8559

58.0325 0.0989441 -5.00781e-12
0.0989441 56.3401 2.06772e-11
-5.00781e-12 2.06772e-11 58.3818

62.6176 -0.830099 6.16374e-12
-0.830099 61.6928 9.63273e-13
6.16374e-12 9.63273e-13 61.5047

60.408 1.49484 7.50872e-12
1.49484 58.5672 -3.46696e-11
7.50872e-12 -3.46696e-11 59.4647

58.0495 -0.140129 -1.02086e-11
-0.140129 56.0657 8.09117e-12
-1.02086e-11 8.09117e-12 58.3149

57.198 0.673656 -2.38851e-11
0.673656 53.0491 1.42051e-11
-2.38851e-11 1.42051e-11 56.1749

59.3942 0.141382 -6.93424e-12
0.141382 58.9166 -1.23267e-11
-6.93424e-12 -1.23267e-11 59.8846

59.4541 -0.131759 -6.5477e-12
-0.131759 59.0276 -5.31116e-11
-6.5477e-12 -5.31116e-11 59.9359

61.6061 0.0783783 2.27274e-11
0.0783783 62.1078 -3.83041e-11
2.27274e-11 -3.83041e-11 61.9888

61.4882 -0.851848 2.31156e-12
-0.851848 57.556 -9.70705e-14
2.31156e-12 -9.70705e-14 58.9195

63.9581 0.0576227 -2.65791e-11
0.0576227 62.5628 1.21353e-11
-2.65791e-11 1.21353e-11 62.0632

58.1458 1.10496 3.85294e-13
1.10496 57.7671 2.77556e-17
3.85294e-13 2.77556e-17 58.8118

57.0712 1.5668 -1.04001e-11
1.5668 57.1728 1.48311e-11
-1.04001e-11 1.48311e-11 57.8503

60.7705 -1.48027 -6.93453e-12
-1.48027 58.9477 -1.66533e-16
-6.93453e-12 -1.66533e-16 59.8365

62.3247 0.77132 -8.47446e-12
0.77132 61.5144 1.05939e-11
-8.47446e-12 1.05939e-11 61.3059

62.9914 0.0428991 1.46376e-11
0.0428991 63.6967 -1.30217e-11
1.46376e-11 -1.30217e-11 63.1696

59.3995 0.15072 -8.47527e-12
0.15072 59.8208 -1.4012e-11
-8.47527e-12 -1.4012e-11 60.185

59.4138 -0.169578 1.46383e-11
-0.169578 59.8669 -6.59653e-12
1.46383e-11 -6.59653e-12 60.2087

61.7479 -0.178674 -2.15712e-11
-0.178674 62.5942 -1.72622e-11
-2.15712e-11 -1.72622e-11 62.267

58.2007 0.493694 2.27284e-11
0.493694 57.8703 2.40751e-12
2.27284e-11 2.40751e-12 58.9321

58.0104 0.401963 1.71425e-11
0.401963 56.7434 2.81697e-11
1.71425e-11 2.81697e-11 58.6493

57.3807 0.386883 1.17508e-11
0.386883 57.6133 3.40923e-11
1.17508e-11 3.40923e-11 58.5225

61.7762 -0.260734 -2.31118e-11
-0.260734 61.6538 -2.35944e-11
-2.31118e-11 -2.35944e-11 61.7504

57.8361 0.489282 2.2151e-11
0.489282 55.3262 -3.03194e-11
2.2151e-11 -3.03194e-11 57.862

59.3157 0.0862346 1.50232e-11
0.0862346 59.6705 -7.07849e-12
1.50232e-11 -7.07849e-12 60.1425

57.3739 -0.664824 3.85284e-12
-0.664824 53.0556 -8.15604e-12
3.85284e-12 -8.15604e-12 56.7481

61.1407 -0.17726 -2.58082e-11
-0.17726 61.7144 -8.69853e-11
-2.58082e-11 -8.69853e-11 61.6934

63.3356 -0.147784 -2.00318e-11
-0.147784 60.9772 1.34691e-12
-2.00318e-11 1.34691e-12 61.1015

63.1849 0.221782 -8.8606e-12
0.221782 60.257 1.93637e-13
-8.8606e-12 1.93637e-13 60.8424

59.9422 -0.747217 -8.68681e-11
-0.747217 58.8045 8.66975e-12
-8.68681e-11 8.66975e-12 58.6919

59.9707 0.751433 2.23432e-11
0.751433 58.8862 -1.74304e-11
2.23432e-11 -1.74304e-11 58.7205

58.576 -0.172757 -8.86044e-12
-0.172757 57.5814 3.03842e-11
-8.86044e-12 3.03842e-11 59.0842

56.8891 0.141188 -1.36752e-11
0.141188 57.199 1.34815e-12
-1.36752e-11 1.34815e-12 58.1239

57.5054 -1.20112 -1.56013e-11
-1.20112 57.5167 3.38525e-11
-1.56013e-11 3.38525e-11 58.1184

57.4324 1.27352 8.66783e-12
1.27352 57.5443 -2.24389e-11
8.66783e-12 -2.24389e-11 58.0994

57.2768 -0.586687 4.81633e-12
-0.586687 52.8669 1.0792e-11
4.81633e-12 1.0792e-11 55.9426

61.696 -0.333134 -1.50226e-11
-0.333134 62.4642 -1.88753e-11
-1.50226e-11 -1.88753e-11 62.0479

58.041 0.0109577 2.25357e-11
0.0109577 57.5167 7.46404e-12
2.25357e-11 7.46404e-12 58.8187

57.1007 0.508824 -3.09157e-11
0.508824 52.661 -2.85069e-11
-3.09157e-11 -2.85069e-11 55.9551

58.2531 -0.45893 -2.40754e-11
-0.45893 57.9721 -2.66769e-11
-2.40754e-11 -2.66769e-11 58.9853

58.3126 -0.302694 2.31111e-12
-0.302694 58.5387 7.70488e-12
2.31111e-12 7.70488e-12 59.1956

62.7726 -0.633693 4.31422e-11
-0.633693 62.3952 2.15727e-11
4.31422e-11 2.15727e-11 62.1786

58.4085 0.0236886 -1.6757e-11
0.0236886 57.6383 -8.81193e-12
-1.6757e-11 -8.81193e-12 59.0583

59.5594 0.245312 1.54087e-11
0.245312 59.5027 7.19858e-12
1.54087e-11 7.19858e-12 60.2609

60.4542 0.31715 7.319e-12
0.31715 60.7194 2.68566e-11
7.319e-12 2.68566e-11 61.0946

58.5152 -2.3391 -2.31145e-11
-2.3391 55.6649 -3.66057e-12
-2.31145e-11 -3.66057e-12 57.5248

60.3975 -0.130865 -1.54062e-12
-0.130865 60.8052 -4.14706e-11
-1.54062e-12 -4.14706e-11 61.0455

59.2156 0.142789 -5.89381e-11
0.142789 59.3739 2.7471e-11
-5.89381e-11 2.7471e-11 60.0158

64.43 0.422818 6.93331e-12
0.422818 64.7372 -2.63862e-11
6.93331e-12 -2.63862e-11 64.0079

64.4284 -0.421136 3.73634e-11
-0.421136 64.7378 2.20531e-11
3.73634e-11 2.20531e-11 64.0071

63.3311 -0.170484 -1.15562e-12
-0.170484 63.9678 5.13554e-12
-1.15562e-12 5.13554e-12 63.4026

64.393 0.181009 -2.27261e-11
0.181009 64.9193 -8.52239e-12
-2.27261e-11 -8.52239e-12 64.0712

64.3914 -0.180182 2.812e-11
-0.180182 64.9186 -5.99942e-11
2.812e-11 -5.99942e-11 64.0702

61.8647 -0.523876 -9.24491e-12
-0.523876 62.2034 1.25178e-12
-9.24491e-12 1.25178e-12 61.9122

58.6167 -0.975406 1.05935e-11
-0.975406 56.5191 2.69642e-12
1.05935e-11 2.69642e-12 57.4481

58.6166 1.00711 -1.73387e-12
1.00711 56.5242 1.90685e-11
-1.73387e-12 1.90685e-11 57.4539

63.6151 0.24264 -3.31267e-11
0.24264 64.2876 1.73343e-11
-3.31267e-11 1.73343e-11 63.572

63.615 -0.243045 -2.8119e-11
-0.243045 64.2918 -2.63867e-11
-2.8119e-11 -2.63867e-11 63.5726

58.6572 0.160776 1.54063e-12
0.160776 58.0477 1.64923e-11
1.54063e-12 1.64923e-11 59.3576

61.4211 1.3923 3.6212e-11
1.3923 59.0405 9.82048e-12
3.6212e-11 9.82048e-12 59.0795

65.1748 -1.12738 1.57938e-11
-1.12738 63.7881 6.16517e-12
1.57938e-11 6.16517e-12 62.3906

61.6968 0.326848 7.31909e-12
0.326848 62.485 1.34792e-12
7.31909e-12 1.34792e-12 62.0591

59.3316 -0.155233 -1.23269e-11
-0.155233 59.7844 -7.8729e-12
-1.23269e-11 -7.8729e-12 60.2079

59.0616 -0.227648 -1.15566e-11
-0.227648 58.7229 6.54281e-12
-1.15566e-11 6.54281e-12 59.6895

61.8912 -0.523447 1.0015e-11
-0.523447 62.2198 1.05936e-11
1.0015e-11 1.05936e-11 61.7288

59.0645 1.42794 -3.85025e-12
1.42794 57.6041 2.30172e-11
-3.85025e-12 2.30172e-11 58.8744

66.2767 0.298627 4.89154e-11
0.298627 66.7004 -2.18693e-10
4.89154e-11 -2.18693e-10 65.0511

66.2743 -0.296477 1.22872e-10
-0.296477 66.6953 1.75168e-10
1.22872e-10 1.75168e-10 65.0493

57.4193 1.91541 -2.2152e-11
1.91541 55.6047 -1.0785e-11
-2.2152e-11 -1.0785e-11 56.8092

63.3175 0.113513 1.11708e-11
0.113513 64.0212 1.74301e-11
1.11708e-11 1.74301e-11 63.3923

63.3211 -0.111931 -2.77345e-11
-0.111931 64.0423 1.12189e-11
-2.77345e-11 1.12189e-11 63.4007

55.0966 0.922532 -3.15908e-11
0.922532 56.6293 -2.34989e-11
-3.15908e-11 -2.34989e-11 56.9895

63.0393 0.637445 1.07847e-11
0.637445 63.1046 -1.57934e-11
1.07847e-11 -1.57934e-11 62.1747

58.4367 0.170352 -9.63071e-12
0.170352 57.5118 -2.39319e-11
-9.63071e-12 -2.39319e-11 59.0475

58.2624 -0.289404 6.74141e-12
-0.289404 56.6849 3.80392e-12
6.74141e-12 3.80392e-12 58.7085

57.1493 -1.42655 -2.61961e-11
-1.42655 55.246 6.40526e-12
-2.61961e-11 6.40526e-12 57.4589

57.8288 1.56209 -1.34857e-12
1.56209 59.9355 4.62306e-12
-1.34857e-12 4.62306e-12 58.3936

57.8586 -1.63016 -3.66105e-12
-1.63016 59.7813 -7.02072e-11
-3.66105e-12 -7.02072e-11 58.3598

58.6634 0.26525 1.50232e-11
0.26525 58.676 -2.2102e-11
1.50232e-11 -2.2102e-11 59.499

57.4691 0.389925 1.15568e-11
0.389925 56.7531 -4.28534e-12
1.15568e-11 -4.28534e-12 58.4097

63.0253 -0.316973 -1.19416e-11
-0.316973 63.6329 3.03106e-11
-1.19416e-11 3.03106e-11 63.1472

64.8048 -0.0172145 2.00306e-11
-0.0172145 64.3463 9.82488e-12
2.00306e-11 9.82488e-12 62.1799

65.1281 1.17684 -8.89829e-11
1.17684 59.7721 2.15783e-11
-8.89829e-11 2.15783e-11 60.6294

57.0973 1.50472 1.52166e-11
1.50472 55.3893 9.29406e-12
1.52166e-11 9.29406e-12 57.4685

61.0783 -0.48238 3.56319e-12
-0.48238 59.4852 7.99339e-12
3.56319e-12 7.99339e-12 60.147

62.0649 0.145545 5.77122e-13
0.145545 60.9219 -3.27406e-12
5.77122e-13 -3.27406e-12 61.155

63.5463 -0.00160729 -5.73943e-11
-0.00160729 64.2899 2.03678e-11
-5.73943e-11 2.03678e-11 63.6074

63.5571 0.00793964 2.69643e-12
0.00793964 64.2895 -3.65935e-12
2.69643e-12 -3.65935e-12 63.6133

61.5103 0.307101 3.48612e-11
0.307101 62.1047 -3.3707e-12
3.48612e-11 -3.3707e-12 61.9591

62.5895 -0.195328 2.15713e-11
-0.195328 63.3411 -9.11552e-12
2.15713e-11 -9.11552e-12 62.881

63.9708 0.118813 2.72521e-11
0.118813 64.5607 -7.03471e-11
2.72521e-11 -7.03471e-11 63.8447

63.9716 -0.116492 2.9034e-11
-0.116492 64.5613 2.4725e-11
2.9034e-11 2.4725e-11 63.8452

63 0.32021 5.08466e-11
0.32021 63.6283 1.64912e-11
5.08466e-11 1.64912e-11 63.1383

61.7674 0.236733 -1.19425e-11
0.236733 61.6736 -3.76539e-11
-1.19425e-11 -3.76539e-11 61.7546

63.6716 0.301697 -4.5068e-11
0.301697 64.1924 1.02082e-11
-4.5068e-11 1.02082e-11 63.6145

63.6931 -0.292477 -6.5484e-12
-0.292477 64.1955 -9.5578e-12
-6.5484e-12 -9.5578e-12 63.6234

57.6419 0.64755 -1.67577e-11
0.64755 55.2149 3.00954e-11
-1.67577e-11 3.00954e-11 57.8044

63.441 -0.375767 -1.50241e-11
-0.375767 63.4254 3.71716e-11
-1.50241e-11 3.71716e-11 62.9965

58.1589 0.112248 3.15884e-11
0.112248 57.6373 -2.0711e-12
3.15884e-11 -2.0711e-12 58.8845

55.2819 1.49074 9.0533e-12
1.49074 55.9575 1.53136e-11
9.0533e-12 1.53136e-11 56.2032

63.1049 -0.395609 2.88898e-11
-0.395609 63.0847 1.26164e-11
2.88898e-11 1.26164e-11 62.4406

62.2781 0.0618852 4.39131e-11
0.0618852 62.9445 8.69133e-12
4.39131e-11 8.69133e-12 62.5943

56.706 0.91213 -4.40127e-11
0.91213 55.9245 1.69007e-11
-4.40127e-11 1.69007e-11 57.844

57.6936 -0.514246 -3.92937e-11
-0.514246 55.533 -3.51989e-11
-3.92937e-11 -3.51989e-11 57.942

58.1665 -0.107366 1.52164e-11
-0.107366 57.8921 -1.68519e-12
1.52164e-11 -1.68519e-12 59.0898

57.3395 -0.372379 2.04168e-11
-0.372379 56.8111 -1.80577e-11
2.04168e-11 -1.80577e-11 58.4129

60.503 0.991137 1.38671e-11
0.991137 59.7096 -1.22307e-11
1.38671e-11 -1.22307e-11 60.3564

60.8814 -0.894819 2.1187e-11
-0.894819 60.1726 -2.02106e-12
2.1187e-11 -2.02106e-12 60.6292

61.5708 -0.0708891 1.12671e-11
-0.0708891 62.1794 -2.09217e-11
1.12671e-11 -2.09217e-11 62.014

54.999 -0.98214 -5.20098e-12
-0.98214 56.6287 -5.39361e-12
-5.20098e-12 -5.39361e-12 56.9458

61.6696 0.0961447 2.31162e-12
0.0961447 61.9908 1.51675e-11
2.31162e-12 1.51675e-11 61.9177

61.6371 -0.0940754 8.85951e-12
-0.0940754 61.9468 1.74789e-11
8.85951e-12 1.74789e-11 61.8917

57.5074 0.440983 -1.0786e-11
0.440983 56.7368 -3.05774e-11
-1.0786e-11 -3.05774e-11 58.2574

56.6704 1.2507 4.43071e-12
1.2507 51.455 -1.44454e-11
4.43071e-12 -1.44454e-11 55.3347

56.682 -1.08124 -2.5234e-11
-1.08124 51.4439 1.01607e-11
-2.5234e-11 1.01607e-11 55.3294

59.7132 0.539112 -3.08335e-12
0.539112 58.9713 -3.361e-11
-3.08335e-12 -3.361e-11 59.9341

57.2571 -0.338439 1.34835e-11
-0.338439 57.6562 -2.14758e-11
1.34835e-11 -2.14758e-11 58.5178

60.2254 0.428188 -8.47411e-12
0.428188 60.2315 2.01754e-11
-8.47411e-12 2.01754e-11 60.675

60.2763 -0.419445 3.46692e-11
-0.419445 60.2529 -9.56596e-14
3.46692e-11 -9.56596e-14 60.6976

61.9149 0.0285147 -1.73343e-11
0.0285147 62.282 9.52183e-12
-1.73343e-11 9.52183e-12 62.1996

61.4343 -0.306141 -8.47441e-12
-0.306141 62.0606 -9.05251e-12
-8.47441e-12 -9.05251e-12 61.9204

61.9548 0.0385815 -1.92579e-12
0.0385815 62.6303 1.59382e-11
-1.92579e-12 1.59382e-11 62.3069

68.2279 0.452031 1.772e-10
0.452031 64.4396 -4.77498e-11
1.772e-10 -4.77498e-11 62.6763

67.909 -2.24705 -1.97994e-10
-2.24705 63.0017 5.41441e-11
-1.97994e-10 5.41441e-11 61.9189

62.3513 -0.027281 -1.73342e-11
-0.027281 62.9671 -6.83726e-12
-1.73342e-11 -6.83726e-12 62.6277

62.5218 -0.206651 3.08156e-11
-0.206651 62.717 2.50391e-11
3.08156e-11 2.50391e-11 62.305

63.2976 0.175522 7.70231e-13
0.175522 63.9576 -3.03136e-11
7.70231e-13 -3.03136e-11 63.3904

59.6929 -0.518278 2.38829e-11
-0.518278 59.0141 2.40766e-11
2.38829e-11 2.40766e-11 59.9256

63.7901 -0.994277 2.00301e-11
-0.994277 63.0851 1.64684e-11
2.00301e-11 1.64684e-11 62.414

56.4721 2.6484 -2.23452e-11
2.6484 55.1402 -6.64481e-12
-2.23452e-11 -6.64481e-12 56.3879

63.4724 0.411047 1.92605e-11
0.411047 63.4273 1.79121e-11
1.92605e-11 1.79121e-11 63.0078

63.393 -0.484202 -4.46824e-11
-0.484202 63.6074 -2.92761e-11
-4.46824e-11 -2.92761e-11 63.0104

57.5966 0.898969 1.34835e-11
0.898969 57.3396 -1.27129e-11
1.34835e-11 -1.27129e-11 58.0923

63.6816 -0.0049624 5.77795e-12
-0.0049624 64.5899 1.77569e-11
5.77795e-12 1.77569e-11 63.7521

61.9625 -0.0295177 2.54235e-11
-0.0295177 62.5249 3.27434e-12
2.54235e-11 3.27434e-12 62.2714

55.183 -1.49189 -1.94556e-11
-1.49189 55.9797 1.79126e-11
-1.94556e-11 1.79126e-11 56.1752

61.9409 -0.335065 2.69674e-12
-0.335065 62.74 -2.03197e-11
2.69674e-12 -2.03197e-11 62.3038

58.5115 -0.168701 -2.23425e-11
-0.168701 58.754 -1.08828e-11
-2.23425e-11 -1.08828e-11 59.52

56.9929 -0.185833 -1.27132e-11
-0.185833 57.1958 1.53122e-11
-1.27132e-11 1.53122e-11 58.1354

60.824 0.125816 -6.93318e-12
0.125816 60.7028 1.99832e-11
-6.93318e-12 1.99832e-11 61.0617

60.8275 -0.138857 -2.11862e-11
-0.138857 60.6821 -1.69015e-11
-2.11862e-11 -1.69015e-11 61.0546

61.7947 0.160321 -9.63013e-12
0.160321 62.69 -1.25553e-11
-9.63013e-12 -1.25553e-11 62.3178

61.9431 0.344091 -1.19409e-11
0.344091 62.7101 1.96458e-11
-1.19409e-11 1.96458e-11 62.3004

60.836 -0.202927 -7.6957e-13
-0.202927 60.2989 -2.64831e-11
-7.6957e-13 -2.64831e-11 60.6915

60.7316 0.240533 -2.23413e-11
0.240533 60.182 3.20698e-11
-2.23413e-11 3.20698e-11 60.5846

61.1301 -0.0344003 3.00461e-11
-0.0344003 61.5264 -1.67089e-11
3.00461e-11 -1.67089e-11 61.5448

61.1172 0.0269957 -2.46537e-11
0.0269957 61.5783 2.27753e-11
-2.46537e-11 2.27753e-11 61.551

63.8795 0.0997246 3.2742e-11
0.0997246 64.4186 2.71325e-11
3.2742e-11 2.71325e-11 63.7604

63.8848 -0.0949967 2.81194e-11
-0.0949967 64.4192 1.11709e-11
2.81194e-11 1.11709e-11 63.7622

62.7627 -0.554592 1.81035e-11
-0.554592 63.1821 3.50539e-11
1.81035e-11 3.50539e-11 62.6423

55.9815 -2.40733 -6.35543e-12
-2.40733 55.2055 -1.31936e-11
-6.35543e-12 -1.31936e-11 56.0883

55.8505 0.0346408 -2.38835e-11
0.0346408 56.9074 1.73356e-11
-2.38835e-11 1.73356e-11 57.7725

58.6908 0.0888063 2.2343e-11
0.0888063 58.6329 2.87229e-11
2.2343e-11 2.87229e-11 59.531

60.7924 -0.246523 -1.19415e-11
-0.246523 61.3578 -5.29674e-12
-1.19415e-11 -5.29674e-12 61.2343

64.1499 0.349331 -1.11706e-11
0.349331 64.4558 4.23719e-12
-1.11706e-11 4.23719e-12 63.8435

64.1506 -0.346895 6.24024e-11
-0.346895 64.4588 -2.21004e-11
6.24024e-11 -2.21004e-11 63.844

63.3416 0.432707 4.21793e-11
0.432707 63.8632 -1.17492e-11
4.21793e-11 -1.17492e-11 63.3292

63.3385 -0.434584 -7.12556e-12
-0.434584 63.8649 -3.77499e-11
-7.12556e-12 -3.77499e-11 63.3288

59.8412 -0.0658107 -1.61789e-11
-0.0658107 60.3312 2.33778e-11
-1.61789e-11 2.33778e-11 60.6166

61.0027 -0.0436085 -1.2712e-11
-0.0436085 61.4259 4.01702e-11
-1.2712e-11 4.01702e-11 61.4982

60.7906 0.284921 -3.31288e-11
0.284921 61.375 -2.39785e-11
-3.31288e-11 -2.39785e-11 61.2355

65.2583 0.0166296 -2.54231e-11
0.0166296 65.5677 -5.21936e-11
-2.54231e-11 -5.21936e-11 64.5343

65.2571 -0.0158203 2.23421e-11
-0.0158203 65.5642 -6.20159e-11
2.23421e-11 -6.20159e-11 64.5329

62.7339 -0.380583 1.92604e-11
-0.380583 63.252 -1.94525e-11
1.92604e-11 -1.94525e-11 62.8335

58.8048 -0.155285 5.7013e-11
-0.155285 57.9142 -3.14918e-11
5.7013e-11 -3.14918e-11 59.3565

62.587 0.20081 7.31878e-12
0.20081 63.3472 -1.75148e-11
7.31878e-12 -1.75148e-11 62.8822

59.2281 -1.30709 -2.58093e-11
-1.30709 58.293 -6.06777e-12
-2.58093e-11 -6.06777e-12 59.2044

61.8919 0.656327 4.16019e-11
0.656327 61.6515 -7.898e-12
4.16019e-11 -7.898e-12 61.5322

58.1901 0.0843315 -1.56006e-11
0.0843315 58.2556 -2.19099e-11
-1.56006e-11 -2.19099e-11 59.2012

63.4321 0.480814 2.77341e-11
0.480814 63.603 -7.51154e-12
2.77341e-11 -7.51154e-12 63.0213

62.708 0.389401 -1.15564e-11
0.389401 63.2534 -1.19413e-11
-1.15564e-11 -1.19413e-11 62.8256

53.7433 2.38425 -9.24708e-12
2.38425 54.7225 2.31211e-12
-9.24708e-12 2.31211e-12 55.1939

64.1451 -0.0261435 -1.15467e-12
-0.0261435 62.9675 -8.66709e-12
-1.15467e-12 -8.66709e-12 62.2392

61.2701 1.19171 1.1556e-11
1.19171 56.7381 -8.86217e-12
1.1556e-11 -8.86217e-12 58.5335

62.7562 0.576368 8.08923e-12
0.576368 63.1868 -6.74099e-12
8.08923e-12 -6.74099e-12 62.6481

56.3889 1.15442 -1.3484e-11
1.15442 56.9173 -1.30975e-11
-1.3484e-11 -1.30975e-11 57.6341

58.0027 -0.141733 4.04486e-11
-0.141733 57.5988 2.93669e-12
4.04486e-11 2.93669e-12 58.9038

63.776 -0.725294 -3.50529e-11
-0.725294 63.2173 -1.51198e-11
-3.50529e-11 -1.51198e-11 62.8172

58.2339 -1.13684 2.54241e-11
-1.13684 57.7889 2.28251e-11
2.54241e-11 2.28251e-11 58.8073

59.5577 0.773416 -2.61943e-11
0.773416 59.4029 1.26167e-11
-2.61943e-11 1.26167e-11 60.0011

62.9301 -0.200401 7.71189e-13
-0.200401 63.6527 -4.49724e-11
7.71189e-13 -4.49724e-11 63.0498

61.0656 -0.56578 -4.23616e-12
-0.56578 60.824 -3.13947e-11
-4.23616e-12 -3.13947e-11 61.089

64.0476 0.865289 2.15707e-11
0.865289 63.0637 -1.18459e-11
2.15707e-11 -1.18459e-11 62.5061

59.2696 0.0961116 -3.85534e-13
0.0961116 59.3299 4.69002e-11
-3.85534e-13 4.69002e-11 60.0676

59.2135 -0.0518518 -2.96621e-11
-0.0518518 58.8288 1.70217e-11
-2.96621e-11 1.70217e-11 59.8642

62.9329 0.202792 1.92546e-12
0.202792 63.6529 -2.89864e-11
1.92546e-12 -2.89864e-11 63.0508

62.9882 -0.028889 4.02534e-11
-0.028889 63.7031 -1.24532e-11
4.02534e-11 -1.24532e-11 63.1672

66.3247 0.209763 4.66091e-11
0.209763 66.125 4.52593e-11
4.66091e-11 4.52593e-11 64.9368

66.3224 -0.20751 -2.54223e-11
-0.20751 66.1213 -2.25341e-11
-2.54223e-11 -2.25341e-11 64.9353

62.5574 0.247816 -1.849e-11
0.247816 62.703 2.89413e-13
-1.849e-11 2.89413e-13 62.3101

56.9204 -1.37326 1.00159e-11
-1.37326 57.852 2.1669e-11
1.00159e-11 2.1669e-11 57.9565

56.9131 1.39752 2.54246e-11
1.39752 57.9206 1.51216e-11
2.54246e-11 1.51216e-11 57.9714

57.8772 -0.18122 -1.13644e-11
-0.18122 54.4877 1.56212e-12
-1.13644e-11 1.56212e-12 57.3244

53.6667 -2.34823 -1.90703e-11
-2.34823 54.7724 1.43499e-11
-1.90703e-11 1.43499e-11 55.164

60.8528 0.139366 -1.32895e-11
0.139366 61.3169 -5.47002e-11
-1.32895e-11 -5.47002e-11 61.392

59.2359 0.010812 -1.34823e-11
0.010812 58.7959 5.29677e-11
-1.34823e-11 5.29677e-11 59.8509

60.6446 0.267141 9.62962e-12
0.267141 60.9501 -3.33211e-11
9.62962e-12 -3.33211e-11 61.1743

60.6746 -0.272258 1.17483e-11
-0.272258 60.9584 4.64181e-11
1.17483e-11 4.64181e-11 61.199

61.3599 0.12014 -3.08182e-12
0.12014 61.7227 -1.80086e-11
-3.08182e-12 -1.80086e-11 61.7623

63.79 0.699677 2.77342e-11
0.699677 63.2372 -7.99315e-12
2.77342e-11 -7.99315e-12 62.8225

59.8374 0.24305 -1.57942e-11
0.24305 59.9199 -1.84421e-11
-1.57942e-11 -1.84421e-11 60.4841

61.3064 0.069789 -2.08013e-11
0.069789 61.5756 4.58881e-11
-2.08013e-11 4.58881e-11 61.6984

61.5406 -0.821354 2.77326e-11
-0.821354 58.6957 4.06414e-11
2.77326e-11 4.06414e-11 59.1561

65.0098 0.889949 -3.23624e-11
0.889949 62.8797 -5.41186e-11
-3.23624e-11 -5.41186e-11 62.2174

57.7821 -0.978373 1.27126e-11
-0.978373 56.1435 5.71093e-11
1.27126e-11 5.71093e-11 57.8751

56.3956 -0.162918 8.2833e-12
-0.162918 50.2378 -6.55484e-12
8.2833e-12 -6.55484e-12 54.617

61.0068 -0.359986 -3.23576e-11
-0.359986 61.5636 -9.15367e-13
-3.23576e-11 -9.15367e-13 61.4858

61.0105 0.355964 2.38839e-11
0.355964 61.6074 2.61462e-11
2.38839e-11 2.61462e-11 61.5067

57.682 -0.123309 2.02252e-11
-0.123309 53.7485 -3.46988e-11
2.02252e-11 -3.46988e-11 57.1029

61.8605 0.544608 -4.27584e-11
0.544608 62.2495 -1.76225e-11
-4.27584e-11 -1.76225e-11 61.9114

64.6827 0.327684 -8.32025e-11
0.327684 65.1172 -4.54527e-11
-8.32025e-11 -4.54527e-11 64.2605

64.6828 -0.325947 1.38676e-11
-0.325947 65.1155 -4.98826e-11
1.38676e-11 -4.98826e-11 64.2597

57.1165 -0.372997 3.35141e-11
-0.372997 57.2147 -2.61964e-11
3.35141e-11 -2.61964e-11 58.172

56.3228 -1.17837 -3.92927e-11
-1.17837 56.8979 -1.61805e-11
-3.92927e-11 -1.61805e-11 57.607

57.4355 -1.02756 -3.85136e-13
-1.02756 54.8382 2.90365e-11
-3.85136e-13 2.90365e-11 57.4475

58.6505 0.0282745 -1.9454e-11
0.0282745 57.8683 -2.08015e-11
-1.9454e-11 -2.08015e-11 59.2798

57.4204 -0.878755 2.5039e-11
-0.878755 57.3402 1.30028e-11
2.5039e-11 1.30028e-11 58.0394

59.4048 -0.186864 3.08186e-12
-0.186864 59.4075 -7.18663e-12
3.08186e-12 -7.18663e-12 60.2021

59.5571 -0.727596 2.69743e-12
-0.727596 59.5614 -2.32092e-11
2.69743e-12 -2.32092e-11 60.0524

61.0359 0.553078 7.32003e-12
0.553078 60.5722 2.84092e-11
7.32003e-12 2.84092e-11 61.0008

63.8273 -0.857243 -2.8884e-11
-0.857243 61.8908 -6.77966e-11
-2.8884e-11 -6.77966e-11 61.3088

63.2951 0.620214 -1.1167e-11
0.620214 61.5959 4.44935e-11
-1.1167e-11 4.44935e-11 61.0574

63.9719 0.0168466 6.43276e-11
0.0168466 64.734 -4.33349e-11
6.43276e-11 -4.33349e-11 63.9222

63.9646 -0.0183272 8.85952e-12
-0.0183272 64.7301 6.78953e-12
8.85952e-12 6.78953e-12 63.9206

56.2352 -0.637815 6.37548e-11
-0.637815 56.8237 -1.80115e-11
6.37548e-11 -1.80115e-11 57.7903

56.1491 0.670843 -2.69648e-12
0.670843 56.8972 4.23735e-12
-2.69648e-12 4.23735e-12 57.7649

56.2566 -0.34161 2.13811e-11
-0.34161 58.0145 2.08987e-11
2.13811e-11 2.08987e-11 57.4643

56.2296 0.381443 1.81059e-11
0.381443 57.975 -7.02875e-12
1.81059e-11 -7.02875e-12 57.4468

65.778 0.0144379 -4.7761e-11
0.0144379 65.9535 1.57544e-10
-4.7761e-11 1.57544e-10 64.7539

65.7754 -0.0131049 -6.08599e-11
-0.0131049 65.9499 -6.01874e-11
-6.08599e-11 -6.01874e-11 64.7523

64.1826 0.463972 4.81496e-11
0.463972 63.8186 -1.44482e-12
4.81496e-11 -1.44482e-12 63.4371

64.1804 -0.469152 5.81659e-11
-0.469152 63.8268 -2.51333e-11
5.81659e-11 -2.51333e-11 63.4391

62.601 -0.100887 2.31132e-12
-0.100887 63.4243 -1.7286e-11
2.31132e-12 -1.7286e-11 62.8837

59.6417 -0.522557 -6.93308e-12
-0.522557 58.7101 -5.48948e-12
-6.93308e-12 -5.48948e-12 59.5181

61.6451 0.119845 -3.467e-12
0.119845 61.5497 3.17816e-12
-3.467e-12 3.17816e-12 61.4953

58.7526 -0.243191 -5.39305e-12
-0.243191 58.1682 -3.03372e-12
-5.39305e-12 -3.03372e-12 59.388

62.6045 0.1075 3.8522e-12
0.1075 63.4255 1.80084e-11
3.8522e-12 1.80084e-11 62.882

59.3989 0.433813 -9.14814e-12
0.433813 58.8754 1.94534e-11
-9.14814e-12 1.94534e-11 59.5067

62.2317 -0.17929 1.00155e-11
-0.17929 63.0372 -1.93564e-11
1.00155e-11 -1.93564e-11 62.5552

53.1357 -1.49531 2.69668e-11
-1.49531 55.6291 -1.22299e-11
2.69668e-11 -1.22299e-11 55.4808

53.1517 1.50028 8.28451e-12
1.50028 55.5894 9.34119e-12
8.28451e-12 9.34119e-12 55.4791

62.2144 0.184754 6.16311e-12
0.184754 63.0253 -1.3819e-11
6.16311e-12 -1.3819e-11 62.5461

57.6838 1.10407 -1.73352e-12
1.10407 56.1636 2.3547e-11
-1.73352e-12 2.3547e-11 57.8308

68.1853 0.252951 -2.77294e-11
0.252951 59.0481 -4.52535e-11
-2.77294e-11 -4.52535e-11 61.008

68.0973 -0.534255 -6.15807e-12
-0.534255 66.028 7.0492e-11
-6.15807e-12 7.0492e-11 63.0381

62.868 0.2366 -2.31122e-11
0.2366 62.2803 9.24585e-12
-2.31122e-11 9.24585e-12 62.02

56.7293 -0.84769 2.04174e-11
-0.84769 55.9513 3.45256e-11
2.04174e-11 3.45256e-11 57.8891

57.7456 -1.6123 -8.47478e-12
-1.6123 55.3586 -8.18789e-13
-8.47478e-12 -8.18789e-13 57.0544

60.7466 -0.0893554 2.96613e-11
-0.0893554 60.9491 -5.06064e-13
2.96613e-11 -5.06064e-13 61.2335

60.7908 0.0268741 -4.54547e-11
0.0268741 61.5442 -1.59861e-11
-4.54547e-11 -1.59861e-11 61.4812

64.3932 0.175467 5.77791e-11
0.175467 64.6801 -5.79485e-11
5.77791e-11 -5.79485e-11 64.0318

64.3974 -0.16765 1.11703e-11
-0.16765 64.6777 1.1869e-11
1.11703e-11 1.1869e-11 64.0322

57.7757 1.61009 1.07863e-11
1.61009 55.4402 2.55314e-12
1.07863e-11 2.55314e-12 57.0786

61.7212 -0.169227 -1.5022e-11
-0.169227 61.5164 -3.67875e-11
-1.5022e-11 -3.67875e-11 61.5393

62.2636 -0.321568 4.51648e-11
-0.321568 63.0185 2.62904e-11
4.51648e-11 2.62904e-11 62.6064

63.6404 0.490328 -4.23711e-11
0.490328 64.1067 3.28387e-11
-4.23711e-11 3.28387e-11 63.496

63.6403 -0.489089 -1.54081e-11
-0.489089 64.1097 1.70448e-11
-1.54081e-11 1.70448e-11 63.4963

59.0572 -2.36133 -9.51493e-11
-2.36133 57.8401 -2.12895e-11
-9.51493e-11 -2.12895e-11 58.216

58.9991 2.40495 -9.24653e-12
2.40495 57.8529 -4.12074e-11
-9.24653e-12 -4.12074e-11 58.208

62.7621 0.699506 -9.24367e-12
0.699506 62.8075 2.40756e-11
-9.24367e-12 2.40756e-11 62.3058

57.7122 -0.299317 -5.29691e-11
-0.299317 56.8415 -1.96452e-11
-5.29691e-11 -1.96452e-11 58.3562

64.0292 0.369031 2.98531e-11
0.369031 64.7136 3.51014e-11
2.98531e-11 3.51014e-11 63.9176

64.0311 -0.367673 4.15054e-11
-0.367673 64.7127 -4.01568e-11
4.15054e-11 -4.01568e-11 63.9175

59.2981 -1.0437 -3.73659e-11
-1.0437 57.5557 -4.33479e-12
-3.73659e-11 -4.33479e-12 58.506

56.8077 -2.01906 2.40764e-11
-2.01906 55.4418 1.27135e-11
2.40764e-11 1.27135e-11 56.43

60.2258 -0.289941 9.2451e-12
-0.289941 60.6748 4.28539e-12
9.2451e-12 4.28539e-12 60.9891

55.1439 0.143917 3.1203e-11
0.143917 57.5966 -1.18472e-11
3.1203e-11 -1.18472e-11 56.976

55.1118 -0.144411 6.16373e-12
-0.144411 57.5765 -2.10912e-11
6.16373e-12 -2.10912e-11 56.9618

56.6699 -1.99411 3.23578e-11
-1.99411 56.2929 1.96476e-11
3.23578e-11 1.96476e-11 57.3609

62.3034 0.3222 -2.0801e-11
0.3222 63.0046 -9.87077e-12
-2.0801e-11 -9.87077e-12 62.6225

57.0954 0.39753 -4.46868e-11
0.39753 57.2448 4.42882e-12
-4.46868e-11 4.42882e-12 58.1457

55.6398 0.125204 3.56332e-11
0.125204 57.1264 -1.33881e-11
3.56332e-11 -1.33881e-11 57.4372

55.5804 -0.148683 1.73358e-11
-0.148683 57.1606 -8.76268e-12
1.73358e-11 -8.76268e-12 57.4222

57.2406 1.26147 -7.31953e-12
1.26147 54.4904 3.80417e-12
-7.31953e-12 3.80417e-12 57.2892

64.482 0.235153 1.73346e-11
0.235153 65.1637 8.27211e-11
1.73346e-11 8.27211e-11 64.2241

64.4828 -0.233254 -1.96446e-11
-0.233254 65.1594 -3.73642e-11
-1.96446e-11 -3.73642e-11 64.223

65.1258 -0.0522277 -7.31887e-11
-0.0522277 63.4926 -6.1703e-12
-7.31887e-11 -6.1703e-12 61.6053

64.9923 1.1345 1.77239e-11
1.1345 63.5499 7.22255e-11
1.77239e-11 7.22255e-11 61.8429

59.9604 0.0801431 -1.69493e-11
0.0801431 60.4454 -2.79522e-11
-1.69493e-11 -2.79522e-11 60.7062

59.6874 -0.0507911 -3.23584e-11
-0.0507911 58.849 -4.50815e-12
-3.23584e-11 -4.50815e-12 59.938

63.3821 0.456809 -1.15534e-12
0.456809 63.9338 1.98382e-11
-1.15534e-12 1.98382e-11 63.2571

63.3907 -0.454947 -3.46643e-12
-0.454947 63.9355 -1.94525e-11
-3.46643e-12 -1.94525e-11 63.2594

63.0994 0.502249 1.30953e-11
0.502249 63.1117 -3.10093e-11
1.30953e-11 -3.10093e-11 62.4922

60.2924 0.115369 1.92649e-12
0.115369 60.6162 3.38506e-11
1.92649e-12 3.38506e-11 60.9226

60.9756 -0.0416593 -2.19569e-11
-0.0416593 60.9756 6.34395e-11
-2.19569e-11 6.34395e-11 61.3567

66.0279 -0.259146 -2.34974e-11
-0.259146 66.4906 1.43483e-11
-2.34974e-11 1.43483e-11 64.9674

66.0303 0.261232 -2.38811e-11
0.261232 66.4938 2.44597e-11
-2.38811e-11 2.44597e-11 64.9688

55.7576 -0.044351 -1.05937e-11
-0.044351 56.8381 -7.31978e-12
-1.05937e-11 -7.31978e-12 57.7121

62.488 0.34962 7.70498e-12
0.34962 62.7005 3.06237e-11
7.70498e-12 3.06237e-11 62.4615

63.424 0.307008 -1.81036e-11
0.307008 63.8144 3.82318e-11
-1.81036e-11 3.82318e-11 63.2479

63.4242 -0.304934 -7.70319e-13
-0.304934 63.8166 -2.50371e-12
-7.70319e-13 -2.50371e-12 63.2485

62.6289 0.21955 7.31834e-12
0.21955 63.1844 -2.34978e-11
7.31834e-12 -2.34978e-11 62.6786

62.4846 -0.332791 2.5038e-11
-0.332791 62.6827 6.4527e-12
2.5038e-11 6.4527e-12 62.4557

60.1123 -0.0179164 -1.92605e-11
-0.0179164 60.6118 1.11231e-11
-1.92605e-11 1.11231e-11 60.7971

60.1528 -0.0241882 3.50538e-11
-0.0241882 60.7133 3.73665e-11
3.50538e-11 3.73665e-11 60.8445

61.3208 -0.0859401 2.31113e-12
-0.0859401 62.0753 2.28237e-11
2.31113e-12 2.28237e-11 61.8867

62.6193 -0.21421 -5.77802e-12
-0.21421 63.1861 -4.81064e-13
-5.77802e-12 -4.81064e-13 62.6755

60.0056 -0.219974 -5.39274e-12
-0.219974 60.0029 -2.67241e-11
-5.39274e-12 -2.67241e-11 60.5789

58.912 0.12729 2.15722e-11
0.12729 58.5685 -3.80401e-11
2.15722e-11 -3.80401e-11 59.6199

63.9787 0.422272 1.5408e-11
0.422272 64.1101 5.00749e-12
1.5408e-11 5.00749e-12 63.5682

63.9792 -0.424538 1.88752e-11
-0.424538 64.1103 -1.39633e-11
1.88752e-11 -1.39633e-11 63.5682

63.9684 0.283722 1.73337e-11
0.283722 64.5404 -1.93568e-11
1.73337e-11 -1.93568e-11 63.7449

63.9691 -0.282389 1.61781e-11
-0.282389 64.5416 1.3771e-11
1.61781e-11 1.3771e-11 63.745

59.5374 -0.222599 3.69804e-11
-0.222599 59.9318 2.78319e-11
3.69804e-11 2.78319e-11 60.3879

59.3741 -0.200308 -4.96931e-11
-0.200308 59.3683 2.30044e-11
-4.96931e-11 2.30044e-11 60.0495

62.9756 -0.486454 -1.46378e-11
-0.486454 63.5401 1.49265e-11
-1.46378e-11 1.49265e-11 62.9937

62.9716 0.491069 3.35126e-11
0.491069 63.5333 2.79274e-12
3.35126e-11 2.79274e-12 62.9915

64.0995 -0.274534 -1.19422e-11
-0.274534 59.3945 -2.15722e-11
-1.19422e-11 -2.15722e-11 60.5157

64.398 -0.0279954 1.92579e-12
-0.0279954 62.801 -6.35567e-12
1.92579e-12 -6.35567e-12 61.7833

64.16 0.295535 4.00604e-11
0.295535 64.4903 -5.00807e-12
4.00604e-11 -5.00807e-12 63.7371

64.1721 -0.289139 4.23711e-11
-0.289139 64.4883 2.9757e-11
4.23711e-11 2.9757e-11 63.7387

64.6089 0.153987 -6.66383e-11
0.153987 65.0295 4.65131e-11
-6.66383e-11 4.65131e-11 64.2037

64.609 -0.153515 6.9336e-12
-0.153515 65.0273 -2.20041e-11
6.9336e-12 -2.20041e-11 64.2028

56.0815 -0.357983 -6.73999e-12
-0.357983 57.2737 -1.19418e-11
-6.73999e-12 -1.19418e-11 57.5252

56.1723 0.360114 -4.64206e-11
0.360114 57.2389 -1.84889e-11
-4.64206e-11 -1.84889e-11 57.5568

61.9339 -1.99787 1.92713e-11
-1.99787 59.23 -4.21806e-11
1.92713e-11 -4.21806e-11 59.1566

56.6198 0.0965542 7.89674e-12
0.0965542 58.3816 6.3564e-12
7.89674e-12 6.3564e-12 57.4645

65.1873 0.06144 -1.15553e-12
0.06144 65.5792 -2.87933e-11
-1.15553e-12 -2.87933e-11 64.535

65.8527 -0.178747 -6.85638e-11
-0.178747 65.7964 1.40588e-11
-6.85638e-11 1.40588e-11 64.7612

65.1865 -0.0602385 -1.00145e-11
-0.0602385 65.585 4.65123e-11
-1.00145e-11 4.65123e-11 64.5363

65.8543 0.179878 -1.01305e-10
0.179878 65.8002 1.07861e-11
-1.01305e-10 1.07861e-11 64.7627

65.2759 1.21607 -2.88857e-11
1.21607 64.4252 7.31898e-11
-2.88857e-11 7.31898e-11 62.4853

56.6314 -0.0844185 -1.02664e-10
-0.0844185 58.3676 -6.19228e-11
-1.02664e-10 -6.19228e-11 57.4639

65.6787 0.00478891 -2.53841e-10
0.00478891 65.6828 -1.28179e-10
-2.53841e-10 -1.28179e-10 64.6101

66.5845 -0.190847 9.02124e-10
-0.190847 66.3441 -2.59793e-10
9.02124e-10 -2.59793e-10 65.0418

66.5849 0.192291 2.72335e-10
0.192291 66.3484 1.32115e-10
2.72335e-10 1.32115e-10 65.0431

65.6833 -0.00229927 -5.54601e-11
-0.00229927 65.6852 2.13881e-10
-5.54601e-11 2.13881e-10 64.6118

65.5261 -0.120868 -2.04162e-11
-0.120868 65.2373 1.74296e-11
-2.04162e-11 1.74296e-11 64.4513

64.7378 -0.462494 2.61922e-11
-0.462494 64.7313 3.87124e-11
2.61922e-11 3.87124e-11 64.0778

65.775 -0.135936 -5.39379e-12
-0.135936 66.2809 3.51487e-11
-5.39379e-12 3.51487e-11 64.8299

65.5294 0.123995 -1.42533e-11
0.123995 65.2397 -6.33644e-11
-1.42533e-11 -6.33644e-11 64.4528

65.7776 0.13727 -4.46834e-11
0.13727 66.285 -8.42608e-11
-4.46834e-11 -8.42608e-11 64.8316

64.74 0.465278 -1.38778e-16
0.465278 64.7346 -7.22229e-12
-1.38778e-16 -7.22229e-12 64.0794

64.9252 0.155587 -1.50228e-11
0.155587 65.1717 -3.0623e-11
-1.50228e-11 -3.0623e-11 64.2783

65.3021 0.319782 1.04001e-11
0.319782 65.3857 -2.53268e-11
1.04001e-11 -2.53268e-11 64.4996

64.9231 -0.154613 -2.42675e-11
-0.154613 65.1702 2.31091e-12
-2.42675e-11 2.31091e-12 64.2772

65.3008 -0.317644 8.47374e-12
-0.317644 65.3834 1.82006e-11
8.47374e-12 1.82006e-11 64.4985

36.629 2.21506 -2.60458e-12
2.21506 41.6324 -3.69915e-11
-2.60458e-12 -3.69915e-11 38.7815

48.7149 0.360388 1.82993e-11
0.360388 50.4785 7.31926e-12
1.82993e-11 7.31926e-12 49.0586

41.8185 0.6245 -8.66949e-12
0.6245 48.3752 -1.81079e-11
-8.66949e-12 -1.81079e-11 45.505

44.4188 1.13658 -3.87394e-13
1.13658 37.5173 4.58502e-11
-3.87394e-13 4.58502e-11 40.9992

42.6489 0.326817 -4.37328e-11
0.326817 35.9016 1.61876e-11
-4.37328e-11 1.61876e-11 38.5746

49.684 -0.244173 2.25379e-11
-0.244173 52.2644 -6.55032e-12
2.25379e-11 -6.55032e-12 51.5414

42.8362 0.948596 1.11705e-11
0.948596 51.4714 -2.77408e-11
1.11705e-11 -2.77408e-11 47.927

43.1455 -0.313846 -1.79196e-11
-0.313846 36.9272 3.0852e-12
-1.79196e-11 3.0852e-12 39.0431

49.8789 0.25766 3.39543e-11
0.25766 41.7091 -1.05963e-11
3.39543e-11 -1.05963e-11 46.1142

29.9831 1.98873 -9.15094e-12
1.98873 34.3201 1.73392e-11
-9.15094e-12 1.73392e-11 31.3561

31.4388 -3.21611 2.80354e-11
-3.21611 34.8857 1.02094e-11
2.80354e-11 1.02094e-11 31.6393

35.1853 2.00373 2.92892e-11
2.00373 31.0494 1.54051e-12
2.92892e-11 1.54051e-12 32.0459

50.467 -3.67292 1.10763e-11
-3.67292 52.701 -3.17833e-11
1.10763e-11 -3.17833e-11 51.173

47.7759 -1.28398 -1.23275e-11
-1.28398 51.4155 1.11724e-11
-1.23275e-11 1.11724e-11 49.4145

37.4475 1.90384 2.82216e-11
1.90384 43.4326 -5.78012e-12
2.82216e-11 -5.78012e-12 41.1015

39.9932 2.20914 -3.12115e-11
2.20914 46.8376 -3.89159e-11
-3.12115e-11 -3.89159e-11 44.7814

42.7055 -1.05188 9.82448e-12
-1.05188 51.5248 -1.07873e-11
9.82448e-12 -1.07873e-11 47.8103

47.6771 -2.74932 -2.40803e-11
-2.74932 51.4036 -5.19969e-12
-2.40803e-11 -5.19969e-12 49.973

44.963 -1.95787 -9.0572e-12
-1.95787 38.6933 -8.28276e-12
-9.0572e-12 -8.28276e-12 42.4374

32.2074 0.628076 8.76384e-12
0.628076 38.3035 -8.47981e-12
8.76384e-12 -8.47981e-12 34.0679

34.6344 -1.25448 3.08258e-11
-1.25448 39.1058 -2.13869e-11
3.08258e-11 -2.13869e-11 35.0743

38.4527 0.471592 1.73402e-12
0.471592 33.6458 5.04735e-11
1.73402e-12 5.04735e-11 34.5777

36.8211 2.56734 -3.29397e-11
2.56734 39.8699 3.96893e-11
-3.29397e-11 3.96893e-11 38.3273

40.1306 -1.76396 -1.6569e-11
-1.76396 34.6836 9.82623e-12
-1.6569e-11 9.82623e-12 36.4953

40.6654 2.81975 -1.84001e-13
2.81975 41.1949 6.11664e-11
-1.84001e-13 6.11664e-11 40.9988

42.4036 1.99895 1.15578e-12
1.99895 43.8161 -1.1573e-12
1.15578e-12 -1.1573e-12 41.8114

45.4376 -0.603046 -1.78682e-11
-0.603046 37.9129 3.8522e-13
-1.78682e-11 3.8522e-13 41.5666

28.5935 1.34921 -2.73589e-11
1.34921 31.7024 -2.65909e-11
-2.73589e-11 -2.65909e-11 28.5666

48.1104 0.676552 -5.50992e-11
0.676552 40.5825 2.04186e-11
-5.50992e-11 2.04186e-11 44.9404

31.8384 1.25883 -3.17886e-11
1.25883 29.574 -1.40628e-15
-3.17886e-11 -1.40628e-15 29.1093

52.4573 -1.25049 1.19428e-11
-1.25049 53.6197 -3.65944e-12
1.19428e-11 -3.65944e-12 52.5897

48.0742 0.159114 -4.04626e-12
0.159114 52.9505 -5.3932e-12
-4.04626e-12 -5.3932e-12 49.8571

55.937 -1.34174 9.5585e-12
-1.34174 53.6809 1.34903e-12
9.5585e-12 1.34903e-12 53.3364

54.431 3.24774 6.79005e-12
3.24774 54.7704 1.2711e-11
6.79005e-12 1.2711e-11 53.2935

37.5654 -0.855325 6.02113e-11
-0.855325 32.8468 -8.47733e-12
6.02113e-11 -8.47733e-12 33.4143

40.8389 2.99141 -1.04032e-11
2.99141 42.7675 -6.16548e-12
-1.04032e-11 -6.16548e-12 42.7796

49.1084 1.70986 4.50225e-12
1.70986 48.5919 8.47618e-12
4.50225e-12 8.47618e-12 49.2033

50.5679 -0.480245 -1.48566e-11
-0.480245 49.8911 2.33092e-11
-1.48566e-11 2.33092e-11 49.8705

49.9371 0.258357 8.50137e-12
0.258357 41.225 2.58114e-11
8.50137e-12 2.58114e-11 46.1221

40.813 2.81887 -1.69538e-11
2.81887 42.9855 -2.1576e-11
-1.69538e-11 -2.1576e-11 41.0504

40.833 -2.23261 -2.05186e-11
-2.23261 37.9403 -1.09801e-11
-2.05186e-11 -1.09801e-11 37.9219

49.3867 -0.0260359 2.81763e-11
-0.0260359 39.9708 -1.42554e-11
2.81763e-11 -1.42554e-11 45.1649

38.42 -3.84109 4.52571e-12
-3.84109 42.0509 1.44497e-11
4.52571e-12 1.44497e-11 39.0368

39.3363 -3.34926 -2.88639e-13
-3.34926 43.0157 2.60073e-11
-2.88639e-13 2.60073e-11 39.8481

48.9924 1.69843 4.62467e-12
1.69843 50.3882 1.67582e-11
4.62467e-12 1.67582e-11 49.6667

37.7638 -3.84513 3.41998e-11
-3.84513 36.5803 -1.42643e-11
3.41998e-11 -1.42643e-11 35.7649

23.0588 -3.83199 2.06167e-11
-3.83199 22.7652 -1.04069e-11
2.06167e-11 -1.04069e-11 22.7713

22.8478 -4.06092 5.77945e-12
-4.06092 23.9034 -1.58013e-11
5.77945e-12 -1.58013e-11 23.1514

46.4769 -4.46371 -2.53294e-11
-4.46371 51.2446 -1.57941e-11
-2.53294e-11 -1.57941e-11 49.1077

23.108 -1.51602 1.54225e-12
-1.51602 22.7923 2.83245e-11
1.54225e-12 2.83245e-11 23.7427

22.1711 -1.2424 3.02514e-11
-1.2424 23.0059 5.7799e-12
3.02514e-11 5.7799e-12 23.3525

55.7665 1.93711 2.15675e-11
1.93711 51.8903 -4.25719e-11
2.15675e-11 -4.25719e-11 53.8119

52.1774 -2.56481 -3.044e-11
-2.56481 49.4593 -3.04347e-11
-3.044e-11 -3.04347e-11 50.3348

46.3853 -1.33914 1.54154e-12
-1.33914 39.7864 3.08153e-12
1.54154e-12 3.08153e-12 44.3446

54.9595 2.60809 -3.12112e-11
2.60809 49.7325 -1.3674e-11
-3.12112e-11 -1.3674e-11 52.8896

51.7158 -3.5982 -2.15769e-11
-3.5982 49.052 1.07875e-10
-2.15769e-11 1.07875e-10 50.1669

43.4704 1.97361 -1.65737e-11
1.97361 46.4593 -8.38024e-11
-1.65737e-11 -8.38024e-11 44.593

54.9614 -1.24593 3.79244e-11
-1.24593 51.1009 1.11879e-11
3.79244e-11 1.11879e-11 52.1764

53.1166 1.67551 -6.33238e-12
1.67551 52.0446 -4.65539e-12
-6.33238e-12 -4.65539e-12 52.0306

51.1607 3.05487 2.27334e-11
3.05487 47.0575 3.42394e-11
2.27334e-11 3.42394e-11 49.6468

47.6078 -3.88571 2.52361e-11
-3.88571 44.9552 -2.00417e-11
2.52361e-11 -2.00417e-11 46.8521

33.7332 -2.65336 -4.31584e-11
-2.65336 30.0894 -3.58342e-11
-4.31584e-11 -3.58342e-11 30.6294

55.4307 -0.75673 -5.5857e-11
-0.75673 57.5795 1.06923e-11
-5.5857e-11 1.06923e-11 56.3569

50.9616 -0.125627 2.504e-11
-0.125627 57.698 1.1553e-12
2.504e-11 1.1553e-12 52.5427

36.8545 -3.24483 3.17895e-11
-3.24483 40.0999 1.46364e-11
3.17895e-11 1.46364e-11 38.5501

27.6045 -1.11847 3.27566e-11
-1.11847 30.8882 -9.44378e-12
3.27566e-11 -9.44378e-12 28.018

30.3021 -1.04623 -5.60693e-11
-1.04623 27.2189 3.08361e-12
-5.60693e-11 3.08361e-12 27.5552

45.9313 1.2594 -4.16087e-11
1.2594 49.2693 5.78145e-12
-4.16087e-11 5.78145e-12 47.6935

39.1157 1.89374 3.54435e-11
1.89374 46.3324 -2.50465e-11
3.54435e-11 -2.50465e-11 43.8545

64.2363 2.46841 -8.12902e-11
2.46841 57.0309 -6.32287e-12
-8.12902e-11 -6.32287e-12 58.6987

63.7631 0.735046 -1.61539e-11
0.735046 66.3092 2.608e-10
-1.61539e-11 2.608e-10 57.7576

41.2359 2.84955 1.14636e-11
2.84955 45.512 1.92639e-11
1.14636e-11 1.92639e-11 45.6262

48.4216 2.25455 3.83101e-13
2.25455 42.6301 -5.77871e-13
3.83101e-13 -5.77871e-13 46.2732

46.4316 -3.43279 2.50474e-11
-3.43279 41.585 2.92802e-11
2.50474e-11 2.92802e-11 44.7313

41.911 3.91088 7.51314e-12
3.91088 45.1274 -9.63285e-12
7.51314e-12 -9.63285e-12 45.3996

42.5865 -2.97447 1.63747e-11
-2.97447 49.0138 -3.86284e-13
1.63747e-11 -3.86284e-13 47.2434

36.9029 -0.281518 4.4414e-11
-0.281518 31.0777 -1.5415e-11
4.4414e-11 -1.5415e-11 32.706

43.362 -1.1374 -6.74142e-12
-1.1374 37.0496 -7.51184e-12
-6.74142e-12 -7.51184e-12 39.9733

39.5915 1.39696 1.04022e-11
1.39696 34.2429 -1.84938e-11
1.04022e-11 -1.84938e-11 35.9128

48.4388 1.55041 -7.19713e-12
1.55041 45.4372 1.42571e-11
-7.19713e-12 1.42571e-11 47.8623

50.4285 1.05419 6.66798e-11
1.05419 57.3757 -2.73564e-11
6.66798e-11 -2.73564e-11 53.2481

54.0655 -0.777044 2.16222e-11
-0.777044 54.4996 -2.06128e-11
2.16222e-11 -2.06128e-11 53.3682

34.2103 2.24317 3.65092e-11
2.24317 35.5079 1.27124e-11
3.65092e-11 1.27124e-11 33.3725

41.5693 -2.88291 -1.83037e-11
-2.88291 40.4236 -9.24664e-12
-1.83037e-11 -9.24664e-12 40.5496

46.3019 1.56082 -3.67977e-11
1.56082 41.3271 -2.34986e-11
-3.67977e-11 -2.34986e-11 44.0114

53.7823 1.74035 -7.16531e-11
1.74035 59.4744 -1.53707e-12
-7.16531e-11 -1.53707e-12 53.8209

54.9186 -1.16246 3.67914e-11
-1.16246 57.1873 2.43653e-11
3.67914e-11 2.43653e-11 55.9841

49.6849 -0.424215 -2.27783e-11
-0.424215 45.895 2.21541e-11
-2.27783e-11 2.21541e-11 48.4165

46.9988 -2.2435 -2.1476e-11
-2.2435 49.8289 5.78041e-12
-2.1476e-11 5.78041e-12 47.7794

41.7188 -0.725916 6.74065e-13
-0.725916 48.5745 -1.07892e-11
6.74065e-13 -1.07892e-11 45.4567

48.7032 0.497902 -7.32255e-12
0.497902 40.4812 -7.7051e-12
-7.32255e-12 -7.7051e-12 46.426

48.0424 -1.56365 -8.09208e-12
-1.56365 40.2637 -1.15512e-12
-8.09208e-12 -1.15512e-12 45.8704

35.2911 -3.18646 1.20491e-11
-3.18646 33.9293 -7.70524e-12
1.20491e-11 -7.70524e-12 33.2423

51.6615 1.96721 1.90275e-11
1.96721 43.8933 3.33205e-11
1.90275e-11 3.33205e-11 49.3167

50.0694 -3.05932 1.65686e-11
-3.05932 43.9266 -2.15781e-11
1.65686e-11 -2.15781e-11 47.8976

45.1031 -2.72386 6.3578e-12
-2.72386 39.8672 3.08237e-11
6.3578e-12 3.08237e-11 42.7392

37.4432 -2.71389 -1.5222e-11
-2.71389 41.8518 -3.00523e-11
-1.5222e-11 -3.00523e-11 39.2843

49.0713 1.18291 -2.23483e-11
1.18291 43.352 5.39594e-12
-2.23483e-11 5.39594e-12 47.4703

48.22 -2.19377 3.85277e-12
-2.19377 42.4263 1.45434e-11
3.85277e-12 1.45434e-11 46.3168

45.8881 -0.71642 -9.24808e-12
-0.71642 40.7507 -3.0628e-11
-9.24808e-12 -3.0628e-11 42.937

51.6357 3.42216 -3.47011e-12
3.42216 49.9487 1.35151e-12
-3.47011e-12 1.35151e-12 50.931

39.2609 2.26837 3.05299e-11
2.26837 37.7187 -2.81254e-11
3.05299e-11 -2.81254e-11 37.5616

41.5405 3.39875 1.66607e-11
3.39875 44.628 -1.88793e-11
1.66607e-11 -1.88793e-11 45.718

50.5812 2.52962 -9.63248e-13
2.52962 52.4443 2.31259e-12
-9.63248e-13 2.31259e-12 52.0471

41.3849 1.26268 -1.79181e-11
1.26268 35.3457 2.65887e-11
-1.79181e-11 2.65887e-11 37.8374

45.211 -1.69008 2.65366e-11
-1.69008 43.1534 -7.70783e-12
2.65366e-11 -7.70783e-12 44.6485

44.7108 1.05651 -4.61949e-12
1.05651 39.7886 -6.81963e-11
-4.61949e-12 -6.81963e-11 42.0715

35.7098 2.71573 -2.37952e-11
2.71573 36.6886 1.15855e-12
-2.37952e-11 1.15855e-12 35.8304

39.9928 2.56538 1.39654e-11
2.56538 38.8102 -4.66243e-11
1.39654e-11 -4.66243e-11 39.7316

38.4449 0.0299754 5.2007e-12
0.0299754 47.3358 -8.86535e-12
5.2007e-12 -8.86535e-12 43.6447

43.6714 -1.10515 3.39039e-11
-1.10515 48.1147 -1.657e-11
3.39039e-11 -1.657e-11 46.0593

34.3584 -3.19853 -1.11705e-11
-3.19853 30.7438 1.888e-11
-1.11705e-11 1.888e-11 31.7315

44.0205 -4.36457 2.48993e-11
-4.36457 48.1818 -2.96693e-11
2.48993e-11 -2.96693e-11 46.3749

36.3415 -3.84836 1.50244e-11
-3.84836 38.3117 2.35011e-11
1.50244e-11 2.35011e-11 36.4576

39.771 3.12279 -1.77311e-11
3.12279 39.8719 -5.93403e-11
-1.77311e-11 -5.93403e-11 38.339

45.0285 -1.425 1.15118e-11
-1.425 41.7408 2.60281e-12
1.15118e-11 2.60281e-12 42.7675

50.9831 -0.110642 3.75664e-12
-0.110642 42.4727 -1.56022e-11
3.75664e-12 -1.56022e-11 47.6265

50.0608 0.458616 2.02279e-12
0.458616 42.7906 1.5409e-11
2.02279e-12 1.5409e-11 47.4146

33.7374 1.43114 5.77742e-13
1.43114 40.2453 -1.84948e-11
5.77742e-13 -1.84948e-11 36.7367

41.9203 -3.43768 -1.44506e-11
-3.43768 43.082 2.94769e-11
-1.44506e-11 2.94769e-11 41.6071

29.4348 -0.471963 5.2405e-11
-0.471963 36.7841 1.42536e-11
5.2405e-11 1.42536e-11 32.396

32.0892 -0.596952 1.25242e-11
-0.596952 38.0343 -1.32951e-11
1.25242e-11 -1.32951e-11 33.6836

36.6629 -0.789989 -2.31182e-11
-0.789989 30.3116 -3.85789e-12
-2.31182e-11 -3.85789e-12 32.6521

36.5507 2.27399 6.18517e-11
2.27399 35.5792 2.65873e-11
6.18517e-11 2.65873e-11 34.2966

37.5866 -3.94819 -1.84946e-11
-3.94819 35.4243 -1.53914e-12
-1.84946e-11 -1.53914e-12 36.1194

62.9558 -0.937529 -5.40192e-12
-0.937529 63.1444 -6.31755e-11
-5.40192e-12 -6.31755e-11 56.7785

54.7972 -3.55816 2.75424e-11
-3.55816 59.199 1.38627e-11
2.75424e-11 1.38627e-11 56.7126

40.5817 -2.33783 2.50607e-12
-2.33783 34.9382 -1.03995e-11
2.50607e-12 -1.03995e-11 37.3989

47.1941 3.16069 1.90702e-11
3.16069 48.2447 -8.67025e-12
1.90702e-11 -8.67025e-12 47.4852

46.7063 0.210626 3.93028e-11
0.210626 40.0355 8.47119e-12
3.93028e-11 8.47119e-12 44.5928

37.1867 -2.86512 6.45349e-12
-2.86512 42.0837 1.4449e-11
6.45349e-12 1.4449e-11 38.321

41.4251 2.98275 2.43663e-11
2.98275 49.0264 -1.19454e-11
2.43663e-11 -1.19454e-11 47.1691

52.5118 1.24439 -1.2714e-11
1.24439 54.273 -2.44638e-11
-1.2714e-11 -2.44638e-11 53.9067

43.1246 -4.06381 9.6075e-13
-4.06381 44.9649 -1.4643e-11
9.6075e-13 -1.4643e-11 45.5759

52.0801 3.04326 -1.52169e-11
3.04326 52.4667 3.66263e-12
-1.52169e-11 3.66263e-12 52.7122

39.1435 2.40948 -1.5126e-11
2.40948 44.2085 -4.46955e-11
-1.5126e-11 -4.46955e-11 43.0127

48.8059 -0.286591 1.15539e-12
-0.286591 37.2923 3.46803e-12
1.15539e-12 3.46803e-12 46.3128

39.9357 2.97239 -4.25854e-11
2.97239 36.7522 -5.60614e-11
-4.25854e-11 -5.60614e-11 37.4266

44.5997 -4.61824 1.45921e-11
-4.61824 50.0831 -9.63278e-12
1.45921e-11 -9.63278e-12 47.2539

40.9781 2.67578 -1.52181e-11
2.67578 40.2925 -3.62201e-11
-1.52181e-11 -3.62201e-11 39.4572

34.2454 -2.62563 -2.84188e-11
-2.62563 35.8266 3.5649e-11
-2.84188e-11 3.5649e-11 33.1275

42.5125 -3.77977 -8.68083e-13
-3.77977 45.4993 1.73379e-11
-8.68083e-13 1.73379e-11 43.6965

32.9571 -1.70593 -3.9113e-11
-1.70593 38.7826 4.08481e-11
-3.9113e-11 4.08481e-11 34.7444

36.4995 0.651542 -1.15511e-12
0.651542 40.0625 -9.63296e-12
-1.15511e-12 -9.63296e-12 36.3778

38.0462 -1.6057 -1.02126e-11
-1.6057 33.4733 -7.71477e-12
-1.02126e-11 -7.71477e-12 34.612

38.2545 -3.44354 4.81963e-12
-3.44354 37.7439 -8.08846e-12
4.81963e-12 -8.08846e-12 37.4145

37.3023 -0.163471 -2.67806e-11
-0.163471 44.4902 1.7724e-11
-2.67806e-11 1.7724e-11 40.631

42.5826 -0.617229 7.12673e-12
-0.617229 46.0331 -1.19474e-11
7.12673e-12 -1.19474e-11 42.9665

31.5319 -3.44576 3.46945e-12
-3.44576 33.642 -5.39369e-12
3.46945e-12 -5.39369e-12 31.5482

34.1825 2.5553 -1.33993e-12
2.5553 35.027 6.16307e-12
-1.33993e-12 6.16307e-12 33.0495

47.9222 0.012624 4.7388e-11
0.012624 40.6617 -2.60111e-11
4.7388e-11 -2.60111e-11 46.9985

47.5422 -0.610758 3.08246e-12
-0.610758 40.7843 2.50427e-11
3.08246e-12 2.50427e-11 46.5727

48.1776 2.76256 1.31005e-11
2.76256 48.8888 -1.73483e-12
1.31005e-11 -1.73483e-12 48.2977

46.0852 -4.56291 3.88159e-11
-4.56291 51.2456 -5.56752e-11
3.88159e-11 -5.56752e-11 48.86

43.0232 3.12956 6.45169e-12
3.12956 43.5413 1.15352e-12
6.45169e-12 1.15352e-12 44.3928

32.3466 1.4384 -1.85947e-11
1.4384 29.1322 -2.46661e-11
-1.85947e-11 -2.46661e-11 29.5586

38.3516 1.71867 -8.66622e-12
1.71867 42.478 9.63289e-12
-8.66622e-12 9.63289e-12 39.286

53.0896 1.58518 1.92653e-11
1.58518 47.8238 4.29509e-11
1.92653e-11 4.29509e-11 51.0329

50.5621 -2.76533 -4.24094e-12
-2.76533 45.9341 -6.06446e-12
-4.24094e-12 -6.06446e-12 48.5071

49.2441 2.26072 -9.05424e-12
2.26072 45.5699 -2.69507e-12
-9.05424e-12 -2.69507e-12 47.5541

46.8209 -3.26781 2.60087e-11
-3.26781 42.9774 -9.63537e-12
2.60087e-11 -9.63537e-12 45.1624

20.9862 -1.63427 1.50309e-11
-1.63427 17.9274 3.2371e-11
1.50309e-11 3.2371e-11 22.1342

17.8677 -1.91228 5.97137e-12
-1.91228 21.7214 1.36848e-11
5.97137e-12 1.36848e-11 22.4667

34.06 -2.17084 5.39211e-12
-2.17084 40.6257 3.85003e-12
5.39211e-12 3.85003e-12 37.183

59.1104 2.59428 -2.92745e-11
2.59428 52.1864 1.97398e-13
-2.92745e-11 1.97398e-13 55.3769

57.1883 -3.6694 6.27958e-11
-3.6694 53.8215 4.12162e-11
6.27958e-11 4.12162e-11 53.2846

45.5269 2.62963 1.53825e-12
2.62963 42.9611 -3.27479e-12
1.53825e-12 -3.27479e-12 43.8026

32.6376 1.06254 -3.1215e-11
1.06254 28.8184 2.46555e-11
-3.1215e-11 2.46555e-11 29.5215

43.363 -3.16831 1.05945e-11
-3.16831 48.3236 1.36783e-11
1.05945e-11 1.36783e-11 45.7561

39.4621 -1.52142 1.34899e-12
-1.52142 47.3485 -2.11942e-11
1.34899e-12 -2.11942e-11 44.1494

37.0985 -3.77268 9.34408e-12
-3.77268 38.0866 -1.1947e-11
9.34408e-12 -1.1947e-11 36.2526

42.3291 -3.05608 1.09811e-11
-3.05608 44.8124 -2.26671e-15
1.09811e-11 -2.26671e-15 45.8421

42.8744 -3.55016 -2.04202e-11
-3.55016 40.3203 -3.85654e-13
-2.04202e-11 -3.85654e-13 41.5151

39.0863 4.62498 -1.34744e-12
4.62498 45.5458 3.46815e-12
-1.34744e-12 3.46815e-12 45.3154

53.0374 1.12916 -1.13671e-11
1.12916 54.4109 -3.37083e-11
-1.13671e-11 -3.37083e-11 53.9917

47.9411 1.93983 2.71609e-11
1.93983 50.919 -1.01133e-11
2.71609e-11 -1.01133e-11 49.4313

41.8764 -3.4015 -2.27345e-11
-3.4015 43.656 -3.46641e-12
-2.27345e-11 -3.46641e-12 43.8558

41.0974 3.31969 -2.24445e-11
3.31969 43.7973 -4.16121e-11
-2.24445e-11 -4.16121e-11 43.6897

38.3061 2.20908 2.73573e-11
2.20908 34.3359 -8.09279e-12
2.73573e-11 -8.09279e-12 35.4674

43.2711 -0.0058992 -1.98415e-11
-0.0058992 37.5944 4.50782e-11
-1.98415e-11 4.50782e-11 40.2879

53.3356 2.29365 -4.04735e-12
2.29365 53.2093 -6.74157e-12
-4.04735e-12 -6.74157e-12 53.4764

40.4714 -3.67394 -1.01116e-11
-3.67394 45.7528 -2.46585e-11
-1.01116e-11 -2.46585e-11 42.5616

35.3282 0.557019 -1.80136e-11
0.557019 43.3297 -2.11933e-11
-1.80136e-11 -2.11933e-11 39.3115

47.5646 3.43266 -1.75281e-11
3.43266 44.5722 5.39424e-12
-1.75281e-11 5.39424e-12 46.1517

40.7351 0.096895 -2.08052e-11
0.096895 44.9781 -1.38728e-11
-2.08052e-11 -1.38728e-11 41.9748

41.3051 -2.55991 -7.51382e-12
-2.55991 48.4854 -2.00341e-11
-7.51382e-12 -2.00341e-11 46.9391

26.285 -2.16145 3.08283e-11
-2.16145 27.5296 -7.14876e-11
3.08283e-11 -7.14876e-11 25.7818

27.5036 -2.20976 5.83837e-11
-2.20976 26.0241 -2.12597e-12
5.83837e-11 -2.12597e-12 25.646

45.7894 0.758227 -6.51144e-11
0.758227 39.1565 1.50302e-11
-6.51144e-11 1.50302e-11 43.0533

43.6534 -4.0461 -7.51332e-12
-4.0461 41.7616 1.4258e-11
-7.51332e-12 1.4258e-11 43.328

63.8444 2.29662 4.25218e-12
2.29662 55.6103 1.08633e-10
4.25218e-12 1.08633e-10 57.977

64.7162 -0.645653 6.20197e-11
-0.645653 59.8082 -7.47327e-11
6.20197e-11 -7.47327e-11 56.5611

40.0157 -2.85131 -1.27153e-11
-2.85131 44.2695 -2.31159e-11
-1.27153e-11 -2.31159e-11 43.3218

50.7841 -0.863788 4.28539e-12
-0.863788 52.2142 -1.11732e-11
4.28539e-12 -1.11732e-11 51.366

50.3471 2.98981 -1.13172e-11
2.98981 53.6577 -1.92609e-12
-1.13172e-11 -1.92609e-12 51.605

47.4054 0.268748 -3.77601e-11
0.268748 38.9988 6.78086e-11
-3.77601e-11 6.78086e-11 43.1841

44.0333 -4.95024 -4.91043e-12
-4.95024 49.7006 -4.19954e-11
-4.91043e-12 -4.19954e-11 47.0063

28.5155 1.66379 -5.45311e-11
1.66379 28.6529 -3.77643e-11
-5.45311e-11 -3.77643e-11 27.5106

27.6346 1.60399 2.31304e-12
1.60399 27.6723 -4.31638e-11
2.31304e-12 -4.31638e-11 26.8299

27.0872 -1.92587 -2.60106e-11
-1.92587 31.5738 -1.84948e-11
-2.60106e-11 -1.84948e-11 28.5191

29.7323 0.958876 -5.24086e-11
0.958876 33.0058 -1.9846e-11
-5.24086e-11 -1.9846e-11 29.9333

31.4853 -1.63556 1.04066e-11
-1.63556 27.4512 -6.55132e-12
1.04066e-11 -6.55132e-12 28.6091

39.7306 -4.54431 1.59886e-11
-4.54431 45.289 -1.50302e-11
1.59886e-11 -1.50302e-11 45.3544

24.6677 0.0914419 -1.19422e-11
0.0914419 29.9272 2.46643e-11
-1.19422e-11 2.46643e-11 26.7183

30.1763 0.136029 -2.38925e-11
0.136029 25.7055 6.17031e-12
-2.38925e-11 6.17031e-12 27.2347

50.13 0.305578 -1.65669e-11
0.305578 55.249 -4.43056e-11
-1.65669e-11 -4.43056e-11 51.5486

52.2022 -2.60702 -2.89128e-12
-2.60702 55.0426 1.05005e-11
-2.89128e-12 1.05005e-11 53.1714

47.9141 1.045 -2.93334e-11
1.045 43.5118 -1.65635e-11
-2.93334e-11 -1.65635e-11 45.781

49.8939 0.174261 1.75799e-11
0.174261 40.4141 -4.23839e-12
1.75799e-11 -4.23839e-12 45.9229

32.1475 -2.45842 -2.61978e-11
-2.45842 36.4166 4.39349e-11
-2.61978e-11 4.39349e-11 33.6573

34.96 1.57332 -1.92635e-12
1.57332 38.2651 -2.23523e-11
-1.92635e-12 -2.23523e-11 35.2782

47.5303 0.206682 -2.32148e-11
0.206682 39.3208 6.93432e-12
-2.32148e-11 6.93432e-12 43.3938

38.2278 -2.50162 -1.5026e-11
-2.50162 43.7113 -2.46594e-11
-1.5026e-11 -2.46594e-11 41.5566

56.4749 1.45813 -4.62392e-11
1.45813 51.1433 -2.54159e-11
-4.62392e-11 -2.54159e-11 53.9639

54.3216 -2.02324 4.16079e-11
-2.02324 51.0104 7.74269e-11
4.16079e-11 7.74269e-11 51.6377

44.74 2.38123 1.251e-12
2.38123 44.5625 -2.70006e-12
1.251e-12 -2.70006e-12 45.1792

42.8652 -4.18062 4.81689e-12
-4.18062 47.6287 1.32915e-11
4.81689e-12 1.32915e-11 44.779

47.0413 1.07909 -1.55051e-11
1.07909 40.3892 -5.39369e-11
-1.55051e-11 -5.39369e-11 44.3661

33.6503 2.18509 -9.62859e-13
2.18509 32.9345 1.1176e-11
-9.62859e-13 1.1176e-11 32.2525

42.715 -4.50949 -1.11716e-11
-4.50949 47.1873 -2.2539e-11
-1.11716e-11 -2.2539e-11 44.4853

21.6865 3.99874 -7.76562e-11
3.99874 21.7559 2.31243e-11
-7.76562e-11 2.31243e-11 21.9373

39.081 -1.64883 -1.8301e-11
-1.64883 44.3808 -1.40619e-11
-1.8301e-11 -1.40619e-11 40.9581

35.9918 -0.974618 -2.12256e-12
-0.974618 43.4377 1.46406e-11
-2.12256e-12 1.46406e-11 39.5541

49.5067 -0.437077 -1.09731e-11
-0.437077 57.3208 9.94009e-11
-1.09731e-11 9.94009e-11 51.9711

53.3709 -2.04964 1.34784e-11
-2.04964 55.0627 -1.27135e-11
1.34784e-11 -1.27135e-11 54.2202

51.1938 1.14285 4.73922e-11
1.14285 39.7598 -4.24509e-12
4.73922e-11 -4.24509e-12 48.5135

50.3111 -1.68709 5.7786e-12
-1.68709 40.611 9.2449e-12
5.7786e-12 9.2449e-12 47.7322

46.1012 3.44833 8.57081e-12
3.44833 46.2587 -1.88782e-11
8.57081e-12 -1.88782e-11 47.2531

46.8803 -2.20859 4.48364e-11
-2.20859 47.7979 -4.10318e-11
4.48364e-11 -4.10318e-11 47.8335

50.0014 2.6522 2.96897e-11
2.6522 51.1602 1.84942e-11
2.96897e-11 1.84942e-11 50.8097

50.3195 -1.84499 -2.85344e-11
-1.84499 53.1296 -1.8298e-11
-2.85344e-11 -1.8298e-11 51.1854

62.1529 2.52175 1.02876e-10
2.52175 55.1469 1.05149e-10
1.02876e-10 1.05149e-10 57.4808

60.138 -3.52764 4.54622e-11
-3.52764 58.2196 1.11651e-11
4.54622e-11 1.11651e-11 55.1377

56.2455 2.60537 -8.66677e-12
2.60537 53.3403 1.19416e-11
-8.66677e-12 1.19416e-11 54.9131

44.1208 -4.91971 -8.28386e-12
-4.91971 46.308 -3.0436e-11
-8.28386e-12 -3.0436e-11 47.2673

44.8034 2.72224 -9.05683e-12
2.72224 40.3223 -3.73732e-11
-9.05683e-12 -3.73732e-11 42.4204

42.6322 -3.08085 -1.94565e-11
-3.08085 46.5762 -2.92816e-11
-1.94565e-11 -2.92816e-11 43.5694

38.4016 -1.86131 4.43174e-12
-1.86131 44.7035 1.92636e-11
4.43174e-12 1.92636e-11 41.8941

34.9925 -2.73563 -3.23624e-11
-2.73563 34.3717 2.3894e-11
-3.23624e-11 2.3894e-11 32.6664

42.3959 -3.61314 -1.07858e-11
-3.61314 38.6123 3.42899e-11
-1.07858e-11 3.42899e-11 40.6535

38.3246 1.24379 7.85072e-12
1.24379 44.6792 -1.84951e-11
7.85072e-12 -1.84951e-11 41.6943

43.6818 3.61905 6.16988e-12
3.61905 41.9948 1.54134e-11
6.16988e-12 1.54134e-11 42.3094

42.6101 5.37116 1.33866e-11
5.37116 46.606 -1.15572e-11
1.33866e-11 -1.15572e-11 47.1856

45.4116 -4.3633 2.28738e-11
-4.3633 50.1786 1.79149e-11
2.28738e-11 1.79149e-11 48.232

40 -4.11583 -3.8919e-11
-4.11583 39.2336 2.70269e-12
-3.8919e-11 2.70269e-12 39.7856

49.2235 -0.293158 -3.50615e-11
-0.293158 45.1591 2.69695e-11
-3.50615e-11 2.69695e-11 46.7492

56.3914 -1.35783 8.72533e-11
-1.35783 58.7283 -5.6153e-11
8.72533e-11 -5.6153e-11 56.4486

62.7928 -1.58252 -2.44632e-11
-1.58252 62.0226 2.73515e-11
-2.44632e-11 2.73515e-11 56.4686

41.8061 -1.60174 -1.15562e-11
-1.60174 47.2449 -1.92625e-11
-1.15562e-11 -1.92625e-11 45.5095

43.8635 2.22234 -6.11718e-12
2.22234 41.7044 -4.23846e-12
-6.11718e-12 -4.23846e-12 43.7247

51.339 -0.164881 -4.52666e-12
-0.164881 47.6313 5.3932e-12
-4.52666e-12 5.3932e-12 49.5376

26.2003 -2.79956 1.17561e-11
-2.79956 28.1681 3.58406e-11
1.17561e-11 3.58406e-11 26.2295

27.8739 -2.51465 -1.83043e-11
-2.51465 26.1712 -4.23891e-12
-1.83043e-11 -4.23891e-12 26.2436

52.3293 -0.104798 1.65709e-11
-0.104798 44.1237 2.6386e-11
1.65709e-11 2.6386e-11 50.1404

51.3978 -0.520397 -2.11903e-11
-0.520397 44.0136 -1.34842e-11
-2.11903e-11 -1.34842e-11 48.8426

52.4935 0.561524 9.584e-12
0.561524 47.2853 2.11888e-11
9.584e-12 2.11888e-11 49.7605

45.0002 1.46286 -3.23862e-11
1.46286 47.1283 -3.04345e-11
-3.23862e-11 -3.04345e-11 45.1483

42.4079 1.89295 -1.63862e-12
1.89295 38.6224 -4.08422e-11
-1.63862e-12 -4.08422e-11 39.5558

51.9413 2.58887 2.96567e-11
2.58887 49.35 -5.74055e-11
2.96567e-11 -5.74055e-11 50.7128

47.8955 -3.38846 -1.59831e-11
-3.38846 45.4338 -4.43092e-11
-1.59831e-11 -4.43092e-11 47.0983

55.5558 -0.428981 9.15286e-12
-0.428981 53.3792 1.09859e-10
9.15286e-12 1.09859e-10 53.5814

56.1458 3.71481 1.02155e-11
3.71481 61.1691 2.94438e-11
1.02155e-11 2.94438e-11 55.3055

40.534 -2.89941 -1.56022e-11
-2.89941 45.7117 -2.88958e-11
-1.56022e-11 -2.88958e-11 44.7305

43.9732 1.90267 5.58464e-12
1.90267 40.1897 -2.2352e-11
5.58464e-12 -2.2352e-11 41.8547

52.7309 1.75712 2.60139e-11
1.75712 47.6179 2.21475e-11
2.60139e-11 2.21475e-11 50.8984

50.9483 -2.37037 2.81294e-11
-2.37037 47.0425 8.08683e-12
2.81294e-11 8.08683e-12 48.9987

45.8714 -4.04163 -1.26174e-11
-4.04163 49.6512 2.90913e-11
-1.26174e-11 2.90913e-11 47.2885

44.8066 -5.17178 3.81422e-11
-5.17178 49.9811 -2.92847e-11
3.81422e-11 -2.92847e-11 47.2834

22.6251 4.7789 2.1186e-12
4.7789 23.1395 -2.31223e-11
2.1186e-12 -2.31223e-11 22.652

45.0165 3.65111 2.08031e-11
3.65111 49.5607 -8.08933e-12
2.08031e-11 -8.08933e-12 48.7006

47.0675 -3.22364 -1.15667e-12
-3.22364 51.9303 -4.81554e-12
-1.15667e-12 -4.81554e-12 49.4565

43.3608 -4.44825 -1.4737e-11
-4.44825 48.8199 4.39249e-11
-1.4737e-11 4.39249e-11 46.1182

41.3993 -3.0231 1.81063e-11
-3.0231 37.0693 -8.86021e-12
1.81063e-11 -8.86021e-12 38.5099

46.3304 -1.99633 1.81514e-11
-1.99633 47.0562 1.17502e-11
1.81514e-11 1.17502e-11 46.1973

46.2362 3.45168 -1.63745e-11
3.45168 46.6023 -1.34831e-11
-1.63745e-11 -1.34831e-11 47.6975

46.8989 -2.76538 2.57658e-11
-2.76538 49.7755 -2.17654e-11
2.57658e-11 -2.17654e-11 48.3807

48.0406 -0.276667 6.26129e-13
-0.276667 40.948 -4.08381e-11
6.26129e-13 -4.08381e-11 45.0379

54.1124 1.01466 1.7337e-11
1.01466 48.8592 1.00126e-11
1.7337e-11 1.00126e-11 52.4219

53.1258 -0.977112 -1.04055e-11
-0.977112 50.4382 -4.73848e-11
-1.04055e-11 -4.73848e-11 51.1073

55.4009 -1.42683 -3.71746e-11
-1.42683 59.9241 3.27504e-11
-3.71746e-11 3.27504e-11 56.3426

54.2692 1.08939 1.13825e-10
1.08939 61.7571 -7.16619e-11
1.13825e-10 -7.16619e-11 54.5161

23.0408 0.366868 -1.02124e-11
0.366868 19.2787 3.41062e-11
-1.02124e-11 3.41062e-11 22.9483

19.2314 0.330926 2.60407e-12
0.330926 22.5644 2.46662e-11
2.60407e-12 2.46662e-11 22.5793

51.5595 3.29155 -2.48414e-11
3.29155 50.6951 5.41303e-11
-2.48414e-11 5.41303e-11 51.2211

45.093 -3.28852 2.09939e-11
-3.28852 45.1785 2.88937e-11
2.09939e-11 2.88937e-11 46.2859

41.5039 -3.14975 -1.29065e-11
-3.14975 45.175 -1.46408e-11
-1.29065e-11 -1.46408e-11 45.5373

21.5293 1.17199 1.8305e-11
1.17199 21.5815 1.04068e-11
1.8305e-11 1.04068e-11 22.7162

21.6603 1.27759 -2.89127e-11
1.27759 21.7092 -6.85979e-11
-2.89127e-11 -6.85979e-11 22.9056

63.1774 0.554886 1.61693e-11
0.554886 64.3973 -1.75276e-10
1.61693e-11 -1.75276e-10 57.2574

62.7183 0.892417 6.43743e-11
0.892417 60.4087 2.83123e-10
6.43743e-11 2.83123e-10 58.6374

43.9814 -2.95686 2.70165e-11
-2.95686 45.76 -1.59924e-11
2.70165e-11 -1.59924e-11 45.0906

40.6897 -3.66547 2.85111e-11
-3.66547 41.4363 1.11705e-11
2.85111e-11 1.11705e-11 40.9941

50.8165 3.44303 -6.47235e-11
3.44303 48.0146 4.62412e-12
-6.47235e-11 4.62412e-12 49.6227

45.1688 -4.14663 5.45165e-11
-4.14663 44.2476 -4.66217e-11
5.45165e-11 -4.66217e-11 45.6445

41.2817 -3.89017 1.98433e-11
-3.89017 42.6087 -1.65712e-11
1.98433e-11 -1.65712e-11 42.7499

44.9699 2.82298 2.56226e-11
2.82298 44.2685 -4.04521e-12
2.56226e-11 -4.04521e-12 43.8249

27.5801 -1.27325 4.18149e-11
-1.27325 32.1548 -7.76046e-13
4.18149e-11 -7.76046e-13 28.9203

29.8109 0.756554 -1.50248e-11
0.756554 33.0937 1.92764e-12
-1.50248e-11 1.92764e-12 29.9852

32.0523 -1.17726 2.67859e-11
-1.17726 28.655 1.92639e-11
2.67859e-11 1.92639e-11 29.2705

46.8895 3.75047 1.57956e-11
3.75047 46.2299 -2.44646e-11
1.57956e-11 -2.44646e-11 46.3457

26.3999 -0.914591 -6.93697e-12
-0.914591 30.4849 -1.3487e-11
-6.93697e-12 -1.3487e-11 27.3939

29.6889 -0.626318 -4.4894e-11
-0.626318 25.5434 3.83478e-11
-4.4894e-11 3.83478e-11 26.685

54.4025 2.75134 2.69723e-11
2.75134 51.2726 4.73807e-11
2.69723e-11 4.73807e-11 52.9677

47.9637 -4.00203 -2.73613e-11
-4.00203 46.3514 5.66328e-11
-2.73613e-11 5.66328e-11 47.986

53.7798 3.37852 5.14268e-11
3.37852 50.5957 -4.54599e-11
5.14268e-11 -4.54599e-11 52.5068

48.311 -3.91524 1.36764e-11
-3.91524 47.8005 -3.08838e-12
1.36764e-11 -3.08838e-12 48.5178

21.2488 1.43892 -3.06376e-11
1.43892 21.4048 3.33364e-11
-3.06376e-11 3.33364e-11 22.4134

21.1306 1.4066 6.14695e-11
1.4066 21.2038 -1.59956e-11
6.14695e-11 -1.59956e-11 22.1952

48.5155 3.00954 -2.4272e-11
3.00954 47.3453 6.93186e-12
-2.4272e-11 6.93186e-12 47.7097

44.2016 -3.71604 -1.15818e-12
-3.71604 43.2786 2.23498e-11
-1.15818e-12 2.23498e-11 44.2059

53.8768 -2.36319 -4.58425e-11
-2.36319 55.5817 4.0261e-11
-4.58425e-11 4.0261e-11 54.3895

52.0895 -0.810608 8.72548e-11
-0.810608 55.9657 -3.85286e-11
8.72548e-11 -3.85286e-11 52.4249

55.5606 3.42967 -2.71615e-11
3.42967 53.484 -1.6951e-11
-2.71615e-11 -1.6951e-11 54.6789

46.307 -3.06264 -5.75799e-13
-3.06264 49.4101 1.07857e-11
-5.75799e-13 1.07857e-11 48.7605

55.4241 1.80388 -4.62715e-12
1.80388 47.6204 2.50914e-12
-4.62715e-12 2.50914e-12 52.4979

53.2614 -2.78906 -2.70321e-12
-2.78906 47.6949 -6.78048e-11
-2.70321e-12 -6.78048e-11 50.4817

43.4097 3.1463 5.4919e-12
3.1463 45.7276 -1.04039e-11
5.4919e-12 -1.04039e-11 46.0219

45.1832 -3.65625 9.53759e-12
-3.65625 49.1219 -3.19805e-11
9.53759e-12 -3.19805e-11 46.9799

53.3122 -2.54273 -3.45743e-11
-2.54273 53.9634 -2.02233e-11
-3.45743e-11 -2.02233e-11 52.6068

53.0892 -2.27082 5.00707e-12
-2.27082 58.4925 -7.60821e-12
5.00707e-12 -7.60821e-12 54.7373

58.5719 2.55063 3.89091e-11
2.55063 50.9649 3.07643e-12
3.89091e-11 3.07643e-12 54.7096

61.739 0.832234 7.85905e-11
0.832234 53.9376 -1.09909e-11
7.85905e-11 -1.09909e-11 56.6756

57.086 -2.75755 -4.19932e-11
-2.75755 53.1386 -2.69626e-11
-4.19932e-11 -2.69626e-11 53.1218

61.0368 -0.588935 -1.23231e-11
-0.588935 56.6674 3.89062e-11
-1.23231e-11 3.89062e-11 55.0237

51.4223 -0.634694 -2.38839e-11
-0.634694 59.174 5.47081e-11
-2.38839e-11 5.47081e-11 53.1081

54.3449 4.68348 4.83737e-11
4.68348 54.2457 3.27452e-11
4.83737e-11 3.27452e-11 52.9609

63.8038 2.79856 8.03317e-12
2.79856 56.5638 -2.13802e-10
8.03317e-12 -2.13802e-10 58.8682

65.5128 2.31704 -2.97413e-10
2.31704 56.9963 1.0578e-10
-2.97413e-10 1.0578e-10 59.2496

66.764 0.644892 -2.43626e-09
0.644892 64.9805 -1.08602e-09
-2.43626e-09 -1.08602e-09 58.1167

56.5301 -3.25484 -2.19941e-10
-3.25484 59.3185 4.41138e-10
-2.19941e-10 4.41138e-10 54.4246

62.6946 2.1228 3.85234e-11
2.1228 55.1984 1.80999e-11
3.85234e-11 1.80999e-11 57.9445

58.3836 1.70348 -4.96945e-11
1.70348 55.0638 1.57991e-11
-4.96945e-11 1.57991e-11 56.2548

62.6313 2.73865 6.91206e-12
2.73865 56.4107 -9.26418e-11
6.91206e-12 -9.26418e-11 58.2825

57.2697 -3.13271 -2.46557e-11
-3.13271 54.3364 1.16143e-12
-2.46557e-11 1.16143e-12 53.3638

59.8133 -1.57055 4.19998e-11
-1.57055 62.0016 5.62373e-11
4.19998e-11 5.62373e-11 55.9364

52.9956 -1.4021 2.92828e-11
-1.4021 51.817 3.85318e-12
2.92828e-11 3.85318e-12 51.3802

57.9731 2.76583 -3.39068e-11
2.76583 52.8176 -1.05911e-11
-3.39068e-11 -1.05911e-11 55.3357

59.9368 1.62252 6.54713e-12
1.62252 54.118 1.17479e-11
6.54713e-12 1.17479e-11 56.3358

53.5638 -3.63336 -7.69792e-13
-3.63336 52.0919 -4.54576e-11
-7.69792e-13 -4.54576e-11 51.7675

57.8916 -1.76276 4.7768e-11
-1.76276 54.3813 -8.16746e-11
4.7768e-11 -8.16746e-11 53.6077

TENSORS Lagrange_strain float
0.000219661 3.84778e-05 -1.18652e-07
3.84778e-05 0.000272453 1.75539e-07
-1.18652e-07 1.75539e-07 0.000220892

0.000261901 2.57154e-05 -2.75078e-08
2.57154e-05 0.000305348 7.00968e-08
-2.75078e-08 7.00968e-08 0.000271783

0.000260209 2.05423e-05 -1.60636e-07
2.05423e-05 0.000301871 -1.2314e-09
-1.60636e-07 -1.2314e-09 0.000270667

0.000294934 1.13543e-05 -7.41527e-08
1.13543e-05 0.000202257 -1.29971e-07
-7.41527e-08 -1.29971e-07 0.000239441

0.000284926 4.455e-06 -2.71114e-08
4.455e-06 0.000197694 -1.04079e-07
-2.71114e-08 -1.04079e-07 0.000218672

0.000262136 2.43135e-05 -2.17097e-08
2.43135e-05 0.000306098 2.65267e-09
-2.17097e-08 2.65267e-09 0.000289548

0.000259863 2.24379e-05 -1.51289e-07
2.24379e-05 0.000304568 -1.09993e-07
-1.51289e-07 -1.09993e-07 0.000288505

0.000287664 -5.61757e-06 -4.0908e-08
-5.61757e-06 0.000201297 -5.11449e-09
-4.0908e-08 -5.11449e-09 0.000220561

0.000329892 9.9389e-07 9.99681e-08
9.9389e-07 0.000218427 3.71873e-09
9.99681e-08 3.71873e-09 0.000275477

0.000173969 3.74297e-05 3.77981e-08
3.74297e-05 0.000231526 -1.31952e-07
3.77981e-08 -1.31952e-07 0.000160174

0.000171032 -3.9967e-05 -1.008e-07
-3.9967e-05 0.000227614 1.46561e-07
-1.008e-07 1.46561e-07 0.000153769

0.000226913 3.85983e-05 -1.61583e-07
3.85983e-05 0.000185881 -8.89708e-08
-1.61583e-07 -8.89708e-08 0.000161271

0.000284398 -3.15862e-05 1.17504e-07
-3.15862e-05 0.000311802 -5.05681e-08
1.17504e-07 -5.05681e-08 0.000293695

0.000285671 -3.57637e-05 1.49324e-08
-3.57637e-05 0.000316858 -4.91354e-08
1.49324e-08 -4.91354e-08 0.000295319

0.000219636 3.64936e-05 -1.20147e-07
3.64936e-05 0.000281821 -6.24783e-08
-1.20147e-07 -6.24783e-08 0.000241634

0.000237461 4.34937e-05 -3.92526e-08
4.34937e-05 0.000298817 -8.55024e-08
-3.92526e-08 -8.55024e-08 0.000268452

0.000258916 -1.67122e-05 -9.7194e-08
-1.67122e-05 0.000303135 7.99516e-08
-9.7194e-08 7.99516e-08 0.000287559

0.000260206 -1.78527e-05 1.10543e-07
-1.78527e-05 0.000304477 -1.07567e-07
1.10543e-07 -1.07567e-07 0.000288445

0.000300612 1.66304e-05 1.28226e-07
1.66304e-05 0.000245903 5.87905e-08
1.28226e-07 5.87905e-08 0.000262619

0.000188606 1.44689e-05 -1.25717e-08
1.44689e-05 0.00026551 -3.4175e-08
-1.25717e-08 -3.4175e-08 0.000181262

0.000187894 -1.37959e-05 -1.49061e-07
-1.37959e-05 0.000265953 5.3911e-08
-1.49061e-07 5.3911e-08 0.000179615

0.000260075 1.17741e-05 -7.31814e-08
1.17741e-05 0.000206692 -1.46027e-07
-7.31814e-08 -1.46027e-07 0.000183552

0.000220317 4.2932e-05 1.83754e-07
4.2932e-05 0.000261805 -1.58704e-07
1.83754e-07 -1.58704e-07 0.000219028

0.000262261 -2.19503e-05 1.45058e-07
-2.19503e-05 0.000191844 7.66707e-08
1.45058e-07 7.66707e-08 0.000201832

0.00024793 3.93391e-05 -1.55432e-07
3.93391e-05 0.000261354 -1.76439e-07
-1.55432e-07 -1.76439e-07 0.00023813

0.000225087 4.29075e-05 1.25077e-08
4.29075e-05 0.000278893 -4.97627e-08
1.25077e-08 -4.97627e-08 0.000225639

0.000300367 -9.31911e-06 -1.53477e-07
-9.31911e-06 0.000202228 3.97981e-08
-1.53477e-07 3.97981e-08 0.00024273

0.000169231 3.33087e-05 8.98989e-09
3.33087e-05 0.000232521 -1.85321e-07
8.98989e-09 -1.85321e-07 0.000126596

0.000319452 4.16717e-06 1.37068e-07
4.16717e-06 0.000212428 -1.43267e-07
1.37068e-07 -1.43267e-07 0.000268712

0.00022258 3.33026e-05 2.09727e-07
3.33026e-05 0.00018129 1.20181e-07
2.09727e-07 1.20181e-07 0.000127038

0.000296063 5.13336e-06 -1.43815e-07
5.13336e-06 0.000315882 5.01155e-08
-1.43815e-07 5.01155e-08 0.000295964

0.000296144 1.90584e-06 9.2494e-09
1.90584e-06 0.000315048 -1.72396e-07
9.2494e-09 -1.72396e-07 0.000295888

0.000346259 1.91846e-05 -9.61362e-08
1.91846e-05 0.000311337 -3.71533e-08
-9.61362e-08 -3.71533e-08 0.000313387

0.000347117 -1.80727e-05 1.52823e-07
-1.80727e-05 0.000312099 -8.20893e-08
1.52823e-07 -8.20893e-08 0.000313114

0.000258257 -1.399e-05 1.05009e-07
-1.399e-05 0.000184588 9.76971e-08
1.05009e-07 9.76971e-08 0.000171695

0.000243199 4.23215e-05 -2.30751e-08
4.23215e-05 0.000275032 -1.98553e-08
-2.30751e-08 -1.98553e-08 0.000253932

0.000307351 7.97237e-06 8.67332e-08
7.97237e-06 0.000289292 -6.84514e-08
8.67332e-08 -6.84514e-08 0.000293797

0.000308134 -7.09763e-06 -4.64053e-08
-7.09763e-06 0.000291128 4.39619e-08
-4.64053e-08 4.39619e-08 0.000295553

0.000335014 1.61249e-07 -1.35679e-07
1.61249e-07 0.000212751 -1.31224e-07
-1.35679e-07 -1.31224e-07 0.000276627

0.000220673 4.64098e-05 -4.48846e-08
4.64098e-05 0.000277398 2.67408e-08
-4.48846e-08 2.67408e-08 0.000223856

0.00025968 -2.84419e-05 1.15077e-07
-2.84419e-05 0.000219601 -1.22675e-07
1.15077e-07 -1.22675e-07 0.00020905

0.00033037 -2.72195e-06 9.30894e-08
-2.72195e-06 0.000205084 1.21797e-07
9.30894e-08 1.21797e-07 0.000270219

0.000217983 -4.30147e-05 1.6706e-07
-4.30147e-05 0.000261672 1.21813e-07
1.6706e-07 1.21813e-07 0.000216778

0.000219586 -3.68283e-05 -9.59508e-08
-3.68283e-05 0.000273109 -1.60598e-07
-9.59508e-08 -1.60598e-07 0.000220579

0.000244157 4.89511e-05 5.12314e-08
4.89511e-05 0.000306106 -2.53929e-08
5.12314e-08 -2.53929e-08 0.000271911

0.00023408 -4.59866e-05 1.30774e-07
-4.59866e-05 0.000216765 -1.21319e-07
1.30774e-07 -1.21319e-07 0.000192336

6.15277e-05 9.37952e-05 6.25409e-08
9.37952e-05 0.000126063 6.25409e-08
6.25409e-08 6.25409e-08 3.08246e-05

0.00011789 9.26905e-05 -5.74501e-08
9.26905e-05 6.74915e-05 -5.74501e-08
-5.74501e-08 -5.74501e-08 2.98915e-05

0.000252844 -4.36841e-05 3.32413e-08
-4.36841e-05 0.000307165 -8.24673e-08
3.32413e-08 -8.24673e-08 0.000285863

0.000111144 3.93574e-05 -5.16438e-08
3.93574e-05 0.000190281 4.06458e-08
-5.16438e-08 4.06458e-08 6.36527e-05

0.00017774 3.52983e-05 -6.40063e-08
3.52983e-05 0.000120146 5.64359e-08
-6.40063e-08 5.64359e-08 6.49714e-05

0.000302005 -3.09656e-05 -3.29625e-09
-3.09656e-05 0.000328644 1.21575e-07
-3.29625e-09 1.21575e-07 0.000312337

0.000302005 3.08581e-05 4.31045e-08
3.08581e-05 0.000328024 -9.06181e-08
4.31045e-08 -9.06181e-08 0.000312381

0.000322402 9.68006e-07 6.21019e-08
9.68006e-07 0.000254514 8.32766e-08
6.21019e-08 8.32766e-08 0.000281934

0.000303338 -2.67664e-05 -1.8061e-08
-2.67664e-05 0.000321705 1.76674e-08
-1.8061e-08 1.76674e-08 0.000314575

0.000303282 2.68505e-05 2.52688e-08
2.68505e-05 0.000321189 3.49018e-08
2.52688e-08 3.49018e-08 0.000314623

0.000225017 4.29191e-05 1.6695e-08
4.29191e-05 0.000290175 2.73182e-09
1.6695e-08 2.73182e-09 0.000245829

0.000345754 1.7509e-05 -7.12758e-08
1.7509e-05 0.000291717 6.23373e-09
-7.12758e-08 6.23373e-09 0.000308959

0.00034604 -1.73667e-05 3.03871e-08
-1.73667e-05 0.000291399 6.92508e-08
3.03871e-08 6.92508e-08 0.000308824

0.000284769 -3.54251e-05 6.66126e-08
-3.54251e-05 0.000302962 -3.48626e-08
6.66126e-08 -3.48626e-08 0.00029254

0.000284382 3.53175e-05 -1.18942e-07
3.53175e-05 0.000303056 -5.5508e-09
-1.18942e-07 -5.5508e-09 0.000292715

0.000220308 -3.82261e-05 -1.29742e-07
-3.82261e-05 0.00017012 -1.39242e-08
-1.29742e-07 -1.39242e-08 0.000149103

0.000297621 1.72065e-05 -2.46936e-08
1.72065e-05 0.000342139 7.77111e-08
-2.46936e-08 7.77111e-08 0.000309404

0.000295886 1.34816e-05 7.44649e-08
1.34816e-05 0.000341084 8.12783e-08
7.44649e-08 8.12783e-08 0.000308225

0.00022104 -4.74607e-05 1.22825e-08
-4.74607e-05 0.000278813 -1.29368e-07
1.22825e-08 -1.29368e-07 0.000224944

0.000156461 -3.13577e-05 7.6389e-08
-3.13577e-05 0.000232201 -1.02505e-07
7.6389e-08 -1.02505e-07 0.000117308

0.000224366 -3.10926e-05 7.65621e-08
-3.10926e-05 0.000158887 -1.50595e-07
7.65621e-08 -1.50595e-07 0.000115571

0.000236309 3.75016e-05 9.33259e-08
3.75016e-05 0.000301593 -1.64454e-08
9.33259e-08 -1.64454e-08 0.000264328

0.000233748 3.48368e-05 -4.20564e-08
3.48368e-05 0.000294968 -8.61582e-08
-4.20564e-08 -8.61582e-08 0.000262339

0.000363947 -5.24053e-05 2.31157e-07
-5.24053e-05 0.000326942 5.31022e-07
2.31157e-07 5.31022e-07 0.000338052

0.000361322 5.21047e-05 7.41299e-07
5.21047e-05 0.000328112 5.99392e-07
7.41299e-07 5.99392e-07 0.000338117

0.000246298 5.30797e-05 5.82554e-08
5.30797e-05 0.000304024 9.5017e-08
5.82554e-08 9.5017e-08 0.000277077

0.00029353 2.59697e-05 -7.0608e-08
2.59697e-05 0.000272424 -5.7908e-08
-7.0608e-08 -5.7908e-08 0.000280362

0.000293772 -2.65515e-05 -3.44429e-08
-2.65515e-05 0.000271534 6.70278e-08
-3.44429e-08 6.70278e-08 0.000279556

0.000246435 5.06726e-05 2.87422e-08
5.06726e-05 0.000293297 1.65841e-08
2.87422e-08 1.65841e-08 0.000273958

0.000256582 -4.63393e-05 -6.38698e-08
-4.63393e-05 0.000313035 -7.99032e-08
-6.38698e-08 -7.99032e-08 0.000287961

0.000254684 -4.74966e-07 1.13719e-07
-4.74966e-07 0.000168895 3.7317e-08
1.13719e-07 3.7317e-08 0.000168769

0.000267829 2.06803e-05 -8.52648e-08
2.06803e-05 0.000190469 -8.90957e-08
-8.52648e-08 -8.90957e-08 0.000197016

0.000309093 8.25441e-06 4.75553e-08
8.25441e-06 0.000252938 1.04323e-07
4.75553e-08 1.04323e-07 0.000288204

0.000328007 -1.30266e-05 -3.34366e-07
-1.30266e-05 0.000321908 -3.25452e-07
-3.34366e-07 -3.25452e-07 0.00031582

0.000328036 1.12737e-05 2.84939e-08
1.12737e-05 0.0003226 -9.49735e-08
2.84939e-08 -9.49735e-08 0.000316021

0.000211782 3.83734e-05 -1.16093e-07
3.83734e-05 0.000231214 -1.21297e-07
-1.16093e-07 -1.21297e-07 0.000173599

0.00025276 -3.35709e-05 -8.98673e-08
-3.35709e-05 0.000236393 7.89728e-08
-8.98673e-08 7.89728e-08 0.000232812

0.00030018 1.99572e-05 1.25307e-07
1.99572e-05 0.000257429 1.08356e-07
1.25307e-07 1.08356e-07 0.000263294

0.000307698 1.09377e-05 2.12229e-07
1.09377e-05 0.000338493 1.35343e-07
2.12229e-07 1.35343e-07 0.00031345

0.000307495 9.57767e-06 -1.22572e-08
9.57767e-06 0.000338498 6.01834e-08
-1.22572e-08 6.01834e-08 0.000312948

0.000310229 -6.19916e-06 -4.57076e-08
-6.19916e-06 0.000257054 4.70899e-08
-4.57076e-08 4.70899e-08 0.00029075

0.000259324 -1.32394e-05 -9.9581e-08
-1.32394e-05 0.000302692 3.91118e-08
-9.9581e-08 3.91118e-08 0.000270112

0.000260219 -1.77534e-05 1.16007e-07
-1.77534e-05 0.000304945 -3.5768e-08
1.16007e-07 -3.5768e-08 0.000271001

0.000326551 -1.24521e-05 -5.84527e-08
-1.24521e-05 0.000268149 -6.09949e-08
-5.84527e-08 -6.09949e-08 0.000298431

0.000326971 1.25549e-05 -1.04169e-07
1.25549e-05 0.000268084 -2.90444e-08
-1.04169e-07 -2.90444e-08 0.000299243

0.000227176 -3.80861e-05 1.46838e-08
-3.80861e-05 0.000225889 -2.23664e-08
1.46838e-08 -2.23664e-08 0.000175405

0.000292386 2.40275e-06 -1.33323e-07
2.40275e-06 0.000233713 -7.22314e-08
-1.33323e-07 -7.22314e-08 0.00023816

0.000321769 -1.85267e-05 -1.32559e-07
-1.85267e-05 0.000288407 1.70506e-07
-1.32559e-07 1.70506e-07 0.000309327

0.000321771 1.84756e-05 1.0909e-07
1.84756e-05 0.000288812 1.6363e-07
1.0909e-07 1.6363e-07 0.000309644

0.00029968 -2.08433e-05 9.42744e-08
-2.08433e-05 0.000258334 -3.7705e-08
9.42744e-08 -3.7705e-08 0.000262636

0.00022561 -4.32008e-05 9.31583e-08
-4.32008e-05 0.000282206 -2.52309e-08
9.31583e-08 -2.52309e-08 0.000227191

0.00032576 -1.39333e-05 -3.4025e-08
-1.39333e-05 0.000274368 6.70857e-08
-3.4025e-08 6.70857e-08 0.000296094

0.000326169 1.38818e-05 -9.87437e-08
1.38818e-05 0.000274233 -5.55324e-08
-9.87437e-08 -5.55324e-08 0.000296995

0.000295636 -9.23559e-06 -1.43059e-07
-9.23559e-06 0.000224629 1.69424e-08
-1.43059e-07 1.69424e-08 0.000250552

0.000254092 6.04937e-05 5.41705e-08
6.04937e-05 0.000309787 3.56564e-08
5.41705e-08 3.56564e-08 0.000280493

0.000248945 3.34277e-05 8.42425e-08
3.34277e-05 0.000233944 2.12586e-07
8.42425e-08 2.12586e-07 0.000209638

0.000245455 5.12433e-05 5.06412e-08
5.12433e-05 0.000307138 8.71291e-08
5.06412e-08 8.71291e-08 0.000278791

0.000250664 5.72055e-05 6.77166e-08
5.72055e-05 0.000314108 5.66668e-09
6.77166e-08 5.66668e-09 0.000280985

0.000270505 2.47479e-05 -3.00939e-08
2.47479e-05 0.000216211 -1.26759e-07
-3.00939e-08 -1.26759e-07 0.000215101

0.000277101 -2.03747e-05 -3.35217e-10
-2.03747e-05 0.000247027 -2.92738e-08
-3.35217e-10 -2.92738e-08 0.000265139

0.000291216 1.10832e-05 3.90225e-08
1.10832e-05 0.000225534 1.61583e-07
3.90225e-08 1.61583e-07 0.00024549

0.000220332 4.23461e-05 1.99648e-07
4.23461e-05 0.000231298 1.68739e-07
1.99648e-07 1.68739e-07 0.000199616

0.000248836 3.42685e-05 -1.69596e-07
3.42685e-05 0.000235337 1.25816e-08
-1.69596e-07 1.25816e-08 0.000231068

0.000228392 2.86899e-06 -5.5042e-08
2.86899e-06 0.000292107 5.31195e-08
-5.5042e-08 5.31195e-08 0.000260607

0.000228966 4.6059e-06 -9.36705e-08
4.6059e-06 0.000292343 3.60405e-08
-9.36705e-08 3.60405e-08 0.000260753

0.000227607 -4.30908e-05 1.5645e-08
-4.30908e-05 0.00019335 -4.75103e-08
1.5645e-08 -4.75103e-08 0.000164702

0.000246596 -5.10374e-05 5.63464e-08
-5.10374e-05 0.000294375 3.23252e-08
5.63464e-08 3.23252e-08 0.0002744

0.000222552 -5.04685e-05 -2.76927e-08
-5.04685e-05 0.00025691 1.21918e-07
-2.76927e-08 1.21918e-07 0.000205002

0.000222237 5.16348e-05 -5.99198e-08
5.16348e-05 0.000255872 -9.8559e-08
-5.99198e-08 -9.8559e-08 0.000204518

0.00028419 -1.87614e-05 -1.15421e-07
-1.87614e-05 0.000237921 7.75745e-08
-1.15421e-07 7.75745e-08 0.000247846

0.00033478 -2.78192e-06 2.66729e-08
-2.78192e-06 0.000221126 7.57742e-08
2.66729e-08 7.57742e-08 0.000287833

0.000334148 3.12995e-06 4.73097e-08
3.12995e-06 0.000221444 9.56401e-08
4.73097e-08 9.56401e-08 0.000286783

0.000199084 2.73804e-05 1.15411e-07
2.73804e-05 0.000266736 2.75061e-07
1.15411e-07 2.75061e-07 0.00020761

0.000248271 -4.15243e-05 -7.38201e-08
-4.15243e-05 0.000260718 1.54342e-07
-7.38201e-08 1.54342e-07 0.000237211

0.000160187 -1.0111e-06 -1.2762e-07
-1.0111e-06 0.000258459 -7.14884e-08
-1.2762e-07 -7.14884e-08 0.000169954

0.00015939 2.10955e-06 3.97325e-09
2.10955e-06 0.000259113 9.41676e-09
3.97325e-09 9.41676e-09 0.000168781

0.000255677 -2.4656e-07 3.21375e-08
-2.4656e-07 0.000173942 1.25506e-07
3.21375e-08 1.25506e-07 0.000171744

0.000226431 4.04418e-05 -1.43328e-07
4.04418e-05 0.000227319 2.42786e-08
-1.43328e-07 2.42786e-08 0.000174705

0.000238638 -4.73306e-05 -2.26998e-08
-4.73306e-05 0.00023313 1.29069e-08
-2.26998e-08 1.29069e-08 0.000206455

0.00030863 -2.30348e-05 -3.80664e-07
-2.30348e-05 0.000359068 1.77011e-07
-3.80664e-07 1.77011e-07 0.000317709

0.000309062 -2.21751e-05 -3.60223e-07
-2.21751e-05 0.000359356 3.16876e-07
-3.60223e-07 3.16876e-07 0.000318006

0.000273535 -2.42745e-05 -1.20465e-08
-2.42745e-05 0.000216776 4.23396e-08
-1.20465e-08 4.23396e-08 0.000217781

0.000240132 5.62635e-05 3.76032e-08
5.62635e-05 0.000301892 1.98321e-08
3.76032e-08 1.98321e-08 0.000260413

0.000322575 -1.49801e-06 7.05001e-08
-1.49801e-06 0.00025404 -1.57013e-07
7.05001e-08 -1.57013e-07 0.0002813

0.000198441 -2.6947e-05 -5.31259e-08
-2.6947e-05 0.00026915 -1.73051e-07
-5.31259e-08 -1.73051e-07 0.000208026

0.000256591 5.03622e-05 6.39339e-08
5.03622e-05 0.000315921 1.38695e-08
6.39339e-08 1.38695e-08 0.000289536

0.000250252 4.74749e-05 5.96558e-08
4.74749e-05 0.000309741 9.19829e-08
5.96558e-08 9.19829e-08 0.000286723

0.00025466 -6.04132e-05 3.2282e-08
-6.04132e-05 0.000310402 -1.00053e-07
3.2282e-08 -1.00053e-07 0.000280868

0.000252031 5.82226e-05 -1.16838e-08
5.82226e-05 0.000320038 -2.00796e-07
-1.16838e-08 -2.00796e-07 0.00028471

0.000234821 4.91897e-05 -6.18234e-08
4.91897e-05 0.000292032 -4.20976e-09
-6.18234e-08 -4.20976e-09 0.000256581

0.000346679 1.33374e-07 2.39021e-08
1.33374e-07 0.000280701 -5.39486e-08
2.39021e-08 -5.39486e-08 0.000319494

0.000239603 4.65842e-05 -4.53734e-08
4.65842e-05 0.00022932 9.5039e-08
-4.53734e-08 9.5039e-08 0.000204453

0.000245541 -5.14997e-05 6.84609e-08
-5.14997e-05 0.000306611 -3.96783e-09
6.84609e-08 -3.96783e-09 0.000278749

0.000238264 4.07756e-05 -6.32158e-08
4.07756e-05 0.000256755 -9.42329e-08
-6.32158e-08 -9.42329e-08 0.000215703

0.000203949 -3.50003e-05 -7.92142e-08
-3.50003e-05 0.000228124 1.47978e-07
-7.92142e-08 1.47978e-07 0.000165855

0.000242841 -4.29667e-05 6.6539e-08
-4.29667e-05 0.000276787 -5.27046e-08
6.6539e-08 -5.27046e-08 0.000254199

0.000195014 -2.44142e-05 -9.60383e-08
-2.44142e-05 0.000273819 -8.94766e-08
-9.60383e-08 -8.94766e-08 0.000188061

0.000193927 2.38378e-05 1.09666e-07
2.38378e-05 0.000272491 6.61892e-08
1.09666e-07 6.61892e-08 0.000187159

0.000262724 -1.68371e-05 8.50176e-08
-1.68371e-05 0.000212874 8.09753e-09
8.50176e-08 8.09753e-09 0.000188677

0.000238208 -4.17628e-05 -2.66512e-08
-4.17628e-05 0.000257166 1.23063e-07
-2.66512e-08 1.23063e-07 0.00021493

0.000228786 6.387e-06 -9.25489e-08
6.387e-06 0.000293213 1.35635e-08
-9.25489e-08 1.35635e-08 0.000235376

0.000228694 -1.78337e-07 -5.96048e-08
-1.78337e-07 0.000292691 1.4478e-07
-5.96048e-08 1.4478e-07 0.00023534

0.000194918 -4.81817e-05 4.56665e-08
-4.81817e-05 0.000225194 -4.10599e-09
4.56665e-08 -4.10599e-09 0.000161753

0.000192677 4.87138e-05 9.48298e-08
4.87138e-05 0.000227047 -8.83846e-08
9.48298e-08 -8.83846e-08 0.000163684

0.000344983 -4.43979e-06 2.79497e-08
-4.43979e-06 0.000270229 -4.72718e-08
2.79497e-08 -4.72718e-08 0.000314356

0.000345288 4.62565e-06 2.18145e-08
4.62565e-06 0.000270275 -5.0783e-08
2.18145e-08 -5.0783e-08 0.000314625

0.000246274 5.31396e-05 3.33023e-08
5.31396e-05 0.000303449 2.17138e-08
3.33023e-08 2.17138e-08 0.000265838

0.000249925 -4.8235e-05 9.33583e-08
-4.8235e-05 0.000310789 -1.03943e-07
9.33583e-08 -1.03943e-07 0.000285815

0.000255587 3.51009e-05 2.66909e-07
3.51009e-05 0.000273877 1.94206e-09
2.66909e-07 1.94206e-09 0.000265063

0.000223153 3.88671e-05 7.35134e-08
3.88671e-05 0.000172458 5.60623e-08
7.35134e-08 5.60623e-08 0.000138948

0.00020059 3.32961e-05 6.43868e-08
3.32961e-05 0.000278044 -4.73263e-08
6.43868e-08 -4.73263e-08 0.000211213

0.000306362 2.33274e-05 -3.54805e-09
2.33274e-05 0.000303638 -8.41515e-09
-3.54805e-09 -8.41515e-09 0.000305154

0.000306736 -2.33136e-05 1.78531e-08
-2.33136e-05 0.000303657 -3.63002e-08
1.78531e-08 -3.63002e-08 0.000305029

0.000292791 -3.15083e-05 -3.42459e-08
-3.15083e-05 0.000286321 6.92773e-08
-3.42459e-08 6.92773e-08 0.000279031

0.000292495 3.14523e-05 -7.86264e-08
3.14523e-05 0.000286343 3.62101e-08
-7.86264e-08 3.62101e-08 0.000279271

0.000114868 1.0362e-05 1.71527e-07
1.0362e-05 0.000239588 -4.64411e-08
1.71527e-07 -4.64411e-08 6.29403e-05

0.000226186 1.07328e-05 -2.30192e-08
1.07328e-05 0.000127036 -8.87218e-08
-2.30192e-08 -8.87218e-08 6.30303e-05

0.000199211 -3.15754e-05 -1.28408e-07
-3.15754e-05 0.000279428 6.35567e-09
-1.28408e-07 6.35567e-09 0.000212436

0.00033075 -2.50683e-05 4.01611e-09
-2.50683e-05 0.000337174 1.1589e-07
4.01611e-09 1.1589e-07 0.000331186

0.000330637 2.55544e-05 5.42822e-08
2.55544e-05 0.000337174 -1.57443e-07
5.42822e-08 -1.57443e-07 0.00033121

0.000267646 3.87154e-05 4.13481e-08
3.87154e-05 0.000269469 8.37322e-08
4.13481e-08 8.37322e-08 0.000249842

0.000237688 2.12644e-05 7.48409e-08
2.12644e-05 0.000154679 5.22772e-08
7.48409e-08 5.22772e-08 0.000138008

0.000292439 -4.03543e-06 -1.33503e-07
-4.03543e-06 0.000233958 -2.85209e-08
-1.33503e-07 -2.85209e-08 0.000238218

0.000233995 -2.76974e-05 -6.95787e-09
-2.76974e-05 0.000294558 8.56346e-08
-6.95787e-09 8.56346e-08 0.000262498

0.000237507 -3.03515e-05 7.16601e-08
-3.03515e-05 0.000298063 -5.73296e-08
7.16601e-08 -5.73296e-08 0.000264614

0.000219069 -4.59018e-05 1.88747e-07
-4.59018e-05 0.000235959 -5.60935e-08
1.88747e-07 -5.60935e-08 0.000195665

0.0002521 -5.84513e-05 -2.06815e-08
-5.84513e-05 0.00032094 5.54237e-08
-2.06815e-08 5.54237e-08 0.000285056

0.000267778 -3.9149e-05 7.09985e-08
-3.9149e-05 0.00027006 -8.77427e-09
7.09985e-08 -8.77427e-09 0.000249299

0.000240187 5.60395e-05 4.63918e-08
5.60395e-05 0.000304797 9.36333e-08
4.63918e-08 9.36333e-08 0.000277487

0.000284585 4.05427e-05 -4.38012e-09
4.05427e-05 0.000317086 1.83368e-08
-4.38012e-09 1.83368e-08 0.000296302

0.000283519 3.67005e-05 7.1056e-08
3.67005e-05 0.000311008 9.12381e-08
7.1056e-08 9.12381e-08 0.000294623

0.000246147 -5.31994e-05 -4.76202e-08
-5.31994e-05 0.000304842 -5.27086e-08
-4.76202e-08 -5.27086e-08 0.000266667

0.00024121 4.80503e-05 -2.349e-08
4.80503e-05 0.000292084 -1.69578e-08
-2.349e-08 -1.69578e-08 0.000260372

0.000250918 3.31541e-05 -2.07612e-08
3.31541e-05 0.000200497 -2.05456e-07
-2.07612e-08 -2.05456e-07 0.000194186

0.000249823 6.16015e-05 -1.24771e-07
6.16015e-05 0.000314913 -1.1813e-08
-1.24771e-07 -1.1813e-08 0.000282624

0.000219649 -3.76439e-05 -1.10682e-07
-3.76439e-05 0.000283755 4.26733e-08
-1.10682e-07 4.26733e-08 0.000242565

0.000206007 1.46728e-05 2.14001e-07
1.46728e-05 0.000283255 -3.62567e-09
2.14001e-07 -3.62567e-09 0.00022704

0.000263278 4.47421e-05 -2.31298e-08
4.47421e-05 0.000283102 2.81608e-08
-2.31298e-08 2.81608e-08 0.000265743

0.000211168 1.89207e-05 7.10092e-08
1.89207e-05 0.000285315 -6.34542e-08
7.10092e-08 -6.34542e-08 0.000229478

0.000256786 -5.24967e-05 3.38071e-08
-5.24967e-05 0.000317325 -1.14132e-07
3.38071e-08 -1.14132e-07 0.000288576

0.000154618 -4.49603e-05 9.20851e-08
-4.49603e-05 0.000159596 7.43056e-08
9.20851e-08 7.43056e-08 8.97523e-05

0.000156429 -4.54522e-05 -1.5074e-07
-4.54522e-05 0.000156716 -1.73004e-07
-1.5074e-07 -1.73004e-07 8.93522e-05

0.000263412 -4.4889e-05 -2.22986e-08
-4.4889e-05 0.000283068 7.10022e-08
-2.22986e-08 7.10022e-08 0.000265524

0.000299996 -1.70025e-05 8.99255e-08
-1.70025e-05 0.000245828 -1.5005e-07
8.99255e-08 -1.5005e-07 0.000262043

0.000361126 5.38956e-05 3.96902e-07
5.38956e-05 0.000337867 -2.29485e-07
3.96902e-07 -2.29485e-07 0.000338134

0.000362704 -5.31789e-05 3.69092e-07
-5.31789e-05 0.000337867 1.99046e-07
3.69092e-07 1.99046e-07 0.000338111

0.000240717 -5.58421e-05 7.26951e-08
-5.58421e-05 0.000303556 6.04224e-09
7.26951e-08 6.04224e-09 0.000262244

0.00030055 1.18678e-05 1.55717e-07
1.18678e-05 0.000310364 1.97265e-08
1.55717e-07 1.97265e-08 0.000306078

0.000300628 -1.04329e-05 3.54221e-08
-1.04329e-05 0.000310938 -5.74936e-08
3.54221e-08 -5.74936e-08 0.000306107

0.000318145 8.96764e-07 7.44445e-08
8.96764e-07 0.000206567 -2.16466e-07
7.44445e-08 -2.16466e-07 0.000254375

0.00023979 -5.62358e-05 1.28654e-08
-5.62358e-05 0.000305101 -8.55893e-08
1.28654e-08 -8.55893e-08 0.0002772

0.000168082 5.47473e-05 9.14603e-08
5.47473e-05 0.000172854 1.67444e-07
9.14603e-08 1.67444e-07 0.000110985

0.000163361 5.19171e-05 -7.04945e-08
5.19171e-05 0.000173808 4.93348e-08
-7.04945e-08 4.93348e-08 0.000112091

0.000162271 -3.89913e-05 -9.77947e-08
-3.89913e-05 0.000233995 1.21011e-07
-9.77947e-08 1.21011e-07 0.000130848

0.000165809 4.08574e-05 7.18968e-08
4.08574e-05 0.000236898 -1.10506e-07
7.18968e-08 -1.10506e-07 0.000134196

0.000227258 -3.24262e-05 -4.48057e-08
-3.24262e-05 0.000173932 8.36881e-09
-4.48057e-08 8.36881e-09 0.000131093

0.000249507 -6.20063e-05 -2.8884e-08
-6.20063e-05 0.000316247 4.20263e-08
-2.8884e-08 4.20263e-08 0.000282735

0.000116159 1.43297e-05 1.59195e-07
1.43297e-05 0.000225887 -1.39672e-07
1.59195e-07 -1.39672e-07 0.000111593

0.00021814 1.83353e-05 1.59534e-07
1.83353e-05 0.000130837 -4.79137e-08
1.59534e-07 -4.79137e-08 0.000112846

0.000293499 -1.92051e-05 9.60742e-08
-1.92051e-05 0.000324358 -9.44314e-08
9.60742e-08 -9.44314e-08 0.000304337

0.000295793 -2.302e-05 5.72734e-09
-2.302e-05 0.000326625 -6.79764e-08
5.72734e-09 -6.79764e-08 0.000305476

0.000309936 7.17946e-06 -9.07982e-08
7.17946e-06 0.000250126 -2.74426e-08
-9.07982e-08 -2.74426e-08 0.000271039

0.000335818 3.79481e-07 -1.2999e-07
3.79481e-07 0.000204622 -1.47838e-07
-1.2999e-07 -1.47838e-07 0.000276735

0.000190918 -3.52557e-05 3.59215e-08
-3.52557e-05 0.000253752 6.82602e-08
3.59215e-08 6.82602e-08 0.000182875

0.000189524 3.45038e-05 1.10426e-07
3.45038e-05 0.000253178 6.52723e-08
1.10426e-07 6.52723e-08 0.000182247

0.000318514 -3.69292e-09 4.10674e-09
-3.69292e-09 0.000205414 1.67425e-07
4.10674e-09 1.67425e-07 0.000255774

0.000225501 -4.27571e-05 9.20496e-08
-4.27571e-05 0.0002924 -9.06419e-09
9.20496e-08 -9.06419e-09 0.000247519

0.000328406 -1.83168e-05 6.18649e-08
-1.83168e-05 0.000324516 4.77174e-08
6.18649e-08 4.77174e-08 0.000324196

0.000327961 1.84093e-05 1.71143e-07
1.84093e-05 0.00032405 -1.97263e-08
1.71143e-07 -1.97263e-08 0.00032423

0.000272992 2.53474e-05 6.43294e-08
2.53474e-05 0.000277399 1.83168e-07
6.43294e-08 1.83168e-07 0.000268103

0.000240058 -4.77836e-05 8.14586e-08
-4.77836e-05 0.000292824 1.72586e-08
8.14586e-08 1.72586e-08 0.000260096

0.000310233 7.13836e-06 -7.7395e-08
7.13836e-06 0.000218248 1.09734e-07
-7.7395e-08 1.09734e-07 0.000264739

0.000212704 3.98173e-05 -9.08978e-08
3.98173e-05 0.00020534 -2.21025e-07
-9.08978e-08 -2.21025e-07 0.000166878

0.0002351 -4.92731e-05 -2.06759e-08
-4.92731e-05 0.000292485 -2.84972e-08
-2.06759e-08 -2.84972e-08 0.000256906

8.4771e-05 -8.63095e-05 1.02802e-07
-8.63095e-05 8.7848e-05 -1.02802e-07
1.02802e-07 -1.02802e-07 1.99596e-05

0.000208187 -1.17964e-05 3.92613e-08
-1.17964e-05 0.000281435 6.98789e-08
3.92613e-08 6.98789e-08 0.000227144

0.000212329 -1.60779e-05 -6.73574e-08
-1.60779e-05 0.00028352 1.42048e-07
-6.73574e-08 1.42048e-07 0.000228977

0.000297894 -3.67056e-06 -2.7129e-08
-3.67056e-06 0.000320283 4.09005e-08
-2.7129e-08 4.09005e-08 0.00030673

0.00029847 -2.25545e-06 -9.12442e-08
-2.25545e-06 0.000319795 -2.58131e-07
-9.12442e-08 -2.58131e-07 0.000306765

0.000346738 -1.34153e-05 2.65793e-08
-1.34153e-05 0.000290683 -4.54818e-08
2.65793e-08 -4.54818e-08 0.000326056

0.000346599 1.33848e-05 6.63622e-08
1.33848e-05 0.000290882 7.28253e-09
6.63622e-08 7.28253e-09 0.000326271

0.000276614 -2.6504e-05 5.55356e-09
-2.6504e-05 0.000282622 5.87823e-08
5.55356e-09 5.87823e-08 0.000285852

0.000277035 2.74386e-05 -2.21516e-07
2.74386e-05 0.000278457 5.72498e-08
-2.21516e-07 5.72498e-08 0.000283865

0.000294151 -2.31016e-05 2.69686e-08
-2.31016e-05 0.000320326 -9.34439e-08
2.69686e-08 -9.34439e-08 0.000303177

0.000294281 2.41812e-05 1.74312e-07
2.41812e-05 0.000320158 -6.00932e-08
1.74312e-07 -6.00932e-08 0.000303096

0.000342903 3.65475e-05 -6.75498e-08
3.65475e-05 0.000339959 -2.02314e-07
-6.75498e-08 -2.02314e-07 0.000333725

0.000342606 -3.5647e-05 -9.04207e-08
-3.5647e-05 0.000339987 1.72165e-07
-9.04207e-08 1.72165e-07 0.000333697

0.000267601 -5.98473e-05 -1.86917e-09
-5.98473e-05 0.000320873 5.16309e-08
-1.86917e-09 5.16309e-08 0.000295928

0.000267871 6.02443e-05 -3.25911e-08
6.02443e-05 0.000320167 -2.05357e-07
-3.25911e-08 -2.05357e-07 0.000296051

0.0002701 3.57442e-05 3.1748e-08
3.57442e-05 0.00025332 1.22593e-07
3.1748e-08 1.22593e-07 0.000246302

0.000233929 -2.82612e-05 -3.5115e-09
-2.82612e-05 0.000289902 1.09352e-07
-3.5115e-09 1.09352e-07 0.000244906

0.000235832 -3.52911e-05 7.86348e-08
-3.52911e-05 0.000297524 -1.6585e-08
7.86348e-08 -1.6585e-08 0.000247857

0.000219781 -3.56771e-05 -1.36652e-07
-3.56771e-05 0.000209386 8.78987e-08
-1.36652e-07 8.78987e-08 0.000162526

0.0002698 -3.5949e-05 6.39639e-08
-3.5949e-05 0.000254324 -4.24672e-08
6.39639e-08 -4.24672e-08 0.000245885

0.000233444 2.67465e-05 -4.28013e-08
2.67465e-05 0.000288534 -1.25579e-07
-4.28013e-08 -1.25579e-07 0.000243979

0.000247437 5.04069e-05 1.2437e-07
5.04069e-05 0.000266625 7.22647e-08
1.2437e-07 7.22647e-08 0.000237357

0.000254394 -5.2073e-05 -2.13593e-08
-5.2073e-05 0.000306048 2.52262e-08
-2.13593e-08 2.52262e-08 0.000288075

0.000255132 5.11751e-05 -7.45332e-08
5.11751e-05 0.00030611 4.71976e-08
-7.45332e-08 4.71976e-08 0.000288415

0.000246723 -5.08895e-05 1.159e-07
-5.08895e-05 0.000266601 -9.31542e-10
1.159e-07 -9.31542e-10 0.000236744

0.000311775 -5.04015e-06 2.5967e-08
-5.04015e-06 0.000253529 -2.00062e-08
2.5967e-08 -2.00062e-08 0.000275386

0.00031567 1.48501e-05 4.22078e-07
1.48501e-05 0.000340403 -3.01155e-07
4.22078e-07 -3.01155e-07 0.000317305

0.000316845 1.21264e-05 4.60384e-07
1.21264e-05 0.00034045 -8.36179e-08
4.60384e-07 -8.36179e-08 0.000317689

0.000256506 -4.47502e-05 -6.67609e-08
-4.47502e-05 0.000308868 3.71325e-08
-6.67609e-08 3.71325e-08 0.0002747

0.000272666 2.19303e-05 4.51244e-08
2.19303e-05 0.000244362 -7.51421e-08
4.51244e-08 -7.51421e-08 0.00026087

0.000334633 -5.56959e-06 4.28593e-08
-5.56959e-06 0.000259832 1.06153e-07
4.28593e-08 1.06153e-07 0.000295743

0.000164888 -4.81704e-05 -6.97251e-08
-4.81704e-05 0.000172268 -1.45595e-07
-6.97251e-08 -1.45595e-07 9.96442e-05

0.000166369 -4.70444e-05 5.79728e-08
-4.70444e-05 0.000172783 1.28075e-08
5.79728e-08 1.28075e-08 0.000100667

0.000345954 -1.48674e-05 1.96382e-07
-1.48674e-05 0.000288286 1.65348e-07
1.96382e-07 1.65348e-07 0.000323364

0.000345123 1.52691e-05 -6.03277e-08
1.52691e-05 0.000288491 1.56307e-07
-6.03277e-08 1.56307e-07 0.000323537

0.00033557 4.44712e-06 2.59043e-08
4.44712e-06 0.000261446 7.31358e-08
2.59043e-08 7.31358e-08 0.000296574

0.000236264 3.5135e-05 9.30264e-08
3.5135e-05 0.000295544 -4.70461e-08
9.30264e-08 -4.70461e-08 0.0002474

0.000270673 2.76211e-05 -2.29457e-08
2.76211e-05 0.000240882 8.17897e-08
-2.29457e-08 8.17897e-08 0.000222567

0.00028348 -4.00798e-05 9.44896e-08
-4.00798e-05 0.000311335 1.89023e-07
9.44896e-08 1.89023e-07 0.000291472

0.0002831 3.99034e-05 -1.12197e-07
3.99034e-05 0.000311307 -5.92556e-08
-1.12197e-07 -5.92556e-08 0.000291624

0.000343621 -7.3155e-06 1.16228e-07
-7.3155e-06 0.000304779 1.29862e-07
1.16228e-07 1.29862e-07 0.000317166

0.000342427 6.92411e-06 -8.60157e-08
6.92411e-06 0.000308889 2.65918e-08
-8.60157e-08 2.65918e-08 0.000317724

0.000242219 -5.12738e-05 8.88483e-08
-5.12738e-05 0.00030593 9.98706e-08
8.88483e-08 9.98706e-08 0.000272667

0.000282109 2.20405e-05 1.04197e-07
2.20405e-05 0.000238152 -2.65382e-08
1.04197e-07 -2.65382e-08 0.000243319

0.000321919 1.53082e-05 1.16483e-07
1.53082e-05 0.000303061 -1.36336e-07
1.16483e-07 -1.36336e-07 0.000310569

0.000321893 -1.56182e-05 -1.41017e-07
-1.56182e-05 0.000302675 -2.07187e-07
-1.41017e-07 -2.07187e-07 0.000310414

0.000253415 -3.97749e-05 4.25793e-08
-3.97749e-05 0.000301964 5.11911e-08
4.25793e-08 5.11911e-08 0.000272113

0.000243417 -5.48781e-05 9.66243e-08
-5.48781e-05 0.000304542 -9.96727e-08
9.66243e-08 -9.96727e-08 0.000276409

8.71226e-05 -8.94924e-05 -3.32476e-08
-8.94924e-05 9.18622e-05 3.32476e-08
-3.32476e-08 3.32476e-08 2.18912e-05

0.000265857 3.74253e-05 -3.05178e-08
3.74253e-05 0.000317984 -4.14678e-08
-3.05178e-08 -4.14678e-08 0.000293914

0.00026534 -3.78914e-05 -8.33664e-08
-3.78914e-05 0.000318515 -1.00656e-07
-8.33664e-08 -1.00656e-07 0.000294033

0.000235468 -4.76147e-05 -1.07162e-08
-4.76147e-05 0.000298787 3.41607e-08
-1.07162e-08 3.41607e-08 0.000268862

0.000274147 -2.98077e-05 -1.04654e-08
-2.98077e-05 0.000241508 1.78789e-08
-1.04654e-08 1.78789e-08 0.000224856

0.000277394 -2.38837e-05 -5.6858e-09
-2.38837e-05 0.000278801 6.62384e-08
-5.6858e-09 6.62384e-08 0.000270801

0.000272391 3.22979e-05 -1.523e-07
3.22979e-05 0.000298587 -1.76463e-07
-1.523e-07 -1.76463e-07 0.000286964

0.000271709 -3.34692e-05 -4.76775e-08
-3.34692e-05 0.000299803 -1.41876e-07
-4.76775e-08 -1.41876e-07 0.000287263

0.000311775 -4.93207e-06 2.60357e-08
-4.93207e-06 0.000218967 -4.78092e-08
2.60357e-08 -4.78092e-08 0.000268854

0.000342801 1.17475e-05 -8.22054e-08
1.17475e-05 0.000310866 4.75693e-08
-8.22054e-08 4.75693e-08 0.000329956

0.000343822 -1.18409e-05 2.64995e-07
-1.18409e-05 0.000310866 -1.75676e-07
2.64995e-07 -1.75676e-07 0.000329956

0.000308563 5.46183e-06 -2.06733e-07
5.46183e-06 0.000366806 3.37537e-07
-2.06733e-07 3.37537e-07 0.000314979

0.000309182 3.36026e-06 1.35392e-07
3.36026e-06 0.000366164 2.46481e-07
1.35392e-07 2.46481e-07 0.000315132

0.000107221 3.73714e-06 1.76052e-08
3.73714e-06 0.000239187 -5.21964e-09
1.76052e-08 -5.21964e-09 6.12371e-05

0.000225043 3.36813e-06 -6.76991e-08
3.36813e-06 0.000111395 6.18845e-08
-6.76991e-08 6.18845e-08 6.12227e-05

0.000264031 -5.12717e-05 -9.34537e-08
-5.12717e-05 0.000318873 -2.50162e-07
-9.34537e-08 -2.50162e-07 0.000285947

0.000264371 5.09131e-05 -3.86164e-08
5.09131e-05 0.000318363 1.39321e-07
-3.86164e-08 1.39321e-07 0.00028609

0.000247777 -5.84986e-05 1.49455e-07
-5.84986e-05 0.000315296 1.69918e-08
1.49455e-07 1.69918e-08 0.000280423

9.51269e-05 -4.20629e-05 -5.10989e-08
-4.20629e-05 0.000192264 -1.57322e-07
-5.10989e-08 -1.57322e-07 5.40065e-05

0.00018386 -4.0216e-05 3.8458e-08
-4.0216e-05 0.000104842 4.43928e-08
3.8458e-08 4.43928e-08 5.50297e-05

0.000325076 -5.38148e-05 -2.94524e-07
-5.38148e-05 0.000367768 -4.03844e-07
-2.94524e-07 -4.03844e-07 0.000341529

0.000325076 5.38148e-05 -2.69874e-07
5.38148e-05 0.000367768 3.76276e-07
-2.69874e-07 3.76276e-07 0.00034155

0.000256195 -3.5537e-05 -1.14314e-07
-3.5537e-05 0.000274345 -2.64191e-08
-1.14314e-07 -2.64191e-08 0.000266307

0.000244526 -4.91976e-05 3.85167e-08
-4.91976e-05 0.000278811 -1.33263e-07
3.85167e-08 -1.33263e-07 0.000243019

0.000264786 -5.20797e-05 -1.48772e-07
-5.20797e-05 0.000303908 6.24226e-08
-1.48772e-07 6.24226e-08 0.000281696

0.000264983 5.17322e-05 -7.29584e-08
5.17322e-05 0.000303904 -7.96575e-08
-7.29584e-08 -7.96575e-08 0.000281827

0.000245648 -5.56526e-05 -4.32871e-08
-5.56526e-05 0.000293966 -2.47134e-08
-4.32871e-08 -2.47134e-08 0.000259307

0.000245027 4.9282e-05 1.32675e-07
4.9282e-05 0.000277655 5.79584e-08
1.32675e-07 5.79584e-08 0.000242866

0.000154963 -1.60536e-05 -9.12853e-08
-1.60536e-05 0.000246957 1.22774e-07
-9.12853e-08 1.22774e-07 0.000133862

0.000152248 1.93979e-05 3.05811e-08
1.93979e-05 0.00024266 -1.05176e-07
3.05811e-08 -1.05176e-07 0.000134381

0.000236928 -1.20901e-05 -1.87614e-08
-1.20901e-05 0.00017141 1.19501e-07
-1.87614e-08 1.19501e-07 0.000135271

0.000245814 5.53082e-05 4.89301e-08
5.53082e-05 0.000293471 -6.34142e-08
4.89301e-08 -6.34142e-08 0.000259

0.000113042 -9.92601e-06 3.60724e-08
-9.92601e-06 0.000228478 -9.8624e-08
3.60724e-08 -9.8624e-08 0.000108754

0.00021963 -9.57399e-06 5.32876e-08
-9.57399e-06 0.000117339 3.5324e-08
5.32876e-08 3.5324e-08 0.000107402

0.000278117 -5.05793e-05 5.82318e-09
-5.05793e-05 0.000317946 -2.71217e-07
5.82318e-09 -2.71217e-07 0.000297601

0.000278227 5.00671e-05 -1.62647e-07
5.00671e-05 0.000317519 1.15352e-07
-1.62647e-07 1.15352e-07 0.00029776

0.000281341 -4.41633e-05 1.28658e-07
-4.41633e-05 0.000324167 1.48146e-07
1.28658e-07 1.48146e-07 0.000301723

0.000281228 4.39912e-05 -1.12261e-07
4.39912e-05 0.000323577 -5.933e-08
-1.12261e-07 -5.933e-08 0.000301821

9.08642e-05 -4.23095e-05 1.15009e-07
-4.23095e-05 0.000185868 5.86002e-08
1.15009e-07 5.86002e-08 4.74362e-05

0.000178641 -3.91189e-05 -1.84306e-07
-3.91189e-05 9.47764e-05 -1.25697e-07
-1.84306e-07 -1.25697e-07 4.70362e-05

0.000262675 4.65804e-05 -1.55799e-08
4.65804e-05 0.000297699 -3.84797e-08
-1.55799e-08 -3.84797e-08 0.000269392

0.000262765 -4.71634e-05 -3.19537e-08
-4.71634e-05 0.000297953 -2.03861e-08
-3.19537e-08 -2.03861e-08 0.000269256

0.000305556 -7.41376e-06 -2.72767e-07
-7.41376e-06 0.000322944 -7.29543e-08
-2.72767e-07 -7.29543e-08 0.000309002

0.00030591 -1.01135e-05 8.40708e-08
-1.01135e-05 0.000325087 -7.25386e-08
8.40708e-08 -7.25386e-08 0.000309443

0.00027237 -5.05911e-05 -6.9607e-08
-5.05911e-05 0.000334803 -1.42185e-07
-6.9607e-08 -1.42185e-07 0.000303394

0.000272391 5.08595e-05 -1.44517e-07
5.08595e-05 0.000334701 1.441e-07
-1.44517e-07 1.441e-07 0.000303503

0.000328171 -2.03945e-05 2.27036e-08
-2.03945e-05 0.000306192 -3.09399e-07
2.27036e-08 -3.09399e-07 0.000322979

0.000327852 1.98747e-05 1.79652e-07
1.98747e-05 0.000306449 -9.69546e-08
1.79652e-07 -9.69546e-08 0.000323051

0.000256703 4.19621e-05 1.78259e-07
4.19621e-05 0.000298012 -1.86557e-07
1.78259e-07 -1.86557e-07 0.000276632

0.000256253 -4.19011e-05 -5.64945e-08
-4.19011e-05 0.000299557 -1.42005e-07
-5.64945e-08 -1.42005e-07 0.000276956

0.000293945 -1.55995e-05 -5.12302e-09
-1.55995e-05 0.000356389 3.7226e-08
-5.12302e-09 3.7226e-08 0.000311605

0.000347772 -2.85443e-05 -1.08593e-07
-2.85443e-05 0.000333557 1.02578e-07
-1.08593e-07 1.02578e-07 0.000338873

0.000344962 -2.973e-05 -1.32836e-07
-2.973e-05 0.000333768 8.01436e-08
-1.32836e-07 8.01436e-08 0.000338886

0.000347855 2.88625e-05 -1.92877e-07
2.88625e-05 0.000333557 -3.48595e-08
-1.92877e-07 -3.48595e-08 0.000338829

0.000344617 3.02464e-05 -1.05516e-07
3.02464e-05 0.000333768 -1.15703e-07
-1.05516e-07 -1.15703e-07 0.000338904

0.000291748 -1.23517e-05 1.09014e-07
-1.23517e-05 0.000356138 -2.19883e-07
1.09014e-07 -2.19883e-07 0.000310499

0.000321463 -3.26332e-05 2.86497e-08
-3.26332e-05 0.000320553 -9.45975e-08
2.86497e-08 -9.45975e-08 0.000310332

0.000319278 3.3309e-05 -2.97829e-09
3.3309e-05 0.000321052 -1.80209e-07
-2.97829e-09 -1.80209e-07 0.000310717

0.000328729 -4.26099e-05 -1.72165e-07
-4.26099e-05 0.000351379 2.84752e-07
-1.72165e-07 2.84752e-07 0.000327754

0.000435577 -2.80731e-05 -3.9137e-06
-2.80731e-05 0.000322664 -2.61143e-06
-3.9137e-06 -2.61143e-06 0.000336882

0.000430665 3.38489e-05 2.78001e-06
3.38489e-05 0.000315935 -9.46271e-07
2.78001e-06 -9.46271e-07 0.000336949

0.000328729 4.26099e-05 -1.58964e-07
4.26099e-05 0.000351379 -3.06515e-07
-1.58964e-07 -3.06515e-07 0.00032779

0.000337901 -4.43656e-05 1.3484e-07
-4.43656e-05 0.000335627 -1.80604e-07
1.3484e-07 -1.80604e-07 0.000324584

0.000303444 -3.5726e-05 4.44428e-08
-3.5726e-05 0.000339295 -1.20742e-07
4.44428e-08 -1.20742e-07 0.000315368

0.00034192 -3.4359e-05 6.32111e-08
-3.4359e-05 0.000342121 -5.12312e-07
6.32111e-08 -5.12312e-07 0.000333686

0.000337324 4.3928e-05 1.52031e-07
4.3928e-05 0.000335627 1.64888e-07
1.52031e-07 1.64888e-07 0.000324621

0.000341529 3.36076e-05 8.47757e-08
3.36076e-05 0.000341023 4.76342e-07
8.47757e-08 4.76342e-07 0.000333716

0.000304023 3.56715e-05 6.20012e-08
3.56715e-05 0.000339295 1.0527e-07
6.20012e-08 1.0527e-07 0.000315408

0.000303625 -3.68322e-05 2.73097e-08
-3.68322e-05 0.000339244 8.91977e-08
2.73097e-08 8.91977e-08 0.000320188

0.000329627 -2.96668e-05 -7.67382e-11
-2.96668e-05 0.000341185 8.06695e-08
-7.67382e-11 8.06695e-08 0.000329416

0.000304269 3.71553e-05 4.62898e-08
3.71553e-05 0.000338814 -8.72494e-08
4.62898e-08 -8.72494e-08 0.000320225

0.000329521 3.01509e-05 4.61191e-08
3.01509e-05 0.000340728 -8.71969e-08
4.61191e-08 -8.71969e-08 0.000329446

0.000260084 2.41791e-05 5.80457e-08
2.41791e-05 0.000290118 1.20243e-07
5.80457e-08 1.20243e-07 0.000271839

0.00023254 -6.67623e-06 2.91374e-08
-6.67623e-06 0.000306353 -6.50334e-09
2.91374e-08 -6.50334e-09 0.000273175

0.000276254 -7.92743e-06 4.352e-08
-7.92743e-06 0.000204841 9.26248e-08
4.352e-08 9.26248e-08 0.000247448

0.000266562 -9.90594e-09 -1.78065e-08
-9.90594e-09 0.000199122 1.25673e-07
-1.78065e-08 1.25673e-07 0.000230306

0.000260024 2.42804e-05 7.53564e-08
2.42804e-05 0.000295836 -8.10886e-08
7.53564e-08 -8.10886e-08 0.000288835

0.000231722 -1.03632e-05 3.37445e-08
-1.03632e-05 0.000331294 4.70779e-08
3.37445e-08 4.70779e-08 0.000289253

0.000266599 1.33656e-05 -1.80076e-08
1.33656e-05 0.000199474 -1.96809e-08
-1.80076e-08 -1.96809e-08 0.000231648

0.000297606 1.70816e-05 3.55036e-08
1.70816e-05 0.000228875 3.15052e-08
3.55036e-08 3.15052e-08 0.000279818

0.000167058 3.46953e-05 2.11962e-08
3.46953e-05 0.000215654 1.43851e-08
2.11962e-08 1.43851e-08 0.00018363

0.000169479 3.33834e-05 -5.8814e-08
3.33834e-05 0.000216969 4.04556e-08
-5.8814e-08 4.04556e-08 0.000180131

0.000211586 3.02805e-05 9.97662e-10
3.02805e-05 0.000167875 -7.5211e-08
9.97662e-10 -7.5211e-08 0.000177733

0.000278002 1.45139e-05 -3.73946e-08
1.45139e-05 0.000317794 -3.76827e-08
-3.73946e-08 -3.76827e-08 0.000294143

0.000285135 -2.90731e-05 7.99825e-08
-2.90731e-05 0.000301931 7.45928e-09
7.99825e-08 7.45928e-09 0.000294014

0.000247378 -3.71968e-05 -5.34587e-08
-3.71968e-05 0.000258357 -3.76019e-08
-5.34587e-08 -3.76019e-08 0.00024937

0.000230692 1.20655e-05 2.32105e-08
1.20655e-05 0.000332302 -8.3932e-10
2.32105e-08 -8.3932e-10 0.000288018

0.000258729 -1.40418e-05 -3.84084e-08
-1.40418e-05 0.000293416 7.95028e-08
-3.84084e-08 7.95028e-08 0.000287884

0.00028957 9.47369e-06 1.71638e-07
9.47369e-06 0.000206485 -2.71425e-08
1.71638e-07 -2.71425e-08 0.000248766

0.000178536 1.57949e-05 -8.30967e-10
1.57949e-05 0.00024588 5.68092e-08
-8.30967e-10 5.68092e-08 0.000198155

0.000187512 1.22611e-05 2.70938e-08
1.22611e-05 0.000239379 -9.10516e-08
2.70938e-08 -9.10516e-08 0.000196437

0.000240036 9.54343e-06 -4.14175e-08
9.54343e-06 0.000182617 -4.91567e-08
-4.14175e-08 -4.91567e-08 0.000192705

0.000217615 3.72689e-05 -3.58574e-08
3.72689e-05 0.000259626 -7.78401e-08
-3.58574e-08 -7.78401e-08 0.000227819

0.000206167 -2.30951e-05 -4.09786e-08
-2.30951e-05 0.000261041 -7.56918e-08
-4.09786e-08 -7.56918e-08 0.000231018

0.000279512 2.13547e-05 -9.7586e-08
2.13547e-05 0.000203815 -5.17289e-08
-9.7586e-08 -5.17289e-08 0.000250101

0.000161673 2.50889e-05 2.67901e-08
2.50889e-05 0.000198584 2.49896e-08
2.67901e-08 2.49896e-08 0.000163673

0.000299484 -9.48024e-06 9.21034e-08
-9.48024e-06 0.000212368 3.8811e-08
9.21034e-08 3.8811e-08 0.000273948

0.000296256 6.42544e-06 -1.51533e-07
6.42544e-06 0.000304243 7.10413e-09
-1.51533e-07 7.10413e-09 0.000295743

0.000277328 -1.85485e-06 -1.93895e-08
-1.85485e-06 0.000331018 2.64246e-08
-1.93895e-08 2.64246e-08 0.000295162

0.000383899 3.73409e-05 -1.95479e-07
3.73409e-05 0.000320519 -3.53002e-08
-1.95479e-07 -3.53002e-08 0.000310796

0.000384949 -1.66496e-05 -1.89905e-07
-1.66496e-05 0.00029239 5.52601e-08
-1.89905e-07 5.52601e-08 0.000313825

0.000236491 -4.27139e-05 -6.46751e-08
-4.27139e-05 0.000256665 -4.68561e-08
-6.46751e-08 -4.68561e-08 0.000245823

0.000211349 -3.57123e-05 2.22127e-08
-3.57123e-05 0.000254976 -7.9902e-08
2.22127e-08 -7.9902e-08 0.000225949

0.000236556 -1.72438e-07 -1.74302e-08
-1.72438e-07 0.000171647 8.24205e-08
-1.74302e-08 8.24205e-08 0.000192522

0.000324363 2.34357e-05 -1.59833e-09
2.34357e-05 0.000282423 -5.3747e-08
-1.59833e-09 -5.3747e-08 0.000295671

0.000318757 -6.72425e-06 4.78879e-08
-6.72425e-06 0.000276119 -1.41707e-07
4.78879e-08 -1.41707e-07 0.000295672

0.000299977 -3.87622e-06 -1.18627e-07
-3.87622e-06 0.000212862 2.95058e-08
-1.18627e-07 2.95058e-08 0.000281701

0.000205715 -2.7234e-05 7.64949e-08
-2.7234e-05 0.000250808 8.09105e-08
7.64949e-08 8.09105e-08 0.000228372

0.000296307 5.21399e-06 2.6889e-08
5.21399e-06 0.000204134 -1.16379e-07
2.6889e-08 -1.16379e-07 0.000275641

0.000244294 -2.69486e-05 -7.24002e-08
-2.69486e-05 0.000215146 5.44495e-09
-7.24002e-08 5.44495e-09 0.000217702

0.000214878 3.92775e-05 -7.97263e-08
3.92775e-05 0.000241588 8.47721e-09
-7.97263e-08 8.47721e-09 0.000227469

0.000253339 2.96252e-05 1.33862e-07
2.96252e-05 0.000190814 -6.58523e-08
1.33862e-07 -6.58523e-08 0.000214703

0.000247076 -1.6982e-05 -5.94917e-08
-1.6982e-05 0.000190092 1.12012e-07
-5.94917e-08 1.12012e-07 0.000212441

0.000211006 3.33172e-05 -1.27121e-07
3.33172e-05 0.000259005 5.97261e-08
-1.27121e-07 5.97261e-08 0.0002296

0.000218517 -2.48355e-05 -8.96849e-08
-2.48355e-05 0.000296934 1.1087e-07
-8.96849e-08 1.1087e-07 0.000272687

0.00023717 4.43436e-05 -1.82091e-08
4.43436e-05 0.000291967 1.92352e-08
-1.82091e-08 1.92352e-08 0.000269863

0.000218175 -3.09223e-05 1.28317e-07
-3.09223e-05 0.000257688 2.72733e-08
1.28317e-07 2.72733e-08 0.000228501

0.000213428 4.05786e-05 -3.9995e-08
4.05786e-05 0.000257636 -7.29694e-08
-3.9995e-08 -7.29694e-08 0.000225874

0.000129519 -3.43528e-05 -9.42703e-08
-3.43528e-05 0.0001353 -8.33809e-08
-9.42703e-08 -8.33809e-08 0.000134593

0.000126881 3.94798e-05 1.10388e-08
3.94798e-05 0.000141381 1.54205e-07
1.10388e-08 1.54205e-07 0.000132557

0.000233116 3.34599e-05 -1.74276e-09
3.34599e-05 0.000309882 -5.11794e-08
-1.74276e-09 -5.11794e-08 0.000287778

0.000253723 -3.94448e-05 1.08836e-07
-3.94448e-05 0.000298581 1.83916e-08
1.08836e-07 1.83916e-08 0.00028651

0.000217594 3.732e-05 -2.84001e-08
3.732e-05 0.000274377 1.02832e-07
-2.84001e-08 1.02832e-07 0.000245286

0.000128602 1.2829e-05 1.76967e-08
1.2829e-05 0.000130037 -5.34528e-08
1.76967e-08 -5.34528e-08 0.000140153

0.000125505 -3.88872e-07 2.4569e-08
-3.88872e-07 0.000138587 -7.76463e-08
2.4569e-08 -7.76463e-08 0.000141807

0.000287681 -2.86713e-05 -9.75015e-08
-2.86713e-05 0.000299778 -1.42762e-07
-9.75015e-08 -1.42762e-07 0.000299693

0.000289943 1.39615e-05 -1.84184e-07
1.39615e-05 0.00030853 -1.61129e-07
-1.84184e-07 -1.61129e-07 0.000298635

0.000308811 -8.00499e-07 -1.21427e-07
-8.00499e-07 0.000211456 8.14018e-08
-1.21427e-07 8.14018e-08 0.000261034

0.00028821 -2.66791e-05 -6.60625e-08
-2.66791e-05 0.000301623 7.84907e-08
-6.60625e-08 7.84907e-08 0.00029932

0.000291473 9.49726e-06 -1.55375e-07
9.49726e-06 0.000295595 -3.63872e-07
-1.55375e-07 -3.63872e-07 0.000298603

0.000206209 -2.39415e-05 -3.69419e-08
-2.39415e-05 0.000275634 -1.26279e-07
-3.69419e-08 -1.26279e-07 0.000248381

0.000353769 3.57163e-05 -1.31815e-07
3.57163e-05 0.000312402 5.76766e-08
-1.31815e-07 5.76766e-08 0.000307365

0.000360884 -2.91963e-05 -1.45857e-07
-2.91963e-05 0.000285674 -1.2215e-08
-1.45857e-07 -1.2215e-08 0.00031032

0.000272019 -2.85348e-05 -8.42547e-08
-2.85348e-05 0.000270348 -3.2188e-08
-8.42547e-08 -3.2188e-08 0.000281213

0.000273207 2.20317e-05 -1.08572e-08
2.20317e-05 0.000275364 1.37655e-07
-1.08572e-08 1.37655e-07 0.000279976

0.00029115 2.24104e-06 3.50866e-08
2.24104e-06 0.00037001 -4.74481e-08
3.50866e-08 -4.74481e-08 0.00030688

0.000296533 1.71712e-05 1.5662e-07
1.71712e-05 0.000333382 9.62168e-08
1.5662e-07 9.62168e-08 0.000308081

0.000152746 1.18508e-05 -4.15977e-08
1.18508e-05 0.000190327 6.69562e-08
-4.15977e-08 6.69562e-08 0.000159798

0.000188162 1.16734e-05 -3.92477e-08
1.16734e-05 0.000153721 -1.00596e-07
-3.92477e-08 -1.00596e-07 0.000159942

0.000231433 3.55552e-05 1.49746e-07
3.55552e-05 0.000288527 5.45253e-08
1.49746e-07 5.45253e-08 0.000264065

0.000211926 -2.14348e-05 1.2832e-07
-2.14348e-05 0.000295786 6.45319e-08
1.2832e-07 6.45319e-08 0.000266086

0.000342092 -4.69293e-05 -3.41882e-07
-4.69293e-05 0.000397095 -2.61641e-07
-3.41882e-07 -2.61641e-07 0.000319069

0.000365439 2.80186e-05 1.15336e-07
2.80186e-05 0.000319698 6.13749e-07
1.15336e-07 6.13749e-07 0.000319419

0.00024159 3.76518e-05 5.71134e-09
3.76518e-05 0.000218785 -1.39813e-07
5.71134e-09 -1.39813e-07 0.000222601

0.000283204 1.44443e-05 -2.14802e-08
1.44443e-05 0.000233899 -1.42902e-07
-2.14802e-08 -1.42902e-07 0.000265623

0.000281246 -1.87937e-05 -1.63523e-09
-1.87937e-05 0.000233341 -5.84242e-08
-1.63523e-09 -5.84242e-08 0.000265953

0.000314381 -2.02665e-05 8.96239e-08
-2.02665e-05 0.000241784 4.23523e-08
8.96239e-08 4.23523e-08 0.000291161

0.000235375 8.82872e-06 -1.84483e-09
8.82872e-06 0.000171254 -1.54908e-07
-1.84483e-09 -1.54908e-07 0.000193442

0.000402929 2.1126e-06 1.3842e-08
2.1126e-06 0.000305929 1.49785e-07
1.3842e-08 1.49785e-07 0.000316296

0.000387259 -5.58016e-06 8.23633e-08
-5.58016e-06 0.000362561 -1.74089e-07
8.23633e-08 -1.74089e-07 0.000313037

0.000249445 4.53702e-05 8.19541e-08
4.53702e-05 0.000226367 -6.41611e-08
8.19541e-08 -6.41611e-08 0.000241459

0.000289219 1.18912e-05 1.68929e-07
1.18912e-05 0.000225234 1.869e-08
1.68929e-07 1.869e-08 0.000251187

0.000201602 3.6894e-05 2.81771e-08
3.6894e-05 0.000215239 1.39446e-08
2.81771e-08 1.39446e-08 0.000193108

0.000313397 -2.20106e-05 -1.00861e-07
-2.20106e-05 0.000380492 -1.4379e-08
-1.00861e-07 -1.4379e-08 0.000310528

0.000309353 1.3109e-05 -7.12882e-08
1.3109e-05 0.000330647 4.07783e-08
-7.12882e-08 4.07783e-08 0.000312685

0.000319135 3.79422e-05 -1.89719e-08
3.79422e-05 0.000257465 2.41768e-08
-1.89719e-08 2.41768e-08 0.000291792

0.000258992 -1.19661e-05 -4.26498e-08
-1.19661e-05 0.000288746 8.01244e-09
-4.26498e-08 8.01244e-09 0.000271285

0.000231216 8.30046e-06 1.64309e-08
8.30046e-06 0.000307954 1.15064e-07
1.64309e-08 1.15064e-07 0.000272315

0.000310169 -6.01747e-06 1.0262e-07
-6.01747e-06 0.000217367 -9.32879e-08
1.0262e-07 -9.32879e-08 0.00027302

0.000314804 4.3878e-06 -1.94664e-07
4.3878e-06 0.000215731 3.19301e-08
-1.94664e-07 3.19301e-08 0.000273249

0.00021505 -2.44071e-05 1.40575e-07
-2.44071e-05 0.000200451 3.71176e-08
1.40575e-07 3.71176e-08 0.000190495

0.000279361 9.29071e-07 -6.47615e-10
9.29071e-07 0.000200479 -1.13617e-07
-6.47615e-10 -1.13617e-07 0.000230686

0.000311533 4.86871e-06 1.54973e-07
4.86871e-06 0.00024293 2.0239e-07
1.54973e-07 2.0239e-07 0.000286133

0.000303734 -1.02117e-05 -6.92211e-08
-1.02117e-05 0.000249083 1.47455e-07
-6.92211e-08 1.47455e-07 0.000286514

0.00028675 -1.40677e-05 -1.6447e-07
-1.40677e-05 0.000222007 7.40692e-08
-1.6447e-07 7.40692e-08 0.000251651

0.000309167 -6.86129e-06 1.12215e-07
-6.86129e-06 0.000236065 -4.29799e-08
1.12215e-07 -4.29799e-08 0.000275412

0.000314544 2.98671e-06 -1.61276e-07
2.98671e-06 0.000235612 -1.31095e-07
-1.61276e-07 -1.31095e-07 0.000275417

0.000282602 2.94389e-05 -8.8886e-08
2.94389e-05 0.000223201 -3.55443e-08
-8.8886e-08 -3.55443e-08 0.00025668

0.000216082 -3.95023e-05 8.94861e-08
-3.95023e-05 0.000211911 3.0754e-08
8.94861e-08 3.0754e-08 0.000205127

0.000243222 5.17014e-05 -2.80286e-08
5.17014e-05 0.000293223 1.93122e-08
-2.80286e-08 1.93122e-08 0.000274623

0.000236501 -4.39901e-05 -2.40821e-08
-4.39901e-05 0.000276185 1.99236e-07
-2.40821e-08 1.99236e-07 0.000278039

0.000231605 -3.30413e-05 1.45212e-08
-3.30413e-05 0.000281394 -8.54715e-08
1.45212e-08 -8.54715e-08 0.00028131

0.000245267 5.46505e-05 -4.85986e-08
5.46505e-05 0.000302086 -3.7939e-08
-4.85986e-08 -3.7939e-08 0.000277792

0.0002583 1.8906e-05 -8.47037e-08
1.8906e-05 0.000187375 -6.92825e-08
-8.47037e-08 -6.92825e-08 0.00021439

0.000195697 -2.26039e-05 2.70016e-08
-2.26039e-05 0.000169731 -2.65875e-08
2.70016e-08 -2.65875e-08 0.000168496

0.000283442 4.27683e-05 6.84901e-08
4.27683e-05 0.000238558 8.93016e-08
6.84901e-08 8.93016e-08 0.000268949

0.000278767 -1.47333e-05 1.08683e-07
-1.47333e-05 0.000222796 -1.12331e-07
1.08683e-07 -1.12331e-07 0.00025218

0.000201453 -1.75791e-05 9.08227e-08
-1.75791e-05 0.000165583 1.06825e-07
9.08227e-08 1.06825e-07 0.00016999

0.000247233 -3.49834e-05 -5.50736e-08
-3.49834e-05 0.000226014 -8.25403e-09
-5.50736e-08 -8.25403e-09 0.000238647

0.000203742 1.75606e-07 -9.47713e-08
1.75606e-07 0.000306929 5.7275e-08
-9.47713e-08 5.7275e-08 0.000263381

0.000227634 5.2932e-06 -1.01139e-07
5.2932e-06 0.000279276 3.84074e-08
-1.01139e-07 3.84074e-08 0.000262148

0.000216298 4.49101e-05 -9.0197e-08
4.49101e-05 0.000217749 -9.2772e-08
-9.0197e-08 -9.2772e-08 0.000212268

0.000215233 -2.62401e-05 1.36136e-07
-2.62401e-05 0.000171334 1.53217e-07
1.36136e-07 1.53217e-07 0.000182858

0.000254166 4.73292e-05 5.50582e-08
4.73292e-05 0.000268041 -1.56865e-07
5.50582e-08 -1.56865e-07 0.00027798

0.000250272 -4.59078e-05 -1.01069e-07
-4.59078e-05 0.000281659 -5.54641e-08
-1.01069e-07 -5.54641e-08 0.000274311

0.00020747 -3.35517e-05 9.8795e-08
-3.35517e-05 0.000234918 -1.04042e-07
9.8795e-08 -1.04042e-07 0.000212151

0.000212357 -3.74538e-05 2.3695e-08
-3.74538e-05 0.000231981 -8.99976e-08
2.3695e-08 -8.99976e-08 0.000209623

0.000278471 3.46825e-05 -8.34785e-08
3.46825e-05 0.000227848 -5.13545e-08
-8.34785e-08 -5.13545e-08 0.000253889

0.000322252 2.15141e-05 -8.26709e-08
2.15141e-05 0.000213772 -8.46685e-08
-8.26709e-08 -8.46685e-08 0.000290599

0.000322921 -1.43595e-05 -9.85093e-08
-1.43595e-05 0.000203589 4.56356e-09
-9.85093e-08 4.56356e-09 0.000290911

0.00019729 2.79017e-05 3.85774e-08
2.79017e-05 0.000256621 -6.24419e-08
3.85774e-08 -6.24419e-08 0.000216947

0.000249861 4.281e-05 6.18672e-08
4.281e-05 0.000241596 3.69191e-08
6.18672e-08 3.69191e-08 0.000244699

0.000154755 4.18474e-06 -1.37395e-07
4.18474e-06 0.000240673 9.14287e-09
-1.37395e-07 9.14287e-09 0.000189789

0.000163817 2.48913e-06 1.6534e-07
2.48913e-06 0.000235799 -5.30841e-08
1.6534e-07 -5.30841e-08 0.000188153

0.00023786 1.96166e-06 -3.69611e-08
1.96166e-06 0.000156927 -3.62048e-08
-3.69611e-08 -3.62048e-08 0.000185703

0.00022659 -3.18312e-05 6.7366e-08
-3.18312e-05 0.000204171 1.06372e-07
6.7366e-08 1.06372e-07 0.000211589

0.000313461 -2.17694e-05 2.4057e-07
-2.17694e-05 0.000352355 -5.81158e-08
2.4057e-07 -5.81158e-08 0.000317342

0.000391764 8.77527e-06 -6.47445e-07
8.77527e-06 0.000392137 -1.87708e-07
-6.47445e-07 -1.87708e-07 0.000314531

0.000242551 3.84345e-05 4.45888e-08
3.84345e-05 0.000193642 9.3098e-08
4.45888e-08 9.3098e-08 0.000211507

0.000260386 -1.57833e-05 9.62191e-09
-1.57833e-05 0.000188055 -2.54939e-08
9.62191e-09 -2.54939e-08 0.000217145

0.000202692 2.67412e-05 -6.20308e-08
2.67412e-05 0.00016281 -5.24483e-08
-6.20308e-08 -5.24483e-08 0.000172531

0.000218507 -2.82408e-05 -1.36589e-07
-2.82408e-05 0.000274442 -4.47914e-08
-1.36589e-07 -4.47914e-08 0.000261358

0.000233868 5.07352e-05 -4.07048e-08
5.07352e-05 0.000285436 9.27022e-08
-4.07048e-08 9.27022e-08 0.000258241

0.000308806 -7.07631e-07 -1.21145e-07
-7.07631e-07 0.000210214 7.33316e-08
-1.21145e-07 7.33316e-08 0.000260754

0.000184316 2.51956e-05 2.02082e-08
2.51956e-05 0.000256567 1.098e-07
2.02082e-08 1.098e-07 0.00021875

0.000223898 -3.42684e-05 6.50903e-08
-3.42684e-05 0.000312301 2.41703e-08
6.50903e-08 2.41703e-08 0.000289303

0.000251155 4.75138e-05 -8.19449e-08
4.75138e-05 0.000305357 3.43603e-08
-8.19449e-08 3.43603e-08 0.000286939

0.000198375 2.95956e-05 -1.92321e-07
2.95956e-05 0.000216697 3.61856e-08
-1.92321e-07 3.61856e-08 0.000189865

0.000210707 3.1513e-05 -7.34776e-09
3.1513e-05 0.000204818 -1.18864e-07
-7.34776e-09 -1.18864e-07 0.000187543

0.000204394 2.41412e-05 -2.97743e-08
2.41412e-05 0.000163926 -1.43556e-07
-2.97743e-08 -1.43556e-07 0.000173406

0.000242438 5.22916e-05 -3.87068e-08
5.22916e-05 0.000307633 -1.91262e-08
-3.87068e-08 -1.91262e-08 0.000278895

0.000233481 -3.78818e-05 2.40949e-08
-3.78818e-05 0.00027126 2.62557e-08
2.40949e-08 2.62557e-08 0.000282804

0.000327904 1.56182e-06 1.24079e-07
1.56182e-06 0.000212497 -7.90554e-08
1.24079e-07 -7.90554e-08 0.00027929

0.000246114 3.56767e-05 1.01384e-07
3.56767e-05 0.000270514 -1.8034e-08
1.01384e-07 -1.8034e-08 0.000282467

0.000247113 -4.49694e-05 -7.0864e-08
-4.49694e-05 0.00029884 -1.35448e-07
-7.0864e-08 -1.35448e-07 0.000279457

0.000245995 4.37085e-05 1.31482e-07
4.37085e-05 0.00025429 1.47912e-07
1.31482e-07 1.47912e-07 0.000258864

0.000179783 -9.30426e-06 -1.81825e-08
-9.30426e-06 0.000247943 -5.48922e-08
-1.81825e-08 -5.48922e-08 0.000201374

0.000190188 -1.2516e-05 -1.0171e-07
-1.2516e-05 0.000244337 9.90011e-08
-1.0171e-07 9.90011e-08 0.000199881

0.000240679 -7.60167e-06 -5.24092e-08
-7.60167e-06 0.000184735 -3.61101e-09
-5.24092e-08 -3.61101e-09 0.000197269

0.000225879 -2.61668e-05 8.05488e-08
-2.61668e-05 0.000225595 -1.26268e-07
8.05488e-08 -1.26268e-07 0.00021928

0.000227724 4.52223e-06 -9.89546e-08
4.52223e-06 0.000273766 -5.49578e-09
-9.89546e-08 -5.49578e-09 0.000239639

0.000203904 1.24933e-06 -9.85639e-08
1.24933e-06 0.000284808 -1.89341e-08
-9.85639e-08 -1.89341e-08 0.000241172

0.000181645 -2.94599e-05 -1.48317e-07
-2.94599e-05 0.000212214 2.03193e-08
-1.48317e-07 2.03193e-08 0.000181777

0.000181647 -2.82612e-05 1.24807e-08
-2.82612e-05 0.000205955 -3.17146e-08
1.24807e-08 -3.17146e-08 0.000182527

0.000330322 -1.90173e-06 8.24157e-08
-1.90173e-06 0.000217439 -1.58787e-08
8.24157e-08 -1.58787e-08 0.000279712

0.000325828 1.97611e-06 1.16817e-07
1.97611e-06 0.000219511 -9.10336e-08
1.16817e-07 -9.10336e-08 0.000279589

0.000232714 -3.49759e-05 1.52121e-07
-3.49759e-05 0.00026583 8.15074e-08
1.52121e-07 8.15074e-08 0.000265156

0.000236357 4.61653e-05 3.39638e-08
4.61653e-05 0.000288888 6.07853e-08
3.39638e-08 6.07853e-08 0.000261899

0.000225245 2.9716e-05 -1.10059e-07
2.9716e-05 0.000308212 -8.98741e-08
-1.10059e-07 -8.98741e-08 0.000288453

0.000250675 -4.32082e-05 5.58497e-08
-4.32082e-05 0.00030157 3.68345e-08
5.58497e-08 3.68345e-08 0.000286376

0.000261092 -3.49217e-05 1.20221e-07
-3.49217e-05 0.000256447 -7.97237e-08
1.20221e-07 -7.97237e-08 0.000266926

0.000184859 -1.81968e-05 -9.29319e-09
-1.81968e-05 0.000260628 -7.71787e-08
-9.29319e-09 -7.71787e-08 0.000219679

0.000294374 5.22187e-06 1.75196e-07
5.22187e-06 0.000276186 1.33039e-07
1.75196e-07 1.33039e-07 0.000289282

0.000289324 -1.7325e-05 5.82465e-09
-1.7325e-05 0.000270994 -2.95333e-08
5.82465e-09 -2.95333e-08 0.000290077

0.000256487 -2.71386e-05 -5.50536e-08
-2.71386e-05 0.000236521 -8.36954e-08
-5.50536e-08 -8.36954e-08 0.000245658

0.000280413 -2.28388e-05 -6.38477e-09
-2.28388e-05 0.000249616 -1.12649e-07
-6.38477e-09 -1.12649e-07 0.00026903

0.000282196 1.925e-05 -4.25827e-08
1.925e-05 0.000259956 1.04789e-07
-4.25827e-08 1.04789e-07 0.000267804

0.0001275 -1.01964e-05 -1.69105e-07
-1.01964e-05 8.90062e-05 -8.54707e-09
-1.69105e-07 -8.54707e-09 0.000141667

0.000214314 4.54718e-05 -1.79161e-08
4.54718e-05 0.000232473 2.18471e-07
-1.79161e-08 2.18471e-07 0.000210588

0.000100573 2.12177e-05 -7.84299e-08
2.12177e-05 0.000129569 7.58781e-08
-7.84299e-08 7.58781e-08 0.0001408

0.00019776 -2.4602e-05 -8.51209e-08
-2.4602e-05 0.000256348 5.62469e-08
-8.51209e-08 5.62469e-08 0.000218018

0.000306857 -2.3571e-05 1.66129e-07
-2.3571e-05 0.000334721 1.49087e-07
1.66129e-07 1.49087e-07 0.000311177

0.000323268 9.57984e-06 2.92436e-07
9.57984e-06 0.000314285 2.98277e-07
2.92436e-07 2.98277e-07 0.000310893

0.000257498 2.94287e-05 -5.72626e-08
2.94287e-05 0.000245846 5.67707e-08
-5.72626e-08 5.67707e-08 0.00024396

0.000279383 -1.82747e-06 -9.81091e-10
-1.82747e-06 0.000197873 -3.16805e-08
-9.81091e-10 -3.16805e-08 0.000231045

0.000232069 3.6877e-05 8.78958e-08
3.6877e-05 0.000203127 -5.90353e-08
8.78958e-08 -5.90353e-08 0.000208578

0.000213385 1.79535e-05 1.25513e-08
1.79535e-05 0.000302755 1.17012e-07
1.25513e-08 1.17012e-07 0.000265936

0.000233609 -2.46273e-05 -9.94681e-08
-2.46273e-05 0.00028243 -2.05001e-08
-9.94681e-08 -2.05001e-08 0.000264353

0.000283657 4.06533e-05 1.83724e-07
4.06533e-05 0.000306115 1.6988e-08
1.83724e-07 1.6988e-08 0.000294791

0.000280675 -2.27226e-05 5.94626e-08
-2.27226e-05 0.000313568 2.38024e-08
5.94626e-08 2.38024e-08 0.000295228

0.000240455 5.55475e-05 -2.85235e-08
5.55475e-05 0.000302288 -3.61199e-08
-2.85235e-08 -3.61199e-08 0.000277964

0.000211161 -5.23973e-05 -3.98104e-08
-5.23973e-05 0.000285078 -8.05378e-08
-3.98104e-08 -8.05378e-08 0.000282325

0.000209983 2.91041e-05 -1.36734e-07
2.91041e-05 0.000273853 -3.37654e-08
-1.36734e-07 -3.37654e-08 0.000248153

0.000205121 1.47769e-05 4.64837e-08
1.47769e-05 0.000269289 -8.43199e-08
4.64837e-08 -8.43199e-08 0.000233198

0.000253175 -3.20718e-05 -1.93567e-08
-3.20718e-05 0.000247513 -1.14527e-07
-1.93567e-08 -1.14527e-07 0.000259852

0.000253174 3.36751e-05 -7.47422e-09
3.36751e-05 0.000256382 9.96964e-08
-7.47422e-09 9.96964e-08 0.000258157

0.00023169 3.51398e-05 9.80622e-08
3.51398e-05 0.000234134 9.06094e-08
9.80622e-08 9.06094e-08 0.000218049

0.000218448 -3.41527e-05 1.23958e-07
-3.41527e-05 0.000272226 1.19477e-07
1.23958e-07 1.19477e-07 0.000246498

0.00019184 -5.484e-06 4.17449e-08
-5.484e-06 0.000281142 4.71358e-08
4.17449e-08 4.71358e-08 0.000235513

0.00015031 2.42804e-05 -4.42373e-08
2.42804e-05 0.000167868 9.12477e-08
-4.42373e-08 9.12477e-08 0.00014802

0.000164788 2.57948e-05 1.73935e-07
2.57948e-05 0.000151279 -1.20585e-07
1.73935e-07 -1.20585e-07 0.00014824

0.000196153 -2.93372e-05 -1.3692e-08
-2.93372e-05 0.000207254 1.00179e-07
-1.3692e-08 1.00179e-07 0.000185877

0.00028701 -1.10238e-05 -1.65108e-07
-1.10238e-05 0.00020562 5.75734e-08
-1.65108e-07 5.75734e-08 0.000248845

0.000340004 -3.65842e-05 -3.56565e-07
-3.65842e-05 0.000359396 -2.26302e-07
-3.56565e-07 -2.26302e-07 0.000318072

0.000374371 3.82587e-05 -2.84538e-07
3.82587e-05 0.000317252 -3.48653e-07
-2.84538e-07 -3.48653e-07 0.000318173

0.000322309 3.88748e-05 5.57255e-08
3.88748e-05 0.000323865 1.73268e-08
5.57255e-08 1.73268e-08 0.00030483

0.000313697 -1.01228e-05 -8.824e-08
-1.01228e-05 0.000293076 3.22996e-08
-8.824e-08 3.22996e-08 0.000306946

0.000285392 -3.78883e-07 4.52574e-08
-3.78883e-07 0.000210345 9.35694e-08
4.52574e-08 9.35694e-08 0.000260909

0.000242816 -4.93937e-05 6.60718e-09
-4.93937e-05 0.000296082 -5.57904e-09
6.60718e-09 -5.57904e-09 0.000278012

0.000219243 5.17012e-05 6.9179e-08
5.17012e-05 0.000281381 2.92466e-08
6.9179e-08 2.92466e-08 0.000281437

0.00015937 -2.38312e-05 -6.52217e-09
-2.38312e-05 0.000170432 -3.25108e-08
-6.52217e-09 -3.25108e-08 0.000154444

0.000161875 3.08067e-05 5.15755e-08
3.08067e-05 0.000163198 -4.79217e-08
5.15755e-08 -4.79217e-08 0.00015631

0.000150138 -1.12623e-05 -1.38863e-09
-1.12623e-05 0.000200271 -1.96183e-08
-1.38863e-09 -1.96183e-08 0.000165455

0.000160856 -1.37505e-05 -1.36449e-08
-1.37505e-05 0.000201747 -1.1644e-07
-1.36449e-08 -1.1644e-07 0.000166652

0.0002022 -9.78578e-06 2.23938e-07
-9.78578e-06 0.000151817 6.96283e-08
2.23938e-07 6.96283e-08 0.000164405

0.000203164 3.6244e-05 1.07692e-08
3.6244e-05 0.000196339 8.21667e-08
1.07692e-08 8.21667e-08 0.000189372

0.000131352 1.12261e-05 -1.72798e-07
1.12261e-05 0.000192924 -3.64111e-08
-1.72798e-07 -3.64111e-08 0.000156244

0.000189361 2.17773e-06 1.30545e-07
2.17773e-06 0.00013361 3.56086e-08
1.30545e-07 3.56086e-08 0.000156177

0.000289354 -4.46972e-06 -6.86979e-08
-4.46972e-06 0.000347949 2.63854e-08
-6.86979e-08 2.63854e-08 0.000303382

0.000294794 -1.59482e-05 -4.41508e-09
-1.59482e-05 0.000315195 -1.65281e-07
-4.41508e-09 -1.65281e-07 0.000304349

0.00029545 -1.19621e-05 -2.28188e-09
-1.19621e-05 0.000243137 1.29879e-07
-2.28188e-09 1.29879e-07 0.000274936

0.000309411 5.15328e-06 -1.11362e-07
5.15328e-06 0.000185137 5.0723e-08
-1.11362e-07 5.0723e-08 0.000282083

0.000180193 -2.43509e-05 -1.50638e-07
-2.43509e-05 0.000230329 4.00364e-08
-1.50638e-07 4.00364e-08 0.000194038

0.000178749 -1.72864e-05 1.1069e-08
-1.72864e-05 0.000230206 -1.96408e-08
1.1069e-08 -1.96408e-08 0.000196493

0.000290133 1.17158e-05 7.08879e-10
1.17158e-05 0.000212426 -1.29803e-07
7.08879e-10 -1.29803e-07 0.00026222

0.000302874 -1.12303e-05 1.55383e-07
-1.12303e-05 0.000311166 1.61749e-07
1.55383e-07 1.61749e-07 0.000305206

0.000317299 -2.93066e-07 -2.41937e-07
-2.93066e-07 0.000299305 -3.31458e-07
-2.41937e-07 -3.31458e-07 0.000304759

0.000273591 -2.43924e-05 3.41108e-09
-2.43924e-05 0.000264961 -1.58408e-07
3.41108e-09 -1.58408e-07 0.000271422

0.000247041 4.05727e-05 1.87006e-07
4.05727e-05 0.000262498 -7.77032e-08
1.87006e-07 -7.77032e-08 0.000264602

0.000236462 -4.26284e-05 -6.38771e-08
-4.26284e-05 0.000281632 -7.29733e-08
-6.38771e-08 -7.29733e-08 0.000260825

0.000295415 -1.08994e-05 7.34897e-09
-1.08994e-05 0.000214682 -6.11727e-08
7.34897e-09 -6.11727e-08 0.000269437

0.000225743 3.40667e-05 -5.332e-08
3.40667e-05 0.00027244 2.87443e-08
-5.332e-08 2.87443e-08 0.000261631

0.00023623 -4.49251e-05 1.80578e-07
-4.49251e-05 0.000278709 8.79489e-08
1.80578e-07 8.79489e-08 0.000258948

0.000123736 -5.0213e-05 -1.41926e-07
-5.0213e-05 0.00012717 -6.13318e-08
-1.41926e-07 -6.13318e-08 0.000130001

0.000192478 1.01436e-05 1.01708e-07
1.01436e-05 0.000279293 -1.045e-07
1.01708e-07 -1.045e-07 0.000234347

0.000209304 -9.90424e-06 -1.16503e-07
-9.90424e-06 0.000265888 -1.16774e-08
-1.16503e-07 -1.16774e-08 0.000233241

0.000278716 5.3532e-06 -3.98421e-08
5.3532e-06 0.000367836 -9.34934e-08
-3.98421e-08 -9.34934e-08 0.000304786

0.000298494 -8.56428e-07 -1.41706e-07
-8.56428e-07 0.000312687 -5.05244e-08
-1.41706e-07 -5.05244e-08 0.000306303

0.000323907 -1.87811e-06 -2.47133e-08
-1.87811e-06 0.000232858 9.38537e-08
-2.47133e-08 9.38537e-08 0.000288739

0.000331627 2.91032e-06 7.71228e-08
2.91032e-06 0.000227768 -2.27789e-08
7.71228e-08 -2.27789e-08 0.000288709

0.000294255 4.84545e-05 7.65541e-08
4.84545e-05 0.0002706 -7.60389e-08
7.65541e-08 -7.60389e-08 0.000287194

0.000285243 -2.71592e-05 5.0557e-09
-2.71592e-05 0.000265026 -1.59172e-07
5.0557e-09 -1.59172e-07 0.000285893

0.00033269 1.8732e-05 5.0745e-08
1.8732e-05 0.000307435 3.8507e-08
5.0745e-08 3.8507e-08 0.000302269

0.000312849 -9.89697e-06 -6.79698e-08
-9.89697e-06 0.000310639 1.19307e-07
-6.79698e-08 1.19307e-07 0.000303749

0.000340028 2.04921e-05 -1.18108e-07
2.04921e-05 0.000319449 -3.58388e-07
-1.18108e-07 -3.58388e-07 0.000315914

0.00033372 -5.62704e-05 8.49081e-08
-5.62704e-05 0.000357114 -2.00477e-07
8.49081e-08 -2.00477e-07 0.000315885

0.00025469 5.02896e-05 4.30644e-10
5.02896e-05 0.000306178 -1.0595e-08
4.30644e-10 -1.0595e-08 0.000288064

0.000240368 -6.21237e-05 3.76009e-08
-6.21237e-05 0.000281503 2.33113e-08
3.76009e-08 2.33113e-08 0.000291331

0.000259714 2.70382e-05 -5.64879e-08
2.70382e-05 0.000221286 5.32241e-08
-5.64879e-08 5.32241e-08 0.00023917

0.000212848 2.12733e-05 5.14713e-08
2.12733e-05 0.000282488 -1.50862e-07
5.14713e-08 -1.50862e-07 0.000250177

0.000234793 -3.50905e-05 1.65181e-08
-3.50905e-05 0.000234365 -7.08457e-08
1.65181e-08 -7.08457e-08 0.000236641

0.000233132 -2.67249e-05 -1.00545e-07
-2.67249e-05 0.000275654 -2.76901e-08
-1.00545e-07 -2.76901e-08 0.000248818

0.000257996 -2.52611e-05 -1.77969e-08
-2.52611e-05 0.000219199 9.71167e-08
-1.77969e-08 9.71167e-08 0.000240534

0.000231249 2.98931e-05 1.48454e-07
2.98931e-05 0.000278025 -2.3323e-08
1.48454e-07 -2.3323e-08 0.000247934

0.000238854 4.25803e-05 3.58515e-08
4.25803e-05 0.000241541 3.91727e-08
3.58515e-08 3.91727e-08 0.000234714

0.000258262 5.6371e-05 -1.87974e-08
5.6371e-05 0.000282685 -5.71032e-08
-1.87974e-08 -5.71032e-08 0.000290171

0.000261362 -4.18068e-05 -3.50632e-08
-4.18068e-05 0.000296244 -1.44727e-07
-3.50632e-08 -1.44727e-07 0.000288594

0.000302854 2.55438e-05 5.56052e-08
2.55438e-05 0.00024852 9.39894e-08
5.56052e-08 9.39894e-08 0.000278349

0.000392126 2.04671e-05 3.33221e-07
2.04671e-05 0.000383558 -9.68436e-08
3.33221e-07 -9.68436e-08 0.000313983

0.000318404 1.76685e-05 -1.13405e-07
1.76685e-05 0.00033247 2.4254e-09
-1.13405e-07 2.4254e-09 0.000316958

0.00027354 -2.57856e-05 2.4794e-08
-2.57856e-05 0.000236115 1.39419e-07
2.4794e-08 1.39419e-07 0.000264977

0.000327094 1.90148e-06 -1.16497e-07
1.90148e-06 0.000257121 -3.79166e-08
-1.16497e-07 -3.79166e-08 0.000298614

0.000152706 -2.1764e-05 -2.72678e-08
-2.1764e-05 0.000168346 2.25887e-07
-2.72678e-08 2.25887e-07 0.000150919

0.000169361 -1.78682e-05 -1.61453e-07
-1.78682e-05 0.000151249 5.49654e-08
-1.61453e-07 5.49654e-08 0.000151299

0.000320039 2.09686e-06 1.73635e-08
2.09686e-06 0.000248692 1.46097e-07
1.73635e-08 1.46097e-07 0.000293272

0.000331676 -3.249e-06 -1.04754e-07
-3.249e-06 0.00024219 1.91162e-07
-1.04754e-07 1.91162e-07 0.000292962

0.000326091 5.22808e-06 -1.25685e-07
5.22808e-06 0.000280342 6.2989e-08
-1.25685e-07 6.2989e-08 0.0002972

0.000211807 -1.52436e-05 1.29121e-07
-1.52436e-05 0.000284598 -1.79857e-08
1.29121e-07 -1.79857e-08 0.000250633

0.000258401 2.10024e-05 -8.16787e-08
2.10024e-05 0.00021261 3.34263e-08
-8.16787e-08 3.34263e-08 0.000220453

0.000270953 -3.26561e-05 -7.26282e-08
-3.26561e-05 0.000272395 6.0485e-08
-7.26282e-08 6.0485e-08 0.000282992

0.000271591 2.74568e-05 4.08378e-08
2.74568e-05 0.000291487 -2.73982e-07
4.08378e-08 -2.73982e-07 0.000281223

0.000369499 2.50038e-06 -1.39647e-07
2.50038e-06 0.000399999 2.88069e-07
-1.39647e-07 2.88069e-07 0.00031421

0.000369384 3.1655e-05 -1.32659e-07
3.1655e-05 0.000301356 -3.05295e-07
-1.32659e-07 -3.05295e-07 0.000317471

0.00027145 -2.07163e-05 1.7408e-07
-2.07163e-05 0.000229502 2.34919e-08
1.7408e-07 2.34919e-08 0.000249759

0.000311798 -8.32291e-07 1.56184e-07
-8.32291e-07 0.0002693 1.53302e-07
1.56184e-07 1.53302e-07 0.000290909

0.000303864 -6.99692e-06 -7.51353e-08
-6.99692e-06 0.00027639 -1.16617e-07
-7.51353e-08 -1.16617e-07 0.000291413

0.000254145 -3.71325e-05 9.49414e-08
-3.71325e-05 0.00028988 -1.56296e-07
9.49414e-08 -1.56296e-07 0.000273448

0.00023525 1.87654e-05 -1.22875e-08
1.87654e-05 0.000293313 9.97417e-08
-1.22875e-08 9.97417e-08 0.000275274

0.000235061 3.57845e-05 -1.70379e-07
3.57845e-05 0.000275582 -1.10334e-08
-1.70379e-07 -1.10334e-08 0.000280362

0.000243732 -4.98969e-05 2.30957e-08
-4.98969e-05 0.000296187 -7.51473e-09
2.30957e-08 -7.51473e-09 0.000277309

0.000135186 6.40186e-05 1.00019e-07
6.40186e-05 0.000129204 -4.47984e-09
1.00019e-07 -4.47984e-09 0.000131794

0.000271654 3.72098e-05 -6.97566e-08
3.72098e-05 0.00030528 4.63839e-08
-6.97566e-08 4.63839e-08 0.000294669

0.000272111 -2.78682e-05 9.91225e-08
-2.78682e-05 0.000307708 1.34499e-07
9.91225e-08 1.34499e-07 0.000294494

0.000225583 3.35846e-05 -6.74056e-08
3.35846e-05 0.000284829 1.17354e-07
-6.74056e-08 1.17354e-07 0.000272994

0.000236837 -4.24405e-05 1.35204e-07
-4.24405e-05 0.000288252 -1.4406e-07
1.35204e-07 -1.4406e-07 0.000270363

0.000260812 -1.97358e-05 2.77627e-09
-1.97358e-05 0.000208365 8.0405e-08
2.77627e-09 8.0405e-08 0.000223828

0.000282411 3.62707e-05 5.57592e-08
3.62707e-05 0.000259675 -8.97645e-08
5.57592e-08 -8.97645e-08 0.000273917

0.00029931 3.86344e-05 1.80847e-08
3.86344e-05 0.000271692 1.47819e-07
1.80847e-08 1.47819e-07 0.000288753

0.000284432 -2.53281e-05 1.0331e-07
-2.53281e-05 0.000282771 1.2934e-07
1.0331e-07 1.2934e-07 0.000287911

0.000302814 2.42369e-05 5.40928e-08
2.42369e-05 0.000216371 1.85488e-08
5.40928e-08 1.85488e-08 0.000272976

0.00031731 4.77763e-06 9.55604e-08
4.77763e-06 0.000289467 -2.42568e-07
9.55604e-08 -2.42568e-07 0.000301882

0.000328779 -7.18523e-06 -1.7546e-07
-7.18523e-06 0.000274615 -1.60268e-07
-1.7546e-07 -1.60268e-07 0.000301497

0.000309429 8.40256e-06 -1.93518e-08
8.40256e-06 0.000360551 -9.3106e-08
-1.93518e-08 -9.3106e-08 0.000314549

0.000312452 -1.22758e-05 1.39468e-07
-1.22758e-05 0.000399242 -2.93641e-07
1.39468e-07 -2.93641e-07 0.000311976

0.000137763 -6.03893e-06 -2.61072e-09
-6.03893e-06 0.000100596 -6.7077e-08
-2.61072e-09 -6.7077e-08 0.000140312

8.90836e-05 -9.77978e-07 1.69973e-08
-9.77978e-07 0.000140116 1.96342e-07
1.69973e-08 1.96342e-07 0.000140943

0.000253285 4.16553e-05 -9.85724e-08
4.16553e-05 0.00030311 9.81392e-08
-9.85724e-08 9.81392e-08 0.000278449

0.000252104 -3.58414e-05 -1.24321e-07
-3.58414e-05 0.000274917 8.72461e-08
-1.24321e-07 8.72461e-08 0.000281284

0.000125894 2.26239e-05 1.15647e-07
2.26239e-05 0.000122129 1.33411e-07
1.15647e-07 1.33411e-07 0.000138723

0.000129564 2.91753e-05 -1.13825e-07
2.91753e-05 0.00011858 -3.74928e-08
-1.13825e-07 -3.74928e-08 0.000138626

0.000262262 -4.76825e-05 3.75499e-08
-4.76825e-05 0.000403395 1.31747e-07
3.75499e-08 1.31747e-07 0.000319171

0.000308747 3.38463e-05 1.6861e-07
3.38463e-05 0.000379432 -7.60335e-07
1.6861e-07 -7.60335e-07 0.00031909

0.000273239 4.3704e-05 -1.66924e-07
4.3704e-05 0.00025368 1.03333e-07
-1.66924e-07 1.03333e-07 0.000270047

0.000253261 4.00294e-05 -1.42027e-07
4.00294e-05 0.000283368 -1.78894e-07
-1.42027e-07 -1.78894e-07 0.00027378

0.000253541 -3.99956e-05 -1.16541e-07
-3.99956e-05 0.000269471 3.7637e-08
-1.16541e-07 3.7637e-08 0.000276143

0.00023566 4.07393e-05 8.86353e-08
4.07393e-05 0.000257013 -5.04941e-08
8.86353e-08 -5.04941e-08 0.000240857

0.000232024 -3.24188e-05 1.01916e-07
-3.24188e-05 0.000251818 7.64501e-08
1.01916e-07 7.64501e-08 0.000243095

0.000152641 -4.9445e-06 -1.50281e-07
-4.9445e-06 0.000203505 -5.9883e-08
-1.50281e-07 -5.9883e-08 0.000167835

0.000159806 -1.03483e-05 1.55249e-07
-1.03483e-05 0.000202445 -9.93789e-08
1.55249e-07 -9.93789e-08 0.000167185

0.000203848 -4.4447e-06 2.12177e-07
-4.4447e-06 0.000155808 -1.91694e-09
2.12177e-07 -1.91694e-09 0.000165927

0.000236659 4.69356e-05 6.29735e-08
4.69356e-05 0.000273021 -8.80841e-08
6.29735e-08 -8.80841e-08 0.000254832

0.000232446 -3.60964e-05 1.40853e-07
-3.60964e-05 0.000261571 2.01549e-08
1.40853e-07 2.01549e-08 0.000257445

0.000139719 7.5027e-06 2.30063e-08
7.5027e-06 0.000189814 7.11828e-08
2.30063e-08 7.11828e-08 0.000155136

0.000188142 1.09655e-05 -1.18506e-08
1.09655e-05 0.000140922 1.90559e-07
-1.18506e-08 1.90559e-07 0.000155138

0.000266687 -4.63215e-05 1.1403e-07
-4.63215e-05 0.000278422 4.1193e-08
1.1403e-07 4.1193e-08 0.000290681

0.000264947 3.8311e-05 -6.16843e-09
3.8311e-05 0.000301381 1.16003e-07
-6.16843e-09 1.16003e-07 0.000288321

0.000268355 -4.09506e-05 7.07482e-08
-4.09506e-05 0.000295616 -1.0888e-07
7.07482e-08 -1.0888e-07 0.000292228

0.000269205 3.07547e-05 8.96882e-08
3.07547e-05 0.000302607 -2.16279e-07
8.96882e-08 -2.16279e-07 0.000290561

0.000118061 -1.93829e-05 -1.49319e-07
-1.93829e-05 0.000122859 1.84737e-08
-1.49319e-07 1.84737e-08 0.000135354

0.000118075 -1.86981e-05 1.94532e-07
-1.86981e-05 0.000121816 -9.01328e-08
1.94532e-07 -9.01328e-08 0.000136128

0.000252236 3.64611e-05 1.18868e-08
3.64611e-05 0.000278774 -6.84368e-08
1.18868e-08 -6.84368e-08 0.000262887

0.000252679 -3.3483e-05 -1.0608e-08
-3.3483e-05 0.00026057 -3.83672e-08
-1.0608e-08 -3.83672e-08 0.000265186

0.000306391 1.0551e-05 8.65311e-08
1.0551e-05 0.00034964 3.54244e-08
8.65311e-08 3.54244e-08 0.000306881

0.000306197 -5.39341e-06 -3.07161e-08
-5.39341e-06 0.000313927 -1.6375e-07
-3.07161e-08 -1.6375e-07 0.000308778

0.000250352 -4.24309e-05 6.71403e-08
-4.24309e-05 0.000307151 1.1554e-07
6.71403e-08 1.1554e-07 0.000295963

0.000260023 3.99288e-05 -2.86884e-08
3.99288e-05 0.000318897 8.02886e-08
-2.86884e-08 8.02886e-08 0.000293663

0.000303805 -8.76997e-06 1.12043e-07
-8.76997e-06 0.000278626 -2.33471e-07
1.12043e-07 -2.33471e-07 0.000301408

0.000317413 8.47005e-07 -2.66325e-07
8.47005e-07 0.000269211 -1.10118e-07
-2.66325e-07 -1.10118e-07 0.000301003

0.000263833 3.86799e-05 -1.43721e-07
3.86799e-05 0.000271698 1.50152e-07
-1.43721e-07 1.50152e-07 0.000279769

0.000260595 -3.86926e-05 5.03803e-08
-3.86926e-05 0.000283761 1.31239e-07
5.03803e-08 1.31239e-07 0.000276865

0.000339608 1.19592e-05 1.50294e-07
1.19592e-05 0.000297126 8.23592e-08
1.50294e-07 8.23592e-08 0.000310039

0.000336582 2.6125e-06 -2.30698e-07
2.6125e-06 0.000317017 4.34929e-07
-2.30698e-07 4.34929e-07 0.000315679

0.000320814 -1.10671e-05 -1.5333e-07
-1.10671e-05 0.000311126 -5.71912e-08
-1.5333e-07 -5.71912e-08 0.0003104

0.000299164 -1.94899e-06 3.16034e-08
-1.94899e-06 0.000346542 1.13947e-07
3.16034e-08 1.13947e-07 0.000315898

0.000291215 6.36195e-06 -9.28149e-08
6.36195e-06 0.000383035 -2.0744e-07
-9.28149e-08 -2.0744e-07 0.000308646

0.000353618 3.77423e-05 -2.26362e-08
3.77423e-05 0.000323668 -1.1824e-08
-2.26362e-08 -1.1824e-08 0.000308407

0.00033028 -1.53092e-05 1.52057e-08
-1.53092e-05 0.000309972 6.2956e-08
1.52057e-08 6.2956e-08 0.000310801

0.000293052 -9.2001e-06 -1.91895e-08
-9.2001e-06 0.000348128 -2.20325e-08
-1.91895e-08 -2.20325e-08 0.000310425

0.000308713 2.38048e-05 2.99424e-07
2.38048e-05 0.000338365 4.70907e-07
2.99424e-07 4.70907e-07 0.000313524

0.000460201 3.10639e-05 3.1479e-06
3.10639e-05 0.000260611 -1.68541e-06
3.1479e-06 -1.68541e-06 0.000319881

0.000413058 -5.39985e-06 2.12696e-06
-5.39985e-06 0.000419275 1.61012e-06
2.12696e-06 1.61012e-06 0.000319228

0.000322665 -4.93835e-05 7.54297e-07
-4.93835e-05 0.000356041 -1.15237e-06
7.54297e-07 -1.15237e-06 0.000313578

0.000323627 2.96386e-05 -3.23352e-08
2.96386e-05 0.000321785 -3.1969e-08
-3.23352e-08 -3.1969e-08 0.000310811

0.000291378 2.1248e-05 1.00506e-07
2.1248e-05 0.000324814 5.59975e-08
1.00506e-07 5.59975e-08 0.000303211

0.000333623 6.49001e-06 -3.84682e-08
6.49001e-06 0.000321817 -3.5699e-09
-3.84682e-08 -3.5699e-09 0.000317411

0.000338184 -4.98844e-05 -1.22252e-07
-4.98844e-05 0.000321903 1.76297e-07
-1.22252e-07 1.76297e-07 0.000311253

0.000332262 -5.6474e-05 -6.21406e-08
-5.6474e-05 0.000387869 4.54664e-07
-6.21406e-08 4.54664e-07 0.000317057

0.000295258 -2.75574e-05 -8.90887e-09
-2.75574e-05 0.000311157 1.01241e-07
-8.90887e-09 1.01241e-07 0.000304482

0.000298177 -4.59969e-05 2.12576e-08
-4.59969e-05 0.000324688 -2.68398e-07
2.12576e-08 -2.68398e-07 0.000306665

0.000305296 -3.03418e-05 1.21233e-07
-3.03418e-05 0.000333749 -2.37264e-07
1.21233e-07 -2.37264e-07 0.000312264

0.000291046 1.89311e-05 1.08013e-07
1.89311e-05 0.000317809 1.47985e-07
1.08013e-07 1.47985e-07 0.000305943

0.000322721 1.16434e-05 3.17481e-07
1.16434e-05 0.000319276 8.27508e-08
3.17481e-07 8.27508e-08 0.000312045

0.000219766 3.28818e-05 -8.81155e-09
3.28818e-05 0.000250397 8.70457e-08
-8.81155e-09 8.70457e-08 0.000229899

0.000251621 1.66255e-05 6.31998e-08
1.66255e-05 0.000294544 -2.2339e-08
6.31998e-08 -2.2339e-08 0.000272747

0.000242523 1.42622e-05 7.23666e-08
1.42622e-05 0.00029182 1.11388e-07
7.23666e-08 1.11388e-07 0.000274004

0.000281369 1.88385e-05 1.04737e-07
1.88385e-05 0.000201835 -5.80654e-08
1.04737e-07 -5.80654e-08 0.000246378

0.000269974 6.47371e-06 5.54525e-08
6.47371e-06 0.000191676 -8.51881e-08
5.54525e-08 -8.51881e-08 0.00022867

0.000252715 9.84383e-06 5.37437e-08
9.84383e-06 0.000304348 8.76598e-08
5.37437e-08 8.76598e-08 0.000289504

0.000240844 2.31741e-05 9.34037e-08
2.31741e-05 0.00031166 -1.33285e-07
9.34037e-08 -1.33285e-07 0.000290767

0.000273861 -7.7776e-06 3.27513e-08
-7.7776e-06 0.000196116 7.76528e-08
3.27513e-08 7.76528e-08 0.000230382

0.000298258 -1.54633e-05 2.8374e-08
-1.54633e-05 0.00022966 -3.79357e-08
2.8374e-08 -3.79357e-08 0.000279373

0.000176707 2.96942e-05 -1.90761e-08
2.96942e-05 0.000207701 -5.57364e-08
-1.90761e-08 -5.57364e-08 0.000183471

0.00017466 -2.98407e-05 -2.62667e-08
-2.98407e-05 0.000203866 -8.72727e-09
-2.62667e-08 -8.72727e-09 0.000180257

0.000216118 -2.75109e-05 -3.19003e-08
-2.75109e-05 0.000165898 2.12977e-07
-3.19003e-08 2.12977e-07 0.00017932

0.000272403 -2.82804e-05 -1.67442e-07
-2.82804e-05 0.000307682 -1.14866e-07
-1.67442e-07 -1.14866e-07 0.000296123

0.000285689 -1.92906e-05 2.08444e-08
-1.92906e-05 0.000307089 4.20645e-08
2.08444e-08 4.20645e-08 0.000294622

0.0002197 2.7684e-05 -8.93224e-09
2.7684e-05 0.000260864 6.78256e-08
-8.93224e-09 6.78256e-08 0.000247933

0.000229612 3.37563e-05 -2.93355e-08
3.37563e-05 0.000283318 2.31017e-08
-2.93355e-08 2.31017e-08 0.000273184

0.000241683 -2.18834e-05 -1.10778e-07
-2.18834e-05 0.000311257 -1.49312e-07
-1.10778e-07 -1.49312e-07 0.000289454

0.000248938 -6.28029e-06 7.44946e-08
-6.28029e-06 0.000304914 9.27614e-09
7.44946e-08 9.27614e-09 0.000288884

0.000293378 8.51051e-06 2.46714e-08
8.51051e-06 0.000202618 3.45978e-08
2.46714e-08 3.45978e-08 0.000248565

0.000188228 1.07652e-05 -5.00292e-08
1.07652e-05 0.000237777 4.34889e-09
-5.00292e-08 4.34889e-09 0.000197911

0.0001877 -9.00359e-06 -1.19432e-08
-9.00359e-06 0.00023581 1.87741e-08
-1.19432e-08 1.87741e-08 0.000197414

0.000245992 -7.56381e-06 -4.54242e-08
-7.56381e-06 0.0001792 2.04268e-07
-4.54242e-08 2.04268e-07 0.000192945

0.00022406 3.74587e-05 1.44485e-08
3.74587e-05 0.000235034 6.13368e-08
1.44485e-08 6.13368e-08 0.000228567

0.000257498 -2.53301e-05 2.65047e-08
-2.53301e-05 0.000183842 7.49047e-08
2.65047e-08 7.49047e-08 0.000214908

0.000254276 3.96341e-05 -4.9276e-08
3.96341e-05 0.000235179 5.80065e-08
-4.9276e-08 5.80065e-08 0.00024494

0.000216047 3.18372e-05 -1.94557e-08
3.18372e-05 0.000258903 -1.66666e-07
-1.94557e-08 -1.66666e-07 0.000229681

0.000282106 -1.59395e-05 -4.73596e-09
-1.59395e-05 0.000201316 9.26112e-08
-4.73596e-09 9.26112e-08 0.000249473

0.000171336 2.07059e-05 -5.87794e-08
2.07059e-05 0.000192832 -1.29298e-07
-5.87794e-08 -1.29298e-07 0.00016339

0.000300651 1.99768e-05 -8.1225e-08
1.99768e-05 0.000219992 1.07593e-07
-8.1225e-08 1.07593e-07 0.000272935

0.000197532 -1.81386e-05 8.01552e-08
-1.81386e-05 0.000161248 1.49294e-07
8.01552e-08 1.49294e-07 0.000161142

0.000285298 -6.9631e-06 1.81749e-07
-6.9631e-06 0.00031249 3.79041e-08
1.81749e-07 3.79041e-08 0.000296595

0.000284078 1.19491e-05 -5.69439e-08
1.19491e-05 0.000313854 -7.48446e-08
-5.69439e-08 -7.48446e-08 0.000296798

0.000385634 -3.72056e-05 6.22426e-08
-3.72056e-05 0.000319945 6.60939e-08
6.22426e-08 6.60939e-08 0.000310876

0.000383876 3.90742e-05 -8.6924e-08
3.90742e-05 0.000319158 3.20811e-08
-8.6924e-08 3.20811e-08 0.000311039

0.000239764 -9.83998e-06 -5.12977e-08
-9.83998e-06 0.000172464 1.15759e-07
-5.12977e-08 1.15759e-07 0.000192728

0.000250706 4.2883e-05 1.05144e-08
4.2883e-05 0.000247862 1.28742e-07
1.05144e-08 1.28742e-07 0.000259007

0.000325605 -2.24383e-05 6.3997e-08
-2.24383e-05 0.000281891 -3.93047e-08
6.3997e-08 -3.93047e-08 0.000295812

0.000322683 2.19222e-05 -2.42465e-08
2.19222e-05 0.000279878 -1.20876e-07
-2.42465e-08 -1.20876e-07 0.000294187

0.000298503 8.24914e-06 -1.53103e-08
8.24914e-06 0.000221032 1.04683e-07
-1.53103e-08 1.04683e-07 0.000280447

0.000210906 3.61495e-05 -2.11852e-08
3.61495e-05 0.000256541 -1.6436e-07
-2.11852e-08 -1.6436e-07 0.000226938

0.000255321 -3.12131e-05 1.50677e-08
-3.12131e-05 0.000201863 -1.13994e-09
1.50677e-08 -1.13994e-09 0.000220791

0.000296749 -1.91349e-06 2.94082e-08
-1.91349e-06 0.000209256 -5.56915e-08
2.94082e-08 -5.56915e-08 0.000275008

0.000220567 -3.77305e-05 2.08051e-08
-3.77305e-05 0.000234881 2.72387e-08
2.08051e-08 2.72387e-08 0.000227067

0.000219534 -3.09906e-05 -9.50793e-08
-3.09906e-05 0.000250547 -9.71936e-08
-9.50793e-08 -9.71936e-08 0.000230034

0.000235146 3.53549e-05 -9.09067e-09
3.53549e-05 0.000292778 -1.33408e-08
-9.09067e-09 -1.33408e-08 0.000270398

0.000231755 -4.33878e-05 9.76173e-09
-4.33878e-05 0.000199938 -1.59751e-09
9.76173e-09 -1.59751e-09 0.000207513

0.000142387 -3.30288e-05 -9.57709e-08
-3.30288e-05 0.000123744 1.123e-07
-9.57709e-08 1.123e-07 0.000133974

0.000138934 4.57864e-05 3.17231e-08
4.57864e-05 0.000132244 -3.12842e-08
3.17231e-08 -3.12842e-08 0.000133912

0.000234915 -4.23419e-05 -5.89107e-09
-4.23419e-05 0.000302408 -5.37058e-08
-5.89107e-09 -5.37058e-08 0.000289569

0.000143641 5.71693e-06 2.68814e-08
5.71693e-06 0.000122939 5.17162e-08
2.68814e-08 5.17162e-08 0.000140902

0.000131777 -1.11347e-05 1.20238e-07
-1.11347e-05 0.000125881 1.22725e-07
1.20238e-07 1.22725e-07 0.000141739

0.000290646 -9.32513e-06 9.72163e-09
-9.32513e-06 0.000302899 8.06541e-08
9.72163e-09 8.06541e-08 0.000298483

0.0002917 1.02189e-05 4.3072e-09
1.02189e-05 0.000302431 -6.49424e-08
4.3072e-09 -6.49424e-08 0.000298644

0.000314597 -6.11404e-07 1.44758e-08
-6.11404e-07 0.000206436 3.82718e-08
1.44758e-08 3.82718e-08 0.000260754

0.000292007 -5.53358e-06 1.03884e-08
-5.53358e-06 0.000288894 8.53466e-08
1.03884e-08 8.53466e-08 0.000298312

0.000293195 5.93609e-06 -5.5259e-08
5.93609e-06 0.000288666 3.54257e-07
-5.5259e-08 3.54257e-07 0.000298431

0.000216114 3.29209e-05 7.99733e-09
3.29209e-05 0.000275493 1.77304e-07
7.99733e-09 1.77304e-07 0.000246685

0.000353339 -3.53324e-05 -6.48055e-08
-3.53324e-05 0.000313514 -6.04341e-08
-6.48055e-08 -6.04341e-08 0.000307305

0.0003524 3.5536e-05 -4.6269e-08
3.5536e-05 0.000313196 7.89217e-08
-4.6269e-08 7.89217e-08 0.000307605

0.000275002 -1.7987e-05 -1.47782e-07
-1.7987e-05 0.000270419 -5.28081e-08
-1.47782e-07 -5.28081e-08 0.00027975

0.00027422 1.75962e-05 1.38191e-07
1.75962e-05 0.000270355 2.12947e-07
1.38191e-07 2.12947e-07 0.000279907

0.000213272 -2.95627e-05 1.97347e-08
-2.95627e-05 0.000159697 1.49532e-07
1.97347e-08 1.49532e-07 0.00017749

0.000278881 1.76992e-05 1.86259e-07
1.76992e-05 0.000362107 6.83173e-08
1.86259e-07 6.83173e-08 0.000309539

0.000301843 -3.09314e-06 -5.3004e-08
-3.09314e-06 0.000332463 -1.8828e-07
-5.3004e-08 -1.8828e-07 0.000308238

0.000212567 -3.60383e-05 3.33747e-08
-3.60383e-05 0.000257368 1.03776e-07
3.33747e-08 1.03776e-07 0.000227712

0.000154825 -8.78266e-06 -1.46753e-07
-8.78266e-06 0.000183857 1.60635e-07
-1.46753e-07 1.60635e-07 0.000160021

0.000191804 -9.17614e-06 1.23522e-07
-9.17614e-06 0.000142108 8.07709e-08
1.23522e-07 8.07709e-08 0.000159254

0.00022719 2.84153e-05 3.6967e-08
2.84153e-05 0.000290188 -3.5511e-09
3.6967e-08 -3.5511e-09 0.000264812

0.000224673 2.82125e-05 1.40222e-07
2.82125e-05 0.000280993 6.27883e-08
1.40222e-07 6.27883e-08 0.000266797

0.000369096 -2.75764e-05 7.76467e-07
-2.75764e-05 0.000301364 -1.97142e-08
7.76467e-07 -1.97142e-08 0.000318729

0.000368123 2.507e-05 -1.37993e-07
2.507e-05 0.000308007 5.83791e-07
-1.37993e-07 5.83791e-07 0.000319088

0.000235125 3.65904e-05 -8.74124e-08
3.65904e-05 0.000274918 -8.44172e-08
-8.74124e-08 -8.44172e-08 0.000281933

0.000285162 1.11142e-05 -1.64023e-07
1.11142e-05 0.000229443 -5.82663e-08
-1.64023e-07 -5.82663e-08 0.000265626

0.000285251 -1.16606e-05 -1.94365e-08
-1.16606e-05 0.000228504 8.39374e-08
-1.94365e-08 8.39374e-08 0.000264783

0.000255754 5.04715e-05 -6.29207e-08
5.04715e-05 0.000265059 -3.48946e-08
-6.29207e-08 -3.48946e-08 0.00027789

0.000250309 -3.34522e-05 -2.73082e-09
-3.34522e-05 0.000301424 3.28594e-08
-2.73082e-09 3.28594e-08 0.000286696

0.00023735 -7.65056e-07 -3.90111e-08
-7.65056e-07 0.000162628 3.05934e-08
-3.90111e-08 3.05934e-08 0.000190581

0.000283554 4.74437e-07 -1.52915e-07
4.74437e-07 0.000196823 -6.0649e-08
-1.52915e-07 -6.0649e-08 0.000230222

0.000256882 2.24902e-05 -1.41426e-07
2.24902e-05 0.000184293 -3.44684e-08
-1.41426e-07 -3.44684e-08 0.000211049

0.00031725 3.70246e-05 -3.91262e-08
3.70246e-05 0.00025234 -5.52548e-08
-3.91262e-08 -5.52548e-08 0.000289478

0.000388467 -5.67385e-06 7.3087e-08
-5.67385e-06 0.00035969 -4.21532e-08
7.3087e-08 -4.21532e-08 0.000313286

0.000387508 5.73019e-06 4.3444e-08
5.73019e-06 0.000362372 5.67036e-08
4.3444e-08 5.67036e-08 0.000313061

0.000212042 3.23154e-05 -1.58234e-09
3.23154e-05 0.000207168 -5.69484e-08
-1.58234e-09 -5.69484e-08 0.000193096

0.000256325 -4.11757e-05 3.14775e-08
-4.11757e-05 0.000220496 -1.72855e-08
3.14775e-08 -1.72855e-08 0.000240594

0.000291497 -1.02333e-05 6.1314e-08
-1.02333e-05 0.000222155 1.89109e-08
6.1314e-08 1.89109e-08 0.00025057

0.000299596 4.0162e-05 -2.96738e-07
4.0162e-05 0.00037181 -4.91716e-08
-2.96738e-07 -4.91716e-08 0.000313406

0.000314148 -1.05651e-05 -1.44986e-07
-1.05651e-05 0.0003281 -2.10656e-07
-1.44986e-07 -2.10656e-07 0.0003128

0.00032082 -3.57892e-05 8.37966e-08
-3.57892e-05 0.000258388 4.95015e-08
8.37966e-08 4.95015e-08 0.000291783

0.000243063 -1.06066e-05 -1.05849e-07
-1.06066e-05 0.000293391 -6.50702e-08
-1.05849e-07 -6.50702e-08 0.000273194

0.00024828 -1.09772e-05 7.77895e-08
-1.09772e-05 0.000295094 5.25762e-08
7.77895e-08 5.25762e-08 0.000272493

0.000318456 -2.9954e-06 4.26488e-09
-2.9954e-06 0.000209367 -6.6452e-08
4.26488e-09 -6.6452e-08 0.000271906

0.000319931 2.91749e-06 -1.3469e-08
2.91749e-06 0.000208765 2.06925e-08
-1.3469e-08 2.06925e-08 0.000272701

0.000218706 2.82451e-05 -1.12278e-07
2.82451e-05 0.00020095 -1.64044e-07
-1.12278e-07 -1.64044e-07 0.000189783

0.000315428 -2.37452e-06 4.0509e-08
-2.37452e-06 0.000237029 8.54768e-08
4.0509e-08 8.54768e-08 0.000285428

0.000314916 1.96139e-06 9.21062e-08
1.96139e-06 0.000237574 2.68718e-08
9.21062e-08 2.68718e-08 0.000285593

0.000292955 1.03749e-05 1.89273e-08
1.03749e-05 0.00022182 1.06152e-07
1.89273e-08 1.06152e-07 0.000250946

0.000216273 -3.24966e-05 -4.1735e-08
-3.24966e-05 0.000260345 7.06616e-09
-4.1735e-08 7.06616e-09 0.00023075

0.000318431 -9.86284e-07 3.47694e-08
-9.86284e-07 0.000230833 9.14833e-08
3.47694e-08 9.14833e-08 0.000274317

0.000319831 1.21498e-06 2.68141e-09
1.21498e-06 0.000230472 -6.79057e-08
2.68141e-09 -6.79057e-08 0.000275192

0.000286342 -2.52322e-05 9.51743e-08
-2.52322e-05 0.000221704 -1.2656e-07
9.51743e-08 -1.2656e-07 0.000256305

0.000243103 4.59043e-05 -7.88044e-08
4.59043e-05 0.000289948 8.08122e-08
-7.88044e-08 8.08122e-08 0.000274949

0.000246091 3.47147e-05 -5.541e-08
3.47147e-05 0.000212335 -2.25172e-08
-5.541e-08 -2.25172e-08 0.000220798

0.000246766 3.65984e-05 -6.56237e-08
3.65984e-05 0.000268948 -4.36011e-08
-6.56237e-08 -4.36011e-08 0.000282764

0.000244598 4.55641e-05 -3.02108e-08
4.55641e-05 0.000297697 -5.31344e-08
-3.02108e-08 -5.31344e-08 0.000278331

0.000261014 -1.74e-05 5.53641e-08
-1.74e-05 0.000185089 1.576e-07
5.53641e-08 1.576e-07 0.000214468

0.000286621 -3.98945e-05 -3.19823e-08
-3.98945e-05 0.000237238 1.56088e-07
-3.19823e-08 1.56088e-07 0.000268955

0.00028272 2.42834e-05 1.65162e-07
2.42834e-05 0.000220919 9.75972e-08
1.65162e-07 9.75972e-08 0.000251583

0.000224384 4.02235e-05 9.18571e-09
4.02235e-05 0.000211283 -4.70581e-08
9.18571e-09 -4.70581e-08 0.000212338

0.000254042 4.18164e-05 -4.39199e-08
4.18164e-05 0.00021859 -1.34634e-08
-4.39199e-08 -1.34634e-08 0.000238715

0.000217949 3.97705e-06 1.8234e-08
3.97705e-06 0.000287742 8.35242e-08
1.8234e-08 8.35242e-08 0.000263644

0.000218609 1.35155e-06 -6.30383e-08
1.35155e-06 0.000287566 -8.7316e-08
-6.30383e-08 -8.7316e-08 0.000263578

0.000218819 2.89864e-05 -1.0752e-07
2.89864e-05 0.000168828 -4.72408e-08
-1.0752e-07 -4.72408e-08 0.000182228

0.000255326 -4.95752e-05 -1.54305e-07
-4.95752e-05 0.000265071 1.48343e-09
-1.54305e-07 1.48343e-09 0.00027866

0.0002143 -3.96107e-05 8.43187e-08
-3.96107e-05 0.000233462 -2.1764e-07
8.43187e-08 -2.1764e-07 0.000211575

0.000212143 3.99651e-05 3.58959e-08
3.99651e-05 0.00023474 3.09028e-07
3.58959e-08 3.09028e-07 0.000211107

0.000282398 -2.95609e-05 1.4789e-07
-2.95609e-05 0.00022169 -1.09103e-08
1.4789e-07 -1.09103e-08 0.000253662

0.000320595 -1.96759e-05 -8.31858e-08
-1.96759e-05 0.000216356 7.17352e-08
-8.31858e-08 7.17352e-08 0.000290232

0.000318533 1.99022e-05 -1.36135e-07
1.99022e-05 0.000219139 -4.51111e-08
-1.36135e-07 -4.51111e-08 0.000289135

0.000196218 2.19943e-05 -1.72988e-08
2.19943e-05 0.000245396 8.34358e-08
-1.72988e-08 8.34358e-08 0.00021779

0.000255433 -4.16928e-05 4.03947e-08
-4.16928e-05 0.000235316 2.45941e-08
4.03947e-08 2.45941e-08 0.000244545

0.000163804 -1.64367e-06 -1.37552e-07
-1.64367e-06 0.000232297 -2.40378e-08
-1.37552e-07 -2.40378e-08 0.000189325

0.000163383 6.04241e-07 -5.1824e-08
6.04241e-07 0.000232279 3.03691e-08
-5.1824e-08 3.03691e-08 0.000189197

0.000241924 2.38513e-06 3.80932e-08
2.38513e-06 0.000155627 -3.61302e-08
3.80932e-08 -3.61302e-08 0.000185543

0.000215748 -2.90704e-05 8.91734e-09
-2.90704e-05 0.000202465 -5.58671e-08
8.91734e-09 -5.58671e-08 0.000188582

0.000229249 3.5353e-05 7.94334e-08
3.5353e-05 0.000204981 1.67003e-08
7.94334e-08 1.67003e-08 0.000210525

0.000335836 -7.20263e-05 -3.67295e-07
-7.20263e-05 0.000364899 -1.4016e-07
-3.67295e-07 -1.4016e-07 0.000317235

0.00035237 3.12179e-05 -5.25895e-07
3.12179e-05 0.000372175 2.34965e-08
-5.25895e-07 2.34965e-08 0.000317705

0.000262641 1.58441e-05 -2.50601e-08
1.58441e-05 0.000186105 -1.33361e-07
-2.50601e-08 -1.33361e-07 0.000216011

0.00023089 4.38235e-05 -5.18022e-08
4.38235e-05 0.000283443 1.28403e-07
-5.18022e-08 1.28403e-07 0.000258853

0.000314437 7.38394e-07 2.14763e-08
7.38394e-07 0.000206057 -7.90302e-08
2.14763e-08 -7.90302e-08 0.000260048

0.000196 -2.11469e-05 5.56022e-08
-2.11469e-05 0.000246812 -1.41018e-07
5.56022e-08 -1.41018e-07 0.000218625

0.000221981 4.39062e-05 -1.26822e-07
4.39062e-05 0.000304983 1.02688e-09
-1.26822e-07 1.02688e-09 0.000290715

0.000252604 3.56876e-05 -2.8895e-08
3.56876e-05 0.000302886 -5.59884e-08
-2.8895e-08 -5.59884e-08 0.000287426

0.000243173 -4.5136e-05 -1.27546e-07
-4.5136e-05 0.000289408 -1.17122e-08
-1.27546e-07 -1.17122e-08 0.000275097

0.000242169 4.58434e-05 -1.14225e-07
4.58434e-05 0.000301552 -4.63647e-08
-1.14225e-07 -4.63647e-08 0.000279301

0.000230418 3.49047e-05 -3.46262e-08
3.49047e-05 0.000264594 4.21574e-08
-3.46262e-08 4.21574e-08 0.000262066

0.000336223 3.01201e-07 5.86894e-08
3.01201e-07 0.000204622 -1.47838e-07
5.86894e-08 -1.47838e-07 0.000277813

0.000230572 -3.47698e-05 1.30704e-07
-3.47698e-05 0.000202942 -1.44106e-07
1.30704e-07 -1.44106e-07 0.00020881

0.000246392 -3.68424e-05 -1.72737e-07
-3.68424e-05 0.000268958 5.67035e-08
-1.72737e-07 5.67035e-08 0.000283219

0.000229448 -3.02116e-05 1.31812e-07
-3.02116e-05 0.000232265 -1.5582e-07
1.31812e-07 -1.5582e-07 0.000218166

0.000202877 -2.88373e-05 4.47306e-08
-2.88373e-05 0.000203876 -4.07524e-09
4.47306e-08 -4.07524e-09 0.000188717

0.000251273 -4.34818e-05 9.25698e-08
-4.34818e-05 0.000249646 -5.23695e-08
9.25698e-08 -5.23695e-08 0.000259619

0.000189977 -1.76267e-05 8.68324e-08
-1.76267e-05 0.000242013 -1.51825e-07
8.68324e-08 -1.51825e-07 0.000201276

0.000189987 1.67391e-05 2.98198e-08
1.67391e-05 0.000241936 7.42244e-08
2.98198e-08 7.42244e-08 0.000200993

0.000242335 9.85626e-06 -6.52961e-09
9.85626e-06 0.000184378 -1.27089e-07
-6.52961e-09 -1.27089e-07 0.000196586

0.000228608 3.10907e-05 9.3386e-08
3.10907e-05 0.000231945 2.39039e-07
9.3386e-08 2.39039e-07 0.000218032

0.000218229 5.46833e-06 -6.6573e-08
5.46833e-06 0.000275177 -1.63008e-08
-6.6573e-08 -1.63008e-08 0.000241124

0.000218489 -1.11431e-06 2.6635e-08
-1.11431e-06 0.000274473 -8.51993e-08
2.6635e-08 -8.51993e-08 0.000240978

0.000186943 -3.40394e-05 3.86915e-08
-3.40394e-05 0.000204233 -4.17435e-08
3.86915e-08 -4.17435e-08 0.000182604

0.000187966 3.42663e-05 -1.18292e-07
3.42663e-05 0.000203359 -1.6081e-07
-1.18292e-07 -1.6081e-07 0.000182007

0.000336864 2.69234e-06 1.19934e-07
2.69234e-06 0.000210759 -4.70136e-08
1.19934e-07 -4.70136e-08 0.000278256

0.000337424 -2.41913e-06 -5.44108e-08
-2.41913e-06 0.00021019 2.8774e-08
-5.44108e-08 2.8774e-08 0.000278536

0.000234983 4.01454e-05 -2.50726e-08
4.01454e-05 0.000285877 1.1671e-07
-2.50726e-08 1.1671e-07 0.000262371

0.00021784 -3.91882e-05 5.2123e-08
-3.91882e-05 0.000302334 -7.44308e-08
5.2123e-08 -7.44308e-08 0.000290204

0.00027486 4.32922e-05 2.98619e-08
4.32922e-05 0.000247787 1.30198e-07
2.98619e-08 1.30198e-07 0.000268945

0.000208609 2.02486e-05 3.24334e-08
2.02486e-05 0.000154915 -8.36005e-08
3.24334e-08 -8.36005e-08 0.000171637

0.000195301 2.66968e-05 -6.71638e-08
2.66968e-05 0.000258466 -1.68904e-07
-6.71638e-08 -1.68904e-07 0.000219019

0.000296535 2.58391e-06 -1.44969e-07
2.58391e-06 0.000271011 2.19242e-07
-1.44969e-07 2.19242e-07 0.000289072

0.000295921 -2.62452e-06 9.74744e-08
-2.62452e-06 0.000271318 -4.54894e-08
9.74744e-08 -4.54894e-08 0.000288926

0.000259549 2.55104e-05 7.55768e-08
2.55104e-05 0.000242073 3.52539e-08
7.55768e-08 3.52539e-08 0.000244173

0.000284303 -1.5881e-05 -4.0988e-08
-1.5881e-05 0.000256173 -1.62988e-07
-4.0988e-08 -1.62988e-07 0.000267565

0.000284114 1.6009e-05 -1.60589e-07
1.6009e-05 0.000256338 -9.79613e-08
-1.60589e-07 -9.79613e-08 0.000267725

0.0001348 -1.6392e-05 -1.08233e-08
-1.6392e-05 9.80575e-05 2.73523e-08
-1.08233e-08 2.73523e-08 0.000141609

8.95968e-05 2.03201e-05 8.39004e-08
2.03201e-05 0.00012661 1.6006e-08
8.39004e-08 1.6006e-08 0.000140731

0.000193924 -2.63466e-05 3.69613e-08
-2.63466e-05 0.000259045 -4.15324e-09
3.69613e-08 -4.15324e-09 0.000219649

0.000325737 -6.02248e-06 -7.63957e-08
-6.02248e-06 0.000306825 1.05815e-07
-7.63957e-08 1.05815e-07 0.000310438

0.000326279 6.89438e-06 -5.46099e-08
6.89438e-06 0.000306825 1.69263e-07
-5.46099e-08 1.69263e-07 0.000310535

0.000210913 1.73725e-05 -2.71956e-09
1.73725e-05 0.000152583 1.66259e-08
-2.71956e-09 1.66259e-08 0.000171494

0.000223017 -2.16656e-05 1.18821e-07
-2.16656e-05 0.000287339 4.77785e-08
1.18821e-07 4.77785e-08 0.000266908

0.000227267 -2.13919e-05 -1.50563e-07
-2.13919e-05 0.000289934 -5.84531e-08
-1.50563e-07 -5.84531e-08 0.000265362

0.000222084 -4.26675e-05 2.25643e-08
-4.26675e-05 0.000213801 1.28068e-08
2.25643e-08 1.28068e-08 0.000209838

0.000242792 -4.66573e-05 -1.41949e-07
-4.66573e-05 0.000301618 3.05658e-08
-1.41949e-07 3.05658e-08 0.000279148

0.00021836 5.49175e-05 -4.2389e-08
5.49175e-05 0.000279421 -7.91657e-08
-4.2389e-08 -7.91657e-08 0.000282449

0.000286051 2.48272e-05 -9.98502e-08
2.48272e-05 0.000304163 -5.1349e-08
-9.98502e-08 -5.1349e-08 0.00029517

0.000273698 3.48822e-05 2.16969e-07
3.48822e-05 0.000305942 -2.14541e-08
2.16969e-07 -2.14541e-08 0.00029715

0.000236029 -4.0437e-05 -1.79002e-08
-4.0437e-05 0.000286348 -7.66779e-08
-1.79002e-08 -7.66779e-08 0.000262972

0.000250572 4.26824e-05 2.57828e-08
4.26824e-05 0.000257192 2.20683e-08
2.57828e-08 2.20683e-08 0.000265476

0.00025855 -2.59851e-05 -1.61854e-07
-2.59851e-05 0.000242559 -2.40008e-08
-1.61854e-07 -2.40008e-08 0.000244329

0.0002464 3.18515e-05 -8.4297e-08
3.18515e-05 0.000184629 -1.37525e-07
-8.4297e-08 -1.37525e-07 0.000208712

0.00028334 -6.60109e-07 -1.42457e-07
-6.60109e-07 0.000196725 4.93364e-08
-1.42457e-07 4.93364e-08 0.000230609

0.000240363 4.83441e-05 -1.06053e-07
4.83441e-05 0.000298237 -6.00215e-08
-1.06053e-07 -6.00215e-08 0.000278513

0.000219224 -2.92874e-05 -9.80323e-08
-2.92874e-05 0.000262483 -5.64652e-08
-9.80323e-08 -5.64652e-08 0.000249153

0.000201555 1.06919e-05 4.6089e-08
1.06919e-05 0.000266647 -9.57507e-08
4.6089e-08 -9.57507e-08 0.000234245

0.000254151 2.95314e-05 -9.04594e-08
2.95314e-05 0.000253044 -1.08139e-07
-9.04594e-08 -1.08139e-07 0.00025823

0.000204457 1.29315e-05 -1.44975e-07
1.29315e-05 0.000271202 2.06183e-08
-1.44975e-07 2.06183e-08 0.000234942

0.000253574 -3.72013e-05 -1.71804e-07
-3.72013e-05 0.000303651 9.21074e-08
-1.71804e-07 9.21074e-08 0.000286263

0.000153263 -2.12936e-05 -1.50341e-07
-2.12936e-05 0.000158191 1.0708e-07
-1.50341e-07 1.0708e-07 0.000148088

0.000171924 -2.07076e-05 -2.083e-07
-2.07076e-05 0.000140027 4.80515e-08
-2.083e-07 4.80515e-08 0.000147763

0.000291785 -8.17503e-06 5.6527e-08
-8.17503e-06 0.000202636 -6.74007e-08
5.6527e-08 -6.74007e-08 0.000248246

0.000253429 -2.97983e-05 -5.06624e-09
-2.97983e-05 0.000252796 -1.57798e-07
-5.06624e-09 -1.57798e-07 0.000258145

0.000378535 -4.01785e-05 7.32448e-07
-4.01785e-05 0.000307348 8.62269e-08
7.32448e-07 8.62269e-08 0.000317577

0.000378535 3.80705e-05 -4.18075e-07
3.80705e-05 0.000310277 -9.02977e-08
-4.18075e-07 -9.02977e-08 0.000317773

0.000232253 -4.3221e-05 9.64968e-08
-4.3221e-05 0.000284529 -2.08158e-08
9.64968e-08 -2.08158e-08 0.00026034

0.000322537 -3.69567e-05 -3.79373e-08
-3.69567e-05 0.00032261 8.70811e-08
-3.79373e-08 8.70811e-08 0.000304975

0.000322415 3.8184e-05 1.34542e-07
3.8184e-05 0.00032189 8.20976e-08
1.34542e-07 8.20976e-08 0.000304896

0.000287179 8.59475e-06 -1.14015e-07
8.59475e-06 0.000211791 6.92608e-08
-1.14015e-07 6.92608e-08 0.000260124

0.00021745 -5.48078e-05 -1.40172e-07
-5.48078e-05 0.000278589 1.04513e-07
-1.40172e-07 1.04513e-07 0.00028246

0.000163354 -2.4863e-05 -3.29343e-08
-2.4863e-05 0.000161342 1.04015e-07
-3.29343e-08 1.04015e-07 0.000154107

0.000172832 2.48344e-05 -7.25966e-08
2.48344e-05 0.000155421 -8.85048e-08
-7.25966e-08 -8.85048e-08 0.000156266

0.000162004 -1.84064e-05 -2.58715e-08
-1.84064e-05 0.000197282 2.05488e-08
-2.58715e-08 2.05488e-08 0.000166307

0.000156529 1.72674e-05 5.29362e-08
1.72674e-05 0.00019762 -1.14743e-08
5.29362e-08 -1.14743e-08 0.000165141

0.000202196 1.03491e-05 4.18996e-08
1.03491e-05 0.000148683 8.85443e-08
4.18996e-08 8.85443e-08 0.000163668

0.00024128 -4.88029e-05 -7.62334e-08
-4.88029e-05 0.000298645 1.37901e-07
-7.62334e-08 1.37901e-07 0.000278217

0.000139069 5.34245e-06 -3.09186e-08
5.34245e-06 0.000186474 -1.2083e-07
-3.09186e-08 -1.2083e-07 0.000156498

0.000192772 -5.85218e-06 1.2116e-07
-5.85218e-06 0.000133156 7.67243e-09
1.2116e-07 7.67243e-09 0.000154756

0.000277558 -1.53341e-05 3.63882e-08
-1.53341e-05 0.000339083 3.02319e-07
3.63882e-08 3.02319e-07 0.000305749

0.00030083 -1.02028e-06 7.33513e-08
-1.02028e-06 0.000318453 1.49531e-07
7.33513e-08 1.49531e-07 0.000304661

0.000301508 2.46894e-05 -1.24849e-08
2.46894e-05 0.000243123 -2.9882e-08
-1.24849e-08 -2.9882e-08 0.000274279

0.000308739 -1.74977e-06 3.66201e-08
-1.74977e-06 0.000192136 -4.6975e-08
3.66201e-08 -4.6975e-08 0.000281137

0.000185325 2.45469e-05 -7.58445e-08
2.45469e-05 0.000229888 2.01561e-07
-7.58445e-08 2.01561e-07 0.000195824

0.000184999 -2.54657e-05 5.34678e-08
-2.54657e-05 0.000230385 -1.91704e-07
5.34678e-08 -1.91704e-07 0.00019624

0.000291958 -4.58109e-06 -1.0362e-07
-4.58109e-06 0.000213252 1.25273e-08
-1.0362e-07 1.25273e-08 0.000261506

0.000216206 -3.26055e-05 -4.75406e-08
-3.26055e-05 0.000277735 9.16085e-08
-4.75406e-08 9.16085e-08 0.000248079

0.000320751 3.39764e-06 -4.22355e-08
3.39764e-06 0.000291547 6.55585e-08
-4.22355e-08 6.55585e-08 0.000304366

0.000320472 -3.01114e-06 6.44036e-08
-3.01114e-06 0.000291543 3.09514e-07
6.44036e-08 3.09514e-07 0.000304426

0.000281597 3.58784e-05 1.72822e-07
3.58784e-05 0.00025566 2.3085e-09
1.72822e-07 2.3085e-09 0.000271436

0.000251682 -4.17403e-05 7.47512e-08
-4.17403e-05 0.000256982 -1.35933e-07
7.47512e-08 -1.35933e-07 0.000265619

0.000301205 2.17633e-05 -7.54534e-09
2.17633e-05 0.000215007 2.06737e-08
-7.54534e-09 2.06737e-08 0.000268846

0.000212833 3.33066e-05 1.32982e-08
3.33066e-05 0.00018693 -1.15852e-07
1.32982e-08 -1.15852e-07 0.000188387

0.000230812 -3.61859e-05 2.86078e-08
-3.61859e-05 0.000266147 -1.56604e-07
2.86078e-08 -1.56604e-07 0.00026275

0.000131494 5.6329e-05 2.2923e-08
5.6329e-05 0.000119131 -1.69648e-07
2.2923e-08 -1.69648e-07 0.000130625

0.000203281 -7.8208e-06 1.35939e-07
-7.8208e-06 0.00026655 7.02222e-08
1.35939e-07 7.02222e-08 0.000234615

0.000205097 -1.17769e-05 -4.42812e-09
-1.17769e-05 0.000268623 -9.61406e-08
-4.42812e-09 -9.61406e-08 0.000234309

0.0002818 1.63904e-05 -1.03954e-07
1.63904e-05 0.000340083 2.00785e-07
-1.03954e-07 2.00785e-07 0.000307048

0.000290568 -2.41261e-05 1.57298e-07
-2.41261e-05 0.000332573 1.81279e-07
1.57298e-07 1.81279e-07 0.000306824

0.000336697 -1.27199e-06 1.11666e-08
-1.27199e-06 0.000221444 9.56401e-08
1.11666e-08 9.56401e-08 0.000287333

0.000336413 1.1584e-06 -1.8045e-08
1.1584e-06 0.000221126 7.57742e-08
-1.8045e-08 7.57742e-08 0.00028753

0.000294643 -4.82392e-05 -4.56093e-08
-4.82392e-05 0.000269691 -7.05685e-08
-4.56093e-08 -7.05685e-08 0.000287426

0.000297064 4.77241e-05 -6.71194e-08
4.77241e-05 0.000263095 -1.03392e-07
-6.71194e-08 -1.03392e-07 0.000285494

0.000332355 -1.79883e-05 -4.8195e-08
-1.79883e-05 0.000306369 4.34565e-08
-4.8195e-08 4.34565e-08 0.000302555

0.000332769 1.77436e-05 1.46886e-07
1.77436e-05 0.000306589 2.91132e-08
1.46886e-07 2.91132e-08 0.000302408

0.000342732 -1.52396e-05 -4.28017e-07
-1.52396e-05 0.000310389 1.83426e-08
-4.28017e-07 1.83426e-08 0.000315397

0.000341777 1.67581e-05 -1.22274e-07
1.67581e-05 0.000312896 -1.07601e-07
-1.22274e-07 -1.07601e-07 0.000315656

0.000254433 -4.6298e-05 8.60088e-08
-4.6298e-05 0.000301 -1.54009e-08
8.60088e-08 -1.54009e-08 0.00028801

0.000254921 4.547e-05 6.0092e-08
4.547e-05 0.000300783 -8.35875e-09
6.0092e-08 -8.35875e-09 0.000288397

0.000261028 -2.37749e-05 -1.59282e-07
-2.37749e-05 0.000218839 -1.34256e-08
-1.59282e-07 -1.34256e-08 0.000239537

0.000223759 -2.02246e-05 1.23719e-07
-2.02246e-05 0.000272005 8.15027e-08
1.23719e-07 8.15027e-08 0.000250783

0.000238006 3.86633e-05 -1.07189e-07
3.86633e-05 0.000238027 6.82356e-08
-1.07189e-07 6.82356e-08 0.000235086

0.000225293 -2.8003e-05 -1.33078e-07
-2.8003e-05 0.000280039 4.36527e-08
-1.33078e-07 4.36527e-08 0.000249845

0.000213184 -2.9948e-05 3.11223e-08
-2.9948e-05 0.000190276 -1.83089e-08
3.11223e-08 -1.83089e-08 0.000186393

0.000261451 2.3597e-05 6.19515e-08
2.3597e-05 0.000218303 9.90222e-08
6.19515e-08 9.90222e-08 0.000238988

0.000224365 1.99818e-05 1.38047e-07
1.99818e-05 0.000270326 -5.2083e-08
1.38047e-07 -5.2083e-08 0.000249704

0.000258354 -5.688e-05 5.87314e-08
-5.688e-05 0.00028072 -1.85301e-08
5.87314e-08 -1.85301e-08 0.000290801

0.000258634 5.67126e-05 2.51066e-08
5.67126e-05 0.000280573 -1.46571e-08
2.51066e-08 -1.46571e-08 0.00029075

0.000304308 -2.22373e-05 -3.05908e-08
-2.22373e-05 0.000247485 1.5658e-07
-3.05908e-08 1.5658e-07 0.000278285

0.00034844 -4.18541e-05 1.29027e-07
-4.18541e-05 0.000385092 -2.50484e-07
1.29027e-07 -2.50484e-07 0.000316759

0.000346614 4.34905e-05 8.39775e-08
4.34905e-05 0.000318061 -7.51385e-08
8.39775e-08 -7.51385e-08 0.000317188

0.000250267 -3.2508e-05 2.09995e-09
-3.2508e-05 0.000294394 -1.62636e-07
2.09995e-09 -1.62636e-07 0.000273827

0.00028249 4.10759e-05 1.65776e-07
4.10759e-05 0.000233964 -9.24398e-08
1.65776e-07 -9.24398e-08 0.00026493

0.000322582 2.58494e-06 -1.50148e-07
2.58494e-06 0.000278355 -1.20205e-08
-1.50148e-07 -1.20205e-08 0.000296437

0.000237063 -3.77923e-05 -3.47875e-08
-3.77923e-05 0.000239735 -6.64483e-09
-3.47875e-08 -6.64483e-09 0.00023522

0.000158124 2.42683e-05 6.78383e-08
2.42683e-05 0.000167039 1.46287e-07
6.78383e-08 1.46287e-07 0.00015056

0.000171898 2.36436e-05 1.17249e-07
2.36436e-05 0.000147592 8.52924e-08
1.17249e-07 8.52924e-08 0.000150642

0.00033623 4.63428e-06 3.39127e-09
4.63428e-06 0.000236834 8.59854e-08
3.39127e-09 8.59854e-08 0.000292095

0.000335265 -4.97016e-06 2.79713e-08
-4.97016e-06 0.000236676 2.30513e-08
2.79713e-08 2.30513e-08 0.000292096

0.000324237 -3.99958e-06 -1.10219e-07
-3.99958e-06 0.00028106 -2.10628e-08
-1.10219e-07 -2.10628e-08 0.000297062

0.000227156 2.6626e-05 3.85332e-08
2.6626e-05 0.000279007 1.57391e-07
3.85332e-08 1.57391e-07 0.000249462

0.000261055 -1.88338e-05 6.12207e-08
-1.88338e-05 0.000211109 -1.85532e-07
6.12207e-08 -1.85532e-07 0.000221071

0.000273581 -2.27194e-05 -1.1911e-07
-2.27194e-05 0.000286073 1.7744e-07
-1.1911e-07 1.7744e-07 0.000281143

0.000272569 2.31672e-05 1.7249e-07
2.31672e-05 0.000286387 -6.02952e-08
1.7249e-07 -6.02952e-08 0.000281292

0.00037176 -4.2363e-06 1.59043e-08
-4.2363e-06 0.000403425 3.34476e-07
1.59043e-08 3.34476e-07 0.000314345

0.000369795 1.31153e-06 -5.45254e-08
1.31153e-06 0.000402055 2.36141e-07
-5.45254e-08 2.36141e-07 0.000314468

0.000233399 -3.92799e-05 7.73034e-08
-3.92799e-05 0.000291676 -1.32315e-07
7.73034e-08 -1.32315e-07 0.00027057

0.000277813 3.13343e-05 2.16532e-07
3.13343e-05 0.0002211 -5.06774e-08
2.16532e-07 -5.06774e-08 0.000249455

0.000315177 -3.99479e-06 9.35248e-08
-3.99479e-06 0.000263895 -3.46186e-08
9.35248e-08 -3.46186e-08 0.000290489

0.000315722 4.37709e-06 3.60266e-08
4.37709e-06 0.000263471 -1.11585e-07
3.60266e-08 -1.11585e-07 0.000290402

0.000237455 -2.47823e-05 6.64906e-09
-2.47823e-05 0.000284692 1.25775e-07
6.64906e-09 1.25775e-07 0.000276614

0.000234647 -3.94504e-05 1.5151e-07
-3.94504e-05 0.000272938 5.54688e-08
1.5151e-07 5.54688e-08 0.000281608

0.000129219 -5.78598e-05 -2.05771e-08
-5.78598e-05 0.000131617 4.03286e-08
-2.05771e-08 4.03286e-08 0.000131733

0.000271538 -3.77528e-05 9.38383e-08
-3.77528e-05 0.000304045 5.27409e-08
9.38383e-08 5.27409e-08 0.00029509

0.000271621 3.79612e-05 -3.40599e-09
3.79612e-05 0.000303417 4.27788e-08
-3.40599e-09 4.27788e-08 0.000294864

0.000229927 -3.81133e-05 7.70713e-08
-3.81133e-05 0.000276941 1.48278e-07
7.70713e-08 1.48278e-07 0.000274085

0.000263259 1.99776e-05 -3.38159e-09
1.99776e-05 0.000211845 4.99359e-08
-3.38159e-09 4.99359e-08 0.000222395

0.000286114 -3.59195e-05 -1.82691e-08
-3.59195e-05 0.000257098 -8.8707e-08
-1.82691e-08 -8.8707e-08 0.000274068

0.000299461 -3.91235e-05 1.21364e-08
-3.91235e-05 0.000269959 1.47109e-07
1.21364e-08 1.47109e-07 0.000289125

0.000301851 3.88729e-05 -8.39632e-08
3.88729e-05 0.000268294 -4.65185e-08
-8.39632e-08 -4.65185e-08 0.000288658

0.000304309 -2.24699e-05 -3.00082e-08
-2.24699e-05 0.000216954 -7.86255e-08
-3.00082e-08 -7.86255e-08 0.000272704

0.000332896 9.78067e-06 2.29529e-08
9.78067e-06 0.000268043 -1.12424e-08
2.29529e-08 -1.12424e-08 0.000300801

0.000332146 -9.49665e-06 2.58126e-08
-9.49665e-06 0.000268747 1.23209e-08
2.58126e-08 1.23209e-08 0.000300707

0.000300758 -1.55024e-05 -2.49615e-08
-1.55024e-05 0.000380753 -9.40748e-08
-2.49615e-08 -9.40748e-08 0.000314642

0.000313704 3.29866e-05 -7.31379e-08
3.29866e-05 0.000373352 8.4446e-08
-7.31379e-08 8.4446e-08 0.000314857

0.000142036 4.54399e-06 9.83165e-08
4.54399e-06 8.4748e-05 2.47288e-08
9.83165e-08 2.47288e-08 0.000140723

0.00010228 9.13652e-06 1.28291e-07
9.13652e-06 0.000130276 1.10844e-07
1.28291e-07 1.10844e-07 0.000141021

0.000253747 3.65151e-05 5.05142e-08
3.65151e-05 0.000297643 -6.36662e-08
5.05142e-08 -6.36662e-08 0.000278689

0.000252168 -3.64764e-05 -5.22687e-08
-3.64764e-05 0.000297265 7.81579e-08
-5.22687e-08 7.81579e-08 0.000278455

0.000240968 -4.68006e-05 -1.25333e-07
-4.68006e-05 0.000298089 1.44793e-07
-1.25333e-07 1.44793e-07 0.000277331

0.00012329 -2.44819e-05 -2.48064e-08
-2.44819e-05 0.000118988 8.71346e-08
-2.48064e-08 8.71346e-08 0.00013816

0.000128373 -2.02411e-05 7.99232e-08
-2.02411e-05 0.000119894 2.46431e-08
7.99232e-08 2.46431e-08 0.000138481

0.000311218 3.25288e-05 3.17342e-07
3.25288e-05 0.000375907 -7.58417e-07
3.17342e-07 -7.58417e-07 0.000318538

0.000311218 -3.44243e-05 -1.03216e-07
-3.44243e-05 0.000373364 -6.72966e-07
-1.03216e-07 -6.72966e-07 0.000318497

0.000276411 -4.4554e-05 3.42659e-08
-4.4554e-05 0.000249427 -4.38958e-08
3.42659e-08 -4.38958e-08 0.000270354

0.000234044 -3.54039e-05 3.01366e-08
-3.54039e-05 0.000256705 1.04259e-07
3.01366e-08 1.04259e-07 0.000241523

0.000253768 3.51239e-05 6.01967e-08
3.51239e-05 0.000279036 -1.91726e-09
6.01967e-08 -1.91726e-09 0.000273947

0.000252298 -3.52136e-05 -7.39943e-08
-3.52136e-05 0.000278832 2.00918e-07
-7.39943e-08 2.00918e-07 0.000273843

0.000235914 -4.20014e-05 1.35155e-08
-4.20014e-05 0.000270946 1.26367e-07
1.35155e-08 1.26367e-07 0.000255517

0.000234565 3.6445e-05 2.31465e-08
3.6445e-05 0.000255916 -1.56581e-07
2.31465e-08 -1.56581e-07 0.000241308

0.000160681 -1.3131e-05 -1.3187e-07
-1.3131e-05 0.000198721 6.33105e-09
-1.3187e-07 6.33105e-09 0.000167993

0.000160113 1.13305e-05 -4.83814e-08
1.13305e-05 0.000200532 1.5547e-08
-4.83814e-08 1.5547e-08 0.000167162

0.00020211 9.92255e-06 6.99254e-08
9.92255e-06 0.0001544 -3.99016e-08
6.99254e-08 -3.99016e-08 0.000165533

0.000234914 4.17434e-05 2.47028e-08
4.17434e-05 0.000270508 -1.54333e-07
2.47028e-08 -1.54333e-07 0.000255232

0.000142619 -5.96799e-06 7.7712e-08
-5.96799e-06 0.000183428 1.3903e-07
7.7712e-08 1.3903e-07 0.000155144

0.000190636 -3.8614e-06 1.19515e-07
-3.8614e-06 0.000131724 1.12772e-07
1.19515e-07 1.12772e-07 0.000155405

0.000265012 -3.41731e-05 -3.09432e-08
-3.41731e-05 0.00029571 7.36364e-08
-3.09432e-08 7.36364e-08 0.000288249

0.00026499 3.37138e-05 1.31594e-07
3.37138e-05 0.00029614 -4.79946e-08
1.31594e-07 -4.79946e-08 0.000288526

0.000270069 -2.53085e-05 -3.13081e-08
-2.53085e-05 0.000297296 7.2391e-08
-3.13081e-08 7.2391e-08 0.000290489

0.000269457 2.584e-05 1.44633e-07
2.584e-05 0.000297042 -9.32006e-08
1.44633e-07 -9.32006e-08 0.000290669

0.000126326 2.19108e-05 3.45904e-08
2.19108e-05 0.000112795 -1.53361e-08
3.45904e-08 -1.53361e-08 0.000136545

0.000124627 2.19566e-05 -4.96728e-08
2.19566e-05 0.000113694 -1.75437e-07
-4.96728e-08 -1.75437e-07 0.000135815

0.000253243 3.22171e-05 -9.02554e-08
3.22171e-05 0.000275133 -1.0992e-07
-9.02554e-08 -1.0992e-07 0.000263067

0.000252533 -3.29184e-05 2.49918e-08
-3.29184e-05 0.00027546 1.30751e-07
2.49918e-08 1.30751e-07 0.00026303

0.000296699 -3.13245e-05 3.87836e-08
-3.13245e-05 0.00034088 3.02181e-07
3.87836e-08 3.02181e-07 0.000309308

0.000309049 1.39618e-05 -6.14048e-08
1.39618e-05 0.000316681 1.57379e-07
-6.14048e-08 1.57379e-07 0.000309173

0.000260414 -3.55139e-05 6.17249e-08
-3.55139e-05 0.000313753 -8.48852e-08
6.17249e-08 -8.48852e-08 0.000293753

0.000260254 3.52173e-05 9.2593e-08
3.52173e-05 0.000312812 -1.09833e-07
9.2593e-08 -1.09833e-07 0.000293882

0.000320902 2.55779e-06 -5.54076e-08
2.55779e-06 0.000263724 -5.44909e-08
-5.54076e-08 -5.44909e-08 0.000300486

0.000320608 -2.12218e-06 1.01672e-07
-2.12218e-06 0.000264122 -2.95474e-08
1.01672e-07 -2.95474e-08 0.000300486

0.000266264 -3.95456e-05 -6.07431e-08
-3.95456e-05 0.000269954 1.46029e-07
-6.07431e-08 1.46029e-07 0.000280277

0.000268113 4.09199e-05 -5.36851e-08
4.09199e-05 0.0002682 -4.74428e-08
-5.36851e-08 -4.74428e-08 0.00027967

0.000342655 9.62311e-06 1.02247e-07
9.62311e-06 0.000291399 6.92508e-08
1.02247e-07 6.92508e-08 0.000309226

0.000339127 2.01715e-06 1.33586e-08
2.01715e-06 0.000308497 1.51509e-07
1.33586e-08 1.51509e-07 0.000315114

0.000342832 -9.81223e-06 -5.10728e-10
-9.81223e-06 0.000291717 6.23374e-09
-5.10728e-10 6.23374e-09 0.000309339

0.000339817 -2.59569e-06 1.79265e-07
-2.59569e-06 0.000307655 1.72598e-07
1.79265e-07 1.72598e-07 0.000315095

0.000300097 1.25909e-06 9.68689e-08
1.25909e-06 0.000343122 -7.84847e-08
9.68689e-08 -7.84847e-08 0.00031065

0.000352295 3.84395e-05 5.38988e-08
3.84395e-05 0.000325669 -3.38856e-08
5.38988e-08 -3.38856e-08 0.000308721

0.000355631 -4.00671e-05 -8.7204e-08
-4.00671e-05 0.000325706 7.02122e-08
-8.7204e-08 7.02122e-08 0.000308669

0.000278184 -2.04148e-05 9.24232e-08
-2.04148e-05 0.000378696 -2.4098e-07
9.24232e-08 -2.4098e-07 0.000311251

0.000311299 -1.76231e-05 -4.17647e-07
-1.76231e-05 0.000322566 6.68096e-07
-4.17647e-07 6.68096e-07 0.000312978

0.000462499 -2.79182e-05 2.80607e-07
-2.79182e-05 0.000247157 -3.95656e-07
2.80607e-07 -3.95656e-07 0.000319045

0.000308356 1.80501e-05 3.2934e-07
1.80501e-05 0.000326044 5.05322e-07
3.2934e-07 5.05322e-07 0.000313442

0.000457586 2.77019e-05 3.27464e-06
2.77019e-05 0.000252592 -2.00354e-06
3.27464e-06 -2.00354e-06 0.000319628

0.000325386 -2.55618e-05 -8.59824e-08
-2.55618e-05 0.000314267 1.65363e-07
-8.59824e-08 1.65363e-07 0.000310547

0.000292133 -1.82258e-05 2.41016e-07
-1.82258e-05 0.000319133 -5.11749e-08
2.41016e-07 -5.11749e-08 0.000303269

0.000336229 -8.15207e-07 -2.69878e-07
-8.15207e-07 0.000310947 -6.86215e-07
-2.69878e-07 -6.86215e-07 0.000316775

0.000324232 2.65024e-05 -1.4116e-07
2.65024e-05 0.000315193 -2.07856e-07
-1.4116e-07 -2.07856e-07 0.000310792

0.000293292 1.83641e-05 2.58234e-08
1.83641e-05 0.000317982 -9.72799e-08
2.58234e-08 -9.72799e-08 0.000303325

0.000334973 1.7427e-06 -1.42934e-07
1.7427e-06 0.000314156 -1.99646e-07
-1.42934e-07 -1.99646e-07 0.000317226

0.000291597 -1.46969e-05 2.51098e-07
-1.46969e-05 0.000313201 -1.74694e-07
2.51098e-07 -1.74694e-07 0.000305758

0.000325148 -8.13531e-06 -1.22514e-07
-8.13531e-06 0.000314034 -2.9105e-07
-1.22514e-07 -2.9105e-07 0.000311659

0.000292885 1.56476e-05 3.0745e-08
1.56476e-05 0.000312592 -3.69746e-08
3.0745e-08 -3.69746e-08 0.000305944

0.000325708 8.9567e-06 -3.29491e-08
8.9567e-06 0.000313576 -1.71383e-08
-3.29491e-08 -1.71383e-08 0.000311841

0.000217556 3.42922e-05 -6.67177e-08
3.42922e-05 0.00025673 -5.65308e-08
-6.67177e-08 -5.65308e-08 0.000226864

0.000232551 6.61387e-06 -2.8825e-08
6.61387e-06 0.000306313 -1.53955e-07
-2.8825e-08 -1.53955e-07 0.000273228

0.00026017 1.87192e-05 -2.98496e-08
1.87192e-05 0.000289029 1.00504e-07
-2.98496e-08 1.00504e-07 0.000271894

0.000278839 -2.27762e-05 1.28886e-07
-2.27762e-05 0.000203555 -1.47449e-07
1.28886e-07 -1.47449e-07 0.000247373

0.000266516 -1.37979e-05 2.69753e-09
-1.37979e-05 0.000197457 -7.94407e-08
2.69753e-09 -7.94407e-08 0.000230415

0.000231722 1.03632e-05 -3.84995e-08
1.03632e-05 0.000331294 -4.14358e-08
-3.84995e-08 -4.14358e-08 0.000289255

0.000260044 1.92198e-05 -1.16607e-08
1.92198e-05 0.00029439 -1.11061e-07
-1.16607e-08 -1.11061e-07 0.000288893

0.000266555 4.39848e-08 2.95758e-09
4.39848e-08 0.000201203 1.08441e-07
2.95758e-09 1.08441e-07 0.000231747

0.000298607 8.62911e-06 4.09615e-08
8.62911e-06 0.000218047 -1.31122e-07
4.09615e-08 -1.31122e-07 0.000280753

0.000173525 3.00646e-05 -9.38594e-08
3.00646e-05 0.000217103 5.39673e-08
-9.38594e-08 5.39673e-08 0.00018249

0.000162866 2.38136e-05 9.93273e-08
2.38136e-05 0.000216897 1.55726e-07
9.93273e-08 1.55726e-07 0.000181252

0.000209616 2.35109e-05 1.18719e-07
2.35109e-05 0.000167696 6.755e-08
1.18719e-07 6.755e-08 0.000178237

0.000285259 -3.59923e-05 -1.28633e-07
-3.59923e-05 0.000305221 1.2731e-08
-1.28633e-07 1.2731e-08 0.000294008

0.000277586 -1.48744e-05 -8.19971e-08
-1.48744e-05 0.000318065 1.63606e-08
-8.19971e-08 1.63606e-08 0.000294096

0.000251385 -4.17991e-05 -6.10672e-08
-4.17991e-05 0.000246328 2.16901e-08
-6.10672e-08 2.16901e-08 0.000250251

0.000217364 3.35576e-05 -5.9016e-08
3.35576e-05 0.000270421 4.45229e-08
-5.9016e-08 4.45229e-08 0.000244481

0.000238663 3.91682e-05 8.61349e-08
3.91682e-05 0.000287673 2.99397e-08
8.61349e-08 2.99397e-08 0.000269979

0.000258718 -1.88725e-05 6.38293e-08
-1.88725e-05 0.000294209 -1.04891e-07
6.38293e-08 -1.04891e-07 0.000288029

0.00023022 -1.23146e-05 -4.08869e-08
-1.23146e-05 0.000332489 -8.65584e-09
-4.08869e-08 -8.65584e-09 0.000287982

0.000288017 1.04597e-05 -8.27032e-08
1.04597e-05 0.000205939 -8.71989e-08
-8.27032e-08 -8.71989e-08 0.000249076

0.000187141 1.00373e-05 -6.43343e-08
1.00373e-05 0.000242915 -4.74426e-09
-6.43343e-08 -4.74426e-09 0.000196721

0.00017679 4.37613e-06 8.33616e-08
4.37613e-06 0.000243779 1.80171e-07
8.33616e-08 1.80171e-07 0.000197831

0.000239853 4.35394e-06 1.83128e-07
4.35394e-06 0.000179822 2.79856e-08
1.83128e-07 2.79856e-08 0.000192952

0.000205523 2.32203e-05 -1.87033e-08
2.32203e-05 0.000262707 -1.40468e-07
-1.87033e-08 -1.40468e-07 0.000229823

0.000216171 3.86412e-05 2.68745e-08
3.86412e-05 0.000248927 -1.58027e-07
2.68745e-08 -1.58027e-07 0.000225791

0.000276653 6.60218e-06 9.40856e-09
6.60218e-06 0.000204847 1.11041e-07
9.40856e-09 1.11041e-07 0.000250318

0.000165698 1.78571e-05 -2.53024e-08
1.78571e-05 0.000198896 1.83258e-07
-2.53024e-08 1.83258e-07 0.000162838

0.000299607 -2.40849e-05 -1.92398e-07
-2.40849e-05 0.000218046 -5.64862e-08
-1.92398e-07 -5.64862e-08 0.000273377

0.000277804 1.76235e-06 -7.18506e-08
1.76235e-06 0.000331018 -2.84724e-08
-7.18506e-08 -2.84724e-08 0.000295142

0.000296138 4.08145e-07 2.93067e-08
4.08145e-07 0.000303561 -1.26986e-07
2.93067e-08 -1.26986e-07 0.000295784

0.00038525 1.65149e-05 1.90165e-07
1.65149e-05 0.000294486 1.81513e-08
1.90165e-07 1.81513e-08 0.000313881

0.00038472 -4.01814e-05 1.25612e-08
-4.01814e-05 0.000318493 -1.60563e-07
1.25612e-08 -1.60563e-07 0.000311121

0.000239095 -4.39937e-05 -4.566e-08
-4.39937e-05 0.000251072 3.44016e-08
-4.566e-08 3.44016e-08 0.000247232

0.000208898 -3.55532e-05 1.00493e-07
-3.55532e-05 0.00024902 -2.11874e-08
1.00493e-07 -2.11874e-08 0.00022735

0.00023601 -1.19987e-05 -5.40771e-08
-1.19987e-05 0.00017004 -3.91352e-08
-5.40771e-08 -3.91352e-08 0.000192773

0.000321486 6.29892e-06 -6.42155e-09
6.29892e-06 0.000277901 8.94052e-08
-6.42155e-09 8.94052e-08 0.00029742

0.000321934 -2.29304e-05 -5.74393e-08
-2.29304e-05 0.000280193 -1.74292e-07
-5.74393e-08 -1.74292e-07 0.000294262

0.000299474 -1.04884e-05 5.2393e-08
-1.04884e-05 0.000219247 -4.56771e-08
5.2393e-08 -4.56771e-08 0.000281045

0.000297288 -3.0506e-06 5.49279e-08
-3.0506e-06 0.000205645 1.08642e-07
5.49279e-08 1.08642e-07 0.00027602

0.000246352 -3.65498e-05 6.32235e-09
-3.65498e-05 0.000210427 -5.22908e-08
6.32235e-09 -5.22908e-08 0.000218192

0.000253407 1.67205e-05 4.3696e-08
1.67205e-05 0.000192278 9.60539e-08
4.3696e-08 9.60539e-08 0.000214679

0.000248311 -2.97642e-05 3.04781e-09
-2.97642e-05 0.000188948 -7.93245e-08
3.04781e-09 -7.93245e-08 0.000212653

0.000218349 2.46638e-05 -1.08174e-07
2.46638e-05 0.000296618 -1.92819e-07
-1.08174e-07 -1.92819e-07 0.000272696

0.000208927 -2.96577e-05 1.15701e-07
-2.96577e-05 0.0002609 -5.82572e-09
1.15701e-07 -5.82572e-09 0.00023012

0.000206719 2.85837e-05 -1.72672e-07
2.85837e-05 0.000248423 4.07736e-08
-1.72672e-07 4.07736e-08 0.00022782

0.000134705 -4.5487e-05 -3.90103e-08
-4.5487e-05 0.000137295 -9.85157e-08
-3.90103e-08 -9.85157e-08 0.000134199

0.000123588 2.81558e-05 7.57603e-08
2.81558e-05 0.000137186 1.16272e-08
7.57603e-08 1.16272e-08 0.000132825

0.000233191 -3.42379e-05 -9.48861e-08
-3.42379e-05 0.000309765 1.14768e-08
-9.48861e-08 1.14768e-08 0.000287787

0.000205422 2.22769e-05 -5.94325e-09
2.22769e-05 0.000276304 1.68664e-07
-5.94325e-09 1.68664e-07 0.0002476

0.000125067 5.22667e-06 7.83647e-08
5.22667e-06 0.000129451 -6.95895e-08
7.83647e-08 -6.95895e-08 0.000140671

0.000125841 -9.2828e-06 2.63569e-08
-9.2828e-06 0.00014081 -9.53619e-08
2.63569e-08 -9.53619e-08 0.000141497

0.000289343 -1.33149e-05 -1.54556e-07
-1.33149e-05 0.000308781 1.88156e-07
-1.54556e-07 1.88156e-07 0.000298607

0.000287969 2.86282e-05 1.21155e-09
2.86282e-05 0.000301144 -1.94697e-07
1.21155e-09 -1.94697e-07 0.000299634

0.000308902 3.36694e-07 -1.42638e-07
3.36694e-07 0.000210572 -6.50019e-08
-1.42638e-07 -6.50019e-08 0.000261131

0.000290885 -8.91825e-06 -2.08505e-07
-8.91825e-06 0.000294287 -1.91515e-07
-2.08505e-07 -1.91515e-07 0.000298536

0.000288509 2.68392e-05 -2.07326e-08
2.68392e-05 0.000299543 -4.02634e-08
-2.07326e-08 -4.02634e-08 0.0002993

0.000361868 2.97564e-05 4.70659e-08
2.97564e-05 0.000285674 1.59242e-09
4.70659e-08 1.59242e-09 0.000310153

0.000352241 -3.5803e-05 7.29955e-09
-3.5803e-05 0.000313039 6.43764e-08
7.29955e-09 6.43764e-08 0.000307815

0.000272594 -2.16401e-05 -4.70389e-09
-2.16401e-05 0.000275919 -2.81153e-08
-4.70389e-09 -2.81153e-08 0.00027993

0.000272217 2.85087e-05 -6.03283e-08
2.85087e-05 0.000270085 -8.25813e-08
-6.03283e-08 -8.25813e-08 0.000281263

0.00029115 -1.96759e-06 -4.32778e-10
-1.96759e-06 0.000368412 5.54511e-08
-4.32778e-10 5.54511e-08 0.000306876

0.000297128 1.03431e-05 9.19375e-08
1.03431e-05 0.000333031 9.41407e-08
9.19375e-08 9.41407e-08 0.000308219

0.000212839 -4.08635e-05 8.42207e-08
-4.08635e-05 0.000259366 -1.11706e-08
8.42207e-08 -1.11706e-08 0.000227418

0.000148735 4.7279e-06 -8.816e-08
4.7279e-06 0.000191624 -1.32899e-07
-8.816e-08 -1.32899e-07 0.000160622

0.000188026 5.14368e-06 5.20744e-09
5.14368e-06 0.000153115 -4.05037e-09
5.20744e-09 -4.05037e-09 0.00016025

0.000212173 2.14361e-05 -4.88019e-09
2.14361e-05 0.000295534 -1.71114e-07
-4.88019e-09 -1.71114e-07 0.00026614

0.000232875 3.167e-05 7.29758e-08
3.167e-05 0.00028448 2.68596e-08
7.29758e-08 2.68596e-08 0.000264201

0.000365816 -2.98061e-05 -2.7767e-07
-2.98061e-05 0.000312512 4.81846e-07
-2.7767e-07 4.81846e-07 0.000319105

0.000342487 4.65873e-05 -2.77868e-07
4.65873e-05 0.000397095 1.83618e-07
-2.77868e-07 1.83618e-07 0.000318904

0.000239835 2.83036e-05 1.51784e-07
2.83036e-05 0.000224973 1.50165e-07
1.51784e-07 1.50165e-07 0.000222149

0.000246586 4.86704e-05 7.41665e-08
4.86704e-05 0.000295491 7.53925e-09
7.41665e-08 7.53925e-09 0.000277995

0.000281477 1.83642e-05 1.46222e-07
1.83642e-05 0.000233703 1.37761e-07
1.46222e-07 1.37761e-07 0.000266397

0.000282674 -1.47066e-05 2.50303e-08
-1.47066e-05 0.000233563 2.94612e-08
2.50303e-08 2.94612e-08 0.000265188

0.00025117 4.60408e-05 3.91938e-08
4.60408e-05 0.000282872 1.98921e-07
3.91938e-08 1.98921e-07 0.000276116

0.000252868 -4.57651e-05 -1.14214e-07
-4.57651e-05 0.000302527 1.83602e-08
-1.14214e-07 1.83602e-08 0.000286041

0.00031599 -3.92505e-05 -1.00535e-08
-3.92505e-05 0.000251851 3.46812e-08
-1.00535e-08 3.46812e-08 0.000289736

0.000234904 -3.68881e-06 -5.85486e-08
-3.68881e-06 0.000173459 2.89532e-08
-5.85486e-08 2.89532e-08 0.000193468

0.000387983 5.61112e-06 -4.05764e-07
5.61112e-06 0.00036028 -3.54637e-07
-4.05764e-07 -3.54637e-07 0.000313419

0.000402069 -3.25241e-06 -1.04054e-07
-3.25241e-06 0.000310038 1.65121e-07
-1.04054e-07 1.65121e-07 0.000316297

0.00024754 3.51713e-05 -2.34444e-08
3.51713e-05 0.000231018 -2.3419e-08
-2.34444e-08 -2.3419e-08 0.000241038

0.000287621 1.33751e-05 -8.44312e-08
1.33751e-05 0.000220811 -5.79826e-08
-8.44312e-08 -5.79826e-08 0.000251893

0.000203034 3.0472e-05 -9.56523e-08
3.0472e-05 0.000216906 5.40917e-08
-9.56523e-08 5.40917e-08 0.00019216

0.000308611 7.1917e-06 -2.33033e-07
7.1917e-06 0.000330819 1.50919e-08
-2.33033e-07 1.50919e-08 0.000312721

0.000313397 2.11887e-05 -1.41178e-07
2.11887e-05 0.000378361 2.12149e-08
-1.41178e-07 2.12149e-08 0.000310515

0.000317372 1.91189e-05 7.6108e-09
1.91189e-05 0.000245654 2.64675e-08
7.6108e-09 2.64675e-08 0.000293598

0.000230836 -7.86114e-06 -4.05732e-08
-7.86114e-06 0.000307822 -3.37981e-09
-4.05732e-08 -3.37981e-09 0.000272221

0.000258957 -1.74562e-05 6.97777e-08
-1.74562e-05 0.000290191 -2.67311e-08
6.97777e-08 -2.67311e-08 0.000271437

0.00031116 5.79945e-06 1.33072e-07
5.79945e-06 0.000216922 1.21251e-07
1.33072e-07 1.21251e-07 0.000273471

0.000313744 -4.55265e-06 -6.08226e-08
-4.55265e-06 0.000215904 -1.3603e-07
-6.08226e-08 -1.3603e-07 0.000272825

0.000216911 -3.02032e-05 -4.48185e-08
-3.02032e-05 0.000202624 -4.96715e-08
-4.48185e-08 -4.96715e-08 0.000189496

0.000279346 9.50981e-09 -1.47467e-08
9.50981e-09 0.000197633 -5.30881e-08
-1.47467e-08 -5.30881e-08 0.000230882

0.000311363 -4.81739e-06 -3.61953e-08
-4.81739e-06 0.00024227 2.76664e-08
-3.61953e-08 2.76664e-08 0.00028608

0.000303728 1.01666e-05 -1.43968e-07
1.01666e-05 0.0002502 -1.49083e-07
-1.43968e-07 -1.49083e-07 0.000286627

0.000288094 -1.25614e-05 8.85381e-08
-1.25614e-05 0.000226484 -2.22133e-08
8.85381e-08 -2.22133e-08 0.000250914

0.000219536 -3.58885e-05 7.84544e-08
-3.58885e-05 0.000261074 -1.85957e-08
7.84544e-08 -1.85957e-08 0.000230307

0.000313576 -3.06452e-06 -3.0702e-08
-3.06452e-06 0.000236153 2.19009e-08
-3.0702e-08 2.19009e-08 0.000274967

0.000310077 6.54232e-06 1.294e-07
6.54232e-06 0.000235497 1.39184e-07
1.294e-07 1.39184e-07 0.00027592

0.00028014 1.46983e-05 -4.55027e-09
1.46983e-05 0.000222904 8.50754e-08
-4.55027e-09 8.50754e-08 0.000257027

0.000214278 -4.58696e-05 9.13184e-08
-4.58696e-05 0.000208297 -3.90019e-08
9.13184e-08 -3.90019e-08 0.000205921

0.000236345 4.43298e-05 6.58468e-08
4.43298e-05 0.000278672 3.65355e-08
6.58468e-08 3.65355e-08 0.000277997

0.000248028 4.32407e-05 -4.01753e-08
4.32407e-05 0.00029953 -6.77893e-08
-4.01753e-08 -6.77893e-08 0.000280166

0.000231816 3.28641e-05 3.21747e-08
3.28641e-05 0.000279805 7.12321e-08
3.21747e-08 7.12321e-08 0.000281331

0.00025727 1.60099e-05 -3.73558e-09
1.60099e-05 0.000186896 -5.88946e-08
-3.73558e-09 -5.88946e-08 0.000214822

0.000195406 -3.16141e-05 -6.47084e-08
-3.16141e-05 0.000168758 6.14149e-08
-6.47084e-08 6.14149e-08 0.000168989

0.000276471 2.70003e-05 -1.18931e-07
2.70003e-05 0.000239379 -1.70388e-07
-1.18931e-07 -1.70388e-07 0.00026935

0.000280463 -2.84003e-05 2.54426e-08
-2.84003e-05 0.000222871 1.77916e-07
2.54426e-08 1.77916e-07 0.000251962

0.000200373 -2.73377e-05 -1.19909e-07
-2.73377e-05 0.000164935 -5.39769e-08
-1.19909e-07 -5.39769e-08 0.000170296

0.000251902 -4.5816e-05 -5.98749e-08
-4.5816e-05 0.000221609 4.16805e-11
-5.98749e-08 4.16805e-11 0.000239075

0.000227293 1.02943e-06 -1.02803e-07
1.02943e-06 0.000279529 6.29526e-08
-1.02803e-07 6.29526e-08 0.000262193

0.000204267 -7.78894e-08 1.10927e-07
-7.78894e-08 0.000306908 -8.21088e-08
1.10927e-07 -8.21088e-08 0.000263355

0.000216412 3.85869e-05 6.02485e-08
3.85869e-05 0.000220566 1.96552e-07
6.02485e-08 1.96552e-07 0.000211273

0.000217121 -3.23634e-05 -4.91343e-08
-3.23634e-05 0.000172007 6.32199e-08
-4.91343e-08 6.32199e-08 0.0001822

0.000253283 -4.73128e-05 1.19172e-07
-4.73128e-05 0.000269382 -3.00194e-08
1.19172e-07 -3.00194e-08 0.000276257

0.000213916 -4.24039e-05 8.84247e-08
-4.24039e-05 0.000236171 -3.7606e-08
8.84247e-08 -3.7606e-08 0.000211207

0.000211355 -4.25477e-05 1.00605e-07
-4.25477e-05 0.00023034 -2.19592e-08
1.00605e-07 -2.19592e-08 0.000210724

0.000273818 2.2273e-05 3.39575e-08
2.2273e-05 0.000232872 -2.78997e-08
3.39575e-08 -2.78997e-08 0.000253928

0.000325876 1.40326e-05 8.40885e-08
1.40326e-05 0.000202317 -8.87273e-08
8.40885e-08 -8.87273e-08 0.00029208

0.000319355 -2.1631e-05 8.56391e-09
-2.1631e-05 0.000216317 8.66103e-09
8.56391e-09 8.66103e-09 0.000289597

0.000197302 2.40707e-05 -9.00952e-08
2.40707e-05 0.000251676 -6.66559e-08
-9.00952e-08 -6.66559e-08 0.000216343

0.000183812 1.65559e-05 -4.77332e-08
1.65559e-05 0.000260879 -1.46471e-07
-4.77332e-08 -1.46471e-07 0.000218623

0.000162967 -3.82287e-06 2.74074e-08
-3.82287e-06 0.000236444 2.51913e-08
2.74074e-08 2.51913e-08 0.000188501

0.000155519 -5.00852e-06 1.60255e-09
-5.00852e-06 0.000240229 1.57716e-07
1.60255e-09 1.57716e-07 0.0001894

0.00023762 -2.82672e-06 1.57849e-07
-2.82672e-06 0.000156945 -4.5484e-08
1.57849e-07 -4.5484e-08 0.000185588

0.000229645 -3.87482e-05 -3.67079e-08
-3.87482e-05 0.000207413 -5.73263e-08
-3.67079e-08 -5.73263e-08 0.000210381

0.000310091 -2.82456e-05 -2.34073e-07
-2.82456e-05 0.000353145 1.54217e-08
-2.34073e-07 1.54217e-08 0.000317325

0.000391764 -1.17113e-05 3.00081e-07
-1.17113e-05 0.000391346 -1.18714e-07
3.00081e-07 -1.18714e-07 0.000314476

0.000240432 2.75731e-05 1.20056e-07
2.75731e-05 0.000194763 -3.9906e-08
1.20056e-07 -3.9906e-08 0.000211263

0.000260902 -1.87852e-05 1.11378e-07
-1.87852e-05 0.000188838 1.38688e-07
1.11378e-07 1.38688e-07 0.000216632

0.000202823 1.74598e-05 -3.95441e-08
1.74598e-05 0.000164169 -6.47509e-08
-3.95441e-08 -6.47509e-08 0.000172146

0.000218162 2.79666e-05 -1.7599e-07
2.79666e-05 0.000277037 2.86608e-08
-1.7599e-07 2.86608e-08 0.000261276

0.000308897 4.0209e-07 -1.42275e-07
4.0209e-07 0.000211213 -7.53763e-08
-1.42275e-07 -7.53763e-08 0.000260635

0.00025125 4.23479e-05 7.19929e-08
4.23479e-05 0.000300979 1.22536e-08
7.19929e-08 1.22536e-08 0.000287219

0.000224252 3.35487e-05 6.28585e-08
3.35487e-05 0.000312394 4.70533e-09
6.28585e-08 4.70533e-09 0.000289324

0.000192779 2.17941e-05 7.25038e-09
2.17941e-05 0.000216738 1.52782e-07
7.25038e-09 1.52782e-07 0.000191091

0.000208542 2.39809e-05 1.17368e-07
2.39809e-05 0.000201996 6.04779e-08
1.17368e-07 6.04779e-08 0.000188465

0.000243304 -5.12608e-05 -6.79655e-08
-5.12608e-05 0.000293611 -1.2508e-08
-6.79655e-08 -1.2508e-08 0.000274813

0.000205635 1.34547e-05 -7.51011e-08
1.34547e-05 0.000164359 3.56789e-08
-7.51011e-08 3.56789e-08 0.000173308

0.000233331 3.78644e-05 4.21093e-08
3.78644e-05 0.00027118 -4.89149e-08
4.21093e-08 -4.89149e-08 0.000282809

0.000235405 4.61184e-05 5.63291e-08
4.61184e-05 0.000279037 1.34599e-07
5.63291e-08 1.34599e-07 0.00025793

0.00032812 -4.27013e-07 1.06358e-07
-4.27013e-07 0.000212497 1.31526e-07
1.06358e-07 1.31526e-07 0.000279292

0.00024367 -3.49137e-05 5.66744e-08
-3.49137e-05 0.00027112 1.35479e-07
5.66744e-08 1.35479e-07 0.000282148

0.000245854 3.77823e-05 4.52204e-09
3.77823e-05 0.000247003 -1.6311e-07
4.52204e-09 -1.6311e-07 0.000243416

0.000192599 -1.85572e-05 3.47252e-08
-1.85572e-05 0.000243616 2.10244e-08
3.47252e-08 2.10244e-08 0.000200605

0.000180103 -1.74701e-05 -6.1934e-08
-1.74701e-05 0.000246449 1.93902e-07
-6.1934e-08 1.93902e-07 0.000201247

0.000240668 -1.32759e-05 6.23732e-08
-1.32759e-05 0.000187469 1.55971e-07
6.23732e-08 1.55971e-07 0.000196847

0.00022932 -3.47088e-05 -3.26504e-08
-3.47088e-05 0.000234512 -1.70454e-07
-3.26504e-08 -1.70454e-07 0.00021773

0.000204545 -2.29279e-06 1.09098e-07
-2.29279e-06 0.000283801 -4.53687e-08
1.09098e-07 -4.53687e-08 0.000241209

0.000227458 -5.00015e-07 -9.39788e-08
-5.00015e-07 0.000274328 -1.14213e-07
-9.39788e-08 -1.14213e-07 0.000239617

0.000187961 -3.67878e-05 3.06597e-08
-3.67878e-05 0.000204919 -5.18718e-09
3.06597e-08 -5.18718e-09 0.000181416

0.000178182 -3.55967e-05 -1.00075e-07
-3.55967e-05 0.000211524 4.73763e-08
-1.00075e-07 4.73763e-08 0.000182721

0.000326827 -1.59387e-06 1.10574e-07
-1.59387e-06 0.000219007 1.25134e-07
1.10574e-07 1.25134e-07 0.000279883

0.000329437 2.22541e-06 -5.53197e-08
2.22541e-06 0.000217661 -1.35156e-07
-5.53197e-08 -1.35156e-07 0.000279455

0.000232617 3.52399e-05 -3.56143e-08
3.52399e-05 0.000268178 -3.13429e-08
-3.56143e-08 -3.13429e-08 0.000265035

0.000224851 -2.98736e-05 7.52076e-08
-2.98736e-05 0.000307738 -4.77272e-08
7.52076e-08 -4.77272e-08 0.000288407

0.000272322 -4.54566e-05 -1.5498e-08
-4.54566e-05 0.00024687 1.06387e-08
-1.5498e-08 1.06387e-08 0.000267547

0.00028961 1.80371e-05 -4.90712e-08
1.80371e-05 0.000270594 -8.28614e-08
-4.90712e-08 -8.28614e-08 0.000290123

0.000293841 -5.34082e-06 -3.11228e-07
-5.34082e-06 0.000276861 -3.71499e-08
-3.11228e-07 -3.71499e-08 0.000289201

0.000281709 -1.90201e-05 1.79393e-08
-1.90201e-05 0.00026079 -5.14949e-08
1.79393e-08 -5.14949e-08 0.00026775

0.000280581 2.29465e-05 1.46722e-07
2.29465e-05 0.000249586 1.31901e-07
1.46722e-07 1.31901e-07 0.000269088

0.000130867 -1.91936e-05 -1.11833e-07
-1.91936e-05 8.85464e-05 -2.56936e-08
-1.11833e-07 -2.56936e-08 0.000141026

0.000208057 3.67665e-05 -1.78925e-07
3.67665e-05 0.000231346 -4.1797e-08
-1.78925e-07 -4.1797e-08 0.00021213

0.000101136 1.32987e-05 -5.81469e-10
1.32987e-05 0.000128381 -5.5209e-08
-5.81469e-10 -5.5209e-08 0.000140825

0.000243001 4.09993e-05 5.11502e-08
4.09993e-05 0.00026568 -8.53167e-08
5.11502e-08 -8.53167e-08 0.000257444

0.000197607 -2.86459e-05 4.65724e-08
-2.86459e-05 0.000259455 -1.40506e-08
4.65724e-08 -1.40506e-08 0.000218922

0.000184391 -2.56765e-05 1.00022e-08
-2.56765e-05 0.000260272 8.5228e-09
1.00022e-08 8.5228e-09 0.000219541

0.000322792 -9.1363e-06 -4.29668e-08
-9.1363e-06 0.000312341 3.74719e-07
-4.29668e-08 3.74719e-07 0.00031088

0.000307115 2.39742e-05 -1.42963e-07
2.39742e-05 0.000332777 -8.23277e-08
-1.42963e-07 -8.23277e-08 0.000311053

0.000256715 2.72703e-05 2.96772e-09
2.72703e-05 0.000235562 1.89704e-07
2.96772e-09 1.89704e-07 0.000245442

0.000279369 -2.86785e-06 -1.52265e-08
-2.86785e-06 0.000201125 6.48237e-08
-1.52265e-08 6.48237e-08 0.000230806

0.000229703 3.01957e-05 -1.05457e-07
3.01957e-05 0.000201453 -7.94998e-08
-1.05457e-07 -7.94998e-08 0.000209656

0.000213405 -1.7601e-05 3.67252e-08
-1.7601e-05 0.000302436 3.54098e-08
3.67252e-08 3.54098e-08 0.00026578

0.000233325 -2.89932e-05 -8.83271e-09
-2.89932e-05 0.000285032 -6.49527e-08
-8.83271e-09 -6.49527e-08 0.000264604

0.000242557 -5.26269e-05 -6.83365e-08
-5.26269e-05 0.00030807 -1.14195e-08
-6.83365e-08 -1.14195e-08 0.000278774

0.000257049 -2.90967e-05 1.39194e-07
-2.90967e-05 0.00024588 -3.80234e-08
1.39194e-07 -3.80234e-08 0.000244118

0.00024209 4.90933e-05 -7.7308e-08
4.90933e-05 0.000295652 -1.02361e-08
-7.7308e-08 -1.02361e-08 0.000278385

0.000280675 2.27226e-05 1.58773e-08
2.27226e-05 0.000313568 7.77755e-09
1.58773e-08 7.77755e-09 0.00029524

0.000284344 3.4355e-05 1.21049e-07
3.4355e-05 0.000301882 9.04591e-09
1.21049e-07 9.04591e-09 0.000294948

0.000236041 -4.58937e-05 -9.97525e-08
-4.58937e-05 0.000289801 6.32687e-09
-9.97525e-08 6.32687e-09 0.000262676

0.000241468 4.17532e-05 -1.499e-08
4.17532e-05 0.000281511 1.62257e-07
-1.499e-08 1.62257e-07 0.000261958

0.000210938 5.28292e-05 -2.66909e-08
5.28292e-05 0.000283595 6.58982e-08
-2.66909e-08 6.58982e-08 0.000282339

0.000189591 5.06494e-06 -1.31367e-07
5.06494e-06 0.000280218 8.49586e-08
-1.31367e-07 8.49586e-08 0.000234924

0.000204253 1.12943e-05 -6.8358e-08
1.12943e-05 0.00026836 -1.28109e-07
-6.8358e-08 -1.28109e-07 0.000232704

0.000253275 3.26257e-05 -3.37263e-08
3.26257e-05 0.000247353 1.58071e-07
-3.37263e-08 1.58071e-07 0.00025985

0.000229199 2.73348e-05 -1.08194e-07
2.73348e-05 0.000226445 -1.19777e-07
-1.08194e-07 -1.19777e-07 0.00021946

0.000208803 -2.86656e-05 1.18948e-07
-2.86656e-05 0.000274575 -7.44323e-08
1.18948e-07 -7.44323e-08 0.000248306

0.000251792 -4.96219e-05 7.16267e-09
-4.96219e-05 0.000305363 -2.41739e-08
7.16267e-09 -2.41739e-08 0.000285591

0.000146377 1.6765e-05 -9.26973e-08
1.6765e-05 0.000169739 -9.11376e-08
-9.26973e-08 -9.11376e-08 0.000148648

0.000164949 1.73876e-05 -2.02446e-07
1.73876e-05 0.000151022 1.54222e-08
-2.02446e-07 1.54222e-08 0.000148665

0.000194885 -3.65421e-05 -6.65809e-08
-3.65421e-05 0.000204525 6.72454e-08
-6.65809e-08 6.72454e-08 0.000186587

0.000252648 -3.37927e-05 1.35147e-07
-3.37927e-05 0.000257128 -3.4562e-08
1.35147e-07 -3.4562e-08 0.000258139

0.000288315 -1.00909e-05 8.96983e-08
-1.00909e-05 0.000206335 7.76528e-09
8.96983e-08 7.76528e-09 0.000248504

0.000340633 3.7068e-05 -2.79519e-07
3.7068e-05 0.000362014 1.79642e-07
-2.79519e-07 1.79642e-07 0.000317904

0.000373874 -3.98927e-05 7.65364e-08
-3.98927e-05 0.000314386 -3.70643e-07
7.65364e-08 -3.70643e-07 0.000318022

0.000234326 -5.01409e-05 3.84204e-09
-5.01409e-05 0.000286062 5.69126e-08
3.84204e-09 5.69126e-08 0.000259948

0.000315397 9.21538e-06 -1.15547e-07
9.21538e-06 0.000294494 -4.58949e-08
-1.15547e-07 -4.58949e-08 0.000307201

0.000321451 -3.85832e-05 -8.551e-08
-3.85832e-05 0.000320999 -1.38413e-07
-8.551e-08 -1.38413e-07 0.000304918

0.000285417 -1.32087e-05 -3.73359e-08
-1.32087e-05 0.000212008 -2.37742e-07
-3.73359e-08 -2.37742e-07 0.000260788

0.000219875 -5.20268e-05 -3.61575e-08
-5.20268e-05 0.000280614 -2.01401e-08
-3.61575e-08 -2.01401e-08 0.000281352

0.00015624 -3.1674e-05 -7.17034e-08
-3.1674e-05 0.00016996 6.01779e-08
-7.17034e-08 6.01779e-08 0.000155036

0.000165776 2.35532e-05 5.76889e-08
2.35532e-05 0.000164713 -6.08763e-08
5.76889e-08 -6.08763e-08 0.000155763

0.000153404 -1.91433e-05 -1.05855e-08
-1.91433e-05 0.000200427 3.0784e-08
-1.05855e-08 3.0784e-08 0.000164574

0.000157874 -2.06766e-05 -7.49555e-08
-2.06766e-05 0.000202164 2.18676e-08
-7.49555e-08 2.18676e-08 0.000167529

0.000202654 -1.54211e-05 1.85581e-08
-1.54211e-05 0.000152861 -1.2203e-09
1.85581e-08 -1.2203e-09 0.000163949

0.000204956 2.89461e-05 -5.70623e-08
2.89461e-05 0.000199356 -9.71436e-08
-5.70623e-08 -9.71436e-08 0.000188889

0.000240113 -5.60381e-05 -4.85845e-08
-5.60381e-05 0.000303448 2.08419e-08
-4.85845e-08 2.08419e-08 0.000277675

0.000134929 3.03841e-06 -8.65925e-08
3.03841e-06 0.000192762 1.64805e-07
-8.65925e-08 1.64805e-07 0.000155399

0.000189759 -9.12054e-06 -1.33507e-07
-9.12054e-06 0.00013373 -2.95944e-08
-1.33507e-07 -2.95944e-08 0.000156254

0.000289702 4.82512e-06 -1.10946e-07
4.82512e-06 0.000347949 -4.28885e-08
-1.10946e-07 -4.28885e-08 0.000303345

0.000295497 -2.26239e-05 -8.92593e-08
-2.26239e-05 0.000317057 9.33207e-08
-8.92593e-08 9.33207e-08 0.000304178

0.000298559 -2.63907e-05 2.10966e-08
-2.63907e-05 0.000243167 5.01417e-09
2.10966e-08 5.01417e-09 0.000274213

0.000309555 -1.71712e-06 9.05089e-08
-1.71712e-06 0.000184501 6.56369e-08
9.05089e-08 6.56369e-08 0.000282074

0.000176089 -2.76519e-05 -1.10435e-07
-2.76519e-05 0.000227739 1.35452e-07
-1.10435e-07 1.35452e-07 0.000195201

0.000185061 -2.78554e-05 2.81832e-08
-2.78554e-05 0.000232157 1.32046e-08
2.81832e-08 1.32046e-08 0.000195779

0.000290213 -1.47406e-06 2.91043e-08
-1.47406e-06 0.000209122 9.53988e-08
2.91043e-08 9.53988e-08 0.000262402

0.000219804 -3.83667e-05 7.72018e-08
-3.83667e-05 0.000276529 -3.42834e-10
7.72018e-08 -3.42834e-10 0.00024761

0.000317403 3.36954e-07 2.81265e-07
3.36954e-07 0.000297498 -7.37571e-09
2.81265e-07 -7.37571e-09 0.000304747

0.000302798 1.13896e-05 -8.64007e-08
1.13896e-05 0.000309111 -1.56717e-08
-8.64007e-08 -1.56717e-08 0.000305132

0.000280782 -3.59745e-05 -3.84688e-08
-3.59745e-05 0.000255806 -4.83454e-09
-3.84688e-08 -4.83454e-09 0.000271347

0.000238663 -3.71269e-05 -4.607e-08
-3.71269e-05 0.000263031 4.77803e-08
-4.607e-08 4.77803e-08 0.000262972

0.000298564 -2.57463e-05 1.20393e-08
-2.57463e-05 0.000215578 1.84686e-07
1.20393e-08 1.84686e-07 0.000268804

0.000225017 -3.30013e-05 -7.10184e-08
-3.30013e-05 0.000274376 3.13569e-08
-7.10184e-08 3.13569e-08 0.000261276

0.000124296 -6.27399e-05 2.2934e-08
-6.27399e-05 0.000129637 -5.58802e-10
2.2934e-08 -5.58802e-10 0.00013031

0.000208975 -1.43457e-05 1.94903e-08
-1.43457e-05 0.000266867 -7.42428e-08
1.94903e-08 -7.42428e-08 0.000233353

0.000193876 -1.11036e-05 -3.89948e-08
-1.11036e-05 0.000278918 -9.7534e-08
-3.89948e-08 -9.7534e-08 0.00023477

0.00027908 -5.11728e-06 -9.13453e-08
-5.11728e-06 0.000367836 8.5826e-08
-9.13453e-08 8.5826e-08 0.000304767

0.000298194 -6.42737e-06 -3.80431e-08
-6.42737e-06 0.000313015 2.67908e-07
-3.80431e-08 2.67908e-07 0.00030634

0.000331321 -3.11659e-06 -1.69635e-07
-3.11659e-06 0.000228404 1.41761e-08
-1.69635e-07 1.41761e-08 0.000288536

0.000324108 1.94733e-06 -6.59223e-08
1.94733e-06 0.000232858 -1.04923e-07
-6.59223e-08 -1.04923e-07 0.000288955

0.000284587 2.72231e-05 8.84178e-08
2.72231e-05 0.000268966 6.23522e-08
8.84178e-08 6.23522e-08 0.000288024

0.000293926 -4.81619e-05 1.47279e-07
-4.81619e-05 0.000264272 -9.08085e-08
1.47279e-07 -9.08085e-08 0.000285342

0.000314304 9.77956e-06 -1.31522e-07
9.77956e-06 0.00030945 2.20491e-08
-1.31522e-07 2.20491e-08 0.000303878

0.000331988 -1.7496e-05 -5.3772e-08
-1.7496e-05 0.000307888 -2.17966e-09
-5.3772e-08 -2.17966e-09 0.00030231

0.000339808 -1.83338e-05 2.19058e-07
-1.83338e-05 0.000317025 -3.62304e-07
2.19058e-07 -3.62304e-07 0.000315702

0.00033394 5.65193e-05 1.3192e-07
5.65193e-05 0.000359761 1.55574e-07
1.3192e-07 1.55574e-07 0.000315725

0.000253813 -5.04286e-05 5.42048e-08
-5.04286e-05 0.000306726 -3.61295e-08
5.42048e-08 -3.61295e-08 0.000287706

0.000240404 6.22225e-05 5.87506e-08
6.22225e-05 0.000281463 -4.52878e-08
5.87506e-08 -4.52878e-08 0.000291328

0.000258409 2.53289e-05 6.19569e-08
2.53289e-05 0.000217834 -8.0409e-08
6.19569e-08 -8.0409e-08 0.000240176

0.000212574 -2.19195e-05 9.49283e-09
-2.19195e-05 0.000281799 -1.46184e-07
9.49283e-09 -1.46184e-07 0.000250474

0.000232261 -3.2611e-05 -5.73125e-09
-3.2611e-05 0.000279067 -4.68382e-08
-5.73125e-09 -4.68382e-08 0.000249095

0.00025914 -2.64971e-05 1.44324e-07
-2.64971e-05 0.000222819 -1.34466e-08
1.44324e-07 -1.34466e-08 0.000239456

0.000232615 2.47104e-05 7.12976e-08
2.47104e-05 0.000274706 -6.17896e-08
7.12976e-08 -6.17896e-08 0.000247587

0.000211954 1.4718e-05 6.71211e-10
1.4718e-05 0.000283765 1.63946e-07
6.71211e-10 1.63946e-07 0.000249982

0.000235221 3.42145e-05 2.17151e-07
3.42145e-05 0.000233705 1.49223e-07
2.17151e-07 1.49223e-07 0.000236369

0.000261772 4.17991e-05 -3.44865e-08
4.17991e-05 0.000296554 -6.56729e-08
-3.44865e-08 -6.56729e-08 0.00028939

0.000258595 -5.62185e-05 7.49316e-08
-5.62185e-05 0.00028116 1.30749e-07
7.49316e-08 1.30749e-07 0.000290016

0.000238222 -4.2711e-05 -1.30707e-07
-4.2711e-05 0.000241698 -8.51639e-08
-1.30707e-07 -8.51639e-08 0.000234882

0.000300569 1.20177e-05 -1.79268e-07
1.20177e-05 0.000247084 -1.48474e-07
-1.79268e-07 -1.48474e-07 0.000279419

0.000392126 -2.04671e-05 -3.80508e-07
-2.04671e-05 0.000383558 2.58425e-07
-3.80508e-07 2.58425e-07 0.000313923

0.000320564 1.15257e-05 1.63487e-07
1.15257e-05 0.000330982 4.7024e-08
1.63487e-07 4.7024e-08 0.000316929

0.000252712 -4.25093e-05 -1.13926e-07
-4.25093e-05 0.00029445 6.76543e-09
-1.13926e-07 6.76543e-09 0.000273228

0.000280005 -4.21505e-05 -3.92893e-08
-4.21505e-05 0.000234364 -1.62652e-08
-3.92893e-08 -1.62652e-08 0.000264745

0.000323532 -3.52778e-06 2.54328e-08
-3.52778e-06 0.00027853 4.85008e-08
2.54328e-08 4.85008e-08 0.000296728

0.000156016 -2.97574e-05 -1.13457e-08
-2.97574e-05 0.000166573 3.80006e-08
-1.13457e-08 3.80006e-08 0.000150283

0.000170761 -2.60452e-05 -4.39991e-08
-2.60452e-05 0.000152099 -3.60024e-09
-4.39991e-08 -3.60024e-09 0.000150828

0.000332189 2.90617e-06 -1.57241e-07
2.90617e-06 0.000242022 2.95656e-08
-1.57241e-07 2.95656e-08 0.000293019

0.000319415 -2.19701e-06 -3.24782e-08
-2.19701e-06 0.000249101 -1.44263e-07
-3.24782e-08 -1.44263e-07 0.00029325

0.000329433 -1.99509e-07 5.56183e-08
-1.99509e-07 0.000258111 9.00713e-09
5.56183e-08 9.00713e-09 0.000299351

0.000257361 1.78378e-05 -5.94109e-09
1.78378e-05 0.000206707 -1.33763e-07
-5.94109e-09 -1.33763e-07 0.000221298

0.000270976 -2.71875e-05 1.5941e-08
-2.71875e-05 0.000291171 1.37687e-07
1.5941e-08 1.37687e-07 0.000281181

0.000271144 3.25318e-05 -6.40123e-08
3.25318e-05 0.000274044 -5.32477e-08
-6.40123e-08 -5.32477e-08 0.000282982

0.000369044 -2.98243e-05 2.20686e-07
-2.98243e-05 0.000301356 1.94914e-07
2.20686e-07 1.94914e-07 0.000317712

0.00037087 -3.03434e-06 -9.22826e-08
-3.03434e-06 0.000399999 4.99791e-07
-9.22826e-08 4.99791e-07 0.000314532

0.000235045 -4.74233e-05 3.34886e-09
-4.74233e-05 0.00029336 5.40481e-08
3.34886e-09 5.40481e-08 0.000270058

0.00027488 -3.38067e-05 -6.02255e-08
-3.38067e-05 0.000224496 -6.80887e-12
-6.02255e-08 -6.80887e-12 0.00024977

0.000303843 7.52025e-06 -1.48205e-07
7.52025e-06 0.000276845 2.27881e-08
-1.48205e-07 2.27881e-08 0.000291453

0.000311624 1.32116e-06 -3.08944e-08
1.32116e-06 0.000270618 2.64388e-07
-3.08944e-08 2.64388e-07 0.000290842

0.000235711 -1.90401e-05 -8.6155e-08
-1.90401e-05 0.000293563 1.21242e-07
-8.6155e-08 1.21242e-07 0.000275232

0.000234636 -3.48308e-05 8.50702e-08
-3.48308e-05 0.000276373 -3.43718e-08
8.50702e-08 -3.43718e-08 0.00028026

0.000134304 5.26296e-05 2.68959e-09
5.26296e-05 0.000126836 4.86852e-08
2.68959e-09 4.86852e-08 0.000131484

0.000273071 2.81414e-05 -7.81867e-08
2.81414e-05 0.000307226 1.85625e-08
-7.81867e-08 1.85625e-08 0.00029521

0.000271892 -3.66796e-05 1.40133e-08
-3.66796e-05 0.000304896 3.98396e-09
1.40133e-08 3.98396e-09 0.000294318

0.000224646 -3.27921e-05 -5.13727e-08
-3.27921e-05 0.000286227 1.31812e-07
-5.13727e-08 1.31812e-07 0.000272896

0.000261297 -2.26938e-05 1.19935e-07
-2.26938e-05 0.000215234 6.32637e-09
1.19935e-07 6.32637e-09 0.000222871

0.000276045 2.46661e-05 -1.12491e-07
2.46661e-05 0.000269322 -7.05901e-08
-1.12491e-07 -7.05901e-08 0.000274134

0.000284253 2.52927e-05 6.05516e-08
2.52927e-05 0.000288255 1.67346e-07
6.05516e-08 1.67346e-07 0.000289138

0.000299844 -3.88581e-05 1.3065e-07
-3.88581e-05 0.000267878 -1.39639e-07
1.3065e-07 -1.39639e-07 0.000288006

0.000300482 9.44041e-06 -1.76053e-07
9.44041e-06 0.000216005 2.01297e-08
-1.76053e-07 2.01297e-08 0.000273844

0.000316868 -4.46804e-06 -2.32866e-09
-4.46804e-06 0.000289467 5.59096e-09
-2.32866e-09 5.59096e-09 0.000301734

0.000329221 6.91598e-06 -1.1897e-07
6.91598e-06 0.000275477 -1.60662e-07
-1.1897e-07 -1.60662e-07 0.00030163

0.000312452 1.22758e-05 2.69895e-08
1.22758e-05 0.000399242 -1.55477e-07
2.69895e-08 -1.55477e-07 0.000311916

0.000309122 2.36183e-06 1.44434e-07
2.36183e-06 0.000361403 6.63758e-08
1.44434e-07 6.63758e-08 0.000314525

0.00013426 -1.39018e-05 1.00193e-07
-1.39018e-05 9.96473e-05 -5.49451e-08
1.00193e-07 -5.49451e-08 0.000140965

8.91696e-05 -9.22458e-06 -1.35242e-07
-9.22458e-06 0.000140385 -8.64714e-08
-1.35242e-07 -8.64714e-08 0.000140895

0.000252459 -4.17904e-05 9.21153e-08
-4.17904e-05 0.000303175 1.78603e-07
9.21153e-08 1.78603e-07 0.000278298

0.000252097 3.69954e-05 1.42788e-07
3.69954e-05 0.000275395 -4.9439e-08
1.42788e-07 -4.9439e-08 0.000281235

0.000242161 -5.59542e-05 3.635e-08
-5.59542e-05 0.000303384 8.91917e-09
3.635e-08 8.91917e-09 0.000276739

0.000125574 1.3894e-05 6.01108e-10
1.3894e-05 0.00012279 3.02604e-08
6.01108e-10 3.02604e-08 0.000138169

0.000130886 2.16151e-05 -6.55097e-08
2.16151e-05 0.000117352 3.81686e-08
-6.55097e-08 3.81686e-08 0.000138398

0.000263099 4.52547e-05 1.30496e-07
4.52547e-05 0.000411132 -1.92852e-07
1.30496e-07 -1.92852e-07 0.000318995

0.000308494 -3.66078e-05 -2.57615e-07
-3.66078e-05 0.000374316 -6.74216e-07
-2.57615e-07 -6.74216e-07 0.000319056

0.000261508 3.43944e-05 -7.42121e-08
3.43944e-05 0.000263357 -1.03618e-07
-7.42121e-08 -1.03618e-07 0.00026948

0.000234909 -4.05469e-05 -7.37333e-08
-4.05469e-05 0.000258786 1.22659e-08
-7.37333e-08 1.22659e-08 0.000241306

0.00025253 -4.01746e-05 9.23213e-08
-4.01746e-05 0.000282649 1.77436e-07
9.23213e-08 1.77436e-07 0.000273758

0.000253542 4.11638e-05 1.26639e-07
4.11638e-05 0.000269826 -1.52383e-07
1.26639e-07 -1.52383e-07 0.000276092

0.000236169 -4.67754e-05 -9.45563e-08
-4.67754e-05 0.000273099 3.98962e-08
-9.45563e-08 3.98962e-08 0.000255299

0.000232205 3.22919e-05 2.38681e-07
3.22919e-05 0.000248941 1.12653e-07
2.38681e-07 1.12653e-07 0.000242959

0.000151899 -1.73845e-05 -2.69399e-08
-1.73845e-05 0.00020289 2.67181e-08
-2.69399e-08 2.67181e-08 0.000168162

0.000160094 -1.47238e-05 3.05156e-08
-1.47238e-05 0.000202331 4.19294e-08
3.05156e-08 4.19294e-08 0.000166832

0.000203904 -1.14245e-05 7.88957e-09
-1.14245e-05 0.000155217 -6.61207e-08
7.88957e-09 -6.61207e-08 0.000165742

0.000232346 3.66069e-05 3.46394e-09
3.66069e-05 0.000261278 -2.31878e-07
3.46394e-09 -2.31878e-07 0.000257316

0.000135498 -2.11581e-06 8.78854e-08
-2.11581e-06 0.000190786 -1.2138e-07
8.78854e-08 -1.2138e-07 0.000155963

0.000187814 3.46635e-06 4.28618e-12
3.46635e-06 0.000141507 -5.93452e-08
4.28618e-12 -5.93452e-08 0.000155118

0.000264164 -3.80859e-05 -4.54559e-08
-3.80859e-05 0.000301078 2.07778e-07
-4.54559e-08 2.07778e-07 0.000288152

0.000266998 4.63506e-05 -1.71982e-07
4.63506e-05 0.000278455 -1.10288e-07
-1.71982e-07 -1.10288e-07 0.000290632

0.000268465 -3.05057e-05 -4.47258e-08
-3.05057e-05 0.000302704 2.10272e-07
-4.47258e-08 2.10272e-07 0.000290522

0.000268659 4.07926e-05 -1.56813e-07
4.07926e-05 0.000297028 -1.62873e-07
-1.56813e-07 -1.62873e-07 0.000292176

0.000117911 -2.78983e-05 2.38481e-08
-2.78983e-05 0.00012153 -1.04262e-08
2.38481e-08 -1.04262e-08 0.000135901

0.000117569 -2.69229e-05 -2.00326e-07
-2.69229e-05 0.000123555 1.85521e-08
-2.00326e-07 1.85521e-08 0.000136303

0.000252756 3.41431e-05 1.15356e-08
3.41431e-05 0.000260154 -2.34984e-07
1.15356e-08 -2.34984e-07 0.000265136

0.000251757 -3.68875e-05 1.53e-07
-3.68875e-05 0.000278377 1.3442e-07
1.53e-07 1.3442e-07 0.000262897

0.000306507 -1.01889e-05 4.36531e-08
-1.01889e-05 0.00034964 -5.18909e-08
4.36531e-08 -5.18909e-08 0.000306855

0.000305797 -1.16428e-05 1.46559e-07
-1.16428e-05 0.000315743 7.95895e-08
1.46559e-07 7.95895e-08 0.000308755

0.00025955 -3.98145e-05 7.0265e-08
-3.98145e-05 0.000320494 9.82202e-09
7.0265e-08 9.82202e-09 0.000293599

0.000250514 4.23286e-05 -5.18059e-09
4.23286e-05 0.000307159 1.5425e-07
-5.18059e-09 1.5425e-07 0.000295913

0.000317517 -6.11174e-07 2.89155e-07
-6.11174e-07 0.000270734 6.45889e-08
2.89155e-07 6.45889e-08 0.000301008

0.000303707 8.94321e-06 -9.43386e-08
8.94321e-06 0.000278672 5.63728e-08
-9.43386e-08 5.63728e-08 0.000301335

0.000259602 3.81474e-05 5.88679e-08
3.81474e-05 0.000286556 1.67464e-07
5.88679e-08 1.67464e-07 0.000279267

0.000266297 -3.98541e-05 3.30932e-08
-3.98541e-05 0.000267993 -1.36136e-07
3.30932e-08 -1.36136e-07 0.000277814

0.000293913 -1.65052e-05 -9.13066e-08
-1.65052e-05 0.000347332 1.13167e-07
-9.13066e-08 1.13167e-07 0.000310252

0.000331671 1.63299e-05 1.99535e-07
1.63299e-05 0.000310266 2.49117e-07
1.99535e-07 2.49117e-07 0.000310879

0.000353807 -3.89491e-05 -2.42499e-07
-3.89491e-05 0.000326942 1.25682e-07
-2.42499e-07 1.25682e-07 0.000308717

0.000291648 -6.41805e-06 -1.35463e-07
-6.41805e-06 0.000383035 1.94811e-07
-1.35463e-07 1.94811e-07 0.000308613

0.000320859 1.07039e-05 -2.98334e-08
1.07039e-05 0.000309853 -1.4895e-08
-2.98334e-08 -1.4895e-08 0.0003102

0.00029973 1.46977e-06 1.16187e-07
1.46977e-06 0.000345038 -1.50023e-07
1.16187e-07 -1.50023e-07 0.000315721

0.000339489 -1.18681e-05 -3.38252e-07
-1.18681e-05 0.000297762 2.66051e-09
-3.38252e-07 2.66051e-09 0.000310195

0.000336718 -4.46959e-06 1.0579e-07
-4.46959e-06 0.000313829 4.13578e-07
1.0579e-07 4.13578e-07 0.000315705

0.000310424 -2.10671e-05 -4.2204e-07
-2.10671e-05 0.000330303 6.99902e-07
-4.2204e-07 6.99902e-07 0.000313069

0.00032287 5.46361e-05 -6.85043e-07
5.46361e-05 0.000374378 -1.10027e-06
-6.85043e-07 -1.10027e-06 0.000313508

0.000412974 2.21388e-05 -2.07496e-06
2.21388e-05 0.000393651 1.54609e-06
-2.07496e-06 1.54609e-06 0.000319107

0.000461021 -1.86427e-05 -2.30201e-06
-1.86427e-05 0.000274714 -1.05293e-06
-2.30201e-06 -1.05293e-06 0.000319341

0.000324185 -2.8528e-05 4.38983e-08
-2.8528e-05 0.000321303 -6.36142e-09
4.38983e-08 -6.36142e-09 0.000310577

0.000290632 -2.12496e-05 3.06947e-08
-2.12496e-05 0.000326376 2.38174e-09
3.06947e-08 2.38174e-09 0.00030321

0.000338284 4.84226e-05 2.01713e-07
4.84226e-05 0.000320127 2.43864e-07
2.01713e-07 2.43864e-07 0.000311185

0.000295464 2.74719e-05 5.056e-08
2.74719e-05 0.000311157 1.4377e-07
5.056e-08 1.4377e-07 0.000304385

0.000332405 5.54723e-05 1.77208e-07
5.54723e-05 0.000380908 3.57345e-07
1.77208e-07 3.57345e-07 0.00031694

0.000333871 -5.85048e-06 9.06123e-08
-5.85048e-06 0.000323643 2.09959e-07
9.06123e-08 2.09959e-07 0.000317006

0.000290294 -1.8898e-05 3.16059e-08
-1.8898e-05 0.00031953 -8.78222e-09
3.16059e-08 -8.78222e-09 0.000305848

0.000322147 -1.1406e-05 -9.20052e-08
-1.1406e-05 0.000321107 -4.72786e-08
-9.20052e-08 -4.72786e-08 0.00031191

0.000298401 4.60874e-05 2.49905e-08
4.60874e-05 0.000326408 -1.69542e-07
2.49905e-08 -1.69542e-07 0.000306561

0.000305621 3.02401e-05 -1.38755e-07
3.02401e-05 0.000335579 -1.18548e-07
-1.38755e-07 -1.18548e-07 0.000312148

0.000232035 1.0128e-05 6.41314e-08
1.0128e-05 0.000309411 -1.02157e-07
6.41314e-08 -1.02157e-07 0.000274843

0.00028835 -4.06082e-06 -1.46584e-07
-4.06082e-06 0.000310077 -3.47458e-09
-1.46584e-07 -3.47458e-09 0.000292549

0.000289616 1.00846e-05 -4.56067e-08
1.00846e-05 0.000205119 -1.24276e-07
-4.56067e-08 -1.24276e-07 0.000245879

0.000278267 2.58469e-06 8.82082e-08
2.58469e-06 0.00020022 -4.53651e-08
8.82082e-08 -4.53651e-08 0.00022842

0.000231617 1.15222e-05 4.7668e-08
1.15222e-05 0.000333486 8.93423e-08
4.7668e-08 8.93423e-08 0.000290839

0.000289512 3.15231e-06 -1.41117e-07
3.15231e-06 0.000320651 6.01399e-08
-1.41117e-07 6.01399e-08 0.000311888

0.000279937 -3.91978e-06 7.4977e-08
-3.91978e-06 0.000199865 5.80703e-08
7.4977e-08 5.80703e-08 0.000230516

0.000319927 -2.40724e-06 -2.18652e-08
-2.40724e-06 0.00022657 -2.73165e-08
-2.18652e-08 -2.73165e-08 0.000278385

0.000164788 -2.37177e-05 4.22466e-08
-2.37177e-05 0.000218116 3.67292e-08
4.22466e-08 3.67292e-08 0.000181252

0.000185541 3.85812e-05 -4.04738e-08
3.85812e-05 0.000226807 1.33409e-07
-4.04738e-08 1.33409e-07 0.000187853

0.000214548 3.65949e-05 2.03531e-07
3.65949e-05 0.000175038 1.03872e-07
2.03531e-07 1.03872e-07 0.000184669

0.000297406 4.44752e-05 9.53763e-08
4.44752e-05 0.000323711 -1.14857e-07
9.53763e-08 -1.14857e-07 0.000305843

0.000275613 -1.48037e-05 -6.93289e-08
-1.48037e-05 0.000319341 4.72906e-08
-6.93289e-08 4.72906e-08 0.000295884

0.000254479 3.74793e-05 -6.07616e-08
3.74793e-05 0.000274742 7.347e-09
-6.07616e-08 7.347e-09 0.000254048

0.000274073 3.32694e-05 1.9377e-07
3.32694e-05 0.00031871 -5.50406e-08
1.9377e-07 -5.50406e-08 0.000302021

0.000227196 -1.19965e-05 -2.55239e-08
-1.19965e-05 0.000333822 2.06605e-08
-2.55239e-08 2.06605e-08 0.000289696

0.000294251 -7.18925e-06 8.68012e-08
-7.18925e-06 0.000213271 -6.26571e-08
8.68012e-08 -6.26571e-08 0.000260867

0.000199911 1.76121e-05 1.92436e-08
1.76121e-05 0.00025473 2.05022e-08
1.92436e-08 2.05022e-08 0.000204487

0.000176546 -4.68189e-06 4.94974e-08
-4.68189e-06 0.000247869 5.06496e-08
4.94974e-08 5.06496e-08 0.000198847

0.000245762 1.82719e-05 2.1923e-07
1.82719e-05 0.000185692 9.3762e-08
2.1923e-07 9.3762e-08 0.000199769

0.000254913 -1.85503e-05 -6.66968e-08
-1.85503e-05 0.000191836 -4.23645e-09
-6.66968e-08 -4.23645e-09 0.00021537

0.000212546 3.20627e-05 -2.23652e-08
3.20627e-05 0.000263164 -4.96963e-08
-2.23652e-08 -4.96963e-08 0.0002331

0.000252132 -2.43367e-05 4.47591e-08
-2.43367e-05 0.00027056 -2.76332e-08
4.47591e-08 -2.76332e-08 0.000245756

0.000293227 -1.2246e-05 -4.03896e-08
-1.2246e-05 0.000204404 1.04311e-07
-4.03896e-08 1.04311e-07 0.00024922

0.000176718 2.41337e-05 -5.52878e-08
2.41337e-05 0.000203595 1.05816e-07
-5.52878e-08 1.05816e-07 0.000167647

0.000314352 2.64406e-06 1.96117e-07
2.64406e-06 0.000217974 4.80519e-08
1.96117e-07 4.80519e-08 0.000272225

0.000195595 2.67121e-05 -5.65594e-08
2.67121e-05 0.000169926 -4.39337e-08
-5.65594e-08 -4.39337e-08 0.00016591

0.000275363 3.10386e-06 6.88981e-08
3.10386e-06 0.000333421 8.10907e-08
6.88981e-08 8.10907e-08 0.000296745

0.000312161 1.50263e-05 -4.47363e-08
1.50263e-05 0.00032646 9.76039e-08
-4.47363e-08 9.76039e-08 0.000314195

0.000329287 -3.92127e-05 1.84359e-08
-3.92127e-05 0.000332678 3.06052e-08
1.84359e-08 3.06052e-08 0.000314726

0.000345214 1.72745e-05 1.11712e-07
1.72745e-05 0.000318356 1.24971e-08
1.11712e-07 1.24971e-08 0.00031479

0.00024288 -5.70272e-06 -9.35767e-08
-5.70272e-06 0.000181661 9.87976e-09
-9.35767e-08 9.87976e-09 0.000193268

0.00024303 4.59857e-05 -3.17741e-08
4.59857e-05 0.00026845 -1.562e-08
-3.17741e-08 -1.562e-08 0.000251342

0.000305772 6.74988e-06 -1.4514e-08
6.74988e-06 0.000296944 4.21607e-08
-1.4514e-08 4.21607e-08 0.000296548

0.000296238 -2.09931e-05 6.3804e-08
-2.09931e-05 0.000292274 -4.74598e-08
6.3804e-08 -4.74598e-08 0.000298567

0.000328489 -2.93369e-06 1.69089e-08
-2.93369e-06 0.000218439 5.59657e-08
1.69089e-08 5.59657e-08 0.000279084

0.000211273 3.77717e-05 -9.05596e-08
3.77717e-05 0.000250206 4.12065e-08
-9.05596e-08 4.12065e-08 0.000230785

0.00023941 -3.43148e-05 -2.12043e-08
-3.43148e-05 0.000266566 -1.15568e-07
-2.12043e-08 -1.15568e-07 0.000242895

0.00025276 -2.421e-05 -6.84823e-08
-2.421e-05 0.00021176 -1.61054e-08
-6.84823e-08 -1.61054e-08 0.000221434

0.000320373 -5.82991e-06 -2.96607e-08
-5.82991e-06 0.000212612 1.0651e-07
-2.96607e-08 1.0651e-07 0.000273277

0.000224662 4.49309e-05 -5.36753e-08
4.49309e-05 0.000269664 -2.26478e-08
-5.36753e-08 -2.26478e-08 0.000231875

0.000208846 -3.07149e-05 -6.86e-09
-3.07149e-05 0.000248017 -3.38806e-08
-6.86e-09 -3.38806e-08 0.000228137

0.00022865 4.14934e-05 1.87939e-08
4.14934e-05 0.000272619 -8.18477e-08
1.87939e-08 -8.18477e-08 0.000235286

0.000205238 -2.43281e-05 -2.87743e-08
-2.43281e-05 0.000265893 -5.74115e-08
-2.87743e-08 -5.74115e-08 0.000231178

0.000289923 -2.06209e-05 2.76194e-08
-2.06209e-05 0.000307075 1.6443e-07
2.76194e-08 1.6443e-07 0.00029813

0.000224613 2.91029e-05 3.04277e-08
2.91029e-05 0.000296604 6.35347e-08
3.04277e-08 6.35347e-08 0.00027431

0.000224757 -3.54747e-05 8.24231e-09
-3.54747e-05 0.000210026 -9.48826e-09
8.24231e-09 -9.48826e-09 0.000208251

0.000139518 -3.15911e-05 1.02809e-07
-3.15911e-05 0.000135618 -2.36638e-08
1.02809e-07 -2.36638e-08 0.000137436

0.000126688 -3.42415e-05 1.65932e-08
-3.42415e-05 0.00014315 -1.98167e-07
1.65932e-08 -1.98167e-07 0.00013693

0.000264549 5.37177e-05 -2.08577e-08
5.37177e-05 0.000321422 -7.0853e-08
-2.08577e-08 -7.0853e-08 0.00029616

0.000228918 -3.42008e-05 8.20795e-08
-3.42008e-05 0.000311347 1.0461e-07
8.20795e-08 1.0461e-07 0.000289687

0.000129961 -6.81553e-06 4.09264e-08
-6.81553e-06 0.000130222 2.15267e-07
4.09264e-08 2.15267e-07 0.000143444

0.000132908 -7.3496e-06 1.26586e-07
-7.3496e-06 0.000137973 -2.25165e-08
1.26586e-07 -2.25165e-08 0.00014414

0.00032202 3.11013e-05 -6.69078e-08
3.11013e-05 0.000290009 -9.33719e-08
-6.69078e-08 -9.33719e-08 0.000300344

0.000346315 -2.33408e-05 2.04083e-07
-2.33408e-05 0.000300894 4.21511e-08
2.04083e-07 4.21511e-08 0.000322993

0.000295879 -8.66539e-07 -5.9538e-08
-8.66539e-07 0.000217616 -1.15386e-07
-5.9538e-08 -1.15386e-07 0.000273147

0.000318473 4.37173e-05 -7.1427e-08
4.37173e-05 0.000288098 -6.15682e-08
-7.1427e-08 -6.15682e-08 0.000300413

0.000344242 -3.19918e-05 2.02368e-07
-3.19918e-05 0.000281821 3.00847e-08
2.02368e-07 3.00847e-08 0.000319711

0.000212214 3.04752e-05 -1.85981e-08
3.04752e-05 0.000275589 -2.46229e-09
-1.85981e-08 -2.46229e-09 0.000250266

0.000251935 -2.3843e-05 5.41685e-08
-2.3843e-05 0.000289211 -1.45517e-07
5.41685e-08 -1.45517e-07 0.000266223

0.00034285 1.52836e-05 7.61043e-08
1.52836e-05 0.000297762 2.66051e-09
7.61043e-08 2.66051e-09 0.000310142

0.000323712 -1.95974e-05 -7.77551e-08
-1.95974e-05 0.000309853 -1.4895e-08
-7.77551e-08 -1.4895e-08 0.000310135

0.00029272 4.64541e-05 6.59683e-08
4.64541e-05 0.000261145 -9.16465e-08
6.59683e-08 -9.16465e-08 0.000283625

0.000318203 -3.65598e-05 -4.20141e-08
-3.65598e-05 0.00026855 -3.48827e-08
-4.20141e-08 -3.48827e-08 0.000300194

0.000210475 -2.50481e-05 -6.22824e-08
-2.50481e-05 0.000170591 2.47588e-08
-6.22824e-08 2.47588e-08 0.000178074

0.000290629 -1.33222e-06 4.97878e-08
-1.33222e-06 0.00036957 -5.87942e-08
4.97878e-08 -5.87942e-08 0.000308363

0.000326658 9.33491e-06 -5.48333e-08
9.33491e-06 0.000352641 9.49713e-08
-5.48333e-08 9.49713e-08 0.000337935

0.000148483 -4.0279e-06 1.22007e-07
-4.0279e-06 0.000194979 -7.53881e-08
1.22007e-07 -7.53881e-08 0.000160823

0.000192251 -5.09396e-06 2.26495e-07
-5.09396e-06 0.00015215 -1.66553e-07
2.26495e-07 -1.66553e-07 0.000159969

0.000214187 2.60401e-05 -1.21983e-07
2.60401e-05 0.000295773 3.11395e-08
-1.21983e-07 3.11395e-08 0.000267778

0.000264972 -1.53158e-05 7.40663e-08
-1.53158e-05 0.000305947 1.54556e-07
7.40663e-08 1.54556e-07 0.000286805

0.000389411 -9.66577e-06 -1.67891e-08
-9.66577e-06 0.000420173 2.84901e-07
-1.67891e-08 2.84901e-07 0.000317852

0.000408878 -2.95098e-05 -8.42289e-08
-2.95098e-05 0.000327185 2.52841e-07
-8.42289e-08 2.52841e-07 0.000344506

0.000291689 4.11279e-05 5.23325e-08
4.11279e-05 0.00023218 8.11584e-08
5.23325e-08 8.11584e-08 0.000270805

0.000307048 -2.77643e-05 -1.23776e-07
-2.77643e-05 0.000238024 1.67624e-07
-1.23776e-07 1.67624e-07 0.000281522

0.000241186 6.62018e-07 -9.88963e-08
6.62018e-07 0.000174854 4.67546e-08
-9.88963e-08 4.67546e-08 0.000191339

0.000279954 1.09945e-06 -1.03041e-07
1.09945e-06 0.000208493 3.91626e-08
-1.03041e-07 3.91626e-08 0.000240682

0.000258661 2.00589e-05 -1.47315e-07
2.00589e-05 0.000192446 1.59971e-08
-1.47315e-07 1.59971e-08 0.000211344

0.000307484 7.3409e-06 6.73719e-09
7.3409e-06 0.000258421 -5.15579e-08
6.73719e-09 -5.15579e-08 0.000290961

0.000282774 -1.43702e-05 -8.21318e-08
-1.43702e-05 0.000369103 -1.96305e-08
-8.21318e-08 -1.96305e-08 0.000317053

0.000324912 7.69781e-06 2.82257e-08
7.69781e-06 0.000331611 5.12293e-08
2.82257e-08 5.12293e-08 0.00031713

0.00021326 3.50838e-05 4.93505e-09
3.50838e-05 0.000227165 1.30165e-07
4.93505e-09 1.30165e-07 0.0001963

0.000246432 -3.04087e-05 2.48145e-08
-3.04087e-05 0.000230084 -1.07903e-07
2.48145e-08 -1.07903e-07 0.000241551

0.000284902 3.33154e-05 7.43614e-08
3.33154e-05 0.000223999 9.88969e-08
7.43614e-08 9.88969e-08 0.000257405

0.000322534 1.37339e-05 -1.65761e-07
1.37339e-05 0.000350745 1.21954e-07
-1.65761e-07 1.21954e-07 0.000336052

0.000311915 2.10896e-05 3.20385e-07
2.10896e-05 0.000379219 7.02839e-09
3.20385e-07 7.02839e-09 0.000311965

0.000298966 -1.766e-05 4.5803e-08
-1.766e-05 0.000267296 -1.28196e-07
4.5803e-08 -1.28196e-07 0.000293575

0.000274811 2.72434e-05 1.85032e-07
2.72434e-05 0.000309122 9.43006e-08
1.85032e-07 9.43006e-08 0.000284621

0.000228092 -4.99139e-06 -2.7006e-08
-4.99139e-06 0.000311533 -4.68619e-09
-2.7006e-08 -4.68619e-09 0.000274017

0.000307751 2.01399e-05 4.7483e-08
2.01399e-05 0.000215786 8.70471e-08
4.7483e-08 8.70471e-08 0.000281463

0.000314645 -3.8931e-06 -1.19782e-07
-3.8931e-06 0.000213997 -7.74891e-08
-1.19782e-07 -7.74891e-08 0.000286808

0.000229722 -2.64545e-05 9.64727e-08
-2.64545e-05 0.00021248 -1.70345e-07
9.64727e-08 -1.70345e-07 0.000199717

0.000317412 3.70878e-05 -9.34257e-08
3.70878e-05 0.000243182 -6.68883e-08
-9.34257e-08 -6.68883e-08 0.000291138

0.000329535 -2.34648e-05 -4.61729e-09
-2.34648e-05 0.000237659 9.63174e-08
-4.61729e-09 9.63174e-08 0.000302293

0.000292385 -1.80419e-05 8.98738e-08
-1.80419e-05 0.000232392 -2.4387e-08
8.98738e-08 -2.4387e-08 0.000265203

0.00030442 2.68181e-05 4.85176e-08
2.68181e-05 0.000235917 8.16904e-08
4.85176e-08 8.16904e-08 0.00028128

0.000310084 -1.40715e-05 -7.45822e-08
-1.40715e-05 0.000239597 1.7047e-07
-7.45822e-08 1.7047e-07 0.000290846

0.000288399 -1.17212e-05 7.74861e-08
-1.17212e-05 0.000225333 -1.54271e-07
7.74861e-08 -1.54271e-07 0.000256441

0.000249329 4.80956e-05 -1.18595e-07
4.80956e-05 0.000273234 -8.95963e-08
-1.18595e-07 -8.95963e-08 0.000279444

0.000314762 -4.1843e-05 -5.85829e-08
-4.1843e-05 0.000295203 -2.6949e-09
-5.85829e-08 -2.6949e-09 0.000306278

0.000247605 3.27328e-05 -2.73904e-08
3.27328e-05 0.000235961 7.25921e-08
-2.73904e-08 7.25921e-08 0.0002226

0.000296948 -3.05339e-05 1.13532e-07
-3.05339e-05 0.000319491 2.55996e-09
1.13532e-07 2.55996e-09 0.000314674

0.000234494 3.43841e-05 -3.50346e-08
3.43841e-05 0.000281429 -5.98063e-08
-3.50346e-08 -5.98063e-08 0.000282853

0.000259488 3.0011e-05 -1.66793e-07
3.0011e-05 0.000193621 -8.49952e-08
-1.66793e-07 -8.49952e-08 0.000221738

0.00027212 -2.65191e-05 -4.66088e-08
-2.65191e-05 0.000244921 3.28288e-08
-4.66088e-08 3.28288e-08 0.000270298

0.000287555 1.10286e-05 6.10339e-08
1.10286e-05 0.000231191 2.09258e-07
6.10339e-08 2.09258e-07 0.000251704

0.000224534 4.2656e-05 -4.89355e-08
4.2656e-05 0.000231694 8.20041e-08
-4.89355e-08 8.20041e-08 0.000215876

0.000254278 3.40665e-05 -5.90808e-08
3.40665e-05 0.000234796 5.1583e-08
-5.90808e-08 5.1583e-08 0.000241305

0.000248598 1.37967e-05 -7.45074e-08
1.37967e-05 0.000302225 -4.05725e-08
-7.45074e-08 -4.05725e-08 0.000277456

0.000203315 3.11439e-06 1.12574e-07
3.11439e-06 0.0003098 -7.7221e-08
1.12574e-07 -7.7221e-08 0.000265071

0.000229758 -2.61742e-05 9.20229e-08
-2.61742e-05 0.000176719 -6.11098e-08
9.20229e-08 -6.11098e-08 0.000190818

0.000238504 -4.74375e-05 8.67291e-08
-4.74375e-05 0.00027667 -2.37497e-07
8.67291e-08 -2.37497e-07 0.000280779

0.00025121 5.2235e-05 2.86684e-08
5.2235e-05 0.000300778 8.49623e-08
2.86684e-08 8.49623e-08 0.00027845

0.000240786 -3.86831e-05 -6.54569e-08
-3.86831e-05 0.000244392 2.51435e-07
-6.54569e-08 2.51435e-07 0.0002241

0.000213439 4.60033e-05 -1.09712e-07
4.60033e-05 0.000237001 -1.18412e-07
-1.09712e-07 -1.18412e-07 0.000214858

0.000278086 -2.1757e-05 1.0051e-07
-2.1757e-05 0.000230937 -1.03759e-07
1.0051e-07 -1.03759e-07 0.000254523

0.000319911 -5.59775e-06 5.70772e-08
-5.59775e-06 0.000232858 -1.04923e-07
5.70772e-08 -1.04923e-07 0.000289816

0.000329335 1.60951e-06 -1.6799e-08
1.60951e-06 0.000228404 1.41761e-08
-1.6799e-08 1.41761e-08 0.000288567

0.000242972 -3.65249e-05 3.92499e-08
-3.65249e-05 0.000248964 -4.01074e-08
3.92499e-08 -4.01074e-08 0.000245765

0.000176824 7.22188e-06 1.50574e-08
7.22188e-06 0.000250298 1.90493e-08
1.50574e-08 1.90493e-08 0.00019726

0.000156245 6.19341e-06 -3.71503e-08
6.19341e-06 0.000243262 7.58415e-08
-3.71503e-08 7.58415e-08 0.000191083

0.000240395 7.07007e-06 1.94439e-07
7.07007e-06 0.000165669 2.24062e-08
1.94439e-07 2.24062e-08 0.000192893

0.000214355 3.82485e-05 1.98538e-07
3.82485e-05 0.000205192 7.09757e-08
1.98538e-07 7.09757e-08 0.000193264

0.000251013 -3.72887e-05 1.39339e-08
-3.72887e-05 0.000213983 -9.2529e-08
1.39339e-08 -9.2529e-08 0.000222661

0.0003164 4.23445e-05 6.75488e-08
4.23445e-05 0.000369508 1.9594e-07
6.75488e-08 1.9594e-07 0.000339558

0.000388897 -8.72432e-06 3.75211e-07
-8.72432e-06 0.000390386 -1.03573e-08
3.75211e-07 -1.03573e-08 0.000315878

0.000269179 -1.30169e-05 -1.22352e-08
-1.30169e-05 0.000195921 9.08044e-08
-1.22352e-08 9.08044e-08 0.00022655

0.000223828 3.38987e-05 3.66885e-08
3.38987e-05 0.000273421 4.27557e-08
3.66885e-08 4.27557e-08 0.000263144

0.000280482 -3.82943e-05 -4.20633e-08
-3.82943e-05 0.000293756 -6.68218e-08
-4.20633e-08 -6.68218e-08 0.000284138

0.00029805 1.7302e-05 -5.17866e-08
1.7302e-05 0.000216819 1.44955e-08
-5.17866e-08 1.44955e-08 0.000270373

0.000211674 3.57873e-05 -2.56366e-08
3.57873e-05 0.000270755 -9.42933e-08
-2.56366e-08 -9.42933e-08 0.000225902

0.000183625 -1.62591e-05 1.12552e-07
-1.62591e-05 0.000263027 -9.8516e-08
1.12552e-07 -9.8516e-08 0.000219978

0.000225859 3.63296e-05 -9.14234e-08
3.63296e-05 0.000313581 6.24536e-08
-9.14234e-08 6.24536e-08 0.000290835

0.000309163 -1.48296e-05 1.22629e-07
-1.48296e-05 0.000330171 2.22795e-08
1.22629e-07 2.22795e-08 0.000325807

0.000242874 3.63402e-05 -8.46313e-08
3.63402e-05 0.000272029 3.23528e-08
-8.46313e-08 3.23528e-08 0.000284039

0.000310636 -3.71633e-05 -3.40862e-08
-3.71633e-05 0.0003148 -9.06535e-08
-3.40862e-08 -9.06535e-08 0.000318145

0.000320884 3.11641e-06 8.38971e-08
3.11641e-06 0.00018323 -3.27605e-08
8.38971e-08 -3.27605e-08 0.000291089

0.000232561 4.64873e-05 4.45835e-08
4.64873e-05 0.000207485 -4.19189e-08
4.45835e-08 -4.19189e-08 0.00021388

0.00025151 5.56133e-05 -4.10154e-08
5.56133e-05 0.000317093 -1.06723e-07
-4.10154e-08 -1.06723e-07 0.000283802

0.000234899 -4.10225e-05 -1.618e-08
-4.10225e-05 0.00027059 7.08084e-08
-1.618e-08 7.08084e-08 0.000285379

0.000231384 3.93923e-05 2.61766e-08
3.93923e-05 0.000226065 -2.85779e-07
2.61766e-08 -2.85779e-07 0.000222765

0.000195115 -2.4189e-05 -8.12009e-08
-2.4189e-05 0.000217924 2.86405e-08
-8.12009e-08 2.86405e-08 0.00018948

0.000236762 -3.642e-05 -8.26919e-08
-3.642e-05 0.000262167 1.39772e-07
-8.26919e-08 1.39772e-07 0.000261199

0.000211709 -7.78625e-06 1.19519e-08
-7.78625e-06 0.000256356 2.07177e-08
1.19519e-08 2.07177e-08 0.000210766

0.00018259 2.0781e-05 -1.8653e-08
2.0781e-05 0.000251332 8.57784e-08
-1.8653e-08 8.57784e-08 0.000203423

0.000247835 -7.64026e-06 1.9534e-07
-7.64026e-06 0.000194726 2.05741e-08
1.9534e-07 2.05741e-08 0.00020553

0.000250467 -3.3817e-05 -1.17531e-08
-3.3817e-05 0.00024189 3.16819e-07
-1.17531e-08 3.16819e-07 0.000231761

0.000203198 4.81606e-06 1.10956e-07
4.81606e-06 0.000288857 -4.47695e-08
1.10956e-07 -4.47695e-08 0.000242925

0.000248028 7.76888e-06 -7.85366e-08
7.76888e-06 0.000289895 -1.21525e-07
-7.85366e-08 -1.21525e-07 0.0002528

0.000204788 -3.15876e-05 1.15437e-07
-3.15876e-05 0.000214165 -1.60149e-07
1.15437e-07 -1.60149e-07 0.00019111

0.000185149 3.97784e-05 5.07918e-08
3.97784e-05 0.000211068 1.45432e-07
5.07918e-08 1.45432e-07 0.00018622

0.000301503 7.87588e-06 6.98628e-09
7.87588e-06 0.000220085 9.38535e-08
6.98628e-09 9.38535e-08 0.000289147

0.000303883 3.66349e-07 8.05802e-08
3.66349e-07 0.000216098 -3.79404e-08
8.05802e-08 -3.79404e-08 0.00029303

0.00024421 3.97651e-05 6.25597e-08
3.97651e-05 0.000264387 3.14381e-08
6.25597e-08 3.14381e-08 0.000266936

0.000287246 -3.36436e-05 5.9571e-09
-3.36436e-05 0.00029653 -4.58151e-08
5.9571e-09 -4.58151e-08 0.000288962

0.000261003 5.50501e-05 6.16326e-08
5.50501e-05 0.000322778 -4.21611e-08
6.16326e-08 -4.21611e-08 0.000294452

0.000219561 -3.204e-05 -6.66564e-08
-3.204e-05 0.000310998 1.57745e-07
-6.66564e-08 1.57745e-07 0.000290529

0.000259128 3.58403e-05 7.10945e-08
3.58403e-05 0.000273137 5.12281e-08
7.10945e-08 5.12281e-08 0.000270273

0.0002104 2.27487e-05 2.50031e-08
2.27487e-05 0.000169681 -1.33127e-07
2.50031e-08 -1.33127e-07 0.000173567

0.000219758 -2.06537e-05 3.09812e-08
-2.06537e-05 0.000270285 -2.69858e-08
3.09812e-08 -2.69858e-08 0.000231333

0.000186185 2.75743e-05 -7.3655e-08
2.75743e-05 0.0002628 -5.21037e-08
-7.3655e-08 -5.21037e-08 0.000221667

0.000316115 3.32319e-05 -8.83819e-08
3.32319e-05 0.000261913 -8.70411e-08
-8.83819e-08 -8.70411e-08 0.000292314

0.000332303 -1.88579e-05 2.4135e-07
-1.88579e-05 0.00026933 -2.85856e-08
2.4135e-07 -2.85856e-08 0.000308717

0.00028153 -3.15356e-05 -1.36682e-08
-3.15356e-05 0.000251493 1.31699e-07
-1.36682e-08 1.31699e-07 0.000260791

0.000292024 3.86196e-05 6.72951e-08
3.86196e-05 0.00024571 -9.02748e-08
6.72951e-08 -9.02748e-08 0.000272286

0.000306882 -2.767e-05 -1.33097e-07
-2.767e-05 0.000262307 5.98986e-08
-1.33097e-07 5.98986e-08 0.000286046

0.000140248 -1.0568e-05 -8.08528e-08
-1.0568e-05 9.28422e-05 1.59999e-07
-8.08528e-08 1.59999e-07 0.000145907

9.08553e-05 -1.32181e-05 -1.09341e-07
-1.32181e-05 0.000134503 -8.38843e-08
-1.09341e-07 -8.38843e-08 0.000145297

0.000358708 4.35516e-05 -7.38811e-09
4.35516e-05 0.000318582 -6.19336e-08
-7.38811e-09 -6.19336e-08 0.000311141

0.000375228 -3.17194e-05 -8.89171e-08
-3.17194e-05 0.000292564 -2.81102e-07
-8.89171e-08 -2.81102e-07 0.00033136

0.000265551 4.31614e-05 -7.03153e-08
4.31614e-05 0.000234886 -3.17951e-08
-7.03153e-08 -3.17951e-08 0.000249367

0.000212613 2.06406e-05 -2.85985e-08
2.06406e-05 0.000163708 1.96996e-08
-2.85985e-08 1.96996e-08 0.000172653

0.000245695 3.83188e-05 3.73147e-08
3.83188e-05 0.000305342 1.68495e-07
3.73147e-08 1.68495e-07 0.000274697

0.000208523 -1.43703e-05 4.58319e-08
-1.43703e-05 0.000307048 3.18994e-08
4.58319e-08 3.18994e-08 0.000267734

0.000210443 -3.59839e-05 -7.65327e-09
-3.59839e-05 0.000226999 -2.73726e-08
-7.65327e-09 -2.73726e-08 0.00021074

0.000280154 2.33025e-05 1.05876e-08
2.33025e-05 0.000315053 5.57832e-08
1.05876e-08 5.57832e-08 0.000296791

0.000313834 -1.32184e-05 -8.43321e-08
-1.32184e-05 0.000330362 8.74603e-09
-8.43321e-08 8.74603e-09 0.000325355

0.00024886 2.86792e-05 -8.64949e-08
2.86792e-05 0.000198878 -1.10222e-07
-8.64949e-08 -1.10222e-07 0.000209563

0.000277259 1.54713e-05 -8.70864e-08
1.54713e-05 0.000204212 -1.28621e-07
-8.70864e-08 -1.28621e-07 0.00023938

0.000217083 5.3971e-05 -2.97694e-08
5.3971e-05 0.00028513 -5.93282e-08
-2.97694e-08 -5.93282e-08 0.00028372

0.000320547 -2.76911e-05 2.64263e-08
-2.76911e-05 0.00031878 1.047e-08
2.64263e-08 1.047e-08 0.000321861

0.000228798 4.42958e-05 1.98774e-08
4.42958e-05 0.000291688 -4.49803e-08
1.98774e-08 -4.49803e-08 0.000254284

0.000205004 -2.3173e-05 -3.2803e-08
-2.3173e-05 0.000278673 -1.8196e-09
-3.2803e-08 -1.8196e-09 0.000250284

0.000266079 4.83492e-05 -1.08612e-07
4.83492e-05 0.000243436 -6.48022e-08
-1.08612e-07 -6.48022e-08 0.000262743

0.000294409 -4.12311e-05 4.03272e-08
-4.12311e-05 0.000258633 8.50691e-08
4.03272e-08 8.50691e-08 0.000277267

0.000194045 1.40138e-05 -1.21635e-07
1.40138e-05 0.000282224 6.47553e-08
-1.21635e-07 6.47553e-08 0.000237336

0.000233345 -1.13408e-06 9.11372e-09
-1.13408e-06 0.000284766 -8.02509e-08
9.11372e-09 -8.02509e-08 0.000248554

0.00014661 -1.55745e-05 1.16735e-07
-1.55745e-05 0.000172379 -1.34747e-07
1.16735e-07 -1.34747e-07 0.0001487

0.00016813 -1.54327e-05 7.03956e-08
-1.54327e-05 0.000150346 -1.81943e-07
7.03956e-08 -1.81943e-07 0.000148535

0.000285821 2.5333e-05 8.14946e-08
2.5333e-05 0.000212837 -2.9722e-08
8.14946e-08 -2.9722e-08 0.000256791

0.000415695 8.14654e-06 -1.81092e-08
8.14654e-06 0.000353662 2.81724e-07
-1.81092e-08 2.81724e-07 0.000316943

0.000410252 -2.79809e-05 -5.92876e-08
-2.79809e-05 0.000311867 1.92813e-07
-5.92876e-08 1.92813e-07 0.000340993

0.000294137 -3.60767e-05 -2.73483e-09
-3.60767e-05 0.000332907 3.50403e-08
-2.73483e-09 3.50403e-08 0.000308436

0.000300272 1.14838e-05 -6.97882e-08
1.14838e-05 0.000318032 -2.84937e-08
-6.97882e-08 -2.84937e-08 0.000308034

0.000310523 -2.06992e-06 1.75516e-08
-2.06992e-06 0.000212185 -1.60679e-07
1.75516e-08 -1.60679e-07 0.000259251

0.000247307 5.96009e-05 -1.11444e-07
5.96009e-05 0.00031553 1.127e-08
-1.11444e-07 1.127e-08 0.000283342

0.000208429 -5.54838e-05 1.09379e-08
-5.54838e-05 0.00028518 1.10621e-07
1.09379e-08 1.10621e-07 0.000284031

0.000159856 3.03928e-05 -1.90876e-07
3.03928e-05 0.000172698 9.77835e-09
-1.90876e-07 9.77835e-09 0.000157729

0.000175843 3.10261e-05 2.56391e-08
3.10261e-05 0.00017053 -1.33095e-07
2.56391e-08 -1.33095e-07 0.00015919

0.000163436 -1.15516e-05 -4.2539e-08
-1.15516e-05 0.000210671 -2.23704e-08
-4.2539e-08 -2.23704e-08 0.00017227

0.000158763 2.3753e-05 -1.98243e-07
2.3753e-05 0.000204707 -9.48454e-08
-1.98243e-07 -9.48454e-08 0.000169443

0.000207715 -6.22058e-06 -9.98085e-08
-6.22058e-06 0.000158657 1.13217e-07
-9.98085e-08 1.13217e-07 0.000170559

0.000144874 1.40303e-05 -8.94243e-08
1.40303e-05 0.000200391 9.52163e-08
-8.94243e-08 9.52163e-08 0.000161069

0.000191928 1.64336e-05 -6.52497e-08
1.64336e-05 0.000142711 -7.40216e-08
-6.52497e-08 -7.40216e-08 0.000159993

0.000287453 4.46701e-06 -4.05945e-08
4.46701e-06 0.000348626 1.06104e-07
-4.05945e-08 1.06104e-07 0.000305033

0.000306037 3.16657e-05 6.06848e-08
3.16657e-05 0.000339991 -4.38527e-08
6.06848e-08 -4.38527e-08 0.000317691

0.000306357 4.97258e-06 3.60677e-08
4.97258e-06 0.000254933 -2.36233e-08
3.60677e-08 -2.36233e-08 0.000275282

0.000328032 -1.24873e-06 -8.96427e-09
-1.24873e-06 0.000212497 1.31526e-07
-8.96427e-09 1.31526e-07 0.000278891

0.000201507 -1.92963e-05 8.40708e-08
-1.92963e-05 0.000243431 1.07629e-07
8.40708e-08 1.07629e-07 0.000206393

0.000182263 2.88094e-05 3.59881e-08
2.88094e-05 0.000232456 1.99295e-08
3.59881e-08 1.99295e-08 0.000198929

0.000310312 -1.38173e-06 -3.46399e-08
-1.38173e-06 0.000210695 1.09062e-07
-3.46399e-08 1.09062e-07 0.000260495

0.000339174 2.41191e-05 -2.26449e-08
2.41191e-05 0.00029991 -7.99127e-08
-2.26449e-08 -7.99127e-08 0.000306009

0.00035445 -1.85715e-05 -2.19208e-07
-1.85715e-05 0.00029043 -1.27557e-07
-2.19208e-07 -1.27557e-07 0.000324603

0.000275484 2.36029e-05 1.09792e-07
2.36029e-05 0.000281826 2.88124e-08
1.09792e-07 2.88124e-08 0.000273777

0.000235079 -3.96807e-05 -1.34801e-07
-3.96807e-05 0.000268596 -1.04591e-07
-1.34801e-07 -1.04591e-07 0.00026726

0.000243212 5.04641e-05 -3.01725e-08
5.04641e-05 0.00030091 5.68757e-08
-3.01725e-08 5.68757e-08 0.000266254

0.000306704 5.03043e-06 5.98693e-08
5.03043e-06 0.000222987 2.08781e-07
5.98693e-08 2.08781e-07 0.000269203

0.000214223 3.6119e-05 5.75801e-08
3.6119e-05 0.00020389 -7.82274e-08
5.75801e-08 -7.82274e-08 0.000190472

0.000218062 -2.97495e-05 1.32739e-08
-2.97495e-05 0.000280909 -3.82541e-08
1.32739e-08 -3.82541e-08 0.000264026

0.000245028 5.37066e-05 8.04983e-08
5.37066e-05 0.000296908 -2.50333e-09
8.04983e-08 -2.50333e-09 0.000265786

0.000128562 6.2802e-05 -2.32094e-07
6.2802e-05 0.000132784 9.50461e-08
-2.32094e-07 9.50461e-08 0.000131637

0.000189979 -3.96081e-06 1.37271e-07
-3.96081e-06 0.00028377 -3.3526e-08
1.37271e-07 -3.3526e-08 0.000236047

0.000221585 2.03916e-05 -2.63838e-09
2.03916e-05 0.000283936 -1.53951e-07
-2.63838e-09 -1.53951e-07 0.00024349

0.000277025 -4.9222e-06 1.24784e-07
-4.9222e-06 0.000370421 -2.46581e-07
1.24784e-07 -2.46581e-07 0.000306299

0.000315111 2.44417e-05 -6.32519e-08
2.44417e-05 0.000335458 -1.0955e-08
-6.32519e-08 -1.0955e-08 0.000325778

0.000326182 2.04388e-05 -2.54105e-08
2.04388e-05 0.000210588 5.13645e-08
-2.54105e-08 5.13645e-08 0.000295643

0.000337009 -1.39886e-05 6.18777e-08
-1.39886e-05 0.000197871 -1.37685e-08
6.18777e-08 -1.37685e-08 0.000303487

0.000278111 2.7277e-05 6.82693e-08
2.7277e-05 0.000284803 8.40216e-09
6.82693e-08 8.40216e-09 0.00028723

0.000273793 -4.10636e-05 -6.29255e-08
-4.10636e-05 0.00028265 -8.3608e-08
-6.29255e-08 -8.3608e-08 0.000289951

0.000294281 2.3115e-05 -6.51752e-08
2.3115e-05 0.000328579 -4.82939e-08
-6.51752e-08 -4.82939e-08 0.000305237

0.000297456 -3.17612e-05 8.90218e-09
-3.17612e-05 0.000309596 8.45296e-08
8.90218e-09 8.45296e-08 0.000306165

0.000375666 4.03474e-05 2.08563e-07
4.03474e-05 0.000350032 2.68463e-07
2.08563e-07 2.68463e-07 0.000315009

0.000396128 -2.98456e-05 -2.13007e-07
-2.98456e-05 0.000311698 1.83821e-07
-2.13007e-07 1.83821e-07 0.000340359

0.000254674 5.90766e-05 1.19651e-07
5.90766e-05 0.000281383 7.68926e-08
1.19651e-07 7.68926e-08 0.000292109

0.000346365 -3.18677e-05 6.35561e-08
-3.18677e-05 0.000310792 -1.11944e-07
6.35561e-08 -1.11944e-07 0.000330175

0.000266086 4.37412e-05 -1.09108e-07
4.37412e-05 0.000221347 1.2579e-07
-1.09108e-07 1.2579e-07 0.00024551

0.000246114 3.77356e-05 7.27724e-08
3.77356e-05 0.000293487 -7.55527e-08
7.27724e-08 -7.55527e-08 0.000258221

0.000208818 -1.47625e-05 4.826e-08
-1.47625e-05 0.000287662 4.86157e-08
4.826e-08 4.86157e-08 0.000251911

0.000268499 -4.46114e-05 1.67292e-07
-4.46114e-05 0.000247198 1.64354e-07
1.67292e-07 1.64354e-07 0.000251423

0.000210222 -2.42254e-05 -6.37824e-08
-2.42254e-05 0.00020132 4.68594e-08
-6.37824e-08 4.68594e-08 0.000186992

0.000282411 -3.19779e-05 -5.20414e-08
-3.19779e-05 0.000228047 -4.79004e-08
-5.20414e-08 -4.79004e-08 0.000253252

0.000242321 4.86207e-05 2.60336e-07
4.86207e-05 0.000233827 -7.70317e-08
2.60336e-07 -7.70317e-08 0.000239996

0.00023835 -6.46567e-05 -9.85137e-08
-6.46567e-05 0.000285589 9.75695e-08
-9.85137e-08 9.75695e-08 0.000293588

0.000258567 5.15606e-05 1.41881e-09
5.15606e-05 0.000314146 -9.44068e-08
1.41881e-09 -9.44068e-08 0.000291635

0.000303172 -1.13346e-05 -1.04441e-07
-1.13346e-05 0.000251767 1.24515e-08
-1.04441e-07 1.24515e-08 0.000279282

0.000391944 -1.96461e-05 -4.44765e-07
-1.96461e-05 0.000381431 8.45796e-08
-4.44765e-07 8.45796e-08 0.000315384

0.000333676 1.67351e-05 -3.93326e-07
1.67351e-05 0.000362904 -2.21665e-08
-3.93326e-07 -2.21665e-08 0.000334712

0.000275776 1.97531e-05 1.12338e-07
1.97531e-05 0.000248595 -4.81061e-08
1.12338e-07 -4.81061e-08 0.000267416

0.000330463 -7.84336e-06 1.18824e-08
-7.84336e-06 0.000266763 -5.35619e-08
1.18824e-08 -5.35619e-08 0.000297567

0.000166147 -2.27856e-05 -7.42509e-08
-2.27856e-05 0.000179616 2.78675e-07
-7.42509e-08 2.78675e-07 0.000156643

0.000183211 -2.11627e-05 -2.11604e-07
-2.11627e-05 0.000157413 1.08393e-07
-2.11604e-07 1.08393e-07 0.000156711

0.000328136 6.43976e-06 6.80392e-08
6.43976e-06 0.000242341 -6.4679e-08
6.80392e-08 -6.4679e-08 0.000297817

0.000336059 1.52129e-06 1.49925e-07
1.52129e-06 0.000234659 8.71117e-08
1.49925e-07 8.71117e-08 0.000308711

0.000319707 6.03669e-07 5.08309e-08
6.03669e-07 0.000277837 -1.26368e-07
5.08309e-08 -1.26368e-07 0.000298547

0.000265019 -1.76259e-05 7.6842e-08
-1.76259e-05 0.000291755 -1.30731e-07
7.6842e-08 -1.30731e-07 0.000267464

0.000214129 2.30224e-05 -1.21654e-07
2.30224e-05 0.000284495 6.47435e-08
-1.21654e-07 6.47435e-08 0.000252416

0.000259652 3.49691e-05 -1.63928e-07
3.49691e-05 0.000211566 8.29418e-08
-1.63928e-07 8.29418e-08 0.000227254

0.000294301 3.98673e-05 7.19248e-08
3.98673e-05 0.000265739 -1.39118e-07
7.19248e-08 -1.39118e-07 0.000284589

0.000319144 -3.14932e-05 -5.62074e-08
-3.14932e-05 0.000289541 -1.47954e-07
-5.62074e-08 -1.47954e-07 0.000304673

0.00034141 5.46928e-06 3.55664e-08
5.46928e-06 0.000320534 -4.67098e-07
3.55664e-08 -4.67098e-07 0.000318887

0.000329476 -4.4626e-05 -6.48398e-08
-4.4626e-05 0.000389039 5.12921e-07
-6.48398e-08 5.12921e-07 0.000318653

0.000280187 1.73732e-05 1.55765e-07
1.73732e-05 0.000242765 -1.6384e-08
1.55765e-07 -1.6384e-08 0.000251169

0.000317809 2.80376e-05 -9.30826e-08
2.80376e-05 0.000271128 -8.19853e-08
-9.30826e-08 -8.19853e-08 0.000294256

0.000329632 -2.10082e-05 -1.37603e-08
-2.10082e-05 0.000267778 -3.00133e-07
-1.37603e-08 -3.00133e-07 0.000308491

0.000231477 -1.63262e-05 7.55544e-08
-1.63262e-05 0.000298671 1.12332e-08
7.55544e-08 1.12332e-08 0.000277216

0.000265412 4.87085e-05 -3.57706e-08
4.87085e-05 0.000310258 1.17679e-07
-3.57706e-08 1.17679e-07 0.000282414

0.000254609 6.18888e-05 1.13722e-08
6.18888e-05 0.000315967 2.572e-08
1.13722e-08 2.572e-08 0.000283829

0.000229203 -3.80793e-05 -8.97557e-08
-3.80793e-05 0.00027874 1.27552e-07
-8.97557e-08 1.27552e-07 0.000282642

0.000142944 7.11053e-05 3.17076e-09
7.11053e-05 0.00014563 -5.19331e-08
3.17076e-09 -5.19331e-08 0.000136254

0.000268835 3.81818e-05 -1.91697e-08
3.81818e-05 0.000326049 -5.24766e-08
-1.91697e-08 -5.24766e-08 0.000296626

0.000253684 -4.35118e-05 -1.08725e-07
-4.35118e-05 0.000308247 7.68396e-08
-1.08725e-07 7.68396e-08 0.000298253

0.000216458 -3.41689e-05 1.82286e-08
-3.41689e-05 0.000288801 -7.08489e-09
1.82286e-08 -7.08489e-09 0.000275135

0.000244734 5.3189e-05 6.2405e-08
5.3189e-05 0.000309439 8.79868e-08
6.2405e-08 8.79868e-08 0.00027744

0.000271319 -2.35915e-05 9.651e-09
-2.35915e-05 0.000221707 -9.4249e-08
9.651e-09 -9.4249e-08 0.000234783

0.000272274 -2.85032e-05 -3.92048e-08
-2.85032e-05 0.000266652 -9.93445e-08
-3.92048e-08 -9.93445e-08 0.000275975

0.000272976 3.11728e-05 5.79525e-08
3.11728e-05 0.000304009 3.76605e-08
5.79525e-08 3.76605e-08 0.000290105

0.00027319 -4.25518e-05 -4.10869e-08
-4.25518e-05 0.000280006 -1.28506e-09
-4.10869e-08 -1.28506e-09 0.000291909

0.000303171 -1.10542e-05 -1.04199e-07
-1.10542e-05 0.000222656 -8.47005e-08
-1.04199e-07 -8.47005e-08 0.000272825

0.000328121 1.18216e-05 6.28905e-08
1.18216e-05 0.000296221 -9.02727e-08
6.28905e-08 -9.02727e-08 0.000304276

0.00033977 -1.18186e-05 1.5902e-07
-1.18186e-05 0.000275595 4.19138e-08
1.5902e-07 4.19138e-08 0.000318426

0.000309742 1.39777e-05 -2.66276e-07
1.39777e-05 0.000397933 -9.67137e-08
-2.66276e-07 -9.67137e-08 0.000313384

0.000322091 1.73625e-05 -1.49789e-07
1.73625e-05 0.000376131 2.25197e-07
-1.49789e-07 2.25197e-07 0.000333239

0.000136668 1.34681e-05 -9.84899e-09
1.34681e-05 0.000100411 2.48896e-07
-9.84899e-09 2.48896e-07 0.000142493

0.000102498 1.34322e-05 -4.8937e-08
1.34322e-05 0.000142848 2.36454e-07
-4.8937e-08 2.36454e-07 0.000142342

0.00026819 3.94863e-05 -1.79703e-07
3.94863e-05 0.000268929 -2.13256e-08
-1.79703e-07 -2.13256e-08 0.000282572

0.000312493 -4.01857e-05 1.0749e-09
-4.01857e-05 0.00030174 6.39565e-08
1.0749e-09 6.39565e-08 0.000307836

0.000134648 2.59893e-05 2.80358e-08
2.59893e-05 0.000130716 2.14327e-07
2.80358e-08 2.14327e-07 0.000143259

0.000130253 2.91931e-05 -1.02178e-07
2.91931e-05 0.000132892 -6.8329e-08
-1.02178e-07 -6.8329e-08 0.000143332

0.000391492 -9.0022e-06 -7.14037e-08
-9.0022e-06 0.000361835 1.81806e-07
-7.14037e-08 1.81806e-07 0.000340294

0.000387442 -6.3879e-06 -3.14332e-08
-6.3879e-06 0.00040339 2.93829e-07
-3.14332e-08 2.93829e-07 0.000317808

0.000255471 -3.82232e-05 1.93985e-07
-3.82232e-05 0.000262296 9.95605e-08
1.93985e-07 9.95605e-08 0.000272311

0.000271649 4.99251e-05 -1.77799e-07
4.99251e-05 0.000261405 -9.18821e-09
-1.77799e-07 -9.18821e-09 0.000277828

0.000313625 -4.20931e-05 2.74819e-08
-4.20931e-05 0.000280011 -1.04445e-07
2.74819e-08 -1.04445e-07 0.000298679

0.000242447 4.34587e-05 1.65573e-07
4.34587e-05 0.000251242 8.62383e-08
1.65573e-07 8.62383e-08 0.000245608

0.000273694 -3.47757e-05 2.58752e-09
-3.47757e-05 0.000265672 -1.19746e-07
2.58752e-09 -1.19746e-07 0.00025974

0.000172989 -6.51225e-06 9.93403e-09
-6.51225e-06 0.000212696 -8.19669e-09
9.93403e-09 -8.19669e-09 0.000174047

0.000152924 1.76252e-05 8.68055e-09
1.76252e-05 0.000206385 -1.21537e-07
8.68055e-09 -1.21537e-07 0.000169813

0.000208959 -2.81253e-06 -1.27958e-07
-2.81253e-06 0.000163769 -1.57965e-08
-1.27958e-07 -1.57965e-08 0.000171876

0.000242279 4.56227e-05 7.62616e-08
4.56227e-05 0.000257866 -4.32009e-08
7.62616e-08 -4.32009e-08 0.000259558

0.000283667 -4.53325e-05 -5.4785e-09
-4.53325e-05 0.00027535 -1.08085e-07
-5.4785e-09 -1.08085e-07 0.000277262

0.000137183 2.93909e-06 5.29498e-08
2.93909e-06 0.000193743 -6.87419e-08
5.29498e-08 -6.87419e-08 0.000157148

0.000191104 -3.45292e-08 1.82402e-07
-3.45292e-08 0.00014449 1.85667e-07
1.82402e-07 1.85667e-07 0.000156478

0.000292113 4.72619e-05 4.28035e-08
4.72619e-05 0.00027104 2.16657e-08
4.28035e-08 2.16657e-08 0.000291519

0.00033471 -3.31005e-05 -1.21759e-07
-3.31005e-05 0.000298171 8.77004e-08
-1.21759e-07 8.77004e-08 0.000318488

0.000291454 4.63787e-05 8.47922e-08
4.63787e-05 0.000285095 -1.2392e-07
8.47922e-08 -1.2392e-07 0.00029321

0.000330742 -4.04916e-05 -1.55801e-07
-4.04916e-05 0.000294618 -3.03219e-08
-1.55801e-07 -3.03219e-08 0.000316479

0.000123258 2.74167e-05 -2.31441e-07
2.74167e-05 0.000124446 1.03706e-07
-2.31441e-07 1.03706e-07 0.000137216

0.000122871 2.48192e-05 -1.31873e-07
2.48192e-05 0.000126763 1.03037e-07
-1.31873e-07 1.03037e-07 0.00013688

0.000266902 4.40432e-05 -1.19649e-07
4.40432e-05 0.000255408 3.25292e-08
-1.19649e-07 3.25292e-08 0.000267321

0.000295306 -3.60548e-05 1.92471e-08
-3.60548e-05 0.000280782 -9.85329e-08
1.92471e-08 -9.85329e-08 0.000285421

0.000319402 2.86585e-05 -1.04955e-07
2.86585e-05 0.000339595 -5.34982e-08
-1.04955e-07 -5.34982e-08 0.000325452

0.000303724 -8.57575e-06 -2.31856e-07
-8.57575e-06 0.00035009 1.17241e-07
-2.31856e-07 1.17241e-07 0.000308399

0.000266401 3.71896e-05 1.05501e-07
3.71896e-05 0.000303739 1.21075e-07
1.05501e-07 1.21075e-07 0.000296461

0.000339496 -4.20133e-05 4.35505e-08
-4.20133e-05 0.000314402 -1.74405e-07
4.35505e-08 -1.74405e-07 0.00032896

0.000337555 3.31463e-05 -2.69485e-08
3.31463e-05 0.000269808 -4.0689e-08
-2.69485e-08 -4.0689e-08 0.000303204

0.000354024 -2.21939e-05 -2.23804e-07
-2.21939e-05 0.000259801 -1.69373e-07
-2.23804e-07 -1.69373e-07 0.000319046

0.000261497 4.46171e-05 6.61509e-08
4.46171e-05 0.000303585 3.753e-08
6.61509e-08 3.753e-08 0.000279763

0.000250114 -3.73382e-05 2.42338e-07
-3.73382e-05 0.000280165 2.90682e-09
2.42338e-07 2.90682e-09 0.000282644

0.000304835 2.74053e-05 7.54735e-08
2.74053e-05 0.000370387 9.95315e-08
7.54735e-08 9.95315e-08 0.000324681

0.000318854 3.18342e-05 -1.18177e-07
3.18342e-05 0.000329114 -8.42028e-08
-1.18177e-07 -8.42028e-08 0.000312277

0.000329664 -5.62782e-05 -1.8113e-07
-5.62782e-05 0.000328076 2.1487e-07
-1.8113e-07 2.1487e-07 0.000312658

0.000289562 -7.47926e-06 -2.71945e-08
-7.47926e-06 0.000382014 -2.38202e-08
-2.71945e-08 -2.38202e-08 0.000310227

0.000357972 3.29441e-05 8.22249e-08
3.29441e-05 0.000311126 -7.58731e-08
8.22249e-08 -7.58731e-08 0.000311114

0.000386552 6.16464e-06 9.64814e-08
6.16464e-06 0.000336214 -8.90661e-08
9.64814e-08 -8.90661e-08 0.000315175

0.000375902 -3.0341e-05 1.55301e-07
-3.0341e-05 0.000283143 4.46857e-08
1.55301e-07 4.46857e-08 0.000328193

0.000397507 -9.92325e-06 -2.3916e-07
-9.92325e-06 0.000302431 -3.20349e-07
-2.3916e-07 -3.20349e-07 0.000335568

0.000337799 3.61329e-05 6.26356e-07
3.61329e-05 0.000362592 1.07778e-06
6.26356e-07 1.07778e-06 0.00031289

0.000415735 -1.39378e-05 2.67152e-06
-1.39378e-05 0.000411519 -1.75324e-06
2.67152e-06 -1.75324e-06 0.000318093

0.000425563 -3.73919e-05 -1.2667e-06
-3.73919e-05 0.000305643 -6.43651e-07
-1.2667e-06 -6.43651e-07 0.000347458

0.000400788 -3.38141e-05 5.2451e-07
-3.38141e-05 0.000330319 -9.3902e-07
5.2451e-07 -9.3902e-07 0.000348038

0.000357275 3.70898e-05 -3.41663e-08
3.70898e-05 0.000320744 7.65676e-08
-3.41663e-08 7.65676e-08 0.000310733

0.000323559 1.72288e-05 4.9071e-08
1.72288e-05 0.000309225 1.31686e-07
4.9071e-08 1.31686e-07 0.000304448

0.000362741 1.65071e-05 6.37344e-08
1.65071e-05 0.000394145 -3.76788e-07
6.37344e-08 -3.76788e-07 0.000316094

0.000398505 -2.54771e-05 -1.33325e-07
-2.54771e-05 0.00031029 5.81195e-08
-1.33325e-07 5.81195e-08 0.000343847

0.000395878 -3.03694e-05 -1.58563e-07
-3.03694e-05 0.000321327 -5.87495e-08
-1.58563e-07 -5.87495e-08 0.000344797

0.000360778 -2.13808e-05 1.7928e-07
-2.13808e-05 0.000321409 -1.48886e-07
1.7928e-07 -1.48886e-07 0.000335935

0.000327961 4.42786e-05 3.99276e-08
4.42786e-05 0.00031124 1.96481e-08
3.99276e-08 1.96481e-08 0.00030664

0.000363952 2.07694e-05 -1.9001e-08
2.07694e-05 0.000322392 3.80004e-08
-1.9001e-08 3.80004e-08 0.000311841

0.000362773 -3.28345e-05 1.59872e-07
-3.28345e-05 0.000302562 8.89245e-08
1.59872e-07 8.89245e-08 0.000331977

0.000377847 -1.94673e-05 -5.36454e-08
-1.94673e-05 0.000309426 2.24289e-08
-5.36454e-08 2.24289e-08 0.000335451

0.000348536 3.5329e-06 2.95718e-08
3.5329e-06 0.000350473 1.32627e-07
2.95718e-08 1.32627e-07 0.000358708

0.000379206 -1.82237e-06 1.5393e-07
-1.82237e-06 0.000365578 4.23638e-08
1.5393e-07 4.23638e-08 0.000367257

0.000370444 6.79748e-06 4.44255e-08
6.79748e-06 0.000348963 -7.42624e-08
4.44255e-08 -7.42624e-08 0.000358542

0.000349782 -6.86486e-06 6.56542e-08
-6.86486e-06 0.000322319 -3.65892e-09
6.56542e-08 -3.65892e-09 0.000353205

0.000351121 1.35169e-06 9.64928e-08
1.35169e-06 0.000330958 1.33137e-08
9.64928e-08 1.33137e-08 0.000355509

0.000380556 -9.82365e-06 1.46566e-07
-9.82365e-06 0.000369159 1.28019e-07
1.46566e-07 1.28019e-07 0.000366918

0.00036858 1.77455e-05 3.09868e-08
1.77455e-05 0.000346443 8.20469e-08
3.09868e-08 8.20469e-08 0.000357146

0.000352061 -1.83415e-06 9.85045e-08
-1.83415e-06 0.000328309 -1.11667e-09
9.85045e-08 -1.11667e-09 0.000355354

0.000353602 8.15182e-06 4.76388e-08
8.15182e-06 0.0003041 -1.16007e-07
4.76388e-08 -1.16007e-07 0.000341636

0.000356781 1.76876e-06 -5.44537e-10
1.76876e-06 0.000350962 -3.26468e-08
-5.44537e-10 -3.26468e-08 0.000362707

0.000357413 -1.52246e-06 7.84294e-08
-1.52246e-06 0.000351867 -2.57019e-08
7.84294e-08 -2.57019e-08 0.000362871

0.00036823 7.61814e-07 -8.86042e-08
7.61814e-07 0.000374386 3.90715e-08
-8.86042e-08 3.90715e-08 0.000372966

0.000383146 -1.02838e-05 3.74607e-08
-1.02838e-05 0.000335208 4.5356e-08
3.74607e-08 4.5356e-08 0.000351591

0.000390648 7.91477e-07 -1.32011e-07
7.91477e-07 0.000374121 5.17783e-08
-1.32011e-07 5.17783e-08 0.000368087

0.000348661 1.35282e-05 2.83737e-08
1.35282e-05 0.000344014 -5.84433e-08
2.83737e-08 -5.84433e-08 0.000356705

0.0003408 1.88614e-05 -8.60041e-08
1.88614e-05 0.000342326 -3.42295e-08
-8.60041e-08 -3.42295e-08 0.000350454

0.000370638 -1.73187e-05 -1.40153e-07
-1.73187e-05 0.000348385 1.53332e-07
-1.40153e-07 1.53332e-07 0.00035939

0.000378484 9.14029e-06 -3.65474e-09
9.14029e-06 0.00036846 -2.6666e-08
-3.65474e-09 -2.6666e-08 0.000365889

0.000376632 6.811e-07 1.15969e-07
6.811e-07 0.000385177 -8.2105e-08
1.15969e-07 -8.2105e-08 0.000378816

0.000354668 1.63982e-06 -4.97977e-08
1.63982e-06 0.000359424 6.2964e-08
-4.97977e-08 6.2964e-08 0.000363884

0.00035448 -2.24935e-06 5.29929e-09
-2.24935e-06 0.000359887 -1.6611e-07
5.29929e-09 -1.6611e-07 0.000363981

0.000367514 -2.12636e-06 -5.87567e-08
-2.12636e-06 0.000378413 1.9809e-08
-5.87567e-08 1.9809e-08 0.000374468

0.000348627 5.92608e-06 7.69054e-08
5.92608e-06 0.000345071 8.03101e-08
7.69054e-08 8.03101e-08 0.000357615

0.000350097 4.79751e-06 6.69109e-09
4.79751e-06 0.000334522 -4.14952e-08
6.69109e-09 -4.14952e-08 0.000357438

0.000341851 4.73075e-06 -1.01153e-07
4.73075e-06 0.000344964 7.10016e-08
-1.01153e-07 7.10016e-08 0.000355671

0.000370649 -2.76697e-06 -6.86977e-08
-2.76697e-06 0.000370062 1.7636e-07
-6.86977e-08 1.7636e-07 0.000371124

0.000352754 5.62948e-06 -4.81256e-08
5.62948e-06 0.000322243 5.73859e-08
-4.81256e-08 5.73859e-08 0.000352719

0.000354021 1.18722e-06 5.64499e-08
1.18722e-06 0.00035828 7.29516e-08
5.64499e-08 7.29516e-08 0.000363944

0.000354731 -7.74989e-06 -1.87495e-07
-7.74989e-06 0.000302705 2.04826e-08
-1.87495e-07 2.04826e-08 0.000347041

0.00036503 -2.30304e-06 5.35648e-08
-2.30304e-06 0.000371949 1.19153e-07
5.35648e-08 1.19153e-07 0.000371724

0.000389466 -1.29517e-06 -5.64218e-08
-1.29517e-06 0.000361183 2.06921e-07
-5.64218e-08 2.06921e-07 0.000362878

0.00039007 2.41907e-06 1.15115e-07
2.41907e-06 0.000355111 4.93463e-08
1.15115e-07 4.93463e-08 0.000362024

0.000365792 -8.98816e-06 -3.3028e-07
-8.98816e-06 0.000350966 2.94691e-08
-3.3028e-07 2.94691e-08 0.000349856

0.000364505 8.85535e-06 -2.23977e-07
8.85535e-06 0.000351681 -4.91104e-08
-2.23977e-07 -4.91104e-08 0.000349928

0.000352731 -1.99533e-06 -4.12103e-08
-1.99533e-06 0.00034093 -1.63409e-08
-4.12103e-08 -1.63409e-08 0.000358989

0.000338456 1.62336e-06 -1.04244e-07
1.62336e-06 0.000342363 6.73441e-08
-1.04244e-07 6.73441e-08 0.000353493

0.000344082 -1.45557e-05 1.38354e-08
-1.45557e-05 0.000344427 3.1751e-08
1.38354e-08 3.1751e-08 0.000351562

0.00034326 1.53194e-05 -1.89564e-08
1.53194e-05 0.000344722 9.64855e-08
-1.89564e-08 9.64855e-08 0.000351473

0.000355571 -6.81301e-06 2.71038e-08
-6.81301e-06 0.000302621 1.10063e-08
2.71038e-08 1.10063e-08 0.000339567

0.000369058 -4.56465e-06 3.3882e-08
-4.56465e-06 0.000377683 3.96218e-08
3.3882e-08 3.96218e-08 0.000372622

0.000348512 7.31424e-08 1.41381e-08
7.31424e-08 0.00034181 8.01974e-09
1.41381e-08 8.01974e-09 0.000357522

0.000353882 5.84558e-06 4.43739e-08
5.84558e-06 0.00030085 -5.99593e-08
4.43739e-08 -5.99593e-08 0.000340439

0.00034909 -5.38684e-06 -3.09708e-08
-5.38684e-06 0.000345781 -4.69512e-08
-3.09708e-08 -4.69512e-08 0.000357844

0.000347844 -3.68854e-06 4.02635e-08
-3.68854e-06 0.000350864 2.95375e-08
4.02635e-08 2.95375e-08 0.000358698

0.00037931 -7.53949e-06 -7.43365e-08
-7.53949e-06 0.000374507 2.78308e-08
-7.43365e-08 2.78308e-08 0.000371958

0.000351339 2.65994e-07 -1.52049e-07
2.65994e-07 0.000341822 -6.31287e-09
-1.52049e-07 -6.31287e-09 0.000358931

0.000357213 2.71711e-06 -1.85956e-07
2.71711e-06 0.000355803 -4.14957e-08
-1.85956e-07 -4.14957e-08 0.000364966

0.000361688 3.65547e-06 -4.85921e-08
3.65547e-06 0.000364586 -3.64248e-08
-4.85921e-08 -3.64248e-08 0.000369087

0.00035922 -2.80265e-05 3.02773e-08
-2.80265e-05 0.000325204 4.26364e-08
3.02773e-08 4.26364e-08 0.000347335

0.000361059 -1.6289e-06 -4.39372e-08
-1.6289e-06 0.000365672 4.21937e-08
-4.39372e-08 4.21937e-08 0.00036854

0.000353184 1.47034e-06 1.40699e-08
1.47034e-06 0.000355692 -3.18426e-08
1.40699e-08 -3.18426e-08 0.000363473

0.000386197 5.45457e-06 -4.15521e-08
5.45457e-06 0.000390898 9.55705e-08
-4.15521e-08 9.55705e-08 0.000382244

0.000386197 -5.32281e-06 -4.30935e-08
-5.32281e-06 0.000391177 -9.69614e-08
-4.30935e-08 -9.69614e-08 0.000382241

0.000378877 -1.86604e-06 -9.42297e-09
-1.86604e-06 0.000386755 -3.56755e-08
-9.42297e-09 -3.56755e-08 0.000379955

0.000385529 3.24105e-06 -2.75372e-08
3.24105e-06 0.000392835 1.94201e-07
-2.75372e-08 1.94201e-07 0.00038261

0.000385455 -2.838e-06 -2.94889e-08
-2.838e-06 0.000392983 -1.92705e-07
-2.94889e-08 -1.92705e-07 0.000382607

0.000370058 -6.27004e-06 -8.26755e-08
-6.27004e-06 0.000375164 1.11334e-09
-8.26755e-08 1.11334e-09 0.00037149

0.000358649 -1.16514e-05 -7.10767e-08
-1.16514e-05 0.000333557 1.02579e-07
-7.10767e-08 1.02579e-07 0.000344637

0.000358753 1.20519e-05 8.528e-08
1.20519e-05 0.000333557 -3.48597e-08
8.528e-08 -3.48597e-08 0.000344661

0.000381812 2.95984e-06 -4.56792e-08
2.95984e-06 0.000389177 -3.96839e-09
-4.56792e-08 -3.96839e-09 0.000380433

0.00038202 -3.21959e-06 -4.52468e-08
-3.21959e-06 0.000388898 1.42059e-08
-4.52468e-08 1.42059e-08 0.000380431

0.000352056 2.00276e-06 4.47909e-09
2.00276e-06 0.000344885 5.38366e-09
4.47909e-09 5.38366e-09 0.000360626

0.000378875 1.69376e-05 -1.40051e-07
1.69376e-05 0.000349891 -3.28257e-08
-1.40051e-07 -3.28257e-08 0.000350315

0.000399666 -1.37119e-05 -4.22098e-08
-1.37119e-05 0.000382872 -1.97052e-07
-4.22098e-08 -1.97052e-07 0.00036647

0.000368463 3.98397e-06 -2.47165e-08
3.98397e-06 0.000377877 2.23624e-08
-2.47165e-08 2.23624e-08 0.000372695

0.000353827 -1.63282e-06 2.3317e-08
-1.63282e-06 0.000359262 5.17669e-08
2.3317e-08 5.17669e-08 0.000364336

0.000354604 -2.83346e-06 1.51018e-10
-2.83346e-06 0.000350174 8.25098e-09
1.51018e-10 8.25098e-09 0.000361791

0.000371802 -6.07586e-06 1.17338e-07
-6.07586e-06 0.000375468 6.85713e-08
1.17338e-07 6.85713e-08 0.000369559

0.000358312 1.70401e-05 -2.98285e-08
1.70401e-05 0.000340514 -2.10811e-08
-2.98285e-08 -2.10811e-08 0.000355836

0.000400109 3.81435e-06 1.67145e-07
3.81435e-06 0.000404308 -3.20546e-07
1.67145e-07 -3.20546e-07 0.000385096

0.000400109 -3.40115e-06 1.66605e-07
-3.40115e-06 0.000403682 3.20204e-07
1.66605e-07 3.20204e-07 0.000385094

0.000349775 2.32426e-05 -1.13692e-08
2.32426e-05 0.000327788 1.03943e-07
-1.13692e-08 1.03943e-07 0.000342463

0.000379364 1.38774e-06 -7.62856e-08
1.38774e-06 0.000387262 9.10402e-08
-7.62856e-08 9.10402e-08 0.000379786

0.00037947 -9.66165e-07 -8.94389e-08
-9.66165e-07 0.000387536 -4.39142e-09
-8.94389e-08 -4.39142e-09 0.000379804

0.000324515 1.11644e-05 4.27172e-08
1.11644e-05 0.000342422 -6.0593e-08
4.27172e-08 -6.0593e-08 0.000346876

0.00038037 7.74372e-06 2.27728e-09
7.74372e-06 0.000381117 1.04211e-07
2.27728e-09 1.04211e-07 0.000369954

0.000351584 2.00601e-06 -3.50677e-08
2.00601e-06 0.000340566 -5.89196e-08
-3.50677e-08 -5.89196e-08 0.000359053

0.000352612 -3.38637e-06 8.37869e-08
-3.38637e-06 0.0003333 1.6587e-08
8.37869e-08 1.6587e-08 0.000357658

0.000346337 -1.7167e-05 6.75597e-09
-1.7167e-05 0.00032361 6.29713e-08
6.75597e-09 6.29713e-08 0.000350226

0.000342954 1.9085e-05 3.25983e-07
1.9085e-05 0.000367278 2.25607e-07
3.25983e-07 2.25607e-07 0.00034884

0.000342758 -1.93592e-05 2.8019e-07
-1.93592e-05 0.000365547 -2.53747e-07
2.8019e-07 -2.53747e-07 0.000348756

0.00035078 3.29969e-06 6.19293e-08
3.29969e-06 0.000350779 -3.69733e-08
6.19293e-08 -3.69733e-08 0.000360777

0.000345017 4.60651e-06 1.15561e-07
4.60651e-06 0.000336272 -9.17717e-08
1.15561e-07 -9.17717e-08 0.000356071

0.000377151 -3.70625e-06 1.01834e-07
-3.70625e-06 0.000384555 1.57933e-07
1.01834e-07 1.57933e-07 0.000378657

0.000394745 -5.37656e-07 8.68109e-08
-5.37656e-07 0.000389573 -1.65667e-07
8.68109e-08 -1.65667e-07 0.000363984

0.000409983 1.39807e-05 3.23812e-08
1.39807e-05 0.000346611 9.11842e-09
3.23812e-08 9.11842e-09 0.000356938

0.00034545 1.8056e-05 -1.82266e-08
1.8056e-05 0.000325222 9.97585e-08
-1.82266e-08 9.97585e-08 0.000350105

0.000371976 -5.74607e-06 -1.53428e-07
-5.74607e-06 0.000353019 -7.36213e-08
-1.53428e-07 -7.36213e-08 0.000360798

0.000377353 1.51875e-06 -7.65475e-09
1.51875e-06 0.000363333 -7.92135e-08
-7.65475e-09 -7.92135e-08 0.000366063

0.000380013 -4.96545e-07 -5.92213e-08
-4.96545e-07 0.000389104 -1.31851e-08
-5.92213e-08 -1.31851e-08 0.000380948

0.000379834 1.64372e-07 3.12475e-08
1.64372e-07 0.000389062 -8.20121e-09
3.12475e-08 -8.20121e-09 0.000380967

0.000367211 4.06267e-06 2.98313e-08
4.06267e-06 0.000374629 1.52539e-07
2.98313e-08 1.52539e-07 0.000372838

0.000374084 -2.1469e-06 9.35151e-08
-2.1469e-06 0.000382983 -9.3353e-08
9.35151e-08 -9.3353e-08 0.00037743

0.000382375 1.82012e-06 -1.69872e-09
1.82012e-06 0.000390465 5.77035e-08
-1.69872e-09 5.77035e-08 0.000381907

0.000382173 -1.41085e-06 9.64216e-09
-1.41085e-06 0.000390439 -3.88847e-08
9.64216e-09 -3.88847e-08 0.000381908

0.000378166 3.47769e-06 8.05282e-09
3.47769e-06 0.000384654 2.24172e-08
8.05282e-09 2.24172e-08 0.000378681

0.000371358 2.88802e-06 -5.16265e-08
2.88802e-06 0.000370256 -1.22874e-08
-5.16265e-08 -1.22874e-08 0.000371134

0.000381587 3.5055e-06 -3.83622e-08
3.5055e-06 0.000387796 9.61849e-08
-3.83622e-08 9.61849e-08 0.000380956

0.000381228 -3.11901e-06 3.25782e-08
-3.11901e-06 0.000387887 -1.46986e-08
3.25782e-08 -1.46986e-08 0.000380976

0.00035069 8.0144e-06 -4.90743e-08
8.0144e-06 0.000321711 5.94671e-08
-4.90743e-08 5.94671e-08 0.000352776

0.000382181 -4.10993e-06 2.56315e-08
-4.10993e-06 0.000382039 1.02932e-08
2.56315e-08 1.02932e-08 0.000376724

0.000349213 1.20315e-06 -1.4313e-08
1.20315e-06 0.000342589 4.60845e-09
-1.4313e-08 4.60845e-09 0.00035769

0.000329178 1.78683e-05 7.6624e-08
1.78683e-05 0.000337226 4.86357e-08
7.6624e-08 4.86357e-08 0.000339971

0.000380563 -4.90666e-06 -1.04564e-07
-4.90666e-06 0.000379981 -2.91227e-08
-1.04564e-07 -2.91227e-08 0.00037252

0.000372317 9.50082e-07 -9.23024e-08
9.50082e-07 0.000380204 4.80575e-09
-9.23024e-08 4.80575e-09 0.000375965

0.000339918 1.07524e-05 -5.93101e-08
1.07524e-05 0.000330593 -1.64944e-07
-5.93101e-08 -1.64944e-07 0.000353588

0.000350054 -6.08452e-06 8.30741e-08
-6.08452e-06 0.000324535 4.12169e-08
8.30741e-08 4.12169e-08 0.000353366

0.000347924 -1.32356e-06 7.16447e-08
-1.32356e-06 0.000344695 -2.80486e-08
7.16447e-08 -2.80486e-08 0.000359232

0.000343296 -4.61393e-06 -9.1613e-08
-4.61393e-06 0.000337096 -5.62989e-08
-9.1613e-08 -5.62989e-08 0.000356275

0.000365272 1.20063e-05 1.34751e-08
1.20063e-05 0.000355695 -9.01937e-08
1.34751e-08 -9.01937e-08 0.000363595

0.000367518 -1.07793e-05 -1.12614e-07
-1.07793e-05 0.000359454 -9.48316e-08
-1.12614e-07 -9.48316e-08 0.000364625

0.000367575 -7.09958e-07 3.78348e-08
-7.09958e-07 0.000375101 -5.6803e-08
3.78348e-08 -5.6803e-08 0.000373133

0.000322672 -1.19718e-05 -8.2911e-08
-1.19718e-05 0.00034289 2.41221e-08
-8.2911e-08 2.41221e-08 0.0003466

0.000369794 1.77406e-07 -2.87089e-09
1.77406e-07 0.00037316 -1.14959e-07
-2.87089e-09 -1.14959e-07 0.000372314

0.000370019 -8.43527e-07 3.9386e-09
-8.43527e-07 0.000372916 -2.09903e-07
3.9386e-09 -2.09903e-07 0.000372222

0.000345122 5.24111e-06 -1.23993e-07
5.24111e-06 0.000336341 -1.04891e-07
-1.23993e-07 -1.04891e-07 0.000354511

0.000353474 1.49377e-05 -7.7774e-08
1.49377e-05 0.000290882 7.28261e-09
-7.7774e-08 7.28261e-09 0.000337454

0.00035328 -1.30475e-05 -1.84601e-08
-1.30475e-05 0.000290683 -4.54823e-08
-1.84601e-08 -4.54823e-08 0.000337467

0.000360133 6.47375e-06 -3.17591e-08
6.47375e-06 0.000350877 1.06549e-07
-3.17591e-08 1.06549e-07 0.000362426

0.000340935 -3.99247e-06 1.20742e-07
-3.99247e-06 0.000345553 -6.74369e-08
1.20742e-07 -6.74369e-08 0.000355766

0.000360652 4.9268e-06 -5.29935e-08
4.9268e-06 0.000360926 6.19277e-08
-5.29935e-08 6.19277e-08 0.000366305

0.000360829 -5.31314e-06 -6.02511e-08
-5.31314e-06 0.000361132 -1.47052e-07
-6.02511e-08 -1.47052e-07 0.000366385

0.000370007 4.3971e-07 -5.76443e-08
4.3971e-07 0.000375073 2.26769e-08
-5.76443e-08 2.26769e-08 0.000374082

0.000366789 -3.71534e-06 -9.64868e-08
-3.71534e-06 0.000374305 -9.82467e-09
-9.64868e-08 -9.82467e-09 0.000372726

0.000371352 1.66519e-07 1.1725e-07
1.66519e-07 0.000378295 7.00549e-08
1.1725e-07 7.00549e-08 0.000374386

0.000429925 4.55143e-06 -2.81801e-07
4.55143e-06 0.000382807 -4.8775e-08
-2.81801e-07 -4.8775e-08 0.000361906

0.000430772 -2.7353e-05 4.38535e-07
-2.7353e-05 0.000370736 -1.19678e-07
4.38535e-07 -1.19678e-07 0.000357851

0.000372599 -3.58581e-07 5.7597e-08
-3.58581e-07 0.000380208 -1.14395e-07
5.7597e-08 -1.14395e-07 0.000376153

0.000375726 -2.13743e-06 -6.95264e-08
-2.13743e-06 0.000378133 1.18677e-08
-6.95264e-08 1.18677e-08 0.000373064

0.000378633 1.62649e-06 -8.8994e-09
1.62649e-06 0.000386708 -5.06556e-08
-8.8994e-09 -5.06556e-08 0.000379937

0.000359332 -6.18364e-06 -9.38967e-08
-6.18364e-06 0.000351344 6.85584e-08
-9.38967e-08 6.85584e-08 0.000362283

0.000387471 -1.21083e-05 -8.1391e-08
-1.21083e-05 0.000378735 -7.93658e-08
-8.1391e-08 -7.93658e-08 0.000370887

0.000342204 3.18501e-05 7.18471e-08
3.18501e-05 0.000326055 -7.64841e-08
7.18471e-08 -7.64841e-08 0.000341066

0.000383131 4.79985e-06 -2.59634e-08
4.79985e-06 0.000382072 -5.59245e-08
-2.59634e-08 -5.59245e-08 0.000376786

0.000380822 -6.34834e-06 -4.80154e-09
-6.34834e-06 0.00038349 -9.89776e-08
-4.80154e-09 -9.89776e-08 0.000376582

0.000345171 1.09799e-05 -5.59034e-08
1.09799e-05 0.000342406 -1.42639e-07
-5.59034e-08 -1.42639e-07 0.000351478

0.000381735 -6.91686e-08 -1.13231e-07
-6.91686e-08 0.000391547 -6.70029e-09
-1.13231e-07 -6.70029e-09 0.00038147

0.000370444 -3.75473e-07 -9.97716e-08
-3.75473e-07 0.000377223 -1.21973e-08
-9.97716e-08 -1.21973e-08 0.000374229

0.000327226 -1.78773e-05 -9.01864e-08
-1.78773e-05 0.000337403 4.592e-08
-9.01864e-08 4.592e-08 0.000339829

0.000369882 -3.25032e-06 -1.04932e-07
-3.25032e-06 0.000379473 -6.69399e-08
-1.04932e-07 -6.69399e-08 0.000374159

0.000348752 -2.0956e-06 1.22587e-07
-2.0956e-06 0.000351829 -2.28084e-08
1.22587e-07 -2.28084e-08 0.000361112

0.000339867 -1.97213e-06 3.22392e-08
-1.97213e-06 0.000341915 6.31163e-08
3.22392e-08 6.31163e-08 0.000353373

0.000365323 1.17306e-06 6.44874e-09
1.17306e-06 0.000363687 2.80755e-08
6.44874e-09 2.80755e-08 0.000368025

0.000365047 -1.85211e-06 -3.9142e-08
-1.85211e-06 0.000363633 -1.35713e-07
-3.9142e-08 -1.35713e-07 0.000367968

0.000367825 1.93624e-06 -6.01652e-09
1.93624e-06 0.000379183 -9.19545e-08
-6.01652e-09 -9.19545e-08 0.000374697

0.000371106 3.5766e-06 1.19086e-07
3.5766e-06 0.000379039 1.88555e-08
1.19086e-07 1.88555e-08 0.000374169

0.000366687 -2.45741e-06 -1.21184e-07
-2.45741e-06 0.000360216 7.72831e-08
-1.21184e-07 7.72831e-08 0.000365089

0.000366136 3.23092e-06 8.86409e-09
3.23092e-06 0.000359608 2.4082e-09
8.86409e-09 2.4082e-09 0.000364464

0.000365021 -1.46153e-07 -8.69692e-08
-1.46153e-07 0.000370429 8.37007e-08
-8.69692e-08 8.37007e-08 0.000370596

0.000365324 2.91459e-07 2.75638e-08
2.91459e-07 0.000370842 -6.85082e-08
2.75638e-08 -6.85082e-08 0.000370627

0.000383538 7.7287e-07 -1.23336e-07
7.7287e-07 0.000389419 -2.33689e-08
-1.23336e-07 -2.33689e-08 0.000381524

0.000384133 -1.17876e-06 -1.30665e-07
-1.17876e-06 0.000389397 1.97358e-08
-1.30665e-07 1.97358e-08 0.000381527

0.000376606 -6.29758e-06 -1.0597e-08
-6.29758e-06 0.000381605 -1.39121e-08
-1.0597e-08 -1.39121e-08 0.000375017

0.00033684 -2.87538e-05 -4.02372e-08
-2.87538e-05 0.000328579 6.78264e-08
-4.02372e-08 6.78264e-08 0.000338943

0.000330125 3.15167e-07 1.5316e-07
3.15167e-07 0.000342214 8.66926e-08
1.5316e-07 8.66926e-08 0.000352637

0.000351154 1.17653e-06 -4.65836e-08
1.17653e-06 0.00035029 2.48909e-08
-4.65836e-08 2.48909e-08 0.000361147

0.000363383 -2.65038e-06 8.82832e-08
-2.65038e-06 0.000370089 1.83729e-07
8.82832e-08 1.83729e-07 0.0003685

0.000385604 4.37538e-06 1.01453e-07
4.37538e-06 0.000389257 3.67878e-10
1.01453e-07 3.67878e-10 0.000381749

0.000385095 -4.44756e-06 1.05667e-07
-4.44756e-06 0.000388957 1.04602e-08
1.05667e-07 1.04602e-08 0.000381748

0.000380109 5.56804e-06 -8.13787e-08
5.56804e-06 0.000385607 3.28929e-08
-8.13787e-08 3.28929e-08 0.00037941

0.000380281 -5.65141e-06 -8.7311e-08
-5.65141e-06 0.000385725 -2.93684e-08
-8.7311e-08 -2.93684e-08 0.000379409

0.000356712 -5.87992e-07 -1.25788e-07
-5.87992e-07 0.000362915 -1.01664e-07
-1.25788e-07 -1.01664e-07 0.000366297

0.0003643 -3.81188e-07 -1.78556e-07
-3.81188e-07 0.000369764 8.15999e-08
-1.78556e-07 8.15999e-08 0.000370591

0.000363034 3.45153e-06 2.37085e-08
3.45153e-06 0.000370264 -2.30271e-08
2.37085e-08 -2.30271e-08 0.00036849

0.000394022 -1.10859e-06 1.93856e-07
-1.10859e-06 0.000396322 -5.07449e-08
1.93856e-07 -5.07449e-08 0.000384231

0.000394474 -1.02784e-06 1.91911e-07
-1.02784e-06 0.000396422 5.02748e-08
1.91911e-07 5.02748e-08 0.000384229

0.000376091 -4.36857e-06 1.63543e-07
-4.36857e-06 0.00038191 3.28711e-08
1.63543e-07 3.28711e-08 0.000376865

0.00035425 -2.00451e-06 -1.43981e-08
-2.00451e-06 0.000343258 -6.68746e-08
-1.43981e-08 -6.68746e-08 0.000360606

0.000374046 2.46165e-06 9.35154e-08
2.46165e-06 0.000383006 -9.34395e-08
9.35154e-08 -9.34395e-08 0.000377471

0.000357195 -1.59451e-05 9.9088e-08
-1.59451e-05 0.000346502 5.32142e-08
9.9088e-08 5.32142e-08 0.000357451

0.000373466 7.65991e-06 2.51768e-09
7.65991e-06 0.000370224 -7.42676e-08
2.51768e-09 -7.42676e-08 0.000368715

0.00034753 8.74646e-07 -4.99335e-08
8.74646e-07 0.000348014 1.08579e-07
-4.99335e-08 1.08579e-07 0.000359558

0.000382236 5.82998e-06 -7.21995e-08
5.82998e-06 0.000383744 7.98034e-08
-7.21995e-08 7.98034e-08 0.00037664

0.000375204 4.47033e-06 6.58686e-08
4.47033e-06 0.000381965 5.38877e-08
6.58686e-08 5.38877e-08 0.00037685

0.000318101 2.88599e-05 3.68189e-08
2.88599e-05 0.000329529 1.09563e-07
3.68189e-08 1.09563e-07 0.0003354

0.000391301 -5.17161e-07 -8.24982e-08
-5.17161e-07 0.000377203 -7.92933e-08
-8.24982e-08 -7.92933e-08 0.000368687

0.000383232 1.42842e-05 -1.29621e-07
1.42842e-05 0.000328177 -6.33103e-08
-1.29621e-07 -6.33103e-08 0.000349762

0.000375703 7.30373e-06 2.14743e-08
7.30373e-06 0.000381713 -8.40318e-08
2.14743e-08 -8.40318e-08 0.000375087

0.000334963 1.38829e-05 -7.51027e-08
1.38829e-05 0.000341605 -1.36254e-07
-7.51027e-08 -1.36254e-07 0.000350154

0.000347794 -1.62048e-06 1.83473e-08
-1.62048e-06 0.00034261 1.34637e-07
1.83473e-08 1.34637e-07 0.000358292

0.000385347 -8.85314e-06 -4.95899e-08
-8.85314e-06 0.000379225 -2.41306e-08
-4.95899e-08 -2.41306e-08 0.000374651

0.000349308 -1.35464e-05 4.83811e-08
-1.35464e-05 0.000344234 -8.24953e-08
4.83811e-08 -8.24953e-08 0.000356456

0.000357506 9.37188e-06 4.18272e-09
9.37188e-06 0.000355485 4.94737e-09
4.18272e-09 4.94737e-09 0.000362525

0.000375725 -2.74653e-06 6.55979e-08
-2.74653e-06 0.000384978 -5.15455e-08
6.55979e-08 -5.15455e-08 0.000377856

0.000367969 -7.03544e-06 1.92663e-07
-7.03544e-06 0.000364243 -7.05041e-08
1.92663e-07 -7.05041e-08 0.000367567

0.000389985 1.05122e-05 1.04318e-07
1.05122e-05 0.000377996 6.84532e-08
1.04318e-07 6.84532e-08 0.000371345

0.000354373 1.25577e-06 1.79429e-08
1.25577e-06 0.000355054 -8.76093e-09
1.79429e-08 -8.76093e-09 0.000363956

0.000354748 -7.4777e-07 3.8344e-08
-7.4777e-07 0.000350584 1.20169e-08
3.8344e-08 1.20169e-08 0.000363028

0.000375447 2.66974e-06 6.55913e-08
2.66974e-06 0.000384867 5.41249e-08
6.55913e-08 5.41249e-08 0.000377858

0.00037785 -6.01021e-07 5.42282e-09
-6.01021e-07 0.000385212 -4.55242e-08
5.42282e-09 -4.55242e-08 0.00037884

0.000401004 3.71042e-06 -8.92689e-08
3.71042e-06 0.000399627 2.9658e-07
-8.92689e-08 2.9658e-07 0.000385012

0.000401004 -3.31597e-06 -8.98899e-08
-3.31597e-06 0.00039891 -2.97116e-07
-8.98899e-08 -2.97116e-07 0.00038501

0.000375198 3.21298e-06 3.70934e-08
3.21298e-06 0.000377838 -7.64047e-08
3.70934e-08 -7.64047e-08 0.000373067

0.000337771 -1.68641e-05 8.55125e-08
-1.68641e-05 0.000348838 1.23373e-07
8.55125e-08 1.23373e-07 0.000350419

0.000337571 1.69272e-05 1.64033e-07
1.69272e-05 0.000349481 -1.30398e-07
1.64033e-07 -1.30398e-07 0.000350471

0.000355482 -2.11339e-06 -1.17132e-07
-2.11339e-06 0.000314857 1.02733e-07
-1.17132e-07 1.02733e-07 0.000348923

0.000316841 -2.78588e-05 -3.81496e-08
-2.78588e-05 0.000330478 1.22316e-07
-3.81496e-08 1.22316e-07 0.000335161

0.000363651 1.47977e-06 4.62296e-08
1.47977e-06 0.000369146 1.22084e-07
4.62296e-08 1.22084e-07 0.000370085

0.000355571 2.68967e-07 7.08711e-08
2.68967e-07 0.000350196 3.0377e-08
7.08711e-08 3.0377e-08 0.000362933

0.000362629 3.28231e-06 8.47014e-09
3.28231e-06 0.000366268 4.64435e-10
8.47014e-09 4.64435e-10 0.000369026

0.000363001 -3.24316e-06 3.3196e-08
-3.24316e-06 0.000366184 -6.30739e-08
3.3196e-08 -6.30739e-08 0.000369228

0.00036729 1.41182e-06 1.10851e-07
1.41182e-06 0.000371422 -1.24296e-07
1.10851e-07 -1.24296e-07 0.000371919

0.000386385 7.99102e-06 -1.2826e-07
7.99102e-06 0.000379732 -1.17615e-08
-1.2826e-07 -1.17615e-08 0.000374682

0.00035772 2.96311e-06 -1.09344e-07
2.96311e-06 0.000359018 2.25685e-08
-1.09344e-07 2.25685e-08 0.000365816

0.000367167 1.02102e-06 5.8153e-08
1.02102e-06 0.000370247 1.34519e-07
5.8153e-08 1.34519e-07 0.000371683

0.000380612 -1.01012e-05 6.10617e-10
-1.01012e-05 0.000346573 -3.00658e-08
6.10617e-10 -3.00658e-08 0.000351584

0.000400643 1.11446e-05 -2.18014e-08
1.11446e-05 0.000374632 2.77346e-07
-2.18014e-08 2.77346e-07 0.00036687

0.000350423 -1.16651e-05 -1.27348e-07
-1.16651e-05 0.000330384 -6.47458e-08
-1.27348e-07 -6.47458e-08 0.000351324

0.0003548 -1.93459e-06 4.93455e-08
-1.93459e-06 0.000280701 -5.39493e-08
4.93455e-08 -5.39493e-08 0.000333296

0.000364344 -4.52221e-06 1.42172e-08
-4.52221e-06 0.00037109 -2.00017e-07
1.42172e-08 -2.00017e-07 0.000370193

0.000363985 3.62884e-06 -6.75633e-08
3.62884e-06 0.00037147 -6.0394e-08
-6.75633e-08 -6.0394e-08 0.000370289

0.000355602 -1.83867e-06 -1.0098e-07
-1.83867e-06 0.000308278 1.45793e-08
-1.0098e-07 1.45793e-08 0.000348593

0.000370844 6.45078e-06 -5.19985e-08
6.45078e-06 0.000375436 -6.87151e-09
-5.19985e-08 -6.87151e-09 0.000371367

0.000386393 4.51194e-06 -1.72723e-08
4.51194e-06 0.000393669 1.98061e-07
-1.72723e-08 1.98061e-07 0.000383536

0.000389561 -4.95388e-06 -1.79424e-08
-4.95388e-06 0.000393992 -1.97029e-07
-1.79424e-08 -1.97029e-07 0.000383534

0.000341326 -4.5746e-06 9.14885e-08
-4.5746e-06 0.000341998 1.41864e-07
9.14885e-08 1.41864e-07 0.000353491

0.000334596 -1.43775e-05 1.18066e-08
-1.43775e-05 0.000341485 -3.27018e-08
1.18066e-08 -3.27018e-08 0.000350026

0.000350437 -1.2148e-05 -1.26097e-07
-1.2148e-05 0.000319058 -5.19479e-08
-1.26097e-07 -5.19479e-08 0.000350329

0.000352718 4.12143e-07 1.85639e-08
4.12143e-07 0.00034327 1.34685e-07
1.85639e-08 1.34685e-07 0.000360228

0.000344399 -1.07046e-05 -5.04379e-09
-1.07046e-05 0.000342809 -4.02508e-08
-5.04379e-09 -4.02508e-08 0.000351272

0.000355072 -2.03523e-06 3.13314e-09
-2.03523e-06 0.000355341 -1.65966e-08
3.13314e-09 -1.65966e-08 0.000364882

0.000356617 -8.73821e-06 -8.46412e-08
-8.73821e-06 0.000356687 9.28957e-08
-8.46412e-08 9.28957e-08 0.00036274

0.000367739 6.8043e-06 4.0104e-08
6.8043e-06 0.000361926 1.34125e-08
4.0104e-08 1.34125e-08 0.000367251

0.000392162 -9.91622e-06 2.15541e-08
-9.91622e-06 0.000369596 -2.50276e-07
2.15541e-08 -2.50276e-07 0.000362161

0.000387822 7.90242e-06 1.05751e-07
7.90242e-06 0.000368106 1.04248e-07
1.05751e-07 1.04248e-07 0.000361264

0.000382892 1.82295e-07 -1.2053e-07
1.82295e-07 0.000392064 -2.70343e-08
-1.2053e-07 -2.70343e-08 0.000382315

0.000383994 -2.46529e-07 -1.19344e-07
-2.46529e-07 0.000392064 3.4492e-08
-1.19344e-07 3.4492e-08 0.000382318

0.000333375 -7.80107e-06 -7.56423e-08
-7.80107e-06 0.000340699 6.82392e-08
-7.56423e-08 6.82392e-08 0.000352192

0.000332426 8.10446e-06 9.01798e-08
8.10446e-06 0.000341488 1.27616e-07
9.01798e-08 1.27616e-07 0.000352

0.000331566 -4.05092e-06 9.8638e-08
-4.05092e-06 0.000353163 6.7031e-08
9.8638e-08 6.7031e-08 0.000346476

0.00033169 4.83034e-06 1.60147e-07
4.83034e-06 0.000352954 -1.46921e-07
1.60147e-07 -1.46921e-07 0.000346454

0.000394501 1.03625e-06 -1.36096e-07
1.03625e-06 0.000399336 2.9384e-07
-1.36096e-07 2.9384e-07 0.000384619

0.000394501 -1.58795e-06 -1.37505e-07
-1.58795e-06 0.00039873 -2.94331e-07
-1.37505e-07 -2.94331e-07 0.000384618

0.000388034 5.66381e-06 1.22928e-07
5.66381e-06 0.000383575 4.0457e-08
1.22928e-07 4.0457e-08 0.000378882

0.000387629 -6.10104e-06 1.34584e-07
-6.10104e-06 0.000383274 -6.85876e-08
1.34584e-07 -6.85876e-08 0.000378886

0.000374361 -1.10276e-06 1.33852e-07
-1.10276e-06 0.000383827 1.53059e-07
1.33852e-07 1.53059e-07 0.000377271

0.000359961 -6.23126e-06 8.24501e-08
-6.23126e-06 0.000349213 -6.12988e-08
8.24501e-08 -6.12988e-08 0.000358929

0.000371323 1.34456e-06 2.10709e-08
1.34456e-06 0.00036956 3.40938e-08
2.10709e-08 3.40938e-08 0.000369034

0.000352712 -2.86669e-06 1.40912e-08
-2.86669e-06 0.000345883 -1.36291e-07
1.40912e-08 -1.36291e-07 0.000360484

0.000373578 7.8103e-07 6.10365e-08
7.8103e-07 0.00038392 3.07431e-08
6.10365e-08 3.07431e-08 0.000377297

0.000357861 5.21461e-06 -2.96401e-08
5.21461e-06 0.000351456 -1.11146e-08
-2.96401e-08 -1.11146e-08 0.000358949

0.000370548 -1.90576e-06 2.85294e-08
-1.90576e-06 0.000381336 5.15183e-08
2.85294e-08 5.15183e-08 0.000375489

0.000309937 -1.81705e-05 1.54991e-07
-1.81705e-05 0.00033942 -3.3769e-08
1.54991e-07 -3.3769e-08 0.000337663

0.000309906 1.81232e-05 1.15996e-07
1.81232e-05 0.00033935 6.11959e-08
1.15996e-07 6.11959e-08 0.000337678

0.000371725 2.05027e-06 7.66477e-08
2.05027e-06 0.000381226 5.57703e-08
7.66477e-08 5.57703e-08 0.000375473

0.000349374 1.30957e-05 1.75975e-07
1.30957e-05 0.00033107 -8.20378e-08
1.75975e-07 -8.20378e-08 0.000351024

0.000442619 3.15261e-06 -2.91044e-07
3.15261e-06 0.000331325 4.37983e-08
-2.91044e-07 4.37983e-08 0.000356112

0.000422799 -6.32136e-06 -3.12619e-08
-6.32136e-06 0.000398056 -3.11882e-07
-3.12619e-08 -3.11882e-07 0.000362649

0.000380622 2.74696e-06 6.75908e-09
2.74696e-06 0.000373597 -7.71622e-08
6.75908e-09 -7.71622e-08 0.000370407

0.000340549 -1.02266e-05 7.09537e-08
-1.02266e-05 0.00033059 -1.34337e-07
7.09537e-08 -1.34337e-07 0.000353958

0.000352668 -1.94729e-05 -7.84273e-08
-1.94729e-05 0.000324446 9.61436e-08
-7.84273e-08 9.61436e-08 0.000344775

0.00036356 -1.12569e-06 1.01567e-08
-1.12569e-06 0.000366015 -1.55562e-08
1.01567e-08 -1.55562e-08 0.000369416

0.00036241 3.05756e-07 -8.42994e-08
3.05756e-07 0.000371336 -1.32724e-07
-8.42994e-08 -1.32724e-07 0.000370599

0.000387676 2.49889e-06 -5.1651e-08
2.49889e-06 0.000390443 5.84872e-08
-5.1651e-08 5.84872e-08 0.00038269

0.000387937 -1.85382e-06 -5.46029e-08
-1.85382e-06 0.000390389 -4.16625e-08
-5.46029e-08 -4.16625e-08 0.000382691

0.000353133 1.93419e-05 -5.47002e-08
1.93419e-05 0.000325141 8.64923e-08
-5.47002e-08 8.64923e-08 0.000344745

0.000371877 -2.27073e-06 1.15424e-07
-2.27073e-06 0.000369175 -1.28073e-07
1.15424e-07 -1.28073e-07 0.000369405

0.00037198 -3.94741e-06 -9.30219e-08
-3.94741e-06 0.000380908 -1.61852e-08
-9.30219e-08 -1.61852e-08 0.000375965

0.000382462 5.46026e-06 -2.80818e-08
5.46026e-06 0.000387399 1.37359e-07
-2.80818e-08 1.37359e-07 0.000379975

0.000382838 -6.3893e-06 -2.4916e-08
-6.3893e-06 0.000387488 -1.47684e-07
-2.4916e-08 -1.47684e-07 0.000379973

0.00035979 -2.83497e-05 -2.58856e-07
-2.83497e-05 0.000345196 4.79323e-07
-2.58856e-07 4.79323e-07 0.000348779

0.000357932 2.85676e-05 -1.42925e-07
2.85676e-05 0.000343825 -5.18541e-07
-1.42925e-07 -5.18541e-07 0.000348784

0.000376884 8.17366e-06 3.92156e-08
8.17366e-06 0.00037858 -6.40766e-08
3.92156e-08 -6.40766e-08 0.000372426

0.000347003 -3.80445e-06 1.27716e-07
-3.80445e-06 0.000336789 -8.76367e-08
1.27716e-07 -8.76367e-08 0.00035489

0.000382465 3.83822e-06 -5.56045e-09
3.83822e-06 0.000391734 -1.1474e-07
-5.56045e-09 -1.1474e-07 0.000382216

0.000382313 -4.26866e-06 5.80334e-09
-4.26866e-06 0.000391736 1.16889e-07
5.80334e-09 1.16889e-07 0.000382215

0.000361266 -1.28605e-05 3.41702e-08
-1.28605e-05 0.000340244 9.83522e-08
3.41702e-08 9.83522e-08 0.000351788

0.000344238 -2.39873e-05 -3.06036e-09
-2.39873e-05 0.000328402 1.16417e-07
-3.06036e-09 1.16417e-07 0.000340213

0.000358695 -3.2972e-06 3.65889e-08
-3.2972e-06 0.000364784 8.2241e-08
3.65889e-08 8.2241e-08 0.00036856

0.000322671 2.09706e-06 1.13784e-07
2.09706e-06 0.000352119 6.56536e-08
1.13784e-07 6.56536e-08 0.000344668

0.000323085 -1.69278e-06 9.723e-08
-1.69278e-06 0.000352138 -1.51033e-07
9.723e-08 -1.51033e-07 0.000344649

0.000340295 -2.42246e-05 1.60685e-08
-2.42246e-05 0.000335123 9.25675e-08
1.60685e-08 9.25675e-08 0.000348081

0.00037212 3.33235e-06 4.75055e-08
3.33235e-06 0.000380741 4.17138e-08
4.75055e-08 4.17138e-08 0.000376137

0.000340551 4.77548e-06 -8.21026e-08
4.77548e-06 0.000342328 2.41922e-07
-8.21026e-08 2.41922e-07 0.000353195

0.000327383 1.63342e-06 -2.82482e-08
1.63342e-06 0.000345301 -9.17889e-08
-2.82482e-08 -9.17889e-08 0.000349242

0.000327102 -1.33713e-06 3.52503e-08
-1.33713e-06 0.000345957 -7.94447e-08
3.52503e-08 -7.94447e-08 0.000349192

0.000349363 1.53939e-05 1.75838e-07
1.53939e-05 0.000316254 -2.66577e-08
1.75838e-07 -2.66577e-08 0.000349846

0.000387114 3.44071e-06 -2.48483e-08
3.44071e-06 0.00039496 -7.47323e-08
-2.48483e-08 -7.47323e-08 0.00038347

0.000387657 -2.08965e-06 -3.14727e-08
-2.08965e-06 0.00039496 7.33036e-08
-3.14727e-08 7.33036e-08 0.000383467

0.00040205 -1.0881e-06 -2.09488e-07
-1.0881e-06 0.000381794 -3.90404e-08
-2.09488e-07 -3.90404e-08 0.00035931

0.00039896 1.35317e-05 -1.43368e-07
1.35317e-05 0.00038232 -1.98014e-07
-1.43368e-07 -1.98014e-07 0.000361818

0.000357433 1.12147e-06 1.17614e-08
1.12147e-06 0.000363619 5.30312e-09
1.17614e-08 5.30312e-09 0.000366745

0.000358667 -5.46903e-07 2.94714e-08
-5.46903e-07 0.000349708 -5.45663e-08
2.94714e-08 -5.45663e-08 0.000362788

0.000381253 5.58999e-06 -2.56476e-08
5.58999e-06 0.000386636 -5.55475e-08
-2.56476e-08 -5.55475e-08 0.000378433

0.00037975 -4.88774e-06 -1.85142e-08
-4.88774e-06 0.000386812 5.9614e-08
-1.85142e-08 5.9614e-08 0.000378434

0.000379497 5.67855e-06 1.57417e-08
5.67855e-06 0.000380517 -3.19757e-08
1.57417e-08 -3.19757e-08 0.000373029

0.000359598 1.50027e-06 2.64659e-08
1.50027e-06 0.000364279 -2.58317e-08
2.64659e-08 -2.58317e-08 0.000367869

0.000365308 -2.58761e-07 -1.94873e-07
-2.58761e-07 0.000365568 4.6269e-08
-1.94873e-07 4.6269e-08 0.000370127

0.000396976 -4.39084e-06 -2.84395e-07
-4.39084e-06 0.000404187 -1.2041e-07
-2.84395e-07 -1.2041e-07 0.000385174

0.000396976 4.39084e-06 -2.83806e-07
4.39084e-06 0.000404187 1.19845e-07
-2.83806e-07 1.19845e-07 0.000385176

0.000329293 -4.04323e-07 -2.44563e-07
-4.04323e-07 0.000341683 1.03348e-07
-2.44563e-07 1.03348e-07 0.000352342

0.00037548 4.21635e-06 5.05786e-08
4.21635e-06 0.000377654 1.11904e-08
5.05786e-08 1.11904e-08 0.000374713

0.000382058 3.42567e-06 -5.71131e-08
3.42567e-06 0.000385391 1.2225e-07
-5.71131e-08 1.2225e-07 0.000378503

0.000380152 -3.71279e-06 -4.9056e-08
-3.71279e-06 0.000385431 -1.35132e-07
-4.9056e-08 -1.35132e-07 0.000378504

0.000374497 3.3955e-06 3.86595e-08
3.3955e-06 0.000381564 2.70066e-08
3.86595e-08 2.70066e-08 0.000375641

0.000375036 -4.65021e-06 3.52902e-08
-4.65021e-06 0.000377468 3.98695e-08
3.52902e-08 3.98695e-08 0.000374705

0.000358603 -1.99894e-07 -6.8381e-08
-1.99894e-07 0.000364677 -2.0351e-08
-6.8381e-08 -2.0351e-08 0.000366998

0.000358243 -2.50307e-07 -8.32378e-08
-2.50307e-07 0.000365491 -4.80547e-08
-8.32378e-08 -4.80547e-08 0.00036721

0.00036603 -8.78633e-07 1.51061e-07
-8.78633e-07 0.000374817 4.72825e-08
1.51061e-07 4.72825e-08 0.000372539

0.000375357 -2.91642e-06 -8.75219e-09
-2.91642e-06 0.000381819 -2.39611e-08
-8.75219e-09 -2.39611e-08 0.000375633

0.000358984 -2.37992e-06 2.17298e-09
-2.37992e-06 0.000359358 5.38018e-08
2.17298e-09 5.38018e-08 0.000366272

0.000353554 1.42735e-06 7.40833e-09
1.42735e-06 0.000349088 -4.97222e-08
7.40833e-09 -4.97222e-08 0.000361707

0.000384541 5.49121e-06 -4.55947e-08
5.49121e-06 0.00038653 -5.13177e-08
-4.55947e-08 -5.13177e-08 0.000379995

0.000385228 -4.51367e-06 -3.79882e-08
-4.51367e-06 0.000386752 5.58505e-08
-3.79882e-08 5.58505e-08 0.000379994

0.000383212 3.78087e-06 -1.26497e-10
3.78087e-06 0.000390345 1.03913e-07
-1.26497e-10 1.03913e-07 0.000380925

0.000384596 -3.98938e-06 9.12287e-09
-3.98938e-06 0.000390704 -1.07476e-07
9.12287e-09 -1.07476e-07 0.000380924

0.000354975 -2.50477e-06 4.42551e-09
-2.50477e-06 0.000359923 4.96615e-10
4.42551e-09 4.96615e-10 0.000365428

0.000354435 -2.20735e-06 5.56793e-08
-2.20735e-06 0.000355318 -1.2407e-08
5.56793e-08 -1.2407e-08 0.000363489

0.000376475 -6.00272e-06 6.57346e-08
-6.00272e-06 0.000384038 -5.27525e-08
6.57346e-08 -5.27525e-08 0.000377409

0.000376293 6.6175e-06 6.3738e-08
6.6175e-06 0.000383763 3.65823e-08
6.3738e-08 3.65823e-08 0.000377409

0.000402253 -3.35884e-06 -2.06108e-07
-3.35884e-06 0.000345714 -1.80287e-08
-2.06108e-07 -1.80287e-08 0.000358667

0.000394921 4.62937e-07 -6.6479e-08
4.62937e-07 0.000375895 2.79947e-07
-6.6479e-08 2.79947e-07 0.000363911

0.000385764 3.49893e-06 3.97995e-08
3.49893e-06 0.000389767 -1.97396e-07
3.97995e-08 -1.97396e-07 0.000380589

0.000385297 -3.50261e-06 5.00311e-08
-3.50261e-06 0.000389784 1.95408e-07
5.00311e-08 1.95408e-07 0.000380588

0.00038575 1.55919e-06 -4.86258e-08
1.55919e-06 0.000393299 -8.78555e-08
-4.86258e-08 -8.78555e-08 0.000383297

0.000388686 -9.53145e-07 -4.87817e-08
-9.53145e-07 0.000393392 8.28567e-08
-4.87817e-08 8.28567e-08 0.000383295

0.000331796 -3.95632e-06 -1.51738e-07
-3.95632e-06 0.000345878 -8.22101e-08
-1.51738e-07 -8.22101e-08 0.000348977

0.000333197 4.2679e-06 6.7838e-08
4.2679e-06 0.000345135 -9.47234e-08
6.7838e-08 -9.47234e-08 0.000349157

0.00038354 -2.44544e-05 8.06487e-10
-2.44544e-05 0.00034964 -3.19648e-08
8.06487e-10 -3.19648e-08 0.000349727

0.000334713 1.26935e-06 3.54437e-08
1.26935e-06 0.000356417 -6.13886e-08
3.54437e-08 -6.13886e-08 0.000345009

0.000390626 3.02622e-07 -1.53854e-07
3.02622e-07 0.000396877 -1.78481e-08
-1.53854e-07 -1.78481e-08 0.000384333

0.000396528 -2.53112e-06 -3.92408e-07
-2.53112e-06 0.000397067 2.02909e-07
-3.92408e-07 2.02909e-07 0.000384855

0.00039371 -3.0261e-07 -1.50973e-07
-3.0261e-07 0.000396877 1.92076e-08
-1.50973e-07 1.92076e-08 0.000384335

0.000395148 4.65388e-07 -3.91913e-07
4.65388e-07 0.000397067 -2.03758e-07
-3.91913e-07 -2.03758e-07 0.000384857

0.000399904 1.39847e-05 4.09026e-08
1.39847e-05 0.000389056 -3.30617e-07
4.09026e-08 -3.30617e-07 0.000365935

0.00033541 -2.66471e-07 -5.22574e-08
-2.66471e-07 0.000356527 -3.52003e-08
-5.22574e-08 -3.52003e-08 0.000345008

0.000393181 -3.67358e-06 9.64238e-08
-3.67358e-06 0.000395303 3.23774e-07
9.64238e-08 3.23774e-07 0.00038392

0.000384284 9.3512e-07 2.18097e-06
9.3512e-07 0.000406203 -1.20699e-06
2.18097e-06 -1.20699e-06 0.000385098

0.000384284 -5.15992e-06 2.18113e-06
-5.15992e-06 0.000399797 1.20637e-06
2.18113e-06 1.20637e-06 0.000385099

0.000393181 2.20182e-06 9.75097e-08
2.20182e-06 0.000399765 -3.23324e-07
9.75097e-08 -3.23324e-07 0.000383922

0.000396821 -1.63104e-06 -8.80961e-08
-1.63104e-06 0.000393131 4.40812e-08
-8.80961e-08 4.40812e-08 0.000383529

0.000391027 -5.62629e-06 1.20437e-07
-5.62629e-06 0.000390381 1.8217e-07
1.20437e-07 1.8217e-07 0.00038237

0.000395318 7.47937e-07 -7.50784e-08
7.47937e-07 0.000403326 -1.62015e-08
-7.50784e-08 -1.62015e-08 0.000384715

0.000396821 1.63104e-06 -8.67684e-08
1.63104e-06 0.000393131 -4.39978e-08
-8.67684e-08 -4.39978e-08 0.000383531

0.000395318 -9.85093e-07 -7.3774e-08
-9.85093e-07 0.00040113 1.61772e-08
-7.3774e-08 1.61772e-08 0.000384717

0.000391027 5.62629e-06 1.21645e-07
5.62629e-06 0.000390381 -1.82008e-07
1.21645e-07 -1.82008e-07 0.000382372

0.000391737 1.13852e-06 1.12272e-07
1.13852e-06 0.00039383 -6.71587e-08
1.12272e-07 -6.71587e-08 0.000383096

0.000395013 3.06134e-06 1.94941e-07
3.06134e-06 0.00039471 -4.14132e-08
1.94941e-07 -4.14132e-08 0.000384157

0.000391737 -1.13852e-06 1.10957e-07
-1.13852e-06 0.00039383 6.60071e-08
1.10957e-07 6.60071e-08 0.000383094

0.000395013 -3.25446e-06 1.93054e-07
-3.25446e-06 0.00039483 4.04394e-08
1.93054e-07 4.04394e-08 0.000384155

0.000205764 2.66554e-05 1.78565e-08
2.66554e-05 0.000264842 -6.18097e-08
1.78565e-08 -6.18097e-08 0.00023147

0.00028835 4.24378e-06 1.07493e-07
4.24378e-06 0.000309815 -3.87698e-08
1.07493e-07 -3.87698e-08 0.000292529

0.000230675 7.15097e-06 3.49216e-09
7.15097e-06 0.000309346 -5.52436e-08
3.49216e-09 -5.52436e-08 0.000274967

0.000287287 1.37258e-05 -1.21864e-07
1.37258e-05 0.000204805 -4.54976e-08
-1.21864e-07 -4.54976e-08 0.000246309

0.000277763 3.87927e-06 -2.33887e-08
3.87927e-06 0.000196851 8.70031e-09
-2.33887e-08 8.70031e-09 0.000228787

0.000289475 -2.76147e-06 1.04183e-07
-2.76147e-06 0.000320513 -2.4518e-10
1.04183e-07 -2.4518e-10 0.000311868

0.000229777 1.13425e-05 -1.26323e-08
1.13425e-05 0.000333426 1.32303e-07
-1.26323e-08 1.32303e-07 0.000290973

0.000279729 -3.738e-06 -3.87377e-08
-3.738e-06 0.000204982 1.18802e-07
-3.87377e-08 1.18802e-07 0.000230464

0.000323477 3.30508e-06 -3.31465e-08
3.30508e-06 0.00022519 5.39934e-08
-3.31465e-08 5.39934e-08 0.000278214

0.000168759 2.38006e-05 -3.33847e-08
2.38006e-05 0.000220928 5.75334e-08
-3.33847e-08 5.75334e-08 0.000185059

0.000181513 -3.86871e-05 2.6345e-09
-3.86871e-05 0.000223239 -5.53523e-08
2.6345e-09 -5.53523e-08 0.000183834

0.000226423 2.39076e-05 -1.60208e-09
2.39076e-05 0.000175873 -1.266e-08
-1.60208e-09 -1.266e-08 0.000188131

0.000297406 -4.4109e-05 -2.01314e-07
-4.4109e-05 0.000324319 -6.92633e-08
-2.01314e-07 -6.92633e-08 0.000305739

0.000276181 -1.53538e-05 1.56206e-07
-1.53538e-05 0.000320731 -3.49078e-08
1.56206e-07 -3.49078e-08 0.000296059

0.000205719 2.3084e-05 1.81431e-08
2.3084e-05 0.000277967 -1.61667e-08
1.81431e-08 -1.61667e-08 0.000249468

0.000217112 2.66795e-05 -1.9213e-08
2.66795e-05 0.000299099 -8.51072e-08
-1.9213e-08 -8.51072e-08 0.000274436

0.000228043 -1.24852e-05 -1.25123e-07
-1.24852e-05 0.000335204 1.37025e-07
-1.25123e-07 1.37025e-07 0.000289923

0.000274073 -3.28473e-05 -1.01224e-07
-3.28473e-05 0.00031925 -1.30109e-07
-1.01224e-07 -1.30109e-07 0.000301877

0.000287261 -2.36258e-05 -9.88702e-08
-2.36258e-05 0.000212031 -2.71374e-08
-9.88702e-08 -2.71374e-08 0.00025726

0.00017767 7.55553e-06 4.88924e-08
7.55553e-06 0.000250417 -1.02184e-07
4.88924e-08 -1.02184e-07 0.000199795

0.000198291 -1.51934e-05 5.86584e-08
-1.51934e-05 0.000251608 5.22107e-08
5.86584e-08 5.22107e-08 0.000203387

0.000248152 5.66096e-06 -7.26732e-08
5.66096e-06 0.000190365 3.31251e-08
-7.26732e-08 3.31251e-08 0.000201729

0.00021199 3.0706e-05 -7.88617e-08
3.0706e-05 0.000248281 4.50907e-08
-7.88617e-08 4.50907e-08 0.000230069

0.000259033 -2.13364e-05 -1.08772e-07
-2.13364e-05 0.000193506 8.79993e-08
-1.08772e-07 8.79993e-08 0.00021548

0.000242402 3.3817e-05 -6.61182e-08
3.3817e-05 0.000248523 4.57577e-08
-6.61182e-08 4.57577e-08 0.000246499

0.000252906 2.43467e-05 1.23676e-07
2.43467e-05 0.000270555 -1.43468e-07
1.23676e-07 -1.43468e-07 0.000245896

0.000295622 -7.40846e-06 1.0018e-07
-7.40846e-06 0.000205381 6.3378e-08
1.0018e-07 6.3378e-08 0.000249171

0.000165545 1.5992e-05 -7.10547e-10
1.5992e-05 0.000203024 1.18069e-07
-7.10547e-10 1.18069e-07 0.000165171

0.000310448 7.96414e-06 3.03073e-08
7.96414e-06 0.000220045 -4.43944e-08
3.03073e-08 -4.43944e-08 0.000272283

0.00020111 1.47587e-05 -1.05054e-07
1.47587e-05 0.00017365 -7.14502e-08
-1.05054e-07 -7.14502e-08 0.0001684

0.000312561 -1.48981e-05 1.02632e-07
-1.48981e-05 0.00032646 3.57598e-10
1.02632e-07 3.57598e-10 0.000314076

0.000275556 1.75102e-06 -8.72088e-08
1.75102e-06 0.000333966 1.61292e-07
-8.72088e-08 1.61292e-07 0.00029683

0.000345777 -1.62153e-05 -5.53261e-08
-1.62153e-05 0.00031861 2.42204e-07
-5.53261e-08 2.42204e-07 0.000314508

0.000328539 3.98124e-05 1.70299e-07
3.98124e-05 0.000332816 2.14844e-08
1.70299e-07 2.14844e-08 0.000314903

0.000243548 -1.04118e-05 1.40829e-07
-1.04118e-05 0.000186303 -4.30735e-08
1.40829e-07 -4.30735e-08 0.000193441

0.000237517 3.57732e-05 6.5609e-08
3.57732e-05 0.00025999 2.01598e-07
6.5609e-08 2.01598e-07 0.000260809

0.000295774 2.0421e-05 -9.55018e-08
2.0421e-05 0.000290616 1.11887e-08
-9.55018e-08 1.11887e-08 0.00029692

0.000306445 -5.62685e-06 8.81976e-08
-5.62685e-06 0.000298027 7.30916e-08
8.81976e-08 7.30916e-08 0.000298084

0.000325005 3.15302e-06 -6.79471e-08
3.15302e-06 0.000220441 -4.0056e-08
-6.79471e-08 -4.0056e-08 0.000279184

0.000240649 3.39572e-05 2.22768e-08
3.39572e-05 0.000266713 -8.30351e-09
2.22768e-08 -8.30351e-09 0.00024315

0.000256706 -2.68947e-05 -1.26321e-07
-2.68947e-05 0.000222445 -2.86768e-08
-1.26321e-07 -2.86768e-08 0.000221844

0.000323922 -9.71466e-08 -2.73166e-08
-9.71466e-08 0.000210944 -4.60865e-08
-2.73166e-08 -4.60865e-08 0.000273169

0.000222142 -4.60679e-05 -1.95891e-08
-4.60679e-05 0.000265571 -1.68513e-08
-1.95891e-08 -1.68513e-08 0.000229569

0.000227987 -4.01293e-05 -7.12671e-09
-4.01293e-05 0.000271586 -3.46962e-09
-7.12671e-09 -3.46962e-09 0.000233922

0.00029015 2.0244e-05 -1.23493e-07
2.0244e-05 0.000307075 5.62576e-08
-1.23493e-07 5.62576e-08 0.000298219

0.000232933 -4.59287e-05 2.6463e-07
-4.59287e-05 0.000219338 5.04046e-09
2.6463e-07 5.04046e-09 0.000209113

0.000139642 -4.55715e-05 -2.11977e-07
-4.55715e-05 0.000136303 1.47584e-08
-2.11977e-07 1.47584e-08 0.000136134

0.000134617 -4.88503e-05 1.83308e-07
-4.88503e-05 0.000147097 6.83916e-09
1.83308e-07 6.83916e-09 0.000138079

0.000264431 -5.3728e-05 1.61128e-07
-5.3728e-05 0.000321762 6.79491e-08
1.61128e-07 6.79491e-08 0.000295955

0.000138268 -1.82125e-05 1.82864e-07
-1.82125e-05 0.000134259 -7.20989e-10
1.82864e-07 -7.20989e-10 0.00014569

0.000128764 -1.48837e-05 5.1665e-08
-1.48837e-05 0.00013929 2.74816e-08
5.1665e-08 2.74816e-08 0.000143259

0.000346315 2.3438e-05 -1.464e-07
2.3438e-05 0.000299527 4.78705e-08
-1.464e-07 4.78705e-08 0.000323157

0.000323074 -3.11317e-05 -1.16404e-07
-3.11317e-05 0.000288894 -2.20851e-07
-1.16404e-07 -2.20851e-07 0.000300396

0.000295633 -1.56958e-05 5.55037e-08
-1.56958e-05 0.000216659 2.8485e-08
5.55037e-08 2.8485e-08 0.000271317

0.000344349 3.16006e-05 -1.39929e-07
3.16006e-05 0.000282012 2.33334e-09
-1.39929e-07 2.33334e-09 0.000319834

0.000319653 -4.33153e-05 -7.95145e-08
-4.33153e-05 0.000286809 3.87613e-08
-7.95145e-08 3.87613e-08 0.000300424

0.000252668 2.35524e-05 1.3998e-07
2.35524e-05 0.000288061 6.09012e-08
1.3998e-07 6.09012e-08 0.000266318

0.000343465 -1.49112e-05 -1.5871e-07
-1.49112e-05 0.000297126 8.23592e-08
-1.5871e-07 8.23592e-08 0.000309965

0.000323344 2.02537e-05 7.4976e-08
2.02537e-05 0.000311126 -5.71912e-08
7.4976e-08 -5.71912e-08 0.000310329

0.000319068 3.67898e-05 -8.10883e-09
3.67898e-05 0.000269003 8.1284e-08
-8.10883e-09 8.1284e-08 0.00030033

0.000292826 -4.67617e-05 -4.61292e-09
-4.67617e-05 0.000260945 -6.11799e-08
-4.61292e-09 -6.11799e-08 0.000283649

0.000216296 -3.18086e-05 2.82316e-08
-3.18086e-05 0.000172116 -9.66099e-08
2.82316e-08 -9.66099e-08 0.000178759

0.000326367 -9.3046e-06 -9.40432e-08
-9.3046e-06 0.000352346 -1.07574e-07
-9.40432e-08 -1.07574e-07 0.000337921

0.000289284 -1.7625e-06 8.47546e-09
-1.7625e-06 0.000370674 5.46065e-08
8.47546e-09 5.46065e-08 0.000308425

0.000211687 -3.90633e-05 -1.01153e-07
-3.90633e-05 0.000250312 -1.18861e-07
-1.01153e-07 -1.18861e-07 0.000231775

0.000157988 -1.3113e-05 -5.19884e-08
-1.3113e-05 0.000197825 2.14292e-08
-5.19884e-08 2.14292e-08 0.00016326

0.000193496 -1.26949e-05 -1.42087e-07
-1.26949e-05 0.000156798 1.6226e-08
-1.42087e-07 1.6226e-08 0.000160596

0.000265836 1.50065e-05 -4.76853e-08
1.50065e-05 0.000305947 7.23697e-08
-4.76853e-08 7.23697e-08 0.000286854

0.000210926 2.25051e-05 2.93262e-08
2.25051e-05 0.000297484 -7.37457e-08
2.93262e-08 -7.37457e-08 0.000267918

0.000410824 2.92255e-05 -9.5353e-07
2.92255e-05 0.000325011 -3.23539e-07
-9.5353e-07 -3.23539e-07 0.000344885

0.000386105 1.1718e-05 -3.69436e-09
1.1718e-05 0.000425185 -2.68211e-07
-3.69436e-09 -2.68211e-07 0.000317863

0.000230503 3.4196e-05 5.65581e-08
3.4196e-05 0.000281035 5.51693e-08
5.65581e-08 5.51693e-08 0.000283056

0.000306486 2.74882e-05 -1.13496e-07
2.74882e-05 0.000237444 -1.04635e-07
-1.13496e-07 -1.04635e-07 0.000280904

0.000292429 -4.12055e-05 1.6748e-08
-4.12055e-05 0.0002339 -1.11593e-08
1.6748e-08 -1.11593e-08 0.000271485

0.000238195 4.73504e-05 5.77068e-08
4.73504e-05 0.000278351 -1.38763e-07
5.77068e-08 -1.38763e-07 0.000280156

0.000233984 -3.59953e-05 5.00231e-08
-3.59953e-05 0.000311045 -7.63662e-08
5.00231e-08 -7.63662e-08 0.000289521

0.00024186 -3.50378e-06 1.48475e-07
-3.50378e-06 0.00017167 -9.60789e-08
1.48475e-07 -9.60789e-08 0.000191241

0.000279989 -1.37639e-05 -1.28728e-08
-1.37639e-05 0.000203544 -7.32594e-08
-1.28728e-08 -7.32594e-08 0.000239089

0.000255988 1.67296e-05 2.16242e-07
1.67296e-05 0.000191675 -5.30318e-08
2.16242e-07 -5.30318e-08 0.000211604

0.000298038 1.86937e-05 -1.01672e-07
1.86937e-05 0.000261822 3.84036e-08
-1.01672e-07 3.84036e-08 0.000291158

0.000283356 1.26113e-05 -1.48284e-07
1.26113e-05 0.000367779 1.69286e-07
-1.48284e-07 1.69286e-07 0.000317237

0.00032529 -9.23324e-06 2.70153e-08
-9.23324e-06 0.000330697 2.83336e-07
2.70153e-08 2.83336e-07 0.000316922

0.000204502 2.67271e-05 -8.38584e-08
2.67271e-05 0.000220351 6.10293e-08
-8.38584e-08 6.10293e-08 0.00019443

0.000254019 -3.454e-05 -6.14816e-08
-3.454e-05 0.000240091 -9.24764e-08
-6.14816e-08 -9.24764e-08 0.000241712

0.000292005 1.87038e-05 1.96087e-08
1.87038e-05 0.000232686 2.54998e-09
1.96087e-08 2.54998e-09 0.000265125

0.000311448 2.03147e-05 3.05704e-07
2.03147e-05 0.000380103 1.26908e-07
3.05704e-07 1.26908e-07 0.000312053

0.000323306 -1.40618e-05 -2.10417e-07
-1.40618e-05 0.000350213 -1.35881e-07
-2.10417e-07 -1.35881e-07 0.000336028

0.000308506 -4.91144e-06 5.6384e-08
-4.91144e-06 0.000262976 -6.95964e-08
5.6384e-08 -6.95964e-08 0.000293277

0.000274811 -2.6837e-05 -9.80095e-08
-2.6837e-05 0.000309127 -7.51764e-08
-9.80095e-08 -7.51764e-08 0.000284454

0.000228794 -8.44963e-06 -1.42597e-07
-8.44963e-06 0.000311684 -9.25522e-08
-1.42597e-07 -9.25522e-08 0.000274237

0.000313576 6.17403e-06 -3.17422e-08
6.17403e-06 0.000214611 4.31498e-08
-3.17422e-08 4.31498e-08 0.000286175

0.000308383 -1.87329e-05 6.22548e-08
-1.87329e-05 0.000215434 2.42386e-08
6.22548e-08 2.42386e-08 0.000282332

0.000219134 -3.83256e-05 -4.00158e-08
-3.83256e-05 0.000201987 7.49281e-09
-4.00158e-08 7.49281e-09 0.000194082

0.000329958 2.3662e-05 3.52302e-08
2.3662e-05 0.000236987 -8.33786e-08
3.52302e-08 -8.33786e-08 0.00030235

0.000316913 -3.65121e-05 8.67445e-08
-3.65121e-05 0.000243548 -4.12307e-08
8.67445e-08 -4.12307e-08 0.000291254

0.000285758 -3.25207e-05 -8.98939e-08
-3.25207e-05 0.000223678 8.46808e-08
-8.98939e-08 8.46808e-08 0.000257651

0.000212551 -3.23219e-05 -3.59059e-09
-3.23219e-05 0.00026624 6.76242e-09
-3.59059e-09 6.76242e-09 0.000234467

0.000309288 1.47323e-05 -1.51045e-10
1.47323e-05 0.00024094 -1.20412e-07
-1.51045e-10 -1.20412e-07 0.000290144

0.000304921 -2.63942e-05 5.62181e-08
-2.63942e-05 0.000235571 -8.87733e-09
5.62181e-08 -8.87733e-09 0.00028211

0.000291757 -8.71023e-06 1.47711e-07
-8.71023e-06 0.000229693 -4.08878e-08
1.47711e-07 -4.08878e-08 0.000256313

0.000315281 4.1345e-05 5.46052e-08
4.1345e-05 0.000294925 -1.28037e-07
5.46052e-08 -1.28037e-07 0.00030646

0.000242111 2.74311e-05 1.31667e-07
2.74311e-05 0.000224139 -1.30052e-08
1.31667e-07 -1.30052e-08 0.000221834

0.000234777 4.06311e-05 8.52226e-08
4.06311e-05 0.000270533 -5.01251e-08
8.52226e-08 -5.01251e-08 0.000285103

0.00029724 3.02177e-05 -1.20674e-07
3.02177e-05 0.000319491 6.15745e-08
-1.20674e-07 6.15745e-08 0.00031476

0.000267447 1.55308e-05 1.84025e-08
1.55308e-05 0.000195369 7.53014e-08
1.84025e-08 7.53014e-08 0.000225093

0.000276723 -2.05435e-05 -1.46756e-08
-2.05435e-05 0.000252196 5.12957e-08
-1.46756e-08 5.12957e-08 0.000269985

0.000283662 1.28101e-05 -1.6726e-07
1.28101e-05 0.000224138 -1.6244e-07
-1.6726e-07 -1.6244e-07 0.000251946

0.000212227 3.25625e-05 -7.7817e-08
3.25625e-05 0.000224553 6.65815e-08
-7.7817e-08 6.65815e-08 0.000213676

0.000242958 3.08428e-05 -5.09323e-08
3.08428e-05 0.00022899 -1.56883e-07
-5.09323e-08 -1.56883e-07 0.000239915

0.000202771 2.66505e-07 -1.05969e-07
2.66505e-07 0.000309652 -1.11585e-07
-1.05969e-07 -1.11585e-07 0.000265138

0.000248597 -1.33722e-05 -3.09461e-08
-1.33722e-05 0.000302212 -1.10026e-07
-3.09461e-08 -1.10026e-07 0.000277313

0.000219159 -3.80817e-05 -4.82312e-08
-3.80817e-05 0.000175128 2.09213e-07
-4.82312e-08 2.09213e-07 0.000187225

0.000251388 -5.25743e-05 4.52232e-08
-5.25743e-05 0.000301048 7.9511e-08
4.52232e-08 7.9511e-08 0.000279604

0.00021431 -4.63348e-05 -1.09656e-07
-4.63348e-05 0.000238112 -6.53999e-08
-1.09656e-07 -6.53999e-08 0.000215414

0.00024186 3.75849e-05 4.19809e-08
3.75849e-05 0.000243096 1.55899e-07
4.19809e-08 1.55899e-07 0.000224303

0.000281473 -1.7207e-05 1.28949e-07
-1.7207e-05 0.000241907 -8.20482e-08
1.28949e-07 -8.20482e-08 0.000254364

0.00032994 -1.18261e-06 4.49483e-08
-1.18261e-06 0.000227768 -2.27789e-08
4.49483e-08 -2.27789e-08 0.000289622

0.000320486 5.35943e-06 4.00644e-08
5.35943e-06 0.000232858 9.38537e-08
4.00644e-08 9.38537e-08 0.000288739

0.000183692 1.69298e-05 7.58012e-08
1.69298e-05 0.000260562 -3.71704e-08
7.58012e-08 -3.71704e-08 0.000219577

0.000250082 -4.1264e-05 -4.46588e-08
-4.1264e-05 0.000263765 -1.34664e-08
-4.46588e-08 -1.34664e-08 0.000246247

0.000155996 -5.40168e-06 -2.67548e-08
-5.40168e-06 0.000244293 -1.26718e-07
-2.67548e-08 -1.26718e-07 0.000191645

0.00017754 -7.09759e-06 -2.74824e-08
-7.09759e-06 0.000248654 7.72554e-08
-2.74824e-08 7.72554e-08 0.000196707

0.000240602 -9.65471e-06 -1.06931e-07
-9.65471e-06 0.00016475 -6.54843e-08
-1.06931e-07 -6.54843e-08 0.000192715

0.000226554 2.72494e-05 -9.85298e-09
2.72494e-05 0.000214197 -6.70046e-08
-9.85298e-09 -6.70046e-08 0.000198855

0.000232685 -4.74132e-05 1.69105e-07
-4.74132e-05 0.000207095 -1.89177e-07
1.69105e-07 -1.89177e-07 0.000215325

0.000390788 -9.0185e-06 3.88099e-07
-9.0185e-06 0.000390728 1.0078e-07
3.88099e-07 1.0078e-07 0.000316

0.0003164 -4.30785e-05 2.62909e-08
-4.30785e-05 0.00036931 -2.10945e-07
2.62909e-08 -2.10945e-07 0.000339532

0.000261594 -2.81265e-05 1.11861e-07
-2.81265e-05 0.000193157 -2.31989e-09
1.11861e-07 -2.31989e-09 0.000223101

0.000280741 3.79926e-05 -7.252e-08
3.79926e-05 0.000292903 -1.12899e-07
-7.252e-08 -1.12899e-07 0.000284253

0.000297819 2.65489e-06 6.03978e-08
2.65489e-06 0.000217883 1.10489e-07
6.03978e-08 1.10489e-07 0.000272688

0.000211342 -3.44529e-05 9.4718e-08
-3.44529e-05 0.000269692 -3.30914e-08
9.4718e-08 -3.30914e-08 0.00022482

0.000222174 3.57481e-05 2.3958e-08
3.57481e-05 0.000313459 1.25853e-07
2.3958e-08 1.25853e-07 0.000291074

0.000309163 1.48296e-05 -1.54767e-08
1.48296e-05 0.000330171 -1.66514e-07
-1.54767e-08 -1.66514e-07 0.000325862

0.000250529 -4.83248e-05 9.09527e-08
-4.83248e-05 0.000271303 -1.46281e-07
9.09527e-08 -1.46281e-07 0.000279832

0.00031084 3.62588e-05 8.08384e-08
3.62588e-05 0.000315653 -3.38497e-08
8.08384e-08 -3.38497e-08 0.000318354

0.000217341 2.91336e-05 -2.60856e-08
2.91336e-05 0.000278455 -6.03533e-08
-2.60856e-08 -6.03533e-08 0.000263666

0.000321027 -3.55611e-06 -3.17248e-08
-3.55611e-06 0.000182594 6.66279e-08
-3.17248e-08 6.66279e-08 0.000291179

0.000251243 3.56364e-05 1.37745e-08
3.56364e-05 0.000213221 -4.96801e-08
1.37745e-08 -4.96801e-08 0.000221062

0.00025151 -5.54755e-05 4.22902e-08
-5.54755e-05 0.000317337 8.82987e-08
4.22902e-08 8.82987e-08 0.000283465

0.000250586 3.23923e-05 3.03719e-08
3.23923e-05 0.000242649 1.70199e-07
3.03719e-08 1.70199e-07 0.000232231

0.000205056 -3.16274e-05 -2.58575e-07
-3.16274e-05 0.000224063 -7.24686e-08
-2.58575e-07 -7.24686e-08 0.000191259

0.00024677 -4.54065e-05 -4.07838e-08
-4.54065e-05 0.000283194 -1.91837e-08
-4.07838e-08 -1.91837e-08 0.000261148

0.000182329 -2.04335e-05 2.6712e-08
-2.04335e-05 0.000252873 -1.57169e-07
2.6712e-08 -1.57169e-07 0.000204125

0.00021197 7.65945e-06 8.27184e-08
7.65945e-06 0.000254574 1.36451e-07
8.27184e-08 1.36451e-07 0.000210815

0.000244188 -1.93015e-05 -1.87629e-07
-1.93015e-05 0.000189178 9.9005e-08
-1.87629e-07 9.9005e-08 0.000203217

0.000232178 -4.17809e-05 1.51877e-07
-4.17809e-05 0.000226617 2.21368e-07
1.51877e-07 2.21368e-07 0.000222312

0.000203034 -1.86567e-06 -1.15981e-07
-1.86567e-06 0.000289475 8.95389e-08
-1.15981e-07 8.95389e-08 0.00024294

0.000248047 -7.52551e-06 -3.9691e-08
-7.52551e-06 0.000289486 6.56115e-08
-3.9691e-08 6.56115e-08 0.000252698

0.000185148 -4.15576e-05 -1.10305e-08
-4.15576e-05 0.000209992 2.45835e-08
-1.10305e-08 2.45835e-08 0.000185227

0.000205888 3.06631e-05 2.57868e-08
3.06631e-05 0.000216005 -8.4965e-08
2.57868e-08 -8.4965e-08 0.000192197

0.000304119 -8.28986e-08 -1.584e-08
-8.28986e-08 0.000216981 4.04776e-08
-1.584e-08 4.04776e-08 0.000293096

0.000300924 -7.18412e-06 -7.63964e-08
-7.18412e-06 0.000220284 -3.12938e-09
-7.63964e-08 -3.12938e-09 0.00028932

0.000287407 3.29003e-05 1.79924e-08
3.29003e-05 0.000296083 -1.52496e-07
1.79924e-08 -1.52496e-07 0.000289139

0.000261042 -5.47613e-05 -5.60946e-08
-5.47613e-05 0.000322933 1.45549e-07
-5.60946e-08 1.45549e-07 0.000294252

0.000254581 3.75023e-05 -9.83281e-08
3.75023e-05 0.000260153 1.89277e-07
-9.83281e-08 1.89277e-07 0.000271049

0.000206045 1.73062e-05 -7.81438e-08
1.73062e-05 0.000167604 4.82746e-09
-7.81438e-08 4.82746e-09 0.000172756

0.00022015 2.10539e-05 -3.18521e-08
2.10539e-05 0.000270318 -1.50768e-07
-3.18521e-08 -1.50768e-07 0.000231389

0.000333151 1.92045e-05 -8.58324e-08
1.92045e-05 0.00027004 8.36042e-08
-8.58324e-08 8.36042e-08 0.000308805

0.000316796 -3.27752e-05 -1.2983e-08
-3.27752e-05 0.000261555 -6.13664e-08
-1.2983e-08 -6.13664e-08 0.000292349

0.000306378 2.70188e-05 -1.1967e-07
2.70188e-05 0.000262354 -3.3902e-08
-1.1967e-07 -3.3902e-08 0.000286193

0.000292695 -3.91736e-05 1.10143e-08
-3.91736e-05 0.000245306 -7.74286e-08
1.10143e-08 -7.74286e-08 0.00027225

0.000129804 -1.9465e-05 2.79926e-08
-1.9465e-05 9.39282e-05 -2.25213e-07
2.79926e-08 -2.25213e-07 0.000143581

9.02225e-05 -2.30791e-05 1.10136e-07
-2.30791e-05 0.000136883 7.32431e-08
1.10136e-07 7.32431e-08 0.000145578

0.000184769 -2.6098e-05 -2.99237e-08
-2.6098e-05 0.00026503 1.05164e-08
-2.99237e-08 1.05164e-08 0.00022266

0.000376763 3.07512e-05 2.09363e-07
3.07512e-05 0.000292965 9.27754e-08
2.09363e-07 9.27754e-08 0.000331546

0.000357173 -4.45199e-05 2.15042e-09
-4.45199e-05 0.000318181 8.34116e-08
2.15042e-09 8.34116e-08 0.000311149

0.000282132 3.16565e-05 9.71516e-08
3.16565e-05 0.000251119 -9.6939e-08
9.71516e-08 -9.6939e-08 0.00026128

0.000209701 1.2738e-05 -7.25933e-08
1.2738e-05 0.000163931 -1.09978e-08
-7.25933e-08 -1.09978e-08 0.000172438

0.000245695 -3.79507e-05 1.81535e-08
-3.79507e-05 0.000305309 -1.68289e-08
1.81535e-08 -1.68289e-08 0.000274498

0.000211938 -1.80047e-05 1.26467e-07
-1.80047e-05 0.000306377 3.82723e-08
1.26467e-07 3.82723e-08 0.00026811

0.00022237 -4.51088e-05 1.23494e-08
-4.51088e-05 0.000234556 -2.78805e-07
1.23494e-08 -2.78805e-07 0.000212303

0.000242368 -3.66105e-05 1.53282e-08
-3.66105e-05 0.000272853 7.57187e-08
1.53282e-08 7.57187e-08 0.000284402

0.000265035 -4.31908e-05 -2.32697e-07
-4.31908e-05 0.00023415 1.00537e-09
-2.32697e-07 1.00537e-09 0.000248991

0.000209209 5.50819e-05 1.92737e-08
5.50819e-05 0.000286197 5.08206e-08
1.92737e-08 5.08206e-08 0.000284159

0.00031336 1.34707e-05 -7.5213e-08
1.34707e-05 0.000330331 -1.62608e-07
-7.5213e-08 -1.62608e-07 0.000325391

0.000278717 2.32288e-05 -1.68126e-08
2.32288e-05 0.000314854 1.2852e-07
-1.68126e-08 1.2852e-07 0.000296902

0.000244254 -4.09497e-05 -1.16405e-07
-4.09497e-05 0.000264766 -2.34177e-08
-1.16405e-07 -2.34177e-08 0.000267724

0.000236202 3.96968e-05 1.09559e-07
3.96968e-05 0.000269343 -1.05463e-07
1.09559e-07 -1.05463e-07 0.000267336

0.000243579 2.67886e-05 1.51119e-07
2.67886e-05 0.000195767 6.44455e-08
1.51119e-07 6.44455e-08 0.000209559

0.000277327 -4.68226e-08 -2.94924e-08
-4.68226e-08 0.00020946 1.01515e-07
-2.94924e-08 1.01515e-07 0.000241335

0.000320145 2.75373e-05 1.62936e-08
2.75373e-05 0.000318815 7.40129e-08
1.62936e-08 7.40129e-08 0.000322006

0.000228452 -4.40645e-05 -2.21397e-08
-4.40645e-05 0.000291606 2.03726e-07
-2.21397e-08 2.03726e-07 0.000253374

0.000188131 6.34177e-06 6.58719e-08
6.34177e-06 0.000284956 -9.09891e-09
6.58719e-08 -9.09891e-09 0.000236017

0.000293808 4.10082e-05 1.28585e-07
4.10082e-05 0.000258566 -6.98496e-08
1.28585e-07 -6.98496e-08 0.000277503

0.00023403 1.28082e-06 -1.40105e-07
1.28082e-06 0.000284301 1.12895e-07
-1.40105e-07 1.12895e-07 0.000248541

0.0002227 -3.07258e-05 5.83013e-08
-3.07258e-05 0.000308738 -7.92671e-08
5.83013e-08 -7.92671e-08 0.000290117

0.000155917 -2.59774e-05 -8.08664e-08
-2.59774e-05 0.000170758 -3.03828e-07
-8.08664e-08 -3.03828e-07 0.000150268

0.000171778 -2.59319e-05 2.73633e-07
-2.59319e-05 0.000154398 5.72169e-08
2.73633e-07 5.72169e-08 0.000149488

0.000293164 8.7611e-06 1.27455e-08
8.7611e-06 0.000214344 1.26297e-07
1.27455e-08 1.26297e-07 0.000260878

0.000265739 -4.87278e-05 -1.1896e-07
-4.87278e-05 0.000243105 -9.6247e-08
-1.1896e-07 -9.6247e-08 0.000262677

0.000410252 2.6403e-05 -7.19544e-07
2.6403e-05 0.000314734 2.39602e-07
-7.19544e-07 2.39602e-07 0.000341299

0.000412539 -5.88062e-06 -6.52359e-09
-5.88062e-06 0.000356777 -2.61402e-07
-6.52359e-09 -2.61402e-07 0.000316953

0.000225063 -3.40059e-05 -5.52795e-08
-3.40059e-05 0.000276124 6.4303e-09
-5.52795e-08 6.4303e-09 0.000264901

0.00030096 -1.03253e-05 -4.67446e-08
-1.03253e-05 0.000318109 2.40404e-07
-4.67446e-08 2.40404e-07 0.000308

0.00029331 3.52497e-05 -1.4276e-07
3.52497e-05 0.000332551 -4.92181e-08
-1.4276e-07 -4.92181e-08 0.000308385

0.000309903 3.12689e-06 -2.09082e-08
3.12689e-06 0.000209481 -1.04262e-07
-2.09082e-08 -1.04262e-07 0.00025926

0.000246972 -5.9521e-05 -1.06907e-08
-5.9521e-05 0.000315239 1.05156e-08
-1.06907e-08 1.05156e-08 0.000282902

0.000172764 1.96465e-05 3.83807e-08
1.96465e-05 0.000174273 -1.28807e-07
3.83807e-08 -1.28807e-07 0.000160881

0.000167342 1.92929e-05 3.58443e-08
1.92929e-05 0.000167874 1.01514e-08
3.58443e-08 1.01514e-08 0.000157784

0.000150556 -2.31979e-05 -1.43856e-07
-2.31979e-05 0.000204279 1.40426e-07
-1.43856e-07 1.40426e-07 0.000167966

0.000171432 1.14837e-05 4.26101e-08
1.14837e-05 0.00021107 -6.87313e-08
4.26101e-08 -6.87313e-08 0.000173954

0.000203187 -1.93693e-05 5.1163e-08
-1.93693e-05 0.000154308 1.18885e-07
5.1163e-08 1.18885e-07 0.000168335

0.000216086 -5.47776e-05 -7.10678e-08
-5.47776e-05 0.000283621 -6.53942e-08
-7.10678e-08 -6.53942e-08 0.000283773

0.000133436 1.07216e-06 7.65405e-08
1.07216e-06 0.000196922 1.41544e-07
7.65405e-08 1.41544e-07 0.000158093

0.000196113 1.63016e-06 -7.52381e-08
1.63016e-06 0.000142639 3.17739e-08
-7.52381e-08 3.17739e-08 0.000160709

0.000287983 3.56924e-06 1.05281e-07
3.56924e-06 0.000348752 -1.3914e-07
1.05281e-07 -1.3914e-07 0.000305059

0.000306037 -3.14541e-05 -1.61316e-07
-3.14541e-05 0.000339966 1.2606e-08
-1.61316e-07 1.2606e-08 0.000317567

0.000300789 1.25731e-05 7.55074e-08
1.25731e-05 0.000247669 2.07143e-07
7.55074e-08 2.07143e-07 0.000275233

0.00032661 2.16941e-06 -5.4593e-08
2.16941e-06 0.000212497 -7.90554e-08
-5.4593e-08 -7.90554e-08 0.000278886

0.000181437 -2.93486e-05 1.5334e-08
-2.93486e-05 0.000232835 -1.70769e-07
1.5334e-08 -1.70769e-07 0.000199571

0.000202643 1.84492e-05 5.57403e-08
1.84492e-05 0.000242112 1.68961e-07
5.57403e-08 1.68961e-07 0.000206476

0.000310055 2.4862e-06 -3.20083e-08
2.4862e-06 0.000211941 -4.36798e-08
-3.20083e-08 -4.36798e-08 0.000260445

0.000212156 -2.98331e-05 -6.38392e-10
-2.98331e-05 0.000277472 -3.62146e-08
-6.38392e-10 -3.62146e-08 0.000251929

0.000355399 1.73877e-05 6.66861e-08
1.73877e-05 0.000291138 -7.53624e-08
6.66861e-08 -7.53624e-08 0.000324732

0.000338208 -2.48066e-05 1.12411e-08
-2.48066e-05 0.000298057 7.26982e-08
1.12411e-08 7.26982e-08 0.000306018

0.000268165 2.83174e-05 1.78074e-07
2.83174e-05 0.000265715 -5.79886e-08
1.78074e-07 -5.79886e-08 0.00027345

0.000243834 -5.03771e-05 -1.23704e-08
-5.03771e-05 0.00030113 1.14062e-07
-1.23704e-08 1.14062e-07 0.000267035

0.000301144 1.30839e-05 4.87995e-08
1.30839e-05 0.000220914 -6.62094e-08
4.87995e-08 -6.62094e-08 0.000269079

0.000206199 2.62701e-05 -7.21938e-08
2.62701e-05 0.00019738 1.48573e-08
-7.21938e-08 1.48573e-08 0.000189514

0.000244113 -5.41218e-05 5.37797e-08
-5.41218e-05 0.000297719 1.43697e-07
5.37797e-08 1.43697e-07 0.000265303

0.00012921 4.80786e-05 -2.93686e-07
4.80786e-05 0.00013076 2.04672e-08
-2.93686e-07 2.04672e-08 0.000132558

0.000220343 -1.99047e-05 1.65616e-07
-1.99047e-05 0.000283965 1.53328e-07
1.65616e-07 1.53328e-07 0.00024287

0.000193717 -1.20015e-05 2.85353e-08
-1.20015e-05 0.00028349 1.40444e-07
2.85353e-08 1.40444e-07 0.000236886

0.000276944 -5.493e-06 -1.12548e-08
-5.493e-06 0.000371185 -2.84052e-07
-1.12548e-08 -2.84052e-07 0.000306387

0.000315649 -2.47161e-05 6.49721e-08
-2.47161e-05 0.000335458 2.21179e-07
6.49721e-08 2.21179e-07 0.000325705

0.000335782 1.36377e-05 -9.27079e-08
1.36377e-05 0.000198507 -6.03368e-08
-9.27079e-08 -6.03368e-08 0.000303512

0.000326857 -2.01913e-05 6.99433e-09
-2.01913e-05 0.000210588 -1.10905e-07
6.99433e-09 -1.10905e-07 0.000295751

0.000274171 4.20027e-05 1.28113e-07
4.20027e-05 0.000276607 -7.9999e-08
1.28113e-07 -7.9999e-08 0.000288072

0.000277975 -2.66345e-05 7.92281e-08
-2.66345e-05 0.000288359 7.05327e-08
7.92281e-08 7.05327e-08 0.00028928

0.00029644 3.11347e-05 -1.68328e-07
3.11347e-05 0.000310216 6.05347e-08
-1.68328e-07 6.05347e-08 0.000306081

0.000294832 -2.20782e-05 -8.94895e-08
-2.20782e-05 0.00032899 5.86178e-08
-8.94895e-08 5.86178e-08 0.000305326

0.000396128 3.10974e-05 1.59899e-07
3.10974e-05 0.000314233 1.88155e-07
1.59899e-07 1.88155e-07 0.000340658

0.00037626 -4.38779e-05 2.24257e-07
-4.38779e-05 0.000352456 -2.47901e-07
2.24257e-07 -2.47901e-07 0.000315021

0.000346049 3.10365e-05 9.87112e-08
3.10365e-05 0.000311703 -2.99535e-08
9.87112e-08 -2.99535e-08 0.000330351

0.000254432 -5.88517e-05 -4.65491e-08
-5.88517e-05 0.000281332 8.81966e-08
-4.65491e-08 8.81966e-08 0.000292093

0.000282951 3.27447e-05 7.46459e-08
3.27447e-05 0.000228765 -5.5178e-09
7.46459e-08 -5.5178e-09 0.000254192

0.000246217 -3.7012e-05 5.73877e-08
-3.7012e-05 0.000293505 2.53206e-07
5.73877e-08 2.53206e-07 0.00025753

0.000210981 -2.2543e-05 1.25854e-07
-2.2543e-05 0.000286016 3.47015e-08
1.25854e-07 3.47015e-08 0.000252957

0.000216273 -3.28944e-05 7.69767e-09
-3.28944e-05 0.000209141 2.06044e-07
7.69767e-09 2.06044e-07 0.000188068

0.00026566 -4.32024e-05 -2.19225e-07
-4.32024e-05 0.00022069 6.32508e-08
-2.19225e-07 6.32508e-08 0.00024473

0.000210642 1.49142e-05 3.02284e-08
1.49142e-05 0.000288021 -2.60261e-08
3.02284e-08 -2.60261e-08 0.000251166

0.000268511 4.34638e-05 -2.20528e-07
4.34638e-05 0.000248144 -5.34759e-08
-2.20528e-07 -5.34759e-08 0.00025196

0.000238675 6.45676e-05 6.06475e-08
6.45676e-05 0.000285409 -5.79656e-08
6.06475e-08 -5.79656e-08 0.000293673

0.000257582 -5.2434e-05 -1.1203e-07
-5.2434e-05 0.000314719 1.38458e-07
-1.1203e-07 1.38458e-07 0.000291451

0.000242066 -4.95274e-05 3.00042e-07
-4.95274e-05 0.000232633 9.45626e-08
3.00042e-07 9.45626e-08 0.000239599

0.000308773 -3.55015e-06 -5.68741e-08
-3.55015e-06 0.000260193 3.64271e-08
-5.68741e-08 3.64271e-08 0.000278986

0.000333676 -1.62365e-05 -2.32609e-07
-1.62365e-05 0.000361891 3.31314e-07
-2.32609e-07 3.31314e-07 0.000334641

0.000391147 -1.91096e-05 -2.16463e-07
-1.91096e-05 0.000380675 1.02214e-07
-2.16463e-07 1.02214e-07 0.000315461

0.000233167 -1.93012e-05 4.58298e-08
-1.93012e-05 0.00029826 9.33025e-08
4.58298e-08 9.33025e-08 0.000277257

0.000268014 2.6422e-05 1.94675e-07
2.6422e-05 0.000241985 1.65321e-07
1.94675e-07 1.65321e-07 0.000266372

0.000319358 -2.20176e-06 9.61652e-08
-2.20176e-06 0.000274863 -3.86396e-08
9.61652e-08 -3.86396e-08 0.000297751

0.000152974 -3.32099e-05 -1.33149e-07
-3.32099e-05 0.000176327 3.87351e-08
-1.33149e-07 3.87351e-08 0.000153662

0.000173509 -2.96937e-05 -7.2826e-08
-2.96937e-05 0.000153473 1.13534e-07
-7.2826e-08 1.13534e-07 0.000154444

0.000335144 -1.18571e-06 -7.29604e-08
-1.18571e-06 0.000236306 -8.48597e-08
-7.29604e-08 -8.48597e-08 0.000308797

0.000329093 -6.12542e-06 6.87411e-08
-6.12542e-06 0.000239884 -4.01585e-08
6.87411e-08 -4.01585e-08 0.000297908

0.000331181 6.88895e-06 2.83391e-08
6.88895e-06 0.00026856 -7.97969e-08
2.83391e-08 -7.97969e-08 0.00029833

0.000265883 1.73397e-05 -4.66115e-08
1.73397e-05 0.000290544 1.82583e-07
-4.66115e-08 1.82583e-07 0.000267481

0.000267689 2.28563e-05 1.62443e-08
2.28563e-05 0.00022263 -5.11596e-08
1.62443e-08 -5.11596e-08 0.000233702

0.000320153 3.12778e-05 -1.60773e-08
3.12778e-05 0.00028791 1.44792e-07
-1.60773e-08 1.44792e-07 0.000304884

0.000294166 -4.11627e-05 1.62054e-08
-4.11627e-05 0.000264526 1.05929e-07
1.62054e-08 1.05929e-07 0.000284581

0.000342076 -5.19073e-06 2.53289e-09
-5.19073e-06 0.000315053 -9.29009e-08
2.53289e-09 -9.29009e-08 0.000318358

0.000328898 4.54064e-05 1.86311e-07
4.54064e-05 0.000389039 1.22334e-07
1.86311e-07 1.22334e-07 0.000318806

0.000224554 -3.45137e-05 -4.67508e-08
-3.45137e-05 0.000287393 5.59759e-08
-4.67508e-08 5.59759e-08 0.000275076

0.000275972 2.27873e-05 -1.75343e-07
2.27873e-05 0.000230618 -1.39109e-07
-1.75343e-07 -1.39109e-07 0.00025046

0.000330049 2.12999e-05 3.43732e-08
2.12999e-05 0.000269122 -4.56924e-08
3.43732e-08 -4.56924e-08 0.00030858

0.000317281 -2.82095e-05 8.87785e-08
-2.82095e-05 0.000270725 4.69517e-08
8.87785e-08 4.69517e-08 0.000294286

0.000265206 -4.85717e-05 1.48853e-07
-4.85717e-05 0.000310646 -1.07707e-07
1.48853e-07 -1.07707e-07 0.000282138

0.000253958 -6.20799e-05 -1.42457e-07
-6.20799e-05 0.000315902 3.26712e-08
-1.42457e-07 3.26712e-08 0.000283546

0.000135146 5.68532e-05 1.81542e-07
5.68532e-05 0.000141522 -5.15578e-08
1.81542e-07 -5.15578e-08 0.000135054

0.000253782 4.36728e-05 9.86496e-09
4.36728e-05 0.000308288 4.43313e-08
9.86496e-09 4.43313e-08 0.000298109

0.000268142 -3.87077e-05 -1.53417e-07
-3.87077e-05 0.000326929 5.44383e-08
-1.53417e-07 5.44383e-08 0.000296891

0.000244036 -5.34123e-05 6.59205e-09
-5.34123e-05 0.000309714 -1.53165e-07
6.59205e-09 -1.53165e-07 0.000277098

0.000263209 -3.60278e-05 1.3557e-07
-3.60278e-05 0.000211309 -2.02784e-07
1.3557e-07 -2.02784e-07 0.000228351

0.000277014 -2.40658e-05 -1.94198e-08
-2.40658e-05 0.000285374 1.35982e-07
-1.94198e-08 1.35982e-07 0.000275472

0.000273928 4.19523e-05 7.11671e-08
4.19523e-05 0.000279719 1.12284e-07
7.11671e-08 1.12284e-07 0.000291565

0.000273052 -3.33185e-05 2.13948e-08
-3.33185e-05 0.000307931 -1.47475e-07
2.13948e-08 -1.47475e-07 0.000290762

0.000308772 -3.33306e-06 -5.68762e-08
-3.33306e-06 0.00022308 3.74542e-08
-5.68762e-08 3.74542e-08 0.000272631

0.000339156 1.27384e-05 -4.93483e-08
1.27384e-05 0.000275596 3.25039e-08
-4.93483e-08 3.25039e-08 0.000318592

0.000329007 -1.15772e-05 3.89719e-08
-1.15772e-05 0.000296221 1.07807e-07
3.89719e-08 1.07807e-07 0.000304277

0.000322091 -1.73625e-05 2.6908e-07
-1.73625e-05 0.000376131 -1.7826e-07
2.6908e-07 -1.7826e-07 0.000333168

0.000310908 1.30533e-05 -1.44466e-07
1.30533e-05 0.000398119 2.90861e-08
-1.44466e-07 2.90861e-08 0.000313502

0.000146108 4.36796e-06 5.22485e-08
4.36796e-06 0.000100908 8.57891e-08
5.22485e-08 8.57891e-08 0.000144869

0.000101648 4.29715e-06 1.52224e-07
4.29715e-06 0.000141718 -1.20886e-07
1.52224e-07 -1.20886e-07 0.000142266

0.000312512 3.96546e-05 2.32973e-08
3.96546e-05 0.000302157 -9.30587e-08
2.32973e-08 -9.30587e-08 0.000308057

0.000267623 -3.94126e-05 5.05166e-08
-3.94126e-05 0.000268219 -1.94556e-07
5.05166e-08 -1.94556e-07 0.000282563

0.000233966 -3.76868e-05 5.49359e-08
-3.76868e-05 0.00027847 -8.30818e-08
5.49359e-08 -8.30818e-08 0.000282291

0.000127194 1.36334e-05 1.72024e-07
1.36334e-05 0.000127546 -1.53476e-07
1.72024e-07 -1.53476e-07 0.000141015

0.000127273 1.52903e-05 4.27355e-08
1.52903e-05 0.00012879 -7.31367e-08
4.27355e-08 -7.31367e-08 0.000142403

0.000390258 5.39399e-06 -2.45863e-08
5.39399e-06 0.000395653 -2.77812e-07
-2.45863e-08 -2.77812e-07 0.000317816

0.000388676 1.0281e-05 -1.1034e-08
1.0281e-05 0.000361835 -4.04073e-07
-1.1034e-08 -4.04073e-07 0.000340546

0.000258258 -3.52208e-05 -1.77957e-07
-3.52208e-05 0.00027999 7.53326e-10
-1.77957e-07 7.53326e-10 0.000271675

0.000242522 -4.37596e-05 1.53177e-07
-4.37596e-05 0.000251027 -1.56599e-07
1.53177e-07 -1.56599e-07 0.0002459

0.000313627 4.14061e-05 5.48123e-08
4.14061e-05 0.000279138 1.07908e-07
5.48123e-08 1.07908e-07 0.000298898

0.000271522 -4.98435e-05 -1.0691e-09
-4.98435e-05 0.000261621 9.69459e-08
-1.0691e-09 9.69459e-08 0.00027784

0.000242581 -4.68024e-05 -8.75721e-08
-4.68024e-05 0.000258999 1.62875e-07
-8.75721e-08 1.62875e-07 0.000259949

0.000274001 3.36736e-05 -2.21838e-07
3.36736e-05 0.000265583 -5.12219e-08
-2.21838e-07 -5.12219e-08 0.000260021

0.000153647 -1.50303e-05 3.21196e-08
-1.50303e-05 0.000208477 1.8809e-07
3.21196e-08 1.8809e-07 0.000169831

0.000171984 9.15936e-06 5.29774e-09
9.15936e-06 0.000211661 -6.39183e-08
5.29774e-09 -6.39183e-08 0.000174125

0.000205012 -1.4108e-05 1.40639e-08
-1.4108e-05 0.000164194 -5.11458e-08
1.40639e-08 -5.11458e-08 0.000171426

0.000283844 4.44383e-05 -4.70938e-08
4.44383e-05 0.00027611 2.02036e-07
-4.70938e-08 2.02036e-07 0.000277492

0.000148359 -1.0872e-05 6.72424e-08
-1.0872e-05 0.000197483 9.95465e-09
6.72424e-08 9.95465e-09 0.000160231

0.000192449 -7.62262e-06 -1.32755e-07
-7.62262e-06 0.000142575 -5.83201e-08
-1.32755e-07 -5.83201e-08 0.000156474

0.000335909 3.31207e-05 -6.21468e-08
3.31207e-05 0.000298759 -1.09569e-07
-6.21468e-08 -1.09569e-07 0.000318699

0.000292049 -4.8435e-05 2.08308e-07
-4.8435e-05 0.000270948 -2.28031e-07
2.08308e-07 -2.28031e-07 0.000291533

0.000332078 4.05632e-05 -1.05158e-07
4.05632e-05 0.000293207 3.95651e-08
-1.05158e-07 3.95651e-08 0.000316682

0.000291497 -4.75267e-05 2.309e-07
-4.75267e-05 0.000283571 -1.5091e-07
2.309e-07 -1.5091e-07 0.000293253

0.000124528 1.69581e-05 -3.06522e-07
1.69581e-05 0.000126671 -1.49281e-07
-3.06522e-07 -1.49281e-07 0.000138871

0.000124304 1.76136e-05 2.6793e-07
1.76136e-05 0.000125933 6.52457e-08
2.6793e-07 6.52457e-08 0.000137362

0.000294667 3.59443e-05 1.04395e-07
3.59443e-05 0.00028106 1.43479e-07
1.04395e-07 1.43479e-07 0.000285654

0.000266411 -4.48077e-05 -9.17688e-08
-4.48077e-05 0.000257048 1.61274e-07
-9.17688e-08 1.61274e-07 0.000267334

0.000319402 -2.86585e-05 2.95503e-07
-2.86585e-05 0.000339595 -1.39944e-08
2.95503e-07 -1.39944e-08 0.000325334

0.0003049 -9.47375e-06 -1.68959e-07
-9.47375e-06 0.000350213 -1.23172e-07
-1.68959e-07 -1.23172e-07 0.000308479

0.00033926 4.10365e-05 6.14469e-08
4.10365e-05 0.000315438 8.63937e-08
6.14469e-08 8.63937e-08 0.000329099

0.000267129 -3.67464e-05 -2.03587e-08
-3.67464e-05 0.00030388 1.63136e-07
-2.03587e-08 1.63136e-07 0.000296492

0.000354732 2.2109e-05 6.15671e-08
2.2109e-05 0.000260508 -2.87122e-08
6.15671e-08 -2.87122e-08 0.00031921

0.000336649 -3.34524e-05 1.35585e-08
-3.34524e-05 0.000269747 9.37812e-08
1.35585e-08 9.37812e-08 0.000303209

0.000250827 3.81726e-05 -1.31628e-07
3.81726e-05 0.000279971 1.18477e-07
-1.31628e-07 1.18477e-07 0.000282181

0.000259955 -4.38288e-05 -1.0289e-07
-4.38288e-05 0.000307623 -1.49312e-07
-1.0289e-07 -1.49312e-07 0.000281461

0.000320371 -3.04026e-05 2.9743e-08
-3.04026e-05 0.000328394 -2.31619e-08
2.9743e-08 -2.31619e-08 0.000311916

0.000304835 -2.71492e-05 -1.9313e-07
-2.71492e-05 0.0003695 3.21063e-07
-1.9313e-07 3.21063e-07 0.000324604

0.000373672 3.0659e-05 -3.82606e-08
3.0659e-05 0.000283143 4.07628e-08
-3.82606e-08 4.07628e-08 0.000328373

0.000395358 1.02037e-05 -2.1396e-07
1.02037e-05 0.000302431 2.03354e-07
-2.1396e-07 2.03354e-07 0.000335804

0.000359514 -3.33713e-05 7.41047e-08
-3.33713e-05 0.000311762 8.16408e-08
7.41047e-08 8.16408e-08 0.000311119

0.000388701 -6.95826e-06 1.0507e-07
-6.95826e-06 0.000335653 1.10296e-07
1.0507e-07 1.10296e-07 0.000315181

0.000289928 -7.54786e-06 8.85551e-08
-7.54786e-06 0.000381493 2.3032e-08
8.85551e-08 2.3032e-08 0.000310252

0.000329423 5.66707e-05 1.29974e-07
5.66707e-05 0.000329678 2.62635e-07
1.29974e-07 2.62635e-07 0.000312762

0.000409048 3.48423e-05 1.18098e-07
3.48423e-05 0.000321398 4.14287e-07
1.18098e-07 4.14287e-07 0.000348381

0.000435391 2.33839e-05 -1.07111e-06
2.33839e-05 0.000319748 -2.34396e-07
-1.07111e-06 -2.34396e-07 0.000347916

0.000415739 -2.96047e-06 2.67568e-06
-2.96047e-06 0.000385895 1.76316e-06
2.67568e-06 1.76316e-06 0.000318105

0.000337801 -4.20212e-05 6.53965e-07
-4.20212e-05 0.000380438 -1.05872e-06
6.53965e-07 -1.05872e-06 0.000312911

0.000400405 2.52049e-05 -2.05297e-07
2.52049e-05 0.00031204 -7.59121e-08
-2.05297e-07 -7.59121e-08 0.000344095

0.000361767 2.02724e-05 4.4593e-08
2.02724e-05 0.00032245 8.95634e-08
4.4593e-08 8.95634e-08 0.00033608

0.000396659 3.29744e-05 -5.52881e-08
3.29744e-05 0.000320414 -7.70572e-07
-5.52881e-08 -7.70572e-07 0.000345181

0.000357275 -3.70898e-05 -1.44257e-08
-3.70898e-05 0.000320744 -4.55776e-08
-1.44257e-08 -4.55776e-08 0.000310755

0.000362742 -1.74552e-05 8.03432e-08
-1.74552e-05 0.000385358 3.93276e-07
8.03432e-08 3.93276e-07 0.000316107

0.000323559 -1.72288e-05 -2.6122e-07
-1.72288e-05 0.000309225 1.17849e-07
-2.6122e-07 1.17849e-07 0.000304511

0.000364061 3.34459e-05 5.89167e-08
3.34459e-05 0.000300842 2.65075e-07
5.89167e-08 2.65075e-07 0.000332155

0.00037918 1.9476e-05 1.94239e-07
1.9476e-05 0.000308077 2.22933e-07
1.94239e-07 2.22933e-07 0.000335646

0.000327961 -4.42786e-05 -2.44651e-07
-4.42786e-05 0.00031124 -8.51814e-08
-2.44651e-07 -8.51814e-08 0.000306694

0.000362407 -2.17824e-05 -8.90955e-09
-2.17824e-05 0.000321911 -1.17644e-08
-8.90955e-09 -1.17644e-08 0.000311853

SCALARS pressure float
LOOKUP_TABLE default
-1.51413
-0.0458967
0.0432468
-0.0304469
-1.26414
2.76442
2.8034
-1.42523
0.854555
-2.76263
-3.05162
-2.96073
1.67588
1.61792
-0.0145969
0.754289
2.88293
2.87331
-0.241024
-3.27465
-3.41937
-3.65274
-1.15887
-1.28764
-0.771059
-1.57047
-0.0202035
-6.15228
1.01158
-6.1895
1.89715
1.92115
6.55714
6.58534
-3.68685
0.326896
2.3704
2.58717
0.8571
-1.40715
-1.97205
0.747311
-1.22333
-1.55718
0.508663
-2.02884
-5.98057
-5.96463
1.85514
-8.11512
-7.78205
2.05974
2.07376
-0.0999263
2.63517
2.64001
-0.22055
5.32858
5.35651
1.11523
1.13079
-3.0957
5.06269
5.043
-1.38208
-6.45895
-6.38399
0.547769
0.718647
8.77343
8.76915
0.802485
0.665364
0.63861
1.19348
1.69015
-2.92352
-2.01186
3.0286
9.3421
9.24557
-3.50231
-0.130118
-0.732831
6.8836
6.86904
3.20044
0.133958
0.088738
0.648865
0.686913
-3.73194
-1.51534
1.51208
1.52444
-0.803717
-1.61099
0.370077
0.417177
-0.110419
0.570135
-2.11176
0.87778
0.576434
-1.56683
1.50659
-0.44272
-1.3529
-0.0516194
1.31201
1.29445
-3.04681
1.20833
-2.18494
-2.17097
-0.390901
2.12079
1.93522
-1.28796
-0.820159
-2.4209
-2.53617
-2.80043
-3.85516
-1.6068
9.37382
9.34037
-1.50547
-0.320636
-0.141819
-1.32781
1.51874
1.74438
0.580774
0.469037
-0.0565731
0.715234
-1.65988
0.893439
-2.01106
-3.67687
0.282485
-3.34623
-3.30073
-3.60159
-2.07081
-1.5457
-1.51674
-3.30308
-3.10096
1.0039
1.01076
-0.183957
1.50272
1.0836
-4.51685
-1.5659
1.6108
1.59103
-0.0959736
-0.0682063
-11.1354
-11.057
-1.44151
4.18812
4.18968
-0.922334
-4.45133
-1.52308
0.90536
0.813199
-1.91159
0.477749
-0.984341
0.94874
1.75407
1.84599
-0.151803
0.0129154
-1.90119
0.559403
-0.0186165
-0.625936
0.208558
-0.741264
1.22833
-5.52761
-5.52708
0.198556
-0.255897
6.92065
6.92212
-0.240514
4.86999
4.93572
-0.173853
0.908115
-4.49579
-4.19167
-5.32034
-5.32587
-5.56567
0.51269
-4.50125
-4.73064
3.535
3.53497
0.0806246
1.05888
-2.49776
-2.45622
0.0029757
-0.170058
2.82173
2.83617
0.394758
0.0509968
0.950118
-2.79268
-0.0172589
-6.46668
-0.626714
-0.730184
4.54953
4.54949
1.27416
1.28677
2.62811
2.51147
3.48936
3.47086
5.91025
5.91125
1.0775
1.09392
-0.508697
-0.82658
-0.937962
-3.8648
-0.564491
-0.8208
-0.91523
1.8925
1.91879
-0.912805
0.387694
10.0116
10.0036
0.146714
1.33857
2.17571
-5.61244
-5.60662
1.70459
1.7223
2.25304
-0.937521
-2.21016
0.641525
0.654265
10.5532
10.29
0.603429
-0.79882
1.35508
1.33818
0.324636
0.759147
-6.57883
2.127
2.14493
0.838541
-2.21608
0.45957
1.91296
1.94777
1.30578
2.35213
2.3423
6.65848
6.65475
-10.9032
-10.3804
0.347703
0.354459
0.529645
-8.49003
-8.44538
7.76315
7.76209
1.16195
-0.906521
0.74343
0.754252
-0.182718
-0.881353
-5.3288
-4.88074
-5.51616
-0.198514
-4.81109
-4.75699
1.32951
1.33052
1.52136
1.53019
-8.70685
-8.58372
-0.220716
-0.247784
5.27493
5.25569
1.39415
1.41252
3.04816
3.04952
0.959393
0.940292
5.85272
4.23124
6.17009
4.23517
6.17078
5.83064
6.25524
6.27172
6.0864
5.50182
5.49622
6.0905
4.33819
2.22961
7.19076
4.34567
7.18863
2.23723
3.47995
4.44486
3.48379
4.45412
0.298018
0.819669
0.421998
-0.806987
3.0103
2.55104
-0.665436
1.81195
-3.21478
-3.78317
-3.81093
1.52706
1.92053
-0.35801
2.49227
3.08142
0.16227
-3.05771
-3.23698
-3.60384
-1.40177
-0.941374
0.627515
-6.34142
1.78
2.1991
1.7574
4.15338
5.43037
-0.107997
-1.14962
-2.96656
2.09029
2.29369
2.48027
-0.57148
2.3103
-1.93177
-0.673569
-1.67866
-1.46914
-1.17728
1.42563
0.907534
-1.34314
-1.27834
-16.1624
-16.4163
2.49755
2.03235
0.00558093
-10.2022
-10.5013
3.23285
2.82232
0.178008
3.24719
3.56593
0.400477
3.87568
4.79804
1.89309
1.75724
3.77237
5.37727
-6.14997
-6.14301
0.793604
1.3094
7.08288
10.0421
-1.48753
1.26926
1.28108
3.17668
-2.84399
5.95328
4.02404
0.173378
-0.510695
-3.46197
4.31075
7.12643
2.56411
0.419067
0.898007
1.21735
1.1694
-3.78862
-1.24305
2.12154
2.10228
-0.283984
0.763285
0.60632
0.293725
-1.88678
1.11186
2.03536
2.48557
0.830047
-1.47892
-5.62165
1.29119
-0.0190113
-5.45347
0.052044
1.21669
1.47618
-1.40083
-3.49626
1.83493
1.16479
-1.92229
-2.15174
0.0581954
3.13355
3.32029
-1.49012
-0.351844
-2.83995
-3.11698
-3.40409
-1.27146
9.48804
3.09359
-1.64867
-1.32979
-4.83854
1.13549
-0.000539288
0.137835
-0.884842
2.82547
1.8727
-3.61555
-4.04237
-4.84427
0.8235
2.8848
1.078
2.56963
0.974319
0.909089
-2.68888
-3.00386
-3.04852
-1.43656
-1.18099
-0.638217
-3.8893
-3.58264
0.915894
0.958662
1.2731
0.129495
2.78225
1.72343
1.27803
-1.06288
2.22572
2.62037
-0.256506
0.750996
0.23919
-8.16732
-1.9383
-8.76806
-1.4015
4.98317
5.3153
-0.702725
-1.13534
-1.67135
1.0588
1.09085
1.98655
1.72012
1.01946
3.21451
0.393287
-0.505701
1.03595
0.731634
-2.0296
0.111057
-0.456587
-8.64339
-8.56867
-3.68245
0.221165
7.45549
7.95899
3.19505
5.01002
1.01982
1.06233
3.0085
-6.80109
-6.40963
-5.38403
-5.48007
-5.58504
-3.04169
-6.43476
-6.29412
2.42786
3.77516
0.897704
3.26683
-2.61449
-2.37565
0.774982
3.75128
3.71286
0.771936
0.846172
0.239164
1.55645
1.04483
0.197026
-16.8973
-0.523682
-0.554819
2.77581
4.72501
1.79473
1.74877
2.10935
2.60152
2.13167
2.85032
7.34311
5.49994
1.74999
3.41944
-0.113762
0.130859
-0.125292
-0.540062
0.0671897
-0.616698
-0.629509
2.79564
1.85981
0.916481
3.6003
10.3002
1.33927
2.6265
-8.15265
-7.83093
2.199
1.99981
1.69888
0.0422032
-2.05505
1.97734
1.11839
3.71028
9.27102
-0.149238
1.84584
1.8114
0.58795
1.3165
2.44148
0.920176
-17.4541
2.42432
2.1613
1.67187
0.997493
-1.68087
0.935732
1.75493
1.85928
1.69133
2.56683
2.80448
6.81814
4.66813
-9.28634
-8.84755
0.766342
2.02627
-11.2783
-10.9445
9.861
8.92754
1.03542
1.34434
1.80826
-0.562798
-0.218811
-5.22884
-5.30921
-5.58605
0.217321
0.860868
-6.847
-6.92251
2.81697
2.00014
2.4497
2.25727
-11.4624
-11.4623
0.123756
0.869679
3.74982
5.5627
2.85129
2.07849
4.20746
4.01746
1.76349
1.02482
5.61187
7.82389
5.85724
8.13112
4.43532
4.14509
6.20058
6.10241
8.34115
7.40669
2.76777
5.64378
5.9053
3.12461
9.07903
4.91727
5.96224
3.34608
3.78501
5.77256
4.71017
5.65514
-1.11386
0.46776
1.02372
0.269819
-0.752544
2.88105
3.0426
-0.987766
1.76512
-3.26398
-3.6463
-3.65584
2.28834
1.71228
0.490454
1.60985
2.95312
3.01629
0.178923
-3.13771
-3.12258
-3.60469
-0.64247
-1.37164
-0.257619
-1.18024
0.55838
-6.52831
1.34974
-6.71173
2.28318
2.26898
4.13909
4.14046
-3.33869
0.906895
2.10231
1.97224
2.16517
-1.11013
-1.47304
2.09694
-0.653129
-1.09972
0.865839
-1.96374
-16.2243
-16.7444
2.77461
-10.9479
-10.0337
2.97075
2.98114
0.137493
3.74477
3.72086
0.0453166
3.83095
3.86488
1.87808
1.88678
-3.8597
4.75497
5.10852
-1.11227
-6.14663
-6.20861
0.913894
1.43843
10.7797
10.4622
2.59774
1.38752
1.36091
1.92657
2.07363
-3.01577
-1.29895
-1.96355
2.4817
4.04172
4.01474
-3.4936
0.00902745
-0.516886
5.31923
6.9342
2.49018
1.00133
0.68323
1.20917
1.2424
-3.96889
2.22355
2.20488
-0.52924
-1.15864
0.56347
0.591406
0.149703
1.20152
-1.61903
2.55586
0.999343
-1.47596
1.20727
-0.17198
-1.39614
-0.00856861
1.46576
1.44403
-3.552
1.96463
-1.99393
-2.05359
0.196683
2.99784
2.77669
-0.979514
-0.355416
-2.88785
-2.93535
-3.44456
-4.02278
-1.39251
7.63366
6.22209
-1.3897
0.185243
0.081846
-0.949403
3.24185
1.82285
1.21498
1.02855
1.21979
1.07407
-1.5925
2.59671
-1.87664
-3.74755
0.939445
-2.84413
-2.83133
-3.16357
-1.85447
-0.83749
-0.837185
-3.62383
-3.71842
0.86317
0.863954
0.258528
3.38904
1.07994
-4.82297
-1.36169
2.31518
2.29809
-0.636256
0.278135
0.281948
-8.84877
-8.27664
-1.26309
5.5104
5.4669
-4.91469
1.36102
1.04036
-1.8357
1.02315
3.15419
1.90521
2.44004
0.296824
0.910715
-0.624342
-1.78014
-1.22633
1.0751
0.579047
-0.36084
0.838266
-0.516917
1.49051
-8.6126
-8.7482
0.219011
0.855269
8.32804
8.16911
0.249717
3.16925
3.15251
0.853965
3.24216
-6.88241
-6.49175
-5.59087
-5.49477
-5.62617
1.03672
-6.31765
-6.81449
3.49323
3.36682
0.736019
2.99931
-2.61504
-2.59941
0.655778
0.0667321
3.85502
3.85296
0.826565
0.960021
1.37395
-3.18248
1.18364
-16.9581
-0.378455
-0.531581
4.08618
4.06089
1.78259
1.78796
2.09667
2.09964
2.13539
2.13077
7.76583
7.64114
1.87128
1.88098
-0.0173541
0.0981629
-0.452809
-0.345874
-3.92498
-0.0449591
-0.0316727
2.87625
2.88605
0.953358
5.5864
9.50451
0.516688
1.05636
1.75681
-0.504652
-8.30407
-7.96946
2.03147
2.06496
1.70687
-0.381128
-2.04666
1.23962
1.23476
3.6957
3.70243
0.988453
-0.120321
1.9457
1.94753
1.68204
2.58791
-17.3856
2.42774
2.40845
1.9081
-1.9937
0.894871
1.79619
1.74595
1.59652
2.92426
2.9073
6.22821
5.8956
-8.92984
-9.14766
0.946726
0.937195
0.983796
-10.9147
-11.2029
8.97129
9.11489
1.122
-0.520054
1.44891
1.45052
0.37234
-0.534747
-5.25598
-5.51698
-5.54102
0.353736
-6.91536
-6.76455
2.15128
2.13515
2.41541
2.4302
-11.5007
-11.5817
0.209275
0.197378
4.68413
5.29502
2.22159
2.27338
4.13704
4.12651
1.74621
1.73538
5.7401
8.00673
5.73499
8.07419
5.99545
4.14192
4.13832
5.21935
8.78894
8.35166
8.722
8.04933
6.15244
3.31397
9.71126
6.15843
3.34262
9.50725
4.94632
5.87878
4.91613
5.84801
-1.48425
0.838962
0.318077
0.352619
-0.717391
2.54872
3.00902
-0.734524
2.2976
-3.55086
-3.50588
-3.73402
1.87993
1.52218
0.0284225
0.058298
0.943569
3.09336
2.49475
0.201133
-3.28364
-2.93623
-3.4947
-1.03989
-1.18268
0.690389
-6.47769
1.49531
1.75915
2.21409
5.40906
4.1481
0.0287997
-0.704236
-2.89811
2.43922
1.96128
2.21231
2.20298
-1.81615
-1.68762
-1.50437
1.43679
-1.0671
-0.632655
-16.5167
-16.0853
2.5136
0.40414
-10.0016
-10.6128
2.81308
3.22973
0.179475
3.59203
3.24485
4.76203
3.90518
1.75492
1.89437
3.7692
5.31546
-1.17951
-6.03868
-6.09755
1.32138
0.887328
10.3438
7.05363
-1.68634
0.974932
1.28491
1.2616
1.34859
1.93123
2.57415
-2.89851
4.03368
5.9417
0.0609257
-0.245982
-3.56154
7.13847
4.3106
3.26063
0.894147
0.406048
1.24128
1.15891
-3.95816
-1.12753
2.13659
2.09033
-0.556277
-1.25785
0.573647
0.791733
0.432951
-1.65577
2.03299
0.983061
2.4839
-1.45642
-5.55458
1.57883
-0.118314
-5.37339
0.0363207
1.48696
1.2068
-1.52869
-3.57046
1.61276
-2.08302
-2.04094
-0.0124704
3.47662
2.9027
-1.35788
-1.06508
-3.01113
-2.98439
-3.42583
-1.4682
9.59342
3.09323
-1.60257
-1.37
-4.90822
1.11552
0.128175
1.94085
2.82735
-3.44531
-3.82438
1.13741
-4.8676
2.8894
0.0984928
1.082
2.56991
-0.431858
-3.00014
-2.69372
-3.18649
-1.95892
-0.591853
-1.23116
-3.82317
-3.69616
0.956003
0.919255
1.2485
2.78251
1.14631
2.63097
2.21217
0.237668
0.749763
-8.27146
-1.691
-8.79693
0.458868
-1.39941
-0.96023
5.35932
4.97474
-0.289109
-1.26725
-1.52506
1.0451
1.05566
0.812906
-0.666827
1.11234
1.72069
2.06277
0.189106
0.144636
3.21437
-0.393555
-0.501564
1.03969
-1.56227
0.399546
1.5932
-8.58748
-8.5302
-3.52591
0.737758
0.187225
7.43154
8.10854
0.142249
4.98634
3.17496
0.930629
3.00783
-6.60033
-6.63198
-5.49879
-5.36428
-5.66343
-3.29007
0.964582
-6.56983
-6.30174
2.42868
3.8007
0.766572
3.33074
-2.31504
-2.63854
0.943838
0.0446921
3.71392
3.75547
0.882366
1.0728
1.39817
0.91573
-17.1249
-0.574937
-0.574079
2.774
4.7216
1.72945
1.80317
2.74065
2.11985
2.88426
2.1516
7.46222
5.4895
1.74221
3.42027
0.0623955
0.142044
-0.591968
-0.127584
-0.597035
-0.0196325
-0.171396
1.97449
2.77101
-0.56889
1.09759
3.60131
10.2157
0.486993
1.10216
1.74409
-8.20238
-7.89365
1.9755
2.23805
2.62951
-1.74626
1.12564
1.97459
9.19332
3.68914
0.934217
-0.0921994
1.81888
1.84708
1.30628
2.43078
-17.2456
2.26933
2.35096
1.68453
-1.97237
0.792442
1.7355
1.79192
1.8011
2.56936
2.82201
4.66864
6.81543
-9.14216
-8.86069
0.765672
2.02238
0.774933
-11.276
-10.8754
9.81744
9.0698
1.17175
-0.570494
1.34714
1.80564
0.266857
-0.193155
-4.96526
-5.49339
-5.58914
0.852222
-6.72299
-6.92007
2.01806
2.81474
2.24829
2.44985
-11.5019
-11.5559
0.863242
0.126475
3.74894
5.54471
2.03104
2.85322
4.02949
4.20054
1.24403
1.59329
6.15054
6.13791
4.15619
4.43698
5.85047
8.1065
5.61033
7.88935
8.40659
5.64103
2.7644
7.68812
5.89809
3.0975
4.91565
3.33988
5.94918
9.27539
4.73998
5.68366
3.78555
5.76221
0.851525
-0.147057
-0.107165
-1.39293
2.55893
2.08453
-1.3139
0.868734
-3.79155
-3.97538
-3.67031
1.09316
1.57031
-0.806255
2.07123
2.61596
0.346625
-3.59358
-3.09737
-3.48549
-1.51434
-1.10852
-1.88828
0.0234133
-6.75019
0.979288
-6.66891
1.80039
1.46117
6.28144
6.29105
-3.74774
-0.209575
2.19699
3.06148
0.911649
-0.576432
-1.34024
-1.7971
0.865582
-1.7194
-0.679215
-1.68677
-1.06009
0.191861
1.2883
-2.0435
-16.6563
-16.759
1.26905
2.72356
-10.4791
-10.4573
2.15999
1.77599
1.25974
2.5872
2.52974
0.310773
-0.374994
5.18705
5.4868
1.61787
1.2472
-4.13583
3.78614
3.91369
-6.47368
-6.67908
1.33709
0.458079
3.10496
5.94735
1.10577
0.984238
-3.53929
-0.929717
-2.19773
2.90409
9.15545
8.93319
-3.98472
0.145076
0.121353
5.41215
4.35754
3.14033
-0.0870122
0.941578
1.88919
1.94394
-4.20045
2.03402
2.27559
0.01844
1.38719
1.59384
0.0183094
1.85024
0.392958
-2.35536
0.878951
2.50948
-1.34567
1.62121
-0.660229
-1.72317
-0.208425
0.799139
1.23375
-3.78807
2.25979
0.874752
-2.62313
-2.05892
0.014121
2.22867
1.88937
-0.374296
-3.41805
-3.06986
-3.31586
-3.78813
-1.78672
7.60818
3.07724
-1.35786
1.16089
-0.192537
0.979041
-1.84529
-1.01356
2.8328
1.1401
2.66415
0.759231
3.52337
-1.63058
0.540092
3.10226
-1.42706
-3.95037
1.06764
-3.50577
-2.81493
-3.23113
-2.05313
-0.628686
-1.62527
-4.26699
-3.6619
2.6475
2.94061
1.04161
-0.18956
1.06673
2.9963
1.15993
-5.27742
-1.76654
-1.02639
1.93039
1.70556
-0.671068
0.672715
0.376135
-8.72248
-8.70288
3.26785
3.7104
-0.30731
-5.2588
0.460002
1.20181
-1.86418
1.79963
1.6852
-2.27503
-0.704422
3.10101
0.285327
-0.385368
0.54755
0.866187
0.218814
-0.546394
-1.11871
-9.1236
-9.14887
0.46215
3.71146
5.34289
3.95348
4.633
-0.166791
0.667451
3.43608
-6.98734
-6.98197
-5.86375
-5.53855
-5.855
-6.95619
-6.90972
2.51006
2.53388
0.104813
1.05866
-2.96701
-2.40207
0.0777311
2.68302
2.74537
0.30111
1.2516
-0.263467
0.918729
-3.68714
1.17166
-0.21202
-17.6148
-0.445645
-0.914064
2.83135
3.46287
3.17842
3.68446
2.2711
2.59422
3.24715
3.73732
3.74228
4.46431
2.99973
0.612708
-0.0179403
-0.977226
0.120832
-0.814049
-4.19428
-0.451927
-0.177515
3.58578
1.70388
0.789777
3.59441
7.14359
1.21292
2.08796
-8.988
-8.64935
2.40232
2.87484
2.13775
-1.03981
0.0207866
-1.55188
1.4217
0.721012
9.70073
6.49129
-0.866355
1.6441
1.85328
1.35474
0.00944601
0.314378
2.67625
-18.9086
1.83498
3.09838
2.01031
0.492128
-1.83005
1.16753
1.84975
2.72996
1.46154
1.80447
2.68816
4.71702
5.09519
-9.47263
-9.69439
1.72664
0.519982
-12.042
-11.8678
4.49753
3.2434
1.58536
1.52607
0.6451
-0.443519
-1.09822
-6.00333
-5.18978
-5.90169
0.804047
-0.159778
-7.07216
-7.24998
2.11848
1.02263
2.12511
1.47379
-12.1163
-12.2517
0.621942
-0.110219
3.94508
3.7932
2.46839
1.15868
3.12826
3.16386
0.58974
2.08099
4.32509
6.01378
5.20129
4.51503
3.87396
4.02805
4.29471
4.76931
4.6962
2.4334
5.35932
4.01342
3.96014
2.12822
3.96443
3.25177
5.05214
1.71486
3.18392
3.47849
2.90052
3.5449
0.684601
0.0467365
0.21864
1.32564
0.975578
0.38235
1.02497
1.06163
1.28339
0.567225
0.524667
0.10087
0.373328
-0.170552
0.886967
0.939061
1.08258
0.388447
-0.0655442
0.470797
0.469903
0.103879
0.772618
1.09238
0.95505
0.120332
1.15181
0.465079
1.7401
0.222832
0.274447
0.470537
4.22786
4.22877
0.736066
1.12456
2.20944
2.32801
1.00031
0.0258796
0.83321
1.10835
0.737814
0.692069
-0.07649
0.84902
0.573992
0.430483
1.11923
0.33803
0.502884
0.00399894
0.00318788
-0.116299
-0.00503495
-0.0050772
0.0257357
3.9536
3.98009
-0.0736677
-0.0755643
0.789929
2.09206
0.423359
0.030022
0.476302
0.542328
-0.0146963
0.779517
0.371009
0.374033
0.438478
-0.0875485
-0.091091
1.4315
-0.253484
0.822263
1.03455
2.58907
5.95739
5.96868
0.627664
1.25629
-0.0532118
0.798746
2.13799
2.69124
0.286114
0.139189
-0.129937
-0.128426
0.14677
-0.0155045
-0.101701
-0.10272
-0.0457549
0.122861
-0.0907705
-0.094552
1.38492
-0.212915
0.776177
0.768735
-0.305939
0.020746
1.91037
1.28948
0.932869
1.29824
0.658892
0.503215
0.117588
1.44309
0.117008
0.131813
1.10494
2.03653
1.98211
0.523731
1.00695
0.37615
0.364616
0.0899517
0.172484
0.0391568
0.56417
1.3465
0.00793865
-0.138862
-0.104674
0.505761
-0.448411
1.22864
-0.212963
-0.247216
0.581273
-0.218684
0.0524324
0.784477
-0.00366233
0.716757
1.08197
0.273577
0.276951
0.0868318
0.00833257
0.222166
0.201118
0.170276
0.156601
-0.207015
-0.209012
-0.156411
1.03919
1.72595
0.62765
0.18013
-0.0494834
-0.0512241
-0.0507158
-0.0498828
0.372415
0.190668
0.17091
0.117427
0.118661
-0.0448632
0.764805
-0.0154767
0.757073
0.138921
0.834089
-0.248445
-0.0403023
1.22196
-0.296467
0.519695
-0.138962
1.04364
0.894033
-0.441348
0.824546
0.581511
-0.0761212
0.25497
-0.537442
0.593743
0.650803
-0.0769568
-0.071174
0.340644
0.342874
-0.125181
3.61367
3.64829
1.00858
1.19862
0.223897
0.648195
0.307339
0.324425
0.172348
-0.453333
0.47679
0.201655
1.05774
0.0611207
1.11937
1.5488
0.180227
0.177683
1.33872
0.0124283
0.105441
0.105282
1.29956
1.06747
1.46509
0.81997
0.644733
0.652054
0.559929
0.30777
0.604881
0.819947
-0.162104
-0.157443
2.26029
2.3239
2.73147
2.77471
0.250831
0.252906
-0.269762
-0.273331
-0.0303944
0.369563
0.0730844
0.710021
-0.0361853
0.378468
0.0159514
1.84449
1.86308
0.0216288
1.25823
2.66542
0.0811507
-0.146396
1.83602
1.86218
0.302959
0.24358
-0.16067
-0.16235
1.89848
0.103743
0.0195892
-0.0541685
-0.0560233
6.86766
6.89125
-0.197657
0.991251
-0.0280759
-0.0289152
0.283146
0.38917
0.453352
1.6934
1.72339
1.09927
0.0294503
1.33957
2.0316
2.0514
1.69869
-0.034832
-0.0344394
1.18345
1.46357
0.353914
0.40187
-0.136829
-0.142039
-0.291553
0.346005
0.303326
0.4269
0.424767
1.76974
-0.0269876
-0.132268
-0.133982
-0.0755263
-0.0219354
0.322147
0.300273
0.145521
-0.0772068
0.454537
0.641728
-0.104487
-0.105919
-0.102455
-0.104129
0.491902
0.440241
-0.0752491
-0.0700088
1.62614
0.752759
-0.206643
-0.212487
-0.00227721
-0.00254088
1.20243
1.20133
2.37696
4.6745
0.208963
0.307959
0.207357
0.306142
0.546397
4.673
0.362125
0.390162
0.388275
0.359985
0.22399
0.0293248
0.361246
0.222588
0.358817
0.0285794
0.027103
0.262089
0.0274324
0.262843
-1.06254
-0.144658
0.872122
-0.0205306
-1.22115
2.07472
2.6218
-1.49651
0.849614
-3.36543
-4.38957
-3.8676
1.07638
1.59096
0.468662
1.50899
2.591
2.06106
0.440813
-3.09104
-3.57652
-3.59708
-0.642272
-1.66059
-0.254909
-1.86127
-0.048332
-6.5511
1.00868
-6.88058
1.45362
1.80084
6.31002
6.29182
-3.92694
1.04332
2.85299
2.42649
0.947532
-1.34475
-2.19956
0.773692
-1.64251
-1.75036
0.203992
-2.50857
-16.741
-17.2971
1.25116
-10.9083
-10.4854
1.7617
2.15626
1.16827
2.49227
2.5993
-0.374583
5.21758
5.45533
1.23584
1.61913
-4.30244
3.90806
3.81716
-0.507972
-6.70692
-6.78748
0.451274
1.40964
5.8973
3.10873
2.61296
0.952159
1.1134
2.21346
2.54279
-3.44359
-0.884938
-2.09131
3.00383
9.21361
9.01716
-3.67664
-0.409363
0.0109135
4.35614
5.40381
3.06474
-0.104824
0.919735
1.90875
1.94114
-3.82282
2.2755
2.00981
0.128433
-1.04784
1.49898
1.47505
-0.236915
0.411128
-1.83992
3.05156
0.87635
-1.45391
1.35861
-0.251389
-1.32136
0.162509
1.25654
0.780678
-3.5985
1.01524
-2.05627
-2.53956
-0.462879
2.06507
2.00506
-1.02349
-0.938378
-2.94056
-3.55324
-3.32644
-4.10612
-1.41327
3.07628
7.58903
-1.22819
-0.184728
1.06907
-1.91548
2.94879
1.14487
1.84264
0.760797
1.27009
3.52493
-1.96493
0.525774
-2.02653
-4.29398
0.0361814
-2.82282
-3.47931
-3.07505
-1.51629
-0.640574
-1.61994
-3.834
-4.14933
2.8814
2.70174
-0.181705
1.04353
1.53061
-5.15828
-1.75187
1.6795
1.95242
0.378955
0.676786
-8.41892
-8.72842
-0.883367
3.68844
3.2672
-0.646159
-5.2185
0.44399
1.10294
-2.28349
2.69268
-0.320429
3.31347
1.68373
1.79394
1.08412
1.18788
-2.04745
-0.757563
0.313433
-0.438616
-0.431043
0.229811
-1.12158
2.94091
-9.31349
-9.31584
0.362784
0.85548
5.33779
3.7173
1.15975
4.68544
3.92528
0.00418617
0.653124
-7.37365
-6.6525
-5.52296
-5.87088
-5.71206
3.23888
-6.59717
-7.00577
2.48348
2.52702
0.512243
1.11548
-2.34235
-2.95523
0.0299003
0.429616
2.71969
2.68971
1.03004
-0.203523
1.11319
-3.24904
-0.260213
-17.5006
-0.918371
-0.606211
2.85041
3.45377
3.68645
3.18648
2.58165
2.4347
3.72834
3.24639
4.38829
3.74693
0.648025
3.01421
-0.391779
-1.05528
0.206229
-4.57233
-0.0749692
-0.0373752
-0.8218
3.58065
1.70685
-0.157187
0.303701
7.13127
3.59433
1.36867
1.45927
2.11741
-8.56597
-8.31602
2.78346
2.4967
2.15662
-1.01958
-1.82512
0.718608
1.43141
9.9611
6.51893
1.78039
-0.372832
1.82062
1.66511
-0.0265687
0.312567
-18.3046
3.06225
1.86922
0.468879
-1.57206
0.286362
2.6844
1.75347
1.26953
2.69718
1.78678
5.0901
4.71071
-9.77221
-9.68659
0.525968
1.75316
2.48247
-11.6353
-11.6378
3.24978
4.50763
1.01624
-0.460489
0.645533
1.52437
0.830917
-1.06122
-5.43075
-5.78631
-5.77282
-0.151932
-7.40518
-7.2455
1.00948
2.13054
1.46179
2.12943
-12.2149
-12.179
-0.0981931
0.605619
3.9345
3.79941
1.1815
2.42288
3.14257
3.13467
2.04879
0.673443
5.98503
4.32156
4.29248
4.75154
3.87243
4.03451
4.48996
5.1965
3.83563
5.29965
2.43161
4.70744
3.13528
1.67538
4.94461
3.97478
3.96779
2.14445
2.83042
3.50978
3.19063
3.48807
