# vtk DataFile Version 3.0
vtk output at time 0.6
ASCII
DATASET UNSTRUCTURED_GRID
POINTS 2586 float
-1.84029e-05 0.000489375 0 1.84029e-05 0.000489375 0 -0.000414597 0.000260625 0 
-0.00041175 0.00025 0 -0.000433 0.00022875 0 -0.000433 -0.00022875 0 
-0.00041175 -0.00025 0 -0.000414597 -0.000260625 0 -1.84029e-05 -0.000489375 0 
1.84029e-05 -0.000489375 0 0.000414597 -0.000260625 0 0.000433 -0.00022875 0 
0.000433 0.00022875 0 0.000414597 0.000260625 0 4.25e-05 0 0 
2.125e-05 0.0005 0 5.90898e-17 0.00052125 0 5.90919e-17 0.00097875 0 
2.125e-05 0.001 0 1.84029e-05 0.00101063 0 0.000414597 0.00123937 0 
0.000451403 0.00123937 0 0.000847597 0.00101063 0 0.000866 0.00097875 0 
0.000866 0.00052125 0 0.000847597 0.000489375 0 0.000451403 0.000260625 0 
0.0004755 0.00075 0 0.00045425 0.00025 0 0.000884403 0.000489375 0 
0.0012806 0.000260625 0 0.001299 0.00022875 0 0.001299 -0.00022875 0 
0.0012806 -0.000260625 0 0.000884403 -0.000489375 0 0.000847597 -0.000489375 0 
0.000451403 -0.000260625 0 0.00045425 -0.00025 0 0.0009085 0 0 
0.000866 -0.00052125 0 0.000866 -0.00097875 0 0.000847597 -0.00101063 0 
0.000451403 -0.00123937 0 0.000414597 -0.00123937 0 1.84029e-05 -0.00101063 0 
2.125e-05 -0.001 0 5.90898e-17 -0.00097875 0 5.90919e-17 -0.00052125 0 
2.125e-05 -0.0005 0 0.0004755 -0.00075 0 -1.84029e-05 -0.00101063 0 
-0.000414597 -0.00123937 0 -0.000451403 -0.00123937 0 -0.000847597 -0.00101063 0 
-0.00084475 -0.001 0 -0.000866 -0.00097875 0 -0.000866 -0.00052125 0 
-0.00084475 -0.0005 0 -0.000847597 -0.000489375 0 -0.000451403 -0.000260625 0 
-0.0003905 -0.00075 0 -0.000884403 -0.000489375 0 -0.0012806 -0.000260625 0 
-0.00127775 -0.00025 0 -0.001299 -0.00022875 0 -0.001299 0.00022875 0 
-0.00127775 0.00025 0 -0.0012806 0.000260625 0 -0.000884403 0.000489375 0 
-0.000847597 0.000489375 0 -0.000451403 0.000260625 0 -0.0008235 0 0 
-0.00084475 0.0005 0 -0.000866 0.00052125 0 -0.000866 0.00097875 0 
-0.00084475 0.001 0 -0.000847597 0.00101063 0 -0.000451403 0.00123937 0 
-0.000414597 0.00123937 0 -1.84029e-05 0.00101063 0 -0.0003905 0.00075 0 
-1.84029e-05 0.000489375 -0.0005 1.84029e-05 0.000489375 -0.0005 -0.000414597 0.000260625 -0.0005 
-0.00041175 0.00025 -0.0005 -0.000433 0.00022875 -0.0005 -0.000433 -0.00022875 -0.0005 
-0.00041175 -0.00025 -0.0005 -0.000414597 -0.000260625 -0.0005 -1.84029e-05 -0.000489375 -0.0005 
1.84029e-05 -0.000489375 -0.0005 0.000414597 -0.000260625 -0.0005 0.000433 -0.00022875 -0.0005 
0.000433 0.00022875 -0.0005 0.000414597 0.000260625 -0.0005 4.25e-05 0 -0.0005 
2.125e-05 0.0005 -0.0005 5.90898e-17 0.00052125 -0.0005 5.90919e-17 0.00097875 -0.0005 
2.125e-05 0.001 -0.0005 1.84029e-05 0.00101063 -0.0005 0.000414597 0.00123937 -0.0005 
0.000451403 0.00123937 -0.0005 0.000847597 0.00101063 -0.0005 0.000866 0.00097875 -0.0005 
0.000866 0.00052125 -0.0005 0.000847597 0.000489375 -0.0005 0.000451403 0.000260625 -0.0005 
0.0004755 0.00075 -0.0005 0.00045425 0.00025 -0.0005 0.000884403 0.000489375 -0.0005 
0.0012806 0.000260625 -0.0005 0.001299 0.00022875 -0.0005 0.001299 -0.00022875 -0.0005 
0.0012806 -0.000260625 -0.0005 0.000884403 -0.000489375 -0.0005 0.000847597 -0.000489375 -0.0005 
0.000451403 -0.000260625 -0.0005 0.00045425 -0.00025 -0.0005 0.0009085 0 -0.0005 
0.000866 -0.00052125 -0.0005 0.000866 -0.00097875 -0.0005 0.000847597 -0.00101063 -0.0005 
0.000451403 -0.00123937 -0.0005 0.000414597 -0.00123937 -0.0005 1.84029e-05 -0.00101063 -0.0005 
2.125e-05 -0.001 -0.0005 5.90898e-17 -0.00097875 -0.0005 5.90919e-17 -0.00052125 -0.0005 
2.125e-05 -0.0005 -0.0005 0.0004755 -0.00075 -0.0005 -1.84029e-05 -0.00101063 -0.0005 
-0.000414597 -0.00123937 -0.0005 -0.000451403 -0.00123937 -0.0005 -0.000847597 -0.00101063 -0.0005 
-0.00084475 -0.001 -0.0005 -0.000866 -0.00097875 -0.0005 -0.000866 -0.00052125 -0.0005 
-0.00084475 -0.0005 -0.0005 -0.000847597 -0.000489375 -0.0005 -0.000451403 -0.000260625 -0.0005 
-0.0003905 -0.00075 -0.0005 -0.000884403 -0.000489375 -0.0005 -0.0012806 -0.000260625 -0.0005 
-0.00127775 -0.00025 -0.0005 -0.001299 -0.00022875 -0.0005 -0.001299 0.00022875 -0.0005 
-0.00127775 0.00025 -0.0005 -0.0012806 0.000260625 -0.0005 -0.000884403 0.000489375 -0.0005 
-0.000847597 0.000489375 -0.0005 -0.000451403 0.000260625 -0.0005 -0.0008235 0 -0.0005 
-0.00084475 0.0005 -0.0005 -0.000866 0.00052125 -0.0005 -0.000866 0.00097875 -0.0005 
-0.00084475 0.001 -0.0005 -0.000847597 0.00101063 -0.0005 -0.000451403 0.00123937 -0.0005 
-0.000414597 0.00123937 -0.0005 -1.84029e-05 0.00101063 -0.0005 -0.0003905 0.00075 -0.0005 
-9.82724e-20 0.00047875 0 -0.000335358 0.000306375 0 -0.000256119 0.000352125 0 
-0.000176881 0.000397875 0 -9.76417e-05 0.000443625 0 -0.000412474 0.0002555 0 
-0.000417974 0.000234974 0 -0.000433 -0.00013725 0 -0.000433 -4.575e-05 0 
-0.000433 4.575e-05 0 -0.000433 0.00013725 0 -0.000417974 -0.000234974 0 
-0.000412474 -0.0002555 0 -9.76417e-05 -0.000443625 0 -0.000176881 -0.000397875 0 
-0.000256119 -0.000352125 0 -0.000335358 -0.000306375 0 -1.07223e-19 -0.00047875 0 
0.000335358 -0.000306375 0 0.000256119 -0.000352125 0 0.000176881 -0.000397875 0 
9.76417e-05 -0.000443625 0 0.000414597 -0.000239375 0 0.000433 0.00013725 0 
0.000433 4.575e-05 0 0.000433 -4.575e-05 0 0.000433 -0.00013725 0 
0.000414597 0.000239375 0 9.76417e-05 0.000443625 0 0.000176881 0.000397875 0 
0.000256119 0.000352125 0 0.000335358 0.000306375 0 -1.29514e-19 4.25e-05 0 
-4.25e-05 -3.53397e-19 0 4.07417e-19 -4.25e-05 0 2.05259e-05 0.0004945 0 
1.5026e-05 0.000515026 0 0 0.00061275 0 0 0.00070425 0 
0 0.00079575 0 0 0.00088725 0 1.5026e-05 0.000984974 0 
2.05259e-05 0.0010055 0 9.76417e-05 0.00105638 0 0.000176881 0.00110213 0 
0.000256119 0.00114787 0 0.000335358 0.00119362 0 0.000433 0.00122875 0 
0.000530642 0.00119362 0 0.000609881 0.00114787 0 0.000689119 0.00110213 0 
0.000768358 0.00105638 0 0.000847597 0.000989375 0 0.000866 0.00088725 0 
0.000866 0.00079575 0 0.000866 0.00070425 0 0.000866 0.00061275 0 
0.000847597 0.000510625 0 0.000530642 0.000306375 0 0.000609881 0.000352125 0 
0.000689119 0.000397875 0 0.000768358 0.000443625 0 0.000433 0.00027125 0 
0.000433 0.0007925 0 0.0003905 0.00075 0 0.000433 0.0007075 0 
0.000448026 0.000234974 0 0.000453526 0.0002555 0 0.000866 0.00047875 0 
0.000963642 0.000443625 0 0.00104288 0.000397875 0 0.00112212 0.000352125 0 
0.00120136 0.000306375 0 0.0012806 0.000239375 0 0.001299 0.00013725 0 
0.001299 4.575e-05 0 0.001299 -4.575e-05 0 0.001299 -0.00013725 0 
0.0012806 -0.000239375 0 0.00120136 -0.000306375 0 0.00112212 -0.000352125 0 
0.00104288 -0.000397875 0 0.000963642 -0.000443625 0 0.000866 -0.00047875 0 
0.000530642 -0.000306375 0 0.000609881 -0.000352125 0 0.000689119 -0.000397875 0 
0.000768358 -0.000443625 0 0.000453526 -0.0002555 0 0.000448026 -0.000234974 0 
0.000866 4.25e-05 0 0.0008235 -3.53397e-19 0 0.000866 -4.25e-05 0 
0.000433 -0.00027125 0 0.000847597 -0.000510625 0 0.000866 -0.00061275 0 
0.000866 -0.00070425 0 0.000866 -0.00079575 0 0.000866 -0.00088725 0 
0.000847597 -0.000989375 0 0.000768358 -0.00105638 0 0.000689119 -0.00110213 0 
0.000609881 -0.00114787 0 0.000530642 -0.00119362 0 0.000433 -0.00122875 0 
0.000335358 -0.00119362 0 0.000256119 -0.00114787 0 0.000176881 -0.00110213 0 
9.76417e-05 -0.00105638 0 2.05259e-05 -0.0010055 0 1.5026e-05 -0.000984974 0 
0 -0.00061275 0 0 -0.00070425 0 0 -0.00079575 0 
0 -0.00088725 0 1.5026e-05 -0.000515026 0 2.05259e-05 -0.0004945 0 
0.000433 -0.0007075 0 0.0003905 -0.00075 0 0.000433 -0.0007925 0 
-1.84031e-05 -0.000510625 0 -1.84031e-05 -0.000989375 0 -9.76417e-05 -0.00105638 0 
-0.000176881 -0.00110213 0 -0.000256119 -0.00114787 0 -0.000335358 -0.00119362 0 
-0.000433 -0.00122875 0 -0.000530642 -0.00119362 0 -0.000609881 -0.00114787 0 
-0.000689119 -0.00110213 0 -0.000768358 -0.00105638 0 -0.000845474 -0.0010055 0 
-0.000850974 -0.000984974 0 -0.000866 -0.00088725 0 -0.000866 -0.00079575 0 
-0.000866 -0.00070425 0 -0.000866 -0.00061275 0 -0.000850974 -0.000515026 0 
-0.000845474 -0.0004945 0 -0.000530642 -0.000306375 0 -0.000609881 -0.000352125 0 
-0.000689119 -0.000397875 0 -0.000768358 -0.000443625 0 -0.000433 -0.00027125 0 
-0.000433 -0.0007075 0 -0.0004755 -0.00075 0 -0.000433 -0.0007925 0 
-0.000451403 -0.000239375 0 -0.000866 -0.00047875 0 -0.000963642 -0.000443625 0 
-0.00104288 -0.000397875 0 -0.00112212 -0.000352125 0 -0.00120136 -0.000306375 0 
-0.00127847 -0.0002555 0 -0.00128397 -0.000234974 0 -0.001299 -0.00013725 0 
-0.001299 -4.575e-05 0 -0.001299 4.575e-05 0 -0.001299 0.00013725 0 
-0.00128397 0.000234974 0 -0.00127847 0.0002555 0 -0.00120136 0.000306375 0 
-0.00112212 0.000352125 0 -0.00104288 0.000397875 0 -0.000963642 0.000443625 0 
-0.000866 0.00047875 0 -0.000530642 0.000306375 0 -0.000609881 0.000352125 0 
-0.000689119 0.000397875 0 -0.000768358 0.000443625 0 -0.000451403 0.000239375 0 
-0.000866 4.25e-05 0 -0.0009085 -3.53397e-19 0 -0.000866 -4.25e-05 0 
-0.000433 0.00027125 0 -0.000845474 0.0004945 0 -0.000850974 0.000515026 0 
-0.000866 0.00061275 0 -0.000866 0.00070425 0 -0.000866 0.00079575 0 
-0.000866 0.00088725 0 -0.000850974 0.000984974 0 -0.000845474 0.0010055 0 
-0.000768358 0.00105638 0 -0.000689119 0.00110213 0 -0.000609881 0.00114787 0 
-0.000530642 0.00119362 0 -0.000433 0.00122875 0 -0.000335358 0.00119362 0 
-0.000256119 0.00114787 0 -0.000176881 0.00110213 0 -9.76417e-05 0.00105638 0 
-1.84031e-05 0.000989375 0 -1.84031e-05 0.000510625 0 -0.000433 0.0007925 0 
-0.0004755 0.00075 0 -0.000433 0.0007075 0 -9.82724e-20 0.00047875 -0.0005 
-0.000335358 0.000306375 -0.0005 -0.000256119 0.000352125 -0.0005 -0.000176881 0.000397875 -0.0005 
-9.76417e-05 0.000443625 -0.0005 -0.000412474 0.0002555 -0.0005 -0.000417974 0.000234974 -0.0005 
-0.000433 -0.00013725 -0.0005 -0.000433 -4.575e-05 -0.0005 -0.000433 4.575e-05 -0.0005 
-0.000433 0.00013725 -0.0005 -0.000417974 -0.000234974 -0.0005 -0.000412474 -0.0002555 -0.0005 
-9.76417e-05 -0.000443625 -0.0005 -0.000176881 -0.000397875 -0.0005 -0.000256119 -0.000352125 -0.0005 
-0.000335358 -0.000306375 -0.0005 -1.07223e-19 -0.00047875 -0.0005 0.000335358 -0.000306375 -0.0005 
0.000256119 -0.000352125 -0.0005 0.000176881 -0.000397875 -0.0005 9.76417e-05 -0.000443625 -0.0005 
0.000414597 -0.000239375 -0.0005 0.000433 0.00013725 -0.0005 0.000433 4.575e-05 -0.0005 
0.000433 -4.575e-05 -0.0005 0.000433 -0.00013725 -0.0005 0.000414597 0.000239375 -0.0005 
9.76417e-05 0.000443625 -0.0005 0.000176881 0.000397875 -0.0005 0.000256119 0.000352125 -0.0005 
0.000335358 0.000306375 -0.0005 -1.29514e-19 4.25e-05 -0.0005 -4.25e-05 -3.53397e-19 -0.0005 
4.07417e-19 -4.25e-05 -0.0005 2.05259e-05 0.0004945 -0.0005 1.5026e-05 0.000515026 -0.0005 
0 0.00061275 -0.0005 0 0.00070425 -0.0005 0 0.00079575 -0.0005 
0 0.00088725 -0.0005 1.5026e-05 0.000984974 -0.0005 2.05259e-05 0.0010055 -0.0005 
9.76417e-05 0.00105638 -0.0005 0.000176881 0.00110213 -0.0005 0.000256119 0.00114787 -0.0005 
0.000335358 0.00119362 -0.0005 0.000433 0.00122875 -0.0005 0.000530642 0.00119362 -0.0005 
0.000609881 0.00114787 -0.0005 0.000689119 0.00110213 -0.0005 0.000768358 0.00105638 -0.0005 
0.000847597 0.000989375 -0.0005 0.000866 0.00088725 -0.0005 0.000866 0.00079575 -0.0005 
0.000866 0.00070425 -0.0005 0.000866 0.00061275 -0.0005 0.000847597 0.000510625 -0.0005 
0.000530642 0.000306375 -0.0005 0.000609881 0.000352125 -0.0005 0.000689119 0.000397875 -0.0005 
0.000768358 0.000443625 -0.0005 0.000433 0.00027125 -0.0005 0.000433 0.0007925 -0.0005 
0.0003905 0.00075 -0.0005 0.000433 0.0007075 -0.0005 0.000448026 0.000234974 -0.0005 
0.000453526 0.0002555 -0.0005 0.000866 0.00047875 -0.0005 0.000963642 0.000443625 -0.0005 
0.00104288 0.000397875 -0.0005 0.00112212 0.000352125 -0.0005 0.00120136 0.000306375 -0.0005 
0.0012806 0.000239375 -0.0005 0.001299 0.00013725 -0.0005 0.001299 4.575e-05 -0.0005 
0.001299 -4.575e-05 -0.0005 0.001299 -0.00013725 -0.0005 0.0012806 -0.000239375 -0.0005 
0.00120136 -0.000306375 -0.0005 0.00112212 -0.000352125 -0.0005 0.00104288 -0.000397875 -0.0005 
0.000963642 -0.000443625 -0.0005 0.000866 -0.00047875 -0.0005 0.000530642 -0.000306375 -0.0005 
0.000609881 -0.000352125 -0.0005 0.000689119 -0.000397875 -0.0005 0.000768358 -0.000443625 -0.0005 
0.000453526 -0.0002555 -0.0005 0.000448026 -0.000234974 -0.0005 0.000866 4.25e-05 -0.0005 
0.0008235 -3.53397e-19 -0.0005 0.000866 -4.25e-05 -0.0005 0.000433 -0.00027125 -0.0005 
0.000847597 -0.000510625 -0.0005 0.000866 -0.00061275 -0.0005 0.000866 -0.00070425 -0.0005 
0.000866 -0.00079575 -0.0005 0.000866 -0.00088725 -0.0005 0.000847597 -0.000989375 -0.0005 
0.000768358 -0.00105638 -0.0005 0.000689119 -0.00110213 -0.0005 0.000609881 -0.00114787 -0.0005 
0.000530642 -0.00119362 -0.0005 0.000433 -0.00122875 -0.0005 0.000335358 -0.00119362 -0.0005 
0.000256119 -0.00114787 -0.0005 0.000176881 -0.00110213 -0.0005 9.76417e-05 -0.00105638 -0.0005 
2.05259e-05 -0.0010055 -0.0005 1.5026e-05 -0.000984974 -0.0005 0 -0.00061275 -0.0005 
0 -0.00070425 -0.0005 0 -0.00079575 -0.0005 0 -0.00088725 -0.0005 
1.5026e-05 -0.000515026 -0.0005 2.05259e-05 -0.0004945 -0.0005 0.000433 -0.0007075 -0.0005 
0.0003905 -0.00075 -0.0005 0.000433 -0.0007925 -0.0005 -1.84031e-05 -0.000510625 -0.0005 
-1.84031e-05 -0.000989375 -0.0005 -9.76417e-05 -0.00105638 -0.0005 -0.000176881 -0.00110213 -0.0005 
-0.000256119 -0.00114787 -0.0005 -0.000335358 -0.00119362 -0.0005 -0.000433 -0.00122875 -0.0005 
-0.000530642 -0.00119362 -0.0005 -0.000609881 -0.00114787 -0.0005 -0.000689119 -0.00110213 -0.0005 
-0.000768358 -0.00105638 -0.0005 -0.000845474 -0.0010055 -0.0005 -0.000850974 -0.000984974 -0.0005 
-0.000866 -0.00088725 -0.0005 -0.000866 -0.00079575 -0.0005 -0.000866 -0.00070425 -0.0005 
-0.000866 -0.00061275 -0.0005 -0.000850974 -0.000515026 -0.0005 -0.000845474 -0.0004945 -0.0005 
-0.000530642 -0.000306375 -0.0005 -0.000609881 -0.000352125 -0.0005 -0.000689119 -0.000397875 -0.0005 
-0.000768358 -0.000443625 -0.0005 -0.000433 -0.00027125 -0.0005 -0.000433 -0.0007075 -0.0005 
-0.0004755 -0.00075 -0.0005 -0.000433 -0.0007925 -0.0005 -0.000451403 -0.000239375 -0.0005 
-0.000866 -0.00047875 -0.0005 -0.000963642 -0.000443625 -0.0005 -0.00104288 -0.000397875 -0.0005 
-0.00112212 -0.000352125 -0.0005 -0.00120136 -0.000306375 -0.0005 -0.00127847 -0.0002555 -0.0005 
-0.00128397 -0.000234974 -0.0005 -0.001299 -0.00013725 -0.0005 -0.001299 -4.575e-05 -0.0005 
-0.001299 4.575e-05 -0.0005 -0.001299 0.00013725 -0.0005 -0.00128397 0.000234974 -0.0005 
-0.00127847 0.0002555 -0.0005 -0.00120136 0.000306375 -0.0005 -0.00112212 0.000352125 -0.0005 
-0.00104288 0.000397875 -0.0005 -0.000963642 0.000443625 -0.0005 -0.000866 0.00047875 -0.0005 
-0.000530642 0.000306375 -0.0005 -0.000609881 0.000352125 -0.0005 -0.000689119 0.000397875 -0.0005 
-0.000768358 0.000443625 -0.0005 -0.000451403 0.000239375 -0.0005 -0.000866 4.25e-05 -0.0005 
-0.0009085 -3.53397e-19 -0.0005 -0.000866 -4.25e-05 -0.0005 -0.000433 0.00027125 -0.0005 
-0.000845474 0.0004945 -0.0005 -0.000850974 0.000515026 -0.0005 -0.000866 0.00061275 -0.0005 
-0.000866 0.00070425 -0.0005 -0.000866 0.00079575 -0.0005 -0.000866 0.00088725 -0.0005 
-0.000850974 0.000984974 -0.0005 -0.000845474 0.0010055 -0.0005 -0.000768358 0.00105638 -0.0005 
-0.000689119 0.00110213 -0.0005 -0.000609881 0.00114787 -0.0005 -0.000530642 0.00119362 -0.0005 
-0.000433 0.00122875 -0.0005 -0.000335358 0.00119362 -0.0005 -0.000256119 0.00114787 -0.0005 
-0.000176881 0.00110213 -0.0005 -9.76417e-05 0.00105638 -0.0005 -1.84031e-05 0.000989375 -0.0005 
-1.84031e-05 0.000510625 -0.0005 -0.000433 0.0007925 -0.0005 -0.0004755 0.00075 -0.0005 
-0.000433 0.0007075 -0.0005 0.000166833 -0.000159585 0 0.000165961 0.000165961 0 
-0.000162277 0.000168837 0 -0.000162539 -0.000168697 0 -0.000316174 -0.000207462 0 
-0.000316174 0.000207462 0 -1.7625e-06 0.00020878 0 -0.000200494 5.10348e-06 0 
0.000198022 -6.49099e-06 0 -3.82827e-06 -0.000208798 0 -0.0003642 0.000214286 0 
-0.0003642 -0.000214286 0 0.000301049 0.000166193 0 0.000312424 -0.000170987 0 
-7.30908e-06 -0.00035148 0 7.30908e-06 0.00035148 0 0.000109232 0.000285545 0 
-0.000107519 -0.000286192 0 -0.000304808 7.69979e-05 0 -0.000308572 -7.52569e-05 0 
0.000106639 -0.000294843 0 -0.00010493 0.000296588 0 8.50608e-05 -8.41794e-05 0 
8.82006e-05 9.78925e-05 0 -9.29688e-05 8.1944e-05 0 -9.5784e-05 -8.5049e-05 0 
-0.00037448 0.000247295 0 -0.00037448 -0.000247295 0 -0.000226807 0.000247375 0 
-0.00022696 -0.000246565 0 0.000318161 -5.24395e-05 0 0.00030573 6.09258e-05 0 
-0.000251653 -0.000142326 0 -0.000251653 0.000142326 0 3.07451e-05 -0.00041094 0 
-3.07451e-05 0.00041094 0 0.00022921 -0.000246251 0 0.000229478 0.000241816 0 
2.27436e-05 0.000133221 0 1.86722e-05 -0.000131409 0 -0.000131489 -2.16615e-05 0 
0.00013003 -1.62999e-05 0 -0.00037383 0.000149154 0 -0.00037383 -0.000149154 0 
0.000234918 -9.03863e-05 0 0.000328799 0.000234244 0 0.000330695 -0.000235043 0 
0.000223602 9.28059e-05 0 -8.24081e-05 0.000181543 0 -7.93229e-05 -0.000178683 0 
-0.000174487 7.88274e-05 0 9.06107e-05 -0.000168878 0 9.31592e-05 0.000169495 0 
-0.000165177 -7.38619e-05 0 -9.20929e-05 -0.000358769 0 9.20929e-05 0.000358769 0 
3.47644e-05 0.000422113 0 -3.47644e-05 -0.000422113 0 -0.00039524 0.000187946 0 
-0.00039524 -0.000187946 0 -0.00036071 1.92365e-06 0 0.000388959 -0.000188051 0 
0.000390003 0.000186364 0 6.43444e-05 -0.000355671 0 -6.37768e-05 0.000356891 0 
2.80563e-05 -0.000283426 0 -2.80563e-05 0.000283426 0 0.000158032 5.64575e-05 0 
4.0579e-05 0.000286843 0 -4.0579e-05 -0.000286843 0 0.000187449 0.000307262 0 
0.000159892 -7.91024e-05 0 -0.000184905 -0.00030951 0 0.000358611 0.000105752 0 
0.000363074 -0.00011688 0 -0.000325009 0.000251333 0 -0.000325009 -0.000251333 0 
-0.000240838 -7.12684e-05 0 -0.000314691 -0.000147697 0 -0.000314417 0.000147824 0 
-0.000404578 0.00024054 0 -0.000403308 0.000218831 0 -0.000404578 -0.00024054 0 
-0.000403308 -0.000218831 0 0.000191925 -0.0003084 0 -0.000260053 0.000200474 0 
-0.000260078 -0.000200417 0 -2.84262e-05 0.000450764 0 2.84262e-05 -0.000450764 0 
-0.000189066 0.000311072 0 -0.000240999 7.45278e-05 0 -0.000278935 4.78174e-06 0 
0.000354779 1.89656e-05 0 0.000162497 0.000232229 0 0.000376671 0.000245397 0 
0.000376841 -0.000245894 0 0.000157204 -0.000230896 0 0.000234792 0.000171119 0 
-0.000151291 -0.000232673 0 -2.32986e-05 8.92785e-05 0 -3.11926e-05 -8.95957e-05 0 
-9.03847e-05 2.2115e-05 0 9.12302e-05 3.30279e-05 0 -0.000152334 0.000235849 0 
0.000239556 -0.000175069 0 -0.000374753 9.03378e-05 0 -0.000376425 -8.91537e-05 0 
4.61669e-05 -4.59906e-05 0 6.62281e-05 0.000232832 0 3.85868e-05 8.10868e-05 0 
-7.69579e-05 -3.79434e-05 0 0.000127486 -0.000360083 0 7.07506e-05 -0.00023716 0 
0.000272535 3.89675e-06 0 -7.65081e-05 -0.000238638 0 0.00014561 0.000112396 0 
-0.000352537 0.000183264 0 -0.000352576 -0.000183245 0 -0.000270615 -0.000285639 0 
-0.000269954 0.000283517 0 -7.38981e-05 0.000241237 0 0.00028245 0.000113194 0 
-0.000128597 0.00035529 0 0.000277733 0.00021912 0 0.000279019 -0.000221334 0 
0.000293419 -0.000117053 0 -4.98304e-05 4.71675e-05 0 -3.82924e-05 0.000144636 0 
-3.82924e-05 -0.000144636 0 -0.000137965 3.32657e-05 0 -0.00012318 0.000133204 0 
-0.000120047 -0.000136339 0 -0.000206789 -0.00019438 0 0.000125599 -0.000122936 0 
-0.000206748 0.000194842 0 -0.000279599 0.000238032 0 -0.000279767 -0.000238283 0 
-0.000195529 0.000130609 0 -0.000197761 -0.000129013 0 2.37414e-05 -7.8735e-05 0 
7.89976e-05 -2.26884e-05 0 0.000279552 0.000278672 0 0.000279873 -0.000279044 0 
4.48012e-06 0.00044547 0 -4.48012e-06 -0.00044547 0 0.000598961 0.000584039 0 
0.000602744 0.00091226 0 0.000270474 0.000918651 0 0.000270149 0.000581615 0 
0.000116826 0.000957462 0 0.000116826 0.000542538 0 0.000429172 0.000958798 0 
0.000232505 0.000755103 0 0.000636012 0.000747201 0 0.000434763 0.00054122 0 
6.87997e-05 0.000964286 0 6.87997e-05 0.000535714 0 0.000745424 0.000920987 0 
0.000734049 0.000583807 0 0.000425691 0.00039852 0 0.000425691 0.00110148 0 
0.000325481 0.00103619 0 0.00032556 0.000464273 0 0.000128192 0.000826998 0 
0.000124428 0.000674743 0 0.000539639 0.00104484 0 0.000539618 0.000454793 0 
0.000520463 0.000653783 0 0.000521988 0.00084822 0 0.000340031 0.000831944 0 
0.00034624 0.000661734 0 5.85195e-05 0.000997295 0 5.85195e-05 0.000502705 0 
0.00020604 0.000996565 0 0.00020604 0.000503435 0 0.000751161 0.00080244 0 
0.00073873 0.000689074 0 0.000181347 0.000607674 0 0.000181347 0.000892326 0 
0.000463745 0.00033906 0 0.000463745 0.00116094 0 0.00066221 0.000996251 0 
0.000655871 0.000515061 0 0.000455531 0.000883279 0 0.0004137 0.000617913 0 
0.000302544 0.000731006 0 0.000569409 0.000742828 0 5.91695e-05 0.000899154 0 
5.91695e-05 0.000600846 0 0.000666622 0.000847886 0 0.000763695 0.000985043 0 
0.000761799 0.000515756 0 0.000662952 0.000664982 0 0.000353677 0.000928683 0 
0.000512323 0.000571317 0 0.000258513 0.000828827 0 0.000526529 0.000920143 0 
0.000348994 0.000575642 0 0.000269055 0.00067649 0 0.000340907 0.000391231 0 
0.000340907 0.00110877 0 0.000398236 0.00117211 0 0.000398236 0.000327887 0 
3.77595e-05 0.000937946 0 3.77595e-05 0.000562054 0 7.22902e-05 0.000751924 0 
0.000821959 0.000938051 0 0.000823003 0.000563636 0 0.000497344 0.00110567 0 
0.000497341 0.000394268 0 0.000595975 0.000808208 0 0.000461056 0.000466574 0 
0.000461056 0.00103343 0 0.000392421 0.00103684 0 0.000392458 0.000463164 0 
0.000248106 0.000440556 0 0.000248095 0.00105951 0 0.000791611 0.000644248 0 
0.000796074 0.00086688 0 0.000107991 0.00100133 0 0.000107991 0.000498667 0 
0.000192237 0.000678753 0 0.000118309 0.000602303 0 0.000118584 0.000897824 0 
2.84222e-05 0.00099054 0 2.96921e-05 0.000968831 0 2.84222e-05 0.00050946 0 
2.96921e-05 0.000531169 0 0.000584827 0.000674445 0 0.000624925 0.0010584 0 
0.000620086 0.000439056 0 0.000172934 0.000950423 0 0.000172922 0.000549583 0 
0.000461426 0.00120076 0 0.000461426 0.000299236 0 0.000192001 0.000824528 0 
0.000154074 0.000754784 0 0.000787779 0.000731034 0 0.000809841 0.000995894 0 
0.000809671 0.000504603 0 0.000589469 0.00097835 0 0.000571747 0.000512487 0 
0.000673596 0.000588147 0 0.000281249 0.000518091 0 0.00028171 0.000982668 0 
0.000409676 0.000839285 0 0.000465934 0.000658411 0 0.000524589 0.000782934 0 
0.000342119 0.000777068 0 0.000672682 0.000926159 0 5.82468e-05 0.000840338 0 
5.65752e-05 0.000660846 0 0.000386493 0.000703192 0 0.000361584 0.000514775 0 
0.000471587 0.000831087 0 0.000510532 0.000709986 0 0.000559513 0.000389323 0 
0.000560486 0.00111008 0 0.000503751 0.00098716 0 0.000707209 0.000747103 0 
0.000356492 0.000988637 0 8.04633e-05 0.000933264 0 8.04241e-05 0.000566755 0 
0.000162386 0.000464369 0 0.000162385 0.00103564 0 0.000578393 0.000862613 0 
0.000503901 0.000509278 0 0.000714127 0.000640342 0 0.000712044 0.000971552 0 
0.000710619 0.000533186 0 0.000726252 0.00086828 0 0.000383065 0.000798159 0 
0.000471292 0.000605364 0 0.000394708 0.000894636 0 0.000295143 0.00078479 0 
0.000311567 0.000884914 0 0.000544105 0.000613927 0 0.000226145 0.000555712 0 
0.000226234 0.0009443 0 0.000307419 0.000615421 0 0.000153235 0.000988284 0 
0.000153233 0.000511718 0 0.000237647 0.000880726 0 0.000238317 0.000620115 0 
0.000410377 0.000668704 0 0.000352297 0.000726325 0 0.000712874 0.00102905 0 
0.000708438 0.00047242 0 0.00042852 0.00030453 0 0.00042852 0.00119547 0 
0.00103283 -0.000159585 0 0.00103196 0.000165961 0 0.00070371 0.000168883 0 
0.000703474 -0.000168651 0 0.000549826 0.000207462 0 0.000549826 -0.000207462 0 
0.000864237 0.00020878 0 0.000665505 -1.75358e-06 0 0.00106402 -6.49099e-06 0 
0.000862172 -0.000208798 0 0.0005018 0.000214286 0 0.0005018 -0.000214286 0 
0.00117842 -0.000170987 0 0.00116705 0.000166193 0 0.000858691 -0.00035148 0 
0.000873309 0.00035148 0 0.000975232 0.000285545 0 0.000758481 -0.000286192 0 
0.000561503 7.6703e-05 0 0.000555269 -7.65899e-05 0 0.000972639 -0.000294843 0 
0.00076107 0.000296588 0 0.000951061 -8.41794e-05 0 0.000954201 9.78925e-05 0 
0.000770216 8.5049e-05 0 0.000773031 -8.1944e-05 0 0.00049152 0.000247295 0 
0.00049152 -0.000247295 0 0.000639193 0.000247375 0 0.00063904 -0.000246565 0 
0.00118416 -5.24395e-05 0 0.00117173 6.09258e-05 0 0.000614347 -0.000142326 0 
0.000614347 0.000142326 0 0.000896745 -0.00041094 0 0.000835255 0.00041094 0 
0.00109521 -0.000246251 0 0.00109548 0.000241816 0 0.000888744 0.000133221 0 
0.000884672 -0.000131409 0 0.000734511 2.22198e-05 0 0.00099603 -1.62999e-05 0 
0.00049217 0.000149154 0 0.00049217 -0.000149154 0 0.00110092 -9.03863e-05 0 
0.0011967 -0.000235043 0 0.0011948 0.000234244 0 0.0010896 9.28059e-05 0 
0.000783591 0.000181545 0 0.000786677 -0.000178683 0 0.000691513 -7.86239e-05 0 
0.000956611 -0.000168878 0 0.000959159 0.000169495 0 0.000700823 7.45132e-05 0 
0.000773907 -0.000358769 0 0.000958093 0.000358769 0 0.000900764 0.000422113 0 
0.000831236 -0.000422113 0 0.00047076 0.000187946 0 0.00047076 -0.000187946 0 
0.000506327 1.20793e-06 0 0.00125496 -0.000188051 0 0.001256 0.000186364 0 
0.000930344 -0.000355671 0 0.000802223 0.000356891 0 0.000894056 -0.000283426 0 
0.000837944 0.000283426 0 0.00102403 5.64575e-05 0 0.000906579 0.000286843 0 
0.000825421 -0.000286843 0 0.00105345 0.000307262 0 0.00102589 -7.91024e-05 0 
0.000681095 -0.00030951 0 0.00122461 0.000105752 0 0.00122907 -0.00011688 0 
0.000540991 0.000251333 0 0.000540991 -0.000251333 0 0.000624479 7.32103e-05 0 
0.000551152 -0.000147794 0 0.000551606 0.000147802 0 0.000461422 0.00024054 0 
0.000462692 0.000218831 0 0.000461422 -0.00024054 0 0.000462692 -0.000218831 0 
0.00105793 -0.0003084 0 0.000605948 0.000200473 0 0.000605915 -0.000200421 0 
0.000894426 -0.000450764 0 0.000837574 0.000450764 0 0.000676934 0.000311072 0 
0.000626182 -7.08972e-05 0 0.000584992 5.90258e-06 0 0.00122078 1.89656e-05 0 
0.0010285 0.000232229 0 0.00124284 -0.000245894 0 0.00124267 0.000245397 0 
0.0010232 -0.000230896 0 0.00110079 0.000171119 0 0.00071471 -0.000232668 0 
0.000834965 9.05283e-05 0 0.000842673 -8.85226e-05 0 0.00095723 3.30279e-05 0 
0.000775615 -2.20485e-05 0 0.000713665 0.000235853 0 0.00110556 -0.000175069 0 
0.000491363 9.025e-05 0 0.000488571 -8.87482e-05 0 0.000912167 -4.59906e-05 0 
0.000932228 0.000232832 0 0.000904587 8.10868e-05 0 0.000789049 3.8011e-05 0 
0.000993486 -0.000360083 0 0.000936751 -0.00023716 0 0.00113854 3.89675e-06 0 
0.000789492 -0.000238637 0 0.00101161 0.000112396 0 0.000513466 0.00018326 0 
0.000513402 -0.000183259 0 0.000596046 0.000283517 0 0.000595385 -0.000285639 0 
0.000792102 0.000241238 0 0.00114845 0.000113194 0 0.000737403 0.00035529 0 
0.00114502 -0.000221334 0 0.00114373 0.00021912 0 0.00115942 -0.000117053 0 
0.000816164 -4.7003e-05 0 0.000827708 0.000144636 0 0.000827708 -0.000144636 0 
0.000728035 -3.243e-05 0 0.00074578 0.000136564 0 0.000744567 -0.000134897 0 
0.000659232 -0.0001943 0 0.000991599 -0.000122936 0 0.00065923 0.000194923 0 
0.000586401 0.000238032 0 0.000586231 -0.000238284 0 0.000670788 -0.000130267 0 
0.000668203 0.000129229 0 0.000889614 -8.00602e-05 0 0.000944998 -2.26884e-05 0 
0.00114587 -0.000279044 0 0.00114555 0.000278672 0 0.00087048 0.00044547 0 
0.00086152 -0.00044547 0 0.000598961 -0.000915961 0 0.000603317 -0.000588209 0 
0.000270723 -0.000581163 0 0.000270149 -0.000918385 0 0.000116826 -0.000542538 0 
0.000116826 -0.000957462 0 0.000431238 -0.00054122 0 0.000232505 -0.000744897 0 
0.000636012 -0.000752799 0 0.000434763 -0.00095878 0 6.87997e-05 -0.000535714 0 
6.87997e-05 -0.000964286 0 0.000745424 -0.000579013 0 0.000734049 -0.000916193 0 
0.000425691 -0.00110148 0 0.000440309 -0.00039852 0 0.000542232 -0.000464455 0 
0.00032556 -0.00103573 0 0.000128192 -0.000673002 0 0.000124428 -0.000825257 0 
0.000539618 -0.00104521 0 0.00032807 -0.000453412 0 0.000520463 -0.000846217 0 
0.000521988 -0.00065178 0 0.000340031 -0.000668056 0 0.00034624 -0.000838266 0 
5.85195e-05 -0.000502705 0 5.85195e-05 -0.000997295 0 0.000206193 -0.000502625 0 
0.00020604 -0.000996565 0 0.000751161 -0.00069756 0 0.00073873 -0.000810926 0 
0.000181347 -0.000892326 0 0.000181347 -0.000607674 0 0.000463745 -0.00116094 0 
0.000402255 -0.00033906 0 0.000662471 -0.000504287 0 0.000655871 -0.000984939 0 
0.000455875 -0.000616724 0 0.0004137 -0.000882087 0 0.000302544 -0.000768994 0 
0.000569409 -0.000757172 0 5.91695e-05 -0.000600846 0 5.91695e-05 -0.000899154 0 
0.000666622 -0.000652114 0 0.000763695 -0.000514957 0 0.000761799 -0.000984244 0 
0.000662952 -0.000835018 0 0.000350592 -0.000568457 0 0.000512323 -0.000928683 0 
0.000258513 -0.000671173 0 0.000526882 -0.000581015 0 0.000348994 -0.000924358 0 
0.000269055 -0.00082351 0 0.000340907 -0.00110877 0 0.000525093 -0.000391231 0 
0.000398236 -0.00117211 0 0.000467764 -0.000327887 0 3.77595e-05 -0.000562054 0 
3.77595e-05 -0.000937946 0 7.22902e-05 -0.000748076 0 0.000821959 -0.000561949 0 
0.000823003 -0.000936364 0 0.000497341 -0.00110573 0 0.000369223 -0.000393109 0 
0.000595975 -0.000691792 0 0.000461056 -0.00103343 0 0.000404944 -0.000466574 0 
0.000473579 -0.000463157 0 0.000392458 -0.00103684 0 0.000620449 -0.000442181 0 
0.000248106 -0.00105944 0 0.000791611 -0.000855752 0 0.000796074 -0.00063312 0 
0.000107991 -0.000498667 0 0.000107991 -0.00100133 0 0.000192237 -0.000821247 0 
0.000118309 -0.000897697 0 0.000118584 -0.000602176 0 2.84222e-05 -0.00050946 0 
2.96921e-05 -0.000531169 0 2.84222e-05 -0.00099054 0 2.96921e-05 -0.000968831 0 
0.000584827 -0.000825555 0 0.000620086 -0.00106094 0 0.000172947 -0.000549526 0 
0.000172922 -0.000950417 0 0.000461426 -0.00120076 0 0.000404574 -0.000299236 0 
0.000243934 -0.000438928 0 0.000192001 -0.000675472 0 0.000154074 -0.000745216 0 
0.000787779 -0.000768966 0 0.000588723 -0.000523989 0 0.000809841 -0.000504106 0 
0.000809671 -0.000995397 0 0.000571747 -0.000987513 0 0.000673596 -0.000911853 0 
0.000281249 -0.000981909 0 0.000409717 -0.000660715 0 0.000465934 -0.000841589 0 
0.000524589 -0.000717066 0 0.000342119 -0.000722933 0 0.000280666 -0.000514151 0 
0.000672694 -0.000574319 0 5.82468e-05 -0.000659662 0 5.65752e-05 -0.000839154 0 
0.000386493 -0.000796808 0 0.000361584 -0.000985225 0 0.000499228 -0.000517168 0 
0.000471587 -0.000668913 0 0.000510532 -0.000790014 0 0.000559513 -0.00111068 0 
0.000707209 -0.000752897 0 8.04633e-05 -0.000566736 0 8.04241e-05 -0.000933245 0 
0.000163046 -0.000466483 0 0.000162386 -0.00103563 0 0.000578393 -0.000637387 0 
0.000503901 -0.000990722 0 0.000359102 -0.000508763 0 0.000714127 -0.000859658 0 
0.000304403 -0.00039471 0 0.000712099 -0.000528651 0 0.000710619 -0.000966814 0 
0.000726254 -0.000631789 0 0.000383073 -0.000701841 0 0.000471292 -0.000894636 0 
0.000394708 -0.000605364 0 0.000295143 -0.00071521 0 0.000544105 -0.000886073 0 
0.00030982 -0.000616796 0 0.000226145 -0.000944288 0 0.000307419 -0.000884579 0 
0.000226252 -0.000555158 0 0.000153401 -0.000511968 0 0.000153233 -0.000988282 0 
0.000237471 -0.000619391 0 0.000238317 -0.000879885 0 0.000410377 -0.000831296 0 
0.000352297 -0.000773675 0 0.00071621 -0.000470678 0 0.000708438 -0.00102758 0 
0.00043748 -0.00030453 0 0.00042852 -0.00119547 0 -0.000266167 -0.000909585 0 
-0.00026339 -0.000582669 0 -0.000595526 -0.000581349 0 -0.000595539 -0.000918697 0 
-0.000749174 -0.000957462 0 -0.000749174 -0.000542538 0 -0.000436828 -0.000541202 0 
-0.000633495 -0.000748246 0 -0.000234978 -0.000756491 0 -0.000436828 -0.000958798 0 
-0.0007972 -0.000964286 0 -0.0007972 -0.000535714 0 -0.000131951 -0.000583807 0 
-0.000120576 -0.000920987 0 -0.000440309 -0.00110148 0 -0.000440309 -0.00039852 0 
-0.000540519 -0.000463808 0 -0.000540519 -0.00103619 0 -0.000737497 -0.000826703 0 
-0.000743731 -0.00067341 0 -0.000326361 -0.000455157 0 -0.000326361 -0.00104484 0 
-0.000347939 -0.000834179 0 -0.000344799 -0.000652107 0 -0.000525969 -0.000668056 0 
-0.000528784 -0.000835049 0 -0.00080748 -0.000997295 0 -0.00080748 -0.000502705 0 
-0.00065996 -0.000996565 0 -0.00065996 -0.000503435 0 -0.000114839 -0.00080244 0 
-0.00012727 -0.000689074 0 -0.000684653 -0.000892326 0 -0.000684653 -0.000607674 0 
-0.000402255 -0.00033906 0 -0.000402255 -0.00116094 0 -0.00020379 -0.000996251 0 
-0.000209694 -0.000514898 0 -0.000410601 -0.000616776 0 -0.000414328 -0.000881409 0 
-0.000564489 -0.00077222 0 -0.00030297 -0.0007663 0 -0.000806831 -0.000899154 0 
-0.000806831 -0.000600846 0 -0.000198082 -0.000840386 0 -0.000104201 -0.000515756 0 
-0.000102305 -0.000985043 0 -0.000210482 -0.000662469 0 -0.000512323 -0.000571317 0 
-0.000512323 -0.000928683 0 -0.000607487 -0.000671376 0 -0.000342389 -0.000918878 0 
-0.000339591 -0.000579218 0 -0.000598177 -0.000824513 0 -0.000525093 -0.00110877 0 
-0.000525093 -0.000391231 0 -0.000467764 -0.00117211 0 -0.000467764 -0.000327887 0 
-0.00082824 -0.000937946 0 -0.00082824 -0.000562054 0 -0.000792673 -0.000751208 0 
-4.40406e-05 -0.000938051 0 -4.29968e-05 -0.000563636 0 -0.000368656 -0.000394329 0 
-0.000368656 -0.00110567 0 -0.000404944 -0.000466574 0 -0.000404944 -0.00103343 0 
-0.000274968 -0.000693542 0 -0.000473579 -0.000463157 0 -0.000473579 -0.00103684 0 
-0.000273108 -0.000829102 0 -0.000617905 -0.00105951 0 -0.000617905 -0.00044049 0 
-7.4389e-05 -0.000644248 0 -6.99258e-05 -0.00086688 0 -0.000758009 -0.00100133 0 
-0.000758009 -0.000498667 0 -0.000674521 -0.00082321 0 -0.000747394 -0.000897802 0 
-0.000747848 -0.000602206 0 -0.000837578 -0.00099054 0 -0.000836308 -0.000968831 0 
-0.000837578 -0.00050946 0 -0.000836308 -0.000531169 0 -0.00024589 -0.000439066 0 
-0.000241075 -0.0010584 0 -0.000693065 -0.000950422 0 -0.000693085 -0.000549579 0 
-0.000404574 -0.00120076 0 -0.000404574 -0.000299236 0 -0.000672818 -0.000679103 0 
-0.000714008 -0.000755903 0 -7.82213e-05 -0.000731034 0 -5.6329e-05 -0.000504603 0 
-5.61586e-05 -0.000995894 0 -0.000275796 -0.000980896 0 -0.000285676 -0.000513219 0 
-0.000186165 -0.000585602 0 -0.000584291 -0.000982673 0 -0.00058429 -0.000517332 0 
-0.00045634 -0.000660721 0 -0.000464193 -0.000839596 0 -0.00034177 -0.000716972 0 
-0.000523385 -0.000727952 0 -0.000193444 -0.000925069 0 -0.000807637 -0.00084025 0 
-0.000810429 -0.000661252 0 -0.000386833 -0.000795991 0 -0.000394413 -0.000668913 0 
-0.000509958 -0.000787971 0 -0.000305514 -0.00111008 0 -0.000306477 -0.00038941 0 
-0.000362249 -0.00098716 0 -0.00035868 -0.000511074 0 -0.000160645 -0.000746982 0 
-0.000509508 -0.000511363 0 -0.000509508 -0.000988638 0 -0.00028739 -0.000637604 0 
-0.000785534 -0.00093326 0 -0.000785598 -0.000566741 0 -0.000703615 -0.00103564 0 
-0.000703615 -0.000464361 0 -0.000148903 -0.000636616 0 -0.00015636 -0.000534148 0 
-0.000153981 -0.000971334 0 -0.000139581 -0.000867053 0 -0.000482839 -0.000702846 0 
-0.000471292 -0.000605364 0 -0.000471292 -0.000894636 0 -0.000570965 -0.00071757 0 
-0.000554433 -0.000615103 0 -0.000553903 -0.000884892 0 -0.000639788 -0.00094438 0 
-0.000639768 -0.0005557 0 -0.000307401 -0.000872936 0 -0.000712765 -0.000988284 0 
-0.000712769 -0.000511716 0 -0.000628213 -0.000619733 0 -0.000630855 -0.000879083 0 
-0.000409259 -0.000828735 0 -0.000354002 -0.000772688 0 -0.000155373 -0.000471972 0 
-0.000153127 -0.00102904 0 -0.00043748 -0.00030453 0 -0.00043748 -0.00119547 0 
-0.000699167 -0.000159585 0 -0.00102828 0.000168837 0 -0.000700039 0.000165961 0 
-0.00102854 -0.000168697 0 -0.00118217 0.000207462 0 -0.00118217 -0.000207462 0 
-0.000867762 0.00020878 0 -0.00106649 5.10348e-06 0 -0.000667978 -6.49099e-06 0 
-0.000869828 -0.000208798 0 -0.0012302 0.000214286 0 -0.0012302 -0.000214286 0 
-0.000564951 0.000166193 0 -0.000553576 -0.000170987 0 -0.000873309 -0.00035148 0 
-0.000858691 0.00035148 0 -0.000756768 0.000285545 0 -0.000973519 -0.000286192 0 
-0.00117081 7.69979e-05 0 -0.00117457 -7.52569e-05 0 -0.000759361 -0.000294843 0 
-0.00097093 0.000296588 0 -0.000780939 -8.41794e-05 0 -0.000958969 8.1944e-05 0 
-0.000777799 9.78925e-05 0 -0.000961784 -8.5049e-05 0 -0.00124048 0.000247295 0 
-0.00124048 -0.000247295 0 -0.00109281 0.000247375 0 -0.00109296 -0.000246565 0 
-0.000547839 -5.24395e-05 0 -0.00056027 6.09258e-05 0 -0.00111765 0.000142326 0 
-0.00111765 -0.000142326 0 -0.000835255 -0.00041094 0 -0.000896745 0.00041094 0 
-0.00063679 -0.000246251 0 -0.000636522 0.000241816 0 -0.000843256 0.000133221 0 
-0.000847328 -0.000131409 0 -0.000997489 -2.16615e-05 0 -0.00073597 -1.62999e-05 0 
-0.00123983 0.000149154 0 -0.00123983 -0.000149154 0 -0.000631082 -9.03863e-05 0 
-0.000535305 -0.000235043 0 -0.000537201 0.000234244 0 -0.000642398 9.28059e-05 0 
-0.000948408 0.000181543 0 -0.000945323 -0.000178683 0 -0.00104049 7.88274e-05 0 
-0.000775389 -0.000168878 0 -0.000772841 0.000169495 0 -0.00103118 -7.38619e-05 0 
-0.000958093 -0.000358769 0 -0.000773907 0.000358769 0 -0.000900764 -0.000422113 0 
-0.000831236 0.000422113 0 -0.00126124 0.000187946 0 -0.00126124 -0.000187946 0 
-0.00122671 1.92365e-06 0 -0.000477041 -0.000188051 0 -0.000475997 0.000186364 0 
-0.000801656 -0.000355671 0 -0.000929777 0.000356891 0 -0.000837944 -0.000283426 0 
-0.000894056 0.000283426 0 -0.000707968 5.64575e-05 0 -0.000825421 0.000286843 0 
-0.000906579 -0.000286843 0 -0.000678551 0.000307262 0 -0.000706108 -7.91024e-05 0 
-0.0010509 -0.00030951 0 -0.000507389 0.000105752 0 -0.000502926 -0.00011688 0 
-0.00119101 0.000251333 0 -0.00119101 -0.000251333 0 -0.00110684 -7.12684e-05 0 
-0.00118042 0.000147824 0 -0.00118069 -0.000147697 0 -0.00127058 0.00024054 0 
-0.00126931 0.000218831 0 -0.00127058 -0.00024054 0 -0.00126931 -0.000218831 0 
-0.000674075 -0.0003084 0 -0.00112605 0.000200474 0 -0.00112608 -0.000200417 0 
-0.000837574 -0.000450764 0 -0.000894426 0.000450764 0 -0.00105507 0.000311072 0 
-0.001107 7.45278e-05 0 -0.00114494 4.78174e-06 0 -0.000511221 1.89656e-05 0 
-0.000703503 0.000232229 0 -0.000489329 0.000245397 0 -0.000489159 -0.000245894 0 
-0.000708796 -0.000230896 0 -0.000631208 0.000171119 0 -0.00101729 -0.000232673 0 
-0.000889299 8.92785e-05 0 -0.000897193 -8.95957e-05 0 -0.00077477 3.30279e-05 0 
-0.000956385 2.2115e-05 0 -0.00101833 0.000235849 0 -0.000626444 -0.000175069 0 
-0.00124075 9.03378e-05 0 -0.00124242 -8.91537e-05 0 -0.000819833 -4.59906e-05 0 
-0.000799772 0.000232832 0 -0.000827413 8.10868e-05 0 -0.000942958 -3.79434e-05 0 
-0.000738514 -0.000360083 0 -0.000795249 -0.00023716 0 -0.000593465 3.89675e-06 0 
-0.000942508 -0.000238638 0 -0.00072039 0.000112396 0 -0.00121854 0.000183264 0 
-0.00121858 -0.000183245 0 -0.00113595 0.000283517 0 -0.00113662 -0.000285639 0 
-0.000939898 0.000241237 0 -0.00058355 0.000113194 0 -0.000994597 0.00035529 0 
-0.000586981 -0.000221334 0 -0.000588267 0.00021912 0 -0.000572581 -0.000117053 0 
-0.00091583 4.71675e-05 0 -0.000904292 -0.000144636 0 -0.000904292 0.000144636 0 
-0.00100396 3.32657e-05 0 -0.00098918 0.000133204 0 -0.000986047 -0.000136339 0 
-0.00107279 -0.00019438 0 -0.000740401 -0.000122936 0 -0.00107275 0.000194842 0 
-0.0011456 0.000238032 0 -0.00114577 -0.000238283 0 -0.00106153 0.000130609 0 
-0.00106376 -0.000129013 0 -0.000842259 -7.8735e-05 0 -0.000787002 -2.26884e-05 0 
-0.000586448 0.000278672 0 -0.000586127 -0.000279044 0 -0.00087048 -0.00044547 0 
-0.00086152 0.00044547 0 -0.000266167 0.000590415 0 -0.000267039 0.000915961 0 
-0.000595277 0.000918837 0 -0.000595539 0.000581303 0 -0.000749174 0.000542538 0 
-0.000749174 0.000957462 0 -0.000434763 0.00095878 0 -0.000633495 0.000751754 0 
-0.000234978 0.000743509 0 -0.000436828 0.000541202 0 -0.0007972 0.000535714 0 
-0.0007972 0.000964286 0 -0.000131951 0.000916193 0 -0.000120576 0.000579013 0 
-0.000440309 0.00039852 0 -0.000425691 0.00110148 0 -0.000323768 0.00103554 0 
-0.000540519 0.000463808 0 -0.000737497 0.000673297 0 -0.000743731 0.00082659 0 
-0.000326361 0.000455157 0 -0.00053793 0.00104659 0 -0.000347939 0.000665821 0 
-0.000344799 0.000847893 0 -0.000525969 0.000831944 0 -0.000528784 0.000664951 0 
-0.00080748 0.000502705 0 -0.00080748 0.000997295 0 -0.00065996 0.000503435 0 
-0.000659807 0.000997375 0 -0.000114839 0.00069756 0 -0.00012727 0.000810926 0 
-0.000684653 0.000607674 0 -0.000684653 0.000892326 0 -0.000402255 0.00033906 0 
-0.000463745 0.00116094 0 -0.00020379 0.000503749 0 -0.000203522 0.000991815 0 
-0.000410256 0.000883221 0 -0.000414328 0.000618591 0 -0.000564489 0.00072778 0 
-0.00030297 0.0007337 0 -0.000806831 0.000600846 0 -0.000806831 0.000899154 0 
-0.000198082 0.000659614 0 -0.000104201 0.000984244 0 -0.000102305 0.000514957 0 
-0.000209398 0.000842806 0 -0.000515408 0.000931543 0 -0.000512323 0.000571317 0 
-0.000607487 0.000828624 0 -0.000342389 0.000581122 0 -0.000339841 0.000919495 0 
-0.000598177 0.000675487 0 -0.000525093 0.000391231 0 -0.000340907 0.00110877 0 
-0.000398236 0.00117211 0 -0.000467764 0.000327887 0 -0.00082824 0.000562054 0 
-0.00082824 0.000937946 0 -0.000792673 0.000748792 0 -4.40406e-05 0.000561949 0 
-4.29968e-05 0.000936364 0 -0.000368656 0.000394329 0 -0.000496777 0.00110689 0 
-0.000404944 0.000466574 0 -0.000461056 0.00103343 0 -0.000274968 0.000806458 0 
-0.000392421 0.00103684 0 -0.000473579 0.000463157 0 -0.000245551 0.00105726 0 
-0.000273108 0.000670898 0 -0.000617905 0.00044049 0 -7.4389e-05 0.000855752 0 
-6.99258e-05 0.00063312 0 -0.000758009 0.000498667 0 -0.000758009 0.00100133 0 
-0.000674521 0.00067679 0 -0.000747394 0.000602198 0 -0.000747848 0.000897794 0 
-0.000837578 0.00050946 0 -0.000836308 0.000531169 0 -0.000837578 0.00099054 0 
-0.000836308 0.000968831 0 -0.000241075 0.0004416 0 -0.000693065 0.000549578 0 
-0.000693072 0.000950473 0 -0.000404574 0.000299236 0 -0.000461426 0.00120076 0 
-0.000622066 0.00106107 0 -0.000672818 0.000820897 0 -0.000714008 0.000744097 0 
-7.82213e-05 0.000768966 0 -0.000270503 0.000982229 0 -5.6329e-05 0.000995397 0 
-5.61586e-05 0.000504106 0 -0.000275796 0.000519104 0 -0.000198208 0.000921119 0 
-0.000584291 0.000517327 0 -0.000456299 0.000839279 0 -0.000464193 0.000660404 0 
-0.00034177 0.000783028 0 -0.000523385 0.000772048 0 -0.000585334 0.000985849 0 
-0.000193444 0.000574931 0 -0.000807637 0.00065975 0 -0.000810429 0.000838748 0 
-0.000386833 0.000704009 0 -0.000366772 0.000982832 0 -0.000394413 0.000831087 0 
-0.000509958 0.000712029 0 -0.000305514 0.000389917 0 -0.000362249 0.00051284 0 
-0.000160465 0.000753897 0 -0.000509508 0.000511362 0 -0.00028739 0.000862396 0 
-0.000785534 0.00056674 0 -0.000785598 0.000933259 0 -0.000703615 0.000464361 0 
-0.000702954 0.00103352 0 -0.000506898 0.000991237 0 -0.00015055 0.000863194 0 
-0.000561597 0.00110529 0 -0.000153981 0.000528666 0 -0.000155267 0.00096912 0 
-0.000139581 0.000632947 0 -0.00048283 0.000797154 0 -0.000471292 0.000894636 0 
-0.000471292 0.000605364 0 -0.000570965 0.00078243 0 -0.00055618 0.00088318 0 
-0.000553903 0.000615108 0 -0.000639788 0.00055562 0 -0.000307401 0.000627064 0 
-0.00063975 0.000944842 0 -0.000712765 0.000511716 0 -0.000712603 0.000988032 0 
-0.000628389 0.00088015 0 -0.000630855 0.000620917 0 -0.000409259 0.000671265 0 
-0.000354002 0.000727312 0 -0.000153448 0.00102867 0 -0.000153127 0.000470956 0 
-0.00042852 0.00119547 0 -0.00043748 0.00030453 0 0.000166833 -0.000159585 -0.0005 
0.000165961 0.000165961 -0.0005 -0.000162277 0.000168837 -0.0005 -0.000162539 -0.000168697 -0.0005 
-0.000316174 -0.000207462 -0.0005 -0.000316174 0.000207462 -0.0005 -1.7625e-06 0.00020878 -0.0005 
-0.000200494 5.10348e-06 -0.0005 0.000198022 -6.49099e-06 -0.0005 -3.82827e-06 -0.000208798 -0.0005 
-0.0003642 0.000214286 -0.0005 -0.0003642 -0.000214286 -0.0005 0.000301049 0.000166193 -0.0005 
0.000312424 -0.000170987 -0.0005 -7.30908e-06 -0.00035148 -0.0005 7.30908e-06 0.00035148 -0.0005 
0.000109232 0.000285545 -0.0005 -0.000107519 -0.000286192 -0.0005 -0.000304808 7.69979e-05 -0.0005 
-0.000308572 -7.52569e-05 -0.0005 0.000106639 -0.000294843 -0.0005 -0.00010493 0.000296588 -0.0005 
8.50608e-05 -8.41794e-05 -0.0005 8.82006e-05 9.78925e-05 -0.0005 -9.29688e-05 8.1944e-05 -0.0005 
-9.5784e-05 -8.5049e-05 -0.0005 -0.00037448 0.000247295 -0.0005 -0.00037448 -0.000247295 -0.0005 
-0.000226807 0.000247375 -0.0005 -0.00022696 -0.000246565 -0.0005 0.000318161 -5.24395e-05 -0.0005 
0.00030573 6.09258e-05 -0.0005 -0.000251653 -0.000142326 -0.0005 -0.000251653 0.000142326 -0.0005 
3.07451e-05 -0.00041094 -0.0005 -3.07451e-05 0.00041094 -0.0005 0.00022921 -0.000246251 -0.0005 
0.000229478 0.000241816 -0.0005 2.27436e-05 0.000133221 -0.0005 1.86722e-05 -0.000131409 -0.0005 
-0.000131489 -2.16615e-05 -0.0005 0.00013003 -1.62999e-05 -0.0005 -0.00037383 0.000149154 -0.0005 
-0.00037383 -0.000149154 -0.0005 0.000234918 -9.03863e-05 -0.0005 0.000328799 0.000234244 -0.0005 
0.000330695 -0.000235043 -0.0005 0.000223602 9.28059e-05 -0.0005 -8.24081e-05 0.000181543 -0.0005 
-7.93229e-05 -0.000178683 -0.0005 -0.000174487 7.88274e-05 -0.0005 9.06107e-05 -0.000168878 -0.0005 
9.31592e-05 0.000169495 -0.0005 -0.000165177 -7.38619e-05 -0.0005 -9.20929e-05 -0.000358769 -0.0005 
9.20929e-05 0.000358769 -0.0005 3.47644e-05 0.000422113 -0.0005 -3.47644e-05 -0.000422113 -0.0005 
-0.00039524 0.000187946 -0.0005 -0.00039524 -0.000187946 -0.0005 -0.00036071 1.92365e-06 -0.0005 
0.000388959 -0.000188051 -0.0005 0.000390003 0.000186364 -0.0005 6.43444e-05 -0.000355671 -0.0005 
-6.37768e-05 0.000356891 -0.0005 2.80563e-05 -0.000283426 -0.0005 -2.80563e-05 0.000283426 -0.0005 
0.000158032 5.64575e-05 -0.0005 4.0579e-05 0.000286843 -0.0005 -4.0579e-05 -0.000286843 -0.0005 
0.000187449 0.000307262 -0.0005 0.000159892 -7.91024e-05 -0.0005 -0.000184905 -0.00030951 -0.0005 
0.000358611 0.000105752 -0.0005 0.000363074 -0.00011688 -0.0005 -0.000325009 0.000251333 -0.0005 
-0.000325009 -0.000251333 -0.0005 -0.000240838 -7.12684e-05 -0.0005 -0.000314691 -0.000147697 -0.0005 
-0.000314417 0.000147824 -0.0005 -0.000404578 0.00024054 -0.0005 -0.000403308 0.000218831 -0.0005 
-0.000404578 -0.00024054 -0.0005 -0.000403308 -0.000218831 -0.0005 0.000191925 -0.0003084 -0.0005 
-0.000260053 0.000200474 -0.0005 -0.000260078 -0.000200417 -0.0005 -2.84262e-05 0.000450764 -0.0005 
2.84262e-05 -0.000450764 -0.0005 -0.000189066 0.000311072 -0.0005 -0.000240999 7.45278e-05 -0.0005 
-0.000278935 4.78174e-06 -0.0005 0.000354779 1.89656e-05 -0.0005 0.000162497 0.000232229 -0.0005 
0.000376671 0.000245397 -0.0005 0.000376841 -0.000245894 -0.0005 0.000157204 -0.000230896 -0.0005 
0.000234792 0.000171119 -0.0005 -0.000151291 -0.000232673 -0.0005 -2.32986e-05 8.92785e-05 -0.0005 
-3.11926e-05 -8.95957e-05 -0.0005 -9.03847e-05 2.2115e-05 -0.0005 9.12302e-05 3.30279e-05 -0.0005 
-0.000152334 0.000235849 -0.0005 0.000239556 -0.000175069 -0.0005 -0.000374753 9.03378e-05 -0.0005 
-0.000376425 -8.91537e-05 -0.0005 4.61669e-05 -4.59906e-05 -0.0005 6.62281e-05 0.000232832 -0.0005 
3.85868e-05 8.10868e-05 -0.0005 -7.69579e-05 -3.79434e-05 -0.0005 0.000127486 -0.000360083 -0.0005 
7.07506e-05 -0.00023716 -0.0005 0.000272535 3.89675e-06 -0.0005 -7.65081e-05 -0.000238638 -0.0005 
0.00014561 0.000112396 -0.0005 -0.000352537 0.000183264 -0.0005 -0.000352576 -0.000183245 -0.0005 
-0.000270615 -0.000285639 -0.0005 -0.000269954 0.000283517 -0.0005 -7.38981e-05 0.000241237 -0.0005 
0.00028245 0.000113194 -0.0005 -0.000128597 0.00035529 -0.0005 0.000277733 0.00021912 -0.0005 
0.000279019 -0.000221334 -0.0005 0.000293419 -0.000117053 -0.0005 -4.98304e-05 4.71675e-05 -0.0005 
-3.82924e-05 0.000144636 -0.0005 -3.82924e-05 -0.000144636 -0.0005 -0.000137965 3.32657e-05 -0.0005 
-0.00012318 0.000133204 -0.0005 -0.000120047 -0.000136339 -0.0005 -0.000206789 -0.00019438 -0.0005 
0.000125599 -0.000122936 -0.0005 -0.000206748 0.000194842 -0.0005 -0.000279599 0.000238032 -0.0005 
-0.000279767 -0.000238283 -0.0005 -0.000195529 0.000130609 -0.0005 -0.000197761 -0.000129013 -0.0005 
2.37414e-05 -7.8735e-05 -0.0005 7.89976e-05 -2.26884e-05 -0.0005 0.000279552 0.000278672 -0.0005 
0.000279873 -0.000279044 -0.0005 4.48012e-06 0.00044547 -0.0005 -4.48012e-06 -0.00044547 -0.0005 
0.000598961 0.000584039 -0.0005 0.000602744 0.00091226 -0.0005 0.000270474 0.000918651 -0.0005 
0.000270149 0.000581615 -0.0005 0.000116826 0.000957462 -0.0005 0.000116826 0.000542538 -0.0005 
0.000429172 0.000958798 -0.0005 0.000232505 0.000755103 -0.0005 0.000636012 0.000747201 -0.0005 
0.000434763 0.00054122 -0.0005 6.87997e-05 0.000964286 -0.0005 6.87997e-05 0.000535714 -0.0005 
0.000745424 0.000920987 -0.0005 0.000734049 0.000583807 -0.0005 0.000425691 0.00039852 -0.0005 
0.000425691 0.00110148 -0.0005 0.000325481 0.00103619 -0.0005 0.00032556 0.000464273 -0.0005 
0.000128192 0.000826998 -0.0005 0.000124428 0.000674743 -0.0005 0.000539639 0.00104484 -0.0005 
0.000539618 0.000454793 -0.0005 0.000520463 0.000653783 -0.0005 0.000521988 0.00084822 -0.0005 
0.000340031 0.000831944 -0.0005 0.00034624 0.000661734 -0.0005 5.85195e-05 0.000997295 -0.0005 
5.85195e-05 0.000502705 -0.0005 0.00020604 0.000996565 -0.0005 0.00020604 0.000503435 -0.0005 
0.000751161 0.00080244 -0.0005 0.00073873 0.000689074 -0.0005 0.000181347 0.000607674 -0.0005 
0.000181347 0.000892326 -0.0005 0.000463745 0.00033906 -0.0005 0.000463745 0.00116094 -0.0005 
0.00066221 0.000996251 -0.0005 0.000655871 0.000515061 -0.0005 0.000455531 0.000883279 -0.0005 
0.0004137 0.000617913 -0.0005 0.000302544 0.000731006 -0.0005 0.000569409 0.000742828 -0.0005 
5.91695e-05 0.000899154 -0.0005 5.91695e-05 0.000600846 -0.0005 0.000666622 0.000847886 -0.0005 
0.000763695 0.000985043 -0.0005 0.000761799 0.000515756 -0.0005 0.000662952 0.000664982 -0.0005 
0.000353677 0.000928683 -0.0005 0.000512323 0.000571317 -0.0005 0.000258513 0.000828827 -0.0005 
0.000526529 0.000920143 -0.0005 0.000348994 0.000575642 -0.0005 0.000269055 0.00067649 -0.0005 
0.000340907 0.000391231 -0.0005 0.000340907 0.00110877 -0.0005 0.000398236 0.00117211 -0.0005 
0.000398236 0.000327887 -0.0005 3.77595e-05 0.000937946 -0.0005 3.77595e-05 0.000562054 -0.0005 
7.22902e-05 0.000751924 -0.0005 0.000821959 0.000938051 -0.0005 0.000823003 0.000563636 -0.0005 
0.000497344 0.00110567 -0.0005 0.000497341 0.000394268 -0.0005 0.000595975 0.000808208 -0.0005 
0.000461056 0.000466574 -0.0005 0.000461056 0.00103343 -0.0005 0.000392421 0.00103684 -0.0005 
0.000392458 0.000463164 -0.0005 0.000248106 0.000440556 -0.0005 0.000248095 0.00105951 -0.0005 
0.000791611 0.000644248 -0.0005 0.000796074 0.00086688 -0.0005 0.000107991 0.00100133 -0.0005 
0.000107991 0.000498667 -0.0005 0.000192237 0.000678753 -0.0005 0.000118309 0.000602303 -0.0005 
0.000118584 0.000897824 -0.0005 2.84222e-05 0.00099054 -0.0005 2.96921e-05 0.000968831 -0.0005 
2.84222e-05 0.00050946 -0.0005 2.96921e-05 0.000531169 -0.0005 0.000584827 0.000674445 -0.0005 
0.000624925 0.0010584 -0.0005 0.000620086 0.000439056 -0.0005 0.000172934 0.000950423 -0.0005 
0.000172922 0.000549583 -0.0005 0.000461426 0.00120076 -0.0005 0.000461426 0.000299236 -0.0005 
0.000192001 0.000824528 -0.0005 0.000154074 0.000754784 -0.0005 0.000787779 0.000731034 -0.0005 
0.000809841 0.000995894 -0.0005 0.000809671 0.000504603 -0.0005 0.000589469 0.00097835 -0.0005 
0.000571747 0.000512487 -0.0005 0.000673596 0.000588147 -0.0005 0.000281249 0.000518091 -0.0005 
0.00028171 0.000982668 -0.0005 0.000409676 0.000839285 -0.0005 0.000465934 0.000658411 -0.0005 
0.000524589 0.000782934 -0.0005 0.000342119 0.000777068 -0.0005 0.000672682 0.000926159 -0.0005 
5.82468e-05 0.000840338 -0.0005 5.65752e-05 0.000660846 -0.0005 0.000386493 0.000703192 -0.0005 
0.000361584 0.000514775 -0.0005 0.000471587 0.000831087 -0.0005 0.000510532 0.000709986 -0.0005 
0.000559513 0.000389323 -0.0005 0.000560486 0.00111008 -0.0005 0.000503751 0.00098716 -0.0005 
0.000707209 0.000747103 -0.0005 0.000356492 0.000988637 -0.0005 8.04633e-05 0.000933264 -0.0005 
8.04241e-05 0.000566755 -0.0005 0.000162386 0.000464369 -0.0005 0.000162385 0.00103564 -0.0005 
0.000578393 0.000862613 -0.0005 0.000503901 0.000509278 -0.0005 0.000714127 0.000640342 -0.0005 
0.000712044 0.000971552 -0.0005 0.000710619 0.000533186 -0.0005 0.000726252 0.00086828 -0.0005 
0.000383065 0.000798159 -0.0005 0.000471292 0.000605364 -0.0005 0.000394708 0.000894636 -0.0005 
0.000295143 0.00078479 -0.0005 0.000311567 0.000884914 -0.0005 0.000544105 0.000613927 -0.0005 
0.000226145 0.000555712 -0.0005 0.000226234 0.0009443 -0.0005 0.000307419 0.000615421 -0.0005 
0.000153235 0.000988284 -0.0005 0.000153233 0.000511718 -0.0005 0.000237647 0.000880726 -0.0005 
0.000238317 0.000620115 -0.0005 0.000410377 0.000668704 -0.0005 0.000352297 0.000726325 -0.0005 
0.000712874 0.00102905 -0.0005 0.000708438 0.00047242 -0.0005 0.00042852 0.00030453 -0.0005 
0.00042852 0.00119547 -0.0005 0.00103283 -0.000159585 -0.0005 0.00103196 0.000165961 -0.0005 
0.00070371 0.000168883 -0.0005 0.000703474 -0.000168651 -0.0005 0.000549826 0.000207462 -0.0005 
0.000549826 -0.000207462 -0.0005 0.000864237 0.00020878 -0.0005 0.000665505 -1.75358e-06 -0.0005 
0.00106402 -6.49099e-06 -0.0005 0.000862172 -0.000208798 -0.0005 0.0005018 0.000214286 -0.0005 
0.0005018 -0.000214286 -0.0005 0.00117842 -0.000170987 -0.0005 0.00116705 0.000166193 -0.0005 
0.000858691 -0.00035148 -0.0005 0.000873309 0.00035148 -0.0005 0.000975232 0.000285545 -0.0005 
0.000758481 -0.000286192 -0.0005 0.000561503 7.6703e-05 -0.0005 0.000555269 -7.65899e-05 -0.0005 
0.000972639 -0.000294843 -0.0005 0.00076107 0.000296588 -0.0005 0.000951061 -8.41794e-05 -0.0005 
0.000954201 9.78925e-05 -0.0005 0.000770216 8.5049e-05 -0.0005 0.000773031 -8.1944e-05 -0.0005 
0.00049152 0.000247295 -0.0005 0.00049152 -0.000247295 -0.0005 0.000639193 0.000247375 -0.0005 
0.00063904 -0.000246565 -0.0005 0.00118416 -5.24395e-05 -0.0005 0.00117173 6.09258e-05 -0.0005 
0.000614347 -0.000142326 -0.0005 0.000614347 0.000142326 -0.0005 0.000896745 -0.00041094 -0.0005 
0.000835255 0.00041094 -0.0005 0.00109521 -0.000246251 -0.0005 0.00109548 0.000241816 -0.0005 
0.000888744 0.000133221 -0.0005 0.000884672 -0.000131409 -0.0005 0.000734511 2.22198e-05 -0.0005 
0.00099603 -1.62999e-05 -0.0005 0.00049217 0.000149154 -0.0005 0.00049217 -0.000149154 -0.0005 
0.00110092 -9.03863e-05 -0.0005 0.0011967 -0.000235043 -0.0005 0.0011948 0.000234244 -0.0005 
0.0010896 9.28059e-05 -0.0005 0.000783591 0.000181545 -0.0005 0.000786677 -0.000178683 -0.0005 
0.000691513 -7.86239e-05 -0.0005 0.000956611 -0.000168878 -0.0005 0.000959159 0.000169495 -0.0005 
0.000700823 7.45132e-05 -0.0005 0.000773907 -0.000358769 -0.0005 0.000958093 0.000358769 -0.0005 
0.000900764 0.000422113 -0.0005 0.000831236 -0.000422113 -0.0005 0.00047076 0.000187946 -0.0005 
0.00047076 -0.000187946 -0.0005 0.000506327 1.20793e-06 -0.0005 0.00125496 -0.000188051 -0.0005 
0.001256 0.000186364 -0.0005 0.000930344 -0.000355671 -0.0005 0.000802223 0.000356891 -0.0005 
0.000894056 -0.000283426 -0.0005 0.000837944 0.000283426 -0.0005 0.00102403 5.64575e-05 -0.0005 
0.000906579 0.000286843 -0.0005 0.000825421 -0.000286843 -0.0005 0.00105345 0.000307262 -0.0005 
0.00102589 -7.91024e-05 -0.0005 0.000681095 -0.00030951 -0.0005 0.00122461 0.000105752 -0.0005 
0.00122907 -0.00011688 -0.0005 0.000540991 0.000251333 -0.0005 0.000540991 -0.000251333 -0.0005 
0.000624479 7.32103e-05 -0.0005 0.000551152 -0.000147794 -0.0005 0.000551606 0.000147802 -0.0005 
0.000461422 0.00024054 -0.0005 0.000462692 0.000218831 -0.0005 0.000461422 -0.00024054 -0.0005 
0.000462692 -0.000218831 -0.0005 0.00105793 -0.0003084 -0.0005 0.000605948 0.000200473 -0.0005 
0.000605915 -0.000200421 -0.0005 0.000894426 -0.000450764 -0.0005 0.000837574 0.000450764 -0.0005 
0.000676934 0.000311072 -0.0005 0.000626182 -7.08972e-05 -0.0005 0.000584992 5.90258e-06 -0.0005 
0.00122078 1.89656e-05 -0.0005 0.0010285 0.000232229 -0.0005 0.00124284 -0.000245894 -0.0005 
0.00124267 0.000245397 -0.0005 0.0010232 -0.000230896 -0.0005 0.00110079 0.000171119 -0.0005 
0.00071471 -0.000232668 -0.0005 0.000834965 9.05283e-05 -0.0005 0.000842673 -8.85226e-05 -0.0005 
0.00095723 3.30279e-05 -0.0005 0.000775615 -2.20485e-05 -0.0005 0.000713665 0.000235853 -0.0005 
0.00110556 -0.000175069 -0.0005 0.000491363 9.025e-05 -0.0005 0.000488571 -8.87482e-05 -0.0005 
0.000912167 -4.59906e-05 -0.0005 0.000932228 0.000232832 -0.0005 0.000904587 8.10868e-05 -0.0005 
0.000789049 3.8011e-05 -0.0005 0.000993486 -0.000360083 -0.0005 0.000936751 -0.00023716 -0.0005 
0.00113854 3.89675e-06 -0.0005 0.000789492 -0.000238637 -0.0005 0.00101161 0.000112396 -0.0005 
0.000513466 0.00018326 -0.0005 0.000513402 -0.000183259 -0.0005 0.000596046 0.000283517 -0.0005 
0.000595385 -0.000285639 -0.0005 0.000792102 0.000241238 -0.0005 0.00114845 0.000113194 -0.0005 
0.000737403 0.00035529 -0.0005 0.00114502 -0.000221334 -0.0005 0.00114373 0.00021912 -0.0005 
0.00115942 -0.000117053 -0.0005 0.000816164 -4.7003e-05 -0.0005 0.000827708 0.000144636 -0.0005 
0.000827708 -0.000144636 -0.0005 0.000728035 -3.243e-05 -0.0005 0.00074578 0.000136564 -0.0005 
0.000744567 -0.000134897 -0.0005 0.000659232 -0.0001943 -0.0005 0.000991599 -0.000122936 -0.0005 
0.00065923 0.000194923 -0.0005 0.000586401 0.000238032 -0.0005 0.000586231 -0.000238284 -0.0005 
0.000670788 -0.000130267 -0.0005 0.000668203 0.000129229 -0.0005 0.000889614 -8.00602e-05 -0.0005 
0.000944998 -2.26884e-05 -0.0005 0.00114587 -0.000279044 -0.0005 0.00114555 0.000278672 -0.0005 
0.00087048 0.00044547 -0.0005 0.00086152 -0.00044547 -0.0005 0.000598961 -0.000915961 -0.0005 
0.000603317 -0.000588209 -0.0005 0.000270723 -0.000581163 -0.0005 0.000270149 -0.000918385 -0.0005 
0.000116826 -0.000542538 -0.0005 0.000116826 -0.000957462 -0.0005 0.000431238 -0.00054122 -0.0005 
0.000232505 -0.000744897 -0.0005 0.000636012 -0.000752799 -0.0005 0.000434763 -0.00095878 -0.0005 
6.87997e-05 -0.000535714 -0.0005 6.87997e-05 -0.000964286 -0.0005 0.000745424 -0.000579013 -0.0005 
0.000734049 -0.000916193 -0.0005 0.000425691 -0.00110148 -0.0005 0.000440309 -0.00039852 -0.0005 
0.000542232 -0.000464455 -0.0005 0.00032556 -0.00103573 -0.0005 0.000128192 -0.000673002 -0.0005 
0.000124428 -0.000825257 -0.0005 0.000539618 -0.00104521 -0.0005 0.00032807 -0.000453412 -0.0005 
0.000520463 -0.000846217 -0.0005 0.000521988 -0.00065178 -0.0005 0.000340031 -0.000668056 -0.0005 
0.00034624 -0.000838266 -0.0005 5.85195e-05 -0.000502705 -0.0005 5.85195e-05 -0.000997295 -0.0005 
0.000206193 -0.000502625 -0.0005 0.00020604 -0.000996565 -0.0005 0.000751161 -0.00069756 -0.0005 
0.00073873 -0.000810926 -0.0005 0.000181347 -0.000892326 -0.0005 0.000181347 -0.000607674 -0.0005 
0.000463745 -0.00116094 -0.0005 0.000402255 -0.00033906 -0.0005 0.000662471 -0.000504287 -0.0005 
0.000655871 -0.000984939 -0.0005 0.000455875 -0.000616724 -0.0005 0.0004137 -0.000882087 -0.0005 
0.000302544 -0.000768994 -0.0005 0.000569409 -0.000757172 -0.0005 5.91695e-05 -0.000600846 -0.0005 
5.91695e-05 -0.000899154 -0.0005 0.000666622 -0.000652114 -0.0005 0.000763695 -0.000514957 -0.0005 
0.000761799 -0.000984244 -0.0005 0.000662952 -0.000835018 -0.0005 0.000350592 -0.000568457 -0.0005 
0.000512323 -0.000928683 -0.0005 0.000258513 -0.000671173 -0.0005 0.000526882 -0.000581015 -0.0005 
0.000348994 -0.000924358 -0.0005 0.000269055 -0.00082351 -0.0005 0.000340907 -0.00110877 -0.0005 
0.000525093 -0.000391231 -0.0005 0.000398236 -0.00117211 -0.0005 0.000467764 -0.000327887 -0.0005 
3.77595e-05 -0.000562054 -0.0005 3.77595e-05 -0.000937946 -0.0005 7.22902e-05 -0.000748076 -0.0005 
0.000821959 -0.000561949 -0.0005 0.000823003 -0.000936364 -0.0005 0.000497341 -0.00110573 -0.0005 
0.000369223 -0.000393109 -0.0005 0.000595975 -0.000691792 -0.0005 0.000461056 -0.00103343 -0.0005 
0.000404944 -0.000466574 -0.0005 0.000473579 -0.000463157 -0.0005 0.000392458 -0.00103684 -0.0005 
0.000620449 -0.000442181 -0.0005 0.000248106 -0.00105944 -0.0005 0.000791611 -0.000855752 -0.0005 
0.000796074 -0.00063312 -0.0005 0.000107991 -0.000498667 -0.0005 0.000107991 -0.00100133 -0.0005 
0.000192237 -0.000821247 -0.0005 0.000118309 -0.000897697 -0.0005 0.000118584 -0.000602176 -0.0005 
2.84222e-05 -0.00050946 -0.0005 2.96921e-05 -0.000531169 -0.0005 2.84222e-05 -0.00099054 -0.0005 
2.96921e-05 -0.000968831 -0.0005 0.000584827 -0.000825555 -0.0005 0.000620086 -0.00106094 -0.0005 
0.000172947 -0.000549526 -0.0005 0.000172922 -0.000950417 -0.0005 0.000461426 -0.00120076 -0.0005 
0.000404574 -0.000299236 -0.0005 0.000243934 -0.000438928 -0.0005 0.000192001 -0.000675472 -0.0005 
0.000154074 -0.000745216 -0.0005 0.000787779 -0.000768966 -0.0005 0.000588723 -0.000523989 -0.0005 
0.000809841 -0.000504106 -0.0005 0.000809671 -0.000995397 -0.0005 0.000571747 -0.000987513 -0.0005 
0.000673596 -0.000911853 -0.0005 0.000281249 -0.000981909 -0.0005 0.000409717 -0.000660715 -0.0005 
0.000465934 -0.000841589 -0.0005 0.000524589 -0.000717066 -0.0005 0.000342119 -0.000722933 -0.0005 
0.000280666 -0.000514151 -0.0005 0.000672694 -0.000574319 -0.0005 5.82468e-05 -0.000659662 -0.0005 
5.65752e-05 -0.000839154 -0.0005 0.000386493 -0.000796808 -0.0005 0.000361584 -0.000985225 -0.0005 
0.000499228 -0.000517168 -0.0005 0.000471587 -0.000668913 -0.0005 0.000510532 -0.000790014 -0.0005 
0.000559513 -0.00111068 -0.0005 0.000707209 -0.000752897 -0.0005 8.04633e-05 -0.000566736 -0.0005 
8.04241e-05 -0.000933245 -0.0005 0.000163046 -0.000466483 -0.0005 0.000162386 -0.00103563 -0.0005 
0.000578393 -0.000637387 -0.0005 0.000503901 -0.000990722 -0.0005 0.000359102 -0.000508763 -0.0005 
0.000714127 -0.000859658 -0.0005 0.000304403 -0.00039471 -0.0005 0.000712099 -0.000528651 -0.0005 
0.000710619 -0.000966814 -0.0005 0.000726254 -0.000631789 -0.0005 0.000383073 -0.000701841 -0.0005 
0.000471292 -0.000894636 -0.0005 0.000394708 -0.000605364 -0.0005 0.000295143 -0.00071521 -0.0005 
0.000544105 -0.000886073 -0.0005 0.00030982 -0.000616796 -0.0005 0.000226145 -0.000944288 -0.0005 
0.000307419 -0.000884579 -0.0005 0.000226252 -0.000555158 -0.0005 0.000153401 -0.000511968 -0.0005 
0.000153233 -0.000988282 -0.0005 0.000237471 -0.000619391 -0.0005 0.000238317 -0.000879885 -0.0005 
0.000410377 -0.000831296 -0.0005 0.000352297 -0.000773675 -0.0005 0.00071621 -0.000470678 -0.0005 
0.000708438 -0.00102758 -0.0005 0.00043748 -0.00030453 -0.0005 0.00042852 -0.00119547 -0.0005 
-0.000266167 -0.000909585 -0.0005 -0.00026339 -0.000582669 -0.0005 -0.000595526 -0.000581349 -0.0005 
-0.000595539 -0.000918697 -0.0005 -0.000749174 -0.000957462 -0.0005 -0.000749174 -0.000542538 -0.0005 
-0.000436828 -0.000541202 -0.0005 -0.000633495 -0.000748246 -0.0005 -0.000234978 -0.000756491 -0.0005 
-0.000436828 -0.000958798 -0.0005 -0.0007972 -0.000964286 -0.0005 -0.0007972 -0.000535714 -0.0005 
-0.000131951 -0.000583807 -0.0005 -0.000120576 -0.000920987 -0.0005 -0.000440309 -0.00110148 -0.0005 
-0.000440309 -0.00039852 -0.0005 -0.000540519 -0.000463808 -0.0005 -0.000540519 -0.00103619 -0.0005 
-0.000737497 -0.000826703 -0.0005 -0.000743731 -0.00067341 -0.0005 -0.000326361 -0.000455157 -0.0005 
-0.000326361 -0.00104484 -0.0005 -0.000347939 -0.000834179 -0.0005 -0.000344799 -0.000652107 -0.0005 
-0.000525969 -0.000668056 -0.0005 -0.000528784 -0.000835049 -0.0005 -0.00080748 -0.000997295 -0.0005 
-0.00080748 -0.000502705 -0.0005 -0.00065996 -0.000996565 -0.0005 -0.00065996 -0.000503435 -0.0005 
-0.000114839 -0.00080244 -0.0005 -0.00012727 -0.000689074 -0.0005 -0.000684653 -0.000892326 -0.0005 
-0.000684653 -0.000607674 -0.0005 -0.000402255 -0.00033906 -0.0005 -0.000402255 -0.00116094 -0.0005 
-0.00020379 -0.000996251 -0.0005 -0.000209694 -0.000514898 -0.0005 -0.000410601 -0.000616776 -0.0005 
-0.000414328 -0.000881409 -0.0005 -0.000564489 -0.00077222 -0.0005 -0.00030297 -0.0007663 -0.0005 
-0.000806831 -0.000899154 -0.0005 -0.000806831 -0.000600846 -0.0005 -0.000198082 -0.000840386 -0.0005 
-0.000104201 -0.000515756 -0.0005 -0.000102305 -0.000985043 -0.0005 -0.000210482 -0.000662469 -0.0005 
-0.000512323 -0.000571317 -0.0005 -0.000512323 -0.000928683 -0.0005 -0.000607487 -0.000671376 -0.0005 
-0.000342389 -0.000918878 -0.0005 -0.000339591 -0.000579218 -0.0005 -0.000598177 -0.000824513 -0.0005 
-0.000525093 -0.00110877 -0.0005 -0.000525093 -0.000391231 -0.0005 -0.000467764 -0.00117211 -0.0005 
-0.000467764 -0.000327887 -0.0005 -0.00082824 -0.000937946 -0.0005 -0.00082824 -0.000562054 -0.0005 
-0.000792673 -0.000751208 -0.0005 -4.40406e-05 -0.000938051 -0.0005 -4.29968e-05 -0.000563636 -0.0005 
-0.000368656 -0.000394329 -0.0005 -0.000368656 -0.00110567 -0.0005 -0.000404944 -0.000466574 -0.0005 
-0.000404944 -0.00103343 -0.0005 -0.000274968 -0.000693542 -0.0005 -0.000473579 -0.000463157 -0.0005 
-0.000473579 -0.00103684 -0.0005 -0.000273108 -0.000829102 -0.0005 -0.000617905 -0.00105951 -0.0005 
-0.000617905 -0.00044049 -0.0005 -7.4389e-05 -0.000644248 -0.0005 -6.99258e-05 -0.00086688 -0.0005 
-0.000758009 -0.00100133 -0.0005 -0.000758009 -0.000498667 -0.0005 -0.000674521 -0.00082321 -0.0005 
-0.000747394 -0.000897802 -0.0005 -0.000747848 -0.000602206 -0.0005 -0.000837578 -0.00099054 -0.0005 
-0.000836308 -0.000968831 -0.0005 -0.000837578 -0.00050946 -0.0005 -0.000836308 -0.000531169 -0.0005 
-0.00024589 -0.000439066 -0.0005 -0.000241075 -0.0010584 -0.0005 -0.000693065 -0.000950422 -0.0005 
-0.000693085 -0.000549579 -0.0005 -0.000404574 -0.00120076 -0.0005 -0.000404574 -0.000299236 -0.0005 
-0.000672818 -0.000679103 -0.0005 -0.000714008 -0.000755903 -0.0005 -7.82213e-05 -0.000731034 -0.0005 
-5.6329e-05 -0.000504603 -0.0005 -5.61586e-05 -0.000995894 -0.0005 -0.000275796 -0.000980896 -0.0005 
-0.000285676 -0.000513219 -0.0005 -0.000186165 -0.000585602 -0.0005 -0.000584291 -0.000982673 -0.0005 
-0.00058429 -0.000517332 -0.0005 -0.00045634 -0.000660721 -0.0005 -0.000464193 -0.000839596 -0.0005 
-0.00034177 -0.000716972 -0.0005 -0.000523385 -0.000727952 -0.0005 -0.000193444 -0.000925069 -0.0005 
-0.000807637 -0.00084025 -0.0005 -0.000810429 -0.000661252 -0.0005 -0.000386833 -0.000795991 -0.0005 
-0.000394413 -0.000668913 -0.0005 -0.000509958 -0.000787971 -0.0005 -0.000305514 -0.00111008 -0.0005 
-0.000306477 -0.00038941 -0.0005 -0.000362249 -0.00098716 -0.0005 -0.00035868 -0.000511074 -0.0005 
-0.000160645 -0.000746982 -0.0005 -0.000509508 -0.000511363 -0.0005 -0.000509508 -0.000988638 -0.0005 
-0.00028739 -0.000637604 -0.0005 -0.000785534 -0.00093326 -0.0005 -0.000785598 -0.000566741 -0.0005 
-0.000703615 -0.00103564 -0.0005 -0.000703615 -0.000464361 -0.0005 -0.000148903 -0.000636616 -0.0005 
-0.00015636 -0.000534148 -0.0005 -0.000153981 -0.000971334 -0.0005 -0.000139581 -0.000867053 -0.0005 
-0.000482839 -0.000702846 -0.0005 -0.000471292 -0.000605364 -0.0005 -0.000471292 -0.000894636 -0.0005 
-0.000570965 -0.00071757 -0.0005 -0.000554433 -0.000615103 -0.0005 -0.000553903 -0.000884892 -0.0005 
-0.000639788 -0.00094438 -0.0005 -0.000639768 -0.0005557 -0.0005 -0.000307401 -0.000872936 -0.0005 
-0.000712765 -0.000988284 -0.0005 -0.000712769 -0.000511716 -0.0005 -0.000628213 -0.000619733 -0.0005 
-0.000630855 -0.000879083 -0.0005 -0.000409259 -0.000828735 -0.0005 -0.000354002 -0.000772688 -0.0005 
-0.000155373 -0.000471972 -0.0005 -0.000153127 -0.00102904 -0.0005 -0.00043748 -0.00030453 -0.0005 
-0.00043748 -0.00119547 -0.0005 -0.000699167 -0.000159585 -0.0005 -0.00102828 0.000168837 -0.0005 
-0.000700039 0.000165961 -0.0005 -0.00102854 -0.000168697 -0.0005 -0.00118217 0.000207462 -0.0005 
-0.00118217 -0.000207462 -0.0005 -0.000867762 0.00020878 -0.0005 -0.00106649 5.10348e-06 -0.0005 
-0.000667978 -6.49099e-06 -0.0005 -0.000869828 -0.000208798 -0.0005 -0.0012302 0.000214286 -0.0005 
-0.0012302 -0.000214286 -0.0005 -0.000564951 0.000166193 -0.0005 -0.000553576 -0.000170987 -0.0005 
-0.000873309 -0.00035148 -0.0005 -0.000858691 0.00035148 -0.0005 -0.000756768 0.000285545 -0.0005 
-0.000973519 -0.000286192 -0.0005 -0.00117081 7.69979e-05 -0.0005 -0.00117457 -7.52569e-05 -0.0005 
-0.000759361 -0.000294843 -0.0005 -0.00097093 0.000296588 -0.0005 -0.000780939 -8.41794e-05 -0.0005 
-0.000958969 8.1944e-05 -0.0005 -0.000777799 9.78925e-05 -0.0005 -0.000961784 -8.5049e-05 -0.0005 
-0.00124048 0.000247295 -0.0005 -0.00124048 -0.000247295 -0.0005 -0.00109281 0.000247375 -0.0005 
-0.00109296 -0.000246565 -0.0005 -0.000547839 -5.24395e-05 -0.0005 -0.00056027 6.09258e-05 -0.0005 
-0.00111765 0.000142326 -0.0005 -0.00111765 -0.000142326 -0.0005 -0.000835255 -0.00041094 -0.0005 
-0.000896745 0.00041094 -0.0005 -0.00063679 -0.000246251 -0.0005 -0.000636522 0.000241816 -0.0005 
-0.000843256 0.000133221 -0.0005 -0.000847328 -0.000131409 -0.0005 -0.000997489 -2.16615e-05 -0.0005 
-0.00073597 -1.62999e-05 -0.0005 -0.00123983 0.000149154 -0.0005 -0.00123983 -0.000149154 -0.0005 
-0.000631082 -9.03863e-05 -0.0005 -0.000535305 -0.000235043 -0.0005 -0.000537201 0.000234244 -0.0005 
-0.000642398 9.28059e-05 -0.0005 -0.000948408 0.000181543 -0.0005 -0.000945323 -0.000178683 -0.0005 
-0.00104049 7.88274e-05 -0.0005 -0.000775389 -0.000168878 -0.0005 -0.000772841 0.000169495 -0.0005 
-0.00103118 -7.38619e-05 -0.0005 -0.000958093 -0.000358769 -0.0005 -0.000773907 0.000358769 -0.0005 
-0.000900764 -0.000422113 -0.0005 -0.000831236 0.000422113 -0.0005 -0.00126124 0.000187946 -0.0005 
-0.00126124 -0.000187946 -0.0005 -0.00122671 1.92365e-06 -0.0005 -0.000477041 -0.000188051 -0.0005 
-0.000475997 0.000186364 -0.0005 -0.000801656 -0.000355671 -0.0005 -0.000929777 0.000356891 -0.0005 
-0.000837944 -0.000283426 -0.0005 -0.000894056 0.000283426 -0.0005 -0.000707968 5.64575e-05 -0.0005 
-0.000825421 0.000286843 -0.0005 -0.000906579 -0.000286843 -0.0005 -0.000678551 0.000307262 -0.0005 
-0.000706108 -7.91024e-05 -0.0005 -0.0010509 -0.00030951 -0.0005 -0.000507389 0.000105752 -0.0005 
-0.000502926 -0.00011688 -0.0005 -0.00119101 0.000251333 -0.0005 -0.00119101 -0.000251333 -0.0005 
-0.00110684 -7.12684e-05 -0.0005 -0.00118042 0.000147824 -0.0005 -0.00118069 -0.000147697 -0.0005 
-0.00127058 0.00024054 -0.0005 -0.00126931 0.000218831 -0.0005 -0.00127058 -0.00024054 -0.0005 
-0.00126931 -0.000218831 -0.0005 -0.000674075 -0.0003084 -0.0005 -0.00112605 0.000200474 -0.0005 
-0.00112608 -0.000200417 -0.0005 -0.000837574 -0.000450764 -0.0005 -0.000894426 0.000450764 -0.0005 
-0.00105507 0.000311072 -0.0005 -0.001107 7.45278e-05 -0.0005 -0.00114494 4.78174e-06 -0.0005 
-0.000511221 1.89656e-05 -0.0005 -0.000703503 0.000232229 -0.0005 -0.000489329 0.000245397 -0.0005 
-0.000489159 -0.000245894 -0.0005 -0.000708796 -0.000230896 -0.0005 -0.000631208 0.000171119 -0.0005 
-0.00101729 -0.000232673 -0.0005 -0.000889299 8.92785e-05 -0.0005 -0.000897193 -8.95957e-05 -0.0005 
-0.00077477 3.30279e-05 -0.0005 -0.000956385 2.2115e-05 -0.0005 -0.00101833 0.000235849 -0.0005 
-0.000626444 -0.000175069 -0.0005 -0.00124075 9.03378e-05 -0.0005 -0.00124242 -8.91537e-05 -0.0005 
-0.000819833 -4.59906e-05 -0.0005 -0.000799772 0.000232832 -0.0005 -0.000827413 8.10868e-05 -0.0005 
-0.000942958 -3.79434e-05 -0.0005 -0.000738514 -0.000360083 -0.0005 -0.000795249 -0.00023716 -0.0005 
-0.000593465 3.89675e-06 -0.0005 -0.000942508 -0.000238638 -0.0005 -0.00072039 0.000112396 -0.0005 
-0.00121854 0.000183264 -0.0005 -0.00121858 -0.000183245 -0.0005 -0.00113595 0.000283517 -0.0005 
-0.00113662 -0.000285639 -0.0005 -0.000939898 0.000241237 -0.0005 -0.00058355 0.000113194 -0.0005 
-0.000994597 0.00035529 -0.0005 -0.000586981 -0.000221334 -0.0005 -0.000588267 0.00021912 -0.0005 
-0.000572581 -0.000117053 -0.0005 -0.00091583 4.71675e-05 -0.0005 -0.000904292 -0.000144636 -0.0005 
-0.000904292 0.000144636 -0.0005 -0.00100396 3.32657e-05 -0.0005 -0.00098918 0.000133204 -0.0005 
-0.000986047 -0.000136339 -0.0005 -0.00107279 -0.00019438 -0.0005 -0.000740401 -0.000122936 -0.0005 
-0.00107275 0.000194842 -0.0005 -0.0011456 0.000238032 -0.0005 -0.00114577 -0.000238283 -0.0005 
-0.00106153 0.000130609 -0.0005 -0.00106376 -0.000129013 -0.0005 -0.000842259 -7.8735e-05 -0.0005 
-0.000787002 -2.26884e-05 -0.0005 -0.000586448 0.000278672 -0.0005 -0.000586127 -0.000279044 -0.0005 
-0.00087048 -0.00044547 -0.0005 -0.00086152 0.00044547 -0.0005 -0.000266167 0.000590415 -0.0005 
-0.000267039 0.000915961 -0.0005 -0.000595277 0.000918837 -0.0005 -0.000595539 0.000581303 -0.0005 
-0.000749174 0.000542538 -0.0005 -0.000749174 0.000957462 -0.0005 -0.000434763 0.00095878 -0.0005 
-0.000633495 0.000751754 -0.0005 -0.000234978 0.000743509 -0.0005 -0.000436828 0.000541202 -0.0005 
-0.0007972 0.000535714 -0.0005 -0.0007972 0.000964286 -0.0005 -0.000131951 0.000916193 -0.0005 
-0.000120576 0.000579013 -0.0005 -0.000440309 0.00039852 -0.0005 -0.000425691 0.00110148 -0.0005 
-0.000323768 0.00103554 -0.0005 -0.000540519 0.000463808 -0.0005 -0.000737497 0.000673297 -0.0005 
-0.000743731 0.00082659 -0.0005 -0.000326361 0.000455157 -0.0005 -0.00053793 0.00104659 -0.0005 
-0.000347939 0.000665821 -0.0005 -0.000344799 0.000847893 -0.0005 -0.000525969 0.000831944 -0.0005 
-0.000528784 0.000664951 -0.0005 -0.00080748 0.000502705 -0.0005 -0.00080748 0.000997295 -0.0005 
-0.00065996 0.000503435 -0.0005 -0.000659807 0.000997375 -0.0005 -0.000114839 0.00069756 -0.0005 
-0.00012727 0.000810926 -0.0005 -0.000684653 0.000607674 -0.0005 -0.000684653 0.000892326 -0.0005 
-0.000402255 0.00033906 -0.0005 -0.000463745 0.00116094 -0.0005 -0.00020379 0.000503749 -0.0005 
-0.000203522 0.000991815 -0.0005 -0.000410256 0.000883221 -0.0005 -0.000414328 0.000618591 -0.0005 
-0.000564489 0.00072778 -0.0005 -0.00030297 0.0007337 -0.0005 -0.000806831 0.000600846 -0.0005 
-0.000806831 0.000899154 -0.0005 -0.000198082 0.000659614 -0.0005 -0.000104201 0.000984244 -0.0005 
-0.000102305 0.000514957 -0.0005 -0.000209398 0.000842806 -0.0005 -0.000515408 0.000931543 -0.0005 
-0.000512323 0.000571317 -0.0005 -0.000607487 0.000828624 -0.0005 -0.000342389 0.000581122 -0.0005 
-0.000339841 0.000919495 -0.0005 -0.000598177 0.000675487 -0.0005 -0.000525093 0.000391231 -0.0005 
-0.000340907 0.00110877 -0.0005 -0.000398236 0.00117211 -0.0005 -0.000467764 0.000327887 -0.0005 
-0.00082824 0.000562054 -0.0005 -0.00082824 0.000937946 -0.0005 -0.000792673 0.000748792 -0.0005 
-4.40406e-05 0.000561949 -0.0005 -4.29968e-05 0.000936364 -0.0005 -0.000368656 0.000394329 -0.0005 
-0.000496777 0.00110689 -0.0005 -0.000404944 0.000466574 -0.0005 -0.000461056 0.00103343 -0.0005 
-0.000274968 0.000806458 -0.0005 -0.000392421 0.00103684 -0.0005 -0.000473579 0.000463157 -0.0005 
-0.000245551 0.00105726 -0.0005 -0.000273108 0.000670898 -0.0005 -0.000617905 0.00044049 -0.0005 
-7.4389e-05 0.000855752 -0.0005 -6.99258e-05 0.00063312 -0.0005 -0.000758009 0.000498667 -0.0005 
-0.000758009 0.00100133 -0.0005 -0.000674521 0.00067679 -0.0005 -0.000747394 0.000602198 -0.0005 
-0.000747848 0.000897794 -0.0005 -0.000837578 0.00050946 -0.0005 -0.000836308 0.000531169 -0.0005 
-0.000837578 0.00099054 -0.0005 -0.000836308 0.000968831 -0.0005 -0.000241075 0.0004416 -0.0005 
-0.000693065 0.000549578 -0.0005 -0.000693072 0.000950473 -0.0005 -0.000404574 0.000299236 -0.0005 
-0.000461426 0.00120076 -0.0005 -0.000622066 0.00106107 -0.0005 -0.000672818 0.000820897 -0.0005 
-0.000714008 0.000744097 -0.0005 -7.82213e-05 0.000768966 -0.0005 -0.000270503 0.000982229 -0.0005 
-5.6329e-05 0.000995397 -0.0005 -5.61586e-05 0.000504106 -0.0005 -0.000275796 0.000519104 -0.0005 
-0.000198208 0.000921119 -0.0005 -0.000584291 0.000517327 -0.0005 -0.000456299 0.000839279 -0.0005 
-0.000464193 0.000660404 -0.0005 -0.00034177 0.000783028 -0.0005 -0.000523385 0.000772048 -0.0005 
-0.000585334 0.000985849 -0.0005 -0.000193444 0.000574931 -0.0005 -0.000807637 0.00065975 -0.0005 
-0.000810429 0.000838748 -0.0005 -0.000386833 0.000704009 -0.0005 -0.000366772 0.000982832 -0.0005 
-0.000394413 0.000831087 -0.0005 -0.000509958 0.000712029 -0.0005 -0.000305514 0.000389917 -0.0005 
-0.000362249 0.00051284 -0.0005 -0.000160465 0.000753897 -0.0005 -0.000509508 0.000511362 -0.0005 
-0.00028739 0.000862396 -0.0005 -0.000785534 0.00056674 -0.0005 -0.000785598 0.000933259 -0.0005 
-0.000703615 0.000464361 -0.0005 -0.000702954 0.00103352 -0.0005 -0.000506898 0.000991237 -0.0005 
-0.00015055 0.000863194 -0.0005 -0.000561597 0.00110529 -0.0005 -0.000153981 0.000528666 -0.0005 
-0.000155267 0.00096912 -0.0005 -0.000139581 0.000632947 -0.0005 -0.00048283 0.000797154 -0.0005 
-0.000471292 0.000894636 -0.0005 -0.000471292 0.000605364 -0.0005 -0.000570965 0.00078243 -0.0005 
-0.00055618 0.00088318 -0.0005 -0.000553903 0.000615108 -0.0005 -0.000639788 0.00055562 -0.0005 
-0.000307401 0.000627064 -0.0005 -0.00063975 0.000944842 -0.0005 -0.000712765 0.000511716 -0.0005 
-0.000712603 0.000988032 -0.0005 -0.000628389 0.00088015 -0.0005 -0.000630855 0.000620917 -0.0005 
-0.000409259 0.000671265 -0.0005 -0.000354002 0.000727312 -0.0005 -0.000153448 0.00102867 -0.0005 
-0.000153127 0.000470956 -0.0005 -0.00042852 0.00119547 -0.0005 -0.00043748 0.00030453 -0.0005 

CELLS 2380 16660
6 649 608 664 1664 1623 1679 
6 570 610 625 1585 1625 1640 
6 571 611 624 1586 1626 1639 
6 603 587 669 1618 1602 1684 
6 564 603 669 1579 1618 1684 
6 610 570 613 1625 1585 1628 
6 611 571 612 1626 1586 1627 
6 600 564 669 1615 1579 1684 
6 586 187 630 1601 384 1645 
6 579 594 608 1594 1609 1623 
6 595 578 607 1610 1593 1622 
6 596 581 609 1611 1596 1624 
6 183 590 619 380 1605 1634 
6 166 591 620 363 1606 1635 
6 572 649 664 1587 1664 1679 
6 572 611 626 1587 1626 1641 
6 590 570 619 1605 1585 1634 
6 591 571 620 1606 1586 1635 
6 633 575 647 1648 1590 1662 
6 594 562 608 1609 1577 1623 
6 565 595 607 1580 1610 1622 
6 563 596 609 1578 1611 1624 
6 557 608 649 1572 1623 1664 
6 564 600 627 1579 1615 1642 
6 557 649 653 1572 1664 1668 
6 654 605 670 1669 1620 1685 
6 586 600 669 1601 1615 1684 
6 594 579 665 1609 1594 1680 
6 587 629 648 1602 1644 1663 
6 581 596 666 1596 1611 1681 
6 570 590 613 1585 1605 1628 
6 571 591 612 1586 1606 1627 
6 189 618 650 386 1633 1665 
6 617 184 651 1632 381 1666 
6 597 564 627 1612 1579 1642 
6 649 593 653 1664 1608 1668 
6 568 601 618 1583 1616 1633 
6 602 569 617 1617 1584 1632 
6 629 186 648 1644 383 1663 
6 559 605 654 1574 1620 1669 
6 600 556 627 1615 1571 1642 
6 187 586 648 384 1601 1663 
6 607 556 652 1622 1571 1667 
6 607 652 668 1622 1667 1683 
6 573 610 628 1588 1625 1643 
6 627 556 689 1642 1571 1704 
6 14 194 665 95 391 1680 
6 195 196 666 392 393 1681 
6 183 619 667 380 1634 1682 
6 196 656 666 393 1671 1681 
6 658 14 665 1673 95 1680 
6 561 566 631 1576 1581 1646 
6 567 560 632 1582 1575 1647 
6 575 616 647 1590 1631 1662 
6 566 561 672 1581 1576 1687 
6 560 567 673 1575 1582 1688 
6 573 654 670 1588 1669 1685 
6 12 185 618 93 382 1633 
6 188 11 617 385 92 1632 
6 635 561 641 1650 1576 1656 
6 560 634 642 1575 1649 1657 
6 578 597 627 1593 1612 1642 
6 8 175 613 89 372 1628 
6 1 190 612 82 387 1627 
6 604 558 659 1619 1573 1674 
6 578 595 695 1593 1610 1710 
6 597 578 696 1612 1593 1711 
6 610 573 625 1625 1588 1640 
6 611 572 624 1626 1587 1639 
6 168 3 636 365 84 1651 
6 6 173 638 87 370 1653 
6 611 191 626 1626 388 1641 
6 575 588 634 1590 1603 1649 
6 589 574 635 1604 1589 1650 
6 593 626 697 1608 1641 1712 
6 166 620 678 363 1635 1693 
6 564 597 623 1579 1612 1638 
6 603 564 623 1618 1579 1638 
6 568 618 629 1583 1633 1644 
6 11 184 617 92 381 1632 
6 189 12 618 386 93 1633 
6 579 608 671 1594 1623 1686 
6 556 600 660 1571 1615 1675 
6 588 575 633 1603 1590 1648 
6 8 613 700 89 1628 1715 
6 1 612 699 82 1627 1714 
6 617 569 630 1632 1584 1645 
6 619 570 621 1634 1585 1636 
6 620 571 622 1635 1586 1637 
6 574 616 661 1589 1631 1676 
6 616 575 662 1631 1590 1677 
6 580 606 686 1595 1621 1701 
6 563 633 647 1578 1648 1662 
6 598 635 661 1613 1650 1676 
6 634 599 662 1649 1614 1677 
6 574 589 646 1589 1604 1661 
6 604 659 676 1619 1674 1691 
6 635 574 661 1650 1589 1676 
6 575 634 662 1590 1649 1677 
6 600 586 681 1615 1601 1696 
6 585 628 674 1600 1643 1689 
6 557 603 671 1572 1618 1686 
6 626 192 697 1641 389 1712 
6 610 176 628 1625 373 1643 
6 563 609 633 1578 1624 1648 
6 569 660 681 1584 1675 1696 
6 587 603 677 1602 1618 1692 
6 608 557 671 1623 1572 1686 
6 603 557 653 1618 1572 1668 
6 622 571 624 1637 1586 1639 
6 621 570 625 1636 1585 1640 
6 606 580 685 1621 1595 1700 
6 640 592 698 1655 1607 1713 
6 558 604 686 1573 1619 1701 
6 605 559 687 1620 1574 1702 
6 660 600 681 1675 1615 1696 
6 187 188 630 384 385 1645 
6 185 186 629 382 383 1644 
6 608 562 664 1623 1577 1679 
6 652 556 660 1667 1571 1675 
6 562 594 683 1577 1609 1698 
6 595 565 684 1610 1580 1699 
6 596 563 685 1611 1578 1700 
6 609 581 687 1624 1596 1702 
6 686 606 693 1701 1621 1708 
6 162 1 699 359 82 1714 
6 179 8 700 376 89 1715 
6 606 563 646 1621 1578 1661 
6 573 628 654 1588 1643 1669 
6 616 574 647 1631 1589 1662 
6 565 607 668 1580 1622 1683 
6 175 176 610 372 373 1625 
6 190 191 611 387 388 1626 
6 645 584 675 1660 1599 1690 
6 628 177 674 1643 374 1689 
6 572 626 649 1587 1641 1664 
6 170 171 616 367 368 1631 
6 609 687 694 1624 1702 1709 
6 181 640 698 378 1655 1713 
6 687 559 694 1702 1574 1709 
6 607 578 689 1622 1593 1704 
6 592 652 660 1607 1667 1675 
6 604 562 683 1619 1577 1698 
6 565 605 684 1580 1620 1699 
6 563 606 685 1578 1621 1700 
6 558 686 693 1573 1701 1708 
6 565 621 625 1580 1636 1640 
6 562 622 624 1577 1637 1639 
6 683 580 686 1698 1595 1701 
6 581 684 687 1596 1699 1702 
6 616 171 661 1631 368 1676 
6 170 616 662 367 1631 1677 
6 628 585 654 1643 1600 1669 
6 182 183 667 379 380 1682 
6 653 593 679 1668 1608 1694 
6 579 623 658 1594 1638 1673 
6 605 565 670 1620 1580 1685 
6 634 560 673 1649 1575 1688 
6 561 635 672 1576 1650 1687 
6 589 635 641 1604 1650 1656 
6 634 588 642 1649 1603 1657 
6 194 655 665 391 1670 1680 
6 657 195 666 1672 392 1681 
6 562 604 676 1577 1619 1691 
6 566 614 637 1581 1629 1652 
6 615 567 639 1630 1582 1654 
6 688 588 694 1703 1603 1709 
6 623 597 658 1638 1612 1673 
6 646 563 647 1661 1578 1662 
6 576 619 621 1591 1634 1636 
6 577 620 622 1592 1635 1637 
6 556 607 689 1571 1622 1704 
6 164 645 675 361 1660 1690 
6 589 690 693 1604 1705 1708 
6 191 192 626 388 389 1641 
6 175 610 613 372 1625 1628 
6 190 611 612 387 1626 1627 
6 584 645 659 1599 1660 1674 
6 626 593 649 1641 1608 1664 
6 603 623 671 1618 1638 1686 
6 176 177 628 373 374 1643 
6 652 576 668 1667 1591 1683 
6 562 624 664 1577 1639 1679 
6 642 588 688 1657 1603 1703 
6 565 625 670 1580 1640 1685 
6 165 166 678 362 363 1693 
6 663 578 695 1678 1593 1710 
6 578 663 696 1593 1678 1711 
6 589 641 690 1604 1656 1705 
6 574 646 647 1589 1661 1662 
6 638 173 639 1653 370 1654 
6 168 636 637 365 1651 1652 
6 645 577 659 1660 1592 1674 
6 618 601 650 1633 1616 1665 
6 602 617 651 1617 1632 1666 
6 587 648 669 1602 1663 1684 
6 181 182 640 378 379 1655 
6 656 581 666 1671 1596 1681 
6 579 658 665 1594 1673 1680 
6 655 580 683 1670 1595 1698 
6 581 656 684 1596 1671 1699 
6 580 657 685 1595 1672 1700 
6 164 165 645 361 362 1660 
6 655 594 665 1670 1609 1680 
6 596 657 666 1611 1672 1681 
6 590 183 644 1605 380 1659 
6 591 166 643 1606 363 1658 
6 568 629 677 1583 1644 1692 
6 186 187 648 383 384 1663 
6 604 683 686 1619 1698 1701 
6 684 605 687 1699 1620 1702 
6 648 586 669 1663 1601 1684 
6 659 577 676 1674 1592 1691 
6 614 566 672 1629 1581 1687 
6 567 615 673 1582 1630 1688 
6 568 653 679 1583 1668 1694 
6 592 640 652 1607 1655 1667 
6 629 587 677 1644 1602 1692 
6 623 579 671 1638 1594 1686 
6 640 576 652 1655 1591 1667 
6 196 14 663 393 95 1678 
6 621 565 668 1636 1580 1683 
6 622 562 676 1637 1577 1691 
6 612 591 699 1627 1606 1714 
6 613 590 700 1628 1605 1715 
6 171 172 661 368 369 1676 
6 169 170 662 366 367 1677 
6 569 602 680 1584 1617 1695 
6 601 568 679 1616 1583 1694 
6 180 602 651 377 1617 1666 
6 601 193 650 1616 390 1665 
6 583 638 639 1598 1653 1654 
6 636 582 637 1651 1597 1652 
6 163 164 675 360 361 1690 
6 177 178 674 374 375 1689 
6 588 633 694 1603 1648 1709 
6 576 621 668 1591 1636 1683 
6 577 622 676 1592 1637 1691 
6 578 627 689 1593 1642 1704 
6 646 589 693 1661 1604 1708 
6 624 572 664 1639 1587 1679 
6 559 688 694 1574 1703 1709 
6 180 181 698 377 378 1713 
6 192 193 697 389 390 1712 
6 690 558 693 1705 1573 1708 
6 630 569 681 1645 1584 1696 
6 9 179 644 90 376 1659 
6 0 162 643 81 359 1658 
6 620 577 678 1635 1592 1693 
6 653 568 677 1668 1583 1692 
6 618 185 629 1633 382 1644 
6 580 655 682 1595 1670 1697 
6 657 580 682 1672 1595 1697 
6 172 598 661 369 1613 1676 
6 599 169 662 1614 366 1677 
6 188 617 630 385 1632 1645 
6 625 573 670 1640 1588 1685 
6 633 609 694 1648 1624 1709 
6 641 561 691 1656 1576 1706 
6 560 642 692 1575 1657 1707 
6 184 10 651 381 91 1666 
6 13 189 650 94 386 1665 
6 577 645 678 1592 1660 1693 
6 603 653 677 1618 1668 1692 
6 599 634 673 1614 1649 1688 
6 635 598 672 1650 1613 1687 
6 619 576 667 1634 1591 1682 
6 640 182 667 1655 379 1682 
6 194 195 682 391 392 1697 
6 193 601 697 390 1616 1712 
6 602 180 698 1617 377 1713 
6 576 640 667 1591 1655 1682 
6 606 646 693 1621 1661 1708 
6 660 569 680 1675 1584 1695 
6 601 679 697 1616 1694 1712 
6 680 602 698 1695 1617 1713 
6 586 630 681 1601 1645 1696 
6 169 599 615 366 1614 1630 
6 598 172 614 1613 369 1629 
6 644 179 700 1659 376 1715 
6 643 162 699 1658 359 1714 
6 656 196 695 1671 393 1710 
6 14 658 696 95 1673 1711 
6 675 584 691 1690 1599 1706 
6 585 674 692 1600 1689 1707 
6 645 165 678 1660 362 1693 
6 655 194 682 1670 391 1697 
6 195 657 682 392 1672 1697 
6 4 168 637 85 365 1652 
6 173 5 639 370 86 1654 
6 592 660 680 1607 1675 1695 
6 659 558 690 1674 1573 1705 
6 584 641 691 1599 1656 1706 
6 642 585 692 1657 1600 1707 
6 584 659 690 1599 1674 1705 
6 559 654 688 1574 1669 1703 
6 594 655 683 1609 1670 1698 
6 656 595 684 1671 1610 1699 
6 657 596 685 1672 1611 1700 
6 654 585 688 1669 1600 1703 
6 595 656 695 1610 1671 1710 
6 658 597 696 1673 1612 1711 
6 631 675 691 1646 1690 1706 
6 674 632 692 1689 1647 1707 
6 561 631 691 1576 1646 1706 
6 632 560 692 1647 1575 1707 
6 196 663 695 393 1678 1710 
6 663 14 696 1678 95 1711 
6 585 642 688 1600 1657 1703 
6 641 584 690 1656 1599 1705 
6 590 644 700 1605 1659 1715 
6 591 643 699 1606 1658 1714 
6 631 163 675 1646 360 1690 
6 178 632 674 375 1647 1689 
6 598 614 672 1613 1629 1687 
6 615 599 673 1630 1614 1688 
6 679 593 697 1694 1608 1712 
6 592 680 698 1607 1695 1713 
6 166 0 643 363 81 1658 
6 172 4 614 369 85 1629 
6 614 4 637 1629 85 1652 
6 5 169 615 86 366 1630 
6 5 615 639 86 1630 1654 
6 183 9 644 380 90 1659 
6 10 180 651 91 377 1666 
6 193 13 650 390 94 1665 
6 2 163 167 83 360 364 
6 3 167 636 84 364 1651 
6 174 6 638 371 87 1653 
6 174 178 7 371 375 88 
6 167 163 582 364 360 1597 
6 582 163 631 1597 360 1646 
6 167 582 636 364 1597 1651 
6 178 174 583 375 371 1598 
6 583 174 638 1598 371 1653 
6 178 583 632 375 1598 1647 
6 566 582 631 1581 1597 1646 
6 582 566 637 1597 1581 1652 
6 583 567 632 1598 1582 1647 
6 567 583 639 1582 1598 1654 
6 715 755 770 1730 1770 1785 
6 756 716 769 1771 1731 1784 
6 732 748 815 1747 1763 1830 
6 748 709 815 1763 1724 1830 
6 755 715 758 1770 1730 1773 
6 716 756 757 1731 1771 1772 
6 709 745 815 1724 1760 1830 
6 216 731 774 413 1746 1789 
6 724 739 752 1739 1754 1767 
6 726 740 753 1741 1755 1768 
6 741 726 754 1756 1741 1769 
6 736 210 764 1751 407 1779 
6 220 735 765 417 1750 1780 
6 738 701 798 1753 1716 1813 
6 716 736 764 1731 1751 1779 
6 735 715 765 1750 1730 1780 
6 777 720 792 1792 1735 1807 
6 739 707 752 1754 1722 1767 
6 740 710 753 1755 1725 1768 
6 708 741 754 1723 1756 1769 
6 799 753 809 1814 1768 1824 
6 749 800 816 1764 1815 1831 
6 745 731 815 1760 1746 1830 
6 739 724 810 1754 1739 1825 
6 773 732 793 1788 1747 1808 
6 715 735 758 1730 1750 1773 
6 736 716 757 1751 1731 1772 
6 214 762 794 411 1777 1809 
6 763 219 795 1778 416 1810 
6 701 738 797 1716 1753 1812 
6 750 701 797 1765 1716 1812 
6 742 709 784 1757 1724 1799 
6 713 746 762 1728 1761 1777 
6 747 714 763 1762 1729 1778 
6 217 773 793 414 1788 1808 
6 749 703 800 1764 1718 1815 
6 731 216 793 1746 413 1808 
6 748 701 784 1763 1716 1799 
6 702 752 796 1717 1767 1811 
6 745 709 766 1760 1724 1781 
6 709 748 784 1724 1763 1799 
6 796 752 814 1811 1767 1829 
6 756 717 772 1771 1732 1787 
6 718 755 771 1733 1770 1786 
6 750 797 822 1765 1812 1837 
6 704 753 799 1719 1768 1814 
6 27 225 810 108 422 1825 
6 227 27 811 424 108 1826 
6 764 210 813 1779 407 1828 
6 220 765 812 417 1780 1827 
6 718 799 809 1733 1814 1824 
6 802 227 811 1817 424 1826 
6 803 27 810 1818 108 1825 
6 705 711 775 1720 1726 1790 
6 712 706 776 1727 1721 1791 
6 720 761 792 1735 1776 1807 
6 711 705 817 1726 1720 1832 
6 706 712 818 1721 1727 1833 
6 800 717 816 1815 1732 1831 
6 23 215 762 104 412 1777 
6 218 24 763 415 105 1778 
6 779 705 787 1794 1720 1802 
6 706 778 788 1721 1793 1803 
6 208 20 757 405 101 1772 
6 13 193 758 94 390 1773 
6 740 726 840 1755 1741 1855 
6 726 741 841 1741 1756 1856 
6 755 718 770 1770 1733 1785 
6 717 756 769 1732 1771 1784 
6 203 18 780 400 99 1795 
6 15 198 782 96 395 1797 
6 702 745 821 1717 1760 1836 
6 720 733 778 1735 1748 1793 
6 734 719 779 1749 1734 1794 
6 763 714 773 1778 1729 1788 
6 709 742 766 1724 1757 1781 
6 24 219 763 105 416 1778 
6 214 23 762 411 104 1777 
6 745 702 805 1760 1717 1820 
6 733 720 777 1748 1735 1792 
6 724 752 821 1739 1767 1836 
6 757 20 845 1772 101 1860 
6 13 758 844 94 1773 1859 
6 713 762 774 1728 1777 1789 
6 765 715 767 1780 1730 1782 
6 716 764 768 1731 1779 1783 
6 719 761 806 1734 1776 1821 
6 761 720 807 1776 1735 1822 
6 725 751 831 1740 1766 1846 
6 708 777 792 1723 1792 1807 
6 778 744 807 1793 1759 1822 
6 743 779 806 1758 1794 1821 
6 719 734 791 1734 1749 1806 
6 779 719 806 1794 1734 1821 
6 720 778 807 1735 1793 1822 
6 731 745 826 1746 1760 1841 
6 784 701 832 1799 1716 1847 
6 730 771 819 1745 1786 1834 
6 772 729 820 1787 1744 1835 
6 207 756 772 404 1771 1787 
6 755 192 771 1770 389 1786 
6 708 754 777 1723 1769 1792 
6 784 723 811 1799 1738 1826 
6 805 713 826 1820 1728 1841 
6 748 732 823 1763 1747 1838 
6 742 784 811 1757 1799 1826 
6 701 748 798 1716 1763 1813 
6 716 768 769 1731 1783 1784 
6 767 715 770 1782 1730 1785 
6 752 702 821 1767 1717 1836 
6 751 725 830 1766 1740 1845 
6 737 785 842 1752 1800 1857 
6 786 738 843 1801 1753 1858 
6 703 749 831 1718 1764 1846 
6 701 750 832 1716 1765 1847 
6 745 805 826 1760 1820 1841 
6 215 216 774 412 413 1789 
6 217 218 773 414 415 1788 
6 753 710 809 1768 1725 1824 
6 702 796 805 1717 1811 1820 
6 707 739 829 1722 1754 1844 
6 710 740 828 1725 1755 1843 
6 741 708 830 1756 1723 1845 
6 831 751 838 1846 1766 1853 
6 224 13 844 421 94 1859 
6 20 209 845 101 406 1860 
6 745 766 821 1760 1781 1836 
6 751 708 791 1766 1723 1806 
6 724 766 803 1739 1781 1818 
6 772 717 800 1787 1732 1815 
6 718 771 799 1733 1786 1814 
6 761 719 792 1776 1734 1807 
6 752 707 814 1767 1722 1829 
6 207 208 756 404 405 1771 
6 193 192 755 390 389 1770 
6 726 753 835 1741 1768 1850 
6 754 726 835 1769 1741 1850 
6 766 742 803 1781 1757 1818 
6 771 191 819 1786 388 1834 
6 206 772 820 403 1787 1835 
6 200 201 761 397 398 1776 
6 785 212 842 1800 409 1857 
6 222 786 843 419 1801 1858 
6 796 737 805 1811 1752 1820 
6 749 707 829 1764 1722 1844 
6 750 710 828 1765 1725 1843 
6 708 751 830 1723 1766 1845 
6 703 831 838 1718 1846 1853 
6 710 767 770 1725 1782 1785 
6 768 707 769 1783 1722 1784 
6 828 723 832 1843 1738 1847 
6 829 725 831 1844 1740 1846 
6 200 761 807 397 1776 1822 
6 761 201 806 1776 398 1821 
6 729 772 800 1744 1787 1815 
6 771 730 799 1786 1745 1814 
6 210 211 813 407 408 1828 
6 221 220 812 418 417 1827 
6 738 798 825 1753 1813 1840 
6 707 749 816 1722 1764 1831 
6 778 706 818 1793 1721 1833 
6 705 779 817 1720 1794 1832 
6 734 834 838 1749 1849 1853 
6 734 779 787 1749 1794 1802 
6 778 733 788 1793 1748 1803 
6 225 801 810 422 1816 1825 
6 753 704 835 1768 1719 1850 
6 27 803 811 108 1818 1826 
6 710 750 822 1725 1765 1837 
6 711 759 781 1726 1774 1796 
6 760 712 783 1775 1727 1798 
6 833 733 839 1848 1748 1854 
6 791 708 792 1806 1723 1807 
6 754 835 839 1769 1850 1854 
6 764 721 768 1779 1736 1783 
6 722 765 767 1737 1780 1782 
6 193 755 758 390 1770 1773 
6 756 208 757 1771 405 1772 
6 192 191 771 389 388 1786 
6 206 207 772 403 404 1787 
6 721 796 814 1736 1811 1829 
6 710 770 809 1725 1785 1824 
6 734 787 834 1749 1802 1849 
6 788 733 833 1803 1748 1848 
6 835 704 839 1850 1719 1854 
6 797 722 822 1812 1737 1837 
6 769 707 816 1784 1722 1831 
6 726 808 840 1741 1823 1855 
6 808 726 841 1823 1741 1856 
6 723 784 832 1738 1799 1847 
6 719 791 792 1734 1806 1807 
6 203 780 781 400 1795 1796 
6 782 198 783 1797 395 1798 
6 762 746 794 1777 1761 1809 
6 747 763 795 1762 1778 1810 
6 793 732 815 1808 1747 1830 
6 222 221 786 419 418 1801 
6 211 212 785 408 409 1800 
6 723 802 811 1738 1817 1826 
6 724 803 810 1739 1818 1825 
6 801 725 829 1816 1740 1844 
6 802 723 828 1817 1738 1843 
6 725 804 830 1740 1819 1845 
6 766 724 821 1781 1739 1836 
6 801 739 810 1816 1754 1825 
6 803 742 811 1818 1757 1826 
6 210 736 789 407 1751 1804 
6 735 220 790 1750 417 1805 
6 773 714 823 1788 1729 1838 
6 216 217 793 413 414 1808 
6 750 828 832 1765 1843 1847 
6 749 829 831 1764 1844 1846 
6 731 793 815 1746 1808 1830 
6 759 711 817 1774 1726 1832 
6 712 760 818 1727 1775 1833 
6 798 714 825 1813 1729 1840 
6 785 737 796 1800 1752 1811 
6 738 786 797 1753 1801 1812 
6 732 773 823 1747 1788 1838 
6 721 785 796 1736 1800 1811 
6 786 722 797 1801 1737 1812 
6 226 227 808 423 424 1823 
6 707 768 814 1722 1783 1829 
6 767 710 822 1782 1725 1837 
6 736 757 845 1751 1772 1860 
6 758 735 844 1773 1750 1859 
6 201 202 806 398 399 1821 
6 199 200 807 396 397 1822 
6 746 713 824 1761 1728 1839 
6 714 747 825 1729 1762 1840 
6 746 213 794 1761 410 1809 
6 223 747 795 420 1762 1810 
6 728 782 783 1743 1797 1798 
6 780 727 781 1795 1742 1796 
6 191 190 819 388 387 1834 
6 205 206 820 402 403 1835 
6 733 777 839 1748 1792 1854 
6 768 721 814 1783 1736 1829 
6 834 703 838 1849 1718 1853 
6 722 767 822 1737 1782 1837 
6 791 734 838 1806 1749 1853 
6 770 718 809 1785 1733 1824 
6 704 833 839 1719 1848 1854 
6 212 213 842 409 410 1857 
6 223 222 843 420 419 1858 
6 713 774 826 1728 1789 1841 
6 209 21 789 406 102 1804 
6 26 224 790 107 421 1805 
6 714 798 823 1729 1813 1838 
6 218 763 773 415 1778 1788 
6 725 801 827 1740 1816 1842 
6 804 725 827 1819 1740 1842 
6 202 743 806 399 1758 1821 
6 744 199 807 1759 396 1822 
6 762 215 774 1777 412 1789 
6 717 769 816 1732 1784 1831 
6 777 754 839 1792 1769 1854 
6 787 705 836 1802 1720 1851 
6 706 788 837 1721 1803 1852 
6 22 214 794 103 411 1809 
6 219 25 795 416 106 1810 
6 798 748 823 1813 1763 1838 
6 744 778 818 1759 1793 1833 
6 779 743 817 1794 1758 1832 
6 765 722 812 1780 1737 1827 
6 721 764 813 1736 1779 1828 
6 211 785 813 408 1800 1828 
6 786 221 812 1801 418 1827 
6 225 226 827 422 423 1842 
6 213 746 842 410 1761 1857 
6 747 223 843 1762 420 1858 
6 785 721 813 1800 1736 1828 
6 722 786 812 1737 1801 1827 
6 751 791 838 1766 1806 1853 
6 713 805 824 1728 1820 1839 
6 746 824 842 1761 1839 1857 
6 825 747 843 1840 1762 1858 
6 774 731 826 1789 1746 1841 
6 743 202 759 1758 399 1774 
6 199 744 760 396 1759 1775 
6 790 224 844 1805 421 1859 
6 209 789 845 406 1804 1860 
6 227 802 840 424 1817 1855 
6 804 226 841 1819 423 1856 
6 730 819 837 1745 1834 1852 
6 820 729 836 1835 1744 1851 
6 801 225 827 1816 422 1842 
6 226 804 827 423 1819 1842 
6 17 203 781 98 400 1796 
6 198 16 783 395 97 1798 
6 805 737 824 1820 1752 1839 
6 788 730 837 1803 1745 1852 
6 729 787 836 1744 1802 1851 
6 704 799 833 1719 1814 1848 
6 800 703 834 1815 1718 1849 
6 739 801 829 1754 1816 1844 
6 740 802 828 1755 1817 1843 
6 804 741 830 1819 1756 1845 
6 799 730 833 1814 1745 1848 
6 729 800 834 1744 1815 1849 
6 802 740 840 1817 1755 1855 
6 741 804 841 1756 1819 1856 
6 775 820 836 1790 1835 1851 
6 819 776 837 1834 1791 1852 
6 705 775 836 1720 1790 1851 
6 776 706 837 1791 1721 1852 
6 808 227 840 1823 424 1855 
6 226 808 841 423 1823 1856 
6 730 788 833 1745 1803 1848 
6 787 729 834 1802 1744 1849 
6 789 736 845 1804 1751 1860 
6 735 790 844 1750 1805 1859 
6 775 205 820 1790 402 1835 
6 190 776 819 387 1791 1834 
6 743 759 817 1758 1774 1832 
6 760 744 818 1775 1759 1833 
6 824 737 842 1839 1752 1857 
6 738 825 843 1753 1840 1858 
6 16 199 760 97 396 1775 
6 16 760 783 97 1775 1798 
6 202 17 759 399 98 1774 
6 759 17 781 1774 98 1796 
6 21 210 789 102 407 1804 
6 213 22 794 410 103 1809 
6 25 223 795 106 420 1810 
6 220 26 790 417 107 1805 
6 1 197 190 82 394 387 
6 197 15 782 394 96 1797 
6 18 204 780 99 401 1795 
6 19 205 204 100 402 401 
6 190 197 728 387 394 1743 
6 190 728 776 387 1743 1791 
6 728 197 782 1743 394 1797 
6 204 205 727 401 402 1742 
6 204 727 780 401 1742 1795 
6 727 205 775 1742 402 1790 
6 711 727 775 1726 1742 1790 
6 727 711 781 1742 1726 1796 
6 728 712 776 1743 1727 1791 
6 712 728 783 1727 1743 1798 
6 939 898 954 1954 1913 1969 
6 860 900 915 1875 1915 1930 
6 861 901 914 1876 1916 1929 
6 893 877 959 1908 1892 1974 
6 854 893 959 1869 1908 1974 
6 900 860 903 1915 1875 1918 
6 901 861 902 1916 1876 1917 
6 890 854 959 1905 1869 1974 
6 876 238 920 1891 435 1935 
6 869 884 898 1884 1899 1913 
6 885 868 897 1900 1883 1912 
6 870 886 899 1885 1901 1914 
6 244 880 909 441 1895 1924 
6 223 881 910 420 1896 1925 
6 862 939 954 1877 1954 1969 
6 862 901 916 1877 1916 1931 
6 880 860 909 1895 1875 1924 
6 881 861 910 1896 1876 1925 
6 936 865 937 1951 1880 1952 
6 884 852 898 1899 1867 1913 
6 855 885 897 1870 1900 1912 
6 886 853 899 1901 1868 1914 
6 847 898 939 1862 1913 1954 
6 854 890 917 1869 1905 1932 
6 847 939 943 1862 1954 1958 
6 944 895 960 1959 1910 1975 
6 876 890 959 1891 1905 1974 
6 884 869 955 1899 1884 1970 
6 877 919 938 1892 1934 1953 
6 886 870 956 1901 1885 1971 
6 860 880 903 1875 1895 1918 
6 861 881 902 1876 1896 1917 
6 907 240 940 1922 437 1955 
6 235 908 941 432 1923 1956 
6 887 854 917 1902 1869 1932 
6 939 883 943 1954 1898 1958 
6 891 858 907 1906 1873 1922 
6 859 892 908 1874 1907 1923 
6 919 237 938 1934 434 1953 
6 849 895 944 1864 1910 1959 
6 890 846 917 1905 1861 1932 
6 238 876 938 435 1891 1953 
6 897 846 942 1912 1861 1957 
6 897 942 958 1912 1957 1973 
6 863 900 918 1878 1915 1933 
6 917 846 979 1932 1861 1994 
6 38 252 955 119 449 1970 
6 252 253 956 449 450 1971 
6 244 909 957 441 1924 1972 
6 945 252 956 1960 449 1971 
6 947 38 955 1962 119 1970 
6 850 856 921 1865 1871 1936 
6 857 851 922 1872 1866 1937 
6 865 906 937 1880 1921 1952 
6 856 850 962 1871 1865 1977 
6 851 857 963 1866 1872 1978 
6 863 944 960 1878 1959 1975 
6 239 32 907 436 113 1922 
6 31 236 908 112 433 1923 
6 925 850 931 1940 1865 1946 
6 851 924 932 1866 1939 1947 
6 868 887 917 1883 1902 1932 
6 29 231 902 110 428 1917 
6 35 249 903 116 446 1918 
6 894 848 949 1909 1863 1964 
6 868 885 985 1883 1900 2000 
6 887 868 986 1902 1883 2001 
6 900 863 915 1915 1878 1930 
6 901 862 914 1916 1877 1929 
6 228 28 926 425 109 1941 
6 37 251 928 118 448 1943 
6 901 232 916 1916 429 1931 
6 865 878 924 1880 1893 1939 
6 879 864 925 1894 1879 1940 
6 883 916 988 1898 1931 2003 
6 223 910 968 420 1925 1983 
6 854 887 913 1869 1902 1928 
6 853 936 937 1868 1951 1952 
6 893 854 913 1908 1869 1928 
6 859 908 919 1874 1923 1934 
6 235 31 908 432 112 1923 
6 32 240 907 113 437 1922 
6 869 898 961 1884 1913 1976 
6 846 890 950 1861 1905 1965 
6 864 879 923 1879 1894 1938 
6 29 902 989 110 1917 2004 
6 35 903 990 116 1918 2005 
6 907 858 920 1922 1873 1935 
6 909 860 911 1924 1875 1926 
6 910 861 912 1925 1876 1927 
6 864 906 951 1879 1921 1966 
6 906 865 952 1921 1880 1967 
6 896 871 977 1911 1886 1992 
6 888 925 951 1903 1940 1966 
6 924 889 952 1939 1904 1967 
6 878 865 936 1893 1880 1951 
6 894 949 966 1909 1964 1981 
6 925 864 951 1940 1879 1966 
6 865 924 952 1880 1939 1967 
6 890 876 971 1905 1891 1986 
6 875 918 965 1890 1933 1980 
6 847 893 961 1862 1908 1976 
6 916 233 988 1931 430 2003 
6 900 248 918 1915 445 1933 
6 899 853 923 1914 1868 1938 
6 858 950 971 1873 1965 1986 
6 877 893 967 1892 1908 1982 
6 898 847 961 1913 1862 1976 
6 893 847 943 1908 1862 1958 
6 912 861 914 1927 1876 1929 
6 911 860 915 1926 1875 1930 
6 871 896 975 1886 1911 1990 
6 930 882 987 1945 1897 2002 
6 848 894 976 1863 1909 1991 
6 895 849 977 1910 1864 1992 
6 950 890 971 1965 1905 1986 
6 238 239 920 435 436 1935 
6 236 237 919 433 434 1934 
6 898 852 954 1913 1867 1969 
6 942 846 950 1957 1861 1965 
6 852 884 973 1867 1899 1988 
6 885 855 974 1900 1870 1989 
6 853 886 975 1868 1901 1990 
6 870 899 976 1885 1914 1991 
6 896 977 983 1911 1992 1998 
6 245 35 990 442 116 2005 
6 230 29 989 427 110 2004 
6 853 896 936 1868 1911 1951 
6 863 918 944 1878 1933 1959 
6 906 864 937 1921 1879 1952 
6 855 897 958 1870 1912 1973 
6 231 232 901 428 429 1916 
6 249 248 900 446 445 1915 
6 935 874 964 1950 1889 1979 
6 918 247 965 1933 444 1980 
6 862 916 939 1877 1931 1954 
6 187 186 906 384 383 1921 
6 976 899 984 1991 1914 1999 
6 242 930 987 439 1945 2002 
6 848 976 984 1863 1991 1999 
6 897 868 979 1912 1883 1994 
6 882 942 950 1897 1957 1965 
6 894 852 973 1909 1867 1988 
6 855 895 974 1870 1910 1989 
6 896 853 975 1911 1868 1990 
6 977 849 983 1992 1864 1998 
6 855 911 915 1870 1926 1930 
6 852 912 914 1867 1927 1929 
6 973 870 976 1988 1885 1991 
6 871 974 977 1886 1989 1992 
6 906 186 951 1921 383 1966 
6 187 906 952 384 1921 1967 
6 918 875 944 1933 1890 1959 
6 243 244 957 440 441 1972 
6 943 883 970 1958 1898 1985 
6 869 913 947 1884 1928 1962 
6 895 855 960 1910 1870 1975 
6 924 851 963 1939 1866 1978 
6 850 925 962 1865 1940 1977 
6 978 878 983 1993 1893 1998 
6 879 925 931 1894 1940 1946 
6 924 878 932 1939 1893 1947 
6 252 945 955 449 1960 1970 
6 253 948 956 450 1963 1971 
6 852 894 966 1867 1909 1981 
6 856 904 927 1871 1919 1942 
6 905 857 929 1920 1872 1944 
6 913 887 947 1928 1902 1962 
6 866 909 911 1881 1924 1926 
6 867 910 912 1882 1925 1927 
6 846 897 979 1861 1912 1994 
6 221 935 964 418 1950 1979 
6 232 233 916 429 430 1931 
6 249 900 903 446 1915 1918 
6 231 901 902 428 1916 1917 
6 874 935 949 1889 1950 1964 
6 916 883 939 1931 1898 1954 
6 879 980 984 1894 1995 1999 
6 893 913 961 1908 1928 1976 
6 923 853 937 1938 1868 1952 
6 248 247 918 445 444 1933 
6 942 866 958 1957 1881 1973 
6 852 914 954 1867 1929 1969 
6 932 878 978 1947 1893 1993 
6 855 915 960 1870 1930 1975 
6 222 223 968 419 420 1983 
6 953 868 985 1968 1883 2000 
6 868 953 986 1883 1968 2001 
6 864 923 937 1879 1938 1952 
6 879 931 980 1894 1946 1995 
6 228 926 927 425 1941 1942 
6 928 251 929 1943 448 1944 
6 935 867 949 1950 1882 1964 
6 891 907 940 1906 1922 1955 
6 908 892 941 1923 1907 1956 
6 877 938 959 1892 1953 1974 
6 242 243 930 439 440 1945 
6 870 945 956 1885 1960 1971 
6 869 947 955 1884 1962 1970 
6 945 870 973 1960 1885 1988 
6 871 946 974 1886 1961 1989 
6 948 871 975 1963 1886 1990 
6 221 222 935 418 419 1950 
6 945 884 955 1960 1899 1970 
6 948 886 956 1963 1901 1971 
6 880 244 933 1895 441 1948 
6 881 223 934 1896 420 1949 
6 859 919 967 1874 1934 1982 
6 237 238 938 434 435 1953 
6 974 895 977 1989 1910 1992 
6 894 973 976 1909 1988 1991 
6 938 876 959 1953 1891 1974 
6 949 867 966 1964 1882 1981 
6 904 856 962 1919 1871 1977 
6 857 905 963 1872 1920 1978 
6 859 943 970 1874 1958 1985 
6 882 930 942 1897 1945 1957 
6 919 877 967 1934 1892 1982 
6 913 869 961 1928 1884 1976 
6 930 866 942 1945 1881 1957 
6 254 38 953 451 119 1968 
6 911 855 958 1926 1870 1973 
6 912 852 966 1927 1867 1981 
6 902 881 989 1917 1896 2004 
6 903 880 990 1918 1895 2005 
6 186 185 951 383 382 1966 
6 188 187 952 385 384 1967 
6 858 891 969 1873 1906 1984 
6 892 859 970 1907 1874 1985 
6 241 891 940 438 1906 1955 
6 892 234 941 1907 431 1956 
6 926 872 927 1941 1887 1942 
6 873 928 929 1888 1943 1944 
6 220 221 964 417 418 1979 
6 247 246 965 444 443 1980 
6 923 879 984 1938 1894 1999 
6 866 911 958 1881 1926 1973 
6 849 978 983 1864 1993 1998 
6 867 912 966 1882 1927 1981 
6 868 917 979 1883 1932 1994 
6 878 936 983 1893 1951 1998 
6 914 862 954 1929 1877 1969 
6 241 242 987 438 439 2002 
6 233 234 988 430 431 2003 
6 920 858 971 1935 1873 1986 
6 34 245 933 115 442 1948 
6 25 230 934 106 427 1949 
6 910 867 968 1925 1882 1983 
6 943 859 967 1958 1874 1982 
6 908 236 919 1923 433 1934 
6 980 848 984 1995 1863 1999 
6 946 871 972 1961 1886 1987 
6 871 948 972 1886 1963 1987 
6 185 888 951 382 1903 1966 
6 889 188 952 1904 385 1967 
6 239 907 920 436 1922 1935 
6 915 863 960 1930 1878 1975 
6 899 923 984 1914 1938 1999 
6 931 850 981 1946 1865 1996 
6 851 932 982 1866 1947 1997 
6 240 33 940 437 114 1955 
6 30 235 941 111 432 1956 
6 867 935 968 1882 1950 1983 
6 893 943 967 1908 1958 1982 
6 889 924 963 1904 1939 1978 
6 925 888 962 1940 1903 1977 
6 909 866 957 1924 1881 1972 
6 930 243 957 1945 440 1972 
6 253 254 972 450 451 1987 
6 891 241 987 1906 438 2002 
6 234 892 988 431 1907 2003 
6 866 930 957 1881 1945 1972 
6 936 896 983 1951 1911 1998 
6 950 858 969 1965 1873 1984 
6 969 891 987 1984 1906 2002 
6 892 970 988 1907 1985 2003 
6 876 920 971 1891 1935 1986 
6 888 185 904 1903 382 1919 
6 188 889 905 385 1904 1920 
6 933 245 990 1948 442 2005 
6 934 230 989 1949 427 2004 
6 946 254 985 1961 451 2000 
6 38 947 986 119 1962 2001 
6 875 965 982 1890 1980 1997 
6 964 874 981 1979 1889 1996 
6 935 222 968 1950 419 1983 
6 254 946 972 451 1961 1987 
6 948 253 972 1963 450 1987 
6 251 11 929 448 92 1944 
6 12 228 927 93 425 1942 
6 882 950 969 1897 1965 1984 
6 949 848 980 1964 1863 1995 
6 932 875 982 1947 1890 1997 
6 874 931 981 1889 1946 1996 
6 874 949 980 1889 1964 1995 
6 849 944 978 1864 1959 1993 
6 884 945 973 1899 1960 1988 
6 946 885 974 1961 1900 1989 
6 886 948 975 1901 1963 1990 
6 944 875 978 1959 1890 1993 
6 885 946 985 1900 1961 2000 
6 947 887 986 1962 1902 2001 
6 921 964 981 1936 1979 1996 
6 965 922 982 1980 1937 1997 
6 850 921 981 1865 1936 1996 
6 922 851 982 1937 1866 1997 
6 254 953 985 451 1968 2000 
6 953 38 986 1968 119 2001 
6 875 932 978 1890 1947 1993 
6 931 874 980 1946 1889 1995 
6 880 933 990 1895 1948 2005 
6 881 934 989 1896 1949 2004 
6 921 220 964 1936 417 1979 
6 246 922 965 443 1937 1980 
6 888 904 962 1903 1919 1977 
6 905 889 963 1920 1904 1978 
6 882 969 987 1897 1984 2002 
6 970 883 988 1985 1898 2003 
6 11 188 905 92 385 1920 
6 11 905 929 92 1920 1944 
6 185 12 904 382 93 1919 
6 904 12 927 1919 93 1942 
6 223 25 934 420 106 1949 
6 234 30 941 431 111 1956 
6 33 241 940 114 438 1955 
6 244 34 933 441 115 1948 
6 26 220 229 107 417 426 
6 28 229 926 109 426 1941 
6 36 250 246 117 447 443 
6 250 37 928 447 118 1943 
6 229 220 872 426 417 1887 
6 872 220 921 1887 417 1936 
6 229 872 926 426 1887 1941 
6 246 250 873 443 447 1888 
6 246 873 922 443 1888 1937 
6 873 250 928 1888 447 1943 
6 856 872 921 1871 1887 1936 
6 872 856 927 1887 1871 1942 
6 873 857 922 1888 1872 1937 
6 857 873 929 1872 1888 1944 
6 1084 1042 1100 2099 2057 2115 
6 1005 1045 1060 2020 2060 2075 
6 1006 1046 1059 2021 2061 2074 
6 1022 1038 1104 2037 2053 2119 
6 1038 999 1104 2053 2014 2119 
6 1045 1005 1047 2060 2020 2062 
6 1046 1006 1048 2061 2021 2063 
6 999 1035 1104 2014 2050 2119 
6 258 1021 1064 455 2036 2079 
6 1014 1029 1042 2029 2044 2057 
6 1016 1030 1043 2031 2045 2058 
6 1031 1016 1044 2046 2031 2059 
6 180 1026 1055 377 2041 2070 
6 265 1025 1054 462 2040 2069 
6 1028 991 1088 2043 2006 2103 
6 1007 1084 1100 2022 2099 2115 
6 1007 1046 1061 2022 2061 2076 
6 1026 1006 1055 2041 2021 2070 
6 1025 1005 1054 2040 2020 2069 
6 1067 1010 1082 2082 2025 2097 
6 1029 997 1042 2044 2012 2057 
6 1030 1000 1043 2045 2015 2058 
6 998 1031 1044 2013 2046 2059 
6 1089 1043 1099 2104 2058 2114 
6 992 1042 1084 2007 2057 2099 
6 1035 1021 1104 2050 2036 2119 
6 1029 1014 1101 2044 2029 2116 
6 1063 1022 1083 2078 2037 2098 
6 1005 1025 1047 2020 2040 2062 
6 1006 1026 1048 2021 2041 2063 
6 256 1052 1085 453 2067 2100 
6 1053 261 1086 2068 458 2101 
6 991 1028 1087 2006 2043 2102 
6 1040 991 1087 2055 2006 2102 
6 1032 999 1074 2047 2014 2089 
6 1003 1036 1052 2018 2051 2067 
6 1037 1004 1053 2052 2019 2068 
6 259 1063 1083 456 2078 2098 
6 1021 258 1083 2036 455 2098 
6 1038 991 1074 2053 2006 2089 
6 1035 999 1056 2050 2014 2071 
6 999 1038 1074 2014 2053 2089 
6 1008 1045 1062 2023 2060 2077 
6 1040 1087 1110 2055 2102 2125 
6 994 1043 1089 2009 2058 2104 
6 49 279 1101 130 476 2116 
6 281 49 1102 478 130 2117 
6 265 1054 1103 462 2069 2118 
6 1008 1089 1099 2023 2104 2114 
6 1091 281 1102 2106 478 2117 
6 1092 49 1101 2107 130 2116 
6 995 1001 1065 2010 2016 2080 
6 1002 996 1066 2017 2011 2081 
6 1010 1051 1082 2025 2066 2097 
6 1001 995 1105 2016 2010 2120 
6 996 1002 1106 2011 2017 2121 
6 39 257 1052 120 454 2067 
6 260 40 1053 457 121 2068 
6 1069 995 1076 2084 2010 2091 
6 996 1068 1077 2011 2083 2092 
6 43 267 1047 124 464 2062 
6 36 246 1048 117 443 2063 
6 1039 993 1094 2054 2008 2109 
6 1030 1016 1130 2045 2031 2145 
6 1016 1031 1131 2031 2046 2146 
6 1045 1008 1060 2060 2023 2075 
6 1046 1007 1059 2061 2022 2074 
6 277 48 1070 474 129 2085 
6 45 272 1072 126 469 2087 
6 992 1035 1109 2007 2050 2124 
6 1046 247 1061 2061 444 2076 
6 1010 1023 1068 2025 2038 2083 
6 1024 1009 1069 2039 2024 2084 
6 1027 1061 1132 2042 2076 2147 
6 180 1055 1113 377 2070 2128 
6 1053 1004 1063 2068 2019 2078 
6 999 1032 1056 2014 2047 2071 
6 40 261 1053 121 458 2068 
6 256 39 1052 453 120 2067 
6 1035 992 1095 2050 2007 2110 
6 1023 1010 1067 2038 2025 2082 
6 1014 1042 1109 2029 2057 2124 
6 36 1048 1134 117 2063 2149 
6 43 1047 1135 124 2062 2150 
6 1003 1052 1064 2018 2067 2079 
6 1054 1005 1057 2069 2020 2072 
6 1055 1006 1058 2070 2021 2073 
6 1051 1010 1097 2066 2025 2112 
6 1009 1051 1096 2024 2066 2111 
6 1015 1041 1122 2030 2056 2137 
6 998 1067 1082 2013 2082 2097 
6 1033 1069 1096 2048 2084 2111 
6 1068 1034 1097 2083 2049 2112 
6 1009 1024 1081 2024 2039 2096 
6 1039 1094 1111 2054 2109 2126 
6 1069 1009 1096 2084 2024 2111 
6 1010 1068 1097 2025 2083 2112 
6 1021 1035 1116 2036 2050 2131 
6 1074 991 1121 2089 2006 2136 
6 1020 1062 1108 2035 2077 2123 
6 1061 248 1132 2076 445 2147 
6 1045 268 1062 2060 465 2077 
6 998 1044 1067 2013 2059 2082 
6 1074 1013 1102 2089 2028 2117 
6 1095 1003 1116 2110 2018 2131 
6 1038 1022 1112 2053 2037 2127 
6 1032 1074 1102 2047 2089 2117 
6 991 1038 1088 2006 2053 2103 
6 1058 1006 1059 2073 2021 2074 
6 1057 1005 1060 2072 2020 2075 
6 1042 992 1109 2057 2007 2124 
6 1041 1015 1120 2056 2030 2135 
6 1075 1028 1133 2090 2043 2148 
6 993 1039 1122 2008 2054 2137 
6 991 1040 1121 2006 2055 2136 
6 1035 1095 1116 2050 2110 2131 
6 257 258 1064 454 455 2079 
6 259 260 1063 456 457 2078 
6 1042 997 1100 2057 2012 2115 
6 1043 1000 1099 2058 2015 2114 
6 997 1029 1119 2012 2044 2134 
6 1000 1030 1118 2015 2045 2133 
6 1031 998 1120 2046 2013 2135 
6 1122 1041 1128 2137 2056 2143 
6 255 36 1134 452 117 2149 
6 266 43 1135 463 124 2150 
6 1035 1056 1109 2050 2071 2124 
6 1041 998 1081 2056 2013 2096 
6 1014 1056 1092 2029 2071 2107 
6 1008 1062 1089 2023 2077 2104 
6 1051 1009 1082 2066 2024 2097 
6 246 247 1046 443 444 2061 
6 267 268 1045 464 465 2060 
6 1016 1043 1124 2031 2058 2139 
6 1044 1016 1124 2059 2031 2139 
6 1080 1019 1107 2095 2034 2122 
6 1056 1032 1092 2071 2047 2107 
6 1062 269 1108 2077 466 2123 
6 1007 1061 1084 2022 2076 2099 
6 275 274 1051 472 471 2066 
6 263 1075 1133 460 2090 2148 
6 992 1084 1095 2007 2099 2110 
6 1039 997 1119 2054 2012 2134 
6 1040 1000 1118 2055 2015 2133 
6 998 1041 1120 2013 2056 2135 
6 993 1122 1128 2008 2137 2143 
6 1000 1057 1060 2015 2072 2075 
6 997 1058 1059 2012 2073 2074 
6 1119 1015 1122 2134 2030 2137 
6 1118 1013 1121 2133 2028 2136 
6 275 1051 1097 472 2066 2112 
6 1051 274 1096 2066 471 2111 
6 1062 1020 1089 2077 2035 2104 
6 264 265 1103 461 462 2118 
6 1028 1088 1115 2043 2103 2130 
6 1068 996 1106 2083 2011 2121 
6 995 1069 1105 2010 2084 2120 
6 1024 1069 1076 2039 2084 2091 
6 1068 1023 1077 2083 2038 2092 
6 279 1090 1101 476 2105 2116 
6 1043 994 1124 2058 2009 2139 
6 49 1092 1102 130 2107 2117 
6 1084 1027 1095 2099 2042 2110 
6 997 1039 1111 2012 2054 2126 
6 1000 1040 1110 2015 2055 2125 
6 1001 1049 1071 2016 2064 2086 
6 1050 1002 1073 2065 2017 2088 
6 1123 1023 1129 2138 2038 2144 
6 1081 998 1082 2096 2013 2097 
6 1044 1124 1129 2059 2139 2144 
6 1011 1054 1057 2026 2069 2072 
6 1012 1055 1058 2027 2070 2073 
6 182 1080 1107 379 2095 2122 
6 1024 1125 1128 2039 2140 2143 
6 247 248 1061 444 445 2076 
6 267 1045 1047 464 2060 2062 
6 246 1046 1048 443 2061 2063 
6 1019 1080 1094 2034 2095 2109 
6 1061 1027 1084 2076 2042 2099 
6 268 269 1062 465 466 2077 
6 1000 1060 1099 2015 2075 2114 
6 997 1059 1100 2012 2074 2115 
6 1077 1023 1123 2092 2038 2138 
6 1124 994 1129 2139 2009 2144 
6 1087 1011 1110 2102 2026 2125 
6 181 180 1113 378 377 2128 
6 1016 1098 1130 2031 2113 2145 
6 1098 1016 1131 2113 2031 2146 
6 1013 1074 1121 2028 2089 2136 
6 1024 1076 1125 2039 2091 2140 
6 1009 1081 1082 2024 2096 2097 
6 1072 272 1073 2087 469 2088 
6 277 1070 1071 474 2085 2086 
6 1080 1012 1094 2095 2027 2109 
6 1052 1036 1085 2067 2051 2100 
6 1037 1053 1086 2052 2068 2101 
6 1083 1022 1104 2098 2037 2119 
6 263 264 1075 460 461 2090 
6 1013 1091 1102 2028 2106 2117 
6 1014 1092 1101 2029 2107 2116 
6 1090 1015 1119 2105 2030 2134 
6 1091 1013 1118 2106 2028 2133 
6 1015 1093 1120 2030 2108 2135 
6 1056 1014 1109 2071 2029 2124 
6 182 181 1080 379 378 2095 
6 1090 1029 1101 2105 2044 2116 
6 1092 1032 1102 2107 2047 2117 
6 1025 265 1078 2040 462 2093 
6 1026 180 1079 2041 377 2094 
6 1063 1004 1112 2078 2019 2127 
6 258 259 1083 455 456 2098 
6 1040 1118 1121 2055 2133 2136 
6 1039 1119 1122 2054 2134 2137 
6 1021 1083 1104 2036 2098 2119 
6 1094 1012 1111 2109 2027 2126 
6 1049 1001 1105 2064 2016 2120 
6 1002 1050 1106 2017 2065 2121 
6 1088 1004 1115 2103 2019 2130 
6 1028 1075 1087 2043 2090 2102 
6 1022 1063 1112 2037 2078 2127 
6 1075 1011 1087 2090 2026 2102 
6 280 281 1098 477 478 2113 
6 1058 997 1111 2073 2012 2126 
6 1057 1000 1110 2072 2015 2125 
6 1047 1025 1135 2062 2040 2150 
6 1048 1026 1134 2063 2041 2149 
6 274 273 1096 471 470 2111 
6 276 275 1097 473 472 2112 
6 1036 1003 1114 2051 2018 2129 
6 1004 1037 1115 2019 2052 2130 
6 1036 249 1085 2051 446 2100 
6 262 1037 1086 459 2052 2101 
6 1070 1017 1071 2085 2032 2086 
6 1018 1072 1073 2033 2087 2088 
6 183 182 1107 380 379 2122 
6 269 270 1108 466 467 2123 
6 1023 1067 1129 2038 2082 2144 
6 1011 1057 1110 2026 2072 2125 
6 1012 1058 1111 2027 2073 2126 
6 1081 1024 1128 2096 2039 2143 
6 1059 1007 1100 2074 2022 2115 
6 1060 1008 1099 2075 2023 2114 
6 994 1123 1129 2009 2138 2144 
6 248 249 1132 445 446 2147 
6 262 263 1133 459 460 2148 
6 1125 993 1128 2140 2008 2143 
6 1003 1064 1116 2018 2079 2131 
6 42 266 1078 123 463 2093 
6 10 255 1079 91 452 2094 
6 1055 1012 1113 2070 2027 2128 
6 1004 1088 1112 2019 2103 2127 
6 260 1053 1063 457 2068 2078 
6 1015 1090 1117 2030 2105 2132 
6 1093 1015 1117 2108 2030 2132 
6 273 1033 1096 470 2048 2111 
6 1034 276 1097 2049 473 2112 
6 1052 257 1064 2067 454 2079 
6 1067 1044 1129 2082 2059 2144 
6 1076 995 1126 2091 2010 2141 
6 996 1077 1127 2011 2092 2142 
6 35 256 1085 116 453 2100 
6 261 41 1086 458 122 2101 
6 1012 1080 1113 2027 2095 2128 
6 1088 1038 1112 2103 2053 2127 
6 1034 1068 1106 2049 2083 2121 
6 1069 1033 1105 2084 2048 2120 
6 1054 1011 1103 2069 2026 2118 
6 1075 264 1103 2090 461 2118 
6 279 280 1117 476 477 2132 
6 249 1036 1132 446 2051 2147 
6 1037 262 1133 2052 459 2148 
6 1011 1075 1103 2026 2090 2118 
6 1041 1081 1128 2056 2096 2143 
6 1003 1095 1114 2018 2110 2129 
6 1036 1114 1132 2051 2129 2147 
6 1115 1037 1133 2130 2052 2148 
6 1064 1021 1116 2079 2036 2131 
6 276 1034 1050 473 2049 2065 
6 1033 273 1049 2048 470 2064 
6 1078 266 1135 2093 463 2150 
6 1079 255 1134 2094 452 2149 
6 281 1091 1130 478 2106 2145 
6 1093 280 1131 2108 477 2146 
6 1107 1019 1126 2122 2034 2141 
6 1020 1108 1127 2035 2123 2142 
6 1080 181 1113 2095 378 2128 
6 1090 279 1117 2105 476 2132 
6 280 1093 1117 477 2108 2132 
6 272 46 1073 469 127 2088 
6 47 277 1071 128 474 2086 
6 1095 1027 1114 2110 2042 2129 
6 1094 993 1125 2109 2008 2140 
6 1019 1076 1126 2034 2091 2141 
6 1077 1020 1127 2092 2035 2142 
6 1019 1094 1125 2034 2109 2140 
6 994 1089 1123 2009 2104 2138 
6 1030 1091 1118 2045 2106 2133 
6 1029 1090 1119 2044 2105 2134 
6 1093 1031 1120 2108 2046 2135 
6 1089 1020 1123 2104 2035 2138 
6 1091 1030 1130 2106 2045 2145 
6 1031 1093 1131 2046 2108 2146 
6 1065 1107 1126 2080 2122 2141 
6 1108 1066 1127 2123 2081 2142 
6 995 1065 1126 2010 2080 2141 
6 1066 996 1127 2081 2011 2142 
6 1098 281 1130 2113 478 2145 
6 280 1098 1131 477 2113 2146 
6 1020 1077 1123 2035 2092 2138 
6 1076 1019 1125 2091 2034 2140 
6 1025 1078 1135 2040 2093 2150 
6 1026 1079 1134 2041 2094 2149 
6 1065 183 1107 2080 380 2122 
6 270 1066 1108 467 2081 2123 
6 1033 1049 1105 2048 2064 2120 
6 1050 1034 1106 2065 2049 2121 
6 1114 1027 1132 2129 2042 2147 
6 1028 1115 1133 2043 2130 2148 
6 180 10 1079 377 91 2094 
6 249 35 1085 446 116 2100 
6 41 262 1086 122 459 2101 
6 265 42 1078 462 123 2093 
6 46 276 1050 127 473 2065 
6 46 1050 1073 127 2065 2088 
6 273 47 1049 470 128 2064 
6 1049 47 1071 2064 128 2086 
6 9 183 278 90 380 475 
6 44 271 270 125 468 467 
6 271 45 1072 468 126 2087 
6 48 278 1070 129 475 2085 
6 278 183 1017 475 380 2032 
6 1017 183 1065 2032 380 2080 
6 270 271 1018 467 468 2033 
6 270 1018 1066 467 2033 2081 
6 1018 271 1072 2033 468 2087 
6 278 1017 1070 475 2032 2085 
6 1001 1017 1065 2016 2032 2080 
6 1017 1001 1071 2032 2016 2086 
6 1018 1002 1066 2033 2017 2081 
6 1002 1018 1073 2017 2033 2088 
6 1150 1190 1205 2165 2205 2220 
6 1191 1151 1204 2206 2166 2219 
6 1183 1167 1250 2198 2182 2265 
6 1144 1183 1250 2159 2198 2265 
6 1190 1150 1192 2205 2165 2207 
6 1151 1191 1193 2166 2206 2208 
6 1180 1144 1250 2195 2159 2265 
6 1166 275 1210 2181 472 2225 
6 1175 1158 1187 2190 2173 2202 
6 1159 1174 1188 2174 2189 2203 
6 1176 1161 1189 2191 2176 2204 
6 1170 178 1199 2185 375 2214 
6 287 1171 1200 484 2186 2215 
6 1137 1173 1233 2152 2188 2248 
6 1151 1170 1199 2166 2185 2214 
6 1171 1150 1200 2186 2165 2215 
6 1155 1226 1227 2170 2241 2242 
6 1174 1142 1188 2189 2157 2203 
6 1145 1175 1187 2160 2190 2202 
6 1143 1176 1189 2158 2191 2204 
6 1144 1180 1206 2159 2195 2221 
6 1234 1185 1252 2249 2200 2267 
6 1184 1235 1251 2199 2250 2266 
6 1166 1180 1250 2181 2195 2265 
6 1174 1159 1244 2189 2174 2259 
6 1167 1209 1228 2182 2224 2243 
6 1161 1176 1245 2176 2191 2260 
6 1150 1171 1192 2165 2186 2207 
6 1170 1151 1193 2185 2166 2208 
6 1197 283 1230 2212 480 2245 
6 282 1198 1229 479 2213 2244 
6 1177 1144 1206 2192 2159 2221 
6 1173 1137 1232 2188 2152 2247 
6 1148 1181 1198 2163 2196 2213 
6 1182 1149 1197 2197 2164 2212 
6 1209 274 1228 2224 471 2243 
6 1139 1185 1234 2154 2200 2249 
6 1184 1138 1235 2199 2153 2250 
6 1180 1136 1206 2195 2151 2221 
6 275 1166 1228 472 2181 2243 
6 1137 1188 1232 2152 2203 2247 
6 1187 1136 1231 2202 2151 2246 
6 1232 1188 1249 2247 2203 2264 
6 1187 1231 1248 2202 2246 2263 
6 1191 1152 1208 2206 2167 2223 
6 1153 1190 1207 2168 2205 2222 
6 1206 1136 1270 2221 2151 2285 
6 60 306 1244 141 503 2259 
6 307 308 1245 504 505 2260 
6 1199 178 1247 2214 375 2262 
6 287 1200 1246 484 2215 2261 
6 308 1237 1245 505 2252 2260 
6 1238 60 1244 2253 141 2259 
6 1146 1140 1211 2161 2155 2226 
6 1141 1147 1212 2156 2162 2227 
6 1196 1155 1227 2211 2170 2242 
6 1140 1146 1254 2155 2161 2269 
6 1147 1141 1255 2162 2156 2270 
6 1153 1234 1252 2168 2249 2267 
6 1235 1152 1251 2250 2167 2266 
6 47 273 1198 128 470 2213 
6 276 46 1197 473 127 2212 
6 1140 1214 1222 2155 2229 2237 
6 1215 1141 1223 2230 2156 2238 
6 1158 1177 1206 2173 2192 2221 
6 52 289 1192 133 486 2207 
6 301 59 1193 498 140 2208 
6 1158 1175 1275 2173 2190 2290 
6 1177 1158 1276 2192 2173 2291 
6 1190 1153 1205 2205 2168 2220 
6 1152 1191 1204 2167 2206 2219 
6 54 294 1216 135 491 2231 
6 299 57 1218 496 138 2233 
6 1154 1168 1214 2169 2183 2229 
6 1169 1155 1215 2184 2170 2230 
6 1144 1177 1203 2159 2192 2218 
6 1226 1143 1227 2241 2158 2242 
6 1183 1144 1203 2198 2159 2218 
6 1148 1198 1209 2163 2213 2224 
6 46 283 1197 127 480 2212 
6 282 47 1198 479 128 2213 
6 1159 1188 1253 2174 2203 2268 
6 1136 1180 1240 2151 2195 2255 
6 1168 1154 1213 2183 2169 2228 
6 1193 59 1279 2208 140 2294 
6 52 1192 1280 133 2207 2295 
6 1197 1149 1210 2212 2164 2225 
6 1151 1199 1201 2166 2214 2216 
6 1200 1150 1202 2215 2165 2217 
6 1196 1154 1241 2211 2169 2256 
6 1155 1196 1242 2170 2211 2257 
6 1160 1186 1266 2175 2201 2281 
6 1214 1178 1241 2229 2193 2256 
6 1179 1215 1242 2194 2230 2257 
6 1155 1169 1226 2170 2184 2241 
6 1154 1214 1241 2169 2229 2256 
6 1215 1155 1242 2230 2170 2257 
6 1180 1166 1261 2195 2181 2276 
6 1164 1207 1256 2179 2222 2271 
6 1208 1165 1257 2223 2180 2272 
6 1137 1183 1253 2152 2198 2268 
6 302 1191 1208 499 2206 2223 
6 1190 290 1207 2205 487 2222 
6 1143 1189 1213 2158 2204 2228 
6 1149 1240 1261 2164 2255 2276 
6 1167 1183 1258 2182 2198 2273 
6 1188 1137 1253 2203 2152 2268 
6 1183 1137 1233 2198 2152 2248 
6 1151 1201 1204 2166 2216 2219 
6 1202 1150 1205 2217 2165 2220 
6 1186 1160 1265 2201 2175 2280 
6 1221 1172 1278 2236 2187 2293 
6 1173 1220 1277 2188 2235 2292 
6 1138 1184 1266 2153 2199 2281 
6 1185 1139 1267 2200 2154 2282 
6 1240 1180 1261 2255 2195 2276 
6 275 276 1210 472 473 2225 
6 273 274 1209 470 471 2224 
6 1231 1136 1240 2246 2151 2255 
6 1142 1174 1263 2157 2189 2278 
6 1175 1145 1264 2190 2160 2279 
6 1176 1143 1265 2191 2158 2280 
6 1189 1161 1267 2204 2176 2282 
6 1266 1186 1273 2281 2201 2288 
6 59 305 1279 140 502 2294 
6 288 52 1280 485 133 2295 
6 1186 1143 1226 2201 2158 2241 
6 1153 1207 1234 2168 2222 2249 
6 1208 1152 1235 2223 2167 2250 
6 1154 1196 1227 2169 2211 2242 
6 1188 1142 1249 2203 2157 2264 
6 1145 1187 1248 2160 2202 2263 
6 289 290 1190 486 487 2205 
6 302 301 1191 499 498 2206 
6 1207 291 1256 2222 488 2271 
6 303 1208 1257 500 2223 2272 
6 296 297 1196 493 494 2211 
6 1189 1267 1274 2204 2282 2289 
6 1220 176 1277 2235 373 2292 
6 285 1221 1278 482 2236 2293 
6 1267 1139 1274 2282 2154 2289 
6 1187 1158 1270 2202 2173 2285 
6 1172 1231 1240 2187 2246 2255 
6 1184 1142 1263 2199 2157 2278 
6 1145 1185 1264 2160 2200 2279 
6 1143 1186 1265 2158 2201 2280 
6 1138 1266 1273 2153 2281 2288 
6 1145 1202 1205 2160 2217 2220 
6 1201 1142 1204 2216 2157 2219 
6 1263 1160 1266 2278 2175 2281 
6 1161 1264 1267 2176 2279 2282 
6 296 1196 1241 493 2211 2256 
6 1196 297 1242 2211 494 2257 
6 1207 1164 1234 2222 2179 2249 
6 1165 1208 1235 2180 2223 2250 
6 178 177 1247 375 374 2262 
6 286 287 1246 483 484 2261 
6 1233 1173 1259 2248 2188 2274 
6 1159 1203 1238 2174 2218 2253 
6 1142 1184 1251 2157 2199 2266 
6 1185 1145 1252 2200 2160 2267 
6 1214 1140 1254 2229 2155 2269 
6 1141 1215 1255 2156 2230 2270 
6 1169 1269 1273 2184 2284 2288 
6 1214 1168 1222 2229 2183 2237 
6 1169 1215 1223 2184 2230 2238 
6 306 1236 1244 503 2251 2259 
6 1239 307 1245 2254 504 2260 
6 1194 1146 1217 2209 2161 2232 
6 1147 1195 1219 2162 2210 2234 
6 1268 1168 1274 2283 2183 2289 
6 1203 1177 1238 2218 2192 2253 
6 1199 1156 1201 2214 2171 2216 
6 1157 1200 1202 2172 2215 2217 
6 1136 1187 1270 2151 2202 2285 
6 289 1190 1192 486 2205 2207 
6 1191 301 1193 2206 498 2208 
6 1183 1203 1253 2198 2218 2268 
6 1143 1213 1227 2158 2228 2242 
6 290 291 1207 487 488 2222 
6 303 302 1208 500 499 2223 
6 1156 1232 1249 2171 2247 2264 
6 1231 1157 1248 2246 2172 2263 
6 1222 1168 1268 2237 2183 2283 
6 1169 1223 1269 2184 2238 2284 
6 1145 1205 1252 2160 2220 2267 
6 1204 1142 1251 2219 2157 2266 
6 1243 1158 1275 2258 2173 2290 
6 1158 1243 1276 2173 2258 2291 
6 1213 1154 1227 2228 2169 2242 
6 1216 294 1217 2231 491 2232 
6 299 1218 1219 496 2233 2234 
6 1182 1197 1230 2197 2212 2245 
6 1198 1181 1229 2213 2196 2244 
6 1167 1228 1250 2182 2243 2265 
6 177 176 1220 374 373 2235 
6 285 286 1221 482 483 2236 
6 1237 1161 1245 2252 2176 2260 
6 1159 1238 1244 2174 2253 2259 
6 1236 1160 1263 2251 2175 2278 
6 1161 1237 1264 2176 2252 2279 
6 1160 1239 1265 2175 2254 2280 
6 1236 1174 1244 2251 2189 2259 
6 1176 1239 1245 2191 2254 2260 
6 1171 287 1224 2186 484 2239 
6 178 1170 1225 375 2185 2240 
6 1148 1209 1258 2163 2224 2273 
6 274 275 1228 471 472 2243 
6 1184 1263 1266 2199 2278 2281 
6 1264 1185 1267 2279 2200 2282 
6 1228 1166 1250 2243 2181 2265 
6 1146 1194 1254 2161 2209 2269 
6 1195 1147 1255 2210 2162 2270 
6 1148 1233 1259 2163 2248 2274 
6 1172 1221 1231 2187 2236 2246 
6 1220 1173 1232 2235 2188 2247 
6 1209 1167 1258 2224 2182 2273 
6 1203 1159 1253 2218 2174 2268 
6 1221 1157 1231 2236 2172 2246 
6 1156 1220 1232 2171 2235 2247 
6 308 60 1243 505 141 2258 
6 1202 1145 1248 2217 2160 2263 
6 1142 1201 1249 2157 2216 2264 
6 1192 1171 1280 2207 2186 2295 
6 1170 1193 1279 2185 2208 2294 
6 295 296 1241 492 493 2256 
6 297 298 1242 494 495 2257 
6 1181 1148 1259 2196 2163 2274 
6 1149 1182 1260 2164 2197 2275 
6 1181 175 1229 2196 372 2244 
6 284 1182 1230 481 2197 2245 
6 1162 1216 1217 2177 2231 2232 
6 1218 1163 1219 2233 2178 2234 
6 291 292 1256 488 489 2271 
6 304 303 1257 501 500 2272 
6 1168 1213 1274 2183 2228 2289 
6 1201 1156 1249 2216 2171 2264 
6 1157 1202 1248 2172 2217 2263 
6 1269 1138 1273 2284 2153 2288 
6 1158 1206 1270 2173 2221 2285 
6 1226 1169 1273 2241 2184 2288 
6 1139 1268 1274 2154 2283 2289 
6 284 285 1278 481 482 2293 
6 176 175 1277 373 372 2292 
6 1210 1149 1261 2225 2164 2276 
6 51 288 1224 132 485 2239 
6 305 7 1225 502 88 2240 
6 1233 1148 1258 2248 2163 2273 
6 1198 273 1209 2213 470 2224 
6 1160 1236 1262 2175 2251 2277 
6 1239 1160 1262 2254 2175 2277 
6 1178 295 1241 2193 492 2256 
6 298 1179 1242 495 2194 2257 
6 276 1197 1210 473 2212 2225 
6 1152 1204 1251 2167 2219 2266 
6 1205 1153 1252 2220 2168 2267 
6 1213 1189 1274 2228 2204 2289 
6 1140 1222 1271 2155 2237 2286 
6 1223 1141 1272 2238 2156 2287 
6 8 282 1229 89 479 2244 
6 283 50 1230 480 131 2245 
6 1183 1233 1258 2198 2248 2273 
6 1178 1214 1254 2193 2229 2269 
6 1215 1179 1255 2230 2194 2270 
6 1200 1157 1246 2215 2172 2261 
6 1156 1199 1247 2171 2214 2262 
6 177 1220 1247 374 2235 2262 
6 1221 286 1246 2236 483 2261 
6 306 307 1262 503 504 2277 
6 175 1181 1277 372 2196 2292 
6 1182 284 1278 2197 481 2293 
6 1157 1221 1246 2172 2236 2261 
6 1220 1156 1247 2235 2171 2262 
6 1186 1226 1273 2201 2241 2288 
6 1240 1149 1260 2255 2164 2275 
6 1181 1259 1277 2196 2274 2292 
6 1260 1182 1278 2275 2197 2293 
6 1166 1210 1261 2181 2225 2276 
6 295 1178 1194 492 2193 2209 
6 1179 298 1195 2194 495 2210 
6 1224 288 1280 2239 485 2295 
6 305 1225 1279 502 2240 2294 
6 1237 308 1275 2252 505 2290 
6 60 1238 1276 141 2253 2291 
6 1164 1256 1271 2179 2271 2286 
6 1257 1165 1272 2272 2180 2287 
6 1236 306 1262 2251 503 2277 
6 307 1239 1262 504 2254 2277 
6 56 299 1219 137 496 2234 
6 294 55 1217 491 136 2232 
6 1172 1240 1260 2187 2255 2275 
6 1222 1164 1271 2237 2179 2286 
6 1165 1223 1272 2180 2238 2287 
6 1139 1234 1268 2154 2249 2283 
6 1235 1138 1269 2250 2153 2284 
6 1174 1236 1263 2189 2251 2278 
6 1237 1175 1264 2252 2190 2279 
6 1239 1176 1265 2254 2191 2280 
6 1234 1164 1268 2249 2179 2283 
6 1165 1235 1269 2180 2250 2284 
6 1175 1237 1275 2190 2252 2290 
6 1238 1177 1276 2253 2192 2291 
6 1256 1211 1271 2271 2226 2286 
6 1212 1257 1272 2227 2272 2287 
6 1211 1140 1271 2226 2155 2286 
6 1141 1212 1272 2156 2227 2287 
6 308 1243 1275 505 2258 2290 
6 1243 60 1276 2258 141 2291 
6 1164 1222 1268 2179 2237 2283 
6 1223 1165 1269 2238 2180 2284 
6 1225 1170 1279 2240 2185 2294 
6 1171 1224 1280 2186 2239 2295 
6 292 1211 1256 489 2226 2271 
6 1212 304 1257 2227 501 2272 
6 1194 1178 1254 2209 2193 2269 
6 1179 1195 1255 2194 2210 2270 
6 1259 1173 1277 2274 2188 2292 
6 1172 1260 1278 2187 2275 2293 
6 7 178 1225 88 375 2240 
6 175 8 1229 372 89 2244 
6 50 284 1230 131 481 2245 
6 287 51 1224 484 132 2239 
6 55 295 1194 136 492 2209 
6 55 1194 1217 136 2209 2232 
6 298 56 1195 495 137 2210 
6 1195 56 1219 2210 137 2234 
6 53 293 292 134 490 489 
6 293 54 1216 490 135 2231 
6 57 300 1218 138 497 2233 
6 58 304 300 139 501 497 
6 292 293 1162 489 490 2177 
6 292 1162 1211 489 2177 2226 
6 1162 293 1216 2177 490 2231 
6 300 304 1163 497 501 2178 
6 300 1163 1218 497 2178 2233 
6 1163 304 1212 2178 501 2227 
6 1162 1146 1211 2177 2161 2226 
6 1146 1162 1217 2161 2177 2232 
6 1147 1163 1212 2162 2178 2227 
6 1163 1147 1219 2178 2162 2234 
6 1374 1333 1389 2389 2348 2404 
6 1295 1335 1350 2310 2350 2365 
6 1296 1336 1349 2311 2351 2364 
6 1328 1312 1394 2343 2327 2409 
6 1289 1328 1394 2304 2343 2409 
6 1335 1295 1337 2350 2310 2352 
6 1336 1296 1338 2351 2311 2353 
6 1325 1289 1394 2340 2304 2409 
6 1311 170 1355 2326 367 2370 
6 1305 1319 1333 2320 2334 2348 
6 1320 1303 1332 2335 2318 2347 
6 1321 1306 1334 2336 2321 2349 
6 304 1315 1344 501 2330 2359 
6 326 1316 1345 523 2331 2360 
6 1297 1374 1389 2312 2389 2404 
6 1297 1336 1351 2312 2351 2366 
6 1315 1295 1344 2330 2310 2359 
6 1316 1296 1345 2331 2311 2360 
6 1358 1300 1372 2373 2315 2387 
6 1319 1287 1333 2334 2302 2348 
6 1290 1320 1332 2305 2335 2347 
6 1288 1321 1334 2303 2336 2349 
6 1283 1333 1374 2298 2348 2389 
6 1289 1325 1352 2304 2340 2367 
6 1283 1374 1378 2298 2389 2393 
6 1379 1330 1395 2394 2345 2410 
6 1311 1325 1394 2326 2340 2409 
6 1319 1305 1390 2334 2320 2405 
6 1312 1354 1373 2327 2369 2388 
6 1306 1321 1391 2321 2336 2406 
6 1295 1315 1337 2310 2330 2352 
6 1296 1316 1338 2311 2331 2353 
6 332 1343 1375 529 2358 2390 
6 1342 309 1376 2357 506 2391 
6 1322 1289 1352 2337 2304 2367 
6 1374 1318 1378 2389 2333 2393 
6 1293 1327 1343 2308 2342 2358 
6 1326 1294 1342 2341 2309 2357 
6 1354 171 1373 2369 368 2388 
6 1284 1330 1379 2299 2345 2394 
6 1325 1281 1352 2340 2296 2367 
6 170 1311 1373 367 2326 2388 
6 1332 1281 1377 2347 2296 2392 
6 1332 1377 1393 2347 2392 2408 
6 1298 1335 1353 2313 2350 2368 
6 1352 1281 1414 2367 2296 2429 
6 71 333 1390 152 530 2405 
6 334 335 1391 531 532 2406 
6 304 1344 1392 501 2359 2407 
6 335 1381 1391 532 2396 2406 
6 1382 71 1390 2397 152 2405 
6 1285 1291 1356 2300 2306 2371 
6 1292 1286 1357 2307 2301 2372 
6 1300 1341 1372 2315 2356 2387 
6 1291 1285 1397 2306 2300 2412 
6 1286 1292 1398 2301 2307 2413 
6 1298 1379 1395 2313 2394 2410 
6 4 172 1343 85 369 2358 
6 169 5 1342 366 86 2357 
6 1359 1285 1366 2374 2300 2381 
6 1286 1360 1367 2301 2375 2382 
6 1303 1322 1352 2318 2337 2367 
6 69 331 1338 150 528 2353 
6 61 311 1337 142 508 2352 
6 1329 1282 1384 2344 2297 2399 
6 1303 1320 1420 2318 2335 2435 
6 1322 1303 1421 2337 2318 2436 
6 1335 1298 1350 2350 2313 2365 
6 1336 1297 1349 2351 2312 2364 
6 321 66 1361 518 147 2376 
6 63 316 1363 144 513 2378 
6 1336 330 1351 2351 527 2366 
6 1313 1299 1359 2328 2314 2374 
6 1300 1314 1360 2315 2329 2375 
6 1318 1351 1422 2333 2366 2437 
6 326 1345 1403 523 2360 2418 
6 1289 1322 1348 2304 2337 2363 
6 1328 1289 1348 2343 2304 2363 
6 1293 1343 1354 2308 2358 2369 
6 5 309 1342 86 506 2357 
6 332 4 1343 529 85 2358 
6 1305 1333 1396 2320 2348 2411 
6 1281 1325 1385 2296 2340 2400 
6 1314 1300 1358 2329 2315 2373 
6 61 1337 1424 142 2352 2439 
6 69 1338 1425 150 2353 2440 
6 1342 1294 1355 2357 2309 2370 
6 1344 1295 1346 2359 2310 2361 
6 1345 1296 1347 2360 2311 2362 
6 1299 1341 1386 2314 2356 2401 
6 1341 1300 1387 2356 2315 2402 
6 1304 1331 1411 2319 2346 2426 
6 1288 1358 1372 2303 2373 2387 
6 1323 1359 1386 2338 2374 2401 
6 1360 1324 1387 2375 2339 2402 
6 1299 1313 1371 2314 2328 2386 
6 1329 1384 1401 2344 2399 2416 
6 1359 1299 1386 2374 2314 2401 
6 1300 1360 1387 2315 2375 2402 
6 1325 1311 1406 2340 2326 2421 
6 1310 1353 1400 2325 2368 2415 
6 1283 1328 1396 2298 2343 2411 
6 1351 329 1422 2366 526 2437 
6 1335 312 1353 2350 509 2368 
6 1288 1334 1358 2303 2349 2373 
6 1294 1385 1406 2309 2400 2421 
6 1312 1328 1402 2327 2343 2417 
6 1333 1283 1396 2348 2298 2411 
6 1328 1283 1378 2343 2298 2393 
6 1347 1296 1349 2362 2311 2364 
6 1346 1295 1350 2361 2310 2365 
6 1331 1304 1410 2346 2319 2425 
6 1365 1317 1423 2380 2332 2438 
6 1282 1329 1411 2297 2344 2426 
6 1330 1284 1412 2345 2299 2427 
6 1385 1325 1406 2400 2340 2421 
6 170 169 1355 367 366 2370 
6 172 171 1354 369 368 2369 
6 1333 1287 1389 2348 2302 2404 
6 1377 1281 1385 2392 2296 2400 
6 1287 1319 1409 2302 2334 2424 
6 1320 1290 1408 2335 2305 2423 
6 1321 1288 1410 2336 2303 2425 
6 1334 1306 1412 2349 2321 2427 
6 1411 1331 1418 2426 2346 2433 
6 310 61 1424 507 142 2439 
6 327 69 1425 524 150 2440 
6 1331 1288 1371 2346 2303 2386 
6 1298 1353 1379 2313 2368 2394 
6 1341 1299 1372 2356 2314 2387 
6 1290 1332 1393 2305 2347 2408 
6 311 312 1335 508 509 2350 
6 331 330 1336 528 527 2351 
6 1370 1309 1399 2385 2324 2414 
6 1353 313 1400 2368 510 2415 
6 1297 1351 1374 2312 2366 2389 
6 318 319 1341 515 516 2356 
6 1334 1412 1419 2349 2427 2434 
6 302 1365 1423 499 2380 2438 
6 1412 1284 1419 2427 2299 2434 
6 1332 1303 1414 2347 2318 2429 
6 1317 1377 1385 2332 2392 2400 
6 1329 1287 1409 2344 2302 2424 
6 1290 1330 1408 2305 2345 2423 
6 1288 1331 1410 2303 2346 2425 
6 1282 1411 1418 2297 2426 2433 
6 1290 1346 1350 2305 2361 2365 
6 1287 1347 1349 2302 2362 2364 
6 1409 1304 1411 2424 2319 2426 
6 1306 1408 1412 2321 2423 2427 
6 1341 319 1386 2356 516 2401 
6 318 1341 1387 515 2356 2402 
6 1353 1310 1379 2368 2325 2394 
6 303 304 1392 500 501 2407 
6 1378 1318 1405 2393 2333 2420 
6 1305 1348 1382 2320 2363 2397 
6 1330 1290 1395 2345 2305 2410 
6 1285 1359 1397 2300 2374 2412 
6 1360 1286 1398 2375 2301 2413 
6 1313 1359 1366 2328 2374 2381 
6 1360 1314 1367 2375 2329 2382 
6 333 1380 1390 530 2395 2405 
6 1383 334 1391 2398 531 2406 
6 1287 1329 1401 2302 2344 2416 
6 1291 1339 1362 2306 2354 2377 
6 1340 1292 1364 2355 2307 2379 
6 1413 1314 1419 2428 2329 2434 
6 1348 1322 1382 2363 2337 2397 
6 1371 1288 1372 2386 2303 2387 
6 1301 1344 1346 2316 2359 2361 
6 1302 1345 1347 2317 2360 2362 
6 1281 1332 1414 2296 2347 2429 
6 324 1370 1399 521 2385 2414 
6 1313 1415 1418 2328 2430 2433 
6 330 329 1351 527 526 2366 
6 311 1335 1337 508 2350 2352 
6 331 1336 1338 528 2351 2353 
6 1309 1370 1384 2324 2385 2399 
6 1351 1318 1374 2366 2333 2389 
6 1328 1348 1396 2343 2363 2411 
6 312 313 1353 509 510 2368 
6 1377 1301 1393 2392 2316 2408 
6 1287 1349 1389 2302 2364 2404 
6 1367 1314 1413 2382 2329 2428 
6 1290 1350 1395 2305 2365 2410 
6 325 326 1403 522 523 2418 
6 1388 1303 1420 2403 2318 2435 
6 1303 1388 1421 2318 2403 2436 
6 1313 1366 1415 2328 2381 2430 
6 1299 1371 1372 2314 2386 2387 
6 321 1361 1362 518 2376 2377 
6 1363 316 1364 2378 513 2379 
6 1370 1302 1384 2385 2317 2399 
6 1343 1327 1375 2358 2342 2390 
6 1326 1342 1376 2341 2357 2391 
6 1312 1373 1394 2327 2388 2409 
6 302 303 1365 499 500 2380 
6 1381 1306 1391 2396 2321 2406 
6 1305 1382 1390 2320 2397 2405 
6 1380 1304 1409 2395 2319 2424 
6 1306 1381 1408 2321 2396 2423 
6 1304 1383 1410 2319 2398 2425 
6 324 325 1370 521 522 2385 
6 1380 1319 1390 2395 2334 2405 
6 1321 1383 1391 2336 2398 2406 
6 1315 304 1368 2330 501 2383 
6 1316 326 1369 2331 523 2384 
6 1293 1354 1402 2308 2369 2417 
6 171 170 1373 368 367 2388 
6 1408 1330 1412 2423 2345 2427 
6 1329 1409 1411 2344 2424 2426 
6 1373 1311 1394 2388 2326 2409 
6 1384 1302 1401 2399 2317 2416 
6 1339 1291 1397 2354 2306 2412 
6 1292 1340 1398 2307 2355 2413 
6 1293 1378 1405 2308 2393 2420 
6 1317 1365 1377 2332 2380 2392 
6 1354 1312 1402 2369 2327 2417 
6 1348 1305 1396 2363 2320 2411 
6 1365 1301 1377 2380 2316 2392 
6 335 71 1388 532 152 2403 
6 1346 1290 1393 2361 2305 2408 
6 1347 1287 1401 2362 2302 2416 
6 1337 1315 1424 2352 2330 2439 
6 1338 1316 1425 2353 2331 2440 
6 319 320 1386 516 517 2401 
6 317 318 1387 514 515 2402 
6 1327 1293 1405 2342 2308 2420 
6 1294 1326 1404 2309 2341 2419 
6 1327 328 1375 2342 525 2390 
6 301 1326 1376 498 2341 2391 
6 1361 1307 1362 2376 2322 2377 
6 1308 1363 1364 2323 2378 2379 
6 323 324 1399 520 521 2414 
6 313 314 1400 510 511 2415 
6 1314 1358 1419 2329 2373 2434 
6 1301 1346 1393 2316 2361 2408 
6 1302 1347 1401 2317 2362 2416 
6 1303 1352 1414 2318 2367 2429 
6 1371 1313 1418 2386 2328 2433 
6 1349 1297 1389 2364 2312 2404 
6 1284 1413 1419 2299 2428 2434 
6 301 302 1423 498 499 2438 
6 329 328 1422 526 525 2437 
6 1415 1282 1418 2430 2297 2433 
6 1355 1294 1406 2370 2309 2421 
6 58 310 1368 139 507 2383 
6 68 327 1369 149 524 2384 
6 1345 1302 1403 2360 2317 2418 
6 1378 1293 1402 2393 2308 2417 
6 1343 172 1354 2358 369 2369 
6 1304 1380 1407 2319 2395 2422 
6 1383 1304 1407 2398 2319 2422 
6 320 1323 1386 517 2338 2401 
6 1324 317 1387 2339 514 2402 
6 169 1342 1355 366 2357 2370 
6 1350 1298 1395 2365 2313 2410 
6 1358 1334 1419 2373 2349 2434 
6 1366 1285 1416 2381 2300 2431 
6 1286 1367 1417 2301 2382 2432 
6 70 332 1375 151 529 2390 
6 309 59 1376 506 140 2391 
6 1302 1370 1403 2317 2385 2418 
6 1328 1378 1402 2343 2393 2417 
6 1359 1323 1397 2374 2338 2412 
6 1324 1360 1398 2339 2375 2413 
6 1344 1301 1392 2359 2316 2407 
6 1365 303 1392 2380 500 2407 
6 333 334 1407 530 531 2422 
6 328 1327 1422 525 2342 2437 
6 1326 301 1423 2341 498 2438 
6 1301 1365 1392 2316 2380 2407 
6 1331 1371 1418 2346 2386 2433 
6 1385 1294 1404 2400 2309 2419 
6 1327 1405 1422 2342 2420 2437 
6 1404 1326 1423 2419 2341 2438 
6 1311 1355 1406 2326 2370 2421 
6 1323 320 1339 2338 517 2354 
6 317 1324 1340 514 2339 2355 
6 1368 310 1424 2383 507 2439 
6 1369 327 1425 2384 524 2440 
6 1381 335 1420 2396 532 2435 
6 71 1382 1421 152 2397 2436 
6 1399 1309 1416 2414 2324 2431 
6 1310 1400 1417 2325 2415 2432 
6 1370 325 1403 2385 522 2418 
6 1380 333 1407 2395 530 2422 
6 334 1383 1407 531 2398 2422 
6 316 64 1364 513 145 2379 
6 65 321 1362 146 518 2377 
6 1317 1385 1404 2332 2400 2419 
6 1384 1282 1415 2399 2297 2430 
6 1309 1366 1416 2324 2381 2431 
6 1367 1310 1417 2382 2325 2432 
6 1309 1384 1415 2324 2399 2430 
6 1284 1379 1413 2299 2394 2428 
6 1319 1380 1409 2334 2395 2424 
6 1381 1320 1408 2396 2335 2423 
6 1383 1321 1410 2398 2336 2425 
6 1379 1310 1413 2394 2325 2428 
6 1320 1381 1420 2335 2396 2435 
6 1382 1322 1421 2397 2337 2436 
6 1356 1399 1416 2371 2414 2431 
6 1400 1357 1417 2415 2372 2432 
6 1285 1356 1416 2300 2371 2431 
6 1357 1286 1417 2372 2301 2432 
6 335 1388 1420 532 2403 2435 
6 1388 71 1421 2403 152 2436 
6 1310 1367 1413 2325 2382 2428 
6 1366 1309 1415 2381 2324 2430 
6 1315 1368 1424 2330 2383 2439 
6 1316 1369 1425 2331 2384 2440 
6 1356 323 1399 2371 520 2414 
6 314 1357 1400 511 2372 2415 
6 1323 1339 1397 2338 2354 2412 
6 1340 1324 1398 2355 2339 2413 
6 1317 1404 1423 2332 2419 2438 
6 1405 1318 1422 2420 2333 2437 
6 304 58 1368 501 139 2383 
6 59 301 1376 140 498 2391 
6 64 317 1340 145 514 2355 
6 64 1340 1364 145 2355 2379 
6 320 65 1339 517 146 2354 
6 1339 65 1362 2354 146 2377 
6 326 68 1369 523 149 2384 
6 328 70 1375 525 151 2390 
6 62 315 314 143 512 511 
6 315 63 1363 512 144 2378 
6 66 322 1361 147 519 2376 
6 67 323 322 148 520 519 
6 314 315 1308 511 512 2323 
6 314 1308 1357 511 2323 2372 
6 1308 315 1363 2323 512 2378 
6 322 323 1307 519 520 2322 
6 322 1307 1361 519 2322 2376 
6 1307 323 1356 2322 520 2371 
6 1291 1307 1356 2306 2322 2371 
6 1307 1291 1362 2322 2306 2377 
6 1308 1292 1357 2323 2307 2372 
6 1292 1308 1364 2307 2323 2379 
6 1519 1478 1534 2534 2493 2549 
6 1440 1480 1495 2455 2495 2510 
6 1441 1481 1494 2456 2496 2509 
6 1473 1457 1539 2488 2472 2554 
6 1434 1473 1539 2449 2488 2554 
6 1480 1440 1483 2495 2455 2498 
6 1481 1441 1482 2496 2456 2497 
6 1470 1434 1539 2485 2449 2554 
6 1456 200 1500 2471 397 2515 
6 1449 1464 1478 2464 2479 2493 
6 1465 1448 1477 2480 2463 2492 
6 1466 1451 1479 2481 2466 2494 
6 163 1460 1489 360 2475 2504 
6 348 1461 1490 545 2476 2505 
6 1442 1519 1534 2457 2534 2549 
6 1442 1481 1496 2457 2496 2511 
6 1461 1441 1490 2476 2456 2505 
6 1460 1440 1489 2475 2455 2504 
6 1445 1516 1517 2460 2531 2532 
6 1464 1432 1478 2479 2447 2493 
6 1435 1465 1477 2450 2480 2492 
6 1433 1466 1479 2448 2481 2494 
6 1427 1478 1519 2442 2493 2534 
6 1434 1470 1497 2449 2485 2512 
6 1427 1519 1523 2442 2534 2538 
6 1524 1475 1540 2539 2490 2555 
6 1456 1470 1539 2471 2485 2554 
6 1464 1449 1535 2479 2464 2550 
6 1457 1499 1518 2472 2514 2533 
6 1451 1466 1536 2466 2481 2551 
6 1440 1460 1483 2455 2475 2498 
6 1441 1461 1482 2456 2476 2497 
6 1487 355 1521 2502 552 2536 
6 354 1488 1520 551 2503 2535 
6 1467 1434 1497 2482 2449 2512 
6 1519 1463 1523 2534 2478 2538 
6 1438 1471 1488 2453 2486 2503 
6 1472 1439 1487 2487 2454 2502 
6 1499 201 1518 2514 398 2533 
6 1429 1475 1524 2444 2490 2539 
6 1470 1426 1497 2485 2441 2512 
6 200 1456 1518 397 2471 2533 
6 1477 1426 1522 2492 2441 2537 
6 1477 1522 1538 2492 2537 2553 
6 1443 1480 1498 2458 2495 2513 
6 1497 1426 1559 2512 2441 2574 
6 80 356 1535 161 553 2550 
6 357 358 1536 554 555 2551 
6 163 1489 1537 360 2504 2552 
6 358 1526 1536 555 2541 2551 
6 1527 80 1535 2542 161 2550 
6 1436 1430 1501 2451 2445 2516 
6 1431 1437 1502 2446 2452 2517 
6 1486 1445 1517 2501 2460 2532 
6 1430 1436 1542 2445 2451 2557 
6 1437 1431 1543 2452 2446 2558 
6 1443 1524 1540 2458 2539 2555 
6 199 16 1487 396 97 2502 
6 17 202 1488 98 399 2503 
6 1430 1504 1511 2445 2519 2526 
6 1505 1431 1512 2520 2446 2527 
6 1448 1467 1497 2463 2482 2512 
6 70 328 1483 151 525 2498 
6 78 350 1482 159 547 2497 
6 1474 1428 1529 2489 2443 2544 
6 1448 1465 1565 2463 2480 2580 
6 1467 1448 1566 2482 2463 2581 
6 1480 1443 1495 2495 2458 2510 
6 1481 1442 1494 2496 2457 2509 
6 72 338 1506 153 535 2521 
6 343 75 1508 540 156 2523 
6 1481 351 1496 2496 548 2511 
6 1444 1458 1504 2459 2473 2519 
6 1459 1445 1505 2474 2460 2520 
6 1463 1496 1567 2478 2511 2582 
6 348 1490 1548 545 2505 2563 
6 1434 1467 1493 2449 2482 2508 
6 1516 1433 1517 2531 2448 2532 
6 1473 1434 1493 2488 2449 2508 
6 1438 1488 1499 2453 2503 2514 
6 354 17 1488 551 98 2503 
6 16 355 1487 97 552 2502 
6 1449 1478 1541 2464 2493 2556 
6 1426 1470 1530 2441 2485 2545 
6 1458 1444 1503 2473 2459 2518 
6 78 1482 1569 159 2497 2584 
6 70 1483 1570 151 2498 2585 
6 1487 1439 1500 2502 2454 2515 
6 1489 1440 1491 2504 2455 2506 
6 1490 1441 1492 2505 2456 2507 
6 1486 1444 1531 2501 2459 2546 
6 1445 1486 1532 2460 2501 2547 
6 1450 1476 1556 2465 2491 2571 
6 1504 1468 1531 2519 2483 2546 
6 1469 1505 1532 2484 2520 2547 
6 1445 1459 1516 2460 2474 2531 
6 1474 1529 1546 2489 2544 2561 
6 1444 1504 1531 2459 2519 2546 
6 1505 1445 1532 2520 2460 2547 
6 1470 1456 1551 2485 2471 2566 
6 1454 1498 1544 2469 2513 2559 
6 1427 1473 1541 2442 2488 2556 
6 1496 352 1567 2511 549 2582 
6 1480 329 1498 2495 526 2513 
6 1433 1479 1503 2448 2494 2518 
6 1439 1530 1551 2454 2545 2566 
6 1457 1473 1547 2472 2488 2562 
6 1478 1427 1541 2493 2442 2556 
6 1473 1427 1523 2488 2442 2538 
6 1492 1441 1494 2507 2456 2509 
6 1491 1440 1495 2506 2455 2510 
6 1476 1450 1555 2491 2465 2570 
6 1510 1462 1568 2525 2477 2583 
6 1428 1474 1556 2443 2489 2571 
6 1475 1429 1557 2490 2444 2572 
6 1530 1470 1551 2545 2485 2566 
6 200 199 1500 397 396 2515 
6 202 201 1499 399 398 2514 
6 1478 1432 1534 2493 2447 2549 
6 1522 1426 1530 2537 2441 2545 
6 1432 1464 1553 2447 2479 2568 
6 1465 1435 1554 2480 2450 2569 
6 1466 1433 1555 2481 2448 2570 
6 1479 1451 1557 2494 2466 2572 
6 1556 1476 1563 2571 2491 2578 
6 349 78 1569 546 159 2584 
6 336 70 1570 533 151 2585 
6 1476 1433 1516 2491 2448 2531 
6 1443 1498 1524 2458 2513 2539 
6 1444 1486 1517 2459 2501 2532 
6 1435 1477 1538 2450 2492 2553 
6 350 351 1481 547 548 2496 
6 328 329 1480 525 526 2495 
6 1515 1455 1545 2530 2470 2560 
6 1498 330 1544 2513 527 2559 
6 1442 1496 1519 2457 2511 2534 
6 340 341 1486 537 538 2501 
6 1479 1557 1564 2494 2572 2579 
6 165 1510 1568 362 2525 2583 
6 1557 1429 1564 2572 2444 2579 
6 1477 1448 1559 2492 2463 2574 
6 1462 1522 1530 2477 2537 2545 
6 1474 1432 1553 2489 2447 2568 
6 1435 1475 1554 2450 2490 2569 
6 1433 1476 1555 2448 2491 2570 
6 1428 1556 1563 2443 2571 2578 
6 1432 1492 1494 2447 2507 2509 
6 1435 1491 1495 2450 2506 2510 
6 1553 1450 1556 2568 2465 2571 
6 1451 1554 1557 2466 2569 2572 
6 340 1486 1531 537 2501 2546 
6 1486 341 1532 2501 538 2547 
6 1498 1454 1524 2513 2469 2539 
6 164 163 1537 361 360 2552 
6 1523 1463 1550 2538 2478 2565 
6 1449 1493 1527 2464 2508 2542 
6 1475 1435 1540 2490 2450 2555 
6 1504 1430 1542 2519 2445 2557 
6 1431 1505 1543 2446 2520 2558 
6 1504 1458 1511 2519 2473 2526 
6 1459 1505 1512 2474 2520 2527 
6 356 1525 1535 553 2540 2550 
6 1528 357 1536 2543 554 2551 
6 1432 1474 1546 2447 2489 2561 
6 1484 1436 1507 2499 2451 2522 
6 1437 1485 1509 2452 2500 2524 
6 1558 1458 1564 2573 2473 2579 
6 1493 1467 1527 2508 2482 2542 
6 1446 1489 1491 2461 2504 2506 
6 1447 1490 1492 2462 2505 2507 
6 1426 1477 1559 2441 2492 2574 
6 346 1515 1545 543 2530 2560 
6 1459 1560 1563 2474 2575 2578 
6 351 352 1496 548 549 2511 
6 328 1480 1483 525 2495 2498 
6 350 1481 1482 547 2496 2497 
6 1455 1515 1529 2470 2530 2544 
6 1496 1463 1519 2511 2478 2534 
6 1473 1493 1541 2488 2508 2556 
6 1433 1503 1517 2448 2518 2532 
6 329 330 1498 526 527 2513 
6 1522 1446 1538 2537 2461 2553 
6 1432 1494 1534 2447 2509 2549 
6 1511 1458 1558 2526 2473 2573 
6 1435 1495 1540 2450 2510 2555 
6 347 348 1548 544 545 2563 
6 1533 1448 1565 2548 2463 2580 
6 1448 1533 1566 2463 2548 2581 
6 1503 1444 1517 2518 2459 2532 
6 1459 1512 1560 2474 2527 2575 
6 1506 338 1507 2521 535 2522 
6 343 1508 1509 540 2523 2524 
6 1515 1447 1529 2530 2462 2544 
6 1472 1487 1521 2487 2502 2536 
6 1488 1471 1520 2503 2486 2535 
6 1457 1518 1539 2472 2533 2554 
6 165 164 1510 362 361 2525 
6 1526 1451 1536 2541 2466 2551 
6 1449 1527 1535 2464 2542 2550 
6 1525 1450 1553 2540 2465 2568 
6 1451 1526 1554 2466 2541 2569 
6 1450 1528 1555 2465 2543 2570 
6 346 347 1515 543 544 2530 
6 1525 1464 1535 2540 2479 2550 
6 1466 1528 1536 2481 2543 2551 
6 1461 348 1514 2476 545 2529 
6 1460 163 1513 2475 360 2528 
6 1438 1499 1547 2453 2514 2562 
6 201 200 1518 398 397 2533 
6 1474 1553 1556 2489 2568 2571 
6 1554 1475 1557 2569 2490 2572 
6 1518 1456 1539 2533 2471 2554 
6 1529 1447 1546 2544 2462 2561 
6 1436 1484 1542 2451 2499 2557 
6 1485 1437 1543 2500 2452 2558 
6 1438 1523 1550 2453 2538 2565 
6 1462 1510 1522 2477 2525 2537 
6 1499 1457 1547 2514 2472 2562 
6 1493 1449 1541 2508 2464 2556 
6 1510 1446 1522 2525 2461 2537 
6 358 80 1533 555 161 2548 
6 1491 1435 1538 2506 2450 2553 
6 1492 1432 1546 2507 2447 2561 
6 1482 1461 1569 2497 2476 2584 
6 1483 1460 1570 2498 2475 2585 
6 339 340 1531 536 537 2546 
6 341 342 1532 538 539 2547 
6 1471 1438 1550 2486 2453 2565 
6 1439 1472 1549 2454 2487 2564 
6 1471 353 1520 2486 550 2535 
6 166 1472 1521 363 2487 2536 
6 1452 1506 1507 2467 2521 2522 
6 1508 1453 1509 2523 2468 2524 
6 330 331 1544 527 528 2559 
6 345 346 1545 542 543 2560 
6 1458 1503 1564 2473 2518 2579 
6 1446 1491 1538 2461 2506 2553 
6 1447 1492 1546 2462 2507 2561 
6 1448 1497 1559 2463 2512 2574 
6 1516 1459 1563 2531 2474 2578 
6 1494 1442 1534 2509 2457 2549 
6 1429 1558 1564 2444 2573 2579 
6 352 353 1567 549 550 2582 
6 166 165 1568 363 362 2583 
6 1560 1428 1563 2575 2443 2578 
6 1500 1439 1551 2515 2454 2566 
6 2 336 1513 83 533 2528 
6 77 349 1514 158 546 2529 
6 1490 1447 1548 2505 2462 2563 
6 1523 1438 1547 2538 2453 2562 
6 1488 202 1499 2503 399 2514 
6 1450 1525 1552 2465 2540 2567 
6 1528 1450 1552 2543 2465 2567 
6 1468 339 1531 2483 536 2546 
6 342 1469 1532 539 2484 2547 
6 199 1487 1500 396 2502 2515 
6 1495 1443 1540 2510 2458 2555 
6 1503 1479 1564 2518 2494 2579 
6 1430 1511 1561 2445 2526 2576 
6 1512 1431 1562 2527 2446 2577 
6 355 0 1521 552 81 2536 
6 79 354 1520 160 551 2535 
6 1447 1515 1548 2462 2530 2563 
6 1473 1523 1547 2488 2538 2562 
6 1468 1504 1542 2483 2519 2557 
6 1505 1469 1543 2520 2484 2558 
6 1489 1446 1537 2504 2461 2552 
6 1510 164 1537 2525 361 2552 
6 356 357 1552 553 554 2567 
6 353 1471 1567 550 2486 2582 
6 1472 166 1568 2487 363 2583 
6 1446 1510 1537 2461 2525 2552 
6 1476 1516 1563 2491 2531 2578 
6 1530 1439 1549 2545 2454 2564 
6 1471 1550 1567 2486 2565 2582 
6 1549 1472 1568 2564 2487 2583 
6 1456 1500 1551 2471 2515 2566 
6 339 1468 1484 536 2483 2499 
6 1469 342 1485 2484 539 2500 
6 1513 336 1570 2528 533 2585 
6 1514 349 1569 2529 546 2584 
6 1526 358 1565 2541 555 2580 
6 80 1527 1566 161 2542 2581 
6 1454 1544 1561 2469 2559 2576 
6 1545 1455 1562 2560 2470 2577 
6 1515 347 1548 2530 544 2563 
6 1525 356 1552 2540 553 2567 
6 357 1528 1552 554 2543 2567 
6 74 343 1509 155 540 2524 
6 338 73 1507 535 154 2522 
6 1462 1530 1549 2477 2545 2564 
6 1529 1428 1560 2544 2443 2575 
6 1511 1454 1561 2526 2469 2576 
6 1455 1512 1562 2470 2527 2577 
6 1455 1529 1560 2470 2544 2575 
6 1429 1524 1558 2444 2539 2573 
6 1464 1525 1553 2479 2540 2568 
6 1526 1465 1554 2541 2480 2569 
6 1528 1466 1555 2543 2481 2570 
6 1524 1454 1558 2539 2469 2573 
6 1465 1526 1565 2480 2541 2580 
6 1527 1467 1566 2542 2482 2581 
6 1544 1501 1561 2559 2516 2576 
6 1502 1545 1562 2517 2560 2577 
6 1501 1430 1561 2516 2445 2576 
6 1431 1502 1562 2446 2517 2577 
6 358 1533 1565 555 2548 2580 
6 1533 80 1566 2548 161 2581 
6 1454 1511 1558 2469 2526 2573 
6 1512 1455 1560 2527 2470 2575 
6 1460 1513 1570 2475 2528 2585 
6 1461 1514 1569 2476 2529 2584 
6 331 1501 1544 528 2516 2559 
6 1502 345 1545 2517 542 2560 
6 1484 1468 1542 2499 2483 2557 
6 1469 1485 1543 2484 2500 2558 
6 1550 1463 1567 2565 2478 2582 
6 1462 1549 1568 2477 2564 2583 
6 0 166 1521 81 363 2536 
6 163 2 1513 360 83 2528 
6 73 339 1484 154 536 2499 
6 73 1484 1507 154 2499 2522 
6 342 74 1485 539 155 2500 
6 1485 74 1509 2500 155 2524 
6 348 77 1514 545 158 2529 
6 353 79 1520 550 160 2535 
6 69 337 331 150 534 528 
6 337 72 1506 534 153 2521 
6 75 344 1508 156 541 2523 
6 76 345 344 157 542 541 
6 331 337 1452 528 534 2467 
6 331 1452 1501 528 2467 2516 
6 1452 337 1506 2467 534 2521 
6 344 345 1453 541 542 2468 
6 344 1453 1508 541 2468 2523 
6 1453 345 1502 2468 542 2517 
6 1452 1436 1501 2467 2451 2516 
6 1436 1452 1507 2451 2467 2522 
6 1437 1453 1502 2452 2468 2517 
6 1453 1437 1509 2468 2452 2524 

CELL_TYPES 2380
13
13
13
13
13
13
13
13
13
13
13
13
13
13
13
13
13
13
13
13
13
13
13
13
13
13
13
13
13
13
13
13
13
13
13
13
13
13
13
13
13
13
13
13
13
13
13
13
13
13
13
13
13
13
13
13
13
13
13
13
13
13
13
13
13
13
13
13
13
13
13
13
13
13
13
13
13
13
13
13
13
13
13
13
13
13
13
13
13
13
13
13
13
13
13
13
13
13
13
13
13
13
13
13
13
13
13
13
13
13
13
13
13
13
13
13
13
13
13
13
13
13
13
13
13
13
13
13
13
13
13
13
13
13
13
13
13
13
13
13
13
13
13
13
13
13
13
13
13
13
13
13
13
13
13
13
13
13
13
13
13
13
13
13
13
13
13
13
13
13
13
13
13
13
13
13
13
13
13
13
13
13
13
13
13
13
13
13
13
13
13
13
13
13
13
13
13
13
13
13
13
13
13
13
13
13
13
13
13
13
13
13
13
13
13
13
13
13
13
13
13
13
13
13
13
13
13
13
13
13
13
13
13
13
13
13
13
13
13
13
13
13
13
13
13
13
13
13
13
13
13
13
13
13
13
13
13
13
13
13
13
13
13
13
13
13
13
13
13
13
13
13
13
13
13
13
13
13
13
13
13
13
13
13
13
13
13
13
13
13
13
13
13
13
13
13
13
13
13
13
13
13
13
13
13
13
13
13
13
13
13
13
13
13
13
13
13
13
13
13
13
13
13
13
13
13
13
13
13
13
13
13
13
13
13
13
13
13
13
13
13
13
13
13
13
13
13
13
13
13
13
13
13
13
13
13
13
13
13
13
13
13
13
13
13
13
13
13
13
13
13
13
13
13
13
13
13
13
13
13
13
13
13
13
13
13
13
13
13
13
13
13
13
13
13
13
13
13
13
13
13
13
13
13
13
13
13
13
13
13
13
13
13
13
13
13
13
13
13
13
13
13
13
13
13
13
13
13
13
13
13
13
13
13
13
13
13
13
13
13
13
13
13
13
13
13
13
13
13
13
13
13
13
13
13
13
13
13
13
13
13
13
13
13
13
13
13
13
13
13
13
13
13
13
13
13
13
13
13
13
13
13
13
13
13
13
13
13
13
13
13
13
13
13
13
13
13
13
13
13
13
13
13
13
13
13
13
13
13
13
13
13
13
13
13
13
13
13
13
13
13
13
13
13
13
13
13
13
13
13
13
13
13
13
13
13
13
13
13
13
13
13
13
13
13
13
13
13
13
13
13
13
13
13
13
13
13
13
13
13
13
13
13
13
13
13
13
13
13
13
13
13
13
13
13
13
13
13
13
13
13
13
13
13
13
13
13
13
13
13
13
13
13
13
13
13
13
13
13
13
13
13
13
13
13
13
13
13
13
13
13
13
13
13
13
13
13
13
13
13
13
13
13
13
13
13
13
13
13
13
13
13
13
13
13
13
13
13
13
13
13
13
13
13
13
13
13
13
13
13
13
13
13
13
13
13
13
13
13
13
13
13
13
13
13
13
13
13
13
13
13
13
13
13
13
13
13
13
13
13
13
13
13
13
13
13
13
13
13
13
13
13
13
13
13
13
13
13
13
13
13
13
13
13
13
13
13
13
13
13
13
13
13
13
13
13
13
13
13
13
13
13
13
13
13
13
13
13
13
13
13
13
13
13
13
13
13
13
13
13
13
13
13
13
13
13
13
13
13
13
13
13
13
13
13
13
13
13
13
13
13
13
13
13
13
13
13
13
13
13
13
13
13
13
13
13
13
13
13
13
13
13
13
13
13
13
13
13
13
13
13
13
13
13
13
13
13
13
13
13
13
13
13
13
13
13
13
13
13
13
13
13
13
13
13
13
13
13
13
13
13
13
13
13
13
13
13
13
13
13
13
13
13
13
13
13
13
13
13
13
13
13
13
13
13
13
13
13
13
13
13
13
13
13
13
13
13
13
13
13
13
13
13
13
13
13
13
13
13
13
13
13
13
13
13
13
13
13
13
13
13
13
13
13
13
13
13
13
13
13
13
13
13
13
13
13
13
13
13
13
13
13
13
13
13
13
13
13
13
13
13
13
13
13
13
13
13
13
13
13
13
13
13
13
13
13
13
13
13
13
13
13
13
13
13
13
13
13
13
13
13
13
13
13
13
13
13
13
13
13
13
13
13
13
13
13
13
13
13
13
13
13
13
13
13
13
13
13
13
13
13
13
13
13
13
13
13
13
13
13
13
13
13
13
13
13
13
13
13
13
13
13
13
13
13
13
13
13
13
13
13
13
13
13
13
13
13
13
13
13
13
13
13
13
13
13
13
13
13
13
13
13
13
13
13
13
13
13
13
13
13
13
13
13
13
13
13
13
13
13
13
13
13
13
13
13
13
13
13
13
13
13
13
13
13
13
13
13
13
13
13
13
13
13
13
13
13
13
13
13
13
13
13
13
13
13
13
13
13
13
13
13
13
13
13
13
13
13
13
13
13
13
13
13
13
13
13
13
13
13
13
13
13
13
13
13
13
13
13
13
13
13
13
13
13
13
13
13
13
13
13
13
13
13
13
13
13
13
13
13
13
13
13
13
13
13
13
13
13
13
13
13
13
13
13
13
13
13
13
13
13
13
13
13
13
13
13
13
13
13
13
13
13
13
13
13
13
13
13
13
13
13
13
13
13
13
13
13
13
13
13
13
13
13
13
13
13
13
13
13
13
13
13
13
13
13
13
13
13
13
13
13
13
13
13
13
13
13
13
13
13
13
13
13
13
13
13
13
13
13
13
13
13
13
13
13
13
13
13
13
13
13
13
13
13
13
13
13
13
13
13
13
13
13
13
13
13
13
13
13
13
13
13
13
13
13
13
13
13
13
13
13
13
13
13
13
13
13
13
13
13
13
13
13
13
13
13
13
13
13
13
13
13
13
13
13
13
13
13
13
13
13
13
13
13
13
13
13
13
13
13
13
13
13
13
13
13
13
13
13
13
13
13
13
13
13
13
13
13
13
13
13
13
13
13
13
13
13
13
13
13
13
13
13
13
13
13
13
13
13
13
13
13
13
13
13
13
13
13
13
13
13
13
13
13
13
13
13
13
13
13
13
13
13
13
13
13
13
13
13
13
13
13
13
13
13
13
13
13
13
13
13
13
13
13
13
13
13
13
13
13
13
13
13
13
13
13
13
13
13
13
13
13
13
13
13
13
13
13
13
13
13
13
13
13
13
13
13
13
13
13
13
13
13
13
13
13
13
13
13
13
13
13
13
13
13
13
13
13
13
13
13
13
13
13
13
13
13
13
13
13
13
13
13
13
13
13
13
13
13
13
13
13
13
13
13
13
13
13
13
13
13
13
13
13
13
13
13
13
13
13
13
13
13
13
13
13
13
13
13
13
13
13
13
13
13
13
13
13
13
13
13
13
13
13
13
13
13
13
13
13
13
13
13
13
13
13
13
13
13
13
13
13
13
13
13
13
13
13
13
13
13
13
13
13
13
13
13
13
13
13
13
13
13
13
13
13
13
13
13
13
13
13
13
13
13
13
13
13
13
13
13
13
13
13
13
13
13
13
13
13
13
13
13
13
13
13
13
13
13
13
13
13
13
13
13
13
13
13
13
13
13
13
13
13
13
13
13
13
13
13
13
13
13
13
13
13
13
13
13
13
13
13
13
13
13
13
13
13
13
13
13
13
13
13
13
13
13
13
13
13
13
13
13
13
13
13
13
13
13
13
13
13
13
13
13
13
13
13
13
13
13
13
13
13
13
13
13
13
13
13
13
13
13
13
13
13
13
13
13
13
13
13
13
13
13
13
13
13
13
13
13
13
13
13
13
13
13
13
13
13
13
13
13
13
13
13
13
13
13
13
13
13
13
13
13
13
13
13
13
13
13
13
13
13
13
13
13
13
13
13
13
13
13
13
13
13
13
13
13
13
13
13
13
13
13
13
13
13
13
13
13
13
13
13
13
13
13
13
13
13
13
13
13
13
13
13
13
13
13
13
13
13
13
13
13
13
13
13
13
13
13
13
13
13
13
13
13
13
13
13
13
13
13
13
13
13
13
13
13
13
13
13
13
13
13
13
13
13
13
13
13
13
13
13
13
13
13
13
13
13
13
13
13
13
13
13
13
13
13
13
13
13
13
13
13
13
13
13
13
13
13
13
13
13
13
13
13
13
13
13
13
13
13
13
13
13
13
13
13
13
13
13
13
13
13
13
13
13
13
13
13
13
13
13
13
13
13
13
13
13
13
13
13
13
13
13
13
13
13
13
13
13
13
13
13
13
13
13
13
13
13
13
13
13
13
13
13
13
13
13
13
13
13
13
13
13
13
13
13
13
13
13
13
13
13
13
13
13
13
13
13
13
13
13
13
13
13
13
13
13
13
13
13
13
13
13
13
13
13
13
13
13
13
13
13
13
13
13
13
13
13
13
13
13
13
13
13
13
13
13
13
13
13
13
13
13
13
13
13
13
13
13
13
13
13
13
13
13
13
13
13
13
13
13
13
13
13
13
13
13
13
13
13
13
13
13
13
13
13
13
13
13
13
13
13
13
13
13
13
13
13
13
13
13
13
13
13
13
13
13
13
13
13
13
13
13
13
13
13
13
13
13
13
13
13
13
13
13
13
13
13
13
13
13
13
13
13
13
13
13
13
13
13
13
13
13
13
13
13
13
13
13
13
13
13
13
13
13
13
13
13
13
13
13
13
13
13
13
13
13
13
13
13
13
13
13
13
13
13
13
13
13
13
13
13
13
13
13
13
13
13
13
13
13
13
13
13
13
13
13
13
13
13
13
13
13
13
13
13
13
13
13
13
13
13
13
13
13
13
13
13
13
13
13
13
13
13
13
13
13
13
13
13
13
13
13
13
13
13
13
13
13
13
13
13
13
13
13
13
13
13
13
13
13
13
13
13
13
13
13
13
13
13
13
13
13
13
13
13
13
13
13
13
13
13
13
13
13
13
13
13
13
13
13
13
13
13
13
13
13
13
13
13
13
13
13
13
13
13
13
13
13
13
13
13
13
13
13
13
13
13
13
13
13
13
13
13
13
13
13
13
13
13
13
13
13
13
13
13
13
13
13
13
13
13
13
13
13
13
13
13
13
13
13
13
13
13
13
13
13
13
13
13
13
13
13
13
13
13
13
13
13
13
13
13
13
13
13
13
13
13
13
13
13
13
13
13
13
13
13
13
13
13
13
13
13
13
13
13
13
13
13
13
13
13
13
13
13
13
13
13
13
13
13
13
13
13
13
13
13
13
13
13
13
13
13
13
13
13
13
13
13
13
13
13
13
13
13
13
13
13
13
13
13
13
13
13
13
13
13
13
13
13
13
13
13
13
13
13
13
13
13
13
13
13
13
13
13
13
13
13
13
13
13
13
13
13
13
13

POINT_DATA 2586
VECTORS displacement float
-1.97829e-09 1.53828e-07 9.61838e-08
1.19354e-08 1.52805e-07 9.62738e-08
-1.28348e-07 9.56581e-08 1.01078e-07
-1.27127e-07 9.11673e-08 1.01125e-07
-1.34764e-07 8.39376e-08 1.04048e-07
-1.34903e-07 -8.40194e-08 1.04059e-07
-1.27269e-07 -9.12528e-08 1.01142e-07
-1.28489e-07 -9.57442e-08 1.01096e-07
-1.98968e-09 -1.53524e-07 9.64708e-08
1.18988e-08 -1.52955e-07 9.60187e-08
1.2709e-07 -7.94265e-08 9.5928e-08
1.34012e-07 -6.75199e-08 9.61745e-08
1.34185e-07 6.7604e-08 9.6218e-08
1.27219e-07 7.97059e-08 9.62134e-08
0 0 0
1.30575e-08 1.5675e-07 9.60453e-08
5.9562e-09 1.65719e-07 9.64005e-08
1.98508e-08 3.0642e-07 9.64781e-08
2.58005e-08 3.16267e-07 9.5827e-08
2.49336e-08 3.21569e-07 9.59657e-08
1.41815e-07 3.82276e-07 9.53205e-08
1.60304e-07 3.81732e-07 9.48783e-08
2.75393e-07 3.07075e-07 9.49555e-08
2.84046e-07 2.90806e-07 9.5082e-08
2.75557e-07 1.58972e-07 9.61225e-08
2.65118e-07 1.4688e-07 9.60051e-08
1.41272e-07 7.93131e-08 9.59421e-08
1.49884e-07 2.25019e-07 3.8304e-08
1.42078e-07 7.55343e-08 9.57932e-08
2.81005e-07 1.49371e-07 9.63203e-08
3.96229e-07 8.47158e-08 9.50427e-08
4.05479e-07 6.88131e-08 9.51669e-08
4.05376e-07 -6.89522e-08 9.50979e-08
3.96123e-07 -8.48821e-08 9.49872e-08
2.809e-07 -1.49692e-07 9.57297e-08
2.65106e-07 -1.46806e-07 9.61642e-08
1.41165e-07 -7.95137e-08 9.61995e-08
1.41935e-07 -7.56636e-08 9.59643e-08
2.74009e-07 5.94246e-11 3.81963e-08
2.75504e-07 -1.58978e-07 9.61267e-08
2.84e-07 -2.90913e-07 9.51961e-08
2.75318e-07 -3.07155e-07 9.50594e-08
1.60203e-07 -3.81711e-07 9.48661e-08
1.41713e-07 -3.8226e-07 9.53115e-08
2.48139e-08 -3.2151e-07 9.59411e-08
2.56771e-08 -3.16208e-07 9.58009e-08
1.96959e-08 -3.06345e-07 9.64359e-08
5.99488e-09 -1.65612e-07 9.64483e-08
1.30549e-08 -1.56833e-07 9.58773e-08
1.49725e-07 -2.2614e-07 3.83072e-08
1.57582e-08 -3.22004e-07 9.63221e-08
-8.24979e-08 -4.09933e-07 9.52901e-08
-1.00947e-07 -4.12247e-07 9.57202e-08
-2.34006e-07 -3.70821e-07 9.56358e-08
-2.34144e-07 -3.65363e-07 9.5492e-08
-2.45871e-07 -3.55303e-07 9.59432e-08
-2.85192e-07 -2.25e-07 1.02503e-07
-2.79269e-07 -2.12818e-07 1.04407e-07
-2.82597e-07 -2.09043e-07 1.05764e-07
-1.42986e-07 -9.87492e-08 1.04072e-07
-1.09722e-07 -2.50008e-07 3.86392e-08
-3.02405e-07 -2.15106e-07 1.09105e-07
-5.01036e-07 -1.23444e-07 1.15577e-07
-4.9995e-07 -1.18291e-07 1.15561e-07
-5.10564e-07 -1.08182e-07 1.15666e-07
-5.10541e-07 1.08136e-07 1.15667e-07
-4.99922e-07 1.18243e-07 1.15562e-07
-5.01007e-07 1.23396e-07 1.15577e-07
-3.0205e-07 2.14976e-07 1.08973e-07
-2.82847e-07 2.08945e-07 1.05942e-07
-1.42862e-07 9.86486e-08 1.04059e-07
-3.00501e-07 -3.38246e-11 1.09141e-07
-2.79467e-07 2.12721e-07 1.04545e-07
-2.8531e-07 2.24927e-07 1.02581e-07
-2.45718e-07 3.55199e-07 9.59479e-08
-2.33994e-07 3.65256e-07 9.54993e-08
-2.33856e-07 3.70715e-07 9.56435e-08
-1.01544e-07 4.12155e-07 9.53136e-08
-8.30975e-08 4.09963e-07 9.57477e-08
1.58824e-08 3.22061e-07 9.63726e-08
-1.09637e-07 2.50291e-07 3.86187e-08
-1.97829e-09 1.53828e-07 -9.61838e-08
1.19354e-08 1.52805e-07 -9.62738e-08
-1.28348e-07 9.56581e-08 -1.01078e-07
-1.27127e-07 9.11673e-08 -1.01125e-07
-1.34764e-07 8.39376e-08 -1.04048e-07
-1.34903e-07 -8.40194e-08 -1.04059e-07
-1.27269e-07 -9.12528e-08 -1.01142e-07
-1.28489e-07 -9.57442e-08 -1.01096e-07
-1.98968e-09 -1.53524e-07 -9.64708e-08
1.18988e-08 -1.52955e-07 -9.60187e-08
1.2709e-07 -7.94265e-08 -9.5928e-08
1.34012e-07 -6.75199e-08 -9.61745e-08
1.34185e-07 6.7604e-08 -9.6218e-08
1.27219e-07 7.97059e-08 -9.62134e-08
0 0 0
1.30575e-08 1.5675e-07 -9.60453e-08
5.9562e-09 1.65719e-07 -9.64005e-08
1.98508e-08 3.0642e-07 -9.64781e-08
2.58005e-08 3.16267e-07 -9.5827e-08
2.49336e-08 3.21569e-07 -9.59657e-08
1.41815e-07 3.82276e-07 -9.53205e-08
1.60304e-07 3.81732e-07 -9.48783e-08
2.75393e-07 3.07075e-07 -9.49555e-08
2.84046e-07 2.90806e-07 -9.5082e-08
2.75557e-07 1.58972e-07 -9.61225e-08
2.65118e-07 1.4688e-07 -9.60051e-08
1.41272e-07 7.93131e-08 -9.59421e-08
1.49884e-07 2.25019e-07 -3.8304e-08
1.42078e-07 7.55343e-08 -9.57932e-08
2.81005e-07 1.49371e-07 -9.63203e-08
3.96229e-07 8.47158e-08 -9.50427e-08
4.05479e-07 6.88131e-08 -9.51669e-08
4.05376e-07 -6.89522e-08 -9.50979e-08
3.96123e-07 -8.48821e-08 -9.49872e-08
2.809e-07 -1.49692e-07 -9.57297e-08
2.65106e-07 -1.46806e-07 -9.61642e-08
1.41165e-07 -7.95137e-08 -9.61995e-08
1.41935e-07 -7.56636e-08 -9.59643e-08
2.74009e-07 5.94246e-11 -3.81963e-08
2.75504e-07 -1.58978e-07 -9.61267e-08
2.84e-07 -2.90913e-07 -9.51961e-08
2.75318e-07 -3.07155e-07 -9.50594e-08
1.60203e-07 -3.81711e-07 -9.48661e-08
1.41713e-07 -3.8226e-07 -9.53115e-08
2.48139e-08 -3.2151e-07 -9.59411e-08
2.56771e-08 -3.16208e-07 -9.58009e-08
1.96959e-08 -3.06345e-07 -9.64359e-08
5.99488e-09 -1.65612e-07 -9.64483e-08
1.30549e-08 -1.56833e-07 -9.58773e-08
1.49725e-07 -2.2614e-07 -3.83072e-08
1.57582e-08 -3.22004e-07 -9.63221e-08
-8.24979e-08 -4.09933e-07 -9.52901e-08
-1.00947e-07 -4.12247e-07 -9.57202e-08
-2.34006e-07 -3.70821e-07 -9.56358e-08
-2.34144e-07 -3.65363e-07 -9.5492e-08
-2.45871e-07 -3.55303e-07 -9.59432e-08
-2.85192e-07 -2.25e-07 -1.02503e-07
-2.79269e-07 -2.12818e-07 -1.04407e-07
-2.82597e-07 -2.09043e-07 -1.05764e-07
-1.42986e-07 -9.87492e-08 -1.04072e-07
-1.09722e-07 -2.50008e-07 -3.86392e-08
-3.02405e-07 -2.15106e-07 -1.09105e-07
-5.01036e-07 -1.23444e-07 -1.15577e-07
-4.9995e-07 -1.18291e-07 -1.15561e-07
-5.10564e-07 -1.08182e-07 -1.15666e-07
-5.10541e-07 1.08136e-07 -1.15667e-07
-4.99922e-07 1.18243e-07 -1.15562e-07
-5.01007e-07 1.23396e-07 -1.15577e-07
-3.0205e-07 2.14976e-07 -1.08973e-07
-2.82847e-07 2.08945e-07 -1.05942e-07
-1.42862e-07 9.86486e-08 -1.04059e-07
-3.00501e-07 -3.38246e-11 -1.09141e-07
-2.79467e-07 2.12721e-07 -1.04545e-07
-2.8531e-07 2.24927e-07 -1.02581e-07
-2.45718e-07 3.55199e-07 -9.59479e-08
-2.33994e-07 3.65256e-07 -9.54993e-08
-2.33856e-07 3.70715e-07 -9.56435e-08
-1.01544e-07 4.12155e-07 -9.53136e-08
-8.30975e-08 4.09963e-07 -9.57477e-08
1.58824e-08 3.22061e-07 -9.63726e-08
-1.09637e-07 2.50291e-07 -3.86187e-08
4.83727e-09 1.49741e-07 9.58096e-08
-9.86727e-08 1.09574e-07 9.27619e-08
-7.53722e-08 1.19506e-07 8.61361e-08
-5.38282e-08 1.28912e-07 8.53653e-08
-3.10479e-08 1.39204e-07 9.03115e-08
-1.27345e-07 9.33553e-08 1.01139e-07
-1.29334e-07 8.58235e-08 1.02198e-07
-1.35068e-07 -4.73943e-08 1.01113e-07
-1.34563e-07 -1.54461e-08 9.85341e-08
-1.34497e-07 1.53823e-08 9.84406e-08
-1.34982e-07 4.73167e-08 1.01143e-07
-1.29475e-07 -8.59075e-08 1.02211e-07
-1.27486e-07 -9.34413e-08 1.01157e-07
-3.10045e-08 -1.39219e-07 9.02819e-08
-5.39177e-08 -1.28868e-07 8.56516e-08
-7.55061e-08 -1.19534e-07 8.61861e-08
-9.88145e-08 -1.09642e-07 9.27898e-08
4.69666e-09 -1.49653e-07 9.58266e-08
9.95747e-08 -9.6093e-08 8.96523e-08
7.87274e-08 -1.08796e-07 8.41371e-08
5.9543e-08 -1.21149e-07 8.41511e-08
3.89927e-08 -1.34606e-07 8.97261e-08
1.27117e-07 -7.16679e-08 9.58016e-08
1.33047e-07 3.55723e-08 8.95803e-08
1.3284e-07 1.12445e-08 8.42301e-08
1.32751e-07 -1.123e-08 8.44348e-08
1.33025e-07 -3.55188e-08 8.95001e-08
1.27291e-07 7.18373e-08 9.59313e-08
3.89995e-08 1.34781e-07 8.96493e-08
5.96142e-08 1.21281e-07 8.44133e-08
7.88605e-08 1.08967e-07 8.44103e-08
9.97711e-08 9.6102e-08 8.96099e-08
0 0 0
0 0 0
0 0 0
1.29777e-08 1.54878e-07 9.62884e-08
1.07449e-08 1.62246e-07 9.58766e-08
7.94944e-09 1.98341e-07 8.98715e-08
1.06439e-08 2.23352e-07 8.49025e-08
1.35545e-08 2.46715e-07 8.4728e-08
1.63648e-08 2.72325e-07 9.00077e-08
2.38423e-08 3.0959e-07 9.58561e-08
2.55778e-08 3.18965e-07 9.60018e-08
5.72063e-08 3.29002e-07 9.02721e-08
7.97488e-08 3.33189e-07 8.57512e-08
9.75468e-08 3.42739e-07 8.57883e-08
1.1555e-07 3.59117e-07 8.97997e-08
1.50542e-07 3.77921e-07 9.47141e-08
1.8478e-07 3.56391e-07 8.99295e-08
2.0187e-07 3.37662e-07 8.52972e-08
2.19268e-07 3.26034e-07 8.5387e-08
2.4231e-07 3.18586e-07 8.95834e-08
2.76168e-07 2.96803e-07 9.47864e-08
2.74377e-07 2.56467e-07 8.96785e-08
2.65928e-07 2.33047e-07 8.59439e-08
2.64294e-07 2.12692e-07 8.57818e-08
2.68882e-07 1.90296e-07 9.04597e-08
2.66893e-07 1.54537e-07 9.58343e-08
1.69874e-07 9.54328e-08 8.97839e-08
1.91823e-07 1.07066e-07 8.42953e-08
2.12455e-07 1.18126e-07 8.43665e-08
2.35105e-07 1.30258e-07 8.98393e-08
1.34316e-07 8.28841e-08 9.56729e-08
1.43195e-07 2.3537e-07 3.88651e-08
1.32129e-07 2.2645e-07 3.84265e-08
1.40417e-07 2.16799e-07 3.7921e-08
1.39232e-07 7.0556e-08 9.57016e-08
1.42191e-07 7.72819e-08 9.59913e-08
2.72568e-07 1.44417e-07 9.5737e-08
3.03989e-07 1.2674e-07 9.04393e-08
3.20638e-07 1.10479e-07 8.60602e-08
3.38484e-07 1.0057e-07 8.56424e-08
3.62308e-07 9.47541e-08 8.97064e-08
3.97386e-07 7.44617e-08 9.48789e-08
3.97475e-07 3.44213e-08 8.97541e-08
3.9118e-07 1.03475e-08 8.53733e-08
3.90893e-07 -1.07568e-08 8.57433e-08
3.97485e-07 -3.45164e-08 8.96233e-08
3.97295e-07 -7.46077e-08 9.48118e-08
3.62171e-07 -9.49281e-08 8.96966e-08
3.38324e-07 -1.00699e-07 8.56271e-08
3.20458e-07 -1.10394e-07 8.57273e-08
3.03842e-07 -1.26761e-07 9.06133e-08
2.72115e-07 -1.44711e-07 9.55659e-08
1.69707e-07 -9.53447e-08 8.97185e-08
1.91699e-07 -1.07078e-07 8.45746e-08
2.12366e-07 -1.18146e-07 8.46173e-08
2.3503e-07 -1.30278e-07 8.97174e-08
1.4206e-07 -7.7451e-08 9.62153e-08
1.39055e-07 -7.05608e-08 9.57312e-08
2.65488e-07 8.48274e-09 3.85183e-08
2.54891e-07 5.96636e-10 3.87977e-08
2.64568e-07 -8.97161e-09 3.85756e-08
1.34355e-07 -8.28275e-08 9.56607e-08
2.66851e-07 -1.5451e-07 9.58649e-08
2.68874e-07 -1.90354e-07 9.03288e-08
2.63965e-07 -2.1253e-07 8.61769e-08
2.66145e-07 -2.32802e-07 8.55892e-08
2.74261e-07 -2.56584e-07 8.98462e-08
2.761e-07 -2.96895e-07 9.49008e-08
2.42183e-07 -3.18552e-07 8.9676e-08
2.19118e-07 -3.26039e-07 8.54278e-08
2.01728e-07 -3.37627e-07 8.52364e-08
1.8467e-07 -3.56363e-07 8.98983e-08
1.5044e-07 -3.77903e-07 9.47033e-08
1.15433e-07 -3.59106e-07 8.9806e-08
9.74218e-08 -3.42692e-07 8.58018e-08
7.96426e-08 -3.33117e-07 8.57565e-08
5.71068e-08 -3.28937e-07 9.02645e-08
2.5457e-08 -3.18906e-07 9.59769e-08
2.37054e-08 -3.09524e-07 9.58225e-08
7.87435e-09 -1.98276e-07 8.99518e-08
1.06517e-08 -2.23353e-07 8.47071e-08
1.33977e-08 -2.46692e-07 8.49289e-08
1.63178e-08 -2.7227e-07 8.99339e-08
1.078e-08 -1.62217e-07 9.58509e-08
1.29636e-08 -1.54999e-07 9.60671e-08
1.41058e-07 -2.16324e-07 3.87144e-08
1.32033e-07 -2.2593e-07 3.84244e-08
1.42364e-07 -2.34943e-07 3.80798e-08
-1.16662e-09 -1.61694e-07 9.6239e-08
1.44083e-08 -3.1207e-07 9.61649e-08
-1.27104e-08 -3.34294e-07 9.07563e-08
-3.18527e-08 -3.43834e-07 8.6302e-08
-4.60799e-08 -3.58518e-07 8.59941e-08
-6.04611e-08 -3.80866e-07 9.04553e-08
-9.27524e-08 -4.07007e-07 9.51242e-08
-1.29303e-07 -3.92958e-07 9.02405e-08
-1.49617e-07 -3.80653e-07 8.62379e-08
-1.70262e-07 -3.75223e-07 8.60966e-08
-1.96653e-07 -3.74865e-07 9.0329e-08
-2.33724e-07 -3.68096e-07 9.56687e-08
-2.3877e-07 -3.58355e-07 9.54433e-08
-2.43683e-07 -3.21099e-07 9.10211e-08
-2.43678e-07 -2.97941e-07 8.78312e-08
-2.50738e-07 -2.77845e-07 8.90052e-08
-2.6542e-07 -2.56135e-07 9.45883e-08
-2.79511e-07 -2.19422e-07 1.02573e-07
-2.80603e-07 -2.10793e-07 1.05233e-07
-1.73216e-07 -1.2133e-07 1.01491e-07
-1.99671e-07 -1.41719e-07 9.90666e-08
-2.25661e-07 -1.61735e-07 9.91945e-08
-2.5283e-07 -1.82824e-07 1.02267e-07
-1.35793e-07 -1.01199e-07 1.01831e-07
-1.20015e-07 -2.42998e-07 3.99413e-08
-1.28499e-07 -2.56477e-07 3.99511e-08
-1.17095e-07 -2.62375e-07 3.88067e-08
-1.4221e-07 -8.99624e-08 1.04858e-07
-2.94109e-07 -2.07956e-07 1.08029e-07
-3.44843e-07 -1.99109e-07 1.10901e-07
-3.84738e-07 -1.81297e-07 1.11897e-07
-4.23665e-07 -1.62591e-07 1.13029e-07
-4.62202e-07 -1.43312e-07 1.14428e-07
-5.00149e-07 -1.20952e-07 1.15585e-07
-5.03297e-07 -1.11087e-07 1.1558e-07
-5.11337e-07 -6.45957e-08 1.15034e-07
-5.11752e-07 -2.15324e-08 1.14563e-07
-5.11752e-07 2.14772e-08 1.1456e-07
-5.11325e-07 6.45428e-08 1.15034e-07
-5.03273e-07 1.11039e-07 1.1558e-07
-5.00121e-07 1.20904e-07 1.15586e-07
-4.62159e-07 1.43254e-07 1.14429e-07
-4.23611e-07 1.62503e-07 1.1302e-07
-3.84715e-07 1.81228e-07 1.1185e-07
-3.44837e-07 1.99126e-07 1.10922e-07
-2.93733e-07 2.0782e-07 1.07937e-07
-1.73104e-07 1.21197e-07 1.01491e-07
-1.99575e-07 1.41562e-07 9.90875e-08
-2.25577e-07 1.61569e-07 9.93076e-08
-2.52747e-07 1.82715e-07 1.02266e-07
-1.42102e-07 8.98683e-08 1.0485e-07
-3.18262e-07 1.82458e-08 1.10009e-07
-3.36585e-07 -1.9003e-11 1.10964e-07
-3.18239e-07 -1.83178e-08 1.10052e-07
-1.3566e-07 1.01106e-07 1.01815e-07
-2.80837e-07 2.10686e-07 1.05394e-07
-2.79642e-07 2.19336e-07 1.02663e-07
-2.65467e-07 2.56049e-07 9.46342e-08
-2.50724e-07 2.77837e-07 8.90186e-08
-2.43585e-07 2.97922e-07 8.78595e-08
-2.43553e-07 3.21012e-07 9.10233e-08
-2.38619e-07 3.58249e-07 9.54489e-08
-2.33574e-07 3.6799e-07 9.56762e-08
-1.96517e-07 3.74722e-07 9.03513e-08
-1.70129e-07 3.75077e-07 8.6092e-08
-1.49558e-07 3.80225e-07 8.59107e-08
-1.29243e-07 3.9278e-07 9.04557e-08
-9.25916e-08 4.06975e-07 9.51496e-08
-6.0418e-08 3.80944e-07 9.0291e-08
-4.60286e-08 3.5889e-07 8.6361e-08
-3.17381e-08 3.43966e-07 8.63571e-08
-1.25666e-08 3.34365e-07 9.07933e-08
1.45151e-08 3.12135e-07 9.62204e-08
-1.20908e-09 1.61884e-07 9.61044e-08
-1.15991e-07 2.62692e-07 3.94334e-08
-1.28406e-07 2.55193e-07 3.99662e-08
-1.20883e-07 2.4338e-07 3.93036e-08
4.83727e-09 1.49741e-07 -9.58096e-08
-9.86727e-08 1.09574e-07 -9.27619e-08
-7.53722e-08 1.19506e-07 -8.61361e-08
-5.38282e-08 1.28912e-07 -8.53653e-08
-3.10479e-08 1.39204e-07 -9.03115e-08
-1.27345e-07 9.33553e-08 -1.01139e-07
-1.29334e-07 8.58235e-08 -1.02198e-07
-1.35068e-07 -4.73943e-08 -1.01113e-07
-1.34563e-07 -1.54461e-08 -9.85341e-08
-1.34497e-07 1.53823e-08 -9.84406e-08
-1.34982e-07 4.73167e-08 -1.01143e-07
-1.29475e-07 -8.59075e-08 -1.02211e-07
-1.27486e-07 -9.34413e-08 -1.01157e-07
-3.10045e-08 -1.39219e-07 -9.02819e-08
-5.39177e-08 -1.28868e-07 -8.56516e-08
-7.55061e-08 -1.19534e-07 -8.61861e-08
-9.88145e-08 -1.09642e-07 -9.27898e-08
4.69666e-09 -1.49653e-07 -9.58266e-08
9.95747e-08 -9.6093e-08 -8.96523e-08
7.87274e-08 -1.08796e-07 -8.41371e-08
5.9543e-08 -1.21149e-07 -8.41511e-08
3.89927e-08 -1.34606e-07 -8.97261e-08
1.27117e-07 -7.16679e-08 -9.58016e-08
1.33047e-07 3.55723e-08 -8.95803e-08
1.3284e-07 1.12445e-08 -8.42301e-08
1.32751e-07 -1.123e-08 -8.44348e-08
1.33025e-07 -3.55188e-08 -8.95001e-08
1.27291e-07 7.18373e-08 -9.59313e-08
3.89995e-08 1.34781e-07 -8.96493e-08
5.96142e-08 1.21281e-07 -8.44133e-08
7.88605e-08 1.08967e-07 -8.44103e-08
9.97711e-08 9.6102e-08 -8.96099e-08
0 0 0
0 0 0
0 0 0
1.29777e-08 1.54878e-07 -9.62884e-08
1.07449e-08 1.62246e-07 -9.58766e-08
7.94944e-09 1.98341e-07 -8.98715e-08
1.06439e-08 2.23352e-07 -8.49025e-08
1.35545e-08 2.46715e-07 -8.4728e-08
1.63648e-08 2.72325e-07 -9.00077e-08
2.38423e-08 3.0959e-07 -9.58561e-08
2.55778e-08 3.18965e-07 -9.60018e-08
5.72063e-08 3.29002e-07 -9.02721e-08
7.97488e-08 3.33189e-07 -8.57512e-08
9.75468e-08 3.42739e-07 -8.57883e-08
1.1555e-07 3.59117e-07 -8.97997e-08
1.50542e-07 3.77921e-07 -9.47141e-08
1.8478e-07 3.56391e-07 -8.99295e-08
2.0187e-07 3.37662e-07 -8.52972e-08
2.19268e-07 3.26034e-07 -8.5387e-08
2.4231e-07 3.18586e-07 -8.95834e-08
2.76168e-07 2.96803e-07 -9.47864e-08
2.74377e-07 2.56467e-07 -8.96785e-08
2.65928e-07 2.33047e-07 -8.59439e-08
2.64294e-07 2.12692e-07 -8.57818e-08
2.68882e-07 1.90296e-07 -9.04597e-08
2.66893e-07 1.54537e-07 -9.58343e-08
1.69874e-07 9.54328e-08 -8.97839e-08
1.91823e-07 1.07066e-07 -8.42953e-08
2.12455e-07 1.18126e-07 -8.43665e-08
2.35105e-07 1.30258e-07 -8.98393e-08
1.34316e-07 8.28841e-08 -9.56729e-08
1.43195e-07 2.3537e-07 -3.88651e-08
1.32129e-07 2.2645e-07 -3.84265e-08
1.40417e-07 2.16799e-07 -3.7921e-08
1.39232e-07 7.0556e-08 -9.57016e-08
1.42191e-07 7.72819e-08 -9.59913e-08
2.72568e-07 1.44417e-07 -9.5737e-08
3.03989e-07 1.2674e-07 -9.04393e-08
3.20638e-07 1.10479e-07 -8.60602e-08
3.38484e-07 1.0057e-07 -8.56424e-08
3.62308e-07 9.47541e-08 -8.97064e-08
3.97386e-07 7.44617e-08 -9.48789e-08
3.97475e-07 3.44213e-08 -8.97541e-08
3.9118e-07 1.03475e-08 -8.53733e-08
3.90893e-07 -1.07568e-08 -8.57433e-08
3.97485e-07 -3.45164e-08 -8.96233e-08
3.97295e-07 -7.46077e-08 -9.48118e-08
3.62171e-07 -9.49281e-08 -8.96966e-08
3.38324e-07 -1.00699e-07 -8.56271e-08
3.20458e-07 -1.10394e-07 -8.57273e-08
3.03842e-07 -1.26761e-07 -9.06133e-08
2.72115e-07 -1.44711e-07 -9.55659e-08
1.69707e-07 -9.53447e-08 -8.97185e-08
1.91699e-07 -1.07078e-07 -8.45746e-08
2.12366e-07 -1.18146e-07 -8.46173e-08
2.3503e-07 -1.30278e-07 -8.97174e-08
1.4206e-07 -7.7451e-08 -9.62153e-08
1.39055e-07 -7.05608e-08 -9.57312e-08
2.65488e-07 8.48274e-09 -3.85183e-08
2.54891e-07 5.96636e-10 -3.87977e-08
2.64568e-07 -8.97161e-09 -3.85756e-08
1.34355e-07 -8.28275e-08 -9.56607e-08
2.66851e-07 -1.5451e-07 -9.58649e-08
2.68874e-07 -1.90354e-07 -9.03288e-08
2.63965e-07 -2.1253e-07 -8.61769e-08
2.66145e-07 -2.32802e-07 -8.55892e-08
2.74261e-07 -2.56584e-07 -8.98462e-08
2.761e-07 -2.96895e-07 -9.49008e-08
2.42183e-07 -3.18552e-07 -8.9676e-08
2.19118e-07 -3.26039e-07 -8.54278e-08
2.01728e-07 -3.37627e-07 -8.52364e-08
1.8467e-07 -3.56363e-07 -8.98983e-08
1.5044e-07 -3.77903e-07 -9.47033e-08
1.15433e-07 -3.59106e-07 -8.9806e-08
9.74218e-08 -3.42692e-07 -8.58018e-08
7.96426e-08 -3.33117e-07 -8.57565e-08
5.71068e-08 -3.28937e-07 -9.02645e-08
2.5457e-08 -3.18906e-07 -9.59769e-08
2.37054e-08 -3.09524e-07 -9.58225e-08
7.87435e-09 -1.98276e-07 -8.99518e-08
1.06517e-08 -2.23353e-07 -8.47071e-08
1.33977e-08 -2.46692e-07 -8.49289e-08
1.63178e-08 -2.7227e-07 -8.99339e-08
1.078e-08 -1.62217e-07 -9.58509e-08
1.29636e-08 -1.54999e-07 -9.60671e-08
1.41058e-07 -2.16324e-07 -3.87144e-08
1.32033e-07 -2.2593e-07 -3.84244e-08
1.42364e-07 -2.34943e-07 -3.80798e-08
-1.16662e-09 -1.61694e-07 -9.6239e-08
1.44083e-08 -3.1207e-07 -9.61649e-08
-1.27104e-08 -3.34294e-07 -9.07563e-08
-3.18527e-08 -3.43834e-07 -8.6302e-08
-4.60799e-08 -3.58518e-07 -8.59941e-08
-6.04611e-08 -3.80866e-07 -9.04553e-08
-9.27524e-08 -4.07007e-07 -9.51242e-08
-1.29303e-07 -3.92958e-07 -9.02405e-08
-1.49617e-07 -3.80653e-07 -8.62379e-08
-1.70262e-07 -3.75223e-07 -8.60966e-08
-1.96653e-07 -3.74865e-07 -9.0329e-08
-2.33724e-07 -3.68096e-07 -9.56687e-08
-2.3877e-07 -3.58355e-07 -9.54433e-08
-2.43683e-07 -3.21099e-07 -9.10211e-08
-2.43678e-07 -2.97941e-07 -8.78312e-08
-2.50738e-07 -2.77845e-07 -8.90052e-08
-2.6542e-07 -2.56135e-07 -9.45883e-08
-2.79511e-07 -2.19422e-07 -1.02573e-07
-2.80603e-07 -2.10793e-07 -1.05233e-07
-1.73216e-07 -1.2133e-07 -1.01491e-07
-1.99671e-07 -1.41719e-07 -9.90666e-08
-2.25661e-07 -1.61735e-07 -9.91945e-08
-2.5283e-07 -1.82824e-07 -1.02267e-07
-1.35793e-07 -1.01199e-07 -1.01831e-07
-1.20015e-07 -2.42998e-07 -3.99413e-08
-1.28499e-07 -2.56477e-07 -3.99511e-08
-1.17095e-07 -2.62375e-07 -3.88067e-08
-1.4221e-07 -8.99624e-08 -1.04858e-07
-2.94109e-07 -2.07956e-07 -1.08029e-07
-3.44843e-07 -1.99109e-07 -1.10901e-07
-3.84738e-07 -1.81297e-07 -1.11897e-07
-4.23665e-07 -1.62591e-07 -1.13029e-07
-4.62202e-07 -1.43312e-07 -1.14428e-07
-5.00149e-07 -1.20952e-07 -1.15585e-07
-5.03297e-07 -1.11087e-07 -1.1558e-07
-5.11337e-07 -6.45957e-08 -1.15034e-07
-5.11752e-07 -2.15324e-08 -1.14563e-07
-5.11752e-07 2.14772e-08 -1.1456e-07
-5.11325e-07 6.45428e-08 -1.15034e-07
-5.03273e-07 1.11039e-07 -1.1558e-07
-5.00121e-07 1.20904e-07 -1.15586e-07
-4.62159e-07 1.43254e-07 -1.14429e-07
-4.23611e-07 1.62503e-07 -1.1302e-07
-3.84715e-07 1.81228e-07 -1.1185e-07
-3.44837e-07 1.99126e-07 -1.10922e-07
-2.93733e-07 2.0782e-07 -1.07937e-07
-1.73104e-07 1.21197e-07 -1.01491e-07
-1.99575e-07 1.41562e-07 -9.90875e-08
-2.25577e-07 1.61569e-07 -9.93076e-08
-2.52747e-07 1.82715e-07 -1.02266e-07
-1.42102e-07 8.98683e-08 -1.0485e-07
-3.18262e-07 1.82458e-08 -1.10009e-07
-3.36585e-07 -1.9003e-11 -1.10964e-07
-3.18239e-07 -1.83178e-08 -1.10052e-07
-1.3566e-07 1.01106e-07 -1.01815e-07
-2.80837e-07 2.10686e-07 -1.05394e-07
-2.79642e-07 2.19336e-07 -1.02663e-07
-2.65467e-07 2.56049e-07 -9.46342e-08
-2.50724e-07 2.77837e-07 -8.90186e-08
-2.43585e-07 2.97922e-07 -8.78595e-08
-2.43553e-07 3.21012e-07 -9.10233e-08
-2.38619e-07 3.58249e-07 -9.54489e-08
-2.33574e-07 3.6799e-07 -9.56762e-08
-1.96517e-07 3.74722e-07 -9.03513e-08
-1.70129e-07 3.75077e-07 -8.6092e-08
-1.49558e-07 3.80225e-07 -8.59107e-08
-1.29243e-07 3.9278e-07 -9.04557e-08
-9.25916e-08 4.06975e-07 -9.51496e-08
-6.0418e-08 3.80944e-07 -9.0291e-08
-4.60286e-08 3.5889e-07 -8.6361e-08
-3.17381e-08 3.43966e-07 -8.63571e-08
-1.25666e-08 3.34365e-07 -9.07933e-08
1.45151e-08 3.12135e-07 -9.62204e-08
-1.20908e-09 1.61884e-07 -9.61044e-08
-1.15991e-07 2.62692e-07 -3.94334e-08
-1.28406e-07 2.55193e-07 -3.99662e-08
-1.20883e-07 2.4338e-07 -3.93036e-08
3.98402e-08 -3.84378e-08 6.49438e-08
4.02246e-08 4.06101e-08 6.58526e-08
-3.86496e-08 4.49396e-08 6.77249e-08
-3.88979e-08 -4.50381e-08 6.78595e-08
-8.94805e-08 -6.88642e-08 9.11973e-08
-8.93307e-08 6.8766e-08 9.11641e-08
3.71794e-10 4.92656e-08 6.13836e-08
-4.52712e-08 1.27509e-09 6.26575e-08
4.4227e-08 -1.40059e-09 5.84479e-08
-1.32643e-10 -4.92029e-08 6.13716e-08
-1.06899e-07 7.3856e-08 9.71069e-08
-1.07044e-07 -7.39463e-08 9.71284e-08
8.25664e-08 4.47456e-08 8.27899e-08
8.66072e-08 -4.63361e-08 8.42581e-08
1.76661e-10 -9.94407e-08 8.42026e-08
4.69055e-09 9.9258e-08 8.41571e-08
3.19115e-08 7.74877e-08 7.66436e-08
-2.86514e-08 -8.1195e-08 7.74931e-08
-8.30135e-08 2.34199e-08 8.40959e-08
-8.45386e-08 -2.3049e-08 8.46773e-08
3.17205e-08 -8.04667e-08 7.7345e-08
-2.82672e-08 8.47844e-08 7.83916e-08
1.44618e-08 -1.45136e-08 3.81088e-08
1.64634e-08 1.83034e-08 4.24232e-08
-1.61397e-08 1.58277e-08 4.10847e-08
-1.71185e-08 -1.68877e-08 4.25969e-08
-1.11532e-07 8.79259e-08 9.82368e-08
-1.11675e-07 -8.80094e-08 9.8257e-08
-6.14977e-08 7.69732e-08 8.23705e-08
-6.16507e-08 -7.67831e-08 8.23681e-08
8.72753e-08 -1.29442e-08 7.83712e-08
8.26439e-08 1.5078e-08 7.71105e-08
-6.55176e-08 -4.2292e-08 7.90857e-08
-6.53248e-08 4.21792e-08 7.90064e-08
1.42883e-08 -1.21109e-07 9.04486e-08
-7.38921e-09 1.22491e-07 9.06725e-08
6.32356e-08 -6.91156e-08 8.02222e-08
6.31681e-08 6.77453e-08 8.00436e-08
4.61105e-09 2.56162e-08 4.37866e-08
3.53077e-09 -2.48456e-08 4.27893e-08
-2.41677e-08 -4.54694e-09 4.48338e-08
2.3379e-08 -2.80684e-09 4.15698e-08
-1.10517e-07 4.96979e-08 9.60359e-08
-1.10648e-07 -4.9783e-08 9.6055e-08
5.7931e-08 -2.17471e-08 6.87135e-08
9.42793e-08 6.82971e-08 8.93455e-08
9.47688e-08 -6.86241e-08 8.94796e-08
5.41886e-08 2.21232e-08 6.69889e-08
-1.8029e-08 4.36265e-08 6.01053e-08
-1.72872e-08 -4.26202e-08 5.93155e-08
-3.82474e-08 1.94791e-08 6.00853e-08
2.0438e-08 -3.78778e-08 5.7541e-08
2.11763e-08 3.84001e-08 5.79603e-08
-3.55544e-08 -1.78974e-08 5.7739e-08
-2.6537e-08 -1.06544e-07 8.47012e-08
3.14329e-08 1.02995e-07 8.40221e-08
1.61618e-08 1.25406e-07 9.15042e-08
-8.87567e-09 -1.2682e-07 9.17487e-08
-1.19087e-07 6.49127e-08 9.98173e-08
-1.19219e-07 -6.49999e-08 9.9826e-08
-1.04477e-07 5.83263e-10 9.06331e-08
1.15286e-07 -5.19184e-08 9.22704e-08
1.1583e-07 5.14877e-08 9.23203e-08
2.26027e-08 -1.01057e-07 8.41676e-08
-1.75307e-08 1.04054e-07 8.48158e-08
9.1346e-09 -7.47632e-08 7.47672e-08
-6.14239e-09 7.57329e-08 7.49975e-08
3.24664e-08 1.17015e-08 5.19392e-08
1.27324e-08 7.62733e-08 7.54691e-08
-9.6894e-09 -7.75033e-08 7.57759e-08
5.55131e-08 8.87508e-08 8.09518e-08
3.40209e-08 -1.70556e-08 5.45516e-08
-5.21079e-08 -9.62903e-08 8.25778e-08
1.0312e-07 2.68061e-08 8.431e-08
1.04889e-07 -2.98499e-08 8.51677e-08
-9.35795e-08 8.65059e-08 9.2866e-08
-9.37216e-08 -8.6589e-08 9.28907e-08
-6.00483e-08 -2.00515e-08 7.32607e-08
-8.78039e-08 -4.70297e-08 8.86108e-08
-8.75422e-08 4.69583e-08 8.85208e-08
-1.23691e-07 8.67915e-08 1.00969e-07
-1.22444e-07 7.78653e-08 1.01161e-07
-1.23833e-07 -8.68766e-08 1.00985e-07
-1.22584e-07 -7.7951e-08 1.01174e-07
5.67569e-08 -8.92091e-08 8.1251e-08
-7.00233e-08 6.25616e-08 8.36379e-08
-7.01948e-08 -6.26508e-08 8.36896e-08
-6.45297e-09 1.37956e-07 9.39423e-08
1.48554e-08 -1.36618e-07 9.37484e-08
-5.32898e-08 9.71948e-08 8.29745e-08
-6.0001e-08 2.08657e-08 7.32947e-08
-7.28096e-08 1.36949e-09 7.84997e-08
1.0128e-07 4.65646e-09 8.04556e-08
4.31199e-08 6.12706e-08 7.33451e-08
1.11676e-07 7.32728e-08 9.38525e-08
1.11569e-07 -7.33438e-08 9.37511e-08
4.1436e-08 -6.03946e-08 7.26501e-08
6.10186e-08 4.46636e-08 7.5159e-08
-3.86431e-08 -6.5567e-08 7.43467e-08
-2.75325e-09 1.31002e-08 2.8898e-08
-4.38417e-09 -1.35557e-08 3.03935e-08
-1.24774e-08 3.26231e-09 2.98321e-08
1.30548e-08 4.96468e-09 3.0738e-08
-3.89625e-08 6.66776e-08 7.46708e-08
6.24874e-08 -4.59677e-08 7.59455e-08
-1.10491e-07 2.93782e-08 9.38941e-08
-1.11264e-07 -2.909e-08 9.40765e-08
5.05185e-09 -5.23477e-09 1.79818e-08
1.77659e-08 5.81919e-08 6.75315e-08
5.69794e-09 1.16804e-08 2.77627e-08
-1.02444e-08 -5.86618e-09 2.69214e-08
4.20745e-08 -1.04806e-07 8.34113e-08
1.89973e-08 -5.95952e-08 6.83629e-08
6.98475e-08 9.53523e-10 7.14289e-08
-1.86444e-08 -6.24952e-08 6.94612e-08
3.17644e-08 2.48457e-08 5.5868e-08
-1.02245e-07 6.12897e-08 9.48684e-08
-1.02407e-07 -6.13796e-08 9.49002e-08
-7.70077e-08 -9.53876e-08 8.752e-08
-7.65804e-08 9.44342e-08 8.74465e-08
-1.79292e-08 6.32762e-08 6.97439e-08
7.49073e-08 2.87762e-08 7.68669e-08
-3.74337e-08 1.08351e-07 8.40687e-08
7.67487e-08 6.17707e-08 8.33883e-08
7.71621e-08 -6.23923e-08 8.35446e-08
7.88029e-08 -2.99409e-08 7.84523e-08
-5.6972e-09 6.00834e-09 1.97131e-08
-7.05073e-09 2.96742e-08 4.7803e-08
-7.25794e-09 -2.97086e-08 4.78187e-08
-2.60124e-08 6.94308e-09 4.71018e-08
-2.62287e-08 3.13951e-08 5.67288e-08
-2.56859e-08 -3.23078e-08 5.69317e-08
-5.31314e-08 -5.67175e-08 7.64183e-08
2.64959e-08 -2.63328e-08 5.36473e-08
-5.2964e-08 5.67552e-08 7.6364e-08
-7.78657e-08 7.78398e-08 8.75753e-08
-7.80706e-08 -7.80476e-08 8.76232e-08
-4.68298e-08 3.53282e-08 6.90344e-08
-4.76769e-08 -3.50905e-08 6.93897e-08
2.77002e-09 -1.03742e-08 2.4738e-08
9.93098e-09 -2.62265e-09 2.4367e-08
8.06767e-08 8.31589e-08 8.55723e-08
8.0639e-08 -8.31823e-08 8.55401e-08
5.61562e-09 1.35031e-07 9.38875e-08
2.60065e-09 -1.35137e-07 9.39294e-08
1.77408e-07 1.85349e-07 6.81182e-08
1.84127e-07 2.62665e-07 6.85817e-08
1.08374e-07 2.67686e-07 6.85324e-08
9.99678e-08 1.88017e-07 6.79847e-08
6.12082e-08 2.90811e-07 8.76162e-08
5.05289e-08 1.72389e-07 8.72518e-08
1.45293e-07 2.72893e-07 6.44299e-08
9.73079e-08 2.30038e-07 6.28017e-08
1.85451e-07 2.23832e-07 6.33986e-08
1.38214e-07 1.79189e-07 6.40152e-08
4.46942e-08 2.97072e-07 9.22443e-08
3.35038e-08 1.7044e-07 9.21192e-08
2.30403e-07 2.70289e-07 8.48352e-08
2.19409e-07 1.79642e-07 8.37521e-08
1.3367e-07 1.31904e-07 8.42702e-08
1.46826e-07 3.23475e-07 8.44244e-08
1.20728e-07 3.02017e-07 7.80232e-08
1.07069e-07 1.52387e-07 7.72649e-08
6.32795e-08 2.50934e-07 7.88426e-08
5.79518e-08 2.12481e-07 7.90677e-08
1.75089e-07 3.02157e-07 7.86724e-08
1.6664e-07 1.47504e-07 7.8012e-08
1.55722e-07 2.07288e-07 5.07917e-08
1.59756e-07 2.43276e-07 5.13477e-08
1.2708e-07 2.41701e-07 4.98531e-08
1.24193e-07 2.11076e-07 4.93334e-08
4.09415e-08 3.11073e-07 9.38771e-08
2.83672e-08 1.57817e-07 9.38367e-08
8.912e-08 2.95944e-07 8.1437e-08
7.62418e-08 1.60876e-07 8.05646e-08
2.25313e-07 2.37446e-07 7.99868e-08
2.18745e-07 2.08699e-07 7.88141e-08
7.49266e-08 1.93607e-07 7.63129e-08
8.21179e-08 2.66057e-07 7.66576e-08
1.46031e-07 1.10059e-07 9.04575e-08
1.59925e-07 3.46691e-07 9.01567e-08
2.06887e-07 2.90208e-07 8.13639e-08
1.96843e-07 1.61005e-07 7.97141e-08
1.48471e-07 2.50754e-07 5.19722e-08
1.35385e-07 2.01172e-07 5.12623e-08
1.16716e-07 2.24133e-07 5.11947e-08
1.66521e-07 2.23372e-07 5.21532e-08
3.93893e-08 2.74694e-07 8.88332e-08
3.11506e-08 1.9271e-07 8.87129e-08
1.98933e-07 2.47819e-07 7.12816e-08
2.40807e-07 2.92095e-07 8.94291e-08
2.31394e-07 1.57178e-07 8.96728e-08
1.93692e-07 2.04071e-07 7.00542e-08
1.28803e-07 2.66142e-07 6.24183e-08
1.55875e-07 1.85793e-07 6.18256e-08
1.0603e-07 2.4545e-07 6.16059e-08
1.64888e-07 2.62022e-07 6.19736e-08
1.1975e-07 1.88743e-07 6.15436e-08
1.05369e-07 2.12497e-07 5.94592e-08
1.06957e-07 1.27476e-07 8.4243e-08
1.23151e-07 3.27306e-07 8.48319e-08
1.38181e-07 3.51869e-07 9.11422e-08
1.22531e-07 1.06243e-07 9.14827e-08
3.28349e-08 2.88805e-07 9.28993e-08
2.22334e-08 1.80524e-07 9.28119e-08
4.06132e-08 2.3349e-07 8.17836e-08
2.61078e-07 2.76426e-07 9.18856e-08
2.53838e-07 1.73371e-07 9.27277e-08
1.66832e-07 3.24226e-07 8.4712e-08
1.55951e-07 1.28658e-07 8.43953e-08
1.75807e-07 2.36678e-07 5.86023e-08
1.444e-07 1.5464e-07 7.55329e-08
1.54505e-07 2.97956e-07 7.60062e-08
1.3775e-07 3.00162e-07 7.66671e-08
1.2561e-07 1.53681e-07 7.61945e-08
8.3562e-08 1.40622e-07 8.1392e-08
9.99212e-08 3.13189e-07 8.26104e-08
2.38451e-07 1.96885e-07 8.56057e-08
2.45484e-07 2.54111e-07 8.59422e-08
5.86355e-08 3.07301e-07 8.98955e-08
4.54636e-08 1.56245e-07 8.94591e-08
8.16423e-08 2.12709e-07 7.07389e-08
5.33027e-08 1.92147e-07 8.37285e-08
6.10157e-08 2.71311e-07 8.39224e-08
2.91209e-08 3.11261e-07 9.54779e-08
3.03723e-08 3.01781e-07 9.49405e-08
1.64654e-08 1.60643e-07 9.55883e-08
1.81999e-08 1.68978e-07 9.49216e-08
1.70512e-07 2.09159e-07 5.77845e-08
1.99088e-07 3.08129e-07 8.26349e-08
1.90185e-07 1.37284e-07 8.16386e-08
7.94361e-08 2.83972e-07 8.15867e-08
6.91843e-08 1.75486e-07 8.10362e-08
1.61057e-07 3.63461e-07 9.30264e-08
1.45393e-07 9.5044e-08 9.37021e-08
8.52179e-08 2.47573e-07 7.10359e-08
7.10028e-08 2.31949e-07 7.41213e-08
2.35719e-07 2.19022e-07 8.21973e-08
2.59139e-07 2.98282e-07 9.30746e-08
2.49578e-07 1.52738e-07 9.39116e-08
1.84413e-07 2.81327e-07 7.4179e-08
1.73087e-07 1.6482e-07 7.3453e-08
1.99416e-07 1.82683e-07 7.66219e-08
9.86529e-08 1.68734e-07 7.38042e-08
1.10459e-07 2.86278e-07 7.464e-08
1.39666e-07 2.41017e-07 4.46814e-08
1.45199e-07 2.09966e-07 4.51331e-08
1.57232e-07 2.30575e-07 4.53544e-08
1.27232e-07 2.31632e-07 4.50159e-08
2.05991e-07 2.6933e-07 7.7478e-08
3.75649e-08 2.57117e-07 8.51598e-08
3.18824e-08 2.10273e-07 8.51372e-08
1.33708e-07 2.19587e-07 4.06789e-08
1.19442e-07 1.70126e-07 6.9739e-08
1.49133e-07 2.38515e-07 4.40026e-08
1.52371e-07 2.19101e-07 4.30973e-08
1.75068e-07 1.23665e-07 8.37292e-08
1.84979e-07 3.24824e-07 8.44313e-08
1.63214e-07 2.8248e-07 7.05308e-08
2.08224e-07 2.23525e-07 7.38729e-08
1.28934e-07 2.84852e-07 7.092e-08
4.8252e-08 2.84951e-07 8.95746e-08
3.85801e-08 1.81298e-07 8.94021e-08
6.04266e-08 1.45135e-07 8.52477e-08
7.60263e-08 3.12754e-07 8.623e-08
1.74212e-07 2.48809e-07 6.05094e-08
1.55394e-07 1.67007e-07 7.04063e-08
2.11055e-07 1.96275e-07 7.81288e-08
2.21694e-07 2.84888e-07 8.42457e-08
2.13275e-07 1.64225e-07 8.39301e-08
2.20189e-07 2.54546e-07 7.97763e-08
1.35676e-07 2.33486e-07 4.13564e-08
1.46471e-07 1.96944e-07 5.4106e-08
1.37432e-07 2.54831e-07 5.44583e-08
1.1588e-07 2.3443e-07 5.3143e-08
1.19572e-07 2.55993e-07 6.00446e-08
1.62122e-07 1.96202e-07 5.87363e-08
8.57004e-08 1.7883e-07 7.5029e-08
9.56383e-08 2.7813e-07 7.56467e-08
1.12201e-07 1.98558e-07 6.00517e-08
7.31305e-08 2.97934e-07 8.55168e-08
6.07445e-08 1.62022e-07 8.48547e-08
9.95135e-08 2.59453e-07 6.88222e-08
9.32726e-08 1.97941e-07 6.82659e-08
1.36133e-07 2.12772e-07 4.3244e-08
1.27803e-07 2.22983e-07 4.34318e-08
2.24237e-07 3.0369e-07 8.62428e-08
2.1495e-07 1.43628e-07 8.55684e-08
1.33271e-07 9.72984e-08 9.37727e-08
1.48693e-07 3.62115e-07 9.30817e-08
3.04788e-07 -3.58869e-08 6.79631e-08
3.0501e-07 3.75861e-08 6.85955e-08
2.26835e-07 3.97857e-08 6.80237e-08
2.26729e-07 -3.97341e-08 6.80966e-08
1.78343e-07 5.80907e-08 8.72079e-08
1.78223e-07 -5.80797e-08 8.72354e-08
2.64752e-07 4.53067e-08 6.42834e-08
2.19499e-07 -3.78277e-10 6.26422e-08
3.09152e-07 -1.47515e-09 6.2683e-08
2.64249e-07 -4.54221e-08 6.43929e-08
1.61466e-07 6.10571e-08 9.2028e-08
1.61315e-07 -6.10678e-08 9.20562e-08
3.52744e-07 -4.63227e-08 8.48745e-08
3.48451e-07 4.4311e-08 8.35169e-08
2.64809e-07 -9.35773e-08 8.46188e-08
2.69126e-07 9.32852e-08 8.46805e-08
2.94959e-07 7.12407e-08 7.82064e-08
2.36889e-07 -7.44696e-08 7.74646e-08
1.83335e-07 1.89726e-08 7.853e-08
1.80989e-07 -1.89749e-08 7.91709e-08
2.94572e-07 -7.41249e-08 7.89632e-08
2.37319e-07 7.79302e-08 7.82754e-08
2.802e-07 -1.4033e-08 4.89466e-08
2.81664e-07 1.7212e-08 5.12832e-08
2.47001e-07 1.5292e-08 5.04119e-08
2.47754e-07 -1.44036e-08 4.97206e-08
1.57403e-07 7.36695e-08 9.37341e-08
1.5723e-07 -7.369e-08 9.38067e-08
2.05302e-07 6.79688e-08 8.0637e-08
2.0518e-07 -6.76977e-08 8.06536e-08
3.50074e-07 -1.35557e-08 7.98602e-08
3.45965e-07 1.53662e-08 7.86295e-08
2.00827e-07 -3.58406e-08 7.62779e-08
2.00924e-07 3.58798e-08 7.62456e-08
2.79329e-07 -1.15574e-07 9.07885e-08
2.5851e-07 1.16078e-07 9.06074e-08
3.27643e-07 -6.46193e-08 8.15429e-08
3.27626e-07 6.31666e-08 8.12701e-08
2.69236e-07 2.40292e-08 5.19087e-08
2.6834e-07 -2.37085e-08 5.15422e-08
2.39644e-07 4.0455e-09 5.14013e-08
2.89677e-07 -2.88446e-09 5.11655e-08
1.56942e-07 3.95149e-08 8.85382e-08
1.5686e-07 -3.95115e-08 8.85286e-08
3.22614e-07 -2.12802e-08 7.11117e-08
3.61983e-07 -6.83793e-08 8.95028e-08
3.61411e-07 6.77743e-08 8.93422e-08
3.19026e-07 2.1347e-08 6.95663e-08
2.46699e-07 3.9735e-08 6.26627e-08
2.47434e-07 -3.87655e-08 6.21571e-08
2.26447e-07 -1.69721e-08 6.13606e-08
2.85022e-07 -3.49193e-08 6.17359e-08
2.85669e-07 3.5212e-08 6.19539e-08
2.29323e-07 1.56472e-08 5.96349e-08
2.39191e-07 -9.9112e-08 8.43849e-08
2.94117e-07 9.56367e-08 8.52031e-08
2.81329e-07 1.19592e-07 9.18427e-08
2.57171e-07 -1.20319e-07 9.15676e-08
1.49207e-07 5.1958e-08 9.26547e-08
1.49095e-07 -5.19619e-08 9.26446e-08
1.6235e-07 3.02449e-10 8.1418e-08
3.83187e-07 -5.37366e-08 9.18868e-08
3.83572e-07 5.30169e-08 9.19474e-08
2.85848e-07 -9.47014e-08 8.51427e-08
2.47979e-07 9.72367e-08 8.47256e-08
2.73076e-07 -6.94409e-08 7.61263e-08
2.58451e-07 7.01921e-08 7.58476e-08
2.98113e-07 1.111e-08 5.77389e-08
2.76491e-07 7.05722e-08 7.67632e-08
2.55067e-07 -7.18903e-08 7.6498e-08
3.1762e-07 8.07947e-08 8.25296e-08
2.99223e-07 -1.61561e-08 5.96476e-08
2.14367e-07 -8.70539e-08 8.1522e-08
3.66763e-07 2.7688e-08 8.51291e-08
3.68992e-07 -3.09407e-08 8.5886e-08
1.74653e-07 7.41482e-08 8.94599e-08
1.74512e-07 -7.41095e-08 8.94843e-08
2.054e-07 1.73383e-08 7.07929e-08
1.79149e-07 -3.86796e-08 8.36648e-08
1.79406e-07 3.86729e-08 8.35892e-08
1.45207e-07 7.15882e-08 9.54017e-08
1.46207e-07 6.34752e-08 9.47686e-08
1.45034e-07 -7.16668e-08 9.54972e-08
1.46042e-07 -6.34988e-08 9.47868e-08
3.18837e-07 -8.1539e-08 8.28977e-08
1.96873e-07 5.391e-08 8.10224e-08
1.96758e-07 -5.38759e-08 8.10625e-08
2.81278e-07 -1.31847e-07 9.38037e-08
2.60262e-07 1.3124e-07 9.378e-08
2.13225e-07 8.78362e-08 8.17984e-08
2.05967e-07 -1.67011e-08 7.04468e-08
1.92101e-07 1.45803e-09 7.41579e-08
3.62093e-07 4.73585e-09 8.19424e-08
3.07005e-07 5.61281e-08 7.51825e-08
3.80138e-07 -7.53895e-08 9.31221e-08
3.80174e-07 7.50175e-08 9.31495e-08
3.05356e-07 -5.55298e-08 7.46603e-08
3.26247e-07 4.24663e-08 7.66853e-08
2.27175e-07 -5.89041e-08 7.40151e-08
2.59529e-07 1.47187e-08 4.50941e-08
2.60767e-07 -1.40107e-08 4.4568e-08
2.80729e-07 5.22133e-09 4.55104e-08
2.49124e-07 -3.67916e-09 4.46459e-08
2.26852e-07 5.99828e-08 7.42771e-08
3.27839e-07 -4.39492e-08 7.74773e-08
1.56497e-07 2.27621e-08 8.4812e-08
1.55335e-07 -2.23164e-08 8.49028e-08
2.71621e-07 -6.26199e-09 4.08193e-08
2.81672e-07 5.34437e-08 6.9807e-08
2.7095e-07 1.2298e-08 4.39013e-08
2.52323e-07 5.70724e-09 4.32585e-08
3.04078e-07 -9.65312e-08 8.48629e-08
2.82863e-07 -5.48705e-08 7.06503e-08
3.33436e-07 8.46979e-10 7.35983e-08
2.46395e-07 -5.72533e-08 7.05892e-08
2.96749e-07 2.30901e-08 6.05717e-08
1.65578e-07 5.01547e-08 8.92917e-08
1.65435e-07 -5.01606e-08 8.93119e-08
1.90938e-07 8.3154e-08 8.52024e-08
1.90535e-07 -8.39424e-08 8.53357e-08
2.4708e-07 5.79848e-08 7.0768e-08
3.39595e-07 2.85279e-08 7.8286e-08
2.28536e-07 9.98608e-08 8.34692e-08
3.4301e-07 -6.02009e-08 8.43401e-08
3.42554e-07 5.93814e-08 8.41269e-08
3.43563e-07 -3.00487e-08 7.97482e-08
2.57123e-07 -6.33552e-09 4.12348e-08
2.57268e-07 2.77369e-08 5.42535e-08
2.572e-07 -2.77333e-08 5.43494e-08
2.37447e-07 -6.15674e-09 5.29467e-08
2.39246e-07 2.88362e-08 5.97599e-08
2.38914e-07 -2.83518e-08 5.97693e-08
2.13146e-07 -4.95867e-08 7.50978e-08
2.9167e-07 -2.46698e-08 5.91572e-08
2.13225e-07 4.9782e-08 7.5087e-08
1.89597e-07 6.74327e-08 8.48381e-08
1.89426e-07 -6.75156e-08 8.48995e-08
2.18749e-07 -3.0632e-08 6.84055e-08
2.18057e-07 3.03759e-08 6.85898e-08
2.68715e-07 -1.2428e-08 4.35431e-08
2.77992e-07 -3.49002e-09 4.32373e-08
3.44567e-07 -7.89604e-08 8.63954e-08
3.44563e-07 7.86771e-08 8.63486e-08
2.72355e-07 1.29608e-07 9.39059e-08
2.69216e-07 -1.29495e-07 9.38052e-08
1.83061e-07 -2.63289e-07 6.84216e-08
1.78478e-07 -1.86091e-07 6.83547e-08
9.99456e-08 -1.87819e-07 6.79711e-08
1.08245e-07 -2.67578e-07 6.85081e-08
5.04898e-08 -1.72314e-07 8.72355e-08
6.111e-08 -2.90761e-07 8.76094e-08
1.37232e-07 -1.7929e-07 6.39664e-08
9.69673e-08 -2.27708e-07 6.27847e-08
1.85467e-07 -2.25034e-07 6.34108e-08
1.46386e-07 -2.72906e-07 6.44635e-08
3.35086e-08 -1.704e-07 9.2097e-08
4.45823e-08 -2.97022e-07 9.22258e-08
2.23542e-07 -1.78035e-07 8.51448e-08
2.25935e-07 -2.68601e-07 8.35498e-08
1.46728e-07 -3.23466e-07 8.44132e-08
1.37983e-07 -1.31771e-07 8.42712e-08
1.66847e-07 -1.50609e-07 7.73432e-08
1.20656e-07 -3.01827e-07 7.80135e-08
5.9208e-08 -2.11923e-07 7.87121e-08
6.17946e-08 -2.50593e-07 7.9185e-08
1.75008e-07 -3.02248e-07 7.86188e-08
1.06889e-07 -1.48625e-07 7.81201e-08
1.59289e-07 -2.4287e-07 5.10146e-08
1.55872e-07 -2.06821e-07 5.1135e-08
1.23076e-07 -2.12129e-07 4.96236e-08
1.28262e-07 -2.42573e-07 4.95696e-08
2.83861e-08 -1.5778e-07 9.37704e-08
4.08257e-08 -3.11014e-07 9.3858e-08
7.61309e-08 -1.60477e-07 8.05839e-08
8.90421e-08 -2.95868e-07 8.1427e-08
2.22989e-07 -2.1073e-07 8.01418e-08
2.21288e-07 -2.3943e-07 7.87037e-08
8.20357e-08 -2.66004e-07 7.66649e-08
7.4858e-08 -1.93532e-07 7.62821e-08
1.59821e-07 -3.46671e-07 9.01365e-08
1.24188e-07 -1.10324e-07 9.04467e-08
1.99316e-07 -1.57038e-07 8.09602e-08
2.04095e-07 -2.86165e-07 8.01355e-08
1.43108e-07 -2.00593e-07 5.1663e-08
1.40909e-07 -2.50985e-07 5.15953e-08
1.17576e-07 -2.30957e-07 5.12442e-08
1.66695e-07 -2.26141e-07 5.21797e-08
3.11153e-08 -1.92677e-07 8.87211e-08
3.93013e-08 -2.74652e-07 8.8815e-08
1.95001e-07 -2.00667e-07 7.1289e-08
2.31972e-07 -1.56804e-07 8.98521e-08
2.40048e-07 -2.91701e-07 8.93274e-08
1.96982e-07 -2.44497e-07 7.00801e-08
1.19516e-07 -1.86413e-07 6.25529e-08
1.62059e-07 -2.64395e-07 6.22326e-08
1.02011e-07 -2.1106e-07 6.13804e-08
1.58855e-07 -1.88184e-07 6.14922e-08
1.27745e-07 -2.64868e-07 6.20135e-08
1.08917e-07 -2.43658e-07 5.96619e-08
1.23037e-07 -3.27296e-07 8.48498e-08
1.6452e-07 -1.26335e-07 8.4263e-08
1.38072e-07 -3.51856e-07 9.11386e-08
1.47419e-07 -1.05874e-07 9.14968e-08
2.22184e-08 -1.80495e-07 9.28244e-08
3.27291e-08 -2.88757e-07 9.28655e-08
4.04342e-08 -2.32478e-07 8.17821e-08
2.53447e-07 -1.72829e-07 9.2694e-08
2.61309e-07 -2.759e-07 9.19947e-08
1.66725e-07 -3.2422e-07 8.46789e-08
1.1574e-07 -1.29008e-07 8.45264e-08
1.73459e-07 -2.12499e-07 5.85396e-08
1.54421e-07 -2.97939e-07 7.59519e-08
1.29019e-07 -1.55058e-07 7.55355e-08
1.47703e-07 -1.53034e-07 7.62013e-08
1.37653e-07 -3.00178e-07 7.66853e-08
1.90049e-07 -1.38338e-07 8.14313e-08
9.98269e-08 -3.13095e-07 8.26171e-08
2.42943e-07 -2.5111e-07 8.5234e-08
2.40448e-07 -1.93858e-07 8.63974e-08
4.54357e-08 -1.56131e-07 8.94473e-08
5.85324e-08 -3.0724e-07 8.98858e-08
8.51614e-08 -2.46734e-07 7.09119e-08
6.08191e-08 -2.71254e-07 8.39528e-08
5.33599e-08 -1.92066e-07 8.36808e-08
1.64924e-08 -1.60677e-07 9.54966e-08
1.82276e-08 -1.68964e-07 9.49071e-08
2.89935e-08 -3.11201e-07 9.54505e-08
3.02434e-08 -3.01723e-07 9.49087e-08
1.73312e-07 -2.40085e-07 5.7918e-08
1.97726e-07 -3.08818e-07 8.25715e-08
6.91149e-08 -1.75373e-07 8.10178e-08
7.93484e-08 -2.8391e-07 8.15825e-08
1.60953e-07 -3.63439e-07 9.30098e-08
1.23904e-07 -9.52393e-08 9.36765e-08
8.21625e-08 -1.39733e-07 8.1686e-08
8.1367e-08 -2.11871e-07 7.08444e-08
7.06771e-08 -2.29541e-07 7.41095e-08
2.36472e-07 -2.28425e-07 8.21404e-08
1.77053e-07 -1.6766e-07 7.34048e-08
2.496e-07 -1.52535e-07 9.39452e-08
2.58997e-07 -2.98116e-07 9.3157e-08
1.80167e-07 -2.83777e-07 7.40054e-08
2.05352e-07 -2.65361e-07 7.67143e-08
1.10279e-07 -2.85952e-07 7.45651e-08
1.35666e-07 -2.1112e-07 4.44506e-08
1.48808e-07 -2.41161e-07 4.53751e-08
1.55778e-07 -2.19584e-07 4.52855e-08
1.25816e-07 -2.2221e-07 4.49427e-08
9.80736e-08 -1.67278e-07 7.41901e-08
1.99531e-07 -1.78768e-07 7.73581e-08
3.2457e-08 -2.09854e-07 8.50814e-08
3.67912e-08 -2.56786e-07 8.52117e-08
1.35819e-07 -2.3304e-07 4.07997e-08
1.30039e-07 -2.83518e-07 7.0298e-08
1.53924e-07 -1.69753e-07 6.93092e-08
1.45689e-07 -2.12552e-07 4.37895e-08
1.53908e-07 -2.31301e-07 4.32087e-08
1.8463e-07 -3.25025e-07 8.44411e-08
2.08227e-07 -2.24902e-07 7.38922e-08
3.85756e-08 -1.81253e-07 8.93897e-08
4.81339e-08 -2.84905e-07 8.95643e-08
6.07009e-08 -1.45811e-07 8.51369e-08
7.59321e-08 -3.12679e-07 8.62268e-08
1.69968e-07 -2.00411e-07 6.03358e-08
1.63308e-07 -2.83634e-07 7.08935e-08
1.18424e-07 -1.67981e-07 7.05858e-08
2.15449e-07 -2.51993e-07 7.80301e-08
9.61714e-08 -1.26902e-07 8.3305e-08
2.13864e-07 -1.62829e-07 8.42378e-08
2.20859e-07 -2.83412e-07 8.39745e-08
2.15305e-07 -1.93784e-07 7.99594e-08
1.33302e-07 -2.19208e-07 4.12305e-08
1.51914e-07 -2.54091e-07 5.44509e-08
1.3096e-07 -1.97697e-07 5.41019e-08
1.14053e-07 -2.20909e-07 5.30436e-08
1.66925e-07 -2.53498e-07 5.90294e-08
1.12627e-07 -1.98974e-07 5.96096e-08
9.55374e-08 -2.78049e-07 7.56401e-08
1.18637e-07 -2.56142e-07 6.04342e-08
8.5593e-08 -1.78538e-07 7.50451e-08
6.07403e-08 -1.62014e-07 8.48137e-08
7.30391e-08 -2.97869e-07 8.55105e-08
9.28652e-08 -1.97602e-07 6.84268e-08
9.96683e-08 -2.59101e-07 6.86423e-08
1.39595e-07 -2.394e-07 4.34592e-08
1.28863e-07 -2.30566e-07 4.34898e-08
2.17378e-07 -1.42646e-07 8.61721e-08
2.22608e-07 -3.02809e-07 8.59702e-08
1.36143e-07 -9.72176e-08 9.37674e-08
1.48588e-07 -3.62098e-07 9.30714e-08
-7.31983e-08 -2.81554e-07 6.82679e-08
-8.46779e-08 -2.02229e-07 6.98131e-08
-1.69783e-07 -2.22828e-07 7.27701e-08
-1.48103e-07 -3.05011e-07 6.94154e-08
-1.97074e-07 -3.36544e-07 8.80384e-08
-2.29585e-07 -2.17986e-07 9.39273e-08
-1.29815e-07 -2.04251e-07 6.7173e-08
-1.64147e-07 -2.67176e-07 6.52282e-08
-7.40153e-08 -2.43918e-07 6.28008e-08
-1.09184e-07 -3.01379e-07 6.49559e-08
-2.15335e-07 -3.44745e-07 9.23179e-08
-2.50607e-07 -2.20392e-07 9.87017e-08
-4.32001e-08 -1.93038e-07 8.40012e-08
-2.7087e-08 -2.85234e-07 8.54556e-08
-1.02344e-07 -3.52663e-07 8.49067e-08
-1.36018e-07 -1.53828e-07 8.93354e-08
-1.65326e-07 -1.82036e-07 8.41673e-08
-1.31305e-07 -3.36262e-07 7.85471e-08
-1.95506e-07 -2.966e-07 8.09178e-08
-2.08737e-07 -2.57215e-07 8.3396e-08
-1.00251e-07 -1.65311e-07 8.04159e-08
-7.68816e-08 -3.25613e-07 7.92576e-08
-9.99739e-08 -2.62969e-07 4.91411e-08
-1.06238e-07 -2.28735e-07 5.2179e-08
-1.4055e-07 -2.43898e-07 5.20197e-08
-1.32095e-07 -2.75632e-07 5.16679e-08
-2.1805e-07 -3.58548e-07 9.37098e-08
-2.60964e-07 -2.09457e-07 1.01992e-07
-1.65713e-07 -3.36704e-07 8.19491e-08
-2.01465e-07 -1.99546e-07 8.85204e-08
-3.0483e-08 -2.51518e-07 7.96319e-08
-3.91313e-08 -2.23162e-07 7.85089e-08
-1.75836e-07 -3.08748e-07 7.78309e-08
-1.95934e-07 -2.34282e-07 8.11788e-08
-1.23321e-07 -1.28134e-07 9.48034e-08
-8.66448e-08 -3.74218e-07 9.06244e-08
-4.81039e-08 -3.08371e-07 8.21444e-08
-6.77479e-08 -1.75467e-07 8.0839e-08
-1.20934e-07 -2.25316e-07 5.36122e-08
-1.09015e-07 -2.7725e-07 5.1984e-08
-1.42665e-07 -2.66355e-07 5.32018e-08
-9.3342e-08 -2.4862e-07 5.13718e-08
-2.20348e-07 -3.23469e-07 8.97866e-08
-2.43526e-07 -2.42989e-07 9.37279e-08
-5.78121e-08 -2.62741e-07 7.12447e-08
-3.39429e-08 -1.67953e-07 9.01604e-08
-1.69736e-08 -3.07557e-07 9.05053e-08
-6.86465e-08 -2.20484e-07 6.93586e-08
-1.47002e-07 -2.17122e-07 6.57686e-08
-1.26782e-07 -2.98697e-07 6.30887e-08
-1.62725e-07 -2.47563e-07 6.45619e-08
-9.15441e-08 -2.84926e-07 6.20535e-08
-1.05179e-07 -2.08413e-07 6.33347e-08
-1.50191e-07 -2.81032e-07 6.13876e-08
-1.25698e-07 -3.60745e-07 8.53038e-08
-1.65727e-07 -1.54816e-07 9.27508e-08
-1.0774e-07 -3.8257e-07 9.15764e-08
-1.48174e-07 -1.2788e-07 9.86665e-08
-2.28644e-07 -3.37951e-07 9.30797e-08
-2.59399e-07 -2.33497e-07 9.83304e-08
-2.1887e-07 -2.81983e-07 8.51993e-08
1.08432e-09 -2.90723e-07 9.28176e-08
-1.0827e-08 -1.83178e-07 9.28004e-08
-1.12418e-07 -1.46708e-07 8.77235e-08
-8.24151e-08 -3.49998e-07 8.5247e-08
-1.23502e-07 -1.76315e-07 7.91352e-08
-9.7482e-08 -3.25131e-07 7.65171e-08
-8.79448e-08 -2.32291e-07 5.80828e-08
-1.4406e-07 -1.79319e-07 8.12559e-08
-1.14052e-07 -3.30837e-07 7.71801e-08
-8.14249e-08 -2.61182e-07 5.98098e-08
-1.51706e-07 -3.51469e-07 8.30702e-08
-1.94103e-07 -1.75784e-07 9.14437e-08
-2.05712e-08 -2.09452e-07 8.51359e-08
-1.11837e-08 -2.67877e-07 8.59927e-08
-1.98401e-07 -3.52879e-07 9.00168e-08
-2.40159e-07 -2.03077e-07 9.81207e-08
-1.74013e-07 -2.89152e-07 7.2977e-08
-1.97707e-07 -3.17612e-07 8.5009e-08
-2.19927e-07 -2.37177e-07 8.88359e-08
-2.31865e-07 -3.59924e-07 9.51552e-08
-2.32144e-07 -3.50571e-07 9.46955e-08
-2.73954e-07 -2.15647e-07 1.03134e-07
-2.69158e-07 -2.2363e-07 1.01227e-07
-7.61752e-08 -1.51409e-07 8.32413e-08
-5.32651e-08 -3.28094e-07 8.33877e-08
-1.77526e-07 -3.26893e-07 8.22547e-08
-2.07086e-07 -2.16608e-07 8.74899e-08
-8.36415e-08 -3.91165e-07 9.34684e-08
-1.24238e-07 -1.12064e-07 9.83569e-08
-1.83141e-07 -2.53311e-07 7.41348e-08
-1.90524e-07 -2.761e-07 7.72843e-08
-1.93381e-08 -2.32351e-07 8.14101e-08
-1.69405e-08 -1.61325e-07 9.43335e-08
-1.06048e-10 -3.13479e-07 9.43446e-08
-6.97707e-08 -3.02897e-07 7.50571e-08
-8.98859e-08 -1.81871e-07 7.5611e-08
-6.11079e-08 -1.96812e-07 7.80344e-08
-1.43918e-07 -3.2291e-07 7.52668e-08
-1.73785e-07 -2.02005e-07 8.01407e-08
-1.27427e-07 -2.38966e-07 4.6275e-08
-1.19631e-07 -2.7078e-07 4.58089e-08
-1.0443e-07 -2.41774e-07 4.60018e-08
-1.35408e-07 -2.55097e-07 4.63258e-08
-5.06404e-08 -2.8612e-07 7.79262e-08
-2.20831e-07 -3.06365e-07 8.72537e-08
-2.3521e-07 -2.60572e-07 8.95779e-08
-1.10043e-07 -2.56877e-07 4.10594e-08
-1.16387e-07 -2.36812e-07 4.51265e-08
-1.29336e-07 -2.64212e-07 4.4526e-08
-6.44446e-08 -3.47743e-07 8.50603e-08
-9.25054e-08 -1.38953e-07 8.61088e-08
-9.05098e-08 -3.07253e-07 7.10184e-08
-1.0992e-07 -1.87879e-07 7.28789e-08
-4.94772e-08 -2.38969e-07 7.34505e-08
-1.51675e-07 -1.97545e-07 7.53341e-08
-1.24724e-07 -3.17364e-07 7.14871e-08
-9.15984e-08 -2.19764e-07 6.12028e-08
-2.11436e-07 -3.32623e-07 9.00696e-08
-2.40452e-07 -2.29738e-07 9.5145e-08
-1.77883e-07 -3.55564e-07 8.65318e-08
-2.23256e-07 -1.87289e-07 9.57298e-08
-4.81621e-08 -2.09816e-07 7.86949e-08
-5.1352e-08 -1.77652e-07 8.44148e-08
-3.4844e-08 -3.01145e-07 8.50667e-08
-3.6509e-08 -2.69263e-07 7.99495e-08
-1.28422e-07 -2.4934e-07 4.27343e-08
-1.34324e-07 -2.25626e-07 5.68233e-08
-1.19022e-07 -2.84968e-07 5.50638e-08
-1.48068e-07 -2.56047e-07 5.52283e-08
-1.53676e-07 -2.31366e-07 6.32133e-08
-1.37394e-07 -2.90814e-07 6.09199e-08
-1.60598e-07 -3.18001e-07 7.64263e-08
-1.87396e-07 -2.16292e-07 8.09301e-08
-8.72274e-08 -2.71995e-07 5.9391e-08
-1.83131e-07 -3.41541e-07 8.5906e-08
-2.20064e-07 -2.04836e-07 9.28489e-08
-1.75316e-07 -2.34973e-07 7.26433e-08
-1.58945e-07 -2.98479e-07 7.01951e-08
-1.11237e-07 -2.64691e-07 4.36532e-08
-1.04772e-07 -2.51945e-07 4.34957e-08
-4.99493e-08 -1.54961e-07 8.65925e-08
-3.06951e-08 -3.2055e-07 8.72328e-08
-1.36835e-07 -1.16503e-07 9.97727e-08
-9.61761e-08 -3.91388e-07 9.3508e-08
-2.45684e-07 -6.53258e-08 1.07326e-07
-3.87226e-07 7.65259e-08 1.12315e-07
-2.45809e-07 6.79157e-08 1.07269e-07
-3.87354e-07 -7.6542e-08 1.12317e-07
-4.55977e-07 9.65927e-08 1.14463e-07
-4.55998e-07 -9.66557e-08 1.14461e-07
-3.15389e-07 9.04875e-08 1.09727e-07
-4.06319e-07 2.29334e-09 1.12811e-07
-2.34353e-07 -2.63481e-09 1.07247e-07
-3.16279e-07 -9.0631e-08 1.09748e-07
-4.78128e-07 1.00448e-07 1.15102e-07
-4.78149e-07 -1.00504e-07 1.151e-07
-1.90357e-07 6.40683e-08 1.06069e-07
-1.85674e-07 -6.56976e-08 1.05944e-07
-3.09786e-07 -1.52399e-07 1.09325e-07
-3.03192e-07 1.51417e-07 1.08923e-07
-2.63656e-07 1.19088e-07 1.065e-07
-3.58684e-07 -1.2819e-07 1.11377e-07
-4.52909e-07 3.57033e-08 1.14014e-07
-4.54637e-07 -3.49752e-08 1.14045e-07
-2.64099e-07 -1.23165e-07 1.06306e-07
-3.57037e-07 1.32743e-07 1.11325e-07
-2.81598e-07 -3.54205e-08 1.08729e-07
-3.58272e-07 3.64742e-08 1.11395e-07
-2.79984e-07 4.10921e-08 1.08657e-07
-3.59458e-07 -3.79644e-08 1.11435e-07
-4.82248e-07 1.16224e-07 1.15224e-07
-4.82276e-07 -1.16278e-07 1.15223e-07
-4.14002e-07 1.13677e-07 1.13144e-07
-4.14124e-07 -1.13384e-07 1.13146e-07
-1.83381e-07 -1.95406e-08 1.04875e-07
-1.88785e-07 2.28473e-08 1.0519e-07
-4.2791e-07 6.55785e-08 1.13534e-07
-4.27923e-07 -6.5651e-08 1.13533e-07
-2.87023e-07 -1.75174e-07 1.07434e-07
-3.15743e-07 1.79879e-07 1.09822e-07
-2.17085e-07 -9.93068e-08 1.05179e-07
-2.17139e-07 9.73879e-08 1.05302e-07
-3.07177e-07 5.72707e-08 1.0956e-07
-3.08962e-07 -5.66543e-08 1.09619e-07
-3.75649e-07 -9.78635e-09 1.11952e-07
-2.63084e-07 -6.78207e-09 1.08172e-07
-4.8371e-07 6.97839e-08 1.14883e-07
-4.83722e-07 -6.98401e-08 1.14881e-07
-2.18446e-07 -3.57114e-08 1.06773e-07
-1.77421e-07 -9.13296e-08 1.05351e-07
-1.78098e-07 9.09077e-08 1.05378e-07
-2.23205e-07 3.67947e-08 1.06914e-07
-3.51527e-07 8.06329e-08 1.1112e-07
-3.50254e-07 -7.93784e-08 1.11071e-07
-3.94283e-07 3.57807e-08 1.12498e-07
-2.77263e-07 -7.10943e-08 1.0832e-07
-2.76156e-07 7.11665e-08 1.08294e-07
-3.90212e-07 -3.35358e-08 1.12375e-07
-3.4791e-07 -1.60304e-07 1.11079e-07
-2.64974e-07 1.49733e-07 1.05444e-07
-3.16731e-07 -1.8521e-07 1.09887e-07
-2.84077e-07 1.79254e-07 1.07134e-07
-4.93119e-07 8.83086e-08 1.15289e-07
-4.93136e-07 -8.83614e-08 1.15287e-07
-4.78723e-07 8.65748e-10 1.14313e-07
-1.53933e-07 -6.90877e-08 1.05086e-07
-1.53373e-07 6.82858e-08 1.05024e-07
-2.77501e-07 -1.50179e-07 1.06757e-07
-3.35023e-07 1.57868e-07 1.10602e-07
-2.98736e-07 -1.21605e-07 1.08719e-07
-3.23397e-07 1.23781e-07 1.10003e-07
-2.51053e-07 2.30182e-08 1.07796e-07
-2.93061e-07 1.22466e-07 1.08398e-07
-3.28798e-07 -1.25903e-07 1.10226e-07
-2.29943e-07 1.25455e-07 1.03527e-07
-2.49999e-07 -3.24235e-08 1.0775e-07
-3.92691e-07 -1.41261e-07 1.12379e-07
-1.66391e-07 3.8249e-08 1.04165e-07
-1.64625e-07 -4.24175e-08 1.04148e-07
-4.58953e-07 1.17303e-07 1.14553e-07
-4.58982e-07 -1.17365e-07 1.14552e-07
-4.24026e-07 -3.28019e-08 1.13315e-07
-4.56382e-07 6.87212e-08 1.14325e-07
-4.56521e-07 -6.87259e-08 1.14327e-07
-4.9671e-07 1.13534e-07 1.15513e-07
-4.96509e-07 1.03115e-07 1.15482e-07
-4.96736e-07 -1.13584e-07 1.15512e-07
-4.96531e-07 -1.03165e-07 1.15481e-07
-2.28101e-07 -1.25893e-07 1.03439e-07
-4.30458e-07 9.25868e-08 1.13684e-07
-4.3049e-07 -9.26332e-08 1.13683e-07
-2.83611e-07 -1.91917e-07 1.06739e-07
-3.10902e-07 1.97637e-07 1.09523e-07
-3.94449e-07 1.41997e-07 1.12423e-07
-4.24071e-07 3.42292e-08 1.13319e-07
-4.41527e-07 2.17387e-09 1.13682e-07
-1.67811e-07 6.78183e-09 1.03044e-07
-2.4469e-07 9.54317e-08 1.06384e-07
-1.58653e-07 9.35824e-08 1.05052e-07
-1.58684e-07 -9.38975e-08 1.05041e-07
-2.46986e-07 -9.51554e-08 1.06504e-07
-2.17359e-07 6.81779e-08 1.06536e-07
-3.80465e-07 -1.05315e-07 1.12095e-07
-3.278e-07 3.88871e-08 1.1035e-07
-3.31232e-07 -3.92107e-08 1.10469e-07
-2.79477e-07 1.37874e-08 1.08649e-07
-3.57578e-07 9.78596e-09 1.11433e-07
-3.80808e-07 1.06712e-07 1.1211e-07
-2.15376e-07 -6.97678e-08 1.06461e-07
-4.84773e-07 4.22208e-08 1.1459e-07
-4.85557e-07 -4.17338e-08 1.14592e-07
-2.98518e-07 -1.96353e-08 1.09284e-07
-2.8495e-07 9.86284e-08 1.08259e-07
-3.0136e-07 3.46129e-08 1.09407e-07
-3.51612e-07 -1.68666e-08 1.11258e-07
-2.4976e-07 -1.48752e-07 1.0362e-07
-2.82861e-07 -1.00459e-07 1.08095e-07
-2.02895e-07 1.43384e-09 1.05881e-07
-3.46915e-07 -1.05927e-07 1.10947e-07
-2.55462e-07 4.62439e-08 1.07831e-07
-4.73293e-07 8.56669e-08 1.14863e-07
-4.73328e-07 -8.57165e-08 1.14862e-07
-4.3254e-07 1.3124e-07 1.13627e-07
-4.32814e-07 -1.32308e-07 1.13626e-07
-3.45663e-07 1.06921e-07 1.10902e-07
-1.98376e-07 4.36371e-08 1.0603e-07
-3.6472e-07 1.60161e-07 1.11511e-07
-1.98254e-07 -8.74844e-08 1.0555e-07
-1.98796e-07 8.65279e-08 1.05605e-07
-1.93824e-07 -4.49383e-08 1.0591e-07
-3.3976e-07 2.06942e-08 1.10841e-07
-3.33251e-07 -6.34953e-08 1.10483e-07
-3.33255e-07 6.3405e-08 1.10488e-07
-3.78462e-07 1.4947e-08 1.12029e-07
-3.70698e-07 5.97863e-08 1.11777e-07
-3.69247e-07 -6.12239e-08 1.11727e-07
-4.06543e-07 -8.90151e-08 1.12932e-07
-2.63696e-07 -5.10273e-08 1.08056e-07
-4.06493e-07 8.91526e-08 1.12933e-07
-4.38374e-07 1.10311e-07 1.1392e-07
-4.38472e-07 -1.10501e-07 1.1392e-07
-4.02882e-07 5.95747e-08 1.12782e-07
-4.03916e-07 -5.89503e-08 1.12811e-07
-3.07734e-07 -3.38749e-08 1.09633e-07
-2.84726e-07 -9.58858e-09 1.08802e-07
-1.9566e-07 1.11157e-07 1.03411e-07
-1.95609e-07 -1.1142e-07 1.03405e-07
-3.00077e-07 -1.93206e-07 1.08658e-07
-2.95785e-07 1.92131e-07 1.08247e-07
-8.55882e-08 2.04875e-07 6.85e-08
-7.26334e-08 2.83593e-07 6.90221e-08
-1.4783e-07 3.04787e-07 6.9345e-08
-1.69835e-07 2.22632e-07 7.28553e-08
-2.29646e-07 2.17872e-07 9.39777e-08
-1.96919e-07 3.36423e-07 8.80434e-08
-1.08693e-07 3.01079e-07 6.49565e-08
-1.63849e-07 2.67947e-07 6.52088e-08
-7.4447e-08 2.40996e-07 6.27739e-08
-1.29706e-07 2.04095e-07 6.71448e-08
-2.50697e-07 2.20269e-07 9.876e-08
-2.15184e-07 3.44636e-07 9.23241e-08
-3.1158e-08 2.83771e-07 8.40803e-08
-3.92294e-08 1.90979e-07 8.5318e-08
-1.3588e-07 1.53733e-07 8.93051e-08
-9.84177e-08 3.51702e-07 8.49303e-08
-7.695e-08 3.2253e-07 7.86009e-08
-1.65239e-07 1.81876e-07 8.4193e-08
-2.06502e-07 2.5657e-07 8.27798e-08
-1.97598e-07 2.97104e-07 8.15688e-08
-1.00126e-07 1.65306e-07 8.03282e-08
-1.30221e-07 3.39296e-07 7.94219e-08
-1.07164e-07 2.3246e-07 4.95499e-08
-9.77179e-08 2.66347e-07 5.17035e-08
-1.31104e-07 2.74324e-07 5.08121e-08
-1.41784e-07 2.43015e-07 5.29571e-08
-2.61088e-07 2.09327e-07 1.02069e-07
-2.17902e-07 3.58431e-07 9.37196e-08
-2.01453e-07 1.99408e-07 8.8585e-08
-1.6549e-07 3.36769e-07 8.19882e-08
-3.41839e-08 2.24953e-07 7.96093e-08
-3.46236e-08 2.53963e-07 7.85244e-08
-1.95964e-07 2.34148e-07 8.12476e-08
-1.75681e-07 3.08608e-07 7.77968e-08
-1.2318e-07 1.28056e-07 9.4772e-08
-1.06955e-07 3.77948e-07 9.06506e-08
-6.56346e-08 1.70922e-07 8.19087e-08
-4.82908e-08 3.07055e-07 8.19236e-08
-1.0808e-07 2.77296e-07 5.24923e-08
-1.21532e-07 2.25852e-07 5.31256e-08
-1.45244e-07 2.57771e-07 5.35821e-08
-9.45874e-08 2.42451e-07 5.14108e-08
-2.436e-07 2.42904e-07 9.37803e-08
-2.20184e-07 3.2338e-07 8.97829e-08
-6.45709e-08 2.18908e-07 7.12435e-08
-1.74975e-08 3.07238e-07 9.03583e-08
-3.33775e-08 1.67541e-07 9.02631e-08
-6.12503e-08 2.63482e-07 6.97619e-08
-1.27313e-07 2.99568e-07 6.37092e-08
-1.46954e-07 2.16881e-07 6.58073e-08
-1.52586e-07 2.83004e-07 6.30554e-08
-1.0579e-07 2.09301e-07 6.28487e-08
-9.08692e-08 2.85191e-07 6.24128e-08
-1.59549e-07 2.48102e-07 6.28091e-08
-1.65615e-07 1.54676e-07 9.27583e-08
-7.43828e-08 3.4937e-07 8.53492e-08
-8.45412e-08 3.78274e-07 9.16098e-08
-1.48045e-07 1.27772e-07 9.86534e-08
-2.59478e-07 2.33393e-07 9.83903e-08
-2.28496e-07 3.37847e-07 9.30818e-08
-2.18986e-07 2.81288e-07 8.52488e-08
-1.13089e-08 1.8277e-07 9.27486e-08
1.55001e-09 2.90188e-07 9.28423e-08
-1.12278e-07 1.46656e-07 8.76653e-08
-1.1775e-07 3.58307e-07 8.53959e-08
-1.23362e-07 1.76251e-07 7.90631e-08
-1.11114e-07 3.28523e-07 7.65315e-08
-8.33374e-08 2.56013e-07 5.79649e-08
-9.42123e-08 3.25723e-07 7.71933e-08
-1.43942e-07 1.79181e-07 8.12418e-08
-5.45024e-08 3.27798e-07 8.30563e-08
-8.76919e-08 2.26777e-07 5.99685e-08
-1.94033e-07 1.7563e-07 9.15008e-08
-1.32169e-08 2.6481e-07 8.51593e-08
-1.91408e-08 2.06191e-07 8.59425e-08
-2.40207e-07 2.02965e-07 9.81669e-08
-1.98249e-07 3.5276e-07 9.00277e-08
-1.83959e-07 2.52683e-07 7.46112e-08
-2.19803e-07 2.37034e-07 8.88299e-08
-1.97724e-07 3.17563e-07 8.50572e-08
-2.74102e-07 2.15537e-07 1.0324e-07
-2.69267e-07 2.23526e-07 1.01303e-07
-2.31716e-07 3.59816e-07 9.51621e-08
-2.31994e-07 3.50465e-07 9.47004e-08
-7.47504e-08 1.51858e-07 8.31354e-08
-2.07114e-07 2.16472e-07 8.75509e-08
-1.77356e-07 3.26757e-07 8.22459e-08
-1.241e-07 1.11982e-07 9.83339e-08
-1.05134e-07 3.94613e-07 9.34891e-08
-1.52732e-07 3.52342e-07 8.34272e-08
-1.73391e-07 2.8825e-07 7.25928e-08
-1.91295e-07 2.72978e-07 7.74439e-08
-1.79553e-08 2.41971e-07 8.14053e-08
-6.81164e-08 3.03392e-07 7.56753e-08
-6.74354e-11 3.13327e-07 9.43741e-08
-1.69421e-08 1.61247e-07 9.42213e-08
-8.71759e-08 1.83057e-07 7.53544e-08
-5.21717e-08 2.84989e-07 7.71758e-08
-1.73755e-07 2.01833e-07 8.01964e-08
-1.18227e-07 2.69709e-07 4.53187e-08
-1.28812e-07 2.3898e-07 4.68228e-08
-1.01513e-07 2.5321e-07 4.58317e-08
-1.32885e-07 2.62997e-07 4.60274e-08
-1.43992e-07 3.23801e-07 7.55901e-08
-6.34793e-08 1.9409e-07 7.78474e-08
-2.34379e-07 2.59761e-07 8.95646e-08
-2.21778e-07 3.06051e-07 8.7349e-08
-1.14085e-07 2.43116e-07 4.14041e-08
-9.18225e-08 3.06092e-07 7.0287e-08
-1.0883e-07 2.64036e-07 4.44973e-08
-1.33372e-07 2.51982e-07 4.50355e-08
-9.2092e-08 1.39013e-07 8.59662e-08
-1.10777e-07 1.88796e-07 7.24233e-08
-4.91178e-08 2.40648e-07 7.34562e-08
-1.51592e-07 1.97358e-07 7.53533e-08
-8.24866e-08 2.69374e-07 6.09077e-08
-2.40497e-07 2.29624e-07 9.51891e-08
-2.1131e-07 3.3253e-07 9.00787e-08
-2.23218e-07 1.87162e-07 9.57952e-08
-1.77654e-07 3.54602e-07 8.6485e-08
-1.23888e-07 3.1773e-07 7.17459e-08
-4.0366e-08 2.68311e-07 7.8502e-08
-1.35886e-07 3.61773e-07 8.47526e-08
-5.05573e-08 1.75778e-07 8.47997e-08
-3.53123e-08 3.00546e-07 8.4884e-08
-4.49537e-08 2.08429e-07 7.98836e-08
-1.23442e-07 2.63115e-07 4.21838e-08
-1.18914e-07 2.84688e-07 5.50786e-08
-1.34252e-07 2.25366e-07 5.68318e-08
-1.44052e-07 2.69078e-07 5.46859e-08
-1.37779e-07 2.90285e-07 6.08812e-08
-1.53569e-07 2.31058e-07 6.32461e-08
-1.87433e-07 2.1612e-07 8.10142e-08
-9.71996e-08 2.18992e-07 5.97844e-08
-1.60393e-07 3.17956e-07 7.64193e-08
-2.20087e-07 2.04709e-07 9.29067e-08
-1.82935e-07 3.41277e-07 8.58963e-08
-1.57994e-07 2.98361e-07 6.99087e-08
-1.76062e-07 2.35342e-07 7.2952e-08
-1.18616e-07 2.38003e-07 4.43255e-08
-1.06645e-07 2.44389e-07 4.36195e-08
-3.0699e-08 3.20504e-07 8.72223e-08
-4.92256e-08 1.54427e-07 8.66576e-08
-9.32401e-08 3.9081e-07 9.35353e-08
-1.36701e-07 1.16408e-07 9.97547e-08
3.98402e-08 -3.84378e-08 -6.49438e-08
4.02246e-08 4.06101e-08 -6.58526e-08
-3.86496e-08 4.49396e-08 -6.77249e-08
-3.88979e-08 -4.50381e-08 -6.78595e-08
-8.94805e-08 -6.88642e-08 -9.11973e-08
-8.93307e-08 6.8766e-08 -9.11641e-08
3.71794e-10 4.92656e-08 -6.13836e-08
-4.52712e-08 1.27509e-09 -6.26575e-08
4.4227e-08 -1.40059e-09 -5.84479e-08
-1.32643e-10 -4.92029e-08 -6.13716e-08
-1.06899e-07 7.3856e-08 -9.71069e-08
-1.07044e-07 -7.39463e-08 -9.71284e-08
8.25664e-08 4.47456e-08 -8.27899e-08
8.66072e-08 -4.63361e-08 -8.42581e-08
1.76661e-10 -9.94407e-08 -8.42026e-08
4.69055e-09 9.9258e-08 -8.41571e-08
3.19115e-08 7.74877e-08 -7.66436e-08
-2.86514e-08 -8.1195e-08 -7.74931e-08
-8.30135e-08 2.34199e-08 -8.40959e-08
-8.45386e-08 -2.3049e-08 -8.46773e-08
3.17205e-08 -8.04667e-08 -7.7345e-08
-2.82672e-08 8.47844e-08 -7.83916e-08
1.44618e-08 -1.45136e-08 -3.81088e-08
1.64634e-08 1.83034e-08 -4.24232e-08
-1.61397e-08 1.58277e-08 -4.10847e-08
-1.71185e-08 -1.68877e-08 -4.25969e-08
-1.11532e-07 8.79259e-08 -9.82368e-08
-1.11675e-07 -8.80094e-08 -9.8257e-08
-6.14977e-08 7.69732e-08 -8.23705e-08
-6.16507e-08 -7.67831e-08 -8.23681e-08
8.72753e-08 -1.29442e-08 -7.83712e-08
8.26439e-08 1.5078e-08 -7.71105e-08
-6.55176e-08 -4.2292e-08 -7.90857e-08
-6.53248e-08 4.21792e-08 -7.90064e-08
1.42883e-08 -1.21109e-07 -9.04486e-08
-7.38921e-09 1.22491e-07 -9.06725e-08
6.32356e-08 -6.91156e-08 -8.02222e-08
6.31681e-08 6.77453e-08 -8.00436e-08
4.61105e-09 2.56162e-08 -4.37866e-08
3.53077e-09 -2.48456e-08 -4.27893e-08
-2.41677e-08 -4.54694e-09 -4.48338e-08
2.3379e-08 -2.80684e-09 -4.15698e-08
-1.10517e-07 4.96979e-08 -9.60359e-08
-1.10648e-07 -4.9783e-08 -9.6055e-08
5.7931e-08 -2.17471e-08 -6.87135e-08
9.42793e-08 6.82971e-08 -8.93455e-08
9.47688e-08 -6.86241e-08 -8.94796e-08
5.41886e-08 2.21232e-08 -6.69889e-08
-1.8029e-08 4.36265e-08 -6.01053e-08
-1.72872e-08 -4.26202e-08 -5.93155e-08
-3.82474e-08 1.94791e-08 -6.00853e-08
2.0438e-08 -3.78778e-08 -5.7541e-08
2.11763e-08 3.84001e-08 -5.79603e-08
-3.55544e-08 -1.78974e-08 -5.7739e-08
-2.6537e-08 -1.06544e-07 -8.47012e-08
3.14329e-08 1.02995e-07 -8.40221e-08
1.61618e-08 1.25406e-07 -9.15042e-08
-8.87567e-09 -1.2682e-07 -9.17487e-08
-1.19087e-07 6.49127e-08 -9.98173e-08
-1.19219e-07 -6.49999e-08 -9.9826e-08
-1.04477e-07 5.83263e-10 -9.06331e-08
1.15286e-07 -5.19184e-08 -9.22704e-08
1.1583e-07 5.14877e-08 -9.23203e-08
2.26027e-08 -1.01057e-07 -8.41676e-08
-1.75307e-08 1.04054e-07 -8.48158e-08
9.1346e-09 -7.47632e-08 -7.47672e-08
-6.14239e-09 7.57329e-08 -7.49975e-08
3.24664e-08 1.17015e-08 -5.19392e-08
1.27324e-08 7.62733e-08 -7.54691e-08
-9.6894e-09 -7.75033e-08 -7.57759e-08
5.55131e-08 8.87508e-08 -8.09518e-08
3.40209e-08 -1.70556e-08 -5.45516e-08
-5.21079e-08 -9.62903e-08 -8.25778e-08
1.0312e-07 2.68061e-08 -8.431e-08
1.04889e-07 -2.98499e-08 -8.51677e-08
-9.35795e-08 8.65059e-08 -9.2866e-08
-9.37216e-08 -8.6589e-08 -9.28907e-08
-6.00483e-08 -2.00515e-08 -7.32607e-08
-8.78039e-08 -4.70297e-08 -8.86108e-08
-8.75422e-08 4.69583e-08 -8.85208e-08
-1.23691e-07 8.67915e-08 -1.00969e-07
-1.22444e-07 7.78653e-08 -1.01161e-07
-1.23833e-07 -8.68766e-08 -1.00985e-07
-1.22584e-07 -7.7951e-08 -1.01174e-07
5.67569e-08 -8.92091e-08 -8.1251e-08
-7.00233e-08 6.25616e-08 -8.36379e-08
-7.01948e-08 -6.26508e-08 -8.36896e-08
-6.45297e-09 1.37956e-07 -9.39423e-08
1.48554e-08 -1.36618e-07 -9.37484e-08
-5.32898e-08 9.71948e-08 -8.29745e-08
-6.0001e-08 2.08657e-08 -7.32947e-08
-7.28096e-08 1.36949e-09 -7.84997e-08
1.0128e-07 4.65646e-09 -8.04556e-08
4.31199e-08 6.12706e-08 -7.33451e-08
1.11676e-07 7.32728e-08 -9.38525e-08
1.11569e-07 -7.33438e-08 -9.37511e-08
4.1436e-08 -6.03946e-08 -7.26501e-08
6.10186e-08 4.46636e-08 -7.5159e-08
-3.86431e-08 -6.5567e-08 -7.43467e-08
-2.75325e-09 1.31002e-08 -2.8898e-08
-4.38417e-09 -1.35557e-08 -3.03935e-08
-1.24774e-08 3.26231e-09 -2.98321e-08
1.30548e-08 4.96468e-09 -3.0738e-08
-3.89625e-08 6.66776e-08 -7.46708e-08
6.24874e-08 -4.59677e-08 -7.59455e-08
-1.10491e-07 2.93782e-08 -9.38941e-08
-1.11264e-07 -2.909e-08 -9.40765e-08
5.05185e-09 -5.23477e-09 -1.79818e-08
1.77659e-08 5.81919e-08 -6.75315e-08
5.69794e-09 1.16804e-08 -2.77627e-08
-1.02444e-08 -5.86618e-09 -2.69214e-08
4.20745e-08 -1.04806e-07 -8.34113e-08
1.89973e-08 -5.95952e-08 -6.83629e-08
6.98475e-08 9.53523e-10 -7.14289e-08
-1.86444e-08 -6.24952e-08 -6.94612e-08
3.17644e-08 2.48457e-08 -5.5868e-08
-1.02245e-07 6.12897e-08 -9.48684e-08
-1.02407e-07 -6.13796e-08 -9.49002e-08
-7.70077e-08 -9.53876e-08 -8.752e-08
-7.65804e-08 9.44342e-08 -8.74465e-08
-1.79292e-08 6.32762e-08 -6.97439e-08
7.49073e-08 2.87762e-08 -7.68669e-08
-3.74337e-08 1.08351e-07 -8.40687e-08
7.67487e-08 6.17707e-08 -8.33883e-08
7.71621e-08 -6.23923e-08 -8.35446e-08
7.88029e-08 -2.99409e-08 -7.84523e-08
-5.6972e-09 6.00834e-09 -1.97131e-08
-7.05073e-09 2.96742e-08 -4.7803e-08
-7.25794e-09 -2.97086e-08 -4.78187e-08
-2.60124e-08 6.94308e-09 -4.71018e-08
-2.62287e-08 3.13951e-08 -5.67288e-08
-2.56859e-08 -3.23078e-08 -5.69317e-08
-5.31314e-08 -5.67175e-08 -7.64183e-08
2.64959e-08 -2.63328e-08 -5.36473e-08
-5.2964e-08 5.67552e-08 -7.6364e-08
-7.78657e-08 7.78398e-08 -8.75753e-08
-7.80706e-08 -7.80476e-08 -8.76232e-08
-4.68298e-08 3.53282e-08 -6.90344e-08
-4.76769e-08 -3.50905e-08 -6.93897e-08
2.77002e-09 -1.03742e-08 -2.4738e-08
9.93098e-09 -2.62265e-09 -2.4367e-08
8.06767e-08 8.31589e-08 -8.55723e-08
8.0639e-08 -8.31823e-08 -8.55401e-08
5.61562e-09 1.35031e-07 -9.38875e-08
2.60065e-09 -1.35137e-07 -9.39294e-08
1.77408e-07 1.85349e-07 -6.81182e-08
1.84127e-07 2.62665e-07 -6.85817e-08
1.08374e-07 2.67686e-07 -6.85324e-08
9.99678e-08 1.88017e-07 -6.79847e-08
6.12082e-08 2.90811e-07 -8.76162e-08
5.05289e-08 1.72389e-07 -8.72518e-08
1.45293e-07 2.72893e-07 -6.44299e-08
9.73079e-08 2.30038e-07 -6.28017e-08
1.85451e-07 2.23832e-07 -6.33986e-08
1.38214e-07 1.79189e-07 -6.40152e-08
4.46942e-08 2.97072e-07 -9.22443e-08
3.35038e-08 1.7044e-07 -9.21192e-08
2.30403e-07 2.70289e-07 -8.48352e-08
2.19409e-07 1.79642e-07 -8.37521e-08
1.3367e-07 1.31904e-07 -8.42702e-08
1.46826e-07 3.23475e-07 -8.44244e-08
1.20728e-07 3.02017e-07 -7.80232e-08
1.07069e-07 1.52387e-07 -7.72649e-08
6.32795e-08 2.50934e-07 -7.88426e-08
5.79518e-08 2.12481e-07 -7.90677e-08
1.75089e-07 3.02157e-07 -7.86724e-08
1.6664e-07 1.47504e-07 -7.8012e-08
1.55722e-07 2.07288e-07 -5.07917e-08
1.59756e-07 2.43276e-07 -5.13477e-08
1.2708e-07 2.41701e-07 -4.98531e-08
1.24193e-07 2.11076e-07 -4.93334e-08
4.09415e-08 3.11073e-07 -9.38771e-08
2.83672e-08 1.57817e-07 -9.38367e-08
8.912e-08 2.95944e-07 -8.1437e-08
7.62418e-08 1.60876e-07 -8.05646e-08
2.25313e-07 2.37446e-07 -7.99868e-08
2.18745e-07 2.08699e-07 -7.88141e-08
7.49266e-08 1.93607e-07 -7.63129e-08
8.21179e-08 2.66057e-07 -7.66576e-08
1.46031e-07 1.10059e-07 -9.04575e-08
1.59925e-07 3.46691e-07 -9.01567e-08
2.06887e-07 2.90208e-07 -8.13639e-08
1.96843e-07 1.61005e-07 -7.97141e-08
1.48471e-07 2.50754e-07 -5.19722e-08
1.35385e-07 2.01172e-07 -5.12623e-08
1.16716e-07 2.24133e-07 -5.11947e-08
1.66521e-07 2.23372e-07 -5.21532e-08
3.93893e-08 2.74694e-07 -8.88332e-08
3.11506e-08 1.9271e-07 -8.87129e-08
1.98933e-07 2.47819e-07 -7.12816e-08
2.40807e-07 2.92095e-07 -8.94291e-08
2.31394e-07 1.57178e-07 -8.96728e-08
1.93692e-07 2.04071e-07 -7.00542e-08
1.28803e-07 2.66142e-07 -6.24183e-08
1.55875e-07 1.85793e-07 -6.18256e-08
1.0603e-07 2.4545e-07 -6.16059e-08
1.64888e-07 2.62022e-07 -6.19736e-08
1.1975e-07 1.88743e-07 -6.15436e-08
1.05369e-07 2.12497e-07 -5.94592e-08
1.06957e-07 1.27476e-07 -8.4243e-08
1.23151e-07 3.27306e-07 -8.48319e-08
1.38181e-07 3.51869e-07 -9.11422e-08
1.22531e-07 1.06243e-07 -9.14827e-08
3.28349e-08 2.88805e-07 -9.28993e-08
2.22334e-08 1.80524e-07 -9.28119e-08
4.06132e-08 2.3349e-07 -8.17836e-08
2.61078e-07 2.76426e-07 -9.18856e-08
2.53838e-07 1.73371e-07 -9.27277e-08
1.66832e-07 3.24226e-07 -8.4712e-08
1.55951e-07 1.28658e-07 -8.43953e-08
1.75807e-07 2.36678e-07 -5.86023e-08
1.444e-07 1.5464e-07 -7.55329e-08
1.54505e-07 2.97956e-07 -7.60062e-08
1.3775e-07 3.00162e-07 -7.66671e-08
1.2561e-07 1.53681e-07 -7.61945e-08
8.3562e-08 1.40622e-07 -8.1392e-08
9.99212e-08 3.13189e-07 -8.26104e-08
2.38451e-07 1.96885e-07 -8.56057e-08
2.45484e-07 2.54111e-07 -8.59422e-08
5.86355e-08 3.07301e-07 -8.98955e-08
4.54636e-08 1.56245e-07 -8.94591e-08
8.16423e-08 2.12709e-07 -7.07389e-08
5.33027e-08 1.92147e-07 -8.37285e-08
6.10157e-08 2.71311e-07 -8.39224e-08
2.91209e-08 3.11261e-07 -9.54779e-08
3.03723e-08 3.01781e-07 -9.49405e-08
1.64654e-08 1.60643e-07 -9.55883e-08
1.81999e-08 1.68978e-07 -9.49216e-08
1.70512e-07 2.09159e-07 -5.77845e-08
1.99088e-07 3.08129e-07 -8.26349e-08
1.90185e-07 1.37284e-07 -8.16386e-08
7.94361e-08 2.83972e-07 -8.15867e-08
6.91843e-08 1.75486e-07 -8.10362e-08
1.61057e-07 3.63461e-07 -9.30264e-08
1.45393e-07 9.5044e-08 -9.37021e-08
8.52179e-08 2.47573e-07 -7.10359e-08
7.10028e-08 2.31949e-07 -7.41213e-08
2.35719e-07 2.19022e-07 -8.21973e-08
2.59139e-07 2.98282e-07 -9.30746e-08
2.49578e-07 1.52738e-07 -9.39116e-08
1.84413e-07 2.81327e-07 -7.4179e-08
1.73087e-07 1.6482e-07 -7.3453e-08
1.99416e-07 1.82683e-07 -7.66219e-08
9.86529e-08 1.68734e-07 -7.38042e-08
1.10459e-07 2.86278e-07 -7.464e-08
1.39666e-07 2.41017e-07 -4.46814e-08
1.45199e-07 2.09966e-07 -4.51331e-08
1.57232e-07 2.30575e-07 -4.53544e-08
1.27232e-07 2.31632e-07 -4.50159e-08
2.05991e-07 2.6933e-07 -7.7478e-08
3.75649e-08 2.57117e-07 -8.51598e-08
3.18824e-08 2.10273e-07 -8.51372e-08
1.33708e-07 2.19587e-07 -4.06789e-08
1.19442e-07 1.70126e-07 -6.9739e-08
1.49133e-07 2.38515e-07 -4.40026e-08
1.52371e-07 2.19101e-07 -4.30973e-08
1.75068e-07 1.23665e-07 -8.37292e-08
1.84979e-07 3.24824e-07 -8.44313e-08
1.63214e-07 2.8248e-07 -7.05308e-08
2.08224e-07 2.23525e-07 -7.38729e-08
1.28934e-07 2.84852e-07 -7.092e-08
4.8252e-08 2.84951e-07 -8.95746e-08
3.85801e-08 1.81298e-07 -8.94021e-08
6.04266e-08 1.45135e-07 -8.52477e-08
7.60263e-08 3.12754e-07 -8.623e-08
1.74212e-07 2.48809e-07 -6.05094e-08
1.55394e-07 1.67007e-07 -7.04063e-08
2.11055e-07 1.96275e-07 -7.81288e-08
2.21694e-07 2.84888e-07 -8.42457e-08
2.13275e-07 1.64225e-07 -8.39301e-08
2.20189e-07 2.54546e-07 -7.97763e-08
1.35676e-07 2.33486e-07 -4.13564e-08
1.46471e-07 1.96944e-07 -5.4106e-08
1.37432e-07 2.54831e-07 -5.44583e-08
1.1588e-07 2.3443e-07 -5.3143e-08
1.19572e-07 2.55993e-07 -6.00446e-08
1.62122e-07 1.96202e-07 -5.87363e-08
8.57004e-08 1.7883e-07 -7.5029e-08
9.56383e-08 2.7813e-07 -7.56467e-08
1.12201e-07 1.98558e-07 -6.00517e-08
7.31305e-08 2.97934e-07 -8.55168e-08
6.07445e-08 1.62022e-07 -8.48547e-08
9.95135e-08 2.59453e-07 -6.88222e-08
9.32726e-08 1.97941e-07 -6.82659e-08
1.36133e-07 2.12772e-07 -4.3244e-08
1.27803e-07 2.22983e-07 -4.34318e-08
2.24237e-07 3.0369e-07 -8.62428e-08
2.1495e-07 1.43628e-07 -8.55684e-08
1.33271e-07 9.72984e-08 -9.37727e-08
1.48693e-07 3.62115e-07 -9.30817e-08
3.04788e-07 -3.58869e-08 -6.79631e-08
3.0501e-07 3.75861e-08 -6.85955e-08
2.26835e-07 3.97857e-08 -6.80237e-08
2.26729e-07 -3.97341e-08 -6.80966e-08
1.78343e-07 5.80907e-08 -8.72079e-08
1.78223e-07 -5.80797e-08 -8.72354e-08
2.64752e-07 4.53067e-08 -6.42834e-08
2.19499e-07 -3.78277e-10 -6.26422e-08
3.09152e-07 -1.47515e-09 -6.2683e-08
2.64249e-07 -4.54221e-08 -6.43929e-08
1.61466e-07 6.10571e-08 -9.2028e-08
1.61315e-07 -6.10678e-08 -9.20562e-08
3.52744e-07 -4.63227e-08 -8.48745e-08
3.48451e-07 4.4311e-08 -8.35169e-08
2.64809e-07 -9.35773e-08 -8.46188e-08
2.69126e-07 9.32852e-08 -8.46805e-08
2.94959e-07 7.12407e-08 -7.82064e-08
2.36889e-07 -7.44696e-08 -7.74646e-08
1.83335e-07 1.89726e-08 -7.853e-08
1.80989e-07 -1.89749e-08 -7.91709e-08
2.94572e-07 -7.41249e-08 -7.89632e-08
2.37319e-07 7.79302e-08 -7.82754e-08
2.802e-07 -1.4033e-08 -4.89466e-08
2.81664e-07 1.7212e-08 -5.12832e-08
2.47001e-07 1.5292e-08 -5.04119e-08
2.47754e-07 -1.44036e-08 -4.97206e-08
1.57403e-07 7.36695e-08 -9.37341e-08
1.5723e-07 -7.369e-08 -9.38067e-08
2.05302e-07 6.79688e-08 -8.0637e-08
2.0518e-07 -6.76977e-08 -8.06536e-08
3.50074e-07 -1.35557e-08 -7.98602e-08
3.45965e-07 1.53662e-08 -7.86295e-08
2.00827e-07 -3.58406e-08 -7.62779e-08
2.00924e-07 3.58798e-08 -7.62456e-08
2.79329e-07 -1.15574e-07 -9.07885e-08
2.5851e-07 1.16078e-07 -9.06074e-08
3.27643e-07 -6.46193e-08 -8.15429e-08
3.27626e-07 6.31666e-08 -8.12701e-08
2.69236e-07 2.40292e-08 -5.19087e-08
2.6834e-07 -2.37085e-08 -5.15422e-08
2.39644e-07 4.0455e-09 -5.14013e-08
2.89677e-07 -2.88446e-09 -5.11655e-08
1.56942e-07 3.95149e-08 -8.85382e-08
1.5686e-07 -3.95115e-08 -8.85286e-08
3.22614e-07 -2.12802e-08 -7.11117e-08
3.61983e-07 -6.83793e-08 -8.95028e-08
3.61411e-07 6.77743e-08 -8.93422e-08
3.19026e-07 2.1347e-08 -6.95663e-08
2.46699e-07 3.9735e-08 -6.26627e-08
2.47434e-07 -3.87655e-08 -6.21571e-08
2.26447e-07 -1.69721e-08 -6.13606e-08
2.85022e-07 -3.49193e-08 -6.17359e-08
2.85669e-07 3.5212e-08 -6.19539e-08
2.29323e-07 1.56472e-08 -5.96349e-08
2.39191e-07 -9.9112e-08 -8.43849e-08
2.94117e-07 9.56367e-08 -8.52031e-08
2.81329e-07 1.19592e-07 -9.18427e-08
2.57171e-07 -1.20319e-07 -9.15676e-08
1.49207e-07 5.1958e-08 -9.26547e-08
1.49095e-07 -5.19619e-08 -9.26446e-08
1.6235e-07 3.02449e-10 -8.1418e-08
3.83187e-07 -5.37366e-08 -9.18868e-08
3.83572e-07 5.30169e-08 -9.19474e-08
2.85848e-07 -9.47014e-08 -8.51427e-08
2.47979e-07 9.72367e-08 -8.47256e-08
2.73076e-07 -6.94409e-08 -7.61263e-08
2.58451e-07 7.01921e-08 -7.58476e-08
2.98113e-07 1.111e-08 -5.77389e-08
2.76491e-07 7.05722e-08 -7.67632e-08
2.55067e-07 -7.18903e-08 -7.6498e-08
3.1762e-07 8.07947e-08 -8.25296e-08
2.99223e-07 -1.61561e-08 -5.96476e-08
2.14367e-07 -8.70539e-08 -8.1522e-08
3.66763e-07 2.7688e-08 -8.51291e-08
3.68992e-07 -3.09407e-08 -8.5886e-08
1.74653e-07 7.41482e-08 -8.94599e-08
1.74512e-07 -7.41095e-08 -8.94843e-08
2.054e-07 1.73383e-08 -7.07929e-08
1.79149e-07 -3.86796e-08 -8.36648e-08
1.79406e-07 3.86729e-08 -8.35892e-08
1.45207e-07 7.15882e-08 -9.54017e-08
1.46207e-07 6.34752e-08 -9.47686e-08
1.45034e-07 -7.16668e-08 -9.54972e-08
1.46042e-07 -6.34988e-08 -9.47868e-08
3.18837e-07 -8.1539e-08 -8.28977e-08
1.96873e-07 5.391e-08 -8.10224e-08
1.96758e-07 -5.38759e-08 -8.10625e-08
2.81278e-07 -1.31847e-07 -9.38037e-08
2.60262e-07 1.3124e-07 -9.378e-08
2.13225e-07 8.78362e-08 -8.17984e-08
2.05967e-07 -1.67011e-08 -7.04468e-08
1.92101e-07 1.45803e-09 -7.41579e-08
3.62093e-07 4.73585e-09 -8.19424e-08
3.07005e-07 5.61281e-08 -7.51825e-08
3.80138e-07 -7.53895e-08 -9.31221e-08
3.80174e-07 7.50175e-08 -9.31495e-08
3.05356e-07 -5.55298e-08 -7.46603e-08
3.26247e-07 4.24663e-08 -7.66853e-08
2.27175e-07 -5.89041e-08 -7.40151e-08
2.59529e-07 1.47187e-08 -4.50941e-08
2.60767e-07 -1.40107e-08 -4.4568e-08
2.80729e-07 5.22133e-09 -4.55104e-08
2.49124e-07 -3.67916e-09 -4.46459e-08
2.26852e-07 5.99828e-08 -7.42771e-08
3.27839e-07 -4.39492e-08 -7.74773e-08
1.56497e-07 2.27621e-08 -8.4812e-08
1.55335e-07 -2.23164e-08 -8.49028e-08
2.71621e-07 -6.26199e-09 -4.08193e-08
2.81672e-07 5.34437e-08 -6.9807e-08
2.7095e-07 1.2298e-08 -4.39013e-08
2.52323e-07 5.70724e-09 -4.32585e-08
3.04078e-07 -9.65312e-08 -8.48629e-08
2.82863e-07 -5.48705e-08 -7.06503e-08
3.33436e-07 8.46979e-10 -7.35983e-08
2.46395e-07 -5.72533e-08 -7.05892e-08
2.96749e-07 2.30901e-08 -6.05717e-08
1.65578e-07 5.01547e-08 -8.92917e-08
1.65435e-07 -5.01606e-08 -8.93119e-08
1.90938e-07 8.3154e-08 -8.52024e-08
1.90535e-07 -8.39424e-08 -8.53357e-08
2.4708e-07 5.79848e-08 -7.0768e-08
3.39595e-07 2.85279e-08 -7.8286e-08
2.28536e-07 9.98608e-08 -8.34692e-08
3.4301e-07 -6.02009e-08 -8.43401e-08
3.42554e-07 5.93814e-08 -8.41269e-08
3.43563e-07 -3.00487e-08 -7.97482e-08
2.57123e-07 -6.33552e-09 -4.12348e-08
2.57268e-07 2.77369e-08 -5.42535e-08
2.572e-07 -2.77333e-08 -5.43494e-08
2.37447e-07 -6.15674e-09 -5.29467e-08
2.39246e-07 2.88362e-08 -5.97599e-08
2.38914e-07 -2.83518e-08 -5.97693e-08
2.13146e-07 -4.95867e-08 -7.50978e-08
2.9167e-07 -2.46698e-08 -5.91572e-08
2.13225e-07 4.9782e-08 -7.5087e-08
1.89597e-07 6.74327e-08 -8.48381e-08
1.89426e-07 -6.75156e-08 -8.48995e-08
2.18749e-07 -3.0632e-08 -6.84055e-08
2.18057e-07 3.03759e-08 -6.85898e-08
2.68715e-07 -1.2428e-08 -4.35431e-08
2.77992e-07 -3.49002e-09 -4.32373e-08
3.44567e-07 -7.89604e-08 -8.63954e-08
3.44563e-07 7.86771e-08 -8.63486e-08
2.72355e-07 1.29608e-07 -9.39059e-08
2.69216e-07 -1.29495e-07 -9.38052e-08
1.83061e-07 -2.63289e-07 -6.84216e-08
1.78478e-07 -1.86091e-07 -6.83547e-08
9.99456e-08 -1.87819e-07 -6.79711e-08
1.08245e-07 -2.67578e-07 -6.85081e-08
5.04898e-08 -1.72314e-07 -8.72355e-08
6.111e-08 -2.90761e-07 -8.76094e-08
1.37232e-07 -1.7929e-07 -6.39664e-08
9.69673e-08 -2.27708e-07 -6.27847e-08
1.85467e-07 -2.25034e-07 -6.34108e-08
1.46386e-07 -2.72906e-07 -6.44635e-08
3.35086e-08 -1.704e-07 -9.2097e-08
4.45823e-08 -2.97022e-07 -9.22258e-08
2.23542e-07 -1.78035e-07 -8.51448e-08
2.25935e-07 -2.68601e-07 -8.35498e-08
1.46728e-07 -3.23466e-07 -8.44132e-08
1.37983e-07 -1.31771e-07 -8.42712e-08
1.66847e-07 -1.50609e-07 -7.73432e-08
1.20656e-07 -3.01827e-07 -7.80135e-08
5.9208e-08 -2.11923e-07 -7.87121e-08
6.17946e-08 -2.50593e-07 -7.9185e-08
1.75008e-07 -3.02248e-07 -7.86188e-08
1.06889e-07 -1.48625e-07 -7.81201e-08
1.59289e-07 -2.4287e-07 -5.10146e-08
1.55872e-07 -2.06821e-07 -5.1135e-08
1.23076e-07 -2.12129e-07 -4.96236e-08
1.28262e-07 -2.42573e-07 -4.95696e-08
2.83861e-08 -1.5778e-07 -9.37704e-08
4.08257e-08 -3.11014e-07 -9.3858e-08
7.61309e-08 -1.60477e-07 -8.05839e-08
8.90421e-08 -2.95868e-07 -8.1427e-08
2.22989e-07 -2.1073e-07 -8.01418e-08
2.21288e-07 -2.3943e-07 -7.87037e-08
8.20357e-08 -2.66004e-07 -7.66649e-08
7.4858e-08 -1.93532e-07 -7.62821e-08
1.59821e-07 -3.46671e-07 -9.01365e-08
1.24188e-07 -1.10324e-07 -9.04467e-08
1.99316e-07 -1.57038e-07 -8.09602e-08
2.04095e-07 -2.86165e-07 -8.01355e-08
1.43108e-07 -2.00593e-07 -5.1663e-08
1.40909e-07 -2.50985e-07 -5.15953e-08
1.17576e-07 -2.30957e-07 -5.12442e-08
1.66695e-07 -2.26141e-07 -5.21797e-08
3.11153e-08 -1.92677e-07 -8.87211e-08
3.93013e-08 -2.74652e-07 -8.8815e-08
1.95001e-07 -2.00667e-07 -7.1289e-08
2.31972e-07 -1.56804e-07 -8.98521e-08
2.40048e-07 -2.91701e-07 -8.93274e-08
1.96982e-07 -2.44497e-07 -7.00801e-08
1.19516e-07 -1.86413e-07 -6.25529e-08
1.62059e-07 -2.64395e-07 -6.22326e-08
1.02011e-07 -2.1106e-07 -6.13804e-08
1.58855e-07 -1.88184e-07 -6.14922e-08
1.27745e-07 -2.64868e-07 -6.20135e-08
1.08917e-07 -2.43658e-07 -5.96619e-08
1.23037e-07 -3.27296e-07 -8.48498e-08
1.6452e-07 -1.26335e-07 -8.4263e-08
1.38072e-07 -3.51856e-07 -9.11386e-08
1.47419e-07 -1.05874e-07 -9.14968e-08
2.22184e-08 -1.80495e-07 -9.28244e-08
3.27291e-08 -2.88757e-07 -9.28655e-08
4.04342e-08 -2.32478e-07 -8.17821e-08
2.53447e-07 -1.72829e-07 -9.2694e-08
2.61309e-07 -2.759e-07 -9.19947e-08
1.66725e-07 -3.2422e-07 -8.46789e-08
1.1574e-07 -1.29008e-07 -8.45264e-08
1.73459e-07 -2.12499e-07 -5.85396e-08
1.54421e-07 -2.97939e-07 -7.59519e-08
1.29019e-07 -1.55058e-07 -7.55355e-08
1.47703e-07 -1.53034e-07 -7.62013e-08
1.37653e-07 -3.00178e-07 -7.66853e-08
1.90049e-07 -1.38338e-07 -8.14313e-08
9.98269e-08 -3.13095e-07 -8.26171e-08
2.42943e-07 -2.5111e-07 -8.5234e-08
2.40448e-07 -1.93858e-07 -8.63974e-08
4.54357e-08 -1.56131e-07 -8.94473e-08
5.85324e-08 -3.0724e-07 -8.98858e-08
8.51614e-08 -2.46734e-07 -7.09119e-08
6.08191e-08 -2.71254e-07 -8.39528e-08
5.33599e-08 -1.92066e-07 -8.36808e-08
1.64924e-08 -1.60677e-07 -9.54966e-08
1.82276e-08 -1.68964e-07 -9.49071e-08
2.89935e-08 -3.11201e-07 -9.54505e-08
3.02434e-08 -3.01723e-07 -9.49087e-08
1.73312e-07 -2.40085e-07 -5.7918e-08
1.97726e-07 -3.08818e-07 -8.25715e-08
6.91149e-08 -1.75373e-07 -8.10178e-08
7.93484e-08 -2.8391e-07 -8.15825e-08
1.60953e-07 -3.63439e-07 -9.30098e-08
1.23904e-07 -9.52393e-08 -9.36765e-08
8.21625e-08 -1.39733e-07 -8.1686e-08
8.1367e-08 -2.11871e-07 -7.08444e-08
7.06771e-08 -2.29541e-07 -7.41095e-08
2.36472e-07 -2.28425e-07 -8.21404e-08
1.77053e-07 -1.6766e-07 -7.34048e-08
2.496e-07 -1.52535e-07 -9.39452e-08
2.58997e-07 -2.98116e-07 -9.3157e-08
1.80167e-07 -2.83777e-07 -7.40054e-08
2.05352e-07 -2.65361e-07 -7.67143e-08
1.10279e-07 -2.85952e-07 -7.45651e-08
1.35666e-07 -2.1112e-07 -4.44506e-08
1.48808e-07 -2.41161e-07 -4.53751e-08
1.55778e-07 -2.19584e-07 -4.52855e-08
1.25816e-07 -2.2221e-07 -4.49427e-08
9.80736e-08 -1.67278e-07 -7.41901e-08
1.99531e-07 -1.78768e-07 -7.73581e-08
3.2457e-08 -2.09854e-07 -8.50814e-08
3.67912e-08 -2.56786e-07 -8.52117e-08
1.35819e-07 -2.3304e-07 -4.07997e-08
1.30039e-07 -2.83518e-07 -7.0298e-08
1.53924e-07 -1.69753e-07 -6.93092e-08
1.45689e-07 -2.12552e-07 -4.37895e-08
1.53908e-07 -2.31301e-07 -4.32087e-08
1.8463e-07 -3.25025e-07 -8.44411e-08
2.08227e-07 -2.24902e-07 -7.38922e-08
3.85756e-08 -1.81253e-07 -8.93897e-08
4.81339e-08 -2.84905e-07 -8.95643e-08
6.07009e-08 -1.45811e-07 -8.51369e-08
7.59321e-08 -3.12679e-07 -8.62268e-08
1.69968e-07 -2.00411e-07 -6.03358e-08
1.63308e-07 -2.83634e-07 -7.08935e-08
1.18424e-07 -1.67981e-07 -7.05858e-08
2.15449e-07 -2.51993e-07 -7.80301e-08
9.61714e-08 -1.26902e-07 -8.3305e-08
2.13864e-07 -1.62829e-07 -8.42378e-08
2.20859e-07 -2.83412e-07 -8.39745e-08
2.15305e-07 -1.93784e-07 -7.99594e-08
1.33302e-07 -2.19208e-07 -4.12305e-08
1.51914e-07 -2.54091e-07 -5.44509e-08
1.3096e-07 -1.97697e-07 -5.41019e-08
1.14053e-07 -2.20909e-07 -5.30436e-08
1.66925e-07 -2.53498e-07 -5.90294e-08
1.12627e-07 -1.98974e-07 -5.96096e-08
9.55374e-08 -2.78049e-07 -7.56401e-08
1.18637e-07 -2.56142e-07 -6.04342e-08
8.5593e-08 -1.78538e-07 -7.50451e-08
6.07403e-08 -1.62014e-07 -8.48137e-08
7.30391e-08 -2.97869e-07 -8.55105e-08
9.28652e-08 -1.97602e-07 -6.84268e-08
9.96683e-08 -2.59101e-07 -6.86423e-08
1.39595e-07 -2.394e-07 -4.34592e-08
1.28863e-07 -2.30566e-07 -4.34898e-08
2.17378e-07 -1.42646e-07 -8.61721e-08
2.22608e-07 -3.02809e-07 -8.59702e-08
1.36143e-07 -9.72176e-08 -9.37674e-08
1.48588e-07 -3.62098e-07 -9.30714e-08
-7.31983e-08 -2.81554e-07 -6.82679e-08
-8.46779e-08 -2.02229e-07 -6.98131e-08
-1.69783e-07 -2.22828e-07 -7.27701e-08
-1.48103e-07 -3.05011e-07 -6.94154e-08
-1.97074e-07 -3.36544e-07 -8.80384e-08
-2.29585e-07 -2.17986e-07 -9.39273e-08
-1.29815e-07 -2.04251e-07 -6.7173e-08
-1.64147e-07 -2.67176e-07 -6.52282e-08
-7.40153e-08 -2.43918e-07 -6.28008e-08
-1.09184e-07 -3.01379e-07 -6.49559e-08
-2.15335e-07 -3.44745e-07 -9.23179e-08
-2.50607e-07 -2.20392e-07 -9.87017e-08
-4.32001e-08 -1.93038e-07 -8.40012e-08
-2.7087e-08 -2.85234e-07 -8.54556e-08
-1.02344e-07 -3.52663e-07 -8.49067e-08
-1.36018e-07 -1.53828e-07 -8.93354e-08
-1.65326e-07 -1.82036e-07 -8.41673e-08
-1.31305e-07 -3.36262e-07 -7.85471e-08
-1.95506e-07 -2.966e-07 -8.09178e-08
-2.08737e-07 -2.57215e-07 -8.3396e-08
-1.00251e-07 -1.65311e-07 -8.04159e-08
-7.68816e-08 -3.25613e-07 -7.92576e-08
-9.99739e-08 -2.62969e-07 -4.91411e-08
-1.06238e-07 -2.28735e-07 -5.2179e-08
-1.4055e-07 -2.43898e-07 -5.20197e-08
-1.32095e-07 -2.75632e-07 -5.16679e-08
-2.1805e-07 -3.58548e-07 -9.37098e-08
-2.60964e-07 -2.09457e-07 -1.01992e-07
-1.65713e-07 -3.36704e-07 -8.19491e-08
-2.01465e-07 -1.99546e-07 -8.85204e-08
-3.0483e-08 -2.51518e-07 -7.96319e-08
-3.91313e-08 -2.23162e-07 -7.85089e-08
-1.75836e-07 -3.08748e-07 -7.78309e-08
-1.95934e-07 -2.34282e-07 -8.11788e-08
-1.23321e-07 -1.28134e-07 -9.48034e-08
-8.66448e-08 -3.74218e-07 -9.06244e-08
-4.81039e-08 -3.08371e-07 -8.21444e-08
-6.77479e-08 -1.75467e-07 -8.0839e-08
-1.20934e-07 -2.25316e-07 -5.36122e-08
-1.09015e-07 -2.7725e-07 -5.1984e-08
-1.42665e-07 -2.66355e-07 -5.32018e-08
-9.3342e-08 -2.4862e-07 -5.13718e-08
-2.20348e-07 -3.23469e-07 -8.97866e-08
-2.43526e-07 -2.42989e-07 -9.37279e-08
-5.78121e-08 -2.62741e-07 -7.12447e-08
-3.39429e-08 -1.67953e-07 -9.01604e-08
-1.69736e-08 -3.07557e-07 -9.05053e-08
-6.86465e-08 -2.20484e-07 -6.93586e-08
-1.47002e-07 -2.17122e-07 -6.57686e-08
-1.26782e-07 -2.98697e-07 -6.30887e-08
-1.62725e-07 -2.47563e-07 -6.45619e-08
-9.15441e-08 -2.84926e-07 -6.20535e-08
-1.05179e-07 -2.08413e-07 -6.33347e-08
-1.50191e-07 -2.81032e-07 -6.13876e-08
-1.25698e-07 -3.60745e-07 -8.53038e-08
-1.65727e-07 -1.54816e-07 -9.27508e-08
-1.0774e-07 -3.8257e-07 -9.15764e-08
-1.48174e-07 -1.2788e-07 -9.86665e-08
-2.28644e-07 -3.37951e-07 -9.30797e-08
-2.59399e-07 -2.33497e-07 -9.83304e-08
-2.1887e-07 -2.81983e-07 -8.51993e-08
1.08432e-09 -2.90723e-07 -9.28176e-08
-1.0827e-08 -1.83178e-07 -9.28004e-08
-1.12418e-07 -1.46708e-07 -8.77235e-08
-8.24151e-08 -3.49998e-07 -8.5247e-08
-1.23502e-07 -1.76315e-07 -7.91352e-08
-9.7482e-08 -3.25131e-07 -7.65171e-08
-8.79448e-08 -2.32291e-07 -5.80828e-08
-1.4406e-07 -1.79319e-07 -8.12559e-08
-1.14052e-07 -3.30837e-07 -7.71801e-08
-8.14249e-08 -2.61182e-07 -5.98098e-08
-1.51706e-07 -3.51469e-07 -8.30702e-08
-1.94103e-07 -1.75784e-07 -9.14437e-08
-2.05712e-08 -2.09452e-07 -8.51359e-08
-1.11837e-08 -2.67877e-07 -8.59927e-08
-1.98401e-07 -3.52879e-07 -9.00168e-08
-2.40159e-07 -2.03077e-07 -9.81207e-08
-1.74013e-07 -2.89152e-07 -7.2977e-08
-1.97707e-07 -3.17612e-07 -8.5009e-08
-2.19927e-07 -2.37177e-07 -8.88359e-08
-2.31865e-07 -3.59924e-07 -9.51552e-08
-2.32144e-07 -3.50571e-07 -9.46955e-08
-2.73954e-07 -2.15647e-07 -1.03134e-07
-2.69158e-07 -2.2363e-07 -1.01227e-07
-7.61752e-08 -1.51409e-07 -8.32413e-08
-5.32651e-08 -3.28094e-07 -8.33877e-08
-1.77526e-07 -3.26893e-07 -8.22547e-08
-2.07086e-07 -2.16608e-07 -8.74899e-08
-8.36415e-08 -3.91165e-07 -9.34684e-08
-1.24238e-07 -1.12064e-07 -9.83569e-08
-1.83141e-07 -2.53311e-07 -7.41348e-08
-1.90524e-07 -2.761e-07 -7.72843e-08
-1.93381e-08 -2.32351e-07 -8.14101e-08
-1.69405e-08 -1.61325e-07 -9.43335e-08
-1.06048e-10 -3.13479e-07 -9.43446e-08
-6.97707e-08 -3.02897e-07 -7.50571e-08
-8.98859e-08 -1.81871e-07 -7.5611e-08
-6.11079e-08 -1.96812e-07 -7.80344e-08
-1.43918e-07 -3.2291e-07 -7.52668e-08
-1.73785e-07 -2.02005e-07 -8.01407e-08
-1.27427e-07 -2.38966e-07 -4.6275e-08
-1.19631e-07 -2.7078e-07 -4.58089e-08
-1.0443e-07 -2.41774e-07 -4.60018e-08
-1.35408e-07 -2.55097e-07 -4.63258e-08
-5.06404e-08 -2.8612e-07 -7.79262e-08
-2.20831e-07 -3.06365e-07 -8.72537e-08
-2.3521e-07 -2.60572e-07 -8.95779e-08
-1.10043e-07 -2.56877e-07 -4.10594e-08
-1.16387e-07 -2.36812e-07 -4.51265e-08
-1.29336e-07 -2.64212e-07 -4.4526e-08
-6.44446e-08 -3.47743e-07 -8.50603e-08
-9.25054e-08 -1.38953e-07 -8.61088e-08
-9.05098e-08 -3.07253e-07 -7.10184e-08
-1.0992e-07 -1.87879e-07 -7.28789e-08
-4.94772e-08 -2.38969e-07 -7.34505e-08
-1.51675e-07 -1.97545e-07 -7.53341e-08
-1.24724e-07 -3.17364e-07 -7.14871e-08
-9.15984e-08 -2.19764e-07 -6.12028e-08
-2.11436e-07 -3.32623e-07 -9.00696e-08
-2.40452e-07 -2.29738e-07 -9.5145e-08
-1.77883e-07 -3.55564e-07 -8.65318e-08
-2.23256e-07 -1.87289e-07 -9.57298e-08
-4.81621e-08 -2.09816e-07 -7.86949e-08
-5.1352e-08 -1.77652e-07 -8.44148e-08
-3.4844e-08 -3.01145e-07 -8.50667e-08
-3.6509e-08 -2.69263e-07 -7.99495e-08
-1.28422e-07 -2.4934e-07 -4.27343e-08
-1.34324e-07 -2.25626e-07 -5.68233e-08
-1.19022e-07 -2.84968e-07 -5.50638e-08
-1.48068e-07 -2.56047e-07 -5.52283e-08
-1.53676e-07 -2.31366e-07 -6.32133e-08
-1.37394e-07 -2.90814e-07 -6.09199e-08
-1.60598e-07 -3.18001e-07 -7.64263e-08
-1.87396e-07 -2.16292e-07 -8.09301e-08
-8.72274e-08 -2.71995e-07 -5.9391e-08
-1.83131e-07 -3.41541e-07 -8.5906e-08
-2.20064e-07 -2.04836e-07 -9.28489e-08
-1.75316e-07 -2.34973e-07 -7.26433e-08
-1.58945e-07 -2.98479e-07 -7.01951e-08
-1.11237e-07 -2.64691e-07 -4.36532e-08
-1.04772e-07 -2.51945e-07 -4.34957e-08
-4.99493e-08 -1.54961e-07 -8.65925e-08
-3.06951e-08 -3.2055e-07 -8.72328e-08
-1.36835e-07 -1.16503e-07 -9.97727e-08
-9.61761e-08 -3.91388e-07 -9.3508e-08
-2.45684e-07 -6.53258e-08 -1.07326e-07
-3.87226e-07 7.65259e-08 -1.12315e-07
-2.45809e-07 6.79157e-08 -1.07269e-07
-3.87354e-07 -7.6542e-08 -1.12317e-07
-4.55977e-07 9.65927e-08 -1.14463e-07
-4.55998e-07 -9.66557e-08 -1.14461e-07
-3.15389e-07 9.04875e-08 -1.09727e-07
-4.06319e-07 2.29334e-09 -1.12811e-07
-2.34353e-07 -2.63481e-09 -1.07247e-07
-3.16279e-07 -9.0631e-08 -1.09748e-07
-4.78128e-07 1.00448e-07 -1.15102e-07
-4.78149e-07 -1.00504e-07 -1.151e-07
-1.90357e-07 6.40683e-08 -1.06069e-07
-1.85674e-07 -6.56976e-08 -1.05944e-07
-3.09786e-07 -1.52399e-07 -1.09325e-07
-3.03192e-07 1.51417e-07 -1.08923e-07
-2.63656e-07 1.19088e-07 -1.065e-07
-3.58684e-07 -1.2819e-07 -1.11377e-07
-4.52909e-07 3.57033e-08 -1.14014e-07
-4.54637e-07 -3.49752e-08 -1.14045e-07
-2.64099e-07 -1.23165e-07 -1.06306e-07
-3.57037e-07 1.32743e-07 -1.11325e-07
-2.81598e-07 -3.54205e-08 -1.08729e-07
-3.58272e-07 3.64742e-08 -1.11395e-07
-2.79984e-07 4.10921e-08 -1.08657e-07
-3.59458e-07 -3.79644e-08 -1.11435e-07
-4.82248e-07 1.16224e-07 -1.15224e-07
-4.82276e-07 -1.16278e-07 -1.15223e-07
-4.14002e-07 1.13677e-07 -1.13144e-07
-4.14124e-07 -1.13384e-07 -1.13146e-07
-1.83381e-07 -1.95406e-08 -1.04875e-07
-1.88785e-07 2.28473e-08 -1.0519e-07
-4.2791e-07 6.55785e-08 -1.13534e-07
-4.27923e-07 -6.5651e-08 -1.13533e-07
-2.87023e-07 -1.75174e-07 -1.07434e-07
-3.15743e-07 1.79879e-07 -1.09822e-07
-2.17085e-07 -9.93068e-08 -1.05179e-07
-2.17139e-07 9.73879e-08 -1.05302e-07
-3.07177e-07 5.72707e-08 -1.0956e-07
-3.08962e-07 -5.66543e-08 -1.09619e-07
-3.75649e-07 -9.78635e-09 -1.11952e-07
-2.63084e-07 -6.78207e-09 -1.08172e-07
-4.8371e-07 6.97839e-08 -1.14883e-07
-4.83722e-07 -6.98401e-08 -1.14881e-07
-2.18446e-07 -3.57114e-08 -1.06773e-07
-1.77421e-07 -9.13296e-08 -1.05351e-07
-1.78098e-07 9.09077e-08 -1.05378e-07
-2.23205e-07 3.67947e-08 -1.06914e-07
-3.51527e-07 8.06329e-08 -1.1112e-07
-3.50254e-07 -7.93784e-08 -1.11071e-07
-3.94283e-07 3.57807e-08 -1.12498e-07
-2.77263e-07 -7.10943e-08 -1.0832e-07
-2.76156e-07 7.11665e-08 -1.08294e-07
-3.90212e-07 -3.35358e-08 -1.12375e-07
-3.4791e-07 -1.60304e-07 -1.11079e-07
-2.64974e-07 1.49733e-07 -1.05444e-07
-3.16731e-07 -1.8521e-07 -1.09887e-07
-2.84077e-07 1.79254e-07 -1.07134e-07
-4.93119e-07 8.83086e-08 -1.15289e-07
-4.93136e-07 -8.83614e-08 -1.15287e-07
-4.78723e-07 8.65748e-10 -1.14313e-07
-1.53933e-07 -6.90877e-08 -1.05086e-07
-1.53373e-07 6.82858e-08 -1.05024e-07
-2.77501e-07 -1.50179e-07 -1.06757e-07
-3.35023e-07 1.57868e-07 -1.10602e-07
-2.98736e-07 -1.21605e-07 -1.08719e-07
-3.23397e-07 1.23781e-07 -1.10003e-07
-2.51053e-07 2.30182e-08 -1.07796e-07
-2.93061e-07 1.22466e-07 -1.08398e-07
-3.28798e-07 -1.25903e-07 -1.10226e-07
-2.29943e-07 1.25455e-07 -1.03527e-07
-2.49999e-07 -3.24235e-08 -1.0775e-07
-3.92691e-07 -1.41261e-07 -1.12379e-07
-1.66391e-07 3.8249e-08 -1.04165e-07
-1.64625e-07 -4.24175e-08 -1.04148e-07
-4.58953e-07 1.17303e-07 -1.14553e-07
-4.58982e-07 -1.17365e-07 -1.14552e-07
-4.24026e-07 -3.28019e-08 -1.13315e-07
-4.56382e-07 6.87212e-08 -1.14325e-07
-4.56521e-07 -6.87259e-08 -1.14327e-07
-4.9671e-07 1.13534e-07 -1.15513e-07
-4.96509e-07 1.03115e-07 -1.15482e-07
-4.96736e-07 -1.13584e-07 -1.15512e-07
-4.96531e-07 -1.03165e-07 -1.15481e-07
-2.28101e-07 -1.25893e-07 -1.03439e-07
-4.30458e-07 9.25868e-08 -1.13684e-07
-4.3049e-07 -9.26332e-08 -1.13683e-07
-2.83611e-07 -1.91917e-07 -1.06739e-07
-3.10902e-07 1.97637e-07 -1.09523e-07
-3.94449e-07 1.41997e-07 -1.12423e-07
-4.24071e-07 3.42292e-08 -1.13319e-07
-4.41527e-07 2.17387e-09 -1.13682e-07
-1.67811e-07 6.78183e-09 -1.03044e-07
-2.4469e-07 9.54317e-08 -1.06384e-07
-1.58653e-07 9.35824e-08 -1.05052e-07
-1.58684e-07 -9.38975e-08 -1.05041e-07
-2.46986e-07 -9.51554e-08 -1.06504e-07
-2.17359e-07 6.81779e-08 -1.06536e-07
-3.80465e-07 -1.05315e-07 -1.12095e-07
-3.278e-07 3.88871e-08 -1.1035e-07
-3.31232e-07 -3.92107e-08 -1.10469e-07
-2.79477e-07 1.37874e-08 -1.08649e-07
-3.57578e-07 9.78596e-09 -1.11433e-07
-3.80808e-07 1.06712e-07 -1.1211e-07
-2.15376e-07 -6.97678e-08 -1.06461e-07
-4.84773e-07 4.22208e-08 -1.1459e-07
-4.85557e-07 -4.17338e-08 -1.14592e-07
-2.98518e-07 -1.96353e-08 -1.09284e-07
-2.8495e-07 9.86284e-08 -1.08259e-07
-3.0136e-07 3.46129e-08 -1.09407e-07
-3.51612e-07 -1.68666e-08 -1.11258e-07
-2.4976e-07 -1.48752e-07 -1.0362e-07
-2.82861e-07 -1.00459e-07 -1.08095e-07
-2.02895e-07 1.43384e-09 -1.05881e-07
-3.46915e-07 -1.05927e-07 -1.10947e-07
-2.55462e-07 4.62439e-08 -1.07831e-07
-4.73293e-07 8.56669e-08 -1.14863e-07
-4.73328e-07 -8.57165e-08 -1.14862e-07
-4.3254e-07 1.3124e-07 -1.13627e-07
-4.32814e-07 -1.32308e-07 -1.13626e-07
-3.45663e-07 1.06921e-07 -1.10902e-07
-1.98376e-07 4.36371e-08 -1.0603e-07
-3.6472e-07 1.60161e-07 -1.11511e-07
-1.98254e-07 -8.74844e-08 -1.0555e-07
-1.98796e-07 8.65279e-08 -1.05605e-07
-1.93824e-07 -4.49383e-08 -1.0591e-07
-3.3976e-07 2.06942e-08 -1.10841e-07
-3.33251e-07 -6.34953e-08 -1.10483e-07
-3.33255e-07 6.3405e-08 -1.10488e-07
-3.78462e-07 1.4947e-08 -1.12029e-07
-3.70698e-07 5.97863e-08 -1.11777e-07
-3.69247e-07 -6.12239e-08 -1.11727e-07
-4.06543e-07 -8.90151e-08 -1.12932e-07
-2.63696e-07 -5.10273e-08 -1.08056e-07
-4.06493e-07 8.91526e-08 -1.12933e-07
-4.38374e-07 1.10311e-07 -1.1392e-07
-4.38472e-07 -1.10501e-07 -1.1392e-07
-4.02882e-07 5.95747e-08 -1.12782e-07
-4.03916e-07 -5.89503e-08 -1.12811e-07
-3.07734e-07 -3.38749e-08 -1.09633e-07
-2.84726e-07 -9.58858e-09 -1.08802e-07
-1.9566e-07 1.11157e-07 -1.03411e-07
-1.95609e-07 -1.1142e-07 -1.03405e-07
-3.00077e-07 -1.93206e-07 -1.08658e-07
-2.95785e-07 1.92131e-07 -1.08247e-07
-8.55882e-08 2.04875e-07 -6.85e-08
-7.26334e-08 2.83593e-07 -6.90221e-08
-1.4783e-07 3.04787e-07 -6.9345e-08
-1.69835e-07 2.22632e-07 -7.28553e-08
-2.29646e-07 2.17872e-07 -9.39777e-08
-1.96919e-07 3.36423e-07 -8.80434e-08
-1.08693e-07 3.01079e-07 -6.49565e-08
-1.63849e-07 2.67947e-07 -6.52088e-08
-7.4447e-08 2.40996e-07 -6.27739e-08
-1.29706e-07 2.04095e-07 -6.71448e-08
-2.50697e-07 2.20269e-07 -9.876e-08
-2.15184e-07 3.44636e-07 -9.23241e-08
-3.1158e-08 2.83771e-07 -8.40803e-08
-3.92294e-08 1.90979e-07 -8.5318e-08
-1.3588e-07 1.53733e-07 -8.93051e-08
-9.84177e-08 3.51702e-07 -8.49303e-08
-7.695e-08 3.2253e-07 -7.86009e-08
-1.65239e-07 1.81876e-07 -8.4193e-08
-2.06502e-07 2.5657e-07 -8.27798e-08
-1.97598e-07 2.97104e-07 -8.15688e-08
-1.00126e-07 1.65306e-07 -8.03282e-08
-1.30221e-07 3.39296e-07 -7.94219e-08
-1.07164e-07 2.3246e-07 -4.95499e-08
-9.77179e-08 2.66347e-07 -5.17035e-08
-1.31104e-07 2.74324e-07 -5.08121e-08
-1.41784e-07 2.43015e-07 -5.29571e-08
-2.61088e-07 2.09327e-07 -1.02069e-07
-2.17902e-07 3.58431e-07 -9.37196e-08
-2.01453e-07 1.99408e-07 -8.8585e-08
-1.6549e-07 3.36769e-07 -8.19882e-08
-3.41839e-08 2.24953e-07 -7.96093e-08
-3.46236e-08 2.53963e-07 -7.85244e-08
-1.95964e-07 2.34148e-07 -8.12476e-08
-1.75681e-07 3.08608e-07 -7.77968e-08
-1.2318e-07 1.28056e-07 -9.4772e-08
-1.06955e-07 3.77948e-07 -9.06506e-08
-6.56346e-08 1.70922e-07 -8.19087e-08
-4.82908e-08 3.07055e-07 -8.19236e-08
-1.0808e-07 2.77296e-07 -5.24923e-08
-1.21532e-07 2.25852e-07 -5.31256e-08
-1.45244e-07 2.57771e-07 -5.35821e-08
-9.45874e-08 2.42451e-07 -5.14108e-08
-2.436e-07 2.42904e-07 -9.37803e-08
-2.20184e-07 3.2338e-07 -8.97829e-08
-6.45709e-08 2.18908e-07 -7.12435e-08
-1.74975e-08 3.07238e-07 -9.03583e-08
-3.33775e-08 1.67541e-07 -9.02631e-08
-6.12503e-08 2.63482e-07 -6.97619e-08
-1.27313e-07 2.99568e-07 -6.37092e-08
-1.46954e-07 2.16881e-07 -6.58073e-08
-1.52586e-07 2.83004e-07 -6.30554e-08
-1.0579e-07 2.09301e-07 -6.28487e-08
-9.08692e-08 2.85191e-07 -6.24128e-08
-1.59549e-07 2.48102e-07 -6.28091e-08
-1.65615e-07 1.54676e-07 -9.27583e-08
-7.43828e-08 3.4937e-07 -8.53492e-08
-8.45412e-08 3.78274e-07 -9.16098e-08
-1.48045e-07 1.27772e-07 -9.86534e-08
-2.59478e-07 2.33393e-07 -9.83903e-08
-2.28496e-07 3.37847e-07 -9.30818e-08
-2.18986e-07 2.81288e-07 -8.52488e-08
-1.13089e-08 1.8277e-07 -9.27486e-08
1.55001e-09 2.90188e-07 -9.28423e-08
-1.12278e-07 1.46656e-07 -8.76653e-08
-1.1775e-07 3.58307e-07 -8.53959e-08
-1.23362e-07 1.76251e-07 -7.90631e-08
-1.11114e-07 3.28523e-07 -7.65315e-08
-8.33374e-08 2.56013e-07 -5.79649e-08
-9.42123e-08 3.25723e-07 -7.71933e-08
-1.43942e-07 1.79181e-07 -8.12418e-08
-5.45024e-08 3.27798e-07 -8.30563e-08
-8.76919e-08 2.26777e-07 -5.99685e-08
-1.94033e-07 1.7563e-07 -9.15008e-08
-1.32169e-08 2.6481e-07 -8.51593e-08
-1.91408e-08 2.06191e-07 -8.59425e-08
-2.40207e-07 2.02965e-07 -9.81669e-08
-1.98249e-07 3.5276e-07 -9.00277e-08
-1.83959e-07 2.52683e-07 -7.46112e-08
-2.19803e-07 2.37034e-07 -8.88299e-08
-1.97724e-07 3.17563e-07 -8.50572e-08
-2.74102e-07 2.15537e-07 -1.0324e-07
-2.69267e-07 2.23526e-07 -1.01303e-07
-2.31716e-07 3.59816e-07 -9.51621e-08
-2.31994e-07 3.50465e-07 -9.47004e-08
-7.47504e-08 1.51858e-07 -8.31354e-08
-2.07114e-07 2.16472e-07 -8.75509e-08
-1.77356e-07 3.26757e-07 -8.22459e-08
-1.241e-07 1.11982e-07 -9.83339e-08
-1.05134e-07 3.94613e-07 -9.34891e-08
-1.52732e-07 3.52342e-07 -8.34272e-08
-1.73391e-07 2.8825e-07 -7.25928e-08
-1.91295e-07 2.72978e-07 -7.74439e-08
-1.79553e-08 2.41971e-07 -8.14053e-08
-6.81164e-08 3.03392e-07 -7.56753e-08
-6.74354e-11 3.13327e-07 -9.43741e-08
-1.69421e-08 1.61247e-07 -9.42213e-08
-8.71759e-08 1.83057e-07 -7.53544e-08
-5.21717e-08 2.84989e-07 -7.71758e-08
-1.73755e-07 2.01833e-07 -8.01964e-08
-1.18227e-07 2.69709e-07 -4.53187e-08
-1.28812e-07 2.3898e-07 -4.68228e-08
-1.01513e-07 2.5321e-07 -4.58317e-08
-1.32885e-07 2.62997e-07 -4.60274e-08
-1.43992e-07 3.23801e-07 -7.55901e-08
-6.34793e-08 1.9409e-07 -7.78474e-08
-2.34379e-07 2.59761e-07 -8.95646e-08
-2.21778e-07 3.06051e-07 -8.7349e-08
-1.14085e-07 2.43116e-07 -4.14041e-08
-9.18225e-08 3.06092e-07 -7.0287e-08
-1.0883e-07 2.64036e-07 -4.44973e-08
-1.33372e-07 2.51982e-07 -4.50355e-08
-9.2092e-08 1.39013e-07 -8.59662e-08
-1.10777e-07 1.88796e-07 -7.24233e-08
-4.91178e-08 2.40648e-07 -7.34562e-08
-1.51592e-07 1.97358e-07 -7.53533e-08
-8.24866e-08 2.69374e-07 -6.09077e-08
-2.40497e-07 2.29624e-07 -9.51891e-08
-2.1131e-07 3.3253e-07 -9.00787e-08
-2.23218e-07 1.87162e-07 -9.57952e-08
-1.77654e-07 3.54602e-07 -8.6485e-08
-1.23888e-07 3.1773e-07 -7.17459e-08
-4.0366e-08 2.68311e-07 -7.8502e-08
-1.35886e-07 3.61773e-07 -8.47526e-08
-5.05573e-08 1.75778e-07 -8.47997e-08
-3.53123e-08 3.00546e-07 -8.4884e-08
-4.49537e-08 2.08429e-07 -7.98836e-08
-1.23442e-07 2.63115e-07 -4.21838e-08
-1.18914e-07 2.84688e-07 -5.50786e-08
-1.34252e-07 2.25366e-07 -5.68318e-08
-1.44052e-07 2.69078e-07 -5.46859e-08
-1.37779e-07 2.90285e-07 -6.08812e-08
-1.53569e-07 2.31058e-07 -6.32461e-08
-1.87433e-07 2.1612e-07 -8.10142e-08
-9.71996e-08 2.18992e-07 -5.97844e-08
-1.60393e-07 3.17956e-07 -7.64193e-08
-2.20087e-07 2.04709e-07 -9.29067e-08
-1.82935e-07 3.41277e-07 -8.58963e-08
-1.57994e-07 2.98361e-07 -6.99087e-08
-1.76062e-07 2.35342e-07 -7.2952e-08
-1.18616e-07 2.38003e-07 -4.43255e-08
-1.06645e-07 2.44389e-07 -4.36195e-08
-3.0699e-08 3.20504e-07 -8.72223e-08
-4.92256e-08 1.54427e-07 -8.66576e-08
-9.32401e-08 3.9081e-07 -9.35353e-08
-1.36701e-07 1.16408e-07 -9.97547e-08
SCALARS effective_fluid_pressure_TPM float
LOOKUP_TABLE default
79.8
79.8
79.8
79.8
79.8
79.8
79.8
79.8
79.8
79.8
79.8
79.8
79.8
79.8
0.6
79.8
79.8
79.8
79.8
79.8
79.8
79.8
79.8
79.8
79.8
79.8
79.8
0.6
79.8
79.8
79.8
79.8
79.8
79.8
79.8
79.8
79.8
79.8
0.6
79.8
79.8
79.8
79.8
79.8
79.8
79.8
79.8
79.8
79.8
0.6
79.8
79.8
79.8
79.8
79.8
79.8
79.8
79.8
79.8
79.8
0.6
79.8
79.8
79.8
79.8
79.8
79.8
79.8
79.8
79.8
79.8
72.117
79.8
79.8
79.8
79.8
79.8
79.8
79.8
79.8
0.6
79.8
79.8
79.8
79.8
79.8
79.8
79.8
79.8
79.8
79.8
79.8
79.8
79.8
79.8
0.6
79.8
79.8
79.8
79.8
79.8
79.8
79.8
79.8
79.8
79.8
79.8
79.8
0.6
79.8
79.8
79.8
79.8
79.8
79.8
79.8
79.8
79.8
79.8
0.6
79.8
79.8
79.8
79.8
79.8
79.8
79.8
79.8
79.8
79.8
0.6
79.8
79.8
79.8
79.8
79.8
79.8
79.8
79.8
79.8
79.8
0.6
79.8
79.8
79.8
79.8
79.8
79.8
79.8
79.8
79.8
79.8
72.117
79.8
79.8
79.8
79.8
79.8
79.8
79.8
79.8
0.6
79.8
63.3945
57.9387
57.5105
62.3331
79.8
79.8
68.4165
65.5454
65.488
68.4573
79.8
79.8
62.388
57.6882
57.9527
63.3986
79.8
61.7283
56.4714
56.4861
61.7272
79.8
61.6079
56.459
56.5698
61.5357
79.8
61.7405
56.6529
56.6473
61.7754
0.6
0.6
0.6
79.8
79.8
61.6956
56.7127
56.5462
61.6447
79.8
79.8
61.2861
56.2885
56.5211
61.7451
79.8
61.7413
56.3093
56.4069
61.5894
79.8
61.6198
56.6014
56.3961
61.7604
79.8
61.524
56.2724
56.3394
61.6882
79.8
0.6
0.6
0.6
79.8
79.8
79.8
61.7806
56.6153
56.4666
61.6449
79.8
61.7726
56.4238
56.6327
61.6482
79.8
61.6263
56.4472
56.3459
61.7639
79.8
61.5423
56.4577
56.5087
61.6623
79.8
79.8
0.6
0.6
0.6
79.8
79.8
61.6322
56.6128
56.4053
61.7664
79.8
61.6681
56.432
56.2679
61.7253
79.8
61.753
56.5344
56.2963
61.2857
79.8
79.8
61.7669
56.5973
56.6665
61.5752
79.8
79.8
0.6
0.6
0.6
79.8
79.8
61.7238
56.5875
56.5037
61.9063
79.8
61.973
56.8635
56.6999
61.6736
79.8
79.8
62.0683
57.6399
58.1359
63.3511
79.8
79.8
68.7174
65.9475
66.1169
69.2675
79.8
0.6
0.6
0.6
79.8
79.8
75.5329
75.225
75.7539
76.8845
79.8
79.8
77.2481
76.6463
76.6439
77.2488
79.8
79.8
76.8872
75.7521
75.1812
75.5164
79.8
68.7293
65.9662
66.2056
69.3023
79.8
72.8397
73.6079
72.8743
79.8
79.8
79.8
63.3738
58.1426
57.655
62.0644
79.8
79.8
61.6823
56.6784
56.5868
61.9361
79.8
61.9456
56.8078
56.6423
61.7639
79.8
79.8
0.6
0.6
0.6
79.8
63.3945
57.9387
57.5105
62.3331
79.8
79.8
68.4165
65.5454
65.488
68.4573
79.8
79.8
62.388
57.6882
57.9527
63.3986
79.8
61.7283
56.4714
56.4861
61.7272
79.8
61.6079
56.459
56.5698
61.5357
79.8
61.7405
56.6529
56.6473
61.7754
0.6
0.6
0.6
79.8
79.8
61.6956
56.7127
56.5462
61.6447
79.8
79.8
61.2861
56.2885
56.5211
61.7451
79.8
61.7413
56.3093
56.4069
61.5894
79.8
61.6198
56.6014
56.3961
61.7604
79.8
61.524
56.2724
56.3394
61.6882
79.8
0.6
0.6
0.6
79.8
79.8
79.8
61.7806
56.6153
56.4666
61.6449
79.8
61.7726
56.4238
56.6327
61.6482
79.8
61.6263
56.4472
56.3459
61.7639
79.8
61.5423
56.4577
56.5087
61.6623
79.8
79.8
0.6
0.6
0.6
79.8
79.8
61.6322
56.6128
56.4053
61.7664
79.8
61.6681
56.432
56.2679
61.7253
79.8
61.753
56.5344
56.2963
61.2857
79.8
79.8
61.7669
56.5973
56.6665
61.5752
79.8
79.8
0.6
0.6
0.6
79.8
79.8
61.7238
56.5875
56.5037
61.9063
79.8
61.973
56.8635
56.6999
61.6736
79.8
79.8
62.0683
57.6399
58.1359
63.3511
79.8
79.8
68.7174
65.9475
66.1169
69.2675
79.8
0.6
0.6
0.6
79.8
79.8
75.5329
75.225
75.7539
76.8845
79.8
79.8
77.2481
76.6463
76.6439
77.2488
79.8
79.8
76.8872
75.7521
75.1812
75.5164
79.8
68.7293
65.9662
66.2056
69.3023
79.8
72.8397
73.6079
72.8743
79.8
79.8
79.8
63.3738
58.1426
57.655
62.0644
79.8
79.8
61.6823
56.6784
56.5868
61.9361
79.8
61.9456
56.8078
56.6423
61.7639
79.8
79.8
0.6
0.6
0.6
44.8776
45.4093
46.804
46.8655
62.6485
62.6449
42.8349
43.7262
40.8487
42.8302
68.8122
68.8109
56.6732
57.8976
57.9676
57.9218
52.0307
52.7457
56.927
57.2586
52.5005
53.3363
28.002
30.7897
30.0384
30.9931
71.8682
71.8681
55.8838
55.8656
53.0135
52.2584
53.9454
53.9161
64.5103
64.71
54.3989
54.2967
31.7432
31.0848
32.4682
30.2063
65.7717
65.7628
47.1747
63.0151
63.2112
46.1061
42.1016
41.5965
42.136
40.3808
40.6151
40.6646
57.669
57.0681
65.4939
65.7133
70.8294
70.8196
60.68
66.9904
66.8118
57.6304
58.1865
51.1682
51.3624
36.8152
51.5702
51.8377
54.4503
38.4858
55.7035
57.2949
58.0962
64.3373
64.337
50.2175
60.3155
60.277
77.4174
75.0702
77.4168
75.0669
54.6665
56.9725
56.9864
71.0347
70.8879
55.982
50.2614
53.3643
54.1121
49.9317
71.0116
71.0535
49.5258
51.2658
50.7668
21.8084
22.8025
22.4345
22.9843
50.9787
51.7921
63.1722
63.2559
14.0273
46.5143
20.9542
20.3806
56.3469
47.0251
48.6957
47.8141
39.2795
65.6964
65.6998
59.2772
59.2576
48.0001
52.3572
56.9348
57.1036
57.2304
53.4369
15.2801
34.3623
34.348
33.9252
40.0104
40.1178
52.179
37.9092
52.1649
59.7305
59.7468
47.6604
47.8562
18.8418
18.5478
58.1945
58.1676
71.0107
71.034
45.0598
45.1372
45.0215
45.0862
60.0613
60.2153
42.0981
41.0781
41.2327
42.1427
66.5913
66.7051
57.7898
56.5704
57.4173
57.4183
51.5927
51.6817
52.6506
52.929
52.148
52.0984
29.9562
30.4012
28.935
28.7156
70.5885
70.7199
53.934
54.1087
52.9373
52.1297
51.196
51.0966
64.2083
64.2653
54.1949
53.3131
31.1375
30.6246
30.4022
31.2347
61.3516
61.4229
47.1444
63.1155
62.9081
46.2871
40.4288
40.3057
39.9816
40.187
40.2893
38.4691
56.8616
56.7882
65.2917
65.2965
67.7905
67.8511
54.4858
66.9764
66.8215
57.2948
57.2427
37.3492
50.5676
50.6039
51.0088
51.0678
54.4056
54.2253
57.262
58.0639
62.2952
62.5285
47.0817
56.8956
56.7753
76.9186
73.7452
76.9506
73.7875
36.9844
54.4764
54.3906
54.579
54.7255
70.781
70.7269
47.1185
49.3258
54.0298
71.0061
70.9709
49.0261
48.8799
51.1296
49.2765
49.2088
21.2327
22.612
22.3169
22.2971
51.6727
57.2881
57.3654
14.1825
46.3985
20.5188
19.6739
56.1037
56.1153
46.557
48.6818
46.7323
62.5649
62.6718
57.6241
57.3427
38.9207
46.7816
51.9936
57.0947
56.8449
53.342
15.0068
33.5041
33.4774
32.3307
38.5493
37.6411
50.2083
50.0899
38.8815
57.5633
57.7636
45.4
45.3405
19.0457
19.1914
58.0297
57.7333
70.8145
70.8312
44.6763
45.1266
45.0181
45.0686
60.1062
60.1186
42.0876
41.0546
40.6902
42.1731
66.6253
66.6256
57.835
56.5702
57.4405
57.4324
51.6849
51.639
52.6028
53.0394
52.2025
52.2308
27.8355
30.3963
29.64
28.962
70.6456
70.6506
54.0042
54.0155
52.9565
52.1748
51.1205
51.1004
64.2793
64.2732
54.2568
54.0998
31.1803
30.6412
30.8124
30.0352
61.3398
61.3149
47.0492
63.149
62.9242
45.9287
40.8903
40.5082
39.9687
40.0559
40.1921
38.5915
56.7935
56.8281
65.3095
65.2762
67.7902
67.7712
54.3635
66.9989
66.828
57.3273
57.4316
50.652
50.5823
36.5907
51.0501
51.053
54.2425
38.3122
54.2941
57.2761
58.097
62.3932
62.4098
47.1349
56.8292
56.7766
76.9303
73.7533
76.93
73.7476
54.5136
54.6142
54.6401
70.7879
70.7758
54.506
46.8802
49.4492
54.0686
49.6456
71.0235
70.9708
49.2931
51.079
49.2677
21.9448
21.4747
22.7518
21.4455
49.4502
51.661
57.2352
57.2709
13.9411
46.0178
20.4012
19.4244
56.1528
46.6146
48.5916
46.7929
38.9858
62.5804
62.5852
57.393
57.4805
46.9286
52.2414
55.8753
57.1323
56.9607
53.3616
14.8217
33.4187
33.6103
32.2039
38.5889
38.5937
50.1447
37.6932
50.1391
57.6092
57.6551
45.384
45.5297
19.1655
18.4262
58.0748
58.0388
70.8374
70.8287
45.0686
45.1684
45.0824
45.0051
60.2085
60.0589
42.1042
41.0791
41.2427
42.1221
66.707
66.584
57.8047
56.5793
57.4141
57.4067
51.6049
51.5994
52.6985
52.8778
52.1193
52.2964
29.9565
30.4095
28.951
28.6884
70.7172
70.5858
54.1173
53.9336
52.9495
52.1394
51.104
51.1762
64.2562
64.2713
54.2088
53.3311
31.1581
30.6042
30.3932
31.2416
61.4434
61.3284
47.1601
63.1444
62.9127
46.2961
40.9729
40.305
40.0211
40.096
40.2405
38.4339
56.8045
56.7266
65.2935
65.2273
67.8697
67.77
54.4873
66.9883
66.8253
57.2769
57.4621
37.3619
50.5634
50.6005
51.026
51.0315
54.2227
54.2371
57.2699
58.0766
62.5181
62.2937
47.0382
56.7965
56.8675
76.9513
73.7934
76.9165
73.7376
36.9902
54.4255
54.712
54.5802
70.7756
70.7754
54.6295
47.1587
49.327
54.0401
48.8366
71.0253
70.9702
48.8937
51.1404
49.1731
21.247
22.6068
22.3223
22.3026
49.5329
51.6629
57.3541
57.2992
14.1735
46.3448
46.0172
20.5224
19.6755
56.1443
48.6926
62.673
62.5584
57.5472
57.3451
38.9398
46.7838
46.9843
52.0029
55.9584
57.1018
56.8575
53.353
15.0135
33.4954
33.5205
32.3429
37.6437
38.561
50.0907
38.8291
50.2166
57.7287
57.5633
45.4643
45.27
19.0336
19.1841
58.276
57.7565
70.8076
70.8296
44.8613
46.5875
48.231
45.6198
60.5427
63.7417
44.4701
42.4412
41.0828
42.4148
66.9254
69.1438
57.1375
57.9461
57.6528
60.6065
56.2948
51.965
53.6279
55.0604
54.0185
52.3828
27.9653
31.346
30.3938
30.2997
70.8013
73.1895
54.4197
59.2076
53.1521
52.5357
51.8287
54.0471
66.2724
64.4182
54.4032
54.4616
32.599
30.8157
31.7736
30.3655
61.9067
63.4078
47.2792
63.4588
63.2324
46.2033
43.1372
40.8729
41.9406
40.2412
41.6833
39.4861
57.0822
62.2812
65.4591
68.7971
68.1104
69.3706
55.7903
67.0195
67.0111
59.4762
57.5013
53.1712
50.8689
37.1763
54.5324
51.322
38.5577
54.6317
60.982
57.5501
58.1705
62.6823
67.1591
48.1645
57.4446
59.489
76.9886
73.9022
77.5859
74.7381
55.8674
54.6692
55.1415
58.6225
70.8696
71.9621
48.9365
50.8959
54.3009
71.2434
71.0628
49.4662
50.711
52.5395
49.6823
53.5059
22.3017
22.4549
23.2464
22.2797
51.8218
58.1371
59.1272
14.0032
21.3921
19.9872
56.3171
57.9688
46.8145
48.7619
48.9081
50.2421
47.1176
39.8798
63.0343
65.1354
57.7767
64.2087
52.9118
57.496
57.2561
53.5208
15.4197
35.413
33.8495
33.5248
40.9496
39.1045
50.6735
53.9905
37.879
58.0363
62.545
48.0935
46.2741
18.7103
18.6139
58.8403
58.1969
72.5768
70.9283
70.8652
74.8687
70.8403
74.8721
76.8875
76.8857
72.876
75.1373
70.6309
72.8999
77.8631
77.8618
70.7125
70.8663
73.7344
73.4034
70.7247
74.5119
76.1847
76.2098
70.6497
74.5268
71.8119
74.0025
71.772
74.0395
78.4029
78.4018
75.7018
75.7004
69.2649
69.4639
75.8458
75.8461
73.9477
75.569
69.8034
69.8818
72.5576
72.6061
74.4315
71.3305
77.2175
77.215
70.4041
71.9938
71.948
70.4838
73.9359
73.895
74.9068
71.6363
71.6111
74.804
74.8235
70.5551
75.8398
73.8993
78.092
78.091
76.4082
73.2441
73.0951
71.7216
74.6429
72.475
73.4752
71.0558
72.2284
73.6745
68.662
71.0398
75.2603
69.3745
69.5592
77.1139
77.1119
75.5799
76.5887
76.5902
79.3719
78.9256
79.3715
78.925
68.6172
76.0795
76.0784
75.8913
77.2949
75.3098
75.5858
75.8656
68.085
70.3913
75.2651
75.2859
70.4651
70.4805
74.8393
73.1508
73.2508
71.7215
74.0019
74.856
70.466
76.7293
76.729
72.2412
71.8016
72.365
73.8587
69.1266
71.7044
69.7591
73.9779
71.145
77.3313
77.3302
76.1662
76.1638
73.9475
70.1482
74.9583
70.5175
70.5347
70.1606
73.5214
73.344
73.3439
74.4992
74.3756
74.3434
75.4191
71.3378
75.42
76.3805
76.3805
75.195
75.218
72.5517
71.844
69.1132
69.1073
76.8501
76.6492
45.6131
45.3806
45.5626
48.2954
63.7734
60.5401
42.4269
42.4254
41.0898
44.4375
69.165
66.923
56.7132
58.314
60.5956
57.6584
51.9192
56.3132
54.6745
54.0492
53.9747
52.5712
28.4865
30.7337
29.3808
31.3749
73.2056
70.8022
59.2522
54.4362
53.2658
52.3851
54.0934
51.8039
66.2636
64.4506
55.2407
54.2867
31.4832
31.9416
32.0815
30.4451
63.4417
61.8891
47.5862
63.0248
63.6502
46.1883
41.3519
43.1693
40.7938
41.3483
40.4796
40.5797
62.2912
57.0319
65.4519
68.7983
69.3892
68.105
55.8155
67.1869
66.8369
59.4515
57.6894
53.1335
50.8881
36.9144
51.313
54.5264
54.4429
38.9428
61.0219
57.3714
58.3496
67.1911
62.6852
49.27
59.4797
57.4797
77.5908
74.7477
76.9884
73.9003
55.8211
58.6632
55.132
71.9588
70.884
54.8717
47.8885
50.9904
54.2616
49.8753
71.0162
71.2834
50.5629
51.2837
53.544
21.5068
23.2933
23.0456
22.0357
49.8885
52.4055
59.1438
58.1641
14.2566
46.2974
20.8512
20.418
57.8815
48.4564
48.902
50.2548
39.2818
65.1553
63.0359
64.2603
57.7515
47.3089
52.4331
56.1656
57.8383
57.1142
53.8134
15.0062
33.8636
35.4223
33.0929
39.0411
40.9999
54.0486
38.5694
50.6624
62.5857
58.0189
46.059
48.3118
19.2574
18.7415
58.191
58.9147
70.9326
72.5755
44.8776
45.4093
46.804
46.8655
62.6485
62.6449
42.8349
43.7262
40.8487
42.8302
68.8122
68.8109
56.6732
57.8976
57.9676
57.9218
52.0307
52.7457
56.927
57.2586
52.5005
53.3363
28.002
30.7897
30.0384
30.9931
71.8682
71.8681
55.8838
55.8656
53.0135
52.2584
53.9454
53.9161
64.5103
64.71
54.3989
54.2967
31.7432
31.0848
32.4682
30.2063
65.7717
65.7628
47.1747
63.0151
63.2112
46.1061
42.1016
41.5965
42.136
40.3808
40.6151
40.6646
57.669
57.0681
65.4939
65.7133
70.8294
70.8196
60.68
66.9904
66.8118
57.6304
58.1865
51.1682
51.3624
36.8152
51.5702
51.8377
54.4503
38.4858
55.7035
57.2949
58.0962
64.3373
64.337
50.2175
60.3155
60.277
77.4174
75.0702
77.4168
75.0669
54.6665
56.9725
56.9864
71.0347
70.8879
55.982
50.2614
53.3643
54.1121
49.9317
71.0116
71.0535
49.5258
51.2658
50.7668
21.8084
22.8025
22.4345
22.9843
50.9787
51.7921
63.1722
63.2559
14.0273
46.5143
20.9542
20.3806
56.3469
47.0251
48.6957
47.8141
39.2795
65.6964
65.6998
59.2772
59.2576
48.0001
52.3572
56.9348
57.1036
57.2304
53.4369
15.2801
34.3623
34.348
33.9252
40.0104
40.1178
52.179
37.9092
52.1649
59.7305
59.7468
47.6604
47.8562
18.8418
18.5478
58.1945
58.1676
71.0107
71.034
45.0598
45.1372
45.0215
45.0862
60.0613
60.2153
42.0981
41.0781
41.2327
42.1427
66.5913
66.7051
57.7898
56.5704
57.4173
57.4183
51.5927
51.6817
52.6506
52.929
52.148
52.0984
29.9562
30.4012
28.935
28.7156
70.5885
70.7199
53.934
54.1087
52.9373
52.1297
51.196
51.0966
64.2083
64.2653
54.1949
53.3131
31.1375
30.6246
30.4022
31.2347
61.3516
61.4229
47.1444
63.1155
62.9081
46.2871
40.4288
40.3057
39.9816
40.187
40.2893
38.4691
56.8616
56.7882
65.2917
65.2965
67.7905
67.8511
54.4858
66.9764
66.8215
57.2948
57.2427
37.3492
50.5676
50.6039
51.0088
51.0678
54.4056
54.2253
57.262
58.0639
62.2952
62.5285
47.0817
56.8956
56.7753
76.9186
73.7452
76.9506
73.7875
36.9844
54.4764
54.3906
54.579
54.7255
70.781
70.7269
47.1185
49.3258
54.0298
71.0061
70.9709
49.0261
48.8799
51.1296
49.2765
49.2088
21.2327
22.612
22.3169
22.2971
51.6727
57.2881
57.3654
14.1825
46.3985
20.5188
19.6739
56.1037
56.1153
46.557
48.6818
46.7323
62.5649
62.6718
57.6241
57.3427
38.9207
46.7816
51.9936
57.0947
56.8449
53.342
15.0068
33.5041
33.4774
32.3307
38.5493
37.6411
50.2083
50.0899
38.8815
57.5633
57.7636
45.4
45.3405
19.0457
19.1914
58.0297
57.7333
70.8145
70.8312
44.6763
45.1266
45.0181
45.0686
60.1062
60.1186
42.0876
41.0546
40.6902
42.1731
66.6253
66.6256
57.835
56.5702
57.4405
57.4324
51.6849
51.639
52.6028
53.0394
52.2025
52.2308
27.8355
30.3963
29.64
28.962
70.6456
70.6506
54.0042
54.0155
52.9565
52.1748
51.1205
51.1004
64.2793
64.2732
54.2568
54.0998
31.1803
30.6412
30.8124
30.0352
61.3398
61.3149
47.0492
63.149
62.9242
45.9287
40.8903
40.5082
39.9687
40.0559
40.1921
38.5915
56.7935
56.8281
65.3095
65.2762
67.7902
67.7712
54.3635
66.9989
66.828
57.3273
57.4316
50.652
50.5823
36.5907
51.0501
51.053
54.2425
38.3122
54.2941
57.2761
58.097
62.3932
62.4098
47.1349
56.8292
56.7766
76.9303
73.7533
76.93
73.7476
54.5136
54.6142
54.6401
70.7879
70.7758
54.506
46.8802
49.4492
54.0686
49.6456
71.0235
70.9708
49.2931
51.079
49.2677
21.9448
21.4747
22.7518
21.4455
49.4502
51.661
57.2352
57.2709
13.9411
46.0178
20.4012
19.4244
56.1528
46.6146
48.5916
46.7929
38.9858
62.5804
62.5852
57.393
57.4805
46.9286
52.2414
55.8753
57.1323
56.9607
53.3616
14.8217
33.4187
33.6103
32.2039
38.5889
38.5937
50.1447
37.6932
50.1391
57.6092
57.6551
45.384
45.5297
19.1655
18.4262
58.0748
58.0388
70.8374
70.8287
45.0686
45.1684
45.0824
45.0051
60.2085
60.0589
42.1042
41.0791
41.2427
42.1221
66.707
66.584
57.8047
56.5793
57.4141
57.4067
51.6049
51.5994
52.6985
52.8778
52.1193
52.2964
29.9565
30.4095
28.951
28.6884
70.7172
70.5858
54.1173
53.9336
52.9495
52.1394
51.104
51.1762
64.2562
64.2713
54.2088
53.3311
31.1581
30.6042
30.3932
31.2416
61.4434
61.3284
47.1601
63.1444
62.9127
46.2961
40.9729
40.305
40.0211
40.096
40.2405
38.4339
56.8045
56.7266
65.2935
65.2273
67.8697
67.77
54.4873
66.9883
66.8253
57.2769
57.4621
37.3619
50.5634
50.6005
51.026
51.0315
54.2227
54.2371
57.2699
58.0766
62.5181
62.2937
47.0382
56.7965
56.8675
76.9513
73.7934
76.9165
73.7376
36.9902
54.4255
54.712
54.5802
70.7756
70.7754
54.6295
47.1587
49.327
54.0401
48.8366
71.0253
70.9702
48.8937
51.1404
49.1731
21.247
22.6068
22.3223
22.3026
49.5329
51.6629
57.3541
57.2992
14.1735
46.3448
46.0172
20.5224
19.6755
56.1443
48.6926
62.673
62.5584
57.5472
57.3451
38.9398
46.7838
46.9843
52.0029
55.9584
57.1018
56.8575
53.353
15.0135
33.4954
33.5205
32.3429
37.6437
38.561
50.0907
38.8291
50.2166
57.7287
57.5633
45.4643
45.27
19.0336
19.1841
58.276
57.7565
70.8076
70.8296
44.8613
46.5875
48.231
45.6198
60.5427
63.7417
44.4701
42.4412
41.0828
42.4148
66.9254
69.1438
57.1375
57.9461
57.6528
60.6065
56.2948
51.965
53.6279
55.0604
54.0185
52.3828
27.9653
31.346
30.3938
30.2997
70.8013
73.1895
54.4197
59.2076
53.1521
52.5357
51.8287
54.0471
66.2724
64.4182
54.4032
54.4616
32.599
30.8157
31.7736
30.3655
61.9067
63.4078
47.2792
63.4588
63.2324
46.2033
43.1372
40.8729
41.9406
40.2412
41.6833
39.4861
57.0822
62.2812
65.4591
68.7971
68.1104
69.3706
55.7903
67.0195
67.0111
59.4762
57.5013
53.1712
50.8689
37.1763
54.5324
51.322
38.5577
54.6317
60.982
57.5501
58.1705
62.6823
67.1591
48.1645
57.4446
59.489
76.9886
73.9022
77.5859
74.7381
55.8674
54.6692
55.1415
58.6225
70.8696
71.9621
48.9365
50.8959
54.3009
71.2434
71.0628
49.4662
50.711
52.5395
49.6823
53.5059
22.3017
22.4549
23.2464
22.2797
51.8218
58.1371
59.1272
14.0032
21.3921
19.9872
56.3171
57.9688
46.8145
48.7619
48.9081
50.2421
47.1176
39.8798
63.0343
65.1354
57.7767
64.2087
52.9118
57.496
57.2561
53.5208
15.4197
35.413
33.8495
33.5248
40.9496
39.1045
50.6735
53.9905
37.879
58.0363
62.545
48.0935
46.2741
18.7103
18.6139
58.8403
58.1969
72.5768
70.9283
70.8652
74.8687
70.8403
74.8721
76.8875
76.8857
72.876
75.1373
70.6309
72.8999
77.8631
77.8618
70.7125
70.8663
73.7344
73.4034
70.7247
74.5119
76.1847
76.2098
70.6497
74.5268
71.8119
74.0025
71.772
74.0395
78.4029
78.4018
75.7018
75.7004
69.2649
69.4639
75.8458
75.8461
73.9477
75.569
69.8034
69.8818
72.5576
72.6061
74.4315
71.3305
77.2175
77.215
70.4041
71.9938
71.948
70.4838
73.9359
73.895
74.9068
71.6363
71.6111
74.804
74.8235
70.5551
75.8398
73.8993
78.092
78.091
76.4082
73.2441
73.0951
71.7216
74.6429
72.475
73.4752
71.0558
72.2284
73.6745
68.662
71.0398
75.2603
69.3745
69.5592
77.1139
77.1119
75.5799
76.5887
76.5902
79.3719
78.9256
79.3715
78.925
68.6172
76.0795
76.0784
75.8913
77.2949
75.3098
75.5858
75.8656
68.085
70.3913
75.2651
75.2859
70.4651
70.4805
74.8393
73.1508
73.2508
71.7215
74.0019
74.856
70.466
76.7293
76.729
72.2412
71.8016
72.365
73.8587
69.1266
71.7044
69.7591
73.9779
71.145
77.3313
77.3302
76.1662
76.1638
73.9475
70.1482
74.9583
70.5175
70.5347
70.1606
73.5214
73.344
73.3439
74.4992
74.3756
74.3434
75.4191
71.3378
75.42
76.3805
76.3805
75.195
75.218
72.5517
71.844
69.1132
69.1073
76.8501
76.6492
45.6131
45.3806
45.5626
48.2954
63.7734
60.5401
42.4269
42.4254
41.0898
44.4375
69.165
66.923
56.7132
58.314
60.5956
57.6584
51.9192
56.3132
54.6745
54.0492
53.9747
52.5712
28.4865
30.7337
29.3808
31.3749
73.2056
70.8022
59.2522
54.4362
53.2658
52.3851
54.0934
51.8039
66.2636
64.4506
55.2407
54.2867
31.4832
31.9416
32.0815
30.4451
63.4417
61.8891
47.5862
63.0248
63.6502
46.1883
41.3519
43.1693
40.7938
41.3483
40.4796
40.5797
62.2912
57.0319
65.4519
68.7983
69.3892
68.105
55.8155
67.1869
66.8369
59.4515
57.6894
53.1335
50.8881
36.9144
51.313
54.5264
54.4429
38.9428
61.0219
57.3714
58.3496
67.1911
62.6852
49.27
59.4797
57.4797
77.5908
74.7477
76.9884
73.9003
55.8211
58.6632
55.132
71.9588
70.884
54.8717
47.8885
50.9904
54.2616
49.8753
71.0162
71.2834
50.5629
51.2837
53.544
21.5068
23.2933
23.0456
22.0357
49.8885
52.4055
59.1438
58.1641
14.2566
46.2974
20.8512
20.418
57.8815
48.4564
48.902
50.2548
39.2818
65.1553
63.0359
64.2603
57.7515
47.3089
52.4331
56.1656
57.8383
57.1142
53.8134
15.0062
33.8636
35.4223
33.0929
39.0411
40.9999
54.0486
38.5694
50.6624
62.5857
58.0189
46.059
48.3118
19.2574
18.7415
58.191
58.9147
70.9326
72.5755
VECTORS nodal_fluid_flux_TPM float
-0.000446827 1.06048e-05 -3.19411e-20
0.000367714 -0.000152329 5.56424e-21
0.000211183 0.000351169 1.58487e-19
0.000803601 0.000105788 2.99121e-19
-0.000115159 -0.000199428 -1.12559e-21
-0.000114447 0.000198194 1.03639e-19
0.000803836 -0.000105819 -1.4777e-19
0.000211178 -0.000350998 -9.4889e-20
-0.000446238 -1.19814e-05 1.23599e-21
0.000367983 0.000152443 -1.78012e-20
-0.000219007 -0.000410421 8.26987e-20
0.000304874 0.000307236 6.73865e-20
0.000304769 -0.000306401 -3.15462e-20
-0.000289133 0.000500844 1.28606e-19
-0.000652739 0.00053174 2.41502e-20
0.00096104 -0.000126497 -1.1808e-19
-0.00022016 0.000381337 2.52047e-20
-0.000222659 -0.000385558 -2.58732e-19
0.000971886 0.000127931 -1.72618e-20
0.000376984 0.000156125 1.17193e-19
-0.000288586 -0.000499885 -1.5522e-19
0.000218782 -0.000410178 3.54283e-20
-0.000463135 -6.38924e-06 9.86608e-20
-0.000223854 -0.000387671 -1.11866e-19
-0.000222879 0.000386056 3.50244e-19
-0.000220206 -0.000410083 -1.78458e-19
0.000372123 0.000154148 1.32522e-20
-0.00096022 0.000112623 1.2721e-19
0.000967875 0.000127366 -2.55674e-19
0.000288424 -0.000499568 -2.87789e-19
-0.000462382 -7.51934e-06 8.16539e-20
-0.000222784 -0.000385834 -1.62084e-19
-0.000223455 0.000386997 -1.95087e-19
-0.000462212 6.41385e-06 2.55657e-19
0.000218369 0.000409934 3.56777e-19
-0.0004618 -7.2339e-06 2.00541e-19
0.00028936 -0.000501222 2.39236e-19
0.000967963 -0.000127375 1.18492e-19
-0.000648216 0.000528446 3.52159e-19
-0.000223625 -0.000387346 -1.13026e-20
-0.000222837 0.00038591 -2.88978e-19
-0.000462161 8.14133e-06 2.77327e-19
0.000219068 0.000410384 -5.81839e-19
-0.000288638 0.000499975 -4.24622e-19
0.000376992 -0.000156127 -1.59961e-19
0.00097257 -0.00012802 -1.18318e-19
-0.000223122 0.000386359 2.84174e-19
-0.000219627 -0.00038041 8.53619e-20
0.000960792 0.000126468 -1.7055e-19
-0.000960394 0.000112512 -7.44756e-20
-0.000459991 6.76941e-06 1.78951e-19
0.000216981 0.000406065 3.94282e-19
-0.000285488 0.000494464 4.364e-19
0.000369093 -0.000152827 -1.21805e-19
0.00094825 -0.000124708 2.40344e-19
0.00029782 0.000297114 -5.28308e-19
0.000246269 -0.000283091 2.37137e-20
0.000746763 9.84606e-05 2.00991e-20
0.000175109 0.000156944 -1.75838e-21
-0.000255391 -4.19614e-05 -9.05141e-20
-0.000657302 0.000530387 -2.88169e-19
-9.49404e-05 0.000164408 6.60231e-20
5.93568e-05 -2.45854e-05 -7.69604e-20
0.000144514 -1.90221e-05 1.37071e-19
4.47821e-05 4.22884e-05 -1.34535e-19
4.47516e-05 -4.22637e-05 1.04573e-19
0.00014441 1.90084e-05 -6.61801e-20
5.93027e-05 2.4563e-05 -2.54425e-20
-3.90436e-05 -0.000119561 1.23815e-20
0.00021371 -8.85779e-05 1.79665e-19
-0.000232447 0.00040268 7.04617e-20
1.92625e-05 6.93437e-06 -4.24743e-21
0.000745128 -9.82495e-05 3.7976e-19
0.000245773 0.000282635 -2.29343e-19
0.000297881 -0.000297324 -1.80298e-19
0.000948329 0.000124718 -2.38047e-19
0.000368916 0.000152753 -1.19032e-19
-0.000216656 -0.000405387 -5.32398e-19
0.000285288 -0.000494256 3.08491e-19
-0.000459755 -8.11163e-06 -8.52982e-20
-0.000657387 0.000541452 1.67894e-19
-0.000446827 1.06048e-05 -5.2945e-20
0.000367714 -0.000152329 -3.22427e-20
0.000211183 0.000351169 2.82628e-20
0.000803601 0.000105788 5.13361e-19
-0.000115159 -0.000199428 1.56775e-20
-0.000114447 0.000198194 9.52373e-20
0.000803836 -0.000105819 -1.14164e-19
0.000211178 -0.000350998 -3.60782e-20
-0.000446238 -1.19814e-05 6.42476e-20
0.000367983 0.000152443 -5.9809e-20
-0.000219007 -0.000410421 7.00964e-20
0.000304874 0.000307236 -3.34321e-20
0.000304769 -0.000306401 1.40686e-19
-0.000289133 0.000500844 8.23971e-20
-0.000652739 0.00053174 1.88992e-20
0.00096104 -0.000126497 -2.98641e-20
-0.00022016 0.000381337 -2.52047e-20
-0.000222659 -0.000385558 -3.42747e-19
0.000971886 0.000127931 -1.30683e-19
0.000376984 0.000156125 3.31771e-20
-0.000288586 -0.000499885 -1.5522e-19
0.000218782 -0.000410178 8.58376e-20
-0.000463135 -6.38924e-06 1.82676e-19
-0.000223854 -0.000387671 -5.30554e-20
-0.000222879 0.000386056 4.25858e-19
-0.000220206 -0.000410083 -2.75076e-19
0.000372123 0.000154148 -3.55091e-21
-0.00096022 0.000112623 1.33511e-19
0.000967875 0.000127366 -1.59056e-19
0.000288424 -0.000499568 -2.45781e-19
-0.000462382 -7.51934e-06 -1.32586e-19
-0.000222784 -0.000385834 -1.41081e-19
-0.000223455 0.000386997 -2.24493e-19
-0.000462212 6.41385e-06 3.31271e-19
0.000218369 0.000409934 1.71943e-19
-0.0004618 -7.2339e-06 1.12325e-19
0.00028936 -0.000501222 7.12049e-20
0.000967963 -0.000127375 5.128e-20
-0.000648216 0.000528446 3.5846e-19
-0.000223625 -0.000387346 3.07052e-20
-0.000222837 0.00038591 -1.83959e-19
-0.000462161 8.14133e-06 1.47103e-19
0.000219068 0.000410384 -5.94441e-19
-0.000288638 0.000499975 -2.85996e-19
0.000376992 -0.000156127 -8.01459e-20
0.00097257 -0.00012802 -1.74996e-20
-0.000223122 0.000386359 3.05178e-19
-0.000219627 -0.00038041 6.01572e-20
0.000960792 0.000126468 -8.65342e-20
-0.000960394 0.000112512 -6.92246e-20
-0.000459991 6.76941e-06 7.81326e-20
0.000216981 0.000406065 1.92645e-19
-0.000285488 0.000494464 2.30562e-19
0.000369093 -0.000152827 -5.03922e-20
0.00094825 -0.000124708 2.27742e-19
0.00029782 0.000297114 -5.07304e-19
0.000246269 -0.000283091 9.51269e-20
0.000746763 9.84606e-05 1.54524e-19
0.000175109 0.000156944 -1.65589e-19
-0.000255391 -4.19614e-05 -6.49862e-21
-0.000657302 0.000530387 -2.9027e-19
-9.49404e-05 0.000164408 -5.39011e-21
5.93568e-05 -2.45854e-05 -6.85588e-20
0.000144514 -1.90221e-05 2.78508e-20
4.47821e-05 4.22884e-05 5.44997e-20
4.47516e-05 -4.22637e-05 2.17994e-19
0.00014441 1.90084e-05 -2.00605e-19
5.93027e-05 2.4563e-05 3.75691e-20
-3.90436e-05 -0.000119561 -1.72453e-19
0.00021371 -8.85779e-05 4.10392e-20
-0.000232447 0.00040268 -2.19553e-20
1.92625e-05 6.93437e-06 -1.21869e-19
0.000745128 -9.82495e-05 4.76378e-19
0.000245773 0.000282635 -1.99938e-19
0.000297881 -0.000297324 -2.22305e-19
0.000948329 0.000124718 -1.33027e-19
0.000368916 0.000152753 1.95938e-20
-0.000216656 -0.000405387 -4.23178e-19
0.000285288 -0.000494256 2.83287e-19
-0.000459755 -8.11163e-06 -1.06302e-19
-0.000657387 0.000541452 1.71044e-19
-8.53391e-05 -0.000539456 -6.57944e-21
0.000211183 0.000351169 -1.0383e-19
3.00311e-05 4.22678e-05 4.53037e-20
-0.000122494 1.39218e-06 -5.25968e-20
-0.000446827 1.06048e-05 -5.18194e-20
0.000393447 -0.000110707 1.15812e-19
0.00017626 -0.000425554 -5.34208e-20
7.02634e-05 0.000129068 -5.32466e-20
6.59444e-05 1.25502e-06 -1.61999e-20
6.59444e-05 1.25502e-06 7.11116e-20
7.62928e-05 -0.000121988 1.31885e-20
0.000176383 0.000425851 -3.89792e-20
0.000393431 0.000110808 -1.56996e-19
-0.000446238 -1.19814e-05 1.8404e-19
-0.000120898 -4.00093e-06 3.57766e-20
3.32558e-05 -4.40424e-05 1.26894e-19
0.000211178 -0.000350998 1.19491e-19
9.56479e-05 0.000539448 3.57299e-20
-0.000219007 -0.000410421 -6.42476e-20
-1.43964e-05 -4.04052e-05 1.28869e-20
0.000129466 4.82459e-06 7.21734e-20
0.000324034 8.96677e-05 -1.02275e-19
-0.000463134 -3.80674e-09 -2.31447e-20
0.000206322 -0.000397504 -1.018e-19
5.91879e-05 -0.000112516 -1.22566e-19
5.87311e-05 0.000108518 -1.22931e-19
0.000205626 0.000399081 3.35971e-21
-0.000463259 2.83618e-09 -7.86721e-20
0.000323735 -8.95074e-05 -6.34236e-20
0.000127568 -1.40525e-06 6.5025e-20
3.10245e-05 5.34892e-05 -9.55389e-20
-0.000155045 0.000125921 -3.23065e-20
0.00052882 -0.000643164 -4.30378e-21
0.000672617 -0.000517785 -1.73192e-21
-0.000531788 0.000658201 1.49406e-21
0.000446447 0.000145134 -6.79089e-20
0.000224123 0.00054095 2.7644e-19
-2.61118e-05 0.00023876 2.98641e-20
-5.96372e-05 3.64137e-06 1.95767e-20
-5.96372e-05 3.64137e-06 -2.40791e-20
-1.85091e-05 -0.00022756 4.21182e-20
0.00022569 -0.000544732 4.56087e-19
0.000453192 -0.000145831 4.26451e-21
0.000327156 9.81498e-05 -4.34816e-20
0.000123325 4.81619e-06 -4.0403e-19
2.54533e-05 -5.42559e-05 -4.12304e-20
-0.000156226 -0.000127014 1.19206e-19
9.16931e-05 -0.000551075 -3.02761e-20
0.000218782 -0.000410178 3.43835e-20
2.08076e-05 -3.74587e-05 -1.916e-19
-0.000129422 2.33382e-06 -3.46235e-19
-0.000463135 -6.38924e-06 -2.50585e-19
-0.000465623 -1.25458e-08 1.04335e-19
-3.21566e-05 -0.000238677 1.87684e-19
-6.20156e-05 -4.48646e-06 -1.01086e-19
-6.20156e-05 -4.48646e-06 -1.29145e-19
-2.45709e-05 0.000227537 -1.23007e-20
-0.000465389 3.4431e-08 -1.05588e-19
0.00032593 9.28576e-05 -8.46529e-21
0.000128632 6.72742e-06 -3.13084e-20
-1.60438e-05 -3.99781e-05 1.38197e-19
-0.000220206 -0.000410083 -7.02239e-20
9.41998e-05 0.000552438 1.65461e-19
0.000505588 -0.000629848 -5.41512e-19
0.000647916 0.000524833 3.44336e-19
0.000524321 0.000645042 3.37195e-19
0.000225379 -0.000544038 1.50914e-20
0.000450194 -0.00014588 1.40274e-19
-9.23478e-05 -0.000550802 -1.08664e-19
0.000155613 -0.000126874 3.01657e-20
-2.83856e-05 -5.56642e-05 2.55071e-19
-0.000129873 1.3676e-06 7.99081e-20
-0.000462382 -7.51934e-06 1.63103e-20
-0.000465394 -2.07426e-08 -5.23741e-19
-2.46054e-05 -0.000227327 -8.18747e-20
-6.17594e-05 4.56561e-06 5.87471e-20
-6.17594e-05 4.56561e-06 -3.38907e-20
-3.20981e-05 0.000238397 2.6176e-19
-0.000464706 2.10411e-08 -1.38417e-19
-0.000462212 6.41385e-06 1.86796e-19
-0.000129223 -2.5288e-06 2.57148e-19
2.08338e-05 3.7441e-05 3.73563e-19
0.000218369 0.000409934 3.28718e-19
9.11528e-05 0.000551166 -1.23819e-19
0.000159566 -0.000123904 2.18745e-21
-3.21087e-05 -5.33832e-05 1.34638e-21
-0.000129931 1.91318e-07 1.16369e-19
-0.0004618 -7.2339e-06 7.2046e-20
0.000449888 0.000146076 2.32551e-20
0.000225594 0.000544548 8.0575e-20
-8.35162e-05 -0.000942699 -9.38027e-20
0.000637747 0.000505556 6.2333e-20
-0.000528288 0.000656314 1.59421e-19
-9.08218e-05 -0.0005524 -6.56577e-20
-0.000464609 -3.37151e-08 1.4842e-19
-3.21469e-05 -0.000238661 -1.12864e-19
-6.20056e-05 -4.5349e-06 2.63303e-20
-6.20056e-05 -4.5349e-06 -1.25942e-19
-2.45651e-05 0.00022743 -4.56611e-21
-0.000465426 1.26932e-08 3.06762e-19
-0.000462161 8.14133e-06 -9.46512e-20
-0.000131245 -1.51624e-06 -1.08078e-19
2.42845e-05 3.95234e-05 -1.55157e-19
0.000219068 0.000410384 -2.70922e-19
9.19446e-05 0.000551206 -5.96178e-20
-0.000155958 0.000126799 -1.16369e-19
2.53015e-05 5.42309e-05 5.03285e-20
0.000123196 -4.6828e-06 -5.43722e-20
0.000327113 -9.81003e-05 -8.5948e-20
0.000453284 0.000146054 4.05168e-20
0.000225974 0.000545416 2.09868e-20
-1.6732e-05 -0.000228139 -1.37483e-19
-5.92114e-05 1.50917e-06 -1.22455e-19
-5.92114e-05 1.50917e-06 -9.19243e-20
-2.78965e-05 0.000238442 9.01659e-20
0.000223898 -0.000540415 2.00843e-19
0.00044663 -0.000144939 -8.15265e-20
0.000505848 -0.000630763 -3.49793e-19
0.000647751 0.000524493 -1.87978e-19
0.000523963 0.000644642 -2.41807e-19
-0.000451044 -1.31688e-08 1.22995e-19
-0.000462645 -3.37779e-08 1.63146e-19
-0.000459991 6.76941e-06 -2.27458e-19
-0.000128249 -2.35707e-06 -2.6371e-19
2.10962e-05 3.74491e-05 -2.64406e-20
0.000216981 0.000406065 3.37119e-19
9.12338e-05 0.000545193 -3.43287e-19
-0.000153717 0.000125284 1.03291e-19
2.64069e-05 5.28955e-05 2.31276e-20
0.000122186 -5.73491e-06 1.28432e-19
0.000320212 -9.68104e-05 3.59962e-19
0.000442814 0.000141992 -2.85856e-19
0.000219803 0.000530642 -6.69736e-19
0.000200227 0.000387429 -5.32874e-19
5.67403e-05 9.67697e-05 -4.77248e-19
5.25211e-05 -0.000113958 -1.00912e-19
0.000163869 -0.000359381 6.55303e-20
0.000188738 -0.000455418 -2.02903e-20
0.000320466 -0.000126666 3.35596e-20
-0.000255391 -4.19614e-05 3.94083e-20
-2.45895e-05 -7.84475e-05 -2.36204e-20
7.00609e-05 -6.76402e-05 -5.24693e-20
0.000175109 0.000156944 6.28204e-20
0.000109551 -0.00044863 5.89679e-20
0.000532896 -0.000661822 9.58001e-20
0.000663549 -0.000525216 1.95092e-19
-0.000531396 0.000651299 2.4512e-19
-0.000239017 6.4527e-09 6.11724e-20
8.86514e-05 0.000189144 -5.14541e-20
-1.583e-05 1.77487e-05 1.06255e-19
1.35945e-05 4.35412e-07 1.67457e-19
2.44907e-05 -6.98648e-06 3.56662e-20
5.06723e-05 -1.77829e-05 -2.42294e-19
6.9077e-05 2.07932e-05 2.32262e-19
3.26088e-05 7.87259e-05 2.0354e-20
3.02316e-05 5.5753e-05 -3.6692e-19
7.1643e-06 1.31471e-05 -4.52949e-19
7.18604e-06 -1.32147e-05 -1.78412e-19
3.01911e-05 -5.57376e-05 -1.54983e-19
3.25873e-05 -7.86742e-05 -1.05797e-19
6.90234e-05 -2.07802e-05 3.89792e-20
5.0635e-05 1.7754e-05 -3.74387e-19
2.45256e-05 7.11936e-06 1.06778e-19
1.05382e-05 1.4806e-06 4.17822e-19
-3.90436e-05 -0.000119561 1.29842e-19
8.95805e-06 -0.000188057 4.20715e-20
-5.53222e-05 0.000155303 -8.3459e-20
7.45383e-05 0.000118625 -9.56664e-20
0.000128021 8.63913e-05 -1.03308e-19
0.00024554 3.04792e-05 6.73057e-20
-0.000239042 -6.27355e-09 1.07903e-19
2.73818e-05 3.42483e-07 1.01468e-19
1.95454e-05 6.70339e-06 1.01133e-20
2.74295e-05 1.75424e-07 -2.34292e-20
0.000109687 0.000448727 -1.88585e-21
0.000319665 0.000126439 -1.56346e-19
0.000188379 0.000454551 -1.66111e-19
0.000163415 0.000358886 2.36144e-19
5.28663e-05 0.000114307 4.53709e-19
5.62246e-05 -9.63558e-05 6.28871e-19
0.000200423 -0.000387515 3.22933e-19
0.000219876 -0.000530817 2.47034e-19
0.000442751 -0.000142055 -1.0061e-19
0.000320151 9.65868e-05 4.85064e-19
0.000122466 6.56974e-06 2.88074e-19
-1.54879e-05 -3.733e-05 -2.21116e-19
-0.000216656 -0.000405387 1.32046e-19
-9.063e-05 -0.00054483 -2.52599e-19
0.000154548 -0.000125898 5.26263e-21
-2.78288e-05 -5.54231e-05 -1.41684e-19
-0.000128574 1.14691e-06 -3.5806e-19
-0.000459755 -8.11163e-06 -2.72001e-19
-0.000463026 3.4188e-08 -8.18747e-20
-0.00045096 1.20238e-08 -3.23531e-20
0.000518784 -0.000635355 -2.73292e-19
0.000661144 -0.00050823 -4.57173e-19
-0.000540458 0.000675554 2.07056e-19
-8.53391e-05 -0.000539456 1.27845e-19
0.000211183 0.000351169 4.31971e-20
3.00311e-05 4.22678e-05 1.29319e-19
-0.000122494 1.39218e-06 3.56195e-20
-0.000446827 1.06048e-05 -4.76187e-20
0.000393447 -0.000110707 2.33434e-19
0.00017626 -0.000425554 -7.21222e-21
7.02634e-05 0.000129068 2.65681e-20
6.59444e-05 1.25502e-06 -1.00215e-19
6.59444e-05 1.25502e-06 -1.29039e-20
7.62928e-05 -0.000121988 4.25939e-20
0.000176383 0.000425851 -7.25854e-20
0.000393431 0.000110808 -1.48594e-19
-0.000446238 -1.19814e-05 7.06188e-20
-0.000120898 -4.00093e-06 1.53398e-19
3.32558e-05 -4.40424e-05 4.28784e-20
0.000211178 -0.000350998 1.27892e-19
9.56479e-05 0.000539448 2.73284e-20
-0.000219007 -0.000410421 -1.23599e-21
-1.43964e-05 -4.04052e-05 1.01103e-19
0.000129466 4.82459e-06 1.75634e-20
0.000324034 8.96677e-05 -1.23279e-19
-0.000463134 -3.80674e-09 1.32284e-19
0.000206322 -0.000397504 -1.48008e-19
5.91879e-05 -0.000112516 -1.39369e-19
5.87311e-05 0.000108518 -3.47147e-20
0.000205626 0.000399081 1.25182e-19
-0.000463259 2.83618e-09 -1.08078e-19
0.000323735 -8.95074e-05 4.15958e-20
0.000127568 -1.40525e-06 -8.20022e-20
3.10245e-05 5.34892e-05 -4.51296e-20
-0.000155045 0.000125921 5.1709e-20
0.00052882 -0.000643164 -1.15319e-21
0.000672617 -0.000517785 1.50712e-20
-0.000531788 0.000658201 -2.70672e-21
0.000446447 0.000145134 -6.79089e-20
0.000224123 0.00054095 1.50416e-19
-2.61118e-05 0.00023876 1.1808e-19
-5.96372e-05 3.64137e-06 5.31829e-20
-5.96372e-05 3.64137e-06 9.52715e-21
-1.85091e-05 -0.00022756 3.79174e-20
0.00022569 -0.000544732 3.6367e-19
0.000453192 -0.000145831 -5.03456e-20
0.000327156 9.81498e-05 -9.87541e-21
0.000123325 4.81619e-06 -3.28416e-19
2.54533e-05 -5.42559e-05 -4.12304e-20
-0.000156226 -0.000127014 1.41866e-20
9.16931e-05 -0.000551075 -1.39496e-19
0.000218782 -0.000410178 -1.16844e-19
2.08076e-05 -3.74587e-05 -1.916e-19
-0.000129422 2.33382e-06 -2.91624e-19
-0.000463135 -6.38924e-06 -1.6657e-19
-0.000465623 -1.25458e-08 2.30359e-19
-3.21566e-05 -0.000238677 3.09506e-19
-6.20156e-05 -4.48646e-06 -1.85102e-19
-6.20156e-05 -4.48646e-06 -1.15234e-20
-2.45709e-05 0.000227537 -4.59069e-20
-0.000465389 3.4431e-08 -1.22392e-19
0.00032593 9.28576e-05 5.45464e-20
0.000128632 6.72742e-06 1.28321e-19
-1.60438e-05 -3.99781e-05 1.21733e-20
-0.000220206 -0.000410083 9.59088e-21
9.41998e-05 0.000552438 9.4048e-20
0.000505588 -0.000629848 -5.38361e-19
0.000647916 0.000524833 3.47486e-19
0.000524321 0.000645042 3.22492e-19
0.000225379 -0.000544038 -5.63218e-20
0.000450194 -0.00014588 -5.29621e-20
-9.23478e-05 -0.000550802 -1.33868e-19
0.000155613 -0.000126874 5.95711e-20
-2.83856e-05 -5.56642e-05 2.76074e-19
-0.000129873 1.3676e-06 1.72325e-19
-0.000462382 -7.51934e-06 1.80141e-19
-0.000465394 -2.07426e-08 -6.16159e-19
-2.46054e-05 -0.000227327 -2.72646e-20
-6.17594e-05 4.56561e-06 -1.26661e-20
-6.17594e-05 4.56561e-06 -8.00993e-20
-3.20981e-05 0.000238397 2.28154e-19
-0.000464706 2.10411e-08 -1.72024e-19
-0.000462212 6.41385e-06 3.1282e-19
-0.000129223 -2.5288e-06 2.10939e-19
2.08338e-05 3.7441e-05 3.27354e-19
0.000218369 0.000409934 3.45521e-19
9.11528e-05 0.000551166 -3.14017e-20
0.000159566 -0.000123904 1.47898e-20
-3.21087e-05 -5.33832e-05 1.44173e-19
-0.000129931 1.91318e-07 -9.65462e-21
-0.0004618 -7.2339e-06 1.09853e-19
0.000449888 0.000146076 -5.23589e-20
0.000225594 0.000544548 9.16181e-21
-8.35162e-05 -0.000942699 -1.03254e-19
0.000637747 0.000505556 6.86342e-20
-0.000528288 0.000656314 1.5102e-19
-9.08218e-05 -0.0005524 -9.9264e-20
-0.000464609 -3.37151e-08 1.23216e-19
-3.21469e-05 -0.000238661 -1.29668e-19
-6.20056e-05 -4.5349e-06 -4.08822e-20
-6.20056e-05 -4.5349e-06 -9.23363e-20
-2.45651e-05 0.00022743 1.08855e-19
-0.000465426 1.26932e-08 4.15983e-19
-0.000462161 8.14133e-06 -4.84426e-20
-0.000131245 -1.51624e-06 -7.86721e-20
2.42845e-05 3.95234e-05 -2.01365e-19
0.000219068 0.000410384 -3.08729e-19
9.19446e-05 0.000551206 -1.56236e-19
-0.000155958 0.000126799 9.65462e-21
2.53015e-05 5.42309e-05 1.6795e-19
0.000123196 -4.6828e-06 4.22456e-20
0.000327113 -9.81003e-05 -1.15353e-19
0.000453284 0.000146054 7.83238e-20
0.000225974 0.000545416 1.51211e-19
-1.6732e-05 -0.000228139 -4.92666e-20
-5.92114e-05 1.50917e-06 -5.94436e-20
-5.92114e-05 1.50917e-06 -1.04527e-19
-2.78965e-05 0.000238442 -6.10621e-20
0.000223898 -0.000540415 5.38157e-20
0.00044663 -0.000144939 4.0296e-20
0.000505848 -0.000630763 -3.52943e-19
0.000647751 0.000524493 -1.76426e-19
0.000523963 0.000644642 -2.48108e-19
-0.000451044 -1.31688e-08 -1.14301e-20
-0.000462645 -3.37779e-08 1.71548e-19
-0.000459991 6.76941e-06 -1.26639e-19
-0.000128249 -2.35707e-06 -2.55308e-19
2.10962e-05 3.74491e-05 -3.9043e-20
0.000216981 0.000406065 3.37119e-19
9.12338e-05 0.000545193 -1.87858e-19
-0.000153717 0.000125284 2.76766e-20
2.64069e-05 5.28955e-05 3.99307e-20
0.000122186 -5.73491e-06 4.86168e-20
0.000320212 -9.68104e-05 2.63345e-19
0.000442814 0.000141992 -4.64122e-20
0.000219803 0.000530642 -7.36949e-19
0.000200227 0.000387429 -3.98449e-19
5.67403e-05 9.67697e-05 -5.48662e-19
5.25211e-05 -0.000113958 -1.51321e-19
0.000163869 -0.000359381 1.91554e-19
0.000188738 -0.000455418 -1.60895e-20
0.000320466 -0.000126666 -1.59676e-19
-0.000255391 -4.19614e-05 -7.82134e-20
-2.45895e-05 -7.84475e-05 1.57013e-19
7.00609e-05 -6.76402e-05 -5.66701e-20
0.000175109 0.000156944 7.54228e-20
0.000109551 -0.00044863 1.47184e-19
0.000532896 -0.000661822 9.58001e-20
0.000663549 -0.000525216 1.81439e-19
-0.000531396 0.000651299 2.4722e-19
-0.000239017 6.4527e-09 -1.02407e-20
8.86514e-05 0.000189144 -1.52273e-19
-1.583e-05 1.77487e-05 -4.07718e-20
1.35945e-05 4.35412e-07 2.47272e-19
2.44907e-05 -6.98648e-06 7.34732e-20
5.06723e-05 -1.77829e-05 -2.54896e-19
6.9077e-05 2.07932e-05 5.41969e-21
3.26088e-05 7.87259e-05 -3.00553e-20
3.02316e-05 5.5753e-05 -5.01345e-19
7.1643e-06 1.31471e-05 -3.98338e-19
7.18604e-06 -1.32147e-05 -1.49006e-19
3.01911e-05 -5.57376e-05 -1.67585e-19
3.25873e-05 -7.86742e-05 1.88258e-19
6.90234e-05 -2.07802e-05 7.25854e-20
5.0635e-05 1.7754e-05 -3.70186e-19
2.45256e-05 7.11936e-06 6.05692e-20
1.05382e-05 1.4806e-06 2.53992e-19
-3.90436e-05 -0.000119561 1.46645e-19
8.95805e-06 -0.000188057 -8.81526e-20
-5.53222e-05 0.000155303 -1.59073e-19
7.45383e-05 0.000118625 4.716e-20
0.000128021 8.63913e-05 1.44538e-19
0.00024554 3.04792e-05 1.84927e-19
-0.000239042 -6.27355e-09 4.48917e-20
2.73818e-05 3.42483e-07 -9.17672e-20
1.95454e-05 6.70339e-06 3.11172e-20
2.74295e-05 1.75424e-07 1.85786e-20
0.000109687 0.000448727 -7.3299e-20
0.000319665 0.000126439 -1.39543e-19
0.000188379 0.000454551 -1.03099e-19
0.000163415 0.000358886 2.31943e-19
5.28663e-05 0.000114307 4.87315e-19
5.62246e-05 -9.63558e-05 5.91064e-19
0.000200423 -0.000387515 2.17913e-19
0.000219876 -0.000530817 1.79822e-19
0.000442751 -0.000142055 -2.09831e-19
0.000320151 9.65868e-05 4.85064e-19
0.000122466 6.56974e-06 3.59487e-19
-1.54879e-05 -3.733e-05 -2.4212e-19
-0.000216656 -0.000405387 -1.07802e-20
-9.063e-05 -0.00054483 -1.47579e-19
0.000154548 -0.000125898 2.62665e-20
-2.78288e-05 -5.54231e-05 -4.50659e-20
-0.000128574 1.14691e-06 -3.6226e-19
-0.000459755 -8.11163e-06 -1.66982e-19
-0.000463026 3.4188e-08 -2.72646e-20
-0.00045096 1.20238e-08 -7.43609e-20
0.000518784 -0.000635355 -2.71192e-19
0.000661144 -0.00050823 -4.57173e-19
-0.000540458 0.000675554 1.91303e-19
-0.000144484 0.000217595 1.97998e-20
-0.000161979 -0.000108581 7.25854e-20
0.000154749 -0.000147507 1.40082e-19
0.000153633 0.000148924 3.17204e-20
0.000191791 3.83166e-05 5.02818e-20
0.000191535 -3.85479e-05 1.13026e-20
4.79963e-05 -0.000211495 -1.18933e-22
0.000245838 -4.47721e-05 -9.51269e-20
-0.000262031 -3.83561e-05 -9.33281e-20
-3.28424e-05 0.000209347 7.26025e-20
0.000309607 -8.86548e-05 4.71429e-20
0.000309493 8.87639e-05 -2.33017e-20
-0.000170817 -0.000102869 -5.01077e-20
-0.000172443 8.79137e-05 -6.56236e-21
9.80563e-06 0.000194656 6.77348e-20
3.63632e-06 -0.000194592 -3.65539e-20
-1.71018e-05 -0.000195275 -3.17989e-20
2.89465e-05 0.000188456 8.93334e-20
0.000207913 -2.41428e-05 1.57709e-19
0.00016223 7.0662e-05 -8.21126e-20
-3.37505e-05 0.000107085 1.68362e-19
4.48797e-05 -0.000104458 3.00382e-20
-0.000293933 0.000203654 -6.63713e-20
-0.000258902 -0.000145565 -3.47233e-20
0.000496493 -0.000232665 8.80527e-20
0.000280515 0.000383217 2.95562e-20
0.000309607 -8.86548e-05 7.09204e-20
0.000309493 8.87639e-05 4.27043e-20
0.000172313 -7.57316e-05 6.37082e-20
0.000171889 7.47928e-05 8.74981e-21
-0.000133892 6.43762e-05 -5.61943e-20
-0.000135901 -6.43124e-05 -7.90841e-20
0.000207804 7.32599e-05 2.65362e-20
0.000207142 -7.52184e-05 8.28091e-20
5.98161e-05 0.00031669 -9.16181e-21
-4.91678e-05 -0.000314649 -1.73514e-19
-0.000128945 3.05559e-05 -9.76501e-21
-0.00013163 -3.25959e-05 -7.09841e-20
1.04651e-06 -0.000453134 3.20601e-20
5.32986e-05 0.0004596 -7.53155e-20
0.000483804 4.00377e-06 1.00029e-20
-0.000449199 -6.05983e-05 -4.49714e-20
0.000225355 -0.000136281 2.19404e-19
0.00022486 0.000136506 -2.73284e-20
-0.000168529 9.9784e-05 -8.19385e-20
-0.000222615 -2.98121e-05 -4.08184e-20
-0.000223661 2.91498e-05 9.93277e-20
-0.000175423 -0.000106659 2.10039e-20
0.000163221 -0.000224166 1.4529e-19
0.000164219 0.00022776 -3.28926e-20
0.000251429 -0.000111127 5.56634e-20
-0.000144484 0.000217595 -1.87208e-20
-3.67874e-05 -0.000201861 -4.03108e-20
0.000256182 0.00010935 -3.10301e-20
-0.000147074 0.000120803 7.15236e-20
0.000160608 -0.000120599 -5.46567e-20
4.63526e-05 -0.000412093 5.54341e-20
-3.35507e-05 0.00041193 2.29471e-19
0.00024841 -0.000209627 1.51733e-19
0.000248499 0.000210025 -7.49641e-20
0.000109752 3.76065e-05 7.53124e-20
-2.85886e-05 0.00023946 -3.83294e-20
-1.91328e-05 -0.000228593 -1.02815e-19
5.00003e-05 0.00013385 3.1355e-20
-3.52383e-05 -0.00013676 -2.95158e-20
-6.94823e-06 0.000185454 1.34083e-19
2.02742e-05 -0.000181374 -5.73114e-20
-0.000258902 -0.000145565 9.64608e-21
-1.71018e-05 -0.000195275 -2.91357e-20
2.89465e-05 0.000188456 1.14869e-19
-0.000118711 -8.09125e-05 -3.0102e-20
-0.000293933 0.000203654 -2.8042e-20
3.44005e-05 4.80261e-05 -3.66177e-20
-1.91328e-05 -0.000228593 -8.43638e-20
-0.000133892 6.43762e-05 -4.69688e-20
0.000311524 -8.80578e-05 2.3004e-19
0.000311539 8.81264e-05 1.33868e-19
0.000256182 0.00010935 1.74296e-20
0.000181445 0.000109437 8.30641e-20
0.000182433 -0.000109484 1.16955e-19
0.000393447 -0.000110707 1.78301e-19
0.000309607 -8.86548e-05 -2.95158e-20
0.000393431 0.000110808 -1.37118e-19
0.000309493 8.87639e-05 -9.21621e-20
-3.37505e-05 0.000107085 -7.94027e-20
0.000172313 -7.57316e-05 1.4712e-19
0.000171889 7.47928e-05 -2.81524e-20
-0.000210186 -0.000399278 1.60326e-19
0.000222989 0.000403556 1.05253e-20
-6.42226e-06 -3.43015e-05 4.46072e-20
0.000251429 -0.000111127 1.27213e-20
0.000207913 -2.41428e-05 -8.57739e-20
-0.000139099 4.05793e-05 -6.14251e-20
-0.000118711 -8.09125e-05 4.32825e-21
-0.000459783 -8.6544e-06 -6.21706e-20
-0.000460246 7.39713e-06 -1.62386e-19
-3.19699e-05 0.000118283 -6.6261e-21
-0.000175423 -0.000106659 -8.37139e-20
0.000117097 9.59722e-05 1.21266e-20
1.04651e-06 -0.000453134 3.66985e-21
5.32986e-05 0.0004596 -6.77783e-20
0.000483804 4.00377e-06 -2.58545e-20
-0.000449199 -6.05983e-05 -2.64725e-21
0.000116671 -9.6978e-05 1.06e-19
-0.000162066 9.67654e-05 -1.15353e-19
0.000108859 -9.00682e-05 4.59069e-20
0.000107397 8.81752e-05 -2.10956e-19
-0.000652739 0.00053174 -2.81131e-20
-1.71018e-05 -0.000195275 -8.00674e-20
-2.83088e-05 -0.00042238 -8.90061e-21
0.000453035 3.28976e-05 -5.94087e-20
-3.37505e-05 0.000107085 4.90925e-20
-6.94823e-06 0.000185454 1.28635e-20
-0.000139099 4.05793e-05 -1.03845e-19
2.89465e-05 0.000188456 4.42504e-20
-0.000258902 -0.000145565 -1.55586e-20
0.000225355 -0.000136281 5.93333e-20
0.00022486 0.000136506 -7.63105e-20
0.000147053 -6.1733e-05 -2.63303e-20
0.000148173 6.21047e-05 7.91478e-20
2.02742e-05 -0.000181374 6.69023e-20
-0.000175423 -0.000106659 -1.19991e-20
-6.42226e-06 -3.43015e-05 7.3711e-20
-0.00013163 -3.25959e-05 -5.2533e-20
-0.000128945 3.05559e-05 6.2141e-21
-0.000133892 6.43762e-05 -9.34789e-20
0.000672617 -0.000517785 -3.24285e-20
1.04651e-06 -0.000453134 2.67337e-20
1.76775e-05 0.000417124 1.35857e-20
0.000483804 4.00377e-06 -2.58545e-20
0.000163221 -0.000224166 8.09141e-21
0.000164219 0.00022776 3.27822e-20
0.000171889 7.47928e-05 6.44855e-20
-0.000293933 0.000203654 2.36033e-20
0.000172313 -7.57316e-05 7.82601e-20
0.000191535 -3.85479e-05 1.9905e-19
0.000191791 3.83166e-05 4.35283e-20
0.000251429 -0.000111127 8.40536e-20
0.000256182 0.00010935 -6.20835e-20
-0.000531788 0.000658201 -1.20831e-20
-0.000652739 0.00053174 -6.44929e-20
-0.00013163 -3.25959e-05 3.20265e-21
-0.000128945 3.05559e-05 1.04178e-19
-4.91678e-05 -0.000314649 2.96428e-19
5.98161e-05 0.00031669 8.06217e-20
-0.000143821 0.000232307 -1.05391e-19
-0.000157178 -0.000149216 9.70128e-21
0.000139081 -0.000155189 1.58346e-20
0.000140628 0.000156449 1.0177e-20
0.000190822 -6.33744e-05 3.62057e-20
0.000191273 6.68938e-05 -6.25359e-20
-3.92553e-05 -0.000211106 -7.88695e-20
0.00021045 -5.118e-05 -2.42468e-19
-0.000295758 -6.68124e-05 -6.87329e-20
-3.57047e-05 0.00021308 -3.97566e-20
0.000350258 -0.000133007 -8.08595e-20
0.000346338 0.000135287 -6.10621e-20
-0.000174355 -8.76103e-05 7.37748e-20
-0.000172688 0.000101002 1.78127e-19
4.69753e-06 0.000198794 1.50106e-20
1.87178e-06 -0.000199216 1.60428e-20
1.93024e-05 -0.000191756 5.28813e-20
2.15537e-05 0.000193775 -7.49556e-20
0.000172157 -3.03524e-05 -1.14037e-19
0.000110206 0.000100171 -1.57535e-19
-3.71451e-05 -0.000109707 -3.61419e-20
-3.51122e-05 0.000111639 1.27306e-19
-0.000236486 0.000386665 5.98642e-20
-0.000265384 -0.000143511 6.2005e-20
0.00047136 -0.000223946 -2.84348e-19
0.000462971 0.000251423 -3.30869e-20
0.000350258 -0.000133007 -9.82658e-20
0.000346338 0.000135287 1.56172e-19
0.000158532 -8.57984e-05 -1.19728e-19
0.000159581 8.77862e-05 -4.98061e-20
-0.000136487 -6.39234e-05 -1.67063e-19
-0.000139197 6.46934e-05 -6.9574e-20
0.000186467 8.71569e-05 -1.38469e-20
0.000184088 -8.83901e-05 -1.5576e-19
5.74339e-05 0.000323906 1.68473e-19
5.51489e-05 -0.00032388 -2.59462e-19
-0.000131512 -3.06055e-05 -1.15528e-19
-0.000140326 3.42605e-05 8.0987e-20
-5.98434e-06 -0.000443947 2.13872e-19
-4.44378e-05 0.000452928 -8.46961e-20
0.000447494 -3.26414e-05 -1.92932e-19
-0.000394625 3.60961e-06 -1.97279e-19
0.000221664 -0.000209519 -2.12604e-19
0.00021955 0.000210128 3.4651e-20
-0.000207176 -0.000124702 -1.19618e-19
-0.000225404 -2.92473e-05 4.10563e-20
-0.000224154 3.72662e-05 -7.08566e-20
-0.000173871 0.000101921 -9.35256e-20
0.000148748 -0.00022897 -6.23743e-21
-0.000140645 0.000229938 -1.28725e-19
0.000222251 -0.00011939 -1.38124e-19
-4.18568e-05 -0.000204266 2.45867e-20
0.000137924 0.00021491 -1.99526e-19
0.000227683 0.000119546 -2.10861e-19
-0.000155045 0.000125921 3.94083e-20
-0.000156226 -0.000127014 -8.20489e-20
-4.05745e-05 -0.000421518 -7.57881e-20
-3.87677e-05 0.000422044 -1.51924e-19
0.000305573 -0.000305643 -1.87986e-19
0.000302889 0.000305155 1.27004e-19
2.05413e-05 -6.01105e-05 -8.26521e-20
-3.21566e-05 -0.000238677 1.56108e-19
-2.45709e-05 0.000227537 -7.05084e-20
4.68912e-05 -0.000136564 -2.96492e-19
4.75135e-05 0.00013675 7.42334e-20
-0.000265384 -0.000143511 -1.85046e-19
-1.07524e-05 0.000188046 6.7217e-21
-1.22356e-05 -0.000186175 -9.09176e-20
1.93024e-05 -0.000191756 1.03291e-19
2.15537e-05 0.000193775 -1.99335e-20
3.10245e-05 5.34892e-05 1.12469e-19
2.54533e-05 -5.42559e-05 -1.85322e-19
-2.45709e-05 0.000227537 -2.29535e-20
-0.000136487 -6.39234e-05 1.25403e-19
0.000346102 -0.000134301 -1.01086e-19
0.000342187 0.00013658 -4.90459e-20
0.000227683 0.000119546 -8.64556e-20
0.000148956 0.000166115 -6.3736e-23
0.000150289 -0.000164955 -2.21295e-20
0.000453192 -0.000145831 -9.90261e-20
0.000350258 -0.000133007 1.16114e-19
0.000446447 0.000145134 7.08566e-20
0.000346338 0.000135287 9.54923e-20
-0.000287368 0.000215064 -1.60245e-19
-3.71451e-05 -0.000109707 -2.26744e-19
-3.51122e-05 0.000111639 2.42294e-19
0.000158532 -8.57984e-05 -1.21156e-19
0.000159581 8.77862e-05 -1.00215e-19
0.000218782 -0.000410178 -8.87853e-20
0.000223366 0.000411798 -4.14854e-20
0.000222251 -0.00011939 -1.71841e-19
0.000172157 -3.03524e-05 -7.57073e-20
-0.000141034 -4.17326e-05 -2.50188e-19
-0.000463135 -6.38924e-06 3.87227e-19
-0.000461944 8.61436e-06 6.98119e-20
-3.54407e-05 -0.000120428 4.92518e-20
-3.16808e-05 0.000129178 8.85646e-20
-0.000173871 0.000101921 -7.75465e-20
0.000107442 0.000107841 -1.35597e-19
0.000105313 -0.000106361 -6.75436e-20
-5.98434e-06 -0.000443947 -4.29075e-19
-4.44378e-05 0.000452928 1.36341e-19
-0.000394625 3.60961e-06 -1.39428e-19
0.000447494 -3.26414e-05 -5.00758e-20
-0.000164149 -9.64612e-05 -1.19061e-19
3.781e-05 -0.000138727 1.02832e-19
3.67388e-05 0.000136795 -1.98145e-20
0.000647916 0.000524833 -7.34137e-20
2.15537e-05 0.000193775 7.74315e-21
-3.21321e-05 -0.000416694 4.5891e-20
-0.000394625 3.60961e-06 1.17989e-19
-3.51122e-05 0.000111639 1.099e-19
-3.71451e-05 -0.000109707 -8.12249e-20
-1.22356e-05 -0.000186175 -1.64391e-19
-0.000141034 -4.17326e-05 5.3975e-20
1.93024e-05 -0.000191756 -6.88604e-20
0.000221664 -0.000209519 -1.39845e-19
0.00021955 0.000210128 -1.92751e-20
0.000145031 -5.58986e-05 -1.16653e-19
0.000142085 6.33607e-05 -1.50259e-19
-0.000265384 -0.000143511 3.87499e-20
-1.07524e-05 0.000188046 7.85765e-20
-0.000173871 0.000101921 -3.2846e-20
-0.000131512 -3.06055e-05 -8.39518e-20
-0.000140326 3.42605e-05 -1.30781e-20
-0.000136487 -6.39234e-05 1.13705e-19
0.000615235 -0.000503289 -3.11111e-19
-1.07417e-05 0.000409469 8.41174e-20
-5.98434e-06 -0.000443947 -1.16827e-20
0.000424902 -1.32294e-05 -2.00382e-19
0.000148748 -0.00022897 -1.15377e-19
-0.000140645 0.000229938 -5.18746e-20
0.000159581 8.77862e-05 -4.98061e-20
0.000158532 -8.57984e-05 -2.70905e-20
0.000197055 0.000149717 9.78368e-20
0.000190822 -6.33744e-05 -1.29192e-19
0.000191273 6.68938e-05 -6.50079e-20
0.000222251 -0.00011939 -1.0298e-19
0.000227683 0.000119546 -6.46278e-20
0.000524321 0.000645042 2.03208e-19
0.000647916 0.000524833 9.99733e-20
-0.000131512 -3.06055e-05 -9.70765e-20
-0.000140326 3.42605e-05 1.1399e-19
5.74339e-05 0.000323906 -6.96844e-20
5.51489e-05 -0.00032388 3.3003e-20
-0.000147421 0.0002151 2.98282e-19
-0.000164811 -0.000107939 3.00553e-20
0.000140495 -0.000153203 5.67338e-20
0.000139201 0.000155571 4.85064e-20
0.000191392 -6.56767e-05 5.53066e-20
0.000191111 6.59262e-05 2.11143e-20
3.77848e-05 -0.000214218 2.67741e-20
0.000203632 -5.07233e-05 -3.64435e-20
-0.000263956 -3.74784e-05 -3.57618e-20
-3.9024e-05 0.000210485 3.92513e-19
0.00034871 -0.00013489 -4.94112e-20
0.000348358 0.000135285 6.3736e-23
-0.000174311 8.77457e-05 2.53771e-19
-0.000173312 -0.000102473 1.47881e-19
1.79555e-06 0.000198499 4.58559e-19
-3.70385e-06 -0.00019932 8.31745e-20
-2.22067e-05 -0.000196828 9.43177e-20
1.93551e-05 0.000191118 1.66253e-19
0.000171813 -3.20544e-05 -1.31247e-20
0.000108583 0.000100139 -1.07729e-19
-3.68023e-05 0.000109298 4.51632e-19
3.51302e-05 -0.000109958 -2.52684e-20
-0.000293599 0.000201462 3.35788e-19
-0.000262782 -0.000143961 -1.06183e-19
0.000270447 -0.00038773 -1.16891e-19
0.000468621 0.000230717 1.61097e-20
0.00034871 -0.00013489 1.93027e-19
0.000348358 0.000135285 -2.27441e-19
0.000158901 -8.6625e-05 2.45548e-20
0.000158608 8.67892e-05 7.9339e-20
-0.000136077 6.46445e-05 1.6191e-19
-0.000138437 -6.42072e-05 2.1858e-19
0.000184377 8.81414e-05 -1.25307e-21
0.000185522 -8.75187e-05 8.18702e-21
5.4536e-05 0.000323566 4.62633e-19
-5.57353e-05 -0.000323197 -1.21742e-19
-0.000130786 3.07162e-05 2.25444e-19
-0.000133634 -3.21139e-05 1.00453e-19
-6.12647e-06 -0.00042483 -8.68358e-20
1.81259e-05 0.000445125 2.72309e-19
0.000452712 -2.73714e-06 6.74503e-21
-0.000447733 -5.69401e-05 -7.7468e-20
0.000220778 -0.000210603 -1.90776e-19
0.000219907 0.000211388 -4.18803e-20
-0.000170351 9.95527e-05 2.11415e-19
-0.000224999 2.93207e-05 1.76224e-19
-0.000224788 -2.93277e-05 2.44911e-20
-0.000177714 -0.000106095 1.24341e-19
0.000148563 -0.000227182 -1.13546e-19
0.0001466 0.00022841 1.72911e-19
0.000225601 0.000119115 6.36126e-20
-0.000147421 0.0002151 3.79032e-19
-4.39135e-05 -0.000202578 1.5851e-19
0.00022577 -0.000118935 -6.1132e-20
-0.000157689 0.000125029 3.24169e-19
0.000155613 -0.000126874 1.18904e-19
4.01812e-05 -0.000421045 -2.30707e-19
-4.14685e-05 0.000421492 2.51218e-19
0.000304769 -0.000306401 -7.09204e-20
0.000304874 0.000307236 -2.30405e-19
2.14912e-05 6.03813e-05 -9.47616e-20
-3.20981e-05 0.000238397 7.25854e-20
-2.46054e-05 -0.000227327 1.75167e-20
4.66912e-05 0.000135981 4.56262e-19
-4.45007e-05 -0.000142063 -7.11116e-20
-1.24316e-05 0.000185948 4.75133e-19
1.11455e-05 -0.000185272 -1.17613e-20
-0.000262782 -0.000143961 7.30526e-20
-2.22067e-05 -0.000196828 4.65716e-20
1.93551e-05 0.000191118 4.30851e-19
-0.000121193 -8.2182e-05 8.94989e-20
-0.000293599 0.000201462 2.1281e-19
2.91705e-05 5.27543e-05 7.46625e-20
-2.46054e-05 -0.000227327 -8.72011e-20
-0.000136077 6.46445e-05 3.60311e-19
0.000344617 -0.000136165 2.31055e-19
0.000344181 0.000136586 -2.59985e-19
0.00022577 -0.000118935 -5.91825e-20
0.000148199 0.000166741 -7.82134e-20
0.000149707 -0.00016622 -3.24931e-21
0.000450194 -0.00014588 -5.9554e-20
0.00034871 -0.00013489 -9.12573e-20
0.000449888 0.000146076 -8.00355e-20
0.000348358 0.000135285 -1.89111e-19
-3.68023e-05 0.000109298 5.08795e-19
0.000158901 -8.6625e-05 -6.49862e-22
0.000158608 8.67892e-05 2.21761e-20
0.000218369 0.000409934 2.17246e-19
-0.000220206 -0.000410083 1.49482e-19
-1.60438e-05 -3.99781e-05 1.35342e-19
0.000225601 0.000119115 1.12786e-19
0.000171813 -3.20544e-05 -5.82077e-20
-0.000140655 4.09944e-05 2.80568e-20
-0.000121193 -8.2182e-05 -3.1198e-20
-0.000462212 6.41385e-06 -1.42571e-19
-0.000462382 -7.51934e-06 1.38434e-19
-3.52814e-05 0.000118864 3.06113e-19
-0.000177714 -0.000106095 1.71896e-19
0.000105755 0.00010721 4.47176e-20
-6.12647e-06 -0.00042483 -2.86281e-20
1.81259e-05 0.000445125 1.0249e-19
-0.000447733 -5.69401e-05 -2.09671e-19
0.000452712 -2.73714e-06 -2.26799e-19
0.000105712 -0.000106944 -6.57215e-20
-0.000163797 9.67142e-05 4.57213e-19
3.71913e-05 -0.000139834 -1.36485e-19
3.48092e-05 0.00013593 3.98203e-20
-0.000648216 0.000528446 1.11077e-19
-2.22067e-05 -0.000196828 1.33552e-19
-1.22373e-05 -0.000417133 -3.93547e-19
0.000425602 -2.79102e-05 8.35822e-20
-3.68023e-05 0.000109298 3.9875e-19
-1.24316e-05 0.000185948 4.42461e-19
-0.000140655 4.09944e-05 2.90705e-19
1.93551e-05 0.000191118 1.26497e-19
-0.000262782 -0.000143961 -1.44512e-19
0.000220778 -0.000210603 6.19327e-20
0.000219907 0.000211388 -2.37809e-19
0.000146977 5.92073e-05 2.31276e-20
0.000144216 -5.86272e-05 1.11692e-19
1.11455e-05 -0.000185272 -6.48338e-20
-0.000177714 -0.000106095 2.4751e-19
-1.60438e-05 -3.99781e-05 6.25826e-20
-0.000130786 3.07162e-05 2.96777e-19
-0.000133634 -3.21139e-05 -3.08964e-20
-0.000136077 6.46445e-05 2.02712e-19
0.000637747 0.000505556 -2.20098e-19
-6.12647e-06 -0.00042483 5.06938e-20
4.0572e-06 0.000431348 3.47987e-19
0.000452712 -2.73714e-06 -1.98931e-19
0.000148563 -0.000227182 -6.72272e-20
0.0001466 0.00022841 -5.47842e-20
0.000158608 8.67892e-05 1.49244e-19
-0.000293599 0.000201462 4.44214e-19
0.000158901 -8.6625e-05 1.00029e-20
0.000191392 -6.56767e-05 1.29493e-19
0.000191111 6.59262e-05 4.48917e-20
0.000225601 0.000119115 -1.6423e-20
0.00022577 -0.000118935 -2.10028e-19
-0.000528288 0.000656314 5.3147e-19
-0.000648216 0.000528446 6.97279e-20
-0.000130786 3.07162e-05 2.80886e-20
-0.000133634 -3.21139e-05 -6.1045e-20
-5.57353e-05 -0.000323197 3.72846e-20
5.4536e-05 0.000323566 1.46772e-19
-0.000144048 0.000232314 2.553e-19
-0.000157145 -0.000149912 2.3746e-19
0.000140952 -0.00015369 -5.65597e-20
0.000139494 0.000155561 4.33075e-20
0.000191331 -6.6717e-05 -1.19316e-19
0.000190743 6.34324e-05 -4.4259e-20
3.90562e-05 -0.000213813 1.84044e-20
0.000210463 -5.22921e-05 -1.15353e-19
-0.000295841 -6.69676e-05 2.21847e-20
-3.62533e-05 0.000213325 -4.50511e-20
0.000346587 -0.000134932 2.19383e-20
0.000350207 0.000133303 -2.75662e-19
-0.000174487 -8.75527e-05 -6.29946e-20
-0.000172626 0.000101004 -1.38609e-19
3.7319e-06 0.000199316 -1.91476e-20
-2.4992e-06 -0.000198653 1.7399e-19
-2.05453e-05 -0.00019517 9.01955e-21
2.01749e-05 0.000193625 2.04417e-19
0.000172353 -3.15667e-05 -7.10479e-20
0.000110025 9.88675e-05 -3.11638e-20
-3.53637e-05 0.000112166 -2.10289e-19
3.64991e-05 -0.000110001 1.79125e-19
-0.000236711 0.000386507 3.1239e-19
-0.000265677 -0.00014385 -9.23408e-21
0.00047141 -0.000224305 -2.1457e-19
0.000462665 0.000250856 -9.4734e-20
0.000346587 -0.000134932 1.17431e-19
0.000350207 0.000133303 -2.43807e-20
0.000159355 -8.75975e-05 -8.29366e-20
0.000158754 8.59188e-05 -2.09572e-20
-0.000136479 -6.39522e-05 5.27709e-20
-0.000139161 6.46578e-05 7.19356e-20
0.000185991 8.58763e-05 -1.26331e-19
0.000184809 -8.94289e-05 -5.81354e-20
5.54073e-05 0.000324054 -2.11542e-19
-5.39795e-05 -0.00032338 -2.68526e-20
-0.00013184 -3.11384e-05 -1.65003e-19
-0.000140243 3.46055e-05 -7.75169e-21
-5.39312e-06 -0.000444833 7.28785e-20
-4.47565e-05 0.000452575 -2.1929e-19
0.000447374 -3.31491e-05 -1.26929e-19
-0.000394762 3.51435e-06 7.04851e-20
0.000220309 -0.000209608 -3.73779e-20
0.000221071 0.000209986 -2.67545e-19
-0.000207136 -0.000124932 1.72151e-20
-0.000227685 -2.43375e-05 8.87728e-22
-0.000223724 3.75986e-05 1.26023e-20
-0.00017386 0.000101963 1.75749e-19
0.0001491 -0.000225516 4.86891e-20
-0.000140967 0.000230016 1.02959e-20
0.000222306 -0.000119831 -1.56497e-19
-4.28967e-05 -0.000204006 -3.02846e-20
0.000137043 0.000214177 -2.27452e-21
0.000227431 0.000118445 -2.28027e-20
-0.000155958 0.000126799 1.04764e-19
0.000159566 -0.000123904 2.59649e-20
-4.02604e-05 0.000421635 -4.86444e-19
4.28225e-05 -0.000422128 -2.43169e-20
0.000302746 -0.000304378 4.65101e-20
0.000305829 0.000306411 -2.67737e-19
2.10868e-05 -6.14834e-05 -7.93219e-20
-3.21469e-05 -0.000238661 -1.71072e-19
-2.45651e-05 0.00022743 -2.54892e-20
4.73431e-05 0.000137303 1.9101e-20
-4.28774e-05 -0.000142007 4.86805e-20
-0.000265677 -0.00014385 1.85981e-19
-1.13529e-05 0.000188345 -4.67861e-20
1.24458e-05 -0.0001849 9.40798e-20
-2.05453e-05 -0.00019517 1.00421e-19
2.01749e-05 0.000193625 -2.56823e-19
-0.000123244 -8.3832e-05 7.24409e-21
2.53015e-05 5.42309e-05 1.22043e-19
-2.45651e-05 0.00022743 -3.61419e-20
-0.000136479 -6.39522e-05 -2.53151e-20
0.00034247 -0.000136214 -1.84452e-19
0.000346078 0.000134589 -5.26901e-20
0.000227431 0.000118445 -7.90607e-20
0.000149126 0.000165126 -6.67833e-20
0.000150265 -0.00016588 -1.11089e-19
0.00044663 -0.000144939 1.41034e-19
0.000346587 -0.000134932 4.07718e-20
0.000453284 0.000146054 -9.7204e-20
0.000350207 0.000133303 6.33132e-20
-0.000287547 0.000215062 2.42445e-19
-3.53637e-05 0.000112166 -7.00964e-20
0.000159355 -8.75975e-05 -1.30492e-19
0.000158754 8.59188e-05 -1.23865e-19
0.000219068 0.000410384 -3.70314e-19
-0.000219007 -0.000410421 -1.23882e-19
-1.43964e-05 -4.04052e-05 2.49668e-20
0.000222306 -0.000119831 -1.68264e-20
0.000172353 -3.15667e-05 -1.33155e-19
-0.00014103 -4.17918e-05 5.86126e-22
-0.000123244 -8.3832e-05 -6.03803e-20
-0.0004618 -7.2339e-06 -2.15093e-19
-0.000462161 8.14133e-06 1.28954e-19
-3.19583e-05 0.000129575 -2.87536e-19
-0.00017386 0.000101963 1.56775e-20
0.000105842 0.000106268 -4.4004e-20
-5.39312e-06 -0.000444833 -1.60666e-19
-4.47565e-05 0.000452575 -5.88618e-20
-0.000394762 3.51435e-06 -2.94288e-20
0.000447374 -3.31491e-05 1.9565e-20
0.000106386 -0.000107825 4.32437e-20
-0.000163983 -9.66161e-05 9.41754e-20
3.90217e-05 -0.000139624 -1.59549e-19
3.56592e-05 0.000135806 9.85037e-20
0.000647751 0.000524493 -3.75108e-19
2.01749e-05 0.000193625 4.29188e-20
-2.05453e-05 -0.00019517 1.33424e-19
-3.18484e-05 -0.000417077 -2.87044e-19
-0.000394762 3.51435e-06 -8.66616e-20
-3.53637e-05 0.000112166 -1.32203e-19
-0.00014103 -4.17918e-05 4.15787e-20
0.000220309 -0.000209608 -3.73779e-20
0.000221071 0.000209986 -1.10329e-19
0.000147519 5.64706e-05 2.16071e-20
0.000141986 -6.33006e-05 -5.09954e-20
-0.000265677 -0.00014385 8.67806e-20
-1.13529e-05 0.000188345 -3.48974e-20
1.24458e-05 -0.0001849 6.65944e-20
-0.00017386 0.000101963 7.49675e-21
-1.43964e-05 -4.04052e-05 1.05525e-19
-0.00013184 -3.11384e-05 5.11866e-20
-0.000140243 3.46055e-05 1.7453e-20
-0.000136479 -6.39522e-05 -6.86396e-21
0.000615266 -0.000503644 4.24272e-20
-1.11976e-05 0.000409295 -2.78274e-20
-5.39312e-06 -0.000444833 1.18933e-22
0.000425057 -1.39742e-05 -2.11772e-19
-0.000140967 0.000230016 3.21021e-19
0.0001491 -0.000225516 2.47204e-20
0.000158754 8.59188e-05 3.62057e-20
0.000196455 0.000148681 1.1399e-19
0.000159355 -8.75975e-05 9.70128e-21
0.000191331 -6.6717e-05 -8.3459e-20
0.000190743 6.34324e-05 -6.12828e-20
0.000222306 -0.000119831 -6.17369e-21
0.000227431 0.000118445 -1.60491e-20
0.000523963 0.000644642 -1.17759e-19
0.000647751 0.000524493 -2.29375e-20
-0.00013184 -3.11384e-05 4.44331e-20
-0.000140243 3.46055e-05 1.12563e-19
-5.39795e-05 -0.00032338 1.0126e-19
5.54073e-05 0.000324054 -1.85955e-19
-0.00014742 0.00021506 -1.82906e-19
-0.000158446 -0.000114686 -7.28233e-20
0.000149561 -0.000190976 -1.16177e-19
0.000140323 0.00015164 2.05919e-20
0.0001881 5.96322e-05 4.57328e-20
0.000168794 -0.000121721 -1.29319e-19
-2.38447e-05 -0.000222914 -9.11003e-20
0.000206158 3.98249e-05 -8.31107e-20
-0.000260056 -4.11425e-05 -2.3192e-19
-3.80005e-05 0.000210259 -6.74247e-20
0.000341723 0.000128333 1.35945e-19
0.000267185 -0.000161779 3.27014e-20
-0.000166031 -0.000106691 -1.14466e-19
-0.000172932 8.73271e-05 -1.20314e-19
3.34925e-06 0.000197544 -1.95938e-20
2.95531e-05 -0.000203078 -1.64922e-19
5.47748e-05 -0.000218751 -9.95656e-20
2.10392e-05 0.00019007 -1.43189e-19
0.000172339 1.99799e-05 -9.54752e-20
0.000100303 -0.000118543 -1.31443e-19
-2.33165e-05 -0.000113069 1.61214e-19
-3.6282e-05 0.000108974 -3.03398e-20
-0.000296679 0.000201126 -1.35049e-19
-0.000258298 -0.000154 -3.93275e-20
0.000492874 -0.00024959 -1.41854e-19
0.000269515 0.000379183 1.11652e-19
0.000341723 0.000128333 -1.07538e-19
0.000267185 -0.000161779 4.23094e-20
0.000158326 8.23282e-05 5.19298e-20
0.000157781 -0.000138593 -3.02123e-20
-0.000133612 6.25742e-05 -4.18803e-20
-0.000131467 -6.85589e-05 -2.19404e-19
0.000187078 7.85811e-05 1.19354e-20
0.000186957 -0.000112057 -4.00103e-21
8.25441e-05 -0.000280826 7.4535e-20
5.51276e-05 0.000320653 -1.1529e-19
-0.000129865 3.06629e-05 3.47955e-20
-0.000128615 -4.11817e-05 1.12818e-19
3.8827e-06 -0.000472531 -3.0856e-20
4.63051e-05 0.00045507 -1.09163e-19
0.000470754 -8.25618e-06 -5.6513e-21
-0.000452055 -6.70232e-05 -1.93348e-19
0.00021558 0.000200741 -3.64448e-19
0.000175444 -0.000210469 -3.21324e-20
-0.00016864 9.80081e-05 -8.62963e-20
-0.000214517 -3.98168e-05 -7.16556e-21
-0.000223451 2.92725e-05 -2.17391e-19
-0.000171376 -0.000110595 -9.08624e-20
0.000163257 -0.000256869 -3.00241e-19
0.000153943 0.000226925 -1.41881e-19
0.0002313 -0.000145368 -1.86338e-20
-0.00014742 0.00021506 -2.41827e-19
-2.68189e-05 -0.000215202 7.29929e-21
0.000229168 0.000111481 1.32743e-19
-0.000153717 0.000125284 -1.03291e-19
-5.56546e-05 -0.000155281 -1.33805e-19
-3.93917e-05 0.000417054 7.9751e-20
1.79338e-05 -0.000346741 -2.2002e-20
0.00029782 0.000297114 -4.64774e-19
0.000246269 -0.000283091 3.04482e-19
1.885e-05 -7.04468e-05 -2.66959e-19
-2.78965e-05 0.000238442 -2.43483e-19
-1.6732e-05 -0.000228139 -1.17605e-19
5.9407e-05 -0.000138087 -2.21295e-20
4.69634e-05 0.000135582 1.54396e-19
6.29641e-06 -0.000191577 1.4999e-19
-1.15242e-05 0.000185832 8.47035e-20
-0.000258298 -0.000154 -2.89564e-19
5.47748e-05 -0.000218751 -5.30554e-20
2.10392e-05 0.00019007 5.1503e-20
-0.000296679 0.000201126 -2.45424e-19
2.64069e-05 5.28955e-05 -7.48366e-20
7.29656e-05 -0.000118963 -4.85701e-20
-1.6732e-05 -0.000228139 2.01162e-20
-0.000133612 6.25742e-05 -6.03314e-20
0.000338631 0.000129296 1.15353e-19
0.000257162 -0.000164903 -3.31942e-20
0.000229168 0.000111481 1.43395e-19
0.000146491 0.000157593 -7.84809e-20
0.000128664 -0.000181353 -8.87853e-20
0.000442814 0.000141992 -2.74388e-20
0.000341723 0.000128333 -1.10392e-19
0.000320466 -0.000126666 -4.24368e-20
0.000267185 -0.000161779 4.08822e-20
-2.33165e-05 -0.000113069 8.41726e-20
-3.6282e-05 0.000108974 -1.91838e-19
0.000158326 8.23282e-05 -5.38328e-20
0.000157781 -0.000138593 -1.44156e-19
0.000216981 0.000406065 -4.60764e-19
0.000211178 -0.000350998 5.34845e-20
0.0002313 -0.000145368 -2.16321e-19
0.000172339 1.99799e-05 -9.59088e-21
-0.000138307 3.87589e-05 -1.33558e-19
-0.000446238 -1.19814e-05 2.50134e-20
-0.000459991 6.76941e-06 -1.46517e-19
-3.47437e-05 0.000118653 -1.03099e-19
-2.03043e-05 -0.000128125 4.24664e-20
-0.000171376 -0.000110595 -1.13493e-20
0.000106362 0.000102413 -1.75035e-19
0.000122705 -0.00015215 -1.23564e-19
3.8827e-06 -0.000472531 -2.29779e-19
4.63051e-05 0.00045507 -4.57886e-19
-0.000452055 -6.70232e-05 -2.76926e-19
0.000470754 -8.25618e-06 6.95103e-21
-0.000162614 9.61284e-05 -8.70736e-20
3.12828e-05 0.000128385 -4.44832e-19
2.69346e-05 -0.000143287 -9.35893e-20
-0.000657302 0.000530387 2.09259e-19
-2.86342e-05 -0.000438692 -5.55283e-19
0.000438452 2.17347e-05 7.61799e-20
-3.6282e-05 0.000108974 1.18887e-20
-2.33165e-05 -0.000113069 8.55998e-20
-1.15242e-05 0.000185832 -1.76823e-20
6.29641e-06 -0.000191577 6.6055e-20
-0.000138307 3.87589e-05 -1.47588e-19
5.47748e-05 -0.000218751 -2.14796e-20
2.10392e-05 0.00019007 -1.5755e-19
-0.000258298 -0.000154 -1.0039e-19
0.00021558 0.000200741 -2.05281e-20
0.000175444 -0.000210469 3.28289e-20
0.000140554 -6.30494e-05 2.17739e-19
0.000140125 -5.02126e-05 -8.29366e-20
-0.000171376 -0.000110595 -4.57795e-20
-0.000128615 -4.11817e-05 2.94054e-20
-0.000129865 3.06629e-05 -8.3047e-20
-0.000133612 6.25742e-05 -1.4907e-19
0.000663549 -0.000525216 -5.20615e-19
3.8827e-06 -0.000472531 -4.72549e-19
1.06619e-05 0.000412561 -2.00985e-19
0.000470754 -8.25618e-06 -1.96776e-19
0.000163257 -0.000256869 -2.42033e-19
0.000153943 0.000226925 -2.88426e-20
0.000158326 8.23282e-05 1.63401e-19
0.000157781 -0.000138593 -4.96256e-19
-0.000296679 0.000201126 -2.89794e-19
0.0001881 5.96322e-05 1.76738e-20
0.000168794 -0.000121721 -1.89999e-19
0.0002313 -0.000145368 -6.74503e-21
0.000229168 0.000111481 1.8277e-20
-0.000531396 0.000651299 2.74224e-19
-0.000657302 0.000530387 -6.35892e-20
-0.000128615 -4.11817e-05 -9.51907e-20
-0.000129865 3.06629e-05 -2.06216e-19
8.25441e-05 -0.000280826 1.67173e-19
5.51276e-05 0.000320653 -4.02429e-19
2.05494e-05 -2.65948e-06 -6.59127e-20
2.30105e-05 -3.03598e-06 5.64322e-20
1.05586e-05 -1.42367e-06 -2.72646e-20
2.29626e-05 3.01125e-06 -1.45757e-19
3.10995e-05 -4.05647e-06 -2.13968e-19
3.11528e-05 4.03103e-06 -1.46645e-19
2.67071e-05 -6.64091e-06 7.78481e-20
1.85687e-05 -2.08076e-06 3.46681e-20
1.84276e-05 -1.78484e-06 -8.48237e-21
3.3096e-05 2.75909e-06 -6.13637e-20
5.24093e-05 -1.63683e-05 -8.36502e-20
5.2446e-05 1.63706e-05 -1.65461e-19
-8.36687e-06 -1.835e-05 7.67225e-20
-1.06006e-05 -6.81757e-06 1.33822e-19
3.39736e-05 1.93426e-05 -3.08326e-20
3.71719e-05 -1.72101e-05 5.26263e-21
4.38819e-05 5.03903e-06 -6.89071e-20
2.50668e-05 6.10123e-06 -5.14245e-20
1.86787e-05 -2.14061e-06 -1.44521e-19
1.33787e-05 9.36877e-06 -2.0035e-19
4.23775e-05 -3.31278e-05 8.75494e-20
1.72729e-05 -7.72995e-06 1.43094e-19
2.08078e-05 -2.68897e-06 -2.37866e-22
2.30841e-05 9.75034e-07 1.81852e-19
2.14376e-05 1.57066e-06 2.4334e-20
2.44262e-05 2.35061e-07 -2.98345e-20
5.24093e-05 -1.63683e-05 -1.32632e-19
5.2446e-05 1.63706e-05 -1.09725e-19
2.45901e-05 -1.33184e-06 -7.29508e-20
2.45895e-05 1.27135e-06 -1.23581e-19
1.72078e-05 2.11249e-05 1.52655e-20
1.85599e-05 -1.7908e-05 1.0849e-19
2.23129e-05 -4.15956e-06 1.5393e-20
2.22881e-05 4.09573e-06 -2.2064e-19
7.32461e-05 9.331e-05 -4.75083e-20
2.50471e-05 -8.81014e-05 1.36485e-19
-4.19416e-06 -4.89134e-05 3.36995e-20
-4.54012e-06 4.78589e-05 1.37917e-20
2.5756e-05 7.3247e-10 2.31421e-19
2.55179e-05 -3.91258e-07 4.00582e-20
2.08933e-05 8.27449e-10 4.74912e-20
2.01185e-05 -2.30998e-08 1.14275e-19
3.26458e-05 -2.70501e-05 -4.16424e-20
3.26564e-05 2.71153e-05 -2.66199e-19
9.21505e-06 1.9677e-06 6.74332e-20
-7.03489e-05 -4.98945e-05 2.44562e-19
-7.00949e-05 4.98637e-05 1.26661e-20
1.19627e-05 -1.62432e-06 8.69632e-20
2.46469e-05 -2.60597e-06 1.09615e-19
2.47012e-05 2.58687e-06 -7.13495e-20
2.0586e-05 -2.75946e-06 7.21097e-20
2.05494e-05 -2.65948e-06 -1.10613e-19
2.93102e-05 6.44845e-06 -1.73863e-19
2.05999e-05 2.83635e-06 1.12406e-19
-1.583e-05 1.77487e-05 1.20425e-19
0.000139171 2.03998e-05 1.01991e-19
3.51956e-05 0.000132121 8.15731e-20
7.45847e-05 -0.000138647 1.36642e-20
4.47516e-05 -4.22637e-05 -8.9928e-20
4.47821e-05 4.22884e-05 -7.98443e-20
2.19016e-06 6.66347e-06 -1.7532e-19
7.02634e-05 0.000129068 6.38823e-21
7.62928e-05 -0.000121988 8.73752e-20
8.07031e-05 -2.08775e-05 1.59264e-19
9.98984e-06 -1.06659e-05 5.03922e-20
4.5212e-05 -8.42082e-06 1.32988e-20
2.62888e-05 -6.18629e-06 1.4625e-19
2.14376e-05 1.57066e-06 -4.6336e-20
4.38819e-05 5.03903e-06 8.05113e-20
2.50668e-05 6.10123e-06 2.03094e-19
9.04496e-06 4.30678e-05 3.18478e-20
2.08078e-05 -2.68897e-06 1.6786e-20
1.35945e-05 4.35412e-07 1.42635e-19
7.62928e-05 -0.000121988 6.21706e-20
1.72078e-05 2.11249e-05 -7.63276e-20
5.33942e-05 -1.60616e-05 -2.65677e-19
5.34339e-05 1.6063e-05 -7.6183e-20
2.05999e-05 2.83635e-06 -2.80878e-19
2.07185e-05 -1.96039e-05 5.18365e-20
2.06362e-05 1.96209e-05 -2.33782e-19
6.90234e-05 -2.07802e-05 -7.06825e-20
5.24093e-05 -1.63683e-05 7.00497e-20
6.9077e-05 2.07932e-05 2.81524e-20
5.2446e-05 1.63706e-05 -9.41288e-20
4.23775e-05 -3.31278e-05 -8.98768e-21
2.45901e-05 -1.33184e-06 -7.54228e-20
2.45895e-05 1.27135e-06 -1.65809e-19
0.000175109 0.000156944 7.2046e-20
-3.90436e-05 -0.000119561 8.09995e-21
1.05382e-05 1.4806e-06 1.18603e-19
2.0586e-05 -2.75946e-06 -1.06412e-19
1.86787e-05 -2.14061e-06 -1.56219e-19
3.82323e-05 1.34294e-05 3.46681e-20
9.04496e-06 4.30678e-05 -1.99887e-20
-0.000255563 4.11425e-05 -2.83902e-20
-0.000255391 -4.19614e-05 -3.08793e-20
4.3139e-05 -2.83362e-05 -3.36062e-20
1.19627e-05 -1.62432e-06 5.78594e-20
2.23573e-05 2.13407e-06 -7.75465e-20
2.5756e-05 7.3247e-10 -4.54483e-20
2.55179e-05 -3.91258e-07 -9.37635e-20
2.01185e-05 -2.30998e-08 -5.89213e-20
2.08933e-05 8.27449e-10 -1.60428e-20
2.23661e-05 -2.18091e-06 1.02237e-20
-2.08713e-05 -1.55787e-05 9.82658e-20
4.40971e-06 -1.66617e-05 -4.43523e-20
4.41297e-06 1.63834e-05 -4.43073e-19
1.92625e-05 6.93437e-06 -4.68584e-20
4.38819e-05 5.03903e-06 -9.02125e-20
2.5428e-05 3.44347e-07 1.51385e-19
2.09757e-05 -7.65841e-08 -1.46789e-19
4.23775e-05 -3.31278e-05 -3.66131e-21
4.5212e-05 -8.42082e-06 -1.50671e-19
3.82323e-05 1.34294e-05 1.9084e-19
2.50668e-05 6.10123e-06 1.09029e-19
2.14376e-05 1.57066e-06 -2.21761e-20
3.26458e-05 -2.70501e-05 -1.22583e-19
3.26564e-05 2.71153e-05 -1.69662e-19
2.66678e-05 1.32482e-05 -2.17994e-19
2.64929e-05 -1.32373e-05 -3.83931e-20
2.62888e-05 -6.18629e-06 1.27416e-19
1.19627e-05 -1.62432e-06 1.38417e-19
1.05382e-05 1.4806e-06 6.81935e-20
-4.19416e-06 -4.89134e-05 -1.1001e-20
-4.54012e-06 4.78589e-05 9.57768e-20
1.72078e-05 2.11249e-05 9.08795e-20
1.95454e-05 6.70339e-06 1.1873e-19
2.58853e-05 4.68797e-08 2.01332e-21
2.5756e-05 7.3247e-10 2.15441e-19
2.08933e-05 8.27449e-10 1.39084e-19
2.46469e-05 -2.60597e-06 8.83096e-20
2.47012e-05 2.58687e-06 3.23236e-20
2.45895e-05 1.27135e-06 -1.02275e-19
2.08078e-05 -2.68897e-06 3.95187e-20
2.45901e-05 -1.33184e-06 9.41675e-21
3.10995e-05 -4.05647e-06 -1.52905e-19
3.11528e-05 4.03103e-06 -6.85588e-20
2.0586e-05 -2.75946e-06 6.82105e-20
2.05999e-05 2.83635e-06 -1.04828e-19
2.74295e-05 1.75424e-07 1.63274e-20
1.92625e-05 6.93437e-06 -3.08793e-20
-4.54012e-06 4.78589e-05 3.22427e-20
-4.19416e-06 -4.89134e-05 1.29574e-19
7.32461e-05 9.331e-05 4.65568e-20
2.50471e-05 -8.81014e-05 -6.37252e-20
-0.00013956 0.000227236 -9.7085e-20
-0.000163476 -0.000106723 -1.95215e-19
0.000141508 -0.000150071 1.09377e-19
0.000149498 0.00019029 1.4357e-19
0.000168366 0.000121819 2.51282e-19
0.000187908 -5.99201e-05 3.59899e-19
3.96094e-05 -0.000212673 -1.12559e-21
0.000206059 6.97697e-05 2.07388e-19
-0.000263503 -3.47673e-05 -6.93276e-20
-2.28376e-05 0.000223206 -8.30322e-20
0.000266605 0.000161648 1.36183e-19
0.00034172 -0.000128532 4.95827e-19
-0.000171372 -0.000101315 -1.13451e-19
-0.000167271 9.20945e-05 -9.0278e-36
3.04592e-05 0.000203397 1.54983e-19
-2.55184e-06 -0.000197572 -8.78976e-20
-2.13662e-05 -0.000195804 -9.75841e-20
5.55044e-05 0.000218519 1.24643e-19
0.000168918 4.79831e-05 4.88504e-19
0.000106904 -9.01496e-05 1.56932e-19
-2.55416e-05 0.000111558 5.4181e-20
3.60889e-05 -0.000107866 7.97977e-20
-0.000293815 0.000212852 3.25591e-20
-0.000261664 -0.000142711 1.06846e-20
0.00048541 -0.000224295 3.08352e-19
0.00027869 0.000404652 -3.05544e-20
0.000266605 0.000161648 -3.4923e-20
0.00034172 -0.000128532 1.77112e-19
0.00015747 0.000138475 6.94465e-20
0.000158815 -8.29939e-05 3.00264e-19
-0.000130365 6.68735e-05 5.18832e-20
-0.000135718 -6.2282e-05 -8.70315e-21
0.000187279 0.000112056 1.75725e-19
0.000187127 -7.85945e-05 1.74742e-19
8.27077e-05 0.000281092 1.23993e-19
-5.44153e-05 -0.000319792 -3.61912e-19
-0.00012202 3.54815e-05 6.05226e-20
-0.000132255 -3.21015e-05 -8.38072e-20
-5.81853e-06 -0.000447889 1.75749e-19
5.27464e-05 0.000476418 1.84535e-19
0.000468714 1.85122e-05 2.56109e-19
-0.000451646 -5.52918e-05 7.49672e-20
0.000175196 0.00020982 9.49357e-20
0.000215501 -0.000201412 5.1317e-19
-0.000165069 0.000104745 6.6261e-21
-0.000222717 -2.93326e-05 -1.78888e-19
-0.000215815 3.40926e-05 3.79811e-20
-0.000175803 -0.000104961 -1.6126e-19
0.000152143 -0.000223816 -1.03433e-19
0.000165196 0.000255872 1.33346e-19
0.00023023 -0.00011092 -3.43431e-20
-0.00013956 0.000227236 8.34635e-21
-4.24746e-05 -0.000201705 -2.22694e-19
0.00023008 0.000145503 3.46281e-19
-5.53222e-05 0.000155303 -2.13521e-20
0.000154548 -0.000125898 -1.64034e-19
4.04687e-05 -0.000416588 3.44157e-19
1.82139e-05 0.000346888 -1.72322e-20
0.000245773 0.000282635 2.15395e-19
0.000297881 -0.000297324 7.69476e-19
1.91446e-05 -4.84236e-05 3.61547e-19
-2.61118e-05 0.00023876 1.14704e-19
-1.85091e-05 -0.00022756 -1.89285e-19
5.94171e-05 0.000138706 6.67663e-20
-4.35543e-05 -0.000139972 -1.70312e-19
7.03964e-06 0.000195634 4.42419e-20
1.24081e-05 -0.000183116 -2.25444e-19
-0.000261664 -0.000142711 -1.1372e-19
-2.13662e-05 -0.000195804 -1.68725e-19
5.55044e-05 0.000218519 5.96815e-20
-0.000119973 -8.18003e-05 -2.28218e-19
-0.000293815 0.000212852 -4.14364e-20
7.45383e-05 0.000118625 2.15633e-19
-1.85091e-05 -0.00022756 -9.41754e-20
-0.000130365 6.68735e-05 7.42334e-20
0.000256514 0.000164793 9.11469e-20
0.00033857 -0.000129512 4.76535e-19
0.00023008 0.000145503 4.42818e-19
0.000129165 0.000181084 3.22219e-19
0.0001458 -0.000158013 1.71943e-19
0.000319665 0.000126439 2.20577e-19
0.000266605 0.000161648 1.83407e-20
0.000442751 -0.000142055 3.73894e-19
0.00034172 -0.000128532 4.42946e-19
-2.55416e-05 0.000111558 9.39376e-20
0.00015747 0.000138475 1.39734e-19
0.000158815 -8.29939e-05 3.4002e-19
0.000211183 0.000351169 -1.16955e-19
-0.000216656 -0.000405387 -4.3976e-19
-1.54879e-05 -3.733e-05 1.37355e-19
0.00023023 -0.00011092 2.63971e-19
0.000168918 4.79831e-05 3.07128e-19
-0.000138158 4.2979e-05 -2.77341e-20
-0.000119973 -8.18003e-05 -1.64684e-19
-0.000459755 -8.11163e-06 -1.56631e-19
-0.000446827 1.06048e-05 -8.23505e-20
-2.33777e-05 0.000125162 -4.58432e-20
-0.000175803 -0.000104961 -2.47145e-19
0.000122952 0.000151823 1.81495e-20
-5.81853e-06 -0.000447889 -4.2088e-19
5.27464e-05 0.000476418 -1.63119e-19
-0.000451646 -5.52918e-05 -7.02907e-20
0.000468714 1.85122e-05 2.13288e-20
0.000106124 -0.000103109 1.62908e-19
-0.000155401 0.000102219 -8.49499e-20
2.71517e-05 0.000146253 3.54445e-19
3.10956e-05 -0.00012515 4.90042e-19
-0.000657387 0.000541452 1.37672e-20
-2.13662e-05 -0.000195804 -6.65307e-20
-3.41975e-05 -0.000418153 -4.04438e-19
0.000440577 4.46436e-05 -2.01162e-20
-2.55416e-05 0.000111558 8.22401e-20
7.03964e-06 0.000195634 6.89241e-20
-0.000138158 4.2979e-05 -6.78219e-20
5.55044e-05 0.000218519 6.89071e-20
-0.000261664 -0.000142711 -2.36176e-19
0.000175196 0.00020982 2.06025e-19
0.000215501 -0.000201412 4.64187e-19
0.000139537 5.04274e-05 -6.03997e-21
0.000142254 6.31565e-05 5.45349e-19
1.24081e-05 -0.000183116 -4.14046e-20
-0.000175803 -0.000104961 7.44246e-20
-1.54879e-05 -3.733e-05 -6.63713e-20
-0.00012202 3.54815e-05 -4.2768e-20
-0.000132255 -3.21015e-05 -1.30317e-19
-0.000130365 6.68735e-05 1.21266e-20
0.000661144 -0.00050823 -9.27568e-20
-5.81853e-06 -0.000447889 -2.08641e-19
2.05039e-05 0.000437973 1.06325e-19
0.000468714 1.85122e-05 -3.9542e-20
0.000152143 -0.000223816 -2.43626e-19
0.000165196 0.000255872 -2.21418e-19
0.00015747 0.000138475 1.50004e-19
-0.000293815 0.000212852 1.02089e-20
0.000158815 -8.29939e-05 -1.4272e-21
0.000168366 0.000121819 1.66825e-19
0.000187908 -5.99201e-05 4.08881e-19
0.00023023 -0.00011092 -1.09052e-19
0.00023008 0.000145503 1.95627e-19
-0.000540458 0.000675554 1.37577e-19
-0.000657387 0.000541452 5.43937e-19
-0.000132255 -3.21015e-05 -3.11694e-19
-0.00012202 3.54815e-05 -3.63969e-20
-5.44153e-05 -0.000319792 2.99678e-19
8.27077e-05 0.000281092 -5.20573e-20
-0.000144484 0.000217595 -1.08324e-19
-0.000161979 -0.000108581 3.89792e-20
0.000154749 -0.000147507 8.54723e-20
0.000153633 0.000148924 -1.06905e-19
0.000191791 3.83166e-05 4.18803e-20
0.000191535 -3.85479e-05 -3.07052e-20
4.79963e-05 -0.000211495 6.18223e-21
0.000245838 -4.47721e-05 -2.37137e-20
-0.000262031 -3.83561e-05 3.26952e-20
-3.28424e-05 0.000209347 -1.33236e-19
0.000309607 -8.86548e-05 7.65484e-20
0.000309493 8.87639e-05 -7.3711e-20
-0.000170817 -0.000102869 -8.09995e-21
-0.000172443 8.79137e-05 -4.43693e-20
9.80563e-06 0.000194656 3.41286e-20
3.63632e-06 -0.000194592 -7.01601e-20
-1.71018e-05 -0.000195275 3.90771e-21
2.89465e-05 0.000188456 -1.77864e-20
0.000207913 -2.41428e-05 1.11501e-19
0.00016223 7.0662e-05 -1.49002e-20
-3.37505e-05 0.000107085 7.17444e-20
4.48797e-05 -0.000104458 1.51861e-19
-0.000293933 0.000203654 -6.21706e-20
-0.000258902 -0.000145565 -3.68237e-20
0.000496493 -0.000232665 7.01994e-20
0.000280515 0.000383217 -5.86601e-20
0.000309607 -8.86548e-05 1.2553e-19
0.000309493 8.87639e-05 9.31136e-20
0.000172313 -7.57316e-05 7.21097e-20
0.000171889 7.47928e-05 5.91591e-20
-0.000133892 6.43762e-05 -7.71982e-20
-0.000135901 -6.43124e-05 -1.29493e-19
0.000207804 7.32599e-05 -3.01742e-20
0.000207142 -7.52184e-05 1.50022e-19
5.98161e-05 0.00031669 -8.0575e-20
-4.91678e-05 -0.000314649 -1.80858e-20
-0.000128945 3.05559e-05 3.64435e-20
-0.00013163 -3.25959e-05 -7.93857e-20
1.04651e-06 -0.000453134 4.67628e-20
5.32986e-05 0.0004596 -1.0052e-19
0.000483804 4.00377e-06 -4.8808e-20
-0.000449199 -6.05983e-05 -5.02224e-20
0.000225355 -0.000136281 2.02601e-19
0.00022486 0.000136506 -3.57299e-20
-0.000168529 9.9784e-05 1.88802e-20
-0.000222615 -2.98121e-05 -1.98145e-20
-0.000223661 2.91498e-05 1.95129e-20
-0.000175423 -0.000106659 -2.10039e-20
0.000163221 -0.000224166 7.17762e-20
0.000164219 0.00022776 -3.48718e-21
0.000251429 -0.000111127 6.19646e-20
-0.000144484 0.000217595 -3.34235e-20
-3.67874e-05 -0.000201861 -6.76159e-20
0.000256182 0.00010935 6.7769e-21
-0.000147074 0.000120803 8.51195e-21
0.000160608 -0.000120599 -7.14598e-20
4.63526e-05 -0.000412093 -1.17783e-20
-3.35507e-05 0.00041193 1.07648e-19
0.00024841 -0.000209627 1.22328e-19
0.000248499 0.000210025 8.46654e-20
0.000109752 3.76065e-05 -1.71047e-20
-2.85886e-05 0.00023946 -6.3534e-20
-1.91328e-05 -0.000228593 -5.24056e-20
5.00003e-05 0.00013385 -2.25119e-21
-3.52383e-05 -0.00013676 -5.05197e-20
-6.94823e-06 0.000185454 3.32642e-20
2.02742e-05 -0.000181374 -1.47628e-19
-0.000258902 -0.000145565 -3.02613e-20
-1.71018e-05 -0.000195275 -6.03143e-21
2.89465e-05 0.000188456 1.96784e-19
-0.000118711 -8.09125e-05 -1.05716e-19
-0.000293933 0.000203654 1.36346e-21
3.44005e-05 4.80261e-05 -2.40153e-20
-1.91328e-05 -0.000228593 1.64548e-20
-0.000133892 6.43762e-05 -4.2768e-20
0.000311524 -8.80578e-05 3.35059e-19
0.000311539 8.81264e-05 1.08664e-19
0.000256182 0.00010935 -7.07867e-20
0.000181445 0.000109437 -3.45577e-20
0.000182433 -0.000109484 4.55416e-20
0.000393447 -0.000110707 6.90812e-20
0.000309607 -8.86548e-05 -5.05197e-20
0.000393431 0.000110808 -1.53921e-19
0.000309493 8.87639e-05 -9.21621e-20
-3.37505e-05 0.000107085 1.01231e-19
0.000172313 -7.57316e-05 1.05113e-19
0.000171889 7.47928e-05 -7.85617e-20
-0.000210186 -0.000399278 -2.45081e-20
0.000222989 0.000403556 5.2533e-20
-6.42226e-06 -3.43015e-05 -5.8021e-21
0.000251429 -0.000111127 -1.87846e-20
0.000207913 -2.41428e-05 -8.15731e-20
-0.000139099 4.05793e-05 -1.26537e-19
-0.000118711 -8.09125e-05 -9.64904e-20
-0.000459783 -8.6544e-06 -6.63713e-20
-0.000460246 7.39713e-06 -8.25712e-20
-3.19699e-05 0.000118283 1.77546e-21
-0.000175423 -0.000106659 2.55063e-20
0.000117097 9.59722e-05 1.21266e-20
1.04651e-06 -0.000453134 -1.94344e-20
5.32986e-05 0.0004596 -4.25737e-20
0.000483804 4.00377e-06 1.61532e-20
-0.000449199 -6.05983e-05 -1.59706e-21
0.000116671 -9.6978e-05 1.43807e-19
-0.000162066 9.67654e-05 -8.5948e-20
0.000108859 -9.00682e-05 1.23007e-20
0.000107397 8.81752e-05 -8.49328e-20
-0.000652739 0.00053174 -2.70629e-20
-1.71018e-05 -0.000195275 -5.69631e-20
-2.83088e-05 -0.00042238 -2.99045e-20
0.000453035 3.28976e-05 -2.79028e-20
-3.37505e-05 0.000107085 1.03703e-19
-6.94823e-06 0.000185454 3.80682e-20
-0.000139099 4.05793e-05 -1.05945e-19
2.89465e-05 0.000188456 1.27446e-20
-0.000258902 -0.000145565 -5.05664e-21
0.000225355 -0.000136281 4.25302e-20
0.00022486 0.000136506 -5.95074e-20
0.000147053 -6.1733e-05 4.08822e-20
0.000148173 6.21047e-05 8.33486e-20
2.02742e-05 -0.000181374 7.74042e-20
-0.000175423 -0.000106659 -1.04416e-19
-6.42226e-06 -3.43015e-05 2.33017e-20
-0.00013163 -3.25959e-05 -1.05253e-20
-0.000128945 3.05559e-05 -2.31913e-20
-0.000133892 6.43762e-05 6.19498e-20
0.000672617 -0.000517785 -5.97336e-20
1.04651e-06 -0.000453134 6.66411e-20
1.76775e-05 0.000417124 -8.51326e-20
0.000483804 4.00377e-06 1.61532e-20
0.000163221 -0.000224166 1.36215e-19
0.000164219 0.00022776 -7.6438e-20
0.000171889 7.47928e-05 -1.11285e-20
-0.000293933 0.000203654 1.52018e-20
0.000172313 -7.57316e-05 8.66616e-20
0.000191535 -3.85479e-05 2.32657e-19
0.000191791 3.83166e-05 1.35945e-19
0.000251429 -0.000111127 1.28162e-19
0.000256182 0.00010935 -4.94812e-20
-0.000531788 0.000658201 -3.68151e-21
-0.000652739 0.00053174 -6.34427e-20
-0.00013163 -3.25959e-05 -8.08129e-20
-0.000128945 3.05559e-05 2.43636e-20
-4.91678e-05 -0.000314649 2.25015e-19
5.98161e-05 0.00031669 1.35232e-19
-0.000143821 0.000232307 -2.55762e-20
-0.000157178 -0.000149216 9.70128e-21
0.000139081 -0.000155189 2.04869e-19
0.000140628 0.000156449 -1.50276e-20
0.000190822 -6.33744e-05 2.59945e-21
0.000191273 6.68938e-05 3.82827e-20
-3.92553e-05 -0.000211106 -2.04893e-19
0.00021045 -5.118e-05 -2.88677e-19
-0.000295758 -6.68124e-05 -1.10741e-19
-3.57047e-05 0.00021308 1.06527e-20
0.000350258 -0.000133007 -1.22867e-19
0.000346338 0.000135287 9.01659e-20
-0.000174355 -8.76103e-05 -2.28431e-20
-0.000172688 0.000101002 3.53009e-20
4.69753e-06 0.000198794 1.62038e-19
1.87178e-06 -0.000199216 -1.0578e-19
1.93024e-05 -0.000191756 7.80859e-20
2.15537e-05 0.000193775 -1.44199e-21
0.000172157 -3.03524e-05 -2.4006e-19
0.000110206 0.000100171 -7.77206e-20
-3.71451e-05 -0.000109707 -4.87443e-20
-3.51122e-05 0.000111639 6.42943e-20
-0.000236486 0.000386665 5.77638e-20
-0.000265384 -0.000143511 -5.35164e-20
0.00047136 -0.000223946 -3.38959e-19
0.000462971 0.000251423 1.73224e-20
0.000350258 -0.000133007 1.09543e-20
0.000346338 0.000135287 1.05763e-19
0.000158532 -8.57984e-05 -1.15528e-19
0.000159581 8.77862e-05 -6.66092e-20
-0.000136487 -6.39234e-05 -5.36415e-20
-0.000139197 6.46934e-05 1.86423e-20
0.000186467 8.71569e-05 3.44621e-20
0.000184088 -8.83901e-05 -8.43467e-20
5.74339e-05 0.000323906 1.5167e-19
5.51489e-05 -0.00032388 -1.33439e-19
-0.000131512 -3.06055e-05 -1.19728e-19
-0.000140326 3.42605e-05 3.05777e-20
-5.98434e-06 -0.000443947 2.11772e-19
-4.44378e-05 0.000452928 -6.2642e-20
0.000447494 -3.26414e-05 -1.86631e-19
-0.000394625 3.60961e-06 -1.96229e-19
0.000221664 -0.000209519 -1.70596e-19
0.00021955 0.000210128 1.69076e-19
-0.000207176 -0.000124702 -3.56025e-20
-0.000225404 -2.92473e-05 7.45009e-21
-0.000224154 3.72662e-05 -1.71675e-19
-0.000173871 0.000101921 -6.41202e-20
0.000148748 -0.00022897 -3.98436e-20
-0.000140645 0.000229938 -7.62149e-20
0.000222251 -0.00011939 -1.44425e-19
-4.18568e-05 -0.000204266 -5.73285e-20
0.000137924 0.00021491 -2.07928e-19
0.000227683 0.000119546 -1.5415e-19
-0.000155045 0.000125921 -7.82134e-20
-0.000156226 -0.000127014 -6.1045e-20
-4.05745e-05 -0.000421518 4.18336e-20
-3.87677e-05 0.000422044 1.61066e-20
0.000305573 -0.000305643 -2.50997e-19
0.000302889 0.000305155 1.22804e-19
2.05413e-05 -6.01105e-05 5.59735e-20
-3.21566e-05 -0.000238677 1.51907e-19
-2.45709e-05 0.000227537 -1.04115e-19
4.68912e-05 -0.000136564 -1.7887e-19
4.75135e-05 0.00013675 1.24643e-19
-0.000265384 -0.000143511 -6.11235e-20
-1.07524e-05 0.000188046 -7.09927e-20
-1.22356e-05 -0.000186175 -1.14022e-19
1.93024e-05 -0.000191756 2.76766e-20
2.15537e-05 0.000193775 -3.46362e-20
3.10245e-05 5.34892e-05 -6.39631e-20
2.54533e-05 -5.42559e-05 -2.60936e-19
-2.45709e-05 0.000227537 -6.15036e-21
-0.000136487 -6.39234e-05 1.6321e-19
0.000346102 -0.000134301 -1.85102e-19
0.000342187 0.00013658 2.23673e-20
0.000227683 0.000119546 -6.75521e-20
0.000148956 0.000166115 4.61448e-20
0.000150289 -0.000164955 3.66814e-20
0.000453192 -0.000145831 -7.80222e-20
0.000350258 -0.000133007 1.74925e-19
0.000446447 0.000145134 1.71675e-19
0.000346338 0.000135287 -8.09403e-20
-0.000287368 0.000215064 -1.93851e-19
-3.71451e-05 -0.000109707 -1.63732e-19
-3.51122e-05 0.000111639 2.54896e-19
0.000158532 -8.57984e-05 -4.13408e-20
0.000159581 8.77862e-05 -1.61999e-20
0.000218782 -0.000410178 -1.39195e-19
0.000223366 0.000411798 1.43349e-19
0.000222251 -0.00011939 -1.90744e-19
0.000172157 -3.03524e-05 -1.76526e-19
-0.000141034 -4.17326e-05 -2.94296e-19
-0.000463135 -6.38924e-06 3.45219e-19
-0.000461944 8.61436e-06 -3.10068e-20
-3.54407e-05 -0.000120428 -1.16594e-20
-3.16808e-05 0.000129178 -2.06556e-20
-0.000173871 0.000101921 -1.23755e-19
0.000107442 0.000107841 2.40324e-20
0.000105313 -0.000106361 -1.72563e-19
-5.98434e-06 -0.000443947 -4.18574e-19
-4.44378e-05 0.000452928 7.64804e-20
-0.000394625 3.60961e-06 -1.19475e-19
0.000447494 -3.26414e-05 -3.11723e-20
-0.000164149 -9.64612e-05 -2.78691e-19
3.781e-05 -0.000138727 -1.19809e-19
3.67388e-05 0.000136795 -4.08184e-20
0.000647916 0.000524833 -3.87573e-20
2.15537e-05 0.000193775 6.86544e-20
-3.21321e-05 -0.000416694 2.38369e-20
-0.000394625 3.60961e-06 5.60276e-20
-3.51122e-05 0.000111639 1.98116e-19
-3.71451e-05 -0.000109707 -1.82132e-20
-1.22356e-05 -0.000186175 -1.49688e-19
-0.000141034 -4.17326e-05 8.54808e-20
1.93024e-05 -0.000191756 -1.84511e-20
0.000221664 -0.000209519 -9.78368e-20
0.00021955 0.000210128 -1.11692e-19
0.000145031 -5.58986e-05 -1.04051e-19
0.000142085 6.33607e-05 -7.04447e-20
-0.000265384 -0.000143511 -1.15746e-21
-1.07524e-05 0.000188046 1.77295e-19
-0.000173871 0.000101921 1.22583e-19
-0.000131512 -3.06055e-05 3.78707e-20
-0.000140326 3.42605e-05 3.73313e-20
-0.000136487 -6.39234e-05 2.84524e-22
0.000615235 -0.000503289 -2.64902e-19
-1.07417e-05 0.000409469 8.2017e-20
-5.98434e-06 -0.000443947 -1.37831e-20
0.000424902 -1.32294e-05 -2.27687e-19
0.000148748 -0.00022897 -1.48983e-19
-0.000140645 0.000229938 -8.75812e-20
0.000159581 8.77862e-05 -6.66092e-20
0.000158532 -8.57984e-05 -4.80944e-20
0.000197055 0.000149717 1.39845e-19
0.000190822 -6.33744e-05 -1.37593e-19
0.000191273 6.68938e-05 -9.02125e-20
0.000222251 -0.00011939 -1.72293e-19
0.000227683 0.000119546 -4.57243e-20
0.000524321 0.000645042 2.20011e-19
0.000647916 0.000524833 7.1618e-20
-0.000131512 -3.06055e-05 -5.0868e-20
-0.000140326 3.42605e-05 1.1399e-19
5.74339e-05 0.000323906 -6.12828e-20
5.51489e-05 -0.00032388 8.34123e-20
-0.000147421 0.0002151 3.21387e-19
-0.000164811 -0.000107939 -2.0354e-20
0.000140495 -0.000153203 6.32449e-21
0.000139201 0.000155571 4.85064e-20
0.000191392 -6.56767e-05 8.05113e-20
0.000191111 6.59262e-05 5.89213e-20
3.77848e-05 -0.000214218 -4.25387e-20
0.000203632 -5.07233e-05 9.76501e-21
-0.000263956 -3.74784e-05 -4.25597e-21
-3.9024e-05 0.000210485 4.34521e-19
0.00034871 -0.00013489 1.27021e-19
0.000348358 0.000135285 -4.61448e-20
-0.000174311 8.77457e-05 2.57972e-19
-0.000173312 -0.000102473 1.94089e-19
1.79555e-06 0.000198499 4.92166e-19
-3.70385e-06 -0.00019932 4.53675e-20
-2.22067e-05 -0.000196828 1.30024e-19
1.93551e-05 0.000191118 1.59952e-19
0.000171813 -3.20544e-05 -8.87387e-20
0.000108583 0.000100139 -1.11114e-20
-3.68023e-05 0.000109298 5.5245e-19
3.51302e-05 -0.000109958 7.13495e-20
-0.000293599 0.000201462 3.42089e-19
-0.000262782 -0.000143961 -9.14804e-20
0.000270447 -0.00038773 -9.16864e-20
0.000468621 0.000230717 -3.42996e-20
0.00034871 -0.00013489 1.17413e-19
0.000348358 0.000135285 -2.98854e-19
0.000158901 -8.6625e-05 -3.42561e-20
0.000158608 8.67892e-05 -5.50858e-20
-0.000136077 6.46445e-05 1.073e-19
-0.000138437 -6.42072e-05 1.59769e-19
0.000184377 8.81414e-05 1.07967e-19
0.000185522 -8.75187e-05 6.69979e-20
5.4536e-05 0.000323566 5.80254e-19
-5.57353e-05 -0.000323197 -9.6537e-20
-0.000130786 3.07162e-05 1.4563e-19
-0.000133634 -3.21139e-05 3.83544e-21
-6.12647e-06 -0.00042483 -1.1204e-19
1.81259e-05 0.000445125 3.43722e-19
0.000452712 -2.73714e-06 -7.95769e-21
-0.000447733 -5.69401e-05 -2.07575e-20
0.000220778 -0.000210603 -1.48768e-19
0.000219907 0.000211388 -5.02818e-20
-0.000170351 9.95527e-05 2.32419e-19
-0.000224999 2.93207e-05 1.34217e-19
-0.000224788 -2.93277e-05 1.18887e-20
-0.000177714 -0.000106095 1.32743e-19
0.000148563 -0.000227182 -1.15647e-19
0.0001466 0.00022841 1.35104e-19
0.000225601 0.000119115 1.41327e-19
-0.000147421 0.0002151 3.64329e-19
-4.39135e-05 -0.000202578 9.12977e-20
0.00022577 -0.000118935 -9.8939e-20
-0.000157689 0.000125029 2.82161e-19
0.000155613 -0.000126874 7.26958e-20
4.01812e-05 -0.000421045 -1.71896e-19
-4.14685e-05 0.000421492 3.47836e-19
0.000304769 -0.000306401 -1.2553e-19
0.000304874 0.000307236 -2.30405e-19
2.14912e-05 6.03813e-05 -1.28368e-19
-3.20981e-05 0.000238397 3.89792e-20
-2.46054e-05 -0.000227327 -5.38965e-20
4.66912e-05 0.000135981 3.97451e-19
-4.45007e-05 -0.000142063 1.29039e-20
-1.24316e-05 0.000185948 4.0162e-19
1.11455e-05 -0.000185272 -1.16781e-19
-0.000262782 -0.000143961 1.00358e-19
-2.22067e-05 -0.000196828 1.70494e-19
1.93551e-05 0.000191118 4.11947e-19
-0.000121193 -8.2182e-05 1.02101e-19
-0.000293599 0.000201462 1.81304e-19
2.91705e-05 5.27543e-05 -2.61561e-20
-2.46054e-05 -0.000227327 -7.38635e-21
-0.000136077 6.46445e-05 3.30905e-19
0.000344617 -0.000136165 2.39457e-19
0.000344181 0.000136586 -2.3478e-19
0.00022577 -0.000118935 -7.17848e-20
0.000148199 0.000166741 3.94083e-20
0.000149707 -0.00016622 -4.52571e-20
0.000450194 -0.00014588 -2.0238e-19
0.00034871 -0.00013489 -2.6769e-19
0.000449888 0.000146076 -8.00355e-20
0.000348358 0.000135285 -2.3532e-19
-3.68023e-05 0.000109298 4.07976e-19
0.000158901 -8.6625e-05 -9.05141e-21
0.000158608 8.67892e-05 8.93885e-20
0.000218369 0.000409934 4.86096e-19
-0.000220206 -0.000410083 1.53683e-19
-1.60438e-05 -3.99781e-05 1.60547e-19
0.000225601 0.000119115 2.667e-20
0.000171813 -3.20544e-05 -5.82077e-20
-0.000140655 4.09944e-05 1.47779e-19
-0.000121193 -8.2182e-05 2.08246e-19
-0.000462212 6.41385e-06 -4.17528e-20
-0.000462382 -7.51934e-06 -1.91208e-22
-3.52814e-05 0.000118864 4.06931e-19
-0.000177714 -0.000106095 2.30707e-19
0.000105755 0.00010721 7.4123e-20
-6.12647e-06 -0.00042483 -5.38328e-20
1.81259e-05 0.000445125 4.78799e-20
-0.000447733 -5.69401e-05 -2.15972e-19
0.000452712 -2.73714e-06 -2.03695e-19
0.000105712 -0.000106944 -5.31192e-20
-0.000163797 9.67142e-05 3.47993e-19
3.71913e-05 -0.000139834 2.73455e-20
3.48092e-05 0.00013593 -5.67975e-20
-0.000648216 0.000528446 1.04776e-19
-2.22067e-05 -0.000196828 1.80306e-20
-1.22373e-05 -0.000417133 -4.45007e-19
0.000425602 -2.79102e-05 1.09837e-19
-3.68023e-05 0.000109298 4.74364e-19
-1.24316e-05 0.000185948 5.57983e-19
-0.000140655 4.09944e-05 3.7262e-19
1.93551e-05 0.000191118 1.70605e-19
-0.000262782 -0.000143961 -1.55014e-19
0.000220778 -0.000210603 7.87358e-20
0.000219907 0.000211388 -1.45392e-19
0.000146977 5.92073e-05 3.99307e-20
0.000144216 -5.86272e-05 1.92751e-20
1.11455e-05 -0.000185272 -5.64322e-20
-0.000177714 -0.000106095 1.55093e-19
-1.60438e-05 -3.99781e-05 8.77872e-20
-0.000130786 3.07162e-05 2.92576e-19
-0.000133634 -3.21139e-05 1.49737e-19
-0.000136077 6.46445e-05 2.99329e-19
0.000637747 0.000505556 -2.20098e-19
-6.12647e-06 -0.00042483 6.32962e-20
4.0572e-06 0.000431348 2.21963e-19
0.000452712 -2.73714e-06 -2.38839e-19
0.000148563 -0.000227182 -8.19299e-20
0.0001466 0.00022841 2.08298e-20
0.000158608 8.67892e-05 1.66047e-19
-0.000293599 0.000201462 4.88322e-19
0.000158901 -8.6625e-05 -4.8808e-20
0.000191392 -6.56767e-05 7.90841e-20
0.000191111 6.59262e-05 1.07903e-19
0.000225601 0.000119115 6.12914e-20
0.00022577 -0.000118935 -1.97426e-19
-0.000528288 0.000656314 5.35671e-19
-0.000648216 0.000528446 6.97279e-20
-0.000130786 3.07162e-05 1.24706e-19
-0.000133634 -3.21139e-05 -8.20489e-20
-5.57353e-05 -0.000323197 -1.39148e-19
5.4536e-05 0.000323566 3.7552e-20
-0.000144048 0.000232314 3.49817e-19
-0.000157145 -0.000149912 7.7831e-20
0.000140952 -0.00015369 2.74558e-20
0.000139494 0.000155561 -2.39049e-20
0.000191331 -6.6717e-05 -9.41117e-20
0.000190743 6.34324e-05 7.33628e-20
3.90562e-05 -0.000213813 -5.72095e-20
0.000210463 -5.22921e-05 -8.5948e-20
-0.000295841 -6.69676e-05 3.28118e-21
-3.62533e-05 0.000213325 7.45863e-21
0.000346587 -0.000134932 1.01753e-19
0.000350207 0.000133303 -2.33655e-19
-0.000174487 -8.75527e-05 -1.09203e-19
-0.000172626 0.000101004 -3.35891e-20
3.7319e-06 0.000199316 -2.03982e-19
-2.4992e-06 -0.000198653 -6.64317e-21
-2.05453e-05 -0.00019517 2.37223e-20
2.01749e-05 0.000193625 1.03598e-19
0.000172353 -3.15667e-05 -3.32409e-20
0.000110025 9.88675e-05 -1.36183e-19
-3.53637e-05 0.000112166 -2.48096e-19
3.64991e-05 -0.000110001 1.11913e-19
-0.000236711 0.000386507 3.37595e-19
-0.000265677 -0.00014385 5.16772e-20
0.00047141 -0.000224305 -1.86214e-19
0.000462665 0.000250856 -1.08387e-19
0.000346587 -0.000134932 2.08127e-20
0.000350207 0.000133303 6.80364e-20
0.000159355 -8.75975e-05 -5.77319e-20
0.000158754 8.59188e-05 1.47074e-19
-0.000136479 -6.39522e-05 -1.83919e-21
-0.000139161 6.46578e-05 2.99278e-20
0.000185991 8.58763e-05 -5.07172e-20
0.000184809 -8.94289e-05 -1.9046e-19
5.54073e-05 0.000324054 -1.40129e-19
-5.39795e-05 -0.00032338 -6.04589e-20
-0.00013184 -3.11384e-05 5.34378e-20
-0.000140243 3.46055e-05 1.7453e-20
-5.39312e-06 -0.000444833 6.65773e-20
-4.47565e-05 0.000452575 -1.6573e-19
0.000447374 -3.31491e-05 -1.37431e-19
-0.000394762 3.51435e-06 4.10796e-20
0.000220309 -0.000209608 -1.12992e-19
0.000221071 0.000209986 -3.55762e-19
-0.000207136 -0.000124932 4.61277e-21
-0.000227685 -2.43375e-05 -3.31305e-21
-0.000223724 3.75986e-05 -1.26023e-20
-0.00017386 0.000101963 1.58945e-19
0.0001491 -0.000225516 -3.82065e-21
-0.000140967 0.000230016 -2.12099e-20
0.000222306 -0.000119831 -1.10288e-19
-4.28967e-05 -0.000204006 -5.33889e-20
0.000137043 0.000214177 -3.168e-20
0.000227431 0.000118445 -3.5405e-20
-0.000155958 0.000126799 7.95598e-20
0.000159566 -0.000123904 6.37719e-20
-4.02604e-05 0.000421635 -2.84807e-19
4.28225e-05 -0.000422128 2.18916e-20
0.000302746 -0.000304378 -1.04718e-19
0.000305829 0.000306411 -2.17327e-19
2.10868e-05 -6.14834e-05 -1.17129e-19
-3.21469e-05 -0.000238661 -1.87875e-19
-2.45651e-05 0.00022743 -8.85008e-20
4.73431e-05 0.000137303 7.79118e-20
-4.28774e-05 -0.000142007 8.22867e-20
-0.000265677 -0.00014385 1.8388e-19
-1.13529e-05 0.000188345 -9.5095e-20
1.24458e-05 -0.0001849 1.42389e-19
-2.05453e-05 -0.00019517 2.69078e-20
2.01749e-05 0.000193625 -2.06413e-19
-0.000123244 -8.3832e-05 3.03484e-20
2.53015e-05 5.42309e-05 3.80278e-20
-2.45651e-05 0.00022743 -4.87443e-20
-0.000136479 -6.39522e-05 -5.47205e-20
0.00034247 -0.000136214 -9.20347e-20
0.000346078 0.000134589 -2.1652e-19
0.000227431 0.000118445 -6.64584e-20
0.000149126 0.000165126 -8.35864e-20
0.000150265 -0.00016588 -1.36294e-19
0.00044663 -0.000144939 3.60144e-20
0.000346587 -0.000134932 -1.06255e-19
0.000453284 0.000146054 4.14216e-20
0.000350207 0.000133303 -1.21521e-19
-0.000287547 0.000215062 2.25642e-19
-3.53637e-05 0.000112166 -8.26987e-20
0.000159355 -8.75975e-05 -1.55696e-19
0.000158754 8.59188e-05 -1.57472e-19
0.000219068 0.000410384 -2.82097e-19
-0.000219007 -0.000410421 1.47431e-20
-1.43964e-05 -4.04052e-05 -1.28402e-20
0.000222306 -0.000119831 -4.62319e-20
0.000172353 -3.15667e-05 -1.45757e-19
-0.00014103 -4.17918e-05 5.51962e-20
-0.000123244 -8.3832e-05 7.61449e-20
-0.0004618 -7.2339e-06 -1.26877e-19
-0.000462161 8.14133e-06 1.49958e-19
-3.19583e-05 0.000129575 -1.09003e-19
-0.00017386 0.000101963 -1.12559e-21
0.000105842 0.000106268 -1.11216e-19
-5.39312e-06 -0.000444833 -1.2916e-19
-4.47565e-05 0.000452575 -2.42054e-20
-0.000394762 3.51435e-06 -3.36295e-20
0.000447374 -3.31491e-05 2.16654e-20
0.000106386 -0.000107825 2.22399e-20
-0.000163983 -9.66161e-05 7.31716e-20
3.90217e-05 -0.000139624 -5.873e-20
3.56592e-05 0.000135806 -2.33188e-20
0.000647751 0.000524493 -4.07664e-19
2.01749e-05 0.000193625 1.77142e-20
-2.05453e-05 -0.00019517 1.1032e-19
-3.18484e-05 -0.000417077 -3.05947e-19
-0.000394762 3.51435e-06 -7.82601e-20
-3.53637e-05 0.000112166 -1.95215e-19
-0.00014103 -4.17918e-05 1.08791e-19
0.000220309 -0.000209608 -1.12992e-19
0.000221071 0.000209986 -4.73171e-20
0.000147519 5.64706e-05 -1.38022e-19
0.000141986 -6.33006e-05 -4.7869e-21
-0.000265677 -0.00014385 7.20778e-20
-1.13529e-05 0.000188345 -7.0604e-20
1.24458e-05 -0.0001849 -9.93362e-20
-0.00017386 0.000101963 1.67126e-19
-1.43964e-05 -4.04052e-05 1.68536e-19
-0.00013184 -3.11384e-05 -1.33647e-19
-0.000140243 3.46055e-05 -7.75169e-21
-0.000136479 -6.39522e-05 1.41399e-20
0.000615266 -0.000503644 5.39793e-20
-1.11976e-05 0.000409295 -7.4036e-20
-5.39312e-06 -0.000444833 -6.18223e-21
0.000425057 -1.39742e-05 -2.13872e-19
-0.000140967 0.000230016 4.02936e-19
0.0001491 -0.000225516 8.56316e-20
0.000158754 8.59188e-05 2.59945e-21
0.000196455 0.000148681 1.1399e-19
0.000159355 -8.75975e-05 9.70128e-21
0.000191331 -6.6717e-05 -1.59073e-19
0.000190743 6.34324e-05 -6.96844e-20
0.000222306 -0.000119831 -8.59884e-20
0.000227431 0.000118445 -1.2947e-19
0.000523963 0.000644642 -1.42963e-19
0.000647751 0.000524493 -1.76866e-20
-0.00013184 -3.11384e-05 -3.95824e-20
-0.000140243 3.46055e-05 1.88177e-19
-5.39795e-05 -0.00032338 2.18882e-19
5.54073e-05 0.000324054 -4.42202e-19
-0.00014742 0.00021506 -1.72404e-19
-0.000158446 -0.000114686 -2.66148e-20
0.000149561 -0.000190976 -1.2878e-19
0.000140323 0.00015164 -4.24198e-20
0.0001881 5.96322e-05 -2.14796e-20
0.000168794 -0.000121721 -4.53037e-20
-2.38447e-05 -0.000222914 -6.16948e-20
0.000206158 3.98249e-05 -9.15123e-20
-0.000260056 -4.11425e-05 -1.73109e-19
-3.80005e-05 0.000210259 -1.78745e-19
0.000341723 0.000128333 4.35283e-20
0.000267185 -0.000161779 1.41922e-19
-0.000166031 -0.000106691 -8.92611e-20
-0.000172932 8.73271e-05 -1.70724e-19
3.34925e-06 0.000197544 1.19032e-19
2.95531e-05 -0.000203078 -1.64922e-19
5.47748e-05 -0.000218751 -7.14849e-21
2.10392e-05 0.00019007 -7.38766e-20
0.000172339 1.99799e-05 -9.12744e-20
0.000100303 -0.000118543 -1.06238e-19
-2.33165e-05 -0.000113069 -2.78212e-20
-3.6282e-05 0.000108974 -9.33515e-20
-0.000296679 0.000201126 -1.32949e-19
-0.000258298 -0.000154 -1.40146e-19
0.000492874 -0.00024959 -1.219e-19
0.000269515 0.000379183 1.28455e-19
0.000341723 0.000128333 -1.49546e-19
0.000267185 -0.000161779 -1.00517e-19
0.000158326 8.23282e-05 1.27544e-19
0.000157781 -0.000138593 -1.85641e-19
-0.000133612 6.25742e-05 -5.02818e-20
-0.000131467 -6.85589e-05 -2.02601e-19
0.000187078 7.85811e-05 1.50561e-19
0.000186957 -0.000112057 -2.20341e-19
8.25441e-05 -0.000280826 6.61335e-20
5.51276e-05 0.000320653 -1.32093e-19
-0.000129865 3.06629e-05 -9.54285e-20
-0.000128615 -4.11817e-05 3.59757e-21
3.8827e-06 -0.000472531 4.05572e-20
4.63051e-05 0.00045507 -1.72174e-19
0.000470754 -8.25618e-06 1.53526e-20
-0.000452055 -6.70232e-05 -1.64993e-19
0.00021558 0.000200741 -3.72849e-19
0.000175444 -0.000210469 8.54894e-20
-0.00016864 9.80081e-05 -1.82914e-19
-0.000214517 -3.98168e-05 7.26492e-20
-0.000223451 2.92725e-05 -2.21592e-19
-0.000171376 -0.000110595 -7.40593e-20
0.000163257 -0.000256869 -2.62434e-19
0.000153943 0.000226925 -1.41881e-19
0.0002313 -0.000145368 -1.65334e-20
-0.00014742 0.00021506 -1.93518e-19
-2.68189e-05 -0.000215202 7.03109e-20
0.000229168 0.000111481 1.24341e-19
-0.000153717 0.000125284 -2.76766e-20
-5.56546e-05 -0.000155281 -1.54808e-19
-3.93917e-05 0.000417054 -3.36699e-20
1.79338e-05 -0.000346741 -5.56082e-20
0.00029782 0.000297114 -4.68974e-19
0.000246269 -0.000283091 1.49053e-19
1.885e-05 -7.04468e-05 -3.00565e-19
-2.78965e-05 0.000238442 -1.93074e-19
-1.6732e-05 -0.000228139 -5.4593e-20
5.9407e-05 -0.000138087 3.66814e-20
4.69634e-05 0.000135582 1.12389e-19
6.29641e-06 -0.000191577 1.05882e-19
-1.15242e-05 0.000185832 1.37213e-19
-0.000258298 -0.000154 -2.39155e-19
5.47748e-05 -0.000218751 -1.11866e-19
2.10392e-05 0.00019007 -4.30144e-20
-0.000296679 0.000201126 -3.06336e-19
2.64069e-05 5.28955e-05 -7.62422e-21
7.29656e-05 -0.000118963 -2.36158e-21
-1.6732e-05 -0.000228139 -1.76908e-20
-0.000133612 6.25742e-05 -1.19142e-19
0.000338631 0.000129296 8.5948e-20
0.000257162 -0.000164903 5.50221e-20
0.000229168 0.000111481 8.45846e-20
0.000146491 0.000157593 -2.46512e-19
0.000128664 -0.000181353 -1.39195e-19
0.000442814 0.000141992 -1.15655e-19
0.000341723 0.000128333 -1.17225e-21
0.000320466 -0.000126666 1.92807e-19
0.000267185 -0.000161779 -2.63303e-20
-2.33165e-05 -0.000113069 1.2198e-19
-3.6282e-05 0.000108974 -1.79236e-19
0.000158326 8.23282e-05 -2.86281e-20
0.000157781 -0.000138593 -1.73561e-19
0.000216981 0.000406065 -3.34741e-19
0.000211178 -0.000350998 -3.89326e-20
0.0002313 -0.000145368 -2.77232e-19
0.000172339 1.99799e-05 7.02239e-20
-0.000138307 3.87589e-05 -2.5328e-19
-0.000446238 -1.19814e-05 1.1323e-19
-0.000459991 6.76941e-06 -2.22131e-19
-3.47437e-05 0.000118653 -1.66111e-19
-2.03043e-05 -0.000128125 1.05478e-19
-0.000171376 -0.000110595 -9.53648e-20
0.000106362 0.000102413 -1.96039e-19
0.000122705 -0.00015215 -2.15981e-19
3.8827e-06 -0.000472531 -2.84389e-19
4.63051e-05 0.00045507 -4.20079e-19
-0.000452055 -6.70232e-05 -3.17884e-19
0.000470754 -8.25618e-06 2.75025e-21
-0.000162614 9.61284e-05 -9.9676e-20
3.12828e-05 0.000128385 -5.20445e-19
2.69346e-05 -0.000143287 -1.79754e-20
-0.000657302 0.000530387 1.94556e-19
-2.86342e-05 -0.000438692 -5.18527e-19
0.000438452 2.17347e-05 3.41721e-20
-3.6282e-05 0.000108974 2.44911e-20
-2.33165e-05 -0.000113069 4.77928e-20
-1.15242e-05 0.000185832 -6.59912e-20
6.29641e-06 -0.000191577 -2.84625e-20
-0.000138307 3.87589e-05 -1.66491e-19
5.47748e-05 -0.000218751 4.57328e-20
2.10392e-05 0.00019007 -2.26863e-19
-0.000258298 -0.000154 -4.99802e-20
0.00021558 0.000200741 -3.72504e-21
0.000175444 -0.000210469 4.9632e-20
0.000140554 -6.30494e-05 2.89152e-19
0.000140125 -5.02126e-05 -5.77319e-20
-0.000171376 -0.000110595 -1.0459e-19
-0.000128615 -4.11817e-05 -2.94054e-20
-0.000129865 3.06629e-05 -1.37657e-19
-0.000133612 6.25742e-05 -1.32267e-19
0.000663549 -0.000525216 -5.21666e-19
3.8827e-06 -0.000472531 -5.14556e-19
1.06619e-05 0.000412561 -1.10668e-19
0.000470754 -8.25618e-06 -2.00977e-19
0.000163257 -0.000256869 -2.04226e-19
0.000153943 0.000226925 2.15667e-20
0.000158326 8.23282e-05 -1.30314e-20
0.000157781 -0.000138593 -3.74434e-19
-0.000296679 0.000201126 -3.12898e-19
0.0001881 5.96322e-05 1.52099e-19
0.000168794 -0.000121721 -2.32007e-19
0.0002313 -0.000145368 7.95769e-21
0.000229168 0.000111481 3.50801e-20
-0.000531396 0.000651299 2.76324e-19
-0.000657302 0.000530387 -7.82919e-20
-0.000128615 -4.11817e-05 2.24311e-20
-0.000129865 3.06629e-05 -1.60007e-19
8.25441e-05 -0.000280826 1.33567e-19
5.51276e-05 0.000320653 -3.68823e-19
2.05494e-05 -2.65948e-06 8.53152e-20
2.30105e-05 -3.03598e-06 6.48338e-20
1.05586e-05 -1.42367e-06 -8.18747e-20
2.29626e-05 3.01125e-06 -1.33155e-19
3.10995e-05 -4.05647e-06 -1.42554e-19
3.11528e-05 4.03103e-06 -1.29842e-19
2.67071e-05 -6.64091e-06 6.52458e-20
1.85687e-05 -2.08076e-06 -3.13892e-21
1.84276e-05 -1.78484e-06 2.26761e-19
3.3096e-05 2.75909e-06 1.48675e-19
5.24093e-05 -1.63683e-05 -2.06385e-20
5.2446e-05 1.63706e-05 -9.4048e-20
-8.36687e-06 -1.835e-05 8.09233e-20
-1.06006e-05 -6.81757e-06 -1.74063e-20
3.39736e-05 1.93426e-05 1.03592e-19
3.71719e-05 -1.72101e-05 2.62665e-20
4.38819e-05 5.03903e-06 -1.44521e-19
2.50668e-05 6.10123e-06 1.46012e-19
1.86787e-05 -2.14061e-06 -6.89071e-20
1.33787e-05 9.36877e-06 -2.50759e-19
4.23775e-05 -3.31278e-05 7.4947e-20
1.72729e-05 -7.72995e-06 1.43094e-19
2.08078e-05 -2.68897e-06 1.23645e-20
2.30841e-05 9.75034e-07 5.5829e-20
2.14376e-05 1.57066e-06 -1.94106e-19
2.44262e-05 2.35061e-07 1.80204e-19
5.24093e-05 -1.63683e-05 -4.4416e-20
5.2446e-05 1.63706e-05 -1.64336e-19
2.45901e-05 -1.33184e-06 6.56748e-20
2.45895e-05 1.27135e-06 -4.37661e-20
1.72078e-05 2.11249e-05 -2.25415e-20
1.85599e-05 -1.7908e-05 1.00088e-19
2.23129e-05 -4.15956e-06 -1.14831e-19
2.22881e-05 4.09573e-06 -2.66849e-19
7.32461e-05 9.331e-05 2.81057e-20
2.50471e-05 -8.81014e-05 -2.73455e-20
-4.19416e-06 -4.89134e-05 2.18534e-19
-4.54012e-06 4.78589e-05 -7.44246e-20
2.5756e-05 7.3247e-10 1.34803e-19
2.55179e-05 -3.91258e-07 -6.9162e-20
2.08933e-05 8.27449e-10 1.44109e-19
2.01185e-05 -2.30998e-08 2.27695e-19
3.26458e-05 -2.70501e-05 -6.26463e-20
3.26564e-05 2.71153e-05 -2.11589e-19
9.21505e-06 1.9677e-06 9.26379e-20
-7.03489e-05 -4.98945e-05 5.13266e-20
-7.00949e-05 4.98637e-05 -5.87471e-20
1.19627e-05 -1.62432e-06 1.97508e-20
2.46469e-05 -2.60597e-06 8.44104e-20
2.47012e-05 2.58687e-06 2.52684e-20
2.0586e-05 -2.75946e-06 6.37082e-20
2.05494e-05 -2.65948e-06 -1.61023e-19
2.93102e-05 6.44845e-06 -8.56464e-20
2.05999e-05 2.83635e-06 -1.78183e-20
-1.583e-05 1.77487e-05 2.50649e-19
0.000139171 2.03998e-05 9.5738e-21
3.51956e-05 0.000132121 8.57739e-20
7.45847e-05 -0.000138647 1.7865e-20
4.47516e-05 -4.22637e-05 4.86976e-20
4.47821e-05 4.22884e-05 -2.1847e-19
2.19016e-06 6.66347e-06 -3.09744e-19
7.02634e-05 0.000129068 1.0589e-20
7.62928e-05 -0.000121988 4.11667e-20
8.07031e-05 -2.08775e-05 -5.49754e-20
9.98984e-06 -1.06659e-05 1.21805e-19
4.5212e-05 -8.42082e-06 1.22519e-19
2.62888e-05 -6.18629e-06 -6.3789e-20
2.14376e-05 1.57066e-06 1.38498e-19
4.38819e-05 5.03903e-06 5.53066e-20
2.50668e-05 6.10123e-06 2.24607e-20
9.04496e-06 4.30678e-05 -1.99195e-19
2.08078e-05 -2.68897e-06 1.55412e-19
1.35945e-05 4.35412e-07 -4.39198e-21
7.62928e-05 -0.000121988 6.63713e-20
1.72078e-05 2.11249e-05 1.12707e-19
5.33942e-05 -1.60616e-05 -1.10248e-19
5.34339e-05 1.6063e-05 -1.51797e-19
2.05999e-05 2.83635e-06 -1.33851e-19
2.07185e-05 -1.96039e-05 -1.24596e-19
2.06362e-05 1.96209e-05 -1.83373e-19
6.90234e-05 -2.07802e-05 -1.37895e-19
5.24093e-05 -1.63683e-05 -4.33712e-20
6.9077e-05 2.07932e-05 7.85617e-20
5.2446e-05 1.63706e-05 5.28984e-20
4.23775e-05 -3.31278e-05 -4.67947e-20
2.45901e-05 -1.33184e-06 -6.28204e-20
2.45895e-05 1.27135e-06 -1.61609e-19
0.000175109 0.000156944 1.09853e-19
-3.90436e-05 -0.000119561 5.01077e-20
1.05382e-05 1.4806e-06 1.31205e-19
2.0586e-05 -2.75946e-06 -1.65223e-19
1.86787e-05 -2.14061e-06 -2.31833e-19
3.82323e-05 1.34294e-05 -3.13892e-21
9.04496e-06 4.30678e-05 -7.45988e-20
-0.000255563 4.11425e-05 -6.61972e-20
-0.000255391 -4.19614e-05 -2.24777e-20
4.3139e-05 -2.83362e-05 3.36062e-20
1.19627e-05 -1.62432e-06 -9.35302e-21
2.23573e-05 2.13407e-06 -1.23755e-19
2.5756e-05 7.3247e-10 1.35185e-19
2.55179e-05 -3.91258e-07 -5.17557e-20
2.01185e-05 -2.30998e-08 -2.11143e-20
2.08933e-05 8.27449e-10 1.0578e-19
2.23661e-05 -2.18091e-06 1.11042e-19
-2.08713e-05 -1.55787e-05 -1.09543e-20
4.40971e-06 -1.66617e-05 -1.78777e-19
4.41297e-06 1.63834e-05 -3.54857e-19
1.92625e-05 6.93437e-06 3.71571e-20
4.38819e-05 5.03903e-06 -6.50079e-20
2.5428e-05 3.44347e-07 5.47671e-20
2.09757e-05 -7.65841e-08 1.34663e-19
4.23775e-05 -3.31278e-05 -6.66729e-20
4.5212e-05 -8.42082e-06 -9.18605e-20
3.82323e-05 1.34294e-05 1.02624e-19
2.50668e-05 6.10123e-06 2.92142e-20
2.14376e-05 1.57066e-06 -8.93885e-20
3.26458e-05 -2.70501e-05 3.2846e-20
3.26564e-05 2.71153e-05 -8.98472e-20
2.66678e-05 1.32482e-05 -1.04573e-19
2.64929e-05 -1.32373e-05 -1.73892e-20
2.62888e-05 -6.18629e-06 1.44219e-19
1.19627e-05 -1.62432e-06 1.72024e-19
1.05382e-05 1.4806e-06 1.81614e-19
-4.19416e-06 -4.89134e-05 -2.78041e-20
-4.54012e-06 4.78589e-05 3.27651e-20
1.72078e-05 2.11249e-05 -9.81554e-20
1.95454e-05 6.70339e-06 3.89155e-20
2.58853e-05 4.68797e-08 -1.89906e-20
2.5756e-05 7.3247e-10 1.94438e-19
2.08933e-05 8.27449e-10 8.86021e-21
2.46469e-05 -2.60597e-06 1.63924e-19
2.47012e-05 2.58687e-06 -2.23924e-19
2.45895e-05 1.27135e-06 -1.23279e-19
2.08078e-05 -2.68897e-06 1.71172e-21
2.45901e-05 -1.33184e-06 -1.04004e-19
3.10995e-05 -4.05647e-06 -2.3272e-19
3.11528e-05 4.03103e-06 -7.69604e-20
2.0586e-05 -2.75946e-06 9.39967e-21
2.05999e-05 2.83635e-06 -3.3415e-20
2.74295e-05 1.75424e-07 7.92582e-21
1.92625e-05 6.93437e-06 -2.24777e-20
-4.54012e-06 4.78589e-05 -5.56424e-21
-4.19416e-06 -4.89134e-05 -1.39275e-19
7.32461e-05 9.331e-05 2.13521e-20
2.50471e-05 -8.81014e-05 1.00105e-19
-0.00013956 0.000227236 3.52394e-20
-0.000163476 -0.000106723 -1.32203e-19
0.000141508 -0.000150071 9.67749e-20
0.000149498 0.00019029 1.18365e-19
0.000168366 0.000121819 3.01691e-19
0.000187908 -5.99201e-05 3.09489e-19
3.96094e-05 -0.000212673 1.56775e-20
0.000206059 6.97697e-05 2.704e-19
-0.000263503 -3.47673e-05 -7.98295e-20
-2.28376e-05 0.000223206 1.14853e-20
0.000266605 0.000161648 3.11638e-20
0.00034172 -0.000128532 5.25232e-19
-0.000171372 -0.000101315 -1.84864e-19
-0.000167271 9.20945e-05 3.00927e-36
3.04592e-05 0.000203397 1.67585e-19
-2.55184e-06 -0.000197572 -1.42508e-19
-2.13662e-05 -0.000195804 -3.06664e-21
5.55044e-05 0.000218519 7.42334e-20
0.000168918 4.79831e-05 3.91887e-19
0.000106904 -9.01496e-05 1.94739e-19
-2.55416e-05 0.000111558 9.61888e-20
3.60889e-05 -0.000107866 9.24e-20
-0.000293815 0.000212852 8.50688e-20
-0.000261664 -0.000142711 -6.2829e-20
0.00048541 -0.000224295 3.44059e-19
0.00027869 0.000404652 -1.7952e-20
0.000266605 0.000161648 1.87718e-19
0.00034172 -0.000128532 1.30904e-19
0.00015747 0.000138475 7.36473e-20
0.000158815 -8.29939e-05 3.25469e-19
-0.000130365 6.68735e-05 1.47385e-21
-0.000135718 -6.2282e-05 6.69108e-20
0.000187279 0.000112056 9.59105e-20
0.000187127 -7.85945e-05 1.68441e-19
8.27077e-05 0.000281092 6.5182e-20
-5.44153e-05 -0.000319792 -2.90499e-19
-0.00012202 3.54815e-05 -1.92922e-20
-0.000132255 -3.21015e-05 -2.26634e-19
-5.81853e-06 -0.000447889 1.58945e-19
5.27464e-05 0.000476418 1.51979e-19
0.000468714 1.85122e-05 2.43507e-19
-0.000451646 -5.52918e-05 3.29595e-20
0.000175196 0.00020982 1.62148e-19
0.000215501 -0.000201412 4.37556e-19
-0.000165069 0.000104745 -1.77546e-21
-0.000222717 -2.93326e-05 -1.24277e-19
-0.000215815 3.40926e-05 -4.02665e-21
-0.000175803 -0.000104961 -9.82488e-20
0.000152143 -0.000223816 -8.45294e-20
0.000165196 0.000255872 7.32262e-21
0.00023023 -0.00011092 7.66462e-21
-0.00013956 0.000227236 -4.83641e-20
-4.24746e-05 -0.000201705 -1.38679e-19
0.00023008 0.000145503 4.17694e-19
-5.53222e-05 0.000155303 -4.65568e-20
0.000154548 -0.000125898 -1.68235e-19
4.04687e-05 -0.000416588 3.5676e-19
1.82139e-05 0.000346888 1.67602e-19
0.000245773 0.000282635 6.83676e-20
0.000297881 -0.000297324 7.77878e-19
1.91446e-05 -4.84236e-05 3.95153e-19
-2.61118e-05 0.00023876 7.68966e-20
-1.85091e-05 -0.00022756 -2.691e-19
5.94171e-05 0.000138706 2.55801e-19
-4.35543e-05 -0.000139972 -9.88986e-20
7.03964e-06 0.000195634 9.8852e-20
1.24081e-05 -0.000183116 -1.4563e-19
-0.000261664 -0.000142711 -1.49427e-19
-2.13662e-05 -0.000195804 -2.88447e-19
5.55044e-05 0.000218519 1.10091e-19
-0.000119973 -8.18003e-05 -2.15616e-19
-0.000293815 0.000212852 -5.19384e-20
7.45383e-05 0.000118625 5.60031e-20
-1.85091e-05 -0.00022756 -7.31716e-20
-0.000130365 6.68735e-05 1.24643e-19
0.000256514 0.000164793 1.87765e-19
0.00033857 -0.000129512 5.85755e-19
0.00023008 0.000145503 5.39436e-19
0.000129165 0.000181084 2.55007e-19
0.0001458 -0.000158013 3.56777e-19
0.000319665 0.000126439 3.12994e-19
0.000266605 0.000161648 -1.10647e-20
0.000442751 -0.000142055 5.6713e-19
0.00034172 -0.000128532 4.47146e-19
-2.55416e-05 0.000111558 8.5536e-20
0.00015747 0.000138475 1.79116e-20
0.000158815 -8.29939e-05 3.14816e-19
0.000211183 0.000351169 -4.55416e-20
-0.000216656 -0.000405387 -3.55745e-19
-1.54879e-05 -3.733e-05 1.41556e-19
0.00023023 -0.00011092 3.05979e-19
0.000168918 4.79831e-05 3.11329e-19
-0.000138158 4.2979e-05 1.78104e-19
-0.000119973 -8.18003e-05 -1.77286e-19
-0.000459755 -8.11163e-06 -2.53248e-19
-0.000446827 1.06048e-05 -2.53571e-21
-2.33777e-05 0.000125162 -5.84455e-20
-0.000175803 -0.000104961 -2.59747e-19
0.000122952 0.000151823 1.2737e-19
-5.81853e-06 -0.000447889 -4.37683e-19
5.27464e-05 0.000476418 -1.51567e-19
-0.000451646 -5.52918e-05 -6.18892e-20
0.000468714 1.85122e-05 -1.64782e-20
0.000106124 -0.000103109 1.83912e-19
-0.000155401 0.000102219 -3.87414e-20
2.71517e-05 0.000146253 4.21657e-19
3.10956e-05 -0.00012515 3.97625e-19
-0.000657387 0.000541452 2.32189e-20
-2.13662e-05 -0.000195804 5.31914e-20
-3.41975e-05 -0.000418153 -3.92886e-19
0.000440577 4.46436e-05 1.76908e-20
-2.55416e-05 0.000111558 -7.73894e-20
7.03964e-06 0.000195634 -2.76937e-20
-0.000138158 4.2979e-05 -5.10188e-20
5.55044e-05 0.000218519 1.44521e-19
-0.000261664 -0.000142711 -2.08871e-19
0.000175196 0.00020982 2.98442e-19
0.000215501 -0.000201412 4.13778e-19
0.000139537 5.04274e-05 5.69717e-20
0.000142254 6.31565e-05 4.78136e-19
1.24081e-05 -0.000183116 -7.50108e-20
-0.000175803 -0.000104961 -1.37917e-20
-1.54879e-05 -3.733e-05 -6.21706e-20
-0.00012202 3.54815e-05 -4.69688e-20
-0.000132255 -3.21015e-05 -1.21916e-19
-0.000130365 6.68735e-05 1.21266e-20
0.000661144 -0.00050823 -6.1251e-20
-5.81853e-06 -0.000447889 -1.62433e-19
2.05039e-05 0.000437973 1.48333e-19
0.000468714 1.85122e-05 -6.47467e-20
0.000152143 -0.000223816 -2.49927e-19
0.000165196 0.000255872 -1.83611e-19
0.00015747 0.000138475 2.55024e-19
-0.000293815 0.000212852 -3.81e-20
0.000158815 -8.29939e-05 7.41868e-20
0.000168366 0.000121819 6.6006e-20
0.000187908 -5.99201e-05 3.33267e-19
0.00023023 -0.00011092 -9.22492e-20
0.00023008 0.000145503 1.53619e-19
-0.000540458 0.000675554 1.40728e-19
-0.000657387 0.000541452 5.40787e-19
-0.000132255 -3.21015e-05 -2.02474e-19
-0.00012202 3.54815e-05 1.35835e-19
-5.44153e-05 -0.000319792 2.70272e-19
8.27077e-05 0.000281092 -3.52542e-20

CELL_DATA 2380
TENSORS stress float
0.0234591 3.84476 -7.53734e-12
3.84476 5.28892 -1.37748e-11
-7.53734e-12 -1.37748e-11 0.138982

-1.72088 2.55765 1.8347e-11
2.55765 2.61093 -1.88764e-11
1.8347e-11 -1.88764e-11 -0.725849

-1.78815 2.05135 -5.97179e-12
2.05135 2.37253 -1.36757e-11
-5.97179e-12 -1.36757e-11 -0.741214

4.95606 1.1233 -1.38695e-11
1.1233 -4.28155 1.25177e-11
-1.38695e-11 1.25177e-11 -0.565508

6.63923 0.445369 7.80265e-12
0.445369 -2.09384 2.9236e-11
7.80265e-12 2.9236e-11 0.00545953

-5.69693 2.41854 -9.42475e-12
2.41854 -1.3027 -1.81069e-11
-9.42475e-12 -1.81069e-11 -2.95173

-5.80017 2.24249 -1.95856e-11
2.24249 -1.35351 1.46382e-11
-1.95856e-11 1.46382e-11 -2.93816

6.83161 -0.562911 1.60877e-11
-0.562911 -1.81595 -1.84339e-11
1.60877e-11 -1.84339e-11 0.115313

4.49703 0.092585 2.7643e-11
0.092585 -6.64068 2.60044e-12
2.7643e-11 2.60044e-12 -0.93416

1.85372 3.73563 2.16499e-11
3.73563 7.6197 -3.18382e-11
2.16499e-11 -3.18382e-11 0.474585

2.34839 -3.99479 -1.24491e-11
-3.99479 8.01496 -1.98462e-11
-1.24491e-11 -1.98462e-11 0.625378

7.11521 3.86515 -9.15253e-12
3.86515 3.00519 -2.48778e-11
-9.15253e-12 -2.48778e-11 0.541525

-3.23166 -3.16395 2.28724e-11
-3.16395 -0.491864 1.54085e-11
2.28724e-11 1.54085e-11 -2.31032

-3.29569 -3.58023 -8.23334e-12
-3.58023 -0.188316 8.37889e-12
-8.23334e-12 8.37889e-12 -2.34105

-2.78273 3.63637 -4.35977e-12
3.63637 3.42496 -2.95706e-11
-4.35977e-12 -2.95706e-11 -0.590113

-3.98193 4.35429 2.79204e-12
4.35429 2.1561 -1.90706e-11
2.79204e-12 -1.90706e-11 -0.890353

-5.88076 -1.65515 7.31809e-12
-1.65515 -1.47825 4.74815e-11
7.31809e-12 4.74815e-11 -3.01913

-5.85863 -1.78699 1.51199e-11
-1.78699 -1.44466 2.88954e-13
1.51199e-11 2.88954e-13 -3.04006

3.37695 1.65812 4.63265e-11
1.65812 -2.09247 -1.06062e-11
4.63265e-11 -1.06062e-11 -0.4167

1.61254 1.44547 2.90767e-13
1.44547 9.30054 3.74708e-11
2.90767e-13 3.74708e-11 0.878108

1.78156 -1.38245 1.58208e-11
-1.38245 9.57475 -1.7534e-11
1.58208e-11 -1.7534e-11 0.955979

8.71846 1.18562 8.91139e-12
1.18562 3.37399 -2.47546e-11
8.91139e-12 -2.47546e-11 1.06032

0.0535193 4.29449 2.50421e-11
4.29449 4.1945 -2.00345e-11
2.50421e-11 -2.00345e-11 -0.0762174

5.91452 -2.19612 3.46878e-12
-2.19612 -1.14038 -8.06655e-12
3.46878e-12 -8.06655e-12 -0.137799

0.811179 3.94107 -2.05166e-11
3.94107 2.14027 -2.03232e-11
-2.05166e-11 -2.03232e-11 -0.175856

0.0792683 4.29307 1.49762e-11
4.29307 5.44642 -1.71439e-11
1.49762e-11 -1.71439e-11 0.128827

5.2107 -0.929538 -6.64565e-12
-0.929538 -4.59443 -2.37197e-11
-6.64565e-12 -2.37197e-11 -0.544553

6.69453 3.32459 3.63144e-11
3.32459 13.0253 -2.80354e-11
3.63144e-11 -2.80354e-11 2.43418

4.05198 0.412872 3.46885e-12
0.412872 -6.65929 3.70816e-12
3.46885e-12 3.70816e-12 -1.03528

11.9802 3.33227 1.00921e-11
3.33227 7.86823 2.64914e-11
1.00921e-11 2.64914e-11 2.43975

-2.92826 0.52541 -4.17829e-11
0.52541 -0.965767 2.29192e-11
-4.17829e-11 2.29192e-11 -2.93586

-2.92565 0.179623 -3.37083e-12
0.179623 -1.04402 -1.75272e-11
-3.37083e-12 -1.75272e-11 -2.94666

-5.62302 1.8722 -1.04005e-11
1.8722 -9.08363 -1.27676e-15
-1.04005e-11 -1.27676e-15 -8.89637

-5.64989 -1.79585 8.57072e-11
-1.79585 -9.07334 1.73323e-11
8.57072e-11 1.73323e-11 -8.98124

9.75615 -1.39149 2.59141e-11
-1.39149 2.40153 -2.29018e-11
2.59141e-11 -2.29018e-11 1.11745

-1.81659 4.23673 1.79163e-11
4.23673 1.37998 3.63599e-11
1.79163e-11 3.63599e-11 -0.74141

-1.78476 0.777391 8.08938e-12
0.777391 -3.59596 -7.02978e-12
8.08938e-12 -7.02978e-12 -3.15304

-2.11598 -0.706517 -3.0241e-11
-0.706517 -3.82065 1.24233e-11
-3.0241e-11 1.24233e-11 -3.37741

5.0011 0.0092858 -1.4447e-11
0.0092858 -7.23515 7.88506e-12
-1.4447e-11 7.88506e-12 -0.853482

-0.313316 4.64696 3.59732e-11
4.64696 5.36817 2.79673e-12
3.59732e-11 2.79673e-12 0.0111633

5.39464 -2.84338 -3.13142e-12
-2.84338 1.38365 -1.79143e-11
-3.13142e-12 -1.79143e-11 0.321697

5.27339 -0.273801 1.37738e-11
-0.273801 -7.23726 -6.32004e-12
1.37738e-11 -6.32004e-12 -0.728411

0.0498682 -4.3034 1.20407e-11
-4.3034 4.42076 -5.58694e-12
1.20407e-11 -5.58694e-12 -0.066691

0.057491 -3.68754 1.0361e-12
-3.68754 5.39392 -1.04992e-11
1.0361e-12 -1.04992e-11 0.154977

-3.5903 4.89599 -8.13688e-12
4.89599 2.5803 1.21343e-11
-8.13688e-12 1.21343e-11 -0.821615

4.3954 -4.59296 9.82666e-12
-4.59296 2.68123 -5.10436e-12
9.82666e-12 -5.10436e-12 0.228518

6.04757 9.38119 2.28223e-11
9.38119 12.5073 4.89564e-12
2.28223e-11 4.89564e-12 2.98356

11.7719 9.27015 -2.77304e-11
9.27015 6.73276 -9.68707e-13
-2.77304e-11 -9.68707e-13 2.97639

-5.14163 -4.37645 -2.43654e-11
-4.37645 0.298863 1.02102e-11
-2.43654e-11 1.02102e-11 -1.83681

8.68406 3.93576 -1.85206e-11
3.93576 16.5985 -1.68283e-11
-1.85206e-11 -1.68283e-11 3.94158

15.015 3.52723 -1.56083e-11
3.52723 9.26216 1.84697e-11
-1.56083e-11 1.84697e-11 3.74729

-3.70163 -3.0735 1.27115e-11
-3.0735 -1.04594 -4.05441e-11
1.27115e-11 -4.05441e-11 -2.6658

-3.7169 3.062 -4.98842e-11
3.062 -1.08122 -3.54413e-11
-4.98842e-11 -3.54413e-11 -2.6657

3.73893 0.0887815 -1.92513e-13
0.0887815 -3.06172 -2.31457e-12
-1.92513e-13 -2.31457e-12 -0.318599

-4.14659 -2.67854 -1.40601e-11
-2.67854 -2.32249 1.77205e-11
-1.40601e-11 1.77205e-11 -3.01489

-4.15831 2.6703 8.08931e-12
2.6703 -2.33397 -7.04919e-11
8.08931e-12 -7.04919e-11 -3.00915

-2.59726 4.29384 1.80805e-11
4.29384 3.91347 -4.40167e-11
1.80805e-11 -4.40167e-11 -0.522377

-3.3863 1.75523 3.73663e-11
1.75523 -8.76128 -1.64666e-11
3.73663e-11 -1.64666e-11 -7.03331

-3.37075 -1.74217 2.50379e-12
-1.74217 -8.82362 1.82971e-11
2.50379e-12 1.82971e-11 -7.08706

-2.21922 -3.54689 -2.51354e-11
-3.54689 -0.370889 1.60849e-11
-2.51354e-11 1.60849e-11 -1.42411

-2.25558 3.52529 6.0191e-11
3.52529 -0.391317 8.86319e-12
6.0191e-11 8.86319e-12 -1.42335

7.75761 -3.81422 2.63499e-11
-3.81422 2.74297 -2.97675e-11
2.63499e-11 -2.97675e-11 0.64705

-7.95263 1.71371 9.32983e-12
1.71371 -3.49198 2.75424e-11
9.32983e-12 2.75424e-11 -6.77822

-7.9695 1.35509 -1.06524e-11
1.35509 -3.44179 2.48459e-11
-1.06524e-11 2.48459e-11 -6.74104

-0.406049 -4.73502 -5.07111e-11
-4.73502 5.38629 1.62825e-11
-5.07111e-11 1.62825e-11 -0.00449788

6.52668 -3.13474 -7.99597e-12
-3.13474 14.1125 -1.80866e-11
-7.99597e-12 -1.80866e-11 2.61938

13.4775 -3.10695 -1.07884e-11
-3.10695 6.91755 -1.40584e-11
-1.07884e-11 -1.40584e-11 2.59329

-3.76381 3.73968 -2.65199e-11
3.73968 2.74623 1.8278e-12
-2.65199e-11 1.8278e-12 -0.955229

-3.8591 3.477 -7.15124e-12
3.477 2.26809 -6.35743e-12
-7.15124e-12 -6.35743e-12 -0.997204

-8.55414 -5.18586 -2.71172e-10
-5.18586 -12.0211 1.80952e-10
-2.71172e-10 1.80952e-10 -10.9966

-8.55581 5.18437 -1.35586e-10
5.18437 -12.0119 5.10232e-11
-1.35586e-10 5.10232e-11 -10.9888

-3.90238 5.29942 -3.27387e-12
5.29942 1.8397 6.16405e-12
-3.27387e-12 6.16405e-12 -0.82822

0.337569 2.60722 -1.4253e-11
2.60722 -1.75971 -9.38971e-12
-1.4253e-11 -9.38971e-12 -0.972428

0.448775 -2.65287 -1.25208e-11
-2.65287 -1.77392 -9.53341e-12
-1.25208e-11 -9.53341e-12 -0.97311

-3.90731 5.06559 1.1653e-11
5.06559 0.779692 -1.75291e-11
1.1653e-11 -1.75291e-11 -1.17014

-4.95657 -4.6296 1.9164e-11
-4.6296 0.691203 9.24405e-12
1.9164e-11 9.24405e-12 -1.82005

9.2237 -0.0526314 -8.71792e-12
-0.0526314 0.65506 7.97092e-12
-8.71792e-12 7.97092e-12 0.648191

7.35859 2.06933 3.18366e-11
2.06933 -0.386455 1.98676e-11
3.18366e-11 1.98676e-11 0.271833

-1.06554 0.841148 9.62267e-13
0.841148 -6.68548 -4.33357e-13
9.62267e-13 -4.33357e-13 -3.15176

-10.5666 -1.29731 -1.07663e-10
-1.29731 -11.2356 -8.85828e-12
-1.07663e-10 -8.85828e-12 -11.8231

-10.4937 1.11665 9.60898e-13
1.11665 -11.0735 -2.03194e-11
9.60898e-13 -2.03194e-11 -11.7107

4.83405 3.83265 -2.40696e-12
3.83265 6.77399 -4.81482e-12
-2.40696e-12 -4.81482e-12 1.00291

1.37406 -3.34517 -1.68549e-11
-3.34517 -0.278919 -1.7625e-11
-1.68549e-11 -1.7625e-11 -0.627016

3.52944 2.00685 4.30534e-11
2.00685 -0.737881 2.28024e-11
4.30534e-11 2.28024e-11 -0.153989

-9.48373 1.09584 -6.94658e-11
1.09584 -6.38585 1.46358e-11
-6.94658e-11 1.46358e-11 -8.90708

-9.45666 0.933618 5.4242e-11
0.933618 -6.35619 2.04164e-11
5.4242e-11 2.04164e-11 -8.91154

-1.42072 -0.616707 -2.31138e-11
-0.616707 -6.73064 2.8891e-12
-2.31138e-11 2.8891e-12 -3.36985

-1.96648 -1.30766 5.54936e-12
-1.30766 2.36996 1.2039e-11
5.54936e-12 1.2039e-11 -0.88665

-1.9621 -1.77941 2.53529e-11
-1.77941 2.52643 -1.32929e-11
2.53529e-11 -1.32929e-11 -0.884626

2.09148 -1.23208 -3.10117e-11
-1.23208 -3.72378 4.05677e-11
-3.10117e-11 4.05677e-11 -0.704012

2.06142 1.24597 -9.05305e-12
1.24597 -3.82341 -7.10125e-12
-9.05305e-12 -7.10125e-12 -0.711342

6.24052 -3.80363 7.23421e-13
-3.80363 6.12411 1.13195e-11
7.23421e-13 1.13195e-11 1.07337

5.58549 0.237246 6.35743e-12
0.237246 -0.290133 -4.54505e-11
6.35743e-12 -4.54505e-11 0.160226

-0.267277 -1.86799 7.32051e-12
-1.86799 -3.63669 -2.27495e-11
7.32051e-12 -2.27495e-11 -1.53882

-0.328784 1.85038 1.81054e-11
1.85038 -3.62578 2.6291e-11
1.81054e-11 2.6291e-11 -1.53278

3.58559 -2.08261 3.05308e-11
-2.08261 -0.56461 -3.19978e-11
3.05308e-11 -3.19978e-11 -0.128176

-0.0093794 -4.312 3.22535e-12
-4.312 5.65216 3.70831e-11
3.22535e-12 3.70831e-11 0.1575

2.24411 -1.38701 -5.02732e-11
-1.38701 -2.87325 1.19421e-11
-5.02732e-11 1.19421e-11 -0.704387

2.1949 1.39967 -1.09793e-11
1.39967 -2.98452 -1.52145e-11
-1.09793e-11 -1.52145e-11 -0.713563

3.98959 -0.909376 -2.1961e-11
-0.909376 -3.09115 1.74315e-11
-2.1961e-11 1.74315e-11 -0.50153

-3.42221 6.0507 -9.727e-12
6.0507 2.16257 -9.53619e-12
-9.727e-12 -9.53619e-12 -0.793323

4.33851 3.33486 1.47395e-11
3.33486 2.84618 2.53345e-11
1.47395e-11 2.53345e-11 0.418195

-4.20747 5.12005 -9.62908e-12
5.12005 1.93409 1.71432e-11
-9.62908e-12 1.71432e-11 -0.888575

-3.809 5.71736 -8.90721e-12
5.71736 2.51381 1.55051e-11
-8.90721e-12 1.55051e-11 -0.781534

5.52455 2.47543 -2.20603e-11
2.47543 0.112441 -1.76757e-11
-2.20603e-11 -1.76757e-11 0.00486554

-0.405167 -2.0479 1.05961e-11
-2.0479 -3.41956 -3.265e-11
1.05961e-11 -3.265e-11 -1.59929

4.23939 1.12029 -6.54876e-12
1.12029 -2.32071 2.69671e-11
-6.54876e-12 2.69671e-11 -0.325388

1.9471 4.21925 8.81554e-12
4.21925 3.04753 3.02938e-11
8.81554e-12 3.02938e-11 -0.123264

1.11027 3.42521 -3.07262e-11
3.42521 -0.250063 -1.90719e-11
-3.07262e-11 -1.90719e-11 -0.674581

-4.77121 0.296355 2.86398e-11
0.296355 1.59922 2.21489e-12
2.86398e-11 2.21489e-12 -1.55121

-4.72658 0.468993 1.91538e-11
0.468993 1.61367 -7.31948e-12
1.91538e-11 -7.31948e-12 -1.54702

6.88812 -4.3018 -8.57418e-12
-4.3018 3.47527 -3.68564e-11
-8.57418e-12 -3.68564e-11 0.608422

-3.95269 -5.10537 -1.12688e-11
-5.10537 0.779667 1.77216e-11
-1.12688e-11 1.77216e-11 -1.17823

2.05883 -5.04209 -2.79328e-11
-5.04209 5.49388 -6.40539e-12
-2.79328e-11 -6.40539e-12 0.31475

2.07693 5.16439 2.01276e-11
5.16439 5.42798 -4.73901e-11
2.01276e-11 -4.73901e-11 0.312241

3.20488 -1.87721 -3.00505e-11
-1.87721 -1.39952 -7.17615e-12
-3.00505e-11 -7.17615e-12 -0.399007

2.78647 -0.280295 1.38691e-11
-0.280295 -8.54305 1.18452e-11
1.38691e-11 1.18452e-11 -1.87941

3.02536 0.313656 1.05952e-11
0.313656 -8.25616 1.99828e-11
1.05952e-11 1.99828e-11 -1.73708

-0.993098 2.73962 -1.55316e-11
2.73962 5.77106 8.38026e-12
-1.55316e-11 8.38026e-12 -0.140906

0.944192 -4.14545 -6.16462e-12
-4.14545 2.17688 4.23817e-12
-6.16462e-12 4.23817e-12 -0.168519

-0.696846 -0.0925273 -1.01264e-11
-0.0925273 9.13339 -1.44181e-13
-1.01264e-11 -1.44181e-13 0.28112

-0.590841 0.203616 -1.18838e-11
0.203616 9.37063 -2.31208e-12
-1.18838e-11 -2.31208e-12 0.352928

8.87923 -0.0333177 2.40371e-11
-0.0333177 0.712984 5.44952e-11
2.40371e-11 5.44952e-11 0.492069

6.32317 4.03889 5.34639e-12
4.03889 6.41294 4.10844e-11
5.34639e-12 4.10844e-11 1.14545

3.18682 -4.73576 -1.42566e-11
-4.73576 2.63654 3.99255e-11
-1.42566e-11 3.99255e-11 -0.0372305

-13.227 -2.32417 -1.43563e-11
-2.32417 -8.18957 3.08179e-11
-1.43563e-11 3.08179e-11 -12.3216

-13.1736 -2.14416 3.09926e-11
-2.14416 -8.16693 6.72178e-11
3.09926e-11 6.72178e-11 -12.277

5.56002 -2.4255 -4.71032e-11
-2.4255 -0.1187 2.79335e-11
-4.71032e-11 2.79335e-11 -0.0204511

-2.34162 5.6218 -1.42065e-11
5.6218 3.8176 -1.99388e-11
-1.42065e-11 -1.99388e-11 -0.322756

3.83603 -0.148595 -6.93564e-12
-0.148595 -3.02387 2.86343e-11
-6.93564e-12 2.86343e-11 -0.302702

-1.07737 -2.69598 3.29411e-11
-2.69598 5.97575 -1.00182e-11
3.29411e-11 -1.00182e-11 -0.117942

-4.90169 5.03302 2.07106e-12
5.03302 1.03977 6.93419e-12
2.07106e-12 6.93419e-12 -1.60607

-5.29127 4.73715 3.01437e-11
4.73715 0.653993 -1.15448e-12
3.01437e-11 -1.15448e-12 -1.64328

-3.41662 -6.03908 2.50359e-12
-6.03908 2.13518 1.02087e-11
2.50359e-12 1.02087e-11 -0.809764

-3.91466 5.82358 -7.41411e-12
5.82358 2.88226 2.66769e-11
-7.41411e-12 2.66769e-11 -0.657309

-2.56516 4.91486 2.93641e-12
4.91486 3.16652 -1.60844e-11
2.93641e-12 -1.60844e-11 -0.399337

2.22268 0.0109702 -2.34978e-11
0.0109702 -4.33793 1.12653e-11
-2.34978e-11 1.12653e-11 -0.461268

3.51012 4.64746 -1.90218e-13
4.64746 2.4762 3.53485e-11
-1.90218e-13 3.53485e-11 -0.0090529

-4.21264 -5.16392 9.48871e-14
-5.16392 1.89525 2.1863e-11
9.48871e-14 2.1863e-11 -0.900904

2.55094 4.06174 -3.56376e-11
4.06174 4.39922 -6.11881e-12
-3.56376e-11 -6.11881e-12 0.290624

4.8709 -3.50718 5.30983e-13
-3.50718 7.30088 -1.71025e-11
5.30983e-13 -1.71025e-11 1.06804

-1.85621 -4.29268 -2.80276e-11
-4.29268 1.56 -6.35573e-12
-2.80276e-11 -6.35573e-12 -0.721957

1.61851 -2.44705 4.48253e-11
-2.44705 9.50986 8.42689e-12
4.48253e-11 8.42689e-12 0.920264

1.57023 2.38542 -9.49848e-12
2.38542 9.42148 -1.82077e-11
-9.49848e-12 -1.82077e-11 0.893118

8.43998 -1.68059 5.78924e-11
-1.68059 3.47492 -3.26666e-11
5.78924e-11 -3.26666e-11 1.05347

2.64247 -4.17293 -2.55243e-11
-4.17293 4.50314 1.83005e-11
-2.55243e-11 1.83005e-11 0.310388

-0.516692 0.646901 5.1984e-11
0.646901 5.93521 2.88924e-12
5.1984e-11 2.88924e-12 0.145889

-0.528482 -0.00743608 1.91359e-12
-0.00743608 5.85582 -2.14802e-11
1.91359e-12 -2.14802e-11 0.132828

4.05579 -4.81709 1.25239e-11
-4.81709 7.08982 2.43701e-11
1.25239e-11 2.43701e-11 0.748865

3.54216 4.87661 2.93785e-11
4.87661 6.97944 -5.49042e-12
2.93785e-11 -5.49042e-12 0.64504

2.29448 -0.429871 -1.46385e-11
-0.429871 -5.15727 2.49411e-11
-1.46385e-11 2.49411e-11 -0.75335

2.28954 0.450622 -2.61949e-11
0.450622 -5.18005 3.73098e-12
-2.61949e-11 3.73098e-12 -0.750402

-2.33533 5.29919 -9.05328e-12
5.29919 3.38076 9.92051e-12
-9.05328e-12 9.92051e-12 -0.383863

-5.02943 -4.82043 -2.29197e-11
-4.82043 1.05529 -9.62674e-13
-2.29197e-11 -9.62674e-13 -1.4365

-2.23857 3.50944 -7.89724e-12
3.50944 -0.386481 1.30983e-11
-7.89724e-12 1.30983e-11 -1.27625

9.91328 3.88659 -9.96995e-12
3.88659 4.84764 2.5826e-11
-9.96995e-12 2.5826e-11 1.50399

-1.05398 3.32489 -1.69043e-11
3.32489 6.68251 -9.05557e-12
-1.69043e-11 -9.05557e-12 0.00934971

-1.80269 2.32138 4.45892e-11
2.32138 -2.07489 1.60367e-11
4.45892e-11 1.60367e-11 -1.92047

-1.76584 -2.3382 1.57935e-11
-2.3382 -2.04277 2.66773e-11
1.57935e-11 2.66773e-11 -1.91825

0.779508 -3.16736 -1.03043e-11
-3.16736 0.157097 3.17861e-12
-1.03043e-11 3.17861e-12 -0.591582

0.720994 3.14248 -1.00169e-11
3.14248 0.121333 -2.62918e-11
-1.00169e-11 -2.62918e-11 -0.597312

10.937 1.03845 -1.9028e-11
1.03845 23.4101 9.56361e-12
-1.9028e-11 9.56361e-12 5.75226

22.0084 1.0749 -3.36939e-11
1.0749 12.1016 8.64634e-12
-3.36939e-11 8.64634e-12 5.70724

-1.38214 -3.15477 1.5483e-11
-3.15477 6.633 3.74711e-11
1.5483e-11 3.74711e-11 -0.0608928

-5.26022 -2.51816 7.51251e-12
-2.51816 -4.59574 -4.90158e-11
7.51251e-12 -4.90158e-11 -5.21651

-5.27228 2.52635 9.43682e-12
2.52635 -4.59559 -3.74611e-11
9.43682e-12 -3.74611e-11 -5.21024

1.64814 3.86356 1.39651e-11
3.86356 1.81785 1.3148e-11
1.39651e-11 1.3148e-11 -0.145508

11.4307 2.11737 -2.35311e-11
2.11737 3.1312 1.47735e-11
-2.35311e-11 1.47735e-11 1.4672

5.58806 -0.403117 1.05939e-11
-0.403117 -0.265908 3.36966e-11
1.05939e-11 3.36966e-11 0.161325

-4.04761 -2.77408 -2.11166e-11
-2.77408 1.98582 1.89754e-11
-2.11166e-11 1.89754e-11 -1.198

-3.9099 -3.03487 -3.63194e-11
-3.03487 2.17574 -2.2632e-11
-3.63194e-11 -2.2632e-11 -1.19369

2.50888 -4.59013 1.01636e-11
-4.59013 4.20005 -1.97948e-11
1.01636e-11 -1.97948e-11 0.174099

-3.9495 -5.8482 2.89886e-11
-5.8482 2.90148 -2.72591e-11
2.89886e-11 -2.72591e-11 -0.673066

1.71834 -3.90527 5.78426e-13
-3.90527 1.9481 1.29792e-12
5.78426e-13 1.29792e-12 -0.122703

-4.51542 5.60123 2.0129e-11
5.60123 1.90089 7.32098e-12
2.0129e-11 7.32098e-12 -0.802475

-3.58172 4.0495 1.00397e-11
4.0495 -0.324195 -2.02257e-12
1.00397e-11 -2.02257e-12 -2.40943

-3.49576 3.67821 2.99768e-12
3.67821 -0.758338 1.05934e-12
2.99768e-12 1.05934e-12 -2.39232

-2.45413 -5.32248 2.20062e-11
-5.32248 3.40764 -9.76996e-14
2.20062e-11 -9.76996e-14 -0.407703

-2.35725 4.80399 3.71757e-11
4.80399 2.75109 6.35869e-12
3.71757e-11 6.35869e-12 -0.441444

5.85275 3.32589 2.45171e-11
3.32589 0.81198 1.15115e-11
2.45171e-11 1.15115e-11 0.180704

-3.91968 6.16418 -1.12197e-11
6.16418 2.55858 1.73297e-12
-1.12197e-11 1.73297e-12 -0.653722

-2.88104 -3.76759 -3.13009e-12
-3.76759 3.53812 4.72059e-12
-3.13009e-12 4.72059e-12 -0.590609

-2.52459 1.46744 -1.49538e-11
1.46744 5.19944 -1.18476e-11
-1.49538e-11 -1.18476e-11 -0.421191

-0.979378 4.47527 -1.73379e-11
4.47527 0.987937 -2.91837e-11
-1.73379e-11 -2.91837e-11 -0.759058

-2.20294 1.88549 -4.51964e-11
1.88549 5.23771 1.70467e-11
-4.51964e-11 1.70467e-11 -0.365747

-4.55408 -5.23135 -4.5602e-11
-5.23135 1.50106 5.8272e-11
-4.5602e-11 5.8272e-11 -1.36946

8.62941 -4.49473 -3.70282e-12
-4.49473 9.12655 8.36025e-11
-3.70282e-12 8.36025e-11 2.15002

8.86119 -4.54383 -5.54706e-11
-4.54383 8.88538 4.92584e-12
-5.54706e-11 4.92584e-12 2.15749

-0.960429 -4.50189 -2.99521e-11
-4.50189 1.01005 2.54286e-11
-2.99521e-11 2.54286e-11 -0.76406

3.38092 -1.70157 4.53163e-11
-1.70157 -2.03897 1.86122e-11
4.53163e-11 1.86122e-11 -0.420538

-6.70315 5.33924 -1.6659e-10
5.33924 -9.11433 3.45531e-11
-1.6659e-10 3.45531e-11 -9.08852

-6.70266 -5.33972 -5.9122e-11
-5.33972 -9.11386 -3.99601e-11
-5.9122e-11 -3.99601e-11 -9.09476

-2.5209 -5.58741 -1.92402e-13
-5.58741 3.75721 -6.06803e-12
-1.92402e-13 -6.06803e-12 -0.371324

-6.36019 1.17333 -1.19431e-11
1.17333 -5.35502 8.66529e-13
-1.19431e-11 8.66529e-13 -5.81527

-6.42289 -1.07854 -2.81206e-11
-1.07854 -5.41803 3.08184e-11
-2.81206e-11 3.08184e-11 -5.92604

6.04739 0.0734563 -9.92066e-12
0.0734563 -5.10271 3.71836e-12
-9.92066e-12 3.71836e-12 -0.320365

-4.50292 -5.62832 6.54825e-12
-5.62832 2.01537 1.34836e-11
6.54825e-12 1.34836e-11 -0.783302

7.13902 5.47695 4.43645e-11
5.47695 7.61989 1.80657e-11
4.43645e-11 1.80657e-11 1.4314

6.39257 5.18773 9.92569e-12
5.18773 7.43313 4.65321e-11
9.92569e-12 4.65321e-11 1.2691

5.04385 -3.8979 1.37632e-11
-3.8979 12.2102 1.29559e-11
1.37632e-11 1.29559e-11 1.90434

5.07937 4.08715 2.50829e-11
4.08715 12.1781 1.37289e-11
2.50829e-11 1.37289e-11 1.92082

11.6673 -3.24257 -2.82235e-11
-3.24257 6.32848 -4.52255e-11
-2.82235e-11 -4.52255e-11 2.04599

-3.92601 -6.19073 4.44928e-11
-6.19073 2.7128 3.2702e-12
4.44928e-11 3.2702e-12 -0.633507

1.89422 1.4362 3.96085e-12
1.4362 12.8765 -2.64967e-11
3.96085e-12 -2.64967e-11 1.43905

12.0889 1.83396 -1.42591e-11
1.83396 3.37323 1.72916e-11
-1.42591e-11 1.72916e-11 1.57385

-5.64871 -1.91207 4.97091e-12
-1.91207 -2.50337 -3.65844e-12
4.97091e-12 -3.65844e-12 -4.5729

-5.58004 -2.31446 1.1448e-11
-2.31446 -2.52413 7.06864e-11
1.1448e-11 7.06864e-11 -4.62043

3.18419 0.728166 -2.273e-11
0.728166 -2.78694 -1.33393e-11
-2.273e-11 -1.33393e-11 -0.689157

5.07182 0.0451688 1.27141e-11
0.0451688 -8.04601 -2.5027e-11
1.27141e-11 -2.5027e-11 -0.8395

1.16346 -3.53665 1.3437e-11
-3.53665 7.46477 -5.80383e-11
1.3437e-11 -5.80383e-11 0.365673

1.07203 3.45893 3.77589e-11
3.45893 7.42628 -3.86264e-11
3.77589e-11 -3.86264e-11 0.346081

5.84618 -0.000127382 -1.35812e-11
-0.000127382 -5.44568 -1.30629e-11
-1.35812e-11 -1.30629e-11 -0.412249

-2.75815 -4.26996 -1.53148e-11
-4.26996 3.92058 -1.01118e-11
-1.53148e-11 -1.01118e-11 -0.550473

-3.10471 -1.8301 1.78145e-11
-1.8301 -3.51867 1.57906e-11
1.78145e-11 1.57906e-11 -3.53207

-3.14107 1.82644 -6.84023e-12
1.82644 -3.53384 -9.89479e-11
-6.84023e-12 -9.89479e-11 -3.53256

-0.456195 2.51833 -1.82029e-11
2.51833 -0.0108695 -1.13652e-11
-1.82029e-11 -1.13652e-11 -0.955204

-2.47639 -4.78276 -4.50744e-11
-4.78276 2.76548 3.07276e-11
-4.50744e-11 3.07276e-11 -0.473777

3.4303 0.727378 3.17901e-12
0.727378 -5.74792 2.23433e-11
3.17901e-12 2.23433e-11 -1.10411

5.12788 3.99203 -1.22327e-11
3.99203 4.38565 1.70006e-11
-1.22327e-11 1.70006e-11 0.542403

-2.60864 -4.91273 -2.31339e-12
-4.91273 3.10508 2.67767e-11
-2.31339e-12 2.67767e-11 -0.435648

9.81908 -8.63022 2.79341e-11
-8.63022 10.126 -3.66785e-11
2.79341e-11 -3.66785e-11 3.34351

-2.32307 -1.17734 -8.04184e-12
-1.17734 5.00472 -9.53667e-12
-8.04184e-12 -9.53667e-12 -0.424999

-2.04535 -1.6127 -1.56756e-11
-1.6127 5.05317 -1.44479e-11
-1.56756e-11 -1.44479e-11 -0.378577

-6.50986 -0.381008 -4.47336e-12
-0.381008 -4.24147 -1.98384e-11
-4.47336e-12 -1.98384e-11 -5.62542

-6.45678 -0.219181 -2.67191e-11
-0.219181 -4.29415 -9.8237e-12
-2.67191e-11 -9.8237e-12 -5.62562

1.02675 -1.33964 1.77196e-11
-1.33964 -4.56813 -3.08176e-12
1.77196e-11 -3.08176e-12 -1.04635

0.990084 1.34187 1.29043e-11
1.34187 -4.57996 1.62982e-11
1.29043e-11 1.62982e-11 -1.04328

-3.65861 -2.63605 4.86329e-11
-2.63605 -3.06093 3.35143e-11
4.86329e-11 3.35143e-11 -2.74187

-3.29448 2.71994 -2.76411e-11
2.71994 -3.13801 -4.04613e-12
-2.76411e-11 -4.04613e-12 -2.60905

-5.32077 -2.3386 -3.81366e-11
-2.3386 -2.76822 1.02098e-11
-3.81366e-11 1.02098e-11 -4.47208

-5.31989 2.43429 -9.61453e-13
2.43429 -2.73706 1.64681e-11
-9.61453e-13 1.64681e-11 -4.43749

-6.69113 3.63797 5.43112e-11
3.63797 -6.97956 3.49592e-11
5.43112e-11 3.49592e-11 -7.5981

-6.68939 -3.63257 1.09972e-10
-3.63257 -6.97815 -7.55976e-11
1.09972e-10 -7.55976e-11 -7.60484

-3.99999 -6.00031 1.96469e-11
-6.00031 1.30365 -8.37976e-12
1.96469e-11 -8.37976e-12 -1.18255

-3.99072 6.02101 5.11361e-11
6.02101 1.23459 1.24299e-11
5.11361e-11 1.24299e-11 -1.18187

1.96287 3.58672 -2.67749e-11
3.58672 0.285822 1.78162e-11
-2.67749e-11 1.78162e-11 -0.416597

-1.24654 -2.82726 -1.42051e-11
-2.82726 4.36677 -2.18638e-11
-1.42051e-11 -2.18638e-11 -0.145322

-1.32717 -3.52974 -2.1695e-11
-3.52974 4.82125 -3.56293e-12
-2.1695e-11 -3.56293e-12 -0.118033

6.88196 -3.56885 5.15203e-12
-3.56885 5.86959 1.77729e-11
5.15203e-12 1.77729e-11 1.16483

1.98846 -3.58105 8.66936e-13
-3.58105 0.441912 -3.09656e-11
8.66936e-13 -3.09656e-11 -0.397395

-1.20587 2.66797 -1.44723e-11
2.66797 4.30467 -1.79149e-11
-1.44723e-11 -1.79149e-11 -0.144407

0.796143 5.02186 3.32287e-11
5.02186 2.71401 -1.85875e-11
3.32287e-11 -1.85875e-11 -0.215015

-5.11689 -5.19757 1.54084e-12
-5.19757 0.0478783 3.94813e-12
1.54084e-12 3.94813e-12 -1.74506

-5.11652 5.10205 -6.06441e-12
5.10205 -0.018897 2.15737e-11
-6.06441e-12 2.15737e-11 -1.7733

0.778532 -5.09705 3.56353e-11
-5.09705 2.73952 1.39459e-12
3.56353e-11 1.39459e-12 -0.231602

2.70933 -0.506969 1.44479e-11
-0.506969 -3.14951 -2.40287e-11
1.44479e-11 -2.40287e-11 -0.957129

-12.8911 1.44117 -9.27212e-11
1.44117 -10.4177 -4.71923e-11
-9.27212e-11 -4.71923e-11 -12.7249

-12.7882 1.26653 -6.18469e-11
1.26653 -10.5095 6.00902e-11
-6.18469e-11 6.00902e-11 -12.7065

-2.53771 -4.47587 -1.37228e-11
-4.47587 2.72577 -5.56675e-11
-1.37228e-11 -5.56675e-11 -0.717224

-0.25963 2.19237 -1.45442e-11
2.19237 -3.10683 -2.37409e-11
-1.45442e-11 -2.37409e-11 -1.45267

1.19067 -0.538139 5.96995e-12
-0.538139 -6.31347 -6.25922e-12
5.96995e-12 -6.25922e-12 -2.71062

8.66429 -4.81924 3.01309e-11
-4.81924 9.4043 6.80937e-14
3.01309e-11 6.80937e-14 2.14283

8.70369 -4.70699 -1.34766e-12
-4.70699 9.34826 -3.75735e-11
-1.34766e-12 -3.75735e-11 2.13857

0.610608 -1.51162 -3.85188e-12
-1.51162 -5.12938 -2.96841e-11
-3.85188e-12 -2.96841e-11 -1.61857

0.54282 1.53683 1.40612e-11
1.53683 -5.12816 2.16429e-11
1.40612e-11 2.16429e-11 -1.61574

1.04724 0.442849 1.69504e-11
0.442849 -6.3313 6.30777e-12
1.69504e-11 6.30777e-12 -2.82764

-1.23377 3.50408 -6.90301e-11
3.50408 4.72114 2.56164e-11
-6.90301e-11 2.56164e-11 -0.112672

5.23763 2.76306 -1.96481e-11
2.76306 2.27081 4.03079e-11
-1.96481e-11 4.03079e-11 0.448986

-1.96768 -3.99221 -1.2329e-11
-3.99221 0.812483 2.61969e-11
-1.2329e-11 2.61969e-11 -1.15414

-1.99742 3.96123 2.03202e-11
3.96123 0.794873 -3.46475e-12
2.03202e-11 -3.46475e-12 -1.15268

-10.5111 -0.722955 5.21948e-11
-0.722955 -14.3831 9.79059e-11
5.21948e-11 9.79059e-11 -13.0896

-10.3814 0.730983 -1.23268e-11
0.730983 -13.7875 -7.19724e-11
-1.23268e-11 -7.19724e-11 -12.8677

-3.87082 -5.12942 -9.43654e-12
-5.12942 2.5252 -6.21221e-11
-9.43654e-12 -6.21221e-11 -0.827459

3.71784 2.20135 -1.18478e-11
2.20135 -0.679788 -3.66467e-11
-1.18478e-11 -3.66467e-11 -0.163073

-0.620254 1.52791 1.19426e-11
1.52791 -2.50978 3.06251e-11
1.19426e-11 3.06251e-11 -1.74779

-0.570319 -1.53577 -4.23713e-12
-1.53577 -2.49885 1.15095e-11
-4.23713e-12 1.15095e-11 -1.74781

-2.62695 -3.98108 -1.63738e-11
-3.98108 2.21153 1.83957e-11
-1.63738e-11 1.83957e-11 -0.75462

-4.04453 -5.4735 2.40789e-12
-5.4735 2.06342 -5.77797e-13
2.40789e-12 -5.77797e-13 -0.753912

9.9113 -8.94834 -4.50514e-12
-8.94834 10.3871 4.48293e-12
-4.50514e-12 4.48293e-12 3.3943

-5.24044 3.73245 1.30972e-11
3.73245 -0.0052416 -9.34082e-12
1.30972e-11 -9.34082e-12 -2.41285

-5.30593 -3.78878 2.9661e-11
-3.78878 0.0107781 7.99355e-12
2.9661e-11 7.99355e-12 -2.42795

-4.22172 -4.74249 -1.65651e-11
-4.74249 2.09369 2.31234e-12
-1.65651e-11 2.31234e-12 -0.891813

5.39074 -2.9812 -3.13033e-11
-2.9812 2.13068 1.53156e-11
-3.13033e-11 1.53156e-11 0.457188

-0.384236 -2.376 8.08842e-12
-2.376 -0.231688 5.40293e-11
8.08842e-12 5.40293e-11 -1.03964

-3.66918 3.23163 1.22321e-11
3.23163 -1.02248 -4.8143e-12
1.22321e-11 -4.8143e-12 -2.19543

-3.798 -3.35396 3.55369e-11
-3.35396 -0.977334 -2.15743e-11
3.55369e-11 -2.15743e-11 -2.23701

2.9744 -0.484494 1.63736e-12
-0.484494 -6.33047 1.99833e-11
1.63736e-12 1.99833e-11 -1.34589

-1.32794 1.18826 1.21341e-11
1.18826 -4.5216 -8.37845e-12
1.21341e-11 -8.37845e-12 -2.6169

-1.27533 -1.17666 1.81029e-11
-1.17666 -4.53492 1.80047e-11
1.81029e-11 1.80047e-11 -2.62079

-10.1274 0.524294 -5.11187e-11
0.524294 -4.35406 2.98519e-11
-5.11187e-11 2.98519e-11 -9.48567

-10.085 0.349146 -7.44943e-11
0.349146 -4.3796 2.54246e-11
-7.44943e-11 2.54246e-11 -9.48903

10.2193 0.376022 -3.60046e-11
0.376022 23.4145 4.52941e-12
-3.60046e-11 4.52941e-12 5.6298

21.7055 0.33439 -3.36975e-12
0.33439 10.3434 1.8292e-11
-3.36975e-12 1.8292e-11 5.33167

-2.97134 -5.12516 -7.41599e-12
-5.12516 2.50373 3.50558e-11
-7.41599e-12 3.50558e-11 -0.784843

-2.97026 5.11059 1.97412e-11
5.11059 2.47214 -4.50728e-11
1.97412e-11 -4.50728e-11 -0.778638

-3.97628 -5.83278 -5.5761e-11
-5.83278 2.77362 1.43562e-11
-5.5761e-11 1.43562e-11 -0.705805

8.32116 -4.20575 1.84025e-11
-4.20575 18.0371 4.8909e-12
1.84025e-11 4.8909e-12 4.21614

17.0614 -4.02039 -2.78471e-11
-4.02039 9.16323 1.83054e-11
-2.78471e-11 1.83054e-11 4.18892

-11.2229 -5.3573 -9.07089e-11
-5.3573 -7.06023 -2.49458e-12
-9.07089e-11 -2.49458e-12 -9.6541

-11.2272 5.35639 1.82366e-10
5.35639 -7.05749 -1.13809e-10
1.82366e-10 -1.13809e-10 -9.64881

-2.35968 -3.54045 -5.22023e-11
-3.54045 -0.498953 3.32273e-11
-5.22023e-11 3.32273e-11 -1.32472

0.00217774 -4.92075 5.09495e-11
-4.92075 3.4249 5.29332e-12
5.09495e-11 5.29332e-12 -0.163144

-2.7606 -5.17991 -1.18466e-11
-5.17991 1.14772 1.4543e-11
-1.18466e-11 1.4543e-11 -1.06326

-2.77524 5.15972 3.48626e-11
5.15972 1.12107 1.54343e-12
3.48626e-11 1.54343e-12 -1.06097

-1.8457 -5.55791 1.92626e-11
-5.55791 2.98928 1.96467e-11
1.92626e-11 1.96467e-11 -0.486125

0.0349177 4.92225 1.98394e-11
4.92225 3.30888 -1.75291e-11
1.98394e-11 -1.75291e-11 -0.170505

4.0321 -1.59583 -3.7604e-11
-1.59583 13.2316 -5.20058e-12
-3.7604e-11 -5.20058e-12 1.92505

3.44148 1.93248 -3.52201e-11
1.93248 12.4743 2.66855e-11
-3.52201e-11 2.66855e-11 1.65966

12.1962 -1.21575 2.35083e-11
-1.21575 5.64014 4.54919e-11
2.35083e-11 4.54919e-11 2.02744

-1.78899 5.52916 -1.3388e-11
5.52916 2.97412 -1.97458e-11
-1.3388e-11 -1.97458e-11 -0.470857

2.06471 -0.992638 -3.50661e-11
-0.992638 13.62 2.37013e-11
-3.50661e-11 2.37013e-11 1.6408

12.8671 -0.961414 -2.26659e-11
-0.961414 2.62832 1.35231e-11
-2.26659e-11 1.35231e-11 1.6351

-3.58216 -5.06108 1.28078e-11
-5.06108 0.415183 -1.08854e-11
1.28078e-11 -1.08854e-11 -1.61835

-3.57139 5.03196 -2.32121e-11
5.03196 0.391065 -4.80573e-11
-2.32121e-11 -4.80573e-11 -1.60867

-3.93022 -4.40519 -3.3128e-11
-4.40519 0.339978 -1.82014e-11
-3.3128e-11 -1.82014e-11 -1.8859

-3.93192 4.38781 -2.78327e-11
4.38781 0.306677 -5.99019e-11
-2.78327e-11 -5.99019e-11 -1.88271

8.73026 -4.22883 5.59162e-11
-4.22883 18.2296 4.66815e-11
5.59162e-11 4.66815e-11 4.39542

17.4868 -3.91172 -2.77692e-11
-3.91172 9.09546 -5.39805e-11
-2.77692e-11 -5.39805e-11 4.3293

-1.10541 4.67083 -2.04188e-11
4.67083 2.35759 -2.04194e-11
-2.04188e-11 -2.04194e-11 -0.457925

-1.0816 -4.70854 -1.20379e-11
-4.70854 2.42489 2.87018e-11
-1.20379e-11 2.87018e-11 -0.451558

-7.04727 -0.753822 -2.28977e-11
-0.753822 -5.23785 -1.11709e-11
-2.28977e-11 -1.11709e-11 -6.70176

-7.05537 -1.00065 -1.04712e-11
-1.00065 -5.15967 3.04315e-11
-1.04712e-11 3.04315e-11 -6.7024

-4.78862 -5.08161 4.43142e-12
-5.08161 1.46279 -2.41739e-11
4.43142e-12 -2.41739e-11 -1.69296

-4.80801 5.10494 3.26462e-11
5.10494 1.41692 3.76598e-11
3.26462e-11 3.76598e-11 -1.69386

-2.7481 -1.99839 -9.72874e-12
-1.99839 -4.94341 4.78105e-11
-9.72874e-12 4.78105e-11 -3.27908

-2.77651 1.99892 3.37153e-12
1.99892 -4.92828 1.0098e-12
3.37153e-12 1.0098e-12 -3.27073

-3.19902 4.2063 -2.55212e-11
4.2063 0.945713 1.9081e-13
-2.55212e-11 1.9081e-13 -1.20217

-3.26846 -4.1889 -2.54247e-11
-4.1889 1.07254 -1.68535e-11
-2.54247e-11 -1.68535e-11 -1.19085

-9.67127 -1.57298 2.00557e-11
-1.57298 -3.47962 6.20174e-11
2.00557e-11 6.20174e-11 -7.91559

-4.28227 -2.87161 -8.85888e-12
-2.87161 -5.74088 -6.06655e-12
-8.85888e-12 -6.06655e-12 -5.20398

-6.79201 -2.95205 -4.179e-11
-2.95205 -7.94481 -1.63578e-12
-4.179e-11 -1.63578e-12 -7.46675

-4.31143 2.88756 4.06367e-11
2.88756 -5.7309 7.89863e-12
4.06367e-11 7.89863e-12 -5.19897

-6.80072 2.95914 9.70666e-11
2.95914 -7.94399 -1.12272e-10
9.70666e-11 -1.12272e-10 -7.46138

-9.75111 -1.22069 3.24655e-11
-1.22069 -3.35462 -9.82251e-12
3.24655e-11 -9.82251e-12 -7.88162

-7.10649 -3.21913 2.69603e-12
-3.21913 -7.22773 -2.59927e-12
2.69603e-12 -2.59927e-12 -8.18178

-7.24581 3.32953 -1.4829e-11
3.32953 -7.17522 8.2818e-12
-1.4829e-11 8.2818e-12 -8.1543

-8.0705 -4.17925 -1.52711e-10
-4.17925 -5.74992 -1.44728e-10
-1.52711e-10 -1.44728e-10 -8.0803

0.185275 -3.12048 -1.12016e-09
-3.12048 -10.827 -9.33855e-10
-1.12016e-09 -9.33855e-10 -9.15501

0.186019 3.1182 -3.53612e-10
3.1182 -10.8166 5.73228e-12
-3.53612e-10 5.73228e-12 -9.14593

-8.08207 4.18132 -2.73402e-11
4.18132 -5.75704 -7.55939e-11
-2.73402e-11 -7.55939e-11 -8.07636

-4.71484 -4.43364 6.00915e-11
-4.43364 -4.8714 -1.5989e-11
6.00915e-11 -1.5989e-11 -6.0251

-4.23637 -3.57597 -3.0525e-11
-3.57597 -0.687984 3.4676e-12
-3.0525e-11 3.4676e-12 -3.09988

-8.3505 -3.41655 6.16261e-11
-3.41655 -8.36213 -5.67213e-11
6.16261e-11 -5.67213e-11 -9.16273

-4.72322 4.43582 -2.05128e-11
4.43582 -4.89212 1.63669e-12
-2.05128e-11 1.63669e-12 -6.02293

-8.35346 3.41947 -9.6656e-13
3.41947 -8.3589 -9.30224e-11
-9.6656e-13 -9.30224e-11 -9.15534

-4.2395 3.575 3.76543e-11
3.575 -0.715222 2.48476e-11
3.76543e-11 2.48476e-11 -3.09696

-5.87086 -3.68817 -2.93697e-11
-3.68817 -2.38225 -2.27242e-11
-2.93697e-11 -2.27242e-11 -4.27058

-5.70503 -3.0044 9.62874e-12
-3.0044 -4.57176 7.12614e-12
9.62874e-12 7.12614e-12 -5.71905

-5.87112 3.68561 4.91126e-11
3.68561 -2.40119 4.54571e-11
4.91126e-11 4.54571e-11 -4.26521

-5.72024 3.00012 -2.23398e-11
3.00012 -4.59121 4.15987e-11
-2.23398e-11 4.15987e-11 -5.71775

-1.76272 2.41487 -6.74015e-12
2.41487 1.2622 1.46385e-11
-6.74015e-12 1.46385e-11 -0.573861

-4.8049 -0.697418 -5.00723e-12
-0.697418 2.58235 -3.08196e-11
-5.00723e-12 -3.08196e-11 -0.729498

2.79716 -0.777692 -2.15769e-11
-0.777692 -4.2751 -6.93648e-12
-2.15769e-11 -6.93648e-12 -0.0421319

4.41779 0.0247581 -2.44668e-11
0.0247581 -2.31388 2.31491e-12
-2.44668e-11 2.31491e-12 0.801002

-5.76746 2.42186 3.00471e-11
2.42186 -2.19368 1.32914e-11
3.00471e-11 1.32914e-11 -2.87589

-8.30555 -1.05408 5.75764e-13
-1.05408 1.66443 5.77887e-11
5.75764e-13 5.77887e-11 -2.54335

4.19368 1.36039 5.76576e-13
1.36039 -2.50767 -1.4443e-11
5.76576e-13 -1.4443e-11 0.709458

0.733701 1.73178 8.38122e-12
1.73178 -6.19619 -1.38689e-11
8.38122e-12 -1.38689e-11 -1.06199

1.69285 3.4504 -1.53636e-12
3.4504 6.55456 3.4679e-11
-1.53636e-12 3.4679e-11 3.32859

2.62595 3.34324 -7.70395e-12
3.34324 7.32778 -3.85048e-12
-7.70395e-12 -3.85048e-12 3.66874

7.1638 3.00828 -4.23861e-11
3.00828 2.77171 1.30983e-11
-4.23861e-11 1.30983e-11 3.78718

-3.70216 1.51837 2.83151e-11
1.51837 0.279517 8.85762e-12
2.83151e-11 8.85762e-12 -2.07611

-3.14596 -2.92894 1.86816e-11
-2.92894 -1.49381 4.69979e-11
1.86816e-11 4.69979e-11 -2.27527

0.0164916 -3.72902 -2.3885e-11
-3.72902 1.0568 -1.75294e-11
-2.3885e-11 -1.75294e-11 0.214424

-8.29349 1.26522 5.27762e-11
1.26522 1.86468 3.69863e-11
5.27762e-11 3.69863e-11 -2.54413

-5.81858 -1.40128 3.94839e-11
-1.40128 -2.37715 3.89104e-11
3.94839e-11 3.89104e-11 -2.89742

3.93348 0.963445 -5.785e-13
0.963445 -4.39032 -2.69771e-12
-5.785e-13 -2.69771e-12 -0.128141

0.771206 1.59073 -1.46404e-11
1.59073 7.50254 -4.62652e-12
-1.46404e-11 -4.62652e-12 2.73602

1.86098 1.21144 7.03001e-12
1.21144 7.06233 -1.75313e-11
7.03001e-12 -1.75313e-11 2.73189

7.80996 0.92968 1.0596e-12
0.92968 2.06965 1.32933e-11
1.0596e-12 1.32933e-11 3.09645

-0.0706363 3.7189 -1.11716e-11
3.7189 4.16882 4.48861e-11
-1.11716e-11 4.48861e-11 0.948525

-1.53109 -2.23117 8.86095e-12
-2.23117 3.99405 3.73725e-11
8.86095e-12 3.73725e-11 0.925999

2.72431 2.14488 2.38881e-11
2.14488 -4.80784 1.27151e-11
2.38881e-11 1.27151e-11 -0.176657

6.34486 2.52241 -1.17607e-11
2.52241 10.0011 -5.16365e-11
-1.17607e-11 -5.16365e-11 6.48854

1.61786 -0.960847 1.19415e-11
-0.960847 -7.09851 -1.69475e-11
1.19415e-11 -1.69475e-11 -0.928624

-2.88881 0.649007 1.75296e-11
0.649007 -2.10254 5.68123e-12
1.75296e-11 5.68123e-12 -2.92609

-4.48691 -0.171893 1.76132e-15
-0.171893 0.883929 5.31615e-11
1.76132e-15 5.31615e-11 -2.7245

-0.338213 3.75967 1.1523e-12
3.75967 -6.86787 -3.00496e-11
1.1523e-12 -3.00496e-11 -7.74498

-1.0971 -1.68487 6.93357e-11
-1.68487 -10.2759 -2.15729e-11
6.93357e-11 -2.15729e-11 -8.17555

-0.844721 -4.26092 -3.737e-11
-4.26092 1.14465 -1.52177e-11
-3.737e-11 -1.52177e-11 0.0881066

-0.54856 -3.59018 -1.09795e-11
-3.59018 3.79054 3.08124e-12
-1.09795e-11 3.08124e-12 0.896376

7.17672 -0.0420555 5.96871e-12
-0.0420555 0.72084 -1.63736e-11
5.96871e-12 -1.63736e-11 2.78415

-0.157747 2.32872 -2.69662e-12
2.32872 -4.3401 -2.11882e-11
-2.69662e-12 -2.11882e-11 -3.02782

-0.587399 -0.638986 8.08805e-12
-0.638986 -4.78566 -2.71592e-11
8.08805e-12 -2.71592e-11 -2.88545

0.534641 -0.377724 1.4256e-11
-0.377724 -8.17872 -1.56001e-11
1.4256e-11 -1.56001e-11 -1.28671

-1.5497 -2.72695 -2.17667e-11
-2.72695 2.88235 3.08635e-12
-2.17667e-11 3.08635e-12 0.724529

0.9763 0.530794 -3.17761e-12
0.530794 -8.19181 3.13956e-11
-3.17761e-12 3.13956e-11 -1.10335

4.1697 -2.67908 9.0575e-12
-2.67908 1.25927 4.816e-12
9.0575e-12 4.816e-12 1.52601

-0.484943 3.94122 8.67203e-12
3.94122 2.16762 -2.62013e-11
8.67203e-12 -2.62013e-11 0.74215

5.37164 2.92635 -6.56929e-11
2.92635 -0.839618 -2.08111e-11
-6.56929e-11 -2.08111e-11 1.5119

4.80674 -1.69248 2.88754e-12
-1.69248 -0.880149 3.56407e-11
2.88754e-12 3.56407e-11 1.36308

-0.806634 3.32322 2.88922e-11
3.32322 4.02128 -2.08068e-11
2.88922e-11 -2.08068e-11 1.02366

-6.13322 -2.47083 9.63189e-12
-2.47083 1.7077 -1.04021e-11
9.63189e-12 -1.04021e-11 -0.708119

-4.00032 4.41246 -1.23248e-11
4.41246 1.47193 1.30974e-11
-1.23248e-11 1.30974e-11 -0.7397

-0.0322641 -3.1097 8.28678e-12
-3.1097 3.88832 1.04015e-11
8.28678e-12 1.04015e-11 0.979275

-0.372101 4.0829 -9.05624e-12
4.0829 4.0754 1.92498e-12
-9.05624e-12 1.92498e-12 0.898542

19.0436 -3.44732 -1.214e-11
-3.44732 19.6182 7.72567e-13
-1.214e-11 7.72567e-13 19.5372

19.0265 3.96086 -1.04052e-11
3.96086 20.4622 1.05977e-11
-1.04052e-11 1.05977e-11 19.625

-7.33535 3.38677 -2.13769e-11
3.38677 0.276076 1.61802e-11
-2.13769e-11 1.61802e-11 -1.93318

-5.05312 -3.95594 -2.88911e-11
-3.95594 -0.52801 -4.23509e-12
-2.88911e-11 -4.23509e-12 -1.73686

-2.81651 3.73037 -4.11277e-11
3.73037 2.84613 -1.73384e-11
-4.11277e-11 -1.73384e-11 -0.0502918

11.8018 1.27471 2.40863e-11
1.27471 11.9502 -3.25605e-11
2.40863e-11 -3.25605e-11 12.9857

11.641 -0.0209905 -1.27166e-11
-0.0209905 12.9325 -4.24187e-12
-1.27166e-11 -4.24187e-12 13.241

-4.67833 -2.84418 8.95861e-12
-2.84418 -3.47081 -3.73669e-11
8.95861e-12 -3.73669e-11 -3.48995

-4.29551 1.38708 6.59221e-11
1.38708 -2.43446 -8.28337e-12
6.59221e-11 -8.28337e-12 -3.43022

4.63253 -0.0811619 -1.9359e-11
-0.0811619 -5.12819 2.42687e-11
-1.9359e-11 2.42687e-11 -0.146898

-4.67866 -2.65012 -1.56037e-11
-2.65012 -3.43306 1.69535e-11
-1.56037e-11 1.69535e-11 -3.57921

-4.61276 0.952147 1.73605e-11
0.952147 -4.318 3.08224e-12
1.73605e-11 3.08224e-12 -3.90588

-4.18853 -2.34811 -2.50381e-12
-2.34811 2.75419 -1.84937e-11
-2.50381e-12 -1.84937e-11 -0.00837682

-1.77525 3.55487 -1.11728e-11
3.55487 -5.82025 -1.38662e-11
-1.11728e-11 -1.38662e-11 -6.35607

-1.54663 -2.93012 6.24044e-11
-2.93012 -9.11495 -1.69503e-11
6.24044e-11 -1.69503e-11 -6.61055

-2.52537 -2.84478 6.59672e-12
-2.84478 -2.68346 2.50386e-11
6.59672e-12 2.50386e-11 -1.6078

-2.40806 2.16596 -4.18953e-11
2.16596 -2.19908 7.26793e-12
-4.18953e-11 7.26793e-12 -1.71957

-7.66035 0.226049 3.46667e-11
0.226049 0.15715 -3.46684e-11
3.46667e-11 -3.46684e-11 -6.07647

-8.05736 1.71625 -3.409e-11
1.71625 -4.37091 -9.74406e-14
-3.409e-11 -9.74406e-14 -6.92768

5.88968 1.17992 8.09467e-12
1.17992 9.65644 1.98489e-11
8.09467e-12 1.98489e-11 6.59934

9.46659 1.20664 -3.09293e-11
1.20664 6.03241 -1.17497e-11
-3.09293e-11 -1.17497e-11 6.62131

-3.92214 3.54191 3.40946e-11
3.54191 1.75544 -1.65642e-11
3.40946e-11 -1.65642e-11 -0.691591

-6.16455 -2.16048 3.46716e-11
-2.16048 2.211 -1.96486e-11
3.46716e-11 -1.96486e-11 -0.761673

-9.50086 -4.66345 1.47431e-10
-4.66345 -4.19143 -1.34436e-10
1.47431e-10 -1.34436e-10 -11.8043

-8.94554 2.77967 2.23012e-10
2.77967 -13.6555 1.36554e-10
2.23012e-10 1.36554e-10 -13.5425

3.1561 3.75878 -1.71488e-11
3.75878 0.928399 2.69701e-11
-1.71488e-11 2.69701e-11 1.27106

0.709881 1.44446 3.85247e-12
1.44446 -4.22429 -2.33082e-11
3.85247e-12 -2.33082e-11 -1.05538

0.570697 -1.89112 4.09343e-11
-1.89112 -4.23921 -2.27357e-11
4.09343e-11 -2.27357e-11 -0.944677

-0.624975 -2.03222 -9.62978e-12
-2.03222 -7.88802 -2.31111e-12
-9.62978e-12 -2.31111e-12 -2.92371

6.92407 0.859423 1.27178e-11
0.859423 0.575828 4.12247e-11
1.27178e-11 4.12247e-11 2.74062

-1.06536 0.262326 -3.39029e-11
0.262326 -10.6476 -1.46374e-11
-3.39029e-11 -1.46374e-11 -9.71697

-1.55806 -0.530659 5.77741e-11
-0.530659 -4.01474 -8.58959e-11
5.77741e-11 -8.58959e-11 -8.91246

0.824551 4.51105 -2.50468e-11
4.51105 -1.48128 1.92675e-12
-2.50468e-11 1.92675e-12 0.0319407

3.99048 1.1944 2.35978e-11
1.1944 -2.35959 -1.34851e-11
2.35978e-11 -1.34851e-11 0.20644

3.97657 3.67303 -1.75318e-11
3.67303 5.36233 8.7644e-12
-1.75318e-11 8.7644e-12 3.12658

-7.27815 -2.08771 -1.04959e-10
-2.08771 -0.687986 -1.69441e-11
-1.04959e-10 -1.69441e-11 -7.55123

-9.43285 1.30633 1.79109e-11
1.30633 -7.19673 8.57277e-12
1.79109e-11 8.57277e-12 -9.02197

-0.126308 3.78799 -3.8524e-12
3.78799 -6.24928 -9.24697e-12
-3.8524e-12 -9.24697e-12 -2.85578

-1.92034 -1.18783 3.70782e-11
-1.18783 1.09333 6.35699e-12
3.70782e-11 6.35699e-12 -0.683012

-5.00046 0.840447 2.37874e-11
0.840447 2.64667 -1.69496e-11
2.37874e-11 -1.69496e-11 -0.880082

2.86561 -0.580121 1.83135e-12
-0.580121 -6.39857 -1.46397e-11
1.83135e-12 -1.46397e-11 -0.851266

3.29984 0.427513 7.60976e-12
0.427513 -6.65171 3.81347e-11
7.60976e-12 3.81347e-11 -0.859371

5.87519 -2.41919 -3.65648e-12
-2.41919 4.36158 -3.46552e-12
-3.65648e-12 -3.46552e-12 3.40482

5.74827 0.125147 2.30681e-11
0.125147 -2.15906 4.2375e-12
2.30681e-11 4.2375e-12 0.885376

0.572037 0.484813 -2.65044e-12
0.484813 -6.24768 -7.01102e-11
-2.65044e-12 -7.01102e-11 -1.96242

-0.147255 -1.03791 7.7045e-12
-1.03791 -5.5539 -2.61955e-11
7.7045e-12 -2.61955e-11 -1.86879

3.67855 -1.41705 -3.7607e-12
-1.41705 -2.83124 1.464e-11
-3.7607e-12 1.464e-11 0.173739

2.65575 -0.667328 -1.30017e-11
-0.667328 -4.68192 -1.11022e-16
-1.30017e-11 -1.11022e-16 -0.723778

3.20713 0.287254 1.00892e-11
0.287254 -4.68349 -3.37056e-11
1.00892e-11 -3.37056e-11 -0.708173

2.49469 2.98755 1.8491e-11
2.98755 -3.45441 1.96502e-11
1.8491e-11 1.96502e-11 -0.0986254

2.76666 -3.9639 -1.92634e-11
-3.9639 2.34214 1.23292e-11
-1.92634e-11 1.23292e-11 1.68462

-4.06641 5.16423 -7.80139e-12
5.16423 0.978927 4.04528e-12
-7.80139e-12 4.04528e-12 -0.916577

-5.17812 -4.39424 1.51684e-11
-4.39424 -1.12833 -3.66022e-11
1.51684e-11 -3.66022e-11 -1.02253

-6.27489 -3.2803 1.08821e-11
-3.2803 -1.37127 9.63083e-12
1.08821e-11 9.63083e-12 -1.30363

-3.96412 5.45161 -2.45598e-11
5.45161 1.70273 -1.81086e-11
-2.45598e-11 -1.81086e-11 -0.728865

5.60418 1.89481 2.91849e-11
1.89481 -1.4895 5.20214e-12
2.91849e-11 5.20214e-12 1.21011

8.55569 -2.26304 -1.02115e-11
-2.26304 5.90719 -2.08108e-11
-1.02115e-11 -2.08108e-11 5.78002

0.445169 4.30864 -1.38708e-11
4.30864 -4.05908 -1.19383e-11
-1.38708e-11 -1.19383e-11 -1.03543

2.75657 -1.44276 1.54277e-12
-1.44276 -2.83127 -1.17533e-11
1.54277e-12 -1.17533e-11 0.142185

8.81071 -1.75992 2.30867e-12
-1.75992 5.20937 3.0852e-12
2.30867e-12 3.0852e-12 5.61709

0.927572 -3.49991 -3.25599e-11
-3.49991 -1.18398 2.71593e-11
-3.25599e-11 2.71593e-11 0.0684393

-6.85344 0.0234026 -6.5497e-12
0.0234026 3.38774 -5.85602e-11
-6.5497e-12 -5.85602e-11 -0.915385

-4.65583 0.542927 8.66774e-12
0.542927 0.537695 3.46486e-12
8.66774e-12 3.46486e-12 -1.19646

1.77528 4.48673 1.2331e-11
4.48673 1.92225 4.62504e-12
1.2331e-11 4.62504e-12 1.34616

6.75562 -2.60116 -8.62717e-13
-2.60116 2.3334 -3.12086e-11
-8.62717e-13 -3.12086e-11 3.50041

-3.47953 4.77986 3.08105e-12
4.77986 -2.02126 -4.58459e-11
3.08105e-12 -4.58459e-11 -1.10646

-3.23995 -4.57997 3.13993e-11
-4.57997 -0.0923685 -2.73537e-11
3.13993e-11 -2.73537e-11 -0.862713

1.21824 -3.38424 -1.03008e-11
-3.38424 4.01086 -2.85136e-11
-1.03008e-11 -2.85136e-11 1.69205

2.01785 -3.73127 -2.89583e-12
-3.73127 3.99129 2.75493e-11
-2.89583e-12 2.75493e-11 1.73818

2.45429 3.48245 8.08635e-12
3.48245 -2.63965 4.23628e-12
8.08635e-12 4.23628e-12 -0.0250221

0.899962 2.1425 8.47537e-12
2.1425 -9.95493 1.54212e-12
8.47537e-12 1.54212e-12 -2.22678

1.06228 -1.46063 2.50418e-11
-1.46063 -10.8537 -3.85192e-12
2.50418e-11 -3.85192e-12 -2.16267

-0.845219 2.76871 4.16119e-11
2.76871 5.10531 2.94744e-11
4.16119e-11 2.94744e-11 1.10461

0.866072 4.25684 -3.19735e-11
4.25684 0.0454793 -3.92975e-11
-3.19735e-11 -3.92975e-11 0.354556

-0.613727 0.400309 -4.21878e-11
0.400309 7.94973 -1.4641e-11
-4.21878e-11 -1.4641e-11 2.89013

0.495464 0.22244 3.46764e-11
0.22244 7.7623 -3.91108e-11
3.46764e-11 -3.91108e-11 2.96589

8.49744 0.181913 2.02282e-11
0.181913 0.460678 1.31022e-11
2.02282e-11 1.31022e-11 3.29921

2.77962 -3.19915 -7.22444e-12
-3.19915 0.543043 1.07853e-11
-7.22444e-12 1.07853e-11 1.25531

-12.9118 -2.19606 -8.91713e-11
-2.19606 -8.84623 -8.86095e-12
-8.91713e-11 -8.86095e-12 -12.392

-1.16333 1.1306 -1.07848e-10
1.1306 -1.12561 -1.01689e-10
-1.07848e-10 -1.01689e-10 -8.84747

4.65155 3.83943 -3.06376e-11
3.83943 -0.274236 -3.39087e-11
-3.06376e-11 -3.39087e-11 1.55878

5.44734 -1.59859 7.42058e-12
-1.59859 -1.79337 -1.8495e-11
7.42058e-12 -1.8495e-11 1.13357

8.13782 2.6961 3.333e-11
2.6961 4.14752 8.47781e-12
3.333e-11 8.47781e-12 5.13772

-4.69822 -2.79857 1.37731e-11
-2.79857 1.01017 -1.15587e-11
1.37731e-11 -1.15587e-11 -0.401187

-2.52998 5.06832 -5.10331e-12
5.06832 2.61927 2.88961e-12
-5.10331e-12 2.88961e-12 -0.0890666

4.70264 -0.0744197 -3.22179e-11
-0.0744197 -5.09927 3.46695e-12
-3.22179e-11 3.46695e-12 -0.101361

-2.52458 2.55072 -2.54311e-11
2.55072 4.78863 -2.42729e-11
-2.54311e-11 -2.42729e-11 0.921609

-8.49703 -3.38941 -1.54111e-12
-3.38941 0.288202 3.85292e-12
-1.54111e-12 3.85292e-12 -1.96388

-5.24697 4.75637 -2.57136e-11
4.75637 0.175075 -4.62371e-12
-2.57136e-11 -4.62371e-12 -1.67082

4.02767 2.98756 -2.07077e-11
2.98756 5.82403 -7.61051e-12
-2.07077e-11 -7.61051e-12 3.16707

5.80462 3.15012 -1.63817e-12
3.15012 5.25552 2.60068e-11
-1.63817e-12 2.60068e-11 3.49509

8.17729 2.41994 1.27283e-11
2.41994 4.17466 1.23353e-11
1.27283e-11 1.23353e-11 5.09154

-4.39136 5.23248 -3.61133e-12
5.23248 2.16601 1.75279e-11
-3.61133e-12 1.75279e-11 -0.741196

-6.37962 -3.78233 -2.05128e-11
-3.78233 -2.56194 7.43564e-11
-2.05128e-11 7.43564e-11 -1.44542

4.16429 0.152061 2.81719e-11
0.152061 -7.35008 -3.12053e-11
2.81719e-11 -3.12053e-11 -0.697102

-5.1114 3.57399 7.70424e-12
3.57399 -2.67162 2.88945e-11
7.70424e-12 2.88945e-11 -1.46914

-3.96306 -4.45619 7.68792e-13
-4.45619 1.19026 4.16078e-11
7.68792e-13 4.16078e-11 -0.737239

-1.8039 4.3261 5.77823e-12
4.3261 -0.976693 3.46937e-12
5.77823e-12 3.46937e-12 -0.493389

0.248344 -0.937224 2.58148e-11
-0.937224 7.02367 -4.00749e-11
2.58148e-11 -4.00749e-11 2.40968

1.47706 -1.24154 -3.00505e-11
-1.24154 6.88238 2.42736e-11
-3.00505e-11 2.42736e-11 2.45611

6.97254 -0.762741 4.14098e-12
-0.762741 1.35981 -2.73556e-11
4.14098e-12 -2.73556e-11 2.64424

1.9678 -2.64283 1.60897e-11
-2.64283 1.92165 2.50464e-11
1.60897e-11 2.50464e-11 1.28261

-0.50502 0.460459 -1.73334e-12
0.460459 4.06039 -9.63326e-12
-1.73334e-12 -9.63326e-12 0.695613

-3.16742 0.152012 -2.52343e-11
0.152012 4.93204 7.73011e-13
-2.52343e-11 7.73011e-13 0.532655

3.68604 -2.95765 -7.7095e-12
-2.95765 6.66559 -2.29246e-11
-7.7095e-12 -2.29246e-11 3.65294

3.45276 -2.81486 2.95729e-11
-2.81486 5.87522 2.23471e-11
2.95729e-11 2.23471e-11 3.57258

4.36388 -0.167017 -1.21828e-11
-0.167017 -6.97205 2.23423e-11
-1.21828e-11 2.23423e-11 -0.691274

3.92903 0.186029 1.68621e-12
0.186029 -6.68966 -1.3868e-11
1.68621e-12 -1.3868e-11 -0.693103

-3.74333 -3.49551 -2.00326e-11
-3.49551 -0.345992 -3.31318e-11
-2.00326e-11 -3.31318e-11 -0.495237

-2.75891 4.59225 -1.57946e-11
4.59225 2.49696 -7.71494e-13
-1.57946e-11 -7.71494e-13 -0.205469

-8.22157 2.96193 2.00368e-11
2.96193 0.0788107 3.08199e-11
2.00368e-11 3.08199e-11 -1.87425

-4.92552 -4.35102 -1.154e-12
-4.35102 0.120742 -1.4253e-11
-1.154e-12 -1.4253e-11 -1.40089

-1.53439 -3.48465 8.66981e-12
-3.48465 -2.09086 -1.2327e-11
8.66981e-12 -1.2327e-11 -0.976863

-2.44532 -1.83036 1.97451e-11
-1.83036 5.22058 2.31168e-11
1.97451e-11 2.31168e-11 1.05139

-1.88847 0.550739 3.06735e-11
0.550739 -3.72699 6.94012e-12
3.06735e-11 6.94012e-12 -2.3975

-2.55652 -1.74364 3.78469e-11
-1.74364 -4.38866 7.12697e-12
3.78469e-11 7.12697e-12 -2.48936

1.35074 -2.69145 -1.34797e-11
-2.69145 -0.698918 -4.23727e-11
-1.34797e-11 -4.23727e-11 0.270752

0.48438 -2.28518 4.71936e-11
-2.28518 -2.54532 6.93275e-12
4.71936e-11 6.93275e-12 -0.644153

0.926073 1.92561 -1.83017e-11
1.92561 -1.2689 5.37418e-11
-1.83017e-11 5.37418e-11 -0.519447

10.5894 -1.05313 1.88844e-11
-1.05313 6.81154 -3.85817e-12
1.88844e-11 -3.85817e-12 12.0097

1.8418 4.53863 -4.52734e-12
4.53863 3.63559 -2.79319e-11
-4.52734e-12 -2.79319e-11 1.50149

8.20681 2.17368 -3.98808e-11
2.17368 11.1249 -5.39931e-12
-3.98808e-11 -5.39931e-12 12.242

-0.948655 -2.44032 1.94863e-13
-2.44032 4.90398 4.04758e-12
1.94863e-13 4.04758e-12 1.09026

-7.03604 -2.3893 8.05526e-12
-2.3893 -4.31066 -1.03962e-11
8.05526e-12 -1.03962e-11 -6.59306

-5.622 0.958175 -2.78944e-11
0.958175 -6.65748 -2.65804e-11
-2.78944e-11 -2.65804e-11 -6.85343

1.70074 2.95299 -3.13996e-11
2.95299 0.485381 1.13631e-11
-3.13996e-11 1.13631e-11 0.343148

5.67992 -0.160552 7.80909e-12
-0.160552 -2.44067 1.57922e-11
7.80909e-12 1.57922e-11 0.847698

3.71962 3.6817 1.69557e-11
3.6817 0.895909 2.35055e-11
1.69557e-11 2.35055e-11 1.40251

-6.01386 1.78262 6.93203e-12
1.78262 2.93666 -9.6317e-12
6.93203e-12 -9.6317e-12 -0.735716

-3.97666 -2.46029 -1.63729e-11
-2.46029 0.941499 -1.59859e-11
-1.63729e-11 -1.59859e-11 -0.892837

-3.49319 4.08015 -1.77209e-11
4.08015 -1.26235 -4.71956e-12
-1.77209e-11 -4.71956e-12 -2.39726

-3.63313 -2.25902 4.1217e-11
-2.25902 -0.389862 -2.6978e-12
4.1217e-11 -2.6978e-12 -2.17088

-4.53012 5.55555 9.62471e-13
5.55555 1.647 -9.82355e-12
9.62471e-13 -9.82355e-12 -0.788536

-8.67153 -5.26537 -4.15086e-11
-5.26537 -1.34709 1.88822e-11
-4.15086e-11 1.88822e-11 -1.55496

-3.84965 2.88054 2.4079e-11
2.88054 2.4922 1.30986e-11
2.4079e-11 1.30986e-11 -0.0593185

-2.44572 1.4605 5.2491e-11
1.4605 3.9231 -3.21701e-11
5.2491e-11 -3.21701e-11 0.343185

-1.2949 -3.23234 -4.19951e-11
-3.23234 -1.81755 7.70772e-12
-4.19951e-11 7.70772e-12 -0.618191

-1.14974 3.41936 -1.71447e-11
3.41936 -0.820287 3.71788e-11
-1.71447e-11 3.71788e-11 -0.664539

2.78952 3.48631 -1.47387e-11
3.48631 3.05764 -4.68103e-11
-1.47387e-11 -4.68103e-11 1.45994

-2.84563 -3.41808 1.92633e-11
-3.41808 2.50768 2.7931e-11
1.92633e-11 2.7931e-11 -0.0627894

-3.89699 -0.606888 1.07888e-11
-0.606888 5.03546 1.0405e-11
1.07888e-11 1.0405e-11 0.50497

9.87593 2.46283 3.21789e-11
2.46283 11.5867 -4.93261e-11
3.21789e-11 -4.93261e-11 9.66149

11.2804 2.54877 -5.52008e-11
2.54877 9.96138 1.83007e-11
-5.52008e-11 1.83007e-11 9.61326

4.45937 -2.95559 -2.54326e-11
-2.95559 5.44328 6.16729e-12
-2.54326e-11 6.16729e-12 3.35688

3.69769 -1.10763 1.28633e-11
-1.10763 -4.37983 1.11733e-11
1.28633e-11 1.11733e-11 -0.115166

-8.91951 -3.70909 2.7014e-11
-3.70909 -6.80352 8.35901e-11
2.7014e-11 8.35901e-11 -11.1152

-5.79947 3.85096 1.25102e-10
3.85096 -11.4317 -7.3375e-11
1.25102e-10 -7.3375e-11 -11.4162

-3.29291 3.76773 2.58036e-11
3.76773 -3.22836 8.0887e-12
2.58036e-11 8.0887e-12 -4.98077

-5.0876 -0.986938 -1.50281e-11
-0.986938 -7.15971 1.48282e-11
-1.50281e-11 1.48282e-11 -5.78815

2.06944 -0.041798 1.09796e-11
-0.041798 -5.39816 -9.62891e-12
1.09796e-11 -9.62891e-12 -0.344122

-4.2485 -4.93679 -1.07875e-11
-4.93679 1.10945 1.13657e-11
-1.07875e-11 1.13657e-11 -0.687488

-7.77095 5.15708 1.48326e-11
5.15708 -1.51088 1.38712e-11
1.48326e-11 1.38712e-11 -1.55006

7.93138 -2.4013 9.25297e-12
-2.4013 9.07946 -1.9843e-11
9.25297e-12 -1.9843e-11 7.47939

7.87975 3.09742 -2.46653e-11
3.09742 7.93537 -1.01146e-11
-2.46653e-11 -1.01146e-11 7.26559

4.26817 -1.11875 9.05638e-12
-1.11875 9.28413 4.16189e-11
9.05638e-12 4.16189e-11 5.83513

4.98336 -1.3766 4.23898e-12
-1.3766 9.1466 -1.07891e-11
4.23898e-12 -1.07891e-11 5.60314

9.63925 -0.962677 -9.53719e-12
-0.962677 4.61143 -1.82087e-11
-9.53719e-12 -1.82087e-11 5.86046

4.33941 3.64416 2.73498e-11
3.64416 3.63946 -1.77222e-11
2.73498e-11 -1.77222e-11 2.97355

4.84296 1.08589 3.00519e-11
1.08589 10.9949 -4.62748e-12
3.00519e-11 -4.62748e-12 7.33332

10.5314 0.239152 6.75112e-12
0.239152 4.94636 -5.39086e-12
6.75112e-12 -5.39086e-12 7.18716

-5.30894 -0.43151 1.38671e-11
-0.43151 0.511642 3.3897e-11
1.38671e-11 3.3897e-11 -3.94349

-5.52741 -1.5849 -1.11697e-11
-1.5849 -3.45926 -3.55357e-11
-1.11697e-11 -3.55357e-11 -4.60339

1.3552 -1.23283 1.11706e-11
-1.23283 -3.88405 2.3883e-11
1.11706e-11 2.3883e-11 -0.704649

1.12726 0.545624 3.0438e-11
0.545624 -11.2789 2.65786e-11
3.0438e-11 2.65786e-11 -1.61023

1.03972 -2.40336 2.51306e-12
-2.40336 5.98685 3.44897e-11
2.51306e-12 3.44897e-11 2.38736

0.524278 -1.73032 2.91801e-11
-1.73032 5.70295 -6.58899e-11
2.91801e-11 -6.58899e-11 2.32684

2.54771 1.1519 1.79153e-11
1.1519 -5.13701 1.81054e-11
1.79153e-11 1.81054e-11 -0.201897

-4.82284 -1.14449 -2.87721e-11
-1.14449 -4.09771 4.00646e-11
-2.87721e-11 4.00646e-11 -4.58462

-3.39693 -0.0154144 1.47123e-12
-0.0154144 -5.31736 2.77302e-11
1.47123e-12 2.77302e-11 -4.65103

-0.538557 -2.43131 1.59897e-11
-2.43131 -1.47317 -1.7526e-11
1.59897e-11 -1.7526e-11 -0.768805

-2.13833 4.02714 3.69827e-11
4.02714 -0.558226 -3.00465e-11
3.69827e-11 -3.00465e-11 -0.350901

-2.61383 -4.23542 3.87061e-13
-4.23542 1.92691 -1.09799e-11
3.87061e-13 -1.09799e-11 -0.175884

1.69515 -1.09651 -1.25178e-11
-1.09651 -6.39319 -2.1961e-11
-1.25178e-11 -2.1961e-11 -0.906661

-3.97599 3.38142 -9.2457e-12
3.38142 0.640531 -5.77849e-12
-9.2457e-12 -5.77849e-12 -0.427286

-2.40534 -4.4876 7.8975e-12
-4.4876 1.83137 2.19602e-11
7.8975e-12 2.19602e-11 -0.136909

19.9519 -5.02126 4.60485e-11
-5.02126 20.3193 5.51076e-11
4.60485e-11 5.51076e-11 20.5741

-3.67424 1.07416 -2.83158e-11
1.07416 5.03391 6.55054e-12
-2.83158e-11 6.55054e-12 0.525369

-2.01394 -0.97514 -1.32949e-11
-0.97514 3.61854 1.56102e-11
-1.32949e-11 1.56102e-11 0.392836

-7.20707 0.528398 -3.73609e-11
0.528398 1.82585 -2.46543e-11
-3.73609e-11 -2.46543e-11 -4.61222

-6.42199 -0.0596342 5.39336e-12
-0.0596342 -4.96675 -2.19575e-11
5.39336e-12 -2.19575e-11 -5.62019

2.03719 -0.206593 8.47594e-12
-0.206593 -7.02476 -1.8106e-11
8.47594e-12 -1.8106e-11 -1.47549

2.78902 0.331679 -4.3148e-11
0.331679 -7.59058 8.6684e-12
-4.3148e-11 8.6684e-12 -1.49532

-1.46341 4.83562 -2.38847e-11
4.83562 -3.8929 -4.23842e-12
-2.38847e-11 -4.23842e-12 -2.23839

-2.52006 -2.75707 9.24742e-12
-2.75707 -4.46486 -1.05943e-11
9.24742e-12 -1.05943e-11 -2.38162

-0.731524 1.76993 1.81059e-11
1.76993 -3.24289 3.17829e-11
1.81059e-11 3.17829e-11 -3.70021

-3.0211 -0.965952 -4.08321e-11
-0.965952 -3.28279 4.81408e-12
-4.08321e-11 4.81408e-12 -3.9584

-7.3521 2.01519 -5.04856e-11
2.01519 -9.32057 2.23421e-11
-5.04856e-11 2.23421e-11 -9.75802

-6.84691 -5.71036 -2.70429e-11
-5.71036 -4.32619 -1.07878e-11
-2.70429e-11 -1.07878e-11 -8.62592

-4.93936 5.03394 3.07719e-11
5.03394 0.241791 3.12061e-11
3.07719e-11 3.12061e-11 -1.6034

-7.18966 -6.22408 -1.69037e-11
-6.22408 -3.02799 6.20268e-11
-1.69037e-11 6.20268e-11 -2.09335

2.09592 2.69421 -2.57174e-11
2.69421 -1.72206 -8.28497e-12
-2.57174e-11 -8.28497e-12 0.0355204

-3.72668 2.14155 4.43351e-12
2.14155 3.21713 4.04551e-11
4.43351e-12 4.04551e-11 0.0376153

0.126953 -3.48745 3.1596e-11
-3.48745 0.0200314 -2.81295e-11
3.1596e-11 -2.81295e-11 0.303542

-1.30355 -2.67846 -2.33112e-11
-2.67846 2.96981 3.81451e-11
-2.33112e-11 3.81451e-11 0.2768

1.8006 -2.50831 -6.06937e-12
-2.50831 -2.10363 7.32288e-12
-6.06937e-12 7.32288e-12 0.0605739

-1.34935 2.98152 3.24534e-11
2.98152 3.27939 -5.54758e-11
3.24534e-11 -5.54758e-11 0.289175

0.829817 4.23588 -1.54203e-12
4.23588 1.04213 -2.27313e-11
-1.54203e-12 -2.27313e-11 0.393894

-5.23739 5.5924 2.50529e-12
5.5924 -2.80785 2.65821e-11
2.50529e-12 2.65821e-11 -2.02008

-4.31836 -4.16271 -5.58897e-12
-4.16271 -0.803842 3.92945e-11
-5.58897e-12 3.92945e-11 -1.57498

1.51399 2.55327 -1.19477e-11
2.55327 -3.87702 -2.30919e-12
-1.19477e-11 -2.30919e-12 -0.937666

-1.34724 1.88505 -1.4259e-11
1.88505 -2.41522 -8.70493e-11
-1.4259e-11 -8.70493e-11 -9.19781

-12.7436 1.80201 4.44912e-11
1.80201 -11.4278 -2.20486e-11
4.44912e-11 -2.20486e-11 -12.9017

-0.0758655 -2.58082 2.88946e-11
-2.58082 -3.80328 1.81088e-11
2.88946e-11 1.81088e-11 -0.943295

0.172724 0.167382 7.31968e-12
0.167382 -6.91375 -1.30969e-11
7.31968e-12 -1.30969e-11 -2.71564

9.26954 -2.19215 1.13707e-11
-2.19215 10.9665 -1.50318e-11
1.13707e-11 -1.50318e-11 9.12103

10.6223 -1.80416 -2.56299e-11
-1.80416 8.7886 -1.06989e-11
-2.56299e-11 -1.06989e-11 8.7877

0.609162 0.201657 2.02003e-11
0.201657 -6.4639 -3.81375e-11
2.02003e-11 -3.81375e-11 -2.0639

1.85538 -0.29904 2.0224e-11
-0.29904 -7.04736 -5.85525e-11
2.0224e-11 -5.85525e-11 -2.00875

0.40033 0.520109 1.07882e-11
0.520109 -4.07861 1.46405e-11
1.07882e-11 1.46405e-11 -2.43893

-3.73855 -1.57073 3.78019e-11
-1.57073 3.45465 -1.9264e-11
3.78019e-11 -1.9264e-11 0.131151

5.24748 2.09058 4.50856e-11
2.09058 0.699887 1.23254e-11
4.50856e-11 1.23254e-11 1.4511

-2.81384 -3.25851 2.30601e-11
-3.25851 -2.69306 -3.4289e-11
2.30601e-11 -3.4289e-11 -1.6127

-2.3289 2.69652 -2.09943e-11
2.69652 -0.341497 -1.83012e-11
-2.09943e-11 -1.83012e-11 -1.35663

-3.64785 0.325037 7.30819e-12
0.325037 -0.428748 -5.18084e-12
7.30819e-12 -5.18084e-12 -9.27927

-7.09227 3.0699 2.46511e-11
3.0699 -14.0013 -2.21272e-11
2.46511e-11 -2.21272e-11 -12.2785

2.25491 -2.04375 1.11701e-11
-2.04375 -1.86235 7.13133e-12
1.11701e-11 7.13133e-12 0.143687

-0.121821 -0.0889462 -2.35734e-11
-0.0889462 -4.31456 1.21328e-11
-2.35734e-11 1.21328e-11 -2.20928

-0.8409 -0.722958 4.33213e-12
-0.722958 -3.59694 -5.77693e-12
4.33213e-12 -5.77693e-12 -2.08495

-2.56806 -3.69668 -4.50724e-11
-3.69668 1.05516 -7.89376e-12
-4.50724e-11 -7.89376e-12 -0.605435

-4.81337 1.91507 -9.05521e-12
1.91507 0.946967 7.71161e-13
-9.05521e-12 7.71161e-13 -0.874373

-5.81242 3.53947 2.88948e-11
3.53947 -1.71094 1.88769e-11
2.88948e-11 1.88769e-11 -1.26777

-3.92967 -5.00949 5.5862e-12
-5.00949 1.24832 -1.53955e-12
5.5862e-12 -1.53955e-12 -0.633791

21.2462 6.40922 4.27772e-11
6.40922 20.6534 -1.1172e-11
4.27772e-11 -1.1172e-11 20.9507

-4.78511 3.67312 2.15722e-11
3.67312 -1.47519 3.40966e-11
2.15722e-11 3.40966e-11 -2.46837

-4.55768 -2.81427 -4.16028e-11
-2.81427 -0.962304 -7.89622e-12
-4.16028e-11 -7.89622e-12 -2.26271

-5.55917 3.35473 -2.40739e-11
3.35473 0.386698 2.23453e-11
-2.40739e-11 2.23453e-11 -0.847668

-4.02782 -4.23256 3.27447e-11
-4.23256 1.11622 1.32892e-11
3.27447e-11 1.32892e-11 -0.681011

4.97894 -1.99386 1.24269e-11
-1.99386 -0.219222 -2.1577e-11
1.24269e-11 -2.1577e-11 1.29156

-0.0758392 3.62738 5.77879e-12
3.62738 -2.34146 -2.23431e-11
5.77879e-12 -2.23431e-11 -0.952395

-0.803264 3.88668 -1.19424e-11
3.88668 -3.60573 7.32083e-12
-1.19424e-11 7.32083e-12 -1.90973

-2.3524 -2.57212 7.12563e-12
-2.57212 -2.41308 -6.73713e-12
7.12563e-12 -6.73713e-12 -1.92935

1.85643 2.44203 -1.53966e-12
2.44203 -6.81605 3.84966e-12
-1.53966e-12 3.84966e-12 -1.13061

-1.63604 0.474288 -3.51439e-12
0.474288 -4.42868 2.38831e-11
-3.51439e-12 2.38831e-11 -3.17769

-0.666452 -0.693222 2.84347e-11
-0.693222 -6.04104 4.8341e-11
2.84347e-11 4.8341e-11 -3.38846

-10.0699 0.823736 7.3162e-12
0.823736 -4.91516 4.49743e-11
7.3162e-12 4.49743e-11 -9.55749

-8.49908 -1.30016 4.75684e-11
-1.30016 0.235173 -1.27123e-11
4.75684e-11 -1.27123e-11 -8.53972

12.3346 -0.601929 3.3916e-11
-0.601929 8.5477 -5.85754e-11
3.3916e-11 -5.85754e-11 12.5575

7.20148 -0.126053 -2.11194e-12
-0.126053 12.2719 -1.07874e-11
-2.11194e-12 -1.07874e-11 12.3866

-3.42412 4.19454 2.98369e-12
4.19454 1.54915 -4.04495e-11
2.98369e-12 -4.04495e-11 -0.885429

-4.18298 -3.61164 4.10764e-11
-3.61164 -1.86185 -7.20502e-11
4.10764e-11 -7.20502e-11 -1.25136

13.1664 2.25365 2.11978e-11
2.25365 12.9456 6.94e-12
2.11978e-11 6.94e-12 14.5008

13.2361 2.9136 9.63903e-12
2.9136 12.0632 1.61829e-11
9.63903e-12 1.61829e-11 14.1116

-18.6116 -4.61651 3.05729e-11
-4.61651 -3.95946 1.38285e-10
3.05729e-11 1.38285e-10 -12.9263

-13.4127 3.44609 3.64735e-11
3.44609 -6.33813 1.8143e-10
3.64735e-11 1.8143e-10 -12.3816

-0.496079 4.40918 -9.04795e-12
4.40918 -2.43489 7.70424e-12
-9.04795e-12 7.70424e-12 -0.797714

-3.29234 4.01815 1.108e-12
4.01815 -0.332674 -4.64252e-11
1.108e-12 -4.64252e-11 -1.21551

-3.44686 -4.02324 4.78186e-11
-4.02324 -1.88939 -4.20043e-11
4.78186e-11 -4.20043e-11 -1.17506

-0.199959 4.0572 1.60847e-11
4.0572 1.91361 2.23461e-11
1.60847e-11 2.23461e-11 0.31222

-0.74012 -3.23776 3.87178e-11
-3.23776 1.15708 1.27109e-11
3.87178e-11 1.27109e-11 0.370103

4.08806 -0.513556 -2.60113e-11
-0.513556 9.13044 2.9289e-11
-2.60113e-11 2.9289e-11 5.61001

4.67511 -1.042 3.06282e-11
-1.042 9.00116 -1.65753e-11
3.06282e-11 -1.65753e-11 5.44134

9.55496 -0.441339 -2.80013e-12
-0.441339 4.79444 7.70643e-12
-2.80013e-12 7.70643e-12 5.76528

-2.0841 4.67678 -3.41928e-11
4.67678 1.56478 -4.41154e-11
-3.41928e-11 -4.41154e-11 -0.264203

-2.83659 -3.62627 1.97495e-11
-3.62627 0.0674683 5.35502e-11
1.97495e-11 5.35502e-11 -0.331376

6.04817 0.725201 3.66098e-11
0.725201 11.0385 -5.39435e-12
3.66098e-11 -5.39435e-12 7.56878

11.0001 1.11993 -2.6396e-11
1.11993 6.2475 9.44648e-12
-2.6396e-11 9.44648e-12 7.67973

-4.57034 -4.63508 1.6765e-11
-4.63508 -3.39057 -1.65659e-11
1.6765e-11 -1.65659e-11 -2.18125

-4.3734 3.81794 4.65148e-11
3.81794 -0.78544 -3.06269e-11
4.65148e-11 -3.06269e-11 -2.04207

-4.63722 -4.10032 -2.9089e-11
-4.10032 -1.9222 -5.7779e-11
-2.9089e-11 -5.7779e-11 -2.26108

-4.53158 3.04894 1.15522e-12
3.04894 -1.18916 1.96457e-11
1.15522e-12 1.96457e-11 -2.40609

13.0432 -1.90434 1.75348e-11
-1.90434 13.4587 -1.27193e-11
1.75348e-11 -1.27193e-11 14.7736

13.0174 -1.91535 -3.76277e-12
-1.91535 13.4315 4.93232e-11
-3.76277e-12 4.93232e-11 14.8263

-1.36439 3.69737 -5.48924e-12
3.69737 1.23214 -2.31135e-11
-5.48924e-12 -2.31135e-11 -0.314269

-1.72066 -3.38691 -3.38013e-11
-3.38691 -0.950153 3.12107e-11
-3.38013e-11 3.12107e-11 -0.461347

-5.95559 0.967744 -3.73615e-11
0.967744 -1.64022 3.27767e-12
-3.73615e-11 3.27767e-12 -5.9025

-7.03633 -0.547611 8.18564e-11
-0.547611 -6.20523 -2.59044e-11
8.18564e-11 -2.59044e-11 -6.78188

-6.85299 -4.25308 -1.69987e-11
-4.25308 -1.11792 -1.92389e-12
-1.69987e-11 -1.92389e-12 -2.29528

-5.58052 3.9961 4.06889e-11
3.9961 0.317444 2.71616e-11
4.06889e-11 2.71616e-11 -2.22059

-4.12763 -0.889615 -4.51431e-11
-0.889615 -6.65765 1.6562e-11
-4.51431e-11 1.6562e-11 -4.36209

-2.68567 0.0855317 -6.09172e-12
0.0855317 -7.44612 3.56278e-11
-6.09172e-12 3.56278e-11 -4.3301

-2.90535 3.93734 -2.86992e-11
3.93734 -2.12293 3.27444e-11
-2.86992e-11 3.27444e-11 -1.32172

-2.54152 -3.86658 1.82988e-11
-3.86658 -0.215913 -2.98567e-11
1.82988e-11 -2.98567e-11 -0.933993

-4.33408 1.19166 1.80543e-12
1.19166 -8.58203 -1.32318e-11
1.80543e-12 -1.32318e-11 -7.28382

-7.97338 0.353925 1.10455e-10
0.353925 -10.1212 -1.0882e-10
1.10455e-10 -1.0882e-10 -10.0663

-6.33674 -1.07169 2.7952e-11
-1.07169 -7.36971 1.34133e-12
2.7952e-11 1.34133e-12 -7.37915

-11.8825 -0.140017 3.67646e-11
-0.140017 -7.17452 -6.16566e-12
3.67646e-11 -6.16566e-12 -10.2134

-8.90941 0.690132 -1.36732e-11
0.690132 0.1584 -4.96935e-11
-1.36732e-11 -4.96935e-11 -7.21469

-2.4888 3.90566 1.4642e-11
3.90566 -5.35474 5.58524e-11
1.4642e-11 5.58524e-11 -7.07758

-6.08077 -1.528 -2.11827e-11
-1.528 -8.15831 -5.06534e-11
-2.11827e-11 -5.06534e-11 -8.08166

-9.6948 -0.919527 -2.31123e-11
-0.919527 -4.28058 2.10917e-11
-2.31123e-11 2.10917e-11 -7.99096

-11.0641 2.28627 -1.61012e-10
2.28627 -8.385 -2.16491e-10
-1.61012e-10 -2.16491e-10 -10.5732

2.06521 2.32343 5.19093e-10
2.32343 -16.8057 4.31916e-11
5.19093e-10 4.31916e-11 -11.9189

0.165815 -1.52921 1.4061e-09
-1.52921 -0.92628 7.39034e-10
1.4061e-09 7.39034e-10 -9.20343

-7.96958 -5.25661 3.28218e-10
-5.25661 -3.46714 -7.8247e-11
3.28218e-10 -7.8247e-11 -8.87902

-6.59101 2.96505 2.85992e-11
2.96505 -6.79567 1.42539e-11
2.85992e-11 1.42539e-11 -7.86926

-5.25585 2.15368 1.82966e-11
2.15368 -1.91301 1.75271e-11
1.82966e-11 1.75271e-11 -4.07909

-10.0347 0.632543 1.49786e-11
0.632543 -10.9936 2.00877e-10
1.49786e-11 2.00877e-10 -11.6495

-4.45169 -4.90522 7.21808e-12
-4.90522 -6.11136 -7.75269e-13
7.21808e-12 -7.75269e-13 -7.13818

-8.28048 -5.63497 -3.71448e-11
-5.63497 -3.38631 -1.05158e-10
-3.71448e-11 -1.05158e-10 -9.79563

-4.87345 -2.75319 -5.71551e-11
-2.75319 -3.21981 5.7876e-12
-5.71551e-11 5.7876e-12 -3.95317

-5.73049 -4.59475 -5.75823e-11
-4.59475 -3.01348 -2.19483e-11
-5.75823e-11 -2.19483e-11 -4.88275

-8.13101 -3.05581 4.466e-11
-3.05581 -5.22484 6.58751e-11
4.466e-11 6.58751e-11 -7.42424

-7.06741 1.92581 -1.7676e-11
1.92581 -4.30432 -6.99184e-11
-1.7676e-11 -6.99184e-11 -5.58325

-6.3598 1.15248 -2.76747e-11
1.15248 -6.57369 4.0438e-12
-2.76747e-11 4.0438e-12 -7.42198

-0.0381404 3.27695 -2.54256e-11
3.27695 3.04776 -1.39672e-11
-2.54256e-11 -1.39672e-11 1.00029

-2.70781 1.64433 -7.90028e-12
1.64433 1.59955 5.19836e-12
-7.90028e-12 5.19836e-12 -0.57749

-3.88672 1.40762 2.29238e-11
1.40762 0.987199 -4.43038e-12
2.29238e-11 -4.43038e-12 -0.787369

3.4594 1.86056 -1.96503e-11
1.86056 -4.44282 -2.13495e-11
-1.96503e-11 -2.13495e-11 0.0112025

4.86735 0.630782 1.84936e-11
0.630782 -2.92787 5.70745e-12
1.84936e-11 5.70745e-12 0.769619

-6.42528 1.00823 -2.81202e-11
1.00823 -1.22351 4.23624e-12
-2.81202e-11 4.23624e-12 -2.72381

-7.64784 2.32211 -1.81027e-11
2.32211 -0.603877 2.54276e-11
-1.81027e-11 2.54276e-11 -2.70238

5.19523 -0.74079 1.73356e-11
-0.74079 -2.53457 4.96449e-12
1.73356e-11 4.96449e-12 0.895296

0.799926 -1.48784 1.61809e-11
-1.48784 -6.06531 4.0593e-11
1.61809e-11 4.0593e-11 -1.09044

2.66159 2.98384 -2.04189e-11
2.98384 5.75702 2.28266e-11
-2.04189e-11 2.28266e-11 3.33457

3.203 -2.98128 4.6246e-12
-2.98128 6.14769 2.98622e-11
4.6246e-12 2.98622e-11 3.77923

7.28521 -2.73345 -1.38748e-11
-2.73345 2.26562 2.50939e-11
-1.38748e-11 2.50939e-11 3.61336

-4.71872 -2.80933 1.50255e-11
-2.80933 -1.17079 -1.35794e-11
1.50255e-11 -1.35794e-11 -2.34987

-3.06295 -1.94333 2.61939e-11
-1.94333 -0.942279 1.98351e-11
2.61939e-11 1.98351e-11 -2.16092

-2.92349 2.79186 -1.92627e-11
2.79186 1.23132 -4.81607e-12
-1.92627e-11 -4.81607e-12 -0.0742901

-5.1946 3.36033 -3.8521e-12
3.36033 0.188606 -9.34253e-12
-3.8521e-12 -9.34253e-12 -0.790795

-7.45499 -2.17756 1.92876e-12
-2.17756 -0.484962 -4.04502e-11
1.92876e-12 -4.04502e-11 -2.69211

-6.8225 -0.636749 -2.08032e-11
-0.636749 -1.23237 6.29898e-11
-2.08032e-11 6.29898e-11 -2.80454

4.27263 0.856235 -1.45456e-11
0.856235 -4.75709 -2.95262e-11
-1.45456e-11 -2.95262e-11 -0.160414

1.80441 1.07365 1.65749e-11
1.07365 6.74104 -2.63947e-11
1.65749e-11 -2.63947e-11 2.75225

1.82349 -0.877183 1.19453e-11
-0.877183 6.63093 -1.70954e-11
1.19453e-11 -1.70954e-11 2.78883

8.28368 -0.757689 -1.83017e-11
-0.757689 1.65864 9.34275e-12
-1.83017e-11 9.34275e-12 3.03676

0.189983 3.76589 1.98366e-11
3.76589 1.39099 -4.16079e-11
1.98366e-11 -4.16079e-11 0.731873

5.46267 -2.50373 -6.16433e-12
-2.50373 -1.81542 -1.07639e-11
-6.16433e-12 -1.07639e-11 1.29128

1.24776 3.98961 6.54706e-12
3.98961 -0.641358 -2.27354e-11
6.54706e-12 -2.27354e-11 0.320514

-0.458025 3.17998 -2.92832e-11
3.17998 3.8061 3.21662e-11
-2.92832e-11 3.21662e-11 0.900845

3.146 -1.57891 -7.70199e-13
-1.57891 -4.98629 2.18342e-11
-7.70199e-13 2.18342e-11 -0.170889

7.40045 2.09838 -2.00403e-11
2.09838 9.51845 -4.14098e-12
-2.00403e-11 -4.14098e-12 6.58846

2.00912 1.95803 -3.46656e-12
1.95803 -6.08056 1.05334e-11
-3.46656e-12 1.05334e-11 -0.788903

10.5113 -1.81373 -5.00992e-12
-1.81373 6.83222 -1.21731e-11
-5.00992e-12 -1.21731e-11 6.82432

-4.02538 -0.690774 1.07899e-11
-0.690774 -1.29123 3.46797e-12
1.07899e-11 3.46797e-12 -2.90401

-4.104 1.22582 -5.31574e-11
1.22582 -1.18408 3.13981e-11
-5.31574e-11 3.13981e-11 -2.88142

-0.328733 -3.73312 1.03988e-11
-3.73312 -6.83605 8.76417e-12
1.03988e-11 8.76417e-12 -7.73484

-0.359222 3.86264 5.85524e-11
3.86264 -6.86423 4.33358e-11
5.85524e-11 4.33358e-11 -7.68114

7.86172 -0.996614 -4.43009e-12
-0.996614 1.06577 -2.91304e-12
-4.43009e-12 -2.91304e-12 3.09413

-1.21944 4.36016 -4.40388e-15
4.36016 -1.57913 -3.69871e-11
-4.40388e-15 -3.69871e-11 -0.467523

-0.0906549 -2.26221 -6.93386e-12
-2.26221 -4.43903 -3.28402e-11
-6.93386e-12 -3.28402e-11 -3.03924

0.0180432 2.25395 -1.34813e-11
2.25395 -4.27276 2.85555e-11
-1.34813e-11 2.85555e-11 -2.846

0.615898 0.784963 1.46406e-11
0.784963 -7.17427 1.76591e-11
1.46406e-11 1.76591e-11 -1.23789

-0.712186 3.59304 -2.11942e-12
3.59304 3.83869 -1.28103e-11
-2.11942e-12 -1.28103e-11 0.869586

4.63528 -3.10869 3.08124e-12
-3.10869 -0.605209 -1.69271e-11
3.08124e-12 -1.69271e-11 1.2734

1.12938 -0.193248 1.83039e-12
-0.193248 -7.62505 -2.625e-11
1.83039e-12 -2.625e-11 -1.05499

0.089685 -3.77951 -7.70236e-12
-3.77951 1.5191 -5.01036e-12
-7.70236e-12 -5.01036e-12 0.742489

-0.0666146 -3.09909 1.50176e-11
-3.09909 3.04041 1.08819e-11
1.50176e-11 1.08819e-11 0.985223

-4.12332 3.53949 2.893e-12
3.53949 1.63007 1.1556e-11
2.893e-12 1.1556e-11 -0.625324

4.21214 -4.32297 -6.93601e-12
-4.32297 1.0575 -1.51297e-11
-6.93601e-12 -1.51297e-11 1.80095

20.3812 -3.296 6.16514e-12
-3.296 18.5087 1.97324e-12
6.16514e-12 1.97324e-12 19.5322

20.4581 4.57865 3.93033e-11
4.57865 19.8341 -2.57485e-11
3.93033e-11 -2.57485e-11 20.0023

-7.40684 -4.2256 1.65656e-11
-4.2256 -0.640177 -2.98563e-11
1.65656e-11 -2.98563e-11 -1.943

13.889 0.600612 8.47685e-12
0.600612 11.868 1.44033e-11
8.47685e-12 1.44033e-11 13.6657

11.9138 -1.1066 5.00866e-12
-1.1066 11.3153 -6.62255e-12
5.00866e-12 -6.62255e-12 12.9018

-4.21205 -0.990321 2.27248e-11
-0.990321 -3.00283 8.60976e-11
2.27248e-11 8.60976e-11 -3.48002

-4.1742 1.02823 -2.61954e-11
1.02823 -3.07585 -4.71898e-11
-2.61954e-11 -4.71898e-11 -3.48224

5.27142 -0.0705225 -7.32088e-12
-0.0705225 -5.60174 -2.46066e-11
-7.32088e-12 -2.46066e-11 -0.166295

-4.54914 -0.537342 -2.38785e-11
-0.537342 -4.93799 -1.61307e-11
-2.38785e-11 -1.61307e-11 -3.99356

-4.49441 0.590705 -2.46564e-11
0.590705 -4.92654 1.68032e-11
-2.46564e-11 1.68032e-11 -3.97373

-3.04187 3.29599 -3.65994e-11
3.29599 2.8691 3.07761e-12
-3.65994e-11 3.07761e-12 0.00863486

-1.73409 -3.49458 2.0413e-11
-3.49458 -5.71443 2.27267e-11
2.0413e-11 2.27267e-11 -6.34198

-1.81993 3.511 -1.1581e-12
3.511 -5.76709 2.4251e-13
-1.1581e-12 2.4251e-13 -6.32564

-2.30632 -1.75194 -1.00164e-11
-1.75194 -2.69837 2.89412e-11
-1.00164e-11 2.89412e-11 -1.75724

-2.30562 1.76704 1.02095e-11
1.76704 -2.72592 6.0484e-11
1.02095e-11 6.0484e-11 -1.76172

7.62734 -2.97942 -3.1983e-11
-2.97942 2.24567 -3.85063e-11
-3.1983e-11 -3.85063e-11 4.02535

-9.51546 1.73232 3.70074e-15
1.73232 -1.18721 2.50544e-12
3.70074e-15 2.50544e-12 -6.41423

-7.36117 -0.332614 -1.9258e-11
-0.332614 -4.30002 -2.34981e-11
-1.9258e-11 -2.34981e-11 -6.72874

-0.691951 -3.63175 1.86853e-11
-3.63175 3.83352 4.13773e-12
1.86853e-11 4.13773e-12 0.862208

6.25525 -0.913647 4.19941e-11
-0.913647 9.13546 -7.73256e-12
4.19941e-11 -7.73256e-12 6.74275

10.2172 -0.943558 -3.00553e-11
-0.943558 5.21106 -5.59813e-11
-3.00553e-11 -5.59813e-11 6.9285

-4.5015 2.83056 1.92725e-12
2.83056 1.88094 1.2714e-11
1.92725e-12 1.2714e-11 -0.671151

-4.97967 2.82309 1.92639e-12
2.82309 0.59558 -1.07884e-11
1.92639e-12 -1.07884e-11 -0.795663

-8.96104 -2.81347 -1.81238e-10
-2.81347 -15.7891 2.34133e-11
-1.81238e-10 2.34133e-11 -14.0492

-8.83602 2.60133 1.13055e-10
2.60133 -14.9947 1.32413e-10
1.13055e-10 1.32413e-10 -13.8262

-6.00832 3.70453 -1.38685e-11
3.70453 -2.01167 2.69607e-12
-1.38685e-11 2.69607e-12 -1.33364

0.851856 1.12917 -3.9104e-11
1.12917 -4.72694 -1.9407e-11
-3.9104e-11 -1.9407e-11 -1.1205

0.937162 -1.17415 3.69848e-11
-1.17415 -4.73423 -2.31285e-12
3.69848e-11 -2.31285e-12 -1.1027

-3.40467 4.97101 5.47029e-11
4.97101 -2.41412 -2.62911e-11
5.47029e-11 -2.62911e-11 -1.11836

-5.37736 -3.34882 1.0401e-11
-3.34882 -0.32108 1.33887e-11
1.0401e-11 1.33887e-11 -1.76848

7.70484 -0.0574898 -7.12689e-12
-0.0574898 0.178579 2.04562e-12
-7.12689e-12 2.04562e-12 2.9757

6.2334 0.0716619 3.46752e-12
0.0716619 -2.4472 -3.97332e-12
3.46752e-12 -3.97332e-12 0.889796

6.27095 2.23435 -2.27341e-11
2.23435 -0.937915 6.66981e-12
-2.27341e-11 6.66981e-12 1.73676

0.133807 3.71716 -1.88801e-11
3.71716 -6.39214 -1.6803e-11
-1.88801e-11 -1.6803e-11 -2.67642

-1.41753 -0.552034 -7.1637e-11
-0.552034 -4.25963 4.85847e-11
-7.1637e-11 4.85847e-11 -8.87172

-1.55626 0.548948 -4.73776e-11
0.548948 -3.98956 -3.0815e-11
-4.73776e-11 -3.0815e-11 -8.90592

4.90768 3.24781 -1.11698e-11
3.24781 4.53945 1.93133e-11
-1.11698e-11 1.93133e-11 3.13224

1.69314 -4.13771 -2.58119e-11
-4.13771 -1.86375 2.02298e-11
-2.58119e-11 2.02298e-11 0.13755

4.2811 -1.02735 -2.40805e-11
-1.02735 -2.63201 2.67971e-11
-2.40805e-11 2.67971e-11 0.210485

-9.20562 3.99676 -1.9254e-11
3.99676 -2.0633 1.61836e-11
-1.9254e-11 1.61836e-11 -7.87918

-8.71485 -1.05001 -5.2771e-11
-1.05001 -7.34782 -2.42641e-11
-5.2771e-11 -2.42641e-11 -8.89847

0.0238092 -3.63549 1.54166e-12
-3.63549 -6.15897 -5.05547e-12
1.54166e-12 -5.05547e-12 -2.83006

-3.87371 -1.05244 1.19416e-11
-1.05244 1.14394 1.74341e-11
1.19416e-11 1.74341e-11 -0.876388

-3.20515 -1.10137 -1.41549e-11
-1.10137 1.50463 -1.8973e-11
-1.41549e-11 -1.8973e-11 -0.760664

3.74042 -0.290152 2.11868e-12
-0.290152 -7.1716 2.08016e-11
2.11868e-12 2.08016e-11 -0.923002

3.79892 0.273193 5.00833e-12
0.273193 -7.33233 1.22842e-12
5.00833e-12 1.22842e-12 -0.940508

6.3145 2.79847 3.65944e-12
2.79847 4.54545 -1.68317e-12
3.65944e-12 -1.68317e-12 3.43058

0.909203 -0.221072 -1.17014e-11
-0.221072 -6.87549 -1.95496e-11
-1.17014e-11 -1.95496e-11 -2.03907

0.908067 0.200441 7.07875e-12
0.200441 -6.82522 -1.05932e-11
7.07875e-12 -1.05932e-11 -2.02105

4.3794 1.01952 -1.02108e-11
1.01952 -2.69586 8.47526e-12
-1.02108e-11 8.47526e-12 0.220483

-0.535074 -3.23177 1.61804e-11
-3.23177 3.83004 -1.16547e-11
1.61804e-11 -1.16547e-11 0.876096

3.71514 -0.107496 -1.50251e-11
-0.107496 -5.04771 -1.6661e-11
-1.50251e-11 -1.6661e-11 -0.697761

3.75463 0.136644 1.65669e-11
0.136644 -5.17312 -1.16275e-11
1.65669e-11 -1.16275e-11 -0.712478

2.98913 -2.47793 7.71013e-13
-2.47793 -3.48999 -8.90713e-12
7.71013e-13 -8.90713e-12 -0.0389591

-4.06977 4.56178 1.88763e-11
4.56178 0.62065 3.27623e-12
1.88763e-11 3.27623e-12 -0.878121

3.95391 3.4717 -1.04006e-11
3.4717 0.513556 2.59553e-11
-1.04006e-11 2.59553e-11 1.36161

-5.00238 3.70177 2.5426e-11
3.70177 -2.7953 -3.85139e-12
2.5426e-11 -3.85139e-12 -1.40493

-4.08854 4.53933 2.08026e-11
4.53933 1.21247 4.43134e-12
2.08026e-11 4.43134e-12 -0.724052

5.872 -1.76438 3.25592e-11
-1.76438 -1.7487 9.72925e-14
3.25592e-11 9.72925e-14 1.19077

0.816502 -4.05352 -1.15639e-11
-4.05352 -4.17086 5.7448e-11
-1.15639e-11 5.7448e-11 -0.992855

3.30327 2.47453 -4.99933e-12
2.47453 -2.87247 5.26318e-11
-4.99933e-12 5.26318e-11 0.187573

2.45353 4.04946 1.4548e-11
4.04946 1.23359 -7.65314e-13
1.4548e-11 -7.65314e-13 1.33969

1.70269 4.15939 9.63444e-12
4.15939 -1.84007 1.76723e-11
9.63444e-12 1.76723e-11 0.167717

-5.59558 0.381027 -2.46583e-11
0.381027 1.36662 -1.55997e-11
-2.46583e-11 -1.55997e-11 -1.04871

-5.48229 0.134851 1.11677e-11
0.134851 1.33734 1.98395e-11
1.11677e-11 1.98395e-11 -1.05449

7.14648 2.92636 -2.12008e-12
2.92636 2.15484 -1.77036e-12
-2.12008e-12 -1.77036e-12 3.48885

-3.45492 -4.96627 4.08386e-11
-4.96627 -2.47701 -6.18347e-11
4.08386e-11 -6.18347e-11 -1.14225

1.81267 -3.9585 -1.04038e-11
-3.9585 3.7755 2.55265e-11
-1.04038e-11 2.55265e-11 1.59099

1.7662 4.00753 9.82229e-12
4.00753 3.99348 -3.61178e-11
9.82229e-12 -3.61178e-11 1.63428

2.71385 -2.98737 2.08083e-11
-2.98737 -3.30725 5.34583e-12
2.08083e-11 5.34583e-12 -0.11554

0.982029 -1.97904 3.31323e-11
-1.97904 -9.57959 1.14132e-11
3.31323e-11 1.14132e-11 -2.19557

1.03558 1.9948 2.34975e-11
1.9948 -9.01005 -4.04402e-12
2.34975e-11 -4.04402e-12 -2.02255

-1.16753 2.19242 3.31328e-11
2.19242 3.72366 -2.07131e-11
3.31328e-11 -2.07131e-11 0.970429

1.45752 -4.16858 -3.23661e-11
-4.16858 -0.554173 1.28136e-11
-3.23661e-11 1.28136e-11 0.375679

0.350583 -0.169894 8.86143e-12
-0.169894 7.17085 -2.35994e-11
8.86143e-12 -2.35994e-11 2.87721

0.390995 0.0677771 -3.35227e-11
0.0677771 7.24722 -5.926e-12
-3.35227e-11 -5.926e-12 2.93152

8.86458 0.210861 3.08198e-12
0.210861 0.274866 -3.14976e-11
3.08198e-12 -3.14976e-11 3.26352

6.17493 -2.90321 3.66292e-12
-2.90321 4.84526 -1.63733e-11
3.66292e-12 -1.63733e-11 3.46441

3.13856 3.52925 -2.54297e-11
3.52925 0.65418 3.0583e-11
-2.54297e-11 3.0583e-11 1.22121

-9.69137 -7.18191 -3.69782e-11
-7.18191 -6.4893 -1.53126e-12
-3.69782e-11 -1.53126e-12 -11.2981

-7.01601 3.10418 -6.0473e-11
3.10418 -4.97501 -1.98359e-11
-6.0473e-11 -1.98359e-11 -10.4063

5.7806 1.60756 -2.21547e-11
1.60756 -1.88218 -3.49186e-12
-2.21547e-11 -3.49186e-12 1.10496

-2.8867 4.3932 -2.65831e-11
4.3932 2.33105 -1.51238e-11
-2.65831e-11 -1.51238e-11 -0.113171

5.36162 0.0646357 -1.19441e-11
0.0646357 -5.52661 2.79134e-11
-1.19441e-11 2.79134e-11 -0.131236

-1.29014 -2.12034 -2.23488e-11
-2.12034 3.76538 1.83014e-11
-2.23488e-11 1.83014e-11 0.942871

-8.90567 4.37463 1.23303e-11
4.37463 -0.666722 1.66619e-11
1.23303e-11 1.66619e-11 -2.09924

-5.0401 3.58219 1.54097e-11
3.58219 0.0130874 2.11903e-11
1.54097e-11 2.11903e-11 -1.537

-4.06174 -4.55084 -5.77908e-12
-4.55084 0.57711 2.13847e-11
-5.77908e-12 2.13847e-11 -0.891021

-4.4439 4.59853 4.04284e-12
4.59853 1.48567 -4.0548e-11
4.04284e-12 -4.0548e-11 -0.746821

-3.68948 3.48632 -9.24368e-12
3.48632 -0.232065 -3.15932e-11
-9.24368e-12 -3.15932e-11 -0.471209

5.01235 0.0394307 -1.50256e-11
0.0394307 -8.09705 -2.71635e-11
-1.50256e-11 -2.71635e-11 -0.7837

3.569 -3.48345 -1.56021e-11
-3.48345 0.789928 1.73372e-12
-1.56021e-11 1.73372e-12 1.37515

-5.07388 -3.71921 -1.54097e-11
-3.71921 -2.84272 2.14785e-11
-1.54097e-11 2.14785e-11 -1.43305

2.54557 -2.97985 2.88769e-12
-2.97985 2.80592 2.50406e-11
2.88769e-12 2.50406e-11 1.40474

4.95313 -2.88911 -1.19514e-11
-2.88911 5.03158 4.87062e-12
-1.19514e-11 4.87062e-12 3.50927

-1.39091 -4.3031 -4.62537e-12
-4.3031 -1.50109 -8.85958e-12
-4.62537e-12 -8.85958e-12 -0.491283

1.32351 -1.76482 1.11786e-11
-1.76482 6.49166 -2.90932e-11
1.11786e-11 -2.90932e-11 2.42541

1.27686 1.67418 1.46477e-11
1.67418 6.51573 -6.30888e-12
1.46477e-11 -6.30888e-12 2.40192

7.2592 1.00968 -1.71472e-11
1.00968 1.45788 -3.69726e-12
-1.71472e-11 -3.69726e-12 2.67368

2.50084 3.10738 -1.36765e-11
3.10738 2.78039 -9.82525e-12
-1.36765e-11 -9.82525e-12 1.39523

-1.6057 0.549612 2.35037e-11
0.549612 4.00546 -1.21398e-11
2.35037e-11 -1.21398e-11 0.614591

-1.60205 -0.118068 -3.84655e-13
-0.118068 3.9882 -1.25122e-12
-3.84655e-13 -1.25122e-12 0.627135

3.91361 -3.40255 1.27199e-11
-3.40255 5.64467 -4.30693e-13
1.27199e-11 -4.30693e-13 3.49049

4.13324 3.40866 1.15576e-11
3.40866 5.69366 -1.5404e-12
1.15576e-11 -1.5404e-12 3.56249

5.08568 0.273473 -2.11869e-12
0.273473 -7.4687 4.83904e-12
-2.11869e-12 4.83904e-12 -0.726554

5.15778 -0.259443 -3.85274e-11
-0.259443 -7.55153 8.66899e-13
-3.85274e-11 8.66899e-13 -0.718657

-2.87672 4.00515 2.21512e-11
4.00515 2.14387 -1.67586e-11
2.21512e-11 -1.67586e-11 -0.199443

-9.25589 -3.90575 -4.54572e-11
-3.90575 -0.863117 1.04988e-11
-4.54572e-11 1.04988e-11 -2.08238

-0.180102 4.40473 -1.57957e-11
4.40473 -2.91011 -4.00659e-11
-1.57957e-11 -4.00659e-11 -0.798685

8.84793 2.0441 -5.24098e-11
2.0441 3.42155 -3.35222e-11
-5.24098e-11 -3.35222e-11 5.09743

-1.27679 2.6573 1.11692e-11
2.6573 5.05421 2.07088e-11
1.11692e-11 2.07088e-11 1.12471

-1.66422 0.260653 1.54104e-11
0.260653 -4.24269 4.18431e-11
1.54104e-11 4.18431e-11 -2.42838

-1.66277 -0.233002 -8.70622e-11
-0.233002 -4.19082 1.8779e-11
-8.70622e-11 1.8779e-11 -2.42018

1.81921 2.56518 -2.11925e-11
2.56518 0.132092 -5.24435e-11
-2.11925e-11 -5.24435e-11 0.338506

1.15721 -1.58546 8.28204e-12
-1.58546 -1.64698 5.77501e-13
8.28204e-12 5.77501e-13 -0.512894

1.14269 1.61596 -2.54244e-11
1.61596 -1.64391 1.23278e-11
-2.54244e-11 1.23278e-11 -0.515198

11.5937 -1.60888 -1.1943e-11
-1.60888 7.95534 -1.36087e-11
-1.1943e-11 -1.36087e-11 12.3153

6.96208 2.02794 6.93682e-12
2.02794 10.714 -2.45922e-11
6.93682e-12 -2.45922e-11 12.1282

-1.50036 -2.61144 -7.32281e-12
-2.61144 4.99014 6.26432e-12
-7.32281e-12 6.26432e-12 1.05729

-5.47502 -0.588399 -4.56464e-11
-0.588399 -7.37476 4.2083e-11
-4.56464e-11 4.2083e-11 -6.98575

-5.43043 0.670688 -6.6063e-11
0.670688 -7.29698 -5.1909e-11
-6.6063e-11 -5.1909e-11 -6.9516

9.19318 1.75695 -5.5874e-11
1.75695 3.30443 1.23527e-11
-5.5874e-11 1.23527e-11 5.19959

-5.25515 -2.16459 -1.92583e-12
-2.16459 1.20006 3.54442e-11
-1.92583e-12 3.54442e-11 -0.845843

-4.58446 -2.11309 -3.89075e-11
-2.11309 1.65569 -3.60193e-11
-3.89075e-11 -3.60193e-11 -0.817868

2.88106 -4.25457 7.32066e-12
-4.25457 2.06317 -2.60098e-11
7.32066e-12 -2.60098e-11 1.6652

-4.40721 -4.62765 1.30985e-11
-4.62765 1.47015 -2.11884e-11
1.30985e-11 -2.11884e-11 -0.748544

-7.96037 5.52094 2.3117e-11
5.52094 -1.83801 2.03224e-11
2.3117e-11 2.03224e-11 -1.55796

-3.21024 2.50144 -2.92763e-11
2.50144 -1.37265 2.43615e-11
-2.92763e-11 2.43615e-11 -2.27787

-4.81938 3.45215 -1.4637e-11
3.45215 -1.53845 -4.81696e-12
-1.4637e-11 -4.81696e-12 -2.42779

-2.97024 -4.04492 -7.31926e-12
-4.04492 2.12848 -1.52169e-11
-7.31926e-12 -1.52169e-11 -0.228412

-1.73574 4.24623 -1.34807e-11
4.24623 -1.19535 -1.61836e-11
-1.34807e-11 -1.61836e-11 -0.348732

1.76939 -2.60433 6.54861e-12
-2.60433 0.150522 2.27284e-11
6.54861e-12 2.27284e-11 0.327024

5.46706 3.10868 -2.31187e-11
3.10868 -0.734203 3.7554e-12
-2.31187e-11 3.7554e-12 1.67666

6.11572 -0.0951749 2.11838e-12
-0.0951749 -2.54348 -8.49361e-12
2.11838e-12 -8.49361e-12 0.842169

-4.45847 4.82518 -1.44441e-11
4.82518 1.27826 3.43827e-11
-1.44441e-11 3.43827e-11 -0.692287

-3.13375 -2.90571 1.42568e-11
-2.90571 1.18314 -3.24551e-11
1.42568e-11 -3.24551e-11 -0.134859

-2.8173 1.06048 2.69853e-12
1.06048 3.6836 -1.76308e-11
2.69853e-12 -1.76308e-11 0.432481

-1.14303 2.97416 2.408e-11
2.97416 -1.19129 -1.76231e-11
2.408e-11 -1.76231e-11 -0.684303

-2.65835 1.31787 2.81283e-11
1.31787 4.06749 -2.30231e-11
2.81283e-11 -2.30231e-11 0.451511

-4.5271 -3.72633 1.27109e-11
-3.72633 0.436068 -2.1199e-12
1.27109e-11 -2.1199e-12 -1.2767

10.3734 -2.09034 4.23973e-11
-2.09034 10.8239 -9.94686e-12
4.23973e-11 -9.94686e-12 9.81596

12.3047 -2.10372 1.15922e-12
-2.10372 9.21028 -2.70683e-11
1.15922e-12 -2.70683e-11 9.98662

4.14257 -0.839978 -4.21896e-11
-0.839978 -4.7449 2.11487e-11
-4.21896e-11 2.11487e-11 -0.186797

-1.16055 -2.98159 2.46556e-11
-2.98159 -1.22412 1.66607e-11
2.46556e-11 1.66607e-11 -0.695127

-5.61312 -3.99252 -1.05943e-11
-3.99252 -12.6778 -2.06994e-11
-1.05943e-11 -2.06994e-11 -11.6854

-5.48156 3.82406 4.79563e-11
3.82406 -12.3495 -6.20063e-11
4.79563e-11 -6.20063e-11 -11.5734

-2.98669 -4.33309 2.83156e-11
-4.33309 2.25242 5.6819e-12
2.83156e-11 5.6819e-12 -0.166556

-3.23675 -3.71436 -8.47448e-12
-3.71436 -3.20843 1.1171e-11
-8.47448e-12 1.1171e-11 -4.96395

-3.29008 3.7751 -2.65773e-11
3.7751 -3.17169 -1.80094e-11
-2.65773e-11 -1.80094e-11 -4.88716

2.4048 0.816593 -2.8897e-11
0.816593 -5.15743 -1.0685e-11
-2.8897e-11 -1.0685e-11 -0.322947

-8.0769 -5.52796 9.24292e-12
-5.52796 -1.99062 2.78344e-11
9.24292e-12 2.78344e-11 -1.60553

8.65332 -2.48883 2.17721e-11
-2.48883 8.42466 -2.24287e-12
2.17721e-11 -2.24287e-12 7.70519

8.94177 2.4981 -1.92692e-11
2.4981 7.17303 -2.94298e-11
-1.92692e-11 -2.94298e-11 7.26167

5.41154 -1.85522 2.94802e-11
-1.85522 8.90282 -9.97187e-12
2.94802e-11 -9.97187e-12 5.8177

4.95701 1.72542 3.14011e-11
1.72542 9.03405 1.72875e-11
3.14011e-11 1.72875e-11 5.79505

9.82095 1.06312 1.05969e-11
1.06312 4.47207 1.8386e-11
1.05969e-11 1.8386e-11 5.96615

-4.42418 -4.86249 1.50256e-11
-4.86249 1.36347 -4.01629e-11
1.50256e-11 -4.01629e-11 -0.673655

5.39932 0.552566 -8.08988e-12
0.552566 10.1659 1.804e-11
-8.08988e-12 1.804e-11 7.18434

11.4733 -0.601448 1.84979e-11
-0.601448 5.4528 -1.12e-11
1.84979e-11 -1.12e-11 7.61228

-7.17979 -1.53297 5.23824e-11
-1.53297 -1.0395 1.30988e-11
5.23824e-11 1.30988e-11 -4.35664

-4.75255 -0.094075 -1.3486e-11
-0.094075 -2.99485 -1.17477e-11
-1.3486e-11 -1.17477e-11 -4.37393

1.90434 2.41468 -1.73378e-11
2.41468 -3.84237 -4.57955e-11
-1.73378e-11 -4.57955e-11 -0.712999

1.21676 -0.171084 4.16088e-11
-0.171084 -10.4533 1.44436e-12
4.16088e-11 1.44436e-12 -1.56213

1.28476 2.45241 2.6586e-11
2.45241 5.77516 -7.22977e-13
2.6586e-11 -7.22977e-13 2.35582

1.23234 -2.56638 4.25764e-11
-2.56638 5.76719 4.16622e-11
4.25764e-11 4.16622e-11 2.3599

2.85595 -0.460044 -9.24594e-12
-0.460044 -5.02004 -1.01651e-11
-9.24594e-12 -1.01651e-11 -0.197925

-3.16233 -3.2873 -7.70524e-12
-3.2873 2.93811 3.1114e-11
-7.70524e-12 3.1114e-11 -0.017125

-3.12521 0.345093 9.2466e-12
0.345093 -6.01489 -6.68314e-11
9.2466e-12 -6.68314e-11 -4.73738

-3.14408 -0.298441 -1.73394e-11
-0.298441 -5.99639 6.27894e-11
-1.73394e-11 6.27894e-11 -4.72955

0.200937 3.66923 -3.66018e-11
3.66923 -2.36805 -2.48525e-11
-3.66018e-11 -2.48525e-11 -0.809583

-1.84456 -4.1413 -4.77689e-11
-4.1413 -1.23504 1.44947e-12
-4.77689e-11 1.44947e-12 -0.377725

2.24075 2.20195 -6.93282e-12
2.20195 -6.28383 2.47508e-11
-6.93282e-12 2.47508e-11 -0.90453

5.4536 3.24345 -1.88785e-11
3.24345 2.92751 -8.67084e-13
-1.88785e-11 -8.67084e-13 3.07833

-3.68663 -3.58973 -1.98406e-11
-3.58973 -0.120467 -7.6857e-13
-1.98406e-11 -7.6857e-13 -0.455411

20.7866 5.58123 -7.70687e-12
5.58123 19.5644 -7.24017e-12
-7.70687e-12 -7.24017e-12 20.7136

-2.67232 -0.792627 -4.70018e-11
-0.792627 3.6038 -5.21119e-11
-4.70018e-11 -5.21119e-11 0.430729

-2.46666 -1.1806 -1.27139e-11
-1.1806 3.91426 -2.20575e-11
-1.27139e-11 -2.20575e-11 0.465966

-7.64591 1.63498 5.39474e-12
1.63498 -1.88152 -3.40938e-11
5.39474e-12 -3.40938e-11 -5.18318

-6.78273 -2.44515 1.42485e-11
-2.44515 -2.65327 3.0819e-11
1.42485e-11 3.0819e-11 -5.18366

3.31616 -0.129563 2.928e-11
-0.129563 -8.15474 1.83928e-11
2.928e-11 1.83928e-11 -1.57996

3.33964 0.12099 -8.66812e-12
0.12099 -8.20588 1.05665e-11
-8.66812e-12 1.05665e-11 -1.57168

-1.32315 -4.79416 -1.61779e-11
-4.79416 -3.99872 -6.74346e-12
-1.61779e-11 -6.74346e-12 -2.22717

-1.04627 4.83557 1.00177e-11
4.83557 -4.36949 7.90042e-12
1.00177e-11 7.90042e-12 -2.14393

-0.706945 -1.74667 -3.54405e-11
-1.74667 -3.28999 -3.76499e-11
-3.54405e-11 -3.76499e-11 -3.69106

-0.782502 1.74264 -4.16022e-11
1.74264 -3.23007 -3.92933e-11
-4.16022e-11 -3.92933e-11 -3.65877

-7.40195 -1.52501 2.2537e-11
-1.52501 -10.512 -1.53113e-10
2.2537e-11 -1.53113e-10 -10.0389

-7.32253 1.64147 -2.98551e-11
1.64147 -10.2382 -9.87047e-11
-2.98551e-11 -9.87047e-11 -9.94342

-4.9249 -4.58895 2.50413e-11
-4.58895 -0.272023 -3.65989e-11
2.50413e-11 -3.65989e-11 -1.54111

-4.90712 4.56531 3.46397e-12
4.56531 -0.308903 -4.83491e-11
3.46397e-12 -4.83491e-11 -1.55697

2.15706 -2.37858 -9.82725e-12
-2.37858 -2.08257 2.30666e-11
-9.82725e-12 2.30666e-11 -0.0122533

-2.63302 -2.00987 -2.00299e-11
-2.00987 2.18921 -6.37645e-11
-2.00299e-11 -6.37645e-11 0.0894003

0.671203 3.8681 -3.85662e-12
3.8681 0.628554 -3.84337e-11
-3.85662e-12 -3.84337e-11 0.329857

-2.21358 -2.81883 -2.6583e-11
-2.81883 3.24177 7.61583e-12
-2.6583e-11 7.61583e-12 0.215652

6.37695 -2.9964 -1.38716e-11
-2.9964 4.08137 1.16545e-11
-1.38716e-11 1.16545e-11 3.67461

2.21137 2.34801 -1.31e-11
2.34801 -2.06216 1.00633e-11
-1.31e-11 1.00633e-11 0.0124314

-2.32569 1.9983 1.28551e-11
1.9983 2.25899 -3.85256e-11
1.28551e-11 -3.85256e-11 0.179809

-5.29756 -5.70508 1.15573e-11
-5.70508 -3.02532 -2.79325e-12
1.15573e-11 -2.79325e-12 -2.03263

-5.28507 5.70898 -3.81386e-11
5.70898 -3.06447 -4.85445e-11
-3.81386e-11 -4.85445e-11 -2.04123

1.61411 -2.29402 -3.31333e-11
-2.29402 -4.06641 4.68065e-11
-3.31333e-11 4.68065e-11 -0.981127

-6.78541 -4.27115 -2.92751e-11
-4.27115 -3.21073 -1.03905e-11
-2.92751e-11 -1.03905e-11 -10.1133

-9.54051 4.37019 -6.16314e-12
4.37019 -12.2608 3.37041e-11
-6.16314e-12 3.37041e-11 -12.4112

-2.87159 -3.23227 -2.67711e-11
-3.23227 1.55065 -5.14297e-11
-2.67711e-11 -5.14297e-11 -0.541239

0.917609 4.03662 -2.23502e-11
4.03662 -3.91319 -3.58794e-11
-2.23502e-11 -3.58794e-11 -0.808329

0.319826 0.260156 3.46477e-12
0.260156 -4.22764 -2.02264e-12
3.46477e-12 -2.02264e-12 -2.41791

0.648635 -3.78257 -1.98435e-11
-3.78257 0.810445 1.60878e-11
-1.98435e-11 1.60878e-11 0.357145

9.93438 2.42221 3.85914e-13
2.42221 10.8108 -4.66784e-11
3.85914e-13 -4.66784e-11 9.15697

11.0601 2.39545 -2.00373e-11
2.39545 8.66741 3.28744e-11
-2.00373e-11 3.28744e-11 8.96982

2.33678 0.477761 5.97222e-12
0.477761 -7.58626 -1.34595e-11
5.97222e-12 -1.34595e-11 -2.06535

2.25514 -0.482268 4.04748e-12
-0.482268 -7.61551 -2.08488e-11
4.04748e-12 -2.08488e-11 -2.07505

0.382425 -0.42235 3.81339e-11
-0.42235 -4.05841 2.71629e-11
3.81339e-11 2.71629e-11 -2.46997

-2.05937 2.68453 -9.02492e-12
2.68453 3.18826 -1.01096e-11
-9.02492e-12 -1.01096e-11 0.242019

5.47071 -1.88931 9.92162e-12
-1.88931 0.45078 -2.31026e-12
9.92162e-12 -2.31026e-12 1.44669

-2.22251 -2.29457 -8.28167e-12
-2.29457 -0.866192 -1.8491e-11
-8.28167e-12 -1.8491e-11 -1.37502

-2.21142 2.29786 1.73332e-11
2.29786 -0.863018 -2.86998e-11
1.73332e-11 -2.86998e-11 -1.37183

-3.62769 -0.315737 -2.00261e-11
-0.315737 -0.413881 -3.0144e-11
-2.00261e-11 -3.0144e-11 -9.26182

-3.59899 0.311331 -2.19484e-11
0.311331 -0.488209 -7.55433e-11
-2.19484e-11 -7.55433e-11 -9.24042

-4.38095 -3.91884 1.56033e-11
-3.91884 1.4815 -4.3342e-11
1.56033e-11 -4.3342e-11 -0.660725

3.01739 3.10431 3.96835e-11
3.10431 -2.70853 1.19408e-11
3.96835e-11 1.19408e-11 0.123594

0.201767 -0.381237 -2.43646e-11
-0.381237 -4.944 7.2082e-11
-2.43646e-11 7.2082e-11 -2.26312

0.209974 0.41544 -3.15915e-11
0.41544 -4.95354 5.88912e-11
-3.15915e-11 5.88912e-11 -2.26837

-4.90551 -2.48888 1.00197e-11
-2.48888 -0.16516 1.44225e-12
1.00197e-11 1.44225e-12 -0.98614

-5.95004 -3.97637 -4.00663e-11
-3.97637 -2.1191 2.11897e-11
-4.00663e-11 2.11897e-11 -1.24925

20.7461 -5.78937 1.92169e-12
-5.78937 20.9214 4.9112e-11
1.92169e-12 4.9112e-11 20.936

-4.75381 -3.71422 1.38676e-11
-3.71422 -1.53515 -3.79455e-11
1.38676e-11 -3.79455e-11 -2.45202

-4.69611 3.74692 -5.85526e-11
3.74692 -1.55346 -2.77428e-11
-5.85526e-11 -2.77428e-11 -2.42197

-5.36711 -3.82247 -3.62162e-11
-3.82247 -0.602091 1.78197e-11
-3.62162e-11 1.78197e-11 -0.901377

5.47802 2.00369 -1.90716e-11
2.00369 0.314746 1.75778e-11
-1.90716e-11 1.75778e-11 1.38469

0.30861 -3.52266 -4.52519e-12
-3.52266 -2.6062 4.80282e-13
-4.52519e-12 4.80282e-13 -0.924996

-0.716641 -3.91141 2.30956e-12
-3.91141 -3.83239 -2.35e-11
2.30956e-12 -2.35e-11 -1.91824

-0.519756 3.81671 5.39346e-12
3.81671 -3.904 1.35805e-11
5.39346e-12 1.35805e-11 -1.86267

2.04244 -2.18685 -1.5414e-11
-2.18685 -6.68205 1.41101e-11
-1.5414e-11 1.41101e-11 -1.10923

-0.279511 0.958129 2.23414e-11
0.958129 -6.75708 -3.26467e-11
2.23414e-11 -3.26467e-11 -3.49079

-0.315478 -0.940037 2.69668e-11
-0.940037 -6.67855 2.43622e-11
2.69668e-11 2.43622e-11 -3.47234

-10.6474 -1.51754 9.24174e-12
-1.51754 -2.55861 -3.17767e-11
9.24174e-12 -3.17767e-11 -9.21384

-9.08798 3.31264 1.92891e-12
3.31264 -3.14848 5.06513e-11
1.92891e-12 5.06513e-11 -8.98658

12.6434 0.49199 -1.77315e-11
0.49199 6.95633 1.90767e-11
-1.77315e-11 1.90767e-11 12.5566

8.76282 0.920317 4.62393e-12
0.920317 11.5515 -5.59258e-12
4.62393e-12 -5.59258e-12 12.6261

-3.46309 3.65825 -3.87148e-11
3.65825 0.964326 1.16513e-11
-3.87148e-11 1.16513e-11 -0.911284

-3.45144 -3.6605 3.98694e-11
-3.6605 0.980608 5.04653e-11
3.98694e-11 5.04653e-11 -0.904918

-4.28452 -4.67443 -2.69609e-12
-4.67443 1.40774 -9.4383e-12
-2.69609e-12 -9.4383e-12 -0.667471

12.789 -2.44132 1.31017e-11
-2.44132 12.2994 -2.38404e-11
1.31017e-11 -2.38404e-11 14.215

13.3511 -2.01537 -1.38787e-11
-2.01537 12.5638 5.47465e-11
-1.38787e-11 5.47465e-11 14.426

-13.1359 3.22658 6.06625e-11
3.22658 -6.69725 -2.41698e-11
6.06625e-11 -2.41698e-11 -12.4575

-13.2237 -3.39165 2.94695e-11
-3.39165 -7.03879 -2.21494e-11
2.94695e-11 -2.21494e-11 -12.5449

-0.271036 -4.42975 6.12514e-11
-4.42975 -2.93535 2.84092e-11
6.12514e-11 2.84092e-11 -0.833954

-0.341971 -3.57887 -3.35164e-11
-3.57887 1.86991 -7.89457e-12
-3.35164e-11 -7.89457e-12 0.343788

-3.28565 3.52636 -1.59897e-11
3.52636 -0.719107 -3.30372e-11
-1.59897e-11 -3.30372e-11 -1.2125

-3.28492 -3.5249 4.64218e-11
-3.5249 -0.725392 1.18429e-11
4.64218e-11 1.18429e-11 -1.21274

-2.28607 -4.16472 -1.32934e-11
-4.16472 1.23441 -1.69499e-11
-1.32934e-11 -1.69499e-11 -0.290134

-0.253405 3.62877 -4.91209e-11
3.62877 1.82411 -2.86059e-11
-4.91209e-11 -2.86059e-11 0.353906

4.81259 -1.33454 3.85318e-12
-1.33454 8.58727 8.0953e-12
3.85318e-12 8.0953e-12 5.52612

5.07369 1.12242 -4.00812e-11
1.12242 9.06156 4.83094e-11
-4.00812e-11 4.83094e-11 5.73054

9.47911 0.960109 2.17713e-11
0.960109 4.68033 -2.123e-11
2.17713e-11 -2.123e-11 5.79309

-2.24449 4.1544 8.6731e-12
4.1544 1.24703 5.43239e-11
8.6731e-12 5.43239e-11 -0.27737

6.50864 -0.630734 -1.77272e-11
-0.630734 10.6148 1.26984e-11
-1.77272e-11 1.26984e-11 7.7783

11.2735 -0.379142 -3.46828e-11
-0.379142 5.3571 2.93356e-11
-3.46828e-11 2.93356e-11 7.72808

-4.38557 -3.40863 -3.66002e-11
-3.40863 -1.30724 9.95861e-11
-3.66002e-11 9.95861e-11 -2.05255

-4.34618 3.39172 1.23269e-11
3.39172 -1.29757 4.51703e-11
1.23269e-11 4.51703e-11 -2.04359

-4.53365 -2.5894 -4.02579e-11
-2.5894 -1.72182 6.5972e-11
-4.02579e-11 6.5972e-11 -2.44096

-4.51053 2.58878 3.35141e-11
2.58878 -1.78939 -6.23098e-11
3.35141e-11 -6.23098e-11 -2.44974

13.916 2.24267 -5.78032e-12
2.24267 12.5593 2.91608e-11
-5.78032e-12 2.91608e-11 14.9384

13.8483 2.13915 -5.01001e-11
2.13915 12.8227 1.05847e-11
-5.01001e-11 1.05847e-11 15.0342

-1.33873 3.2383 1.03999e-11
3.2383 0.888734 6.84149e-12
1.03999e-11 6.84149e-12 -0.304675

-1.33314 -3.25983 2.33074e-11
-3.25983 0.919235 -1.9361e-11
2.33074e-11 -1.9361e-11 -0.297922

-7.5479 -3.13638 5.39128e-12
-3.13638 -3.08552 -5.20251e-12
5.39128e-12 -5.20251e-12 -6.22859

-6.60132 1.41291 -3.96792e-11
1.41291 -5.85525 -4.2568e-11
-3.96792e-11 -4.2568e-11 -6.60448

-5.55957 -3.51444 -8.47404e-12
-3.51444 -0.240572 -5.3355e-11
-8.47404e-12 -5.3355e-11 -2.19909

-5.58431 3.5162 -2.3112e-11
3.5162 -0.361032 -1.74334e-11
-2.3112e-11 -1.74334e-11 -2.2403

-2.40443 0.226892 4.60346e-11
0.226892 -8.07657 5.53752e-11
4.60346e-11 5.53752e-11 -4.41162

-2.41096 -0.194067 1.48316e-11
-0.194067 -8.04503 8.76847e-11
1.48316e-11 8.76847e-11 -4.39871

-2.67979 -3.98107 4.00642e-11
-3.98107 -2.31982 -3.23621e-11
4.00642e-11 -3.23621e-11 -1.28819

-2.53382 4.03196 2.69674e-11
4.03196 -2.43494 2.27303e-11
2.69674e-11 2.27303e-11 -1.28001

-4.07265 0.970239 -6.97239e-11
0.970239 -9.18368 1.65621e-11
-6.97239e-11 1.65621e-11 -7.40558

-7.75521 0.168146 8.01255e-11
0.168146 -10.8498 -1.15747e-10
8.01255e-11 -1.15747e-10 -10.2146

-4.07264 -0.983875 -8.08963e-12
-0.983875 -9.16799 -1.79122e-11
-8.08963e-12 -1.79122e-11 -7.4029

-7.76791 -0.266056 5.5661e-11
-0.266056 -11.0393 1.24992e-10
5.5661e-11 1.24992e-10 -10.2552

-8.99858 0.163574 6.16348e-12
0.163574 -4.64302 -1.77199e-11
6.16348e-12 -1.77199e-11 -7.94084

-2.4898 3.91321 -3.35122e-11
3.91321 -5.3725 1.70408e-11
-3.35122e-11 1.70408e-11 -7.04739

-2.48007 -3.89801 -1.8491e-11
-3.89801 -5.35545 -1.76196e-11
-1.8491e-11 -1.76196e-11 -7.06121

-10.7308 -2.09703 2.27215e-11
-2.09703 -0.624952 2.69956e-12
2.27215e-11 2.69956e-12 -7.43264

-10.9307 -1.84989 -1.49265e-10
-1.84989 -9.844 6.78928e-11
-1.49265e-10 6.78928e-11 -10.8603

2.22879 -2.68061 5.91726e-10
-2.68061 -19.7268 8.87831e-11
5.91726e-10 8.87831e-11 -12.5635

-11.1215 1.94818 -1.28467e-10
1.94818 -9.49556 -8.04154e-11
-1.28467e-10 -8.04154e-11 -10.777

2.26561 2.47853 5.17777e-10
2.47853 -18.9113 -1.37676e-10
5.17777e-10 -1.37676e-10 -12.3279

-6.5402 -2.53528 -3.94839e-11
-2.53528 -7.60772 1.08833e-11
-3.94839e-11 1.08833e-11 -7.99832

-5.24935 -1.76942 4.33359e-11
-1.76942 -2.56295 -3.58256e-11
4.33359e-11 -3.58256e-11 -4.11786

-10.1949 -0.147792 -5.58649e-12
-0.147792 -12.6817 4.84393e-11
-5.58649e-12 4.84393e-11 -12.0776

-6.62711 2.66133 -1.75242e-11
2.66133 -7.56053 1.23252e-11
-1.75242e-11 1.23252e-11 -7.98011

-5.21618 1.82982 -3.19723e-11
1.82982 -2.6789 -3.50552e-11
-3.19723e-11 -3.50552e-11 -4.13816

-10.1216 0.166655 -8.08864e-12
0.166655 -12.1859 1.35778e-11
-8.08864e-12 1.35778e-11 -11.9127

-7.12504 -1.46095 3.54351e-11
-1.46095 -4.98251 4.61295e-11
3.54351e-11 4.61295e-11 -5.69793

-6.23566 -0.820064 -5.79746e-11
-0.820064 -7.36228 7.51144e-12
-5.79746e-11 7.51144e-12 -7.56312

-7.05281 1.5298 -1.77198e-11
1.5298 -4.97443 -4.66121e-11
-1.77198e-11 -4.66121e-11 -5.6696

-6.19175 0.85706 -8.20494e-11
0.85706 -7.32713 1.15128e-12
-8.20494e-11 1.15128e-12 -7.53141

0.144972 3.449 3.46752e-12
3.449 4.12903 3.65915e-12
3.46752e-12 3.65915e-12 1.06942

-4.80629 0.696855 -5.9727e-12
0.696855 2.52887 -1.15568e-11
-5.9727e-12 -1.15568e-11 -0.744101

-1.73417 1.85697 1.96467e-11
1.85697 1.139 -4.35315e-11
1.96467e-11 -4.35315e-11 -0.551498

3.12242 -2.25785 -8.47633e-12
-2.25785 -4.38004 2.42724e-11
-8.47633e-12 2.42724e-11 -0.0127416

4.33949 -1.38022 1.59919e-11
-1.38022 -2.50569 1.19418e-11
1.59919e-11 1.19418e-11 0.748738

-8.29148 1.05786 1.71429e-11
1.05786 1.65929 4.62282e-12
1.71429e-11 4.62282e-12 -2.54393

-5.73105 1.91779 2.09937e-11
1.91779 -2.26613 2.3212e-11
2.09937e-11 2.3212e-11 -2.83537

4.20929 -0.0129164 1.73377e-11
-0.0129164 -2.31435 1.57967e-11
1.73377e-11 1.57967e-11 0.749078

0.491603 0.872953 2.60056e-11
0.872953 -7.49897 -7.71309e-13
2.60056e-11 -7.71309e-13 -1.26543

2.49043 2.98342 -2.96666e-11
2.98342 6.86647 1.50247e-11
-2.96666e-11 1.50247e-11 3.429

1.7898 2.36127 -3.35238e-11
2.36127 7.20043 9.24912e-12
-3.35238e-11 9.24912e-12 3.63404

6.93052 2.36601 -2.76444e-11
2.36601 2.70793 -7.73233e-13
-2.76444e-11 -7.73233e-13 3.80724

-3.22471 -3.60394 -2.90832e-11
-3.60394 -1.21067 -9.62974e-12
-2.90832e-11 -9.62974e-12 -2.33342

-3.7013 -1.51449 1.11717e-11
-1.51449 0.295486 1.7336e-11
1.11717e-11 1.7336e-11 -2.07537

0.181849 -4.1642 1.02044e-11
-4.1642 -0.352282 2.15732e-11
1.02044e-11 2.15732e-11 0.0673807

-2.7226 3.34752 -8.28585e-12
3.34752 2.52737 -1.1943e-11
-8.28585e-12 -1.1943e-11 -0.0154547

-3.80065 3.90944 8.86285e-12
3.90944 1.08268 4.04647e-12
8.86285e-12 4.04647e-12 -0.680169

-5.8757 -1.88951 -2.73513e-11
-1.88951 -2.32387 -1.32909e-11
-2.73513e-11 -1.32909e-11 -2.93643

-8.30275 -1.25282 7.89484e-12
-1.25282 1.86845 4.7771e-11
7.89484e-12 4.7771e-11 -2.54756

3.78149 1.0518 4.00722e-11
1.0518 -4.40174 7.76425e-13
4.00722e-11 7.76425e-13 -0.104965

1.73978 0.980453 -2.87047e-11
0.980453 7.34046 -2.85136e-11
-2.87047e-11 -2.85136e-11 2.74291

0.591016 0.433722 -3.32274e-11
0.433722 7.27584 1.15582e-12
-3.32274e-11 1.15582e-12 2.70554

7.7651 0.407888 3.9979e-11
0.407888 1.75377 -6.5532e-12
3.9979e-11 -6.5532e-12 3.0644

-1.47704 2.35799 2.13847e-11
2.35799 4.25599 3.85077e-12
2.13847e-11 3.85077e-12 0.964746

0.0247624 3.85326 -5.20362e-12
3.85326 3.30841 -2.00369e-11
-5.20362e-12 -2.00369e-11 0.924173

2.47042 0.655854 -3.17866e-11
0.655854 -4.75636 -5.78001e-12
-3.17866e-11 -5.78001e-12 -0.200589

6.7389 1.78308 -4.00744e-11
1.78308 10.1031 3.29482e-11
-4.00744e-11 3.29482e-11 6.4832

1.81442 -2.41225 8.47737e-12
-2.41225 -6.37629 -2.23409e-11
8.47737e-12 -2.23409e-11 -0.82256

-4.48295 0.183046 -7.89428e-12
0.183046 0.876675 2.11859e-11
-7.89428e-12 2.11859e-11 -2.7275

-2.89448 0.0513757 1.27107e-11
0.0513757 -2.14513 2.49433e-11
1.27107e-11 2.49433e-11 -2.93178

-1.07818 1.61837 5.12312e-11
1.61837 -10.1973 -1.00149e-11
5.12312e-11 -1.00149e-11 -8.1963

-0.359549 -3.89637 -3.39024e-11
-3.89637 -6.89594 7.27981e-11
-3.39024e-11 7.27981e-11 -7.67664

-0.710246 -4.41881 1.92607e-11
-4.41881 0.464612 1.1554e-11
1.92607e-11 1.1554e-11 0.141184

-1.10042 -3.5744 9.05254e-12
-3.5744 2.86955 2.11892e-11
9.05254e-12 2.11892e-11 0.766086

7.14439 -1.23038 -8.47411e-12
-1.23038 0.532541 -1.69561e-11
-8.47411e-12 -1.69561e-11 2.75845

-0.659213 0.635132 -7.70347e-13
0.635132 -5.04799 -1.48313e-11
-7.70347e-13 -1.48313e-11 -3.07514

-0.0658376 -2.30816 -1.92661e-12
-2.30816 -4.16412 -3.46316e-12
-1.92661e-12 -3.46316e-12 -2.83132

0.628856 -1.02547 -6.16313e-12
-1.02547 -7.39523 -1.04023e-11
-6.16313e-12 -1.04023e-11 -1.19969

1.08892 -0.304603 2.47546e-11
-0.304603 -8.01357 -3.62121e-11
2.47546e-11 -3.62121e-11 -1.00792

4.30339 -3.64469 5.39332e-12
-3.64469 0.73133 -6.1624e-12
5.39332e-12 -6.1624e-12 1.50416

5.33091 1.6847 2.38877e-11
1.6847 -0.760799 2.61964e-11
2.38877e-11 2.61964e-11 1.50611

4.94833 -2.97404 -3.06323e-11
-2.97404 -0.930976 -3.46501e-12
-3.06323e-11 -3.46501e-12 1.39906

-6.15367 2.44978 2.26311e-11
2.44978 1.69879 7.73085e-13
2.26311e-11 7.73085e-13 -0.718929

-1.11989 -2.96111 1.15606e-11
-2.96111 3.98957 2.19607e-11
1.15606e-11 2.19607e-11 0.971947

-1.35911 2.84749 -5.10177e-12
2.84749 2.8912 2.08064e-11
-5.10177e-12 2.08064e-11 0.745362

19.7831 -4.52208 2.19662e-11
-4.52208 19.9828 -1.73343e-12
2.19662e-11 -1.73343e-12 19.709

18.5091 2.78187 -6.94215e-12
2.78187 19.9558 -3.27571e-11
-6.94215e-12 -3.27571e-11 19.4565

-7.37421 -3.38816 7.70363e-12
-3.38816 0.272008 3.46786e-12
7.70363e-12 3.46786e-12 -1.94804

-4.24904 2.24921 -1.03985e-11
2.24921 2.81269 1.11726e-11
-1.03985e-11 1.11726e-11 -0.0195204

11.3394 0.470366 -1.56099e-11
0.470366 11.753 4.39329e-11
-1.56099e-11 4.39329e-11 12.9229

11.7715 -0.915313 2.17741e-11
-0.915313 13.1692 2.29295e-11
2.17741e-11 2.29295e-11 13.2755

-4.36256 -1.34749 -2.24841e-11
-1.34749 -2.33663 -5.7009e-11
-2.24841e-11 -5.7009e-11 -3.42773

-4.65146 2.84827 -4.79633e-11
2.84827 -3.48628 -5.12354e-11
-4.79633e-11 -5.12354e-11 -3.4901

4.64214 0.0302999 1.97094e-12
0.0302999 -5.16192 2.71584e-11
1.97094e-12 2.71584e-11 -0.128145

-4.69904 -0.903316 -2.0533e-11
-0.903316 -4.30496 1.98367e-11
-2.0533e-11 1.98367e-11 -3.92655

-4.65249 2.65815 -1.41594e-11
2.65815 -3.45097 5.54713e-11
-1.41594e-11 5.54713e-11 -3.57905

-1.47672 2.9178 1.96481e-11
2.9178 -9.05256 1.15574e-12
1.96481e-11 1.15574e-12 -6.61321

-1.88116 -3.56971 -4.81499e-11
-3.56971 -5.84702 1.92573e-11
-4.81499e-11 1.92573e-11 -6.32957

-2.45478 -2.15686 7.36744e-12
-2.15686 -2.14432 6.01882e-12
7.36744e-12 6.01882e-12 -1.71925

-2.50666 2.84877 -3.94899e-12
2.84877 -2.70484 2.82134e-11
-3.94899e-12 2.82134e-11 -1.60974

-7.64646 -0.226025 -5.39618e-12
-0.226025 0.155102 -1.42546e-11
-5.39618e-12 -1.42546e-11 -6.07689

-7.93446 1.02284 -1.21345e-11
1.02284 -4.37114 2.93727e-11
-1.21345e-11 2.93727e-11 -6.82816

-0.616902 -4.07105 -3.16901e-11
-4.07105 4.02635 1.21383e-11
-3.16901e-11 1.21383e-11 0.836507

5.41441 0.429205 1.8107e-11
0.429205 9.70064 5.85701e-11
1.8107e-11 5.85701e-11 6.62969

9.41582 0.552925 -1.21364e-11
0.552925 5.90143 -9.24124e-12
-1.21364e-11 -9.24124e-12 6.6395

-6.18545 2.13956 -2.09938e-11
2.13956 2.2006 7.70524e-12
-2.09938e-11 7.70524e-12 -0.773535

-3.82406 3.1401 -3.12029e-11
3.1401 1.32199 -1.54086e-11
-3.12029e-11 -1.54086e-11 -0.693758

-9.08188 -2.97511 1.16238e-10
-2.97511 -14.3925 -1.26341e-10
1.16238e-10 -1.26341e-10 -13.755

-9.449 4.62015 -2.54598e-11
4.62015 -4.14616 7.743e-11
-2.54598e-11 7.743e-11 -11.7961

3.13387 2.87828 2.87022e-11
2.87828 1.60171 1.19429e-11
2.87022e-11 1.19429e-11 1.33553

-3.83918 4.85702 2.69661e-11
4.85702 1.03323 -4.62136e-12
2.69661e-11 -4.62136e-12 -0.706165

0.561102 1.84666 -4.90716e-11
1.84666 -4.24062 -7.32707e-12
-4.90716e-11 -7.32707e-12 -0.94746

0.703835 -1.47058 7.53188e-11
-1.47058 -4.19353 -1.92994e-13
7.53188e-11 -1.92994e-13 -1.05253

-3.47468 4.6138 -3.1589e-11
4.6138 -0.379604 2.06081e-11
-3.1589e-11 2.06081e-11 -1.00251

-5.07937 -4.55185 8.47394e-12
-4.55185 -0.104536 -6.16425e-12
8.47394e-12 -6.16425e-12 -1.76986

-0.0614416 -3.8953 -1.27106e-11
-3.8953 -6.49484 -1.77172e-11
-1.27106e-11 -1.77172e-11 -2.71131

6.96566 -0.34797 -2.44696e-11
-0.34797 0.705358 5.20252e-12
-2.44696e-11 5.20252e-12 2.76569

-1.40383 0.542298 -2.08036e-11
0.542298 -4.26062 8.0496e-11
-2.08036e-11 8.0496e-11 -8.85552

-1.21005 -0.336302 8.55159e-11
-0.336302 -10.4404 -2.77346e-11
8.55159e-11 -2.77346e-11 -9.73774

0.646273 3.54268 -4.12241e-11
3.54268 -0.921856 -2.60089e-11
-4.12241e-11 -2.60089e-11 0.0554531

3.71276 1.34735 3.66008e-11
1.34735 -2.97879 5.04702e-11
3.66008e-11 5.04702e-11 0.150243

4.16865 3.02311 3.65981e-12
3.02311 5.55485 9.05032e-12
3.65981e-12 9.05032e-12 3.10053

-9.45401 0.718395 7.33789e-11
0.718395 -7.22394 3.71767e-11
7.33789e-11 3.71767e-11 -9.01705

-7.27478 2.09041 -5.08457e-11
2.09041 -0.688351 -1.77253e-11
-5.08457e-11 -1.77253e-11 -7.5537

-0.724496 1.93356 -1.92527e-12
1.93356 -7.90935 -9.24768e-12
-1.92527e-12 -9.24768e-12 -3.105

-4.99859 -0.818557 2.74479e-11
-0.818557 2.65688 2.81242e-11
2.74479e-11 2.81242e-11 -0.878263

-1.96095 -1.75053 -2.52347e-11
-1.75053 1.19841 1.81069e-11
-2.52347e-11 1.81069e-11 -0.700575

2.90737 0.562164 -9.84642e-12
0.562164 -6.51574 -1.30998e-11
-9.84642e-12 -1.30998e-11 -0.862019

3.24082 -0.439948 1.03306e-11
-0.439948 -6.55546 -2.25368e-11
1.03306e-11 -2.25368e-11 -0.858804

6.13302 -3.03284 -1.05056e-11
-3.03284 4.72257 -7.73085e-13
-1.05056e-11 -7.73085e-13 3.39638

5.68731 0.00853311 -2.44189e-11
0.00853311 -2.46755 -1.63728e-11
-2.44189e-11 -1.63728e-11 0.839073

0.556558 -0.493925 -2.31397e-11
-0.493925 -6.2699 2.42676e-11
-2.31397e-11 2.42676e-11 -1.97888

-0.147544 0.999062 1.75758e-11
0.999062 -5.52339 -7.31789e-12
1.75758e-11 -7.31789e-12 -1.85602

3.94057 -1.26323 1.68504e-11
-1.26323 -2.17063 5.00801e-11
1.68504e-11 5.00801e-11 0.231514

-0.238859 -3.59351 -2.8222e-11
-3.59351 3.91067 7.70717e-12
-2.8222e-11 7.70717e-12 0.856623

3.17662 -0.290134 7.692e-13
-0.290134 -4.54895 -2.00319e-11
7.692e-13 -2.00319e-11 -0.694515

2.68081 0.643699 1.40099e-12
0.643699 -4.79621 -1.54132e-11
1.40099e-12 -1.54132e-11 -0.737

2.2073 1.46481 -2.06138e-11
1.46481 -3.61679 1.27143e-11
-2.06138e-11 1.27143e-11 -0.150176

2.4716 -4.57441 4.93211e-11
-4.57441 1.8659 -2.62046e-11
4.93211e-11 -2.62046e-11 1.62434

-5.17421 4.40967 -2.0513e-11
4.40967 -1.12211 3.08183e-11
-2.0513e-11 3.08183e-11 -1.02413

-3.95993 4.33199 -5.52807e-11
4.33199 1.17985 -8.28572e-12
-5.52807e-11 -8.28572e-12 -0.761393

-6.28 3.26906 -2.65819e-11
3.26906 -1.3585 -1.46406e-11
-2.65819e-11 -1.46406e-11 -1.30529

5.51207 1.59579 -1.83194e-12
1.59579 -1.51792 -5.77619e-12
-1.83194e-12 -5.77619e-12 1.24941

8.48969 -3.15501 1.53707e-12
-3.15501 5.72123 2.27352e-11
1.53707e-12 2.27352e-11 5.79043

-0.40895 2.66439 8.09071e-12
2.66439 -4.10692 -1.82984e-11
8.09071e-12 -1.82984e-11 -1.16903

3.03255 -2.83806 -1.15389e-12
-2.83806 -2.78409 -1.04026e-11
-1.15389e-12 -1.04026e-11 0.176678

8.63299 -2.73432 -1.67632e-11
-2.73432 5.11903 5.39668e-12
-1.67632e-11 5.39668e-12 5.5968

1.40182 -4.55729 1.56034e-11
-4.55729 -1.65304 -2.65867e-11
1.56034e-11 -2.65867e-11 0.119898

-4.69292 0.115928 1.50249e-11
0.115928 0.537988 -1.13647e-11
1.50249e-11 -1.13647e-11 -1.19851

-6.81697 0.000464178 2.92789e-11
0.000464178 3.38255 -2.08052e-11
2.92789e-11 -2.08052e-11 -0.91104

1.91527 3.885 6.36454e-12
3.885 2.2571 1.36759e-11
6.36454e-12 1.36759e-11 1.33167

6.95825 -3.23654 7.79902e-12
-3.23654 2.42643 8.86276e-12
7.79902e-12 8.86276e-12 3.47202

-3.24214 -4.72718 -4.19886e-11
-4.72718 -1.6165 7.70869e-12
-4.19886e-11 7.70869e-12 -0.94879

1.86505 -4.2284 -1.0883e-11
-4.2284 4.0451 -3.3903e-11
-1.0883e-11 -3.3903e-11 1.58981

1.82253 -4.27486 9.06023e-12
-4.27486 3.74444 -1.57931e-11
9.06023e-12 -1.57931e-11 1.78142

2.07022 2.18723 1.77185e-11
2.18723 -2.04879 -3.64051e-11
1.77185e-11 -3.64051e-11 0.022343

1.07056 1.3809 5.12409e-11
1.3809 -11.2976 2.25332e-11
5.12409e-11 2.25332e-11 -2.28984

0.941618 -2.17506 -2.00317e-11
-2.17506 -9.34525 7.68792e-13
-2.00317e-11 7.68792e-13 -2.04708

-0.856932 2.42816 5.20473e-12
2.42816 4.67679 1.04011e-11
5.20473e-12 1.04011e-11 1.06879

-2.45094 1.65887 -3.95863e-11
1.65887 5.25106 1.27158e-11
-3.95863e-11 1.27158e-11 1.03445

0.333633 -0.353015 2.02306e-11
-0.353015 7.65318 -1.0594e-11
2.02306e-11 -1.0594e-11 2.85573

-0.366871 -0.469468 1.56034e-11
-0.469468 8.09339 1.38726e-11
1.56034e-11 1.38726e-11 3.01975

8.50622 -0.311073 4.27674e-11
-0.311073 0.525246 3.15943e-11
4.27674e-11 3.15943e-11 3.30412

3.14519 -3.8548 -3.84922e-12
-3.8548 0.90461 -1.90662e-11
-3.84922e-12 -1.90662e-11 1.23673

-13.1842 -2.83876 -9.62974e-12
-2.83876 -8.88776 1.61804e-11
-9.62974e-12 1.61804e-11 -12.4575

-1.15952 -1.12833 -8.859e-12
-1.12833 -1.12529 -6.85629e-11
-8.859e-12 -6.85629e-11 -8.85032

4.41575 2.71633 -5.00733e-12
2.71633 -0.143395 1.00169e-11
-5.00733e-12 1.00169e-11 1.49784

5.51683 -1.8532 1.16541e-11
-1.8532 -1.68036 1.04067e-11
1.16541e-11 1.04067e-11 1.09605

8.22864 1.69771 -1.21344e-11
1.69771 4.30848 2.67786e-11
-1.21344e-11 2.67786e-11 5.13686

-4.69763 2.78578 1.49289e-11
2.78578 1.07524 7.71975e-13
1.49289e-11 7.71975e-13 -0.394973

4.70176 0.0446589 1.21341e-11
0.0446589 -5.04491 -1.56038e-11
1.21341e-11 -1.56038e-11 -0.119954

-5.1917 4.24337 3.08159e-12
4.24337 -0.210546 1.93105e-13
3.08159e-12 1.93105e-13 -1.58607

-8.49453 3.37235 -1.36751e-11
3.37235 0.28214 -2.50416e-11
-1.36751e-11 -2.50416e-11 -1.96706

3.42083 2.18654 1.3577e-11
2.18654 5.77752 -1.6864e-11
1.3577e-11 -1.6864e-11 3.20732

5.47648 2.43359 -2.90952e-13
2.43359 4.8192 1.31014e-11
-2.90952e-13 1.31014e-11 3.47483

-4.08904 -5.12904 -1.91649e-11
-5.12904 0.928392 -9.05235e-12
-1.91649e-11 -9.05235e-12 -0.935347

8.29679 1.37176 -1.34957e-11
1.37176 4.14106 1.34879e-11
-1.34957e-11 1.34879e-11 5.08971

-6.385 3.78896 -2.41248e-11
3.78896 -2.56768 4.16061e-11
-2.41248e-11 4.16061e-11 -1.45087

-2.30867 4.6174 3.85969e-13
4.6174 2.0152 6.93504e-12
3.85969e-13 6.93504e-12 -0.0629672

4.17745 -0.0661402 1.55074e-11
-0.0661402 -7.37466 -1.61787e-11
1.55074e-11 -1.61787e-11 -0.700113

-5.28768 -3.50013 2.12104e-12
-3.50013 -2.51333 -6.08696e-11
2.12104e-12 -6.08696e-11 -1.4522

0.501179 3.77855 -1.90718e-11
3.77855 0.746882 4.04225e-12
-1.90718e-11 4.04225e-12 0.306065

1.61171 -1.85271 1.96487e-11
-1.85271 6.76935 -2.23497e-11
1.96487e-11 -2.23497e-11 2.42114

0.320211 -1.76365 -1.31011e-11
-1.76365 6.97036 2.31194e-11
-1.31011e-11 2.31194e-11 2.40849

7.03874 -1.31498 2.92826e-11
-1.31498 1.7543 -1.92439e-13
2.92826e-11 -1.92439e-13 2.68018

2.56302 -3.46171 5.29465e-12
-3.46171 3.07133 -7.31489e-12
5.29465e-12 -7.31489e-12 1.41831

-3.15927 -0.227674 2.36932e-11
-0.227674 4.78608 -3.19797e-11
2.36932e-11 -3.19797e-11 0.503538

-0.494475 -0.0335331 2.65828e-11
-0.0335331 4.19687 2.69747e-12
2.65828e-11 2.69747e-12 0.729206

4.2359 -3.7072 -3.87764e-13
-3.7072 5.9391 -8.86365e-12
-3.87764e-13 -8.86365e-12 3.59157

3.17102 -3.60177 -1.27109e-11
-3.60177 6.50446 1.349e-11
-1.27109e-11 1.349e-11 3.6337

4.00785 -0.183604 2.43157e-12
-0.183604 -6.76626 1.5406e-12
2.43157e-12 1.5406e-12 -0.685785

4.29059 0.190013 -4.57466e-12
0.190013 -6.90167 -3.62113e-11
-4.57466e-12 -3.62113e-11 -0.700423

-3.7143 3.53119 -5.97207e-12
3.53119 -0.296565 3.04356e-11
-5.97207e-12 3.04356e-11 -0.485109

-8.23598 -2.97472 -1.34838e-11
-2.97472 0.0968168 1.61807e-11
-1.34838e-11 1.61807e-11 -1.8788

-0.371876 -4.57408 -5.27827e-11
-4.57408 -2.91312 8.48099e-12
-5.27827e-11 8.48099e-12 -0.842896

-2.5525 1.74316 -3.29155e-11
1.74316 -4.42392 -5.87871e-12
-3.29155e-11 -5.87871e-12 -2.49627

-1.91899 -0.532659 -6.18875e-12
-0.532659 -3.65294 2.60004e-11
-6.18875e-12 2.60004e-11 -2.39224

0.883687 -1.90964 3.66996e-11
-1.90964 -1.22143 -1.21353e-11
3.66996e-11 -1.21353e-11 -0.519032

0.509014 2.29674 -4.62288e-11
2.29674 -2.56501 -1.81141e-11
-4.62288e-11 -1.81141e-11 -0.644663

10.9882 -1.91897 2.08113e-11
-1.91897 6.7944 1.54195e-12
2.08113e-11 1.54195e-12 12.0031

1.13175 3.64012 -1.35924e-11
3.64012 3.42021 -6.2033e-11
-1.35924e-11 -6.2033e-11 1.53649

8.33076 1.32414 1.86835e-11
1.32414 11.0837 -9.25395e-12
1.86835e-11 -9.25395e-12 12.2632

-1.80484 4.09315 -3.91023e-11
4.09315 0.488133 3.77531e-11
-3.91023e-11 3.77531e-11 -0.336815

-1.07996 -2.86873 1.06115e-12
-2.86873 5.07241 2.504e-12
1.06115e-12 2.504e-12 1.04554

-2.51215 -2.5574 -2.69625e-12
-2.5574 4.99116 3.3521e-11
-2.69625e-12 3.3521e-11 0.978067

-5.68913 -0.879627 9.44735e-11
-0.879627 -6.71525 -2.13785e-11
9.44735e-11 -2.13785e-11 -6.88689

-6.99527 2.40957 2.6613e-11
2.40957 -4.3227 2.34978e-11
2.6613e-11 2.34978e-11 -6.59144

1.42527 2.71694 5.95258e-11
2.71694 -0.67603 -7.65092e-13
5.95258e-11 -7.65092e-13 0.290713

5.75326 -0.277998 -1.23295e-11
-0.277998 -2.08674 1.61836e-11
-1.23295e-11 1.61836e-11 0.895204

3.42915 3.04429 -6.75756e-13
3.04429 0.613964 2.77433e-11
-6.75756e-13 2.77433e-11 1.44797

-5.99416 -1.75647 -2.52289e-11
-1.75647 2.95919 -2.88971e-11
-2.52289e-11 -2.88971e-11 -0.728621

-4.02795 -2.89569 -3.19759e-11
-2.89569 1.14683 1.9073e-11
-3.19759e-11 1.9073e-11 -0.920029

-4.3681 -5.26175 -2.20029e-11
-5.26175 2.18002 -3.71756e-11
-2.20029e-11 -3.71756e-11 -0.740325

1.60596 -2.92701 -5.33623e-11
-2.92701 0.474964 -3.27508e-12
-5.33623e-11 -3.27508e-12 0.319135

-4.29634 4.89803 -4.06418e-11
4.89803 1.00259 -1.46422e-11
-4.06418e-11 -1.46422e-11 -0.712752

-3.62674 2.2626 -1.82973e-11
2.2626 -0.395931 -4.62297e-12
-1.82973e-11 -4.62297e-12 -2.17327

-3.41857 3.42609 -8.28215e-12
3.42609 -1.65459 -5.68242e-12
-8.28215e-12 -5.68242e-12 -2.35408

-2.907 -4.60759 -1.34611e-12
-4.60759 2.47008 -2.75453e-11
-1.34611e-12 -2.75453e-11 -0.245136

-2.20298 4.18358 -1.92605e-11
4.18358 1.80407 2.29225e-11
-1.92605e-11 2.29225e-11 -0.123409

-8.68371 5.26941 1.29053e-11
5.26941 -1.33183 -2.04177e-11
1.29053e-11 -2.04177e-11 -1.55753

-4.07145 0.495398 -3.64984e-11
0.495398 5.02725 2.50441e-11
-3.64984e-11 2.50441e-11 0.460698

-2.48596 1.147 2.71603e-11
1.147 3.9262 2.85122e-11
2.71603e-11 2.85122e-11 0.365325

-1.28292 3.25089 9.92451e-12
3.25089 -1.83881 -6.93593e-12
9.92451e-12 -6.93593e-12 -0.622388

2.30161 2.73369 -7.13666e-12
2.73369 1.96672 -2.69669e-11
-7.13666e-12 -2.69669e-11 1.3563

-3.9858 -2.8313 6.35588e-12
-2.8313 2.6055 2.19615e-11
6.35588e-12 2.19615e-11 -0.059001

-4.84703 -4.94509 2.292e-11
-4.94509 0.555681 -3.66126e-12
2.292e-11 -3.66126e-12 -1.44518

9.44622 1.63983 3.06361e-11
1.63983 11.7771 -3.85233e-12
3.06361e-11 -3.85233e-12 9.6996

11.2034 1.70958 5.89571e-11
1.70958 9.8697 1.15015e-12
5.89571e-11 1.15015e-12 9.64355

4.22772 -3.66226 2.81293e-11
-3.66226 5.13456 -6.16329e-12
2.81293e-11 -6.16329e-12 3.33369

-1.2067 -3.40351 1.21356e-11
-3.40351 -0.782205 -2.61956e-11
1.21356e-11 -2.61956e-11 -0.667694

3.82577 -1.01771 7.90153e-12
-1.01771 -4.3538 -1.84947e-11
7.90153e-12 -1.84947e-11 -0.146741

-8.84809 3.6845 1.13977e-10
3.6845 -6.79438 -5.97012e-11
1.13977e-10 -5.97012e-11 -11.1095

-5.93802 -4.00854 1.52465e-10
-4.00854 -11.726 7.68368e-11
1.52465e-10 7.68368e-11 -11.5215

-2.75931 -5.03087 3.86728e-13
-5.03087 2.43255 -2.61979e-11
3.86728e-13 -2.61979e-11 -0.186864

-4.9728 0.933556 1.61782e-11
0.933556 -7.14701 -2.87e-11
1.61782e-11 -2.87e-11 -5.83043

-3.33246 -3.81984 -2.81173e-11
-3.81984 -3.20364 2.7048e-12
-2.81173e-11 2.7048e-12 -4.89369

2.1729 -1.32844 -1.54055e-12
-1.32844 -5.21233 1.73365e-11
-1.54055e-12 1.73365e-11 -0.312216

-7.68678 -5.22141 3.08205e-11
-5.22141 -1.59498 -6.16579e-12
3.08205e-11 -6.16579e-12 -1.54772

7.48584 -3.19896 1.27153e-11
-3.19896 8.85796 1.77233e-11
1.27153e-11 1.77233e-11 7.42356

8.3327 2.33143 -2.98664e-11
2.33143 8.20753 -1.75315e-11
-2.98664e-11 -1.75315e-11 7.34108

4.69949 -1.90689 -2.08079e-11
-1.90689 9.30013 1.38678e-11
-2.08079e-11 1.38678e-11 5.80096

4.60368 -2.09161 1.5607e-11
-2.09161 9.08657 -9.63296e-12
1.5607e-11 -9.63296e-12 5.6259

9.76288 -1.58846 -2.53377e-11
-1.58846 4.7733 -1.0793e-11
-2.53377e-11 -1.0793e-11 5.85712

4.67453 2.82904 9.82621e-12
2.82904 4.10613 2.52409e-11
9.82621e-12 2.52409e-11 3.06588

-4.50769 -5.59286 2.08981e-11
-5.59286 1.79618 7.51153e-12
2.08981e-11 7.51153e-12 -0.762659

5.27256 0.284005 2.92825e-11
0.284005 11.0607 3.08295e-11
2.92825e-11 3.08295e-11 7.32424

10.5074 -0.848007 -1.29166e-11
-0.848007 4.98782 -1.42606e-11
-1.29166e-11 -1.42606e-11 7.19707

-5.31106 0.435925 -1.98351e-11
0.435925 0.513736 1.926e-11
-1.98351e-11 1.926e-11 -3.94642

-5.57834 -2.27528 9.58752e-13
-2.27528 -3.4134 1.26062e-10
9.58752e-13 1.26062e-10 -4.69003

1.68867 -2.61185 4.24201e-12
-2.61185 -3.74461 -2.04139e-11
4.24201e-12 -2.04139e-11 -0.705126

1.06274 -0.163066 8.47674e-12
-0.163066 -11.3991 -6.54904e-12
8.47674e-12 -6.54904e-12 -1.65549

0.406901 -2.80763 -9.44197e-12
-2.80763 5.60398 -3.198e-11
-9.44197e-12 -3.198e-11 2.32505

1.22621 -2.80097 -1.04001e-11
-2.80097 5.96273 -5.12486e-11
-1.04001e-11 -5.12486e-11 2.31156

2.50788 -0.1553 5.58834e-12
-0.1553 -5.61139 -5.43204e-11
5.58834e-12 -5.43204e-11 -0.295593

-2.88158 -3.84638 -5.68312e-12
-3.84638 2.80502 9.44067e-12
-5.68312e-12 9.44067e-12 -0.0850243

-3.40195 0.0563721 -2.54918e-11
0.0563721 -5.30943 1.44431e-11
-2.54918e-11 1.44431e-11 -4.65774

-4.81736 1.14979 3.93349e-11
1.14979 -4.11454 5.16189e-11
3.93349e-11 5.16189e-11 -4.58835

0.0554454 -3.62413 -5.81461e-13
-3.62413 -2.38542 5.66297e-11
-5.81461e-13 5.66297e-11 -0.847612

-2.94241 -3.70207 1.15841e-12
-3.70207 -0.446231 -3.2749e-11
1.15841e-12 -3.2749e-11 -0.474731

2.05751 -2.60264 -1.55968e-11
-2.60264 -6.21149 -3.27461e-11
-1.55968e-11 -3.27461e-11 -0.88083

-3.94632 -3.26034 3.06263e-11
-3.26034 0.995196 6.16529e-12
3.06263e-11 6.16529e-12 -0.346829

20.1596 -6.21109 -1.1175e-11
-6.21109 20.7626 -1.58001e-11
-1.1175e-11 -1.58001e-11 20.743

-2.03751 -1.43006 -3.85155e-12
-1.43006 3.72069 -1.86865e-11
-3.85155e-12 -1.86865e-11 0.386816

-3.50759 -1.07722 -4.4294e-12
-1.07722 5.01562 -3.66029e-11
-4.4294e-12 -3.66029e-11 0.558479

-7.19885 -0.525223 1.96442e-11
-0.525223 1.82533 1.19387e-11
1.96442e-11 1.19387e-11 -4.61342

-6.43097 -0.621264 2.48483e-11
-0.621264 -4.94956 4.91274e-12
2.48483e-11 4.91274e-12 -5.6162

2.77679 -0.34949 -5.41298e-11
-0.34949 -7.51064 1.81032e-11
-5.41298e-11 1.81032e-11 -1.49345

2.04703 0.172351 1.92975e-13
0.172351 -7.06947 -2.27285e-11
1.92975e-13 -2.27285e-11 -1.47101

-2.85491 2.71673 -4.85374e-11
2.71673 -4.46785 -4.43027e-12
-4.85374e-11 -4.43027e-12 -2.54459

-1.24615 -4.87646 7.78181e-11
-4.87646 -4.233 8.46745e-12
7.78181e-11 8.46745e-12 -2.15336

-2.92849 0.971283 -1.38668e-11
0.971283 -3.4431 3.27418e-11
-1.38668e-11 3.27418e-11 -4.01283

-0.806216 -1.73967 -2.65804e-11
-1.73967 -3.26285 6.74793e-12
-2.65804e-11 6.74793e-12 -3.67729

-7.44574 -1.90003 1.76004e-11
-1.90003 -9.56434 2.3113e-11
1.76004e-11 2.3113e-11 -9.84915

-6.80837 5.70433 -1.45382e-11
5.70433 -4.32678 1.57893e-11
-1.45382e-11 1.57893e-11 -8.62631

-4.9867 -5.03713 -9.67504e-12
-5.03713 0.302513 -4.31469e-11
-9.67504e-12 -4.31469e-11 -1.58875

-7.19038 6.23565 5.15502e-12
6.23565 -3.02753 5.16226e-11
5.15502e-12 5.16226e-11 -2.09611

1.89594 2.52088 3.44804e-11
2.52088 -2.18548 4.50773e-11
3.44804e-11 4.50773e-11 0.0643515

-3.77477 -2.15053 -1.8493e-11
-2.15053 3.22965 -2.81255e-11
-1.8493e-11 -2.81255e-11 0.0329228

-1.39944 -3.26192 1.58935e-11
-3.26192 3.26161 -1.88792e-11
1.58935e-11 -1.88792e-11 0.267739

2.00533 -2.65345 -5.48124e-11
-2.65345 -1.58598 4.97015e-11
-5.48124e-11 4.97015e-11 0.0397752

-1.17306 2.45433 -2.28281e-11
2.45433 2.99889 1.25209e-11
-2.28281e-11 1.25209e-11 0.322552

-3.65903 1.44921 -4.9701e-14
1.44921 3.56906 3.62175e-11
-4.9701e-14 3.62175e-11 0.159847

0.226314 3.48342 3.88138e-11
3.48342 0.0581606 -6.94119e-12
3.88138e-11 -6.94119e-12 0.332069

-4.48102 4.17832 -1.15648e-12
4.17832 -0.952122 3.46697e-12
-1.15648e-12 3.46697e-12 -1.67685

-5.12185 -5.5843 3.37087e-11
-5.5843 -2.86231 -5.74019e-11
3.37087e-11 -5.74019e-11 -1.99249

0.670095 -4.26608 1.31941e-11
-4.26608 1.02319 -3.65781e-12
1.31941e-11 -3.65781e-12 0.354299

1.15554 1.23636 -6.5495e-12
1.23636 -4.16116 -1.32917e-11
-6.5495e-12 -1.32917e-11 -0.947434

-1.34472 -1.88375 7.43414e-11
-1.88375 -2.41726 2.69688e-12
7.43414e-11 2.69688e-12 -9.2019

-12.4985 1.14653 2.06075e-11
1.14653 -11.4053 -3.16837e-11
2.06075e-11 -3.16837e-11 -12.8649

-2.65567 -4.22564 7.69782e-13
-4.22564 1.51181 5.58731e-12
7.69782e-13 5.58731e-12 -0.610876

0.663964 -4.18688 -1.07822e-11
-4.18688 -3.80347 -3.77533e-11
-1.07822e-11 -3.77533e-11 -0.829275

0.326718 -0.362152 -2.04121e-11
-0.362152 -4.22606 -1.19395e-11
-2.04121e-11 -1.19395e-11 -2.38065

9.66136 -2.94129 -2.02255e-11
-2.94129 10.7951 -1.17564e-11
-2.02255e-11 -1.17564e-11 9.07951

10.7243 -2.62538 -5.19962e-12
-2.62538 8.92707 -1.12659e-11
-5.19962e-12 -1.12659e-11 8.77292

1.90688 0.28836 -3.00984e-11
0.28836 -7.01609 2.25329e-11
-3.00984e-11 2.25329e-11 -2.00398

0.537312 -0.226432 4.06858e-12
-0.226432 -6.51843 -1.65634e-11
4.06858e-12 -1.65634e-11 -2.07813

0.203933 -0.0545307 5.66311e-11
-0.0545307 -6.88117 -6.35847e-12
5.66311e-11 -6.35847e-12 -2.79021

4.99588 1.78493 3.41564e-12
1.78493 -0.0834895 2.70077e-12
3.41564e-12 2.70077e-12 1.37447

-2.37962 -2.69276 -1.39585e-12
-2.69276 -0.313343 -1.23275e-11
-1.39585e-12 -1.23275e-11 -1.36015

-2.79117 3.26981 -8.71029e-12
3.26981 -2.70574 -2.77453e-11
-8.71029e-12 -2.77453e-11 -1.61278

-7.09926 -2.99023 2.50358e-11
-2.99023 -13.777 -4.01656e-11
2.50358e-11 -4.01656e-11 -12.2162

-3.59696 -0.319137 -3.1199e-11
-0.319137 -0.455602 -7.624e-11
-3.1199e-11 -7.624e-11 -9.22723

-4.22884 -4.74619 1.84897e-11
-4.74619 1.58597 1.8106e-11
1.84897e-11 1.8106e-11 -0.721554

2.6629 -3.33201 -5.3942e-12
-3.33201 -2.43858 -2.46577e-11
-5.3942e-12 -2.46577e-11 0.106823

-0.851009 0.730278 -7.45618e-12
0.730278 -3.61093 -2.81195e-11
-7.45618e-12 -2.81195e-11 -2.08778

-0.131921 0.11348 -2.48497e-11
0.11348 -4.30345 -3.0817e-11
-2.48497e-11 -3.0817e-11 -2.21472

-4.80248 -1.90906 -3.82167e-13
-1.90906 0.972322 -1.73385e-11
-3.82167e-13 -1.73385e-11 -0.873859

-5.86377 -3.49933 7.71457e-13
-3.49933 -1.62534 -7.8975e-12
7.71457e-13 -7.8975e-12 -1.26351

21.0709 5.25199 -5.0098e-11
5.25199 20.2352 1.4447e-11
-5.0098e-11 1.4447e-11 20.7936

-4.62369 2.801 4.43079e-12
2.801 -1.16804 1.82978e-11
4.43079e-12 1.82978e-11 -2.37972

-4.60058 -3.64554 2.86983e-11
-3.64554 -1.47467 2.46524e-11
2.86983e-11 2.46524e-11 -2.38939

-5.68059 -3.31085 8.67106e-12
-3.31085 0.473628 -4.96986e-11
8.67106e-12 -4.96986e-11 -0.858724

5.18459 -2.23579 6.3564e-12
-2.23579 0.564091 9.65561e-13
6.3564e-12 9.65561e-13 1.35201

-0.60576 2.42888 3.08265e-12
2.42888 -1.40021 3.87153e-11
3.08265e-12 3.87153e-11 -0.848419

-2.38266 2.54995 5.97263e-12
2.54995 -1.95965 2.1379e-11
5.97263e-12 2.1379e-11 -1.90699

-0.634201 -3.9269 7.97408e-11
-3.9269 -3.93319 -9.63365e-12
7.97408e-11 -9.63365e-12 -1.88454

1.53576 0.981306 -2.92791e-11
0.981306 -6.90696 4.16036e-11
-2.92791e-11 4.16036e-11 -1.1143

-1.66356 -0.452129 3.15487e-12
-0.452129 -4.41369 2.27256e-11
3.15487e-12 2.27256e-11 -3.17428

-0.652762 0.707879 -3.52617e-11
0.707879 -6.10008 3.58219e-11
-3.52617e-11 3.58219e-11 -3.40616

-8.49814 1.30155 -2.61914e-11
1.30155 0.235702 -5.08508e-11
-2.61914e-11 -5.08508e-11 -8.54304

-10.079 0.246199 -4.46826e-11
0.246199 -4.88616 3.44726e-11
-4.46826e-11 3.44726e-11 -9.56759

11.9073 -1.34363 -5.51089e-11
-1.34363 8.471 2.92868e-11
-5.51089e-11 2.92868e-11 12.5424

7.20867 -0.892944 1.98527e-11
-0.892944 12.3058 3.50697e-11
1.98527e-11 3.50697e-11 12.3928

-3.46337 -4.18013 1.48255e-11
-4.18013 1.58789 6.62631e-11
1.48255e-11 6.62631e-11 -0.88252

-4.15885 3.62574 1.24224e-11
3.62574 -1.87179 -3.08113e-12
1.24224e-11 -3.08113e-12 -1.25154

-4.13146 -5.59312 3.35138e-11
-5.59312 1.99443 1.21338e-11
3.35138e-11 1.21338e-11 -0.654996

13.1842 1.43191 -4.25813e-11
1.43191 12.9806 -4.54802e-11
-4.25813e-11 -4.54802e-11 14.4395

13.2662 2.15915 2.31235e-11
2.15915 11.8498 5.78202e-12
2.31235e-11 5.78202e-12 14.0457

-18.4991 4.57385 5.81832e-11
4.57385 -3.9306 -3.73682e-11
5.81832e-11 -3.73682e-11 -12.9109

-13.525 -3.60721 -6.51344e-11
-3.60721 -6.6524 2.15723e-11
-6.51344e-11 2.15723e-11 -12.467

-1.71225 3.3799 -5.76132e-13
3.3799 -1.56701 5.41268e-11
-5.76132e-13 5.41268e-11 -0.940229

-0.322242 -4.03375 -5.01162e-12
-4.03375 2.0594 3.27491e-11
-5.01162e-12 3.27491e-11 0.316438

-3.33685 -4.00706 5.04189e-11
-4.00706 -0.298755 -2.02256e-11
5.04189e-11 -2.02256e-11 -1.21497

-3.42441 4.03349 1.45365e-13
4.03349 -1.90153 -2.46571e-11
1.45365e-13 -2.46571e-11 -1.17591

-2.20034 -4.67904 9.72814e-12
-4.67904 1.53122 -5.39461e-12
9.72814e-12 -5.39461e-12 -0.292712

-0.704377 3.25268 5.08564e-11
3.25268 1.04752 2.73566e-11
5.08564e-11 2.73566e-11 0.351556

3.71364 -1.7062 -1.79174e-11
-1.7062 8.8227 1.57976e-11
-1.79174e-11 1.57976e-11 5.34303

5.00802 -1.46784 2.83172e-11
-1.46784 9.11677 1.36793e-11
2.83172e-11 1.36793e-11 5.65602

9.5994 -1.19491 -3.17687e-12
-1.19491 4.77444 6.35603e-12
-3.17687e-12 6.35603e-12 5.752

-2.80978 3.64971 -1.00158e-11
3.64971 0.070857 -2.15755e-11
-1.00158e-11 -2.15755e-11 -0.330455

5.57037 -0.18796 -4.16184e-11
-0.18796 11.0501 4.97076e-11
-4.16184e-11 4.97076e-11 7.58849

10.9509 0.373745 -1.53139e-11
0.373745 6.28373 1.93117e-12
-1.53139e-11 1.93117e-12 7.68385

-4.44693 -3.82425 6.10052e-11
-3.82425 -0.767886 5.21978e-11
6.10052e-11 5.21978e-11 -2.05058

-4.5495 4.64572 -1.54496e-11
4.64572 -3.40243 1.92341e-12
-1.54496e-11 1.92341e-12 -2.18222

-4.59476 -3.04611 -1.35783e-11
-3.04611 -1.10006 -1.50259e-11
-1.35783e-11 -1.50259e-11 -2.39969

-4.61529 4.10915 -9.48871e-12
4.10915 -1.94269 -1.88783e-11
-9.48871e-12 -1.88783e-11 -2.26307

13.0771 -2.74158 -1.05948e-11
-2.74158 13.4849 -2.69673e-12
-1.05948e-11 -2.69673e-12 14.8558

12.9847 -2.67297 2.90962e-11
-2.67297 13.723 -1.27186e-11
2.90962e-11 -1.27186e-11 14.9048

-1.70136 3.40416 1.30983e-11
3.40416 -0.947561 -1.03991e-11
1.30983e-11 -1.03991e-11 -0.460065

-1.41694 -3.69408 2.1282e-11
-3.69408 1.27521 4.23839e-12
2.1282e-11 4.23839e-12 -0.314571

-5.95103 -0.962606 1.23276e-11
-0.962606 -1.63963 3.25488e-11
1.23276e-11 3.25488e-11 -5.9045

-7.05757 -1.15318 -4.62265e-11
-1.15318 -6.10781 5.58364e-12
-4.62265e-11 5.58364e-12 -6.79318

-5.59034 -3.9794 2.75888e-11
-3.9794 0.457879 1.98393e-11
2.75888e-11 1.98393e-11 -2.18047

-6.84546 4.25557 -4.09262e-12
4.25557 -1.12887 3.7752e-11
-4.09262e-12 3.7752e-11 -2.29881

-2.70285 -0.0554907 -5.87556e-12
-0.0554907 -7.45923 -7.69966e-12
-5.87556e-12 -7.69966e-12 -4.34311

-4.11416 0.903038 2.15763e-11
0.903038 -6.65183 -2.96572e-11
2.15763e-11 -2.96572e-11 -4.35648

-3.03519 3.78422 2.6944e-12
3.78422 -0.336686 5.20027e-12
2.6944e-12 5.20027e-12 -1.10871

-2.34528 -4.01009 -3.17824e-11
-4.01009 -2.2048 -6.16103e-12
-3.17824e-11 -6.16103e-12 -1.18714

-9.739 -1.65307 6.06687e-11
-1.65307 -4.3193 -7.67556e-11
6.06687e-11 -7.67556e-11 -8.08095

-5.95526 1.60833 -5.00885e-12
1.60833 -8.09889 9.24429e-12
-5.00885e-12 9.24429e-12 -8.04101

-2.49541 -3.91422 2.04109e-11
-3.91422 -5.40527 -3.4284e-11
2.04109e-11 -3.4284e-11 -7.06039

-8.91269 -0.689986 -5.97002e-12
-0.689986 0.15978 3.08126e-12
-5.97002e-12 3.08126e-12 -7.21877

-6.31552 1.10064 7.45131e-11
1.10064 -7.369 2.39236e-11
7.45131e-11 2.39236e-11 -7.37669

-11.8056 0.14165 2.86808e-11
0.14165 -7.17023 4.04447e-11
2.86808e-11 4.04447e-11 -10.2059

-4.35477 -1.20491 -5.26297e-11
-1.20491 -8.55736 1.07547e-11
-5.26297e-11 1.07547e-11 -7.28228

-8.00849 -0.445523 -3.38605e-11
-0.445523 -10.2834 -3.63997e-11
-3.38605e-11 -3.63997e-11 -10.1045

-10.9052 -2.17769 7.9205e-11
-2.17769 -8.69805 -2.95458e-10
7.9205e-11 -2.95458e-10 -10.6545

-7.95944 5.24992 -8.40517e-11
5.24992 -3.46273 -2.23428e-10
-8.40517e-11 -2.23428e-10 -8.88366

0.174999 1.50971 2.29341e-10
1.50971 -0.916973 -1.23612e-10
2.29341e-10 -1.23612e-10 -9.20976

2.03814 -2.50765 8.18196e-10
-2.50765 -17.5692 8.96422e-11
8.18196e-10 8.96422e-11 -12.141

-6.52773 -2.83255 4.1488e-11
-2.83255 -6.81662 -8.49368e-11
4.1488e-11 -8.49368e-11 -7.88569

-5.31528 -2.08457 -1.06317e-10
-2.08457 -1.77655 6.93439e-12
-1.06317e-10 6.93439e-12 -4.0586

-4.43631 4.89957 5.67794e-12
4.89957 -6.11664 -1.30934e-11
5.67794e-12 -1.30934e-11 -7.14244

-4.84837 2.74909 6.06676e-11
2.74909 -3.22299 3.62112e-11
6.06676e-11 3.62112e-11 -3.95275

-8.25064 5.61076 2.20143e-11
5.61076 -3.36982 -2.3879e-11
2.20143e-11 -2.3879e-11 -9.79495

-10.1262 -0.604309 2.69395e-11
-0.604309 -11.4493 1.98371e-11
2.69395e-11 1.98371e-11 -11.8088

-7.16295 -1.85632 -7.95473e-11
-1.85632 -4.2889 4.43049e-12
-7.95473e-11 4.43049e-12 -5.61039

-6.42393 -1.11407 2.92518e-12
-1.11407 -6.58284 6.39421e-11
2.92518e-12 6.39421e-11 -7.45136

-5.70728 4.59623 2.49424e-11
4.59623 -3.03494 1.04056e-11
2.49424e-11 1.04056e-11 -4.88642

-8.0856 3.048 -2.88551e-12
3.048 -5.23439 9.62846e-12
-2.88551e-12 9.62846e-12 -7.42281

-4.98749 1.07433 2.11575e-12
1.07433 2.64681 -1.54306e-12
2.11575e-12 -1.54306e-12 -0.726159

-0.696256 -0.414456 -2.88897e-11
-0.414456 1.47786 -1.65654e-11
-2.88897e-11 -1.65654e-11 -0.252832

4.41055 1.03103 -4.67352e-12
1.03103 -4.05077 6.74056e-12
-4.67352e-12 6.74056e-12 0.0254746

5.94246 0.249752 -8.76906e-12
0.249752 -1.89083 -8.67071e-12
-8.76906e-12 -8.67071e-12 0.962894

-8.41211 1.21616 -1.90689e-11
1.21616 1.70918 1.27112e-11
-1.90689e-11 1.27112e-11 -2.51008

-4.29608 0.31605 -2.69773e-12
0.31605 -1.16929 2.83131e-11
-2.69773e-12 2.83131e-11 -2.0373

5.88081 -0.397208 -4.52312e-12
-0.397208 -2.09611 -2.31274e-12
-4.52312e-12 -2.31274e-12 0.94551

3.44713 -0.237547 -2.8814e-13
-0.237547 -5.86883 -1.54091e-11
-2.8814e-13 -1.54091e-11 -0.707949

2.2418 -2.38434 4.33505e-12
-2.38434 7.52077 -4.62593e-12
4.33505e-12 -4.62593e-12 3.89062

3.31733 3.86258 -1.3294e-11
3.86258 7.43847 1.42549e-11
-1.3294e-11 1.42549e-11 3.55929

6.71611 3.65574 2.83189e-11
3.65574 2.76395 4.39353e-11
2.83189e-11 4.39353e-11 3.73659

-2.48432 4.41833 -1.17491e-11
4.41833 0.173121 -5.3925e-12
-1.17491e-11 -5.3925e-12 -1.62366

-4.05958 -1.49863 8.66942e-12
-1.49863 0.424832 -2.69655e-11
8.66942e-12 -2.69655e-11 -2.01988

0.320203 3.76508 -1.59184e-12
3.76508 2.31054 -1.86858e-11
-1.59184e-12 -1.86858e-11 0.27123

-4.89845 3.32401 3.50546e-11
3.32401 -0.429242 -2.00269e-11
3.50546e-11 -2.00269e-11 -2.12691

-8.78093 -1.19546 -1.1554e-11
-1.19546 1.91506 -5.77612e-12
-1.1554e-11 -5.77612e-12 -2.5525

3.40462 -0.741441 -2.83185e-11
-0.741441 -4.69631 1.77174e-11
-2.83185e-11 1.77174e-11 0.0432449

2.34574 1.76259 -2.41804e-11
1.76259 7.78784 3.46686e-12
-2.41804e-11 3.46686e-12 2.80617

0.591973 -0.460887 1.38703e-11
-0.460887 7.7406 7.75528e-13
1.38703e-11 7.75528e-13 2.82025

7.72742 1.79622 1.17537e-11
1.79622 1.71683 4.12295e-11
1.17537e-11 4.12295e-11 3.10629

5.22903 -1.86249 -1.2136e-11
-1.86249 -1.05449 -4.2335e-12
-1.2136e-11 -4.2335e-12 1.27788

-1.05916 3.2069 -1.69546e-11
3.2069 4.03412 2.69399e-12
-1.69546e-11 2.69399e-12 1.0158

1.88006 -2.43497 -1.61762e-11
-2.43497 3.70675 -1.34892e-12
-1.61762e-11 -1.34892e-12 1.21227

4.39813 -1.19953 -3.80592e-12
-1.19953 -4.48254 3.60173e-11
-3.80592e-12 3.60173e-11 -0.00117149

7.46905 2.42731 -1.04049e-11
2.42731 10.2519 3.08251e-11
-1.04049e-11 3.08251e-11 6.58602

3.41373 0.254866 9.41447e-12
0.254866 -6.1568 5.20117e-12
9.41447e-12 5.20117e-12 -0.783315

9.83652 2.6221 1.73395e-11
2.6221 7.26305 3.35221e-11
1.73395e-11 3.35221e-11 6.91479

-4.78941 0.288972 2.3881e-11
0.288972 0.996274 1.6181e-11
2.3881e-11 1.6181e-11 -2.68917

-2.28476 1.52265 -2.86965e-11
1.52265 -0.872221 1.04003e-11
-2.86965e-11 1.04003e-11 -2.10226

-7.18983 -3.9122 1.90903e-11
-3.9122 -6.78356 1.15532e-11
1.90903e-11 1.15532e-11 -8.63901

-5.62895 1.70184 -1.62745e-11
1.70184 -8.34771 8.2818e-12
-1.62745e-11 8.2818e-12 -8.66797

8.19948 -0.556907 -1.71457e-11
-0.556907 2.06333 1.15606e-11
-1.71457e-11 1.15606e-11 3.23185

-0.87597 4.5827 3.17764e-12
4.5827 1.68078 -2.562e-11
3.17764e-12 -2.562e-11 -0.0502537

-2.03381 0.682692 -1.35951e-12
0.682692 -2.91973 -1.81069e-11
-1.35951e-12 -1.81069e-11 -2.95565

-3.6108 -2.08617 -8.70171e-12
-2.08617 -4.04094 4.69981e-11
-8.70171e-12 4.69981e-11 -3.37068

4.19907 -0.272633 4.16506e-12
-0.272633 -6.75037 1.09784e-11
4.16506e-12 1.09784e-11 -0.732673

-1.22529 3.7899 1.94585e-11
3.7899 2.58372 -1.9255e-12
1.94585e-11 -1.9255e-12 0.716682

0.588553 -3.45504 -2.58068e-11
-3.45504 3.30225 -1.9263e-11
-2.58068e-11 -1.9263e-11 0.934462

4.54933 -2.43826 -3.27235e-12
-2.43826 0.496664 -3.46686e-12
-3.27235e-12 -3.46686e-12 1.42409

4.13962 -0.578507 -1.20415e-12
-0.578507 -6.68871 -1.5412e-12
-1.20415e-12 -1.5412e-12 -0.569199

0.311551 4.46935 5.39398e-12
4.46935 4.83567 -3.58311e-11
5.39398e-12 -3.58311e-11 1.04315

-1.14843 -3.08322 -2.33082e-11
-3.08322 2.81291 -1.15602e-11
-2.33082e-11 -1.15602e-11 0.78064

0.352374 4.13356 -3.39987e-11
4.13356 4.71949 2.49852e-12
-3.39987e-11 2.49852e-12 1.00134

-1.62102 -2.47735 1.78159e-11
-2.47735 4.44896 4.62385e-11
1.78159e-11 4.62385e-11 0.988524

-1.07894 -2.04867 1.88762e-11
-2.04867 0.643414 -1.34843e-11
1.88762e-11 -1.34843e-11 -0.255306

-5.60597 2.88131 3.0047e-11
2.88131 1.60984 2.35053e-11
3.0047e-11 2.35053e-11 -0.643223

3.50023 -3.59478 -7.99642e-12
-3.59478 2.03389 1.55997e-11
-7.99642e-12 1.55997e-11 1.82385

20.2322 -3.18125 1.79224e-11
-3.18125 19.777 -2.7169e-11
1.79224e-11 -2.7169e-11 19.9696

19.2074 -3.41863 -2.92842e-11
-3.41863 20.9225 -2.50495e-11
-2.92842e-11 -2.50495e-11 20.2184

-4.47136 5.35682 -3.49585e-11
5.35682 1.21151 -3.06309e-11
-3.49585e-11 -3.06309e-11 -1.30871

-8.07667 -3.49227 -3.65934e-12
-3.49227 0.247016 3.85225e-12
-3.65934e-12 3.85225e-12 -1.97672

12.1219 -0.687216 -2.04297e-11
-0.687216 12.1553 2.46643e-11
-2.04297e-11 2.46643e-11 13.458

11.9887 -0.737276 -3.15929e-11
-0.737276 12.52 -4.27788e-11
-3.15929e-11 -4.27788e-11 13.1481

-0.771417 3.06546 -6.16033e-12
3.06546 -4.02592 -8.51171e-16
-6.16033e-12 -8.51171e-16 -2.97939

0.167691 -2.33542 3.69779e-11
-2.33542 -4.42246 5.59175e-12
3.69779e-11 5.59175e-12 -2.13817

1.82678 -0.106041 4.71902e-11
-0.106041 -5.94403 3.54473e-11
4.71902e-11 3.54473e-11 -0.419262

-1.43414 4.30759 -3.3902e-11
4.30759 -4.59216 -2.004e-11
-3.3902e-11 -2.004e-11 -3.28825

-0.128243 -3.10997 4.00749e-11
-3.10997 -6.39495 -5.12211e-11
4.00749e-11 -5.12211e-11 -2.58213

-3.79515 3.04265 -6.16433e-12
3.04265 2.64469 -6.1263e-11
-6.16433e-12 -6.1263e-11 0.0306944

-1.23985 -2.40013 7.66794e-13
-2.40013 2.43747 3.27468e-11
7.66794e-13 3.27468e-11 0.152478

-3.62251 1.50307 5.8745e-11
1.50307 -8.16042 7.85028e-12
5.8745e-11 7.85028e-12 -6.88815

-5.68728 -1.97693 1.88983e-11
-1.97693 -7.02607 2.80679e-11
1.88983e-11 2.80679e-11 -7.03893

-0.600611 4.64668 -2.81262e-11
4.64668 -3.7379 -9.25112e-12
-2.81262e-11 -9.25112e-12 -1.48715

0.73398 -3.67434 -5.57695e-12
-3.67434 -4.16312 -4.41575e-11
-5.57695e-12 -4.41575e-11 -1.06073

7.37097 -2.4845 9.53511e-12
-2.4845 3.38609 5.00936e-12
9.53511e-12 5.00936e-12 4.1358

-7.80363 -0.127128 -1.30971e-11
-0.127128 0.183515 -6.24046e-11
-1.30971e-11 -6.24046e-11 -6.0092

-5.93827 0.932436 1.36735e-11
0.932436 -3.34157 -1.72369e-11
1.36735e-11 -1.72369e-11 -4.80448

5.82868 -0.438082 1.21398e-11
-0.438082 10.4359 -1.73409e-11
1.21398e-11 -1.73409e-11 7.04701

10.4141 -0.544421 1.24321e-11
-0.544421 6.46122 -1.61829e-11
1.24321e-11 -1.61829e-11 7.17586

-6.09167 2.58108 -2.17653e-11
2.58108 2.05087 1.19419e-11
-2.17653e-11 1.19419e-11 -0.774205

-2.62097 -1.5067 -4.815e-12
-1.5067 1.44099 -1.65673e-11
-4.815e-12 -1.65673e-11 -0.469649

-2.33802 -0.891912 -9.82209e-11
-0.891912 0.713018 5.42924e-11
-9.82209e-11 5.42924e-11 -9.55197

-2.06485 -2.84073 -7.24071e-11
-2.84073 -10.6507 -7.49276e-11
-7.24071e-11 -7.49276e-11 -8.68591

1.3384 4.12796 -4.23491e-12
4.12796 -4.56518 -3.19759e-11
-4.23491e-12 -3.19759e-11 -0.75527

1.94103 -2.72233 -5.77627e-12
-2.72233 -4.92371 -6.55054e-12
-5.77627e-12 -6.55054e-12 -0.560815

8.13906 0.0693018 1.48342e-11
0.0693018 1.45961 -2.36942e-11
1.48342e-11 -2.36942e-11 3.14548

4.7869 0.133882 6.16603e-12
0.133882 -2.33652 -1.73319e-11
6.16603e-12 -1.73319e-11 0.896618

6.45228 2.00686 1.04984e-11
2.00686 -0.235254 4.24159e-12
1.04984e-11 4.24159e-12 1.69641

-1.29693 0.734953 -9.9211e-12
0.734953 -6.20649 1.40597e-11
-9.9211e-12 1.40597e-11 -2.95098

-15.0188 -1.45888 -2.33278e-11
-1.45888 -6.35195 -1.30995e-11
-2.33278e-11 -1.30995e-11 -11.5868

-10.6721 0.74923 1.6491e-10
0.74923 -10.037 -3.69786e-11
1.6491e-10 -3.69786e-11 -11.4437

4.88559 3.48292 4.04669e-12
3.48292 6.26922 1.93697e-13
4.04669e-12 1.93697e-13 3.19328

0.531975 -3.02154 -1.7914e-11
-3.02154 -1.11332 -4.23805e-12
-1.7914e-11 -4.23805e-12 0.0584601

2.84917 3.31176 -9.63096e-12
3.31176 -3.33423 -2.35e-11
-9.63096e-12 -2.35e-11 0.0473625

-7.84129 1.41929 -3.73633e-11
1.41929 -5.09852 1.51133e-11
-3.73633e-11 1.51133e-11 -6.53672

-7.50657 2.10115 4.23502e-12
2.10115 -0.695791 -3.5824e-11
4.23502e-12 -3.5824e-11 -7.48349

-2.54248 -1.75167 -2.77125e-11
-1.75167 -5.68966 9.63196e-12
-2.77125e-11 9.63196e-12 -3.07413

-1.34498 2.71957 1.15557e-11
2.71957 2.04504 1.23292e-11
1.15557e-11 1.23292e-11 -0.387135

-5.42692 -0.494253 -1.31928e-11
-0.494253 2.89041 -3.85255e-12
-1.31928e-11 -3.85255e-12 -0.854327

1.64403 2.05187 -1.00153e-11
2.05187 -7.51266 5.39609e-12
-1.00153e-11 5.39609e-12 -0.934081

1.92368 -0.412868 3.62107e-11
-0.412868 -8.0854 4.56529e-11
3.62107e-11 4.56529e-11 -0.83791

6.62926 -2.70395 -7.9002e-12
-2.70395 4.89383 3.75647e-11
-7.9002e-12 3.75647e-11 3.60209

0.915685 3.70274 -7.75383e-12
3.70274 -6.52461 1.42566e-11
-7.75383e-12 1.42566e-11 -1.71497

1.29649 -2.33827 3.93459e-11
-2.33827 -7.99331 -2.69597e-11
3.93459e-11 -2.69597e-11 -1.49589

2.8919 -1.80829 -4.16089e-11
-1.80829 -3.1056 1.32852e-11
-4.16089e-11 1.32852e-11 0.146528

1.34504 2.6889 -2.04158e-11
2.6889 -5.40993 1.13639e-11
-2.04158e-11 1.13639e-11 -0.930427

1.08384 -1.37055 1.6181e-11
-1.37055 -5.98154 -1.51181e-11
1.6181e-11 -1.51181e-11 -0.841536

3.15672 -1.15114 1.65657e-11
-1.15114 -3.17767 -4.43071e-11
1.65657e-11 -4.43071e-11 -0.0460236

-4.01549 4.84143 -4.52684e-11
4.84143 -1.6556 -3.47145e-12
-4.52684e-11 -3.47145e-12 -0.99148

0.487048 -4.15399 2.61976e-11
-4.15399 -1.53253 -2.11865e-11
2.61976e-11 -2.11865e-11 -0.369765

4.04649 3.26328 2.32125e-11
3.26328 2.8872 3.93015e-11
2.32125e-11 3.93015e-11 1.54651

-2.39958 -3.03861 7.89446e-12
-3.03861 -0.142315 3.46626e-12
7.89446e-12 3.46626e-12 -0.624288

-6.19 3.37472 -1.17503e-11
3.37472 -1.50743 -3.58297e-11
-1.17503e-11 -3.58297e-11 -1.33864

5.05324 2.9793 -1.38708e-11
2.9793 -1.49278 1.1167e-11
-1.38708e-11 1.1167e-11 1.28467

-0.998535 -2.66317 4.40138e-11
-2.66317 -3.66297 2.88938e-11
4.40138e-11 2.88938e-11 -1.17607

3.85931 1.11647 1.15613e-11
1.11647 -1.75418 5.3933e-11
1.15613e-11 5.3933e-11 0.271311

2.10893 4.24868 9.24794e-12
4.24868 2.84312 4.37315e-11
9.24794e-12 4.37315e-11 1.25276

1.32036 3.43039 -2.13342e-11
3.43039 -0.586108 1.15274e-12
-2.13342e-11 1.15274e-12 0.0163293

-3.71731 1.36561 -2.38845e-11
1.36561 1.65228 -5.58731e-12
-2.38845e-11 -5.58731e-12 -0.810941

-7.0536 0.383315 4.04257e-12
0.383315 3.50499 -1.96493e-11
4.04257e-12 -1.96493e-11 -0.893985

7.61935 -2.61154 2.21504e-12
-2.61154 2.3149 -5.76354e-13
2.21504e-12 -5.76354e-13 3.70668

-5.40542 -4.74144 1.97447e-11
-4.74144 -1.55596 -1.00197e-11
1.97447e-11 -1.00197e-11 -1.17576

-3.60564 5.20174 4.56504e-11
5.20174 1.35085 1.6185e-11
4.56504e-11 1.6185e-11 -0.895078

3.57811 -3.84053 -3.29413e-11
-3.84053 3.94806 -2.29248e-11
-3.29413e-11 -2.29248e-11 1.91907

1.64668 4.62549 1.25229e-11
4.62549 3.98945 7.32303e-12
1.25229e-11 7.32303e-12 1.77711

2.35301 -2.15164 4.45448e-11
-2.15164 -2.39412 1.12649e-11
4.45448e-11 1.12649e-11 -0.0109579

1.22934 -0.554036 -4.14104e-12
-0.554036 -7.46986 -1.7335e-11
-4.14104e-12 -1.7335e-11 -1.78463

2.45219 0.160261 3.86201e-11
0.160261 -7.63911 2.61958e-11
3.86201e-11 2.61958e-11 -1.61588

0.14261 -3.60321 -1.21355e-11
-3.60321 0.776089 -1.94528e-11
-1.21355e-11 -1.94528e-11 0.428196

0.989996 0.738175 1.96455e-11
0.738175 8.29452 2.65881e-11
1.96455e-11 2.65881e-11 3.02393

-0.363312 0.633602 -1.21372e-11
0.633602 8.32376 1.04003e-11
-1.21372e-11 1.04003e-11 3.09377

8.08857 0.670564 7.40149e-15
0.670564 0.5367 -1.23308e-11
7.40149e-15 -1.23308e-11 3.31506

5.5459 3.8282 -2.3505e-11
3.8282 4.65293 -1.07855e-11
-2.3505e-11 -1.07855e-11 3.44146

4.30672 -3.75794 3.23644e-11
-3.75794 0.634984 2.00358e-11
3.23644e-11 2.00358e-11 1.49212

-11.6803 4.28831 -3.043e-11
4.28831 -6.36085 3.46293e-12
-3.043e-11 3.46293e-12 -9.33704

-1.29631 -1.12688 5.83533e-11
-1.12688 -1.06453 5.85429e-11
5.83533e-11 5.85429e-11 -8.71663

5.51171 -1.2758 1.42559e-11
-1.2758 -1.85721 1.19433e-11
1.42559e-11 1.19433e-11 1.2348

-4.39164 3.38302 3.00476e-11
3.38302 0.657429 -2.08015e-11
3.00476e-11 -2.08015e-11 -0.446545

-0.33021 -3.82308 4.69957e-11
-3.82308 0.982993 4.624e-12
4.69957e-11 4.624e-12 0.0392317

2.45608 1.75156 4.93166e-11
1.75156 -5.69484 8.48232e-12
4.93166e-11 8.48232e-12 -0.287196

-0.233405 3.57274 -2.16697e-11
3.57274 5.67683 2.50355e-12
-2.16697e-11 2.50355e-12 1.20066

-2.62993 -1.58933 -5.97659e-12
-1.58933 5.26368 4.58498e-11
-5.97659e-12 4.58498e-11 1.01537

-8.48819 3.59565 -5.0112e-12
3.59565 0.250146 -3.62128e-11
-5.0112e-12 -3.62128e-11 -1.9613

-2.64243 -1.4827 -1.35088e-12
-1.4827 -0.506075 -1.38679e-11
-1.35088e-12 -1.38679e-11 -0.956123

-5.54362 3.63895 -3.56346e-11
3.63895 -2.64995 8.08733e-12
-3.56346e-11 8.08733e-12 -1.39921

-1.30473 -3.68539 -3.27257e-12
-3.68539 -0.872746 1.71414e-11
-3.27257e-12 1.71414e-11 -0.557609

1.36127 0.294783 -3.35187e-11
0.294783 -12.4265 1.54085e-11
-3.35187e-11 1.54085e-11 -1.62068

3.44434 4.64012 -2.67714e-11
4.64012 0.88662 -5.16306e-11
-2.67714e-11 -5.16306e-11 1.54019

-3.90499 5.55389 1.30007e-11
5.55389 2.65807 9.05411e-12
1.30007e-11 9.05411e-12 -0.698901

-6.6328 -4.11704 1.62789e-11
-4.11704 -2.95386 -1.69524e-11
1.62789e-11 -1.69524e-11 -1.5835

2.18077 3.93007 -7.70732e-12
3.93007 1.67096 5.43277e-11
-7.70732e-12 5.43277e-11 1.28633

4.17029 -2.38814 -4.74909e-11
-2.38814 6.42403 -3.33173e-11
-4.74909e-11 -3.33173e-11 3.6302

-2.90414 -3.58374 -2.54268e-11
-3.58374 -0.453398 -5.39391e-12
-2.54268e-11 -5.39391e-12 -0.487559

2.7549 -0.763221 7.125e-12
-0.763221 7.20018 9.82088e-12
7.125e-12 9.82088e-12 2.6684

0.387109 2.03366 2.506e-12
2.03366 7.2522 9.632e-12
2.506e-12 9.632e-12 2.49637

7.05508 -0.78302 1.93031e-12
-0.78302 1.74972 7.13178e-12
1.93031e-12 7.13178e-12 2.82973

3.35687 -3.36932 2.86912e-11
-3.36932 2.52189 3.92977e-11
2.86912e-11 3.92977e-11 1.51373

-3.40689 0.555006 2.04182e-11
0.555006 5.12015 -1.27137e-11
2.04182e-11 -1.27137e-11 0.549722

0.372291 0.7751 -2.21503e-11
0.7751 4.60511 -2.36959e-11
-2.21503e-11 -2.36959e-11 0.873809

5.27779 -3.19125 -1.88751e-11
-3.19125 6.21596 2.12045e-12
-1.88751e-11 2.12045e-12 3.87158

3.45487 3.9678 -1.1559e-11
3.9678 6.12751 -1.9984e-15
-1.1559e-11 -1.9984e-15 3.60373

-0.0549453 0.7636 3.08392e-12
0.7636 -8.1876 -1.15553e-11
3.08392e-12 -1.15553e-11 -1.29048

-0.274822 0.00698242 -2.77417e-11
0.00698242 -8.98772 4.19881e-11
-2.77417e-11 4.19881e-11 -1.32569

-2.69207 4.04799 2.48458e-11
4.04799 -0.652242 1.96507e-11
2.48458e-11 1.96507e-11 -0.406884

-0.119124 -3.3606 -4.81556e-12
-3.3606 0.765961 -3.08161e-12
-4.81556e-12 -3.08161e-12 0.0347353

-4.45721 5.48649 5.23885e-11
5.48649 1.72098 6.36206e-12
5.23885e-11 6.36206e-12 -1.1039

-8.99682 -3.11661 -1.78192e-11
-3.11661 0.0995414 1.88764e-11
-1.78192e-11 1.88764e-11 -1.89064

-2.23254 3.61488 1.16525e-11
3.61488 -0.837329 4.04843e-12
1.16525e-11 4.04843e-12 -1.10596

8.89385 2.25808 -1.9459e-11
2.25808 4.88619 -1.46379e-11
-1.9459e-11 -1.46379e-11 5.22365

0.0405124 -2.05407 3.39035e-11
-2.05407 5.11309 -2.1766e-11
3.39035e-11 -2.1766e-11 1.20695

-2.50115 2.77049 -1.19411e-11
2.77049 5.16235 1.54085e-11
-1.19411e-11 1.54085e-11 1.03412

0.33829 3.30679 -8.86461e-12
3.30679 -5.16476 1.4827e-11
-8.86461e-12 1.4827e-11 -2.1239

0.878597 -1.89968 -2.81179e-11
-1.89968 -5.44628 -3.27481e-11
-2.81179e-11 -3.27481e-11 -1.5725

2.52467 -3.14547 3.85632e-12
-3.14547 -0.548592 4.42587e-12
3.85632e-12 4.42587e-12 0.43967

1.37358 3.90651 -1.46344e-11
3.90651 -3.19659 1.3868e-11
-1.46344e-11 1.3868e-11 -0.599855

1.69127 -2.72944 -1.11669e-11
-2.72944 -2.7098 -3.12021e-11
-1.11669e-11 -3.12021e-11 -0.336395

11.8824 -1.03922 3.08439e-12
-1.03922 7.08784 9.63363e-12
3.08439e-12 9.63363e-12 12.4403

7.15071 -1.28933 -3.08242e-11
-1.28933 11.5827 -6.66719e-11
-3.08242e-11 -6.66719e-11 12.6065

-1.01752 4.40412 7.84558e-15
4.40412 -5.04681 -6.62499e-11
7.84558e-15 -6.62499e-11 -5.6998

-0.198226 -3.09709 -6.04725e-11
-3.09709 -8.48873 -1.50281e-11
-6.04725e-11 -1.50281e-11 -4.66784

1.90284 4.29376 1.75283e-11
4.29376 -1.10216 -2.96575e-11
1.75283e-11 -2.96575e-11 0.305096

9.27898 2.04343 -1.73374e-11
2.04343 4.3714 -2.52342e-11
-1.73374e-11 -2.52342e-11 5.28641

-3.48468 3.83126 2.0034e-11
3.83126 2.43484 3.83345e-11
2.0034e-11 3.83345e-11 -0.605804

-6.69279 -1.48257 -1.52169e-11
-1.48257 3.12305 1.15537e-12
-1.52169e-11 1.15537e-12 -0.758178

1.6636 -3.64595 -3.60181e-11
-3.64595 3.36394 -5.16281e-11
-3.60181e-11 -5.16281e-11 1.68464

-3.86898 2.3596 -1.32914e-11
2.3596 -0.427222 -5.39454e-12
-1.32914e-11 -5.39454e-12 -2.18405

-2.97318 -1.33574 2.33008e-11
-1.33574 -1.29108 8.37708e-12
2.33008e-11 8.37708e-12 -1.80276

5.70038 2.87136 1.38739e-11
2.87136 0.72534 2.94781e-11
1.38739e-11 2.94781e-11 1.76597

4.51482 1.54992 -2.1166e-12
1.54992 -2.74064 3.46858e-12
-2.1166e-12 3.46858e-12 0.76181

-8.20266 5.36877 -5.20076e-11
5.36877 -1.42129 -2.38915e-11
-5.20076e-11 -2.38915e-11 -1.54128

-0.337978 -2.75796 7.31567e-12
-2.75796 -0.49709 1.94516e-11
7.31567e-12 1.94516e-11 -0.193328

-2.46946 4.44086 -1.57943e-11
4.44086 3.79734 2.15735e-11
-1.57943e-11 2.15735e-11 0.0596119

-4.63159 -2.37857 4.58471e-11
-2.37857 2.75004 -2.46554e-11
4.58471e-11 -2.46554e-11 -0.0907433

-0.178703 4.84976 2.23445e-11
4.84976 -2.40185 1.04061e-11
2.23445e-11 1.04061e-11 -0.538912

1.49314 -4.12899 -9.24527e-12
-4.12899 -2.07872 -1.92596e-11
-9.24527e-12 -1.92596e-11 -0.202208

-3.72265 1.37588 1.42538e-11
1.37588 5.12171 -1.92675e-12
1.42538e-11 -1.92675e-12 0.567735

-0.893885 -0.103147 5.58595e-11
-0.103147 4.28528 7.74196e-13
5.58595e-11 7.74196e-13 0.637075

10.0384 -1.57294 1.81054e-11
-1.57294 12.5887 4.97139e-11
1.81054e-11 4.97139e-11 10.2269

12.203 -1.52639 -8.3721e-11
-1.52639 10.5014 3.07447e-12
-8.3721e-11 3.07447e-12 10.2407

2.89214 2.51814 -2.57123e-11
2.51814 -4.49493 1.54085e-11
-2.57123e-11 1.54085e-11 -0.0619555

0.774548 0.766413 1.92559e-11
0.766413 -5.11523 7.74161e-11
1.92559e-11 7.74161e-11 -9.01906

-0.72265 -2.74825 6.70254e-11
-2.74825 -10.6748 2.87166e-11
6.70254e-11 2.87166e-11 -7.83274

-6.54365 -3.64306 -4.45362e-12
-3.64306 -2.58224 -1.0017e-11
-4.45362e-12 -1.0017e-11 -5.10751

-6.40411 1.14137 2.5809e-11
1.14137 -4.65074 4.46847e-11
2.5809e-11 4.46847e-11 -5.62205

5.16881 -0.215942 -9.24853e-12
-0.215942 -4.6179 -4.04173e-12
-9.24853e-12 -4.04173e-12 0.0479548

-4.25582 5.96947 -6.16215e-12
5.96947 2.5241 3.87166e-11
-6.16215e-12 3.87166e-11 -0.672151

-9.19222 -5.60373 1.74296e-11
-5.60373 -1.54086 1.53925e-12
1.74296e-11 1.53925e-12 -1.63857

8.03521 2.98244 4.61956e-12
2.98244 9.28739 7.24438e-11
4.61956e-12 7.24438e-11 7.83888

9.07181 3.13221 2.1172e-12
3.13221 8.63071 -1.46384e-11
2.1172e-12 -1.46384e-11 7.43966

5.15871 -1.14412 1.09851e-11
-1.14412 9.8982 -2.44704e-11
1.09851e-11 -2.44704e-11 6.05874

4.75116 2.36546 -1.15456e-12
2.36546 9.36459 2.27314e-11
-1.15456e-12 2.27314e-11 5.82829

9.94406 -0.572018 -2.44683e-11
-0.572018 4.93937 -6.55002e-12
-2.44683e-11 -6.55002e-12 6.20061

5.93975 1.39393 -1.32951e-11
1.39393 11.5474 3.08222e-11
-1.32951e-11 3.08222e-11 7.5624

10.9677 1.63372 7.89916e-12
1.63372 6.11085 -5.35552e-11
7.89916e-12 -5.35552e-11 7.80356

-5.6757 0.417823 -6.74024e-12
0.417823 0.540128 -2.15713e-11
-6.74024e-12 -2.15713e-11 -3.90123

-4.5669 3.14012 -4.42953e-11
3.14012 -1.16221 -8.19241e-12
-4.42953e-11 -8.19241e-12 -3.38987

2.62455 0.50487 -6.07753e-11
0.50487 -2.51623 -1.84912e-11
-6.07753e-11 -1.84912e-11 -0.487098

4.21265 -0.0963927 2.01309e-11
-0.0963927 -7.32955 -1.19425e-11
2.01309e-11 -1.19425e-11 -0.696308

2.03053 -1.90024 -3.46116e-12
-1.90024 6.16049 -3.94925e-11
-3.46116e-12 -3.94925e-11 2.49299

0.644265 2.85276 -2.61953e-11
2.85276 5.65228 1.46397e-11
-2.61953e-11 1.46397e-11 2.35282

4.89987 -0.142417 -1.61839e-11
-0.142417 -5.10444 -9.62661e-12
-1.61839e-11 -9.62661e-12 -0.0766865

-0.835237 2.43334 1.65669e-11
2.43334 -4.77473 -4.77562e-11
1.65669e-11 -4.77562e-11 -4.04893

-0.139093 -1.73165 3.5454e-11
-1.73165 -6.58059 -6.97066e-11
3.5454e-11 -6.97066e-11 -3.16207

-0.539126 2.35803 3.4816e-11
2.35803 0.141103 2.92803e-11
3.4816e-11 2.92803e-11 -0.686856

-3.65703 -3.90682 -1.68533e-11
-3.90682 -0.383791 1.27122e-11
-1.68533e-11 1.27122e-11 -0.466509

-2.37466 5.0179 6.06744e-12
5.0179 3.39802 -1.44455e-11
6.06744e-12 -1.44455e-11 -0.0757393

2.93727 0.499165 -4.63257e-11
0.499165 -5.42923 3.98706e-11
-4.63257e-11 3.98706e-11 -0.816756

5.55306 3.58812 -1.83037e-11
3.58812 4.54036 -1.15641e-12
-1.83037e-11 -1.15641e-12 3.18344

-5.00249 -2.9736 -7.32105e-12
-2.9736 1.18495 3.62175e-11
-7.32105e-12 3.62175e-11 -0.402041

-2.18648 5.36355 -1.03029e-11
5.36355 3.02853 1.88759e-11
-1.03029e-11 1.88759e-11 -0.0796086

20.8812 6.26712 5.18327e-11
6.26712 21.3503 -3.4599e-12
5.18327e-11 -3.4599e-12 21.1988

-4.11876 -0.375163 -4.71909e-11
-0.375163 5.21499 -2.04213e-11
-4.71909e-11 -2.04213e-11 0.50786

-1.72823 2.04374 -2.08051e-11
2.04374 4.53958 -2.96664e-11
-2.08051e-11 -2.96664e-11 0.480373

-7.46266 -0.493679 2.42625e-11
-0.493679 1.83685 1.92846e-12
2.42625e-11 1.92846e-12 -4.56771

-5.18153 2.48158 -2.79287e-11
2.48158 -3.14081 -4.52882e-12
-2.79287e-11 -4.52882e-12 -4.14037

1.04582 2.02787 1.23274e-11
2.02787 -10.4796 4.08347e-11
1.23274e-11 4.08347e-11 -2.00983

1.28729 -1.38252 -1.81084e-11
-1.38252 -12.562 9.62834e-12
-1.81084e-11 9.62834e-12 -1.99069

-3.25686 2.71831 -2.51857e-11
2.71831 -2.57606 5.77686e-12
-2.51857e-11 5.77686e-12 -2.34308

-3.9229 -4.09348 -9.43919e-12
-4.09348 -3.09591 2.15823e-11
-9.43919e-12 2.15823e-11 -2.32193

-5.39996 2.30052 1.18702e-11
2.30052 -1.98879 1.02085e-11
1.18702e-11 1.02085e-11 -4.29989

-5.19862 -3.21593 -1.32575e-12
-3.21593 -3.93352 3.56274e-11
-1.32575e-12 3.56274e-11 -4.32289

-1.72202 4.22061 -8.55171e-11
4.22061 -4.02127 1.30944e-10
-8.55171e-11 1.30944e-10 -7.72791

-0.73137 -2.9807 3.04369e-11
-2.9807 -9.0661 3.08193e-11
3.04369e-11 3.08193e-11 -6.26683

-5.74211 5.91564 1.36789e-11
5.91564 -3.08867 -2.08044e-11
1.36789e-11 -2.08044e-11 -1.96948

1.00589 -3.1763 -4.37201e-11
-3.1763 -2.56089 2.23382e-11
-4.37201e-11 2.23382e-11 -0.650948

2.1918 4.38221 4.02592e-11
4.38221 -2.29504 -1.46316e-11
4.02592e-11 -1.46316e-11 0.16729

-0.798026 3.78651 1.3579e-11
3.78651 3.92057 8.6687e-12
1.3579e-11 8.6687e-12 0.395066

-4.23152 -1.51291 6.36167e-12
-1.51291 3.70253 -5.50934e-11
6.36167e-12 -5.50934e-11 0.0931235

2.28512 -4.43759 2.71586e-11
-4.43759 0.0834576 6.55416e-12
2.71586e-11 6.55416e-12 0.562198

6.12615 -2.39278 5.97241e-12
-2.39278 5.16856 7.70347e-13
5.97241e-12 7.70347e-13 3.80811

3.321 -3.18932 -7.51939e-12
-3.18932 -2.09095 3.7756e-11
-7.51939e-12 3.7756e-11 0.397163

0.556528 4.82744 -6.06818e-11
4.82744 -0.246716 2.34925e-11
-6.06818e-11 2.34925e-11 0.328817

-7.75034 -6.47048 -3.25507e-11
-6.47048 -2.92763 -1.65609e-11
-3.25507e-11 -1.65609e-11 -2.23238

-5.01675 5.15583 2.50485e-12
5.15583 0.584698 1.04012e-11
2.50485e-12 1.04012e-11 -1.70252

1.53155 -1.14032 -1.30496e-11
-1.14032 -3.535 7.69496e-13
-1.30496e-11 7.69496e-13 -0.841846

-1.47331 -1.90661 9.4943e-11
-1.90661 -2.39697 5.66334e-11
9.4943e-11 5.66334e-11 -9.06874

-9.54652 1.64212 -8.95531e-11
1.64212 -6.71398 1.75268e-11
-8.95531e-11 1.75268e-11 -9.4433

-0.291554 1.97887 1.18475e-11
1.97887 -2.97187 -4.37228e-11
1.18475e-11 -4.37228e-11 -1.10319

0.708439 -0.787593 3.65012e-11
-0.787593 -5.6516 -1.00151e-11
3.65012e-11 -1.00151e-11 -2.57415

10.6308 -2.23264 -5.20702e-12
-2.23264 12.0327 6.45416e-11
-5.20702e-12 6.45416e-11 9.70232

12.1316 -2.11702 -5.25998e-11
-2.11702 9.50625 -2.22503e-11
-5.25998e-11 -2.22503e-11 9.50853

0.990795 0.649841 2.27277e-11
0.649841 -7.60095 3.08431e-12
2.27277e-11 3.08431e-12 -2.03983

0.8064 0.16517 -6.2405e-11
0.16517 -9.29642 -1.90748e-11
-6.2405e-11 -1.90748e-11 -1.86107

-0.46594 0.0631689 2.55219e-11
0.0631689 -4.65001 1.81057e-11
2.55219e-11 1.81057e-11 -2.5821

0.290814 -1.75684 2.9771e-12
-1.75684 2.94901 5.45152e-11
2.9771e-12 5.45152e-11 0.503385

-3.64572 2.28521 5.94691e-12
2.28521 3.42664 -1.04019e-11
5.94691e-12 -1.04019e-11 0.14339

4.55514 3.52 -3.16908e-11
3.52 -0.288094 -5.70251e-11
-3.16908e-11 -5.70251e-11 1.32038

-0.430663 4.01969 -2.86882e-11
4.01969 -3.31982 -1.50272e-11
-2.86882e-11 -1.50272e-11 -1.36869

0.641031 -3.14646 1.73432e-12
-3.14646 -2.42719 5.29656e-11
1.73432e-12 5.29656e-11 -0.810045

-10.1855 0.52337 -1.68992e-11
0.52337 -12.2919 4.5337e-12
-1.68992e-11 4.5337e-12 -12.4371

-9.43015 -4.45122 4.69445e-11
-4.45122 -3.42797 -2.22825e-11
4.69445e-11 -2.22825e-11 -10.509

3.22847 1.76632 1.11267e-11
1.76632 -0.451702 -1.98454e-11
1.11267e-11 -1.98454e-11 0.341481

0.370083 2.83321 -9.14302e-12
2.83321 -4.30406 -4.23387e-12
-9.14302e-12 -4.23387e-12 -1.98593

0.555449 -2.11105 3.45734e-11
-2.11105 -5.59996 5.77804e-12
3.45734e-11 5.77804e-12 -1.62739

-5.41309 -1.7163 2.92769e-11
-1.7163 1.34483 3.87246e-13
2.92769e-11 3.87246e-13 -0.810415

-2.06576 4.8611 -2.82172e-11
4.8611 2.39351 -1.7358e-12
-2.82172e-11 -1.7358e-12 -0.362425

-3.40743 6.18898 1.70464e-11
6.18898 2.73096 1.98416e-11
1.70464e-11 1.98416e-11 -0.456724

-6.62818 -3.71894 -4.4324e-12
-3.71894 -1.73254 2.04187e-11
-4.4324e-12 2.04187e-11 -1.276

22.8481 7.15481 1.31042e-11
7.15481 23.0448 -2.75524e-11
1.31042e-11 -2.75524e-11 22.1963

-5.03273 3.8347 -9.96662e-12
3.8347 0.669426 2.85051e-11
-9.96662e-12 2.85051e-11 -2.24356

-7.03734 -4.37337 -2.58576e-11
-4.37337 -1.53603 6.74818e-12
-2.58576e-11 6.74818e-12 -2.58259

-6.80553 -3.39203 -2.18645e-11
-3.39203 0.503865 7.31944e-12
-2.18645e-11 7.31944e-12 -0.937133

-3.84913 5.31467 -1.57926e-11
5.31467 2.62415 5.39128e-12
-1.57926e-11 5.39128e-12 -0.54708

5.06997 -2.35508 -1.14841e-12
-2.35508 0.120734 -5.58812e-12
-1.14841e-12 -5.58812e-12 1.39819

-1.3356 -2.85123 2.3403e-11
-2.85123 -1.90962 -4.31454e-11
2.3403e-11 -4.31454e-11 -0.959402

-3.80087 3.12088 -6.94363e-11
3.12088 -0.771082 5.73504e-13
-6.94363e-11 5.73504e-13 -2.0871

-4.11119 -4.24959 -7.71753e-13
-4.24959 -3.47024 -2.69396e-12
-7.71753e-13 -2.69396e-12 -2.24776

1.92913 -1.11437 -1.71434e-11
-1.11437 -6.10142 -4.12204e-11
-1.71434e-11 -4.12204e-11 -1.09098

-0.325903 1.17122 1.50239e-11
1.17122 -3.47217 2.46524e-11
1.50239e-11 2.46524e-11 -2.69924

-0.408551 -1.19931 -6.89453e-11
-1.19931 -6.78218 -3.50583e-11
-6.89453e-11 -3.50583e-11 -2.48683

-8.76609 1.30507 7.39512e-11
1.30507 0.244489 3.85869e-12
7.39512e-11 3.85869e-12 -8.45807

-8.30777 1.73132 -3.62054e-11
1.73132 -2.86995 3.03351e-11
-3.62054e-11 3.03351e-11 -7.15848

12.3484 1.35249 -3.14139e-11
1.35249 8.79242 4.00739e-11
-3.14139e-11 4.00739e-11 12.9704

8.96168 1.34743 -4.08507e-11
1.34743 12.9754 2.46661e-11
-4.08507e-11 2.46661e-11 12.9728

-2.58113 3.90574 -1.15605e-11
3.90574 -2.46569 -2.04178e-11
-1.15605e-11 -2.04178e-11 -1.17065

-0.163583 -4.01105 -2.30993e-12
-4.01105 -1.15871 -2.77349e-11
-2.30993e-12 -2.77349e-11 -0.550827

14.2845 2.66517 2.04211e-11
2.66517 13.9178 1.98512e-11
2.04211e-11 1.98512e-11 15.1615

13.7522 2.91609 -1.42615e-11
2.91609 13.9169 -6.7636e-11
-1.42615e-11 -6.7636e-11 15.0674

-2.82633 -1.04666 3.61702e-11
-1.04666 -5.59571 1.40201e-10
3.61702e-11 1.40201e-10 -7.76627

-2.00657 -0.67432 1.84806e-11
-0.67432 -0.547852 1.03604e-10
1.84806e-11 1.03604e-10 -9.12052

-2.69653 -3.84514 1.86864e-11
-3.84514 -2.02593 -5.00555e-12
1.86864e-11 -5.00555e-12 -0.986202

-1.67182 4.95477 -3.71712e-11
4.95477 -2.7379 1.23203e-11
-3.71712e-11 1.23203e-11 -1.08561

0.797542 -4.16742 1.15478e-12
-4.16742 -2.51193 4.37234e-11
1.15478e-12 4.37234e-11 -0.608084

0.138974 4.36124 -4.02571e-11
4.36124 0.974411 -2.38847e-11
-4.02571e-11 -2.38847e-11 0.48275

2.04944 -3.46021 1.25282e-11
-3.46021 1.24273 -3.96829e-11
1.25282e-11 -3.96829e-11 0.661949

5.85162 -0.640471 2.19666e-11
-0.640471 9.81475 -1.4259e-11
2.19666e-11 -1.4259e-11 5.95137

3.89539 1.7995 1.69566e-11
1.7995 9.22464 -1.61825e-11
1.69566e-11 -1.61825e-11 5.56811

9.84965 -0.266449 -1.23292e-11
-0.266449 5.27252 -3.1594e-11
-1.23292e-11 -3.1594e-11 6.12966

-2.07966 4.62403 -1.84931e-11
4.62403 -0.474483 6.93458e-11
-1.84931e-11 6.93458e-11 -0.34176

0.661363 -4.55006 -2.68911e-12
-4.55006 -0.102991 -2.60047e-11
-2.68911e-12 -2.60047e-11 0.0163959

5.92703 0.289559 -1.90736e-11
0.289559 11.5849 -2.65911e-11
-1.90736e-11 -2.65911e-11 7.95485

11.4288 -0.0316196 3.43969e-11
-0.0316196 6.72159 1.07932e-11
3.43969e-11 1.07932e-11 7.95653

-1.8871 4.71656 1.15498e-11
4.71656 -3.85201 -2.38837e-11
1.15498e-11 -2.38837e-11 -1.88856

0.556833 -3.36267 1.73444e-11
-3.36267 -3.12502 -4.39129e-11
1.73444e-11 -4.39129e-11 -1.11308

-2.42843 4.66285 1.61775e-11
4.66285 -3.03637 9.24296e-12
1.61775e-11 9.24296e-12 -2.18693

-0.0136217 -4.08615 1.2521e-11
-4.08615 -3.78602 -1.96484e-11
1.2521e-11 -1.96484e-11 -1.50551

14.0339 2.73282 6.5706e-11
2.73282 14.1591 8.36368e-15
6.5706e-11 8.36368e-15 15.4379

14.084 2.52303 -1.06658e-10
2.52303 14.5356 -1.38767e-11
-1.06658e-10 -1.38767e-11 15.4991

-0.382172 4.41793 2.17722e-11
4.41793 -1.49036 2.58146e-11
2.17722e-11 2.58146e-11 -0.367605

0.908418 -3.65147 1.84925e-11
-3.65147 -0.461074 -1.4823e-11
1.84925e-11 -1.4823e-11 -0.0511535

-5.62842 2.857 -6.18239e-11
2.857 -3.5768 -8.86039e-12
-6.18239e-11 -8.86039e-12 -4.99169

-6.23366 -0.922945 5.3354e-11
-0.922945 -1.58423 -6.27851e-11
5.3354e-11 -6.27851e-11 -5.83667

-5.25543 3.71812 3.87185e-11
3.71812 -1.41803 -1.46349e-11
3.87185e-11 -1.46349e-11 -2.21426

-0.205991 -4.22761 -5.37393e-11
-4.22761 -2.69405 4.27539e-11
-5.37393e-11 4.27539e-11 -1.27121

-0.427802 3.33596 -5.39413e-12
3.33596 -7.07508 2.7744e-11
-5.39413e-12 2.7744e-11 -3.75916

0.508529 -2.16649 2.73442e-11
-2.16649 -8.88985 8.43591e-11
2.73442e-11 8.43591e-11 -3.00772

-2.70081 4.48912 4.22317e-11
4.48912 1.44232 6.16796e-12
4.22317e-11 6.16796e-12 -0.865852

-4.58652 -3.76501 4.65646e-11
-3.76501 -1.59315 -1.23302e-11
4.65646e-11 -1.23302e-11 -1.31389

-8.01361 2.72997 -2.21461e-11
2.72997 -1.52882 -1.98428e-11
-2.21461e-11 -1.98428e-11 -6.02199

-7.32404 3.1602 -3.42365e-11
3.1602 -6.33809 -3.3898e-11
-3.42365e-11 -3.3898e-11 -7.98401

-5.6216 -5.62666 9.06673e-11
-5.62666 -5.78304 -1.50307e-11
9.06673e-11 -1.50307e-11 -7.31945

-9.2353 -0.766398 -5.39274e-11
-0.766398 0.134195 4.93023e-11
-5.39274e-11 4.93023e-11 -7.15163

-1.49592 3.31019 -4.89208e-11
3.31019 -6.20735 4.23247e-12
-4.89208e-11 4.23247e-12 -6.2419

-0.679522 0.702182 1.18637e-10
0.702182 -5.91842 -4.62255e-11
1.18637e-10 -4.62255e-11 -7.90155

-0.572086 -3.05549 -5.43075e-11
-3.05549 -9.67559 -2.08036e-11
-5.43075e-11 -2.08036e-11 -5.211

-0.558586 -1.00502 -6.12472e-11
-1.00502 -9.94838 -1.2326e-11
-6.12472e-11 -1.2326e-11 -6.6589

-5.89647 3.8887 -2.58143e-11
3.8887 -2.56455 -2.50409e-11
-2.58143e-11 -2.50409e-11 -8.44326

1.25789 -0.7778 1.25648e-09
-0.7778 -0.892802 -5.24437e-10
1.25648e-09 -5.24437e-10 -9.12471

-0.338541 -2.72095 7.6566e-11
-2.72095 -10.9068 1.20954e-10
7.6566e-11 1.20954e-10 -8.03822

-0.233676 -3.34581 5.74992e-12
-3.34581 -8.41389 1.47537e-10
5.74992e-12 1.47537e-10 -5.78872

-2.01744 3.7399 -8.3195e-11
3.7399 -5.52369 -7.66663e-11
-8.3195e-11 -7.66663e-11 -6.71417

-1.45239 1.67119 -7.70199e-13
1.67119 -2.82276 8.47524e-12
-7.70199e-13 8.47524e-12 -3.38717

-4.07913 1.87177 -7.62601e-11
1.87177 -1.45395 -1.11856e-11
-7.62601e-11 -1.11856e-11 -8.73733

0.813733 -2.62496 2.85058e-11
-2.62496 -7.86508 -1.56004e-11
2.85058e-11 -1.56004e-11 -4.64856

-1.91703 -3.11981 1.54124e-11
-3.11981 -9.24112 3.65508e-12
1.54124e-11 3.65508e-12 -7.01853

0.0505957 -2.14018 3.8504e-12
-2.14018 -3.81476 2.44588e-11
3.8504e-12 2.44588e-11 -2.40802

-2.52411 4.35559 4.15984e-11
4.35559 -4.26266 6.62648e-11
4.15984e-11 6.62648e-11 -4.67536

-1.06393 2.10797 -2.46613e-11
2.10797 -5.25263 9.70655e-11
-2.46613e-11 9.70655e-11 -6.20501

-0.438158 -3.28333 -4.96931e-11
-3.28333 -6.50665 3.81299e-11
-4.96931e-11 3.81299e-11 -3.49299

-0.487193 -1.93226 -2.50473e-11
-1.93226 -7.4716 7.83794e-11
-2.50473e-11 7.83794e-11 -4.79947

-1.21884 0.354393 1.34816e-11
0.354393 -1.04101 8.66582e-12
1.34816e-11 8.66582e-12 -0.208751

0.784386 -0.187488 1.65621e-11
-0.187488 -0.573672 -1.5886e-11
1.65621e-11 -1.5886e-11 -0.379246

0.837194 0.67414 -2.11921e-12
0.67414 -1.27998 -1.27097e-11
-2.11921e-12 -1.27097e-11 -0.346226

-0.773042 -0.699739 5.39254e-12
-0.699739 -3.54496 2.24961e-11
5.39254e-12 2.24961e-11 -0.458522

-0.635547 0.118994 -5.77755e-12
0.118994 -2.66625 -1.30143e-11
-5.77755e-12 -1.30143e-11 -0.215457

0.359002 -0.997664 2.25335e-11
-0.997664 -0.753518 -2.773e-11
2.25335e-11 -2.773e-11 -0.978827

-0.114453 1.79419 -1.7139e-11
1.79419 -2.32583 4.30211e-16
-1.7139e-11 4.30211e-16 -1.24794

-0.588452 -0.16842 -3.19698e-11
-0.16842 -2.96904 -2.26281e-12
-3.19698e-11 -2.26281e-12 -0.269246

0.5268 0.808154 5.00799e-12
0.808154 -4.44999 6.25907e-13
5.00799e-12 6.25907e-13 -0.699712

-0.687424 0.169462 1.84874e-11
0.169462 -1.26133 -1.9836e-11
1.84874e-11 -1.9836e-11 -0.0986064

-0.65345 -0.157905 -6.9326e-12
-0.157905 -1.16599 -1.10735e-11
-6.9326e-12 -1.10735e-11 -0.0747524

-0.47673 0.0940383 1.50207e-11
0.0940383 0.126074 3.05714e-11
1.50207e-11 3.05714e-11 -0.0167408

2.15346 -1.02147 2.96599e-11
-1.02147 -2.56726 9.91853e-12
2.96599e-11 9.91853e-12 -0.930012

1.52248 0.0702051 2.46539e-11
0.0702051 -0.152847 4.74662e-11
2.46539e-11 4.74662e-11 -0.752818

-1.1797 1.32572 -1.23245e-11
1.32572 -1.63585 2.50404e-12
-1.23245e-11 2.50404e-12 -0.381069

-1.47895 1.87976 -1.29032e-11
1.87976 -1.35881 -7.22207e-12
-1.29032e-11 -7.22207e-12 -0.544899

-0.194494 -1.77683 -7.31968e-12
-1.77683 -2.38432 1.75231e-11
-7.31968e-12 1.75231e-11 -1.31682

0.267915 0.927091 2.2343e-11
0.927091 -0.70692 5.17045e-11
2.2343e-11 5.17045e-11 -0.956697

-0.276039 0.0512297 1.15542e-11
0.0512297 0.572291 1.42945e-12
1.15542e-11 1.42945e-12 -0.0617793

-1.04935 0.18071 9.24383e-12
0.18071 -0.543721 -4.09232e-12
9.24383e-12 -4.09232e-12 -0.106195

-1.06479 -0.203361 7.70282e-12
-0.203361 -0.520897 1.39141e-11
7.70282e-12 1.39141e-11 -0.11035

-0.672717 -0.214611 1.23247e-11
-0.214611 0.343984 -1.54301e-11
1.23247e-11 -1.54301e-11 -0.0490386

-1.0885 0.592165 3.6398e-11
0.592165 -1.48683 -1.60816e-11
3.6398e-11 -1.60816e-11 -0.211035

-1.06142 0.482609 -1.92599e-12
0.482609 -2.5821 -1.34801e-12
-1.92599e-12 -1.34801e-12 -0.294029

-1.69686 0.464134 -1.19411e-11
0.464134 -1.41872 -1.60806e-11
-1.19411e-11 -1.60806e-11 -0.326629

-0.0858592 -0.313346 1.73324e-11
-0.313346 -0.232834 -1.6272e-11
1.73324e-11 -1.6272e-11 -0.117091

-0.390807 0.587252 5.7776e-13
0.587252 -3.4017 4.53172e-12
5.7776e-13 4.53172e-12 -0.358555

-1.03286 0.103448 1.03993e-11
0.103448 -0.606748 -6.26042e-13
1.03993e-11 -6.26042e-13 -0.0397035

-0.11204 -0.79782 -3.64008e-11
-0.79782 -5.29285 2.72752e-11
-3.64008e-11 2.72752e-11 -0.862076

-0.719915 -0.212825 -5.93132e-11
-0.212825 -0.0308574 6.43912e-12
-5.93132e-11 6.43912e-12 -0.0559674

1.50891 -0.177748 -3.77468e-11
-0.177748 -1.32194 1.25137e-11
-3.77468e-11 1.25137e-11 -1.17273

1.54483 0.266303 -2.15674e-11
0.266303 -1.96989 1.59849e-11
-2.15674e-11 1.59849e-11 -1.26688

-4.11699 -0.897648 2.02215e-11
-0.897648 -5.48113 -1.63786e-12
2.02215e-11 -1.63786e-12 -5.61558

-4.13939 0.902696 4.69907e-11
0.902696 -5.4397 -2.02076e-12
4.69907e-11 -2.02076e-12 -5.63789

-0.69065 -0.20758 3.87096e-11
-0.20758 -1.88462 -1.54041e-12
3.87096e-11 -1.54041e-12 -0.0800908

-1.96783 0.16879 1.05928e-11
0.16879 -1.5979 1.07363e-11
1.05928e-11 1.07363e-11 -0.486552

-2.90128 -1.44111 2.50364e-11
-1.44111 -2.88787 1.50203e-11
2.50364e-11 1.50203e-11 -2.1652

-3.10533 1.52803 -3.06212e-11
1.52803 -2.97115 -5.0085e-12
-3.06212e-11 -5.0085e-12 -2.30442

1.09494 -0.703982 1.63709e-11
-0.703982 -4.19456 2.85807e-11
1.63709e-11 2.85807e-11 -0.50457

-0.480246 -0.40036 5.39292e-12
-0.40036 0.442415 -2.41681e-11
5.39292e-12 -2.41681e-11 -0.0577972

-1.10317 0.0129862 -5.00703e-12
0.0129862 -1.73251 -6.86079e-12
-5.00703e-12 -6.86079e-12 -0.169133

0.901722 0.610881 4.04491e-12
0.610881 -4.42373 -1.67851e-11
4.04491e-12 -1.67851e-11 -0.471503

-1.06693 -0.550473 4.23654e-12
-0.550473 -1.40584 2.52288e-11
4.23654e-12 2.52288e-11 -0.188372

-1.27529 -0.362702 -1.88728e-11
-0.362702 -1.0046 -9.24446e-12
-1.88728e-11 -9.24446e-12 -0.215559

0.482083 -0.761847 1.96421e-11
-0.761847 0.0272993 7.3186e-12
1.96421e-11 7.3186e-12 -0.232971

-0.972149 0.0286874 -9.05118e-12
0.0286874 -1.89732 -1.70918e-11
-9.05118e-12 -1.70918e-11 -0.192009

-0.949512 0.295066 -2.04136e-11
0.295066 -1.01722 -4.33298e-12
-2.04136e-11 -4.33298e-12 -0.10636

-0.881364 0.381433 -1.38656e-11
0.381433 -0.562997 6.39124e-12
-1.38656e-11 6.39124e-12 -0.111763

0.19489 -2.80674 1.15463e-12
-2.80674 -3.22916 7.22298e-12
1.15463e-12 7.22298e-12 -0.995506

-0.830289 -0.156922 -1.69469e-11
-0.156922 -0.340226 -3.21365e-12
-1.69469e-11 -3.21365e-12 -0.0515589

-0.988864 0.171658 1.00143e-11
0.171658 -0.799019 2.36392e-11
1.00143e-11 2.36392e-11 -0.0278894

0.0413787 0.508353 7.43309e-11
0.508353 0.411416 -9.24443e-12
7.43309e-11 -9.24443e-12 -0.464084

0.0411428 -0.50634 8.08958e-12
-0.50634 0.413777 -6.30661e-11
8.08958e-12 -6.30661e-11 -0.463264

-0.144441 -0.204979 4.00545e-11
-0.204979 0.621522 -1.00258e-11
4.00545e-11 -1.00258e-11 -0.0586285

-0.0752694 0.218945 9.39727e-11
0.218945 0.557402 -7.27088e-12
9.39727e-11 -7.27088e-12 -0.4605

-0.0758173 -0.217956 -4.58304e-11
-0.217956 0.557903 -1.81021e-11
-4.58304e-11 -1.81021e-11 -0.460293

-0.185589 -0.629557 -7.70115e-13
-0.629557 0.22084 -4.3329e-12
-7.70115e-13 -4.3329e-12 -0.129265

-3.43726 -1.17178 1.32883e-11
-1.17178 -5.95306 -4.7193e-12
1.32883e-11 -4.7193e-12 -4.83803

-3.47343 1.2098 2.31093e-12
1.2098 -5.98309 -8.37661e-12
2.31093e-12 -8.37661e-12 -4.86713

-0.163575 0.292615 -4.54457e-11
0.292615 0.64461 2.27242e-11
-4.54457e-11 2.27242e-11 -0.215069

-0.163227 -0.293097 2.77295e-11
-0.293097 0.649978 2.69123e-11
2.77295e-11 2.69123e-11 -0.213941

-0.986336 0.193093 4.87237e-11
0.193093 -1.71804 -1.01098e-11
4.87237e-11 -1.01098e-11 -0.14501

-0.61831 1.67207 1.5409e-11
1.67207 -3.47788 1.63683e-11
1.5409e-11 1.63683e-11 -3.42891

1.16615 -1.35414 3.3119e-11
-1.35414 -0.503476 4.66053e-11
3.3119e-11 4.66053e-11 -2.17783

-0.49734 0.392829 3.15813e-11
0.392829 0.449331 -2.52283e-11
3.15813e-11 -2.52283e-11 -0.0624904

-1.10537 -0.186362 -4.69904e-11
-0.186362 -0.561541 5.83755e-11
-4.69904e-11 5.83755e-11 -0.0528263

-0.76847 -0.273493 1.54057e-12
-0.273493 -1.17518 1.27043e-11
1.54057e-12 1.27043e-11 -0.0141877

-0.0482799 -0.629316 -8.0898e-12
-0.629316 0.345478 2.76346e-11
-8.0898e-12 2.76346e-11 -0.244432

-0.274797 1.71329 -1.23271e-11
1.71329 -2.02991 -2.68655e-11
-1.23271e-11 -2.68655e-11 -0.504085

-0.122721 0.357614 -2.4268e-11
0.357614 0.383589 -1.85344e-10
-2.4268e-11 -1.85344e-10 -1.58803

-0.125544 -0.355031 -5.6996e-11
-0.355031 0.377597 -1.01771e-10
-5.6996e-11 -1.01771e-10 -1.59011

0.444558 2.29759 7.89872e-12
2.29759 -1.73623 1.44439e-11
7.89872e-12 1.44439e-11 -0.289179

-0.207326 0.137244 -3.38926e-11
0.137244 0.639163 -5.82503e-12
-3.38926e-11 -5.82503e-12 -0.11713

-0.212016 -0.135347 -1.2325e-11
-0.135347 0.655454 3.163e-11
-1.2325e-11 3.163e-11 -0.115956

-3.08812 1.1061 8.47364e-12
1.1061 -1.2505 5.87439e-12
8.47364e-12 5.87439e-12 -0.817215

0.626453 0.767308 -2.54204e-11
0.767308 0.702744 -1.11677e-11
-2.54204e-11 -1.11677e-11 -0.413693

-0.863206 0.204661 2.94654e-11
0.204661 -1.97335 -6.74019e-12
2.94654e-11 -6.74019e-12 -0.129319

-0.790593 -0.347481 3.50508e-11
-0.347481 -2.68408 -9.99062e-12
3.50508e-11 -9.99062e-12 -0.254656

-2.46978 -1.71214 1.38667e-11
-1.71214 -4.75312 -3.18253e-11
1.38667e-11 -3.18253e-11 -2.09761

-8.21442 1.87533 5.14203e-11
1.87533 -5.68532 -5.41125e-11
5.14203e-11 -5.41125e-11 -7.53512

-8.12893 -1.95703 -4.23726e-12
-1.95703 -5.82062 -1.95474e-11
-4.23726e-12 -1.95474e-11 -7.52598

-1.09435 0.318362 1.61762e-11
0.318362 -1.07938 -3.7313e-11
1.61762e-11 -3.7313e-11 -0.0909523

-1.59845 0.468225 -3.65941e-12
0.468225 -2.45876 1.72363e-11
-3.65941e-12 1.72363e-11 -0.469656

-0.229003 -0.381008 -1.61765e-11
-0.381008 0.501627 3.8346e-11
-1.61765e-11 3.8346e-11 -0.0824255

0.2796 -0.0231228 5.58438e-11
-0.0231228 -0.274196 3.1397e-11
5.58438e-11 3.1397e-11 -2.87137

1.38166 1.41301 -7.20186e-11
1.41301 -5.04955 3.08156e-11
-7.20186e-11 3.08156e-11 -4.01837

-2.69498 1.80589 -9.82214e-12
1.80589 -4.744 2.4121e-11
-9.82214e-12 2.4121e-11 -2.24895

0.666501 -0.578433 -8.18279e-12
-0.578433 -1.24619 -2.04142e-11
-8.18279e-12 -2.04142e-11 -0.451735

0.654609 0.174881 3.8494e-12
0.174881 -0.717898 -3.75526e-11
3.8494e-12 -3.75526e-11 -0.438215

-0.166925 -0.00150344 5.66153e-11
-0.00150344 0.728666 -2.43058e-14
5.66153e-11 -2.43058e-14 -0.0930837

-0.162335 0.00916214 4.23651e-12
0.00916214 0.719896 -1.97866e-11
4.23651e-12 -1.97866e-11 -0.0943303

-0.595227 0.368891 4.04468e-12
0.368891 0.118939 3.4134e-11
4.04468e-12 3.4134e-11 -0.0560049

-0.400066 -0.234644 -2.81153e-11
-0.234644 0.503334 -1.597e-11
-2.81153e-11 -1.597e-11 -0.049817

-0.0643274 0.143866 3.21116e-11
0.143866 0.64674 3.81532e-11
3.21116e-11 3.81532e-11 -0.214582

-0.0628598 -0.141081 8.42521e-12
-0.141081 0.647909 1.69218e-11
8.42521e-12 1.69218e-11 -0.213568

-0.252778 0.384909 6.54711e-12
0.384909 0.502672 -1.55502e-11
6.54711e-12 -1.55502e-11 -0.0865713

-0.105504 0.284525 3.27373e-11
0.284525 -0.218209 -1.58883e-11
3.27373e-11 -1.58883e-11 -0.121161

-0.0771001 0.362654 8.4345e-11
0.362654 0.549824 -1.42264e-11
8.4345e-11 -1.42264e-11 -0.145377

-0.0600651 -0.351568 -1.27097e-11
-0.351568 0.544687 1.84628e-11
-1.27097e-11 1.84628e-11 -0.143571

-0.757424 0.776922 -1.27107e-11
0.776922 -3.67014 6.25921e-13
-1.27107e-11 6.25921e-13 -0.561948

0.440841 -0.45269 1.15529e-11
-0.45269 0.421317 4.03438e-11
1.15529e-11 4.03438e-11 -0.09425

-1.01466 0.134868 3.08133e-11
0.134868 -1.64136 -1.30481e-11
3.08133e-11 -1.30481e-11 -0.143453

-1.56071 1.78806 2.69527e-12
1.78806 -0.752788 -1.81043e-11
2.69527e-12 -1.81043e-11 -0.456442

0.642823 -0.476181 -1.23236e-11
-0.476181 0.617865 -1.80058e-11
-1.23236e-11 -1.80058e-11 -0.156665

-0.419652 0.0741067 -2.19532e-11
0.0741067 0.381396 -1.9763e-11
-2.19532e-11 -1.9763e-11 -0.0395717

-2.43556 1.09476 3.62063e-11
1.09476 -3.37395 4.42962e-11
3.62063e-11 4.42962e-11 -1.06996

-0.783854 -0.616921 -7.70349e-12
-0.616921 -3.37699 -1.81989e-11
-7.70349e-12 -1.81989e-11 -0.485349

-1.38037 -0.12925 5.87356e-12
-0.12925 -1.71054 -1.94027e-11
5.87356e-12 -1.94027e-11 -0.272159

-1.77704 -0.447166 -1.86815e-11
-0.447166 -2.41202 -3.13426e-11
-1.86815e-11 -3.13426e-11 -0.488788

-0.414137 1.18986 -7.70902e-13
1.18986 -1.36768 -9.43609e-12
-7.70902e-13 -9.43609e-12 -0.591155

-0.218808 -1.07437 -1.23236e-11
-1.07437 -1.07086 -2.72502e-11
-1.23236e-11 -2.72502e-11 -0.522591

-0.563812 -0.0850093 1.24208e-11
-0.0850093 0.167455 -1.20722e-11
1.24208e-11 -1.20722e-11 -0.0311706

-3.16243 -1.17766 -2.58105e-11
-1.17766 -1.20837 5.64292e-11
-2.58105e-11 5.64292e-11 -0.826722

-0.369612 0.115736 2.61891e-11
0.115736 0.0163751 -4.98777e-11
2.61891e-11 -4.98777e-11 -0.0715559

-0.385375 -0.113246 1.57931e-11
-0.113246 -0.0133002 -9.11844e-11
1.57931e-11 -9.11844e-11 -0.079494

-1.3195 0.528973 1.40588e-11
0.528973 -2.24408 7.65549e-12
1.40588e-11 7.65549e-12 -0.418685

0.175229 1.5014 -2.34969e-11
1.5014 -6.08128 1.32868e-11
-2.34969e-11 1.32868e-11 -1.42656

0.256414 -1.298 -1.09779e-11
-1.298 -6.02755 -4.38144e-12
-1.09779e-11 -4.38144e-12 -1.36564

-0.421137 0.646763 1.46379e-11
0.646763 -1.31272 3.36046e-11
1.46379e-11 3.36046e-11 -0.156142

-1.87333 -0.405942 -2.58075e-11
-0.405942 -1.39519 3.43278e-11
-2.58075e-11 3.43278e-11 -0.360373

-0.635192 0.514007 1.77173e-11
0.514007 -0.628219 -5.58509e-12
1.77173e-11 -5.58509e-12 -0.0953279

-0.59823 -0.503507 -3.04276e-11
-0.503507 -0.626661 1.92556e-12
-3.04276e-11 1.92556e-12 -0.0923292

-0.370467 0.0342539 3.46618e-12
0.0342539 0.0708 -9.70098e-12
3.46618e-12 -9.70098e-12 -0.0281819

-0.653764 -0.367729 -9.62975e-12
-0.367729 0.0986355 5.5558e-11
-9.62975e-12 5.5558e-11 -0.0697989

-0.459654 0.0466776 3.73594e-11
0.0466776 0.351956 2.24826e-11
3.73594e-11 2.24826e-11 -0.0366079

3.06427 0.541538 9.28191e-11
0.541538 -1.48448 3.77548e-11
9.28191e-11 3.77548e-11 -3.59771

2.74934 -2.69417 -1.24783e-10
-2.69417 -3.14316 2.3315e-11
-1.24783e-10 2.3315e-11 -4.43967

-0.368036 -0.0325267 -3.19672e-11
-0.0325267 0.372229 -1.29986e-11
-3.19672e-11 -1.29986e-11 -0.03583

0.175702 -0.248733 2.27232e-11
-0.248733 0.409561 1.07852e-11
2.27232e-11 1.07852e-11 -0.0856816

-0.176313 0.211042 2.85004e-11
0.211042 0.617674 2.62408e-11
2.85004e-11 2.62408e-11 -0.0649093

-0.4295 -0.621718 4.66056e-11
-0.621718 -1.24543 -1.07832e-11
4.66056e-11 -1.07832e-11 -0.150444

1.37514 -1.19565 -3.38952e-11
-1.19565 0.52474 3.8032e-11
-3.38952e-11 3.8032e-11 -0.280606

-0.906624 3.1781 2.31537e-12
3.1781 -2.5079 3.12949e-11
2.31537e-12 3.12949e-11 -1.0092

0.460714 0.495063 1.19384e-11
0.495063 0.405866 -2.05091e-11
1.19384e-11 -2.05091e-11 -0.0984701

0.365751 -0.58242 -1.07822e-11
-0.58242 0.622486 -4.07288e-11
-1.07822e-11 -4.07288e-11 -0.095419

-0.793384 1.07779 1.48293e-11
1.07779 -1.10379 -1.07856e-11
1.48293e-11 -1.07856e-11 -0.1992

-0.129761 -0.00598659 -1.30946e-11
-0.00598659 0.965761 3.88677e-11
-1.30946e-11 3.88677e-11 -0.0446252

-0.413098 -0.0357714 1.88712e-11
-0.0357714 0.262755 6.15759e-11
1.88712e-11 6.15759e-11 -0.041849

-1.65639 -1.78942 -1.27095e-11
-1.78942 -0.703111 6.0667e-12
-1.27095e-11 6.0667e-12 -0.467094

-0.461807 -0.402636 -3.38918e-11
-0.402636 0.498207 -5.2092e-11
-3.38918e-11 -5.2092e-11 -0.0259389

-1.36239 -0.202484 3.81318e-11
-0.202484 -1.07165 -1.67058e-11
3.81318e-11 -1.67058e-11 -0.15145

-1.83694 -0.2224 1.25197e-11
-0.2224 -1.59559 -2.65773e-11
1.25197e-11 -2.65773e-11 -0.466439

-0.376237 0.150928 -3.77454e-11
0.150928 -0.52196 -3.65783e-12
-3.77454e-11 -3.65783e-12 -0.090856

-0.3664 -0.166579 -1.1554e-11
-0.166579 -0.541125 -1.40585e-11
-1.1554e-11 -1.40585e-11 -0.0936929

-0.673455 0.192607 -1.73319e-11
0.192607 0.402179 -2.99696e-11
-1.73319e-11 -2.99696e-11 -0.0449412

-0.461134 0.413489 2.38788e-11
0.413489 0.460375 -2.17616e-11
2.38788e-11 -2.17616e-11 -0.032014

0.00531081 -0.243313 -2.61901e-11
-0.243313 -0.639669 -1.21335e-11
-2.61901e-11 -1.21335e-11 -0.168385

0.0364967 0.288343 1.92781e-12
0.288343 -0.623441 4.07303e-11
1.92781e-12 4.07303e-11 -0.14005

-0.530563 -0.0412677 -2.15685e-11
-0.0412677 -0.0544613 -2.35882e-12
-2.15685e-11 -2.35882e-12 -0.0323758

-0.547785 0.0323888 1.92575e-11
0.0323888 0.006246 7.84789e-12
1.92575e-11 7.84789e-12 -0.026564

0.0805012 0.119762 -1.27096e-11
0.119762 0.729907 4.80102e-14
-1.27096e-11 4.80102e-14 -0.062761

0.0862666 -0.114062 -1.92581e-12
-0.114062 0.729928 6.379e-12
-1.92581e-12 6.379e-12 -0.0612599

0.0682781 -0.66685 3.08087e-12
-0.66685 0.572136 9.53248e-12
3.08087e-12 9.53248e-12 -0.0771058

-0.978293 -2.88861 -5.58405e-12
-2.88861 -1.91208 1.9269e-12
-5.58405e-12 1.9269e-12 -0.851514

-3.26303 0.0411639 2.65775e-11
0.0411639 -1.99586 9.43525e-12
2.65775e-11 9.43525e-12 -0.956861

-1.06819 0.106687 -8.4738e-12
0.106687 -1.13771 -1.27585e-11
-8.4738e-12 -1.27585e-11 -0.0590328

-0.620406 -0.296103 -2.85008e-11
-0.296103 0.0584629 -8.95588e-12
-2.85008e-11 -8.95588e-12 -0.0898437

0.0592091 0.420091 6.3548e-11
0.420091 0.428429 1.19387e-11
6.3548e-11 1.19387e-11 -0.307515

0.0604325 -0.41717 4.69864e-11
-0.41717 0.432456 3.00893e-11
4.69864e-11 3.00893e-11 -0.306481

-0.143548 0.520157 -2.83079e-11
0.520157 0.483963 -6.06596e-12
-2.83079e-11 -6.06596e-12 -0.158157

-0.147553 -0.522409 2.15682e-11
-0.522409 0.48569 -6.64344e-12
2.15682e-11 -6.64344e-12 -0.158866

-0.955324 -0.0790013 -1.27101e-11
-0.0790013 -0.366249 2.92723e-11
-1.27101e-11 2.92723e-11 -0.0236357

-0.597669 -0.0522421 4.77587e-11
-0.0522421 -0.0900181 -3.33519e-11
4.77587e-11 -3.33519e-11 -0.00277119

-0.618074 0.342207 -3.81305e-11
0.342207 0.0836008 -1.62715e-11
-3.81305e-11 -1.62715e-11 -0.0839905

0.0253561 0.0222781 -5.46888e-11
0.0222781 0.398535 -1.82836e-12
-5.46888e-11 -1.82836e-12 -0.840348

0.0248332 -0.0213081 -1.11684e-11
-0.0213081 0.395264 -4.66015e-11
-1.11684e-11 -4.66015e-11 -0.840996

-0.194265 -0.457518 -5.00632e-12
-0.457518 0.428571 -2.40234e-11
-5.00632e-12 -2.40234e-11 -0.0745702

-0.784012 -0.186471 -1.69475e-11
-0.186471 -1.8535 9.96626e-12
-1.69475e-11 9.96626e-12 -0.121315

-0.404969 0.241264 -3.08116e-11
0.241264 0.508656 -2.17547e-11
-3.08116e-11 -2.17547e-11 -0.0503279

-0.524544 -1.56848 1.73334e-11
-1.56848 -1.6487 -3.56193e-12
1.73334e-11 -3.56193e-12 -0.554006

0.0743034 0.78863 1.6174e-11
0.78863 -0.215651 -4.66042e-11
1.6174e-11 -4.66042e-11 -0.358945

-1.43305 0.101592 1.17468e-11
0.101592 -1.355 4.17428e-11
1.17468e-11 4.17428e-11 -0.219299

0.396003 0.578345 1.42497e-11
0.578345 0.6004 -1.34802e-11
1.42497e-11 -1.34802e-11 -0.0991585

-0.217881 0.468109 2.69652e-12
0.468109 0.437786 2.06054e-11
2.69652e-12 2.06054e-11 -0.0765864

-2.43808 2.86058 -1.2133e-11
2.86058 -1.26502 5.20114e-12
-1.2133e-11 5.20114e-12 -0.698153

1.59089 -0.0328499 4.6987e-11
-0.0328499 0.177051 1.93564e-11
4.6987e-11 1.93564e-11 -0.697646

2.28502 1.42917 1.54469e-12
1.42917 -3.15586 2.42639e-11
1.54469e-12 2.42639e-11 -0.999989

0.0379561 0.692989 -3.46628e-11
0.692989 0.555171 -5.7763e-12
-3.46628e-11 -5.7763e-12 -0.0926533

-1.96202 1.38497 3.85214e-12
1.38497 -1.3301 -1.73317e-12
3.85214e-12 -1.73317e-12 -0.46845

-1.27381 -0.170194 1.40589e-11
-0.170194 -1.75831 1.96915e-11
1.40589e-11 1.96915e-11 -0.191535

1.14055 -0.873097 1.07865e-11
-0.873097 0.467121 -3.56249e-11
1.07865e-11 -3.56249e-11 -0.0141023

-1.04121 -1.36397 -2.65754e-11
-1.36397 -1.57705 -2.07037e-11
-2.65754e-11 -2.07037e-11 -0.353713

-0.813955 0.928235 2.88884e-11
0.928235 -1.00074 2.49381e-11
2.88884e-11 2.49381e-11 -0.282125

-0.246249 -0.241574 -1.07839e-11
-0.241574 0.621915 -4.81278e-13
-1.07839e-11 -4.81278e-13 -0.102566

-0.219068 -0.679347 -1.69461e-11
-0.679347 -0.509783 -1.61772e-11
-1.69461e-11 -1.61772e-11 -0.191527

1.66011 1.04034 1.9256e-11
1.04034 0.474913 -2.58052e-11
1.9256e-11 -2.58052e-11 -0.194556

-1.05808 0.1154 -2.96579e-11
0.1154 -0.985774 4.28488e-11
-2.96579e-11 4.28488e-11 -0.0995087

-0.88958 -0.0623326 -6.12414e-11
-0.0623326 -1.35158 1.08262e-11
-6.12414e-11 1.08262e-11 -0.107843

-0.243431 0.244455 1.96427e-11
0.244455 0.621538 2.21456e-11
1.96427e-11 2.21456e-11 -0.101992

-0.27345 -0.0343682 -6.25855e-12
-0.0343682 0.586396 -9.89632e-12
-6.25855e-12 -9.89632e-12 -0.0581949

0.225727 0.251972 1.27093e-11
0.251972 -0.0102273 2.85958e-11
1.27093e-11 2.85958e-11 -1.43263

0.22336 -0.249266 -2.88847e-11
-0.249266 -0.0143743 5.58412e-12
-2.88847e-11 5.58412e-12 -1.43415

0.191556 0.298209 3.428e-11
0.298209 0.365709 3.97654e-11
3.428e-11 3.97654e-11 -0.10665

-5.12205 -1.64846 -1.52144e-11
-1.64846 -4.00515 -7.6996e-13
-1.52144e-11 -7.6996e-13 -3.87864

-5.20281 1.67758 -4.17911e-11
1.67758 -3.99484 5.9686e-12
-4.17911e-11 5.9686e-12 -3.93278

0.364199 -0.217125 -2.90816e-11
-0.217125 -3.70175 1.75114e-11
-2.90816e-11 1.75114e-11 -0.297832

-2.47943 -2.81731 1.36733e-11
-2.81731 -1.1545 1.45417e-11
1.36733e-11 1.45417e-11 -0.683415

-0.672176 0.167483 -1.03991e-11
0.167483 -0.114675 -8.61794e-12
-1.03991e-11 -8.61794e-12 -0.0242019

-0.849881 0.0129636 -8.8589e-12
0.0129636 -1.37842 1.9266e-13
-8.8589e-12 1.9266e-13 -0.111148

-0.704841 0.320705 3.04269e-11
0.320705 -0.337883 -1.6899e-11
3.04269e-11 -1.6899e-11 -0.0684395

-0.714577 -0.326841 -1.0014e-11
-0.326841 -0.373661 -2.50347e-12
-1.0014e-11 -2.50347e-12 -0.0844573

-0.514808 0.144217 -5.16101e-11
0.144217 -0.0788942 2.15687e-11
-5.16101e-11 2.15687e-11 -0.0311938

1.15612 0.842367 -1.27098e-11
0.842367 0.489707 -3.75498e-12
-1.27098e-11 -3.75498e-12 -0.00894559

-0.865981 0.291775 -1.1555e-11
0.291775 -0.766883 -1.90171e-11
-1.1555e-11 -1.90171e-11 -0.0890351

-0.508434 0.0838357 -2.8116e-11
0.0838357 -0.185078 -4.62905e-11
-2.8116e-11 -4.62905e-11 -0.0373446

0.824237 -0.98623 8.87161e-12
-0.98623 -2.59123 -9.6483e-11
8.87161e-12 -9.6483e-11 -2.03759

1.89988 1.06882 -1.57987e-11
1.06882 -0.660495 -8.1842e-11
-1.57987e-11 -8.1842e-11 -1.45369

-0.726662 -1.1736 1.38664e-11
-1.1736 -2.69261 -2.67698e-11
1.38664e-11 -2.67698e-11 -0.614276

1.3143 -0.195632 2.9854e-11
-0.195632 -6.07337 1.04839e-11
2.9854e-11 1.04839e-11 -0.819018

-0.632228 -0.432313 1.03992e-11
-0.432313 0.0366104 -4.28473e-12
1.03992e-11 -4.28473e-12 -0.0569221

-0.652034 0.427499 -1.92565e-12
0.427499 0.0648539 4.52576e-12
-1.92565e-12 4.52576e-12 -0.056171

0.196576 -0.148252 5.78019e-13
-0.148252 -4.52244 -2.11572e-11
5.78019e-13 -2.11572e-11 -0.497281

-0.191072 0.654486 2.11848e-11
0.654486 0.275755 2.87892e-11
2.11848e-11 2.87892e-11 -0.130599

-0.130846 0.393939 -5.23796e-11
0.393939 0.392023 -4.12576e-11
-5.23796e-11 -4.12576e-11 -0.635873

-0.129607 -0.391854 -2.42624e-11
-0.391854 0.391125 -6.42218e-11
-2.42624e-11 -6.42218e-11 -0.635635

-2.02143 -0.447613 -8.28051e-12
-0.447613 -1.90521 3.53401e-11
-8.28051e-12 3.53401e-11 -0.75516

-2.02485 -1.41376 1.82941e-11
-1.41376 -1.33692 1.13636e-11
1.82941e-11 1.13636e-11 -0.484527

-0.725899 -1.23318 1.69481e-11
-1.23318 -3.84143 -2.39293e-11
1.69481e-11 -2.39293e-11 -0.710436

-0.92454 0.0338378 -4.23677e-12
0.0338378 -1.86411 9.14784e-12
-4.23677e-12 9.14784e-12 -0.168835

-0.989466 -1.05357 -9.43728e-12
-1.05357 -1.08763 -1.25194e-12
-9.43728e-12 -1.25194e-12 -0.247447

-1.10533 -0.224983 3.77461e-11
-0.224983 -1.10194 -4.68814e-11
3.77461e-11 -4.68814e-11 -0.147139

-0.872463 -0.873234 3.54346e-11
-0.873234 -0.86802 -8.65204e-13
3.54346e-11 -8.65204e-13 -0.278357

-0.17016 0.664025 5.00948e-12
0.664025 -0.727527 4.47741e-11
5.00948e-12 4.47741e-11 -0.212876

1.05971 -1.03003 -7.58671e-11
-1.03003 -1.26754 -6.47099e-11
-7.58671e-11 -6.47099e-11 -1.96431

0.593556 0.746031 -3.1195e-11
0.746031 -1.44774 1.25191e-11
-3.1195e-11 1.25191e-11 -2.09271

-0.0911696 0.0211345 -4.54457e-11
0.0211345 0.828717 4.01512e-11
-4.54457e-11 4.01512e-11 -0.149718

-0.100343 -0.0229143 -7.31764e-12
-0.0229143 0.82353 1.60553e-11
-7.31764e-12 1.60553e-11 -0.152139

-3.56966 -0.765994 -1.73238e-12
-0.765994 -2.86444 3.55325e-11
-1.73238e-12 3.55325e-11 -1.70369

-3.73394 0.805623 1.59844e-11
0.805623 -2.83738 1.90669e-11
1.59844e-11 1.90669e-11 -1.79529

-4.46313 -0.410488 1.4058e-11
-0.410488 -2.35446 1.22281e-11
1.4058e-11 1.22281e-11 -3.01379

-4.51378 0.458297 -3.63988e-11
0.458297 -2.42011 1.58873e-11
-3.63988e-11 1.58873e-11 -3.05311

0.0394855 0.0196861 -3.08098e-11
0.0196861 0.251188 6.36441e-11
-3.08098e-11 6.36441e-11 -1.18521

0.0370232 -0.0180863 -2.69815e-12
-0.0180863 0.247442 1.14e-10
-2.69815e-12 1.14e-10 -1.18648

0.770199 0.559729 -1.57917e-11
0.559729 0.332154 -1.72344e-11
-1.57917e-11 -1.72344e-11 -0.126767

0.76868 -0.565982 -6.00809e-11
-0.565982 0.343061 -2.50348e-11
-6.00809e-11 -2.50348e-11 -0.123298

-0.407289 -0.121775 -2.65753e-11
-0.121775 0.582182 2.22903e-11
-2.65753e-11 2.22903e-11 -0.0676162

-0.02194 -0.626387 2.34939e-11
-0.626387 -1.14119 2.42661e-11
2.34939e-11 2.42661e-11 -0.170734

0.0100921 0.144076 -7.31702e-12
0.144076 -0.104603 1.37696e-11
-7.31702e-12 1.37696e-11 -0.170347

-0.874268 -0.29201 2.0029e-11
-0.29201 -1.57614 -1.43471e-11
2.0029e-11 -1.43471e-11 -0.111177

-0.397316 0.129726 -5.77748e-12
0.129726 0.589378 -2.00274e-11
-5.77748e-12 -2.00274e-11 -0.0639156

-0.288477 0.519957 -1.2614e-11
0.519957 -0.917742 7.70004e-13
-1.2614e-11 7.70004e-13 -0.15951

-0.471885 -0.215909 3.88998e-11
-0.215909 0.495646 -1.50204e-11
3.88998e-11 -1.50204e-11 -0.0835258

-4.14861 -1.79331 7.12612e-12
-1.79331 -1.15765 -4.04284e-12
7.12612e-12 -4.04284e-12 -1.33494

-4.14157 1.79928 1.56013e-11
1.79928 -1.21741 -2.42674e-11
1.56013e-11 -2.42674e-11 -1.3491

-0.484206 0.222481 -3.85136e-11
0.222481 0.489917 2.05098e-11
-3.85136e-11 2.05098e-11 -0.0859325

-0.962178 1.32446 1.15546e-12
1.32446 -2.78594 6.01806e-12
1.15546e-12 6.01806e-12 -0.78497

3.33421 0.302006 -4.6622e-11
0.302006 -7.63413 7.7219e-11
-4.6622e-11 7.7219e-11 -5.27968

2.75867 -0.639167 8.2432e-11
-0.639167 0.273375 7.75973e-11
8.2432e-11 7.75973e-11 -3.3118

0.751513 0.284555 -3.15846e-11
0.284555 0.0447935 -4.91047e-11
-3.15846e-11 -4.91047e-11 -0.268115

-2.35661 -1.0174 -2.19553e-11
-1.0174 -3.29078 -3.99127e-11
-2.19553e-11 -3.99127e-11 -0.964732

-1.0046 -1.93455 -2.65781e-11
-1.93455 -3.86724 -7.69958e-13
-2.65781e-11 -7.69958e-13 -1.83274

-0.641442 -0.107406 1.61768e-11
-0.107406 -0.398158 4.45574e-11
1.61768e-11 4.45574e-11 -0.0563181

-0.872183 0.0321894 -5.73873e-11
0.0321894 0.0328033 2.63353e-11
-5.73873e-11 2.63353e-11 -0.0425897

0.221756 0.210339 1.46356e-11
0.210339 0.569763 3.82493e-11
1.46356e-11 3.82493e-11 -0.210742

0.227979 -0.200953 -7.70244e-12
-0.200953 0.56804 1.20596e-11
-7.70244e-12 1.20596e-11 -0.209102

-1.06628 1.93192 -1.98375e-11
1.93192 -3.86722 -1.68635e-12
-1.98375e-11 -1.68635e-12 -1.90158

0.0299977 -0.203365 -3.45195e-11
-0.203365 -0.216172 4.42828e-12
-3.45195e-11 4.42828e-12 -0.189077

-0.46401 -0.386404 3.84581e-13
-0.386404 0.442998 3.27858e-11
3.84581e-13 3.27858e-11 -0.0522941

-0.0637938 0.58959 -4.12092e-11
0.58959 0.496986 1.98355e-11
-4.12092e-11 1.98355e-11 -0.236922

-0.0630182 -0.588098 1.42515e-11
-0.588098 0.50161 -4.47723e-11
1.42515e-11 -4.47723e-11 -0.235648

-7.41404 -2.8348 2.61943e-11
-2.8348 -8.87402 -6.2663e-11
2.61943e-11 -6.2663e-11 -8.42209

-7.49076 2.88713 6.47105e-11
2.88713 -8.86564 -1.52128e-11
6.47105e-11 -1.52128e-11 -8.43863

0.403233 0.841164 3.00417e-11
0.841164 0.456485 -2.89626e-13
3.00417e-11 -2.89626e-13 -0.146581

-1.10051 -0.358935 -2.85034e-11
-0.358935 -2.14559 -1.32877e-11
-2.85034e-11 -1.32877e-11 -0.327103

-0.195572 0.443594 3.34101e-11
0.443594 0.627137 -2.4986e-11
3.34101e-11 -2.4986e-11 -0.328813

-0.192681 -0.441967 3.29287e-11
-0.441967 0.62671 1.39606e-12
3.29287e-11 1.39606e-12 -0.32823

0.674152 -1.25157 -1.59871e-11
-1.25157 -1.41863 2.61915e-11
-1.59871e-11 2.61915e-11 -0.277274

0.231322 -2.422 2.04138e-11
-2.422 -1.41107 2.69643e-11
2.04138e-11 2.69643e-11 -0.223649

-1.03186 -0.348874 4.54482e-11
-0.348874 -0.492466 -3.76737e-11
4.54482e-11 -3.76737e-11 -0.114484

-3.74544 0.171614 7.12574e-12
0.171614 -0.804349 3.28354e-11
7.12574e-12 3.28354e-11 -1.54763

-3.79335 -0.1722 1.46362e-11
-0.1722 -0.837844 8.95661e-12
1.46362e-11 8.95661e-12 -1.57408

-1.44435 -2.39262 -3.85312e-12
-2.39262 -1.89915 1.22292e-11
-3.85312e-12 1.22292e-11 -0.616182

-0.44495 0.387188 -3.23522e-11
0.387188 0.397708 -3.1773e-12
-3.23522e-11 -3.1773e-12 -0.061527

-2.08786 0.476997 3.57253e-11
0.476997 -1.91002 -3.55311e-11
3.57253e-11 -3.55311e-11 -0.827732

-3.75122 0.149796 1.32891e-11
0.149796 -1.9687 2.04136e-11
1.32891e-11 2.04136e-11 -1.59477

-3.83022 -0.177941 2.5999e-11
-0.177941 -1.93528 3.16828e-11
2.5999e-11 3.16828e-11 -1.62036

-0.959521 1.51391 -8.85901e-12
1.51391 -4.25854 -1.55036e-11
-8.85901e-12 -1.55036e-11 -0.900152

-0.127346 0.282533 1.84849e-11
0.282533 0.691289 -6.65328e-11
1.84849e-11 -6.65328e-11 -0.436007

-0.125072 -0.280251 1.42499e-11
-0.280251 0.687511 1.12652e-11
1.42499e-11 1.12652e-11 -0.435941

0.64633 -0.0645707 -3.85555e-12
-0.0645707 -1.31751 2.38788e-11
-3.85555e-12 2.38788e-11 -3.57919

0.0863909 1.36283 4.73851e-11
1.36283 -1.64995 8.29931e-11
4.73851e-11 8.29931e-11 -3.69456

-0.919399 0.0962873 5.85439e-11
0.0962873 -0.33618 -2.54922e-11
5.85439e-11 -2.54922e-11 -0.0231756

-0.248302 -0.0610045 4.35236e-11
-0.0610045 -1.25572 -7.58886e-12
4.35236e-11 -7.58886e-12 0.0524764

-0.00589989 0.549411 2.92699e-11
0.549411 0.656364 -6.64459e-12
2.92699e-11 -6.64459e-12 -0.156689

0.00557474 -0.547168 -2.92721e-11
-0.547168 0.659657 5.14165e-11
-2.92721e-11 5.14165e-11 -0.152701

0.589506 0.604458 3.46632e-11
0.604458 0.603597 -6.25954e-12
3.46632e-11 -6.25954e-12 -0.141289

-0.799237 0.138277 2.58054e-11
0.138277 -0.409924 9.41201e-12
2.58054e-11 9.41201e-12 -0.0418313

-0.518272 -0.0503288 4.23637e-12
-0.0503288 -0.518515 -4.70131e-11
4.23637e-12 -4.70131e-11 -0.0603774

-0.271242 -0.310344 -3.54319e-11
-0.310344 0.282278 -3.53364e-11
-3.54319e-11 -3.53364e-11 -1.53897

-0.268655 0.31285 -3.83522e-13
0.31285 0.285867 8.33803e-11
-3.83522e-13 8.33803e-11 -1.53746

-3.33802 -0.0527942 3.87115e-11
-0.0527942 -2.04254 -3.57243e-11
3.87115e-11 -3.57243e-11 -0.992758

-0.0427317 0.420454 -2.85012e-11
0.420454 0.21287 -1.46351e-11
-2.85012e-11 -1.46351e-11 -0.0747214

0.0731793 0.369983 2.11841e-11
0.369983 0.542218 5.3053e-11
2.11841e-11 5.3053e-11 -0.138671

0.0742963 -0.367495 -2.42642e-11
-0.367495 0.545691 3.85144e-12
-2.42642e-11 3.85144e-12 -0.137064

-0.151698 0.264497 -3.11973e-11
0.264497 0.515257 -2.15674e-11
-3.11973e-11 -2.15674e-11 -0.0926071

-0.0420539 -0.400231 -1.54059e-11
-0.400231 0.196214 3.46584e-12
-1.54059e-11 3.46584e-12 -0.0769769

-0.862394 -0.0216323 -2.88876e-11
-0.0216323 -0.262331 -5.2718e-11
-2.88876e-11 -5.2718e-11 -0.0397497

-0.863329 -0.0289358 -1.23249e-11
-0.0289358 -0.190026 -1.27103e-11
-1.23249e-11 -1.27103e-11 -0.032355

-0.704764 -0.103189 -4.00556e-11
-0.103189 0.201446 -3.25934e-11
-4.00556e-11 -3.25934e-11 -0.0249599

-0.15686 -0.258065 -1.15593e-12
-0.258065 0.52373 6.25933e-12
-1.15593e-12 6.25933e-12 -0.0899388

-0.775834 -0.264069 2.58049e-11
-0.264069 -0.779014 3.2522e-11
2.58049e-11 3.2522e-11 -0.086975

-0.918027 0.152885 -2.07992e-11
0.152885 -1.33052 3.14746e-12
-2.07992e-11 3.14746e-12 -0.0676124

0.23766 0.508682 7.70184e-12
0.508682 0.396291 -2.84041e-11
7.70184e-12 -2.84041e-11 -0.255158

0.239645 -0.51138 -4.00555e-11
-0.51138 0.398065 3.91877e-11
-4.00555e-11 3.91877e-11 -0.253747

-0.0156197 0.34222 -1.57919e-11
0.34222 0.67055 -4.71794e-11
-1.57919e-11 -4.71794e-11 -0.284164

-0.0136371 -0.34062 1.50219e-11
-0.34062 0.673293 -5.40153e-11
1.50219e-11 -5.40153e-11 -0.282846

-1.09084 -0.267541 1.1555e-11
-0.267541 -0.61681 -2.92001e-11
1.1555e-11 -2.92001e-11 -0.0689317

-0.798187 -0.240809 1.73329e-11
-0.240809 -0.805397 -5.71483e-11
1.73329e-11 -5.71483e-11 0.0131323

-0.143104 -0.584908 -7.70274e-12
-0.584908 0.535313 -7.41404e-12
-7.70274e-12 -7.41404e-12 -0.121616

-0.149028 0.59045 4.23696e-12
0.59045 0.526029 1.19394e-11
4.23696e-12 1.19394e-11 -0.125301

1.36763 -0.330029 -4.00506e-11
-0.330029 -4.28044 -7.45286e-11
-4.00506e-11 -7.45286e-11 -2.93376

0.784939 -0.0320099 4.04335e-11
-0.0320099 -1.13341 -8.49296e-11
4.04335e-11 -8.49296e-11 -2.35367

0.287243 0.356072 2.42643e-11
0.356072 0.681351 2.22414e-11
2.42643e-11 2.22414e-11 -0.22204

0.3041 -0.348439 -4.04397e-11
-0.348439 0.681346 7.60607e-12
-4.04397e-11 7.60607e-12 -0.217729

-0.00345838 0.186079 3.69725e-11
0.186079 0.504124 -1.44432e-12
3.69725e-11 -1.44432e-12 -0.487879

-0.00183401 -0.185515 2.69545e-12
-0.185515 0.503039 1.33352e-11
2.69545e-12 1.33352e-11 -0.487464

-2.49715 -0.428783 -1.00153e-11
-0.428783 -1.06894 3.19685e-11
-1.00153e-11 3.19685e-11 -0.76556

-2.42193 0.431354 8.28212e-12
0.431354 -1.14442 2.09931e-11
8.28212e-12 2.09931e-11 -0.761327

-0.655312 -2.39894 -1.84976e-11
-2.39894 -3.90438 6.64362e-11
-1.84976e-11 6.64362e-11 -3.98948

-6.6508 0.117435 1.09777e-10
0.117435 -4.53581 -5.86391e-11
1.09777e-10 -5.86391e-11 -5.63562

-0.145742 0.071696 -6.54696e-12
0.071696 0.327018 -3.75503e-11
-6.54696e-12 -3.75503e-11 -0.925246

0.0899362 -0.214578 -7.08623e-11
-0.214578 0.0255137 -1.09956e-10
-7.08623e-11 -1.09956e-10 -1.2147

-0.147262 -0.0702532 -7.00948e-11
-0.0702532 0.333391 -3.09066e-11
-7.00948e-11 -3.09066e-11 -0.924312

0.0912978 0.215936 -8.20323e-11
0.215936 0.0295357 6.36429e-11
-8.20323e-11 6.36429e-11 -1.21354

0.807375 1.46103 -2.34865e-11
1.46103 -0.220112 6.12389e-11
-2.34865e-11 6.12389e-11 -2.54433

-6.63384 -0.102867 -3.10068e-11
-0.102867 -4.54962 5.03635e-11
-3.10068e-11 5.03635e-11 -5.63338

-0.00503115 0.00331882 -5.62388e-11
0.00331882 -0.00218962 2.10188e-10
-5.62388e-11 2.10188e-10 -1.28524

0.244059 -0.22843 -4.03227e-10
-0.22843 -0.0424303 -1.68218e-10
-4.03227e-10 -1.68218e-10 -1.59938

0.244406 0.230166 2.45329e-10
0.230166 -0.0373714 1.36335e-10
2.45329e-10 1.36335e-10 -1.59798

-0.000494996 -0.000326371 -1.77917e-10
-0.000326371 -0.000215536 6.69075e-10
-1.77917e-10 6.69075e-10 -1.28404

0.277601 -0.147212 -2.58016e-11
-0.147212 -0.066597 -8.27081e-11
-2.58016e-11 -8.27081e-11 -1.00869

0.231864 -0.555406 4.58323e-11
-0.555406 0.225043 -2.26259e-11
4.58323e-11 -2.26259e-11 -0.558832

-0.255059 -0.164065 -3.58121e-11
-0.164065 0.349944 -2.02003e-10
-3.58121e-11 -2.02003e-10 -1.38565

0.280357 0.150971 2.92692e-11
0.150971 -0.0649038 -4.5061e-11
2.92692e-11 -4.5061e-11 -1.00808

-0.252309 0.165667 3.65849e-11
0.165667 0.354379 -8.8485e-11
3.65849e-11 -8.8485e-11 -1.38408

0.232529 0.558749 -3.84877e-13
0.558749 0.227147 1.33833e-11
-3.84877e-13 1.33833e-11 -0.558898

0.128722 0.188757 -3.69716e-11
0.188757 0.425112 5.77709e-11
-3.69716e-11 5.77709e-11 -0.646026

-0.0262763 0.384454 -1.73295e-11
0.384454 0.0762258 6.99023e-11
-1.73295e-11 6.99023e-11 -0.985797

0.127717 -0.187596 1.11695e-11
-0.187596 0.424848 -1.45386e-11
1.11695e-11 -1.45386e-11 -0.645928

-0.0269016 -0.381886 -1.61753e-11
-0.381886 0.0744964 -4.81401e-12
-1.61753e-11 -4.81401e-12 -0.986157

-1.58796 2.65888 2.35983e-11
2.65888 4.41768 3.58293e-11
2.35983e-11 3.58293e-11 0.995579

-0.670237 0.431719 -1.82979e-11
0.431719 1.44761 -1.19415e-11
-1.82979e-11 -1.19415e-11 -0.257227

-5.14529 0.749661 -1.81072e-11
0.749661 2.72469 -3.19778e-11
-1.81072e-11 -3.19778e-11 -0.720412

4.15331 1.3642 -4.76915e-12
1.3642 -4.12958 -1.11708e-11
-4.76915e-12 -1.11708e-11 0.0492465

5.79499 0.392178 1.41605e-11
0.392178 -2.30354 1.88796e-11
1.41605e-11 1.88796e-11 0.904709

-4.26493 -0.294303 -2.38848e-11
-0.294303 -1.16693 -3.31286e-11
-2.38848e-11 -3.31286e-11 -2.03548

-8.63763 1.13855 -1.40592e-11
1.13855 1.72596 5.77849e-12
-1.40592e-11 5.77849e-12 -2.52772

5.92499 -0.37711 1.96982e-11
-0.37711 -1.5385 3.08327e-12
1.96982e-11 3.08327e-12 1.00108

3.75424 0.308743 6.04442e-12
0.308743 -6.05022 1.30958e-11
6.04442e-12 1.30958e-11 -0.76398

1.75487 2.38721 3.75677e-12
2.38721 6.96073 3.84433e-13
3.75677e-12 3.84433e-13 3.40311

3.80941 -3.86061 8.76562e-12
-3.86061 7.94694 -3.50661e-11
8.76562e-12 -3.50661e-11 4.05026

7.55366 2.405 -3.77613e-11
2.405 2.58862 -1.81076e-11
-3.77613e-11 -1.81076e-11 3.78513

-2.46833 -4.40787 1.26151e-11
-4.40787 0.214258 -1.36771e-11
1.26151e-11 -1.36771e-11 -1.62038

-4.02164 -1.54093 -2.48444e-11
-1.54093 0.347229 -6.16477e-12
-2.48444e-11 -6.16477e-12 -2.05451

-4.41928 2.28527 2.28251e-11
2.28527 2.7646 8.08901e-12
2.28251e-11 8.08901e-12 -0.0335553

-6.46502 2.65158 1.03992e-11
2.65158 1.74955 -2.69692e-11
1.03992e-11 -2.69692e-11 -0.718458

-8.67997 -1.26223 -1.38649e-11
-1.26223 1.90467 2.6951e-12
-1.38649e-11 2.6951e-12 -2.55321

-4.88277 -3.29987 1.36715e-11
-3.29987 -0.408498 -3.08179e-11
1.36715e-11 -3.08179e-11 -2.12673

2.98956 -2.35006 1.1174e-11
-2.35006 -4.53564 1.77167e-11
1.1174e-11 1.77167e-11 -0.0418531

0.526409 0.754003 -1.45453e-11
0.754003 7.84386 2.19575e-11
-1.45453e-11 2.19575e-11 2.75973

2.32763 -1.50591 1.15191e-12
-1.50591 7.69496 -2.04211e-11
1.15191e-12 -2.04211e-11 2.85581

7.79118 0.56596 -5.00875e-11
0.56596 2.02109 -1.25182e-11
-5.00875e-11 -1.25182e-11 3.14

-1.05175 3.08175 -2.11623e-12
3.08175 2.60769 -2.69829e-12
-2.11623e-12 -2.69829e-12 0.7561

5.62698 -2.11771 -2.21541e-12
-2.11771 -0.911087 -1.90727e-11
-2.21541e-12 -1.90727e-11 1.26346

-0.0395505 3.38468 -8.18582e-12
3.38468 0.596002 1.80107e-11
-8.18582e-12 1.80107e-11 0.360556

1.90598 2.39874 -1.48337e-11
2.39874 3.60099 -1.25245e-11
-1.48337e-11 -1.25245e-11 1.19485

4.61681 -0.72429 1.99882e-11
-0.72429 -4.41446 7.7061e-12
1.99882e-11 7.7061e-12 -0.0293518

6.63 1.61953 1.63788e-11
1.61953 10.3619 3.19789e-11
1.63788e-11 3.19789e-11 6.59801

3.06863 0.811998 -1.15347e-11
0.811998 -5.96573 -1.65648e-11
-1.15347e-11 -1.65648e-11 -0.735727

10.2568 1.51083 5.87702e-11
1.51083 7.5386 3.66138e-11
5.87702e-11 3.66138e-11 6.98123

-2.26311 -1.50142 -3.66168e-12
-1.50142 -0.865959 -3.39957e-11
-3.66168e-12 -3.39957e-11 -2.10297

-4.82586 0.190995 1.79124e-11
0.190995 1.02726 1.30972e-11
1.79124e-11 1.30972e-11 -2.68533

-5.62856 -1.61032 1.68518e-11
-1.61032 -8.33582 -1.29068e-11
1.68518e-11 -1.29068e-11 -8.74849

-7.23138 3.89731 3.51524e-11
3.89731 -6.82363 1.73352e-11
3.51524e-11 1.73352e-11 -8.59476

8.26188 -1.02699 -6.72499e-13
-1.02699 2.59835 6.93057e-12
-6.72499e-13 6.93057e-12 3.27956

-2.80041 3.59062 -1.32877e-11
3.59062 -0.485899 3.85177e-12
-1.32877e-11 3.85177e-12 -0.471229

-3.25541 2.05265 2.15609e-11
2.05265 -3.87539 2.69484e-12
2.15609e-11 2.69484e-12 -3.14114

-2.36171 -0.577265 3.72065e-12
-0.577265 -3.17463 3.25516e-11
3.72065e-12 3.25516e-11 -3.19893

3.87337 0.310232 1.85446e-12
0.310232 -6.58205 -1.5024e-11
1.85446e-12 -1.5024e-11 -0.704927

0.649923 3.38314 1.03994e-11
3.38314 3.25692 -4.17979e-11
1.03994e-11 -4.17979e-11 0.934644

4.96177 -2.68028 1.30029e-11
-2.68028 1.48984 -4.43268e-12
1.30029e-11 -4.43268e-12 1.46771

4.52645 -0.0314405 1.33877e-11
-0.0314405 -6.77371 -2.42699e-11
1.33877e-11 -2.42699e-11 -0.540272

0.271848 -4.61062 -1.44336e-12
-4.61062 4.62971 -7.70561e-12
-1.44336e-12 -7.70561e-12 1.01195

0.423871 -4.02006 -1.08833e-11
-4.02006 4.84037 -5.97293e-12
-1.08833e-11 -5.97293e-12 1.038

-1.07239 2.03728 2.17666e-11
2.03728 0.601849 -9.65524e-13
2.17666e-11 -9.65524e-13 -0.263964

4.28417 -4.61569 4.60412e-11
-4.61569 2.86368 -1.58028e-11
4.60412e-11 -1.58028e-11 1.88487

20.3269 -4.59995 1.63773e-11
-4.59995 19.9747 1.77259e-11
1.63773e-11 1.77259e-11 19.9819

20.2182 -4.87478 -5.04858e-11
-4.87478 21.4854 -3.40993e-11
-5.04858e-11 -3.40993e-11 20.5828

-4.46138 -5.35694 7.99331e-12
-5.35694 1.26124 1.48318e-11
7.99331e-12 1.48318e-11 -1.304

12.9661 -1.82001 -1.31042e-11
-1.82001 12.587 -3.65944e-12
-1.31042e-11 -3.65944e-12 13.7282

11.7791 -1.49139 1.17506e-11
-1.49139 12.7815 -3.77682e-11
1.17506e-11 -3.77682e-11 13.1976

0.219398 2.32565 3.00464e-11
2.32565 -4.43426 -2.75432e-11
3.00464e-11 -2.75432e-11 -2.12657

-0.76342 -3.07847 1.07953e-11
-3.07847 -4.02554 6.43262e-11
1.07953e-11 6.43262e-11 -2.97435

2.05436 -1.60737 1.56062e-11
-1.60737 -5.86619 2.31164e-11
1.56062e-11 2.31164e-11 -0.395378

-0.0702564 3.13079 3.92855e-11
3.13079 -6.34528 -1.42571e-11
3.92855e-11 -1.42571e-11 -2.5549

-1.43416 -4.3184 2.23438e-11
-4.3184 -4.63126 -8.70599e-11
2.23438e-11 -8.70599e-11 -3.29266

-1.19527 2.36813 6.35606e-12
2.36813 2.39204 -1.02108e-11
6.35606e-12 -1.02108e-11 0.15185

-3.60221 -1.49512 2.52717e-12
-1.49512 -8.23488 -1.70209e-11
2.52717e-12 -1.70209e-11 -6.94385

-5.68345 2.01042 9.02928e-12
2.01042 -6.96996 4.36669e-12
9.02928e-12 4.36669e-12 -6.98557

0.765247 3.66688 -2.23452e-11
3.66688 -4.16144 4.43068e-12
-2.23452e-11 4.43068e-12 -1.05275

-0.57978 -4.66373 3.66137e-12
-4.66373 -3.76361 -5.15847e-12
3.66137e-12 -5.15847e-12 -1.4868

7.86397 -3.18517 -8.95772e-12
-3.18517 3.49035 1.56062e-11
-8.95772e-12 1.56062e-11 4.13862

-5.91792 -0.909115 -3.37014e-11
-0.909115 -3.34003 4.52607e-11
-3.37014e-11 4.52607e-11 -4.80609

-7.90756 -0.150363 9.24444e-12
-0.150363 0.176185 -1.57946e-11
9.24444e-12 -1.57946e-11 -6.00963

-1.36749 -3.89479 1.54109e-11
-3.89479 2.52827 -2.00355e-11
1.54109e-11 -2.00355e-11 0.667814

6.57113 -1.34265 -6.54717e-12
-1.34265 10.5127 -1.86889e-11
-6.54717e-12 -1.86889e-11 7.06781

10.4796 -1.25605 5.80425e-13
-1.25605 6.77901 2.48602e-11
5.80425e-13 2.48602e-11 7.18286

-2.58228 1.51059 3.27605e-12
1.51059 1.42435 -8.08642e-12
3.27605e-12 -8.08642e-12 -0.467198

-6.47521 2.27297 -2.25375e-11
2.27297 2.18662 -3.92949e-11
-2.25375e-11 -3.92949e-11 -0.787668

-1.97756 2.96434 5.66121e-11
2.96434 -10.624 1.23166e-11
5.66121e-11 1.23166e-11 -8.61984

-2.34672 0.881892 2.52645e-10
0.881892 0.70817 -1.74892e-10
2.52645e-10 -1.74892e-10 -9.552

-6.60328 3.42005 3.03384e-11
3.42005 -1.47112 7.6944e-13
3.03384e-11 7.6944e-13 -1.33428

2.03444 2.70622 1.92957e-13
2.70622 -4.91765 -2.61959e-11
1.92957e-13 -2.61959e-11 -0.544817

1.2827 -4.1202 -2.36933e-11
-4.1202 -4.53422 3.87135e-13
-2.36933e-11 3.87135e-13 -0.758025

-5.33906 4.69385 1.01124e-11
4.69385 -1.47899 -6.16218e-12
1.01124e-11 -6.16218e-12 -1.15228

-7.48625 -3.56964 4.04623e-12
-3.56964 0.227692 7.32118e-12
4.04623e-12 7.32118e-12 -1.89707

8.14302 -0.338059 -1.13631e-11
-0.338059 1.15103 -4.62388e-12
-1.13631e-11 -4.62388e-12 3.10561

4.94358 -1.36527 -1.425e-11
-1.36527 -2.63351 3.35193e-11
-1.425e-11 3.35193e-11 0.875856

6.12166 1.67668 -8.65826e-13
1.67668 -0.297958 7.70846e-13
-8.65826e-13 7.70846e-13 1.70633

-2.17372 1.86092 1.71048e-12
1.86092 -5.77596 -7.3207e-12
1.71048e-12 -7.3207e-12 -2.86521

-14.9633 1.26592 1.88409e-11
1.26592 -6.62601 5.2e-11
1.88409e-11 5.2e-11 -11.5776

-10.7132 -0.932799 -1.96694e-11
-0.932799 -10.1924 -7.37663e-11
-1.96694e-11 -7.37663e-11 -11.5493

4.22873 2.69264 2.42735e-11
2.69264 5.7865 -3.62168e-11
2.42735e-11 -3.62168e-11 3.22332

1.35788 -3.46082 -1.07867e-11
-3.46082 -0.0177768 1.94555e-11
-1.07867e-11 1.94555e-11 0.133623

2.89374 1.87354 8.47404e-12
1.87354 -3.07797 -1.2905e-11
8.47404e-12 -1.2905e-11 0.144174

-7.51949 2.08828 5.41138e-11
2.08828 -0.688953 -9.24449e-12
5.41138e-11 -9.24449e-12 -7.47237

-7.81662 -1.39635 -1.79095e-11
-1.39635 -5.09336 4.56433e-11
-1.79095e-11 4.56433e-11 -6.53651

-1.65374 -0.509891 1.36543e-11
-0.509891 -6.20246 2.11863e-11
1.36543e-11 2.11863e-11 -3.17631

-1.31958 -2.69279 2.2727e-11
-2.69279 2.0787 -7.32007e-12
2.2727e-11 -7.32007e-12 -0.382063

-5.34254 -0.871178 -1.85873e-11
-0.871178 2.88637 -1.50244e-11
-1.85873e-11 -1.50244e-11 -0.856031

1.90959 0.59753 -1.92291e-12
0.59753 -7.95869 2.63887e-11
-1.92291e-12 2.63887e-11 -0.823798

1.65095 -1.87682 -6.16448e-12
-1.87682 -7.68484 2.58114e-11
-6.16448e-12 2.58114e-11 -0.955906

5.95286 -3.82484 1.21386e-11
-3.82484 4.31846 -9.24579e-12
1.21386e-11 -9.24579e-12 3.49384

1.31504 2.36109 3.20166e-11
2.36109 -8.00836 -2.6001e-11
3.20166e-11 -2.6001e-11 -1.49906

0.913859 -3.67175 4.50264e-11
-3.67175 -6.45827 -1.07906e-11
4.50264e-11 -1.07906e-11 -1.69238

2.88628 -3.26956 8.66514e-12
-3.26956 -3.39829 -3.65998e-11
8.66514e-12 -3.65998e-11 0.0488281

-1.24318 -3.25747 -1.73261e-12
-3.25747 4.04873 1.42567e-11
-1.73261e-12 1.42567e-11 0.966703

1.12953 1.41996 -7.7115e-12
1.41996 -5.73515 -6.16334e-11
-7.7115e-12 -6.16334e-11 -0.792081

1.30885 -2.63326 6.54954e-12
-2.63326 -5.64494 1.41562e-11
6.54954e-12 1.41562e-11 -0.975564

3.52028 -0.860638 1.83083e-12
-0.860638 -2.64592 3.73699e-11
1.83083e-12 3.73699e-11 -0.0219823

0.464806 4.10671 -4.81326e-12
4.10671 -1.56284 4.81556e-12
-4.81326e-12 4.81556e-12 -0.382604

3.50497 2.72293 -1.96287e-13
2.72293 1.65393 3.85388e-12
-1.96287e-13 3.85388e-12 1.46533

-6.56891 4.07925 -3.6617e-12
4.07925 -2.86337 -4.00665e-11
-3.6617e-12 -4.00665e-11 -1.55535

-2.38356 3.0349 7.12745e-12
3.0349 -0.148556 2.38849e-11
7.12745e-12 2.38849e-11 -0.624684

5.58113 1.51554 -1.13631e-11
1.51554 -1.66847 -1.11716e-11
-1.13631e-11 -1.11716e-11 1.32256

-0.581736 -2.02924 2.9398e-12
-2.02924 -3.05191 -6.5475e-12
2.9398e-12 -6.5475e-12 -1.25748

3.32653 1.26825 -1.77221e-11
1.26825 -2.58125 1.57946e-11
-1.77221e-11 1.57946e-11 0.158787

1.14598 3.25985 9.82584e-12
3.25985 2.32094 1.46387e-11
9.82584e-12 1.46387e-11 1.29082

0.382464 3.07935 -1.90713e-11
3.07935 -1.03699 8.47774e-12
-1.90713e-11 8.47774e-12 0.0689199

-7.14573 0.0360892 1.02073e-11
0.0360892 3.5257 -2.50452e-11
1.02073e-11 -2.50452e-11 -0.904609

-3.6701 -1.327 -1.5411e-12
-1.327 1.66429 1.02089e-11
-1.5411e-12 1.02089e-11 -0.803705

6.81651 -3.8394 1.88808e-11
-3.8394 2.47793 -2.00373e-11
1.88808e-11 -2.00373e-11 3.66358

-3.82473 -5.23816 -2.22453e-11
-5.23816 1.16877 3.86617e-13
-2.22453e-11 3.86617e-13 -0.999756

1.63301 -4.61928 -4.75708e-11
-4.61928 3.99816 3.19876e-11
-4.75708e-11 3.19876e-11 1.77251

3.58106 3.74808 2.83239e-11
3.74808 3.70143 6.70362e-11
2.83239e-11 6.70362e-11 1.86186

2.77527 -1.71107 -3.22653e-11
-1.71107 -1.17095 3.65974e-12
-3.22653e-11 3.65974e-12 0.0613327

2.26858 -0.13306 2.53315e-11
-0.13306 -7.9443 1.7335e-12
2.53315e-11 1.7335e-12 -1.75965

1.56002 0.550351 1.62763e-11
0.550351 -7.16471 -2.65798e-11
1.62763e-11 -2.65798e-11 -1.61543

-2.57562 1.71791 -5.78134e-12
1.71791 5.23594 3.47189e-12
-5.78134e-12 3.47189e-12 1.02456

0.786936 -4.12634 -5.20036e-12
-4.12634 2.18098 -5.20043e-12
-5.20036e-12 -5.20043e-12 0.410533

-0.59589 -0.56641 -3.44804e-11
-0.56641 8.22585 -2.08039e-11
-3.44804e-11 -2.08039e-11 2.95867

1.24829 -0.716821 -6.16479e-12
-0.716821 8.38465 -2.19642e-11
-6.16479e-12 -2.19642e-11 3.1623

8.13887 -0.94841 1.77636e-15
-0.94841 0.514989 4.6617e-11
1.77636e-15 4.6617e-11 3.32459

6.21919 2.72936 -2.56272e-11
2.72936 5.05268 -3.67969e-11
-2.56272e-11 -3.67969e-11 3.51359

3.14824 -4.73913 -3.31363e-11
-4.73913 0.553143 4.63019e-12
-3.31363e-11 4.63019e-12 1.38732

-1.29634 -1.12492 -9.89853e-11
-1.12492 -1.06982 5.20047e-11
-9.89853e-11 5.20047e-11 -8.70788

-11.6308 -4.26998 5.52722e-11
-4.26998 -6.34793 3.98581e-11
5.52722e-11 3.98581e-11 -9.33054

5.0054 -2.80624 -2.48502e-11
-2.80624 -1.76843 1.4646e-11
-2.48502e-11 1.4646e-11 1.18511

-0.314922 3.79289 5.78004e-12
3.79289 0.944966 2.04143e-11
5.78004e-12 2.04143e-11 0.0338533

2.23127 0.25274 -2.30593e-12
0.25274 -5.77558 3.54414e-11
-2.30593e-12 3.54414e-11 -0.305782

-0.114422 -3.43919 -9.62965e-12
-3.43919 5.76392 1.02094e-11
-9.62965e-12 1.02094e-11 1.24734

-8.87744 3.57984 1.93593e-11
3.57984 0.244699 1.69505e-11
1.93593e-11 1.69505e-11 -1.98422

-2.63564 1.49192 3.2548e-11
1.49192 -0.523534 -1.9837e-11
3.2548e-11 -1.9837e-11 -0.962599

-3.92874 -4.87737 -2.38889e-11
-4.87737 -1.71974 3.87986e-13
-2.38889e-11 3.87986e-13 -0.986735

-1.31996 3.65192 -6.73776e-12
3.65192 -0.858315 3.0241e-11
-6.73776e-12 3.0241e-11 -0.562475

-5.09896 2.89216 4.14085e-12
2.89216 0.980212 -3.85151e-12
4.14085e-12 -3.85151e-12 -0.455262

1.37295 -0.344136 -2.81257e-11
-0.344136 -12.4451 7.72234e-13
-2.81257e-11 7.72234e-13 -1.61932

4.63657 3.56767 1.84911e-11
3.56767 0.814492 -1.65703e-11
1.84911e-11 -1.65703e-11 1.62449

-3.88644 -5.5426 -4.09136e-12
-5.5426 2.69391 -4.62289e-11
-4.09136e-12 -4.62289e-11 -0.701655

3.31537 3.2116 1.81077e-11
3.2116 2.49171 1.84891e-11
1.81077e-11 1.84891e-11 1.48959

4.96861 -3.15178 7.51421e-12
-3.15178 6.8666 -3.31396e-11
7.51421e-12 -3.31396e-11 3.62685

-1.7118 -4.53688 -7.60951e-12
-4.53688 1.87217 3.85144e-12
-7.60951e-12 3.85144e-12 -0.29148

0.342005 -2.04764 7.32203e-12
-2.04764 7.33468 -4.43075e-11
7.32203e-12 -4.43075e-11 2.48742

2.79913 0.781754 4.87373e-11
0.781754 7.07594 1.8491e-11
4.87373e-11 1.8491e-11 2.65314

6.89461 -1.92742 2.04232e-11
-1.92742 1.4055 6.16015e-12
2.04232e-11 6.16015e-12 2.77245

2.36009 -4.13338 -4.02625e-11
-4.13338 1.74734 2.23619e-11
-4.02625e-11 2.23619e-11 1.35192

-3.4392 -0.196127 -1.50279e-11
-0.196127 5.18873 1.38717e-11
-1.50279e-11 1.38717e-11 0.556249

0.409479 -0.741204 -3.27201e-12
-0.741204 4.55191 1.96458e-11
-3.27201e-12 1.96458e-11 0.870647

3.75099 -4.13607 4.47003e-11
-4.13607 6.2841 -2.73591e-11
4.47003e-11 -2.73591e-11 3.77076

5.09621 3.06702 1.71444e-11
3.06702 6.10932 -5.0863e-11
1.71444e-11 -5.0863e-11 3.73608

-0.184147 0.015059 -1.61757e-11
0.015059 -8.89814 3.91016e-11
-1.61757e-11 3.91016e-11 -1.2928

-0.151189 -0.733227 -9.2454e-12
-0.733227 -8.26211 1.84904e-11
-9.2454e-12 1.84904e-11 -1.31499

-0.114006 3.31509 -2.33023e-11
3.31509 0.738028 9.44126e-12
-2.33023e-11 9.44126e-12 0.0292739

-4.42656 -5.47592 -2.97583e-11
-5.47592 1.76684 3.60237e-11
-2.97583e-11 3.60237e-11 -1.09689

-2.59234 3.75635 1.68096e-11
3.75635 -1.97058 -1.63739e-11
1.68096e-11 -1.63739e-11 -0.94861

8.59301 1.72651 -8.2867e-12
1.72651 4.73487 1.96498e-11
-8.2867e-12 1.96498e-11 5.24675

0.0776191 2.06259 2.58111e-11
2.06259 5.03073 -2.09988e-11
2.58111e-11 -2.09988e-11 1.19937

0.914291 1.9031 3.12069e-11
1.9031 -5.40654 3.67832e-11
3.12069e-11 3.67832e-11 -1.55414

0.330168 -3.31926 4.31456e-11
-3.31926 -5.22401 1.88738e-13
4.31456e-11 1.88738e-13 -2.13585

1.6916 2.71371 -5.19999e-12
2.71371 -2.71937 2.0803e-11
-5.19999e-12 2.0803e-11 -0.337295

1.38867 -3.92244 -4.31462e-11
-3.92244 -3.22434 1.88813e-11
-4.31462e-11 1.88813e-11 -0.601834

10.8701 -1.96175 -1.71478e-11
-1.96175 7.19858 -2.81308e-11
-1.71478e-11 -2.81308e-11 12.2484

7.09507 -2.29543 -2.08166e-11
-2.29543 11.721 -4.64338e-11
-2.08166e-11 -4.64338e-11 12.6158

-2.8165 -2.60558 -2.22045e-16
-2.60558 5.06464 3.15964e-11
-2.22045e-16 3.15964e-11 0.932225

-0.16214 3.11345 -8.20368e-11
3.11345 -8.47225 4.95036e-11
-8.20368e-11 4.95036e-11 -4.64137

-1.01257 -4.40336 -3.77492e-11
-4.40336 -5.05292 -4.50585e-11
-3.77492e-11 -4.50585e-11 -5.69633

2.49232 3.15629 -3.14087e-11
3.15629 -0.588416 -4.83476e-11
-3.14087e-11 -4.83476e-11 0.422162

9.03861 1.27527 -1.05264e-12
1.27527 4.45443 -1.54084e-12
-1.05264e-12 -1.54084e-12 5.29849

-3.47521 -3.80265 1.40601e-11
-3.80265 2.47989 -4.04662e-12
1.40601e-11 -4.04662e-12 -0.602681

-6.35447 -1.82595 -4.23917e-12
-1.82595 3.11113 -5.77619e-12
-4.23917e-12 -5.77619e-12 -0.728603

2.68401 -4.5286 -1.3002e-11
-4.5286 3.86985 -4.98953e-11
-1.3002e-11 -4.98953e-11 1.66849

-5.63074 -3.66788 -7.89857e-12
-3.66788 -2.65017 -2.6196e-11
-7.89857e-12 -2.6196e-11 -1.41464

1.95003 -4.26136 4.73837e-11
-4.26136 -1.11546 -3.19795e-11
4.73837e-11 -3.19795e-11 0.318475

-9.05263 5.55073 -3.85425e-12
5.55073 -1.30046 -3.19771e-11
-3.85425e-12 -3.19771e-11 -1.57716

-2.95227 1.35375 3.0815e-11
1.35375 -1.30308 -7.89983e-12
3.0815e-11 -7.89983e-12 -1.80637

-3.94103 2.32801 -9.43612e-12
2.32801 -0.366657 9.15286e-12
-9.43612e-12 9.15286e-12 -2.1521

-2.80543 -4.08266 -7.32307e-12
-4.08266 -0.669148 -2.04158e-11
-7.32307e-12 -2.04158e-11 -0.429701

-3.54322 3.98457 1.2137e-11
3.98457 -0.302633 -6.55024e-12
1.2137e-11 -6.55024e-12 -0.432061

5.18139 2.65163 -1.23349e-11
2.65163 0.416223 -1.84933e-11
-1.23349e-11 -1.84933e-11 1.77436

4.37405 -0.00713728 2.13829e-11
-0.00713728 -2.44001 -1.35521e-12
2.13829e-11 -1.35521e-12 0.793113

-0.380927 2.75155 1.0015e-11
2.75155 -0.535123 8.85884e-12
1.0015e-11 8.85884e-12 -0.213525

-2.42305 -4.40962 -1.10767e-11
-4.40962 3.91655 -1.77216e-11
-1.10767e-11 -1.77216e-11 0.085678

-4.27793 0.668719 -1.51216e-11
0.668719 5.32624 1.34901e-11
-1.51216e-11 1.34901e-11 0.503196

1.48771 4.12018 7.53209e-11
4.12018 -2.10583 2.92752e-11
7.53209e-11 2.92752e-11 -0.209245

-0.847565 0.11573 1.61835e-11
0.11573 4.24584 2.46577e-11
1.61835e-11 2.46577e-11 0.640536

-8.65566 -3.07229 -5.77742e-12
-3.07229 -0.0384463 -2.50402e-11
-5.77742e-12 -2.50402e-11 -1.89436

10.8826 -2.59456 -1.50256e-11
-2.59456 12.3765 2.69969e-12
-1.50256e-11 2.69969e-12 10.2788

12.5171 -2.65261 1.32007e-11
-2.65261 10.7415 3.77598e-11
1.32007e-11 3.77598e-11 10.2878

3.31322 0.910123 2.01313e-11
0.910123 -4.64854 1.34873e-11
2.01313e-11 1.34873e-11 0.0287259

-0.139971 -4.85642 -3.65811e-12
-4.85642 -2.41048 1.46424e-11
-3.65811e-12 1.46424e-11 -0.530459

-0.765774 2.75608 3.06854e-12
2.75608 -10.6441 8.09086e-12
3.06854e-12 8.09086e-12 -7.80206

0.764383 -0.774966 1.63712e-10
-0.774966 -5.1249 1.4095e-10
1.63712e-10 1.4095e-10 -9.02027

-4.41684 -3.42231 3.04328e-11
-3.42231 0.689021 -3.42901e-11
3.04328e-11 -3.42901e-11 -0.448801

-6.42624 -1.03723 1.2856e-11
-1.03723 -4.71109 -1.23277e-11
1.2856e-11 -1.23277e-11 -5.72822

-6.53807 3.58821 3.59945e-11
3.58821 -2.56586 1.77179e-11
3.59945e-11 1.77179e-11 -5.02799

5.04621 0.322588 -6.24463e-13
0.322588 -5.04306 -1.77203e-11
-6.24463e-13 -1.77203e-11 -0.0200399

-4.24041 -5.94082 2.55205e-11
-5.94082 2.56106 1.05925e-11
2.55205e-11 1.05925e-11 -0.672938

9.19815 1.99693 -1.07856e-11
1.99693 9.36273 5.87654e-11
-1.07856e-11 5.87654e-11 7.99202

8.29199 1.92522 1.19489e-11
1.92522 8.33739 2.98398e-12
1.19489e-11 2.98398e-12 7.32638

4.26119 -2.31164 -5.19681e-12
-2.31164 9.64676 5.24048e-11
-5.19681e-12 5.24048e-11 5.98017

5.65682 1.15072 5.97219e-12
1.15072 9.58601 -3.37141e-11
5.97219e-12 -3.37141e-11 5.89829

9.62119 -1.96335 -3.41053e-11
-1.96335 4.77898 2.42703e-11
-3.41053e-11 2.42703e-11 6.16904

-8.36064 -5.45376 3.46712e-12
-5.45376 -1.68956 3.1591e-11
3.46712e-12 3.1591e-11 -1.61137

4.99389 0.109802 -5.39385e-12
0.109802 11.3071 -8.8618e-12
-5.39385e-12 -8.8618e-12 7.45548

11.3752 0.163097 4.4314e-11
0.163097 6.00851 -2.58176e-11
4.4314e-11 -2.58176e-11 7.84437

-5.5958 0.366471 -2.29164e-11
0.366471 0.547514 -6.43325e-11
-2.29164e-11 -6.43325e-11 -3.89284

-4.55601 -3.12891 -1.98388e-11
-3.12891 -1.14609 -1.83923e-11
-1.98388e-11 -1.83923e-11 -3.39219

1.99914 1.25476 1.088e-11
1.25476 -3.28445 -1.57946e-11
1.088e-11 -1.57946e-11 -0.560849

4.04147 0.208992 -2.60044e-12
0.208992 -7.33511 -1.54077e-12
-2.60044e-12 -1.54077e-12 -0.724117

0.499148 -2.95087 6.51204e-11
-2.95087 5.62359 2.54272e-11
6.51204e-11 2.54272e-11 2.31158

2.0975 1.88818 1.09868e-11
1.88818 6.06459 3.89161e-11
1.09868e-11 3.89161e-11 2.47948

4.90279 0.247718 1.29549e-11
0.247718 -4.94974 -7.70591e-12
1.29549e-11 -7.70591e-12 -0.0618005

-4.04163 -3.00257 2.21536e-11
-3.00257 2.54021 1.15599e-11
2.21536e-11 1.15599e-11 -0.046254

-0.125895 1.75072 -3.00517e-11
1.75072 -6.52472 1.04039e-11
-3.00517e-11 1.04039e-11 -3.13866

-0.829482 -2.42846 1.57886e-11
-2.42846 -4.80353 -4.85374e-11
1.57886e-11 -4.85374e-11 -4.04996

-1.34108 2.85838 -3.43263e-11
2.85838 -1.55451 3.62101e-11
-3.43263e-11 3.62101e-11 -0.814107

-2.42703 -5.01771 -2.3018e-11
-5.01771 3.28977 1.52188e-11
-2.3018e-11 1.52188e-11 -0.130669

2.39486 1.29535 3.0369e-12
1.29535 -5.58854 1.77196e-11
3.0369e-12 1.77196e-11 -0.815634

4.74535 2.62282 -1.60888e-11
2.62282 3.88628 -3.47241e-12
-1.60888e-11 -3.47241e-12 3.06772

-2.18537 -5.41225 -1.25196e-11
-5.41225 3.18224 2.50563e-12
-1.25196e-11 2.50563e-12 -0.0610089

20.8783 4.79977 -8.86533e-12
4.79977 20.9615 -8.86484e-12
-8.86533e-12 -8.86484e-12 21.1793

-1.76944 -1.9792 1.8107e-11
-1.9792 4.59276 4.81625e-11
1.8107e-11 4.81625e-11 0.48391

-3.67704 -1.16976 -1.75309e-11
-1.16976 5.26038 2.54327e-11
-1.75309e-11 2.54327e-11 0.59885

-7.53268 -0.52435 1.9258e-11
-0.52435 1.84496 -2.96621e-11
1.9258e-11 -2.96621e-11 -4.5744

-5.16068 -2.4605 7.31789e-12
-2.4605 -3.12887 6.54617e-12
7.31789e-12 6.54617e-12 -4.14037

1.22215 1.37118 -3.65986e-11
1.37118 -12.5003 1.05979e-11
-3.65986e-11 1.05979e-11 -1.99444

1.0879 -2.02472 6.66134e-16
-2.02472 -10.5534 -5.77849e-12
6.66134e-16 -5.77849e-12 -2.00709

-3.62226 4.13866 -7.36739e-11
4.13866 -3.43356 1.81103e-11
-7.36739e-11 1.81103e-11 -2.23961

-3.66935 -2.65119 7.27129e-12
-2.65119 -2.56932 2.31171e-12
7.27129e-12 2.31171e-12 -2.52616

-5.2615 3.18329 -7.24606e-14
3.18329 -3.87048 1.72987e-12
-7.24606e-14 1.72987e-12 -4.29069

-5.36557 -2.21452 2.46773e-11
-2.21452 -1.9937 1.6371e-11
2.46773e-11 1.6371e-11 -4.32669

-0.592357 3.02726 -3.77445e-11
3.02726 -9.00061 6.22149e-11
-3.77445e-11 6.22149e-11 -6.19772

-1.72903 -4.23315 -4.96772e-11
-4.23315 -4.03086 1.2018e-10
-4.96772e-11 1.2018e-10 -7.72809

0.919256 3.12601 -1.07841e-11
3.12601 -2.57068 2.88908e-11
-1.07841e-11 2.88908e-11 -0.681657

-5.75139 -5.90412 2.98559e-11
-5.90412 -3.12594 -3.46757e-11
2.98559e-11 -3.46757e-11 -1.97504

3.21706 3.26755 -2.92805e-11
3.26755 -2.16257 -1.96462e-11
-2.92805e-11 -1.96462e-11 0.356129

-0.687017 -3.6978 -5.39338e-12
-3.6978 4.04758 -9.24572e-12
-5.39338e-12 -9.24572e-12 0.438095

-4.16657 -2.23404 1.77208e-11
-2.23404 3.39783 -5.00947e-12
1.77208e-11 -5.00947e-12 0.0254088

6.66699 -3.28394 4.04706e-12
-3.28394 5.92207 9.82954e-12
4.04706e-12 9.82954e-12 3.87514

2.30069 -4.33685 4.87332e-11
-4.33685 -2.24059 -1.73436e-11
4.87332e-11 -1.73436e-11 0.209287

-3.84606 1.49303 -1.98398e-11
1.49303 3.78135 1.61818e-11
-1.98398e-11 1.61818e-11 0.198461

2.21088 4.34382 -2.42767e-11
4.34382 0.184719 -2.08089e-11
-2.42767e-11 -2.08089e-11 0.563043

-7.72613 6.44597 -3.36629e-11
6.44597 -2.93064 -4.469e-11
-3.36629e-11 -4.469e-11 -2.23508

-5.08332 -5.23627 7.31996e-12
-5.23627 0.637206 -3.64046e-11
7.31996e-12 -3.64046e-11 -1.69918

0.580839 -4.94025 6.06788e-11
-4.94025 -0.338885 -1.65746e-11
6.06788e-11 -1.65746e-11 0.323507

2.25107 -0.35282 2.87008e-11
-0.35282 -2.62705 -2.85084e-11
2.87008e-11 -2.85084e-11 -0.718755

-9.51147 -1.63105 -1.48307e-11
-1.63105 -6.70621 6.92391e-11
-1.48307e-11 6.92391e-11 -9.44176

-1.47576 -1.89893 -1.34828e-11
-1.89893 -2.39958 -3.07602e-12
-1.34828e-11 -3.07602e-12 -9.0634

-5.30056 -1.92249 -3.27459e-11
-1.92249 1.22751 4.62719e-12
-3.27459e-11 4.62719e-12 -0.855694

-0.832199 2.66761 -4.03551e-11
2.66761 -3.42361 1.23286e-11
-4.03551e-11 1.23286e-11 -0.998721

-0.33794 -0.197296 8.13866e-12
-0.197296 -4.78765 -2.69747e-12
8.13866e-12 -2.69747e-12 -2.49925

9.48279 -3.36036 -2.40841e-11
-3.36036 11.8449 1.34838e-11
-2.40841e-11 1.34838e-11 9.51814

11.3152 -3.01842 4.29697e-11
-3.01842 9.27185 4.17077e-11
4.29697e-11 4.17077e-11 9.35876

0.817169 -0.125743 -2.65872e-11
-0.125743 -9.0302 -1.19387e-11
-2.65872e-11 -1.19387e-11 -1.8091

0.979524 -0.624902 -5.35498e-11
-0.624902 -7.88236 1.54299e-12
-5.35498e-11 1.54299e-12 -2.0869

0.588534 0.67319 1.30261e-11
0.67319 -5.66161 -1.63707e-11
1.30261e-11 -1.63707e-11 -2.69126

0.312754 1.75522 -1.11923e-11
1.75522 2.86714 1.61841e-11
-1.11923e-11 1.61841e-11 0.49048

4.8464 2.27208 -1.48351e-11
2.27208 0.302039 -2.02292e-11
-1.48351e-11 -2.02292e-11 1.42278

0.666555 3.10751 -3.66043e-11
3.10751 -2.4454 -5.46913e-11
-3.66043e-11 -5.46913e-11 -0.808687

-0.414304 -4.06708 -3.27531e-12
-4.06708 -3.36876 3.4646e-12
-3.27531e-12 3.4646e-12 -1.37107

-10.2902 -0.515214 5.17664e-12
-0.515214 -12.9021 1.54145e-13
5.17664e-12 1.54145e-13 -12.6589

-9.4957 4.45828 5.45541e-12
4.45828 -3.46819 -1.22767e-10
5.45541e-12 -1.22767e-10 -10.5027

-5.88735 -3.4798 2.42696e-11
-3.4798 0.327177 -1.65691e-11
2.42696e-11 -1.65691e-11 -0.850832

2.80828 2.28404 -1.6759e-11
2.28404 -1.73273 2.96651e-11
-1.6759e-11 2.96651e-11 0.2656

0.593935 2.10962 2.10048e-11
2.10962 -5.54303 3.73646e-11
2.10048e-11 3.73646e-11 -1.60522

0.344001 -2.84521 4.41171e-11
-2.84521 -4.34379 5.35414e-11
4.41171e-11 5.35414e-11 -1.99572

-2.04766 -4.85051 -1.4431e-12
-4.85051 2.48949 -1.92764e-12
-1.4431e-12 -1.92764e-12 -0.346872

-3.43637 -6.20678 -2.67733e-11
-6.20678 2.77386 1.29091e-11
-2.67733e-11 1.29091e-11 -0.46416

21.7547 5.73629 -3.17903e-11
5.73629 22.372 1.11768e-11
-3.17903e-11 1.11768e-11 21.7871

-6.96678 4.38197 -3.19248e-11
4.38197 -1.51376 1.98412e-11
-3.19248e-11 1.98412e-11 -2.54537

-5.14365 -3.86887 2.41706e-11
-3.86887 0.690874 1.86838e-11
2.41706e-11 1.86838e-11 -2.27738

-3.84983 -5.33852 -1.6083e-11
-5.33852 2.70237 1.44488e-11
-1.6083e-11 1.44488e-11 -0.540888

4.77523 -3.62876 -4.62534e-12
-3.62876 -0.422136 3.31346e-11
-4.62534e-12 3.31346e-11 1.30693

-0.580463 -2.39673 -1.51184e-11
-2.39673 0.289675 2.36945e-11
-1.51184e-11 2.36945e-11 -0.740927

-3.9529 4.14277 -5.50874e-11
4.14277 -3.51339 -1.61773e-11
-5.50874e-11 -1.61773e-11 -2.19892

-3.84715 -3.31917 1.07856e-11
-3.31917 -0.395753 4.68059e-11
1.07856e-11 4.68059e-11 -2.06955

2.51492 -0.332767 1.9215e-11
-0.332767 -5.99746 3.52456e-11
1.9215e-11 3.52456e-11 -1.08894

-0.458961 1.21816 -1.84975e-11
1.21816 -6.76386 -3.50471e-11
-1.84975e-11 -3.50471e-11 -2.48723

-0.261743 -1.17286 -3.2745e-11
-1.17286 -3.48783 4.23744e-11
-3.2745e-11 4.23744e-11 -2.68409

-8.29234 -1.71326 5.2577e-11
-1.71326 -2.86449 4.7665e-11
5.2577e-11 4.7665e-11 -7.16104

-8.74651 1.30728 -1.09777e-11
1.30728 0.238849 1.11734e-11
-1.09777e-11 1.11734e-11 -8.44929

13.2725 0.440172 3.85368e-11
0.440172 8.75628 -1.56098e-11
3.85368e-11 -1.56098e-11 13.1616

8.95398 0.397161 2.28272e-11
0.397161 12.9549 -4.31708e-11
2.28272e-11 -4.31708e-11 12.9729

-0.14912 3.95052 3.35186e-11
3.95052 -1.18913 -2.69643e-11
3.35186e-11 -2.69643e-11 -0.556418

-2.61579 -3.94704 2.02274e-11
-3.94704 -2.51305 7.66554e-11
2.02274e-11 7.66554e-11 -1.18412

-6.06208 -3.78018 2.40776e-11
-3.78018 -1.6557 4.62086e-12
2.40776e-11 4.62086e-12 -1.22128

13.4705 1.40682 -8.09526e-12
1.40682 13.5329 3.8541e-12
-8.09526e-12 3.8541e-12 14.8952

13.4514 1.5335 3.39139e-11
1.5335 13.5101 2.54293e-11
3.39139e-11 2.54293e-11 14.9465

-2.01958 0.665675 -6.15898e-12
0.665675 -0.555995 -1.09397e-10
-6.15898e-12 -1.09397e-10 -9.12233

-2.85314 1.07165 5.20228e-11
1.07165 -5.62475 8.95453e-11
5.20228e-11 8.95453e-11 -7.74688

-2.37417 -3.54917 -4.38264e-12
-3.54917 -0.240443 1.23286e-11
-4.38264e-12 1.23286e-11 -1.04385

0.131824 -4.39965 1.07484e-10
-4.39965 1.0282 -2.19743e-11
1.07484e-10 -2.19743e-11 0.497201

0.825226 4.13232 2.38728e-11
4.13232 -2.54022 -5.58554e-11
2.38728e-11 -5.58554e-11 -0.609007

-1.65157 -4.97688 1.50238e-11
-4.97688 -2.7571 -1.34843e-11
1.50238e-11 -1.34843e-11 -1.08056

-2.11592 -4.66924 3.19807e-11
-4.66924 -0.523 2.88923e-11
3.19807e-11 2.88923e-11 -0.353718

2.01309 3.38795 -3.66035e-11
3.38795 1.16984 -5.29664e-11
-3.66035e-11 -5.29664e-11 0.637967

4.15187 -1.52829 -3.35219e-11
-1.52829 9.64317 3.54552e-11
-3.35219e-11 3.54552e-11 5.76074

5.56214 0.907941 1.54144e-11
0.907941 9.50256 -3.00567e-11
1.54144e-11 -3.00567e-11 5.77165

9.40149 -1.41323 -2.96681e-11
-1.41323 5.32358 4.00706e-11
-2.96681e-11 4.00706e-11 6.0626

0.66458 4.50128 -1.50249e-11
4.50128 -0.128956 -4.42594e-12
-1.50249e-11 -4.42594e-12 0.0109012

6.85653 -1.09805 1.46426e-11
-1.09805 11.7599 -1.09822e-11
1.46426e-11 -1.09822e-11 8.04981

11.5573 -0.751932 -2.00443e-11
-0.751932 6.58159 -3.21655e-11
-2.00443e-11 -3.21655e-11 7.95198

0.616114 3.30194 -4.93095e-11
3.30194 -3.14291 -3.46656e-11
-4.93095e-11 -3.46656e-11 -1.10712

-1.92113 -4.80314 -2.13763e-11
-4.80314 -3.85574 5.3556e-11
-2.13763e-11 5.3556e-11 -1.89421

0.0304803 4.05532 -2.8905e-12
4.05532 -3.79382 -2.75444e-11
-2.8905e-12 -2.75444e-11 -1.49858

-2.43422 -4.69893 -4.66039e-11
-4.69893 -3.04711 5.93353e-11
-4.66039e-11 5.93353e-11 -2.18597

14.1336 1.7271 6.64791e-11
1.7271 14.3208 1.34848e-12
6.64791e-11 1.34848e-12 15.5317

14.1634 1.68835 -1.92624e-12
1.68835 14.2515 -4.77878e-11
-1.92624e-12 -4.77878e-11 15.4417

0.909047 3.6121 7.4347e-11
3.6121 -0.497135 -2.88956e-11
7.4347e-11 -2.88956e-11 -0.0590163

-0.359606 -4.4603 -9.24039e-12
-4.4603 -1.46721 2.27364e-11
-9.24039e-12 2.27364e-11 -0.354556

-5.60765 -2.83662 1.65622e-11
-2.83662 -3.56 2.89058e-12
1.65622e-11 2.89058e-12 -4.99114

-6.24433 -0.972666 2.31116e-11
-0.972666 -1.59188 -4.14085e-11
2.31116e-11 -4.14085e-11 -5.84069

-0.23243 4.1165 1.84939e-11
4.1165 -2.7285 1.84878e-11
1.84939e-11 1.84878e-11 -1.29237

-5.1308 -3.67559 2.88987e-12
-3.67559 -1.40691 1.15596e-11
2.88987e-12 1.15596e-11 -2.18623

0.521569 2.16513 -3.81424e-11
2.16513 -8.84426 -9.23898e-12
-3.81424e-11 -9.23898e-12 -2.98971

-0.423111 -3.34738 -1.31014e-11
-3.34738 -7.10343 3.04351e-11
-1.31014e-11 3.04351e-11 -3.75857

-4.43135 3.77639 2.30171e-11
3.77639 -1.64981 -3.69821e-11
2.30171e-11 -3.69821e-11 -1.29646

-3.1024 -4.38836 -2.01289e-11
-4.38836 1.6235 3.50591e-11
-2.01289e-11 3.50591e-11 -0.946847

-7.15942 -3.05119 2.33038e-11
-3.05119 -6.37789 1.69482e-11
2.33038e-11 1.69482e-11 -8.00536

-8.00471 -2.72564 -4.58366e-11
-2.72564 -1.52068 5.98062e-11
-4.58366e-11 5.98062e-11 -6.02629

-0.562434 3.06036 6.81852e-11
3.06036 -9.6921 9.61416e-12
6.81852e-11 9.61416e-12 -5.19612

-0.556155 0.998655 1.35969e-10
0.998655 -9.9166 -2.40963e-11
1.35969e-10 -2.40963e-11 -6.62917

-1.48212 -3.30887 -6.16538e-12
-3.30887 -6.2191 -1.3095e-11
-6.16538e-12 -1.3095e-11 -6.23844

-0.688426 -0.706923 -7.16407e-11
-0.706923 -5.93142 7.65018e-13
-7.16407e-11 7.65018e-13 -7.9029

-9.16259 -0.761735 -3.46804e-12
-0.761735 0.139158 8.47459e-12
-3.46804e-12 8.47459e-12 -7.13905

-5.64292 5.6202 2.66291e-12
5.6202 -5.76147 -5.81622e-11
2.66291e-12 -5.81622e-11 -7.30248

0.273688 3.35912 -9.59129e-11
3.35912 -8.41926 -4.81626e-12
-9.59129e-11 -4.81626e-12 -5.65058

-0.449954 2.78106 -3.11157e-10
2.78106 -10.6605 2.49911e-10
-3.11157e-10 2.49911e-10 -7.95844

1.25429 0.773752 3.60512e-10
0.773752 -0.886294 6.31152e-11
3.60512e-10 6.31152e-11 -9.12121

-5.92188 -3.90545 -7.52361e-13
-3.90545 -2.5756 -6.74135e-11
-7.52361e-13 -6.74135e-11 -8.44729

1.13958 2.5474 9.62745e-12
2.5474 -7.859 3.46941e-12
9.62745e-12 3.46941e-12 -4.561

0.170365 2.04505 5.04649e-11
2.04505 -3.81562 3.10016e-11
5.04649e-11 3.10016e-11 -2.38463

-1.70147 3.28964 -4.98116e-12
3.28964 -9.16862 6.5294e-11
-4.98116e-12 6.5294e-11 -6.91957

-2.03435 -3.75929 4.58345e-11
-3.75929 -5.55349 -4.277e-11
4.58345e-11 -4.277e-11 -6.72014

-4.0857 -1.88464 4.23505e-11
-1.88464 -1.46005 -9.55315e-11
4.23505e-11 -9.55315e-11 -8.73677

-1.4562 -1.68306 1.54125e-12
-1.68306 -2.87033 1.34824e-11
1.54125e-12 1.34824e-11 -3.3942

-0.276363 3.32019 6.16264e-11
3.32019 -6.46663 -5.10438e-11
6.16264e-11 -5.10438e-11 -3.44241

-0.442982 1.94821 -4.62239e-11
1.94821 -7.42604 1.16129e-12
-4.62239e-11 1.16129e-12 -4.76279

-2.52164 -4.36037 -8.0808e-12
-4.36037 -4.28805 1.20181e-10
-8.0808e-12 1.20181e-10 -4.67664

-1.06794 -2.11572 -3.96692e-11
-2.11572 -5.28024 8.93644e-11
-3.96692e-11 8.93644e-11 -6.20786

VECTORS fluid_flux_TPM float
-7.23333e-05 -0.000216972 -5.8814e-20
-2.2364e-05 0.000178098 8.73115e-20
3.54579e-05 -0.000178214 -6.54836e-20
-0.000161714 -3.07713e-05 -8.06419e-20
-0.000203086 -5.35434e-05 -6.66963e-20
-2.67996e-05 0.000229656 1.01863e-19
3.98971e-05 -0.000229838 -4.24431e-20
-0.000218189 5.48029e-05 -5.39634e-20
-6.83212e-05 0.000110083 -4.9719e-20
-0.000114668 -0.000266418 1.81899e-21
-0.000109919 0.000285013 -4.24431e-20
0.000298243 0.000121463 -1.75836e-20
0.000157883 0.000152901 -2.78912e-20
-0.000145504 -0.000152391 -9.70128e-21
-7.1919e-05 -0.000150555 -5.76013e-20
-2.22089e-05 -0.000142735 -5.45697e-20
2.3144e-05 0.000234803 7.27596e-21
-1.04485e-05 -0.000234927 -5.21444e-20
0.000206608 2.07729e-05 -3.15291e-20
-8.62982e-05 -0.000321484 -1.94026e-20
-8.7123e-05 0.000328775 -1.27329e-20
0.000358276 8.27169e-05 -2.42532e-20
-0.00013864 -0.000143688 -8.48862e-21
-0.000223669 5.23925e-05 -2.78912e-20
-0.000159267 -0.000144765 -1.33393e-20
9.5829e-05 0.000211835 2.48595e-20
-0.000153437 2.8966e-05 -7.76102e-20
-0.0002323 -0.000484359 1.81899e-21
-0.000133246 -6.74446e-05 -6.54836e-20
0.000516111 0.000244185 -3.51671e-20
-7.30211e-07 0.000219523 4.72937e-20
1.35234e-05 -0.000219586 -2.91038e-20
-0.000503903 -0.000256032 -1.21266e-20
-0.000505665 0.000246365 3.75924e-20
-0.000328447 0.000107417 -4.79001e-20
-0.000116767 -9.44878e-05 -4.24431e-20
-0.000204531 -0.00010291 -5.57823e-20
-0.000214166 0.000104752 5.6995e-20
-3.54117e-05 -7.17658e-05 -6.66963e-20
0.000144265 0.000147278 -1.81899e-20
-0.000210396 0.000140639 -1.33393e-20
-6.1969e-05 1.02081e-06 -7.51849e-20
-0.000136085 0.000148691 3.63798e-21
-7.34757e-05 0.000215916 2.60722e-20
3.34001e-05 0.000142719 -1.21266e-20
-0.000213089 0.000140407 -9.09495e-21
-0.000527372 -0.000527372 -1.24298e-20
0.000546294 0.000546294 -9.09495e-21
4.84352e-05 0.000111462 1.57646e-20
0.000548258 0.000579524 -2.78912e-20
-0.000559998 -0.000528944 -1.60677e-20
0.000253018 -2.61656e-05 1.1399e-19
0.000252834 2.6023e-05 2.66785e-20
0.000177756 3.1457e-05 1.45519e-20
0.000241079 -0.000110156 9.82254e-20
0.000240873 0.000110169 -2.30405e-20
9.07536e-05 0.000148152 8.48862e-21
-0.000212054 -0.000397499 -8.73115e-20
-0.000212692 0.000399077 3.15291e-20
0.000192902 -7.36905e-05 9.82254e-20
0.000192598 7.32607e-05 -1.57646e-20
-0.00028869 0.000126323 -2.60722e-20
-0.000229878 0.000362775 1.01863e-19
0.000244486 -0.000365749 -2.78912e-20
0.000140852 -0.000145446 1.5522e-19
-0.000255246 0.000489281 -4.27463e-20
-0.000489217 0.000259174 -5.94203e-20
2.84938e-05 0.000141676 7.27596e-20
-1.6082e-05 -0.000141301 -1.45519e-20
0.000429449 -0.000177883 1.38243e-19
0.000429574 0.000177935 -1.46732e-19
3.05647e-05 -4.5036e-05 -3.63798e-20
0.000196253 6.77873e-05 -3.63798e-21
0.000196676 -6.7882e-05 8.00355e-20
-0.000103333 -7.10387e-05 -4.48684e-20
-3.59074e-05 -0.000109599 2.18279e-20
-0.00030361 -6.47728e-05 -5.03254e-20
-0.000262031 -3.83561e-05 -2.78912e-20
-0.000191231 -0.000161567 -1.81899e-20
-0.000223598 0.000387275 7.63976e-20
-0.000223058 -0.000386336 -3.75924e-20
-0.000230392 -0.000258398 -9.09495e-21
-0.000168856 9.97662e-05 -3.63798e-20
0.000203478 7.39185e-05 -1.94026e-20
-3.4877e-05 0.00041021 2.06152e-20
4.46018e-05 -0.000414363 4.24431e-20
-0.000197861 0.00017789 2.06152e-20
2.04714e-05 0.000189114 5.57823e-20
-6.95712e-06 -0.000189087 -6.0633e-20
0.000172996 -2.88753e-05 5.09317e-20
0.000171171 2.70079e-05 -2.06152e-20
0.000304719 -0.00020936 7.09406e-20
0.000245489 4.02512e-05 -4.12304e-20
0.000182842 -9.12284e-05 1.10352e-19
0.00018189 9.13958e-05 -3.39545e-20
0.000205927 -7.54093e-05 7.76102e-20
9.03711e-05 -0.000210438 1.34605e-19
0.00016473 -7.22164e-05 1.1399e-19
0.00016223 7.0662e-05 -1.69772e-20
-0.000177122 8.09314e-05 -5.09317e-20
0.000100654 6.20957e-05 -1.57646e-20
-0.000212221 -0.000148167 4.24431e-21
-7.57057e-05 1.79673e-05 -6.4271e-20
-1.94474e-05 4.31391e-05 1.81899e-20
0.000253669 3.59301e-05 -2.30405e-20
-0.000173359 0.000104268 -2.30405e-20
-0.000182849 -8.52246e-05 -4.72937e-20
-0.000140185 -0.000175539 -1.81899e-21
-0.000161979 -0.000108581 2.42532e-21
3.63632e-06 -0.000194592 -7.03343e-20
9.80563e-06 0.000194656 1.09139e-19
0.000301263 -0.000118821 5.1538e-20
-0.000103114 7.04592e-05 5.57823e-20
0.000151845 -0.000214571 1.12171e-19
0.000152575 0.000216562 4.24431e-21
-0.000168529 9.9784e-05 -3.39545e-20
-6.67285e-05 0.000108517 -5.45697e-20
-6.82759e-05 -0.000112515 -5.94203e-20
-3.67874e-05 -0.000201861 -2.97102e-20
-0.000157812 0.000151624 -2.78912e-20
3.29017e-05 -0.000282829 7.88229e-21
4.72684e-05 0.000289708 -5.5176e-20
0.00032027 -1.52781e-05 2.24342e-20
0.000312189 0.000208006 -1.63709e-20
0.00021591 -0.000125562 9.64064e-20
0.000282817 -0.000489908 7.51849e-20
-0.000282087 0.000488597 0
0.000247095 -4.40387e-05 1.45519e-20
4.34288e-05 0.000109449 -1.94026e-20
0.000180048 -3.41268e-05 2.18279e-20
-3.46393e-05 0.000204623 1.87962e-20
-5.24198e-05 0.000114611 4.85064e-20
6.24568e-05 -0.000114174 -2.18279e-20
0.00010275 -6.39583e-05 6.4271e-20
7.69449e-05 -2.30554e-05 4.85064e-21
-3.13046e-05 -0.000109984 -3.27418e-20
0.000133723 1.25497e-06 -2.18279e-20
0.000211863 0.000135536 -1.94026e-20
-7.19082e-05 -2.30378e-05 4.85064e-20
0.000212129 0.000138365 -2.84975e-20
-0.000223255 0.000277581 -8.48862e-21
-0.000116096 9.00865e-05 1.69772e-20
8.79237e-05 -0.000314161 4.06241e-20
9.2601e-05 0.000314056 -4.9719e-20
0.000349489 -8.01607e-05 1.39456e-20
0.000216554 -0.000143574 9.51938e-20
8.20009e-06 0.000226882 6.4271e-20
5.22794e-06 -0.000226559 -3.27418e-20
0.000171777 -0.000287714 4.00178e-20
0.000169082 0.000275708 -4.72937e-20
0.000109327 -3.89894e-05 3.15291e-20
0.000109752 3.76065e-05 -2.91038e-20
0.000120842 7.55828e-05 1.21266e-21
7.29499e-05 0.000102707 2.91038e-20
-0.000162348 -9.79115e-05 -3.51671e-20
-0.000324272 -0.000255743 -2.2131e-20
5.09866e-05 0.000209731 -9.70128e-21
0.000215935 7.2681e-05 -3.39545e-20
0.000216353 -7.29989e-05 1.04289e-19
0.000195896 -7.67826e-05 9.21621e-20
0.000195528 7.62957e-05 -1.21266e-21
-9.89143e-05 -0.000955764 1.21266e-21
0.000981469 0.000151038 7.57912e-21
5.09973e-05 -0.000204827 5.27507e-20
0.000297019 -0.000196929 8.85242e-20
0.000296863 0.000197392 -4.85064e-20
0.000200065 0.000104582 -7.88229e-21
-0.00040493 -2.57739e-05 -2.33437e-20
0.000245838 -4.47721e-05 -6.0633e-21
-8.53364e-06 0.000174545 7.76102e-20
2.13069e-05 -0.000175345 -2.42532e-20
-0.000144484 0.000217595 -2.84975e-20
7.28802e-05 2.37413e-05 4.12304e-20
0.000200899 -0.000105112 6.4271e-20
-2.99335e-05 -5.20871e-05 -8.73115e-20
-0.000147074 0.000120803 1.05501e-19
0.000160608 -0.000120599 -2.42532e-21
0.000120185 -7.42877e-05 1.03076e-19
-0.000118711 -8.09125e-05 -4.12304e-20
-0.000208773 -0.000134436 -1.21266e-21
3.44005e-05 4.80261e-05 3.03165e-20
-6.84958e-05 0.000147161 4.79001e-20
-3.5951e-05 -0.000204225 -3.69861e-20
0.000171321 7.98073e-05 2.18279e-20
5.25113e-05 0.000206018 3.33481e-20
-6.41227e-05 -9.97133e-05 1.21266e-20
-0.00025696 0.000469992 -1.94026e-20
-0.000461246 0.000261933 -3.63798e-20
0.000171834 -8.02595e-05 5.09317e-20
0.000207913 -2.41428e-05 2.54659e-20
0.000434972 0.000190931 -1.06714e-19
0.000434774 -0.000190702 5.45697e-20
4.36383e-05 -0.000111665 6.54836e-20
-0.000285785 -0.000206774 -5.82077e-20
-0.00029234 0.000201677 4.12304e-20
-0.000121768 -5.40255e-05 -9.15558e-20
-2.55874e-05 4.49601e-05 5.57823e-20
0.000277446 0.000339582 -4.36557e-20
-0.000309979 -0.000255076 -2.72848e-20
0.000276049 -0.000378649 2.48595e-20
0.000280515 0.000383217 -5.45697e-20
0.000427639 -0.000235642 2.60722e-20
3.38735e-05 -3.99558e-05 1.94026e-20
-2.83088e-05 -0.00042238 1.21266e-20
0.000453035 3.28976e-05 -1.45519e-20
0.000232987 0.000306612 -3.51671e-20
-0.000219934 -0.000304705 5.82077e-20
-0.0001407 -0.000113439 -2.78912e-20
-6.08106e-05 2.42116e-06 -8.73115e-20
0.000163221 -0.000224166 5.8814e-20
0.000164219 0.00022776 -3.63798e-20
-0.000139099 4.05793e-05 -9.88318e-20
8.58532e-05 -0.00014461 1.04895e-19
0.000227668 -0.000115199 1.24904e-19
0.000227199 0.00011529 -7.27596e-21
-0.000169943 -9.11167e-05 -4.9719e-20
-0.000118335 7.95889e-05 3.15291e-20
-0.000135901 -6.43124e-05 -4.85064e-20
-0.000258902 -0.000145565 -1.87962e-20
-3.19699e-05 0.000118283 6.0633e-20
-0.000540685 0.000540685 -9.70128e-21
-3.28424e-05 0.000209347 3.39545e-20
4.79963e-05 -0.000211495 -1.39456e-20
4.63526e-05 -0.000412093 5.09317e-20
-3.35507e-05 0.00041193 2.06152e-20
0.000129144 -6.48804e-05 5.3357e-20
0.000129026 6.27324e-05 -3.75924e-20
-0.000202737 0.000108013 1.94026e-20
-0.000200474 -0.000104565 -4.85064e-20
-0.000354999 -6.47835e-05 1.21266e-21
-0.000349371 6.61429e-05 -2.91038e-20
0.000411716 0.000192292 -6.66963e-20
0.000411701 -0.000192052 7.39722e-20
0.000130687 1.20881e-05 4.9719e-20
0.000130893 -1.12962e-05 4.85064e-20
0.000207804 7.32599e-05 -3.45608e-20
-6.94823e-06 0.000185454 7.63976e-20
2.02742e-05 -0.000181374 -1.39456e-20
-0.000293933 0.000203654 -1.94026e-20
0.000207142 -7.52184e-05 7.63976e-20
-1.71018e-05 -0.000195275 -3.33481e-20
0.000177568 0.000107689 -1.75836e-20
-0.000130303 -4.0632e-06 5.45697e-20
-0.000128804 1.03295e-06 -4.12304e-20
0.000177114 -0.000109267 9.88318e-20
-0.000134026 0.000118129 -1.57646e-20
0.00023167 0.000401303 -3.15291e-20
-0.000227872 -0.000394686 8.24609e-20
-3.52383e-05 -0.00013676 1.81899e-20
-0.000170817 -0.000102869 -3.63798e-20
-1.91328e-05 -0.000228593 -5.3357e-20
0.000287911 -0.000491389 5.76013e-21
0.000496493 -0.000232665 9.09495e-22
0.000108859 -9.00682e-05 8.73115e-20
0.000107397 8.81752e-05 -5.57823e-20
-2.85886e-05 0.00023946 -7.27596e-21
2.89465e-05 0.000188456 7.33659e-20
0.000256182 0.00010935 -3.15291e-20
0.000196535 -4.45296e-05 1.00651e-19
0.000196317 4.36628e-05 3.15291e-20
-0.000463134 -3.80674e-09 1.81899e-20
-0.000463259 2.83618e-09 -4.48684e-20
4.48797e-05 -0.000104458 1.81899e-20
-0.000175423 -0.000106659 -2.91038e-20
0.000181445 0.000109437 -3.88051e-20
0.000182433 -0.000109484 1.07927e-19
5.00003e-05 0.00013385 5.09317e-20
2.25713e-05 3.68669e-05 4.12304e-20
0.000538623 -0.000538623 -8.18545e-21
-0.000152226 4.82086e-05 -1.94026e-20
-0.00015373 -5.1618e-05 1.94026e-20
-3.37505e-05 0.000107085 6.91216e-20
0.000251429 -0.000111127 5.39634e-20
-0.000172443 8.79137e-05 -2.54659e-20
-0.000222615 -2.98121e-05 -3.51671e-20
-0.000223661 2.91498e-05 1.33393e-20
-0.000133892 6.43762e-05 -4.24431e-20
0.000127885 0.000190029 -1.69772e-20
0.000128866 -0.000189535 1.06714e-19
9.56479e-05 0.000539448 -1.69772e-20
-8.53391e-05 -0.000539456 1.43094e-19
-4.85667e-05 0.000974758 -2.24342e-20
-0.000952248 4.98596e-05 -2.69817e-20
0.000147541 -1.04924e-05 9.58001e-20
0.000148334 8.83322e-06 1.94026e-20
-6.42226e-06 -3.43015e-05 3.88051e-20
0.00052882 -0.000643164 -1.36424e-20
0.000672617 -0.000517785 -1.94026e-20
0.00017626 -0.000425554 -2.78912e-20
0.000176383 0.000425851 -3.88051e-20
-0.000162066 9.67654e-05 -1.57646e-20
0.000154749 -0.000147507 1.27329e-19
0.000157184 -6.50082e-05 1.04289e-19
0.000156999 6.41072e-05 4.48684e-20
0.000116671 -9.6978e-05 1.07927e-19
0.000153633 0.000148924 1.21266e-21
1.04651e-06 -0.000453134 2.60722e-20
1.76775e-05 0.000417124 -5.1538e-20
0.000483804 4.00377e-06 -9.70128e-21
0.000117097 9.59722e-05 3.15291e-20
5.32986e-05 0.0004596 -5.57823e-20
-0.000449199 -6.05983e-05 -3.78956e-20
0.000196701 -2.09151e-05 1.24904e-19
0.000197554 1.83433e-05 5.6995e-20
0.000191535 -3.85479e-05 1.33393e-19
0.000191791 3.83166e-05 5.57823e-20
-0.000531788 0.000658201 -6.66963e-21
-0.000652739 0.00053174 -2.33437e-20
0.000171889 7.47928e-05 2.42532e-21
0.000172313 -7.57316e-05 9.21621e-20
5.98161e-05 0.00031669 -2.06152e-20
-4.91678e-05 -0.000314649 1.17628e-19
0.000148173 6.21047e-05 9.33748e-20
0.000147053 -6.1733e-05 8.00355e-20
0.000225355 -0.000136281 1.23691e-19
0.00022486 0.000136506 -4.85064e-20
-0.00013163 -3.25959e-05 -4.85064e-20
-0.000128945 3.05559e-05 2.30405e-20
-0.000210186 -0.000399278 4.85064e-20
0.000207126 -0.000247829 5.09317e-20
0.00024841 -0.000209627 2.30405e-20
0.000206681 0.000248721 -4.60811e-20
0.000248499 0.000210025 -3.39545e-20
0.000222989 0.000403556 -2.42532e-21
-0.000460246 7.39713e-06 -2.30405e-20
-0.000459783 -8.6544e-06 6.0633e-21
0.000334037 0.00013837 6.66963e-20
0.000803601 0.000105788 2.70423e-19
0.000803836 -0.000105819 -3.0559e-19
0.000333954 -0.000138335 -1.33393e-20
0.000419323 9.08775e-06 1.23691e-19
0.000296995 9.00892e-05 1.07927e-19
0.000393447 -0.000110707 1.38243e-19
0.000419301 -8.96051e-06 1.45519e-20
0.000393431 0.000110808 -8.73115e-20
0.000297018 -8.99324e-05 8.97368e-20
0.000311524 -8.80578e-05 1.54008e-19
0.000309607 -8.86548e-05 4.00178e-20
0.000311539 8.81264e-05 5.3357e-20
0.000309493 8.87639e-05 -2.42532e-20
-2.87239e-05 0.000181614 1.57646e-20
-3.05578e-05 -0.000182525 -8.00355e-20
-0.000163658 2.99021e-05 -2.54659e-20
-0.000209108 5.43986e-05 -3.63798e-20
-3.34016e-05 0.000236006 2.30405e-20
-3.52021e-05 -0.000236532 -8.97368e-20
-0.000209259 -5.37692e-05 1.81899e-21
-7.02081e-05 -0.000110126 -7.15469e-20
-0.000117451 -0.000264629 5.6995e-20
0.000120531 0.000272649 -5.3357e-20
0.000276732 0.000125867 -1.30967e-19
0.000153141 -0.000159059 -6.66963e-20
0.000156847 0.000156812 9.82254e-20
-0.000168132 0.000100503 -5.09317e-20
1.75684e-05 -0.00024146 -1.21266e-19
1.9156e-05 0.000240597 8.73115e-20
0.000170823 2.67299e-05 -8.48862e-20
-8.81962e-05 -0.000320968 -5.45697e-21
8.6891e-05 0.000324142 -3.45608e-20
0.000335628 8.96829e-05 -1.74017e-19
8.05949e-05 0.000217343 -8.12482e-20
8.32995e-05 -0.000214123 -1.33393e-20
-0.00015393 -3.14878e-05 -3.15291e-20
-0.000229738 -0.000477473 1.42487e-20
-0.000136008 6.84565e-05 -7.39722e-20
-5.16728e-06 0.000225031 8.48862e-21
-7.1615e-06 -0.000225633 -8.36735e-20
-0.000508032 -0.00024569 1.77048e-19
-0.000505827 0.000254764 1.78261e-19
-0.000109902 0.000148545 3.21355e-20
-0.000132803 0.000157254 -5.21444e-20
-0.000306644 9.89869e-05 -7.88229e-20
-0.000216689 -0.000104402 6.30583e-20
-0.000207347 0.000101638 8.48862e-21
-3.55219e-05 7.28958e-05 -1.41881e-19
0.000128859 -0.000153395 -1.57646e-20
-6.39185e-05 -2.18604e-06 -1.67347e-19
-0.000220622 0.000144101 -9.45875e-20
-0.000145043 -0.000146779 -6.0633e-21
-0.000254788 -3.99245e-05 -6.48773e-20
-0.000232415 4.67614e-05 -1.20053e-19
-7.99177e-05 -0.000217199 -5.5176e-20
2.33858e-05 -0.000148088 -1.09139e-19
2.5267e-05 0.000147093 -1.81899e-20
-7.21641e-05 0.000218502 0
0.000133401 0.000155186 -8.00355e-20
-0.000516169 -0.000516125 -1.73107e-19
-0.00050826 0.000508275 9.33748e-20
4.56185e-05 -0.000118346 -4.60811e-20
4.57604e-05 0.000114722 1.35818e-19
7.79629e-05 0.000153537 -2.48595e-20
-0.00050975 0.000554702 2.05243e-19
-0.000537691 -0.000517163 -2.0979e-19
0.000264953 -4.84473e-05 -4.24431e-20
0.000262707 5.25056e-05 2.42532e-21
0.000124609 4.38499e-05 -4.36557e-20
0.000248216 -0.000166165 -7.88229e-20
0.000246367 0.000167511 3.88051e-20
7.8439e-05 -0.000153195 -2.78912e-20
-0.000215041 -0.00039721 1.06714e-19
-0.000214894 0.000394157 1.62496e-19
0.000182202 -0.000104796 -4.85064e-20
0.000182283 0.000106521 -2.42532e-21
-0.0002403 -0.000372761 -9.21621e-20
-0.000239526 0.000372825 2.42532e-20
0.000250162 0.000472195 -1.63709e-20
0.000474126 0.000250377 5.60855e-20
2.07657e-05 0.000146147 -3.63798e-21
1.88693e-05 -0.000147128 9.70128e-21
0.00051939 -0.000215111 5.6995e-20
0.000513612 0.000212746 2.42532e-20
-0.000210882 -0.000146911 -4.24431e-20
0.000172686 9.48908e-05 -2.18279e-20
0.000172742 -9.30094e-05 -1.17628e-19
-0.000193741 0.000161645 4.12304e-20
-0.000295758 -6.68124e-05 -8.48862e-20
-0.000222879 0.000386056 1.57646e-19
-0.000223854 -0.000387671 -6.30583e-20
-0.000166408 -0.00010278 -9.58001e-20
0.000167075 9.01288e-05 -8.24609e-20
-0.000236393 -0.000257114 1.39456e-20
-4.07501e-05 -0.000421291 -6.30583e-20
-3.91375e-05 0.000421565 -1.33393e-20
-0.000200399 -0.000177469 1.26117e-19
1.63158e-05 0.000192757 9.82254e-20
1.47077e-05 -0.000192546 -9.09495e-20
0.000124234 -4.36411e-05 -4.36557e-20
0.000122087 4.21462e-05 -3.63798e-20
0.000279082 -0.000212946 -1.7341e-19
0.000210056 4.64227e-05 -1.1399e-19
0.000149558 0.00014167 1.94026e-20
0.000150838 -0.000140503 -3.27418e-20
0.000169821 -9.06321e-05 -1.76442e-19
0.000113279 -0.000101076 -7.88229e-20
0.000110206 0.000100171 -2.06152e-20
-0.000180268 -8.04863e-05 -3.27418e-20
-0.000189207 0.000149014 -1.0732e-19
9.54249e-05 7.32726e-05 -7.88229e-20
9.25075e-05 -7.10571e-05 -1.57646e-19
-2.90416e-05 -4.93104e-05 -1.30967e-19
-2.72921e-05 4.821e-05 -2.30405e-20
0.000225293 3.83849e-05 -1.74017e-19
-0.000317734 0.000309672 -1.15203e-20
-0.00017558 -0.000104844 -5.57823e-20
-0.000181509 8.60562e-05 -7.27596e-21
-0.000432051 7.07116e-05 -8.57957e-20
-0.000168253 0.000102699 -1.16415e-19
1.87178e-06 -0.000199216 -4.9719e-20
4.69753e-06 0.000198794 1.33393e-20
-0.000148234 -0.000177642 -9.09495e-21
0.000275466 -0.000118249 -1.84931e-19
-0.00010477 -7.19059e-05 -1.06714e-19
-0.000105019 7.77833e-05 1.56433e-19
0.000136554 -0.000217238 2.48595e-20
-0.000143821 0.000232307 -7.27596e-20
-0.000172814 -0.000102284 -7.76102e-20
-6.97301e-05 -0.000109656 3.51671e-20
-7.12715e-05 0.000117221 -7.15469e-20
4.07155e-05 0.000209096 -6.00266e-20
-0.000157178 -0.000149216 -7.51849e-20
2.43161e-05 -0.000281704 -7.27596e-21
-3.67339e-05 0.000290196 -3.57735e-20
0.000294025 -3.12398e-05 -2.01301e-19
0.000192731 -0.000131259 -1.3218e-19
-0.000289133 0.000500844 -3.27418e-20
-0.000288586 -0.000499885 3.88051e-20
-0.000207176 -0.000124702 -5.3357e-20
0.000217576 -4.70223e-05 -1.77048e-19
-0.000328751 -0.000260688 -1.41275e-19
3.30365e-05 -0.000116068 -9.94381e-20
3.43017e-05 0.000117593 -3.63798e-20
0.000127758 -4.62658e-05 -1.10352e-19
-4.18568e-05 -0.000204266 -9.27685e-20
-6.20396e-05 -0.000120849 -4.48684e-20
-6.02777e-05 0.000119718 -9.70128e-21
0.00019546 0.000275041 -1.81899e-20
0.000290084 0.000195721 -7.39722e-20
-0.000414471 -1.85689e-05 -4.82032e-20
7.12742e-05 -1.36713e-05 -3.15291e-20
6.80246e-05 1.68727e-05 -2.41319e-19
5.91861e-05 3.63759e-06 2.54659e-20
-7.39896e-05 2.03521e-05 -1.61284e-19
-6.82039e-05 -1.97125e-05 1.35818e-19
-0.000119953 -8.9861e-05 -9.09495e-20
8.01129e-05 -0.000311673 -4.91127e-20
-7.33389e-05 0.000311042 -1.03076e-20
0.000318352 -8.2577e-05 -1.95845e-19
0.000193661 -0.000147684 -5.1538e-20
3.30428e-06 0.00022682 7.27596e-21
4.34789e-07 -0.000228063 -9.94381e-20
-0.000148576 0.000297394 -2.06152e-20
0.000154689 -0.000279789 -8.00355e-20
2.24579e-05 5.93419e-05 -1.21266e-21
2.05413e-05 -6.01105e-05 -1.57646e-20
0.00010969 -8.25367e-05 -1.46732e-19
0.000112017 8.43709e-05 -4.9719e-20
7.47387e-05 -0.000107947 -1.07927e-19
7.14402e-05 0.000105785 1.51582e-19
-0.00016174 9.89529e-05 -8.48862e-21
4.03967e-05 -0.000212109 -6.60899e-20
0.000205409 0.000105946 1.09139e-20
0.000206897 -0.000104068 -6.30583e-20
0.000178511 -0.000115451 -1.0247e-19
0.000172581 -9.48531e-05 -5.45697e-20
0.000172554 9.64436e-05 -5.09317e-20
-0.000100375 -0.000931949 -3.87748e-19
0.000137924 0.00021491 -2.54659e-20
-0.00096022 0.000112623 4.24431e-21
-3.54986e-05 0.000213526 -3.75924e-20
0.000330954 -0.000299013 -1.09139e-20
0.000327342 0.000298767 1.33393e-19
0.000179926 0.000117108 -6.4271e-20
0.00021045 -5.118e-05 -1.70985e-19
0.000196173 0.00013673 -9.03431e-20
-1.33581e-05 -0.00017845 -1.21266e-19
-1.21917e-05 0.000178452 7.88229e-20
-0.000155045 0.000125921 -3.15291e-20
-0.000156226 -0.000127014 1.33393e-20
3.10245e-05 5.34892e-05 -2.42532e-20
2.54533e-05 -5.42559e-05 -2.13428e-19
-7.28529e-05 -0.000148461 -8.30672e-20
4.18626e-05 0.000205922 -3.33481e-20
0.000157236 -9.70753e-05 -8.97368e-20
0.000158347 9.8505e-05 -2.78912e-20
0.000197055 0.000149717 -2.42532e-21
-6.89229e-05 0.000149915 8.73115e-20
4.18532e-05 -0.000208562 -1.87962e-20
0.00025188 0.000456386 -2.12215e-20
0.000462971 0.000251423 2.97102e-20
-0.000287368 0.000215064 -9.58001e-20
0.000172157 -3.03524e-05 -1.64922e-19
0.000538334 -0.000260708 3.75924e-20
0.000533271 0.000260067 9.94381e-20
-0.000294584 -0.000200983 1.61284e-19
-0.000288792 0.00020575 4.48684e-20
-0.000122264 5.2389e-05 -3.09228e-20
-2.86189e-05 4.66368e-05 1.916e-19
-2.89164e-05 -4.58152e-05 -1.8675e-19
-0.000241884 0.000323076 1.17628e-19
-0.000303775 -0.000259694 -5.21444e-20
0.000260343 -0.000371932 -2.58297e-19
-0.000236486 0.000386665 7.57912e-20
0.000389749 -0.000227051 -2.1646e-19
-0.000265384 -0.000143511 -3.33481e-20
-3.21321e-05 -0.000416694 -1.14899e-19
-0.000394625 3.60961e-06 -7.97324e-20
0.000228731 -0.000313781 -7.63976e-20
0.000233485 0.000313656 1.35818e-19
-0.00014158 0.000111965 5.82077e-20
-6.20156e-05 -4.48646e-06 -1.5522e-19
-0.000140645 0.000229938 -6.12393e-20
0.000148748 -0.00022897 1.21266e-21
-0.000141034 -4.17326e-05 -1.13384e-19
0.000225483 -0.000174711 -1.21266e-19
0.000223293 0.000176152 4.00178e-20
-0.000173399 9.1099e-05 -1.57646e-20
-0.00012185 -8.21519e-05 -6.4271e-20
-0.00010778 7.90834e-05 1.57646e-19
-0.000139197 6.46934e-05 3.63798e-21
-3.54407e-05 -0.000120428 -6.2452e-20
-3.16808e-05 0.000129178 1.5522e-19
0.000534549 0.000534532 9.27685e-20
-3.92553e-05 -0.000211106 -1.16415e-19
-3.57047e-05 0.00021308 2.18279e-20
-4.05745e-05 -0.000421518 3.15291e-20
-3.87677e-05 0.000422044 2.42532e-20
5.9807e-05 -0.000111414 -2.42532e-21
6.04629e-05 0.000108884 7.15469e-20
-0.000204892 -0.000107768 4.85064e-20
-0.000201405 0.000104061 1.81899e-20
-0.000357405 6.61345e-05 7.27596e-21
-0.000352062 -6.58291e-05 -8.12482e-20
0.000473036 0.000263594 4.60811e-20
0.000479735 -0.000264138 6.4271e-20
0.000127568 -1.40525e-06 -5.6995e-20
0.000123325 4.81619e-06 -2.01301e-19
0.000186467 8.71569e-05 -6.48773e-20
-1.22356e-05 -0.000186175 -1.19447e-19
0.000160218 -0.000118735 -3.15291e-20
-1.07524e-05 0.000188046 7.57912e-20
0.000184088 -8.83901e-05 -1.67347e-19
2.15537e-05 0.000193775 -9.09495e-21
0.000161766 0.000120541 -5.6995e-20
-0.000129422 2.33382e-06 -1.97664e-19
-0.000133326 -2.8401e-06 3.63798e-20
-0.000137584 -0.000118667 6.66963e-20
0.000234429 -0.000406118 -7.51849e-20
0.000235865 0.000408553 1.09139e-19
-0.000172688 0.000101002 2.42532e-20
-2.45709e-05 0.000227537 -4.36557e-20
0.000271566 -0.000478428 -4.48684e-19
0.00047136 -0.000223946 -2.9407e-19
3.781e-05 -0.000138727 -4.9719e-20
3.67388e-05 0.000136795 3.03165e-20
-3.21566e-05 -0.000238677 1.44306e-19
1.93024e-05 -0.000191756 2.91038e-20
0.000227683 0.000119546 -1.04895e-19
0.000187844 -5.9856e-05 -6.54836e-20
0.000187778 6.27653e-05 -4.48684e-20
-0.000465623 -1.25458e-08 2.03727e-19
-0.000465389 3.4431e-08 2.66785e-20
-0.000173871 0.000101921 -4.48684e-20
0.000148956 0.000166115 2.06152e-20
0.000150289 -0.000164955 -8.73115e-20
4.75135e-05 0.00013675 1.18841e-19
4.68912e-05 -0.000136564 -9.70128e-20
2.08076e-05 -3.74587e-05 -1.57646e-19
2.32557e-05 4.055e-05 1.96451e-19
0.000518229 -0.000518256 -2.60722e-19
-0.000154307 5.28586e-05 -8.00355e-20
-0.000154985 -4.79056e-05 -1.21266e-21
-3.71451e-05 -0.000109707 -9.58001e-20
-3.51122e-05 0.000111639 1.66134e-19
0.000222251 -0.00011939 -1.53401e-19
-0.000174355 -8.76103e-05 -4.72937e-20
-0.000225404 -2.92473e-05 -2.42532e-20
-0.000224154 3.72662e-05 4.85064e-20
-0.000136487 -6.39234e-05 3.03165e-20
6.89981e-05 -0.000293773 -1.62496e-19
6.82928e-05 0.000293618 9.45875e-20
9.41998e-05 0.000552438 5.94203e-20
9.16931e-05 -0.000551075 7.03343e-20
4.31571e-05 0.000925647 3.09835e-19
0.000933056 6.47394e-05 5.18412e-20
0.000141758 2.15012e-05 -6.4271e-20
0.000140204 -1.77765e-05 -1.30967e-19
0.000505588 -0.000629848 -3.6592e-19
0.000615235 -0.000503289 -2.2131e-19
0.00022569 -0.000544732 2.30405e-19
0.000224123 0.00054095 2.08577e-19
-0.000164149 -9.64612e-05 -9.94381e-20
0.000151212 8.17807e-05 -5.82077e-20
0.000149893 -7.96e-05 -1.21266e-19
0.000140628 0.000156449 -4.85064e-20
0.000139081 -0.000155189 2.78912e-20
-5.98434e-06 -0.000443947 -7.45786e-20
-1.07417e-05 0.000409469 1.49763e-19
0.000424902 -1.32294e-05 -1.35212e-19
0.000107442 0.000107841 -8.24609e-20
0.000105313 -0.000106361 -6.91216e-20
-4.44378e-05 0.000452928 -1.36424e-20
0.000447494 -3.26414e-05 -4.30494e-20
0.00020061 -2.94481e-05 -1.28542e-19
0.000201063 3.29611e-05 -8.24609e-20
0.000190822 -6.33744e-05 -9.94381e-20
0.000191273 6.68938e-05 -3.88051e-20
0.000524321 0.000645042 1.30361e-19
0.000647916 0.000524833 1.25207e-19
0.000159581 8.77862e-05 -5.82077e-20
0.000158532 -8.57984e-05 -7.88229e-20
5.51489e-05 -0.00032388 -2.91038e-20
5.74339e-05 0.000323906 6.54836e-20
0.000142085 6.33607e-05 -9.33748e-20
0.000145031 -5.58986e-05 -6.4271e-20
0.000221664 -0.000209519 -1.43094e-19
0.00021955 0.000210128 3.63798e-20
-0.000131512 -3.06055e-05 -7.15469e-20
-0.000140326 3.42605e-05 6.0633e-20
0.000205183 0.000395579 1.67347e-19
0.000302889 0.000305155 1.58858e-19
0.00020717 -0.000396697 -1.83112e-19
0.000305573 -0.000305643 8.48862e-21
0.000218782 -0.000410178 -3.15291e-20
-0.000463135 -6.38924e-06 9.94381e-20
-0.000461944 8.61436e-06 6.79089e-20
0.000223366 0.000411798 1.23691e-19
0.000367714 -0.000152329 -1.57646e-20
0.00096104 -0.000126497 -6.4271e-20
0.000971886 0.000127931 8.48862e-21
0.000376984 0.000156125 5.57823e-20
0.000475426 1.09298e-05 6.0633e-21
0.000323735 -8.95074e-05 -1.81899e-20
0.000446447 0.000145134 2.42532e-20
0.000483532 -5.413e-06 -3.39545e-20
0.000453192 -0.000145831 -2.78912e-20
0.000327156 9.81498e-05 -6.79089e-20
0.000346102 -0.000134301 -1.18841e-19
0.000350258 -0.000133007 0
0.000342187 0.00013658 4.24431e-20
0.000346338 0.000135287 5.09317e-20
-7.6698e-05 -0.000216516 9.39811e-20
-3.08842e-05 0.000181679 3.46821e-19
2.99012e-05 -0.000182025 1.11565e-19
-0.000163809 -3.02742e-05 2.07365e-19
-0.000204657 -5.2757e-05 1.21872e-19
-3.55215e-05 0.000235593 2.76486e-19
3.45763e-05 -0.000236401 3.51671e-20
-0.000219669 5.49386e-05 1.5522e-19
-7.0432e-05 0.000110403 1.45519e-19
-0.000119233 -0.000265284 -3.03165e-20
-0.000115354 0.000280927 3.02559e-19
0.000276076 -0.000119581 -6.48773e-20
0.000152696 0.000158667 4.18368e-19
-0.000154717 -0.000158526 -9.70128e-21
-7.62998e-05 -0.000152699 9.94381e-20
-2.47712e-05 -0.000146229 1.47944e-19
1.72554e-05 0.00024099 4.28069e-19
-1.84392e-05 -0.000241809 4.60811e-20
0.000171629 2.51744e-05 -5.21444e-20
-9.18584e-05 -0.00031842 2.54659e-20
-9.2486e-05 0.000324831 3.72893e-19
0.000326924 -8.6821e-05 -9.03431e-20
-0.000142498 -0.00014379 3.75924e-20
-0.000224915 5.26312e-05 1.37637e-19
-0.000162046 -0.000144812 4.85064e-21
8.31997e-05 0.000213492 1.26723e-19
-0.000155198 2.92145e-05 2.14034e-19
-0.000238257 -0.00048581 -1.41881e-19
-0.000135291 -6.79187e-05 7.51849e-20
0.000486814 -0.000239344 7.42754e-20
-7.93134e-06 0.00022487 3.38332e-19
6.85294e-06 -0.000225624 -4.85064e-21
-0.000507045 0.000245317 3.27418e-20
-0.000505787 -0.000254519 -2.91038e-20
-0.00032879 0.000107182 3.57735e-20
-0.000119442 -9.4407e-05 1.33393e-20
-0.000216138 0.000104199 1.26117e-19
-0.000207388 -0.000102097 4.60811e-20
-3.54324e-05 -7.23325e-05 -7.27596e-21
0.000128112 0.000153625 6.4271e-20
-0.000211798 0.000139834 2.27374e-19
-6.41015e-05 1.73435e-06 6.79089e-20
-0.000139273 0.000148246 3.50459e-19
-7.74909e-05 0.000214583 4.23218e-19
2.4249e-05 0.000147146 1.83112e-19
-0.000214526 0.000139598 3.49246e-19
-0.000513098 -0.000513099 -9.97413e-20
0.000519492 -0.000519525 -4.42621e-20
4.54386e-05 0.000118055 4.42621e-19
0.000521376 -0.000551807 1.97057e-20
-0.000559738 -0.000515351 -7.63976e-20
0.000264137 -5.10268e-05 5.45697e-20
0.00026359 5.13299e-05 2.00618e-36
0.000122333 4.29385e-05 -8.85242e-20
0.000247577 -0.000167557 3.03165e-20
0.000247011 0.000167993 -3.27418e-20
7.83463e-05 0.00015265 1.58858e-19
-0.000214588 0.000396593 5.57823e-20
-0.000214858 -0.000393875 3.03165e-20
0.00018243 -0.000106137 -4.85064e-21
0.000181954 0.000106177 2.18279e-20
-0.000288505 0.000126338 1.79474e-19
0.000239617 -0.000372415 -1.05501e-19
-0.000242436 0.00037271 1.7341e-19
0.000127287 -0.00015124 -5.6995e-20
-0.000250565 0.000470982 3.56522e-19
-0.000487146 0.000257942 2.12519e-19
1.89179e-05 0.000146013 2.83762e-19
-2.12346e-05 -0.000145401 1.58858e-19
0.000517256 -0.000214282 -1.63709e-19
0.000517304 0.000214301 2.78912e-20
2.76797e-05 -4.91288e-05 1.69772e-19
0.00017226 9.64571e-05 -8.48862e-21
0.000172733 -9.33293e-05 8.48862e-21
-0.000104615 -7.15369e-05 5.09317e-20
-4.51498e-05 -0.000115746 2.78912e-20
-0.000304232 -6.30671e-05 -3.45608e-20
0.000212956 4.73416e-05 -7.63976e-20
-0.000263956 -3.74784e-05 1.27329e-20
-0.000193947 -0.000161366 5.82077e-20
-0.000222784 -0.000385834 -1.10352e-19
-0.000223455 0.000386997 -3.75924e-20
-0.00023414 -0.000257322 -2.36469e-20
-0.000170834 9.95262e-05 3.06803e-19
0.000168599 -8.99999e-05 -4.66874e-20
4.03122e-05 -0.000420875 -1.10352e-19
-4.13658e-05 0.000421625 1.98876e-19
-0.000199821 0.000177381 2.01301e-19
1.43875e-05 0.000191957 4.24431e-19
-1.47657e-05 -0.000193571 7.27596e-21
0.000123598 -4.37124e-05 -6.66963e-20
0.000119351 4.10622e-05 -4.00178e-20
0.000278675 0.000213882 2.91038e-20
0.000150272 -0.000141382 -3.88051e-20
0.000148753 0.000142718 -1.94026e-20
0.000166334 9.11314e-05 -9.09495e-21
7.893e-05 -0.000213499 -6.97279e-20
0.000112394 -0.000101729 -4.48684e-20
0.000108583 0.000100139 -2.78912e-20
-0.000178804 8.10062e-05 2.32831e-19
9.43497e-05 7.18816e-05 6.30583e-20
-0.000215035 -0.000147513 2.84975e-20
-7.67274e-05 1.8321e-05 3.03165e-20
-2.86315e-05 4.75085e-05 1.16415e-19
0.000224414 -3.93482e-05 -6.4271e-20
-0.000175225 0.000104078 3.33481e-19
-0.000185035 -8.49624e-05 1.94026e-19
-0.000143988 -0.000174509 1.39456e-20
-0.000164811 -0.000107939 8.97368e-20
-3.70385e-06 -0.00019932 1.57646e-20
1.79555e-06 0.000198499 4.12304e-19
0.000274807 0.000118818 1.21266e-21
-0.000104673 7.10548e-05 2.51021e-19
0.000137901 -0.000218219 -5.57823e-20
0.000135885 0.000218105 7.15469e-20
-0.000170351 9.95527e-05 3.31056e-19
-6.96101e-05 0.000109595 1.64922e-19
-7.13619e-05 -0.000116878 -8.48862e-21
-4.39135e-05 -0.000202578 6.0633e-20
-0.000159866 0.000151026 3.57735e-19
2.05979e-05 -0.00028195 -4.18368e-20
3.7573e-05 0.00028702 2.97708e-19
0.00029106 1.64209e-05 -9.39811e-20
0.000289781 -0.000209875 -1.29148e-19
0.000192326 0.00013247 3.81988e-20
-0.000288635 0.00050003 1.85537e-19
0.000288424 -0.000499568 -1.04289e-19
0.000216853 4.51252e-05 1.57646e-20
3.36148e-05 0.000116072 1.26117e-19
0.000127682 -4.66972e-05 -7.39722e-20
-4.14513e-05 0.000204103 4.35345e-19
6.0672e-05 -0.000120657 1.39456e-19
-6.14885e-05 0.000118736 1.16415e-19
9.61275e-05 -7.27001e-05 2.91038e-20
7.00177e-05 -1.54961e-05 4.24431e-20
-3.45551e-05 -0.000110996 1.01863e-19
5.86024e-05 2.42104e-06 -8.24609e-20
0.000192031 -0.000139051 -1.27329e-19
-7.41425e-05 -2.04307e-05 2.26767e-19
0.000192764 -0.000146808 -8.30672e-20
-0.000224465 0.000273773 3.44395e-19
-0.000118598 9.01466e-05 3.51671e-19
7.62316e-05 -0.000313631 -4.48684e-20
7.9343e-05 0.000309455 2.51021e-19
0.00032271 8.09415e-05 -2.24342e-20
0.000193312 0.000148193 4.18368e-20
3.60215e-07 0.000227311 4.17155e-19
-2.25988e-06 -0.000228322 -1.45519e-20
0.000153238 -0.000274647 -5.8814e-20
0.000152822 0.000281535 1.10958e-19
2.00088e-05 -6.11235e-05 -8.60988e-20
2.14912e-05 6.03813e-05 -6.30583e-20
0.000110289 8.253e-05 6.18456e-20
7.4558e-05 0.000107656 4.29282e-19
-0.00016452 -9.77935e-05 2.30405e-20
-0.000326226 -0.000250893 -1.42184e-19
4.02596e-05 0.000211477 2.29193e-19
0.000205588 0.000105651 -1.57646e-20
0.000206223 -0.000105427 8.48862e-21
0.000178325 0.000116466 8.48862e-20
0.000172508 -9.5901e-05 1.21266e-20
0.000172289 9.61186e-05 2.42532e-21
-8.35162e-05 -0.000942699 -1.9251e-19
0.000935971 -0.000142075 -7.24564e-20
4.0569e-05 -0.000208031 -2.54659e-20
0.000329528 -0.000299933 -6.18456e-20
0.000329109 0.000300905 -1.34605e-19
-0.000405816 -2.39671e-05 -1.14899e-19
-1.36013e-05 0.000177898 4.59598e-19
1.19485e-05 -0.000180583 -1.09139e-20
-0.000147421 0.0002151 3.63192e-19
6.4682e-05 1.96189e-05 9.33748e-20
-2.83856e-05 -5.56642e-05 1.56433e-19
-0.000157689 0.000125029 1.62496e-19
0.000155613 -0.000126874 5.6995e-20
0.000109763 -8.07782e-05 7.27596e-21
-0.000121193 -8.2182e-05 5.6995e-20
0.000178623 -0.000115884 -3.39545e-20
-0.000211271 -0.000132524 -1.94026e-20
0.000203632 -5.07233e-05 -7.39722e-20
2.91705e-05 5.27543e-05 6.30583e-20
-7.27007e-05 0.00014845 4.22006e-19
-4.25332e-05 -0.000206479 7.15469e-20
0.000157286 9.82966e-05 6.18456e-20
4.17625e-05 0.000207817 3.17717e-19
-7.39693e-05 -0.000105648 5.57823e-20
-0.000250469 0.00047242 3.21355e-19
-0.000458258 0.000260791 2.61328e-19
0.000171813 -3.20544e-05 -5.82077e-20
0.000157712 -9.80387e-05 3.51671e-20
0.000536732 -0.000261167 -1.21266e-19
0.000536973 0.000261652 -1.18841e-19
3.37643e-05 -0.000117889 2.66785e-20
-0.000293948 0.000200679 6.79089e-20
-0.000288184 -0.000205381 1.20053e-19
-0.000123275 -5.38707e-05 1.76442e-19
-2.90116e-05 4.58185e-05 3.31056e-19
0.000265394 -0.000328003 -1.39456e-20
-0.000317968 -0.000250508 -1.6189e-19
0.000270447 -0.00038773 -9.58001e-20
0.000249535 0.000365879 1.26117e-19
0.000401139 0.00023363 -1.35212e-19
2.46887e-05 -4.56936e-05 1.17628e-19
-1.22373e-05 -0.000417133 -1.77351e-19
0.000425602 -2.79102e-05 -3.1226e-20
0.000228323 0.000313459 3.79562e-19
-0.000230213 -0.000313033 1.33393e-20
-0.000143207 -0.00011304 1.41881e-19
-6.17594e-05 4.56561e-06 -1.57646e-20
0.0001466 0.00022841 1.33393e-19
0.000148563 -0.000227182 -1.00044e-19
-0.000140655 4.09944e-05 1.92207e-19
7.45539e-05 -0.000149724 -2.78912e-20
0.000224551 -0.000176216 2.42532e-20
0.00022372 0.000176702 -1.18841e-19
-0.000172438 -9.07098e-05 6.0633e-20
-0.000120629 8.06266e-05 3.50459e-19
-0.000138437 -6.42072e-05 1.60071e-19
-0.000262782 -0.000143961 -5.39634e-20
-3.52814e-05 0.000118864 4.29282e-19
-0.000537279 0.000537285 2.51021e-19
-3.9024e-05 0.000210485 4.70512e-19
3.77848e-05 -0.000214218 -5.03254e-20
4.01812e-05 -0.000421045 -4.60811e-20
-4.14685e-05 0.000421492 3.04378e-19
5.91879e-05 -0.000112516 -6.54836e-20
5.87311e-05 0.000108518 -8.48862e-21
-0.000204229 0.000107596 2.12215e-19
-0.000202662 -0.000104024 9.94381e-20
-0.000356668 -6.59852e-05 7.76102e-20
-0.000351758 6.74365e-05 1.54008e-19
0.000476855 -0.000264671 -1.12777e-19
0.000476619 0.000265184 -2.04939e-19
0.000128632 6.72742e-06 5.3357e-20
0.000126457 -3.19399e-06 6.66963e-20
0.000185522 -8.75187e-05 -4.85064e-20
-1.24316e-05 0.000185948 4.60204e-19
0.000159951 0.000119783 9.33748e-20
1.11455e-05 -0.000185272 -2.66785e-20
-0.000293599 0.000201462 3.34088e-19
0.000184377 8.81414e-05 5.21444e-20
-2.22067e-05 -0.000196828 9.88318e-20
-0.000129223 -2.5288e-06 1.15203e-19
-0.000129873 1.3676e-06 4.12304e-20
-0.000136208 0.000117829 2.49808e-19
0.000234286 0.000405804 2.38894e-19
-0.000234565 -0.000406355 1.09139e-20
-4.45007e-05 -0.000142063 2.91038e-20
-0.000173312 -0.000102473 1.70985e-19
-2.46054e-05 -0.000227327 -4.00178e-20
0.000160928 -0.000118301 -5.3357e-20
0.000260977 0.000487039 6.0633e-22
0.000468621 0.000230717 -7.82165e-20
3.71913e-05 -0.000139834 -6.18456e-20
3.48092e-05 0.00013593 -2.06152e-20
-3.20981e-05 0.000238397 1.916e-19
1.93551e-05 0.000191118 2.44351e-19
0.00022577 -0.000118935 -1.16415e-19
0.000187978 -6.15923e-05 5.45697e-20
0.000187538 6.17058e-05 3.51671e-20
-0.000464706 2.10411e-08 7.51849e-20
-0.000465394 -2.07426e-08 -8.48862e-20
3.51302e-05 -0.000109958 5.6995e-20
-0.000177714 -0.000106095 1.77048e-19
0.000148199 0.000166741 -6.79089e-20
0.000149707 -0.00016622 -4.85064e-21
4.66912e-05 0.000135981 4.68087e-19
2.08338e-05 3.7441e-05 4.13517e-19
0.000523395 0.000523396 -5.82077e-20
-0.000153962 -5.27386e-05 1.12777e-19
-0.000153741 4.94353e-05 -2.42532e-21
-3.68023e-05 0.000109298 4.65661e-19
0.000225601 0.000119115 6.48773e-20
-0.000174311 8.77457e-05 3.77137e-19
-0.000224999 2.93207e-05 1.8675e-19
-0.000224788 -2.93277e-05 -3.63798e-21
-0.000136077 6.46445e-05 2.43745e-19
6.83534e-05 -0.000294732 -5.82077e-20
6.69715e-05 0.000295799 -4.60811e-20
9.11528e-05 0.000551166 1.94026e-19
-9.23478e-05 -0.000550802 -9.70128e-21
-7.1703e-05 0.000943397 2.14034e-19
-0.000944347 5.20991e-05 5.82077e-20
0.000140915 1.98621e-05 6.91216e-20
0.000140105 -2.02023e-05 5.45697e-20
-1.60438e-05 -3.99781e-05 9.94381e-20
0.000512196 0.000647427 1.00044e-20
0.000637747 0.000505556 -2.31012e-19
0.000225594 0.000544548 -2.30405e-20
0.000225379 -0.000544038 -7.39722e-20
-0.000163797 9.67142e-05 3.24993e-19
0.000140495 -0.000153203 -3.15291e-20
0.000150493 8.09645e-05 5.82077e-20
0.000150848 -8.09166e-05 2.66785e-20
0.000105712 -0.000106944 -2.06152e-20
0.000139201 0.000155571 1.11565e-19
-6.12647e-06 -0.00042483 -2.78912e-20
4.0572e-06 0.000431348 2.24342e-19
0.000452712 -2.73714e-06 -1.44913e-19
0.000105755 0.00010721 8.60988e-20
1.81259e-05 0.000445125 2.35862e-19
-0.000447733 -5.69401e-05 -7.09406e-20
0.000200936 -3.30991e-05 1.04289e-19
0.000201048 3.14829e-05 7.27596e-21
0.000191392 -6.56767e-05 9.94381e-20
0.000191111 6.59262e-05 1.09139e-20
-0.000528288 0.000656314 2.95889e-19
-0.000648216 0.000528446 1.77655e-19
0.000158608 8.67892e-05 7.51849e-20
0.000158901 -8.6625e-05 -9.70128e-21
5.4536e-05 0.000323566 2.86188e-19
-5.57353e-05 -0.000323197 -7.27596e-21
0.000146977 5.92073e-05 8.48862e-20
0.000144216 -5.86272e-05 2.18279e-20
0.000220778 -0.000210603 -1.21266e-20
0.000219907 0.000211388 -1.28542e-19
-0.000130786 3.07162e-05 1.85537e-19
-0.000133634 -3.21139e-05 1.33393e-20
0.000205626 0.000399081 -3.51671e-20
0.000304874 0.000307236 -1.04289e-19
0.000206322 -0.000397504 -6.4271e-20
0.000304769 -0.000306401 -6.91216e-20
-0.000220206 -0.000410083 -3.51671e-20
-0.000462382 -7.51934e-06 4.72937e-20
-0.000462212 6.41385e-06 1.5037e-19
0.000218369 0.000409934 3.17717e-19
0.000372123 0.000154148 6.0633e-20
0.000967875 0.000127366 -2.54659e-20
0.000371752 -0.000153992 -3.27418e-20
0.000967963 -0.000127375 -1.64922e-19
0.000479755 -8.99872e-06 6.79089e-20
0.00032593 9.28576e-05 1.29755e-19
0.000450194 -0.00014588 1.45519e-20
0.000479439 9.24015e-06 -9.09495e-20
0.000325473 -9.27108e-05 -1.12777e-19
0.000449888 0.000146076 -1.52795e-19
0.000344617 -0.000136165 5.57823e-20
0.00034871 -0.00013489 4.85064e-21
0.000344181 0.000136586 -1.60071e-19
0.000348358 0.000135285 -1.66134e-19
-7.97485e-05 -0.000219965 3.45608e-20
-3.00254e-05 0.000181963 -2.18279e-20
3.16143e-05 -0.000181095 9.58001e-20
-0.000163661 2.9853e-05 1.16415e-19
-0.000209131 5.43584e-05 9.70128e-20
-3.47165e-05 0.000236513 -9.21621e-20
3.62912e-05 -0.00023547 4.9719e-20
-0.00020928 -5.38848e-05 3.81988e-20
-7.01923e-05 -0.000110158 1.21266e-21
-0.000118144 -0.00026552 3.33481e-20
0.00011999 0.000272135 -2.72848e-20
0.000276376 0.000125133 -3.45608e-20
-0.0001533 -0.000158199 4.36557e-20
0.000153487 0.000159348 -7.03343e-20
-0.000168197 0.000100713 9.21621e-20
-7.4506e-05 -0.00015115 3.69861e-20
-2.53914e-05 -0.000145784 5.57823e-20
-1.68358e-05 -0.000241592 5.09317e-20
1.81677e-05 0.000241677 -1.37031e-19
0.000170671 2.5487e-05 -9.33748e-20
-9.09703e-05 -0.000319547 -5.45697e-21
8.6145e-05 0.000323937 -1.21872e-19
0.000335586 8.876e-05 -8.00355e-20
7.9339e-05 0.000216926 -1.27329e-20
-0.000146567 -0.000147509 5.57823e-20
-0.00015389 -3.15763e-05 5.09317e-20
-0.000230157 -0.000476775 1.06108e-20
-0.00013599 6.83991e-05 3.75924e-20
-6.83477e-06 0.000225676 -1.74623e-19
9.18953e-06 -0.000224936 3.75924e-20
-0.000507029 -0.000245755 -1.11565e-19
-0.000505836 0.000254591 1.63709e-19
-0.000110008 0.000148724 2.66785e-20
-0.000133062 0.000157491 2.00089e-20
-0.000306735 9.89255e-05 1.23085e-19
-0.000216502 -0.000104902 -6.79089e-20
-0.000207248 0.000101544 6.0633e-21
-3.55161e-05 7.28422e-05 -1.69772e-20
-6.39064e-05 -2.23727e-06 2.42532e-20
-0.000220695 0.000144148 1.81293e-19
-0.000254814 -4.00406e-05 6.60899e-20
-0.000232501 4.66994e-05 1.61284e-19
2.29796e-05 0.000147301 7.15469e-20
-7.25228e-05 0.00021864 -1.37031e-19
0.000132513 0.000154341 -3.15291e-20
-0.000516252 -0.000516238 9.15558e-20
-0.000508313 0.000508296 -6.36646e-20
4.58526e-05 0.00011856 -9.09495e-20
7.6715e-05 0.000153297 3.57735e-20
-0.000509795 0.000554448 1.36424e-20
-0.000537837 -0.000517281 6.97279e-21
0.000263104 -5.22606e-05 -4.48684e-20
0.000264738 4.85327e-05 -9.82254e-20
0.000124658 4.25296e-05 -8.00355e-20
0.000246774 -0.00016719 -5.6995e-20
0.000247977 0.00016642 -8.24609e-20
-0.000214743 -0.000396959 -1.37031e-19
-0.000214857 0.000394006 -9.21621e-20
0.000182538 -0.000106616 -8.12482e-20
0.000182123 0.000104621 -8.36735e-20
-0.000240104 0.000372756 -2.04939e-19
0.000244988 -0.00037355 -6.0633e-21
0.000126997 -0.000151621 1.81899e-20
0.000249719 0.000471845 -7.88229e-21
0.00047399 0.000249794 -5.21444e-20
1.93963e-05 0.000146548 0
-1.95875e-05 -0.000144426 6.4271e-20
0.000513479 -0.000212692 -6.4271e-20
0.000519756 0.000215262 -1.26117e-19
-0.000210724 -0.000146433 5.03254e-20
2.77283e-05 -4.6365e-05 7.88229e-20
0.000172566 9.35851e-05 -5.57823e-20
0.000173046 -9.42119e-05 -8.48862e-20
-0.000106126 -7.22509e-05 8.48862e-21
-4.35354e-05 -0.000115338 5.6995e-20
-0.000193637 0.000161571 1.33393e-20
-0.000295841 -6.69676e-05 1.0732e-19
-0.000222837 0.00038591 -6.18456e-20
-0.000223625 -0.000387346 -1.11565e-19
-0.000166596 -0.000102717 8.00355e-20
0.000166925 8.87973e-05 -8.06419e-20
-0.000236719 -0.000257318 -1.57646e-20
4.2254e-05 -0.000422865 4.12304e-20
-4.05249e-05 0.000421293 -3.39545e-19
-0.000200321 -0.000177483 -7.51849e-20
1.52977e-05 0.000193306 -3.63798e-20
-1.31454e-05 -0.000193121 9.70128e-20
0.00012194 4.06929e-05 -3.39545e-20
0.000124482 -4.50553e-05 -8.36735e-20
0.000279553 -0.00021008 -8.12482e-20
0.000210064 4.52628e-05 -8.24609e-20
0.000150813 -0.000141375 -8.12482e-20
0.000149728 0.000140741 -4.48684e-20
0.000170024 -9.17531e-05 -8.79178e-20
7.95728e-05 -0.000212682 1.45519e-20
0.00011357 -0.000102283 -1.03076e-19
0.000110025 9.88675e-05 -2.54659e-20
-0.000180191 -8.05065e-05 2.42532e-21
-0.000189421 0.000149039 2.54052e-19
9.23284e-05 7.14173e-05 4.48684e-20
-7.89247e-05 1.91685e-05 4.00178e-20
-2.911e-05 4.93037e-05 1.11565e-19
0.000225047 3.73603e-05 -4.66874e-20
-0.000317889 0.00030959 1.90084e-19
-0.000175604 -0.00010486 -6.0633e-21
-0.000181524 8.60448e-05 8.60988e-20
-0.000432198 7.06326e-05 1.2551e-19
-0.000168308 0.000102733 1.75836e-19
-2.4992e-06 -0.000198653 6.91216e-20
3.7319e-06 0.000199316 -7.03343e-20
-0.00014939 -0.000177519 1.63709e-20
0.000276072 -0.000118975 -1.38243e-19
-0.000104899 7.8175e-05 -3.15291e-20
0.000137147 -0.000215435 -3.03165e-21
-0.000144048 0.000232314 1.95845e-19
-0.000172785 -0.000102234 2.54659e-20
-6.97102e-05 -0.000109684 -6.30583e-20
-7.12504e-05 0.000117145 1.69772e-20
-4.28967e-05 -0.000204006 1.81899e-21
3.99246e-05 0.000208774 -3.45608e-20
2.48984e-05 -0.000281741 -1.75836e-20
-3.71771e-05 0.00029007 -1.39456e-20
0.000294041 -3.20104e-05 -1.18841e-19
0.000195465 -0.000130739 -9.70128e-21
0.00028936 -0.000501222 -2.42532e-21
-0.000288638 0.000499975 -2.92251e-19
-0.000207136 -0.000124932 6.91216e-20
0.000217668 -4.80876e-05 -7.88229e-20
-0.000328917 -0.000260797 6.39678e-20
3.23337e-05 0.000116759 2.91038e-20
0.000127811 -4.75342e-05 -6.79089e-20
6.05069e-05 -0.000117422 9.70128e-20
-6.2019e-05 0.00012065 5.94203e-20
0.000194784 0.000274526 5.6995e-20
0.00028972 0.000194952 7.88229e-20
9.7218e-05 -7.36703e-05 -1.69772e-20
-0.000414635 -1.86961e-05 9.70128e-20
6.78427e-05 -1.67482e-05 2.78912e-20
-3.30776e-05 -0.000118801 2.30405e-20
5.92707e-05 1.51273e-06 -8.97368e-20
-6.86871e-05 -1.77257e-05 -6.30583e-20
-0.000157145 -0.000149912 2.42532e-20
7.71627e-05 -0.000311502 -3.57735e-20
-7.38178e-05 0.000310934 1.21266e-21
0.00031852 -8.36636e-05 -1.1399e-19
0.000196179 -0.000150662 -3.03165e-21
2.35876e-06 0.000226925 -6.30583e-20
-1.04059e-06 -0.000227936 1.09139e-20
0.000156767 -0.000282451 -3.27418e-20
-0.000148882 0.000297322 2.61934e-19
2.20716e-05 5.79241e-05 -6.79089e-20
2.10868e-05 -6.14834e-05 -8.36735e-20
0.000110293 8.34359e-05 3.27418e-20
7.51328e-05 0.000108373 -1.58858e-19
-0.000161596 9.91127e-05 3.03165e-20
0.000206468 0.000104017 -2.91038e-20
0.000206001 -0.000105924 -9.09495e-20
0.000172837 -9.6599e-05 -8.60988e-20
0.000172477 9.46277e-05 -9.58001e-20
-0.000100129 -0.00093237 -3.00133e-20
0.000137043 0.000214177 3.15291e-20
-0.000960394 0.000112512 1.54614e-20
-0.000121485 -9.0414e-05 1.09139e-20
4.19758e-05 -0.000207324 -3.03165e-21
-3.60818e-05 0.000213696 -9.64064e-20
0.000327655 -0.00029787 5.3357e-20
0.000330837 0.000299879 -8.36735e-20
0.000179468 0.00011574 -5.8814e-20
0.000210463 -5.22921e-05 -1.03076e-19
0.000195581 0.000135812 2.54659e-20
-1.27172e-05 0.000179248 -4.72937e-20
1.32345e-05 -0.000180295 1.09139e-19
6.61313e-05 1.759e-05 2.42532e-21
0.00017913 -0.00011663 -4.06241e-20
-3.21087e-05 -5.33832e-05 4.36557e-20
-0.000155958 0.000126799 -7.76102e-20
0.000159566 -0.000123904 3.51671e-20
0.000110459 -8.15146e-05 -1.81899e-20
-0.000123244 -8.3832e-05 -7.88229e-21
2.53015e-05 5.42309e-05 6.54836e-20
4.09161e-05 0.000206031 -6.0633e-20
-4.23582e-05 -0.000205528 1.45519e-20
0.0001575 9.67999e-05 -8.85242e-20
0.000196455 0.000148681 3.15291e-20
-6.92942e-05 0.000150364 -1.75229e-19
-7.17661e-05 -0.000105447 7.63976e-20
0.00025145 0.000455924 -3.72893e-20
0.000462665 0.000250856 -1.07624e-19
-0.000287547 0.000215062 2.93464e-19
0.00015818 -9.87172e-05 -8.85242e-20
0.000172353 -3.15667e-05 -9.33748e-20
0.000538838 0.000261193 -4.48684e-20
0.000532968 -0.000259603 -5.21444e-20
3.50644e-05 -0.000118333 6.54836e-20
-0.000294132 -0.000201155 -1.12777e-19
-0.000288604 0.000205541 8.48862e-20
-0.000122258 5.23464e-05 6.48773e-20
-3.06853e-05 4.59721e-05 -1.5522e-19
-0.000242102 0.000322986 9.54969e-20
-0.000303926 -0.000259801 -2.12215e-21
0.000260337 -0.00037277 -9.27685e-20
-0.000236711 0.000386507 1.18841e-19
0.000389975 -0.000227407 -1.2551e-19
-0.000265677 -0.00014385 9.51938e-20
2.70589e-05 -4.62207e-05 3.39545e-20
-3.18484e-05 -0.000417077 -8.91305e-20
-0.000394762 3.51435e-06 -1.94026e-20
0.00022902 0.000313953 -2.31618e-19
-0.000229033 -0.000313192 -6.0633e-21
-0.000141545 0.000111959 8.48862e-21
-6.20056e-05 -4.5349e-06 -4.36557e-20
-0.000140967 0.000230016 1.6189e-19
0.0001491 -0.000225516 -1.15203e-20
-0.00014103 -4.17918e-05 4.12304e-20
7.52473e-05 -0.00014969 6.73026e-20
0.000224021 -0.000175745 -5.21444e-20
0.000224921 0.000175054 -1.11565e-19
-0.000173329 9.12081e-05 1.57646e-20
-0.000107895 7.95855e-05 -1.11565e-19
-0.000139161 6.46578e-05 7.27596e-21
-3.19583e-05 0.000129575 -1.8008e-19
0.000534187 0.000534203 -1.44913e-19
3.90562e-05 -0.000213813 2.66785e-20
-3.62533e-05 0.000213325 -9.76191e-20
-4.02604e-05 0.000421635 -4.36557e-19
4.28225e-05 -0.000422128 3.75924e-20
6.04912e-05 -0.000112963 -1.03076e-19
5.992e-05 0.000107267 -2.91038e-20
-0.000205464 -0.00010805 -3.75924e-20
-0.00020109 0.000104056 9.70128e-21
-0.000356684 6.48623e-05 -6.54836e-20
-0.000351993 -6.6503e-05 5.09317e-20
0.000473154 -0.000263105 1.21266e-21
0.00047989 0.000264643 7.27596e-21
0.000129466 4.82459e-06 -2.30405e-20
0.000123196 -4.6828e-06 -3.75924e-20
0.000185991 8.58763e-05 -8.24609e-20
-1.13529e-05 0.000188345 -1.0732e-19
1.24458e-05 -0.0001849 7.45786e-20
0.000184809 -8.94289e-05 -4.66874e-20
-2.05453e-05 -0.00019517 6.73026e-20
2.01749e-05 0.000193625 -1.57646e-20
0.000160868 0.000119255 -1.15203e-20
-0.000129931 1.91318e-07 4.85064e-20
-0.000131245 -1.51624e-06 -2.30405e-20
0.000160746 -0.000119842 -4.18368e-20
-0.000137523 -0.000118694 -3.27418e-20
0.000234569 0.000406361 -3.26205e-19
-0.000234599 -0.000406374 -2.42532e-20
-4.28774e-05 -0.000142007 9.45875e-20
-0.000172626 0.000101004 6.0633e-21
-2.45651e-05 0.00022743 -1.57646e-20
0.000271524 -0.000478971 -1.12474e-19
0.00047141 -0.000224305 -1.1975e-19
3.90217e-05 -0.000139624 -9.45875e-20
3.56592e-05 0.000135806 -8.48862e-21
-3.21469e-05 -0.000238661 -1.11565e-19
0.000227431 0.000118445 -5.82077e-20
0.000188003 -6.27352e-05 -1.27329e-19
0.000187745 5.98899e-05 -5.82077e-20
-0.000464609 -3.37151e-08 2.42532e-21
-0.000465426 1.26932e-08 2.49808e-19
3.64991e-05 -0.000110001 8.73115e-20
-0.00017386 0.000101963 8.73115e-20
0.000149126 0.000165126 -9.94381e-20
0.000150265 -0.00016588 -8.00355e-20
4.73431e-05 0.000137303 -9.94381e-20
2.42845e-05 3.95234e-05 -1.63709e-19
0.000518559 -0.000518552 -1.64922e-19
-0.0001567 5.17856e-05 -4.85064e-21
-0.000153821 -4.84843e-05 -3.03165e-20
-3.53637e-05 0.000112166 -1.56433e-19
0.000222306 -0.000119831 -7.03343e-20
-0.000174487 -8.75527e-05 -8.48862e-21
-0.000227685 -2.43375e-05 -1.33393e-20
-0.000223724 3.75986e-05 5.82077e-20
-0.000136479 -6.39522e-05 -3.63798e-21
6.76163e-05 0.000294675 -9.45875e-20
6.98168e-05 -0.000292675 -5.57823e-20
9.19446e-05 0.000551206 -4.30494e-19
-9.08218e-05 -0.0005524 2.42532e-21
4.2815e-05 0.000925216 -1.33393e-20
0.000932995 6.42678e-05 -2.05243e-19
0.000140638 -2.18362e-05 -9.33748e-20
0.000140234 1.78939e-05 1.21266e-21
-1.43964e-05 -4.04052e-05 6.66963e-20
0.000505848 -0.000630763 -2.67088e-19
0.000615266 -0.000503644 -1.20963e-19
0.000225974 0.000545416 6.66963e-20
0.000223898 -0.000540415 5.45697e-20
-0.000163983 -9.66161e-05 -3.63798e-21
0.000140952 -0.00015369 -3.63798e-20
0.000151259 -8.18588e-05 -9.21621e-20
0.000149902 7.95663e-05 -4.00178e-20
0.000106386 -0.000107825 -4.00178e-20
0.000139494 0.000155561 -3.88051e-20
-1.11976e-05 0.000409295 -2.18279e-20
-5.39312e-06 -0.000444833 -2.60722e-20
0.000425057 -1.39742e-05 -1.36424e-19
0.000105842 0.000106268 -9.70128e-21
-4.47565e-05 0.000452575 -3.6683e-20
0.000447374 -3.31491e-05 -1.87962e-20
0.000200746 -3.4578e-05 -8.36735e-20
0.000200522 2.95483e-05 -5.82077e-20
0.000191331 -6.6717e-05 -8.24609e-20
0.000190743 6.34324e-05 -5.09317e-20
0.000523963 0.000644642 -1.82505e-19
0.000647751 0.000524493 -1.97967e-19
0.000158754 8.59188e-05 -1.94026e-20
0.000159355 -8.75975e-05 -6.79089e-20
5.54073e-05 0.000324054 -2.97102e-19
-5.39795e-05 -0.00032338 4.36557e-20
0.000147519 5.64706e-05 -5.82077e-20
0.000141986 -6.33006e-05 -8.85242e-20
0.000220309 -0.000209608 -7.03343e-20
0.000221071 0.000209986 -1.24904e-19
-0.00013184 -3.11384e-05 -3.15291e-20
-0.000140243 3.46055e-05 5.3357e-20
-0.000219007 -0.000410421 -3.63798e-21
-0.0004618 -7.2339e-06 2.54659e-20
-0.000462161 8.14133e-06 9.33748e-20
0.000219068 0.000410384 -4.0139e-19
0.000206615 0.000398215 8.73115e-20
0.000305829 0.000306411 9.70128e-21
0.000205882 -0.000394022 -6.4271e-20
0.000302746 -0.000304378 7.27596e-21
0.000367983 0.000152443 -7.76102e-20
0.000376992 -0.000156127 -9.09495e-20
0.00097257 -0.00012802 -1.64922e-19
0.000960792 0.000126468 -1.40669e-19
0.000475617 -1.06976e-05 -5.09317e-20
0.000324034 8.96677e-05 -6.91216e-20
0.000483639 5.56241e-06 -1.07927e-19
0.000327113 -9.81003e-05 -1.17628e-19
0.000453284 0.000146054 -3.03165e-20
0.00044663 -0.000144939 -1.21266e-21
0.00034247 -0.000136214 -7.27596e-21
0.000346587 -0.000134932 3.27418e-20
0.000346078 0.000134589 -9.82254e-20
0.000350207 0.000133303 -8.73115e-20
-2.90195e-05 0.000180883 -1.33393e-20
2.23589e-05 -0.000199376 -7.03343e-20
-0.000162286 -3.1719e-05 -1.54614e-19
-0.000203324 -5.59228e-05 -1.46125e-19
-3.35901e-05 0.000234001 -3.51671e-20
2.02458e-05 -0.000223966 -3.51671e-20
-0.000217153 5.21623e-05 -1.33393e-19
-6.75143e-05 0.00010865 -1.04289e-19
-0.000114975 0.000282255 -9.70128e-20
-0.000109948 -0.000275708 -1.03076e-20
0.000281884 0.000113302 9.21621e-20
0.000158839 -0.000149286 6.18456e-20
0.000152124 0.000157741 1.26117e-19
-0.000158154 -0.000106985 -7.27596e-21
4.43569e-05 -0.000218882 1.21266e-21
1.82009e-05 0.000239131 7.76102e-20
0.000169457 -3.98628e-05 -7.63976e-20
-7.57446e-05 -0.000340362 -2.66785e-20
-9.19812e-05 0.000326404 -8.36735e-20
0.000336268 7.8269e-05 6.12393e-20
-0.000225099 4.86669e-05 -1.84931e-19
8.54835e-05 0.000212266 -1.00044e-19
0.000106582 -0.00024193 -1.63709e-19
-0.000153138 2.65061e-05 -1.21872e-19
-0.000231223 -0.000501595 -1.72501e-19
-0.000131029 -6.90762e-05 -1.43094e-19
0.000500819 0.000237739 7.54881e-20
-6.35223e-06 0.000223416 7.27596e-21
4.01875e-05 -0.000216214 -3.63798e-21
-0.000505036 0.000245522 -7.76102e-20
-0.000491407 -0.000254324 7.39722e-20
-0.000330144 0.000103826 -2.1646e-19
-0.000102029 -0.00015145 3.51671e-20
-0.000198117 -0.000104925 -1.57646e-20
-0.000213831 0.000103988 -1.90388e-19
-3.35702e-05 -7.33773e-05 -1.28542e-19
0.000132064 0.000150188 -2.18279e-20
0.000145355 -0.000190238 -1.92813e-19
-0.000211615 0.000138337 -2.23129e-19
-6.11355e-05 -8.16841e-07 -1.1399e-19
-0.00013602 -0.000162357 1.09139e-20
-0.000139231 0.000147899 -1.7341e-19
-5.99577e-05 -0.000224485 3.63798e-20
-7.69015e-05 0.000214829 -1.01863e-19
6.71132e-05 -0.000179163 -7.03343e-20
2.4818e-05 0.000146242 -7.76102e-20
-0.000215938 0.000137964 -2.43138e-19
-0.00053875 -0.000538791 -1.10352e-19
0.000535248 0.000535317 -4.54747e-21
5.72479e-05 -0.000110827 8.36735e-20
4.56967e-05 0.000117438 1.20053e-19
0.000537408 0.000572037 9.09495e-22
-0.000563326 -0.000539979 -3.60766e-19
0.000259254 4.53064e-05 6.54836e-20
0.000208725 -0.000113673 1.09139e-20
0.000120977 -5.73372e-05 -1.27329e-19
0.000243037 0.000159344 -3.51671e-20
0.000198749 -0.000183941 5.57823e-20
8.06204e-05 0.000151222 -1.26117e-19
0.000102259 -0.000187782 -8.97368e-20
-0.0002062 -0.00039403 5.57823e-20
-0.000212181 0.000398199 3.88051e-20
0.000180094 9.8457e-05 -3.27418e-20
0.000165052 -0.000138807 -1.47944e-19
-0.00029133 0.000122285 -2.00695e-19
-0.00023697 0.000368589 2.54659e-20
-0.000105619 -0.000301336 -2.91038e-20
-0.000258819 0.000484415 -1.09443e-19
-0.000492444 0.000255513 -9.24653e-20
2.06076e-05 0.000145347 -6.66963e-20
5.43614e-05 -0.000176453 -4.48684e-20
0.000506727 0.000209951 -2.2798e-19
0.000399095 -0.000165244 4.12304e-20
0.000171665 8.3439e-05 -8.48862e-20
0.000162222 -0.000114954 -1.09139e-19
-0.000305096 -6.97603e-05 -2.08577e-19
0.000216124 -6.48892e-05 -2.30405e-20
-0.000260056 -4.11425e-05 -1.57646e-19
-0.000185038 -0.000162597 -7.63976e-20
-0.000223122 0.000386359 9.82254e-20
-0.000219627 -0.00038041 9.45875e-20
-0.000229703 -0.00026715 -4.30494e-20
-0.00017052 9.7905e-05 -1.43094e-19
0.000168935 8.12403e-05 2.42532e-20
3.35546e-06 -0.000327841 4.60811e-20
-3.97761e-05 0.000416556 -1.54008e-19
-0.00019762 0.000176704 -1.41881e-19
4.30213e-05 -0.000196079 -6.0633e-21
1.54047e-05 0.000191281 8.24609e-20
0.000122321 3.21419e-05 -2.99527e-19
0.000112432 -5.19622e-05 -1.38243e-19
0.000293041 -0.000241035 -1.38243e-19
0.000147122 0.00012997 -3.32269e-19
0.000129399 -0.000149375 -8.36735e-20
0.000163354 -0.000115971 -9.21621e-20
0.000110772 9.19142e-05 -2.43745e-19
0.000100303 -0.000118543 -9.94381e-20
-0.000177185 7.92589e-05 -1.10352e-19
9.24315e-05 6.8496e-05 3.39545e-20
0.000111761 -0.000131014 -8.12482e-20
-0.000213197 -0.000150988 -6.66963e-20
3.32463e-05 -0.00011536 -3.03165e-20
-2.73085e-05 4.8018e-05 -1.09139e-20
0.000227752 2.80074e-05 7.57912e-20
-0.000173798 0.000102797 -1.07927e-19
-0.00018053 -8.87946e-05 -1.28542e-19
-0.00013701 -0.000184271 -4.30494e-20
-0.000158446 -0.000114686 -4.48684e-20
2.95531e-05 -0.000203078 -3.88051e-20
3.34925e-06 0.000197544 1.21266e-21
0.000288758 -0.000135952 -1.49157e-19
-0.000103852 7.085e-05 -1.43094e-19
-9.57501e-05 -8.27643e-05 5.09317e-20
0.000152097 -0.000246139 -2.13428e-19
0.000139635 0.000213338 3.03165e-21
-0.00016864 9.80081e-05 -1.41881e-19
-6.61031e-05 0.000107263 -4.9719e-20
-6.54969e-05 -0.000112966 -9.82254e-20
-0.000159299 0.000150607 -1.3218e-19
3.602e-05 -0.000301572 -1.5522e-19
3.95564e-05 0.000288172 -1.36424e-19
0.000299152 -2.86035e-05 -3.09228e-20
0.000295674 0.000204206 3.94114e-20
0.000203428 -0.000156558 -9.82254e-20
-0.000232404 -0.000402606 4.36557e-20
-0.000285488 0.000494464 -1.51582e-19
0.000221421 -6.18758e-05 -4.00178e-20
3.46507e-05 0.000113623 -5.09317e-20
7.19763e-05 -0.000163022 -8.73115e-20
0.00012649 3.51896e-05 -1.46732e-19
-2.68189e-05 -0.000215202 -2.42532e-20
-4.03086e-05 0.00020419 -5.57823e-20
-6.01291e-05 0.000119163 5.6995e-20
1.70294e-05 -0.000150523 -2.30405e-20
6.85086e-05 -1.74407e-05 8.48862e-20
9.71465e-05 -7.85491e-05 -2.66785e-20
5.7012e-05 -1.08343e-05 -3.40757e-19
0.000196177 0.000131236 4.72937e-20
-6.0781e-05 1.34457e-05 6.4271e-20
-7.34749e-05 -2.01552e-05 -1.67347e-19
0.000197037 0.000142652 3.03165e-20
-0.000226092 0.000274965 -2.36469e-19
-0.000117968 8.96429e-05 -8.00355e-20
9.83778e-05 -0.000335061 -2.55871e-19
8.35123e-05 0.000311783 -9.94381e-20
0.000334193 -0.000100022 -8.91305e-20
0.000205008 -0.000181714 -1.04289e-19
1.86582e-06 0.000227293 -1.94026e-20
2.74762e-05 -0.000244837 -4.12304e-20
0.000169204 -0.000307616 -2.49808e-19
0.000159361 0.000272895 -5.82077e-20
2.05143e-05 4.92486e-05 -4.47471e-19
1.885e-05 -7.04468e-05 -1.81899e-19
0.000110389 8.04948e-05 -6.0633e-21
0.000124966 -0.000139835 -1.04289e-19
7.74976e-05 -0.000103784 9.94381e-20
7.44395e-05 0.000107175 4.36557e-20
-0.00015157 -0.000104794 8.48862e-21
-0.000324049 -0.000264831 -1.67347e-19
6.03563e-05 -0.000239764 -1.61284e-19
4.30254e-05 0.000210272 -7.21532e-20
0.000202083 9.78013e-05 -1.05501e-19
0.000168699 -0.000138725 -7.51849e-20
0.000178445 -0.000151907 -1.87356e-19
0.000171159 8.92299e-05 -5.3357e-20
0.000160564 -0.000134137 -1.69772e-19
-9.98949e-05 -0.000977617 -1.53705e-19
0.000970152 0.000140717 9.91349e-20
0.000322853 0.000290575 -1.83112e-19
0.000253319 -0.000281248 9.70128e-20
0.000179296 0.000110182 5.76013e-20
-0.000406116 -3.08829e-05 -2.13731e-19
4.10956e-06 -0.000176536 3.15291e-20
-1.27899e-05 0.000177118 7.63976e-20
-0.00014742 0.00021506 -2.55265e-19
-0.000153717 0.000125284 -5.09317e-20
-5.56546e-05 -0.000155281 -3.75924e-20
-0.000210758 -0.000143443 -1.10352e-19
0.000206158 3.98249e-05 -7.27596e-21
2.64069e-05 5.28955e-05 1.21266e-20
7.29656e-05 -0.000118963 -3.63798e-21
-5.79072e-05 -0.000154473 4.24431e-20
-7.20686e-05 0.00014816 -8.06419e-20
0.000157315 9.12343e-05 3.63798e-21
0.000158254 -0.000134472 -1.84324e-19
4.4225e-05 0.000207351 -6.66963e-20
6.56541e-05 -0.000226859 -6.91216e-20
-0.000260472 0.000465788 9.70128e-21
-0.000464176 0.000258302 -8.48862e-20
0.000172339 1.99799e-05 -1.21266e-21
0.000524832 0.000253535 -2.53446e-19
0.000428953 -0.000237088 9.70128e-21
-0.000292002 0.000200905 -2.17066e-19
-0.000277126 -0.000205925 6.0633e-20
-0.000119948 -5.61208e-05 -1.6189e-19
-2.25417e-05 -5.06045e-05 6.4271e-20
-2.85555e-05 4.57909e-05 -1.15203e-19
0.000266168 0.000331565 2.24342e-20
-0.000311641 -0.000264251 -2.59206e-19
0.000274486 -0.000399421 -2.45564e-19
0.000269515 0.000379183 -5.09317e-20
0.000417405 -0.000252852 -1.54008e-19
-2.86342e-05 -0.000438692 -2.12519e-19
0.000438452 2.17347e-05 1.75836e-20
0.00022683 0.000310672 6.4271e-20
0.000219231 -0.000272867 8.73115e-20
-0.000136346 -0.000116219 -9.70128e-20
-5.92114e-05 1.50917e-06 -1.12777e-19
0.000163257 -0.000256869 -3.15291e-19
0.000153943 0.000226925 -6.91216e-20
-0.000138307 3.87589e-05 -1.33999e-19
0.000219138 0.00016833 -1.39456e-19
0.000177482 -0.000191898 9.45875e-20
-0.000166379 -9.62168e-05 -3.15291e-20
-0.00011992 8.04883e-05 -1.29755e-19
-0.000100568 -8.50635e-05 8.24609e-20
-0.000131467 -6.85589e-05 -1.45519e-19
-0.000258298 -0.000154 -1.43094e-19
-3.47437e-05 0.000118653 -1.27329e-19
-2.03043e-05 -0.000128125 7.15469e-20
-0.000539815 0.000539752 1.39456e-19
-3.80005e-05 0.000210259 -1.51582e-20
-2.38447e-05 -0.000222914 -3.63798e-20
-3.93917e-05 0.000417054 -2.41319e-19
1.79338e-05 -0.000346741 4.60811e-20
5.67403e-05 9.67697e-05 -4.83851e-19
5.25211e-05 -0.000113958 -4.85064e-20
-0.000190452 -0.00010805 -2.42532e-21
-0.000202792 0.000107137 -1.38243e-19
-0.000339215 6.05246e-05 9.09495e-20
-0.000354651 -6.54784e-05 -1.78261e-19
0.000468571 0.000256824 -2.78912e-20
0.000346351 -0.000241936 2.06152e-20
0.000122186 -5.73491e-06 1.58858e-19
0.00012884 -8.54554e-05 -1.33393e-20
0.000187078 7.85811e-05 7.51849e-20
6.29641e-06 -0.000191577 6.85153e-20
-1.15242e-05 0.000185832 -1.81899e-21
0.000171478 -0.000153165 -1.71591e-19
-0.000296679 0.000201126 -2.37075e-19
0.000186957 -0.000112057 -1.24298e-19
0.000163105 0.000112397 4.79001e-20
-0.000128249 -2.35707e-06 -1.916e-19
-0.000120898 -4.00093e-06 4.36557e-20
-0.000133748 0.000116912 -1.21266e-19
0.000232107 0.000402141 -2.18279e-20
0.000203779 -0.000352919 -1.45519e-20
-0.000166031 -0.000106691 -5.82077e-20
-1.6732e-05 -0.000228139 -5.94203e-20
0.00028576 -0.00050639 -2.99527e-19
0.000492874 -0.00024959 -1.9736e-19
3.12828e-05 0.000128385 -4.1958e-19
2.69346e-05 -0.000143287 -3.15291e-20
-2.78965e-05 0.000238442 -9.45875e-20
5.47748e-05 -0.000218751 -4.12304e-20
2.10392e-05 0.00019007 -9.88318e-20
0.000229168 0.000111481 8.97368e-20
0.000185375 5.6413e-05 6.91216e-20
0.000167402 -0.000120077 -1.30967e-19
-0.000451044 -1.31688e-08 5.3357e-20
-0.000462645 -3.37779e-08 2.91038e-20
-0.000171376 -0.000110595 -7.03343e-20
0.000146491 0.000157593 -1.94026e-19
0.000128664 -0.000181353 -5.3357e-20
4.69634e-05 0.000135582 4.85064e-20
5.9407e-05 -0.000138087 6.54836e-20
3.32558e-05 -4.40424e-05 4.60811e-20
2.10962e-05 3.74491e-05 -6.18456e-20
0.000543898 -0.000543834 -1.46732e-19
-0.000143864 4.27606e-05 4.48684e-20
-0.000152844 -5.22791e-05 -2.08577e-19
-3.6282e-05 0.000108974 -7.63976e-20
-2.33165e-05 -0.000113069 7.88229e-20
0.0002313 -0.000145368 -8.79178e-20
-0.000172932 8.73271e-05 -1.01863e-19
-0.000214517 -3.98168e-05 3.63798e-21
-0.000223451 2.92725e-05 -1.66134e-19
-0.000133612 6.25742e-05 -9.21621e-20
6.27993e-05 0.000285064 -4.34132e-19
5.39665e-05 -0.000277547 5.09317e-20
9.12338e-05 0.000545193 -3.9654e-19
0.000109551 -0.00044863 4.9719e-20
-5.43391e-05 0.000963928 -4.15336e-20
-0.000959426 4.4353e-05 -2.32831e-19
0.00013944 1.59877e-05 9.09495e-20
0.000141663 -9.76002e-05 -1.33393e-19
0.000532896 -0.000661822 -2.52233e-19
0.000663549 -0.000525216 -1.19144e-19
0.000188738 -0.000455418 2.54659e-20
0.000219803 0.000530642 -5.48122e-19
-0.000162614 9.61284e-05 -8.85242e-20
0.000148758 7.54626e-05 8.24609e-20
0.000146864 -0.000130758 -1.75836e-19
0.000140323 0.00015164 -1.09139e-20
0.000149561 -0.000190976 -1.83112e-19
3.8827e-06 -0.000472531 -2.48595e-19
1.06619e-05 0.000412561 -1.64315e-19
0.000470754 -8.25618e-06 -6.30583e-20
0.000106362 0.000102413 -1.09139e-20
0.000122705 -0.00015215 -2.01301e-19
4.63051e-05 0.00045507 -1.35818e-19
-0.000452055 -6.70232e-05 -1.99179e-19
0.000197458 2.72007e-05 1.45519e-19
0.000173951 -0.000103837 -7.39722e-20
0.0001881 5.96322e-05 1.18841e-19
0.000168794 -0.000121721 -1.09139e-19
-0.000531396 0.000651299 1.75836e-19
-0.000657302 0.000530387 -5.27507e-20
0.000158326 8.23282e-05 4.12304e-20
0.000157781 -0.000138593 -2.34043e-19
8.25441e-05 -0.000280826 8.24609e-20
5.51276e-05 0.000320653 -1.96451e-19
0.000140554 -6.30494e-05 2.41319e-19
0.000140125 -5.02126e-05 1.21266e-20
0.00021558 0.000200741 -2.78912e-19
0.000175444 -0.000210469 7.51849e-20
-0.000128615 -4.11817e-05 7.27596e-21
-0.000129865 3.06629e-05 -1.07927e-19
0.000211178 -0.000350998 2.18279e-20
-0.000446238 -1.19814e-05 7.63976e-20
-0.000459991 6.76941e-06 -7.76102e-20
0.000216981 0.000406065 7.76102e-20
0.000200227 0.000387429 -5.60249e-19
0.00029782 0.000297114 -3.33481e-19
0.000163869 -0.000359381 8.97368e-20
0.000246269 -0.000283091 9.33748e-20
0.000369093 -0.000152827 1.07927e-19
0.00094825 -0.000124708 -8.85242e-20
0.000746763 9.84606e-05 7.27596e-20
0.00021442 8.88711e-05 3.39545e-20
0.000472606 4.13188e-06 1.16415e-19
0.000320212 -9.68104e-05 1.97664e-19
0.000442814 0.000141992 -7.39722e-20
0.000329382 -8.53534e-05 -3.39545e-20
0.000320466 -0.000126666 4.12304e-20
0.00024616 -3.02582e-05 -8.48862e-21
0.000338631 0.000129296 7.39722e-20
0.000341723 0.000128333 -3.15291e-20
0.000257162 -0.000164903 1.81899e-20
0.000267185 -0.000161779 2.18279e-20
2.9327e-05 6.45559e-06 -8.48862e-20
2.44368e-05 1.4433e-05 1.05501e-19
6.73036e-05 -1.70288e-06 3.15291e-20
2.35272e-05 -3.34686e-06 7.03343e-20
2.38344e-05 -3.17777e-06 1.04289e-19
2.1263e-05 5.13245e-05 6.0633e-20
7.0726e-05 -4.15373e-05 4.00178e-20
2.27503e-05 4.59922e-06 1.11565e-19
6.17126e-05 5.21451e-05 -2.78912e-20
2.54652e-05 2.72999e-06 -3.75924e-20
2.56679e-05 -2.46116e-06 -1.09139e-20
2.20313e-05 4.5823e-08 6.18456e-20
0.000138162 -3.45965e-06 7.27596e-20
-1.40999e-05 -2.56369e-05 5.3357e-20
2.93926e-05 1.6861e-05 -5.21444e-20
4.82981e-05 1.59295e-05 -2.66785e-20
5.87726e-05 4.47947e-05 7.03343e-20
3.08141e-05 -5.30907e-05 4.48684e-20
1.84868e-05 1.75164e-06 -2.37681e-19
2.67438e-05 2.47848e-07 1.57646e-20
2.6839e-05 -2.12496e-07 -6.54836e-20
2.07795e-05 8.53682e-07 4.60811e-20
2.18782e-05 1.46891e-05 -8.00355e-20
1.727e-05 2.18899e-06 1.11565e-19
9.40041e-06 1.40373e-05 -2.30405e-20
2.33333e-05 3.86061e-06 -1.45519e-20
2.58185e-05 3.37505e-06 7.51849e-20
2.39323e-05 -1.10175e-07 2.30405e-20
2.96695e-05 -3.10149e-05 4.85064e-20
2.08063e-05 -6.44247e-07 4.48684e-20
5.09503e-05 3.97874e-05 4.00178e-20
5.71302e-05 -3.62509e-05 6.18456e-20
-0.000260036 -0.000132212 -3.39545e-20
-0.000260631 0.000125168 4.00178e-20
2.04979e-05 4.93952e-07 1.29755e-19
1.26492e-05 1.78805e-05 -2.18279e-20
-4.99349e-05 -1.59315e-05 2.42532e-20
-5.79507e-05 1.86587e-05 5.57823e-20
7.77195e-05 -3.31367e-05 3.03165e-20
2.3853e-05 3.16782e-06 -5.09317e-20
1.65026e-05 -2.91452e-06 7.51849e-20
6.4761e-05 -1.75521e-07 -1.45519e-20
2.19544e-05 -1.41808e-05 -3.75924e-20
2.91276e-05 -6.4779e-06 -7.39722e-20
1.57396e-05 1.19284e-05 8.97368e-20
2.06399e-05 -2.55762e-06 3.27418e-20
2.92929e-05 -4.70245e-06 -8.48862e-21
2.50101e-05 -9.49698e-06 3.15291e-20
8.03917e-05 -2.53382e-05 1.57646e-20
2.55179e-05 -9.18917e-07 -1.21266e-21
1.97225e-05 -5.16421e-06 -6.0633e-21
4.0296e-05 -2.20474e-06 -1.77048e-19
4.03166e-05 2.18588e-06 -1.1399e-19
1.31346e-05 3.73338e-06 -2.43745e-19
3.77568e-05 -2.00732e-05 -1.10352e-19
3.77726e-05 2.00882e-05 -1.26117e-19
2.35888e-05 7.06499e-06 2.18279e-20
-6.745e-05 -0.000247828 2.91038e-20
-6.77574e-05 0.000248721 7.88229e-20
2.7636e-05 -9.20193e-06 -1.20053e-19
2.76166e-05 9.19959e-06 -1.54008e-19
2.05889e-05 5.37229e-07 6.0633e-20
0.000190304 -0.000129109 1.10352e-19
-4.61873e-05 0.000106462 -4.85064e-21
2.385e-05 -3.16056e-06 6.66963e-20
2.40981e-05 -2.54641e-07 1.69772e-20
1.99995e-05 9.27708e-07 2.66785e-20
2.51427e-05 1.39275e-05 8.85242e-20
4.40697e-05 1.49402e-05 -2.30405e-20
7.71709e-05 -3.19671e-05 0
7.72266e-05 3.19902e-05 2.06152e-20
7.36036e-05 6.27735e-05 0
2.29352e-05 -8.2919e-06 -7.27596e-20
2.28693e-05 8.5672e-06 -2.6921e-19
2.2141e-06 3.86817e-05 -3.03165e-20
1.01258e-05 -1.61798e-05 1.10352e-19
2.06252e-05 -3.88683e-07 1.09139e-19
1.84276e-05 -1.78484e-06 8.73115e-20
-3.57865e-05 -7.83394e-05 5.82077e-20
-0.000114447 0.000198194 3.15291e-20
-0.000115159 -0.000199428 -1.45519e-20
2.10678e-05 3.03464e-06 -7.03343e-20
1.14178e-05 2.08837e-06 4.12304e-20
1.83132e-05 4.70063e-06 -2.47383e-19
2.9639e-05 0.000124915 3.75924e-20
5.69283e-05 -0.000161536 5.94203e-20
-4.24804e-05 8.80606e-05 4.00178e-20
5.65984e-05 7.58702e-06 2.30405e-20
3.36854e-05 -1.5398e-05 6.54836e-20
1.46245e-05 -4.93701e-06 -1.40669e-19
1.4363e-05 4.56318e-06 -2.71636e-19
2.22318e-05 -1.44545e-06 8.48862e-20
1.85528e-05 1.78468e-06 -1.10352e-19
2.07787e-05 -1.69187e-05 -9.94381e-20
2.06986e-05 1.70877e-05 -2.51021e-19
1.85778e-05 -4.74644e-06 -8.00355e-20
2.34106e-05 -3.72626e-06 6.4271e-20
1.3747e-05 -9.53823e-06 -8.97368e-20
1.33787e-05 9.36877e-06 -2.6921e-19
1.78369e-05 2.0884e-05 5.6995e-20
2.11095e-05 1.29208e-07 -2.30405e-20
1.80795e-05 4.50213e-06 -2.66785e-20
1.86427e-05 9.15982e-05 -5.82077e-20
9.44004e-06 5.7942e-08 1.24904e-19
2.05281e-05 7.41242e-07 -6.0633e-21
-1.22079e-05 2.18565e-05 6.66963e-20
1.77315e-05 -1.8277e-05 8.00355e-20
2.13235e-05 3.26958e-06 -8.85242e-20
1.05586e-05 -1.42367e-06 1.09139e-20
3.71719e-05 -1.72101e-05 -1.21266e-21
3.39736e-05 1.93426e-05 6.54836e-20
2.21807e-05 -1.08103e-07 9.33748e-20
1.9951e-06 -3.9351e-05 1.33393e-20
2.36246e-05 -1.7437e-06 4.9719e-20
2.36636e-05 1.58888e-06 -3.15291e-20
9.21505e-06 1.9677e-06 8.73115e-20
5.09432e-05 6.27328e-05 -1.57646e-20
5.21159e-05 -6.48808e-05 2.18279e-20
2.93102e-05 6.44845e-06 -3.75924e-20
8.34527e-06 -1.23437e-05 4.85064e-21
2.57414e-05 -7.72385e-08 1.12777e-19
2.58808e-05 6.60558e-08 -1.21266e-20
2.04274e-05 -5.40985e-08 7.03343e-20
2.2238e-05 1.32814e-06 3.75924e-20
2.27098e-05 -1.89649e-06 4.60811e-20
-9.49404e-05 0.000164408 -1.57646e-20
0.00010135 -0.000175631 5.3357e-20
2.04705e-05 -9.71206e-07 1.57646e-20
1.84676e-05 2.87619e-06 -1.45519e-20
1.3406e-05 -4.02963e-06 -1.83112e-19
2.95381e-05 -6.59727e-06 -4.12304e-20
1.81151e-06 1.65962e-05 1.16415e-19
9.17102e-05 2.3509e-05 5.94203e-20
2.12674e-05 -3.00349e-07 8.48862e-21
1.87812e-05 -8.23153e-06 -1.21266e-21
4.3991e-05 3.14441e-05 -5.6995e-20
6.55019e-06 5.219e-08 -2.70423e-19
2.26496e-05 1.62543e-06 4.85064e-21
1.98695e-05 -9.28943e-05 -4.85064e-21
2.27582e-05 2.77773e-06 -5.6995e-20
2.07153e-05 -2.7858e-06 -1.09139e-20
1.39708e-05 -2.06415e-05 3.03165e-20
2.64329e-05 -4.71104e-07 9.70128e-20
2.65118e-05 4.05011e-07 -4.85064e-21
2.09104e-05 -1.12639e-06 6.66963e-20
2.27392e-05 -2.71516e-06 3.15291e-20
3.47646e-05 3.47208e-06 2.54659e-20
3.64749e-05 -3.20069e-06 2.54659e-20
2.43245e-05 -2.1215e-07 1.21266e-19
2.44665e-05 2.73978e-07 5.09317e-20
2.34277e-06 -6.88774e-06 -1.80686e-19
2.19016e-06 6.66347e-06 -3.17717e-19
2.25489e-05 1.09094e-06 -4.9719e-20
9.76946e-05 -3.15176e-05 9.70128e-21
-1.9787e-05 1.54434e-05 4.12304e-20
2.01405e-05 -6.15322e-07 8.48862e-21
2.79772e-05 4.0788e-06 -9.70128e-21
3.04669e-05 -9.11856e-06 -7.03343e-20
3.04818e-05 9.12853e-06 -1.7341e-19
2.3252e-05 -4.67515e-06 -6.4271e-20
2.32048e-05 4.62928e-06 -2.26767e-19
2.52899e-05 -6.99377e-07 5.3357e-20
1.5889e-05 -1.2138e-06 1.94026e-20
2.77408e-05 -4.34373e-06 6.4271e-20
4.95453e-05 -4.10116e-05 -5.3357e-20
4.95795e-05 4.10353e-05 -1.17628e-19
2.25497e-05 3.0366e-06 -1.5522e-19
1.99729e-05 -1.37629e-07 5.21444e-20
1.85687e-05 -2.08076e-06 -8.85242e-20
4.68239e-05 2.67648e-06 2.30405e-20
2.38961e-05 -2.01571e-05 7.15469e-20
2.05494e-05 -2.65948e-06 -2.42532e-20
1.83132e-05 8.37229e-06 3.15291e-20
2.25409e-05 -3.0675e-06 -2.30405e-20
4.00288e-05 5.88606e-05 -3.03165e-20
-1.583e-05 1.77487e-05 9.09495e-20
0.000139171 2.03998e-05 6.79089e-20
2.25404e-05 -1.05472e-06 1.00651e-19
9.04496e-06 4.30678e-05 -4.00178e-20
1.71013e-05 6.07832e-07 1.45519e-20
1.35945e-05 4.35412e-07 1.05501e-19
2.99566e-05 -1.79136e-05 -5.45697e-20
3.18325e-05 -6.82355e-07 -3.03165e-20
2.42258e-05 4.48122e-06 -1.7341e-19
2.66593e-05 7.28832e-06 2.30405e-20
-1.45799e-06 -1.21197e-05 2.15853e-19
2.4325e-05 2.30152e-06 2.42532e-21
2.32952e-05 1.2527e-06 -3.15291e-20
2.4252e-05 -4.5307e-06 -4.85064e-20
1.86787e-05 -2.14061e-06 -1.26117e-19
7.90424e-05 -3.64715e-05 -2.18279e-20
7.90973e-05 3.64928e-05 -1.21266e-21
1.80443e-05 -3.25e-06 9.33748e-20
-0.000115343 -9.95351e-05 -3.15291e-20
-0.000120117 9.57319e-05 6.4271e-20
4.34282e-05 -1.4931e-05 7.39722e-20
4.04578e-05 -6.26654e-05 7.27596e-21
2.4267e-05 -2.02731e-06 7.27596e-21
2.40417e-05 -4.33157e-07 2.42532e-21
2.44774e-05 -3.45533e-07 1.40669e-19
2.44262e-05 2.35061e-07 4.12304e-20
2.11016e-05 8.89421e-07 9.58001e-20
1.38121e-05 1.02087e-06 1.97664e-19
2.5428e-05 3.44347e-07 1.00651e-19
2.09757e-05 -7.65841e-08 3.51671e-20
0.000182332 8.697e-05 1.57646e-20
-4.26932e-05 -8.41504e-05 6.91216e-20
1.76252e-05 -2.74719e-05 5.45697e-20
6.59444e-05 1.25502e-06 -1.45519e-20
2.47012e-05 2.58687e-06 8.48862e-21
2.46469e-05 -2.60597e-06 1.35818e-19
3.82323e-05 1.34294e-05 5.6995e-20
2.36799e-05 -7.64874e-06 8.48862e-20
3.32241e-05 -2.17773e-05 -7.76102e-20
3.32439e-05 2.1784e-05 -1.54008e-19
-6.72267e-06 3.7557e-06 1.21266e-20
9.07611e-06 -4.35985e-05 3.63798e-21
1.85599e-05 -1.7908e-05 7.03343e-20
2.14376e-05 1.57066e-06 -3.15291e-20
4.3139e-05 -2.83362e-05 -2.91038e-20
2.79931e-05 7.63055e-06 -2.66785e-20
3.3096e-05 2.75909e-06 -3.63798e-20
2.67071e-05 -6.64091e-06 5.21444e-20
3.51956e-05 0.000132121 3.27418e-20
7.45847e-05 -0.000138647 6.4271e-20
7.18604e-06 -1.32147e-05 -1.41881e-19
7.1643e-06 1.31471e-05 -3.74712e-19
-5.07041e-05 -1.56178e-05 3.15291e-20
-5.16917e-05 2.04441e-05 3.63798e-20
-0.000162756 0.000104013 -3.75924e-20
-0.000166777 -0.000102734 -3.03165e-20
7.26292e-05 -3.68465e-05 1.33393e-20
7.26847e-05 3.68678e-05 -3.15291e-20
2.45256e-05 7.11936e-06 -1.49157e-19
2.44907e-05 -6.98648e-06 -6.91216e-20
2.22881e-05 4.09573e-06 -1.63709e-19
4.5212e-05 -8.42082e-06 -2.42532e-20
2.62888e-05 -6.18629e-06 9.70128e-20
2.08078e-05 -2.68897e-06 3.75924e-20
2.23129e-05 -4.15956e-06 -4.48684e-20
4.38819e-05 5.03903e-06 -3.88051e-20
2.29825e-05 2.97684e-06 -9.94381e-20
-2.45895e-05 -7.84475e-05 -1.57646e-20
-2.48329e-05 7.77324e-05 -6.91216e-20
2.30433e-05 -2.97975e-06 -1.81899e-20
1.718e-05 3.22121e-05 2.54659e-20
0.000101572 0.000176023 -2.30405e-20
-6.51304e-05 -0.000112786 2.42532e-21
9.98984e-06 -1.06659e-05 8.85242e-20
-8.36687e-06 -1.835e-05 5.94203e-20
7.62928e-05 -0.000121988 5.21444e-20
2.41936e-05 2.35121e-06 1.10352e-19
2.30841e-05 9.75034e-07 7.76102e-20
4.40971e-06 -1.66617e-05 -1.21266e-19
4.41297e-06 1.63834e-05 -3.28631e-19
7.02634e-05 0.000129068 6.0633e-21
2.50668e-05 6.10123e-06 7.63976e-20
2.05999e-05 2.83635e-06 -7.63976e-20
2.86428e-05 -1.11716e-06 -1.75836e-19
2.86388e-05 1.06131e-06 -1.05501e-19
-0.000239042 -6.27355e-09 3.63798e-21
-0.000239017 6.4527e-09 1.09139e-20
1.72729e-05 -7.72995e-06 1.33393e-19
1.19627e-05 -1.62432e-06 7.76102e-20
2.07185e-05 -1.96039e-05 -8.00355e-20
2.06362e-05 1.96209e-05 -2.06152e-19
8.07031e-05 -2.08775e-05 4.24431e-20
7.00609e-05 -6.76402e-05 -1.81899e-20
2.81022e-05 8.03321e-06 7.15469e-20
-3.19734e-05 9.21169e-05 -6.91216e-20
-3.22173e-05 -9.39336e-05 2.78912e-20
4.23775e-05 -3.31278e-05 6.0633e-21
2.0586e-05 -2.75946e-06 -9.70128e-21
-1.06006e-05 -6.81757e-06 5.82077e-20
-7.00949e-05 4.98637e-05 -2.06152e-20
-7.03489e-05 -4.98945e-05 4.12304e-20
1.72078e-05 2.11249e-05 3.63798e-21
9.11268e-06 -4.00379e-05 -7.27596e-20
9.17889e-06 4.00724e-05 -2.48595e-19
8.86514e-05 0.000189144 0
8.95805e-06 -0.000188057 8.48862e-21
2.56379e-05 -9.98404e-07 1.69772e-20
1.55597e-05 9.77805e-07 -1.21266e-21
2.49725e-05 4.12277e-06 -8.48862e-20
2.50749e-05 -4.30072e-06 -8.97368e-20
1.05382e-05 1.4806e-06 1.95238e-19
2.73818e-05 3.42483e-07 6.79089e-20
1.95454e-05 6.70339e-06 6.66963e-20
3.26088e-05 7.87259e-05 -9.70128e-21
3.25873e-05 -7.86742e-05 3.88051e-20
-2.08713e-05 -1.55787e-05 2.91038e-20
2.30105e-05 -3.03598e-06 4.12304e-20
2.6131e-05 -2.42425e-06 -1.15203e-19
2.6121e-05 2.37042e-06 -1.34605e-19
2.23661e-05 -2.18091e-06 3.39545e-20
2.29626e-05 3.01125e-06 -1.22479e-19
2.5756e-05 7.3247e-10 1.44306e-19
2.58853e-05 4.68797e-08 8.48862e-21
2.08933e-05 8.27449e-10 7.15469e-20
2.23573e-05 2.13407e-06 -1.03076e-19
2.55179e-05 -3.91258e-07 -7.27596e-21
2.01185e-05 -2.30998e-08 2.54659e-20
3.29969e-05 2.42088e-06 -1.57646e-19
3.31083e-05 -2.7479e-06 -7.15469e-20
3.10995e-05 -4.05647e-06 -1.85537e-19
3.11528e-05 4.03103e-06 -1.01863e-19
2.74295e-05 1.75424e-07 -1.21266e-20
1.92625e-05 6.93437e-06 -3.15291e-20
2.45895e-05 1.27135e-06 -1.20053e-19
2.45901e-05 -1.33184e-06 -4.00178e-20
7.32461e-05 9.331e-05 2.42532e-20
2.50471e-05 -8.81014e-05 4.00178e-20
2.66678e-05 1.32482e-05 -2.17066e-19
2.64929e-05 -1.32373e-05 -8.85242e-20
3.26458e-05 -2.70501e-05 -4.24431e-20
3.26564e-05 2.71153e-05 -1.90388e-19
-4.19416e-06 -4.89134e-05 3.39545e-20
-4.54012e-06 4.78589e-05 1.57646e-20
0.000175109 0.000156944 2.54659e-20
-0.000255391 -4.19614e-05 -3.15291e-20
3.02316e-05 5.5753e-05 -1.916e-19
4.47821e-05 4.22884e-05 -9.82254e-20
3.01911e-05 -5.57376e-05 -6.4271e-20
4.47516e-05 -4.22637e-05 2.06152e-20
-3.90436e-05 -0.000119561 2.91038e-20
-0.000255563 4.11425e-05 -1.09139e-20
5.93568e-05 -2.45854e-05 -3.63798e-20
0.000144514 -1.90221e-05 7.76102e-20
0.00014441 1.90084e-05 -7.76102e-20
5.93027e-05 2.4563e-05 -1.22479e-19
7.40629e-05 -2.29296e-06 -4.9719e-20
5.06723e-05 -1.77829e-05 -1.51582e-19
6.9077e-05 2.07932e-05 4.85064e-21
7.40034e-05 2.27869e-06 -1.916e-19
6.90234e-05 -2.07802e-05 -4.12304e-20
5.0635e-05 1.7754e-05 -2.02514e-19
5.33942e-05 -1.60616e-05 -1.61284e-19
5.24093e-05 -1.63683e-05 -4.24431e-20
5.34339e-05 1.6063e-05 -1.18841e-19
5.2446e-05 1.63706e-05 -9.58001e-20
-7.56731e-05 -0.000215817 -1.38243e-19
2.28425e-05 0.000199478 7.27596e-20
3.02978e-05 -0.000180668 -1.29755e-19
-0.000161719 -2.7976e-05 -3.39545e-20
-0.000202582 -5.0466e-05 -6.60899e-20
2.07248e-05 0.000224121 5.45697e-20
3.48939e-05 -0.00023416 -2.42532e-21
-0.00021784 5.90256e-05 -1.75836e-20
-6.64923e-05 0.000111393 7.88229e-20
-0.000119537 -0.00026386 -3.69861e-20
-0.000106938 0.000296618 7.21532e-20
0.000286536 0.000140326 1.437e-19
0.000158947 0.000149797 6.54836e-20
-0.000151976 -0.00015722 -1.51582e-19
-7.52701e-05 -0.000151826 -7.82165e-20
-2.41827e-05 -0.000145249 -1.69772e-19
-1.73728e-05 -0.00023948 -7.15469e-20
4.47641e-05 0.000219211 9.70128e-20
0.000172736 -1.19051e-05 2.38894e-19
-9.10755e-05 -0.000319111 -7.15469e-20
-8.10022e-05 0.000346403 -2.42532e-20
0.000337145 0.000107715 2.84975e-19
-0.000141552 -0.000143 -1.26117e-19
-0.000221715 5.73217e-05 -3.15291e-20
-0.000160682 -0.000143998 -1.40669e-19
0.000107195 0.000241306 9.09495e-20
-0.000151186 3.2427e-05 4.85064e-21
-0.000235904 -0.000479431 -1.32786e-19
-0.000132755 -6.57781e-05 1.81899e-20
0.000503897 0.000263833 8.85242e-20
4.04521e-05 0.000216452 6.4271e-20
7.55271e-06 -0.000223531 -4.72937e-20
-0.000493235 0.000244931 2.42532e-21
-0.000503547 -0.00025523 -1.62496e-19
-0.00032945 0.000113905 -1.09139e-20
-0.000118254 -9.38079e-05 -1.52795e-19
-0.000204387 -0.000102071 -1.24904e-19
-0.00020786 0.000107262 2.18279e-20
-3.43836e-05 -7.01262e-05 4.85064e-21
0.000145933 0.000189664 6.66963e-20
-0.000208107 0.000147764 -2.30405e-20
-6.01813e-05 2.9837e-06 4.60811e-20
-0.000130937 0.000156458 -2.18279e-20
-6.5153e-05 0.000227084 6.0633e-21
6.76996e-05 0.000179057 6.0633e-20
-0.000210376 0.000147568 -3.15291e-20
-0.000524801 -0.000524727 -3.01649e-19
0.000547211 0.000547155 1.82505e-19
5.75062e-05 0.000111394 8.73115e-20
0.000550273 0.000599104 1.1975e-19
-0.000564162 -0.000526625 -2.61328e-19
0.000208278 0.000113775 1.77048e-19
0.000259229 -4.55606e-05 4.89914e-19
0.000120803 -3.06157e-05 2.71636e-19
0.00019834 0.000183773 1.85537e-19
0.000243011 -0.000159606 3.67436e-19
0.00010291 0.000187601 1.33393e-19
-0.00020699 0.000395588 1.44306e-19
-0.000211694 -0.000396681 -1.45519e-19
0.000164655 0.000138954 1.98876e-19
0.000180441 -9.85431e-05 3.32269e-19
-0.000288432 0.000133408 2.36469e-20
-0.000105294 0.000301379 -1.45519e-20
0.000237586 -0.000368673 2.42532e-21
0.000128975 -0.000148211 1.26117e-19
-0.000255984 0.000506139 1.87962e-19
-0.000492143 0.000268383 1.54008e-19
5.50926e-05 0.000176378 3.63798e-20
-2.03909e-05 -0.000144362 -9.21621e-20
0.00039822 0.00016488 1.57646e-19
0.000506769 -0.000209969 2.94676e-19
2.78522e-05 -4.8936e-05 -1.01863e-19
0.000161819 0.000112583 2.98314e-19
0.000172084 -8.63819e-05 2.00089e-19
-0.000103473 -7.1206e-05 -2.00089e-19
-4.41667e-05 -0.000115129 -1.34605e-19
-0.000304276 -6.06694e-05 -6.00266e-20
0.000216024 -3.51272e-05 1.92813e-19
-0.000263503 -3.47673e-05 -7.45786e-20
-0.000191183 -0.000160306 -1.22479e-19
-0.000222659 -0.000385558 -1.1399e-19
-0.00022016 0.000381337 6.54836e-20
-0.000233048 -0.000255991 -1.49763e-19
-0.000164425 0.000104781 -2.42532e-20
0.00016519 0.000115297 3.81988e-19
4.04624e-05 -0.000416596 1.38243e-19
3.52681e-06 0.000327847 -1.09139e-20
-0.00019199 0.000178431 6.91216e-20
4.34427e-05 0.00019665 1.15203e-19
-1.37368e-05 -0.000191759 -1.1399e-19
0.000116753 5.51038e-05 4.15942e-19
0.000118074 -2.88985e-05 3.54097e-19
0.000288343 -0.000206969 -6.0633e-20
0.000129922 0.000147643 2.72848e-19
0.000146402 -0.00013202 4.45046e-19
0.00016711 -8.19109e-05 1.99483e-19
8.02315e-05 -0.000210961 7.03343e-20
0.000104106 0.000120624 3.29843e-19
0.000106904 -9.01496e-05 3.33481e-19
-0.000174608 8.38183e-05 2.06152e-20
0.000112045 0.000131052 9.21621e-20
-0.000213832 -0.000146398 -1.58252e-19
-7.57866e-05 1.79823e-05 -2.31618e-19
3.36534e-05 0.000114916 1.69772e-20
0.000228573 5.74445e-05 3.57735e-19
-0.000168139 0.000107596 -3.88051e-20
-0.000183253 -8.34535e-05 -3.39545e-20
-0.000143024 -0.000173305 -1.69772e-19
-0.000163476 -0.000106723 -1.34605e-19
-2.55184e-06 -0.000197572 -1.90388e-19
3.04592e-05 0.000203397 1.07927e-19
0.000284345 -0.000108522 -1.15203e-20
-9.57246e-05 7.60983e-05 8.24609e-20
0.000139269 -0.000212961 -8.48862e-20
0.000152426 0.000243749 9.70128e-21
-0.000165069 0.000104745 -9.70128e-21
-6.39444e-05 0.000108887 7.15469e-20
-6.76812e-05 -0.00011141 -4.00178e-20
-4.24746e-05 -0.000201705 -8.12482e-20
-0.000152789 0.000159408 -3.51671e-20
2.5339e-05 -0.000281365 2.00089e-20
5.0649e-05 0.000308123 2.48595e-20
0.000299173 -1.57007e-06 5.09317e-20
0.000300834 0.000234481 4.79001e-20
0.000199487 -0.00012339 -9.39811e-20
0.000285288 -0.000494256 2.2798e-19
-0.000232447 0.00040268 -3.15291e-20
0.000220944 -3.23291e-05 1.60071e-19
7.25942e-05 0.000162811 1.24904e-19
0.000126345 6.21131e-05 3.77137e-19
-2.57247e-05 0.000215617 1.09139e-20
6.0503e-05 -0.000119735 -2.91038e-20
1.72171e-05 0.000150555 -5.94203e-20
9.50071e-05 -6.99676e-05 2.94676e-19
9.77689e-05 7.97991e-05 5.45697e-20
-3.38449e-05 -0.000110449 -1.77048e-19
5.69763e-05 1.06514e-05 4.9234e-19
0.000202229 0.000162186 1.43094e-19
-6.45044e-05 -1.7453e-05 4.48684e-20
0.000203626 0.000180681 8.85242e-20
-0.000220859 0.000289154 5.57823e-20
-0.000109502 9.55484e-05 -3.27418e-20
7.86048e-05 -0.000311701 -1.63709e-20
9.98965e-05 0.000334571 4.18368e-20
0.000332828 -7.01916e-05 3.39545e-20
0.000200429 -0.00014591 -8.06419e-20
-1.0878e-06 -0.000227005 -1.79474e-19
2.83857e-05 0.000245087 2.30405e-20
0.000160071 -0.000282596 -1.45519e-19
0.000170428 0.000300215 -7.27596e-20
2.01142e-05 7.13571e-05 4.06241e-19
1.91446e-05 -4.84236e-05 4.80213e-19
0.000125157 0.000139811 9.09495e-20
7.74724e-05 0.000104263 5.45697e-20
-0.000162852 -9.71567e-05 -1.63709e-19
-0.000326656 -0.000252238 -9.3678e-20
6.18383e-05 0.000239181 4.9719e-20
0.000168426 0.00013884 2.04939e-19
0.000202126 -9.80616e-05 3.88051e-19
0.000159943 0.00013409 2.02514e-19
0.000171808 -8.95648e-05 2.54659e-19
-0.000104045 -0.000945546 -4.10182e-19
0.000970354 0.000163134 1.95845e-19
4.27832e-05 -0.000205621 -1.27329e-20
0.000252775 0.000280804 -1.21266e-21
0.000322847 -0.000290802 4.95978e-19
0.000177611 0.000151338 1.85537e-19
-0.000407812 -2.08141e-05 -4.15336e-20
4.33144e-06 0.000177007 9.09495e-20
1.3168e-05 -0.00017868 -6.18456e-20
-0.00013956 0.000227236 9.09495e-21
6.49976e-05 1.81607e-05 2.6921e-19
0.00018019 -0.000110633 5.94203e-20
-2.78288e-05 -5.54231e-05 -2.04939e-19
-5.53222e-05 0.000155303 -6.0633e-20
0.000154548 -0.000125898 -1.57646e-20
0.000109891 -7.87876e-05 2.31618e-19
-0.000119973 -8.18003e-05 -1.78261e-19
-0.000210027 -0.000131248 -1.62496e-19
0.000206059 6.97697e-05 3.14079e-19
7.45383e-05 0.000118625 3.88051e-20
-5.98647e-05 0.000154013 1.39456e-20
-4.12268e-05 -0.000205233 -1.24904e-19
0.000157934 0.000134381 1.5522e-19
6.68497e-05 0.000226974 5.3357e-20
-7.46834e-05 -0.000104436 -1.98876e-19
-0.000258113 0.000482178 5.57823e-20
-0.000465471 0.000271012 6.30583e-20
0.000168918 4.79831e-05 3.89264e-19
0.000157907 -9.15772e-05 1.37031e-19
0.000428068 0.000236698 8.12482e-20
0.000524929 -0.000253687 3.50459e-19
3.4781e-05 -0.000115459 1.43094e-19
-0.000283438 0.000200975 2.42532e-20
-0.000285735 -0.000206052 -1.77048e-19
-0.000120797 -5.17995e-05 -1.87962e-20
-1.82853e-05 5.03893e-05 4.72937e-20
0.000275214 0.000355304 -1.00954e-19
-0.000313069 -0.000251604 -1.65831e-19
0.000265384 -0.00037445 -9.76191e-20
0.00027869 0.000404652 -3.03165e-20
0.000415056 -0.000227327 -3.63798e-20
2.73325e-05 -4.33405e-05 5.82077e-20
-3.41975e-05 -0.000418153 -2.34346e-19
0.000440577 4.46436e-05 1.17628e-19
-0.000226517 -0.000309766 -1.30967e-19
0.000219224 0.000273143 -3.63798e-21
-0.000140588 -0.00011212 -6.79089e-20
-5.96372e-05 3.64137e-06 2.18279e-20
0.000152143 -0.000223816 -1.0247e-19
0.000165196 0.000255872 -1.21266e-21
-0.000138158 4.2979e-05 1.57646e-20
7.58808e-05 -0.000147537 9.03431e-20
0.000177178 0.000191735 1.29755e-19
0.000219117 -0.00016854 4.49897e-19
-0.00017055 -9.02689e-05 -1.5522e-19
-0.000111618 8.56326e-05 4.12304e-20
-0.000135718 -6.2282e-05 -2.91038e-20
-0.000261664 -0.000142711 -1.26723e-19
-2.33777e-05 0.000125162 5.21444e-20
-0.00054995 0.000550006 2.2131e-20
-2.28376e-05 0.000223206 3.94114e-20
3.96094e-05 -0.000212673 -6.18456e-20
4.04687e-05 -0.000416588 7.15469e-20
1.82139e-05 0.000346888 3.39545e-20
5.28663e-05 0.000114307 3.80775e-19
5.62246e-05 -9.63558e-05 5.1053e-19
-0.000200731 -0.000103562 -1.77048e-19
-0.000195461 0.000110799 -2.42532e-21
-0.000349294 6.67217e-05 -1.70985e-19
-0.000344688 -5.94489e-05 6.0633e-21
0.000345513 0.000241544 9.82254e-20
0.00046853 -0.000256984 4.15942e-19
0.000128021 8.63913e-05 5.94203e-20
0.000122466 6.56974e-06 3.81988e-19
0.000187279 0.000112056 2.93464e-19
7.03964e-06 0.000195634 6.66963e-20
1.24081e-05 -0.000183116 -7.27596e-20
-0.000293815 0.000212852 -6.0633e-22
0.000187127 -7.85945e-05 8.67052e-20
-2.13662e-05 -0.000195804 -9.51938e-20
0.000171627 0.000152158 1.3218e-19
-0.000128574 1.14691e-06 -2.80124e-19
-0.000122494 1.39218e-06 8.48862e-21
0.000162787 -0.000113689 1.75836e-20
-0.000130497 0.000120859 9.70128e-21
0.000203865 0.000353068 -3.63798e-20
-0.000231781 -0.000401461 -3.65011e-19
-4.35543e-05 -0.000139972 -6.91216e-20
-0.000171372 -0.000101315 -1.12777e-19
-1.85091e-05 -0.00022756 -9.09495e-20
0.000276796 -0.000482934 -2.0403e-19
0.00048541 -0.000224295 1.03076e-20
2.71517e-05 0.000146253 2.81337e-19
3.10956e-05 -0.00012515 4.58385e-19
-2.61118e-05 0.00023876 1.29755e-19
5.55044e-05 0.000218519 9.70128e-20
0.00023008 0.000145503 3.49246e-19
0.000167005 0.000120213 2.07365e-19
0.000185601 -5.71603e-05 3.43183e-19
-0.00045096 1.20238e-08 -4.85064e-20
-0.000463026 3.4188e-08 -9.09495e-20
3.60889e-05 -0.000107866 3.03165e-20
-0.000175803 -0.000104961 -1.17628e-19
0.000129165 0.000181084 1.84324e-19
0.0001458 -0.000158013 3.90476e-19
5.94171e-05 0.000138706 7.88229e-20
3.00311e-05 4.22678e-05 8.73115e-20
0.000528736 -0.000528797 -2.76183e-19
-0.000152233 4.87964e-05 -2.0979e-19
-0.000146073 -4.64641e-05 3.51671e-20
-2.55416e-05 0.000111558 5.57823e-20
0.00023023 -0.00011092 5.6995e-20
-0.000167271 9.20945e-05 -4.36557e-20
-0.000222717 -2.93326e-05 -2.12215e-19
-0.000215815 3.40926e-05 3.39545e-20
-0.000130365 6.68735e-05 4.60811e-20
5.34822e-05 0.000277029 1.95238e-19
6.33301e-05 -0.000285399 4.68087e-19
0.000109687 0.000448727 -4.9719e-20
-9.063e-05 -0.00054483 -6.91216e-20
-5.01103e-05 0.000996817 2.93767e-19
-0.000959122 5.61538e-05 1.40062e-19
0.000141591 9.80375e-05 1.10352e-19
0.000138799 -1.76981e-05 3.71074e-19
-1.54879e-05 -3.733e-05 -5.21444e-20
0.000518784 -0.000635355 -3.1711e-19
0.000661144 -0.00050823 -1.41275e-19
0.000219876 -0.000530817 2.08577e-19
0.000188379 0.000454551 -1.34605e-19
-0.000155401 0.000102219 -3.63798e-21
0.000141508 -0.000150071 1.22479e-19
0.000146725 0.000130768 9.70128e-20
0.00014913 -7.61239e-05 3.09228e-19
0.000106124 -0.000103109 1.83112e-19
0.000149498 0.00019029 1.38243e-19
-5.81853e-06 -0.000447889 -1.49157e-19
2.05039e-05 0.000437973 -2.54659e-20
0.000468714 1.85122e-05 6.66963e-20
0.000122952 0.000151823 9.45875e-20
5.27464e-05 0.000476418 2.45564e-20
-0.000451646 -5.52918e-05 2.42532e-20
0.000173449 0.000104189 1.23691e-19
0.000196683 -2.99807e-05 4.47471e-19
0.000168366 0.000121819 2.03727e-19
0.000187908 -5.99201e-05 4.1473e-19
-0.000540458 0.000675554 9.3678e-20
-0.000657387 0.000541452 2.43441e-19
0.00015747 0.000138475 1.17628e-19
0.000158815 -8.29939e-05 2.25555e-19
8.27077e-05 0.000281092 -1.45519e-20
-5.44153e-05 -0.000319792 -5.21444e-20
0.000139537 5.04274e-05 1.20053e-19
0.000142254 6.31565e-05 4.48684e-19
0.000175196 0.00020982 1.84324e-19
0.000215501 -0.000201412 4.63236e-19
-0.000132255 -3.21015e-05 -1.79474e-19
-0.00012202 3.54815e-05 8.48862e-21
-0.000446827 1.06048e-05 -4.48684e-20
0.000211183 0.000351169 -6.0633e-21
0.000163415 0.000358886 7.15469e-20
0.000245773 0.000282635 3.63798e-21
0.000200423 -0.000387515 1.95238e-19
0.000297881 -0.000297324 3.24993e-19
-0.000216656 -0.000405387 -2.71636e-19
-0.000459755 -8.11163e-06 -1.7341e-19
0.00021371 -8.85779e-05 7.15469e-20
0.000745128 -9.82495e-05 3.06803e-19
0.000948329 0.000124718 2.58297e-19
0.000368916 0.000152753 1.58858e-19
0.000328518 8.54138e-05 6.66963e-20
0.00024554 3.04792e-05 1.57646e-19
0.000319665 0.000126439 1.11565e-19
0.000472514 -4.33422e-06 2.52233e-19
0.000442751 -0.000142055 1.69772e-19
0.000320151 9.65868e-05 3.80775e-19
0.000256514 0.000164793 1.22479e-19
0.000266605 0.000161648 5.45697e-20
0.00033857 -0.000129512 4.29282e-19
0.00034172 -0.000128532 3.69861e-19
VECTORS seepage_velocity_TPM float
-2.17433e-05 -6.52215e-05 -1.76796e-20
-6.72494e-06 5.35549e-05 2.62549e-20
1.06621e-05 -5.35889e-05 -1.96908e-20
-4.86142e-05 -9.25041e-06 -2.42425e-20
-6.10455e-05 -1.60945e-05 -2.00481e-20
-8.05917e-06 6.90621e-05 3.06323e-20
1.19977e-05 -6.9116e-05 -1.27633e-20
-6.55867e-05 1.64735e-05 -1.62211e-20
-2.05436e-05 3.3101e-05 -1.49501e-20
-3.4455e-05 -8.00519e-05 5.46509e-22
-3.30267e-05 8.56361e-05 -1.27525e-20
8.96166e-05 3.64976e-05 -5.28357e-21
4.74828e-05 4.59846e-05 -8.38824e-21
-4.37609e-05 -4.58322e-05 -2.91769e-21
-2.16206e-05 -4.52605e-05 -1.73163e-20
-6.67769e-06 -4.2917e-05 -1.64078e-20
6.95969e-06 7.06082e-05 2.18784e-21
-3.14205e-06 -7.06463e-05 -1.56807e-20
6.21229e-05 6.246e-06 -9.48017e-21
-2.59355e-05 -9.66166e-05 -5.83125e-21
-2.61832e-05 9.88075e-05 -3.82642e-21
0.000107678 2.48603e-05 -7.28924e-21
-4.16738e-05 -4.3191e-05 -2.5517e-21
-6.7224e-05 1.57466e-05 -8.38273e-21
-4.78799e-05 -4.35203e-05 -4.01025e-21
2.88074e-05 6.36803e-05 7.47301e-21
-4.6127e-05 8.70793e-06 -2.33317e-20
-6.97931e-05 -0.000145523 5.46583e-22
-4.00634e-05 -2.02787e-05 -1.9689e-20
0.000155063 7.33643e-05 -1.05659e-20
-2.1962e-07 6.60242e-05 1.42242e-20
4.06731e-06 -6.6043e-05 -8.75326e-21
-0.000151582 -7.70184e-05 -3.64781e-21
-0.000152112 7.41106e-05 1.13084e-20
-9.87036e-05 3.22805e-05 -1.43948e-20
-3.51059e-05 -2.84076e-05 -1.27604e-20
-6.15122e-05 -3.09501e-05 -1.67765e-20
-6.44108e-05 3.15044e-05 1.71413e-20
-1.0648e-05 -2.15794e-05 -2.0055e-20
4.3367e-05 4.42727e-05 -5.46781e-21
-6.32403e-05 4.2273e-05 -4.00962e-21
-1.86326e-05 3.06934e-07 -2.26064e-20
-4.09052e-05 4.46943e-05 1.0935e-21
-2.20867e-05 6.49041e-05 7.83737e-21
1.00431e-05 4.29142e-05 -3.64642e-21
-6.40419e-05 4.21978e-05 -2.7334e-21
-0.000158308 -0.000158308 -3.73133e-21
0.000163987 0.000163987 -2.7302e-21
1.4565e-05 3.35178e-05 4.74046e-21
0.000164646 0.000174035 -8.37615e-21
-0.00016817 -0.000158844 -4.82539e-21
7.61057e-05 -7.8704e-06 3.42873e-20
7.60504e-05 7.82748e-06 8.02457e-21
5.34551e-05 9.4598e-06 4.37617e-21
7.25138e-05 -3.31338e-05 2.95451e-20
7.24519e-05 3.31376e-05 -6.93033e-21
2.72841e-05 4.45404e-05 2.55199e-21
-6.37847e-05 -0.000119565 -2.62627e-20
-6.39767e-05 0.00012004 9.4839e-21
5.80131e-05 -2.21616e-05 2.95402e-20
5.79218e-05 2.20323e-05 -4.7409e-21
-8.67378e-05 3.79542e-05 -7.83323e-21
-6.91465e-05 0.000109122 3.064e-20
7.35399e-05 -0.000110015 -8.3894e-21
4.23414e-05 -4.37223e-05 4.66608e-20
-7.66823e-05 0.000146992 -1.28421e-20
-0.00014697 7.78608e-05 -1.78509e-20
8.56733e-06 4.25983e-05 2.18769e-20
-4.83527e-06 -4.24843e-05 -4.37528e-21
0.000129205 -5.35186e-05 4.15923e-20
0.000129243 5.35342e-05 -4.41462e-20
9.19062e-06 -1.35421e-05 -1.09392e-20
5.90154e-05 2.03844e-05 -1.09395e-21
5.91424e-05 -2.04127e-05 2.40675e-20
-3.10706e-05 -2.13601e-05 -1.34912e-20
-1.07981e-05 -3.29587e-05 6.56416e-21
-9.1234e-05 -1.94641e-05 -1.51229e-20
-7.87536e-05 -1.15279e-05 -8.38259e-21
-5.75057e-05 -4.85853e-05 -5.47001e-21
-6.72608e-05 0.000116496 2.29812e-20
-6.70985e-05 -0.000116214 -1.13083e-20
-6.92369e-05 -7.76533e-05 -2.73307e-21
-5.0759e-05 2.99903e-05 -1.09362e-20
6.11835e-05 2.22265e-05 -5.83402e-21
-1.04912e-05 0.000123393 6.20108e-21
1.34164e-05 -0.000124643 1.27671e-20
-5.95007e-05 5.34951e-05 6.19948e-21
6.15571e-06 5.68663e-05 1.67735e-20
-2.09202e-06 -5.68588e-05 -1.82325e-20
5.20286e-05 -8.68423e-06 1.53177e-20
5.14798e-05 8.12265e-06 -6.19993e-21
9.15766e-05 -6.29186e-05 2.13197e-20
7.38043e-05 1.21012e-05 -1.23957e-20
5.49939e-05 -2.7439e-05 3.31909e-20
5.47076e-05 2.74893e-05 -1.02126e-20
6.192e-05 -2.26747e-05 2.33365e-20
2.71671e-05 -6.32613e-05 4.04648e-20
4.95429e-05 -2.17192e-05 3.42827e-20
4.87912e-05 2.12518e-05 -5.10596e-21
-5.32513e-05 2.43318e-05 -1.53125e-20
3.02677e-05 1.86728e-05 -4.74055e-21
-6.37898e-05 -4.45364e-05 1.27567e-21
-2.27646e-05 5.40273e-06 -1.93262e-20
-5.84803e-06 1.29724e-05 5.4699e-21
7.62501e-05 1.08002e-05 -6.92577e-21
-5.21226e-05 3.13495e-05 -6.92739e-21
-5.49717e-05 -2.56219e-05 -1.42185e-20
-4.21323e-05 -5.27576e-05 -5.46693e-22
-4.86911e-05 -3.26394e-05 7.28918e-22
1.09328e-06 -5.85051e-05 -2.11464e-20
2.94813e-06 5.85246e-05 3.28134e-20
9.0527e-05 -3.57048e-05 1.54868e-20
-3.10049e-05 2.1186e-05 1.67729e-20
4.56407e-05 -6.44945e-05 3.37158e-20
4.586e-05 6.50926e-05 1.27566e-21
-5.06677e-05 2.99997e-05 -1.02083e-20
-2.00658e-05 3.2632e-05 -1.64095e-20
-2.05311e-05 -3.38343e-05 -1.78681e-20
-1.1057e-05 -6.06723e-05 -8.92981e-21
-4.74425e-05 4.55821e-05 -8.38472e-21
9.88677e-06 -8.49885e-05 2.36854e-21
1.42038e-05 8.70552e-05 -1.65798e-20
9.62427e-05 -4.59114e-06 6.74143e-21
9.38216e-05 6.25115e-05 -4.91991e-21
6.48958e-05 -3.77402e-05 2.89769e-20
8.5079e-05 -0.000147378 2.26176e-20
-8.48598e-05 0.000146983 -7.88655e-27
7.42754e-05 -1.32378e-05 4.3742e-21
1.30579e-05 3.29084e-05 -5.83389e-21
5.41442e-05 -1.02626e-05 6.56421e-21
-1.04114e-05 6.1503e-05 5.64957e-21
-1.57639e-05 3.44663e-05 1.45871e-20
1.87814e-05 -3.43334e-05 -6.56388e-21
3.08979e-05 -1.92329e-05 1.9327e-20
2.31388e-05 -6.93321e-06 1.4587e-21
-9.41197e-06 -3.30675e-05 -9.84411e-21
4.02232e-05 3.77489e-07 -6.56574e-21
6.36786e-05 4.07376e-05 -5.8318e-21
-2.16226e-05 -6.92742e-06 1.45857e-20
6.37653e-05 4.15921e-05 -8.56631e-21
-6.70885e-05 8.34136e-05 -2.55074e-21
-3.49041e-05 2.70845e-05 5.10426e-21
2.64256e-05 -9.44216e-05 1.22097e-20
2.78311e-05 9.4389e-05 -1.49428e-20
0.000105042 -2.40929e-05 4.19134e-21
6.50955e-05 -4.31577e-05 2.86149e-20
2.46524e-06 6.82089e-05 1.93225e-20
1.5717e-06 -6.81117e-05 -9.84339e-21
5.16169e-05 -8.64549e-05 1.20249e-20
5.08076e-05 8.28475e-05 -1.42113e-20
3.28833e-05 -1.17273e-05 9.48332e-21
3.30113e-05 1.13113e-05 -8.75401e-21
3.63355e-05 2.27266e-05 3.64632e-22
2.19368e-05 3.0885e-05 8.75179e-21
-4.88127e-05 -2.94388e-05 -1.05736e-20
-9.74272e-05 -7.68376e-05 -6.64927e-21
1.53255e-05 6.30409e-05 -2.91604e-21
6.49464e-05 2.18601e-05 -1.02125e-20
6.50721e-05 -2.19558e-05 3.13667e-20
5.891e-05 -2.30901e-05 2.77152e-20
5.87993e-05 2.29437e-05 -3.64712e-22
-2.9709e-05 -0.000287064 3.64432e-22
0.000294784 4.53641e-05 2.27627e-21
1.53288e-05 -6.15669e-05 1.58559e-20
8.93547e-05 -5.9244e-05 2.66315e-20
8.9308e-05 5.9383e-05 -1.45926e-20
6.01517e-05 3.14436e-05 -2.36988e-21
-0.000121659 -7.74365e-06 -7.01337e-21
7.39092e-05 -1.34604e-05 -1.82277e-21
-2.56576e-06 5.24793e-05 2.33345e-20
6.40638e-06 -5.27214e-05 -7.29216e-21
-4.34241e-05 6.53974e-05 -8.56486e-21
2.19166e-05 7.13949e-06 1.23988e-20
6.04024e-05 -3.1603e-05 1.93237e-20
-9.00071e-06 -1.56621e-05 -2.62538e-20
-4.42332e-05 3.63321e-05 3.17301e-20
4.83023e-05 -3.62697e-05 -7.29312e-22
3.61379e-05 -2.23373e-05 3.09935e-20
-3.56924e-05 -2.43277e-05 -1.23966e-20
-6.2745e-05 -4.04036e-05 -3.64482e-22
1.03446e-05 1.4442e-05 9.11657e-21
-2.05917e-05 4.42406e-05 1.44001e-20
-1.08069e-05 -6.13903e-05 -1.11182e-20
5.1513e-05 2.39966e-05 6.56327e-21
1.57854e-05 6.19311e-05 1.0025e-20
-1.92833e-05 -2.99862e-05 3.64673e-21
-7.71751e-05 0.000141157 -5.82746e-21
-0.00013853 7.86686e-05 -1.09263e-20
5.16674e-05 -2.41326e-05 1.53142e-20
6.25149e-05 -7.25921e-06 7.65717e-21
0.000130871 5.74456e-05 -3.21072e-20
0.000130811 -5.73767e-05 1.64185e-20
1.3121e-05 -3.35752e-05 1.96893e-20
-8.59555e-05 -6.21916e-05 -1.75071e-20
-8.79272e-05 6.06585e-05 1.24009e-20
-3.661e-05 -1.6243e-05 -2.75266e-20
-7.6939e-06 1.35191e-05 1.67732e-20
8.33391e-05 0.000102003 -1.31134e-20
-9.31107e-05 -7.6619e-05 -8.19567e-21
8.29369e-05 -0.000113762 7.46898e-21
8.42809e-05 0.000115138 -1.63955e-20
0.000128483 -7.0798e-05 7.83333e-21
1.01862e-05 -1.20152e-05 5.8346e-21
-8.50341e-06 -0.000126875 3.64273e-21
0.000136086 9.88205e-06 -4.37118e-21
7.00767e-05 9.22212e-05 -1.05773e-20
-6.61516e-05 -9.16487e-05 1.75077e-20
-4.23082e-05 -3.4111e-05 -8.38675e-21
-1.82849e-05 7.28009e-07 -2.62533e-20
4.90525e-05 -6.73679e-05 1.76754e-20
4.93518e-05 6.84474e-05 -1.09329e-20
-4.18208e-05 1.22004e-05 -2.97142e-20
2.58111e-05 -4.3476e-05 3.15359e-20
6.84871e-05 -3.4654e-05 3.75736e-20
6.83458e-05 3.46816e-05 -2.18872e-21
-5.10998e-05 -2.73976e-05 -1.49498e-20
-3.55792e-05 2.39296e-05 9.4798e-21
-4.08607e-05 -1.93366e-05 -1.45841e-20
-7.77977e-05 -4.3741e-05 -5.64806e-21
-9.61202e-06 3.55627e-05 1.82299e-20
-0.000162293 0.000162293 -2.91205e-21
-9.87249e-06 6.29303e-05 1.0207e-20
1.44281e-05 -6.35773e-05 -4.19236e-21
1.39418e-05 -0.000123948 1.53191e-20
-1.00913e-05 0.000123899 6.20054e-21
3.88477e-05 -1.95166e-05 1.60504e-20
3.88123e-05 1.88705e-05 -1.13081e-20
-6.09651e-05 3.24804e-05 5.83456e-21
-6.02834e-05 -3.14432e-05 -1.45861e-20
-0.000106773 -1.9485e-05 3.64758e-22
-0.00010508 1.98938e-05 -8.75353e-21
0.000123866 5.78517e-05 -2.00659e-20
0.000123862 -5.77795e-05 2.22548e-20
3.93031e-05 3.63541e-06 1.49526e-20
3.93651e-05 -3.39725e-06 1.4588e-20
6.24756e-05 2.20253e-05 -1.03905e-20
-2.08896e-06 5.5756e-05 2.29687e-20
6.09556e-06 -5.45311e-05 -4.19292e-21
-8.83259e-05 6.11974e-05 -5.83025e-21
6.22764e-05 -2.26141e-05 2.29687e-20
-5.14152e-06 -5.8708e-05 -1.00258e-20
5.33826e-05 3.23748e-05 -5.28621e-21
-3.91837e-05 -1.22185e-06 1.64098e-20
-3.8733e-05 3.10621e-07 -1.23984e-20
5.32458e-05 -3.28489e-05 2.97118e-20
-4.03023e-05 3.55222e-05 -4.74041e-21
6.96904e-05 0.000120719 -9.48449e-21
-6.8548e-05 -0.000118729 2.48056e-20
-1.05963e-05 -4.11244e-05 5.46978e-21
-5.13566e-05 -3.0928e-05 -1.09377e-20
-5.75414e-06 -6.87486e-05 -1.6047e-20
8.6479e-05 -0.000147597 1.73037e-21
0.000149131 -6.98854e-05 2.7348e-22
3.27451e-05 -2.70928e-05 2.62636e-20
3.23055e-05 2.65234e-05 -1.67794e-20
-8.59803e-06 7.20177e-05 -2.18832e-21
8.7029e-06 5.66601e-05 2.20578e-20
7.70126e-05 3.28725e-05 -9.47822e-21
5.91066e-05 -1.3392e-05 3.02701e-20
5.90412e-05 1.31313e-05 9.48227e-21
-0.000139315 -1.1451e-09 5.47171e-21
-0.000139355 8.53162e-10 -1.3497e-20
1.34948e-05 -3.14095e-05 5.46943e-21
-5.27394e-05 -3.20661e-05 -8.74988e-21
5.4576e-05 3.29171e-05 -1.16721e-20
5.48731e-05 -3.29312e-05 3.24628e-20
1.50348e-05 4.0248e-05 1.53147e-20
6.78701e-06 1.10856e-05 1.23977e-20
0.000161678 -0.000161678 -2.45708e-21
-4.57799e-05 1.44981e-05 -5.83506e-21
-4.62324e-05 -1.55234e-05 5.83499e-21
-1.01479e-05 3.21976e-05 2.0783e-20
7.5585e-05 -3.34072e-05 1.62225e-20
-5.18527e-05 2.64352e-05 -7.6575e-21
-6.69447e-05 -8.9651e-06 -1.05754e-20
-6.72595e-05 8.76596e-06 4.01146e-21
-4.02577e-05 1.93561e-05 -1.27614e-20
3.84712e-05 5.71655e-05 -5.10715e-21
3.87663e-05 -5.70172e-05 3.21024e-20
2.87738e-05 0.000162283 -5.10725e-21
-2.56727e-05 -0.000162285 4.30471e-20
-1.45866e-05 0.000292761 -6.73794e-21
-0.000285992 1.49745e-05 -8.10361e-21
4.43698e-05 -3.15539e-06 2.88099e-20
4.46084e-05 2.65641e-06 5.83496e-21
-1.93123e-06 -1.03148e-05 1.1669e-20
0.000158797 -0.000193133 -4.09668e-21
0.000201979 -0.000155485 -5.82649e-21
5.3031e-05 -0.000128036 -8.39154e-21
5.30682e-05 0.000128125 -1.16752e-20
-4.87282e-05 2.90944e-05 -4.73981e-21
4.65244e-05 -4.43471e-05 3.82808e-20
4.72675e-05 -1.95489e-05 3.13611e-20
4.72117e-05 1.92779e-05 1.34926e-20
3.50796e-05 -2.91585e-05 3.24504e-20
4.61886e-05 4.47731e-05 3.64621e-22
3.14424e-07 -0.000136144 7.83352e-21
5.31111e-06 0.000125323 -1.54843e-20
0.000145362 1.20296e-06 -2.91483e-21
3.52077e-05 2.8856e-05 9.47988e-21
1.60097e-05 0.000138054 -1.67559e-20
-0.000134927 -1.82021e-05 -1.13828e-20
5.9158e-05 -6.29021e-06 3.7565e-20
5.94146e-05 5.51676e-06 1.71413e-20
5.76064e-05 -1.15937e-05 4.01193e-20
5.76835e-05 1.15242e-05 1.67771e-20
-0.000159681 0.00019764 -2.00273e-21
-0.000195997 0.000159665 -7.00964e-21
5.16865e-05 2.24899e-05 7.29235e-22
5.18139e-05 -2.27723e-05 2.77129e-20
1.7992e-05 9.52563e-05 -6.20078e-21
-1.47892e-05 -9.46429e-05 3.53814e-20
4.45652e-05 1.86789e-05 2.80838e-20
4.42282e-05 -1.85671e-05 2.40719e-20
6.77877e-05 -4.09939e-05 3.72068e-20
6.76387e-05 4.10616e-05 -1.45909e-20
-3.95808e-05 -9.80153e-06 -1.45857e-20
-3.87738e-05 9.18813e-06 6.9283e-21
-6.32253e-05 -0.000120106 1.4591e-20
6.23152e-05 -7.45609e-05 1.53231e-20
7.47353e-05 -6.30673e-05 6.93184e-21
6.21813e-05 7.48294e-05 -1.38638e-20
7.47623e-05 6.3187e-05 -1.02154e-20
6.70762e-05 0.000121392 -7.29614e-22
-0.000138441 2.22505e-06 -6.9307e-21
-0.000138302 -2.60323e-06 1.82366e-21
0.000100493 4.16278e-05 2.00655e-20
0.000241814 3.18331e-05 8.13737e-20
0.000241884 -3.18424e-05 -9.1956e-20
0.000100468 -4.16174e-05 -4.0132e-21
0.000126148 2.73394e-06 3.72111e-20
8.93376e-05 2.70993e-05 3.24649e-20
0.00011837 -3.33065e-05 4.1591e-20
0.000126142 -2.69566e-06 4.37754e-21
0.000118365 3.3337e-05 -2.62681e-20
8.93445e-05 -2.70521e-05 2.69932e-20
9.37091e-05 -2.64886e-05 4.63267e-20
9.31419e-05 -2.66709e-05 1.20389e-20
9.37138e-05 2.65092e-05 1.60502e-20
9.31075e-05 2.67036e-05 -7.29635e-21
-8.63701e-06 5.46095e-05 4.74031e-21
-9.18816e-06 -5.4882e-05 -2.40656e-20
-4.91976e-05 8.98891e-06 -7.65524e-21
-6.28547e-05 1.63514e-05 -1.09349e-20
-1.00442e-05 7.09691e-05 6.92842e-21
-1.05858e-05 -7.11288e-05 -2.69851e-20
-6.29002e-05 -1.61623e-05 5.47083e-22
-2.11099e-05 -3.31124e-05 -2.15123e-20
-3.52911e-05 -7.95148e-05 1.71256e-20
3.62168e-05 8.19243e-05 -1.60329e-20
8.31489e-05 3.78189e-05 -3.93516e-20
4.60566e-05 -4.78364e-05 -2.00587e-20
4.717e-05 4.71596e-05 2.95402e-20
-5.05461e-05 3.02145e-05 -1.53117e-20
5.28307e-06 -7.26104e-05 -3.64665e-20
5.76029e-06 7.23487e-05 2.6255e-20
5.13537e-05 8.03568e-06 -2.55188e-20
-2.6505e-05 -9.64581e-05 -1.64027e-21
2.61128e-05 9.74124e-05 -1.03867e-20
0.000100862 2.69512e-05 -5.22951e-20
2.42262e-05 6.53317e-05 -2.44223e-20
2.50387e-05 -6.43626e-05 -4.00942e-21
-4.62738e-05 -9.46571e-06 -9.47824e-21
-6.90225e-05 -0.000143452 4.28082e-21
-4.0892e-05 2.05821e-05 -2.22404e-20
-1.55407e-06 6.76785e-05 2.55293e-21
-2.15389e-06 -6.78612e-05 -2.51655e-20
-0.000152843 -7.39165e-05 5.32653e-20
-0.000152169 7.66413e-05 5.36267e-20
-3.30387e-05 4.46556e-05 9.66074e-21
-3.99182e-05 4.72678e-05 -1.56735e-20
-9.2148e-05 2.9746e-05 -2.36865e-20
-6.5171e-05 -3.13997e-05 1.89653e-20
-6.23591e-05 3.05675e-05 2.55298e-21
-1.06803e-05 2.19174e-05 -4.26589e-20
3.87318e-05 -4.61066e-05 -4.73849e-21
-1.92172e-05 -6.57237e-07 -5.03133e-20
-6.63119e-05 4.33123e-05 -2.84298e-20
-4.35964e-05 -4.4118e-05 -1.82232e-21
-7.65773e-05 -1.19995e-05 -1.94989e-20
-6.98512e-05 1.40539e-05 -3.60814e-20
-2.40223e-05 -6.52875e-05 -1.65853e-20
7.03121e-06 -4.45244e-05 -3.28141e-20
7.59706e-06 4.42266e-05 -5.46916e-21
-2.16919e-05 6.56799e-05 3.33785e-25
4.00983e-05 4.66467e-05 -2.40575e-20
-0.000155024 -0.000155011 -5.199e-20
-0.000152649 0.000152653 2.80439e-20
1.37174e-05 -3.55864e-05 -1.38564e-20
1.37603e-05 3.44974e-05 4.08409e-20
2.34371e-05 4.61562e-05 -7.47318e-21
-0.000153095 0.000166596 6.16414e-20
-0.000161491 -0.000155326 -6.30089e-20
7.96833e-05 -1.45703e-05 -1.27645e-20
7.90101e-05 1.57912e-05 7.29474e-22
3.74643e-05 1.31837e-05 -1.31254e-20
7.465e-05 -4.99734e-05 -2.37057e-20
7.4093e-05 5.03776e-05 1.16704e-20
2.35798e-05 -4.60526e-05 -8.38437e-21
-6.4688e-05 -0.000119487 3.21011e-20
-6.46408e-05 0.000118564 4.88797e-20
5.47866e-05 -3.15112e-05 -1.45854e-20
5.48116e-05 3.20304e-05 -7.29215e-22
-7.22852e-05 -0.000112131 -2.77235e-20
-7.20466e-05 0.000112141 7.29505e-21
7.51542e-05 0.000141858 -4.91822e-21
0.000142438 7.52186e-05 1.6849e-20
6.24337e-06 4.39405e-05 -1.09374e-21
5.67305e-06 -4.42341e-05 2.91664e-21
0.000156278 -6.47239e-05 1.71491e-20
0.000154516 6.4003e-05 7.29639e-21
-6.33856e-05 -4.41577e-05 -1.27573e-20
5.19194e-05 2.85296e-05 -6.56269e-21
5.19359e-05 -2.79638e-05 -3.53652e-20
-5.826e-05 4.86084e-05 1.23984e-20
-8.88765e-05 -2.00774e-05 -2.55087e-20
-6.70557e-05 0.000116149 4.74296e-20
-6.73557e-05 -0.000116647 -1.89738e-20
-5.00226e-05 -3.08959e-05 -2.8798e-20
5.023e-05 2.70966e-05 -2.47911e-20
-7.1039e-05 -7.72659e-05 4.1909e-21
-1.22593e-05 -0.000126742 -1.89705e-20
-1.17725e-05 0.000126806 -4.01243e-21
-6.02659e-05 -5.33702e-05 3.79272e-20
4.90598e-06 5.79595e-05 2.95351e-20
4.42233e-06 -5.78951e-05 -2.73468e-20
3.73536e-05 -1.31217e-05 -1.3126e-20
3.67085e-05 1.26723e-05 -1.09384e-20
8.38665e-05 -6.39922e-05 -5.21112e-20
6.3142e-05 1.39545e-05 -3.42648e-20
4.49731e-05 4.26011e-05 5.83451e-21
4.53576e-05 -4.22499e-05 -9.84569e-21
5.10547e-05 -2.72475e-05 -5.30452e-20
3.40616e-05 -3.03924e-05 -2.3701e-20
3.31381e-05 3.01208e-05 -6.19874e-21
-5.41959e-05 -2.41974e-05 -9.8434e-21
-5.68628e-05 4.47833e-05 -3.22531e-20
2.86925e-05 2.20317e-05 -2.37005e-20
2.78137e-05 -2.13644e-05 -4.73985e-20
-8.73182e-06 -1.4826e-05 -3.93774e-20
-8.20653e-06 1.44964e-05 -6.92814e-21
6.77128e-05 1.15367e-05 -5.23014e-20
-9.54629e-05 9.30406e-05 -3.46146e-21
-5.27905e-05 -3.15227e-05 -1.67715e-20
-5.45675e-05 2.58713e-05 -2.18721e-21
-0.00012981 2.12454e-05 -2.57777e-20
-5.05764e-05 3.08711e-05 -3.49943e-20
5.62751e-07 -5.98942e-05 -1.4948e-20
1.41229e-06 5.97666e-05 4.01054e-21
-4.45508e-05 -5.3389e-05 -2.73344e-21
8.27717e-05 -3.55313e-05 -5.55674e-20
-3.15015e-05 -2.16201e-05 -3.2086e-20
-3.15768e-05 2.33877e-05 4.70358e-20
4.10414e-05 -6.52908e-05 7.4718e-21
-4.32254e-05 6.98197e-05 -2.18679e-20
-5.19545e-05 -3.07504e-05 -2.33326e-20
-2.09674e-05 -3.29729e-05 1.05747e-20
-2.14304e-05 3.52467e-05 -2.15132e-20
1.22376e-05 6.28468e-05 -1.80416e-20
-4.72507e-05 -4.4857e-05 -2.26022e-20
7.30677e-06 -8.46495e-05 -2.187e-21
-1.10383e-05 8.72021e-05 -1.07499e-20
8.83508e-05 -9.38718e-06 -6.04886e-20
5.79234e-05 -3.94485e-05 -3.97253e-20
-8.69784e-05 0.000150666 -9.84952e-21
-8.68418e-05 -0.000150426 1.16773e-20
-6.22653e-05 -3.74783e-05 -1.60361e-20
6.53944e-05 -1.41329e-05 -5.32134e-20
-9.87736e-05 -7.8324e-05 -4.24462e-20
9.9319e-06 -3.4894e-05 -2.98947e-20
1.03129e-05 3.53547e-05 -1.09377e-20
3.84111e-05 -1.39101e-05 -3.31778e-20
-1.25803e-05 -6.13931e-05 -2.78821e-20
-1.86548e-05 -3.63385e-05 -1.34916e-20
-1.8126e-05 3.60003e-05 -2.9172e-21
5.87374e-05 8.26519e-05 -5.46652e-21
8.71723e-05 5.88155e-05 -2.22291e-20
-0.00012453 -5.57912e-06 -1.44827e-20
2.14319e-05 -4.1109e-06 -9.48075e-21
2.04524e-05 5.07296e-06 -7.25554e-20
1.77966e-05 1.09378e-06 7.65732e-21
-2.22465e-05 6.11929e-06 -4.84933e-20
-2.05085e-05 -5.92743e-06 4.08394e-20
-3.60622e-05 -2.70155e-05 -2.73428e-20
2.40762e-05 -9.36665e-05 -1.47601e-20
-2.20407e-05 9.34781e-05 -3.09787e-21
9.56719e-05 -2.48162e-05 -5.88557e-20
5.82074e-05 -4.43883e-05 -1.54903e-20
9.93339e-07 6.81869e-05 2.18725e-21
1.30703e-07 -6.85587e-05 -2.98925e-20
-4.46446e-05 8.93619e-05 -6.19461e-21
4.64807e-05 -8.40705e-05 -2.40488e-20
6.75296e-06 1.78438e-05 -3.64603e-22
6.17662e-06 -1.80748e-05 -4.74029e-21
3.29773e-05 -2.4814e-05 -4.41139e-20
3.3679e-05 2.5367e-05 -1.49485e-20
2.24731e-05 -3.24585e-05 -3.24524e-20
2.14824e-05 3.18101e-05 4.55815e-20
-4.86285e-05 2.9751e-05 -2.55209e-21
1.21416e-05 -6.37513e-05 -1.98639e-20
6.1771e-05 3.18604e-05 3.28199e-21
6.22169e-05 -3.12947e-05 -1.89626e-20
5.36639e-05 -3.47067e-05 -3.08044e-20
5.18901e-05 -2.85196e-05 -1.64074e-20
5.18836e-05 2.89987e-05 -1.53141e-20
-3.01427e-05 -0.000279866 -1.16441e-19
4.14531e-05 6.45914e-05 -7.65384e-21
-0.000288365 3.38221e-05 1.27425e-21
-1.06696e-05 6.41783e-05 -1.12988e-20
9.95508e-05 -8.9943e-05 -3.28274e-21
9.84627e-05 8.98677e-05 4.01237e-20
5.40905e-05 3.52059e-05 -1.93216e-20
6.32603e-05 -1.53845e-05 -5.1397e-20
5.89581e-05 4.10928e-05 -2.71517e-20
-4.0162e-06 -5.3652e-05 -3.64595e-20
-3.6655e-06 5.36524e-05 2.36986e-20
-4.66285e-05 3.78698e-05 -9.4822e-21
-4.69843e-05 -3.81991e-05 4.01184e-21
9.32872e-06 1.60836e-05 -7.29271e-21
7.6526e-06 -1.63122e-05 -6.41678e-20
-2.19007e-05 -4.46295e-05 -2.49711e-20
1.25837e-05 6.18991e-05 -1.00242e-20
4.72712e-05 -2.91846e-05 -2.69783e-20
4.76061e-05 2.9615e-05 -8.38532e-21
5.92297e-05 4.50012e-05 -7.29218e-22
-2.07196e-05 4.50674e-05 2.62475e-20
1.25808e-05 -6.26926e-05 -5.6498e-21
7.56625e-05 0.000137094 -6.37436e-21
0.000139072 7.55251e-05 8.92473e-21
-8.63526e-05 6.46256e-05 -2.87875e-20
5.17543e-05 -9.12462e-06 -4.95793e-20
0.000161961 -7.84356e-05 1.13099e-20
0.000160434 7.82406e-05 2.99158e-20
-8.86099e-05 -6.0455e-05 4.85137e-20
-8.68592e-05 6.18828e-05 1.3495e-20
-3.67567e-05 1.575e-05 -9.29685e-21
-8.60528e-06 1.4023e-05 5.76114e-20
-8.69391e-06 -1.37746e-05 -5.61476e-20
-7.26636e-05 9.70542e-05 3.53359e-20
-9.12555e-05 -7.80132e-05 -1.56644e-20
7.82156e-05 -0.000111741 -7.76005e-20
-7.10508e-05 0.000116171 2.27709e-20
0.000117094 -6.82141e-05 -6.50324e-20
-7.97463e-05 -4.31241e-05 -1.0021e-20
-9.6526e-06 -0.000125176 -3.45158e-20
-0.000118547 1.08434e-06 -2.39521e-20
6.87999e-05 -9.43823e-05 -2.29797e-20
7.02249e-05 9.43377e-05 4.08497e-20
-4.25706e-05 3.36661e-05 1.7502e-20
-1.86451e-05 -1.34886e-06 -4.66673e-20
-4.22649e-05 6.90981e-05 -1.8403e-20
4.47002e-05 -6.88073e-05 3.64196e-22
-4.24007e-05 -1.25466e-05 -3.40883e-20
6.78186e-05 -5.25481e-05 -3.64732e-20
6.71602e-05 5.29818e-05 1.20363e-20
-5.21376e-05 2.73916e-05 -4.73992e-21
-3.66342e-05 -2.46989e-05 -1.93231e-20
-3.24047e-05 2.37768e-05 4.73969e-20
-4.18503e-05 1.94504e-05 1.09373e-21
-1.06548e-05 -3.62053e-05 -1.87756e-20
-9.52482e-06 3.88373e-05 4.66672e-20
0.000160536 0.000160531 2.78601e-20
-1.17999e-05 -6.34569e-05 -3.49935e-20
-1.07326e-05 6.40507e-05 6.56135e-21
-1.22048e-05 -0.000126793 9.48401e-21
-1.16602e-05 0.000126938 7.29456e-21
1.79846e-05 -3.35033e-05 -7.29338e-22
1.81819e-05 3.27426e-05 2.15151e-20
-6.16142e-05 -3.24075e-05 1.45868e-20
-6.05629e-05 3.12913e-05 5.46965e-21
-0.000107504 1.98926e-05 2.18862e-21
-0.000105893 -1.98e-05 -2.44376e-20
0.000142298 7.92941e-05 1.38621e-20
0.000144327 -7.9465e-05 1.93357e-20
3.83614e-05 -4.22577e-07 -1.71392e-20
3.70818e-05 1.44815e-06 -6.05279e-20
5.60529e-05 2.61998e-05 -1.95023e-20
-3.67832e-06 -5.59689e-05 -3.59087e-20
4.81603e-05 -3.56908e-05 -9.47739e-21
-3.23257e-06 5.65335e-05 2.27855e-20
5.53374e-05 -2.65703e-05 -5.03049e-20
6.47981e-06 5.82557e-05 -2.73435e-21
4.8627e-05 3.62347e-05 -1.71327e-20
-3.89168e-05 7.01774e-07 -5.94368e-20
-4.00925e-05 -8.54046e-07 1.09397e-20
-4.13712e-05 -3.56829e-05 2.00555e-20
7.05427e-05 -0.000122206 -2.26241e-20
7.0951e-05 0.000122898 3.28304e-20
-5.19187e-05 3.03663e-05 7.29191e-21
-7.38948e-06 6.84298e-05 -1.31291e-20
8.15776e-05 -0.000143718 -1.34783e-19
0.000141595 -6.72727e-05 -8.83375e-20
1.13704e-05 -4.17185e-05 -1.49518e-20
1.10484e-05 4.11381e-05 9.11709e-21
-9.67136e-06 -7.17843e-05 4.34015e-20
5.80282e-06 -5.76469e-05 8.7495e-21
6.84372e-05 3.59334e-05 -3.15293e-20
5.64834e-05 -1.79983e-05 -1.96905e-20
5.64666e-05 1.88741e-05 -1.34923e-20
-0.000140112 -3.7752e-09 6.13039e-20
-0.000140002 1.03578e-08 8.02569e-21
-5.22708e-05 3.06404e-05 -1.34887e-20
4.4796e-05 4.99562e-05 6.19966e-21
4.51966e-05 -4.96072e-05 -2.62575e-20
1.42867e-05 4.11188e-05 3.57337e-20
1.4099e-05 -4.10615e-05 -2.91695e-20
6.25609e-06 -1.12625e-05 -4.73984e-20
6.99267e-06 1.21928e-05 5.90701e-20
0.000155641 -0.000155649 -7.83033e-20
-4.64048e-05 1.58962e-05 -2.40691e-20
-4.66093e-05 -1.44068e-05 -3.64831e-22
-1.1168e-05 -3.29845e-05 -2.88031e-20
-1.05571e-05 3.35663e-05 4.99513e-20
6.68046e-05 -3.58865e-05 -4.61098e-20
-5.2426e-05 -2.63431e-05 -1.42202e-20
-6.7784e-05 -8.79531e-06 -7.29348e-21
-6.74071e-05 1.12066e-05 1.45865e-20
-4.10368e-05 -1.92195e-05 9.11526e-21
2.07521e-05 -8.83559e-05 -4.88728e-20
2.05397e-05 8.83085e-05 2.84482e-20
2.83378e-05 0.000166188 1.78753e-20
2.75868e-05 -0.000165796 2.11607e-20
1.29609e-05 0.000277988 9.30487e-20
0.000280207 1.94419e-05 1.55684e-20
4.26267e-05 6.46543e-06 -1.93263e-20
4.21563e-05 -5.34501e-06 -3.93791e-20
0.000151841 -0.000189159 -1.09895e-19
0.00018477 -0.00015115 -6.6465e-20
6.78947e-05 -0.000163872 6.9313e-20
6.74263e-05 0.000162743 6.27496e-20
-4.93544e-05 -2.90029e-05 -2.98977e-20
4.54663e-05 2.45898e-05 -1.75019e-20
4.50685e-05 -2.39333e-05 -3.64611e-20
4.22751e-05 4.7031e-05 -1.45819e-20
4.1809e-05 -4.66512e-05 8.38422e-21
-1.79793e-06 -0.000133379 -2.24057e-20
-3.22729e-06 0.000123023 4.49953e-20
0.000127658 -3.97467e-06 -4.06234e-20
3.23015e-05 3.24216e-05 -2.47913e-20
3.16602e-05 -3.19754e-05 -2.07801e-20
-1.33494e-05 0.000136063 -4.09834e-21
0.00013443 -9.8057e-06 -1.29326e-20
6.03239e-05 -8.8551e-06 -3.86528e-20
6.04632e-05 9.91198e-06 -2.47973e-20
5.73838e-05 -1.90579e-05 -2.99029e-20
5.75205e-05 2.01166e-05 -1.16696e-20
0.000157462 0.000193716 3.91493e-20
0.00019458 0.000157616 3.76016e-20
4.79807e-05 2.63944e-05 -1.75011e-20
4.76632e-05 -2.57956e-05 -2.36984e-20
1.65892e-05 -9.74257e-05 -8.75456e-21
1.7275e-05 9.74245e-05 1.96961e-20
4.27274e-05 1.90536e-05 -2.80794e-20
4.36155e-05 -1.68106e-05 -1.93283e-20
6.66637e-05 -6.3011e-05 -4.30343e-20
6.60286e-05 6.31952e-05 1.09411e-20
-3.95436e-05 -9.20259e-06 -2.1513e-20
-4.21945e-05 1.03018e-05 1.82317e-20
6.17179e-05 0.000118988 5.03371e-20
9.11127e-05 9.17944e-05 4.77865e-20
6.23147e-05 -0.000119323 -5.50784e-20
9.19184e-05 -9.19395e-05 2.5535e-21
6.58151e-05 -0.000123392 -9.48471e-21
-0.000139325 -1.92207e-06 2.99142e-20
-0.000138952 2.59119e-06 2.04272e-20
6.71882e-05 0.000123868 3.72061e-20
0.00011061 -4.58213e-05 -4.74205e-21
0.00028916 -3.80608e-05 -1.9338e-20
0.000292491 3.8501e-05 2.55468e-21
0.000113413 4.6969e-05 1.67817e-20
0.000143009 3.28772e-06 1.82383e-21
9.73703e-05 -2.69213e-05 -5.47091e-21
0.000134299 4.36589e-05 7.29579e-21
0.000145454 -1.62831e-06 -1.0214e-20
0.00013635 -4.38755e-05 -8.39149e-21
9.83971e-05 2.952e-05 -2.04247e-20
0.000104101 -4.03951e-05 -3.5745e-20
0.000105357 -4.00082e-05 7.48027e-26
0.000102919 4.10789e-05 1.27656e-20
0.000104179 4.06945e-05 1.53204e-20
-2.30545e-05 -6.5082e-05 2.82496e-20
-9.28648e-06 5.46286e-05 1.04285e-19
8.99065e-06 -5.4731e-05 3.35453e-20
-4.92431e-05 -9.1008e-06 6.23364e-20
-6.15157e-05 -1.58577e-05 3.66325e-20
-1.06817e-05 7.08454e-05 8.31422e-20
1.03974e-05 -7.10878e-05 1.05748e-20
-6.60298e-05 1.65139e-05 4.6658e-20
-2.11774e-05 3.31958e-05 4.37544e-20
-3.58268e-05 -7.97116e-05 -9.10898e-21
-3.46604e-05 8.441e-05 9.09096e-20
8.29529e-05 -3.59307e-05 -1.94939e-20
4.59211e-05 4.7717e-05 1.25818e-19
-4.65303e-05 -4.76759e-05 -2.91756e-21
-2.29366e-05 -4.5903e-05 2.98922e-20
-7.44769e-06 -4.3965e-05 4.4481e-20
5.18883e-06 7.24674e-05 1.28724e-19
-5.5448e-06 -7.27137e-05 1.38568e-20
5.15961e-05 7.56804e-06 -1.5676e-20
-2.76057e-05 -9.56928e-05 7.65333e-21
-2.7794e-05 9.76186e-05 1.12063e-19
9.82467e-05 -2.60913e-05 -2.71499e-20
-4.28316e-05 -4.32201e-05 1.12991e-20
-6.75983e-05 1.58183e-05 4.1367e-20
-4.87138e-05 -4.35328e-05 1.45817e-21
2.50091e-05 6.41739e-05 3.80918e-20
-4.6655e-05 8.78234e-06 6.43421e-20
-7.15828e-05 -0.000145958 -4.2627e-20
-4.06776e-05 -2.04209e-05 2.26054e-20
0.000146257 -7.19078e-05 2.23148e-20
-2.38536e-06 6.76299e-05 1.01754e-19
2.06103e-06 -6.78567e-05 -1.45905e-21
-0.000152546 7.38041e-05 9.85046e-21
-0.000152167 -7.65726e-05 -8.75596e-21
-9.88041e-05 3.2209e-05 1.07503e-20
-3.59087e-05 -2.83822e-05 4.01021e-21
-6.50053e-05 3.13386e-05 3.79303e-20
-6.23724e-05 -3.07058e-05 1.3859e-20
-1.06535e-05 -2.17484e-05 -2.18769e-21
3.85085e-05 4.61771e-05 1.93187e-20
-6.36598e-05 4.20296e-05 6.83412e-20
-1.92725e-05 5.21442e-07 2.04172e-20
-4.18616e-05 4.45588e-05 1.05339e-19
-2.32928e-05 6.45012e-05 1.27214e-19
7.29096e-06 4.42425e-05 5.50563e-20
-6.44728e-05 4.19544e-05 1.04961e-19
-0.000154102 -0.000154102 -2.99561e-20
0.000156024 -0.000156034 -1.32937e-20
1.36631e-05 3.54985e-05 1.33093e-19
0.000156591 -0.000165731 5.91845e-21
-0.000168109 -0.000154778 -2.2945e-20
7.9439e-05 -1.53463e-05 1.64119e-20
7.92745e-05 1.54374e-05 -1.19648e-26
3.67803e-05 1.29097e-05 -2.66153e-20
7.4456e-05 -5.03909e-05 9.11733e-21
7.42859e-05 5.05221e-05 -9.84679e-21
2.35525e-05 4.58897e-05 4.77559e-20
-6.45519e-05 0.000119302 1.678e-20
-6.4633e-05 -0.000118484 9.11978e-21
5.48552e-05 -3.19147e-05 -1.45863e-21
5.47123e-05 3.19265e-05 6.56354e-21
-8.6685e-05 3.79599e-05 5.39251e-20
7.20761e-05 -0.000112021 -3.17346e-20
-7.29228e-05 0.000112108 5.21604e-20
3.82606e-05 -4.54606e-05 -1.71318e-20
-7.52746e-05 0.000141492 1.07106e-19
-0.000146346 7.74896e-05 6.38436e-20
5.68778e-06 4.38997e-05 8.53148e-20
-6.38415e-06 -4.37146e-05 4.77608e-20
0.000155607 -6.44625e-05 -4.92487e-20
0.000155623 6.44692e-05 8.39066e-21
8.32232e-06 -1.47713e-05 5.10447e-20
5.17908e-05 2.90004e-05 -2.55224e-21
5.19328e-05 -2.80598e-05 2.55203e-21
-3.14547e-05 -2.1509e-05 1.53135e-20
-1.35767e-05 -3.48052e-05 8.38701e-21
-9.14206e-05 -1.89514e-05 -1.03853e-20
6.40139e-05 1.42307e-05 -2.2965e-20
-7.93312e-05 -1.1264e-05 3.82741e-21
-5.83242e-05 -4.85262e-05 1.75041e-20
-6.70334e-05 -0.000116094 -3.3204e-20
-6.72357e-05 0.000116444 -1.13114e-20
-7.03622e-05 -7.73285e-05 -7.10597e-21
-5.13529e-05 2.99178e-05 9.22259e-20
5.06878e-05 -2.70577e-05 -1.40361e-20
1.2127e-05 -0.000126611 -3.31968e-20
-1.24429e-05 0.000126826 5.98223e-20
-6.00924e-05 5.3344e-05 6.05374e-20
4.32602e-06 5.77175e-05 1.27618e-19
-4.43981e-06 -5.8204e-05 2.18786e-21
3.71625e-05 -1.31431e-05 -2.00537e-20
3.58856e-05 1.23463e-05 -1.20322e-20
8.3745e-05 6.42741e-05 8.74614e-21
4.51873e-05 -4.2514e-05 -1.16688e-20
4.47305e-05 4.29159e-05 -5.8344e-21
5.00072e-05 2.7398e-05 -2.73435e-21
2.37259e-05 -6.41765e-05 -2.09598e-20
3.37959e-05 -3.05891e-05 -1.34915e-20
3.26502e-05 3.01113e-05 -8.38665e-21
-5.37561e-05 2.43539e-05 6.99987e-20
2.83689e-05 2.16132e-05 1.89602e-20
-6.46332e-05 -4.43382e-05 8.56602e-21
-2.30697e-05 5.50857e-06 9.11515e-21
-8.60919e-06 1.42853e-05 3.50048e-20
6.74487e-05 -1.18263e-05 -1.93169e-20
-5.26843e-05 3.12929e-05 1.00266e-19
-5.56279e-05 -2.55426e-05 5.83307e-20
-4.32747e-05 -5.24476e-05 4.19149e-21
-4.95418e-05 -3.24463e-05 2.69746e-20
-1.11355e-06 -5.99247e-05 4.73966e-21
5.39827e-07 5.96782e-05 1.23958e-19
8.25736e-05 3.57022e-05 3.64705e-22
-3.14722e-05 2.13641e-05 7.54744e-20
4.14465e-05 -6.55865e-05 -1.67654e-20
4.08405e-05 6.5552e-05 2.15036e-20
-5.12136e-05 2.99291e-05 9.95275e-20
-2.09315e-05 3.29548e-05 4.95913e-20
-2.14582e-05 -3.51448e-05 -2.55251e-21
-1.31984e-05 -6.08855e-05 1.82235e-20
-4.80584e-05 4.5401e-05 1.07541e-19
6.18951e-06 -8.47237e-05 -1.25715e-20
1.12904e-05 8.62472e-05 8.94589e-20
8.74605e-05 4.9343e-06 -2.82401e-20
8.7082e-05 -6.30694e-05 -3.88105e-20
5.7802e-05 3.98127e-05 1.14803e-20
-8.68367e-05 0.000150435 5.58192e-20
8.67792e-05 -0.000150307 -3.13778e-20
6.51769e-05 1.35628e-05 4.7381e-21
1.01063e-05 3.4897e-05 3.79169e-20
3.83883e-05 -1.40398e-05 -2.22402e-20
-1.24584e-05 6.13444e-05 1.30846e-19
1.82433e-05 -3.62801e-05 4.19325e-20
-1.84901e-05 3.57048e-05 3.50069e-20
2.89035e-05 -2.18594e-05 8.75095e-21
2.10537e-05 -4.65955e-06 1.27623e-20
-1.03885e-05 -3.33694e-05 3.06237e-20
1.7621e-05 7.27976e-07 -2.47949e-20
5.77128e-05 -4.17904e-05 -3.82674e-20
-2.22925e-05 -6.14292e-06 6.81822e-20
5.79392e-05 -4.41261e-05 -2.49675e-20
-6.74518e-05 8.2269e-05 1.03491e-19
-3.5655e-05 2.71015e-05 1.05726e-19
2.291e-05 -9.42562e-05 -1.34844e-20
2.38451e-05 9.30011e-05 7.54396e-20
9.6982e-05 2.43248e-05 -6.74185e-21
5.81038e-05 4.45424e-05 1.25748e-20
1.08287e-07 6.83337e-05 1.25404e-19
-6.79358e-07 -6.86375e-05 -4.37451e-21
4.60452e-05 -8.25263e-05 -1.76725e-20
4.59201e-05 8.45961e-05 3.33409e-20
6.01649e-06 -1.83794e-05 -2.58893e-20
6.46225e-06 1.81563e-05 -1.89612e-20
3.31592e-05 2.48133e-05 1.85944e-20
2.24182e-05 3.23701e-05 1.29077e-19
-4.94652e-05 -2.94031e-05 6.9274e-21
-9.80146e-05 -7.53809e-05 -4.27192e-20
1.21006e-05 6.35625e-05 6.88873e-20
6.18243e-05 3.17714e-05 -4.74081e-21
6.20153e-05 -3.1704e-05 2.55276e-21
5.3609e-05 3.50128e-05 2.5519e-20
5.18696e-05 -2.88354e-05 3.6461e-21
5.18037e-05 2.89008e-05 7.29101e-22
-2.50811e-05 -0.000283106 -5.78135e-20
0.000281071 -4.26651e-05 -2.17585e-20
1.21936e-05 -6.25268e-05 -7.65418e-21
9.91193e-05 -9.02172e-05 -1.86027e-20
9.89933e-05 9.05097e-05 -4.04882e-20
-0.000121927 -7.2009e-06 -3.45216e-20
-4.08927e-06 5.34855e-05 1.38179e-19
3.59242e-06 -5.42937e-05 -3.28149e-21
-4.43061e-05 6.46466e-05 1.09154e-19
1.94493e-05 5.89921e-06 2.8077e-20
-8.53428e-06 -1.67357e-05 4.70325e-20
-4.74238e-05 3.76017e-05 4.88695e-20
4.67985e-05 -3.81557e-05 1.71404e-20
3.30011e-05 -2.42867e-05 2.18772e-21
-3.64365e-05 -2.4708e-05 1.71355e-20
5.36989e-05 -3.48377e-05 -1.02075e-20
-6.34947e-05 -3.98283e-05 -5.83054e-21
6.12111e-05 -1.52473e-05 -2.2236e-20
8.77116e-06 1.58625e-05 1.89608e-20
-2.18548e-05 4.4626e-05 1.2686e-19
-1.2785e-05 -6.20656e-05 2.15064e-20
4.72868e-05 2.95521e-05 1.85933e-20
1.25536e-05 6.2469e-05 9.55043e-20
-2.22432e-05 -3.17692e-05 1.67742e-20
-7.52374e-05 0.000141909 9.65307e-20
-0.000137654 7.83378e-05 7.84993e-20
5.1651e-05 -9.6363e-06 -1.74986e-20
4.74148e-05 -2.94745e-05 1.05727e-20
0.000161472 -7.85701e-05 -3.64819e-20
0.000161546 7.87167e-05 -3.57526e-20
1.01513e-05 -3.54437e-05 8.02102e-21
-8.84189e-05 6.03636e-05 2.04267e-20
-8.66844e-05 -6.17777e-05 3.61115e-20
-3.7061e-05 -1.61956e-05 5.30449e-20
-8.72246e-06 1.37755e-05 9.95332e-20
7.97249e-05 -9.85329e-05 -4.18933e-21
-9.55198e-05 -7.52544e-05 -4.86329e-20
8.12534e-05 -0.00011649 -2.87825e-20
7.49693e-05 0.000109923 3.78902e-20
0.000120515 7.01899e-05 -4.06218e-20
7.42355e-06 -1.37394e-05 3.53691e-20
-3.67613e-06 -0.000125308 -5.32769e-20
0.000127853 -8.38435e-06 -9.38034e-21
6.86736e-05 9.42803e-05 1.14162e-19
-6.92426e-05 -9.41527e-05 4.0123e-21
-4.30605e-05 -3.39896e-05 4.26616e-20
-1.85684e-05 1.37268e-06 -4.73973e-21
4.40553e-05 6.86401e-05 4.00861e-20
4.46452e-05 -6.82712e-05 -3.00647e-20
-4.22869e-05 1.23247e-05 5.77855e-20
2.24126e-05 -4.50107e-05 -8.38469e-21
6.75381e-05 -5.30003e-05 7.29457e-21
6.7288e-05 5.31466e-05 -3.57436e-20
-5.18484e-05 -2.72745e-05 1.82311e-20
-3.62669e-05 2.42403e-05 1.05365e-19
-4.16223e-05 -1.93044e-05 4.81266e-20
-7.89642e-05 -4.32592e-05 -1.62156e-20
-1.06069e-05 3.57349e-05 1.29058e-19
-0.000161356 0.000161357 7.53866e-20
-1.17303e-05 6.32701e-05 1.41432e-19
1.13579e-05 -6.43928e-05 -1.51276e-20
1.20857e-05 -0.000126642 -1.38603e-20
-1.24729e-05 0.000126777 9.15507e-20
1.77984e-05 -3.38346e-05 -1.96915e-20
1.7661e-05 3.26323e-05 -2.55261e-21
-6.14152e-05 3.2356e-05 6.38166e-20
-6.09424e-05 -3.1281e-05 2.99019e-20
-0.000107282 -1.98477e-05 2.33444e-20
-0.000105805 2.02842e-05 4.63238e-20
0.000143444 -7.96163e-05 -3.39249e-20
0.000143374 7.97712e-05 -6.16487e-20
3.86805e-05 2.02299e-06 1.60449e-20
3.80268e-05 -9.60461e-07 2.00562e-20
5.57689e-05 -2.63085e-05 -1.45811e-20
-3.73727e-06 5.59007e-05 1.3835e-19
4.80808e-05 3.60064e-05 2.80683e-20
3.35072e-06 -5.56992e-05 -8.0204e-21
-8.82251e-05 6.05383e-05 1.00392e-19
5.54244e-05 2.64956e-05 1.56747e-20
-6.67589e-06 -5.91714e-05 2.97114e-20
-3.88569e-05 -7.60401e-07 3.4641e-20
-3.90523e-05 4.11234e-07 1.23978e-20
-4.09572e-05 3.54309e-05 7.51163e-20
7.04927e-05 0.0001221 7.18792e-20
-7.05629e-05 -0.000122241 3.28311e-21
-1.33808e-05 -4.27167e-05 8.75115e-21
-5.21071e-05 -3.08092e-05 5.14076e-20
-7.40019e-06 -6.83695e-05 -1.20355e-20
4.83748e-05 -3.55612e-05 -1.60391e-20
7.83975e-05 0.000146306 1.82149e-22
0.000140771 6.93062e-05 -2.34958e-20
1.11844e-05 -4.20518e-05 -1.85986e-20
1.0468e-05 4.08775e-05 -6.19953e-21
-9.6538e-06 7.16999e-05 5.76253e-20
5.8188e-06 5.74565e-05 7.34602e-20
6.78625e-05 -3.57498e-05 -3.49924e-20
5.65261e-05 -1.85211e-05 1.64094e-20
5.63938e-05 1.85553e-05 1.0575e-20
-0.000139836 6.33155e-09 2.26241e-20
-0.000140043 -6.2417e-09 -2.55435e-20
1.05625e-05 -3.30608e-05 1.71366e-20
-5.34259e-05 -3.18953e-05 5.32259e-20
4.45677e-05 5.0144e-05 -2.04223e-20
4.50213e-05 -4.99872e-05 -1.45868e-21
1.40387e-05 4.08855e-05 1.4074e-19
6.26395e-06 1.12571e-05 1.24329e-19
0.000157191 0.000157192 -1.74815e-20
-4.63011e-05 -1.58602e-05 3.39157e-20
-4.62346e-05 1.48667e-05 -7.29349e-22
-1.10648e-05 3.28611e-05 1.40004e-19
6.78125e-05 3.58042e-05 1.95011e-20
-5.2413e-05 2.6384e-05 1.134e-19
-6.76623e-05 8.81738e-06 5.61596e-20
-6.75986e-05 -8.81945e-06 -1.094e-21
-4.09137e-05 1.94364e-05 7.3286e-20
2.05578e-05 -8.86428e-05 -1.75063e-20
2.01421e-05 8.89635e-05 -1.38592e-20
2.7422e-05 0.000165811 5.83698e-20
-2.7782e-05 -0.000165704 -2.91859e-21
-2.1533e-05 0.00028331 6.42764e-20
-0.0002836 1.56461e-05 1.74799e-20
4.23725e-05 5.97245e-06 2.07846e-20
4.2129e-05 -6.07474e-06 1.6409e-20
-4.82415e-06 -1.20208e-05 2.98996e-20
0.000153823 0.000194435 3.00492e-21
0.000191531 0.000151831 -6.93788e-20
6.78687e-05 0.000163824 -6.93162e-21
6.78037e-05 -0.00016367 -2.2254e-20
-4.92486e-05 2.90789e-05 9.77148e-20
4.22349e-05 -4.60552e-05 -9.47825e-21
4.52499e-05 2.43441e-05 1.75017e-20
4.53563e-05 -2.43297e-05 8.02164e-21
3.17814e-05 -3.21515e-05 -6.19775e-21
4.1846e-05 4.67669e-05 3.35381e-20
-1.84066e-06 -0.000127637 -8.37964e-21
1.21896e-06 0.000129596 6.74023e-20
0.000136012 -8.22344e-07 -4.35373e-20
3.17941e-05 3.22315e-05 2.58846e-20
5.44511e-06 0.000133717 7.08541e-20
-0.0001345 -1.71049e-05 -2.13107e-20
6.04241e-05 -9.95332e-06 3.1361e-20
6.04578e-05 9.46733e-06 2.18787e-21
5.75555e-05 -1.97503e-05 2.99031e-20
5.7471e-05 1.98253e-05 3.28196e-21
-0.000158653 0.000197101 8.88603e-20
-0.000194668 0.0001587 5.33519e-20
4.76876e-05 2.60944e-05 2.26053e-20
4.77759e-05 -2.6045e-05 -2.91681e-21
1.64041e-05 9.73267e-05 8.60834e-20
-1.67643e-05 -9.72127e-05 -2.18842e-21
4.42001e-05 1.78053e-05 2.55277e-20
4.33697e-05 -1.76308e-05 6.56421e-21
6.63974e-05 -6.33374e-05 -3.6469e-21
6.61355e-05 6.35733e-05 -3.86581e-20
-3.93255e-05 9.23591e-06 5.57882e-20
-4.01816e-05 -9.65613e-06 4.01083e-21
6.18505e-05 0.00012004 -1.0578e-20
9.17088e-05 9.24192e-05 -3.13709e-20
6.20601e-05 -0.000119566 -1.93322e-20
9.16769e-05 -9.21677e-05 -2.07923e-20
-6.62382e-05 -0.000123353 -1.05784e-20
-0.000139098 -2.26204e-06 1.42273e-20
-0.000139047 1.92948e-06 4.52357e-20
6.56882e-05 0.000123314 9.55734e-20
0.000111933 4.63672e-05 1.8238e-20
0.000291202 3.83203e-05 -7.66184e-21
0.000111822 -4.63203e-05 -9.8487e-21
0.000291233 -3.83235e-05 -4.96203e-20
0.000144309 -2.70679e-06 2.04268e-20
9.80292e-05 2.79285e-05 3.90259e-20
0.000135422 -4.38818e-05 4.3773e-21
0.000144214 2.77941e-06 -2.73577e-20
9.78914e-05 -2.78844e-05 -3.39198e-20
0.000135332 4.39414e-05 -4.59624e-20
0.000103648 -4.09534e-05 1.67772e-20
0.000104891 -4.05746e-05 1.459e-21
0.000103517 4.10801e-05 -4.81437e-20
0.000104785 4.06934e-05 -4.9973e-20
-2.39715e-05 -6.61193e-05 1.03885e-20
-9.02808e-06 5.47129e-05 -6.5631e-21
9.50608e-06 -5.44533e-05 2.88062e-20
-4.91986e-05 8.97419e-06 3.49959e-20
-6.28612e-05 1.63392e-05 2.91605e-20
-1.04398e-05 7.11232e-05 -2.77149e-20
1.09131e-05 -7.08077e-05 1.49507e-20
-6.2907e-05 -1.61971e-05 1.14821e-20
-2.11047e-05 -3.31211e-05 3.64645e-22
-3.55e-05 -7.97836e-05 1.00203e-20
3.60534e-05 8.17687e-05 -8.19829e-21
8.30417e-05 3.75983e-05 -1.03842e-20
-4.61039e-05 -4.75773e-05 1.31291e-20
4.61608e-05 4.79235e-05 -2.11528e-20
-5.05647e-05 3.02772e-05 2.7706e-20
-2.23976e-05 -4.5438e-05 1.11185e-20
-7.6344e-06 -4.38326e-05 1.6772e-20
-5.06262e-06 -7.2648e-05 1.53154e-20
5.4633e-06 7.26757e-05 -4.1207e-20
5.13078e-05 7.66201e-06 -2.80707e-20
-2.73389e-05 -9.60323e-05 -1.64004e-21
2.58882e-05 9.73493e-05 -3.66249e-20
0.000100848 2.66737e-05 -2.40518e-20
2.38482e-05 6.52051e-05 -3.82725e-21
-4.40552e-05 -4.43385e-05 1.6767e-20
-4.62617e-05 -9.4923e-06 1.53108e-20
-6.91491e-05 -0.000143244 3.18831e-21
-4.08873e-05 2.05652e-05 1.13026e-20
-2.05562e-06 6.78741e-05 -5.25195e-20
2.76377e-06 -6.76498e-05 1.13059e-20
-0.000152531 -7.39314e-05 -3.35624e-20
-0.000152181 7.65942e-05 4.92523e-20
-3.30704e-05 4.47092e-05 8.01977e-21
-3.99951e-05 4.73378e-05 6.01413e-21
-9.21751e-05 2.97275e-05 3.69876e-20
-6.51136e-05 -3.15494e-05 -2.04238e-20
-6.23304e-05 3.05398e-05 1.8238e-21
-1.06787e-05 2.19015e-05 -5.10455e-21
-1.92137e-05 -6.72643e-07 7.29185e-21
-6.63337e-05 4.33261e-05 5.44906e-20
-7.65854e-05 -1.20343e-05 1.98636e-20
-6.98772e-05 1.40353e-05 4.84732e-20
6.90908e-06 4.42878e-05 2.15115e-20
-2.17994e-05 6.57206e-05 -4.119e-20
3.98299e-05 4.6391e-05 -9.47686e-21
-0.000155052 -0.000155047 2.74978e-20
-0.000152662 0.000152657 -1.91203e-20
1.37878e-05 3.56509e-05 -2.73484e-20
2.30614e-05 4.6083e-05 1.0754e-20
-0.000153107 0.000166518 4.09717e-21
-0.000161536 -0.000155362 2.09409e-21
7.91293e-05 -1.57176e-05 -1.34943e-20
7.96186e-05 1.4596e-05 -2.95408e-20
3.74792e-05 1.27867e-05 -2.40631e-20
7.42153e-05 -5.02812e-05 -1.71408e-20
7.45781e-05 5.00502e-05 -2.47998e-20
-6.45953e-05 -0.000119407 -4.12192e-20
-6.46326e-05 0.000118524 -2.77241e-20
5.48884e-05 -3.20589e-05 -2.44309e-20
5.4763e-05 3.14588e-05 -2.51598e-20
-7.22262e-05 0.000112129 -6.16483e-20
7.36893e-05 -0.000112359 -1.82381e-21
3.81736e-05 -4.55753e-05 5.46775e-21
7.50208e-05 0.000141752 -2.36826e-21
0.000142397 7.50432e-05 -1.56656e-20
5.83148e-06 4.40597e-05 2.74294e-25
-5.88909e-06 -4.34225e-05 1.93235e-20
0.000154474 -6.39856e-05 -1.93351e-20
0.000156388 6.47696e-05 -3.79469e-20
-6.33389e-05 -4.40144e-05 1.51267e-20
8.33758e-06 -1.39414e-05 2.37012e-20
5.1883e-05 2.81369e-05 -1.67713e-20
5.20273e-05 -2.83254e-05 -2.55215e-20
-3.191e-05 -2.17244e-05 2.55234e-21
-1.30914e-05 -3.46828e-05 1.71388e-20
-5.82305e-05 4.85876e-05 4.01157e-21
-8.89019e-05 -2.01241e-05 3.22503e-20
-6.70495e-05 0.000116117 -1.86087e-20
-6.72802e-05 -0.000116538 -3.35656e-20
-5.00793e-05 -3.08772e-05 2.40589e-20
5.0184e-05 2.66959e-05 -2.4244e-20
-7.11373e-05 -7.73274e-05 -4.73757e-21
1.271e-05 -0.000127197 1.24021e-20
-1.21916e-05 0.000126743 -1.02149e-19
-6.02403e-05 -5.33726e-05 -2.26096e-20
4.59973e-06 5.81234e-05 -1.09386e-20
-3.95268e-06 -5.80695e-05 2.91707e-20
3.66641e-05 1.22353e-05 -1.02091e-20
3.74284e-05 -1.35469e-05 -2.51585e-20
8.40089e-05 -6.31313e-05 -2.44159e-20
6.3144e-05 1.36057e-05 -2.47874e-20
4.53504e-05 -4.25122e-05 -2.44318e-20
4.50241e-05 4.23216e-05 -1.34923e-20
5.11165e-05 -2.75849e-05 -2.64319e-20
2.39193e-05 -6.39315e-05 4.37442e-21
3.41496e-05 -3.07557e-05 -3.09943e-20
3.30832e-05 2.97284e-05 -7.65723e-21
-5.41723e-05 -2.42033e-05 7.29165e-22
-5.69264e-05 4.47905e-05 7.63498e-20
2.77599e-05 2.14727e-05 1.34903e-20
-2.37323e-05 5.76388e-06 1.20331e-20
-8.75239e-06 1.4824e-05 3.35438e-20
6.76386e-05 1.12288e-05 -1.40322e-20
-9.5509e-05 9.30156e-05 5.71103e-20
-5.2797e-05 -3.15273e-05 -1.82313e-21
-5.45724e-05 2.5868e-05 2.5884e-20
-0.000129854 2.12216e-05 3.77101e-20
-5.05931e-05 3.08813e-05 5.28557e-20
-7.51375e-07 -5.97243e-05 2.07811e-20
1.12199e-06 5.99242e-05 -2.11461e-20
-4.48983e-05 -5.33523e-05 4.92033e-21
8.2954e-05 -3.57496e-05 -4.15392e-20
-3.15401e-05 2.3505e-05 -9.47984e-21
4.12203e-05 -6.475e-05 -9.11323e-22
-4.32932e-05 6.98214e-05 5.88606e-20
-5.19461e-05 -3.07355e-05 7.6559e-21
-2.0961e-05 -3.29806e-05 -1.8961e-20
-2.14245e-05 3.52247e-05 5.1051e-21
-1.2893e-05 -6.13158e-05 5.4688e-22
1.19996e-05 6.27485e-05 -1.03874e-20
7.48184e-06 -8.46614e-05 -5.28392e-21
-1.11714e-05 8.71635e-05 -4.19055e-21
8.83557e-05 -9.61873e-06 -3.57102e-20
5.87458e-05 -3.92928e-05 -2.91566e-21
8.7046e-05 -0.000150779 -7.29549e-22
-8.68574e-05 0.000150453 -8.79444e-20
-6.22533e-05 -3.75474e-05 2.07738e-20
6.54223e-05 -1.44532e-05 -2.36909e-20
-9.88239e-05 -7.83571e-05 1.92198e-20
9.72064e-06 3.51016e-05 8.74983e-21
3.8427e-05 -1.42914e-05 -2.04172e-20
1.81947e-05 -3.53095e-05 2.91722e-20
-1.86487e-05 3.62785e-05 1.78671e-20
5.85335e-05 8.24965e-05 1.71274e-20
8.70616e-05 5.85836e-05 2.36866e-20
2.92317e-05 -2.21513e-05 -5.10469e-21
-0.000124579 -5.61736e-06 2.91482e-20
2.03977e-05 -5.03553e-06 8.38579e-21
-9.94473e-06 -3.57172e-05 6.9272e-21
1.7822e-05 4.5486e-07 -2.69828e-20
-2.06521e-05 -5.32958e-06 -1.89596e-20
-4.72406e-05 -4.50665e-05 7.29073e-21
2.31901e-05 -9.36172e-05 -1.07513e-20
-2.21843e-05 9.34443e-05 3.6412e-22
9.57233e-05 -2.5143e-05 -3.42568e-20
5.89661e-05 -4.52847e-05 -9.11511e-22
7.09073e-07 6.82167e-05 -1.89559e-20
-3.12825e-07 -6.85228e-05 3.28123e-21
4.71058e-05 -8.48716e-05 -9.8381e-21
-4.4736e-05 8.93396e-05 7.87062e-20
6.63678e-06 1.74174e-05 -2.04198e-20
6.34066e-06 -1.84877e-05 -2.51601e-20
3.31588e-05 2.50843e-05 9.84369e-21
2.25916e-05 3.25866e-05 -4.77671e-20
-4.85854e-05 2.97993e-05 9.11488e-21
6.20879e-05 3.12795e-05 -8.75191e-21
6.19489e-05 -3.18535e-05 -2.73505e-20
5.19686e-05 -2.90454e-05 -2.58881e-20
5.18589e-05 2.84518e-05 -2.88043e-20
-3.00691e-05 -0.000279994 -9.01332e-21
4.11877e-05 6.43703e-05 9.47574e-21
-0.000288418 3.37886e-05 4.64339e-21
-3.65236e-05 -2.71823e-05 3.28117e-21
1.26166e-05 -6.2315e-05 -9.11164e-22
-1.08446e-05 6.42279e-05 -2.89759e-20
9.85567e-05 -8.95978e-05 1.60495e-20
9.95155e-05 9.02033e-05 -2.51689e-20
5.39515e-05 3.47937e-05 -1.76806e-20
6.32646e-05 -1.57188e-05 -3.09844e-20
5.87796e-05 4.08165e-05 7.65331e-21
-3.82351e-06 5.38921e-05 -1.42191e-20
3.97905e-06 -5.4207e-05 3.28136e-20
1.98854e-05 5.28924e-06 7.29293e-22
5.38513e-05 -3.5062e-05 -1.22128e-20
-9.65463e-06 -1.60516e-05 1.31267e-20
-4.69037e-05 3.81342e-05 -2.33413e-20
4.79878e-05 -3.72628e-05 1.05761e-20
3.32109e-05 -2.45083e-05 -5.4691e-21
-3.70543e-05 -2.52048e-05 -2.3699e-21
7.60699e-06 1.63047e-05 1.96879e-20
1.2299e-05 6.19313e-05 -1.82259e-20
-1.27325e-05 -6.178e-05 4.37447e-21
4.73506e-05 2.91018e-05 -2.66139e-20
5.90476e-05 4.46884e-05 9.47643e-21
-2.08309e-05 4.52015e-05 -5.26764e-20
-2.15806e-05 -3.17088e-05 2.29733e-20
7.55331e-05 0.000136955 -1.12008e-20
0.00013898 7.53544e-05 -3.23289e-20
-8.64057e-05 6.46246e-05 8.81838e-20
4.75561e-05 -2.96788e-05 -2.66144e-20
5.18134e-05 -9.48971e-06 -2.80707e-20
0.000162113 7.85815e-05 -1.34989e-20
0.000160341 -7.81004e-05 -1.56874e-20
1.05423e-05 -3.55774e-05 1.9688e-20
-8.8466e-05 -6.05014e-05 -3.39201e-20
-8.68107e-05 6.18257e-05 2.55334e-20
-3.67552e-05 1.57372e-05 1.95044e-20
-9.22573e-06 1.38218e-05 -4.6668e-20
-7.27284e-05 9.7026e-05 2.86878e-20
-9.13017e-05 -7.80465e-05 -6.37345e-22
7.82142e-05 -0.000111993 -2.78707e-20
-7.1118e-05 0.000116123 3.57051e-20
0.000117163 -6.83214e-05 -3.77081e-20
-7.98355e-05 -4.32267e-05 2.86057e-20
8.13632e-06 -1.38981e-05 1.02097e-20
-9.56744e-06 -0.000125292 -2.6775e-20
-0.000118588 1.05572e-06 -5.82843e-21
6.88868e-05 9.4434e-05 -6.96685e-20
-6.8886e-05 -9.41986e-05 -1.82359e-21
-4.25605e-05 3.36645e-05 2.55234e-21
-1.86421e-05 -1.36343e-06 -1.31252e-20
-4.2361e-05 6.91205e-05 4.86484e-20
4.48068e-05 -6.77708e-05 -3.46186e-21
-4.23992e-05 -1.25643e-05 1.23955e-20
2.26212e-05 -4.50006e-05 2.02329e-20
6.73794e-05 -5.28594e-05 -1.56836e-20
6.76497e-05 5.26509e-05 -3.35554e-20
-5.21163e-05 2.74243e-05 4.73997e-21
-3.24379e-05 2.39267e-05 -3.35409e-20
-4.18397e-05 1.94398e-05 2.18753e-21
-9.60793e-06 3.89554e-05 -5.41391e-20
0.000160429 0.000160434 -4.35209e-20
1.17401e-05 -6.42711e-05 8.01958e-21
-1.08975e-05 6.41242e-05 -2.93439e-20
-1.21103e-05 0.000126828 -1.31317e-19
1.28797e-05 -0.000126963 1.13067e-20
1.81904e-05 -3.39692e-05 -3.09962e-20
1.80185e-05 3.22563e-05 -8.7518e-21
-6.17845e-05 -3.24915e-05 -1.13044e-20
-6.04694e-05 3.12906e-05 2.91729e-21
-0.000107283 1.95092e-05 -1.96962e-20
-0.000105876 -2.00034e-05 1.53197e-20
0.000142333 -7.91467e-05 3.64807e-22
0.000144373 7.96171e-05 2.18899e-21
3.89319e-05 1.45081e-06 -6.92867e-21
3.70429e-05 -1.40804e-06 -1.13035e-20
5.59092e-05 2.58145e-05 -2.47879e-20
-3.41297e-06 5.66214e-05 -3.22634e-20
3.74169e-06 -5.55881e-05 2.24213e-20
5.55547e-05 -2.68829e-05 -1.40346e-20
-6.17662e-06 -5.86746e-05 2.02333e-20
6.06511e-06 5.82087e-05 -4.73926e-21
4.83556e-05 3.58472e-05 -3.46292e-21
-3.90717e-05 5.75314e-08 1.45865e-20
-3.9465e-05 -4.5593e-07 -6.92829e-21
4.83202e-05 -3.60244e-05 -1.25762e-20
-4.13523e-05 -3.56907e-05 -9.84536e-21
7.0585e-05 0.00012228 -9.81596e-20
-7.05706e-05 -0.000122243 -7.29569e-21
-1.28928e-05 -4.26998e-05 2.84413e-20
-5.19007e-05 3.03674e-05 1.82282e-21
-7.38808e-06 6.84006e-05 -4.74126e-21
8.15652e-05 -0.000143882 -3.3787e-20
0.000141611 -6.73808e-05 -3.59727e-20
1.17349e-05 -4.19889e-05 -2.84452e-20
1.07236e-05 4.084e-05 -2.55275e-21
-9.66801e-06 -7.17762e-05 -3.35526e-20
6.83603e-05 3.56017e-05 -1.74959e-20
5.6534e-05 -1.8865e-05 -3.82889e-20
5.64536e-05 1.80085e-05 -1.75027e-20
-0.000139768 -1.01425e-08 7.29677e-22
-0.000140053 3.81956e-09 7.51705e-20
1.09742e-05 -3.30741e-05 2.62519e-20
-5.22675e-05 3.06531e-05 2.62483e-20
4.4847e-05 4.96585e-05 -2.99042e-20
4.51895e-05 -4.98856e-05 -2.40692e-20
1.42349e-05 4.12836e-05 -2.98985e-20
7.30148e-06 1.18833e-05 -4.92215e-20
0.000155738 -0.000155736 -4.95307e-20
-4.71253e-05 1.55738e-05 -1.45872e-21
-4.62587e-05 -1.45807e-05 -9.1172e-21
-1.06324e-05 3.37235e-05 -4.70328e-20
6.68222e-05 -3.60195e-05 -2.11414e-20
-5.24661e-05 -2.6326e-05 -2.55258e-21
-6.84702e-05 -7.31887e-06 -4.01142e-21
-6.72781e-05 1.13066e-05 1.75041e-20
-4.10343e-05 -1.92281e-05 -1.09386e-21
2.03364e-05 8.8627e-05 -2.84482e-20
2.09981e-05 -8.80251e-05 -1.6777e-20
2.76624e-05 0.000165836 -1.29518e-19
-2.73216e-05 -0.000166177 7.29564e-22
1.2858e-05 0.000277857 -4.00647e-21
0.000280189 1.93003e-05 -6.16363e-20
4.22899e-05 -6.56614e-06 -2.80778e-20
4.21653e-05 5.38032e-06 3.64543e-22
-4.32885e-06 -1.21494e-05 2.00549e-20
0.000151919 -0.000189434 -8.02134e-20
0.000184779 -0.000151256 -3.6328e-20
6.79802e-05 0.000164079 2.00644e-20
6.73582e-05 -0.00016258 1.64169e-20
-4.93043e-05 -2.90493e-05 -1.09393e-21
4.23725e-05 -4.62019e-05 -1.09364e-20
4.54805e-05 -2.46133e-05 -2.77112e-20
4.50712e-05 2.39232e-05 -1.20322e-20
3.19842e-05 -3.24168e-05 -1.20311e-20
4.1933e-05 4.6763e-05 -1.16652e-20
-3.36421e-06 0.000122968 -6.55806e-21
-1.62033e-06 -0.000133647 -7.83302e-21
0.000127705 -4.19845e-06 -4.09877e-20
3.18195e-05 3.19474e-05 -2.91638e-21
-1.34451e-05 0.000135956 -1.102e-20
0.000134394 -9.9582e-06 -5.6467e-21
6.03675e-05 -1.03982e-05 -2.5162e-20
6.02973e-05 8.88524e-06 -1.75032e-20
5.75378e-05 -2.00634e-05 -2.47979e-20
5.736e-05 1.90753e-05 -1.53161e-20
0.000157354 0.000193596 -5.48092e-20
0.000194531 0.000157514 -5.94527e-20
4.77299e-05 2.58318e-05 -5.8335e-21
4.79128e-05 -2.63376e-05 -2.0418e-20
1.6667e-05 9.7478e-05 -8.93707e-20
-1.6236e-05 -9.72667e-05 1.31309e-20
4.43637e-05 1.69826e-05 -1.7505e-20
4.26976e-05 -1.90356e-05 -2.66208e-20
6.62568e-05 -6.30387e-05 -2.11527e-20
6.64851e-05 6.31514e-05 -3.75637e-20
-3.96436e-05 -9.36313e-06 -9.48058e-21
-4.21685e-05 1.04052e-05 1.60436e-20
-6.58771e-05 -0.000123454 -1.09423e-21
-0.000138909 -2.17596e-06 7.66013e-21
-0.000139032 2.44915e-06 2.80901e-20
6.5901e-05 0.000123454 -1.20748e-19
6.21479e-05 0.000119779 2.62625e-20
9.19955e-05 9.21706e-05 2.91841e-21
6.19282e-05 -0.00011852 -1.93321e-20
9.10695e-05 -9.15602e-05 2.18873e-21
0.00011069 4.58553e-05 -2.33453e-20
0.000113415 -4.69698e-05 -2.73615e-20
0.000292697 -3.8528e-05 -4.96335e-20
0.000289081 3.80513e-05 -4.2324e-20
0.000143067 -3.21786e-06 -1.53204e-20
9.74604e-05 2.69696e-05 -2.07898e-20
0.000145486 1.67326e-06 -3.2466e-20
9.83841e-05 -2.95052e-05 -3.53784e-20
0.000136377 4.39425e-05 -9.12113e-21
0.000134353 -4.35998e-05 -3.64761e-22
0.000103004 -4.0969e-05 -2.18827e-21
0.000104254 -4.05877e-05 9.84876e-21
0.000104094 4.04817e-05 -2.95443e-20
0.000105342 4.00974e-05 -2.62631e-20
-8.72571e-06 5.43888e-05 -4.01086e-21
6.72437e-06 -5.99618e-05 -2.11528e-20
-4.87866e-05 -9.53542e-06 -4.64805e-20
-6.11177e-05 -1.681e-05 -4.39242e-20
-1.01011e-05 7.03684e-05 -1.05753e-20
6.0894e-06 -6.7363e-05 -1.05772e-20
-6.52753e-05 1.56798e-05 -4.00973e-20
-2.0301e-05 3.26703e-05 -3.13589e-20
-3.4547e-05 8.481e-05 -2.91494e-20
-3.30399e-05 -8.28512e-05 -3.09763e-21
8.4701e-05 3.40454e-05 2.7693e-20
4.77752e-05 -4.4902e-05 1.86019e-20
4.57511e-05 4.74404e-05 3.79293e-20
-4.75502e-05 -3.21659e-05 -2.18756e-21
1.33404e-05 -6.5829e-05 3.64743e-22
5.47329e-06 7.19101e-05 2.33386e-20
5.09465e-05 -1.19846e-05 -2.29685e-20
-2.27653e-05 -0.000102297 -8.01845e-21
-2.76425e-05 9.80921e-05 -2.51456e-20
0.000101059 2.35222e-05 1.84044e-20
-6.76549e-05 1.46271e-05 -5.5582e-20
2.56959e-05 6.38061e-05 -3.00729e-20
3.20436e-05 -7.27351e-05 -4.92183e-20
-4.60375e-05 7.96846e-06 -3.66381e-20
-6.94734e-05 -0.00015071 -5.18293e-20
-3.93972e-05 -2.07695e-05 -4.30248e-20
0.000150469 7.14277e-05 2.26799e-20
-1.9105e-06 6.71947e-05 2.18842e-21
1.20884e-05 -6.5037e-05 -1.09418e-21
-0.000151925 7.3858e-05 -2.33466e-20
-0.000147826 -7.65059e-05 2.22524e-20
-9.92144e-05 3.12018e-05 -6.50502e-20
-3.0674e-05 -4.55322e-05 1.05727e-20
-5.95846e-05 -3.15566e-05 -4.74132e-21
-6.43086e-05 3.12737e-05 -5.7258e-20
-1.00944e-05 -2.20641e-05 -3.86518e-20
3.96958e-05 4.51436e-05 -6.56103e-21
4.36979e-05 -5.7191e-05 -5.7965e-20
-6.36064e-05 4.15808e-05 -6.70675e-20
-1.8382e-05 -2.45605e-07 -3.42741e-20
-4.08889e-05 -4.88062e-05 3.2811e-21
-4.18494e-05 4.44549e-05 -5.21227e-20
-1.80244e-05 -6.74843e-05 1.09366e-20
-2.31158e-05 6.45753e-05 -3.06189e-20
2.01844e-05 -5.38835e-05 -2.11532e-20
7.46198e-06 4.39702e-05 -2.33349e-20
-6.4898e-05 4.14637e-05 -7.30729e-20
-0.000161812 -0.000161824 -3.31443e-20
0.000160758 0.000160778 -1.36578e-21
1.72168e-05 -3.33301e-05 2.51641e-20
1.37409e-05 3.53131e-05 3.60998e-20
0.000161405 0.000171805 2.73333e-22
-0.000169194 -0.000162182 -1.08355e-19
7.7975e-05 1.36266e-05 1.96953e-20
6.27875e-05 -3.41943e-05 3.28312e-21
3.63731e-05 -1.7239e-05 -3.8283e-20
7.30961e-05 4.79245e-05 -1.05769e-20
5.97823e-05 -5.53283e-05 1.6779e-20
2.42361e-05 4.54605e-05 -3.79132e-20
3.0747e-05 -5.64621e-05 -2.69819e-20
-6.20244e-05 -0.000118523 1.67793e-20
-6.38224e-05 0.000119775 1.16726e-20
5.41549e-05 2.96063e-05 -9.84556e-21
4.96387e-05 -4.17455e-05 -4.44934e-20
-8.75357e-05 3.6743e-05 -6.0303e-20
-7.12838e-05 0.000110877 7.66063e-21
-3.1776e-05 -9.06581e-05 -8.75599e-21
-7.77553e-05 0.00014553 -3.28796e-20
-0.000147942 7.67623e-05 -2.77788e-20
6.19575e-06 4.3699e-05 -2.00524e-20
1.63476e-05 -5.30631e-05 -1.34927e-20
0.000152498 6.31842e-05 -6.861e-20
0.00012009 -4.97231e-05 1.24065e-20
5.16142e-05 2.50874e-05 -2.55227e-20
4.87791e-05 -3.45659e-05 -3.28176e-20
-9.16844e-05 -2.09636e-05 -6.26795e-20
6.49695e-05 -1.95064e-05 -6.92661e-21
-7.81615e-05 -1.23656e-05 -4.73812e-20
-5.56444e-05 -4.88962e-05 -2.29742e-20
-6.71182e-05 0.000116222 2.95478e-20
-6.60675e-05 -0.000114434 2.84536e-20
-6.90337e-05 -8.02879e-05 -1.29379e-20
-5.12588e-05 2.94305e-05 -4.30142e-20
5.07894e-05 2.44244e-05 7.29146e-21
1.00948e-06 -9.86302e-05 1.38634e-20
-1.19663e-05 0.000125318 -4.63319e-20
-5.94286e-05 5.31387e-05 -4.26668e-20
1.29378e-05 -5.89667e-05 -1.82364e-21
4.63194e-06 5.7515e-05 2.47948e-20
3.6779e-05 9.66429e-06 -9.00607e-20
3.38066e-05 -1.56242e-05 -4.15675e-20
8.80704e-05 -7.24405e-05 -4.15471e-20
4.42418e-05 3.9084e-05 -9.99182e-20
3.89141e-05 -4.49216e-05 -2.5163e-20
4.91145e-05 -3.48683e-05 -2.77097e-20
3.33081e-05 2.76377e-05 -7.32918e-20
3.01618e-05 -3.56465e-05 -2.99016e-20
-5.32701e-05 2.38289e-05 -3.31769e-20
2.77916e-05 2.05949e-05 1.02091e-20
3.36141e-05 -3.94049e-05 -2.44369e-20
-6.40855e-05 -4.53861e-05 -2.00484e-20
9.99988e-06 -3.46981e-05 -9.11858e-21
-8.21086e-06 1.44376e-05 -3.28151e-21
6.84548e-05 8.4181e-06 2.27801e-20
-5.22545e-05 3.09072e-05 -3.24494e-20
-5.42757e-05 -2.66958e-05 -3.86459e-20
-4.11804e-05 -5.53854e-05 -1.29389e-20
-4.7631e-05 -3.44761e-05 -1.34881e-20
8.88647e-06 -6.10646e-05 -1.16688e-20
1.00696e-06 5.93922e-05 3.64671e-22
8.67723e-05 -4.08539e-05 -4.4822e-20
-3.12249e-05 2.13024e-05 -4.30239e-20
-2.87918e-05 -2.4887e-05 1.5315e-20
4.57198e-05 -7.39881e-05 -6.41555e-20
4.19686e-05 6.41208e-05 9.11265e-22
-5.07e-05 2.94653e-05 -4.26553e-20
-1.98777e-05 3.22548e-05 -1.49508e-20
-1.96956e-05 -3.39702e-05 -2.95373e-20
-4.78884e-05 4.52755e-05 -3.97357e-20
1.08249e-05 -9.06298e-05 -4.66475e-20
1.18866e-05 8.65945e-05 -4.09948e-20
8.9896e-05 -8.59544e-06 -9.29217e-21
8.88545e-05 6.13668e-05 1.18438e-20
6.11459e-05 -4.70577e-05 -2.95241e-20
-6.99213e-05 -0.000121128 1.31342e-20
-8.59098e-05 0.000148795 -4.56143e-20
6.65549e-05 -1.85987e-05 -1.20287e-20
1.04174e-05 3.41596e-05 -1.5312e-20
2.16447e-05 -4.90241e-05 -2.62561e-20
3.80304e-05 1.05801e-05 -4.41164e-20
-8.06161e-06 -6.46886e-05 -7.29037e-21
-1.21151e-05 6.13711e-05 -1.67658e-20
-1.80806e-05 3.58317e-05 1.71382e-20
5.12261e-06 -4.52789e-05 -6.93088e-21
2.05985e-05 -5.24391e-06 2.55228e-20
2.92209e-05 -2.3627e-05 -8.02463e-21
1.71416e-05 -3.25752e-06 -1.02455e-19
5.89608e-05 3.94428e-05 1.42141e-20
-1.82778e-05 4.04334e-06 1.93273e-20
-2.20913e-05 -6.05995e-06 -5.03154e-20
5.92238e-05 4.28771e-05 9.11238e-21
-6.79417e-05 8.26284e-05 -7.10602e-20
-3.54656e-05 2.69501e-05 -2.40617e-20
2.95694e-05 -0.000100709 -7.69069e-20
2.50984e-05 9.37017e-05 -2.98846e-20
0.00010044 -3.0061e-05 -2.67875e-20
6.16269e-05 -5.46248e-05 -3.135e-20
5.60898e-07 6.83281e-05 -5.83258e-21
8.26109e-06 -7.36138e-05 -1.23965e-20
5.0848e-05 -9.24428e-05 -7.50706e-20
4.78863e-05 8.20021e-05 -1.74911e-20
6.16827e-06 1.48081e-05 -1.34546e-19
5.66788e-06 -2.11821e-05 -5.46937e-20
3.31885e-05 2.42009e-05 -1.82272e-21
3.75814e-05 -4.2053e-05 -3.13628e-20
2.33064e-05 -3.12118e-05 2.99047e-20
2.23831e-05 3.22263e-05 1.31269e-20
-4.55732e-05 -3.15089e-05 2.55232e-21
-9.73656e-05 -7.95725e-05 -5.02817e-20
1.81434e-05 -7.20743e-05 -4.84825e-20
1.29319e-05 6.32e-05 -2.16868e-20
6.07726e-05 2.94119e-05 -3.17277e-20
5.07388e-05 -4.17238e-05 -2.26129e-20
5.36524e-05 -4.56733e-05 -5.63318e-20
5.14642e-05 2.68297e-05 -1.60436e-20
4.82844e-05 -4.03373e-05 -5.10536e-20
-3.00003e-05 -0.000293596 -4.61607e-20
0.000291348 4.22589e-05 2.97712e-20
9.71235e-05 8.74131e-05 -5.50853e-20
7.62084e-05 -8.46107e-05 2.91853e-20
5.39016e-05 3.3124e-05 1.73169e-20
-0.000122022 -9.27912e-06 -6.42178e-20
1.23572e-06 -5.30833e-05 9.48057e-21
-3.84538e-06 5.32519e-05 2.29697e-20
-4.43064e-05 6.46351e-05 -7.67184e-20
-4.62302e-05 3.76789e-05 -1.53176e-20
-1.67417e-05 -4.67106e-05 -1.13081e-20
-6.33438e-05 -4.3112e-05 -3.31663e-20
6.19723e-05 1.19716e-05 -2.18703e-21
7.93949e-06 1.59035e-05 3.64602e-21
2.19486e-05 -3.57848e-05 -1.09429e-21
-1.74098e-05 -4.64423e-05 1.27606e-20
-2.1665e-05 4.45394e-05 -2.42423e-20
4.72967e-05 2.74295e-05 1.09375e-21
4.75864e-05 -4.04354e-05 -5.54257e-20
1.3294e-05 6.23297e-05 -2.00489e-20
1.97385e-05 -6.82036e-05 -2.0781e-20
-7.82439e-05 0.000139919 2.91407e-21
-0.000139435 7.75921e-05 -2.54994e-20
5.18111e-05 6.00665e-06 -3.64706e-22
0.000157929 7.62921e-05 -7.62653e-20
0.00012907 -7.13384e-05 2.91907e-21
-8.78303e-05 6.04294e-05 -6.52904e-20
-8.33533e-05 -6.19377e-05 1.8237e-20
-3.60632e-05 -1.68731e-05 -4.86733e-20
-6.77853e-06 -1.52173e-05 1.93269e-20
-8.58528e-06 1.37672e-05 -3.4636e-20
7.99597e-05 9.96058e-05 6.73969e-21
-9.36247e-05 -7.93876e-05 -7.78715e-20
8.24717e-05 -0.000120009 -7.37821e-20
8.09752e-05 0.000113925 -1.53022e-20
0.00012541 -7.59695e-05 -4.62716e-20
-8.60244e-06 -0.000131794 -6.38454e-20
0.000131718 6.52943e-06 5.2823e-21
6.82284e-05 9.34473e-05 1.9332e-20
6.59466e-05 -8.20809e-05 2.62639e-20
-4.09997e-05 -3.49475e-05 -2.9172e-20
-1.78042e-05 4.5379e-07 -3.39108e-20
4.90664e-05 -7.72012e-05 -9.47597e-20
4.62621e-05 6.81941e-05 -2.07721e-20
-4.15828e-05 1.16531e-05 -4.02875e-20
6.5915e-05 5.06324e-05 -4.19471e-20
5.33892e-05 -5.77255e-05 2.84533e-20
-5.00297e-05 -2.89322e-05 -9.48066e-21
-3.60536e-05 2.41986e-05 -3.90104e-20
-3.02387e-05 -2.5577e-05 2.47944e-20
-3.95284e-05 -2.06137e-05 -4.37534e-20
-7.76215e-05 -4.62787e-05 -4.30013e-20
-1.04453e-05 3.56718e-05 -3.82803e-20
-6.10506e-06 -3.85243e-05 2.15126e-20
-0.000162123 0.000162104 4.18829e-20
-1.14228e-05 6.32029e-05 -4.55623e-21
-7.1684e-06 -6.70145e-05 -1.09368e-20
-1.1849e-05 0.00012545 -7.25893e-20
5.39484e-06 -0.000104307 1.38621e-20
1.70617e-05 2.90986e-05 -1.45494e-19
1.57933e-05 -3.42675e-05 -1.4586e-20
-5.72717e-05 -3.24921e-05 -7.29242e-22
-6.09817e-05 3.22173e-05 -4.15713e-20
-0.000102029 1.82045e-05 2.73557e-20
-0.000106667 -1.96938e-05 -5.3615e-20
0.000140981 7.72719e-05 -8.39175e-21
0.00010421 -7.27938e-05 6.20268e-21
3.67406e-05 -1.72446e-06 4.77681e-20
3.87589e-05 -2.57075e-05 -4.01275e-21
5.62385e-05 2.36226e-05 2.26017e-20
1.89314e-06 -5.76016e-05 2.06006e-20
-3.4645e-06 5.58663e-05 -5.46836e-22
5.15538e-05 -4.60482e-05 -5.1588e-20
-8.91527e-05 6.04388e-05 -7.12418e-20
5.6207e-05 -3.3689e-05 -3.7369e-20
4.90296e-05 3.37867e-05 1.43988e-20
-3.85628e-05 -7.0874e-07 -5.76117e-20
-3.63572e-05 -1.20318e-06 1.31284e-20
-4.02181e-05 3.51557e-05 -3.64647e-20
6.98443e-05 0.00012101 -6.56829e-21
6.13099e-05 -0.000106181 -4.37817e-21
-4.99198e-05 -3.20781e-05 -1.75011e-20
-5.03216e-06 -6.86131e-05 -1.78708e-20
8.58485e-05 -0.000152131 -8.99846e-20
0.000148068 -7.49811e-05 -5.92902e-20
9.40765e-06 3.86089e-05 -1.2618e-19
8.10025e-06 -4.30918e-05 -9.48196e-21
-8.38995e-06 7.1712e-05 -2.84475e-20
1.64704e-05 -6.57769e-05 -1.23978e-20
6.32506e-06 5.7141e-05 -2.97118e-20
6.88846e-05 3.35097e-05 2.69736e-20
5.57438e-05 1.69638e-05 2.07854e-20
5.03489e-05 -3.6115e-05 -3.93904e-20
-0.000135685 -3.96147e-09 1.6051e-20
-0.000139197 -1.01628e-08 8.75659e-21
-5.15244e-05 -3.32504e-05 -2.1146e-20
4.4056e-05 4.73947e-05 -5.83515e-20
3.86974e-05 -5.45442e-05 -1.60477e-20
1.41209e-05 4.07664e-05 1.4585e-20
1.78649e-05 -4.15257e-05 1.96922e-20
1.00006e-05 -1.32443e-05 1.38574e-20
6.34286e-06 1.12596e-05 -1.85947e-20
0.000163363 -0.000163344 -4.40721e-20
-4.32668e-05 1.28602e-05 1.34941e-20
-4.59635e-05 -1.57215e-05 -6.2724e-20
-1.09084e-05 3.27638e-05 -2.29694e-20
-7.01122e-06 -3.39997e-05 2.37019e-20
6.95315e-05 -4.36994e-05 -2.64293e-20
-5.19978e-05 2.62579e-05 -3.06288e-20
-6.45112e-05 -1.1974e-05 1.09406e-21
-6.71937e-05 8.80252e-06 -4.99582e-20
-4.01732e-05 1.88142e-05 -2.77104e-20
1.88888e-05 8.57414e-05 -1.30578e-19
1.62322e-05 -8.34816e-05 1.53194e-20
2.74486e-05 0.000164027 -1.19303e-19
3.29601e-05 -0.000134977 1.49588e-20
-1.6319e-05 0.000289486 -1.24739e-20
-0.000288139 1.33203e-05 -6.99246e-20
4.1928e-05 4.80733e-06 2.73475e-20
4.26084e-05 -2.93555e-05 -4.01209e-20
0.000160052 -0.000198774 -7.57568e-20
0.000199291 -0.000157744 -3.57838e-20
5.67944e-05 -0.000137043 7.6631e-21
6.61458e-05 0.000159687 -1.64948e-19
-4.8892e-05 2.89022e-05 -2.66159e-20
4.47287e-05 2.26902e-05 2.47945e-20
4.4169e-05 -3.93252e-05 -5.28822e-20
4.21838e-05 4.5586e-05 -3.28092e-21
4.49685e-05 -5.74208e-05 -5.50565e-20
1.16664e-06 -0.000141981 -7.46956e-20
3.20332e-06 0.000123952 -4.93677e-20
0.000141441 -2.48063e-06 -1.89465e-20
3.19765e-05 3.07893e-05 -3.28098e-21
3.68978e-05 -4.57519e-05 -6.05318e-20
1.39105e-05 0.000136707 -4.08011e-20
-0.000135803 -2.01346e-05 -5.98361e-20
5.93792e-05 8.17974e-06 4.37603e-20
5.23244e-05 -3.1234e-05 -2.22507e-20
5.65671e-05 1.79332e-05 3.5739e-20
5.07717e-05 -3.66125e-05 -3.2828e-20
-0.000159591 0.0001956 5.28075e-20
-0.000197404 0.000159288 -1.58422e-20
4.7603e-05 2.47531e-05 1.23964e-20
4.74484e-05 -4.16783e-05 -7.0382e-20
2.48314e-05 -8.44799e-05 2.48064e-20
1.65829e-05 9.64554e-05 -5.90942e-20
4.22686e-05 -1.89607e-05 7.25714e-20
4.21532e-05 -1.51052e-05 3.64812e-21
6.48386e-05 6.03755e-05 -8.38867e-20
5.27706e-05 -6.33056e-05 2.26145e-20
-3.86756e-05 -1.23837e-05 2.18788e-21
-3.9048e-05 9.21979e-06 -3.24517e-20
6.35306e-05 -0.000105594 6.56648e-21
-0.000134231 -3.60407e-06 2.29808e-20
-0.000138372 2.03634e-06 -2.33461e-20
6.52732e-05 0.000122154 2.3347e-20
6.0233e-05 0.000116548 -1.68536e-19
8.96055e-05 8.9393e-05 -1.00335e-19
4.92963e-05 -0.000108112 2.69952e-20
7.40946e-05 -8.51733e-05 2.80934e-20
0.000111045 -4.59793e-05 3.24704e-20
0.000285383 -3.75318e-05 -2.6642e-20
0.000224713 2.96283e-05 2.18945e-20
6.45192e-05 2.67414e-05 1.02169e-20
0.000142175 1.243e-06 3.50212e-20
9.63157e-05 -2.91194e-05 5.94547e-20
0.000133241 4.27247e-05 -2.2258e-20
9.91059e-05 -2.56815e-05 -1.02164e-20
9.64259e-05 -3.8113e-05 1.24059e-20
7.40585e-05 -9.10333e-06 -2.55383e-21
0.000101858 3.88915e-05 2.22504e-20
0.000102803 3.86074e-05 -9.48517e-21
7.73635e-05 -4.96087e-05 5.47213e-21
8.03849e-05 -4.86726e-05 6.56705e-21
8.82415e-06 1.94241e-06 -2.55412e-20
7.35384e-06 4.34338e-06 3.17489e-20
2.0252e-05 -5.12404e-07 9.48723e-21
7.07842e-06 -1.00694e-06 2.11608e-20
7.1711e-06 -9.56098e-07 3.13775e-20
6.39884e-06 1.54455e-05 1.82467e-20
2.12814e-05 -1.24986e-05 1.20414e-20
6.84487e-06 1.38377e-06 3.35664e-20
1.85656e-05 1.56873e-05 -8.39067e-21
7.66246e-06 8.21451e-07 -1.13115e-20
7.72346e-06 -7.40563e-07 -3.284e-21
6.63003e-06 1.37898e-08 1.86116e-20
4.15725e-05 -1.041e-06 2.18932e-20
-4.24337e-06 -7.71546e-06 1.60579e-20
8.84368e-06 5.07316e-06 -1.56892e-20
1.45314e-05 4.79269e-06 -8.0267e-21
1.7685e-05 1.3479e-05 2.11639e-20
9.27299e-06 -1.59768e-05 1.35024e-20
5.56376e-06 5.2717e-07 -7.1532e-20
8.04735e-06 7.45787e-08 4.74368e-21
8.076e-06 -6.3941e-08 -1.97044e-20
6.25341e-06 2.56908e-07 1.38677e-20
6.58278e-06 4.4197e-06 -2.40813e-20
5.19612e-06 6.58611e-07 3.3567e-20
2.82835e-06 4.22347e-06 -6.93233e-21
7.02178e-06 1.16179e-06 -4.37919e-21
7.76781e-06 1.01543e-06 2.26203e-20
7.2013e-06 -3.3152e-08 6.93299e-21
8.92587e-06 -9.33062e-06 1.45928e-20
6.26124e-06 -1.93874e-07 1.35023e-20
1.53327e-05 1.19734e-05 1.20427e-20
1.71922e-05 -1.0909e-05 1.86112e-20
-7.82435e-05 -3.97819e-05 -1.02167e-20
-7.84227e-05 3.76626e-05 1.20412e-20
6.16749e-06 1.48622e-07 3.9041e-20
3.80576e-06 5.37968e-06 -6.56733e-21
-1.50241e-05 -4.79337e-06 7.29713e-21
-1.74358e-05 5.61388e-06 1.67834e-20
2.3381e-05 -9.96877e-06 9.12046e-21
7.17831e-06 9.53323e-07 -1.53274e-20
4.96529e-06 -8.76918e-07 2.26216e-20
1.94824e-05 -5.28031e-08 -4.37773e-21
6.60572e-06 -4.26676e-06 -1.13109e-20
8.76415e-06 -1.94912e-06 -2.22574e-20
4.73674e-06 3.58978e-06 2.70058e-20
6.21021e-06 -7.69545e-07 9.85146e-21
8.81436e-06 -1.41499e-06 -2.55425e-21
7.52602e-06 -2.85783e-06 9.48773e-21
2.41871e-05 -7.6234e-06 4.74304e-21
7.67883e-06 -2.7652e-07 -3.64907e-22
5.93452e-06 -1.55392e-06 -1.82444e-21
1.21281e-05 -6.6357e-07 -5.3287e-20
1.21343e-05 6.57894e-07 -3.43081e-20
3.95302e-06 1.12361e-06 -7.33578e-20
1.13639e-05 -6.04155e-06 -3.32132e-20
1.13686e-05 6.04605e-06 -3.7958e-20
7.09876e-06 2.12613e-06 6.56881e-21
-2.02937e-05 -7.45641e-05 8.75653e-21
-2.03862e-05 7.48328e-05 2.37155e-20
8.3175e-06 -2.76947e-06 -3.61319e-20
8.31166e-06 2.76876e-06 -4.63511e-20
6.19496e-06 1.61646e-07 1.82437e-20
5.72636e-05 -3.88497e-05 3.32056e-20
-1.39008e-05 3.20414e-05 -1.45986e-21
7.17739e-06 -9.51137e-07 2.00715e-20
7.25121e-06 -7.66225e-08 5.10854e-21
6.01775e-06 2.79143e-07 8.02742e-21
7.56636e-06 4.19131e-06 2.66402e-20
1.32599e-05 4.49528e-06 -6.93257e-21
2.32283e-05 -9.62205e-06 -7.30081e-28
2.32451e-05 9.62899e-06 6.20515e-21
2.21441e-05 1.88858e-05 7.02113e-26
6.90261e-06 -2.49555e-06 -2.18979e-20
6.88278e-06 2.5784e-06 -8.10221e-20
6.66114e-07 1.16374e-05 -9.12073e-21
3.04737e-06 -4.86931e-06 3.32104e-20
6.20578e-06 -1.16948e-07 3.28381e-20
5.54442e-06 -5.37014e-07 2.62699e-20
-1.07666e-05 -2.35689e-05 1.75121e-20
-3.44358e-05 5.96344e-05 9.48674e-21
-3.465e-05 -6.00055e-05 -4.37849e-21
6.33912e-06 9.13098e-07 -2.1163e-20
3.43527e-06 6.28328e-07 1.2405e-20
5.51148e-06 1.41469e-06 -7.44516e-20
8.9203e-06 3.7595e-05 1.1314e-20
1.71317e-05 -4.8612e-05 1.78817e-20
-1.27805e-05 2.64936e-05 1.20396e-20
1.70311e-05 2.28302e-06 6.93316e-21
1.01369e-05 -4.6337e-06 1.97059e-20
4.40148e-06 -1.48587e-06 -4.23364e-20
4.32276e-06 1.37336e-06 -8.1753e-20
6.69035e-06 -4.34989e-07 2.55453e-20
5.58351e-06 5.37105e-07 -3.32107e-20
6.25377e-06 -5.09203e-06 -2.99279e-20
6.22968e-06 5.14289e-06 -7.55497e-20
5.59112e-06 -1.42847e-06 -2.40873e-20
7.04505e-06 -1.12136e-06 1.93413e-20
4.13737e-06 -2.87068e-06 -2.70077e-20
4.02654e-06 2.81968e-06 -8.10232e-20
5.36643e-06 6.28316e-06 1.71476e-20
6.35307e-06 3.88862e-08 -6.93423e-21
5.43979e-06 1.3546e-06 -8.02707e-21
5.60856e-06 2.75568e-05 -1.75114e-20
2.84099e-06 1.74377e-08 3.759e-20
6.17788e-06 2.23075e-07 -1.82476e-21
-3.67285e-06 6.57575e-06 2.00662e-20
5.33476e-06 -5.49887e-06 2.40797e-20
6.4159e-06 9.83762e-07 -2.66354e-20
3.17677e-06 -4.28341e-07 3.28367e-21
1.11854e-05 -5.17869e-06 -3.64897e-22
1.02232e-05 5.82052e-06 1.97051e-20
6.67499e-06 -3.25321e-08 2.80999e-20
6.00225e-07 -1.18387e-05 4.0131e-21
7.10949e-06 -5.24742e-07 1.49622e-20
7.12121e-06 4.78151e-07 -9.48824e-21
2.77253e-06 5.92022e-07 2.62694e-20
1.53249e-05 1.88715e-05 -4.74231e-21
1.56777e-05 -1.95177e-05 6.5664e-21
8.81948e-06 1.94034e-06 -1.13116e-20
2.51088e-06 -3.71389e-06 1.45942e-21
7.74593e-06 -2.32421e-08 3.39362e-20
7.78791e-06 1.98771e-08 -3.64905e-21
6.14743e-06 -1.62804e-08 2.11664e-20
6.69221e-06 3.99684e-07 1.13129e-20
6.83435e-06 -5.70733e-07 1.38678e-20
-2.85756e-05 4.94842e-05 -4.7449e-21
3.05035e-05 -5.286e-05 1.60589e-20
6.16054e-06 -2.92282e-07 4.7443e-21
5.55775e-06 8.65578e-07 -4.37934e-21
4.03468e-06 -1.21276e-06 -5.51096e-20
8.88804e-06 -1.98512e-06 -1.24063e-20
5.45183e-07 4.99471e-06 3.50357e-20
2.75907e-05 7.0726e-06 1.78765e-20
6.40058e-06 -9.03922e-08 2.55465e-21
5.65235e-06 -2.47735e-06 -3.64983e-22
1.32357e-05 9.46065e-06 -1.71482e-20
1.9714e-06 1.57075e-08 -8.13888e-20
6.81621e-06 4.8916e-07 1.45975e-21
5.97762e-06 -2.79467e-05 -1.45932e-21
6.84892e-06 8.35938e-07 -1.71523e-20
6.23305e-06 -8.38224e-07 -3.28391e-21
4.20339e-06 -6.21039e-06 9.12128e-21
7.95423e-06 -1.41765e-07 2.91932e-20
7.97796e-06 1.21876e-07 -1.45965e-21
6.29281e-06 -3.38978e-07 2.00717e-20
6.84319e-06 -8.17108e-07 9.48847e-21
1.04612e-05 1.04481e-06 7.66311e-21
1.09759e-05 -9.63136e-07 7.66307e-21
7.31995e-06 -6.38421e-08 3.64924e-20
7.3627e-06 8.24481e-08 1.53268e-20
7.051e-07 -2.07299e-06 -5.43809e-20
6.59169e-07 2.0055e-06 -9.56228e-20
6.78611e-06 3.2832e-07 -1.4963e-20
2.93908e-05 -9.48187e-06 2.91854e-21
-5.9531e-06 4.64632e-06 1.24046e-20
6.06011e-06 -1.85146e-07 2.55415e-21
8.41903e-06 1.22741e-06 -2.91934e-21
9.16964e-06 -2.74442e-06 -2.11685e-20
9.17411e-06 2.74742e-06 -5.21914e-20
6.99794e-06 -1.40704e-06 -1.9343e-20
6.98374e-06 1.39323e-06 -6.82481e-20
7.61002e-06 -2.10451e-07 1.60558e-20
4.78143e-06 -3.65266e-07 5.83877e-21
8.3479e-06 -1.30714e-06 1.93407e-20
1.49124e-05 -1.23439e-05 -1.60597e-20
1.49227e-05 1.2351e-05 -3.54043e-20
6.7864e-06 9.13873e-07 -4.6714e-20
6.00962e-06 -4.14109e-08 1.56896e-20
5.58828e-06 -6.26209e-07 -2.66416e-20
1.40889e-05 8.05328e-07 6.93269e-21
7.19115e-06 -6.06594e-06 2.15309e-20
6.18303e-06 -8.002e-07 -7.29746e-21
5.51153e-06 2.51971e-06 9.48893e-21
6.78373e-06 -9.2317e-07 -6.9341e-21
1.20417e-05 1.77067e-05 -9.11994e-21
-4.76413e-06 5.34155e-06 2.73717e-20
4.18751e-05 6.13811e-06 2.04332e-20
6.78357e-06 -3.1742e-07 3.0291e-20
2.72129e-06 1.29575e-05 -1.20398e-20
5.14544e-06 1.82885e-07 4.37837e-21
4.09138e-06 1.3104e-07 3.17514e-20
9.01339e-06 -5.38987e-06 -1.6419e-20
9.57848e-06 -2.05322e-07 -9.12231e-21
7.29092e-06 1.34865e-06 -5.2189e-20
8.0224e-06 2.19322e-06 6.93343e-21
-4.38792e-07 -3.64749e-06 6.49625e-20
7.31941e-06 6.92529e-07 7.2978e-22
7.00946e-06 3.76935e-07 -9.48704e-21
7.29881e-06 -1.36354e-06 -1.45983e-20
5.62149e-06 -6.44231e-07 -3.79557e-20
2.37914e-05 -1.09778e-05 -6.57009e-21
2.38079e-05 1.09842e-05 -3.65004e-22
5.43036e-06 -9.78076e-07 2.81008e-20
-3.47035e-05 -2.99472e-05 -9.48621e-21
-3.61399e-05 2.8803e-05 1.93373e-20
1.30656e-05 -4.49208e-06 2.2255e-20
1.21707e-05 -1.88513e-05 2.18878e-21
7.30256e-06 -6.1007e-07 2.18953e-21
7.23407e-06 -1.30336e-07 7.29781e-22
7.3658e-06 -1.03978e-07 4.23302e-20
7.35038e-06 7.07351e-08 1.24072e-20
6.35014e-06 2.67655e-07 2.88294e-20
4.15684e-06 3.07238e-07 5.94883e-20
7.65153e-06 1.03617e-07 3.02867e-20
6.31225e-06 -2.30465e-08 1.05829e-20
5.48646e-05 2.61697e-05 4.7436e-21
-1.28489e-05 -2.53258e-05 2.08028e-20
5.30284e-06 -8.26537e-06 1.64182e-20
1.98369e-05 3.77526e-07 -4.37741e-21
7.4333e-06 7.78462e-07 2.55443e-21
7.41695e-06 -7.84211e-07 4.08715e-20
1.15022e-05 4.04024e-06 1.7147e-20
7.1262e-06 -2.3018e-06 2.55455e-20
9.99974e-06 -6.5545e-06 -2.3359e-20
1.00057e-05 6.55653e-06 -4.63531e-20
-2.02265e-06 1.12998e-06 3.64852e-21
2.73065e-06 -1.31171e-05 1.09451e-21
5.58386e-06 -5.38773e-06 2.11605e-20
6.45028e-06 4.72591e-07 -9.48671e-21
1.29793e-05 -8.52555e-06 -8.75648e-21
8.4232e-06 2.29605e-06 -8.02764e-21
9.9587e-06 8.30221e-07 -1.09468e-20
8.03673e-06 -1.99839e-06 1.56913e-20
1.05919e-05 3.97609e-05 9.85345e-21
2.24454e-05 -4.17242e-05 1.93416e-20
2.16279e-06 -3.97724e-06 -4.27022e-20
2.15625e-06 3.95689e-06 -1.12778e-19
-1.52549e-05 -4.6988e-06 9.48591e-21
-1.5552e-05 6.15083e-06 1.09453e-20
-4.89676e-05 3.12939e-05 -1.13103e-20
-5.01774e-05 -3.09091e-05 -9.12112e-21
2.18607e-05 -1.10905e-05 4.015e-21
2.18774e-05 1.10969e-05 -9.48998e-21
7.38136e-06 2.14268e-06 -4.48912e-20
7.37086e-06 -2.10269e-06 -2.08033e-20
6.70766e-06 1.23262e-06 -4.92687e-20
1.36042e-05 -2.5338e-06 -7.2977e-21
7.91112e-06 -1.86165e-06 2.91942e-20
6.26086e-06 -8.09084e-07 1.13112e-20
6.71512e-06 -1.25183e-06 -1.35033e-20
1.32039e-05 1.51623e-06 -1.16763e-20
6.91653e-06 8.95872e-07 -2.99256e-20
-7.39721e-06 -2.35992e-05 -4.7425e-21
-7.47043e-06 2.33841e-05 -2.07938e-20
6.93483e-06 -8.96747e-07 -5.47419e-21
5.16886e-06 9.69153e-06 7.66182e-21
3.05681e-05 5.2974e-05 -6.93403e-21
-1.96039e-05 -3.39479e-05 7.29988e-22
3.00638e-06 -3.20984e-06 2.66408e-20
-2.51726e-06 -5.52077e-06 1.78772e-20
2.29533e-05 -3.6701e-05 1.56881e-20
7.28039e-06 7.07534e-07 3.32074e-20
6.94664e-06 2.93414e-07 2.3355e-20
1.32721e-06 -5.01475e-06 -3.64979e-20
1.32819e-06 4.93097e-06 -9.89093e-20
2.11394e-05 3.88311e-05 1.82421e-21
7.54339e-06 1.83605e-06 2.29905e-20
6.1995e-06 8.53594e-07 -2.29917e-20
8.62047e-06 -3.36224e-07 -5.29203e-20
8.61926e-06 3.19418e-07 -3.17522e-20
-7.19236e-05 -1.8876e-09 1.09462e-21
-7.19162e-05 1.94151e-09 3.2838e-21
5.19825e-06 -2.32631e-06 4.01442e-20
3.59924e-06 -4.88711e-07 2.33507e-20
6.23569e-06 -5.90022e-06 -2.40884e-20
6.21091e-06 5.90534e-06 -6.2046e-20
2.42823e-05 -6.2817e-06 1.27705e-20
2.10779e-05 -2.03496e-05 -5.4724e-21
8.45644e-06 2.41733e-06 2.15297e-20
-9.61939e-06 2.77139e-05 -2.07956e-20
-9.69276e-06 -2.82604e-05 8.39128e-21
1.27497e-05 -9.9668e-06 1.82425e-21
6.19533e-06 -8.30452e-07 -2.9196e-21
-3.1894e-06 -2.0512e-06 1.75129e-20
-2.10886e-05 1.50019e-05 -6.20223e-21
-2.1165e-05 -1.50112e-05 1.24045e-20
5.17701e-06 6.35547e-06 1.09449e-21
2.74272e-06 -1.20505e-05 -2.1899e-20
2.76264e-06 1.20609e-05 -7.48216e-20
2.66805e-05 5.69248e-05 -4.59741e-27
2.69601e-06 -5.65976e-05 2.55473e-21
7.7148e-06 -3.00433e-07 5.10867e-21
4.68192e-06 2.94222e-07 -3.64902e-22
7.51576e-06 1.24079e-06 -2.55475e-20
7.54656e-06 -1.29435e-06 -2.70073e-20
3.17149e-06 4.45588e-07 5.87573e-20
8.23964e-06 1.03059e-07 2.0435e-20
5.8817e-06 2.01721e-06 2.00706e-20
9.81511e-06 2.36962e-05 -2.92004e-21
9.80866e-06 -2.36806e-05 1.16802e-20
-6.27932e-06 -4.68698e-06 8.75615e-21
6.92492e-06 -9.13666e-07 1.24081e-20
7.86442e-06 -7.29605e-07 -3.46715e-20
7.86138e-06 7.13403e-07 -4.05109e-20
6.7311e-06 -6.56348e-07 1.02186e-20
6.9105e-06 9.06223e-07 -3.68595e-20
7.75037e-06 2.20411e-10 4.34241e-20
7.78931e-06 1.41069e-08 2.55437e-21
6.28751e-06 2.49008e-10 2.15309e-20
6.72846e-06 6.42251e-07 -3.10208e-20
7.67861e-06 -1.17734e-07 -2.18943e-21
6.05353e-06 -6.95058e-09 7.66248e-21
9.93097e-06 7.28603e-07 -4.74461e-20
9.9645e-06 -8.27027e-07 -2.15332e-20
9.36e-06 -1.22087e-06 -5.5841e-20
9.37605e-06 1.21322e-06 -3.06578e-20
8.25372e-06 5.27864e-08 -3.64898e-21
5.79612e-06 2.08657e-06 -9.48718e-21
7.40036e-06 3.82619e-07 -3.61307e-20
7.40052e-06 -4.00824e-07 -1.20436e-20
2.20418e-05 2.80796e-05 7.29846e-21
7.53801e-06 -2.65144e-05 1.20435e-20
8.02621e-06 3.98733e-06 -6.53304e-20
7.97358e-06 -3.98404e-06 -2.66432e-20
9.82565e-06 -8.14147e-06 -1.27744e-20
9.82884e-06 8.16109e-06 -5.73024e-20
-1.26186e-06 -1.47162e-05 1.02156e-20
-1.36595e-06 1.43989e-05 4.74297e-21
5.2692e-05 4.72258e-05 7.66289e-21
-7.68393e-05 -1.26249e-05 -9.48617e-21
9.09926e-06 1.67808e-05 -5.76687e-20
1.3479e-05 1.27284e-05 -2.95649e-20
9.08705e-06 -1.67762e-05 -1.93446e-20
1.34698e-05 -1.2721e-05 6.20499e-21
-1.17509e-05 -3.59841e-05 8.75941e-21
-7.68912e-05 1.23785e-05 -3.28367e-21
1.78657e-05 -7.39993e-06 -1.09499e-20
4.34986e-05 -5.72563e-06 2.33605e-20
4.34672e-05 5.7215e-06 -2.33605e-20
1.78494e-05 7.39318e-06 -3.68646e-20
2.22918e-05 -6.90146e-07 -1.49646e-20
1.52511e-05 -5.35224e-06 -4.56227e-20
2.07917e-05 6.2586e-06 1.46002e-21
2.22739e-05 6.85851e-07 -5.76686e-20
2.07756e-05 -6.25469e-06 -1.24101e-20
1.52399e-05 5.34352e-06 -6.09519e-20
1.60706e-05 -4.83423e-06 -4.85432e-20
1.57744e-05 -4.92661e-06 -1.27747e-20
1.60826e-05 4.83465e-06 -3.57687e-20
1.57854e-05 4.9273e-06 -2.88343e-20
-2.27466e-05 -6.48725e-05 -4.15547e-20
6.86982e-06 5.99924e-05 2.18822e-20
9.11006e-06 -5.4324e-05 -3.9015e-20
-4.86158e-05 -8.41015e-06 -1.02073e-20
-6.08943e-05 -1.51696e-05 -1.9866e-20
6.23348e-06 6.74096e-05 1.64129e-20
1.04932e-05 -7.04159e-05 -7.28755e-22
-6.5483e-05 1.77431e-05 -5.28563e-21
-1.99939e-05 3.34951e-05 2.37016e-20
-3.59187e-05 -7.92854e-05 -1.11139e-20
-3.21342e-05 8.91319e-05 2.16816e-20
8.61027e-05 4.21674e-05 4.31818e-20
4.78079e-05 4.50558e-05 1.96959e-20
-4.57068e-05 -4.72839e-05 -4.55884e-20
-2.26273e-05 -4.56413e-05 -2.35132e-20
-7.27086e-06 -4.36712e-05 -5.10445e-20
-5.22428e-06 -7.20154e-05 -2.15152e-20
1.34629e-05 6.59281e-05 2.91766e-20
5.19307e-05 -3.5791e-06 7.182e-20
-2.73707e-05 -9.59016e-05 -2.15022e-20
-2.43451e-05 0.000104111 -7.28953e-21
0.000101325 3.23724e-05 8.56462e-20
-4.25478e-05 -4.29828e-05 -3.79083e-20
-6.66389e-05 1.72287e-05 -9.47627e-21
-4.83043e-05 -4.32886e-05 -4.22877e-20
3.22278e-05 7.25477e-05 2.73439e-20
-4.54511e-05 9.74851e-06 1.45839e-21
-7.08768e-05 -0.000144044 -3.9895e-20
-3.99159e-05 -1.97778e-05 5.46919e-21
0.000151399 7.92702e-05 2.65977e-20
1.2168e-05 6.51087e-05 1.93325e-20
2.27156e-06 -6.72293e-05 -1.42238e-20
-0.000148376 7.36807e-05 7.29566e-22
-0.000151477 -7.67781e-05 -4.8882e-20
-9.90076e-05 3.42312e-05 -3.27998e-21
-3.55517e-05 -2.82022e-05 -4.59358e-20
-6.14674e-05 -3.0697e-05 -3.75637e-20
-6.25154e-05 3.226e-05 6.56499e-21
-1.03389e-05 -2.10864e-05 1.45853e-21
4.38719e-05 5.70186e-05 2.00509e-20
-6.25545e-05 4.44161e-05 -6.92561e-21
-1.80952e-05 8.97135e-07 1.38555e-20
-3.936e-05 4.70316e-05 -6.56155e-21
-1.95861e-05 6.82651e-05 1.82254e-21
2.03608e-05 5.38515e-05 1.82352e-20
-6.32297e-05 4.43524e-05 -9.4763e-21
-0.000157622 -0.000157599 -9.05993e-20
0.000164356 0.000164339 5.4816e-20
1.72944e-05 3.35008e-05 2.6258e-20
0.000165275 0.000179942 3.59667e-20
-0.000169444 -0.00015817 -7.84891e-20
6.2653e-05 3.42251e-05 5.32584e-20
7.79675e-05 -1.37031e-05 1.4735e-19
3.63204e-05 -9.20485e-06 8.16696e-20
5.96595e-05 5.5278e-05 5.58084e-20
7.30882e-05 -4.80033e-05 1.1051e-19
3.09428e-05 5.64076e-05 4.01082e-20
-6.22622e-05 0.000118992 4.34071e-20
-6.3676e-05 -0.000119319 -4.37712e-20
4.95193e-05 4.17897e-05 5.98112e-20
5.4259e-05 -2.96322e-05 9.99143e-20
-8.6667e-05 4.0086e-05 7.10512e-21
-3.16782e-05 9.06712e-05 -4.37803e-21
7.14689e-05 -0.000110901 7.29606e-22
3.87676e-05 -4.45495e-05 3.79089e-20
-7.69067e-05 0.000152063 5.64705e-20
-0.000147854 8.06299e-05 4.62683e-20
1.65675e-05 5.30405e-05 1.094e-20
-6.13057e-06 -4.34029e-05 -2.77087e-20
0.000119827 4.96137e-05 4.74368e-20
0.000152511 -6.31894e-05 8.8682e-20
8.37424e-06 -1.47135e-05 -3.0627e-20
4.86577e-05 3.38527e-05 8.97007e-20
5.17403e-05 -2.59724e-05 6.01607e-20
-3.11109e-05 -2.14094e-05 -6.01603e-20
-1.32809e-05 -3.46192e-05 -4.0476e-20
-9.14373e-05 -1.82316e-05 -1.80386e-20
6.49382e-05 -1.05595e-05 5.79609e-20
-7.91968e-05 -1.04494e-05 -2.24146e-20
-5.74914e-05 -4.82062e-05 -3.68312e-20
-6.69784e-05 -0.00011598 -3.42894e-20
-6.62278e-05 0.000114712 1.96985e-20
-7.00356e-05 -7.69303e-05 -4.50071e-20
-4.94292e-05 3.14989e-05 -7.29093e-21
4.96667e-05 3.46657e-05 1.1485e-19
1.21728e-05 -0.00012533 4.15892e-20
1.06103e-06 9.8632e-05 -3.28345e-21
-5.77365e-05 5.36588e-05 2.07867e-20
1.30645e-05 5.91385e-05 3.46449e-20
-4.13044e-06 -5.7659e-05 -3.4275e-20
3.51057e-05 1.65688e-05 1.25067e-19
3.55021e-05 -8.6891e-06 1.06469e-19
8.66518e-05 -6.21975e-05 -1.82215e-20
3.90716e-05 4.44009e-05 8.20537e-20
4.40254e-05 -3.97004e-05 1.33832e-19
5.02405e-05 -2.4626e-05 5.99733e-20
2.41174e-05 -6.34143e-05 2.11427e-20
3.13053e-05 3.62724e-05 9.91855e-20
3.21451e-05 -2.71071e-05 1.00275e-19
-5.24966e-05 2.52003e-05 6.19816e-21
3.36998e-05 3.94165e-05 2.77196e-20
-6.42732e-05 -4.40039e-05 -4.75668e-20
-2.27864e-05 5.40664e-06 -6.96395e-20
1.01223e-05 3.45646e-05 5.1063e-21
6.87038e-05 1.72665e-05 1.07527e-19
-5.05544e-05 3.23509e-05 -1.16675e-20
-5.50929e-05 -2.50893e-05 -1.02079e-20
-4.29853e-05 -5.20862e-05 -5.10241e-20
-4.91404e-05 -3.20807e-05 -4.04621e-20
-7.67218e-07 -5.94005e-05 -5.72404e-20
9.15893e-06 6.11606e-05 3.24531e-20
8.54423e-05 -3.26094e-05 -3.4618e-21
-2.87843e-05 2.28827e-05 2.47959e-20
4.18587e-05 -6.40077e-05 -2.55131e-20
4.58183e-05 7.32697e-05 2.91645e-21
-4.96284e-05 3.1492e-05 -2.91673e-21
-1.92288e-05 3.27437e-05 2.1515e-20
-2.03522e-05 -3.35018e-05 -1.20337e-20
-1.27661e-05 -6.06241e-05 -2.44196e-20
-4.59344e-05 4.79242e-05 -1.05727e-20
7.61429e-06 -8.45495e-05 6.01234e-21
1.52212e-05 9.25981e-05 7.47065e-21
8.99021e-05 -4.71809e-07 1.53053e-20
9.04117e-05 7.04701e-05 1.4396e-20
5.99558e-05 -3.7085e-05 -2.82459e-20
8.58494e-05 -0.000148733 6.86043e-20
-6.99341e-05 0.000121151 -9.48587e-21
6.6409e-05 -9.71713e-06 4.81126e-20
2.18306e-05 4.89607e-05 3.75611e-20
3.79871e-05 1.86751e-05 1.13391e-19
-7.73266e-06 6.48129e-05 3.28075e-21
1.81929e-05 -3.60037e-05 -8.75128e-21
5.1791e-06 4.52885e-05 -1.78742e-20
2.85662e-05 -2.10374e-05 8.86016e-20
2.94082e-05 2.4003e-05 1.64141e-20
-1.0175e-05 -3.32051e-05 -5.32275e-20
1.71309e-05 3.20255e-06 1.48031e-19
6.0785e-05 4.8749e-05 4.30104e-20
-1.93975e-05 -5.2484e-06 1.34926e-20
6.12116e-05 5.43142e-05 2.66114e-20
-6.63725e-05 8.68965e-05 1.67636e-20
-3.29234e-05 2.8728e-05 -9.84424e-21
2.36237e-05 -9.36776e-05 -4.92032e-21
3.00258e-05 0.000100562 1.25747e-20
0.000100027 -2.1095e-05 1.0205e-20
6.02433e-05 -4.38565e-05 -2.42384e-20
-3.2701e-07 -6.82416e-05 -5.39531e-20
8.53453e-06 7.36889e-05 6.92768e-21
4.80993e-05 -8.49167e-05 -4.3727e-20
5.12164e-05 9.02193e-05 -2.18655e-20
6.04802e-06 2.14559e-05 1.2215e-19
5.75639e-06 -1.456e-05 1.44391e-19
3.76388e-05 4.20457e-05 2.73515e-20
2.32988e-05 3.13557e-05 1.64111e-20
-4.8963e-05 -2.92112e-05 -4.92208e-20
-9.81467e-05 -7.57871e-05 -2.81465e-20
1.85889e-05 7.18992e-05 1.4946e-20
5.06568e-05 4.17585e-05 6.16388e-20
6.07857e-05 -2.94902e-05 1.16699e-19
4.80978e-05 4.03231e-05 6.08995e-20
5.16593e-05 -2.69304e-05 7.6571e-20
-3.12456e-05 -0.000283955 -1.23181e-19
0.00029141 4.89912e-05 5.88148e-20
1.28591e-05 -6.18024e-05 -3.82694e-21
7.60449e-05 8.44774e-05 -3.64875e-22
9.71215e-05 -8.74816e-05 1.49204e-19
5.34019e-05 4.55024e-05 5.57848e-20
-0.000122531 -6.25378e-06 -1.24793e-20
1.30243e-06 5.32249e-05 2.73478e-20
3.95908e-06 -5.37221e-05 -1.85944e-20
-4.19465e-05 6.82985e-05 2.73349e-21
1.95429e-05 5.4604e-06 8.09438e-20
5.41702e-05 -3.32594e-05 1.78636e-20
-8.36687e-06 -1.66632e-05 -6.16161e-20
-1.66417e-05 4.67173e-05 -1.82393e-20
4.64799e-05 -3.78636e-05 -4.74095e-21
3.30391e-05 -2.36877e-05 6.96364e-20
-3.60697e-05 -2.45931e-05 -5.35939e-20
-6.31226e-05 -3.9446e-05 -4.88373e-20
6.19435e-05 2.09735e-05 9.44157e-20
2.24216e-05 3.56831e-05 1.16727e-20
-1.79983e-05 4.63038e-05 4.19271e-21
-1.23925e-05 -6.16919e-05 -3.75459e-20
4.74903e-05 4.0408e-05 4.66744e-20
2.0098e-05 6.82383e-05 1.60415e-20
-2.24565e-05 -3.14029e-05 -5.98001e-20
-7.75374e-05 0.000144847 1.67574e-20
-0.000139827 8.14118e-05 1.89429e-20
5.07845e-05 1.44259e-05 1.1703e-19
4.74747e-05 -2.75326e-05 4.11983e-20
0.000128803 7.12212e-05 2.44472e-20
0.000157958 -7.63378e-05 1.05458e-19
1.04567e-05 -3.47121e-05 4.30202e-20
-8.52521e-05 6.0449e-05 7.29483e-21
-8.59448e-05 -6.19772e-05 -5.32535e-20
-3.63181e-05 -1.55737e-05 -5.65105e-21
-5.49857e-06 1.51526e-05 1.42217e-20
8.26818e-05 0.000106743 -3.03293e-20
-9.40504e-05 -7.55855e-05 -4.98177e-20
7.97319e-05 -0.000112499 -2.9328e-20
8.37373e-05 0.000121585 -9.10873e-21
0.0001247 -6.82986e-05 -1.09303e-20
8.21772e-06 -1.30307e-05 1.75005e-20
-1.02733e-05 -0.000125617 -7.03994e-20
0.000132358 1.34118e-05 3.53376e-20
-6.81344e-05 -9.3175e-05 -3.93939e-20
6.59446e-05 8.21638e-05 -1.0944e-21
-4.22736e-05 -3.37137e-05 -2.04197e-20
-1.79321e-05 1.09491e-06 6.56335e-21
4.57214e-05 -6.72601e-05 -3.07939e-20
4.96492e-05 7.69017e-05 -3.64613e-22
-4.15381e-05 1.29219e-05 4.73986e-21
2.28115e-05 -4.43531e-05 2.71592e-20
5.32976e-05 5.76769e-05 3.90321e-20
6.59084e-05 -5.06955e-05 1.35325e-19
-5.12808e-05 -2.71419e-05 -4.66715e-20
-3.35615e-05 2.57482e-05 1.23975e-20
-4.08056e-05 -1.8726e-05 -8.75058e-21
-7.86296e-05 -4.28844e-05 -3.80802e-20
-7.02914e-06 3.76335e-05 1.56788e-20
-0.000165166 0.000165183 6.64647e-21
-6.86561e-06 6.71019e-05 1.18484e-20
1.19066e-05 -6.39295e-05 -1.85911e-20
1.2173e-05 -0.00012531 2.15212e-20
5.47911e-06 0.000104351 1.02142e-20
1.58971e-05 3.43725e-05 1.145e-19
1.69067e-05 -2.89741e-05 1.53516e-19
-6.03607e-05 -3.11416e-05 -5.32391e-20
-5.87788e-05 3.33192e-05 -7.29308e-22
-0.000105056 2.00676e-05 -5.14264e-20
-0.000103675 -1.7881e-05 1.82371e-21
0.000103958 7.26761e-05 2.95543e-20
0.000140969 -7.73201e-05 1.25147e-19
3.85124e-05 2.5989e-05 1.78754e-20
3.68247e-05 1.97548e-06 1.14862e-19
5.63041e-05 3.3689e-05 8.82276e-20
2.1166e-06 5.88213e-05 2.00536e-20
3.73026e-06 -5.50502e-05 -2.18737e-20
-8.82955e-05 6.3965e-05 -1.82355e-22
5.62529e-05 -2.36266e-05 2.6065e-20
-6.42329e-06 -5.88643e-05 -2.86181e-20
5.15988e-05 4.57455e-05 3.97392e-20
-3.86608e-05 3.44863e-07 -8.423e-20
-3.68371e-05 4.18665e-07 2.55275e-21
4.89338e-05 -3.41748e-05 5.28553e-21
-3.9242e-05 3.63437e-05 2.91732e-21
6.13357e-05 0.000106226 -1.09454e-20
-6.9746e-05 -0.000120805 -1.09837e-19
-1.30958e-05 -4.20866e-05 -2.07836e-20
-5.15232e-05 -3.04606e-05 -3.39068e-20
-5.5666e-06 -6.84383e-05 -2.7353e-20
8.31512e-05 -0.000145076 -6.12918e-20
0.00014582 -6.73793e-05 3.09698e-21
8.16559e-06 4.39841e-05 8.4609e-20
9.35129e-06 -3.7636e-05 1.37849e-19
-7.85323e-06 7.1808e-05 3.90241e-20
1.66898e-05 6.5707e-05 2.9171e-20
6.9164e-05 4.37394e-05 1.04986e-19
5.02296e-05 3.61559e-05 6.23686e-20
5.58118e-05 -1.71886e-05 1.03198e-19
-0.000135658 3.617e-09 -1.45917e-20
-0.000139311 1.02862e-08 -2.7364e-20
1.08505e-05 -3.24312e-05 9.11489e-21
-5.28526e-05 -3.15549e-05 -3.53631e-20
3.88481e-05 5.44634e-05 5.54377e-20
4.38482e-05 -4.75211e-05 1.17432e-19
1.78679e-05 4.17116e-05 2.37038e-20
9.03086e-06 1.27106e-05 2.6256e-20
0.000158803 -0.000158821 -8.29502e-20
-4.57799e-05 1.46742e-05 -6.30886e-20
-4.39311e-05 -1.3974e-05 1.05765e-20
-7.68029e-06 3.35452e-05 1.67736e-20
6.92047e-05 -3.33414e-05 1.71324e-20
-5.02991e-05 2.76932e-05 -1.31274e-20
-6.6973e-05 -8.82055e-06 -6.3815e-20
-6.49025e-05 1.02527e-05 1.02112e-20
-3.91977e-05 2.01072e-05 1.38555e-20
1.60866e-05 8.33259e-05 5.87244e-20
1.90484e-05 -8.58422e-05 1.40791e-19
3.30011e-05 0.000135007 -1.49587e-20
-2.72669e-05 -0.000163917 -2.0796e-20
-1.50496e-05 0.000299373 8.82263e-20
-0.000288048 1.68644e-05 4.20641e-20
4.25867e-05 2.94871e-05 3.3191e-20
4.17353e-05 -5.32162e-06 1.11578e-19
-4.6567e-06 -1.12239e-05 -1.56782e-20
0.000155807 -0.000190817 -9.52387e-20
0.000198564 -0.000152639 -4.24293e-20
6.61676e-05 -0.00015974 6.27675e-20
5.66864e-05 0.000136782 -4.0505e-20
-4.6726e-05 3.07351e-05 -1.09385e-21
4.25402e-05 -4.51143e-05 3.68196e-20
4.41273e-05 3.93283e-05 2.91765e-20
4.48405e-05 -2.2889e-05 9.29791e-20
3.1905e-05 -3.09985e-05 5.50506e-20
4.49496e-05 5.72147e-05 4.15657e-20
-1.74816e-06 -0.000134567 -4.48134e-20
6.16076e-06 0.000131597 -7.65114e-21
0.000140827 5.56205e-06 2.00392e-20
3.69721e-05 4.56537e-05 2.84428e-20
1.58463e-05 0.000143128 7.37753e-21
-0.00013568 -1.66104e-05 7.28598e-21
5.21734e-05 3.13399e-05 3.72064e-20
5.9146e-05 -9.01573e-06 1.34563e-19
5.06429e-05 3.66422e-05 6.12793e-20
5.65094e-05 -1.80197e-05 1.24721e-19
-0.000162315 0.000202888 2.81341e-20
-0.00019743 0.000162612 7.31118e-20
4.73549e-05 4.16428e-05 3.53734e-20
4.77499e-05 -2.49533e-05 6.78164e-20
2.48806e-05 8.45599e-05 -4.3777e-21
-1.63686e-05 -9.61962e-05 -1.56853e-20
4.19762e-05 1.51699e-05 3.61152e-20
4.27799e-05 1.8993e-05 1.34932e-19
5.26961e-05 6.31107e-05 5.54419e-20
6.48148e-05 -6.05774e-05 1.39325e-19
-3.97666e-05 -9.65234e-06 -5.39645e-20
-3.66929e-05 1.06697e-05 2.55264e-21
-0.000134408 3.18999e-06 -1.34967e-20
6.35319e-05 0.000105645 -1.82398e-21
4.91598e-05 0.000107963 2.15229e-20
7.39454e-05 8.50362e-05 1.0944e-21
6.02919e-05 -0.000116574 5.8732e-20
8.96237e-05 -8.94562e-05 9.77806e-20
-6.51757e-05 -0.000121951 -8.17153e-20
-0.000138301 -2.4401e-06 -5.21643e-20
6.43063e-05 -2.66534e-05 2.15287e-20
0.000224221 -2.95649e-05 9.23219e-20
0.000285406 3.75349e-05 7.77362e-20
0.000110991 4.59572e-05 4.77934e-20
9.88467e-05 2.56999e-05 2.0068e-20
7.38721e-05 9.16985e-06 4.74285e-20
9.61853e-05 3.80449e-05 3.3569e-20
0.000142147 -1.30387e-06 7.58794e-20
0.000133222 -4.27439e-05 5.10838e-20
9.62975e-05 2.90521e-05 1.14532e-19
7.71691e-05 4.9576e-05 3.68462e-20
8.02106e-05 4.86334e-05 1.64178e-20
0.00010184 -3.89566e-05 1.29125e-19
0.000102802 -3.8667e-05 1.11268e-19
TENSORS solid_stress_TPM float
45.7105 3.84476 -7.53734e-12
3.84476 50.9759 -1.37748e-11
-7.53734e-12 -1.37748e-11 45.826

54.1039 2.55765 1.8347e-11
2.55765 58.4357 -1.88764e-11
1.8347e-11 -1.88764e-11 55.0989

53.7319 2.05135 -5.97179e-12
2.05135 57.8925 -1.36757e-11
-5.97179e-12 -1.36757e-11 54.7788

53.9762 1.1233 -1.38695e-11
1.1233 44.7385 1.25177e-11
-1.38695e-11 1.25177e-11 48.4546

51.8561 0.445369 7.80265e-12
0.445369 43.123 2.9236e-11
7.80265e-12 2.9236e-11 45.2223

54.753 2.41854 -9.42475e-12
2.41854 59.1473 -1.81069e-11
-9.42475e-12 -1.81069e-11 57.4982

54.3611 2.24249 -1.95856e-11
2.24249 58.8077 1.46382e-11
-1.95856e-11 1.46382e-11 57.2231

52.4047 -0.562911 1.60877e-11
-0.562911 43.7571 -1.84339e-11
1.60877e-11 -1.84339e-11 45.6884

60.3902 0.092585 2.7643e-11
0.092585 49.2525 2.60044e-12
2.7643e-11 2.60044e-12 54.959

36.2364 3.73563 2.16499e-11
3.73563 42.0024 -3.18382e-11
2.16499e-11 -3.18382e-11 34.8572

35.5042 -3.99479 -1.24491e-11
-3.99479 41.1708 -1.98462e-11
-1.24491e-11 -1.98462e-11 33.7812

41.8238 3.86515 -9.15253e-12
3.86515 37.7138 -2.48778e-11
-9.15253e-12 -2.48778e-11 35.2501

58.0576 -3.16395 2.28724e-11
-3.16395 60.7974 1.54085e-11
2.28724e-11 1.54085e-11 58.979

58.4475 -3.58023 -8.23334e-12
-3.58023 61.5549 8.37889e-12
-8.23334e-12 8.37889e-12 59.4022

46.7095 3.63637 -4.35977e-12
3.63637 52.9172 -2.95706e-11
-4.35977e-12 -2.95706e-11 48.9021

50.5344 4.35429 2.79204e-12
4.35429 56.6724 -1.90706e-11
2.79204e-12 -1.90706e-11 53.626

54.1553 -1.65515 7.31809e-12
-1.65515 58.5578 4.74815e-11
7.31809e-12 4.74815e-11 57.017

54.4141 -1.78699 1.51199e-11
-1.78699 58.8281 2.88954e-13
1.51199e-11 2.88954e-13 57.2327

56.9904 1.65812 4.63265e-11
1.65812 51.521 -1.06062e-11
4.63265e-11 -1.06062e-11 53.1968

40.0103 1.44547 2.90767e-13
1.44547 47.6983 3.74708e-11
2.90767e-13 3.74708e-11 39.2758

39.8801 -1.38245 1.58208e-11
-1.38245 47.6733 -1.7534e-11
1.58208e-11 -1.7534e-11 39.0545

47.6715 1.18562 8.91139e-12
1.18562 42.327 -2.47546e-11
8.91139e-12 -2.47546e-11 40.0133

45.3722 4.29449 2.50421e-11
4.29449 49.5132 -2.00345e-11
2.50421e-11 -2.00345e-11 45.2425

48.0842 -2.19612 3.46878e-12
-2.19612 41.0294 -8.06655e-12
3.46878e-12 -8.06655e-12 42.0319

49.6801 3.94107 -2.05166e-11
3.94107 51.0092 -2.03232e-11
-2.05166e-11 -2.03232e-11 48.6931

46.8051 4.29307 1.49762e-11
4.29307 52.1722 -1.71439e-11
1.49762e-11 -1.71439e-11 46.8546

54.8387 -0.929538 -6.64565e-12
-0.929538 45.0336 -2.37197e-11
-6.64565e-12 -2.37197e-11 49.0835

34.5236 3.32459 3.63144e-11
3.32459 40.8543 -2.80354e-11
3.63144e-11 -2.80354e-11 30.2632

58.6071 0.412872 3.46885e-12
0.412872 47.8959 3.70816e-12
3.46885e-12 3.70816e-12 53.5199

39.9275 3.33227 1.00921e-11
3.33227 35.8155 2.64914e-11
1.00921e-11 2.64914e-11 30.3871

59.8022 0.52541 -4.17829e-11
0.52541 61.7646 2.29192e-11
-4.17829e-11 2.29192e-11 59.7945

59.7829 0.179623 -3.37083e-12
0.179623 61.6646 -1.75272e-11
-3.37083e-12 -1.75272e-11 59.7619

66.9181 1.8722 -1.04005e-11
1.8722 63.4575 -1.27676e-15
-1.04005e-11 -1.27676e-15 63.6448

66.9647 -1.79585 8.57072e-11
-1.79585 63.5413 1.73323e-11
8.57072e-11 1.73323e-11 63.6334

46.2697 -1.39149 2.59141e-11
-1.39149 38.9151 -2.29018e-11
2.59141e-11 -2.29018e-11 37.631

50.0148 4.23673 1.79163e-11
4.23673 53.2114 3.63599e-11
1.79163e-11 3.63599e-11 51.09

60.3819 0.777391 8.08938e-12
0.777391 58.5707 -7.02978e-12
8.08938e-12 -7.02978e-12 59.0136

60.5837 -0.706517 -3.0241e-11
-0.706517 58.8791 1.24233e-11
-3.0241e-11 1.24233e-11 59.3223

60.9564 0.0092858 -1.4447e-11
0.0092858 48.7202 7.88506e-12
-1.4447e-11 7.88506e-12 55.1019

46.0963 4.64696 3.59732e-11
4.64696 51.7778 2.79673e-12
3.59732e-11 2.79673e-12 46.4208

48.9073 -2.84338 -3.13142e-12
-2.84338 44.8964 -1.79143e-11
-3.13142e-12 -1.79143e-11 43.8344

59.8385 -0.273801 1.37738e-11
-0.273801 47.3279 -6.32004e-12
1.37738e-11 -6.32004e-12 53.8367

44.9779 -4.3034 1.20407e-11
-4.3034 49.3488 -5.58694e-12
1.20407e-11 -5.58694e-12 44.8614

45.7014 -3.68754 1.0361e-12
-3.68754 51.0378 -1.04992e-11
1.0361e-12 -1.04992e-11 45.7989

51.7824 4.89599 -8.13688e-12
4.89599 57.9531 1.21343e-11
-8.13688e-12 1.21343e-11 54.5511

44.8196 -4.59296 9.82666e-12
-4.59296 43.1054 -5.10436e-12
9.82666e-12 -5.10436e-12 40.6527

13.4323 9.38119 2.28223e-11
9.38119 19.892 4.89564e-12
2.28223e-11 4.89564e-12 10.3683

18.9654 9.27015 -2.77304e-11
9.27015 13.9263 -9.68707e-13
-2.77304e-11 -9.68707e-13 10.1699

53.4265 -4.37645 -2.43654e-11
-4.37645 58.867 1.02102e-11
-2.43654e-11 1.02102e-11 56.7313

23.2784 3.93576 -1.85206e-11
3.93576 31.1928 -1.68283e-11
-1.85206e-11 -1.68283e-11 18.5359

29.8612 3.52723 -1.56083e-11
3.52723 24.1083 1.84697e-11
-1.56083e-11 1.84697e-11 18.5935

61.5632 -3.0735 1.27115e-11
-3.0735 64.2189 -4.05441e-11
1.27115e-11 -4.05441e-11 62.599

61.5485 3.062 -4.98842e-11
3.062 64.1842 -3.54413e-11
-4.98842e-11 -3.54413e-11 62.5998

60.8399 0.0887815 -1.92513e-13
0.0887815 54.0393 -2.31457e-12
-1.92513e-13 -2.31457e-12 56.7824

61.5713 -2.67854 -1.40601e-11
-2.67854 63.3954 1.77205e-11
-1.40601e-11 1.77205e-11 62.703

61.5614 2.6703 8.08931e-12
2.6703 63.3858 -7.04919e-11
8.08931e-12 -7.04919e-11 62.7106

47.8449 4.29384 1.80805e-11
4.29384 54.3557 -4.40167e-11
1.80805e-11 -4.40167e-11 49.9198

66.0203 1.75523 3.73663e-11
1.75523 60.6453 -1.64666e-11
3.73663e-11 -1.64666e-11 62.3733

66.0713 -1.74217 2.50379e-12
-1.74217 60.6184 1.82971e-11
2.50379e-12 1.82971e-11 62.355

57.7456 -3.54689 -2.51354e-11
-3.54689 59.5939 1.60849e-11
-2.51354e-11 1.60849e-11 58.5407

57.7279 3.52529 6.0191e-11
3.52529 59.5921 8.86319e-12
6.0191e-11 8.86319e-12 58.5601

39.989 -3.81422 2.63499e-11
-3.81422 34.9743 -2.97675e-11
2.63499e-11 -2.97675e-11 32.8784

61.3478 1.71371 9.32983e-12
1.71371 65.8085 2.75424e-11
9.32983e-12 2.75424e-11 62.5222

61.042 1.35509 -1.06524e-11
1.35509 65.5697 2.48459e-11
-1.06524e-11 2.48459e-11 62.2704

46.2221 -4.73502 -5.07111e-11
-4.73502 52.0144 1.62825e-11
-5.07111e-11 1.62825e-11 46.6236

32.5029 -3.13474 -7.99597e-12
-3.13474 40.0887 -1.80866e-11
-7.99597e-12 -1.80866e-11 28.5956

39.0629 -3.10695 -1.07884e-11
-3.10695 32.5029 -1.40584e-11
-1.07884e-11 -1.40584e-11 28.1787

50.3203 3.73968 -2.65199e-11
3.73968 56.8303 1.8278e-12
-2.65199e-11 1.8278e-12 53.1289

49.6972 3.477 -7.15124e-12
3.477 55.8244 -6.35743e-12
-7.15124e-12 -6.35743e-12 52.5591

70.4517 -5.18586 -2.71172e-10
-5.18586 66.9847 1.80952e-10
-2.71172e-10 1.80952e-10 68.0092

70.4498 5.18437 -1.35586e-10
5.18437 66.9937 5.10232e-11
-1.35586e-10 5.10232e-11 68.0168

52.1547 5.29942 -3.27387e-12
5.29942 57.8968 6.16405e-12
-3.27387e-12 6.16405e-12 55.2288

57.5107 2.60722 -1.4253e-11
2.60722 55.4135 -9.38971e-12
-1.4253e-11 -9.38971e-12 56.2007

57.4888 -2.65287 -1.25208e-11
-2.65287 55.2661 -9.53341e-12
-1.25208e-11 -9.53341e-12 56.0669

51.7398 5.06559 1.1653e-11
5.06559 56.4268 -1.75291e-11
1.1653e-11 -1.75291e-11 54.477

54.1949 -4.6296 1.9164e-11
-4.6296 59.8427 9.24405e-12
1.9164e-11 9.24405e-12 57.3314

45.1804 -0.0526314 -8.71792e-12
-0.0526314 36.6118 7.97092e-12
-8.71792e-12 7.97092e-12 36.6049

48.6153 2.06933 3.18366e-11
2.06933 40.8702 1.98676e-11
3.18366e-11 1.98676e-11 41.5285

59.1944 0.841148 9.62267e-13
0.841148 53.5745 -4.33357e-13
9.62267e-13 -4.33357e-13 57.1082

64.9636 -1.29731 -1.07663e-10
-1.29731 64.2945 -8.85828e-12
-1.07663e-10 -8.85828e-12 63.707

64.9769 1.11665 9.60898e-13
1.11665 64.3971 -2.03194e-11
9.60898e-13 -2.03194e-11 63.7599

41.7288 3.83265 -2.40696e-12
3.83265 43.6687 -4.81482e-12
-2.40696e-12 -4.81482e-12 37.8977

49.3222 -3.34517 -1.68549e-11
-3.34517 47.6692 -1.7625e-11
-1.68549e-11 -1.7625e-11 47.3211

57.3366 2.00685 4.30534e-11
2.00685 53.0693 2.28024e-11
4.30534e-11 2.28024e-11 53.6532

62.6987 1.09584 -6.94658e-11
1.09584 65.7966 1.46358e-11
-6.94658e-11 1.46358e-11 63.2754

62.6449 0.933618 5.4242e-11
0.933618 65.7453 2.04164e-11
5.4242e-11 2.04164e-11 63.19

59.574 -0.616707 -2.31138e-11
-0.616707 54.2641 2.8891e-12
-2.31138e-11 2.8891e-12 57.6249

53.6222 -1.30766 5.54936e-12
-1.30766 57.9587 1.2039e-11
5.54936e-12 1.2039e-11 54.7021

53.8615 -1.77941 2.53529e-11
-1.77941 58.35 -1.32929e-11
2.53529e-11 -1.32929e-11 54.9389

62.3512 -1.23208 -3.10117e-11
-1.23208 56.536 4.05677e-11
-3.10117e-11 4.05677e-11 59.5557

62.4596 1.24597 -9.05305e-12
1.24597 56.5748 -7.10125e-12
-9.05305e-12 -7.10125e-12 59.6868

43.6354 -3.80363 7.23421e-13
-3.80363 43.519 1.13195e-11
7.23421e-13 1.13195e-11 38.4683

54.6882 0.237246 6.35743e-12
0.237246 48.8126 -4.54505e-11
6.35743e-12 -4.54505e-11 49.2629

62.8064 -1.86799 7.32051e-12
-1.86799 59.4369 -2.27495e-11
7.32051e-12 -2.27495e-11 61.5348

62.7826 1.85038 1.81054e-11
1.85038 59.4856 2.6291e-11
1.81054e-11 2.6291e-11 61.5786

57.2871 -2.08261 3.05308e-11
-2.08261 53.1369 -3.19978e-11
3.05308e-11 -3.19978e-11 53.5733

47.0174 -4.312 3.22535e-12
-4.312 52.679 3.70831e-11
3.22535e-12 3.70831e-11 47.1843

62.3695 -1.38701 -5.02732e-11
-1.38701 57.2522 1.19421e-11
-5.02732e-11 1.19421e-11 59.421

62.4716 1.39967 -1.09793e-11
1.39967 57.2922 -1.52145e-11
-1.09793e-11 -1.52145e-11 59.5631

55.198 -0.909376 -2.1961e-11
-0.909376 48.1172 1.74315e-11
-2.1961e-11 1.74315e-11 50.7069

53.5266 6.0507 -9.727e-12
6.0507 59.1113 -9.53619e-12
-9.727e-12 -9.53619e-12 56.1555

47.9368 3.33486 1.47395e-11
3.33486 46.4445 2.53345e-11
1.47395e-11 2.53345e-11 44.0165

52.2232 5.12005 -9.62908e-12
5.12005 58.3647 1.71432e-11
-9.62908e-12 1.71432e-11 55.5421

53.2113 5.71736 -8.90721e-12
5.71736 59.5341 1.55051e-11
-8.90721e-12 1.55051e-11 56.2387

50.394 2.47543 -2.20603e-11
2.47543 44.9819 -1.76757e-11
-2.20603e-11 -1.76757e-11 44.8743

53.9704 -2.0479 1.05961e-11
-2.0479 50.956 -3.265e-11
1.05961e-11 -3.265e-11 52.7762

54.48 1.12029 -6.54876e-12
1.12029 47.9199 2.69671e-11
-6.54876e-12 2.69671e-11 49.9152

43.715 4.21925 8.81554e-12
4.21925 44.8155 3.02938e-11
8.81554e-12 3.02938e-11 41.6447

48.704 3.42521 -3.07262e-11
3.42521 47.3437 -1.90719e-11
-3.07262e-11 -1.90719e-11 46.9191

48.8469 0.296355 2.86398e-11
0.296355 55.2173 2.21489e-12
2.86398e-11 2.21489e-12 52.0669

48.9312 0.468993 1.91538e-11
0.468993 55.2715 -7.31948e-12
1.91538e-11 -7.31948e-12 52.1108

42.2546 -4.3018 -8.57418e-12
-4.3018 38.8418 -3.68564e-11
-8.57418e-12 -3.68564e-11 35.9749

51.7916 -5.10537 -1.12688e-11
-5.10537 56.524 1.77216e-11
-1.12688e-11 1.77216e-11 54.5661

45.0308 -5.04209 -2.79328e-11
-5.04209 48.4659 -6.40539e-12
-2.79328e-11 -6.40539e-12 43.2868

44.9369 5.16439 2.01276e-11
5.16439 48.2879 -4.73901e-11
2.01276e-11 -4.73901e-11 43.1722

54.0061 -1.87721 -3.00505e-11
-1.87721 49.4017 -7.17615e-12
-3.00505e-11 -7.17615e-12 50.4022

61.5204 -0.280295 1.38691e-11
-0.280295 50.1909 1.18452e-11
1.38691e-11 1.18452e-11 56.8545

61.4793 0.313656 1.05952e-11
0.313656 50.1978 1.99828e-11
1.05952e-11 1.99828e-11 56.7169

42.3283 2.73962 -1.55316e-11
2.73962 49.0925 8.38026e-12
-1.55316e-11 8.38026e-12 43.1805

49.676 -4.14545 -6.16462e-12
-4.14545 50.9087 4.23817e-12
-6.16462e-12 4.23817e-12 48.5633

35.6166 -0.0925273 -1.01264e-11
-0.0925273 45.4468 -1.44181e-13
-1.01264e-11 -1.44181e-13 36.5946

35.4968 0.203616 -1.18838e-11
0.203616 45.4583 -2.31208e-12
-1.18838e-11 -2.31208e-12 36.4406

45.5858 -0.0333177 2.40371e-11
-0.0333177 37.4195 5.44952e-11
2.40371e-11 5.44952e-11 37.1986

43.5817 4.03889 5.34639e-12
4.03889 43.6714 4.10844e-11
5.34639e-12 4.10844e-11 38.4039

46.4557 -4.73576 -1.42566e-11
-4.73576 45.9055 3.99255e-11
-1.42566e-11 3.99255e-11 43.2317

63.6432 -2.32417 -1.43563e-11
-2.32417 68.6807 3.08179e-11
-1.43563e-11 3.08179e-11 64.5487

63.7044 -2.14416 3.09926e-11
-2.14416 68.7111 6.72178e-11
3.09926e-11 6.72178e-11 64.601

50.9346 -2.4255 -4.71032e-11
-2.4255 45.2559 2.79335e-11
-4.71032e-11 2.79335e-11 45.3541

50.7304 5.6218 -1.42065e-11
5.6218 56.8896 -1.99388e-11
-1.42065e-11 -1.99388e-11 52.7493

60.8265 -0.148595 -6.93564e-12
-0.148595 53.9666 2.86343e-11
-6.93564e-12 2.86343e-11 56.6878

42.3346 -2.69598 3.29411e-11
-2.69598 49.3878 -1.00182e-11
3.29411e-11 -1.00182e-11 43.2941

54.3467 5.03302 2.07106e-12
5.03302 60.2882 6.93419e-12
2.07106e-12 6.93419e-12 57.6423

53.1959 4.73715 3.01437e-11
4.73715 59.1411 -1.15448e-12
3.01437e-11 -1.15448e-12 56.8439

53.6245 -6.03908 2.50359e-12
-6.03908 59.1763 1.02087e-11
2.50359e-12 1.02087e-11 56.2314

53.7298 5.82358 -7.41411e-12
5.82358 60.5267 2.66769e-11
-7.41411e-12 2.66769e-11 56.9872

49.5724 4.91486 2.93641e-12
4.91486 55.3041 -1.60844e-11
2.93641e-12 -1.60844e-11 51.7382

66.1272 0.0109702 -2.34978e-11
0.0109702 59.5666 1.12653e-11
-2.34978e-11 1.12653e-11 63.4432

46.3896 4.64746 -1.90218e-13
4.64746 45.3557 3.53485e-11
-1.90218e-13 3.53485e-11 42.8705

52.2225 -5.16392 9.48871e-14
-5.16392 58.3304 2.1863e-11
9.48871e-14 2.1863e-11 55.5343

47.4974 4.06174 -3.56376e-11
4.06174 49.3457 -6.11881e-12
-3.56376e-11 -6.11881e-12 45.2371

40.3016 -3.50718 5.30983e-13
-3.50718 42.7315 -1.71025e-11
5.30983e-13 -1.71025e-11 36.4987

50.0494 -4.29268 -2.80276e-11
-4.29268 53.4656 -6.35573e-12
-2.80276e-11 -6.35573e-12 51.1837

41.3848 -2.44705 4.48253e-11
-2.44705 49.2761 8.42689e-12
4.48253e-11 8.42689e-12 40.6865

41.1618 2.38542 -9.49848e-12
2.38542 49.0131 -1.82077e-11
-9.49848e-12 -1.82077e-11 40.4847

48.3691 -1.68059 5.78924e-11
-1.68059 43.4041 -3.26666e-11
5.78924e-11 -3.26666e-11 40.9826

47.4674 -4.17293 -2.55243e-11
-4.17293 49.3281 1.83005e-11
-2.55243e-11 1.83005e-11 45.1353

48.0953 0.646901 5.1984e-11
0.646901 54.5472 2.88924e-12
5.1984e-11 2.88924e-12 48.7579

48.0607 -0.00743608 1.91359e-12
-0.00743608 54.445 -2.14802e-11
1.91359e-12 -2.14802e-11 48.722

38.8595 -4.81709 1.25239e-11
-4.81709 41.8935 2.43701e-11
1.25239e-11 2.43701e-11 35.5525

38.6951 4.87661 2.93785e-11
4.87661 42.1324 -5.49042e-12
2.93785e-11 -5.49042e-12 35.798

65.4079 -0.429871 -1.46385e-11
-0.429871 57.9561 2.49411e-11
-1.46385e-11 2.49411e-11 62.3601

65.45 0.450622 -2.61949e-11
0.450622 57.9804 3.73098e-12
-2.61949e-11 3.73098e-12 62.41

51.7767 5.29919 -9.05328e-12
5.29919 57.4927 9.92051e-12
-9.05328e-12 9.92051e-12 53.7281

53.1573 -4.82043 -2.29197e-11
-4.82043 59.242 -9.62674e-13
-2.29197e-11 -9.62674e-13 56.7502

51.9835 3.50944 -7.89724e-12
3.50944 53.8355 1.30983e-11
-7.89724e-12 1.30983e-11 52.9458

40.1097 3.88659 -9.96995e-12
3.88659 35.0441 2.5826e-11
-9.96995e-12 2.5826e-11 31.7004

43.0263 3.32489 -1.69043e-11
3.32489 50.7628 -9.05557e-12
-1.69043e-11 -9.05557e-12 44.0896

61.0852 2.32138 4.45892e-11
2.32138 60.813 1.60367e-11
4.45892e-11 1.60367e-11 60.9674

61.1069 -2.3382 1.57935e-11
-2.3382 60.83 2.66773e-11
1.57935e-11 2.66773e-11 60.9545

57.8347 -3.16736 -1.03043e-11
-3.16736 57.2123 3.17861e-12
-1.03043e-11 3.17861e-12 56.4636

57.8034 3.14248 -1.00169e-11
3.14248 57.2038 -2.62918e-11
-1.00169e-11 -2.62918e-11 56.4851

25.3912 1.03845 -1.9028e-11
1.03845 37.8643 9.56361e-12
-1.9028e-11 9.56361e-12 20.2065

36.4801 1.0749 -3.36939e-11
1.0749 26.5733 8.64634e-12
-3.36939e-11 8.64634e-12 20.1789

42.9301 -3.15477 1.5483e-11
-3.15477 50.9452 3.74711e-11
1.5483e-11 3.74711e-11 44.2513

66.3104 -2.51816 7.51251e-12
-2.51816 66.9749 -4.90158e-11
7.51251e-12 -4.90158e-11 66.3541

66.2935 2.52635 9.43682e-12
2.52635 66.9702 -3.74611e-11
9.43682e-12 -3.74611e-11 66.3556

52.975 3.86356 1.39651e-11
3.86356 53.1447 1.3148e-11
1.39651e-11 1.3148e-11 51.1814

41.4326 2.11737 -2.35311e-11
2.11737 33.1331 1.47735e-11
-2.35311e-11 1.47735e-11 31.4691

54.7054 -0.403117 1.05939e-11
-0.403117 48.8514 3.36966e-11
1.05939e-11 3.36966e-11 49.2786

49.7187 -2.77408 -2.11166e-11
-2.77408 55.7522 1.89754e-11
-2.11166e-11 1.89754e-11 52.5684

50.3852 -3.03487 -3.63194e-11
-3.03487 56.4708 -2.2632e-11
-3.63194e-11 -2.2632e-11 53.1014

43.5647 -4.59013 1.01636e-11
-4.59013 45.2559 -1.97948e-11
1.01636e-11 -1.97948e-11 41.2299

53.7766 -5.8482 2.89886e-11
-5.8482 60.6276 -2.72591e-11
2.89886e-11 -2.72591e-11 57.053

52.9655 -3.90527 5.78426e-13
-3.90527 53.1952 1.29792e-12
5.78426e-13 1.29792e-12 51.1244

51.4014 5.60123 2.0129e-11
5.60123 57.8177 7.32098e-12
2.0129e-11 7.32098e-12 55.1143

58.3417 4.0495 1.00397e-11
4.0495 61.5992 -2.02257e-12
1.00397e-11 -2.02257e-12 59.514

57.9384 3.67821 2.99768e-12
3.67821 60.6758 1.05934e-12
2.99768e-12 1.05934e-12 59.0418

51.8274 -5.32248 2.20062e-11
-5.32248 57.6891 -9.76996e-14
2.20062e-11 -9.76996e-14 53.8738

50.5357 4.80399 3.71757e-11
4.80399 55.644 6.35869e-12
3.71757e-11 6.35869e-12 52.4515

46.5864 3.32589 2.45171e-11
3.32589 41.5456 1.15115e-11
2.45171e-11 1.15115e-11 40.9143

53.1951 6.16418 -1.12197e-11
6.16418 59.6734 1.73297e-12
-1.12197e-11 1.73297e-12 56.4611

46.8028 -3.76759 -3.13009e-12
-3.76759 53.2219 4.72059e-12
-3.13009e-12 4.72059e-12 49.0932

44.4485 1.46744 -1.49538e-11
1.46744 52.1725 -1.18476e-11
-1.49538e-11 -1.18476e-11 46.5519

53.3909 4.47527 -1.73379e-11
4.47527 55.3582 -2.91837e-11
-1.73379e-11 -2.91837e-11 53.6112

45.291 1.88549 -4.51964e-11
1.88549 52.7317 1.70467e-11
-4.51964e-11 1.70467e-11 47.1282

54.3721 -5.23135 -4.5602e-11
-5.23135 60.4272 5.8272e-11
-4.5602e-11 5.8272e-11 57.5567

28.9198 -4.49473 -3.70282e-12
-4.49473 29.4169 8.36025e-11
-3.70282e-12 8.36025e-11 22.4404

29.0536 -4.54383 -5.54706e-11
-4.54383 29.0777 4.92584e-12
-5.54706e-11 4.92584e-12 22.3499

53.3907 -4.50189 -2.99521e-11
-4.50189 55.3612 2.54286e-11
-2.99521e-11 2.54286e-11 53.5871

56.8985 -1.70157 4.53163e-11
-1.70157 51.4786 1.86122e-11
4.53163e-11 1.86122e-11 53.097

70.7247 5.33924 -1.6659e-10
5.33924 68.3136 3.45531e-11
-1.6659e-10 3.45531e-11 68.3394

70.7266 -5.33972 -5.9122e-11
-5.33972 68.3154 -3.99601e-11
-5.9122e-11 -3.99601e-11 68.3345

50.9115 -5.58741 -1.92402e-13
-5.58741 57.1896 -6.06803e-12
-1.92402e-13 -6.06803e-12 53.061

60.586 1.17333 -1.19431e-11
1.17333 61.5911 8.66529e-13
-1.19431e-11 8.66529e-13 61.1309

60.6621 -1.07854 -2.81206e-11
-1.07854 61.667 3.08184e-11
-2.81206e-11 3.08184e-11 61.159

57.7361 0.0734563 -9.92066e-12
0.0734563 46.586 3.71836e-12
-9.92066e-12 3.71836e-12 51.3684

51.3718 -5.62832 6.54825e-12
-5.62832 57.8901 1.34836e-11
6.54825e-12 1.34836e-11 55.0914

31.8644 5.47695 4.43645e-11
5.47695 32.3453 1.80657e-11
4.43645e-11 1.80657e-11 26.1568

31.302 5.18773 9.92569e-12
5.18773 32.3425 4.65321e-11
9.92569e-12 4.65321e-11 26.1785

33.7802 -3.8979 1.37632e-11
-3.8979 40.9466 1.29559e-11
1.37632e-11 1.29559e-11 30.6407

34.4606 4.08715 2.50829e-11
4.08715 41.5592 1.37289e-11
2.50829e-11 1.37289e-11 31.302

40.4667 -3.24257 -2.82235e-11
-3.24257 35.1278 -4.52255e-11
-2.82235e-11 -4.52255e-11 30.8453

53.2177 -6.19073 4.44928e-11
-6.19073 59.8565 3.2702e-12
4.44928e-11 3.2702e-12 56.5102

26.7295 1.4362 3.96085e-12
1.4362 37.7118 -2.64967e-11
3.96085e-12 -2.64967e-11 26.2743

37.1833 1.83396 -1.42591e-11
1.83396 28.4676 1.72916e-11
-1.42591e-11 1.72916e-11 26.6683

60.0598 -1.91207 4.97091e-12
-1.91207 63.2051 -3.65844e-12
4.97091e-12 -3.65844e-12 61.1356

60.4459 -2.31446 1.1448e-11
-2.31446 63.5018 7.06864e-11
1.1448e-11 7.06864e-11 61.4055

58.6259 0.728166 -2.273e-11
0.728166 52.6548 -1.33393e-11
-2.273e-11 -1.33393e-11 54.7526

60.7854 0.0451688 1.27141e-11
0.0451688 47.6676 -2.5027e-11
1.27141e-11 -2.5027e-11 54.8741

39.9882 -3.53665 1.3437e-11
-3.53665 46.2895 -5.80383e-11
1.3437e-11 -5.80383e-11 39.1904

39.7595 3.45893 3.77589e-11
3.45893 46.1137 -3.86264e-11
3.77589e-11 -3.86264e-11 39.0335

57.7866 -0.000127382 -1.35812e-11
-0.000127382 46.4948 -1.30629e-11
-1.35812e-11 -1.30629e-11 51.5282

48.0136 -4.26996 -1.53148e-11
-4.26996 54.6923 -1.01118e-11
-1.53148e-11 -1.01118e-11 50.2213

65.3413 -1.8301 1.78145e-11
-1.8301 64.9273 1.57906e-11
1.78145e-11 1.57906e-11 64.9139

65.3023 1.82644 -6.84023e-12
1.82644 64.9096 -9.89479e-11
-6.84023e-12 -9.89479e-11 64.9109

54.558 2.51833 -1.82029e-11
2.51833 55.0033 -1.13652e-11
-1.82029e-11 -1.13652e-11 54.059

50.3874 -4.78276 -4.50744e-11
-4.78276 55.6292 3.07276e-11
-4.50744e-11 3.07276e-11 52.39

57.4005 0.727378 3.17901e-12
0.727378 48.2223 2.23433e-11
3.17901e-12 2.23433e-11 52.8661

40.756 3.99203 -1.22327e-11
3.99203 40.0138 1.70006e-11
-1.22327e-11 1.70006e-11 36.1705

49.6223 -4.91273 -2.31339e-12
-4.91273 55.336 2.67767e-11
-2.31339e-12 2.67767e-11 51.7953

14.8948 -8.63022 2.79341e-11
-8.63022 15.2018 -3.66785e-11
2.79341e-11 -3.66785e-11 8.41928

44.6847 -1.17734 -8.04184e-12
-1.17734 52.0125 -9.53667e-12
-8.04184e-12 -9.53667e-12 46.5828

45.3538 -1.6127 -1.56756e-11
-1.6127 52.4523 -1.44479e-11
-1.56756e-11 -1.44479e-11 47.0206

60.5617 -0.381008 -4.47336e-12
-0.381008 62.8301 -1.98384e-11
-4.47336e-12 -1.98384e-11 61.4461

60.6291 -0.219181 -2.67191e-11
-0.219181 62.7917 -9.8237e-12
-2.67191e-11 -9.8237e-12 61.4603

66.7326 -1.33964 1.77196e-11
-1.33964 61.1377 -3.08176e-12
1.77196e-11 -3.08176e-12 64.6595

66.7293 1.34187 1.29043e-11
1.34187 61.1593 1.62982e-11
1.29043e-11 1.62982e-11 64.696

55.7878 -2.63605 4.86329e-11
-2.63605 56.3854 3.35143e-11
4.86329e-11 3.35143e-11 56.7045

55.6361 2.71994 -2.76411e-11
2.71994 55.7926 -4.04613e-12
-2.76411e-11 -4.04613e-12 56.3216

60.0102 -2.3386 -3.81366e-11
-2.3386 62.5628 1.02098e-11
-3.81366e-11 1.02098e-11 60.8589

59.9475 2.43429 -9.61453e-13
2.43429 62.5303 1.64681e-11
-9.61453e-13 1.64681e-11 60.8299

68.0928 3.63797 5.43112e-11
3.63797 67.8044 3.49592e-11
5.43112e-11 3.49592e-11 67.1858

68.0959 -3.63257 1.09972e-10
-3.63257 67.8071 -7.55976e-11
1.09972e-10 -7.55976e-11 67.1805

56.197 -6.00031 1.96469e-11
-6.00031 61.5006 -8.37976e-12
1.96469e-11 -8.37976e-12 59.0144

56.2188 6.02101 5.11361e-11
6.02101 61.4441 1.24299e-11
5.11361e-11 1.24299e-11 59.0276

52.6359 3.58672 -2.67749e-11
3.58672 50.9589 1.78162e-11
-2.67749e-11 1.78162e-11 50.2564

48.9847 -2.82726 -1.42051e-11
-2.82726 54.598 -2.18638e-11
-1.42051e-11 -2.18638e-11 50.0859

49.5725 -3.52974 -2.1695e-11
-3.52974 55.7209 -3.56293e-12
-2.1695e-11 -3.56293e-12 50.7816

41.681 -3.56885 5.15203e-12
-3.56885 40.6686 1.77729e-11
5.15203e-12 1.77729e-11 35.9638

52.6011 -3.58105 8.66936e-13
-3.58105 51.0545 -3.09656e-11
8.66936e-13 -3.09656e-11 50.2152

48.8325 2.66797 -1.44723e-11
2.66797 54.343 -1.79149e-11
-1.44723e-11 -1.79149e-11 49.894

49.7631 5.02186 3.32287e-11
5.02186 51.6809 -1.85875e-11
3.32287e-11 -1.85875e-11 48.7519

53.6722 -5.19757 1.54084e-12
-5.19757 58.837 3.94813e-12
1.54084e-12 3.94813e-12 57.044

53.7559 5.10205 -6.06441e-12
5.10205 58.8535 2.15737e-11
-6.06441e-12 2.15737e-11 57.0991

49.655 -5.09705 3.56353e-11
-5.09705 51.616 1.39459e-12
3.56353e-11 1.39459e-12 48.6448

59.1862 -0.506969 1.44479e-11
-0.506969 53.3274 -2.40287e-11
1.44479e-11 -2.40287e-11 55.5198

63.9382 1.44117 -9.27212e-11
1.44117 66.4117 -4.71923e-11
-9.27212e-11 -4.71923e-11 64.1044

64.0901 1.26653 -6.18469e-11
1.26653 66.3687 6.00902e-11
-6.18469e-11 6.00902e-11 64.1717

53.6148 -4.47587 -1.37228e-11
-4.47587 58.8783 -5.56675e-11
-1.37228e-11 -5.56675e-11 55.4353

53.1724 2.19237 -1.45442e-11
2.19237 50.3252 -2.37409e-11
-1.45442e-11 -2.37409e-11 51.9794

63.0956 -0.538139 5.96995e-12
-0.538139 55.5914 -6.25922e-12
5.96995e-12 -6.25922e-12 59.1943

31.0399 -4.81924 3.01309e-11
-4.81924 31.7799 6.80937e-14
3.01309e-11 6.80937e-14 24.5185

31.288 -4.70699 -1.34766e-12
-4.70699 31.9326 -3.75735e-11
-1.34766e-12 -3.75735e-11 24.7229

66.411 -1.51162 -3.85188e-12
-1.51162 60.671 -2.96841e-11
-3.85188e-12 -2.96841e-11 64.1818

66.3545 1.53683 1.40612e-11
1.53683 60.6836 2.16429e-11
1.40612e-11 2.16429e-11 64.196

63.2547 0.442849 1.69504e-11
0.442849 55.8761 6.30777e-12
1.69504e-11 6.30777e-12 59.3798

49.5654 3.50408 -6.90301e-11
3.50408 55.5203 2.56164e-11
-6.90301e-11 2.56164e-11 50.6865

51.4837 2.76306 -1.96481e-11
2.76306 48.5169 4.03079e-11
-1.96481e-11 4.03079e-11 46.6951

57.815 -3.99221 -1.2329e-11
-3.99221 60.5951 2.61969e-11
-1.2329e-11 2.61969e-11 58.6285

57.7965 3.96123 2.03202e-11
3.96123 60.5888 -3.46475e-12
2.03202e-11 -3.46475e-12 58.6412

66.3734 -0.722955 5.21948e-11
-0.722955 62.5014 9.79059e-11
5.21948e-11 9.79059e-11 63.7949

66.4892 0.730983 -1.23268e-11
0.730983 63.083 -7.19724e-11
-1.23268e-11 -7.19724e-11 64.0029

51.5469 -5.12942 -9.43654e-12
-5.12942 57.9429 -6.21221e-11
-9.43654e-12 -6.21221e-11 54.5903

53.6275 2.20135 -1.18478e-11
2.20135 49.2299 -3.66467e-11
-1.18478e-11 -3.66467e-11 49.7466

63.3058 1.52791 1.19426e-11
1.52791 61.4162 3.06251e-11
1.19426e-11 3.06251e-11 62.1782

63.3447 -1.53577 -4.23713e-12
-1.53577 61.4162 1.15095e-11
-4.23713e-12 1.15095e-11 62.1672

52.8656 -3.98108 -1.63738e-11
-3.98108 57.7041 1.83957e-11
-1.63738e-11 1.83957e-11 54.738

51.7886 -5.4735 2.40789e-12
-5.4735 57.8966 -5.77797e-13
2.40789e-12 -5.77797e-13 55.0792

15.4047 -8.94834 -4.50514e-12
-8.94834 15.8804 4.48293e-12
-4.50514e-12 4.48293e-12 8.88765

55.7545 3.73245 1.30972e-11
3.73245 60.9897 -9.34082e-12
1.30972e-11 -9.34082e-12 58.5821

55.7298 -3.78878 2.9661e-11
-3.78878 61.0465 7.99355e-12
2.9661e-11 7.99355e-12 58.6077

50.2829 -4.74249 -1.65651e-11
-4.74249 56.5983 2.31234e-12
-1.65651e-11 2.31234e-12 53.6128

52.0767 -2.9812 -3.13033e-11
-2.9812 48.8166 1.53156e-11
-3.13033e-11 1.53156e-11 47.1431

55.2558 -2.376 8.08842e-12
-2.376 55.4083 5.40293e-11
8.08842e-12 5.40293e-11 54.6004

55.7685 3.23163 1.22321e-11
3.23163 58.4152 -4.8143e-12
1.22321e-11 -4.8143e-12 57.2423

55.7384 -3.35396 3.55369e-11
-3.35396 58.5591 -2.15743e-11
3.55369e-11 -2.15743e-11 57.2994

57.8233 -0.484494 1.63736e-12
-0.484494 48.5184 1.99833e-11
1.63736e-12 1.99833e-11 53.503

67.005 1.18826 1.21341e-11
1.18826 63.8113 -8.37845e-12
1.21341e-11 -8.37845e-12 65.716

67.0775 -1.17666 1.81029e-11
-1.17666 63.8179 1.80047e-11
1.81029e-11 1.80047e-11 65.732

63.7799 0.524294 -5.11187e-11
0.524294 69.5533 2.98519e-11
-5.11187e-11 2.98519e-11 64.4216

63.8634 0.349146 -7.44943e-11
0.349146 69.5689 2.54246e-11
-7.44943e-11 2.54246e-11 64.4594

24.3007 0.376022 -3.60046e-11
0.376022 37.4959 4.52941e-12
-3.60046e-11 4.52941e-12 19.7112

35.7496 0.33439 -3.36975e-12
0.33439 24.3874 1.8292e-11
-3.36975e-12 1.8292e-11 19.3757

55.3193 -5.12516 -7.41599e-12
-5.12516 60.7944 3.50558e-11
-7.41599e-12 3.50558e-11 57.5058

55.3263 5.11059 1.97412e-11
5.11059 60.7687 -4.50728e-11
1.97412e-11 -4.50728e-11 57.5179

52.8328 -5.83278 -5.5761e-11
-5.83278 59.5827 1.43562e-11
-5.5761e-11 1.43562e-11 56.1033

20.884 -4.20575 1.84025e-11
-4.20575 30.6 4.8909e-12
1.84025e-11 4.8909e-12 16.779

29.8329 -4.02039 -2.78471e-11
-4.02039 21.9347 1.83054e-11
-2.78471e-11 1.83054e-11 16.9604

67.0005 -5.3573 -9.07089e-11
-5.3573 71.1632 -2.49458e-12
-9.07089e-11 -2.49458e-12 68.5693

66.9951 5.35639 1.82366e-10
5.35639 71.1648 -1.13809e-10
1.82366e-10 -1.13809e-10 68.5735

52.1141 -3.54045 -5.22023e-11
-3.54045 53.9748 3.32273e-11
-5.22023e-11 3.32273e-11 53.1491

49.9847 -4.92075 5.09495e-11
-4.92075 53.4075 5.29332e-12
5.09495e-11 5.29332e-12 49.8194

54.7683 -5.17991 -1.18466e-11
-5.17991 58.6766 1.4543e-11
-1.18466e-11 1.4543e-11 56.4657

54.7577 5.15972 3.48626e-11
5.15972 58.654 1.54343e-12
3.48626e-11 1.54343e-12 56.472

51.1634 -5.55791 1.92626e-11
-5.55791 55.9984 1.96467e-11
1.92626e-11 1.96467e-11 52.523

49.972 4.92225 1.98394e-11
4.92225 53.246 -1.75291e-11
1.98394e-11 -1.75291e-11 49.7666

33.3367 -1.59583 -3.7604e-11
-1.59583 42.5362 -5.20058e-12
-3.7604e-11 -5.20058e-12 31.2297

32.8532 1.93248 -3.52201e-11
1.93248 41.886 2.66855e-11
-3.52201e-11 2.66855e-11 31.0714

41.8055 -1.21575 2.35083e-11
-1.21575 35.2494 4.54919e-11
2.35083e-11 4.54919e-11 31.6367

51.1482 5.52916 -1.3388e-11
5.52916 55.9113 -1.97458e-11
-1.3388e-11 -1.97458e-11 52.4663

26.3077 -0.992638 -3.50661e-11
-0.992638 37.863 2.37013e-11
-3.50661e-11 2.37013e-11 25.8838

36.7799 -0.961414 -2.26659e-11
-0.961414 26.5411 1.35231e-11
-2.26659e-11 1.35231e-11 25.5479

57.5263 -5.06108 1.28078e-11
-5.06108 61.5237 -1.08854e-11
1.28078e-11 -1.08854e-11 59.4901

57.5489 5.03196 -2.32121e-11
5.03196 61.5114 -4.80573e-11
-2.32121e-11 -4.80573e-11 59.5116

58.3074 -4.40519 -3.3128e-11
-4.40519 62.5776 -1.82014e-11
-3.3128e-11 -1.82014e-11 60.3517

58.3122 4.38781 -2.78327e-11
4.38781 62.5508 -5.99019e-11
-2.78327e-11 -5.99019e-11 60.3614

19.8866 -4.22883 5.59162e-11
-4.22883 29.3859 4.66815e-11
5.59162e-11 4.66815e-11 15.5518

28.5451 -3.91172 -2.77692e-11
-3.91172 20.1538 -5.39805e-11
-2.77692e-11 -5.39805e-11 15.3877

53.9049 4.67083 -2.04188e-11
4.67083 57.3679 -2.04194e-11
-2.04188e-11 -2.04194e-11 54.5524

53.9255 -4.70854 -1.20379e-11
-4.70854 57.4319 2.87018e-11
-1.20379e-11 2.87018e-11 54.5555

61.7635 -0.753822 -2.28977e-11
-0.753822 63.5729 -1.11709e-11
-2.28977e-11 -1.11709e-11 62.109

61.8631 -1.00065 -1.04712e-11
-1.00065 63.7588 3.04315e-11
-1.04712e-11 3.04315e-11 62.2161

57.5412 -5.08161 4.43142e-12
-5.08161 63.7926 -2.41739e-11
4.43142e-12 -2.41739e-11 60.6369

57.5296 5.10494 3.26462e-11
5.10494 63.7545 3.76598e-11
3.26462e-11 3.76598e-11 60.6437

64.6844 -1.99839 -9.72874e-12
-1.99839 62.4891 4.78105e-11
-9.72874e-12 4.78105e-11 64.1534

64.6509 1.99892 3.37153e-12
1.99892 62.4991 1.0098e-12
3.37153e-12 1.0098e-12 64.1566

53.3326 4.2063 -2.55212e-11
4.2063 57.4773 1.9081e-13
-2.55212e-11 1.9081e-13 55.3294

53.3305 -4.1889 -2.54247e-11
-4.1889 57.6715 -1.68535e-11
-2.54247e-11 -1.68535e-11 55.4081

61.3847 -1.57298 2.00557e-11
-1.57298 67.5763 6.20174e-11
2.00557e-11 6.20174e-11 63.1404

68.7466 -2.87161 -8.85888e-12
-2.87161 67.288 -6.06655e-12
-8.85888e-12 -6.06655e-12 67.8249

68.4412 -2.95205 -4.179e-11
-2.95205 67.2884 -1.63578e-12
-4.179e-11 -1.63578e-12 67.7665

68.7006 2.88756 4.06367e-11
2.88756 67.2811 7.89863e-12
4.06367e-11 7.89863e-12 67.813

68.4281 2.95914 9.70666e-11
2.95914 67.2848 -1.12272e-10
9.70666e-11 -1.12272e-10 67.7675

61.0539 -1.22069 3.24655e-11
-1.22069 67.4504 -9.82251e-12
3.24655e-11 -9.82251e-12 62.9234

63.7541 -3.21913 2.69603e-12
-3.21913 63.6329 -2.59927e-12
2.69603e-12 -2.59927e-12 62.6788

63.6165 3.32953 -1.4829e-11
3.32953 63.6871 8.2818e-12
-1.4829e-11 8.2818e-12 62.708

66.261 -4.17925 -1.52711e-10
-4.17925 68.5816 -1.44728e-10
-1.52711e-10 -1.44728e-10 66.2512

79.1911 -3.12048 -1.12016e-09
-3.12048 68.1789 -9.33855e-10
-1.12016e-09 -9.33855e-10 69.8508

79.1916 3.1182 -3.53612e-10
3.1182 68.189 5.73228e-12
-3.53612e-10 5.73228e-12 69.8597

66.2508 4.18132 -2.73402e-11
4.18132 68.5758 -7.55939e-11
-2.73402e-11 -7.55939e-11 66.2565

66.9727 -4.43364 6.00915e-11
-4.43364 66.8162 -1.5989e-11
6.00915e-11 -1.5989e-11 65.6625

62.297 -3.57597 -3.0525e-11
-3.57597 65.8454 3.4676e-12
-3.0525e-11 3.4676e-12 63.4335

68.0114 -3.41655 6.16261e-11
-3.41655 67.9997 -5.67213e-11
6.16261e-11 -5.67213e-11 67.1992

66.9657 4.43582 -2.05128e-11
4.43582 66.7968 1.63669e-12
-2.05128e-11 1.63669e-12 65.666

68.0081 3.41947 -9.6656e-13
3.41947 68.0027 -9.30224e-11
-9.6656e-13 -9.30224e-11 67.2063

62.295 3.575 3.76543e-11
3.575 65.8193 2.48476e-11
3.76543e-11 2.48476e-11 63.4376

62.4684 -3.68817 -2.93697e-11
-3.68817 65.957 -2.27242e-11
-2.93697e-11 -2.27242e-11 64.0687

66.2119 -3.0044 9.62874e-12
-3.0044 67.3451 7.12614e-12
9.62874e-12 7.12614e-12 66.1978

62.4675 3.68561 4.91126e-11
3.68561 65.9375 4.54571e-11
4.91126e-11 4.54571e-11 64.0734

66.1951 3.00012 -2.23398e-11
3.00012 67.3241 4.15987e-11
-2.23398e-11 4.15987e-11 66.1976

53.3528 2.41487 -6.74015e-12
2.41487 56.3778 1.46385e-11
-6.74015e-12 1.46385e-11 54.5417

50.2669 -0.697418 -5.00723e-12
-0.697418 57.6541 -3.08196e-11
-5.00723e-12 -3.08196e-11 54.3423

51.83 -0.777692 -2.15769e-11
-0.777692 44.7578 -6.93648e-12
-2.15769e-11 -6.93648e-12 48.9907

49.8183 0.0247581 -2.44668e-11
0.0247581 43.0866 2.31491e-12
-2.44668e-11 2.31491e-12 46.2015

54.091 2.42186 3.00471e-11
2.42186 57.6648 1.32914e-11
3.00471e-11 1.32914e-11 56.9826

51.5272 -1.05408 5.75764e-13
-1.05408 61.4972 5.77887e-11
5.75764e-13 5.77887e-11 57.2894

49.88 1.36039 5.76576e-13
1.36039 43.1786 -1.4443e-11
5.76576e-13 -1.4443e-11 46.3957

56.6012 1.73178 8.38122e-12
1.73178 49.6713 -1.38689e-11
8.38122e-12 -1.38689e-11 54.8055

35.6014 3.4504 -1.53636e-12
3.4504 40.4631 3.4679e-11
-1.53636e-12 3.4679e-11 37.2371

35.8358 3.34324 -7.70395e-12
3.34324 40.5376 -3.85048e-12
-7.70395e-12 -3.85048e-12 36.8786

39.6928 3.00828 -4.23861e-11
3.00828 35.3007 1.30983e-11
-4.23861e-11 1.30983e-11 36.3162

57.3983 1.51837 2.83151e-11
1.51837 61.38 8.85762e-12
2.83151e-11 8.85762e-12 59.0244

57.8457 -2.92894 1.86816e-11
-2.92894 59.4979 4.69979e-11
1.86816e-11 4.69979e-11 58.7164

49.8506 -3.72902 -2.3885e-11
-3.72902 50.8909 -1.75294e-11
-2.3885e-11 -1.75294e-11 50.0486

51.366 1.26522 5.27762e-11
1.26522 61.5242 3.69863e-11
5.27762e-11 3.69863e-11 57.1154

53.8042 -1.40128 3.94839e-11
-1.40128 57.2456 3.89104e-11
3.94839e-11 3.89104e-11 56.7254

53.7123 0.963445 -5.785e-13
0.963445 45.3885 -2.69771e-12
-5.785e-13 -2.69771e-12 49.6507

38.5787 1.59073 -1.46404e-11
1.59073 45.3101 -4.62652e-12
-1.46404e-11 -4.62652e-12 40.5436

39.5466 1.21144 7.03001e-12
1.21144 44.7479 -1.75313e-11
7.03001e-12 -1.75313e-11 40.4175

44.4598 0.92968 1.0596e-12
0.92968 38.7195 1.32933e-11
1.0596e-12 1.32933e-11 39.7463

45.2508 3.7189 -1.11716e-11
3.7189 49.4903 4.48861e-11
-1.11716e-11 4.48861e-11 46.27

43.9255 -2.23117 8.86095e-12
-2.23117 49.4507 3.73725e-11
8.86095e-12 3.73725e-11 46.3826

52.3121 2.14488 2.38881e-11
2.14488 44.78 1.27151e-11
2.38881e-11 1.27151e-11 49.4112

33.6973 2.52241 -1.17607e-11
2.52241 37.3536 -5.16365e-11
-1.17607e-11 -5.16365e-11 33.841

56.0917 -0.960847 1.19415e-11
-0.960847 47.3753 -1.69475e-11
1.19415e-11 -1.69475e-11 53.5452

59.4186 0.649007 1.75296e-11
0.649007 60.2048 5.68123e-12
1.75296e-11 5.68123e-12 59.3813

57.8382 -0.171893 1.76132e-15
-0.171893 63.2091 5.31615e-11
1.76132e-15 5.31615e-11 59.6006

72.256 3.75967 1.1523e-12
3.75967 65.7263 -3.00496e-11
1.1523e-12 -3.00496e-11 64.8492

71.4337 -1.68487 6.93357e-11
-1.68487 62.2549 -2.15729e-11
6.93357e-11 -2.15729e-11 64.3553

48.2395 -4.26092 -3.737e-11
-4.26092 50.2289 -1.52177e-11
-3.737e-11 -1.52177e-11 49.1724

44.1999 -3.59018 -1.09795e-11
-3.59018 48.539 3.08124e-12
-1.09795e-11 3.08124e-12 45.6448

43.6606 -0.0420555 5.96871e-12
-0.0420555 37.2048 -1.63736e-11
5.96871e-12 -1.63736e-11 39.2681

62.4695 2.32872 -2.69662e-12
2.32872 58.2871 -2.11882e-11
-2.69662e-12 -2.11882e-11 59.5994

61.5126 -0.638986 8.08805e-12
-0.638986 57.3143 -2.71592e-11
8.08805e-12 -2.71592e-11 59.2145

56.4306 -0.377724 1.4256e-11
-0.377724 47.7172 -1.56001e-11
1.4256e-11 -1.56001e-11 54.6092

43.3367 -2.72695 -2.17667e-11
-2.72695 47.7687 3.08635e-12
-2.17667e-11 3.08635e-12 45.6109

55.4992 0.530794 -3.17761e-12
0.530794 46.3311 3.13956e-11
-3.17761e-12 3.13956e-11 53.4195

46.9468 -2.67908 9.0575e-12
-2.67908 44.0364 4.816e-12
9.0575e-12 4.816e-12 44.3031

44.2985 3.94122 8.67203e-12
3.94122 46.951 -2.62013e-11
8.67203e-12 -2.62013e-11 45.5256

47.2804 2.92635 -6.56929e-11
2.92635 41.0691 -2.08111e-11
-6.56929e-11 -2.08111e-11 43.4207

46.3081 -1.69248 2.88754e-12
-1.69248 40.6212 3.56407e-11
2.88754e-12 3.56407e-11 42.8645

44.4501 3.32322 2.88922e-11
3.32322 49.278 -2.08068e-11
2.88922e-11 -2.08068e-11 46.2804

48.0688 -2.47083 9.63189e-12
-2.47083 55.9098 -1.04021e-11
9.63189e-12 -1.04021e-11 53.4939

50.316 4.41246 -1.23248e-11
4.41246 55.7882 1.30974e-11
-1.23248e-11 1.30974e-11 53.5766

45.2902 -3.1097 8.28678e-12
-3.1097 49.2108 1.04015e-11
8.28678e-12 1.04015e-11 46.3017

44.5119 4.0829 -9.05624e-12
4.0829 48.9594 1.92498e-12
-9.05624e-12 1.92498e-12 45.7826

26.2832 -3.44732 -1.214e-11
-3.44732 26.8578 7.72567e-13
-1.214e-11 7.72567e-13 26.7768

25.9845 3.96086 -1.04052e-11
3.96086 27.4201 1.05977e-11
-1.04052e-11 1.05977e-11 26.5829

51.0485 3.38677 -2.13769e-11
3.38677 58.6599 1.61802e-11
-2.13769e-11 1.61802e-11 56.4506

53.237 -3.95594 -2.88911e-11
-3.95594 57.7621 -4.23509e-12
-2.88911e-11 -4.23509e-12 56.5533

46.3024 3.73037 -4.11277e-11
3.73037 51.965 -1.73384e-11
-4.11277e-11 -1.73384e-11 49.0686

26.0971 1.27471 2.40863e-11
1.27471 26.2455 -3.25605e-11
2.40863e-11 -3.25605e-11 27.281

26.1195 -0.0209905 -1.27166e-11
-0.0209905 27.4111 -4.24187e-12
-1.27166e-11 -4.24187e-12 27.7196

58.3043 -2.84418 8.95861e-12
-2.84418 59.5118 -3.73669e-11
8.95861e-12 -3.73669e-11 59.4927

58.8541 1.38708 6.59221e-11
1.38708 60.7152 -8.28337e-12
6.59221e-11 -8.28337e-12 59.7194

56.8794 -0.0811619 -1.9359e-11
-0.0811619 47.1187 2.42687e-11
-1.9359e-11 2.42687e-11 52.1

58.3939 -2.65012 -1.56037e-11
-2.65012 59.6395 1.69535e-11
-1.56037e-11 1.69535e-11 59.4933

58.5846 0.952147 1.73605e-11
0.952147 58.8794 3.08224e-12
1.73605e-11 3.08224e-12 59.2915

44.9894 -2.34811 -2.50381e-12
-2.34811 51.9321 -1.84937e-11
-2.50381e-12 -1.84937e-11 49.1696

67.6902 3.55487 -1.11728e-11
3.55487 63.6452 -1.38662e-11
-1.11728e-11 -1.38662e-11 63.1093

67.914 -2.93012 6.24044e-11
-2.93012 60.3457 -1.69503e-11
6.24044e-11 -1.69503e-11 62.8501

54.6132 -2.84478 6.59672e-12
-2.84478 54.4551 2.50386e-11
6.59672e-12 2.50386e-11 55.5308

54.8707 2.16596 -4.18953e-11
2.16596 55.0797 7.26793e-12
-4.18953e-11 7.26793e-12 55.5592

61.2853 0.226049 3.46667e-11
0.226049 69.1028 -3.46684e-11
3.46667e-11 -3.46684e-11 62.8691

60.8999 1.71625 -3.409e-11
1.71625 64.5864 -9.74406e-14
-3.409e-11 -9.74406e-14 62.0296

32.0183 1.17992 8.09467e-12
1.17992 35.7851 1.98489e-11
8.09467e-12 1.98489e-11 32.728

35.5696 1.20664 -3.09293e-11
1.20664 32.1355 -1.17497e-11
-3.09293e-11 -1.17497e-11 32.7244

49.2815 3.54191 3.40946e-11
3.54191 54.9591 -1.65642e-11
3.40946e-11 -1.65642e-11 52.5121

46.9654 -2.16048 3.46716e-11
-2.16048 55.3409 -1.96486e-11
3.46716e-11 -1.96486e-11 52.3682

69.3387 -4.66345 1.47431e-10
-4.66345 74.6481 -1.34436e-10
1.47431e-10 -1.34436e-10 67.0352

69.9047 2.77967 2.23012e-10
2.77967 65.1947 1.36554e-10
2.23012e-10 1.36554e-10 65.3077

46.8902 3.75878 -1.71488e-11
3.75878 44.6625 2.69701e-11
-1.71488e-11 2.69701e-11 45.0051

54.3834 1.44446 3.85247e-12
1.44446 49.4492 -2.33082e-11
3.85247e-12 -2.33082e-11 52.6182

54.0782 -1.89112 4.09343e-11
-1.89112 49.2683 -2.27357e-11
4.09343e-11 -2.27357e-11 52.5628

59.593 -2.03222 -9.62978e-12
-2.03222 52.3299 -2.31111e-12
-9.62978e-12 -2.31111e-12 57.2942

43.5296 0.859423 1.27178e-11
0.859423 37.1814 4.12247e-11
1.27178e-11 4.12247e-11 39.3462

74.4085 0.262326 -3.39029e-11
0.262326 64.8263 -1.46374e-11
-3.39029e-11 -1.46374e-11 65.7569

73.9674 -0.530659 5.77741e-11
-0.530659 71.5107 -8.58959e-11
5.77741e-11 -8.58959e-11 66.613

48.8093 4.51105 -2.50468e-11
4.51105 46.5035 1.92675e-12
-2.50468e-11 1.92675e-12 48.0167

54.3927 1.1944 2.35978e-11
1.1944 48.0427 -1.34851e-11
2.35978e-11 -1.34851e-11 50.6087

40.4795 3.67303 -1.75318e-11
3.67303 41.8653 8.7644e-12
-1.75318e-11 8.7644e-12 39.6295

64.6962 -2.08771 -1.04959e-10
-2.08771 71.2863 -1.69441e-11
-1.04959e-10 -1.69441e-11 64.4231

62.5375 1.30633 1.79109e-11
1.30633 64.7736 8.57277e-12
1.79109e-11 8.57277e-12 62.9484

60.817 3.78799 -3.8524e-12
3.78799 54.6941 -9.24697e-12
-3.8524e-12 -9.24697e-12 58.0876

53.1555 -1.18783 3.70782e-11
-1.18783 56.1692 6.35699e-12
3.70782e-11 6.35699e-12 54.3929

50.1052 0.840447 2.37874e-11
0.840447 57.7524 -1.69496e-11
2.37874e-11 -1.69496e-11 54.2256

57.6738 -0.580121 1.83135e-12
-0.580121 48.4096 -1.46397e-11
1.83135e-12 -1.46397e-11 53.9569

58.2266 0.427513 7.60976e-12
0.427513 48.275 3.81347e-11
7.60976e-12 3.81347e-11 54.0674

41.6972 -2.41919 -3.65648e-12
-2.41919 40.1835 -3.46552e-12
-3.65648e-12 -3.46552e-12 39.2268

51.5768 0.125147 2.30681e-11
0.125147 43.6695 4.2375e-12
2.30681e-11 4.2375e-12 46.7139

59.1334 0.484813 -2.65044e-12
0.484813 52.3136 -7.01102e-11
-2.65044e-12 -7.01102e-11 56.5989

58.3244 -1.03791 7.7045e-12
-1.03791 52.9178 -2.61955e-11
7.7045e-12 -2.61955e-11 56.6029

53.9671 -1.41705 -3.7607e-12
-1.41705 47.4573 1.464e-11
-3.7607e-12 1.464e-11 50.4623

58.2271 -0.667328 -1.30017e-11
-0.667328 50.8894 -1.11022e-16
-1.30017e-11 -1.11022e-16 54.8476

58.9371 0.287254 1.00892e-11
0.287254 51.0465 -3.37056e-11
1.00892e-11 -3.37056e-11 55.0218

53.6359 2.98755 1.8491e-11
2.98755 47.6868 1.96502e-11
1.8491e-11 1.96502e-11 51.0426

42.6617 -3.9639 -1.92634e-11
-3.9639 42.2372 1.23292e-11
-1.92634e-11 1.23292e-11 41.5797

51.313 5.16423 -7.80139e-12
5.16423 56.3584 4.04528e-12
-7.80139e-12 4.04528e-12 54.4629

49.9892 -4.39424 1.51684e-11
-4.39424 54.039 -3.66022e-11
1.51684e-11 -3.66022e-11 54.1448

49.57 -3.2803 1.08821e-11
-3.2803 54.4736 9.63083e-12
1.08821e-11 9.63083e-12 54.5412

52.0074 5.45161 -2.45598e-11
5.45161 57.6742 -1.81086e-11
-2.45598e-11 -1.81086e-11 55.2426

47.8139 1.89481 2.91849e-11
1.89481 40.7202 5.20214e-12
2.91849e-11 5.20214e-12 43.4198

37.4272 -2.26304 -1.02115e-11
-2.26304 34.7787 -2.08108e-11
-1.02115e-11 -2.08108e-11 34.6515

54.7133 4.30864 -1.38708e-11
4.30864 50.2091 -1.19383e-11
-1.38708e-11 -1.19383e-11 53.2327

52.8934 -1.44276 1.54277e-12
-1.44276 47.3055 -1.17533e-11
1.54277e-12 -1.17533e-11 50.279

38.1084 -1.75992 2.30867e-12
-1.75992 34.507 3.0852e-12
2.30867e-12 3.0852e-12 34.9148

48.4197 -3.49991 -3.25599e-11
-3.49991 46.3082 2.71593e-11
-3.25599e-11 2.71593e-11 47.5606

46.1569 0.0234026 -6.5497e-12
0.0234026 56.3981 -5.85602e-11
-6.5497e-12 -5.85602e-11 52.095

48.3617 0.542927 8.66774e-12
0.542927 53.5553 3.46486e-12
8.66774e-12 3.46486e-12 51.8211

43.1902 4.48673 1.2331e-11
4.48673 43.3372 4.62504e-12
1.2331e-11 4.62504e-12 42.7611

40.5047 -2.60116 -8.62717e-13
-2.60116 36.0825 -3.12086e-11
-8.62717e-13 -3.12086e-11 37.2495

52.0875 4.77986 3.08105e-12
4.77986 53.5457 -4.58459e-11
3.08105e-12 -4.58459e-11 54.4605

51.9057 -4.57997 3.13993e-11
-4.57997 55.0533 -2.73537e-11
3.13993e-11 -2.73537e-11 54.2829

42.5514 -3.38424 -1.03008e-11
-3.38424 45.3441 -2.85136e-11
-1.03008e-11 -2.85136e-11 43.0253

43.0201 -3.73127 -2.89583e-12
-3.73127 44.9935 2.75493e-11
-2.89583e-12 2.75493e-11 42.7404

53.174 3.48245 8.08635e-12
3.48245 48.08 4.23628e-12
8.08635e-12 4.23628e-12 50.6946

59.6617 2.1425 8.47537e-12
2.1425 48.8068 1.54212e-12
8.47537e-12 1.54212e-12 56.5349

59.5351 -1.46063 2.50418e-11
-1.46063 47.6191 -3.85192e-12
2.50418e-11 -3.85192e-12 56.3102

42.0983 2.76871 4.16119e-11
2.76871 48.0488 2.94744e-11
4.16119e-11 2.94744e-11 44.0481

49.4781 4.25684 -3.19735e-11
4.25684 48.6575 -3.92975e-11
-3.19735e-11 -3.92975e-11 48.9665

34.9573 0.400309 -4.21878e-11
0.400309 43.5207 -1.4641e-11
-4.21878e-11 -1.4641e-11 38.4611

35.9193 0.22244 3.46764e-11
0.22244 43.1861 -3.91108e-11
3.46764e-11 -3.91108e-11 38.3897

43.1011 0.181913 2.02282e-11
0.181913 35.0644 1.31022e-11
2.02282e-11 1.31022e-11 37.9029

44.0899 -3.19915 -7.22444e-12
-3.19915 41.8533 1.07853e-11
-7.22444e-12 1.07853e-11 42.5656

63.8931 -2.19606 -8.91713e-11
-2.19606 67.9586 -8.86095e-12
-8.91713e-11 -8.86095e-12 64.4128

75.6471 1.1306 -1.07848e-10
1.1306 75.6848 -1.01689e-10
-1.07848e-10 -1.01689e-10 67.9629

45.7896 3.83943 -3.06376e-11
3.83943 40.8638 -3.39087e-11
-3.06376e-11 -3.39087e-11 42.6969

48.1734 -1.59859 7.42058e-12
-1.59859 40.9327 -1.8495e-11
7.42058e-12 -1.8495e-11 43.8597

38.1602 2.6961 3.333e-11
2.6961 34.1699 8.47781e-12
3.333e-11 8.47781e-12 35.1601

46.9774 -2.79857 1.37731e-11
-2.79857 52.6858 -1.15587e-11
1.37731e-11 -1.15587e-11 51.2744

49.2579 5.06832 -5.10331e-12
5.06832 54.4072 2.88961e-12
-5.10331e-12 2.88961e-12 51.6989

56.8567 -0.0744197 -3.22179e-11
-0.0744197 47.0548 3.46695e-12
-3.22179e-11 3.46695e-12 52.0527

40.4228 2.55072 -2.54311e-11
2.55072 47.736 -2.42729e-11
-2.54311e-11 -2.42729e-11 43.869

49.8544 -3.38941 -1.54111e-12
-3.38941 58.6397 3.85292e-12
-1.54111e-12 3.85292e-12 56.3876

53.1811 4.75637 -2.57136e-11
4.75637 58.6032 -4.62371e-12
-2.57136e-11 -4.62371e-12 56.7573

39.9898 2.98756 -2.07077e-11
2.98756 41.7862 -7.61051e-12
-2.07077e-11 -7.61051e-12 39.1292

41.16 3.15012 -1.63817e-12
3.15012 40.6109 2.60068e-11
-1.63817e-12 2.60068e-11 38.8505

38.4776 2.41994 1.27283e-11
2.41994 34.4749 1.23353e-11
1.27283e-11 1.23353e-11 35.3918

51.8362 5.23248 -3.61133e-12
5.23248 58.3935 1.75279e-11
-3.61133e-12 1.75279e-11 55.4863

49.5725 -3.78233 -2.05128e-11
-3.78233 53.3902 7.43564e-11
-2.05128e-11 7.43564e-11 54.5067

60.0792 0.152061 2.81719e-11
0.152061 48.5648 -3.12053e-11
2.81719e-11 -3.12053e-11 55.2178

51.1929 3.57399 7.70424e-12
3.57399 53.6327 2.88945e-11
7.70424e-12 2.88945e-11 54.8352

52.1914 -4.45619 7.68792e-13
-4.45619 57.3447 4.16078e-11
7.68792e-13 4.16078e-11 55.4172

49.8273 4.3261 5.77823e-12
4.3261 50.6545 3.46937e-12
5.77823e-12 3.46937e-12 51.1378

38.9164 -0.937224 2.58148e-11
-0.937224 45.6918 -4.00749e-11
2.58148e-11 -4.00749e-11 41.0778

40.1279 -1.24154 -3.00505e-11
-1.24154 45.5332 2.42736e-11
-3.00505e-11 2.42736e-11 41.1069

44.7694 -0.762741 4.14098e-12
-0.762741 39.1566 -2.73556e-11
4.14098e-12 -2.73556e-11 40.4411

44.9581 -2.64283 1.60897e-11
-2.64283 44.9119 2.50464e-11
1.60897e-11 2.50464e-11 44.2729

47.421 0.460459 -1.73334e-12
0.460459 51.9864 -9.63326e-12
-1.73334e-12 -9.63326e-12 48.6216

44.7362 0.152012 -2.52343e-11
0.152012 52.8357 7.73011e-13
-2.52343e-11 7.73011e-13 48.4363

37.3865 -2.95765 -7.7095e-12
-2.95765 40.366 -2.29246e-11
-7.7095e-12 -2.29246e-11 37.3534

37.1066 -2.81486 2.95729e-11
-2.81486 39.5291 2.23471e-11
2.95729e-11 2.23471e-11 37.2265

60.5519 -0.167017 -1.21828e-11
-0.167017 49.216 2.23423e-11
-1.21828e-11 2.23423e-11 55.4967

60.0358 0.186029 1.68621e-12
0.186029 49.4171 -1.3868e-11
1.68621e-12 -1.3868e-11 55.4136

48.7127 -3.49551 -2.00326e-11
-3.49551 52.1101 -3.31318e-11
-2.00326e-11 -3.31318e-11 51.9608

49.838 4.59225 -1.57946e-11
4.59225 55.0939 -7.71494e-13
-1.57946e-11 -7.71494e-13 52.3914

49.8337 2.96193 2.00368e-11
2.96193 58.1341 3.08199e-11
2.00368e-11 3.08199e-11 56.181

53.0412 -4.35102 -1.154e-12
-4.35102 58.0874 -1.4253e-11
-1.154e-12 -1.4253e-11 56.5658

52.2281 -3.48465 8.66981e-12
-3.48465 51.6717 -1.2327e-11
8.66981e-12 -1.2327e-11 52.7857

40.6411 -1.83036 1.97451e-11
-1.83036 48.307 2.31168e-11
1.97451e-11 2.31168e-11 44.1378

58.0391 0.550739 3.06735e-11
0.550739 56.2006 6.94012e-12
3.06735e-11 6.94012e-12 57.5301

57.244 -1.74364 3.78469e-11
-1.74364 55.4119 7.12697e-12
3.78469e-11 7.12697e-12 57.3112

50.2129 -2.69145 -1.34797e-11
-2.69145 48.1632 -4.23727e-11
-1.34797e-11 -4.23727e-11 49.1329

54.6347 -2.28518 4.71936e-11
-2.28518 51.605 6.93275e-12
4.71936e-11 6.93275e-12 53.5062

55.1985 1.92561 -1.83017e-11
1.92561 53.0035 5.37418e-11
-1.83017e-11 5.37418e-11 53.7529

24.7066 -1.05313 1.88844e-11
-1.05313 20.9287 -3.85817e-12
1.88844e-11 -3.85817e-12 26.1269

43.2608 4.53863 -4.52734e-12
4.53863 45.0546 -2.79319e-11
-4.52734e-12 -2.79319e-11 42.9205

22.4037 2.17368 -3.98808e-11
2.17368 25.3218 -5.39931e-12
-3.98808e-11 -5.39931e-12 26.4389

42.128 -2.44032 1.94863e-13
-2.44032 47.9807 4.04758e-12
1.94863e-13 4.04758e-12 44.167

62.3397 -2.3893 8.05526e-12
-2.3893 65.065 -1.03962e-11
8.05526e-12 -1.03962e-11 62.7826

63.8259 0.958175 -2.78944e-11
0.958175 62.7904 -2.65804e-11
-2.78944e-11 -2.65804e-11 62.5945

50.6157 2.95299 -3.13996e-11
2.95299 49.4003 1.13631e-11
-3.13996e-11 1.13631e-11 49.2581

51.5207 -0.160552 7.80909e-12
-0.160552 43.4002 1.57922e-11
7.80909e-12 1.57922e-11 46.6885

44.6166 3.6817 1.69557e-11
3.6817 41.7929 2.35055e-11
1.69557e-11 2.35055e-11 42.2995

47.3351 1.78262 6.93203e-12
1.78262 56.2856 -9.6317e-12
6.93203e-12 -9.6317e-12 52.6132

49.3262 -2.46029 -1.63729e-11
-2.46029 54.2444 -1.59859e-11
-1.63729e-11 -1.59859e-11 52.4101

57.818 4.08015 -1.77209e-11
4.08015 60.0488 -4.71956e-12
-1.77209e-11 -4.71956e-12 58.9139

57.6419 -2.25902 4.1217e-11
-2.25902 60.8851 -2.6978e-12
4.1217e-11 -2.6978e-12 59.1041

51.3718 5.55555 9.62471e-13
5.55555 57.5489 -9.82355e-12
9.62471e-13 -9.82355e-12 55.1134

47.0068 -5.26537 -4.15086e-11
-5.26537 54.3312 1.88822e-11
-4.15086e-11 1.88822e-11 54.1233

45.3941 2.88054 2.4079e-11
2.88054 51.7359 1.30986e-11
2.4079e-11 1.30986e-11 49.1844

44.0906 1.4605 5.2491e-11
1.4605 50.4595 -3.21701e-11
5.2491e-11 -3.21701e-11 46.8795

50.6269 -3.23234 -4.19951e-11
-3.23234 50.1043 7.70772e-12
-4.19951e-11 7.70772e-12 51.3037

50.8935 3.41936 -1.71447e-11
3.41936 51.223 3.71788e-11
-1.71447e-11 3.71788e-11 51.3787

45.8922 3.48631 -1.47387e-11
3.48631 46.1604 -4.68103e-11
-1.47387e-11 -4.68103e-11 44.5627

46.4077 -3.41808 1.92633e-11
-3.41808 51.761 2.7931e-11
1.92633e-11 2.7931e-11 49.1905

42.7161 -0.606888 1.07888e-11
-0.606888 51.6485 1.0405e-11
1.07888e-11 1.0405e-11 47.118

30.5238 2.46283 3.21789e-11
2.46283 32.2346 -4.93261e-11
3.21789e-11 -4.93261e-11 30.3094

31.9769 2.54877 -5.52008e-11
2.54877 30.6579 1.83007e-11
-5.52008e-11 1.83007e-11 30.3097

39.3199 -2.95559 -2.54326e-11
-2.95559 40.3038 6.16729e-12
-2.54326e-11 6.16729e-12 38.2174

53.396 -1.10763 1.28633e-11
-1.10763 45.3185 1.11733e-11
1.28633e-11 1.11733e-11 49.5831

67.9018 -3.70909 2.7014e-11
-3.70909 70.0177 8.35901e-11
2.7014e-11 8.35901e-11 65.7061

71.0465 3.85096 1.25102e-10
3.85096 65.4143 -7.3375e-11
1.25102e-10 -7.3375e-11 65.4298

63.7398 3.76773 2.58036e-11
3.76773 63.8043 8.0887e-12
2.58036e-11 8.0887e-12 62.0519

61.8126 -0.986938 -1.50281e-11
-0.986938 59.7405 1.48282e-11
-1.50281e-11 1.48282e-11 61.112

53.6832 -0.041798 1.09796e-11
-0.041798 46.2156 -9.62891e-12
1.09796e-11 -9.62891e-12 51.2697

51.419 -4.93679 -1.07875e-11
-4.93679 56.7769 1.13657e-11
-1.07875e-11 1.13657e-11 54.98

47.9599 5.15708 1.48326e-11
5.15708 54.22 1.38712e-11
1.48326e-11 1.38712e-11 54.1808

32.0121 -2.4013 9.25297e-12
-2.4013 33.1602 -1.9843e-11
9.25297e-12 -1.9843e-11 31.5601

32.292 3.09742 -2.46653e-11
3.09742 32.3477 -1.01146e-11
-2.46653e-11 -1.01146e-11 31.6779

32.1498 -1.11875 9.05638e-12
-1.11875 37.1658 4.16189e-11
9.05638e-12 4.16189e-11 33.7168

33.6741 -1.3766 4.23898e-12
-1.3766 37.8374 -1.07891e-11
4.23898e-12 -1.07891e-11 34.2939

37.4935 -0.962677 -9.53719e-12
-0.962677 32.4657 -1.82087e-11
-9.53719e-12 -1.82087e-11 33.7147

39.8964 3.64416 2.73498e-11
3.64416 39.1965 -1.77222e-11
2.73498e-11 -1.77222e-11 38.5306

29.1393 1.08589 3.00519e-11
1.08589 35.2912 -4.62748e-12
3.00519e-11 -4.62748e-12 31.6296

34.9399 0.239152 6.75112e-12
0.239152 29.3549 -5.39086e-12
6.75112e-12 -5.39086e-12 31.5957

60.2869 -0.43151 1.38671e-11
-0.43151 66.1075 3.3897e-11
1.38671e-11 3.3897e-11 61.6524

59.959 -1.5849 -1.11697e-11
-1.5849 62.0271 -3.55357e-11
-1.11697e-11 -3.55357e-11 60.883

56.6305 -1.23283 1.11706e-11
-1.23283 51.3913 2.3883e-11
1.11706e-11 2.3883e-11 54.5707

56.8031 0.545624 3.0438e-11
0.545624 44.3969 2.65786e-11
3.0438e-11 2.65786e-11 54.0656

38.19 -2.40336 2.51306e-12
-2.40336 43.1371 3.44897e-11
2.51306e-12 3.44897e-11 39.5377

38.0094 -1.73032 2.91801e-11
-1.73032 43.1881 -6.58899e-11
2.91801e-11 -6.58899e-11 39.812

54.4307 1.1519 1.79153e-11
1.1519 46.746 1.81054e-11
1.79153e-11 1.81054e-11 51.6811

60.8261 -1.14449 -2.87721e-11
-1.14449 61.5512 4.00646e-11
-2.87721e-11 4.00646e-11 61.0643

62.3457 -0.0154144 1.47123e-12
-0.0154144 60.4253 2.77302e-11
1.47123e-12 2.77302e-11 61.0916

54.3097 -2.43131 1.59897e-11
-2.43131 53.3751 -1.7526e-11
1.59897e-11 -1.7526e-11 54.0795

50.4275 4.02714 3.69827e-11
4.02714 52.0076 -3.00465e-11
3.69827e-11 -3.00465e-11 52.2149

49.5807 -4.23542 3.87061e-13
-4.23542 54.1214 -1.09799e-11
3.87061e-13 -1.09799e-11 52.0186

55.4902 -1.09651 -1.25178e-11
-1.09651 47.4019 -2.1961e-11
-1.25178e-11 -2.1961e-11 52.8884

47.9075 3.38142 -9.2457e-12
3.38142 52.524 -5.77849e-12
-9.2457e-12 -5.77849e-12 51.4562

49.3843 -4.4876 7.8975e-12
-4.4876 53.621 2.19602e-11
7.8975e-12 2.19602e-11 51.6527

25.0794 -5.02126 4.60485e-11
-5.02126 25.4468 5.51076e-11
4.60485e-11 5.51076e-11 25.7016

42.7454 1.07416 -2.83158e-11
1.07416 51.4536 6.55054e-12
-2.83158e-11 6.55054e-12 46.9451

44.4834 -0.97514 -1.32949e-11
-0.97514 50.1159 1.56102e-11
-1.32949e-11 1.56102e-11 46.8901

59.589 0.528398 -3.73609e-11
0.528398 68.622 -2.46543e-11
-3.73609e-11 -2.46543e-11 62.1839

60.3511 -0.0596342 5.39336e-12
-0.0596342 61.8064 -2.19575e-11
5.39336e-12 -2.19575e-11 61.1529

60.5302 -0.206593 8.47594e-12
-0.206593 51.4683 -1.8106e-11
8.47594e-12 -1.8106e-11 57.0175

61.3803 0.331679 -4.3148e-11
0.331679 51.0007 8.6684e-12
-4.3148e-11 8.6684e-12 57.096

57.8699 4.83562 -2.38847e-11
4.83562 55.4404 -4.23842e-12
-2.38847e-11 -4.23842e-12 57.0949

56.2544 -2.75707 9.24742e-12
-2.75707 54.3096 -1.05943e-11
9.24742e-12 -1.05943e-11 56.3928

64.5055 1.76993 1.81059e-11
1.76993 61.9941 3.17829e-11
1.81059e-11 3.17829e-11 61.5368

62.168 -0.965952 -4.08321e-11
-0.965952 61.9063 4.81408e-12
-4.08321e-11 4.81408e-12 61.2307

66.4672 2.01519 -5.04856e-11
2.01519 64.4987 2.23421e-11
-5.04856e-11 2.23421e-11 64.0613

66.9038 -5.71036 -2.70429e-11
-5.71036 69.4246 -1.07878e-11
-2.70429e-11 -1.07878e-11 65.1248

53.7331 5.03394 3.07719e-11
5.03394 58.9143 3.12061e-11
3.07719e-11 3.12061e-11 57.0691

51.1161 -6.22408 -1.69037e-11
-6.22408 55.2777 6.20268e-11
-1.69037e-11 6.20268e-11 56.2124

49.9687 2.69421 -2.57174e-11
2.69421 46.1507 -8.28497e-12
-2.57174e-11 -8.28497e-12 47.9083

46.043 2.14155 4.43351e-12
2.14155 52.9868 4.04551e-11
4.43351e-12 4.04551e-11 49.8073

46.9641 -3.48745 3.1596e-11
-3.48745 46.8571 -2.81295e-11
3.1596e-11 -2.81295e-11 47.1407

48.5123 -2.67846 -2.33112e-11
-2.67846 52.7857 3.81451e-11
-2.33112e-11 3.81451e-11 50.0927

49.6723 -2.50831 -6.06937e-12
-2.50831 45.7681 7.32288e-12
-6.06937e-12 7.32288e-12 47.9323

48.3666 2.98152 3.24534e-11
2.98152 52.9954 -5.54758e-11
3.24534e-11 -5.54758e-11 50.0052

47.7082 4.23588 -1.54203e-12
4.23588 47.9205 -2.27313e-11
-1.54203e-12 -2.27313e-11 47.2722

53.4379 5.5924 2.50529e-12
5.5924 55.8675 2.65821e-11
2.50529e-12 2.65821e-11 56.6552

54.2686 -4.16271 -5.58897e-12
-4.16271 57.7831 3.92945e-11
-5.58897e-12 3.92945e-11 57.012

57.9125 2.55327 -1.19477e-11
2.55327 52.5215 -2.30919e-12
-1.19477e-11 -2.30919e-12 55.4609

75.4464 1.88505 -1.4259e-11
1.88505 74.3784 -8.70493e-11
-1.4259e-11 -8.70493e-11 67.5959

64.032 1.80201 4.44912e-11
1.80201 65.3478 -2.20486e-11
4.44912e-11 -2.20486e-11 63.8739

53.1553 -2.58082 2.88946e-11
-2.58082 49.4279 1.81088e-11
2.88946e-11 1.81088e-11 52.2879

62.1207 0.167382 7.31968e-12
0.167382 55.0342 -1.30969e-11
7.31968e-12 -1.30969e-11 59.2323

30.9943 -2.19215 1.13707e-11
-2.19215 32.6913 -1.50318e-11
1.13707e-11 -1.50318e-11 30.8458

32.7019 -1.80416 -2.56299e-11
-1.80416 30.8682 -1.06989e-11
-2.56299e-11 -1.06989e-11 30.8673

60.704 0.201657 2.02003e-11
0.201657 53.6309 -3.81375e-11
2.02003e-11 -3.81375e-11 58.0309

62.0167 -0.29904 2.0224e-11
-0.29904 53.114 -5.85525e-11
2.0224e-11 -5.85525e-11 58.1526

62.6204 0.520109 1.07882e-11
0.520109 58.1414 1.46405e-11
1.07882e-11 1.46405e-11 59.7811

46.0394 -1.57073 3.78019e-11
-1.57073 53.2326 -1.9264e-11
3.78019e-11 -1.9264e-11 49.9091

48.8779 2.09058 4.50856e-11
2.09058 44.3303 1.23254e-11
4.50856e-11 1.23254e-11 45.0816

54.5874 -3.25851 2.30601e-11
-3.25851 54.7081 -3.4289e-11
2.30601e-11 -3.4289e-11 55.7885

55.2392 2.69652 -2.09943e-11
2.69652 57.2266 -1.83012e-11
-2.09943e-11 -1.83012e-11 56.2115

73.2209 0.325037 7.30819e-12
0.325037 76.44 -5.18084e-12
7.30819e-12 -5.18084e-12 67.5894

69.7647 3.0699 2.46511e-11
3.0699 62.8556 -2.21272e-11
2.46511e-11 -2.21272e-11 64.5785

52.0583 -2.04375 1.11701e-11
-2.04375 47.9411 7.13133e-12
1.11701e-11 7.13133e-12 49.9471

60.2083 -0.0889462 -2.35734e-11
-0.0889462 56.0155 1.21328e-11
-2.35734e-11 1.21328e-11 58.1208

59.3897 -0.722958 4.33213e-12
-0.722958 56.6337 -5.77693e-12
4.33213e-12 -5.77693e-12 58.1456

52.5802 -3.69668 -4.50724e-11
-3.69668 56.2034 -7.89376e-12
-4.50724e-11 -7.89376e-12 54.5428

50.3727 1.91507 -9.05521e-12
1.91507 56.133 7.71161e-13
-9.05521e-12 7.71161e-13 54.3117

49.8212 3.53947 2.88948e-11
3.53947 53.9227 1.88769e-11
2.88948e-11 1.88769e-11 54.3659

51.6592 -5.00949 5.5862e-12
-5.00949 56.8372 -1.53955e-12
5.5862e-12 -1.53955e-12 54.9551

26.6485 6.40922 4.27772e-11
6.40922 26.0557 -1.1172e-11
4.27772e-11 -1.1172e-11 26.3529

56.1264 3.67312 2.15722e-11
3.67312 59.4363 3.40966e-11
2.15722e-11 3.40966e-11 58.4431

56.2189 -2.81427 -4.16028e-11
-2.81427 59.8142 -7.89622e-12
-4.16028e-11 -7.89622e-12 58.5138

48.6874 3.35473 -2.40739e-11
3.35473 54.6333 2.23453e-11
-2.40739e-11 2.23453e-11 53.3989

50.1697 -4.23256 3.27447e-11
-4.23256 55.3138 1.32892e-11
3.27447e-11 1.32892e-11 53.5165

49.1456 -1.99386 1.24269e-11
-1.99386 43.9475 -2.1577e-11
1.24269e-11 -2.1577e-11 45.4583

55.4432 3.62738 5.77879e-12
3.62738 53.1776 -2.23431e-11
5.77879e-12 -2.23431e-11 54.5667

58.61 3.88668 -1.19424e-11
3.88668 55.8076 7.32083e-12
-1.19424e-11 7.32083e-12 57.5036

56.8097 -2.57212 7.12563e-12
-2.57212 56.749 -6.73713e-12
7.12563e-12 -6.73713e-12 57.2327

56.6375 2.44203 -1.53966e-12
2.44203 47.965 3.84966e-12
-1.53966e-12 3.84966e-12 53.6504

61.9596 0.474288 -3.51439e-12
0.474288 59.1669 2.38831e-11
-3.51439e-12 2.38831e-11 60.4179

62.9901 -0.693222 2.84347e-11
-0.693222 57.6155 4.8341e-11
2.84347e-11 4.8341e-11 60.2681

63.7106 0.823736 7.3162e-12
0.823736 68.8653 4.49743e-11
7.3162e-12 4.49743e-11 64.223

65.305 -1.30016 4.75684e-11
-1.30016 74.0392 -1.27123e-11
4.75684e-11 -1.27123e-11 65.2644

26.4205 -0.601929 3.3916e-11
-0.601929 22.6336 -5.85754e-11
3.3916e-11 -5.85754e-11 26.6434

21.231 -0.126053 -2.11194e-12
-0.126053 26.3014 -1.07874e-11
-2.11194e-12 -1.07874e-11 26.4161

53.0747 4.19454 2.98369e-12
4.19454 58.0479 -4.04495e-11
2.98369e-12 -4.04495e-11 55.6133

52.097 -3.61164 4.10764e-11
-3.61164 54.4181 -7.20502e-11
4.10764e-11 -7.20502e-11 55.0286

25.4462 2.25365 2.11978e-11
2.25365 25.2254 6.94e-12
2.11978e-11 6.94e-12 26.7806

25.8707 2.9136 9.63903e-12
2.9136 24.6978 1.61829e-11
9.63903e-12 1.61829e-11 26.7462

59.1701 -4.61651 3.05729e-11
-4.61651 73.8223 1.38285e-10
3.05729e-11 1.38285e-10 64.8554

64.3831 3.44609 3.64735e-11
3.44609 71.4577 1.8143e-10
3.64735e-11 1.8143e-10 65.4142

53.8247 4.40918 -9.04795e-12
4.40918 51.8859 7.70424e-12
-9.04795e-12 7.70424e-12 53.5231

52.2402 4.01815 1.108e-12
4.01815 55.1999 -4.64252e-11
1.108e-12 -4.64252e-11 54.3171

51.9119 -4.02324 4.78186e-11
-4.02324 53.4694 -4.20043e-11
4.78186e-11 -4.20043e-11 54.1837

47.9904 4.0572 1.60847e-11
4.0572 50.104 2.23461e-11
1.60847e-11 2.23461e-11 48.5026

47.3666 -3.23776 3.87178e-11
-3.23776 49.2638 1.27109e-11
3.87178e-11 1.27109e-11 48.4768

32.7039 -0.513556 -2.60113e-11
-0.513556 37.7463 2.9289e-11
-2.60113e-11 2.9289e-11 34.2259

33.5887 -1.042 3.06282e-11
-1.042 37.9147 -1.65753e-11
3.06282e-11 -1.65753e-11 34.3549

37.8983 -0.441339 -2.80013e-12
-0.441339 33.1378 7.70643e-12
-2.80013e-12 7.70643e-12 34.1086

49.1137 4.67678 -3.41928e-11
4.67678 52.7626 -4.41154e-11
-3.41928e-11 -4.41154e-11 50.9336

48.241 -3.62627 1.97495e-11
-3.62627 51.1451 5.35502e-11
1.97495e-11 5.35502e-11 50.7462

30.1423 0.725201 3.66098e-11
0.725201 35.1327 -5.39435e-12
3.66098e-11 -5.39435e-12 31.6629

34.9637 1.11993 -2.6396e-11
1.11993 30.2111 9.44648e-12
-2.6396e-11 9.44648e-12 31.6433

54.4967 -4.63508 1.6765e-11
-4.63508 55.6765 -1.65659e-11
1.6765e-11 -1.65659e-11 56.8858

54.932 3.81794 4.65148e-11
3.81794 58.52 -3.06269e-11
4.65148e-11 -3.06269e-11 57.2633

55.336 -4.10032 -2.9089e-11
-4.10032 58.0511 -5.7779e-11
-2.9089e-11 -5.7779e-11 57.7122

55.6376 3.04894 1.15522e-12
3.04894 58.98 1.96457e-11
1.15522e-12 1.96457e-11 57.763

24.3192 -1.90434 1.75348e-11
-1.90434 24.7348 -1.27193e-11
1.75348e-11 -1.27193e-11 26.0497

24.3421 -1.91535 -3.76277e-12
-1.91535 24.7561 4.93232e-11
-3.76277e-12 4.93232e-11 26.1509

51.6498 3.69737 -5.48924e-12
3.69737 54.2463 -2.31135e-11
-5.48924e-12 -2.31135e-11 52.6999

51.147 -3.38691 -3.38013e-11
-3.38691 51.9175 3.12107e-11
-3.38013e-11 3.12107e-11 52.4063

62.6703 0.967744 -3.73615e-11
0.967744 66.9856 3.27767e-12
-3.73615e-11 3.27767e-12 62.7234

61.5469 -0.547611 8.18564e-11
-0.547611 62.378 -2.59044e-11
8.18564e-11 -2.59044e-11 61.8013

53.455 -4.25308 -1.69987e-11
-4.25308 59.1901 -1.92389e-12
-1.69987e-11 -1.92389e-12 58.0127

55.0505 3.9961 4.06889e-11
3.9961 60.9485 2.71616e-11
4.06889e-11 2.71616e-11 58.4104

59.7747 -0.889615 -4.51431e-11
-0.889615 57.2447 1.6562e-11
-4.51431e-11 1.6562e-11 59.5402

61.2963 0.0855317 -6.09172e-12
0.0855317 56.5358 3.56278e-11
-6.09172e-12 3.56278e-11 59.6518

53.5344 3.93734 -2.86992e-11
3.93734 54.3169 3.27444e-11
-2.86992e-11 3.27444e-11 55.1181

53.4223 -3.86658 1.82988e-11
-3.86658 55.7479 -2.98567e-11
1.82988e-11 -2.98567e-11 55.0298

65.4482 1.19166 1.80543e-12
1.19166 61.2002 -1.32318e-11
1.80543e-12 -1.32318e-11 62.4984

65.8395 0.353925 1.10455e-10
0.353925 63.6917 -1.0882e-10
1.10455e-10 -1.0882e-10 63.7466

63.4083 -1.07169 2.7952e-11
-1.07169 62.3754 1.34133e-12
2.7952e-11 1.34133e-12 62.3659

61.8961 -0.140017 3.67646e-11
-0.140017 66.6041 -6.16566e-12
3.67646e-11 -6.16566e-12 63.5652

61.8647 0.690132 -1.36732e-11
0.690132 70.9325 -4.96935e-11
-1.36732e-11 -4.96935e-11 63.5594

68.3097 3.90566 1.4642e-11
3.90566 65.4438 5.58524e-11
1.4642e-11 5.58524e-11 63.7209

64.7389 -1.528 -2.11827e-11
-1.528 62.6614 -5.06534e-11
-2.11827e-11 -5.06534e-11 62.7381

60.9888 -0.919527 -2.31123e-11
-0.919527 66.403 2.10917e-11
-2.31123e-11 2.10917e-11 62.6927

62.716 2.28627 -1.61012e-10
2.28627 65.3952 -2.16491e-10
-1.61012e-10 -2.16491e-10 63.207

80.9154 2.32343 5.19093e-10
2.32343 62.0445 4.31916e-11
5.19093e-10 4.31916e-11 66.9313

79.0053 -1.52921 1.4061e-09
-1.52921 77.9132 7.39034e-10
1.4061e-09 7.39034e-10 69.6361

65.6591 -5.25661 3.28218e-10
-5.25661 70.1616 -7.8247e-11
3.28218e-10 -7.8247e-11 64.7497

64.1625 2.96505 2.85992e-11
2.96505 63.9578 1.42539e-11
2.85992e-11 1.42539e-11 62.8842

59.7405 2.15368 1.82966e-11
2.15368 63.0833 1.75271e-11
1.82966e-11 1.75271e-11 60.9172

65.7887 0.632543 1.49786e-11
0.632543 64.8299 2.00877e-10
1.49786e-11 2.00877e-10 64.174

66.1065 -4.90522 7.21808e-12
-4.90522 64.4468 -7.75269e-13
7.21808e-12 -7.75269e-13 63.42

67.4885 -5.63497 -3.71448e-11
-5.63497 72.3827 -1.05158e-10
-3.71448e-11 -1.05158e-10 65.9734

59.8498 -2.75319 -5.71551e-11
-2.75319 61.5034 5.7876e-12
-5.71551e-11 5.7876e-12 60.7701

60.7612 -4.59475 -5.75823e-11
-4.59475 63.4782 -2.19483e-11
-5.75823e-11 -2.19483e-11 61.6089

62.1773 -3.05581 4.466e-11
-3.05581 65.0835 6.58751e-11
4.466e-11 6.58751e-11 62.8841

59.5838 1.92581 -1.7676e-11
1.92581 62.3469 -6.99184e-11
-1.7676e-11 -6.99184e-11 61.0679

64.0443 1.15248 -2.76747e-11
1.15248 63.8305 4.0438e-12
-2.76747e-11 4.0438e-12 62.9822

45.247 3.27695 -2.54256e-11
3.27695 48.3329 -1.39672e-11
-2.54256e-11 -1.39672e-11 46.2855

52.3879 1.64433 -7.90028e-12
1.64433 56.6952 5.19836e-12
-7.90028e-12 5.19836e-12 54.5182

51.2168 1.40762 2.29238e-11
1.40762 56.0908 -4.43038e-12
2.29238e-11 -4.43038e-12 54.3162

52.3577 1.86056 -1.96503e-11
1.86056 44.4555 -2.13495e-11
-1.96503e-11 -2.13495e-11 48.9096

49.9375 0.630782 1.84936e-11
0.630782 42.1423 5.70745e-12
1.84936e-11 5.70745e-12 45.8398

53.4115 1.00823 -2.81202e-11
1.00823 58.6132 4.23624e-12
-2.81202e-11 4.23624e-12 57.1129

52.2089 2.32211 -1.81027e-11
2.32211 59.2528 2.54276e-11
-1.81027e-11 2.54276e-11 57.1543

50.6389 -0.74079 1.73356e-11
-0.74079 42.9091 4.96449e-12
1.73356e-11 4.96449e-12 46.3389

56.6953 -1.48784 1.61809e-11
-1.48784 49.8301 4.0593e-11
1.61809e-11 4.0593e-11 54.805

36.5845 2.98384 -2.04189e-11
2.98384 39.6799 2.28266e-11
-2.04189e-11 2.28266e-11 37.2575

36.0472 -2.98128 4.6246e-12
-2.98128 38.9919 2.98622e-11
4.6246e-12 2.98622e-11 36.6234

40.2998 -2.73345 -1.38748e-11
-2.73345 35.2803 2.50939e-11
-1.38748e-11 2.50939e-11 36.628

56.4048 -2.80933 1.50255e-11
-2.80933 59.9527 -1.35794e-11
1.50255e-11 -1.35794e-11 58.7736

58.0681 -1.94333 2.61939e-11
-1.94333 60.1887 1.98351e-11
2.61939e-11 1.98351e-11 58.9701

46.1926 2.79186 -1.92627e-11
2.79186 50.3474 -4.81607e-12
-1.92627e-11 -4.81607e-12 49.0418

49.0572 3.36033 -3.8521e-12
3.36033 54.4404 -9.34253e-12
-3.8521e-12 -9.34253e-12 53.461

52.2274 -2.17756 1.92876e-12
-2.17756 59.1974 -4.04502e-11
1.92876e-12 -4.04502e-11 56.9902

52.8899 -0.636749 -2.08032e-11
-0.636749 58.48 6.29898e-11
-2.08032e-11 6.29898e-11 56.9079

54.0622 0.856235 -1.45456e-11
0.856235 45.0325 -2.95262e-11
-1.45456e-11 -2.95262e-11 49.6292

39.6244 1.07365 1.65749e-11
1.07365 44.561 -2.63947e-11
1.65749e-11 -2.63947e-11 40.5722

39.4469 -0.877183 1.19453e-11
-0.877183 44.2543 -1.70954e-11
1.19453e-11 -1.70954e-11 40.4122

45.1032 -0.757689 -1.83017e-11
-0.757689 38.4781 9.34275e-12
-1.83017e-11 9.34275e-12 39.8562

45.1781 3.76589 1.98366e-11
3.76589 46.3791 -4.16079e-11
1.98366e-11 -4.16079e-11 45.72

47.4799 -2.50373 -6.16433e-12
-2.50373 40.2018 -1.07639e-11
-6.16433e-12 -1.07639e-11 43.3085

49.8648 3.98961 6.54706e-12
3.98961 47.9757 -2.27354e-11
6.54706e-12 -2.27354e-11 48.9376

45.0649 3.17998 -2.92832e-11
3.17998 49.329 3.21662e-11
-2.92832e-11 3.21662e-11 46.4237

52.6784 -1.57891 -7.70199e-13
-1.57891 44.5461 2.18342e-11
-7.70199e-13 2.18342e-11 49.3615

34.7264 2.09838 -2.00403e-11
2.09838 36.8444 -4.14098e-12
-2.00403e-11 -4.14098e-12 33.9144

56.5156 1.95803 -3.46656e-12
1.95803 48.4259 1.05334e-11
-3.46656e-12 1.05334e-11 53.7176

37.1369 -1.81373 -5.00992e-12
-1.81373 33.4578 -1.21731e-11
-5.00992e-12 -1.21731e-11 33.4499

58.3066 -0.690774 1.07899e-11
-0.690774 61.0408 3.46797e-12
1.07899e-11 3.46797e-12 59.428

58.2344 1.22582 -5.31574e-11
1.22582 61.1543 3.13981e-11
-5.31574e-11 3.13981e-11 59.457

72.2787 -3.73312 1.03988e-11
-3.73312 65.7714 8.76417e-12
1.03988e-11 8.76417e-12 64.8726

72.1737 3.86264 5.85524e-11
3.86264 65.6687 4.33358e-11
5.85524e-11 4.33358e-11 64.8518

44.2076 -0.996614 -4.43009e-12
-0.996614 37.4116 -2.91304e-12
-4.43009e-12 -2.91304e-12 39.44

50.3887 4.36016 -4.40388e-15
4.36016 50.029 -3.69871e-11
-4.40388e-15 -3.69871e-11 51.1406

62.5703 -2.26221 -6.93386e-12
-2.26221 58.222 -3.28402e-11
-6.93386e-12 -3.28402e-11 59.6217

62.1255 2.25395 -1.34813e-11
2.25395 57.8347 2.85555e-11
-1.34813e-11 2.85555e-11 59.2615

56.5387 0.784963 1.46406e-11
0.784963 48.7486 1.76591e-11
1.46406e-11 1.76591e-11 54.6849

44.2359 3.59304 -2.11942e-12
3.59304 48.7868 -1.28103e-11
-2.11942e-12 -1.28103e-11 45.8177

47.9812 -3.10869 3.08124e-12
-3.10869 42.7407 -1.69271e-11
3.08124e-12 -1.69271e-11 44.6193

55.682 -0.193248 1.83039e-12
-0.193248 46.9275 -2.625e-11
1.83039e-12 -2.625e-11 53.4976

44.7648 -3.77951 -7.70236e-12
-3.77951 46.1942 -5.01036e-12
-7.70236e-12 -5.01036e-12 45.4176

45.2546 -3.09909 1.50176e-11
-3.09909 48.3616 1.08819e-11
1.50176e-11 1.08819e-11 46.3064

50.1189 3.53949 2.893e-12
3.53949 55.8723 1.1556e-11
2.893e-12 1.1556e-11 53.6169

44.4394 -4.32297 -6.93601e-12
-4.32297 41.2848 -1.51297e-11
-6.93601e-12 -1.51297e-11 42.0282

27.5816 -3.296 6.16514e-12
-3.296 25.7091 1.97324e-12
6.16514e-12 1.97324e-12 26.7326

27.3329 4.57865 3.93033e-11
4.57865 26.7089 -2.57485e-11
3.93033e-11 -2.57485e-11 26.8771

51.0078 -4.2256 1.65656e-11
-4.2256 57.7745 -2.98563e-11
1.65656e-11 -2.98563e-11 56.4717

27.8787 0.600612 8.47685e-12
0.600612 25.8577 1.44033e-11
8.47685e-12 1.44033e-11 27.6554

26.4982 -1.1066 5.00866e-12
-1.1066 25.8996 -6.62255e-12
5.00866e-12 -6.62255e-12 27.4862

58.8295 -0.990321 2.27248e-11
-0.990321 60.0387 8.60976e-11
2.27248e-11 8.60976e-11 59.5615

58.8772 1.02823 -2.61954e-11
1.02823 59.9755 -4.71898e-11
-2.61954e-11 -4.71898e-11 59.5691

57.5554 -0.0705225 -7.32088e-12
-0.0705225 46.6823 -2.46066e-11
-7.32088e-12 -2.46066e-11 52.1177

58.5548 -0.537342 -2.38785e-11
-0.537342 58.166 -1.61307e-11
-2.38785e-11 -1.61307e-11 59.1104

58.6154 0.590705 -2.46564e-11
0.590705 58.1833 1.68032e-11
-2.46564e-11 1.68032e-11 59.1361

46.1913 3.29599 -3.65994e-11
3.29599 52.1023 3.07761e-12
-3.65994e-11 3.07761e-12 49.2418

67.7483 -3.49458 2.0413e-11
-3.49458 63.7679 2.27267e-11
2.0413e-11 2.27267e-11 63.1404

67.6469 3.511 -1.1581e-12
3.511 63.6998 2.4251e-13
-1.1581e-12 2.4251e-13 63.1412

54.8594 -1.75194 -1.00164e-11
-1.75194 54.4673 2.89412e-11
-1.00164e-11 2.89412e-11 55.4084

54.8903 1.76704 1.02095e-11
1.76704 54.47 6.0484e-11
1.02095e-11 6.0484e-11 55.4342

39.6883 -2.97942 -3.1983e-11
-2.97942 34.3066 -3.85063e-11
-3.1983e-11 -3.85063e-11 36.0863

59.4479 1.73232 3.70074e-15
1.73232 67.7762 2.50544e-12
3.70074e-15 2.50544e-12 62.5491

61.5517 -0.332614 -1.9258e-11
-0.332614 64.6128 -2.34981e-11
-1.9258e-11 -2.34981e-11 62.1841

44.4276 -3.63175 1.86853e-11
-3.63175 48.9531 4.13773e-12
1.86853e-11 4.13773e-12 45.9818

32.136 -0.913647 4.19941e-11
-0.913647 35.0162 -7.73256e-12
4.19941e-11 -7.73256e-12 32.6235

35.6495 -0.943558 -3.00553e-11
-0.943558 30.6434 -5.59813e-11
-3.00553e-11 -5.59813e-11 32.3608

48.6604 2.83056 1.92725e-12
2.83056 55.0428 1.2714e-11
1.92725e-12 1.2714e-11 52.4907

48.208 2.82309 1.92639e-12
2.82309 53.7833 -1.07884e-11
1.92639e-12 -1.07884e-11 52.392

69.8824 -2.81347 -1.81238e-10
-2.81347 63.0543 2.34133e-11
-1.81238e-10 2.34133e-11 64.7942

70.0073 2.60133 1.13055e-10
2.60133 63.8487 1.32413e-10
1.13055e-10 1.32413e-10 65.0172

49.887 3.70453 -1.38685e-11
3.70453 53.8836 2.69607e-12
-1.38685e-11 2.69607e-12 54.5617

54.5149 1.12917 -3.9104e-11
1.12917 48.9361 -1.9407e-11
-3.9104e-11 -1.9407e-11 52.5425

54.4304 -1.17415 3.69848e-11
-1.17415 48.759 -2.31285e-12
3.69848e-11 -2.31285e-12 52.3906

52.0557 4.97101 5.47029e-11
4.97101 53.0463 -2.62911e-11
5.47029e-11 -2.62911e-11 54.342

52.9543 -3.34882 1.0401e-11
-3.34882 58.0106 1.33887e-11
1.0401e-11 1.33887e-11 56.5632

43.4769 -0.0574898 -7.12689e-12
-0.0574898 35.9506 2.04562e-12
-7.12689e-12 2.04562e-12 38.7477

52.0281 0.0716619 3.46752e-12
0.0716619 43.3475 -3.97332e-12
3.46752e-12 -3.97332e-12 46.6844

47.3408 2.23435 -2.27341e-11
2.23435 40.1319 6.66981e-12
-2.27341e-11 6.66981e-12 42.8066

60.3586 3.71716 -1.88801e-11
3.71716 53.8326 -1.6803e-11
-1.88801e-11 -1.6803e-11 57.5484

74.0585 -0.552034 -7.1637e-11
-0.552034 71.2164 4.85847e-11
-7.1637e-11 4.85847e-11 66.6043

73.9767 0.548948 -4.73776e-11
0.548948 71.5434 -3.0815e-11
-4.73776e-11 -3.0815e-11 66.627

41.4324 3.24781 -1.11698e-11
3.24781 41.0642 1.93133e-11
-1.11698e-11 1.93133e-11 39.657

49.4887 -4.13771 -2.58119e-11
-4.13771 45.9318 2.02298e-11
-2.58119e-11 2.02298e-11 47.9331

54.5605 -1.02735 -2.40805e-11
-1.02735 47.6474 2.67971e-11
-2.40805e-11 2.67971e-11 50.4898

62.7767 3.99676 -1.9254e-11
3.99676 69.919 1.61836e-11
-1.9254e-11 1.61836e-11 64.1031

63.2534 -1.05001 -5.2771e-11
-1.05001 64.6205 -2.42641e-11
-5.2771e-11 -2.42641e-11 63.0698

61.0008 -3.63549 1.54166e-12
-3.63549 54.818 -5.05547e-12
1.54166e-12 -5.05547e-12 58.1469

51.2662 -1.05244 1.19416e-11
-1.05244 56.2838 1.74341e-11
1.19416e-11 1.74341e-11 54.2635

51.9436 -1.10137 -1.41549e-11
-1.10137 56.6534 -1.8973e-11
-1.41549e-11 -1.8973e-11 54.3881

58.4742 -0.290152 2.11868e-12
-0.290152 47.5622 2.08016e-11
2.11868e-12 2.08016e-11 53.8108

58.6902 0.273193 5.00833e-12
0.273193 47.5589 1.22842e-12
5.00833e-12 1.22842e-12 53.9507

42.1559 2.79847 3.65944e-12
2.79847 40.3869 -1.68317e-12
3.65944e-12 -1.68317e-12 39.272

59.3597 -0.221072 -1.17014e-11
-0.221072 51.575 -1.95496e-11
-1.17014e-11 -1.95496e-11 56.4115

59.3797 0.200441 7.07875e-12
0.200441 51.6464 -1.05932e-11
7.07875e-12 -1.05932e-11 56.4506

54.7261 1.01952 -1.02108e-11
1.01952 47.6508 8.47526e-12
-1.02108e-11 8.47526e-12 50.5672

45.2213 -3.23177 1.61804e-11
-3.23177 49.5864 -1.16547e-11
1.61804e-11 -1.16547e-11 46.6325

59.2533 -0.107496 -1.50251e-11
-0.107496 50.4905 -1.6661e-11
-1.50251e-11 -1.6661e-11 54.8404

59.4678 0.136644 1.65669e-11
0.136644 50.54 -1.16275e-11
1.65669e-11 -1.16275e-11 55.0007

54.1116 -2.47793 7.71013e-13
-2.47793 47.6325 -8.90713e-12
7.71013e-13 -8.90713e-12 51.0835

51.1936 4.56178 1.88763e-11
4.56178 55.884 3.27623e-12
1.88763e-11 3.27623e-12 54.3852

47.3009 3.4717 -1.04006e-11
3.4717 43.8606 2.59553e-11
-1.04006e-11 2.59553e-11 44.7086

51.2469 3.70177 2.5426e-11
3.70177 53.454 -3.85139e-12
2.5426e-11 -3.85139e-12 54.8444

51.7769 4.53933 2.08026e-11
4.53933 57.0779 4.43134e-12
2.08026e-11 4.43134e-12 55.1414

48.1323 -1.76438 3.25592e-11
-1.76438 40.5116 9.72925e-14
3.25592e-11 9.72925e-14 43.4511

55.1024 -4.05352 -1.15639e-11
-4.05352 50.115 5.7448e-11
-1.15639e-11 5.7448e-11 53.293

53.4182 2.47453 -4.99933e-12
2.47453 47.2425 5.26318e-11
-4.99933e-12 5.26318e-11 50.3025

43.8884 4.04946 1.4548e-11
4.04946 42.6684 -7.65314e-13
1.4548e-11 -7.65314e-13 42.7745

49.0808 4.15939 9.63444e-12
4.15939 45.538 1.76723e-11
9.63444e-12 1.76723e-11 47.5458

47.4261 0.381027 -2.46583e-11
0.381027 54.3882 -1.55997e-11
-2.46583e-11 -1.55997e-11 51.9729

47.5662 0.134851 1.11677e-11
0.134851 54.3858 1.98395e-11
1.11677e-11 1.98395e-11 51.994

40.858 2.92636 -2.12008e-12
2.92636 35.8664 -1.77036e-12
-2.12008e-12 -1.77036e-12 37.2004

52.1602 -4.96627 4.08386e-11
-4.96627 53.1381 -6.18347e-11
4.08386e-11 -6.18347e-11 54.4728

43.3118 -3.9585 -1.04038e-11
-3.9585 45.2746 2.55265e-11
-1.04038e-11 2.55265e-11 43.0901

43.1563 4.00753 9.82229e-12
4.00753 45.3836 -3.61178e-11
9.82229e-12 -3.61178e-11 43.0244

53.4045 -2.98737 2.08083e-11
-2.98737 47.3834 5.34583e-12
2.08083e-11 5.34583e-12 50.5751

59.7747 -1.97904 3.31323e-11
-1.97904 49.2131 1.14132e-11
3.31323e-11 1.14132e-11 56.5971

59.5264 1.9948 2.34975e-11
1.9948 49.4808 -4.04402e-12
2.34975e-11 -4.04402e-12 56.4683

41.5983 2.19242 3.31328e-11
2.19242 46.4895 -2.07131e-11
3.31328e-11 -2.07131e-11 43.7363

50.001 -4.16858 -3.23661e-11
-4.16858 47.9893 1.28136e-11
-3.23661e-11 1.28136e-11 48.9192

35.9128 -0.169894 8.86143e-12
-0.169894 42.733 -2.35994e-11
8.86143e-12 -2.35994e-11 38.4394

35.8659 0.0677771 -3.35227e-11
0.0677771 42.7221 -5.926e-12
-3.35227e-11 -5.926e-12 38.4064

43.5549 0.210861 3.08198e-12
0.210861 34.9652 -3.14976e-11
3.08198e-12 -3.14976e-11 37.9538

41.7817 -2.90321 3.66292e-12
-2.90321 40.452 -1.63733e-11
3.66292e-12 -1.63733e-11 39.0712

44.454 3.52925 -2.54297e-11
3.52925 41.9696 3.0583e-11
-2.54297e-11 3.0583e-11 42.5367

67.1182 -7.18191 -3.69782e-11
-7.18191 70.3203 -1.53126e-12
-3.69782e-11 -1.53126e-12 65.5114

69.7965 3.10418 -6.0473e-11
3.10418 71.8375 -1.98359e-11
-6.0473e-11 -1.98359e-11 66.4062

48.4151 1.60756 -2.21547e-11
1.60756 40.7523 -3.49186e-12
-2.21547e-11 -3.49186e-12 43.7395

48.8469 4.3932 -2.65831e-11
4.3932 54.0646 -1.51238e-11
-2.65831e-11 -1.51238e-11 51.6204

57.5001 0.0646357 -1.19441e-11
0.0646357 46.6119 2.79134e-11
-1.19441e-11 2.79134e-11 52.0073

41.6577 -2.12034 -2.23488e-11
-2.12034 46.7132 1.83014e-11
-2.23488e-11 1.83014e-11 43.8907

49.5023 4.37463 1.23303e-11
4.37463 57.7413 1.66619e-11
1.23303e-11 1.66619e-11 56.3088

53.2814 3.58219 1.54097e-11
3.58219 58.3346 2.11903e-11
1.54097e-11 2.11903e-11 56.7845

51.2393 -4.55084 -5.77908e-12
-4.55084 55.8782 2.13847e-11
-5.77908e-12 2.13847e-11 54.4101

51.6335 4.59853 4.04284e-12
4.59853 57.5631 -4.0548e-11
4.04284e-12 -4.0548e-11 55.3306

48.1682 3.48632 -9.24368e-12
3.48632 51.6256 -3.15932e-11
-9.24368e-12 -3.15932e-11 51.3864

60.8097 0.0394307 -1.50256e-11
0.0394307 47.7003 -2.71635e-11
-1.50256e-11 -2.71635e-11 55.0137

44.4723 -3.48345 -1.56021e-11
-3.48345 41.6933 1.73372e-12
-1.56021e-11 1.73372e-12 42.2785

51.2713 -3.71921 -1.54097e-11
-3.71921 53.5025 2.14785e-11
-1.54097e-11 2.14785e-11 54.9122

45.5911 -2.97985 2.88769e-12
-2.97985 45.8515 2.50406e-11
2.88769e-12 2.50406e-11 44.4503

40.148 -2.88911 -1.19514e-11
-2.88911 40.2264 4.87062e-12
-1.19514e-11 4.87062e-12 38.7041

50.3461 -4.3031 -4.62537e-12
-4.3031 50.2359 -8.85958e-12
-4.62537e-12 -8.85958e-12 51.2457

40.1224 -1.76482 1.11786e-11
-1.76482 45.2905 -2.90932e-11
1.11786e-11 -2.90932e-11 41.2243

40.0407 1.67418 1.46477e-11
1.67418 45.2796 -6.30888e-12
1.46477e-11 -6.30888e-12 41.1658

45.0016 1.00968 -1.71472e-11
1.00968 39.2003 -3.69726e-12
-1.71472e-11 -3.69726e-12 40.4161

45.5163 3.10738 -1.36765e-11
3.10738 45.7958 -9.82525e-12
-1.36765e-11 -9.82525e-12 44.4106

46.3537 0.549612 2.35037e-11
0.549612 51.9648 -1.21398e-11
2.35037e-11 -1.21398e-11 48.574

46.3046 -0.118068 -3.84655e-13
-0.118068 51.8949 -1.25122e-12
-3.84655e-13 -1.25122e-12 48.5338

37.7961 -3.40255 1.27199e-11
-3.40255 39.5272 -4.30693e-13
1.27199e-11 -4.30693e-13 37.373

37.8552 3.40866 1.15576e-11
3.40866 39.4156 -1.5404e-12
1.15576e-11 -1.5404e-12 37.2845

61.1049 0.273473 -2.11869e-12
0.273473 48.5505 4.83904e-12
-2.11869e-12 4.83904e-12 55.2927

61.2258 -0.259443 -3.85274e-11
-0.259443 48.5165 8.66899e-13
-3.85274e-11 8.66899e-13 55.3494

49.649 4.00515 2.21512e-11
4.00515 54.6696 -1.67586e-11
2.21512e-11 -1.67586e-11 52.3263

48.8316 -3.90575 -4.54572e-11
-3.90575 57.2244 1.04988e-11
-4.54572e-11 1.04988e-11 56.0052

53.8664 4.40473 -1.57957e-11
4.40473 51.1364 -4.00659e-11
-1.57957e-11 -4.00659e-11 53.2478

38.7609 2.0441 -5.24098e-11
2.0441 33.3345 -3.35222e-11
-5.24098e-11 -3.35222e-11 35.0104

41.8813 2.6573 1.11692e-11
2.6573 48.2123 2.07088e-11
1.11692e-11 2.07088e-11 44.2828

58.1801 0.260653 1.54104e-11
0.260653 55.6016 4.18431e-11
1.54104e-11 4.18431e-11 57.4159

58.1583 -0.233002 -8.70622e-11
-0.233002 55.6303 1.8779e-11
-8.70622e-11 1.8779e-11 57.4009

50.7023 2.56518 -2.11925e-11
2.56518 49.0151 -5.24435e-11
-2.11925e-11 -5.24435e-11 49.2216

55.321 -1.58546 8.28204e-12
-1.58546 52.5168 5.77501e-13
8.28204e-12 5.77501e-13 53.6509

55.3393 1.61596 -2.54244e-11
1.61596 52.5527 1.23278e-11
-2.54244e-11 1.23278e-11 53.6814

25.9091 -1.60888 -1.1943e-11
-1.60888 22.2707 -1.36087e-11
-1.1943e-11 -1.36087e-11 26.6307

20.7854 2.02794 6.93682e-12
2.02794 24.5372 -2.45922e-11
6.93682e-12 -2.45922e-11 25.9515

41.8018 -2.61144 -7.32281e-12
-2.61144 48.2923 6.26432e-12
-7.32281e-12 6.26432e-12 44.3595

63.9146 -0.588399 -4.56464e-11
-0.588399 62.0148 4.2083e-11
-4.56464e-11 4.2083e-11 62.4039

63.951 0.670688 -6.6063e-11
0.670688 62.0845 -5.1909e-11
-6.6063e-11 -5.1909e-11 62.4299

38.9858 1.75695 -5.5874e-11
1.75695 33.097 1.23527e-11
-5.5874e-11 1.23527e-11 34.9922

48.1388 -2.16459 -1.92583e-12
-2.16459 54.594 3.54442e-11
-1.92583e-12 3.54442e-11 52.5481

48.8305 -2.11309 -3.89075e-11
-2.11309 55.0706 -3.60193e-11
-3.89075e-11 -3.60193e-11 52.597

43.6895 -4.25457 7.32066e-12
-4.25457 42.8716 -2.60098e-11
7.32066e-12 -2.60098e-11 42.4737

51.6499 -4.62765 1.30985e-11
-4.62765 57.5273 -2.11884e-11
1.30985e-11 -2.11884e-11 55.3086

47.8144 5.52094 2.3117e-11
5.52094 53.9368 2.03224e-11
2.3117e-11 2.03224e-11 54.2168

58.0338 2.50144 -2.92763e-11
2.50144 59.8714 2.43615e-11
-2.92763e-11 2.43615e-11 58.9661

56.4867 3.45215 -1.4637e-11
3.45215 59.7676 -4.81696e-12
-1.4637e-11 -4.81696e-12 58.8783

49.6832 -4.04492 -7.31926e-12
-4.04492 54.782 -1.52169e-11
-7.31926e-12 -1.52169e-11 52.4251

50.9269 4.24623 -1.34807e-11
4.24623 51.4673 -1.61836e-11
-1.34807e-11 -1.61836e-11 52.3139

50.6924 -2.60433 6.54861e-12
-2.60433 49.0736 2.27284e-11
6.54861e-12 2.27284e-11 49.2501

45.9688 3.10868 -2.31187e-11
3.10868 39.7675 3.7554e-12
-2.31187e-11 3.7554e-12 42.1784

51.9953 -0.0951749 2.11838e-12
-0.0951749 43.3361 -8.49361e-12
2.11838e-12 -8.49361e-12 46.7217

51.295 4.82518 -1.44441e-11
4.82518 57.0318 3.43827e-11
-1.44441e-11 3.43827e-11 55.0612

46.2363 -2.90571 1.42568e-11
-2.90571 50.5532 -3.24551e-11
1.42568e-11 -3.24551e-11 49.2352

43.5679 1.06048 2.69853e-12
1.06048 50.0688 -1.76308e-11
2.69853e-12 -1.76308e-11 46.8177

50.8254 2.97416 2.408e-11
2.97416 50.7771 -1.76231e-11
2.408e-11 -1.76231e-11 51.2841

44.0147 1.31787 2.81283e-11
1.31787 50.7405 -2.30231e-11
2.81283e-11 -2.30231e-11 47.1245

53.4406 -3.72633 1.27109e-11
-3.72633 58.4037 -2.1199e-12
1.27109e-11 -2.1199e-12 56.6909

30.6874 -2.09034 4.23973e-11
-2.09034 31.1379 -9.94686e-12
4.23973e-11 -9.94686e-12 30.13

32.3724 -2.10372 1.15922e-12
-2.10372 29.2779 -2.70683e-11
1.15922e-12 -2.70683e-11 30.0542

53.8715 -0.839978 -4.21896e-11
-0.839978 44.9841 2.11487e-11
-4.21896e-11 2.11487e-11 49.5422

50.7907 -2.98159 2.46556e-11
-2.98159 50.7271 1.66607e-11
2.46556e-11 1.66607e-11 51.2561

71.2147 -3.99252 -1.05943e-11
-3.99252 64.1501 -2.06994e-11
-1.05943e-11 -2.06994e-11 65.1424

71.3443 3.82406 4.79563e-11
3.82406 64.4764 -6.20063e-11
4.79563e-11 -6.20063e-11 65.2525

49.0757 -4.33309 2.83156e-11
-4.33309 54.3148 5.6819e-12
2.83156e-11 5.6819e-12 51.8958

63.8204 -3.71436 -8.47448e-12
-3.71436 63.8487 1.1171e-11
-8.47448e-12 1.1171e-11 62.0932

63.6176 3.7751 -2.65773e-11
3.7751 63.736 -1.80094e-11
-2.65773e-11 -1.80094e-11 62.0205

54.0165 0.816593 -2.8897e-11
0.816593 46.4542 -1.0685e-11
-2.8897e-11 -1.0685e-11 51.2887

47.692 -5.52796 9.24292e-12
-5.52796 53.7783 2.78344e-11
9.24292e-12 2.78344e-11 54.1634

32.3231 -2.48883 2.17721e-11
-2.48883 32.0944 -2.24287e-12
2.17721e-11 -2.24287e-12 31.3749

33.4582 2.4981 -1.92692e-11
2.4981 31.6895 -2.94298e-11
-1.92692e-11 -2.94298e-11 31.7781

33.7461 -1.85522 2.94802e-11
-1.85522 37.2373 -9.97187e-12
2.94802e-11 -9.97187e-12 34.1522

32.9727 1.72542 3.14011e-11
1.72542 37.0497 1.72875e-11
3.14011e-11 1.72875e-11 33.8107

37.3581 1.06312 1.05969e-11
1.06312 32.0092 1.8386e-11
1.05969e-11 1.8386e-11 33.5033

51.2817 -4.86249 1.50256e-11
-4.86249 57.0694 -4.01629e-11
1.50256e-11 -4.01629e-11 55.0323

29.9081 0.552566 -8.08988e-12
0.552566 34.6746 1.804e-11
-8.08988e-12 1.804e-11 31.6931

35.3674 -0.601448 1.84979e-11
-0.601448 29.3469 -1.12e-11
1.84979e-11 -1.12e-11 31.5064

58.4306 -1.53297 5.23824e-11
-1.53297 64.5709 1.30988e-11
5.23824e-11 1.30988e-11 61.2537

60.8265 -0.094075 -1.3486e-11
-0.094075 62.5842 -1.17477e-11
-1.3486e-11 -1.17477e-11 61.2052

57.2669 2.41468 -1.73378e-11
2.41468 51.5202 -4.57955e-11
-1.73378e-11 -4.57955e-11 54.6496

56.9251 -0.171084 4.16088e-11
-0.171084 45.255 1.44436e-12
4.16088e-11 1.44436e-12 54.1462

38.8555 2.45241 2.6586e-11
2.45241 43.3459 -7.22977e-13
2.6586e-11 -7.22977e-13 39.9265

38.865 -2.56638 4.25764e-11
-2.56638 43.3998 4.16622e-11
4.25764e-11 4.16622e-11 39.9925

54.7282 -0.460044 -9.24594e-12
-0.460044 46.8522 -1.01651e-11
-9.24594e-12 -1.01651e-11 51.6743

46.3742 -3.2873 -7.70524e-12
-3.2873 52.4747 3.1114e-11
-7.70524e-12 3.1114e-11 49.5195

62.5401 0.345093 9.2466e-12
0.345093 59.6504 -6.68314e-11
9.2466e-12 -6.68314e-11 60.9279

62.5166 -0.298441 -1.73394e-11
-0.298441 59.6643 6.27894e-11
-1.73394e-11 6.27894e-11 60.9311

55.0709 3.66923 -3.66018e-11
3.66923 52.5019 -2.48525e-11
-3.66018e-11 -2.48525e-11 54.0604

50.8433 -4.1413 -4.77689e-11
-4.1413 51.4528 1.44947e-12
-4.77689e-11 1.44947e-12 52.3101

56.1382 2.20195 -6.93282e-12
2.20195 47.6136 2.47508e-11
-6.93282e-12 2.47508e-11 52.9929

40.7779 3.24345 -1.88785e-11
3.24345 38.2518 -8.67084e-13
-1.88785e-11 -8.67084e-13 38.4026

48.3164 -3.58973 -1.98406e-11
-3.58973 51.8826 -7.6857e-13
-1.98406e-11 -7.6857e-13 51.5477

25.8336 5.58123 -7.70687e-12
5.58123 24.6114 -7.24017e-12
-7.70687e-12 -7.24017e-12 25.7606

43.8076 -0.792627 -4.70018e-11
-0.792627 50.0837 -5.21119e-11
-4.70018e-11 -5.21119e-11 46.9106

44.0662 -1.1806 -1.27139e-11
-1.1806 50.4471 -2.20575e-11
-1.27139e-11 -2.20575e-11 46.9988

59.1608 1.63498 5.39474e-12
1.63498 64.9252 -3.40938e-11
5.39474e-12 -3.40938e-11 61.6235

60.012 -2.44515 1.42485e-11
-2.44515 64.1415 3.0819e-11
1.42485e-11 3.0819e-11 61.6111

61.7502 -0.129563 2.928e-11
-0.129563 50.2793 1.83928e-11
2.928e-11 1.83928e-11 56.8541

61.7984 0.12099 -8.66812e-12
0.12099 50.2529 1.05665e-11
-8.66812e-12 1.05665e-11 56.8871

58.049 -4.79416 -1.61779e-11
-4.79416 55.3734 -6.74346e-12
-1.61779e-11 -6.74346e-12 57.1449

57.7721 4.83557 1.00177e-11
4.83557 54.4489 7.90042e-12
1.00177e-11 7.90042e-12 56.6744

64.5593 -1.74667 -3.54405e-11
-1.74667 61.9763 -3.76499e-11
-3.54405e-11 -3.76499e-11 61.5752

64.3975 1.74264 -4.16022e-11
1.74264 61.9499 -3.92933e-11
-4.16022e-11 -3.92933e-11 61.5212

66.3744 -1.52501 2.2537e-11
-1.52501 63.2644 -1.53113e-10
2.2537e-11 -1.53113e-10 63.7375

66.4535 1.64147 -2.98551e-11
1.64147 63.5379 -9.87047e-11
-2.98551e-11 -9.87047e-11 63.8327

53.4716 -4.58895 2.50413e-11
-4.58895 58.1244 -3.65989e-11
2.50413e-11 -3.65989e-11 56.8554

53.5864 4.56531 3.46397e-12
4.56531 58.1846 -4.83491e-11
3.46397e-12 -4.83491e-11 56.9365

50.0787 -2.37858 -9.82725e-12
-2.37858 45.8391 2.30666e-11
-9.82725e-12 2.30666e-11 47.9094

47.19 -2.00987 -2.00299e-11
-2.00987 52.0122 -6.37645e-11
-2.00299e-11 -6.37645e-11 49.9124

47.537 3.8681 -3.85662e-12
3.8681 47.4943 -3.84337e-11
-3.85662e-12 -3.84337e-11 47.1956

47.7004 -2.81883 -2.6583e-11
-2.81883 53.1557 7.61583e-12
-2.6583e-11 7.61583e-12 50.1296

40.9906 -2.9964 -1.38716e-11
-2.9964 38.695 1.16545e-11
-1.38716e-11 1.16545e-11 38.2883

50.0063 2.34801 -1.31e-11
2.34801 45.7327 1.00633e-11
-1.31e-11 1.00633e-11 47.8073

47.2586 1.9983 1.28551e-11
1.9983 51.8433 -3.85256e-11
1.28551e-11 -3.85256e-11 49.7641

53.4186 -5.70508 1.15573e-11
-5.70508 55.6908 -2.79325e-12
1.15573e-11 -2.79325e-12 56.6835

53.4317 5.70898 -3.81386e-11
5.70898 55.6523 -4.85445e-11
-3.81386e-11 -4.85445e-11 56.6755

58.0453 -2.29402 -3.31333e-11
-2.29402 52.3648 4.68065e-11
-3.31333e-11 4.68065e-11 55.4501

70.0106 -4.27115 -2.92751e-11
-4.27115 73.5852 -1.03905e-11
-2.92751e-11 -1.03905e-11 66.6827

67.2514 4.37019 -6.16314e-12
4.37019 64.5311 3.37041e-11
-6.16314e-12 3.37041e-11 64.3808

52.3076 -3.23227 -2.67711e-11
-3.23227 56.7299 -5.14297e-11
-2.67711e-11 -5.14297e-11 54.638

54.2145 4.03662 -2.23502e-11
4.03662 49.3837 -3.58794e-11
-2.23502e-11 -3.58794e-11 52.4885

62.2787 0.260156 3.46477e-12
0.260156 57.7313 -2.02264e-12
3.46477e-12 -2.02264e-12 59.541

47.5442 -3.78257 -1.98435e-11
-3.78257 47.7061 1.60878e-11
-1.98435e-11 1.60878e-11 47.2528

31.6872 2.42221 3.85914e-13
2.42221 32.5636 -4.66784e-11
3.85914e-13 -4.66784e-11 30.9098

32.8031 2.39545 -2.00373e-11
2.39545 30.4104 3.28744e-11
-2.00373e-11 3.28744e-11 30.7129

62.3978 0.477761 5.97222e-12
0.477761 52.4747 -1.34595e-11
5.97222e-12 -1.34595e-11 57.9956

62.2956 -0.482268 4.04748e-12
-0.482268 52.425 -2.08488e-11
4.04748e-12 -2.08488e-11 57.9654

62.6305 -0.42235 3.81339e-11
-0.42235 58.1896 2.71629e-11
3.81339e-11 2.71629e-11 59.7781

47.7689 2.68453 -9.02492e-12
2.68453 53.0166 -1.01096e-11
-9.02492e-12 -1.01096e-11 50.0703

49.2227 -1.88931 9.92162e-12
-1.88931 44.2028 -2.31026e-12
9.92162e-12 -2.31026e-12 45.1987

55.2207 -2.29457 -8.28167e-12
-2.29457 56.577 -1.8491e-11
-8.28167e-12 -1.8491e-11 56.0682

55.2598 2.29786 1.73332e-11
2.29786 56.6082 -2.86998e-11
1.73332e-11 -2.86998e-11 56.0994

73.2468 -0.315737 -2.00261e-11
-0.315737 76.4606 -3.0144e-11
-2.00261e-11 -3.0144e-11 67.6127

73.2579 0.311331 -2.19484e-11
0.311331 76.3687 -7.55433e-11
-2.19484e-11 -7.55433e-11 67.6165

49.8231 -3.91884 1.56033e-11
-3.91884 55.6855 -4.3342e-11
1.56033e-11 -4.3342e-11 53.5433

52.7671 3.10431 3.96835e-11
3.10431 47.0412 1.19408e-11
3.96835e-11 1.19408e-11 49.8733

60.4448 -0.381237 -2.43646e-11
-0.381237 55.2991 7.2082e-11
-2.43646e-11 7.2082e-11 57.98

60.4422 0.41544 -3.15915e-11
0.41544 55.2787 5.88912e-11
-3.15915e-11 5.88912e-11 57.9639

50.322 -2.48888 1.00197e-11
-2.48888 55.0624 1.44225e-12
1.00197e-11 1.44225e-12 54.2414

49.7207 -3.97637 -4.00663e-11
-3.97637 53.5517 2.11897e-11
-4.00663e-11 2.11897e-11 54.4215

26.0866 -5.78937 1.92169e-12
-5.78937 26.2619 4.9112e-11
1.92169e-12 4.9112e-11 26.2766

56.1963 -3.71422 1.38676e-11
-3.71422 59.4149 -3.79455e-11
1.38676e-11 -3.79455e-11 58.498

56.1732 3.74692 -5.85526e-11
3.74692 59.3159 -2.77428e-11
-5.85526e-11 -2.77428e-11 58.4473

48.9225 -3.82247 -3.62162e-11
-3.82247 53.6876 1.78197e-11
-3.62162e-11 1.78197e-11 53.3883

49.5556 2.00369 -1.90716e-11
2.00369 44.3924 1.75778e-11
-1.90716e-11 1.75778e-11 45.4623

55.8514 -3.52266 -4.52519e-12
-3.52266 52.9366 4.80282e-13
-4.52519e-12 4.80282e-13 54.6178

58.7354 -3.91141 2.30956e-12
-3.91141 55.6196 -2.35e-11
2.30956e-12 -2.35e-11 57.5338

58.7881 3.81671 5.39346e-12
3.81671 55.4039 1.35805e-11
5.39346e-12 1.35805e-11 57.4452

56.8475 -2.18685 -1.5414e-11
-2.18685 48.123 1.41101e-11
-1.5414e-11 1.41101e-11 53.6958

63.2998 0.958129 2.23414e-11
0.958129 56.8222 -3.26467e-11
2.23414e-11 -3.26467e-11 60.0885

63.2251 -0.940037 2.69668e-11
-0.940037 56.8621 2.43622e-11
2.69668e-11 2.43622e-11 60.0683

63.1582 -1.51754 9.24174e-12
-1.51754 71.2469 -3.17767e-11
9.24174e-12 -3.17767e-11 64.5917

64.7164 3.31264 1.92891e-12
3.31264 70.6559 5.06513e-11
1.92891e-12 5.06513e-11 64.8178

26.3901 0.49199 -1.77315e-11
0.49199 20.7031 1.90767e-11
-1.77315e-11 1.90767e-11 26.3033

22.6888 0.920317 4.62393e-12
0.920317 25.4775 -5.59258e-12
4.62393e-12 -5.59258e-12 26.5521

52.9206 3.65825 -3.87148e-11
3.65825 57.348 1.16513e-11
-3.87148e-11 1.16513e-11 55.4724

52.884 -3.6605 3.98694e-11
-3.6605 57.3161 5.04653e-11
3.98694e-11 5.04653e-11 55.4306

51.289 -4.67443 -2.69609e-12
-4.67443 56.9813 -9.4383e-12
-2.69609e-12 -9.4383e-12 54.9061

25.0878 -2.44132 1.31017e-11
-2.44132 24.5982 -2.38404e-11
1.31017e-11 -2.38404e-11 26.5138

25.6401 -2.01537 -1.38787e-11
-2.01537 24.8529 5.47465e-11
-1.38787e-11 5.47465e-11 26.715

64.6466 3.22658 6.06625e-11
3.22658 71.0853 -2.41698e-11
6.06625e-11 -2.41698e-11 65.325

64.5608 -3.39165 2.94695e-11
-3.39165 70.7456 -2.21494e-11
2.94695e-11 -2.21494e-11 65.2395

54.079 -4.42975 6.12514e-11
-4.42975 51.4147 2.84092e-11
6.12514e-11 2.84092e-11 53.5161

47.8605 -3.57887 -3.35164e-11
-3.57887 50.0724 -7.89457e-12
-3.35164e-11 -7.89457e-12 48.5462

52.1512 3.52636 -1.59897e-11
3.52636 54.7178 -3.30372e-11
-1.59897e-11 -3.30372e-11 54.2244

52.1243 -3.5249 4.64218e-11
-3.5249 54.6838 1.18429e-11
4.64218e-11 1.18429e-11 54.1965

48.9118 -4.16472 -1.32934e-11
-4.16472 52.4323 -1.69499e-11
-1.32934e-11 -1.69499e-11 50.9077

47.9069 3.62877 -4.91209e-11
3.62877 49.9844 -2.86059e-11
-4.91209e-11 -2.86059e-11 48.5142

33.6605 -1.33454 3.85318e-12
-1.33454 37.4352 8.0953e-12
3.85318e-12 8.0953e-12 34.3741

33.6491 1.12242 -4.00812e-11
1.12242 37.637 4.83094e-11
-4.00812e-11 4.83094e-11 34.3059

37.6331 0.960109 2.17713e-11
0.960109 32.8343 -2.123e-11
2.17713e-11 -2.123e-11 33.947

48.8981 4.1544 8.6731e-12
4.1544 52.3896 5.43239e-11
8.6731e-12 5.43239e-11 50.8652

30.2691 -0.630734 -1.77272e-11
-0.630734 34.3752 1.26984e-11
-1.77272e-11 1.26984e-11 31.5388

35.0112 -0.379142 -3.46828e-11
-0.379142 29.0948 2.93356e-11
-3.46828e-11 2.93356e-11 31.4658

54.7462 -3.40863 -3.66002e-11
-3.40863 57.8246 9.95861e-11
-3.66002e-11 9.95861e-11 57.0793

54.8356 3.39172 1.23269e-11
3.39172 57.8842 4.51703e-11
1.23269e-11 4.51703e-11 57.1382

55.5025 -2.5894 -4.02579e-11
-2.5894 58.3144 6.5972e-11
-4.02579e-11 6.5972e-11 57.5952

55.5506 2.58878 3.35141e-11
2.58878 58.2718 -6.23098e-11
3.35141e-11 -6.23098e-11 57.6114

25.1515 2.24267 -5.78032e-12
2.24267 23.7948 2.91608e-11
-5.78032e-12 2.91608e-11 26.174

24.8374 2.13915 -5.01001e-11
2.13915 23.8118 1.05847e-11
-5.01001e-11 1.05847e-11 26.0233

51.5947 3.2383 1.03999e-11
3.2383 53.8221 6.84149e-12
1.03999e-11 6.84149e-12 52.6287

51.586 -3.25983 2.33074e-11
-3.25983 53.8384 -1.9361e-11
2.33074e-11 -1.9361e-11 52.6213

61.0841 -3.13638 5.39128e-12
-3.13638 65.5464 -5.20251e-12
5.39128e-12 -5.20251e-12 62.4034

62.0275 1.41291 -3.96792e-11
1.41291 62.7736 -4.2568e-11
-3.96792e-11 -4.2568e-11 62.0243

54.8772 -3.51444 -8.47404e-12
-3.51444 60.1962 -5.3355e-11
-8.47404e-12 -5.3355e-11 58.2376

54.8932 3.5162 -2.3112e-11
3.5162 60.1165 -1.74334e-11
-2.3112e-11 -1.74334e-11 58.2373

61.499 0.226892 4.60346e-11
0.226892 55.8269 5.53752e-11
4.60346e-11 5.53752e-11 59.4919

61.4795 -0.194067 1.48316e-11
-0.194067 55.8454 8.76847e-11
1.48316e-11 8.76847e-11 59.4917

53.8082 -3.98107 4.00642e-11
-3.98107 54.1681 -3.23621e-11
4.00642e-11 -3.23621e-11 55.1998

53.8326 4.03196 2.69674e-11
4.03196 53.9315 2.27303e-11
2.69674e-11 2.27303e-11 55.0864

65.6297 0.970239 -6.97239e-11
0.970239 60.5186 1.65621e-11
-6.97239e-11 1.65621e-11 62.2967

66.0177 0.168146 8.01255e-11
0.168146 62.9231 -1.15747e-10
8.01255e-11 -1.15747e-10 63.5584

65.6601 -0.983875 -8.08963e-12
-0.983875 60.5647 -1.79122e-11
-8.08963e-12 -1.79122e-11 62.3298

66.0133 -0.266056 5.5661e-11
-0.266056 62.7419 1.24992e-10
5.5661e-11 1.24992e-10 63.526

61.7561 0.163574 6.16348e-12
0.163574 66.1116 -1.77199e-11
6.16348e-12 -1.77199e-11 62.8138

68.3154 3.91321 -3.35122e-11
3.91321 65.4327 1.70408e-11
-3.35122e-11 1.70408e-11 63.7578

68.3365 -3.89801 -1.8491e-11
-3.89801 65.4612 -1.76196e-11
-1.8491e-11 -1.76196e-11 63.7554

60.0532 -2.09703 2.27215e-11
-2.09703 70.159 2.69956e-12
2.27215e-11 2.69956e-12 63.3513

62.7773 -1.84989 -1.49265e-10
-1.84989 63.864 6.78928e-11
-1.49265e-10 6.78928e-11 62.8477

81.0722 -2.68061 5.91726e-10
-2.68061 59.1166 8.87831e-11
5.91726e-10 8.87831e-11 66.28

62.5926 1.94818 -1.28467e-10
1.94818 64.2186 -8.04154e-11
-1.28467e-10 -8.04154e-11 62.9371

81.109 2.47853 5.17777e-10
2.47853 59.932 -1.37676e-10
5.17777e-10 -1.37676e-10 66.5155

64.1163 -2.53528 -3.94839e-11
-2.53528 63.0488 1.08833e-11
-3.94839e-11 1.08833e-11 62.6582

59.6049 -1.76942 4.33359e-11
-1.76942 62.2913 -3.58256e-11
4.33359e-11 -3.58256e-11 60.7364

65.5971 -0.147792 -5.58649e-12
-0.147792 63.1102 4.84393e-11
-5.58649e-12 4.84393e-11 63.7143

64.0372 2.66133 -1.75242e-11
2.66133 63.1038 1.23252e-11
-1.75242e-11 1.23252e-11 62.6842

59.6514 1.82982 -3.19723e-11
1.82982 62.1887 -3.50552e-11
-3.19723e-11 -3.50552e-11 60.7294

65.672 0.166655 -8.08864e-12
0.166655 63.6077 1.35778e-11
-8.08864e-12 1.35778e-11 63.8808

59.4297 -1.46095 3.54351e-11
-1.46095 61.5722 4.61295e-11
3.54351e-11 4.61295e-11 60.8568

64.1058 -0.820064 -5.79746e-11
-0.820064 62.9791 7.51144e-12
-5.79746e-11 7.51144e-12 62.7783

59.5092 1.5298 -1.77198e-11
1.5298 61.5876 -4.66121e-11
-1.77198e-11 -4.66121e-11 60.8924

64.1495 0.85706 -8.20494e-11
0.85706 63.0141 1.15128e-12
-8.20494e-11 1.15128e-12 62.8099

45.1283 3.449 3.46752e-12
3.449 49.1123 3.65915e-12
3.46752e-12 3.65915e-12 46.0527

50.2771 0.696855 -5.9727e-12
0.696855 57.6122 -1.15568e-11
-5.9727e-12 -1.15568e-11 54.3393

53.3189 1.85697 1.96467e-11
1.85697 56.1921 -4.35315e-11
1.96467e-11 -4.35315e-11 54.5016

52.1651 -2.25785 -8.47633e-12
-2.25785 44.6626 2.42724e-11
-8.47633e-12 2.42724e-11 49.0299

49.75 -1.38022 1.59919e-11
-1.38022 42.9048 1.19418e-11
1.59919e-11 1.19418e-11 46.1592

51.5459 1.05786 1.71429e-11
1.05786 61.4967 4.62282e-12
1.71429e-11 4.62282e-12 57.2934

54.0558 1.91779 2.09937e-11
1.91779 57.5207 2.3212e-11
2.09937e-11 2.3212e-11 56.9515

49.9078 -0.0129164 1.73377e-11
-0.0129164 43.3841 1.57967e-11
1.73377e-11 1.57967e-11 46.4475

56.3712 0.872953 2.60056e-11
0.872953 48.3807 -7.71309e-13
2.60056e-11 -7.71309e-13 54.6142

36.3783 2.98342 -2.96666e-11
2.98342 40.7544 1.50247e-11
-2.96666e-11 1.50247e-11 37.3169

34.9675 2.36127 -3.35238e-11
2.36127 40.3781 9.24912e-12
-3.35238e-11 9.24912e-12 36.8117

39.4357 2.36601 -2.76444e-11
2.36601 35.2131 -7.73233e-13
-2.76444e-11 -7.73233e-13 36.3124

57.9292 -3.60394 -2.90832e-11
-3.60394 59.9432 -9.62974e-12
-2.90832e-11 -9.62974e-12 58.8205

57.3848 -1.51449 1.11717e-11
-1.51449 61.3816 1.7336e-11
1.11717e-11 1.7336e-11 59.0108

50.0285 -4.1642 1.02044e-11
-4.1642 49.4944 2.15732e-11
1.02044e-11 2.15732e-11 49.914

46.097 3.34752 -8.28585e-12
3.34752 51.347 -1.1943e-11
-8.28585e-12 -1.1943e-11 48.8041

50.3841 3.90944 8.86285e-12
3.90944 55.2674 4.04647e-12
8.86285e-12 4.04647e-12 53.5046

53.8376 -1.88951 -2.73513e-11
-1.88951 57.3895 -1.32909e-11
-2.73513e-11 -1.32909e-11 56.7769

51.3463 -1.25282 7.89484e-12
-1.25282 61.5175 4.7771e-11
7.89484e-12 4.7771e-11 57.1015

53.5292 1.0518 4.00722e-11
1.0518 45.3459 7.76425e-13
4.00722e-11 7.76425e-13 49.6427

39.5259 0.980453 -2.87047e-11
0.980453 45.1266 -2.85136e-11
-2.87047e-11 -2.85136e-11 40.529

38.2466 0.433722 -3.32274e-11
0.433722 44.9315 1.15582e-12
-3.32274e-11 1.15582e-12 40.3612

44.4005 0.407888 3.9979e-11
0.407888 38.3892 -6.5532e-12
3.9979e-11 -6.5532e-12 39.6998

43.7758 2.35799 2.13847e-11
2.35799 49.5088 3.85077e-12
2.13847e-11 3.85077e-12 46.2176

44.7251 3.85326 -5.20362e-12
3.85326 48.0088 -2.00369e-11
-5.20362e-12 -2.00369e-11 45.6245

52.0712 0.655854 -3.17866e-11
0.655854 44.8444 -5.78001e-12
-3.17866e-11 -5.78001e-12 49.4001

34.1023 1.78308 -4.00744e-11
1.78308 37.4665 3.29482e-11
-4.00744e-11 3.29482e-11 33.8466

56.2975 -2.41225 8.47737e-12
-2.41225 48.1068 -2.23409e-11
8.47737e-12 -2.23409e-11 53.6606

57.8383 0.183046 -7.89428e-12
0.183046 63.1979 2.11859e-11
-7.89428e-12 2.11859e-11 59.5938

59.4073 0.0513757 1.27107e-11
0.0513757 60.1566 2.49433e-11
1.27107e-11 2.49433e-11 59.37

71.5264 1.61837 5.12312e-11
1.61837 62.4072 -1.00149e-11
5.12312e-11 -1.00149e-11 64.4082

72.1723 -3.89637 -3.39024e-11
-3.89637 65.6359 7.27981e-11
-3.39024e-11 7.27981e-11 64.8552

48.3875 -4.41881 1.92607e-11
-4.41881 49.5624 1.1554e-11
1.92607e-11 1.1554e-11 49.239

43.6553 -3.5744 9.05254e-12
-3.5744 47.6253 2.11892e-11
9.05254e-12 2.11892e-11 45.5218

43.6359 -1.23038 -8.47411e-12
-1.23038 37.0241 -1.69561e-11
-8.47411e-12 -1.69561e-11 39.25

61.9866 0.635132 -7.70347e-13
0.635132 57.5978 -1.48313e-11
-7.70347e-13 -1.48313e-11 59.5707

62.0399 -2.30816 -1.92661e-12
-2.30816 57.9417 -3.46316e-12
-1.92661e-12 -3.46316e-12 59.2745

56.534 -1.02547 -6.16313e-12
-1.02547 48.5099 -1.04023e-11
-6.16313e-12 -1.04023e-11 54.7054

55.623 -0.304603 2.47546e-11
-0.304603 46.5206 -3.62121e-11
2.47546e-11 -3.62121e-11 53.5262

47.0884 -3.64469 5.39332e-12
-3.64469 43.5163 -6.1624e-12
5.39332e-12 -6.1624e-12 44.2891

47.2525 1.6847 2.38877e-11
1.6847 41.1608 2.61964e-11
2.38877e-11 2.61964e-11 43.4277

46.458 -2.97404 -3.06323e-11
-2.97404 40.5787 -3.46501e-12
-3.06323e-11 -3.46501e-12 42.9087

48.06 2.44978 2.26311e-11
2.44978 55.9124 7.73085e-13
2.26311e-11 7.73085e-13 53.4947

44.2076 -2.96111 1.15606e-11
-2.96111 49.3171 2.19607e-11
1.15606e-11 2.19607e-11 46.2994

43.4471 2.84749 -5.10177e-12
2.84749 47.6974 2.08064e-11
-5.10177e-12 2.08064e-11 45.5516

27.0239 -4.52208 2.19662e-11
-4.52208 27.2236 -1.73343e-12
2.19662e-11 -1.73343e-12 26.9498

25.4676 2.78187 -6.94215e-12
2.78187 26.9143 -3.27571e-11
-6.94215e-12 -3.27571e-11 26.415

51.008 -3.38816 7.70363e-12
-3.38816 58.6542 3.46786e-12
7.70363e-12 3.46786e-12 56.4341

44.7901 2.24921 -1.03985e-11
2.24921 51.8518 1.11726e-11
-1.03985e-11 1.11726e-11 49.0196

25.6335 0.470366 -1.56099e-11
0.470366 26.0471 4.39329e-11
-1.56099e-11 4.39329e-11 27.217

26.2531 -0.915313 2.17741e-11
-0.915313 27.6508 2.29295e-11
2.17741e-11 2.29295e-11 27.757

58.782 -1.34749 -2.24841e-11
-1.34749 60.8079 -5.7009e-11
-2.24841e-11 -5.7009e-11 59.7168

58.3274 2.84827 -4.79633e-11
2.84827 59.4926 -5.12354e-11
-4.79633e-11 -5.12354e-11 59.4888

56.8728 0.0302999 1.97094e-12
0.0302999 47.0688 2.71584e-11
1.97094e-12 2.71584e-11 52.1026

58.4971 -0.903316 -2.0533e-11
-0.903316 58.8912 1.98367e-11
-2.0533e-11 1.98367e-11 59.2696

58.4146 2.65815 -1.41594e-11
2.65815 59.6162 5.54713e-11
-1.41594e-11 5.54713e-11 59.4881

67.9968 2.9178 1.96481e-11
2.9178 60.4209 1.15574e-12
1.96481e-11 1.15574e-12 62.8603

67.5827 -3.56971 -4.81499e-11
-3.56971 63.6169 1.92573e-11
-4.81499e-11 1.92573e-11 63.1343

54.8079 -2.15686 7.36744e-12
-2.15686 55.1183 6.01882e-12
7.36744e-12 6.01882e-12 55.5434

54.6385 2.84877 -3.94899e-12
2.84877 54.4404 2.82134e-11
-3.94899e-12 2.82134e-11 55.5355

61.3024 -0.226025 -5.39618e-12
-0.226025 69.1039 -1.42546e-11
-5.39618e-12 -1.42546e-11 62.8719

60.9221 1.02284 -1.21345e-11
1.02284 64.4854 2.93727e-11
-1.21345e-11 2.93727e-11 62.0284

44.5792 -4.07105 -3.16901e-11
-4.07105 49.2224 1.21383e-11
-3.16901e-11 1.21383e-11 46.0326

31.5231 0.429205 1.8107e-11
0.429205 35.8094 5.85701e-11
1.8107e-11 5.85701e-11 32.7384

35.5044 0.552925 -1.21364e-11
0.552925 31.99 -9.24124e-12
-1.21364e-11 -9.24124e-12 32.7281

46.9597 2.13956 -2.09938e-11
2.13956 55.3457 7.70524e-12
-2.09938e-11 7.70524e-12 52.3716

49.2951 3.1401 -3.12029e-11
3.1401 54.4411 -1.54086e-11
-3.12029e-11 -1.54086e-11 52.4254

69.7685 -2.97511 1.16238e-10
-2.97511 64.4579 -1.26341e-10
1.16238e-10 -1.26341e-10 65.0954

69.3898 4.62015 -2.54598e-11
4.62015 74.6927 7.743e-11
-2.54598e-11 7.743e-11 67.0427

46.89 2.87828 2.87022e-11
2.87828 45.3578 1.19429e-11
2.87022e-11 1.19429e-11 45.0916

51.9632 4.85702 2.69661e-11
4.85702 56.8356 -4.62136e-12
2.69661e-11 -4.62136e-12 55.0962

54.1539 1.84666 -4.90716e-11
1.84666 49.3522 -7.32707e-12
-4.90716e-11 -7.32707e-12 52.6453

54.2846 -1.47058 7.53188e-11
-1.47058 49.3872 -1.92994e-13
7.53188e-11 -1.92994e-13 52.5282

52.0945 4.6138 -3.1589e-11
4.6138 55.1896 2.06081e-11
-3.1589e-11 2.06081e-11 54.5667

53.3035 -4.55185 8.47394e-12
-4.55185 58.2784 -6.16425e-12
8.47394e-12 -6.16425e-12 56.613

60.1634 -3.8953 -1.27106e-11
-3.8953 53.73 -1.77172e-11
-1.27106e-11 -1.77172e-11 57.5136

43.5811 -0.34797 -2.44696e-11
-0.34797 37.3208 5.20252e-12
-2.44696e-11 5.20252e-12 39.3811

74.0713 0.542298 -2.08036e-11
0.542298 71.2145 8.0496e-11
-2.08036e-11 8.0496e-11 66.6196

74.3194 -0.336302 8.55159e-11
-0.336302 65.089 -2.77346e-11
8.55159e-11 -2.77346e-11 65.7917

48.6434 3.54268 -4.12241e-11
3.54268 47.0753 -2.60089e-11
-4.12241e-11 -2.60089e-11 48.0526

54.0528 1.34735 3.66008e-11
1.34735 47.3612 5.04702e-11
3.66008e-11 5.04702e-11 50.4903

40.6504 3.02311 3.65981e-12
3.02311 42.0366 9.05032e-12
3.65981e-12 9.05032e-12 39.5823

62.491 0.718395 7.33789e-11
0.718395 64.721 3.71767e-11
7.33789e-11 3.71767e-11 62.9279

64.6996 2.09041 -5.08457e-11
2.09041 71.286 -1.77253e-11
-5.08457e-11 -1.77253e-11 64.4207

60.2321 1.93356 -1.92527e-12
1.93356 53.0472 -9.24768e-12
-1.92527e-12 -9.24768e-12 57.8515

50.0862 -0.818557 2.74479e-11
-0.818557 57.7417 2.81242e-11
2.74479e-11 2.81242e-11 54.2066

53.1955 -1.75053 -2.52347e-11
-1.75053 56.3548 1.81069e-11
-2.52347e-11 1.81069e-11 54.4558

57.7955 0.562164 -9.84642e-12
0.562164 48.3724 -1.30998e-11
-9.84642e-12 -1.30998e-11 54.0261

58.0874 -0.439948 1.03306e-11
-0.439948 48.2912 -2.25368e-11
1.03306e-11 -2.25368e-11 53.9878

41.9774 -3.03284 -1.05056e-11
-3.03284 40.5669 -7.73085e-13
-1.05056e-11 -7.73085e-13 39.2408

51.5021 0.00853311 -2.44189e-11
0.00853311 43.3472 -1.63728e-11
-2.44189e-11 -1.63728e-11 46.6539

59.1116 -0.493925 -2.31397e-11
-0.493925 52.2851 2.42676e-11
-2.31397e-11 2.42676e-11 56.5762

58.3272 0.999062 1.75758e-11
0.999062 52.9513 -7.31789e-12
1.75758e-11 -7.31789e-12 56.6187

54.285 -1.26323 1.68504e-11
-1.26323 48.1738 5.00801e-11
1.68504e-11 5.00801e-11 50.576

45.5912 -3.59351 -2.8222e-11
-3.59351 49.7407 7.70717e-12
-2.8222e-11 7.70717e-12 46.6867

58.8167 -0.290134 7.692e-13
-0.290134 51.0911 -2.00319e-11
7.692e-13 -2.00319e-11 54.9455

58.3387 0.643699 1.40099e-12
0.643699 50.8616 -1.54132e-11
1.40099e-12 -1.54132e-11 54.9209

53.3615 1.46481 -2.06138e-11
1.46481 47.5374 1.27143e-11
-2.06138e-11 1.27143e-11 51.004

42.3724 -4.57441 4.93211e-11
-4.57441 41.7667 -2.62046e-11
4.93211e-11 -2.62046e-11 41.5252

49.9977 4.40967 -2.0513e-11
4.40967 54.0498 3.08183e-11
-2.0513e-11 3.08183e-11 54.1478

52.3759 4.33199 -5.52807e-11
4.33199 57.5157 -8.28572e-12
-5.52807e-11 -8.28572e-12 55.5744

49.5787 3.26906 -2.65819e-11
3.26906 54.5002 -1.46406e-11
-2.65819e-11 -1.46406e-11 54.5534

47.6958 1.59579 -1.83194e-12
1.59579 40.6658 -5.77619e-12
-1.83194e-12 -5.77619e-12 43.4331

37.3638 -3.15501 1.53707e-12
-3.15501 34.5953 2.27352e-11
1.53707e-12 2.27352e-11 34.6645

53.8646 2.66439 8.09071e-12
2.66439 50.1666 -1.82984e-11
8.09071e-12 -1.82984e-11 53.1045

53.1787 -2.83806 -1.15389e-12
-2.83806 47.362 -1.04026e-11
-1.15389e-12 -1.04026e-11 50.3228

37.9354 -2.73432 -1.67632e-11
-2.73432 34.4215 5.39668e-12
-1.67632e-11 5.39668e-12 34.8992

48.9035 -4.55729 1.56034e-11
-4.55729 45.8486 -2.65867e-11
1.56034e-11 -2.65867e-11 47.6216

48.3181 0.115928 1.50249e-11
0.115928 53.549 -1.13647e-11
1.50249e-11 -1.13647e-11 51.8125

46.186 0.000464178 2.92789e-11
0.000464178 56.3856 -2.08052e-11
2.92789e-11 -2.08052e-11 52.092

43.3167 3.885 6.36454e-12
3.885 43.6585 1.36759e-11
6.36454e-12 1.36759e-11 42.7331

40.7299 -3.23654 7.79902e-12
-3.23654 36.1981 8.86276e-12
7.79902e-12 8.86276e-12 37.2437

51.9289 -4.72718 -4.19886e-11
-4.72718 53.5545 7.70869e-12
-4.19886e-11 7.70869e-12 54.2222

43.4038 -4.2284 -1.0883e-11
-4.2284 45.5839 -3.3903e-11
-1.0883e-11 -3.3903e-11 43.1286

42.8283 -4.27486 9.06023e-12
-4.27486 44.7502 -1.57931e-11
9.06023e-12 -1.57931e-11 42.7871

52.7955 2.18723 1.77185e-11
2.18723 48.6765 -3.64051e-11
1.77185e-11 -3.64051e-11 50.7477

59.8444 1.3809 5.12409e-11
1.3809 47.4762 2.25332e-11
5.12409e-11 2.25332e-11 56.484

59.4222 -2.17506 -2.00317e-11
-2.17506 49.1353 7.68792e-13
-2.00317e-11 7.68792e-13 56.4335

41.8822 2.42816 5.20473e-12
2.42816 47.416 1.04011e-11
5.20473e-12 1.04011e-11 43.8079

40.4516 1.65887 -3.95863e-11
1.65887 48.1536 1.27158e-11
-3.95863e-11 1.27158e-11 43.937

35.9279 -0.353015 2.02306e-11
-0.353015 43.2475 -1.0594e-11
2.02306e-11 -1.0594e-11 38.45

35.0404 -0.469468 1.56034e-11
-0.469468 43.5006 1.38726e-11
1.56034e-11 1.38726e-11 38.427

43.1113 -0.311073 4.27674e-11
-0.311073 35.1303 3.15943e-11
4.27674e-11 3.15943e-11 37.9092

44.494 -3.8548 -3.84922e-12
-3.8548 42.2534 -1.90662e-11
-3.84922e-12 -1.90662e-11 42.5855

63.6183 -2.83876 -9.62974e-12
-2.83876 67.9148 1.61804e-11
-9.62974e-12 1.61804e-11 64.3451

75.6504 -1.12833 -8.859e-12
-1.12833 75.6846 -6.85629e-11
-8.859e-12 -6.85629e-11 67.9596

45.5697 2.71633 -5.00733e-12
2.71633 41.0106 1.00169e-11
-5.00733e-12 1.00169e-11 42.6518

48.2698 -1.8532 1.16541e-11
-1.8532 41.0726 1.04067e-11
1.16541e-11 1.04067e-11 43.849

38.2599 1.69771 -1.21344e-11
1.69771 34.3397 2.67786e-11
-1.21344e-11 2.67786e-11 35.1681

46.9722 2.78578 1.49289e-11
2.78578 52.7451 7.71975e-13
1.49289e-11 7.71975e-13 51.2749

56.8727 0.0446589 1.21341e-11
0.0446589 47.126 -1.56038e-11
1.21341e-11 -1.56038e-11 52.051

53.0505 4.24337 3.08159e-12
4.24337 58.0316 1.93105e-13
3.08159e-12 1.93105e-13 56.6561

49.8694 3.37235 -1.36751e-11
3.37235 58.6461 -2.50416e-11
-1.36751e-11 -2.50416e-11 56.3969

39.3402 2.18654 1.3577e-11
2.18654 41.6969 -1.6864e-11
1.3577e-11 -1.6864e-11 39.1267

40.7936 2.43359 -2.90952e-13
2.43359 40.1363 1.31014e-11
-2.90952e-13 1.31014e-11 38.792

51.3423 -5.12904 -1.91649e-11
-5.12904 56.3597 -9.05235e-12
-1.91649e-11 -9.05235e-12 54.4959

38.6054 1.37176 -1.34957e-11
1.37176 34.4497 1.34879e-11
-1.34957e-11 1.34879e-11 35.3983

49.5745 3.78896 -2.41248e-11
3.78896 53.3918 4.16061e-11
-2.41248e-11 4.16061e-11 54.5086

49.2461 4.6174 3.85969e-13
4.6174 53.57 6.93504e-12
3.85969e-13 6.93504e-12 51.4918

60.0945 -0.0661402 1.55074e-11
-0.0661402 48.5424 -1.61787e-11
1.55074e-11 -1.61787e-11 55.2169

50.917 -3.50013 2.12104e-12
-3.50013 53.6913 -6.08696e-11
2.12104e-12 -6.08696e-11 54.7525

49.0571 3.77855 -1.90718e-11
3.77855 49.3028 4.04225e-12
-1.90718e-11 4.04225e-12 48.862

40.4776 -1.85271 1.96487e-11
-1.85271 45.6352 -2.23497e-11
1.96487e-11 -2.23497e-11 41.287

38.961 -1.76365 -1.31011e-11
-1.76365 45.6112 2.31194e-11
-1.31011e-11 2.31194e-11 41.0493

44.8531 -1.31498 2.92826e-11
-1.31498 39.5687 -1.92439e-13
2.92826e-11 -1.92439e-13 40.4945

45.5989 -3.46171 5.29465e-12
-3.46171 46.1072 -7.31489e-12
5.29465e-12 -7.31489e-12 44.4542

44.7464 -0.227674 2.36932e-11
-0.227674 52.6918 -3.19797e-11
2.36932e-11 -3.19797e-11 48.4092

47.4158 -0.0335331 2.65828e-11
-0.0335331 52.1071 2.69747e-12
2.65828e-11 2.69747e-12 48.6395

37.9134 -3.7072 -3.87764e-13
-3.7072 39.6166 -8.86365e-12
-3.87764e-13 -8.86365e-12 37.2691

36.8695 -3.60177 -1.27109e-11
-3.60177 40.203 1.349e-11
-1.27109e-11 1.349e-11 37.3322

60.1588 -0.183604 2.43157e-12
-0.183604 49.3847 1.5406e-12
2.43157e-12 1.5406e-12 55.4652

60.4368 0.190013 -4.57466e-12
0.190013 49.2446 -3.62113e-11
-4.57466e-12 -3.62113e-11 55.4458

48.7336 3.53119 -5.97207e-12
3.53119 52.1514 3.04356e-11
-5.97207e-12 3.04356e-11 51.9628

49.8098 -2.97472 -1.34838e-11
-2.97472 58.1426 1.61807e-11
-1.34838e-11 1.61807e-11 56.167

53.4044 -4.57408 -5.27827e-11
-4.57408 50.8632 8.48099e-12
-5.27827e-11 8.48099e-12 52.9334

57.2521 1.74316 -3.29155e-11
1.74316 55.3807 -5.87871e-12
-3.29155e-11 -5.87871e-12 57.3083

57.9973 -0.532659 -6.18875e-12
-0.532659 56.2634 2.60004e-11
-6.18875e-12 2.60004e-11 57.5241

55.1356 -1.90964 3.66996e-11
-1.90964 53.0305 -1.21353e-11
3.66996e-11 -1.21353e-11 53.7329

54.6693 2.29674 -4.62288e-11
2.29674 51.5952 -1.81141e-11
-4.62288e-11 -1.81141e-11 53.5156

25.1113 -1.91897 2.08113e-11
-1.91897 20.9175 1.54195e-12
2.08113e-11 1.54195e-12 26.1263

42.49 3.64012 -1.35924e-11
3.64012 44.7785 -6.2033e-11
-1.35924e-11 -6.2033e-11 42.8947

22.53 1.32414 1.86835e-11
1.32414 25.283 -9.25395e-12
1.86835e-11 -9.25395e-12 26.4625

49.7646 4.09315 -3.91023e-11
4.09315 52.0576 3.77531e-11
-3.91023e-11 3.77531e-11 51.2326

42.2739 -2.86873 1.06115e-12
-2.86873 48.4262 2.504e-12
1.06115e-12 2.504e-12 44.3994

40.5581 -2.5574 -2.69625e-12
-2.5574 48.0614 3.3521e-11
-2.69625e-12 3.3521e-11 44.0484

63.7676 -0.879627 9.44735e-11
-0.879627 62.7414 -2.13785e-11
9.44735e-11 -2.13785e-11 62.5698

62.3686 2.40957 2.6613e-11
2.40957 65.0412 2.34978e-11
2.6613e-11 2.34978e-11 62.7725

50.2468 2.71694 5.95258e-11
2.71694 48.1455 -7.65092e-13
5.95258e-11 -7.65092e-13 49.1123

51.6082 -0.277998 -1.23295e-11
-0.277998 43.7682 1.61836e-11
-1.23295e-11 1.61836e-11 46.7501

44.2735 3.04429 -6.75756e-13
3.04429 41.4583 2.77433e-11
-6.75756e-13 2.77433e-11 42.2923

47.3257 -1.75647 -2.52289e-11
-1.75647 56.2791 -2.88971e-11
-2.52289e-11 -2.88971e-11 52.5913

49.4251 -2.89569 -3.19759e-11
-2.89569 54.5998 1.9073e-11
-3.19759e-11 1.9073e-11 52.533

51.8528 -5.26175 -2.20029e-11
-5.26175 58.4009 -3.71756e-11
-2.20029e-11 -3.71756e-11 55.4806

50.5583 -2.92701 -5.33623e-11
-2.92701 49.4273 -3.27508e-12
-5.33623e-11 -3.27508e-12 49.2715

51.4334 4.89803 -4.06418e-11
4.89803 56.7323 -1.46422e-11
-4.06418e-11 -1.46422e-11 55.017

57.6569 2.2626 -1.82973e-11
2.2626 60.8877 -4.62297e-12
-1.82973e-11 -4.62297e-12 59.1104

57.7468 3.42609 -8.28215e-12
3.42609 59.5108 -5.68242e-12
-8.28215e-12 -5.68242e-12 58.8113

49.8529 -4.60759 -1.34611e-12
-4.60759 55.2299 -2.75453e-11
-1.34611e-12 -2.75453e-11 52.5147

50.2197 4.18358 -1.92605e-11
4.18358 54.2268 2.29225e-11
-1.92605e-11 2.29225e-11 52.2993

47.0056 5.26941 1.29053e-11
5.26941 54.3574 -2.04177e-11
1.29053e-11 -2.04177e-11 54.1317

42.4281 0.495398 -3.64984e-11
0.495398 51.5268 2.50441e-11
-3.64984e-11 2.50441e-11 46.9602

43.8965 1.147 2.71603e-11
1.147 50.3087 2.85122e-11
2.71603e-11 2.85122e-11 46.7478

50.6421 3.25089 9.92451e-12
3.25089 50.0862 -6.93593e-12
9.92451e-12 -6.93593e-12 51.3026

45.3363 2.73369 -7.13666e-12
2.73369 45.0014 -2.69669e-11
-7.13666e-12 -2.69669e-11 44.391

45.2798 -2.8313 6.35588e-12
-2.8313 51.8711 2.19615e-11
6.35588e-12 2.19615e-11 49.2066

53.2057 -4.94509 2.292e-11
-4.94509 58.6084 -3.66126e-12
2.292e-11 -3.66126e-12 56.6075

30.0781 1.63983 3.06361e-11
1.63983 32.4089 -3.85233e-12
3.06361e-11 -3.85233e-12 30.3314

31.8854 1.70958 5.89571e-11
1.70958 30.5517 1.15015e-12
5.89571e-11 1.15015e-12 30.3256

39.0912 -3.66226 2.81293e-11
-3.66226 39.998 -6.16329e-12
2.81293e-11 -6.16329e-12 38.1972

50.8282 -3.40351 1.21356e-11
-3.40351 51.2527 -2.61956e-11
1.21356e-11 -2.61956e-11 51.3672

53.5538 -1.01771 7.90153e-12
-1.01771 45.3742 -1.84947e-11
7.90153e-12 -1.84947e-11 49.5813

67.97 3.6845 1.13977e-10
3.6845 70.0237 -5.97012e-11
1.13977e-10 -5.97012e-11 65.7085

70.9102 -4.00854 1.52465e-10
-4.00854 65.1223 7.68368e-11
1.52465e-10 7.68368e-11 65.3267

49.3936 -5.03087 3.86728e-13
-5.03087 54.5855 -2.61979e-11
3.86728e-13 -2.61979e-11 51.9661

62.0799 0.933556 1.61782e-11
0.933556 59.9057 -2.87e-11
1.61782e-11 -2.87e-11 61.2223

63.5703 -3.81984 -2.81173e-11
-3.81984 63.6991 2.7048e-12
-2.81173e-11 2.7048e-12 62.009

53.7969 -1.32844 -1.54055e-12
-1.32844 46.4117 1.73365e-11
-1.54055e-12 1.73365e-11 51.3118

48.0217 -5.22141 3.08205e-11
-5.22141 54.1135 -6.16579e-12
3.08205e-11 -6.16579e-12 54.1608

31.5654 -3.19896 1.27153e-11
-3.19896 32.9375 1.77233e-11
1.27153e-11 1.77233e-11 31.5031

32.7508 2.33143 -2.98664e-11
2.33143 32.6256 -1.75315e-11
-2.98664e-11 -1.75315e-11 31.7592

32.6057 -1.90689 -2.08079e-11
-1.90689 37.2063 1.38678e-11
-2.08079e-11 1.38678e-11 33.7071

33.2899 -2.09161 1.5607e-11
-2.09161 37.7728 -9.63296e-12
1.5607e-11 -9.63296e-12 34.3121

37.6284 -1.58846 -2.53377e-11
-1.58846 32.6388 -1.0793e-11
-2.53377e-11 -1.0793e-11 33.7227

40.2449 2.82904 9.82621e-12
2.82904 39.6766 2.52409e-11
9.82621e-12 2.52409e-11 38.6363

51.3546 -5.59286 2.08981e-11
-5.59286 57.6585 7.51153e-12
2.08981e-11 7.51153e-12 55.0997

29.5817 0.284005 2.92825e-11
0.284005 35.3699 3.08295e-11
2.92825e-11 3.08295e-11 31.6334

34.9205 -0.848007 -1.29166e-11
-0.848007 29.401 -1.42606e-11
-1.29166e-11 -1.42606e-11 31.6102

60.2746 0.435925 -1.98351e-11
0.435925 66.0994 1.926e-11
-1.98351e-11 1.926e-11 61.6393

60.0133 -2.27528 9.58752e-13
-2.27528 62.1783 1.26062e-10
9.58752e-13 1.26062e-10 60.9016

56.9727 -2.61185 4.24201e-12
-2.61185 51.5395 -2.04139e-11
4.24201e-12 -2.04139e-11 54.5789

56.7488 -0.163066 8.47674e-12
-0.163066 44.2869 -6.54904e-12
8.47674e-12 -6.54904e-12 54.0306

37.5549 -2.80763 -9.44197e-12
-2.80763 42.752 -3.198e-11
-9.44197e-12 -3.198e-11 39.4731

38.911 -2.80097 -1.04001e-11
-2.80097 43.6475 -5.12486e-11
-1.04001e-11 -5.12486e-11 39.9964

54.4019 -0.1553 5.58834e-12
-0.1553 46.2827 -5.43204e-11
5.58834e-12 -5.43204e-11 51.5985

46.723 -3.84638 -5.68312e-12
-3.84638 52.4096 9.44067e-12
-5.68312e-12 9.44067e-12 49.5195

62.3479 0.0563721 -2.54918e-11
0.0563721 60.4404 1.44431e-11
-2.54918e-11 1.44431e-11 61.0921

60.8201 1.14979 3.93349e-11
1.14979 61.5229 5.16189e-11
3.93349e-11 5.16189e-11 61.0491

54.9145 -3.62413 -5.81461e-13
-3.62413 52.4737 5.66297e-11
-5.81461e-13 5.66297e-11 54.0115

49.2744 -3.70207 1.15841e-12
-3.70207 51.7706 -3.2749e-11
1.15841e-12 -3.2749e-11 51.7421

55.8616 -2.60264 -1.55968e-11
-2.60264 47.5926 -3.27461e-11
-1.55968e-11 -3.27461e-11 52.9232

47.8666 -3.26034 3.06263e-11
-3.26034 52.8081 6.16529e-12
3.06263e-11 6.16529e-12 51.466

25.2841 -6.21109 -1.1175e-11
-6.21109 25.8871 -1.58001e-11
-1.1175e-11 -1.58001e-11 25.8675

44.5255 -1.43006 -3.85155e-12
-1.43006 50.2837 -1.86865e-11
-3.85155e-12 -1.86865e-11 46.9498

42.9822 -1.07722 -4.4294e-12
-1.07722 51.5054 -3.66029e-11
-4.4294e-12 -3.66029e-11 47.0483

59.5943 -0.525223 1.96442e-11
-0.525223 68.6184 1.19387e-11
1.96442e-11 1.19387e-11 62.1797

60.3378 -0.621264 2.48483e-11
-0.621264 61.8192 4.91274e-12
2.48483e-11 4.91274e-12 61.1525

61.3496 -0.34949 -5.41298e-11
-0.34949 51.0621 1.81032e-11
-5.41298e-11 1.81032e-11 57.0793

60.5607 0.172351 1.92975e-13
0.172351 51.4442 -2.27285e-11
1.92975e-13 -2.27285e-11 57.0426

56.4954 2.71673 -4.85374e-11
2.71673 54.8825 -4.43027e-12
-4.85374e-11 -4.43027e-12 56.8057

57.5371 -4.87646 7.78181e-11
-4.87646 54.5502 8.46745e-12
7.78181e-11 8.46745e-12 56.6298

62.3489 0.971283 -1.38668e-11
0.971283 61.8343 3.27418e-11
-1.38668e-11 3.27418e-11 61.2645

64.3774 -1.73967 -2.65804e-11
-1.73967 61.9208 6.74793e-12
-2.65804e-11 6.74793e-12 61.5064

66.3749 -1.90003 1.76004e-11
-1.90003 64.2563 2.3113e-11
1.76004e-11 2.3113e-11 63.9715

66.9383 5.70433 -1.45382e-11
5.70433 69.4199 1.57893e-11
-1.45382e-11 1.57893e-11 65.1204

53.6002 -5.03713 -9.67504e-12
-5.03713 58.8894 -4.31469e-11
-9.67504e-12 -4.31469e-11 56.9981

51.1186 6.23565 5.15502e-12
6.23565 55.2815 5.16226e-11
5.15502e-12 5.16226e-11 56.2129

49.7 2.52088 3.44804e-11
2.52088 45.6186 4.50773e-11
3.44804e-11 4.50773e-11 47.8684

46.0474 -2.15053 -1.8493e-11
-2.15053 53.0518 -2.81255e-11
-1.8493e-11 -2.81255e-11 49.8551

48.561 -3.26192 1.58935e-11
-3.26192 53.222 -1.88792e-11
1.58935e-11 -1.88792e-11 50.2282

49.9384 -2.65345 -5.48124e-11
-2.65345 46.3471 4.97015e-11
-5.48124e-11 4.97015e-11 47.9728

48.3763 2.45433 -2.28281e-11
2.45433 52.5483 1.25209e-11
-2.28281e-11 1.25209e-11 49.8719

45.9996 1.44921 -4.9701e-14
1.44921 53.2276 3.62175e-11
-4.9701e-14 3.62175e-11 49.8184

47.0149 3.48342 3.88138e-11
3.48342 46.8467 -6.94119e-12
3.88138e-11 -6.94119e-12 47.1206

54.3347 4.17832 -1.15648e-12
4.17832 57.8636 3.46697e-12
-1.15648e-12 3.46697e-12 57.1388

53.497 -5.5843 3.37087e-11
-5.5843 55.7565 -5.74019e-11
3.37087e-11 -5.74019e-11 56.6264

47.5912 -4.26608 1.31941e-11
-4.26608 47.9443 -3.65781e-12
1.31941e-11 -3.65781e-12 47.2754

57.567 1.23636 -6.5495e-12
1.23636 52.2503 -1.32917e-11
-6.5495e-12 -1.32917e-11 55.464

75.4471 -1.88375 7.43414e-11
-1.88375 74.3746 2.69688e-12
7.43414e-11 2.69688e-12 67.59

64.2933 1.14653 2.06075e-11
1.14653 65.3865 -3.16837e-11
2.06075e-11 -3.16837e-11 63.9269

52.5833 -4.22564 7.69782e-13
-4.22564 56.7508 5.58731e-12
7.69782e-13 5.58731e-12 54.6281

53.9048 -4.18688 -1.07822e-11
-4.18688 49.4374 -3.77533e-11
-1.07822e-11 -3.77533e-11 52.4116

62.2806 -0.362152 -2.04121e-11
-0.362152 57.7278 -1.19395e-11
-2.04121e-11 -1.19395e-11 59.5732

31.3985 -2.94129 -2.02255e-11
-2.94129 32.5323 -1.17564e-11
-2.02255e-11 -1.17564e-11 30.8167

32.8134 -2.62538 -5.19962e-12
-2.62538 31.0161 -1.12659e-11
-5.19962e-12 -1.12659e-11 30.862

62.095 0.28836 -3.00984e-11
0.28836 53.1721 2.25329e-11
-3.00984e-11 2.25329e-11 58.1842

60.6049 -0.226432 4.06858e-12
-0.226432 53.5492 -1.65634e-11
4.06858e-12 -1.65634e-11 57.9895

62.4363 -0.0545307 5.66311e-11
-0.0545307 55.3512 -6.35847e-12
5.66311e-11 -6.35847e-12 59.4422

48.5766 1.78493 3.41564e-12
1.78493 43.4972 2.70077e-12
3.41564e-12 2.70077e-12 44.9552

55.1701 -2.69276 -1.39585e-12
-2.69276 57.2364 -1.23275e-11
-1.39585e-12 -1.23275e-11 56.1896

54.6096 3.26981 -8.71029e-12
3.26981 54.6951 -2.77453e-11
-8.71029e-12 -2.77453e-11 55.788

69.7758 -2.99023 2.50358e-11
-2.99023 63.0981 -4.01656e-11
2.50358e-11 -4.01656e-11 64.6589

73.2598 -0.319137 -3.1199e-11
-0.319137 76.4011 -7.624e-11
-3.1199e-11 -7.624e-11 67.6295

50.0659 -4.74619 1.84897e-11
-4.74619 55.8807 1.8106e-11
1.84897e-11 1.8106e-11 53.5732

52.476 -3.33201 -5.3942e-12
-3.33201 47.3746 -2.46577e-11
-5.3942e-12 -2.46577e-11 49.92

59.3768 0.730278 -7.45618e-12
0.730278 56.6168 -2.81195e-11
-7.45618e-12 -2.81195e-11 58.14

60.1961 0.11348 -2.48497e-11
0.11348 56.0245 -3.0817e-11
-2.48497e-11 -3.0817e-11 58.1133

50.3777 -1.90906 -3.82167e-13
-1.90906 56.1525 -1.73385e-11
-3.82167e-13 -1.73385e-11 54.3063

49.7488 -3.49933 7.71457e-13
-3.49933 53.9872 -7.8975e-12
7.71457e-13 -7.8975e-12 54.3491

26.4754 5.25199 -5.0098e-11
5.25199 25.6397 1.4447e-11
-5.0098e-11 1.4447e-11 26.1981

56.4039 2.801 4.43079e-12
2.801 59.8595 1.82978e-11
4.43079e-12 1.82978e-11 58.6479

56.1785 -3.64554 2.86983e-11
-3.64554 59.3044 2.46524e-11
2.86983e-11 2.46524e-11 58.3897

48.5491 -3.31085 8.67106e-12
-3.31085 54.7034 -4.96986e-11
8.67106e-12 -4.96986e-11 53.371

49.3993 -2.23579 6.3564e-12
-2.23579 44.7788 9.65561e-13
6.3564e-12 9.65561e-13 45.5667

54.9174 2.42888 3.08265e-12
2.42888 54.1229 3.87153e-11
3.08265e-12 3.87153e-11 54.6747

57.1247 2.54995 5.97263e-12
2.54995 57.5478 2.1379e-11
5.97263e-12 2.1379e-11 57.6004

58.5414 -3.9269 7.97408e-11
-3.9269 55.2424 -9.63365e-12
7.97408e-11 -9.63365e-12 57.291

56.3288 0.981306 -2.92791e-11
0.981306 47.8861 4.16036e-11
-2.92791e-11 4.16036e-11 53.6787

61.8943 -0.452129 3.15487e-12
-0.452129 59.1442 2.27256e-11
3.15487e-12 2.27256e-11 60.3836

63.0406 0.707879 -3.52617e-11
0.707879 57.5932 3.58219e-11
-3.52617e-11 3.58219e-11 60.2872

65.3036 1.30155 -2.61914e-11
1.30155 74.0374 -5.08508e-11
-2.61914e-11 -5.08508e-11 65.2587

63.7153 0.246199 -4.46826e-11
0.246199 68.9082 3.44726e-11
-4.46826e-11 3.44726e-11 64.2267

25.9874 -1.34363 -5.51089e-11
-1.34363 22.5511 2.92868e-11
-5.51089e-11 2.92868e-11 26.6225

21.2376 -0.892944 1.98527e-11
-0.892944 26.3348 3.50697e-11
1.98527e-11 3.50697e-11 26.4217

53.001 -4.18013 1.48255e-11
-4.18013 58.0523 6.62631e-11
1.48255e-11 6.62631e-11 55.5818

52.1218 3.62574 1.24224e-11
3.62574 54.4089 -3.08113e-12
1.24224e-11 -3.08113e-12 55.0291

51.555 -5.59312 3.35138e-11
-5.59312 57.6808 1.21338e-11
3.35138e-11 1.21338e-11 55.0314

25.471 1.43191 -4.25813e-11
1.43191 25.2674 -4.54802e-11
-4.25813e-11 -4.54802e-11 26.7264

25.905 2.15915 2.31235e-11
2.15915 24.4885 5.78202e-12
2.31235e-11 5.78202e-12 26.6844

59.2801 4.57385 5.81832e-11
4.57385 73.8486 -3.73682e-11
5.81832e-11 -3.73682e-11 64.8683

64.2728 -3.60721 -6.51344e-11
-3.60721 71.1454 2.15723e-11
-6.51344e-11 2.15723e-11 65.3308

52.6122 3.3799 -5.76132e-13
3.3799 52.7575 5.41268e-11
-5.76132e-13 5.41268e-11 53.3843

47.9551 -4.03375 -5.01162e-12
-4.03375 50.3367 3.27491e-11
-5.01162e-12 3.27491e-11 48.5938

52.1824 -4.00706 5.04189e-11
-4.00706 55.2205 -2.02256e-11
5.04189e-11 -2.02256e-11 54.3043

51.9346 4.03349 1.45365e-13
4.03349 53.4575 -2.46571e-11
1.45365e-13 -2.46571e-11 54.1831

49.0886 -4.67904 9.72814e-12
-4.67904 52.8202 -5.39461e-12
9.72814e-12 -5.39461e-12 50.9962

47.3852 3.25268 5.08564e-11
3.25268 49.1371 2.73566e-11
5.08564e-11 2.73566e-11 48.4412

32.6158 -1.7062 -1.79174e-11
-1.7062 37.7248 1.57976e-11
-1.79174e-11 1.57976e-11 34.2451

33.6499 -1.46784 2.83172e-11
-1.46784 37.7586 1.36793e-11
2.83172e-11 1.36793e-11 34.2979

37.9456 -1.19491 -3.17687e-12
-1.19491 33.1207 6.35603e-12
-3.17687e-12 6.35603e-12 34.0982

48.256 3.64971 -1.00158e-11
3.64971 51.1367 -2.15755e-11
-1.00158e-11 -2.15755e-11 50.7353

29.6519 -0.18796 -4.16184e-11
-0.18796 35.1317 4.97076e-11
-4.16184e-11 4.97076e-11 31.67

34.9109 0.373745 -1.53139e-11
0.373745 30.2437 1.93117e-12
-1.53139e-11 1.93117e-12 31.6438

54.8177 -3.82425 6.10052e-11
-3.82425 58.4968 5.21978e-11
6.10052e-11 5.21978e-11 57.2141

54.5178 4.64572 -1.54496e-11
4.64572 55.6649 1.92341e-12
-1.54496e-11 1.92341e-12 56.8851

55.557 -3.04611 -1.35783e-11
-3.04611 59.0517 -1.50259e-11
-1.35783e-11 -1.50259e-11 57.7521

55.3567 4.10915 -9.48871e-12
4.10915 58.0293 -1.88783e-11
-9.48871e-12 -1.88783e-11 57.7089

24.3461 -2.74158 -1.05948e-11
-2.74158 24.7539 -2.69673e-12
-1.05948e-11 -2.69673e-12 26.1248

24.3039 -2.67297 2.90962e-11
-2.67297 25.0422 -1.27186e-11
2.90962e-11 -1.27186e-11 26.224

51.1668 3.40416 1.30983e-11
3.40416 51.9206 -1.03991e-11
1.30983e-11 -1.03991e-11 52.4081

51.5984 -3.69408 2.1282e-11
-3.69408 54.2905 4.23839e-12
2.1282e-11 4.23839e-12 52.7007

62.6694 -0.962606 1.23276e-11
-0.962606 66.9808 3.25488e-11
1.23276e-11 3.25488e-11 62.716

61.5605 -1.15318 -4.62265e-11
-1.15318 62.5103 5.58364e-12
-4.62265e-11 5.58364e-12 61.8249

55.0072 -3.9794 2.75888e-11
-3.9794 61.0554 1.98393e-11
2.75888e-11 1.98393e-11 58.417

53.4627 4.25557 -4.09262e-12
4.25557 59.1793 3.7752e-11
-4.09262e-12 3.7752e-11 58.0094

61.2925 -0.0554907 -5.87556e-12
-0.0554907 56.5361 -7.69966e-12
-5.87556e-12 -7.69966e-12 59.6522

59.7714 0.903038 2.15763e-11
0.903038 57.2338 -2.96572e-11
2.15763e-11 -2.96572e-11 59.5291

53.4937 3.78422 2.6944e-12
3.78422 56.1922 5.20027e-12
2.6944e-12 5.20027e-12 55.4201

53.6364 -4.01009 -3.17824e-11
-4.01009 53.7769 -6.16103e-12
-3.17824e-11 -6.16103e-12 54.7945

61.0289 -1.65307 6.06687e-11
-1.65307 66.4486 -7.67556e-11
6.06687e-11 -7.67556e-11 62.6869

64.874 1.60833 -5.00885e-12
1.60833 62.7303 9.24429e-12
-5.00885e-12 9.24429e-12 62.7882

68.3173 -3.91422 2.04109e-11
-3.91422 65.4075 -3.4284e-11
2.04109e-11 -3.4284e-11 63.7524

61.8543 -0.689986 -5.97002e-12
-0.689986 70.9267 3.08126e-12
-5.97002e-12 3.08126e-12 63.5482

63.3996 1.10064 7.45131e-11
1.10064 62.3461 2.39236e-11
7.45131e-11 2.39236e-11 62.3384

61.9636 0.14165 2.86808e-11
0.14165 66.599 4.04447e-11
2.86808e-11 4.04447e-11 63.5633

65.4574 -1.20491 -5.26297e-11
-1.20491 61.2548 1.07547e-11
-5.26297e-11 1.07547e-11 62.5299

65.8125 -0.445523 -3.38605e-11
-0.445523 63.5376 -3.63997e-11
-3.38605e-11 -3.63997e-11 63.7165

62.8705 -2.17769 7.9205e-11
-2.17769 65.0777 -2.95458e-10
7.9205e-11 -2.95458e-10 63.1213

65.6691 5.24992 -8.40517e-11
5.24992 70.1658 -2.23428e-10
-8.40517e-11 -2.23428e-10 64.7449

79.0138 1.50971 2.29341e-10
1.50971 77.9219 -1.23612e-10
2.29341e-10 -1.23612e-10 69.6291

80.8886 -2.50765 8.18196e-10
-2.50765 61.2812 8.96422e-11
8.18196e-10 8.96422e-11 66.7095

64.2204 -2.83255 4.1488e-11
-2.83255 63.9315 -8.49368e-11
4.1488e-11 -8.49368e-11 62.8625

59.6722 -2.08457 -1.06317e-10
-2.08457 63.211 6.93439e-12
-1.06317e-10 6.93439e-12 60.9289

66.1209 4.89957 5.67794e-12
4.89957 64.4405 -1.30934e-11
5.67794e-12 -1.30934e-11 63.4147

59.8734 2.74909 6.06676e-11
2.74909 61.4988 3.62112e-11
6.06676e-11 3.62112e-11 60.769

67.5168 5.61076 2.20143e-11
5.61076 72.3976 -2.3879e-11
2.20143e-11 -2.3879e-11 65.9725

65.6966 -0.604309 2.69395e-11
-0.604309 64.3736 1.98371e-11
2.69395e-11 1.98371e-11 64.014

59.4845 -1.85632 -7.95473e-11
-1.85632 62.3585 4.43049e-12
-7.95473e-11 4.43049e-12 61.0371

63.9819 -1.11407 2.92518e-12
-1.11407 63.823 6.39421e-11
2.92518e-12 6.39421e-11 62.9545

60.7806 4.59623 2.49424e-11
4.59623 63.4529 1.04056e-11
2.49424e-11 1.04056e-11 61.6014

62.2169 3.048 -2.88551e-12
3.048 65.0681 9.62846e-12
-2.88551e-12 9.62846e-12 62.8797

50.3648 1.07433 2.11575e-12
1.07433 57.9991 -1.54306e-12
2.11575e-12 -1.54306e-12 54.6262

58.4438 -0.414456 -2.88897e-11
-0.414456 60.6179 -1.65654e-11
-2.88897e-11 -1.65654e-11 58.8872

53.6262 1.03103 -4.67352e-12
1.03103 45.1649 6.74056e-12
-4.67352e-12 6.74056e-12 49.2412

51.3405 0.249752 -8.76906e-12
0.249752 43.5072 -8.67071e-12
-8.76906e-12 -8.67071e-12 46.3609

51.6526 1.21616 -1.90689e-11
1.21616 61.7739 1.27112e-11
-1.90689e-11 1.27112e-11 57.5546

59.5988 0.31605 -2.69773e-12
0.31605 62.7256 2.83131e-11
-2.69773e-12 2.83131e-11 61.8576

51.6375 -0.397208 -4.52312e-12
-0.397208 43.6606 -2.31274e-12
-4.52312e-12 -2.31274e-12 46.7022

59.4435 -0.237547 -2.8814e-13
-0.237547 50.1275 -1.54091e-11
-2.8814e-13 -1.54091e-11 55.2884

35.2492 -2.38434 4.33505e-12
-2.38434 40.5282 -4.62593e-12
4.33505e-12 -4.62593e-12 36.898

38.5268 3.86258 -1.3294e-11
3.86258 42.6479 1.42549e-11
-1.3294e-11 1.42549e-11 38.7687

40.5692 3.65574 2.83189e-11
3.65574 36.6171 4.39353e-11
2.83189e-11 4.39353e-11 37.5897

60.5648 4.41833 -1.17491e-11
4.41833 63.2222 -5.3925e-12
-1.17491e-11 -5.3925e-12 61.4254

57.2157 -1.49863 8.66942e-12
-1.49863 61.7001 -2.69655e-11
8.66942e-12 -2.69655e-11 59.2554

51.5164 3.76508 -1.59184e-12
3.76508 53.5067 -1.86858e-11
-1.59184e-12 -1.86858e-11 51.4674

57.2199 3.32401 3.50546e-11
3.32401 61.6891 -2.00269e-11
3.50546e-11 -2.00269e-11 59.9914

51.0765 -1.19546 -1.1554e-11
-1.19546 61.7725 -5.77612e-12
-1.1554e-11 -5.77612e-12 57.3049

55.0355 -0.741441 -2.83185e-11
-0.741441 46.9346 1.77174e-11
-2.83185e-11 1.77174e-11 51.6742

41.9299 1.76259 -2.41804e-11
1.76259 47.372 3.46686e-12
-2.41804e-11 3.46686e-12 42.3903

38.4159 -0.460887 1.38703e-11
-0.460887 45.5645 7.75528e-13
1.38703e-11 7.75528e-13 40.6442

45.6277 1.79622 1.17537e-11
1.79622 39.6172 4.12295e-11
1.17537e-11 4.12295e-11 41.0066

47.5356 -1.86249 -1.2136e-11
-1.86249 41.2521 -4.2335e-12
-1.2136e-11 -4.2335e-12 43.5844

44.8318 3.2069 -1.69546e-11
3.2069 49.9251 2.69399e-12
-1.69546e-11 2.69399e-12 46.9067

50.8418 -2.43497 -1.61762e-11
-2.43497 52.6685 -1.34892e-12
-1.61762e-11 -1.34892e-12 50.174

54.1779 -1.19953 -3.80592e-12
-1.19953 45.2972 3.60173e-11
-3.80592e-12 3.60173e-11 49.7786

35.9147 2.42731 -1.04049e-11
2.42731 38.6976 3.08251e-11
-1.04049e-11 3.08251e-11 35.0317

58.2093 0.254866 9.41447e-12
0.254866 48.6388 5.20117e-12
9.41447e-12 5.20117e-12 54.0122

37.19 2.6221 1.73395e-11
2.6221 34.6165 3.35221e-11
1.73395e-11 3.35221e-11 34.2683

57.7206 0.288972 2.3881e-11
0.288972 63.5063 1.6181e-11
2.3881e-11 1.6181e-11 59.8209

62.9405 1.52265 -2.86965e-11
1.52265 64.3531 1.04003e-11
-2.86965e-11 1.04003e-11 63.123

65.4376 -3.9122 1.90903e-11
-3.9122 65.8439 1.15532e-11
1.90903e-11 1.15532e-11 63.9884

67.0559 1.70184 -1.62745e-11
1.70184 64.3371 8.2818e-12
-1.62745e-11 8.2818e-12 64.0169

44.8682 -0.556907 -1.71457e-11
-0.556907 38.732 1.15606e-11
-1.71457e-11 1.15606e-11 39.9005

49.7107 4.5827 3.17764e-12
4.5827 52.2675 -2.562e-11
3.17764e-12 -2.562e-11 50.5364

60.502 0.682692 -1.35951e-12
0.682692 59.6161 -1.81069e-11
-1.35951e-12 -1.81069e-11 59.5802

59.1219 -2.08617 -8.70171e-12
-2.08617 58.6917 4.69981e-11
-8.70171e-12 4.69981e-11 59.362

60.3485 -0.272633 4.16506e-12
-0.272633 49.3991 1.09784e-11
4.16506e-12 1.09784e-11 55.4168

44.1664 3.7899 1.94585e-11
3.7899 47.9754 -1.9255e-12
1.94585e-11 -1.9255e-12 46.1083

48.8799 -3.45504 -2.58068e-11
-3.45504 51.5936 -1.9263e-11
-2.58068e-11 -1.9263e-11 49.2258

48.1154 -2.43826 -3.27235e-12
-2.43826 44.0627 -3.46686e-12
-3.27235e-12 -3.46686e-12 44.9901

58.8461 -0.578507 -1.20415e-12
-0.578507 48.0178 -1.5412e-12
-1.20415e-12 -1.5412e-12 54.1373

46.6388 4.46935 5.39398e-12
4.46935 51.1629 -3.58311e-11
5.39398e-12 -3.58311e-11 47.3704

43.7078 -3.08322 -2.33082e-11
-3.08322 47.6691 -1.15602e-11
-2.33082e-11 -1.15602e-11 45.6369

47.4044 4.13356 -3.39987e-11
4.13356 51.7715 2.49852e-12
-3.39987e-11 2.49852e-12 48.0534

43.8863 -2.47735 1.78159e-11
-2.47735 49.9563 4.62385e-11
1.78159e-11 4.62385e-11 46.4958

58.7737 -2.04867 1.88762e-11
-2.04867 60.4961 -1.34843e-11
1.88762e-11 -1.34843e-11 59.5974

48.9537 2.88131 3.0047e-11
2.88131 56.1695 2.35053e-11
3.0047e-11 2.35053e-11 53.9164

43.9329 -3.59478 -7.99642e-12
-3.59478 42.4666 1.55997e-11
-7.99642e-12 1.55997e-11 42.2565

27.7629 -3.18125 1.79224e-11
-3.18125 27.3077 -2.7169e-11
1.79224e-11 -2.7169e-11 27.5003

26.2698 -3.41863 -2.92842e-11
-3.41863 27.9849 -2.50495e-11
-2.92842e-11 -2.50495e-11 27.2808

55.8099 5.35682 -3.49585e-11
5.35682 61.4927 -3.06309e-11
-3.49585e-11 -3.06309e-11 58.9725

50.4982 -3.49227 -3.65934e-12
-3.49227 58.8219 3.85225e-12
-3.65934e-12 3.85225e-12 56.5982

26.4693 -0.687216 -2.04297e-11
-0.687216 26.5027 2.46643e-11
-2.04297e-11 2.46643e-11 27.8053

27.0681 -0.737276 -3.15929e-11
-0.737276 27.5995 -4.27788e-11
-3.15929e-11 -4.27788e-11 28.2276

62.6121 3.06546 -6.16033e-12
3.06546 59.3576 -8.51171e-16
-6.16033e-12 -8.51171e-16 60.4041

66.8492 -2.33542 3.69779e-11
-2.33542 62.2591 5.59175e-12
3.69779e-11 5.59175e-12 64.5434

55.7423 -0.106041 4.71902e-11
-0.106041 47.9715 3.54473e-11
4.71902e-11 3.54473e-11 53.4963

62.0667 4.30759 -3.3902e-11
4.30759 58.9087 -2.004e-11
-3.3902e-11 -2.004e-11 60.2126

65.8787 -3.10997 4.00749e-11
-3.10997 59.612 -5.12211e-11
4.00749e-11 -5.12211e-11 63.4248

45.7932 3.04265 -6.16433e-12
3.04265 52.233 -6.1263e-11
-6.16433e-12 -6.1263e-11 49.619

52.1077 -2.40013 7.66794e-13
-2.40013 55.7851 3.27468e-11
7.66794e-13 3.27468e-11 53.5001

65.9035 1.50307 5.8745e-11
1.50307 61.3656 7.85028e-12
5.8745e-11 7.85028e-12 62.6379

63.7776 -1.97693 1.88983e-11
-1.97693 62.4388 2.80679e-11
1.88983e-11 2.80679e-11 62.426

57.109 4.64668 -2.81262e-11
4.64668 53.9717 -9.25112e-12
-2.81262e-11 -9.25112e-12 56.2225

61.3517 -3.67434 -5.57695e-12
-3.67434 56.4546 -4.41575e-11
-5.57695e-12 -4.41575e-11 59.557

39.6671 -2.4845 9.53511e-12
-2.4845 35.6823 5.00936e-12
9.53511e-12 5.00936e-12 36.432

61.2737 -0.127128 -1.30971e-11
-0.127128 69.2609 -6.24046e-11
-1.30971e-11 -6.24046e-11 63.0682

66.4999 0.932436 1.36735e-11
0.932436 69.0966 -1.72369e-11
1.36735e-11 -1.72369e-11 67.6337

31.6591 -0.438082 1.21398e-11
-0.438082 36.2663 -1.73409e-11
1.21398e-11 -1.73409e-11 32.8774

36.0624 -0.544421 1.24321e-11
-0.544421 32.1095 -1.61829e-11
1.24321e-11 -1.61829e-11 32.8241

47.3647 2.58108 -2.17653e-11
2.58108 55.5073 1.19419e-11
-2.17653e-11 1.19419e-11 52.6822

55.0818 -1.5067 -4.815e-12
-1.5067 59.1438 -1.65673e-11
-4.815e-12 -1.65673e-11 57.2332

76.5249 -0.891912 -9.82209e-11
-0.891912 79.5759 5.42924e-11
-9.82209e-11 5.42924e-11 69.3109

76.9971 -2.84073 -7.24071e-11
-2.84073 68.4113 -7.49276e-11
-7.24071e-11 -7.49276e-11 70.3761

55.6388 4.12796 -4.23491e-12
4.12796 49.7352 -3.19759e-11
-4.23491e-12 -3.19759e-11 53.5451

58.1399 -2.72233 -5.77627e-12
-2.72233 51.2751 -6.55054e-12
-5.77627e-12 -6.55054e-12 55.638

44.3473 0.0693018 1.48342e-11
0.0693018 37.6678 -2.36942e-11
1.48342e-11 -2.36942e-11 39.3537

52.2114 0.133882 6.16603e-12
0.133882 45.088 -1.73319e-11
6.16603e-12 -1.73319e-11 48.3212

47.9397 2.00686 1.04984e-11
2.00686 41.2522 4.24159e-12
1.04984e-11 4.24159e-12 43.1839

59.2693 0.734953 -9.9211e-12
0.734953 54.3598 1.40597e-11
-9.9211e-12 1.40597e-11 57.6153

60.5211 -1.45888 -2.33278e-11
-1.45888 69.1879 -1.30995e-11
-2.33278e-11 -1.30995e-11 63.953

64.865 0.74923 1.6491e-10
0.74923 65.5 -3.69786e-11
1.6491e-10 -3.69786e-11 64.0933

42.522 3.48292 4.04669e-12
3.48292 43.9056 1.93697e-13
4.04669e-12 1.93697e-13 40.8297

48.5194 -3.02154 -1.7914e-11
-3.02154 46.8741 -4.23805e-12
-1.7914e-11 -4.23805e-12 48.0459

54.0562 3.31176 -9.63096e-12
3.31176 47.8728 -2.35e-11
-9.63096e-12 -2.35e-11 51.2544

65.8833 1.41929 -3.73633e-11
1.41929 68.6261 1.51133e-11
-3.73633e-11 1.51133e-11 67.1879

64.5559 2.10115 4.23502e-12
2.10115 71.3667 -3.5824e-11
4.23502e-12 -3.5824e-11 64.579

58.5029 -1.75167 -2.77125e-11
-1.75167 55.3557 9.63196e-12
-2.77125e-11 9.63196e-12 57.9712

56.4063 2.71957 1.15557e-11
2.71957 59.7964 1.23292e-11
1.15557e-11 1.23292e-11 57.3642

49.9141 -0.494253 -1.31928e-11
-0.494253 58.2314 -3.85255e-12
-1.31928e-11 -3.85255e-12 54.4867

57.4958 2.05187 -1.00153e-11
2.05187 48.3391 5.39609e-12
-1.00153e-11 5.39609e-12 54.9177

58.583 -0.412868 3.62107e-11
-0.412868 48.5739 4.56529e-11
3.62107e-11 4.56529e-11 55.8214

44.3906 -2.70395 -7.9002e-12
-2.70395 42.6552 3.75647e-11
-7.9002e-12 3.75647e-11 41.3634

60.0785 3.70274 -7.75383e-12
3.70274 52.6382 1.42566e-11
-7.75383e-12 1.42566e-11 57.4478

61.9711 -2.33827 3.93459e-11
-2.33827 52.6813 -2.69597e-11
3.93459e-11 -2.69597e-11 59.1788

55.5732 -1.80829 -4.16089e-11
-1.80829 49.5757 1.32852e-11
-4.16089e-11 1.32852e-11 52.8278

57.7482 2.6889 -2.04158e-11
2.6889 50.9932 1.13639e-11
-2.04158e-11 1.13639e-11 55.4727

58.976 -1.37055 1.6181e-11
-1.37055 51.9106 -1.51181e-11
1.6181e-11 -1.51181e-11 57.0506

54.4741 -1.15114 1.65657e-11
-1.15114 48.1397 -4.43071e-11
1.65657e-11 -4.43071e-11 51.2713

51.5939 4.84143 -4.52684e-11
4.84143 53.9538 -3.47145e-12
-4.52684e-11 -3.47145e-12 54.6179

61.9531 -4.15399 2.61976e-11
-4.15399 59.9336 -2.11865e-11
2.61976e-11 -2.11865e-11 61.0963

48.27 3.26328 2.32125e-11
3.26328 47.1107 3.93015e-11
2.32125e-11 3.93015e-11 45.77

60.6707 -3.03861 7.89446e-12
-3.03861 62.9279 3.46626e-12
7.89446e-12 3.46626e-12 62.446

50.0025 3.37472 -1.17503e-11
3.37472 54.6851 -3.58297e-11
-1.17503e-11 -3.58297e-11 54.8538

48.4172 2.9793 -1.38708e-11
2.9793 41.8711 1.1167e-11
-1.38708e-11 1.1167e-11 44.6486

53.431 -2.66317 4.40138e-11
-2.66317 50.7666 2.88938e-11
4.40138e-11 2.88938e-11 53.2535

54.4096 1.11647 1.15613e-11
1.11647 48.7961 5.3933e-11
1.15613e-11 5.3933e-11 50.8216

44.8258 4.24868 9.24794e-12
4.24868 45.56 4.37315e-11
9.24794e-12 4.37315e-11 43.9696

49.7638 3.43039 -2.13342e-11
3.43039 47.8573 1.15274e-12
-2.13342e-11 1.15274e-12 48.4598

52.3861 1.36561 -2.38845e-11
1.36561 57.7557 -5.58731e-12
-2.38845e-11 -5.58731e-12 55.2924

46.2276 0.383315 4.04257e-12
0.383315 56.7862 -1.96493e-11
4.04257e-12 -1.96493e-11 52.3873

42.9058 -2.61154 2.21504e-12
-2.61154 37.6013 -5.76354e-13
2.21504e-12 -5.76354e-13 38.9931

50.351 -4.74144 1.97447e-11
-4.74144 54.2004 -1.00197e-11
1.97447e-11 -1.00197e-11 54.5806

52.7841 5.20174 4.56504e-11
5.20174 57.7406 1.6185e-11
4.56504e-11 1.6185e-11 55.4947

47.684 -3.84053 -3.29413e-11
-3.84053 48.054 -2.29248e-11
-3.29413e-11 -2.29248e-11 46.025

43.5124 4.62549 1.25229e-11
4.62549 45.8552 7.32303e-12
1.25229e-11 7.32303e-12 43.6428

53.2269 -2.15164 4.45448e-11
-2.15164 48.4798 1.12649e-11
4.45448e-11 1.12649e-11 50.863

60.0334 -0.554036 -4.14104e-12
-0.554036 51.3342 -1.7335e-11
-4.14104e-12 -1.7335e-11 57.0194

61.0903 0.160261 3.86201e-11
0.160261 50.999 2.61958e-11
3.86201e-11 2.61958e-11 57.0222

48.859 -3.60321 -1.21355e-11
-3.60321 49.4925 -1.94528e-11
-1.21355e-11 -1.94528e-11 49.1446

38.484 0.738175 1.96455e-11
0.738175 45.7885 2.65881e-11
1.96455e-11 2.65881e-11 40.5179

35.33 0.633602 -1.21372e-11
0.633602 44.0171 1.04003e-11
-1.21372e-11 1.04003e-11 38.7871

44.0018 0.670564 7.40149e-15
0.670564 36.4499 -1.23308e-11
7.40149e-15 -1.23308e-11 39.2283

41.8427 3.8282 -2.3505e-11
3.8282 40.9497 -1.07855e-11
-2.3505e-11 -1.07855e-11 39.7382

47.968 -3.75794 3.23644e-11
-3.75794 44.2962 2.00358e-11
3.23644e-11 2.00358e-11 45.1534

65.712 4.28831 -3.043e-11
4.28831 71.0314 3.46293e-12
-3.043e-11 3.46293e-12 68.0552

75.5464 -1.12688 5.83533e-11
-1.12688 75.7782 5.85429e-11
5.83533e-11 5.85429e-11 68.1261

49.9512 -1.2758 1.42559e-11
-1.2758 42.5822 1.19433e-11
1.42559e-11 1.19433e-11 45.6742

47.7014 3.38302 3.00476e-11
3.38302 52.7504 -2.08015e-11
3.00476e-11 -2.08015e-11 51.6465

56.5974 -3.82308 4.69957e-11
-3.82308 57.9106 4.624e-12
4.69957e-11 4.624e-12 56.9668

55.8941 1.75156 4.93166e-11
1.75156 47.7432 8.48232e-12
4.93166e-11 8.48232e-12 53.1508

44.7384 3.57274 -2.16697e-11
3.57274 50.6486 2.50355e-12
-2.16697e-11 2.50355e-12 46.1724

40.5269 -1.58933 -5.97659e-12
-1.58933 48.4205 4.58498e-11
-5.97659e-12 4.58498e-11 44.1722

50.1514 3.59565 -5.0112e-12
3.59565 58.8897 -3.62128e-11
-5.0112e-12 -3.62128e-11 56.6783

63.0063 -1.4827 -1.35088e-12
-1.4827 65.1426 -1.38679e-11
-1.35088e-12 -1.38679e-11 64.6926

50.8258 3.63895 -3.56346e-11
3.63895 53.7195 8.08733e-12
-3.56346e-11 8.08733e-12 54.9702

62.4645 -3.68539 -3.27257e-12
-3.68539 62.8965 1.71414e-11
-3.27257e-12 1.71414e-11 63.2116

58.55 0.294783 -3.35187e-11
0.294783 44.7623 1.54085e-11
-3.35187e-11 1.54085e-11 55.5681

45.0659 4.64012 -2.67714e-11
4.64012 42.5082 -5.16306e-11
-2.67714e-11 -5.16306e-11 43.1618

53.5603 5.55389 1.30007e-11
5.55389 60.1234 9.05411e-12
1.30007e-11 9.05411e-12 56.7664

49.8517 -4.11704 1.62789e-11
-4.11704 53.5307 -1.69524e-11
1.62789e-11 -1.69524e-11 54.901

45.8469 3.93007 -7.70732e-12
3.93007 45.3371 5.43277e-11
-7.70732e-12 5.43277e-11 44.9525

39.5321 -2.38814 -4.74909e-11
-2.38814 41.7859 -3.33173e-11
-4.74909e-11 -3.33173e-11 38.992

48.9929 -3.58374 -2.54268e-11
-3.58374 51.4436 -5.39391e-12
-2.54268e-11 -5.39391e-12 51.4095

43.7617 -0.763221 7.125e-12
-0.763221 48.2069 9.82088e-12
7.125e-12 9.82088e-12 43.6751

39.4328 2.03366 2.506e-12
2.03366 46.2979 9.632e-12
2.506e-12 9.632e-12 41.5421

46.3573 -0.78302 1.93031e-12
-0.78302 41.0519 7.13178e-12
1.93031e-12 7.13178e-12 42.132

49.1149 -3.36932 2.86912e-11
-3.36932 48.2799 3.92977e-11
2.86912e-11 3.92977e-11 47.2718

44.795 0.555006 2.04182e-11
0.555006 53.3221 -1.27137e-11
2.04182e-11 -1.27137e-11 48.7516

51.0969 0.7751 -2.21503e-11
0.7751 55.3297 -2.36959e-11
-2.21503e-11 -2.36959e-11 51.5984

40.8632 -3.19125 -1.88751e-11
-3.19125 41.8014 2.12045e-12
-1.88751e-11 2.12045e-12 39.457

37.8728 3.9678 -1.1559e-11
3.9678 40.5454 -1.9984e-15
-1.1559e-11 -1.9984e-15 38.0216

57.1342 0.7636 3.08392e-12
0.7636 49.0015 -1.15553e-11
3.08392e-12 -1.15553e-11 55.8986

57.4097 0.00698242 -2.77417e-11
0.00698242 48.6968 4.19881e-11
-2.77417e-11 4.19881e-11 56.3588

50.2192 4.04799 2.48458e-11
4.04799 52.259 1.96507e-11
2.48458e-11 1.96507e-11 52.5044

57.7794 -3.3606 -4.81556e-12
-3.3606 58.6645 -3.08161e-12
-4.81556e-12 -3.08161e-12 57.9332

55.3162 5.48649 5.23885e-11
5.48649 61.4944 6.36206e-12
5.23885e-11 6.36206e-12 58.6695

49.2456 -3.11661 -1.78192e-11
-3.11661 58.3419 1.88764e-11
-1.78192e-11 1.88764e-11 56.3517

52.5998 3.61488 1.16525e-11
3.61488 53.995 4.04843e-12
1.16525e-11 4.04843e-12 53.7264

39.4834 2.25808 -1.9459e-11
2.25808 35.4758 -1.46379e-11
-1.9459e-11 -1.46379e-11 35.8132

45.9903 -2.05407 3.39035e-11
-2.05407 51.0629 -2.1766e-11
3.39035e-11 -2.1766e-11 47.1567

40.9673 2.77049 -1.19411e-11
2.77049 48.6308 1.54085e-11
-1.19411e-11 1.54085e-11 44.5026

60.6789 3.30679 -8.86461e-12
3.30679 55.1758 1.4827e-11
-8.86461e-12 1.4827e-11 58.2167

63.6673 -1.89968 -2.81179e-11
-1.89968 57.3424 -3.27481e-11
-2.81179e-11 -3.27481e-11 61.2162

54.5684 -3.14547 3.85632e-12
-3.14547 51.4951 4.42587e-12
3.85632e-12 4.42587e-12 52.4834

56.1785 3.90651 -1.46344e-11
3.90651 51.6083 1.3868e-11
-1.46344e-11 1.3868e-11 54.2051

59.0775 -2.72944 -1.11669e-11
-2.72944 54.6764 -3.12021e-11
-1.11669e-11 -3.12021e-11 57.0498

26.647 -1.03922 3.08439e-12
-1.03922 21.8525 9.63363e-12
3.08439e-12 9.63363e-12 27.2049

21.4397 -1.28933 -3.08242e-11
-1.28933 25.8716 -6.66719e-11
-3.08242e-11 -6.66719e-11 26.8955

68.6285 4.40412 7.84558e-15
4.40412 64.5992 -6.62499e-11
7.84558e-15 -6.62499e-11 63.9462

70.8859 -3.09709 -6.04725e-11
-3.09709 62.5954 -1.50281e-11
-6.04725e-11 -1.50281e-11 66.4163

51.495 4.29376 1.75283e-11
4.29376 48.49 -2.96575e-11
1.75283e-11 -2.96575e-11 49.8972

39.5417 2.04343 -1.73374e-11
2.04343 34.6341 -2.52342e-11
-1.73374e-11 -2.52342e-11 35.5491

52.0706 3.83126 2.0034e-11
3.83126 57.9902 3.83345e-11
2.0034e-11 3.83345e-11 54.9495

46.8915 -1.48257 -1.52169e-11
-1.48257 56.7074 1.15537e-12
-1.52169e-11 1.15537e-12 52.8261

42.6574 -3.64595 -3.60181e-11
-3.64595 44.3578 -5.16281e-11
-3.60181e-11 -5.16281e-11 42.6785

57.6358 2.3596 -1.32914e-11
2.3596 61.0776 -5.39454e-12
-1.32914e-11 -5.39454e-12 59.3207

63.6254 -1.33574 2.33008e-11
-1.33574 65.3075 8.37708e-12
2.33008e-11 8.37708e-12 64.7958

46.7868 2.87136 1.38739e-11
2.87136 41.8118 2.94781e-11
1.38739e-11 2.94781e-11 42.8524

51.682 1.54992 -2.1166e-12
1.54992 44.4266 3.46858e-12
-2.1166e-12 3.46858e-12 47.929

47.8624 5.36877 -5.20076e-11
5.36877 54.6438 -2.38915e-11
-5.20076e-11 -2.38915e-11 54.5238

64.0108 -2.75796 7.31567e-12
-2.75796 63.8517 1.94516e-11
7.31567e-12 1.94516e-11 64.1555

48.6943 4.44086 -1.57943e-11
4.44086 54.9611 2.15735e-11
-1.57943e-11 2.15735e-11 51.2234

44.9229 -2.37857 4.58471e-11
-2.37857 52.3045 -2.46554e-11
4.58471e-11 -2.46554e-11 49.4638

52.3692 4.84976 2.23445e-11
4.84976 50.146 1.04061e-11
2.23445e-11 1.04061e-11 52.009

57.0465 -4.12899 -9.24527e-12
-4.12899 53.4746 -1.92596e-11
-9.24527e-12 -1.92596e-11 55.3512

43.2288 1.37588 1.42538e-11
1.37588 52.0732 -1.92675e-12
1.42538e-11 -1.92675e-12 47.5192

48.8543 -0.103147 5.58595e-11
-0.103147 54.0335 7.74196e-13
5.58595e-11 7.74196e-13 50.3853

30.2646 -1.57294 1.81054e-11
-1.57294 32.815 4.97139e-11
1.81054e-11 4.97139e-11 30.4532

32.3971 -1.52639 -8.3721e-11
-1.52639 30.6955 3.07447e-12
-8.3721e-11 3.07447e-12 30.4348

53.7882 2.51814 -2.57123e-11
2.51814 46.4011 1.54085e-11
-2.57123e-11 1.54085e-11 50.8341

77.6715 0.766413 1.92559e-11
0.766413 71.7817 7.74161e-11
1.92559e-11 7.74161e-11 67.8779

76.652 -2.74825 6.70254e-11
-2.74825 66.6999 2.87166e-11
6.70254e-11 2.87166e-11 69.5419

60.5613 -3.64306 -4.45362e-12
-3.64306 64.5227 -1.0017e-11
-4.45362e-12 -1.0017e-11 61.9974

60.8336 1.14137 2.5809e-11
1.14137 62.587 4.46847e-11
2.5809e-11 4.46847e-11 61.6157

57.0837 -0.215942 -9.24853e-12
-0.215942 47.297 -4.04173e-12
-9.24853e-12 -4.04173e-12 51.9628

52.9136 5.96947 -6.16215e-12
5.96947 59.6936 3.87166e-11
-6.16215e-12 3.87166e-11 56.4973

46.7279 -5.60373 1.74296e-11
-5.60373 54.3793 1.53925e-12
1.74296e-11 1.53925e-12 54.2816

32.2825 2.98244 4.61956e-12
2.98244 33.5346 7.24438e-11
4.61956e-12 7.24438e-11 32.0861

34.4 3.13221 2.1172e-12
3.13221 33.9589 -1.46384e-11
2.1172e-12 -1.46384e-11 32.7678

34.5282 -1.14412 1.09851e-11
-1.14412 39.2677 -2.44704e-11
1.09851e-11 -2.44704e-11 35.4283

33.6192 2.36546 -1.15456e-12
2.36546 38.2326 2.27314e-11
-1.15456e-12 2.27314e-11 34.6963

38.6768 -0.572018 -2.44683e-11
-0.572018 33.6721 -6.55002e-12
-2.44683e-11 -6.55002e-12 34.9334

31.3707 1.39393 -1.32951e-11
1.39393 36.9783 3.08222e-11
-1.32951e-11 3.08222e-11 32.9933

35.6479 1.63372 7.89916e-12
1.63372 30.791 -5.35552e-11
7.89916e-12 -5.35552e-11 32.4837

60.0557 0.417823 -6.74024e-12
0.417823 66.2715 -2.15713e-11
-6.74024e-12 -2.15713e-11 61.8301

62.6441 3.14012 -4.42953e-11
3.14012 66.0488 -8.19241e-12
-4.42953e-11 -8.19241e-12 63.8212

58.491 0.50487 -6.07753e-11
0.50487 53.3502 -1.84912e-11
-6.07753e-11 -1.84912e-11 55.3794

60.0676 -0.0963927 2.01309e-11
-0.0963927 48.5253 -1.19425e-11
2.01309e-11 -1.19425e-11 55.1586

41.8638 -1.90024 -3.46116e-12
-1.90024 45.9937 -3.94925e-11
-3.46116e-12 -3.94925e-11 42.3262

38.5866 2.85276 -2.61953e-11
2.85276 43.5946 1.46397e-11
-2.61953e-11 1.46397e-11 40.2951

57.0202 -0.142417 -1.61839e-11
-0.142417 47.0159 -9.62661e-12
-1.61839e-11 -9.62661e-12 52.0436

65.1881 2.43334 1.65669e-11
2.43334 61.2487 -4.77562e-11
1.65669e-11 -4.77562e-11 61.9744

67.7441 -1.73165 3.5454e-11
-1.73165 61.3026 -6.97066e-11
3.5454e-11 -6.97066e-11 64.7212

55.1852 2.35803 3.4816e-11
2.35803 55.8654 2.92803e-11
3.4816e-11 2.92803e-11 55.0375

49.1891 -3.90682 -1.68533e-11
-3.90682 52.4624 1.27122e-11
-1.68533e-11 1.27122e-11 52.3797

51.3053 5.0179 6.06744e-12
5.0179 57.078 -1.44455e-11
6.06744e-12 -1.44455e-11 53.6042

57.2698 0.499165 -4.63257e-11
0.499165 48.9033 3.98706e-11
-4.63257e-11 3.98706e-11 53.5158

41.6871 3.58812 -1.83037e-11
3.58812 40.6744 -1.15641e-12
-1.83037e-11 -1.15641e-12 39.3175

47.1702 -2.9736 -7.32105e-12
-2.9736 53.3577 3.62175e-11
-7.32105e-12 3.62175e-11 51.7707

51.3458 5.36355 -1.03029e-11
5.36355 56.5608 1.88759e-11
-1.03029e-11 1.88759e-11 53.4527

25.949 6.26712 5.18327e-11
6.26712 26.4181 -3.4599e-12
5.18327e-11 -3.4599e-12 26.2665

42.5807 -0.375163 -4.71909e-11
-0.375163 51.9144 -2.04213e-11
-4.71909e-11 -2.04213e-11 47.2073

47.0728 2.04374 -2.08051e-11
2.04374 53.3406 -2.96664e-11
-2.08051e-11 -2.96664e-11 49.2814

59.4725 -0.493679 2.42625e-11
-0.493679 68.7721 1.92846e-12
2.42625e-11 1.92846e-12 62.3675

64.0339 2.48158 -2.79287e-11
2.48158 66.0746 -4.52882e-12
-2.79287e-11 -4.52882e-12 65.075

60.3276 2.02787 1.23274e-11
2.02787 48.8022 4.08347e-11
1.23274e-11 4.08347e-11 57.2719

61.492 -1.38252 -1.81084e-11
-1.38252 47.6427 9.62834e-12
-1.81084e-11 9.62834e-12 58.214

56.1072 2.71831 -2.51857e-11
2.71831 56.788 5.77686e-12
-2.51857e-11 5.77686e-12 57.021

55.5553 -4.09348 -9.43919e-12
-4.09348 56.3823 2.15823e-11
-9.43919e-12 2.15823e-11 57.1563

60.2967 2.30052 1.18702e-11
2.30052 63.7079 1.02085e-11
1.18702e-11 1.02085e-11 61.3968

60.141 -3.21593 -1.32575e-12
-3.21593 61.4061 3.56274e-11
-1.32575e-12 3.56274e-11 61.0168

72.1754 4.22061 -8.55171e-11
4.22061 69.8761 1.30944e-10
-8.55171e-11 1.30944e-10 66.1695

74.4398 -2.9807 3.04369e-11
-2.9807 66.105 3.08193e-11
3.04369e-11 3.08193e-11 68.9043

52.9746 5.91564 1.36789e-11
5.91564 55.6281 -2.08044e-11
1.36789e-11 -2.08044e-11 56.7473

67.5369 -3.1763 -4.37201e-11
-3.1763 63.9701 2.23382e-11
-4.37201e-11 2.23382e-11 65.8801

50.9476 4.38221 4.02592e-11
4.38221 46.4607 -1.46316e-11
4.02592e-11 -1.46316e-11 48.923

51.1858 3.78651 1.3579e-11
3.78651 55.9044 8.6687e-12
1.3579e-11 8.6687e-12 52.3789

45.7906 -1.51291 6.36167e-12
-1.51291 53.7246 -5.50934e-11
6.36167e-12 -5.50934e-11 50.1152

52.3901 -4.43759 2.71586e-11
-4.43759 50.1885 6.55416e-12
2.71586e-11 6.55416e-12 50.6672

40.9268 -2.39278 5.97241e-12
-2.39278 39.9692 7.70347e-13
5.97241e-12 7.70347e-13 38.6088

53.68 -3.18932 -7.51939e-12
-3.18932 48.2681 3.7756e-11
-7.51939e-12 3.7756e-11 50.7562

48.079 4.82744 -6.06818e-11
4.82744 47.2758 2.34925e-11
-6.06818e-11 2.34925e-11 47.8513

51.0857 -6.47048 -3.25507e-11
-6.47048 55.9084 -1.65609e-11
-3.25507e-11 -1.65609e-11 56.6037

54.6221 5.15583 2.50485e-12
5.15583 60.2235 1.04012e-11
2.50485e-12 1.04012e-11 57.9363

58.0774 -1.14032 -1.30496e-11
-1.14032 53.0108 7.69496e-13
-1.30496e-11 7.69496e-13 55.704

75.3499 -1.90661 9.4943e-11
-1.90661 74.4262 5.66334e-11
9.4943e-11 5.66334e-11 67.7544

67.6409 1.64212 -8.95531e-11
1.64212 70.4734 1.75268e-11
-8.95531e-11 1.75268e-11 67.7441

53.9047 1.97887 1.18475e-11
1.97887 51.2244 -4.37228e-11
1.18475e-11 -4.37228e-11 53.0931

62.8178 -0.787593 3.65012e-11
-0.787593 56.4578 -1.00151e-11
3.65012e-11 -1.00151e-11 59.5352

33.3359 -2.23264 -5.20702e-12
-2.23264 34.7378 6.45416e-11
-5.20702e-12 6.45416e-11 32.4074

34.8293 -2.11702 -5.25998e-11
-2.11702 32.204 -2.22503e-11
-5.25998e-11 -2.22503e-11 32.2063

61.6948 0.649841 2.27277e-11
0.649841 53.1031 3.08431e-12
2.27277e-11 3.08431e-12 58.6642

62.7684 0.16517 -6.2405e-11
0.16517 52.6656 -1.90748e-11
-6.2405e-11 -1.90748e-11 60.101

61.7891 0.0631689 2.55219e-11
0.0631689 57.6051 1.81057e-11
2.55219e-11 1.81057e-11 59.673

53.9806 -1.75684 2.9771e-12
-1.75684 56.6388 5.45152e-11
2.9771e-12 5.45152e-11 54.1931

46.4892 2.28521 5.94691e-12
2.28521 53.5615 -1.04019e-11
5.94691e-12 -1.04019e-11 50.2783

49.1967 3.52 -3.16908e-11
3.52 44.3535 -5.70251e-11
-3.16908e-11 -5.70251e-11 45.9619

57.4762 4.01969 -2.86882e-11
4.01969 54.587 -1.50272e-11
-2.86882e-11 -1.50272e-11 56.5381

62.2774 -3.14646 1.73432e-12
-3.14646 59.2092 5.29656e-11
1.73432e-12 5.29656e-11 60.8263

66.7622 0.52337 -1.68992e-11
0.52337 64.6559 4.5337e-12
-1.68992e-11 4.5337e-12 64.5107

67.4575 -4.45122 4.69445e-11
-4.45122 73.4596 -2.22825e-11
4.69445e-11 -2.22825e-11 66.3786

53.78 1.76632 1.11267e-11
1.76632 50.0998 -1.98454e-11
1.11267e-11 -1.98454e-11 50.893

61.1653 2.83321 -9.14302e-12
2.83321 56.4912 -4.23387e-12
-9.14302e-12 -4.23387e-12 58.8093

63.2328 -2.11105 3.45734e-11
-2.11105 57.0774 5.77804e-12
3.45734e-11 5.77804e-12 61.05

49.9873 -1.7163 2.92769e-11
-1.7163 56.7452 3.87246e-13
2.92769e-11 3.87246e-13 54.59

55.0888 4.8611 -2.82172e-11
4.8611 59.548 -1.7358e-12
-2.82172e-11 -1.7358e-12 56.7921

53.8556 6.18898 1.70464e-11
6.18898 59.9939 1.98416e-11
1.70464e-11 1.98416e-11 56.8063

49.2018 -3.71894 -4.4324e-12
-3.71894 54.0975 2.04187e-11
-4.4324e-12 2.04187e-11 54.554

28.388 7.15481 1.31042e-11
7.15481 28.5847 -2.75524e-11
1.31042e-11 -2.75524e-11 27.7362

56.5296 3.8347 -9.96662e-12
3.8347 62.2318 2.85051e-11
-9.96662e-12 2.85051e-11 59.3188

54.0137 -4.37337 -2.58576e-11
-4.37337 59.515 6.74818e-12
-2.58576e-11 6.74818e-12 58.4684

47.6508 -3.39203 -2.18645e-11
-3.39203 54.9602 7.31944e-12
-2.18645e-11 7.31944e-12 53.5192

52.1025 5.31467 -1.57926e-11
5.31467 58.5757 5.39128e-12
-1.57926e-11 5.39128e-12 55.4045

51.3935 -2.35508 -1.14841e-12
-2.35508 46.4443 -5.58812e-12
-1.14841e-12 -5.58812e-12 47.7217

54.3391 -2.85123 2.3403e-11
-2.85123 53.765 -4.31454e-11
2.3403e-11 -4.31454e-11 54.7153

56.1308 3.12088 -6.94363e-11
3.12088 59.1606 5.73504e-13
-6.94363e-11 5.73504e-13 57.8446

55.4506 -4.24959 -7.71753e-13
-4.24959 56.0915 -2.69396e-12
-7.71753e-13 -2.69396e-12 57.314

56.8769 -1.11437 -1.71434e-11
-1.11437 48.8464 -4.12204e-11
-1.71434e-11 -4.12204e-11 53.8568

63.7026 1.17122 1.50239e-11
1.17122 60.5563 2.46524e-11
1.50239e-11 2.46524e-11 61.3292

64.9679 -1.19931 -6.89453e-11
-1.19931 58.5943 -3.50583e-11
-6.89453e-11 -3.50583e-11 62.8897

65.0998 1.30507 7.39512e-11
1.30507 74.1104 3.85869e-12
7.39512e-11 3.85869e-12 65.4079

66.4719 1.73132 -3.62054e-11
1.73132 71.9097 3.03351e-11
-3.62054e-11 3.03351e-11 67.6212

26.2701 1.35249 -3.14139e-11
1.35249 22.7142 4.00739e-11
-3.14139e-11 4.00739e-11 26.8921

23.1151 1.34743 -4.08507e-11
1.34743 27.1289 2.46661e-11
-4.08507e-11 2.46661e-11 27.1263

54.1631 3.90574 -1.15605e-11
3.90574 54.2785 -2.04178e-11
-1.15605e-11 -2.04178e-11 55.5736

61.8235 -4.01105 -2.30993e-12
-4.01105 60.8284 -2.77349e-11
-2.30993e-12 -2.77349e-11 61.4363

27.0584 2.66517 2.04211e-11
2.66517 26.6916 1.98512e-11
2.04211e-11 1.98512e-11 27.9353

26.5187 2.91609 -1.42615e-11
2.91609 26.6834 -6.7636e-11
-1.42615e-11 -6.7636e-11 27.8339

75.2864 -1.04666 3.61702e-11
-1.04666 72.517 1.40201e-10
3.61702e-11 1.40201e-10 70.3464

75.8275 -0.67432 1.84806e-11
-0.67432 77.2862 1.03604e-10
1.84806e-11 1.03604e-10 68.7136

51.7972 -3.84514 1.86864e-11
-3.84514 52.4677 -5.00555e-12
1.86864e-11 -5.00555e-12 53.5075

54.194 4.95477 -3.71712e-11
4.95477 53.1279 1.23203e-11
-3.71712e-11 1.23203e-11 54.7802

60.9226 -4.16742 1.15478e-12
-4.16742 57.6131 4.37234e-11
1.15478e-12 4.37234e-11 59.5169

48.7975 4.36124 -4.02571e-11
4.36124 49.6329 -2.38847e-11
-4.02571e-11 -2.38847e-11 49.1413

53.9586 -3.46021 1.25282e-11
-3.46021 53.1519 -3.96829e-11
1.25282e-11 -3.96829e-11 52.5711

35.9562 -0.640471 2.19666e-11
-0.640471 39.9193 -1.4259e-11
2.19666e-11 -1.4259e-11 36.0559

32.9354 1.7995 1.69566e-11
1.7995 38.2647 -1.61825e-11
1.69566e-11 -1.61825e-11 34.6081

39.0424 -0.266449 -1.23292e-11
-0.266449 34.4652 -3.1594e-11
-1.23292e-11 -3.1594e-11 35.3224

49.5122 4.62403 -1.84931e-11
4.62403 51.1174 6.93458e-11
-1.84931e-11 6.93458e-11 51.2501

56.2294 -4.55006 -2.68911e-12
-4.55006 55.465 -2.60047e-11
-2.68911e-12 -2.60047e-11 55.5844

29.9207 0.289559 -1.90736e-11
0.289559 35.5785 -2.65911e-11
-1.90736e-11 -2.65911e-11 31.9485

35.5041 -0.0316196 3.43969e-11
-0.0316196 30.7969 1.07932e-11
3.43969e-11 1.07932e-11 32.0318

57.6113 4.71656 1.15498e-11
4.71656 55.6464 -2.38837e-11
1.15498e-11 -2.38837e-11 57.6099

65.1944 -3.36267 1.73444e-11
-3.36267 61.5126 -4.39129e-11
1.73444e-11 -4.39129e-11 63.5245

57.992 4.66285 1.61775e-11
4.66285 57.3841 9.24296e-12
1.61775e-11 9.24296e-12 58.2335

64.4683 -4.08615 1.2521e-11
-4.08615 60.6959 -1.96484e-11
1.2521e-11 -1.96484e-11 62.9764

25.1384 2.73282 6.5706e-11
2.73282 25.2636 8.36368e-15
6.5706e-11 8.36368e-15 26.5424

25.1564 2.52303 -1.06658e-10
2.52303 25.608 -1.38767e-11
-1.06658e-10 -1.38767e-11 26.5715

53.0294 4.41793 2.17722e-11
4.41793 51.9212 2.58146e-11
2.17722e-11 2.58146e-11 53.044

58.1819 -3.65147 1.84925e-11
-3.65147 56.8124 -1.4823e-11
1.84925e-11 -1.4823e-11 57.2224

64.642 2.857 -6.18239e-11
2.857 66.6936 -8.86039e-12
-6.18239e-11 -8.86039e-12 65.2787

62.505 -0.922945 5.3354e-11
-0.922945 67.1544 -6.27851e-11
5.3354e-11 -6.27851e-11 62.902

55.4554 3.71812 3.87185e-11
3.71812 59.2928 -1.46349e-11
3.87185e-11 -1.46349e-11 58.4966

66.6725 -4.22761 -5.37393e-11
-4.22761 64.1844 4.27539e-11
-5.37393e-11 4.27539e-11 65.6072

63.9227 3.33596 -5.39413e-12
3.33596 57.2754 2.7744e-11
-5.39413e-12 2.7744e-11 60.5913

66.4798 -2.16649 2.73442e-11
-2.16649 57.0814 8.43591e-11
2.73442e-11 8.43591e-11 62.9635

54.2318 4.48912 4.22317e-11
4.48912 58.375 6.16796e-12
4.22317e-11 6.16796e-12 56.0668

52.0322 -3.76501 4.65646e-11
-3.76501 55.0256 -1.23302e-11
4.65646e-11 -1.23302e-11 55.3048

63.7066 2.72997 -2.21461e-11
2.72997 70.1914 -1.98428e-11
-2.21461e-11 -1.98428e-11 65.6982

63.8197 3.1602 -3.42365e-11
3.1602 64.8057 -3.3898e-11
-3.42365e-11 -3.3898e-11 63.1598

65.2406 -5.62666 9.06673e-11
-5.62666 65.0792 -1.50307e-11
9.06673e-11 -1.50307e-11 63.5428

61.6233 -0.766398 -5.39274e-11
-0.766398 70.9928 4.93023e-11
-5.39274e-11 4.93023e-11 63.707

68.497 3.31019 -4.89208e-11
3.31019 63.7855 4.23247e-12
-4.89208e-11 4.23247e-12 63.751

73.258 0.702182 1.18637e-10
0.702182 68.0191 -4.62255e-11
1.18637e-10 -4.62255e-11 66.036

70.2685 -3.05549 -5.43075e-11
-3.05549 61.165 -2.08036e-11
-5.43075e-11 -2.08036e-11 65.6296

74.0776 -1.00502 -6.12472e-11
-1.00502 64.6878 -1.2326e-11
-6.12472e-11 -1.2326e-11 67.9773

67.8614 3.8887 -2.58143e-11
3.8887 71.1933 -2.50409e-11
-2.58143e-11 -2.50409e-11 65.3146

80.1208 -0.7778 1.25648e-09
-0.7778 77.9701 -5.24437e-10
1.25648e-09 -5.24437e-10 69.7382

78.7234 -2.72095 7.6566e-11
-2.72095 68.1552 1.20954e-10
7.6566e-11 1.20954e-10 71.0238

76.0555 -3.34581 5.74992e-12
-3.34581 67.8753 1.47537e-10
5.74992e-12 1.47537e-10 70.5005

68.7409 3.7399 -8.3195e-11
3.7399 65.2346 -7.66663e-11
-8.3195e-11 -7.66663e-11 64.0441

63.6 1.67119 -7.70199e-13
1.67119 62.2297 8.47524e-12
-7.70199e-13 8.47524e-12 61.6652

71.7842 1.87177 -7.62601e-11
1.87177 74.4094 -1.11856e-11
-7.62601e-11 -1.11856e-11 67.126

74.8994 -2.62496 2.85058e-11
-2.62496 66.2206 -1.56004e-11
2.85058e-11 -1.56004e-11 69.4371

74.9414 -3.11981 1.54124e-11
-3.11981 67.6173 3.65508e-12
1.54124e-11 3.65508e-12 69.8399

69.9226 -2.14018 3.8504e-12
-2.14018 66.0573 2.44588e-11
3.8504e-12 2.44588e-11 67.464

64.2789 4.35559 4.15984e-11
4.35559 62.5403 6.62648e-11
4.15984e-11 6.62648e-11 62.1276

69.479 2.10797 -2.46613e-11
2.10797 65.2903 9.70655e-11
-2.46613e-11 9.70655e-11 64.338

69.3926 -3.28333 -4.96931e-11
-3.28333 63.3241 3.81299e-11
-4.96931e-11 3.81299e-11 66.3378

71.8699 -1.93226 -2.50473e-11
-1.93226 64.8855 7.83794e-11
-2.50473e-11 7.83794e-11 67.5576

70.0491 0.354393 1.34816e-11
0.354393 70.227 8.66582e-12
1.34816e-11 8.66582e-12 71.0592

74.8618 -0.187488 1.65621e-11
-0.187488 73.5038 -1.5886e-11
1.65621e-11 -1.5886e-11 73.6982

72.8995 0.67414 -2.11921e-12
0.67414 70.7823 -1.27097e-11
-2.11921e-12 -1.27097e-11 71.7161

69.1292 -0.699739 5.39254e-12
-0.699739 66.3573 2.24961e-11
5.39254e-12 2.24961e-11 69.4437

69.6557 0.118994 -5.77755e-12
0.118994 67.625 -1.30143e-11
-5.77755e-12 -1.30143e-11 70.0758

75.1582 -0.997664 2.25335e-11
-0.997664 74.0457 -2.773e-11
2.25335e-11 -2.773e-11 73.8204

72.5048 1.79419 -1.7139e-11
1.79419 70.2934 4.30211e-16
-1.7139e-11 4.30211e-16 71.3713

69.6762 -0.16842 -3.19698e-11
-0.16842 67.2956 -2.26281e-12
-3.19698e-11 -2.26281e-12 69.9954

68.65 0.808154 5.00799e-12
0.808154 63.6732 6.25907e-13
5.00799e-12 6.25907e-13 67.4235

71.2928 0.169462 1.84874e-11
0.169462 70.7189 -1.9836e-11
1.84874e-11 -1.9836e-11 71.8816

71.3646 -0.157905 -6.9326e-12
-0.157905 70.8521 -1.10735e-11
-6.9326e-12 -1.10735e-11 71.9433

73.9482 0.0940383 1.50207e-11
0.0940383 74.551 3.05714e-11
1.50207e-11 3.05714e-11 74.4082

73.7991 -1.02147 2.96599e-11
-1.02147 69.0784 9.91853e-12
2.96599e-11 9.91853e-12 70.7156

76.7652 0.0702051 2.46539e-11
0.0702051 75.0899 4.74662e-11
2.46539e-11 4.74662e-11 74.4899

69.7928 1.32572 -1.23245e-11
1.32572 69.3367 2.50404e-12
-1.23245e-11 2.50404e-12 70.5914

68.5016 1.87976 -1.29032e-11
1.87976 68.6218 -7.22207e-12
-1.29032e-11 -7.22207e-12 69.4357

72.9401 -1.77683 -7.31968e-12
-1.77683 70.7503 1.75231e-11
-7.31968e-12 1.75231e-11 71.8178

74.8063 0.927091 2.2343e-11
0.927091 73.8315 5.17045e-11
2.2343e-11 5.17045e-11 73.5817

75.6091 0.0512297 1.15542e-11
0.0512297 76.4574 1.42945e-12
1.15542e-11 1.42945e-12 75.8233

71.2988 0.18071 9.24383e-12
0.18071 71.8045 -4.09232e-12
9.24383e-12 -4.09232e-12 72.242

71.316 -0.203361 7.70282e-12
-0.203361 71.8599 1.39141e-11
7.70282e-12 1.39141e-11 72.2704

74.1182 -0.214611 1.23247e-11
-0.214611 75.1349 -1.54301e-11
1.23247e-11 -1.54301e-11 74.7419

69.8591 0.592165 3.6398e-11
0.592165 69.4607 -1.60816e-11
3.6398e-11 -1.60816e-11 70.7365

69.6302 0.482609 -1.92599e-12
0.482609 68.1095 -1.34801e-12
-1.92599e-12 -1.34801e-12 70.3976

68.8738 0.464134 -1.19411e-11
0.464134 69.152 -1.60806e-11
-1.19411e-11 -1.60806e-11 70.2441

74.1515 -0.313346 1.73324e-11
-0.313346 74.0046 -1.6272e-11
1.73324e-11 -1.6272e-11 74.1203

69.4186 0.587252 5.7776e-13
0.587252 66.4077 4.53172e-12
5.7776e-13 4.53172e-12 69.4508

71.1987 0.103448 1.03993e-11
0.103448 71.6248 -6.26042e-13
1.03993e-11 -6.26042e-13 72.1918

68.8624 -0.79782 -3.64008e-11
-0.79782 63.6816 2.72752e-11
-3.64008e-11 2.72752e-11 68.1124

73.39 -0.212825 -5.93132e-11
-0.212825 74.079 6.43912e-12
-5.93132e-11 6.43912e-12 74.0539

76.0162 -0.177748 -3.77468e-11
-0.177748 73.1854 1.25137e-11
-3.77468e-11 1.25137e-11 73.3346

75.8354 0.266303 -2.15674e-11
0.266303 72.3207 1.59849e-11
-2.15674e-11 1.59849e-11 73.0237

71.9364 -0.897648 2.02215e-11
-0.897648 70.5723 -1.63786e-12
2.02215e-11 -1.63786e-12 70.4378

71.9706 0.902696 4.69907e-11
0.902696 70.6703 -2.02076e-12
4.69907e-11 -2.02076e-12 70.4721

70.3098 -0.20758 3.87096e-11
-0.20758 69.1158 -1.54041e-12
3.87096e-11 -1.54041e-12 70.9203

68.2833 0.16879 1.05928e-11
0.16879 68.6533 1.07363e-11
1.05928e-11 1.07363e-11 69.7646

69.0173 -1.44111 2.50364e-11
-1.44111 69.0307 1.50203e-11
2.50364e-11 1.50203e-11 69.7533

68.9294 1.52803 -3.06212e-11
1.52803 69.0636 -5.0085e-12
-3.06212e-11 -5.0085e-12 69.7303

68.7441 -0.703982 1.63709e-11
-0.703982 63.4546 2.85807e-11
1.63709e-11 2.85807e-11 67.1446

74.0552 -0.40036 5.39292e-12
-0.40036 74.9779 -2.41681e-11
5.39292e-12 -2.41681e-11 74.4777

69.6665 0.0129862 -5.00703e-12
0.0129862 69.0372 -6.86079e-12
-5.00703e-12 -6.86079e-12 70.6006

68.5335 0.610881 4.04491e-12
0.610881 63.2081 -1.67851e-11
4.04491e-12 -1.67851e-11 67.1603

69.9219 -0.550473 4.23654e-12
-0.550473 69.583 2.52288e-11
4.23654e-12 2.52288e-11 70.8005

69.9933 -0.362702 -1.88728e-11
-0.362702 70.264 -9.24446e-12
-1.88728e-11 -9.24446e-12 71.053

75.3473 -0.761847 1.96421e-11
-0.761847 74.8925 7.3186e-12
1.96421e-11 7.3186e-12 74.6322

70.1088 0.0286874 -9.05118e-12
0.0286874 69.1836 -1.70918e-11
-9.05118e-12 -1.70918e-11 70.8889

71.491 0.295066 -2.04136e-11
0.295066 71.4233 -4.33298e-12
-2.04136e-11 -4.33298e-12 72.3342

72.5656 0.381433 -1.38656e-11
0.381433 72.884 6.39124e-12
-1.38656e-11 6.39124e-12 73.3352

70.2335 -2.80674 1.15463e-12
-2.80674 66.8094 7.22298e-12
1.15463e-12 7.22298e-12 69.0431

72.4976 -0.156922 -1.69469e-11
-0.156922 72.9877 -3.21365e-12
-1.69469e-11 -3.21365e-12 73.2764

71.079 0.171658 1.00143e-11
0.171658 71.2688 2.36392e-11
1.00143e-11 2.36392e-11 72.04

77.3295 0.508353 7.43309e-11
0.508353 77.6996 -9.24443e-12
7.43309e-11 -9.24443e-12 76.8241

77.3276 -0.50634 8.08958e-12
-0.50634 77.7002 -6.30661e-11
8.08958e-12 -6.30661e-11 76.8232

76.0168 -0.204979 4.00545e-11
-0.204979 76.7827 -1.00258e-11
4.00545e-11 -1.00258e-11 76.1026

77.2853 0.218945 9.39727e-11
0.218945 77.918 -7.27088e-12
9.39727e-11 -7.27088e-12 76.9001

77.2834 -0.217956 -4.58304e-11
-0.217956 77.9172 -1.81021e-11
-4.58304e-11 -1.81021e-11 76.899

74.2574 -0.629557 -7.70115e-13
-0.629557 74.6639 -4.3329e-12
-7.70115e-13 -4.3329e-12 74.3138

70.3469 -1.17178 1.32883e-11
-1.17178 67.8311 -4.7193e-12
1.32883e-11 -4.7193e-12 68.9461

70.3468 1.2098 2.31093e-12
1.2098 67.8371 -8.37661e-12
2.31093e-12 -8.37661e-12 68.9531

76.355 0.292615 -4.54457e-11
0.292615 77.1632 2.27242e-11
-4.54457e-11 2.27242e-11 76.3035

76.3549 -0.293097 2.77295e-11
-0.293097 77.1681 2.69123e-11
2.77295e-11 2.69123e-11 76.3042

70.4077 0.193093 4.87237e-11
0.193093 69.676 -1.01098e-11
4.87237e-11 -1.01098e-11 71.2491

73.7156 1.67207 1.5409e-11
1.67207 70.856 1.63683e-11
1.5409e-11 1.63683e-11 70.905

78.2237 -1.35414 3.3119e-11
-1.35414 76.5541 4.66053e-11
3.3119e-11 4.66053e-11 74.8798

74.0562 0.392829 3.15813e-11
0.392829 75.0028 -2.52283e-11
3.15813e-11 -2.52283e-11 74.491

71.2179 -0.186362 -4.69904e-11
-0.186362 71.7617 5.83755e-11
-4.69904e-11 5.83755e-11 72.2704

70.8937 -0.273493 1.54057e-12
-0.273493 70.4869 1.27043e-11
1.54057e-12 1.27043e-11 71.6479

74.2883 -0.629316 -8.0898e-12
-0.629316 74.6821 2.76346e-11
-8.0898e-12 2.76346e-11 74.0922

70.8946 1.71329 -1.23271e-11
1.71329 69.1395 -2.68655e-11
-1.23271e-11 -2.68655e-11 70.6653

79.5346 0.357614 -2.4268e-11
0.357614 80.0409 -1.85344e-10
-2.4268e-11 -1.85344e-10 78.0693

79.5316 -0.355031 -5.6996e-11
-0.355031 80.0348 -1.01771e-10
-5.6996e-11 -1.01771e-10 78.0671

68.9188 2.29759 7.89872e-12
2.29759 66.738 1.44439e-11
7.89872e-12 1.44439e-11 68.1851

75.9991 0.137244 -3.38926e-11
0.137244 76.8456 -5.82503e-12
-3.38926e-11 -5.82503e-12 76.0893

76.0034 -0.135347 -1.2325e-11
-0.135347 76.8708 3.163e-11
-1.2325e-11 3.163e-11 76.0994

66.1309 1.1061 8.47364e-12
1.1061 67.9685 5.87439e-12
8.47364e-12 5.87439e-12 68.4018

75.6656 0.767308 -2.54204e-11
0.767308 75.7419 -1.11677e-11
-2.54204e-11 -1.11677e-11 74.6255

70.1425 0.204661 2.94654e-11
0.204661 69.0324 -6.74019e-12
2.94654e-11 -6.74019e-12 70.8764

69.9329 -0.347481 3.50508e-11
-0.347481 68.0394 -9.99062e-12
3.50508e-11 -9.99062e-12 70.4688

68.5909 -1.71214 1.38667e-11
-1.71214 66.3076 -3.18253e-11
1.38667e-11 -3.18253e-11 68.9631

69.4003 1.87533 5.14203e-11
1.87533 71.9294 -5.41125e-11
5.14203e-11 -5.41125e-11 70.0796

69.4361 -1.95703 -4.23726e-12
-1.95703 71.7444 -1.95474e-11
-4.23726e-12 -1.95474e-11 70.0391

70.415 0.318362 1.61762e-11
0.318362 70.43 -3.7313e-11
1.61762e-11 -3.7313e-11 71.4184

68.98 0.468225 -3.65941e-12
0.468225 68.1197 1.72363e-11
-3.65941e-12 1.72363e-11 70.1088

75.6496 -0.381008 -1.61765e-11
-0.381008 76.3802 3.8346e-11
-1.61765e-11 3.8346e-11 75.7962

77.7762 -0.0231228 5.58438e-11
-0.0231228 77.2224 3.1397e-11
5.58438e-11 3.1397e-11 74.6253

78.1645 1.41301 -7.20186e-11
1.41301 71.7333 3.08156e-11
-7.20186e-11 3.08156e-11 72.7645

68.5283 1.80589 -9.82214e-12
1.80589 66.4792 2.4121e-11
-9.82214e-12 2.4121e-11 68.9743

73.3102 -0.578433 -8.18279e-12
-0.578433 71.3975 -2.04142e-11
-8.18279e-12 -2.04142e-11 72.1919

74.4951 0.174881 3.8494e-12
0.174881 73.1226 -3.75526e-11
3.8494e-12 -3.75526e-11 73.4023

76.2738 -0.00150344 5.66153e-11
-0.00150344 77.1694 -2.43058e-14
5.66153e-11 -2.43058e-14 76.3477

76.2867 0.00916214 4.23651e-12
0.00916214 77.1689 -1.97866e-11
4.23651e-12 -1.97866e-11 76.3547

73.8331 0.368891 4.04468e-12
0.368891 74.5473 3.4134e-11
4.04468e-12 3.4134e-11 74.3723

75.1276 -0.234644 -2.81153e-11
-0.234644 76.031 -1.597e-11
-2.81153e-11 -1.597e-11 75.4778

76.7808 0.143866 3.21116e-11
0.143866 77.4919 3.81532e-11
3.21116e-11 3.81532e-11 76.6306

76.7819 -0.141081 8.42521e-12
-0.141081 77.4927 1.69218e-11
8.42521e-12 1.69218e-11 76.6312

75.6193 0.384909 6.54711e-12
0.384909 76.3748 -1.55502e-11
6.54711e-12 -1.55502e-11 75.7855

74.1409 0.284525 3.27373e-11
0.284525 74.0282 -1.58883e-11
3.27373e-11 -1.58883e-11 74.1253

76.4238 0.362654 8.4345e-11
0.362654 77.0507 -1.42264e-11
8.4345e-11 -1.42264e-11 76.3555

76.4496 -0.351568 -1.27097e-11
-0.351568 77.0544 1.84628e-11
-1.27097e-11 1.84628e-11 76.3661

69.1858 0.776922 -1.27107e-11
0.776922 66.2731 6.25921e-13
-1.27107e-11 6.25921e-13 69.3813

76.149 -0.45269 1.15529e-11
-0.45269 76.1295 4.03438e-11
1.15529e-11 4.03438e-11 75.6139

69.8084 0.134868 3.08133e-11
0.134868 69.1817 -1.30481e-11
3.08133e-11 -1.30481e-11 70.6796

66.3531 1.78806 2.69527e-12
1.78806 67.161 -1.81043e-11
2.69527e-12 -1.81043e-11 67.4573

75.7457 -0.476181 -1.23236e-11
-0.476181 75.7208 -1.80058e-11
-1.23236e-11 -1.80058e-11 74.9462

74.7541 0.0741067 -2.19532e-11
0.0741067 75.5551 -1.9763e-11
-2.19532e-11 -1.9763e-11 75.1342

68.0621 1.09476 3.62063e-11
1.09476 67.1237 4.42962e-11
3.62063e-11 4.42962e-11 69.4277

69.2481 -0.616921 -7.70349e-12
-0.616921 66.655 -1.81989e-11
-7.70349e-12 -1.81989e-11 69.5466

69.8184 -0.12925 5.87356e-12
-0.12925 69.4882 -1.94027e-11
5.87356e-12 -1.94027e-11 70.9266

68.8245 -0.447166 -1.86815e-11
-0.447166 68.1895 -3.13426e-11
-1.86815e-11 -3.13426e-11 70.1127

72.6215 1.18986 -7.70902e-13
1.18986 71.6679 -9.43609e-12
-7.70902e-13 -9.43609e-12 72.4445

73.0758 -1.07437 -1.23236e-11
-1.07437 72.2238 -2.72502e-11
-1.23236e-11 -2.72502e-11 72.772

73.9057 -0.0850093 1.24208e-11
-0.0850093 74.637 -1.20722e-11
1.24208e-11 -1.20722e-11 74.4383

66.0135 -1.17766 -2.58105e-11
-1.17766 67.9676 5.64292e-11
-2.58105e-11 5.64292e-11 68.3493

74.0238 0.115736 2.61891e-11
0.115736 74.4098 -4.98777e-11
2.61891e-11 -4.98777e-11 74.3218

73.9848 -0.113246 1.57931e-11
-0.113246 74.3569 -9.11844e-11
1.57931e-11 -9.11844e-11 74.2907

69.0241 0.528973 1.40588e-11
0.528973 68.0995 7.65549e-12
1.40588e-11 7.65549e-12 69.9249

68.0156 1.5014 -2.34969e-11
1.5014 61.7591 1.32868e-11
-2.34969e-11 1.32868e-11 66.4138

68.0297 -1.298 -1.09779e-11
-1.298 61.7457 -4.38144e-12
-1.09779e-11 -4.38144e-12 66.4076

71.6751 0.646763 1.46379e-11
0.646763 70.7835 3.36046e-11
1.46379e-11 3.36046e-11 71.9401

68.7254 -0.405942 -2.58075e-11
-0.405942 69.2036 3.43278e-11
-2.58075e-11 3.43278e-11 70.2384

72.2906 0.514007 1.77173e-11
0.514007 72.2976 -5.58509e-12
1.77173e-11 -5.58509e-12 72.8305

72.3518 -0.503507 -3.04276e-11
-0.503507 72.3233 1.92556e-12
-3.04276e-11 1.92556e-12 72.8577

74.3189 0.0342539 3.46618e-12
0.0342539 74.7601 -9.70098e-12
3.46618e-12 -9.70098e-12 74.6612

73.7419 -0.367729 -9.62975e-12
-0.367729 74.4943 5.5558e-11
-9.62975e-12 5.5558e-11 74.3258

74.3661 0.0466776 3.73594e-11
0.0466776 75.1778 2.24826e-11
3.73594e-11 2.24826e-11 74.7892

81.881 0.541538 9.28191e-11
0.541538 77.3322 3.77548e-11
9.28191e-11 3.77548e-11 75.219

81.4991 -2.69417 -1.24783e-10
-2.69417 75.6066 2.3315e-11
-1.24783e-10 2.3315e-11 74.3101

74.842 -0.0325267 -3.19672e-11
-0.0325267 75.5822 -1.29986e-11
-3.19672e-11 -1.29986e-11 75.1742

75.0462 -0.248733 2.27232e-11
-0.248733 75.28 1.07852e-11
2.27232e-11 1.07852e-11 74.7848

75.9765 0.211042 2.85004e-11
0.211042 76.7705 2.62408e-11
2.85004e-11 2.62408e-11 76.0879

71.6507 -0.621718 4.66056e-11
-0.621718 70.8348 -1.07832e-11
4.66056e-11 -1.07832e-11 71.9298

76.5689 -1.19565 -3.38952e-11
-1.19565 75.7185 3.8032e-11
-3.38952e-11 3.8032e-11 74.9132

67.7811 3.1781 2.31537e-12
3.1781 66.1798 3.12949e-11
2.31537e-12 3.12949e-11 67.6785

76.1866 0.495063 1.19384e-11
0.495063 76.1318 -2.05091e-11
1.19384e-11 -2.05091e-11 75.6274

76.0918 -0.58242 -1.07822e-11
-0.58242 76.3485 -4.07288e-11
-1.07822e-11 -4.07288e-11 75.6306

69.1326 1.07779 1.48293e-11
1.07779 68.8222 -1.07856e-11
1.48293e-11 -1.07856e-11 69.7268

76.4364 -0.00598659 -1.30946e-11
-0.00598659 77.5319 3.88677e-11
-1.30946e-11 3.88677e-11 76.5215

74.3754 -0.0357714 1.88712e-11
-0.0357714 75.0512 6.15759e-11
1.88712e-11 6.15759e-11 74.7466

66.2343 -1.78942 -1.27095e-11
-1.78942 67.1876 6.0667e-12
-1.27095e-11 6.0667e-12 67.4236

74.3494 -0.402636 -3.38918e-11
-0.402636 75.3094 -5.2092e-11
-3.38918e-11 -5.2092e-11 74.7852

70.2329 -0.202484 3.81318e-11
-0.202484 70.5237 -1.67058e-11
3.81318e-11 -1.67058e-11 71.4439

68.4079 -0.2224 1.25197e-11
-0.2224 68.6492 -2.65773e-11
1.25197e-11 -2.65773e-11 69.7784

73.009 0.150928 -3.77454e-11
0.150928 72.8633 -3.65783e-12
-3.77454e-11 -3.65783e-12 73.2944

73.0132 -0.166579 -1.1554e-11
-0.166579 72.8385 -1.40585e-11
-1.1554e-11 -1.40585e-11 73.2859

74.1743 0.192607 -1.73319e-11
0.192607 75.25 -2.99696e-11
-1.73319e-11 -2.99696e-11 74.8028

74.3519 0.413489 2.38788e-11
0.413489 75.2735 -2.17616e-11
2.38788e-11 -2.17616e-11 74.7811

73.0218 -0.243313 -2.61901e-11
-0.243313 72.3768 -1.21335e-11
-2.61901e-11 -1.21335e-11 72.8481

72.8963 0.288343 1.92781e-12
0.288343 72.2364 4.07303e-11
1.92781e-12 4.07303e-11 72.7198

73.3768 -0.0412677 -2.15685e-11
-0.0412677 73.8529 -2.35882e-12
-2.15685e-11 -2.35882e-12 73.875

73.3612 0.0323888 1.92575e-11
0.0323888 73.9152 7.84789e-12
1.92575e-11 7.84789e-12 73.8824

76.6743 0.119762 -1.27096e-11
0.119762 77.3237 4.80102e-14
-1.27096e-11 4.80102e-14 76.5311

76.6808 -0.114062 -1.92581e-12
-0.114062 77.3245 6.379e-12
-1.92581e-12 6.379e-12 76.5333

75.3349 -0.66685 3.08087e-12
-0.66685 75.8388 9.53248e-12
3.08087e-12 9.53248e-12 75.1895

67.1921 -2.88861 -5.58405e-12
-2.88861 66.2583 1.9269e-12
-5.58405e-12 1.9269e-12 67.3188

67.0359 0.0411639 2.65775e-11
0.0411639 68.3031 9.43525e-12
2.65775e-11 9.43525e-12 69.3421

70.4482 0.106687 -8.4738e-12
0.106687 70.3787 -1.27585e-11
-8.4738e-12 -1.27585e-11 71.4574

72.9706 -0.296103 -2.85008e-11
-0.296103 73.6494 -8.95588e-12
-2.85008e-11 -8.95588e-12 73.5011

76.995 0.420091 6.3548e-11
0.420091 77.3642 1.19387e-11
6.3548e-11 1.19387e-11 76.6283

76.9958 -0.41717 4.69864e-11
-0.41717 77.3679 3.00893e-11
4.69864e-11 3.00893e-11 76.6289

76.0278 0.520157 -2.83079e-11
0.520157 76.6553 -6.06596e-12
-2.83079e-11 -6.06596e-12 76.0132

76.024 -0.522409 2.15682e-11
-0.522409 76.6573 -6.64344e-12
2.15682e-11 -6.64344e-12 76.0127

71.8298 -0.0790013 -1.27101e-11
-0.0790013 72.4189 2.92723e-11
-1.27101e-11 2.92723e-11 72.7615

73.2252 -0.0522421 4.77587e-11
-0.0522421 73.7328 -3.33519e-11
4.77587e-11 -3.33519e-11 73.8201

72.9684 0.342207 -3.81305e-11
0.342207 73.6701 -1.62715e-11
-3.81305e-11 -1.62715e-11 73.5025

78.3189 0.0222781 -5.46888e-11
0.0222781 78.6921 -1.82836e-12
-5.46888e-11 -1.82836e-12 77.4532

78.3174 -0.0213081 -1.11684e-11
-0.0213081 78.6878 -4.66015e-11
-1.11684e-11 -4.66015e-11 77.4516

75.3001 -0.457518 -5.00632e-12
-0.457518 75.9229 -2.40234e-11
-5.00632e-12 -2.40234e-11 75.4198

70.5853 -0.186471 -1.69475e-11
-0.186471 69.5158 9.96626e-12
-1.69475e-11 9.96626e-12 71.2479

75.1246 0.241264 -3.08116e-11
0.241264 76.0382 -2.17547e-11
-3.08116e-11 -2.17547e-11 75.4793

71.0909 -1.56848 1.73334e-11
-1.56848 69.9667 -3.56193e-12
1.73334e-11 -3.56193e-12 71.0614

74.2893 0.78863 1.6174e-11
0.78863 73.9993 -4.66042e-11
1.6174e-11 -4.66042e-11 73.856

69.8467 0.101592 1.17468e-11
0.101592 69.9248 4.17428e-11
1.17468e-11 4.17428e-11 71.0605

76.1387 0.578345 1.42497e-11
0.578345 76.3431 -1.34802e-11
1.42497e-11 -1.34802e-11 75.6435

75.2691 0.468109 2.69652e-12
0.468109 75.9247 2.06054e-11
2.69652e-12 2.06054e-11 75.4104

64.5065 2.86058 -1.2133e-11
2.86058 65.6796 5.20114e-12
-1.2133e-11 5.20114e-12 66.2464

76.9896 -0.0328499 4.6987e-11
-0.0328499 75.5758 1.93564e-11
4.6987e-11 1.93564e-11 74.7011

73.5373 1.42917 1.54469e-12
1.42917 68.0964 2.42639e-11
1.54469e-12 2.42639e-11 70.2523

75.3271 0.692989 -3.46628e-11
0.692989 75.8443 -5.7763e-12
-3.46628e-11 -5.7763e-12 75.1965

67.683 1.38497 3.85214e-12
1.38497 68.3149 -1.73317e-12
3.85214e-12 -1.73317e-12 69.1766

69.621 -0.170194 1.40589e-11
-0.170194 69.1365 1.96915e-11
1.40589e-11 1.96915e-11 70.7033

76.5536 -0.873097 1.07865e-11
-0.873097 75.8802 -3.56249e-11
1.07865e-11 -3.56249e-11 75.3989

69.8985 -1.36397 -2.65754e-11
-1.36397 69.3627 -2.07037e-11
-2.65754e-11 -2.07037e-11 70.586

71.488 0.928235 2.88884e-11
0.928235 71.3012 2.49381e-11
2.88884e-11 2.49381e-11 72.0198

75.5349 -0.241574 -1.07839e-11
-0.241574 76.4031 -4.81278e-13
-1.07839e-11 -4.81278e-13 75.6786

73.2984 -0.679347 -1.69461e-11
-0.679347 73.0077 -1.61772e-11
-1.69461e-11 -1.61772e-11 73.3259

76.8787 1.04034 1.9256e-11
1.04034 75.6935 -2.58052e-11
1.9256e-11 -2.58052e-11 75.0241

71.1435 0.1154 -2.96579e-11
0.1154 71.2158 4.28488e-11
-2.96579e-11 4.28488e-11 72.1021

71.0761 -0.0623326 -6.12414e-11
-0.0623326 70.6141 1.08262e-11
-6.12414e-11 1.08262e-11 71.8578

75.5383 0.244455 1.96427e-11
0.244455 76.4033 2.21456e-11
1.96427e-11 2.21456e-11 75.6798

75.6053 -0.0343682 -6.25855e-12
-0.0343682 76.4651 -9.89632e-12
-6.25855e-12 -9.89632e-12 75.8205

79.5915 0.251972 1.27093e-11
0.251972 79.3556 2.85958e-11
1.27093e-11 2.85958e-11 77.9332

79.5889 -0.249266 -2.88847e-11
-0.249266 79.3511 5.58412e-12
-2.88847e-11 5.58412e-12 77.9314

75.0891 0.298209 3.428e-11
0.298209 75.2632 3.97654e-11
3.428e-11 3.97654e-11 74.7909

68.314 -1.64846 -1.52144e-11
-1.64846 69.4309 -7.6996e-13
-1.52144e-11 -7.6996e-13 69.5574

68.3052 1.67758 -4.17911e-11
1.67758 69.5131 5.9686e-12
-4.17911e-11 5.9686e-12 69.5752

69.4669 -0.217125 -2.90816e-11
-0.217125 65.4009 1.75114e-11
-2.90816e-11 1.75114e-11 68.8048

64.4145 -2.81731 1.36733e-11
-2.81731 65.7394 1.45417e-11
1.36733e-11 1.45417e-11 66.2105

73.0441 0.167483 -1.03991e-11
0.167483 73.6016 -8.61794e-12
-1.03991e-11 -8.61794e-12 73.6921

71.103 0.0129636 -8.8589e-12
0.0129636 70.5744 1.9266e-13
-8.8589e-12 1.9266e-13 71.8417

72.7942 0.320705 3.04269e-11
0.320705 73.1612 -1.6899e-11
3.04269e-11 -1.6899e-11 73.4306

72.8302 -0.326841 -1.0014e-11
-0.326841 73.1711 -2.50347e-12
-1.0014e-11 -2.50347e-12 73.4603

73.6531 0.144217 -5.16101e-11
0.144217 74.089 2.15687e-11
-5.16101e-11 2.15687e-11 74.1367

76.5705 0.842367 -1.27098e-11
0.842367 75.9041 -3.75498e-12
-1.27098e-11 -3.75498e-12 75.4054

71.8251 0.291775 -1.1555e-11
0.291775 71.9242 -1.90171e-11
-1.1555e-11 -1.90171e-11 72.6021

73.5889 0.0838357 -2.8116e-11
0.0838357 73.9123 -4.62905e-11
-2.8116e-11 -4.62905e-11 74.06

73.8597 -0.98623 8.87161e-12
-0.98623 70.4443 -9.6483e-11
8.87161e-12 -9.6483e-11 70.9979

78.0266 1.06882 -1.57987e-11
1.06882 75.4663 -8.1842e-11
-1.57987e-11 -8.1842e-11 74.6731

69.3517 -1.1736 1.38664e-11
-1.1736 67.3858 -2.67698e-11
1.38664e-11 -2.67698e-11 69.4641

67.6871 -0.195632 2.9854e-11
-0.195632 60.2994 1.04839e-11
2.9854e-11 1.04839e-11 65.5538

73.2286 -0.432313 1.03992e-11
-0.432313 73.8974 -4.28473e-12
1.03992e-11 -4.28473e-12 73.8039

73.2331 0.427499 -1.92565e-12
0.427499 73.95 4.52576e-12
-1.92565e-12 4.52576e-12 73.829

69.2329 -0.148252 5.78019e-13
-0.148252 64.5139 -2.11572e-11
5.78019e-13 -2.11572e-11 68.5391

74.2523 0.654486 2.11848e-11
0.654486 74.7192 2.87892e-11
2.11848e-11 2.87892e-11 74.3128

77.6313 0.393939 -5.23796e-11
0.393939 78.1542 -4.12576e-11
-5.23796e-11 -4.12576e-11 77.1263

77.6314 -0.391854 -2.42624e-11
-0.391854 78.1521 -6.42218e-11
-2.42624e-11 -6.42218e-11 77.1254

68.5545 -0.447613 -8.28051e-12
-0.447613 68.6707 3.53401e-11
-8.28051e-12 3.53401e-11 69.8207

67.6037 -1.41376 1.82941e-11
-1.41376 68.2916 1.13636e-11
1.82941e-11 1.13636e-11 69.144

68.9363 -1.23318 1.69481e-11
-1.23318 65.8208 -2.39293e-11
1.69481e-11 -2.39293e-11 68.9518

70.3997 0.0338378 -4.23677e-12
0.0338378 69.4601 9.14784e-12
-4.23677e-12 9.14784e-12 71.1554

68.9212 -1.05357 -9.43728e-12
-1.05357 68.823 -1.25194e-12
-9.43728e-12 -1.25194e-12 69.6632

71.3055 -0.224983 3.77461e-11
-0.224983 71.3089 -4.68814e-11
3.77461e-11 -4.68814e-11 72.2637

71.4873 -0.873234 3.54346e-11
-0.873234 71.4917 -8.65204e-13
3.54346e-11 -8.65204e-13 72.0814

73.2627 0.664025 5.00948e-12
0.664025 72.7054 4.47741e-11
5.00948e-12 4.47741e-11 73.22

76.6056 -1.03003 -7.58671e-11
-1.03003 74.2783 -6.47099e-11
-7.58671e-11 -6.47099e-11 73.5816

75.966 0.746031 -3.1195e-11
0.746031 73.9248 1.25191e-11
-3.1195e-11 1.25191e-11 73.2798

76.7829 0.0211345 -4.54457e-11
0.0211345 77.7027 4.01512e-11
-4.54457e-11 4.01512e-11 76.7243

76.7741 -0.0229143 -7.31764e-12
-0.0229143 77.698 1.60553e-11
-7.31764e-12 1.60553e-11 76.7223

67.4954 -0.765994 -1.73238e-12
-0.765994 68.2006 3.55325e-11
-1.73238e-12 3.55325e-11 69.3614

67.392 0.805623 1.59844e-11
0.805623 68.2885 1.90669e-11
1.59844e-11 1.90669e-11 69.3306

67.5177 -0.410488 1.4058e-11
-0.410488 69.6263 1.22281e-11
1.4058e-11 1.22281e-11 68.967

67.4853 0.458297 -3.63988e-11
0.458297 69.5789 1.58873e-11
-3.63988e-11 1.58873e-11 68.9459

78.9396 0.0196861 -3.08098e-11
0.0196861 79.1513 6.36441e-11
-3.08098e-11 6.36441e-11 77.7149

78.9365 -0.0180863 -2.69815e-12
-0.0180863 79.1469 1.14e-10
-2.69815e-12 1.14e-10 77.713

77.0387 0.559729 -1.57917e-11
0.559729 76.6006 -1.72344e-11
-1.57917e-11 -1.72344e-11 76.1417

77.0361 -0.565982 -6.00809e-11
-0.565982 76.6105 -2.50348e-11
-6.00809e-11 -2.50348e-11 76.1441

75.1407 -0.121775 -2.65753e-11
-0.121775 76.1302 2.22903e-11
-2.65753e-11 2.22903e-11 75.4804

71.5877 -0.626387 2.34939e-11
-0.626387 70.4685 2.42661e-11
2.34939e-11 2.42661e-11 71.4389

73.9932 0.144076 -7.31702e-12
0.144076 73.8786 1.37696e-11
-7.31702e-12 1.37696e-11 73.8128

70.5222 -0.29201 2.0029e-11
-0.29201 69.8204 -1.43471e-11
2.0029e-11 -1.43471e-11 71.2853

75.1449 0.129726 -5.77748e-12
0.129726 76.1316 -2.00274e-11
-5.77748e-12 -2.00274e-11 75.4783

71.2964 0.519957 -1.2614e-11
0.519957 70.6671 7.70004e-13
-1.2614e-11 7.70004e-13 71.4254

74.6978 -0.215909 3.88998e-11
-0.215909 75.6654 -1.50204e-11
3.88998e-11 -1.50204e-11 75.0862

63.7755 -1.79331 7.12612e-12
-1.79331 66.7664 -4.04284e-12
7.12612e-12 -4.04284e-12 66.5891

63.7946 1.79928 1.56013e-11
1.79928 66.7188 -2.42674e-11
1.56013e-11 -2.42674e-11 66.5871

74.677 0.222481 -3.85136e-11
0.222481 75.6512 2.05098e-11
-3.85136e-11 2.05098e-11 75.0753

69.2332 1.32446 1.15546e-12
1.32446 67.4095 6.01806e-12
1.15546e-12 6.01806e-12 69.4104

81.8313 0.302006 -4.6622e-11
0.302006 70.863 7.7219e-11
-4.6622e-11 7.7219e-11 73.2174

81.7236 -0.639167 8.2432e-11
-0.639167 79.2383 7.75973e-11
8.2432e-11 7.75973e-11 75.6532

75.4608 0.284555 -3.15846e-11
0.284555 74.7541 -4.91047e-11
-3.15846e-11 -4.91047e-11 74.4412

68.0905 -1.0174 -2.19553e-11
-1.0174 67.1563 -3.99127e-11
-2.19553e-11 -3.99127e-11 69.4823

69.3044 -1.93455 -2.65781e-11
-1.93455 66.4417 -7.69958e-13
-2.65781e-11 -7.69958e-13 68.4762

72.9168 -0.107406 1.61768e-11
-0.107406 73.1601 4.45574e-11
1.61768e-11 4.45574e-11 73.5019

72.9698 0.0321894 -5.73873e-11
0.0321894 73.8747 2.63353e-11
-5.73873e-11 2.63353e-11 73.7994

77.287 0.210339 1.46356e-11
0.210339 77.635 3.82493e-11
1.46356e-11 3.82493e-11 76.8545

77.292 -0.200953 -7.70244e-12
-0.200953 77.6321 1.20596e-11
-7.70244e-12 1.20596e-11 76.8549

69.3403 1.93192 -1.98375e-11
1.93192 66.5394 -1.68635e-12
-1.98375e-11 -1.68635e-12 68.505

74.0848 -0.203365 -3.45195e-11
-0.203365 73.8386 4.42828e-12
-3.45195e-11 4.42828e-12 73.8657

74.7366 -0.386404 3.84581e-13
-0.386404 75.6436 3.27858e-11
3.84581e-13 3.27858e-11 75.1483

76.3854 0.58959 -4.12092e-11
0.58959 76.9461 1.98355e-11
-4.12092e-11 1.98355e-11 76.2122

76.3852 -0.588098 1.42515e-11
-0.588098 76.9498 -4.47723e-11
1.42515e-11 -4.47723e-11 76.2126

70.8743 -2.8348 2.61943e-11
-2.8348 69.4143 -6.2663e-11
2.61943e-11 -6.2663e-11 69.8663

70.8046 2.88713 6.47105e-11
2.88713 69.4297 -1.52128e-11
6.47105e-11 -1.52128e-11 69.8567

75.3349 0.841164 3.00417e-11
0.841164 75.3881 -2.89626e-13
3.00417e-11 -2.89626e-13 74.785

69.2703 -0.358935 -2.85034e-11
-0.358935 68.2252 -1.32877e-11
-2.85034e-11 -1.32877e-11 70.0437

76.8503 0.443594 3.34101e-11
0.443594 77.673 -2.4986e-11
3.34101e-11 -2.4986e-11 76.717

76.8525 -0.441967 3.29287e-11
-0.441967 77.6719 1.39606e-12
3.29287e-11 1.39606e-12 76.7169

71.1735 -1.25157 -1.59871e-11
-1.25157 69.0807 2.61915e-11
-1.59871e-11 2.61915e-11 70.222

68.1849 -2.422 2.04138e-11
-2.422 66.5425 2.69643e-11
2.04138e-11 2.69643e-11 67.7299

72.2911 -0.348874 4.54482e-11
-0.348874 72.8305 -3.76737e-11
4.54482e-11 -3.76737e-11 73.2085

66.1847 0.171614 7.12574e-12
0.171614 69.1258 3.28354e-11
7.12574e-12 3.28354e-11 68.3825

66.1462 -0.1722 1.46362e-11
-0.1722 69.1017 8.95661e-12
1.46362e-11 8.95661e-12 68.3654

68.0202 -2.39262 -3.85312e-12
-2.39262 67.5654 1.22292e-11
-3.85312e-12 1.22292e-11 68.8483

74.7843 0.387188 -3.23522e-11
0.387188 75.6269 -3.1773e-12
-3.23522e-11 -3.1773e-12 75.1677

68.5288 0.476997 3.57253e-11
0.476997 68.7066 -3.55311e-11
3.57253e-11 -3.55311e-11 69.7889

66.7807 0.149796 1.32891e-11
0.149796 68.5633 2.04136e-11
1.32891e-11 2.04136e-11 68.9372

66.7093 -0.177941 2.5999e-11
-0.177941 68.6043 3.16828e-11
2.5999e-11 3.16828e-11 68.9192

68.7021 1.51391 -8.85901e-12
1.51391 65.4031 -1.55036e-11
-8.85901e-12 -1.55036e-11 68.7615

77.3921 0.282533 1.84849e-11
0.282533 78.2107 -6.65328e-11
1.84849e-11 -6.65328e-11 77.0834

77.393 -0.280251 1.42499e-11
-0.280251 78.2055 1.12652e-11
1.42499e-11 1.12652e-11 77.0821

78.1601 -0.0645707 -3.85555e-12
-0.0645707 76.1963 2.38788e-11
-3.85555e-12 2.38788e-11 73.9346

78.0011 1.36283 4.73851e-11
1.36283 76.2648 8.29931e-11
4.73851e-11 8.29931e-11 74.2201

71.9729 0.0962873 5.85439e-11
0.0962873 72.5561 -2.54922e-11
5.85439e-11 -2.54922e-11 72.8691

71.6459 -0.0610045 4.35236e-11
-0.0610045 70.6384 -7.58886e-12
4.35236e-11 -7.58886e-12 71.9466

76.0769 0.549411 2.92699e-11
0.549411 76.7392 -6.64459e-12
2.92699e-11 -6.64459e-12 75.9261

76.0872 -0.547168 -2.92721e-11
-0.547168 76.7412 5.14165e-11
-2.92721e-11 5.14165e-11 75.9289

75.7393 0.604458 3.46632e-11
0.604458 75.7534 -6.25954e-12
3.46632e-11 -6.25954e-12 75.0085

72.3714 0.138277 2.58054e-11
0.138277 72.7607 9.41201e-12
2.58054e-11 9.41201e-12 73.1288

73.1921 -0.0503288 4.23637e-12
-0.0503288 73.1919 -4.70131e-11
4.23637e-12 -4.70131e-11 73.65

79.2371 -0.310344 -3.54319e-11
-0.310344 79.7906 -3.53364e-11
-3.54319e-11 -3.53364e-11 77.9694

79.2399 0.31285 -3.83522e-13
0.31285 79.7944 8.33803e-11
-3.83522e-13 8.33803e-11 77.9711

66.9243 -0.0527942 3.87115e-11
-0.0527942 68.2198 -3.57243e-11
3.87115e-11 -3.57243e-11 69.2695

75.0055 0.420454 -2.85012e-11
0.420454 75.2611 -1.46351e-11
-2.85012e-11 -1.46351e-11 74.9735

76.1271 0.369983 2.11841e-11
0.369983 76.5961 5.3053e-11
2.11841e-11 5.3053e-11 75.9152

76.1274 -0.367495 -2.42642e-11
-0.367495 76.5988 3.85144e-12
-2.42642e-11 3.85144e-12 75.916

75.1742 0.264497 -3.11973e-11
0.264497 75.8412 -2.15674e-11
-3.11973e-11 -2.15674e-11 75.2333

75.0014 -0.400231 -1.54059e-11
-0.400231 75.2397 3.46584e-12
-1.54059e-11 3.46584e-12 74.9665

72.155 -0.0216323 -2.88876e-11
-0.0216323 72.7551 -5.2718e-11
-2.88876e-11 -5.2718e-11 72.9777

72.2036 -0.0289358 -1.23249e-11
-0.0289358 72.8769 -1.27103e-11
-1.23249e-11 -1.27103e-11 73.0346

73.6061 -0.103189 -4.00556e-11
-0.103189 74.5123 -3.25934e-11
-4.00556e-11 -3.25934e-11 74.2859

75.1627 -0.258065 -1.15593e-12
-0.258065 75.8433 6.25933e-12
-1.15593e-12 6.25933e-12 75.2296

72.027 -0.264069 2.58049e-11
-0.264069 72.0239 3.2522e-11
2.58049e-11 3.2522e-11 72.7159

70.714 0.152885 -2.07992e-11
0.152885 70.3015 3.14746e-12
-2.07992e-11 3.14746e-12 71.5644

76.7912 0.508682 7.70184e-12
0.508682 76.9498 -2.84041e-11
7.70184e-12 -2.84041e-11 76.2984

76.7917 -0.51138 -4.00555e-11
-0.51138 76.9501 3.91877e-11
-4.00555e-11 3.91877e-11 76.2983

76.7784 0.34222 -1.57919e-11
0.34222 77.4645 -4.71794e-11
-1.57919e-11 -4.71794e-11 76.5098

76.7791 -0.34062 1.50219e-11
-0.34062 77.466 -5.40153e-11
1.50219e-11 -5.40153e-11 76.5099

71.4649 -0.267541 1.1555e-11
-0.267541 71.9389 -2.92001e-11
1.1555e-11 -2.92001e-11 72.4868

71.2692 -0.240809 1.73329e-11
-0.240809 71.262 -5.71483e-11
1.73329e-11 -5.71483e-11 72.0805

75.5895 -0.584908 -7.70274e-12
-0.584908 76.2679 -7.41404e-12
-7.70274e-12 -7.41404e-12 75.611

75.5847 0.59045 4.23696e-12
0.59045 76.2598 1.19394e-11
4.23696e-12 1.19394e-11 75.6085

76.9307 -0.330029 -4.00506e-11
-0.330029 71.2826 -7.45286e-11
-4.00506e-11 -7.45286e-11 72.6293

77.2893 -0.0320099 4.04335e-11
-0.0320099 75.371 -8.49296e-11
4.04335e-11 -8.49296e-11 74.1507

77.0097 0.356072 2.42643e-11
0.356072 77.4038 2.22414e-11
2.42643e-11 2.22414e-11 76.5004

77.0242 -0.348439 -4.04397e-11
-0.348439 77.4014 7.60607e-12
-4.04397e-11 7.60607e-12 76.5024

77.5435 0.186079 3.69725e-11
0.186079 78.0511 -1.44432e-12
3.69725e-11 -1.44432e-12 77.0591

77.5436 -0.185515 2.69545e-12
-0.185515 78.0484 1.33352e-11
2.69545e-12 1.33352e-11 77.0579

67.3122 -0.428783 -1.00153e-11
-0.428783 68.7405 3.19685e-11
-1.00153e-11 3.19685e-11 69.0438

67.4213 0.431354 8.28212e-12
0.431354 68.6988 2.09931e-11
8.28212e-12 2.09931e-11 69.0819

74.331 -2.39894 -1.84976e-11
-2.39894 71.0819 6.64362e-11
-1.84976e-11 6.64362e-11 70.9968

67.9503 0.117435 1.09777e-10
0.117435 70.0653 -5.86391e-11
1.09777e-10 -5.86391e-11 68.9655

78.2339 0.071696 -6.54696e-12
0.071696 78.7067 -3.75503e-11
-6.54696e-12 -3.75503e-11 77.4544

79.0286 -0.214578 -7.08623e-11
-0.214578 78.9642 -1.09956e-10
-7.08623e-11 -1.09956e-10 77.724

78.233 -0.0702532 -7.00948e-11
-0.0702532 78.7137 -3.09066e-11
-7.00948e-11 -3.09066e-11 77.456

79.0305 0.215936 -8.20323e-11
0.215936 78.9687 6.36429e-11
-8.20323e-11 6.36429e-11 77.7257

78.3445 1.46103 -2.34865e-11
1.46103 77.317 6.12389e-11
-2.34865e-11 6.12389e-11 74.9928

67.9643 -0.102867 -3.10068e-11
-0.102867 70.0485 5.03635e-11
-3.10068e-11 5.03635e-11 68.9648

78.8231 0.00331882 -5.62388e-11
0.00331882 78.826 2.10188e-10
-5.62388e-11 2.10188e-10 77.5429

79.9012 -0.22843 -4.03227e-10
-0.22843 79.6148 -1.68218e-10
-4.03227e-10 -1.68218e-10 78.0578

79.9017 0.230166 2.45329e-10
0.230166 79.6199 1.36335e-10
2.45329e-10 1.36335e-10 78.0593

78.8286 -0.000326371 -1.77917e-10
-0.000326371 78.8288 6.69075e-10
-1.77917e-10 6.69075e-10 77.545

78.6397 -0.147212 -2.58016e-11
-0.147212 78.2955 -8.27081e-11
-2.58016e-11 -8.27081e-11 77.3534

77.6979 -0.555406 4.58323e-11
-0.555406 77.6911 -2.26259e-11
4.58323e-11 -2.26259e-11 76.9072

78.9361 -0.164065 -3.58121e-11
-0.164065 79.5411 -2.02003e-10
-3.58121e-11 -2.02003e-10 77.8055

78.6437 0.150971 2.92692e-11
0.150971 78.2984 -4.5061e-11
2.92692e-11 -4.5061e-11 77.3553

78.9393 0.165667 3.65849e-11
0.165667 79.546 -8.8485e-11
3.65849e-11 -8.8485e-11 77.8075

77.7005 0.558749 -3.84877e-13
0.558749 77.6951 1.33833e-11
-3.84877e-13 1.33833e-11 76.9091

77.922 0.188757 -3.69716e-11
0.188757 78.2184 5.77709e-11
-3.69716e-11 5.77709e-11 77.1473

78.3709 0.384454 -1.73295e-11
0.384454 78.4734 6.99023e-11
-1.73295e-11 6.99023e-11 77.4114

77.9195 -0.187596 1.11695e-11
-0.187596 78.2167 -1.45386e-11
1.11695e-11 -1.45386e-11 77.1459

78.3693 -0.381886 -1.61753e-11
-0.381886 78.4707 -4.81401e-12
-1.61753e-11 -4.81401e-12 77.41

43.9628 2.65888 2.35983e-11
2.65888 49.9684 3.58293e-11
2.35983e-11 3.58293e-11 46.5463

58.4675 0.431719 -1.82979e-11
0.431719 60.5853 -1.19415e-11
-1.82979e-11 -1.19415e-11 58.8805

50.1891 0.749661 -1.81072e-11
0.749661 58.0591 -3.19778e-11
-1.81072e-11 -3.19778e-11 54.614

53.3118 1.3642 -4.76915e-12
1.3642 45.0289 -1.11708e-11
-4.76915e-12 -1.11708e-11 49.2077

51.1884 0.392178 1.41605e-11
0.392178 43.0898 1.88796e-11
1.41605e-11 1.88796e-11 46.2981

59.6301 -0.294303 -2.38848e-11
-0.294303 62.7281 -3.31286e-11
-2.38848e-11 -3.31286e-11 61.8596

51.4097 1.13855 -1.40592e-11
1.13855 61.7733 5.77849e-12
-1.40592e-11 5.77849e-12 57.5197

51.7843 -0.37711 1.96982e-11
-0.37711 44.3209 3.08327e-12
1.96982e-11 3.08327e-12 46.8604

59.8636 0.308743 6.04442e-12
0.308743 50.0592 1.30958e-11
6.04442e-12 1.30958e-11 55.3454

35.987 2.38721 3.75677e-12
2.38721 41.1929 3.84433e-13
3.75677e-12 3.84433e-13 37.6353

37.7348 -3.86061 8.76562e-12
-3.86061 41.8724 -3.50661e-11
8.76562e-12 -3.50661e-11 37.9757

42.2324 2.405 -3.77613e-11
2.405 37.2673 -1.81076e-11
-3.77613e-11 -1.81076e-11 38.4638

60.5682 -4.40787 1.26151e-11
-4.40787 63.2508 -1.36771e-11
1.26151e-11 -1.36771e-11 61.4161

57.3371 -1.54093 -2.48444e-11
-1.54093 61.7059 -6.16477e-12
-2.48444e-11 -6.16477e-12 59.3042

44.9447 2.28527 2.28251e-11
2.28527 52.1286 8.08901e-12
2.28251e-11 8.08901e-12 49.3304

47.9996 2.65158 1.03992e-11
2.65158 56.2142 -2.69692e-11
1.03992e-11 -2.69692e-11 53.7462

51.2528 -1.26223 -1.38649e-11
-1.26223 61.8375 2.6951e-12
-1.38649e-11 2.6951e-12 57.3796

57.2208 -3.29987 1.36715e-11
-3.29987 61.6951 -3.08179e-11
1.36715e-11 -3.08179e-11 59.9768

53.9656 -2.35006 1.1174e-11
-2.35006 46.4404 1.77167e-11
1.1174e-11 1.77167e-11 50.9342

38.6563 0.754003 -1.45453e-11
0.754003 45.9738 2.19575e-11
-1.45453e-11 2.19575e-11 40.8896

41.5701 -1.50591 1.15191e-12
-1.50591 46.9374 -2.04211e-11
1.15191e-12 -2.04211e-11 42.0983

46.1534 0.56596 -5.00875e-11
0.56596 40.3833 -1.25182e-11
-5.00875e-11 -1.25182e-11 41.5022

44.1934 3.08175 -2.11623e-12
3.08175 47.8529 -2.69829e-12
-2.11623e-12 -2.69829e-12 46.0013

48.1666 -2.11771 -2.21541e-12
-2.11771 41.6285 -1.90727e-11
-2.21541e-12 -1.90727e-11 43.8031

48.807 3.38468 -8.18582e-12
3.38468 49.4426 1.80107e-11
-8.18582e-12 1.80107e-11 49.2071

50.8953 2.39874 -1.48337e-11
2.39874 52.5904 -1.25245e-11
-1.48337e-11 -1.25245e-11 50.1842

54.5348 -0.72429 1.99882e-11
-0.72429 45.5036 7.7061e-12
1.99882e-11 7.7061e-12 49.8887

34.3194 1.61953 1.63788e-11
1.61953 38.0512 3.19789e-11
1.63788e-11 3.19789e-11 34.2874

57.7413 0.811998 -1.15347e-11
0.811998 48.707 -1.65648e-11
-1.15347e-11 -1.65648e-11 53.937

38.2149 1.51083 5.87702e-11
1.51083 35.4967 3.66138e-11
5.87702e-11 3.66138e-11 34.9394

62.956 -1.50142 -3.66168e-12
-1.50142 64.3532 -3.39957e-11
-3.66168e-12 -3.39957e-11 63.1162

57.6944 0.190995 1.79124e-11
0.190995 63.5475 1.30972e-11
1.79124e-11 1.30972e-11 59.835

67.1282 -1.61032 1.68518e-11
-1.61032 64.4209 -1.29068e-11
1.68518e-11 -1.29068e-11 64.0083

65.3196 3.89731 3.51524e-11
3.89731 65.7274 1.73352e-11
3.51524e-11 1.73352e-11 63.9563

45.0878 -1.02699 -6.72499e-13
-1.02699 39.4243 6.93057e-12
-6.72499e-13 6.93057e-12 40.1055

49.0148 3.59062 -1.32877e-11
3.59062 51.3293 3.85177e-12
-1.32877e-11 3.85177e-12 51.344

58.9362 2.05265 2.15609e-11
2.05265 58.3162 2.69484e-12
2.15609e-11 2.69484e-12 59.0505

60.6887 -0.577265 3.72065e-12
-0.577265 59.8758 3.25516e-11
3.72065e-12 3.25516e-11 59.8514

59.9331 0.310232 1.85446e-12
0.310232 49.4777 -1.5024e-11
1.85446e-12 -1.5024e-11 55.3548

48.9862 3.38314 1.03994e-11
3.38314 51.5932 -4.17979e-11
1.03994e-11 -4.17979e-11 49.2709

49.0092 -2.68028 1.30029e-11
-2.68028 45.5372 -4.43268e-12
1.30029e-11 -4.43268e-12 45.5151

59.2732 -0.0314405 1.33877e-11
-0.0314405 47.973 -2.42699e-11
1.33877e-11 -2.42699e-11 54.2064

46.1133 -4.61062 -1.44336e-12
-4.61062 50.4711 -7.70561e-12
-1.44336e-12 -7.70561e-12 46.8534

47.2131 -4.02006 -1.08833e-11
-4.02006 51.6296 -5.97293e-12
-1.08833e-11 -5.97293e-12 47.8272

58.8031 2.03728 2.17666e-11
2.03728 60.4773 -9.65524e-13
2.17666e-11 -9.65524e-13 59.6115

45.326 -4.61569 4.60412e-11
-4.61569 43.9055 -1.58028e-11
4.60412e-11 -1.58028e-11 42.9267

27.6774 -4.59995 1.63773e-11
-4.59995 27.3251 1.77259e-11
1.63773e-11 1.77259e-11 27.3323

27.4242 -4.87478 -5.04858e-11
-4.87478 28.6914 -3.40993e-11
-5.04858e-11 -3.40993e-11 27.7888

55.7811 -5.35694 7.99331e-12
-5.35694 61.5038 1.48318e-11
7.99331e-12 1.48318e-11 58.9385

27.7365 -1.82001 -1.31042e-11
-1.82001 27.3575 -3.65944e-12
-1.31042e-11 -3.65944e-12 28.4986

26.6113 -1.49139 1.17506e-11
-1.49139 27.6138 -3.77682e-11
1.17506e-11 -3.77682e-11 28.0299

66.9292 2.32565 3.00464e-11
2.32565 62.2756 -2.75432e-11
3.00464e-11 -2.75432e-11 64.5832

62.6194 -3.07847 1.07953e-11
-3.07847 59.3573 6.43262e-11
1.07953e-11 6.43262e-11 60.4084

55.6727 -1.60737 1.56062e-11
-1.60737 47.7522 2.31164e-11
1.56062e-11 2.31164e-11 53.223

65.961 3.13079 3.92855e-11
3.13079 59.686 -1.42571e-11
3.92855e-11 -1.42571e-11 63.4763

62.0655 -4.3184 2.23438e-11
-4.3184 58.8684 -8.70599e-11
2.23438e-11 -8.70599e-11 60.207

52.1754 2.36813 6.35606e-12
2.36813 55.7627 -1.02108e-11
6.35606e-12 -1.02108e-11 53.5225

65.9586 -1.49512 2.52717e-12
-1.49512 61.3259 -1.70209e-11
2.52717e-12 -1.70209e-11 62.617

63.7437 2.01042 9.02928e-12
2.01042 62.4572 4.36669e-12
9.02928e-12 4.36669e-12 62.4416

61.404 3.66688 -2.23452e-11
3.66688 56.4773 4.43068e-12
-2.23452e-11 4.43068e-12 59.586

57.1375 -4.66373 3.66137e-12
-4.66373 53.9537 -5.15847e-12
3.66137e-12 -5.15847e-12 56.2305

40.4888 -3.18517 -8.95772e-12
-3.18517 36.1152 1.56062e-11
-8.95772e-12 1.56062e-11 36.7634

66.5246 -0.909115 -3.37014e-11
-0.909115 69.1025 4.52607e-11
-3.37014e-11 4.52607e-11 67.6364

61.1583 -0.150363 9.24444e-12
-0.150363 69.242 -1.57946e-11
9.24444e-12 -1.57946e-11 63.0562

44.2335 -3.89479 1.54109e-11
-3.89479 48.1293 -2.00355e-11
1.54109e-11 -2.00355e-11 46.2688

33.1329 -1.34265 -6.54717e-12
-1.34265 37.0745 -1.86889e-11
-6.54717e-12 -1.86889e-11 33.6296

36.3706 -1.25605 5.80425e-13
-1.25605 32.67 2.48602e-11
5.80425e-13 2.48602e-11 33.0739

55.128 1.51059 3.27605e-12
1.51059 59.1346 -8.08642e-12
3.27605e-12 -8.08642e-12 57.2431

46.9462 2.27297 -2.25375e-11
2.27297 55.608 -3.92949e-11
-2.25375e-11 -3.92949e-11 52.6337

77.086 2.96434 5.66121e-11
2.96434 68.4396 1.23166e-11
5.66121e-11 1.23166e-11 70.4437

76.5161 0.881892 2.52645e-10
0.881892 79.571 -1.74892e-10
2.52645e-10 -1.74892e-10 69.3108

49.4909 3.42005 3.03384e-11
3.42005 54.623 7.6944e-13
3.03384e-11 7.6944e-13 54.7599

58.117 2.70622 1.92957e-13
2.70622 51.1649 -2.61959e-11
1.92957e-13 -2.61959e-11 55.5377

55.727 -4.1202 -2.36933e-11
-4.1202 49.9101 3.87135e-13
-2.36933e-11 3.87135e-13 53.6862

50.3011 4.69385 1.01124e-11
4.69385 54.1612 -6.16218e-12
1.01124e-11 -6.16218e-12 54.4879

51.1108 -3.56964 4.04623e-12
-3.56964 58.8247 7.32118e-12
4.04623e-12 7.32118e-12 56.7

44.2928 -0.338059 -1.13631e-11
-0.338059 37.3008 -4.62388e-12
-1.13631e-11 -4.62388e-12 39.2554

52.045 -1.36527 -1.425e-11
-1.36527 44.4679 3.35193e-11
-1.425e-11 3.35193e-11 47.9773

47.5192 1.67668 -8.65826e-13
1.67668 41.0995 7.70846e-13
-8.65826e-13 7.70846e-13 43.1038

58.1334 1.86092 1.71048e-12
1.86092 54.5312 -7.3207e-12
1.71048e-12 -7.3207e-12 57.4419

60.5156 1.26592 1.88409e-11
1.26592 68.8529 5.2e-11
1.88409e-11 5.2e-11 63.9014

64.8824 -0.932799 -1.96694e-11
-0.932799 65.4033 -7.37663e-11
-1.96694e-11 -7.37663e-11 64.0463

41.0604 2.69264 2.42735e-11
2.69264 42.6182 -3.62168e-11
2.42735e-11 -3.62168e-11 40.055

49.8928 -3.46082 -1.07867e-11
-3.46082 48.5172 1.94555e-11
-1.07867e-11 1.94555e-11 48.6686

55.5731 1.87354 8.47404e-12
1.87354 49.6013 -1.2905e-11
8.47404e-12 -1.2905e-11 52.8235

64.542 2.08828 5.41138e-11
2.08828 71.3725 -9.24449e-12
5.41138e-11 -9.24449e-12 64.5891

65.908 -1.39635 -1.79095e-11
-1.39635 68.6312 4.56433e-11
-1.79095e-11 4.56433e-11 67.1881

59.6298 -0.509891 1.36543e-11
-0.509891 55.0811 2.11863e-11
1.36543e-11 2.11863e-11 58.1072

56.4073 -2.69279 2.2727e-11
-2.69279 59.8056 -7.32007e-12
2.2727e-11 -7.32007e-12 57.3448

50.0694 -0.871178 -1.85873e-11
-0.871178 58.2983 -1.50244e-11
-1.85873e-11 -1.50244e-11 54.5559

58.4542 0.59753 -1.92291e-12
0.59753 48.5859 2.63887e-11
-1.92291e-12 2.63887e-11 55.7208

57.6605 -1.87682 -6.16448e-12
-1.87682 48.3248 2.58114e-11
-6.16448e-12 2.58114e-11 55.0537

42.3581 -3.82484 1.21386e-11
-3.82484 40.7237 -9.24579e-12
1.21386e-11 -9.24579e-12 39.8991

62.0034 2.36109 3.20166e-11
2.36109 52.68 -2.6001e-11
3.20166e-11 -2.6001e-11 59.1893

60.0915 -3.67175 4.50264e-11
-3.67175 52.7194 -1.07906e-11
4.50264e-11 -1.07906e-11 57.4853

54.1335 -3.26956 8.66514e-12
-3.26956 47.8489 -3.65998e-11
8.66514e-12 -3.65998e-11 51.296

44.9399 -3.25747 -1.73261e-12
-3.25747 50.2319 1.42567e-11
-1.73261e-12 1.42567e-11 47.1498

58.8955 1.41996 -7.7115e-12
1.41996 52.0309 -6.16334e-11
-7.7115e-12 -6.16334e-11 56.9739

57.8732 -2.63326 6.54954e-12
-2.63326 50.9194 1.41562e-11
6.54954e-12 1.41562e-11 55.5888

55.0754 -0.860638 1.83083e-12
-0.860638 48.9092 3.73699e-11
1.83083e-12 3.73699e-11 51.5332

61.9763 4.10671 -4.81326e-12
4.10671 59.9486 4.81556e-12
-4.81326e-12 4.81556e-12 61.1289

47.1219 2.72293 -1.96287e-13
2.72293 45.2709 3.85388e-12
-1.96287e-13 3.85388e-12 45.0823

49.8565 4.07925 -3.6617e-12
4.07925 53.562 -4.00665e-11
-3.6617e-12 -4.00665e-11 54.87

60.7095 3.0349 7.12745e-12
3.0349 62.9445 2.38849e-11
7.12745e-12 2.38849e-11 62.4684

49.6728 1.51554 -1.13631e-11
1.51554 42.4232 -1.11716e-11
-1.13631e-11 -1.11716e-11 45.4143

54.2625 -2.02924 2.9398e-12
-2.02924 51.7924 -6.5475e-12
2.9398e-12 -6.5475e-12 53.5868

53.662 1.26825 -1.77221e-11
1.26825 47.7543 1.57946e-11
-1.77221e-11 1.57946e-11 50.4943

42.86 3.25985 9.82584e-12
3.25985 44.035 1.46387e-11
9.82584e-12 1.46387e-11 43.0048

48 3.07935 -1.90713e-11
3.07935 46.5806 8.47774e-12
-1.90713e-11 8.47774e-12 47.6865

46.1408 0.0360892 1.02073e-11
0.0360892 56.8122 -2.50452e-11
1.02073e-11 -2.50452e-11 52.3819

52.4151 -1.327 -1.5411e-12
-1.327 57.7494 1.02089e-11
-1.5411e-12 1.02089e-11 55.2814

41.239 -3.8394 1.88808e-11
-3.8394 36.9004 -2.00373e-11
1.88808e-11 -2.00373e-11 38.0861

52.8341 -5.23816 -2.22453e-11
-5.23816 57.8276 3.86617e-13
-2.22453e-11 3.86617e-13 55.6591

43.6182 -4.61928 -4.75708e-11
-4.61928 45.9834 3.19876e-11
-4.75708e-11 3.19876e-11 43.7577

47.736 3.74808 2.83239e-11
3.74808 47.8563 6.70362e-11
2.83239e-11 6.70362e-11 46.0168

54.0436 -1.71107 -3.22653e-11
-1.71107 50.0974 3.65974e-12
-3.22653e-11 3.65974e-12 51.3297

61.1879 -0.13306 2.53315e-11
-0.13306 50.975 1.7335e-12
2.53315e-11 1.7335e-12 57.1597

60.0808 0.550351 1.62763e-11
0.550351 51.356 -2.65798e-11
1.62763e-11 -2.65798e-11 56.9053

40.4923 1.71791 -5.78134e-12
1.71791 48.3039 3.47189e-12
-5.78134e-12 3.47189e-12 44.0925

50.3141 -4.12634 -5.20036e-12
-4.12634 51.7081 -5.20043e-12
-5.20036e-12 -5.20043e-12 49.9377

35.3287 -0.56641 -3.44804e-11
-0.56641 44.1504 -2.08039e-11
-3.44804e-11 -2.08039e-11 38.8832

38.5154 -0.716821 -6.16479e-12
-0.716821 45.6518 -2.19642e-11
-6.16479e-12 -2.19642e-11 40.4294

44.0054 -0.94841 1.77636e-15
-0.94841 36.3816 4.6617e-11
1.77636e-15 4.6617e-11 39.1912

43.8707 2.72936 -2.56272e-11
2.72936 42.7042 -3.67969e-11
-2.56272e-11 -3.67969e-11 41.1651

45.1129 -4.73913 -3.31363e-11
-4.73913 42.5178 4.63019e-12
-3.31363e-11 4.63019e-12 43.352

75.5479 -1.12492 -9.89853e-11
-1.12492 75.7744 5.20047e-11
-9.89853e-11 5.20047e-11 68.1363

65.761 -4.26998 5.52722e-11
-4.26998 71.0439 3.98581e-11
5.52722e-11 3.98581e-11 68.0613

48.708 -2.80624 -2.48502e-11
-2.80624 41.9341 1.4646e-11
-2.48502e-11 1.4646e-11 44.8877

56.6448 3.79289 5.78004e-12
3.79289 57.9047 2.04143e-11
5.78004e-12 2.04143e-11 56.9935

56.0581 0.25274 -2.30593e-12
0.25274 48.0512 3.54414e-11
-2.30593e-12 3.54414e-11 53.521

44.633 -3.43919 -9.62965e-12
-3.43919 50.5113 1.02094e-11
-9.62965e-12 1.02094e-11 45.9947

49.7176 3.57984 1.93593e-11
3.57984 58.8398 1.69505e-11
1.93593e-11 1.69505e-11 56.6109

63.0266 1.49192 3.2548e-11
1.49192 65.1387 -1.9837e-11
3.2548e-11 -1.9837e-11 64.6996

51.7577 -4.87737 -2.38889e-11
-4.87737 53.9667 3.87986e-13
-2.38889e-11 3.87986e-13 54.6997

62.5093 3.65192 -6.73776e-12
3.65192 62.9709 3.0241e-11
-6.73776e-12 3.0241e-11 63.2668

46.9802 2.89216 4.14085e-12
2.89216 53.0593 -3.85151e-12
4.14085e-12 -3.85151e-12 51.6239

58.5773 -0.344136 -2.81257e-11
-0.344136 44.7592 7.72234e-13
-2.81257e-11 7.72234e-13 55.585

47.9337 3.56767 1.84911e-11
3.56767 44.1116 -1.65703e-11
1.84911e-11 -1.65703e-11 44.9216

53.529 -5.5426 -4.09136e-12
-5.5426 60.1093 -4.62289e-11
-4.09136e-12 -4.62289e-11 56.7138

49.1844 3.2116 1.81077e-11
3.2116 48.3608 1.84891e-11
1.81077e-11 1.84891e-11 47.3587

41.1033 -3.15178 7.51421e-12
-3.15178 43.0013 -3.31396e-11
7.51421e-12 -3.31396e-11 39.7616

51.0246 -4.53688 -7.60951e-12
-4.53688 54.6085 3.85144e-12
-7.60951e-12 3.85144e-12 52.4449

39.5561 -2.04764 7.32203e-12
-2.04764 46.5488 -4.43075e-11
7.32203e-12 -4.43075e-11 41.7015

43.8089 0.781754 4.87373e-11
0.781754 48.0857 1.8491e-11
4.87373e-11 1.8491e-11 43.6629

45.6653 -1.92742 2.04232e-11
-1.92742 40.1762 6.16015e-12
2.04232e-11 6.16015e-12 41.5431

45.9143 -4.13338 -4.02625e-11
-4.13338 45.3016 2.23619e-11
-4.02625e-11 2.23619e-11 44.9061

44.7701 -0.196127 -1.50279e-11
-0.196127 53.3981 1.38717e-11
-1.50279e-11 1.38717e-11 48.7656

51.1086 -0.741204 -3.27201e-12
-0.741204 55.251 1.96458e-11
-3.27201e-12 1.96458e-11 51.5698

37.8461 -4.13607 4.47003e-11
-4.13607 40.3792 -2.73591e-11
4.47003e-11 -2.73591e-11 37.8659

41.0286 3.06702 1.71444e-11
3.06702 42.0417 -5.0863e-11
1.71444e-11 -5.0863e-11 39.6685

57.5165 0.015059 -1.61757e-11
0.015059 48.8025 3.91016e-11
-1.61757e-11 3.91016e-11 56.4078

57.0603 -0.733227 -9.2454e-12
-0.733227 48.9494 1.84904e-11
-9.2454e-12 1.84904e-11 55.8965

57.8254 3.31509 -2.33023e-11
3.31509 58.6774 9.44126e-12
-2.33023e-11 9.44126e-12 57.9686

55.3117 -5.47592 -2.97583e-11
-5.47592 61.5051 3.60237e-11
-2.97583e-11 3.60237e-11 58.6414

51.6359 3.75635 1.68096e-11
3.75635 52.2576 -1.63739e-11
1.68096e-11 -1.63739e-11 53.2796

38.8242 1.72651 -8.2867e-12
1.72651 34.9661 1.96498e-11
-8.2867e-12 1.96498e-11 35.478

46.0315 2.06259 2.58111e-11
2.06259 50.9846 -2.09988e-11
2.58111e-11 -2.09988e-11 47.1533

63.7171 1.9031 3.12069e-11
1.9031 57.3963 3.67832e-11
3.12069e-11 3.67832e-11 61.2487

60.6821 -3.31926 4.31456e-11
-3.31926 55.1279 1.88738e-13
4.31456e-11 1.88738e-13 58.2161

59.1037 2.71371 -5.19999e-12
2.71371 54.6927 2.0803e-11
-5.19999e-12 2.0803e-11 57.0748

56.1939 -3.92244 -4.31462e-11
-3.92244 51.5808 1.88813e-11
-4.31462e-11 1.88813e-11 54.2034

25.1894 -1.96175 -1.71478e-11
-1.96175 21.5179 -2.81308e-11
-1.71478e-11 -2.81308e-11 26.5677

21.4463 -2.29543 -2.08166e-11
-2.29543 26.0722 -4.64338e-11
-2.08166e-11 -4.64338e-11 26.967

40.8794 -2.60558 -2.22045e-16
-2.60558 48.7605 3.15964e-11
-2.22045e-16 3.15964e-11 44.6281

70.9385 3.11345 -8.20368e-11
3.11345 62.6284 4.95036e-11
-8.20368e-11 4.95036e-11 66.4593

68.6302 -4.40336 -3.77492e-11
-4.40336 64.5898 -4.50585e-11
-3.77492e-11 -4.50585e-11 63.9464

54.6436 3.15629 -3.14087e-11
3.15629 51.5628 -4.83476e-11
-3.14087e-11 -4.83476e-11 52.5734

39.1736 1.27527 -1.05264e-12
1.27527 34.5894 -1.54084e-12
-1.05264e-12 -1.54084e-12 35.4335

52.0447 -3.80265 1.40601e-11
-3.80265 57.9998 -4.04662e-12
1.40601e-11 -4.04662e-12 54.9172

47.3618 -1.82595 -4.23917e-12
-1.82595 56.8274 -5.77619e-12
-4.23917e-12 -5.77619e-12 52.9877

44.5276 -4.5286 -1.3002e-11
-4.5286 45.7135 -4.98953e-11
-1.3002e-11 -4.98953e-11 43.5121

50.8031 -3.66788 -7.89857e-12
-3.66788 53.7837 -2.6196e-11
-7.89857e-12 -2.6196e-11 55.0192

51.4585 -4.26136 4.73837e-11
-4.26136 48.393 -3.19795e-11
4.73837e-11 -3.19795e-11 49.8269

46.9117 5.55073 -3.85425e-12
5.55073 54.6639 -3.19771e-11
-3.85425e-12 -3.19771e-11 54.3872

63.654 1.35375 3.0815e-11
1.35375 65.3032 -7.89983e-12
3.0815e-11 -7.89983e-12 64.7999

57.5354 2.32801 -9.43612e-12
2.32801 61.1098 9.15286e-12
-9.43612e-12 9.15286e-12 59.3243

50.2601 -4.08266 -7.32307e-12
-4.08266 52.3963 -2.04158e-11
-7.32307e-12 -2.04158e-11 52.6358

49.3251 3.98457 1.2137e-11
3.98457 52.5657 -6.55024e-12
1.2137e-11 -6.55024e-12 52.4362

45.9762 2.65163 -1.23349e-11
2.65163 41.2111 -1.84933e-11
-1.23349e-11 -1.84933e-11 42.5692

51.936 -0.00713728 2.13829e-11
-0.00713728 45.1219 -1.35521e-12
2.13829e-11 -1.35521e-12 48.355

64.017 2.75155 1.0015e-11
2.75155 63.8628 8.85884e-12
1.0015e-11 8.85884e-12 64.1844

48.575 -4.40962 -1.10767e-11
-4.40962 54.9146 -1.77216e-11
-1.10767e-11 -1.77216e-11 51.0837

42.4012 0.668719 -1.51216e-11
0.668719 52.0053 1.34901e-11
-1.51216e-11 1.34901e-11 47.1823

57.0894 4.12018 7.53209e-11
4.12018 53.4959 2.92752e-11
7.53209e-11 2.92752e-11 55.3925

48.892 0.11573 1.61835e-11
0.11573 53.9854 2.46577e-11
1.61835e-11 2.46577e-11 50.3801

49.5738 -3.07229 -5.77742e-12
-3.07229 58.191 -2.50402e-11
-5.77742e-12 -2.50402e-11 56.3351

31.5495 -2.59456 -1.50256e-11
-2.59456 33.0433 2.69969e-12
-1.50256e-11 2.69969e-12 30.9456

33.0119 -2.65261 1.32007e-11
-2.65261 31.2363 3.77598e-11
1.32007e-11 3.77598e-11 30.7826

54.9582 0.910123 2.01313e-11
0.910123 46.9965 1.34873e-11
2.01313e-11 1.34873e-11 51.6737

52.3928 -4.85642 -3.65811e-12
-4.85642 50.1223 1.46424e-11
-3.65811e-12 1.46424e-11 52.0023

76.6137 2.75608 3.06854e-12
2.75608 66.7354 8.09086e-12
3.06854e-12 8.09086e-12 69.5774

77.6606 -0.774966 1.63712e-10
-0.774966 71.7713 1.4095e-10
1.63712e-10 1.4095e-10 67.8759

48.027 -3.42231 3.04328e-11
-3.42231 53.1328 -3.42901e-11
3.04328e-11 -3.42901e-11 51.995

60.9473 -1.03723 1.2856e-11
-1.03723 62.6624 -1.23277e-11
1.2856e-11 -1.23277e-11 61.6453

60.4212 3.58821 3.59945e-11
3.58821 64.3934 1.77179e-11
3.59945e-11 1.77179e-11 61.9313

56.8958 0.322588 -6.24463e-13
0.322588 46.8065 -1.77203e-11
-6.24463e-13 -1.77203e-11 51.8295

52.8497 -5.94082 2.55205e-11
-5.94082 59.6512 1.05925e-11
2.55205e-11 1.05925e-11 56.4172

34.2269 1.99693 -1.07856e-11
1.99693 34.3915 5.87654e-11
-1.07856e-11 5.87654e-11 33.0208

33.1688 1.92522 1.19489e-11
1.92522 33.2142 2.98398e-12
1.19489e-11 2.98398e-12 32.2032

32.5116 -2.31164 -5.19681e-12
-2.31164 37.8971 5.24048e-11
-5.19681e-12 5.24048e-11 34.2305

35.687 1.15072 5.97219e-12
1.15072 39.6162 -3.37141e-11
5.97219e-12 -3.37141e-11 35.9285

37.791 -1.96335 -3.41053e-11
-1.96335 32.9488 2.42703e-11
-3.41053e-11 2.42703e-11 34.3388

47.685 -5.45376 3.46712e-12
-5.45376 54.3561 3.1591e-11
3.46712e-12 3.1591e-11 54.4343

29.6076 0.109802 -5.39385e-12
0.109802 35.9208 -8.8618e-12
-5.39385e-12 -8.8618e-12 32.0692

36.2203 0.163097 4.4314e-11
0.163097 30.8536 -2.58176e-11
4.4314e-11 -2.58176e-11 32.6894

60.1611 0.366471 -2.29164e-11
0.366471 66.3044 -6.43325e-11
-2.29164e-11 -6.43325e-11 61.8641

62.6496 -3.12891 -1.98388e-11
-3.12891 66.0595 -1.83923e-11
-1.98388e-11 -1.83923e-11 63.8134

57.505 1.25476 1.088e-11
1.25476 52.2214 -1.57946e-11
1.088e-11 -1.57946e-11 54.945

59.8816 0.208992 -2.60044e-12
0.208992 48.5051 -1.54077e-12
-2.60044e-12 -1.54077e-12 55.1161

38.5847 -2.95087 6.51204e-11
-2.95087 43.7091 2.54272e-11
6.51204e-11 2.54272e-11 40.3971

41.9614 1.88818 1.09868e-11
1.88818 45.9284 3.89161e-11
1.09868e-11 3.89161e-11 42.3433

57.0459 0.247718 1.29549e-11
0.247718 47.1934 -7.70591e-12
1.29549e-11 -7.70591e-12 52.0813

45.8813 -3.00257 2.21536e-11
-3.00257 52.4631 1.15599e-11
2.21536e-11 1.15599e-11 49.8766

67.7773 1.75072 -3.00517e-11
1.75072 61.3785 1.04039e-11
-3.00517e-11 1.04039e-11 64.7645

65.1918 -2.42846 1.57886e-11
-2.42846 61.2178 -4.85374e-11
1.57886e-11 -4.85374e-11 61.9713

53.696 2.85838 -3.43263e-11
2.85838 53.4825 3.62101e-11
-3.43263e-11 3.62101e-11 54.2229

51.4479 -5.01771 -2.3018e-11
-5.01771 57.1647 1.52188e-11
-2.3018e-11 1.52188e-11 53.7442

56.4581 1.29535 3.0369e-12
1.29535 48.4747 1.77196e-11
3.0369e-12 1.77196e-11 53.2476

40.3887 2.62282 -1.60888e-11
2.62282 39.5296 -3.47241e-12
-1.60888e-11 -3.47241e-12 38.711

51.2676 -5.41225 -1.25196e-11
-5.41225 56.6352 2.50563e-12
-1.25196e-11 2.50563e-12 53.3919

26.0304 4.79977 -8.86533e-12
4.79977 26.1137 -8.86484e-12
-8.86533e-12 -8.86484e-12 26.3315

46.9064 -1.9792 1.8107e-11
-1.9792 53.2686 4.81625e-11
1.8107e-11 4.81625e-11 49.1597

43.1976 -1.16976 -1.75309e-11
-1.16976 52.135 2.54327e-11
-1.75309e-11 2.54327e-11 47.4735

59.4123 -0.52435 1.9258e-11
-0.52435 68.79 -2.96621e-11
1.9258e-11 -2.96621e-11 62.3706

64.0518 -2.4605 7.31789e-12
-2.4605 66.0836 6.54617e-12
7.31789e-12 6.54617e-12 65.0721

61.4422 1.37118 -3.65986e-11
1.37118 47.7198 1.05979e-11
-3.65986e-11 1.05979e-11 58.2256

60.3824 -2.02472 6.66134e-16
-2.02472 48.7411 -5.77849e-12
6.66134e-16 -5.77849e-12 57.2874

55.3285 4.13866 -7.36739e-11
4.13866 55.5172 1.81103e-11
-7.36739e-11 1.81103e-11 56.7111

56.2648 -2.65119 7.27129e-12
-2.65119 57.3649 2.31171e-12
7.27129e-12 2.31171e-12 57.408

60.0068 3.18329 -7.24606e-14
3.18329 61.3978 1.72987e-12
-7.24606e-14 1.72987e-12 60.9776

60.39 -2.21452 2.46773e-11
-2.21452 63.7619 1.6371e-11
2.46773e-11 1.6371e-11 61.4289

74.589 3.02726 -3.77445e-11
3.02726 66.1807 6.22149e-11
-3.77445e-11 6.22149e-11 68.9836

72.1679 -4.23315 -4.96772e-11
-4.23315 69.8661 1.2018e-10
-4.96772e-11 1.2018e-10 66.1689

67.5087 3.12601 -1.07841e-11
3.12601 64.0187 2.88908e-11
-1.07841e-11 2.88908e-11 65.9077

52.9527 -5.90412 2.98559e-11
-5.90412 55.5781 -3.46757e-11
2.98559e-11 -3.46757e-11 56.729

53.7755 3.26755 -2.92805e-11
3.26755 48.3958 -1.96462e-11
-2.92805e-11 -1.96462e-11 50.9145

51.1679 -3.6978 -5.39338e-12
-3.6978 55.9024 -9.24572e-12
-5.39338e-12 -9.24572e-12 52.293

46.0895 -2.23404 1.77208e-11
-2.23404 53.6539 -5.00947e-12
1.77208e-11 -5.00947e-12 50.2815

41.9999 -3.28394 4.04706e-12
-3.28394 41.255 9.82954e-12
4.04706e-12 9.82954e-12 39.208

50.8845 -4.33685 4.87332e-11
-4.33685 46.3432 -1.73436e-11
4.87332e-11 -1.73436e-11 48.7931

45.9971 1.49303 -1.98398e-11
1.49303 53.6246 1.61818e-11
-1.98398e-11 1.61818e-11 50.0417

52.4295 4.34382 -2.42767e-11
4.34382 50.4033 -2.08089e-11
-2.42767e-11 -2.08089e-11 50.7817

51.1396 6.44597 -3.36629e-11
6.44597 55.9351 -4.469e-11
-3.36629e-11 -4.469e-11 56.6306

54.5028 -5.23627 7.31996e-12
-5.23627 60.2233 -3.64046e-11
7.31996e-12 -3.64046e-11 57.8869

48.0089 -4.94025 6.06788e-11
-4.94025 47.0891 -1.65746e-11
6.06788e-11 -1.65746e-11 47.7515

59.0767 -0.35282 2.87008e-11
-0.35282 54.1986 -2.85084e-11
2.87008e-11 -2.85084e-11 56.1069

67.6748 -1.63105 -1.48307e-11
-1.63105 70.4801 6.92391e-11
-1.48307e-11 6.92391e-11 67.7445

75.3522 -1.89893 -1.34828e-11
-1.89893 74.4284 -3.07602e-12
-1.34828e-11 -3.07602e-12 67.7646

50.1749 -1.92249 -3.27459e-11
-1.92249 56.7029 4.62719e-12
-3.27459e-11 4.62719e-12 54.6197

52.6445 2.66761 -4.03551e-11
2.66761 50.0531 1.23286e-11
-4.03551e-11 1.23286e-11 52.478

61.613 -0.197296 8.13866e-12
-0.197296 57.1633 -2.69747e-12
8.13866e-12 -2.69747e-12 59.4517

31.4474 -3.36036 -2.40841e-11
-3.36036 33.8094 1.34838e-11
-2.40841e-11 1.34838e-11 31.4827

33.4561 -3.01842 4.29697e-11
-3.01842 31.4127 4.17077e-11
4.29697e-11 4.17077e-11 31.4996

62.8036 -0.125743 -2.65872e-11
-0.125743 52.9562 -1.19387e-11
-2.65872e-11 -1.19387e-11 60.1773

61.6854 -0.624902 -5.35498e-11
-0.624902 52.8235 1.54299e-12
-5.35498e-11 1.54299e-12 58.619

62.9992 0.67319 1.30261e-11
0.67319 56.7491 -1.63707e-11
1.30261e-11 -1.63707e-11 59.7194

54.0109 1.75522 -1.11923e-11
1.75522 56.5653 1.61841e-11
-1.11923e-11 1.61841e-11 54.1886

50.9003 2.27208 -1.48351e-11
2.27208 46.3559 -2.02292e-11
-1.48351e-11 -2.02292e-11 47.4766

62.3406 3.10751 -3.66043e-11
3.10751 59.2287 -5.46913e-11
-3.66043e-11 -5.46913e-11 60.8654

57.4827 -4.06708 -3.27531e-12
-4.06708 54.5282 3.4646e-12
-3.27531e-12 3.4646e-12 56.5259

66.6709 -0.515214 5.17664e-12
-0.515214 64.0591 1.54145e-13
5.17664e-12 1.54145e-13 64.3022

67.3764 4.45828 5.45541e-12
4.45828 73.4039 -1.22767e-10
5.45541e-12 -1.22767e-10 66.3694

48.6488 -3.4798 2.42696e-11
-3.4798 54.8633 -1.65691e-11
2.42696e-11 -1.65691e-11 53.6853

52.7767 2.28404 -1.6759e-11
2.28404 48.2356 2.96651e-11
-1.6759e-11 2.96651e-11 50.234

63.2862 2.10962 2.10048e-11
2.10962 57.1492 3.73646e-11
2.10048e-11 3.73646e-11 61.087

61.1456 -2.84521 4.41171e-11
-2.84521 56.4578 5.35414e-11
4.41171e-11 5.35414e-11 58.8059

55.0549 -4.85051 -1.4431e-12
-4.85051 59.5921 -1.92764e-12
-1.4431e-12 -1.92764e-12 56.7557

53.7774 -6.20678 -2.67733e-11
-6.20678 59.9876 1.29091e-11
-2.67733e-11 1.29091e-11 56.7496

27.1568 5.73629 -3.17903e-11
5.73629 27.7741 1.11768e-11
-3.17903e-11 1.11768e-11 27.1892

54.0264 4.38197 -3.19248e-11
4.38197 59.4794 1.98412e-11
-3.19248e-11 1.98412e-11 58.4478

56.489 -3.86887 2.41706e-11
-3.86887 62.3236 1.86838e-11
2.41706e-11 1.86838e-11 59.3553

52.0426 -5.33852 -1.6083e-11
-5.33852 58.5948 1.44488e-11
-1.6083e-11 1.44488e-11 55.3516

49.689 -3.62876 -4.62534e-12
-3.62876 44.4917 3.31346e-11
-4.62534e-12 3.31346e-11 46.2207

55.6055 -2.39673 -1.51184e-11
-2.39673 56.4756 2.36945e-11
-1.51184e-11 2.36945e-11 55.445

55.4904 4.14277 -5.50874e-11
4.14277 55.9299 -1.61773e-11
-5.50874e-11 -1.61773e-11 57.2444

56.2873 -3.31917 1.07856e-11
-3.31917 59.7387 4.68059e-11
1.07856e-11 4.68059e-11 58.0649

57.6578 -0.332767 1.9215e-11
-0.332767 49.1455 3.52456e-11
1.9215e-11 3.52456e-11 54.054

64.9426 1.21816 -1.84975e-11
1.21816 58.6377 -3.50471e-11
-1.84975e-11 -3.50471e-11 62.9143

63.7577 -1.17286 -3.2745e-11
-1.17286 60.5317 4.23744e-11
-3.2745e-11 4.23744e-11 61.3354

66.4858 -1.71326 5.2577e-11
-1.71326 71.9136 4.7665e-11
5.2577e-11 4.7665e-11 67.6171

65.1257 1.30728 -1.09777e-11
1.30728 74.1111 1.11734e-11
-1.09777e-11 1.11734e-11 65.4229

27.656 0.440172 3.85368e-11
0.440172 23.1399 -1.56098e-11
3.85368e-11 -1.56098e-11 27.5452

23.083 0.397161 2.28272e-11
0.397161 27.0839 -4.31708e-11
2.28272e-11 -4.31708e-11 27.102

61.8836 3.95052 3.35186e-11
3.95052 60.8436 -2.69643e-11
3.35186e-11 -2.69643e-11 61.4763

54.1197 -3.94704 2.02274e-11
-3.94704 54.2225 7.66554e-11
2.02274e-11 7.66554e-11 55.5514

49.8126 -3.78018 2.40776e-11
-3.78018 54.219 4.62086e-12
2.40776e-11 4.62086e-12 54.6534

25.8415 1.40682 -8.09526e-12
1.40682 25.9039 3.8541e-12
-8.09526e-12 3.8541e-12 27.2662

25.9987 1.5335 3.39139e-11
1.5335 26.0574 2.54293e-11
3.39139e-11 2.54293e-11 27.4937

75.8138 0.665675 -6.15898e-12
0.665675 77.2774 -1.09397e-10
-6.15898e-12 -1.09397e-10 68.7111

75.2627 1.07165 5.20228e-11
1.07165 72.4911 8.95453e-11
5.20228e-11 8.95453e-11 70.369

52.7873 -3.54917 -4.38264e-12
-3.54917 54.921 1.23286e-11
-4.38264e-12 1.23286e-11 54.1176

48.8363 -4.39965 1.07484e-10
-4.39965 49.7327 -2.19743e-11
1.07484e-10 -2.19743e-11 49.2017

60.9923 4.13232 2.38728e-11
4.13232 57.6268 -5.58554e-11
2.38728e-11 -5.58554e-11 59.558

54.2108 -4.97688 1.50238e-11
-4.97688 53.1053 -1.34843e-11
1.50238e-11 -1.34843e-11 54.7818

49.5465 -4.66924 3.19807e-11
-4.66924 51.1394 2.88923e-11
3.19807e-11 2.88923e-11 51.3087

53.9758 3.38795 -3.66035e-11
3.38795 53.1325 -5.29664e-11
-3.66035e-11 -5.29664e-11 52.6006

33.103 -1.52829 -3.35219e-11
-1.52829 38.5943 3.54552e-11
-3.35219e-11 3.54552e-11 34.7119

35.7812 0.907941 1.54144e-11
0.907941 39.7216 -3.00567e-11
1.54144e-11 -3.00567e-11 35.9907

38.4715 -1.41323 -2.96681e-11
-1.41323 34.3936 4.00706e-11
-2.96681e-11 4.00706e-11 35.1326

56.2795 4.50128 -1.50249e-11
4.50128 55.486 -4.42594e-12
-1.50249e-11 -4.42594e-12 55.6258

31.6873 -1.09805 1.46426e-11
-1.09805 36.5907 -1.09822e-11
1.46426e-11 -1.09822e-11 32.8806

35.6347 -0.751932 -2.00443e-11
-0.751932 30.659 -3.21655e-11
-2.00443e-11 -3.21655e-11 32.0294

65.2951 3.30194 -4.93095e-11
3.30194 61.5361 -3.46656e-11
-4.93095e-11 -3.46656e-11 63.5719

57.564 -4.80314 -2.13763e-11
-4.80314 55.6294 5.3556e-11
-2.13763e-11 5.3556e-11 57.591

64.5472 4.05532 -2.8905e-12
4.05532 60.7229 -2.75444e-11
-2.8905e-12 -2.75444e-11 63.0181

57.9805 -4.69893 -4.66039e-11
-4.69893 57.3676 5.93353e-11
-4.66039e-11 5.93353e-11 58.2288

25.5049 1.7271 6.64791e-11
1.7271 25.6921 1.34848e-12
6.64791e-11 1.34848e-12 26.903

25.3627 1.68835 -1.92624e-12
1.68835 25.4509 -4.77878e-11
-1.92624e-12 -4.77878e-11 26.641

58.2304 3.6121 7.4347e-11
3.6121 56.8242 -2.88956e-11
7.4347e-11 -2.88956e-11 57.2623

53.0506 -4.4603 -9.24039e-12
-4.4603 51.943 2.27364e-11
-9.24039e-12 2.27364e-11 53.0557

64.6583 -2.83662 1.65622e-11
-2.83662 66.7059 2.89058e-12
1.65622e-11 2.89058e-12 65.2748

62.5114 -0.972666 2.31116e-11
-0.972666 67.1639 -4.14085e-11
2.31116e-11 -4.14085e-11 62.9151

66.6855 4.1165 1.84939e-11
4.1165 64.1894 1.84878e-11
1.84939e-11 1.84878e-11 65.6255

55.5755 -3.67559 2.88987e-12
-3.67559 59.2994 1.15596e-11
2.88987e-12 1.15596e-11 58.5201

66.517 2.16513 -3.81424e-11
2.16513 57.1512 -9.23898e-12
-3.81424e-11 -9.23898e-12 63.0057

63.9202 -3.34738 -1.31014e-11
-3.34738 57.2399 3.04351e-11
-1.31014e-11 3.04351e-11 60.5848

52.0993 3.77639 2.30171e-11
3.77639 54.8808 -3.69821e-11
2.30171e-11 -3.69821e-11 55.2342

54.2288 -4.38836 -2.01289e-11
-4.38836 58.9547 3.50591e-11
-2.01289e-11 3.50591e-11 56.3844

63.9794 -3.05119 2.33038e-11
-3.05119 64.7609 1.69482e-11
2.33038e-11 1.69482e-11 63.1335

63.7131 -2.72564 -4.58366e-11
-2.72564 70.1971 5.98062e-11
-4.58366e-11 5.98062e-11 65.6915

70.2919 3.06036 6.81852e-11
3.06036 61.1622 9.61416e-12
6.81852e-11 9.61416e-12 65.6582

74.0895 0.998655 1.35969e-10
0.998655 64.729 -2.40963e-11
1.35969e-10 -2.40963e-11 68.0165

68.5077 -3.30887 -6.16538e-12
-3.30887 63.7707 -1.3095e-11
-6.16538e-12 -1.3095e-11 63.7513

73.2467 -0.706923 -7.16407e-11
-0.706923 68.0037 7.65018e-13
-7.16407e-11 7.65018e-13 66.0322

61.7108 -0.761735 -3.46804e-12
-0.761735 71.0125 8.47459e-12
-3.46804e-12 8.47459e-12 63.7343

65.2171 5.6202 2.66291e-12
5.6202 65.0985 -5.81622e-11
2.66291e-12 -5.81622e-11 63.5575

76.5745 3.35912 -9.59129e-11
3.35912 67.8815 -4.81626e-12
-9.59129e-11 -4.81626e-12 70.6502

78.6136 2.78106 -3.11157e-10
2.78106 68.4031 2.49911e-10
-3.11157e-10 2.49911e-10 71.1052

80.1171 0.773752 3.60512e-10
0.773752 77.9765 6.31152e-11
3.60512e-10 6.31152e-11 69.7416

67.8389 -3.90545 -7.52361e-13
-3.90545 71.1852 -6.74135e-11
-7.52361e-13 -6.74135e-11 65.3135

75.2422 2.5474 9.62745e-12
2.5474 66.2436 3.46941e-12
9.62745e-12 3.46941e-12 69.5416

70.07 2.04505 5.04649e-11
2.04505 66.084 3.10016e-11
5.04649e-11 3.10016e-11 67.515

75.164 3.28964 -4.98116e-12
3.28964 67.6968 6.5294e-11
-4.98116e-12 6.5294e-11 69.9459

68.7272 -3.75929 4.58345e-11
-3.75929 65.208 -4.277e-11
4.58345e-11 -4.277e-11 64.0414

71.7778 -1.88464 4.23505e-11
-1.88464 74.4035 -9.55315e-11
4.23505e-11 -9.55315e-11 67.1268

63.6004 -1.68306 1.54125e-12
-1.68306 62.1863 1.34824e-11
1.54125e-12 1.34824e-11 61.6624

69.5775 3.32019 6.16264e-11
3.32019 63.3873 -5.10438e-11
6.16264e-11 -5.10438e-11 66.4115

71.9298 1.94821 -4.62239e-11
1.94821 64.9467 1.16129e-12
-4.62239e-11 1.16129e-12 67.61

64.2818 -4.36037 -8.0808e-12
-4.36037 62.5154 1.20181e-10
-8.0808e-12 1.20181e-10 62.1268

69.4739 -2.11572 -3.96692e-11
-2.11572 65.2616 8.93644e-11
-3.96692e-11 8.93644e-11 64.334

TENSORS Lagrange_strain float
0.000263721 4.61646e-05 -1.80306e-08
4.61646e-05 0.000326955 9.1545e-08
-1.80306e-08 9.1545e-08 0.000265151

0.000314323 3.07145e-05 -9.74728e-08
3.07145e-05 0.000366466 1.64939e-09
-9.74728e-08 1.64939e-09 0.00032631

0.000312333 2.47453e-05 1.0714e-07
2.47453e-05 0.000362099 1.13346e-07
1.0714e-07 1.13346e-07 0.000324923

0.000353866 1.35306e-05 -4.78786e-08
1.35306e-05 0.000242812 -7.18973e-08
-4.78786e-08 -7.18973e-08 0.000287422

0.000342264 5.37211e-06 8.05619e-09
5.37211e-06 0.000237346 -4.11112e-08
8.05619e-09 -4.11112e-08 0.000262517

0.000314602 2.90457e-05 -8.89368e-08
2.90457e-05 0.000367524 -9.766e-08
-8.89368e-08 -9.766e-08 0.000347598

0.000311913 2.7044e-05 1.16865e-07
2.7044e-05 0.000365495 2.60699e-10
1.16865e-07 2.60699e-10 0.000346292

0.000345566 -6.76807e-06 1.04434e-08
-6.76807e-06 0.000241642 -5.82349e-08
1.04434e-08 -5.82349e-08 0.000264793

0.000395791 1.1037e-06 -1.03795e-07
1.1037e-06 0.000262192 -1.88736e-08
-1.03795e-07 -1.88736e-08 0.00033068

0.000208805 4.48753e-05 -9.84398e-08
4.48753e-05 0.000278039 -8.15756e-09
-9.84398e-08 -8.15756e-09 0.000192252

0.000205322 -4.80011e-05 -1.04585e-07
-4.80011e-05 0.000273328 2.00495e-08
-1.04585e-07 2.00495e-08 0.000184627

0.00027243 4.63889e-05 -1.47387e-08
4.63889e-05 0.000223175 9.00244e-08
-1.47387e-08 9.00244e-08 0.000193578

0.000341385 -3.8076e-05 1.07747e-07
-3.8076e-05 0.000374419 -4.11955e-08
1.07747e-07 -4.11955e-08 0.000352504

0.00034297 -4.29322e-05 -4.51982e-09
-4.29322e-05 0.00038049 -9.98812e-08
-4.51982e-09 -9.98812e-08 0.000354486

0.000263689 4.36392e-05 -1.92944e-08
4.36392e-05 0.000338092 -1.09926e-07
-1.92944e-08 -1.09926e-07 0.00029007

0.0002851 5.22646e-05 -3.69339e-08
5.22646e-05 0.000359014 1.42756e-07
-3.69339e-08 1.42756e-07 0.00032221

0.000310727 -1.98102e-05 7.96108e-08
-1.98102e-05 0.000363541 -2.40909e-08
7.96108e-08 -2.40909e-08 0.000345172

0.000312359 -2.1505e-05 -6.91882e-08
-2.1505e-05 0.000365733 -6.03586e-08
-6.91882e-08 -6.03586e-08 0.000346266

0.000361101 1.98737e-05 -2.84863e-08
1.98737e-05 0.000295193 -1.2985e-08
-2.84863e-08 -1.2985e-08 0.00031534

0.000226322 1.73604e-05 -2.96344e-08
1.73604e-05 0.000318854 -1.41728e-07
-2.96344e-08 -1.41728e-07 0.000217548

0.000225556 -1.66329e-05 -1.20304e-07
-1.66329e-05 0.000319192 -1.01243e-08
-1.20304e-07 -1.01243e-08 0.000215625

0.000312235 1.41954e-05 -1.03712e-08
1.41954e-05 0.00024815 8.72079e-08
-1.03712e-08 8.72079e-08 0.000220307

0.000264477 5.15898e-05 1.14866e-07
5.15898e-05 0.000314039 -5.53428e-08
1.14866e-07 -5.53428e-08 0.000262906

0.000314978 -2.64136e-05 5.20126e-08
-2.64136e-05 0.000230278 -3.99519e-08
5.20126e-08 -3.99519e-08 0.000242282

0.000297717 4.7287e-05 -2.01577e-08
4.7287e-05 0.000313498 -6.2403e-08
-2.01577e-08 -6.2403e-08 0.000285826

0.000270411 5.15275e-05 7.28749e-09
5.15275e-05 0.000334787 -7.27708e-08
7.28749e-09 -7.27708e-08 0.000270843

0.000360613 -1.11705e-05 1.24377e-08
-1.11705e-05 0.00024276 -5.90321e-08
1.24377e-08 -5.90321e-08 0.000291354

0.000203207 3.99936e-05 -6.06583e-08
3.99936e-05 0.000279166 6.18365e-08
-6.06583e-08 6.18365e-08 0.000151974

0.000383417 4.90504e-06 1.64188e-07
4.90504e-06 0.000254985 2.95223e-08
1.64188e-07 2.95223e-08 0.000322538

0.000267127 4.00427e-05 -1.99379e-07
4.00427e-05 0.000217708 -1.3984e-08
-1.99379e-07 -1.3984e-08 0.000152498

0.000355398 6.48367e-06 -5.55931e-08
6.48367e-06 0.0003789 -1.10622e-07
-5.55931e-08 -1.10622e-07 0.000355274

0.000355445 2.10497e-06 6.00422e-08
2.10497e-06 0.000378306 2.23485e-08
6.00422e-08 2.23485e-08 0.000355191

0.000415889 2.24175e-05 -1.00617e-07
2.24175e-05 0.00037417 5.68365e-08
-1.00617e-07 5.68365e-08 0.00037619

0.000416431 -2.15943e-05 6.5746e-08
-2.15943e-05 0.000374655 1.27884e-07
6.5746e-08 1.27884e-07 0.000375847

0.000309724 -1.67096e-05 -6.48102e-09
-1.67096e-05 0.000221535 -9.23484e-09
-6.48102e-09 -9.23484e-09 0.000206095

0.00029192 5.09282e-05 1.94432e-08
5.09282e-05 0.000330227 -1.55543e-08
1.94432e-08 -1.55543e-08 0.00030476

0.000369177 9.21174e-06 -2.84431e-08
9.21174e-06 0.000347269 -6.89058e-08
-2.84431e-08 -6.89058e-08 0.000352658

0.000369778 -8.43535e-06 9.40554e-08
-8.43535e-06 0.000349489 -1.33293e-07
9.40554e-08 -1.33293e-07 0.000354741

0.000402252 8.10839e-08 -4.18247e-08
8.10839e-08 0.000255375 3.86198e-08
-4.18247e-08 3.86198e-08 0.000332022

0.000264842 5.58605e-05 2.60029e-08
5.58605e-05 0.000333132 -9.77182e-08
2.60029e-08 -9.77182e-08 0.000268727

0.000311888 -3.41753e-05 7.15709e-08
-3.41753e-05 0.000263669 9.00869e-08
7.15709e-08 9.00869e-08 0.000250961

0.000396357 -3.29464e-06 -1.05795e-07
-3.29464e-06 0.000246221 1.54818e-08
-1.05795e-07 1.54818e-08 0.000324393

0.000261638 -5.1572e-05 4.47452e-08
-5.1572e-05 0.000314129 -8.63222e-08
4.47452e-08 -8.63222e-08 0.000260237

0.000263527 -4.42783e-05 -4.51223e-08
-4.42783e-05 0.000327616 -1.82819e-07
-4.51223e-08 -1.82819e-07 0.000264769

0.00029319 5.88526e-05 1.04625e-07
5.88526e-05 0.000367308 5.52905e-08
1.04625e-07 5.52905e-08 0.00032641

0.00028091 -5.50379e-05 1.08167e-07
-5.50379e-05 0.000260301 9.32414e-08
1.08167e-07 9.32414e-08 0.0002309

7.38357e-05 0.000112585 -7.59611e-09
0.000112585 0.000151334 -7.59611e-09
-7.59611e-09 -7.59611e-09 3.70192e-05

0.00014151 0.000111261 9.91735e-08
0.000111261 8.10121e-05 9.91735e-08
9.91735e-08 9.91735e-08 3.5915e-05

0.000303409 -5.26304e-05 -4.03382e-09
-5.26304e-05 0.000368842 -8.35127e-08
-4.03382e-09 -8.35127e-08 0.000343114

0.000133412 4.72378e-05 8.70282e-08
4.72378e-05 0.000228419 -1.06018e-07
8.70282e-08 -1.06018e-07 7.64359e-05

0.000213292 4.23635e-05 2.61551e-08
4.23635e-05 0.000144232 -5.96761e-09
2.61551e-08 -5.96761e-09 7.80026e-05

0.000362705 -3.681e-05 -1.85083e-08
-3.681e-05 0.000394064 7.54613e-08
-1.85083e-08 7.54613e-08 0.000374885

0.000362178 3.66873e-05 3.71591e-08
3.66873e-05 0.000394002 -3.83483e-08
3.71591e-08 -3.83483e-08 0.000375054

0.000387186 1.07189e-06 -8.03356e-08
1.07189e-06 0.000305541 6.21289e-09
-8.03356e-08 6.21289e-09 0.000338493

0.000364217 -3.2083e-05 1.25306e-09
-3.2083e-05 0.000385732 2.14533e-07
1.25306e-09 2.14533e-07 0.000377579

0.00036365 3.20832e-05 -1.71913e-08
3.20832e-05 0.000385937 3.44146e-07
-1.71913e-08 3.44146e-07 0.000377714

0.000270332 5.15715e-05 1.27394e-08
5.15715e-05 0.00034839 -4.42169e-09
1.27394e-08 -4.42169e-09 0.000295076

0.000414658 2.13309e-05 -1.80809e-08
2.13309e-05 0.000350102 5.55439e-09
-1.80809e-08 5.55439e-09 0.000370892

0.000415674 -2.0927e-05 -7.40828e-08
-2.0927e-05 0.000349784 -1.05883e-07
-7.40828e-08 -1.05883e-07 0.00037066

0.000341433 -4.25771e-05 -6.523e-08
-4.25771e-05 0.000363901 9.86395e-08
-6.523e-08 9.86395e-08 0.000351164

0.000341557 4.24514e-05 -1.22058e-08
4.24514e-05 0.00036368 1.38055e-07
-1.22058e-08 1.38055e-07 0.000351398

0.00026436 -4.57519e-05 9.20959e-08
-4.57519e-05 0.000204173 3.76371e-08
9.20959e-08 3.76371e-08 0.000178987

0.000357262 2.05476e-05 5.12357e-08
2.05476e-05 0.00041106 -1.4696e-08
5.12357e-08 -1.4696e-08 0.00037138

0.000355188 1.627e-05 3.23498e-08
1.627e-05 0.000409437 -4.68008e-09
3.23498e-08 -4.68008e-09 0.000369965

0.000265196 -5.67955e-05 6.34555e-09
-5.67955e-05 0.000334819 7.07289e-08
6.34555e-09 7.07289e-08 0.000270079

0.000187843 -3.76487e-05 -7.15449e-08
-3.76487e-05 0.00027876 -2.63875e-08
-7.15449e-08 -2.63875e-08 0.000140865

0.000269558 -3.73155e-05 1.55178e-07
-3.73155e-05 0.000190714 -4.15784e-09
1.55178e-07 -4.15784e-09 0.000138757

0.000283654 4.49384e-05 -1.08976e-07
4.49384e-05 0.000361824 9.88901e-09
-1.08976e-07 9.88901e-09 0.000317332

0.000280526 4.15996e-05 4.07034e-08
4.15996e-05 0.000354272 1.60926e-07
4.07034e-08 1.60926e-07 0.000314905

0.000435314 -6.22049e-05 -4.20487e-07
-6.22049e-05 0.000392343 7.17962e-07
-4.20487e-07 7.17962e-07 0.000405816

0.000435314 6.22049e-05 9.44769e-08
6.22049e-05 0.000392343 4.04578e-07
9.44769e-08 4.04578e-07 0.000405886

0.000295695 6.36044e-05 -7.83816e-08
6.36044e-05 0.000364688 6.60243e-08
-7.83816e-08 6.60243e-08 0.000332555

0.000352419 3.13229e-05 -1.38867e-07
3.13229e-05 0.000327104 -1.04444e-07
-1.38867e-07 -1.04444e-07 0.000336565

0.000352443 -3.19123e-05 1.28106e-07
-3.19123e-05 0.00032594 2.12675e-08
1.28106e-07 2.12675e-08 0.000335559

0.000295892 6.08441e-05 4.07286e-08
6.08441e-05 0.000352134 -6.20857e-08
4.07286e-08 -6.20857e-08 0.000328811

0.00030793 -5.5715e-05 -3.44166e-08
-5.5715e-05 0.00037585 -1.11553e-07
-3.44166e-08 -1.11553e-07 0.000345656

0.000305484 -6.52694e-07 -1.27113e-08
-6.52694e-07 0.000202695 3.39516e-08
-1.27113e-08 3.39516e-08 0.000202606

0.000321671 2.49125e-05 -9.07864e-08
2.49125e-05 0.000228645 -1.5647e-08
-9.07864e-08 -1.5647e-08 0.000236518

0.000371012 1.01278e-05 -3.1049e-08
1.01278e-05 0.000303508 -5.74124e-08
-3.1049e-08 -5.74124e-08 0.000345922

0.000394408 -1.56645e-05 2.07282e-07
-1.56645e-05 0.000386075 1.98584e-07
2.07282e-07 1.98584e-07 0.000379055

0.000394204 1.34321e-05 -4.16808e-08
1.34321e-05 0.000387175 2.94941e-08
-4.16808e-08 2.94941e-08 0.000379359

0.000254403 4.59772e-05 -1.09494e-09
4.59772e-05 0.000277668 -1.48992e-08
-1.09494e-09 -1.48992e-08 0.000208381

0.00030349 -4.02229e-05 2.95091e-08
-4.02229e-05 0.0002837 1.31477e-07
2.95091e-08 1.31477e-07 0.000279511

0.000360555 2.41082e-05 -2.86106e-08
2.41082e-05 0.000308999 -1.08746e-08
-2.86106e-08 -1.08746e-08 0.000316119

0.000369376 1.37107e-05 -3.43303e-07
1.37107e-05 0.000407017 -1.10668e-07
-3.43303e-07 -1.10668e-07 0.000376258

0.00036913 1.09639e-05 2.09503e-08
1.09639e-05 0.00040603 -7.4531e-09
2.09503e-08 -7.4531e-09 0.000375625

0.000372263 -7.42278e-06 1.33478e-07
-7.42278e-06 0.000308582 4.3528e-08
1.33478e-07 4.3528e-08 0.000348993

0.000311222 -1.55861e-05 8.95668e-08
-1.55861e-05 0.000363286 1.46151e-07
8.95668e-08 1.46151e-07 0.000324233

0.000312371 -2.14052e-05 -7.2153e-08
-2.14052e-05 0.000366233 -9.93236e-08
-7.2153e-08 -9.93236e-08 0.000325332

0.000391806 -1.46983e-05 -7.06484e-08
-1.46983e-05 0.000321979 -7.3024e-09
-7.06484e-08 -7.3024e-09 0.000358232

0.000392446 1.49284e-05 -1.0072e-07
1.49284e-05 0.000321862 -7.55609e-09
-1.0072e-07 -7.55609e-09 0.000359246

0.000272577 -4.56514e-05 -7.21636e-08
-4.56514e-05 0.000271135 -1.09773e-07
-7.21636e-08 -1.09773e-07 0.000210566

0.000351208 2.77463e-06 1.54144e-07
2.77463e-06 0.000280544 7.85029e-08
1.54144e-07 7.85029e-08 0.000285944

0.000386419 -2.24347e-05 -2.77759e-08
-2.24347e-05 0.000346047 -5.03218e-08
-2.77759e-08 -5.03218e-08 0.000371346

0.000386229 2.22457e-05 2.71982e-08
2.22457e-05 0.000346578 3.45645e-09
2.71982e-08 3.45645e-09 0.000371696

0.000359756 -2.51433e-05 1.01224e-07
-2.51433e-05 0.000310084 4.31375e-08
1.01224e-07 4.31375e-08 0.000315235

0.000270657 -5.17891e-05 5.68453e-08
-5.17891e-05 0.000338657 1.35753e-07
5.68453e-08 1.35753e-07 0.000272745

0.000390754 -1.67545e-05 -7.03335e-08
-1.67545e-05 0.000329348 -5.65251e-09
-7.03335e-08 -5.65251e-09 0.000355426

0.000391383 1.67637e-05 -7.98549e-08
1.67637e-05 0.000329286 -1.09431e-07
-7.98549e-08 -1.09431e-07 0.000356538

0.000354836 -1.09637e-05 -9.2877e-08
-1.09637e-05 0.000269654 1.71995e-07
-9.2877e-08 1.71995e-07 0.000300734

0.000305064 7.24966e-05 5.10563e-08
7.24966e-05 0.000372328 1.26001e-07
5.10563e-08 1.26001e-07 0.000336704

0.000298713 4.00172e-05 4.27009e-08
4.00172e-05 0.000280851 1.28734e-07
4.27009e-08 1.28734e-07 0.000251644

0.000294784 6.16249e-05 6.91057e-08
6.16249e-05 0.000368665 2.93272e-08
6.91057e-08 2.93272e-08 0.000334634

0.000300946 6.86678e-05 5.00689e-09
6.86678e-05 0.000376758 -1.32408e-07
5.00689e-09 -1.32408e-07 0.000337285

0.0003245 2.96926e-05 6.97853e-08
2.96926e-05 0.000259558 1.23061e-07
6.97853e-08 1.23061e-07 0.000258243

0.000332699 -2.45074e-05 -4.10726e-08
-2.45074e-05 0.000296374 5.49778e-08
-4.10726e-08 5.49778e-08 0.000318294

0.000349573 1.34074e-05 -4.82361e-08
1.34074e-05 0.000270664 -7.28178e-08
-4.82361e-08 -7.28178e-08 0.000294697

0.00026447 5.06332e-05 1.22332e-07
5.06332e-05 0.000277727 9.84787e-08
1.22332e-07 9.84787e-08 0.000239607

0.000298827 4.10481e-05 -3.01778e-08
4.10481e-05 0.000282405 7.13126e-08
-3.01778e-08 7.13126e-08 0.000277356

0.000274219 3.65716e-06 -1.88532e-07
3.65716e-06 0.000350488 -3.88438e-08
-1.88532e-07 -3.88438e-08 0.000312888

0.000274839 5.60935e-06 1.3619e-07
5.60935e-06 0.000351083 1.2192e-07
1.3619e-07 1.2192e-07 0.000313047

0.000273086 -5.15578e-05 -7.47296e-08
-5.15578e-05 0.000232074 -4.26283e-08
-7.47296e-08 -4.26283e-08 0.000197704

0.000296176 -6.12372e-05 -9.67002e-08
-6.12372e-05 0.000352707 1.34382e-07
-9.67002e-08 1.34382e-07 0.000329419

0.000267081 -6.06226e-05 1.98681e-08
-6.06226e-05 0.000308435 -1.42768e-08
1.98681e-08 -1.42768e-08 0.000246159

0.0002667 6.20385e-05 4.48536e-08
6.20385e-05 0.000307052 5.93769e-08
4.48536e-08 5.93769e-08 0.000245508

0.000341003 -2.25202e-05 -1.14951e-07
-2.25202e-05 0.000285527 1.23567e-07
-1.14951e-07 1.23567e-07 0.000297525

0.000401629 -3.45297e-06 -1.19479e-07
-3.45297e-06 0.000265508 -3.45684e-09
-1.19479e-07 -3.45684e-09 0.000345555

0.000401331 3.78952e-06 -8.37692e-08
3.78952e-06 0.000265986 -1.33807e-08
-8.37692e-08 -1.33807e-08 0.000344201

0.000238968 3.29073e-05 8.50498e-08
3.29073e-05 0.000320156 1.35374e-07
8.50498e-08 1.35374e-07 0.000249218

0.000298096 -4.97708e-05 -1.51436e-08
-4.97708e-05 0.000312978 -7.82374e-08
-1.51436e-08 -7.82374e-08 0.000284776

0.000192245 -1.11502e-06 -2.69385e-08
-1.11502e-06 0.000310454 -1.40852e-07
-2.69385e-08 -1.40852e-07 0.000203983

0.00019133 2.55516e-06 1.7449e-07
2.55516e-06 0.000310928 -9.58339e-08
1.7449e-07 -9.58339e-08 0.00020266

0.000306801 -4.30136e-07 -5.00277e-08
-4.30136e-07 0.000208853 -1.50362e-08
-5.00277e-08 -1.50362e-08 0.000206111

0.000271817 4.84971e-05 -3.86545e-08
4.84971e-05 0.00027293 -5.8322e-08
-3.86545e-08 -5.8322e-08 0.000209719

0.000286619 -5.69665e-05 -7.8486e-08
-5.69665e-05 0.000279987 -1.03814e-07
-7.8486e-08 -1.03814e-07 0.000247834

0.000370534 -2.80233e-05 -2.35415e-08
-2.80233e-05 0.000430616 6.65581e-09
-2.35415e-08 6.65581e-09 0.000381369

0.000370951 -2.51044e-05 8.86032e-08
-2.51044e-05 0.000431476 -2.47632e-07
8.86032e-08 -2.47632e-07 0.000381695

0.000328467 -2.9124e-05 1.70245e-08
-2.9124e-05 0.000260241 -4.35069e-08
1.70245e-08 -4.35069e-08 0.000261383

0.000288396 6.75413e-05 1.00892e-07
6.75413e-05 0.000362429 6.76758e-08
1.00892e-07 6.76758e-08 0.000312595

0.000387378 -1.66822e-06 -8.01094e-08
-1.66822e-06 0.000305029 -2.56327e-10
-8.01094e-08 -2.56327e-10 0.000337717

0.000238217 -3.23791e-05 -4.76169e-08
-3.23791e-05 0.000322835 -1.82091e-07
-4.76169e-08 -1.82091e-07 0.000249718

0.000307974 6.04246e-05 -6.79937e-08
6.04246e-05 0.000379467 2.5869e-08
-6.79937e-08 2.5869e-08 0.000347547

0.000300419 5.68621e-05 -2.28014e-08
5.68621e-05 0.00037172 -5.44846e-08
-2.28014e-08 -5.44846e-08 0.000344139

0.000305691 -7.25012e-05 1.92691e-09
-7.25012e-05 0.000372556 8.49491e-08
1.92691e-09 8.49491e-08 0.000337076

0.000302575 6.97051e-05 1.15435e-08
6.97051e-05 0.000384368 -1.58713e-08
1.15435e-08 -1.58713e-08 0.000341812

0.000281957 5.90789e-05 2.18207e-08
5.90789e-05 0.00035071 -6.88519e-08
2.18207e-08 -6.88519e-08 0.000307986

0.000415742 2.54775e-07 1.14883e-08
2.54775e-07 0.000336977 6.24974e-08
1.14883e-08 6.24974e-08 0.000383548

0.000287677 5.57933e-05 -8.22728e-09
5.57933e-05 0.000275196 -3.63442e-08
-8.22728e-09 -3.63442e-08 0.000245439

0.000294954 -6.19925e-05 8.67579e-09
-6.19925e-05 0.000368196 -1.81315e-07
8.67579e-09 -1.81315e-07 0.00033463

0.000286064 4.88062e-05 5.64895e-09
4.88062e-05 0.000308413 1.1086e-07
5.64895e-09 1.1086e-07 0.000258941

0.000244803 -4.21613e-05 8.66653e-09
-4.21613e-05 0.000273924 2.74707e-08
8.66653e-09 2.74707e-08 0.000199125

0.000291674 -5.16934e-05 -2.76201e-09
-5.16934e-05 0.000332625 -9.65038e-08
-2.76201e-09 -9.65038e-08 0.000305135

0.00023416 -2.93745e-05 5.63988e-08
-2.93745e-05 0.000329047 -1.88316e-07
5.63988e-08 -1.88316e-07 0.000225771

0.000232851 2.86603e-05 -1.70425e-08
2.86603e-05 0.000326993 -1.98719e-07
-1.70425e-08 -1.98719e-07 0.000224703

0.000315048 -2.00997e-05 -4.74506e-08
-2.00997e-05 0.000255544 -2.07609e-08
-4.74506e-08 -2.07609e-08 0.00022645

0.0002861 -5.0243e-05 -7.78525e-08
-5.0243e-05 0.000308316 -1.21499e-07
-7.78525e-08 -1.21499e-07 0.000258052

0.000274625 7.73058e-06 1.40576e-07
7.73058e-06 0.000352204 3.37513e-08
1.40576e-07 3.37513e-08 0.000282567

0.000274581 4.50254e-09 -1.95636e-07
4.50254e-09 0.000351156 1.03928e-07
-1.95636e-07 1.03928e-07 0.000282524

0.000233821 -5.77974e-05 1.12704e-07
-5.77974e-05 0.00027028 -8.17783e-10
1.12704e-07 -8.17783e-10 0.000194187

0.000231257 5.84762e-05 -1.02568e-07
5.84762e-05 0.000272566 -2.80859e-08
-1.02568e-07 -2.80859e-08 0.000196505

0.000413902 -5.0497e-06 -2.65848e-08
-5.0497e-06 0.000324486 -3.03377e-10
-2.65848e-08 -3.03377e-10 0.000377348

0.000414416 5.37291e-06 7.80263e-08
5.37291e-06 0.000324505 -3.83984e-08
7.80263e-08 -3.83984e-08 0.000377726

0.000295669 6.35331e-05 1.8023e-08
6.35331e-05 0.000364544 1.03929e-07
1.8023e-08 1.03929e-07 0.000319107

0.000300055 -5.80388e-05 -1.18429e-07
-5.80388e-05 0.000373134 -4.2646e-08
-1.18429e-07 -4.2646e-08 0.000343103

0.000306565 4.22616e-05 -1.76943e-07
4.22616e-05 0.000328841 -3.03165e-08
-1.76943e-07 -3.03165e-08 0.000318173

0.000267794 4.66729e-05 6.96535e-08
4.66729e-05 0.000207007 -5.27733e-08
6.96535e-08 -5.27733e-08 0.000166806

0.000240776 3.99449e-05 3.36948e-08
3.99449e-05 0.000333765 -7.15297e-08
3.36948e-08 -7.15297e-08 0.000253535

0.000367773 2.80117e-05 -1.51982e-07
2.80117e-05 0.00036438 1.41527e-07
-1.51982e-07 1.41527e-07 0.000366327

0.00036803 -2.79631e-05 7.56122e-08
-2.79631e-05 0.000364739 1.02792e-07
7.56122e-08 1.02792e-07 0.000366146

0.000351256 -3.79077e-05 1.18285e-07
-3.79077e-05 0.000343785 -9.08477e-08
1.18285e-07 -9.08477e-08 0.000334943

0.000351183 3.78648e-05 -1.47579e-07
3.78648e-05 0.000343848 -2.18016e-09
-1.47579e-07 -2.18016e-09 0.000335246

0.000137864 1.24622e-05 -1.06398e-07
1.24622e-05 0.000287551 9.12047e-08
-1.06398e-07 9.12047e-08 7.5534e-05

0.000271476 1.29008e-05 1.66136e-07
1.29008e-05 0.000152477 3.83695e-08
1.66136e-07 3.83695e-08 7.57123e-05

0.000239145 -3.78118e-05 -5.86132e-08
-3.78118e-05 0.000335312 1.5221e-07
-5.86132e-08 1.5221e-07 0.000255035

0.000396936 -3.01946e-05 1.40935e-07
-3.01946e-05 0.000404891 7.45026e-08
1.40935e-07 7.45026e-08 0.000397523

0.000396823 3.04887e-05 -1.82689e-07
3.04887e-05 0.000404991 -2.40884e-08
-1.82689e-07 -2.40884e-08 0.000397591

0.000321443 4.64204e-05 1.03969e-07
4.64204e-05 0.000323671 4.12037e-08
1.03969e-07 4.12037e-08 0.000299917

0.00028538 2.53458e-05 4.73427e-08
2.53458e-05 0.000185661 1.08381e-08
4.73427e-08 1.08381e-08 0.000165655

0.00035127 -4.78882e-06 1.54316e-07
-4.78882e-06 0.000280875 3.65922e-08
1.54316e-07 3.65922e-08 0.000285967

0.000280903 -3.33015e-05 -1.26643e-07
-3.33015e-05 0.000353139 3.75499e-08
-1.26643e-07 3.75499e-08 0.000315079

0.000285037 -3.64354e-05 1.30688e-07
-3.64354e-05 0.000358079 -6.97889e-10
1.30688e-07 -6.97889e-10 0.000317644

0.000262948 -5.50449e-05 3.3143e-08
-5.50449e-05 0.000283023 8.83112e-09
3.3143e-08 8.83112e-09 0.000234912

0.000302761 -7.02962e-05 7.29029e-08
-7.02962e-05 0.000384851 -1.23403e-07
7.29029e-08 -1.23403e-07 0.000342111

0.000321626 -4.69762e-05 -8.93483e-08
-4.69762e-05 0.000324015 -3.3227e-08
-8.93483e-08 -3.3227e-08 0.000299242

0.000288586 6.73501e-05 3.63856e-08
6.73501e-05 0.000365658 7.94106e-08
3.63856e-08 7.94106e-08 0.000333085

0.000341583 4.86263e-05 3.97673e-08
4.86263e-05 0.000380866 1.88226e-08
3.97673e-08 1.88226e-08 0.000355689

0.000340339 4.41687e-05 5.10409e-08
4.41687e-05 0.000373209 -5.93138e-08
5.10409e-08 -5.93138e-08 0.000353603

0.000295564 -6.3997e-05 -3.79546e-08
-6.3997e-05 0.000366033 1.08578e-07
-3.79546e-08 1.08578e-07 0.000320055

0.00028955 5.7739e-05 2.73342e-08
5.7739e-05 0.000350761 -7.06857e-08
2.73342e-08 -7.06857e-08 0.000312505

0.000301232 3.99936e-05 -2.38804e-08
3.99936e-05 0.000240748 -1.36341e-07
-2.38804e-08 -1.36341e-07 0.00023309

0.000299909 7.39215e-05 7.7348e-08
7.39215e-05 0.00037772 -1.25839e-07
7.7348e-08 -1.25839e-07 0.000339285

0.000263606 -4.53059e-05 -6.79089e-08
-4.53059e-05 0.000340946 1.31639e-07
-6.79089e-08 1.31639e-07 0.000291172

0.000247325 1.7562e-05 1.65463e-07
1.7562e-05 0.000340129 -9.19328e-08
1.65463e-07 -9.19328e-08 0.000272577

0.000316431 5.37215e-05 2.46513e-08
5.37215e-05 0.000339979 -2.71593e-08
2.46513e-08 -2.71593e-08 0.000319002

0.000253406 2.27083e-05 -4.55049e-08
2.27083e-05 0.000342803 1.21374e-07
-4.55049e-08 1.21374e-07 0.000275496

0.000308187 -6.27855e-05 8.36541e-08
-6.27855e-05 0.000380774 -1.52929e-07
8.36541e-08 -1.52929e-07 0.000346411

0.000185633 -5.3965e-05 -6.78385e-08
-5.3965e-05 0.000191597 1.53312e-08
-6.78385e-08 1.53312e-08 0.000107792

0.000187796 -5.45784e-05 -1.12931e-07
-5.45784e-05 0.000188104 -3.05935e-08
-1.12931e-07 -3.05935e-08 0.000107312

0.000316314 -5.39771e-05 -1.69508e-09
-5.39771e-05 0.000339871 -1.08179e-07
-1.69508e-09 -1.08179e-07 0.000318723

0.000360151 -2.03287e-05 1.02071e-07
-2.03287e-05 0.000295153 6.5013e-08
1.02071e-07 6.5013e-08 0.000314587

0.000434957 6.44714e-05 -5.96611e-09
6.44714e-05 0.000405323 1.62836e-07
-5.96611e-09 1.62836e-07 0.000405908

0.000434957 -6.44714e-05 -3.9387e-08
-6.44714e-05 0.000405323 -1.99253e-07
-3.9387e-08 -1.99253e-07 0.000405879

0.000288926 -6.72566e-05 -1.14872e-07
-6.72566e-05 0.000364433 7.1018e-08
-1.14872e-07 7.1018e-08 0.000314762

0.000361055 1.41818e-05 1.06524e-07
1.41818e-05 0.000373247 1.03617e-07
1.06524e-07 1.03617e-07 0.000367411

0.000361321 -1.2837e-05 -1.53665e-07
-1.2837e-05 0.000373405 1.73849e-07
-1.53665e-07 1.73849e-07 0.000367399

0.000381828 9.71178e-07 3.57707e-08
9.71178e-07 0.000247959 -1.20588e-07
3.57707e-08 -1.20588e-07 0.000305369

0.000288081 -6.75981e-05 1.36168e-07
-6.75981e-05 0.000366552 5.86115e-09
1.36168e-07 5.86115e-09 0.000332772

0.000201807 6.57745e-05 6.9591e-08
6.57745e-05 0.000207574 -1.21478e-07
6.9591e-08 -1.21478e-07 0.000133245

0.000196143 6.23663e-05 -2.04115e-08
6.23663e-05 0.00020863 -5.69781e-08
-2.04115e-08 -5.69781e-08 0.00013458

0.000194747 -4.68092e-05 1.34444e-07
-4.68092e-05 0.000280835 -1.97816e-08
1.34444e-07 -1.97816e-08 0.000157039

0.000199077 4.90869e-05 8.91905e-08
4.90869e-05 0.000284404 1.56926e-07
8.91905e-08 1.56926e-07 0.000161112

0.00027305 -3.89449e-05 -1.95459e-07
-3.89449e-05 0.000208787 6.89736e-08
-1.95459e-07 6.89736e-08 0.000157388

0.000299915 -7.4327e-05 4.90263e-08
-7.4327e-05 0.000379278 -1.62401e-07
4.90263e-08 -1.62401e-07 0.000339364

0.00013942 1.72572e-05 -1.12372e-07
1.72572e-05 0.000271238 4.61196e-08
-1.12372e-07 4.61196e-08 0.000133913

0.000261782 2.20352e-05 -2.08769e-07
2.20352e-05 0.000157046 -4.54455e-08
-2.08769e-07 -4.54455e-08 0.000135488

0.000352353 -2.29824e-05 1.78396e-07
-2.29824e-05 0.000390258 1.03398e-07
1.78396e-07 1.03398e-07 0.000365299

0.000355082 -2.78364e-05 7.33705e-08
-2.78364e-05 0.000391546 5.95372e-08
7.33705e-08 5.95372e-08 0.000366667

0.000371724 8.71842e-06 1.80702e-07
8.71842e-06 0.000300178 1.44255e-07
1.80702e-07 1.44255e-07 0.00032533

0.000403079 5.36454e-07 -5.49471e-08
5.36454e-07 0.000245663 7.69428e-08
-5.49471e-08 7.69428e-08 0.000332221

0.000229075 -4.25076e-05 1.26649e-07
-4.25076e-05 0.000304915 -1.04342e-07
1.26649e-07 -1.04342e-07 0.000219562

0.00022749 4.15039e-05 -1.0868e-07
4.15039e-05 0.000303821 -8.82844e-08
-1.0868e-07 -8.82844e-08 0.000218793

0.000382245 -4.2036e-08 2.29348e-08
-4.2036e-08 0.000246597 -5.05317e-08
2.29348e-08 -5.05317e-08 0.000307025

0.000270538 -5.13405e-05 7.12736e-08
-5.13405e-05 0.000350789 -7.42617e-08
7.12736e-08 -7.42617e-08 0.000297128

0.000394485 -2.20173e-05 1.70618e-08
-2.20173e-05 0.000389022 2.20479e-07
1.70618e-08 2.20479e-07 0.000389134

0.000393489 2.19002e-05 9.43443e-08
2.19002e-05 0.000389379 3.02381e-07
9.43443e-08 3.02381e-07 0.000389214

0.000327883 3.02738e-05 7.1701e-09
3.02738e-05 0.000333229 -1.95022e-07
7.1701e-09 -1.95022e-07 0.000321829

0.000288363 -5.74962e-05 3.02338e-08
-5.74962e-05 0.000351031 5.8229e-08
3.02338e-08 5.8229e-08 0.000312205

0.000372074 8.64176e-06 1.68943e-07
8.64176e-06 0.000261955 2.39123e-08
1.68943e-07 2.39123e-08 0.000317777

0.000255392 4.7951e-05 2.67436e-08
4.7951e-05 0.000246542 -1.25096e-07
2.67436e-08 -1.25096e-07 0.00020033

0.000282181 -5.89737e-05 2.68493e-08
-5.89737e-05 0.000350947 5.67125e-08
2.68493e-08 5.67125e-08 0.000308384

0.000101771 -0.000103603 -2.19915e-08
-0.000103603 0.000105434 2.19915e-08
-2.19915e-08 2.19915e-08 2.39789e-05

0.000249916 -1.41027e-05 1.38834e-08
-1.41027e-05 0.000338058 -2.03777e-08
1.38834e-08 -2.03777e-08 0.000272655

0.000254835 -1.93238e-05 -5.86253e-08
-1.93238e-05 0.00033999 1.52189e-07
-5.86253e-08 1.52189e-07 0.000274863

0.000357555 -4.65167e-06 5.7126e-08
-4.65167e-06 0.000384996 3.94517e-08
5.7126e-08 3.94517e-08 0.000368163

0.000358293 -2.42202e-06 -1.07688e-07
-2.42202e-06 0.000383814 1.94822e-07
-1.07688e-07 1.94822e-07 0.000368244

0.000416449 -1.61529e-05 4.3667e-08
-1.61529e-05 0.000349148 -9.20765e-08
4.3667e-08 -9.20765e-08 0.000391383

0.000416291 1.60784e-05 6.96857e-08
1.60784e-05 0.000349227 -4.92719e-08
6.96857e-08 -4.92719e-08 0.000391703

0.000332172 -3.15055e-05 -5.74494e-08
-3.15055e-05 0.000339387 -1.76507e-07
-5.74494e-08 -1.76507e-07 0.000343099

0.000332365 3.25449e-05 1.38724e-07
3.25449e-05 0.00033436 -1.37074e-07
1.38724e-07 -1.37074e-07 0.000340762

0.000353574 -2.80095e-05 -1.95933e-07
-2.80095e-05 0.000384461 -5.9076e-09
-1.95933e-07 -5.9076e-09 0.000363906

0.000353339 2.9459e-05 1.07416e-07
2.9459e-05 0.000384263 9.9788e-08
1.07416e-07 9.9788e-08 0.000363779

0.00041182 4.37016e-05 9.99877e-08
4.37016e-05 0.000407832 1.56637e-07
9.99877e-08 1.56637e-07 0.00040063

0.00041182 -4.37016e-05 7.25386e-08
-4.37016e-05 0.000407832 -1.92704e-07
7.25386e-08 -1.92704e-07 0.000400598

0.000321242 -7.21692e-05 1.06387e-07
-7.21692e-05 0.000384855 -1.30157e-07
1.06387e-07 -1.30157e-07 0.000355198

0.000321591 7.22565e-05 -1.06916e-07
7.22565e-05 0.000384577 -4.16992e-08
-1.06916e-07 -4.16992e-08 0.000355416

0.000324269 4.31222e-05 1.22515e-07
4.31222e-05 0.000304052 -3.38751e-08
1.22515e-07 -3.38751e-08 0.000295715

0.000280811 -3.39623e-05 -1.17448e-07
-3.39623e-05 0.000348402 1.00817e-07
-1.17448e-07 1.00817e-07 0.000293982

0.000283026 -4.24107e-05 1.23061e-07
-4.24107e-05 0.000356876 -4.52279e-08
1.23061e-07 -4.52279e-08 0.00029754

0.000263748 -4.28559e-05 8.72131e-08
-4.28559e-05 0.000251744 1.09628e-07
8.72131e-08 1.09628e-07 0.000195114

0.000324044 -4.3137e-05 -7.93284e-08
-4.3137e-05 0.000305311 1.47645e-08
-7.93284e-08 1.47645e-08 0.000295137

0.000280161 3.18775e-05 3.47449e-08
3.18775e-05 0.00034632 -1.54012e-07
3.47449e-08 -1.54012e-07 0.000292923

0.000297017 6.03562e-05 -4.90271e-08
6.03562e-05 0.000320288 6.23335e-08
-4.90271e-08 6.23335e-08 0.000284939

0.0003051 -6.24278e-05 7.03011e-08
-6.24278e-05 0.000367407 -2.01347e-07
7.03011e-08 -2.01347e-07 0.000345823

0.000305918 6.13912e-05 7.90427e-08
6.13912e-05 0.000367383 3.24973e-08
7.90427e-08 3.24973e-08 0.000346154

0.000296394 -6.13087e-05 -1.64291e-07
-6.13087e-05 0.000319778 -4.63164e-08
-1.64291e-07 -4.63164e-08 0.000284227

0.000374476 -6.09747e-06 7.68542e-08
-6.09747e-06 0.000304161 9.65316e-08
7.68542e-08 9.65316e-08 0.000330578

0.000378846 1.7096e-05 -4.8121e-07
1.7096e-05 0.000409189 1.23034e-07
-4.8121e-07 1.23034e-07 0.000380885

0.000380377 1.49458e-05 -1.98559e-07
1.49458e-05 0.00040834 2.43143e-07
-1.98559e-07 2.43143e-07 0.000381307

0.000307839 -5.38075e-05 -4.00342e-08
-5.38075e-05 0.00037117 1.15809e-07
-4.00342e-08 1.15809e-07 0.000329749

0.000327516 2.63197e-05 3.61652e-08
2.63197e-05 0.000293269 1.94975e-07
3.61652e-08 1.94975e-07 0.000313133

0.000401691 -6.30435e-06 -7.18545e-08
-6.30435e-06 0.000311654 -4.15222e-08
-7.18545e-08 -4.15222e-08 0.000354992

0.000197895 -5.78617e-05 1.10766e-07
-5.78617e-05 0.000206693 2.05087e-07
1.10766e-07 2.05087e-07 0.000119603

0.000199696 -5.64558e-05 8.12228e-09
-5.64558e-05 0.000207411 7.77635e-08
8.12228e-09 7.77635e-08 0.000120886

0.000415161 -1.82572e-05 7.59843e-08
-1.82572e-05 0.000345909 -5.19505e-08
7.59843e-08 -5.19505e-08 0.000388188

0.000414321 1.85226e-05 2.49426e-08
1.85226e-05 0.000346203 3.35896e-09
2.49426e-08 3.35896e-09 0.00038838

0.000402685 5.40566e-06 -1.34148e-07
5.40566e-06 0.00031389 -5.38086e-08
-1.34148e-07 -5.38086e-08 0.000355982

0.0002836 4.21588e-05 -1.08345e-07
4.21588e-05 0.000355024 7.45409e-08
-1.08345e-07 7.45409e-08 0.000296999

0.000324705 3.31857e-05 6.28819e-08
3.31857e-05 0.000288984 -7.83572e-08
6.28819e-08 -7.83572e-08 0.000267235

0.000339956 -4.79095e-05 -1.0122e-07
-4.79095e-05 0.000373469 -1.90405e-07
-1.0122e-07 -1.90405e-07 0.000349913

0.000340187 4.72893e-05 3.53829e-08
4.72893e-05 0.000373445 -2.40884e-07
3.53829e-08 -2.40884e-07 0.000350079

0.000412252 -8.66421e-06 1.0817e-07
-8.66421e-06 0.000365061 -1.17826e-07
1.0817e-07 -1.17826e-07 0.000380732

0.000411518 8.36414e-06 -1.26424e-07
8.36414e-06 0.000370541 -1.057e-07
-1.26424e-07 -1.057e-07 0.000381387

0.000290759 -6.16576e-05 -1.1217e-07
-6.16576e-05 0.000367617 8.67248e-08
-1.1217e-07 8.67248e-08 0.000327279

0.000338762 2.6393e-05 -1.01711e-07
2.6393e-05 0.000285777 8.15344e-08
-1.01711e-07 8.15344e-08 0.000292076

0.000386408 1.84116e-05 2.85367e-08
1.84116e-05 0.000363678 -5.0858e-08
2.85367e-08 -5.0858e-08 0.000372789

0.000386589 -1.84418e-05 -2.68143e-08
-1.84418e-05 0.00036375 -7.38167e-09
-2.68143e-08 -7.38167e-09 0.000372656

0.000304116 -4.78119e-05 -1.64782e-09
-4.78119e-05 0.000362096 -4.93627e-08
-1.64782e-09 -4.93627e-08 0.000326628

0.000292369 -6.58513e-05 -5.65256e-08
-6.58513e-05 0.000365843 3.82612e-08
-5.65256e-08 3.82612e-08 0.000331822

0.000104549 -0.000107419 8.86117e-08
-0.000107419 0.00011029 -8.86117e-08
8.86117e-08 -8.86117e-08 2.62973e-05

0.000318692 4.49636e-05 4.27187e-08
4.49636e-05 0.00038173 1.0567e-07
4.27187e-08 1.0567e-07 0.000352744

0.000318075 -4.55851e-05 1.78633e-07
-4.55851e-05 0.000382315 1.85777e-08
1.78633e-07 1.85777e-08 0.000352957

0.000282663 -5.68578e-05 1.06109e-08
-5.68578e-05 0.000358505 -4.54453e-08
1.06109e-08 -4.54453e-08 0.000322742

0.000329213 -3.58577e-05 1.83787e-08
-3.58577e-05 0.000290109 -6.44539e-08
1.83787e-08 -6.44539e-08 0.000269905

0.000333015 -2.84062e-05 -2.69726e-08
-2.84062e-05 0.000334904 -1.96724e-07
-2.69726e-08 -1.96724e-07 0.000325067

0.000326561 3.87887e-05 6.08734e-08
3.87887e-05 0.000358372 1.25794e-07
6.08734e-08 1.25794e-07 0.00034448

0.000326012 -4.04118e-05 3.75359e-08
-4.04118e-05 0.000359776 1.81548e-07
3.75359e-08 1.81548e-07 0.000344808

0.000374475 -5.84775e-06 7.68277e-08
-5.84775e-06 0.000262856 1.07013e-07
7.68277e-08 1.07013e-07 0.000322692

0.000411464 1.41449e-05 3.63421e-08
1.41449e-05 0.000373272 6.0018e-08
3.63421e-08 6.0018e-08 0.000396058

0.000412485 -1.4349e-05 6.14055e-08
-1.4349e-05 0.00037315 2.05143e-08
6.14055e-08 2.05143e-08 0.000396098

0.000370377 6.26328e-06 -9.23022e-08
6.26328e-06 0.000439932 -2.71985e-07
-9.23022e-08 -2.71985e-07 0.000378094

0.000371124 4.38918e-06 2.75033e-08
4.38918e-06 0.000439332 1.35274e-08
2.75033e-08 1.35274e-08 0.000378262

0.000128685 4.49069e-06 -3.82435e-08
4.49069e-06 0.000287117 -2.30473e-08
-3.82435e-08 -2.30473e-08 7.35054e-05

0.00027012 3.99609e-06 -6.82023e-08
3.99609e-06 0.00013374 1.3325e-07
-6.82023e-08 1.3325e-07 7.34877e-05

0.000316779 -6.15368e-05 1.20391e-07
-6.15368e-05 0.000382932 2.26377e-07
1.20391e-07 2.26377e-07 0.00034325

0.000316748 6.15196e-05 -4.17448e-08
6.15196e-05 0.000382272 2.29682e-07
-4.17448e-08 2.29682e-07 0.000343407

0.000297421 -7.00556e-05 7.2404e-08
-7.00556e-05 0.000378128 -1.65682e-07
7.2404e-08 -1.65682e-07 0.000336588

0.000114151 -5.05243e-05 1.15825e-07
-5.05243e-05 0.00023069 2.01884e-07
1.15825e-07 2.01884e-07 6.48117e-05

0.000220668 -4.82471e-05 1.08948e-07
-4.82471e-05 0.000125878 -8.54553e-08
1.08948e-07 -8.54553e-08 6.60943e-05

0.000390429 -6.48074e-05 1.98116e-07
-6.48074e-05 0.000441463 1.65158e-08
1.98116e-07 1.65158e-08 0.000409991

0.000390429 6.48074e-05 2.27744e-07
6.48074e-05 0.000441463 -4.94875e-08
2.27744e-07 -4.94875e-08 0.000410015

0.000306981 -4.25864e-05 7.69386e-08
-4.25864e-05 0.000329654 -1.08089e-07
7.69386e-08 -1.08089e-07 0.000319659

0.00029387 -5.90574e-05 -8.76875e-08
-5.90574e-05 0.000334859 8.46826e-08
-8.76875e-08 8.46826e-08 0.000291751

0.000317525 -6.20444e-05 1.69239e-07
-6.20444e-05 0.000364832 -4.96499e-08
1.69239e-07 -4.96499e-08 0.000338187

0.000317294 6.18667e-05 -1.04163e-07
6.18667e-05 0.000364475 -1.68322e-07
-1.04163e-07 -1.68322e-07 0.00033829

0.00029503 -6.67176e-05 -4.94959e-08
-6.67176e-05 0.000353146 3.40033e-08
-4.94959e-08 3.40033e-08 0.00031126

0.000293921 5.92148e-05 4.22123e-08
5.92148e-05 0.000333413 -9.48707e-08
4.22123e-08 -9.48707e-08 0.000291544

0.000185982 -1.91681e-05 -1.1699e-08
-1.91681e-05 0.000296452 -5.9365e-08
-1.1699e-08 -5.9365e-08 0.000160626

0.000182754 2.32986e-05 1.16615e-07
2.32986e-05 0.000291328 1.53388e-07
1.16615e-07 1.53388e-07 0.000161357

0.000284603 -1.46455e-05 -2.19841e-07
-1.46455e-05 0.000205809 -3.50564e-08
-2.19841e-07 -3.50564e-08 0.000162372

0.00029502 6.64461e-05 5.19333e-08
6.64461e-05 0.000352063 -8.07852e-08
5.19333e-08 -8.07852e-08 0.000310885

0.000135675 -1.19171e-05 -3.6927e-08
-1.19171e-05 0.00027429 -2.97187e-08
-3.6927e-08 -2.97187e-08 0.000130559

0.000263894 -1.15727e-05 1.43801e-07
-1.15727e-05 0.000140877 8.67107e-08
1.43801e-07 8.67107e-08 0.000128913

0.000333679 -6.0745e-05 -2.00006e-07
-6.0745e-05 0.000381836 2.94323e-07
-2.00006e-07 2.94323e-07 0.000357237

0.000333924 6.06453e-05 8.91037e-08
6.06453e-05 0.000381292 2.54974e-07
8.91037e-08 2.54974e-07 0.000357451

0.000337702 -5.28861e-05 -2.79509e-07
-5.28861e-05 0.000388604 2.29004e-08
-2.79509e-07 2.29004e-08 0.0003622

0.000338041 5.24503e-05 1.82133e-07
5.24503e-05 0.000388632 -6.75425e-08
1.82133e-07 -6.75425e-08 0.000362349

0.000109088 -5.07673e-05 -2.4728e-08
-5.07673e-05 0.00022312 -1.41919e-08
-2.4728e-08 -1.41919e-08 5.69644e-05

0.000214468 -4.69801e-05 -1.43378e-07
-4.69801e-05 0.000113747 1.2314e-08
-1.43378e-07 1.2314e-08 5.64842e-05

0.00031568 5.60754e-05 2.97558e-08
5.60754e-05 0.000356994 -7.22137e-08
2.97558e-08 -7.22137e-08 0.000323365

0.000315579 -5.65014e-05 1.5967e-08
-5.65014e-05 0.000357952 5.89994e-08
1.5967e-08 5.89994e-08 0.000323218

0.000366767 -9.08559e-06 -2.99626e-08
-9.08559e-06 0.00038859 1.15531e-07
-2.99626e-08 1.15531e-07 0.000370936

0.000367187 -1.18421e-05 3.52618e-08
-1.18421e-05 0.000389642 6.17566e-08
3.52618e-08 6.17566e-08 0.00037142

0.000326941 -6.09658e-05 8.45921e-08
-6.09658e-05 0.000402308 -1.92522e-07
8.45921e-08 -1.92522e-07 0.000364151

0.000326795 6.14035e-05 -1.03917e-07
6.14035e-05 0.000401619 -5.10668e-08
-1.03917e-07 -5.10668e-08 0.000364351

0.000394271 -2.41485e-05 -9.13565e-09
-2.41485e-05 0.000367881 -1.84185e-08
-9.13565e-09 -1.84185e-08 0.000387721

0.00039329 2.39825e-05 1.26534e-07
2.39825e-05 0.000367949 1.0239e-08
1.26534e-07 1.0239e-08 0.000387761

0.000308009 5.05754e-05 -1.01197e-07
5.05754e-05 0.000357669 1.30742e-07
-1.01197e-07 1.30742e-07 0.000332066

0.000307348 -5.04139e-05 -6.71747e-08
-5.04139e-05 0.000359484 1.79997e-07
-6.71747e-08 1.79997e-07 0.000332462

0.000352864 -1.89525e-05 6.13946e-08
-1.89525e-05 0.000427794 1.75658e-07
6.13946e-08 1.75658e-07 0.000373991

0.000417512 -3.4392e-05 1.06498e-07
-3.4392e-05 0.000400218 -1.30708e-08
1.06498e-07 -1.30708e-08 0.000406799

0.000414683 -3.52608e-05 2.24806e-07
-3.52608e-05 0.000401033 9.64116e-08
2.24806e-07 9.64116e-08 0.000406811

0.000417596 3.46242e-05 3.97506e-08
3.46242e-05 0.000400377 6.25571e-08
3.97506e-08 6.25571e-08 0.000406754

0.000414338 3.57772e-05 2.57688e-07
3.57772e-05 0.000401033 -1.39122e-07
2.57688e-07 -1.39122e-07 0.000406833

0.000350247 -1.46993e-05 1.94462e-07
-1.46993e-05 0.000427624 -5.23688e-08
1.94462e-07 -5.23688e-08 0.00037274

0.000385827 -3.88119e-05 7.84167e-08
-3.88119e-05 0.000384107 -1.94081e-07
7.84167e-08 -1.94081e-07 0.000372516

0.00038384 4.00147e-05 -1.41279e-07
4.00147e-05 0.000384566 -6.87014e-08
-1.41279e-07 -6.87014e-08 0.00037294

0.000392371 -4.89776e-05 8.53704e-08
-4.89776e-05 0.000420801 -1.05756e-07
8.53704e-08 -1.05756e-07 0.000393433

0.000512025 -3.48215e-05 -4.8369e-06
-3.48215e-05 0.000389772 -2.63038e-06
-4.8369e-06 -2.63038e-06 0.000404411

0.000520475 3.16179e-05 1.85965e-06
3.16179e-05 0.000389772 -9.33698e-07
1.85965e-06 -9.33698e-07 0.000404484

0.000395017 5.14181e-05 1.01281e-07
5.14181e-05 0.000420679 7.97487e-08
1.01281e-07 7.97487e-08 0.000393475

0.000405801 -5.35242e-05 4.42651e-08
-5.35242e-05 0.000403728 -4.34491e-08
4.42651e-08 -4.34491e-08 0.000389636

0.000364998 -4.30215e-05 2.28522e-07
-4.30215e-05 0.00040771 -1.65463e-07
2.28522e-07 -1.65463e-07 0.000378567

0.000410664 -4.14799e-05 4.17024e-08
-4.14799e-05 0.000410982 -5.53195e-08
4.17024e-08 -5.53195e-08 0.000400583

0.00040513 5.33488e-05 6.48941e-08
5.33488e-05 0.000403297 2.45943e-08
6.48941e-08 2.45943e-08 0.00038968

0.000410274 4.06099e-05 6.757e-08
4.06099e-05 0.000410982 1.22064e-08
6.757e-08 1.22064e-08 0.000400619

0.000364998 4.30002e-05 -6.14299e-08
4.30002e-05 0.000407189 -5.90565e-08
-6.14299e-08 -5.90565e-08 0.000378655

0.000365207 -4.42736e-05 2.30346e-07
-4.42736e-05 0.000407057 -1.87799e-07
2.30346e-07 -1.87799e-07 0.000384338

0.000395502 -3.61141e-05 1.05951e-07
-3.61141e-05 0.0004092 -2.26542e-07
1.05951e-07 -2.26542e-07 0.000395421

0.000365207 4.4256e-05 -6.88966e-08
4.4256e-05 0.000406626 -1.50544e-07
-6.88966e-08 -1.50544e-07 0.00038446

0.000395502 3.59476e-05 -1.71714e-07
3.59476e-05 0.000408863 -1.18526e-07
-1.71714e-07 -1.18526e-07 0.000395496

0.000312101 2.89865e-05 -9.24164e-08
2.89865e-05 0.000348256 1.10941e-08
-9.24164e-08 1.10941e-08 0.000326328

0.000279186 -8.39591e-06 5.09116e-09
-8.39591e-06 0.000369076 5.79974e-08
5.09116e-09 5.79974e-08 0.000327915

0.000330935 -9.71725e-06 7.35818e-08
-9.71725e-06 0.000246257 6.7558e-08
7.35818e-08 6.7558e-08 0.000297045

0.000319719 2.28398e-07 -1.07248e-08
2.28398e-07 0.000238794 1.12991e-07
-1.07248e-08 1.12991e-07 0.000276479

0.00031203 2.91097e-05 -9.62603e-08
2.91097e-05 0.000355069 5.57822e-08
-9.62603e-08 5.57822e-08 0.000346733

0.000278237 -1.2678e-05 -1.07089e-08
-1.2678e-05 0.000397917 -1.25776e-07
-1.07089e-08 -1.25776e-07 0.000347234

0.000319765 1.65889e-05 -1.09907e-08
1.65889e-05 0.000239357 -7.92147e-08
-1.09907e-08 -7.92147e-08 0.000278113

0.000357548 2.06884e-05 -7.61943e-08
2.06884e-05 0.000274627 1.24e-07
-7.61943e-08 1.24e-07 0.000335881

0.000201244 4.13228e-05 1.10771e-08
4.13228e-05 0.00025992 -9.1485e-08
1.10771e-08 -9.1485e-08 0.000220426

0.000203729 3.99515e-05 -5.59639e-08
3.99515e-05 0.000259689 -1.31725e-07
-5.59639e-08 -1.31725e-07 0.000216227

0.000253977 3.59433e-05 7.74042e-09
3.59433e-05 0.000201486 -2.92199e-11
7.74042e-09 -2.92199e-11 0.000213395

0.000333188 1.79762e-05 6.20592e-08
1.79762e-05 0.000381204 -8.37415e-08
6.20592e-08 -8.37415e-08 0.000353119

0.000341879 -3.53059e-05 5.69926e-08
-3.53059e-05 0.00036237 -7.3692e-08
5.69926e-08 -7.3692e-08 0.000352895

0.000296879 -4.49314e-05 1.98962e-08
-4.49314e-05 0.000309144 -2.92833e-08
1.98962e-08 -2.92833e-08 0.000299275

0.000276548 1.48772e-05 -4.77791e-09
1.48772e-05 0.000398369 -1.24373e-07
-4.77791e-09 -1.24373e-07 0.00034576

0.000310223 -1.68745e-05 2.69922e-08
-1.68745e-05 0.000351661 -5.54357e-08
2.69922e-08 -5.54357e-08 0.000345569

0.0003474 1.16124e-05 -1.94979e-08
1.16124e-05 0.000247805 1.11065e-08
-1.94979e-08 1.11065e-08 0.000298574

0.00021456 1.93933e-05 -3.27445e-08
1.93933e-05 0.000294997 -7.08819e-09
-3.27445e-08 -7.08819e-09 0.000237883

0.000225206 1.42963e-05 -1.10649e-07
1.42963e-05 0.000287909 -4.80181e-08
-1.10649e-07 -4.80181e-08 0.000235798

0.000287811 1.13972e-05 -6.84892e-08
1.13972e-05 0.000218876 4.67985e-08
-6.84892e-08 4.67985e-08 0.000231342

0.000261148 4.47889e-05 3.13017e-08
4.47889e-05 0.000312332 5.53134e-08
3.13017e-08 5.53134e-08 0.000273472

0.000247937 -2.67553e-05 1.65545e-08
-2.67553e-05 0.000314729 1.34781e-08
1.65545e-08 1.34781e-08 0.000277302

0.000335134 2.59747e-05 7.04225e-08
2.59747e-05 0.000244424 -4.64297e-08
7.04225e-08 -4.64297e-08 0.000300237

0.0001953 2.99365e-05 5.60621e-08
2.99365e-05 0.000238113 -6.20791e-09
5.60621e-08 -6.20791e-09 0.00019645

0.000359959 -1.13686e-05 -2.6438e-08
-1.13686e-05 0.000255255 7.34223e-08
-2.6438e-08 7.34223e-08 0.000328883

0.000355693 8.00371e-06 8.85355e-08
8.00371e-06 0.00036488 -1.60488e-08
8.85355e-08 -1.60488e-08 0.000355031

0.000333134 -2.54903e-06 -5.65496e-09
-2.54903e-06 0.000397497 -1.23812e-07
-5.65496e-09 -1.23812e-07 0.000354357

0.000462829 4.64916e-05 1.83134e-07
4.64916e-05 0.000383561 1.4583e-07
1.83134e-07 1.4583e-07 0.000373065

0.000461033 -2.01346e-05 2.64411e-08
-2.01346e-05 0.00035095 -8.98064e-08
2.64411e-08 -8.98064e-08 0.000376669

0.000283806 -5.14138e-05 9.67509e-08
-5.14138e-05 0.000307347 3.41258e-08
9.67509e-08 3.41258e-08 0.000295065

0.00025396 -4.33174e-05 7.80223e-09
-4.33174e-05 0.000305506 6.79553e-08
7.80223e-09 6.79553e-08 0.00027122

0.000283679 -7.00054e-07 3.84714e-08
-7.00054e-07 0.000206883 6.29256e-08
3.84714e-08 6.29256e-08 0.000231146

0.000389367 2.79981e-05 -1.73565e-07
2.79981e-05 0.000338668 3.19203e-08
-1.73565e-07 3.19203e-08 0.000354913

0.000382895 -7.73672e-06 5.09849e-08
-7.73672e-06 0.000332106 8.14243e-08
5.09849e-08 8.14243e-08 0.000354954

0.000360087 -4.57103e-06 -5.32748e-08
-4.57103e-06 0.000255855 7.22379e-08
-5.32748e-08 7.22379e-08 0.000338187

0.00024692 -3.30507e-05 -5.1422e-09
-3.30507e-05 0.000299752 -1.54454e-08
-5.1422e-09 -1.54454e-08 0.000274119

0.000355987 6.44711e-06 -8.56973e-08
6.44711e-06 0.000245463 -3.91435e-08
-8.56973e-08 -3.91435e-08 0.0003309

0.0002936 -3.21499e-05 -5.01142e-08
-3.21499e-05 0.000258121 -9.34077e-08
-5.01142e-08 -9.34077e-08 0.000261329

0.000257878 4.73311e-05 1.06462e-07
4.73311e-05 0.000290484 5.71423e-08
1.06462e-07 5.71423e-08 0.000273004

0.000304653 3.49953e-05 1.33302e-08
3.49953e-05 0.000229562 -8.66071e-08
1.33302e-08 -8.66071e-08 0.00025776

0.000296929 -2.02444e-05 -2.57086e-08
-2.02444e-05 0.000227825 1.08079e-07
-2.57086e-08 1.08079e-07 0.000255038

0.000253476 4.0344e-05 1.1938e-07
4.0344e-05 0.000310741 4.31738e-08
1.1938e-07 4.31738e-08 0.000275624

0.000262178 -2.95772e-05 3.25672e-08
-2.95772e-05 0.000357538 -1.26268e-08
3.25672e-08 -1.26268e-08 0.000327299

0.000284843 5.29866e-05 1.03883e-08
5.29866e-05 0.000350491 2.54885e-08
1.03883e-08 2.54885e-08 0.000323881

0.000262179 -3.7239e-05 6.72002e-08
-3.7239e-05 0.000309399 1.27953e-07
6.72002e-08 1.27953e-07 0.000274298

0.000255991 4.91899e-05 6.43857e-08
4.91899e-05 0.000309116 1.63692e-08
6.43857e-08 1.63692e-08 0.000271138

0.0001557 -4.14985e-05 1.10794e-07
-4.14985e-05 0.000162636 -1.21705e-08
1.10794e-07 -1.21705e-08 0.000161586

0.000152031 4.72035e-05 -9.14042e-09
4.72035e-05 0.000169276 -1.34809e-07
-9.14042e-09 -1.34809e-07 0.000159072

0.000280844 4.04e-05 -1.90597e-07
4.04e-05 0.000371728 1.19092e-08
-1.90597e-07 1.19092e-08 0.000345496

0.000304657 -4.74539e-05 1.26684e-07
-4.74539e-05 0.000358508 -4.72865e-08
1.26684e-07 -4.72865e-08 0.000343905

0.000261123 4.48467e-05 2.47932e-08
4.48467e-05 0.000329486 -1.02374e-07
2.47932e-08 -1.02374e-07 0.000294436

0.000154096 1.52094e-05 -1.408e-08
1.52094e-05 0.000156215 1.92544e-08
-1.408e-08 1.92544e-08 0.000168167

0.000150795 -5.84183e-07 4.74053e-08
-5.84183e-07 0.000166596 -1.52298e-08
4.74053e-08 -1.52298e-08 0.000170221

0.000345379 -3.43314e-05 1.6049e-07
-3.43314e-05 0.000360837 8.50161e-08
1.6049e-07 8.50161e-08 0.000359725

0.000348104 1.69932e-05 1.14116e-07
1.69932e-05 0.00037124 2.82123e-09
1.14116e-07 2.82123e-09 0.000358525

0.000370689 -7.83475e-07 6.52167e-08
-7.83475e-07 0.000253793 -2.02695e-08
6.52167e-08 -2.02695e-08 0.000313315

0.000346001 -3.2033e-05 1.47284e-07
-3.2033e-05 0.000362355 -7.92065e-09
1.47284e-07 -7.92065e-09 0.000359317

0.000349976 1.16209e-05 9.84857e-08
1.16209e-05 0.000354136 1.1282e-07
9.84857e-08 1.1282e-07 0.000358448

0.00024803 -2.79676e-05 1.601e-08
-2.79676e-05 0.000330532 2.03049e-08
1.601e-08 2.03049e-08 0.000298111

0.000424567 4.26225e-05 1.79777e-07
4.26225e-05 0.000375404 1.32276e-07
1.79777e-07 1.32276e-07 0.000368939

0.000432931 -3.509e-05 6.44765e-08
-3.509e-05 0.00034231 -4.57364e-08
6.44765e-08 -4.57364e-08 0.000372463

0.000326635 -3.39403e-05 -1.38332e-07
-3.39403e-05 0.000324641 1.08074e-07
-1.38332e-07 1.08074e-07 0.000337571

0.000327685 2.59213e-05 4.21016e-08
2.59213e-05 0.000329886 1.13484e-07
4.21016e-08 1.13484e-07 0.000336055

0.000349588 2.88675e-06 -1.36415e-09
2.88675e-06 0.000442903 -4.66945e-08
-1.36415e-09 -4.66945e-08 0.000368451

0.000356219 2.05947e-05 -1.57718e-07
2.05947e-05 0.000400152 -9.71742e-08
-1.57718e-07 -9.71742e-08 0.000369807

0.000183594 1.4219e-05 7.88537e-08
1.4219e-05 0.000228181 7.58188e-08
7.88537e-08 7.58188e-08 0.000191838

0.000226163 1.43557e-05 1.96733e-07
1.43557e-05 0.000185319 1.19183e-07
1.96733e-07 1.19183e-07 0.000191996

0.000278158 4.24683e-05 -8.46397e-08
4.24683e-05 0.000346366 5.52143e-09
-8.46397e-08 5.52143e-09 0.00031696

0.000254578 -2.60657e-05 -6.4662e-08
-2.60657e-05 0.000356389 8.03939e-09
-6.4662e-08 8.03939e-09 0.000319377

0.000410564 -5.39128e-05 4.16493e-07
-5.39128e-05 0.000477668 3.12009e-07
4.16493e-07 3.12009e-07 0.000382939

0.000438695 3.4441e-05 1.0961e-07
3.4441e-05 0.00038121 1.43443e-07
1.0961e-07 1.43443e-07 0.000383405

0.000289964 4.46078e-05 4.07303e-08
4.46078e-05 0.00026334 1.79582e-07
4.07303e-08 1.79582e-07 0.000267223

0.00034008 1.72787e-05 -9.15429e-08
1.72787e-05 0.00028054 -6.76406e-09
-9.15429e-08 -6.76406e-09 0.000318829

0.000337447 -2.26336e-05 5.00922e-08
-2.26336e-05 0.000279683 6.21659e-08
5.00922e-08 6.21659e-08 0.00031931

0.000377556 -2.43013e-05 1.97277e-08
-2.43013e-05 0.000289831 -5.64207e-08
1.97277e-08 -5.64207e-08 0.000349524

0.000282313 9.72833e-06 4.68467e-08
9.72833e-06 0.000206019 -6.46092e-08
4.68467e-08 -6.46092e-08 0.000232235

0.000483833 3.27325e-06 1.64746e-08
3.27325e-06 0.000367762 -9.44305e-08
1.64746e-08 -9.44305e-08 0.000379619

0.000463662 -6.80615e-06 1.53635e-07
-6.80615e-06 0.0004366 1.60566e-07
1.53635e-07 1.60566e-07 0.000375723

0.00029971 5.3821e-05 -5.13046e-08
5.3821e-05 0.000272028 8.82603e-08
-5.13046e-08 8.82603e-08 0.000289834

0.000346998 1.43372e-05 -2.19344e-08
1.43372e-05 0.000270565 5.23079e-08
-2.19344e-08 5.23079e-08 0.000301511

0.000241676 4.44413e-05 -1.3455e-07
4.44413e-05 0.000259365 -8.22926e-08
-1.3455e-07 -8.22926e-08 0.000231825

0.000375769 -2.48924e-05 2.34246e-07
-2.48924e-05 0.000454869 -1.04007e-07
2.34246e-07 -1.04007e-07 0.000372813

0.000370442 1.57515e-05 1.45614e-07
1.57515e-05 0.000396954 -2.3389e-08
1.45614e-07 -2.3389e-08 0.000375378

0.00038306 4.54132e-05 -1.36755e-07
4.54132e-05 0.000309326 -1.33175e-07
-1.36755e-07 -1.33175e-07 0.000350259

0.000310576 -1.40436e-05 2.80752e-08
-1.40436e-05 0.000346797 -3.71752e-08
2.80752e-08 -3.71752e-08 0.000325678

0.000277258 9.63092e-06 -1.92811e-08
9.63092e-06 0.00037022 1.23588e-07
-1.92811e-08 1.23588e-07 0.00032689

0.000372501 -6.86188e-06 -1.13474e-07
-6.86188e-06 0.000261226 -1.74009e-08
-1.13474e-07 -1.74009e-08 0.000327785

0.00037789 5.1669e-06 1.48339e-07
5.1669e-06 0.000258546 3.58815e-08
1.48339e-07 3.58815e-08 0.000328036

0.000258276 -2.93032e-05 2.48754e-08
-2.93032e-05 0.000240471 -2.3733e-07
2.48754e-08 -2.3733e-07 0.000228682

0.000335389 1.47043e-06 -8.67206e-08
1.47043e-06 0.00024065 -2.26356e-08
-8.67206e-08 -2.26356e-08 0.000276897

0.000373936 5.66866e-06 9.31792e-08
5.66866e-06 0.000291312 -1.0013e-07
9.31792e-08 -1.0013e-07 0.000343491

0.000364652 -1.24243e-05 -8.95716e-08
-1.24243e-05 0.000299705 2.82032e-08
-8.95716e-08 2.82032e-08 0.000343948

0.000344059 -1.7134e-05 1.99075e-07
-1.7134e-05 0.000266356 -5.90572e-08
1.99075e-07 -5.90572e-08 0.000302099

0.000371286 -7.96718e-06 -1.02241e-07
-7.96718e-06 0.000283039 4.15013e-08
-1.02241e-07 4.15013e-08 0.000330648

0.000377579 3.46196e-06 1.6145e-07
3.46196e-06 0.000282607 -2.81353e-08
1.6145e-07 -2.81353e-08 0.000330614

0.00033909 3.60203e-05 2.78723e-08
3.60203e-05 0.000268109 -1.25583e-07
2.78723e-08 -1.25583e-07 0.000308134

0.00025946 -4.80754e-05 7.99405e-10
-4.80754e-05 0.000253976 -8.54465e-08
7.99405e-10 -8.54465e-08 0.000246213

0.000291858 6.20696e-05 1.41458e-07
6.20696e-05 0.000352505 4.50694e-08
1.41458e-07 4.50694e-08 0.000329662

0.000283861 -5.33895e-05 -5.10458e-08
-5.33895e-05 0.00033301 7.08039e-08
-5.10458e-08 7.08039e-08 0.00033373

0.000277822 -3.88734e-05 6.42581e-08
-3.88734e-05 0.000337033 -7.23368e-08
6.42581e-08 -7.23368e-08 0.00033768

0.00029454 6.53708e-05 1.00336e-08
6.53708e-05 0.000362768 2.48212e-08
1.00336e-08 2.48212e-08 0.00033342

0.000310052 2.3066e-05 -1.48149e-07
2.3066e-05 0.000224918 9.76426e-09
-1.48149e-07 9.76426e-09 0.000257377

0.000235337 -2.69737e-05 -3.48282e-08
-2.69737e-05 0.000203817 2.03944e-07
-3.48282e-08 2.03944e-07 0.000202262

0.000340281 5.17731e-05 9.45528e-08
5.17731e-05 0.000286956 2.1704e-07
9.45528e-08 2.1704e-07 0.000322836

0.000333797 -1.74517e-05 1.38825e-07
-1.74517e-05 0.0002666 -1.37651e-07
1.38825e-07 -1.37651e-07 0.000302717

0.000242107 -2.08289e-05 -1.19305e-07
-2.08289e-05 0.00019992 2.73521e-08
-1.19305e-07 2.73521e-08 0.000204063

0.00029667 -4.20031e-05 2.67718e-08
-4.20031e-05 0.000271782 -1.54195e-07
2.67718e-08 -1.54195e-07 0.000286428

0.000244991 2.7455e-07 -7.05626e-08
2.7455e-07 0.00036921 9.69373e-08
-7.05626e-08 9.69373e-08 0.000316168

0.000273328 6.55835e-06 -7.85381e-08
6.55835e-06 0.000335443 1.8228e-08
-7.85381e-08 1.8228e-08 0.000314736

0.000259517 5.37671e-05 1.15339e-07
5.37671e-05 0.00026168 1.42987e-07
1.15339e-07 1.42987e-07 0.000254806

0.000258507 -3.16741e-05 1.05265e-08
-3.16741e-05 0.000206002 1.37984e-07
1.05265e-08 1.37984e-07 0.000219461

0.000305164 5.75198e-05 -1.94076e-08
5.75198e-05 0.000322992 -4.99276e-08
-1.94076e-08 -4.99276e-08 0.000333745

0.000300945 -5.48158e-05 2.05094e-08
-5.48158e-05 0.000338502 1.70012e-07
2.05094e-08 1.70012e-07 0.000329279

0.000248969 -4.05013e-05 -4.33019e-08
-4.05013e-05 0.000282366 3.01024e-07
-4.33019e-08 3.01024e-07 0.000254682

0.00025509 -4.52301e-05 2.40593e-08
-4.52301e-05 0.000279141 -4.27564e-08
2.40593e-08 -4.27564e-08 0.000251586

0.000334428 4.1886e-05 -4.51e-08
4.1886e-05 0.000273668 8.77813e-08
-4.51e-08 8.77813e-08 0.000304791

0.000386918 2.55336e-05 -1.76454e-07
2.55336e-05 0.000255769 2.54409e-08
-1.76454e-07 2.54409e-08 0.000348827

0.000387518 -1.71762e-05 5.1908e-08
-1.71762e-05 0.000244949 -5.81644e-08
5.1908e-08 -5.81644e-08 0.00034921

0.000236942 3.30521e-05 -7.82779e-08
3.30521e-05 0.000308512 3.26453e-08
-7.82779e-08 3.26453e-08 0.000260424

0.000300128 5.09606e-05 -3.93025e-08
5.09606e-05 0.000290237 2.78639e-08
-3.93025e-08 2.78639e-08 0.000293669

0.000185622 4.8095e-06 7.4723e-08
4.8095e-06 0.000288342 3.04219e-08
7.4723e-08 3.04219e-08 0.000227865

0.000196279 2.55096e-06 -4.29873e-08
2.55096e-06 0.000283639 -2.94358e-08
-4.29873e-08 -2.94358e-08 0.000225909

0.00028529 2.39507e-06 -4.26753e-08
2.39507e-06 0.000187837 1.21825e-07
-4.26753e-08 1.21825e-07 0.000222899

0.000272021 -3.81705e-05 -1.5343e-07
-3.81705e-05 0.000244948 -6.86707e-08
-1.5343e-07 -6.86707e-08 0.000253984

0.000374991 -2.64917e-05 -2.92583e-07
-2.64917e-05 0.000423288 1.15569e-07
-2.92583e-07 1.15569e-07 0.000380967

0.000470323 1.13055e-05 4.38417e-07
1.13055e-05 0.000468318 -3.92628e-08
4.38417e-07 -3.92628e-08 0.000377563

0.000291322 4.60857e-05 1.99908e-10
4.60857e-05 0.00023233 -6.32283e-08
1.99908e-10 -6.32283e-08 0.000253931

0.000312395 -1.90206e-05 -7.45682e-09
-1.90206e-05 0.000225508 9.26237e-08
-7.45682e-09 9.26237e-08 0.000260598

0.000242826 3.27428e-05 -7.80881e-08
3.27428e-05 0.000195043 -1.11799e-08
-7.80881e-08 -1.11799e-08 0.00020709

0.00026218 -3.36646e-05 3.7255e-08
-3.36646e-05 0.000330387 2.93167e-09
3.7255e-08 2.93167e-09 0.00031371

0.000280742 6.08914e-05 4.45577e-08
6.08914e-05 0.000342608 -8.61027e-08
4.45577e-08 -8.61027e-08 0.000309971

0.000370681 -6.60748e-07 6.9892e-08
-6.60748e-07 0.000253001 -1.53937e-07
6.9892e-08 -1.53937e-07 0.000313048

0.000221381 3.05175e-05 -3.34077e-08
3.05175e-05 0.000307769 -8.75651e-09
-3.34077e-08 -8.75651e-09 0.00026264

0.000268569 -4.03708e-05 4.74181e-08
-4.03708e-05 0.000374036 -1.08851e-07
4.74181e-08 -1.08851e-07 0.000347288

0.000301301 5.71616e-05 3.87113e-08
5.71616e-05 0.000366581 -3.73565e-08
3.87113e-08 -3.73565e-08 0.000344374

0.0002385 3.59886e-05 9.95425e-08
3.59886e-05 0.0002594 -1.26753e-07
9.95425e-08 -1.26753e-07 0.000227949

0.000252961 3.75939e-05 -4.6058e-10
3.75939e-05 0.000246548 -4.29269e-08
-4.6058e-10 -4.29269e-08 0.000225201

0.000245308 2.8983e-05 -7.69867e-08
2.8983e-05 0.000196482 -1.4291e-08
-7.69867e-08 -1.4291e-08 0.00020817

0.00029092 6.27974e-05 9.41666e-08
6.27974e-05 0.000369902 -1.2517e-07
9.41666e-08 -1.2517e-07 0.000334791

0.000280231 -4.58039e-05 -1.87775e-08
-4.58039e-05 0.000325337 -4.50566e-08
-1.87775e-08 -4.50566e-08 0.00033948

0.000393686 1.63485e-06 8.376e-08
1.63485e-06 0.000255765 4.27245e-10
8.376e-08 4.27245e-10 0.000335304

0.000295405 4.32007e-05 1.89986e-08
4.32007e-05 0.000324818 6.51717e-08
1.89986e-08 6.51717e-08 0.000339107

0.000297093 -5.35009e-05 1.226e-07
-5.35009e-05 0.000358543 -1.00327e-07
1.226e-07 -1.00327e-07 0.000335488

0.000295011 5.1552e-05 -9.7299e-08
5.1552e-05 0.000305131 -6.46042e-08
-9.7299e-08 -6.46042e-08 0.000310732

0.000215547 -1.1125e-05 -1.43773e-07
-1.1125e-05 0.000296826 1.47787e-07
-1.43773e-07 1.47787e-07 0.000241778

0.000228224 -1.45761e-05 1.19167e-07
-1.45761e-05 0.000292786 -1.21783e-07
1.19167e-07 -1.21783e-07 0.000239979

0.00028899 -9.54051e-06 -3.31262e-08
-9.54051e-06 0.000221732 1.01677e-07
-3.31262e-08 1.01677e-07 0.000236751

0.000271172 -3.14354e-05 -1.65917e-07
-3.14354e-05 0.00027151 1.51673e-07
-1.65917e-07 1.51673e-07 0.000263222

0.000273453 5.48359e-06 -7.75057e-08
5.48359e-06 0.000327926 -2.49748e-09
-7.75057e-08 -2.49748e-09 0.00028772

0.000245214 1.83379e-06 -7.49733e-08
1.83379e-06 0.000341943 8.31772e-09
-7.49733e-08 8.31772e-09 0.00028952

0.000218331 -3.53203e-05 1.22042e-07
-3.53203e-05 0.000254102 -1.0601e-07
1.22042e-07 -1.0601e-07 0.000218233

0.000217848 -3.38183e-05 3.23468e-08
-3.38183e-05 0.000247292 -2.33313e-07
3.23468e-08 -2.33313e-07 0.00021918

0.00039656 -2.10495e-06 4.90844e-08
-2.10495e-06 0.0002605 5.30079e-08
4.90844e-08 5.30079e-08 0.000335848

0.000391155 1.90422e-06 9.28166e-08
1.90422e-06 0.000263541 1.53658e-08
9.28166e-08 1.53658e-08 0.000335631

0.00027921 -4.19857e-05 4.52831e-08
-4.19857e-05 0.000319847 6.44358e-09
4.52831e-08 6.44358e-09 0.000318276

0.000283883 5.52075e-05 -1.59514e-08
5.52075e-05 0.000346893 -6.02384e-08
-1.59514e-08 -6.02384e-08 0.000314384

0.000270098 3.51985e-05 1.549e-07
3.51985e-05 0.000369383 1.35334e-07
1.549e-07 1.35334e-07 0.000346275

0.000301002 -5.18435e-05 -6.49668e-08
-5.18435e-05 0.000362007 1.94208e-08
-6.49668e-08 1.94208e-08 0.00034376

0.000313433 -4.2025e-05 -1.55683e-07
-4.2025e-05 0.000306761 1.32979e-08
-1.55683e-07 1.32979e-08 0.000320377

0.000221599 -2.22076e-05 -9.22369e-08
-2.22076e-05 0.00031436 1.85861e-08
-9.22369e-08 1.85861e-08 0.000263701

0.000353486 6.5081e-06 9.80054e-08
6.5081e-06 0.000330834 1.12098e-07
9.80054e-08 1.12098e-07 0.000347224

0.000347309 -2.07205e-05 6.60809e-08
-2.07205e-05 0.000325403 1.141e-07
6.60809e-08 1.141e-07 0.000348216

0.000307978 -3.26786e-05 6.74271e-08
-3.26786e-05 0.000283262 -1.61072e-07
6.74271e-08 -1.61072e-07 0.000294882

0.000336476 -2.72743e-05 3.81415e-08
-2.72743e-05 0.000300358 -7.42754e-08
3.81415e-08 -7.42754e-08 0.000322965

0.000338848 2.31599e-05 -9.01187e-08
2.31599e-05 0.000312185 -2.34833e-08
-9.01187e-08 -2.34833e-08 0.000321462

0.000152919 -1.26095e-05 8.1817e-08
-1.26095e-05 0.000107639 1.68074e-08
8.1817e-08 1.68074e-08 0.000170108

0.000256974 5.44956e-05 4.95863e-08
5.44956e-05 0.000277905 -1.78971e-07
4.95863e-08 -1.78971e-07 0.000252807

0.000120566 2.56281e-05 7.70228e-08
2.56281e-05 0.000155615 -5.9376e-08
7.70228e-08 -5.9376e-08 0.000168997

0.000237391 -2.92795e-05 1.97606e-08
-2.92795e-05 0.000307695 1.34392e-07
1.97606e-08 1.34392e-07 0.000261716

0.000368259 -2.88092e-05 -1.19353e-07
-2.88092e-05 0.00040105 5.26584e-10
-1.19353e-07 5.26584e-10 0.000373523

0.000388041 1.14174e-05 -9.80617e-08
1.14174e-05 0.000374901 3.82064e-07
-9.80617e-08 3.82064e-07 0.000373213

0.0003092 3.57553e-05 -5.59034e-08
3.57553e-05 0.00029509 -3.22267e-08
-5.59034e-08 -3.22267e-08 0.00029286

0.000335418 -1.98992e-06 -8.70008e-08
-1.98992e-06 0.000237544 4.62166e-08
-8.70008e-08 4.62166e-08 0.00027729

0.000278056 4.38545e-05 -2.92398e-08
4.38545e-05 0.000244511 -6.10069e-08
-2.92398e-08 -6.10069e-08 0.00025044

0.000255781 2.20031e-05 -5.66846e-08
2.20031e-05 0.00036321 1.42374e-07
-5.66846e-08 1.42374e-07 0.00031925

0.000280256 -2.93604e-05 1.10019e-07
-2.93604e-05 0.00033906 3.94601e-09
1.10019e-07 3.94601e-09 0.000317312

0.000340656 4.89258e-05 -1.83143e-07
4.89258e-05 0.00036749 -2.28494e-08
-1.83143e-07 -2.28494e-08 0.000353827

0.000337081 -2.69223e-05 -2.42329e-08
-2.69223e-05 0.000375501 -1.13537e-07
-2.42329e-08 -1.13537e-07 0.000354429

0.000288702 6.66992e-05 4.58233e-09
6.66992e-05 0.000363057 2.43273e-08
4.58233e-09 2.43273e-08 0.00033365

0.000253511 -6.3246e-05 -2.99811e-08
-6.3246e-05 0.00034166 -6.37791e-08
-2.99811e-08 -6.37791e-08 0.000338914

0.00025224 3.53081e-05 1.04923e-07
3.53081e-05 0.000329674 -9.75015e-08
1.04923e-07 -9.75015e-08 0.0002979

0.000246481 1.7212e-05 -6.2675e-08
1.7212e-05 0.000323136 -1.05351e-08
-6.2675e-08 -1.05351e-08 0.000279975

0.000303675 -3.9129e-05 -2.28486e-08
-3.9129e-05 0.000297613 -8.3107e-08
-2.28486e-08 -8.3107e-08 0.000311934

0.000304054 4.08925e-05 -5.21493e-08
4.08925e-05 0.000307774 -2.89898e-08
-5.21493e-08 -2.89898e-08 0.000309877

0.000277577 4.15807e-05 -3.12031e-08
4.15807e-05 0.000281339 -8.99036e-08
-3.12031e-08 -8.99036e-08 0.000261792

0.000262467 -4.06942e-05 7.91946e-08
-4.06942e-05 0.000326996 -1.25595e-07
7.91946e-08 -1.25595e-07 0.000295883

0.000229853 -7.6217e-06 -1.01603e-07
-7.6217e-06 0.000336444 -4.22216e-09
-1.01603e-07 -4.22216e-09 0.000282713

0.000180628 2.93606e-05 8.38783e-08
2.93606e-05 0.000200621 2.95741e-08
8.38783e-08 2.95741e-08 0.000177717

0.000198024 3.0198e-05 -3.03416e-08
3.0198e-05 0.000182595 1.40475e-07
-3.03416e-08 1.40475e-07 0.000177959

0.000236311 -3.5511e-05 7.38494e-08
-3.5511e-05 0.000247549 -1.34599e-07
7.38494e-08 -1.34599e-07 0.000223131

0.000344379 -1.33688e-05 1.97167e-07
-1.33688e-05 0.00024727 -1.08318e-07
1.97167e-07 -1.08318e-07 0.0002987

0.000408098 -4.19164e-05 4.70152e-07
-4.19164e-05 0.000434207 1.82864e-07
4.70152e-07 1.82864e-07 0.000381766

0.000449435 4.73407e-05 -7.44617e-08
4.73407e-05 0.00038109 -2.99574e-07
-7.44617e-08 -2.99574e-07 0.000381918

0.000386197 4.52898e-05 -1.35542e-07
4.52898e-05 0.00038642 7.90673e-08
-1.35542e-07 7.90673e-08 0.00036592

0.00037756 -1.191e-05 2.18955e-07
-1.191e-05 0.000351493 -1.33284e-07
2.18955e-07 -1.33284e-07 0.000368484

0.000342687 -3.11808e-07 8.71849e-09
-3.11808e-07 0.000253007 3.23256e-08
8.71849e-09 3.23256e-08 0.000313217

0.000291395 -5.92525e-05 1.10509e-07
-5.92525e-05 0.000355272 -1.20595e-07
1.10509e-07 -1.20595e-07 0.000333785

0.00026326 6.24632e-05 -1.6506e-08
6.24632e-05 0.000337544 1.17297e-07
-1.6506e-08 1.17297e-07 0.000337816

0.000190542 -2.85578e-05 -1.9494e-07
-2.85578e-05 0.000204655 1.75648e-07
-1.9494e-07 1.75648e-07 0.000185365

0.000195381 3.70663e-05 5.59367e-08
3.70663e-05 0.000195462 -5.84044e-09
5.59367e-08 -5.84044e-09 0.000187613

0.000180097 -1.31387e-05 -1.71668e-07
-1.31387e-05 0.000239936 -5.53796e-08
-1.71668e-07 -5.53796e-08 0.000198689

0.000192295 -1.66064e-05 -1.91799e-07
-1.66064e-05 0.000242943 2.12699e-07
-1.91799e-07 2.12699e-07 0.00020008

0.000242645 -1.17257e-05 1.22091e-07
-1.17257e-05 0.000182396 3.17765e-08
1.22091e-07 3.17765e-08 0.000197337

0.00024327 4.42765e-05 -1.28779e-07
4.42765e-05 0.00023618 -1.04909e-07
-1.28779e-07 -1.04909e-07 0.000227326

0.00015751 1.29083e-05 7.97351e-08
1.29083e-05 0.000231212 1.07498e-09
7.97351e-08 1.07498e-09 0.00018758

0.000227802 3.03212e-06 -8.87448e-08
3.03212e-06 0.000160342 -2.74326e-08
-8.87448e-08 -2.74326e-08 0.000187468

0.000347359 -5.41077e-06 -3.17584e-08
-5.41077e-06 0.000417573 1.08278e-07
-3.17584e-08 1.08278e-07 0.000364215

0.000353733 -1.90798e-05 1.35134e-07
-1.90798e-05 0.000379133 8.62391e-08
1.35134e-07 8.62391e-08 0.000365313

0.000355004 -1.46841e-05 -1.06217e-07
-1.46841e-05 0.000291968 6.35268e-08
-1.06217e-07 6.35268e-08 0.000330045

0.000371541 6.47324e-06 -8.97407e-08
6.47324e-06 0.000222677 -3.42574e-08
-8.97407e-08 -3.42574e-08 0.000338646

0.000216463 -2.86623e-05 1.23311e-07
-2.86623e-05 0.000275916 -1.16787e-07
1.23311e-07 -1.16787e-07 0.000232927

0.000214344 -2.05109e-05 -2.8465e-08
-2.05109e-05 0.00027595 2.86744e-07
-2.8465e-08 2.86744e-07 0.000235943

0.000348295 1.3966e-05 3.59737e-09
1.3966e-05 0.000255198 6.64757e-09
3.59737e-09 6.64757e-09 0.000314776

0.000363515 -1.42269e-05 -4.94261e-08
-1.42269e-05 0.000373268 -8.18785e-08
-4.94261e-08 -8.18785e-08 0.000366373

0.000380901 1.91541e-07 -2.24039e-07
1.91541e-07 0.000358359 2.33603e-07
-2.24039e-07 2.33603e-07 0.000365844

0.000328084 -2.91984e-05 -1.18743e-07
-2.91984e-05 0.000317394 3.81815e-08
-1.18743e-07 3.81815e-08 0.000325788

0.000296097 4.81309e-05 -9.04265e-08
4.81309e-05 0.00031499 -9.25333e-08
-9.04265e-08 -9.25333e-08 0.000317626

0.000283738 -5.07765e-05 9.3649e-08
-5.07765e-05 0.000338512 1.35574e-07
9.3649e-08 1.35574e-07 0.000313126

0.000354971 -1.34866e-05 -1.02209e-07
-1.34866e-05 0.0002572 -1.59649e-08
-1.02209e-07 -1.59649e-08 0.000323452

0.000271191 4.0426e-05 3.65225e-08
4.0426e-05 0.000326702 -1.48762e-07
3.65225e-08 -1.48762e-07 0.000314046

0.000283329 -5.36295e-05 -1.27898e-07
-5.36295e-05 0.000334933 -1.02691e-08
-1.27898e-07 -1.02691e-08 0.000310865

0.000148863 -5.96656e-05 1.8641e-07
-5.96656e-05 0.000152999 7.85156e-08
1.8641e-07 7.85156e-08 0.000156028

0.000230917 1.2761e-05 -3.30977e-08
1.2761e-05 0.000335216 -9.57342e-09
-3.30977e-08 -9.57342e-09 0.000281353

0.000251343 -1.16631e-05 -3.68684e-08
-1.16631e-05 0.000318589 1.18168e-08
-3.68684e-08 1.18168e-08 0.000280018

0.000334652 5.88304e-06 4.05548e-08
5.88304e-06 0.000444186 1.47127e-07
4.05548e-08 1.47127e-07 0.000365915

0.000358245 -3.91398e-07 9.98977e-08
-3.91398e-07 0.000375598 -8.26623e-08
9.98977e-08 -8.26623e-08 0.000367696

0.000388798 -2.83549e-06 1.88163e-08
-2.83549e-06 0.000279945 1.12037e-07
1.88163e-08 1.12037e-07 0.000346589

0.000398089 3.91018e-06 -3.63244e-08
3.91018e-06 0.000273582 -5.83197e-08
-3.63244e-08 -5.83197e-08 0.000346638

0.000353552 5.84723e-05 2.02787e-08
5.84723e-05 0.000324197 -2.3372e-08
2.02787e-08 -2.3372e-08 0.000344694

0.000341115 -3.31887e-05 -8.89135e-08
-3.31887e-05 0.000318296 2.43744e-08
-8.89135e-08 2.43744e-08 0.000343225

0.000398551 2.10575e-05 -1.01748e-07
2.10575e-05 0.000369101 -6.4646e-08
-1.01748e-07 -6.4646e-08 0.000362832

0.000376596 -1.15461e-05 2.14072e-07
-1.15461e-05 0.000372374 -1.54242e-07
2.14072e-07 -1.54242e-07 0.000364617

0.000408165 2.37437e-05 -1.10925e-07
2.37437e-05 0.000383992 -2.9744e-07
-1.10925e-07 -2.9744e-07 0.000379199

0.000400545 -6.93691e-05 -2.73416e-07
-6.93691e-05 0.000431021 1.39367e-07
-2.73416e-07 1.39367e-07 0.000379126

0.000305691 6.03981e-05 -8.63303e-08
6.03981e-05 0.000368154 -1.64517e-07
-8.63303e-08 -1.64517e-07 0.00034581

0.000288477 -7.43959e-05 1.02196e-07
-7.43959e-05 0.000337413 -7.14326e-08
1.02196e-07 -7.14326e-08 0.000349714

0.000311975 3.26015e-05 -7.61792e-08
3.26015e-05 0.000265791 6.06177e-08
-7.61792e-08 6.06177e-08 0.000287126

0.000255016 2.63414e-05 -3.44284e-08
2.63414e-05 0.000339757 -1.0801e-08
-3.44284e-08 -1.0801e-08 0.00030036

0.00028211 -4.15909e-05 1.73411e-07
-4.15909e-05 0.000280895 -1.42043e-07
1.73411e-07 -1.42043e-07 0.000284029

0.000279637 -3.20302e-05 9.18332e-08
-3.20302e-05 0.000330977 -1.1731e-07
9.18332e-08 -1.1731e-07 0.000298667

0.00030979 -3.03645e-05 8.4745e-08
-3.03645e-05 0.000263044 -7.70221e-08
8.4745e-08 -7.70221e-08 0.000288702

0.000277937 3.5693e-05 -8.51266e-08
3.5693e-05 0.00033399 -2.39652e-08
-8.51266e-08 -2.39652e-08 0.000297622

0.000287092 5.08558e-05 2.09825e-08
5.08558e-05 0.000290172 -4.67569e-08
2.09825e-08 -4.67569e-08 0.000281755

0.000310037 6.73852e-05 6.31077e-08
6.73852e-05 0.000338996 7.95114e-08
6.31077e-08 7.95114e-08 0.00034836

0.000313285 -4.98637e-05 5.1478e-08
-4.98637e-05 0.00035557 -8.18967e-08
5.1478e-08 -8.18967e-08 0.000346391

0.0003631 3.06988e-05 1.974e-07
3.06988e-05 0.000299268 1.79634e-07
1.974e-07 1.79634e-07 0.000334109

0.000470694 2.32298e-05 -8.85435e-08
2.32298e-05 0.000458907 -9.26655e-08
-8.85435e-08 -9.26655e-08 0.000376882

0.000382523 2.1674e-05 3.38735e-07
2.1674e-05 0.000398631 -2.69959e-07
3.38735e-07 -2.69959e-07 0.000380506

0.000328044 -3.06744e-05 -1.17201e-07
-3.06744e-05 0.000284046 5.96551e-08
-1.17201e-07 5.96551e-08 0.000318037

0.000392526 2.11465e-06 5.91467e-08
2.11465e-06 0.000308135 -4.10705e-08
5.91467e-08 -4.10705e-08 0.000358462

0.000183241 -2.6148e-05 -1.55391e-07
-2.6148e-05 0.000203869 -2.09766e-07
-1.55391e-07 -2.09766e-07 0.000181181

0.000203794 -2.17643e-05 3.15307e-08
-2.17643e-05 0.000181689 2.83307e-08
3.15307e-08 2.83307e-08 0.000181599

0.000384164 2.05949e-06 -4.92136e-08
2.05949e-06 0.000299245 2.75703e-08
-4.92136e-08 2.75703e-08 0.000352044

0.000398132 -3.3023e-06 2.55117e-09
-3.3023e-06 0.000290491 -1.04049e-07
2.55117e-09 -1.04049e-07 0.000351702

0.000391402 6.02433e-06 -1.29478e-07
6.02433e-06 0.000336874 -1.35823e-07
-1.29478e-07 -1.35823e-07 0.000356749

0.00025444 -1.89124e-05 -6.42705e-08
-1.89124e-05 0.000339616 -3.20479e-08
-6.42705e-08 -3.20479e-08 0.000300822

0.000310152 2.52103e-05 -1.48322e-07
2.52103e-05 0.0002553 3.92244e-09
-1.48322e-07 3.92244e-09 0.00026467

0.000325334 -3.90663e-05 -1.35745e-07
-3.90663e-05 0.000325584 1.28699e-07
-1.35745e-07 1.28699e-07 0.000339682

0.000325765 3.23427e-05 3.97163e-08
3.23427e-05 0.000349385 1.32479e-07
3.97163e-08 1.32479e-07 0.000337582

0.000445196 3.94485e-06 1.4665e-07
3.94485e-06 0.000482211 -6.54791e-08
1.4665e-07 -6.54791e-08 0.000377131

0.000442878 3.61911e-05 5.05252e-09
3.61911e-05 0.000361638 4.49064e-08
5.05252e-09 4.49064e-08 0.000381029

0.00032493 -2.43658e-05 1.38298e-07
-2.43658e-05 0.000276126 -1.38747e-07
1.38298e-07 -1.38747e-07 0.00029978

0.000374253 -1.164e-06 8.76785e-08
-1.164e-06 0.0003236 1.23104e-07
8.76785e-08 1.23104e-07 0.000349169

0.000364808 -8.59392e-06 -9.1443e-08
-8.59392e-06 0.000331245 -5.53387e-08
-9.1443e-08 -5.53387e-08 0.000349843

0.000305189 -4.45262e-05 1.29665e-07
-4.45262e-05 0.000348081 -9.7761e-09
1.29665e-07 -9.7761e-09 0.000328213

0.000283388 2.29179e-05 -1.93084e-07
2.29179e-05 0.000351135 4.75353e-08
-1.93084e-07 4.75353e-08 0.000330497

0.000281662 4.25788e-05 1.47588e-07
4.25788e-05 0.000330336 1.44888e-07
1.47588e-07 1.44888e-07 0.000336558

0.000292516 -6.00153e-05 -1.46123e-07
-6.00153e-05 0.000355436 -9.04675e-08
-1.46123e-07 -9.04675e-08 0.000332933

0.000161569 7.73575e-05 -2.25556e-07
7.73575e-05 0.000154912 6.65366e-08
-2.25556e-07 6.65366e-08 0.000158196

0.000326377 4.4045e-05 1.41938e-07
4.4045e-05 0.000366404 -8.05751e-08
1.41938e-07 -8.05751e-08 0.000353734

0.000325567 -3.39238e-05 7.69538e-09
-3.39238e-05 0.000368727 -1.73005e-07
7.69538e-09 -1.73005e-07 0.000353501

0.000270874 4.02617e-05 1.59369e-08
4.02617e-05 0.000341329 -1.92559e-08
1.59369e-08 -1.92559e-08 0.000327753

0.00028394 -5.09711e-05 -1.44073e-07
-5.09711e-05 0.000346127 -9.29624e-08
-1.44073e-07 -9.29624e-08 0.00032455

0.000312887 -2.36191e-05 -9.92028e-10
-2.36191e-05 0.000250043 -7.38314e-09
-9.92028e-10 -7.38314e-09 0.000268611

0.000339054 4.40154e-05 8.02764e-08
4.40154e-05 0.000311428 1.62345e-08
8.02764e-08 1.62345e-08 0.000328766

0.000359689 4.6326e-05 5.99483e-08
4.6326e-05 0.000327253 -1.75252e-07
5.99483e-08 -1.75252e-07 0.000346603

0.000340139 -3.10158e-05 -1.07729e-07
-3.10158e-05 0.00033947 -3.0874e-08
-1.07729e-07 -3.0874e-08 0.00034564

0.000363066 2.94629e-05 1.92529e-07
2.94629e-05 0.000259715 -6.32914e-08
1.92529e-07 -6.32914e-08 0.000327654

0.000380881 5.33399e-06 -2.94647e-08
5.33399e-06 0.00034779 -7.05909e-08
-2.94647e-08 -7.05909e-08 0.000362368

0.000394665 -7.88529e-06 -7.46375e-09
-7.88529e-06 0.000330582 -1.53828e-07
-7.46375e-09 -1.53828e-07 0.000361906

0.000371869 1.00729e-05 -7.0289e-08
1.00729e-05 0.000433189 1.45494e-07
-7.0289e-08 1.45494e-07 0.000377623

0.000375077 -1.62018e-05 1.95481e-08
-1.62018e-05 0.00047745 1.7125e-08
1.95481e-08 1.7125e-08 0.000374481

0.000165488 -7.02107e-06 1.42049e-07
-7.02107e-06 0.000121259 1.24001e-07
1.42049e-07 1.24001e-07 0.000168381

0.000106974 -1.53378e-06 -3.08329e-08
-1.53378e-06 0.000167053 5.54559e-08
-3.08329e-08 5.54559e-08 0.000169153

0.000303799 5.02734e-05 9.66295e-08
5.02734e-05 0.000363958 9.51624e-08
9.66295e-08 9.51624e-08 0.000334301

0.000302487 -4.34249e-05 -3.83907e-08
-4.34249e-05 0.000332026 8.49431e-08
-3.83907e-08 8.49431e-08 0.00033761

0.000150348 2.74759e-05 -2.49939e-07
2.74759e-05 0.000148245 -1.48583e-07
-2.49939e-07 -1.48583e-07 0.000166558

0.000155775 3.50702e-05 -5.63891e-09
3.50702e-05 0.000141993 1.00488e-07
-5.63891e-09 1.00488e-07 0.000166372

0.000314787 -5.54453e-05 -4.09145e-07
-5.54453e-05 0.00048664 -6.15968e-07
-4.09145e-07 -6.15968e-07 0.000383093

0.000370623 4.11238e-05 -1.11206e-07
4.11238e-05 0.000457434 -2.66192e-07
-1.11206e-07 -2.66192e-07 0.000383004

0.000328386 5.25319e-05 1.33703e-07
5.25319e-05 0.000304679 -3.00942e-08
1.33703e-07 -3.00942e-08 0.000324161

0.000303723 4.80723e-05 9.77489e-08
4.80723e-05 0.000338986 1.02301e-07
9.77489e-08 1.02301e-07 0.000328658

0.000304251 -4.82451e-05 -5.2078e-08
-4.82451e-05 0.00032174 1.72228e-07
-5.2078e-08 1.72228e-07 0.000331446

0.000283192 4.88703e-05 -8.66363e-09
4.88703e-05 0.000308174 3.60496e-09
-8.66363e-09 3.60496e-09 0.000289136

0.000278555 -3.888e-05 2.2354e-07
-3.888e-05 0.000300823 -5.55832e-08
2.2354e-07 -5.55832e-08 0.00029179

0.000183051 -6.26639e-06 7.09512e-08
-6.26639e-06 0.000243437 1.02316e-08
7.09512e-08 1.02316e-08 0.000201538

0.00019151 -1.27409e-05 1.4309e-08
-1.27409e-05 0.000243732 2.3352e-07
1.4309e-08 2.3352e-07 0.000200704

0.000244696 -5.14861e-06 1.4105e-07
-5.14861e-06 0.000186529 1.47107e-07
1.4105e-07 1.47107e-07 0.000199163

0.000284244 5.61855e-05 -2.40116e-08
5.61855e-05 0.000327346 -1.88753e-08
-2.40116e-08 -1.88753e-08 0.00030591

0.000278837 -4.35596e-05 7.36836e-08
-4.35596e-05 0.000313765 1.61096e-07
7.36836e-08 1.61096e-07 0.000309013

0.000167728 8.8694e-06 1.3379e-07
8.8694e-06 0.000227549 7.94128e-08
1.3379e-07 7.94128e-08 0.000186204

0.000226143 1.3448e-05 1.94998e-07
1.3448e-05 0.000168269 1.00753e-07
1.94998e-07 1.00753e-07 0.000186206

0.000320048 -5.60838e-05 -4.76456e-08
-5.60838e-05 0.000336262 8.67322e-08
-4.76456e-08 8.67322e-08 0.000348879

0.000318095 4.62787e-05 -5.24091e-08
4.62787e-05 0.000361879 6.63523e-08
-5.24091e-08 6.63523e-08 0.000346172

0.00032206 -4.98151e-05 -6.10049e-08
-4.98151e-05 0.000355547 4.04115e-08
-6.10049e-08 4.04115e-08 0.000350735

0.000323209 3.70859e-05 -4.3222e-08
3.70859e-05 0.000364157 3.45053e-08
-4.3222e-08 3.45053e-08 0.000348828

0.000142028 -2.25057e-05 1.8449e-07
-2.25057e-05 0.000147295 9.92512e-08
1.8449e-07 9.92512e-08 0.000162462

0.000141853 -2.34126e-05 -5.80944e-08
-2.34126e-05 0.000146844 9.94456e-08
-5.80944e-08 9.94456e-08 0.00016339

0.00030295 4.41873e-05 -5.46721e-08
4.41873e-05 0.000333808 -7.08364e-09
-5.46721e-08 -7.08364e-09 0.000315546

0.000303038 -4.10733e-05 2.02341e-09
-4.10733e-05 0.000312074 1.33409e-07
2.02341e-09 1.33409e-07 0.000318304

0.000367926 1.06965e-05 4.54414e-09
1.06965e-05 0.000419379 1.10392e-07
4.54414e-09 1.10392e-07 0.000368413

0.000368021 -6.3607e-06 -7.78256e-08
-6.3607e-06 0.000377604 9.86401e-08
-7.78256e-08 9.86401e-08 0.000370651

0.000300422 -5.07431e-05 8.53274e-08
-5.07431e-05 0.000368665 -1.24101e-07
8.53274e-08 -1.24101e-07 0.000355234

0.000312084 4.80861e-05 -1.2395e-07
4.80861e-05 0.00038273 -4.71056e-08
-1.2395e-07 -4.71056e-08 0.000352552

0.000364652 -1.11676e-05 -4.93943e-08
-1.11676e-05 0.000334519 -8.15904e-08
-4.93943e-08 -8.15904e-08 0.000361807

0.000381017 1.53696e-06 -1.92608e-07
1.53696e-06 0.000324339 -5.1644e-08
-1.92608e-07 -5.1644e-08 0.000361282

0.000317205 4.68439e-05 6.17497e-08
4.68439e-05 0.000327247 -1.75276e-07
6.17497e-08 -1.75276e-07 0.000335868

0.000312786 -4.66543e-05 -1.41463e-07
-4.66543e-05 0.000340628 -2.96627e-08
-1.41463e-07 -2.96627e-08 0.000332322

0.000407573 1.41913e-05 1.63113e-07
1.41913e-05 0.000356307 -2.67815e-08
1.63113e-07 -2.67815e-08 0.000372157

0.000404125 4.33383e-06 -3.49735e-07
4.33383e-06 0.000377504 4.47807e-07
-3.49735e-07 4.47807e-07 0.000378902

0.000385147 -1.26531e-05 -1.58374e-07
-1.26531e-05 0.000372218 2.54221e-08
-1.58374e-07 2.54221e-08 0.000372552

0.000359063 -9.37881e-07 -2.11205e-07
-9.37881e-07 0.000416238 -2.34663e-08
-2.11205e-07 -2.34663e-08 0.000379141

0.000349674 7.95262e-06 -5.14917e-08
7.95262e-06 0.00045913 -8.30465e-08
-5.14917e-08 -8.30465e-08 0.000370508

0.000425028 4.72706e-05 9.3952e-08
4.72706e-05 0.000392603 6.95821e-08
9.3952e-08 6.95821e-08 0.000370206

0.000397254 -1.84829e-05 -1.311e-08
-1.84829e-05 0.000372292 -3.26796e-10
-1.311e-08 -3.26796e-10 0.000373032

0.000351641 -1.09212e-05 1.67282e-07
-1.09212e-05 0.000417636 -2.25448e-07
1.67282e-07 -2.25448e-07 0.000372619

0.000370442 2.84959e-05 3.60432e-07
2.84959e-05 0.000406028 5.63558e-07
3.60432e-07 5.63558e-07 0.000376339

0.000552617 2.94804e-05 1.10629e-06
2.94804e-05 0.000323249 -6.12199e-07
1.10629e-06 -6.12199e-07 0.000383952

0.000495841 -2.13392e-05 1.78582e-08
-2.13392e-05 0.000478042 9.78232e-09
1.78582e-08 9.78232e-09 0.000383114

0.000387449 -6.12742e-05 8.46425e-07
-6.12742e-05 0.000434796 -1.40728e-06
8.46425e-07 -1.40728e-06 0.000376397

0.000388471 3.53452e-05 -3.75455e-08
3.53452e-05 0.000385368 -3.9691e-08
-3.75455e-08 -3.9691e-08 0.000373083

0.000349751 2.58429e-05 -6.53757e-08
2.58429e-05 0.000389763 -5.81198e-08
-6.53757e-08 -5.81198e-08 0.000363987

0.000400462 7.16777e-06 -4.51594e-08
7.16777e-06 0.000389194 -4.43469e-09
-4.51594e-08 -4.43469e-09 0.000381004

0.000405866 -5.92275e-05 -1.64833e-07
-5.92275e-05 0.000386276 1.25574e-07
-1.64833e-07 1.25574e-07 0.000373606

0.000398768 -6.8173e-05 -2.16558e-07
-6.8173e-05 0.000455647 -1.13948e-07
-2.16558e-07 -1.13948e-07 0.000380533

0.000354439 -3.26095e-05 1.84151e-07
-3.26095e-05 0.000373574 -1.05521e-07
1.84151e-07 -1.05521e-07 0.000365458

0.000357939 -5.47229e-05 1.69368e-07
-5.47229e-05 0.000389924 7.56257e-08
1.69368e-07 7.56257e-08 0.000368093

0.000366396 -3.68716e-05 -1.2114e-07
-3.68716e-05 0.000400223 -1.48473e-08
-1.2114e-07 -1.48473e-08 0.000374835

0.000349359 2.31628e-05 -7.68935e-08
2.31628e-05 0.000382889 -1.99247e-07
-7.68935e-08 -1.99247e-07 0.000367303

0.000387364 1.37429e-05 -2.87685e-08
1.37429e-05 0.000385071 -2.14236e-07
-2.87685e-08 -2.14236e-07 0.000374595

0.000263357 3.91365e-05 -9.83942e-08
3.91365e-05 0.000300557 -6.16438e-08
-9.83942e-08 -6.16438e-08 0.000275953

0.000301705 1.98673e-05 -5.87924e-09
1.98673e-05 0.000353444 1.06169e-07
-5.87924e-09 1.06169e-07 0.000327401

0.00029143 1.71184e-05 -3.88546e-09
1.71184e-05 0.000350092 2.28869e-09
-3.88546e-09 2.28869e-09 0.000328941

0.000338115 2.24609e-05 -8.85044e-08
2.24609e-05 0.000242283 -9.2838e-08
-8.85044e-08 -9.2838e-08 0.000295754

0.000322885 7.2065e-06 1.00568e-07
7.2065e-06 0.000230105 1.1223e-08
1.00568e-07 1.1223e-08 0.000274484

0.000302967 1.20066e-05 1.03113e-08
1.20066e-05 0.0003656 -8.21486e-08
1.03113e-08 -8.21486e-08 0.000347505

0.000289432 2.76988e-05 -4.65769e-09
2.76988e-05 0.000374257 1.12699e-08
-4.65769e-09 1.12699e-08 0.000349052

0.000327209 -8.67408e-06 9.17592e-08
-8.67408e-06 0.000235396 7.44109e-08
9.17592e-08 7.44109e-08 0.000276563

0.000358485 -1.81821e-05 2.57503e-09
-1.81821e-05 0.000275572 1.09861e-07
2.57503e-09 1.09861e-07 0.000335393

0.00021265 3.59431e-05 8.86266e-08
3.59431e-05 0.000249316 5.91974e-08
8.86266e-08 5.91974e-08 0.000220212

0.000209689 -3.5897e-05 -1.57045e-07
-3.5897e-05 0.000244796 3.79783e-08
-1.57045e-07 3.79783e-08 0.000216323

0.000258796 -3.2853e-05 1.26248e-07
-3.2853e-05 0.000199157 -7.10526e-08
1.26248e-07 -7.10526e-08 0.000215301

0.000326917 -3.36754e-05 -8.81988e-10
-3.36754e-05 0.000369474 2.27237e-09
-8.81988e-10 2.27237e-09 0.000355487

0.000342756 -2.34684e-05 -1.30033e-07
-2.34684e-05 0.000368268 9.25211e-08
-1.30033e-07 9.25211e-08 0.00035364

0.000263285 3.34009e-05 -9.87147e-08
3.34009e-05 0.000313381 -1.12417e-07
-9.87147e-08 -1.12417e-07 0.000297659

0.000274759 4.04787e-05 3.70758e-08
4.04787e-05 0.000339627 4.90096e-08
3.70758e-08 4.90096e-08 0.000328004

0.000290678 -2.63574e-05 1.22012e-10
-2.63574e-05 0.000373969 1.662e-09
1.22012e-10 1.662e-09 0.000347491

0.00029903 -7.83334e-06 4.52108e-08
-7.83334e-06 0.000365488 -1.45781e-08
4.52108e-08 -1.45781e-08 0.000346784

0.000351544 1.0365e-05 2.73039e-08
1.0365e-05 0.000243194 -3.14209e-08
2.73039e-08 -3.14209e-08 0.000298395

0.000226655 1.30392e-05 5.14392e-08
1.30392e-05 0.000285463 1.3139e-07
5.14392e-08 1.3139e-07 0.000237536

0.000225521 -1.07302e-05 -1.3421e-07
-1.07302e-05 0.000283075 8.18282e-08
-1.3421e-07 8.18282e-08 0.000236909

0.000294456 -8.98683e-06 2.28089e-08
-8.98683e-06 0.000215107 -1.37693e-07
2.28089e-08 -1.37693e-07 0.000231607

0.000267612 4.50793e-05 1.1467e-08
4.50793e-05 0.000282222 -1.83071e-07
1.1467e-08 -1.83071e-07 0.00027433

0.000308322 -2.96034e-05 -4.40563e-09
-2.96034e-05 0.00022064 3.21182e-08
-4.40563e-09 3.21182e-08 0.000257983

0.000304438 4.77352e-05 9.64743e-09
4.77352e-05 0.000282399 -1.83169e-07
9.64743e-09 -1.83169e-07 0.000293974

0.000259262 3.83159e-05 3.04393e-08
3.83159e-05 0.000310507 3.48598e-08
3.04393e-08 3.48598e-08 0.000275753

0.000339492 -1.89636e-05 1.82656e-09
-1.89636e-05 0.000241652 1.10295e-07
1.82656e-09 1.10295e-07 0.000299468

0.000206033 2.49564e-05 -1.05117e-08
2.49564e-05 0.000231318 -1.24482e-07
-1.05117e-08 -1.24482e-07 0.000196142

0.000359908 2.34591e-05 -5.90451e-08
2.34591e-05 0.000264055 -3.96732e-08
-5.90451e-08 -3.96732e-08 0.000327689

0.000238066 -2.20556e-05 3.44446e-08
-2.20556e-05 0.00019358 -1.88816e-08
3.44446e-08 -1.88816e-08 0.000193435

0.000342909 -8.46414e-06 -7.75007e-08
-8.46414e-06 0.000375479 -4.80163e-08
-7.75007e-08 -4.80163e-08 0.000356046

0.000341635 1.45029e-05 5.14947e-08
1.45029e-05 0.000376628 -1.05568e-08
5.14947e-08 -1.05568e-08 0.000356266

0.000463843 -4.43347e-05 2.14596e-08
-4.43347e-05 0.000383769 -6.05011e-08
2.14596e-08 -6.05011e-08 0.000373192

0.000461879 4.6518e-05 -8.83364e-08
4.6518e-05 0.000383402 1.40675e-07
-8.83364e-08 1.40675e-07 0.000373373

0.000289747 -1.16879e-05 -3.49478e-08
-1.16879e-05 0.000206947 4.8156e-08
-3.49478e-08 4.8156e-08 0.000231369

0.000301607 5.25072e-05 1.3208e-07
5.25072e-05 0.000297652 -3.83296e-08
1.3208e-07 -3.83296e-08 0.000310888

0.000391476 -2.67518e-05 -8.13535e-08
-2.67518e-05 0.000338306 8.74815e-08
-8.13535e-08 8.74815e-08 0.000355106

0.00038813 2.6664e-05 -3.38915e-08
2.6664e-05 0.000335928 3.05326e-08
-3.38915e-08 3.05326e-08 0.000353163

0.000359192 9.34535e-06 4.02051e-09
9.34535e-06 0.000265303 -4.24583e-08
4.02051e-09 -4.24583e-08 0.00033669

0.000253575 4.30505e-05 1.67324e-09
4.30505e-05 0.00030799 7.32072e-08
1.67324e-09 7.32072e-08 0.000272422

0.00030545 -3.7511e-05 -5.47553e-09
-3.7511e-05 0.000242455 2.50049e-08
-5.47553e-09 2.50049e-08 0.000265036

0.000356756 -2.63137e-06 1.20541e-08
-2.63137e-06 0.000251211 -5.28664e-08
1.20541e-08 -5.28664e-08 0.000330123

0.000264261 -4.54132e-05 -1.9407e-09
-4.54132e-05 0.000281864 -1.14238e-08
-1.9407e-09 -1.14238e-08 0.00027256

0.000263184 -3.71907e-05 -1.62673e-08
-3.71907e-05 0.000300765 -2.68072e-08
-1.62673e-08 -2.68072e-08 0.000276138

0.00028247 4.26994e-05 4.56589e-08
4.26994e-05 0.000351344 3.16663e-08
4.56589e-08 3.16663e-08 0.000324583

0.000278725 -5.20514e-05 -2.49371e-07
-5.20514e-05 0.000240146 3.97023e-09
-2.49371e-07 3.97023e-09 0.000249069

0.000170895 -3.94004e-05 1.70757e-07
-3.94004e-05 0.000148524 1.04206e-08
1.70757e-07 1.04206e-08 0.000160828

0.000166115 5.49967e-05 -9.19623e-08
5.49967e-05 0.000158785 1.60144e-07
-9.19623e-08 1.60144e-07 0.0001608

0.000281744 -5.07795e-05 4.5976e-08
-5.07795e-05 0.000362998 2.00118e-08
4.5976e-08 2.00118e-08 0.000347576

0.000171706 7.39483e-06 -7.91351e-08
7.39483e-06 0.000147587 -5.97545e-08
-7.91351e-08 -5.97545e-08 0.00016919

0.000158683 -1.3081e-05 -1.00971e-07
-1.3081e-05 0.000151093 -2.69263e-09
-1.00971e-07 -2.69263e-09 0.000170147

0.000349668 -1.16292e-05 4.45907e-08
-1.16292e-05 0.000364234 -9.4227e-08
4.45907e-08 -9.4227e-08 0.000358319

0.000350722 1.25715e-05 8.66284e-08
1.25715e-05 0.000363083 -2.28435e-07
8.66284e-08 -2.28435e-07 0.00035845

0.000378276 -7.97315e-07 5.29113e-08
-7.97315e-07 0.000247768 -4.06478e-08
5.29113e-08 -4.06478e-08 0.000313048

0.000351387 -6.83137e-06 6.18289e-08
-6.83137e-06 0.000346638 2.70874e-08
6.18289e-08 2.70874e-08 0.00035809

0.000352557 7.26408e-06 -2.8867e-09
7.26408e-06 0.000346908 4.01531e-07
-2.8867e-09 4.01531e-07 0.000358219

0.000259324 3.9511e-05 2.35397e-08
3.9511e-05 0.000330688 -5.15949e-08
2.35397e-08 -5.15949e-08 0.00029617

0.000422377 -4.20553e-05 4.72744e-08
-4.20553e-05 0.000376357 -8.31214e-09
4.72744e-08 -8.31214e-09 0.000368914

0.000422565 4.23734e-05 1.06379e-07
4.23734e-05 0.000376039 -1.34004e-09
1.06379e-07 -1.34004e-09 0.000369243

0.000328908 -2.08924e-05 -6.4039e-08
-2.08924e-05 0.000324422 3.90134e-08
-6.4039e-08 3.90134e-08 0.000335807

0.000329024 2.12893e-05 -3.30495e-08
2.12893e-05 0.000324387 1.61075e-07
-3.30495e-08 1.61075e-07 0.000336019

0.00025568 -3.58784e-05 -3.39289e-08
-3.58784e-05 0.000191644 4.86393e-08
-3.39289e-08 4.86393e-08 0.000213049

0.000333866 2.10971e-05 -1.84716e-08
2.10971e-05 0.000434305 -2.07676e-08
-1.84716e-08 -2.07676e-08 0.000371564

0.00036199 -3.9407e-06 -4.77681e-08
-3.9407e-06 0.000399129 -4.85625e-09
-4.77681e-08 -4.85625e-09 0.00036998

0.000254509 -4.36848e-05 -3.40006e-08
-4.36848e-05 0.000309012 9.92967e-08
-3.40006e-08 9.92967e-08 0.000273351

0.000186832 -1.12778e-05 -4.78083e-08
-1.12778e-05 0.000220747 -1.15566e-07
-4.78083e-08 -1.15566e-07 0.000192044

0.000229812 -1.13993e-05 6.03401e-08
-1.13993e-05 0.000170563 -1.38135e-08
6.03401e-08 -1.38135e-08 0.000191162

0.000271593 3.42738e-05 8.61319e-08
3.42738e-05 0.000348254 4.02687e-08
8.61319e-08 4.02687e-08 0.000317856

0.00026979 3.40758e-05 -4.29621e-08
3.40758e-05 0.000336902 3.02756e-08
-4.29621e-08 3.02756e-08 0.000320315

0.000442796 -3.30786e-05 8.75589e-09
-3.30786e-05 0.000360369 -4.16959e-07
8.75589e-09 -4.16959e-07 0.000382608

0.000441823 3.10583e-05 -2.90493e-08
3.10583e-05 0.000369352 -1.72362e-08
-2.90493e-08 -1.72362e-08 0.000383038

0.000281837 4.45171e-05 -2.05862e-08
4.45171e-05 0.000330322 -5.7742e-08
-2.05862e-08 -5.7742e-08 0.000338482

0.000342219 1.33161e-05 2.56684e-08
1.33161e-05 0.000275535 -4.31844e-08
2.56684e-08 -4.31844e-08 0.000318832

0.000342629 -1.42952e-05 -3.95575e-08
-1.42952e-05 0.000274294 -2.26257e-08
-3.95575e-08 -2.26257e-08 0.000317867

0.000306993 5.98792e-05 8.93047e-08
5.98792e-05 0.000317853 -2.28823e-08
8.93047e-08 -2.28823e-08 0.000333567

0.000300738 -4.01411e-05 -9.6149e-08
-4.01411e-05 0.000361654 1.0575e-07
-9.6149e-08 1.0575e-07 0.000344105

0.000286759 -4.85685e-07 -2.74793e-08
-4.85685e-07 0.000195234 -3.61257e-09
-2.74793e-08 -3.61257e-09 0.000228815

0.000340793 1.0118e-06 2.629e-08
1.0118e-06 0.000236254 -3.19637e-08
2.629e-08 -3.19637e-08 0.000276349

0.000307105 2.64452e-05 2.60777e-08
2.64452e-05 0.00022124 3.04119e-08
2.60777e-08 3.04119e-08 0.000253351

0.000381502 4.50255e-05 -3.57315e-08
4.50255e-05 0.000302888 3.86479e-08
-3.57315e-08 3.86479e-08 0.000347559

0.000463384 -5.66641e-06 1.24967e-08
-5.66641e-06 0.000431498 9.38956e-08
1.24967e-08 9.38956e-08 0.000376077

0.000461877 6.37811e-06 -2.01725e-08
6.37811e-06 0.000434924 -8.12975e-08
-2.01725e-08 -8.12975e-08 0.000375829

0.000252886 3.90293e-05 -1.26577e-07
3.90293e-05 0.000248695 7.41014e-08
-1.26577e-07 7.41014e-08 0.000231771

0.00030742 -4.97809e-05 7.83801e-08
-4.97809e-05 0.000264692 -5.75014e-08
7.83801e-08 -5.75014e-08 0.000288804

0.000349611 -1.241e-05 1.42586e-08
-1.241e-05 0.00026673 -6.5961e-08
1.42586e-08 -6.5961e-08 0.000300794

0.000360308 4.83194e-05 -2.79087e-07
4.83194e-05 0.000445984 -8.41624e-08
-2.79087e-07 -8.41624e-08 0.000376166

0.00037808 -1.22821e-05 -3.23593e-07
-1.22821e-05 0.000394118 -7.19507e-08
-3.23593e-07 -7.19507e-08 0.000375462

0.000385341 -4.3626e-05 -1.14368e-07
-4.3626e-05 0.000310339 -6.05966e-08
-1.14368e-07 -6.05966e-08 0.000350287

0.000292333 -1.28471e-05 1.22908e-09
-1.28471e-05 0.000352119 2.05892e-08
1.22908e-09 2.05892e-08 0.000327931

0.000298283 -1.31727e-05 4.0605e-08
-1.31727e-05 0.000354123 -7.50714e-08
4.0605e-08 -7.50714e-08 0.000327081

0.000382435 -3.26054e-06 2.64702e-08
-3.26054e-06 0.000251327 5.49375e-08
2.64702e-08 5.49375e-08 0.000326402

0.000383715 3.16025e-06 1.1508e-07
3.16025e-06 0.000250595 -1.53967e-09
1.1508e-07 -1.53967e-09 0.000327395

0.000262391 3.315e-05 8.36419e-09
3.315e-05 0.000241082 9.56612e-08
8.36419e-09 9.56612e-08 0.000227819

0.00037813 -2.87168e-06 -5.32594e-09
-2.87168e-06 0.000284489 3.75326e-09
-5.32594e-09 3.75326e-09 0.000342637

0.0003781 2.47794e-06 1.10068e-07
2.47794e-06 0.000285111 -6.33082e-08
1.10068e-07 -6.33082e-08 0.000342858

0.000351109 1.21486e-05 2.80746e-08
1.21486e-05 0.000266255 -4.10208e-08
2.80746e-08 -4.10208e-08 0.000301206

0.000260365 -3.85882e-05 -5.80204e-08
-3.85882e-05 0.000312427 6.83696e-08
-5.80204e-08 6.83696e-08 0.000277006

0.00038217 -1.4576e-06 1.28996e-08
-1.4576e-06 0.000277102 -1.53242e-08
1.28996e-08 -1.53242e-08 0.000329286

0.000383486 1.39988e-06 1.23705e-07
1.39988e-06 0.000276775 -4.88533e-08
1.23705e-07 -4.88533e-08 0.000330368

0.00034418 -2.971e-05 7.24341e-08
-2.971e-05 0.000266242 -4.45949e-08
7.24341e-08 -4.45949e-08 0.000307684

0.000292146 5.48307e-05 -1.01904e-07
5.48307e-05 0.000348006 -4.92273e-08
-1.01904e-07 -4.92273e-08 0.0003301

0.000295688 4.18645e-05 1.42494e-07
4.18645e-05 0.0002549 1.7647e-07
1.42494e-07 1.7647e-07 0.000265005

0.000297125 4.47899e-05 9.78782e-08
4.47899e-05 0.000323032 4.73464e-09
9.78782e-08 4.73464e-09 0.000339394

0.000293598 5.47492e-05 1.40768e-08
5.47492e-05 0.000357248 -2.78399e-08
1.40768e-08 -2.78399e-08 0.000334128

0.000313689 -2.10844e-05 -1.31155e-07
-2.10844e-05 0.000222187 -6.63993e-08
-1.31155e-07 -6.63993e-08 0.000257463

0.000344701 -4.88016e-05 1.73462e-08
-4.88016e-05 0.0002846 -1.2766e-08
1.73462e-08 -1.2766e-08 0.000322843

0.000340169 2.95707e-05 -5.04948e-08
2.95707e-05 0.000265282 5.08035e-09
-5.04948e-08 5.08035e-09 0.000302024

0.000268032 4.8706e-05 3.09793e-08
4.8706e-05 0.000253693 2.18835e-07
3.09793e-08 2.18835e-07 0.000254844

0.000304219 4.99503e-05 -8.39382e-09
4.99503e-05 0.000262346 5.75822e-08
-8.39382e-09 5.75822e-08 0.000286463

0.000261875 4.81638e-06 -5.63218e-08
4.81638e-06 0.000345258 -2.47015e-08
-5.63218e-08 -2.47015e-08 0.000316453

0.000262841 1.66413e-06 -8.50417e-08
1.66413e-06 0.000345001 6.54207e-08
-8.50417e-08 6.54207e-08 0.000316382

0.000262619 3.51643e-05 -2.51047e-09
3.51643e-05 0.000202797 -1.71348e-07
-2.51047e-09 -1.71348e-07 0.000218729

0.000307199 -6.03715e-05 4.55248e-08
-6.03715e-05 0.000318747 -9.19578e-08
4.55248e-08 -9.19578e-08 0.000334491

0.000256419 -4.74231e-05 -1.34553e-08
-4.74231e-05 0.00028013 -3.0324e-08
-1.34553e-08 -3.0324e-08 0.000254006

0.000255283 4.8564e-05 -9.08312e-09
4.8564e-05 0.000281958 -1.5999e-08
-9.08312e-09 -1.5999e-08 0.000253413

0.000338502 -3.59672e-05 6.62474e-08
-3.59672e-05 0.000266112 -5.81668e-08
6.62474e-08 -5.81668e-08 0.000304504

0.000385541 -2.34103e-05 5.8937e-08
-2.34103e-05 0.000259704 5.44551e-08
5.8937e-08 5.44551e-08 0.000348425

0.000384131 2.39098e-05 7.16491e-08
2.39098e-05 0.000263085 4.1385e-08
7.16491e-08 4.1385e-08 0.000347101

0.000236082 2.63168e-05 -1.3514e-08
2.63168e-05 0.000294586 -2.5552e-08
-1.3514e-08 -2.5552e-08 0.000261387

0.00030646 -5.01536e-05 8.56725e-08
-5.01536e-05 0.000282375 -2.32545e-08
8.56725e-08 -2.32545e-08 0.000293538

0.000196334 -2.15598e-06 -4.9214e-08
-2.15598e-06 0.000278796 9.8744e-08
-4.9214e-08 9.8744e-08 0.000227278

0.000196207 8.17871e-07 2.01155e-07
8.17871e-07 0.000278838 -1.5678e-08
2.01155e-07 -1.5678e-08 0.000227054

0.000289767 2.68538e-06 -6.94339e-08
2.68538e-06 0.000186768 1.27821e-07
-6.94339e-08 1.27821e-07 0.000222683

0.000258402 -3.489e-05 1.23842e-07
-3.489e-05 0.000243078 -5.51947e-08
1.23842e-07 -5.51947e-08 0.000226463

0.000276183 4.21856e-05 -7.14227e-08
4.21856e-05 0.000245861 2.04402e-08
-7.14227e-08 2.04402e-08 0.000252738

0.000402056 -8.63869e-05 -1.46841e-07
-8.63869e-05 0.000438707 -1.28002e-07
-1.46841e-07 -1.28002e-07 0.000380807

0.000421897 3.74089e-05 1.43305e-07
3.74089e-05 0.000446711 -2.18109e-07
1.43305e-07 -2.18109e-07 0.000381364

0.000315642 1.94328e-05 -2.24246e-08
1.94328e-05 0.000223436 -4.25839e-09
-2.24246e-08 -4.25839e-09 0.000259276

0.00027749 5.26649e-05 6.14144e-08
5.26649e-05 0.000340054 -2.06227e-08
6.14144e-08 -2.06227e-08 0.000310758

0.000378062 1.00357e-06 4.81525e-08
1.00357e-06 0.00024743 3.90899e-08
4.81525e-08 3.90899e-08 0.000312193

0.000235709 -2.55843e-05 -9.83877e-08
-2.55843e-05 0.000296337 -2.92187e-09
-9.83877e-08 -2.92187e-09 0.00026242

0.000266981 5.23209e-05 -4.51712e-08
5.23209e-05 0.000366317 -4.43844e-09
-4.51712e-08 -4.43844e-09 0.000349036

0.000303209 4.28448e-05 5.11684e-08
4.28448e-05 0.000363686 -1.08261e-07
5.11684e-08 -1.08261e-07 0.000345028

0.000292307 -5.47692e-05 1.21895e-07
-5.47692e-05 0.000348049 -8.2853e-08
1.21895e-07 -8.2853e-08 0.000330223

0.000291293 5.52675e-05 -8.89269e-08
5.52675e-05 0.000362137 -2.63098e-09
-8.89269e-08 -2.63098e-09 0.000335316

0.000275783 4.17068e-05 4.26761e-08
4.17068e-05 0.000317503 2.88373e-08
4.26761e-08 2.88373e-08 0.000314644

0.000403121 4.66555e-07 -1.52258e-08
4.66555e-07 0.000245663 7.69429e-08
-1.52258e-08 7.69429e-08 0.000333523

0.000277054 -4.19894e-05 -1.43952e-07
-4.19894e-05 0.000243574 1.38831e-07
-1.43952e-07 1.38831e-07 0.000250695

0.000295976 -4.42691e-05 1.71403e-09
-4.42691e-05 0.000323002 3.92951e-08
1.71403e-09 3.92951e-08 0.000339932

0.000275521 -3.55426e-05 -1.15411e-07
-3.55426e-05 0.000278694 -1.63039e-07
-1.15411e-07 -1.63039e-07 0.000261878

0.000242091 -3.46982e-05 2.0938e-07
-3.46982e-05 0.000244814 6.19887e-08
2.0938e-07 6.19887e-08 0.000226485

0.000300237 -5.13313e-05 5.3935e-08
-5.13313e-05 0.00029939 2.35642e-08
5.3935e-08 2.35642e-08 0.000311638

0.000228486 -2.15595e-05 1.58596e-07
-2.15595e-05 0.000290468 -1.9602e-08
1.58596e-07 -1.9602e-08 0.000241629

0.000227885 2.02097e-05 3.79182e-08
2.02097e-05 0.00029053 -1.03362e-07
3.79182e-08 -1.03362e-07 0.000241235

0.000290808 1.22459e-05 -1.56484e-07
1.22459e-05 0.000221416 -4.96144e-08
-1.56484e-07 -4.96144e-08 0.000235962

0.000275483 3.76365e-05 -6.91231e-08
3.76365e-05 0.000278626 5.70962e-08
-6.91231e-08 5.70962e-08 0.000261733

0.000262372 6.7462e-06 -8.40834e-08
6.7462e-06 0.000330184 4.62193e-08
-8.40834e-08 4.62193e-08 0.000289385

0.000262526 -1.33074e-06 -5.3434e-08
-1.33074e-06 0.000329768 -8.26651e-08
-5.3434e-08 -8.26651e-08 0.000289226

0.000224586 -4.07158e-05 7.89098e-08
-4.07158e-05 0.00024516 -7.65072e-08
7.89098e-08 -7.65072e-08 0.000219265

0.000225131 4.04649e-05 -7.57931e-09
4.04649e-05 0.000243984 1.0423e-07
-7.57931e-09 1.0423e-07 0.000218486

0.000404073 3.47254e-06 -3.48526e-08
3.47254e-06 0.000252979 4.46323e-08
-3.48526e-08 4.46323e-08 0.000334008

0.000405219 -3.29897e-06 2.34512e-08
-3.29897e-06 0.000252307 1.65468e-08
2.34512e-08 1.65468e-08 0.000334437

0.00028293 4.80462e-05 -1.14091e-08
4.80462e-05 0.000343054 1.12346e-08
-1.14091e-08 1.12346e-08 0.00031502

0.000262692 -4.70243e-05 -1.30271e-08
-4.70243e-05 0.000362746 4.10901e-08
-1.30271e-08 4.10901e-08 0.000348354

0.000332306 5.31472e-05 1.70394e-09
5.31472e-05 0.000297575 -4.81303e-08
1.70394e-09 -4.81303e-08 0.000322792

0.000251412 2.4524e-05 4.30392e-09
2.4524e-05 0.000186004 3.98635e-08
4.30392e-09 3.98635e-08 0.00020607

0.000234209 3.20141e-05 9.42513e-08
3.20141e-05 0.000309971 3.78556e-08
9.42513e-08 3.78556e-08 0.000262894

0.000356739 3.19147e-06 -1.60771e-07
3.19147e-06 0.000325178 1.63915e-07
-1.60771e-07 1.63915e-07 0.000346994

0.000355294 -2.72578e-06 5.15926e-08
-2.72578e-06 0.000325483 4.24646e-08
5.15926e-08 4.24646e-08 0.000346834

0.000311037 3.06811e-05 -6.77775e-08
3.06811e-05 0.000290711 1.82528e-08
-6.77775e-08 1.82528e-08 0.000293053

0.000341514 -1.92272e-05 -3.66446e-08
-1.92272e-05 0.000307567 1.07504e-08
-3.66446e-08 1.07504e-08 0.000321199

0.000340911 1.94783e-05 4.60578e-09
1.94783e-05 0.000307746 2.00255e-07
4.60578e-09 2.00255e-07 0.000321375

0.000161245 -1.91428e-05 1.15297e-07
-1.91428e-05 0.000117659 6.58831e-08
1.15297e-07 6.58831e-08 0.000170046

0.000106803 2.4374e-05 -1.80204e-07
2.4374e-05 0.000151998 8.01681e-08
-1.80204e-07 8.01681e-08 0.000168961

0.000232671 -3.12025e-05 1.38344e-07
-3.12025e-05 0.000310884 4.0374e-08
1.38344e-07 4.0374e-08 0.000263665

0.000390612 -7.04499e-06 -1.44131e-08
-7.04499e-06 0.000367796 1.45777e-07
-1.44131e-08 1.45777e-07 0.000372674

0.000390386 8.15269e-06 -3.04411e-07
8.15269e-06 0.000368668 -2.98624e-07
-3.04411e-07 -2.98624e-07 0.000372737

0.000253863 2.15293e-05 2.68916e-08
2.15293e-05 0.000183161 -2.45374e-08
2.68916e-08 -2.45374e-08 0.000205914

0.000267895 -2.61208e-05 -4.91423e-08
-2.61208e-05 0.00034495 -4.71193e-09
-4.91423e-08 -4.71193e-09 0.000320394

0.000273222 -2.54612e-05 4.26293e-08
-2.54612e-05 0.000348097 -7.40863e-08
4.26293e-08 -7.40863e-08 0.000318539

0.000266172 -5.17222e-05 -3.34384e-08
-5.17222e-05 0.000256777 2.4692e-07
-3.34384e-08 2.4692e-07 0.000251858

0.000291327 -5.56954e-05 6.82658e-08
-5.56954e-05 0.000361937 7.45792e-08
6.82658e-08 7.45792e-08 0.000335109

0.000263305 6.65328e-05 1.27417e-07
6.65328e-05 0.00033571 -4.04792e-08
1.27417e-07 -4.04792e-08 0.000339046

0.000342844 2.98409e-05 -1.38439e-08
2.98409e-05 0.000365218 -1.04011e-07
-1.38439e-08 -1.04011e-07 0.000354282

0.000327835 4.13404e-05 -2.35747e-08
4.13404e-05 0.000367493 -5.85072e-09
-2.35747e-08 -5.85072e-09 0.000356735

0.000282565 -4.85035e-05 -4.83014e-08
-4.85035e-05 0.000344044 1.79905e-08
-4.83014e-08 1.79905e-08 0.00031564

0.000301836 5.09309e-05 1.26456e-07
5.09309e-05 0.000308486 9.76175e-10
1.26456e-07 9.76175e-10 0.000318706

0.000310224 -3.13928e-05 1.11293e-07
-3.13928e-05 0.000291224 -6.88904e-08
1.11293e-07 -6.88904e-08 0.000293264

0.000295339 3.69783e-05 8.09449e-08
3.69783e-05 0.000221526 -6.8566e-08
8.09449e-08 -6.8566e-08 0.000250546

0.000340413 -9.92584e-07 3.14794e-08
-9.92584e-07 0.000236175 2.26089e-08
3.14794e-08 2.26089e-08 0.000276813

0.000289299 5.81984e-05 -6.93105e-08
5.81984e-05 0.00035791 -3.54122e-08
-6.93105e-08 -3.54122e-08 0.000334371

0.000262775 -3.48834e-05 -2.06496e-08
-3.48834e-05 0.000314903 3.36671e-08
-2.06496e-08 3.36671e-08 0.000299115

0.000242376 1.28755e-05 2.09644e-08
1.28755e-05 0.000320285 -1.23018e-07
2.09644e-08 -1.23018e-07 0.000281161

0.000304942 3.56346e-05 1.23055e-07
3.56346e-05 0.000303814 1.83061e-07
1.23055e-07 1.83061e-07 0.000309956

0.000244852 1.58703e-05 1.32737e-07
1.58703e-05 0.000325476 -5.58792e-08
1.32737e-07 -5.58792e-08 0.000282005

0.000304386 -4.47081e-05 -4.6898e-08
-4.47081e-05 0.000364407 8.84905e-08
-4.6898e-08 8.84905e-08 0.000343594

0.000185094 -2.52683e-05 -3.2703e-08
-2.52683e-05 0.000189908 1.09753e-07
-3.2703e-08 1.09753e-07 0.000177752

0.000206152 -2.52722e-05 -1.77007e-07
-2.52722e-05 0.000168057 -3.72164e-08
-1.77007e-07 -3.72164e-08 0.000177354

0.000349964 -9.87257e-06 1.95586e-08
-9.87257e-06 0.000243306 2.96032e-08
1.95586e-08 2.96032e-08 0.000298004

0.000304303 -3.60501e-05 1.00598e-08
-3.60501e-05 0.000303484 1.74967e-08
1.00598e-08 1.74967e-08 0.000309861

0.000453944 -4.84178e-05 -1.27017e-07
-4.84178e-05 0.000369627 -9.0186e-08
-1.27017e-07 -9.0186e-08 0.000381226

0.000453944 4.61736e-05 1.9512e-07
4.61736e-05 0.000371902 5.22283e-07
1.9512e-07 5.22283e-07 0.000381438

0.000278711 -5.19217e-05 -9.1565e-08
-5.19217e-05 0.000341625 -3.13589e-09
-9.1565e-08 -3.13589e-09 0.000312512

0.000387328 -4.37734e-05 4.13621e-08
-4.37734e-05 0.000386892 -6.46703e-08
4.13621e-08 -6.46703e-08 0.000366118

0.000386998 4.58941e-05 8.24463e-08
4.58941e-05 0.00038694 1.79244e-07
8.24463e-08 1.79244e-07 0.000365992

0.000344624 1.03172e-05 -9.92014e-08
1.03172e-05 0.000254214 -8.66141e-08
-9.92014e-08 -8.66141e-08 0.000312275

0.000260636 -6.63684e-05 1.62164e-08
-6.63684e-05 0.000334285 6.05865e-08
1.62164e-08 6.05865e-08 0.00033906

0.000197152 -3.00988e-05 -7.55267e-08
-3.00988e-05 0.000193697 -6.29114e-08
-7.55267e-08 -6.29114e-08 0.000185038

0.000207744 3.00019e-05 -6.50822e-08
3.00019e-05 0.000186611 3.6622e-08
-6.50822e-08 3.6622e-08 0.000187606

0.000195528 -2.23239e-05 -8.80055e-08
-2.23239e-05 0.00023672 8.45377e-08
-8.80055e-08 8.45377e-08 0.000199705

0.00018847 2.0531e-05 -1.0696e-07
2.0531e-05 0.000237099 1.75548e-08
-1.0696e-07 1.75548e-08 0.00019822

0.000243125 1.29602e-05 1.31142e-07
1.29602e-05 0.00017854 -4.9886e-08
1.31142e-07 -4.9886e-08 0.000196444

0.000289299 -5.83857e-05 3.2011e-08
-5.83857e-05 0.000358559 1.53633e-08
3.2011e-08 1.53633e-08 0.000333969

0.000166187 6.26448e-06 9.37812e-08
6.26448e-06 0.000223637 -9.27876e-08
9.37812e-08 -9.27876e-08 0.000187901

0.000232305 -7.22462e-06 1.86428e-08
-7.22462e-06 0.000159855 3.5692e-08
1.86428e-08 3.5692e-08 0.000185748

0.000333326 -1.80051e-05 3.25531e-08
-1.80051e-05 0.000406771 7.07046e-08
3.25531e-08 7.07046e-08 0.000367047

0.000361006 -1.359e-06 -8.26504e-08
-1.359e-06 0.000382318 1.89503e-07
-8.26504e-08 1.89503e-07 0.000365695

0.000360176 2.89977e-05 -8.39831e-08
2.89977e-05 0.000291701 -7.30717e-09
-8.39831e-08 -7.30717e-09 0.000329326

0.000371268 -2.35807e-06 8.89293e-09
-2.35807e-06 0.00023067 -5.66878e-08
8.89293e-09 -5.66878e-08 0.000337488

0.000222149 2.9623e-05 -2.32607e-08
2.9623e-05 0.000276172 -2.96337e-08
-2.32607e-08 -2.96337e-08 0.000235085

0.000222369 -3.10148e-05 8.22906e-08
-3.10148e-05 0.000276604 -1.10808e-07
8.22906e-08 -1.10808e-07 0.000235624

0.000350426 -5.67775e-06 -1.17564e-07
-5.67775e-06 0.000256 1.36037e-08
-1.17564e-07 1.36037e-08 0.000313911

0.000260394 -3.95191e-05 -5.09343e-08
-3.95191e-05 0.000333423 -3.48481e-08
-5.09343e-08 -3.48481e-08 0.00029782

0.000385013 3.84268e-06 8.0382e-08
3.84268e-06 0.00034991 3.40641e-08
8.0382e-08 3.40641e-08 0.000365372

0.000384108 -3.29908e-06 2.19239e-07
-3.29908e-06 0.000350396 3.18474e-07
2.19239e-07 3.18474e-07 0.000365436

0.00033856 4.49505e-05 -1.33909e-07
4.49505e-05 0.000307235 7.31872e-08
-1.33909e-07 7.31872e-08 0.000325804

0.00030038 -4.99985e-05 3.11414e-08
-4.99985e-05 0.000308756 -8.33278e-08
3.11414e-08 -8.33278e-08 0.000318863

0.000359903 2.59628e-05 -8.42408e-08
2.59628e-05 0.000258153 -9.94949e-09
-8.42408e-08 -9.94949e-09 0.000322806

0.000254658 3.86078e-05 -8.14267e-08
3.86078e-05 0.000224256 -1.04619e-07
-8.14267e-08 -1.04619e-07 0.000226166

0.000276643 -4.32914e-05 9.25293e-08
-4.32914e-05 0.000319529 -5.58258e-08
9.25293e-08 -5.58258e-08 0.000315435

0.000157445 6.69898e-05 1.71966e-07
6.69898e-05 0.000142983 -6.55073e-09
1.71966e-07 -6.55073e-09 0.000156793

0.000244759 -9.23501e-06 -7.88512e-08
-9.23501e-06 0.000319743 4.84541e-08
-7.88512e-08 4.84541e-08 0.000281604

0.000245546 -1.42156e-05 1.08679e-07
-1.42156e-05 0.000322798 -2.55601e-08
1.08679e-07 -2.55601e-08 0.00028123

0.000338891 1.98556e-05 1.91123e-09
1.98556e-05 0.000408178 2.8017e-07
1.91123e-09 2.8017e-07 0.000368552

0.000349338 -2.92665e-05 -1.18723e-07
-2.92665e-05 0.000398395 1.93676e-07
-1.18723e-07 1.93676e-07 0.000368306

0.000404298 -1.63354e-06 9.38025e-09
-1.63354e-06 0.000265986 -1.33807e-08
9.38025e-09 -1.33807e-08 0.000344886

0.000404554 1.37838e-06 7.97346e-09
1.37838e-06 0.000265508 -3.45684e-09
7.97346e-09 -3.45684e-09 0.000345223

0.000356125 -5.7211e-05 -6.13863e-08
-5.7211e-05 0.000323806 9.31759e-08
-6.13863e-08 9.31759e-08 0.000345026

0.000353549 5.81759e-05 -1.36115e-07
5.81759e-05 0.000315978 7.22179e-08
-1.36115e-07 7.22179e-08 0.000342707

0.000398996 -2.11699e-05 4.13412e-08
-2.11699e-05 0.000368115 -6.47584e-08
4.13412e-08 -6.47584e-08 0.000363183

0.00039949 2.12526e-05 1.1452e-07
2.12526e-05 0.000368309 4.15682e-08
1.1452e-07 4.15682e-08 0.000362984

0.000410397 -1.90156e-05 1.85649e-07
-1.90156e-05 0.000373216 -7.18956e-08
1.85649e-07 -7.18956e-08 0.000378594

0.000410397 1.99545e-05 9.85388e-08
1.99545e-05 0.000375118 5.27932e-07
9.85388e-08 5.27932e-07 0.000378873

0.000305162 -5.52062e-05 -1.18566e-07
-5.52062e-05 0.000361177 1.12254e-07
-1.18566e-07 1.12254e-07 0.000345752

0.000305304 5.48046e-05 -6.69482e-08
5.48046e-05 0.000361269 2.1612e-09
-6.69482e-08 2.1612e-09 0.000346217

0.000313199 -2.87401e-05 1.15618e-07
-2.87401e-05 0.000262725 -5.11021e-08
1.15618e-07 -5.11021e-08 0.000287528

0.00026894 -2.38893e-05 -4.58426e-08
-2.38893e-05 0.000326197 1.79928e-08
-4.58426e-08 1.79928e-08 0.000301063

0.000285908 4.63348e-05 -1.06527e-07
4.63348e-05 0.00028588 2.52456e-08
-1.06527e-07 2.52456e-08 0.000282163

0.000270621 -3.40639e-05 5.99947e-08
-3.40639e-05 0.000336325 2.73433e-08
5.99947e-08 2.73433e-08 0.000299915

0.00025546 -3.55062e-05 -1.86526e-08
-3.55062e-05 0.000228498 -1.76525e-07
-1.86526e-08 -1.76525e-07 0.000223696

0.000313467 2.80619e-05 -5.81658e-08
2.80619e-05 0.000262016 -2.67311e-08
-5.81658e-08 -2.67311e-08 0.000286846

0.000269412 2.39565e-05 -4.64668e-08
2.39565e-05 0.000324713 -1.55043e-07
-4.64668e-08 -1.55043e-07 0.000299761

0.000309672 -6.8286e-05 -4.75941e-08
-6.8286e-05 0.000337168 5.53219e-08
-4.75941e-08 5.53219e-08 0.000349008

0.000309106 6.86656e-05 -5.92383e-08
6.86656e-05 0.000337047 -4.53879e-08
-5.92383e-08 -4.53879e-08 0.000348955

0.000366188 -2.75047e-05 -1.15467e-07
-2.75047e-05 0.000296941 -5.95648e-08
-1.15467e-07 -5.95648e-08 0.000334079

0.000419985 -5.20948e-05 -1.4407e-07
-5.20948e-05 0.000464013 3.84896e-09
-1.4407e-07 3.84896e-09 0.000380245

0.00041576 5.32354e-05 -3.74099e-07
5.32354e-05 0.000382079 1.82949e-07
-3.74099e-07 1.82949e-07 0.00038076

0.000300678 -3.88455e-05 -9.40078e-08
-3.88455e-05 0.000353578 1.91581e-08
-9.40078e-08 1.91581e-08 0.000328707

0.000339213 4.83525e-05 -1.38471e-07
4.83525e-05 0.000280698 1.1815e-08
-1.38471e-07 1.1815e-08 0.000318027

0.000388628 3.56504e-06 9.42399e-08
3.56504e-06 0.000334099 -1.19664e-08
9.42399e-08 -1.19664e-08 0.000355872

0.000286077 -4.5383e-05 -1.76641e-07
-4.5383e-05 0.000287852 -1.08218e-07
-1.76641e-07 -1.08218e-07 0.000282308

0.000190379 2.89139e-05 -8.96846e-08
2.89139e-05 0.000200693 2.00407e-07
-8.96846e-08 2.00407e-07 0.000180704

0.000205582 2.90367e-05 1.12418e-07
2.90367e-05 0.000177223 -4.90774e-08
1.12418e-07 -4.90774e-08 0.000180794

0.000403628 5.30861e-06 2.28676e-08
5.30861e-06 0.000284261 3.36743e-09
2.28676e-08 3.36743e-09 0.000350631

0.000402709 -5.6584e-06 6.26758e-08
-5.6584e-06 0.000284054 -6.6132e-08
6.26758e-08 -6.6132e-08 0.000350671

0.000389416 -5.41315e-06 4.19878e-08
-5.41315e-06 0.000337597 -3.72944e-09
4.19878e-08 -3.72944e-09 0.000356637

0.000271555 3.22138e-05 8.48468e-08
3.22138e-05 0.000335004 -9.15747e-08
8.48468e-08 -9.15747e-08 0.000299456

0.000313742 -2.29066e-05 -1.34752e-07
-2.29066e-05 0.000253288 1.44319e-07
-1.34752e-07 1.44319e-07 0.000265388

0.000326933 -2.76331e-05 -9.67298e-08
-2.76331e-05 0.000343525 -2.23501e-07
-9.67298e-08 -2.23501e-07 0.000337494

0.000327091 2.77538e-05 -1.78608e-08
2.77538e-05 0.000344032 4.00725e-08
-1.78608e-08 4.00725e-08 0.000337696

0.000446985 -4.19259e-06 1.26451e-08
-4.19259e-06 0.000484266 -9.44948e-09
1.26451e-08 -9.44948e-09 0.000377317

0.000445696 3.45356e-06 -1.3096e-07
3.45356e-06 0.000482896 -1.27777e-07
-1.3096e-07 -1.27777e-07 0.000377494

0.000280122 -4.70787e-05 -8.72599e-08
-4.70787e-05 0.000350281 2.18785e-08
-8.72599e-08 2.18785e-08 0.000324775

0.000334851 3.72333e-05 -7.18242e-08
3.72333e-05 0.000265354 6.66459e-08
-7.18242e-08 6.66459e-08 0.000299408

0.000378396 -4.30152e-06 1.11513e-07
-4.30152e-06 0.000316591 -1.25913e-07
1.11513e-07 -1.25913e-07 0.00034871

0.000378499 5.62003e-06 -5.8509e-09
5.62003e-06 0.000316588 -1.93233e-08
-5.8509e-09 -1.93233e-08 0.000348614

0.000284777 -2.98077e-05 3.99211e-08
-2.98077e-05 0.000341916 -6.664e-08
3.99211e-08 -6.664e-08 0.000332043

0.00028213 -4.78271e-05 3.52323e-09
-4.78271e-05 0.000327443 6.27207e-08
3.52323e-09 6.27207e-08 0.000338045

0.000155967 -6.93076e-05 -1.7811e-07
-6.93076e-05 0.000157947 -2.41212e-07
-1.7811e-07 -2.41212e-07 0.000158169

0.000325754 -4.50314e-05 -1.1167e-07
-4.50314e-05 0.000365308 -7.47603e-08
-1.1167e-07 -7.47603e-08 0.000354194

0.000325417 4.54157e-05 -1.12661e-07
4.54157e-05 0.000364527 6.22251e-08
-1.12661e-07 6.22251e-08 0.000353907

0.000275517 -4.57911e-05 9.3535e-08
-4.57911e-05 0.000332646 -4.95077e-08
9.3535e-08 -4.95077e-08 0.000329032

0.000316259 2.38554e-05 -2.18563e-08
2.38554e-05 0.000254119 5.48306e-10
-2.18563e-08 5.48306e-10 0.000266962

0.000343849 -4.1874e-05 1.42217e-08
-4.1874e-05 0.000308858 4.30104e-08
1.42217e-08 4.30104e-08 0.000328971

0.000361197 -4.76246e-05 -1.07281e-07
-4.76246e-05 0.000324014 -7.98283e-08
-1.07281e-07 -7.98283e-08 0.00034705

0.000360516 4.55624e-05 -1.2809e-07
4.55624e-05 0.000321725 4.51205e-08
-1.2809e-07 4.51205e-08 0.000346459

0.000366183 -2.63526e-05 -1.15682e-07
-2.63526e-05 0.000260444 2.74395e-08
-1.15682e-07 2.74395e-08 0.000327396

0.00039955 1.16424e-05 4.013e-08
1.16424e-05 0.000322054 -8.24321e-08
4.013e-08 -8.24321e-08 0.000361102

0.000398936 -1.11652e-05 8.78981e-08
-1.11652e-05 0.000322543 5.92288e-08
8.78981e-08 5.92288e-08 0.000360997

0.00035995 -1.85187e-05 -2.97749e-08
-1.85187e-05 0.000457742 -1.12242e-07
-2.97749e-08 -1.12242e-07 0.00037768

0.000377295 4.01882e-05 3.50953e-08
4.01882e-05 0.000448267 -2.32675e-07
3.50953e-08 -2.32675e-07 0.000377962

0.000169304 5.92764e-06 1.30374e-07
5.92764e-06 0.000101734 -5.00992e-08
1.30374e-07 -5.00992e-08 0.000168951

0.000123694 1.0941e-05 -1.31304e-07
1.0941e-05 0.000156375 4.20612e-08
-1.31304e-07 4.20612e-08 0.000169278

0.000304316 4.40661e-05 -8.53162e-09
4.40661e-05 0.000356867 -1.53546e-07
-8.53162e-09 -1.53546e-07 0.000334604

0.000303937 -4.41307e-05 2.21325e-07
-4.41307e-05 0.000356874 3.58499e-08
2.21325e-07 3.58499e-08 0.000334308

0.000289274 -5.61324e-05 -9.5595e-08
-5.61324e-05 0.000357927 3.32759e-08
-9.5595e-08 3.32759e-08 0.000332874

0.000148906 -2.95527e-05 -2.11015e-07
-2.95527e-05 0.000142941 1.22937e-07
-2.11015e-07 1.22937e-07 0.000165859

0.000153018 -2.39361e-05 -2.09276e-08
-2.39361e-05 0.000143856 -2.65747e-07
-2.09276e-08 -2.65747e-07 0.000166253

0.000373754 3.88658e-05 -2.24004e-07
3.88658e-05 0.000451364 9.03053e-07
-2.24004e-07 9.03053e-07 0.000382317

0.000373754 -4.12491e-05 8.20367e-08
-4.12491e-05 0.000448838 9.97374e-08
8.20367e-08 9.97374e-08 0.000382314

0.000330997 -5.30014e-05 5.25056e-10
-5.30014e-05 0.000299226 3.13274e-08
5.25056e-10 3.13274e-08 0.000324537

0.000281742 -4.31176e-05 -5.34664e-08
-4.31176e-05 0.000308241 1.02192e-07
-5.34664e-08 1.02192e-07 0.000289904

0.000304325 4.23791e-05 1.88378e-08
4.23791e-05 0.000334978 2.09936e-08
1.88378e-08 2.09936e-08 0.000328921

0.000304028 -4.23945e-05 2.36528e-07
-4.23945e-05 0.000334364 -5.00605e-08
2.36528e-07 -5.00605e-08 0.000328725

0.000282585 -4.9925e-05 -3.83779e-08
-4.9925e-05 0.000324858 8.21252e-08
-3.83779e-08 8.21252e-08 0.0003067

0.000282107 4.34209e-05 -1.21773e-07
4.34209e-05 0.000307241 5.15416e-08
-1.21773e-07 5.15416e-08 0.000289669

0.000192501 -1.61779e-05 -5.09392e-08
-1.61779e-05 0.000238423 8.95096e-08
-5.09392e-08 8.95096e-08 0.000201712

0.000192408 1.34366e-05 2.13263e-07
1.34366e-05 0.000240603 -6.78482e-08
2.13263e-07 -6.78482e-08 0.000200638

0.000243386 1.1623e-05 9.66637e-08
1.1623e-05 0.000185301 1.08137e-07
9.66637e-08 1.08137e-07 0.00019869

0.000282854 4.99508e-05 -4.04151e-08
4.99508e-05 0.000324563 1.69183e-07
-4.04151e-08 1.69183e-07 0.000306427

0.000170386 -7.75278e-06 1.45533e-07
-7.75278e-06 0.000220221 -1.34173e-07
1.45533e-07 -1.34173e-07 0.000186213

0.000228272 -4.46595e-06 5.85636e-08
-4.46595e-06 0.0001581 3.7594e-10
5.85636e-08 3.7594e-10 0.00018658

0.000317127 -4.09681e-05 -9.83113e-08
-4.09681e-05 0.00035494 1.03631e-07
-9.83113e-08 1.03631e-07 0.000346092

0.000318417 4.06118e-05 -1.91772e-07
4.06118e-05 0.000355005 -1.88968e-07
-1.91772e-07 -1.88968e-07 0.000346355

0.000322753 -3.09853e-05 -1.68856e-07
-3.09853e-05 0.000357529 -1.3721e-07
-1.68856e-07 -1.3721e-07 0.000348749

0.000323741 3.11378e-05 -1.96855e-07
3.11378e-05 0.0003567 -1.71346e-07
-1.96855e-07 -1.71346e-07 0.000348903

0.000151452 2.70638e-05 1.70586e-07
2.70638e-05 0.000135367 -2.48168e-08
1.70586e-07 -2.48168e-08 0.000163928

0.000149733 2.56908e-05 -1.78913e-07
2.56908e-05 0.000136446 -3.45266e-08
-1.78913e-07 -3.45266e-08 0.000163006

0.000303872 3.87858e-05 1.32311e-07
3.87858e-05 0.000330053 1.02451e-07
1.32311e-07 1.02451e-07 0.000315824

0.000303372 -3.91331e-05 1.90786e-08
-3.91331e-05 0.00033007 1.04074e-07
1.90786e-08 1.04074e-07 0.000315701

0.000355137 -3.7401e-05 -3.89669e-11
-3.7401e-05 0.000408956 7.26027e-08
-3.89669e-11 7.26027e-08 0.000371311

0.000371572 1.69217e-05 1.01287e-07
1.69217e-05 0.000380153 1.78794e-07
1.01287e-07 1.78794e-07 0.000371125

0.000312044 -4.27719e-05 -1.12874e-07
-4.27719e-05 0.000375985 1.28542e-07
-1.12874e-07 1.28542e-07 0.000352651

0.000312028 4.20223e-05 -6.83896e-08
4.20223e-05 0.00037554 6.66043e-09
-6.83896e-08 6.66043e-09 0.000352752

0.000385257 3.15203e-06 6.937e-08
3.15203e-06 0.000317036 -6.6294e-08
6.937e-08 -6.6294e-08 0.000360715

0.000384253 -2.12285e-06 2.58056e-07
-2.12285e-06 0.000317034 -3.46843e-08
2.58056e-07 -3.46843e-08 0.000360716

0.000320327 -4.85321e-05 5.49297e-08
-4.85321e-05 0.000323996 -7.74282e-08
5.49297e-08 -7.74282e-08 0.000336423

0.000322265 4.81236e-05 4.31019e-08
4.81236e-05 0.000321604 3.98913e-08
4.31019e-08 3.98913e-08 0.00033568

0.000411029 1.16259e-05 -1.33783e-07
1.16259e-05 0.000349784 -1.05883e-07
-1.33783e-07 -1.05883e-07 0.000371181

0.000407388 1.99653e-06 2.23517e-07
1.99653e-06 0.000370724 -4.36529e-07
2.23517e-07 -4.36529e-07 0.000378201

0.00041155 -1.16559e-05 -7.80024e-08
-1.16559e-05 0.000350102 5.55439e-09
-7.80024e-08 5.55439e-09 0.000371348

0.000408079 -3.28476e-06 1.08109e-07
-3.28476e-06 0.000368569 1.77782e-07
1.08109e-07 1.77782e-07 0.000378263

0.000359935 2.28696e-06 -7.39383e-08
2.28696e-06 0.000412293 1.05028e-07
-7.39383e-08 1.05028e-07 0.000372867

0.000425907 4.66303e-05 -1.31916e-07
4.66303e-05 0.00039057 -1.25392e-07
-1.31916e-07 -1.25392e-07 0.00037059

0.000427011 -4.78734e-05 1.67898e-09
-4.78734e-05 0.000391566 -3.7555e-08
1.67898e-09 -3.7555e-08 0.000370489

0.000334368 -2.55966e-05 4.44974e-08
-2.55966e-05 0.000456025 -4.51026e-08
4.44974e-08 -4.51026e-08 0.000373642

0.000375807 -2.3547e-05 -1.75701e-07
-2.3547e-05 0.000388876 3.68598e-07
-1.75701e-07 3.68598e-07 0.00037566

0.000559389 -3.06816e-05 2.38107e-06
-3.06816e-05 0.000296985 1.38164e-06
2.38107e-06 1.38164e-06 0.000382995

0.00037316 2.40609e-05 4.55899e-07
2.40609e-05 0.000392232 5.80879e-07
4.55899e-07 5.80879e-07 0.000376248

0.000554476 3.29214e-05 1.25704e-06
3.29214e-05 0.000301774 -9.92301e-07
1.25704e-06 -9.92301e-07 0.000383672

0.000389746 -3.03528e-05 8.07708e-08
-3.03528e-05 0.000377482 -2.01592e-08
8.07708e-08 -2.01592e-08 0.000372712

0.000351282 -2.14841e-05 -1.36953e-07
-2.14841e-05 0.000382603 1.24016e-07
-1.36953e-07 1.24016e-07 0.000364009

0.000402545 -1.3478e-06 1.26503e-07
-1.3478e-06 0.000371648 1.91616e-07
1.26503e-07 1.91616e-07 0.000380224

0.000389262 3.1562e-05 -9.1524e-08
3.1562e-05 0.000377978 -2.48897e-07
-9.1524e-08 -2.48897e-07 0.000373061

0.000351197 2.18113e-05 2.14168e-07
2.18113e-05 0.000381755 -4.64676e-08
2.14168e-07 -4.64676e-08 0.000364068

0.000402155 1.80994e-06 -8.38251e-08
1.80994e-06 0.000377053 -2.84554e-07
-8.38251e-08 -2.84554e-07 0.000380796

0.000350671 -1.74443e-05 -1.34615e-07
-1.74443e-05 0.000375415 9.53521e-08
-1.34615e-07 9.53521e-08 0.000367019

0.000389797 -1.00652e-05 -1.59792e-08
-1.00652e-05 0.000376216 1.323e-07
-1.59792e-08 1.323e-07 0.000374092

0.000350671 1.83228e-05 2.09967e-07
1.83228e-05 0.000375309 -9.79597e-08
2.09967e-07 -9.79597e-08 0.000367219

0.000389797 1.02317e-05 -3.4792e-07
1.02317e-05 0.000376553 7.5784e-08
-3.4792e-07 7.5784e-08 0.000374288

0.000261625 4.14139e-05 4.80962e-08
4.14139e-05 0.000309405 -1.39746e-07
4.80962e-08 -1.39746e-07 0.000272303

0.0002792 7.73749e-06 7.76793e-08
7.73749e-06 0.000366626 9.27933e-08
7.76793e-08 9.27933e-08 0.000327971

0.000311898 2.22754e-05 -1.64262e-08
2.22754e-05 0.000346466 -8.95261e-08
-1.64262e-08 -8.95261e-08 0.000326386

0.000335042 -2.72402e-05 1.76243e-09
-2.72402e-05 0.000243971 8.62057e-08
1.76243e-09 8.62057e-08 0.000296924

0.000319665 -1.67486e-05 1.41357e-08
-1.67486e-05 0.000237129 7.95356e-08
1.41357e-08 7.95356e-08 0.000276517

0.0002782 1.22539e-05 8.01976e-08
1.22539e-05 0.000396763 6.35212e-08
8.01976e-08 6.35212e-08 0.000347275

0.000311706 2.30839e-05 -2.74371e-08
2.30839e-05 0.000353647 3.85399e-08
-2.74371e-08 3.85399e-08 0.000346795

0.00031971 -2.0139e-07 1.3889e-08
-2.0139e-07 0.000241663 -9.8691e-08
1.3889e-08 -9.8691e-08 0.000278139

0.000358144 1.04924e-05 -3.26903e-08
1.04924e-05 0.000262288 1.2892e-07
-3.26903e-08 1.2892e-07 0.000337026

0.000207897 3.56747e-05 1.90265e-07
3.56747e-05 0.000260224 -2.63635e-08
1.90265e-07 -2.63635e-08 0.000219059

0.000195707 2.81859e-05 8.82567e-08
2.81859e-05 0.000260392 -1.29806e-07
8.82567e-08 -1.29806e-07 0.00021758

0.000251648 2.85898e-05 -4.71572e-08
2.85898e-05 0.000200442 1.31956e-07
-4.71572e-08 1.31956e-07 0.000213992

0.000342239 -4.33768e-05 -8.85811e-08
-4.33768e-05 0.0003664 -2.43424e-08
-8.85811e-08 -2.43424e-08 0.000352887

0.000333835 -1.81255e-05 1.76243e-07
-1.81255e-05 0.000381529 -4.39366e-08
1.76243e-07 -4.39366e-08 0.000353024

0.00030181 -5.00058e-05 -1.07758e-07
-5.00058e-05 0.000295116 7.10139e-08
-1.07758e-07 7.10139e-08 0.000300402

0.000261333 4.00355e-05 5.57721e-08
4.00355e-05 0.000323579 -3.90617e-08
5.57721e-08 -3.90617e-08 0.00029347

0.000286907 4.70439e-05 4.69589e-08
4.70439e-05 0.000345283 -1.2766e-08
4.69589e-08 -1.2766e-08 0.000324128

0.000310297 -2.27424e-05 -8.11412e-08
-2.27424e-05 0.000353109 -2.88887e-08
-8.11412e-08 -2.88887e-08 0.000345727

0.000276132 -1.45898e-05 -8.16834e-08
-1.45898e-05 0.000398594 1.13018e-07
-8.16834e-08 1.13018e-07 0.000345717

0.000345717 1.25368e-05 -2.64296e-08
1.25368e-05 0.000247726 -2.58861e-08
-2.64296e-08 -2.58861e-08 0.000298954

0.000224146 1.16874e-05 1.21285e-07
1.16874e-05 0.000291367 1.10808e-07
1.21285e-07 1.10808e-07 0.000236193

0.000212296 5.2105e-06 1.0774e-08
5.2105e-06 0.000291859 -1.11964e-08
1.0774e-08 -1.11964e-08 0.000237409

0.000288097 4.91459e-06 1.5547e-07
4.91459e-06 0.000215775 7.48487e-09
1.5547e-07 7.48487e-09 0.000231615

0.000246564 2.8337e-05 -4.95599e-08
2.8337e-05 0.000315052 1.50714e-07
-4.95599e-08 1.50714e-07 0.000275869

0.000260189 4.65212e-05 -2.53256e-08
4.65212e-05 0.000300017 -6.01232e-08
-2.53256e-08 -6.01232e-08 0.000271006

0.000332793 8.05724e-06 -5.1996e-08
8.05724e-06 0.000246193 -1.25226e-07
-5.1996e-08 -1.25226e-07 0.000300475

0.000198666 2.15239e-05 1.13941e-07
2.15239e-05 0.000239679 -1.70299e-07
1.13941e-07 -1.70299e-07 0.000195455

0.000359894 -2.90377e-05 3.2626e-08
-2.90377e-05 0.00026163 -2.32314e-08
3.2626e-08 -2.32314e-08 0.000328135

0.000333059 1.96834e-06 -6.86314e-08
1.96834e-06 0.000396471 1.21372e-07
-6.86314e-08 1.21372e-07 0.000354334

0.000355376 6.02487e-07 4.69867e-09
6.02487e-07 0.000364526 2.60488e-08
4.69867e-09 2.60488e-08 0.000355034

0.000461678 2.01241e-05 -3.06072e-08
2.01241e-05 0.000352342 -1.33108e-07
-3.06072e-08 -1.33108e-07 0.000376728

0.000460187 -4.62487e-05 -1.77009e-08
-4.62487e-05 0.000382834 1.20349e-08
-1.77009e-08 1.20349e-08 0.000373424

0.000286511 -5.26021e-05 -1.20494e-07
-5.26021e-05 0.000301247 6.05058e-08
-1.20494e-07 6.05058e-08 0.000296771

0.000250591 -4.28949e-05 5.58672e-08
-4.28949e-05 0.000299059 -6.57255e-09
5.58672e-08 -6.57255e-09 0.000272877

0.000283574 -1.45634e-05 -1.6521e-08
-1.45634e-05 0.000205019 8.50192e-08
-1.6521e-08 8.50192e-08 0.000231338

0.000386164 7.88163e-06 1.47931e-07
7.88163e-06 0.000333406 -7.13799e-08
1.47931e-07 -7.13799e-08 0.000356989

0.000386018 -2.74572e-05 5.45289e-08
-2.74572e-05 0.000337478 1.80922e-07
5.45289e-08 1.80922e-07 0.000353207

0.000358764 -1.25506e-05 3.85685e-08
-1.25506e-05 0.000263089 -2.29692e-08
3.85685e-08 -2.29692e-08 0.000337307

0.000356528 -3.82059e-06 -4.55529e-08
-3.82059e-06 0.000247168 -9.18944e-08
-4.55529e-08 -9.18944e-08 0.000331353

0.000295781 -4.3638e-05 -1.96549e-08
-4.3638e-05 0.000252327 -7.58019e-08
-1.96549e-08 -7.58019e-08 0.000261909

0.000303458 2.06039e-05 7.23214e-08
2.06039e-05 0.000230515 -1.16454e-07
7.23214e-08 -1.16454e-07 0.000257692

0.000298135 -3.54425e-05 -1.45853e-09
-3.54425e-05 0.00022719 7.44244e-08
-1.45853e-09 7.44244e-08 0.00025523

0.000262215 2.90217e-05 -4.74683e-08
2.90217e-05 0.000354997 1.00328e-07
-4.74683e-08 1.00328e-07 0.000327348

0.000250563 -3.64322e-05 9.7377e-08
-3.64322e-05 0.000312143 3.53563e-08
9.7377e-08 3.53563e-08 0.000276194

0.000248204 3.43183e-05 7.82638e-08
3.43183e-05 0.000298698 2.49331e-10
7.82638e-08 2.49331e-10 0.000273472

0.000162012 -5.47745e-05 3.64879e-08
-5.47745e-05 0.000164016 3.48784e-08
3.64879e-08 3.48784e-08 0.000161074

0.000147847 3.33337e-05 2.30281e-08
3.33337e-05 0.000165584 -5.46314e-08
2.30281e-08 -5.46314e-08 0.000159449

0.000280576 -4.09528e-05 -2.99135e-08
-4.09528e-05 0.000371877 -1.22044e-07
-2.99135e-08 -1.22044e-07 0.000345421

0.000246423 2.69942e-05 -6.05592e-08
2.69942e-05 0.000332764 -1.15728e-07
-6.05592e-08 -1.15728e-07 0.000297213

0.000149645 5.4744e-06 1.46193e-08
5.4744e-06 0.000154787 2.07654e-07
1.46193e-08 2.07654e-07 0.000168897

0.00015131 -1.07484e-05 -5.4616e-08
-1.07484e-05 0.000168291 3.04821e-08
-5.4616e-08 3.04821e-08 0.000169841

0.000347241 -1.62072e-05 -1.62337e-07
-1.62072e-05 0.000371491 -3.31771e-08
-1.62337e-07 -3.31771e-08 0.000358453

0.000345822 3.44667e-05 -9.13455e-08
3.44667e-05 0.000359471 -1.72494e-08
-9.13455e-08 -1.72494e-08 0.000359663

0.000370819 6.0491e-07 3.46128e-08
6.0491e-07 0.000253121 -4.84951e-08
3.46128e-08 -4.84951e-08 0.000313462

0.000349079 -1.09211e-05 -1.30499e-07
-1.09211e-05 0.000354849 1.90885e-07
-1.30499e-07 1.90885e-07 0.000358375

0.00034645 3.22038e-05 -4.81192e-08
3.22038e-05 0.000360255 -3.21456e-07
-4.81192e-08 -3.21456e-07 0.000359254

0.000433993 3.51226e-05 -9.78644e-08
3.51226e-05 0.000342946 9.65999e-08
-9.78644e-08 9.65999e-08 0.000372239

0.000423331 -4.2774e-05 -1.42966e-07
-4.2774e-05 0.000375404 -1.44899e-07
-1.42966e-07 -1.44899e-07 0.000369433

0.000327282 -2.61323e-05 4.94984e-08
-2.61323e-05 0.000331498 1.83829e-08
4.94984e-08 1.83829e-08 0.000336

0.000326858 3.38609e-05 -1.46459e-07
3.38609e-05 0.000324322 4.75502e-08
-1.46459e-07 4.75502e-08 0.000337584

0.000349588 -2.30525e-06 2.43224e-08
-2.30525e-06 0.000444918 -1.43538e-07
2.43224e-08 -1.43538e-07 0.000368408

0.00035719 1.23599e-05 1.10059e-07
1.23599e-05 0.000399609 -1.81146e-08
1.10059e-07 -1.81146e-08 0.000369957

0.000255729 -4.89024e-05 -1.03105e-08
-4.89024e-05 0.000311426 -3.294e-08
-1.03105e-08 -3.294e-08 0.00027303

0.000178132 4.67532e-06 2.92428e-08
4.67532e-06 0.000229655 -2.20647e-07
2.92428e-08 -2.20647e-07 0.000192865

0.000225893 6.85885e-06 -5.25397e-08
6.85885e-06 0.000183275 1.28557e-07
-5.25397e-08 1.28557e-07 0.000192419

0.000254444 2.55116e-05 4.11757e-08
2.55116e-05 0.000353865 1.18952e-07
4.11757e-08 1.18952e-07 0.000319433

0.000279195 3.76033e-05 -8.15905e-08
3.76033e-05 0.000341286 -4.28541e-08
-8.15905e-08 -4.28541e-08 0.000317146

0.000439202 -3.4815e-05 -3.32812e-07
-3.4815e-05 0.000376529 5.78152e-07
-3.32812e-07 5.78152e-07 0.00038306

0.000411011 5.68568e-05 -3.33237e-07
5.68568e-05 0.000472655 2.20899e-07
-3.33237e-07 2.20899e-07 0.000382843

0.000288198 3.45842e-05 6.14099e-08
3.45842e-05 0.000269727 1.94766e-07
6.14099e-08 1.94766e-07 0.00026669

0.000296267 5.83002e-05 5.7457e-08
5.83002e-05 0.00035463 6.88063e-09
5.7457e-08 6.88063e-09 0.000333764

0.000337807 2.20338e-05 -4.91731e-08
2.20338e-05 0.000280289 2.19868e-08
-4.91731e-08 2.19868e-08 0.000319758

0.000339301 -1.76037e-05 -3.69308e-08
-1.76037e-05 0.000280474 -1.36223e-07
-3.69308e-08 -1.36223e-07 0.000318307

0.00030223 5.57165e-05 9.30635e-08
5.57165e-05 0.000339236 8.48846e-08
9.30635e-08 8.48846e-08 0.000331462

0.000303898 -5.48588e-05 -3.78044e-09
-5.48588e-05 0.000363279 8.76776e-09
-3.78044e-09 8.76776e-09 0.00034335

0.000379164 -4.65348e-05 8.12852e-09
-4.65348e-05 0.000302509 -2.37058e-08
8.12852e-09 -2.37058e-08 0.000347721

0.000282202 -4.18757e-06 -1.66295e-10
-4.18757e-06 0.00020713 -1.64021e-07
-1.66295e-10 -1.64021e-07 0.00023218

0.000466397 5.94109e-06 3.65526e-08
5.94109e-06 0.000429923 3.72049e-08
3.65526e-08 3.72049e-08 0.000376143

0.000482791 -4.59987e-06 2.38759e-07
-4.59987e-06 0.000371774 -2.67663e-07
2.38759e-07 -2.67663e-07 0.000379619

0.000296714 4.2702e-05 -7.88436e-08
4.2702e-05 0.000277453 5.58319e-08
-7.88436e-08 5.58319e-08 0.000289375

0.000345239 1.60697e-05 -3.02121e-08
1.60697e-05 0.000264813 3.80769e-08
-3.02121e-08 3.80769e-08 0.000302366

0.000243354 3.61639e-05 -2.41041e-07
3.61639e-05 0.000259987 3.46116e-09
-2.41041e-07 3.46116e-09 0.000230625

0.000369553 8.25429e-06 -4.78148e-08
8.25429e-06 0.00039688 -5.65176e-08
-4.78148e-08 -5.65176e-08 0.000375374

0.000375769 2.57144e-05 -1.96772e-08
2.57144e-05 0.000457 -1.54241e-07
-1.96772e-08 -1.54241e-07 0.000372759

0.00038123 2.33114e-05 1.34973e-07
2.33114e-05 0.000294253 -1.32613e-08
1.34973e-07 -1.32613e-08 0.000352356

0.000276852 -9.37304e-06 -9.02353e-08
-9.37304e-06 0.000370062 -3.11263e-08
-9.02353e-08 -3.11263e-08 0.000326786

0.000310586 -2.10168e-05 -7.47093e-08
-2.10168e-05 0.000348609 5.55866e-08
-7.47093e-08 5.55866e-08 0.000325846

0.000373468 6.99572e-06 9.97534e-08
6.99572e-06 0.000260547 -4.49132e-09
9.97534e-08 -4.49132e-09 0.00032828

0.000376778 -5.44558e-06 1.13298e-07
-5.44558e-06 0.000259226 -3.454e-08
1.13298e-07 -3.454e-08 0.000327489

0.000260443 -3.62682e-05 -2.36684e-09
-3.62682e-05 0.000243599 1.57113e-07
-2.36684e-09 1.57113e-07 0.000227545

0.000335409 -3.6712e-08 -1.03157e-07
-3.6712e-08 0.000237701 -6.43979e-08
-1.03157e-07 -6.43979e-08 0.00027711

0.000373855 -6.18231e-06 -1.42011e-07
-6.18231e-06 0.000291732 1.33257e-07
-1.42011e-07 1.33257e-07 0.000343388

0.000364571 1.18231e-05 1.14357e-07
1.18231e-05 0.00029905 2.8104e-08
1.14357e-07 2.8104e-08 0.00034403

0.000345544 -1.5106e-05 -4.29011e-08
-1.5106e-05 0.000272276 -1.31362e-07
-4.29011e-08 -1.31362e-07 0.000301168

0.000263251 -4.3256e-05 1.45403e-08
-4.3256e-05 0.000313494 -9.41761e-10
1.45403e-08 -9.41761e-10 0.00027652

0.000376556 -3.70621e-06 9.73798e-08
-3.70621e-06 0.000283559 -1.18004e-07
9.73798e-08 -1.18004e-07 0.000330037

0.000372163 7.94256e-06 9.68571e-08
7.94256e-06 0.000282424 9.65139e-09
9.68571e-08 9.65139e-09 0.000331164

0.000337042 1.75368e-05 -7.83327e-10
1.75368e-05 0.000266759 -2.99604e-08
-7.83327e-10 -2.99604e-08 0.000308597

0.000256908 -5.51407e-05 6.04963e-08
-5.51407e-05 0.00024968 -6.327e-08
6.04963e-08 -6.327e-08 0.000247165

0.000283908 5.34728e-05 -3.79781e-08
5.34728e-05 0.000333266 -1.28951e-07
-3.79781e-08 -1.28951e-07 0.000333726

0.000298027 5.17088e-05 2.86611e-08
5.17088e-05 0.000359756 -1.31534e-07
2.86611e-08 -1.31534e-07 0.000336346

0.000278222 3.96079e-05 -7.93695e-08
3.96079e-05 0.000338171 4.03109e-08
-7.93695e-08 4.03109e-08 0.000337744

0.000308961 1.93099e-05 -5.4419e-08
1.93099e-05 0.000224651 -9.01008e-08
-5.4419e-08 -9.01008e-08 0.000257849

0.000234681 -3.84715e-05 -7.7532e-08
-3.84715e-05 0.000201185 -4.08713e-08
-7.7532e-08 -4.08713e-08 0.000202846

0.000332045 3.15525e-05 -4.26385e-08
3.15525e-05 0.000287603 3.89217e-08
-4.26385e-08 3.89217e-08 0.000323356

0.000336841 -3.37577e-05 -2.99202e-08
-3.37577e-05 0.000267174 1.85858e-07
-2.99202e-08 1.85858e-07 0.000302478

0.000240888 -3.24808e-05 -1.7406e-08
-3.24808e-05 0.00019911 8.48173e-08
-1.7406e-08 8.48173e-08 0.000204399

0.000302445 -5.49752e-05 -1.03316e-07
-5.49752e-05 0.000266088 -9.66459e-09
-1.03316e-07 -9.66459e-09 0.000286981

0.000272767 1.48722e-06 9.45809e-08
1.48722e-06 0.000335434 -3.23875e-08
9.45809e-08 -3.23875e-08 0.000314743

0.000245126 5.86292e-07 -1.26603e-07
5.86292e-07 0.000368279 -1.22264e-08
-1.26603e-07 -1.22264e-08 0.000316098

0.000260512 4.65741e-05 1.52258e-09
4.65741e-05 0.000264685 2.25113e-07
1.52258e-09 2.25113e-07 0.000253597

0.000260689 -3.87753e-05 1.3023e-08
-3.87753e-05 0.000206156 -2.45425e-07
1.3023e-08 -2.45425e-07 0.000218781

0.000303857 -5.67243e-05 6.5014e-08
-5.67243e-05 0.000324083 -1.94728e-09
6.5014e-08 -1.94728e-09 0.000331654

0.000257059 -5.07451e-05 6.15048e-09
-5.07451e-05 0.000282022 -1.36412e-07
6.15048e-09 -1.36412e-07 0.000253564

0.00025348 -5.10561e-05 6.34074e-08
-5.10561e-05 0.00027622 -5.79281e-08
6.34074e-08 -5.79281e-08 0.000252915

0.000329594 2.62362e-05 -2.86918e-08
2.62362e-05 0.000279823 5.19182e-08
-2.86918e-08 5.19182e-08 0.000304877

0.000390731 1.63964e-05 -1.10594e-07
1.63964e-05 0.000242404 5.23384e-08
-1.10594e-07 5.23384e-08 0.000350613

0.000383336 -2.63703e-05 -9.09263e-08
-2.63703e-05 0.000259587 1.37575e-07
-9.09263e-08 1.37575e-07 0.000347609

0.000236488 2.90182e-05 1.02118e-08
2.90182e-05 0.000303383 -1.56153e-07
1.02118e-08 -1.56153e-07 0.000259721

0.000220694 1.98441e-05 8.71005e-08
1.98441e-05 0.000312646 1.78981e-07
8.71005e-08 1.78981e-07 0.000262379

0.000195837 -4.41739e-06 -2.13901e-07
-4.41739e-06 0.000283872 1.43424e-09
-2.13901e-07 1.43424e-09 0.000226336

0.000186661 -5.46232e-06 1.27984e-08
-5.46232e-06 0.00028793 -1.06403e-08
1.27984e-08 -1.06403e-08 0.00022732

0.000285217 -3.7338e-06 1.52004e-07
-3.7338e-06 0.000189832 -2.58534e-09
1.52004e-07 -2.58534e-09 0.000222777

0.000275493 -4.59967e-05 1.03094e-07
-4.59967e-05 0.000248558 5.76087e-08
1.03094e-07 5.76087e-08 0.00025262

0.000372496 -3.41281e-05 -6.68256e-07
-3.41281e-05 0.000423464 1.40232e-07
-6.68256e-07 1.40232e-07 0.000380908

0.000470323 -1.2243e-05 -3.20507e-07
-1.2243e-05 0.000471565 -5.88449e-08
-3.20507e-07 -5.88449e-08 0.000377505

0.000288578 3.27722e-05 2.38625e-08
3.27722e-05 0.000234353 -3.01726e-08
2.38625e-08 -3.01726e-08 0.000253624

0.000313235 -2.23e-05 -1.30472e-07
-2.23e-05 0.00022668 2.10574e-08
-1.30472e-07 2.10574e-08 0.000260076

0.000243839 2.03135e-05 -9.77934e-08
2.03135e-05 0.000196433 1.06199e-07
-9.77934e-08 1.06199e-07 0.000206627

0.00026212 3.27575e-05 2.73272e-09
3.27575e-05 0.000331613 -6.36184e-08
2.73272e-09 -6.36184e-08 0.000313619

0.000370808 7.60639e-07 3.20074e-08
7.60639e-07 0.000253294 2.59895e-08
3.20074e-08 2.59895e-08 0.000312836

0.000301258 5.13329e-05 3.42125e-09
5.13329e-05 0.000361379 1.24041e-07
3.42125e-09 1.24041e-07 0.000344802

0.000269114 4.09064e-05 -5.07175e-08
4.09064e-05 0.000375358 -2.1813e-08
-5.07175e-08 -2.1813e-08 0.000347352

0.000232061 2.62323e-05 -8.32936e-08
2.62323e-05 0.00026023 -1.35294e-07
-8.32936e-08 -1.35294e-07 0.000229374

0.000250424 2.93676e-05 -9.61847e-08
2.93676e-05 0.000242072 -1.24488e-07
-9.61847e-08 -1.24488e-07 0.000226253

0.000292135 -6.16758e-05 1.67608e-07
-6.16758e-05 0.000352405 -1.14123e-07
1.67608e-07 -1.14123e-07 0.000329914

0.000246854 1.60389e-05 -2.45318e-09
1.60389e-05 0.000196528 -1.63087e-07
-2.45318e-09 -1.63087e-07 0.000208022

0.000280255 4.57834e-05 2.79419e-09
4.57834e-05 0.000325241 1.78191e-08
2.79419e-09 1.78191e-08 0.000339486

0.000283041 5.53919e-05 5.46881e-08
5.53919e-05 0.000334324 -3.99095e-08
5.46881e-08 -3.99095e-08 0.000309628

0.000393846 -8.88799e-07 -3.22599e-08
-8.88799e-07 0.000255129 3.03927e-08
-3.22599e-08 3.03927e-08 0.000335268

0.000292265 -4.1849e-05 4.51786e-08
-4.1849e-05 0.000326587 5.05788e-08
4.51786e-08 5.05788e-08 0.000338716

0.000294711 4.56646e-05 -5.43102e-08
4.56646e-05 0.000297844 -6.67111e-08
-5.43102e-08 -6.67111e-08 0.000292183

0.000230906 -2.19702e-05 1.13739e-07
-2.19702e-05 0.00029249 -1.85158e-07
1.13739e-07 -1.85158e-07 0.000240855

0.00021623 -2.11413e-05 -7.69357e-08
-2.11413e-05 0.000296199 4.0463e-08
-7.69357e-08 4.0463e-08 0.000241516

0.000288676 -1.57424e-05 1.95259e-07
-1.57424e-05 0.00022511 -9.3849e-08
1.95259e-07 -9.3849e-08 0.000236329

0.000275125 -4.14368e-05 1.0612e-07
-4.14368e-05 0.000280698 -2.67242e-08
1.0612e-07 -2.67242e-08 0.000261401

0.000245459 -2.09159e-06 -1.3103e-07
-2.09159e-06 0.000341348 7.68886e-08
-1.3103e-07 7.68886e-08 0.00028948

0.000272956 -2.58862e-07 9.36952e-08
-2.58862e-07 0.000329131 -1.46517e-08
9.36952e-08 -1.46517e-08 0.000287655

0.000225571 -4.44822e-05 4.03366e-08
-4.44822e-05 0.000246029 1.82279e-07
4.03366e-08 1.82279e-07 0.000217801

0.000213854 -4.32013e-05 -7.63563e-08
-4.32013e-05 0.000254299 6.68442e-08
-7.63563e-08 6.68442e-08 0.000219312

0.000392318 -2.40139e-06 -2.32515e-08
-2.40139e-06 0.000263229 1.67327e-08
-2.32515e-08 1.67327e-08 0.000335953

0.00039543 2.25974e-06 -9.13309e-08
2.25974e-06 0.000261203 -6.7043e-08
-9.13309e-08 -6.7043e-08 0.000335486

0.000279342 4.22766e-05 3.74765e-08
4.22766e-05 0.000320328 -7.847e-08
3.74765e-08 -7.847e-08 0.000318186

0.00026991 -3.57114e-05 7.47448e-08
-3.57114e-05 0.00036952 -1.58473e-07
7.47448e-08 -1.58473e-07 0.000346142

0.000326681 -5.48697e-05 -2.92482e-08
-5.48697e-05 0.000296013 5.19745e-08
-2.92482e-08 5.19745e-08 0.000321177

0.000347668 2.13688e-05 1.91778e-07
2.13688e-05 0.000324929 3.91551e-08
1.91778e-07 3.91551e-08 0.000348225

0.00035277 -6.30596e-06 -1.44488e-08
-6.30596e-06 0.000332645 1.64983e-08
-1.44488e-08 1.64983e-08 0.000347173

0.000338146 -2.27754e-05 -1.73437e-08
-2.27754e-05 0.000312983 8.7399e-08
-1.73437e-08 8.7399e-08 0.000321397

0.000336747 2.73994e-05 -5.90638e-08
2.73994e-05 0.000300323 1.3808e-07
-5.90638e-08 1.3808e-07 0.000322987

0.000157345 -2.34437e-05 1.41736e-07
-2.34437e-05 0.000106022 -7.03696e-08
1.41736e-07 -7.03696e-08 0.000169285

0.000249774 4.38885e-05 8.10024e-08
4.38885e-05 0.000277789 3.64194e-08
8.10024e-08 3.64194e-08 0.000254617

0.000121282 1.59304e-05 1.00875e-08
1.59304e-05 0.000155473 -6.59613e-08
1.00875e-08 -6.59613e-08 0.000169066

0.000291086 4.88667e-05 -3.15321e-08
4.88667e-05 0.00031862 -2.87072e-08
-3.15321e-08 -2.87072e-08 0.000309013

0.00023712 -3.43777e-05 5.33923e-08
-3.43777e-05 0.000311494 -6.4805e-09
5.33923e-08 -6.4805e-09 0.000262871

0.000221585 -3.09497e-05 -8.4538e-08
-3.09497e-05 0.000311188 6.00506e-08
-8.4538e-08 6.00506e-08 0.000263466

0.000387484 -1.00449e-05 -6.25272e-08
-1.00449e-05 0.000375302 3.51509e-07
-6.25272e-08 3.51509e-07 0.000373158

0.000368476 2.90754e-05 2.97869e-07
2.90754e-05 0.00040105 3.45155e-07
2.97869e-07 3.45155e-07 0.000373389

0.000308345 3.28142e-05 5.72916e-08
3.28142e-05 0.000283395 -6.08205e-08
5.72916e-08 -6.08205e-08 0.000294607

0.000335438 -3.60758e-06 -1.03568e-07
-3.60758e-06 0.000240934 3.67554e-08
-1.03568e-07 3.67554e-08 0.000277026

0.000275369 3.65757e-05 -7.47374e-09
3.65757e-05 0.000241284 -6.8762e-08
-7.47374e-09 -6.8762e-08 0.000251663

0.000256117 -2.08226e-05 -3.42461e-08
-2.08226e-05 0.000363792 -3.0301e-09
-3.42461e-08 -3.0301e-09 0.000319078

0.000280162 -3.47577e-05 -6.60908e-08
-3.47577e-05 0.00034244 5.97763e-08
-6.60908e-08 5.97763e-08 0.000317629

0.000291099 -6.30826e-05 1.33225e-07
-6.30826e-05 0.00036959 -1.3189e-08
1.33225e-07 -1.3189e-08 0.0003347

0.000308643 -3.51691e-05 4.69695e-08
-3.51691e-05 0.000295364 1.67348e-07
4.69695e-08 1.67348e-07 0.000293074

0.000290983 5.87628e-05 -5.23305e-08
5.87628e-05 0.000354811 -6.0028e-09
-5.23305e-08 -6.0028e-09 0.000334233

0.00033696 2.78049e-05 -1.6558e-08
2.78049e-05 0.000376781 -2.40469e-08
-1.6558e-08 -2.40469e-08 0.000354482

0.000341597 4.14971e-05 6.27489e-08
4.14971e-05 0.000362493 1.20163e-07
6.27489e-08 1.20163e-07 0.000354038

0.000283361 -5.54517e-05 -1.53167e-07
-5.54517e-05 0.00034811 7.59402e-08
-1.53167e-07 7.59402e-08 0.000315316

0.000289107 5.00405e-05 -3.81589e-08
5.00405e-05 0.000337563 -3.90309e-09
-3.81589e-08 -3.90309e-09 0.000314446

0.000253288 6.30749e-05 -1.42212e-08
6.30749e-05 0.000342628 4.62143e-08
-1.42212e-08 4.62143e-08 0.000338931

0.000227712 5.49164e-06 1.86111e-07
5.49164e-06 0.000338341 -9.49952e-08
1.86111e-07 -9.49952e-08 0.000281944

0.000244791 1.39987e-05 -7.15525e-08
1.39987e-05 0.00032195 7.49788e-08
-7.15525e-08 7.49788e-08 0.00027935

0.000303851 3.91233e-05 2.38021e-07
3.91233e-05 0.000297614 9.49907e-08
2.38021e-07 9.49907e-08 0.000311893

0.000274738 3.29601e-05 5.33799e-09
3.29601e-05 0.000271543 1.19838e-07
5.33799e-09 1.19838e-07 0.000263462

0.000250373 -3.48295e-05 9.26404e-08
-3.48295e-05 0.000329456 1.35541e-07
9.26404e-08 1.35541e-07 0.000298068

0.000301831 -5.93966e-05 -6.2992e-08
-5.93966e-05 0.000366713 2.95172e-08
-6.2992e-08 2.95172e-08 0.000342818

0.000175181 1.97185e-05 -8.32e-09
1.97185e-05 0.000202675 1.24986e-07
-8.32e-09 1.24986e-07 0.000178487

0.000197314 2.01153e-05 -7.6625e-09
2.01153e-05 0.00018104 1.24347e-07
-7.6625e-09 1.24347e-07 0.000178507

0.000233945 -4.44731e-05 -1.06393e-07
-4.44731e-05 0.000245721 4.90273e-08
-1.06393e-07 4.90273e-08 0.000223952

0.000303285 -4.05961e-05 1.17665e-07
-4.05961e-05 0.000308562 1.06902e-07
1.17665e-07 1.06902e-07 0.000309855

0.000345807 -1.2201e-05 -3.77781e-08
-1.2201e-05 0.000247214 9.77547e-10
-3.77781e-08 9.77547e-10 0.000298244

0.000408828 4.55948e-05 -4.98474e-07
4.55948e-05 0.000431092 -1.76789e-07
-4.98474e-07 -1.76789e-07 0.000381665

0.000448838 -4.73582e-05 1.46713e-07
-4.73582e-05 0.00038109 -5.75948e-07
1.46713e-07 -5.75948e-07 0.000381753

0.000281276 -6.05223e-05 -2.13827e-08
-6.05223e-05 0.000343655 1.40291e-07
-2.13827e-08 1.40291e-07 0.000312043

0.00037921 1.11498e-05 1.24327e-07
1.11498e-05 0.000352201 -1.00649e-07
1.24327e-07 -1.00649e-07 0.00036872

0.000385161 -4.6126e-05 2.30507e-07
-4.6126e-05 0.000386606 -4.40214e-08
2.30507e-07 -4.40214e-08 0.000366019

0.000343348 -1.59922e-05 -4.10853e-08
-1.59922e-05 0.00025374 6.29328e-08
-4.10853e-08 6.29328e-08 0.000313002

0.000263474 -6.30037e-05 -5.90676e-08
-6.30037e-05 0.00033657 -1.24175e-07
-5.90676e-08 -1.24175e-07 0.000337722

0.000187329 -3.8497e-05 2.37626e-07
-3.8497e-05 0.000202655 1.48185e-08
2.37626e-07 1.48185e-08 0.000186138

0.000198826 2.85158e-05 1.83746e-08
2.85158e-05 0.000197158 1.10825e-07
1.83746e-08 1.10825e-07 0.000186933

0.000184099 -2.29103e-05 4.23995e-09
-2.29103e-05 0.000239947 2.13756e-07
4.23995e-09 2.13756e-07 0.000197601

0.000189335 -2.49812e-05 2.16781e-07
-2.49812e-05 0.00024258 -2.30841e-07
2.16781e-07 -2.30841e-07 0.000201125

0.000243653 -1.93711e-05 -7.95613e-08
-1.93711e-05 0.000184651 -1.57285e-07
-7.95613e-08 -1.57285e-07 0.000196836

0.000245873 3.38408e-05 -2.12931e-07
3.38408e-05 0.000239504 -1.06696e-07
-2.12931e-07 -1.06696e-07 0.000226716

0.000288294 -6.70647e-05 1.404e-07
-6.70647e-05 0.000364065 -1.46911e-09
1.404e-07 -1.46911e-09 0.000333334

0.000162196 3.20392e-06 1.29103e-07
3.20392e-06 0.000231954 -1.65732e-07
1.29103e-07 -1.65732e-07 0.000186574

0.000227759 -1.02536e-05 7.3516e-08
-1.02536e-05 0.00016161 -7.81855e-08
7.3516e-08 -7.81855e-08 0.000187553

0.000348206 5.3861e-06 1.29113e-07
5.3861e-06 0.000417573 -1.40402e-07
1.29113e-07 -1.40402e-07 0.000364131

0.000354468 -2.73153e-05 1.0206e-08
-2.73153e-05 0.000380921 1.77849e-07
1.0206e-08 1.77849e-07 0.000365084

0.000358419 -3.18058e-05 1.51163e-07
-3.18058e-05 0.000293271 -1.59928e-07
1.51163e-07 -1.59928e-07 0.00032913

0.000370777 -2.03718e-06 -2.74869e-09
-2.03718e-06 0.000222041 -1.43633e-07
-2.74869e-09 -1.43633e-07 0.000338596

0.000211311 -3.35166e-05 -7.37116e-08
-3.35166e-05 0.000273516 4.43475e-08
-7.37116e-08 4.43475e-08 0.000234283

0.000222022 -3.3442e-05 9.31383e-08
-3.3442e-05 0.000277758 -2.0978e-07
9.31383e-08 -2.0978e-07 0.000235039

0.000349159 -1.66677e-06 -7.4972e-08
-1.66677e-06 0.000251315 -1.0698e-07
-7.4972e-08 -1.0698e-07 0.000314932

0.000263556 -4.61059e-05 6.32437e-09
-4.61059e-05 0.000331946 1.18665e-07
6.32437e-09 1.18665e-07 0.000297265

0.000380954 6.88405e-07 2.43628e-08
6.88405e-07 0.000359073 2.49111e-07
2.43628e-08 2.49111e-07 0.000365829

0.00036349 1.36964e-05 -2.14824e-07
1.36964e-05 0.000371727 -2.59029e-07
-2.14824e-07 -2.59029e-07 0.000366253

0.000336979 -4.3338e-05 1.14905e-07
-4.3338e-05 0.000306875 1.49077e-07
1.14905e-07 1.49077e-07 0.000325705

0.000285986 -4.42664e-05 -1.21268e-07
-4.42664e-05 0.000316314 8.57585e-08
-1.21268e-07 8.57585e-08 0.000315678

0.000358429 -3.10451e-05 1.38005e-07
-3.10451e-05 0.000258933 1.01083e-07
1.38005e-07 1.01083e-07 0.000322677

0.000270098 -3.98841e-05 1.77306e-08
-3.98841e-05 0.000328968 1.7726e-07
1.77306e-08 1.7726e-07 0.000313658

0.00014949 -7.41504e-05 8.04336e-08
-7.41504e-05 0.000157651 5.34079e-08
8.04336e-08 5.34079e-08 0.000156407

0.000250967 -1.70734e-05 4.14339e-08
-1.70734e-05 0.000320013 -3.30605e-08
4.14339e-08 -3.30605e-08 0.000280184

0.000233259 -1.27302e-05 -6.62136e-08
-1.27302e-05 0.000335367 9.97192e-08
-6.62136e-08 9.97192e-08 0.000281775

0.000334652 -6.611e-06 -2.12726e-08
-6.611e-06 0.000442298 -1.56309e-07
-2.12726e-08 -1.56309e-07 0.000365892

0.000357739 -7.33271e-06 6.72098e-09
-7.33271e-06 0.000376321 1.4192e-08
6.72098e-09 1.4192e-08 0.000367695

0.000397694 -4.19996e-06 -1.55141e-07
-4.19996e-06 0.000274218 1.63132e-08
-1.55141e-07 1.63132e-08 0.000346369

0.000389081 1.90158e-06 -3.44799e-08
1.90158e-06 0.000279945 2.09741e-09
-3.44799e-08 2.09741e-09 0.000346824

0.000341811 3.23881e-05 -1.58287e-07
3.23881e-05 0.000323034 1.59669e-08
-1.58287e-07 1.59669e-08 0.000345721

0.000354036 -5.86274e-05 5.00558e-08
-5.86274e-05 0.000317374 1.79096e-07
5.00558e-08 1.79096e-07 0.00034254

0.000377907 1.16074e-05 6.88391e-08
1.16074e-05 0.000371866 1.3533e-07
6.88391e-08 1.3533e-07 0.000364755

0.00039794 -2.09954e-05 2.46506e-07
-2.09954e-05 0.000366883 2.46563e-08
2.46506e-07 2.46563e-08 0.000362959

0.000407867 -2.37524e-05 2.93666e-07
-2.37524e-05 0.000383992 -5.6735e-07
2.93666e-07 -5.6735e-07 0.000378968

0.000400903 6.71516e-05 2.60447e-07
6.71516e-05 0.000428597 -2.21183e-07
2.60447e-07 -2.21183e-07 0.000379035

0.000304576 -6.04679e-05 -1.70837e-07
-6.04679e-05 0.000367987 4.81238e-08
-1.70837e-07 4.81238e-08 0.000345418

0.000288512 7.53325e-05 1.27556e-07
7.53325e-05 0.000337731 4.50151e-08
1.27556e-07 4.50151e-08 0.00034971

0.000310407 3.05171e-05 3.79748e-08
3.05171e-05 0.000261204 2.76299e-08
3.79748e-08 2.76299e-08 0.00028831

0.000255201 -2.57136e-05 -2.50329e-08
-2.57136e-05 0.000339333 5.84032e-08
-2.50329e-08 5.84032e-08 0.000300686

0.000278887 -3.91201e-05 -6.26252e-08
-3.91201e-05 0.00033496 8.00094e-08
-6.26252e-08 8.00094e-08 0.000299055

0.000311218 -3.18735e-05 -1.44616e-08
-3.18735e-05 0.000267854 -1.26892e-07
-1.44616e-08 -1.26892e-07 0.000287478

0.000278894 2.95381e-05 -7.94306e-08
2.95381e-05 0.000329019 7.12396e-08
-7.94306e-08 7.12396e-08 0.000297198

0.00025417 1.71671e-05 3.61438e-08
1.71671e-05 0.000342841 -1.84709e-07
3.61438e-08 -1.84709e-07 0.000300025

0.000282376 4.17937e-05 -1.62845e-07
4.17937e-05 0.000280929 -1.92162e-08
-1.62845e-07 -1.92162e-08 0.000283733

0.000313782 4.98334e-05 4.02128e-08
4.98334e-05 0.000356179 -1.27237e-07
4.02128e-08 -1.27237e-07 0.000347384

0.000311186 -6.67924e-05 -4.5824e-08
-6.67924e-05 0.000338244 7.41624e-08
-4.5824e-08 7.41624e-08 0.00034819

0.000285609 -5.1543e-05 -8.95721e-08
-5.1543e-05 0.000290347 1.43498e-07
-8.95721e-08 1.43498e-07 0.000281981

0.000360682 1.46731e-05 1.25481e-07
1.46731e-05 0.000296087 -2.21444e-08
1.25481e-07 -2.21444e-08 0.000335401

0.000471691 -2.37363e-05 -1.19559e-07
-2.37363e-05 0.000458907 7.22283e-08
-1.19559e-07 7.22283e-08 0.000376856

0.000384167 1.3902e-05 2.19535e-07
1.3902e-05 0.0003978 -1.77205e-07
2.19535e-07 -1.77205e-07 0.000380394

0.000303715 -5.10308e-05 -3.99369e-09
-5.10308e-05 0.000353682 1.73997e-08
-3.99369e-09 1.73997e-08 0.000327973

0.000336031 -5.08122e-05 9.12009e-08
-5.08122e-05 0.000282655 -1.81056e-07
9.12009e-08 -1.81056e-07 0.000317781

0.000388846 -4.0889e-06 -1.92259e-07
-4.0889e-06 0.0003341 -1.01742e-07
-1.92259e-07 -1.01742e-07 0.000356151

0.000187174 -3.54725e-05 5.58623e-08
-3.54725e-05 0.000201294 -2.76281e-07
5.58623e-08 -2.76281e-07 0.000180441

0.000204327 -3.14153e-05 1.56311e-07
-3.14153e-05 0.000183791 -1.48308e-07
1.56311e-07 -1.48308e-07 0.00018108

0.000398722 3.36823e-06 -6.19657e-08
3.36823e-06 0.000291427 1.32003e-07
-6.19657e-08 1.32003e-07 0.000351724

0.000383423 -2.35541e-06 -5.05284e-08
-2.35541e-06 0.000297789 2.0975e-08
-5.05284e-08 2.0975e-08 0.000352017

0.000395014 -7.95074e-07 -1.18321e-07
-7.95074e-07 0.000309965 7.8863e-08
-1.18321e-07 7.8863e-08 0.000359268

0.000309066 2.14422e-05 -5.30587e-08
2.14422e-05 0.000247769 -4.39075e-08
-5.30587e-08 -4.39075e-08 0.000265637

0.000325374 -3.26046e-05 6.14792e-08
-3.26046e-05 0.000350626 1.14602e-07
6.14792e-08 1.14602e-07 0.000337493

0.000325535 3.89451e-05 -1.25422e-07
3.89451e-05 0.000327234 -1.19966e-07
-1.25422e-07 -1.19966e-07 0.00033967

0.000442252 -3.53292e-05 9.06614e-09
-3.53292e-05 0.000361638 9.66698e-08
9.06614e-09 9.66698e-08 0.000381372

0.000444134 -3.58429e-06 -4.57696e-08
-3.58429e-06 0.000482211 1.88824e-07
-4.57696e-08 1.88824e-07 0.000377525

0.000282154 -5.72364e-05 -4.54137e-08
-5.72364e-05 0.000352182 6.99977e-10
-4.54137e-08 6.99977e-10 0.000324177

0.000330109 -4.01485e-05 -1.25545e-07
-4.01485e-05 0.000269665 -1.27441e-08
-1.25545e-07 -1.27441e-08 0.000299832

0.000364709 8.61933e-06 1.1199e-07
8.61933e-06 0.000332749 1.24188e-07
1.1199e-07 1.24188e-07 0.000349844

0.000374166 1.13014e-06 -1.47839e-07
1.13014e-06 0.000323886 -1.26982e-07
-1.47839e-07 -1.26982e-07 0.000349134

0.000283584 -2.27849e-05 -2.11739e-08
-2.27849e-05 0.000353133 -1.21614e-08
-2.11739e-08 -1.21614e-08 0.000330407

0.000281297 -4.20748e-05 8.73763e-08
-4.20748e-05 0.00033141 -1.41367e-07
8.73763e-08 -1.41367e-07 0.000336404

0.000161426 6.31311e-05 -5.96638e-08
6.31311e-05 0.000150629 5.34769e-08
-5.96638e-08 5.34769e-08 0.000157816

0.000326913 3.38051e-05 -1.01788e-07
3.38051e-05 0.000369182 1.46482e-07
-1.01788e-07 1.46482e-07 0.000354369

0.000327377 -4.39269e-05 -8.40597e-08
-4.39269e-05 0.000363296 -5.40162e-09
-8.40597e-08 -5.40162e-09 0.000353391

0.00026947 -4.00236e-05 -1.91983e-08
-4.00236e-05 0.000343959 -1.1561e-08
-1.91983e-08 -1.1561e-08 0.000327604

0.000313678 -2.6736e-05 -1.26797e-07
-2.6736e-05 0.000257906 -3.58091e-08
-1.26797e-07 -3.58091e-08 0.000267603

0.000331566 2.89839e-05 -3.90275e-08
2.89839e-05 0.000323015 9.48796e-08
-3.90275e-08 9.48796e-08 0.000329043

0.000341072 3.07009e-05 -1.72734e-07
3.07009e-05 0.00034624 7.03973e-08
-1.72734e-07 7.03973e-08 0.000347066

0.000361173 -4.75401e-05 -3.3837e-08
-4.75401e-05 0.000320951 -6.72437e-08
-3.3837e-08 -6.72437e-08 0.000345785

0.00036059 1.1912e-05 1.26248e-07
1.1912e-05 0.000259122 1.81451e-08
1.26248e-07 1.81451e-08 0.000328726

0.000380371 -4.91172e-06 -8.90942e-08
-4.91172e-06 0.00034779 -1.70708e-07
-8.90942e-08 -1.70708e-07 0.000362207

0.000395152 8.43708e-06 2.45621e-09
8.43708e-06 0.000329231 -1.882e-07
2.45621e-09 -1.882e-07 0.000362051

0.000375077 1.46807e-05 -2.91314e-08
1.46807e-05 0.00048054 -1.96201e-08
-2.91314e-08 -1.96201e-08 0.000374456

0.000371747 2.68972e-06 -1.6031e-07
2.68972e-06 0.000433391 2.0861e-07
-1.6031e-07 2.0861e-07 0.000377517

0.000161926 -1.57262e-05 1.65347e-08
-1.57262e-05 0.000120812 2.08939e-07
1.65347e-08 2.08939e-07 0.000169258

0.000107059 -1.03779e-05 -1.15802e-09
-1.03779e-05 0.000167661 -1.14889e-08
-1.15802e-09 -1.14889e-08 0.000169142

0.000303223 -5.04574e-05 1.21353e-07
-5.04574e-05 0.000363387 -1.69345e-07
1.21353e-07 -1.69345e-07 0.000334096

0.000302762 4.44108e-05 -5.89791e-08
4.44108e-05 0.000329976 -1.05485e-07
-5.89791e-08 -1.05485e-07 0.000337596

0.000290274 -6.71252e-05 -6.49023e-08
-6.71252e-05 0.000364043 2.73503e-08
-6.49023e-08 2.73503e-08 0.000332188

0.000151063 1.72747e-05 -8.6582e-08
1.72747e-05 0.000148106 -1.83994e-07
-8.6582e-08 -1.83994e-07 0.000165871

0.000156811 2.61631e-05 4.41444e-08
2.61631e-05 0.000139338 6.94855e-08
4.41444e-08 6.94855e-08 0.000166122

0.000315824 5.30111e-05 1.34879e-07
5.30111e-05 0.000494378 -7.52185e-07
1.34879e-07 -7.52185e-07 0.000382982

0.000370314 -4.38261e-05 2.69864e-08
-4.38261e-05 0.000452318 -6.84719e-07
2.69864e-08 -6.84719e-07 0.000383009

0.000314147 4.07101e-05 8.45627e-08
4.07101e-05 0.000315747 -1.17601e-08
8.45627e-08 -1.17601e-08 0.000323457

0.000281964 -4.8684e-05 -1.78184e-07
-4.8684e-05 0.000310783 -8.03219e-09
-1.78184e-07 -8.03219e-09 0.000289667

0.000303246 -4.8462e-05 7.02906e-08
-4.8462e-05 0.000340114 1.19187e-07
7.02906e-08 1.19187e-07 0.000328593

0.000304507 4.93545e-05 -6.60895e-08
4.93545e-05 0.000322094 -1.50817e-07
-6.60895e-08 -1.50817e-07 0.000331433

0.000283594 -5.62555e-05 -1.68211e-07
-5.62555e-05 0.000328009 -2.127e-08
-1.68211e-07 -2.127e-08 0.000306462

0.00027893 3.92579e-05 -1.50749e-07
3.92579e-05 0.000299486 -3.97677e-08
-1.50749e-07 -3.97677e-08 0.000291642

0.000182257 -2.04013e-05 -4.08523e-08
-2.04013e-05 0.000243577 -2.56867e-07
-4.08523e-08 -2.56867e-07 0.0002019

0.000192396 -1.7545e-05 -1.83939e-07
-1.7545e-05 0.000242247 1.62729e-07
-1.83939e-07 1.62729e-07 0.00020032

0.000245106 -1.47121e-05 -5.89026e-08
-1.47121e-05 0.00018757 -3.16104e-08
-5.89026e-08 -3.16104e-08 0.000198964

0.000279055 4.37799e-05 -1.01866e-08
4.37799e-05 0.000312466 1.6612e-07
-1.01866e-08 1.6612e-07 0.000308875

0.000163171 -2.36381e-06 -6.41921e-08
-2.36381e-06 0.000228798 -2.26759e-07
-6.41921e-08 -2.26759e-07 0.000187274

0.000225586 4.54948e-06 -6.69593e-08
4.54948e-06 0.000168881 -2.46873e-08
-6.69593e-08 -2.46873e-08 0.000186229

0.000317043 -4.5997e-05 8.00998e-08
-4.5997e-05 0.000360874 -1.60598e-07
8.00998e-08 -1.60598e-07 0.000345946

0.00032036 5.52295e-05 -2.52226e-08
5.52295e-05 0.000333501 -9.89607e-08
-2.52226e-08 -9.89607e-08 0.000348866

0.00032231 -3.64992e-05 1.34959e-07
-3.64992e-05 0.00036433 2.66917e-08
1.34959e-07 2.66917e-08 0.000348743

0.000322367 4.86954e-05 -4.61704e-08
4.86954e-05 0.000354691 -2.63464e-08
-4.61704e-08 -2.63464e-08 0.00035072

0.000141804 -3.21629e-05 6.88536e-08
-3.21629e-05 0.000146824 1.78429e-07
6.88536e-08 1.78429e-07 0.000163141

0.000140599 -3.21274e-05 -4.82e-08
-3.21274e-05 0.000150522 6.44193e-08
-4.82e-08 6.44193e-08 0.000163624

0.000303215 4.11191e-05 2.40954e-07
4.11191e-05 0.000310939 6.95341e-08
2.40954e-07 6.95341e-08 0.000318251

0.000302242 -4.41634e-05 1.15572e-07
-4.41634e-05 0.000334524 8.70862e-08
1.15572e-07 8.70862e-08 0.000315557

0.000367926 -1.24497e-05 -4.69126e-08
-1.24497e-05 0.000419583 -1.30153e-07
-4.69126e-08 -1.30153e-07 0.000368382

0.000367798 -1.39323e-05 -1.63629e-07
-1.39323e-05 0.000379318 1.87973e-07
-1.63629e-07 1.87973e-07 0.000370585

0.000311425 -4.79015e-05 -1.226e-07
-4.79015e-05 0.00038383 1.86148e-07
-1.226e-07 1.86148e-07 0.000352483

0.000300584 5.12331e-05 1.06668e-07
5.12331e-05 0.000370566 1.1021e-07
1.06668e-07 1.1021e-07 0.00035522

0.000381082 -6.80971e-07 -2.52704e-08
-6.80971e-07 0.000323452 -2.03502e-07
-2.52704e-08 -2.03502e-07 0.000361326

0.000364594 1.06894e-05 -2.33326e-07
1.06894e-05 0.000335375 -9.11041e-08
-2.33326e-07 -9.11041e-08 0.000361727

0.00031246 4.598e-05 1.14882e-07
4.598e-05 0.000344217 4.99982e-08
1.14882e-07 4.99982e-08 0.000335197

0.000319565 -4.82693e-05 1.07497e-08
-4.82693e-05 0.000321057 -6.88432e-08
1.07497e-08 -6.88432e-08 0.000333521

0.000352469 -1.94992e-05 4.20742e-08
-1.94992e-05 0.000417278 -1.31135e-07
4.20742e-08 -1.31135e-07 0.000372389

0.00039765 1.95248e-05 9.78511e-09
1.95248e-05 0.000373439 9.48262e-08
9.78511e-09 9.48262e-08 0.000373157

0.000425006 -4.61955e-05 -3.50837e-08
-4.61955e-05 0.000388606 2.15434e-07
-3.50837e-08 2.15434e-07 0.000370586

0.000350618 -8.45224e-06 1.13421e-07
-8.45224e-06 0.00045913 1.17471e-08
1.13421e-07 1.17471e-08 0.000370429

0.000385086 1.28153e-05 2.03438e-07
1.28153e-05 0.000371581 4.71736e-08
2.03438e-07 4.71736e-08 0.000372374

0.000359865 5.32998e-08 -2.82346e-07
5.32998e-08 0.000416799 4.96719e-07
-2.82346e-07 4.96719e-07 0.000379031

0.000407507 -1.47676e-05 -1.66864e-07
-1.47676e-05 0.000356944 -6.20888e-08
-1.66864e-07 -6.20888e-08 0.000372367

0.0004042 -5.79503e-06 4.1482e-07
-5.79503e-06 0.000376382 4.76201e-07
4.1482e-07 4.76201e-07 0.000378972

0.000372907 -2.58671e-05 1.2309e-06
-2.58671e-05 0.000398333 -1.84748e-06
1.2309e-06 -1.84748e-06 0.000375801

0.000387361 6.62333e-05 -5.86755e-07
6.62333e-05 0.000453135 -8.50172e-07
-5.86755e-07 -8.50172e-07 0.00037632

0.000495755 2.11795e-05 4.52508e-08
2.11795e-05 0.000478042 -6.60532e-08
4.52508e-08 -6.60532e-08 0.000383062

0.000553834 -3.40944e-05 -2.27623e-07
-3.40944e-05 0.000311731 6.57902e-07
-2.27623e-07 6.57902e-07 0.00038332

0.000389144 -3.41634e-05 -1.28563e-07
-3.41634e-05 0.00038618 2.13177e-07
-1.28563e-07 2.13177e-07 0.000372787

0.000348932 -2.46709e-05 -9.5458e-08
-2.46709e-05 0.00039124 1.91254e-07
-9.5458e-08 1.91254e-07 0.000363986

0.000406062 5.77664e-05 1.66175e-07
5.77664e-05 0.0003845 2.91112e-07
1.66175e-07 2.91112e-07 0.000373533

0.000354718 3.37615e-05 -5.97526e-08
3.37615e-05 0.000375222 1.41503e-07
-5.97526e-08 1.41503e-07 0.000365395

0.000399019 6.61944e-05 2.68784e-07
6.61944e-05 0.000457473 -1.84039e-07
2.68784e-07 -1.84039e-07 0.000380446

0.000400753 -7.70869e-06 -7.42984e-09
-7.70869e-06 0.000382233 7.74124e-07
-7.42984e-09 7.74124e-07 0.000380518

0.000348526 -2.17988e-05 -6.90915e-08
-2.17988e-05 0.000381884 -1.31822e-07
-6.90915e-08 -1.31822e-07 0.000367159

0.000386706 -1.29036e-05 -1.20556e-07
-1.29036e-05 0.000383721 -1.4785e-07
-1.20556e-07 -1.4785e-07 0.00037441

0.000358226 5.58963e-05 -7.09475e-08
5.58963e-05 0.00039093 4.33015e-09
-7.09475e-08 4.33015e-09 0.000367984

0.000366686 3.67202e-05 3.52811e-07
3.67202e-05 0.000402053 -1.27641e-07
3.52811e-07 -1.27641e-07 0.000374711

0.000278251 1.32599e-05 2.45314e-08
1.32599e-05 0.000369972 7.05783e-08
2.45314e-08 7.05783e-08 0.000329942

0.000345591 -5.1476e-06 -1.14825e-07
-5.1476e-06 0.000371774 1.49784e-08
-1.14825e-07 1.49784e-08 0.000351177

0.000347768 1.23236e-05 2.30918e-08
1.23236e-05 0.000245706 -3.76416e-08
2.30918e-08 -3.76416e-08 0.000295165

0.000333943 3.02159e-06 -9.9359e-10
3.02159e-06 0.000239543 -5.18434e-08
-9.9359e-10 -5.18434e-08 0.000274209

0.000277727 1.50341e-05 4.23545e-08
1.50341e-05 0.000399655 -1.36718e-07
4.23545e-08 -1.36718e-07 0.000349131

0.00034702 3.72896e-06 -1.14488e-07
3.72896e-06 0.000384882 1.89227e-08
-1.14488e-07 1.89227e-08 0.000374396

0.000335922 -4.77958e-06 -5.84957e-09
-4.77958e-06 0.000240566 -1.38823e-08
-5.84957e-09 -1.38823e-08 0.000276709

0.000384069 -2.85154e-06 3.54552e-09
-2.85154e-06 0.000272132 -6.0069e-08
3.54552e-09 -6.0069e-08 0.000334109

0.00019802 -2.8776e-05 1.37231e-08
-2.8776e-05 0.000261034 2.95961e-08
1.37231e-08 2.95961e-08 0.00021758

0.000222569 4.61761e-05 4.45704e-08
4.61761e-05 0.000272033 -7.22061e-08
4.45704e-08 -7.22061e-08 0.000225505

0.000257525 4.37911e-05 1.73886e-08
4.37911e-05 0.000209754 9.16789e-08
1.73886e-08 9.16789e-08 0.000221729

0.000356685 5.33347e-05 1.05042e-07
5.33347e-05 0.000388791 -3.34024e-08
1.05042e-07 -3.34024e-08 0.00036716

0.000330706 -1.76526e-05 -2.20192e-08
-1.76526e-05 0.000385987 -8.74738e-08
-2.20192e-08 -8.74738e-08 0.000355186

0.000305795 4.51533e-05 -1.43459e-07
4.51533e-05 0.000328851 -1.01954e-08
-1.43459e-07 -1.01954e-08 0.000304969

0.000329278 4.01741e-05 6.59631e-08
4.01741e-05 0.000382918 -5.71591e-08
6.59631e-08 -5.71591e-08 0.000362566

0.000273028 -1.43256e-05 -3.60389e-08
-1.43256e-05 0.000403258 -7.89502e-08
-3.60389e-08 -7.89502e-08 0.000347798

0.00035373 -8.95437e-06 -2.26158e-08
-8.95437e-06 0.000255871 -8.60102e-09
-2.26158e-08 -8.60102e-09 0.000313171

0.000239864 2.10215e-05 7.68139e-09
2.10215e-05 0.000305327 -2.45955e-09
7.68139e-09 -2.45955e-09 0.000245517

0.000212211 -5.49904e-06 1.08322e-08
-5.49904e-06 0.000298104 2.40457e-08
1.08322e-08 2.40457e-08 0.000238683

0.000295146 2.13827e-05 9.62172e-08
2.13827e-05 0.000223012 4.0898e-08
9.62172e-08 4.0898e-08 0.000239815

0.000306045 -2.23607e-05 9.17822e-08
-2.23607e-05 0.000230881 2.90551e-08
9.17822e-08 2.90551e-08 0.00025853

0.000254358 3.89309e-05 7.15919e-09
3.89309e-05 0.000315415 -6.81245e-08
7.15919e-09 -6.81245e-08 0.000279827

0.000303238 -2.98252e-05 7.64526e-08
-2.98252e-05 0.000324711 7.78246e-08
7.64526e-08 7.78246e-08 0.000295037

0.000351959 -1.44107e-05 2.87436e-08
-1.44107e-05 0.00024571 -2.77477e-08
2.87436e-08 -2.77477e-08 0.000299151

0.00021196 2.8911e-05 6.10799e-08
2.8911e-05 0.000244521 -4.14554e-08
6.10799e-08 -4.14554e-08 0.000201215

0.000377191 3.16696e-06 -4.39896e-08
3.16696e-06 0.000262649 3.33478e-09
-4.39896e-08 3.33478e-09 0.000326832

0.000234208 3.13157e-05 1.23226e-08
3.13157e-05 0.000203105 8.87981e-08
1.23226e-08 8.87981e-08 0.00019923

0.000331097 2.65771e-06 -6.2574e-08
2.65771e-06 0.000401212 -9.59331e-08
-6.2574e-08 -9.59331e-08 0.000356212

0.000375031 1.83971e-05 -7.61815e-08
1.83971e-05 0.000392053 3.38129e-08
-7.61815e-08 3.38129e-08 0.000377162

0.000395234 -4.71755e-05 1.19231e-07
-4.71755e-05 0.000400272 -8.40258e-08
1.19231e-07 -8.40258e-08 0.000377859

0.00041447 2.06735e-05 2.66683e-07
2.06735e-05 0.000381425 -1.02805e-07
2.66683e-07 -1.02805e-07 0.00037789

0.000291612 -6.52195e-06 6.85938e-08
-6.52195e-06 0.000218226 4.123e-08
6.85938e-08 4.123e-08 0.000232042

0.000291574 5.5186e-05 -3.7303e-08
5.5186e-05 0.000321881 -9.43036e-08
-3.7303e-08 -9.43036e-08 0.000301723

0.000367131 8.08498e-06 4.02071e-08
8.08498e-06 0.000356591 -5.62698e-08
4.02071e-08 -5.62698e-08 0.000355998

0.000355567 -2.52872e-05 -9.27674e-08
-2.52872e-05 0.000350693 2.95205e-08
-9.27674e-08 2.95205e-08 0.000358452

0.000394305 -3.17241e-06 1.20865e-07
-3.17241e-06 0.000263176 -3.94486e-09
1.20865e-07 -3.94486e-09 0.00033508

0.000253534 4.5306e-05 4.06401e-08
4.5306e-05 0.000299882 -1.12754e-07
4.06401e-08 -1.12754e-07 0.000277087

0.000287938 -4.1674e-05 -4.0476e-08
-4.1674e-05 0.000320311 -7.80512e-08
-4.0476e-08 -7.80512e-08 0.000291619

0.000303382 -2.94235e-05 8.00372e-08
-2.94235e-05 0.000254664 -4.90411e-08
8.00372e-08 -4.90411e-08 0.000265824

0.000384603 -6.91591e-06 5.56608e-09
-6.91591e-06 0.000254246 -9.47558e-08
5.56608e-09 -9.47558e-08 0.000328025

0.000269462 5.41389e-05 5.39755e-08
5.41389e-05 0.000323486 -6.50109e-08
5.39755e-08 -6.50109e-08 0.000278366

0.00025058 -3.70546e-05 -2.99485e-08
-3.70546e-05 0.000298543 -1.26245e-07
-2.99485e-08 -1.26245e-07 0.000273861

0.000274937 4.95803e-05 -1.29837e-08
4.95803e-05 0.000327279 -1.03123e-08
-1.29837e-08 -1.03123e-08 0.000282468

0.000246328 -2.99186e-05 6.64883e-08
-2.99186e-05 0.000318769 -2.26951e-08
6.64883e-08 -2.26951e-08 0.000277519

0.000348388 -2.46834e-05 2.49961e-08
-2.46834e-05 0.000368969 8.76773e-08
2.49961e-08 8.76773e-08 0.000357863

0.000269487 3.44329e-05 -4.07073e-10
3.44329e-05 0.000357503 1.84542e-07
-4.07073e-10 1.84542e-07 0.00032928

0.000269978 -4.30743e-05 -2.44022e-07
-4.30743e-05 0.000252558 -7.69882e-08
-2.44022e-07 -7.69882e-08 0.000250002

0.000168363 -3.77765e-05 -4.80522e-08
-3.77765e-05 0.000162896 7.87169e-08
-4.80522e-08 7.87169e-08 0.000164946

0.000152395 -4.12099e-05 -3.72579e-08
-4.12099e-05 0.00017337 1.88523e-07
-3.72579e-08 1.88523e-07 0.000164392

0.000317951 6.45079e-05 6.20561e-08
6.45079e-05 0.000385882 -1.71289e-08
6.20561e-08 -1.71289e-08 0.000355539

0.000274703 -4.23074e-05 1.82304e-07
-4.23074e-05 0.000375346 -1.01209e-08
1.82304e-07 -1.01209e-08 0.000347749

0.000156298 -8.55068e-06 -5.17327e-08
-8.55068e-06 0.000156365 -5.74067e-08
-5.17327e-08 -5.74067e-08 0.000172218

0.000159214 -9.18471e-06 8.8351e-08
-9.18471e-06 0.000165676 8.53002e-08
8.8351e-08 8.53002e-08 0.000173023

0.000386343 3.65053e-05 1.48653e-07
3.65053e-05 0.000347078 -2.64522e-08
1.48653e-07 -2.64522e-08 0.000360525

0.000415188 -2.8536e-05 -5.0823e-09
-2.8536e-05 0.000360043 1.26676e-08
-5.0823e-09 1.26676e-08 0.000387779

0.000354872 -1.3529e-06 4.12776e-09
-1.3529e-06 0.0002612 1.03492e-09
4.12776e-09 1.03492e-09 0.000327925

0.000381981 5.19012e-05 1.26738e-07
5.19012e-05 0.000346413 1.27775e-07
1.26738e-07 1.27775e-07 0.000360599

0.000413187 -3.70957e-05 -4.86127e-11
-3.70957e-05 0.000338689 4.80923e-08
-4.86127e-11 4.80923e-08 0.000383814

0.000253942 3.69301e-05 5.2308e-09
3.69301e-05 0.000330717 -9.23049e-08
5.2308e-09 -9.23049e-08 0.000300421

0.000302921 -2.87206e-05 8.4328e-08
-2.87206e-05 0.000346794 -2.08232e-08
8.4328e-08 -2.08232e-08 0.000319573

0.000411562 1.82485e-05 -4.98854e-08
1.82485e-05 0.000356944 -6.20888e-08
-4.98854e-08 -6.20888e-08 0.000372312

0.000388562 -2.32528e-05 9.76624e-08
-2.32528e-05 0.000371581 4.71736e-08
9.76624e-08 4.71736e-08 0.000372342

0.000351301 5.58704e-05 -9.30869e-08
5.58704e-05 0.000313174 -8.00424e-09
-9.30869e-08 -8.00424e-09 0.00034042

0.000381391 -4.40015e-05 8.94226e-08
-4.40015e-05 0.000323445 -1.27324e-07
8.94226e-08 -1.27324e-07 0.000360406

0.000252494 -2.96552e-05 -1.35055e-07
-2.96552e-05 0.000205071 -5.56018e-08
-1.35055e-07 -5.56018e-08 0.000213813

0.000348246 -1.91465e-06 2.32841e-09
-1.91465e-06 0.000444543 -4.06742e-08
2.32841e-09 -4.06742e-08 0.000370077

0.000392313 1.11369e-05 9.33316e-08
1.11369e-05 0.000423327 -5.35882e-08
9.33316e-08 -5.35882e-08 0.000405736

0.000178445 -5.42729e-06 6.30802e-08
-5.42729e-06 0.000234071 -3.97838e-08
6.30802e-08 -3.97838e-08 0.000193046

0.000231079 -6.6685e-06 -1.94804e-07
-6.6685e-06 0.000184013 -1.60155e-08
-1.94804e-07 -1.60155e-08 0.000192028

0.000257632 3.02236e-05 -1.03881e-07
3.02236e-05 0.00035625 1.62547e-07
-1.03881e-07 1.62547e-07 0.000321431

0.000318148 -1.79716e-05 -4.55136e-09
-1.79716e-05 0.000367482 9.39563e-08
-4.55136e-09 9.39563e-08 0.000344276

0.000471085 -1.23063e-05 1.45316e-07
-1.23063e-05 0.000500749 2.17246e-07
1.45316e-07 2.17246e-07 0.000381566

0.000496198 -3.52598e-05 -2.32747e-07
-3.52598e-05 0.000392203 -3.89672e-07
-2.32747e-07 -3.89672e-07 0.000413582

0.000350443 4.9973e-05 -6.96025e-08
4.9973e-05 0.000279216 -4.88187e-08
-6.96025e-08 -4.88187e-08 0.000325035

0.000367814 -3.24918e-05 -1.18882e-07
-3.24918e-05 0.000285351 8.64859e-08
-1.18882e-07 8.64859e-08 0.000337955

0.000289672 8.68338e-07 6.99527e-08
8.68338e-07 0.000208941 3.1809e-08
6.99527e-08 3.1809e-08 0.000229726

0.000335512 1.59772e-06 -2.14105e-08
1.59772e-06 0.000249792 -9.24698e-09
-2.14105e-08 -9.24698e-09 0.000288945

0.000311021 2.42522e-05 -4.40601e-08
2.42522e-05 0.000230036 -4.06221e-08
-4.40601e-08 -4.06221e-08 0.000253714

0.000369249 8.69675e-06 -1.80428e-10
8.69675e-06 0.000310011 1.2184e-07
-1.80428e-10 1.2184e-07 0.000349309

0.000339404 -1.55638e-05 -1.46032e-07
-1.55638e-05 0.000445785 -2.16531e-07
-1.46032e-07 -2.16531e-07 0.000380652

0.000389969 9.36091e-06 -2.42721e-07
9.36091e-06 0.000397195 1.33524e-07
-2.42721e-07 1.33524e-07 0.000380698

0.000256022 4.17062e-05 2.52427e-08
4.17062e-05 0.000272501 -7.08256e-08
2.52427e-08 -7.08256e-08 0.000235612

0.000295608 -3.65004e-05 -6.56746e-09
-3.65004e-05 0.000276116 3.61712e-08
-6.56746e-09 3.61712e-08 0.000289977

0.000342461 3.96959e-05 -9.38905e-08
3.96959e-05 0.00026784 -6.83771e-08
-9.38905e-08 -6.83771e-08 0.000309015

0.000387126 1.71103e-05 3.18498e-08
1.71103e-05 0.000420728 -3.86327e-08
3.18498e-08 -3.86327e-08 0.000403425

0.00037358 2.45075e-05 7.06351e-08
2.45075e-05 0.000455898 -2.40588e-08
7.06351e-08 -2.40588e-08 0.00037443

0.000358823 -2.12683e-05 -7.09075e-08
-2.12683e-05 0.000321237 1.27563e-07
-7.09075e-08 1.27563e-07 0.000352414

0.000330187 3.27627e-05 5.7887e-08
3.27627e-05 0.000370667 8.08935e-08
5.7887e-08 8.08935e-08 0.000341675

0.00027414 -5.70454e-06 -3.20958e-08
-5.70454e-06 0.000373024 -1.15465e-08
-3.20958e-08 -1.15465e-08 0.000328996

0.000368746 2.44197e-05 4.17715e-08
2.44197e-05 0.000259055 -5.51945e-08
4.17715e-08 -5.51945e-08 0.00033789

0.000377597 -4.95629e-06 -3.93689e-08
-4.95629e-06 0.00025674 2.83981e-08
-3.93689e-08 2.83981e-08 0.000344314

0.000276118 -3.21711e-05 -8.6057e-08
-3.21711e-05 0.000254972 3.73412e-08
-8.6057e-08 3.73412e-08 0.000239761

0.000381094 4.43148e-05 2.23038e-07
4.43148e-05 0.000291814 1.23268e-07
2.23038e-07 1.23268e-07 0.000349461

0.000397029 -2.81112e-05 -9.33249e-09
-2.81112e-05 0.000284792 7.21581e-08
-9.33249e-09 7.21581e-08 0.000362908

0.000351512 -2.18254e-05 -2.19741e-08
-2.18254e-05 0.000279346 -6.05923e-10
-2.19741e-08 -6.05923e-10 0.000318369

0.000364869 3.20545e-05 4.35831e-08
3.20545e-05 0.000283925 -6.4574e-08
4.35831e-08 -6.4574e-08 0.000337607

0.000372471 -1.62402e-05 -2.78205e-08
-1.62402e-05 0.000287215 9.1752e-08
-2.78205e-08 9.1752e-08 0.000349146

0.000346291 -1.37987e-05 -4.81918e-08
-1.37987e-05 0.0002703 1.41024e-07
-4.81918e-08 1.41024e-07 0.000307832

0.000299267 5.79352e-05 9.00392e-08
5.79352e-05 0.000327658 -6.1216e-13
9.00392e-08 -6.1216e-13 0.000335473

0.000378228 -5.02455e-05 5.87417e-08
-5.02455e-05 0.000353518 1.1964e-08
5.87417e-08 1.1964e-08 0.000367683

0.000297077 3.92548e-05 -1.52362e-07
3.92548e-05 0.000283902 4.62506e-08
-1.52362e-07 4.62506e-08 0.000267186

0.000356509 -3.62477e-05 7.87308e-08
-3.62477e-05 0.000383718 -1.35646e-08
7.87308e-08 -1.35646e-08 0.000377738

0.000281354 4.04119e-05 -5.00914e-08
4.04119e-05 0.000337906 9.09306e-08
-5.00914e-08 9.09306e-08 0.000339571

0.000311994 3.60051e-05 -2.00738e-08
3.60051e-05 0.000232942 -1.29533e-08
-2.00738e-08 -1.29533e-08 0.000266199

0.000326613 -3.16826e-05 7.81495e-08
-3.16826e-05 0.000294447 -1.32648e-07
7.81495e-08 -1.32648e-07 0.000324518

0.000345134 1.32785e-05 6.03596e-08
1.32785e-05 0.000277445 7.89181e-08
6.03596e-08 7.89181e-08 0.000302156

0.000269283 5.11602e-05 5.49122e-08
5.11602e-05 0.000278805 -4.43014e-08
5.49122e-08 -4.43014e-08 0.000259132

0.000305557 4.11352e-05 -1.41028e-07
4.11352e-05 0.000282668 5.37686e-08
-1.41028e-07 5.37686e-08 0.000289667

0.000297968 1.63266e-05 -9.17791e-08
1.63266e-05 0.000362285 3.11713e-09
-9.17791e-08 3.11713e-09 0.000333053

0.00024448 4.75416e-06 -8.33113e-08
4.75416e-06 0.000370163 1.50687e-08
-8.33113e-08 1.50687e-08 0.000318221

0.000276132 -3.14741e-05 -8.62591e-08
-3.14741e-05 0.000212716 4.23248e-08
-8.62591e-08 4.23248e-08 0.000229119

0.000286336 -5.75492e-05 -5.05263e-08
-5.75492e-05 0.00033234 1.80305e-07
-5.05263e-08 1.80305e-07 0.000337097

0.000301782 6.27326e-05 -6.01672e-08
6.27326e-05 0.000361911 2.34424e-08
-6.01672e-08 2.34424e-08 0.000334305

0.000289402 -4.61509e-05 -5.18582e-08
-4.61509e-05 0.000293884 1.63539e-08
-5.18582e-08 1.63539e-08 0.000269036

0.000256206 5.55428e-05 4.9376e-08
5.55428e-05 0.000285008 -3.9947e-08
4.9376e-08 -3.9947e-08 0.000257971

0.000333938 -2.57814e-05 -9.82754e-08
-2.57814e-05 0.000277175 3.11492e-08
-9.82754e-08 3.11492e-08 0.000305569

0.000384064 -6.82311e-06 -5.96924e-08
-6.82311e-06 0.000279945 2.09741e-09
-5.96924e-08 2.09741e-09 0.00034785

0.000395292 1.89323e-06 1.37206e-07
1.89323e-06 0.000274218 1.63132e-08
1.37206e-07 1.63132e-08 0.000346444

0.000291563 -4.35058e-05 -4.08371e-08
-4.35058e-05 0.000299538 -1.24777e-07
-4.08371e-08 -1.24777e-07 0.000295042

0.000212383 8.73304e-06 -4.3766e-08
8.73304e-06 0.000300107 -2.03141e-08
-4.3766e-08 -2.03141e-08 0.000236828

0.000187935 7.82357e-06 1.78466e-08
7.82357e-06 0.00029241 2.20061e-08
1.78466e-08 2.20061e-08 0.000229365

0.000288778 7.89e-06 6.76058e-08
7.89e-06 0.000198098 -4.14558e-08
6.76058e-08 -4.14558e-08 0.000231593

0.000257356 4.60355e-05 5.37207e-09
4.60355e-05 0.000246651 1.2532e-08
5.37207e-09 1.2532e-08 0.000232038

0.000301223 -4.49027e-05 1.7947e-09
-4.49027e-05 0.000256663 -4.54867e-08
1.7947e-09 -4.54867e-08 0.000267254

0.0003794 5.18116e-05 4.59191e-07
5.18116e-05 0.000443513 9.68825e-08
4.59191e-07 9.68825e-08 0.000407632

0.000467738 -1.36114e-05 -2.30388e-07
-1.36114e-05 0.000470605 7.13996e-08
-2.30388e-07 7.13996e-08 0.000379164

0.000322652 -1.52709e-05 1.12389e-07
-1.52709e-05 0.000234765 6.68474e-08
1.12389e-07 6.68474e-08 0.00027196

0.000268043 4.12264e-05 6.76354e-08
4.12264e-05 0.000328311 -4.12669e-08
6.76354e-08 -4.12669e-08 0.000315871

0.00033716 -4.5877e-05 1.04958e-08
-4.5877e-05 0.000351956 3.95564e-08
1.04958e-08 3.95564e-08 0.000341069

0.000357565 2.1187e-05 -1.09772e-09
2.1187e-05 0.000260302 -8.65243e-08
-1.09772e-09 -8.65243e-08 0.000324603

0.000253827 4.27447e-05 6.77554e-09
4.27447e-05 0.000325106 -4.77709e-09
6.77554e-09 -4.77709e-09 0.000271213

0.0002205 -1.87625e-05 2.55582e-08
-1.87625e-05 0.000314465 -1.07905e-08
2.55582e-08 -1.07905e-08 0.000264068

0.000270744 4.34371e-05 5.782e-08
4.34371e-05 0.000374667 -1.4304e-07
5.782e-08 -1.4304e-07 0.000349128

0.000370669 -1.79808e-05 1.82152e-08
-1.79808e-05 0.00039636 -1.44775e-07
1.82152e-08 -1.44775e-07 0.000391154

0.000291406 4.36102e-05 6.18786e-08
4.36102e-05 0.000326134 -1.01113e-07
6.18786e-08 -1.01113e-07 0.000340995

0.000372949 -4.41956e-05 3.20884e-08
-4.41956e-05 0.00037813 1.07667e-07
3.20884e-08 1.07667e-07 0.000381906

0.000385383 3.4863e-06 -5.91506e-08
3.4863e-06 0.000220135 2.66838e-08
-5.91506e-08 2.66838e-08 0.000349452

0.000280171 5.5994e-05 -6.9024e-08
5.5994e-05 0.000248987 -4.20216e-08
-6.9024e-08 -4.20216e-08 0.000256735

0.000302133 6.66463e-05 -1.01363e-08
6.66463e-05 0.000380792 1.61068e-07
-1.01363e-08 1.61068e-07 0.000340697

0.000281937 -4.9991e-05 1.14887e-08
-4.9991e-05 0.000326533 -5.4848e-09
1.14887e-08 -5.4848e-09 0.000342665

0.000278685 4.7015e-05 -5.88103e-08
4.7015e-05 0.000271915 9.32992e-08
-5.88103e-08 9.32992e-08 0.000267445

0.000233862 -2.8759e-05 6.48996e-08
-2.8759e-05 0.000260882 3.29497e-08
6.48996e-08 3.29497e-08 0.000227449

0.000284356 -4.30065e-05 -6.71823e-08
-4.30065e-05 0.000313746 -8.59184e-08
-6.71823e-08 -8.59184e-08 0.000313535

0.000253814 -9.08898e-06 5.38492e-08
-9.08898e-06 0.000307299 -7.27484e-08
5.38492e-08 -7.27484e-08 0.000253047

0.000218536 2.4406e-05 2.53856e-08
2.4406e-05 0.000301395 2.60558e-08
2.53856e-08 2.60558e-08 0.000244183

0.00029741 -9.68275e-06 -5.01076e-09
-9.68275e-06 0.000233873 1.06564e-07
-5.01076e-09 1.06564e-07 0.000246737

0.000300548 -4.0599e-05 -5.61848e-09
-4.0599e-05 0.00029088 7.2649e-08
-5.61848e-09 7.2649e-08 0.000278201

0.00024436 6.54904e-06 -8.44494e-08
6.54904e-06 0.000346431 3.79677e-08
-8.44494e-08 3.79677e-08 0.000291602

0.000297286 9.13507e-06 -9.46892e-08
9.13507e-06 0.000348379 -5.538e-08
-9.46892e-08 -5.538e-08 0.000303483

0.000246285 -3.79075e-05 2.72069e-08
-3.79075e-05 0.000257425 9.82233e-08
2.72069e-08 9.82233e-08 0.000229438

0.000221359 4.75999e-05 6.71772e-08
4.75999e-05 0.000254216 -1.86153e-08
6.71772e-08 -1.86153e-08 0.00022359

0.000361638 9.64101e-06 -1.52331e-08
9.64101e-06 0.000264223 -4.56151e-08
-1.52331e-08 -4.56151e-08 0.000347119

0.000364734 -1.46573e-07 -6.07563e-08
-1.46573e-07 0.00025914 2.41768e-08
-6.07563e-08 2.41768e-08 0.000351781

0.000293441 4.82448e-05 4.38485e-08
4.82448e-05 0.00031731 -3.08609e-08
4.38485e-08 -3.08609e-08 0.00032043

0.000344568 -4.03742e-05 1.46934e-08
-4.03742e-05 0.000355353 4.13928e-08
1.46934e-08 4.13928e-08 0.000346883

0.000313235 6.58262e-05 -1.31625e-07
6.58262e-05 0.00038737 -8.44953e-08
-1.31625e-07 -8.44953e-08 0.000353504

0.000263345 -3.76531e-05 4.28551e-08
-3.76531e-05 0.00037347 3.96959e-08
4.28551e-08 3.96959e-08 0.000348713

0.00031094 4.35698e-05 1.4918e-07
4.35698e-05 0.000327228 8.71931e-08
1.4918e-07 8.71931e-08 0.00032445

0.000252252 2.7174e-05 -1.06094e-07
2.7174e-05 0.000204319 2.25181e-08
-1.06094e-07 2.25181e-08 0.00020835

0.000263796 -2.49999e-05 -7.79088e-09
-2.49999e-05 0.000324345 8.17788e-08
-7.79088e-09 8.17788e-08 0.000277734

0.000223507 3.33423e-05 -1.25512e-08
3.33423e-05 0.000314958 -6.90489e-08
-1.25512e-08 -6.90489e-08 0.00026608

0.000379224 3.90927e-05 3.38394e-08
3.90927e-05 0.00031415 -1.17922e-08
3.38394e-08 -1.17922e-08 0.000350833

0.000400609 -2.28749e-05 1.16115e-07
-2.28749e-05 0.000324375 -1.26733e-07
1.16115e-07 -1.26733e-07 0.000370635

0.000337966 -3.76219e-05 1.15418e-07
-3.76219e-05 0.000301233 1.04329e-07
1.15418e-07 1.04329e-07 0.000313051

0.000350798 4.72128e-05 -7.48116e-08
4.72128e-05 0.000295832 1.08635e-08
-7.48116e-08 1.08635e-08 0.000326819

0.000367524 -3.28697e-05 -1.18648e-07
-3.28697e-05 0.000315293 8.91924e-08
-1.18648e-07 8.91924e-08 0.000343402

0.00016834 -1.22397e-05 5.93898e-08
-1.22397e-05 0.000111845 -2.87249e-08
5.93898e-08 -2.87249e-08 0.000175121

0.00010882 -1.50133e-05 1.53622e-07
-1.50133e-05 0.000161709 1.53031e-08
1.53622e-07 1.53031e-08 0.000174412

0.000430159 5.2635e-05 4.50206e-08
5.2635e-05 0.000381761 1.0136e-07
4.50206e-08 1.0136e-07 0.000373529

0.000451827 -3.72751e-05 -1.5979e-07
-3.72751e-05 0.000351022 -1.55035e-07
-1.5979e-07 -1.55035e-07 0.000397756

0.000318405 5.12109e-05 -4.80106e-08
5.12109e-05 0.000282115 -4.61586e-09
-4.80106e-08 -4.61586e-09 0.000299312

0.000255103 2.46059e-05 -1.37333e-07
2.46059e-05 0.00019579 1.11584e-07
-1.37333e-07 1.11584e-07 0.000207308

0.000295203 4.60343e-05 -1.69916e-08
4.60343e-05 0.000366161 1.18503e-07
-1.69916e-08 1.18503e-07 0.000329787

0.000249846 -1.7697e-05 1.68403e-08
-1.7697e-05 0.000367106 1.30335e-08
1.68403e-08 1.30335e-08 0.000321464

0.000252605 -4.37987e-05 -6.10523e-08
-4.37987e-05 0.000272919 1.28874e-07
-6.10523e-08 1.28874e-07 0.000252973

0.000335533 2.83267e-05 3.68825e-08
2.83267e-05 0.000376366 -1.41672e-07
3.68825e-08 -1.41672e-07 0.00035622

0.000376752 -1.61824e-05 6.31374e-08
-1.61824e-05 0.000396569 -1.41838e-07
6.31374e-08 -1.41838e-07 0.000390616

0.000298862 3.47376e-05 -1.25682e-07
3.47376e-05 0.000238882 1.28766e-07
-1.25682e-07 1.28766e-07 0.000251562

0.000332294 1.87094e-05 -2.1112e-08
1.87094e-05 0.000245793 -1.23856e-08
-2.1112e-08 -1.23856e-08 0.000287396

0.0002608 6.43121e-05 -5.28886e-08
6.43121e-05 0.000342416 9.06767e-08
-5.28886e-08 9.06767e-08 0.000340605

0.000384733 -3.29277e-05 -3.43138e-08
-3.29277e-05 0.000382882 -3.2992e-09
-3.43138e-08 -3.2992e-09 0.000386344

0.000275126 5.31317e-05 -1.63543e-08
5.31317e-05 0.000350536 -1.25029e-07
-1.63543e-08 -1.25029e-07 0.000305271

0.000246074 -2.87467e-05 5.41588e-08
-2.87467e-05 0.000334841 1.47488e-07
5.41588e-08 1.47488e-07 0.000300482

0.000319949 5.83395e-05 -3.64898e-08
5.83395e-05 0.000293257 5.31441e-09
-3.64898e-08 5.31441e-09 0.000315389

0.000353968 -4.9964e-05 9.67497e-08
-4.9964e-05 0.000310616 1.20455e-07
9.67497e-08 1.20455e-07 0.000332851

0.000233417 1.61748e-05 -4.97884e-08
1.61748e-05 0.000339792 2.16463e-08
-4.97884e-08 2.16463e-08 0.000284871

0.000280342 -1.12744e-06 -5.67726e-08
-1.12744e-06 0.000342471 -3.75254e-08
-5.67726e-08 -3.75254e-08 0.000298387

0.000176218 -1.91753e-05 7.91147e-08
-1.91753e-05 0.000206802 1.40823e-07
7.91147e-08 1.40823e-07 0.000178465

0.000201782 -1.83346e-05 -6.20258e-08
-1.83346e-05 0.000181997 -2.92323e-09
-6.20258e-08 -2.92323e-09 0.000178243

0.000343524 3.0449e-05 -9.46045e-08
3.0449e-05 0.000255702 -5.5501e-08
-9.46045e-08 -5.5501e-08 0.000308301

0.000499486 6.85626e-06 8.19011e-08
6.85626e-06 0.000428473 6.46222e-08
8.19011e-08 6.46222e-08 0.000380491

0.000496546 -3.20693e-05 -3.23428e-07
-3.20693e-05 0.000374829 -1.71421e-07
-3.23428e-07 -1.71421e-07 0.000409326

0.000353072 -4.39325e-05 -2.56739e-08
-4.39325e-05 0.000400764 -5.3668e-08
-2.56739e-08 -5.3668e-08 0.000370319

0.000360366 1.32415e-05 -5.26086e-08
1.32415e-05 0.000380828 -1.74914e-07
-5.26086e-08 -1.74914e-07 0.000369799

0.000372686 -2.79802e-06 -4.53155e-08
-2.79802e-06 0.000254859 1.78407e-09
-4.53155e-08 1.78407e-09 0.000311237

0.000297015 7.16289e-05 1.18535e-07
7.16289e-05 0.000378461 -5.45029e-08
1.18535e-07 -5.45029e-08 0.000340154

0.00025012 -6.76939e-05 -6.37754e-08
-6.76939e-05 0.000343132 -1.15983e-07
-6.37754e-08 -1.15983e-07 0.000340985

0.000191571 3.5434e-05 8.18352e-08
3.5434e-05 0.000206629 6.09999e-08
8.18352e-08 6.09999e-08 0.000189371

0.000210841 3.71986e-05 3.71436e-08
3.71986e-05 0.000205346 2.92079e-08
3.71436e-08 2.92079e-08 0.000191056

0.000196484 -1.35544e-05 5.6353e-08
-1.35544e-05 0.000252826 7.28011e-08
5.6353e-08 7.28011e-08 0.000206849

0.000190399 2.85039e-05 7.68919e-08
2.85039e-05 0.000246188 -9.24057e-09
7.68919e-08 -9.24057e-09 0.000203423

0.000250209 -7.31652e-06 8.03317e-09
-7.31652e-06 0.000190217 -4.33628e-08
8.03317e-09 -4.33628e-08 0.00020481

0.000173754 1.67394e-05 5.75624e-08
1.67394e-05 0.000240646 -4.2547e-08
5.75624e-08 -4.2547e-08 0.000193358

0.00023021 1.97883e-05 -2.01331e-08
1.97883e-05 0.000171205 -2.35678e-08
-2.01331e-08 -2.35678e-08 0.000192097

0.000345024 4.78565e-06 4.43339e-08
4.78565e-06 0.000417857 4.83321e-08
4.43339e-08 4.83321e-08 0.000366143

0.000367365 3.75385e-05 7.78106e-08
3.75385e-05 0.000408714 2.23354e-08
7.78106e-08 2.23354e-08 0.000381356

0.000367966 6.3753e-06 -6.06709e-08
6.3753e-06 0.000306752 6.42278e-08
-6.06709e-08 6.42278e-08 0.000330508

0.000393768 -1.01153e-06 1.09107e-07
-1.01153e-06 0.000255129 3.03927e-08
1.09107e-07 3.03927e-08 0.000334787

0.000242191 -2.24535e-05 4.80536e-08
-2.24535e-05 0.000291969 -7.97321e-08
4.80536e-08 -7.97321e-08 0.000247767

0.000217839 3.41382e-05 6.65902e-08
3.41382e-05 0.00027895 -2.36007e-08
6.65902e-08 -2.36007e-08 0.000238813

0.000372447 -1.93787e-06 -3.01838e-08
-1.93787e-06 0.000252337 -7.64215e-08
-3.01838e-08 -7.64215e-08 0.000312723

0.000406497 2.94032e-05 8.17822e-08
2.94032e-05 0.000359867 1.44682e-07
8.17822e-08 1.44682e-07 0.000367338

0.00042533 -2.08607e-05 -2.52159e-07
-2.08607e-05 0.000349133 -4.61799e-08
-2.52159e-07 -4.61799e-08 0.000389662

0.00033027 2.84105e-05 1.33625e-07
2.84105e-05 0.000338304 9.62037e-08
1.33625e-07 9.62037e-08 0.000328655

0.000282316 -4.70022e-05 -1.49626e-08
-4.70022e-05 0.000321132 1.58967e-07
-1.49626e-08 1.58967e-07 0.000320826

0.000291781 6.03198e-05 -3.44301e-08
6.03198e-05 0.000361886 3.57264e-08
-3.44301e-08 3.57264e-08 0.000319645

0.000368349 6.24339e-06 -6.44365e-08
6.24339e-06 0.000267695 2.74559e-08
-6.44365e-08 2.74559e-08 0.000323196

0.000257045 4.31927e-05 -3.05168e-08
4.31927e-05 0.000244699 1.49894e-07
-3.05168e-08 1.49894e-07 0.000228617

0.000261936 -3.54696e-05 1.98963e-08
-3.54696e-05 0.000335555 1.74583e-07
1.98963e-08 1.74583e-07 0.000316999

0.000294095 6.43304e-05 1.05738e-07
6.43304e-05 0.000356917 -3.94791e-08
1.05738e-07 -3.94791e-08 0.000319091

0.000154033 7.55642e-05 2.08256e-07
7.55642e-05 0.000159873 -1.66871e-07
2.08256e-07 -1.66871e-07 0.000158023

0.000227803 -4.26592e-06 6.90412e-08
-4.26592e-06 0.000340212 1.03546e-07
6.90412e-08 1.03546e-07 0.000283379

0.000265679 2.42677e-05 5.01391e-08
2.42677e-05 0.000341217 -1.17257e-07
5.01391e-08 -1.17257e-07 0.000292308

0.000332914 -6.34136e-06 -4.84906e-08
-6.34136e-06 0.000444267 -1.78513e-07
-4.84906e-08 -1.78513e-07 0.000367654

0.000378471 2.94416e-05 -6.67375e-08
2.94416e-05 0.000403301 8.9193e-08
-6.67375e-08 8.9193e-08 0.000391072

0.000391032 2.44791e-05 4.35944e-08
2.44791e-05 0.000252583 3.15391e-08
4.35944e-08 3.15391e-08 0.000354884

0.000403797 -1.69495e-05 -3.19068e-08
-1.69495e-05 0.000237325 -1.3109e-08
-3.19068e-08 -1.3109e-08 0.000364293

0.000333875 3.29203e-05 -7.82776e-08
3.29203e-05 0.000341866 -7.95257e-09
-7.82776e-08 -7.95257e-09 0.000344816

0.000328701 -4.90381e-05 -1.56438e-07
-4.90381e-05 0.000339329 1.13583e-08
-1.56438e-07 1.13583e-08 0.000348081

0.000353172 2.7174e-05 -9.95706e-08
2.7174e-05 0.000393761 2.66685e-08
-9.95706e-08 2.66685e-08 0.00036645

0.00035706 -3.87458e-05 -2.84287e-08
-3.87458e-05 0.000372753 -6.53835e-08
-2.84287e-08 -6.53835e-08 0.000367547

0.000449553 5.08968e-05 9.56262e-08
5.08968e-05 0.000423492 6.38192e-08
9.56262e-08 6.38192e-08 0.00037817

0.000474516 -3.46391e-05 2.1585e-07
-3.46391e-05 0.000374603 -1.39874e-07
2.1585e-07 -1.39874e-07 0.00040855

0.000305 7.11296e-05 -1.50501e-08
7.11296e-05 0.000337488 -1.17887e-07
-1.50501e-08 -1.17887e-07 0.000350688

0.000416251 -3.79451e-05 -3.0172e-08
-3.79451e-05 0.000373346 1.21243e-07
-3.0172e-08 1.21243e-07 0.000396345

0.000318907 5.23416e-05 -3.00094e-08
5.23416e-05 0.000264639 -7.774e-08
-3.00094e-08 -7.774e-08 0.000294722

0.000295684 4.53629e-05 2.15776e-08
4.53629e-05 0.000352649 -1.46953e-07
2.15776e-08 -1.46953e-07 0.000309989

0.00025018 -1.80389e-05 3.46082e-08
-1.80389e-05 0.000346576 1.35324e-07
3.46082e-08 1.35324e-07 0.000302465

0.000321973 -5.28736e-05 -1.51481e-08
-5.28736e-05 0.000296249 8.07659e-08
-1.51481e-08 8.07659e-08 0.000301815

0.000252199 -2.86989e-05 -1.27417e-07
-2.86989e-05 0.000240947 -1.68206e-07
-1.27417e-07 -1.68206e-07 0.000224477

0.000338831 -3.84907e-05 9.72158e-08
-3.84907e-05 0.000274171 1.91425e-08
9.72158e-08 1.91425e-08 0.000304017

0.000291529 5.77414e-05 -1.52595e-07
5.77414e-05 0.000280832 9.69271e-09
-1.52595e-07 9.69271e-09 0.000288111

0.000286118 -7.76184e-05 1.19813e-07
-7.76184e-05 0.000344051 -4.0693e-08
1.19813e-07 -4.0693e-08 0.00035247

0.000310229 6.17412e-05 1.41337e-08
6.17412e-05 0.000377262 1.68114e-07
1.41337e-08 1.68114e-07 0.00035009

0.000363797 -1.36201e-05 1.71807e-07
-1.36201e-05 0.000302559 -9.96481e-08
1.71807e-07 -9.96481e-08 0.000335254

0.000469478 -2.25357e-05 -1.58795e-07
-2.25357e-05 0.000457975 -7.06611e-08
-1.58795e-07 -7.06611e-08 0.000378579

0.000400549 1.95902e-05 -4.43618e-07
1.95902e-05 0.000433951 -9.3162e-08
-4.43618e-07 -9.3162e-08 0.000401792

0.000330613 2.38751e-05 1.36781e-07
2.38751e-05 0.000299366 8.45026e-10
1.36781e-07 8.45026e-10 0.000321036

0.000396659 -9.40278e-06 1.1083e-07
-9.40278e-06 0.000319951 7.86104e-08
1.1083e-07 7.86104e-08 0.000357237

0.00019963 -2.65996e-05 7.52474e-08
-2.65996e-05 0.000217052 -1.06573e-07
7.52474e-08 -1.06573e-07 0.000188062

0.000219276 -2.58669e-05 1.30496e-07
-2.58669e-05 0.000188674 -3.80787e-08
1.30496e-07 -3.80787e-08 0.000188135

0.000393067 7.82224e-06 -2.75144e-08
7.82224e-06 0.000290813 1.1984e-07
-2.75144e-08 1.1984e-07 0.000357508

0.000402529 1.49067e-06 3.99514e-08
1.49067e-06 0.000281245 6.92228e-08
3.99514e-08 6.92228e-08 0.000370587

0.000383807 5.83097e-07 -1.74836e-08
5.83097e-07 0.000333827 1.46994e-07
-1.74836e-08 1.46994e-07 0.00035839

0.000318204 -2.07506e-05 -2.88034e-09
-2.07506e-05 0.00035069 -7.76938e-08
-2.88034e-09 -7.76938e-08 0.000321054

0.000257568 2.68616e-05 -1.05656e-07
2.68616e-05 0.000342306 -1.99925e-08
-1.05656e-07 -1.99925e-08 0.000302978

0.000312213 4.26137e-05 -2.10602e-08
4.26137e-05 0.000253523 -7.07447e-08
-2.10602e-08 -7.07447e-08 0.00027281

0.000353173 4.80653e-05 -1.14693e-07
4.80653e-05 0.000318664 1.64192e-07
-1.14693e-07 1.64192e-07 0.000341639

0.000382583 -3.7828e-05 1.16211e-07
-3.7828e-05 0.000346144 8.60874e-08
1.16211e-07 8.60874e-08 0.000365761

0.0004099 6.45074e-06 2.81055e-07
6.45074e-06 0.000383557 -1.22955e-08
2.81055e-07 -1.22955e-08 0.000382783

0.000395458 -5.34775e-05 6.94361e-08
-5.34775e-05 0.000465769 2.0438e-07
6.94361e-08 2.0438e-07 0.000382526

0.000335998 2.10325e-05 1.03379e-07
2.10325e-05 0.000292341 -2.35502e-08
1.03379e-07 -2.35502e-08 0.000301529

0.000381592 3.29879e-05 2.30933e-07
3.29879e-05 0.000324543 -2.23792e-07
2.30933e-07 -2.23792e-07 0.000353202

0.000397137 -2.53107e-05 -1.71918e-08
-2.53107e-05 0.000323122 -2.68629e-07
-1.71918e-08 -2.68629e-07 0.000370347

0.000277754 -2.10695e-05 1.76178e-07
-2.10695e-05 0.000358303 -9.77574e-08
1.76178e-07 -9.77574e-08 0.000332828

0.000318961 5.86612e-05 4.77646e-08
5.86612e-05 0.000372234 1.6353e-07
4.77646e-08 1.6353e-07 0.000339057

0.000305281 7.43045e-05 -1.32004e-07
7.43045e-05 0.000378976 -8.39803e-08
-1.32004e-07 -8.39803e-08 0.00034077

0.000274989 -4.48563e-05 -7.48335e-08
-4.48563e-05 0.000334749 -1.14123e-07
-7.48335e-08 -1.14123e-07 0.000339303

0.000171396 8.56933e-05 -6.18194e-10
8.56933e-05 0.000172939 -5.70078e-08
-6.18194e-10 -5.70078e-08 0.000163488

0.0003225 4.59719e-05 9.21458e-08
4.59719e-05 0.000390596 9.23571e-09
9.21458e-08 9.23571e-09 0.000356124

0.000304435 -5.23387e-05 1.1218e-07
-5.23387e-05 0.000371201 -5.61913e-08
1.1218e-07 -5.61913e-08 0.000358068

0.000259983 -4.0655e-05 -3.40733e-08
-4.0655e-05 0.000347601 -1.64942e-07
-3.40733e-08 -1.64942e-07 0.000330346

0.000293632 6.4049e-05 6.62651e-08
6.4049e-05 0.000371292 1.57934e-07
6.62651e-08 1.57934e-07 0.000333079

0.000325252 -2.81247e-05 1.20063e-07
-2.81247e-05 0.00026626 1.97546e-09
1.20063e-07 1.97546e-09 0.000281834

0.000326795 -3.40288e-05 7.88271e-08
-3.40288e-05 0.000320251 -1.44735e-07
7.88271e-08 -1.44735e-07 0.000331307

0.000327694 3.77376e-05 -3.28327e-08
3.77376e-05 0.000364254 -1.36833e-07
-3.28327e-08 -1.36833e-07 0.000348291

0.000327938 -5.08599e-05 -1.07153e-07
-5.08599e-05 0.000336428 1.97145e-07
-1.07153e-07 1.97145e-07 0.00035047

0.000363796 -1.33299e-05 1.71418e-07
-1.33299e-05 0.000267374 5.69325e-08
1.71418e-07 5.69325e-08 0.000327488

0.000392832 1.38348e-05 -8.55864e-08
1.38348e-05 0.000356384 -1.68797e-07
-8.55864e-08 -1.68797e-07 0.000365275

0.000406922 -1.44839e-05 4.37825e-08
-1.44839e-05 0.000331514 5.0184e-08
4.37825e-08 5.0184e-08 0.000382247

0.000372738 1.56516e-05 -2.90667e-07
1.56516e-05 0.000480206 6.32845e-08
-2.90667e-07 6.32845e-08 0.000376187

0.000386341 2.10914e-05 -1.72759e-07
2.10914e-05 0.000451659 1.81954e-07
-1.72759e-07 1.81954e-07 0.000400016

0.000163357 1.65566e-05 1.02668e-08
1.65566e-05 0.00012001 -9.84704e-08
1.02668e-08 -9.84704e-08 0.000171054

0.000122719 1.62281e-05 1.60444e-07
1.62281e-05 0.000170132 -2.10674e-08
1.60444e-07 -2.10674e-08 0.000170849

0.000322066 4.74081e-05 1.86348e-08
4.74081e-05 0.000322723 7.97747e-08
1.86348e-08 7.97747e-08 0.000339266

0.000374747 -4.82772e-05 -7.79392e-08
-4.82772e-05 0.000362261 -1.4074e-07
-7.79392e-08 -1.4074e-07 0.000369552

0.000161557 3.23166e-05 -7.80451e-10
3.23166e-05 0.000157995 -5.87458e-08
-7.80451e-10 -5.87458e-08 0.000171935

0.000155791 3.5034e-05 1.29661e-07
3.5034e-05 0.000157548 -3.67329e-08
1.29661e-07 -3.67329e-08 0.000172014

0.000469119 -1.3248e-05 1.14139e-07
-1.3248e-05 0.000431664 2.26105e-07
1.14139e-07 2.26105e-07 0.000408478

0.000467201 -7.67157e-06 -3.7276e-07
-7.67157e-06 0.000481517 4.77679e-07
-3.7276e-07 4.77679e-07 0.000381521

0.000306573 -4.61979e-05 1.16483e-07
-4.61979e-05 0.000314205 -1.12614e-07
1.16483e-07 -1.12614e-07 0.000326887

0.000326193 5.98602e-05 2.08164e-08
5.98602e-05 0.000313694 9.36866e-08
2.08164e-08 9.36866e-08 0.000333541

0.00037591 -4.98799e-05 -9.61915e-08
-4.98799e-05 0.000335417 -2.43351e-08
-9.61915e-08 -2.43351e-08 0.000358545

0.000291183 5.21505e-05 -7.02137e-08
5.21505e-05 0.000301125 -1.32246e-07
-7.02137e-08 -1.32246e-07 0.00029487

0.000327677 -4.13653e-05 -1.01059e-07
-4.13653e-05 0.000318979 -6.74196e-08
-1.01059e-07 -6.74196e-08 0.000311823

0.00020773 -7.87344e-06 -3.06766e-08
-7.87344e-06 0.000255074 4.92933e-08
-3.06766e-08 4.92933e-08 0.000208959

0.000183731 2.20365e-05 2.35023e-08
2.20365e-05 0.000247967 -2.35372e-09
2.35023e-08 -2.35372e-09 0.000203827

0.000251618 -3.46443e-06 6.87951e-09
-3.46443e-06 0.000195929 -4.86504e-08
6.87951e-09 -4.86504e-08 0.000206375

0.000291152 5.51594e-05 3.45792e-08
5.51594e-05 0.000309912 1.96282e-08
3.45792e-08 1.96282e-08 0.000311574

0.000340068 -5.47816e-05 -2.53843e-08
-5.47816e-05 0.00033187 -1.76843e-07
-2.53843e-08 -1.76843e-07 0.000332846

0.000164019 3.77003e-06 -2.58539e-09
3.77003e-06 0.000232434 -3.34641e-08
-2.58539e-09 -3.34641e-08 0.000188612

0.000229682 -3.51516e-07 -2.04192e-07
-3.51516e-07 0.000172256 5.89889e-08
-2.04192e-07 5.89889e-08 0.000187839

0.000349573 5.63793e-05 -2.10988e-07
5.63793e-05 0.000325163 3.54093e-08
-2.10988e-07 3.54093e-08 0.000350003

0.000402061 -4.03262e-05 8.89921e-08
-4.03262e-05 0.000358167 -1.73009e-07
8.89921e-08 -1.73009e-07 0.00038236

0.000348989 5.50932e-05 -2.14223e-07
5.50932e-05 0.000341107 4.66234e-08
-2.14223e-07 4.66234e-08 0.000351978

0.000397398 -4.92371e-05 1.51652e-07
-4.92371e-05 0.000352427 4.42304e-08
1.51652e-07 4.42304e-08 0.000379954

0.000147686 3.31617e-05 2.24018e-07
3.31617e-05 0.000148497 4.15818e-08
2.24018e-07 4.15818e-08 0.000164704

0.000147195 3.05061e-05 6.25841e-08
3.05061e-05 0.000152731 -1.78487e-07
6.25841e-08 -1.78487e-07 0.000164255

0.000320925 5.32585e-05 -4.14457e-08
5.32585e-05 0.000306933 4.90162e-08
-4.14457e-08 4.90162e-08 0.000320892

0.000354956 -4.40933e-05 6.67008e-08
-4.40933e-05 0.000337907 -1.41268e-07
6.67008e-08 -1.41268e-07 0.000342638

0.000383213 3.43025e-05 -1.44993e-07
3.43025e-05 0.000408283 9.36178e-09
-1.44993e-07 9.36178e-09 0.000390671

0.00036573 -1.10024e-05 -2.8994e-07
-1.10024e-05 0.000419626 6.77969e-08
-2.8994e-07 6.77969e-08 0.000370197

0.000318927 4.48692e-05 -1.13604e-07
4.48692e-05 0.000365706 1.89819e-07
-1.13604e-07 1.89819e-07 0.000355903

0.000407504 -5.08692e-05 -5.25419e-08
-5.08692e-05 0.000377918 5.13984e-08
-5.25419e-08 5.13984e-08 0.00039493

0.000404641 3.98266e-05 1.29184e-07
3.98266e-05 0.000324097 -2.87332e-07
1.29184e-07 -2.87332e-07 0.000363981

0.000424625 -2.60352e-05 -2.59994e-07
-2.60352e-05 0.000313371 -1.17475e-07
-2.59994e-07 -1.17475e-07 0.000383007

0.000313944 5.43187e-05 6.77467e-08
5.43187e-05 0.000363731 -1.38427e-07
6.77467e-08 -1.38427e-07 0.000335864

0.000300219 -4.54476e-05 -3.89753e-08
-4.54476e-05 0.000336595 1.98151e-07
-3.89753e-08 1.98151e-07 0.000339304

0.000366019 3.27862e-05 7.99163e-08
3.27862e-05 0.000443129 4.27456e-08
7.99163e-08 4.27456e-08 0.000389745

0.000382792 3.79545e-05 1.87353e-07
3.79545e-05 0.000394773 2.21059e-07
1.87353e-07 2.21059e-07 0.000374851

0.00039569 -6.72449e-05 -3.42586e-08
-6.72449e-05 0.000393674 -6.13855e-08
-3.42586e-08 -6.13855e-08 0.000375308

0.000347524 -9.47699e-06 6.2533e-08
-9.47699e-06 0.000459414 -1.28116e-07
6.2533e-08 -1.28116e-07 0.00037236

0.000430266 3.96859e-05 2.12814e-08
3.96859e-05 0.000374126 -8.92006e-08
2.12814e-08 -8.92006e-08 0.000373457

0.0004656 7.8871e-06 -2.74966e-07
7.8871e-06 0.000402721 1.84946e-07
-2.74966e-07 1.84946e-07 0.000378353

0.000450826 -3.68135e-05 1.17732e-07
-3.68135e-05 0.000340421 -4.89419e-09
1.17732e-07 -4.89419e-09 0.000393961

0.000477029 -1.30538e-05 8.25889e-10
-1.30538e-05 0.000361956 -1.1308e-07
8.25889e-10 -1.1308e-07 0.000402814

0.000407146 4.50729e-05 -6.01068e-07
4.50729e-05 0.000438893 -9.8675e-07
-6.01068e-07 -9.8675e-07 0.000375604

0.000528146 -3.07505e-05 6.70639e-07
-3.07505e-05 0.000495917 -1.81028e-07
6.70639e-07 -1.81028e-07 0.000381871

0.000515181 -3.28266e-05 1.15933e-06
-3.28266e-05 0.000384981 6.65735e-07
1.15933e-06 6.65735e-07 0.000417142

0.000482966 -3.9086e-05 -1.71166e-07
-3.9086e-05 0.000385545 2.71328e-07
-1.71166e-07 2.71328e-07 0.000417779

0.000429165 4.46417e-05 1.12136e-07
4.46417e-05 0.000386996 9.43182e-08
1.12136e-07 9.43182e-08 0.000373039

0.000389213 2.04077e-05 1.74541e-07
2.04077e-05 0.000372419 1.35642e-07
1.74541e-07 1.35642e-07 0.000365465

0.000434895 2.29268e-05 1.07398e-07
2.29268e-05 0.000465233 1.16264e-07
1.07398e-07 1.16264e-07 0.000379479

0.000479039 -3.2168e-05 9.60547e-08
-3.2168e-05 0.000373595 -1.33722e-07
9.60547e-08 -1.33722e-07 0.00041274

0.000475509 -3.8574e-05 1.54119e-07
-3.8574e-05 0.000389967 1.3516e-07
1.54119e-07 1.3516e-07 0.000413901

0.000432322 -2.62827e-05 -1.5454e-07
-2.62827e-05 0.000386286 3.22207e-08
-1.5454e-07 3.22207e-08 0.00040326

0.000394514 5.28948e-05 1.62508e-07
5.28948e-05 0.00037261 -1.17961e-08
1.62508e-07 -1.17961e-08 0.000368111

0.000436407 2.55286e-05 5.42522e-08
2.55286e-05 0.000385592 2.19184e-08
5.42522e-08 2.19184e-08 0.000374376

0.000434711 -3.99428e-05 -1.66916e-07
-3.99428e-05 0.000362328 1.8387e-07
-1.66916e-07 1.8387e-07 0.000398515

0.000454895 -2.29137e-05 -1.18662e-07
-2.29137e-05 0.000370978 1.98898e-07
-1.18662e-07 1.98898e-07 0.000402644

0.000418137 4.18529e-06 -3.51674e-08
4.18529e-06 0.000420617 -1.53253e-07
-3.51674e-08 -1.53253e-07 0.000430675

0.000454978 -2.33339e-06 -1.27313e-08
-2.33339e-06 0.0004385 -1.23514e-07
-1.27313e-08 -1.23514e-07 0.00044093

0.000444945 8.16753e-06 -1.28299e-07
8.16753e-06 0.000419307 -5.94949e-08
-1.28299e-07 -5.94949e-08 0.000430444

0.000420872 -8.27516e-06 6.53128e-08
-8.27516e-06 0.00038698 -6.9478e-09
6.53128e-08 -6.9478e-09 0.000424072

0.000421445 1.31785e-06 -7.80409e-08
1.31785e-06 0.000397366 -8.58458e-08
-7.80409e-08 -8.58458e-08 0.000426803

0.000456616 -1.20681e-05 -3.03769e-08
-1.20681e-05 0.000443409 8.17281e-08
-3.03769e-08 8.17281e-08 0.000440471

0.000442637 2.17469e-05 -1.24264e-07
2.17469e-05 0.000415632 -1.06432e-07
-1.24264e-07 -1.06432e-07 0.000428785

0.000422433 -2.00438e-06 -8.79419e-08
-2.00438e-06 0.000394177 -1.48242e-08
-8.79419e-08 -1.48242e-08 0.000426593

0.000424553 9.68081e-06 1.55451e-08
9.68081e-06 0.000365128 -1.07471e-07
1.55451e-08 -1.07471e-07 0.000410168

0.000428324 2.12618e-06 -3.04349e-08
2.12618e-06 0.000421534 1.5971e-07
-3.04349e-08 1.5971e-07 0.000435427

0.000428856 -2.12176e-06 -6.18128e-08
-2.12176e-06 0.000422622 -4.8341e-10
-6.18128e-08 -4.8341e-10 0.000435648

0.000442718 8.57835e-07 1.93881e-07
8.57835e-07 0.000449507 7.9996e-08
1.93881e-07 7.9996e-08 0.000447769

0.000458964 -1.20333e-05 7.38123e-08
-1.20333e-05 0.000402467 5.11391e-08
7.38123e-08 5.11391e-08 0.000422045

0.000469657 1.25284e-06 -2.39766e-08
1.25284e-06 0.000449337 -9.41479e-08
-2.39766e-08 -9.41479e-08 0.000441912

0.000418281 1.56149e-05 -3.44096e-08
1.56149e-05 0.000413248 -3.24099e-08
-3.44096e-08 -3.24099e-08 0.000428314

0.000409927 2.29289e-05 -6.09849e-09
2.29289e-05 0.000410981 -3.10601e-08
-6.09849e-09 -3.10601e-08 0.000420765

0.000445229 -2.12729e-05 -1.73774e-08
-2.12729e-05 0.000418776 1.06576e-07
-1.73774e-08 1.06576e-07 0.000431449

0.000454104 1.16442e-05 2.36428e-08
1.16442e-05 0.000442444 -1.2325e-07
2.36428e-08 -1.2325e-07 0.000439221

0.000452397 1.61956e-07 -1.17774e-07
1.61956e-07 0.000462436 1.22169e-09
-1.17774e-07 1.22169e-09 0.000454824

0.000425555 2.24356e-06 5.61484e-08
2.24356e-06 0.000431513 -8.36676e-09
5.61484e-08 -8.36676e-09 0.000436839

0.00042594 -2.44337e-06 -7.19544e-08
-2.44337e-06 0.000432135 -1.9955e-08
-7.19544e-08 -1.9955e-08 0.000436987

0.000441441 -2.46549e-06 1.03385e-07
-2.46549e-06 0.000454328 1.38399e-07
1.03385e-07 1.38399e-07 0.000449619

0.000418519 6.94664e-06 -1.24179e-07
6.94664e-06 0.000414047 -5.48701e-08
-1.24179e-07 -5.48701e-08 0.000429355

0.000419866 5.88126e-06 4.90659e-08
5.88126e-06 0.00040161 4.54302e-08
4.90659e-08 4.54302e-08 0.000429081

0.000410755 5.47822e-06 8.72714e-08
5.47822e-06 0.000413914 -4.3816e-08
8.72714e-08 -4.3816e-08 0.000427017

0.000445687 -3.59109e-06 5.76079e-08
-3.59109e-06 0.000444091 3.28205e-08
5.76079e-08 3.28205e-08 0.000445583

0.000423626 6.89537e-06 -1.0501e-07
6.89537e-06 0.000386886 -8.01421e-09
-1.0501e-07 -8.01421e-09 0.000423458

0.000424765 1.18261e-06 -2.59815e-08
1.18261e-06 0.000430254 1.67961e-07
-2.59815e-08 1.67961e-07 0.000436946

0.000425028 -9.69396e-06 -6.51557e-08
-9.69396e-06 0.0003634 -1.21395e-07
-6.51557e-08 -1.21395e-07 0.00041662

0.000438111 -2.9876e-06 1.56852e-08
-2.9876e-06 0.000446636 -2.03786e-08
1.56852e-08 -2.03786e-08 0.000446248

0.000467528 -2.18402e-06 -4.64452e-08
-2.18402e-06 0.000434076 8.79736e-08
-4.64452e-08 8.79736e-08 0.000435633

0.000468273 3.36736e-06 -1.58978e-08
3.36736e-06 0.000426047 -1.48555e-07
-1.58978e-08 -1.48555e-07 0.000434617

0.000438203 -1.06823e-05 1.87079e-07
-1.06823e-05 0.000421364 -8.45458e-08
1.87079e-07 -8.45458e-08 0.000419974

0.00043808 1.07209e-05 3.04257e-07
1.07209e-05 0.000422245 1.28369e-07
3.04257e-07 1.28369e-07 0.000420052

0.000424009 -2.51215e-06 1.42255e-08
-2.51215e-06 0.000409283 6.37259e-08
1.42255e-08 6.37259e-08 0.000430946

0.000407147 2.09819e-06 9.53496e-08
2.09819e-06 0.000410966 -3.42588e-08
9.53496e-08 -3.42588e-08 0.000424385

0.000413057 -1.75228e-05 4.72563e-10
-1.75228e-05 0.000413262 2.93686e-08
4.72563e-10 2.93686e-08 0.000422014

0.000412408 1.82674e-05 6.13516e-08
1.82674e-05 0.000413815 6.23049e-08
6.13516e-08 6.23049e-08 0.000421915

0.000427056 -8.59717e-06 2.73126e-08
-8.59717e-06 0.000363299 -1.25477e-07
2.73126e-08 -1.25477e-07 0.000407615

0.000442108 -4.68132e-06 1.01921e-07
-4.68132e-06 0.000453358 -2.62488e-08
1.01921e-07 -2.62488e-08 0.000447428

0.000417958 2.00791e-07 5.05402e-08
2.00791e-07 0.000410435 5.52331e-08
5.05402e-08 5.52331e-08 0.000429212

0.000424853 7.2186e-06 2.83556e-09
7.2186e-06 0.000361188 1.10713e-07
2.83556e-09 1.10713e-07 0.000408694

0.000418693 -6.68375e-06 -1.79861e-08
-6.68375e-06 0.000415009 2.9916e-08
-1.79861e-08 2.9916e-08 0.000429645

0.000418328 -4.01697e-06 -5.67112e-08
-4.01697e-06 0.000421156 -1.16655e-08
-5.67112e-08 -1.16655e-08 0.000430663

0.000454952 -9.12955e-06 1.31554e-07
-9.12955e-06 0.000449516 5.17869e-08
1.31554e-07 5.17869e-08 0.00044653

0.000420983 4.81762e-07 -1.57946e-07
4.81762e-07 0.000410461 3.72525e-08
-1.57946e-07 3.72525e-08 0.000430922

0.000428439 3.83501e-06 -5.09357e-08
3.83501e-06 0.000427213 -7.76973e-08
-5.09357e-08 -7.76973e-08 0.000438189

0.000434415 4.97554e-06 -1.28844e-07
4.97554e-06 0.00043769 9.69156e-08
-1.28844e-07 9.69156e-08 0.000443114

0.000430729 -3.35494e-05 2.81455e-08
-3.35494e-05 0.000390222 3.38505e-08
2.81455e-08 3.38505e-08 0.000416939

0.000433634 -1.58415e-06 -1.32127e-07
-1.58415e-06 0.000439004 4.14745e-08
-1.32127e-07 4.14745e-08 0.000442473

0.000425396 2.35829e-06 -8.04337e-08
2.35829e-06 0.000427078 -7.91207e-08
-8.04337e-08 -7.91207e-08 0.000436389

0.000464531 6.81235e-06 -1.50545e-08
6.81235e-06 0.000469716 -1.49958e-07
-1.50545e-08 -1.49958e-07 0.000458894

0.000464143 -5.44583e-06 -1.69559e-08
-5.44583e-06 0.000469716 1.48234e-07
-1.69559e-08 1.48234e-07 0.000458891

0.000454422 -2.77713e-06 3.03658e-08
-2.77713e-06 0.000464335 -5.36308e-08
3.03658e-08 -5.36308e-08 0.00045615

0.000463565 3.55363e-06 1.35121e-08
3.55363e-06 0.000471697 5.10812e-08
1.35121e-08 5.10812e-08 0.000459295

0.000463475 -3.25454e-06 1.11265e-08
-3.25454e-06 0.000471919 -4.93966e-08
1.11265e-08 -4.93966e-08 0.000459292

0.000445012 -7.56982e-06 4.34566e-08
-7.56982e-06 0.000450505 -1.44602e-07
4.34566e-08 -1.44602e-07 0.000445981

0.000430791 -1.40488e-05 -2.43903e-07
-1.40488e-05 0.000400218 -1.30708e-08
-2.43903e-07 -1.30708e-08 0.000413726

0.000430519 1.45074e-05 -1.53226e-07
1.45074e-05 0.000400377 6.25575e-08
-1.53226e-07 6.25575e-08 0.000413755

0.000456796 3.088e-06 -8.54032e-08
3.088e-06 0.000467234 8.47055e-08
-8.54032e-08 8.47055e-08 0.00045671

0.000456995 -3.0878e-06 -8.4808e-08
-3.0878e-06 0.000467038 -7.24135e-08
-8.4808e-08 -7.24135e-08 0.000456708

0.000422971 2.25505e-06 3.12027e-08
2.25505e-06 0.000414051 7.17984e-08
3.12027e-08 7.17984e-08 0.000432944

0.000454148 1.99782e-05 4.33339e-08
1.99782e-05 0.000420305 1.24308e-07
4.33339e-08 1.24308e-07 0.000420562

0.000480132 -1.6265e-05 -4.91463e-08
-1.6265e-05 0.000459527 -1.33677e-07
-4.91463e-08 -1.33677e-07 0.000439934

0.000442079 4.60709e-06 6.91433e-08
4.60709e-06 0.000453559 9.25316e-08
6.91433e-08 9.25316e-08 0.000447508

0.000424737 -2.27145e-06 -1.19081e-07
-2.27145e-06 0.000431181 8.0016e-08
-1.19081e-07 8.0016e-08 0.000437377

0.000425539 -3.39412e-06 4.3235e-08
-3.39412e-06 0.000420409 6.38273e-08
4.3235e-08 6.38273e-08 0.000434344

0.000445654 -7.47073e-06 -1.68459e-07
-7.47073e-06 0.000450641 -1.1981e-08
-1.68459e-07 -1.1981e-08 0.000443658

0.000429832 2.08367e-05 -1.28122e-07
2.08367e-05 0.000408911 -5.96212e-08
-1.28122e-07 -5.96212e-08 0.000427236

0.000475171 5.84407e-06 7.68759e-07
5.84407e-06 0.000486218 3.47446e-07
7.68759e-07 3.47446e-07 0.000462295

0.000479061 -1.40594e-06 7.68118e-07
-1.40594e-06 0.000485048 -3.47711e-07
7.68118e-07 -3.47711e-07 0.000462293

0.000420044 2.75593e-05 5.84735e-08
2.75593e-05 0.000393451 8.84843e-08
5.84735e-08 8.84843e-08 0.000411154

0.000453751 1.55004e-06 1.00975e-07
1.55004e-06 0.000464955 8.66657e-08
1.00975e-07 8.66657e-08 0.000455922

0.000453631 -1.76139e-06 8.36839e-08
-1.76139e-06 0.000465287 2.60258e-08
8.36839e-08 2.60258e-08 0.000455943

0.000389135 1.31941e-05 -4.00171e-08
1.31941e-05 0.000411365 -1.34257e-07
-4.00171e-08 -1.34257e-07 0.000416436

0.000456462 9.33437e-06 8.92684e-08
9.33437e-06 0.000457659 -4.99318e-08
8.92684e-08 -4.99318e-08 0.000444164

0.000422568 2.51044e-06 3.87755e-08
2.51044e-06 0.000408872 -1.06445e-07
3.87755e-08 -1.06445e-07 0.000431015

0.0004227 -4.29377e-06 2.81415e-08
-4.29377e-06 0.000400174 -1.132e-07
2.81415e-08 -1.132e-07 0.000429361

0.000415619 -2.03734e-05 -2.60571e-08
-2.03734e-05 0.00038859 1.46365e-07
-2.60571e-08 1.46365e-07 0.000420428

0.000410585 2.23769e-05 -4.3252e-07
2.23769e-05 0.00044075 -2.39668e-07
-4.3252e-07 -2.39668e-07 0.000418737

0.000412421 -2.39641e-05 -4.77289e-07
-2.39641e-05 0.000439236 2.23676e-07
-4.77289e-07 2.23676e-07 0.000418645

0.000420744 3.92e-06 -8.9736e-08
3.92e-06 0.000421322 1.63816e-07
-8.9736e-08 1.63816e-07 0.000433147

0.000414167 5.5643e-06 4.18333e-08
5.5643e-06 0.00040355 6.37998e-08
4.18333e-08 6.37998e-08 0.000427498

0.000452906 -4.14114e-06 -1.09577e-07
-4.14114e-06 0.00046177 -1.37985e-07
-1.09577e-07 -1.37985e-07 0.000454608

0.00047466 -6.48532e-07 -1.81943e-07
-6.48532e-07 0.000467448 -1.6598e-07
-1.81943e-07 -1.6598e-07 0.000436963

0.000495295 1.70071e-05 3.37534e-08
1.70071e-05 0.000416425 1.21979e-07
3.37534e-08 1.21979e-07 0.000428549

0.000415153 2.18127e-05 4.64624e-08
2.18127e-05 0.000390398 -4.47533e-09
4.64624e-08 -4.47533e-09 0.000420298

0.00044688 -7.01539e-06 -2.78346e-08
-7.01539e-06 0.000423635 -7.22054e-08
-2.78346e-08 -7.22054e-08 0.00043316

0.000452696 2.15551e-06 3.88298e-08
2.15551e-06 0.00043614 7.62586e-08
3.88298e-08 7.62586e-08 0.000439458

0.000456927 -1.37752e-08 1.50493e-08
-1.37752e-08 0.000467214 -3.96599e-08
1.50493e-08 -3.96599e-08 0.000457355

0.000457187 2.53898e-07 1.26356e-07
2.53898e-07 0.000467168 1.12136e-08
1.26356e-07 1.12136e-08 0.000457378

0.000441394 4.75634e-06 2.76654e-09
4.75634e-06 0.00044961 1.58578e-07
2.76654e-09 1.58578e-07 0.000447669

0.000449813 -3.11431e-06 5.79027e-09
-3.11431e-06 0.000459802 6.31207e-08
5.79027e-09 6.31207e-08 0.000453186

0.000460801 1.48126e-06 1.02781e-07
1.48126e-06 0.000468951 9.53709e-09
1.02781e-07 9.53709e-09 0.000458526

0.000461005 -1.98314e-06 1.16621e-07
-1.98314e-06 0.000468743 1.48166e-08
1.16621e-07 1.48166e-08 0.000458527

0.000451286 4.48273e-06 2.1348e-08
4.48273e-06 0.000461815 1.51455e-07
2.1348e-08 1.51455e-07 0.000454591

0.000445932 3.59081e-06 4.29933e-08
3.59081e-06 0.000444554 5.88604e-08
4.29933e-08 5.88604e-08 0.000445595

0.000458605 4.2327e-06 3.74999e-08
4.2327e-06 0.000465594 7.80548e-08
3.74999e-08 7.80548e-08 0.000457363

0.000459156 -4.40318e-06 1.2402e-07
-4.40318e-06 0.000465694 2.26186e-08
1.2402e-07 2.26186e-08 0.000457387

0.000421351 9.56141e-06 -1.58239e-07
9.56141e-06 0.000386136 1.08753e-07
-1.58239e-07 1.08753e-07 0.000423515

0.000459384 -5.18764e-06 -7.47731e-08
-5.18764e-06 0.000458469 -8.65266e-09
-7.47731e-08 -8.65266e-09 0.000452321

0.000418898 1.69976e-06 6.47539e-08
1.69976e-06 0.000411389 7.27393e-08
6.47539e-08 7.27393e-08 0.000429477

0.000394667 2.10554e-05 5.07636e-08
2.10554e-05 0.000404598 1.58185e-07
5.07636e-08 1.58185e-07 0.000408138

0.000456855 -5.52559e-06 4.42717e-08
-5.52559e-06 0.000456341 -1.12667e-07
4.42717e-08 -1.12667e-07 0.000447226

0.000446172 9.94413e-07 -2.66334e-08
9.94413e-07 0.000456477 8.02485e-08
-2.66334e-08 8.02485e-08 0.000451459

0.000407892 1.30508e-05 3.13372e-08
1.30508e-05 0.000396895 -1.48862e-07
3.13372e-08 -1.48862e-07 0.000424526

0.000421137 -7.45175e-06 6.94106e-09
-7.45175e-06 0.000389465 -1.57321e-07
6.94106e-09 -1.57321e-07 0.000424288

0.000417701 -1.47679e-06 -1.14674e-07
-1.47679e-06 0.000413975 1.40908e-07
-1.14674e-07 1.40908e-07 0.00043129

0.000412404 -5.17657e-06 7.77686e-08
-5.17657e-06 0.000404584 8.2994e-08
7.77686e-08 8.2994e-08 0.00042772

0.000438508 1.43118e-05 8.69049e-08
1.43118e-05 0.000427337 5.12754e-08
8.69049e-08 5.12754e-08 0.000436513

0.000441891 -1.28954e-05 2.92828e-08
-1.28954e-05 0.000431094 -1.01888e-07
2.92828e-08 -1.01888e-07 0.000437803

0.000441838 -1.06604e-06 7.8722e-09
-1.06604e-06 0.000450384 2.5033e-08
7.8722e-09 2.5033e-08 0.000448032

0.000387587 -1.35576e-05 9.51563e-08
-1.35576e-05 0.000411653 -8.42801e-08
9.51563e-08 -8.42801e-08 0.000416097

0.00044329 1.21916e-06 1.12836e-07
1.21916e-06 0.000448296 -1.82121e-07
1.12836e-07 -1.82121e-07 0.000447053

0.00044282 -2.04261e-06 1.3151e-07
-2.04261e-06 0.000447868 2.20323e-07
1.3151e-07 2.20323e-07 0.000446911

0.000414709 6.2615e-06 -1.84377e-07
6.2615e-06 0.000403625 5.1411e-08
-1.84377e-07 5.1411e-08 0.000425622

0.000424119 1.79814e-05 -4.36555e-08
1.79814e-05 0.000349227 -4.92726e-08
-4.36555e-08 -4.92726e-08 0.000405136

0.000424917 -1.56299e-05 5.42525e-08
-1.56299e-05 0.000349148 -9.20778e-08
5.42525e-08 -9.20778e-08 0.000405105

0.00043197 7.87059e-06 2.88012e-09
7.87059e-06 0.00042125 -1.37075e-07
2.88012e-09 -1.37075e-07 0.000435118

0.000409156 -5.01354e-06 3.31485e-08
-5.01354e-06 0.000414732 2.30112e-08
3.31485e-08 2.30112e-08 0.000427163

0.000433296 6.26535e-06 1.07027e-08
6.26535e-06 0.000433308 -2.31063e-08
1.07027e-08 -2.31063e-08 0.000439778

0.000433444 -5.90148e-06 5.04256e-08
-5.90148e-06 0.000433512 -5.55366e-08
5.04256e-08 -5.55366e-08 0.000439866

0.000444378 5.53356e-07 -1.99924e-08
5.53356e-07 0.00045037 -1.79693e-07
-1.99924e-08 -1.79693e-07 0.000449155

0.000441113 -4.12793e-06 1.67449e-07
-4.12793e-06 0.000449422 -8.39607e-08
1.67449e-07 -8.39607e-08 0.000447464

0.000445289 5.36079e-07 1.45695e-07
5.36079e-07 0.000454106 2.37174e-08
1.45695e-07 2.37174e-08 0.000449526

0.00051246 6.51845e-06 -3.06606e-07
6.51845e-06 0.000459102 -1.26447e-07
-3.06606e-07 -1.26447e-07 0.000434482

0.000515239 -3.14971e-05 -3.65415e-07
-3.14971e-05 0.000445182 2.48561e-07
-3.65415e-07 2.48561e-07 0.00042959

0.000447873 -7.04556e-07 -1.82624e-08
-7.04556e-07 0.000456515 -6.7586e-08
-1.82624e-08 -6.7586e-08 0.000451622

0.000450857 -3.01574e-06 1.61612e-07
-3.01574e-06 0.000454045 -4.79649e-08
1.61612e-07 -4.79649e-08 0.000447907

0.000454017 3.01436e-06 3.02737e-08
3.01436e-06 0.000464318 -5.09962e-08
3.02737e-08 -5.09962e-08 0.000456129

0.000431788 -7.1893e-06 -7.80862e-08
-7.1893e-06 0.000421863 -5.44866e-09
-7.80862e-08 -5.44866e-09 0.000434962

0.000465474 -1.45203e-05 -1.327e-08
-1.45203e-05 0.00045483 1.20933e-08
-1.327e-08 1.20933e-08 0.000445231

0.000410801 3.80602e-05 6.99734e-08
3.80602e-05 0.000391369 6.35502e-08
6.99734e-08 6.35502e-08 0.000409459

0.000458693 6.19063e-06 1.06415e-08
6.19063e-06 0.000458282 1.33225e-07
1.06415e-08 1.33225e-07 0.000452349

0.000457976 -7.36526e-06 -6.00644e-08
-7.36526e-06 0.000460981 4.41595e-08
-6.00644e-08 4.41595e-08 0.000452165

0.000415342 1.3142e-05 -1.1953e-08
1.3142e-05 0.00041124 -9.97491e-09
-1.1953e-08 -9.97491e-09 0.000422013

0.000457455 -7.70673e-08 -5.14131e-08
-7.70673e-08 0.000470185 -8.00212e-09
-5.14131e-08 -8.00212e-09 0.000458012

0.000445193 -2.05302e-07 5.59557e-08
-2.05302e-07 0.00045296 -1.64497e-07
5.59557e-08 -1.64497e-07 0.000449313

0.000393754 -2.16891e-05 3.56855e-08
-2.16891e-05 0.000405021 9.38867e-08
3.56855e-08 9.38867e-08 0.000407945

0.000444107 -5.84101e-06 9.65577e-08
-5.84101e-06 0.000455625 2.66223e-07
9.65577e-08 2.66223e-07 0.000449236

0.000419322 -2.65518e-06 1.74248e-07
-2.65518e-06 0.000422593 1.49846e-08
1.74248e-07 1.49846e-08 0.000433557

0.000407999 -2.80278e-06 4.8913e-08
-2.80278e-06 0.000410726 -2.43602e-10
4.8913e-08 -2.43602e-10 0.000424295

0.000438561 1.79195e-06 2.3921e-08
1.79195e-06 0.000436696 -3.06341e-08
2.3921e-08 -3.06341e-08 0.000441866

0.000438152 -1.79467e-06 2.23169e-08
-1.79467e-06 0.000436565 -7.06352e-08
2.23169e-08 -7.06352e-08 0.000441805

0.000442018 2.06565e-06 -8.03476e-08
2.06565e-06 0.000455289 -4.56843e-08
-8.03476e-08 -4.56843e-08 0.000449908

0.000444944 5.33159e-06 1.51554e-07
5.33159e-06 0.00045533 -1.39638e-07
1.51554e-07 -1.39638e-07 0.000449287

0.000440902 -3.00184e-06 1.73703e-08
-3.00184e-06 0.000432651 1.37347e-07
1.73703e-08 1.37347e-07 0.000438357

0.000439592 3.31215e-06 9.03488e-08
3.31215e-06 0.00043184 -1.78851e-08
9.03488e-08 -1.78851e-08 0.000437592

0.000438761 -2.57965e-07 -4.15969e-08
-2.57965e-07 0.000444614 1.32432e-07
-4.15969e-08 1.32432e-07 0.00044497

0.000439194 7.41694e-07 -6.42196e-08
7.41694e-07 0.000445244 2.56329e-08
-6.42196e-08 2.56329e-08 0.000444921

0.000460257 1.44897e-06 -7.9733e-08
1.44897e-06 0.000467595 -5.47148e-08
-7.9733e-08 -5.47148e-08 0.000458069

0.00046006 -1.19398e-06 -8.8538e-08
-1.19398e-06 0.000467582 4.82923e-08
-8.8538e-08 4.82923e-08 0.000458073

0.000451791 -7.9426e-06 -1.6796e-08
-7.9426e-06 0.000458177 3.00834e-08
-1.6796e-08 3.00834e-08 0.00045029

0.000405417 -3.4579e-05 1.82439e-08
-3.4579e-05 0.000394188 3.73873e-08
1.82439e-08 3.73873e-08 0.000406848

0.000395573 6.13404e-07 4.70318e-08
6.13404e-07 0.000410808 -3.78907e-08
4.70318e-08 -3.78907e-08 0.000423323

0.000421242 1.12999e-06 6.44281e-08
1.12999e-06 0.000420632 3.33109e-08
6.44281e-08 3.33109e-08 0.000433594

0.000435681 -3.38303e-06 6.36994e-08
-3.38303e-06 0.000444133 3.31063e-08
6.36994e-08 3.31063e-08 0.000442426

0.000464136 4.58252e-06 -1.03364e-08
4.58252e-06 0.000467316 8.6918e-08
-1.03364e-08 8.6918e-08 0.000458272

0.000463781 -4.62424e-06 -5.49535e-09
-4.62424e-06 0.00046711 -7.43822e-08
-5.49535e-09 -7.43822e-08 0.000458271

0.000454573 6.16651e-06 8.53592e-08
6.16651e-06 0.000463247 -9.16135e-08
8.53592e-08 -9.16135e-08 0.000455469

0.000454415 -6.27687e-06 7.77262e-08
-6.27687e-06 0.000463199 9.59554e-08
7.77262e-08 9.59554e-08 0.000455469

0.000429339 -8.73178e-07 -5.45978e-08
-8.73178e-07 0.00043573 -7.40354e-08
-5.45978e-08 -7.40354e-08 0.00043981

0.000438533 -3.18177e-07 -1.84083e-08
-3.18177e-07 0.000443909 -3.37567e-09
-1.84083e-08 -3.37567e-09 0.000444927

0.000436043 4.18785e-06 -8.79916e-09
4.18785e-06 0.000444584 6.62437e-08
-8.79916e-09 6.62437e-08 0.000442414

0.000472068 5.85868e-07 1.98093e-07
5.85868e-07 0.000475957 2.02624e-07
1.98093e-07 2.02624e-07 0.000461268

0.000472068 -7.77833e-07 1.95801e-07
-7.77833e-07 0.000476057 -2.03233e-07
1.95801e-07 -2.03233e-07 0.000461265

0.000450796 -5.91356e-06 -1.10511e-07
-5.91356e-06 0.000458487 -6.41693e-10
-1.10511e-07 -6.41693e-10 0.000452442

0.000424517 -2.04082e-06 1.25097e-07
-2.04082e-06 0.000412087 -1.39667e-07
1.25097e-07 -1.39667e-07 0.000432921

0.000449765 2.71496e-06 6.2677e-09
2.71496e-06 0.000459861 -5.32744e-08
6.2677e-09 -5.32744e-08 0.000453189

0.000429424 -1.90091e-05 9.98707e-08
-1.90091e-05 0.000415991 -8.06038e-09
9.98707e-08 -8.06038e-09 0.000429128

0.000447905 9.36039e-06 6.93714e-08
9.36039e-06 0.000444279 9.11087e-08
6.93714e-08 9.11087e-08 0.000442691

0.000416679 1.39312e-06 -3.5656e-08
1.39312e-06 0.00041796 1.74843e-07
-3.5656e-08 1.74843e-07 0.00043169

0.000458269 6.36059e-06 9.34799e-08
6.36059e-06 0.000460935 -1.09951e-07
9.34799e-08 -1.09951e-07 0.000452188

0.000450771 5.59805e-06 -2.18311e-07
5.59805e-06 0.000458696 9.65538e-08
-2.18311e-07 9.65538e-08 0.000452424

0.00038118 3.43305e-05 9.36209e-08
3.43305e-05 0.000395559 9.25831e-08
9.36209e-08 9.25831e-08 0.000402645

0.000470197 -6.27467e-07 -1.00981e-07
-6.27467e-07 0.000452993 1.78288e-08
-1.00981e-07 1.78288e-08 0.00044257

0.000459138 1.72029e-05 6.39866e-08
1.72029e-05 0.00039389 6.39424e-08
6.39866e-08 6.39424e-08 0.000419919

0.00045172 8.37867e-06 6.17059e-08
8.37867e-06 0.000458137 1.02968e-07
6.17059e-08 1.02968e-07 0.000450327

0.000402971 1.67413e-05 9.70624e-08
1.67413e-05 0.000410215 -4.62285e-08
9.70624e-08 -4.62285e-08 0.000420398

0.00041694 -2.20055e-06 2.11967e-08
-2.20055e-06 0.000411367 -1.00672e-07
2.11967e-08 -1.00672e-07 0.000430177

0.000463376 -1.02179e-05 3.43215e-08
-1.02179e-05 0.000455435 -1.13571e-07
3.43215e-08 -1.13571e-07 0.000449847

0.000420184 -1.65396e-05 -5.037e-08
-1.65396e-05 0.000413235 -9.91791e-08
-5.037e-08 -9.91791e-08 0.000427961

0.000429137 1.09163e-05 -7.00629e-08
1.09163e-05 0.000426667 6.91226e-08
-7.00629e-08 6.91226e-08 0.000435264

0.000452573 -2.95131e-06 1.25364e-08
-2.95131e-06 0.000462273 1.0541e-07
1.25364e-08 1.0541e-07 0.000453606

0.000440708 -8.15332e-06 2.17476e-08
-8.15332e-06 0.000437546 1.35286e-07
2.17476e-08 1.35286e-07 0.000441318

0.000468737 1.25055e-05 2.71353e-08
1.25055e-05 0.000453929 -2.81586e-08
2.71353e-08 -2.81586e-08 0.000445851

0.000425382 1.14677e-06 -1.1873e-07
1.14677e-06 0.000426364 8.39732e-08
-1.1873e-07 8.39732e-08 0.000436921

0.000426707 -8.62591e-07 -1.57992e-07
-8.62591e-07 0.000420897 4.39858e-08
-1.57992e-07 4.39858e-08 0.000435823

0.000452242 2.84126e-06 1.38341e-08
2.84126e-06 0.000462335 -1.01946e-07
1.38341e-08 -1.01946e-07 0.000453609

0.000450934 -4.72909e-08 1.32755e-08
-4.72909e-08 0.00046252 -5.70861e-08
1.32755e-08 -5.70861e-08 0.000454806

0.000479569 1.99456e-06 7.46442e-07
1.99456e-06 0.000479272 4.01157e-07
7.46442e-07 4.01157e-07 0.000462203

0.000479569 -1.99456e-06 7.45625e-07
-1.99456e-06 0.000479272 -4.01846e-07
7.45625e-07 -4.01846e-07 0.000462201

0.000450987 3.58834e-06 -1.4746e-07
3.58834e-06 0.000453634 8.30858e-10
-1.4746e-07 8.30858e-10 0.000447911

0.000405758 -2.00221e-05 -1.47813e-07
-2.00221e-05 0.0004188 -1.60179e-07
-1.47813e-07 -1.60179e-07 0.000420676

0.000405557 2.01293e-05 -5.21539e-08
2.01293e-05 0.00041973 2.03037e-07
-5.21539e-08 2.03037e-07 0.000420731

0.000426943 -2.32939e-06 4.3575e-08
-2.32939e-06 0.000378001 5.70469e-09
4.3575e-08 5.70469e-09 0.00041889

0.000381209 -3.3804e-05 -3.25696e-08
-3.3804e-05 0.000396488 -6.32114e-09
-3.25696e-08 -6.32114e-09 0.000402341

0.000435662 1.71903e-06 -1.34288e-07
1.71903e-06 0.000443266 3.95597e-08
-1.34288e-07 3.95597e-08 0.000444288

0.000426649 5.06844e-08 2.03264e-08
5.06844e-08 0.000420519 3.12511e-08
2.03264e-08 3.12511e-08 0.000435755

0.000434943 4.19144e-06 -2.46713e-09
4.19144e-06 0.000439757 9.8305e-08
-2.46713e-09 9.8305e-08 0.000443086

0.000434843 -4.2217e-06 -1.40446e-07
-4.2217e-06 0.000439717 -4.79123e-08
-1.40446e-07 -4.79123e-08 0.000443267

0.000441011 1.68641e-06 1.95767e-07
1.68641e-06 0.000446002 -1.48648e-07
1.95767e-07 -1.48648e-07 0.000446584

0.000464152 9.60896e-06 6.82758e-08
9.60896e-06 0.000455854 -1.51116e-07
6.82758e-08 -1.51116e-07 0.000449838

0.000430591 3.55298e-06 -2.24219e-08
3.55298e-06 0.000431157 1.69043e-07
-2.24219e-08 1.69043e-07 0.000439201

0.000440845 1.27282e-06 2.35636e-08
1.27282e-06 0.000444505 6.00773e-09
2.35636e-08 6.00773e-09 0.000446246

0.000455767 -1.22022e-05 3.89534e-08
-1.22022e-05 0.000415168 -2.02073e-08
3.89534e-08 -2.02073e-08 0.000422032

0.000480774 1.27558e-05 -2.11868e-09
1.27558e-05 0.000449855 -4.94108e-08
-2.11868e-09 -4.94108e-08 0.000440494

0.000420079 -1.38806e-05 1.11602e-08
-1.38806e-05 0.000396912 1.8181e-07
1.11602e-08 1.8181e-07 0.000421798

0.000425784 -2.234e-06 -3.70536e-08
-2.234e-06 0.000336977 6.24984e-08
-3.70536e-08 6.24984e-08 0.000400094

0.000437925 -5.48146e-06 -6.34945e-08
-5.48146e-06 0.000445781 3.2777e-08
-6.34945e-08 3.2777e-08 0.000444446

0.000437316 5.00589e-06 -1.35964e-08
5.00589e-06 0.000446158 -7.54803e-08
-1.35964e-08 -7.54803e-08 0.000444592

0.000427107 -2.05432e-06 2.65643e-08
-2.05432e-06 0.000370106 9.85458e-08
2.65643e-08 9.85458e-08 0.000418486

0.000445343 7.66919e-06 5.79946e-08
7.66919e-06 0.000450702 -1.59519e-07
5.79946e-08 -1.59519e-07 0.000445888

0.00046588 5.54357e-06 2.50939e-07
5.54357e-06 0.000472866 1.40347e-07
2.50939e-07 1.40347e-07 0.000460428

0.000466266 -5.42783e-06 2.50328e-07
-5.42783e-06 0.000473155 -1.38975e-07
2.50328e-07 -1.38975e-07 0.000460426

0.000409259 -5.32202e-06 -4.31059e-09
-5.32202e-06 0.000410475 8.0397e-09
-4.31059e-09 8.0397e-09 0.000424339

0.000402099 -1.6694e-05 3.82701e-08
-1.6694e-05 0.000410193 -5.01525e-08
3.82701e-08 -5.01525e-08 0.00042026

0.000419991 -1.50119e-05 -2.32897e-08
-1.50119e-05 0.000382958 -1.70785e-07
-2.32897e-08 -1.70785e-07 0.00042063

0.000423184 2.49689e-07 -2.0576e-08
2.49689e-07 0.000412147 -1.09948e-07
-2.0576e-08 -1.09948e-07 0.000432505

0.000412565 -1.25968e-05 -5.789e-08
-1.25968e-05 0.000411764 -9.3232e-08
-5.789e-08 -9.3232e-08 0.00042175

0.000425556 -2.69622e-06 2.42446e-07
-2.69622e-06 0.000426569 -1.27622e-07
2.42446e-07 -1.27622e-07 0.000438058

0.000428045 -1.08952e-05 -3.17644e-08
-1.08952e-05 0.000428254 1.16354e-07
-3.17644e-08 1.16354e-07 0.000435499

0.000441186 7.68546e-06 -7.2455e-08
7.68546e-06 0.000434723 -7.52331e-08
-7.2455e-08 -7.52331e-08 0.000440932

0.000470752 -1.24355e-05 -3.55133e-08
-1.24355e-05 0.000443453 2.38766e-08
-3.55133e-08 2.38766e-08 0.000434762

0.000466253 7.94903e-06 -4.46913e-08
7.94903e-06 0.000441759 2.02698e-08
-4.46913e-08 2.02698e-08 0.000433738

0.000459898 4.94154e-07 -1.39563e-07
4.94154e-07 0.000470702 2.34431e-08
-1.39563e-07 2.34431e-08 0.000459015

0.000459185 -5.52323e-07 -1.36748e-07
-5.52323e-07 0.000470742 -1.45476e-08
-1.36748e-07 -1.45476e-08 0.000459019

0.000399804 -9.32705e-06 2.31316e-08
-9.32705e-06 0.000408782 2.01285e-08
2.31316e-08 2.01285e-08 0.00042279

0.000399308 9.61845e-06 -1.16576e-07
9.61845e-06 0.000409947 1.15525e-08
-1.16576e-07 1.15525e-08 0.000422535

0.000398467 -4.96066e-06 -1.51072e-07
-4.96066e-06 0.000423835 -1.46182e-07
-1.51072e-07 -1.46182e-07 0.00041599

0.000398554 5.69522e-06 -8.60576e-08
5.69522e-06 0.000423626 5.88493e-08
-8.60576e-08 5.88493e-08 0.000415965

0.000479719 -5.92918e-07 -5.37006e-07
-5.92918e-07 0.000478969 3.26077e-07
-5.37006e-07 3.26077e-07 0.000461732

0.000475899 4.65945e-07 -5.38743e-07
4.65945e-07 0.000478997 -3.26712e-07
-5.38743e-07 -3.26712e-07 0.00046173

0.000466213 6.08983e-06 1.55403e-08
6.08983e-06 0.000460721 -9.42346e-08
1.55403e-08 -9.42346e-08 0.000454885

0.000465068 -7.27607e-06 3.16088e-08
-7.27607e-06 0.000460683 6.41471e-08
3.16088e-08 6.41471e-08 0.00045489

0.000448183 -9.23166e-07 -7.52935e-08
-9.23166e-07 0.0004609 -1.43202e-07
-7.52935e-08 -1.43202e-07 0.00045297

0.000432557 -8.00157e-06 1.00247e-07
-8.00157e-06 0.00041907 -5.46903e-09
1.00247e-07 -5.46903e-09 0.000430914

0.000445189 1.38063e-06 2.31115e-08
1.38063e-06 0.000443699 -1.79075e-07
2.31115e-08 -1.79075e-07 0.000443085

0.000423782 -3.76481e-06 4.42805e-08
-3.76481e-06 0.000415393 -1.20957e-07
4.42805e-08 -1.20957e-07 0.000432789

0.000448962 1.5002e-06 -2.14589e-07
1.5002e-06 0.000460935 1.14379e-07
-2.14589e-07 1.14379e-07 0.000452954

0.000429261 5.86776e-06 -1.26192e-07
5.86776e-06 0.000421844 4.24675e-08
-1.26192e-07 4.24675e-08 0.000430977

0.00044729 -3.2009e-06 -1.91503e-07
-3.2009e-06 0.000457804 1.05445e-08
-1.91503e-07 1.05445e-08 0.000450855

0.000371553 -2.1977e-05 -1.55449e-07
-2.1977e-05 0.000407553 1.5601e-07
-1.55449e-07 1.5601e-07 0.000405364

0.00037163 2.12711e-05 -6.03559e-08
2.12711e-05 0.00040708 1.22736e-07
-6.03559e-08 1.22736e-07 0.000405421

0.00044749 2.79475e-06 -1.36423e-07
2.79475e-06 0.000457817 1.10856e-07
-1.36423e-07 1.10856e-07 0.000450835

0.000419597 1.59484e-05 1.54385e-07
1.59484e-05 0.000397483 -1.05504e-07
1.54385e-07 -1.05504e-07 0.00042143

0.000531926 3.97668e-06 6.45099e-09
3.97668e-06 0.00039875 -9.75468e-08
6.45099e-09 -9.75468e-08 0.000427479

0.000508537 -7.30817e-06 2.48265e-07
-7.30817e-06 0.000477628 1.41151e-07
2.48265e-07 1.41151e-07 0.000435336

0.000456763 3.34111e-06 8.60648e-08
3.34111e-06 0.000448369 7.9717e-08
8.60648e-08 7.9717e-08 0.000444705

0.00040833 -1.20672e-05 8.6737e-09
-1.20672e-05 0.000397086 1.82683e-07
8.6737e-09 1.82683e-07 0.000424932

0.000424049 -2.31401e-05 -5.07857e-08
-2.31401e-05 0.000389467 1.55994e-07
-5.07857e-08 1.55994e-07 0.000413882

0.00043614 -1.47866e-06 2.58005e-08
-1.47866e-06 0.000439522 -1.70206e-07
2.58005e-08 -1.70206e-07 0.000443555

0.000434908 3.26446e-07 3.76756e-08
3.26446e-07 0.000445896 -1.55476e-07
3.76756e-08 -1.55476e-07 0.000444976

0.000464284 2.49819e-06 -1.47599e-07
2.49819e-06 0.000468918 1.3465e-08
-1.47599e-07 1.3465e-08 0.000459464

0.000464194 -2.62244e-06 -1.51844e-07
-2.62244e-06 0.000468681 3.20921e-09
-1.51844e-07 3.20921e-09 0.000459464

0.000423708 2.32606e-05 -3.97389e-08
2.32606e-05 0.00039032 -3.5827e-08
-3.97389e-08 -3.5827e-08 0.000413854

0.000445755 -2.35432e-06 -1.68405e-07
-2.35432e-06 0.000443387 -6.4402e-09
-1.68405e-07 -6.4402e-09 0.000443492

0.000445818 -4.14954e-06 -3.32167e-08
-4.14954e-06 0.000457402 -1.11814e-07
-3.32167e-08 -1.11814e-07 0.000451459

0.000457806 7.0082e-06 -1.00236e-07
7.0082e-06 0.000465042 -3.44211e-08
-1.00236e-07 -3.44211e-08 0.000456168

0.000458256 -7.98969e-06 -9.6502e-08
-7.98969e-06 0.000465169 2.07043e-08
-9.6502e-08 2.07043e-08 0.000456166

0.000431082 -3.37148e-05 1.37977e-07
-3.37148e-05 0.000413701 -3.93805e-07
1.37977e-07 -3.93805e-07 0.00041871

0.000430009 3.48313e-05 2.66542e-07
3.48313e-05 0.000413701 3.46807e-07
2.66542e-07 3.46807e-07 0.000418716

0.00045317 9.98907e-06 -1.50284e-07
9.98907e-06 0.000454314 -1.55736e-08
-1.50284e-07 -1.55736e-08 0.000447123

0.00041708 -4.14784e-06 -8.4341e-08
-4.14784e-06 0.000404195 1.06156e-07
-8.4341e-08 1.06156e-07 0.000426078

0.000460924 4.2438e-06 1.07348e-07
4.2438e-06 0.000470304 2.13504e-07
1.07348e-07 2.13504e-07 0.000458863

0.000461137 -4.68625e-06 1.22172e-07
-4.68625e-06 0.000470246 -2.10442e-07
1.22172e-07 -2.10442e-07 0.000458862

0.000433234 -1.49838e-05 2.86761e-08
-1.49838e-05 0.000408551 4.14423e-08
2.86761e-08 4.14423e-08 0.000422311

0.000413824 -2.91559e-05 -1.7178e-08
-2.91559e-05 0.000394003 -8.90921e-09
-1.7178e-08 -8.90921e-09 0.000408407

0.000431043 -4.51186e-06 -9.05448e-08
-4.51186e-06 0.000437946 -4.71525e-08
-9.05448e-08 -4.71525e-08 0.000442497

0.00038673 2.20284e-06 8.37409e-08
2.20284e-06 0.00042263 -1.67533e-07
8.37409e-08 -1.67533e-07 0.000413809

0.000387497 -2.07191e-06 -2.07212e-07
-2.07191e-06 0.000422658 5.09294e-08
-2.07212e-07 5.09294e-08 0.000413748

0.000407684 -2.86947e-05 -3.99693e-08
-2.86947e-05 0.000402398 1.9507e-08
-3.99693e-08 1.9507e-08 0.000417886

0.000447186 4.59213e-06 -1.98168e-08
4.59213e-06 0.000457089 -4.35399e-08
-1.98168e-08 -4.35399e-08 0.000451603

0.000408675 5.66368e-06 2.77138e-08
5.66368e-06 0.000411071 -8.41811e-08
2.77138e-08 -8.41811e-08 0.000424014

0.000392642 1.89106e-06 7.99533e-08
1.89106e-06 0.000414674 -1.71733e-07
7.99533e-08 -1.71733e-07 0.000419271

0.000392826 -1.90515e-06 -1.29838e-07
-1.90515e-06 0.000415163 -3.84417e-08
-1.29838e-07 -3.84417e-08 0.000419134

0.000419585 1.83678e-05 1.54151e-07
1.83678e-05 0.000379651 -1.08693e-08
1.54151e-07 -1.08693e-08 0.000420018

0.000463818 3.14264e-06 -1.2812e-07
3.14264e-06 0.000474026 -8.33558e-08
-1.2812e-07 -8.33558e-08 0.000460396

0.000463818 -3.03191e-06 -1.36054e-07
-3.03191e-06 0.000473903 8.16877e-08
-1.36054e-07 8.16877e-08 0.000460394

0.000482464 -1.46946e-08 -5.06219e-09
-1.46946e-08 0.000457886 -8.5853e-08
-5.06219e-09 -8.5853e-08 0.000431351

0.000478755 1.70314e-05 8.30739e-08
1.70314e-05 0.000458909 3.08938e-07
8.30739e-08 3.08938e-07 0.000434386

0.000429685 1.55724e-06 2.0702e-07
1.55724e-06 0.000436575 -1.83151e-07
2.0702e-07 -1.83151e-07 0.000440302

0.000432392 -3.44801e-07 -2.70284e-08
-3.44801e-07 0.000419825 -1.57916e-07
-2.70284e-08 -1.57916e-07 0.000435558

0.000457238 7.61024e-06 -9.3062e-08
7.61024e-06 0.000463745 9.41981e-09
-9.3062e-08 9.41981e-09 0.000454357

0.000456172 -5.84167e-06 -8.21757e-08
-5.84167e-06 0.000463939 -3.82474e-10
-8.21757e-08 -3.82474e-10 0.000454358

0.000456483 6.81926e-06 -6.48313e-08
6.81926e-06 0.000456788 -1.32431e-07
-6.48313e-08 -1.32431e-07 0.000447822

0.000432171 1.4789e-06 -9.4945e-08
1.4789e-06 0.00043737 -9.41309e-08
-9.4945e-08 -9.41309e-08 0.000441699

0.000439082 -8.84906e-07 -3.46114e-08
-8.84906e-07 0.000438879 -3.84598e-08
-3.46114e-08 -3.84598e-08 0.000444378

0.000480638 -5.58807e-06 -2.58492e-07
-5.58807e-06 0.00048492 5.10386e-07
-2.58492e-07 5.10386e-07 0.00046242

0.000480638 5.58807e-06 -2.57804e-07
5.58807e-06 0.00048492 -5.11192e-07
-2.57804e-07 -5.11192e-07 0.000462422

0.000394345 -8.1889e-07 1.14879e-07
-8.1889e-07 0.000410438 -9.83133e-09
1.14879e-07 -9.83133e-09 0.000422999

0.00045137 4.79171e-06 -1.2987e-07
4.79171e-06 0.0004533 1.22061e-07
-1.2987e-07 1.22061e-07 0.000449921

0.000458286 4.75476e-06 -8.65627e-08
4.75476e-06 0.000462566 -2.73051e-08
-8.65627e-08 -2.73051e-08 0.000454434

0.000456429 -5.11934e-06 -8.01982e-08
-5.11934e-06 0.000462678 1.22268e-08
-8.01982e-08 1.22268e-08 0.000454435

0.000450264 3.6805e-06 3.15165e-08
3.6805e-06 0.000458196 -9.20937e-08
3.15165e-08 -9.20937e-08 0.000451017

0.000450535 -4.63483e-06 -1.44958e-07
-4.63483e-06 0.000453114 -6.96531e-08
-1.44958e-07 -6.96531e-08 0.000449911

0.000430865 1.95399e-07 3.53229e-08
1.95399e-07 0.000437891 1.0854e-07
3.53229e-08 1.0854e-07 0.00044062

0.000430742 -7.06867e-07 5.4494e-08
-7.06867e-07 0.000438878 -7.30579e-08
5.4494e-08 -7.30579e-08 0.000440851

0.000439504 -1.05486e-06 1.94415e-07
-1.05486e-06 0.000450059 -1.54415e-07
1.94415e-07 -1.54415e-07 0.000447304

0.000450026 -3.16112e-06 -2.92674e-08
-3.16112e-06 0.000458453 9.80166e-08
-2.92674e-08 9.80166e-08 0.000451008

0.000431794 -3.25489e-06 1.60306e-07
-3.25489e-06 0.000431305 5.31286e-08
1.60306e-07 5.31286e-08 0.000439702

0.000424145 2.25811e-06 7.37638e-08
2.25811e-06 0.00041908 -1.80045e-07
7.37638e-08 -1.80045e-07 0.000434252

0.000460925 7.23821e-06 3.29714e-08
7.23821e-06 0.000463737 -1.73069e-08
3.29714e-08 -1.73069e-08 0.000456228

0.000463754 -5.18091e-06 4.18657e-08
-5.18091e-06 0.000463912 2.35901e-08
4.18657e-08 2.35901e-08 0.000456227

0.000458947 4.64265e-06 -5.30816e-09
4.64265e-06 0.000469069 -1.47995e-07
-5.30816e-09 -1.47995e-07 0.000457329

0.000462523 -3.79766e-06 7.32293e-09
-3.79766e-06 0.000469118 1.43345e-07
7.32293e-09 1.43345e-07 0.000457327

0.000425454 -3.15286e-06 2.39876e-07
-3.15286e-06 0.000432219 -1.61623e-07
2.39876e-07 -1.61623e-07 0.000438697

0.000426685 -2.84878e-06 -2.12671e-08
-2.84878e-06 0.000426538 -1.48648e-07
-2.12671e-08 -1.48648e-07 0.00043637

0.000453563 -7.25462e-06 1.53268e-08
-7.25462e-06 0.000461089 8.07798e-08
1.53268e-08 8.07798e-08 0.000453115

0.000453293 7.73481e-06 1.41754e-08
7.73481e-06 0.00046085 -9.87152e-08
1.41754e-08 -9.87152e-08 0.000453116

0.000482327 -3.9615e-06 5.8086e-09
-3.9615e-06 0.000414118 -1.82775e-08
5.8086e-09 -1.82775e-08 0.000430566

0.000473342 -3.98151e-07 2.51713e-08
-3.98151e-07 0.000451412 -5.09997e-08
2.51713e-08 -5.09997e-08 0.000436924

0.000463762 3.74658e-06 3.88886e-08
3.74658e-06 0.000467381 -2.74291e-08
3.88886e-08 -2.74291e-08 0.000456918

0.000462807 -4.82485e-06 4.36783e-08
-4.82485e-06 0.000467422 2.64639e-08
4.36783e-08 2.64639e-08 0.000456915

0.00046503 1.62153e-06 2.49247e-07
1.62153e-06 0.000471977 1.24919e-07
2.49247e-07 1.24919e-07 0.000460166

0.000465491 -1.85032e-06 2.49458e-07
-1.85032e-06 0.00047209 -1.31083e-07
2.49458e-07 -1.31083e-07 0.000460163

0.000397309 -4.94086e-06 1.27289e-07
-4.94086e-06 0.000415072 -3.46389e-08
1.27289e-07 -3.46389e-08 0.000418903

0.000399136 5.26015e-06 -1.45584e-08
5.26015e-06 0.000414462 -1.68847e-07
-1.45584e-08 -1.68847e-07 0.000419181

0.000459069 -2.84861e-05 4.80434e-08
-2.84861e-05 0.000420514 -1.08343e-07
4.80434e-08 -1.08343e-07 0.000419792

0.000401909 1.55793e-06 1.03468e-07
1.55793e-06 0.000427723 -7.11433e-08
1.03468e-07 -7.11433e-08 0.000414258

0.000470821 1.27228e-06 -2.16836e-07
1.27228e-06 0.00047643 2.15203e-08
-2.16836e-07 2.15203e-08 0.000461422

0.000479874 -3.07634e-06 -4.07307e-08
-3.07634e-06 0.000476725 -1.41447e-07
-4.07307e-08 -1.41447e-07 0.000462031

0.000470821 -1.18631e-06 -2.13332e-07
-1.18631e-06 0.000476589 -1.98888e-08
-2.13332e-07 -1.98888e-08 0.000461424

0.000479874 3.07634e-06 -4.01238e-08
3.07634e-06 0.000476725 1.40397e-07
-4.01238e-08 1.40397e-07 0.000462033

0.000479603 1.75631e-05 -2.92018e-08
1.75631e-05 0.000466664 2.13181e-07
-2.92018e-08 2.13181e-07 0.000439345

0.000402384 -7.88097e-07 -2.00374e-09
-7.88097e-07 0.000427691 -4.51885e-08
-2.00374e-09 -4.51885e-08 0.000414257

0.000480781 4.00615e-06 2.42093e-07
4.00615e-06 0.000477952 3.34894e-07
2.42093e-07 3.34894e-07 0.000460924

0.000516342 -1.53991e-05 -2.09802e-06
-1.53991e-05 0.000484837 1.82526e-06
-2.09802e-06 1.82526e-06 0.000462297

0.000462888 -4.16225e-06 -2.09837e-06
-4.16225e-06 0.000478106 -1.82628e-06
-2.09837e-06 -1.82628e-06 0.000462299

0.000480781 -4.00615e-06 2.43396e-07
-4.00615e-06 0.000477952 -3.34354e-07
2.43396e-07 -3.34354e-07 0.000460926

0.00047467 -2.60493e-06 -5.95899e-08
-2.60493e-06 0.000471951 -1.22393e-07
-5.95899e-08 -1.22393e-07 0.000460455

0.000468222 -7.53471e-06 1.38329e-07
-7.53471e-06 0.00046825 8.66715e-09
1.38329e-07 8.66715e-09 0.000459067

0.000474222 -2.79039e-06 -2.72053e-07
-2.79039e-06 0.000483261 8.61476e-07
-2.72053e-07 8.61476e-07 0.000461877

0.000476979 8.54562e-07 -5.79826e-08
8.54562e-07 0.000471951 1.22472e-07
-5.79826e-08 1.22472e-07 0.000460458

0.000477682 3.58496e-06 -2.7046e-07
3.58496e-06 0.000482163 -8.61467e-07
-2.7046e-07 -8.61467e-07 0.000461879

0.000468392 6.49269e-06 1.39749e-07
6.49269e-06 0.00046825 -8.46465e-09
1.39749e-07 -8.46465e-09 0.00045907

0.000468904 3.18391e-06 1.67015e-07
3.18391e-06 0.0004725 -3.42568e-07
1.67015e-07 -3.42568e-07 0.000459946

0.000473223 5.4118e-06 1.33527e-07
5.4118e-06 0.000473469 -3.52998e-07
1.33527e-07 -3.52998e-07 0.000461186

0.000469184 -1.46344e-06 1.65468e-07
-1.46344e-06 0.0004725 3.4122e-07
1.65468e-07 3.4122e-07 0.000459943

0.000472798 -3.77447e-06 1.31296e-07
-3.77447e-06 0.000473589 3.51863e-07
1.31296e-07 3.51863e-07 0.000461184

0.000246984 3.20187e-05 8.55111e-08
3.20187e-05 0.000318085 -1.29692e-07
8.55111e-08 -1.29692e-07 0.000277878

0.000345957 5.01658e-06 1.20604e-07
5.01658e-06 0.000371774 -5.63846e-08
1.20604e-07 -5.63846e-08 0.000351153

0.000276941 8.93598e-06 3.39385e-08
8.93598e-06 0.000371153 -5.6534e-10
3.39385e-08 -5.6534e-10 0.000329997

0.000345024 1.62829e-05 8.36748e-08
1.62829e-05 0.000245874 -3.03518e-08
8.36748e-08 -3.03518e-08 0.00029572

0.000333506 4.68017e-06 -7.73219e-08
4.68017e-06 0.000236591 -1.18958e-07
-7.73219e-08 -1.18958e-07 0.000274697

0.000347339 -3.58478e-06 1.12497e-07
-3.58478e-06 0.000384882 3.79366e-08
1.12497e-07 3.79366e-08 0.000374372

0.000275903 1.37397e-05 3.9596e-08
1.37397e-05 0.000399904 -6.63612e-08
3.9596e-08 -6.63612e-08 0.000349238

0.000335891 -4.51771e-06 -9.97398e-08
-4.51771e-06 0.000245853 4.18485e-08
-9.97398e-08 4.18485e-08 0.000276655

0.000388253 3.59881e-06 2.39188e-09
3.59881e-06 0.000270907 -1.79721e-07
2.39188e-09 -1.79721e-07 0.000334004

0.000202512 2.88958e-05 9.43111e-08
2.88958e-05 0.000265096 -9.78194e-09
9.43111e-08 -9.78194e-09 0.000222157

0.000217922 -4.61579e-05 5.77627e-08
-4.61579e-05 0.00026763 9.46378e-08
5.77627e-08 9.46378e-08 0.000220736

0.000270949 2.91969e-05 -6.90142e-08
2.91969e-05 0.000211163 -1.00162e-07
-6.90142e-08 -1.00162e-07 0.000225847

0.000356685 -5.30677e-05 -9.84191e-08
-5.30677e-05 0.000388993 3.57172e-08
-9.84191e-08 3.57172e-08 0.000367004

0.00033151 -1.80209e-05 8.64534e-08
-1.80209e-05 0.000384394 2.12375e-08
8.64534e-08 2.12375e-08 0.000355381

0.000246927 2.75047e-05 8.73211e-08
2.75047e-05 0.000334646 1.58625e-07
8.73211e-08 1.58625e-07 0.000299464

0.000260289 3.17301e-05 -7.63757e-08
3.17301e-05 0.000358136 -3.06894e-08
-7.63757e-08 -3.06894e-08 0.000329375

0.00027434 -1.53e-05 5.43569e-09
-1.53e-05 0.000402421 7.07505e-08
5.43569e-09 7.07505e-08 0.000348008

0.000329278 -3.97669e-05 -3.48179e-08
-3.97669e-05 0.00038295 -2.94732e-09
-3.48179e-08 -2.94732e-09 0.000362369

0.000345343 -2.84243e-05 -4.56775e-08
-2.84243e-05 0.000254565 -4.02384e-08
-4.56775e-08 -4.02384e-08 0.000308818

0.000213248 9.33036e-06 6.5242e-08
9.33036e-06 0.000300601 4.66504e-08
6.5242e-08 4.66504e-08 0.000239844

0.000237918 -1.79137e-05 2.02874e-08
-1.79137e-05 0.000302378 2.26859e-08
2.02874e-08 2.26859e-08 0.000244229

0.000298342 6.74839e-06 -1.69492e-07
6.74839e-06 0.000228718 -3.54345e-08
-1.69492e-07 -3.54345e-08 0.000242168

0.000254259 3.6957e-05 -8.75814e-08
3.6957e-05 0.000298281 6.16233e-08
-8.75814e-08 6.16233e-08 0.00027618

0.000311111 -2.53953e-05 -4.80236e-08
-2.53953e-05 0.000232282 6.45911e-08
-4.80236e-08 6.45911e-08 0.000258656

0.00029123 4.08417e-05 1.1927e-08
4.08417e-05 0.000298586 6.68266e-08
1.1927e-08 6.68266e-08 0.000295884

0.000303855 2.88199e-05 -3.99796e-08
2.88199e-05 0.00032373 -1.66954e-09
-3.99796e-08 -1.66954e-09 0.000295229

0.000354885 -8.53952e-06 -6.02671e-08
-8.53952e-06 0.000246039 2.60997e-08
-6.02671e-08 2.60997e-08 0.000299139

0.000198373 1.93045e-05 2.44925e-09
1.93045e-05 0.000243764 -1.79978e-07
2.44925e-09 -1.79978e-07 0.000198257

0.000372394 9.65417e-06 -7.65973e-08
9.65417e-06 0.000263781 8.608e-08
-7.65973e-08 8.608e-08 0.000326854

0.000241658 1.86167e-05 3.3455e-08
1.86167e-05 0.000208598 -4.19282e-08
3.3455e-08 -4.19282e-08 0.000202157

0.000375431 -1.80309e-05 6.05897e-08
-1.80309e-05 0.000391868 5.81136e-08
6.05897e-08 5.81136e-08 0.000377034

0.000330531 1.62472e-06 -1.14943e-07
1.62472e-06 0.000401069 -6.29131e-09
-1.14943e-07 -6.29131e-09 0.000356306

0.000414977 -1.93388e-05 1.09257e-07
-1.93388e-05 0.000382694 1.52839e-07
1.09257e-07 1.52839e-07 0.000377497

0.000394421 4.71491e-05 -9.87468e-08
4.71491e-05 0.0003989 5.56336e-08
-9.87468e-08 5.56336e-08 0.000377971

0.000292067 -1.23348e-05 4.43237e-08
-1.23348e-05 0.000223817 1.60959e-08
4.43237e-08 1.60959e-08 0.000232195

0.000284824 4.34525e-05 5.75475e-08
4.34525e-05 0.000313729 1.20798e-07
5.75475e-08 1.20798e-07 0.000313066

0.000355046 2.45652e-05 -7.69708e-08
2.45652e-05 0.000347547 1.83434e-10
-7.69708e-08 1.83434e-10 0.000356405

0.00036789 -6.92419e-06 1.35522e-07
-6.92419e-06 0.000358475 4.88377e-08
1.35522e-07 4.88377e-08 0.000357842

0.000390137 3.95421e-06 -1.29982e-08
3.95421e-06 0.00026425 8.32722e-08
-1.29982e-08 8.32722e-08 0.000335145

0.000288335 4.04276e-05 -1.84427e-08
4.04276e-05 0.000320362 -3.03778e-08
-1.84427e-08 -3.03778e-08 0.000291895

0.000308331 -3.20715e-05 -4.66155e-08
-3.20715e-05 0.000266394 7.39566e-08
-4.66155e-08 7.39566e-08 0.000266317

0.000388793 -5.13316e-07 -6.55811e-09
-5.13316e-07 0.000252895 -2.60763e-08
-6.55811e-09 -2.60763e-08 0.000327989

0.000266733 -5.54805e-05 1.09463e-08
-5.54805e-05 0.000319234 4.78818e-08
1.09463e-08 4.78818e-08 0.000275676

0.000273541 -4.8185e-05 -1.02981e-07
-4.8185e-05 0.000327052 -7.44485e-08
-1.02981e-07 -7.44485e-08 0.000280893

0.000347908 2.41681e-05 3.18406e-08
2.41681e-05 0.00036814 1.77054e-07
3.18406e-08 1.77054e-07 0.000358001

0.000279986 -5.50697e-05 -2.73784e-08
-5.50697e-05 0.000262638 7.56145e-08
-2.73784e-08 7.56145e-08 0.000251029

0.000167437 -5.52015e-05 1.21788e-10
-5.52015e-05 0.000163223 -8.81495e-10
1.21788e-10 -8.81495e-10 0.000163359

0.000161311 -5.8822e-05 9.27372e-08
-5.8822e-05 0.000176488 -1.18642e-07
9.27372e-08 -1.18642e-07 0.000165772

0.000317516 -6.44938e-05 -4.00607e-08
-6.44938e-05 0.000385955 5.78096e-08
-4.00607e-08 5.78096e-08 0.00035527

0.000165727 -2.17714e-05 9.28391e-08
-2.17714e-05 0.000160592 -1.16926e-07
9.28391e-08 -1.16926e-07 0.000174884

0.000154771 -1.79202e-05 -2.26479e-08
-1.79202e-05 0.00016685 -1.98034e-09
-2.26479e-08 -1.98034e-09 0.000171894

0.000416437 2.84104e-05 -2.70618e-09
2.84104e-05 0.000360043 -3.2156e-07
-2.70618e-09 -3.2156e-07 0.00038796

0.000387397 -3.70628e-05 -1.64574e-07
-3.70628e-05 0.000347078 -3.61361e-09
-1.64574e-07 -3.61361e-09 0.000360617

0.000355333 -1.92383e-05 1.71389e-07
-1.92383e-05 0.000259887 3.79721e-08
1.71389e-07 3.79721e-08 0.00032572

0.000414315 3.73768e-05 -9.70783e-08
3.73768e-05 0.000338919 3.42591e-07
-9.70783e-08 3.42591e-07 0.000383994

0.000383142 -5.22067e-05 -1.32768e-07
-5.22067e-05 0.000344686 2.20224e-07
-1.32768e-07 2.20224e-07 0.00036069

0.000303746 2.90577e-05 -5.79435e-08
2.90577e-05 0.000346811 -2.26881e-07
-5.79435e-08 -2.26881e-07 0.000319718

0.00041228 -1.8134e-05 -1.10532e-07
-1.8134e-05 0.000356307 -2.67815e-08
-1.10532e-07 -2.67815e-08 0.000372076

0.000388156 2.44778e-05 1.31204e-07
2.44778e-05 0.000372218 2.54221e-08
1.31204e-07 2.54221e-08 0.000372475

0.000382293 4.40499e-05 1.36315e-07
4.40499e-05 0.00032301 1.32976e-07
1.36315e-07 1.32976e-07 0.000360554

0.000351354 -5.58963e-05 8.26058e-08
-5.58963e-05 0.000313161 -1.68303e-07
8.26058e-08 -1.68303e-07 0.000340527

0.000259317 -3.83982e-05 -1.48984e-09
-3.83982e-05 0.000206436 -5.6876e-09
-1.48984e-09 -5.6876e-09 0.000214566

0.000392313 -1.08548e-05 4.6301e-08
-1.08548e-05 0.000423031 3.84756e-08
4.6301e-08 3.84756e-08 0.000405719

0.000347469 -1.8973e-06 6.738e-08
-1.8973e-06 0.000445868 3.57556e-08
6.738e-08 3.57556e-08 0.000370268

0.000254181 -4.64877e-05 -1.28325e-07
-4.64877e-05 0.000299915 -1.35067e-07
-1.28325e-07 -1.35067e-07 0.000278251

0.000190303 -1.60762e-05 1.73216e-07
-1.60762e-05 0.000237632 -6.76528e-08
1.73216e-07 -6.76528e-08 0.000196042

0.0002322 -1.54479e-05 -4.4588e-08
-1.54479e-05 0.000187929 2.28646e-08
-4.4588e-08 2.28646e-08 0.000192758

0.000319012 1.80942e-05 -1.51053e-07
1.80942e-05 0.000366863 1.38177e-07
-1.51053e-07 1.38177e-07 0.000344327

0.000253204 2.76019e-05 3.84674e-08
2.76019e-05 0.000356592 -3.80916e-09
3.84674e-08 -3.80916e-09 0.000321545

0.000492893 3.55405e-05 -2.84239e-07
3.55405e-05 0.000387523 -4.46876e-07
-2.84239e-07 -4.46876e-07 0.000414037

0.000465834 1.1448e-05 1.61182e-07
1.1448e-05 0.000510112 -1.97327e-07
1.61182e-07 -1.97327e-07 0.000381579

0.000276395 4.12126e-05 -8.48361e-08
4.12126e-05 0.000338045 -4.63511e-08
-8.48361e-08 -4.63511e-08 0.000339752

0.000367694 3.25979e-05 -6.26816e-08
3.25979e-05 0.000284914 2.11461e-08
-6.26816e-08 2.11461e-08 0.000337198

0.00035077 -4.94608e-05 -1.71107e-07
-4.94608e-05 0.000280994 -2.41428e-08
-1.71107e-07 -2.41428e-08 0.000325944

0.00028607 5.60361e-05 6.60697e-08
5.60361e-05 0.000331645 -7.74712e-08
6.60697e-08 -7.74712e-08 0.000336295

0.000280771 -4.28578e-05 1.17916e-08
-4.28578e-05 0.000372734 -7.91399e-09
1.17916e-08 -7.91399e-09 0.000347527

0.000290021 -3.96395e-06 6.16359e-08
-3.96395e-06 0.000206107 -1.03905e-07
6.16359e-08 -1.03905e-07 0.000229539

0.000335555 -1.67181e-05 -3.13029e-08
-1.67181e-05 0.000244823 -4.79466e-08
-3.13029e-08 -4.79466e-08 0.000287001

0.00030684 2.03925e-05 4.6935e-09
2.03925e-05 0.000230265 -1.40084e-07
4.6935e-09 -1.40084e-07 0.000254042

0.000357768 2.22956e-05 -8.40563e-08
2.22956e-05 0.000314624 3.14332e-08
-8.40563e-08 3.14332e-08 0.000349483

0.000340103 1.54296e-05 2.70123e-07
1.54296e-05 0.000440022 -1.15497e-07
2.70123e-07 -1.15497e-07 0.000380772

0.000390489 -1.11101e-05 9.32907e-09
-1.11101e-05 0.000397026 1.02923e-07
9.32907e-09 1.02923e-07 0.000380386

0.000245737 3.24315e-05 3.35328e-08
3.24315e-05 0.000264399 -5.57291e-09
3.35328e-08 -5.57291e-09 0.000233358

0.000305015 -4.18054e-05 1.02154e-07
-4.18054e-05 0.000288759 -7.2419e-08
1.02154e-07 -7.2419e-08 0.000290156

0.00035188 2.26851e-05 -7.81059e-08
2.26851e-05 0.000279204 8.72411e-09
-7.81059e-08 8.72411e-09 0.000318244

0.000374315 2.51138e-05 -2.9575e-08
2.51138e-05 0.000457421 1.21713e-08
-2.9575e-08 1.21713e-08 0.000374605

0.000388309 -1.65801e-05 -2.17651e-08
-1.65801e-05 0.000420483 2.19184e-08
-2.17651e-08 2.19184e-08 0.000403396

0.000370377 -6.14925e-06 1.39217e-07
-6.14925e-06 0.000315398 6.54148e-08
1.39217e-07 6.54148e-08 0.000352049

0.000330187 -3.23441e-05 -3.30862e-08
-3.23441e-05 0.000371087 2.66458e-08
-3.30862e-08 2.66458e-08 0.000341412

0.000275202 -1.07073e-05 4.60239e-09
-1.07073e-05 0.000374194 5.98037e-08
4.60239e-09 5.98037e-08 0.000329198

0.000376345 7.34397e-06 9.88367e-08
7.34397e-06 0.000257278 -4.02983e-08
9.88367e-08 -4.02983e-08 0.000343539

0.000369891 -2.26791e-05 1.60556e-07
-2.26791e-05 0.000258455 4.47886e-08
1.60556e-07 4.47886e-08 0.000338964

0.00026254 -4.60838e-05 -5.88724e-08
-4.60838e-05 0.000242751 -3.84935e-08
-5.88724e-08 -3.84935e-08 0.000233019

0.000396952 2.80995e-05 -9.32257e-09
2.80995e-05 0.000285181 -1.05382e-07
-9.32257e-09 -1.05382e-07 0.000362968

0.000381084 -4.43216e-05 -4.13301e-08
-4.43216e-05 0.000292673 1.98762e-07
-4.13301e-08 1.98762e-07 0.000349632

0.000343546 -3.9066e-05 -5.29124e-08
-3.9066e-05 0.000268145 -1.30363e-07
-5.29124e-08 -1.30363e-07 0.000309325

0.000255354 -3.89366e-05 -9.1259e-09
-3.89366e-05 0.000317415 1.84164e-08
-9.1259e-09 1.84164e-08 0.000281483

0.000371523 1.67372e-05 9.11039e-08
1.67372e-05 0.000289256 -2.59563e-10
9.11039e-08 -2.59563e-10 0.000348295

0.000365801 -3.16605e-05 1.5139e-07
-3.16605e-05 0.000283003 -5.49651e-09
1.5139e-07 -5.49651e-09 0.000338681

0.000350221 -1.03097e-05 3.00803e-08
-1.03097e-05 0.000276252 -1.72095e-07
3.00803e-08 -1.72095e-07 0.000307695

0.000378429 4.92582e-05 3.91275e-08
4.92582e-05 0.000353808 4.85599e-09
3.91275e-08 4.85599e-09 0.000367924

0.000290661 3.26195e-05 -1.87921e-07
3.26195e-05 0.000268231 -9.04812e-08
-1.87921e-07 -9.04812e-08 0.000266304

0.000282088 4.89304e-05 4.10288e-08
4.89304e-05 0.000327196 -1.5814e-07
4.10288e-08 -1.5814e-07 0.000342241

0.000356876 3.67587e-05 -9.64396e-08
3.67587e-05 0.000383748 -6.46437e-08
-9.64396e-08 -6.46437e-08 0.000377872

0.000321088 1.79832e-05 4.72842e-08
1.79832e-05 0.000234246 6.49501e-08
4.72842e-08 6.49501e-08 0.000270203

0.000332147 -2.41685e-05 -1.3777e-07
-2.41685e-05 0.000302919 1.23467e-07
-1.3777e-07 1.23467e-07 0.000324097

0.000340479 1.51131e-05 6.50572e-08
1.51131e-05 0.000270014 -7.83148e-08
6.50572e-08 -7.83148e-08 0.000302461

0.00025451 3.88219e-05 -9.66478e-08
3.88219e-05 0.000268736 -1.25156e-07
-9.66478e-08 -1.25156e-07 0.000256473

0.000291941 3.70026e-05 1.19155e-08
3.70026e-05 0.000274344 6.6978e-08
1.19155e-08 6.6978e-08 0.00028802

0.000243409 3.93144e-07 7.75618e-08
3.93144e-07 0.000371243 2.18887e-08
7.75618e-08 2.18887e-08 0.000318255

0.000298403 -1.60261e-05 1.2366e-07
-1.60261e-05 0.000362711 -5.48095e-08
1.2366e-07 -5.48095e-08 0.000332858

0.000262562 -4.56936e-05 -5.59036e-08
-4.56936e-05 0.000210292 -1.11375e-07
-5.59036e-08 -1.11375e-07 0.000224735

0.000301664 -6.27961e-05 -9.40629e-08
-6.27961e-05 0.000361169 3.91329e-08
-9.40629e-08 3.91329e-08 0.000335651

0.000257346 -5.52987e-05 -1.50002e-07
-5.52987e-05 0.000285588 1.21253e-09
-1.50002e-07 1.21253e-09 0.000258622

0.000289945 4.54285e-05 -1.66943e-08
4.54285e-05 0.000291874 -1.58105e-08
-1.66943e-08 -1.58105e-08 0.000269296

0.000337927 -2.0433e-05 7.48323e-08
-2.0433e-05 0.000291001 -7.39165e-08
7.48323e-08 -7.39165e-08 0.000305317

0.000396104 -1.62067e-06 -1.21103e-07
-1.62067e-06 0.000273582 -5.83197e-08
-1.21103e-07 -5.83197e-08 0.000347679

0.000384779 6.96303e-06 1.02023e-08
6.96303e-06 0.000279945 1.12037e-07
1.02023e-08 1.12037e-07 0.000346588

0.000220499 2.07089e-05 -2.76524e-08
2.07089e-05 0.000313255 -1.77807e-07
-2.76524e-08 -1.77807e-07 0.000263588

0.000300262 -4.99462e-05 1.24505e-07
-4.99462e-05 0.000317128 3.25491e-08
1.24505e-07 3.25491e-08 0.000295654

0.000187244 -6.86751e-06 -1.0435e-07
-6.86751e-06 0.000292829 -8.35373e-09
-1.0435e-07 -8.35373e-09 0.000230063

0.000213142 -8.78763e-06 -1.91188e-07
-8.78763e-06 0.000299166 8.41711e-08
-1.91188e-07 8.41711e-08 0.00023618

0.00028928 -1.15624e-05 -7.09489e-08
-1.15624e-05 0.00019839 2.48209e-07
-7.09489e-08 2.48209e-07 0.000231317

0.00027096 3.26805e-05 -4.02726e-08
3.26805e-05 0.00025659 8.91494e-08
-4.02726e-08 8.91494e-08 0.000238735

0.000279416 -5.71201e-05 -1.48049e-08
-5.71201e-05 0.000248583 -7.99395e-08
-1.48049e-08 -7.99395e-08 0.000258485

0.000467722 -1.24064e-05 2.65403e-07
-1.24064e-05 0.000471824 -8.13699e-08
2.65403e-07 -8.13699e-08 0.000379334

0.000380868 -5.17128e-05 4.09613e-07
-5.17128e-05 0.000443513 -1.14877e-07
4.09613e-07 -1.14877e-07 0.000407601

0.000314219 -3.35468e-05 3.43027e-08
-3.35468e-05 0.000232583 -1.06347e-08
3.43027e-08 -1.06347e-08 0.000267818

0.000336552 4.5483e-05 1.11739e-07
4.5483e-05 0.000351734 -8.81048e-08
1.11739e-07 -8.81048e-08 0.000341239

0.000358052 3.59049e-06 1.69814e-07
3.59049e-06 0.000261563 1.15771e-08
1.69814e-07 1.15771e-08 0.000327343

0.000253739 -4.13575e-05 8.43826e-08
-4.13575e-05 0.000324755 -1.28942e-07
8.43826e-08 -1.28942e-07 0.000269945

0.000266473 4.32523e-05 -1.01292e-07
4.32523e-05 0.000375844 -1.06738e-08
-1.01292e-07 -1.06738e-08 0.00034939

0.000371378 1.80531e-05 -1.28459e-07
1.80531e-05 0.000396691 4.77716e-09
-1.28459e-07 4.77716e-09 0.000391212

0.000300517 -5.83615e-05 3.49913e-08
-5.83615e-05 0.000327191 1.44335e-07
3.49913e-08 1.44335e-07 0.000335939

0.000373412 4.37572e-05 1.79478e-08
4.37572e-05 0.000378984 -7.11924e-08
1.79478e-08 -7.11924e-08 0.000382218

0.000260688 3.42967e-05 -8.19776e-08
3.42967e-05 0.000334483 -1.05101e-08
-8.19776e-08 -1.05101e-08 0.00031648

0.000385559 -4.43025e-06 -1.60293e-07
-4.43025e-06 0.000219499 1.39439e-08
-1.60293e-07 1.39439e-08 0.000349552

0.000301996 4.30936e-05 -1.39643e-07
4.30936e-05 0.000255173 1.62855e-08
-1.39643e-07 1.62855e-08 0.000265381

0.000302029 -6.66885e-05 -1.0587e-07
-6.66885e-05 0.000381215 7.4506e-08
-1.0587e-07 7.4506e-08 0.000340285

0.000301174 3.89895e-05 -1.31403e-07
3.89895e-05 0.000290702 1.25469e-07
-1.31403e-07 1.25469e-07 0.000278796

0.000245504 -3.8248e-05 2.64559e-08
-3.8248e-05 0.000268548 9.25872e-08
2.64559e-08 9.25872e-08 0.000229601

0.000296411 -5.47052e-05 1.27695e-07
-5.47052e-05 0.000339548 2.78464e-08
1.27695e-07 2.78464e-08 0.000313523

0.000218954 -2.48655e-05 1.2404e-07
-2.48655e-05 0.000303044 -1.38422e-07
1.2404e-07 -1.38422e-07 0.000245034

0.000255056 9.45616e-06 8.96276e-08
9.45616e-06 0.000306672 2.35013e-07
8.96276e-08 2.35013e-07 0.000253098

0.000293124 -2.2651e-05 6.03633e-08
-2.2651e-05 0.000227625 -1.94518e-08
6.03633e-08 -1.94518e-08 0.000243922

0.000278788 -5.01142e-05 -2.40083e-08
-5.01142e-05 0.000271178 1.39364e-07
-2.40083e-08 1.39364e-07 0.000266871

0.000243733 -2.27069e-06 7.86603e-08
-2.27069e-06 0.000347686 -2.14265e-10
7.86603e-08 -2.14265e-10 0.000291621

0.000297739 -8.97489e-06 1.25584e-07
-8.97489e-06 0.000347205 -9.3515e-08
1.25584e-07 -9.3515e-08 0.000303329

0.000222155 -4.97944e-05 4.98341e-08
-4.97944e-05 0.000252416 2.56044e-08
4.98341e-08 2.56044e-08 0.000222383

0.000246767 3.65264e-05 1.41084e-07
3.65264e-05 0.000258858 -2.24743e-09
1.41084e-07 -2.24743e-09 0.000230751

0.000364689 4.71916e-07 -1.53059e-07
4.71916e-07 0.000259917 2.03362e-09
-1.53059e-07 2.03362e-09 0.000351853

0.000361665 -8.74894e-06 -1.84107e-07
-8.74894e-06 0.000264275 -2.32438e-08
-1.84107e-07 -2.32438e-08 0.000347351

0.000345568 3.94123e-05 -1.62237e-08
3.94123e-05 0.00035532 -3.21252e-08
-1.62237e-08 -3.21252e-08 0.000347118

0.000312972 -6.57521e-05 7.71598e-09
-6.57521e-05 0.000387434 4.07418e-08
7.71598e-09 4.07418e-08 0.000353241

0.000305589 4.4493e-05 1.2964e-08
4.4493e-05 0.000313768 1.17449e-07
1.2964e-08 1.17449e-07 0.000325341

0.000247811 2.05399e-05 -1.09118e-07
2.05399e-05 0.000201482 -3.29398e-08
-1.09118e-07 -3.29398e-08 0.000207337

0.000264184 2.42312e-05 -4.11309e-09
2.42312e-05 0.000323387 1.43507e-11
-4.11309e-09 1.43507e-11 0.000277831

0.000401238 2.26782e-05 -2.29333e-07
2.26782e-05 0.000324269 1.43889e-07
-2.29333e-07 1.43889e-07 0.000370733

0.000380109 -3.96855e-05 1.24772e-07
-3.96855e-05 0.000313867 -1.67368e-07
1.24772e-07 -1.67368e-07 0.000350991

0.00036746 3.26163e-05 -5.51855e-08
3.26163e-05 0.000315213 -6.47452e-08
-5.51855e-08 -6.47452e-08 0.000343563

0.000351042 -4.72595e-05 -1.61609e-07
-4.72595e-05 0.000295538 8.56379e-08
-1.61609e-07 8.56379e-08 0.000326862

0.00015585 -2.38203e-05 1.84557e-07
-2.38203e-05 0.000112047 -1.85317e-07
1.84557e-07 -1.85317e-07 0.000172328

0.000108341 -2.77601e-05 -3.933e-08
-2.77601e-05 0.000163735 1.20689e-09
-3.933e-08 1.20689e-09 0.000174757

0.000221886 -3.13834e-05 7.5127e-08
-3.13834e-05 0.000315942 6.40505e-09
7.5127e-08 6.40505e-09 0.000267288

0.000451827 3.7162e-05 -2.6248e-07
3.7162e-05 0.000352967 4.94029e-08
-2.6248e-07 4.94029e-08 0.000398002

0.000430159 -5.2635e-05 5.65475e-08
-5.2635e-05 0.000381761 -7.5679e-08
5.65475e-08 -7.5679e-08 0.000373537

0.000338704 3.74893e-05 1.06952e-07
3.74893e-05 0.000301413 9.49805e-08
1.06952e-07 9.49805e-08 0.00031367

0.000252053 1.52957e-05 -1.0699e-07
1.52957e-05 0.000196906 -3.90063e-08
-1.0699e-07 -3.90063e-08 0.000206947

0.000295203 -4.56346e-05 -4.62483e-08
-4.56346e-05 0.000366562 2.00342e-08
-4.62483e-08 2.00342e-08 0.000329448

0.000254077 -2.23434e-05 -1.249e-07
-2.23434e-05 0.000367873 -3.16352e-09
-1.249e-07 -3.16352e-09 0.000321837

0.000267036 -5.43672e-05 3.34954e-09
-5.43672e-05 0.000280612 1.10187e-07
3.34954e-09 1.10187e-07 0.000254891

0.000290727 -4.38985e-05 7.11167e-08
-4.38985e-05 0.000326641 3.82887e-08
7.11167e-08 3.82887e-08 0.000341393

0.000318482 -5.15784e-05 1.22474e-07
-5.15784e-05 0.000281063 -1.18086e-08
1.22474e-07 -1.18086e-08 0.0002989

0.000251452 6.67744e-05 -3.57448e-08
6.67744e-05 0.000344348 -4.06252e-08
-3.57448e-08 -4.06252e-08 0.000341123

0.000376752 1.63592e-05 6.20922e-08
1.63592e-05 0.000396889 -7.68328e-09
6.20922e-08 -7.68328e-09 0.000390651

0.000334944 2.80979e-05 8.7487e-08
2.80979e-05 0.000377533 -2.30185e-08
8.7487e-08 -2.30185e-08 0.000356384

0.000292606 -4.94491e-05 3.79571e-08
-4.94491e-05 0.000319407 1.42575e-07
3.79571e-08 1.42575e-07 0.000321414

0.000283279 4.82029e-05 8.42546e-08
4.82029e-05 0.000322735 -6.57916e-08
8.42546e-08 -6.57916e-08 0.000320909

0.000292361 3.1926e-05 -1.36432e-07
3.1926e-05 0.000235773 1.145e-07
-1.36432e-07 1.145e-07 0.000251555

0.000332391 -3.73846e-07 -4.69425e-08
-3.73846e-07 0.000250953 1.16521e-07
-4.69425e-08 1.16521e-07 0.000289705

0.000384359 3.34341e-05 8.33567e-09
3.34341e-05 0.000382917 -5.51296e-08
8.33567e-09 -5.51296e-08 0.000386588

0.000274085 -5.27645e-05 -1.07105e-07
-5.27645e-05 0.000349905 -1.7566e-08
-1.07105e-07 -1.7566e-08 0.000304194

0.000225973 7.91108e-06 -1.30637e-07
7.91108e-06 0.000341866 1.13309e-07
-1.30637e-07 1.13309e-07 0.000283303

0.000353446 4.92273e-05 -7.50323e-08
4.92273e-05 0.000310697 -6.18706e-08
-7.50323e-08 -6.18706e-08 0.000333149

0.000280033 1.20094e-06 1.24059e-08
1.20094e-06 0.000341548 -4.02205e-08
1.24059e-08 -4.02205e-08 0.00029841

0.000266585 -3.62368e-05 2.14048e-08
-3.62368e-05 0.000369836 -1.12827e-08
2.14048e-08 -1.12827e-08 0.00034822

0.000187909 -3.09761e-05 1.99081e-07
-3.09761e-05 0.000205706 2.23692e-07
1.99081e-07 2.23692e-07 0.000180386

0.00020647 -3.17029e-05 6.87631e-09
-3.17029e-05 0.000184973 2.79388e-08
6.87631e-09 2.79388e-08 0.00017941

0.00035324 1.10291e-05 -8.29138e-08
1.10291e-05 0.000257157 9.54215e-08
-8.29138e-08 9.54215e-08 0.000313145

0.000319541 -5.89089e-05 -1.61257e-08
-5.89089e-05 0.000292824 1.06701e-07
-1.61257e-08 1.06701e-07 0.000315356

0.00049339 3.35026e-05 1.02903e-07
3.35026e-05 0.000374829 4.84881e-07
1.02903e-07 4.84881e-07 0.000409701

0.000495242 -6.98049e-06 9.5842e-08
-6.98049e-06 0.000428473 -4.00687e-08
9.5842e-08 -4.00687e-08 0.000380503

0.000270536 -4.08264e-05 5.88684e-08
-4.08264e-05 0.000333091 1.52786e-07
5.88684e-08 1.52786e-07 0.000317956

0.000361269 -1.2357e-05 3.99309e-08
-1.2357e-05 0.000382126 1.67361e-07
3.99309e-08 1.67361e-07 0.000369719

0.000352023 4.2797e-05 -1.96113e-08
4.2797e-05 0.000399097 7.35053e-08
-1.96113e-08 7.35053e-08 0.000370141

0.000371991 3.9783e-06 -8.98132e-08
3.9783e-06 0.000251062 7.06286e-08
-8.98132e-08 7.06286e-08 0.000311248

0.0002968 -7.14263e-05 -9.60663e-08
-7.14263e-05 0.000378574 8.88996e-08
-9.60663e-08 8.88996e-08 0.000339588

0.000207755 2.43879e-05 1.32683e-07
2.43879e-05 0.000209403 -8.16082e-08
1.32683e-07 -8.16082e-08 0.000193109

0.000200587 2.31386e-05 -4.83187e-08
2.31386e-05 0.000201828 -3.00995e-08
-4.83187e-08 -3.00995e-08 0.000189352

0.000180833 -2.77464e-05 -9.43238e-08
-2.77464e-05 0.000245389 1.51329e-07
-9.43238e-08 1.51329e-07 0.000201642

0.000206072 1.39733e-05 1.38067e-07
1.39733e-05 0.000253221 -5.15566e-09
1.38067e-07 -5.15566e-09 0.000208815

0.000243787 -2.36481e-05 -2.21382e-07
-2.36481e-05 0.000185729 3.90082e-08
-2.21382e-07 3.90082e-08 0.000202047

0.000259848 -6.53376e-05 1.23586e-08
-6.53376e-05 0.000338984 -5.76823e-08
1.23586e-08 -5.76823e-08 0.000340621

0.000160208 8.50882e-07 1.9293e-07
8.50882e-07 0.000236072 -1.22091e-07
1.9293e-07 -1.22091e-07 0.000189769

0.000235221 2.00172e-06 5.18023e-08
2.00172e-06 0.000170701 2.15942e-08
5.18023e-08 2.15942e-08 0.000192918

0.000345545 4.81209e-06 3.30388e-08
4.81209e-06 0.000419066 -8.80889e-08
3.30388e-08 -8.80889e-08 0.000366174

0.000367365 -3.75006e-05 -1.46288e-07
-3.75006e-05 0.000407978 -6.22534e-08
-1.46288e-07 -6.22534e-08 0.000381223

0.000361102 1.47657e-05 9.04198e-08
1.47657e-05 0.000297257 1.97598e-07
9.04198e-08 1.97598e-07 0.00033037

0.000392036 2.63389e-06 1.53694e-08
2.63389e-06 0.000255765 4.27245e-10
1.53694e-08 4.27245e-10 0.000334818

0.000217729 -3.52568e-05 7.92048e-08
-3.52568e-05 0.000279953 -1.92015e-07
7.92048e-08 -1.92015e-07 0.000239599

0.000243116 2.29694e-05 1.59186e-07
2.29694e-05 0.000291443 1.51186e-07
1.59186e-07 1.51186e-07 0.000247898

0.000372226 3.11045e-06 -7.88912e-08
3.11045e-06 0.000253535 1.10174e-08
-7.88912e-08 1.10174e-08 0.000312709

0.000254866 -3.599e-05 -2.2731e-08
-3.599e-05 0.000335086 2.16468e-07
-2.2731e-08 2.16468e-07 0.000302402

0.000425969 2.0615e-05 -3.38585e-08
2.0615e-05 0.000349877 3.1882e-07
-3.38585e-08 3.1882e-07 0.000389848

0.000407046 -2.91754e-05 -1.79667e-07
-2.91754e-05 0.000358568 2.02689e-07
-1.79667e-07 2.02689e-07 0.000367388

0.000321889 3.42185e-05 1.36463e-07
3.42185e-05 0.000319107 6.96839e-09
1.36463e-07 6.96839e-09 0.000328215

0.000292975 -6.04269e-05 1.04678e-07
-6.04269e-05 0.000361454 -8.00971e-08
1.04678e-07 -8.00971e-08 0.000320582

0.000361484 1.51864e-05 6.33887e-08
1.51864e-05 0.000265912 -7.90602e-08
6.33887e-08 -7.90602e-08 0.000322977

0.000247952 3.14142e-05 -4.21668e-09
3.14142e-05 0.000237735 1.43855e-07
-4.21668e-09 1.43855e-07 0.000227442

0.00029284 -6.49415e-05 1.99678e-08
-6.49415e-05 0.000357436 -1.18047e-07
1.99678e-08 -1.18047e-07 0.00031848

0.000155152 5.79884e-05 3.05886e-08
5.79884e-05 0.000156232 4.90466e-08
3.05886e-08 4.90466e-08 0.000159075

0.000264768 -2.38629e-05 9.24805e-08
-2.38629e-05 0.000340502 -1.07657e-07
9.24805e-08 -1.07657e-07 0.000291549

0.00023252 -1.39655e-05 7.09239e-08
-1.39655e-05 0.000340839 -2.9392e-09
7.09239e-08 -2.9392e-09 0.000284378

0.000332232 -7.08024e-06 -1.02064e-07
-7.08024e-06 0.000444684 -8.18163e-08
-1.02064e-07 -8.18163e-08 0.00036779

0.000379009 -2.9447e-05 5.07324e-08
-2.9447e-05 0.000402752 1.15916e-07
5.07324e-08 1.15916e-07 0.000390991

0.000402543 1.69246e-05 -9.11157e-08
1.69246e-05 0.000237961 8.32764e-08
-9.11157e-08 8.32764e-08 0.000364362

0.000392378 -2.40727e-05 -1.22407e-07
-2.40727e-05 0.000252583 -1.02988e-07
-1.22407e-07 -1.02988e-07 0.000355045

0.000329321 4.97123e-05 2.58668e-08
4.97123e-05 0.000331316 -4.17523e-08
2.58668e-08 -4.17523e-08 0.000345779

0.000333456 -3.21511e-05 -3.97485e-08
-3.21511e-05 0.000346885 -1.15708e-09
-3.97485e-08 -1.15708e-09 0.000347262

0.000355756 3.78823e-05 2.27251e-08
3.78823e-05 0.00037251 -1.08222e-07
2.27251e-08 -1.08222e-07 0.000367416

0.00035393 -2.65394e-05 8.83223e-09
-2.65394e-05 0.00039422 3.51051e-08
8.83223e-09 3.51051e-08 0.000366502

0.00047702 3.59073e-05 6.06751e-08
3.59073e-05 0.000374604 4.87351e-07
6.06751e-08 4.87351e-07 0.000408917

0.000449553 -5.08968e-05 1.14377e-07
-5.08968e-05 0.000423492 -3.89843e-08
1.14377e-07 -3.89843e-08 0.000378185

0.000415673 3.7313e-05 -1.1535e-08
3.7313e-05 0.000374165 -7.76216e-08
-1.1535e-08 -7.76216e-08 0.00039658

0.000305163 -7.11411e-05 -7.06592e-08
-7.11411e-05 0.000337041 6.68776e-08
-7.06592e-08 6.68776e-08 0.00035063

0.000339422 3.93338e-05 1.35908e-07
3.93338e-05 0.000274591 -2.26474e-08
1.35908e-07 -2.26474e-08 0.00030513

0.000295875 -4.43878e-05 -4.62051e-08
-4.43878e-05 0.000351893 2.03244e-08
-4.62051e-08 2.03244e-08 0.000309113

0.000253055 -2.72477e-05 -9.41492e-08
-2.72477e-05 0.000345458 1.76429e-07
-9.41492e-08 1.76429e-07 0.000303651

0.000259259 -3.94777e-05 -5.86388e-09
-3.94777e-05 0.000250927 5.87815e-08
-5.86388e-09 5.87815e-08 0.000225739

0.000319122 -5.18851e-05 1.02384e-07
-5.18851e-05 0.000264567 -1.0463e-07
1.02384e-07 -1.0463e-07 0.000293786

0.000252857 1.83184e-05 4.22353e-08
1.83184e-05 0.000345688 1.95407e-07
4.22353e-08 1.95407e-07 0.000301485

0.000321987 5.21938e-05 -1.29347e-07
5.21938e-05 0.000297703 1.27308e-07
-1.29347e-07 1.27308e-07 0.000302484

0.00028667 7.72613e-05 -7.29682e-08
7.72613e-05 0.000344806 -1.94508e-07
-7.29682e-08 -1.94508e-07 0.000352563

0.000309243 -6.28966e-05 -3.42123e-08
-6.28966e-05 0.000377988 5.12156e-08
-3.42123e-08 5.12156e-08 0.000349884

0.000290488 -5.97274e-05 1.47489e-07
-5.97274e-05 0.000279064 -7.41508e-09
1.47489e-07 -7.41508e-09 0.000287596

0.000370518 -4.43361e-06 1.84103e-08
-4.43361e-06 0.000312063 1.78501e-07
1.84103e-08 1.78501e-07 0.000334891

0.000400549 -1.94009e-05 -2.88632e-07
-1.94009e-05 0.000434607 3.98574e-07
-2.88632e-07 3.98574e-07 0.000401715

0.000470268 -2.21721e-05 -4.97301e-07
-2.21721e-05 0.000456256 2.59069e-07
-4.97301e-07 2.59069e-07 0.000378664

0.000279827 -2.35509e-05 1.40167e-08
-2.35509e-05 0.000357529 -9.79653e-08
1.40167e-08 -9.79653e-08 0.000332793

0.000321723 3.20224e-05 1.49103e-07
3.20224e-05 0.000289995 1.77001e-07
1.49103e-07 1.77001e-07 0.000319728

0.000383411 -1.93525e-06 6.96819e-08
-1.93525e-06 0.000329607 -2.84366e-08
6.96819e-08 -2.84366e-08 0.000357395

0.000183829 -4.02838e-05 -7.84109e-08
-4.02838e-05 0.000213259 1.8707e-10
-7.84109e-08 1.8707e-10 0.000184466

0.000209032 -3.61685e-05 -4.08212e-08
-3.61685e-05 0.000184714 4.67974e-08
-4.08212e-08 4.67974e-08 0.000185405

0.000402503 -1.7345e-06 6.00468e-08
-1.7345e-06 0.000284363 -1.04434e-07
6.00468e-08 -1.04434e-07 0.000370721

0.000394047 -7.55353e-06 1.31949e-07
-7.55353e-06 0.000288247 1.88442e-07
1.31949e-07 1.88442e-07 0.000357609

0.000397581 7.97956e-06 -1.11637e-07
7.97956e-06 0.000322077 -2.58219e-08
-1.11637e-07 -2.58219e-08 0.000358114

0.00031908 2.15112e-05 -1.53993e-07
2.15112e-05 0.000350133 -1.64244e-07
-1.53993e-07 -1.64244e-07 0.000321114

0.000321401 2.74237e-05 4.45714e-08
2.74237e-05 0.000266982 -9.40268e-08
4.45714e-08 -9.40268e-08 0.000280529

0.000383572 3.75034e-05 1.64292e-07
3.75034e-05 0.000346162 -8.99854e-08
1.64292e-07 -8.99854e-08 0.00036599

0.000353011 -4.89127e-05 9.5912e-08
-4.89127e-05 0.000318564 -6.14952e-08
9.5912e-08 -6.14952e-08 0.000341669

0.000410525 -6.04925e-06 1.7863e-07
-6.04925e-06 0.000378076 -2.48949e-07
1.7863e-07 -2.48949e-07 0.000382078

0.000394841 5.37817e-05 -1.49522e-07
5.37817e-05 0.000465769 -2.64169e-07
-1.49522e-07 -2.64169e-07 0.000382694

0.000269771 -4.20894e-05 1.5828e-08
-4.20894e-05 0.000344215 -9.72347e-08
1.5828e-08 -9.72347e-08 0.00033016

0.000331123 2.75354e-05 1.4866e-08
2.75354e-05 0.000276249 6.65573e-08
1.4866e-08 6.65573e-08 0.000300669

0.000397046 2.5599e-05 -9.61698e-09
2.5599e-05 0.000322836 -9.24435e-08
-9.61698e-09 -9.24435e-08 0.000370446

0.000381552 -3.37891e-05 -5.41666e-08
-3.37891e-05 0.000324784 -3.57837e-07
-5.41666e-08 -3.57837e-07 0.000353277

0.000318445 -5.83002e-05 -4.28637e-08
-5.83002e-05 0.000372939 1.76807e-08
-4.28637e-08 1.76807e-08 0.00033867

0.000304451 -7.44093e-05 2.85329e-08
-7.44093e-05 0.000379361 6.79491e-08
2.85329e-08 6.79491e-08 0.000340377

0.000161738 6.91598e-05 2.24759e-07
6.91598e-05 0.000169086 6.52517e-08
2.24759e-07 6.52517e-08 0.000162133

0.000304893 5.25898e-05 -1.22353e-07
5.25898e-05 0.000370256 -9.50296e-08
-1.22353e-07 -9.50296e-08 0.000357871

0.000322045 -4.65143e-05 -4.38448e-08
-4.65143e-05 0.000391745 3.16613e-08
-4.38448e-08 3.16613e-08 0.000356411

0.000292743 -6.41008e-05 4.60598e-08
-6.41008e-05 0.000371856 4.60955e-08
4.60598e-08 4.60955e-08 0.000332622

0.000316277 -4.34896e-05 3.98763e-08
-4.34896e-05 0.000253576 -5.77591e-08
3.98763e-08 -5.77591e-08 0.000274096

0.000332523 -2.86335e-05 -1.34304e-07
-2.86335e-05 0.000342628 6.15794e-08
-1.34304e-07 6.15794e-08 0.000330674

0.000329024 4.97644e-05 1.11278e-09
4.97644e-05 0.00033434 4.18309e-08
1.11278e-09 4.18309e-08 0.000349971

0.00032768 -4.00611e-05 -3.40452e-08
-4.00611e-05 0.000369319 2.03424e-08
-3.40452e-08 2.03424e-08 0.000349048

0.000370517 -4.225e-06 1.92683e-08
-4.225e-06 0.000268616 -1.67958e-07
1.92683e-08 -1.67958e-07 0.000327279

0.000407194 1.45807e-05 5.94196e-08
1.45807e-05 0.000330652 -1.07556e-07
5.94196e-08 -1.07556e-07 0.000382469

0.00039399 -1.413e-05 1.75027e-07
-1.413e-05 0.000355033 -2.56629e-08
1.75027e-07 -2.56629e-08 0.000365237

0.000386341 -2.06392e-05 2.39429e-07
-2.06392e-05 0.00045178 -1.37786e-07
2.39429e-07 -1.37786e-07 0.000399939

0.000372218 1.54198e-05 -1.12097e-07
1.54198e-05 0.000481047 -1.32188e-07
-1.12097e-07 -1.32188e-07 0.000376314

0.000175004 5.49846e-06 -2.6302e-07
5.49846e-06 0.0001204 1.18769e-07
-2.6302e-07 1.18769e-07 0.000173945

0.000122567 4.79001e-06 -2.95805e-08
4.79001e-06 0.000169942 8.24824e-09
-2.95805e-08 8.24824e-09 0.000170727

0.000374571 4.76284e-05 -5.13056e-08
4.76284e-05 0.000362265 1.0589e-07
-5.13056e-08 1.0589e-07 0.000369794

0.000322298 -4.7466e-05 -4.68273e-08
-4.7466e-05 0.000322163 4.66569e-08
-4.68273e-08 4.66569e-08 0.000339254

0.000280006 -4.4935e-05 -1.60072e-08
-4.4935e-05 0.000332859 -5.37004e-08
-1.60072e-08 -5.37004e-08 0.000338835

0.000152132 1.70187e-05 2.02177e-07
1.70187e-05 0.00015365 -1.7654e-07
2.02177e-07 -1.7654e-07 0.000169272

0.000153175 1.85856e-05 -2.79277e-08
1.85856e-05 0.000153569 2.59702e-08
-2.79277e-08 2.59702e-08 0.000170954

0.000466116 8.98207e-06 -3.64566e-07
8.98207e-06 0.000481517 -4.58346e-07
-3.64566e-07 -4.58346e-07 0.000381531

0.00046912 1.18398e-05 -2.45964e-07
1.18398e-05 0.000434222 8.01823e-07
-2.45964e-07 8.01823e-07 0.000408796

0.000310132 -4.22764e-05 -1.29949e-07
-4.22764e-05 0.000335645 6.52939e-08
-1.29949e-07 6.52939e-08 0.000326111

0.000291035 -5.28487e-05 5.67839e-08
-5.28487e-05 0.000300992 -1.62535e-07
5.67839e-08 -1.62535e-07 0.000295189

0.000375912 4.9801e-05 -6.34408e-08
4.9801e-05 0.000335439 2.85022e-08
-6.34408e-08 2.85022e-08 0.000358783

0.000327048 -6.01564e-05 -1.72725e-08
-6.01564e-05 0.000313891 -1.20351e-07
-1.72725e-08 -1.20351e-07 0.000333594

0.000290716 -5.624e-05 1.9888e-09
-5.624e-05 0.000310553 -8.98236e-08
1.9888e-09 -8.98236e-08 0.000312082

0.000328428 4.04289e-05 -3.60297e-08
4.04289e-05 0.000319123 -3.34703e-08
-3.60297e-08 -3.34703e-08 0.000312167

0.000184379 -1.8519e-05 -7.34255e-08
-1.8519e-05 0.000250127 1.56989e-07
-7.34255e-08 1.56989e-07 0.000203888

0.000206516 1.07194e-05 -1.79967e-07
1.07194e-05 0.000254053 3.58682e-08
-1.79967e-07 3.58682e-08 0.000209044

0.000245925 -1.74539e-05 -1.7852e-07
-1.74539e-05 0.000197603 2.35456e-07
-1.7852e-07 2.35456e-07 0.000205757

0.000341065 5.38623e-05 -2.01907e-08
5.38623e-05 0.00033152 -1.05147e-08
-2.01907e-08 -1.05147e-08 0.000333137

0.000177907 -1.33923e-05 -2.33915e-07
-1.33923e-05 0.000237231 -2.84712e-08
-2.33915e-07 -2.84712e-08 0.000192399

0.00023097 -9.47579e-06 -4.31305e-08
-9.47579e-06 0.00017098 1.12232e-08
-4.31305e-08 1.12232e-08 0.000187795

0.000403593 3.98453e-05 -1.44177e-07
3.98453e-05 0.000358174 8.7948e-08
-1.44177e-07 8.7948e-08 0.000382551

0.000349616 -5.69115e-05 1.70184e-08
-5.69115e-05 0.000324941 3.31131e-08
1.70184e-08 3.31131e-08 0.000349973

0.000398729 4.91066e-05 -2.75122e-08
4.91066e-05 0.000352425 -3.16562e-07
-2.75122e-08 -3.16562e-07 0.000380135

0.000348859 -5.58396e-05 1.69692e-08
-5.58396e-05 0.000341079 3.29451e-08
1.69692e-08 3.29451e-08 0.00035206

0.000149631 2.13214e-05 5.14379e-08
2.13214e-05 0.000152027 3.24802e-07
5.14379e-08 3.24802e-07 0.000166723

0.000149758 2.05544e-05 -6.03338e-09
2.05544e-05 0.000150297 4.61269e-08
-6.03338e-09 4.61269e-08 0.000164825

0.000354393 4.35293e-05 -8.36379e-08
4.35293e-05 0.000337516 1.40108e-08
-8.36379e-08 1.40108e-08 0.000342933

0.000320459 -5.37503e-05 -3.85099e-08
-5.37503e-05 0.000308118 -1.05287e-07
-3.85099e-08 -1.05287e-07 0.000320946

0.000383213 -3.39224e-05 2.47885e-07
-3.39224e-05 0.000407508 -8.52066e-08
2.47885e-07 -8.52066e-08 0.000390545

0.00036491 -1.21268e-05 -1.03721e-07
-1.21268e-05 0.000420973 -8.01258e-08
-1.03721e-07 -8.01258e-08 0.000370286

0.000407628 4.92706e-05 -9.1378e-08
4.92706e-05 0.000377917 1.71667e-07
-9.1378e-08 1.71667e-07 0.000395042

0.000320566 -4.4052e-05 -4.5239e-08
-4.4052e-05 0.000365955 1.39613e-07
-4.5239e-08 1.39613e-07 0.000355894

0.000425219 2.6087e-05 9.92769e-09
2.6087e-05 0.00031246 -8.02402e-08
9.92769e-09 -8.02402e-08 0.000383189

0.000405121 -3.98736e-05 -2.29294e-07
-3.98736e-05 0.000323226 -2.48814e-07
-2.29294e-07 -2.48814e-07 0.000363986

0.000301142 4.46817e-05 -2.22647e-08
4.46817e-05 0.000334677 4.25444e-08
-2.22647e-08 4.25444e-08 0.000338717

0.000311896 -5.23714e-05 -1.06924e-07
-5.23714e-05 0.000368958 1.92643e-08
-1.06924e-07 1.92643e-08 0.000337886

0.000384499 -3.64153e-05 2.30214e-07
-3.64153e-05 0.000393387 -1.16737e-07
2.30214e-07 -1.16737e-07 0.000374371

0.000366019 -3.28262e-05 -1.91209e-07
-3.28262e-05 0.000443904 3.73279e-07
-1.91209e-07 3.73279e-07 0.00038966

0.000450138 3.71317e-05 9.17555e-08
3.71317e-05 0.000340421 -8.34731e-08
9.17555e-08 -8.34731e-08 0.0003942

0.000477029 1.16343e-05 3.10125e-08
1.16343e-05 0.000364583 -2.72617e-08
3.10125e-08 -2.72617e-08 0.000403074

0.000429412 -3.97115e-05 1.15542e-08
-3.97115e-05 0.00037349 9.60951e-08
1.15542e-08 9.60951e-08 0.000373463

0.000463451 -8.16776e-06 -2.64767e-07
-8.16776e-06 0.000402721 -1.59612e-07
-2.64767e-07 -1.59612e-07 0.000378361

0.000347972 -8.94478e-06 1.08388e-08
-8.94478e-06 0.00045763 1.27157e-07
1.08388e-08 1.27157e-07 0.00037239

0.0003954 6.74259e-05 -1.6191e-07
6.74259e-05 0.000394345 -2.33313e-07
-1.6191e-07 -2.33313e-07 0.000375464

0.000486525 3.80528e-05 -5.69979e-07
3.80528e-05 0.00038579 -9.3795e-07
-5.69979e-07 -9.3795e-07 0.000418237

0.000498281 3.43193e-05 -2.8304e-06
3.43193e-05 0.000386277 1.4835e-06
-2.8304e-06 1.4835e-06 0.000417683

0.000501424 -3.03089e-06 6.76612e-07
-3.03089e-06 0.000467701 1.93446e-07
6.76612e-07 1.93446e-07 0.000381886

0.000407146 -4.50729e-05 -5.67716e-07
-4.50729e-05 0.000438893 1.00923e-06
-5.67716e-07 1.00923e-06 0.000375629

0.000482466 3.06612e-05 -2.01365e-08
3.06612e-05 0.000372707 -1.04505e-07
-2.01365e-08 -1.04505e-07 0.000413092

0.000433226 2.46108e-05 2.88934e-07
2.46108e-05 0.000386286 1.0016e-07
2.88934e-07 1.0016e-07 0.000403419

0.00047802 3.94676e-05 -4.565e-08
3.94676e-05 0.000386487 1.36418e-08
-4.565e-08 1.36418e-08 0.000414401

0.000429165 -4.46417e-05 1.35788e-07
-4.46417e-05 0.000386996 -5.71325e-08
1.35788e-07 -5.71325e-08 0.000373065

0.000434895 -2.29268e-05 1.27287e-07
-2.29268e-05 0.000465233 -9.65004e-08
1.27287e-07 -9.65004e-08 0.000379495

0.000389213 -2.04077e-05 -1.35654e-07
-2.04077e-05 0.000372419 1.22615e-07
-1.35654e-07 1.22615e-07 0.000365532

0.000435859 3.97642e-05 2.78821e-07
3.97642e-05 0.000362328 -2.37384e-08
2.78821e-07 -2.37384e-08 0.000398752

0.000454895 2.29137e-05 -2.73987e-07
2.29137e-05 0.000370978 1.48423e-07
-2.73987e-07 1.48423e-07 0.00040294

0.000394514 -5.28948e-05 -1.21646e-07
-5.28948e-05 0.00037261 -4.90279e-08
-1.21646e-07 -4.90279e-08 0.000368168

0.000436407 -2.55286e-05 6.64518e-08
-2.55286e-05 0.000385592 9.55147e-09
6.64518e-08 9.55147e-09 0.00037439

SCALARS pressure float
LOOKUP_TABLE default
-1.81712
-0.054734
0.052277
-0.0363339
-1.51695
3.31712
3.36394
-1.71033
1.02594
-3.316
-3.66291
-3.55398
2.01128
1.94169
-0.0173734
0.905393
3.45938
3.44778
-0.28926
-3.9304
-4.10409
-4.38426
-1.3906
-1.54545
-0.925198
-1.88484
-0.0239074
-7.38468
1.2142
-7.4294
2.27663
2.30544
7.86768
7.90149
-4.42505
0.392673
2.84459
3.10468
1.02918
-1.68867
-2.36666
0.897426
-1.46798
-1.8688
0.610537
-2.43505
-7.17948
-7.16035
2.22653
-9.74137
-9.34149
2.47112
2.48794
-0.119538
3.16132
3.16714
-0.264609
6.39363
6.42714
1.33807
1.35675
-3.71588
6.07428
6.05078
-1.65858
-7.75286
-7.66279
0.657605
0.862735
10.524
10.5188
0.963633
0.798189
0.766085
1.43259
2.02847
-3.50898
-2.41466
3.63426
11.2084
11.0927
-4.20365
-0.156042
-0.879189
8.25889
8.24146
3.8404
0.161056
0.106767
0.77877
0.824446
-4.47933
-1.81853
1.81426
1.82912
-0.964267
-1.93343
0.44451
0.501062
-0.132303
0.684322
-2.5343
1.05398
0.692243
-1.88062
1.80801
-0.531096
-1.62379
-0.0618742
1.5744
1.55331
-3.65727
1.45042
-2.62249
-2.60572
-0.468782
2.54533
2.32263
-1.54569
-0.984185
-2.90589
-3.04424
-3.36143
-4.62719
-1.92871
11.2461
11.2059
-1.80696
-0.384407
-0.169818
-1.59348
1.82266
2.09352
0.697066
0.563236
-0.0673409
0.858838
-1.99242
1.07276
-2.4136
-4.41328
0.339391
-4.01621
-3.96161
-4.32279
-2.48533
-1.8548
-1.82006
-3.96483
-3.72221
1.20538
1.21364
-0.220522
1.80355
1.30044
-5.42164
-1.87929
1.93268
1.90895
-0.115008
-0.0816717
-13.3664
-13.2724
-1.72999
5.02416
5.02604
-1.10683
-5.34302
-1.82782
1.0866
0.975951
-2.29434
0.573696
-1.18124
1.139
2.10512
2.21547
-0.181933
0.0158704
-2.28181
0.671609
-0.022157
-0.75122
0.250166
-0.889675
1.47416
-6.63532
-6.63469
0.238147
-0.307137
8.302
8.30376
-0.288329
5.84349
5.92232
-0.208105
1.09028
-5.39677
-5.0316
-6.38614
-6.39275
-6.6806
0.615571
-5.40325
-5.67866
4.24166
4.24154
0.0973026
1.27123
-2.99797
-2.94813
0.00391623
-0.203986
3.38515
3.40249
0.474089
0.0615612
1.14057
-3.35198
-0.0202642
-7.76287
-0.752218
-0.876415
5.45892
5.45885
1.52924
1.54439
3.1538
3.01385
4.18702
4.16481
7.0896
7.09079
1.29296
1.31267
-0.610698
-0.991635
-1.12535
-4.63879
-0.677658
-0.984797
-1.09838
2.27136
2.3029
-1.09548
0.465769
12.0112
12.0014
0.17639
1.60638
2.61114
-6.73714
-6.73018
2.04578
2.06702
2.7039
-1.1249
-2.65248
0.769779
0.785076
12.6613
12.3455
0.724358
-0.958325
1.62594
1.60566
0.390011
0.911676
-7.89755
2.55284
2.57437
1.00662
-2.65954
0.551854
2.2957
2.33745
1.56732
2.82215
2.81035
7.98904
7.98456
-13.0879
-12.4602
0.417484
0.425589
0.636155
-10.1915
-10.1379
9.31242
9.31116
1.39445
-1.08798
0.892051
0.905047
-0.21915
-1.05777
-6.39625
-5.85848
-6.62126
-0.238092
-5.77518
-5.71019
1.59511
1.59633
1.82538
1.83598
-10.4517
-10.3038
-0.264754
-0.297244
6.32896
6.30581
1.67293
1.69498
3.65686
3.65851
1.15183
1.12893
7.02216
5.07571
7.40119
5.08043
7.40203
6.99579
7.50533
7.52511
7.30024
6.5989
6.59218
7.30516
5.20378
2.67475
8.62512
5.21276
8.62257
2.6839
4.17456
5.33195
4.17917
5.34307
0.358128
0.984018
0.50669
-0.968303
3.61234
3.06149
-0.798489
2.17483
-3.85867
-4.54082
-4.57423
1.83292
2.30501
-0.429239
2.99098
3.69772
0.194992
-3.66992
-3.88507
-4.32535
-1.68224
-1.12965
0.753395
-7.61149
2.13642
2.63915
2.10916
4.98369
6.51618
-0.129346
-1.37945
-3.56057
2.50856
2.75284
2.97693
-0.685727
2.77295
-2.31833
-0.808276
-2.01464
-1.76322
-1.41277
1.71121
1.08936
-1.61178
-1.53395
-19.3996
-19.7046
2.99748
2.43933
0.00689332
-12.2459
-12.6048
3.8797
3.38673
0.214185
3.89698
4.27888
0.480903
4.65052
5.75738
2.27221
2.1089
4.52656
6.45198
-7.38182
-7.37344
0.952763
1.57174
8.49886
12.0479
-1.78518
1.52326
1.53773
3.81223
-3.4135
7.14329
4.82842
0.208262
-0.612444
-4.15516
5.17245
8.55052
3.07712
0.503339
1.07796
1.46141
1.40375
-4.5472
-1.49153
2.54602
2.52331
-0.34035
0.916647
0.728178
0.352781
-2.26447
1.33469
2.44299
2.98327
0.996753
-1.77493
-6.74763
1.54978
-0.0224936
-6.54572
0.0626554
1.46036
1.77153
-1.68123
-4.19648
2.20242
1.39834
-2.30705
-2.58244
0.0701278
3.76058
3.9847
-1.78823
-0.422036
-3.40871
-3.74122
-4.08578
-1.52599
11.3833
3.71214
-1.9787
-1.59585
-5.80769
1.36308
-7.74438e-05
0.165999
-1.06189
3.3909
2.24757
-4.33959
-4.85174
-5.8145
0.98885
3.46233
1.2943
3.08405
1.17001
1.09133
-3.22723
-3.60518
-3.65887
-1.72402
-1.41699
-0.765759
-4.66819
-4.30019
1.09981
1.15125
1.52819
0.155808
3.339
2.06856
1.53404
-1.27555
2.67098
3.14485
-0.307526
0.901699
0.287424
-9.80356
-2.32629
-10.5246
-1.68186
5.97992
6.37763
-0.843091
-1.36231
-2.00601
1.27097
1.30933
2.38427
2.06463
1.22389
3.85786
0.472255
-0.606856
1.24355
0.878189
-2.4357
0.133579
-0.547815
-10.3747
-10.285
-4.41985
0.26577
8.94607
9.54913
3.83401
6.01182
1.22428
1.27551
3.61063
-8.16341
-7.69357
-6.46247
-6.5777
-6.70371
-3.6508
-7.72372
-7.55496
2.91359
4.53002
1.07784
3.92062
-3.13798
-2.85136
0.9304
4.50172
4.45511
0.926842
1.01582
0.287601
1.86823
1.25425
0.236959
-20.2818
-0.628347
-0.665813
3.33114
5.66964
2.15435
2.09896
2.53157
3.12218
2.55821
3.42077
8.81023
6.59967
2.10032
4.10367
-0.136463
0.157311
-0.150176
-0.647685
0.080819
-0.73974
-0.755279
3.35511
2.23239
1.10023
4.32009
12.3577
1.60748
3.15222
-9.78568
-9.39954
2.63955
2.40024
2.03907
0.0509167
-2.46616
2.3732
1.34234
4.45196
11.124
-0.178749
2.21522
2.17426
0.706109
1.58026
2.93038
1.10505
-20.9501
2.90956
2.59423
2.00671
1.19754
-2.0171
1.12323
2.10624
2.23161
2.03008
3.0808
3.36532
8.18085
5.60121
-11.1466
-10.62
0.920132
2.43206
-13.5376
-13.137
11.8325
10.7108
1.2429
1.61351
2.17043
-0.675291
-0.262355
-6.27617
-6.37254
-6.7049
0.261176
1.0335
-8.21849
-8.30912
3.38072
2.4003
2.94017
2.70894
-13.7585
-13.7584
0.14884
1.04405
4.49944
6.67448
3.42206
2.49455
5.04913
4.82063
2.11667
1.23048
6.73331
9.38695
7.02853
9.75679
5.3219
4.97371
7.44025
7.32211
10.0074
8.88647
3.3213
6.77191
7.08531
3.74932
10.8926
5.90041
7.15414
4.01548
4.54224
6.92669
5.65166
6.78516
-1.33664
0.561917
1.22896
0.324074
-0.903033
3.45754
3.65136
-1.18532
2.11861
-3.91773
-4.37664
-4.38807
2.74646
2.05538
0.588821
1.93226
3.54402
3.61981
0.214958
-3.7659
-3.74775
-4.32636
-0.770948
-1.64618
-0.308972
-1.41631
0.670394
-7.83579
1.62012
-8.05593
2.74021
2.72317
4.96654
4.96819
-4.00721
1.0887
2.52297
2.36691
2.59875
-1.33203
-1.76783
2.51689
-0.783757
-1.31967
1.03952
-2.35686
-19.474
-20.0982
3.33
-13.1409
-12.0436
3.56497
3.57743
0.165535
4.49356
4.46489
0.0547137
4.59683
4.63755
2.25398
2.26442
-4.63278
5.70564
6.12997
-1.33459
-7.37782
-7.45224
1.09724
1.72658
12.9331
12.5523
3.11788
1.66519
1.63326
2.31238
2.48897
-3.61971
-1.55867
-2.3566
2.97825
4.84963
4.81725
-4.19312
0.011018
-0.61986
6.3827
8.32038
2.98841
1.20205
0.820395
1.4514
1.49131
-4.76351
2.66845
2.64607
-0.634675
-1.39036
0.676777
0.710323
0.179942
1.44241
-1.94303
3.06753
1.20004
-1.77136
1.44907
-0.206125
-1.6756
-0.0101101
1.75922
1.73315
-4.26339
2.35806
-2.39305
-2.46465
0.236311
3.59771
3.33234
-1.17552
-0.426341
-3.46622
-3.52325
-4.13432
-4.8282
-1.67132
9.1596
7.46578
-1.66779
0.22294
0.0987424
-1.13937
3.89054
2.18801
1.45855
1.23502
1.46425
1.28947
-1.91136
3.11655
-2.25208
-4.498
1.12776
-3.41353
-3.39817
-3.79692
-2.22549
-1.00478
-1.00443
-4.34959
-4.46313
1.03653
1.03747
0.310764
4.06713
1.2963
-5.78897
-1.63404
2.77843
2.75792
-0.763269
0.334222
0.338806
-10.6215
-9.93474
-1.51569
6.61185
6.55967
-5.89907
1.63364
1.24888
-2.20314
1.22854
3.78545
2.28692
2.92854
0.356724
1.09327
-0.748978
-2.13651
-1.47147
1.29083
0.695155
-0.432926
1.0062
-0.620217
1.78924
-10.3378
-10.5005
0.263044
1.0266
9.99211
9.80147
0.300277
3.80305
3.78297
1.02519
3.89102
-8.26105
-7.79215
-6.71069
-6.59537
-6.75306
1.24479
-7.58318
-8.17947
4.19198
4.04044
0.883677
3.59956
-3.13858
-3.11981
0.787337
0.0804493
4.62583
4.62334
0.992233
1.15244
1.6492
-3.81981
1.42084
-20.3548
-0.454069
-0.637855
4.90354
4.87322
2.13951
2.14597
2.51635
2.5199
2.56267
2.55711
9.31761
9.16806
2.24601
2.25766
-0.0207446
0.118136
-0.543205
-0.414615
-4.71098
-0.0538824
-0.0377026
3.45184
3.46359
1.14447
6.70314
11.4042
0.620725
1.26797
2.10858
-0.605408
-9.96737
-9.56578
2.43828
2.47847
2.04865
-0.456971
-2.45606
1.48791
1.48209
4.43446
4.44254
1.18673
-0.144152
2.33512
2.33731
2.01894
3.10613
-20.8678
2.91366
2.89051
2.29019
-2.39249
1.07419
2.15576
2.09547
1.91628
3.50913
3.48879
7.47328
7.07435
-10.7188
-10.9802
1.13668
1.12525
1.18142
-13.1011
-13.447
10.7635
10.9358
1.34678
-0.623907
1.73908
1.74102
0.447267
-0.641538
-6.30866
-6.62193
-6.65084
0.424943
-8.30057
-8.11954
2.58179
2.56244
2.89881
2.91655
-13.8046
-13.9017
0.251556
0.237277
5.62067
6.35368
2.66641
2.72854
4.96421
4.95157
2.09593
2.08292
6.8873
9.60653
6.88118
9.68745
7.19414
4.9699
4.96557
6.26278
10.545
10.0205
10.4647
9.65787
7.38208
3.97672
11.6514
7.38925
4.01108
11.4067
5.93516
7.05369
5.89895
7.01677
-1.78114
1.00717
0.382221
0.423454
-0.860847
3.0587
3.61085
-0.881339
2.7576
-4.26196
-4.20809
-4.4819
2.25626
1.82706
0.0343508
0.070228
1.13271
3.712
2.99395
0.241738
-3.94105
-3.52413
-4.19442
-1.2479
-1.41912
0.828842
-7.77507
1.79481
2.11126
2.65713
6.49061
4.97738
0.0348166
-0.845073
-3.47846
2.92745
2.35376
2.65536
2.64419
-2.17962
-2.02541
-1.80547
1.7246
-1.28054
-0.75915
-19.825
-19.3072
3.01675
0.485292
-12.0051
-12.7387
3.37564
3.87595
0.215975
4.31018
3.89417
5.71416
4.68592
2.10611
2.27375
4.52275
6.37792
-1.41532
-7.24825
-7.31892
1.58613
1.06528
12.4098
8.46375
-2.0237
1.1707
1.54233
1.51407
1.61893
2.31792
3.0892
-3.4789
4.83999
7.12941
0.0733767
-0.294739
-4.27468
8.565
5.17228
3.91295
1.07332
0.487707
1.49013
1.39115
-4.75066
-1.35295
2.56407
2.50898
-0.667151
-1.50948
0.688948
0.9508
0.519888
-1.98728
2.44015
1.18049
2.98126
-1.74785
-6.66712
1.89497
-0.141712
-6.44961
0.0437722
1.78448
1.44849
-1.83468
-4.28557
1.93581
-2.49999
-2.44946
-0.0145896
4.17231
3.48357
-1.62955
-1.27819
-3.61418
-3.58209
-4.11186
-1.76218
11.5098
3.71171
-1.9234
-1.64417
-5.89133
1.33912
0.15437
2.32944
3.39315
-4.13522
-4.59017
1.36533
-5.84252
3.46785
0.118811
1.29911
3.0844
-0.518042
-3.60073
-3.23302
-3.82441
-2.35088
-0.710116
-1.4772
-4.58886
-4.43639
1.14806
1.10383
1.49866
3.33932
1.37596
3.15756
2.65473
0.28559
0.900221
-9.92856
-2.02948
-10.5592
0.551174
-1.67933
-1.15236
6.43042
5.9698
-0.346652
-1.52058
-1.83036
1.25453
1.26705
0.976134
-0.800019
1.3355
2.06531
2.47575
0.227355
0.174106
3.85769
-0.472166
-0.601855
1.24804
-1.87487
0.479768
1.91218
-10.3076
-10.2389
-4.23199
0.885534
0.224923
8.91733
9.7285
0.171209
5.98342
3.80993
1.11722
3.60983
-7.92246
-7.96044
-6.60019
-6.43872
-6.79777
-3.94885
1.15806
-7.88583
-7.5641
2.91458
4.56059
0.920355
3.9973
-2.77864
-3.16683
1.13303
0.0538635
4.45637
4.50675
1.0592
1.28779
1.67827
1.09932
-20.5551
-0.689997
-0.688836
3.32898
5.66557
2.07577
2.16448
3.28912
2.54417
3.46147
2.58212
8.95308
6.58715
2.09098
4.10467
0.0750624
0.170733
-0.709969
-0.153041
-0.716127
-0.0232952
-0.205514
2.37
3.32555
-0.682527
1.31768
4.3213
12.2563
0.584909
1.32293
2.09333
-9.84533
-9.47477
2.37106
2.68642
3.15582
-2.09562
1.35104
2.3699
11.0308
4.4266
1.12147
-0.110381
2.18324
2.2167
1.568
2.91754
-20.6999
2.72382
2.82155
2.0219
-2.3669
0.951462
2.0831
2.15064
2.16183
3.08384
3.38633
5.60183
8.17758
-10.9735
-10.6358
0.919334
2.42739
0.930676
-13.5348
-13.0539
11.7802
10.8815
1.4065
-0.684531
1.61686
2.16728
0.32061
-0.231567
-5.95979
-6.5936
-6.70861
1.02312
-8.06967
-8.30617
2.4218
3.37805
2.69817
2.94035
-13.8059
-13.8708
1.03633
0.1521
4.49839
6.65285
2.43765
3.42438
4.83507
5.04082
1.49353
1.91241
7.37975
7.36505
4.98703
5.32389
7.0204
9.72724
6.73147
9.46547
10.0859
6.76861
3.31724
9.224
7.07668
3.71681
5.89846
4.00804
7.13847
11.1281
5.68741
6.81938
4.54288
6.91427
1.02228
-0.176256
-0.128419
-1.67151
3.071
2.50089
-1.57674
1.04322
-4.55106
-4.7717
-4.40555
1.31162
1.88487
-0.967325
2.48487
3.13946
0.41615
-4.31325
-3.71761
-4.18351
-1.81747
-1.33025
-2.26636
0.0285271
-8.10232
1.17546
-8.00479
2.16077
1.75308
7.53747
7.54821
-4.49822
-0.25152
2.6364
3.67414
1.09466
-0.691706
-1.60842
-2.1567
1.03943
-2.06346
-0.815037
-2.0244
-1.27216
0.230277
1.54645
-2.45266
-19.9929
-20.1161
1.52285
3.26879
-12.5784
-12.5522
2.59224
2.13098
1.51217
3.10485
3.03511
0.373257
-0.450033
6.22369
6.58409
1.94189
1.49662
-4.96429
4.5431
4.69477
-7.77051
-8.01707
1.605
0.549876
3.72566
7.1338
1.32735
1.18117
-4.24805
-1.11566
-2.63781
3.4848
10.9858
10.7176
-4.7827
0.174294
0.145898
6.49218
5.22862
3.76876
-0.104311
1.13028
2.26757
2.33321
-5.04172
2.4413
2.7309
0.0223893
1.66511
1.91308
0.0223247
2.22086
0.471749
-2.82673
1.0554
3.01202
-1.61504
1.94586
-0.792148
-2.06827
-0.250194
0.958656
1.48086
-4.54698
2.71238
1.04996
-3.14841
-2.47108
0.0173553
2.67505
2.2676
-0.448965
-4.10282
-3.68474
-3.98011
-4.54676
-2.14461
9.12607
3.69249
-1.62977
1.39359
-0.230671
1.17532
-2.2147
-1.21637
3.39978
1.36821
3.19759
0.911694
4.22862
-1.95705
0.648606
3.72339
-1.71269
-4.74151
1.2817
-4.20783
-3.37856
-3.87818
-2.46417
-0.754328
-1.9504
-5.12178
-4.39537
3.17767
3.52941
1.2504
-0.227191
1.28004
3.59598
1.39194
-6.33456
-2.12018
-1.23177
2.31679
2.04673
-0.80525
0.807621
0.451642
-10.4702
-10.4466
3.92138
4.4516
-0.368593
-6.31226
0.551881
1.44264
-2.2374
2.16008
2.02234
-2.73056
-0.845329
3.72174
0.342799
-0.462497
0.657432
1.03982
0.262595
-0.655599
-1.34282
-10.9513
-10.9817
0.554918
4.45325
6.41006
4.74446
5.55897
-0.199621
0.801288
4.12388
-8.38716
-8.38073
-7.03855
-6.64802
-7.02802
-8.34984
-8.29404
3.01227
3.03966
0.126258
1.27107
-3.56134
-2.88312
0.0937497
3.21963
3.29392
0.361626
1.50244
-0.315873
1.10291
-4.42562
1.40653
-0.25415
-21.1434
-0.534698
-1.09724
3.39784
4.15424
3.81453
4.42179
2.72533
3.11358
3.89621
4.48501
4.4904
5.35477
3.60009
0.735318
-0.0213482
-1.17254
0.145291
-0.976926
-5.03428
-0.542405
-0.212876
4.30345
2.04486
0.948431
4.31301
8.56793
1.45554
2.50577
-10.7886
-10.3821
2.88333
3.45036
2.56602
-1.24773
0.0252284
-1.86248
1.70639
0.8654
11.6382
7.78904
-1.03942
1.9733
2.22397
1.62623
0.0115601
0.377729
3.21224
-22.6964
2.20229
3.71865
2.41293
0.590685
-2.1963
1.40154
2.21968
3.2764
1.75442
2.16577
3.22585
5.65989
6.11207
-11.3704
-11.6366
2.07249
0.624374
-14.4546
-14.2455
5.39611
3.89164
1.90289
1.83178
0.774156
-0.532045
-1.31804
-7.20591
-6.22938
-7.08394
0.9653
-0.191589
-8.48893
-8.70232
2.54255
1.22709
2.55058
1.76838
-14.5436
-14.7062
0.746713
-0.132063
4.7323
4.55152
2.96257
1.39042
3.75401
3.79635
0.708111
2.49785
5.18814
7.21538
6.24136
5.41758
4.64839
4.83316
5.15289
5.72195
5.63476
2.91987
6.42785
4.8121
4.75177
2.5541
4.75681
3.89997
6.05889
2.0574
3.82071
4.17386
3.47927
4.25275
0.82287
0.0561774
0.263003
1.59218
1.17242
0.457781
1.22941
1.27558
1.54097
0.682453
0.631398
0.122466
0.447939
-0.205606
1.06554
1.12755
1.29854
0.465234
-0.0781576
0.566424
0.565345
0.125924
0.928788
1.31251
1.1474
0.145261
1.38369
0.559771
2.08899
0.268913
0.328588
0.563982
5.07123
5.07233
0.885119
1.35076
2.65145
2.79364
1.2014
0.0318761
1.00161
1.33117
0.887046
0.831815
-0.0921371
1.02049
0.691032
0.518708
1.34326
0.407358
0.605258
0.00376323
0.0027816
-0.139484
-0.00721076
-0.00726415
0.0313381
4.74278
4.77455
-0.0886557
-0.0909368
0.949795
2.50837
0.50505
0.0368329
0.573244
0.652611
-0.0175885
0.936264
0.442387
0.446018
0.52695
-0.104902
-0.10916
1.71861
-0.305168
0.988625
1.24311
3.10684
7.14495
7.15851
0.754895
1.50896
-0.0633994
0.955321
2.56208
3.22931
0.343809
0.167168
-0.156219
-0.15441
0.177431
-0.0178172
-0.12261
-0.123827
-0.0544409
0.148292
-0.109116
-0.113684
1.66317
-0.25597
0.93316
0.923315
-0.368008
0.0259426
2.29316
1.54873
1.12102
1.55928
0.790992
0.604085
0.142509
1.73251
0.141598
0.15939
1.32742
2.44421
2.37893
0.630001
1.20963
0.452913
0.439073
0.109283
0.208309
0.0481018
0.672642
1.61116
0.0105457
-0.166527
-0.125484
0.608457
-0.539759
1.47457
-0.256037
-0.297606
0.698792
-0.263792
0.0640641
0.9422
-0.00348691
0.86183
1.29966
0.329684
0.333739
0.105406
0.0109244
0.267581
0.242331
0.2058
0.189368
-0.249216
-0.251645
-0.18777
1.2473
2.07191
0.754976
0.217262
-0.060041
-0.0621357
-0.0607526
-0.0597572
0.448403
0.230153
0.206155
0.138819
0.1403
-0.0532455
0.919609
-0.0177865
0.909085
0.166764
1.00245
-0.299081
-0.0477726
1.46709
-0.356765
0.623609
-0.166825
1.25352
1.07455
-0.531188
0.990658
0.69894
-0.0910332
0.306793
-0.646822
0.714453
0.783003
-0.0920384
-0.0849171
0.405711
0.408388
-0.150205
4.33528
4.37681
1.21179
1.43911
0.270351
0.779816
0.370388
0.390898
0.208299
-0.545626
0.573967
0.243619
1.26819
0.0714339
1.34452
1.85936
0.217513
0.21445
1.60772
0.0153051
0.124899
0.124706
1.5606
1.2821
1.75925
0.98583
0.774847
0.784802
0.672946
0.370188
0.724047
0.982296
-0.195943
-0.190349
2.7126
2.78887
3.27713
3.329
0.298179
0.300671
-0.325195
-0.329481
-0.0357589
0.444622
0.088286
0.853862
-0.0427153
0.455243
0.0199217
2.21373
2.23603
0.0267406
1.51103
3.1932
0.0932511
-0.176064
2.20404
2.23486
0.365306
0.29399
-0.193592
-0.195639
2.27836
0.125084
0.0244354
-0.0654235
-0.0676479
8.23672
8.26501
-0.237712
1.19107
-0.0342505
-0.0352666
0.340583
0.467799
0.546268
2.03248
2.06842
1.3199
0.0362562
1.60854
2.43823
2.46195
2.0394
-0.0426452
-0.042166
1.41679
1.75271
0.426252
0.483849
-0.164592
-0.170844
-0.350605
0.416997
0.365721
0.50931
0.50675
2.12444
-0.0318055
-0.158909
-0.160974
-0.0903173
-0.0257277
0.388158
0.361903
0.176093
-0.0923106
0.547274
0.772054
-0.126265
-0.127988
-0.123589
-0.125603
0.592195
0.530151
-0.0901976
-0.0839002
1.94886
0.900714
-0.248851
-0.255906
-0.00426236
-0.00458003
1.44388
1.44256
2.84972
5.60741
0.24799
0.366415
0.246061
0.364234
0.652357
5.60561
0.430821
0.465916
0.463649
0.428249
0.265896
0.0339749
0.430254
0.26421
0.427337
0.0330741
0.0307306
0.311949
0.0311212
0.312854
-1.2751
-0.173382
1.047
-0.0243262
-1.46539
2.48911
3.14646
-1.79586
1.01999
-4.03957
-5.26887
-4.64247
1.29148
1.90964
0.562746
1.81131
3.10951
2.47266
0.529311
-3.71
-4.2928
-4.31742
-0.770681
-1.99312
-0.305669
-2.23394
-0.0576643
-7.8633
1.21094
-8.25888
1.74401
2.16131
7.57096
7.54992
-4.71326
1.25251
3.42398
2.91176
1.13787
-1.61383
-2.63977
0.929178
-1.97117
-2.10075
0.244835
-3.01091
-20.0945
-20.7622
1.50138
-13.0937
-12.5861
2.11381
2.58777
1.4024
2.99014
3.11936
-0.449539
6.26031
6.54633
1.48298
1.9434
-5.16432
4.68801
4.58034
-0.609532
-8.05054
-8.14716
0.54171
1.69209
7.07381
3.73018
3.13623
1.14268
1.33651
2.65678
3.05188
-4.13322
-1.06198
-2.51001
3.60496
11.0556
10.8183
-4.41285
-0.491243
0.0133501
5.22694
6.48216
3.6775
-0.125686
1.10407
2.29097
2.32993
-4.58839
2.73079
2.41226
0.154392
-1.25742
1.79923
1.77055
-0.284126
0.493545
-2.20808
3.66255
1.05227
-1.74507
1.63038
-0.301355
-1.58592
0.195201
1.50821
0.936505
-4.31934
1.21857
-2.46789
-3.04811
-0.555218
2.47846
2.40671
-1.2283
-1.12615
-3.52954
-4.26508
-3.99282
-4.92849
-1.69623
3.69135
9.10309
-1.47403
-0.221299
1.28336
-2.29895
3.53899
1.37392
2.21174
0.913583
1.52467
4.2305
-2.35852
0.631396
-2.43223
-5.15402
0.0437041
-3.38803
-4.17607
-3.69085
-1.81978
-0.768593
-1.94401
-4.60195
-4.98054
3.45836
3.24276
-0.217765
1.2522
1.83718
-6.19154
-2.10257
2.01547
2.34323
0.455023
0.812502
-10.1057
-10.4773
-1.06012
4.42525
3.9206
-0.775355
-6.26384
0.532667
1.32398
-2.74078
3.23185
-0.384346
3.97675
2.02057
2.15326
1.30143
1.42597
-2.45732
-0.909053
0.376525
-0.52639
-0.517169
0.275788
-1.34627
3.52949
-11.1793
-11.1821
0.435531
1.02697
6.40397
4.46026
1.39221
5.62185
4.71064
0.00563205
0.784097
-8.85096
-7.98525
-6.62937
-7.04704
-6.8564
3.88719
-7.91882
-8.40937
2.98038
3.03143
0.615385
1.33925
-2.81144
-3.54719
0.0362525
0.515889
3.26309
3.22766
1.23656
-0.244023
1.33644
-3.89978
-0.311955
-21.0063
-1.10241
-0.727398
3.42071
4.14331
4.42419
3.82419
3.09848
2.92161
4.47422
3.89532
5.26356
4.49599
0.777695
3.61746
-0.470209
-1.26622
0.247775
-5.48806
-0.0897952
-0.044583
-0.986216
4.29729
2.04843
-0.188487
0.364911
8.55315
4.31291
1.64291
1.75151
2.54161
-10.2819
-9.98195
3.34071
2.99658
2.58811
-1.22346
-2.1904
0.862512
1.71805
11.9504
7.8222
2.137
-0.447053
2.18477
1.9985
-0.0316556
0.375555
-21.9713
3.67531
2.24339
0.56278
-1.88668
0.343905
3.22174
2.10415
1.52383
3.23668
2.14456
6.10596
5.65232
-11.7301
-11.6273
0.631555
2.10432
2.97969
-13.9662
-13.9693
3.8993
5.40826
1.21949
-0.552409
0.774668
1.82974
0.997545
-1.27363
-6.51859
-6.94545
-6.92922
-0.182175
-8.88874
-8.69697
1.21131
2.55703
1.75398
2.55577
-14.662
-14.6189
-0.117632
0.727124
4.7196
4.55896
1.41777
2.90798
3.7708
3.7617
2.4592
0.808583
7.18089
5.18389
5.15022
5.70064
4.64655
4.84092
5.38749
6.23562
4.59872
6.35631
2.91773
5.64826
3.76014
2.00996
5.92989
4.76933
4.76084
2.57358
3.39513
4.2106
3.82878
4.18535
